# step Hamiltonian StressXX CellTensor1 CellTensor2 CellTensor3 CellTensor4 
0 5.2278028599e+00 4.2839130690e-02 2.2220832177e+00 -3.8487610317e+00 2.2220832177e+00 3.8487610317e+00 
100 5.2169475810e+00 5.0338393481e-02 2.2220832177e+00 -3.8487610317e+00 2.2220832177e+00 3.8487610317e+00 
200 5.2061523709e+00 5.6810382033e-02 2.2209506293e+00 -3.8467993310e+00 2.2209506293e+00 3.8467993310e+00 
300 5.1954953505e+00 6.2637798864e-02 2.2196717867e+00 -3.8445843106e+00 2.2196717867e+00 3.8445843106e+00 
400 5.1850108507e+00 6.7873198613e-02 2.2182609664e+00 -3.8421406982e+00 2.2182609664e+00 3.8421406982e+00 
500 5.1747276678e+00 7.2563069125e-02 2.2167312683e+00 -3.8394911834e+00 2.2167312683e+00 3.8394911834e+00 
600 5.1646697886e+00 7.6748710174e-02 2.2150947566e+00 -3.8366566620e+00 2.2150947566e+00 3.8366566620e+00 
700 5.1548570119e+00 8.0466990648e-02 2.2133625802e+00 -3.8336564444e+00 2.2133625802e+00 3.8336564444e+00 
800 5.1453054804e+00 8.3750996461e-02 2.2115450748e+00 -3.8305084328e+00 2.2115450748e+00 3.8305084328e+00 
900 5.1360281360e+00 8.6630581678e-02 2.2096518501e+00 -3.8272292714e+00 2.2096518501e+00 3.8272292714e+00 
1000 5.1270351090e+00 8.9132834951e-02 2.2076918635e+00 -3.8238344750e+00 2.2076918635e+00 3.8238344750e+00 
1100 5.1183340539e+00 9.1282472622e-02 2.2056734831e+00 -3.8203385376e+00 2.2056734831e+00 3.8203385376e+00 
1200 5.1099304379e+00 9.3102168894e-02 2.2036045416e+00 -3.8167550259e+00 2.2036045416e+00 3.8167550259e+00 
1300 5.1018277922e+00 9.4612832390e-02 2.2014923823e+00 -3.8130966586e+00 2.2014923823e+00 3.8130966586e+00 
1400 5.0940279308e+00 9.5833837375e-02 2.1993438982e+00 -3.8093753750e+00 2.1993438982e+00 3.8093753750e+00 
1500 5.0865311441e+00 9.6783216842e-02 2.1971655668e+00 -3.8056023943e+00 2.1971655668e+00 3.8056023943e+00 
1600 5.0793363691e+00 9.7477823705e-02 2.1949634790e+00 -3.8017882663e+00 2.1949634790e+00 3.8017882663e+00 
1700 5.0724413430e+00 9.7933465453e-02 2.1927433652e+00 -3.7979429165e+00 2.1927433652e+00 3.7979429165e+00 
1800 5.0658427407e+00 9.8165016788e-02 2.1905106182e+00 -3.7940756852e+00 2.1905106182e+00 3.7940756852e+00 
1900 5.0595362995e+00 9.8186514100e-02 2.1882703126e+00 -3.7901953620e+00 2.1882703126e+00 3.7901953620e+00 
2000 5.0535169334e+00 9.8011234988e-02 2.1860272231e+00 -3.7863102172e+00 2.1860272231e+00 3.7863102172e+00 
2100 5.0477788373e+00 9.7651765502e-02 2.1837858406e+00 -3.7824280287e+00 2.1837858406e+00 3.7824280287e+00 
2200 5.0423155837e+00 9.7120057322e-02 2.1815503859e+00 -3.7785561076e+00 2.1815503859e+00 3.7785561076e+00 
2300 5.0371202113e+00 9.6427476717e-02 2.1793248236e+00 -3.7747013207e+00 2.1793248236e+00 3.7747013207e+00 
2400 5.0321853079e+00 9.5584846758e-02 2.1771128738e+00 -3.7708701112e+00 2.1771128738e+00 3.7708701112e+00 
2500 5.0275030862e+00 9.4602484038e-02 2.1749180228e+00 -3.7670685177e+00 2.1749180228e+00 3.7670685177e+00 
2600 5.0230654552e+00 9.3490230855e-02 2.1727435339e+00 -3.7633021925e+00 2.1727435339e+00 3.7633021925e+00 
2700 5.0188640855e+00 9.2257483685e-02 2.1705924565e+00 -3.7595764173e+00 2.1705924565e+00 3.7595764173e+00 
2800 5.0148904699e+00 9.0913218580e-02 2.1684676354e+00 -3.7558961191e+00 2.1684676354e+00 3.7558961191e+00 
2900 5.0111359799e+00 8.9466013999e-02 2.1663717186e+00 -3.7522658846e+00 2.1663717186e+00 3.7522658846e+00 
3000 5.0075919163e+00 8.7924071497e-02 2.1643071655e+00 -3.7486899738e+00 2.1643071655e+00 3.7486899738e+00 
3100 5.0042495572e+00 8.6295234592e-02 2.1622762545e+00 -3.7451723327e+00 2.1622762545e+00 3.7451723327e+00 
3200 5.0011002005e+00 8.4587006062e-02 2.1602810897e+00 -3.7417166059e+00 2.1602810897e+00 3.7417166059e+00 
3300 4.9981352030e+00 8.2806563905e-02 2.1583236079e+00 -3.7383261480e+00 2.1583236079e+00 3.7383261480e+00 
3400 4.9953460158e+00 8.0960776090e-02 2.1564055849e+00 -3.7350040347e+00 2.1564055849e+00 3.7350040347e+00 
3500 4.9927242155e+00 7.9056214270e-02 2.1545286416e+00 -3.7317530736e+00 2.1545286416e+00 3.7317530736e+00 
3600 4.9902615320e+00 7.7099166529e-02 2.1526942500e+00 -3.7285758141e+00 2.1526942500e+00 3.7285758141e+00 
3700 4.9879498737e+00 7.5095649276e-02 2.1509037387e+00 -3.7254745576e+00 2.1509037387e+00 3.7254745576e+00 
3800 4.9857813482e+00 7.3051418339e-02 2.1491582983e+00 -3.7224513662e+00 2.1491582983e+00 3.7224513662e+00 
3900 4.9837482811e+00 7.0971979334e-02 2.1474589870e+00 -3.7195080726e+00 2.1474589870e+00 3.7195080726e+00 
4000 4.9818432310e+00 6.8862597347e-02 2.1458067349e+00 -3.7166462881e+00 2.1458067349e+00 3.7166462881e+00 
4100 4.9800590028e+00 6.6728305989e-02 2.1442023498e+00 -3.7138674115e+00 2.1442023498e+00 3.7138674115e+00 
4200 4.9783886574e+00 6.4573915857e-02 2.1426465211e+00 -3.7111726372e+00 2.1426465211e+00 3.7111726372e+00 
4300 4.9768255198e+00 6.2404022438e-02 2.1411398251e+00 -3.7085629631e+00 2.1411398251e+00 3.7085629631e+00 
4400 4.9753631848e+00 6.0223013497e-02 2.1396827287e+00 -3.7060391983e+00 2.1396827287e+00 3.7060391983e+00 
4500 4.9739955204e+00 5.8035075983e-02 2.1382755947e+00 -3.7036019706e+00 2.1382755947e+00 3.7036019706e+00 
4600 4.9727166701e+00 5.5844202481e-02 2.1369186851e+00 -3.7012517343e+00 2.1369186851e+00 3.7012517343e+00 
4700 4.9715210522e+00 5.3654197244e-02 2.1356121659e+00 -3.6989887765e+00 2.1356121659e+00 3.6989887765e+00 
4800 4.9704033591e+00 5.1468681837e-02 2.1343561107e+00 -3.6968132252e+00 2.1343561107e+00 3.6968132252e+00 
4900 4.9693585542e+00 4.9291100424e-02 2.1331505051e+00 -3.6947250550e+00 2.1331505051e+00 3.6947250550e+00 
5000 4.9683818676e+00 4.7124724725e-02 2.1319952503e+00 -3.6927240950e+00 2.1319952503e+00 3.6927240950e+00 
5100 4.9674687915e+00 4.4972658671e-02 2.1308901669e+00 -3.6908100344e+00 2.1308901669e+00 3.6908100344e+00 
5200 4.9666150735e+00 4.2837842788e-02 2.1298349988e+00 -3.6889824297e+00 2.1298349988e+00 3.6889824297e+00 
5300 4.9658167102e+00 4.0723058337e-02 2.1288294169e+00 -3.6872407108e+00 2.1288294169e+00 3.6872407108e+00 
5400 4.9650699395e+00 3.8630931226e-02 2.1278730226e+00 -3.6855841872e+00 2.1278730226e+00 3.6855841872e+00 
5500 4.9643712319e+00 3.6563935741e-02 2.1269653513e+00 -3.6840120545e+00 2.1269653513e+00 3.6840120545e+00 
5600 4.9637172825e+00 3.4524398089e-02 2.1261058763e+00 -3.6825234000e+00 2.1261058763e+00 3.6825234000e+00 
5700 4.9631050016e+00 3.2514499806e-02 2.1252940118e+00 -3.6811172094e+00 2.1252940118e+00 3.6811172094e+00 
5800 4.9625315054e+00 3.0536281030e-02 2.1245291164e+00 -3.6797923718e+00 2.1245291164e+00 3.6797923718e+00 
5900 4.9619941064e+00 2.8591643668e-02 2.1238104970e+00 -3.6785476864e+00 2.1238104970e+00 3.6785476864e+00 
6000 4.9614903042e+00 2.6682354478e-02 2.1231374112e+00 -3.6773818677e+00 2.1231374112e+00 3.6773818677e+00 
6100 4.9610177750e+00 2.4810048072e-02 2.1225090713e+00 -3.6762935511e+00 2.1225090713e+00 3.6762935511e+00 
6200 4.9605743627e+00 2.2976229872e-02 2.1219246472e+00 -3.6752812989e+00 2.1219246472e+00 3.6752812989e+00 
6300 4.9601580689e+00 2.1182279023e-02 2.1213832696e+00 -3.6743436052e+00 2.1213832696e+00 3.6743436052e+00 
6400 4.9597670437e+00 1.9429451273e-02 2.1208840329e+00 -3.6734789019e+00 2.1208840329e+00 3.6734789019e+00 
6500 4.9593995762e+00 1.7718881849e-02 2.1204259986e+00 -3.6726855632e+00 2.1204259986e+00 3.6726855632e+00 
6600 4.9590540855e+00 1.6051588322e-02 2.1200081981e+00 -3.6719619116e+00 2.1200081981e+00 3.6719619116e+00 
6700 4.9587291121e+00 1.4428473476e-02 2.1196296356e+00 -3.6713062222e+00 2.1196296356e+00 3.6713062222e+00 
6800 4.9584233093e+00 1.2850328196e-02 2.1192892911e+00 -3.6707167281e+00 2.1192892911e+00 3.6707167281e+00 
6900 4.9581354350e+00 1.1317834376e-02 2.1189861229e+00 -3.6701916254e+00 2.1189861229e+00 3.6701916254e+00 
7000 4.9578643439e+00 9.8315678499e-03 2.1187190708e+00 -3.6697290775e+00 2.1187190708e+00 3.6697290775e+00 
7100 4.9576089799e+00 8.3920013586e-03 2.1184870582e+00 -3.6693272200e+00 2.1184870582e+00 3.6693272200e+00 
7200 4.9573683693e+00 6.9995075510e-03 2.1182889954e+00 -3.6689841651e+00 2.1182889954e+00 3.6689841651e+00 
7300 4.9571416136e+00 5.6543620234e-03 2.1181237815e+00 -3.6686980062e+00 2.1181237815e+00 3.6686980062e+00 
7400 4.9569278835e+00 4.3567463993e-03 2.1179903071e+00 -3.6684668219e+00 2.1179903071e+00 3.6684668219e+00 
7500 4.9567264128e+00 3.1067514503e-03 2.1178874570e+00 -3.6682886803e+00 2.1178874570e+00 3.6682886803e+00 
7600 4.9565364928e+00 1.9043802583e-03 2.1178141119e+00 -3.6681616428e+00 2.1178141119e+00 3.6681616428e+00 
7700 4.9563574672e+00 7.4955141817e-04 2.1177691511e+00 -3.6680837684e+00 2.1177691511e+00 3.6680837684e+00 
7800 4.9561887268e+00 -3.5789772119e-04 2.1177514544e+00 -3.6680531168e+00 2.1177514544e+00 3.6680531168e+00 
7900 4.9560297059e+00 -1.4182077784e-03 2.1177599043e+00 -3.6680677526e+00 2.1177599043e+00 3.6680677526e+00 
8000 4.9558798771e+00 -2.4316940280e-03 2.1177933881e+00 -3.6681257481e+00 2.1177933881e+00 3.6681257481e+00 
8100 4.9557387485e+00 -3.3987430575e-03 2.1178507994e+00 -3.6682251874e+00 2.1178507994e+00 3.6682251874e+00 
8200 4.9556058597e+00 -4.3198093998e-03 2.1179310403e+00 -3.6683641687e+00 2.1179310403e+00 3.6683641687e+00 
8300 4.9554807786e+00 -5.1954121414e-03 2.1180330229e+00 -3.6685408078e+00 2.1180330229e+00 3.6685408078e+00 
8400 4.9553630991e+00 -6.0261315157e-03 2.1181556712e+00 -3.6687532409e+00 2.1181556712e+00 3.6687532409e+00 
8500 4.9552524381e+00 -6.8126054838e-03 2.1182979223e+00 -3.6689996270e+00 2.1182979223e+00 3.6689996270e+00 
8600 4.9551484332e+00 -7.5555263083e-03 2.1184587281e+00 -3.6692781508e+00 2.1184587281e+00 3.6692781508e+00 
8700 4.9550507413e+00 -8.2556371288e-03 2.1186370566e+00 -3.6695870249e+00 2.1186370566e+00 3.6695870249e+00 
8800 4.9549590359e+00 -8.9137285417e-03 2.1188318933e+00 -3.6699244919e+00 2.1188318933e+00 3.6699244919e+00 
8900 4.9548730065e+00 -9.5306351927e-03 2.1190422421e+00 -3.6702888267e+00 2.1190422421e+00 3.6702888267e+00 
9000 4.9547923564e+00 -1.0107232388e-02 2.1192671268e+00 -3.6706783385e+00 2.1192671268e+00 3.6706783385e+00 
9100 4.9547168023e+00 -1.0644432730e-02 2.1195055918e+00 -3.6710913720e+00 2.1195055918e+00 3.6710913720e+00 
9200 4.9546460726e+00 -1.1143182787e-02 2.1197567033e+00 -3.6715263098e+00 2.1197567033e+00 3.6715263098e+00 
9300 4.9545799071e+00 -1.1604459794e-02 2.1200195498e+00 -3.6719815733e+00 2.1200195498e+00 3.6719815733e+00 
9400 4.9545180561e+00 -1.2029268408e-02 2.1202932433e+00 -3.6724556243e+00 2.1202932433e+00 3.6724556243e+00 
9500 4.9544602797e+00 -1.2418637506e-02 2.1205769195e+00 -3.6729469660e+00 2.1205769195e+00 3.6729469660e+00 
9600 4.9544063476e+00 -1.2773617044e-02 2.1208697390e+00 -3.6734541441e+00 2.1208697390e+00 3.6734541441e+00 
9700 4.9543560383e+00 -1.3095274974e-02 2.1211708871e+00 -3.6739757480e+00 2.1211708871e+00 3.6739757480e+00 
9800 4.9543091394e+00 -1.3384694238e-02 2.1214795749e+00 -3.6745104110e+00 2.1214795749e+00 3.6745104110e+00 
9900 4.9542654466e+00 -1.3642969829e-02 2.1217950393e+00 -3.6750568114e+00 2.1217950393e+00 3.6750568114e+00 
10000 4.9542247644e+00 -1.3871205933e-02 2.1221165434e+00 -3.6756136727e+00 2.1221165434e+00 3.6756136727e+00 
10100 4.9541869050e+00 -1.4070513156e-02 2.1224433766e+00 -3.6761797644e+00 2.1224433766e+00 3.6761797644e+00 
10200 4.9541516892e+00 -1.4242005844e-02 2.1227748549e+00 -3.6767539017e+00 2.1227748549e+00 3.6767539017e+00 
10300 4.9541189454e+00 -1.4386799485e-02 2.1231103210e+00 -3.6773349461e+00 2.1231103210e+00 3.6773349461e+00 
10400 4.9540885103e+00 -1.4506008225e-02 2.1234491442e+00 -3.6779218051e+00 2.1234491442e+00 3.6779218051e+00 
10500 4.9540602283e+00 -1.4600742466e-02 2.1237907205e+00 -3.6785134326e+00 2.1237907205e+00 3.6785134326e+00 
10600 4.9540339518e+00 -1.4672106583e-02 2.1241344723e+00 -3.6791088281e+00 2.1241344723e+00 3.6791088281e+00 
10700 4.9540095409e+00 -1.4721196738e-02 2.1244798483e+00 -3.6797070370e+00 2.1244798483e+00 3.6797070370e+00 
10800 4.9539868637e+00 -1.4749098810e-02 2.1248263237e+00 -3.6803071499e+00 2.1248263237e+00 3.6803071499e+00 
10900 4.9539657956e+00 -1.4756886429e-02 2.1251733991e+00 -3.6809083021e+00 2.1251733991e+00 3.6809083021e+00 
11000 4.9539462202e+00 -1.4745619125e-02 2.1255206011e+00 -3.6815096736e+00 2.1255206011e+00 3.6815096736e+00 
11100 4.9539280281e+00 -1.4716340592e-02 2.1258674813e+00 -3.6821104877e+00 2.1258674813e+00 3.6821104877e+00 
11200 4.9539111175e+00 -1.4670077065e-02 2.1262136162e+00 -3.6827100110e+00 2.1262136162e+00 3.6827100110e+00 
11300 4.9538953941e+00 -1.4607835806e-02 2.1265586068e+00 -3.6833075522e+00 2.1265586068e+00 3.6833075522e+00 
11400 4.9538807704e+00 -1.4530603714e-02 2.1269020779e+00 -3.6839024617e+00 2.1269020779e+00 3.6839024617e+00 
11500 4.9538671660e+00 -1.4439346037e-02 2.1272436779e+00 -3.6844941301e+00 2.1272436779e+00 3.6844941301e+00 
11600 4.9538545071e+00 -1.4335005209e-02 2.1275830778e+00 -3.6850819882e+00 2.1275830778e+00 3.6850819882e+00 
11700 4.9538427266e+00 -1.4218499785e-02 2.1279199715e+00 -3.6856655050e+00 2.1279199715e+00 3.6856655050e+00 
11800 4.9538317635e+00 -1.4090723495e-02 2.1282540741e+00 -3.6862441877e+00 2.1282540741e+00 3.6862441877e+00 
11900 4.9538215629e+00 -1.3952544405e-02 2.1285851222e+00 -3.6868175798e+00 2.1285851222e+00 3.6868175798e+00 
12000 4.9538120754e+00 -1.3804804176e-02 2.1289128728e+00 -3.6873852606e+00 2.1289128728e+00 3.6873852606e+00 
12100 4.9538032575e+00 -1.3648317438e-02 2.1292371029e+00 -3.6879468436e+00 2.1292371029e+00 3.6879468436e+00 
12200 4.9537950703e+00 -1.3483871255e-02 2.1295576088e+00 -3.6885019761e+00 2.1295576088e+00 3.6885019761e+00 
12300 4.9537874799e+00 -1.3312224691e-02 2.1298742052e+00 -3.6890503371e+00 2.1298742052e+00 3.6890503371e+00 
12400 4.9537804570e+00 -1.3134108468e-02 2.1301867248e+00 -3.6895916370e+00 2.1301867248e+00 3.6895916370e+00 
12500 4.9537739763e+00 -1.2950224719e-02 2.1304950176e+00 -3.6901256158e+00 2.1304950176e+00 3.6901256158e+00 
12600 4.9537680162e+00 -1.2761246827e-02 2.1307989501e+00 -3.6906520423e+00 2.1307989501e+00 3.6906520423e+00 
12700 4.9537625587e+00 -1.2567819344e-02 2.1310984046e+00 -3.6911707127e+00 2.1310984046e+00 3.6911707127e+00 
12800 4.9537575888e+00 -1.2370557993e-02 2.1313932786e+00 -3.6916814494e+00 2.1313932786e+00 3.6916814494e+00 
12900 4.9537530945e+00 -1.2170049748e-02 2.1316834840e+00 -3.6921841000e+00 2.1316834840e+00 3.6921841000e+00 
13000 4.9537490658e+00 -1.1966852982e-02 2.1319689467e+00 -3.6926785358e+00 2.1319689467e+00 3.6926785358e+00 
13100 4.9537454953e+00 -1.1761497685e-02 2.1322496055e+00 -3.6931646511e+00 2.1322496055e+00 3.6931646511e+00 
13200 4.9537423770e+00 -1.1554485746e-02 2.1325254116e+00 -3.6936423613e+00 2.1325254116e+00 3.6936423613e+00 
13300 4.9537397065e+00 -1.1346291298e-02 2.1327963282e+00 -3.6941116026e+00 2.1327963282e+00 3.6941116026e+00 
13400 4.9537374807e+00 -1.1137361110e-02 2.1330623294e+00 -3.6945723302e+00 2.1330623294e+00 3.6945723302e+00 
13500 4.9537356973e+00 -1.0928115043e-02 2.1333233998e+00 -3.6950245174e+00 2.1333233998e+00 3.6950245174e+00 
13600 4.9537343546e+00 -1.0718946542e-02 2.1335795338e+00 -3.6954681545e+00 2.1335795338e+00 3.6954681545e+00 
13700 4.9537334514e+00 -1.0510223184e-02 2.1338307350e+00 -3.6959032478e+00 2.1338307350e+00 3.6959032478e+00 
13800 4.9537329866e+00 -1.0302287252e-02 2.1340770157e+00 -3.6963298185e+00 2.1340770157e+00 3.6963298185e+00 
13900 4.9537329589e+00 -1.0095456360e-02 2.1343183960e+00 -3.6967479014e+00 2.1343183960e+00 3.6967479014e+00 
14000 4.9537333669e+00 -9.8900240992e-03 2.1345549034e+00 -3.6971575442e+00 2.1345549034e+00 3.6971575442e+00 
14100 4.9537342087e+00 -9.6862607187e-03 2.1347865724e+00 -3.6975588067e+00 2.1347865724e+00 3.6975588067e+00 
14200 4.9537354819e+00 -9.4844138296e-03 2.1350134436e+00 -3.6979517591e+00 2.1350134436e+00 3.6979517591e+00 
14300 4.9537371832e+00 -9.2847091317e-03 2.1352355635e+00 -3.6983364820e+00 2.1352355635e+00 3.6983364820e+00 
14400 4.9537393085e+00 -9.0873511587e-03 2.1354529837e+00 -3.6987130649e+00 2.1354529837e+00 3.6987130649e+00 
14500 4.9537418528e+00 -8.8925240386e-03 2.1356657606e+00 -3.6990816053e+00 2.1356657606e+00 3.6990816053e+00 
14600 4.9537448099e+00 -8.7003922671e-03 2.1358739549e+00 -3.6994422084e+00 2.1358739549e+00 3.6994422084e+00 
14700 4.9537481728e+00 -8.5111014897e-03 2.1360776310e+00 -3.6997949858e+00 2.1360776310e+00 3.6997949858e+00 
14800 4.9537519329e+00 -8.3247792916e-03 2.1362768567e+00 -3.7001400549e+00 2.1362768567e+00 3.7001400549e+00 
14900 4.9537560808e+00 -8.1415359910e-03 2.1364717029e+00 -3.7004775383e+00 2.1364717029e+00 3.7004775383e+00 
15000 4.9537606058e+00 -7.9614654341e-03 2.1366622427e+00 -3.7008075629e+00 2.1366622427e+00 3.7008075629e+00 
15100 4.9537654959e+00 -7.7846457903e-03 2.1368485515e+00 -3.7011302593e+00 2.1368485515e+00 3.7011302593e+00 
15200 4.9537707380e+00 -7.6111403431e-03 2.1370307066e+00 -3.7014457611e+00 2.1370307066e+00 3.7014457611e+00 
15300 4.9537763178e+00 -7.4409982775e-03 2.1372087865e+00 -3.7017542046e+00 2.1372087865e+00 3.7017542046e+00 
15400 4.9537822199e+00 -7.2742554598e-03 2.1373828710e+00 -3.7020557279e+00 2.1373828710e+00 3.7020557279e+00 
15500 4.9537884280e+00 -7.1109352089e-03 2.1375530406e+00 -3.7023504703e+00 2.1375530406e+00 3.7023504703e+00 
15600 4.9537949246e+00 -6.9510490571e-03 2.1377193763e+00 -3.7026385721e+00 2.1377193763e+00 3.7026385721e+00 
15700 4.9538016915e+00 -6.7945974997e-03 2.1378819594e+00 -3.7029201742e+00 2.1378819594e+00 3.7029201742e+00 
15800 4.9538087093e+00 -6.6415707311e-03 2.1380408709e+00 -3.7031954170e+00 2.1380408709e+00 3.7031954170e+00 
15900 4.9538159582e+00 -6.4919493660e-03 2.1381961918e+00 -3.7034644408e+00 2.1381961918e+00 3.7034644408e+00 
16000 4.9538234177e+00 -6.3457051456e-03 2.1383480027e+00 -3.7037273849e+00 2.1383480027e+00 3.7037273849e+00 
16100 4.9538310666e+00 -6.2028016271e-03 2.1384963831e+00 -3.7039843872e+00 2.1384963831e+00 3.7039843872e+00 
16200 4.9538388833e+00 -6.0631948550e-03 2.1386414119e+00 -3.7042355845e+00 2.1386414119e+00 3.7042355845e+00 
16300 4.9538468459e+00 -5.9268340145e-03 2.1387831669e+00 -3.7044811114e+00 2.1387831669e+00 3.7044811114e+00 
16400 4.9538549323e+00 -5.7936620662e-03 2.1389217246e+00 -3.7047211004e+00 2.1389217246e+00 3.7047211004e+00 
16500 4.9538631201e+00 -5.6636163596e-03 2.1390571602e+00 -3.7049556817e+00 2.1390571602e+00 3.7049556817e+00 
16600 4.9538713870e+00 -5.5366292280e-03 2.1391895473e+00 -3.7051849830e+00 2.1391895473e+00 3.7051849830e+00 
16700 4.9538797107e+00 -5.4126285615e-03 2.1393189582e+00 -3.7054091291e+00 2.1393189582e+00 3.7054091291e+00 
16800 4.9538880691e+00 -5.2915383597e-03 2.1394454629e+00 -3.7056282418e+00 2.1394454629e+00 3.7056282418e+00 
16900 4.9538964405e+00 -5.1732792620e-03 2.1395691303e+00 -3.7058424399e+00 2.1395691303e+00 3.7058424399e+00 
17000 4.9539048035e+00 -5.0577690577e-03 2.1396900267e+00 -3.7060518388e+00 2.1396900267e+00 3.7060518388e+00 
17100 4.9539131369e+00 -4.9449231732e-03 2.1398082171e+00 -3.7062565505e+00 2.1398082171e+00 3.7062565505e+00 
17200 4.9539214205e+00 -4.8346551378e-03 2.1399237641e+00 -3.7064566838e+00 2.1399237641e+00 3.7064566838e+00 
17300 4.9539296345e+00 -4.7268770282e-03 2.1400367284e+00 -3.7066523436e+00 2.1400367284e+00 3.7066523436e+00 
17400 4.9539377599e+00 -4.6214998905e-03 2.1401471685e+00 -3.7068436315e+00 2.1401471685e+00 3.7068436315e+00 
17500 4.9539457784e+00 -4.5184341408e-03 2.1402551409e+00 -3.7070306452e+00 2.1402551409e+00 3.7070306452e+00 
17600 4.9539536726e+00 -4.4175899444e-03 2.1403607001e+00 -3.7072134791e+00 2.1403607001e+00 3.7072134791e+00 
17700 4.9539614261e+00 -4.3188775737e-03 2.1404638982e+00 -3.7073922235e+00 2.1404638982e+00 3.7073922235e+00 
17800 4.9539690233e+00 -4.2222077449e-03 2.1405647855e+00 -3.7075669654e+00 2.1405647855e+00 3.7075669654e+00 
17900 4.9539764500e+00 -4.1274919336e-03 2.1406634100e+00 -3.7077377880e+00 2.1406634100e+00 3.7077377880e+00 
18000 4.9539836925e+00 -4.0346426707e-03 2.1407598175e+00 -3.7079047708e+00 2.1407598175e+00 3.7079047708e+00 
18100 4.9539907386e+00 -3.9435738172e-03 2.1408540521e+00 -3.7080679899e+00 2.1408540521e+00 3.7080679899e+00 
18200 4.9539975772e+00 -3.8542008197e-03 2.1409461556e+00 -3.7082275178e+00 2.1409461556e+00 3.7082275178e+00 
18300 4.9540041981e+00 -3.7664409466e-03 2.1410361678e+00 -3.7083834236e+00 2.1410361678e+00 3.7083834236e+00 
18400 4.9540105926e+00 -3.6802135049e-03 2.1411241268e+00 -3.7085357730e+00 2.1411241268e+00 3.7085357730e+00 
18500 4.9540167528e+00 -3.5954400386e-03 2.1412100685e+00 -3.7086846284e+00 2.1412100685e+00 3.7086846284e+00 
18600 4.9540226722e+00 -3.5120445092e-03 2.1412940272e+00 -3.7088300491e+00 2.1412940272e+00 3.7088300491e+00 
18700 4.9540283454e+00 -3.4299534586e-03 2.1413760353e+00 -3.7089720912e+00 2.1413760353e+00 3.7089720912e+00 
18800 4.9540337681e+00 -3.3490961542e-03 2.1414561234e+00 -3.7091108079e+00 2.1414561234e+00 3.7091108079e+00 
18900 4.9540389372e+00 -3.2694047185e-03 2.1415343206e+00 -3.7092462494e+00 2.1415343206e+00 3.7092462494e+00 
19000 4.9540438506e+00 -3.1908142413e-03 2.1416106542e+00 -3.7093784632e+00 2.1416106542e+00 3.7093784632e+00 
19100 4.9540485075e+00 -3.1132628777e-03 2.1416851503e+00 -3.7095074942e+00 2.1416851503e+00 3.7095074942e+00 
19200 4.9540529078e+00 -3.0366919298e-03 2.1417578333e+00 -3.7096333848e+00 2.1417578333e+00 3.7096333848e+00 
19300 4.9540570527e+00 -2.9610459146e-03 2.1418287262e+00 -3.7097561749e+00 2.1418287262e+00 3.7097561749e+00 
19400 4.9540609443e+00 -2.8862726176e-03 2.1418978508e+00 -3.7098759023e+00 2.1418978508e+00 3.7098759023e+00 
19500 4.9540645856e+00 -2.8123231333e-03 2.1419652277e+00 -3.7099926024e+00 2.1419652277e+00 3.7099926024e+00 
19600 4.9540679804e+00 -2.7391518923e-03 2.1420308762e+00 -3.7101063090e+00 2.1420308762e+00 3.7101063090e+00 
19700 4.9540711335e+00 -2.6667166768e-03 2.1420948148e+00 -3.7102170538e+00 2.1420948148e+00 3.7102170538e+00 
19800 4.9540740503e+00 -2.5949786234e-03 2.1421570606e+00 -3.7103248667e+00 2.1421570606e+00 3.7103248667e+00 
19900 4.9540767371e+00 -2.5239022155e-03 2.1422176302e+00 -3.7104297763e+00 2.1422176302e+00 3.7104297763e+00 
20000 4.9540792008e+00 -2.4534552645e-03 2.1422765391e+00 -3.7105318095e+00 2.1422765391e+00 3.7105318095e+00 
20100 4.9540814489e+00 -2.3836088810e-03 2.1423338021e+00 -3.7106309921e+00 2.1423338021e+00 3.7106309921e+00 
20200 4.9540834894e+00 -2.3143374365e-03 2.1423894335e+00 -3.7107273484e+00 2.1423894335e+00 3.7107273484e+00 
20300 4.9540853309e+00 -2.2456185159e-03 2.1424434467e+00 -3.7108209021e+00 2.1424434467e+00 3.7108209021e+00 
20400 4.9540869824e+00 -2.1774328615e-03 2.1424958548e+00 -3.7109116755e+00 2.1424958548e+00 3.7109116755e+00 
20500 4.9540884532e+00 -2.1097643090e-03 2.1425466703e+00 -3.7109996906e+00 2.1425466703e+00 3.7109996906e+00 
20600 4.9540897531e+00 -2.0425997162e-03 2.1425959055e+00 -3.7110849684e+00 2.1425959055e+00 3.7110849684e+00 
20700 4.9540908921e+00 -1.9759288843e-03 2.1426435722e+00 -3.7111675295e+00 2.1426435722e+00 3.7111675295e+00 
20800 4.9540918802e+00 -1.9097444733e-03 2.1426896819e+00 -3.7112473939e+00 2.1426896819e+00 3.7112473939e+00 
20900 4.9540927279e+00 -1.8440419108e-03 2.1427342463e+00 -3.7113245816e+00 2.1427342463e+00 3.7113245816e+00 
21000 4.9540934455e+00 -1.7788192960e-03 2.1427772765e+00 -3.7113991122e+00 2.1427772765e+00 3.7113991122e+00 
21100 4.9540940435e+00 -1.7140772983e-03 2.1428187840e+00 -3.7114710053e+00 2.1428187840e+00 3.7114710053e+00 
21200 4.9540945325e+00 -1.6498190516e-03 2.1428587800e+00 -3.7115402803e+00 2.1428587800e+00 3.7115402803e+00 
21300 4.9540949227e+00 -1.5860500441e-03 2.1428972758e+00 -3.7116069571e+00 2.1428972758e+00 3.7116069571e+00 
21400 4.9540952246e+00 -1.5227780055e-03 2.1429342831e+00 -3.7116710556e+00 2.1429342831e+00 3.7116710556e+00 
21500 4.9540954482e+00 -1.4600127899e-03 2.1429698134e+00 -3.7117325959e+00 2.1429698134e+00 3.7117325959e+00 
21600 4.9540956037e+00 -1.3977662568e-03 2.1430038786e+00 -3.7117915986e+00 2.1430038786e+00 3.7117915986e+00 
21700 4.9540957007e+00 -1.3360521496e-03 2.1430364910e+00 -3.7118480850e+00 2.1430364910e+00 3.7118480850e+00 
21800 4.9540957488e+00 -1.2748859719e-03 2.1430676631e+00 -3.7119020765e+00 2.1430676631e+00 3.7119020765e+00 
21900 4.9540957572e+00 -1.2142848632e-03 2.1430974075e+00 -3.7119535954e+00 2.1430974075e+00 3.7119535954e+00 
22000 4.9540957349e+00 -1.1542674724e-03 2.1431257377e+00 -3.7120026648e+00 2.1431257377e+00 3.7120026648e+00 
22100 4.9540956903e+00 -1.0948538316e-03 2.1431526673e+00 -3.7120493082e+00 2.1431526673e+00 3.7120493082e+00 
22200 4.9540956316e+00 -1.0360652289e-03 2.1431782104e+00 -3.7120935502e+00 2.1431782104e+00 3.7120935502e+00 
22300 4.9540955667e+00 -9.7792408172e-04 2.1432023817e+00 -3.7121354161e+00 2.1432023817e+00 3.7121354161e+00 
22400 4.9540955029e+00 -9.2045380988e-04 2.1432251963e+00 -3.7121749321e+00 2.1432251963e+00 3.7121749321e+00 
22500 4.9540954472e+00 -8.6367871012e-04 2.1432466699e+00 -3.7122121255e+00 2.1432466699e+00 3.7122121255e+00 
22600 4.9540954060e+00 -8.0762383110e-04 2.1432668188e+00 -3.7122470243e+00 2.1432668188e+00 3.7122470243e+00 
22700 4.9540953854e+00 -7.5231484984e-04 2.1432856598e+00 -3.7122796579e+00 2.1432856598e+00 3.7122796579e+00 
22800 4.9540953910e+00 -6.9777794985e-04 2.1433032103e+00 -3.7123100563e+00 2.1433032103e+00 3.7123100563e+00 
22900 4.9540954280e+00 -6.4403970103e-04 2.1433194884e+00 -3.7123382508e+00 2.1433194884e+00 3.7123382508e+00 
23000 4.9540955009e+00 -5.9112694176e-04 2.1433345128e+00 -3.7123642738e+00 2.1433345128e+00 3.7123642738e+00 
23100 4.9540956139e+00 -5.3906666335e-04 2.1433483027e+00 -3.7123881586e+00 2.1433483027e+00 3.7123881586e+00 
23200 4.9540957708e+00 -4.8788589713e-04 2.1433608780e+00 -3.7124099397e+00 2.1433608780e+00 3.7124099397e+00 
23300 4.9540959747e+00 -4.3761160433e-04 2.1433722594e+00 -3.7124296528e+00 2.1433722594e+00 3.7124296528e+00 
23400 4.9540962286e+00 -3.8827056904e-04 2.1433824679e+00 -3.7124473344e+00 2.1433824679e+00 3.7124473344e+00 
23500 4.9540965346e+00 -3.3988929437e-04 2.1433915253e+00 -3.7124630223e+00 2.1433915253e+00 3.7124630223e+00 
23600 4.9540968948e+00 -2.9249390206e-04 2.1433994541e+00 -3.7124767554e+00 2.1433994541e+00 3.7124767554e+00 
23700 4.9540973106e+00 -2.4611003561e-04 2.1434062772e+00 -3.7124885734e+00 2.1434062772e+00 3.7124885734e+00 
23800 4.9540977829e+00 -2.0076276717e-04 2.1434120183e+00 -3.7124985173e+00 2.1434120183e+00 3.7124985173e+00 
23900 4.9540983125e+00 -1.5647650827e-04 2.1434167016e+00 -3.7125066289e+00 2.1434167016e+00 3.7125066289e+00 
24000 4.9540988997e+00 -1.1327492453e-04 2.1434203517e+00 -3.7125129512e+00 2.1434203517e+00 3.7125129512e+00 
24100 4.9540995443e+00 -7.1180854470e-05 2.1434229941e+00 -3.7125175279e+00 2.1434229941e+00 3.7125175279e+00 
24200 4.9541002459e+00 -3.0216232479e-05 2.1434246546e+00 -3.7125204039e+00 2.1434246546e+00 3.7125204039e+00 
24300 4.9541010036e+00 9.2343766311e-06 2.1434246546e+00 -3.7125204039e+00 2.1434246546e+00 3.7125204039e+00 
24400 4.9541018163e+00 4.7990540697e-05 2.1434246546e+00 -3.7125204039e+00 2.1434246546e+00 3.7125204039e+00 
24500 4.9541026829e+00 8.6023400816e-05 2.1434246546e+00 -3.7125204039e+00 2.1434246546e+00 3.7125204039e+00 
24600 4.9541036015e+00 1.2226992012e-04 2.1434226479e+00 -3.7125169283e+00 2.1434226479e+00 3.7125169283e+00 
24700 4.9541045701e+00 1.5729360963e-04 2.1434197957e+00 -3.7125119881e+00 2.1434197957e+00 3.7125119881e+00 
24800 4.9541055867e+00 1.9107929970e-04 2.1434161265e+00 -3.7125056328e+00 2.1434161265e+00 3.7125056328e+00 
24900 4.9541066489e+00 2.2361314277e-04 2.1434116691e+00 -3.7124979124e+00 2.1434116691e+00 3.7124979124e+00 
25000 4.9541077541e+00 2.5488265496e-04 2.1434064528e+00 -3.7124888776e+00 2.1434064528e+00 3.7124888776e+00 
25100 4.9541088997e+00 2.8487675321e-04 2.1434005071e+00 -3.7124785792e+00 2.1434005071e+00 3.7124785792e+00 
25200 4.9541100828e+00 3.1358578797e-04 2.1433938617e+00 -3.7124670690e+00 2.1433938617e+00 3.7124670690e+00 
25300 4.9541113003e+00 3.4100157152e-04 2.1433865465e+00 -3.7124543988e+00 2.1433865465e+00 3.7124543988e+00 
25400 4.9541125494e+00 3.6711740177e-04 2.1433785918e+00 -3.7124406208e+00 2.1433785918e+00 3.7124406208e+00 
25500 4.9541138266e+00 3.9192808190e-04 2.1433700278e+00 -3.7124257875e+00 2.1433700278e+00 3.7124257875e+00 
25600 4.9541151290e+00 4.1542993562e-04 2.1433608850e+00 -3.7124099517e+00 2.1433608850e+00 3.7124099517e+00 
25700 4.9541164531e+00 4.3762081826e-04 2.1433511939e+00 -3.7123931663e+00 2.1433511939e+00 3.7123931663e+00 
25800 4.9541177957e+00 4.5850012384e-04 2.1433409851e+00 -3.7123754842e+00 2.1433409851e+00 3.7123754842e+00 
25900 4.9541191534e+00 4.7806878799e-04 2.1433302892e+00 -3.7123569583e+00 2.1433302892e+00 3.7123569583e+00 
26000 4.9541205231e+00 4.9632928704e-04 2.1433191367e+00 -3.7123376417e+00 2.1433191367e+00 3.7123376417e+00 
26100 4.9541219013e+00 5.1328563326e-04 2.1433075582e+00 -3.7123175871e+00 2.1433075582e+00 3.7123175871e+00 
26200 4.9541232849e+00 5.2894336633e-04 2.1432955841e+00 -3.7122968473e+00 2.1432955841e+00 3.7122968473e+00 
26300 4.9541246707e+00 5.4330954134e-04 2.1432832446e+00 -3.7122754747e+00 2.1432832446e+00 3.7122754747e+00 
26400 4.9541260556e+00 5.5639271319e-04 2.1432705699e+00 -3.7122535215e+00 2.1432705699e+00 3.7122535215e+00 
26500 4.9541274364e+00 5.6820291765e-04 2.1432575899e+00 -3.7122310395e+00 2.1432575899e+00 3.7122310395e+00 
26600 4.9541288104e+00 5.7875164928e-04 2.1432443344e+00 -3.7122080801e+00 2.1432443344e+00 3.7122080801e+00 
26700 4.9541301745e+00 5.8805183619e-04 2.1432308326e+00 -3.7121846944e+00 2.1432308326e+00 3.7121846944e+00 
26800 4.9541315262e+00 5.9611781182e-04 2.1432171138e+00 -3.7121609328e+00 2.1432171138e+00 3.7121609328e+00 
26900 4.9541328627e+00 6.0296528400e-04 2.1432032067e+00 -3.7121368450e+00 2.1432032067e+00 3.7121368450e+00 
27000 4.9541341815e+00 6.0861130125e-04 2.1431891398e+00 -3.7121124804e+00 2.1431891398e+00 3.7121124804e+00 
27100 4.9541354804e+00 6.1307421664e-04 2.1431749411e+00 -3.7120878875e+00 2.1431749411e+00 3.7120878875e+00 
27200 4.9541367570e+00 6.1637364915e-04 2.1431606382e+00 -3.7120631141e+00 2.1431606382e+00 3.7120631141e+00 
27300 4.9541380093e+00 6.1853044299e-04 2.1431462582e+00 -3.7120382073e+00 2.1431462582e+00 3.7120382073e+00 
27400 4.9541392353e+00 6.1956662462e-04 2.1431318278e+00 -3.7120132130e+00 2.1431318278e+00 3.7120132130e+00 
27500 4.9541404333e+00 6.1950535804e-04 2.1431173731e+00 -3.7119881768e+00 2.1431173731e+00 3.7119881768e+00 
27600 4.9541416016e+00 6.1837089817e-04 2.1431029197e+00 -3.7119631428e+00 2.1431029197e+00 3.7119631428e+00 
27700 4.9541427387e+00 6.1618854266e-04 2.1430884928e+00 -3.7119381546e+00 2.1430884928e+00 3.7119381546e+00 
27800 4.9541438434e+00 6.1298458223e-04 2.1430741166e+00 -3.7119132543e+00 2.1430741166e+00 3.7119132543e+00 
27900 4.9541449143e+00 6.0878624966e-04 2.1430598151e+00 -3.7118884834e+00 2.1430598151e+00 3.7118884834e+00 
28000 4.9541459506e+00 6.0362166760e-04 2.1430456114e+00 -3.7118638819e+00 2.1430456114e+00 3.7118638819e+00 
28100 4.9541469513e+00 5.9751979537e-04 2.1430315282e+00 -3.7118394890e+00 2.1430315282e+00 3.7118394890e+00 
28200 4.9541479157e+00 5.9051037480e-04 2.1430175872e+00 -3.7118153426e+00 2.1430175872e+00 3.7118153426e+00 
28300 4.9541488432e+00 5.8262387547e-04 2.1430038097e+00 -3.7117914792e+00 2.1430038097e+00 3.7117914792e+00 
28400 4.9541497334e+00 5.7389143916e-04 2.1429902161e+00 -3.7117679343e+00 2.1429902161e+00 3.7117679343e+00 
28500 4.9541505861e+00 5.6434482396e-04 2.1429768261e+00 -3.7117447423e+00 2.1429768261e+00 3.7117447423e+00 
28600 4.9541514009e+00 5.5401634801e-04 2.1429636588e+00 -3.7117219358e+00 2.1429636588e+00 3.7117219358e+00 
28700 4.9541521780e+00 5.4293883299e-04 2.1429507324e+00 -3.7116995467e+00 2.1429507324e+00 3.7116995467e+00 
28800 4.9541529175e+00 5.3114554760e-04 2.1429380644e+00 -3.7116776050e+00 2.1429380644e+00 3.7116776050e+00 
28900 4.9541536194e+00 5.1867015103e-04 2.1429256715e+00 -3.7116561399e+00 2.1429256715e+00 3.7116561399e+00 
29000 4.9541542842e+00 5.0554663663e-04 2.1429135696e+00 -3.7116351788e+00 2.1429135696e+00 3.7116351788e+00 
29100 4.9541549123e+00 4.9180927585e-04 2.1429017738e+00 -3.7116147479e+00 2.1429017738e+00 3.7116147479e+00 
29200 4.9541555043e+00 4.7749256259e-04 2.1428902985e+00 -3.7115948721e+00 2.1428902985e+00 3.7115948721e+00 
29300 4.9541560608e+00 4.6263115801e-04 2.1428791572e+00 -3.7115755748e+00 2.1428791572e+00 3.7115755748e+00 
29400 4.9541565825e+00 4.4725983599e-04 2.1428683626e+00 -3.7115568780e+00 2.1428683626e+00 3.7115568780e+00 
29500 4.9541570702e+00 4.3141342931e-04 2.1428579266e+00 -3.7115388023e+00 2.1428579266e+00 3.7115388023e+00 
29600 4.9541575248e+00 4.1512677653e-04 2.1428478603e+00 -3.7115213669e+00 2.1428478603e+00 3.7115213669e+00 
29700 4.9541579474e+00 3.9843466993e-04 2.1428381740e+00 -3.7115045897e+00 2.1428381740e+00 3.7115045897e+00 
29800 4.9541583389e+00 3.8137180426e-04 2.1428288771e+00 -3.7114884870e+00 2.1428288771e+00 3.7114884870e+00 
29900 4.9541587003e+00 3.6397272662e-04 2.1428199783e+00 -3.7114730739e+00 2.1428199783e+00 3.7114730739e+00 
30000 4.9541590329e+00 3.4627178754e-04 2.1428114855e+00 -3.7114583639e+00 2.1428114855e+00 3.7114583639e+00 
30100 4.9541593378e+00 3.2830309312e-04 2.1428034056e+00 -3.7114443692e+00 2.1428034056e+00 3.7114443692e+00 
30200 4.9541596162e+00 3.1010045859e-04 2.1427957450e+00 -3.7114311006e+00 2.1427957450e+00 3.7114311006e+00 
30300 4.9541598693e+00 2.9169736312e-04 2.1427885092e+00 -3.7114185677e+00 2.1427885092e+00 3.7114185677e+00 
30400 4.9541600985e+00 2.7312690602e-04 2.1427817027e+00 -3.7114067785e+00 2.1427817027e+00 3.7114067785e+00 
30500 4.9541603050e+00 2.5442176444e-04 2.1427753295e+00 -3.7113957399e+00 2.1427753295e+00 3.7113957399e+00 
30600 4.9541604901e+00 2.3561415255e-04 2.1427693928e+00 -3.7113854571e+00 2.1427693928e+00 3.7113854571e+00 
30700 4.9541606551e+00 2.1673578224e-04 2.1427638949e+00 -3.7113759345e+00 2.1427638949e+00 3.7113759345e+00 
30800 4.9541608013e+00 1.9781782540e-04 2.1427588375e+00 -3.7113671749e+00 2.1427588375e+00 3.7113671749e+00 
30900 4.9541609301e+00 1.7889087782e-04 2.1427542215e+00 -3.7113591798e+00 2.1427542215e+00 3.7113591798e+00 
31000 4.9541610426e+00 1.5998492479e-04 2.1427500472e+00 -3.7113519497e+00 2.1427500472e+00 3.7113519497e+00 
31100 4.9541611403e+00 1.4112930825e-04 2.1427463140e+00 -3.7113454836e+00 2.1427463140e+00 3.7113454836e+00 
31200 4.9541612244e+00 1.2235269576e-04 2.1427430208e+00 -3.7113397797e+00 2.1427430208e+00 3.7113397797e+00 
31300 4.9541612961e+00 1.0368305111e-04 2.1427401658e+00 -3.7113348346e+00 2.1427401658e+00 3.7113348346e+00 
31400 4.9541613566e+00 8.5147606700e-05 2.1427377464e+00 -3.7113306441e+00 2.1427377464e+00 3.7113306441e+00 
31500 4.9541614072e+00 6.6772837614e-05 2.1427357595e+00 -3.7113272027e+00 2.1427357595e+00 3.7113272027e+00 
31600 4.9541614490e+00 4.9390540035e-05 2.1427357595e+00 -3.7113272027e+00 2.1427357595e+00 3.7113272027e+00 
31700 4.9541614831e+00 3.2006974444e-05 2.1427357595e+00 -3.7113272027e+00 2.1427357595e+00 3.7113272027e+00 
31800 4.9541615105e+00 1.4647573952e-05 2.1427357595e+00 -3.7113272027e+00 2.1427357595e+00 3.7113272027e+00 
31900 4.9541615324e+00 -2.6630164038e-06 2.1427357595e+00 -3.7113272027e+00 2.1427357595e+00 3.7113272027e+00 
32000 4.9541615497e+00 -1.9900944412e-05 2.1427357595e+00 -3.7113272027e+00 2.1427357595e+00 3.7113272027e+00 
32100 4.9541615635e+00 -3.7043154344e-05 2.1427357595e+00 -3.7113272027e+00 2.1427357595e+00 3.7113272027e+00 
32200 4.9541615747e+00 -5.4067389559e-05 2.1427357595e+00 -3.7113272027e+00 2.1427357595e+00 3.7113272027e+00 
32300 4.9541615842e+00 -7.0952194063e-05 2.1427357595e+00 -3.7113272027e+00 2.1427357595e+00 3.7113272027e+00 
32400 4.9541615927e+00 -8.6820647285e-05 2.1427374152e+00 -3.7113300703e+00 2.1427374152e+00 3.7113300703e+00 
32500 4.9541616010e+00 -1.0231018707e-04 2.1427394411e+00 -3.7113335793e+00 2.1427394411e+00 3.7113335793e+00 
32600 4.9541616098e+00 -1.1740389463e-04 2.1427418285e+00 -3.7113377144e+00 2.1427418285e+00 3.7113377144e+00 
32700 4.9541616199e+00 -1.3208578264e-04 2.1427445680e+00 -3.7113424595e+00 2.1427445680e+00 3.7113424595e+00 
32800 4.9541616318e+00 -1.4634079920e-04 2.1427476502e+00 -3.7113477979e+00 2.1427476502e+00 3.7113477979e+00 
32900 4.9541616461e+00 -1.6015483034e-04 2.1427510650e+00 -3.7113537125e+00 2.1427510650e+00 3.7113537125e+00 
33000 4.9541616633e+00 -1.7351470086e-04 2.1427548021e+00 -3.7113601854e+00 2.1427548021e+00 3.7113601854e+00 
33100 4.9541616840e+00 -1.8640817380e-04 2.1427588510e+00 -3.7113671983e+00 2.1427588510e+00 3.7113671983e+00 
33200 4.9541617084e+00 -1.9882394848e-04 2.1427632007e+00 -3.7113747322e+00 2.1427632007e+00 3.7113747322e+00 
33300 4.9541617371e+00 -2.1075165707e-04 2.1427678401e+00 -3.7113827679e+00 2.1427678401e+00 3.7113827679e+00 
33400 4.9541617702e+00 -2.2218185983e-04 2.1427727579e+00 -3.7113912857e+00 2.1427727579e+00 3.7113912857e+00 
33500 4.9541618082e+00 -2.3310603905e-04 2.1427779423e+00 -3.7114002655e+00 2.1427779423e+00 3.7114002655e+00 
33600 4.9541618513e+00 -2.4351659166e-04 2.1427833817e+00 -3.7114096867e+00 2.1427833817e+00 3.7114096867e+00 
33700 4.9541618995e+00 -2.5340682065e-04 2.1427890639e+00 -3.7114195286e+00 2.1427890639e+00 3.7114195286e+00 
33800 4.9541619532e+00 -2.6277092526e-04 2.1427949769e+00 -3.7114297703e+00 2.1427949769e+00 3.7114297703e+00 
33900 4.9541620123e+00 -2.7160399007e-04 2.1428011084e+00 -3.7114403903e+00 2.1428011084e+00 3.7114403903e+00 
34000 4.9541620770e+00 -2.7990197290e-04 2.1428074460e+00 -3.7114513674e+00 2.1428074460e+00 3.7114513674e+00 
34100 4.9541621473e+00 -2.8766169178e-04 2.1428139772e+00 -3.7114626798e+00 2.1428139772e+00 3.7114626798e+00 
34200 4.9541622232e+00 -2.9488081079e-04 2.1428206895e+00 -3.7114743057e+00 2.1428206895e+00 3.7114743057e+00 
34300 4.9541623046e+00 -3.0155782506e-04 2.1428275702e+00 -3.7114862234e+00 2.1428275702e+00 3.7114862234e+00 
34400 4.9541623915e+00 -3.0769204469e-04 2.1428346066e+00 -3.7114984109e+00 2.1428346066e+00 3.7114984109e+00 
34500 4.9541624839e+00 -3.1328357799e-04 2.1428417862e+00 -3.7115108462e+00 2.1428417862e+00 3.7115108462e+00 
34600 4.9541625814e+00 -3.1833331383e-04 2.1428490962e+00 -3.7115235075e+00 2.1428490962e+00 3.7115235075e+00 
34700 4.9541626841e+00 -3.2284290314e-04 2.1428565240e+00 -3.7115363729e+00 2.1428565240e+00 3.7115363729e+00 
34800 4.9541627917e+00 -3.2681473983e-04 2.1428640570e+00 -3.7115494204e+00 2.1428640570e+00 3.7115494204e+00 
34900 4.9541629040e+00 -3.3025194094e-04 2.1428716827e+00 -3.7115626285e+00 2.1428716827e+00 3.7115626285e+00 
35000 4.9541630209e+00 -3.3315832627e-04 2.1428793885e+00 -3.7115759754e+00 2.1428793885e+00 3.7115759754e+00 
35100 4.9541631420e+00 -3.3553839725e-04 2.1428871621e+00 -3.7115894397e+00 2.1428871621e+00 3.7115894397e+00 
35200 4.9541632672e+00 -3.3739731552e-04 2.1428949912e+00 -3.7116030001e+00 2.1428949912e+00 3.7116030001e+00 
35300 4.9541633961e+00 -3.3874088084e-04 2.1429028637e+00 -3.7116166356e+00 2.1429028637e+00 3.7116166356e+00 
35400 4.9541635285e+00 -3.3957550869e-04 2.1429107675e+00 -3.7116303254e+00 2.1429107675e+00 3.7116303254e+00 
35500 4.9541636641e+00 -3.3990820739e-04 2.1429186907e+00 -3.7116440488e+00 2.1429186907e+00 3.7116440488e+00 
35600 4.9541638026e+00 -3.3974655494e-04 2.1429266217e+00 -3.7116577857e+00 2.1429266217e+00 3.7116577857e+00 
35700 4.9541639437e+00 -3.3909867558e-04 2.1429345489e+00 -3.7116715159e+00 2.1429345489e+00 3.7116715159e+00 
35800 4.9541640871e+00 -3.3797321597e-04 2.1429424609e+00 -3.7116852199e+00 2.1429424609e+00 3.7116852199e+00 
35900 4.9541642324e+00 -3.3637932140e-04 2.1429503466e+00 -3.7116988784e+00 2.1429503466e+00 3.7116988784e+00 
36000 4.9541643794e+00 -3.3432661153e-04 2.1429581951e+00 -3.7117124725e+00 2.1429581951e+00 3.7117124725e+00 
36100 4.9541645277e+00 -3.3182515628e-04 2.1429659957e+00 -3.7117259835e+00 2.1429659957e+00 3.7117259835e+00 
36200 4.9541646771e+00 -3.2888545146e-04 2.1429737379e+00 -3.7117393934e+00 2.1429737379e+00 3.7117393934e+00 
36300 4.9541648272e+00 -3.2551839443e-04 2.1429814115e+00 -3.7117526844e+00 2.1429814115e+00 3.7117526844e+00 
36400 4.9541649778e+00 -3.2173525974e-04 2.1429890065e+00 -3.7117658393e+00 2.1429890065e+00 3.7117658393e+00 
36500 4.9541651284e+00 -3.1754767478e-04 2.1429965132e+00 -3.7117788413e+00 2.1429965132e+00 3.7117788413e+00 
36600 4.9541652789e+00 -3.1296759554e-04 2.1430039222e+00 -3.7117916740e+00 2.1430039222e+00 3.7117916740e+00 
36700 4.9541654289e+00 -3.0800728244e-04 2.1430112242e+00 -3.7118043216e+00 2.1430112242e+00 3.7118043216e+00 
36800 4.9541655782e+00 -3.0267927629e-04 2.1430184106e+00 -3.7118167687e+00 2.1430184106e+00 3.7118167687e+00 
36900 4.9541657264e+00 -2.9699637445e-04 2.1430254726e+00 -3.7118290004e+00 2.1430254726e+00 3.7118290004e+00 
37000 4.9541658734e+00 -2.9097160719e-04 2.1430324019e+00 -3.7118410024e+00 2.1430324019e+00 3.7118410024e+00 
37100 4.9541660189e+00 -2.8461821423e-04 2.1430391907e+00 -3.7118527609e+00 2.1430391907e+00 3.7118527609e+00 
37200 4.9541661626e+00 -2.7794962163e-04 2.1430458312e+00 -3.7118642627e+00 2.1430458312e+00 3.7118642627e+00 
37300 4.9541663044e+00 -2.7097941889e-04 2.1430523162e+00 -3.7118754949e+00 2.1430523162e+00 3.7118754949e+00 
37400 4.9541664440e+00 -2.6372133642e-04 2.1430586384e+00 -3.7118864454e+00 2.1430586384e+00 3.7118864454e+00 
37500 4.9541665811e+00 -2.5618922331e-04 2.1430647914e+00 -3.7118971026e+00 2.1430647914e+00 3.7118971026e+00 
37600 4.9541667157e+00 -2.4839702550e-04 2.1430707685e+00 -3.7119074553e+00 2.1430707685e+00 3.7119074553e+00 
37700 4.9541668476e+00 -2.4035876434e-04 2.1430765639e+00 -3.7119174932e+00 2.1430765639e+00 3.7119174932e+00 
37800 4.9541669765e+00 -2.3208851555e-04 2.1430821717e+00 -3.7119272062e+00 2.1430821717e+00 3.7119272062e+00 
37900 4.9541671024e+00 -2.2360038857e-04 2.1430875865e+00 -3.7119365849e+00 2.1430875865e+00 3.7119365849e+00 
38000 4.9541672251e+00 -2.1490850648e-04 2.1430928033e+00 -3.7119456207e+00 2.1430928033e+00 3.7119456207e+00 
38100 4.9541673446e+00 -2.0602698628e-04 2.1430978173e+00 -3.7119543051e+00 2.1430978173e+00 3.7119543051e+00 
38200 4.9541674606e+00 -1.9696991968e-04 2.1431026241e+00 -3.7119626307e+00 2.1431026241e+00 3.7119626307e+00 
38300 4.9541675731e+00 -1.8775135440e-04 2.1431072195e+00 -3.7119705902e+00 2.1431072195e+00 3.7119705902e+00 
38400 4.9541676821e+00 -1.7838527607e-04 2.1431115998e+00 -3.7119781772e+00 2.1431115998e+00 3.7119781772e+00 
38500 4.9541677875e+00 -1.6888559047e-04 2.1431157617e+00 -3.7119853857e+00 2.1431157617e+00 3.7119853857e+00 
38600 4.9541678891e+00 -1.5926610653e-04 2.1431197019e+00 -3.7119922103e+00 2.1431197019e+00 3.7119922103e+00 
38700 4.9541679871e+00 -1.4954051971e-04 2.1431234176e+00 -3.7119986462e+00 2.1431234176e+00 3.7119986462e+00 
38800 4.9541680814e+00 -1.3972239604e-04 2.1431269065e+00 -3.7120046891e+00 2.1431269065e+00 3.7120046891e+00 
38900 4.9541681719e+00 -1.2982515670e-04 2.1431301662e+00 -3.7120103352e+00 2.1431301662e+00 3.7120103352e+00 
39000 4.9541682586e+00 -1.1986206319e-04 2.1431331951e+00 -3.7120155813e+00 2.1431331951e+00 3.7120155813e+00 
39100 4.9541683417e+00 -1.0984620305e-04 2.1431359915e+00 -3.7120204249e+00 2.1431359915e+00 3.7120204249e+00 
39200 4.9541684211e+00 -9.9790476233e-05 2.1431385543e+00 -3.7120248637e+00 2.1431385543e+00 3.7120248637e+00 
39300 4.9541684967e+00 -8.9707582022e-05 2.1431408824e+00 -3.7120288961e+00 2.1431408824e+00 3.7120288961e+00 
39400 4.9541685688e+00 -7.9610006535e-05 2.1431429753e+00 -3.7120325211e+00 2.1431429753e+00 3.7120325211e+00 
39500 4.9541686373e+00 -6.9510010889e-05 2.1431448326e+00 -3.7120357381e+00 2.1431448326e+00 3.7120357381e+00 
39600 4.9541687024e+00 -6.0256891784e-05 2.1431448326e+00 -3.7120357381e+00 2.1431448326e+00 3.7120357381e+00 
39700 4.9541687640e+00 -5.0911083586e-05 2.1431448326e+00 -3.7120357381e+00 2.1431448326e+00 3.7120357381e+00 
39800 4.9541688222e+00 -4.1484036041e-05 2.1431448326e+00 -3.7120357381e+00 2.1431448326e+00 3.7120357381e+00 
39900 4.9541688771e+00 -3.1986901007e-05 2.1431448326e+00 -3.7120357381e+00 2.1431448326e+00 3.7120357381e+00 
40000 4.9541689288e+00 -2.2430532590e-05 2.1431448326e+00 -3.7120357381e+00 2.1431448326e+00 3.7120357381e+00 
40100 4.9541689774e+00 -1.2825487662e-05 2.1431448326e+00 -3.7120357381e+00 2.1431448326e+00 3.7120357381e+00 
40200 4.9541690230e+00 -3.1820267359e-06 2.1431448326e+00 -3.7120357381e+00 2.1431448326e+00 3.7120357381e+00 
40300 4.9541690657e+00 6.4898848626e-06 2.1431448326e+00 -3.7120357381e+00 2.1431448326e+00 3.7120357381e+00 
40400 4.9541691057e+00 1.6180575474e-05 2.1431448326e+00 -3.7120357381e+00 2.1431448326e+00 3.7120357381e+00 
40500 4.9541691430e+00 2.5880665360e-05 2.1431448326e+00 -3.7120357381e+00 2.1431448326e+00 3.7120357381e+00 
40600 4.9541691779e+00 3.5581064670e-05 2.1431448326e+00 -3.7120357381e+00 2.1431448326e+00 3.7120357381e+00 
40700 4.9541692104e+00 4.5272971194e-05 2.1431448326e+00 -3.7120357381e+00 2.1431448326e+00 3.7120357381e+00 
40800 4.9541692406e+00 5.4947867878e-05 2.1431448326e+00 -3.7120357381e+00 2.1431448326e+00 3.7120357381e+00 
40900 4.9541692688e+00 6.4597520168e-05 2.1431448326e+00 -3.7120357381e+00 2.1431448326e+00 3.7120357381e+00 
41000 4.9541692949e+00 7.4213973174e-05 2.1431448326e+00 -3.7120357381e+00 2.1431448326e+00 3.7120357381e+00 
41100 4.9541693191e+00 8.2895389838e-05 2.1431431012e+00 -3.7120327392e+00 2.1431431012e+00 3.7120327392e+00 
41200 4.9541693415e+00 9.1415931873e-05 2.1431411672e+00 -3.7120293895e+00 2.1431411672e+00 3.7120293895e+00 
41300 4.9541693622e+00 9.9768658047e-05 2.1431390345e+00 -3.7120256954e+00 2.1431390345e+00 3.7120256954e+00 
41400 4.9541693814e+00 1.0794696691e-04 2.1431367069e+00 -3.7120216639e+00 2.1431367069e+00 3.7120216639e+00 
41500 4.9541693992e+00 1.1594459767e-04 2.1431341884e+00 -3.7120173018e+00 2.1431341884e+00 3.7120173018e+00 
41600 4.9541694157e+00 1.2375563073e-04 2.1431314834e+00 -3.7120126166e+00 2.1431314834e+00 3.7120126166e+00 
41700 4.9541694310e+00 1.3137448756e-04 2.1431285961e+00 -3.7120076157e+00 2.1431285961e+00 3.7120076157e+00 
41800 4.9541694453e+00 1.3879593029e-04 2.1431255311e+00 -3.7120023069e+00 2.1431255311e+00 3.7120023069e+00 
41900 4.9541694586e+00 1.4601506079e-04 2.1431222930e+00 -3.7119966983e+00 2.1431222930e+00 3.7119966983e+00 
42000 4.9541694711e+00 1.5302731927e-04 2.1431188864e+00 -3.7119907979e+00 2.1431188864e+00 3.7119907979e+00 
42100 4.9541694828e+00 1.5982848263e-04 2.1431153162e+00 -3.7119846141e+00 2.1431153162e+00 3.7119846141e+00 
42200 4.9541694940e+00 1.6641466226e-04 2.1431115873e+00 -3.7119781555e+00 2.1431115873e+00 3.7119781555e+00 
42300 4.9541695046e+00 1.7278230148e-04 2.1431077047e+00 -3.7119714307e+00 2.1431077047e+00 3.7119714307e+00 
42400 4.9541695147e+00 1.7892817271e-04 2.1431036736e+00 -3.7119644486e+00 2.1431036736e+00 3.7119644486e+00 
42500 4.9541695245e+00 1.8484937415e-04 2.1430994991e+00 -3.7119572181e+00 2.1430994991e+00 3.7119572181e+00 
42600 4.9541695341e+00 1.9054332620e-04 2.1430951865e+00 -3.7119497484e+00 2.1430951865e+00 3.7119497484e+00 
42700 4.9541695435e+00 1.9600776751e-04 2.1430907409e+00 -3.7119420485e+00 2.1430907409e+00 3.7119420485e+00 
42800 4.9541695528e+00 2.0124075076e-04 2.1430861679e+00 -3.7119341278e+00 2.1430861679e+00 3.7119341278e+00 
42900 4.9541695620e+00 2.0624063808e-04 2.1430814728e+00 -3.7119259957e+00 2.1430814728e+00 3.7119259957e+00 
43000 4.9541695713e+00 2.1100609624e-04 2.1430766610e+00 -3.7119176614e+00 2.1430766610e+00 3.7119176614e+00 
43100 4.9541695806e+00 2.1553609151e-04 2.1430717381e+00 -3.7119091346e+00 2.1430717381e+00 3.7119091346e+00 
43200 4.9541695902e+00 2.1982988431e-04 2.1430667094e+00 -3.7119004247e+00 2.1430667094e+00 3.7119004247e+00 
43300 4.9541695999e+00 2.2388702361e-04 2.1430615805e+00 -3.7118915412e+00 2.1430615805e+00 3.7118915412e+00 
43400 4.9541696099e+00 2.2770734102e-04 2.1430563570e+00 -3.7118824938e+00 2.1430563570e+00 3.7118824938e+00 
43500 4.9541696202e+00 2.3129094482e-04 2.1430510443e+00 -3.7118732920e+00 2.1430510443e+00 3.7118732920e+00 
43600 4.9541696308e+00 2.3463821362e-04 2.1430456480e+00 -3.7118639453e+00 2.1430456480e+00 3.7118639453e+00 
43700 4.9541696418e+00 2.3774978995e-04 2.1430401736e+00 -3.7118544634e+00 2.1430401736e+00 3.7118544634e+00 
43800 4.9541696533e+00 2.4062657357e-04 2.1430346266e+00 -3.7118448557e+00 2.1430346266e+00 3.7118448557e+00 
43900 4.9541696651e+00 2.4326971476e-04 2.1430290125e+00 -3.7118351317e+00 2.1430290125e+00 3.7118351317e+00 
44000 4.9541696774e+00 2.4568060729e-04 2.1430233366e+00 -3.7118253008e+00 2.1430233366e+00 3.7118253008e+00 
44100 4.9541696901e+00 2.4786088138e-04 2.1430176045e+00 -3.7118153725e+00 2.1430176045e+00 3.7118153725e+00 
44200 4.9541697034e+00 2.4981239650e-04 2.1430118215e+00 -3.7118053561e+00 2.1430118215e+00 3.7118053561e+00 
44300 4.9541697171e+00 2.5153723402e-04 2.1430059930e+00 -3.7117952608e+00 2.1430059930e+00 3.7117952608e+00 
44400 4.9541697313e+00 2.5303768983e-04 2.1430001242e+00 -3.7117850958e+00 2.1430001242e+00 3.7117850958e+00 
44500 4.9541697460e+00 2.5431626682e-04 2.1429942204e+00 -3.7117748700e+00 2.1429942204e+00 3.7117748700e+00 
44600 4.9541697612e+00 2.5537566727e-04 2.1429882867e+00 -3.7117645926e+00 2.1429882867e+00 3.7117645926e+00 
44700 4.9541697768e+00 2.5621878527e-04 2.1429823283e+00 -3.7117542724e+00 2.1429823283e+00 3.7117542724e+00 
44800 4.9541697930e+00 2.5684869896e-04 2.1429763502e+00 -3.7117439180e+00 2.1429763502e+00 3.7117439180e+00 
44900 4.9541698096e+00 2.5726866286e-04 2.1429703574e+00 -3.7117335382e+00 2.1429703574e+00 3.7117335382e+00 
45000 4.9541698267e+00 2.5748210006e-04 2.1429643548e+00 -3.7117231414e+00 2.1429643548e+00 3.7117231414e+00 
45100 4.9541698442e+00 2.5749259442e-04 2.1429583472e+00 -3.7117127359e+00 2.1429583472e+00 3.7117127359e+00 
45200 4.9541698622e+00 2.5730388284e-04 2.1429523393e+00 -3.7117023299e+00 2.1429523393e+00 3.7117023299e+00 
45300 4.9541698805e+00 2.5691984741e-04 2.1429463359e+00 -3.7116919316e+00 2.1429463359e+00 3.7116919316e+00 
45400 4.9541698993e+00 2.5634450767e-04 2.1429403413e+00 -3.7116815487e+00 2.1429403413e+00 3.7116815487e+00 
45500 4.9541699183e+00 2.5558201280e-04 2.1429343602e+00 -3.7116711891e+00 2.1429343602e+00 3.7116711891e+00 
45600 4.9541699378e+00 2.5463663393e-04 2.1429283968e+00 -3.7116608603e+00 2.1429283968e+00 3.7116608603e+00 
45700 4.9541699575e+00 2.5351275644e-04 2.1429224555e+00 -3.7116505696e+00 2.1429224555e+00 3.7116505696e+00 
45800 4.9541699775e+00 2.5221487230e-04 2.1429165404e+00 -3.7116403243e+00 2.1429165404e+00 3.7116403243e+00 
45900 4.9541699977e+00 2.5074757249e-04 2.1429106555e+00 -3.7116301315e+00 2.1429106555e+00 3.7116301315e+00 
46000 4.9541700182e+00 2.4911553947e-04 2.1429048049e+00 -3.7116199979e+00 2.1429048049e+00 3.7116199979e+00 
46100 4.9541700389e+00 2.4732353969e-04 2.1428989923e+00 -3.7116099302e+00 2.1428989923e+00 3.7116099302e+00 
46200 4.9541700597e+00 2.4537641629e-04 2.1428932216e+00 -3.7115999350e+00 2.1428932216e+00 3.7115999350e+00 
46300 4.9541700806e+00 2.4327908172e-04 2.1428874962e+00 -3.7115900184e+00 2.1428874962e+00 3.7115900184e+00 
46400 4.9541701017e+00 2.4103651059e-04 2.1428818198e+00 -3.7115801865e+00 2.1428818198e+00 3.7115801865e+00 
46500 4.9541701228e+00 2.3865373254e-04 2.1428761957e+00 -3.7115704452e+00 2.1428761957e+00 3.7115704452e+00 
46600 4.9541701439e+00 2.3613582526e-04 2.1428706271e+00 -3.7115608002e+00 2.1428706271e+00 3.7115608002e+00 
46700 4.9541701651e+00 2.3348790761e-04 2.1428651173e+00 -3.7115512570e+00 2.1428651173e+00 3.7115512570e+00 
46800 4.9541701862e+00 2.3071513278e-04 2.1428596693e+00 -3.7115418207e+00 2.1428596693e+00 3.7115418207e+00 
46900 4.9541702073e+00 2.2782268175e-04 2.1428542860e+00 -3.7115324965e+00 2.1428542860e+00 3.7115324965e+00 
47000 4.9541702283e+00 2.2481575666e-04 2.1428489701e+00 -3.7115232892e+00 2.1428489701e+00 3.7115232892e+00 
47100 4.9541702492e+00 2.2169957446e-04 2.1428437244e+00 -3.7115142033e+00 2.1428437244e+00 3.7115142033e+00 
47200 4.9541702700e+00 2.1847936065e-04 2.1428385514e+00 -3.7115052434e+00 2.1428385514e+00 3.7115052434e+00 
47300 4.9541702906e+00 2.1516034317e-04 2.1428334535e+00 -3.7114964136e+00 2.1428334535e+00 3.7114964136e+00 
47400 4.9541703110e+00 2.1174774640e-04 2.1428284330e+00 -3.7114877179e+00 2.1428284330e+00 3.7114877179e+00 
47500 4.9541703312e+00 2.0824678531e-04 2.1428234922e+00 -3.7114791601e+00 2.1428234922e+00 3.7114791601e+00 
47600 4.9541703511e+00 2.0466265984e-04 2.1428186330e+00 -3.7114707437e+00 2.1428186330e+00 3.7114707437e+00 
47700 4.9541703708e+00 2.0100054930e-04 2.1428138574e+00 -3.7114624723e+00 2.1428138574e+00 3.7114624723e+00 
47800 4.9541703903e+00 1.9726560704e-04 2.1428091673e+00 -3.7114543488e+00 2.1428091673e+00 3.7114543488e+00 
47900 4.9541704094e+00 1.9346295523e-04 2.1428045644e+00 -3.7114463762e+00 2.1428045644e+00 3.7114463762e+00 
48000 4.9541704282e+00 1.8959767979e-04 2.1428000501e+00 -3.7114385573e+00 2.1428000501e+00 3.7114385573e+00 
48100 4.9541704467e+00 1.8567482548e-04 2.1427956261e+00 -3.7114308946e+00 2.1427956261e+00 3.7114308946e+00 
48200 4.9541704649e+00 1.8169939122e-04 2.1427912935e+00 -3.7114233904e+00 2.1427912935e+00 3.7114233904e+00 
48300 4.9541704827e+00 1.7767632545e-04 2.1427870537e+00 -3.7114160469e+00 2.1427870537e+00 3.7114160469e+00 
48400 4.9541705001e+00 1.7361052182e-04 2.1427829078e+00 -3.7114088660e+00 2.1427829078e+00 3.7114088660e+00 
48500 4.9541705171e+00 1.6950681486e-04 2.1427788568e+00 -3.7114018493e+00 2.1427788568e+00 3.7114018493e+00 
48600 4.9541705338e+00 1.6536997600e-04 2.1427749015e+00 -3.7113949985e+00 2.1427749015e+00 3.7113949985e+00 
48700 4.9541705500e+00 1.6120470960e-04 2.1427710427e+00 -3.7113883149e+00 2.1427710427e+00 3.7113883149e+00 
48800 4.9541705659e+00 1.5701564930e-04 2.1427672811e+00 -3.7113817997e+00 2.1427672811e+00 3.7113817997e+00 
48900 4.9541705813e+00 1.5280735436e-04 2.1427636173e+00 -3.7113754537e+00 2.1427636173e+00 3.7113754537e+00 
49000 4.9541705963e+00 1.4858430639e-04 2.1427600516e+00 -3.7113692778e+00 2.1427600516e+00 3.7113692778e+00 
49100 4.9541706109e+00 1.4435090603e-04 2.1427565845e+00 -3.7113632726e+00 2.1427565845e+00 3.7113632726e+00 
49200 4.9541706251e+00 1.4011146993e-04 2.1427532161e+00 -3.7113574384e+00 2.1427532161e+00 3.7113574384e+00 
49300 4.9541706388e+00 1.3587022788e-04 2.1427499467e+00 -3.7113517756e+00 2.1427499467e+00 3.7113517756e+00 
49400 4.9541706522e+00 1.3163132008e-04 2.1427467762e+00 -3.7113462842e+00 2.1427467762e+00 3.7113462842e+00 
49500 4.9541706651e+00 1.2739879456e-04 2.1427437047e+00 -3.7113409641e+00 2.1427437047e+00 3.7113409641e+00 
49600 4.9541706776e+00 1.2317660485e-04 2.1427407319e+00 -3.7113358151e+00 2.1427407319e+00 3.7113358151e+00 
49700 4.9541706896e+00 1.1896860768e-04 2.1427378576e+00 -3.7113308367e+00 2.1427378576e+00 3.7113308367e+00 
49800 4.9541707013e+00 1.1477856097e-04 2.1427350815e+00 -3.7113260284e+00 2.1427350815e+00 3.7113260284e+00 
49900 4.9541707126e+00 1.1061012191e-04 2.1427324032e+00 -3.7113213894e+00 2.1427324032e+00 3.7113213894e+00 
50000 4.9541707235e+00 1.0646684521e-04 2.1427298222e+00 -3.7113169189e+00 2.1427298222e+00 3.7113169189e+00 
50100 4.9541707340e+00 1.0235218149e-04 2.1427273378e+00 -3.7113126158e+00 2.1427273378e+00 3.7113126158e+00 
50200 4.9541707441e+00 9.8269475904e-05 2.1427249494e+00 -3.7113084790e+00 2.1427249494e+00 3.7113084790e+00 
50300 4.9541707538e+00 9.4221966779e-05 2.1427226563e+00 -3.7113045073e+00 2.1427226563e+00 3.7113045073e+00 
50400 4.9541707632e+00 9.0212784552e-05 2.1427204577e+00 -3.7113006991e+00 2.1427204577e+00 3.7113006991e+00 
50500 4.9541707722e+00 8.6244950724e-05 2.1427183526e+00 -3.7112970530e+00 2.1427183526e+00 3.7112970530e+00 
50600 4.9541707809e+00 8.2321377075e-05 2.1427163401e+00 -3.7112935672e+00 2.1427163401e+00 3.7112935672e+00 
50700 4.9541707892e+00 7.8444864927e-05 2.1427144191e+00 -3.7112902400e+00 2.1427144191e+00 3.7112902400e+00 
50800 4.9541707972e+00 7.4618104573e-05 2.1427125886e+00 -3.7112870695e+00 2.1427125886e+00 3.7112870695e+00 
50900 4.9541708050e+00 7.0843674909e-05 2.1427108474e+00 -3.7112840536e+00 2.1427108474e+00 3.7112840536e+00 
51000 4.9541708124e+00 6.7124043089e-05 2.1427091943e+00 -3.7112811903e+00 2.1427091943e+00 3.7112811903e+00 
51100 4.9541708196e+00 6.4271387930e-05 2.1427091943e+00 -3.7112811903e+00 2.1427091943e+00 3.7112811903e+00 
51200 4.9541708266e+00 6.1441136877e-05 2.1427091943e+00 -3.7112811903e+00 2.1427091943e+00 3.7112811903e+00 
51300 4.9541708332e+00 5.8636473503e-05 2.1427091943e+00 -3.7112811903e+00 2.1427091943e+00 3.7112811903e+00 
51400 4.9541708396e+00 5.5860402293e-05 2.1427091943e+00 -3.7112811903e+00 2.1427091943e+00 3.7112811903e+00 
51500 4.9541708458e+00 5.3115753408e-05 2.1427091943e+00 -3.7112811903e+00 2.1427091943e+00 3.7112811903e+00 
51600 4.9541708517e+00 5.0405187515e-05 2.1427091943e+00 -3.7112811903e+00 2.1427091943e+00 3.7112811903e+00 
51700 4.9541708574e+00 4.7731200602e-05 2.1427091943e+00 -3.7112811903e+00 2.1427091943e+00 3.7112811903e+00 
51800 4.9541708629e+00 4.5096128863e-05 2.1427091943e+00 -3.7112811903e+00 2.1427091943e+00 3.7112811903e+00 
51900 4.9541708683e+00 4.2502153551e-05 2.1427091943e+00 -3.7112811903e+00 2.1427091943e+00 3.7112811903e+00 
52000 4.9541708734e+00 3.9951305830e-05 2.1427091943e+00 -3.7112811903e+00 2.1427091943e+00 3.7112811903e+00 
52100 4.9541708784e+00 3.7445471613e-05 2.1427091943e+00 -3.7112811903e+00 2.1427091943e+00 3.7112811903e+00 
52200 4.9541708832e+00 3.4986396373e-05 2.1427091943e+00 -3.7112811903e+00 2.1427091943e+00 3.7112811903e+00 
52300 4.9541708879e+00 3.2575689918e-05 2.1427091943e+00 -3.7112811903e+00 2.1427091943e+00 3.7112811903e+00 
52400 4.9541708924e+00 3.0214831110e-05 2.1427091943e+00 -3.7112811903e+00 2.1427091943e+00 3.7112811903e+00 
52500 4.9541708968e+00 2.7905172555e-05 2.1427091943e+00 -3.7112811903e+00 2.1427091943e+00 3.7112811903e+00 
52600 4.9541709012e+00 2.5647945199e-05 2.1427091943e+00 -3.7112811903e+00 2.1427091943e+00 3.7112811903e+00 
52700 4.9541709054e+00 2.3444262899e-05 2.1427091943e+00 -3.7112811903e+00 2.1427091943e+00 3.7112811903e+00 
52800 4.9541709096e+00 2.1295126880e-05 2.1427091943e+00 -3.7112811903e+00 2.1427091943e+00 3.7112811903e+00 
52900 4.9541709136e+00 1.9201430146e-05 2.1427091943e+00 -3.7112811903e+00 2.1427091943e+00 3.7112811903e+00 
53000 4.9541709177e+00 1.7163961800e-05 2.1427091943e+00 -3.7112811903e+00 2.1427091943e+00 3.7112811903e+00 
53100 4.9541709216e+00 1.5183411261e-05 2.1427091943e+00 -3.7112811903e+00 2.1427091943e+00 3.7112811903e+00 
53200 4.9541709255e+00 1.3260372415e-05 2.1427091943e+00 -3.7112811903e+00 2.1427091943e+00 3.7112811903e+00 
53300 4.9541709294e+00 1.1395347660e-05 2.1427091943e+00 -3.7112811903e+00 2.1427091943e+00 3.7112811903e+00 
53400 4.9541709333e+00 9.5887518578e-06 2.1427091943e+00 -3.7112811903e+00 2.1427091943e+00 3.7112811903e+00 
53500 4.9541709371e+00 7.8409161731e-06 2.1427091943e+00 -3.7112811903e+00 2.1427091943e+00 3.7112811903e+00 
53600 4.9541709409e+00 6.1520918441e-06 2.1427091943e+00 -3.7112811903e+00 2.1427091943e+00 3.7112811903e+00 
53700 4.9541709446e+00 4.5224538160e-06 2.1427091943e+00 -3.7112811903e+00 2.1427091943e+00 3.7112811903e+00 
53800 4.9541709484e+00 2.9521042859e-06 2.1427091943e+00 -3.7112811903e+00 2.1427091943e+00 3.7112811903e+00 
53900 4.9541709522e+00 1.4410761523e-06 2.1427091943e+00 -3.7112811903e+00 2.1427091943e+00 3.7112811903e+00 
54000 4.9541709560e+00 -1.0663659136e-08 2.1427091943e+00 -3.7112811903e+00 2.1427091943e+00 3.7112811903e+00 
54100 4.9541709598e+00 -1.4032109581e-06 2.1427091943e+00 -3.7112811903e+00 2.1427091943e+00 3.7112811903e+00 
54200 4.9541709635e+00 -2.7367211718e-06 2.1427091943e+00 -3.7112811903e+00 2.1427091943e+00 3.7112811903e+00 
54300 4.9541709673e+00 -4.0114063102e-06 2.1427091943e+00 -3.7112811903e+00 2.1427091943e+00 3.7112811903e+00 
54400 4.9541709711e+00 -5.2275320529e-06 2.1427091943e+00 -3.7112811903e+00 2.1427091943e+00 3.7112811903e+00 
54500 4.9541709750e+00 -6.3854149499e-06 2.1427091943e+00 -3.7112811903e+00 2.1427091943e+00 3.7112811903e+00 
54600 4.9541709788e+00 -7.4854196838e-06 2.1427091943e+00 -3.7112811903e+00 2.1427091943e+00 3.7112811903e+00 
54700 4.9541709827e+00 -8.5279564706e-06 2.1427091943e+00 -3.7112811903e+00 2.1427091943e+00 3.7112811903e+00 
54800 4.9541709865e+00 -9.5134785412e-06 2.1427091943e+00 -3.7112811903e+00 2.1427091943e+00 3.7112811903e+00 
54900 4.9541709904e+00 -1.0442479721e-05 2.1427091943e+00 -3.7112811903e+00 2.1427091943e+00 3.7112811903e+00 
55000 4.9541709944e+00 -1.1315492113e-05 2.1427091943e+00 -3.7112811903e+00 2.1427091943e+00 3.7112811903e+00 
55100 4.9541709983e+00 -1.2133083853e-05 2.1427091943e+00 -3.7112811903e+00 2.1427091943e+00 3.7112811903e+00 
55200 4.9541710022e+00 -1.2895856989e-05 2.1427091943e+00 -3.7112811903e+00 2.1427091943e+00 3.7112811903e+00 
55300 4.9541710062e+00 -1.3604445419e-05 2.1427091943e+00 -3.7112811903e+00 2.1427091943e+00 3.7112811903e+00 
55400 4.9541710102e+00 -1.4259512921e-05 2.1427091943e+00 -3.7112811903e+00 2.1427091943e+00 3.7112811903e+00 
55500 4.9541710142e+00 -1.4861751290e-05 2.1427091943e+00 -3.7112811903e+00 2.1427091943e+00 3.7112811903e+00 
55600 4.9541710182e+00 -1.5411878515e-05 2.1427091943e+00 -3.7112811903e+00 2.1427091943e+00 3.7112811903e+00 
55700 4.9541710222e+00 -1.5910637074e-05 2.1427091943e+00 -3.7112811903e+00 2.1427091943e+00 3.7112811903e+00 
55800 4.9541710262e+00 -1.6358792281e-05 2.1427091943e+00 -3.7112811903e+00 2.1427091943e+00 3.7112811903e+00 
55900 4.9541710302e+00 -1.6757130714e-05 2.1427091943e+00 -3.7112811903e+00 2.1427091943e+00 3.7112811903e+00 
56000 4.9541710343e+00 -1.7106458714e-05 2.1427091943e+00 -3.7112811903e+00 2.1427091943e+00 3.7112811903e+00 
56100 4.9541710383e+00 -1.7407600955e-05 2.1427091943e+00 -3.7112811903e+00 2.1427091943e+00 3.7112811903e+00 
56200 4.9541710423e+00 -1.7661399062e-05 2.1427091943e+00 -3.7112811903e+00 2.1427091943e+00 3.7112811903e+00 
56300 4.9541710463e+00 -1.7868710330e-05 2.1427091943e+00 -3.7112811903e+00 2.1427091943e+00 3.7112811903e+00 
56400 4.9541710504e+00 -1.8030406444e-05 2.1427091943e+00 -3.7112811903e+00 2.1427091943e+00 3.7112811903e+00 
56500 4.9541710544e+00 -1.8147372318e-05 2.1427091943e+00 -3.7112811903e+00 2.1427091943e+00 3.7112811903e+00 
56600 4.9541710584e+00 -1.8220504954e-05 2.1427091943e+00 -3.7112811903e+00 2.1427091943e+00 3.7112811903e+00 
56700 4.9541710623e+00 -1.8250712346e-05 2.1427091943e+00 -3.7112811903e+00 2.1427091943e+00 3.7112811903e+00 
56800 4.9541710663e+00 -1.8238912466e-05 2.1427091943e+00 -3.7112811903e+00 2.1427091943e+00 3.7112811903e+00 
56900 4.9541710702e+00 -1.8186032259e-05 2.1427091943e+00 -3.7112811903e+00 2.1427091943e+00 3.7112811903e+00 
57000 4.9541710742e+00 -1.8093006723e-05 2.1427091943e+00 -3.7112811903e+00 2.1427091943e+00 3.7112811903e+00 
57100 4.9541710780e+00 -1.7960777989e-05 2.1427091943e+00 -3.7112811903e+00 2.1427091943e+00 3.7112811903e+00 
57200 4.9541710819e+00 -1.7790294480e-05 2.1427091943e+00 -3.7112811903e+00 2.1427091943e+00 3.7112811903e+00 
57300 4.9541710857e+00 -1.7582510070e-05 2.1427091943e+00 -3.7112811903e+00 2.1427091943e+00 3.7112811903e+00 
57400 4.9541710895e+00 -1.7338383316e-05 2.1427091943e+00 -3.7112811903e+00 2.1427091943e+00 3.7112811903e+00 
57500 4.9541710933e+00 -1.7058876695e-05 2.1427091943e+00 -3.7112811903e+00 2.1427091943e+00 3.7112811903e+00 
57600 4.9541710970e+00 -1.6744955873e-05 2.1427091943e+00 -3.7112811903e+00 2.1427091943e+00 3.7112811903e+00 
57700 4.9541711007e+00 -1.6397589043e-05 2.1427091943e+00 -3.7112811903e+00 2.1427091943e+00 3.7112811903e+00 
57800 4.9541711043e+00 -1.6017746223e-05 2.1427091943e+00 -3.7112811903e+00 2.1427091943e+00 3.7112811903e+00 
57900 4.9541711079e+00 -1.5606398642e-05 2.1427091943e+00 -3.7112811903e+00 2.1427091943e+00 3.7112811903e+00 
58000 4.9541711114e+00 -1.5164518112e-05 2.1427091943e+00 -3.7112811903e+00 2.1427091943e+00 3.7112811903e+00 
58100 4.9541711149e+00 -1.4693076446e-05 2.1427091943e+00 -3.7112811903e+00 2.1427091943e+00 3.7112811903e+00 
58200 4.9541711184e+00 -1.4193044869e-05 2.1427091943e+00 -3.7112811903e+00 2.1427091943e+00 3.7112811903e+00 
58300 4.9541711217e+00 -1.3665393483e-05 2.1427091943e+00 -3.7112811903e+00 2.1427091943e+00 3.7112811903e+00 
58400 4.9541711251e+00 -1.3111090715e-05 2.1427091943e+00 -3.7112811903e+00 2.1427091943e+00 3.7112811903e+00 
58500 4.9541711284e+00 -1.2531102818e-05 2.1427091943e+00 -3.7112811903e+00 2.1427091943e+00 3.7112811903e+00 
58600 4.9541711316e+00 -1.1926393350e-05 2.1427091943e+00 -3.7112811903e+00 2.1427091943e+00 3.7112811903e+00 
58700 4.9541711347e+00 -1.1297922690e-05 2.1427091943e+00 -3.7112811903e+00 2.1427091943e+00 3.7112811903e+00 
58800 4.9541711379e+00 -1.0646647571e-05 2.1427091943e+00 -3.7112811903e+00 2.1427091943e+00 3.7112811903e+00 
58900 4.9541711409e+00 -9.9735206026e-06 2.1427091943e+00 -3.7112811903e+00 2.1427091943e+00 3.7112811903e+00 
59000 4.9541711439e+00 -9.2794898355e-06 2.1427091943e+00 -3.7112811903e+00 2.1427091943e+00 3.7112811903e+00 
59100 4.9541711468e+00 -8.5654983057e-06 2.1427091943e+00 -3.7112811903e+00 2.1427091943e+00 3.7112811903e+00 
59200 4.9541711497e+00 -7.8324836180e-06 2.1427091943e+00 -3.7112811903e+00 2.1427091943e+00 3.7112811903e+00 
59300 4.9541711525e+00 -7.0813775037e-06 2.1427091943e+00 -3.7112811903e+00 2.1427091943e+00 3.7112811903e+00 
59400 4.9541711553e+00 -6.3131054252e-06 2.1427091943e+00 -3.7112811903e+00 2.1427091943e+00 3.7112811903e+00 
59500 4.9541711580e+00 -5.5285861620e-06 2.1427091943e+00 -3.7112811903e+00 2.1427091943e+00 3.7112811903e+00 
59600 4.9541711606e+00 -4.7287314170e-06 2.1427091943e+00 -3.7112811903e+00 2.1427091943e+00 3.7112811903e+00 
59700 4.9541711632e+00 -3.9144454205e-06 2.1427091943e+00 -3.7112811903e+00 2.1427091943e+00 3.7112811903e+00 
59800 4.9541711657e+00 -3.0866245482e-06 2.1427091943e+00 -3.7112811903e+00 2.1427091943e+00 3.7112811903e+00 
59900 4.9541711682e+00 -2.2461569484e-06 2.1427091943e+00 -3.7112811903e+00 2.1427091943e+00 3.7112811903e+00 
60000 4.9541711706e+00 -1.3939221602e-06 2.1427091943e+00 -3.7112811903e+00 2.1427091943e+00 3.7112811903e+00 
60100 4.9541711729e+00 -5.3079076368e-07 2.1427091943e+00 -3.7112811903e+00 2.1427091943e+00 3.7112811903e+00 
60200 4.9541711752e+00 3.4237599738e-07 2.1427091943e+00 -3.7112811903e+00 2.1427091943e+00 3.7112811903e+00 
60300 4.9541711775e+00 1.2247265504e-06 2.1427091943e+00 -3.7112811903e+00 2.1427091943e+00 3.7112811903e+00 
60400 4.9541711796e+00 2.1154193547e-06 2.1427091943e+00 -3.7112811903e+00 2.1427091943e+00 3.7112811903e+00 
60500 4.9541711818e+00 3.0136232365e-06 2.1427091943e+00 -3.7112811903e+00 2.1427091943e+00 3.7112811903e+00 
60600 4.9541711839e+00 3.9185177249e-06 2.1427091943e+00 -3.7112811903e+00 2.1427091943e+00 3.7112811903e+00 
60700 4.9541711859e+00 4.8292933888e-06 2.1427091943e+00 -3.7112811903e+00 2.1427091943e+00 3.7112811903e+00 
60800 4.9541711879e+00 5.7451521391e-06 2.1427091943e+00 -3.7112811903e+00 2.1427091943e+00 3.7112811903e+00 
60900 4.9541711898e+00 6.6653075773e-06 2.1427091943e+00 -3.7112811903e+00 2.1427091943e+00 3.7112811903e+00 
61000 4.9541711917e+00 7.5889852750e-06 2.1427091943e+00 -3.7112811903e+00 2.1427091943e+00 3.7112811903e+00 
61100 4.9541711936e+00 8.5154231011e-06 2.1427091943e+00 -3.7112811903e+00 2.1427091943e+00 3.7112811903e+00 
61200 4.9541711954e+00 9.4438715047e-06 2.1427091943e+00 -3.7112811903e+00 2.1427091943e+00 3.7112811903e+00 
61300 4.9541711971e+00 1.0373593816e-05 2.1427091943e+00 -3.7112811903e+00 2.1427091943e+00 3.7112811903e+00 
61400 4.9541711989e+00 1.1303866520e-05 2.1427091943e+00 -3.7112811903e+00 2.1427091943e+00 3.7112811903e+00 
61500 4.9541712006e+00 1.2233979540e-05 2.1427091943e+00 -3.7112811903e+00 2.1427091943e+00 3.7112811903e+00 
61600 4.9541712022e+00 1.3163236495e-05 2.1427091943e+00 -3.7112811903e+00 2.1427091943e+00 3.7112811903e+00 
61700 4.9541712038e+00 1.4090954972e-05 2.1427091943e+00 -3.7112811903e+00 2.1427091943e+00 3.7112811903e+00 
61800 4.9541712054e+00 1.5016466764e-05 2.1427091943e+00 -3.7112811903e+00 2.1427091943e+00 3.7112811903e+00 
61900 4.9541712069e+00 1.5939118126e-05 2.1427091943e+00 -3.7112811903e+00 2.1427091943e+00 3.7112811903e+00 
62000 4.9541712085e+00 1.6858269995e-05 2.1427091943e+00 -3.7112811903e+00 2.1427091943e+00 3.7112811903e+00 
62100 4.9541712099e+00 1.7773298224e-05 2.1427091943e+00 -3.7112811903e+00 2.1427091943e+00 3.7112811903e+00 
62200 4.9541712114e+00 1.8683593794e-05 2.1427091943e+00 -3.7112811903e+00 2.1427091943e+00 3.7112811903e+00 
62300 4.9541712128e+00 1.9588563014e-05 2.1427091943e+00 -3.7112811903e+00 2.1427091943e+00 3.7112811903e+00 
62400 4.9541712142e+00 2.0487627718e-05 2.1427091943e+00 -3.7112811903e+00 2.1427091943e+00 3.7112811903e+00 
62500 4.9541712156e+00 2.1380225458e-05 2.1427091943e+00 -3.7112811903e+00 2.1427091943e+00 3.7112811903e+00 
62600 4.9541712170e+00 2.2265809660e-05 2.1427091943e+00 -3.7112811903e+00 2.1427091943e+00 3.7112811903e+00 
62700 4.9541712183e+00 2.3143849799e-05 2.1427091943e+00 -3.7112811903e+00 2.1427091943e+00 3.7112811903e+00 
62800 4.9541712196e+00 2.4013831547e-05 2.1427091943e+00 -3.7112811903e+00 2.1427091943e+00 3.7112811903e+00 
62900 4.9541712209e+00 2.4875256910e-05 2.1427091943e+00 -3.7112811903e+00 2.1427091943e+00 3.7112811903e+00 
63000 4.9541712222e+00 2.5727644358e-05 2.1427091943e+00 -3.7112811903e+00 2.1427091943e+00 3.7112811903e+00 
63100 4.9541712234e+00 2.6570528940e-05 2.1427091943e+00 -3.7112811903e+00 2.1427091943e+00 3.7112811903e+00 
63200 4.9541712247e+00 2.7403462385e-05 2.1427091943e+00 -3.7112811903e+00 2.1427091943e+00 3.7112811903e+00 
63300 4.9541712259e+00 2.8226013201e-05 2.1427091943e+00 -3.7112811903e+00 2.1427091943e+00 3.7112811903e+00 
63400 4.9541712271e+00 2.9037766743e-05 2.1427091943e+00 -3.7112811903e+00 2.1427091943e+00 3.7112811903e+00 
63500 4.9541712283e+00 2.9838325279e-05 2.1427091943e+00 -3.7112811903e+00 2.1427091943e+00 3.7112811903e+00 
63600 4.9541712295e+00 3.0627308056e-05 2.1427091943e+00 -3.7112811903e+00 2.1427091943e+00 3.7112811903e+00 
63700 4.9541712306e+00 3.1404351323e-05 2.1427091943e+00 -3.7112811903e+00 2.1427091943e+00 3.7112811903e+00 
63800 4.9541712318e+00 3.2169108375e-05 2.1427091943e+00 -3.7112811903e+00 2.1427091943e+00 3.7112811903e+00 
63900 4.9541712329e+00 3.2921249548e-05 2.1427091943e+00 -3.7112811903e+00 2.1427091943e+00 3.7112811903e+00 
64000 4.9541712341e+00 3.3660462228e-05 2.1427091943e+00 -3.7112811903e+00 2.1427091943e+00 3.7112811903e+00 
64100 4.9541712352e+00 3.4386450852e-05 2.1427091943e+00 -3.7112811903e+00 2.1427091943e+00 3.7112811903e+00 
64200 4.9541712363e+00 3.5098936854e-05 2.1427091943e+00 -3.7112811903e+00 2.1427091943e+00 3.7112811903e+00 
64300 4.9541712374e+00 3.5797658648e-05 2.1427091943e+00 -3.7112811903e+00 2.1427091943e+00 3.7112811903e+00 
64400 4.9541712385e+00 3.6482371561e-05 2.1427091943e+00 -3.7112811903e+00 2.1427091943e+00 3.7112811903e+00 
64500 4.9541712396e+00 3.7152847784e-05 2.1427091943e+00 -3.7112811903e+00 2.1427091943e+00 3.7112811903e+00 
64600 4.9541712407e+00 3.7808876269e-05 2.1427091943e+00 -3.7112811903e+00 2.1427091943e+00 3.7112811903e+00 
64700 4.9541712417e+00 3.8450262659e-05 2.1427091943e+00 -3.7112811903e+00 2.1427091943e+00 3.7112811903e+00 
64800 4.9541712428e+00 3.9076829173e-05 2.1427091943e+00 -3.7112811903e+00 2.1427091943e+00 3.7112811903e+00 
64900 4.9541712438e+00 3.9688414478e-05 2.1427091943e+00 -3.7112811903e+00 2.1427091943e+00 3.7112811903e+00 
65000 4.9541712449e+00 4.0284873586e-05 2.1427091943e+00 -3.7112811903e+00 2.1427091943e+00 3.7112811903e+00 
65100 4.9541712459e+00 4.0866077676e-05 2.1427091943e+00 -3.7112811903e+00 2.1427091943e+00 3.7112811903e+00 
65200 4.9541712470e+00 4.1431913970e-05 2.1427091943e+00 -3.7112811903e+00 2.1427091943e+00 3.7112811903e+00 
65300 4.9541712480e+00 4.1982285537e-05 2.1427091943e+00 -3.7112811903e+00 2.1427091943e+00 3.7112811903e+00 
65400 4.9541712490e+00 4.2517111138e-05 2.1427091943e+00 -3.7112811903e+00 2.1427091943e+00 3.7112811903e+00 
65500 4.9541712500e+00 4.3036325015e-05 2.1427091943e+00 -3.7112811903e+00 2.1427091943e+00 3.7112811903e+00 
65600 4.9541712510e+00 4.3539876703e-05 2.1427091943e+00 -3.7112811903e+00 2.1427091943e+00 3.7112811903e+00 
65700 4.9541712520e+00 4.4027730798e-05 2.1427091943e+00 -3.7112811903e+00 2.1427091943e+00 3.7112811903e+00 
65800 4.9541712530e+00 4.4499866755e-05 2.1427091943e+00 -3.7112811903e+00 2.1427091943e+00 3.7112811903e+00 
65900 4.9541712540e+00 4.4956278623e-05 2.1427091943e+00 -3.7112811903e+00 2.1427091943e+00 3.7112811903e+00 
66000 4.9541712550e+00 4.5396974825e-05 2.1427091943e+00 -3.7112811903e+00 2.1427091943e+00 3.7112811903e+00 
66100 4.9541712559e+00 4.5821977895e-05 2.1427091943e+00 -3.7112811903e+00 2.1427091943e+00 3.7112811903e+00 
66200 4.9541712569e+00 4.6231324196e-05 2.1427091943e+00 -3.7112811903e+00 2.1427091943e+00 3.7112811903e+00 
66300 4.9541712578e+00 4.6625063665e-05 2.1427091943e+00 -3.7112811903e+00 2.1427091943e+00 3.7112811903e+00 
66400 4.9541712588e+00 4.7003259522e-05 2.1427091943e+00 -3.7112811903e+00 2.1427091943e+00 3.7112811903e+00 
66500 4.9541712597e+00 4.7365987967e-05 2.1427091943e+00 -3.7112811903e+00 2.1427091943e+00 3.7112811903e+00 
66600 4.9541712606e+00 4.7713337899e-05 2.1427091943e+00 -3.7112811903e+00 2.1427091943e+00 3.7112811903e+00 
66700 4.9541712616e+00 4.8045410590e-05 2.1427091943e+00 -3.7112811903e+00 2.1427091943e+00 3.7112811903e+00 
66800 4.9541712625e+00 4.8362319374e-05 2.1427091943e+00 -3.7112811903e+00 2.1427091943e+00 3.7112811903e+00 
66900 4.9541712634e+00 4.8664189326e-05 2.1427091943e+00 -3.7112811903e+00 2.1427091943e+00 3.7112811903e+00 
67000 4.9541712643e+00 4.8951156929e-05 2.1427091943e+00 -3.7112811903e+00 2.1427091943e+00 3.7112811903e+00 
67100 4.9541712651e+00 4.9223369741e-05 2.1427091943e+00 -3.7112811903e+00 2.1427091943e+00 3.7112811903e+00 
67200 4.9541712660e+00 4.9480986048e-05 2.1427091943e+00 -3.7112811903e+00 2.1427091943e+00 3.7112811903e+00 
67300 4.9541712669e+00 4.9724174524e-05 2.1427091943e+00 -3.7112811903e+00 2.1427091943e+00 3.7112811903e+00 
67400 4.9541712677e+00 4.9953113877e-05 2.1427091943e+00 -3.7112811903e+00 2.1427091943e+00 3.7112811903e+00 
67500 4.9541712686e+00 5.0167992486e-05 2.1427091943e+00 -3.7112811903e+00 2.1427091943e+00 3.7112811903e+00 
67600 4.9541712694e+00 5.0369008042e-05 2.1427091943e+00 -3.7112811903e+00 2.1427091943e+00 3.7112811903e+00 
67700 4.9541712702e+00 5.0556367197e-05 2.1427091943e+00 -3.7112811903e+00 2.1427091943e+00 3.7112811903e+00 
67800 4.9541712711e+00 5.0730285180e-05 2.1427091943e+00 -3.7112811903e+00 2.1427091943e+00 3.7112811903e+00 
67900 4.9541712719e+00 5.0890985436e-05 2.1427091943e+00 -3.7112811903e+00 2.1427091943e+00 3.7112811903e+00 
68000 4.9541712727e+00 5.1038699245e-05 2.1427091943e+00 -3.7112811903e+00 2.1427091943e+00 3.7112811903e+00 
68100 4.9541712734e+00 5.1173665372e-05 2.1427091943e+00 -3.7112811903e+00 2.1427091943e+00 3.7112811903e+00 
68200 4.9541712742e+00 5.1296129652e-05 2.1427091943e+00 -3.7112811903e+00 2.1427091943e+00 3.7112811903e+00 
68300 4.9541712750e+00 5.1406344646e-05 2.1427091943e+00 -3.7112811903e+00 2.1427091943e+00 3.7112811903e+00 
68400 4.9541712757e+00 5.1504569253e-05 2.1427091943e+00 -3.7112811903e+00 2.1427091943e+00 3.7112811903e+00 
68500 4.9541712765e+00 5.1591068333e-05 2.1427091943e+00 -3.7112811903e+00 2.1427091943e+00 3.7112811903e+00 
68600 4.9541712772e+00 5.1666112327e-05 2.1427091943e+00 -3.7112811903e+00 2.1427091943e+00 3.7112811903e+00 
68700 4.9541712779e+00 5.1729976883e-05 2.1427091943e+00 -3.7112811903e+00 2.1427091943e+00 3.7112811903e+00 
68800 4.9541712786e+00 5.1782942484e-05 2.1427091943e+00 -3.7112811903e+00 2.1427091943e+00 3.7112811903e+00 
68900 4.9541712793e+00 5.1825294073e-05 2.1427091943e+00 -3.7112811903e+00 2.1427091943e+00 3.7112811903e+00 
69000 4.9541712800e+00 5.1857320678e-05 2.1427091943e+00 -3.7112811903e+00 2.1427091943e+00 3.7112811903e+00 
69100 4.9541712807e+00 5.1879315042e-05 2.1427091943e+00 -3.7112811903e+00 2.1427091943e+00 3.7112811903e+00 
69200 4.9541712814e+00 5.1891573262e-05 2.1427091943e+00 -3.7112811903e+00 2.1427091943e+00 3.7112811903e+00 
69300 4.9541712820e+00 5.1894394419e-05 2.1427091943e+00 -3.7112811903e+00 2.1427091943e+00 3.7112811903e+00 
69400 4.9541712827e+00 5.1888080225e-05 2.1427091943e+00 -3.7112811903e+00 2.1427091943e+00 3.7112811903e+00 
69500 4.9541712833e+00 5.1872934652e-05 2.1427091943e+00 -3.7112811903e+00 2.1427091943e+00 3.7112811903e+00 
69600 4.9541712839e+00 5.1849263598e-05 2.1427091943e+00 -3.7112811903e+00 2.1427091943e+00 3.7112811903e+00 
69700 4.9541712845e+00 5.1817374521e-05 2.1427091943e+00 -3.7112811903e+00 2.1427091943e+00 3.7112811903e+00 
69800 4.9541712851e+00 5.1777576108e-05 2.1427091943e+00 -3.7112811903e+00 2.1427091943e+00 3.7112811903e+00 
69900 4.9541712857e+00 5.1730177929e-05 2.1427091943e+00 -3.7112811903e+00 2.1427091943e+00 3.7112811903e+00 
70000 4.9541712863e+00 5.1675490108e-05 2.1427091943e+00 -3.7112811903e+00 2.1427091943e+00 3.7112811903e+00 
70100 4.9541712869e+00 5.1613822989e-05 2.1427091943e+00 -3.7112811903e+00 2.1427091943e+00 3.7112811903e+00 
70200 4.9541712874e+00 5.1545486821e-05 2.1427091943e+00 -3.7112811903e+00 2.1427091943e+00 3.7112811903e+00 
70300 4.9541712880e+00 5.1470791441e-05 2.1427091943e+00 -3.7112811903e+00 2.1427091943e+00 3.7112811903e+00 
70400 4.9541712885e+00 5.1390045956e-05 2.1427091943e+00 -3.7112811903e+00 2.1427091943e+00 3.7112811903e+00 
70500 4.9541712891e+00 5.1303558450e-05 2.1427091943e+00 -3.7112811903e+00 2.1427091943e+00 3.7112811903e+00 
70600 4.9541712896e+00 5.1211635687e-05 2.1427091943e+00 -3.7112811903e+00 2.1427091943e+00 3.7112811903e+00 
70700 4.9541712901e+00 5.1114582813e-05 2.1427091943e+00 -3.7112811903e+00 2.1427091943e+00 3.7112811903e+00 
70800 4.9541712906e+00 5.1012703087e-05 2.1427091943e+00 -3.7112811903e+00 2.1427091943e+00 3.7112811903e+00 
70900 4.9541712911e+00 5.0906297594e-05 2.1427091943e+00 -3.7112811903e+00 2.1427091943e+00 3.7112811903e+00 
71000 4.9541712916e+00 5.0795664980e-05 2.1427091943e+00 -3.7112811903e+00 2.1427091943e+00 3.7112811903e+00 
71100 4.9541712921e+00 5.0681101206e-05 2.1427091943e+00 -3.7112811903e+00 2.1427091943e+00 3.7112811903e+00 
71200 4.9541712926e+00 5.0562899288e-05 2.1427091943e+00 -3.7112811903e+00 2.1427091943e+00 3.7112811903e+00 
71300 4.9541712930e+00 5.0441349047e-05 2.1427091943e+00 -3.7112811903e+00 2.1427091943e+00 3.7112811903e+00 
71400 4.9541712935e+00 5.0316736871e-05 2.1427091943e+00 -3.7112811903e+00 2.1427091943e+00 3.7112811903e+00 
71500 4.9541712940e+00 5.0189345522e-05 2.1427091943e+00 -3.7112811903e+00 2.1427091943e+00 3.7112811903e+00 
71600 4.9541712944e+00 5.0059453869e-05 2.1427091943e+00 -3.7112811903e+00 2.1427091943e+00 3.7112811903e+00 
71700 4.9541712948e+00 4.9927336716e-05 2.1427091943e+00 -3.7112811903e+00 2.1427091943e+00 3.7112811903e+00 
71800 4.9541712953e+00 4.9793264580e-05 2.1427091943e+00 -3.7112811903e+00 2.1427091943e+00 3.7112811903e+00 
71900 4.9541712957e+00 4.9657503514e-05 2.1427091943e+00 -3.7112811903e+00 2.1427091943e+00 3.7112811903e+00 
72000 4.9541712961e+00 4.9520314898e-05 2.1427091943e+00 -3.7112811903e+00 2.1427091943e+00 3.7112811903e+00 
72100 4.9541712965e+00 4.9381955301e-05 2.1427091943e+00 -3.7112811903e+00 2.1427091943e+00 3.7112811903e+00 
72200 4.9541712969e+00 4.9242676270e-05 2.1427091943e+00 -3.7112811903e+00 2.1427091943e+00 3.7112811903e+00 
72300 4.9541712973e+00 4.9102724211e-05 2.1427091943e+00 -3.7112811903e+00 2.1427091943e+00 3.7112811903e+00 
72400 4.9541712977e+00 4.8962340225e-05 2.1427091943e+00 -3.7112811903e+00 2.1427091943e+00 3.7112811903e+00 
72500 4.9541712981e+00 4.8821759955e-05 2.1427091943e+00 -3.7112811903e+00 2.1427091943e+00 3.7112811903e+00 
72600 4.9541712985e+00 4.8681213478e-05 2.1427091943e+00 -3.7112811903e+00 2.1427091943e+00 3.7112811903e+00 
72700 4.9541712989e+00 4.8540925166e-05 2.1427091943e+00 -3.7112811903e+00 2.1427091943e+00 3.7112811903e+00 
72800 4.9541712992e+00 4.8401113573e-05 2.1427091943e+00 -3.7112811903e+00 2.1427091943e+00 3.7112811903e+00 
72900 4.9541712996e+00 4.8261991341e-05 2.1427091943e+00 -3.7112811903e+00 2.1427091943e+00 3.7112811903e+00 
73000 4.9541712999e+00 4.8123765089e-05 2.1427091943e+00 -3.7112811903e+00 2.1427091943e+00 3.7112811903e+00 
73100 4.9541713003e+00 4.7986635335e-05 2.1427091943e+00 -3.7112811903e+00 2.1427091943e+00 3.7112811903e+00 
73200 4.9541713007e+00 4.7850796412e-05 2.1427091943e+00 -3.7112811903e+00 2.1427091943e+00 3.7112811903e+00 
73300 4.9541713010e+00 4.7716436394e-05 2.1427091943e+00 -3.7112811903e+00 2.1427091943e+00 3.7112811903e+00 
73400 4.9541713013e+00 4.7583737035e-05 2.1427091943e+00 -3.7112811903e+00 2.1427091943e+00 3.7112811903e+00 
73500 4.9541713017e+00 4.7452873721e-05 2.1427091943e+00 -3.7112811903e+00 2.1427091943e+00 3.7112811903e+00 
73600 4.9541713020e+00 4.7324015410e-05 2.1427091943e+00 -3.7112811903e+00 2.1427091943e+00 3.7112811903e+00 
73700 4.9541713023e+00 4.7197324601e-05 2.1427091943e+00 -3.7112811903e+00 2.1427091943e+00 3.7112811903e+00 
73800 4.9541713027e+00 4.7072957307e-05 2.1427091943e+00 -3.7112811903e+00 2.1427091943e+00 3.7112811903e+00 
73900 4.9541713030e+00 4.6951063026e-05 2.1427091943e+00 -3.7112811903e+00 2.1427091943e+00 3.7112811903e+00 
74000 4.9541713033e+00 4.6831784715e-05 2.1427091943e+00 -3.7112811903e+00 2.1427091943e+00 3.7112811903e+00 
74100 4.9541713036e+00 4.6715258809e-05 2.1427091943e+00 -3.7112811903e+00 2.1427091943e+00 3.7112811903e+00 
74200 4.9541713039e+00 4.6601615195e-05 2.1427091943e+00 -3.7112811903e+00 2.1427091943e+00 3.7112811903e+00 
74300 4.9541713042e+00 4.6490977223e-05 2.1427091943e+00 -3.7112811903e+00 2.1427091943e+00 3.7112811903e+00 
74400 4.9541713045e+00 4.6383461738e-05 2.1427091943e+00 -3.7112811903e+00 2.1427091943e+00 3.7112811903e+00 
74500 4.9541713048e+00 4.6279179068e-05 2.1427091943e+00 -3.7112811903e+00 2.1427091943e+00 3.7112811903e+00 
74600 4.9541713051e+00 4.6178233085e-05 2.1427091943e+00 -3.7112811903e+00 2.1427091943e+00 3.7112811903e+00 
74700 4.9541713054e+00 4.6080721211e-05 2.1427091943e+00 -3.7112811903e+00 2.1427091943e+00 3.7112811903e+00 
74800 4.9541713057e+00 4.5986734472e-05 2.1427091943e+00 -3.7112811903e+00 2.1427091943e+00 3.7112811903e+00 
74900 4.9541713060e+00 4.5896357545e-05 2.1427091943e+00 -3.7112811903e+00 2.1427091943e+00 3.7112811903e+00 
75000 4.9541713063e+00 4.5809668792e-05 2.1427091943e+00 -3.7112811903e+00 2.1427091943e+00 3.7112811903e+00 
75100 4.9541713066e+00 4.5726740348e-05 2.1427091943e+00 -3.7112811903e+00 2.1427091943e+00 3.7112811903e+00 
75200 4.9541713068e+00 4.5647638154e-05 2.1427091943e+00 -3.7112811903e+00 2.1427091943e+00 3.7112811903e+00 
75300 4.9541713071e+00 4.5572422043e-05 2.1427091943e+00 -3.7112811903e+00 2.1427091943e+00 3.7112811903e+00 
75400 4.9541713074e+00 4.5501145812e-05 2.1427091943e+00 -3.7112811903e+00 2.1427091943e+00 3.7112811903e+00 
75500 4.9541713077e+00 4.5433857293e-05 2.1427091943e+00 -3.7112811903e+00 2.1427091943e+00 3.7112811903e+00 
75600 4.9541713079e+00 4.5370598449e-05 2.1427091943e+00 -3.7112811903e+00 2.1427091943e+00 3.7112811903e+00 
75700 4.9541713082e+00 4.5311405444e-05 2.1427091943e+00 -3.7112811903e+00 2.1427091943e+00 3.7112811903e+00 
75800 4.9541713084e+00 4.5256308757e-05 2.1427091943e+00 -3.7112811903e+00 2.1427091943e+00 3.7112811903e+00 
75900 4.9541713087e+00 4.5205333271e-05 2.1427091943e+00 -3.7112811903e+00 2.1427091943e+00 3.7112811903e+00 
76000 4.9541713090e+00 4.5158498356e-05 2.1427091943e+00 -3.7112811903e+00 2.1427091943e+00 3.7112811903e+00 
76100 4.9541713092e+00 4.5115818007e-05 2.1427091943e+00 -3.7112811903e+00 2.1427091943e+00 3.7112811903e+00 
76200 4.9541713095e+00 4.5077300925e-05 2.1427091943e+00 -3.7112811903e+00 2.1427091943e+00 3.7112811903e+00 
76300 4.9541713097e+00 4.5042950640e-05 2.1427091943e+00 -3.7112811903e+00 2.1427091943e+00 3.7112811903e+00 
76400 4.9541713100e+00 4.5012765629e-05 2.1427091943e+00 -3.7112811903e+00 2.1427091943e+00 3.7112811903e+00 
76500 4.9541713102e+00 4.4986739430e-05 2.1427091943e+00 -3.7112811903e+00 2.1427091943e+00 3.7112811903e+00 
76600 4.9541713104e+00 4.4964860755e-05 2.1427091943e+00 -3.7112811903e+00 2.1427091943e+00 3.7112811903e+00 
76700 4.9541713107e+00 4.4947113623e-05 2.1427091943e+00 -3.7112811903e+00 2.1427091943e+00 3.7112811903e+00 
76800 4.9541713109e+00 4.4933477494e-05 2.1427091943e+00 -3.7112811903e+00 2.1427091943e+00 3.7112811903e+00 
76900 4.9541713111e+00 4.4923927375e-05 2.1427091943e+00 -3.7112811903e+00 2.1427091943e+00 3.7112811903e+00 
77000 4.9541713114e+00 4.4918433970e-05 2.1427091943e+00 -3.7112811903e+00 2.1427091943e+00 3.7112811903e+00 
77100 4.9541713116e+00 4.4916963804e-05 2.1427091943e+00 -3.7112811903e+00 2.1427091943e+00 3.7112811903e+00 
77200 4.9541713118e+00 4.4919479353e-05 2.1427091943e+00 -3.7112811903e+00 2.1427091943e+00 3.7112811903e+00 
77300 4.9541713120e+00 4.4925939189e-05 2.1427091943e+00 -3.7112811903e+00 2.1427091943e+00 3.7112811903e+00 
77400 4.9541713122e+00 4.4936298101e-05 2.1427091943e+00 -3.7112811903e+00 2.1427091943e+00 3.7112811903e+00 
77500 4.9541713125e+00 4.4950507253e-05 2.1427091943e+00 -3.7112811903e+00 2.1427091943e+00 3.7112811903e+00 
77600 4.9541713127e+00 4.4968514309e-05 2.1427091943e+00 -3.7112811903e+00 2.1427091943e+00 3.7112811903e+00 
77700 4.9541713129e+00 4.4990263571e-05 2.1427091943e+00 -3.7112811903e+00 2.1427091943e+00 3.7112811903e+00 
77800 4.9541713131e+00 4.5015696126e-05 2.1427091943e+00 -3.7112811903e+00 2.1427091943e+00 3.7112811903e+00 
77900 4.9541713133e+00 4.5044749984e-05 2.1427091943e+00 -3.7112811903e+00 2.1427091943e+00 3.7112811903e+00 
78000 4.9541713135e+00 4.5077360219e-05 2.1427091943e+00 -3.7112811903e+00 2.1427091943e+00 3.7112811903e+00 
78100 4.9541713137e+00 4.5113459103e-05 2.1427091943e+00 -3.7112811903e+00 2.1427091943e+00 3.7112811903e+00 
78200 4.9541713139e+00 4.5152976250e-05 2.1427091943e+00 -3.7112811903e+00 2.1427091943e+00 3.7112811903e+00 
78300 4.9541713141e+00 4.5195838763e-05 2.1427091943e+00 -3.7112811903e+00 2.1427091943e+00 3.7112811903e+00 
78400 4.9541713143e+00 4.5241971370e-05 2.1427091943e+00 -3.7112811903e+00 2.1427091943e+00 3.7112811903e+00 
78500 4.9541713145e+00 4.5291296553e-05 2.1427091943e+00 -3.7112811903e+00 2.1427091943e+00 3.7112811903e+00 
78600 4.9541713147e+00 4.5343734702e-05 2.1427091943e+00 -3.7112811903e+00 2.1427091943e+00 3.7112811903e+00 
78700 4.9541713148e+00 4.5399204251e-05 2.1427091943e+00 -3.7112811903e+00 2.1427091943e+00 3.7112811903e+00 
78800 4.9541713150e+00 4.5457621795e-05 2.1427091943e+00 -3.7112811903e+00 2.1427091943e+00 3.7112811903e+00 
78900 4.9541713152e+00 4.5518902251e-05 2.1427091943e+00 -3.7112811903e+00 2.1427091943e+00 3.7112811903e+00 
79000 4.9541713154e+00 4.5582958988e-05 2.1427091943e+00 -3.7112811903e+00 2.1427091943e+00 3.7112811903e+00 
79100 4.9541713156e+00 4.5649703937e-05 2.1427091943e+00 -3.7112811903e+00 2.1427091943e+00 3.7112811903e+00 
79200 4.9541713157e+00 4.5719047751e-05 2.1427091943e+00 -3.7112811903e+00 2.1427091943e+00 3.7112811903e+00 
79300 4.9541713159e+00 4.5790899927e-05 2.1427091943e+00 -3.7112811903e+00 2.1427091943e+00 3.7112811903e+00 
79400 4.9541713161e+00 4.5865168927e-05 2.1427091943e+00 -3.7112811903e+00 2.1427091943e+00 3.7112811903e+00 
79500 4.9541713162e+00 4.5941762302e-05 2.1427091943e+00 -3.7112811903e+00 2.1427091943e+00 3.7112811903e+00 
79600 4.9541713164e+00 4.6020586842e-05 2.1427091943e+00 -3.7112811903e+00 2.1427091943e+00 3.7112811903e+00 
79700 4.9541713166e+00 4.6101548658e-05 2.1427091943e+00 -3.7112811903e+00 2.1427091943e+00 3.7112811903e+00 
79800 4.9541713167e+00 4.6184553346e-05 2.1427091943e+00 -3.7112811903e+00 2.1427091943e+00 3.7112811903e+00 
79900 4.9541713169e+00 4.6269506073e-05 2.1427091943e+00 -3.7112811903e+00 2.1427091943e+00 3.7112811903e+00 
80000 4.9541713170e+00 4.6356311711e-05 2.1427091943e+00 -3.7112811903e+00 2.1427091943e+00 3.7112811903e+00 
80100 4.9541713172e+00 4.6444874942e-05 2.1427091943e+00 -3.7112811903e+00 2.1427091943e+00 3.7112811903e+00 
80200 4.9541713173e+00 4.6535100377e-05 2.1427091943e+00 -3.7112811903e+00 2.1427091943e+00 3.7112811903e+00 
80300 4.9541713175e+00 4.6626892655e-05 2.1427091943e+00 -3.7112811903e+00 2.1427091943e+00 3.7112811903e+00 
80400 4.9541713176e+00 4.6720156558e-05 2.1427091943e+00 -3.7112811903e+00 2.1427091943e+00 3.7112811903e+00 
80500 4.9541713178e+00 4.6814797119e-05 2.1427091943e+00 -3.7112811903e+00 2.1427091943e+00 3.7112811903e+00 
80600 4.9541713179e+00 4.6910719702e-05 2.1427091943e+00 -3.7112811903e+00 2.1427091943e+00 3.7112811903e+00 
80700 4.9541713180e+00 4.7007830136e-05 2.1427091943e+00 -3.7112811903e+00 2.1427091943e+00 3.7112811903e+00 
80800 4.9541713182e+00 4.7106034770e-05 2.1427091943e+00 -3.7112811903e+00 2.1427091943e+00 3.7112811903e+00 
80900 4.9541713183e+00 4.7205240601e-05 2.1427091943e+00 -3.7112811903e+00 2.1427091943e+00 3.7112811903e+00 
81000 4.9541713185e+00 4.7305355339e-05 2.1427091943e+00 -3.7112811903e+00 2.1427091943e+00 3.7112811903e+00 
81100 4.9541713186e+00 4.7406287518e-05 2.1427091943e+00 -3.7112811903e+00 2.1427091943e+00 3.7112811903e+00 
81200 4.9541713187e+00 4.7507946553e-05 2.1427091943e+00 -3.7112811903e+00 2.1427091943e+00 3.7112811903e+00 
81300 4.9541713188e+00 4.7610242848e-05 2.1427091943e+00 -3.7112811903e+00 2.1427091943e+00 3.7112811903e+00 
81400 4.9541713190e+00 4.7713087859e-05 2.1427091943e+00 -3.7112811903e+00 2.1427091943e+00 3.7112811903e+00 
81500 4.9541713191e+00 4.7816394164e-05 2.1427091943e+00 -3.7112811903e+00 2.1427091943e+00 3.7112811903e+00 
81600 4.9541713192e+00 4.7920075557e-05 2.1427091943e+00 -3.7112811903e+00 2.1427091943e+00 3.7112811903e+00 
81700 4.9541713193e+00 4.8024047103e-05 2.1427091943e+00 -3.7112811903e+00 2.1427091943e+00 3.7112811903e+00 
81800 4.9541713195e+00 4.8128225204e-05 2.1427091943e+00 -3.7112811903e+00 2.1427091943e+00 3.7112811903e+00 
81900 4.9541713196e+00 4.8232527667e-05 2.1427091943e+00 -3.7112811903e+00 2.1427091943e+00 3.7112811903e+00 
82000 4.9541713197e+00 4.8336873762e-05 2.1427091943e+00 -3.7112811903e+00 2.1427091943e+00 3.7112811903e+00 
82100 4.9541713198e+00 4.8441184284e-05 2.1427091943e+00 -3.7112811903e+00 2.1427091943e+00 3.7112811903e+00 
82200 4.9541713199e+00 4.8545381596e-05 2.1427091943e+00 -3.7112811903e+00 2.1427091943e+00 3.7112811903e+00 
82300 4.9541713200e+00 4.8649389701e-05 2.1427091943e+00 -3.7112811903e+00 2.1427091943e+00 3.7112811903e+00 
82400 4.9541713201e+00 4.8753134270e-05 2.1427091943e+00 -3.7112811903e+00 2.1427091943e+00 3.7112811903e+00 
82500 4.9541713203e+00 4.8856542699e-05 2.1427091943e+00 -3.7112811903e+00 2.1427091943e+00 3.7112811903e+00 
82600 4.9541713204e+00 4.8959544148e-05 2.1427091943e+00 -3.7112811903e+00 2.1427091943e+00 3.7112811903e+00 
82700 4.9541713205e+00 4.9062069576e-05 2.1427091943e+00 -3.7112811903e+00 2.1427091943e+00 3.7112811903e+00 
82800 4.9541713206e+00 4.9164051795e-05 2.1427091943e+00 -3.7112811903e+00 2.1427091943e+00 3.7112811903e+00 
82900 4.9541713207e+00 4.9265425476e-05 2.1427091943e+00 -3.7112811903e+00 2.1427091943e+00 3.7112811903e+00 
83000 4.9541713208e+00 4.9366127214e-05 2.1427091943e+00 -3.7112811903e+00 2.1427091943e+00 3.7112811903e+00 
83100 4.9541713209e+00 4.9466095520e-05 2.1427091943e+00 -3.7112811903e+00 2.1427091943e+00 3.7112811903e+00 
83200 4.9541713210e+00 4.9565270882e-05 2.1427091943e+00 -3.7112811903e+00 2.1427091943e+00 3.7112811903e+00 
83300 4.9541713211e+00 4.9663595751e-05 2.1427091943e+00 -3.7112811903e+00 2.1427091943e+00 3.7112811903e+00 
83400 4.9541713212e+00 4.9761014599e-05 2.1427091943e+00 -3.7112811903e+00 2.1427091943e+00 3.7112811903e+00 
83500 4.9541713213e+00 4.9857473904e-05 2.1427091943e+00 -3.7112811903e+00 2.1427091943e+00 3.7112811903e+00 
83600 4.9541713214e+00 4.9952922180e-05 2.1427091943e+00 -3.7112811903e+00 2.1427091943e+00 3.7112811903e+00 
83700 4.9541713215e+00 5.0047309993e-05 2.1427091943e+00 -3.7112811903e+00 2.1427091943e+00 3.7112811903e+00 
83800 4.9541713216e+00 5.0140589963e-05 2.1427091943e+00 -3.7112811903e+00 2.1427091943e+00 3.7112811903e+00 
83900 4.9541713216e+00 5.0232716770e-05 2.1427091943e+00 -3.7112811903e+00 2.1427091943e+00 3.7112811903e+00 
84000 4.9541713217e+00 5.0323647153e-05 2.1427091943e+00 -3.7112811903e+00 2.1427091943e+00 3.7112811903e+00 
84100 4.9541713218e+00 5.0413339934e-05 2.1427091943e+00 -3.7112811903e+00 2.1427091943e+00 3.7112811903e+00 
84200 4.9541713219e+00 5.0501755998e-05 2.1427091943e+00 -3.7112811903e+00 2.1427091943e+00 3.7112811903e+00 
84300 4.9541713220e+00 5.0588858295e-05 2.1427091943e+00 -3.7112811903e+00 2.1427091943e+00 3.7112811903e+00 
84400 4.9541713221e+00 5.0674611836e-05 2.1427091943e+00 -3.7112811903e+00 2.1427091943e+00 3.7112811903e+00 
84500 4.9541713222e+00 5.0758983692e-05 2.1427091943e+00 -3.7112811903e+00 2.1427091943e+00 3.7112811903e+00 
84600 4.9541713223e+00 5.0841942976e-05 2.1427091943e+00 -3.7112811903e+00 2.1427091943e+00 3.7112811903e+00 
84700 4.9541713223e+00 5.0923460831e-05 2.1427091943e+00 -3.7112811903e+00 2.1427091943e+00 3.7112811903e+00 
84800 4.9541713224e+00 5.1003510433e-05 2.1427091943e+00 -3.7112811903e+00 2.1427091943e+00 3.7112811903e+00 
84900 4.9541713225e+00 5.1082066949e-05 2.1427091943e+00 -3.7112811903e+00 2.1427091943e+00 3.7112811903e+00 
85000 4.9541713226e+00 5.1159107552e-05 2.1427091943e+00 -3.7112811903e+00 2.1427091943e+00 3.7112811903e+00 
85100 4.9541713227e+00 5.1234611377e-05 2.1427091943e+00 -3.7112811903e+00 2.1427091943e+00 3.7112811903e+00 
85200 4.9541713227e+00 5.1308559509e-05 2.1427091943e+00 -3.7112811903e+00 2.1427091943e+00 3.7112811903e+00 
85300 4.9541713228e+00 5.1380934961e-05 2.1427091943e+00 -3.7112811903e+00 2.1427091943e+00 3.7112811903e+00 
85400 4.9541713229e+00 5.1451722653e-05 2.1427091943e+00 -3.7112811903e+00 2.1427091943e+00 3.7112811903e+00 
85500 4.9541713230e+00 5.1520909389e-05 2.1427091943e+00 -3.7112811903e+00 2.1427091943e+00 3.7112811903e+00 
85600 4.9541713230e+00 5.1588483813e-05 2.1427091943e+00 -3.7112811903e+00 2.1427091943e+00 3.7112811903e+00 
85700 4.9541713231e+00 5.1654436402e-05 2.1427091943e+00 -3.7112811903e+00 2.1427091943e+00 3.7112811903e+00 
85800 4.9541713232e+00 5.1718759422e-05 2.1427091943e+00 -3.7112811903e+00 2.1427091943e+00 3.7112811903e+00 
85900 4.9541713233e+00 5.1781446909e-05 2.1427091943e+00 -3.7112811903e+00 2.1427091943e+00 3.7112811903e+00 
86000 4.9541713233e+00 5.1842494621e-05 2.1427091943e+00 -3.7112811903e+00 2.1427091943e+00 3.7112811903e+00 
86100 4.9541713234e+00 5.1901900024e-05 2.1427091943e+00 -3.7112811903e+00 2.1427091943e+00 3.7112811903e+00 
86200 4.9541713235e+00 5.1959662242e-05 2.1427091943e+00 -3.7112811903e+00 2.1427091943e+00 3.7112811903e+00 
86300 4.9541713235e+00 5.2015782019e-05 2.1427091943e+00 -3.7112811903e+00 2.1427091943e+00 3.7112811903e+00 
86400 4.9541713236e+00 5.2070261705e-05 2.1427091943e+00 -3.7112811903e+00 2.1427091943e+00 3.7112811903e+00 
86500 4.9541713237e+00 5.2123105193e-05 2.1427091943e+00 -3.7112811903e+00 2.1427091943e+00 3.7112811903e+00 
86600 4.9541713237e+00 5.2174317894e-05 2.1427091943e+00 -3.7112811903e+00 2.1427091943e+00 3.7112811903e+00 
86700 4.9541713238e+00 5.2223906697e-05 2.1427091943e+00 -3.7112811903e+00 2.1427091943e+00 3.7112811903e+00 
86800 4.9541713239e+00 5.2271879922e-05 2.1427091943e+00 -3.7112811903e+00 2.1427091943e+00 3.7112811903e+00 
86900 4.9541713239e+00 5.2318247293e-05 2.1427091943e+00 -3.7112811903e+00 2.1427091943e+00 3.7112811903e+00 
87000 4.9541713240e+00 5.2363019886e-05 2.1427091943e+00 -3.7112811903e+00 2.1427091943e+00 3.7112811903e+00 
87100 4.9541713241e+00 5.2406210083e-05 2.1427091943e+00 -3.7112811903e+00 2.1427091943e+00 3.7112811903e+00 
87200 4.9541713241e+00 5.2447831538e-05 2.1427091943e+00 -3.7112811903e+00 2.1427091943e+00 3.7112811903e+00 
87300 4.9541713242e+00 5.2487899146e-05 2.1427091943e+00 -3.7112811903e+00 2.1427091943e+00 3.7112811903e+00 
87400 4.9541713242e+00 5.2526428970e-05 2.1427091943e+00 -3.7112811903e+00 2.1427091943e+00 3.7112811903e+00 
87500 4.9541713243e+00 5.2563438222e-05 2.1427091943e+00 -3.7112811903e+00 2.1427091943e+00 3.7112811903e+00 
87600 4.9541713244e+00 5.2598945217e-05 2.1427091943e+00 -3.7112811903e+00 2.1427091943e+00 3.7112811903e+00 
87700 4.9541713244e+00 5.2632969312e-05 2.1427091943e+00 -3.7112811903e+00 2.1427091943e+00 3.7112811903e+00 
87800 4.9541713245e+00 5.2665530884e-05 2.1427091943e+00 -3.7112811903e+00 2.1427091943e+00 3.7112811903e+00 
87900 4.9541713245e+00 5.2696651272e-05 2.1427091943e+00 -3.7112811903e+00 2.1427091943e+00 3.7112811903e+00 
88000 4.9541713246e+00 5.2726352733e-05 2.1427091943e+00 -3.7112811903e+00 2.1427091943e+00 3.7112811903e+00 
88100 4.9541713246e+00 5.2754658412e-05 2.1427091943e+00 -3.7112811903e+00 2.1427091943e+00 3.7112811903e+00 
88200 4.9541713247e+00 5.2781592276e-05 2.1427091943e+00 -3.7112811903e+00 2.1427091943e+00 3.7112811903e+00 
88300 4.9541713247e+00 5.2807179089e-05 2.1427091943e+00 -3.7112811903e+00 2.1427091943e+00 3.7112811903e+00 
88400 4.9541713248e+00 5.2831444358e-05 2.1427091943e+00 -3.7112811903e+00 2.1427091943e+00 3.7112811903e+00 
88500 4.9541713249e+00 5.2854414283e-05 2.1427091943e+00 -3.7112811903e+00 2.1427091943e+00 3.7112811903e+00 
88600 4.9541713249e+00 5.2876115736e-05 2.1427091943e+00 -3.7112811903e+00 2.1427091943e+00 3.7112811903e+00 
88700 4.9541713250e+00 5.2896576198e-05 2.1427091943e+00 -3.7112811903e+00 2.1427091943e+00 3.7112811903e+00 
88800 4.9541713250e+00 5.2915823720e-05 2.1427091943e+00 -3.7112811903e+00 2.1427091943e+00 3.7112811903e+00 
88900 4.9541713251e+00 5.2933886878e-05 2.1427091943e+00 -3.7112811903e+00 2.1427091943e+00 3.7112811903e+00 
89000 4.9541713251e+00 5.2950794744e-05 2.1427091943e+00 -3.7112811903e+00 2.1427091943e+00 3.7112811903e+00 
89100 4.9541713252e+00 5.2966576833e-05 2.1427091943e+00 -3.7112811903e+00 2.1427091943e+00 3.7112811903e+00 
89200 4.9541713252e+00 5.2975518139e-05 2.1427091943e+00 -3.7112811903e+00 2.1427091943e+00 3.7112811903e+00 
89200 4.9541713252e+00 5.2975518139e-05 2.1427091943e+00 -3.7112811903e+00 2.1427091943e+00 3.7112811903e+00 
