# step Hamiltonian StressXX CellTensor1 CellTensor2 CellTensor3 CellTensor4 
0 6.3748666951e+00 -3.3410789591e-10 1.3731072612e+00 -2.3782915406e+00 1.3731072612e+00 2.3782915406e+00 
100 6.3747496840e+00 -1.5371648236e-10 1.3731072612e+00 -2.3782915406e+00 1.3731072612e+00 2.3782915406e+00 
200 6.3746401761e+00 -4.3455060832e-11 1.3731072612e+00 -2.3782915406e+00 1.3731072612e+00 2.3782915406e+00 
300 6.3745376903e+00 1.4196156612e-11 1.3731072612e+00 -2.3782915406e+00 1.3731072612e+00 2.3782915406e+00 
400 6.3744417763e+00 3.2782270906e-11 1.3731072612e+00 -2.3782915406e+00 1.3731072612e+00 2.3782915406e+00 
500 6.3743520127e+00 2.2738481098e-11 1.3731072612e+00 -2.3782915406e+00 1.3731072612e+00 2.3782915406e+00 
600 6.3742680051e+00 -7.9298876387e-12 1.3731072612e+00 -2.3782915406e+00 1.3731072612e+00 2.3782915406e+00 
700 6.3741893844e+00 -5.3112972163e-11 1.3731072612e+00 -2.3782915406e+00 1.3731072612e+00 2.3782915406e+00 
800 6.3741158052e+00 -1.0817669404e-10 1.3731072612e+00 -2.3782915406e+00 1.3731072612e+00 2.3782915406e+00 
900 6.3740469442e+00 -1.6963345524e-10 1.3731072612e+00 -2.3782915406e+00 1.3731072612e+00 2.3782915406e+00 
1000 6.3739824989e+00 -2.3488399194e-10 1.3731072612e+00 -2.3782915406e+00 1.3731072612e+00 2.3782915406e+00 
1100 6.3739221860e+00 -3.0201523193e-10 1.3731072612e+00 -2.3782915406e+00 1.3731072612e+00 2.3782915406e+00 
1200 6.3738657407e+00 -3.6964220791e-10 1.3731072612e+00 -2.3782915406e+00 1.3731072612e+00 2.3782915406e+00 
1300 6.3738129148e+00 -4.3678460763e-10 1.3731072612e+00 -2.3782915406e+00 1.3731072612e+00 2.3782915406e+00 
1400 6.3737634764e+00 -5.0277053796e-10 1.3731072612e+00 -2.3782915406e+00 1.3731072612e+00 2.3782915406e+00 
1500 6.3737172082e+00 -5.6716165526e-10 1.3731072612e+00 -2.3782915406e+00 1.3731072612e+00 2.3782915406e+00 
1600 6.3736739069e+00 -6.2969505495e-10 1.3731072612e+00 -2.3782915406e+00 1.3731072612e+00 2.3782915406e+00 
1700 6.3736333822e+00 -6.9023829588e-10 1.3731072612e+00 -2.3782915406e+00 1.3731072612e+00 2.3782915406e+00 
1800 6.3735954562e+00 -7.4875470436e-10 1.3731072612e+00 -2.3782915406e+00 1.3731072612e+00 2.3782915406e+00 
1900 6.3735599621e+00 -8.0527671468e-10 1.3731072612e+00 -2.3782915406e+00 1.3731072612e+00 2.3782915406e+00 
2000 6.3735267440e+00 -8.5988548129e-10 1.3731072612e+00 -2.3782915406e+00 1.3731072612e+00 2.3782915406e+00 
2100 6.3734956560e+00 -9.1269537758e-10 1.3731072612e+00 -2.3782915406e+00 1.3731072612e+00 2.3782915406e+00 
2200 6.3734665615e+00 -9.6384229318e-10 1.3731072612e+00 -2.3782915406e+00 1.3731072612e+00 2.3782915406e+00 
2300 6.3734393326e+00 -1.0134748765e-09 1.3731072612e+00 -2.3782915406e+00 1.3731072612e+00 2.3782915406e+00 
2400 6.3734138498e+00 -1.0617480558e-09 1.3731072612e+00 -2.3782915406e+00 1.3731072612e+00 2.3782915406e+00 
2500 6.3733900010e+00 -1.1088183140e-09 1.3731072612e+00 -2.3782915406e+00 1.3731072612e+00 2.3782915406e+00 
2600 6.3733676814e+00 -1.1548403110e-09 1.3731072612e+00 -2.3782915406e+00 1.3731072612e+00 2.3782915406e+00 
2700 6.3733467931e+00 -1.1999645333e-09 1.3731072612e+00 -2.3782915406e+00 1.3731072612e+00 2.3782915406e+00 
2800 6.3733272442e+00 -1.2443357238e-09 1.3731072612e+00 -2.3782915406e+00 1.3731072612e+00 2.3782915406e+00 
2900 6.3733089488e+00 -1.2880918985e-09 1.3731072612e+00 -2.3782915406e+00 1.3731072612e+00 2.3782915406e+00 
3000 6.3732918266e+00 -1.3313638017e-09 1.3731072612e+00 -2.3782915406e+00 1.3731072612e+00 2.3782915406e+00 
3100 6.3732758023e+00 -1.3742746839e-09 1.3731072612e+00 -2.3782915406e+00 1.3731072612e+00 2.3782915406e+00 
3200 6.3732608056e+00 -1.4169403131e-09 1.3731072612e+00 -2.3782915406e+00 1.3731072612e+00 2.3782915406e+00 
3300 6.3732467704e+00 -1.4594691537e-09 1.3731072612e+00 -2.3782915406e+00 1.3731072612e+00 2.3782915406e+00 
3400 6.3732336353e+00 -1.5019626580e-09 1.3731072612e+00 -2.3782915406e+00 1.3731072612e+00 2.3782915406e+00 
3500 6.3732213423e+00 -1.5445156347e-09 1.3731072612e+00 -2.3782915406e+00 1.3731072612e+00 2.3782915406e+00 
3600 6.3732098377e+00 -1.5872166619e-09 1.3731072612e+00 -2.3782915406e+00 1.3731072612e+00 2.3782915406e+00 
3700 6.3731990707e+00 -1.6301485247e-09 1.3731072612e+00 -2.3782915406e+00 1.3731072612e+00 2.3782915406e+00 
3800 6.3731889941e+00 -1.6733886612e-09 1.3731072612e+00 -2.3782915406e+00 1.3731072612e+00 2.3782915406e+00 
3900 6.3731795637e+00 -1.7170096040e-09 1.3731072612e+00 -2.3782915406e+00 1.3731072612e+00 2.3782915406e+00 
4000 6.3731707379e+00 -1.7610794105e-09 1.3731072612e+00 -2.3782915406e+00 1.3731072612e+00 2.3782915406e+00 
4100 6.3731624781e+00 -1.8056620770e-09 1.3731072612e+00 -2.3782915406e+00 1.3731072612e+00 2.3782915406e+00 
4200 6.3731547479e+00 -1.8508179300e-09 1.3731072612e+00 -2.3782915406e+00 1.3731072612e+00 2.3782915406e+00 
4300 6.3731475133e+00 -1.8966039975e-09 1.3731072612e+00 -2.3782915406e+00 1.3731072612e+00 2.3782915406e+00 
4400 6.3731407426e+00 -1.9430743538e-09 1.3731072612e+00 -2.3782915406e+00 1.3731072612e+00 2.3782915406e+00 
4500 6.3731344060e+00 -1.9902804427e-09 1.3731072612e+00 -2.3782915406e+00 1.3731072612e+00 2.3782915406e+00 
4600 6.3731284758e+00 -2.0382713759e-09 1.3731072612e+00 -2.3782915406e+00 1.3731072612e+00 2.3782915406e+00 
4700 6.3731229257e+00 -2.0870942092e-09 1.3731072612e+00 -2.3782915406e+00 1.3731072612e+00 2.3782915406e+00 
4800 6.3731177316e+00 -2.1367941968e-09 1.3731072612e+00 -2.3782915406e+00 1.3731072612e+00 2.3782915406e+00 
4900 6.3731128704e+00 -2.1874150253e-09 1.3731072612e+00 -2.3782915406e+00 1.3731072612e+00 2.3782915406e+00 
5000 6.3731083209e+00 -2.2389990285e-09 1.3731072612e+00 -2.3782915406e+00 1.3731072612e+00 2.3782915406e+00 
5100 6.3731040631e+00 -2.2915873845e-09 1.3731072612e+00 -2.3782915406e+00 1.3731072612e+00 2.3782915406e+00 
5200 6.3731000783e+00 -2.3452202957e-09 1.3731072612e+00 -2.3782915406e+00 1.3731072612e+00 2.3782915406e+00 
5300 6.3730963490e+00 -2.3999371549e-09 1.3731072612e+00 -2.3782915406e+00 1.3731072612e+00 2.3782915406e+00 
5400 6.3730928588e+00 -2.4557766962e-09 1.3731072612e+00 -2.3782915406e+00 1.3731072612e+00 2.3782915406e+00 
5500 6.3730895923e+00 -2.5127771336e-09 1.3731072612e+00 -2.3782915406e+00 1.3731072612e+00 2.3782915406e+00 
5600 6.3730865353e+00 -2.5709762885e-09 1.3731072612e+00 -2.3782915406e+00 1.3731072612e+00 2.3782915406e+00 
5700 6.3730836742e+00 -2.6304117062e-09 1.3731072612e+00 -2.3782915406e+00 1.3731072612e+00 2.3782915406e+00 
5800 6.3730809965e+00 -2.6911207628e-09 1.3731072612e+00 -2.3782915406e+00 1.3731072612e+00 2.3782915406e+00 
5900 6.3730784905e+00 -2.7531407636e-09 1.3731072612e+00 -2.3782915406e+00 1.3731072612e+00 2.3782915406e+00 
6000 6.3730761451e+00 -2.8165090343e-09 1.3731072612e+00 -2.3782915406e+00 1.3731072612e+00 2.3782915406e+00 
6100 6.3730739501e+00 -2.8812630037e-09 1.3731072612e+00 -2.3782915406e+00 1.3731072612e+00 2.3782915406e+00 
6200 6.3730718958e+00 -2.9474402818e-09 1.3731072612e+00 -2.3782915406e+00 1.3731072612e+00 2.3782915406e+00 
6300 6.3730699731e+00 -3.0150787312e-09 1.3731072612e+00 -2.3782915406e+00 1.3731072612e+00 2.3782915406e+00 
6400 6.3730681737e+00 -3.0842165334e-09 1.3731072612e+00 -2.3782915406e+00 1.3731072612e+00 2.3782915406e+00 
6500 6.3730664896e+00 -3.1548922513e-09 1.3731072612e+00 -2.3782915406e+00 1.3731072612e+00 2.3782915406e+00 
6600 6.3730649134e+00 -3.2271448869e-09 1.3731072612e+00 -2.3782915406e+00 1.3731072612e+00 2.3782915406e+00 
6700 6.3730634383e+00 -3.3010139356e-09 1.3731072612e+00 -2.3782915406e+00 1.3731072612e+00 2.3782915406e+00 
6800 6.3730620576e+00 -3.3765394378e-09 1.3731072612e+00 -2.3782915406e+00 1.3731072612e+00 2.3782915406e+00 
6900 6.3730607655e+00 -3.4537620267e-09 1.3731072612e+00 -2.3782915406e+00 1.3731072612e+00 2.3782915406e+00 
7000 6.3730595561e+00 -3.5327229746e-09 1.3731072612e+00 -2.3782915406e+00 1.3731072612e+00 2.3782915406e+00 
7100 6.3730584242e+00 -3.6134642365e-09 1.3731072612e+00 -2.3782915406e+00 1.3731072612e+00 2.3782915406e+00 
7200 6.3730573648e+00 -3.6960284913e-09 1.3731072612e+00 -2.3782915406e+00 1.3731072612e+00 2.3782915406e+00 
7300 6.3730563733e+00 -3.7804591826e-09 1.3731072612e+00 -2.3782915406e+00 1.3731072612e+00 2.3782915406e+00 
7400 6.3730554453e+00 -3.8668005569e-09 1.3731072612e+00 -2.3782915406e+00 1.3731072612e+00 2.3782915406e+00 
7500 6.3730545767e+00 -3.9550977008e-09 1.3731072612e+00 -2.3782915406e+00 1.3731072612e+00 2.3782915406e+00 
7600 6.3730537637e+00 -4.0453965777e-09 1.3731072612e+00 -2.3782915406e+00 1.3731072612e+00 2.3782915406e+00 
7700 6.3730530028e+00 -4.1377440626e-09 1.3731072612e+00 -2.3782915406e+00 1.3731072612e+00 2.3782915406e+00 
7800 6.3730522906e+00 -4.2321879775e-09 1.3731072612e+00 -2.3782915406e+00 1.3731072612e+00 2.3782915406e+00 
7900 6.3730516240e+00 -4.3287771247e-09 1.3731072612e+00 -2.3782915406e+00 1.3731072612e+00 2.3782915406e+00 
8000 6.3730510000e+00 -4.4275613205e-09 1.3731072612e+00 -2.3782915406e+00 1.3731072612e+00 2.3782915406e+00 
8100 6.3730504160e+00 -4.5285914291e-09 1.3731072612e+00 -2.3782915406e+00 1.3731072612e+00 2.3782915406e+00 
8200 6.3730498693e+00 -4.6319193945e-09 1.3731072612e+00 -2.3782915406e+00 1.3731072612e+00 2.3782915406e+00 
8300 6.3730493576e+00 -4.7375982740e-09 1.3731072612e+00 -2.3782915406e+00 1.3731072612e+00 2.3782915406e+00 
8400 6.3730488787e+00 -4.8456822704e-09 1.3731072612e+00 -2.3782915406e+00 1.3731072612e+00 2.3782915406e+00 
8500 6.3730484303e+00 -4.9562267654e-09 1.3731072612e+00 -2.3782915406e+00 1.3731072612e+00 2.3782915406e+00 
8600 6.3730480106e+00 -5.0692883517e-09 1.3731072612e+00 -2.3782915406e+00 1.3731072612e+00 2.3782915406e+00 
8700 6.3730476177e+00 -5.1849248661e-09 1.3731072612e+00 -2.3782915406e+00 1.3731072612e+00 2.3782915406e+00 
8800 6.3730472499e+00 -5.3031954231e-09 1.3731072612e+00 -2.3782915406e+00 1.3731072612e+00 2.3782915406e+00 
8900 6.3730469055e+00 -5.4241604478e-09 1.3731072612e+00 -2.3782915406e+00 1.3731072612e+00 2.3782915406e+00 
9000 6.3730465832e+00 -5.5478817102e-09 1.3731072612e+00 -2.3782915406e+00 1.3731072612e+00 2.3782915406e+00 
9100 6.3730462814e+00 -5.6744223584e-09 1.3731072612e+00 -2.3782915406e+00 1.3731072612e+00 2.3782915406e+00 
9200 6.3730459989e+00 -5.8038469545e-09 1.3731072612e+00 -2.3782915406e+00 1.3731072612e+00 2.3782915406e+00 
9300 6.3730457343e+00 -5.9362215090e-09 1.3731072612e+00 -2.3782915406e+00 1.3731072612e+00 2.3782915406e+00 
9400 6.3730454866e+00 -6.0716135159e-09 1.3731072612e+00 -2.3782915406e+00 1.3731072612e+00 2.3782915406e+00 
9500 6.3730452547e+00 -6.2100919896e-09 1.3731072612e+00 -2.3782915406e+00 1.3731072612e+00 2.3782915406e+00 
9600 6.3730450375e+00 -6.3517275013e-09 1.3731072612e+00 -2.3782915406e+00 1.3731072612e+00 2.3782915406e+00 
9700 6.3730448341e+00 -6.4965922166e-09 1.3731072612e+00 -2.3782915406e+00 1.3731072612e+00 2.3782915406e+00 
9800 6.3730446437e+00 -6.6447599330e-09 1.3731072612e+00 -2.3782915406e+00 1.3731072612e+00 2.3782915406e+00 
9900 6.3730444653e+00 -6.7963061195e-09 1.3731072612e+00 -2.3782915406e+00 1.3731072612e+00 2.3782915406e+00 
10000 6.3730442982e+00 -6.9513079550e-09 1.3731072612e+00 -2.3782915406e+00 1.3731072612e+00 2.3782915406e+00 
10100 6.3730441417e+00 -7.1098443695e-09 1.3731072612e+00 -2.3782915406e+00 1.3731072612e+00 2.3782915406e+00 
10200 6.3730439951e+00 -7.2719960845e-09 1.3731072612e+00 -2.3782915406e+00 1.3731072612e+00 2.3782915406e+00 
10300 6.3730438577e+00 -7.4378456555e-09 1.3731072612e+00 -2.3782915406e+00 1.3731072612e+00 2.3782915406e+00 
10400 6.3730437290e+00 -7.6074775140e-09 1.3731072612e+00 -2.3782915406e+00 1.3731072612e+00 2.3782915406e+00 
10500 6.3730436085e+00 -7.7809780116e-09 1.3731072612e+00 -2.3782915406e+00 1.3731072612e+00 2.3782915406e+00 
10600 6.3730434955e+00 -7.9584354645e-09 1.3731072612e+00 -2.3782915406e+00 1.3731072612e+00 2.3782915406e+00 
10700 6.3730433895e+00 -8.1399401987e-09 1.3731072612e+00 -2.3782915406e+00 1.3731072612e+00 2.3782915406e+00 
10800 6.3730432903e+00 -8.3255845970e-09 1.3731072612e+00 -2.3782915406e+00 1.3731072612e+00 2.3782915406e+00 
10900 6.3730431972e+00 -8.5154631456e-09 1.3731072612e+00 -2.3782915406e+00 1.3731072612e+00 2.3782915406e+00 
11000 6.3730431099e+00 -8.7096724838e-09 1.3731072612e+00 -2.3782915406e+00 1.3731072612e+00 2.3782915406e+00 
11100 6.3730430280e+00 -8.9083114525e-09 1.3731072612e+00 -2.3782915406e+00 1.3731072612e+00 2.3782915406e+00 
11200 6.3730429513e+00 -9.1114811451e-09 1.3731072612e+00 -2.3782915406e+00 1.3731072612e+00 2.3782915406e+00 
11300 6.3730428792e+00 -9.3192849599e-09 1.3731072612e+00 -2.3782915406e+00 1.3731072612e+00 2.3782915406e+00 
11400 6.3730428116e+00 -9.5318286521e-09 1.3731072612e+00 -2.3782915406e+00 1.3731072612e+00 2.3782915406e+00 
11500 6.3730427482e+00 -9.7492203884e-09 1.3731072612e+00 -2.3782915406e+00 1.3731072612e+00 2.3782915406e+00 
11600 6.3730426886e+00 -9.9715708026e-09 1.3731072612e+00 -2.3782915406e+00 1.3731072612e+00 2.3782915406e+00 
11700 6.3730426326e+00 -1.0198993051e-08 1.3731072612e+00 -2.3782915406e+00 1.3731072612e+00 2.3782915406e+00 
11800 6.3730425801e+00 -1.0431602873e-08 1.3731072612e+00 -2.3782915406e+00 1.3731072612e+00 2.3782915406e+00 
11900 6.3730425307e+00 -1.0669518645e-08 1.3731072612e+00 -2.3782915406e+00 1.3731072612e+00 2.3782915406e+00 
12000 6.3730424842e+00 -1.0912861447e-08 1.3731072612e+00 -2.3782915406e+00 1.3731072612e+00 2.3782915406e+00 
12100 6.3730424405e+00 -1.1161755121e-08 1.3731072612e+00 -2.3782915406e+00 1.3731072612e+00 2.3782915406e+00 
12200 6.3730423995e+00 -1.1416326333e-08 1.3731072612e+00 -2.3782915406e+00 1.3731072612e+00 2.3782915406e+00 
12300 6.3730423608e+00 -1.1676704641e-08 1.3731072612e+00 -2.3782915406e+00 1.3731072612e+00 2.3782915406e+00 
12400 6.3730423243e+00 -1.1943022560e-08 1.3731072612e+00 -2.3782915406e+00 1.3731072612e+00 2.3782915406e+00 
12500 6.3730422900e+00 -1.2215415627e-08 1.3731072612e+00 -2.3782915406e+00 1.3731072612e+00 2.3782915406e+00 
12600 6.3730422576e+00 -1.2494022475e-08 1.3731072612e+00 -2.3782915406e+00 1.3731072612e+00 2.3782915406e+00 
12700 6.3730422271e+00 -1.2778984900e-08 1.3731072612e+00 -2.3782915406e+00 1.3731072612e+00 2.3782915406e+00 
12800 6.3730421982e+00 -1.3070447933e-08 1.3731072612e+00 -2.3782915406e+00 1.3731072612e+00 2.3782915406e+00 
12900 6.3730421710e+00 -1.3368559917e-08 1.3731072612e+00 -2.3782915406e+00 1.3731072612e+00 2.3782915406e+00 
13000 6.3730421452e+00 -1.3673472581e-08 1.3731072612e+00 -2.3782915406e+00 1.3731072612e+00 2.3782915406e+00 
13100 6.3730421209e+00 -1.3985341117e-08 1.3731072612e+00 -2.3782915406e+00 1.3731072612e+00 2.3782915406e+00 
13200 6.3730420978e+00 -1.4304324259e-08 1.3731072612e+00 -2.3782915406e+00 1.3731072612e+00 2.3782915406e+00 
13300 6.3730420759e+00 -1.4630584366e-08 1.3731072612e+00 -2.3782915406e+00 1.3731072612e+00 2.3782915406e+00 
13400 6.3730420551e+00 -1.4964287504e-08 1.3731072612e+00 -2.3782915406e+00 1.3731072612e+00 2.3782915406e+00 
13500 6.3730420354e+00 -1.5305603526e-08 1.3731072612e+00 -2.3782915406e+00 1.3731072612e+00 2.3782915406e+00 
13600 6.3730420166e+00 -1.5654706169e-08 1.3731072612e+00 -2.3782915406e+00 1.3731072612e+00 2.3782915406e+00 
13700 6.3730419987e+00 -1.6011773131e-08 1.3731072612e+00 -2.3782915406e+00 1.3731072612e+00 2.3782915406e+00 
13800 6.3730419817e+00 -1.6376986171e-08 1.3731072612e+00 -2.3782915406e+00 1.3731072612e+00 2.3782915406e+00 
13900 6.3730419654e+00 -1.6750531194e-08 1.3731072612e+00 -2.3782915406e+00 1.3731072612e+00 2.3782915406e+00 
14000 6.3730419498e+00 -1.7132598353e-08 1.3731072612e+00 -2.3782915406e+00 1.3731072612e+00 2.3782915406e+00 
14100 6.3730419349e+00 -1.7523382141e-08 1.3731072612e+00 -2.3782915406e+00 1.3731072612e+00 2.3782915406e+00 
14200 6.3730419206e+00 -1.7923081493e-08 1.3731072612e+00 -2.3782915406e+00 1.3731072612e+00 2.3782915406e+00 
14300 6.3730419069e+00 -1.8331899884e-08 1.3731072612e+00 -2.3782915406e+00 1.3731072612e+00 2.3782915406e+00 
14400 6.3730418937e+00 -1.8750045438e-08 1.3731072612e+00 -2.3782915406e+00 1.3731072612e+00 2.3782915406e+00 
14500 6.3730418810e+00 -1.9177731030e-08 1.3731072612e+00 -2.3782915406e+00 1.3731072612e+00 2.3782915406e+00 
14600 6.3730418687e+00 -1.9615174396e-08 1.3731072612e+00 -2.3782915406e+00 1.3731072612e+00 2.3782915406e+00 
14700 6.3730418568e+00 -2.0062598243e-08 1.3731072612e+00 -2.3782915406e+00 1.3731072612e+00 2.3782915406e+00 
14800 6.3730418453e+00 -2.0520230366e-08 1.3731072612e+00 -2.3782915406e+00 1.3731072612e+00 2.3782915406e+00 
14900 6.3730418341e+00 -2.0988303761e-08 1.3731072612e+00 -2.3782915406e+00 1.3731072612e+00 2.3782915406e+00 
15000 6.3730418232e+00 -2.1467056744e-08 1.3731072612e+00 -2.3782915406e+00 1.3731072612e+00 2.3782915406e+00 
15100 6.3730418126e+00 -2.1956733075e-08 1.3731072612e+00 -2.3782915406e+00 1.3731072612e+00 2.3782915406e+00 
15200 6.3730418023e+00 -2.2457582079e-08 1.3731072612e+00 -2.3782915406e+00 1.3731072612e+00 2.3782915406e+00 
15300 6.3730417921e+00 -2.2969858777e-08 1.3731072612e+00 -2.3782915406e+00 1.3731072612e+00 2.3782915406e+00 
15400 6.3730417822e+00 -2.3493824014e-08 1.3731072612e+00 -2.3782915406e+00 1.3731072612e+00 2.3782915406e+00 
15500 6.3730417724e+00 -2.4029744591e-08 1.3731072612e+00 -2.3782915406e+00 1.3731072612e+00 2.3782915406e+00 
15600 6.3730417628e+00 -2.4577893404e-08 1.3731072612e+00 -2.3782915406e+00 1.3731072612e+00 2.3782915406e+00 
15700 6.3730417533e+00 -2.5138549581e-08 1.3731072612e+00 -2.3782915406e+00 1.3731072612e+00 2.3782915406e+00 
15800 6.3730417440e+00 -2.5711998627e-08 1.3731072612e+00 -2.3782915406e+00 1.3731072612e+00 2.3782915406e+00 
15900 6.3730417347e+00 -2.6298532567e-08 1.3731072612e+00 -2.3782915406e+00 1.3731072612e+00 2.3782915406e+00 
16000 6.3730417255e+00 -2.6898450096e-08 1.3731072612e+00 -2.3782915406e+00 1.3731072612e+00 2.3782915406e+00 
16100 6.3730417164e+00 -2.7512056733e-08 1.3731072612e+00 -2.3782915406e+00 1.3731072612e+00 2.3782915406e+00 
16200 6.3730417073e+00 -2.8139664974e-08 1.3731072612e+00 -2.3782915406e+00 1.3731072612e+00 2.3782915406e+00 
16300 6.3730416982e+00 -2.8781594455e-08 1.3731072612e+00 -2.3782915406e+00 1.3731072612e+00 2.3782915406e+00 
16400 6.3730416891e+00 -2.9438172114e-08 1.3731072612e+00 -2.3782915406e+00 1.3731072612e+00 2.3782915406e+00 
16500 6.3730416801e+00 -3.0109732355e-08 1.3731072612e+00 -2.3782915406e+00 1.3731072612e+00 2.3782915406e+00 
16600 6.3730416710e+00 -3.0796617223e-08 1.3731072612e+00 -2.3782915406e+00 1.3731072612e+00 2.3782915406e+00 
16700 6.3730416620e+00 -3.1499176579e-08 1.3731072612e+00 -2.3782915406e+00 1.3731072612e+00 2.3782915406e+00 
16800 6.3730416528e+00 -3.2217768273e-08 1.3731072612e+00 -2.3782915406e+00 1.3731072612e+00 2.3782915406e+00 
16900 6.3730416437e+00 -3.2952758332e-08 1.3731072612e+00 -2.3782915406e+00 1.3731072612e+00 2.3782915406e+00 
17000 6.3730416344e+00 -3.3704521146e-08 1.3731072612e+00 -2.3782915406e+00 1.3731072612e+00 2.3782915406e+00 
17100 6.3730416251e+00 -3.4473439660e-08 1.3731072612e+00 -2.3782915406e+00 1.3731072612e+00 2.3782915406e+00 
17200 6.3730416157e+00 -3.5259905565e-08 1.3731072612e+00 -2.3782915406e+00 1.3731072612e+00 2.3782915406e+00 
17300 6.3730416062e+00 -3.6064319505e-08 1.3731072612e+00 -2.3782915406e+00 1.3731072612e+00 2.3782915406e+00 
17400 6.3730415967e+00 -3.6887091275e-08 1.3731072612e+00 -2.3782915406e+00 1.3731072612e+00 2.3782915406e+00 
17500 6.3730415870e+00 -3.7728640036e-08 1.3731072612e+00 -2.3782915406e+00 1.3731072612e+00 2.3782915406e+00 
17600 6.3730415772e+00 -3.8589394527e-08 1.3731072612e+00 -2.3782915406e+00 1.3731072612e+00 2.3782915406e+00 
17700 6.3730415672e+00 -3.9469793283e-08 1.3731072612e+00 -2.3782915406e+00 1.3731072612e+00 2.3782915406e+00 
17800 6.3730415571e+00 -4.0370284859e-08 1.3731072612e+00 -2.3782915406e+00 1.3731072612e+00 2.3782915406e+00 
17900 6.3730415469e+00 -4.1291328063e-08 1.3731072612e+00 -2.3782915406e+00 1.3731072612e+00 2.3782915406e+00 
18000 6.3730415365e+00 -4.2233392185e-08 1.3731072612e+00 -2.3782915406e+00 1.3731072612e+00 2.3782915406e+00 
18100 6.3730415259e+00 -4.3196957242e-08 1.3731072612e+00 -2.3782915406e+00 1.3731072612e+00 2.3782915406e+00 
18200 6.3730415152e+00 -4.4182514219e-08 1.3731072612e+00 -2.3782915406e+00 1.3731072612e+00 2.3782915406e+00 
18300 6.3730415043e+00 -4.5190565326e-08 1.3731072612e+00 -2.3782915406e+00 1.3731072612e+00 2.3782915406e+00 
18400 6.3730414932e+00 -4.6221624246e-08 1.3731072612e+00 -2.3782915406e+00 1.3731072612e+00 2.3782915406e+00 
18500 6.3730414819e+00 -4.7276216406e-08 1.3731072612e+00 -2.3782915406e+00 1.3731072612e+00 2.3782915406e+00 
18600 6.3730414704e+00 -4.8354879240e-08 1.3731072612e+00 -2.3782915406e+00 1.3731072612e+00 2.3782915406e+00 
18700 6.3730414586e+00 -4.9458162469e-08 1.3731072612e+00 -2.3782915406e+00 1.3731072612e+00 2.3782915406e+00 
18800 6.3730414467e+00 -5.0586628377e-08 1.3731072612e+00 -2.3782915406e+00 1.3731072612e+00 2.3782915406e+00 
18900 6.3730414345e+00 -5.1740852100e-08 1.3731072612e+00 -2.3782915406e+00 1.3731072612e+00 2.3782915406e+00 
19000 6.3730414221e+00 -5.2921421925e-08 1.3731072612e+00 -2.3782915406e+00 1.3731072612e+00 2.3782915406e+00 
19100 6.3730414094e+00 -5.4128939582e-08 1.3731072612e+00 -2.3782915406e+00 1.3731072612e+00 2.3782915406e+00 
19200 6.3730413965e+00 -5.5364020560e-08 1.3731072612e+00 -2.3782915406e+00 1.3731072612e+00 2.3782915406e+00 
19300 6.3730413833e+00 -5.6627294418e-08 1.3731072612e+00 -2.3782915406e+00 1.3731072612e+00 2.3782915406e+00 
19400 6.3730413699e+00 -5.7919405108e-08 1.3731072612e+00 -2.3782915406e+00 1.3731072612e+00 2.3782915406e+00 
19500 6.3730413561e+00 -5.9241011303e-08 1.3731072612e+00 -2.3782915406e+00 1.3731072612e+00 2.3782915406e+00 
19600 6.3730413421e+00 -6.0592786737e-08 1.3731072612e+00 -2.3782915406e+00 1.3731072612e+00 2.3782915406e+00 
19700 6.3730413278e+00 -6.1975420548e-08 1.3731072612e+00 -2.3782915406e+00 1.3731072612e+00 2.3782915406e+00 
19800 6.3730413132e+00 -6.3389617630e-08 1.3731072612e+00 -2.3782915406e+00 1.3731072612e+00 2.3782915406e+00 
19900 6.3730412983e+00 -6.4836098995e-08 1.3731072612e+00 -2.3782915406e+00 1.3731072612e+00 2.3782915406e+00 
20000 6.3730412830e+00 -6.6315602143e-08 1.3731072612e+00 -2.3782915406e+00 1.3731072612e+00 2.3782915406e+00 
20100 6.3730412674e+00 -6.7828881436e-08 1.3731072612e+00 -2.3782915406e+00 1.3731072612e+00 2.3782915406e+00 
20200 6.3730412515e+00 -6.9376708488e-08 1.3731072612e+00 -2.3782915406e+00 1.3731072612e+00 2.3782915406e+00 
20300 6.3730412353e+00 -7.0959872560e-08 1.3731072612e+00 -2.3782915406e+00 1.3731072612e+00 2.3782915406e+00 
20400 6.3730412186e+00 -7.2579180960e-08 1.3731072612e+00 -2.3782915406e+00 1.3731072612e+00 2.3782915406e+00 
20500 6.3730412016e+00 -7.4235459463e-08 1.3731072612e+00 -2.3782915406e+00 1.3731072612e+00 2.3782915406e+00 
20600 6.3730411843e+00 -7.5929552726e-08 1.3731072612e+00 -2.3782915406e+00 1.3731072612e+00 2.3782915406e+00 
20700 6.3730411665e+00 -7.7662324728e-08 1.3731072612e+00 -2.3782915406e+00 1.3731072612e+00 2.3782915406e+00 
20800 6.3730411484e+00 -7.9434659209e-08 1.3731072612e+00 -2.3782915406e+00 1.3731072612e+00 2.3782915406e+00 
20900 6.3730411299e+00 -8.1247460122e-08 1.3731072612e+00 -2.3782915406e+00 1.3731072612e+00 2.3782915406e+00 
21000 6.3730411109e+00 -8.3101652097e-08 1.3731072612e+00 -2.3782915406e+00 1.3731072612e+00 2.3782915406e+00 
21100 6.3730410915e+00 -8.4998180919e-08 1.3731072612e+00 -2.3782915406e+00 1.3731072612e+00 2.3782915406e+00 
21200 6.3730410717e+00 -8.6938014004e-08 1.3731072612e+00 -2.3782915406e+00 1.3731072612e+00 2.3782915406e+00 
21300 6.3730410515e+00 -8.8922140904e-08 1.3731072612e+00 -2.3782915406e+00 1.3731072612e+00 2.3782915406e+00 
21400 6.3730410307e+00 -9.0951573805e-08 1.3731072612e+00 -2.3782915406e+00 1.3731072612e+00 2.3782915406e+00 
21500 6.3730410096e+00 -9.3027348055e-08 1.3731072612e+00 -2.3782915406e+00 1.3731072612e+00 2.3782915406e+00 
21600 6.3730409879e+00 -9.5150522688e-08 1.3731072612e+00 -2.3782915406e+00 1.3731072612e+00 2.3782915406e+00 
21700 6.3730409658e+00 -9.7322180971e-08 1.3731072612e+00 -2.3782915406e+00 1.3731072612e+00 2.3782915406e+00 
21800 6.3730409431e+00 -9.9543430957e-08 1.3731072612e+00 -2.3782915406e+00 1.3731072612e+00 2.3782915406e+00 
21900 6.3730409200e+00 -1.0181540606e-07 1.3731072612e+00 -2.3782915406e+00 1.3731072612e+00 2.3782915406e+00 
22000 6.3730408963e+00 -1.0413926561e-07 1.3731072612e+00 -2.3782915406e+00 1.3731072612e+00 2.3782915406e+00 
22100 6.3730408721e+00 -1.0651619550e-07 1.3731072612e+00 -2.3782915406e+00 1.3731072612e+00 2.3782915406e+00 
22200 6.3730408473e+00 -1.0894740873e-07 1.3731072612e+00 -2.3782915406e+00 1.3731072612e+00 2.3782915406e+00 
22300 6.3730408220e+00 -1.1143414609e-07 1.3731072612e+00 -2.3782915406e+00 1.3731072612e+00 2.3782915406e+00 
22400 6.3730407961e+00 -1.1397767675e-07 1.3731072612e+00 -2.3782915406e+00 1.3731072612e+00 2.3782915406e+00 
22500 6.3730407696e+00 -1.1657929894e-07 1.3731072612e+00 -2.3782915406e+00 1.3731072612e+00 2.3782915406e+00 
22600 6.3730407425e+00 -1.1924034059e-07 1.3731072612e+00 -2.3782915406e+00 1.3731072612e+00 2.3782915406e+00 
22700 6.3730407148e+00 -1.2196216005e-07 1.3731072612e+00 -2.3782915406e+00 1.3731072612e+00 2.3782915406e+00 
22800 6.3730406865e+00 -1.2474614675e-07 1.3731072612e+00 -2.3782915406e+00 1.3731072612e+00 2.3782915406e+00 
22900 6.3730406575e+00 -1.2759372193e-07 1.3731072612e+00 -2.3782915406e+00 1.3731072612e+00 2.3782915406e+00 
23000 6.3730406278e+00 -1.3050633937e-07 1.3731072612e+00 -2.3782915406e+00 1.3731072612e+00 2.3782915406e+00 
23100 6.3730405975e+00 -1.3348548613e-07 1.3731072612e+00 -2.3782915406e+00 1.3731072612e+00 2.3782915406e+00 
23200 6.3730405665e+00 -1.3653268332e-07 1.3731072612e+00 -2.3782915406e+00 1.3731072612e+00 2.3782915406e+00 
23300 6.3730405348e+00 -1.3964948690e-07 1.3731072612e+00 -2.3782915406e+00 1.3731072612e+00 2.3782915406e+00 
23400 6.3730405023e+00 -1.4283748842e-07 1.3731072612e+00 -2.3782915406e+00 1.3731072612e+00 2.3782915406e+00 
23500 6.3730404692e+00 -1.4609831590e-07 1.3731072612e+00 -2.3782915406e+00 1.3731072612e+00 2.3782915406e+00 
23600 6.3730404352e+00 -1.4943363464e-07 1.3731072612e+00 -2.3782915406e+00 1.3731072612e+00 2.3782915406e+00 
23700 6.3730404005e+00 -1.5284514808e-07 1.3731072612e+00 -2.3782915406e+00 1.3731072612e+00 2.3782915406e+00 
23800 6.3730403650e+00 -1.5633459867e-07 1.3731072612e+00 -2.3782915406e+00 1.3731072612e+00 2.3782915406e+00 
23900 6.3730403287e+00 -1.5990376878e-07 1.3731072612e+00 -2.3782915406e+00 1.3731072612e+00 2.3782915406e+00 
24000 6.3730402916e+00 -1.6355448158e-07 1.3731072612e+00 -2.3782915406e+00 1.3731072612e+00 2.3782915406e+00 
24100 6.3730402536e+00 -1.6728860202e-07 1.3731072612e+00 -2.3782915406e+00 1.3731072612e+00 2.3782915406e+00 
24200 6.3730402147e+00 -1.7110803779e-07 1.3731072612e+00 -2.3782915406e+00 1.3731072612e+00 2.3782915406e+00 
24300 6.3730401750e+00 -1.7501474026e-07 1.3731072612e+00 -2.3782915406e+00 1.3731072612e+00 2.3782915406e+00 
24400 6.3730401343e+00 -1.7901070552e-07 1.3731072612e+00 -2.3782915406e+00 1.3731072612e+00 2.3782915406e+00 
24500 6.3730400927e+00 -1.8309797537e-07 1.3731072612e+00 -2.3782915406e+00 1.3731072612e+00 2.3782915406e+00 
24600 6.3730400502e+00 -1.8727863843e-07 1.3731072612e+00 -2.3782915406e+00 1.3731072612e+00 2.3782915406e+00 
24700 6.3730400067e+00 -1.9155483115e-07 1.3731072612e+00 -2.3782915406e+00 1.3731072612e+00 2.3782915406e+00 
24800 6.3730399622e+00 -1.9592873896e-07 1.3731072612e+00 -2.3782915406e+00 1.3731072612e+00 2.3782915406e+00 
24900 6.3730399167e+00 -2.0040259737e-07 1.3731072612e+00 -2.3782915406e+00 1.3731072612e+00 2.3782915406e+00 
25000 6.3730398701e+00 -2.0497869312e-07 1.3731072612e+00 -2.3782915406e+00 1.3731072612e+00 2.3782915406e+00 
25100 6.3730398225e+00 -2.0965936535e-07 1.3731072612e+00 -2.3782915406e+00 1.3731072612e+00 2.3782915406e+00 
25200 6.3730397737e+00 -2.1444700684e-07 1.3731072612e+00 -2.3782915406e+00 1.3731072612e+00 2.3782915406e+00 
25300 6.3730397239e+00 -2.1934406521e-07 1.3731072612e+00 -2.3782915406e+00 1.3731072612e+00 2.3782915406e+00 
25400 6.3730396729e+00 -2.2435304419e-07 1.3731072612e+00 -2.3782915406e+00 1.3731072612e+00 2.3782915406e+00 
25500 6.3730396208e+00 -2.2947650491e-07 1.3731072612e+00 -2.3782915406e+00 1.3731072612e+00 2.3782915406e+00 
25600 6.3730395675e+00 -2.3471706722e-07 1.3731072612e+00 -2.3782915406e+00 1.3731072612e+00 2.3782915406e+00 
25700 6.3730395129e+00 -2.4007741103e-07 1.3731072612e+00 -2.3782915406e+00 1.3731072612e+00 2.3782915406e+00 
25800 6.3730394571e+00 -2.4556027773e-07 1.3731072612e+00 -2.3782915406e+00 1.3731072612e+00 2.3782915406e+00 
25900 6.3730394001e+00 -2.5116847155e-07 1.3731072612e+00 -2.3782915406e+00 1.3731072612e+00 2.3782915406e+00 
26000 6.3730393417e+00 -2.5690486104e-07 1.3731072612e+00 -2.3782915406e+00 1.3731072612e+00 2.3782915406e+00 
26100 6.3730392820e+00 -2.6277238054e-07 1.3731072612e+00 -2.3782915406e+00 1.3731072612e+00 2.3782915406e+00 
26200 6.3730392209e+00 -2.6877403169e-07 1.3731072612e+00 -2.3782915406e+00 1.3731072612e+00 2.3782915406e+00 
26300 6.3730391584e+00 -2.7491288499e-07 1.3731072612e+00 -2.3782915406e+00 1.3731072612e+00 2.3782915406e+00 
26400 6.3730390945e+00 -2.8119208137e-07 1.3731072612e+00 -2.3782915406e+00 1.3731072612e+00 2.3782915406e+00 
26500 6.3730390291e+00 -2.8761483382e-07 1.3731072612e+00 -2.3782915406e+00 1.3731072612e+00 2.3782915406e+00 
26600 6.3730389622e+00 -2.9418442905e-07 1.3731072612e+00 -2.3782915406e+00 1.3731072612e+00 2.3782915406e+00 
26700 6.3730388938e+00 -3.0090422918e-07 1.3731072612e+00 -2.3782915406e+00 1.3731072612e+00 2.3782915406e+00 
26800 6.3730388238e+00 -3.0777767348e-07 1.3731072612e+00 -2.3782915406e+00 1.3731072612e+00 2.3782915406e+00 
26900 6.3730387523e+00 -3.1480828016e-07 1.3731072612e+00 -2.3782915406e+00 1.3731072612e+00 2.3782915406e+00 
27000 6.3730386790e+00 -3.2199964815e-07 1.3731072612e+00 -2.3782915406e+00 1.3731072612e+00 2.3782915406e+00 
27100 6.3730386041e+00 -3.2935545900e-07 1.3731072612e+00 -2.3782915406e+00 1.3731072612e+00 2.3782915406e+00 
27200 6.3730385275e+00 -3.3687947876e-07 1.3731072612e+00 -2.3782915406e+00 1.3731072612e+00 2.3782915406e+00 
27300 6.3730384492e+00 -3.4457555992e-07 1.3731072612e+00 -2.3782915406e+00 1.3731072612e+00 2.3782915406e+00 
27400 6.3730383690e+00 -3.5244764344e-07 1.3731072612e+00 -2.3782915406e+00 1.3731072612e+00 2.3782915406e+00 
27500 6.3730382870e+00 -3.6049976074e-07 1.3731072612e+00 -2.3782915406e+00 1.3731072612e+00 2.3782915406e+00 
27600 6.3730382031e+00 -3.6873603582e-07 1.3731072612e+00 -2.3782915406e+00 1.3731072612e+00 2.3782915406e+00 
27700 6.3730381173e+00 -3.7716068737e-07 1.3731072612e+00 -2.3782915406e+00 1.3731072612e+00 2.3782915406e+00 
27800 6.3730380296e+00 -3.8577803098e-07 1.3731072612e+00 -2.3782915406e+00 1.3731072612e+00 2.3782915406e+00 
27900 6.3730379398e+00 -3.9459248133e-07 1.3731072612e+00 -2.3782915406e+00 1.3731072612e+00 2.3782915406e+00 
28000 6.3730378480e+00 -4.0360855452e-07 1.3731072612e+00 -2.3782915406e+00 1.3731072612e+00 2.3782915406e+00 
28100 6.3730377540e+00 -4.1283087039e-07 1.3731072612e+00 -2.3782915406e+00 1.3731072612e+00 2.3782915406e+00 
28200 6.3730376579e+00 -4.2226415491e-07 1.3731072612e+00 -2.3782915406e+00 1.3731072612e+00 2.3782915406e+00 
28300 6.3730375596e+00 -4.3191324263e-07 1.3731072612e+00 -2.3782915406e+00 1.3731072612e+00 2.3782915406e+00 
28400 6.3730374591e+00 -4.4178307918e-07 1.3731072612e+00 -2.3782915406e+00 1.3731072612e+00 2.3782915406e+00 
28500 6.3730373562e+00 -4.5187872385e-07 1.3731072612e+00 -2.3782915406e+00 1.3731072612e+00 2.3782915406e+00 
28600 6.3730372510e+00 -4.6220535218e-07 1.3731072612e+00 -2.3782915406e+00 1.3731072612e+00 2.3782915406e+00 
28700 6.3730371434e+00 -4.7276825869e-07 1.3731072612e+00 -2.3782915406e+00 1.3731072612e+00 2.3782915406e+00 
28800 6.3730370333e+00 -4.8357285958e-07 1.3731072612e+00 -2.3782915406e+00 1.3731072612e+00 2.3782915406e+00 
28900 6.3730369207e+00 -4.9462469557e-07 1.3731072612e+00 -2.3782915406e+00 1.3731072612e+00 2.3782915406e+00 
29000 6.3730368055e+00 -5.0592943476e-07 1.3731072612e+00 -2.3782915406e+00 1.3731072612e+00 2.3782915406e+00 
29100 6.3730366877e+00 -5.1749287557e-07 1.3731072612e+00 -2.3782915406e+00 1.3731072612e+00 2.3782915406e+00 
29200 6.3730365671e+00 -5.2932094976e-07 1.3731072612e+00 -2.3782915406e+00 1.3731072612e+00 2.3782915406e+00 
29300 6.3730364438e+00 -5.4141972551e-07 1.3731072612e+00 -2.3782915406e+00 1.3731072612e+00 2.3782915406e+00 
29400 6.3730363177e+00 -5.5379541057e-07 1.3731072612e+00 -2.3782915406e+00 1.3731072612e+00 2.3782915406e+00 
29500 6.3730361886e+00 -5.6645435546e-07 1.3731072612e+00 -2.3782915406e+00 1.3731072612e+00 2.3782915406e+00 
29600 6.3730360566e+00 -5.7940305681e-07 1.3731072612e+00 -2.3782915406e+00 1.3731072612e+00 2.3782915406e+00 
29700 6.3730359216e+00 -5.9264816072e-07 1.3731072612e+00 -2.3782915406e+00 1.3731072612e+00 2.3782915406e+00 
29800 6.3730357835e+00 -6.0619646621e-07 1.3731072612e+00 -2.3782915406e+00 1.3731072612e+00 2.3782915406e+00 
29900 6.3730356422e+00 -6.2005492874e-07 1.3731072612e+00 -2.3782915406e+00 1.3731072612e+00 2.3782915406e+00 
30000 6.3730354977e+00 -6.3423066389e-07 1.3731072612e+00 -2.3782915406e+00 1.3731072612e+00 2.3782915406e+00 
30100 6.3730353498e+00 -6.4873095098e-07 1.3731072612e+00 -2.3782915406e+00 1.3731072612e+00 2.3782915406e+00 
30200 6.3730351986e+00 -6.6356323692e-07 1.3731072612e+00 -2.3782915406e+00 1.3731072612e+00 2.3782915406e+00 
30300 6.3730350439e+00 -6.7873514006e-07 1.3731072612e+00 -2.3782915406e+00 1.3731072612e+00 2.3782915406e+00 
30400 6.3730348856e+00 -6.9425445418e-07 1.3731072612e+00 -2.3782915406e+00 1.3731072612e+00 2.3782915406e+00 
30500 6.3730347237e+00 -7.1012915250e-07 1.3731072612e+00 -2.3782915406e+00 1.3731072612e+00 2.3782915406e+00 
30600 6.3730345581e+00 -7.2636739191e-07 1.3731072612e+00 -2.3782915406e+00 1.3731072612e+00 2.3782915406e+00 
30700 6.3730343886e+00 -7.4297751714e-07 1.3731072612e+00 -2.3782915406e+00 1.3731072612e+00 2.3782915406e+00 
30800 6.3730342153e+00 -7.5996806519e-07 1.3731072612e+00 -2.3782915406e+00 1.3731072612e+00 2.3782915406e+00 
30900 6.3730340380e+00 -7.7734776972e-07 1.3731072612e+00 -2.3782915406e+00 1.3731072612e+00 2.3782915406e+00 
31000 6.3730338567e+00 -7.9512556564e-07 1.3731072612e+00 -2.3782915406e+00 1.3731072612e+00 2.3782915406e+00 
31100 6.3730336711e+00 -8.1331059376e-07 1.3731072612e+00 -2.3782915406e+00 1.3731072612e+00 2.3782915406e+00 
31200 6.3730334813e+00 -8.3191220558e-07 1.3731072612e+00 -2.3782915406e+00 1.3731072612e+00 2.3782915406e+00 
31300 6.3730332872e+00 -8.5093996815e-07 1.3731072612e+00 -2.3782915406e+00 1.3731072612e+00 2.3782915406e+00 
31400 6.3730330885e+00 -8.7040366908e-07 1.3731072612e+00 -2.3782915406e+00 1.3731072612e+00 2.3782915406e+00 
31500 6.3730328854e+00 -8.9031332164e-07 1.3731072612e+00 -2.3782915406e+00 1.3731072612e+00 2.3782915406e+00 
31600 6.3730326775e+00 -9.1067917005e-07 1.3731072612e+00 -2.3782915406e+00 1.3731072612e+00 2.3782915406e+00 
31700 6.3730324649e+00 -9.3151169474e-07 1.3731072612e+00 -2.3782915406e+00 1.3731072612e+00 2.3782915406e+00 
31800 6.3730322474e+00 -9.5282161794e-07 1.3731072612e+00 -2.3782915406e+00 1.3731072612e+00 2.3782915406e+00 
31900 6.3730320248e+00 -9.7461990921e-07 1.3731072612e+00 -2.3782915406e+00 1.3731072612e+00 2.3782915406e+00 
32000 6.3730317972e+00 -9.9691779121e-07 1.3731072612e+00 -2.3782915406e+00 1.3731072612e+00 2.3782915406e+00 
32100 6.3730315643e+00 -1.0197267456e-06 1.3731072612e+00 -2.3782915406e+00 1.3731072612e+00 2.3782915406e+00 
32200 6.3730313261e+00 -1.0430585190e-06 1.3731072612e+00 -2.3782915406e+00 1.3731072612e+00 2.3782915406e+00 
32300 6.3730310824e+00 -1.0669251292e-06 1.3731072612e+00 -2.3782915406e+00 1.3731072612e+00 2.3782915406e+00 
32400 6.3730308331e+00 -1.0913388715e-06 1.3731072612e+00 -2.3782915406e+00 1.3731072612e+00 2.3782915406e+00 
32500 6.3730305781e+00 -1.1163123250e-06 1.3731072612e+00 -2.3782915406e+00 1.3731072612e+00 2.3782915406e+00 
32600 6.3730303172e+00 -1.1418583594e-06 1.3731072612e+00 -2.3782915406e+00 1.3731072612e+00 2.3782915406e+00 
32700 6.3730300502e+00 -1.1679901415e-06 1.3731072612e+00 -2.3782915406e+00 1.3731072612e+00 2.3782915406e+00 
32800 6.3730297772e+00 -1.1947211424e-06 1.3731072612e+00 -2.3782915406e+00 1.3731072612e+00 2.3782915406e+00 
32900 6.3730294979e+00 -1.2220651444e-06 1.3731072612e+00 -2.3782915406e+00 1.3731072612e+00 2.3782915406e+00 
33000 6.3730292121e+00 -1.2500362484e-06 1.3731072612e+00 -2.3782915406e+00 1.3731072612e+00 2.3782915406e+00 
33100 6.3730289198e+00 -1.2786488810e-06 1.3731072612e+00 -2.3782915406e+00 1.3731072612e+00 2.3782915406e+00 
33200 6.3730286207e+00 -1.3079178024e-06 1.3731072612e+00 -2.3782915406e+00 1.3731072612e+00 2.3782915406e+00 
33300 6.3730283147e+00 -1.3378581140e-06 1.3731072612e+00 -2.3782915406e+00 1.3731072612e+00 2.3782915406e+00 
33400 6.3730280017e+00 -1.3684852666e-06 1.3731072612e+00 -2.3782915406e+00 1.3731072612e+00 2.3782915406e+00 
33500 6.3730276815e+00 -1.3998150680e-06 1.3731072612e+00 -2.3782915406e+00 1.3731072612e+00 2.3782915406e+00 
33600 6.3730273540e+00 -1.4318636920e-06 1.3731072612e+00 -2.3782915406e+00 1.3731072612e+00 2.3782915406e+00 
33700 6.3730270188e+00 -1.4646476863e-06 1.3731072612e+00 -2.3782915406e+00 1.3731072612e+00 2.3782915406e+00 
33800 6.3730266760e+00 -1.4981839818e-06 1.3731072612e+00 -2.3782915406e+00 1.3731072612e+00 2.3782915406e+00 
33900 6.3730263253e+00 -1.5324899011e-06 1.3731072612e+00 -2.3782915406e+00 1.3731072612e+00 2.3782915406e+00 
34000 6.3730259665e+00 -1.5675831678e-06 1.3731072612e+00 -2.3782915406e+00 1.3731072612e+00 2.3782915406e+00 
34100 6.3730255994e+00 -1.6034819158e-06 1.3731072612e+00 -2.3782915406e+00 1.3731072612e+00 2.3782915406e+00 
34200 6.3730252238e+00 -1.6402046991e-06 1.3731072612e+00 -2.3782915406e+00 1.3731072612e+00 2.3782915406e+00 
34300 6.3730248396e+00 -1.6777705013e-06 1.3731072612e+00 -2.3782915406e+00 1.3731072612e+00 2.3782915406e+00 
34400 6.3730244466e+00 -1.7161987458e-06 1.3731072612e+00 -2.3782915406e+00 1.3731072612e+00 2.3782915406e+00 
34500 6.3730240445e+00 -1.7555093061e-06 1.3731072612e+00 -2.3782915406e+00 1.3731072612e+00 2.3782915406e+00 
34600 6.3730236331e+00 -1.7957225163e-06 1.3731072612e+00 -2.3782915406e+00 1.3731072612e+00 2.3782915406e+00 
34700 6.3730232122e+00 -1.8368591816e-06 1.3731072612e+00 -2.3782915406e+00 1.3731072612e+00 2.3782915406e+00 
34800 6.3730227816e+00 -1.8789405900e-06 1.3731072612e+00 -2.3782915406e+00 1.3731072612e+00 2.3782915406e+00 
34900 6.3730223411e+00 -1.9219885227e-06 1.3731072612e+00 -2.3782915406e+00 1.3731072612e+00 2.3782915406e+00 
35000 6.3730218905e+00 -1.9660252665e-06 1.3731072612e+00 -2.3782915406e+00 1.3731072612e+00 2.3782915406e+00 
35100 6.3730214294e+00 -2.0110736250e-06 1.3731072612e+00 -2.3782915406e+00 1.3731072612e+00 2.3782915406e+00 
35200 6.3730209577e+00 -2.0571569309e-06 1.3731072612e+00 -2.3782915406e+00 1.3731072612e+00 2.3782915406e+00 
35300 6.3730204751e+00 -2.1042990586e-06 1.3731072612e+00 -2.3782915406e+00 1.3731072612e+00 2.3782915406e+00 
35400 6.3730199814e+00 -2.1525244368e-06 1.3731072612e+00 -2.3782915406e+00 1.3731072612e+00 2.3782915406e+00 
35500 6.3730194763e+00 -2.2018580610e-06 1.3731072612e+00 -2.3782915406e+00 1.3731072612e+00 2.3782915406e+00 
35600 6.3730189595e+00 -2.2523255078e-06 1.3731072612e+00 -2.3782915406e+00 1.3731072612e+00 2.3782915406e+00 
35700 6.3730184308e+00 -2.3039529475e-06 1.3731072612e+00 -2.3782915406e+00 1.3731072612e+00 2.3782915406e+00 
35800 6.3730178898e+00 -2.3567671586e-06 1.3731072612e+00 -2.3782915406e+00 1.3731072612e+00 2.3782915406e+00 
35900 6.3730173364e+00 -2.4107955422e-06 1.3731072612e+00 -2.3782915406e+00 1.3731072612e+00 2.3782915406e+00 
36000 6.3730167702e+00 -2.4660661360e-06 1.3731072612e+00 -2.3782915406e+00 1.3731072612e+00 2.3782915406e+00 
36100 6.3730161910e+00 -2.5226076299e-06 1.3731072612e+00 -2.3782915406e+00 1.3731072612e+00 2.3782915406e+00 
36200 6.3730155983e+00 -2.5804493810e-06 1.3731072612e+00 -2.3782915406e+00 1.3731072612e+00 2.3782915406e+00 
36300 6.3730149920e+00 -2.6396214294e-06 1.3731072612e+00 -2.3782915406e+00 1.3731072612e+00 2.3782915406e+00 
36400 6.3730143716e+00 -2.7001545141e-06 1.3731072612e+00 -2.3782915406e+00 1.3731072612e+00 2.3782915406e+00 
36500 6.3730137369e+00 -2.7620800897e-06 1.3731072612e+00 -2.3782915406e+00 1.3731072612e+00 2.3782915406e+00 
36600 6.3730130875e+00 -2.8254303431e-06 1.3731072612e+00 -2.3782915406e+00 1.3731072612e+00 2.3782915406e+00 
36700 6.3730124231e+00 -2.8902382106e-06 1.3731072612e+00 -2.3782915406e+00 1.3731072612e+00 2.3782915406e+00 
36800 6.3730117434e+00 -2.9565373959e-06 1.3731072612e+00 -2.3782915406e+00 1.3731072612e+00 2.3782915406e+00 
36900 6.3730110479e+00 -3.0243623879e-06 1.3731072612e+00 -2.3782915406e+00 1.3731072612e+00 2.3782915406e+00 
37000 6.3730103363e+00 -3.0937484794e-06 1.3731072612e+00 -2.3782915406e+00 1.3731072612e+00 2.3782915406e+00 
37100 6.3730096083e+00 -3.1647317858e-06 1.3731072612e+00 -2.3782915406e+00 1.3731072612e+00 2.3782915406e+00 
37200 6.3730088634e+00 -3.2373492649e-06 1.3731072612e+00 -2.3782915406e+00 1.3731072612e+00 2.3782915406e+00 
37300 6.3730081013e+00 -3.3116387365e-06 1.3731072612e+00 -2.3782915406e+00 1.3731072612e+00 2.3782915406e+00 
37400 6.3730073215e+00 -3.3876389028e-06 1.3731072612e+00 -2.3782915406e+00 1.3731072612e+00 2.3782915406e+00 
37500 6.3730065237e+00 -3.4653893694e-06 1.3731072612e+00 -2.3782915406e+00 1.3731072612e+00 2.3782915406e+00 
37600 6.3730057074e+00 -3.5449306663e-06 1.3731072612e+00 -2.3782915406e+00 1.3731072612e+00 2.3782915406e+00 
37700 6.3730048722e+00 -3.6263042703e-06 1.3731072612e+00 -2.3782915406e+00 1.3731072612e+00 2.3782915406e+00 
37800 6.3730040177e+00 -3.7095526270e-06 1.3731072612e+00 -2.3782915406e+00 1.3731072612e+00 2.3782915406e+00 
37900 6.3730031433e+00 -3.7947191738e-06 1.3731072612e+00 -2.3782915406e+00 1.3731072612e+00 2.3782915406e+00 
38000 6.3730022487e+00 -3.8818483636e-06 1.3731072612e+00 -2.3782915406e+00 1.3731072612e+00 2.3782915406e+00 
38100 6.3730013334e+00 -3.9709856885e-06 1.3731072612e+00 -2.3782915406e+00 1.3731072612e+00 2.3782915406e+00 
38200 6.3730003969e+00 -4.0621777049e-06 1.3731072612e+00 -2.3782915406e+00 1.3731072612e+00 2.3782915406e+00 
38300 6.3729994386e+00 -4.1554720583e-06 1.3731072612e+00 -2.3782915406e+00 1.3731072612e+00 2.3782915406e+00 
38400 6.3729984581e+00 -4.2509175095e-06 1.3731072612e+00 -2.3782915406e+00 1.3731072612e+00 2.3782915406e+00 
38500 6.3729974549e+00 -4.3485639607e-06 1.3731072612e+00 -2.3782915406e+00 1.3731072612e+00 2.3782915406e+00 
38600 6.3729964284e+00 -4.4484624832e-06 1.3731072612e+00 -2.3782915406e+00 1.3731072612e+00 2.3782915406e+00 
38700 6.3729953781e+00 -4.5506653446e-06 1.3731072612e+00 -2.3782915406e+00 1.3731072612e+00 2.3782915406e+00 
38800 6.3729943034e+00 -4.6552260374e-06 1.3731072612e+00 -2.3782915406e+00 1.3731072612e+00 2.3782915406e+00 
38900 6.3729932038e+00 -4.7621993086e-06 1.3731072612e+00 -2.3782915406e+00 1.3731072612e+00 2.3782915406e+00 
39000 6.3729920786e+00 -4.8716411890e-06 1.3731072612e+00 -2.3782915406e+00 1.3731072612e+00 2.3782915406e+00 
39100 6.3729909273e+00 -4.9836090239e-06 1.3731072612e+00 -2.3782915406e+00 1.3731072612e+00 2.3782915406e+00 
39200 6.3729897493e+00 -5.0981615047e-06 1.3731072612e+00 -2.3782915406e+00 1.3731072612e+00 2.3782915406e+00 
39300 6.3729885439e+00 -5.2153587008e-06 1.3731072612e+00 -2.3782915406e+00 1.3731072612e+00 2.3782915406e+00 
39400 6.3729873105e+00 -5.3352620926e-06 1.3731072612e+00 -2.3782915406e+00 1.3731072612e+00 2.3782915406e+00 
39500 6.3729860485e+00 -5.4579346050e-06 1.3731072612e+00 -2.3782915406e+00 1.3731072612e+00 2.3782915406e+00 
39600 6.3729847571e+00 -5.5834406421e-06 1.3731072612e+00 -2.3782915406e+00 1.3731072612e+00 2.3782915406e+00 
39700 6.3729834356e+00 -5.7118461225e-06 1.3731072612e+00 -2.3782915406e+00 1.3731072612e+00 2.3782915406e+00 
39800 6.3729820835e+00 -5.8432185156e-06 1.3731072612e+00 -2.3782915406e+00 1.3731072612e+00 2.3782915406e+00 
39900 6.3729806999e+00 -5.9776268785e-06 1.3731072612e+00 -2.3782915406e+00 1.3731072612e+00 2.3782915406e+00 
40000 6.3729792841e+00 -6.1151418943e-06 1.3731072612e+00 -2.3782915406e+00 1.3731072612e+00 2.3782915406e+00 
40100 6.3729778354e+00 -6.2558359110e-06 1.3731072612e+00 -2.3782915406e+00 1.3731072612e+00 2.3782915406e+00 
40200 6.3729763529e+00 -6.3997829814e-06 1.3731072612e+00 -2.3782915406e+00 1.3731072612e+00 2.3782915406e+00 
40300 6.3729748360e+00 -6.5470589039e-06 1.3731072612e+00 -2.3782915406e+00 1.3731072612e+00 2.3782915406e+00 
40400 6.3729732837e+00 -6.6977412646e-06 1.3731072612e+00 -2.3782915406e+00 1.3731072612e+00 2.3782915406e+00 
40500 6.3729716952e+00 -6.8519094803e-06 1.3731072612e+00 -2.3782915406e+00 1.3731072612e+00 2.3782915406e+00 
40600 6.3729700698e+00 -7.0096448424e-06 1.3731072612e+00 -2.3782915406e+00 1.3731072612e+00 2.3782915406e+00 
40700 6.3729684065e+00 -7.1710305618e-06 1.3731072612e+00 -2.3782915406e+00 1.3731072612e+00 2.3782915406e+00 
40800 6.3729667044e+00 -7.3361518158e-06 1.3731072612e+00 -2.3782915406e+00 1.3731072612e+00 2.3782915406e+00 
40900 6.3729649626e+00 -7.5050957947e-06 1.3731072612e+00 -2.3782915406e+00 1.3731072612e+00 2.3782915406e+00 
41000 6.3729631803e+00 -7.6779517510e-06 1.3731072612e+00 -2.3782915406e+00 1.3731072612e+00 2.3782915406e+00 
41100 6.3729613563e+00 -7.8548110487e-06 1.3731072612e+00 -2.3782915406e+00 1.3731072612e+00 2.3782915406e+00 
41200 6.3729594898e+00 -8.0357672146e-06 1.3731072612e+00 -2.3782915406e+00 1.3731072612e+00 2.3782915406e+00 
41300 6.3729575797e+00 -8.2209159905e-06 1.3731072612e+00 -2.3782915406e+00 1.3731072612e+00 2.3782915406e+00 
41400 6.3729556251e+00 -8.4103553868e-06 1.3731072612e+00 -2.3782915406e+00 1.3731072612e+00 2.3782915406e+00 
41500 6.3729536248e+00 -8.6041857372e-06 1.3731072612e+00 -2.3782915406e+00 1.3731072612e+00 2.3782915406e+00 
41600 6.3729515778e+00 -8.8025097555e-06 1.3731072612e+00 -2.3782915406e+00 1.3731072612e+00 2.3782915406e+00 
41700 6.3729494830e+00 -9.0054325928e-06 1.3731072612e+00 -2.3782915406e+00 1.3731072612e+00 2.3782915406e+00 
41800 6.3729473392e+00 -9.2130618969e-06 1.3731072612e+00 -2.3782915406e+00 1.3731072612e+00 2.3782915406e+00 
41900 6.3729451454e+00 -9.4255078729e-06 1.3731072612e+00 -2.3782915406e+00 1.3731072612e+00 2.3782915406e+00 
42000 6.3729429002e+00 -9.6428833455e-06 1.3731072612e+00 -2.3782915406e+00 1.3731072612e+00 2.3782915406e+00 
42100 6.3729406025e+00 -9.8653038225e-06 1.3731072612e+00 -2.3782915406e+00 1.3731072612e+00 2.3782915406e+00 
42200 6.3729382511e+00 -1.0092887560e-05 1.3731072612e+00 -2.3782915406e+00 1.3731072612e+00 2.3782915406e+00 
42300 6.3729358447e+00 -1.0325755631e-05 1.3731072612e+00 -2.3782915406e+00 1.3731072612e+00 2.3782915406e+00 
42400 6.3729333820e+00 -1.0564031991e-05 1.3731072612e+00 -2.3782915406e+00 1.3731072612e+00 2.3782915406e+00 
42500 6.3729308616e+00 -1.0807843550e-05 1.3731072612e+00 -2.3782915406e+00 1.3731072612e+00 2.3782915406e+00 
42600 6.3729282821e+00 -1.1057320247e-05 1.3731072612e+00 -2.3782915406e+00 1.3731072612e+00 2.3782915406e+00 
42700 6.3729256423e+00 -1.1312595121e-05 1.3731072612e+00 -2.3782915406e+00 1.3731072612e+00 2.3782915406e+00 
42800 6.3729229406e+00 -1.1573804386e-05 1.3731072612e+00 -2.3782915406e+00 1.3731072612e+00 2.3782915406e+00 
42900 6.3729201755e+00 -1.1841087513e-05 1.3731072612e+00 -2.3782915406e+00 1.3731072612e+00 2.3782915406e+00 
43000 6.3729173457e+00 -1.2114587308e-05 1.3731072612e+00 -2.3782915406e+00 1.3731072612e+00 2.3782915406e+00 
43100 6.3729144494e+00 -1.2394449990e-05 1.3731072612e+00 -2.3782915406e+00 1.3731072612e+00 2.3782915406e+00 
43200 6.3729114853e+00 -1.2680825283e-05 1.3731072612e+00 -2.3782915406e+00 1.3731072612e+00 2.3782915406e+00 
43300 6.3729084515e+00 -1.2973866493e-05 1.3731072612e+00 -2.3782915406e+00 1.3731072612e+00 2.3782915406e+00 
43400 6.3729053466e+00 -1.3273730605e-05 1.3731072612e+00 -2.3782915406e+00 1.3731072612e+00 2.3782915406e+00 
43500 6.3729021687e+00 -1.3580578368e-05 1.3731072612e+00 -2.3782915406e+00 1.3731072612e+00 2.3782915406e+00 
43600 6.3728989162e+00 -1.3894574387e-05 1.3731072612e+00 -2.3782915406e+00 1.3731072612e+00 2.3782915406e+00 
43700 6.3728955872e+00 -1.4215887225e-05 1.3731072612e+00 -2.3782915406e+00 1.3731072612e+00 2.3782915406e+00 
43800 6.3728921801e+00 -1.4544689494e-05 1.3731072612e+00 -2.3782915406e+00 1.3731072612e+00 2.3782915406e+00 
43900 6.3728886928e+00 -1.4881157958e-05 1.3731072612e+00 -2.3782915406e+00 1.3731072612e+00 2.3782915406e+00 
44000 6.3728851234e+00 -1.5225473637e-05 1.3731072612e+00 -2.3782915406e+00 1.3731072612e+00 2.3782915406e+00 
44100 6.3728814701e+00 -1.5577821910e-05 1.3731072612e+00 -2.3782915406e+00 1.3731072612e+00 2.3782915406e+00 
44200 6.3728777309e+00 -1.5938392627e-05 1.3731072612e+00 -2.3782915406e+00 1.3731072612e+00 2.3782915406e+00 
44300 6.3728739035e+00 -1.6307380215e-05 1.3731072612e+00 -2.3782915406e+00 1.3731072612e+00 2.3782915406e+00 
44400 6.3728699861e+00 -1.6684983798e-05 1.3731072612e+00 -2.3782915406e+00 1.3731072612e+00 2.3782915406e+00 
44500 6.3728659763e+00 -1.7071407309e-05 1.3731072612e+00 -2.3782915406e+00 1.3731072612e+00 2.3782915406e+00 
44600 6.3728618720e+00 -1.7466859613e-05 1.3731072612e+00 -2.3782915406e+00 1.3731072612e+00 2.3782915406e+00 
44700 6.3728576710e+00 -1.7871554629e-05 1.3731072612e+00 -2.3782915406e+00 1.3731072612e+00 2.3782915406e+00 
44800 6.3728533709e+00 -1.8285711458e-05 1.3731072612e+00 -2.3782915406e+00 1.3731072612e+00 2.3782915406e+00 
44900 6.3728489693e+00 -1.8709554511e-05 1.3731072612e+00 -2.3782915406e+00 1.3731072612e+00 2.3782915406e+00 
45000 6.3728444638e+00 -1.9143313642e-05 1.3731072612e+00 -2.3782915406e+00 1.3731072612e+00 2.3782915406e+00 
45100 6.3728398520e+00 -1.9587224288e-05 1.3731072612e+00 -2.3782915406e+00 1.3731072612e+00 2.3782915406e+00 
45200 6.3728351312e+00 -2.0041527605e-05 1.3731072612e+00 -2.3782915406e+00 1.3731072612e+00 2.3782915406e+00 
45300 6.3728302988e+00 -2.0506470616e-05 1.3731072612e+00 -2.3782915406e+00 1.3731072612e+00 2.3782915406e+00 
45400 6.3728253523e+00 -2.0982306355e-05 1.3731072612e+00 -2.3782915406e+00 1.3731072612e+00 2.3782915406e+00 
45500 6.3728202887e+00 -2.1469294024e-05 1.3731072612e+00 -2.3782915406e+00 1.3731072612e+00 2.3782915406e+00 
45600 6.3728151054e+00 -2.1967699143e-05 1.3731072612e+00 -2.3782915406e+00 1.3731072612e+00 2.3782915406e+00 
45700 6.3728097994e+00 -2.2477793716e-05 1.3731072612e+00 -2.3782915406e+00 1.3731072612e+00 2.3782915406e+00 
45800 6.3728043678e+00 -2.2999856389e-05 1.3731072612e+00 -2.3782915406e+00 1.3731072612e+00 2.3782915406e+00 
45900 6.3727988075e+00 -2.3534172626e-05 1.3731072612e+00 -2.3782915406e+00 1.3731072612e+00 2.3782915406e+00 
46000 6.3727931155e+00 -2.4081034876e-05 1.3731072612e+00 -2.3782915406e+00 1.3731072612e+00 2.3782915406e+00 
46100 6.3727872885e+00 -2.4640742755e-05 1.3731072612e+00 -2.3782915406e+00 1.3731072612e+00 2.3782915406e+00 
46200 6.3727813234e+00 -2.5213603226e-05 1.3731072612e+00 -2.3782915406e+00 1.3731072612e+00 2.3782915406e+00 
46300 6.3727752168e+00 -2.5799930789e-05 1.3731072612e+00 -2.3782915406e+00 1.3731072612e+00 2.3782915406e+00 
46400 6.3727689652e+00 -2.6400047674e-05 1.3731072612e+00 -2.3782915406e+00 1.3731072612e+00 2.3782915406e+00 
46500 6.3727625652e+00 -2.7014284036e-05 1.3731072612e+00 -2.3782915406e+00 1.3731072612e+00 2.3782915406e+00 
46600 6.3727560131e+00 -2.7642978162e-05 1.3731072612e+00 -2.3782915406e+00 1.3731072612e+00 2.3782915406e+00 
46700 6.3727493054e+00 -2.8286476679e-05 1.3731072612e+00 -2.3782915406e+00 1.3731072612e+00 2.3782915406e+00 
46800 6.3727424381e+00 -2.8945134767e-05 1.3731072612e+00 -2.3782915406e+00 1.3731072612e+00 2.3782915406e+00 
46900 6.3727354076e+00 -2.9619316383e-05 1.3731072612e+00 -2.3782915406e+00 1.3731072612e+00 2.3782915406e+00 
47000 6.3727282097e+00 -3.0309394485e-05 1.3731072612e+00 -2.3782915406e+00 1.3731072612e+00 2.3782915406e+00 
47100 6.3727208405e+00 -3.1015751266e-05 1.3731072612e+00 -2.3782915406e+00 1.3731072612e+00 2.3782915406e+00 
47200 6.3727132957e+00 -3.1738778392e-05 1.3731072612e+00 -2.3782915406e+00 1.3731072612e+00 2.3782915406e+00 
47300 6.3727055712e+00 -3.2478877252e-05 1.3731072612e+00 -2.3782915406e+00 1.3731072612e+00 2.3782915406e+00 
47400 6.3726976625e+00 -3.3236459206e-05 1.3731072612e+00 -2.3782915406e+00 1.3731072612e+00 2.3782915406e+00 
47500 6.3726895652e+00 -3.4011945850e-05 1.3731072612e+00 -2.3782915406e+00 1.3731072612e+00 2.3782915406e+00 
47600 6.3726812747e+00 -3.4805769276e-05 1.3731072612e+00 -2.3782915406e+00 1.3731072612e+00 2.3782915406e+00 
47700 6.3726727863e+00 -3.5618372356e-05 1.3731072612e+00 -2.3782915406e+00 1.3731072612e+00 2.3782915406e+00 
47800 6.3726640951e+00 -3.6450209016e-05 1.3731072612e+00 -2.3782915406e+00 1.3731072612e+00 2.3782915406e+00 
47900 6.3726551962e+00 -3.7301744532e-05 1.3731072612e+00 -2.3782915406e+00 1.3731072612e+00 2.3782915406e+00 
48000 6.3726460846e+00 -3.8173455825e-05 1.3731072612e+00 -2.3782915406e+00 1.3731072612e+00 2.3782915406e+00 
48100 6.3726367550e+00 -3.9065831771e-05 1.3731072612e+00 -2.3782915406e+00 1.3731072612e+00 2.3782915406e+00 
48200 6.3726272022e+00 -3.9979373514e-05 1.3731072612e+00 -2.3782915406e+00 1.3731072612e+00 2.3782915406e+00 
48300 6.3726174206e+00 -4.0914594790e-05 1.3731072612e+00 -2.3782915406e+00 1.3731072612e+00 2.3782915406e+00 
48400 6.3726074047e+00 -4.1872022265e-05 1.3731072612e+00 -2.3782915406e+00 1.3731072612e+00 2.3782915406e+00 
48500 6.3725971487e+00 -4.2852195875e-05 1.3731072612e+00 -2.3782915406e+00 1.3731072612e+00 2.3782915406e+00 
48600 6.3725866468e+00 -4.3855669180e-05 1.3731072612e+00 -2.3782915406e+00 1.3731072612e+00 2.3782915406e+00 
48700 6.3725758930e+00 -4.4883009728e-05 1.3731072612e+00 -2.3782915406e+00 1.3731072612e+00 2.3782915406e+00 
48800 6.3725648809e+00 -4.5934799429e-05 1.3731072612e+00 -2.3782915406e+00 1.3731072612e+00 2.3782915406e+00 
48900 6.3725536044e+00 -4.7011634937e-05 1.3731072612e+00 -2.3782915406e+00 1.3731072612e+00 2.3782915406e+00 
49000 6.3725420569e+00 -4.8114128050e-05 1.3731072612e+00 -2.3782915406e+00 1.3731072612e+00 2.3782915406e+00 
49100 6.3725302317e+00 -4.9242906115e-05 1.3731072612e+00 -2.3782915406e+00 1.3731072612e+00 2.3782915406e+00 
49200 6.3725181221e+00 -5.0398612447e-05 1.3731072612e+00 -2.3782915406e+00 1.3731072612e+00 2.3782915406e+00 
49300 6.3725057209e+00 -5.1581906763e-05 1.3731072612e+00 -2.3782915406e+00 1.3731072612e+00 2.3782915406e+00 
49400 6.3724930211e+00 -5.2793465621e-05 1.3731072612e+00 -2.3782915406e+00 1.3731072612e+00 2.3782915406e+00 
49500 6.3724800153e+00 -5.4033982884e-05 1.3731072612e+00 -2.3782915406e+00 1.3731072612e+00 2.3782915406e+00 
49600 6.3724666958e+00 -5.5304170184e-05 1.3731072612e+00 -2.3782915406e+00 1.3731072612e+00 2.3782915406e+00 
49700 6.3724530551e+00 -5.6604757411e-05 1.3731072612e+00 -2.3782915406e+00 1.3731072612e+00 2.3782915406e+00 
49800 6.3724390851e+00 -5.7936493211e-05 1.3731072612e+00 -2.3782915406e+00 1.3731072612e+00 2.3782915406e+00 
49900 6.3724247776e+00 -5.9300145499e-05 1.3731072612e+00 -2.3782915406e+00 1.3731072612e+00 2.3782915406e+00 
50000 6.3724101244e+00 -6.0696501988e-05 1.3731072612e+00 -2.3782915406e+00 1.3731072612e+00 2.3782915406e+00 
50100 6.3723951169e+00 -6.2126370736e-05 1.3731072612e+00 -2.3782915406e+00 1.3731072612e+00 2.3782915406e+00 
50200 6.3723797462e+00 -6.3590580706e-05 1.3731072612e+00 -2.3782915406e+00 1.3731072612e+00 2.3782915406e+00 
50300 6.3723640035e+00 -6.5089982342e-05 1.3731072612e+00 -2.3782915406e+00 1.3731072612e+00 2.3782915406e+00 
50400 6.3723478793e+00 -6.6625448170e-05 1.3731072612e+00 -2.3782915406e+00 1.3731072612e+00 2.3782915406e+00 
50500 6.3723313643e+00 -6.8197873408e-05 1.3731072612e+00 -2.3782915406e+00 1.3731072612e+00 2.3782915406e+00 
50600 6.3723144488e+00 -6.9808176600e-05 1.3731072612e+00 -2.3782915406e+00 1.3731072612e+00 2.3782915406e+00 
50700 6.3722971227e+00 -7.1457300265e-05 1.3731072612e+00 -2.3782915406e+00 1.3731072612e+00 2.3782915406e+00 
50800 6.3722793756e+00 -7.3137840691e-05 1.3731098632e+00 -2.3782960475e+00 1.3731098632e+00 2.3782960475e+00 
50900 6.3722611973e+00 -7.4858506575e-05 1.3731125264e+00 -2.3783006603e+00 1.3731125264e+00 2.3783006603e+00 
51000 6.3722425769e+00 -7.6620285060e-05 1.3731152523e+00 -2.3783053816e+00 1.3731152523e+00 2.3783053816e+00 
51100 6.3722235034e+00 -7.8424187937e-05 1.3731180423e+00 -2.3783102141e+00 1.3731180423e+00 2.3783102141e+00 
51200 6.3722039655e+00 -8.0271252352e-05 1.3731208980e+00 -2.3783151603e+00 1.3731208980e+00 2.3783151603e+00 
51300 6.3721839516e+00 -8.2162541518e-05 1.3731238210e+00 -2.3783202230e+00 1.3731238210e+00 2.3783202230e+00 
51400 6.3721634498e+00 -8.4099145453e-05 1.3731268128e+00 -2.3783254050e+00 1.3731268128e+00 2.3783254050e+00 
51500 6.3721424478e+00 -8.6082181727e-05 1.3731298751e+00 -2.3783307091e+00 1.3731298751e+00 2.3783307091e+00 
51600 6.3721209331e+00 -8.8112796237e-05 1.3731330096e+00 -2.3783361382e+00 1.3731330096e+00 2.3783361382e+00 
51700 6.3720988928e+00 -9.0192163990e-05 1.3731362181e+00 -2.3783416954e+00 1.3731362181e+00 2.3783416954e+00 
51800 6.3720763138e+00 -9.2321489915e-05 1.3731395023e+00 -2.3783473838e+00 1.3731395023e+00 2.3783473838e+00 
51900 6.3720531824e+00 -9.4502009692e-05 1.3731428640e+00 -2.3783532064e+00 1.3731428640e+00 2.3783532064e+00 
52000 6.3720294848e+00 -9.6734990604e-05 1.3731463050e+00 -2.3783591666e+00 1.3731463050e+00 2.3783591666e+00 
52100 6.3720052068e+00 -9.9021732412e-05 1.3731498274e+00 -2.3783652675e+00 1.3731498274e+00 2.3783652675e+00 
52200 6.3719803336e+00 -1.0136356825e-04 1.3731534331e+00 -2.3783715127e+00 1.3731534331e+00 2.3783715127e+00 
52300 6.3719548502e+00 -1.0376186555e-04 1.3731571240e+00 -2.3783779055e+00 1.3731571240e+00 2.3783779055e+00 
52400 6.3719287413e+00 -1.0621802700e-04 1.3731609022e+00 -2.3783844496e+00 1.3731609022e+00 2.3783844496e+00 
52500 6.3719019910e+00 -1.0873349149e-04 1.3731647698e+00 -2.3783911485e+00 1.3731647698e+00 2.3783911485e+00 
52600 6.3718745832e+00 -1.1130973516e-04 1.3731687291e+00 -2.3783980061e+00 1.3731687291e+00 2.3783980061e+00 
52700 6.3718465011e+00 -1.1394827237e-04 1.3731727821e+00 -2.3784050262e+00 1.3731727821e+00 2.3784050262e+00 
52800 6.3718177276e+00 -1.1665065682e-04 1.3731769312e+00 -2.3784122126e+00 1.3731769312e+00 2.3784122126e+00 
52900 6.3717882453e+00 -1.1941848261e-04 1.3731811787e+00 -2.3784195695e+00 1.3731811787e+00 2.3784195695e+00 
53000 6.3717580360e+00 -1.2225338536e-04 1.3731855269e+00 -2.3784271008e+00 1.3731855269e+00 2.3784271008e+00 
53100 6.3717270815e+00 -1.2515704337e-04 1.3731899784e+00 -2.3784348110e+00 1.3731899784e+00 2.3784348110e+00 
53200 6.3716953626e+00 -1.2813117882e-04 1.3731945355e+00 -2.3784427042e+00 1.3731945355e+00 2.3784427042e+00 
53300 6.3716628599e+00 -1.3117755897e-04 1.3731992010e+00 -2.3784507850e+00 1.3731992010e+00 2.3784507850e+00 
53400 6.3716295534e+00 -1.3429799743e-04 1.3732039773e+00 -2.3784590579e+00 1.3732039773e+00 2.3784590579e+00 
53500 6.3715954226e+00 -1.3749435548e-04 1.3732088673e+00 -2.3784675275e+00 1.3732088673e+00 2.3784675275e+00 
53600 6.3715604466e+00 -1.4076854335e-04 1.3732138736e+00 -2.3784761987e+00 1.3732138736e+00 2.3784761987e+00 
53700 6.3715246036e+00 -1.4412252164e-04 1.3732189991e+00 -2.3784850764e+00 1.3732189991e+00 2.3784850764e+00 
53800 6.3714878715e+00 -1.4755830273e-04 1.3732242467e+00 -2.3784941655e+00 1.3732242467e+00 2.3784941655e+00 
53900 6.3714502274e+00 -1.5107795220e-04 1.3732296194e+00 -2.3785034713e+00 1.3732296194e+00 2.3785034713e+00 
54000 6.3714116482e+00 -1.5468359038e-04 1.3732351203e+00 -2.3785129990e+00 1.3732351203e+00 2.3785129990e+00 
54100 6.3713721096e+00 -1.5837739388e-04 1.3732407524e+00 -2.3785227541e+00 1.3732407524e+00 2.3785227541e+00 
54200 6.3713315872e+00 -1.6216159716e-04 1.3732465189e+00 -2.3785327421e+00 1.3732465189e+00 2.3785327421e+00 
54300 6.3712900556e+00 -1.6603849419e-04 1.3732524232e+00 -2.3785429687e+00 1.3732524232e+00 2.3785429687e+00 
54400 6.3712474887e+00 -1.7001044015e-04 1.3732584687e+00 -2.3785534397e+00 1.3732584687e+00 2.3785534397e+00 
54500 6.3712038601e+00 -1.7407985316e-04 1.3732646587e+00 -2.3785641612e+00 1.3732646587e+00 2.3785641612e+00 
54600 6.3711591423e+00 -1.7824921605e-04 1.3732709969e+00 -2.3785751392e+00 1.3732709969e+00 2.3785751392e+00 
54700 6.3711133071e+00 -1.8252107827e-04 1.3732774869e+00 -2.3785863802e+00 1.3732774869e+00 2.3785863802e+00 
54800 6.3710663257e+00 -1.8689805773e-04 1.3732841323e+00 -2.3785978904e+00 1.3732841323e+00 2.3785978904e+00 
54900 6.3710181686e+00 -1.9138284282e-04 1.3732909371e+00 -2.3786096767e+00 1.3732909371e+00 2.3786096767e+00 
55000 6.3709688051e+00 -1.9597819437e-04 1.3732979052e+00 -2.3786217457e+00 1.3732979052e+00 2.3786217457e+00 
55100 6.3709182042e+00 -2.0068694782e-04 1.3733050405e+00 -2.3786341044e+00 1.3733050405e+00 2.3786341044e+00 
55200 6.3708663336e+00 -2.0551201530e-04 1.3733123472e+00 -2.3786467600e+00 1.3733123472e+00 2.3786467600e+00 
55300 6.3708131605e+00 -2.1045638788e-04 1.3733198296e+00 -2.3786597198e+00 1.3733198296e+00 2.3786597198e+00 
55400 6.3707586510e+00 -2.1552313783e-04 1.3733274919e+00 -2.3786729914e+00 1.3733274919e+00 2.3786729914e+00 
55500 6.3707027703e+00 -2.2071542102e-04 1.3733353386e+00 -2.3786865824e+00 1.3733353386e+00 2.3786865824e+00 
55600 6.3706454827e+00 -2.2603647930e-04 1.3733433744e+00 -2.3787005007e+00 1.3733433744e+00 2.3787005007e+00 
55700 6.3705867516e+00 -2.3148964304e-04 1.3733516038e+00 -2.3787147545e+00 1.3733516038e+00 2.3787147545e+00 
55800 6.3705265393e+00 -2.3707833369e-04 1.3733600317e+00 -2.3787293521e+00 1.3733600317e+00 2.3787293521e+00 
55900 6.3704648072e+00 -2.4280606644e-04 1.3733686631e+00 -2.3787443020e+00 1.3733686631e+00 2.3787443020e+00 
56000 6.3704015154e+00 -2.4867645301e-04 1.3733775029e+00 -2.3787596130e+00 1.3733775029e+00 2.3787596130e+00 
56100 6.3703366233e+00 -2.5469320440e-04 1.3733865564e+00 -2.3787752941e+00 1.3733865564e+00 2.3787752941e+00 
56200 6.3702700889e+00 -2.6086013388e-04 1.3733958288e+00 -2.3787913544e+00 1.3733958288e+00 2.3787913544e+00 
56300 6.3702018691e+00 -2.6718115995e-04 1.3734053257e+00 -2.3788078036e+00 1.3734053257e+00 2.3788078036e+00 
56400 6.3701319198e+00 -2.7366030949e-04 1.3734150527e+00 -2.3788246512e+00 1.3734150527e+00 2.3788246512e+00 
56500 6.3700601955e+00 -2.8030172092e-04 1.3734250155e+00 -2.3788419072e+00 1.3734250155e+00 2.3788419072e+00 
56600 6.3699866496e+00 -2.8710964751e-04 1.3734352200e+00 -2.3788595819e+00 1.3734352200e+00 2.3788595819e+00 
56700 6.3699112341e+00 -2.9408846079e-04 1.3734456722e+00 -2.3788776858e+00 1.3734456722e+00 2.3788776858e+00 
56800 6.3698338998e+00 -3.0124265407e-04 1.3734563785e+00 -2.3788962295e+00 1.3734563785e+00 2.3788962295e+00 
56900 6.3697545961e+00 -3.0857684603e-04 1.3734673451e+00 -2.3789152242e+00 1.3734673451e+00 2.3789152242e+00 
57000 6.3696732711e+00 -3.1609578448e-04 1.3734785786e+00 -2.3789346812e+00 1.3734785786e+00 2.3789346812e+00 
57100 6.3695898714e+00 -3.2380435019e-04 1.3734900857e+00 -2.3789546122e+00 1.3734900857e+00 2.3789546122e+00 
57200 6.3695043421e+00 -3.3170756088e-04 1.3735018734e+00 -2.3789750290e+00 1.3735018734e+00 2.3789750290e+00 
57300 6.3694166269e+00 -3.3981057529e-04 1.3735139487e+00 -2.3789959440e+00 1.3735139487e+00 2.3789959440e+00 
57400 6.3693266679e+00 -3.4811869741e-04 1.3735263188e+00 -2.3790173697e+00 1.3735263188e+00 2.3790173697e+00 
57500 6.3692344056e+00 -3.5663738086e-04 1.3735389913e+00 -2.3790393191e+00 1.3735389913e+00 2.3790393191e+00 
57600 6.3691397790e+00 -3.6537223333e-04 1.3735519737e+00 -2.3790618053e+00 1.3735519737e+00 2.3790618053e+00 
57700 6.3690427252e+00 -3.7432902127e-04 1.3735652740e+00 -2.3790848421e+00 1.3735652740e+00 2.3790848421e+00 
57800 6.3689431799e+00 -3.8351367459e-04 1.3735789002e+00 -2.3791084434e+00 1.3735789002e+00 2.3791084434e+00 
57900 6.3688410766e+00 -3.9293229165e-04 1.3735928606e+00 -2.3791326235e+00 1.3735928606e+00 2.3791326235e+00 
58000 6.3687363473e+00 -4.0259114431e-04 1.3736071637e+00 -2.3791573972e+00 1.3736071637e+00 2.3791573972e+00 
58100 6.3686289221e+00 -4.1249668316e-04 1.3736218183e+00 -2.3791827796e+00 1.3736218183e+00 2.3791827796e+00 
58200 6.3685187290e+00 -4.2265554291e-04 1.3736368332e+00 -2.3792087863e+00 1.3736368332e+00 2.3792087863e+00 
58300 6.3684056943e+00 -4.3307454795e-04 1.3736522178e+00 -2.3792354332e+00 1.3736522178e+00 2.3792354332e+00 
58400 6.3682897420e+00 -4.4376071813e-04 1.3736679815e+00 -2.3792627366e+00 1.3736679815e+00 2.3792627366e+00 
58500 6.3681707941e+00 -4.5472127458e-04 1.3736841339e+00 -2.3792907134e+00 1.3736841339e+00 2.3792907134e+00 
58600 6.3680487706e+00 -4.6596364590e-04 1.3737006851e+00 -2.3793193809e+00 1.3737006851e+00 2.3793193809e+00 
58700 6.3679235891e+00 -4.7749547435e-04 1.3737176453e+00 -2.3793487569e+00 1.3737176453e+00 2.3793487569e+00 
58800 6.3677951650e+00 -4.8932462239e-04 1.3737350250e+00 -2.3793788594e+00 1.3737350250e+00 2.3793788594e+00 
58900 6.3676634114e+00 -5.0145917929e-04 1.3737528350e+00 -2.3794097073e+00 1.3737528350e+00 2.3794097073e+00 
59000 6.3675282390e+00 -5.1390746802e-04 1.3737710865e+00 -2.3794413198e+00 1.3737710865e+00 2.3794413198e+00 
59100 6.3673895561e+00 -5.2667805233e-04 1.3737897908e+00 -2.3794737166e+00 1.3737897908e+00 2.3794737166e+00 
59200 6.3672472683e+00 -5.3977974402e-04 1.3738089597e+00 -2.3795069180e+00 1.3738089597e+00 2.3795069180e+00 
59300 6.3671012788e+00 -5.5322161044e-04 1.3738286051e+00 -2.3795409449e+00 1.3738286051e+00 2.3795409449e+00 
59400 6.3669514880e+00 -5.6701298223e-04 1.3738487394e+00 -2.3795758186e+00 1.3738487394e+00 2.3795758186e+00 
59500 6.3667977936e+00 -5.8116346125e-04 1.3738693754e+00 -2.3796115612e+00 1.3738693754e+00 2.3796115612e+00 
59600 6.3666400905e+00 -5.9568292878e-04 1.3738905261e+00 -2.3796481952e+00 1.3738905261e+00 2.3796481952e+00 
59700 6.3664782709e+00 -6.1058155393e-04 1.3739122048e+00 -2.3796857439e+00 1.3739122048e+00 2.3796857439e+00 
59800 6.3663122236e+00 -6.2586980232e-04 1.3739344254e+00 -2.3797242311e+00 1.3739344254e+00 2.3797242311e+00 
59900 6.3661418347e+00 -6.4155844497e-04 1.3739572020e+00 -2.3797636814e+00 1.3739572020e+00 2.3797636814e+00 
60000 6.3659669872e+00 -6.5765856747e-04 1.3739805492e+00 -2.3798041198e+00 1.3739805492e+00 2.3798041198e+00 
60100 6.3657875606e+00 -6.7418157942e-04 1.3740044819e+00 -2.3798455724e+00 1.3740044819e+00 2.3798455724e+00 
60200 6.3656034314e+00 -6.9113922411e-04 1.3740290154e+00 -2.3798880658e+00 1.3740290154e+00 2.3798880658e+00 
60300 6.3654144725e+00 -7.0854358843e-04 1.3740541656e+00 -2.3799316271e+00 1.3740541656e+00 2.3799316271e+00 
60400 6.3652205535e+00 -7.2640711314e-04 1.3740799486e+00 -2.3799762847e+00 1.3740799486e+00 2.3799762847e+00 
60500 6.3650215403e+00 -7.4474260334e-04 1.3741063812e+00 -2.3800220672e+00 1.3741063812e+00 2.3800220672e+00 
60600 6.3648172952e+00 -7.6356323924e-04 1.3741334804e+00 -2.3800690045e+00 1.3741334804e+00 2.3800690045e+00 
60700 6.3646076767e+00 -7.8288258722e-04 1.3741612640e+00 -2.3801171270e+00 1.3741612640e+00 2.3801171270e+00 
60800 6.3643925397e+00 -8.0271461116e-04 1.3741897499e+00 -2.3801664661e+00 1.3741897499e+00 2.3801664661e+00 
60900 6.3641717347e+00 -8.2307368405e-04 1.3742189569e+00 -2.3802170540e+00 1.3742189569e+00 2.3802170540e+00 
61000 6.3639451086e+00 -8.4397459992e-04 1.3742489039e+00 -2.3802689238e+00 1.3742489039e+00 2.3802689238e+00 
61100 6.3637125038e+00 -8.6543258602e-04 1.3742796108e+00 -2.3803221097e+00 1.3742796108e+00 2.3803221097e+00 
61200 6.3634737586e+00 -8.8746331529e-04 1.3743110977e+00 -2.3803766466e+00 1.3743110977e+00 2.3803766466e+00 
61300 6.3632287070e+00 -9.1008291917e-04 1.3743433854e+00 -2.3804325705e+00 1.3743433854e+00 2.3804325705e+00 
61400 6.3629771785e+00 -9.3330800062e-04 1.3743764953e+00 -2.3804899185e+00 1.3743764953e+00 2.3804899185e+00 
61500 6.3627189978e+00 -9.5715564749e-04 1.3744104493e+00 -2.3805487286e+00 1.3744104493e+00 2.3805487286e+00 
61600 6.3624539851e+00 -9.8164344611e-04 1.3744452700e+00 -2.3806090399e+00 1.3744452700e+00 2.3806090399e+00 
61700 6.3621819559e+00 -1.0067894953e-03 1.3744809807e+00 -2.3806708926e+00 1.3744809807e+00 2.3806708926e+00 
61800 6.3619027205e+00 -1.0326124203e-03 1.3745176052e+00 -2.3807343281e+00 1.3745176052e+00 2.3807343281e+00 
61900 6.3616160842e+00 -1.0591313875e-03 1.3745551681e+00 -2.3807993889e+00 1.3745551681e+00 2.3807993889e+00 
62000 6.3613218474e+00 -1.0863661191e-03 1.3745936946e+00 -2.3808661188e+00 1.3745936946e+00 2.3808661188e+00 
62100 6.3610198049e+00 -1.1143369079e-03 1.3746332107e+00 -2.3809345627e+00 1.3746332107e+00 2.3809345627e+00 
62200 6.3607097463e+00 -1.1430646323e-03 1.3746737431e+00 -2.3810047668e+00 1.3746737431e+00 2.3810047668e+00 
62300 6.3603914555e+00 -1.1725707724e-03 1.3747153191e+00 -2.3810767786e+00 1.3747153191e+00 2.3810767786e+00 
62400 6.3600647109e+00 -1.2028774249e-03 1.3747579671e+00 -2.3811506471e+00 1.3747579671e+00 2.3811506471e+00 
62500 6.3597292850e+00 -1.2340073194e-03 1.3748017160e+00 -2.3812264225e+00 1.3748017160e+00 2.3812264225e+00 
62600 6.3593849445e+00 -1.2659838338e-03 1.3748465957e+00 -2.3813041564e+00 1.3748465957e+00 2.3813041564e+00 
62700 6.3590314499e+00 -1.2988310113e-03 1.3748926369e+00 -2.3813839021e+00 1.3748926369e+00 2.3813839021e+00 
62800 6.3586685556e+00 -1.3325735758e-03 1.3749398711e+00 -2.3814657141e+00 1.3749398711e+00 2.3814657141e+00 
62900 6.3582960098e+00 -1.3672369487e-03 1.3749883307e+00 -2.3815496486e+00 1.3749883307e+00 2.3815496486e+00 
63000 6.3579135542e+00 -1.4028472653e-03 1.3750380491e+00 -2.3816357634e+00 1.3750380491e+00 2.3816357634e+00 
63100 6.3575209239e+00 -1.4394313910e-03 1.3750890607e+00 -2.3817241180e+00 1.3750890607e+00 2.3817241180e+00 
63200 6.3571178474e+00 -1.4770169380e-03 1.3751414006e+00 -2.3818147734e+00 1.3751414006e+00 2.3818147734e+00 
63300 6.3567040463e+00 -1.5156322817e-03 1.3751951051e+00 -2.3819077924e+00 1.3751951051e+00 2.3819077924e+00 
63400 6.3562792353e+00 -1.5553065768e-03 1.3752502116e+00 -2.3820032395e+00 1.3752502116e+00 2.3820032395e+00 
63500 6.3558431221e+00 -1.5960697736e-03 1.3753067583e+00 -2.3821011813e+00 1.3753067583e+00 2.3821011813e+00 
63600 6.3553954070e+00 -1.6379526337e-03 1.3753647846e+00 -2.3822016859e+00 1.3753647846e+00 2.3822016859e+00 
63700 6.3549357832e+00 -1.6809867463e-03 1.3754243312e+00 -2.3823048235e+00 1.3754243312e+00 2.3823048235e+00 
63800 6.3544639363e+00 -1.7252045429e-03 1.3754854396e+00 -2.3824106664e+00 1.3754854396e+00 2.3824106664e+00 
63900 6.3539795445e+00 -1.7706393127e-03 1.3755481526e+00 -2.3825192886e+00 1.3755481526e+00 2.3825192886e+00 
64000 6.3534822782e+00 -1.8173252168e-03 1.3756125143e+00 -2.3826307663e+00 1.3756125143e+00 2.3826307663e+00 
64100 6.3529717999e+00 -1.8652973025e-03 1.3756785700e+00 -2.3827451781e+00 1.3756785700e+00 2.3827451781e+00 
64200 6.3524477644e+00 -1.9145915165e-03 1.3757463661e+00 -2.3828626044e+00 1.3757463661e+00 2.3828626044e+00 
64300 6.3519098185e+00 -1.9652447172e-03 1.3758159504e+00 -2.3829831280e+00 1.3758159504e+00 2.3829831280e+00 
64400 6.3513576006e+00 -2.0172946869e-03 1.3758873721e+00 -2.3831068339e+00 1.3758873721e+00 2.3831068339e+00 
64500 6.3507907412e+00 -2.0707801422e-03 1.3759606816e+00 -2.3832338097e+00 1.3759606816e+00 2.3832338097e+00 
64600 6.3502088623e+00 -2.1257407440e-03 1.3760359308e+00 -2.3833641452e+00 1.3760359308e+00 2.3833641452e+00 
64700 6.3496115778e+00 -2.1822171058e-03 1.3761131730e+00 -2.3834979326e+00 1.3761131730e+00 2.3834979326e+00 
64800 6.3489984927e+00 -2.2402508009e-03 1.3761924629e+00 -2.3836352668e+00 1.3761924629e+00 2.3836352668e+00 
64900 6.3483692038e+00 -2.2998843686e-03 1.3762738568e+00 -2.3837762451e+00 1.3762738568e+00 2.3837762451e+00 
65000 6.3477232993e+00 -2.3611613175e-03 1.3763574124e+00 -2.3839209676e+00 1.3763574124e+00 2.3839209676e+00 
65100 6.3470603587e+00 -2.4241261284e-03 1.3764431890e+00 -2.3840695371e+00 1.3764431890e+00 2.3840695371e+00 
65200 6.3463799527e+00 -2.4888242546e-03 1.3765312476e+00 -2.3842220590e+00 1.3765312476e+00 2.3842220590e+00 
65300 6.3456816435e+00 -2.5553021199e-03 1.3766216506e+00 -2.3843786416e+00 1.3766216506e+00 2.3843786416e+00 
65400 6.3449649845e+00 -2.6236071146e-03 1.3767144622e+00 -2.3845393961e+00 1.3767144622e+00 2.3845393961e+00 
65500 6.3442295205e+00 -2.6937875889e-03 1.3768097484e+00 -2.3847044366e+00 1.3768097484e+00 2.3847044366e+00 
65600 6.3434747874e+00 -2.7658928436e-03 1.3769075767e+00 -2.3848738802e+00 1.3769075767e+00 2.3848738802e+00 
65700 6.3427003125e+00 -2.8399731177e-03 1.3770080165e+00 -2.3850478471e+00 1.3770080165e+00 2.3850478471e+00 
65800 6.3419056146e+00 -2.9160795728e-03 1.3771111390e+00 -2.3852264604e+00 1.3771111390e+00 2.3852264604e+00 
65900 6.3410902038e+00 -2.9942642743e-03 1.3772170170e+00 -2.3854098465e+00 1.3772170170e+00 2.3854098465e+00 
66000 6.3402535817e+00 -3.0745801690e-03 1.3773257255e+00 -2.3855981352e+00 1.3773257255e+00 2.3855981352e+00 
66100 6.3393952416e+00 -3.1570810579e-03 1.3774373412e+00 -2.3857914591e+00 1.3774373412e+00 2.3857914591e+00 
66200 6.3385146686e+00 -3.2418215664e-03 1.3775519426e+00 -2.3859899546e+00 1.3775519426e+00 2.3859899546e+00 
66300 6.3376113396e+00 -3.3288571084e-03 1.3776696103e+00 -2.3861937610e+00 1.3776696103e+00 2.3861937610e+00 
66400 6.3366847236e+00 -3.4182438468e-03 1.3777904268e+00 -2.3864030214e+00 1.3777904268e+00 2.3864030214e+00 
66500 6.3357342818e+00 -3.5100386481e-03 1.3779144767e+00 -2.3866178821e+00 1.3779144767e+00 2.3866178821e+00 
66600 6.3347594681e+00 -3.6042990326e-03 1.3780418465e+00 -2.3868384930e+00 1.3780418465e+00 2.3868384930e+00 
66700 6.3337597290e+00 -3.7010831181e-03 1.3781726246e+00 -2.3870650075e+00 1.3781726246e+00 2.3870650075e+00 
66800 6.3327345039e+00 -3.8004495583e-03 1.3783069018e+00 -2.3872975824e+00 1.3783069018e+00 2.3872975824e+00 
66900 6.3316832259e+00 -3.9024574746e-03 1.3784447707e+00 -2.3875363783e+00 1.3784447707e+00 2.3875363783e+00 
67000 6.3306053215e+00 -4.0071663813e-03 1.3785863261e+00 -2.3877815594e+00 1.3785863261e+00 2.3877815594e+00 
67100 6.3295002116e+00 -4.1146361048e-03 1.3787316647e+00 -2.3880332933e+00 1.3787316647e+00 2.3880332933e+00 
67200 6.3283673112e+00 -4.2249266943e-03 1.3788808856e+00 -2.3882917514e+00 1.3788808856e+00 2.3882917514e+00 
67300 6.3272060308e+00 -4.3380983265e-03 1.3790340897e+00 -2.3885571087e+00 1.3790340897e+00 2.3885571087e+00 
67400 6.3260157760e+00 -4.4542112016e-03 1.3791913802e+00 -2.3888295439e+00 1.3791913802e+00 2.3888295439e+00 
67500 6.3247959486e+00 -4.5733254318e-03 1.3793528625e+00 -2.3891092394e+00 1.3793528625e+00 2.3891092394e+00 
67600 6.3235459470e+00 -4.6955009217e-03 1.3795186437e+00 -2.3893963809e+00 1.3795186437e+00 2.3893963809e+00 
67700 6.3222651669e+00 -4.8207972399e-03 1.3796888334e+00 -2.3896911581e+00 1.3796888334e+00 2.3896911581e+00 
67800 6.3209530019e+00 -4.9492734826e-03 1.3798635431e+00 -2.3899937641e+00 1.3798635431e+00 2.3899937641e+00 
67900 6.3196088444e+00 -5.0809881274e-03 1.3800428862e+00 -2.3903043955e+00 1.3800428862e+00 2.3903043955e+00 
68000 6.3182320862e+00 -5.2159988795e-03 1.3802269783e+00 -2.3906232525e+00 1.3802269783e+00 2.3906232525e+00 
68100 6.3168221192e+00 -5.3543625073e-03 1.3804159370e+00 -2.3909505385e+00 1.3804159370e+00 2.3909505385e+00 
68200 6.3153783369e+00 -5.4961346704e-03 1.3806098818e+00 -2.3912864607e+00 1.3806098818e+00 2.3912864607e+00 
68300 6.3139001346e+00 -5.6413697373e-03 1.3808089339e+00 -2.3916312291e+00 1.3808089339e+00 2.3916312291e+00 
68400 6.3123869108e+00 -5.7901205947e-03 1.3810132166e+00 -2.3919850572e+00 1.3810132166e+00 2.3919850572e+00 
68500 6.3108380682e+00 -5.9424384470e-03 1.3812228550e+00 -2.3923481615e+00 1.3812228550e+00 2.3923481615e+00 
68600 6.3092530148e+00 -6.0983726079e-03 1.3814379757e+00 -2.3927207614e+00 1.3814379757e+00 2.3927207614e+00 
68700 6.3076311649e+00 -6.2579702825e-03 1.3816587071e+00 -2.3931030795e+00 1.3816587071e+00 2.3931030795e+00 
68800 6.3059719407e+00 -6.4212763412e-03 1.3818851792e+00 -2.3934953405e+00 1.3818851792e+00 2.3934953405e+00 
68900 6.3042747731e+00 -6.5883330858e-03 1.3821175232e+00 -2.3938977722e+00 1.3821175232e+00 2.3938977722e+00 
69000 6.3025391034e+00 -6.7591800076e-03 1.3823558721e+00 -2.3943106046e+00 1.3823558721e+00 2.3943106046e+00 
69100 6.3007643845e+00 -6.9338535390e-03 1.3826003597e+00 -2.3947340696e+00 1.3826003597e+00 2.3947340696e+00 
69200 6.2989500826e+00 -7.1123867977e-03 1.3828511214e+00 -2.3951684016e+00 1.3828511214e+00 2.3951684016e+00 
69300 6.2970956782e+00 -7.2948093263e-03 1.3831082932e+00 -2.3956138362e+00 1.3831082932e+00 2.3956138362e+00 
69400 6.2952006682e+00 -7.4811468260e-03 1.3833720123e+00 -2.3960706111e+00 1.3833720123e+00 2.3960706111e+00 
69500 6.2932645672e+00 -7.6714208870e-03 1.3836424165e+00 -2.3965389648e+00 1.3836424165e+00 2.3965389648e+00 
69600 6.2912869094e+00 -7.8656487152e-03 1.3839196440e+00 -2.3970191371e+00 1.3839196440e+00 2.3970191371e+00 
69700 6.2892672499e+00 -8.0638428580e-03 1.3842038339e+00 -2.3975113683e+00 1.3842038339e+00 2.3975113683e+00 
69800 6.2872051668e+00 -8.2660109286e-03 1.3844951250e+00 -2.3980158993e+00 1.3844951250e+00 2.3980158993e+00 
69900 6.2851002631e+00 -8.4721553318e-03 1.3847936565e+00 -2.3985329710e+00 1.3847936565e+00 2.3985329710e+00 
70000 6.2829521680e+00 -8.6822729910e-03 1.3850995673e+00 -2.3990628241e+00 1.3850995673e+00 2.3990628241e+00 
70100 6.2807605395e+00 -8.8963550807e-03 1.3854129960e+00 -2.3996056986e+00 1.3854129960e+00 2.3996056986e+00 
70200 6.2785250655e+00 -9.1143867623e-03 1.3857340808e+00 -2.4001618336e+00 1.3857340808e+00 2.4001618336e+00 
70300 6.2762454664e+00 -9.3363469291e-03 1.3860629587e+00 -2.4007314669e+00 1.3860629587e+00 2.4007314669e+00 
70400 6.2739214966e+00 -9.5622079590e-03 1.3863997661e+00 -2.4013148344e+00 1.3863997661e+00 2.4013148344e+00 
70500 6.2715529468e+00 -9.7919354790e-03 1.3867446379e+00 -2.4019121700e+00 1.3867446379e+00 2.4019121700e+00 
70600 6.2691396456e+00 -1.0025488142e-02 1.3870977076e+00 -2.4025237047e+00 1.3870977076e+00 2.4025237047e+00 
70700 6.2666814617e+00 -1.0262817421e-02 1.3874591069e+00 -2.4031496666e+00 1.3874591069e+00 2.4031496666e+00 
70800 6.2641783057e+00 -1.0503867415e-02 1.3878289655e+00 -2.4037902805e+00 1.3878289655e+00 2.4037902805e+00 
70900 6.2616301324e+00 -1.0748574682e-02 1.3882074107e+00 -2.4044457669e+00 1.3882074107e+00 2.4044457669e+00 
71000 6.2590369421e+00 -1.0996868085e-02 1.3885945674e+00 -2.4051163418e+00 1.3885945674e+00 2.4051163418e+00 
71100 6.2563987830e+00 -1.1248668672e-02 1.3889905574e+00 -2.4058022166e+00 1.3889905574e+00 2.4058022166e+00 
71200 6.2537157526e+00 -1.1503889569e-02 1.3893954995e+00 -2.4065035969e+00 1.3893954995e+00 2.4065035969e+00 
71300 6.2509880000e+00 -1.1762435913e-02 1.3898095090e+00 -2.4072206825e+00 1.3898095090e+00 2.4072206825e+00 
71400 6.2482157271e+00 -1.2024204805e-02 1.3902326977e+00 -2.4079536667e+00 1.3902326977e+00 2.4079536667e+00 
71500 6.2453991905e+00 -1.2289085305e-02 1.3906651731e+00 -2.4087027361e+00 1.3906651731e+00 2.4087027361e+00 
71600 6.2425387033e+00 -1.2556958448e-02 1.3911070384e+00 -2.4094680693e+00 1.3911070384e+00 2.4094680693e+00 
71700 6.2396346358e+00 -1.2827697307e-02 1.3915583925e+00 -2.4102498376e+00 1.3915583925e+00 2.4102498376e+00 
71800 6.2366874178e+00 -1.3101167085e-02 1.3920193292e+00 -2.4110482033e+00 1.3920193292e+00 2.4110482033e+00 
71900 6.2336975391e+00 -1.3377225248e-02 1.3924899370e+00 -2.4118633200e+00 1.3924899370e+00 2.4118633200e+00 
72000 6.2306655511e+00 -1.3655721696e-02 1.3929702994e+00 -2.4126953319e+00 1.3929702994e+00 2.4126953319e+00 
72100 6.2275920675e+00 -1.3936498975e-02 1.3934604937e+00 -2.4135443734e+00 1.3934604937e+00 2.4135443734e+00 
72200 6.2244777654e+00 -1.4219392526e-02 1.3939605915e+00 -2.4144105683e+00 1.3939605915e+00 2.4144105683e+00 
72300 6.2213233856e+00 -1.4504230980e-02 1.3944706583e+00 -2.4152940298e+00 1.3944706583e+00 2.4152940298e+00 
72400 6.2181297334e+00 -1.4790836486e-02 1.3949907529e+00 -2.4161948601e+00 1.3949907529e+00 2.4161948601e+00 
72500 6.2148976790e+00 -1.5079025088e-02 1.3955209275e+00 -2.4171131494e+00 1.3955209275e+00 2.4171131494e+00 
72600 6.2116281573e+00 -1.5368607131e-02 1.3960612274e+00 -2.4180489763e+00 1.3960612274e+00 2.4180489763e+00 
72700 6.2083221684e+00 -1.5659387712e-02 1.3966116910e+00 -2.4190024072e+00 1.3966116910e+00 2.4190024072e+00 
72800 6.2049807768e+00 -1.5951167168e-02 1.3971723491e+00 -2.4199734956e+00 1.3971723491e+00 2.4199734956e+00 
72900 6.2016051112e+00 -1.6243741592e-02 1.3977432255e+00 -2.4209622825e+00 1.3977432255e+00 2.4209622825e+00 
73000 6.1981963639e+00 -1.6536903392e-02 1.3983243360e+00 -2.4219687954e+00 1.3983243360e+00 2.4219687954e+00 
73100 6.1947557900e+00 -1.6830441866e-02 1.3989156891e+00 -2.4229930491e+00 1.3989156891e+00 2.4229930491e+00 
73200 6.1912847059e+00 -1.7124143821e-02 1.3995172853e+00 -2.4240350443e+00 1.3995172853e+00 2.4240350443e+00 
73300 6.1877844885e+00 -1.7417794198e-02 1.4001291174e+00 -2.4250947685e+00 1.4001291174e+00 2.4250947685e+00 
73400 6.1842565733e+00 -1.7711176733e-02 1.4007511701e+00 -2.4261721954e+00 1.4007511701e+00 2.4261721954e+00 
73500 6.1807024528e+00 -1.8004074623e-02 1.4013834205e+00 -2.4272672852e+00 1.4013834205e+00 2.4272672852e+00 
73600 6.1771236744e+00 -1.8296271210e-02 1.4020258374e+00 -2.4283799840e+00 1.4020258374e+00 2.4283799840e+00 
73700 6.1735218383e+00 -1.8587550673e-02 1.4026783821e+00 -2.4295102245e+00 1.4026783821e+00 2.4295102245e+00 
73800 6.1698985951e+00 -1.8877698720e-02 1.4033410078e+00 -2.4306579258e+00 1.4033410078e+00 2.4306579258e+00 
73900 6.1662556430e+00 -1.9166503284e-02 1.4040136599e+00 -2.4318229934e+00 1.4040136599e+00 2.4318229934e+00 
74000 6.1625947251e+00 -1.9453755207e-02 1.4046962763e+00 -2.4330053197e+00 1.4046962763e+00 2.4330053197e+00 
74100 6.1589176264e+00 -1.9739248921e-02 1.4053887873e+00 -2.4342047840e+00 1.4053887873e+00 2.4342047840e+00 
74200 6.1552261704e+00 -2.0022783104e-02 1.4060911158e+00 -2.4354212526e+00 1.4060911158e+00 2.4354212526e+00 
74300 6.1515222161e+00 -2.0304161327e-02 1.4068031775e+00 -2.4366545796e+00 1.4068031775e+00 2.4366545796e+00 
74400 6.1478076538e+00 -2.0583192666e-02 1.4075248810e+00 -2.4379046068e+00 1.4075248810e+00 2.4379046068e+00 
74500 6.1440844021e+00 -2.0859692295e-02 1.4082561283e+00 -2.4391711642e+00 1.4082561283e+00 2.4391711642e+00 
74600 6.1403544035e+00 -2.1133482034e-02 1.4089968145e+00 -2.4404540705e+00 1.4089968145e+00 2.4404540705e+00 
74700 6.1366196208e+00 -2.1404390869e-02 1.4097468288e+00 -2.4417531334e+00 1.4097468288e+00 2.4417531334e+00 
74800 6.1328820329e+00 -2.1672255429e-02 1.4105060542e+00 -2.4430681503e+00 1.4105060542e+00 2.4430681503e+00 
74900 6.1291436305e+00 -2.1936920414e-02 1.4112743679e+00 -2.4443989086e+00 1.4112743679e+00 2.4443989086e+00 
75000 6.1254064122e+00 -2.2198238981e-02 1.4120516417e+00 -2.4457451864e+00 1.4120516417e+00 2.4457451864e+00 
75100 6.1216723800e+00 -2.2456073074e-02 1.4128377425e+00 -2.4471067528e+00 1.4128377425e+00 2.4471067528e+00 
75200 6.1179435351e+00 -2.2710293709e-02 1.4136325322e+00 -2.4484833689e+00 1.4136325322e+00 2.4484833689e+00 
75300 6.1142218732e+00 -2.2960781200e-02 1.4144358683e+00 -2.4498747880e+00 1.4144358683e+00 2.4498747880e+00 
75400 6.1105093808e+00 -2.3207425327e-02 1.4152476045e+00 -2.4512807563e+00 1.4152476045e+00 2.4512807563e+00 
75500 6.1068080307e+00 -2.3450125456e-02 1.4160675905e+00 -2.4527010138e+00 1.4160675905e+00 2.4527010138e+00 
75600 6.1031197772e+00 -2.3688790597e-02 1.4168956728e+00 -2.4541352944e+00 1.4168956728e+00 2.4541352944e+00 
75700 6.0994465528e+00 -2.3923339404e-02 1.4177316948e+00 -2.4555833269e+00 1.4177316948e+00 2.4555833269e+00 
75800 6.0957902633e+00 -2.4153700125e-02 1.4185754973e+00 -2.4570448357e+00 1.4185754973e+00 2.4570448357e+00 
75900 6.0921527844e+00 -2.4379810494e-02 1.4194269188e+00 -2.4585195411e+00 1.4194269188e+00 2.4585195411e+00 
76000 6.0885359574e+00 -2.4601617574e-02 1.4202857960e+00 -2.4600071599e+00 1.4202857960e+00 2.4600071599e+00 
76100 6.0849415856e+00 -2.4819077539e-02 1.4211519638e+00 -2.4615074066e+00 1.4211519638e+00 2.4615074066e+00 
76200 6.0813714305e+00 -2.5032155422e-02 1.4220252560e+00 -2.4630199930e+00 1.4220252560e+00 2.4630199930e+00 
76300 6.0778272086e+00 -2.5240824807e-02 1.4229055053e+00 -2.4645446296e+00 1.4229055053e+00 2.4645446296e+00 
76400 6.0743105881e+00 -2.5445067481e-02 1.4237925440e+00 -2.4660810257e+00 1.4237925440e+00 2.4660810257e+00 
76500 6.0708231856e+00 -2.5644873052e-02 1.4246862040e+00 -2.4676288901e+00 1.4246862040e+00 2.4676288901e+00 
76600 6.0673665631e+00 -2.5840238518e-02 1.4255863170e+00 -2.4691879316e+00 1.4255863170e+00 2.4691879316e+00 
76700 6.0639422258e+00 -2.6031167824e-02 1.4264927151e+00 -2.4707578591e+00 1.4264927151e+00 2.4707578591e+00 
76800 6.0605516192e+00 -2.6217671371e-02 1.4274052308e+00 -2.4723383828e+00 1.4274052308e+00 2.4723383828e+00 
76900 6.0571961270e+00 -2.6399765518e-02 1.4283236974e+00 -2.4739292136e+00 1.4283236974e+00 2.4739292136e+00 
77000 6.0538770690e+00 -2.6577472053e-02 1.4292479491e+00 -2.4755300644e+00 1.4292479491e+00 2.4755300644e+00 
77100 6.0505956995e+00 -2.6750817655e-02 1.4301778210e+00 -2.4771406499e+00 1.4301778210e+00 2.4771406499e+00 
77200 6.0473532056e+00 -2.6919833345e-02 1.4311131499e+00 -2.4787606870e+00 1.4311131499e+00 2.4787606870e+00 
77300 6.0441507057e+00 -2.7084553924e-02 1.4320537736e+00 -2.4803898951e+00 1.4320537736e+00 2.4803898951e+00 
77400 6.0409892489e+00 -2.7245017419e-02 1.4329995318e+00 -2.4820279964e+00 1.4329995318e+00 2.4820279964e+00 
77500 6.0378698139e+00 -2.7401264520e-02 1.4339502658e+00 -2.4836747160e+00 1.4339502658e+00 2.4836747160e+00 
77600 6.0347933081e+00 -2.7553338026e-02 1.4349058187e+00 -2.4853297821e+00 1.4349058187e+00 2.4853297821e+00 
77700 6.0317605680e+00 -2.7701282303e-02 1.4358660353e+00 -2.4869929261e+00 1.4358660353e+00 2.4869929261e+00 
77800 6.0287723582e+00 -2.7845142748e-02 1.4368307626e+00 -2.4886638827e+00 1.4368307626e+00 2.4886638827e+00 
77900 6.0258293721e+00 -2.7984965273e-02 1.4377998492e+00 -2.4903423900e+00 1.4377998492e+00 2.4903423900e+00 
78000 6.0229322321e+00 -2.8120795806e-02 1.4387731461e+00 -2.4920281895e+00 1.4387731461e+00 2.4920281895e+00 
78100 6.0200814898e+00 -2.8252679811e-02 1.4397505057e+00 -2.4937210261e+00 1.4397505057e+00 2.4937210261e+00 
78200 6.0172776271e+00 -2.8380661833e-02 1.4407317829e+00 -2.4954206481e+00 1.4407317829e+00 2.4954206481e+00 
78300 6.0145210567e+00 -2.8504785069e-02 1.4417168342e+00 -2.4971268069e+00 1.4417168342e+00 2.4971268069e+00 
78400 6.0118121237e+00 -2.8625090968e-02 1.4427055179e+00 -2.4988392574e+00 1.4427055179e+00 2.4988392574e+00 
78500 6.0091511065e+00 -2.8741618852e-02 1.4436976944e+00 -2.5005577575e+00 1.4436976944e+00 2.5005577575e+00 
78600 6.0065382181e+00 -2.8854405580e-02 1.4446932255e+00 -2.5022820680e+00 1.4446932255e+00 2.5022820680e+00 
78700 6.0039736080e+00 -2.8963485230e-02 1.4456919748e+00 -2.5040119525e+00 1.4456919748e+00 2.5040119525e+00 
78800 6.0014573639e+00 -2.9068888824e-02 1.4466938075e+00 -2.5057471775e+00 1.4466938075e+00 2.5057471775e+00 
78900 5.9989895131e+00 -2.9170644079e-02 1.4476985899e+00 -2.5074875118e+00 1.4476985899e+00 2.5074875118e+00 
79000 5.9965700250e+00 -2.9268775192e-02 1.4487061900e+00 -2.5092327264e+00 1.4487061900e+00 2.5092327264e+00 
79100 5.9941988127e+00 -2.9363302661e-02 1.4497164768e+00 -2.5109825944e+00 1.4497164768e+00 2.5109825944e+00 
79200 5.9918757354e+00 -2.9454243133e-02 1.4507293203e+00 -2.5127368908e+00 1.4507293203e+00 2.5127368908e+00 
79300 5.9896006006e+00 -2.9541609292e-02 1.4517445916e+00 -2.5144953923e+00 1.4517445916e+00 2.5144953923e+00 
79400 5.9873731662e+00 -2.9625409768e-02 1.4527621624e+00 -2.5162578766e+00 1.4527621624e+00 2.5162578766e+00 
79500 5.9851931430e+00 -2.9705649088e-02 1.4537819051e+00 -2.5180241228e+00 1.4537819051e+00 2.5180241228e+00 
79600 5.9830601970e+00 -2.9782327652e-02 1.4548036927e+00 -2.5197939108e+00 1.4548036927e+00 2.5197939108e+00 
79700 5.9809739519e+00 -2.9855441733e-02 1.4558273984e+00 -2.5215670211e+00 1.4558273984e+00 2.5215670211e+00 
79800 5.9789339915e+00 -2.9924983514e-02 1.4568528958e+00 -2.5233432347e+00 1.4568528958e+00 2.5233432347e+00 
79900 5.9769398620e+00 -2.9990941148e-02 1.4578800584e+00 -2.5251223326e+00 1.4578800584e+00 2.5251223326e+00 
80000 5.9749910748e+00 -3.0053298835e-02 1.4589087598e+00 -2.5269040957e+00 1.4589087598e+00 2.5269040957e+00 
80100 5.9730871084e+00 -3.0112036939e-02 1.4599388734e+00 -2.5286883046e+00 1.4599388734e+00 2.5286883046e+00 
80200 5.9712274113e+00 -3.0167132108e-02 1.4609702720e+00 -2.5304747395e+00 1.4609702720e+00 2.5304747395e+00 
80300 5.9694114045e+00 -3.0218557432e-02 1.4620028284e+00 -2.5322631795e+00 1.4620028284e+00 2.5322631795e+00 
80400 5.9676384832e+00 -3.0266282608e-02 1.4630364144e+00 -2.5340534031e+00 1.4630364144e+00 2.5340534031e+00 
80500 5.9659080197e+00 -3.0310274126e-02 1.4640709015e+00 -2.5358451873e+00 1.4640709015e+00 2.5358451873e+00 
80600 5.9642193656e+00 -3.0350495472e-02 1.4651061603e+00 -2.5376383080e+00 1.4651061603e+00 2.5376383080e+00 
80700 5.9625718540e+00 -3.0386907342e-02 1.4661420602e+00 -2.5394325395e+00 1.4661420602e+00 2.5394325395e+00 
80800 5.9609648015e+00 -3.0419467874e-02 1.4671784702e+00 -2.5412276542e+00 1.4671784702e+00 2.5412276542e+00 
80900 5.9593975106e+00 -3.0448132882e-02 1.4682152578e+00 -2.5430234229e+00 1.4682152578e+00 2.5430234229e+00 
81000 5.9578692713e+00 -3.0472856110e-02 1.4692522894e+00 -2.5448196144e+00 1.4692522894e+00 2.5448196144e+00 
81100 5.9563793638e+00 -3.0493589480e-02 1.4702894305e+00 -2.5466159955e+00 1.4702894305e+00 2.5466159955e+00 
81200 5.9549270598e+00 -3.0510283364e-02 1.4713265451e+00 -2.5484123306e+00 1.4713265451e+00 2.5484123306e+00 
81300 5.9535116243e+00 -3.0522886843e-02 1.4723634958e+00 -2.5502083820e+00 1.4723634958e+00 2.5502083820e+00 
81400 5.9521323180e+00 -3.0531347980e-02 1.4734001443e+00 -2.5520039097e+00 1.4734001443e+00 2.5520039097e+00 
81500 5.9507883980e+00 -3.0535614095e-02 1.4744363503e+00 -2.5537986713e+00 1.4744363503e+00 2.5537986713e+00 
81600 5.9494791203e+00 -3.0535632034e-02 1.4754719727e+00 -2.5555924219e+00 1.4754719727e+00 2.5555924219e+00 
81700 5.9482037408e+00 -3.0531348448e-02 1.4765068686e+00 -2.5573849142e+00 1.4765068686e+00 2.5573849142e+00 
81800 5.9469615168e+00 -3.0522710056e-02 1.4775408939e+00 -2.5591758986e+00 1.4775408939e+00 2.5591758986e+00 
81900 5.9457517082e+00 -3.0509663923e-02 1.4785739030e+00 -2.5609651228e+00 1.4785739030e+00 2.5609651228e+00 
82000 5.9445735792e+00 -3.0492157718e-02 1.4796057490e+00 -2.5627523324e+00 1.4796057490e+00 2.5627523324e+00 
82100 5.9434263990e+00 -3.0470139981e-02 1.4806362835e+00 -2.5645372705e+00 1.4806362835e+00 2.5645372705e+00 
82200 5.9423094429e+00 -3.0443560373e-02 1.4816653568e+00 -2.5663196778e+00 1.4816653568e+00 2.5663196778e+00 
82300 5.9412219938e+00 -3.0412369929e-02 1.4826928181e+00 -2.5680992930e+00 1.4826928181e+00 2.5680992930e+00 
82400 5.9401633424e+00 -3.0376521298e-02 1.4837185152e+00 -2.5698758524e+00 1.4837185152e+00 2.5698758524e+00 
82500 5.9391327886e+00 -3.0335968980e-02 1.4847422947e+00 -2.5716490905e+00 1.4847422947e+00 2.5716490905e+00 
82600 5.9381296421e+00 -3.0290669550e-02 1.4857640021e+00 -2.5734187397e+00 1.4857640021e+00 2.5734187397e+00 
82700 5.9371532229e+00 -3.0240581877e-02 1.4867834820e+00 -2.5751845307e+00 1.4867834820e+00 2.5751845307e+00 
82800 5.9362028623e+00 -3.0185667331e-02 1.4878005779e+00 -2.5769461924e+00 1.4878005779e+00 2.5769461924e+00 
82900 5.9352779031e+00 -3.0125889983e-02 1.4888151324e+00 -2.5787034524e+00 1.4888151324e+00 2.5787034524e+00 
83000 5.9343777002e+00 -3.0061216794e-02 1.4898269874e+00 -2.5804560366e+00 1.4898269874e+00 2.5804560366e+00 
83100 5.9335016210e+00 -2.9991617789e-02 1.4908359840e+00 -2.5822036700e+00 1.4908359840e+00 2.5822036700e+00 
83200 5.9326490459e+00 -2.9917066230e-02 1.4918419628e+00 -2.5839460764e+00 1.4918419628e+00 2.5839460764e+00 
83300 5.9318193683e+00 -2.9837538767e-02 1.4928447639e+00 -2.5856829788e+00 1.4928447639e+00 2.5856829788e+00 
83400 5.9310119953e+00 -2.9753015586e-02 1.4938442270e+00 -2.5874140997e+00 1.4938442270e+00 2.5874140997e+00 
83500 5.9302263471e+00 -2.9663480542e-02 1.4948401916e+00 -2.5891391610e+00 1.4948401916e+00 2.5891391610e+00 
83600 5.9294618582e+00 -2.9568921282e-02 1.4958324970e+00 -2.5908578844e+00 1.4958324970e+00 2.5908578844e+00 
83700 5.9287179766e+00 -2.9469329354e-02 1.4968209825e+00 -2.5925699915e+00 1.4968209825e+00 2.5925699915e+00 
83800 5.9279941641e+00 -2.9364700308e-02 1.4978054876e+00 -2.5942752043e+00 1.4978054876e+00 2.5942752043e+00 
83900 5.9272898965e+00 -2.9255033784e-02 1.4987858519e+00 -2.5959732452e+00 1.4987858519e+00 2.5959732452e+00 
84000 5.9266046634e+00 -2.9140333589e-02 1.4997619155e+00 -2.5976638369e+00 1.4997619155e+00 2.5976638369e+00 
84100 5.9259379680e+00 -2.9020607760e-02 1.5007335190e+00 -2.5993467035e+00 1.5007335190e+00 2.5993467035e+00 
84200 5.9252893273e+00 -2.8895868620e-02 1.5017005035e+00 -2.6010215698e+00 1.5017005035e+00 2.6010215698e+00 
84300 5.9246582718e+00 -2.8766132822e-02 1.5026627111e+00 -2.6026881623e+00 1.5026627111e+00 2.6026881623e+00 
84400 5.9240443451e+00 -2.8631421376e-02 1.5036199846e+00 -2.6043462086e+00 1.5036199846e+00 2.6043462086e+00 
84500 5.9234471040e+00 -2.8491759678e-02 1.5045721681e+00 -2.6059954387e+00 1.5045721681e+00 2.6059954387e+00 
84600 5.9228661184e+00 -2.8347177513e-02 1.5055191066e+00 -2.6076355843e+00 1.5055191066e+00 2.6076355843e+00 
84700 5.9223009706e+00 -2.8197709061e-02 1.5064606466e+00 -2.6092663795e+00 1.5064606466e+00 2.6092663795e+00 
84800 5.9217512554e+00 -2.8043392886e-02 1.5073966361e+00 -2.6108875609e+00 1.5073966361e+00 2.6108875609e+00 
84900 5.9212165798e+00 -2.7884271913e-02 1.5083269246e+00 -2.6124988678e+00 1.5083269246e+00 2.6124988678e+00 
85000 5.9206965625e+00 -2.7720393408e-02 1.5092513634e+00 -2.6141000428e+00 1.5092513634e+00 2.6141000428e+00 
85100 5.9201908339e+00 -2.7551808928e-02 1.5101698056e+00 -2.6156908313e+00 1.5101698056e+00 2.6156908313e+00 
85200 5.9196990355e+00 -2.7378574285e-02 1.5110821063e+00 -2.6172709826e+00 1.5110821063e+00 2.6172709826e+00 
85300 5.9192208199e+00 -2.7200749485e-02 1.5119881229e+00 -2.6188402493e+00 1.5119881229e+00 2.6188402493e+00 
85400 5.9187558499e+00 -2.7018398664e-02 1.5128877148e+00 -2.6203983882e+00 1.5128877148e+00 2.6203983882e+00 
85500 5.9183037991e+00 -2.6831590020e-02 1.5137807439e+00 -2.6219451599e+00 1.5137807439e+00 2.6219451599e+00 
85600 5.9178643505e+00 -2.6640395729e-02 1.5146670746e+00 -2.6234803297e+00 1.5146670746e+00 2.6234803297e+00 
85700 5.9174371972e+00 -2.6444891862e-02 1.5155465739e+00 -2.6250036671e+00 1.5155465739e+00 2.6250036671e+00 
85800 5.9170220411e+00 -2.6245158294e-02 1.5164191115e+00 -2.6265149466e+00 1.5164191115e+00 2.6265149466e+00 
85900 5.9166185932e+00 -2.6041278596e-02 1.5172845600e+00 -2.6280139474e+00 1.5172845600e+00 2.6280139474e+00 
86000 5.9162265733e+00 -2.5833339937e-02 1.5181427949e+00 -2.6295004539e+00 1.5181427949e+00 2.6295004539e+00 
86100 5.9158457092e+00 -2.5621432971e-02 1.5189936948e+00 -2.6309742558e+00 1.5189936948e+00 2.6309742558e+00 
86200 5.9154757367e+00 -2.5405651716e-02 1.5198371414e+00 -2.6324351482e+00 1.5198371414e+00 2.6324351482e+00 
86300 5.9151163993e+00 -2.5186093435e-02 1.5206730198e+00 -2.6338829320e+00 1.5206730198e+00 2.6338829320e+00 
86400 5.9147674477e+00 -2.4962858511e-02 1.5215012182e+00 -2.6353174136e+00 1.5215012182e+00 2.6353174136e+00 
86500 5.9144286397e+00 -2.4736050311e-02 1.5223216283e+00 -2.6367384057e+00 1.5223216283e+00 2.6367384057e+00 
86600 5.9140997396e+00 -2.4505775055e-02 1.5231341455e+00 -2.6381457267e+00 1.5231341455e+00 2.6381457267e+00 
86700 5.9137805185e+00 -2.4272141676e-02 1.5239386685e+00 -2.6395392015e+00 1.5239386685e+00 2.6395392015e+00 
86800 5.9134707532e+00 -2.4035261678e-02 1.5247351000e+00 -2.6409186613e+00 1.5247351000e+00 2.6409186613e+00 
86900 5.9131702265e+00 -2.3795248992e-02 1.5255233462e+00 -2.6422839437e+00 1.5255233462e+00 2.6422839437e+00 
87000 5.9128787269e+00 -2.3552219827e-02 1.5263033170e+00 -2.6436348929e+00 1.5263033170e+00 2.6436348929e+00 
87100 5.9125960481e+00 -2.3306292524e-02 1.5270749265e+00 -2.6449713597e+00 1.5270749265e+00 2.6449713597e+00 
87200 5.9123219889e+00 -2.3057587401e-02 1.5278380925e+00 -2.6462932020e+00 1.5278380925e+00 2.6462932020e+00 
87300 5.9120563529e+00 -2.2806226604e-02 1.5285927368e+00 -2.6476002841e+00 1.5285927368e+00 2.6476002841e+00 
87400 5.9117989483e+00 -2.2552333947e-02 1.5293387851e+00 -2.6488924777e+00 1.5293387851e+00 2.6488924777e+00 
87500 5.9115495878e+00 -2.2296034766e-02 1.5300761673e+00 -2.6501696612e+00 1.5300761673e+00 2.6501696612e+00 
87600 5.9113080882e+00 -2.2037455754e-02 1.5308048174e+00 -2.6514317203e+00 1.5308048174e+00 2.6514317203e+00 
87700 5.9110742703e+00 -2.1776724813e-02 1.5315246735e+00 -2.6526785475e+00 1.5315246735e+00 2.6526785475e+00 
87800 5.9108479586e+00 -2.1513970895e-02 1.5322356777e+00 -2.6539100429e+00 1.5322356777e+00 2.6539100429e+00 
87900 5.9106289814e+00 -2.1249323845e-02 1.5329377763e+00 -2.6551261135e+00 1.5329377763e+00 2.6551261135e+00 
88000 5.9104171703e+00 -2.0982914251e-02 1.5336309201e+00 -2.6563266736e+00 1.5336309201e+00 2.6563266736e+00 
88100 5.9102123604e+00 -2.0714873284e-02 1.5343150636e+00 -2.6575116450e+00 1.5343150636e+00 2.6575116450e+00 
88200 5.9100143896e+00 -2.0445332553e-02 1.5349901659e+00 -2.6586809564e+00 1.5349901659e+00 2.6586809564e+00 
88300 5.9098230991e+00 -2.0174423945e-02 1.5356561900e+00 -2.6598345441e+00 1.5356561900e+00 2.6598345441e+00 
88400 5.9096383328e+00 -1.9902279482e-02 1.5363131034e+00 -2.6609723514e+00 1.5363131034e+00 2.6609723514e+00 
88500 5.9094599376e+00 -1.9629031169e-02 1.5369608775e+00 -2.6620943291e+00 1.5369608775e+00 2.6620943291e+00 
88600 5.9092877626e+00 -1.9354810851e-02 1.5375994881e+00 -2.6632004351e+00 1.5375994881e+00 2.6632004351e+00 
88700 5.9091216599e+00 -1.9079750068e-02 1.5382289150e+00 -2.6642906345e+00 1.5382289150e+00 2.6642906345e+00 
88800 5.9089614838e+00 -1.8803979913e-02 1.5388491423e+00 -2.6653648997e+00 1.5388491423e+00 2.6653648997e+00 
88900 5.9088070910e+00 -1.8527630894e-02 1.5394601582e+00 -2.6664232102e+00 1.5394601582e+00 2.6664232102e+00 
89000 5.9086583404e+00 -1.8250832801e-02 1.5400619548e+00 -2.6674655525e+00 1.5400619548e+00 2.6674655525e+00 
89100 5.9085150932e+00 -1.7973714571e-02 1.5406545284e+00 -2.6684919201e+00 1.5406545284e+00 2.6684919201e+00 
89200 5.9083772126e+00 -1.7696404156e-02 1.5412378794e+00 -2.6695023138e+00 1.5412378794e+00 2.6695023138e+00 
89300 5.9082445641e+00 -1.7419028404e-02 1.5418120122e+00 -2.6704967408e+00 1.5418120122e+00 2.6704967408e+00 
89400 5.9081170149e+00 -1.7141712931e-02 1.5423769349e+00 -2.6714752156e+00 1.5423769349e+00 2.6714752156e+00 
89500 5.9079944344e+00 -1.6864582001e-02 1.5429326597e+00 -2.6724377592e+00 1.5429326597e+00 2.6724377592e+00 
89600 5.9078766939e+00 -1.6587758416e-02 1.5434792025e+00 -2.6733843992e+00 1.5434792025e+00 2.6733843992e+00 
89700 5.9077636664e+00 -1.6311363402e-02 1.5440165833e+00 -2.6743151700e+00 1.5440165833e+00 2.6743151700e+00 
89800 5.9076552271e+00 -1.6035516498e-02 1.5445448255e+00 -2.6752301123e+00 1.5445448255e+00 2.6752301123e+00 
89900 5.9075512526e+00 -1.5760335460e-02 1.5450639562e+00 -2.6761292731e+00 1.5450639562e+00 2.6761292731e+00 
90000 5.9074516216e+00 -1.5485936154e-02 1.5455740064e+00 -2.6770127059e+00 1.5455740064e+00 2.6770127059e+00 
90100 5.9073562144e+00 -1.5212432468e-02 1.5460750103e+00 -2.6778804701e+00 1.5460750103e+00 2.6778804701e+00 
90200 5.9072649133e+00 -1.4939936213e-02 1.5465670058e+00 -2.6787326313e+00 1.5465670058e+00 2.6787326313e+00 
90300 5.9071776020e+00 -1.4668557046e-02 1.5470500341e+00 -2.6795692609e+00 1.5470500341e+00 2.6795692609e+00 
90400 5.9070941663e+00 -1.4398402379e-02 1.5475241399e+00 -2.6803904362e+00 1.5475241399e+00 2.6803904362e+00 
90500 5.9070144935e+00 -1.4129577307e-02 1.5479893708e+00 -2.6811962399e+00 1.5479893708e+00 2.6811962399e+00 
90600 5.9069384727e+00 -1.3862184532e-02 1.5484457781e+00 -2.6819867604e+00 1.5484457781e+00 2.6819867604e+00 
90700 5.9068659946e+00 -1.3596324295e-02 1.5488934157e+00 -2.6827620915e+00 1.5488934157e+00 2.6827620915e+00 
90800 5.9067969519e+00 -1.3332094310e-02 1.5493323409e+00 -2.6835223322e+00 1.5493323409e+00 2.6835223322e+00 
90900 5.9067312387e+00 -1.3069589708e-02 1.5497626137e+00 -2.6842675866e+00 1.5497626137e+00 2.6842675866e+00 
91000 5.9066687511e+00 -1.2808902975e-02 1.5501842971e+00 -2.6849979636e+00 1.5501842971e+00 2.6849979636e+00 
91100 5.9066093867e+00 -1.2550123907e-02 1.5505974567e+00 -2.6857135771e+00 1.5505974567e+00 2.6857135771e+00 
91200 5.9065530450e+00 -1.2293339559e-02 1.5510021610e+00 -2.6864145455e+00 1.5510021610e+00 2.6864145455e+00 
91300 5.9064996271e+00 -1.2038634206e-02 1.5513984810e+00 -2.6871009919e+00 1.5513984810e+00 2.6871009919e+00 
91400 5.9064490360e+00 -1.1786089303e-02 1.5517864901e+00 -2.6877730434e+00 1.5517864901e+00 2.6877730434e+00 
91500 5.9064011763e+00 -1.1535783451e-02 1.5521662644e+00 -2.6884308317e+00 1.5521662644e+00 2.6884308317e+00 
91600 5.9063559544e+00 -1.1287792369e-02 1.5525378819e+00 -2.6890744921e+00 1.5525378819e+00 2.6890744921e+00 
91700 5.9063132784e+00 -1.1042188868e-02 1.5529014232e+00 -2.6897041641e+00 1.5529014232e+00 2.6897041641e+00 
91800 5.9062730584e+00 -1.0799042832e-02 1.5532569709e+00 -2.6903199907e+00 1.5532569709e+00 2.6903199907e+00 
91900 5.9062352060e+00 -1.0558421198e-02 1.5536046096e+00 -2.6909221187e+00 1.5536046096e+00 2.6909221187e+00 
92000 5.9061996347e+00 -1.0320387944e-02 1.5539444260e+00 -2.6915106979e+00 1.5539444260e+00 2.6915106979e+00 
92100 5.9061662597e+00 -1.0085004084e-02 1.5542765085e+00 -2.6920858817e+00 1.5542765085e+00 2.6920858817e+00 
92200 5.9061349982e+00 -9.8523276578e-03 1.5546009474e+00 -2.6926478263e+00 1.5546009474e+00 2.6926478263e+00 
92300 5.9061057689e+00 -9.6224137324e-03 1.5549178346e+00 -2.6931966911e+00 1.5549178346e+00 2.6931966911e+00 
92400 5.9060784924e+00 -9.3953144049e-03 1.5552272635e+00 -2.6937326378e+00 1.5552272635e+00 2.6937326378e+00 
92500 5.9060530912e+00 -9.1710788080e-03 1.5555293293e+00 -2.6942558310e+00 1.5555293293e+00 2.6942558310e+00 
92600 5.9060294896e+00 -8.9497531200e-03 1.5558241283e+00 -2.6947664378e+00 1.5558241283e+00 2.6947664378e+00 
92700 5.9060076134e+00 -8.7313805780e-03 1.5561117581e+00 -2.6952646273e+00 1.5561117581e+00 2.6952646273e+00 
92800 5.9059873906e+00 -8.5160014945e-03 1.5563923177e+00 -2.6957505708e+00 1.5563923177e+00 2.6957505708e+00 
92900 5.9059687507e+00 -8.3036532771e-03 1.5566659072e+00 -2.6962244417e+00 1.5566659072e+00 2.6962244417e+00 
93000 5.9059516251e+00 -8.0943704512e-03 1.5569326276e+00 -2.6966864149e+00 1.5569326276e+00 2.6966864149e+00 
93100 5.9059359469e+00 -7.8881846866e-03 1.5571925809e+00 -2.6971366673e+00 1.5571925809e+00 2.6971366673e+00 
93200 5.9059216511e+00 -7.6851248256e-03 1.5574458700e+00 -2.6975753769e+00 1.5574458700e+00 2.6975753769e+00 
93300 5.9059086744e+00 -7.4852169149e-03 1.5576925986e+00 -2.6980027233e+00 1.5576925986e+00 2.6980027233e+00 
93400 5.9058969552e+00 -7.2884842401e-03 1.5579328709e+00 -2.6984188872e+00 1.5579328709e+00 2.6984188872e+00 
93500 5.9058864339e+00 -7.0949473622e-03 1.5581667920e+00 -2.6988240504e+00 1.5581667920e+00 2.6988240504e+00 
93600 5.9058770522e+00 -6.9046241573e-03 1.5583944672e+00 -2.6992183955e+00 1.5583944672e+00 2.6992183955e+00 
93700 5.9058687540e+00 -6.7175298579e-03 1.5586160025e+00 -2.6996021059e+00 1.5586160025e+00 2.6996021059e+00 
93800 5.9058614845e+00 -6.5336770968e-03 1.5588315041e+00 -2.6999753656e+00 1.5588315041e+00 2.6999753656e+00 
93900 5.9058551909e+00 -6.3530759534e-03 1.5590410785e+00 -2.7003383591e+00 1.5590410785e+00 2.7003383591e+00 
94000 5.9058498220e+00 -6.1757340010e-03 1.5592448324e+00 -2.7006912712e+00 1.5592448324e+00 2.7006912712e+00 
94100 5.9058453281e+00 -6.0016563570e-03 1.5594428727e+00 -2.7010342870e+00 1.5594428727e+00 2.7010342870e+00 
94200 5.9058416614e+00 -5.8308457342e-03 1.5596353061e+00 -2.7013675915e+00 1.5596353061e+00 2.7013675915e+00 
94300 5.9058387755e+00 -5.6633024941e-03 1.5598222397e+00 -2.7016913699e+00 1.5598222397e+00 2.7016913699e+00 
94400 5.9058366258e+00 -5.4990247010e-03 1.5600037800e+00 -2.7020058069e+00 1.5600037800e+00 2.7020058069e+00 
94500 5.9058351690e+00 -5.3380081784e-03 1.5601800337e+00 -2.7023110872e+00 1.5601800337e+00 2.7023110872e+00 
94600 5.9058343638e+00 -5.1802465661e-03 1.5603511070e+00 -2.7026073951e+00 1.5603511070e+00 2.7026073951e+00 
94700 5.9058341699e+00 -5.0257313786e-03 1.5605171062e+00 -2.7028949140e+00 1.5605171062e+00 2.7028949140e+00 
94800 5.9058345490e+00 -4.8744520642e-03 1.5606781367e+00 -2.7031738270e+00 1.5606781367e+00 2.7031738270e+00 
94900 5.9058354640e+00 -4.7263960658e-03 1.5608343039e+00 -2.7034443165e+00 1.5608343039e+00 2.7034443165e+00 
95000 5.9058368792e+00 -4.5815488815e-03 1.5609857124e+00 -2.7037065637e+00 1.5609857124e+00 2.7037065637e+00 
95100 5.9058387606e+00 -4.4398941266e-03 1.5611324665e+00 -2.7039607493e+00 1.5611324665e+00 2.7039607493e+00 
95200 5.9058410755e+00 -4.3014135964e-03 1.5612746697e+00 -2.7042070525e+00 1.5612746697e+00 2.7042070525e+00 
95300 5.9058437923e+00 -4.1660873283e-03 1.5614124250e+00 -2.7044456516e+00 1.5614124250e+00 2.7044456516e+00 
95400 5.9058468812e+00 -4.0338936657e-03 1.5615458345e+00 -2.7046767238e+00 1.5615458345e+00 2.7046767238e+00 
95500 5.9058503134e+00 -3.9048093214e-03 1.5616749998e+00 -2.7049004445e+00 1.5616749998e+00 2.7049004445e+00 
95600 5.9058540614e+00 -3.7788094410e-03 1.5618000214e+00 -2.7051169883e+00 1.5618000214e+00 2.7051169883e+00 
95700 5.9058580991e+00 -3.6558676674e-03 1.5619209990e+00 -2.7053265277e+00 1.5619209990e+00 2.7053265277e+00 
95800 5.9058624015e+00 -3.5359562040e-03 1.5620380316e+00 -2.7055292341e+00 1.5620380316e+00 2.7055292341e+00 
95900 5.9058669449e+00 -3.4190458788e-03 1.5621512171e+00 -2.7057252770e+00 1.5621512171e+00 2.7057252770e+00 
96000 5.9058717066e+00 -3.3051062077e-03 1.5622606522e+00 -2.7059148243e+00 1.5622606522e+00 2.7059148243e+00 
96100 5.9058766652e+00 -3.1941054581e-03 1.5623664330e+00 -2.7060980420e+00 1.5623664330e+00 2.7060980420e+00 
96200 5.9058818002e+00 -3.0860107117e-03 1.5624686542e+00 -2.7062750944e+00 1.5624686542e+00 2.7062750944e+00 
96300 5.9058870924e+00 -2.9807879272e-03 1.5625674096e+00 -2.7064461437e+00 1.5625674096e+00 2.7064461437e+00 
96400 5.9058925234e+00 -2.8784020020e-03 1.5626627917e+00 -2.7066113503e+00 1.5626627917e+00 2.7066113503e+00 
96500 5.9058980759e+00 -2.7788168341e-03 1.5627548919e+00 -2.7067708725e+00 1.5627548919e+00 2.7067708725e+00 
96600 5.9059037336e+00 -2.6819953827e-03 1.5628438003e+00 -2.7069248665e+00 1.5628438003e+00 2.7069248665e+00 
96700 5.9059094812e+00 -2.5878997285e-03 1.5629296061e+00 -2.7070734864e+00 1.5629296061e+00 2.7070734864e+00 
96800 5.9059153041e+00 -2.4964911332e-03 1.5630123968e+00 -2.7072168842e+00 1.5630123968e+00 2.7072168842e+00 
96900 5.9059211886e+00 -2.4077300978e-03 1.5630922591e+00 -2.7073552096e+00 1.5630922591e+00 2.7073552096e+00 
97000 5.9059271220e+00 -2.3215764206e-03 1.5631692779e+00 -2.7074886101e+00 1.5631692779e+00 2.7074886101e+00 
97100 5.9059330924e+00 -2.2379892537e-03 1.5632435371e+00 -2.7076172308e+00 1.5632435371e+00 2.7076172308e+00 
97200 5.9059390884e+00 -2.1569271592e-03 1.5633151192e+00 -2.7077412147e+00 1.5633151192e+00 2.7077412147e+00 
97300 5.9059450997e+00 -2.0783481638e-03 1.5633841054e+00 -2.7078607023e+00 1.5633841054e+00 2.7078607023e+00 
97400 5.9059511165e+00 -2.0022098124e-03 1.5634505754e+00 -2.7079758317e+00 1.5634505754e+00 2.7079758317e+00 
97500 5.9059571298e+00 -1.9284692213e-03 1.5635146076e+00 -2.7080867388e+00 1.5635146076e+00 2.7080867388e+00 
97600 5.9059631311e+00 -1.8570831288e-03 1.5635762790e+00 -2.7081935567e+00 1.5635762790e+00 2.7081935567e+00 
97700 5.9059691127e+00 -1.7880079466e-03 1.5636356651e+00 -2.7082964165e+00 1.5636356651e+00 2.7082964165e+00 
97800 5.9059750675e+00 -1.7211998080e-03 1.5636928402e+00 -2.7083954466e+00 1.5636928402e+00 2.7083954466e+00 
97900 5.9059809888e+00 -1.6566146164e-03 1.5637478769e+00 -2.7084907730e+00 1.5637478769e+00 2.7084907730e+00 
98000 5.9059868707e+00 -1.5942080920e-03 1.5638008465e+00 -2.7085825191e+00 1.5638008465e+00 2.7085825191e+00 
98100 5.9059927075e+00 -1.5339358167e-03 1.5638518190e+00 -2.7086708061e+00 1.5638518190e+00 2.7086708061e+00 
98200 5.9059984943e+00 -1.4757532786e-03 1.5639008628e+00 -2.7087557524e+00 1.5639008628e+00 2.7087557524e+00 
98300 5.9060042265e+00 -1.4196159148e-03 1.5639480448e+00 -2.7088374741e+00 1.5639480448e+00 2.7088374741e+00 
98400 5.9060099001e+00 -1.3654791527e-03 1.5639934307e+00 -2.7089160847e+00 1.5639934307e+00 2.7089160847e+00 
98500 5.9060155112e+00 -1.3132984502e-03 1.5640370845e+00 -2.7089916953e+00 1.5640370845e+00 2.7089916953e+00 
98600 5.9060210567e+00 -1.2630293347e-03 1.5640790690e+00 -2.7090644145e+00 1.5640790690e+00 2.7090644145e+00 
98700 5.9060265336e+00 -1.2146274403e-03 1.5641194453e+00 -2.7091343483e+00 1.5641194453e+00 2.7091343483e+00 
98800 5.9060319393e+00 -1.1680485439e-03 1.5641582733e+00 -2.7092016004e+00 1.5641582733e+00 2.7092016004e+00 
98900 5.9060372717e+00 -1.1232486005e-03 1.5641956113e+00 -2.7092662718e+00 1.5641956113e+00 2.7092662718e+00 
99000 5.9060425289e+00 -1.0801837757e-03 1.5642315165e+00 -2.7093284613e+00 1.5642315165e+00 2.7093284613e+00 
99100 5.9060477091e+00 -1.0388104788e-03 1.5642660442e+00 -2.7093882651e+00 1.5642660442e+00 2.7093882651e+00 
99200 5.9060528111e+00 -9.9908539262e-04 1.5642992487e+00 -2.7094457770e+00 1.5642992487e+00 2.7094457770e+00 
99300 5.9060578338e+00 -9.6096550359e-04 1.5643311828e+00 -2.7095010885e+00 1.5643311828e+00 2.7095010885e+00 
99400 5.9060627763e+00 -9.2440812947e-04 1.5643618978e+00 -2.7095542884e+00 1.5643618978e+00 2.7095542884e+00 
99500 5.9060676381e+00 -8.8937094621e-04 1.5643914437e+00 -2.7096054635e+00 1.5643914437e+00 2.7096054635e+00 
99600 5.9060724186e+00 -8.5581201343e-04 1.5644198693e+00 -2.7096546980e+00 1.5644198693e+00 2.7096546980e+00 
99700 5.9060771176e+00 -8.2368979860e-04 1.5644472217e+00 -2.7097020738e+00 1.5644472217e+00 2.7097020738e+00 
99800 5.9060817352e+00 -7.9296319994e-04 1.5644735471e+00 -2.7097476707e+00 1.5644735471e+00 2.7097476707e+00 
99900 5.9060862713e+00 -7.6359156806e-04 1.5644988900e+00 -2.7097915658e+00 1.5644988900e+00 2.7097915658e+00 
100000 5.9060907264e+00 -7.3553472641e-04 1.5645232937e+00 -2.7098338344e+00 1.5645232937e+00 2.7098338344e+00 
100100 5.9060951006e+00 -7.0875299046e-04 1.5645468005e+00 -2.7098745492e+00 1.5645468005e+00 2.7098745492e+00 
100200 5.9060993946e+00 -6.8320718571e-04 1.5645694510e+00 -2.7099137810e+00 1.5645694510e+00 2.7099137810e+00 
100300 5.9061036090e+00 -6.5885866451e-04 1.5645912847e+00 -2.7099515982e+00 1.5645912847e+00 2.7099515982e+00 
100400 5.9061077444e+00 -6.3566932176e-04 1.5646123401e+00 -2.7099880671e+00 1.5646123401e+00 2.7099880671e+00 
100500 5.9061118018e+00 -6.1360160941e-04 1.5646326541e+00 -2.7100232520e+00 1.5646326541e+00 2.7100232520e+00 
100600 5.9061157819e+00 -5.9261854994e-04 1.5646522626e+00 -2.7100572150e+00 1.5646522626e+00 2.7100572150e+00 
100700 5.9061196858e+00 -5.7268374868e-04 1.5646712003e+00 -2.7100900161e+00 1.5646712003e+00 2.7100900161e+00 
100800 5.9061235144e+00 -5.5376140515e-04 1.5646895008e+00 -2.7101217135e+00 1.5646895008e+00 2.7101217135e+00 
100900 5.9061272689e+00 -5.3581632329e-04 1.5647071964e+00 -2.7101523632e+00 1.5647071964e+00 2.7101523632e+00 
101000 5.9061309503e+00 -5.1881392075e-04 1.5647243184e+00 -2.7101820193e+00 1.5647243184e+00 2.7101820193e+00 
101100 5.9061345598e+00 -5.0272023720e-04 1.5647408969e+00 -2.7102107340e+00 1.5647408969e+00 2.7102107340e+00 
101200 5.9061380986e+00 -4.8750194163e-04 1.5647569609e+00 -2.7102385578e+00 1.5647569609e+00 2.7102385578e+00 
101300 5.9061415679e+00 -4.7312633877e-04 1.5647725385e+00 -2.7102655389e+00 1.5647725385e+00 2.7102655389e+00 
101400 5.9061449689e+00 -4.5956137468e-04 1.5647876566e+00 -2.7102917242e+00 1.5647876566e+00 2.7102917242e+00 
101500 5.9061483029e+00 -4.4677564131e-04 1.5648023411e+00 -2.7103171585e+00 1.5648023411e+00 2.7103171585e+00 
101600 5.9061515712e+00 -4.3473838043e-04 1.5648166169e+00 -2.7103418849e+00 1.5648166169e+00 2.7103418849e+00 
101700 5.9061547750e+00 -4.2341948654e-04 1.5648305079e+00 -2.7103659449e+00 1.5648305079e+00 2.7103659449e+00 
101800 5.9061579155e+00 -4.1278950920e-04 1.5648440372e+00 -2.7103893783e+00 1.5648440372e+00 2.7103893783e+00 
101900 5.9061609941e+00 -4.0281965443e-04 1.5648572267e+00 -2.7104122232e+00 1.5648572267e+00 2.7104122232e+00 
102000 5.9061640119e+00 -3.9348178550e-04 1.5648700975e+00 -2.7104345161e+00 1.5648700975e+00 2.7104345161e+00 
102100 5.9061669703e+00 -3.8474842299e-04 1.5648826699e+00 -2.7104562921e+00 1.5648826699e+00 2.7104562921e+00 
102200 5.9061698705e+00 -3.7659274415e-04 1.5648949631e+00 -2.7104775846e+00 1.5648949631e+00 2.7104775846e+00 
102300 5.9061727136e+00 -3.6898858169e-04 1.5649069956e+00 -2.7104984255e+00 1.5649069956e+00 2.7104984255e+00 
102400 5.9061755009e+00 -3.6191042187e-04 1.5649187851e+00 -2.7105188455e+00 1.5649187851e+00 2.7105188455e+00 
102500 5.9061782336e+00 -3.5533340207e-04 1.5649303484e+00 -2.7105388737e+00 1.5649303484e+00 2.7105388737e+00 
102600 5.9061809128e+00 -3.4923330775e-04 1.5649417014e+00 -2.7105585377e+00 1.5649417014e+00 2.7105585377e+00 
102700 5.9061835397e+00 -3.4358656893e-04 1.5649528594e+00 -2.7105778640e+00 1.5649528594e+00 2.7105778640e+00 
102800 5.9061861154e+00 -3.3837025610e-04 1.5649638370e+00 -2.7105968777e+00 1.5649638370e+00 2.7105968777e+00 
102900 5.9061886410e+00 -3.3356207568e-04 1.5649746478e+00 -2.7106156025e+00 1.5649746478e+00 2.7106156025e+00 
103000 5.9061911175e+00 -3.2914036506e-04 1.5649853049e+00 -2.7106340612e+00 1.5649853049e+00 2.7106340612e+00 
103100 5.9061935461e+00 -3.2508408709e-04 1.5649958207e+00 -2.7106522751e+00 1.5649958207e+00 2.7106522751e+00 
103200 5.9061959277e+00 -3.2137282432e-04 1.5650062068e+00 -2.7106702643e+00 1.5650062068e+00 2.7106702643e+00 
103300 5.9061982633e+00 -3.1798677271e-04 1.5650164743e+00 -2.7106880481e+00 1.5650164743e+00 2.7106880481e+00 
103400 5.9062005539e+00 -3.1490673507e-04 1.5650266335e+00 -2.7107056444e+00 1.5650266335e+00 2.7107056444e+00 
103500 5.9062028005e+00 -3.1211411411e-04 1.5650366943e+00 -2.7107230702e+00 1.5650366943e+00 2.7107230702e+00 
103600 5.9062050039e+00 -3.0959090519e-04 1.5650466657e+00 -2.7107403413e+00 1.5650466657e+00 2.7107403413e+00 
103700 5.9062071651e+00 -3.0731968881e-04 1.5650565565e+00 -2.7107574726e+00 1.5650565565e+00 2.7107574726e+00 
103800 5.9062092849e+00 -3.0528362275e-04 1.5650663747e+00 -2.7107744782e+00 1.5650663747e+00 2.7107744782e+00 
103900 5.9062113641e+00 -3.0346643399e-04 1.5650761278e+00 -2.7107913710e+00 1.5650761278e+00 2.7107913710e+00 
104000 5.9062134036e+00 -3.0185241043e-04 1.5650858227e+00 -2.7108081632e+00 1.5650858227e+00 2.7108081632e+00 
104100 5.9062154042e+00 -3.0042639233e-04 1.5650954661e+00 -2.7108248659e+00 1.5650954661e+00 2.7108248659e+00 
104200 5.9062173666e+00 -2.9917376363e-04 1.5651050638e+00 -2.7108414896e+00 1.5651050638e+00 2.7108414896e+00 
104300 5.9062192916e+00 -2.9808044299e-04 1.5651146214e+00 -2.7108580439e+00 1.5651146214e+00 2.7108580439e+00 
104400 5.9062211799e+00 -2.9713287475e-04 1.5651241440e+00 -2.7108745376e+00 1.5651241440e+00 2.7108745376e+00 
104500 5.9062230322e+00 -2.9631801971e-04 1.5651336364e+00 -2.7108909788e+00 1.5651336364e+00 2.7108909788e+00 
104600 5.9062248492e+00 -2.9562334583e-04 1.5651431026e+00 -2.7109073748e+00 1.5651431026e+00 2.7109073748e+00 
104700 5.9062266315e+00 -2.9503681869e-04 1.5651525466e+00 -2.7109237323e+00 1.5651525466e+00 2.7109237323e+00 
104800 5.9062283799e+00 -2.9454689203e-04 1.5651619718e+00 -2.7109400572e+00 1.5651619718e+00 2.7109400572e+00 
104900 5.9062300948e+00 -2.9414249804e-04 1.5651713812e+00 -2.7109563549e+00 1.5651713812e+00 2.7109563549e+00 
105000 5.9062317769e+00 -2.9381303771e-04 1.5651807778e+00 -2.7109726301e+00 1.5651807778e+00 2.7109726301e+00 
105100 5.9062334268e+00 -2.9354837103e-04 1.5651901637e+00 -2.7109888870e+00 1.5651901637e+00 2.7109888870e+00 
105200 5.9062350451e+00 -2.9333880719e-04 1.5651995411e+00 -2.7110051291e+00 1.5651995411e+00 2.7110051291e+00 
105300 5.9062366324e+00 -2.9317509477e-04 1.5652089117e+00 -2.7110213596e+00 1.5652089117e+00 2.7110213596e+00 
105400 5.9062381891e+00 -2.9304841186e-04 1.5652182771e+00 -2.7110375809e+00 1.5652182771e+00 2.7110375809e+00 
105500 5.9062397158e+00 -2.9295035619e-04 1.5652276384e+00 -2.7110537951e+00 1.5652276384e+00 2.7110537951e+00 
105600 5.9062412130e+00 -2.9287293529e-04 1.5652369965e+00 -2.7110700038e+00 1.5652369965e+00 2.7110700038e+00 
105700 5.9062426812e+00 -2.9280855662e-04 1.5652463520e+00 -2.7110862081e+00 1.5652463520e+00 2.7110862081e+00 
105800 5.9062441209e+00 -2.9275001777e-04 1.5652557055e+00 -2.7111024087e+00 1.5652557055e+00 2.7111024087e+00 
105900 5.9062455326e+00 -2.9269049665e-04 1.5652650570e+00 -2.7111186060e+00 1.5652650570e+00 2.7111186060e+00 
106000 5.9062469167e+00 -2.9262354173e-04 1.5652744066e+00 -2.7111347999e+00 1.5652744066e+00 2.7111347999e+00 
106100 5.9062482738e+00 -2.9254306236e-04 1.5652837539e+00 -2.7111509901e+00 1.5652837539e+00 2.7111509901e+00 
106200 5.9062496041e+00 -2.9244331910e-04 1.5652930987e+00 -2.7111671756e+00 1.5652930987e+00 2.7111671756e+00 
106300 5.9062509083e+00 -2.9231891414e-04 1.5653024402e+00 -2.7111833556e+00 1.5653024402e+00 2.7111833556e+00 
106400 5.9062521867e+00 -2.9216478180e-04 1.5653117776e+00 -2.7111995285e+00 1.5653117776e+00 2.7111995285e+00 
106500 5.9062534398e+00 -2.9197617910e-04 1.5653211101e+00 -2.7112156929e+00 1.5653211101e+00 2.7112156929e+00 
106600 5.9062546679e+00 -2.9174867640e-04 1.5653304365e+00 -2.7112318467e+00 1.5653304365e+00 2.7112318467e+00 
106700 5.9062558715e+00 -2.9147814812e-04 1.5653397556e+00 -2.7112479878e+00 1.5653397556e+00 2.7112479878e+00 
106800 5.9062570510e+00 -2.9116076362e-04 1.5653490660e+00 -2.7112641139e+00 1.5653490660e+00 2.7112641139e+00 
106900 5.9062582068e+00 -2.9079297810e-04 1.5653583662e+00 -2.7112802223e+00 1.5653583662e+00 2.7112802223e+00 
107000 5.9062593392e+00 -2.9037152368e-04 1.5653676546e+00 -2.7112963103e+00 1.5653676546e+00 2.7112963103e+00 
107100 5.9062604487e+00 -2.8989340049e-04 1.5653769295e+00 -2.7113123748e+00 1.5653769295e+00 2.7113123748e+00 
107200 5.9062615356e+00 -2.8935586799e-04 1.5653861890e+00 -2.7113284128e+00 1.5653861890e+00 2.7113284128e+00 
107300 5.9062626004e+00 -2.8875643633e-04 1.5653954313e+00 -2.7113444210e+00 1.5653954313e+00 2.7113444210e+00 
107400 5.9062636434e+00 -2.8809285785e-04 1.5654046545e+00 -2.7113603959e+00 1.5654046545e+00 2.7113603959e+00 
107500 5.9062646649e+00 -2.8736311870e-04 1.5654138563e+00 -2.7113763340e+00 1.5654138563e+00 2.7113763340e+00 
107600 5.9062656653e+00 -2.8656543060e-04 1.5654230348e+00 -2.7113922317e+00 1.5654230348e+00 2.7113922317e+00 
107700 5.9062666451e+00 -2.8569822273e-04 1.5654321878e+00 -2.7114080851e+00 1.5654321878e+00 2.7114080851e+00 
107800 5.9062676045e+00 -2.8476013371e-04 1.5654413131e+00 -2.7114238905e+00 1.5654413131e+00 2.7114238905e+00 
107900 5.9062685439e+00 -2.8375000379e-04 1.5654504083e+00 -2.7114396438e+00 1.5654504083e+00 2.7114396438e+00 
108000 5.9062694636e+00 -2.8266686709e-04 1.5654594712e+00 -2.7114553412e+00 1.5654594712e+00 2.7114553412e+00 
108100 5.9062703641e+00 -2.8150994404e-04 1.5654684994e+00 -2.7114709786e+00 1.5654684994e+00 2.7114709786e+00 
108200 5.9062712456e+00 -2.8027863393e-04 1.5654774907e+00 -2.7114865519e+00 1.5654774907e+00 2.7114865519e+00 
108300 5.9062721085e+00 -2.7897250759e-04 1.5654864425e+00 -2.7115020570e+00 1.5654864425e+00 2.7115020570e+00 
108400 5.9062729532e+00 -2.7759130025e-04 1.5654953526e+00 -2.7115174897e+00 1.5654953526e+00 2.7115174897e+00 
108500 5.9062737799e+00 -2.7613490452e-04 1.5655042186e+00 -2.7115328460e+00 1.5655042186e+00 2.7115328460e+00 
108600 5.9062745891e+00 -2.7460336346e-04 1.5655130379e+00 -2.7115481216e+00 1.5655130379e+00 2.7115481216e+00 
108700 5.9062753810e+00 -2.7299686389e-04 1.5655218083e+00 -2.7115633124e+00 1.5655218083e+00 2.7115633124e+00 
108800 5.9062761559e+00 -2.7131572976e-04 1.5655305274e+00 -2.7115784142e+00 1.5655305274e+00 2.7115784142e+00 
108900 5.9062769142e+00 -2.6956041573e-04 1.5655391927e+00 -2.7115934229e+00 1.5655391927e+00 2.7115934229e+00 
109000 5.9062776563e+00 -2.6773150081e-04 1.5655478019e+00 -2.7116083345e+00 1.5655478019e+00 2.7116083345e+00 
109100 5.9062783824e+00 -2.6582968222e-04 1.5655563526e+00 -2.7116231448e+00 1.5655563526e+00 2.7116231448e+00 
109200 5.9062790928e+00 -2.6385576936e-04 1.5655648426e+00 -2.7116378498e+00 1.5655648426e+00 2.7116378498e+00 
109300 5.9062797879e+00 -2.6181067789e-04 1.5655732694e+00 -2.7116524456e+00 1.5655732694e+00 2.7116524456e+00 
109400 5.9062804680e+00 -2.5969542405e-04 1.5655816309e+00 -2.7116669282e+00 1.5655816309e+00 2.7116669282e+00 
109500 5.9062811334e+00 -2.5751111895e-04 1.5655899248e+00 -2.7116812936e+00 1.5655899248e+00 2.7116812936e+00 
109600 5.9062817843e+00 -2.5525896322e-04 1.5655981489e+00 -2.7116955382e+00 1.5655981489e+00 2.7116955382e+00 
109700 5.9062824211e+00 -2.5294024159e-04 1.5656063011e+00 -2.7117096581e+00 1.5656063011e+00 2.7117096581e+00 
109800 5.9062830441e+00 -2.5055631775e-04 1.5656143791e+00 -2.7117236496e+00 1.5656143791e+00 2.7117236496e+00 
109900 5.9062836536e+00 -2.4810862925e-04 1.5656223809e+00 -2.7117375093e+00 1.5656223809e+00 2.7117375093e+00 
110000 5.9062842498e+00 -2.4559868263e-04 1.5656303046e+00 -2.7117512334e+00 1.5656303046e+00 2.7117512334e+00 
110100 5.9062848330e+00 -2.4302804863e-04 1.5656381480e+00 -2.7117648187e+00 1.5656381480e+00 2.7117648187e+00 
110200 5.9062854036e+00 -2.4039835748e-04 1.5656459094e+00 -2.7117782617e+00 1.5656459094e+00 2.7117782617e+00 
110300 5.9062859618e+00 -2.3771129444e-04 1.5656535867e+00 -2.7117915591e+00 1.5656535867e+00 2.7117915591e+00 
110400 5.9062865079e+00 -2.3496859541e-04 1.5656611781e+00 -2.7118047079e+00 1.5656611781e+00 2.7118047079e+00 
110500 5.9062870421e+00 -2.3217204262e-04 1.5656686819e+00 -2.7118177049e+00 1.5656686819e+00 2.7118177049e+00 
110600 5.9062875648e+00 -2.2932346056e-04 1.5656760964e+00 -2.7118305472e+00 1.5656760964e+00 2.7118305472e+00 
110700 5.9062880761e+00 -2.2642471193e-04 1.5656834199e+00 -2.7118432318e+00 1.5656834199e+00 2.7118432318e+00 
110800 5.9062885764e+00 -2.2347769374e-04 1.5656906507e+00 -2.7118557560e+00 1.5656906507e+00 2.7118557560e+00 
110900 5.9062890658e+00 -2.2048433361e-04 1.5656977875e+00 -2.7118681172e+00 1.5656977875e+00 2.7118681172e+00 
111000 5.9062895447e+00 -2.1744658611e-04 1.5657048285e+00 -2.7118803127e+00 1.5657048285e+00 2.7118803127e+00 
111100 5.9062900133e+00 -2.1436642920e-04 1.5657117726e+00 -2.7118923402e+00 1.5657117726e+00 2.7118923402e+00 
111200 5.9062904718e+00 -2.1124586088e-04 1.5657186183e+00 -2.7119041972e+00 1.5657186183e+00 2.7119041972e+00 
111300 5.9062909204e+00 -2.0808689587e-04 1.5657253642e+00 -2.7119158816e+00 1.5657253642e+00 2.7119158816e+00 
111400 5.9062913595e+00 -2.0489156246e-04 1.5657320093e+00 -2.7119273912e+00 1.5657320093e+00 2.7119273912e+00 
111500 5.9062917892e+00 -2.0166189945e-04 1.5657385523e+00 -2.7119387240e+00 1.5657385523e+00 2.7119387240e+00 
111600 5.9062922097e+00 -1.9839995318e-04 1.5657449921e+00 -2.7119498781e+00 1.5657449921e+00 2.7119498781e+00 
111700 5.9062926213e+00 -1.9510777472e-04 1.5657513278e+00 -2.7119608517e+00 1.5657513278e+00 2.7119608517e+00 
111800 5.9062930241e+00 -1.9178741712e-04 1.5657575583e+00 -2.7119716433e+00 1.5657575583e+00 2.7119716433e+00 
111900 5.9062934185e+00 -1.8844093280e-04 1.5657636827e+00 -2.7119822511e+00 1.5657636827e+00 2.7119822511e+00 
112000 5.9062938046e+00 -1.8507037099e-04 1.5657697003e+00 -2.7119926738e+00 1.5657697003e+00 2.7119926738e+00 
112100 5.9062941825e+00 -1.8167777535e-04 1.5657756101e+00 -2.7120029100e+00 1.5657756101e+00 2.7120029100e+00 
112200 5.9062945526e+00 -1.7826518164e-04 1.5657814117e+00 -2.7120129586e+00 1.5657814117e+00 2.7120129586e+00 
112300 5.9062949149e+00 -1.7483461548e-04 1.5657871042e+00 -2.7120228183e+00 1.5657871042e+00 2.7120228183e+00 
112400 5.9062952697e+00 -1.7138809022e-04 1.5657926872e+00 -2.7120324883e+00 1.5657926872e+00 2.7120324883e+00 
112500 5.9062956171e+00 -1.6792760494e-04 1.5657981601e+00 -2.7120419676e+00 1.5657981601e+00 2.7120419676e+00 
112600 5.9062959574e+00 -1.6445514246e-04 1.5658035224e+00 -2.7120512555e+00 1.5658035224e+00 2.7120512555e+00 
112700 5.9062962907e+00 -1.6097266751e-04 1.5658087739e+00 -2.7120603513e+00 1.5658087739e+00 2.7120603513e+00 
112800 5.9062966172e+00 -1.5748212502e-04 1.5658139141e+00 -2.7120692545e+00 1.5658139141e+00 2.7120692545e+00 
112900 5.9062969371e+00 -1.5398543833e-04 1.5658189429e+00 -2.7120779646e+00 1.5658189429e+00 2.7120779646e+00 
113000 5.9062972504e+00 -1.5048450771e-04 1.5658238600e+00 -2.7120864812e+00 1.5658238600e+00 2.7120864812e+00 
113100 5.9062975574e+00 -1.4698120879e-04 1.5658286653e+00 -2.7120948042e+00 1.5658286653e+00 2.7120948042e+00 
113200 5.9062978583e+00 -1.4347739116e-04 1.5658333587e+00 -2.7121029334e+00 1.5658333587e+00 2.7121029334e+00 
113300 5.9062981531e+00 -1.3997487700e-04 1.5658379402e+00 -2.7121108688e+00 1.5658379402e+00 2.7121108688e+00 
113400 5.9062984420e+00 -1.3647545983e-04 1.5658424098e+00 -2.7121186105e+00 1.5658424098e+00 2.7121186105e+00 
113500 5.9062987252e+00 -1.3298090332e-04 1.5658467677e+00 -2.7121261586e+00 1.5658467677e+00 2.7121261586e+00 
113600 5.9062990028e+00 -1.2949294016e-04 1.5658510140e+00 -2.7121335134e+00 1.5658510140e+00 2.7121335134e+00 
113700 5.9062992749e+00 -1.2601327100e-04 1.5658551489e+00 -2.7121406752e+00 1.5658551489e+00 2.7121406752e+00 
113800 5.9062995416e+00 -1.2254356349e-04 1.5658591727e+00 -2.7121476446e+00 1.5658591727e+00 2.7121476446e+00 
113900 5.9062998032e+00 -1.1908545138e-04 1.5658630857e+00 -2.7121544221e+00 1.5658630857e+00 2.7121544221e+00 
114000 5.9063000597e+00 -1.1564053366e-04 1.5658668883e+00 -2.7121610083e+00 1.5658668883e+00 2.7121610083e+00 
114100 5.9063003112e+00 -1.1221037380e-04 1.5658705808e+00 -2.7121674040e+00 1.5658705808e+00 2.7121674040e+00 
114200 5.9063005578e+00 -1.0879649902e-04 1.5658741638e+00 -2.7121736100e+00 1.5658741638e+00 2.7121736100e+00 
114300 5.9063007997e+00 -1.0540039965e-04 1.5658776378e+00 -2.7121796271e+00 1.5658776378e+00 2.7121796271e+00 
114400 5.9063010370e+00 -1.0202352855e-04 1.5658810033e+00 -2.7121854564e+00 1.5658810033e+00 2.7121854564e+00 
114500 5.9063012698e+00 -9.8667300559e-05 1.5658842610e+00 -2.7121910989e+00 1.5658842610e+00 2.7121910989e+00 
114600 5.9063014981e+00 -9.5333092032e-05 1.5658874116e+00 -2.7121965558e+00 1.5658874116e+00 2.7121965558e+00 
114700 5.9063017221e+00 -9.2022240416e-05 1.5658904556e+00 -2.7122018282e+00 1.5658904556e+00 2.7122018282e+00 
114800 5.9063019419e+00 -8.8736043890e-05 1.5658933940e+00 -2.7122069176e+00 1.5658933940e+00 2.7122069176e+00 
114900 5.9063021576e+00 -8.5475761044e-05 1.5658962274e+00 -2.7122118252e+00 1.5658962274e+00 2.7122118252e+00 
115000 5.9063023692e+00 -8.2242610626e-05 1.5658989567e+00 -2.7122165524e+00 1.5658989567e+00 2.7122165524e+00 
115100 5.9063025769e+00 -7.9037771315e-05 1.5659015827e+00 -2.7122211009e+00 1.5659015827e+00 2.7122211009e+00 
115200 5.9063027807e+00 -7.5862381563e-05 1.5659041064e+00 -2.7122254721e+00 1.5659041064e+00 2.7122254721e+00 
115300 5.9063029808e+00 -7.2717539472e-05 1.5659065287e+00 -2.7122296677e+00 1.5659065287e+00 2.7122296677e+00 
115400 5.9063031771e+00 -6.9604302721e-05 1.5659088506e+00 -2.7122336893e+00 1.5659088506e+00 2.7122336893e+00 
115500 5.9063033701e+00 -6.9239494379e-05 1.5659088506e+00 -2.7122336893e+00 1.5659088506e+00 2.7122336893e+00 
115600 5.9063035594e+00 -6.8804087489e-05 1.5659088506e+00 -2.7122336893e+00 1.5659088506e+00 2.7122336893e+00 
115700 5.9063037453e+00 -6.8299717121e-05 1.5659088506e+00 -2.7122336893e+00 1.5659088506e+00 2.7122336893e+00 
115800 5.9063039278e+00 -6.7727997038e-05 1.5659088506e+00 -2.7122336893e+00 1.5659088506e+00 2.7122336893e+00 
115900 5.9063041069e+00 -6.7090520277e-05 1.5659088506e+00 -2.7122336893e+00 1.5659088506e+00 2.7122336893e+00 
116000 5.9063042827e+00 -6.6388859698e-05 1.5659088506e+00 -2.7122336893e+00 1.5659088506e+00 2.7122336893e+00 
116100 5.9063044554e+00 -6.5624568497e-05 1.5659088506e+00 -2.7122336893e+00 1.5659088506e+00 2.7122336893e+00 
116200 5.9063046249e+00 -6.4799180706e-05 1.5659088506e+00 -2.7122336893e+00 1.5659088506e+00 2.7122336893e+00 
116300 5.9063047913e+00 -6.3914211650e-05 1.5659088506e+00 -2.7122336893e+00 1.5659088506e+00 2.7122336893e+00 
116400 5.9063049546e+00 -6.2971158384e-05 1.5659088506e+00 -2.7122336893e+00 1.5659088506e+00 2.7122336893e+00 
116500 5.9063051151e+00 -6.1971500106e-05 1.5659088506e+00 -2.7122336893e+00 1.5659088506e+00 2.7122336893e+00 
116600 5.9063052726e+00 -6.0916698538e-05 1.5659088506e+00 -2.7122336893e+00 1.5659088506e+00 2.7122336893e+00 
116700 5.9063054273e+00 -5.9808198286e-05 1.5659088506e+00 -2.7122336893e+00 1.5659088506e+00 2.7122336893e+00 
116800 5.9063055791e+00 -5.8647427174e-05 1.5659088506e+00 -2.7122336893e+00 1.5659088506e+00 2.7122336893e+00 
116900 5.9063057283e+00 -5.7435796558e-05 1.5659088506e+00 -2.7122336893e+00 1.5659088506e+00 2.7122336893e+00 
117000 5.9063058748e+00 -5.6174701611e-05 1.5659088506e+00 -2.7122336893e+00 1.5659088506e+00 2.7122336893e+00 
117100 5.9063060186e+00 -5.4865521595e-05 1.5659088506e+00 -2.7122336893e+00 1.5659088506e+00 2.7122336893e+00 
117200 5.9063061598e+00 -5.3509620097e-05 1.5659088506e+00 -2.7122336893e+00 1.5659088506e+00 2.7122336893e+00 
117300 5.9063062985e+00 -5.2108345268e-05 1.5659088506e+00 -2.7122336893e+00 1.5659088506e+00 2.7122336893e+00 
117400 5.9063064347e+00 -5.0663030018e-05 1.5659088506e+00 -2.7122336893e+00 1.5659088506e+00 2.7122336893e+00 
117500 5.9063065685e+00 -4.9174992203e-05 1.5659088506e+00 -2.7122336893e+00 1.5659088506e+00 2.7122336893e+00 
117600 5.9063066999e+00 -4.7645534797e-05 1.5659088506e+00 -2.7122336893e+00 1.5659088506e+00 2.7122336893e+00 
117700 5.9063068289e+00 -4.6075946046e-05 1.5659088506e+00 -2.7122336893e+00 1.5659088506e+00 2.7122336893e+00 
117800 5.9063069556e+00 -4.4467499592e-05 1.5659088506e+00 -2.7122336893e+00 1.5659088506e+00 2.7122336893e+00 
117900 5.9063070800e+00 -4.2821454604e-05 1.5659088506e+00 -2.7122336893e+00 1.5659088506e+00 2.7122336893e+00 
118000 5.9063072022e+00 -4.1139055874e-05 1.5659088506e+00 -2.7122336893e+00 1.5659088506e+00 2.7122336893e+00 
118100 5.9063073223e+00 -3.9421533909e-05 1.5659088506e+00 -2.7122336893e+00 1.5659088506e+00 2.7122336893e+00 
118200 5.9063074402e+00 -3.7670105006e-05 1.5659088506e+00 -2.7122336893e+00 1.5659088506e+00 2.7122336893e+00 
118300 5.9063075559e+00 -3.5885971319e-05 1.5659088506e+00 -2.7122336893e+00 1.5659088506e+00 2.7122336893e+00 
118400 5.9063076696e+00 -3.4070320906e-05 1.5659088506e+00 -2.7122336893e+00 1.5659088506e+00 2.7122336893e+00 
118500 5.9063077813e+00 -3.2224327769e-05 1.5659088506e+00 -2.7122336893e+00 1.5659088506e+00 2.7122336893e+00 
118600 5.9063078909e+00 -3.0349151888e-05 1.5659088506e+00 -2.7122336893e+00 1.5659088506e+00 2.7122336893e+00 
118700 5.9063079986e+00 -2.8445939235e-05 1.5659088506e+00 -2.7122336893e+00 1.5659088506e+00 2.7122336893e+00 
118800 5.9063081044e+00 -2.6515821788e-05 1.5659088506e+00 -2.7122336893e+00 1.5659088506e+00 2.7122336893e+00 
118900 5.9063082083e+00 -2.4559917532e-05 1.5659088506e+00 -2.7122336893e+00 1.5659088506e+00 2.7122336893e+00 
119000 5.9063083103e+00 -2.2579330451e-05 1.5659088506e+00 -2.7122336893e+00 1.5659088506e+00 2.7122336893e+00 
119100 5.9063084105e+00 -2.0575150519e-05 1.5659088506e+00 -2.7122336893e+00 1.5659088506e+00 2.7122336893e+00 
119200 5.9063085089e+00 -1.8548453674e-05 1.5659088506e+00 -2.7122336893e+00 1.5659088506e+00 2.7122336893e+00 
119300 5.9063086055e+00 -1.6500301805e-05 1.5659088506e+00 -2.7122336893e+00 1.5659088506e+00 2.7122336893e+00 
119400 5.9063087005e+00 -1.4431742704e-05 1.5659088506e+00 -2.7122336893e+00 1.5659088506e+00 2.7122336893e+00 
119500 5.9063087937e+00 -1.2343810046e-05 1.5659088506e+00 -2.7122336893e+00 1.5659088506e+00 2.7122336893e+00 
119600 5.9063088852e+00 -1.0237523338e-05 1.5659088506e+00 -2.7122336893e+00 1.5659088506e+00 2.7122336893e+00 
119700 5.9063089751e+00 -8.1138878859e-06 1.5659088506e+00 -2.7122336893e+00 1.5659088506e+00 2.7122336893e+00 
119800 5.9063090634e+00 -5.9738947430e-06 1.5659088506e+00 -2.7122336893e+00 1.5659088506e+00 2.7122336893e+00 
119900 5.9063091501e+00 -3.8185206585e-06 1.5659088506e+00 -2.7122336893e+00 1.5659088506e+00 2.7122336893e+00 
120000 5.9063092352e+00 -1.6487280362e-06 1.5659088506e+00 -2.7122336893e+00 1.5659088506e+00 2.7122336893e+00 
120100 5.9063093188e+00 5.3453512456e-07 1.5659088506e+00 -2.7122336893e+00 1.5659088506e+00 2.7122336893e+00 
120200 5.9063094009e+00 2.7303352777e-06 1.5659088506e+00 -2.7122336893e+00 1.5659088506e+00 2.7122336893e+00 
120300 5.9063094815e+00 4.9377533815e-06 1.5659088506e+00 -2.7122336893e+00 1.5659088506e+00 2.7122336893e+00 
120400 5.9063095607e+00 7.1558849617e-06 1.5659088506e+00 -2.7122336893e+00 1.5659088506e+00 2.7122336893e+00 
120500 5.9063096385e+00 9.3838401526e-06 1.5659088506e+00 -2.7122336893e+00 1.5659088506e+00 2.7122336893e+00 
120600 5.9063097148e+00 1.1620743749e-05 1.5659088506e+00 -2.7122336893e+00 1.5659088506e+00 2.7122336893e+00 
120700 5.9063097898e+00 1.3865735268e-05 1.5659088506e+00 -2.7122336893e+00 1.5659088506e+00 2.7122336893e+00 
120800 5.9063098635e+00 1.6117968984e-05 1.5659088506e+00 -2.7122336893e+00 1.5659088506e+00 2.7122336893e+00 
120900 5.9063099358e+00 1.8376613985e-05 1.5659088506e+00 -2.7122336893e+00 1.5659088506e+00 2.7122336893e+00 
121000 5.9063100068e+00 2.0640854212e-05 1.5659088506e+00 -2.7122336893e+00 1.5659088506e+00 2.7122336893e+00 
121100 5.9063100765e+00 2.2909888501e-05 1.5659088506e+00 -2.7122336893e+00 1.5659088506e+00 2.7122336893e+00 
121200 5.9063101450e+00 2.5182930626e-05 1.5659088506e+00 -2.7122336893e+00 1.5659088506e+00 2.7122336893e+00 
121300 5.9063102122e+00 2.7459209329e-05 1.5659088506e+00 -2.7122336893e+00 1.5659088506e+00 2.7122336893e+00 
121400 5.9063102783e+00 2.9737968354e-05 1.5659088506e+00 -2.7122336893e+00 1.5659088506e+00 2.7122336893e+00 
121500 5.9063103431e+00 3.2018466476e-05 1.5659088506e+00 -2.7122336893e+00 1.5659088506e+00 2.7122336893e+00 
121600 5.9063104068e+00 3.4299977523e-05 1.5659088506e+00 -2.7122336893e+00 1.5659088506e+00 2.7122336893e+00 
121700 5.9063104693e+00 3.6581790398e-05 1.5659088506e+00 -2.7122336893e+00 1.5659088506e+00 2.7122336893e+00 
121800 5.9063105308e+00 3.8863209093e-05 1.5659088506e+00 -2.7122336893e+00 1.5659088506e+00 2.7122336893e+00 
121900 5.9063105911e+00 4.1143552696e-05 1.5659088506e+00 -2.7122336893e+00 1.5659088506e+00 2.7122336893e+00 
122000 5.9063106503e+00 4.3422155405e-05 1.5659088506e+00 -2.7122336893e+00 1.5659088506e+00 2.7122336893e+00 
122100 5.9063107084e+00 4.5698366520e-05 1.5659088506e+00 -2.7122336893e+00 1.5659088506e+00 2.7122336893e+00 
122200 5.9063107655e+00 4.7971550443e-05 1.5659088506e+00 -2.7122336893e+00 1.5659088506e+00 2.7122336893e+00 
122300 5.9063108216e+00 5.0241086667e-05 1.5659088506e+00 -2.7122336893e+00 1.5659088506e+00 2.7122336893e+00 
122400 5.9063108767e+00 5.2506369760e-05 1.5659088506e+00 -2.7122336893e+00 1.5659088506e+00 2.7122336893e+00 
122500 5.9063109308e+00 5.4766809345e-05 1.5659088506e+00 -2.7122336893e+00 1.5659088506e+00 2.7122336893e+00 
122600 5.9063109839e+00 5.7021830073e-05 1.5659088506e+00 -2.7122336893e+00 1.5659088506e+00 2.7122336893e+00 
122700 5.9063110361e+00 5.9270871592e-05 1.5659088506e+00 -2.7122336893e+00 1.5659088506e+00 2.7122336893e+00 
122800 5.9063110873e+00 6.1513388508e-05 1.5659088506e+00 -2.7122336893e+00 1.5659088506e+00 2.7122336893e+00 
122900 5.9063111376e+00 6.3748850340e-05 1.5659088506e+00 -2.7122336893e+00 1.5659088506e+00 2.7122336893e+00 
123000 5.9063111870e+00 6.5976741473e-05 1.5659088506e+00 -2.7122336893e+00 1.5659088506e+00 2.7122336893e+00 
123100 5.9063112355e+00 6.8196561098e-05 1.5659088506e+00 -2.7122336893e+00 1.5659088506e+00 2.7122336893e+00 
123200 5.9063112831e+00 7.0407823159e-05 1.5659088506e+00 -2.7122336893e+00 1.5659088506e+00 2.7122336893e+00 
123300 5.9063113299e+00 7.2610056278e-05 1.5659088506e+00 -2.7122336893e+00 1.5659088506e+00 2.7122336893e+00 
123400 5.9063113757e+00 7.1970743118e-05 1.5659065322e+00 -2.7122296736e+00 1.5659065322e+00 2.7122296736e+00 
123500 5.9063114206e+00 7.1329638507e-05 1.5659042341e+00 -2.7122256933e+00 1.5659042341e+00 2.7122256933e+00 
123600 5.9063114647e+00 7.0686440263e-05 1.5659019565e+00 -2.7122217484e+00 1.5659019565e+00 2.7122217484e+00 
123700 5.9063115082e+00 7.2797947020e-05 1.5659019565e+00 -2.7122217484e+00 1.5659019565e+00 2.7122217484e+00 
123800 5.9063115506e+00 7.2058671997e-05 1.5658996321e+00 -2.7122177223e+00 1.5658996321e+00 2.7122177223e+00 
123900 5.9063115924e+00 7.1319685619e-05 1.5658973312e+00 -2.7122137371e+00 1.5658973312e+00 2.7122137371e+00 
124000 5.9063116333e+00 7.0580743411e-05 1.5658950539e+00 -2.7122097927e+00 1.5658950539e+00 2.7122097927e+00 
124100 5.9063116738e+00 7.2594588151e-05 1.5658950539e+00 -2.7122097927e+00 1.5658950539e+00 2.7122097927e+00 
124200 5.9063117133e+00 7.1764132466e-05 1.5658927359e+00 -2.7122057778e+00 1.5658927359e+00 2.7122057778e+00 
124300 5.9063117521e+00 7.0936239773e-05 1.5658904444e+00 -2.7122018089e+00 1.5658904444e+00 2.7122018089e+00 
124400 5.9063117902e+00 7.0110702849e-05 1.5658881794e+00 -2.7121978857e+00 1.5658881794e+00 2.7121978857e+00 
124500 5.9063118278e+00 7.2021978283e-05 1.5658881794e+00 -2.7121978857e+00 1.5658881794e+00 2.7121978857e+00 
124600 5.9063118645e+00 7.1110250058e-05 1.5658858797e+00 -2.7121939025e+00 1.5658858797e+00 2.7121939025e+00 
124700 5.9063119006e+00 7.0203460455e-05 1.5658836091e+00 -2.7121899697e+00 1.5658836091e+00 2.7121899697e+00 
124800 5.9063119362e+00 7.2039673883e-05 1.5658836091e+00 -2.7121899697e+00 1.5658836091e+00 2.7121899697e+00 
124900 5.9063119710e+00 7.1051682032e-05 1.5658813088e+00 -2.7121859855e+00 1.5658813088e+00 2.7121859855e+00 
125000 5.9063120051e+00 7.0071155638e-05 1.5658790401e+00 -2.7121820559e+00 1.5658790401e+00 2.7121820559e+00 
125100 5.9063120388e+00 7.1830984372e-05 1.5658790401e+00 -2.7121820559e+00 1.5658790401e+00 2.7121820559e+00 
125200 5.9063120718e+00 7.0774410067e-05 1.5658767464e+00 -2.7121780832e+00 1.5658767464e+00 2.7121780832e+00 
125300 5.9063121041e+00 6.9727749919e-05 1.5658744865e+00 -2.7121741689e+00 1.5658744865e+00 2.7121741689e+00 
125400 5.9063121361e+00 7.1410481526e-05 1.5658744865e+00 -2.7121741689e+00 1.5658744865e+00 2.7121741689e+00 
125500 5.9063121673e+00 7.0293033417e-05 1.5658722063e+00 -2.7121702195e+00 1.5658722063e+00 2.7121702195e+00 
125600 5.9063121981e+00 7.1929615528e-05 1.5658722063e+00 -2.7121702195e+00 1.5658722063e+00 2.7121702195e+00 
125700 5.9063122282e+00 7.0745764806e-05 1.5658699095e+00 -2.7121662413e+00 1.5658699095e+00 2.7121662413e+00 
125800 5.9063122578e+00 6.9576670183e-05 1.5658676505e+00 -2.7121623286e+00 1.5658676505e+00 2.7121623286e+00 
125900 5.9063122870e+00 7.1135838665e-05 1.5658676505e+00 -2.7121623286e+00 1.5658676505e+00 2.7121623286e+00 
126000 5.9063123155e+00 6.9905568841e-05 1.5658653791e+00 -2.7121583944e+00 1.5658653791e+00 2.7121583944e+00 
126100 5.9063123438e+00 7.1418797279e-05 1.5658653791e+00 -2.7121583944e+00 1.5658653791e+00 2.7121583944e+00 
126200 5.9063123713e+00 7.0131676425e-05 1.5658630986e+00 -2.7121544445e+00 1.5658630986e+00 2.7121544445e+00 
126300 5.9063123985e+00 7.1599173845e-05 1.5658630986e+00 -2.7121544445e+00 1.5658630986e+00 2.7121544445e+00 
126400 5.9063124250e+00 7.0259448832e-05 1.5658608123e+00 -2.7121504846e+00 1.5658608123e+00 2.7121504846e+00 
126500 5.9063124513e+00 7.1681520351e-05 1.5658608123e+00 -2.7121504846e+00 1.5658608123e+00 2.7121504846e+00 
126600 5.9063124769e+00 7.0293354274e-05 1.5658585235e+00 -2.7121465201e+00 1.5658585235e+00 2.7121465201e+00 
126700 5.9063125023e+00 7.1670395345e-05 1.5658585235e+00 -2.7121465201e+00 1.5658585235e+00 2.7121465201e+00 
126800 5.9063125270e+00 7.0237861492e-05 1.5658562349e+00 -2.7121425562e+00 1.5658562349e+00 2.7121425562e+00 
126900 5.9063125515e+00 7.1570352134e-05 1.5658562349e+00 -2.7121425562e+00 1.5658562349e+00 2.7121425562e+00 
127000 5.9063125754e+00 7.0097428460e-05 1.5658539496e+00 -2.7121385979e+00 1.5658539496e+00 2.7121385979e+00 
127100 5.9063125990e+00 7.1385927535e-05 1.5658539496e+00 -2.7121385979e+00 1.5658539496e+00 2.7121385979e+00 
127200 5.9063126220e+00 6.9876491566e-05 1.5658516701e+00 -2.7121346498e+00 1.5658516701e+00 2.7121346498e+00 
127300 5.9063126448e+00 7.1121631076e-05 1.5658516701e+00 -2.7121346498e+00 1.5658516701e+00 2.7121346498e+00 
127400 5.9063126671e+00 6.9579455312e-05 1.5658493991e+00 -2.7121307162e+00 1.5658493991e+00 2.7121307162e+00 
127500 5.9063126891e+00 7.0781934767e-05 1.5658493991e+00 -2.7121307162e+00 1.5658493991e+00 2.7121307162e+00 
127600 5.9063127105e+00 6.9210682529e-05 1.5658471389e+00 -2.7121268015e+00 1.5658471389e+00 2.7121268015e+00 
127700 5.9063127318e+00 7.0371263378e-05 1.5658471389e+00 -2.7121268015e+00 1.5658471389e+00 2.7121268015e+00 
127800 5.9063127527e+00 7.1519327810e-05 1.5658471389e+00 -2.7121268015e+00 1.5658471389e+00 2.7121268015e+00 
127900 5.9063127731e+00 6.9865492337e-05 1.5658448552e+00 -2.7121228460e+00 1.5658448552e+00 2.7121228460e+00 
128000 5.9063127933e+00 7.0972673812e-05 1.5658448552e+00 -2.7121228460e+00 1.5658448552e+00 2.7121228460e+00 
128100 5.9063128129e+00 6.9299635895e-05 1.5658425889e+00 -2.7121189207e+00 1.5658425889e+00 2.7121189207e+00 
128200 5.9063128324e+00 7.0366791808e-05 1.5658425889e+00 -2.7121189207e+00 1.5658425889e+00 2.7121189207e+00 
128300 5.9063128516e+00 7.1422406423e-05 1.5658425889e+00 -2.7121189207e+00 1.5658425889e+00 2.7121189207e+00 
128400 5.9063128702e+00 6.9680885088e-05 1.5658403083e+00 -2.7121149705e+00 1.5658403083e+00 2.7121149705e+00 
128500 5.9063128887e+00 7.0697617552e-05 1.5658403083e+00 -2.7121149705e+00 1.5658403083e+00 2.7121149705e+00 
128600 5.9063129069e+00 7.1703432346e-05 1.5658403083e+00 -2.7121149705e+00 1.5658403083e+00 2.7121149705e+00 
128700 5.9063129246e+00 6.9901774511e-05 1.5658380187e+00 -2.7121110048e+00 1.5658380187e+00 2.7121110048e+00 
128800 5.9063129422e+00 7.0869888406e-05 1.5658380187e+00 -2.7121110048e+00 1.5658380187e+00 2.7121110048e+00 
128900 5.9063129592e+00 6.9063416199e-05 1.5658357557e+00 -2.7121070851e+00 1.5658357557e+00 2.7121070851e+00 
129000 5.9063129762e+00 6.9994783441e-05 1.5658357557e+00 -2.7121070851e+00 1.5658357557e+00 2.7121070851e+00 
129100 5.9063129929e+00 7.0916246694e-05 1.5658357557e+00 -2.7121070851e+00 1.5658357557e+00 2.7121070851e+00 
129200 5.9063130091e+00 6.9061957667e-05 1.5658334912e+00 -2.7121031629e+00 1.5658334912e+00 2.7121031629e+00 
129300 5.9063130252e+00 6.9947942541e-05 1.5658334912e+00 -2.7121031629e+00 1.5658334912e+00 2.7121031629e+00 
129400 5.9063130411e+00 7.0824658901e-05 1.5658334912e+00 -2.7121031629e+00 1.5658334912e+00 2.7121031629e+00 
129500 5.9063130565e+00 6.8929828590e-05 1.5658312296e+00 -2.7120992458e+00 1.5658312296e+00 2.7120992458e+00 
129600 5.9063130718e+00 6.9772349003e-05 1.5658312296e+00 -2.7120992458e+00 1.5658312296e+00 2.7120992458e+00 
129700 5.9063130868e+00 7.0606226769e-05 1.5658312296e+00 -2.7120992458e+00 1.5658312296e+00 2.7120992458e+00 
129800 5.9063131016e+00 7.1431704705e-05 1.5658312296e+00 -2.7120992458e+00 1.5658312296e+00 2.7120992458e+00 
129900 5.9063131160e+00 6.9462819237e-05 1.5658289487e+00 -2.7120952951e+00 1.5658289487e+00 2.7120952951e+00 
130000 5.9063131303e+00 7.0255660895e-05 1.5658289487e+00 -2.7120952951e+00 1.5658289487e+00 2.7120952951e+00 
130100 5.9063131443e+00 7.1040691256e-05 1.5658289487e+00 -2.7120952951e+00 1.5658289487e+00 2.7120952951e+00 
130200 5.9063131579e+00 6.9047195056e-05 1.5658266802e+00 -2.7120913660e+00 1.5658266802e+00 2.7120913660e+00 
130300 5.9063131715e+00 6.9800846228e-05 1.5658266802e+00 -2.7120913660e+00 1.5658266802e+00 2.7120913660e+00 
130400 5.9063131849e+00 7.0547264652e-05 1.5658266802e+00 -2.7120913660e+00 1.5658266802e+00 2.7120913660e+00 
130500 5.9063131980e+00 7.1286677255e-05 1.5658266802e+00 -2.7120913660e+00 1.5658266802e+00 2.7120913660e+00 
130600 5.9063132107e+00 6.9238765323e-05 1.5658244039e+00 -2.7120874233e+00 1.5658244039e+00 2.7120874233e+00 
130700 5.9063132234e+00 6.9948314393e-05 1.5658244039e+00 -2.7120874233e+00 1.5658244039e+00 2.7120874233e+00 
130800 5.9063132359e+00 7.0651398172e-05 1.5658244039e+00 -2.7120874233e+00 1.5658244039e+00 2.7120874233e+00 
130900 5.9063132481e+00 7.1348231236e-05 1.5658244039e+00 -2.7120874233e+00 1.5658244039e+00 2.7120874233e+00 
131000 5.9063132600e+00 6.9256085089e-05 1.5658221256e+00 -2.7120834771e+00 1.5658221256e+00 2.7120834771e+00 
131100 5.9063132718e+00 6.9924513453e-05 1.5658221256e+00 -2.7120834771e+00 1.5658221256e+00 2.7120834771e+00 
131200 5.9063132835e+00 7.0587195059e-05 1.5658221256e+00 -2.7120834771e+00 1.5658221256e+00 2.7120834771e+00 
131300 5.9063132949e+00 7.1244332492e-05 1.5658221256e+00 -2.7120834771e+00 1.5658221256e+00 2.7120834771e+00 
131400 5.9063133060e+00 6.9117240828e-05 1.5658198506e+00 -2.7120795367e+00 1.5658198506e+00 2.7120795367e+00 
131500 5.9063133171e+00 6.9747374683e-05 1.5658198506e+00 -2.7120795367e+00 1.5658198506e+00 2.7120795367e+00 
131600 5.9063133280e+00 7.0372433070e-05 1.5658198506e+00 -2.7120795367e+00 1.5658198506e+00 2.7120795367e+00 
131700 5.9063133387e+00 7.0992606916e-05 1.5658198506e+00 -2.7120795367e+00 1.5658198506e+00 2.7120795367e+00 
131800 5.9063133490e+00 6.8839020702e-05 1.5658175837e+00 -2.7120756103e+00 1.5658175837e+00 2.7120756103e+00 
131900 5.9063133593e+00 6.9433533531e-05 1.5658175837e+00 -2.7120756103e+00 1.5658175837e+00 2.7120756103e+00 
132000 5.9063133695e+00 7.0023596491e-05 1.5658175837e+00 -2.7120756103e+00 1.5658175837e+00 2.7120756103e+00 
132100 5.9063133795e+00 7.0609389171e-05 1.5658175837e+00 -2.7120756103e+00 1.5658175837e+00 2.7120756103e+00 
132200 5.9063133894e+00 7.1191082826e-05 1.5658175837e+00 -2.7120756103e+00 1.5658175837e+00 2.7120756103e+00 
132300 5.9063133989e+00 6.8992046507e-05 1.5658153104e+00 -2.7120716728e+00 1.5658153104e+00 2.7120716728e+00 
132400 5.9063134084e+00 6.9549546126e-05 1.5658153104e+00 -2.7120716728e+00 1.5658153104e+00 2.7120716728e+00 
132500 5.9063134177e+00 7.0103324249e-05 1.5658153104e+00 -2.7120716728e+00 1.5658153104e+00 2.7120716728e+00 
132600 5.9063134269e+00 7.0653542220e-05 1.5658153104e+00 -2.7120716728e+00 1.5658153104e+00 2.7120716728e+00 
132700 5.9063134360e+00 7.1200353385e-05 1.5658153104e+00 -2.7120716728e+00 1.5658153104e+00 2.7120716728e+00 
132800 5.9063134447e+00 6.8966752192e-05 1.5658130368e+00 -2.7120677349e+00 1.5658130368e+00 2.7120677349e+00 
132900 5.9063134534e+00 6.9490698728e-05 1.5658130368e+00 -2.7120677349e+00 1.5658130368e+00 2.7120677349e+00 
133000 5.9063134620e+00 7.0011564253e-05 1.5658130368e+00 -2.7120677349e+00 1.5658130368e+00 2.7120677349e+00 
133100 5.9063134705e+00 7.0529493501e-05 1.5658130368e+00 -2.7120677349e+00 1.5658130368e+00 2.7120677349e+00 
133200 5.9063134788e+00 7.1044623526e-05 1.5658130368e+00 -2.7120677349e+00 1.5658130368e+00 2.7120677349e+00 
133300 5.9063134868e+00 6.8786010777e-05 1.5658107682e+00 -2.7120638055e+00 1.5658107682e+00 2.7120638055e+00 
133400 5.9063134949e+00 6.9279479336e-05 1.5658107682e+00 -2.7120638055e+00 1.5658107682e+00 2.7120638055e+00 
133500 5.9063135028e+00 6.9770427707e-05 1.5658107682e+00 -2.7120638055e+00 1.5658107682e+00 2.7120638055e+00 
133600 5.9063135106e+00 7.0258985524e-05 1.5658107682e+00 -2.7120638055e+00 1.5658107682e+00 2.7120638055e+00 
133700 5.9063135182e+00 7.0745275045e-05 1.5658107682e+00 -2.7120638055e+00 1.5658107682e+00 2.7120638055e+00 
133800 5.9063135256e+00 6.8470017228e-05 1.5658085091e+00 -2.7120598927e+00 1.5658085091e+00 2.7120598927e+00 
133900 5.9063135330e+00 6.8935732819e-05 1.5658085091e+00 -2.7120598927e+00 1.5658085091e+00 2.7120598927e+00 
134000 5.9063135402e+00 6.9399416956e-05 1.5658085091e+00 -2.7120598927e+00 1.5658085091e+00 2.7120598927e+00 
134100 5.9063135474e+00 6.9861185565e-05 1.5658085091e+00 -2.7120598927e+00 1.5658085091e+00 2.7120598927e+00 
134200 5.9063135545e+00 7.0321147487e-05 1.5658085091e+00 -2.7120598927e+00 1.5658085091e+00 2.7120598927e+00 
134300 5.9063135614e+00 7.0779404705e-05 1.5658085091e+00 -2.7120598927e+00 1.5658085091e+00 2.7120598927e+00 
134400 5.9063135680e+00 6.8475332249e-05 1.5658062489e+00 -2.7120559780e+00 1.5658062489e+00 2.7120559780e+00 
134500 5.9063135747e+00 6.8914075538e-05 1.5658062489e+00 -2.7120559780e+00 1.5658062489e+00 2.7120559780e+00 
134600 5.9063135813e+00 6.9351293186e-05 1.5658062489e+00 -2.7120559780e+00 1.5658062489e+00 2.7120559780e+00 
134700 5.9063135878e+00 6.9787082857e-05 1.5658062489e+00 -2.7120559780e+00 1.5658062489e+00 2.7120559780e+00 
134800 5.9063135942e+00 7.0221535610e-05 1.5658062489e+00 -2.7120559780e+00 1.5658062489e+00 2.7120559780e+00 
134900 5.9063136005e+00 7.0654736122e-05 1.5658062489e+00 -2.7120559780e+00 1.5658062489e+00 2.7120559780e+00 
135000 5.9063136067e+00 7.1086762907e-05 1.5658062489e+00 -2.7120559780e+00 1.5658062489e+00 2.7120559780e+00 
135100 5.9063136126e+00 6.8744986317e-05 1.5658039790e+00 -2.7120520463e+00 1.5658039790e+00 2.7120520463e+00 
135200 5.9063136185e+00 6.9158421727e-05 1.5658039790e+00 -2.7120520463e+00 1.5658039790e+00 2.7120520463e+00 
135300 5.9063136244e+00 6.9570795787e-05 1.5658039790e+00 -2.7120520463e+00 1.5658039790e+00 2.7120520463e+00 
135400 5.9063136302e+00 6.9982185440e-05 1.5658039790e+00 -2.7120520463e+00 1.5658039790e+00 2.7120520463e+00 
135500 5.9063136359e+00 7.0392661658e-05 1.5658039790e+00 -2.7120520463e+00 1.5658039790e+00 2.7120520463e+00 
135600 5.9063136415e+00 7.0802289661e-05 1.5658039790e+00 -2.7120520463e+00 1.5658039790e+00 2.7120520463e+00 
135700 5.9063136468e+00 6.8449525217e-05 1.5658017181e+00 -2.7120481303e+00 1.5658017181e+00 2.7120481303e+00 
135800 5.9063136522e+00 6.8841239968e-05 1.5658017181e+00 -2.7120481303e+00 1.5658017181e+00 2.7120481303e+00 
135900 5.9063136576e+00 6.9232181729e-05 1.5658017181e+00 -2.7120481303e+00 1.5658017181e+00 2.7120481303e+00 
136000 5.9063136628e+00 6.9622415603e-05 1.5658017181e+00 -2.7120481303e+00 1.5658017181e+00 2.7120481303e+00 
136100 5.9063136680e+00 7.0012001093e-05 1.5658017181e+00 -2.7120481303e+00 1.5658017181e+00 2.7120481303e+00 
136200 5.9063136731e+00 7.0400992314e-05 1.5658017181e+00 -2.7120481303e+00 1.5658017181e+00 2.7120481303e+00 
136300 5.9063136781e+00 7.0789438177e-05 1.5658017181e+00 -2.7120481303e+00 1.5658017181e+00 2.7120481303e+00 
136400 5.9063136828e+00 6.8416283780e-05 1.5657994576e+00 -2.7120442150e+00 1.5657994576e+00 2.7120442150e+00 
136500 5.9063136877e+00 6.8787377909e-05 1.5657994576e+00 -2.7120442150e+00 1.5657994576e+00 2.7120442150e+00 
136600 5.9063136924e+00 6.9157956350e-05 1.5657994576e+00 -2.7120442150e+00 1.5657994576e+00 2.7120442150e+00 
136700 5.9063136971e+00 6.9528070051e-05 1.5657994576e+00 -2.7120442150e+00 1.5657994576e+00 2.7120442150e+00 
136800 5.9063137017e+00 6.9897764875e-05 1.5657994576e+00 -2.7120442150e+00 1.5657994576e+00 2.7120442150e+00 
136900 5.9063137063e+00 7.0267081789e-05 1.5657994576e+00 -2.7120442150e+00 1.5657994576e+00 2.7120442150e+00 
137000 5.9063137108e+00 7.0636057056e-05 1.5657994576e+00 -2.7120442150e+00 1.5657994576e+00 2.7120442150e+00 
137100 5.9063137152e+00 7.1004722420e-05 1.5657994576e+00 -2.7120442150e+00 1.5657994576e+00 2.7120442150e+00 
137200 5.9063137193e+00 6.8603613869e-05 1.5657971902e+00 -2.7120402878e+00 1.5657971902e+00 2.7120402878e+00 
137300 5.9063137235e+00 6.8955299141e-05 1.5657971902e+00 -2.7120402878e+00 1.5657971902e+00 2.7120402878e+00 
137400 5.9063137277e+00 6.9306656360e-05 1.5657971902e+00 -2.7120402878e+00 1.5657971902e+00 2.7120402878e+00 
137500 5.9063137319e+00 6.9657721929e-05 1.5657971902e+00 -2.7120402878e+00 1.5657971902e+00 2.7120402878e+00 
137600 5.9063137359e+00 7.0008527768e-05 1.5657971902e+00 -2.7120402878e+00 1.5657971902e+00 2.7120402878e+00 
137700 5.9063137399e+00 7.0359101493e-05 1.5657971902e+00 -2.7120402878e+00 1.5657971902e+00 2.7120402878e+00 
137800 5.9063137439e+00 7.0709466593e-05 1.5657971902e+00 -2.7120402878e+00 1.5657971902e+00 2.7120402878e+00 
137900 5.9063137478e+00 7.1059642604e-05 1.5657971902e+00 -2.7120402878e+00 1.5657971902e+00 2.7120402878e+00 
138000 5.9063137514e+00 6.8638014487e-05 1.5657949211e+00 -2.7120363576e+00 1.5657949211e+00 2.7120363576e+00 
138100 5.9063137551e+00 6.8971404382e-05 1.5657949211e+00 -2.7120363576e+00 1.5657949211e+00 2.7120363576e+00 
138200 5.9063137588e+00 6.9304553632e-05 1.5657949211e+00 -2.7120363576e+00 1.5657949211e+00 2.7120363576e+00 
138300 5.9063137625e+00 6.9637488571e-05 1.5657949211e+00 -2.7120363576e+00 1.5657949211e+00 2.7120363576e+00 
138400 5.9063137660e+00 6.9970231540e-05 1.5657949211e+00 -2.7120363576e+00 1.5657949211e+00 2.7120363576e+00 
138500 5.9063137696e+00 7.0302801067e-05 1.5657949211e+00 -2.7120363576e+00 1.5657949211e+00 2.7120363576e+00 
138600 5.9063137730e+00 7.0635212029e-05 1.5657949211e+00 -2.7120363576e+00 1.5657949211e+00 2.7120363576e+00 
138700 5.9063137765e+00 7.0967475800e-05 1.5657949211e+00 -2.7120363576e+00 1.5657949211e+00 2.7120363576e+00 
138800 5.9063137796e+00 6.8531565815e-05 1.5657926549e+00 -2.7120324325e+00 1.5657926549e+00 2.7120324325e+00 
138900 5.9063137829e+00 6.8847125466e-05 1.5657926549e+00 -2.7120324325e+00 1.5657926549e+00 2.7120324325e+00 
139000 5.9063137862e+00 6.9162464698e-05 1.5657926549e+00 -2.7120324325e+00 1.5657926549e+00 2.7120324325e+00 
139100 5.9063137894e+00 6.9477603377e-05 1.5657926549e+00 -2.7120324325e+00 1.5657926549e+00 2.7120324325e+00 
139200 5.9063137926e+00 6.9792557782e-05 1.5657926549e+00 -2.7120324325e+00 1.5657926549e+00 2.7120324325e+00 
139300 5.9063137957e+00 7.0107340767e-05 1.5657926549e+00 -2.7120324325e+00 1.5657926549e+00 2.7120324325e+00 
139400 5.9063137987e+00 7.0421961909e-05 1.5657926549e+00 -2.7120324325e+00 1.5657926549e+00 2.7120324325e+00 
139500 5.9063138017e+00 7.0736427656e-05 1.5657926549e+00 -2.7120324325e+00 1.5657926549e+00 2.7120324325e+00 
139600 5.9063138045e+00 6.8291718742e-05 1.5657903961e+00 -2.7120285201e+00 1.5657903961e+00 2.7120285201e+00 
139700 5.9063138074e+00 6.8589503680e-05 1.5657903961e+00 -2.7120285201e+00 1.5657903961e+00 2.7120285201e+00 
139800 5.9063138103e+00 6.8887047630e-05 1.5657903961e+00 -2.7120285201e+00 1.5657903961e+00 2.7120285201e+00 
139900 5.9063138132e+00 6.9184366821e-05 1.5657903961e+00 -2.7120285201e+00 1.5657903961e+00 2.7120285201e+00 
140000 5.9063138159e+00 6.9481474212e-05 1.5657903961e+00 -2.7120285201e+00 1.5657903961e+00 2.7120285201e+00 
140100 5.9063138187e+00 6.9778379643e-05 1.5657903961e+00 -2.7120285201e+00 1.5657903961e+00 2.7120285201e+00 
140200 5.9063138214e+00 7.0075089970e-05 1.5657903961e+00 -2.7120285201e+00 1.5657903961e+00 2.7120285201e+00 
140300 5.9063138241e+00 7.0371609212e-05 1.5657903961e+00 -2.7120285201e+00 1.5657903961e+00 2.7120285201e+00 
140400 5.9063138267e+00 7.0667938681e-05 1.5657903961e+00 -2.7120285201e+00 1.5657903961e+00 2.7120285201e+00 
140500 5.9063138293e+00 7.0964077118e-05 1.5657903961e+00 -2.7120285201e+00 1.5657903961e+00 2.7120285201e+00 
140600 5.9063138316e+00 6.8492120178e-05 1.5657881301e+00 -2.7120245951e+00 1.5657881301e+00 2.7120245951e+00 
140700 5.9063138341e+00 6.8771432338e-05 1.5657881301e+00 -2.7120245951e+00 1.5657881301e+00 2.7120245951e+00 
140800 5.9063138366e+00 6.9050447678e-05 1.5657881301e+00 -2.7120245951e+00 1.5657881301e+00 2.7120245951e+00 
140900 5.9063138390e+00 6.9329176843e-05 1.5657881301e+00 -2.7120245951e+00 1.5657881301e+00 2.7120245951e+00 
141000 5.9063138414e+00 6.9607627687e-05 1.5657881301e+00 -2.7120245951e+00 1.5657881301e+00 2.7120245951e+00 
141100 5.9063138438e+00 6.9885805397e-05 1.5657881301e+00 -2.7120245951e+00 1.5657881301e+00 2.7120245951e+00 
141200 5.9063138461e+00 7.0163712630e-05 1.5657881301e+00 -2.7120245951e+00 1.5657881301e+00 2.7120245951e+00 
141300 5.9063138484e+00 7.0441349629e-05 1.5657881301e+00 -2.7120245951e+00 1.5657881301e+00 2.7120245951e+00 
141400 5.9063138506e+00 7.0718714349e-05 1.5657881301e+00 -2.7120245951e+00 1.5657881301e+00 2.7120245951e+00 
141500 5.9063138527e+00 6.8237470763e-05 1.5657858718e+00 -2.7120206837e+00 1.5657858718e+00 2.7120206837e+00 
141600 5.9063138549e+00 6.8497901862e-05 1.5657858718e+00 -2.7120206837e+00 1.5657858718e+00 2.7120206837e+00 
141700 5.9063138570e+00 6.8757954464e-05 1.5657858718e+00 -2.7120206837e+00 1.5657858718e+00 2.7120206837e+00 
141800 5.9063138591e+00 6.9017639375e-05 1.5657858718e+00 -2.7120206837e+00 1.5657858718e+00 2.7120206837e+00 
141900 5.9063138612e+00 6.9276964843e-05 1.5657858718e+00 -2.7120206837e+00 1.5657858718e+00 2.7120206837e+00 
142000 5.9063138633e+00 6.9535936673e-05 1.5657858718e+00 -2.7120206837e+00 1.5657858718e+00 2.7120206837e+00 
142100 5.9063138653e+00 6.9794558349e-05 1.5657858718e+00 -2.7120206837e+00 1.5657858718e+00 2.7120206837e+00 
142200 5.9063138673e+00 7.0052831146e-05 1.5657858718e+00 -2.7120206837e+00 1.5657858718e+00 2.7120206837e+00 
142300 5.9063138693e+00 7.0310754241e-05 1.5657858718e+00 -2.7120206837e+00 1.5657858718e+00 2.7120206837e+00 
142400 5.9063138712e+00 7.0568324828e-05 1.5657858718e+00 -2.7120206837e+00 1.5657858718e+00 2.7120206837e+00 
142500 5.9063138731e+00 7.0825538217e-05 1.5657858718e+00 -2.7120206837e+00 1.5657858718e+00 2.7120206837e+00 
142600 5.9063138748e+00 6.8319889091e-05 1.5657836101e+00 -2.7120167664e+00 1.5657836101e+00 2.7120167664e+00 
142700 5.9063138766e+00 6.8559967481e-05 1.5657836101e+00 -2.7120167664e+00 1.5657836101e+00 2.7120167664e+00 
142800 5.9063138785e+00 6.8799576739e-05 1.5657836101e+00 -2.7120167664e+00 1.5657836101e+00 2.7120167664e+00 
142900 5.9063138803e+00 6.9038726553e-05 1.5657836101e+00 -2.7120167664e+00 1.5657836101e+00 2.7120167664e+00 
143000 5.9063138820e+00 6.9277424382e-05 1.5657836101e+00 -2.7120167664e+00 1.5657836101e+00 2.7120167664e+00 
143100 5.9063138838e+00 6.9515675570e-05 1.5657836101e+00 -2.7120167664e+00 1.5657836101e+00 2.7120167664e+00 
143200 5.9063138855e+00 6.9753483448e-05 1.5657836101e+00 -2.7120167664e+00 1.5657836101e+00 2.7120167664e+00 
143300 5.9063138872e+00 6.9990849437e-05 1.5657836101e+00 -2.7120167664e+00 1.5657836101e+00 2.7120167664e+00 
143400 5.9063138888e+00 7.0227773143e-05 1.5657836101e+00 -2.7120167664e+00 1.5657836101e+00 2.7120167664e+00 
143500 5.9063138905e+00 7.0464252461e-05 1.5657836101e+00 -2.7120167664e+00 1.5657836101e+00 2.7120167664e+00 
143600 5.9063138921e+00 7.0700283661e-05 1.5657836101e+00 -2.7120167664e+00 1.5657836101e+00 2.7120167664e+00 
143700 5.9063138937e+00 7.0935861487e-05 1.5657836101e+00 -2.7120167664e+00 1.5657836101e+00 2.7120167664e+00 
143800 5.9063138951e+00 6.8404176240e-05 1.5657813450e+00 -2.7120128430e+00 1.5657813450e+00 2.7120128430e+00 
143900 5.9063138966e+00 6.8622400372e-05 1.5657813450e+00 -2.7120128430e+00 1.5657813450e+00 2.7120128430e+00 
144000 5.9063138981e+00 6.8840059360e-05 1.5657813450e+00 -2.7120128430e+00 1.5657813450e+00 2.7120128430e+00 
144100 5.9063138996e+00 6.9057163614e-05 1.5657813450e+00 -2.7120128430e+00 1.5657813450e+00 2.7120128430e+00 
144200 5.9063139011e+00 6.9273721600e-05 1.5657813450e+00 -2.7120128430e+00 1.5657813450e+00 2.7120128430e+00 
144300 5.9063139026e+00 6.9489739936e-05 1.5657813450e+00 -2.7120128430e+00 1.5657813450e+00 2.7120128430e+00 
144400 5.9063139040e+00 6.9705223480e-05 1.5657813450e+00 -2.7120128430e+00 1.5657813450e+00 2.7120128430e+00 
144500 5.9063139054e+00 6.9920175419e-05 1.5657813450e+00 -2.7120128430e+00 1.5657813450e+00 2.7120128430e+00 
144600 5.9063139068e+00 7.0134597360e-05 1.5657813450e+00 -2.7120128430e+00 1.5657813450e+00 2.7120128430e+00 
144700 5.9063139082e+00 7.0348489411e-05 1.5657813450e+00 -2.7120128430e+00 1.5657813450e+00 2.7120128430e+00 
144800 5.9063139096e+00 7.0561850263e-05 1.5657813450e+00 -2.7120128430e+00 1.5657813450e+00 2.7120128430e+00 
144900 5.9063139109e+00 7.0774677271e-05 1.5657813450e+00 -2.7120128430e+00 1.5657813450e+00 2.7120128430e+00 
145000 5.9063139120e+00 6.8226447931e-05 1.5657790849e+00 -2.7120089285e+00 1.5657790849e+00 2.7120089285e+00 
145100 5.9063139133e+00 6.8421805837e-05 1.5657790849e+00 -2.7120089285e+00 1.5657790849e+00 2.7120089285e+00 
145200 5.9063139146e+00 6.8616527257e-05 1.5657790849e+00 -2.7120089285e+00 1.5657790849e+00 2.7120089285e+00 
145300 5.9063139159e+00 6.8810625829e-05 1.5657790849e+00 -2.7120089285e+00 1.5657790849e+00 2.7120089285e+00 
145400 5.9063139171e+00 6.9004113391e-05 1.5657790849e+00 -2.7120089285e+00 1.5657790849e+00 2.7120089285e+00 
145500 5.9063139183e+00 6.9197000061e-05 1.5657790849e+00 -2.7120089285e+00 1.5657790849e+00 2.7120089285e+00 
145600 5.9063139195e+00 6.9389294318e-05 1.5657790849e+00 -2.7120089285e+00 1.5657790849e+00 2.7120089285e+00 
145700 5.9063139207e+00 6.9581003088e-05 1.5657790849e+00 -2.7120089285e+00 1.5657790849e+00 2.7120089285e+00 
145800 5.9063139219e+00 6.9772131814e-05 1.5657790849e+00 -2.7120089285e+00 1.5657790849e+00 2.7120089285e+00 
145900 5.9063139230e+00 6.9962684537e-05 1.5657790849e+00 -2.7120089285e+00 1.5657790849e+00 2.7120089285e+00 
146000 5.9063139242e+00 7.0152663966e-05 1.5657790849e+00 -2.7120089285e+00 1.5657790849e+00 2.7120089285e+00 
146100 5.9063139253e+00 7.0342071552e-05 1.5657790849e+00 -2.7120089285e+00 1.5657790849e+00 2.7120089285e+00 
146200 5.9063139264e+00 7.0530907557e-05 1.5657790849e+00 -2.7120089285e+00 1.5657790849e+00 2.7120089285e+00 
146300 5.9063139275e+00 7.0719171125e-05 1.5657790849e+00 -2.7120089285e+00 1.5657790849e+00 2.7120089285e+00 
146400 5.9063139284e+00 6.8148504449e-05 1.5657768266e+00 -2.7120050171e+00 1.5657768266e+00 2.7120050171e+00 
146500 5.9063139294e+00 6.8319240367e-05 1.5657768266e+00 -2.7120050171e+00 1.5657768266e+00 2.7120050171e+00 
146600 5.9063139304e+00 6.8489307839e-05 1.5657768266e+00 -2.7120050171e+00 1.5657768266e+00 2.7120050171e+00 
146700 5.9063139315e+00 6.8658723015e-05 1.5657768266e+00 -2.7120050171e+00 1.5657768266e+00 2.7120050171e+00 
146800 5.9063139325e+00 6.8827500399e-05 1.5657768266e+00 -2.7120050171e+00 1.5657768266e+00 2.7120050171e+00 
146900 5.9063139335e+00 6.8995652929e-05 1.5657768266e+00 -2.7120050171e+00 1.5657768266e+00 2.7120050171e+00 
147000 5.9063139345e+00 6.9163192038e-05 1.5657768266e+00 -2.7120050171e+00 1.5657768266e+00 2.7120050171e+00 
147100 5.9063139354e+00 6.9330127736e-05 1.5657768266e+00 -2.7120050171e+00 1.5657768266e+00 2.7120050171e+00 
147200 5.9063139364e+00 6.9496468664e-05 1.5657768266e+00 -2.7120050171e+00 1.5657768266e+00 2.7120050171e+00 
147300 5.9063139373e+00 6.9662222170e-05 1.5657768266e+00 -2.7120050171e+00 1.5657768266e+00 2.7120050171e+00 
147400 5.9063139383e+00 6.9827394375e-05 1.5657768266e+00 -2.7120050171e+00 1.5657768266e+00 2.7120050171e+00 
147500 5.9063139392e+00 6.9991990225e-05 1.5657768266e+00 -2.7120050171e+00 1.5657768266e+00 2.7120050171e+00 
147600 5.9063139401e+00 7.0156013561e-05 1.5657768266e+00 -2.7120050171e+00 1.5657768266e+00 2.7120050171e+00 
147700 5.9063139410e+00 7.0319467175e-05 1.5657768266e+00 -2.7120050171e+00 1.5657768266e+00 2.7120050171e+00 
147800 5.9063139418e+00 7.0482352872e-05 1.5657768266e+00 -2.7120050171e+00 1.5657768266e+00 2.7120050171e+00 
147900 5.9063139427e+00 7.0644671524e-05 1.5657768266e+00 -2.7120050171e+00 1.5657768266e+00 2.7120050171e+00 
148000 5.9063139436e+00 7.0806423123e-05 1.5657768266e+00 -2.7120050171e+00 1.5657768266e+00 2.7120050171e+00 
148100 5.9063139442e+00 6.8205845843e-05 1.5657745656e+00 -2.7120011008e+00 1.5657745656e+00 2.7120011008e+00 
148200 5.9063139450e+00 6.8350063424e-05 1.5657745656e+00 -2.7120011008e+00 1.5657745656e+00 2.7120011008e+00 
148300 5.9063139458e+00 6.8493621750e-05 1.5657745656e+00 -2.7120011008e+00 1.5657745656e+00 2.7120011008e+00 
148400 5.9063139466e+00 6.8636538684e-05 1.5657745656e+00 -2.7120011008e+00 1.5657745656e+00 2.7120011008e+00 
148500 5.9063139474e+00 6.8778830629e-05 1.5657745656e+00 -2.7120011008e+00 1.5657745656e+00 2.7120011008e+00 
148600 5.9063139482e+00 6.8920512582e-05 1.5657745656e+00 -2.7120011008e+00 1.5657745656e+00 2.7120011008e+00 
148700 5.9063139490e+00 6.9061598200e-05 1.5657745656e+00 -2.7120011008e+00 1.5657745656e+00 2.7120011008e+00 
148800 5.9063139497e+00 6.9202099853e-05 1.5657745656e+00 -2.7120011008e+00 1.5657745656e+00 2.7120011008e+00 
148900 5.9063139505e+00 6.9342028685e-05 1.5657745656e+00 -2.7120011008e+00 1.5657745656e+00 2.7120011008e+00 
149000 5.9063139512e+00 6.9481394668e-05 1.5657745656e+00 -2.7120011008e+00 1.5657745656e+00 2.7120011008e+00 
149100 5.9063139520e+00 6.9620206660e-05 1.5657745656e+00 -2.7120011008e+00 1.5657745656e+00 2.7120011008e+00 
149200 5.9063139527e+00 6.9758472450e-05 1.5657745656e+00 -2.7120011008e+00 1.5657745656e+00 2.7120011008e+00 
149300 5.9063139534e+00 6.9896198822e-05 1.5657745656e+00 -2.7120011008e+00 1.5657745656e+00 2.7120011008e+00 
149400 5.9063139541e+00 7.0033391592e-05 1.5657745656e+00 -2.7120011008e+00 1.5657745656e+00 2.7120011008e+00 
149500 5.9063139548e+00 7.0170055669e-05 1.5657745656e+00 -2.7120011008e+00 1.5657745656e+00 2.7120011008e+00 
149600 5.9063139554e+00 7.0306195096e-05 1.5657745656e+00 -2.7120011008e+00 1.5657745656e+00 2.7120011008e+00 
149700 5.9063139561e+00 7.0441813097e-05 1.5657745656e+00 -2.7120011008e+00 1.5657745656e+00 2.7120011008e+00 
149800 5.9063139568e+00 7.0576912126e-05 1.5657745656e+00 -2.7120011008e+00 1.5657745656e+00 2.7120011008e+00 
149900 5.9063139574e+00 7.0711493907e-05 1.5657745656e+00 -2.7120011008e+00 1.5657745656e+00 2.7120011008e+00 
150000 5.9063139579e+00 6.8087498644e-05 1.5657723075e+00 -2.7119971898e+00 1.5657723075e+00 2.7119971898e+00 
150100 5.9063139585e+00 6.8204673392e-05 1.5657723075e+00 -2.7119971898e+00 1.5657723075e+00 2.7119971898e+00 
150200 5.9063139591e+00 6.8321244833e-05 1.5657723075e+00 -2.7119971898e+00 1.5657723075e+00 2.7119971898e+00 
150300 5.9063139597e+00 6.8437233032e-05 1.5657723075e+00 -2.7119971898e+00 1.5657723075e+00 2.7119971898e+00 
150400 5.9063139603e+00 6.8552656689e-05 1.5657723075e+00 -2.7119971898e+00 1.5657723075e+00 2.7119971898e+00 
150500 5.9063139609e+00 6.8667533192e-05 1.5657723075e+00 -2.7119971898e+00 1.5657723075e+00 2.7119971898e+00 
150600 5.9063139615e+00 6.8781878671e-05 1.5657723075e+00 -2.7119971898e+00 1.5657723075e+00 2.7119971898e+00 
150700 5.9063139621e+00 6.8895708047e-05 1.5657723075e+00 -2.7119971898e+00 1.5657723075e+00 2.7119971898e+00 
150800 5.9063139627e+00 6.9009035077e-05 1.5657723075e+00 -2.7119971898e+00 1.5657723075e+00 2.7119971898e+00 
150900 5.9063139632e+00 6.9121872407e-05 1.5657723075e+00 -2.7119971898e+00 1.5657723075e+00 2.7119971898e+00 
151000 5.9063139638e+00 6.9234231617e-05 1.5657723075e+00 -2.7119971898e+00 1.5657723075e+00 2.7119971898e+00 
151100 5.9063139643e+00 6.9346123265e-05 1.5657723075e+00 -2.7119971898e+00 1.5657723075e+00 2.7119971898e+00 
151200 5.9063139649e+00 6.9457556932e-05 1.5657723075e+00 -2.7119971898e+00 1.5657723075e+00 2.7119971898e+00 
151300 5.9063139654e+00 6.9568541270e-05 1.5657723075e+00 -2.7119971898e+00 1.5657723075e+00 2.7119971898e+00 
151400 5.9063139660e+00 6.9679084037e-05 1.5657723075e+00 -2.7119971898e+00 1.5657723075e+00 2.7119971898e+00 
151500 5.9063139665e+00 6.9789192147e-05 1.5657723075e+00 -2.7119971898e+00 1.5657723075e+00 2.7119971898e+00 
151600 5.9063139670e+00 6.9898871702e-05 1.5657723075e+00 -2.7119971898e+00 1.5657723075e+00 2.7119971898e+00 
151700 5.9063139675e+00 7.0008128037e-05 1.5657723075e+00 -2.7119971898e+00 1.5657723075e+00 2.7119971898e+00 
151800 5.9063139680e+00 7.0116965759e-05 1.5657723075e+00 -2.7119971898e+00 1.5657723075e+00 2.7119971898e+00 
151900 5.9063139685e+00 7.0225388779e-05 1.5657723075e+00 -2.7119971898e+00 1.5657723075e+00 2.7119971898e+00 
152000 5.9063139690e+00 7.0333400352e-05 1.5657723075e+00 -2.7119971898e+00 1.5657723075e+00 2.7119971898e+00 
152100 5.9063139694e+00 7.0441003115e-05 1.5657723075e+00 -2.7119971898e+00 1.5657723075e+00 2.7119971898e+00 
152200 5.9063139699e+00 7.0548199115e-05 1.5657723075e+00 -2.7119971898e+00 1.5657723075e+00 2.7119971898e+00 
152300 5.9063139704e+00 7.0654989847e-05 1.5657723075e+00 -2.7119971898e+00 1.5657723075e+00 2.7119971898e+00 
152400 5.9063139708e+00 7.0761376283e-05 1.5657723075e+00 -2.7119971898e+00 1.5657723075e+00 2.7119971898e+00 
152500 5.9063139711e+00 6.8107350678e-05 1.5657700479e+00 -2.7119932760e+00 1.5657700479e+00 2.7119932760e+00 
152600 5.9063139715e+00 6.8196542565e-05 1.5657700479e+00 -2.7119932760e+00 1.5657700479e+00 2.7119932760e+00 
152700 5.9063139720e+00 6.8285242954e-05 1.5657700479e+00 -2.7119932760e+00 1.5657700479e+00 2.7119932760e+00 
152800 5.9063139724e+00 6.8373471886e-05 1.5657700479e+00 -2.7119932760e+00 1.5657700479e+00 2.7119932760e+00 
152900 5.9063139728e+00 6.8461248191e-05 1.5657700479e+00 -2.7119932760e+00 1.5657700479e+00 2.7119932760e+00 
153000 5.9063139732e+00 6.8548589535e-05 1.5657700479e+00 -2.7119932760e+00 1.5657700479e+00 2.7119932760e+00 
153100 5.9063139737e+00 6.8635512453e-05 1.5657700479e+00 -2.7119932760e+00 1.5657700479e+00 2.7119932760e+00 
153200 5.9063139741e+00 6.8722032397e-05 1.5657700479e+00 -2.7119932760e+00 1.5657700479e+00 2.7119932760e+00 
153300 5.9063139745e+00 6.8808163771e-05 1.5657700479e+00 -2.7119932760e+00 1.5657700479e+00 2.7119932760e+00 
153400 5.9063139749e+00 6.8893919976e-05 1.5657700479e+00 -2.7119932760e+00 1.5657700479e+00 2.7119932760e+00 
153500 5.9063139753e+00 6.8979313437e-05 1.5657700479e+00 -2.7119932760e+00 1.5657700479e+00 2.7119932760e+00 
153600 5.9063139757e+00 6.9064355653e-05 1.5657700479e+00 -2.7119932760e+00 1.5657700479e+00 2.7119932760e+00 
153700 5.9063139760e+00 6.9149057227e-05 1.5657700479e+00 -2.7119932760e+00 1.5657700479e+00 2.7119932760e+00 
153800 5.9063139764e+00 6.9233427904e-05 1.5657700479e+00 -2.7119932760e+00 1.5657700479e+00 2.7119932760e+00 
153900 5.9063139768e+00 6.9317476605e-05 1.5657700479e+00 -2.7119932760e+00 1.5657700479e+00 2.7119932760e+00 
154000 5.9063139772e+00 6.9401211460e-05 1.5657700479e+00 -2.7119932760e+00 1.5657700479e+00 2.7119932760e+00 
154100 5.9063139775e+00 6.9484639851e-05 1.5657700479e+00 -2.7119932760e+00 1.5657700479e+00 2.7119932760e+00 
154200 5.9063139779e+00 6.9567768430e-05 1.5657700479e+00 -2.7119932760e+00 1.5657700479e+00 2.7119932760e+00 
154300 5.9063139782e+00 6.9650603160e-05 1.5657700479e+00 -2.7119932760e+00 1.5657700479e+00 2.7119932760e+00 
154400 5.9063139786e+00 6.9733149347e-05 1.5657700479e+00 -2.7119932760e+00 1.5657700479e+00 2.7119932760e+00 
154500 5.9063139789e+00 6.9815411669e-05 1.5657700479e+00 -2.7119932760e+00 1.5657700479e+00 2.7119932760e+00 
154600 5.9063139793e+00 6.9897394201e-05 1.5657700479e+00 -2.7119932760e+00 1.5657700479e+00 2.7119932760e+00 
154700 5.9063139796e+00 6.9979100455e-05 1.5657700479e+00 -2.7119932760e+00 1.5657700479e+00 2.7119932760e+00 
154800 5.9063139799e+00 7.0060533395e-05 1.5657700479e+00 -2.7119932760e+00 1.5657700479e+00 2.7119932760e+00 
154900 5.9063139802e+00 7.0141695476e-05 1.5657700479e+00 -2.7119932760e+00 1.5657700479e+00 2.7119932760e+00 
155000 5.9063139806e+00 7.0222588661e-05 1.5657700479e+00 -2.7119932760e+00 1.5657700479e+00 2.7119932760e+00 
155100 5.9063139809e+00 7.0303214455e-05 1.5657700479e+00 -2.7119932760e+00 1.5657700479e+00 2.7119932760e+00 
155200 5.9063139812e+00 7.0383573927e-05 1.5657700479e+00 -2.7119932760e+00 1.5657700479e+00 2.7119932760e+00 
155300 5.9063139815e+00 7.0463667733e-05 1.5657700479e+00 -2.7119932760e+00 1.5657700479e+00 2.7119932760e+00 
155400 5.9063139818e+00 7.0543496142e-05 1.5657700479e+00 -2.7119932760e+00 1.5657700479e+00 2.7119932760e+00 
155500 5.9063139821e+00 7.0623059056e-05 1.5657700479e+00 -2.7119932760e+00 1.5657700479e+00 2.7119932760e+00 
155600 5.9063139824e+00 7.0702356039e-05 1.5657700479e+00 -2.7119932760e+00 1.5657700479e+00 2.7119932760e+00 
155700 5.9063139827e+00 7.0781386330e-05 1.5657700479e+00 -2.7119932760e+00 1.5657700479e+00 2.7119932760e+00 
155800 5.9063139828e+00 6.8099358461e-05 1.5657677876e+00 -2.7119893610e+00 1.5657677876e+00 2.7119893610e+00 
155900 5.9063139831e+00 6.8161459942e-05 1.5657677876e+00 -2.7119893610e+00 1.5657677876e+00 2.7119893610e+00 
156000 5.9063139833e+00 6.8223203445e-05 1.5657677876e+00 -2.7119893610e+00 1.5657677876e+00 2.7119893610e+00 
156100 5.9063139836e+00 6.8284607984e-05 1.5657677876e+00 -2.7119893610e+00 1.5657677876e+00 2.7119893610e+00 
156200 5.9063139839e+00 6.8345691517e-05 1.5657677876e+00 -2.7119893610e+00 1.5657677876e+00 2.7119893610e+00 
156300 5.9063139842e+00 6.8406470973e-05 1.5657677876e+00 -2.7119893610e+00 1.5657677876e+00 2.7119893610e+00 
156400 5.9063139844e+00 6.8466962287e-05 1.5657677876e+00 -2.7119893610e+00 1.5657677876e+00 2.7119893610e+00 
156500 5.9063139847e+00 6.8527180438e-05 1.5657677876e+00 -2.7119893610e+00 1.5657677876e+00 2.7119893610e+00 
156600 5.9063139849e+00 6.8587139471e-05 1.5657677876e+00 -2.7119893610e+00 1.5657677876e+00 2.7119893610e+00 
156700 5.9063139852e+00 6.8646852538e-05 1.5657677876e+00 -2.7119893610e+00 1.5657677876e+00 2.7119893610e+00 
156800 5.9063139855e+00 6.8706331919e-05 1.5657677876e+00 -2.7119893610e+00 1.5657677876e+00 2.7119893610e+00 
156900 5.9063139857e+00 6.8765589061e-05 1.5657677876e+00 -2.7119893610e+00 1.5657677876e+00 2.7119893610e+00 
157000 5.9063139859e+00 6.8824634602e-05 1.5657677876e+00 -2.7119893610e+00 1.5657677876e+00 2.7119893610e+00 
157100 5.9063139862e+00 6.8883478402e-05 1.5657677876e+00 -2.7119893610e+00 1.5657677876e+00 2.7119893610e+00 
157200 5.9063139864e+00 6.8942129572e-05 1.5657677876e+00 -2.7119893610e+00 1.5657677876e+00 2.7119893610e+00 
157300 5.9063139867e+00 6.9000596500e-05 1.5657677876e+00 -2.7119893610e+00 1.5657677876e+00 2.7119893610e+00 
157400 5.9063139869e+00 6.9058886886e-05 1.5657677876e+00 -2.7119893610e+00 1.5657677876e+00 2.7119893610e+00 
157500 5.9063139871e+00 6.9117007753e-05 1.5657677876e+00 -2.7119893610e+00 1.5657677876e+00 2.7119893610e+00 
157600 5.9063139873e+00 6.9174965493e-05 1.5657677876e+00 -2.7119893610e+00 1.5657677876e+00 2.7119893610e+00 
157700 5.9063139876e+00 6.9232765880e-05 1.5657677876e+00 -2.7119893610e+00 1.5657677876e+00 2.7119893610e+00 
157800 5.9063139878e+00 6.9290414099e-05 1.5657677876e+00 -2.7119893610e+00 1.5657677876e+00 2.7119893610e+00 
157900 5.9063139880e+00 6.9347914772e-05 1.5657677876e+00 -2.7119893610e+00 1.5657677876e+00 2.7119893610e+00 
158000 5.9063139882e+00 6.9405271978e-05 1.5657677876e+00 -2.7119893610e+00 1.5657677876e+00 2.7119893610e+00 
158100 5.9063139884e+00 6.9462489285e-05 1.5657677876e+00 -2.7119893610e+00 1.5657677876e+00 2.7119893610e+00 
158200 5.9063139886e+00 6.9519569764e-05 1.5657677876e+00 -2.7119893610e+00 1.5657677876e+00 2.7119893610e+00 
158300 5.9063139888e+00 6.9576516015e-05 1.5657677876e+00 -2.7119893610e+00 1.5657677876e+00 2.7119893610e+00 
158400 5.9063139890e+00 6.9633330196e-05 1.5657677876e+00 -2.7119893610e+00 1.5657677876e+00 2.7119893610e+00 
158500 5.9063139892e+00 6.9690014029e-05 1.5657677876e+00 -2.7119893610e+00 1.5657677876e+00 2.7119893610e+00 
158600 5.9063139894e+00 6.9746568838e-05 1.5657677876e+00 -2.7119893610e+00 1.5657677876e+00 2.7119893610e+00 
158700 5.9063139896e+00 6.9802995558e-05 1.5657677876e+00 -2.7119893610e+00 1.5657677876e+00 2.7119893610e+00 
158800 5.9063139898e+00 6.9859294760e-05 1.5657677876e+00 -2.7119893610e+00 1.5657677876e+00 2.7119893610e+00 
158900 5.9063139900e+00 6.9915466670e-05 1.5657677876e+00 -2.7119893610e+00 1.5657677876e+00 2.7119893610e+00 
159000 5.9063139902e+00 6.9971511184e-05 1.5657677876e+00 -2.7119893610e+00 1.5657677876e+00 2.7119893610e+00 
159100 5.9063139904e+00 7.0027427891e-05 1.5657677876e+00 -2.7119893610e+00 1.5657677876e+00 2.7119893610e+00 
159200 5.9063139906e+00 7.0083216089e-05 1.5657677876e+00 -2.7119893610e+00 1.5657677876e+00 2.7119893610e+00 
159300 5.9063139907e+00 7.0138874803e-05 1.5657677876e+00 -2.7119893610e+00 1.5657677876e+00 2.7119893610e+00 
159400 5.9063139909e+00 7.0194402802e-05 1.5657677876e+00 -2.7119893610e+00 1.5657677876e+00 2.7119893610e+00 
159500 5.9063139911e+00 7.0249798610e-05 1.5657677876e+00 -2.7119893610e+00 1.5657677876e+00 2.7119893610e+00 
159600 5.9063139913e+00 7.0305060532e-05 1.5657677876e+00 -2.7119893610e+00 1.5657677876e+00 2.7119893610e+00 
159700 5.9063139914e+00 7.0360186659e-05 1.5657677876e+00 -2.7119893610e+00 1.5657677876e+00 2.7119893610e+00 
159800 5.9063139916e+00 7.0415174892e-05 1.5657677876e+00 -2.7119893610e+00 1.5657677876e+00 2.7119893610e+00 
159900 5.9063139918e+00 7.0470022946e-05 1.5657677876e+00 -2.7119893610e+00 1.5657677876e+00 2.7119893610e+00 
160000 5.9063139919e+00 7.0524728373e-05 1.5657677876e+00 -2.7119893610e+00 1.5657677876e+00 2.7119893610e+00 
160100 5.9063139921e+00 7.0579288573e-05 1.5657677876e+00 -2.7119893610e+00 1.5657677876e+00 2.7119893610e+00 
160200 5.9063139923e+00 7.0633700803e-05 1.5657677876e+00 -2.7119893610e+00 1.5657677876e+00 2.7119893610e+00 
160300 5.9063139924e+00 7.0687962193e-05 1.5657677876e+00 -2.7119893610e+00 1.5657677876e+00 2.7119893610e+00 
160400 5.9063139926e+00 7.0742069758e-05 1.5657677876e+00 -2.7119893610e+00 1.5657677876e+00 2.7119893610e+00 
160500 5.9063139925e+00 6.8036761531e-05 1.5657655286e+00 -2.7119854483e+00 1.5657655286e+00 2.7119854483e+00 
160600 5.9063139927e+00 6.8074168821e-05 1.5657655286e+00 -2.7119854483e+00 1.5657655286e+00 2.7119854483e+00 
160700 5.9063139928e+00 6.8111325547e-05 1.5657655286e+00 -2.7119854483e+00 1.5657655286e+00 2.7119854483e+00 
160800 5.9063139930e+00 6.8148249212e-05 1.5657655286e+00 -2.7119854483e+00 1.5657655286e+00 2.7119854483e+00 
160900 5.9063139931e+00 6.8184956422e-05 1.5657655286e+00 -2.7119854483e+00 1.5657655286e+00 2.7119854483e+00 
161000 5.9063139933e+00 6.8221462910e-05 1.5657655286e+00 -2.7119854483e+00 1.5657655286e+00 2.7119854483e+00 
161100 5.9063139934e+00 6.8257783563e-05 1.5657655286e+00 -2.7119854483e+00 1.5657655286e+00 2.7119854483e+00 
161200 5.9063139935e+00 6.8293932441e-05 1.5657655286e+00 -2.7119854483e+00 1.5657655286e+00 2.7119854483e+00 
161300 5.9063139937e+00 6.8329922808e-05 1.5657655286e+00 -2.7119854483e+00 1.5657655286e+00 2.7119854483e+00 
161400 5.9063139938e+00 6.8365767150e-05 1.5657655286e+00 -2.7119854483e+00 1.5657655286e+00 2.7119854483e+00 
161500 5.9063139939e+00 6.8401477205e-05 1.5657655286e+00 -2.7119854483e+00 1.5657655286e+00 2.7119854483e+00 
161600 5.9063139941e+00 6.8437063979e-05 1.5657655286e+00 -2.7119854483e+00 1.5657655286e+00 2.7119854483e+00 
161700 5.9063139942e+00 6.8472537778e-05 1.5657655286e+00 -2.7119854483e+00 1.5657655286e+00 2.7119854483e+00 
161800 5.9063139943e+00 6.8507908220e-05 1.5657655286e+00 -2.7119854483e+00 1.5657655286e+00 2.7119854483e+00 
161900 5.9063139945e+00 6.8543184269e-05 1.5657655286e+00 -2.7119854483e+00 1.5657655286e+00 2.7119854483e+00 
162000 5.9063139946e+00 6.8578374249e-05 1.5657655286e+00 -2.7119854483e+00 1.5657655286e+00 2.7119854483e+00 
162100 5.9063139947e+00 6.8613485868e-05 1.5657655286e+00 -2.7119854483e+00 1.5657655286e+00 2.7119854483e+00 
162200 5.9063139948e+00 6.8648526242e-05 1.5657655286e+00 -2.7119854483e+00 1.5657655286e+00 2.7119854483e+00 
162300 5.9063139950e+00 6.8683501911e-05 1.5657655286e+00 -2.7119854483e+00 1.5657655286e+00 2.7119854483e+00 
162400 5.9063139951e+00 6.8718418868e-05 1.5657655286e+00 -2.7119854483e+00 1.5657655286e+00 2.7119854483e+00 
162500 5.9063139952e+00 6.8753282569e-05 1.5657655286e+00 -2.7119854483e+00 1.5657655286e+00 2.7119854483e+00 
162600 5.9063139953e+00 6.8788097961e-05 1.5657655286e+00 -2.7119854483e+00 1.5657655286e+00 2.7119854483e+00 
162700 5.9063139954e+00 6.8822869504e-05 1.5657655286e+00 -2.7119854483e+00 1.5657655286e+00 2.7119854483e+00 
162800 5.9063139955e+00 6.8857601175e-05 1.5657655286e+00 -2.7119854483e+00 1.5657655286e+00 2.7119854483e+00 
162900 5.9063139956e+00 6.8892296509e-05 1.5657655286e+00 -2.7119854483e+00 1.5657655286e+00 2.7119854483e+00 
163000 5.9063139958e+00 6.8926958599e-05 1.5657655286e+00 -2.7119854483e+00 1.5657655286e+00 2.7119854483e+00 
163100 5.9063139959e+00 6.8961590125e-05 1.5657655286e+00 -2.7119854483e+00 1.5657655286e+00 2.7119854483e+00 
163200 5.9063139960e+00 6.8996193367e-05 1.5657655286e+00 -2.7119854483e+00 1.5657655286e+00 2.7119854483e+00 
163300 5.9063139961e+00 6.9030770225e-05 1.5657655286e+00 -2.7119854483e+00 1.5657655286e+00 2.7119854483e+00 
163400 5.9063139962e+00 6.9065322237e-05 1.5657655286e+00 -2.7119854483e+00 1.5657655286e+00 2.7119854483e+00 
163500 5.9063139963e+00 6.9099850587e-05 1.5657655286e+00 -2.7119854483e+00 1.5657655286e+00 2.7119854483e+00 
163600 5.9063139964e+00 6.9134356139e-05 1.5657655286e+00 -2.7119854483e+00 1.5657655286e+00 2.7119854483e+00 
163700 5.9063139965e+00 6.9168839432e-05 1.5657655286e+00 -2.7119854483e+00 1.5657655286e+00 2.7119854483e+00 
163800 5.9063139966e+00 6.9203300710e-05 1.5657655286e+00 -2.7119854483e+00 1.5657655286e+00 2.7119854483e+00 
163900 5.9063139967e+00 6.9237739935e-05 1.5657655286e+00 -2.7119854483e+00 1.5657655286e+00 2.7119854483e+00 
164000 5.9063139968e+00 6.9272156797e-05 1.5657655286e+00 -2.7119854483e+00 1.5657655286e+00 2.7119854483e+00 
164100 5.9063139969e+00 6.9306550732e-05 1.5657655286e+00 -2.7119854483e+00 1.5657655286e+00 2.7119854483e+00 
164200 5.9063139970e+00 6.9340920934e-05 1.5657655286e+00 -2.7119854483e+00 1.5657655286e+00 2.7119854483e+00 
164300 5.9063139971e+00 6.9375266375e-05 1.5657655286e+00 -2.7119854483e+00 1.5657655286e+00 2.7119854483e+00 
164400 5.9063139972e+00 6.9409585806e-05 1.5657655286e+00 -2.7119854483e+00 1.5657655286e+00 2.7119854483e+00 
164500 5.9063139973e+00 6.9443877784e-05 1.5657655286e+00 -2.7119854483e+00 1.5657655286e+00 2.7119854483e+00 
164600 5.9063139973e+00 6.9478140674e-05 1.5657655286e+00 -2.7119854483e+00 1.5657655286e+00 2.7119854483e+00 
164700 5.9063139974e+00 6.9512372668e-05 1.5657655286e+00 -2.7119854483e+00 1.5657655286e+00 2.7119854483e+00 
164800 5.9063139975e+00 6.9546571789e-05 1.5657655286e+00 -2.7119854483e+00 1.5657655286e+00 2.7119854483e+00 
164900 5.9063139976e+00 6.9580735913e-05 1.5657655286e+00 -2.7119854483e+00 1.5657655286e+00 2.7119854483e+00 
165000 5.9063139977e+00 6.9614862771e-05 1.5657655286e+00 -2.7119854483e+00 1.5657655286e+00 2.7119854483e+00 
165100 5.9063139978e+00 6.9648949965e-05 1.5657655286e+00 -2.7119854483e+00 1.5657655286e+00 2.7119854483e+00 
165200 5.9063139979e+00 6.9682994976e-05 1.5657655286e+00 -2.7119854483e+00 1.5657655286e+00 2.7119854483e+00 
165300 5.9063139979e+00 6.9716995177e-05 1.5657655286e+00 -2.7119854483e+00 1.5657655286e+00 2.7119854483e+00 
165400 5.9063139980e+00 6.9750947838e-05 1.5657655286e+00 -2.7119854483e+00 1.5657655286e+00 2.7119854483e+00 
165500 5.9063139981e+00 6.9784850139e-05 1.5657655286e+00 -2.7119854483e+00 1.5657655286e+00 2.7119854483e+00 
165600 5.9063139982e+00 6.9818699179e-05 1.5657655286e+00 -2.7119854483e+00 1.5657655286e+00 2.7119854483e+00 
165700 5.9063139983e+00 6.9852491985e-05 1.5657655286e+00 -2.7119854483e+00 1.5657655286e+00 2.7119854483e+00 
165800 5.9063139983e+00 6.9886225514e-05 1.5657655286e+00 -2.7119854483e+00 1.5657655286e+00 2.7119854483e+00 
165900 5.9063139984e+00 6.9919896673e-05 1.5657655286e+00 -2.7119854483e+00 1.5657655286e+00 2.7119854483e+00 
166000 5.9063139985e+00 6.9953502318e-05 1.5657655286e+00 -2.7119854483e+00 1.5657655286e+00 2.7119854483e+00 
166100 5.9063139986e+00 6.9987039262e-05 1.5657655286e+00 -2.7119854483e+00 1.5657655286e+00 2.7119854483e+00 
166200 5.9063139986e+00 7.0020504288e-05 1.5657655286e+00 -2.7119854483e+00 1.5657655286e+00 2.7119854483e+00 
166300 5.9063139987e+00 7.0053894148e-05 1.5657655286e+00 -2.7119854483e+00 1.5657655286e+00 2.7119854483e+00 
166400 5.9063139988e+00 7.0087205577e-05 1.5657655286e+00 -2.7119854483e+00 1.5657655286e+00 2.7119854483e+00 
166500 5.9063139988e+00 7.0120435294e-05 1.5657655286e+00 -2.7119854483e+00 1.5657655286e+00 2.7119854483e+00 
166600 5.9063139989e+00 7.0153580013e-05 1.5657655286e+00 -2.7119854483e+00 1.5657655286e+00 2.7119854483e+00 
166700 5.9063139990e+00 7.0186636443e-05 1.5657655286e+00 -2.7119854483e+00 1.5657655286e+00 2.7119854483e+00 
166800 5.9063139990e+00 7.0219601296e-05 1.5657655286e+00 -2.7119854483e+00 1.5657655286e+00 2.7119854483e+00 
166900 5.9063139991e+00 7.0252471296e-05 1.5657655286e+00 -2.7119854483e+00 1.5657655286e+00 2.7119854483e+00 
167000 5.9063139992e+00 7.0285243178e-05 1.5657655286e+00 -2.7119854483e+00 1.5657655286e+00 2.7119854483e+00 
167100 5.9063139992e+00 7.0317913696e-05 1.5657655286e+00 -2.7119854483e+00 1.5657655286e+00 2.7119854483e+00 
167200 5.9063139993e+00 7.0350479629e-05 1.5657655286e+00 -2.7119854483e+00 1.5657655286e+00 2.7119854483e+00 
167300 5.9063139994e+00 7.0382937782e-05 1.5657655286e+00 -2.7119854483e+00 1.5657655286e+00 2.7119854483e+00 
167400 5.9063139994e+00 7.0415284993e-05 1.5657655286e+00 -2.7119854483e+00 1.5657655286e+00 2.7119854483e+00 
167500 5.9063139995e+00 7.0447518132e-05 1.5657655286e+00 -2.7119854483e+00 1.5657655286e+00 2.7119854483e+00 
167600 5.9063139995e+00 7.0479634111e-05 1.5657655286e+00 -2.7119854483e+00 1.5657655286e+00 2.7119854483e+00 
167700 5.9063139996e+00 7.0511629883e-05 1.5657655286e+00 -2.7119854483e+00 1.5657655286e+00 2.7119854483e+00 
167800 5.9063139997e+00 7.0543502446e-05 1.5657655286e+00 -2.7119854483e+00 1.5657655286e+00 2.7119854483e+00 
167900 5.9063139997e+00 7.0575248851e-05 1.5657655286e+00 -2.7119854483e+00 1.5657655286e+00 2.7119854483e+00 
168000 5.9063139998e+00 7.0606866194e-05 1.5657655286e+00 -2.7119854483e+00 1.5657655286e+00 2.7119854483e+00 
168100 5.9063139998e+00 7.0638351628e-05 1.5657655286e+00 -2.7119854483e+00 1.5657655286e+00 2.7119854483e+00 
168200 5.9063139999e+00 7.0669702365e-05 1.5657655286e+00 -2.7119854483e+00 1.5657655286e+00 2.7119854483e+00 
168300 5.9063140000e+00 7.0700915670e-05 1.5657655286e+00 -2.7119854483e+00 1.5657655286e+00 2.7119854483e+00 
168400 5.9063140000e+00 7.0731988874e-05 1.5657655286e+00 -2.7119854483e+00 1.5657655286e+00 2.7119854483e+00 
168500 5.9063139999e+00 6.8004050729e-05 1.5657632699e+00 -2.7119815361e+00 1.5657632699e+00 2.7119815361e+00 
168600 5.9063139999e+00 6.8018454632e-05 1.5657632699e+00 -2.7119815361e+00 1.5657632699e+00 2.7119815361e+00 
168700 5.9063140000e+00 6.8032623650e-05 1.5657632699e+00 -2.7119815361e+00 1.5657632699e+00 2.7119815361e+00 
168800 5.9063140000e+00 6.8046576205e-05 1.5657632699e+00 -2.7119815361e+00 1.5657632699e+00 2.7119815361e+00 
168900 5.9063140001e+00 6.8060329953e-05 1.5657632699e+00 -2.7119815361e+00 1.5657632699e+00 2.7119815361e+00 
169000 5.9063140001e+00 6.8073901804e-05 1.5657632699e+00 -2.7119815361e+00 1.5657632699e+00 2.7119815361e+00 
169100 5.9063140002e+00 6.8087307928e-05 1.5657632699e+00 -2.7119815361e+00 1.5657632699e+00 2.7119815361e+00 
169200 5.9063140002e+00 6.8100563782e-05 1.5657632699e+00 -2.7119815361e+00 1.5657632699e+00 2.7119815361e+00 
169300 5.9063140003e+00 6.8113684121e-05 1.5657632699e+00 -2.7119815361e+00 1.5657632699e+00 2.7119815361e+00 
169400 5.9063140003e+00 6.8122535754e-05 1.5657632699e+00 -2.7119815361e+00 1.5657632699e+00 2.7119815361e+00 
169400 5.9063140003e+00 6.8122535754e-05 1.5657632699e+00 -2.7119815361e+00 1.5657632699e+00 2.7119815361e+00 
