# step Hamiltonian StressXX CellTensor1 CellTensor2 CellTensor3 CellTensor4 
0 6.0929049519e+00 1.5580495972e-01 2.8237630504e+00 -4.8909010719e+00 2.8237630504e+00 4.8909010719e+00 
100 6.1133565135e+00 1.8171108376e-01 2.8237630504e+00 -4.8909010719e+00 2.8237630504e+00 4.8909010719e+00 
200 6.1331284971e+00 2.0617554105e-01 2.8205461280e+00 -4.8853291987e+00 2.8205461280e+00 4.8853291987e+00 
300 6.1525225764e+00 2.2927389704e-01 2.8168920314e+00 -4.8790001179e+00 2.8168920314e+00 4.8790001179e+00 
400 6.1715201944e+00 2.5118999885e-01 2.8128233876e+00 -4.8719530200e+00 2.8128233876e+00 4.8719530200e+00 
500 6.1900870427e+00 2.7208244318e-01 2.8083594842e+00 -4.8642213125e+00 2.8083594842e+00 4.8642213125e+00 
600 6.2081759988e+00 2.9208617681e-01 2.8035167265e+00 -4.8558334102e+00 2.8035167265e+00 4.8558334102e+00 
700 6.2257298991e+00 3.1131410860e-01 2.7983090609e+00 -4.8468134687e+00 2.7983090609e+00 4.8468134687e+00 
800 6.2426840936e+00 3.2985865905e-01 2.7927483677e+00 -4.8371820656e+00 2.7927483677e+00 4.8371820656e+00 
900 6.2589687583e+00 3.4779318798e-01 2.7868448255e+00 -4.8269568305e+00 2.7868448255e+00 4.8269568305e+00 
1000 6.2745109712e+00 3.6517326437e-01 2.7806072498e+00 -4.8161530326e+00 2.7806072498e+00 4.8161530326e+00 
1100 6.2892365763e+00 3.8203777377e-01 2.7740434102e+00 -4.8047841289e+00 2.7740434102e+00 4.8047841289e+00 
1200 6.3030718832e+00 3.9840989765e-01 2.7671603289e+00 -4.7928622824e+00 2.7671603289e+00 4.7928622824e+00 
1300 6.3159452606e+00 4.1429804464e-01 2.7599645641e+00 -4.7803988521e+00 2.7599645641e+00 4.7803988521e+00 
1400 6.3277886943e+00 4.2969686228e-01 2.7524624794e+00 -4.7674048603e+00 2.7524624794e+00 4.7674048603e+00 
1500 6.3385393755e+00 4.4458850139e-01 2.7446604986e+00 -4.7538914331e+00 2.7446604986e+00 4.7538914331e+00 
1600 6.3481413737e+00 4.5894432876e-01 2.7365653407e+00 -4.7398702084e+00 2.7365653407e+00 4.7398702084e+00 
1700 6.3565474093e+00 4.7272726843e-01 2.7281842285e+00 -4.7253536962e+00 2.7281842285e+00 4.7253536962e+00 
1800 6.3637206904e+00 4.8589487874e-01 2.7195250576e+00 -4.7103555723e+00 2.7195250576e+00 4.7103555723e+00 
1900 6.3696367033e+00 4.9840313120e-01 2.7105965137e+00 -4.6948908805e+00 2.7105965137e+00 4.6948908805e+00 
2000 6.3742847731e+00 5.1021065975e-01 2.7014081223e+00 -4.6789761198e+00 2.7014081223e+00 4.6789761198e+00 
2100 6.3776691574e+00 5.2128303675e-01 2.6919702230e+00 -4.6626291987e+00 2.6919702230e+00 4.6626291987e+00 
2200 6.3798094267e+00 5.3159647376e-01 2.6822938636e+00 -4.6458692526e+00 2.6822938636e+00 4.6458692526e+00 
2300 6.3807399435e+00 5.4114031557e-01 2.6723906247e+00 -4.6287163396e+00 2.6723906247e+00 4.6287163396e+00 
2400 6.3805083767e+00 5.4991784353e-01 2.6622723935e+00 -4.6111910491e+00 2.6622723935e+00 4.6111910491e+00 
2500 6.3791733557e+00 5.5794521299e-01 2.6519511186e+00 -4.5933140767e+00 2.6519511186e+00 4.5933140767e+00 
2600 6.3768015282e+00 5.6524873536e-01 2.6414385780e+00 -4.5751058222e+00 2.6414385780e+00 4.5751058222e+00 
2700 6.3734643959e+00 5.7186105360e-01 2.6307461928e+00 -4.5565860678e+00 2.6307461928e+00 4.5565860678e+00 
2800 6.3692353215e+00 5.7781694227e-01 2.6198849084e+00 -4.5377737714e+00 2.6198849084e+00 4.5377737714e+00 
2900 6.3641870331e+00 5.8314944608e-01 2.6088651519e+00 -4.5186869932e+00 2.6088651519e+00 4.5186869932e+00 
3000 6.3583898242e+00 5.8788688827e-01 2.5976968612e+00 -4.4993429463e+00 2.5976968612e+00 4.4993429463e+00 
3100 6.3519105053e+00 5.9205101732e-01 2.5863895716e+00 -4.4797581461e+00 2.5863895716e+00 4.4797581461e+00 
3200 6.3448120387e+00 5.9565630659e-01 2.5749525394e+00 -4.4599486254e+00 2.5749525394e+00 4.4599486254e+00 
3300 6.3371537096e+00 5.9871023802e-01 2.5633948825e+00 -4.4399301764e+00 2.5633948825e+00 4.4399301764e+00 
3400 6.3289916550e+00 6.0121430565e-01 2.5517257173e+00 -4.4197185894e+00 2.5517257173e+00 4.4197185894e+00 
3500 6.3203795748e+00 6.0316545651e-01 2.5399542806e+00 -4.3993298629e+00 2.5399542806e+00 4.3993298629e+00 
3600 6.3113694796e+00 6.0455771744e-01 2.5280900255e+00 -4.3787803702e+00 2.5280900255e+00 4.3787803702e+00 
3700 6.3020123657e+00 6.0538381062e-01 2.5161426878e+00 -4.3580869744e+00 2.5161426878e+00 4.3580869744e+00 
3800 6.2923587479e+00 6.0563661924e-01 2.5041223224e+00 -4.3372670907e+00 2.5041223224e+00 4.3372670907e+00 
3900 6.2824590131e+00 6.0531041705e-01 2.4920393104e+00 -4.3163387000e+00 2.4920393104e+00 4.3163387000e+00 
4000 6.2723635862e+00 6.0440181880e-01 2.4799043423e+00 -4.2953203187e+00 2.4799043423e+00 4.2953203187e+00 
4100 6.2621229178e+00 6.0291044134e-01 2.4677283811e+00 -4.2742309353e+00 2.4677283811e+00 4.2742309353e+00 
4200 6.2517873199e+00 6.0083928985e-01 2.4555226103e+00 -4.2530899201e+00 2.4555226103e+00 4.2530899201e+00 
4300 6.2414066802e+00 5.9819490060e-01 2.4432983723e+00 -4.2319169189e+00 2.4432983723e+00 4.2319169189e+00 
4400 6.2310300913e+00 5.9498728215e-01 2.4310671018e+00 -4.2107317369e+00 2.4310671018e+00 4.2107317369e+00 
4500 6.2207054316e+00 5.9122970158e-01 2.4188402571e+00 -4.1895542207e+00 2.4188402571e+00 4.1895542207e+00 
4600 6.2104789278e+00 5.8693836263e-01 2.4066292543e+00 -4.1684041434e+00 2.4066292543e+00 4.1684041434e+00 
4700 6.2003947279e+00 5.8213201842e-01 2.3944454047e+00 -4.1473010969e+00 2.3944454047e+00 4.1473010969e+00 
4800 6.1904945066e+00 5.7683155513e-01 2.3822998583e+00 -4.1262643935e+00 2.3822998583e+00 4.1262643935e+00 
4900 6.1808171166e+00 5.7105957555e-01 2.3702035537e+00 -4.1053129793e+00 2.3702035537e+00 4.1053129793e+00 
5000 6.1713982976e+00 5.6484000271e-01 2.3581671747e+00 -4.0844653593e+00 2.3581671747e+00 4.0844653593e+00 
5100 6.1622704470e+00 5.5819771720e-01 2.3462011134e+00 -4.0637395331e+00 2.3462011134e+00 4.0637395331e+00 
5200 6.1534624523e+00 5.5115823494e-01 2.3343154397e+00 -4.0431529424e+00 2.3343154397e+00 4.0431529424e+00 
5300 6.1449995856e+00 5.4374742791e-01 2.3225198765e+00 -4.0227224277e+00 2.3225198765e+00 4.0227224277e+00 
5400 6.1369034535e+00 5.3599128665e-01 2.3108237797e+00 -4.0024641937e+00 2.3108237797e+00 4.0024641937e+00 
5500 6.1291919992e+00 5.2791572146e-01 2.2992361221e+00 -3.9823937821e+00 2.2992361221e+00 3.9823937821e+00 
5600 6.1218795511e+00 5.1954639822e-01 2.2877654821e+00 -3.9625260508e+00 2.2877654821e+00 3.9625260508e+00 
5700 6.1149769100e+00 5.1090860416e-01 2.2764200343e+00 -3.9428751587e+00 2.2764200343e+00 3.9428751587e+00 
5800 6.1084914721e+00 5.0202713927e-01 2.2652075436e+00 -3.9234545553e+00 2.2652075436e+00 3.9234545553e+00 
5900 6.1024273799e+00 4.9292622930e-01 2.2541353614e+00 -3.9042769731e+00 2.2541353614e+00 3.9042769731e+00 
6000 6.0967856969e+00 4.8362945685e-01 2.2432104232e+00 -3.8853544250e+00 2.2432104232e+00 3.8853544250e+00 
6100 6.0915646013e+00 4.7415970747e-01 2.2324392483e+00 -3.8666982028e+00 2.2324392483e+00 3.8666982028e+00 
6200 6.0867595949e+00 4.6453912846e-01 2.2218279409e+00 -3.8483188794e+00 2.2218279409e+00 3.8483188794e+00 
6300 6.0823637215e+00 4.5478909809e-01 2.2113821923e+00 -3.8302263121e+00 2.2113821923e+00 3.8302263121e+00 
6400 6.0783677937e+00 4.4493020375e-01 2.2011072839e+00 -3.8124296486e+00 2.2011072839e+00 3.8124296486e+00 
6500 6.0747606230e+00 4.3498222740e-01 2.1910080912e+00 -3.7949373338e+00 2.1910080912e+00 3.7949373338e+00 
6600 6.0715292510e+00 4.2496413736e-01 2.1810890891e+00 -3.7777571181e+00 2.1810890891e+00 3.7777571181e+00 
6700 6.0686591791e+00 4.1489408530e-01 2.1713543569e+00 -3.7608960674e+00 2.1713543569e+00 3.7608960674e+00 
6800 6.0661345945e+00 4.0478940763e-01 2.1618075851e+00 -3.7443605736e+00 2.1618075851e+00 3.7443605736e+00 
6900 6.0639385902e+00 3.9466663064e-01 2.1524520818e+00 -3.7281563665e+00 2.1524520818e+00 3.7281563665e+00 
7000 6.0620533771e+00 3.8454147868e-01 2.1432907798e+00 -3.7122885261e+00 2.1432907798e+00 3.7122885261e+00 
7100 6.0604604878e+00 3.7442888489e-01 2.1343262449e+00 -3.6967614962e+00 2.1343262449e+00 3.6967614962e+00 
7200 6.0591409695e+00 3.6434300407e-01 2.1255606835e+00 -3.6815790984e+00 2.1255606835e+00 3.6815790984e+00 
7300 6.0580755652e+00 3.5429722715e-01 2.1169959511e+00 -3.6667445468e+00 2.1169959511e+00 3.6667445468e+00 
7400 6.0572448840e+00 3.4430419713e-01 2.1086335616e+00 -3.6522604633e+00 2.1086335616e+00 3.6522604633e+00 
7500 6.0566295574e+00 3.3437582604e-01 2.1004746960e+00 -3.6381288936e+00 2.1004746960e+00 3.6381288936e+00 
7600 6.0562103835e+00 3.2452331268e-01 2.0925202122e+00 -3.6243513233e+00 2.0925202122e+00 3.6243513233e+00 
7700 6.0559684575e+00 3.1475716114e-01 2.0847706542e+00 -3.6109286952e+00 2.0847706542e+00 3.6109286952e+00 
7800 6.0558852891e+00 3.0508719962e-01 2.0772262628e+00 -3.5978614260e+00 2.0772262628e+00 3.5978614260e+00 
7900 6.0559429062e+00 2.9552259971e-01 2.0698869853e+00 -3.5851494245e+00 2.0698869853e+00 3.5851494245e+00 
8000 6.0561239467e+00 2.8607189581e-01 2.0627524860e+00 -3.5727921092e+00 2.0627524860e+00 3.5727921092e+00 
8100 6.0564117368e+00 2.7674300480e-01 2.0558221568e+00 -3.5607884268e+00 2.0558221568e+00 3.5607884268e+00 
8200 6.0567903571e+00 2.6754324567e-01 2.0490951279e+00 -3.5491368710e+00 2.0490951279e+00 3.5491368710e+00 
8300 6.0572446978e+00 2.5847935924e-01 2.0425702788e+00 -3.5378355010e+00 2.0425702788e+00 3.5378355010e+00 
8400 6.0577605022e+00 2.4955752790e-01 2.0362462493e+00 -3.5268819605e+00 2.0362462493e+00 3.5268819605e+00 
8500 6.0583243997e+00 2.4078339522e-01 2.0301214503e+00 -3.5162734974e+00 2.0301214503e+00 3.5162734974e+00 
8600 6.0589239295e+00 2.3216208553e-01 2.0241940752e+00 -3.5060069827e+00 2.0241940752e+00 3.5060069827e+00 
8700 6.0595475546e+00 2.2369822346e-01 2.0184621112e+00 -3.4960789297e+00 2.0184621112e+00 3.4960789297e+00 
8800 6.0601846682e+00 2.1539595327e-01 2.0129233501e+00 -3.4864855141e+00 2.0129233501e+00 3.4864855141e+00 
8900 6.0608255915e+00 2.0725895810e-01 2.0075753998e+00 -3.4772225926e+00 2.0075753998e+00 3.4772225926e+00 
9000 6.0614615654e+00 1.9929047906e-01 2.0024156955e+00 -3.4682857224e+00 2.0024156955e+00 3.4682857224e+00 
9100 6.0620847354e+00 1.9149333418e-01 1.9974415103e+00 -3.4596701810e+00 1.9974415103e+00 3.4596701810e+00 
9200 6.0626881312e+00 1.8386993706e-01 1.9926499668e+00 -3.4513709841e+00 1.9926499668e+00 3.4513709841e+00 
9300 6.0632656411e+00 1.7642231542e-01 1.9880380474e+00 -3.4433829055e+00 1.9880380474e+00 3.4433829055e+00 
9400 6.0638119830e+00 1.6915212930e-01 1.9836026056e+00 -3.4357004949e+00 1.9836026056e+00 3.4357004949e+00 
9500 6.0643226705e+00 1.6206068905e-01 1.9793403759e+00 -3.4283180965e+00 1.9793403759e+00 3.4283180965e+00 
9600 6.0647939771e+00 1.5514897298e-01 1.9752479845e+00 -3.4212298667e+00 1.9752479845e+00 3.4212298667e+00 
9700 6.0652228972e+00 1.4841764471e-01 1.9713219595e+00 -3.4144297920e+00 1.9713219595e+00 3.4144297920e+00 
9800 6.0656071059e+00 1.4186707009e-01 1.9675587407e+00 -3.4079117058e+00 1.9675587407e+00 3.4079117058e+00 
9900 6.0659449160e+00 1.3549733381e-01 1.9639546891e+00 -3.4016693052e+00 1.9639546891e+00 3.4016693052e+00 
10000 6.0662352358e+00 1.2930825556e-01 1.9605060963e+00 -3.3956961674e+00 1.9605060963e+00 3.3956961674e+00 
10100 6.0664775244e+00 1.2329940569e-01 1.9572091940e+00 -3.3899857650e+00 1.9572091940e+00 3.3899857650e+00 
10200 6.0666717484e+00 1.1747012052e-01 1.9540601622e+00 -3.3845314819e+00 1.9540601622e+00 3.3845314819e+00 
10300 6.0668183374e+00 1.1181951702e-01 1.9510551381e+00 -3.3793266275e+00 1.9510551381e+00 3.3793266275e+00 
10400 6.0669181410e+00 1.0634650713e-01 1.9481902240e+00 -3.3743644509e+00 1.9481902240e+00 3.3743644509e+00 
10500 6.0669723854e+00 1.0104981141e-01 1.9454614956e+00 -3.3696381546e+00 1.9454614956e+00 3.3696381546e+00 
10600 6.0669826322e+00 9.5927972273e-02 1.9428650089e+00 -3.3651409077e+00 1.9428650089e+00 3.3651409077e+00 
10700 6.0669507369e+00 9.0979366580e-02 1.9403968078e+00 -3.3608658580e+00 1.9403968078e+00 3.3608658580e+00 
10800 6.0668788101e+00 8.6202217740e-02 1.9380529309e+00 -3.3568061441e+00 1.9380529309e+00 3.3568061441e+00 
10900 6.0667691794e+00 8.1594607226e-02 1.9358294181e+00 -3.3529549068e+00 1.9358294181e+00 3.3529549068e+00 
11000 6.0666243527e+00 7.7154485532e-02 1.9337223164e+00 -3.3493052998e+00 1.9337223164e+00 3.3493052998e+00 
11100 6.0664469844e+00 7.2879682585e-02 1.9317276866e+00 -3.3458504995e+00 1.9317276866e+00 3.3458504995e+00 
11200 6.0662398418e+00 6.8767917601e-02 1.9298416079e+00 -3.3425837154e+00 1.9298416079e+00 3.3425837154e+00 
11300 6.0660057747e+00 6.4816808397e-02 1.9280601838e+00 -3.3394981983e+00 1.9280601838e+00 3.3394981983e+00 
11400 6.0657476864e+00 6.1023880176e-02 1.9263795469e+00 -3.3365872498e+00 1.9263795469e+00 3.3365872498e+00 
11500 6.0654685066e+00 5.7386573789e-02 1.9247958633e+00 -3.3338442295e+00 1.9247958633e+00 3.3338442295e+00 
11600 6.0651711661e+00 5.3902253503e-02 1.9233053375e+00 -3.3312625630e+00 1.9233053375e+00 3.3312625630e+00 
11700 6.0648585743e+00 5.0568214272e-02 1.9219042156e+00 -3.3288357487e+00 1.9219042156e+00 3.3288357487e+00 
11800 6.0645335976e+00 4.7381688541e-02 1.9205887900e+00 -3.3265573647e+00 1.9205887900e+00 3.3265573647e+00 
11900 6.0641990401e+00 4.4339852614e-02 1.9193554022e+00 -3.3244210744e+00 1.9193554022e+00 3.3244210744e+00 
12000 6.0638576270e+00 4.1439832573e-02 1.9182004467e+00 -3.3224206328e+00 1.9182004467e+00 3.3224206328e+00 
12100 6.0635119882e+00 3.8678709814e-02 1.9171203734e+00 -3.3205498910e+00 1.9171203734e+00 3.3205498910e+00 
12200 6.0631646455e+00 3.6053526178e-02 1.9161116909e+00 -3.3188028016e+00 1.9161116909e+00 3.3188028016e+00 
12300 6.0628180000e+00 3.3561288734e-02 1.9151709688e+00 -3.3171734231e+00 1.9151709688e+00 3.3171734231e+00 
12400 6.0624743224e+00 3.1198974222e-02 1.9142948400e+00 -3.3156559235e+00 1.9142948400e+00 3.3156559235e+00 
12500 6.0621357441e+00 2.8963533171e-02 1.9134800031e+00 -3.3142445846e+00 1.9134800031e+00 3.3142445846e+00 
12600 6.0618042503e+00 2.6851893737e-02 1.9127232243e+00 -3.3129338053e+00 1.9127232243e+00 3.3129338053e+00 
12700 6.0614816744e+00 2.4860965263e-02 1.9120213389e+00 -3.3117181041e+00 1.9120213389e+00 3.3117181041e+00 
12800 6.0611696937e+00 2.2987641595e-02 1.9113712531e+00 -3.3105921225e+00 1.9113712531e+00 3.3105921225e+00 
12900 6.0608698268e+00 2.1228804169e-02 1.9107699457e+00 -3.3095506275e+00 1.9107699457e+00 3.3095506275e+00 
13000 6.0605834318e+00 1.9581324899e-02 1.9102144687e+00 -3.3085885131e+00 1.9102144687e+00 3.3085885131e+00 
13100 6.0603117059e+00 1.8042068880e-02 1.9097019490e+00 -3.3077008030e+00 1.9097019490e+00 3.3077008030e+00 
13200 6.0600556860e+00 1.6607896924e-02 1.9092295893e+00 -3.3068826520e+00 1.9092295893e+00 3.3068826520e+00 
13300 6.0598162508e+00 1.5275667959e-02 1.9087946687e+00 -3.3061293474e+00 1.9087946687e+00 3.3061293474e+00 
13400 6.0595941226e+00 1.4042241295e-02 1.9083945436e+00 -3.3054363103e+00 1.9083945436e+00 3.3054363103e+00 
13500 6.0593898717e+00 1.2904478794e-02 1.9080266482e+00 -3.3047990969e+00 1.9080266482e+00 3.3047990969e+00 
13600 6.0592039199e+00 1.1859246935e-02 1.9076884952e+00 -3.3042133988e+00 1.9076884952e+00 3.3042133988e+00 
13700 6.0590365461e+00 1.0903418813e-02 1.9073776760e+00 -3.3036750441e+00 1.9073776760e+00 3.3036750441e+00 
13800 6.0588878913e+00 1.0033876079e-02 1.9070918609e+00 -3.3031799978e+00 1.9070918609e+00 3.3031799978e+00 
13900 6.0587579653e+00 9.2475108250e-03 1.9068287995e+00 -3.3027243621e+00 1.9068287995e+00 3.3027243621e+00 
14000 6.0586466531e+00 8.5412274427e-03 1.9065863206e+00 -3.3023043763e+00 1.9065863206e+00 3.3023043763e+00 
14100 6.0585537220e+00 7.9119444565e-03 1.9063623323e+00 -3.3019164172e+00 1.9063623323e+00 3.3019164172e+00 
14200 6.0584788293e+00 7.3565963440e-03 1.9061548219e+00 -3.3015569987e+00 1.9061548219e+00 3.3015569987e+00 
14300 6.0584215299e+00 6.8721353550e-03 1.9059618556e+00 -3.3012227712e+00 1.9059618556e+00 3.3012227712e+00 
14400 6.0583812843e+00 6.4555333353e-03 1.9057815785e+00 -3.3009105221e+00 1.9057815785e+00 3.3009105221e+00 
14500 6.0583574670e+00 6.1037835624e-03 1.9056122139e+00 -3.3006171740e+00 1.9056122139e+00 3.3006171740e+00 
14600 6.0583493748e+00 5.8139026007e-03 1.9054520633e+00 -3.3003397851e+00 1.9054520633e+00 3.3003397851e+00 
14700 6.0583562350e+00 5.5829321781e-03 1.9052995057e+00 -3.3000755475e+00 1.9052995057e+00 3.3000755475e+00 
14800 6.0583772142e+00 5.4079410901e-03 1.9051529970e+00 -3.2998217869e+00 1.9051529970e+00 3.2998217869e+00 
14900 6.0584114265e+00 5.2860271324e-03 1.9050110694e+00 -3.2995759612e+00 1.9050110694e+00 3.2995759612e+00 
15000 6.0584579418e+00 5.2143190636e-03 1.9048723310e+00 -3.2993356593e+00 1.9048723310e+00 3.2993356593e+00 
15100 6.0585157944e+00 5.1899785978e-03 1.9047354647e+00 -3.2990985999e+00 1.9047354647e+00 3.2990985999e+00 
15200 6.0585839904e+00 5.2102024270e-03 1.9045992275e+00 -3.2988626301e+00 1.9045992275e+00 3.2988626301e+00 
15300 6.0586615163e+00 5.2722242696e-03 1.9044624497e+00 -3.2986257239e+00 1.9044624497e+00 3.2986257239e+00 
15400 6.0587473461e+00 5.3733169441e-03 1.9043240337e+00 -3.2983859805e+00 1.9043240337e+00 3.2983859805e+00 
15500 6.0588404492e+00 5.5107944615e-03 1.9041829534e+00 -3.2981416223e+00 1.9041829534e+00 3.2981416223e+00 
15600 6.0589397967e+00 5.6820141337e-03 1.9040382529e+00 -3.2978909936e+00 1.9040382529e+00 3.2978909936e+00 
15700 6.0590443689e+00 5.8843786895e-03 1.9038890453e+00 -3.2976325585e+00 1.9038890453e+00 3.2976325585e+00 
15800 6.0591531613e+00 6.1153383941e-03 1.9037345117e+00 -3.2973648983e+00 1.9037345117e+00 3.2973648983e+00 
15900 6.0592651904e+00 6.3723931616e-03 1.9035738997e+00 -3.2970867102e+00 1.9035738997e+00 3.2970867102e+00 
16000 6.0593794997e+00 6.6530946556e-03 1.9034065224e+00 -3.2967968042e+00 1.9034065224e+00 3.2967968042e+00 
16100 6.0594951649e+00 6.9550483658e-03 1.9032317570e+00 -3.2964941017e+00 1.9032317570e+00 3.2964941017e+00 
16200 6.0596112979e+00 7.2759156539e-03 1.9030490431e+00 -3.2961776319e+00 1.9030490431e+00 3.2961776319e+00 
16300 6.0597270520e+00 7.6134157577e-03 1.9028578816e+00 -3.2958465305e+00 1.9028578816e+00 3.2958465305e+00 
16400 6.0598416251e+00 7.9653277438e-03 1.9026578330e+00 -3.2955000361e+00 1.9026578330e+00 3.2955000361e+00 
16500 6.0599542635e+00 8.3294923986e-03 1.9024485157e+00 -3.2951374880e+00 1.9024485157e+00 3.2951374880e+00 
16600 6.0600642643e+00 8.7038140473e-03 1.9022296049e+00 -3.2947583233e+00 1.9022296049e+00 3.2947583233e+00 
16700 6.0601709783e+00 9.0862622914e-03 1.9020008302e+00 -3.2943620739e+00 1.9020008302e+00 3.2943620739e+00 
16800 6.0602738117e+00 9.4748736526e-03 1.9017619746e+00 -3.2939483639e+00 1.9017619746e+00 3.2939483639e+00 
16900 6.0603722275e+00 9.8677531156e-03 1.9015128722e+00 -3.2935169060e+00 1.9015128722e+00 3.2935169060e+00 
17000 6.0604657468e+00 1.0263075559e-02 1.9012534070e+00 -3.2930674990e+00 1.9012534070e+00 3.2930674990e+00 
17100 6.0605539495e+00 1.0659087064e-02 1.9009835105e+00 -3.2926000246e+00 1.9009835105e+00 3.2926000246e+00 
17200 6.0606364739e+00 1.1054106095e-02 1.9007031603e+00 -3.2921144437e+00 1.9007031603e+00 3.2921144437e+00 
17300 6.0607130171e+00 1.1446524545e-02 1.9004123778e+00 -3.2916107936e+00 1.9004123778e+00 3.2916107936e+00 
17400 6.0607833340e+00 1.1834808630e-02 1.9001112268e+00 -3.2910891848e+00 1.9001112268e+00 3.2910891848e+00 
17500 6.0608472365e+00 1.2217499638e-02 1.8997998112e+00 -3.2905497971e+00 1.8997998112e+00 3.2905497971e+00 
17600 6.0609045919e+00 1.2593214524e-02 1.8994782732e+00 -3.2899928771e+00 1.8994782732e+00 3.2899928771e+00 
17700 6.0609553215e+00 1.2960646333e-02 1.8991467914e+00 -3.2894187338e+00 1.8991467914e+00 3.2894187338e+00 
17800 6.0609993982e+00 1.3318564474e-02 1.8988055788e+00 -3.2888277362e+00 1.8988055788e+00 3.2888277362e+00 
17900 6.0610368447e+00 1.3665814812e-02 1.8984548806e+00 -3.2882203090e+00 1.8984548806e+00 3.2882203090e+00 
18000 6.0610677306e+00 1.4001319603e-02 1.8980949726e+00 -3.2875969301e+00 1.8980949726e+00 3.2875969301e+00 
18100 6.0610921697e+00 1.4324077252e-02 1.8977261589e+00 -3.2869581261e+00 1.8977261589e+00 3.2869581261e+00 
18200 6.0611103175e+00 1.4633161910e-02 1.8973487704e+00 -3.2863044700e+00 1.8973487704e+00 3.2863044700e+00 
18300 6.0611223671e+00 1.4927722896e-02 1.8969631621e+00 -3.2856365769e+00 1.8969631621e+00 3.2856365769e+00 
18400 6.0611285472e+00 1.5206983962e-02 1.8965697120e+00 -3.2849551014e+00 1.8965697120e+00 3.2849551014e+00 
18500 6.0611291177e+00 1.5470242394e-02 1.8961688186e+00 -3.2842607335e+00 1.8961688186e+00 3.2842607335e+00 
18600 6.0611243667e+00 1.5716867958e-02 1.8957608990e+00 -3.2835541961e+00 1.8957608990e+00 3.2835541961e+00 
18700 6.0611146073e+00 1.5946301697e-02 1.8953463875e+00 -3.2828362410e+00 1.8953463875e+00 3.2828362410e+00 
18800 6.0611001733e+00 1.6158054582e-02 1.8949257332e+00 -3.2821076464e+00 1.8949257332e+00 3.2821076464e+00 
18900 6.0610814168e+00 1.6351706026e-02 1.8944993986e+00 -3.2813692132e+00 1.8944993986e+00 3.2813692132e+00 
19000 6.0610587036e+00 1.6526902272e-02 1.8940678575e+00 -3.2806217622e+00 1.8940678575e+00 3.2806217622e+00 
19100 6.0610324106e+00 1.6683354658e-02 1.8936315937e+00 -3.2798661310e+00 1.8936315937e+00 3.2798661310e+00 
19200 6.0610029223e+00 1.6820837766e-02 1.8931910986e+00 -3.2791031712e+00 1.8931910986e+00 3.2791031712e+00 
19300 6.0609706275e+00 1.6939187481e-02 1.8927468703e+00 -3.2783337453e+00 1.8927468703e+00 3.2783337453e+00 
19400 6.0609359159e+00 1.7038298941e-02 1.8922994117e+00 -3.2775587241e+00 1.8922994117e+00 3.2775587241e+00 
19500 6.0608991759e+00 1.7118124415e-02 1.8918492286e+00 -3.2767789842e+00 1.8918492286e+00 3.2767789842e+00 
19600 6.0608607911e+00 1.7178671103e-02 1.8913968288e+00 -3.2759954048e+00 1.8913968288e+00 3.2759954048e+00 
19700 6.0608211382e+00 1.7219998879e-02 1.8909427204e+00 -3.2752088660e+00 1.8909427204e+00 3.2752088660e+00 
19800 6.0607805839e+00 1.7242217972e-02 1.8904874103e+00 -3.2744202457e+00 1.8904874103e+00 3.2744202457e+00 
19900 6.0607394835e+00 1.7245486609e-02 1.8900314029e+00 -3.2736304178e+00 1.8900314029e+00 3.2736304178e+00 
20000 6.0606981783e+00 1.7230008631e-02 1.8895751991e+00 -3.2728402495e+00 1.8895751991e+00 3.2728402495e+00 
20100 6.0606569938e+00 1.7196031072e-02 1.8891192946e+00 -3.2720505998e+00 1.8891192946e+00 3.2720505998e+00 
20200 6.0606162382e+00 1.7143841738e-02 1.8886641793e+00 -3.2712623170e+00 1.8886641793e+00 3.2712623170e+00 
20300 6.0605762011e+00 1.7073766772e-02 1.8882103359e+00 -3.2704762372e+00 1.8882103359e+00 3.2704762372e+00 
20400 6.0605371521e+00 1.6986168225e-02 1.8877582389e+00 -3.2696931822e+00 1.8877582389e+00 3.2696931822e+00 
20500 6.0604993399e+00 1.6881441642e-02 1.8873083536e+00 -3.2689139580e+00 1.8873083536e+00 3.2689139580e+00 
20600 6.0604629915e+00 1.6760013659e-02 1.8868611354e+00 -3.2681393533e+00 1.8868611354e+00 3.2681393533e+00 
20700 6.0604283118e+00 1.6622339638e-02 1.8864170286e+00 -3.2673701378e+00 1.8864170286e+00 3.2673701378e+00 
20800 6.0603954830e+00 1.6468901324e-02 1.8859764661e+00 -3.2666070612e+00 1.8859764661e+00 3.2666070612e+00 
20900 6.0603646646e+00 1.6300204549e-02 1.8855398682e+00 -3.2658508515e+00 1.8855398682e+00 3.2658508515e+00 
21000 6.0603359933e+00 1.6116776975e-02 1.8851076424e+00 -3.2651022144e+00 1.8851076424e+00 3.2651022144e+00 
21100 6.0603095835e+00 1.5919165894e-02 1.8846801822e+00 -3.2643618317e+00 1.8846801822e+00 3.2643618317e+00 
21200 6.0602855270e+00 1.5707936072e-02 1.8842578673e+00 -3.2636303608e+00 1.8842578673e+00 3.2636303608e+00 
21300 6.0602638941e+00 1.5483667661e-02 1.8838410625e+00 -3.2629084336e+00 1.8838410625e+00 3.2629084336e+00 
21400 6.0602447341e+00 1.5246954163e-02 1.8834301174e+00 -3.2621966558e+00 1.8834301174e+00 3.2621966558e+00 
21500 6.0602280760e+00 1.4998400468e-02 1.8830253663e+00 -3.2614956063e+00 1.8830253663e+00 3.2614956063e+00 
21600 6.0602139291e+00 1.4738620950e-02 1.8826271276e+00 -3.2608058367e+00 1.8826271276e+00 3.2608058367e+00 
21700 6.0602022846e+00 1.4468237636e-02 1.8822357035e+00 -3.2601278704e+00 1.8822357035e+00 3.2601278704e+00 
21800 6.0601931161e+00 1.4187878442e-02 1.8818513801e+00 -3.2594622027e+00 1.8818513801e+00 3.2594622027e+00 
21900 6.0601863811e+00 1.3898175483e-02 1.8814744267e+00 -3.2588093003e+00 1.8814744267e+00 3.2588093003e+00 
22000 6.0601820218e+00 1.3599763454e-02 1.8811050962e+00 -3.2581696009e+00 1.8811050962e+00 3.2581696009e+00 
22100 6.0601799670e+00 1.3293278077e-02 1.8807436244e+00 -3.2575435135e+00 1.8807436244e+00 3.2575435135e+00 
22200 6.0601801326e+00 1.2979354631e-02 1.8803902306e+00 -3.2569314175e+00 1.8803902306e+00 3.2569314175e+00 
22300 6.0601824234e+00 1.2658626539e-02 1.8800451172e+00 -3.2563336636e+00 1.8800451172e+00 3.2563336636e+00 
22400 6.0601867345e+00 1.2331724042e-02 1.8797084698e+00 -3.2557505730e+00 1.8797084698e+00 3.2557505730e+00 
22500 6.0601929520e+00 1.1999272929e-02 1.8793804570e+00 -3.2551824384e+00 1.8793804570e+00 3.2551824384e+00 
22600 6.0602009550e+00 1.1661893345e-02 1.8790612313e+00 -3.2546295231e+00 1.8790612313e+00 3.2546295231e+00 
22700 6.0602106165e+00 1.1320198661e-02 1.8787509281e+00 -3.2540920623e+00 1.8787509281e+00 3.2540920623e+00 
22800 6.0602218048e+00 1.0974794418e-02 1.8784496669e+00 -3.2535702626e+00 1.8784496669e+00 3.2535702626e+00 
22900 6.0602343846e+00 1.0626277326e-02 1.8781575508e+00 -3.2530643025e+00 1.8781575508e+00 3.2530643025e+00 
23000 6.0602482182e+00 1.0275234335e-02 1.8778746669e+00 -3.2525743332e+00 1.8778746669e+00 3.2525743332e+00 
23100 6.0602631669e+00 9.9222417660e-03 1.8776010867e+00 -3.2521004785e+00 1.8776010867e+00 3.2521004785e+00 
23200 6.0602790915e+00 9.5678644988e-03 1.8773368663e+00 -3.2516428354e+00 1.8773368663e+00 3.2516428354e+00 
23300 6.0602958537e+00 9.2126552225e-03 1.8770820466e+00 -3.2512014748e+00 1.8770820466e+00 3.2512014748e+00 
23400 6.0603133173e+00 8.8571537403e-03 1.8768366537e+00 -3.2507764417e+00 1.8768366537e+00 3.2507764417e+00 
23500 6.0603313483e+00 8.5018863305e-03 1.8766006990e+00 -3.2503677562e+00 1.8766006990e+00 3.2503677562e+00 
23600 6.0603498165e+00 8.1473651599e-03 1.8763741800e+00 -3.2499754137e+00 1.8763741800e+00 3.2499754137e+00 
23700 6.0603685957e+00 7.7940877496e-03 1.8761570802e+00 -3.2495993859e+00 1.8761570802e+00 3.2495993859e+00 
23800 6.0603875644e+00 7.4425364898e-03 1.8759493699e+00 -3.2492396211e+00 1.8759493699e+00 3.2492396211e+00 
23900 6.0604066070e+00 7.0931782031e-03 1.8757510062e+00 -3.2488960450e+00 1.8757510062e+00 3.2488960450e+00 
24000 6.0604256132e+00 6.7464637536e-03 1.8755619337e+00 -3.2485685618e+00 1.8755619337e+00 3.2485685618e+00 
24100 6.0604444796e+00 6.4028277017e-03 1.8753820847e+00 -3.2482570544e+00 1.8753820847e+00 3.2482570544e+00 
24200 6.0604631091e+00 6.0626880012e-03 1.8752113800e+00 -3.2479613852e+00 1.8752113800e+00 3.2479613852e+00 
24300 6.0604814118e+00 5.7264457383e-03 1.8750497289e+00 -3.2476813972e+00 1.8750497289e+00 3.2476813972e+00 
24400 6.0604993050e+00 5.3944849102e-03 1.8748970298e+00 -3.2474169146e+00 1.8748970298e+00 3.2474169146e+00 
24500 6.0605167135e+00 5.0671722434e-03 1.8747531708e+00 -3.2471677435e+00 1.8747531708e+00 3.2471677435e+00 
24600 6.0605335693e+00 4.7448570480e-03 1.8746180301e+00 -3.2469336728e+00 1.8746180301e+00 3.2469336728e+00 
24700 6.0605498121e+00 4.4278711084e-03 1.8744914762e+00 -3.2467144751e+00 1.8744914762e+00 3.2467144751e+00 
24800 6.0605653891e+00 4.1165286080e-03 1.8743733688e+00 -3.2465099072e+00 1.8743733688e+00 3.2465099072e+00 
24900 6.0605802547e+00 3.8111260878e-03 1.8742635591e+00 -3.2463197111e+00 1.8742635591e+00 3.2463197111e+00 
25000 6.0605943709e+00 3.5119424361e-03 1.8741618901e+00 -3.2461436152e+00 1.8741618901e+00 3.2461436152e+00 
25100 6.0606077065e+00 3.2192389090e-03 1.8740681972e+00 -3.2459813343e+00 1.8740681972e+00 3.2459813343e+00 
25200 6.0606202374e+00 2.9332591810e-03 1.8739823088e+00 -3.2458325713e+00 1.8739823088e+00 3.2458325713e+00 
25300 6.0606319462e+00 2.6542294229e-03 1.8739040466e+00 -3.2456970172e+00 1.8739040466e+00 3.2456970172e+00 
25400 6.0606428218e+00 2.3823584080e-03 1.8738332262e+00 -3.2455743527e+00 1.8738332262e+00 3.2455743527e+00 
25500 6.0606528590e+00 2.1178376431e-03 1.8737696574e+00 -3.2454642483e+00 1.8737696574e+00 3.2454642483e+00 
25600 6.0606620587e+00 1.8608415255e-03 1.8737131450e+00 -3.2453663659e+00 1.8737131450e+00 3.2453663659e+00 
25700 6.0606704269e+00 1.6115275237e-03 1.8736634887e+00 -3.2452803586e+00 1.8736634887e+00 3.2452803586e+00 
25800 6.0606779749e+00 1.3700363805e-03 1.8736204841e+00 -3.2452058726e+00 1.8736204841e+00 3.2452058726e+00 
25900 6.0606847183e+00 1.1364923385e-03 1.8735839230e+00 -3.2451425469e+00 1.8735839230e+00 3.2451425469e+00 
26000 6.0606906773e+00 9.1100338644e-04 1.8735535937e+00 -3.2450900150e+00 1.8735535937e+00 3.2450900150e+00 
26100 6.0606958758e+00 6.9366152488e-04 1.8735292816e+00 -3.2450479052e+00 1.8735292816e+00 3.2450479052e+00 
26200 6.0607003411e+00 4.8454305139e-04 1.8735107695e+00 -3.2450158413e+00 1.8735107695e+00 3.2450158413e+00 
26300 6.0607041037e+00 2.8370886325e-04 1.8734978381e+00 -3.2449934434e+00 1.8734978381e+00 3.2449934434e+00 
26400 6.0607071968e+00 9.1204777287e-05 1.8734902664e+00 -3.2449803290e+00 1.8734902664e+00 3.2449803290e+00 
26500 6.0607096556e+00 -9.2938134370e-05 1.8734878324e+00 -3.2449761130e+00 1.8734878324e+00 3.2449761130e+00 
26600 6.0607115175e+00 -2.6870319343e-04 1.8734903127e+00 -3.2449804091e+00 1.8734903127e+00 3.2449804091e+00 
26700 6.0607128214e+00 -4.3608775046e-04 1.8734974839e+00 -3.2449928300e+00 1.8734974839e+00 3.2449928300e+00 
26800 6.0607136072e+00 -5.9510280675e-04 1.8735091222e+00 -3.2450129882e+00 1.8735091222e+00 3.2450129882e+00 
26900 6.0607139157e+00 -7.4577262381e-04 1.8735250043e+00 -3.2450404967e+00 1.8735250043e+00 3.2450404967e+00 
27000 6.0607137884e+00 -8.8813432154e-04 1.8735449073e+00 -3.2450749696e+00 1.8735449073e+00 3.2450749696e+00 
27100 6.0607132666e+00 -1.0222374660e-03 1.8735686093e+00 -3.2451160228e+00 1.8735686093e+00 3.2451160228e+00 
27200 6.0607123917e+00 -1.1481436476e-03 1.8735958899e+00 -3.2451632741e+00 1.8735958899e+00 3.2451632741e+00 
27300 6.0607112049e+00 -1.2659260502e-03 1.8736265300e+00 -3.2452163444e+00 1.8736265300e+00 3.2452163444e+00 
27400 6.0607097464e+00 -1.3756690134e-03 1.8736603129e+00 -3.2452748581e+00 1.8736603129e+00 3.2452748581e+00 
27500 6.0607080558e+00 -1.4774675868e-03 1.8736970238e+00 -3.2453384432e+00 1.8736970238e+00 3.2453384432e+00 
27600 6.0607061715e+00 -1.5714270789e-03 1.8737364504e+00 -3.2454067322e+00 1.8737364504e+00 3.2454067322e+00 
27700 6.0607041305e+00 -1.6576626006e-03 1.8737783836e+00 -3.2454793625e+00 1.8737783836e+00 3.2454793625e+00 
27800 6.0607019687e+00 -1.7362986041e-03 1.8738226169e+00 -3.2455559769e+00 1.8738226169e+00 3.2455559769e+00 
27900 6.0606997200e+00 -1.8074684189e-03 1.8738689475e+00 -3.2456362238e+00 1.8738689475e+00 3.2456362238e+00 
28000 6.0606974168e+00 -1.8713137845e-03 1.8739171760e+00 -3.2457197579e+00 1.8739171760e+00 3.2457197579e+00 
28100 6.0606950895e+00 -1.9279843815e-03 1.8739671067e+00 -3.2458062405e+00 1.8739671067e+00 3.2458062405e+00 
28200 6.0606927666e+00 -1.9776373615e-03 1.8740185482e+00 -3.2458953398e+00 1.8740185482e+00 3.2458953398e+00 
28300 6.0606904748e+00 -2.0204368766e-03 1.8740713131e+00 -3.2459867312e+00 1.8740713131e+00 3.2459867312e+00 
28400 6.0606882384e+00 -2.0565536099e-03 1.8741252183e+00 -3.2460800979e+00 1.8741252183e+00 3.2460800979e+00 
28500 6.0606860798e+00 -2.0861643063e-03 1.8741800856e+00 -3.2461751308e+00 1.8741800856e+00 3.2461751308e+00 
28600 6.0606840192e+00 -2.1094513061e-03 1.8742357413e+00 -3.2462715293e+00 1.8742357413e+00 3.2462715293e+00 
28700 6.0606820746e+00 -2.1266020809e-03 1.8742920165e+00 -3.2463690009e+00 1.8742920165e+00 3.2463690009e+00 
28800 6.0606802620e+00 -2.1378087726e-03 1.8743487476e+00 -3.2464672620e+00 1.8743487476e+00 3.2464672620e+00 
28900 6.0606785953e+00 -2.1432677371e-03 1.8744057760e+00 -3.2465660380e+00 1.8744057760e+00 3.2465660380e+00 
29000 6.0606770863e+00 -2.1431790923e-03 1.8744629482e+00 -3.2466650632e+00 1.8744629482e+00 3.2466650632e+00 
29100 6.0606757447e+00 -2.1377462711e-03 1.8745201163e+00 -3.2467640812e+00 1.8745201163e+00 3.2467640812e+00 
29200 6.0606745784e+00 -2.1271755815e-03 1.8745771377e+00 -3.2468628453e+00 1.8745771377e+00 3.2468628453e+00 
29300 6.0606735934e+00 -2.1116757718e-03 1.8746338755e+00 -3.2469611180e+00 1.8746338755e+00 3.2469611180e+00 
29400 6.0606727938e+00 -2.0914576046e-03 1.8746901981e+00 -3.2470586716e+00 1.8746901981e+00 3.2470586716e+00 
29500 6.0606721820e+00 -2.0667334367e-03 1.8747459798e+00 -3.2471552884e+00 1.8747459798e+00 3.2471552884e+00 
29600 6.0606717589e+00 -2.0377168089e-03 1.8748011005e+00 -3.2472507601e+00 1.8748011005e+00 3.2472507601e+00 
29700 6.0606715237e+00 -2.0046220436e-03 1.8748554456e+00 -3.2473448887e+00 1.8748554456e+00 3.2473448887e+00 
29800 6.0606714743e+00 -1.9676638519e-03 1.8749089066e+00 -3.2474374858e+00 1.8749089066e+00 3.2474374858e+00 
29900 6.0606716073e+00 -1.9270569502e-03 1.8749613804e+00 -3.2475283731e+00 1.8749613804e+00 3.2475283731e+00 
30000 6.0606719180e+00 -1.8830156876e-03 1.8750127699e+00 -3.2476173823e+00 1.8750127699e+00 3.2476173823e+00 
30100 6.0606724006e+00 -1.8357536828e-03 1.8750629835e+00 -3.2477043548e+00 1.8750629835e+00 3.2477043548e+00 
30200 6.0606730484e+00 -1.7854834725e-03 1.8751119355e+00 -3.2477891422e+00 1.8751119355e+00 3.2477891422e+00 
30300 6.0606738537e+00 -1.7324161716e-03 1.8751595458e+00 -3.2478716056e+00 1.8751595458e+00 3.2478716056e+00 
30400 6.0606748082e+00 -1.6767611439e-03 1.8752057398e+00 -3.2479516160e+00 1.8752057398e+00 3.2479516160e+00 
30500 6.0606759027e+00 -1.6187256851e-03 1.8752504487e+00 -3.2480290541e+00 1.8752504487e+00 3.2480290541e+00 
30600 6.0606771278e+00 -1.5585147187e-03 1.8752936091e+00 -3.2481038101e+00 1.8752936091e+00 3.2481038101e+00 
30700 6.0606784733e+00 -1.4963305032e-03 1.8753351632e+00 -3.2481757838e+00 1.8753351632e+00 3.2481757838e+00 
30800 6.0606799288e+00 -1.4323723527e-03 1.8753750583e+00 -3.2482448842e+00 1.8753750583e+00 3.2482448842e+00 
30900 6.0606814837e+00 -1.3668363701e-03 1.8754132474e+00 -3.2483110297e+00 1.8754132474e+00 3.2483110297e+00 
31000 6.0606831272e+00 -1.2999151931e-03 1.8754496885e+00 -3.2483741474e+00 1.8754496885e+00 3.2483741474e+00 
31100 6.0606848484e+00 -1.2317977535e-03 1.8754843447e+00 -3.2484341737e+00 1.8754843447e+00 3.2484341737e+00 
31200 6.0606866364e+00 -1.1626690502e-03 1.8755171842e+00 -3.2484910535e+00 1.8755171842e+00 3.2484910535e+00 
31300 6.0606884805e+00 -1.0927099344e-03 1.8755481803e+00 -3.2485447402e+00 1.8755481803e+00 3.2485447402e+00 
31400 6.0606903700e+00 -1.0220969092e-03 1.8755773107e+00 -3.2485951957e+00 1.8755773107e+00 3.2485951957e+00 
31500 6.0606922946e+00 -9.5100194247e-04 1.8756045583e+00 -3.2486423899e+00 1.8756045583e+00 3.2486423899e+00 
31600 6.0606942443e+00 -8.7959229240e-04 1.8756299103e+00 -3.2486863008e+00 1.8756299103e+00 3.2486863008e+00 
31700 6.0606962092e+00 -8.0803034730e-04 1.8756533582e+00 -3.2487269139e+00 1.8756533582e+00 3.2487269139e+00 
31800 6.0606981800e+00 -7.3647347826e-04 1.8756748982e+00 -3.2487642222e+00 1.8756748982e+00 3.2487642222e+00 
31900 6.0607001479e+00 -6.6507390521e-04 1.8756945305e+00 -3.2487982263e+00 1.8756945305e+00 3.2487982263e+00 
32000 6.0607021044e+00 -5.9397857613e-04 1.8757122593e+00 -3.2488289334e+00 1.8757122593e+00 3.2488289334e+00 
32100 6.0607040417e+00 -5.2332905931e-04 1.8757280927e+00 -3.2488563578e+00 1.8757280927e+00 3.2488563578e+00 
32200 6.0607059524e+00 -4.5326144853e-04 1.8757420428e+00 -3.2488805199e+00 1.8757420428e+00 3.2488805199e+00 
32300 6.0607078297e+00 -3.8390628096e-04 1.8757541250e+00 -3.2489014469e+00 1.8757541250e+00 3.2489014469e+00 
32400 6.0607096673e+00 -3.1538846759e-04 1.8757643584e+00 -3.2489191717e+00 1.8757643584e+00 3.2489191717e+00 
32500 6.0607114597e+00 -2.4782723608e-04 1.8757727653e+00 -3.2489337329e+00 1.8757727653e+00 3.2489337329e+00 
32600 6.0607132018e+00 -1.8133608565e-04 1.8757793713e+00 -3.2489451749e+00 1.8757793713e+00 3.2489451749e+00 
32700 6.0607148892e+00 -1.1602275388e-04 1.8757842049e+00 -3.2489535470e+00 1.8757842049e+00 3.2489535470e+00 
32800 6.0607165180e+00 -5.1989195167e-05 1.8757872976e+00 -3.2489589036e+00 1.8757872976e+00 3.2489589036e+00 
32900 6.0607180849e+00 9.5512568928e-06 1.8757872976e+00 -3.2489589036e+00 1.8757872976e+00 3.2489589036e+00 
33000 6.0607195872e+00 7.0965284620e-05 1.8757872976e+00 -3.2489589036e+00 1.8757872976e+00 3.2489589036e+00 
33100 6.0607210229e+00 1.3061953418e-04 1.8757854060e+00 -3.2489556272e+00 1.8757854060e+00 3.2489556272e+00 
33200 6.0607223904e+00 1.8864374682e-04 1.8757819242e+00 -3.2489495967e+00 1.8757819242e+00 3.2489495967e+00 
33300 6.0607236886e+00 2.4496484311e-04 1.8757768958e+00 -3.2489408872e+00 1.8757768958e+00 3.2489408872e+00 
33400 6.0607249170e+00 2.9951542827e-04 1.8757703661e+00 -3.2489295775e+00 1.8757703661e+00 3.2489295775e+00 
33500 6.0607260756e+00 3.5223374122e-04 1.8757623823e+00 -3.2489157491e+00 1.8757623823e+00 3.2489157491e+00 
33600 6.0607271646e+00 4.0306359453e-04 1.8757529933e+00 -3.2488994868e+00 1.8757529933e+00 3.2488994868e+00 
33700 6.0607281849e+00 4.5195430581e-04 1.8757422492e+00 -3.2488808776e+00 1.8757422492e+00 3.2488808776e+00 
33800 6.0607291376e+00 4.9886062088e-04 1.8757302019e+00 -3.2488600110e+00 1.8757302019e+00 3.2488600110e+00 
33900 6.0607300244e+00 5.4374262910e-04 1.8757169041e+00 -3.2488369786e+00 1.8757169041e+00 3.2488369786e+00 
34000 6.0607308471e+00 5.8656567123e-04 1.8757024099e+00 -3.2488118738e+00 1.8757024099e+00 3.2488118738e+00 
34100 6.0607316079e+00 6.2730024030e-04 1.8756867740e+00 -3.2487847917e+00 1.8756867740e+00 3.2487847917e+00 
34200 6.0607323092e+00 6.6592187580e-04 1.8756700522e+00 -3.2487558286e+00 1.8756700522e+00 3.2487558286e+00 
34300 6.0607329536e+00 7.0241105164e-04 1.8756523006e+00 -3.2487250820e+00 1.8756523006e+00 3.2487250820e+00 
34400 6.0607335441e+00 7.3675305831e-04 1.8756335762e+00 -3.2486926504e+00 1.8756335762e+00 3.2486926504e+00 
34500 6.0607340837e+00 7.6893787961e-04 1.8756139361e+00 -3.2486586328e+00 1.8756139361e+00 3.2486586328e+00 
34600 6.0607345756e+00 7.9896006432e-04 1.8755934379e+00 -3.2486231287e+00 1.8755934379e+00 3.2486231287e+00 
34700 6.0607350230e+00 8.2681859327e-04 1.8755721391e+00 -3.2485862381e+00 1.8755721391e+00 3.2485862381e+00 
34800 6.0607354293e+00 8.5251674226e-04 1.8755500973e+00 -3.2485480607e+00 1.8755500973e+00 3.2485480607e+00 
34900 6.0607357979e+00 8.7606194107e-04 1.8755273703e+00 -3.2485086963e+00 1.8755273703e+00 3.2485086963e+00 
35000 6.0607361323e+00 8.9746562903e-04 1.8755040152e+00 -3.2484682442e+00 1.8755040152e+00 3.2484682442e+00 
35100 6.0607364358e+00 9.1674310768e-04 1.8754800893e+00 -3.2484268032e+00 1.8754800893e+00 3.2484268032e+00 
35200 6.0607367120e+00 9.3391339056e-04 1.8754556491e+00 -3.2483844716e+00 1.8754556491e+00 3.2483844716e+00 
35300 6.0607369640e+00 9.4899905092e-04 1.8754307509e+00 -3.2483413466e+00 1.8754307509e+00 3.2483413466e+00 
35400 6.0607371953e+00 9.6202606733e-04 1.8754054501e+00 -3.2482975244e+00 1.8754054501e+00 3.2482975244e+00 
35500 6.0607374090e+00 9.7302366784e-04 1.8753798017e+00 -3.2482531000e+00 1.8753798017e+00 3.2482531000e+00 
35600 6.0607376082e+00 9.8202417286e-04 1.8753538597e+00 -3.2482081672e+00 1.8753538597e+00 3.2482081672e+00 
35700 6.0607377959e+00 9.8906283717e-04 1.8753276774e+00 -3.2481628181e+00 1.8753276774e+00 3.2481628181e+00 
35800 6.0607379749e+00 9.9417769142e-04 1.8753013070e+00 -3.2481171433e+00 1.8753013070e+00 3.2481171433e+00 
35900 6.0607381479e+00 9.9740938337e-04 1.8752748000e+00 -3.2480712317e+00 1.8752748000e+00 3.2480712317e+00 
36000 6.0607383174e+00 9.9880101920e-04 1.8752482063e+00 -3.2480251702e+00 1.8752482063e+00 3.2480251702e+00 
36100 6.0607384858e+00 9.9839800529e-04 1.8752215752e+00 -3.2479790437e+00 1.8752215752e+00 3.2479790437e+00 
36200 6.0607386553e+00 9.9624789055e-04 1.8751949545e+00 -3.2479329353e+00 1.8751949545e+00 3.2479329353e+00 
36300 6.0607388279e+00 9.9240020980e-04 1.8751683907e+00 -3.2478869255e+00 1.8751683907e+00 3.2478869255e+00 
36400 6.0607390054e+00 9.8690632835e-04 1.8751419291e+00 -3.2478410927e+00 1.8751419291e+00 3.2478410927e+00 
36500 6.0607391895e+00 9.7981928806e-04 1.8751156137e+00 -3.2477955130e+00 1.8751156137e+00 3.2477955130e+00 
36600 6.0607393816e+00 9.7119365505e-04 1.8750894868e+00 -3.2477502600e+00 1.8750894868e+00 3.2477502600e+00 
36700 6.0607395830e+00 9.6108536949e-04 1.8750635896e+00 -3.2477054047e+00 1.8750635896e+00 3.2477054047e+00 
36800 6.0607397948e+00 9.4955159746e-04 1.8750379616e+00 -3.2476610157e+00 1.8750379616e+00 3.2476610157e+00 
36900 6.0607400180e+00 9.3665058521e-04 1.8750126408e+00 -3.2476171587e+00 1.8750126408e+00 3.2476171587e+00 
37000 6.0607402532e+00 9.2244151604e-04 1.8749876637e+00 -3.2475738971e+00 1.8749876637e+00 3.2475738971e+00 
37100 6.0607405011e+00 9.0698436990e-04 1.8749630652e+00 -3.2475312912e+00 1.8749630652e+00 3.2475312912e+00 
37200 6.0607407621e+00 8.9033978591e-04 1.8749388785e+00 -3.2474893986e+00 1.8749388785e+00 3.2474893986e+00 
37300 6.0607410363e+00 8.7256892808e-04 1.8749151354e+00 -3.2474482743e+00 1.8749151354e+00 3.2474482743e+00 
37400 6.0607413240e+00 8.5373335409e-04 1.8748918658e+00 -3.2474079703e+00 1.8748918658e+00 3.2474079703e+00 
37500 6.0607416251e+00 8.3389488767e-04 1.8748690984e+00 -3.2473685359e+00 1.8748690984e+00 3.2473685359e+00 
37600 6.0607419394e+00 8.1311549430e-04 1.8748468597e+00 -3.2473300173e+00 1.8748468597e+00 3.2473300173e+00 
37700 6.0607422666e+00 7.9145716068e-04 1.8748251748e+00 -3.2472924581e+00 1.8748251748e+00 3.2472924581e+00 
37800 6.0607426064e+00 7.6898177784e-04 1.8748040674e+00 -3.2472558990e+00 1.8748040674e+00 3.2472558990e+00 
37900 6.0607429583e+00 7.4575102814e-04 1.8747835591e+00 -3.2472203776e+00 1.8747835591e+00 3.2472203776e+00 
38000 6.0607433215e+00 7.2182627610e-04 1.8747636702e+00 -3.2471859289e+00 1.8747636702e+00 3.2471859289e+00 
38100 6.0607436956e+00 6.9726846334e-04 1.8747444191e+00 -3.2471525850e+00 1.8747444191e+00 3.2471525850e+00 
38200 6.0607440796e+00 6.7213800744e-04 1.8747258227e+00 -3.2471203752e+00 1.8747258227e+00 3.2471203752e+00 
38300 6.0607444728e+00 6.4649470498e-04 1.8747078965e+00 -3.2470893260e+00 1.8747078965e+00 3.2470893260e+00 
38400 6.0607448744e+00 6.2039763871e-04 1.8746906539e+00 -3.2470594611e+00 1.8746906539e+00 3.2470594611e+00 
38500 6.0607452834e+00 5.9390508889e-04 1.8746741073e+00 -3.2470308015e+00 1.8746741073e+00 3.2470308015e+00 
38600 6.0607456988e+00 5.6707444889e-04 1.8746582671e+00 -3.2470033654e+00 1.8746582671e+00 3.2470033654e+00 
38700 6.0607461197e+00 5.3996214491e-04 1.8746431424e+00 -3.2469771686e+00 1.8746431424e+00 3.2469771686e+00 
38800 6.0607465452e+00 5.1262356010e-04 1.8746287407e+00 -3.2469522241e+00 1.8746287407e+00 3.2469522241e+00 
38900 6.0607469741e+00 4.8511296275e-04 1.8746150680e+00 -3.2469285424e+00 1.8746150680e+00 3.2469285424e+00 
39000 6.0607474056e+00 4.5748343888e-04 1.8746021290e+00 -3.2469061314e+00 1.8746021290e+00 3.2469061314e+00 
39100 6.0607478386e+00 4.2978682888e-04 1.8745899269e+00 -3.2468849967e+00 1.8745899269e+00 3.2468849967e+00 
39200 6.0607482721e+00 4.0207366855e-04 1.8745784634e+00 -3.2468651414e+00 1.8745784634e+00 3.2468651414e+00 
39300 6.0607487053e+00 3.7439313414e-04 1.8745677390e+00 -3.2468465662e+00 1.8745677390e+00 3.2468465662e+00 
39400 6.0607491371e+00 3.4679299161e-04 1.8745577529e+00 -3.2468292698e+00 1.8745577529e+00 3.2468292698e+00 
39500 6.0607495668e+00 3.1931955002e-04 1.8745485029e+00 -3.2468132484e+00 1.8745485029e+00 3.2468132484e+00 
39600 6.0607499933e+00 2.9201761894e-04 1.8745399857e+00 -3.2467984961e+00 1.8745399857e+00 3.2467984961e+00 
39700 6.0607504160e+00 2.6493046987e-04 1.8745321967e+00 -3.2467850051e+00 1.8745321967e+00 3.2467850051e+00 
39800 6.0607508340e+00 2.3809980160e-04 1.8745251301e+00 -3.2467727654e+00 1.8745251301e+00 3.2467727654e+00 
39900 6.0607512467e+00 2.1156570955e-04 1.8745187792e+00 -3.2467617653e+00 1.8745187792e+00 3.2467617653e+00 
40000 6.0607516533e+00 1.8536665875e-04 1.8745131360e+00 -3.2467519910e+00 1.8745131360e+00 3.2467519910e+00 
40100 6.0607520532e+00 1.5953946079e-04 1.8745081916e+00 -3.2467434270e+00 1.8745081916e+00 3.2467434270e+00 
40200 6.0607524460e+00 1.3411925430e-04 1.8745039361e+00 -3.2467360563e+00 1.8745039361e+00 3.2467360563e+00 
40300 6.0607528310e+00 1.0913948909e-04 1.8745003586e+00 -3.2467298599e+00 1.8745003586e+00 3.2467298599e+00 
40400 6.0607532078e+00 8.4631913764e-05 1.8744974475e+00 -3.2467248176e+00 1.8744974475e+00 3.2467248176e+00 
40500 6.0607535761e+00 6.0626566868e-05 1.8744951900e+00 -3.2467209076e+00 1.8744951900e+00 3.2467209076e+00 
40600 6.0607539355e+00 3.8459367155e-05 1.8744951900e+00 -3.2467209076e+00 1.8744951900e+00 3.2467209076e+00 
40700 6.0607542856e+00 1.6350503836e-05 1.8744951900e+00 -3.2467209076e+00 1.8744951900e+00 3.2467209076e+00 
40800 6.0607546263e+00 -5.6657823927e-06 1.8744951900e+00 -3.2467209076e+00 1.8744951900e+00 3.2467209076e+00 
40900 6.0607549574e+00 -2.7556460359e-05 1.8744951900e+00 -3.2467209076e+00 1.8744951900e+00 3.2467209076e+00 
41000 6.0607552789e+00 -4.9289726567e-05 1.8744951900e+00 -3.2467209076e+00 1.8744951900e+00 3.2467209076e+00 
41100 6.0607555908e+00 -7.0835020697e-05 1.8744951900e+00 -3.2467209076e+00 1.8744951900e+00 3.2467209076e+00 
41200 6.0607558929e+00 -9.0635507087e-05 1.8744970794e+00 -3.2467241802e+00 1.8744970794e+00 3.2467241802e+00 
41300 6.0607561852e+00 -1.0975497660e-04 1.8744994970e+00 -3.2467283676e+00 1.8744994970e+00 3.2467283676e+00 
41400 6.0607564679e+00 -1.2817866913e-04 1.8745024246e+00 -3.2467334384e+00 1.8745024246e+00 3.2467334384e+00 
41500 6.0607567411e+00 -1.4589345530e-04 1.8745058436e+00 -3.2467393602e+00 1.8745058436e+00 3.2467393602e+00 
41600 6.0607570049e+00 -1.6288781403e-04 1.8745097351e+00 -3.2467461006e+00 1.8745097351e+00 3.2467461006e+00 
41700 6.0607572595e+00 -1.7915180787e-04 1.8745140800e+00 -3.2467536260e+00 1.8745140800e+00 3.2467536260e+00 
41800 6.0607575052e+00 -1.9467705619e-04 1.8745188586e+00 -3.2467619028e+00 1.8745188586e+00 3.2467619028e+00 
41900 6.0607577421e+00 -2.0945670642e-04 1.8745240513e+00 -3.2467708969e+00 1.8745240513e+00 3.2467708969e+00 
42000 6.0607579706e+00 -2.2348540334e-04 1.8745296382e+00 -3.2467805737e+00 1.8745296382e+00 3.2467805737e+00 
42100 6.0607581910e+00 -2.3675925659e-04 1.8745355993e+00 -3.2467908987e+00 1.8745355993e+00 3.2467908987e+00 
42200 6.0607584035e+00 -2.4927580654e-04 1.8745419145e+00 -3.2468018368e+00 1.8745419145e+00 3.2468018368e+00 
42300 6.0607586086e+00 -2.6103398852e-04 1.8745485635e+00 -3.2468133532e+00 1.8745485635e+00 3.2468133532e+00 
42400 6.0607588066e+00 -2.7203409566e-04 1.8745555261e+00 -3.2468254127e+00 1.8745555261e+00 3.2468254127e+00 
42500 6.0607589977e+00 -2.8227774032e-04 1.8745627820e+00 -3.2468379805e+00 1.8745627820e+00 3.2468379805e+00 
42600 6.0607591825e+00 -2.9176781430e-04 1.8745703112e+00 -3.2468510214e+00 1.8745703112e+00 3.2468510214e+00 
42700 6.0607593612e+00 -3.0050844791e-04 1.8745780935e+00 -3.2468645006e+00 1.8745780935e+00 3.2468645006e+00 
42800 6.0607595343e+00 -3.0850496797e-04 1.8745861088e+00 -3.2468783837e+00 1.8745861088e+00 3.2468783837e+00 
42900 6.0607597021e+00 -3.1576385495e-04 1.8745943375e+00 -3.2468926360e+00 1.8745943375e+00 3.2468926360e+00 
43000 6.0607598651e+00 -3.2229269916e-04 1.8746027596e+00 -3.2469072237e+00 1.8746027596e+00 3.2469072237e+00 
43100 6.0607600234e+00 -3.2810015636e-04 1.8746113559e+00 -3.2469221129e+00 1.8746113559e+00 3.2469221129e+00 
43200 6.0607601776e+00 -3.3319590258e-04 1.8746201071e+00 -3.2469372704e+00 1.8746201071e+00 3.2469372704e+00 
43300 6.0607603280e+00 -3.3759058855e-04 1.8746289941e+00 -3.2469526632e+00 1.8746289941e+00 3.2469526632e+00 
43400 6.0607604750e+00 -3.4129579358e-04 1.8746379983e+00 -3.2469682589e+00 1.8746379983e+00 3.2469682589e+00 
43500 6.0607606187e+00 -3.4432397916e-04 1.8746471013e+00 -3.2469840258e+00 1.8746471013e+00 3.2469840258e+00 
43600 6.0607607597e+00 -3.4668844232e-04 1.8746562850e+00 -3.2469999324e+00 1.8746562850e+00 3.2469999324e+00 
43700 6.0607608981e+00 -3.4840326872e-04 1.8746655318e+00 -3.2470159482e+00 1.8746655318e+00 3.2470159482e+00 
43800 6.0607610344e+00 -3.4948328582e-04 1.8746748242e+00 -3.2470320432e+00 1.8746748242e+00 3.2470320432e+00 
43900 6.0607611686e+00 -3.4994401592e-04 1.8746841454e+00 -3.2470481879e+00 1.8746841454e+00 3.2470481879e+00 
44000 6.0607613012e+00 -3.4980162939e-04 1.8746934788e+00 -3.2470643539e+00 1.8746934788e+00 3.2470643539e+00 
44100 6.0607614323e+00 -3.4907289799e-04 1.8747028084e+00 -3.2470805132e+00 1.8747028084e+00 3.2470805132e+00 
44200 6.0607615621e+00 -3.4777514851e-04 1.8747121185e+00 -3.2470966387e+00 1.8747121185e+00 3.2470966387e+00 
44300 6.0607616910e+00 -3.4592621670e-04 1.8747213939e+00 -3.2471127043e+00 1.8747213939e+00 3.2471127043e+00 
44400 6.0607618189e+00 -3.4354440159e-04 1.8747306200e+00 -3.2471286843e+00 1.8747306200e+00 3.2471286843e+00 
44500 6.0607619462e+00 -3.4064842027e-04 1.8747397825e+00 -3.2471445542e+00 1.8747397825e+00 3.2471445542e+00 
44600 6.0607620729e+00 -3.3725736329e-04 1.8747488677e+00 -3.2471602903e+00 1.8747488677e+00 3.2471602903e+00 
44700 6.0607621992e+00 -3.3339065047e-04 1.8747578624e+00 -3.2471758696e+00 1.8747578624e+00 3.2471758696e+00 
44800 6.0607623252e+00 -3.2906798759e-04 1.8747667540e+00 -3.2471912703e+00 1.8747667540e+00 3.2471912703e+00 
44900 6.0607624510e+00 -3.2430932365e-04 1.8747755303e+00 -3.2472064712e+00 1.8747755303e+00 3.2472064712e+00 
45000 6.0607625766e+00 -3.1913480891e-04 1.8747841796e+00 -3.2472214522e+00 1.8747841796e+00 3.2472214522e+00 
45100 6.0607627022e+00 -3.1356475385e-04 1.8747926908e+00 -3.2472361941e+00 1.8747926908e+00 3.2472361941e+00 
45200 6.0607628278e+00 -3.0761958890e-04 1.8748010535e+00 -3.2472506787e+00 1.8748010535e+00 3.2472506787e+00 
45300 6.0607629533e+00 -3.0131982516e-04 1.8748092575e+00 -3.2472648885e+00 1.8748092575e+00 3.2472648885e+00 
45400 6.0607630789e+00 -2.9468601605e-04 1.8748172935e+00 -3.2472788073e+00 1.8748172935e+00 3.2472788073e+00 
45500 6.0607632044e+00 -2.8773871997e-04 1.8748251526e+00 -3.2472924196e+00 1.8748251526e+00 3.2472924196e+00 
45600 6.0607633300e+00 -2.8049846402e-04 1.8748328264e+00 -3.2473057110e+00 1.8748328264e+00 3.2473057110e+00 
45700 6.0607634556e+00 -2.7298570881e-04 1.8748403070e+00 -3.2473186678e+00 1.8748403070e+00 3.2473186678e+00 
45800 6.0607635812e+00 -2.6522081435e-04 1.8748475872e+00 -3.2473312775e+00 1.8748475872e+00 3.2473312775e+00 
45900 6.0607637066e+00 -2.5722400707e-04 1.8748546604e+00 -3.2473435286e+00 1.8748546604e+00 3.2473435286e+00 
46000 6.0607638320e+00 -2.4901534809e-04 1.8748615202e+00 -3.2473554102e+00 1.8748615202e+00 3.2473554102e+00 
46100 6.0607639572e+00 -2.4061470260e-04 1.8748681611e+00 -3.2473669125e+00 1.8748681611e+00 3.2473669125e+00 
46200 6.0607640821e+00 -2.3204171048e-04 1.8748745780e+00 -3.2473780268e+00 1.8748745780e+00 3.2473780268e+00 
46300 6.0607642067e+00 -2.2331575815e-04 1.8748807662e+00 -3.2473887451e+00 1.8748807662e+00 3.2473887451e+00 
46400 6.0607643310e+00 -2.1445595170e-04 1.8748867216e+00 -3.2473990603e+00 1.8748867216e+00 3.2473990603e+00 
46500 6.0607644548e+00 -2.0548109118e-04 1.8748924408e+00 -3.2474089662e+00 1.8748924408e+00 3.2474089662e+00 
46600 6.0607645781e+00 -1.9640964634e-04 1.8748979206e+00 -3.2474184575e+00 1.8748979206e+00 3.2474184575e+00 
46700 6.0607647008e+00 -1.8725973343e-04 1.8749031585e+00 -3.2474275298e+00 1.8749031585e+00 3.2474275298e+00 
46800 6.0607648228e+00 -1.7804909344e-04 1.8749081523e+00 -3.2474361794e+00 1.8749081523e+00 3.2474361794e+00 
46900 6.0607649441e+00 -1.6879507160e-04 1.8749129006e+00 -3.2474444035e+00 1.8749129006e+00 3.2474444035e+00 
47000 6.0607650645e+00 -1.5951459809e-04 1.8749174020e+00 -3.2474522002e+00 1.8749174020e+00 3.2474522002e+00 
47100 6.0607651840e+00 -1.5022417013e-04 1.8749216559e+00 -3.2474595682e+00 1.8749216559e+00 3.2474595682e+00 
47200 6.0607653026e+00 -1.4093983527e-04 1.8749256620e+00 -3.2474665070e+00 1.8749256620e+00 3.2474665070e+00 
47300 6.0607654200e+00 -1.3167717602e-04 1.8749294206e+00 -3.2474730170e+00 1.8749294206e+00 3.2474730170e+00 
47400 6.0607655363e+00 -1.2245129573e-04 1.8749329321e+00 -3.2474790992e+00 1.8749329321e+00 3.2474790992e+00 
47500 6.0607656515e+00 -1.1327680562e-04 1.8749361976e+00 -3.2474847552e+00 1.8749361976e+00 3.2474847552e+00 
47600 6.0607657653e+00 -1.0416781327e-04 1.8749392184e+00 -3.2474899874e+00 1.8749392184e+00 3.2474899874e+00 
47700 6.0607658778e+00 -9.5137912092e-05 1.8749419963e+00 -3.2474947988e+00 1.8749419963e+00 3.2474947988e+00 
47800 6.0607659890e+00 -8.6200172192e-05 1.8749445334e+00 -3.2474991932e+00 1.8749445334e+00 3.2474991932e+00 
47900 6.0607660987e+00 -7.7367132345e-05 1.8749468321e+00 -3.2475031747e+00 1.8749468321e+00 3.2475031747e+00 
48000 6.0607662069e+00 -6.8650793148e-05 1.8749488953e+00 -3.2475067483e+00 1.8749488953e+00 3.2475067483e+00 
48100 6.0607663137e+00 -6.1541359076e-05 1.8749488953e+00 -3.2475067483e+00 1.8749488953e+00 3.2475067483e+00 
48200 6.0607664189e+00 -5.4394551485e-05 1.8749488953e+00 -3.2475067483e+00 1.8749488953e+00 3.2475067483e+00 
48300 6.0607665224e+00 -4.7222901857e-05 1.8749488953e+00 -3.2475067483e+00 1.8749488953e+00 3.2475067483e+00 
48400 6.0607666243e+00 -4.0038575760e-05 1.8749488953e+00 -3.2475067483e+00 1.8749488953e+00 3.2475067483e+00 
48500 6.0607667245e+00 -3.2853364353e-05 1.8749488953e+00 -3.2475067483e+00 1.8749488953e+00 3.2475067483e+00 
48600 6.0607668231e+00 -2.5678676766e-05 1.8749488953e+00 -3.2475067483e+00 1.8749488953e+00 3.2475067483e+00 
48700 6.0607669199e+00 -1.8525533372e-05 1.8749488953e+00 -3.2475067483e+00 1.8749488953e+00 3.2475067483e+00 
48800 6.0607670151e+00 -1.1404559925e-05 1.8749488953e+00 -3.2475067483e+00 1.8749488953e+00 3.2475067483e+00 
48900 6.0607671086e+00 -4.3259825459e-06 1.8749488953e+00 -3.2475067483e+00 1.8749488953e+00 3.2475067483e+00 
49000 6.0607672004e+00 2.7003764719e-06 1.8749488953e+00 -3.2475067483e+00 1.8749488953e+00 3.2475067483e+00 
49100 6.0607672906e+00 9.6651020236e-06 1.8749488953e+00 -3.2475067483e+00 1.8749488953e+00 3.2475067483e+00 
49200 6.0607673792e+00 1.6559188779e-05 1.8749488953e+00 -3.2475067483e+00 1.8749488953e+00 3.2475067483e+00 
49300 6.0607674661e+00 2.3374042990e-05 1.8749488953e+00 -3.2475067483e+00 1.8749488953e+00 3.2475067483e+00 
49400 6.0607675515e+00 3.0101483553e-05 1.8749488953e+00 -3.2475067483e+00 1.8749488953e+00 3.2475067483e+00 
49500 6.0607676353e+00 3.6733742326e-05 1.8749488953e+00 -3.2475067483e+00 1.8749488953e+00 3.2475067483e+00 
49600 6.0607677175e+00 4.3263463750e-05 1.8749488953e+00 -3.2475067483e+00 1.8749488953e+00 3.2475067483e+00 
49700 6.0607677983e+00 4.9683703793e-05 1.8749488953e+00 -3.2475067483e+00 1.8749488953e+00 3.2475067483e+00 
49800 6.0607678775e+00 5.5987928220e-05 1.8749488953e+00 -3.2475067483e+00 1.8749488953e+00 3.2475067483e+00 
49900 6.0607679554e+00 6.2170010226e-05 1.8749488953e+00 -3.2475067483e+00 1.8749488953e+00 3.2475067483e+00 
50000 6.0607680318e+00 6.8224227468e-05 1.8749488953e+00 -3.2475067483e+00 1.8749488953e+00 3.2475067483e+00 
50100 6.0607681069e+00 7.4145258493e-05 1.8749488953e+00 -3.2475067483e+00 1.8749488953e+00 3.2475067483e+00 
50200 6.0607681805e+00 7.8330756958e-05 1.8749469181e+00 -3.2475033236e+00 1.8749469181e+00 3.2475033236e+00 
50300 6.0607682528e+00 8.2274195716e-05 1.8749448292e+00 -3.2474997055e+00 1.8749448292e+00 3.2474997055e+00 
50400 6.0607683238e+00 8.5975852058e-05 1.8749426351e+00 -3.2474959053e+00 1.8749426351e+00 3.2474959053e+00 
50500 6.0607683935e+00 8.9436415874e-05 1.8749403424e+00 -3.2474919341e+00 1.8749403424e+00 3.2474919341e+00 
50600 6.0607684621e+00 9.2656976361e-05 1.8749379573e+00 -3.2474878031e+00 1.8749379573e+00 3.2474878031e+00 
50700 6.0607685294e+00 9.5639008413e-05 1.8749354864e+00 -3.2474835233e+00 1.8749354864e+00 3.2474835233e+00 
50800 6.0607685957e+00 9.8384358707e-05 1.8749329359e+00 -3.2474791058e+00 1.8749329359e+00 3.2474791058e+00 
50900 6.0607686609e+00 1.0089523158e-04 1.8749303123e+00 -3.2474745615e+00 1.8749303123e+00 3.2474745615e+00 
51000 6.0607687251e+00 1.0317417463e-04 1.8749276216e+00 -3.2474699011e+00 1.8749276216e+00 3.2474699011e+00 
51100 6.0607687882e+00 1.0522406421e-04 1.8749248702e+00 -3.2474651356e+00 1.8749248702e+00 3.2474651356e+00 
51200 6.0607688505e+00 1.0704809068e-04 1.8749220641e+00 -3.2474602753e+00 1.8749220641e+00 3.2474602753e+00 
51300 6.0607689118e+00 1.0864974360e-04 1.8749192094e+00 -3.2474553307e+00 1.8749192094e+00 3.2474553307e+00 
51400 6.0607689722e+00 1.1003279680e-04 1.8749163119e+00 -3.2474503122e+00 1.8749163119e+00 3.2474503122e+00 
51500 6.0607690318e+00 1.1120129343e-04 1.8749133776e+00 -3.2474452298e+00 1.8749133776e+00 3.2474452298e+00 
51600 6.0607690905e+00 1.1215953087e-04 1.8749104121e+00 -3.2474400934e+00 1.8749104121e+00 3.2474400934e+00 
51700 6.0607691485e+00 1.1291204577e-04 1.8749074210e+00 -3.2474349127e+00 1.8749074210e+00 3.2474349127e+00 
51800 6.0607692058e+00 1.1346359899e-04 1.8749044099e+00 -3.2474296973e+00 1.8749044099e+00 3.2474296973e+00 
51900 6.0607692624e+00 1.1381916070e-04 1.8749013840e+00 -3.2474244563e+00 1.8749013840e+00 3.2474244563e+00 
52000 6.0607693182e+00 1.1398389539e-04 1.8748983487e+00 -3.2474191990e+00 1.8748983487e+00 3.2474191990e+00 
52100 6.0607693734e+00 1.1396314717e-04 1.8748953090e+00 -3.2474139340e+00 1.8748953090e+00 3.2474139340e+00 
52200 6.0607694280e+00 1.1376242505e-04 1.8748922698e+00 -3.2474086700e+00 1.8748922698e+00 3.2474086700e+00 
52300 6.0607694820e+00 1.1338738838e-04 1.8748892359e+00 -3.2474034152e+00 1.8748892359e+00 3.2474034152e+00 
52400 6.0607695354e+00 1.1284383252e-04 1.8748862121e+00 -3.2473981778e+00 1.8748862121e+00 3.2473981778e+00 
52500 6.0607695882e+00 1.1213767460e-04 1.8748832027e+00 -3.2473929654e+00 1.8748832027e+00 3.2473929654e+00 
52600 6.0607696405e+00 1.1127493961e-04 1.8748802122e+00 -3.2473877857e+00 1.8748802122e+00 3.2473877857e+00 
52700 6.0607696922e+00 1.1026174653e-04 1.8748772447e+00 -3.2473826458e+00 1.8748772447e+00 3.2473826458e+00 
52800 6.0607697434e+00 1.0910429490e-04 1.8748743042e+00 -3.2473775527e+00 1.8748743042e+00 3.2473775527e+00 
52900 6.0607697942e+00 1.0780885151e-04 1.8748713946e+00 -3.2473725130e+00 1.8748713946e+00 3.2473725130e+00 
53000 6.0607698444e+00 1.0638173740e-04 1.8748685195e+00 -3.2473675332e+00 1.8748685195e+00 3.2473675332e+00 
53100 6.0607698941e+00 1.0482931518e-04 1.8748656824e+00 -3.2473626193e+00 1.8748656824e+00 3.2473626193e+00 
53200 6.0607699434e+00 1.0315797660e-04 1.8748628868e+00 -3.2473577771e+00 1.8748628868e+00 3.2473577771e+00 
53300 6.0607699922e+00 1.0137413048e-04 1.8748601357e+00 -3.2473530121e+00 1.8748601357e+00 3.2473530121e+00 
53400 6.0607700405e+00 9.9484190944e-05 1.8748574322e+00 -3.2473483295e+00 1.8748574322e+00 3.2473483295e+00 
53500 6.0607700884e+00 9.7494566011e-05 1.8748547791e+00 -3.2473437341e+00 1.8748547791e+00 3.2473437341e+00 
53600 6.0607701358e+00 9.5411646495e-05 1.8748521790e+00 -3.2473392307e+00 1.8748521790e+00 3.2473392307e+00 
53700 6.0607701828e+00 9.3241795308e-05 1.8748496345e+00 -3.2473348235e+00 1.8748496345e+00 3.2473348235e+00 
53800 6.0607702294e+00 9.0991337117e-05 1.8748471478e+00 -3.2473305165e+00 1.8748471478e+00 3.2473305165e+00 
53900 6.0607702754e+00 8.8666548353e-05 1.8748447212e+00 -3.2473263134e+00 1.8748447212e+00 3.2473263134e+00 
54000 6.0607703211e+00 8.6273647635e-05 1.8748423566e+00 -3.2473222178e+00 1.8748423566e+00 3.2473222178e+00 
54100 6.0607703663e+00 8.3818786552e-05 1.8748400558e+00 -3.2473182326e+00 1.8748400558e+00 3.2473182326e+00 
54200 6.0607704110e+00 8.1308040847e-05 1.8748378204e+00 -3.2473143609e+00 1.8748378204e+00 3.2473143609e+00 
54300 6.0607704553e+00 7.8747402010e-05 1.8748356520e+00 -3.2473106051e+00 1.8748356520e+00 3.2473106051e+00 
54400 6.0607704992e+00 7.6142769237e-05 1.8748335519e+00 -3.2473069676e+00 1.8748335519e+00 3.2473069676e+00 
54500 6.0607705426e+00 7.3499941824e-05 1.8748315212e+00 -3.2473034504e+00 1.8748315212e+00 3.2473034504e+00 
54600 6.0607705855e+00 7.0824611940e-05 1.8748295611e+00 -3.2473000553e+00 1.8748295611e+00 3.2473000553e+00 
54700 6.0607706280e+00 6.8122357814e-05 1.8748276722e+00 -3.2472967837e+00 1.8748276722e+00 3.2472967837e+00 
54800 6.0607706701e+00 6.6866837324e-05 1.8748276722e+00 -3.2472967837e+00 1.8748276722e+00 3.2472967837e+00 
54900 6.0607707118e+00 6.5544940000e-05 1.8748276722e+00 -3.2472967837e+00 1.8748276722e+00 3.2472967837e+00 
55000 6.0607707530e+00 6.4161426897e-05 1.8748276722e+00 -3.2472967837e+00 1.8748276722e+00 3.2472967837e+00 
55100 6.0607707937e+00 6.2721001751e-05 1.8748276722e+00 -3.2472967837e+00 1.8748276722e+00 3.2472967837e+00 
55200 6.0607708340e+00 6.1228304972e-05 1.8748276722e+00 -3.2472967837e+00 1.8748276722e+00 3.2472967837e+00 
55300 6.0607708737e+00 5.9687907909e-05 1.8748276722e+00 -3.2472967837e+00 1.8748276722e+00 3.2472967837e+00 
55400 6.0607709130e+00 5.8104307423e-05 1.8748276722e+00 -3.2472967837e+00 1.8748276722e+00 3.2472967837e+00 
55500 6.0607709517e+00 5.6481920767e-05 1.8748276722e+00 -3.2472967837e+00 1.8748276722e+00 3.2472967837e+00 
55600 6.0607709900e+00 5.4825080746e-05 1.8748276722e+00 -3.2472967837e+00 1.8748276722e+00 3.2472967837e+00 
55700 6.0607710278e+00 5.3138031191e-05 1.8748276722e+00 -3.2472967837e+00 1.8748276722e+00 3.2472967837e+00 
55800 6.0607710651e+00 5.1424922713e-05 1.8748276722e+00 -3.2472967837e+00 1.8748276722e+00 3.2472967837e+00 
55900 6.0607711020e+00 4.9689808762e-05 1.8748276722e+00 -3.2472967837e+00 1.8748276722e+00 3.2472967837e+00 
56000 6.0607711383e+00 4.7936641976e-05 1.8748276722e+00 -3.2472967837e+00 1.8748276722e+00 3.2472967837e+00 
56100 6.0607711742e+00 4.6169270803e-05 1.8748276722e+00 -3.2472967837e+00 1.8748276722e+00 3.2472967837e+00 
56200 6.0607712096e+00 4.4391436434e-05 1.8748276722e+00 -3.2472967837e+00 1.8748276722e+00 3.2472967837e+00 
56300 6.0607712445e+00 4.2606769982e-05 1.8748276722e+00 -3.2472967837e+00 1.8748276722e+00 3.2472967837e+00 
56400 6.0607712790e+00 4.0818789984e-05 1.8748276722e+00 -3.2472967837e+00 1.8748276722e+00 3.2472967837e+00 
56500 6.0607713129e+00 3.9030900127e-05 1.8748276722e+00 -3.2472967837e+00 1.8748276722e+00 3.2472967837e+00 
56600 6.0607713464e+00 3.7246387277e-05 1.8748276722e+00 -3.2472967837e+00 1.8748276722e+00 3.2472967837e+00 
56700 6.0607713795e+00 3.5468419754e-05 1.8748276722e+00 -3.2472967837e+00 1.8748276722e+00 3.2472967837e+00 
56800 6.0607714121e+00 3.3700045871e-05 1.8748276722e+00 -3.2472967837e+00 1.8748276722e+00 3.2472967837e+00 
56900 6.0607714443e+00 3.1944192722e-05 1.8748276722e+00 -3.2472967837e+00 1.8748276722e+00 3.2472967837e+00 
57000 6.0607714760e+00 3.0203665213e-05 1.8748276722e+00 -3.2472967837e+00 1.8748276722e+00 3.2472967837e+00 
57100 6.0607715072e+00 2.8481145342e-05 1.8748276722e+00 -3.2472967837e+00 1.8748276722e+00 3.2472967837e+00 
57200 6.0607715381e+00 2.6779191700e-05 1.8748276722e+00 -3.2472967837e+00 1.8748276722e+00 3.2472967837e+00 
57300 6.0607715685e+00 2.5100239213e-05 1.8748276722e+00 -3.2472967837e+00 1.8748276722e+00 3.2472967837e+00 
57400 6.0607715985e+00 2.3446599087e-05 1.8748276722e+00 -3.2472967837e+00 1.8748276722e+00 3.2472967837e+00 
57500 6.0607716280e+00 2.1820458979e-05 1.8748276722e+00 -3.2472967837e+00 1.8748276722e+00 3.2472967837e+00 
57600 6.0607716572e+00 2.0223883371e-05 1.8748276722e+00 -3.2472967837e+00 1.8748276722e+00 3.2472967837e+00 
57700 6.0607716860e+00 1.8658814142e-05 1.8748276722e+00 -3.2472967837e+00 1.8748276722e+00 3.2472967837e+00 
57800 6.0607717143e+00 1.7127071321e-05 1.8748276722e+00 -3.2472967837e+00 1.8748276722e+00 3.2472967837e+00 
57900 6.0607717423e+00 1.5630354049e-05 1.8748276722e+00 -3.2472967837e+00 1.8748276722e+00 3.2472967837e+00 
58000 6.0607717699e+00 1.4170241687e-05 1.8748276722e+00 -3.2472967837e+00 1.8748276722e+00 3.2472967837e+00 
58100 6.0607717972e+00 1.2748195120e-05 1.8748276722e+00 -3.2472967837e+00 1.8748276722e+00 3.2472967837e+00 
58200 6.0607718240e+00 1.1365558193e-05 1.8748276722e+00 -3.2472967837e+00 1.8748276722e+00 3.2472967837e+00 
58300 6.0607718505e+00 1.0023559335e-05 1.8748276722e+00 -3.2472967837e+00 1.8748276722e+00 3.2472967837e+00 
58400 6.0607718767e+00 8.7233132966e-06 1.8748276722e+00 -3.2472967837e+00 1.8748276722e+00 3.2472967837e+00 
58500 6.0607719025e+00 7.4658230450e-06 1.8748276722e+00 -3.2472967837e+00 1.8748276722e+00 3.2472967837e+00 
58600 6.0607719280e+00 6.2519817820e-06 1.8748276722e+00 -3.2472967837e+00 1.8748276722e+00 3.2472967837e+00 
58700 6.0607719531e+00 5.0825750868e-06 1.8748276722e+00 -3.2472967837e+00 1.8748276722e+00 3.2472967837e+00 
58800 6.0607719779e+00 3.9582831677e-06 1.8748276722e+00 -3.2472967837e+00 1.8748276722e+00 3.2472967837e+00 
58900 6.0607720024e+00 2.8796832299e-06 1.8748276722e+00 -3.2472967837e+00 1.8748276722e+00 3.2472967837e+00 
59000 6.0607720266e+00 1.8472519431e-06 1.8748276722e+00 -3.2472967837e+00 1.8748276722e+00 3.2472967837e+00 
59100 6.0607720505e+00 8.6136798490e-07 1.8748276722e+00 -3.2472967837e+00 1.8748276722e+00 3.2472967837e+00 
59200 6.0607720740e+00 -7.7685307471e-08 1.8748276722e+00 -3.2472967837e+00 1.8748276722e+00 3.2472967837e+00 
59300 6.0607720973e+00 -9.6971722468e-07 1.8748276722e+00 -3.2472967837e+00 1.8748276722e+00 3.2472967837e+00 
59400 6.0607721203e+00 -1.8146269007e-06 1.8748276722e+00 -3.2472967837e+00 1.8748276722e+00 3.2472967837e+00 
59500 6.0607721430e+00 -2.6124004519e-06 1.8748276722e+00 -3.2472967837e+00 1.8748276722e+00 3.2472967837e+00 
59600 6.0607721654e+00 -3.3631080827e-06 1.8748276722e+00 -3.2472967837e+00 1.8748276722e+00 3.2472967837e+00 
59700 6.0607721876e+00 -4.0669011163e-06 1.8748276722e+00 -3.2472967837e+00 1.8748276722e+00 3.2472967837e+00 
59800 6.0607722095e+00 -4.7240090094e-06 1.8748276722e+00 -3.2472967837e+00 1.8748276722e+00 3.2472967837e+00 
59900 6.0607722311e+00 -5.3347363038e-06 1.8748276722e+00 -3.2472967837e+00 1.8748276722e+00 3.2472967837e+00 
60000 6.0607722525e+00 -5.8994595735e-06 1.8748276722e+00 -3.2472967837e+00 1.8748276722e+00 3.2472967837e+00 
60100 6.0607722736e+00 -6.4186243299e-06 1.8748276722e+00 -3.2472967837e+00 1.8748276722e+00 3.2472967837e+00 
60200 6.0607722944e+00 -6.8927419197e-06 1.8748276722e+00 -3.2472967837e+00 1.8748276722e+00 3.2472967837e+00 
60300 6.0607723150e+00 -7.3223864091e-06 1.8748276722e+00 -3.2472967837e+00 1.8748276722e+00 3.2472967837e+00 
60400 6.0607723354e+00 -7.7081914655e-06 1.8748276722e+00 -3.2472967837e+00 1.8748276722e+00 3.2472967837e+00 
60500 6.0607723555e+00 -8.0508472248e-06 1.8748276722e+00 -3.2472967837e+00 1.8748276722e+00 3.2472967837e+00 
60600 6.0607723754e+00 -8.3510971951e-06 1.8748276722e+00 -3.2472967837e+00 1.8748276722e+00 3.2472967837e+00 
60700 6.0607723951e+00 -8.6097351319e-06 1.8748276722e+00 -3.2472967837e+00 1.8748276722e+00 3.2472967837e+00 
60800 6.0607724145e+00 -8.8276019618e-06 1.8748276722e+00 -3.2472967837e+00 1.8748276722e+00 3.2472967837e+00 
60900 6.0607724337e+00 -9.0055827117e-06 1.8748276722e+00 -3.2472967837e+00 1.8748276722e+00 3.2472967837e+00 
61000 6.0607724527e+00 -9.1446034629e-06 1.8748276722e+00 -3.2472967837e+00 1.8748276722e+00 3.2472967837e+00 
61100 6.0607724715e+00 -9.2456283410e-06 1.8748276722e+00 -3.2472967837e+00 1.8748276722e+00 3.2472967837e+00 
61200 6.0607724900e+00 -9.3096565382e-06 1.8748276722e+00 -3.2472967837e+00 1.8748276722e+00 3.2472967837e+00 
61300 6.0607725083e+00 -9.3377193639e-06 1.8748276722e+00 -3.2472967837e+00 1.8748276722e+00 3.2472967837e+00 
61400 6.0607725264e+00 -9.3308773600e-06 1.8748276722e+00 -3.2472967837e+00 1.8748276722e+00 3.2472967837e+00 
61500 6.0607725443e+00 -9.2902174336e-06 1.8748276722e+00 -3.2472967837e+00 1.8748276722e+00 3.2472967837e+00 
61600 6.0607725620e+00 -9.2168500608e-06 1.8748276722e+00 -3.2472967837e+00 1.8748276722e+00 3.2472967837e+00 
61700 6.0607725795e+00 -9.1119065329e-06 1.8748276722e+00 -3.2472967837e+00 1.8748276722e+00 3.2472967837e+00 
61800 6.0607725968e+00 -8.9765362589e-06 1.8748276722e+00 -3.2472967837e+00 1.8748276722e+00 3.2472967837e+00 
61900 6.0607726139e+00 -8.8119041311e-06 1.8748276722e+00 -3.2472967837e+00 1.8748276722e+00 3.2472967837e+00 
62000 6.0607726308e+00 -8.6191879423e-06 1.8748276722e+00 -3.2472967837e+00 1.8748276722e+00 3.2472967837e+00 
62100 6.0607726475e+00 -8.3995758794e-06 1.8748276722e+00 -3.2472967837e+00 1.8748276722e+00 3.2472967837e+00 
62200 6.0607726640e+00 -8.1542640675e-06 1.8748276722e+00 -3.2472967837e+00 1.8748276722e+00 3.2472967837e+00 
62300 6.0607726803e+00 -7.8844541960e-06 1.8748276722e+00 -3.2472967837e+00 1.8748276722e+00 3.2472967837e+00 
62400 6.0607726964e+00 -7.5913512062e-06 1.8748276722e+00 -3.2472967837e+00 1.8748276722e+00 3.2472967837e+00 
62500 6.0607727123e+00 -7.2761610516e-06 1.8748276722e+00 -3.2472967837e+00 1.8748276722e+00 3.2472967837e+00 
62600 6.0607727281e+00 -6.9400885354e-06 1.8748276722e+00 -3.2472967837e+00 1.8748276722e+00 3.2472967837e+00 
62700 6.0607727436e+00 -6.5843352137e-06 1.8748276722e+00 -3.2472967837e+00 1.8748276722e+00 3.2472967837e+00 
62800 6.0607727590e+00 -6.2100973884e-06 1.8748276722e+00 -3.2472967837e+00 1.8748276722e+00 3.2472967837e+00 
62900 6.0607727742e+00 -5.8185641575e-06 1.8748276722e+00 -3.2472967837e+00 1.8748276722e+00 3.2472967837e+00 
63000 6.0607727892e+00 -5.4109155626e-06 1.8748276722e+00 -3.2472967837e+00 1.8748276722e+00 3.2472967837e+00 
63100 6.0607728040e+00 -4.9883208022e-06 1.8748276722e+00 -3.2472967837e+00 1.8748276722e+00 3.2472967837e+00 
63200 6.0607728186e+00 -4.5519365235e-06 1.8748276722e+00 -3.2472967837e+00 1.8748276722e+00 3.2472967837e+00 
63300 6.0607728331e+00 -4.1029052023e-06 1.8748276722e+00 -3.2472967837e+00 1.8748276722e+00 3.2472967837e+00 
63400 6.0607728474e+00 -3.6423535943e-06 1.8748276722e+00 -3.2472967837e+00 1.8748276722e+00 3.2472967837e+00 
63500 6.0607728615e+00 -3.1713912673e-06 1.8748276722e+00 -3.2472967837e+00 1.8748276722e+00 3.2472967837e+00 
63600 6.0607728754e+00 -2.6911092143e-06 1.8748276722e+00 -3.2472967837e+00 1.8748276722e+00 3.2472967837e+00 
63700 6.0607728892e+00 -2.2025785452e-06 1.8748276722e+00 -3.2472967837e+00 1.8748276722e+00 3.2472967837e+00 
63800 6.0607729028e+00 -1.7068492569e-06 1.8748276722e+00 -3.2472967837e+00 1.8748276722e+00 3.2472967837e+00 
63900 6.0607729163e+00 -1.2049490822e-06 1.8748276722e+00 -3.2472967837e+00 1.8748276722e+00 3.2472967837e+00 
64000 6.0607729295e+00 -6.9788241494e-07 1.8748276722e+00 -3.2472967837e+00 1.8748276722e+00 3.2472967837e+00 
64100 6.0607729427e+00 -1.8662931503e-07 1.8748276722e+00 -3.2472967837e+00 1.8748276722e+00 3.2472967837e+00 
64200 6.0607729556e+00 3.2785541610e-07 1.8748276722e+00 -3.2472967837e+00 1.8748276722e+00 3.2472967837e+00 
64300 6.0607729684e+00 8.4464307346e-07 1.8748276722e+00 -3.2472967837e+00 1.8748276722e+00 3.2472967837e+00 
64400 6.0607729810e+00 1.3628318240e-06 1.8748276722e+00 -3.2472967837e+00 1.8748276722e+00 3.2472967837e+00 
64500 6.0607729935e+00 1.8815474073e-06 1.8748276722e+00 -3.2472967837e+00 1.8748276722e+00 3.2472967837e+00 
64600 6.0607730059e+00 2.3999437508e-06 1.8748276722e+00 -3.2472967837e+00 1.8748276722e+00 3.2472967837e+00 
64700 6.0607730180e+00 2.9172035375e-06 1.8748276722e+00 -3.2472967837e+00 1.8748276722e+00 3.2472967837e+00 
64800 6.0607730301e+00 3.4325386824e-06 1.8748276722e+00 -3.2472967837e+00 1.8748276722e+00 3.2472967837e+00 
64900 6.0607730419e+00 3.9451907556e-06 1.8748276722e+00 -3.2472967837e+00 1.8748276722e+00 3.2472967837e+00 
65000 6.0607730537e+00 4.4544313297e-06 1.8748276722e+00 -3.2472967837e+00 1.8748276722e+00 3.2472967837e+00 
65100 6.0607730653e+00 4.9595622696e-06 1.8748276722e+00 -3.2472967837e+00 1.8748276722e+00 3.2472967837e+00 
65200 6.0607730767e+00 5.4599159533e-06 1.8748276722e+00 -3.2472967837e+00 1.8748276722e+00 3.2472967837e+00 
65300 6.0607730880e+00 5.9548554370e-06 1.8748276722e+00 -3.2472967837e+00 1.8748276722e+00 3.2472967837e+00 
65400 6.0607730992e+00 6.4437745570e-06 1.8748276722e+00 -3.2472967837e+00 1.8748276722e+00 3.2472967837e+00 
65500 6.0607731102e+00 6.9260979713e-06 1.8748276722e+00 -3.2472967837e+00 1.8748276722e+00 3.2472967837e+00 
65600 6.0607731211e+00 7.4012811510e-06 1.8748276722e+00 -3.2472967837e+00 1.8748276722e+00 3.2472967837e+00 
65700 6.0607731318e+00 7.8688103179e-06 1.8748276722e+00 -3.2472967837e+00 1.8748276722e+00 3.2472967837e+00 
65800 6.0607731425e+00 8.3282023209e-06 1.8748276722e+00 -3.2472967837e+00 1.8748276722e+00 3.2472967837e+00 
65900 6.0607731530e+00 8.7790044707e-06 1.8748276722e+00 -3.2472967837e+00 1.8748276722e+00 3.2472967837e+00 
66000 6.0607731633e+00 9.2207943252e-06 1.8748276722e+00 -3.2472967837e+00 1.8748276722e+00 3.2472967837e+00 
66100 6.0607731736e+00 9.6531794240e-06 1.8748276722e+00 -3.2472967837e+00 1.8748276722e+00 3.2472967837e+00 
66200 6.0607731837e+00 1.0075796988e-05 1.8748276722e+00 -3.2472967837e+00 1.8748276722e+00 3.2472967837e+00 
66300 6.0607731936e+00 1.0488313557e-05 1.8748276722e+00 -3.2472967837e+00 1.8748276722e+00 3.2472967837e+00 
66400 6.0607732035e+00 1.0890424618e-05 1.8748276722e+00 -3.2472967837e+00 1.8748276722e+00 3.2472967837e+00 
66500 6.0607732133e+00 1.1281854164e-05 1.8748276722e+00 -3.2472967837e+00 1.8748276722e+00 3.2472967837e+00 
66600 6.0607732229e+00 1.1662354236e-05 1.8748276722e+00 -3.2472967837e+00 1.8748276722e+00 3.2472967837e+00 
66700 6.0607732324e+00 1.2031704423e-05 1.8748276722e+00 -3.2472967837e+00 1.8748276722e+00 3.2472967837e+00 
66800 6.0607732418e+00 1.2389711337e-05 1.8748276722e+00 -3.2472967837e+00 1.8748276722e+00 3.2472967837e+00 
66900 6.0607732511e+00 1.2736208044e-05 1.8748276722e+00 -3.2472967837e+00 1.8748276722e+00 3.2472967837e+00 
67000 6.0607732602e+00 1.3071053481e-05 1.8748276722e+00 -3.2472967837e+00 1.8748276722e+00 3.2472967837e+00 
67100 6.0607732693e+00 1.3394131845e-05 1.8748276722e+00 -3.2472967837e+00 1.8748276722e+00 3.2472967837e+00 
67200 6.0607732782e+00 1.3705351946e-05 1.8748276722e+00 -3.2472967837e+00 1.8748276722e+00 3.2472967837e+00 
67300 6.0607732871e+00 1.4004646551e-05 1.8748276722e+00 -3.2472967837e+00 1.8748276722e+00 3.2472967837e+00 
67400 6.0607732958e+00 1.4291971699e-05 1.8748276722e+00 -3.2472967837e+00 1.8748276722e+00 3.2472967837e+00 
67500 6.0607733044e+00 1.4567306005e-05 1.8748276722e+00 -3.2472967837e+00 1.8748276722e+00 3.2472967837e+00 
67600 6.0607733129e+00 1.4830649938e-05 1.8748276722e+00 -3.2472967837e+00 1.8748276722e+00 3.2472967837e+00 
67700 6.0607733214e+00 1.5082025098e-05 1.8748276722e+00 -3.2472967837e+00 1.8748276722e+00 3.2472967837e+00 
67800 6.0607733297e+00 1.5321473460e-05 1.8748276722e+00 -3.2472967837e+00 1.8748276722e+00 3.2472967837e+00 
67900 6.0607733379e+00 1.5549056626e-05 1.8748276722e+00 -3.2472967837e+00 1.8748276722e+00 3.2472967837e+00 
68000 6.0607733460e+00 1.5764855056e-05 1.8748276722e+00 -3.2472967837e+00 1.8748276722e+00 3.2472967837e+00 
68100 6.0607733540e+00 1.5968967297e-05 1.8748276722e+00 -3.2472967837e+00 1.8748276722e+00 3.2472967837e+00 
68200 6.0607733620e+00 1.6161509202e-05 1.8748276722e+00 -3.2472967837e+00 1.8748276722e+00 3.2472967837e+00 
68300 6.0607733698e+00 1.6342613143e-05 1.8748276722e+00 -3.2472967837e+00 1.8748276722e+00 3.2472967837e+00 
68400 6.0607733775e+00 1.6512427224e-05 1.8748276722e+00 -3.2472967837e+00 1.8748276722e+00 3.2472967837e+00 
68500 6.0607733852e+00 1.6671114494e-05 1.8748276722e+00 -3.2472967837e+00 1.8748276722e+00 3.2472967837e+00 
68600 6.0607733927e+00 1.6818852160e-05 1.8748276722e+00 -3.2472967837e+00 1.8748276722e+00 3.2472967837e+00 
68700 6.0607734002e+00 1.6955830789e-05 1.8748276722e+00 -3.2472967837e+00 1.8748276722e+00 3.2472967837e+00 
68800 6.0607734076e+00 1.7082253530e-05 1.8748276722e+00 -3.2472967837e+00 1.8748276722e+00 3.2472967837e+00 
68900 6.0607734149e+00 1.7198335333e-05 1.8748276722e+00 -3.2472967837e+00 1.8748276722e+00 3.2472967837e+00 
69000 6.0607734221e+00 1.7304302162e-05 1.8748276722e+00 -3.2472967837e+00 1.8748276722e+00 3.2472967837e+00 
69100 6.0607734292e+00 1.7400390237e-05 1.8748276722e+00 -3.2472967837e+00 1.8748276722e+00 3.2472967837e+00 
69200 6.0607734362e+00 1.7486845259e-05 1.8748276722e+00 -3.2472967837e+00 1.8748276722e+00 3.2472967837e+00 
69300 6.0607734432e+00 1.7563921668e-05 1.8748276722e+00 -3.2472967837e+00 1.8748276722e+00 3.2472967837e+00 
69400 6.0607734501e+00 1.7631881887e-05 1.8748276722e+00 -3.2472967837e+00 1.8748276722e+00 3.2472967837e+00 
69500 6.0607734569e+00 1.7690995589e-05 1.8748276722e+00 -3.2472967837e+00 1.8748276722e+00 3.2472967837e+00 
69600 6.0607734636e+00 1.7741538982e-05 1.8748276722e+00 -3.2472967837e+00 1.8748276722e+00 3.2472967837e+00 
69700 6.0607734702e+00 1.7783794091e-05 1.8748276722e+00 -3.2472967837e+00 1.8748276722e+00 3.2472967837e+00 
69800 6.0607734767e+00 1.7818048061e-05 1.8748276722e+00 -3.2472967837e+00 1.8748276722e+00 3.2472967837e+00 
69900 6.0607734832e+00 1.7844592480e-05 1.8748276722e+00 -3.2472967837e+00 1.8748276722e+00 3.2472967837e+00 
70000 6.0607734896e+00 1.7863722702e-05 1.8748276722e+00 -3.2472967837e+00 1.8748276722e+00 3.2472967837e+00 
70100 6.0607734959e+00 1.7875737200e-05 1.8748276722e+00 -3.2472967837e+00 1.8748276722e+00 3.2472967837e+00 
70200 6.0607735022e+00 1.7880936936e-05 1.8748276722e+00 -3.2472967837e+00 1.8748276722e+00 3.2472967837e+00 
70300 6.0607735083e+00 1.7879624722e-05 1.8748276722e+00 -3.2472967837e+00 1.8748276722e+00 3.2472967837e+00 
70400 6.0607735144e+00 1.7872104636e-05 1.8748276722e+00 -3.2472967837e+00 1.8748276722e+00 3.2472967837e+00 
70500 6.0607735205e+00 1.7858681428e-05 1.8748276722e+00 -3.2472967837e+00 1.8748276722e+00 3.2472967837e+00 
70600 6.0607735264e+00 1.7839659956e-05 1.8748276722e+00 -3.2472967837e+00 1.8748276722e+00 3.2472967837e+00 
70700 6.0607735323e+00 1.7815344636e-05 1.8748276722e+00 -3.2472967837e+00 1.8748276722e+00 3.2472967837e+00 
70800 6.0607735381e+00 1.7786038919e-05 1.8748276722e+00 -3.2472967837e+00 1.8748276722e+00 3.2472967837e+00 
70900 6.0607735438e+00 1.7752044774e-05 1.8748276722e+00 -3.2472967837e+00 1.8748276722e+00 3.2472967837e+00 
71000 6.0607735495e+00 1.7713662201e-05 1.8748276722e+00 -3.2472967837e+00 1.8748276722e+00 3.2472967837e+00 
71100 6.0607735551e+00 1.7671188763e-05 1.8748276722e+00 -3.2472967837e+00 1.8748276722e+00 3.2472967837e+00 
71200 6.0607735607e+00 1.7624919130e-05 1.8748276722e+00 -3.2472967837e+00 1.8748276722e+00 3.2472967837e+00 
71300 6.0607735662e+00 1.7575144654e-05 1.8748276722e+00 -3.2472967837e+00 1.8748276722e+00 3.2472967837e+00 
71400 6.0607735716e+00 1.7522152959e-05 1.8748276722e+00 -3.2472967837e+00 1.8748276722e+00 3.2472967837e+00 
71500 6.0607735769e+00 1.7466227545e-05 1.8748276722e+00 -3.2472967837e+00 1.8748276722e+00 3.2472967837e+00 
71600 6.0607735822e+00 1.7407647424e-05 1.8748276722e+00 -3.2472967837e+00 1.8748276722e+00 3.2472967837e+00 
71700 6.0607735874e+00 1.7346686771e-05 1.8748276722e+00 -3.2472967837e+00 1.8748276722e+00 3.2472967837e+00 
71800 6.0607735926e+00 1.7283614590e-05 1.8748276722e+00 -3.2472967837e+00 1.8748276722e+00 3.2472967837e+00 
71900 6.0607735977e+00 1.7218694408e-05 1.8748276722e+00 -3.2472967837e+00 1.8748276722e+00 3.2472967837e+00 
72000 6.0607736027e+00 1.7152183988e-05 1.8748276722e+00 -3.2472967837e+00 1.8748276722e+00 3.2472967837e+00 
72100 6.0607736077e+00 1.7084335051e-05 1.8748276722e+00 -3.2472967837e+00 1.8748276722e+00 3.2472967837e+00 
72200 6.0607736126e+00 1.7015393043e-05 1.8748276722e+00 -3.2472967837e+00 1.8748276722e+00 3.2472967837e+00 
72300 6.0607736175e+00 1.6945596886e-05 1.8748276722e+00 -3.2472967837e+00 1.8748276722e+00 3.2472967837e+00 
72400 6.0607736223e+00 1.6875178778e-05 1.8748276722e+00 -3.2472967837e+00 1.8748276722e+00 3.2472967837e+00 
72500 6.0607736270e+00 1.6804363998e-05 1.8748276722e+00 -3.2472967837e+00 1.8748276722e+00 3.2472967837e+00 
72600 6.0607736317e+00 1.6733370736e-05 1.8748276722e+00 -3.2472967837e+00 1.8748276722e+00 3.2472967837e+00 
72700 6.0607736363e+00 1.6662409931e-05 1.8748276722e+00 -3.2472967837e+00 1.8748276722e+00 3.2472967837e+00 
72800 6.0607736409e+00 1.6591685141e-05 1.8748276722e+00 -3.2472967837e+00 1.8748276722e+00 3.2472967837e+00 
72900 6.0607736454e+00 1.6521392420e-05 1.8748276722e+00 -3.2472967837e+00 1.8748276722e+00 3.2472967837e+00 
73000 6.0607736499e+00 1.6451720217e-05 1.8748276722e+00 -3.2472967837e+00 1.8748276722e+00 3.2472967837e+00 
73100 6.0607736543e+00 1.6382849291e-05 1.8748276722e+00 -3.2472967837e+00 1.8748276722e+00 3.2472967837e+00 
73200 6.0607736586e+00 1.6314952642e-05 1.8748276722e+00 -3.2472967837e+00 1.8748276722e+00 3.2472967837e+00 
73300 6.0607736630e+00 1.6248195458e-05 1.8748276722e+00 -3.2472967837e+00 1.8748276722e+00 3.2472967837e+00 
73400 6.0607736672e+00 1.6182735078e-05 1.8748276722e+00 -3.2472967837e+00 1.8748276722e+00 3.2472967837e+00 
73500 6.0607736714e+00 1.6118720972e-05 1.8748276722e+00 -3.2472967837e+00 1.8748276722e+00 3.2472967837e+00 
73600 6.0607736756e+00 1.6056294734e-05 1.8748276722e+00 -3.2472967837e+00 1.8748276722e+00 3.2472967837e+00 
73700 6.0607736797e+00 1.5995590086e-05 1.8748276722e+00 -3.2472967837e+00 1.8748276722e+00 3.2472967837e+00 
73800 6.0607736837e+00 1.5936732902e-05 1.8748276722e+00 -3.2472967837e+00 1.8748276722e+00 3.2472967837e+00 
73900 6.0607736878e+00 1.5879841240e-05 1.8748276722e+00 -3.2472967837e+00 1.8748276722e+00 3.2472967837e+00 
74000 6.0607736917e+00 1.5825025395e-05 1.8748276722e+00 -3.2472967837e+00 1.8748276722e+00 3.2472967837e+00 
74100 6.0607736956e+00 1.5772387948e-05 1.8748276722e+00 -3.2472967837e+00 1.8748276722e+00 3.2472967837e+00 
74200 6.0607736995e+00 1.5722023844e-05 1.8748276722e+00 -3.2472967837e+00 1.8748276722e+00 3.2472967837e+00 
74300 6.0607737033e+00 1.5674020476e-05 1.8748276722e+00 -3.2472967837e+00 1.8748276722e+00 3.2472967837e+00 
74400 6.0607737071e+00 1.5628457772e-05 1.8748276722e+00 -3.2472967837e+00 1.8748276722e+00 3.2472967837e+00 
74500 6.0607737108e+00 1.5585408302e-05 1.8748276722e+00 -3.2472967837e+00 1.8748276722e+00 3.2472967837e+00 
74600 6.0607737145e+00 1.5544937392e-05 1.8748276722e+00 -3.2472967837e+00 1.8748276722e+00 3.2472967837e+00 
74700 6.0607737182e+00 1.5507103243e-05 1.8748276722e+00 -3.2472967837e+00 1.8748276722e+00 3.2472967837e+00 
74800 6.0607737218e+00 1.5471957060e-05 1.8748276722e+00 -3.2472967837e+00 1.8748276722e+00 3.2472967837e+00 
74900 6.0607737253e+00 1.5439543200e-05 1.8748276722e+00 -3.2472967837e+00 1.8748276722e+00 3.2472967837e+00 
75000 6.0607737289e+00 1.5409899305e-05 1.8748276722e+00 -3.2472967837e+00 1.8748276722e+00 3.2472967837e+00 
75100 6.0607737323e+00 1.5383056469e-05 1.8748276722e+00 -3.2472967837e+00 1.8748276722e+00 3.2472967837e+00 
75200 6.0607737358e+00 1.5359039389e-05 1.8748276722e+00 -3.2472967837e+00 1.8748276722e+00 3.2472967837e+00 
75300 6.0607737392e+00 1.5337866535e-05 1.8748276722e+00 -3.2472967837e+00 1.8748276722e+00 3.2472967837e+00 
75400 6.0607737425e+00 1.5319550321e-05 1.8748276722e+00 -3.2472967837e+00 1.8748276722e+00 3.2472967837e+00 
75500 6.0607737458e+00 1.5304097281e-05 1.8748276722e+00 -3.2472967837e+00 1.8748276722e+00 3.2472967837e+00 
75600 6.0607737491e+00 1.5291508255e-05 1.8748276722e+00 -3.2472967837e+00 1.8748276722e+00 3.2472967837e+00 
75700 6.0607737523e+00 1.5281778569e-05 1.8748276722e+00 -3.2472967837e+00 1.8748276722e+00 3.2472967837e+00 
75800 6.0607737555e+00 1.5274898226e-05 1.8748276722e+00 -3.2472967837e+00 1.8748276722e+00 3.2472967837e+00 
75900 6.0607737587e+00 1.5270852105e-05 1.8748276722e+00 -3.2472967837e+00 1.8748276722e+00 3.2472967837e+00 
76000 6.0607737618e+00 1.5269620142e-05 1.8748276722e+00 -3.2472967837e+00 1.8748276722e+00 3.2472967837e+00 
76100 6.0607737649e+00 1.5271177547e-05 1.8748276722e+00 -3.2472967837e+00 1.8748276722e+00 3.2472967837e+00 
76200 6.0607737680e+00 1.5275494989e-05 1.8748276722e+00 -3.2472967837e+00 1.8748276722e+00 3.2472967837e+00 
76300 6.0607737710e+00 1.5282538799e-05 1.8748276722e+00 -3.2472967837e+00 1.8748276722e+00 3.2472967837e+00 
76400 6.0607737739e+00 1.5292271181e-05 1.8748276722e+00 -3.2472967837e+00 1.8748276722e+00 3.2472967837e+00 
76500 6.0607737769e+00 1.5304650407e-05 1.8748276722e+00 -3.2472967837e+00 1.8748276722e+00 3.2472967837e+00 
76600 6.0607737798e+00 1.5319631022e-05 1.8748276722e+00 -3.2472967837e+00 1.8748276722e+00 3.2472967837e+00 
76700 6.0607737827e+00 1.5337164050e-05 1.8748276722e+00 -3.2472967837e+00 1.8748276722e+00 3.2472967837e+00 
76800 6.0607737855e+00 1.5357197193e-05 1.8748276722e+00 -3.2472967837e+00 1.8748276722e+00 3.2472967837e+00 
76900 6.0607737883e+00 1.5379675040e-05 1.8748276722e+00 -3.2472967837e+00 1.8748276722e+00 3.2472967837e+00 
77000 6.0607737911e+00 1.5404539254e-05 1.8748276722e+00 -3.2472967837e+00 1.8748276722e+00 3.2472967837e+00 
77100 6.0607737938e+00 1.5431728792e-05 1.8748276722e+00 -3.2472967837e+00 1.8748276722e+00 3.2472967837e+00 
77200 6.0607737965e+00 1.5461180082e-05 1.8748276722e+00 -3.2472967837e+00 1.8748276722e+00 3.2472967837e+00 
77300 6.0607737992e+00 1.5492827236e-05 1.8748276722e+00 -3.2472967837e+00 1.8748276722e+00 3.2472967837e+00 
77400 6.0607738019e+00 1.5526602233e-05 1.8748276722e+00 -3.2472967837e+00 1.8748276722e+00 3.2472967837e+00 
77500 6.0607738045e+00 1.5562435115e-05 1.8748276722e+00 -3.2472967837e+00 1.8748276722e+00 3.2472967837e+00 
77600 6.0607738071e+00 1.5600254173e-05 1.8748276722e+00 -3.2472967837e+00 1.8748276722e+00 3.2472967837e+00 
77700 6.0607738096e+00 1.5639986132e-05 1.8748276722e+00 -3.2472967837e+00 1.8748276722e+00 3.2472967837e+00 
77800 6.0607738121e+00 1.5681556336e-05 1.8748276722e+00 -3.2472967837e+00 1.8748276722e+00 3.2472967837e+00 
77900 6.0607738146e+00 1.5724888925e-05 1.8748276722e+00 -3.2472967837e+00 1.8748276722e+00 3.2472967837e+00 
78000 6.0607738171e+00 1.5769907006e-05 1.8748276722e+00 -3.2472967837e+00 1.8748276722e+00 3.2472967837e+00 
78100 6.0607738195e+00 1.5816532830e-05 1.8748276722e+00 -3.2472967837e+00 1.8748276722e+00 3.2472967837e+00 
78200 6.0607738220e+00 1.5864687954e-05 1.8748276722e+00 -3.2472967837e+00 1.8748276722e+00 3.2472967837e+00 
78300 6.0607738243e+00 1.5914293407e-05 1.8748276722e+00 -3.2472967837e+00 1.8748276722e+00 3.2472967837e+00 
78400 6.0607738267e+00 1.5965269843e-05 1.8748276722e+00 -3.2472967837e+00 1.8748276722e+00 3.2472967837e+00 
78500 6.0607738290e+00 1.6017537706e-05 1.8748276722e+00 -3.2472967837e+00 1.8748276722e+00 3.2472967837e+00 
78600 6.0607738313e+00 1.6071017363e-05 1.8748276722e+00 -3.2472967837e+00 1.8748276722e+00 3.2472967837e+00 
78700 6.0607738336e+00 1.6125629262e-05 1.8748276722e+00 -3.2472967837e+00 1.8748276722e+00 3.2472967837e+00 
78800 6.0607738358e+00 1.6181294065e-05 1.8748276722e+00 -3.2472967837e+00 1.8748276722e+00 3.2472967837e+00 
78900 6.0607738380e+00 1.6237932782e-05 1.8748276722e+00 -3.2472967837e+00 1.8748276722e+00 3.2472967837e+00 
79000 6.0607738402e+00 1.6295466904e-05 1.8748276722e+00 -3.2472967837e+00 1.8748276722e+00 3.2472967837e+00 
79100 6.0607738424e+00 1.6353818528e-05 1.8748276722e+00 -3.2472967837e+00 1.8748276722e+00 3.2472967837e+00 
79200 6.0607738445e+00 1.6412910470e-05 1.8748276722e+00 -3.2472967837e+00 1.8748276722e+00 3.2472967837e+00 
79300 6.0607738466e+00 1.6472666385e-05 1.8748276722e+00 -3.2472967837e+00 1.8748276722e+00 3.2472967837e+00 
79400 6.0607738487e+00 1.6533010876e-05 1.8748276722e+00 -3.2472967837e+00 1.8748276722e+00 3.2472967837e+00 
79500 6.0607738508e+00 1.6593869594e-05 1.8748276722e+00 -3.2472967837e+00 1.8748276722e+00 3.2472967837e+00 
79600 6.0607738528e+00 1.6655169340e-05 1.8748276722e+00 -3.2472967837e+00 1.8748276722e+00 3.2472967837e+00 
79700 6.0607738549e+00 1.6716838159e-05 1.8748276722e+00 -3.2472967837e+00 1.8748276722e+00 3.2472967837e+00 
79800 6.0607738568e+00 1.6778805421e-05 1.8748276722e+00 -3.2472967837e+00 1.8748276722e+00 3.2472967837e+00 
79900 6.0607738588e+00 1.6841001911e-05 1.8748276722e+00 -3.2472967837e+00 1.8748276722e+00 3.2472967837e+00 
80000 6.0607738608e+00 1.6903359907e-05 1.8748276722e+00 -3.2472967837e+00 1.8748276722e+00 3.2472967837e+00 
80100 6.0607738627e+00 1.6965813248e-05 1.8748276722e+00 -3.2472967837e+00 1.8748276722e+00 3.2472967837e+00 
80200 6.0607738646e+00 1.7028297402e-05 1.8748276722e+00 -3.2472967837e+00 1.8748276722e+00 3.2472967837e+00 
80300 6.0607738665e+00 1.7090749536e-05 1.8748276722e+00 -3.2472967837e+00 1.8748276722e+00 3.2472967837e+00 
80400 6.0607738683e+00 1.7153108558e-05 1.8748276722e+00 -3.2472967837e+00 1.8748276722e+00 3.2472967837e+00 
80500 6.0607738702e+00 1.7215315185e-05 1.8748276722e+00 -3.2472967837e+00 1.8748276722e+00 3.2472967837e+00 
80600 6.0607738720e+00 1.7277311982e-05 1.8748276722e+00 -3.2472967837e+00 1.8748276722e+00 3.2472967837e+00 
80700 6.0607738738e+00 1.7339043406e-05 1.8748276722e+00 -3.2472967837e+00 1.8748276722e+00 3.2472967837e+00 
80800 6.0607738755e+00 1.7400455848e-05 1.8748276722e+00 -3.2472967837e+00 1.8748276722e+00 3.2472967837e+00 
80900 6.0607738773e+00 1.7461497655e-05 1.8748276722e+00 -3.2472967837e+00 1.8748276722e+00 3.2472967837e+00 
81000 6.0607738790e+00 1.7522119174e-05 1.8748276722e+00 -3.2472967837e+00 1.8748276722e+00 3.2472967837e+00 
81100 6.0607738807e+00 1.7582272768e-05 1.8748276722e+00 -3.2472967837e+00 1.8748276722e+00 3.2472967837e+00 
81200 6.0607738824e+00 1.7641912832e-05 1.8748276722e+00 -3.2472967837e+00 1.8748276722e+00 3.2472967837e+00 
81300 6.0607738841e+00 1.7700995818e-05 1.8748276722e+00 -3.2472967837e+00 1.8748276722e+00 3.2472967837e+00 
81400 6.0607738857e+00 1.7759480243e-05 1.8748276722e+00 -3.2472967837e+00 1.8748276722e+00 3.2472967837e+00 
81500 6.0607738874e+00 1.7817326692e-05 1.8748276722e+00 -3.2472967837e+00 1.8748276722e+00 3.2472967837e+00 
81600 6.0607738890e+00 1.7874497828e-05 1.8748276722e+00 -3.2472967837e+00 1.8748276722e+00 3.2472967837e+00 
81700 6.0607738906e+00 1.7930958390e-05 1.8748276722e+00 -3.2472967837e+00 1.8748276722e+00 3.2472967837e+00 
81800 6.0607738922e+00 1.7986675186e-05 1.8748276722e+00 -3.2472967837e+00 1.8748276722e+00 3.2472967837e+00 
81900 6.0607738937e+00 1.8041617092e-05 1.8748276722e+00 -3.2472967837e+00 1.8748276722e+00 3.2472967837e+00 
82000 6.0607738953e+00 1.8095755038e-05 1.8748276722e+00 -3.2472967837e+00 1.8748276722e+00 3.2472967837e+00 
82100 6.0607738968e+00 1.8149061989e-05 1.8748276722e+00 -3.2472967837e+00 1.8748276722e+00 3.2472967837e+00 
82200 6.0607738983e+00 1.8201512939e-05 1.8748276722e+00 -3.2472967837e+00 1.8748276722e+00 3.2472967837e+00 
82300 6.0607738998e+00 1.8253084881e-05 1.8748276722e+00 -3.2472967837e+00 1.8748276722e+00 3.2472967837e+00 
82400 6.0607739012e+00 1.8303756791e-05 1.8748276722e+00 -3.2472967837e+00 1.8748276722e+00 3.2472967837e+00 
82500 6.0607739027e+00 1.8353509599e-05 1.8748276722e+00 -3.2472967837e+00 1.8748276722e+00 3.2472967837e+00 
82600 6.0607739041e+00 1.8402326158e-05 1.8748276722e+00 -3.2472967837e+00 1.8748276722e+00 3.2472967837e+00 
82700 6.0607739055e+00 1.8450191220e-05 1.8748276722e+00 -3.2472967837e+00 1.8748276722e+00 3.2472967837e+00 
82800 6.0607739069e+00 1.8497091400e-05 1.8748276722e+00 -3.2472967837e+00 1.8748276722e+00 3.2472967837e+00 
82900 6.0607739083e+00 1.8543015138e-05 1.8748276722e+00 -3.2472967837e+00 1.8748276722e+00 3.2472967837e+00 
83000 6.0607739097e+00 1.8587952665e-05 1.8748276722e+00 -3.2472967837e+00 1.8748276722e+00 3.2472967837e+00 
83100 6.0607739110e+00 1.8631895962e-05 1.8748276722e+00 -3.2472967837e+00 1.8748276722e+00 3.2472967837e+00 
83200 6.0607739124e+00 1.8674838720e-05 1.8748276722e+00 -3.2472967837e+00 1.8748276722e+00 3.2472967837e+00 
83300 6.0607739137e+00 1.8716776300e-05 1.8748276722e+00 -3.2472967837e+00 1.8748276722e+00 3.2472967837e+00 
83400 6.0607739150e+00 1.8757705683e-05 1.8748276722e+00 -3.2472967837e+00 1.8748276722e+00 3.2472967837e+00 
83500 6.0607739163e+00 1.8797625426e-05 1.8748276722e+00 -3.2472967837e+00 1.8748276722e+00 3.2472967837e+00 
83600 6.0607739176e+00 1.8836535619e-05 1.8748276722e+00 -3.2472967837e+00 1.8748276722e+00 3.2472967837e+00 
83700 6.0607739188e+00 1.8874437834e-05 1.8748276722e+00 -3.2472967837e+00 1.8748276722e+00 3.2472967837e+00 
83800 6.0607739201e+00 1.8911335073e-05 1.8748276722e+00 -3.2472967837e+00 1.8748276722e+00 3.2472967837e+00 
83900 6.0607739213e+00 1.8947231727e-05 1.8748276722e+00 -3.2472967837e+00 1.8748276722e+00 3.2472967837e+00 
84000 6.0607739225e+00 1.8982133513e-05 1.8748276722e+00 -3.2472967837e+00 1.8748276722e+00 3.2472967837e+00 
84100 6.0607739237e+00 1.9016047435e-05 1.8748276722e+00 -3.2472967837e+00 1.8748276722e+00 3.2472967837e+00 
84200 6.0607739249e+00 1.9048981719e-05 1.8748276722e+00 -3.2472967837e+00 1.8748276722e+00 3.2472967837e+00 
84300 6.0607739261e+00 1.9080945770e-05 1.8748276722e+00 -3.2472967837e+00 1.8748276722e+00 3.2472967837e+00 
84400 6.0607739273e+00 1.9111950120e-05 1.8748276722e+00 -3.2472967837e+00 1.8748276722e+00 3.2472967837e+00 
84500 6.0607739284e+00 1.9142006365e-05 1.8748276722e+00 -3.2472967837e+00 1.8748276722e+00 3.2472967837e+00 
84600 6.0607739295e+00 1.9171127122e-05 1.8748276722e+00 -3.2472967837e+00 1.8748276722e+00 3.2472967837e+00 
84700 6.0607739307e+00 1.9199325969e-05 1.8748276722e+00 -3.2472967837e+00 1.8748276722e+00 3.2472967837e+00 
84800 6.0607739318e+00 1.9226617396e-05 1.8748276722e+00 -3.2472967837e+00 1.8748276722e+00 3.2472967837e+00 
84900 6.0607739329e+00 1.9253016748e-05 1.8748276722e+00 -3.2472967837e+00 1.8748276722e+00 3.2472967837e+00 
85000 6.0607739339e+00 1.9278540175e-05 1.8748276722e+00 -3.2472967837e+00 1.8748276722e+00 3.2472967837e+00 
85100 6.0607739350e+00 1.9303204580e-05 1.8748276722e+00 -3.2472967837e+00 1.8748276722e+00 3.2472967837e+00 
85200 6.0607739361e+00 1.9327027562e-05 1.8748276722e+00 -3.2472967837e+00 1.8748276722e+00 3.2472967837e+00 
85300 6.0607739371e+00 1.9350027369e-05 1.8748276722e+00 -3.2472967837e+00 1.8748276722e+00 3.2472967837e+00 
85400 6.0607739382e+00 1.9372222846e-05 1.8748276722e+00 -3.2472967837e+00 1.8748276722e+00 3.2472967837e+00 
85500 6.0607739392e+00 1.9393633383e-05 1.8748276722e+00 -3.2472967837e+00 1.8748276722e+00 3.2472967837e+00 
85600 6.0607739402e+00 1.9414278866e-05 1.8748276722e+00 -3.2472967837e+00 1.8748276722e+00 3.2472967837e+00 
85700 6.0607739412e+00 1.9434179625e-05 1.8748276722e+00 -3.2472967837e+00 1.8748276722e+00 3.2472967837e+00 
85800 6.0607739422e+00 1.9453356392e-05 1.8748276722e+00 -3.2472967837e+00 1.8748276722e+00 3.2472967837e+00 
85900 6.0607739431e+00 1.9471830250e-05 1.8748276722e+00 -3.2472967837e+00 1.8748276722e+00 3.2472967837e+00 
86000 6.0607739441e+00 1.9489622579e-05 1.8748276722e+00 -3.2472967837e+00 1.8748276722e+00 3.2472967837e+00 
86100 6.0607739451e+00 1.9506755028e-05 1.8748276722e+00 -3.2472967837e+00 1.8748276722e+00 3.2472967837e+00 
86200 6.0607739460e+00 1.9523249454e-05 1.8748276722e+00 -3.2472967837e+00 1.8748276722e+00 3.2472967837e+00 
86300 6.0607739469e+00 1.9539127886e-05 1.8748276722e+00 -3.2472967837e+00 1.8748276722e+00 3.2472967837e+00 
86400 6.0607739478e+00 1.9554412478e-05 1.8748276722e+00 -3.2472967837e+00 1.8748276722e+00 3.2472967837e+00 
86500 6.0607739488e+00 1.9569125479e-05 1.8748276722e+00 -3.2472967837e+00 1.8748276722e+00 3.2472967837e+00 
86600 6.0607739497e+00 1.9583289179e-05 1.8748276722e+00 -3.2472967837e+00 1.8748276722e+00 3.2472967837e+00 
86700 6.0607739505e+00 1.9596925878e-05 1.8748276722e+00 -3.2472967837e+00 1.8748276722e+00 3.2472967837e+00 
86800 6.0607739514e+00 1.9610057848e-05 1.8748276722e+00 -3.2472967837e+00 1.8748276722e+00 3.2472967837e+00 
86900 6.0607739523e+00 1.9622707292e-05 1.8748276722e+00 -3.2472967837e+00 1.8748276722e+00 3.2472967837e+00 
87000 6.0607739531e+00 1.9634896318e-05 1.8748276722e+00 -3.2472967837e+00 1.8748276722e+00 3.2472967837e+00 
87100 6.0607739540e+00 1.9646646894e-05 1.8748276722e+00 -3.2472967837e+00 1.8748276722e+00 3.2472967837e+00 
87200 6.0607739548e+00 1.9657980827e-05 1.8748276722e+00 -3.2472967837e+00 1.8748276722e+00 3.2472967837e+00 
87300 6.0607739557e+00 1.9668919722e-05 1.8748276722e+00 -3.2472967837e+00 1.8748276722e+00 3.2472967837e+00 
87400 6.0607739565e+00 1.9679484962e-05 1.8748276722e+00 -3.2472967837e+00 1.8748276722e+00 3.2472967837e+00 
87500 6.0607739573e+00 1.9689697668e-05 1.8748276722e+00 -3.2472967837e+00 1.8748276722e+00 3.2472967837e+00 
87600 6.0607739581e+00 1.9699578686e-05 1.8748276722e+00 -3.2472967837e+00 1.8748276722e+00 3.2472967837e+00 
87700 6.0607739589e+00 1.9709148546e-05 1.8748276722e+00 -3.2472967837e+00 1.8748276722e+00 3.2472967837e+00 
87800 6.0607739597e+00 1.9718427456e-05 1.8748276722e+00 -3.2472967837e+00 1.8748276722e+00 3.2472967837e+00 
87900 6.0607739604e+00 1.9727435257e-05 1.8748276722e+00 -3.2472967837e+00 1.8748276722e+00 3.2472967837e+00 
88000 6.0607739612e+00 1.9736191423e-05 1.8748276722e+00 -3.2472967837e+00 1.8748276722e+00 3.2472967837e+00 
88100 6.0607739619e+00 1.9744715029e-05 1.8748276722e+00 -3.2472967837e+00 1.8748276722e+00 3.2472967837e+00 
88200 6.0607739627e+00 1.9753024732e-05 1.8748276722e+00 -3.2472967837e+00 1.8748276722e+00 3.2472967837e+00 
88300 6.0607739634e+00 1.9761138760e-05 1.8748276722e+00 -3.2472967837e+00 1.8748276722e+00 3.2472967837e+00 
88400 6.0607739642e+00 1.9769074891e-05 1.8748276722e+00 -3.2472967837e+00 1.8748276722e+00 3.2472967837e+00 
88500 6.0607739649e+00 1.9776850437e-05 1.8748276722e+00 -3.2472967837e+00 1.8748276722e+00 3.2472967837e+00 
88600 6.0607739656e+00 1.9784482235e-05 1.8748276722e+00 -3.2472967837e+00 1.8748276722e+00 3.2472967837e+00 
88700 6.0607739663e+00 1.9791986632e-05 1.8748276722e+00 -3.2472967837e+00 1.8748276722e+00 3.2472967837e+00 
88800 6.0607739670e+00 1.9799379475e-05 1.8748276722e+00 -3.2472967837e+00 1.8748276722e+00 3.2472967837e+00 
88900 6.0607739677e+00 1.9806676099e-05 1.8748276722e+00 -3.2472967837e+00 1.8748276722e+00 3.2472967837e+00 
89000 6.0607739683e+00 1.9813891322e-05 1.8748276722e+00 -3.2472967837e+00 1.8748276722e+00 3.2472967837e+00 
89100 6.0607739690e+00 1.9821039433e-05 1.8748276722e+00 -3.2472967837e+00 1.8748276722e+00 3.2472967837e+00 
89200 6.0607739697e+00 1.9828134190e-05 1.8748276722e+00 -3.2472967837e+00 1.8748276722e+00 3.2472967837e+00 
89300 6.0607739703e+00 1.9835188814e-05 1.8748276722e+00 -3.2472967837e+00 1.8748276722e+00 3.2472967837e+00 
89400 6.0607739710e+00 1.9842215983e-05 1.8748276722e+00 -3.2472967837e+00 1.8748276722e+00 3.2472967837e+00 
89500 6.0607739716e+00 1.9849227832e-05 1.8748276722e+00 -3.2472967837e+00 1.8748276722e+00 3.2472967837e+00 
89600 6.0607739723e+00 1.9856235947e-05 1.8748276722e+00 -3.2472967837e+00 1.8748276722e+00 3.2472967837e+00 
89700 6.0607739729e+00 1.9863251368e-05 1.8748276722e+00 -3.2472967837e+00 1.8748276722e+00 3.2472967837e+00 
89800 6.0607739735e+00 1.9870284585e-05 1.8748276722e+00 -3.2472967837e+00 1.8748276722e+00 3.2472967837e+00 
89900 6.0607739741e+00 1.9877345547e-05 1.8748276722e+00 -3.2472967837e+00 1.8748276722e+00 3.2472967837e+00 
90000 6.0607739747e+00 1.9884443651e-05 1.8748276722e+00 -3.2472967837e+00 1.8748276722e+00 3.2472967837e+00 
90100 6.0607739753e+00 1.9891587760e-05 1.8748276722e+00 -3.2472967837e+00 1.8748276722e+00 3.2472967837e+00 
90200 6.0607739759e+00 1.9898786191e-05 1.8748276722e+00 -3.2472967837e+00 1.8748276722e+00 3.2472967837e+00 
90300 6.0607739765e+00 1.9906046735e-05 1.8748276722e+00 -3.2472967837e+00 1.8748276722e+00 3.2472967837e+00 
90400 6.0607739771e+00 1.9913376648e-05 1.8748276722e+00 -3.2472967837e+00 1.8748276722e+00 3.2472967837e+00 
90500 6.0607739776e+00 1.9920782669e-05 1.8748276722e+00 -3.2472967837e+00 1.8748276722e+00 3.2472967837e+00 
90600 6.0607739782e+00 1.9928271017e-05 1.8748276722e+00 -3.2472967837e+00 1.8748276722e+00 3.2472967837e+00 
90700 6.0607739788e+00 1.9935847405e-05 1.8748276722e+00 -3.2472967837e+00 1.8748276722e+00 3.2472967837e+00 
90800 6.0607739793e+00 1.9943517046e-05 1.8748276722e+00 -3.2472967837e+00 1.8748276722e+00 3.2472967837e+00 
90900 6.0607739799e+00 1.9951284659e-05 1.8748276722e+00 -3.2472967837e+00 1.8748276722e+00 3.2472967837e+00 
91000 6.0607739804e+00 1.9959154484e-05 1.8748276722e+00 -3.2472967837e+00 1.8748276722e+00 3.2472967837e+00 
91100 6.0607739809e+00 1.9967130282e-05 1.8748276722e+00 -3.2472967837e+00 1.8748276722e+00 3.2472967837e+00 
91200 6.0607739815e+00 1.9975215358e-05 1.8748276722e+00 -3.2472967837e+00 1.8748276722e+00 3.2472967837e+00 
91300 6.0607739820e+00 1.9983412561e-05 1.8748276722e+00 -3.2472967837e+00 1.8748276722e+00 3.2472967837e+00 
91400 6.0607739825e+00 1.9991724301e-05 1.8748276722e+00 -3.2472967837e+00 1.8748276722e+00 3.2472967837e+00 
91500 6.0607739830e+00 2.0000152559e-05 1.8748276722e+00 -3.2472967837e+00 1.8748276722e+00 3.2472967837e+00 
91600 6.0607739835e+00 2.0008698896e-05 1.8748276722e+00 -3.2472967837e+00 1.8748276722e+00 3.2472967837e+00 
91700 6.0607739840e+00 2.0017364470e-05 1.8748276722e+00 -3.2472967837e+00 1.8748276722e+00 3.2472967837e+00 
91800 6.0607739845e+00 2.0026150044e-05 1.8748276722e+00 -3.2472967837e+00 1.8748276722e+00 3.2472967837e+00 
91900 6.0607739850e+00 2.0035056004e-05 1.8748276722e+00 -3.2472967837e+00 1.8748276722e+00 3.2472967837e+00 
92000 6.0607739855e+00 2.0044082365e-05 1.8748276722e+00 -3.2472967837e+00 1.8748276722e+00 3.2472967837e+00 
92100 6.0607739859e+00 2.0053228790e-05 1.8748276722e+00 -3.2472967837e+00 1.8748276722e+00 3.2472967837e+00 
92200 6.0607739864e+00 2.0062494605e-05 1.8748276722e+00 -3.2472967837e+00 1.8748276722e+00 3.2472967837e+00 
92300 6.0607739869e+00 2.0071878802e-05 1.8748276722e+00 -3.2472967837e+00 1.8748276722e+00 3.2472967837e+00 
92400 6.0607739873e+00 2.0081380067e-05 1.8748276722e+00 -3.2472967837e+00 1.8748276722e+00 3.2472967837e+00 
92500 6.0607739878e+00 2.0090996780e-05 1.8748276722e+00 -3.2472967837e+00 1.8748276722e+00 3.2472967837e+00 
92600 6.0607739882e+00 2.0100727040e-05 1.8748276722e+00 -3.2472967837e+00 1.8748276722e+00 3.2472967837e+00 
92700 6.0607739887e+00 2.0110568671e-05 1.8748276722e+00 -3.2472967837e+00 1.8748276722e+00 3.2472967837e+00 
92800 6.0607739891e+00 2.0120519241e-05 1.8748276722e+00 -3.2472967837e+00 1.8748276722e+00 3.2472967837e+00 
92900 6.0607739895e+00 2.0130576072e-05 1.8748276722e+00 -3.2472967837e+00 1.8748276722e+00 3.2472967837e+00 
93000 6.0607739900e+00 2.0140736257e-05 1.8748276722e+00 -3.2472967837e+00 1.8748276722e+00 3.2472967837e+00 
93100 6.0607739904e+00 2.0150996673e-05 1.8748276722e+00 -3.2472967837e+00 1.8748276722e+00 3.2472967837e+00 
93200 6.0607739908e+00 2.0161353990e-05 1.8748276722e+00 -3.2472967837e+00 1.8748276722e+00 3.2472967837e+00 
93300 6.0607739912e+00 2.0171804692e-05 1.8748276722e+00 -3.2472967837e+00 1.8748276722e+00 3.2472967837e+00 
93400 6.0607739916e+00 2.0182345087e-05 1.8748276722e+00 -3.2472967837e+00 1.8748276722e+00 3.2472967837e+00 
93500 6.0607739920e+00 2.0192971318e-05 1.8748276722e+00 -3.2472967837e+00 1.8748276722e+00 3.2472967837e+00 
93600 6.0607739924e+00 2.0203679380e-05 1.8748276722e+00 -3.2472967837e+00 1.8748276722e+00 3.2472967837e+00 
93700 6.0607739928e+00 2.0214465131e-05 1.8748276722e+00 -3.2472967837e+00 1.8748276722e+00 3.2472967837e+00 
93800 6.0607739932e+00 2.0225324304e-05 1.8748276722e+00 -3.2472967837e+00 1.8748276722e+00 3.2472967837e+00 
93900 6.0607739936e+00 2.0236252525e-05 1.8748276722e+00 -3.2472967837e+00 1.8748276722e+00 3.2472967837e+00 
94000 6.0607739940e+00 2.0247245313e-05 1.8748276722e+00 -3.2472967837e+00 1.8748276722e+00 3.2472967837e+00 
94100 6.0607739943e+00 2.0258298107e-05 1.8748276722e+00 -3.2472967837e+00 1.8748276722e+00 3.2472967837e+00 
94200 6.0607739947e+00 2.0269406267e-05 1.8748276722e+00 -3.2472967837e+00 1.8748276722e+00 3.2472967837e+00 
94300 6.0607739951e+00 2.0280565092e-05 1.8748276722e+00 -3.2472967837e+00 1.8748276722e+00 3.2472967837e+00 
94400 6.0607739955e+00 2.0291769825e-05 1.8748276722e+00 -3.2472967837e+00 1.8748276722e+00 3.2472967837e+00 
94500 6.0607739958e+00 2.0303015673e-05 1.8748276722e+00 -3.2472967837e+00 1.8748276722e+00 3.2472967837e+00 
94600 6.0607739962e+00 2.0314297807e-05 1.8748276722e+00 -3.2472967837e+00 1.8748276722e+00 3.2472967837e+00 
94700 6.0607739965e+00 2.0325611380e-05 1.8748276722e+00 -3.2472967837e+00 1.8748276722e+00 3.2472967837e+00 
94800 6.0607739969e+00 2.0336951535e-05 1.8748276722e+00 -3.2472967837e+00 1.8748276722e+00 3.2472967837e+00 
94900 6.0607739972e+00 2.0348313415e-05 1.8748276722e+00 -3.2472967837e+00 1.8748276722e+00 3.2472967837e+00 
95000 6.0607739975e+00 2.0359692170e-05 1.8748276722e+00 -3.2472967837e+00 1.8748276722e+00 3.2472967837e+00 
95100 6.0607739979e+00 2.0371082972e-05 1.8748276722e+00 -3.2472967837e+00 1.8748276722e+00 3.2472967837e+00 
95200 6.0607739982e+00 2.0382481012e-05 1.8748276722e+00 -3.2472967837e+00 1.8748276722e+00 3.2472967837e+00 
95300 6.0607739985e+00 2.0393881526e-05 1.8748276722e+00 -3.2472967837e+00 1.8748276722e+00 3.2472967837e+00 
95400 6.0607739989e+00 2.0405279786e-05 1.8748276722e+00 -3.2472967837e+00 1.8748276722e+00 3.2472967837e+00 
95500 6.0607739992e+00 2.0416671118e-05 1.8748276722e+00 -3.2472967837e+00 1.8748276722e+00 3.2472967837e+00 
95600 6.0607739995e+00 2.0428050905e-05 1.8748276722e+00 -3.2472967837e+00 1.8748276722e+00 3.2472967837e+00 
95700 6.0607739998e+00 2.0439414599e-05 1.8748276722e+00 -3.2472967837e+00 1.8748276722e+00 3.2472967837e+00 
95800 6.0607740001e+00 2.0450757717e-05 1.8748276722e+00 -3.2472967837e+00 1.8748276722e+00 3.2472967837e+00 
95900 6.0607740004e+00 2.0462075860e-05 1.8748276722e+00 -3.2472967837e+00 1.8748276722e+00 3.2472967837e+00 
96000 6.0607740007e+00 2.0473364713e-05 1.8748276722e+00 -3.2472967837e+00 1.8748276722e+00 3.2472967837e+00 
96100 6.0607740010e+00 2.0484620049e-05 1.8748276722e+00 -3.2472967837e+00 1.8748276722e+00 3.2472967837e+00 
96200 6.0607740013e+00 2.0495837734e-05 1.8748276722e+00 -3.2472967837e+00 1.8748276722e+00 3.2472967837e+00 
96300 6.0607740016e+00 2.0507013739e-05 1.8748276722e+00 -3.2472967837e+00 1.8748276722e+00 3.2472967837e+00 
96400 6.0607740019e+00 2.0518144136e-05 1.8748276722e+00 -3.2472967837e+00 1.8748276722e+00 3.2472967837e+00 
96500 6.0607740022e+00 2.0529225108e-05 1.8748276722e+00 -3.2472967837e+00 1.8748276722e+00 3.2472967837e+00 
96600 6.0607740025e+00 2.0540252946e-05 1.8748276722e+00 -3.2472967837e+00 1.8748276722e+00 3.2472967837e+00 
96700 6.0607740028e+00 2.0551224064e-05 1.8748276722e+00 -3.2472967837e+00 1.8748276722e+00 3.2472967837e+00 
96800 6.0607740030e+00 2.0562134991e-05 1.8748276722e+00 -3.2472967837e+00 1.8748276722e+00 3.2472967837e+00 
96900 6.0607740033e+00 2.0572982377e-05 1.8748276722e+00 -3.2472967837e+00 1.8748276722e+00 3.2472967837e+00 
97000 6.0607740036e+00 2.0583763000e-05 1.8748276722e+00 -3.2472967837e+00 1.8748276722e+00 3.2472967837e+00 
97100 6.0607740038e+00 2.0594473766e-05 1.8748276722e+00 -3.2472967837e+00 1.8748276722e+00 3.2472967837e+00 
97200 6.0607740041e+00 2.0605111706e-05 1.8748276722e+00 -3.2472967837e+00 1.8748276722e+00 3.2472967837e+00 
97300 6.0607740044e+00 2.0615673985e-05 1.8748276722e+00 -3.2472967837e+00 1.8748276722e+00 3.2472967837e+00 
97400 6.0607740046e+00 2.0626157899e-05 1.8748276722e+00 -3.2472967837e+00 1.8748276722e+00 3.2472967837e+00 
97500 6.0607740049e+00 2.0636560877e-05 1.8748276722e+00 -3.2472967837e+00 1.8748276722e+00 3.2472967837e+00 
97600 6.0607740051e+00 2.0646880481e-05 1.8748276722e+00 -3.2472967837e+00 1.8748276722e+00 3.2472967837e+00 
97700 6.0607740054e+00 2.0657114412e-05 1.8748276722e+00 -3.2472967837e+00 1.8748276722e+00 3.2472967837e+00 
97800 6.0607740056e+00 2.0667260500e-05 1.8748276722e+00 -3.2472967837e+00 1.8748276722e+00 3.2472967837e+00 
97900 6.0607740059e+00 2.0677316714e-05 1.8748276722e+00 -3.2472967837e+00 1.8748276722e+00 3.2472967837e+00 
98000 6.0607740061e+00 2.0687281158e-05 1.8748276722e+00 -3.2472967837e+00 1.8748276722e+00 3.2472967837e+00 
98100 6.0607740063e+00 2.0697152065e-05 1.8748276722e+00 -3.2472967837e+00 1.8748276722e+00 3.2472967837e+00 
98200 6.0607740066e+00 2.0706927807e-05 1.8748276722e+00 -3.2472967837e+00 1.8748276722e+00 3.2472967837e+00 
98300 6.0607740068e+00 2.0716606888e-05 1.8748276722e+00 -3.2472967837e+00 1.8748276722e+00 3.2472967837e+00 
98400 6.0607740070e+00 2.0726187942e-05 1.8748276722e+00 -3.2472967837e+00 1.8748276722e+00 3.2472967837e+00 
98500 6.0607740073e+00 2.0735669731e-05 1.8748276722e+00 -3.2472967837e+00 1.8748276722e+00 3.2472967837e+00 
98600 6.0607740075e+00 2.0745051151e-05 1.8748276722e+00 -3.2472967837e+00 1.8748276722e+00 3.2472967837e+00 
98700 6.0607740077e+00 2.0754331223e-05 1.8748276722e+00 -3.2472967837e+00 1.8748276722e+00 3.2472967837e+00 
98800 6.0607740079e+00 2.0763509094e-05 1.8748276722e+00 -3.2472967837e+00 1.8748276722e+00 3.2472967837e+00 
98900 6.0607740081e+00 2.0772584029e-05 1.8748276722e+00 -3.2472967837e+00 1.8748276722e+00 3.2472967837e+00 
99000 6.0607740084e+00 2.0781555423e-05 1.8748276722e+00 -3.2472967837e+00 1.8748276722e+00 3.2472967837e+00 
99100 6.0607740086e+00 2.0790422783e-05 1.8748276722e+00 -3.2472967837e+00 1.8748276722e+00 3.2472967837e+00 
99200 6.0607740088e+00 2.0799185734e-05 1.8748276722e+00 -3.2472967837e+00 1.8748276722e+00 3.2472967837e+00 
99300 6.0607740090e+00 2.0807844016e-05 1.8748276722e+00 -3.2472967837e+00 1.8748276722e+00 3.2472967837e+00 
99400 6.0607740092e+00 2.0816397478e-05 1.8748276722e+00 -3.2472967837e+00 1.8748276722e+00 3.2472967837e+00 
99500 6.0607740094e+00 2.0824846079e-05 1.8748276722e+00 -3.2472967837e+00 1.8748276722e+00 3.2472967837e+00 
99600 6.0607740096e+00 2.0833189885e-05 1.8748276722e+00 -3.2472967837e+00 1.8748276722e+00 3.2472967837e+00 
99700 6.0607740098e+00 2.0841429059e-05 1.8748276722e+00 -3.2472967837e+00 1.8748276722e+00 3.2472967837e+00 
99800 6.0607740100e+00 2.0849563868e-05 1.8748276722e+00 -3.2472967837e+00 1.8748276722e+00 3.2472967837e+00 
99900 6.0607740102e+00 2.0857594673e-05 1.8748276722e+00 -3.2472967837e+00 1.8748276722e+00 3.2472967837e+00 
100000 6.0607740104e+00 2.0865521928e-05 1.8748276722e+00 -3.2472967837e+00 1.8748276722e+00 3.2472967837e+00 
100100 6.0607740106e+00 2.0873346178e-05 1.8748276722e+00 -3.2472967837e+00 1.8748276722e+00 3.2472967837e+00 
100200 6.0607740107e+00 2.0881068051e-05 1.8748276722e+00 -3.2472967837e+00 1.8748276722e+00 3.2472967837e+00 
100300 6.0607740109e+00 2.0888688259e-05 1.8748276722e+00 -3.2472967837e+00 1.8748276722e+00 3.2472967837e+00 
100400 6.0607740111e+00 2.0896207597e-05 1.8748276722e+00 -3.2472967837e+00 1.8748276722e+00 3.2472967837e+00 
100500 6.0607740113e+00 2.0903626930e-05 1.8748276722e+00 -3.2472967837e+00 1.8748276722e+00 3.2472967837e+00 
100600 6.0607740115e+00 2.0910947200e-05 1.8748276722e+00 -3.2472967837e+00 1.8748276722e+00 3.2472967837e+00 
100700 6.0607740116e+00 2.0918169416e-05 1.8748276722e+00 -3.2472967837e+00 1.8748276722e+00 3.2472967837e+00 
100800 6.0607740118e+00 2.0925294650e-05 1.8748276722e+00 -3.2472967837e+00 1.8748276722e+00 3.2472967837e+00 
100900 6.0607740120e+00 2.0932324042e-05 1.8748276722e+00 -3.2472967837e+00 1.8748276722e+00 3.2472967837e+00 
101000 6.0607740122e+00 2.0939258784e-05 1.8748276722e+00 -3.2472967837e+00 1.8748276722e+00 3.2472967837e+00 
101100 6.0607740123e+00 2.0946100125e-05 1.8748276722e+00 -3.2472967837e+00 1.8748276722e+00 3.2472967837e+00 
101200 6.0607740125e+00 2.0952849367e-05 1.8748276722e+00 -3.2472967837e+00 1.8748276722e+00 3.2472967837e+00 
101300 6.0607740127e+00 2.0959507860e-05 1.8748276722e+00 -3.2472967837e+00 1.8748276722e+00 3.2472967837e+00 
101400 6.0607740128e+00 2.0966076996e-05 1.8748276722e+00 -3.2472967837e+00 1.8748276722e+00 3.2472967837e+00 
101500 6.0607740130e+00 2.0972558208e-05 1.8748276722e+00 -3.2472967837e+00 1.8748276722e+00 3.2472967837e+00 
101600 6.0607740131e+00 2.0978952968e-05 1.8748276722e+00 -3.2472967837e+00 1.8748276722e+00 3.2472967837e+00 
101700 6.0607740133e+00 2.0985262782e-05 1.8748276722e+00 -3.2472967837e+00 1.8748276722e+00 3.2472967837e+00 
101800 6.0607740135e+00 2.0991489186e-05 1.8748276722e+00 -3.2472967837e+00 1.8748276722e+00 3.2472967837e+00 
101900 6.0607740136e+00 2.0997633747e-05 1.8748276722e+00 -3.2472967837e+00 1.8748276722e+00 3.2472967837e+00 
102000 6.0607740138e+00 2.1003698053e-05 1.8748276722e+00 -3.2472967837e+00 1.8748276722e+00 3.2472967837e+00 
102100 6.0607740139e+00 2.1009683714e-05 1.8748276722e+00 -3.2472967837e+00 1.8748276722e+00 3.2472967837e+00 
102200 6.0607740141e+00 2.1015592360e-05 1.8748276722e+00 -3.2472967837e+00 1.8748276722e+00 3.2472967837e+00 
102300 6.0607740142e+00 2.1021425635e-05 1.8748276722e+00 -3.2472967837e+00 1.8748276722e+00 3.2472967837e+00 
102400 6.0607740144e+00 2.1027185195e-05 1.8748276722e+00 -3.2472967837e+00 1.8748276722e+00 3.2472967837e+00 
102500 6.0607740145e+00 2.1032872709e-05 1.8748276722e+00 -3.2472967837e+00 1.8748276722e+00 3.2472967837e+00 
102600 6.0607740146e+00 2.1038489850e-05 1.8748276722e+00 -3.2472967837e+00 1.8748276722e+00 3.2472967837e+00 
102700 6.0607740148e+00 2.1044038293e-05 1.8748276722e+00 -3.2472967837e+00 1.8748276722e+00 3.2472967837e+00 
102800 6.0607740149e+00 2.1049519720e-05 1.8748276722e+00 -3.2472967837e+00 1.8748276722e+00 3.2472967837e+00 
102900 6.0607740151e+00 2.1054935807e-05 1.8748276722e+00 -3.2472967837e+00 1.8748276722e+00 3.2472967837e+00 
103000 6.0607740152e+00 2.1060288229e-05 1.8748276722e+00 -3.2472967837e+00 1.8748276722e+00 3.2472967837e+00 
103100 6.0607740153e+00 2.1065578653e-05 1.8748276722e+00 -3.2472967837e+00 1.8748276722e+00 3.2472967837e+00 
103200 6.0607740155e+00 2.1070808742e-05 1.8748276722e+00 -3.2472967837e+00 1.8748276722e+00 3.2472967837e+00 
103300 6.0607740156e+00 2.1075980145e-05 1.8748276722e+00 -3.2472967837e+00 1.8748276722e+00 3.2472967837e+00 
103400 6.0607740157e+00 2.1081094497e-05 1.8748276722e+00 -3.2472967837e+00 1.8748276722e+00 3.2472967837e+00 
103500 6.0607740158e+00 2.1086153423e-05 1.8748276722e+00 -3.2472967837e+00 1.8748276722e+00 3.2472967837e+00 
103600 6.0607740160e+00 2.1091158529e-05 1.8748276722e+00 -3.2472967837e+00 1.8748276722e+00 3.2472967837e+00 
103700 6.0607740161e+00 2.1096111404e-05 1.8748276722e+00 -3.2472967837e+00 1.8748276722e+00 3.2472967837e+00 
103800 6.0607740162e+00 2.1101013613e-05 1.8748276722e+00 -3.2472967837e+00 1.8748276722e+00 3.2472967837e+00 
103900 6.0607740163e+00 2.1105866705e-05 1.8748276722e+00 -3.2472967837e+00 1.8748276722e+00 3.2472967837e+00 
104000 6.0607740165e+00 2.1110672199e-05 1.8748276722e+00 -3.2472967837e+00 1.8748276722e+00 3.2472967837e+00 
104100 6.0607740166e+00 2.1115431596e-05 1.8748276722e+00 -3.2472967837e+00 1.8748276722e+00 3.2472967837e+00 
104200 6.0607740167e+00 2.1120146365e-05 1.8748276722e+00 -3.2472967837e+00 1.8748276722e+00 3.2472967837e+00 
104300 6.0607740168e+00 2.1124817952e-05 1.8748276722e+00 -3.2472967837e+00 1.8748276722e+00 3.2472967837e+00 
104400 6.0607740169e+00 2.1129447770e-05 1.8748276722e+00 -3.2472967837e+00 1.8748276722e+00 3.2472967837e+00 
104500 6.0607740170e+00 2.1134037206e-05 1.8748276722e+00 -3.2472967837e+00 1.8748276722e+00 3.2472967837e+00 
104600 6.0607740172e+00 2.1138587613e-05 1.8748276722e+00 -3.2472967837e+00 1.8748276722e+00 3.2472967837e+00 
104700 6.0607740173e+00 2.1143100312e-05 1.8748276722e+00 -3.2472967837e+00 1.8748276722e+00 3.2472967837e+00 
104800 6.0607740174e+00 2.1147576595e-05 1.8748276722e+00 -3.2472967837e+00 1.8748276722e+00 3.2472967837e+00 
104900 6.0607740175e+00 2.1152017716e-05 1.8748276722e+00 -3.2472967837e+00 1.8748276722e+00 3.2472967837e+00 
105000 6.0607740176e+00 2.1156424897e-05 1.8748276722e+00 -3.2472967837e+00 1.8748276722e+00 3.2472967837e+00 
105100 6.0607740177e+00 2.1160799323e-05 1.8748276722e+00 -3.2472967837e+00 1.8748276722e+00 3.2472967837e+00 
105200 6.0607740178e+00 2.1165142148e-05 1.8748276722e+00 -3.2472967837e+00 1.8748276722e+00 3.2472967837e+00 
105300 6.0607740179e+00 2.1169454486e-05 1.8748276722e+00 -3.2472967837e+00 1.8748276722e+00 3.2472967837e+00 
105400 6.0607740180e+00 2.1173737413e-05 1.8748276722e+00 -3.2472967837e+00 1.8748276722e+00 3.2472967837e+00 
105500 6.0607740181e+00 2.1177991973e-05 1.8748276722e+00 -3.2472967837e+00 1.8748276722e+00 3.2472967837e+00 
105600 6.0607740182e+00 2.1182219170e-05 1.8748276722e+00 -3.2472967837e+00 1.8748276722e+00 3.2472967837e+00 
105700 6.0607740183e+00 2.1186419975e-05 1.8748276722e+00 -3.2472967837e+00 1.8748276722e+00 3.2472967837e+00 
105800 6.0607740184e+00 2.1190595316e-05 1.8748276722e+00 -3.2472967837e+00 1.8748276722e+00 3.2472967837e+00 
105900 6.0607740185e+00 2.1194746086e-05 1.8748276722e+00 -3.2472967837e+00 1.8748276722e+00 3.2472967837e+00 
106000 6.0607740186e+00 2.1198873143e-05 1.8748276722e+00 -3.2472967837e+00 1.8748276722e+00 3.2472967837e+00 
106100 6.0607740187e+00 2.1202977303e-05 1.8748276722e+00 -3.2472967837e+00 1.8748276722e+00 3.2472967837e+00 
106200 6.0607740188e+00 2.1207059352e-05 1.8748276722e+00 -3.2472967837e+00 1.8748276722e+00 3.2472967837e+00 
106300 6.0607740189e+00 2.1211120033e-05 1.8748276722e+00 -3.2472967837e+00 1.8748276722e+00 3.2472967837e+00 
106400 6.0607740190e+00 2.1215160054e-05 1.8748276722e+00 -3.2472967837e+00 1.8748276722e+00 3.2472967837e+00 
106500 6.0607740191e+00 2.1219180089e-05 1.8748276722e+00 -3.2472967837e+00 1.8748276722e+00 3.2472967837e+00 
106600 6.0607740192e+00 2.1223180774e-05 1.8748276722e+00 -3.2472967837e+00 1.8748276722e+00 3.2472967837e+00 
106700 6.0607740193e+00 2.1227162710e-05 1.8748276722e+00 -3.2472967837e+00 1.8748276722e+00 3.2472967837e+00 
106800 6.0607740193e+00 2.1231126463e-05 1.8748276722e+00 -3.2472967837e+00 1.8748276722e+00 3.2472967837e+00 
106900 6.0607740194e+00 2.1235072564e-05 1.8748276722e+00 -3.2472967837e+00 1.8748276722e+00 3.2472967837e+00 
107000 6.0607740195e+00 2.1239001512e-05 1.8748276722e+00 -3.2472967837e+00 1.8748276722e+00 3.2472967837e+00 
107100 6.0607740196e+00 2.1242913770e-05 1.8748276722e+00 -3.2472967837e+00 1.8748276722e+00 3.2472967837e+00 
107200 6.0607740197e+00 2.1246809771e-05 1.8748276722e+00 -3.2472967837e+00 1.8748276722e+00 3.2472967837e+00 
107300 6.0607740198e+00 2.1250689913e-05 1.8748276722e+00 -3.2472967837e+00 1.8748276722e+00 3.2472967837e+00 
107400 6.0607740198e+00 2.1254554564e-05 1.8748276722e+00 -3.2472967837e+00 1.8748276722e+00 3.2472967837e+00 
107500 6.0607740199e+00 2.1258404063e-05 1.8748276722e+00 -3.2472967837e+00 1.8748276722e+00 3.2472967837e+00 
107600 6.0607740200e+00 2.1262238716e-05 1.8748276722e+00 -3.2472967837e+00 1.8748276722e+00 3.2472967837e+00 
107700 6.0607740201e+00 2.1266058801e-05 1.8748276722e+00 -3.2472967837e+00 1.8748276722e+00 3.2472967837e+00 
107800 6.0607740202e+00 2.1269864568e-05 1.8748276722e+00 -3.2472967837e+00 1.8748276722e+00 3.2472967837e+00 
107900 6.0607740202e+00 2.1273656240e-05 1.8748276722e+00 -3.2472967837e+00 1.8748276722e+00 3.2472967837e+00 
108000 6.0607740203e+00 2.1277434011e-05 1.8748276722e+00 -3.2472967837e+00 1.8748276722e+00 3.2472967837e+00 
108100 6.0607740204e+00 2.1281198052e-05 1.8748276722e+00 -3.2472967837e+00 1.8748276722e+00 3.2472967837e+00 
108200 6.0607740205e+00 2.1284948507e-05 1.8748276722e+00 -3.2472967837e+00 1.8748276722e+00 3.2472967837e+00 
108300 6.0607740205e+00 2.1288685496e-05 1.8748276722e+00 -3.2472967837e+00 1.8748276722e+00 3.2472967837e+00 
108400 6.0607740206e+00 2.1292409117e-05 1.8748276722e+00 -3.2472967837e+00 1.8748276722e+00 3.2472967837e+00 
108500 6.0607740207e+00 2.1296119446e-05 1.8748276722e+00 -3.2472967837e+00 1.8748276722e+00 3.2472967837e+00 
108600 6.0607740208e+00 2.1299816533e-05 1.8748276722e+00 -3.2472967837e+00 1.8748276722e+00 3.2472967837e+00 
108700 6.0607740208e+00 2.1303500415e-05 1.8748276722e+00 -3.2472967837e+00 1.8748276722e+00 3.2472967837e+00 
108800 6.0607740209e+00 2.1307171105e-05 1.8748276722e+00 -3.2472967837e+00 1.8748276722e+00 3.2472967837e+00 
108900 6.0607740210e+00 2.1310828594e-05 1.8748276722e+00 -3.2472967837e+00 1.8748276722e+00 3.2472967837e+00 
109000 6.0607740210e+00 2.1314472863e-05 1.8748276722e+00 -3.2472967837e+00 1.8748276722e+00 3.2472967837e+00 
109100 6.0607740211e+00 2.1318103870e-05 1.8748276722e+00 -3.2472967837e+00 1.8748276722e+00 3.2472967837e+00 
109200 6.0607740212e+00 2.1321721561e-05 1.8748276722e+00 -3.2472967837e+00 1.8748276722e+00 3.2472967837e+00 
109300 6.0607740212e+00 2.1325325864e-05 1.8748276722e+00 -3.2472967837e+00 1.8748276722e+00 3.2472967837e+00 
109400 6.0607740213e+00 2.1328916696e-05 1.8748276722e+00 -3.2472967837e+00 1.8748276722e+00 3.2472967837e+00 
109500 6.0607740214e+00 2.1332493956e-05 1.8748276722e+00 -3.2472967837e+00 1.8748276722e+00 3.2472967837e+00 
109600 6.0607740214e+00 2.1336057537e-05 1.8748276722e+00 -3.2472967837e+00 1.8748276722e+00 3.2472967837e+00 
109700 6.0607740215e+00 2.1339607314e-05 1.8748276722e+00 -3.2472967837e+00 1.8748276722e+00 3.2472967837e+00 
109800 6.0607740216e+00 2.1343143159e-05 1.8748276722e+00 -3.2472967837e+00 1.8748276722e+00 3.2472967837e+00 
109900 6.0607740216e+00 2.1346664927e-05 1.8748276722e+00 -3.2472967837e+00 1.8748276722e+00 3.2472967837e+00 
110000 6.0607740217e+00 2.1350172467e-05 1.8748276722e+00 -3.2472967837e+00 1.8748276722e+00 3.2472967837e+00 
110100 6.0607740217e+00 2.1353665624e-05 1.8748276722e+00 -3.2472967837e+00 1.8748276722e+00 3.2472967837e+00 
110200 6.0607740218e+00 2.1357144229e-05 1.8748276722e+00 -3.2472967837e+00 1.8748276722e+00 3.2472967837e+00 
110300 6.0607740219e+00 2.1360608110e-05 1.8748276722e+00 -3.2472967837e+00 1.8748276722e+00 3.2472967837e+00 
110400 6.0607740219e+00 2.1364057090e-05 1.8748276722e+00 -3.2472967837e+00 1.8748276722e+00 3.2472967837e+00 
110500 6.0607740220e+00 2.1367490985e-05 1.8748276722e+00 -3.2472967837e+00 1.8748276722e+00 3.2472967837e+00 
110600 6.0607740220e+00 2.1370909611e-05 1.8748276722e+00 -3.2472967837e+00 1.8748276722e+00 3.2472967837e+00 
110700 6.0607740221e+00 2.1374312774e-05 1.8748276722e+00 -3.2472967837e+00 1.8748276722e+00 3.2472967837e+00 
110800 6.0607740221e+00 2.1377700284e-05 1.8748276722e+00 -3.2472967837e+00 1.8748276722e+00 3.2472967837e+00 
110900 6.0607740222e+00 2.1381071946e-05 1.8748276722e+00 -3.2472967837e+00 1.8748276722e+00 3.2472967837e+00 
111000 6.0607740223e+00 2.1384427562e-05 1.8748276722e+00 -3.2472967837e+00 1.8748276722e+00 3.2472967837e+00 
111100 6.0607740223e+00 2.1387766938e-05 1.8748276722e+00 -3.2472967837e+00 1.8748276722e+00 3.2472967837e+00 
111200 6.0607740224e+00 2.1391089876e-05 1.8748276722e+00 -3.2472967837e+00 1.8748276722e+00 3.2472967837e+00 
111300 6.0607740224e+00 2.1394396178e-05 1.8748276722e+00 -3.2472967837e+00 1.8748276722e+00 3.2472967837e+00 
111400 6.0607740225e+00 2.1397685651e-05 1.8748276722e+00 -3.2472967837e+00 1.8748276722e+00 3.2472967837e+00 
111500 6.0607740225e+00 2.1400958100e-05 1.8748276722e+00 -3.2472967837e+00 1.8748276722e+00 3.2472967837e+00 
111600 6.0607740226e+00 2.1404213337e-05 1.8748276722e+00 -3.2472967837e+00 1.8748276722e+00 3.2472967837e+00 
111700 6.0607740226e+00 2.1407451170e-05 1.8748276722e+00 -3.2472967837e+00 1.8748276722e+00 3.2472967837e+00 
111800 6.0607740227e+00 2.1409964481e-05 1.8748276722e+00 -3.2472967837e+00 1.8748276722e+00 3.2472967837e+00 
111800 6.0607740227e+00 2.1409964481e-05 1.8748276722e+00 -3.2472967837e+00 1.8748276722e+00 3.2472967837e+00 
