# step Hamiltonian StressXX CellTensor1 CellTensor2 CellTensor3 CellTensor4 
0 6.8291847363e+00 3.4189421655e-02 1.6495625316e+00 -2.8571261149e+00 1.6495625316e+00 2.8571261149e+00 
100 6.8209591410e+00 3.7251869076e-02 1.6495625316e+00 -2.8571261149e+00 1.6495625316e+00 2.8571261149e+00 
200 6.8126302410e+00 3.9174137551e-02 1.6484335166e+00 -2.8551706036e+00 1.6484335166e+00 2.8551706036e+00 
300 6.8042767787e+00 4.0800455362e-02 1.6472454363e+00 -2.8531127882e+00 1.6472454363e+00 2.8531127882e+00 
400 6.7959287490e+00 4.2156295017e-02 1.6460071466e+00 -2.8509680076e+00 1.6460071466e+00 2.8509680076e+00 
500 6.7876123475e+00 4.3264437929e-02 1.6447267505e+00 -2.8487502964e+00 1.6447267505e+00 2.8487502964e+00 
600 6.7793504281e+00 4.4145331110e-02 1.6434116789e+00 -2.8464725257e+00 1.6434116789e+00 2.8464725257e+00 
700 6.7711628985e+00 4.4817395639e-02 1.6420687618e+00 -2.8441465250e+00 1.6420687618e+00 2.8441465250e+00 
800 6.7630670627e+00 4.5297292721e-02 1.6407042884e+00 -2.8417831877e+00 1.6407042884e+00 2.8417831877e+00 
900 6.7550779176e+00 4.5600152635e-02 1.6393240600e+00 -2.8393925619e+00 1.6393240600e+00 2.8393925619e+00 
1000 6.7472084105e+00 4.5739771376e-02 1.6379334350e+00 -2.8369839288e+00 1.6379334350e+00 2.8369839288e+00 
1100 6.7394696628e+00 4.5728779255e-02 1.6365373689e+00 -2.8345658714e+00 1.6365373689e+00 2.8345658714e+00 
1200 6.7318711651e+00 4.5578785265e-02 1.6351404479e+00 -2.8321463333e+00 1.6351404479e+00 2.8321463333e+00 
1300 6.7244209479e+00 4.5300500553e-02 1.6337469191e+00 -2.8297326707e+00 1.6337469191e+00 2.8297326707e+00 
1400 6.7171257312e+00 4.4903843926e-02 1.6323607164e+00 -2.8273316972e+00 1.6323607164e+00 2.8273316972e+00 
1500 6.7099910564e+00 4.4398031945e-02 1.6309854833e+00 -2.8249497234e+00 1.6309854833e+00 2.8249497234e+00 
1600 6.7030214029e+00 4.3791655829e-02 1.6296245928e+00 -2.8225925920e+00 1.6296245928e+00 2.8225925920e+00 
1700 6.6962202919e+00 4.3092747093e-02 1.6282811658e+00 -2.8202657082e+00 1.6282811658e+00 2.8202657082e+00 
1800 6.6895903787e+00 4.2308833586e-02 1.6269580864e+00 -2.8179740674e+00 1.6269580864e+00 2.8179740674e+00 
1900 6.6831335356e+00 4.1446987354e-02 1.6256580162e+00 -2.8157222798e+00 1.6256580162e+00 2.8157222798e+00 
2000 6.6768509269e+00 4.0513865576e-02 1.6243834072e+00 -2.8135145923e+00 1.6243834072e+00 2.8135145923e+00 
2100 6.6707430760e+00 3.9515745621e-02 1.6231365133e+00 -2.8113549086e+00 1.6231365133e+00 2.8113549086e+00 
2200 6.6648099276e+00 3.8458555144e-02 1.6219194005e+00 -2.8092468075e+00 1.6219194005e+00 2.8092468075e+00 
2300 6.6590509028e+00 3.7347897998e-02 1.6207339573e+00 -2.8071935596e+00 1.6207339573e+00 2.8071935596e+00 
2400 6.6534649513e+00 3.6189076622e-02 1.6195819030e+00 -2.8051981431e+00 1.6195819030e+00 2.8051981431e+00 
2500 6.6480505984e+00 3.4987111483e-02 1.6184647964e+00 -2.8032632577e+00 1.6184647964e+00 2.8032632577e+00 
2600 6.6428059885e+00 3.3746758044e-02 1.6173840434e+00 -2.8013913385e+00 1.6173840434e+00 2.8013913385e+00 
2700 6.6377289252e+00 3.2472521679e-02 1.6163409044e+00 -2.7995845688e+00 1.6163409044e+00 2.7995845688e+00 
2800 6.6328169092e+00 3.1168670879e-02 1.6153365013e+00 -2.7978448916e+00 1.6153365013e+00 2.7978448916e+00 
2900 6.6280671727e+00 2.9839249032e-02 1.6143718241e+00 -2.7961740216e+00 1.6143718241e+00 2.7961740216e+00 
3000 6.6234767118e+00 2.8488085047e-02 1.6134477371e+00 -2.7945734560e+00 1.6134477371e+00 2.7945734560e+00 
3100 6.6190423164e+00 2.7118803004e-02 1.6125649850e+00 -2.7930444846e+00 1.6125649850e+00 2.7930444846e+00 
3200 6.6147605985e+00 2.5734831022e-02 1.6117241989e+00 -2.7915882003e+00 1.6117241989e+00 2.7915882003e+00 
3300 6.6106280181e+00 2.4339409472e-02 1.6109259015e+00 -2.7902055086e+00 1.6109259015e+00 2.7902055086e+00 
3400 6.6066409078e+00 2.2935598669e-02 1.6101705127e+00 -2.7888971369e+00 1.6101705127e+00 2.7888971369e+00 
3500 6.6027954955e+00 2.1526286123e-02 1.6094583550e+00 -2.7876636436e+00 1.6094583550e+00 2.7876636436e+00 
3600 6.5990879252e+00 2.0114193439e-02 1.6087896582e+00 -2.7865054267e+00 1.6087896582e+00 2.7865054267e+00 
3700 6.5955142772e+00 1.8701882918e-02 1.6081645643e+00 -2.7854227324e+00 1.6081645643e+00 2.7854227324e+00 
3800 6.5920705859e+00 1.7291763920e-02 1.6075831327e+00 -2.7844156632e+00 1.6075831327e+00 2.7844156632e+00 
3900 6.5887528570e+00 1.5886099016e-02 1.6070453440e+00 -2.7834841859e+00 1.6070453440e+00 2.7834841859e+00 
4000 6.5855570829e+00 1.4487009955e-02 1.6065511052e+00 -2.7826281391e+00 1.6065511052e+00 2.7826281391e+00 
4100 6.5824792575e+00 1.3096483488e-02 1.6061002533e+00 -2.7818472408e+00 1.6061002533e+00 2.7818472408e+00 
4200 6.5795153891e+00 1.1716377036e-02 1.6056925599e+00 -2.7811410951e+00 1.6056925599e+00 2.7811410951e+00 
4300 6.5766615130e+00 1.0348424228e-02 1.6053277350e+00 -2.7805091998e+00 1.6053277350e+00 2.7805091998e+00 
4400 6.5739137023e+00 8.9942403179e-03 1.6050054308e+00 -2.7799509525e+00 1.6050054308e+00 2.7799509525e+00 
4500 6.5712680779e+00 7.6553274636e-03 1.6047252455e+00 -2.7794656573e+00 1.6047252455e+00 2.7794656573e+00 
4600 6.5687208181e+00 6.3330798919e-03 1.6044867268e+00 -2.7790525309e+00 1.6044867268e+00 2.7790525309e+00 
4700 6.5662681664e+00 5.0287889301e-03 1.6042893755e+00 -2.7787107085e+00 1.6042893755e+00 2.7787107085e+00 
4800 6.5639064392e+00 3.7436479093e-03 1.6041326486e+00 -2.7784392495e+00 1.6041326486e+00 2.7784392495e+00 
4900 6.5616320319e+00 2.4787569334e-03 1.6040159624e+00 -2.7782371431e+00 1.6040159624e+00 2.7782371431e+00 
5000 6.5594414250e+00 1.2351275099e-03 1.6039386958e+00 -2.7781033134e+00 1.6039386958e+00 2.7781033134e+00 
5100 6.5573311889e+00 1.3687038526e-05 1.6039001930e+00 -2.7780366246e+00 1.6039001930e+00 2.7780366246e+00 
5200 6.5552979869e+00 -1.1841766784e-03 1.6039001930e+00 -2.7780366246e+00 1.6039001930e+00 2.7780366246e+00 
5300 6.5533385825e+00 -2.3587904243e-03 1.6039371087e+00 -2.7781005644e+00 1.6039371087e+00 2.7781005644e+00 
5400 6.5514498387e+00 -3.5088944688e-03 1.6040106405e+00 -2.7782279253e+00 1.6040106405e+00 2.7782279253e+00 
5500 6.5496287216e+00 -4.6338559453e-03 1.6041200206e+00 -2.7784173770e+00 1.6041200206e+00 2.7784173770e+00 
5600 6.5478723018e+00 -5.7331059173e-03 1.6042644588e+00 -2.7786675514e+00 1.6042644588e+00 2.7786675514e+00 
5700 6.5461777561e+00 -6.8061358142e-03 1.6044431454e+00 -2.7789770457e+00 1.6044431454e+00 2.7789770457e+00 
5800 6.5445423682e+00 -7.8524940267e-03 1.6046552528e+00 -2.7793444266e+00 1.6046552528e+00 2.7793444266e+00 
5900 6.5429635287e+00 -8.8717826615e-03 1.6048999376e+00 -2.7797682330e+00 1.6048999376e+00 2.7797682330e+00 
6000 6.5414387352e+00 -9.8636544563e-03 1.6051763423e+00 -2.7802469799e+00 1.6051763423e+00 2.7802469799e+00 
6100 6.5399655918e+00 -1.0827809851e-02 1.6054835973e+00 -2.7807791612e+00 1.6054835973e+00 2.7807791612e+00 
6200 6.5385418081e+00 -1.1763994213e-02 1.6058208224e+00 -2.7813632523e+00 1.6058208224e+00 2.7813632523e+00 
6300 6.5371651980e+00 -1.2671995220e-02 1.6061871286e+00 -2.7819977132e+00 1.6061871286e+00 2.7819977132e+00 
6400 6.5358336782e+00 -1.3551640385e-02 1.6065816192e+00 -2.7826809909e+00 1.6065816192e+00 2.7826809909e+00 
6500 6.5345452665e+00 -1.4402794727e-02 1.6070033915e+00 -2.7834115220e+00 1.6070033915e+00 2.7834115220e+00 
6600 6.5332980796e+00 -1.5225358589e-02 1.6074515382e+00 -2.7841877348e+00 1.6074515382e+00 2.7841877348e+00 
6700 6.5320903310e+00 -1.6019265587e-02 1.6079251483e+00 -2.7850080516e+00 1.6079251483e+00 2.7850080516e+00 
6800 6.5309203283e+00 -1.6784480687e-02 1.6084233087e+00 -2.7858708907e+00 1.6084233087e+00 2.7858708907e+00 
6900 6.5297864707e+00 -1.7520998414e-02 1.6089451050e+00 -2.7867746684e+00 1.6089451050e+00 2.7867746684e+00 
7000 6.5286872466e+00 -1.8228841174e-02 1.6094896228e+00 -2.7877178010e+00 1.6094896228e+00 2.7877178010e+00 
7100 6.5276212298e+00 -1.8908057701e-02 1.6100559486e+00 -2.7886987060e+00 1.6100559486e+00 2.7886987060e+00 
7200 6.5265870773e+00 -1.9558721598e-02 1.6106431707e+00 -2.7897158044e+00 1.6106431707e+00 2.7897158044e+00 
7300 6.5255835259e+00 -2.0180929996e-02 1.6112503800e+00 -2.7907675218e+00 1.6112503800e+00 2.7907675218e+00 
7400 6.5246093889e+00 -2.0774802296e-02 1.6118766711e+00 -2.7918522899e+00 1.6118766711e+00 2.7918522899e+00 
7500 6.5236635531e+00 -2.1340479014e-02 1.6125211430e+00 -2.7929685480e+00 1.6125211430e+00 2.7929685480e+00 
7600 6.5227449753e+00 -2.1878120698e-02 1.6131828999e+00 -2.7941147445e+00 1.6131828999e+00 2.7941147445e+00 
7700 6.5218526793e+00 -2.2387906942e-02 1.6138610515e+00 -2.7952893376e+00 1.6138610515e+00 2.7952893376e+00 
7800 6.5209857524e+00 -2.2870035454e-02 1.6145547144e+00 -2.7964907970e+00 1.6145547144e+00 2.7964907970e+00 
7900 6.5201433419e+00 -2.3324721209e-02 1.6152630121e+00 -2.7977176045e+00 1.6152630121e+00 2.7977176045e+00 
8000 6.5193246525e+00 -2.3752195653e-02 1.6159850758e+00 -2.7989682556e+00 1.6159850758e+00 2.7989682556e+00 
8100 6.5185289424e+00 -2.4152705975e-02 1.6167200454e+00 -2.8002412602e+00 1.6167200454e+00 2.8002412602e+00 
8200 6.5177555204e+00 -2.4526514420e-02 1.6174670691e+00 -2.8015351432e+00 1.6174670691e+00 2.8015351432e+00 
8300 6.5170037428e+00 -2.4873897664e-02 1.6182253049e+00 -2.8028484462e+00 1.6182253049e+00 2.8028484462e+00 
8400 6.5162730100e+00 -2.5195146218e-02 1.6189939206e+00 -2.8041797276e+00 1.6189939206e+00 2.8041797276e+00 
8500 6.5155627640e+00 -2.5490563886e-02 1.6197720941e+00 -2.8055275636e+00 1.6197720941e+00 2.8055275636e+00 
8600 6.5148724849e+00 -2.5760467243e-02 1.6205590142e+00 -2.8068905493e+00 1.6205590142e+00 2.8068905493e+00 
8700 6.5142016885e+00 -2.6005185156e-02 1.6213538811e+00 -2.8082672990e+00 1.6213538811e+00 2.8082672990e+00 
8800 6.5135499233e+00 -2.6225058327e-02 1.6221559061e+00 -2.8096564471e+00 1.6221559061e+00 2.8096564471e+00 
8900 6.5129167676e+00 -2.6420438863e-02 1.6229643128e+00 -2.8110566487e+00 1.6229643128e+00 2.8110566487e+00 
9000 6.5123018275e+00 -2.6591689861e-02 1.6237783371e+00 -2.8124665801e+00 1.6237783371e+00 2.8124665801e+00 
9100 6.5117047338e+00 -2.6739185015e-02 1.6245972273e+00 -2.8138849395e+00 1.6245972273e+00 2.8138849395e+00 
9200 6.5111251398e+00 -2.6863308240e-02 1.6254202449e+00 -2.8153104478e+00 1.6254202449e+00 2.8153104478e+00 
9300 6.5105627195e+00 -2.6964453307e-02 1.6262466645e+00 -2.8167418485e+00 1.6262466645e+00 2.8167418485e+00 
9400 6.5100171645e+00 -2.7043023481e-02 1.6270757743e+00 -2.8181779089e+00 1.6270757743e+00 2.8181779089e+00 
9500 6.5094881827e+00 -2.7099431177e-02 1.6279068765e+00 -2.8196174201e+00 1.6279068765e+00 2.8196174201e+00 
9600 6.5089754961e+00 -2.7134097617e-02 1.6287392871e+00 -2.8210591976e+00 1.6287392871e+00 2.8210591976e+00 
9700 6.5084788388e+00 -2.7147452493e-02 1.6295723366e+00 -2.8225020817e+00 1.6295723366e+00 2.8225020817e+00 
9800 6.5079979554e+00 -2.7139933624e-02 1.6304053701e+00 -2.8239449379e+00 1.6304053701e+00 2.8239449379e+00 
9900 6.5075325995e+00 -2.7111986629e-02 1.6312377471e+00 -2.8253866573e+00 1.6312377471e+00 2.8253866573e+00 
10000 6.5070825320e+00 -2.7064064587e-02 1.6320688427e+00 -2.8268261569e+00 1.6320688427e+00 2.8268261569e+00 
10100 6.5066475194e+00 -2.6996627700e-02 1.6328980465e+00 -2.8282623801e+00 1.6328980465e+00 2.8282623801e+00 
10200 6.5062273332e+00 -2.6910142955e-02 1.6337247639e+00 -2.8296942966e+00 1.6337247639e+00 2.8296942966e+00 
10300 6.5058217482e+00 -2.6805083777e-02 1.6345484156e+00 -2.8311209032e+00 1.6345484156e+00 2.8311209032e+00 
10400 6.5054305414e+00 -2.6681929689e-02 1.6353684379e+00 -2.8325412235e+00 1.6353684379e+00 2.8325412235e+00 
10500 6.5050534911e+00 -2.6541165950e-02 1.6361842830e+00 -2.8339543087e+00 1.6361842830e+00 2.8339543087e+00 
10600 6.5046903761e+00 -2.6383283209e-02 1.6369954189e+00 -2.8353592374e+00 1.6369954189e+00 2.8353592374e+00 
10700 6.5043409746e+00 -2.6208777132e-02 1.6378013298e+00 -2.8367551159e+00 1.6378013298e+00 2.8367551159e+00 
10800 6.5040050639e+00 -2.6018148042e-02 1.6386015157e+00 -2.8381410785e+00 1.6386015157e+00 2.8381410785e+00 
10900 6.5036824194e+00 -2.5811900540e-02 1.6393954929e+00 -2.8395162875e+00 1.6393954929e+00 2.8395162875e+00 
11000 6.5033728140e+00 -2.5590543123e-02 1.6401827943e+00 -2.8408799334e+00 1.6401827943e+00 2.8408799334e+00 
11100 6.5030760182e+00 -2.5354587805e-02 1.6409629686e+00 -2.8422312350e+00 1.6409629686e+00 2.8422312350e+00 
11200 6.5027917990e+00 -2.5104549716e-02 1.6417355813e+00 -2.8435694395e+00 1.6417355813e+00 2.8435694395e+00 
11300 6.5025199200e+00 -2.4840946708e-02 1.6425002141e+00 -2.8448938223e+00 1.6425002141e+00 2.8448938223e+00 
11400 6.5022601413e+00 -2.4564298951e-02 1.6432564652e+00 -2.8462036876e+00 1.6432564652e+00 2.8462036876e+00 
11500 6.5020122189e+00 -2.4275128524e-02 1.6440039493e+00 -2.8474983680e+00 1.6440039493e+00 2.8474983680e+00 
11600 6.5017759048e+00 -2.3973959002e-02 1.6447422974e+00 -2.8487772245e+00 1.6447422974e+00 2.8487772245e+00 
11700 6.5015509472e+00 -2.3661315032e-02 1.6454711571e+00 -2.8500396466e+00 1.6454711571e+00 2.8500396466e+00 
11800 6.5013370899e+00 -2.3337721919e-02 1.6461901925e+00 -2.8512850523e+00 1.6461901925e+00 2.8512850523e+00 
11900 6.5011340731e+00 -2.3003705193e-02 1.6468990837e+00 -2.8525128879e+00 1.6468990837e+00 2.8525128879e+00 
12000 6.5009416331e+00 -2.2659790184e-02 1.6475975275e+00 -2.8537226281e+00 1.6475975275e+00 2.8537226281e+00 
12100 6.5007595023e+00 -2.2306501587e-02 1.6482852369e+00 -2.8549137757e+00 1.6482852369e+00 2.8549137757e+00 
12200 6.5005874099e+00 -2.1944363033e-02 1.6489619410e+00 -2.8560858616e+00 1.6489619410e+00 2.8560858616e+00 
12300 6.5004250816e+00 -2.1573896648e-02 1.6496273851e+00 -2.8572384445e+00 1.6496273851e+00 2.8572384445e+00 
12400 6.5002722404e+00 -2.1195622625e-02 1.6502813304e+00 -2.8583711110e+00 1.6502813304e+00 2.8583711110e+00 
12500 6.5001286065e+00 -2.0810058784e-02 1.6509235541e+00 -2.8594834751e+00 1.6509235541e+00 2.8594834751e+00 
12600 6.4999938977e+00 -2.0417720139e-02 1.6515538492e+00 -2.8605751783e+00 1.6515538492e+00 2.8605751783e+00 
12700 6.4998678300e+00 -2.0019118464e-02 1.6521720245e+00 -2.8616458892e+00 1.6521720245e+00 2.8616458892e+00 
12800 6.4997501178e+00 -1.9614761867e-02 1.6527779039e+00 -2.8626953032e+00 1.6527779039e+00 2.8626953032e+00 
12900 6.4996404742e+00 -1.9205154355e-02 1.6533713271e+00 -2.8637231423e+00 1.6533713271e+00 2.8637231423e+00 
13000 6.4995386116e+00 -1.8790795418e-02 1.6539521488e+00 -2.8647291550e+00 1.6539521488e+00 2.8647291550e+00 
13100 6.4994442419e+00 -1.8372179602e-02 1.6545202387e+00 -2.8657131156e+00 1.6545202387e+00 2.8657131156e+00 
13200 6.4993570773e+00 -1.7949796102e-02 1.6550754814e+00 -2.8666748242e+00 1.6550754814e+00 2.8666748242e+00 
13300 6.4992768304e+00 -1.7524128348e-02 1.6556177762e+00 -2.8676141063e+00 1.6556177762e+00 2.8676141063e+00 
13400 6.4992032148e+00 -1.7095653606e-02 1.6561470367e+00 -2.8685308124e+00 1.6561470367e+00 2.8685308124e+00 
13500 6.4991359452e+00 -1.6664842583e-02 1.6566631908e+00 -2.8694248175e+00 1.6566631908e+00 2.8694248175e+00 
13600 6.4990747386e+00 -1.6232159043e-02 1.6571661804e+00 -2.8702960210e+00 1.6571661804e+00 2.8702960210e+00 
13700 6.4990193140e+00 -1.5798059426e-02 1.6576559610e+00 -2.8711443459e+00 1.6576559610e+00 2.8711443459e+00 
13800 6.4989693930e+00 -1.5362992483e-02 1.6581325019e+00 -2.8719697389e+00 1.6581325019e+00 2.8719697389e+00 
13900 6.4989247006e+00 -1.4927398918e-02 1.6585957853e+00 -2.8727721694e+00 1.6585957853e+00 2.8727721694e+00 
14000 6.4988849650e+00 -1.4491711041e-02 1.6590458068e+00 -2.8735516295e+00 1.6590458068e+00 2.8735516295e+00 
14100 6.4988499186e+00 -1.4056352431e-02 1.6594825743e+00 -2.8743081330e+00 1.6594825743e+00 2.8743081330e+00 
14200 6.4988192979e+00 -1.3621737618e-02 1.6599061085e+00 -2.8750417156e+00 1.6599061085e+00 2.8750417156e+00 
14300 6.4987928442e+00 -1.3188271766e-02 1.6603164419e+00 -2.8757524340e+00 1.6603164419e+00 2.8757524340e+00 
14400 6.4987703038e+00 -1.2756350383e-02 1.6607136191e+00 -2.8764403651e+00 1.6607136191e+00 2.8764403651e+00 
14500 6.4987514283e+00 -1.2326359031e-02 1.6610976962e+00 -2.8771056062e+00 1.6610976962e+00 2.8771056062e+00 
14600 6.4987359751e+00 -1.1898673063e-02 1.6614687405e+00 -2.8777482738e+00 1.6614687405e+00 2.8777482738e+00 
14700 6.4987237075e+00 -1.1473657363e-02 1.6618268303e+00 -2.8783685035e+00 1.6618268303e+00 2.8783685035e+00 
14800 6.4987143951e+00 -1.1051666114e-02 1.6621720545e+00 -2.8789664493e+00 1.6621720545e+00 2.8789664493e+00 
14900 6.4987078139e+00 -1.0633042569e-02 1.6625045121e+00 -2.8795422827e+00 1.6625045121e+00 2.8795422827e+00 
15000 6.4987037467e+00 -1.0218118848e-02 1.6628243122e+00 -2.8800961928e+00 1.6628243122e+00 2.8800961928e+00 
15100 6.4987019834e+00 -9.8072157441e-03 1.6631315736e+00 -2.8806283851e+00 1.6631315736e+00 2.8806283851e+00 
15200 6.4987023208e+00 -9.4006425517e-03 1.6634264241e+00 -2.8811390813e+00 1.6634264241e+00 2.8811390813e+00 
15300 6.4987045633e+00 -8.9986969088e-03 1.6637090008e+00 -2.8816285183e+00 1.6637090008e+00 2.8816285183e+00 
15400 6.4987085224e+00 -8.6016646572e-03 1.6639794489e+00 -2.8820969483e+00 1.6639794489e+00 2.8820969483e+00 
15500 6.4987140174e+00 -8.2098197199e-03 1.6642379223e+00 -2.8825446373e+00 1.6642379223e+00 2.8825446373e+00 
15600 6.4987208754e+00 -7.8234239962e-03 1.6644845824e+00 -2.8829718651e+00 1.6644845824e+00 2.8829718651e+00 
15700 6.4987289308e+00 -7.4427272746e-03 1.6647195983e+00 -2.8833789247e+00 1.6647195983e+00 2.8833789247e+00 
15800 6.4987380263e+00 -7.0679671624e-03 1.6649431463e+00 -2.8837661211e+00 1.6649431463e+00 2.8837661211e+00 
15900 6.4987480121e+00 -6.6993690346e-03 1.6651554093e+00 -2.8841337715e+00 1.6651554093e+00 2.8841337715e+00 
16000 6.4987587464e+00 -6.3371459987e-03 1.6653565769e+00 -2.8844822039e+00 1.6653565769e+00 2.8844822039e+00 
16100 6.4987700950e+00 -5.9814988784e-03 1.6655468444e+00 -2.8848117569e+00 1.6655468444e+00 2.8848117569e+00 
16200 6.4987819317e+00 -5.6326162143e-03 1.6657264133e+00 -2.8851227793e+00 1.6657264133e+00 2.8851227793e+00 
16300 6.4987941380e+00 -5.2906742818e-03 1.6658954900e+00 -2.8854156288e+00 1.6658954900e+00 2.8854156288e+00 
16400 6.4988066030e+00 -4.9558371261e-03 1.6660542862e+00 -2.8856906719e+00 1.6660542862e+00 2.8856906719e+00 
16500 6.4988192234e+00 -4.6282566147e-03 1.6662030182e+00 -2.8859482832e+00 1.6662030182e+00 2.8859482832e+00 
16600 6.4988319034e+00 -4.3080725059e-03 1.6663419065e+00 -2.8861888448e+00 1.6663419065e+00 2.8861888448e+00 
16700 6.4988445543e+00 -3.9954125338e-03 1.6664711755e+00 -2.8864127453e+00 1.6664711755e+00 2.8864127453e+00 
16800 6.4988570949e+00 -3.6903925096e-03 1.6665910534e+00 -2.8866203799e+00 1.6665910534e+00 2.8866203799e+00 
16900 6.4988694509e+00 -3.3931164380e-03 1.6667017714e+00 -2.8868121491e+00 1.6667017714e+00 2.8868121491e+00 
17000 6.4988815548e+00 -3.1036766492e-03 1.6668035638e+00 -2.8869884587e+00 1.6668035638e+00 2.8869884587e+00 
17100 6.4988933458e+00 -2.8221539456e-03 1.6668966673e+00 -2.8871497187e+00 1.6668966673e+00 2.8871497187e+00 
17200 6.4989047697e+00 -2.5486177626e-03 1.6669813210e+00 -2.8872963432e+00 1.6669813210e+00 2.8872963432e+00 
17300 6.4989157785e+00 -2.2831263432e-03 1.6670577656e+00 -2.8874287492e+00 1.6670577656e+00 2.8874287492e+00 
17400 6.4989263302e+00 -2.0257269261e-03 1.6671262438e+00 -2.8875473569e+00 1.6671262438e+00 2.8875473569e+00 
17500 6.4989363886e+00 -1.7764559462e-03 1.6671869993e+00 -2.8876525884e+00 1.6671869993e+00 2.8876525884e+00 
17600 6.4989459234e+00 -1.5353392474e-03 1.6672402766e+00 -2.8877448675e+00 1.6672402766e+00 2.8877448675e+00 
17700 6.4989549093e+00 -1.3023923066e-03 1.6672863211e+00 -2.8878246190e+00 1.6672863211e+00 2.8878246190e+00 
17800 6.4989633262e+00 -1.0776204689e-03 1.6673253785e+00 -2.8878922684e+00 1.6673253785e+00 2.8878922684e+00 
17900 6.4989711591e+00 -8.6101919309e-04 1.6673576945e+00 -2.8879482412e+00 1.6673576945e+00 2.8879482412e+00 
18000 6.4989783973e+00 -6.5257430615e-04 1.6673835144e+00 -2.8879929627e+00 1.6673835144e+00 2.8879929627e+00 
18100 6.4989850347e+00 -4.5226226750e-04 1.6674030833e+00 -2.8880268569e+00 1.6674030833e+00 2.8880268569e+00 
18200 6.4989910692e+00 -2.6005044087e-04 1.6674166452e+00 -2.8880503468e+00 1.6674166452e+00 2.8880503468e+00 
18300 6.4989965024e+00 -7.5897373962e-05 1.6674244432e+00 -2.8880638533e+00 1.6674244432e+00 2.8880638533e+00 
18400 6.4990013398e+00 1.0024691494e-04 1.6674267190e+00 -2.8880677953e+00 1.6674267190e+00 2.8880677953e+00 
18500 6.4990055899e+00 2.6844064432e-04 1.6674237130e+00 -2.8880625887e+00 1.6674237130e+00 2.8880625887e+00 
18600 6.4990092645e+00 4.2874997119e-04 1.6674156635e+00 -2.8880486464e+00 1.6674156635e+00 2.8880486464e+00 
18700 6.4990123781e+00 5.8124868806e-04 1.6674028068e+00 -2.8880263780e+00 1.6674028068e+00 2.8880263780e+00 
18800 6.4990149478e+00 7.2601791580e-04 1.6673853770e+00 -2.8879961888e+00 1.6673853770e+00 2.8879961888e+00 
18900 6.4990169930e+00 8.6314579306e-04 1.6673636059e+00 -2.8879584801e+00 1.6673636059e+00 2.8879584801e+00 
19000 6.4990185352e+00 9.9272716294e-04 1.6673377224e+00 -2.8879136486e+00 1.6673377224e+00 2.8879136486e+00 
19100 6.4990195978e+00 1.1148632575e-03 1.6673079527e+00 -2.8878620859e+00 1.6673079527e+00 2.8878620859e+00 
19200 6.4990202057e+00 1.2296613811e-03 1.6672745198e+00 -2.8878041784e+00 1.6672745198e+00 2.8878041784e+00 
19300 6.4990203852e+00 1.3372345922e-03 1.6672376435e+00 -2.8877403069e+00 1.6672376435e+00 2.8877403069e+00 
19400 6.4990201639e+00 1.4377013862e-03 1.6671975404e+00 -2.8876708462e+00 1.6671975404e+00 2.8876708462e+00 
19500 6.4990195703e+00 1.5311853774e-03 1.6671544233e+00 -2.8875961651e+00 1.6671544233e+00 2.8875961651e+00 
19600 6.4990186336e+00 1.6178149830e-03 1.6671085013e+00 -2.8875166261e+00 1.6671085013e+00 2.8875166261e+00 
19700 6.4990173836e+00 1.6977231081e-03 1.6670599800e+00 -2.8874325846e+00 1.6670599800e+00 2.8874325846e+00 
19800 6.4990158506e+00 1.7710468332e-03 1.6670090606e+00 -2.8873443896e+00 1.6670090606e+00 2.8873443896e+00 
19900 6.4990140651e+00 1.8379271040e-03 1.6669559404e+00 -2.8872523827e+00 1.6669559404e+00 2.8872523827e+00 
20000 6.4990120574e+00 1.8985084251e-03 1.6669008124e+00 -2.8871568983e+00 1.6669008124e+00 2.8871568983e+00 
20100 6.4990098581e+00 1.9529385563e-03 1.6668438655e+00 -2.8870582633e+00 1.6668438655e+00 2.8870582633e+00 
20200 6.4990074972e+00 2.0013682143e-03 1.6667852839e+00 -2.8869567970e+00 1.6667852839e+00 2.8869567970e+00 
20300 6.4990050044e+00 2.0439507779e-03 1.6667252475e+00 -2.8868528109e+00 1.6667252475e+00 2.8868528109e+00 
20400 6.4990024090e+00 2.0808419989e-03 1.6666639315e+00 -2.8867466085e+00 1.6666639315e+00 2.8867466085e+00 
20500 6.4989997395e+00 2.1121997180e-03 1.6666015065e+00 -2.8866384853e+00 1.6666015065e+00 2.8866384853e+00 
20600 6.4989970238e+00 2.1381835866e-03 1.6665381385e+00 -2.8865287286e+00 1.6665381385e+00 2.8865287286e+00 
20700 6.4989942889e+00 2.1589547947e-03 1.6664739884e+00 -2.8864176174e+00 1.6664739884e+00 2.8864176174e+00 
20800 6.4989915607e+00 2.1746758054e-03 1.6664092127e+00 -2.8863054226e+00 1.6664092127e+00 2.8863054226e+00 
20900 6.4989888643e+00 2.1855100951e-03 1.6663439628e+00 -2.8861924064e+00 1.6663439628e+00 2.8861924064e+00 
21000 6.4989862236e+00 2.1916219023e-03 1.6662783852e+00 -2.8860788227e+00 1.6662783852e+00 2.8860788227e+00 
21100 6.4989836613e+00 2.1931759817e-03 1.6662126217e+00 -2.8859649169e+00 1.6662126217e+00 2.8859649169e+00 
21200 6.4989811991e+00 2.1903373674e-03 1.6661468089e+00 -2.8858509259e+00 1.6661468089e+00 2.8858509259e+00 
21300 6.4989788571e+00 2.1832711423e-03 1.6660810787e+00 -2.8857370778e+00 1.6660810787e+00 2.8857370778e+00 
21400 6.4989766543e+00 2.1721422157e-03 1.6660155580e+00 -2.8856235926e+00 1.6660155580e+00 2.8856235926e+00 
21500 6.4989746085e+00 2.1571151093e-03 1.6659503687e+00 -2.8855106814e+00 1.6659503687e+00 2.8855106814e+00 
21600 6.4989727358e+00 2.1383537500e-03 1.6658856278e+00 -2.8853985470e+00 1.6658856278e+00 2.8853985470e+00 
21700 6.4989710512e+00 2.1160212719e-03 1.6658214475e+00 -2.8852873835e+00 1.6658214475e+00 2.8852873835e+00 
21800 6.4989695682e+00 2.0902798253e-03 1.6657579351e+00 -2.8851773767e+00 1.6657579351e+00 2.8851773767e+00 
21900 6.4989682991e+00 2.0612903948e-03 1.6656951929e+00 -2.8850687040e+00 1.6656951929e+00 2.8850687040e+00 
22000 6.4989672545e+00 2.0292126250e-03 1.6656333185e+00 -2.8849615344e+00 1.6656333185e+00 2.8849615344e+00 
22100 6.4989664439e+00 1.9942046544e-03 1.6655724047e+00 -2.8848560286e+00 1.6655724047e+00 2.8848560286e+00 
22200 6.4989658754e+00 1.9564229579e-03 1.6655125396e+00 -2.8847523393e+00 1.6655125396e+00 2.8847523393e+00 
22300 6.4989655556e+00 1.9160221965e-03 1.6654538066e+00 -2.8846506107e+00 1.6654538066e+00 2.8846506107e+00 
22400 6.4989654900e+00 1.8731550762e-03 1.6653962844e+00 -2.8845509793e+00 1.6653962844e+00 2.8845509793e+00 
22500 6.4989656828e+00 1.8279722140e-03 1.6653400472e+00 -2.8844535736e+00 1.6653400472e+00 2.8844535736e+00 
22600 6.4989661369e+00 1.7806220122e-03 1.6652851647e+00 -2.8843585143e+00 1.6652851647e+00 2.8843585143e+00 
22700 6.4989668540e+00 1.7312505403e-03 1.6652317020e+00 -2.8842659142e+00 1.6652317020e+00 2.8842659142e+00 
22800 6.4989678345e+00 1.6800014252e-03 1.6651797200e+00 -2.8841758787e+00 1.6651797200e+00 2.8841758787e+00 
22900 6.4989690780e+00 1.6270157480e-03 1.6651292752e+00 -2.8840885058e+00 1.6651292752e+00 2.8840885058e+00 
23000 6.4989705829e+00 1.5724319491e-03 1.6650804199e+00 -2.8840038859e+00 1.6650804199e+00 2.8840038859e+00 
23100 6.4989723464e+00 1.5163857404e-03 1.6650332022e+00 -2.8839221025e+00 1.6650332022e+00 2.8839221025e+00 
23200 6.4989743649e+00 1.4590100243e-03 1.6649876662e+00 -2.8838432318e+00 1.6649876662e+00 2.8838432318e+00 
23300 6.4989766340e+00 1.4004348200e-03 1.6649438520e+00 -2.8837673433e+00 1.6649438520e+00 2.8837673433e+00 
23400 6.4989791481e+00 1.3407871970e-03 1.6649017956e+00 -2.8836944996e+00 1.6649017956e+00 2.8836944996e+00 
23500 6.4989819012e+00 1.2801912143e-03 1.6648615295e+00 -2.8836247567e+00 1.6648615295e+00 2.8836247567e+00 
23600 6.4989848862e+00 1.2187678670e-03 1.6648230823e+00 -2.8835581642e+00 1.6648230823e+00 2.8835581642e+00 
23700 6.4989880956e+00 1.1566350387e-03 1.6647864789e+00 -2.8834947652e+00 1.6647864789e+00 2.8834947652e+00 
23800 6.4989915210e+00 1.0939074603e-03 1.6647517408e+00 -2.8834345970e+00 1.6647517408e+00 2.8834345970e+00 
23900 6.4989951537e+00 1.0306966743e-03 1.6647188859e+00 -2.8833776907e+00 1.6647188859e+00 2.8833776907e+00 
24000 6.4989989844e+00 9.6711100536e-04 1.6646879289e+00 -2.8833240717e+00 1.6646879289e+00 2.8833240717e+00 
24100 6.4990030031e+00 9.0325553573e-04 1.6646588812e+00 -2.8832737595e+00 1.6646588812e+00 2.8832737595e+00 
24200 6.4990071998e+00 8.3923208677e-04 1.6646317509e+00 -2.8832267685e+00 1.6646317509e+00 2.8832267685e+00 
24300 6.4990115638e+00 7.7513920492e-04 1.6646065433e+00 -2.8831831075e+00 1.6646065433e+00 2.8831831075e+00 
24400 6.4990160844e+00 7.1107215293e-04 1.6645832604e+00 -2.8831427804e+00 1.6645832604e+00 2.8831427804e+00 
24500 6.4990207504e+00 6.4712290577e-04 1.6645619015e+00 -2.8831057858e+00 1.6645619015e+00 2.8831057858e+00 
24600 6.4990255506e+00 5.8338015102e-04 1.6645424633e+00 -2.8830721179e+00 1.6645424633e+00 2.8830721179e+00 
24700 6.4990304737e+00 5.1992929358e-04 1.6645249396e+00 -2.8830417659e+00 1.6645249396e+00 2.8830417659e+00 
24800 6.4990355080e+00 4.5685246462e-04 1.6645093217e+00 -2.8830147149e+00 1.6645093217e+00 2.8830147149e+00 
24900 6.4990406421e+00 3.9422853430e-04 1.6644955984e+00 -2.8829909454e+00 1.6644955984e+00 2.8829909454e+00 
25000 6.4990458645e+00 3.3213312840e-04 1.6644837561e+00 -2.8829704340e+00 1.6644837561e+00 2.8829704340e+00 
25100 6.4990511637e+00 2.7063864842e-04 1.6644737791e+00 -2.8829531532e+00 1.6644737791e+00 2.8829531532e+00 
25200 6.4990565283e+00 2.0981429507e-04 1.6644656492e+00 -2.8829390719e+00 1.6644656492e+00 2.8829390719e+00 
25300 6.4990619470e+00 1.4972609500e-04 1.6644593465e+00 -2.8829281552e+00 1.6644593465e+00 2.8829281552e+00 
25400 6.4990674088e+00 9.0436930474e-05 1.6644548487e+00 -2.8829203649e+00 1.6644548487e+00 2.8829203649e+00 
25500 6.4990729027e+00 3.2006571973e-05 1.6644521320e+00 -2.8829156594e+00 1.6644521320e+00 2.8829156594e+00 
25600 6.4990784181e+00 -2.4297541487e-05 1.6644521320e+00 -2.8829156594e+00 1.6644521320e+00 2.8829156594e+00 
25700 6.4990839446e+00 -8.1801297346e-05 1.6644521320e+00 -2.8829156594e+00 1.6644521320e+00 2.8829156594e+00 
25800 6.4990894720e+00 -1.3733522386e-04 1.6644545893e+00 -2.8829199156e+00 1.6644545893e+00 2.8829199156e+00 
25900 6.4990949905e+00 -1.9180137419e-04 1.6644587149e+00 -2.8829270612e+00 1.6644587149e+00 2.8829270612e+00 
26000 6.4991004907e+00 -2.4515497181e-04 1.6644644765e+00 -2.8829370408e+00 1.6644644765e+00 2.8829370408e+00 
26100 6.4991059635e+00 -2.9735410553e-04 1.6644718409e+00 -2.8829497962e+00 1.6644718409e+00 2.8829497962e+00 
26200 6.4991113999e+00 -3.4835968150e-04 1.6644807733e+00 -2.8829652676e+00 1.6644807733e+00 2.8829652676e+00 
26300 6.4991167918e+00 -3.9813537375e-04 1.6644912378e+00 -2.8829833927e+00 1.6644912378e+00 2.8829833927e+00 
26400 6.4991221311e+00 -4.4664757303e-04 1.6645031975e+00 -2.8830041075e+00 1.6645031975e+00 2.8830041075e+00 
26500 6.4991274103e+00 -4.9386533453e-04 1.6645166144e+00 -2.8830273462e+00 1.6645166144e+00 2.8830273462e+00 
26600 6.4991326222e+00 -5.3976032419e-04 1.6645314495e+00 -2.8830530413e+00 1.6645314495e+00 2.8830530413e+00 
26700 6.4991377602e+00 -5.8430676400e-04 1.6645476631e+00 -2.8830811241e+00 1.6645476631e+00 2.8830811241e+00 
26800 6.4991428180e+00 -6.2748137629e-04 1.6645652147e+00 -2.8831115243e+00 1.6645652147e+00 2.8831115243e+00 
26900 6.4991477897e+00 -6.6926332711e-04 1.6645840629e+00 -2.8831441704e+00 1.6645840629e+00 2.8831441704e+00 
27000 6.4991526700e+00 -7.0963416890e-04 1.6646041660e+00 -2.8831789899e+00 1.6646041660e+00 2.8831789899e+00 
27100 6.4991574539e+00 -7.4857778236e-04 1.6646254814e+00 -2.8832159094e+00 1.6646254814e+00 2.8832159094e+00 
27200 6.4991621370e+00 -7.8608031790e-04 1.6646479663e+00 -2.8832548544e+00 1.6646479663e+00 2.8832548544e+00 
27300 6.4991667151e+00 -8.2213013651e-04 1.6646715774e+00 -2.8832957500e+00 1.6646715774e+00 2.8832957500e+00 
27400 6.4991711848e+00 -8.5671775019e-04 1.6646962709e+00 -2.8833385204e+00 1.6646962709e+00 2.8833385204e+00 
27500 6.4991755427e+00 -8.8983576220e-04 1.6647220029e+00 -2.8833830896e+00 1.6647220029e+00 2.8833830896e+00 
27600 6.4991797861e+00 -9.2147880702e-04 1.6647487293e+00 -2.8834293809e+00 1.6647487293e+00 2.8834293809e+00 
27700 6.4991839126e+00 -9.5164349007e-04 1.6647764056e+00 -2.8834773177e+00 1.6647764056e+00 2.8834773177e+00 
27800 6.4991879203e+00 -9.8032832748e-04 1.6648049874e+00 -2.8835268228e+00 1.6648049874e+00 2.8835268228e+00 
27900 6.4991918076e+00 -1.0075336858e-03 1.6648344302e+00 -2.8835778193e+00 1.6648344302e+00 2.8835778193e+00 
28000 6.4991955733e+00 -1.0332617218e-03 1.6648646896e+00 -2.8836302300e+00 1.6648646896e+00 2.8836302300e+00 
28100 6.4991992166e+00 -1.0575163223e-03 1.6648957211e+00 -2.8836839782e+00 1.6648957211e+00 2.8836839782e+00 
28200 6.4992027371e+00 -1.0803030442e-03 1.6649274804e+00 -2.8837389870e+00 1.6649274804e+00 2.8837389870e+00 
28300 6.4992061346e+00 -1.1016290548e-03 1.6649599234e+00 -2.8837951800e+00 1.6649599234e+00 2.8837951800e+00 
28400 6.4992094093e+00 -1.1215030726e-03 1.6649930063e+00 -2.8838524812e+00 1.6649930063e+00 2.8838524812e+00 
28500 6.4992125619e+00 -1.1399353079e-03 1.6650266853e+00 -2.8839108150e+00 1.6650266853e+00 2.8839108150e+00 
28600 6.4992155930e+00 -1.1569374045e-03 1.6650609172e+00 -2.8839701063e+00 1.6650609172e+00 2.8839701063e+00 
28700 6.4992185038e+00 -1.1725223809e-03 1.6650956589e+00 -2.8840302807e+00 1.6650956589e+00 2.8840302807e+00 
28800 6.4992212957e+00 -1.1867045734e-03 1.6651308679e+00 -2.8840912644e+00 1.6651308679e+00 2.8840912644e+00 
28900 6.4992239703e+00 -1.1994995779e-03 1.6651665020e+00 -2.8841529845e+00 1.6651665020e+00 2.8841529845e+00 
29000 6.4992265295e+00 -1.2109241939e-03 1.6652025195e+00 -2.8842153687e+00 1.6652025195e+00 2.8842153687e+00 
29100 6.4992289753e+00 -1.2209963682e-03 1.6652388793e+00 -2.8842783457e+00 1.6652388793e+00 2.8842783457e+00 
29200 6.4992313100e+00 -1.2297351393e-03 1.6652755408e+00 -2.8843418452e+00 1.6652755408e+00 2.8843418452e+00 
29300 6.4992335361e+00 -1.2371605829e-03 1.6653124638e+00 -2.8844057977e+00 1.6653124638e+00 2.8844057977e+00 
29400 6.4992356562e+00 -1.2432937575e-03 1.6653496089e+00 -2.8844701350e+00 1.6653496089e+00 2.8844701350e+00 
29500 6.4992376731e+00 -1.2481566510e-03 1.6653869374e+00 -2.8845347898e+00 1.6653869374e+00 2.8845347898e+00 
29600 6.4992395897e+00 -1.2517721284e-03 1.6654244110e+00 -2.8845996960e+00 1.6654244110e+00 2.8845996960e+00 
29700 6.4992414091e+00 -1.2541638795e-03 1.6654619923e+00 -2.8846647887e+00 1.6654619923e+00 2.8846647887e+00 
29800 6.4992431343e+00 -1.2553563680e-03 1.6654996446e+00 -2.8847300044e+00 1.6654996446e+00 2.8847300044e+00 
29900 6.4992447688e+00 -1.2553747812e-03 1.6655373318e+00 -2.8847952805e+00 1.6655373318e+00 2.8847952805e+00 
30000 6.4992463156e+00 -1.2542449806e-03 1.6655750187e+00 -2.8848605562e+00 1.6655750187e+00 2.8848605562e+00 
30100 6.4992477783e+00 -1.2519934530e-03 1.6656126709e+00 -2.8849257717e+00 1.6656126709e+00 2.8849257717e+00 
30200 6.4992491603e+00 -1.2486472631e-03 1.6656502546e+00 -2.8849908686e+00 1.6656502546e+00 2.8849908686e+00 
30300 6.4992504650e+00 -1.2442340067e-03 1.6656877370e+00 -2.8850557900e+00 1.6656877370e+00 2.8850557900e+00 
30400 6.4992516959e+00 -1.2387817642e-03 1.6657250861e+00 -2.8851204805e+00 1.6657250861e+00 2.8851204805e+00 
30500 6.4992528564e+00 -1.2323190561e-03 1.6657622707e+00 -2.8851848862e+00 1.6657622707e+00 2.8851848862e+00 
30600 6.4992539502e+00 -1.2248747988e-03 1.6657992605e+00 -2.8852489543e+00 1.6657992605e+00 2.8852489543e+00 
30700 6.4992549806e+00 -1.2164782609e-03 1.6658360260e+00 -2.8853126341e+00 1.6658360260e+00 2.8853126341e+00 
30800 6.4992559512e+00 -1.2071590218e-03 1.6658725387e+00 -2.8853758759e+00 1.6658725387e+00 2.8853758759e+00 
30900 6.4992568652e+00 -1.1969469294e-03 1.6659087708e+00 -2.8854386318e+00 1.6659087708e+00 2.8854386318e+00 
31000 6.4992577262e+00 -1.1858720607e-03 1.6659446957e+00 -2.8855008555e+00 1.6659446957e+00 2.8855008555e+00 
31100 6.4992585375e+00 -1.1739646816e-03 1.6659802874e+00 -2.8855625022e+00 1.6659802874e+00 2.8855625022e+00 
31200 6.4992593022e+00 -1.1612552093e-03 1.6660155210e+00 -2.8856235285e+00 1.6660155210e+00 2.8856235285e+00 
31300 6.4992600237e+00 -1.1477741740e-03 1.6660503724e+00 -2.8856838929e+00 1.6660503724e+00 2.8856838929e+00 
31400 6.4992607050e+00 -1.1335521833e-03 1.6660848184e+00 -2.8857435553e+00 1.6660848184e+00 2.8857435553e+00 
31500 6.4992613491e+00 -1.1186198860e-03 1.6661188370e+00 -2.8858024771e+00 1.6661188370e+00 2.8858024771e+00 
31600 6.4992619592e+00 -1.1030079383e-03 1.6661524067e+00 -2.8858606216e+00 1.6661524067e+00 2.8858606216e+00 
31700 6.4992625379e+00 -1.0867469696e-03 1.6661855073e+00 -2.8859179535e+00 1.6661855073e+00 2.8859179535e+00 
31800 6.4992630881e+00 -1.0698675509e-03 1.6662181192e+00 -2.8859744390e+00 1.6662181192e+00 2.8859744390e+00 
31900 6.4992636124e+00 -1.0524001622e-03 1.6662502240e+00 -2.8860300461e+00 1.6662502240e+00 2.8860300461e+00 
32000 6.4992641134e+00 -1.0343751632e-03 1.6662818040e+00 -2.8860847443e+00 1.6662818040e+00 2.8860847443e+00 
32100 6.4992645936e+00 -1.0158227627e-03 1.6663128425e+00 -2.8861385046e+00 1.6663128425e+00 2.8861385046e+00 
32200 6.4992650553e+00 -9.9677299085e-04 1.6663433238e+00 -2.8861912996e+00 1.6663433238e+00 2.8861912996e+00 
32300 6.4992655008e+00 -9.7725567124e-04 1.6663732329e+00 -2.8862431037e+00 1.6663732329e+00 2.8862431037e+00 
32400 6.4992659321e+00 -9.5730039444e-04 1.6664025558e+00 -2.8862938925e+00 1.6664025558e+00 2.8862938925e+00 
32500 6.4992663513e+00 -9.3693649246e-04 1.6664312794e+00 -2.8863436433e+00 1.6664312794e+00 2.8863436433e+00 
32600 6.4992667603e+00 -9.1619301413e-04 1.6664593916e+00 -2.8863923349e+00 1.6664593916e+00 2.8863923349e+00 
32700 6.4992671608e+00 -8.9509870151e-04 1.6664868808e+00 -2.8864399478e+00 1.6664868808e+00 2.8864399478e+00 
32800 6.4992675545e+00 -8.7368196724e-04 1.6665137368e+00 -2.8864864636e+00 1.6665137368e+00 2.8864864636e+00 
32900 6.4992679430e+00 -8.5197087286e-04 1.6665399497e+00 -2.8865318657e+00 1.6665399497e+00 2.8865318657e+00 
33000 6.4992683278e+00 -8.2999310808e-04 1.6665655108e+00 -2.8865761389e+00 1.6665655108e+00 2.8865761389e+00 
33100 6.4992687100e+00 -8.0777597104e-04 1.6665904122e+00 -2.8866192694e+00 1.6665904122e+00 2.8866192694e+00 
33200 6.4992690910e+00 -7.8534634944e-04 1.6666146467e+00 -2.8866612446e+00 1.6666146467e+00 2.8866612446e+00 
33300 6.4992694719e+00 -7.6273070267e-04 1.6666382078e+00 -2.8867020538e+00 1.6666382078e+00 2.8867020538e+00 
33400 6.4992698536e+00 -7.3995504485e-04 1.6666610902e+00 -2.8867416872e+00 1.6666610902e+00 2.8867416872e+00 
33500 6.4992702370e+00 -7.1704492876e-04 1.6666832890e+00 -2.8867801366e+00 1.6666832890e+00 2.8867801366e+00 
33600 6.4992706231e+00 -6.9402543075e-04 1.6667048002e+00 -2.8868173951e+00 1.6667048002e+00 2.8868173951e+00 
33700 6.4992710123e+00 -6.7092113642e-04 1.6667256205e+00 -2.8868534570e+00 1.6667256205e+00 2.8868534570e+00 
33800 6.4992714055e+00 -6.4775612737e-04 1.6667457475e+00 -2.8868883179e+00 1.6667457475e+00 2.8868883179e+00 
33900 6.4992718030e+00 -6.2455396864e-04 1.6667651792e+00 -2.8869219747e+00 1.6667651792e+00 2.8869219747e+00 
34000 6.4992722053e+00 -6.0133769719e-04 1.6667839148e+00 -2.8869544257e+00 1.6667839148e+00 2.8869544257e+00 
34100 6.4992726128e+00 -5.7812981106e-04 1.6668019537e+00 -2.8869856699e+00 1.6668019537e+00 2.8869856699e+00 
34200 6.4992730258e+00 -5.5495225956e-04 1.6668192962e+00 -2.8870157081e+00 1.6668192962e+00 2.8870157081e+00 
34300 6.4992734443e+00 -5.3182643415e-04 1.6668359433e+00 -2.8870445416e+00 1.6668359433e+00 2.8870445416e+00 
34400 6.4992738685e+00 -5.0877316017e-04 1.6668518965e+00 -2.8870721734e+00 1.6668518965e+00 2.8870721734e+00 
34500 6.4992742985e+00 -4.8581268944e-04 1.6668671580e+00 -2.8870986071e+00 1.6668671580e+00 2.8870986071e+00 
34600 6.4992747343e+00 -4.6296469357e-04 1.6668817306e+00 -2.8871238477e+00 1.6668817306e+00 2.8871238477e+00 
34700 6.4992751758e+00 -4.4024825810e-04 1.6668956178e+00 -2.8871479010e+00 1.6668956178e+00 2.8871479010e+00 
34800 6.4992756228e+00 -4.1768187738e-04 1.6669088235e+00 -2.8871707738e+00 1.6669088235e+00 2.8871707738e+00 
34900 6.4992760752e+00 -3.9528345021e-04 1.6669213521e+00 -2.8871924741e+00 1.6669213521e+00 2.8871924741e+00 
35000 6.4992765327e+00 -3.7307027620e-04 1.6669332088e+00 -2.8872130105e+00 1.6669332088e+00 2.8872130105e+00 
35100 6.4992769951e+00 -3.5105905288e-04 1.6669443992e+00 -2.8872323927e+00 1.6669443992e+00 2.8872323927e+00 
35200 6.4992774620e+00 -3.2926587346e-04 1.6669549292e+00 -2.8872506313e+00 1.6669549292e+00 2.8872506313e+00 
35300 6.4992779331e+00 -3.0770622535e-04 1.6669648055e+00 -2.8872677375e+00 1.6669648055e+00 2.8872677375e+00 
35400 6.4992784080e+00 -2.8639498927e-04 1.6669740350e+00 -2.8872837235e+00 1.6669740350e+00 2.8872837235e+00 
35500 6.4992788862e+00 -2.6534643911e-04 1.6669826253e+00 -2.8872986023e+00 1.6669826253e+00 2.8872986023e+00 
35600 6.4992793675e+00 -2.4457424233e-04 1.6669905842e+00 -2.8873123875e+00 1.6669905842e+00 2.8873123875e+00 
35700 6.4992798512e+00 -2.2409146102e-04 1.6669979200e+00 -2.8873250935e+00 1.6669979200e+00 2.8873250935e+00 
35800 6.4992803369e+00 -2.0391055365e-04 1.6670046414e+00 -2.8873367353e+00 1.6670046414e+00 2.8873367353e+00 
35900 6.4992808241e+00 -1.8404337724e-04 1.6670107575e+00 -2.8873473287e+00 1.6670107575e+00 2.8873473287e+00 
36000 6.4992813123e+00 -1.6450119024e-04 1.6670162776e+00 -2.8873568899e+00 1.6670162776e+00 2.8873568899e+00 
36100 6.4992818010e+00 -1.4529465590e-04 1.6670212116e+00 -2.8873654358e+00 1.6670212116e+00 2.8873654358e+00 
36200 6.4992822897e+00 -1.2643384623e-04 1.6670255696e+00 -2.8873729840e+00 1.6670255696e+00 2.8873729840e+00 
36300 6.4992827778e+00 -1.0792824635e-04 1.6670293618e+00 -2.8873795523e+00 1.6670293618e+00 2.8873795523e+00 
36400 6.4992832649e+00 -8.9786759533e-05 1.6670325989e+00 -2.8873851592e+00 1.6670325989e+00 2.8873851592e+00 
36500 6.4992837503e+00 -7.2017712550e-05 1.6670352919e+00 -2.8873898236e+00 1.6670352919e+00 2.8873898236e+00 
36600 6.4992842337e+00 -5.4628861589e-05 1.6670374520e+00 -2.8873935649e+00 1.6670374520e+00 2.8873935649e+00 
36700 6.4992847144e+00 -3.9681449280e-05 1.6670374520e+00 -2.8873935649e+00 1.6670374520e+00 2.8873935649e+00 
36800 6.4992851920e+00 -2.4500748387e-05 1.6670374520e+00 -2.8873935649e+00 1.6670374520e+00 2.8873935649e+00 
36900 6.4992856658e+00 -9.1041573074e-06 1.6670374520e+00 -2.8873935649e+00 1.6670374520e+00 2.8873935649e+00 
37000 6.4992861356e+00 6.4912448827e-06 1.6670374520e+00 -2.8873935649e+00 1.6670374520e+00 2.8873935649e+00 
37100 6.4992866008e+00 2.2268700862e-05 1.6670374520e+00 -2.8873935649e+00 1.6670374520e+00 2.8873935649e+00 
37200 6.4992870610e+00 3.8211777308e-05 1.6670374520e+00 -2.8873935649e+00 1.6670374520e+00 2.8873935649e+00 
37300 6.4992875159e+00 5.4304366914e-05 1.6670374520e+00 -2.8873935649e+00 1.6670374520e+00 2.8873935649e+00 
37400 6.4992879651e+00 7.0530690196e-05 1.6670374520e+00 -2.8873935649e+00 1.6670374520e+00 2.8873935649e+00 
37500 6.4992884082e+00 8.6875297094e-05 1.6670374520e+00 -2.8873935649e+00 1.6670374520e+00 2.8873935649e+00 
37600 6.4992888446e+00 1.0005618602e-04 1.6670348463e+00 -2.8873890517e+00 1.6670348463e+00 2.8873890517e+00 
37700 6.4992892739e+00 1.1281074064e-04 1.6670318453e+00 -2.8873838538e+00 1.6670318453e+00 2.8873838538e+00 
37800 6.4992896961e+00 1.2513728353e-04 1.6670284617e+00 -2.8873779933e+00 1.6670284617e+00 2.8873779933e+00 
37900 6.4992901106e+00 1.3703460523e-04 1.6670247084e+00 -2.8873714924e+00 1.6670247084e+00 2.8873714924e+00 
38000 6.4992905173e+00 1.4850195350e-04 1.6670205982e+00 -2.8873643734e+00 1.6670205982e+00 2.8873643734e+00 
38100 6.4992909159e+00 1.5953902216e-04 1.6670161441e+00 -2.8873566586e+00 1.6670161441e+00 2.8873566586e+00 
38200 6.4992913061e+00 1.7014593993e-04 1.6670113589e+00 -2.8873483705e+00 1.6670113589e+00 2.8873483705e+00 
38300 6.4992916878e+00 1.8032325901e-04 1.6670062556e+00 -2.8873395313e+00 1.6670062556e+00 2.8873395313e+00 
38400 6.4992920607e+00 1.9007194362e-04 1.6670008470e+00 -2.8873301633e+00 1.6670008470e+00 2.8873301633e+00 
38500 6.4992924248e+00 1.9939335834e-04 1.6669951460e+00 -2.8873202889e+00 1.6669951460e+00 2.8873202889e+00 
38600 6.4992927798e+00 2.0828925635e-04 1.6669891654e+00 -2.8873099302e+00 1.6669891654e+00 2.8873099302e+00 
38700 6.4992931257e+00 2.1676176764e-04 1.6669829179e+00 -2.8872991092e+00 1.6669829179e+00 2.8872991092e+00 
38800 6.4992934624e+00 2.2481338707e-04 1.6669764163e+00 -2.8872878481e+00 1.6669764163e+00 2.8872878481e+00 
38900 6.4992937897e+00 2.3244696239e-04 1.6669696732e+00 -2.8872761686e+00 1.6669696732e+00 2.8872761686e+00 
39000 6.4992941077e+00 2.3966568225e-04 1.6669627010e+00 -2.8872640925e+00 1.6669627010e+00 2.8872640925e+00 
39100 6.4992944164e+00 2.4647306413e-04 1.6669555124e+00 -2.8872516414e+00 1.6669555124e+00 2.8872516414e+00 
39200 6.4992947156e+00 2.5287294224e-04 1.6669481195e+00 -2.8872388365e+00 1.6669481195e+00 2.8872388365e+00 
39300 6.4992950055e+00 2.5886945547e-04 1.6669405346e+00 -2.8872256990e+00 1.6669405346e+00 2.8872256990e+00 
39400 6.4992952861e+00 2.6446703529e-04 1.6669327697e+00 -2.8872122500e+00 1.6669327697e+00 2.8872122500e+00 
39500 6.4992955575e+00 2.6967039369e-04 1.6669248370e+00 -2.8871985101e+00 1.6669248370e+00 2.8871985101e+00 
39600 6.4992958196e+00 2.7448451115e-04 1.6669167482e+00 -2.8871844998e+00 1.6669167482e+00 2.8871844998e+00 
39700 6.4992960727e+00 2.7891462463e-04 1.6669085149e+00 -2.8871702393e+00 1.6669085149e+00 2.8871702393e+00 
39800 6.4992963168e+00 2.8296621565e-04 1.6669001486e+00 -2.8871557486e+00 1.6669001486e+00 2.8871557486e+00 
39900 6.4992965520e+00 2.8664499841e-04 1.6668916609e+00 -2.8871410473e+00 1.6668916609e+00 2.8871410473e+00 
40000 6.4992967784e+00 2.8995690799e-04 1.6668830627e+00 -2.8871261548e+00 1.6668830627e+00 2.8871261548e+00 
40100 6.4992969963e+00 2.9290808863e-04 1.6668743651e+00 -2.8871110902e+00 1.6668743651e+00 2.8871110902e+00 
40200 6.4992972058e+00 2.9550488210e-04 1.6668655790e+00 -2.8870958722e+00 1.6668655790e+00 2.8870958722e+00 
40300 6.4992974071e+00 2.9775381622e-04 1.6668567149e+00 -2.8870805191e+00 1.6668567149e+00 2.8870805191e+00 
40400 6.4992976003e+00 2.9966159344e-04 1.6668477833e+00 -2.8870650492e+00 1.6668477833e+00 2.8870650492e+00 
40500 6.4992977856e+00 3.0123507955e-04 1.6668387944e+00 -2.8870494800e+00 1.6668387944e+00 2.8870494800e+00 
40600 6.4992979633e+00 3.0248129256e-04 1.6668297583e+00 -2.8870338290e+00 1.6668297583e+00 2.8870338290e+00 
40700 6.4992981336e+00 3.0340739169e-04 1.6668206848e+00 -2.8870181131e+00 1.6668206848e+00 2.8870181131e+00 
40800 6.4992982967e+00 3.0402066650e-04 1.6668115834e+00 -2.8870023491e+00 1.6668115834e+00 2.8870023491e+00 
40900 6.4992984527e+00 3.0432852622e-04 1.6668024636e+00 -2.8869865531e+00 1.6668024636e+00 2.8869865531e+00 
41000 6.4992986021e+00 3.0433848920e-04 1.6667933345e+00 -2.8869707410e+00 1.6667933345e+00 2.8869707410e+00 
41100 6.4992987449e+00 3.0405817252e-04 1.6667842050e+00 -2.8869549284e+00 1.6667842050e+00 2.8869549284e+00 
41200 6.4992988814e+00 3.0349528184e-04 1.6667750839e+00 -2.8869391302e+00 1.6667750839e+00 2.8869391302e+00 
41300 6.4992990118e+00 3.0265760137e-04 1.6667659797e+00 -2.8869233611e+00 1.6667659797e+00 2.8869233611e+00 
41400 6.4992991365e+00 3.0155298405e-04 1.6667569005e+00 -2.8869076355e+00 1.6667569005e+00 2.8869076355e+00 
41500 6.4992992556e+00 3.0018934192e-04 1.6667478544e+00 -2.8868919672e+00 1.6667478544e+00 2.8868919672e+00 
41600 6.4992993695e+00 2.9857463669e-04 1.6667388492e+00 -2.8868763697e+00 1.6667388492e+00 2.8868763697e+00 
41700 6.4992994782e+00 2.9671687053e-04 1.6667298923e+00 -2.8868608560e+00 1.6667298923e+00 2.8868608560e+00 
41800 6.4992995821e+00 2.9462407701e-04 1.6667209912e+00 -2.8868454388e+00 1.6667209912e+00 2.8868454388e+00 
41900 6.4992996815e+00 2.9230431232e-04 1.6667121527e+00 -2.8868301302e+00 1.6667121527e+00 2.8868301302e+00 
42000 6.4992997765e+00 2.8976564666e-04 1.6667033839e+00 -2.8868149420e+00 1.6667033839e+00 2.8868149420e+00 
42100 6.4992998674e+00 2.8701615586e-04 1.6666946911e+00 -2.8867998857e+00 1.6666946911e+00 2.8867998857e+00 
42200 6.4992999545e+00 2.8406391323e-04 1.6666860808e+00 -2.8867849721e+00 1.6666860808e+00 2.8867849721e+00 
42300 6.4993000379e+00 2.8091698157e-04 1.6666775590e+00 -2.8867702119e+00 1.6666775590e+00 2.8867702119e+00 
42400 6.4993001179e+00 2.7758340554e-04 1.6666691315e+00 -2.8867556152e+00 1.6666691315e+00 2.8867556152e+00 
42500 6.4993001947e+00 2.7407120408e-04 1.6666608040e+00 -2.8867411915e+00 1.6666608040e+00 2.8867411915e+00 
42600 6.4993002685e+00 2.7038836323e-04 1.6666525819e+00 -2.8867269504e+00 1.6666525819e+00 2.8867269504e+00 
42700 6.4993003395e+00 2.6654282903e-04 1.6666444701e+00 -2.8867129005e+00 1.6666444701e+00 2.8867129005e+00 
42800 6.4993004080e+00 2.6254250076e-04 1.6666364738e+00 -2.8866990503e+00 1.6666364738e+00 2.8866990503e+00 
42900 6.4993004741e+00 2.5839522435e-04 1.6666285974e+00 -2.8866854080e+00 1.6666285974e+00 2.8866854080e+00 
43000 6.4993005380e+00 2.5410878603e-04 1.6666208453e+00 -2.8866719811e+00 1.6666208453e+00 2.8866719811e+00 
43100 6.4993005999e+00 2.4969090627e-04 1.6666132219e+00 -2.8866587768e+00 1.6666132219e+00 2.8866587768e+00 
43200 6.4993006599e+00 2.4514923383e-04 1.6666057309e+00 -2.8866458021e+00 1.6666057309e+00 2.8866458021e+00 
43300 6.4993007183e+00 2.4049134015e-04 1.6665983762e+00 -2.8866330633e+00 1.6665983762e+00 2.8866330633e+00 
43400 6.4993007752e+00 2.3572471396e-04 1.6665911611e+00 -2.8866205665e+00 1.6665911611e+00 2.8866205665e+00 
43500 6.4993008307e+00 2.3085675601e-04 1.6665840891e+00 -2.8866083174e+00 1.6665840891e+00 2.8866083174e+00 
43600 6.4993008850e+00 2.2589477422e-04 1.6665771630e+00 -2.8865963211e+00 1.6665771630e+00 2.8865963211e+00 
43700 6.4993009382e+00 2.2084597884e-04 1.6665703858e+00 -2.8865845826e+00 1.6665703858e+00 2.8865845826e+00 
43800 6.4993009905e+00 2.1571747801e-04 1.6665637601e+00 -2.8865731065e+00 1.6665637601e+00 2.8865731065e+00 
43900 6.4993010420e+00 2.1051627346e-04 1.6665572881e+00 -2.8865618968e+00 1.6665572881e+00 2.8865618968e+00 
44000 6.4993010928e+00 2.0524925644e-04 1.6665509722e+00 -2.8865509573e+00 1.6665509722e+00 2.8865509573e+00 
44100 6.4993011430e+00 1.9992320387e-04 1.6665448143e+00 -2.8865402915e+00 1.6665448143e+00 2.8865402915e+00 
44200 6.4993011926e+00 1.9454477476e-04 1.6665388162e+00 -2.8865299025e+00 1.6665388162e+00 2.8865299025e+00 
44300 6.4993012419e+00 1.8912050674e-04 1.6665329794e+00 -2.8865197929e+00 1.6665329794e+00 2.8865197929e+00 
44400 6.4993012908e+00 1.8365681291e-04 1.6665273054e+00 -2.8865099651e+00 1.6665273054e+00 2.8865099651e+00 
44500 6.4993013395e+00 1.7815997881e-04 1.6665217952e+00 -2.8865004212e+00 1.6665217952e+00 2.8865004212e+00 
44600 6.4993013880e+00 1.7263615969e-04 1.6665164499e+00 -2.8864911629e+00 1.6665164499e+00 2.8864911629e+00 
44700 6.4993014364e+00 1.6709137791e-04 1.6665112704e+00 -2.8864821917e+00 1.6665112704e+00 2.8864821917e+00 
44800 6.4993014847e+00 1.6153152056e-04 1.6665062572e+00 -2.8864735086e+00 1.6665062572e+00 2.8864735086e+00 
44900 6.4993015330e+00 1.5596233727e-04 1.6665014108e+00 -2.8864651143e+00 1.6665014108e+00 2.8864651143e+00 
45000 6.4993015814e+00 1.5038943828e-04 1.6664967314e+00 -2.8864570095e+00 1.6664967314e+00 2.8864570095e+00 
45100 6.4993016298e+00 1.4481829258e-04 1.6664922193e+00 -2.8864491942e+00 1.6664922193e+00 2.8864491942e+00 
45200 6.4993016783e+00 1.3925422637e-04 1.6664878743e+00 -2.8864416685e+00 1.6664878743e+00 2.8864416685e+00 
45300 6.4993017270e+00 1.3370242157e-04 1.6664836962e+00 -2.8864344318e+00 1.6664836962e+00 2.8864344318e+00 
45400 6.4993017758e+00 1.2816791466e-04 1.6664796847e+00 -2.8864274837e+00 1.6664796847e+00 2.8864274837e+00 
45500 6.4993018248e+00 1.2265559553e-04 1.6664758392e+00 -2.8864208232e+00 1.6664758392e+00 2.8864208232e+00 
45600 6.4993018739e+00 1.1717020665e-04 1.6664721592e+00 -2.8864144491e+00 1.6664721592e+00 2.8864144491e+00 
45700 6.4993019233e+00 1.1171634232e-04 1.6664686436e+00 -2.8864083600e+00 1.6664686436e+00 2.8864083600e+00 
45800 6.4993019728e+00 1.0629844811e-04 1.6664652918e+00 -2.8864025544e+00 1.6664652918e+00 2.8864025544e+00 
45900 6.4993020225e+00 1.0092082045e-04 1.6664621024e+00 -2.8863970303e+00 1.6664621024e+00 2.8863970303e+00 
46000 6.4993020724e+00 9.5587606416e-05 1.6664590744e+00 -2.8863917856e+00 1.6664590744e+00 2.8863917856e+00 
46100 6.4993021225e+00 9.0302803606e-05 1.6664562064e+00 -2.8863868181e+00 1.6664562064e+00 2.8863868181e+00 
46200 6.4993021727e+00 8.5070260210e-05 1.6664534970e+00 -2.8863821253e+00 1.6664534970e+00 2.8863821253e+00 
46300 6.4993022231e+00 7.9893675204e-05 1.6664509446e+00 -2.8863777043e+00 1.6664509446e+00 2.8863777043e+00 
46400 6.4993022736e+00 7.4776598694e-05 1.6664485475e+00 -2.8863735524e+00 1.6664485475e+00 2.8863735524e+00 
46500 6.4993023242e+00 6.9722432383e-05 1.6664463039e+00 -2.8863696664e+00 1.6664463039e+00 2.8863696664e+00 
46600 6.4993023750e+00 6.7359215986e-05 1.6664463039e+00 -2.8863696664e+00 1.6664463039e+00 2.8863696664e+00 
46700 6.4993024259e+00 6.4892769181e-05 1.6664463039e+00 -2.8863696664e+00 1.6664463039e+00 2.8863696664e+00 
46800 6.4993024768e+00 6.2327844643e-05 1.6664463039e+00 -2.8863696664e+00 1.6664463039e+00 2.8863696664e+00 
46900 6.4993025277e+00 5.9669131453e-05 1.6664463039e+00 -2.8863696664e+00 1.6664463039e+00 2.8863696664e+00 
47000 6.4993025784e+00 5.6921254207e-05 1.6664463039e+00 -2.8863696664e+00 1.6664463039e+00 2.8863696664e+00 
47100 6.4993026292e+00 5.4088772179e-05 1.6664463039e+00 -2.8863696664e+00 1.6664463039e+00 2.8863696664e+00 
47200 6.4993026798e+00 5.1176178515e-05 1.6664463039e+00 -2.8863696664e+00 1.6664463039e+00 2.8863696664e+00 
47300 6.4993027302e+00 4.8187899474e-05 1.6664463039e+00 -2.8863696664e+00 1.6664463039e+00 2.8863696664e+00 
47400 6.4993027805e+00 4.5128293708e-05 1.6664463039e+00 -2.8863696664e+00 1.6664463039e+00 2.8863696664e+00 
47500 6.4993028306e+00 4.2001651584e-05 1.6664463039e+00 -2.8863696664e+00 1.6664463039e+00 2.8863696664e+00 
47600 6.4993028805e+00 3.8812194536e-05 1.6664463039e+00 -2.8863696664e+00 1.6664463039e+00 2.8863696664e+00 
47700 6.4993029301e+00 3.5564074476e-05 1.6664463039e+00 -2.8863696664e+00 1.6664463039e+00 2.8863696664e+00 
47800 6.4993029794e+00 3.2261373214e-05 1.6664463039e+00 -2.8863696664e+00 1.6664463039e+00 2.8863696664e+00 
47900 6.4993030284e+00 2.8908101945e-05 1.6664463039e+00 -2.8863696664e+00 1.6664463039e+00 2.8863696664e+00 
48000 6.4993030771e+00 2.5508200764e-05 1.6664463039e+00 -2.8863696664e+00 1.6664463039e+00 2.8863696664e+00 
48100 6.4993031254e+00 2.2065538206e-05 1.6664463039e+00 -2.8863696664e+00 1.6664463039e+00 2.8863696664e+00 
48200 6.4993031733e+00 1.8583910839e-05 1.6664463039e+00 -2.8863696664e+00 1.6664463039e+00 2.8863696664e+00 
48300 6.4993032207e+00 1.5067042893e-05 1.6664463039e+00 -2.8863696664e+00 1.6664463039e+00 2.8863696664e+00 
48400 6.4993032677e+00 1.1518585908e-05 1.6664463039e+00 -2.8863696664e+00 1.6664463039e+00 2.8863696664e+00 
48500 6.4993033142e+00 7.9421184476e-06 1.6664463039e+00 -2.8863696664e+00 1.6664463039e+00 2.8863696664e+00 
48600 6.4993033603e+00 4.3411458127e-06 1.6664463039e+00 -2.8863696664e+00 1.6664463039e+00 2.8863696664e+00 
48700 6.4993034058e+00 7.1909982729e-07 1.6664463039e+00 -2.8863696664e+00 1.6664463039e+00 2.8863696664e+00 
48800 6.4993034507e+00 -2.9206613723e-06 1.6664463039e+00 -2.8863696664e+00 1.6664463039e+00 2.8863696664e+00 
48900 6.4993034951e+00 -6.5748534920e-06 1.6664463039e+00 -2.8863696664e+00 1.6664463039e+00 2.8863696664e+00 
49000 6.4993035388e+00 -1.0240266218e-05 1.6664463039e+00 -2.8863696664e+00 1.6664463039e+00 2.8863696664e+00 
49100 6.4993035820e+00 -1.3913763300e-05 1.6664463039e+00 -2.8863696664e+00 1.6664463039e+00 2.8863696664e+00 
49200 6.4993036246e+00 -1.7592282615e-05 1.6664463039e+00 -2.8863696664e+00 1.6664463039e+00 2.8863696664e+00 
49300 6.4993036665e+00 -2.1272836198e-05 1.6664463039e+00 -2.8863696664e+00 1.6664463039e+00 2.8863696664e+00 
49400 6.4993037078e+00 -2.4952510236e-05 1.6664463039e+00 -2.8863696664e+00 1.6664463039e+00 2.8863696664e+00 
49500 6.4993037484e+00 -2.8628465025e-05 1.6664463039e+00 -2.8863696664e+00 1.6664463039e+00 2.8863696664e+00 
49600 6.4993037883e+00 -3.2297934906e-05 1.6664463039e+00 -2.8863696664e+00 1.6664463039e+00 2.8863696664e+00 
49700 6.4993038275e+00 -3.5958228151e-05 1.6664463039e+00 -2.8863696664e+00 1.6664463039e+00 2.8863696664e+00 
49800 6.4993038661e+00 -3.9606726846e-05 1.6664463039e+00 -2.8863696664e+00 1.6664463039e+00 2.8863696664e+00 
49900 6.4993039039e+00 -4.3240886709e-05 1.6664463039e+00 -2.8863696664e+00 1.6664463039e+00 2.8863696664e+00 
50000 6.4993039410e+00 -4.6858236907e-05 1.6664463039e+00 -2.8863696664e+00 1.6664463039e+00 2.8863696664e+00 
50100 6.4993039774e+00 -5.0456379813e-05 1.6664463039e+00 -2.8863696664e+00 1.6664463039e+00 2.8863696664e+00 
50200 6.4993040131e+00 -5.4032990770e-05 1.6664463039e+00 -2.8863696664e+00 1.6664463039e+00 2.8863696664e+00 
50300 6.4993040481e+00 -5.7585817782e-05 1.6664463039e+00 -2.8863696664e+00 1.6664463039e+00 2.8863696664e+00 
50400 6.4993040824e+00 -6.1112681219e-05 1.6664463039e+00 -2.8863696664e+00 1.6664463039e+00 2.8863696664e+00 
50500 6.4993041159e+00 -6.4611473457e-05 1.6664463039e+00 -2.8863696664e+00 1.6664463039e+00 2.8863696664e+00 
50600 6.4993041487e+00 -6.8080158510e-05 1.6664463039e+00 -2.8863696664e+00 1.6664463039e+00 2.8863696664e+00 
50700 6.4993041808e+00 -7.1516771626e-05 1.6664463039e+00 -2.8863696664e+00 1.6664463039e+00 2.8863696664e+00 
50800 6.4993042120e+00 -7.2227744630e-05 1.6664484497e+00 -2.8863733830e+00 1.6664484497e+00 2.8863733830e+00 
50900 6.4993042425e+00 -7.2860503427e-05 1.6664506168e+00 -2.8863771366e+00 1.6664506168e+00 2.8863771366e+00 
51000 6.4993042722e+00 -7.3415798823e-05 1.6664528029e+00 -2.8863809230e+00 1.6664528029e+00 2.8863809230e+00 
51100 6.4993043013e+00 -7.3894462808e-05 1.6664550056e+00 -2.8863847383e+00 1.6664550056e+00 2.8863847383e+00 
51200 6.4993043296e+00 -7.4297404594e-05 1.6664572227e+00 -2.8863885784e+00 1.6664572227e+00 2.8863885784e+00 
51300 6.4993043572e+00 -7.4625606699e-05 1.6664594519e+00 -2.8863924395e+00 1.6664594519e+00 2.8863924395e+00 
51400 6.4993043842e+00 -7.4880121130e-05 1.6664616910e+00 -2.8863963177e+00 1.6664616910e+00 2.8863963177e+00 
51500 6.4993044104e+00 -7.5062065650e-05 1.6664639377e+00 -2.8864002090e+00 1.6664639377e+00 2.8864002090e+00 
51600 6.4993044360e+00 -7.5172620072e-05 1.6664661898e+00 -2.8864041098e+00 1.6664661898e+00 2.8864041098e+00 
51700 6.4993044610e+00 -7.5213022703e-05 1.6664684453e+00 -2.8864080164e+00 1.6664684453e+00 2.8864080164e+00 
51800 6.4993044853e+00 -7.5184566789e-05 1.6664707019e+00 -2.8864119251e+00 1.6664707019e+00 2.8864119251e+00 
51900 6.4993045090e+00 -7.5088597080e-05 1.6664729577e+00 -2.8864158322e+00 1.6664729577e+00 2.8864158322e+00 
52000 6.4993045321e+00 -7.4926506455e-05 1.6664752106e+00 -2.8864197344e+00 1.6664752106e+00 2.8864197344e+00 
52100 6.4993045546e+00 -7.4699732625e-05 1.6664774587e+00 -2.8864236281e+00 1.6664774587e+00 2.8864236281e+00 
52200 6.4993045765e+00 -7.4409754899e-05 1.6664796999e+00 -2.8864275101e+00 1.6664796999e+00 2.8864275101e+00 
52300 6.4993045979e+00 -7.4058091047e-05 1.6664819325e+00 -2.8864313770e+00 1.6664819325e+00 2.8864313770e+00 
52400 6.4993046187e+00 -7.3646294210e-05 1.6664841545e+00 -2.8864352256e+00 1.6664841545e+00 2.8864352256e+00 
52500 6.4993046390e+00 -7.3175949904e-05 1.6664863641e+00 -2.8864390528e+00 1.6664863641e+00 2.8864390528e+00 
52600 6.4993046587e+00 -7.2648673078e-05 1.6664885596e+00 -2.8864428555e+00 1.6664885596e+00 2.8864428555e+00 
52700 6.4993046780e+00 -7.2066105268e-05 1.6664907393e+00 -2.8864466308e+00 1.6664907393e+00 2.8864466308e+00 
52800 6.4993046968e+00 -7.1429911812e-05 1.6664929015e+00 -2.8864503759e+00 1.6664929015e+00 2.8864503759e+00 
52900 6.4993047151e+00 -7.0741779121e-05 1.6664950447e+00 -2.8864540879e+00 1.6664950447e+00 2.8864540879e+00 
53000 6.4993047330e+00 -7.0003412060e-05 1.6664971671e+00 -2.8864577641e+00 1.6664971671e+00 2.8864577641e+00 
53100 6.4993047506e+00 -7.1850808353e-05 1.6664971671e+00 -2.8864577641e+00 1.6664971671e+00 2.8864577641e+00 
53200 6.4993047676e+00 -7.0933369973e-05 1.6664993229e+00 -2.8864614980e+00 1.6664993229e+00 2.8864614980e+00 
53300 6.4993047842e+00 -6.9973749919e-05 1.6665014511e+00 -2.8864651842e+00 1.6665014511e+00 2.8864651842e+00 
53400 6.4993048006e+00 -7.1606702501e-05 1.6665014511e+00 -2.8864651842e+00 1.6665014511e+00 2.8864651842e+00 
53500 6.4993048164e+00 -7.0483878947e-05 1.6665035995e+00 -2.8864689053e+00 1.6665035995e+00 2.8864689053e+00 
53600 6.4993048321e+00 -7.1978949254e-05 1.6665035995e+00 -2.8864689053e+00 1.6665035995e+00 2.8864689053e+00 
53700 6.4993048472e+00 -7.0704494299e-05 1.6665057591e+00 -2.8864726458e+00 1.6665057591e+00 2.8864726458e+00 
53800 6.4993048622e+00 -7.2062168191e-05 1.6665057591e+00 -2.8864726458e+00 1.6665057591e+00 2.8864726458e+00 
53900 6.4993048767e+00 -7.0647617357e-05 1.6665079212e+00 -2.8864763907e+00 1.6665079212e+00 2.8864763907e+00 
54000 6.4993048910e+00 -7.1868788133e-05 1.6665079212e+00 -2.8864763907e+00 1.6665079212e+00 2.8864763907e+00 
54100 6.4993049049e+00 -7.0325608924e-05 1.6665100774e+00 -2.8864801254e+00 1.6665100774e+00 2.8864801254e+00 
54200 6.4993049188e+00 -7.1411559439e-05 1.6665100774e+00 -2.8864801254e+00 1.6665100774e+00 2.8864801254e+00 
54300 6.4993049321e+00 -6.9751121133e-05 1.6665122200e+00 -2.8864838364e+00 1.6665122200e+00 2.8864838364e+00 
54400 6.4993049454e+00 -7.0703505323e-05 1.6665122200e+00 -2.8864838364e+00 1.6665122200e+00 2.8864838364e+00 
54500 6.4993049584e+00 -7.1597545650e-05 1.6665122200e+00 -2.8864838364e+00 1.6665122200e+00 2.8864838364e+00 
54600 6.4993049711e+00 -6.9739752633e-05 1.6665143681e+00 -2.8864875571e+00 1.6665143681e+00 2.8864875571e+00 
54700 6.4993049837e+00 -7.0503348542e-05 1.6665143681e+00 -2.8864875571e+00 1.6665143681e+00 2.8864875571e+00 
54800 6.4993049961e+00 -7.1210316177e-05 1.6665143681e+00 -2.8864875571e+00 1.6665143681e+00 2.8864875571e+00 
54900 6.4993050081e+00 -6.9181839852e-05 1.6665165046e+00 -2.8864912576e+00 1.6665165046e+00 2.8864912576e+00 
55000 6.4993050201e+00 -6.9762133637e-05 1.6665165046e+00 -2.8864912576e+00 1.6665165046e+00 2.8864912576e+00 
55100 6.4993050319e+00 -7.0287765378e-05 1.6665165046e+00 -2.8864912576e+00 1.6665165046e+00 2.8864912576e+00 
55200 6.4993050436e+00 -7.0759543853e-05 1.6665165046e+00 -2.8864912576e+00 1.6665165046e+00 2.8864912576e+00 
55300 6.4993050549e+00 -6.8515723989e-05 1.6665186276e+00 -2.8864949347e+00 1.6665186276e+00 2.8864949347e+00 
55400 6.4993050662e+00 -6.8866749301e-05 1.6665186276e+00 -2.8864949347e+00 1.6665186276e+00 2.8864949347e+00 
55500 6.4993050774e+00 -6.9166154617e-05 1.6665186276e+00 -2.8864949347e+00 1.6665186276e+00 2.8864949347e+00 
55600 6.4993050884e+00 -6.9414829820e-05 1.6665186276e+00 -2.8864949347e+00 1.6665186276e+00 2.8864949347e+00 
55700 6.4993050994e+00 -6.9613676184e-05 1.6665186276e+00 -2.8864949347e+00 1.6665186276e+00 2.8864949347e+00 
55800 6.4993051101e+00 -6.9763605702e-05 1.6665186276e+00 -2.8864949347e+00 1.6665186276e+00 2.8864949347e+00 
55900 6.4993051208e+00 -6.9865540405e-05 1.6665186276e+00 -2.8864949347e+00 1.6665186276e+00 2.8864949347e+00 
56000 6.4993051313e+00 -6.9920411692e-05 1.6665186276e+00 -2.8864949347e+00 1.6665186276e+00 2.8864949347e+00 
56100 6.4993051417e+00 -6.9929159668e-05 1.6665186276e+00 -2.8864949347e+00 1.6665186276e+00 2.8864949347e+00 
56200 6.4993051521e+00 -6.9892732475e-05 1.6665186276e+00 -2.8864949347e+00 1.6665186276e+00 2.8864949347e+00 
56300 6.4993051623e+00 -6.9812085635e-05 1.6665186276e+00 -2.8864949347e+00 1.6665186276e+00 2.8864949347e+00 
56400 6.4993051724e+00 -6.9688181399e-05 1.6665186276e+00 -2.8864949347e+00 1.6665186276e+00 2.8864949347e+00 
56500 6.4993051824e+00 -6.9521988092e-05 1.6665186276e+00 -2.8864949347e+00 1.6665186276e+00 2.8864949347e+00 
56600 6.4993051923e+00 -6.9314479477e-05 1.6665186276e+00 -2.8864949347e+00 1.6665186276e+00 2.8864949347e+00 
56700 6.4993052021e+00 -6.9066634106e-05 1.6665186276e+00 -2.8864949347e+00 1.6665186276e+00 2.8864949347e+00 
56800 6.4993052118e+00 -6.8779434697e-05 1.6665186276e+00 -2.8864949347e+00 1.6665186276e+00 2.8864949347e+00 
56900 6.4993052214e+00 -6.8453867503e-05 1.6665186276e+00 -2.8864949347e+00 1.6665186276e+00 2.8864949347e+00 
57000 6.4993052310e+00 -6.8090921691e-05 1.6665186276e+00 -2.8864949347e+00 1.6665186276e+00 2.8864949347e+00 
57100 6.4993052404e+00 -6.7691588730e-05 1.6665186276e+00 -2.8864949347e+00 1.6665186276e+00 2.8864949347e+00 
57200 6.4993052498e+00 -6.7256861782e-05 1.6665186276e+00 -2.8864949347e+00 1.6665186276e+00 2.8864949347e+00 
57300 6.4993052591e+00 -6.6787735108e-05 1.6665186276e+00 -2.8864949347e+00 1.6665186276e+00 2.8864949347e+00 
57400 6.4993052683e+00 -6.6285203471e-05 1.6665186276e+00 -2.8864949347e+00 1.6665186276e+00 2.8864949347e+00 
57500 6.4993052774e+00 -6.5750261545e-05 1.6665186276e+00 -2.8864949347e+00 1.6665186276e+00 2.8864949347e+00 
57600 6.4993052865e+00 -6.5183903355e-05 1.6665186276e+00 -2.8864949347e+00 1.6665186276e+00 2.8864949347e+00 
57700 6.4993052955e+00 -6.4587121698e-05 1.6665186276e+00 -2.8864949347e+00 1.6665186276e+00 2.8864949347e+00 
57800 6.4993053043e+00 -6.3960907582e-05 1.6665186276e+00 -2.8864949347e+00 1.6665186276e+00 2.8864949347e+00 
57900 6.4993053131e+00 -6.3306249683e-05 1.6665186276e+00 -2.8864949347e+00 1.6665186276e+00 2.8864949347e+00 
58000 6.4993053219e+00 -6.2624133794e-05 1.6665186276e+00 -2.8864949347e+00 1.6665186276e+00 2.8864949347e+00 
58100 6.4993053305e+00 -6.1915542298e-05 1.6665186276e+00 -2.8864949347e+00 1.6665186276e+00 2.8864949347e+00 
58200 6.4993053391e+00 -6.1181453646e-05 1.6665186276e+00 -2.8864949347e+00 1.6665186276e+00 2.8864949347e+00 
58300 6.4993053476e+00 -6.0422841842e-05 1.6665186276e+00 -2.8864949347e+00 1.6665186276e+00 2.8864949347e+00 
58400 6.4993053560e+00 -5.9640675936e-05 1.6665186276e+00 -2.8864949347e+00 1.6665186276e+00 2.8864949347e+00 
58500 6.4993053643e+00 -5.8835919534e-05 1.6665186276e+00 -2.8864949347e+00 1.6665186276e+00 2.8864949347e+00 
58600 6.4993053725e+00 -5.8009530318e-05 1.6665186276e+00 -2.8864949347e+00 1.6665186276e+00 2.8864949347e+00 
58700 6.4993053807e+00 -5.7162459569e-05 1.6665186276e+00 -2.8864949347e+00 1.6665186276e+00 2.8864949347e+00 
58800 6.4993053888e+00 -5.6295651706e-05 1.6665186276e+00 -2.8864949347e+00 1.6665186276e+00 2.8864949347e+00 
58900 6.4993053967e+00 -5.5410043841e-05 1.6665186276e+00 -2.8864949347e+00 1.6665186276e+00 2.8864949347e+00 
59000 6.4993054046e+00 -5.4506565328e-05 1.6665186276e+00 -2.8864949347e+00 1.6665186276e+00 2.8864949347e+00 
59100 6.4993054125e+00 -5.3586137347e-05 1.6665186276e+00 -2.8864949347e+00 1.6665186276e+00 2.8864949347e+00 
59200 6.4993054202e+00 -5.2649672479e-05 1.6665186276e+00 -2.8864949347e+00 1.6665186276e+00 2.8864949347e+00 
59300 6.4993054278e+00 -5.1698074307e-05 1.6665186276e+00 -2.8864949347e+00 1.6665186276e+00 2.8864949347e+00 
59400 6.4993054354e+00 -5.0732237014e-05 1.6665186276e+00 -2.8864949347e+00 1.6665186276e+00 2.8864949347e+00 
59500 6.4993054429e+00 -4.9753045012e-05 1.6665186276e+00 -2.8864949347e+00 1.6665186276e+00 2.8864949347e+00 
59600 6.4993054502e+00 -4.8761372563e-05 1.6665186276e+00 -2.8864949347e+00 1.6665186276e+00 2.8864949347e+00 
59700 6.4993054575e+00 -4.7758083425e-05 1.6665186276e+00 -2.8864949347e+00 1.6665186276e+00 2.8864949347e+00 
59800 6.4993054647e+00 -4.6744030509e-05 1.6665186276e+00 -2.8864949347e+00 1.6665186276e+00 2.8864949347e+00 
59900 6.4993054718e+00 -4.5720055541e-05 1.6665186276e+00 -2.8864949347e+00 1.6665186276e+00 2.8864949347e+00 
60000 6.4993054788e+00 -4.4686988740e-05 1.6665186276e+00 -2.8864949347e+00 1.6665186276e+00 2.8864949347e+00 
60100 6.4993054858e+00 -4.3645648520e-05 1.6665186276e+00 -2.8864949347e+00 1.6665186276e+00 2.8864949347e+00 
60200 6.4993054926e+00 -4.2596841179e-05 1.6665186276e+00 -2.8864949347e+00 1.6665186276e+00 2.8864949347e+00 
60300 6.4993054993e+00 -4.1541360628e-05 1.6665186276e+00 -2.8864949347e+00 1.6665186276e+00 2.8864949347e+00 
60400 6.4993055060e+00 -4.0479988110e-05 1.6665186276e+00 -2.8864949347e+00 1.6665186276e+00 2.8864949347e+00 
60500 6.4993055126e+00 -3.9413491946e-05 1.6665186276e+00 -2.8864949347e+00 1.6665186276e+00 2.8864949347e+00 
60600 6.4993055190e+00 -3.8342627290e-05 1.6665186276e+00 -2.8864949347e+00 1.6665186276e+00 2.8864949347e+00 
60700 6.4993055254e+00 -3.7268135896e-05 1.6665186276e+00 -2.8864949347e+00 1.6665186276e+00 2.8864949347e+00 
60800 6.4993055317e+00 -3.6190745887e-05 1.6665186276e+00 -2.8864949347e+00 1.6665186276e+00 2.8864949347e+00 
60900 6.4993055378e+00 -3.5111171565e-05 1.6665186276e+00 -2.8864949347e+00 1.6665186276e+00 2.8864949347e+00 
61000 6.4993055439e+00 -3.4030113198e-05 1.6665186276e+00 -2.8864949347e+00 1.6665186276e+00 2.8864949347e+00 
61100 6.4993055499e+00 -3.2948256844e-05 1.6665186276e+00 -2.8864949347e+00 1.6665186276e+00 2.8864949347e+00 
61200 6.4993055558e+00 -3.1866274182e-05 1.6665186276e+00 -2.8864949347e+00 1.6665186276e+00 2.8864949347e+00 
61300 6.4993055617e+00 -3.0784822347e-05 1.6665186276e+00 -2.8864949347e+00 1.6665186276e+00 2.8864949347e+00 
61400 6.4993055674e+00 -2.9704543791e-05 1.6665186276e+00 -2.8864949347e+00 1.6665186276e+00 2.8864949347e+00 
61500 6.4993055730e+00 -2.8626066143e-05 1.6665186276e+00 -2.8864949347e+00 1.6665186276e+00 2.8864949347e+00 
61600 6.4993055786e+00 -2.7550002089e-05 1.6665186276e+00 -2.8864949347e+00 1.6665186276e+00 2.8864949347e+00 
61700 6.4993055840e+00 -2.6476949267e-05 1.6665186276e+00 -2.8864949347e+00 1.6665186276e+00 2.8864949347e+00 
61800 6.4993055894e+00 -2.5407490161e-05 1.6665186276e+00 -2.8864949347e+00 1.6665186276e+00 2.8864949347e+00 
61900 6.4993055946e+00 -2.4342192022e-05 1.6665186276e+00 -2.8864949347e+00 1.6665186276e+00 2.8864949347e+00 
62000 6.4993055998e+00 -2.3281606790e-05 1.6665186276e+00 -2.8864949347e+00 1.6665186276e+00 2.8864949347e+00 
62100 6.4993056049e+00 -2.2226271035e-05 1.6665186276e+00 -2.8864949347e+00 1.6665186276e+00 2.8864949347e+00 
62200 6.4993056099e+00 -2.1176705902e-05 1.6665186276e+00 -2.8864949347e+00 1.6665186276e+00 2.8864949347e+00 
62300 6.4993056149e+00 -2.0133417078e-05 1.6665186276e+00 -2.8864949347e+00 1.6665186276e+00 2.8864949347e+00 
62400 6.4993056197e+00 -1.9096894755e-05 1.6665186276e+00 -2.8864949347e+00 1.6665186276e+00 2.8864949347e+00 
62500 6.4993056245e+00 -1.8067613624e-05 1.6665186276e+00 -2.8864949347e+00 1.6665186276e+00 2.8864949347e+00 
62600 6.4993056291e+00 -1.7046032854e-05 1.6665186276e+00 -2.8864949347e+00 1.6665186276e+00 2.8864949347e+00 
62700 6.4993056337e+00 -1.6032596114e-05 1.6665186276e+00 -2.8864949347e+00 1.6665186276e+00 2.8864949347e+00 
62800 6.4993056382e+00 -1.5027731573e-05 1.6665186276e+00 -2.8864949347e+00 1.6665186276e+00 2.8864949347e+00 
62900 6.4993056427e+00 -1.4031851938e-05 1.6665186276e+00 -2.8864949347e+00 1.6665186276e+00 2.8864949347e+00 
63000 6.4993056470e+00 -1.3045354482e-05 1.6665186276e+00 -2.8864949347e+00 1.6665186276e+00 2.8864949347e+00 
63100 6.4993056513e+00 -1.2068621089e-05 1.6665186276e+00 -2.8864949347e+00 1.6665186276e+00 2.8864949347e+00 
63200 6.4993056555e+00 -1.1102018319e-05 1.6665186276e+00 -2.8864949347e+00 1.6665186276e+00 2.8864949347e+00 
63300 6.4993056596e+00 -1.0145897466e-05 1.6665186276e+00 -2.8864949347e+00 1.6665186276e+00 2.8864949347e+00 
63400 6.4993056637e+00 -9.2005946311e-06 1.6665186276e+00 -2.8864949347e+00 1.6665186276e+00 2.8864949347e+00 
63500 6.4993056677e+00 -8.2664308162e-06 1.6665186276e+00 -2.8864949347e+00 1.6665186276e+00 2.8864949347e+00 
63600 6.4993056716e+00 -7.3437120106e-06 1.6665186276e+00 -2.8864949347e+00 1.6665186276e+00 2.8864949347e+00 
63700 6.4993056755e+00 -6.4327292873e-06 1.6665186276e+00 -2.8864949347e+00 1.6665186276e+00 2.8864949347e+00 
63800 6.4993056792e+00 -5.5337589288e-06 1.6665186276e+00 -2.8864949347e+00 1.6665186276e+00 2.8864949347e+00 
63900 6.4993056829e+00 -4.6470625365e-06 1.6665186276e+00 -2.8864949347e+00 1.6665186276e+00 2.8864949347e+00 
64000 6.4993056866e+00 -3.7728871585e-06 1.6665186276e+00 -2.8864949347e+00 1.6665186276e+00 2.8864949347e+00 
64100 6.4993056902e+00 -2.9114654253e-06 1.6665186276e+00 -2.8864949347e+00 1.6665186276e+00 2.8864949347e+00 
64200 6.4993056937e+00 -2.0630156956e-06 1.6665186276e+00 -2.8864949347e+00 1.6665186276e+00 2.8864949347e+00 
64300 6.4993056972e+00 -1.2277421997e-06 1.6665186276e+00 -2.8864949347e+00 1.6665186276e+00 2.8864949347e+00 
64400 6.4993057006e+00 -4.0583520881e-07 1.6665186276e+00 -2.8864949347e+00 1.6665186276e+00 2.8864949347e+00 
64500 6.4993057039e+00 4.0252881839e-07 1.6665186276e+00 -2.8864949347e+00 1.6665186276e+00 2.8864949347e+00 
64600 6.4993057072e+00 1.1971870456e-06 1.6665186276e+00 -2.8864949347e+00 1.6665186276e+00 2.8864949347e+00 
64700 6.4993057104e+00 1.9779900890e-06 1.6665186276e+00 -2.8864949347e+00 1.6665186276e+00 2.8864949347e+00 
64800 6.4993057136e+00 2.7448018373e-06 1.6665186276e+00 -2.8864949347e+00 1.6665186276e+00 2.8864949347e+00 
64900 6.4993057167e+00 3.4974992589e-06 1.6665186276e+00 -2.8864949347e+00 1.6665186276e+00 2.8864949347e+00 
65000 6.4993057198e+00 4.2359722026e-06 1.6665186276e+00 -2.8864949347e+00 1.6665186276e+00 2.8864949347e+00 
65100 6.4993057228e+00 4.9601231983e-06 1.6665186276e+00 -2.8864949347e+00 1.6665186276e+00 2.8864949347e+00 
65200 6.4993057258e+00 5.6698672604e-06 1.6665186276e+00 -2.8864949347e+00 1.6665186276e+00 2.8864949347e+00 
65300 6.4993057287e+00 6.3651316615e-06 1.6665186276e+00 -2.8864949347e+00 1.6665186276e+00 2.8864949347e+00 
65400 6.4993057316e+00 7.0458557236e-06 1.6665186276e+00 -2.8864949347e+00 1.6665186276e+00 2.8864949347e+00 
65500 6.4993057344e+00 7.7119905969e-06 1.6665186276e+00 -2.8864949347e+00 1.6665186276e+00 2.8864949347e+00 
65600 6.4993057372e+00 8.3634990352e-06 1.6665186276e+00 -2.8864949347e+00 1.6665186276e+00 2.8864949347e+00 
65700 6.4993057399e+00 9.0003551684e-06 1.6665186276e+00 -2.8864949347e+00 1.6665186276e+00 2.8864949347e+00 
65800 6.4993057426e+00 9.6225442690e-06 1.6665186276e+00 -2.8864949347e+00 1.6665186276e+00 2.8864949347e+00 
65900 6.4993057453e+00 1.0230062512e-05 1.6665186276e+00 -2.8864949347e+00 1.6665186276e+00 2.8864949347e+00 
66000 6.4993057479e+00 1.0822916741e-05 1.6665186276e+00 -2.8864949347e+00 1.6665186276e+00 2.8864949347e+00 
66100 6.4993057504e+00 1.1401124225e-05 1.6665186276e+00 -2.8864949347e+00 1.6665186276e+00 2.8864949347e+00 
66200 6.4993057530e+00 1.1964712414e-05 1.6665186276e+00 -2.8864949347e+00 1.6665186276e+00 2.8864949347e+00 
66300 6.4993057555e+00 1.2513718688e-05 1.6665186276e+00 -2.8864949347e+00 1.6665186276e+00 2.8864949347e+00 
66400 6.4993057579e+00 1.3048190107e-05 1.6665186276e+00 -2.8864949347e+00 1.6665186276e+00 2.8864949347e+00 
66500 6.4993057604e+00 1.3568183168e-05 1.6665186276e+00 -2.8864949347e+00 1.6665186276e+00 2.8864949347e+00 
66600 6.4993057628e+00 1.4073763536e-05 1.6665186276e+00 -2.8864949347e+00 1.6665186276e+00 2.8864949347e+00 
66700 6.4993057651e+00 1.4565005805e-05 1.6665186276e+00 -2.8864949347e+00 1.6665186276e+00 2.8864949347e+00 
66800 6.4993057674e+00 1.5041993228e-05 1.6665186276e+00 -2.8864949347e+00 1.6665186276e+00 2.8864949347e+00 
66900 6.4993057697e+00 1.5504817464e-05 1.6665186276e+00 -2.8864949347e+00 1.6665186276e+00 2.8864949347e+00 
67000 6.4993057720e+00 1.5953578322e-05 1.6665186276e+00 -2.8864949347e+00 1.6665186276e+00 2.8864949347e+00 
67100 6.4993057742e+00 1.6388383502e-05 1.6665186276e+00 -2.8864949347e+00 1.6665186276e+00 2.8864949347e+00 
67200 6.4993057764e+00 1.6809348329e-05 1.6665186276e+00 -2.8864949347e+00 1.6665186276e+00 2.8864949347e+00 
67300 6.4993057786e+00 1.7216595494e-05 1.6665186276e+00 -2.8864949347e+00 1.6665186276e+00 2.8864949347e+00 
67400 6.4993057807e+00 1.7610254802e-05 1.6665186276e+00 -2.8864949347e+00 1.6665186276e+00 2.8864949347e+00 
67500 6.4993057828e+00 1.7990462900e-05 1.6665186276e+00 -2.8864949347e+00 1.6665186276e+00 2.8864949347e+00 
67600 6.4993057849e+00 1.8357363024e-05 1.6665186276e+00 -2.8864949347e+00 1.6665186276e+00 2.8864949347e+00 
67700 6.4993057870e+00 1.8711104740e-05 1.6665186276e+00 -2.8864949347e+00 1.6665186276e+00 2.8864949347e+00 
67800 6.4993057890e+00 1.9051843682e-05 1.6665186276e+00 -2.8864949347e+00 1.6665186276e+00 2.8864949347e+00 
67900 6.4993057910e+00 1.9379741295e-05 1.6665186276e+00 -2.8864949347e+00 1.6665186276e+00 2.8864949347e+00 
68000 6.4993057930e+00 1.9694964582e-05 1.6665186276e+00 -2.8864949347e+00 1.6665186276e+00 2.8864949347e+00 
68100 6.4993057950e+00 1.9997685841e-05 1.6665186276e+00 -2.8864949347e+00 1.6665186276e+00 2.8864949347e+00 
68200 6.4993057969e+00 2.0288082422e-05 1.6665186276e+00 -2.8864949347e+00 1.6665186276e+00 2.8864949347e+00 
68300 6.4993057988e+00 2.0566336467e-05 1.6665186276e+00 -2.8864949347e+00 1.6665186276e+00 2.8864949347e+00 
68400 6.4993058007e+00 2.0832634657e-05 1.6665186276e+00 -2.8864949347e+00 1.6665186276e+00 2.8864949347e+00 
68500 6.4993058025e+00 2.1087167970e-05 1.6665186276e+00 -2.8864949347e+00 1.6665186276e+00 2.8864949347e+00 
68600 6.4993058044e+00 2.1330131432e-05 1.6665186276e+00 -2.8864949347e+00 1.6665186276e+00 2.8864949347e+00 
68700 6.4993058062e+00 2.1561723875e-05 1.6665186276e+00 -2.8864949347e+00 1.6665186276e+00 2.8864949347e+00 
68800 6.4993058080e+00 2.1782147687e-05 1.6665186276e+00 -2.8864949347e+00 1.6665186276e+00 2.8864949347e+00 
68900 6.4993058097e+00 2.1991608583e-05 1.6665186276e+00 -2.8864949347e+00 1.6665186276e+00 2.8864949347e+00 
69000 6.4993058115e+00 2.2190315361e-05 1.6665186276e+00 -2.8864949347e+00 1.6665186276e+00 2.8864949347e+00 
69100 6.4993058132e+00 2.2378479671e-05 1.6665186276e+00 -2.8864949347e+00 1.6665186276e+00 2.8864949347e+00 
69200 6.4993058149e+00 2.2556315784e-05 1.6665186276e+00 -2.8864949347e+00 1.6665186276e+00 2.8864949347e+00 
69300 6.4993058166e+00 2.2724040365e-05 1.6665186276e+00 -2.8864949347e+00 1.6665186276e+00 2.8864949347e+00 
69400 6.4993058182e+00 2.2881872244e-05 1.6665186276e+00 -2.8864949347e+00 1.6665186276e+00 2.8864949347e+00 
69500 6.4993058199e+00 2.3030032200e-05 1.6665186276e+00 -2.8864949347e+00 1.6665186276e+00 2.8864949347e+00 
69600 6.4993058215e+00 2.3168742741e-05 1.6665186276e+00 -2.8864949347e+00 1.6665186276e+00 2.8864949347e+00 
69700 6.4993058231e+00 2.3298227885e-05 1.6665186276e+00 -2.8864949347e+00 1.6665186276e+00 2.8864949347e+00 
69800 6.4993058247e+00 2.3418712956e-05 1.6665186276e+00 -2.8864949347e+00 1.6665186276e+00 2.8864949347e+00 
69900 6.4993058262e+00 2.3530424374e-05 1.6665186276e+00 -2.8864949347e+00 1.6665186276e+00 2.8864949347e+00 
70000 6.4993058278e+00 2.3633589449e-05 1.6665186276e+00 -2.8864949347e+00 1.6665186276e+00 2.8864949347e+00 
70100 6.4993058293e+00 2.3728436183e-05 1.6665186276e+00 -2.8864949347e+00 1.6665186276e+00 2.8864949347e+00 
70200 6.4993058308e+00 2.3815193074e-05 1.6665186276e+00 -2.8864949347e+00 1.6665186276e+00 2.8864949347e+00 
70300 6.4993058323e+00 2.3894088926e-05 1.6665186276e+00 -2.8864949347e+00 1.6665186276e+00 2.8864949347e+00 
70400 6.4993058337e+00 2.3965352661e-05 1.6665186276e+00 -2.8864949347e+00 1.6665186276e+00 2.8864949347e+00 
70500 6.4993058352e+00 2.4029213132e-05 1.6665186276e+00 -2.8864949347e+00 1.6665186276e+00 2.8864949347e+00 
70600 6.4993058366e+00 2.4085898946e-05 1.6665186276e+00 -2.8864949347e+00 1.6665186276e+00 2.8864949347e+00 
70700 6.4993058380e+00 2.4135638290e-05 1.6665186276e+00 -2.8864949347e+00 1.6665186276e+00 2.8864949347e+00 
70800 6.4993058394e+00 2.4178658759e-05 1.6665186276e+00 -2.8864949347e+00 1.6665186276e+00 2.8864949347e+00 
70900 6.4993058408e+00 2.4215187187e-05 1.6665186276e+00 -2.8864949347e+00 1.6665186276e+00 2.8864949347e+00 
71000 6.4993058421e+00 2.4245449490e-05 1.6665186276e+00 -2.8864949347e+00 1.6665186276e+00 2.8864949347e+00 
71100 6.4993058435e+00 2.4269670507e-05 1.6665186276e+00 -2.8864949347e+00 1.6665186276e+00 2.8864949347e+00 
71200 6.4993058448e+00 2.4288073843e-05 1.6665186276e+00 -2.8864949347e+00 1.6665186276e+00 2.8864949347e+00 
71300 6.4993058461e+00 2.4300881721e-05 1.6665186276e+00 -2.8864949347e+00 1.6665186276e+00 2.8864949347e+00 
71400 6.4993058474e+00 2.4308314844e-05 1.6665186276e+00 -2.8864949347e+00 1.6665186276e+00 2.8864949347e+00 
71500 6.4993058486e+00 2.4310592247e-05 1.6665186276e+00 -2.8864949347e+00 1.6665186276e+00 2.8864949347e+00 
71600 6.4993058499e+00 2.4307931169e-05 1.6665186276e+00 -2.8864949347e+00 1.6665186276e+00 2.8864949347e+00 
71700 6.4993058511e+00 2.4300546915e-05 1.6665186276e+00 -2.8864949347e+00 1.6665186276e+00 2.8864949347e+00 
71800 6.4993058523e+00 2.4288652737e-05 1.6665186276e+00 -2.8864949347e+00 1.6665186276e+00 2.8864949347e+00 
71900 6.4993058535e+00 2.4272459710e-05 1.6665186276e+00 -2.8864949347e+00 1.6665186276e+00 2.8864949347e+00 
72000 6.4993058547e+00 2.4252176611e-05 1.6665186276e+00 -2.8864949347e+00 1.6665186276e+00 2.8864949347e+00 
72100 6.4993058559e+00 2.4228009812e-05 1.6665186276e+00 -2.8864949347e+00 1.6665186276e+00 2.8864949347e+00 
72200 6.4993058570e+00 2.4200163171e-05 1.6665186276e+00 -2.8864949347e+00 1.6665186276e+00 2.8864949347e+00 
72300 6.4993058582e+00 2.4168837925e-05 1.6665186276e+00 -2.8864949347e+00 1.6665186276e+00 2.8864949347e+00 
72400 6.4993058593e+00 2.4134232598e-05 1.6665186276e+00 -2.8864949347e+00 1.6665186276e+00 2.8864949347e+00 
72500 6.4993058604e+00 2.4096542899e-05 1.6665186276e+00 -2.8864949347e+00 1.6665186276e+00 2.8864949347e+00 
72600 6.4993058615e+00 2.4055961637e-05 1.6665186276e+00 -2.8864949347e+00 1.6665186276e+00 2.8864949347e+00 
72700 6.4993058626e+00 2.4012678634e-05 1.6665186276e+00 -2.8864949347e+00 1.6665186276e+00 2.8864949347e+00 
72800 6.4993058636e+00 2.3966880645e-05 1.6665186276e+00 -2.8864949347e+00 1.6665186276e+00 2.8864949347e+00 
72900 6.4993058647e+00 2.3918751283e-05 1.6665186276e+00 -2.8864949347e+00 1.6665186276e+00 2.8864949347e+00 
73000 6.4993058657e+00 2.3868470940e-05 1.6665186276e+00 -2.8864949347e+00 1.6665186276e+00 2.8864949347e+00 
73100 6.4993058667e+00 2.3816216725e-05 1.6665186276e+00 -2.8864949347e+00 1.6665186276e+00 2.8864949347e+00 
73200 6.4993058677e+00 2.3762162400e-05 1.6665186276e+00 -2.8864949347e+00 1.6665186276e+00 2.8864949347e+00 
73300 6.4993058687e+00 2.3706478320e-05 1.6665186276e+00 -2.8864949347e+00 1.6665186276e+00 2.8864949347e+00 
73400 6.4993058697e+00 2.3649331376e-05 1.6665186276e+00 -2.8864949347e+00 1.6665186276e+00 2.8864949347e+00 
73500 6.4993058706e+00 2.3590884946e-05 1.6665186276e+00 -2.8864949347e+00 1.6665186276e+00 2.8864949347e+00 
73600 6.4993058716e+00 2.3531298842e-05 1.6665186276e+00 -2.8864949347e+00 1.6665186276e+00 2.8864949347e+00 
73700 6.4993058725e+00 2.3470729284e-05 1.6665186276e+00 -2.8864949347e+00 1.6665186276e+00 2.8864949347e+00 
73800 6.4993058734e+00 2.3409328831e-05 1.6665186276e+00 -2.8864949347e+00 1.6665186276e+00 2.8864949347e+00 
73900 6.4993058743e+00 2.3347246386e-05 1.6665186276e+00 -2.8864949347e+00 1.6665186276e+00 2.8864949347e+00 
74000 6.4993058752e+00 2.3284627122e-05 1.6665186276e+00 -2.8864949347e+00 1.6665186276e+00 2.8864949347e+00 
74100 6.4993058761e+00 2.3221612488e-05 1.6665186276e+00 -2.8864949347e+00 1.6665186276e+00 2.8864949347e+00 
74200 6.4993058770e+00 2.3158340168e-05 1.6665186276e+00 -2.8864949347e+00 1.6665186276e+00 2.8864949347e+00 
74300 6.4993058778e+00 2.3094944065e-05 1.6665186276e+00 -2.8864949347e+00 1.6665186276e+00 2.8864949347e+00 
74400 6.4993058787e+00 2.3031554286e-05 1.6665186276e+00 -2.8864949347e+00 1.6665186276e+00 2.8864949347e+00 
74500 6.4993058795e+00 2.2968297129e-05 1.6665186276e+00 -2.8864949347e+00 1.6665186276e+00 2.8864949347e+00 
74600 6.4993058803e+00 2.2905295067e-05 1.6665186276e+00 -2.8864949347e+00 1.6665186276e+00 2.8864949347e+00 
74700 6.4993058811e+00 2.2842666756e-05 1.6665186276e+00 -2.8864949347e+00 1.6665186276e+00 2.8864949347e+00 
74800 6.4993058819e+00 2.2780527018e-05 1.6665186276e+00 -2.8864949347e+00 1.6665186276e+00 2.8864949347e+00 
74900 6.4993058827e+00 2.2718986847e-05 1.6665186276e+00 -2.8864949347e+00 1.6665186276e+00 2.8864949347e+00 
75000 6.4993058834e+00 2.2658153414e-05 1.6665186276e+00 -2.8864949347e+00 1.6665186276e+00 2.8864949347e+00 
75100 6.4993058842e+00 2.2598130073e-05 1.6665186276e+00 -2.8864949347e+00 1.6665186276e+00 2.8864949347e+00 
75200 6.4993058849e+00 2.2539016369e-05 1.6665186276e+00 -2.8864949347e+00 1.6665186276e+00 2.8864949347e+00 
75300 6.4993058857e+00 2.2480908056e-05 1.6665186276e+00 -2.8864949347e+00 1.6665186276e+00 2.8864949347e+00 
75400 6.4993058864e+00 2.2423897100e-05 1.6665186276e+00 -2.8864949347e+00 1.6665186276e+00 2.8864949347e+00 
75500 6.4993058871e+00 2.2368071716e-05 1.6665186276e+00 -2.8864949347e+00 1.6665186276e+00 2.8864949347e+00 
75600 6.4993058878e+00 2.2313516371e-05 1.6665186276e+00 -2.8864949347e+00 1.6665186276e+00 2.8864949347e+00 
75700 6.4993058885e+00 2.2260311819e-05 1.6665186276e+00 -2.8864949347e+00 1.6665186276e+00 2.8864949347e+00 
75800 6.4993058892e+00 2.2208535123e-05 1.6665186276e+00 -2.8864949347e+00 1.6665186276e+00 2.8864949347e+00 
75900 6.4993058899e+00 2.2158259686e-05 1.6665186276e+00 -2.8864949347e+00 1.6665186276e+00 2.8864949347e+00 
76000 6.4993058905e+00 2.2109555277e-05 1.6665186276e+00 -2.8864949347e+00 1.6665186276e+00 2.8864949347e+00 
76100 6.4993058912e+00 2.2062488070e-05 1.6665186276e+00 -2.8864949347e+00 1.6665186276e+00 2.8864949347e+00 
76200 6.4993058918e+00 2.2017120678e-05 1.6665186276e+00 -2.8864949347e+00 1.6665186276e+00 2.8864949347e+00 
76300 6.4993058925e+00 2.1973512192e-05 1.6665186276e+00 -2.8864949347e+00 1.6665186276e+00 2.8864949347e+00 
76400 6.4993058931e+00 2.1931718209e-05 1.6665186276e+00 -2.8864949347e+00 1.6665186276e+00 2.8864949347e+00 
76500 6.4993058937e+00 2.1891790897e-05 1.6665186276e+00 -2.8864949347e+00 1.6665186276e+00 2.8864949347e+00 
76600 6.4993058943e+00 2.1853779014e-05 1.6665186276e+00 -2.8864949347e+00 1.6665186276e+00 2.8864949347e+00 
76700 6.4993058949e+00 2.1817727970e-05 1.6665186276e+00 -2.8864949347e+00 1.6665186276e+00 2.8864949347e+00 
76800 6.4993058955e+00 2.1783679869e-05 1.6665186276e+00 -2.8864949347e+00 1.6665186276e+00 2.8864949347e+00 
76900 6.4993058961e+00 2.1751673555e-05 1.6665186276e+00 -2.8864949347e+00 1.6665186276e+00 2.8864949347e+00 
77000 6.4993058967e+00 2.1721744664e-05 1.6665186276e+00 -2.8864949347e+00 1.6665186276e+00 2.8864949347e+00 
77100 6.4993058973e+00 2.1693925681e-05 1.6665186276e+00 -2.8864949347e+00 1.6665186276e+00 2.8864949347e+00 
77200 6.4993058978e+00 2.1668245983e-05 1.6665186276e+00 -2.8864949347e+00 1.6665186276e+00 2.8864949347e+00 
77300 6.4993058984e+00 2.1644731905e-05 1.6665186276e+00 -2.8864949347e+00 1.6665186276e+00 2.8864949347e+00 
77400 6.4993058989e+00 2.1623406784e-05 1.6665186276e+00 -2.8864949347e+00 1.6665186276e+00 2.8864949347e+00 
77500 6.4993058995e+00 2.1604291030e-05 1.6665186276e+00 -2.8864949347e+00 1.6665186276e+00 2.8864949347e+00 
77600 6.4993059000e+00 2.1587402167e-05 1.6665186276e+00 -2.8864949347e+00 1.6665186276e+00 2.8864949347e+00 
77700 6.4993059005e+00 2.1572754913e-05 1.6665186276e+00 -2.8864949347e+00 1.6665186276e+00 2.8864949347e+00 
77800 6.4993059010e+00 2.1560361217e-05 1.6665186276e+00 -2.8864949347e+00 1.6665186276e+00 2.8864949347e+00 
77900 6.4993059015e+00 2.1550230338e-05 1.6665186276e+00 -2.8864949347e+00 1.6665186276e+00 2.8864949347e+00 
78000 6.4993059020e+00 2.1542368901e-05 1.6665186276e+00 -2.8864949347e+00 1.6665186276e+00 2.8864949347e+00 
78100 6.4993059025e+00 2.1536780956e-05 1.6665186276e+00 -2.8864949347e+00 1.6665186276e+00 2.8864949347e+00 
78200 6.4993059030e+00 2.1533468045e-05 1.6665186276e+00 -2.8864949347e+00 1.6665186276e+00 2.8864949347e+00 
78300 6.4993059035e+00 2.1532429263e-05 1.6665186276e+00 -2.8864949347e+00 1.6665186276e+00 2.8864949347e+00 
78400 6.4993059040e+00 2.1533661326e-05 1.6665186276e+00 -2.8864949347e+00 1.6665186276e+00 2.8864949347e+00 
78500 6.4993059044e+00 2.1537158634e-05 1.6665186276e+00 -2.8864949347e+00 1.6665186276e+00 2.8864949347e+00 
78600 6.4993059049e+00 2.1542913336e-05 1.6665186276e+00 -2.8864949347e+00 1.6665186276e+00 2.8864949347e+00 
78700 6.4993059054e+00 2.1550915393e-05 1.6665186276e+00 -2.8864949347e+00 1.6665186276e+00 2.8864949347e+00 
78800 6.4993059058e+00 2.1561152651e-05 1.6665186276e+00 -2.8864949347e+00 1.6665186276e+00 2.8864949347e+00 
78900 6.4993059062e+00 2.1573610894e-05 1.6665186276e+00 -2.8864949347e+00 1.6665186276e+00 2.8864949347e+00 
79000 6.4993059067e+00 2.1588273926e-05 1.6665186276e+00 -2.8864949347e+00 1.6665186276e+00 2.8864949347e+00 
79100 6.4993059071e+00 2.1605123623e-05 1.6665186276e+00 -2.8864949347e+00 1.6665186276e+00 2.8864949347e+00 
79200 6.4993059075e+00 2.1624140012e-05 1.6665186276e+00 -2.8864949347e+00 1.6665186276e+00 2.8864949347e+00 
79300 6.4993059080e+00 2.1645301323e-05 1.6665186276e+00 -2.8864949347e+00 1.6665186276e+00 2.8864949347e+00 
79400 6.4993059084e+00 2.1668584071e-05 1.6665186276e+00 -2.8864949347e+00 1.6665186276e+00 2.8864949347e+00 
79500 6.4993059088e+00 2.1693963105e-05 1.6665186276e+00 -2.8864949347e+00 1.6665186276e+00 2.8864949347e+00 
79600 6.4993059092e+00 2.1721411687e-05 1.6665186276e+00 -2.8864949347e+00 1.6665186276e+00 2.8864949347e+00 
79700 6.4993059096e+00 2.1750901551e-05 1.6665186276e+00 -2.8864949347e+00 1.6665186276e+00 2.8864949347e+00 
79800 6.4993059100e+00 2.1782402971e-05 1.6665186276e+00 -2.8864949347e+00 1.6665186276e+00 2.8864949347e+00 
79900 6.4993059104e+00 2.1815884822e-05 1.6665186276e+00 -2.8864949347e+00 1.6665186276e+00 2.8864949347e+00 
80000 6.4993059108e+00 2.1851314649e-05 1.6665186276e+00 -2.8864949347e+00 1.6665186276e+00 2.8864949347e+00 
80100 6.4993059111e+00 2.1888658730e-05 1.6665186276e+00 -2.8864949347e+00 1.6665186276e+00 2.8864949347e+00 
80200 6.4993059115e+00 2.1927882135e-05 1.6665186276e+00 -2.8864949347e+00 1.6665186276e+00 2.8864949347e+00 
80300 6.4993059119e+00 2.1968948795e-05 1.6665186276e+00 -2.8864949347e+00 1.6665186276e+00 2.8864949347e+00 
80400 6.4993059122e+00 2.2011821555e-05 1.6665186276e+00 -2.8864949347e+00 1.6665186276e+00 2.8864949347e+00 
80500 6.4993059126e+00 2.2056462254e-05 1.6665186276e+00 -2.8864949347e+00 1.6665186276e+00 2.8864949347e+00 
80600 6.4993059130e+00 2.2102831764e-05 1.6665186276e+00 -2.8864949347e+00 1.6665186276e+00 2.8864949347e+00 
80700 6.4993059133e+00 2.2150890066e-05 1.6665186276e+00 -2.8864949347e+00 1.6665186276e+00 2.8864949347e+00 
80800 6.4993059137e+00 2.2200596305e-05 1.6665186276e+00 -2.8864949347e+00 1.6665186276e+00 2.8864949347e+00 
80900 6.4993059140e+00 2.2251908844e-05 1.6665186276e+00 -2.8864949347e+00 1.6665186276e+00 2.8864949347e+00 
81000 6.4993059143e+00 2.2304785331e-05 1.6665186276e+00 -2.8864949347e+00 1.6665186276e+00 2.8864949347e+00 
81100 6.4993059147e+00 2.2359182748e-05 1.6665186276e+00 -2.8864949347e+00 1.6665186276e+00 2.8864949347e+00 
81200 6.4993059150e+00 2.2415057478e-05 1.6665186276e+00 -2.8864949347e+00 1.6665186276e+00 2.8864949347e+00 
81300 6.4993059153e+00 2.2472365345e-05 1.6665186276e+00 -2.8864949347e+00 1.6665186276e+00 2.8864949347e+00 
81400 6.4993059156e+00 2.2531061686e-05 1.6665186276e+00 -2.8864949347e+00 1.6665186276e+00 2.8864949347e+00 
81500 6.4993059160e+00 2.2591101391e-05 1.6665186276e+00 -2.8864949347e+00 1.6665186276e+00 2.8864949347e+00 
81600 6.4993059163e+00 2.2652438962e-05 1.6665186276e+00 -2.8864949347e+00 1.6665186276e+00 2.8864949347e+00 
81700 6.4993059166e+00 2.2715028569e-05 1.6665186276e+00 -2.8864949347e+00 1.6665186276e+00 2.8864949347e+00 
81800 6.4993059169e+00 2.2778824091e-05 1.6665186276e+00 -2.8864949347e+00 1.6665186276e+00 2.8864949347e+00 
81900 6.4993059172e+00 2.2843779171e-05 1.6665186276e+00 -2.8864949347e+00 1.6665186276e+00 2.8864949347e+00 
82000 6.4993059175e+00 2.2909847268e-05 1.6665186276e+00 -2.8864949347e+00 1.6665186276e+00 2.8864949347e+00 
82100 6.4993059178e+00 2.2976981695e-05 1.6665186276e+00 -2.8864949347e+00 1.6665186276e+00 2.8864949347e+00 
82200 6.4993059181e+00 2.3045135679e-05 1.6665186276e+00 -2.8864949347e+00 1.6665186276e+00 2.8864949347e+00 
82300 6.4993059183e+00 2.3114262398e-05 1.6665186276e+00 -2.8864949347e+00 1.6665186276e+00 2.8864949347e+00 
82400 6.4993059186e+00 2.3184315023e-05 1.6665186276e+00 -2.8864949347e+00 1.6665186276e+00 2.8864949347e+00 
82500 6.4993059189e+00 2.3255246770e-05 1.6665186276e+00 -2.8864949347e+00 1.6665186276e+00 2.8864949347e+00 
82600 6.4993059192e+00 2.3327010938e-05 1.6665186276e+00 -2.8864949347e+00 1.6665186276e+00 2.8864949347e+00 
82700 6.4993059194e+00 2.3399560946e-05 1.6665186276e+00 -2.8864949347e+00 1.6665186276e+00 2.8864949347e+00 
82800 6.4993059197e+00 2.3472850379e-05 1.6665186276e+00 -2.8864949347e+00 1.6665186276e+00 2.8864949347e+00 
82900 6.4993059200e+00 2.3546833026e-05 1.6665186276e+00 -2.8864949347e+00 1.6665186276e+00 2.8864949347e+00 
83000 6.4993059202e+00 2.3621462914e-05 1.6665186276e+00 -2.8864949347e+00 1.6665186276e+00 2.8864949347e+00 
83100 6.4993059205e+00 2.3696694351e-05 1.6665186276e+00 -2.8864949347e+00 1.6665186276e+00 2.8864949347e+00 
83200 6.4993059207e+00 2.3772481951e-05 1.6665186276e+00 -2.8864949347e+00 1.6665186276e+00 2.8864949347e+00 
83300 6.4993059210e+00 2.3848780684e-05 1.6665186276e+00 -2.8864949347e+00 1.6665186276e+00 2.8864949347e+00 
83400 6.4993059212e+00 2.3925545889e-05 1.6665186276e+00 -2.8864949347e+00 1.6665186276e+00 2.8864949347e+00 
83500 6.4993059215e+00 2.4002733326e-05 1.6665186276e+00 -2.8864949347e+00 1.6665186276e+00 2.8864949347e+00 
83600 6.4993059217e+00 2.4080299192e-05 1.6665186276e+00 -2.8864949347e+00 1.6665186276e+00 2.8864949347e+00 
83700 6.4993059220e+00 2.4158200158e-05 1.6665186276e+00 -2.8864949347e+00 1.6665186276e+00 2.8864949347e+00 
83800 6.4993059222e+00 2.4236393398e-05 1.6665186276e+00 -2.8864949347e+00 1.6665186276e+00 2.8864949347e+00 
83900 6.4993059224e+00 2.4314836608e-05 1.6665186276e+00 -2.8864949347e+00 1.6665186276e+00 2.8864949347e+00 
84000 6.4993059227e+00 2.4393488045e-05 1.6665186276e+00 -2.8864949347e+00 1.6665186276e+00 2.8864949347e+00 
84100 6.4993059229e+00 2.4472306536e-05 1.6665186276e+00 -2.8864949347e+00 1.6665186276e+00 2.8864949347e+00 
84200 6.4993059231e+00 2.4551251521e-05 1.6665186276e+00 -2.8864949347e+00 1.6665186276e+00 2.8864949347e+00 
84300 6.4993059233e+00 2.4630283058e-05 1.6665186276e+00 -2.8864949347e+00 1.6665186276e+00 2.8864949347e+00 
84400 6.4993059235e+00 2.4709361860e-05 1.6665186276e+00 -2.8864949347e+00 1.6665186276e+00 2.8864949347e+00 
84500 6.4993059238e+00 2.4788449298e-05 1.6665186276e+00 -2.8864949347e+00 1.6665186276e+00 2.8864949347e+00 
84600 6.4993059240e+00 2.4867507436e-05 1.6665186276e+00 -2.8864949347e+00 1.6665186276e+00 2.8864949347e+00 
84700 6.4993059242e+00 2.4946499043e-05 1.6665186276e+00 -2.8864949347e+00 1.6665186276e+00 2.8864949347e+00 
84800 6.4993059244e+00 2.5025387611e-05 1.6665186276e+00 -2.8864949347e+00 1.6665186276e+00 2.8864949347e+00 
84900 6.4993059246e+00 2.5104137372e-05 1.6665186276e+00 -2.8864949347e+00 1.6665186276e+00 2.8864949347e+00 
85000 6.4993059248e+00 2.5182713307e-05 1.6665186276e+00 -2.8864949347e+00 1.6665186276e+00 2.8864949347e+00 
85100 6.4993059250e+00 2.5261081171e-05 1.6665186276e+00 -2.8864949347e+00 1.6665186276e+00 2.8864949347e+00 
85200 6.4993059252e+00 2.5339207494e-05 1.6665186276e+00 -2.8864949347e+00 1.6665186276e+00 2.8864949347e+00 
85300 6.4993059254e+00 2.5417059604e-05 1.6665186276e+00 -2.8864949347e+00 1.6665186276e+00 2.8864949347e+00 
85400 6.4993059256e+00 2.5494605632e-05 1.6665186276e+00 -2.8864949347e+00 1.6665186276e+00 2.8864949347e+00 
85500 6.4993059257e+00 2.5571814521e-05 1.6665186276e+00 -2.8864949347e+00 1.6665186276e+00 2.8864949347e+00 
85600 6.4993059259e+00 2.5648656040e-05 1.6665186276e+00 -2.8864949347e+00 1.6665186276e+00 2.8864949347e+00 
85700 6.4993059261e+00 2.5725100787e-05 1.6665186276e+00 -2.8864949347e+00 1.6665186276e+00 2.8864949347e+00 
85800 6.4993059263e+00 2.5801120199e-05 1.6665186276e+00 -2.8864949347e+00 1.6665186276e+00 2.8864949347e+00 
85900 6.4993059265e+00 2.5876686558e-05 1.6665186276e+00 -2.8864949347e+00 1.6665186276e+00 2.8864949347e+00 
86000 6.4993059266e+00 2.5951772995e-05 1.6665186276e+00 -2.8864949347e+00 1.6665186276e+00 2.8864949347e+00 
86100 6.4993059268e+00 2.6026353495e-05 1.6665186276e+00 -2.8864949347e+00 1.6665186276e+00 2.8864949347e+00 
86200 6.4993059270e+00 2.6100402904e-05 1.6665186276e+00 -2.8864949347e+00 1.6665186276e+00 2.8864949347e+00 
86300 6.4993059272e+00 2.6173896925e-05 1.6665186276e+00 -2.8864949347e+00 1.6665186276e+00 2.8864949347e+00 
86400 6.4993059273e+00 2.6246812121e-05 1.6665186276e+00 -2.8864949347e+00 1.6665186276e+00 2.8864949347e+00 
86500 6.4993059275e+00 2.6319125926e-05 1.6665186276e+00 -2.8864949347e+00 1.6665186276e+00 2.8864949347e+00 
86600 6.4993059276e+00 2.6390816633e-05 1.6665186276e+00 -2.8864949347e+00 1.6665186276e+00 2.8864949347e+00 
86700 6.4993059278e+00 2.6461863399e-05 1.6665186276e+00 -2.8864949347e+00 1.6665186276e+00 2.8864949347e+00 
86800 6.4993059280e+00 2.6532246241e-05 1.6665186276e+00 -2.8864949347e+00 1.6665186276e+00 2.8864949347e+00 
86900 6.4993059281e+00 2.6601946039e-05 1.6665186276e+00 -2.8864949347e+00 1.6665186276e+00 2.8864949347e+00 
87000 6.4993059283e+00 2.6670944528e-05 1.6665186276e+00 -2.8864949347e+00 1.6665186276e+00 2.8864949347e+00 
87100 6.4993059284e+00 2.6739224297e-05 1.6665186276e+00 -2.8864949347e+00 1.6665186276e+00 2.8864949347e+00 
87200 6.4993059286e+00 2.6806768787e-05 1.6665186276e+00 -2.8864949347e+00 1.6665186276e+00 2.8864949347e+00 
87300 6.4993059287e+00 2.6873562280e-05 1.6665186276e+00 -2.8864949347e+00 1.6665186276e+00 2.8864949347e+00 
87400 6.4993059289e+00 2.6939589902e-05 1.6665186276e+00 -2.8864949347e+00 1.6665186276e+00 2.8864949347e+00 
87500 6.4993059290e+00 2.7004837608e-05 1.6665186276e+00 -2.8864949347e+00 1.6665186276e+00 2.8864949347e+00 
87600 6.4993059291e+00 2.7069292183e-05 1.6665186276e+00 -2.8864949347e+00 1.6665186276e+00 2.8864949347e+00 
87700 6.4993059293e+00 2.7132941231e-05 1.6665186276e+00 -2.8864949347e+00 1.6665186276e+00 2.8864949347e+00 
87800 6.4993059294e+00 2.7195773166e-05 1.6665186276e+00 -2.8864949347e+00 1.6665186276e+00 2.8864949347e+00 
87900 6.4993059296e+00 2.7257777210e-05 1.6665186276e+00 -2.8864949347e+00 1.6665186276e+00 2.8864949347e+00 
88000 6.4993059297e+00 2.7318943375e-05 1.6665186276e+00 -2.8864949347e+00 1.6665186276e+00 2.8864949347e+00 
88100 6.4993059298e+00 2.7379262463e-05 1.6665186276e+00 -2.8864949347e+00 1.6665186276e+00 2.8864949347e+00 
88200 6.4993059300e+00 2.7438726051e-05 1.6665186276e+00 -2.8864949347e+00 1.6665186276e+00 2.8864949347e+00 
88300 6.4993059301e+00 2.7497326478e-05 1.6665186276e+00 -2.8864949347e+00 1.6665186276e+00 2.8864949347e+00 
88400 6.4993059302e+00 2.7555056843e-05 1.6665186276e+00 -2.8864949347e+00 1.6665186276e+00 2.8864949347e+00 
88500 6.4993059303e+00 2.7611910985e-05 1.6665186276e+00 -2.8864949347e+00 1.6665186276e+00 2.8864949347e+00 
88600 6.4993059305e+00 2.7667883481e-05 1.6665186276e+00 -2.8864949347e+00 1.6665186276e+00 2.8864949347e+00 
88700 6.4993059306e+00 2.7722969624e-05 1.6665186276e+00 -2.8864949347e+00 1.6665186276e+00 2.8864949347e+00 
88800 6.4993059307e+00 2.7777165419e-05 1.6665186276e+00 -2.8864949347e+00 1.6665186276e+00 2.8864949347e+00 
88900 6.4993059308e+00 2.7830467563e-05 1.6665186276e+00 -2.8864949347e+00 1.6665186276e+00 2.8864949347e+00 
89000 6.4993059309e+00 2.7882873442e-05 1.6665186276e+00 -2.8864949347e+00 1.6665186276e+00 2.8864949347e+00 
89100 6.4993059311e+00 2.7934381106e-05 1.6665186276e+00 -2.8864949347e+00 1.6665186276e+00 2.8864949347e+00 
89200 6.4993059312e+00 2.7984989271e-05 1.6665186276e+00 -2.8864949347e+00 1.6665186276e+00 2.8864949347e+00 
89300 6.4993059313e+00 2.8034697289e-05 1.6665186276e+00 -2.8864949347e+00 1.6665186276e+00 2.8864949347e+00 
89400 6.4993059314e+00 2.8083505145e-05 1.6665186276e+00 -2.8864949347e+00 1.6665186276e+00 2.8864949347e+00 
89500 6.4993059315e+00 2.8131413436e-05 1.6665186276e+00 -2.8864949347e+00 1.6665186276e+00 2.8864949347e+00 
89600 6.4993059316e+00 2.8178423363e-05 1.6665186276e+00 -2.8864949347e+00 1.6665186276e+00 2.8864949347e+00 
89700 6.4993059317e+00 2.8224536716e-05 1.6665186276e+00 -2.8864949347e+00 1.6665186276e+00 2.8864949347e+00 
89800 6.4993059318e+00 2.8269755850e-05 1.6665186276e+00 -2.8864949347e+00 1.6665186276e+00 2.8864949347e+00 
89900 6.4993059319e+00 2.8314083683e-05 1.6665186276e+00 -2.8864949347e+00 1.6665186276e+00 2.8864949347e+00 
90000 6.4993059320e+00 2.8357523676e-05 1.6665186276e+00 -2.8864949347e+00 1.6665186276e+00 2.8864949347e+00 
90100 6.4993059321e+00 2.8400079813e-05 1.6665186276e+00 -2.8864949347e+00 1.6665186276e+00 2.8864949347e+00 
90200 6.4993059322e+00 2.8441756594e-05 1.6665186276e+00 -2.8864949347e+00 1.6665186276e+00 2.8864949347e+00 
90300 6.4993059323e+00 2.8482559013e-05 1.6665186276e+00 -2.8864949347e+00 1.6665186276e+00 2.8864949347e+00 
90400 6.4993059324e+00 2.8522492549e-05 1.6665186276e+00 -2.8864949347e+00 1.6665186276e+00 2.8864949347e+00 
90500 6.4993059325e+00 2.8561563144e-05 1.6665186276e+00 -2.8864949347e+00 1.6665186276e+00 2.8864949347e+00 
90600 6.4993059326e+00 2.8599777193e-05 1.6665186276e+00 -2.8864949347e+00 1.6665186276e+00 2.8864949347e+00 
90700 6.4993059327e+00 2.8637141529e-05 1.6665186276e+00 -2.8864949347e+00 1.6665186276e+00 2.8864949347e+00 
90800 6.4993059328e+00 2.8673663399e-05 1.6665186276e+00 -2.8864949347e+00 1.6665186276e+00 2.8864949347e+00 
90900 6.4993059329e+00 2.8709350457e-05 1.6665186276e+00 -2.8864949347e+00 1.6665186276e+00 2.8864949347e+00 
91000 6.4993059330e+00 2.8744210751e-05 1.6665186276e+00 -2.8864949347e+00 1.6665186276e+00 2.8864949347e+00 
91100 6.4993059331e+00 2.8778252695e-05 1.6665186276e+00 -2.8864949347e+00 1.6665186276e+00 2.8864949347e+00 
91200 6.4993059332e+00 2.8811485069e-05 1.6665186276e+00 -2.8864949347e+00 1.6665186276e+00 2.8864949347e+00 
91300 6.4993059333e+00 2.8843916992e-05 1.6665186276e+00 -2.8864949347e+00 1.6665186276e+00 2.8864949347e+00 
91400 6.4993059334e+00 2.8875557911e-05 1.6665186276e+00 -2.8864949347e+00 1.6665186276e+00 2.8864949347e+00 
91500 6.4993059334e+00 2.8906417588e-05 1.6665186276e+00 -2.8864949347e+00 1.6665186276e+00 2.8864949347e+00 
91600 6.4993059335e+00 2.8936506083e-05 1.6665186276e+00 -2.8864949347e+00 1.6665186276e+00 2.8864949347e+00 
91700 6.4993059336e+00 2.8965833736e-05 1.6665186276e+00 -2.8864949347e+00 1.6665186276e+00 2.8864949347e+00 
91800 6.4993059337e+00 2.8994411159e-05 1.6665186276e+00 -2.8864949347e+00 1.6665186276e+00 2.8864949347e+00 
91900 6.4993059338e+00 2.9022249212e-05 1.6665186276e+00 -2.8864949347e+00 1.6665186276e+00 2.8864949347e+00 
92000 6.4993059339e+00 2.9049358999e-05 1.6665186276e+00 -2.8864949347e+00 1.6665186276e+00 2.8864949347e+00 
92100 6.4993059339e+00 2.9075751850e-05 1.6665186276e+00 -2.8864949347e+00 1.6665186276e+00 2.8864949347e+00 
92200 6.4993059340e+00 2.9101439299e-05 1.6665186276e+00 -2.8864949347e+00 1.6665186276e+00 2.8864949347e+00 
92300 6.4993059341e+00 2.9126433077e-05 1.6665186276e+00 -2.8864949347e+00 1.6665186276e+00 2.8864949347e+00 
92400 6.4993059342e+00 2.9150745103e-05 1.6665186276e+00 -2.8864949347e+00 1.6665186276e+00 2.8864949347e+00 
92500 6.4993059342e+00 2.9174387457e-05 1.6665186276e+00 -2.8864949347e+00 1.6665186276e+00 2.8864949347e+00 
92600 6.4993059343e+00 2.9197372379e-05 1.6665186276e+00 -2.8864949347e+00 1.6665186276e+00 2.8864949347e+00 
92700 6.4993059344e+00 2.9219712248e-05 1.6665186276e+00 -2.8864949347e+00 1.6665186276e+00 2.8864949347e+00 
92800 6.4993059345e+00 2.9241419568e-05 1.6665186276e+00 -2.8864949347e+00 1.6665186276e+00 2.8864949347e+00 
92900 6.4993059345e+00 2.9262506964e-05 1.6665186276e+00 -2.8864949347e+00 1.6665186276e+00 2.8864949347e+00 
93000 6.4993059346e+00 2.9282987161e-05 1.6665186276e+00 -2.8864949347e+00 1.6665186276e+00 2.8864949347e+00 
93100 6.4993059347e+00 2.9302872973e-05 1.6665186276e+00 -2.8864949347e+00 1.6665186276e+00 2.8864949347e+00 
93200 6.4993059347e+00 2.9322177292e-05 1.6665186276e+00 -2.8864949347e+00 1.6665186276e+00 2.8864949347e+00 
93300 6.4993059348e+00 2.9340913074e-05 1.6665186276e+00 -2.8864949347e+00 1.6665186276e+00 2.8864949347e+00 
93400 6.4993059349e+00 2.9359093327e-05 1.6665186276e+00 -2.8864949347e+00 1.6665186276e+00 2.8864949347e+00 
93500 6.4993059349e+00 2.9376731107e-05 1.6665186276e+00 -2.8864949347e+00 1.6665186276e+00 2.8864949347e+00 
93600 6.4993059350e+00 2.9393839493e-05 1.6665186276e+00 -2.8864949347e+00 1.6665186276e+00 2.8864949347e+00 
93700 6.4993059351e+00 2.9410431588e-05 1.6665186276e+00 -2.8864949347e+00 1.6665186276e+00 2.8864949347e+00 
93800 6.4993059351e+00 2.9426520501e-05 1.6665186276e+00 -2.8864949347e+00 1.6665186276e+00 2.8864949347e+00 
93900 6.4993059352e+00 2.9442119341e-05 1.6665186276e+00 -2.8864949347e+00 1.6665186276e+00 2.8864949347e+00 
94000 6.4993059353e+00 2.9457241200e-05 1.6665186276e+00 -2.8864949347e+00 1.6665186276e+00 2.8864949347e+00 
94100 6.4993059353e+00 2.9471899152e-05 1.6665186276e+00 -2.8864949347e+00 1.6665186276e+00 2.8864949347e+00 
94200 6.4993059354e+00 2.9486106232e-05 1.6665186276e+00 -2.8864949347e+00 1.6665186276e+00 2.8864949347e+00 
94300 6.4993059354e+00 2.9499875438e-05 1.6665186276e+00 -2.8864949347e+00 1.6665186276e+00 2.8864949347e+00 
94400 6.4993059355e+00 2.9513219715e-05 1.6665186276e+00 -2.8864949347e+00 1.6665186276e+00 2.8864949347e+00 
94500 6.4993059356e+00 2.9526151946e-05 1.6665186276e+00 -2.8864949347e+00 1.6665186276e+00 2.8864949347e+00 
94600 6.4993059356e+00 2.9538684947e-05 1.6665186276e+00 -2.8864949347e+00 1.6665186276e+00 2.8864949347e+00 
94700 6.4993059357e+00 2.9550831451e-05 1.6665186276e+00 -2.8864949347e+00 1.6665186276e+00 2.8864949347e+00 
94800 6.4993059357e+00 2.9562604110e-05 1.6665186276e+00 -2.8864949347e+00 1.6665186276e+00 2.8864949347e+00 
94900 6.4993059358e+00 2.9574015476e-05 1.6665186276e+00 -2.8864949347e+00 1.6665186276e+00 2.8864949347e+00 
95000 6.4993059358e+00 2.9585078005e-05 1.6665186276e+00 -2.8864949347e+00 1.6665186276e+00 2.8864949347e+00 
95100 6.4993059359e+00 2.9595804041e-05 1.6665186276e+00 -2.8864949347e+00 1.6665186276e+00 2.8864949347e+00 
95200 6.4993059359e+00 2.9606205807e-05 1.6665186276e+00 -2.8864949347e+00 1.6665186276e+00 2.8864949347e+00 
95300 6.4993059360e+00 2.9616295408e-05 1.6665186276e+00 -2.8864949347e+00 1.6665186276e+00 2.8864949347e+00 
95400 6.4993059361e+00 2.9626084816e-05 1.6665186276e+00 -2.8864949347e+00 1.6665186276e+00 2.8864949347e+00 
95500 6.4993059361e+00 2.9635585870e-05 1.6665186276e+00 -2.8864949347e+00 1.6665186276e+00 2.8864949347e+00 
95600 6.4993059362e+00 2.9644810260e-05 1.6665186276e+00 -2.8864949347e+00 1.6665186276e+00 2.8864949347e+00 
95700 6.4993059362e+00 2.9653769534e-05 1.6665186276e+00 -2.8864949347e+00 1.6665186276e+00 2.8864949347e+00 
95800 6.4993059363e+00 2.9662475082e-05 1.6665186276e+00 -2.8864949347e+00 1.6665186276e+00 2.8864949347e+00 
95900 6.4993059363e+00 2.9670938133e-05 1.6665186276e+00 -2.8864949347e+00 1.6665186276e+00 2.8864949347e+00 
96000 6.4993059363e+00 2.9678030856e-05 1.6665186276e+00 -2.8864949347e+00 1.6665186276e+00 2.8864949347e+00 
96000 6.4993059363e+00 2.9678030856e-05 1.6665186276e+00 -2.8864949347e+00 1.6665186276e+00 2.8864949347e+00 
