# step Hamiltonian StressXX CellTensor1 CellTensor2 CellTensor3 CellTensor4 
0 5.8633465425e+00 2.2009240570e-01 2.6408444507e+00 -4.5740767634e+00 2.6408444507e+00 4.5740767634e+00 
100 5.8865674635e+00 2.5155113397e-01 2.6408444507e+00 -4.5740767634e+00 2.6408444507e+00 4.5740767634e+00 
200 5.9078477234e+00 2.8085211376e-01 2.6360831822e+00 -4.5658300046e+00 2.6360831822e+00 4.5658300046e+00 
300 5.9280513550e+00 3.0747397921e-01 2.6307579077e+00 -4.5566063586e+00 2.6307579077e+00 4.5566063586e+00 
400 5.9473253483e+00 3.3179571584e-01 2.6249162472e+00 -4.5464883058e+00 2.6249162472e+00 4.5464883058e+00 
500 5.9657836437e+00 3.5415872710e-01 2.6185986695e+00 -4.5355459402e+00 2.6185986695e+00 4.5355459402e+00 
600 5.9835089106e+00 3.7486478866e-01 2.6118392164e+00 -4.5238382240e+00 2.6118392164e+00 4.5238382240e+00 
700 6.0005554797e+00 3.9417619887e-01 2.6046662508e+00 -4.5114142832e+00 2.6046662508e+00 4.5114142832e+00 
800 6.0169528949e+00 4.1231747780e-01 2.5971031937e+00 -4.4983146841e+00 2.5971031937e+00 4.4983146841e+00 
900 6.0327096847e+00 4.2947803769e-01 2.5891692234e+00 -4.4845726444e+00 2.5891692234e+00 4.4845726444e+00 
1000 6.0478170760e+00 4.4581535690e-01 2.5808799233e+00 -4.4702151554e+00 2.5808799233e+00 4.4702151554e+00 
1100 6.0622524830e+00 4.6145830936e-01 2.5722478699e+00 -4.4552640003e+00 2.5722478699e+00 4.4552640003e+00 
1200 6.0759826827e+00 4.7651041213e-01 2.5632831589e+00 -4.4397366655e+00 2.5632831589e+00 4.4397366655e+00 
1300 6.0889666479e+00 4.9105284636e-01 2.5539938735e+00 -4.4236471511e+00 2.5539938735e+00 4.4236471511e+00 
1400 6.1011580467e+00 5.0514717778e-01 2.5443864968e+00 -4.4070066866e+00 2.5443864968e+00 4.4070066866e+00 
1500 6.1125074385e+00 5.1883775440e-01 2.5344662778e+00 -4.3898243632e+00 2.5344662778e+00 4.3898243632e+00 
1600 6.1229642071e+00 5.3215379371e-01 2.5242375540e+00 -4.3721076939e+00 2.5242375540e+00 4.3721076939e+00 
1700 6.1324782740e+00 5.4511119391e-01 2.5137040392e+00 -4.3538631110e+00 2.5137040392e+00 4.3538631110e+00 
1800 6.1410016297e+00 5.5771411720e-01 2.5028690800e+00 -4.3350964113e+00 2.5028690800e+00 4.3350964113e+00 
1900 6.1484897172e+00 5.6995640069e-01 2.4917358870e+00 -4.3158131554e+00 2.4917358870e+00 4.3158131554e+00 
2000 6.1549026894e+00 5.8182285426e-01 2.4803077421e+00 -4.2960190276e+00 2.4803077421e+00 4.2960190276e+00 
2100 6.1602065560e+00 5.9329050614e-01 2.4685881858e+00 -4.2757201607e+00 2.4685881858e+00 4.2757201607e+00 
2200 6.1643742235e+00 6.0432985486e-01 2.4565811849e+00 -4.2549234252e+00 2.4565811849e+00 4.2549234252e+00 
2300 6.1673864202e+00 6.1490618077e-01 2.4442912797e+00 -4.2336366849e+00 2.4442912797e+00 4.2336366849e+00 
2400 6.1692324897e+00 6.2498095846e-01 2.4317237091e+00 -4.2118690141e+00 2.4317237091e+00 4.2118690141e+00 
2500 6.1699110225e+00 6.3451339113e-01 2.4188845124e+00 -4.1896308732e+00 2.4188845124e+00 4.1896308732e+00 
2600 6.1694302905e+00 6.4346205868e-01 2.4057806034e+00 -4.1669342370e+00 2.4057806034e+00 4.1669342370e+00 
2700 6.1678084403e+00 6.5178663337e-01 2.3924198136e+00 -4.1437926701e+00 2.3924198136e+00 4.1437926701e+00 
2800 6.1650734038e+00 6.5944957685e-01 2.3788109025e+00 -4.1202213447e+00 2.3788109025e+00 4.1202213447e+00 
2900 6.1612624926e+00 6.6641769786e-01 2.3649635343e+00 -4.0962369994e+00 2.3649635343e+00 4.0962369994e+00 
3000 6.1564216638e+00 6.7266343247e-01 2.3508882214e+00 -4.0718578424e+00 2.3508882214e+00 4.0718578424e+00 
3100 6.1506044675e+00 6.7816571774e-01 2.3365962404e+00 -4.0471034052e+00 2.3365962404e+00 4.0471034052e+00 
3200 6.1438707250e+00 6.8291036786e-01 2.3220995263e+00 -4.0219943597e+00 2.3220995263e+00 4.0219943597e+00 
3300 6.1362850150e+00 6.8688992434e-01 2.3074105558e+00 -3.9965523166e+00 2.3074105558e+00 3.9965523166e+00 
3400 6.1279150702e+00 6.9010302506e-01 2.2925422299e+00 -3.9707996206e+00 2.2925422299e+00 3.9707996206e+00 
3500 6.1188301993e+00 6.9255340298e-01 2.2775077647e+00 -3.9447591631e+00 2.2775077647e+00 3.9447591631e+00 
3600 6.1090998419e+00 6.9424866863e-01 2.2623206009e+00 -3.9184542238e+00 2.2623206009e+00 3.9184542238e+00 
3700 6.0987923427e+00 6.9519904197e-01 2.2469943349e+00 -3.8919083524e+00 2.2469943349e+00 3.8919083524e+00 
3800 6.0879740014e+00 6.9541618092e-01 2.2315426754e+00 -3.8651452931e+00 2.2315426754e+00 3.8651452931e+00 
3900 6.0767084189e+00 6.9491221342e-01 2.2159794235e+00 -3.8381889501e+00 2.2159794235e+00 3.8381889501e+00 
4000 6.0650561263e+00 6.9369903116e-01 2.2003184731e+00 -3.8110633882e+00 2.2003184731e+00 3.8110633882e+00 
4100 6.0530744621e+00 6.9178785712e-01 2.1845738260e+00 -3.7837928596e+00 2.1845738260e+00 3.7837928596e+00 
4200 6.0408176434e+00 6.8918906408e-01 2.1687596181e+00 -3.7564018479e+00 2.1687596181e+00 3.7564018479e+00 
4300 6.0283369756e+00 6.8591220031e-01 2.1528901479e+00 -3.7289151193e+00 2.1528901479e+00 3.7289151193e+00 
4400 6.0156811450e+00 6.8196617013e-01 2.1369799071e+00 -3.7013577739e+00 2.1369799071e+00 3.7013577739e+00 
4500 6.0028965451e+00 6.7735951873e-01 2.1210436059e+00 -3.6737552905e+00 2.1210436059e+00 3.6737552905e+00 
4600 5.9900275997e+00 6.7210077739e-01 2.1050961922e+00 -3.6461335598e+00 2.1050961922e+00 3.6461335598e+00 
4700 5.9771170546e+00 6.6619883424e-01 2.0891528631e+00 -3.6185189036e+00 2.0891528631e+00 3.6185189036e+00 
4800 5.9642062190e+00 6.5966330503e-01 2.0732290660e+00 -3.5909380780e+00 2.0732290660e+00 3.5909380780e+00 
4900 5.9513351462e+00 6.5250488550e-01 2.0573404907e+00 -3.5634182583e+00 2.0573404907e+00 3.5634182583e+00 
5000 5.9385427511e+00 6.4473567295e-01 2.0415030508e+00 -3.5359870078e+00 2.0415030508e+00 3.5359870078e+00 
5100 5.9258668639e+00 6.3636944856e-01 2.0257328553e+00 -3.5086722280e+00 2.0257328553e+00 3.5086722280e+00 
5200 5.9133442244e+00 6.2742191452e-01 2.0100461708e+00 -3.4815020933e+00 2.0100461708e+00 3.4815020933e+00 
5300 5.9010104252e+00 6.1791088235e-01 1.9944593741e+00 -3.4545049695e+00 1.9944593741e+00 3.4545049695e+00 
5400 5.8888998097e+00 6.0785640945e-01 1.9789888971e+00 -3.4277093175e+00 1.9789888971e+00 3.4277093175e+00 
5500 5.8770453348e+00 5.9728088278e-01 1.9636511642e+00 -3.4011435848e+00 1.9636511642e+00 3.4011435848e+00 
5600 5.8654784078e+00 5.8620904884e-01 1.9484625225e+00 -3.3748360856e+00 1.9484625225e+00 3.3748360856e+00 
5700 5.8542287060e+00 5.7466799074e-01 1.9334391673e+00 -3.3488148711e+00 1.9334391673e+00 3.3488148711e+00 
5800 5.8433239880e+00 5.6268705381e-01 1.9185970634e+00 -3.3231075931e+00 1.9185970634e+00 3.3231075931e+00 
5900 5.8327899049e+00 5.5029772238e-01 1.9039518633e+00 -3.2977413624e+00 1.9039518633e+00 3.2977413624e+00 
6000 5.8226498199e+00 5.3753345121e-01 1.8895188237e+00 -3.2727426045e+00 1.8895188237e+00 3.2727426045e+00 
6100 5.8129246418e+00 5.2442945622e-01 1.8753127222e+00 -3.2481369150e+00 1.8753127222e+00 3.2481369150e+00 
6200 5.8036326796e+00 5.1102246952e-01 1.8613477749e+00 -3.2239489167e+00 1.8613477749e+00 3.2239489167e+00 
6300 5.7947895223e+00 4.9735046482e-01 1.8476375567e+00 -3.2002021221e+00 1.8476375567e+00 3.2002021221e+00 
6400 5.7864079479e+00 4.8345235955e-01 1.8341949253e+00 -3.1769188015e+00 1.8341949253e+00 3.1769188015e+00 
6500 5.7784978654e+00 4.6936770036e-01 1.8210319505e+00 -3.1541198605e+00 1.8210319505e+00 3.1541198605e+00 
6600 5.7710662899e+00 4.5513633878e-01 1.8081598496e+00 -3.1318247278e+00 1.8081598496e+00 3.1318247278e+00 
6700 5.7641173526e+00 4.4079810389e-01 1.7955889299e+00 -3.1100512561e+00 1.7955889299e+00 3.1100512561e+00 
6800 5.7576523455e+00 4.2639247859e-01 1.7833285391e+00 -3.0888156363e+00 1.7833285391e+00 3.0888156363e+00 
6900 5.7516697987e+00 4.1195828545e-01 1.7713870249e+00 -3.0681323270e+00 1.7713870249e+00 3.0681323270e+00 
7000 5.7461655893e+00 3.9753338801e-01 1.7597717033e+00 -3.0480139999e+00 1.7597717033e+00 3.0480139999e+00 
7100 5.7411330780e+00 3.8315441246e-01 1.7484888368e+00 -3.0284715019e+00 1.7484888368e+00 3.0284715019e+00 
7200 5.7365632709e+00 3.6885649394e-01 1.7375436219e+00 -3.0095138334e+00 1.7375436219e+00 3.0095138334e+00 
7300 5.7324450029e+00 3.5467305092e-01 1.7269401862e+00 -2.9911481441e+00 1.7269401862e+00 2.9911481441e+00 
7400 5.7287651374e+00 3.4063559039e-01 1.7166815954e+00 -2.9733797436e+00 1.7166815954e+00 2.9733797436e+00 
7500 5.7255087796e+00 3.2677354537e-01 1.7067698687e+00 -2.9562121295e+00 1.7067698687e+00 2.9562121295e+00 
7600 5.7226594979e+00 3.1311414593e-01 1.6972060030e+00 -2.9396470281e+00 1.6972060030e+00 2.9396470281e+00 
7700 5.7201995500e+00 2.9968232353e-01 1.6879900043e+00 -2.9236844502e+00 1.6879900043e+00 2.9236844502e+00 
7800 5.7181101094e+00 2.8650064825e-01 1.6791209272e+00 -2.9083227580e+00 1.6791209272e+00 2.9083227580e+00 
7900 5.7163714889e+00 2.7358929747e-01 1.6705969193e+00 -2.8935587432e+00 1.6705969193e+00 2.8935587432e+00 
8000 5.7149633577e+00 2.6096605415e-01 1.6624152719e+00 -2.8793877142e+00 1.6624152719e+00 2.8793877142e+00 
8100 5.7138649491e+00 2.4864633250e-01 1.6545724745e+00 -2.8658035906e+00 1.6545724745e+00 2.8658035906e+00 
8200 5.7130552567e+00 2.3664322810e-01 1.6470642727e+00 -2.8527990037e+00 1.6470642727e+00 2.8527990037e+00 
8300 5.7125132173e+00 2.2496758984e-01 1.6398857292e+00 -2.8403654016e+00 1.6398857292e+00 2.8403654016e+00 
8400 5.7122178784e+00 2.1362811036e-01 1.6330312851e+00 -2.8284931562e+00 1.6330312851e+00 2.8284931562e+00 
8500 5.7121485504e+00 2.0263143201e-01 1.6264948234e+00 -2.8171716725e+00 1.6264948234e+00 2.8171716725e+00 
8600 5.7122849416e+00 1.9198226513e-01 1.6202697315e+00 -2.8063894969e+00 1.6202697315e+00 2.8063894969e+00 
8700 5.7126072769e+00 1.8168351581e-01 1.6143489630e+00 -2.7961344250e+00 1.6143489630e+00 2.7961344250e+00 
8800 5.7130964001e+00 1.7173642010e-01 1.6087250984e+00 -2.7863936059e+00 1.6087250984e+00 2.7863936059e+00 
8900 5.7137338597e+00 1.6214068232e-01 1.6033904040e+00 -2.7771536441e+00 1.6033904040e+00 2.7771536441e+00 
9000 5.7145019795e+00 1.5289461478e-01 1.5983368876e+00 -2.7684006969e+00 1.5983368876e+00 2.7684006969e+00 
9100 5.7153839146e+00 1.4399527714e-01 1.5935563518e+00 -2.7601205661e+00 1.5935563518e+00 2.7601205661e+00 
9200 5.7163636937e+00 1.3543861334e-01 1.5890404450e+00 -2.7522987860e+00 1.5890404450e+00 2.7522987860e+00 
9300 5.7174262491e+00 1.2721958464e-01 1.5847807072e+00 -2.7449207038e+00 1.5847807072e+00 2.7449207038e+00 
9400 5.7185574350e+00 1.1933229752e-01 1.5807686144e+00 -2.7379715551e+00 1.5807686144e+00 2.7379715551e+00 
9500 5.7197440360e+00 1.1177012535e-01 1.5769956177e+00 -2.7314365332e+00 1.5769956177e+00 2.7314365332e+00 
9600 5.7209737663e+00 1.0452582314e-01 1.5734531802e+00 -2.7253008514e+00 1.5734531802e+00 2.7253008514e+00 
9700 5.7222352613e+00 9.7591634721e-02 1.5701328090e+00 -2.7195497999e+00 1.5701328090e+00 2.7195497999e+00 
9800 5.7235180620e+00 9.0959392081e-02 1.5670260853e+00 -2.7141687965e+00 1.5670260853e+00 2.7141687965e+00 
9900 5.7248125941e+00 8.4620606621e-02 1.5641246894e+00 -2.7091434314e+00 1.5641246894e+00 2.7091434314e+00 
10000 5.7261101419e+00 7.8566552337e-02 1.5614204237e+00 -2.7044595059e+00 1.5614204237e+00 2.7044595059e+00 
10100 5.7274028187e+00 7.2788341005e-02 1.5589052325e+00 -2.7001030668e+00 1.5589052325e+00 2.7001030668e+00 
10200 5.7286835335e+00 6.7276989573e-02 1.5565712181e+00 -2.6960604353e+00 1.5565712181e+00 2.6960604353e+00 
10300 5.7299459562e+00 6.2023480055e-02 1.5544106551e+00 -2.6923182305e+00 1.5544106551e+00 2.6923182305e+00 
10400 5.7311844800e+00 5.7018812272e-02 1.5524160022e+00 -2.6888633903e+00 1.5524160022e+00 2.6888633903e+00 
10500 5.7323941835e+00 5.2254049843e-02 1.5505799107e+00 -2.6856831865e+00 1.5505799107e+00 2.6856831865e+00 
10600 5.7335707918e+00 4.7720359867e-02 1.5488952321e+00 -2.6827652376e+00 1.5488952321e+00 2.6827652376e+00 
10700 5.7347106369e+00 4.3409046733e-02 1.5473550233e+00 -2.6800975177e+00 1.5473550233e+00 2.6800975177e+00 
10800 5.7358106194e+00 3.9311580542e-02 1.5459525500e+00 -2.6776683627e+00 1.5459525500e+00 2.6776683627e+00 
10900 5.7368681693e+00 3.5419620593e-02 1.5446812889e+00 -2.6754664738e+00 1.5446812889e+00 2.6754664738e+00 
11000 5.7378812082e+00 3.1725034393e-02 1.5435349282e+00 -2.6734809190e+00 1.5435349282e+00 2.6734809190e+00 
11100 5.7388481126e+00 2.8219912628e-02 1.5425073677e+00 -2.6717011319e+00 1.5425073677e+00 2.6717011319e+00 
11200 5.7397676776e+00 2.4896580540e-02 1.5415927166e+00 -2.6701169097e+00 1.5415927166e+00 2.6701169097e+00 
11300 5.7406390823e+00 2.1747606080e-02 1.5407852917e+00 -2.6687184088e+00 1.5407852917e+00 2.6687184088e+00 
11400 5.7414618567e+00 1.8765805255e-02 1.5400796144e+00 -2.6674961398e+00 1.5400796144e+00 2.6674961398e+00 
11500 5.7422358491e+00 1.5944244992e-02 1.5394704067e+00 -2.6664409611e+00 1.5394704067e+00 2.6664409611e+00 
11600 5.7429611960e+00 1.3276243868e-02 1.5389525873e+00 -2.6655440717e+00 1.5389525873e+00 2.6655440717e+00 
11700 5.7436382932e+00 1.0755370991e-02 1.5385212673e+00 -2.6647970034e+00 1.5385212673e+00 2.6647970034e+00 
11800 5.7442677676e+00 8.3754433281e-03 1.5381717445e+00 -2.6641916122e+00 1.5381717445e+00 2.6641916122e+00 
11900 5.7448504519e+00 6.1305217079e-03 1.5378994993e+00 -2.6637200698e+00 1.5378994993e+00 2.6637200698e+00 
12000 5.7453873595e+00 4.0149057425e-03 1.5377001889e+00 -2.6633748539e+00 1.5377001889e+00 2.6633748539e+00 
12100 5.7458796619e+00 2.0231278590e-03 1.5375696417e+00 -2.6631487396e+00 1.5375696417e+00 2.6631487396e+00 
12200 5.7463286666e+00 1.4994662750e-04 1.5375038524e+00 -2.6630347891e+00 1.5375038524e+00 2.6630347891e+00 
12300 5.7467357976e+00 -1.6096604578e-03 1.5374989761e+00 -2.6630263431e+00 1.5374989761e+00 2.6630263431e+00 
12400 5.7471025759e+00 -3.2605046014e-03 1.5375513231e+00 -2.6631170108e+00 1.5375513231e+00 2.6631170108e+00 
12500 5.7474306026e+00 -4.8071936118e-03 1.5376573534e+00 -2.6633006608e+00 1.5376573534e+00 2.6633006608e+00 
12600 5.7477215425e+00 -6.2541399807e-03 1.5378136716e+00 -2.6635714117e+00 1.5378136716e+00 2.6635714117e+00 
12700 5.7479771094e+00 -7.6055690448e-03 1.5380170212e+00 -2.6639236237e+00 1.5380170212e+00 2.6639236237e+00 
12800 5.7481990522e+00 -8.8655271517e-03 1.5382642803e+00 -2.6643518889e+00 1.5382642803e+00 2.6643518889e+00 
12900 5.7483891425e+00 -1.0037889761e-02 1.5385524559e+00 -2.6648510237e+00 1.5385524559e+00 2.6648510237e+00 
13000 5.7485491631e+00 -1.1126369425e-02 1.5388786795e+00 -2.6654160596e+00 1.5388786795e+00 2.6654160596e+00 
13100 5.7486808976e+00 -1.2134523607e-02 1.5392402027e+00 -2.6660422361e+00 1.5392402027e+00 2.6660422361e+00 
13200 5.7487861210e+00 -1.3065762292e-02 1.5396343920e+00 -2.6667249920e+00 1.5396343920e+00 2.6667249920e+00 
13300 5.7488665914e+00 -1.3923355362e-02 1.5400587253e+00 -2.6674599588e+00 1.5400587253e+00 2.6674599588e+00 
13400 5.7489240422e+00 -1.4710439717e-02 1.5405107871e+00 -2.6682429529e+00 1.5405107871e+00 2.6682429529e+00 
13500 5.7489601753e+00 -1.5430026120e-02 1.5409882651e+00 -2.6690699691e+00 1.5409882651e+00 2.6690699691e+00 
13600 5.7489766556e+00 -1.6085005747e-02 1.5414889458e+00 -2.6699371734e+00 1.5414889458e+00 2.6699371734e+00 
13700 5.7489751052e+00 -1.6678156449e-02 1.5420107112e+00 -2.6708408977e+00 1.5420107112e+00 2.6708408977e+00 
13800 5.7489570994e+00 -1.7212148707e-02 1.5425515353e+00 -2.6717776325e+00 1.5425515353e+00 2.6717776325e+00 
13900 5.7489241628e+00 -1.7689551286e-02 1.5431094806e+00 -2.6727440220e+00 1.5431094806e+00 2.6727440220e+00 
14000 5.7488777655e+00 -1.8112836587e-02 1.5436826948e+00 -2.6737368582e+00 1.5436826948e+00 2.6737368582e+00 
14100 5.7488193213e+00 -1.8484385701e-02 1.5442694081e+00 -2.6747530754e+00 1.5442694081e+00 2.6747530754e+00 
14200 5.7487501850e+00 -1.8806493174e-02 1.5448679299e+00 -2.6757897456e+00 1.5448679299e+00 2.6757897456e+00 
14300 5.7486716506e+00 -1.9081371486e-02 1.5454766463e+00 -2.6768440733e+00 1.5454766463e+00 2.6768440733e+00 
14400 5.7485849506e+00 -1.9311155249e-02 1.5460940170e+00 -2.6779133908e+00 1.5460940170e+00 2.6779133908e+00 
14500 5.7484912549e+00 -1.9497905145e-02 1.5467185733e+00 -2.6789951540e+00 1.5467185733e+00 2.6789951540e+00 
14600 5.7483916705e+00 -1.9643611605e-02 1.5473489152e+00 -2.6800869381e+00 1.5473489152e+00 2.6800869381e+00 
14700 5.7482872411e+00 -1.9750198241e-02 1.5479837091e+00 -2.6811864335e+00 1.5479837091e+00 2.6811864335e+00 
14800 5.7481789479e+00 -1.9819525045e-02 1.5486216859e+00 -2.6822914417e+00 1.5486216859e+00 2.6822914417e+00 
14900 5.7480677095e+00 -1.9853391363e-02 1.5492616385e+00 -2.6833998721e+00 1.5492616385e+00 2.6833998721e+00 
15000 5.7479543833e+00 -1.9853538660e-02 1.5499024199e+00 -2.6845097380e+00 1.5499024199e+00 2.6845097380e+00 
15100 5.7478397660e+00 -1.9821653081e-02 1.5505429410e+00 -2.6856191531e+00 1.5505429410e+00 2.6856191531e+00 
15200 5.7477245951e+00 -1.9759367827e-02 1.5511821692e+00 -2.6867263288e+00 1.5511821692e+00 2.6867263288e+00 
15300 5.7476095502e+00 -1.9668265354e-02 1.5518191259e+00 -2.6878295703e+00 1.5518191259e+00 2.6878295703e+00 
15400 5.7474952545e+00 -1.9549879399e-02 1.5524528855e+00 -2.6889272740e+00 1.5524528855e+00 2.6889272740e+00 
15500 5.7473822766e+00 -1.9405696858e-02 1.5530825729e+00 -2.6900179246e+00 1.5530825729e+00 2.6900179246e+00 
15600 5.7472711322e+00 -1.9237159515e-02 1.5537073625e+00 -2.6911000919e+00 1.5537073625e+00 2.6911000919e+00 
15700 5.7471622861e+00 -1.9045665636e-02 1.5543264764e+00 -2.6921724287e+00 1.5543264764e+00 2.6921724287e+00 
15800 5.7470561542e+00 -1.8832571441e-02 1.5549391828e+00 -2.6932336673e+00 1.5549391828e+00 2.6932336673e+00 
15900 5.7469531052e+00 -1.8599192451e-02 1.5555447947e+00 -2.6942826179e+00 1.5555447947e+00 2.6942826179e+00 
16000 5.7468534632e+00 -1.8346804739e-02 1.5561426683e+00 -2.6953181653e+00 1.5561426683e+00 2.6953181653e+00 
16100 5.7467575094e+00 -1.8076646077e-02 1.5567322018e+00 -2.6963392672e+00 1.5567322018e+00 2.6963392672e+00 
16200 5.7466654846e+00 -1.7789916989e-02 1.5573128337e+00 -2.6973449513e+00 1.5573128337e+00 2.6973449513e+00 
16300 5.7465775911e+00 -1.7487781729e-02 1.5578840421e+00 -2.6983343133e+00 1.5578840421e+00 2.6983343133e+00 
16400 5.7464939950e+00 -1.7171369174e-02 1.5584453429e+00 -2.6993065148e+00 1.5584453429e+00 2.6993065148e+00 
16500 5.7464148281e+00 -1.6841773659e-02 1.5589962888e+00 -2.7002607810e+00 1.5589962888e+00 2.7002607810e+00 
16600 5.7463401906e+00 -1.6500055741e-02 1.5595364680e+00 -2.7011963988e+00 1.5595364680e+00 2.7011963988e+00 
16700 5.7462701525e+00 -1.6147242909e-02 1.5600655030e+00 -2.7021127143e+00 1.5600655030e+00 2.7021127143e+00 
16800 5.7462047562e+00 -1.5784330248e-02 1.5605830497e+00 -2.7030091315e+00 1.5605830497e+00 2.7030091315e+00 
16900 5.7461440182e+00 -1.5412281049e-02 1.5610887960e+00 -2.7038851098e+00 1.5610887960e+00 2.7038851098e+00 
17000 5.7460879312e+00 -1.5032027392e-02 1.5615824608e+00 -2.7047401624e+00 1.5615824608e+00 2.7047401624e+00 
17100 5.7460364663e+00 -1.4644470678e-02 1.5620637931e+00 -2.7055738543e+00 1.5620637931e+00 2.7055738543e+00 
17200 5.7459895744e+00 -1.4250482143e-02 1.5625325704e+00 -2.7063858005e+00 1.5625325704e+00 2.7063858005e+00 
17300 5.7459471881e+00 -1.3850903336e-02 1.5629885985e+00 -2.7071756643e+00 1.5629885985e+00 2.7071756643e+00 
17400 5.7459092239e+00 -1.3446546582e-02 1.5634317098e+00 -2.7079431556e+00 1.5634317098e+00 2.7079431556e+00 
17500 5.7458755834e+00 -1.3038195415e-02 1.5638617626e+00 -2.7086880288e+00 1.5638617626e+00 2.7086880288e+00 
17600 5.7458461551e+00 -1.2626605003e-02 1.5642786400e+00 -2.7094100818e+00 1.5642786400e+00 2.7094100818e+00 
17700 5.7458208159e+00 -1.2212502558e-02 1.5646822493e+00 -2.7101091536e+00 1.5646822493e+00 2.7101091536e+00 
17800 5.7457994327e+00 -1.1796587726e-02 1.5650725206e+00 -2.7107851232e+00 1.5650725206e+00 2.7107851232e+00 
17900 5.7457818636e+00 -1.1379532982e-02 1.5654494060e+00 -2.7114379079e+00 1.5654494060e+00 2.7114379079e+00 
18000 5.7457679595e+00 -1.0961984007e-02 1.5658128791e+00 -2.7120674617e+00 1.5658128791e+00 2.7120674617e+00 
18100 5.7457575651e+00 -1.0544560069e-02 1.5661629334e+00 -2.7126737736e+00 1.5661629334e+00 2.7126737736e+00 
18200 5.7457505202e+00 -1.0127854391e-02 1.5664995822e+00 -2.7132568665e+00 1.5664995822e+00 2.7132568665e+00 
18300 5.7457466608e+00 -9.7124345329e-03 1.5668228572e+00 -2.7138167952e+00 1.5668228572e+00 2.7138167952e+00 
18400 5.7457458203e+00 -9.2988427564e-03 1.5671328079e+00 -2.7143536454e+00 1.5671328079e+00 2.7143536454e+00 
18500 5.7457478302e+00 -8.8875964061e-03 1.5674295005e+00 -2.7148675322e+00 1.5674295005e+00 2.7148675322e+00 
18600 5.7457525212e+00 -8.4791882851e-03 1.5677130177e+00 -2.7153585984e+00 1.5677130177e+00 2.7153585984e+00 
18700 5.7457597240e+00 -8.0740870368e-03 1.5679834573e+00 -2.7158270134e+00 1.5679834573e+00 2.7158270134e+00 
18800 5.7457692700e+00 -7.6727375309e-03 1.5682409315e+00 -2.7162729719e+00 1.5682409315e+00 2.7162729719e+00 
18900 5.7457809921e+00 -7.2755612551e-03 1.5684855667e+00 -2.7166966924e+00 1.5684855667e+00 2.7166966924e+00 
19000 5.7457947254e+00 -6.8829567118e-03 1.5687175019e+00 -2.7170984160e+00 1.5687175019e+00 2.7170984160e+00 
19100 5.7458103076e+00 -6.4952998212e-03 1.5689368887e+00 -2.7174784050e+00 1.5689368887e+00 2.7174784050e+00 
19200 5.7458275796e+00 -6.1129443315e-03 1.5691438901e+00 -2.7178369420e+00 1.5691438901e+00 2.7178369420e+00 
19300 5.7458463863e+00 -5.7362222353e-03 1.5693386801e+00 -2.7181743281e+00 1.5693386801e+00 2.7181743281e+00 
19400 5.7458665765e+00 -5.3654441928e-03 1.5695214428e+00 -2.7184908825e+00 1.5695214428e+00 2.7184908825e+00 
19500 5.7458880034e+00 -5.0008999629e-03 1.5696923720e+00 -2.7187869406e+00 1.5696923720e+00 2.7187869406e+00 
19600 5.7459105254e+00 -4.6428588402e-03 1.5698516703e+00 -2.7190628533e+00 1.5698516703e+00 2.7190628533e+00 
19700 5.7459340057e+00 -4.2915700999e-03 1.5699995483e+00 -2.7193189856e+00 1.5699995483e+00 2.7193189856e+00 
19800 5.7459583129e+00 -3.9472634483e-03 1.5701362246e+00 -2.7195557157e+00 1.5701362246e+00 2.7195557157e+00 
19900 5.7459833212e+00 -3.6101494810e-03 1.5702619243e+00 -2.7197734342e+00 1.5702619243e+00 2.7197734342e+00 
20000 5.7460089106e+00 -3.2804201462e-03 1.5703768795e+00 -2.7199725423e+00 1.5703768795e+00 2.7199725423e+00 
20100 5.7460349665e+00 -2.9582492147e-03 1.5704813276e+00 -2.7201534517e+00 1.5704813276e+00 2.7201534517e+00 
20200 5.7460613806e+00 -2.6437927551e-03 1.5705755114e+00 -2.7203165828e+00 1.5705755114e+00 2.7203165828e+00 
20300 5.7460880503e+00 -2.3371896139e-03 1.5706596785e+00 -2.7204623646e+00 1.5706596785e+00 2.7204623646e+00 
20400 5.7461148790e+00 -2.0385619002e-03 1.5707340806e+00 -2.7205912328e+00 1.5707340806e+00 2.7205912328e+00 
20500 5.7461417759e+00 -1.7480154747e-03 1.5707989731e+00 -2.7207036298e+00 1.5707989731e+00 2.7207036298e+00 
20600 5.7461686563e+00 -1.4656404424e-03 1.5708546144e+00 -2.7208000034e+00 1.5708546144e+00 2.7208000034e+00 
20700 5.7461954413e+00 -1.1915116478e-03 1.5709012657e+00 -2.7208808058e+00 1.5709012657e+00 2.7208808058e+00 
20800 5.7462220576e+00 -9.2568917280e-04 1.5709391903e+00 -2.7209464931e+00 1.5709391903e+00 2.7209464931e+00 
20900 5.7462484376e+00 -6.6821883650e-04 1.5709686533e+00 -2.7209975246e+00 1.5709686533e+00 2.7209975246e+00 
21000 5.7462745193e+00 -4.1913269631e-04 1.5709899211e+00 -2.7210343615e+00 1.5709899211e+00 2.7210343615e+00 
21100 5.7463002460e+00 -1.7844954941e-04 1.5710032608e+00 -2.7210574666e+00 1.5710032608e+00 2.7210574666e+00 
21200 5.7463255664e+00 5.3824565614e-05 1.5710089403e+00 -2.7210673038e+00 1.5710089403e+00 2.7210673038e+00 
21300 5.7463504353e+00 2.7951417775e-04 1.5710089403e+00 -2.7210673038e+00 1.5710089403e+00 2.7210673038e+00 
21400 5.7463748100e+00 4.9495045817e-04 1.5710000443e+00 -2.7210518955e+00 1.5710000443e+00 2.7210518955e+00 
21500 5.7463986540e+00 7.0203244558e-04 1.5709842916e+00 -2.7210246110e+00 1.5709842916e+00 2.7210246110e+00 
21600 5.7464219351e+00 9.0080009409e-04 1.5709619480e+00 -2.7209859106e+00 1.5709619480e+00 2.7209859106e+00 
21700 5.7464446257e+00 1.0913036327e-03 1.5709332777e+00 -2.7209362523e+00 1.5709332777e+00 2.7209362523e+00 
21800 5.7464667022e+00 1.2736030764e-03 1.5708985436e+00 -2.7208760911e+00 1.5708985436e+00 2.7208760911e+00 
21900 5.7464881450e+00 1.4477677420e-03 1.5708580064e+00 -2.7208058785e+00 1.5708580064e+00 2.7208058785e+00 
22000 5.7465089383e+00 1.6138757682e-03 1.5708119245e+00 -2.7207260624e+00 1.5708119245e+00 2.7207260624e+00 
22100 5.7465290697e+00 1.7720136413e-03 1.5707605541e+00 -2.7206370862e+00 1.5707605541e+00 2.7206370862e+00 
22200 5.7465485303e+00 1.9222757275e-03 1.5707041482e+00 -2.7205393883e+00 1.5707041482e+00 2.7205393883e+00 
22300 5.7465673144e+00 2.0647638101e-03 1.5706429570e+00 -2.7204334021e+00 1.5706429570e+00 2.7204334021e+00 
22400 5.7465854191e+00 2.1995866356e-03 1.5705772276e+00 -2.7203195554e+00 1.5705772276e+00 2.7203195554e+00 
22500 5.7466028442e+00 2.3268594654e-03 1.5705072033e+00 -2.7201982698e+00 1.5705072033e+00 2.7201982698e+00 
22600 5.7466195923e+00 2.4467036367e-03 1.5704331240e+00 -2.7200699607e+00 1.5704331240e+00 2.7200699607e+00 
22700 5.7466356679e+00 2.5592461309e-03 1.5703552257e+00 -2.7199350368e+00 1.5703552257e+00 2.7199350368e+00 
22800 5.7466510782e+00 2.6646191511e-03 1.5702737402e+00 -2.7197938998e+00 1.5702737402e+00 2.7197938998e+00 
22900 5.7466658319e+00 2.7629597082e-03 1.5701888952e+00 -2.7196469440e+00 1.5701888952e+00 2.7196469440e+00 
23000 5.7466799399e+00 2.8544092169e-03 1.5701009143e+00 -2.7194945566e+00 1.5701009143e+00 2.7194945566e+00 
23100 5.7466934143e+00 2.9391131010e-03 1.5700100163e+00 -2.7193371166e+00 1.5700100163e+00 2.7193371166e+00 
23200 5.7467062690e+00 3.0172204090e-03 1.5699164155e+00 -2.7191749952e+00 1.5699164155e+00 2.7191749952e+00 
23300 5.7467185190e+00 3.0888834397e-03 1.5698203215e+00 -2.7190085556e+00 1.5698203215e+00 2.7190085556e+00 
23400 5.7467301804e+00 3.1542573781e-03 1.5697219392e+00 -2.7188381525e+00 1.5697219392e+00 2.7188381525e+00 
23500 5.7467412705e+00 3.2134999428e-03 1.5696214684e+00 -2.7186641320e+00 1.5696214684e+00 2.7186641320e+00 
23600 5.7467518071e+00 3.2667710434e-03 1.5695191041e+00 -2.7184868317e+00 1.5695191041e+00 2.7184868317e+00 
23700 5.7467618092e+00 3.3142324490e-03 1.5694150361e+00 -2.7183065806e+00 1.5694150361e+00 2.7183065806e+00 
23800 5.7467712958e+00 3.3560474684e-03 1.5693094491e+00 -2.7181236987e+00 1.5693094491e+00 2.7181236987e+00 
23900 5.7467802867e+00 3.3923806409e-03 1.5692025228e+00 -2.7179384969e+00 1.5692025228e+00 2.7179384969e+00 
24000 5.7467888020e+00 3.4233974390e-03 1.5690944315e+00 -2.7177512773e+00 1.5690944315e+00 2.7177512773e+00 
24100 5.7467968619e+00 3.4492639814e-03 1.5689853445e+00 -2.7175623330e+00 1.5689853445e+00 2.7175623330e+00 
24200 5.7468044870e+00 3.4701467590e-03 1.5688754256e+00 -2.7173719478e+00 1.5688754256e+00 2.7173719478e+00 
24300 5.7468116976e+00 3.4862123705e-03 1.5687648334e+00 -2.7171803966e+00 1.5687648334e+00 2.7171803966e+00 
24400 5.7468185142e+00 3.4976272705e-03 1.5686537214e+00 -2.7169879450e+00 1.5686537214e+00 2.7169879450e+00 
24500 5.7468249571e+00 3.5045575286e-03 1.5685422378e+00 -2.7167948496e+00 1.5685422378e+00 2.7167948496e+00 
24600 5.7468310464e+00 3.5071685994e-03 1.5684305252e+00 -2.7166013579e+00 1.5684305252e+00 2.7166013579e+00 
24700 5.7468368018e+00 3.5056251040e-03 1.5683187215e+00 -2.7164077082e+00 1.5683187215e+00 2.7164077082e+00 
24800 5.7468422429e+00 3.5000906224e-03 1.5682069591e+00 -2.7162141299e+00 1.5682069591e+00 2.7162141299e+00 
24900 5.7468473887e+00 3.4907274966e-03 1.5680953651e+00 -2.7160208434e+00 1.5680953651e+00 2.7160208434e+00 
25000 5.7468522580e+00 3.4776966451e-03 1.5679840617e+00 -2.7158280603e+00 1.5679840617e+00 2.7158280603e+00 
25100 5.7468568688e+00 3.4611573869e-03 1.5678731659e+00 -2.7156359832e+00 1.5678731659e+00 2.7156359832e+00 
25200 5.7468612389e+00 3.4412672771e-03 1.5677627898e+00 -2.7154448061e+00 1.5677627898e+00 2.7154448061e+00 
25300 5.7468653855e+00 3.4181819518e-03 1.5676530402e+00 -2.7152547142e+00 1.5676530402e+00 2.7152547142e+00 
25400 5.7468693249e+00 3.3920549838e-03 1.5675440192e+00 -2.7150658843e+00 1.5675440192e+00 2.7150658843e+00 
25500 5.7468730732e+00 3.3630377473e-03 1.5674358239e+00 -2.7148784846e+00 1.5674358239e+00 2.7148784846e+00 
25600 5.7468766457e+00 3.3312792933e-03 1.5673285468e+00 -2.7146926752e+00 1.5673285468e+00 2.7146926752e+00 
25700 5.7468800570e+00 3.2969262332e-03 1.5672222755e+00 -2.7145086079e+00 1.5672222755e+00 2.7145086079e+00 
25800 5.7468833212e+00 3.2601226324e-03 1.5671170929e+00 -2.7143264263e+00 1.5671170929e+00 2.7143264263e+00 
25900 5.7468864516e+00 3.2210099124e-03 1.5670130775e+00 -2.7141462664e+00 1.5670130775e+00 2.7141462664e+00 
26000 5.7468894610e+00 3.1797267616e-03 1.5669103032e+00 -2.7139682560e+00 1.5669103032e+00 2.7139682560e+00 
26100 5.7468923614e+00 3.1364090549e-03 1.5668088394e+00 -2.7137925156e+00 1.5668088394e+00 2.7137925156e+00 
26200 5.7468951641e+00 3.0911897805e-03 1.5667087514e+00 -2.7136191581e+00 1.5667087514e+00 2.7136191581e+00 
26300 5.7468978798e+00 3.0441989755e-03 1.5666101001e+00 -2.7134482890e+00 1.5666101001e+00 2.7134482890e+00 
26400 5.7469005187e+00 2.9955636689e-03 1.5665129423e+00 -2.7132800068e+00 1.5665129423e+00 2.7132800068e+00 
26500 5.7469030902e+00 2.9454078313e-03 1.5664173308e+00 -2.7131144028e+00 1.5664173308e+00 2.7131144028e+00 
26600 5.7469056030e+00 2.8938523323e-03 1.5663233144e+00 -2.7129515616e+00 1.5663233144e+00 2.7129515616e+00 
26700 5.7469080653e+00 2.8410149048e-03 1.5662309381e+00 -2.7127915611e+00 1.5662309381e+00 2.7127915611e+00 
26800 5.7469104847e+00 2.7870101150e-03 1.5661402430e+00 -2.7126344727e+00 1.5661402430e+00 2.7126344727e+00 
26900 5.7469128682e+00 2.7319493397e-03 1.5660512668e+00 -2.7124803614e+00 1.5660512668e+00 2.7124803614e+00 
27000 5.7469152222e+00 2.6759407486e-03 1.5659640435e+00 -2.7123292862e+00 1.5659640435e+00 2.7123292862e+00 
27100 5.7469175525e+00 2.6190892928e-03 1.5658786036e+00 -2.7121812999e+00 1.5658786036e+00 2.7121812999e+00 
27200 5.7469198644e+00 2.5614966991e-03 1.5657949743e+00 -2.7120364498e+00 1.5657949743e+00 2.7120364498e+00 
27300 5.7469221628e+00 2.5032614684e-03 1.5657131796e+00 -2.7118947772e+00 1.5657131796e+00 2.7118947772e+00 
27400 5.7469244520e+00 2.4444788803e-03 1.5656332403e+00 -2.7117563183e+00 1.5656332403e+00 2.7117563183e+00 
27500 5.7469267357e+00 2.3852410015e-03 1.5655551742e+00 -2.7116211038e+00 1.5655551742e+00 2.7116211038e+00 
27600 5.7469290175e+00 2.3256366988e-03 1.5654789961e+00 -2.7114891594e+00 1.5654789961e+00 2.7114891594e+00 
27700 5.7469313003e+00 2.2657516565e-03 1.5654047179e+00 -2.7113605058e+00 1.5654047179e+00 2.7113605058e+00 
27800 5.7469335866e+00 2.2056683977e-03 1.5653323489e+00 -2.7112351591e+00 1.5653323489e+00 2.7112351591e+00 
27900 5.7469358786e+00 2.1454663090e-03 1.5652618958e+00 -2.7111131307e+00 1.5652618958e+00 2.7111131307e+00 
28000 5.7469381781e+00 2.0852216689e-03 1.5651933625e+00 -2.7109944275e+00 1.5651933625e+00 2.7109944275e+00 
28100 5.7469404866e+00 2.0250076797e-03 1.5651267507e+00 -2.7108790525e+00 1.5651267507e+00 2.7108790525e+00 
28200 5.7469428053e+00 1.9648945020e-03 1.5650620597e+00 -2.7107670043e+00 1.5650620597e+00 2.7107670043e+00 
28300 5.7469451350e+00 1.9049492921e-03 1.5649992864e+00 -2.7106582778e+00 1.5649992864e+00 2.7106582778e+00 
28400 5.7469474763e+00 1.8452362424e-03 1.5649384258e+00 -2.7105528641e+00 1.5649384258e+00 2.7105528641e+00 
28500 5.7469498296e+00 1.7858166237e-03 1.5648794706e+00 -2.7104507508e+00 1.5648794706e+00 2.7104507508e+00 
28600 5.7469521949e+00 1.7267488301e-03 1.5648224117e+00 -2.7103519219e+00 1.5648224117e+00 2.7103519219e+00 
28700 5.7469545721e+00 1.6680884261e-03 1.5647672381e+00 -2.7102563583e+00 1.5647672381e+00 2.7102563583e+00 
28800 5.7469569609e+00 1.6098881949e-03 1.5647139369e+00 -2.7101640380e+00 1.5647139369e+00 2.7101640380e+00 
28900 5.7469593608e+00 1.5521981888e-03 1.5646624936e+00 -2.7100749356e+00 1.5646624936e+00 2.7100749356e+00 
29000 5.7469617711e+00 1.4950657817e-03 1.5646128922e+00 -2.7099890234e+00 1.5646128922e+00 2.7099890234e+00 
29100 5.7469641911e+00 1.4385357219e-03 1.5645651149e+00 -2.7099062708e+00 1.5645651149e+00 2.7099062708e+00 
29200 5.7469666199e+00 1.3826501867e-03 1.5645191428e+00 -2.7098266447e+00 1.5645191428e+00 2.7098266447e+00 
29300 5.7469690563e+00 1.3274488383e-03 1.5644749553e+00 -2.7097501097e+00 1.5644749553e+00 2.7097501097e+00 
29400 5.7469714993e+00 1.2729688800e-03 1.5644325307e+00 -2.7096766282e+00 1.5644325307e+00 2.7096766282e+00 
29500 5.7469739477e+00 1.2192451138e-03 1.5643918462e+00 -2.7096061606e+00 1.5643918462e+00 2.7096061606e+00 
29600 5.7469764001e+00 1.1663099983e-03 1.5643528777e+00 -2.7095386652e+00 1.5643528777e+00 2.7095386652e+00 
29700 5.7469788552e+00 1.1141937076e-03 1.5643156002e+00 -2.7094740985e+00 1.5643156002e+00 2.7094740985e+00 
29800 5.7469813117e+00 1.0629241896e-03 1.5642799875e+00 -2.7094124156e+00 1.5642799875e+00 2.7094124156e+00 
29900 5.7469837681e+00 1.0125272262e-03 1.5642460127e+00 -2.7093535696e+00 1.5642460127e+00 2.7093535696e+00 
30000 5.7469862230e+00 9.6302649236e-04 1.5642136481e+00 -2.7092975125e+00 1.5642136481e+00 2.7092975125e+00 
30100 5.7469886750e+00 9.1444361578e-04 1.5641828651e+00 -2.7092441948e+00 1.5641828651e+00 2.7092441948e+00 
30200 5.7469911225e+00 8.6679823686e-04 1.5641536345e+00 -2.7091935658e+00 1.5641536345e+00 2.7091935658e+00 
30300 5.7469935641e+00 8.2010806825e-04 1.5641259264e+00 -2.7091455739e+00 1.5641259264e+00 2.7091455739e+00 
30400 5.7469959985e+00 7.7438895433e-04 1.5640997103e+00 -2.7091001663e+00 1.5640997103e+00 2.7091001663e+00 
30500 5.7469984241e+00 7.2965493058e-04 1.5640749552e+00 -2.7090572893e+00 1.5640749552e+00 2.7090572893e+00 
30600 5.7470008395e+00 6.8591828256e-04 1.5640516299e+00 -2.7090168886e+00 1.5640516299e+00 2.7090168886e+00 
30700 5.7470032435e+00 6.4318960456e-04 1.5640297023e+00 -2.7089789089e+00 1.5640297023e+00 2.7089789089e+00 
30800 5.7470056346e+00 6.0147785781e-04 1.5640091404e+00 -2.7089432947e+00 1.5640091404e+00 2.7089432947e+00 
30900 5.7470080116e+00 5.6079042821e-04 1.5639899117e+00 -2.7089099896e+00 1.5639899117e+00 2.7089099896e+00 
31000 5.7470103732e+00 5.2113318354e-04 1.5639719836e+00 -2.7088789371e+00 1.5639719836e+00 2.7088789371e+00 
31100 5.7470127183e+00 4.8251053002e-04 1.5639553230e+00 -2.7088500802e+00 1.5639553230e+00 2.7088500802e+00 
31200 5.7470150457e+00 4.4492546827e-04 1.5639398971e+00 -2.7088233617e+00 1.5639398971e+00 2.7088233617e+00 
31300 5.7470173543e+00 4.0837964854e-04 1.5639256726e+00 -2.7087987242e+00 1.5639256726e+00 2.7087987242e+00 
31400 5.7470196431e+00 3.7287342527e-04 1.5639126164e+00 -2.7087761102e+00 1.5639126164e+00 2.7087761102e+00 
31500 5.7470219110e+00 3.3840591083e-04 1.5639006952e+00 -2.7087554621e+00 1.5639006952e+00 2.7087554621e+00 
31600 5.7470241573e+00 3.0497502842e-04 1.5638898759e+00 -2.7087367226e+00 1.5638898759e+00 2.7087367226e+00 
31700 5.7470263810e+00 2.7257756428e-04 1.5638801254e+00 -2.7087198342e+00 1.5638801254e+00 2.7087198342e+00 
31800 5.7470285813e+00 2.4120921883e-04 1.5638714107e+00 -2.7087047398e+00 1.5638714107e+00 2.7087047398e+00 
31900 5.7470307575e+00 2.1086465710e-04 1.5638636987e+00 -2.7086913823e+00 1.5638636987e+00 2.7086913823e+00 
32000 5.7470329089e+00 1.8153755816e-04 1.5638569570e+00 -2.7086797052e+00 1.5638569570e+00 2.7086797052e+00 
32100 5.7470350350e+00 1.5322066358e-04 1.5638511528e+00 -2.7086696521e+00 1.5638511528e+00 2.7086696521e+00 
32200 5.7470371351e+00 1.2590582503e-04 1.5638462540e+00 -2.7086611671e+00 1.5638462540e+00 2.7086611671e+00 
32300 5.7470392087e+00 9.9584050870e-05 1.5638422285e+00 -2.7086541947e+00 1.5638422285e+00 2.7086541947e+00 
32400 5.7470412555e+00 7.4245551700e-05 1.5638390445e+00 -2.7086486799e+00 1.5638390445e+00 2.7086486799e+00 
32500 5.7470432751e+00 4.9879785003e-05 1.5638366707e+00 -2.7086445684e+00 1.5638366707e+00 2.7086445684e+00 
32600 5.7470452670e+00 2.8199975444e-05 1.5638366707e+00 -2.7086445684e+00 1.5638366707e+00 2.7086445684e+00 
32700 5.7470472310e+00 6.6702412144e-06 1.5638366707e+00 -2.7086445684e+00 1.5638366707e+00 2.7086445684e+00 
32800 5.7470491670e+00 -1.4693654891e-05 1.5638366707e+00 -2.7086445684e+00 1.5638366707e+00 2.7086445684e+00 
32900 5.7470510747e+00 -3.5876783783e-05 1.5638366707e+00 -2.7086445684e+00 1.5638366707e+00 2.7086445684e+00 
33000 5.7470529542e+00 -5.6865029545e-05 1.5638366707e+00 -2.7086445684e+00 1.5638366707e+00 2.7086445684e+00 
33100 5.7470548054e+00 -7.7645068986e-05 1.5638366707e+00 -2.7086445684e+00 1.5638366707e+00 2.7086445684e+00 
33200 5.7470566281e+00 -9.5520445014e-05 1.5638391532e+00 -2.7086488682e+00 1.5638391532e+00 2.7086488682e+00 
33300 5.7470584224e+00 -1.1253041611e-04 1.5638422072e+00 -2.7086541580e+00 1.5638422072e+00 2.7086541580e+00 
33400 5.7470601883e+00 -1.2869043069e-04 1.5638458051e+00 -2.7086603897e+00 1.5638458051e+00 2.7086603897e+00 
33500 5.7470619259e+00 -1.4401630187e-04 1.5638499197e+00 -2.7086675163e+00 1.5638499197e+00 2.7086675163e+00 
33600 5.7470636353e+00 -1.5852417404e-04 1.5638545242e+00 -2.7086754916e+00 1.5638545242e+00 2.7086754916e+00 
33700 5.7470653168e+00 -1.7223049044e-04 1.5638595926e+00 -2.7086842703e+00 1.5638595926e+00 2.7086842703e+00 
33800 5.7470669706e+00 -1.8515196179e-04 1.5638650992e+00 -2.7086938080e+00 1.5638650992e+00 2.7086938080e+00 
33900 5.7470685968e+00 -1.9730553585e-04 1.5638710189e+00 -2.7087040612e+00 1.5638710189e+00 2.7087040612e+00 
34000 5.7470701957e+00 -2.0870836807e-04 1.5638773271e+00 -2.7087149874e+00 1.5638773271e+00 2.7087149874e+00 
34100 5.7470717676e+00 -2.1937779312e-04 1.5638839999e+00 -2.7087265450e+00 1.5638839999e+00 2.7087265450e+00 
34200 5.7470733128e+00 -2.2933129747e-04 1.5638910138e+00 -2.7087386934e+00 1.5638910138e+00 2.7087386934e+00 
34300 5.7470748316e+00 -2.3858649290e-04 1.5638983459e+00 -2.7087513929e+00 1.5638983459e+00 2.7087513929e+00 
34400 5.7470763244e+00 -2.4716109097e-04 1.5639059738e+00 -2.7087646049e+00 1.5639059738e+00 2.7087646049e+00 
34500 5.7470777916e+00 -2.5507287843e-04 1.5639138759e+00 -2.7087782917e+00 1.5639138759e+00 2.7087782917e+00 
34600 5.7470792334e+00 -2.6233969357e-04 1.5639220308e+00 -2.7087924165e+00 1.5639220308e+00 2.7087924165e+00 
34700 5.7470806504e+00 -2.6897940346e-04 1.5639304181e+00 -2.7088069436e+00 1.5639304181e+00 2.7088069436e+00 
34800 5.7470820429e+00 -2.7500988209e-04 1.5639390176e+00 -2.7088218384e+00 1.5639390176e+00 2.7088218384e+00 
34900 5.7470834114e+00 -2.8044898948e-04 1.5639478098e+00 -2.7088370669e+00 1.5639478098e+00 2.7088370669e+00 
35000 5.7470847562e+00 -2.8531455154e-04 1.5639567759e+00 -2.7088525966e+00 1.5639567759e+00 2.7088525966e+00 
35100 5.7470860777e+00 -2.8962434088e-04 1.5639658974e+00 -2.7088683956e+00 1.5639658974e+00 2.7088683956e+00 
35200 5.7470873766e+00 -2.9339605847e-04 1.5639751567e+00 -2.7088844332e+00 1.5639751567e+00 2.7088844332e+00 
35300 5.7470886531e+00 -2.9664731603e-04 1.5639845366e+00 -2.7089006796e+00 1.5639845366e+00 2.7089006796e+00 
35400 5.7470899077e+00 -2.9939561940e-04 1.5639940203e+00 -2.7089171058e+00 1.5639940203e+00 2.7089171058e+00 
35500 5.7470911409e+00 -3.0165835255e-04 1.5640035918e+00 -2.7089336842e+00 1.5640035918e+00 2.7089336842e+00 
35600 5.7470923531e+00 -3.0345276249e-04 1.5640132356e+00 -2.7089503877e+00 1.5640132356e+00 2.7089503877e+00 
35700 5.7470935447e+00 -3.0479594490e-04 1.5640229367e+00 -2.7089671905e+00 1.5640229367e+00 2.7089671905e+00 
35800 5.7470947163e+00 -3.0570483051e-04 1.5640326807e+00 -2.7089840676e+00 1.5640326807e+00 2.7089840676e+00 
35900 5.7470958682e+00 -3.0619617225e-04 1.5640424536e+00 -2.7090009949e+00 1.5640424536e+00 2.7090009949e+00 
36000 5.7470970009e+00 -3.0628653311e-04 1.5640522423e+00 -2.7090179493e+00 1.5640522423e+00 2.7090179493e+00 
36100 5.7470981148e+00 -3.0599227466e-04 1.5640620337e+00 -2.7090349086e+00 1.5640620337e+00 2.7090349086e+00 
36200 5.7470992103e+00 -3.0532954637e-04 1.5640718157e+00 -2.7090518515e+00 1.5640718157e+00 2.7090518515e+00 
36300 5.7471002880e+00 -3.0431427548e-04 1.5640815764e+00 -2.7090687576e+00 1.5640815764e+00 2.7090687576e+00 
36400 5.7471013481e+00 -3.0296215761e-04 1.5640913047e+00 -2.7090856074e+00 1.5640913047e+00 2.7090856074e+00 
36500 5.7471023911e+00 -3.0128864800e-04 1.5641009896e+00 -2.7091023822e+00 1.5641009896e+00 2.7091023822e+00 
36600 5.7471034175e+00 -2.9930895331e-04 1.5641106210e+00 -2.7091190642e+00 1.5641106210e+00 2.7091190642e+00 
36700 5.7471044275e+00 -2.9703802416e-04 1.5641201890e+00 -2.7091356365e+00 1.5641201890e+00 2.7091356365e+00 
36800 5.7471054217e+00 -2.9449054809e-04 1.5641296844e+00 -2.7091520830e+00 1.5641296844e+00 2.7091520830e+00 
36900 5.7471064003e+00 -2.9168094328e-04 1.5641390983e+00 -2.7091683883e+00 1.5641390983e+00 2.7091683883e+00 
37000 5.7471073637e+00 -2.8862335268e-04 1.5641484223e+00 -2.7091845380e+00 1.5641484223e+00 2.7091845380e+00 
37100 5.7471083123e+00 -2.8533163879e-04 1.5641576485e+00 -2.7092005183e+00 1.5641576485e+00 2.7092005183e+00 
37200 5.7471092465e+00 -2.8181937886e-04 1.5641667695e+00 -2.7092163162e+00 1.5641667695e+00 2.7092163162e+00 
37300 5.7471101666e+00 -2.7809986076e-04 1.5641757781e+00 -2.7092319196e+00 1.5641757781e+00 2.7092319196e+00 
37400 5.7471110729e+00 -2.7418607916e-04 1.5641846678e+00 -2.7092473170e+00 1.5641846678e+00 2.7092473170e+00 
37500 5.7471119658e+00 -2.7009073234e-04 1.5641934323e+00 -2.7092624976e+00 1.5641934323e+00 2.7092624976e+00 
37600 5.7471128455e+00 -2.6582621941e-04 1.5642020658e+00 -2.7092774513e+00 1.5642020658e+00 2.7092774513e+00 
37700 5.7471137124e+00 -2.6140463794e-04 1.5642105630e+00 -2.7092921689e+00 1.5642105630e+00 2.7092921689e+00 
37800 5.7471145668e+00 -2.5683778212e-04 1.5642189188e+00 -2.7093066416e+00 1.5642189188e+00 2.7093066416e+00 
37900 5.7471154089e+00 -2.5213714123e-04 1.5642271286e+00 -2.7093208613e+00 1.5642271286e+00 2.7093208613e+00 
38000 5.7471162390e+00 -2.4731389862e-04 1.5642351881e+00 -2.7093348208e+00 1.5642351881e+00 2.7093348208e+00 
38100 5.7471170575e+00 -2.4237893099e-04 1.5642430934e+00 -2.7093485131e+00 1.5642430934e+00 2.7093485131e+00 
38200 5.7471178644e+00 -2.3734280811e-04 1.5642508409e+00 -2.7093619321e+00 1.5642508409e+00 2.7093619321e+00 
38300 5.7471186602e+00 -2.3221579287e-04 1.5642584273e+00 -2.7093750723e+00 1.5642584273e+00 2.7093750723e+00 
38400 5.7471194450e+00 -2.2700784165e-04 1.5642658499e+00 -2.7093879285e+00 1.5642658499e+00 2.7093879285e+00 
38500 5.7471202190e+00 -2.2172860511e-04 1.5642731059e+00 -2.7094004964e+00 1.5642731059e+00 2.7094004964e+00 
38600 5.7471209825e+00 -2.1638742920e-04 1.5642801932e+00 -2.7094127719e+00 1.5642801932e+00 2.7094127719e+00 
38700 5.7471217358e+00 -2.1099335655e-04 1.5642871097e+00 -2.7094247517e+00 1.5642871097e+00 2.7094247517e+00 
38800 5.7471224789e+00 -2.0555512807e-04 1.5642938538e+00 -2.7094364328e+00 1.5642938538e+00 2.7094364328e+00 
38900 5.7471232121e+00 -2.0008118495e-04 1.5643004240e+00 -2.7094478128e+00 1.5643004240e+00 2.7094478128e+00 
39000 5.7471239356e+00 -1.9457967077e-04 1.5643068193e+00 -2.7094588896e+00 1.5643068193e+00 2.7094588896e+00 
39100 5.7471246496e+00 -1.8905843401e-04 1.5643130386e+00 -2.7094696619e+00 1.5643130386e+00 2.7094696619e+00 
39200 5.7471253543e+00 -1.8352503069e-04 1.5643190815e+00 -2.7094801284e+00 1.5643190815e+00 2.7094801284e+00 
39300 5.7471260497e+00 -1.7798672730e-04 1.5643249475e+00 -2.7094902886e+00 1.5643249475e+00 2.7094902886e+00 
39400 5.7471267362e+00 -1.7245050393e-04 1.5643306364e+00 -2.7095001421e+00 1.5643306364e+00 2.7095001421e+00 
39500 5.7471274138e+00 -1.6692305760e-04 1.5643361484e+00 -2.7095096891e+00 1.5643361484e+00 2.7095096891e+00 
39600 5.7471280826e+00 -1.6141080576e-04 1.5643414836e+00 -2.7095189301e+00 1.5643414836e+00 2.7095189301e+00 
39700 5.7471287429e+00 -1.5591988999e-04 1.5643466427e+00 -2.7095278658e+00 1.5643466427e+00 2.7095278658e+00 
39800 5.7471293948e+00 -1.5045617991e-04 1.5643516263e+00 -2.7095364976e+00 1.5643516263e+00 2.7095364976e+00 
39900 5.7471300383e+00 -1.4502527715e-04 1.5643564352e+00 -2.7095448269e+00 1.5643564352e+00 2.7095448269e+00 
40000 5.7471306737e+00 -1.3963251956e-04 1.5643610705e+00 -2.7095528554e+00 1.5643610705e+00 2.7095528554e+00 
40100 5.7471313011e+00 -1.3428298553e-04 1.5643655334e+00 -2.7095605855e+00 1.5643655334e+00 2.7095605855e+00 
40200 5.7471319205e+00 -1.2898149839e-04 1.5643698253e+00 -2.7095680193e+00 1.5643698253e+00 2.7095680193e+00 
40300 5.7471325321e+00 -1.2373263098e-04 1.5643739478e+00 -2.7095751596e+00 1.5643739478e+00 2.7095751596e+00 
40400 5.7471331361e+00 -1.1854071032e-04 1.5643779025e+00 -2.7095820094e+00 1.5643779025e+00 2.7095820094e+00 
40500 5.7471337324e+00 -1.1340982237e-04 1.5643816913e+00 -2.7095885717e+00 1.5643816913e+00 2.7095885717e+00 
40600 5.7471343212e+00 -1.0834381684e-04 1.5643853160e+00 -2.7095948499e+00 1.5643853160e+00 2.7095948499e+00 
40700 5.7471349027e+00 -1.0334631218e-04 1.5643887788e+00 -2.7096008477e+00 1.5643887788e+00 2.7096008477e+00 
40800 5.7471354769e+00 -9.8420700503e-05 1.5643920819e+00 -2.7096065689e+00 1.5643920819e+00 2.7096065689e+00 
40900 5.7471360438e+00 -9.3570152711e-05 1.5643952276e+00 -2.7096120173e+00 1.5643952276e+00 2.7096120173e+00 
41000 5.7471366037e+00 -8.8797623554e-05 1.5643982182e+00 -2.7096171972e+00 1.5643982182e+00 2.7096171972e+00 
41100 5.7471371566e+00 -8.4105856823e-05 1.5644010563e+00 -2.7096221129e+00 1.5644010563e+00 2.7096221129e+00 
41200 5.7471377025e+00 -7.9497390537e-05 1.5644037444e+00 -2.7096267688e+00 1.5644037444e+00 2.7096267688e+00 
41300 5.7471382416e+00 -7.4974562163e-05 1.5644062852e+00 -2.7096311697e+00 1.5644062852e+00 2.7096311697e+00 
41400 5.7471387739e+00 -7.0539513885e-05 1.5644086815e+00 -2.7096353201e+00 1.5644086815e+00 2.7096353201e+00 
41500 5.7471392997e+00 -6.8627947526e-05 1.5644086815e+00 -2.7096353201e+00 1.5644086815e+00 2.7096353201e+00 
41600 5.7471398189e+00 -6.6671714918e-05 1.5644086815e+00 -2.7096353201e+00 1.5644086815e+00 2.7096353201e+00 
41700 5.7471403315e+00 -6.4674692990e-05 1.5644086815e+00 -2.7096353201e+00 1.5644086815e+00 2.7096353201e+00 
41800 5.7471408377e+00 -6.2640644891e-05 1.5644086815e+00 -2.7096353201e+00 1.5644086815e+00 2.7096353201e+00 
41900 5.7471413374e+00 -6.0573221013e-05 1.5644086815e+00 -2.7096353201e+00 1.5644086815e+00 2.7096353201e+00 
42000 5.7471418308e+00 -5.8475960074e-05 1.5644086815e+00 -2.7096353201e+00 1.5644086815e+00 2.7096353201e+00 
42100 5.7471423180e+00 -5.6352290254e-05 1.5644086815e+00 -2.7096353201e+00 1.5644086815e+00 2.7096353201e+00 
42200 5.7471427990e+00 -5.4205530395e-05 1.5644086815e+00 -2.7096353201e+00 1.5644086815e+00 2.7096353201e+00 
42300 5.7471432738e+00 -5.2038891247e-05 1.5644086815e+00 -2.7096353201e+00 1.5644086815e+00 2.7096353201e+00 
42400 5.7471437426e+00 -4.9855476765e-05 1.5644086815e+00 -2.7096353201e+00 1.5644086815e+00 2.7096353201e+00 
42500 5.7471442055e+00 -4.7658285450e-05 1.5644086815e+00 -2.7096353201e+00 1.5644086815e+00 2.7096353201e+00 
42600 5.7471446624e+00 -4.5450211730e-05 1.5644086815e+00 -2.7096353201e+00 1.5644086815e+00 2.7096353201e+00 
42700 5.7471451135e+00 -4.3234047382e-05 1.5644086815e+00 -2.7096353201e+00 1.5644086815e+00 2.7096353201e+00 
42800 5.7471455588e+00 -4.1012483001e-05 1.5644086815e+00 -2.7096353201e+00 1.5644086815e+00 2.7096353201e+00 
42900 5.7471459985e+00 -3.8788109480e-05 1.5644086815e+00 -2.7096353201e+00 1.5644086815e+00 2.7096353201e+00 
43000 5.7471464324e+00 -3.6563419542e-05 1.5644086815e+00 -2.7096353201e+00 1.5644086815e+00 2.7096353201e+00 
43100 5.7471468609e+00 -3.4340809292e-05 1.5644086815e+00 -2.7096353201e+00 1.5644086815e+00 2.7096353201e+00 
43200 5.7471472838e+00 -3.2122579796e-05 1.5644086815e+00 -2.7096353201e+00 1.5644086815e+00 2.7096353201e+00 
43300 5.7471477012e+00 -2.9910938685e-05 1.5644086815e+00 -2.7096353201e+00 1.5644086815e+00 2.7096353201e+00 
43400 5.7471481133e+00 -2.7708001773e-05 1.5644086815e+00 -2.7096353201e+00 1.5644086815e+00 2.7096353201e+00 
43500 5.7471485200e+00 -2.5515794710e-05 1.5644086815e+00 -2.7096353201e+00 1.5644086815e+00 2.7096353201e+00 
43600 5.7471489215e+00 -2.3336254635e-05 1.5644086815e+00 -2.7096353201e+00 1.5644086815e+00 2.7096353201e+00 
43700 5.7471493178e+00 -2.1171231851e-05 1.5644086815e+00 -2.7096353201e+00 1.5644086815e+00 2.7096353201e+00 
43800 5.7471497090e+00 -1.9022491517e-05 1.5644086815e+00 -2.7096353201e+00 1.5644086815e+00 2.7096353201e+00 
43900 5.7471500951e+00 -1.6891715338e-05 1.5644086815e+00 -2.7096353201e+00 1.5644086815e+00 2.7096353201e+00 
44000 5.7471504762e+00 -1.4780503279e-05 1.5644086815e+00 -2.7096353201e+00 1.5644086815e+00 2.7096353201e+00 
44100 5.7471508523e+00 -1.2690375274e-05 1.5644086815e+00 -2.7096353201e+00 1.5644086815e+00 2.7096353201e+00 
44200 5.7471512236e+00 -1.0622772944e-05 1.5644086815e+00 -2.7096353201e+00 1.5644086815e+00 2.7096353201e+00 
44300 5.7471515900e+00 -8.5790613236e-06 1.5644086815e+00 -2.7096353201e+00 1.5644086815e+00 2.7096353201e+00 
44400 5.7471519516e+00 -6.5605305759e-06 1.5644086815e+00 -2.7096353201e+00 1.5644086815e+00 2.7096353201e+00 
44500 5.7471523086e+00 -4.5683977232e-06 1.5644086815e+00 -2.7096353201e+00 1.5644086815e+00 2.7096353201e+00 
44600 5.7471526608e+00 -2.6038083661e-06 1.5644086815e+00 -2.7096353201e+00 1.5644086815e+00 2.7096353201e+00 
44700 5.7471530085e+00 -6.6783839768e-07 1.5644086815e+00 -2.7096353201e+00 1.5644086815e+00 2.7096353201e+00 
44800 5.7471533516e+00 1.2385042711e-06 1.5644086815e+00 -2.7096353201e+00 1.5644086815e+00 2.7096353201e+00 
44900 5.7471536903e+00 3.1142780170e-06 1.5644086815e+00 -2.7096353201e+00 1.5644086815e+00 2.7096353201e+00 
45000 5.7471540245e+00 4.9586057898e-06 1.5644086815e+00 -2.7096353201e+00 1.5644086815e+00 2.7096353201e+00 
45100 5.7471543543e+00 6.7706734268e-06 1.5644086815e+00 -2.7096353201e+00 1.5644086815e+00 2.7096353201e+00 
45200 5.7471546798e+00 8.5497279673e-06 1.5644086815e+00 -2.7096353201e+00 1.5644086815e+00 2.7096353201e+00 
45300 5.7471550011e+00 1.0295075980e-05 1.5644086815e+00 -2.7096353201e+00 1.5644086815e+00 2.7096353201e+00 
45400 5.7471553181e+00 1.2006081897e-05 1.5644086815e+00 -2.7096353201e+00 1.5644086815e+00 2.7096353201e+00 
45500 5.7471556310e+00 1.3682166372e-05 1.5644086815e+00 -2.7096353201e+00 1.5644086815e+00 2.7096353201e+00 
45600 5.7471559398e+00 1.5322804638e-05 1.5644086815e+00 -2.7096353201e+00 1.5644086815e+00 2.7096353201e+00 
45700 5.7471562446e+00 1.6927524892e-05 1.5644086815e+00 -2.7096353201e+00 1.5644086815e+00 2.7096353201e+00 
45800 5.7471565453e+00 1.8495906685e-05 1.5644086815e+00 -2.7096353201e+00 1.5644086815e+00 2.7096353201e+00 
45900 5.7471568421e+00 2.0027579339e-05 1.5644086815e+00 -2.7096353201e+00 1.5644086815e+00 2.7096353201e+00 
46000 5.7471571351e+00 2.1522220366e-05 1.5644086815e+00 -2.7096353201e+00 1.5644086815e+00 2.7096353201e+00 
46100 5.7471574241e+00 2.2979553923e-05 1.5644086815e+00 -2.7096353201e+00 1.5644086815e+00 2.7096353201e+00 
46200 5.7471577094e+00 2.4399349271e-05 1.5644086815e+00 -2.7096353201e+00 1.5644086815e+00 2.7096353201e+00 
46300 5.7471579910e+00 2.5781419259e-05 1.5644086815e+00 -2.7096353201e+00 1.5644086815e+00 2.7096353201e+00 
46400 5.7471582689e+00 2.7125618825e-05 1.5644086815e+00 -2.7096353201e+00 1.5644086815e+00 2.7096353201e+00 
46500 5.7471585431e+00 2.8431843527e-05 1.5644086815e+00 -2.7096353201e+00 1.5644086815e+00 2.7096353201e+00 
46600 5.7471588138e+00 2.9700028072e-05 1.5644086815e+00 -2.7096353201e+00 1.5644086815e+00 2.7096353201e+00 
46700 5.7471590809e+00 3.0930144900e-05 1.5644086815e+00 -2.7096353201e+00 1.5644086815e+00 2.7096353201e+00 
46800 5.7471593445e+00 3.2122202753e-05 1.5644086815e+00 -2.7096353201e+00 1.5644086815e+00 2.7096353201e+00 
46900 5.7471596047e+00 3.3276245298e-05 1.5644086815e+00 -2.7096353201e+00 1.5644086815e+00 2.7096353201e+00 
47000 5.7471598614e+00 3.4392349747e-05 1.5644086815e+00 -2.7096353201e+00 1.5644086815e+00 2.7096353201e+00 
47100 5.7471601149e+00 3.5470625521e-05 1.5644086815e+00 -2.7096353201e+00 1.5644086815e+00 2.7096353201e+00 
47200 5.7471603650e+00 3.6511212919e-05 1.5644086815e+00 -2.7096353201e+00 1.5644086815e+00 2.7096353201e+00 
47300 5.7471606118e+00 3.7514281824e-05 1.5644086815e+00 -2.7096353201e+00 1.5644086815e+00 2.7096353201e+00 
47400 5.7471608555e+00 3.8480030424e-05 1.5644086815e+00 -2.7096353201e+00 1.5644086815e+00 2.7096353201e+00 
47500 5.7471610960e+00 3.9408683962e-05 1.5644086815e+00 -2.7096353201e+00 1.5644086815e+00 2.7096353201e+00 
47600 5.7471613333e+00 4.0300493509e-05 1.5644086815e+00 -2.7096353201e+00 1.5644086815e+00 2.7096353201e+00 
47700 5.7471615676e+00 4.1155734756e-05 1.5644086815e+00 -2.7096353201e+00 1.5644086815e+00 2.7096353201e+00 
47800 5.7471617988e+00 4.1974706840e-05 1.5644086815e+00 -2.7096353201e+00 1.5644086815e+00 2.7096353201e+00 
47900 5.7471620270e+00 4.2757731182e-05 1.5644086815e+00 -2.7096353201e+00 1.5644086815e+00 2.7096353201e+00 
48000 5.7471622523e+00 4.3505150363e-05 1.5644086815e+00 -2.7096353201e+00 1.5644086815e+00 2.7096353201e+00 
48100 5.7471624746e+00 4.4217327016e-05 1.5644086815e+00 -2.7096353201e+00 1.5644086815e+00 2.7096353201e+00 
48200 5.7471626941e+00 4.4894642742e-05 1.5644086815e+00 -2.7096353201e+00 1.5644086815e+00 2.7096353201e+00 
48300 5.7471629107e+00 4.5537497053e-05 1.5644086815e+00 -2.7096353201e+00 1.5644086815e+00 2.7096353201e+00 
48400 5.7471631245e+00 4.6146306341e-05 1.5644086815e+00 -2.7096353201e+00 1.5644086815e+00 2.7096353201e+00 
48500 5.7471633356e+00 4.6721502872e-05 1.5644086815e+00 -2.7096353201e+00 1.5644086815e+00 2.7096353201e+00 
48600 5.7471635440e+00 4.7263533796e-05 1.5644086815e+00 -2.7096353201e+00 1.5644086815e+00 2.7096353201e+00 
48700 5.7471637496e+00 4.7772860196e-05 1.5644086815e+00 -2.7096353201e+00 1.5644086815e+00 2.7096353201e+00 
48800 5.7471639526e+00 4.8249956144e-05 1.5644086815e+00 -2.7096353201e+00 1.5644086815e+00 2.7096353201e+00 
48900 5.7471641530e+00 4.8695307796e-05 1.5644086815e+00 -2.7096353201e+00 1.5644086815e+00 2.7096353201e+00 
49000 5.7471643509e+00 4.9109412503e-05 1.5644086815e+00 -2.7096353201e+00 1.5644086815e+00 2.7096353201e+00 
49100 5.7471645462e+00 4.9492777949e-05 1.5644086815e+00 -2.7096353201e+00 1.5644086815e+00 2.7096353201e+00 
49200 5.7471647390e+00 4.9845921308e-05 1.5644086815e+00 -2.7096353201e+00 1.5644086815e+00 2.7096353201e+00 
49300 5.7471649293e+00 5.0169368436e-05 1.5644086815e+00 -2.7096353201e+00 1.5644086815e+00 2.7096353201e+00 
49400 5.7471651172e+00 5.0463653066e-05 1.5644086815e+00 -2.7096353201e+00 1.5644086815e+00 2.7096353201e+00 
49500 5.7471653027e+00 5.0729316052e-05 1.5644086815e+00 -2.7096353201e+00 1.5644086815e+00 2.7096353201e+00 
49600 5.7471654858e+00 5.0966904613e-05 1.5644086815e+00 -2.7096353201e+00 1.5644086815e+00 2.7096353201e+00 
49700 5.7471656666e+00 5.1176971612e-05 1.5644086815e+00 -2.7096353201e+00 1.5644086815e+00 2.7096353201e+00 
49800 5.7471658451e+00 5.1360074858e-05 1.5644086815e+00 -2.7096353201e+00 1.5644086815e+00 2.7096353201e+00 
49900 5.7471660213e+00 5.1516776420e-05 1.5644086815e+00 -2.7096353201e+00 1.5644086815e+00 2.7096353201e+00 
50000 5.7471661952e+00 5.1647641976e-05 1.5644086815e+00 -2.7096353201e+00 1.5644086815e+00 2.7096353201e+00 
50100 5.7471663670e+00 5.1753240174e-05 1.5644086815e+00 -2.7096353201e+00 1.5644086815e+00 2.7096353201e+00 
50200 5.7471665366e+00 5.1834142019e-05 1.5644086815e+00 -2.7096353201e+00 1.5644086815e+00 2.7096353201e+00 
50300 5.7471667040e+00 5.1890920281e-05 1.5644086815e+00 -2.7096353201e+00 1.5644086815e+00 2.7096353201e+00 
50400 5.7471668693e+00 5.1924148921e-05 1.5644086815e+00 -2.7096353201e+00 1.5644086815e+00 2.7096353201e+00 
50500 5.7471670325e+00 5.1934402540e-05 1.5644086815e+00 -2.7096353201e+00 1.5644086815e+00 2.7096353201e+00 
50600 5.7471671936e+00 5.1922255846e-05 1.5644086815e+00 -2.7096353201e+00 1.5644086815e+00 2.7096353201e+00 
50700 5.7471673527e+00 5.1888283148e-05 1.5644086815e+00 -2.7096353201e+00 1.5644086815e+00 2.7096353201e+00 
50800 5.7471675098e+00 5.1833057859e-05 1.5644086815e+00 -2.7096353201e+00 1.5644086815e+00 2.7096353201e+00 
50900 5.7471676649e+00 5.1757152024e-05 1.5644086815e+00 -2.7096353201e+00 1.5644086815e+00 2.7096353201e+00 
51000 5.7471678181e+00 5.1661135871e-05 1.5644086815e+00 -2.7096353201e+00 1.5644086815e+00 2.7096353201e+00 
51100 5.7471679693e+00 5.1545577367e-05 1.5644086815e+00 -2.7096353201e+00 1.5644086815e+00 2.7096353201e+00 
51200 5.7471681186e+00 5.1411041812e-05 1.5644086815e+00 -2.7096353201e+00 1.5644086815e+00 2.7096353201e+00 
51300 5.7471682661e+00 5.1258091433e-05 1.5644086815e+00 -2.7096353201e+00 1.5644086815e+00 2.7096353201e+00 
51400 5.7471684117e+00 5.1087285010e-05 1.5644086815e+00 -2.7096353201e+00 1.5644086815e+00 2.7096353201e+00 
51500 5.7471685554e+00 5.0899177502e-05 1.5644086815e+00 -2.7096353201e+00 1.5644086815e+00 2.7096353201e+00 
51600 5.7471686974e+00 5.0694319708e-05 1.5644086815e+00 -2.7096353201e+00 1.5644086815e+00 2.7096353201e+00 
51700 5.7471688376e+00 5.0473257941e-05 1.5644086815e+00 -2.7096353201e+00 1.5644086815e+00 2.7096353201e+00 
51800 5.7471689760e+00 5.0236533702e-05 1.5644086815e+00 -2.7096353201e+00 1.5644086815e+00 2.7096353201e+00 
51900 5.7471691127e+00 4.9984683394e-05 1.5644086815e+00 -2.7096353201e+00 1.5644086815e+00 2.7096353201e+00 
52000 5.7471692476e+00 4.9718238031e-05 1.5644086815e+00 -2.7096353201e+00 1.5644086815e+00 2.7096353201e+00 
52100 5.7471693809e+00 4.9437722979e-05 1.5644086815e+00 -2.7096353201e+00 1.5644086815e+00 2.7096353201e+00 
52200 5.7471695125e+00 4.9143657698e-05 1.5644086815e+00 -2.7096353201e+00 1.5644086815e+00 2.7096353201e+00 
52300 5.7471696425e+00 4.8836555506e-05 1.5644086815e+00 -2.7096353201e+00 1.5644086815e+00 2.7096353201e+00 
52400 5.7471697708e+00 4.8516923357e-05 1.5644086815e+00 -2.7096353201e+00 1.5644086815e+00 2.7096353201e+00 
52500 5.7471698976e+00 4.8185261635e-05 1.5644086815e+00 -2.7096353201e+00 1.5644086815e+00 2.7096353201e+00 
52600 5.7471700227e+00 4.7842063947e-05 1.5644086815e+00 -2.7096353201e+00 1.5644086815e+00 2.7096353201e+00 
52700 5.7471701463e+00 4.7487816955e-05 1.5644086815e+00 -2.7096353201e+00 1.5644086815e+00 2.7096353201e+00 
52800 5.7471702684e+00 4.7123000196e-05 1.5644086815e+00 -2.7096353201e+00 1.5644086815e+00 2.7096353201e+00 
52900 5.7471703889e+00 4.6748085926e-05 1.5644086815e+00 -2.7096353201e+00 1.5644086815e+00 2.7096353201e+00 
53000 5.7471705079e+00 4.6363538983e-05 1.5644086815e+00 -2.7096353201e+00 1.5644086815e+00 2.7096353201e+00 
53100 5.7471706255e+00 4.5969816643e-05 1.5644086815e+00 -2.7096353201e+00 1.5644086815e+00 2.7096353201e+00 
53200 5.7471707416e+00 4.5567368503e-05 1.5644086815e+00 -2.7096353201e+00 1.5644086815e+00 2.7096353201e+00 
53300 5.7471708562e+00 4.5156636375e-05 1.5644086815e+00 -2.7096353201e+00 1.5644086815e+00 2.7096353201e+00 
53400 5.7471709694e+00 4.4738054179e-05 1.5644086815e+00 -2.7096353201e+00 1.5644086815e+00 2.7096353201e+00 
53500 5.7471710813e+00 4.4312047859e-05 1.5644086815e+00 -2.7096353201e+00 1.5644086815e+00 2.7096353201e+00 
53600 5.7471711917e+00 4.3879035302e-05 1.5644086815e+00 -2.7096353201e+00 1.5644086815e+00 2.7096353201e+00 
53700 5.7471713007e+00 4.3439426270e-05 1.5644086815e+00 -2.7096353201e+00 1.5644086815e+00 2.7096353201e+00 
53800 5.7471714084e+00 4.2993622340e-05 1.5644086815e+00 -2.7096353201e+00 1.5644086815e+00 2.7096353201e+00 
53900 5.7471715148e+00 4.2542016856e-05 1.5644086815e+00 -2.7096353201e+00 1.5644086815e+00 2.7096353201e+00 
54000 5.7471716198e+00 4.2084994885e-05 1.5644086815e+00 -2.7096353201e+00 1.5644086815e+00 2.7096353201e+00 
54100 5.7471717236e+00 4.1622933190e-05 1.5644086815e+00 -2.7096353201e+00 1.5644086815e+00 2.7096353201e+00 
54200 5.7471718260e+00 4.1156200199e-05 1.5644086815e+00 -2.7096353201e+00 1.5644086815e+00 2.7096353201e+00 
54300 5.7471719272e+00 4.0685155994e-05 1.5644086815e+00 -2.7096353201e+00 1.5644086815e+00 2.7096353201e+00 
54400 5.7471720272e+00 4.0210152305e-05 1.5644086815e+00 -2.7096353201e+00 1.5644086815e+00 2.7096353201e+00 
54500 5.7471721259e+00 3.9731532505e-05 1.5644086815e+00 -2.7096353201e+00 1.5644086815e+00 2.7096353201e+00 
54600 5.7471722233e+00 3.9249631616e-05 1.5644086815e+00 -2.7096353201e+00 1.5644086815e+00 2.7096353201e+00 
54700 5.7471723196e+00 3.8764776330e-05 1.5644086815e+00 -2.7096353201e+00 1.5644086815e+00 2.7096353201e+00 
54800 5.7471724147e+00 3.8277285022e-05 1.5644086815e+00 -2.7096353201e+00 1.5644086815e+00 2.7096353201e+00 
54900 5.7471725086e+00 3.7787467784e-05 1.5644086815e+00 -2.7096353201e+00 1.5644086815e+00 2.7096353201e+00 
55000 5.7471726013e+00 3.7295626450e-05 1.5644086815e+00 -2.7096353201e+00 1.5644086815e+00 2.7096353201e+00 
55100 5.7471726929e+00 3.6802054641e-05 1.5644086815e+00 -2.7096353201e+00 1.5644086815e+00 2.7096353201e+00 
55200 5.7471727834e+00 3.6307037810e-05 1.5644086815e+00 -2.7096353201e+00 1.5644086815e+00 2.7096353201e+00 
55300 5.7471728727e+00 3.5810853291e-05 1.5644086815e+00 -2.7096353201e+00 1.5644086815e+00 2.7096353201e+00 
55400 5.7471729610e+00 3.5313770348e-05 1.5644086815e+00 -2.7096353201e+00 1.5644086815e+00 2.7096353201e+00 
55500 5.7471730481e+00 3.4816050249e-05 1.5644086815e+00 -2.7096353201e+00 1.5644086815e+00 2.7096353201e+00 
55600 5.7471731342e+00 3.4317946320e-05 1.5644086815e+00 -2.7096353201e+00 1.5644086815e+00 2.7096353201e+00 
55700 5.7471732192e+00 3.3819704015e-05 1.5644086815e+00 -2.7096353201e+00 1.5644086815e+00 2.7096353201e+00 
55800 5.7471733032e+00 3.3321560996e-05 1.5644086815e+00 -2.7096353201e+00 1.5644086815e+00 2.7096353201e+00 
55900 5.7471733861e+00 3.2823747207e-05 1.5644086815e+00 -2.7096353201e+00 1.5644086815e+00 2.7096353201e+00 
56000 5.7471734680e+00 3.2326484952e-05 1.5644086815e+00 -2.7096353201e+00 1.5644086815e+00 2.7096353201e+00 
56100 5.7471735490e+00 3.1829988988e-05 1.5644086815e+00 -2.7096353201e+00 1.5644086815e+00 2.7096353201e+00 
56200 5.7471736289e+00 3.1334466608e-05 1.5644086815e+00 -2.7096353201e+00 1.5644086815e+00 2.7096353201e+00 
56300 5.7471737078e+00 3.0840117734e-05 1.5644086815e+00 -2.7096353201e+00 1.5644086815e+00 2.7096353201e+00 
56400 5.7471737857e+00 3.0347135012e-05 1.5644086815e+00 -2.7096353201e+00 1.5644086815e+00 2.7096353201e+00 
56500 5.7471738627e+00 2.9855703907e-05 1.5644086815e+00 -2.7096353201e+00 1.5644086815e+00 2.7096353201e+00 
56600 5.7471739388e+00 2.9366002809e-05 1.5644086815e+00 -2.7096353201e+00 1.5644086815e+00 2.7096353201e+00 
56700 5.7471740139e+00 2.8878203132e-05 1.5644086815e+00 -2.7096353201e+00 1.5644086815e+00 2.7096353201e+00 
56800 5.7471740881e+00 2.8392469415e-05 1.5644086815e+00 -2.7096353201e+00 1.5644086815e+00 2.7096353201e+00 
56900 5.7471741614e+00 2.7908959437e-05 1.5644086815e+00 -2.7096353201e+00 1.5644086815e+00 2.7096353201e+00 
57000 5.7471742337e+00 2.7427824317e-05 1.5644086815e+00 -2.7096353201e+00 1.5644086815e+00 2.7096353201e+00 
57100 5.7471743052e+00 2.6949208635e-05 1.5644086815e+00 -2.7096353201e+00 1.5644086815e+00 2.7096353201e+00 
57200 5.7471743758e+00 2.6473250534e-05 1.5644086815e+00 -2.7096353201e+00 1.5644086815e+00 2.7096353201e+00 
57300 5.7471744456e+00 2.6000081837e-05 1.5644086815e+00 -2.7096353201e+00 1.5644086815e+00 2.7096353201e+00 
57400 5.7471745145e+00 2.5529828169e-05 1.5644086815e+00 -2.7096353201e+00 1.5644086815e+00 2.7096353201e+00 
57500 5.7471745825e+00 2.5062609059e-05 1.5644086815e+00 -2.7096353201e+00 1.5644086815e+00 2.7096353201e+00 
57600 5.7471746497e+00 2.4598538069e-05 1.5644086815e+00 -2.7096353201e+00 1.5644086815e+00 2.7096353201e+00 
57700 5.7471747161e+00 2.4137722906e-05 1.5644086815e+00 -2.7096353201e+00 1.5644086815e+00 2.7096353201e+00 
57800 5.7471747817e+00 2.3680265543e-05 1.5644086815e+00 -2.7096353201e+00 1.5644086815e+00 2.7096353201e+00 
57900 5.7471748464e+00 2.3226262339e-05 1.5644086815e+00 -2.7096353201e+00 1.5644086815e+00 2.7096353201e+00 
58000 5.7471749104e+00 2.2775804154e-05 1.5644086815e+00 -2.7096353201e+00 1.5644086815e+00 2.7096353201e+00 
58100 5.7471749736e+00 2.2328976474e-05 1.5644086815e+00 -2.7096353201e+00 1.5644086815e+00 2.7096353201e+00 
58200 5.7471750360e+00 2.1885859527e-05 1.5644086815e+00 -2.7096353201e+00 1.5644086815e+00 2.7096353201e+00 
58300 5.7471750977e+00 2.1446528410e-05 1.5644086815e+00 -2.7096353201e+00 1.5644086815e+00 2.7096353201e+00 
58400 5.7471751586e+00 2.1011053199e-05 1.5644086815e+00 -2.7096353201e+00 1.5644086815e+00 2.7096353201e+00 
58500 5.7471752187e+00 2.0579499081e-05 1.5644086815e+00 -2.7096353201e+00 1.5644086815e+00 2.7096353201e+00 
58600 5.7471752781e+00 2.0151926465e-05 1.5644086815e+00 -2.7096353201e+00 1.5644086815e+00 2.7096353201e+00 
58700 5.7471753368e+00 1.9728391107e-05 1.5644086815e+00 -2.7096353201e+00 1.5644086815e+00 2.7096353201e+00 
58800 5.7471753948e+00 1.9308944225e-05 1.5644086815e+00 -2.7096353201e+00 1.5644086815e+00 2.7096353201e+00 
58900 5.7471754521e+00 1.8893632625e-05 1.5644086815e+00 -2.7096353201e+00 1.5644086815e+00 2.7096353201e+00 
59000 5.7471755086e+00 1.8482498812e-05 1.5644086815e+00 -2.7096353201e+00 1.5644086815e+00 2.7096353201e+00 
59100 5.7471755645e+00 1.8075581112e-05 1.5644086815e+00 -2.7096353201e+00 1.5644086815e+00 2.7096353201e+00 
59200 5.7471756197e+00 1.7672913788e-05 1.5644086815e+00 -2.7096353201e+00 1.5644086815e+00 2.7096353201e+00 
59300 5.7471756742e+00 1.7274527155e-05 1.5644086815e+00 -2.7096353201e+00 1.5644086815e+00 2.7096353201e+00 
59400 5.7471757281e+00 1.6880447701e-05 1.5644086815e+00 -2.7096353201e+00 1.5644086815e+00 2.7096353201e+00 
59500 5.7471757813e+00 1.6490698191e-05 1.5644086815e+00 -2.7096353201e+00 1.5644086815e+00 2.7096353201e+00 
59600 5.7471758339e+00 1.6105297792e-05 1.5644086815e+00 -2.7096353201e+00 1.5644086815e+00 2.7096353201e+00 
59700 5.7471758858e+00 1.5724262180e-05 1.5644086815e+00 -2.7096353201e+00 1.5644086815e+00 2.7096353201e+00 
59800 5.7471759371e+00 1.5347603648e-05 1.5644086815e+00 -2.7096353201e+00 1.5644086815e+00 2.7096353201e+00 
59900 5.7471759877e+00 1.4975331224e-05 1.5644086815e+00 -2.7096353201e+00 1.5644086815e+00 2.7096353201e+00 
60000 5.7471760378e+00 1.4607450774e-05 1.5644086815e+00 -2.7096353201e+00 1.5644086815e+00 2.7096353201e+00 
60100 5.7471760872e+00 1.4243965110e-05 1.5644086815e+00 -2.7096353201e+00 1.5644086815e+00 2.7096353201e+00 
60200 5.7471761360e+00 1.3884874103e-05 1.5644086815e+00 -2.7096353201e+00 1.5644086815e+00 2.7096353201e+00 
60300 5.7471761843e+00 1.3530174780e-05 1.5644086815e+00 -2.7096353201e+00 1.5644086815e+00 2.7096353201e+00 
60400 5.7471762319e+00 1.3179861430e-05 1.5644086815e+00 -2.7096353201e+00 1.5644086815e+00 2.7096353201e+00 
60500 5.7471762790e+00 1.2833925708e-05 1.5644086815e+00 -2.7096353201e+00 1.5644086815e+00 2.7096353201e+00 
60600 5.7471763255e+00 1.2492356734e-05 1.5644086815e+00 -2.7096353201e+00 1.5644086815e+00 2.7096353201e+00 
60700 5.7471763714e+00 1.2155141196e-05 1.5644086815e+00 -2.7096353201e+00 1.5644086815e+00 2.7096353201e+00 
60800 5.7471764168e+00 1.1822263442e-05 1.5644086815e+00 -2.7096353201e+00 1.5644086815e+00 2.7096353201e+00 
60900 5.7471764617e+00 1.1493705579e-05 1.5644086815e+00 -2.7096353201e+00 1.5644086815e+00 2.7096353201e+00 
61000 5.7471765059e+00 1.1169447568e-05 1.5644086815e+00 -2.7096353201e+00 1.5644086815e+00 2.7096353201e+00 
61100 5.7471765497e+00 1.0849467317e-05 1.5644086815e+00 -2.7096353201e+00 1.5644086815e+00 2.7096353201e+00 
61200 5.7471765929e+00 1.0533740771e-05 1.5644086815e+00 -2.7096353201e+00 1.5644086815e+00 2.7096353201e+00 
61300 5.7471766356e+00 1.0222242002e-05 1.5644086815e+00 -2.7096353201e+00 1.5644086815e+00 2.7096353201e+00 
61400 5.7471766778e+00 9.9149432990e-06 1.5644086815e+00 -2.7096353201e+00 1.5644086815e+00 2.7096353201e+00 
61500 5.7471767195e+00 9.6118152507e-06 1.5644086815e+00 -2.7096353201e+00 1.5644086815e+00 2.7096353201e+00 
61600 5.7471767606e+00 9.3128268327e-06 1.5644086815e+00 -2.7096353201e+00 1.5644086815e+00 2.7096353201e+00 
61700 5.7471768013e+00 9.0179454901e-06 1.5644086815e+00 -2.7096353201e+00 1.5644086815e+00 2.7096353201e+00 
61800 5.7471768415e+00 8.7271372185e-06 1.5644086815e+00 -2.7096353201e+00 1.5644086815e+00 2.7096353201e+00 
61900 5.7471768812e+00 8.4403666428e-06 1.5644086815e+00 -2.7096353201e+00 1.5644086815e+00 2.7096353201e+00 
62000 5.7471769204e+00 8.1575970952e-06 1.5644086815e+00 -2.7096353201e+00 1.5644086815e+00 2.7096353201e+00 
62100 5.7471769591e+00 7.8787906937e-06 1.5644086815e+00 -2.7096353201e+00 1.5644086815e+00 2.7096353201e+00 
62200 5.7471769974e+00 7.6039084090e-06 1.5644086815e+00 -2.7096353201e+00 1.5644086815e+00 2.7096353201e+00 
62300 5.7471770352e+00 7.3329101486e-06 1.5644086815e+00 -2.7096353201e+00 1.5644086815e+00 2.7096353201e+00 
62400 5.7471770725e+00 7.0657548150e-06 1.5644086815e+00 -2.7096353201e+00 1.5644086815e+00 2.7096353201e+00 
62500 5.7471771094e+00 6.8024003840e-06 1.5644086815e+00 -2.7096353201e+00 1.5644086815e+00 2.7096353201e+00 
62600 5.7471771459e+00 6.5428039676e-06 1.5644086815e+00 -2.7096353201e+00 1.5644086815e+00 2.7096353201e+00 
62700 5.7471771819e+00 6.2869218822e-06 1.5644086815e+00 -2.7096353201e+00 1.5644086815e+00 2.7096353201e+00 
62800 5.7471772175e+00 6.0347097093e-06 1.5644086815e+00 -2.7096353201e+00 1.5644086815e+00 2.7096353201e+00 
62900 5.7471772526e+00 5.7861223598e-06 1.5644086815e+00 -2.7096353201e+00 1.5644086815e+00 2.7096353201e+00 
63000 5.7471772874e+00 5.5411141335e-06 1.5644086815e+00 -2.7096353201e+00 1.5644086815e+00 2.7096353201e+00 
63100 5.7471773217e+00 5.2996387797e-06 1.5644086815e+00 -2.7096353201e+00 1.5644086815e+00 2.7096353201e+00 
63200 5.7471773556e+00 5.0616495504e-06 1.5644086815e+00 -2.7096353201e+00 1.5644086815e+00 2.7096353201e+00 
63300 5.7471773891e+00 4.8270992605e-06 1.5644086815e+00 -2.7096353201e+00 1.5644086815e+00 2.7096353201e+00 
63400 5.7471774221e+00 4.5959403378e-06 1.5644086815e+00 -2.7096353201e+00 1.5644086815e+00 2.7096353201e+00 
63500 5.7471774548e+00 4.3681248749e-06 1.5644086815e+00 -2.7096353201e+00 1.5644086815e+00 2.7096353201e+00 
63600 5.7471774871e+00 4.1436046855e-06 1.5644086815e+00 -2.7096353201e+00 1.5644086815e+00 2.7096353201e+00 
63700 5.7471775190e+00 3.9223313438e-06 1.5644086815e+00 -2.7096353201e+00 1.5644086815e+00 2.7096353201e+00 
63800 5.7471775506e+00 3.7042562405e-06 1.5644086815e+00 -2.7096353201e+00 1.5644086815e+00 2.7096353201e+00 
63900 5.7471775817e+00 3.4893306241e-06 1.5644086815e+00 -2.7096353201e+00 1.5644086815e+00 2.7096353201e+00 
64000 5.7471776125e+00 3.2775056439e-06 1.5644086815e+00 -2.7096353201e+00 1.5644086815e+00 2.7096353201e+00 
64100 5.7471776429e+00 3.0687323942e-06 1.5644086815e+00 -2.7096353201e+00 1.5644086815e+00 2.7096353201e+00 
64200 5.7471776729e+00 2.8629619576e-06 1.5644086815e+00 -2.7096353201e+00 1.5644086815e+00 2.7096353201e+00 
64300 5.7471777026e+00 2.6601454411e-06 1.5644086815e+00 -2.7096353201e+00 1.5644086815e+00 2.7096353201e+00 
64400 5.7471777319e+00 2.4602340155e-06 1.5644086815e+00 -2.7096353201e+00 1.5644086815e+00 2.7096353201e+00 
64500 5.7471777609e+00 2.2631789516e-06 1.5644086815e+00 -2.7096353201e+00 1.5644086815e+00 2.7096353201e+00 
64600 5.7471777895e+00 2.0689316554e-06 1.5644086815e+00 -2.7096353201e+00 1.5644086815e+00 2.7096353201e+00 
64700 5.7471778178e+00 1.8774437022e-06 1.5644086815e+00 -2.7096353201e+00 1.5644086815e+00 2.7096353201e+00 
64800 5.7471778457e+00 1.6886668693e-06 1.5644086815e+00 -2.7096353201e+00 1.5644086815e+00 2.7096353201e+00 
64900 5.7471778733e+00 1.5025531660e-06 1.5644086815e+00 -2.7096353201e+00 1.5644086815e+00 2.7096353201e+00 
65000 5.7471779006e+00 1.3190548626e-06 1.5644086815e+00 -2.7096353201e+00 1.5644086815e+00 2.7096353201e+00 
65100 5.7471779276e+00 1.1381245203e-06 1.5644086815e+00 -2.7096353201e+00 1.5644086815e+00 2.7096353201e+00 
65200 5.7471779542e+00 9.5971501846e-07 1.5644086815e+00 -2.7096353201e+00 1.5644086815e+00 2.7096353201e+00 
65300 5.7471779805e+00 7.8377957807e-07 1.5644086815e+00 -2.7096353201e+00 1.5644086815e+00 2.7096353201e+00 
65400 5.7471780065e+00 6.1027178663e-07 1.5644086815e+00 -2.7096353201e+00 1.5644086815e+00 2.7096353201e+00 
65500 5.7471780322e+00 4.3914562572e-07 1.5644086815e+00 -2.7096353201e+00 1.5644086815e+00 2.7096353201e+00 
65600 5.7471780575e+00 2.7035548413e-07 1.5644086815e+00 -2.7096353201e+00 1.5644086815e+00 2.7096353201e+00 
65700 5.7471780826e+00 1.0385618903e-07 1.5644086815e+00 -2.7096353201e+00 1.5644086815e+00 2.7096353201e+00 
65800 5.7471781074e+00 -6.0396981912e-08 1.5644086815e+00 -2.7096353201e+00 1.5644086815e+00 2.7096353201e+00 
65900 5.7471781319e+00 -2.2244827963e-07 1.5644086815e+00 -2.7096353201e+00 1.5644086815e+00 2.7096353201e+00 
66000 5.7471781561e+00 -3.8234146474e-07 1.5644086815e+00 -2.7096353201e+00 1.5644086815e+00 2.7096353201e+00 
66100 5.7471781799e+00 -5.4011979338e-07 1.5644086815e+00 -2.7096353201e+00 1.5644086815e+00 2.7096353201e+00 
66200 5.7471782036e+00 -6.9582599960e-07 1.5644086815e+00 -2.7096353201e+00 1.5644086815e+00 2.7096353201e+00 
66300 5.7471782269e+00 -8.4950228554e-07 1.5644086815e+00 -2.7096353201e+00 1.5644086815e+00 2.7096353201e+00 
66400 5.7471782499e+00 -1.0011903009e-06 1.5644086815e+00 -2.7096353201e+00 1.5644086815e+00 2.7096353201e+00 
66500 5.7471782727e+00 -1.1509311377e-06 1.5644086815e+00 -2.7096353201e+00 1.5644086815e+00 2.7096353201e+00 
66600 5.7471782952e+00 -1.2987653156e-06 1.5644086815e+00 -2.7096353201e+00 1.5644086815e+00 2.7096353201e+00 
66700 5.7471783175e+00 -1.4447327712e-06 1.5644086815e+00 -2.7096353201e+00 1.5644086815e+00 2.7096353201e+00 
66800 5.7471783394e+00 -1.5888728490e-06 1.5644086815e+00 -2.7096353201e+00 1.5644086815e+00 2.7096353201e+00 
66900 5.7471783611e+00 -1.7312242941e-06 1.5644086815e+00 -2.7096353201e+00 1.5644086815e+00 2.7096353201e+00 
67000 5.7471783826e+00 -1.8718252433e-06 1.5644086815e+00 -2.7096353201e+00 1.5644086815e+00 2.7096353201e+00 
67100 5.7471784038e+00 -2.0107132155e-06 1.5644086815e+00 -2.7096353201e+00 1.5644086815e+00 2.7096353201e+00 
67200 5.7471784247e+00 -2.1479251116e-06 1.5644086815e+00 -2.7096353201e+00 1.5644086815e+00 2.7096353201e+00 
67300 5.7471784454e+00 -2.2834972033e-06 1.5644086815e+00 -2.7096353201e+00 1.5644086815e+00 2.7096353201e+00 
67400 5.7471784659e+00 -2.4174651308e-06 1.5644086815e+00 -2.7096353201e+00 1.5644086815e+00 2.7096353201e+00 
67500 5.7471784861e+00 -2.5498639007e-06 1.5644086815e+00 -2.7096353201e+00 1.5644086815e+00 2.7096353201e+00 
67600 5.7471785060e+00 -2.6807278781e-06 1.5644086815e+00 -2.7096353201e+00 1.5644086815e+00 2.7096353201e+00 
67700 5.7471785258e+00 -2.8100907900e-06 1.5644086815e+00 -2.7096353201e+00 1.5644086815e+00 2.7096353201e+00 
67800 5.7471785453e+00 -2.9379857191e-06 1.5644086815e+00 -2.7096353201e+00 1.5644086815e+00 2.7096353201e+00 
67900 5.7471785645e+00 -3.0644451032e-06 1.5644086815e+00 -2.7096353201e+00 1.5644086815e+00 2.7096353201e+00 
68000 5.7471785836e+00 -3.1895007357e-06 1.5644086815e+00 -2.7096353201e+00 1.5644086815e+00 2.7096353201e+00 
68100 5.7471786024e+00 -3.3131837663e-06 1.5644086815e+00 -2.7096353201e+00 1.5644086815e+00 2.7096353201e+00 
68200 5.7471786210e+00 -3.4355246978e-06 1.5644086815e+00 -2.7096353201e+00 1.5644086815e+00 2.7096353201e+00 
68300 5.7471786393e+00 -3.5565533932e-06 1.5644086815e+00 -2.7096353201e+00 1.5644086815e+00 2.7096353201e+00 
68400 5.7471786575e+00 -3.6762990719e-06 1.5644086815e+00 -2.7096353201e+00 1.5644086815e+00 2.7096353201e+00 
68500 5.7471786754e+00 -3.7947903150e-06 1.5644086815e+00 -2.7096353201e+00 1.5644086815e+00 2.7096353201e+00 
68600 5.7471786931e+00 -3.9120550646e-06 1.5644086815e+00 -2.7096353201e+00 1.5644086815e+00 2.7096353201e+00 
68700 5.7471787106e+00 -4.0281206321e-06 1.5644086815e+00 -2.7096353201e+00 1.5644086815e+00 2.7096353201e+00 
68800 5.7471787279e+00 -4.1430136962e-06 1.5644086815e+00 -2.7096353201e+00 1.5644086815e+00 2.7096353201e+00 
68900 5.7471787450e+00 -4.2567603122e-06 1.5644086815e+00 -2.7096353201e+00 1.5644086815e+00 2.7096353201e+00 
69000 5.7471787619e+00 -4.3693859112e-06 1.5644086815e+00 -2.7096353201e+00 1.5644086815e+00 2.7096353201e+00 
69100 5.7471787786e+00 -4.4809153087e-06 1.5644086815e+00 -2.7096353201e+00 1.5644086815e+00 2.7096353201e+00 
69200 5.7471787951e+00 -4.5913727083e-06 1.5644086815e+00 -2.7096353201e+00 1.5644086815e+00 2.7096353201e+00 
69300 5.7471788114e+00 -4.7007817053e-06 1.5644086815e+00 -2.7096353201e+00 1.5644086815e+00 2.7096353201e+00 
69400 5.7471788275e+00 -4.8091652985e-06 1.5644086815e+00 -2.7096353201e+00 1.5644086815e+00 2.7096353201e+00 
69500 5.7471788434e+00 -4.9165458868e-06 1.5644086815e+00 -2.7096353201e+00 1.5644086815e+00 2.7096353201e+00 
69600 5.7471788591e+00 -5.0229452861e-06 1.5644086815e+00 -2.7096353201e+00 1.5644086815e+00 2.7096353201e+00 
69700 5.7471788747e+00 -5.1283847287e-06 1.5644086815e+00 -2.7096353201e+00 1.5644086815e+00 2.7096353201e+00 
69800 5.7471788900e+00 -5.2328848725e-06 1.5644086815e+00 -2.7096353201e+00 1.5644086815e+00 2.7096353201e+00 
69900 5.7471789052e+00 -5.3364658071e-06 1.5644086815e+00 -2.7096353201e+00 1.5644086815e+00 2.7096353201e+00 
70000 5.7471789202e+00 -5.4391470652e-06 1.5644086815e+00 -2.7096353201e+00 1.5644086815e+00 2.7096353201e+00 
70100 5.7471789350e+00 -5.5409476256e-06 1.5644086815e+00 -2.7096353201e+00 1.5644086815e+00 2.7096353201e+00 
70200 5.7471789497e+00 -5.6418859223e-06 1.5644086815e+00 -2.7096353201e+00 1.5644086815e+00 2.7096353201e+00 
70300 5.7471789641e+00 -5.7419798552e-06 1.5644086815e+00 -2.7096353201e+00 1.5644086815e+00 2.7096353201e+00 
70400 5.7471789784e+00 -5.8412467958e-06 1.5644086815e+00 -2.7096353201e+00 1.5644086815e+00 2.7096353201e+00 
70500 5.7471789926e+00 -5.9397035936e-06 1.5644086815e+00 -2.7096353201e+00 1.5644086815e+00 2.7096353201e+00 
70600 5.7471790065e+00 -6.0373665898e-06 1.5644086815e+00 -2.7096353201e+00 1.5644086815e+00 2.7096353201e+00 
70700 5.7471790203e+00 -6.1342516227e-06 1.5644086815e+00 -2.7096353201e+00 1.5644086815e+00 2.7096353201e+00 
70800 5.7471790340e+00 -6.2303740342e-06 1.5644086815e+00 -2.7096353201e+00 1.5644086815e+00 2.7096353201e+00 
70900 5.7471790475e+00 -6.3257486879e-06 1.5644086815e+00 -2.7096353201e+00 1.5644086815e+00 2.7096353201e+00 
71000 5.7471790608e+00 -6.4203899643e-06 1.5644086815e+00 -2.7096353201e+00 1.5644086815e+00 2.7096353201e+00 
71100 5.7471790739e+00 -6.5143117832e-06 1.5644086815e+00 -2.7096353201e+00 1.5644086815e+00 2.7096353201e+00 
71200 5.7471790869e+00 -6.6075276014e-06 1.5644086815e+00 -2.7096353201e+00 1.5644086815e+00 2.7096353201e+00 
71300 5.7471790998e+00 -6.7000504307e-06 1.5644086815e+00 -2.7096353201e+00 1.5644086815e+00 2.7096353201e+00 
71400 5.7471791125e+00 -6.7918928446e-06 1.5644086815e+00 -2.7096353201e+00 1.5644086815e+00 2.7096353201e+00 
71500 5.7471791250e+00 -6.8830669839e-06 1.5644086815e+00 -2.7096353201e+00 1.5644086815e+00 2.7096353201e+00 
71600 5.7471791375e+00 -6.9735845696e-06 1.5644086815e+00 -2.7096353201e+00 1.5644086815e+00 2.7096353201e+00 
71700 5.7471791497e+00 -7.0634569121e-06 1.5644086815e+00 -2.7096353201e+00 1.5644086815e+00 2.7096353201e+00 
71800 5.7471791618e+00 -7.1526949210e-06 1.5644086815e+00 -2.7096353201e+00 1.5644086815e+00 2.7096353201e+00 
71900 5.7471791738e+00 -7.2413091108e-06 1.5644086815e+00 -2.7096353201e+00 1.5644086815e+00 2.7096353201e+00 
72000 5.7471791856e+00 -7.3293096123e-06 1.5644086815e+00 -2.7096353201e+00 1.5644086815e+00 2.7096353201e+00 
72100 5.7471791973e+00 -7.4167061868e-06 1.5644086815e+00 -2.7096353201e+00 1.5644086815e+00 2.7096353201e+00 
72200 5.7471792089e+00 -7.5035082247e-06 1.5644086815e+00 -2.7096353201e+00 1.5644086815e+00 2.7096353201e+00 
72300 5.7471792203e+00 -7.5897247679e-06 1.5644086815e+00 -2.7096353201e+00 1.5644086815e+00 2.7096353201e+00 
72400 5.7471792316e+00 -7.6753645041e-06 1.5644086815e+00 -2.7096353201e+00 1.5644086815e+00 2.7096353201e+00 
72500 5.7471792427e+00 -7.7604357906e-06 1.5644086815e+00 -2.7096353201e+00 1.5644086815e+00 2.7096353201e+00 
72600 5.7471792537e+00 -7.8449466534e-06 1.5644086815e+00 -2.7096353201e+00 1.5644086815e+00 2.7096353201e+00 
72700 5.7471792646e+00 -7.9289048002e-06 1.5644086815e+00 -2.7096353201e+00 1.5644086815e+00 2.7096353201e+00 
72800 5.7471792754e+00 -8.0123176296e-06 1.5644086815e+00 -2.7096353201e+00 1.5644086815e+00 2.7096353201e+00 
72900 5.7471792860e+00 -8.0951922380e-06 1.5644086815e+00 -2.7096353201e+00 1.5644086815e+00 2.7096353201e+00 
73000 5.7471792965e+00 -8.1775354298e-06 1.5644086815e+00 -2.7096353201e+00 1.5644086815e+00 2.7096353201e+00 
73100 5.7471793069e+00 -8.2593537263e-06 1.5644086815e+00 -2.7096353201e+00 1.5644086815e+00 2.7096353201e+00 
73200 5.7471793172e+00 -8.3406533752e-06 1.5644086815e+00 -2.7096353201e+00 1.5644086815e+00 2.7096353201e+00 
73300 5.7471793273e+00 -8.4214403538e-06 1.5644086815e+00 -2.7096353201e+00 1.5644086815e+00 2.7096353201e+00 
73400 5.7471793374e+00 -8.5017203876e-06 1.5644086815e+00 -2.7096353201e+00 1.5644086815e+00 2.7096353201e+00 
73500 5.7471793473e+00 -8.5814989487e-06 1.5644086815e+00 -2.7096353201e+00 1.5644086815e+00 2.7096353201e+00 
73600 5.7471793571e+00 -8.6607812687e-06 1.5644086815e+00 -2.7096353201e+00 1.5644086815e+00 2.7096353201e+00 
73700 5.7471793667e+00 -8.7395723479e-06 1.5644086815e+00 -2.7096353201e+00 1.5644086815e+00 2.7096353201e+00 
73800 5.7471793763e+00 -8.8178769597e-06 1.5644086815e+00 -2.7096353201e+00 1.5644086815e+00 2.7096353201e+00 
73900 5.7471793858e+00 -8.8956996615e-06 1.5644086815e+00 -2.7096353201e+00 1.5644086815e+00 2.7096353201e+00 
74000 5.7471793951e+00 -8.9730448023e-06 1.5644086815e+00 -2.7096353201e+00 1.5644086815e+00 2.7096353201e+00 
74100 5.7471794043e+00 -9.0499165291e-06 1.5644086815e+00 -2.7096353201e+00 1.5644086815e+00 2.7096353201e+00 
74200 5.7471794135e+00 -9.1263187946e-06 1.5644086815e+00 -2.7096353201e+00 1.5644086815e+00 2.7096353201e+00 
74300 5.7471794225e+00 -9.2022553661e-06 1.5644086815e+00 -2.7096353201e+00 1.5644086815e+00 2.7096353201e+00 
74400 5.7471794314e+00 -9.2777298304e-06 1.5644086815e+00 -2.7096353201e+00 1.5644086815e+00 2.7096353201e+00 
74500 5.7471794402e+00 -9.3527456036e-06 1.5644086815e+00 -2.7096353201e+00 1.5644086815e+00 2.7096353201e+00 
74600 5.7471794489e+00 -9.4273059374e-06 1.5644086815e+00 -2.7096353201e+00 1.5644086815e+00 2.7096353201e+00 
74700 5.7471794575e+00 -9.5014139250e-06 1.5644086815e+00 -2.7096353201e+00 1.5644086815e+00 2.7096353201e+00 
74800 5.7471794660e+00 -9.5750725061e-06 1.5644086815e+00 -2.7096353201e+00 1.5644086815e+00 2.7096353201e+00 
74900 5.7471794744e+00 -9.6482844812e-06 1.5644086815e+00 -2.7096353201e+00 1.5644086815e+00 2.7096353201e+00 
75000 5.7471794827e+00 -9.7210525079e-06 1.5644086815e+00 -2.7096353201e+00 1.5644086815e+00 2.7096353201e+00 
75100 5.7471794909e+00 -9.7933791148e-06 1.5644086815e+00 -2.7096353201e+00 1.5644086815e+00 2.7096353201e+00 
75200 5.7471794990e+00 -9.8652667048e-06 1.5644086815e+00 -2.7096353201e+00 1.5644086815e+00 2.7096353201e+00 
75300 5.7471795071e+00 -9.9367175593e-06 1.5644086815e+00 -2.7096353201e+00 1.5644086815e+00 2.7096353201e+00 
75400 5.7471795150e+00 -1.0007733852e-05 1.5644086815e+00 -2.7096353201e+00 1.5644086815e+00 2.7096353201e+00 
75500 5.7471795228e+00 -1.0078317641e-05 1.5644086815e+00 -2.7096353201e+00 1.5644086815e+00 2.7096353201e+00 
75600 5.7471795306e+00 -1.0148470890e-05 1.5644086815e+00 -2.7096353201e+00 1.5644086815e+00 2.7096353201e+00 
75700 5.7471795382e+00 -1.0218195463e-05 1.5644086815e+00 -2.7096353201e+00 1.5644086815e+00 2.7096353201e+00 
75800 5.7471795458e+00 -1.0287493132e-05 1.5644086815e+00 -2.7096353201e+00 1.5644086815e+00 2.7096353201e+00 
75900 5.7471795532e+00 -1.0356365587e-05 1.5644086815e+00 -2.7096353201e+00 1.5644086815e+00 2.7096353201e+00 
76000 5.7471795606e+00 -1.0424814433e-05 1.5644086815e+00 -2.7096353201e+00 1.5644086815e+00 2.7096353201e+00 
76100 5.7471795679e+00 -1.0492841205e-05 1.5644086815e+00 -2.7096353201e+00 1.5644086815e+00 2.7096353201e+00 
76200 5.7471795751e+00 -1.0560447361e-05 1.5644086815e+00 -2.7096353201e+00 1.5644086815e+00 2.7096353201e+00 
76300 5.7471795823e+00 -1.0627634296e-05 1.5644086815e+00 -2.7096353201e+00 1.5644086815e+00 2.7096353201e+00 
76400 5.7471795893e+00 -1.0694403345e-05 1.5644086815e+00 -2.7096353201e+00 1.5644086815e+00 2.7096353201e+00 
76500 5.7471795963e+00 -1.0760755782e-05 1.5644086815e+00 -2.7096353201e+00 1.5644086815e+00 2.7096353201e+00 
76600 5.7471796032e+00 -1.0826692832e-05 1.5644086815e+00 -2.7096353201e+00 1.5644086815e+00 2.7096353201e+00 
76700 5.7471796100e+00 -1.0892215670e-05 1.5644086815e+00 -2.7096353201e+00 1.5644086815e+00 2.7096353201e+00 
76800 5.7471796167e+00 -1.0957325425e-05 1.5644086815e+00 -2.7096353201e+00 1.5644086815e+00 2.7096353201e+00 
76900 5.7471796233e+00 -1.1022023186e-05 1.5644086815e+00 -2.7096353201e+00 1.5644086815e+00 2.7096353201e+00 
77000 5.7471796299e+00 -1.1086310007e-05 1.5644086815e+00 -2.7096353201e+00 1.5644086815e+00 2.7096353201e+00 
77100 5.7471796364e+00 -1.1150186906e-05 1.5644086815e+00 -2.7096353201e+00 1.5644086815e+00 2.7096353201e+00 
77200 5.7471796428e+00 -1.1213654873e-05 1.5644086815e+00 -2.7096353201e+00 1.5644086815e+00 2.7096353201e+00 
77300 5.7471796492e+00 -1.1276714869e-05 1.5644086815e+00 -2.7096353201e+00 1.5644086815e+00 2.7096353201e+00 
77400 5.7471796554e+00 -1.1339367834e-05 1.5644086815e+00 -2.7096353201e+00 1.5644086815e+00 2.7096353201e+00 
77500 5.7471796616e+00 -1.1401614687e-05 1.5644086815e+00 -2.7096353201e+00 1.5644086815e+00 2.7096353201e+00 
77600 5.7471796677e+00 -1.1463456330e-05 1.5644086815e+00 -2.7096353201e+00 1.5644086815e+00 2.7096353201e+00 
77700 5.7471796738e+00 -1.1524893651e-05 1.5644086815e+00 -2.7096353201e+00 1.5644086815e+00 2.7096353201e+00 
77800 5.7471796798e+00 -1.1585927524e-05 1.5644086815e+00 -2.7096353201e+00 1.5644086815e+00 2.7096353201e+00 
77900 5.7471796857e+00 -1.1646558820e-05 1.5644086815e+00 -2.7096353201e+00 1.5644086815e+00 2.7096353201e+00 
78000 5.7471796915e+00 -1.1706788396e-05 1.5644086815e+00 -2.7096353201e+00 1.5644086815e+00 2.7096353201e+00 
78100 5.7471796973e+00 -1.1766617111e-05 1.5644086815e+00 -2.7096353201e+00 1.5644086815e+00 2.7096353201e+00 
78200 5.7471797030e+00 -1.1826045820e-05 1.5644086815e+00 -2.7096353201e+00 1.5644086815e+00 2.7096353201e+00 
78300 5.7471797087e+00 -1.1885075378e-05 1.5644086815e+00 -2.7096353201e+00 1.5644086815e+00 2.7096353201e+00 
78400 5.7471797142e+00 -1.1943706645e-05 1.5644086815e+00 -2.7096353201e+00 1.5644086815e+00 2.7096353201e+00 
78500 5.7471797198e+00 -1.2001940484e-05 1.5644086815e+00 -2.7096353201e+00 1.5644086815e+00 2.7096353201e+00 
78600 5.7471797252e+00 -1.2059777764e-05 1.5644086815e+00 -2.7096353201e+00 1.5644086815e+00 2.7096353201e+00 
78700 5.7471797306e+00 -1.2117219364e-05 1.5644086815e+00 -2.7096353201e+00 1.5644086815e+00 2.7096353201e+00 
78800 5.7471797359e+00 -1.2174266172e-05 1.5644086815e+00 -2.7096353201e+00 1.5644086815e+00 2.7096353201e+00 
78900 5.7471797412e+00 -1.2230919087e-05 1.5644086815e+00 -2.7096353201e+00 1.5644086815e+00 2.7096353201e+00 
79000 5.7471797464e+00 -1.2287179024e-05 1.5644086815e+00 -2.7096353201e+00 1.5644086815e+00 2.7096353201e+00 
79100 5.7471797515e+00 -1.2343046910e-05 1.5644086815e+00 -2.7096353201e+00 1.5644086815e+00 2.7096353201e+00 
79200 5.7471797566e+00 -1.2398523688e-05 1.5644086815e+00 -2.7096353201e+00 1.5644086815e+00 2.7096353201e+00 
79300 5.7471797616e+00 -1.2453610318e-05 1.5644086815e+00 -2.7096353201e+00 1.5644086815e+00 2.7096353201e+00 
79400 5.7471797666e+00 -1.2508307781e-05 1.5644086815e+00 -2.7096353201e+00 1.5644086815e+00 2.7096353201e+00 
79500 5.7471797715e+00 -1.2562617075e-05 1.5644086815e+00 -2.7096353201e+00 1.5644086815e+00 2.7096353201e+00 
79600 5.7471797763e+00 -1.2616539219e-05 1.5644086815e+00 -2.7096353201e+00 1.5644086815e+00 2.7096353201e+00 
79700 5.7471797811e+00 -1.2670075251e-05 1.5644086815e+00 -2.7096353201e+00 1.5644086815e+00 2.7096353201e+00 
79800 5.7471797859e+00 -1.2723226236e-05 1.5644086815e+00 -2.7096353201e+00 1.5644086815e+00 2.7096353201e+00 
79900 5.7471797905e+00 -1.2775993257e-05 1.5644086815e+00 -2.7096353201e+00 1.5644086815e+00 2.7096353201e+00 
80000 5.7471797952e+00 -1.2828377424e-05 1.5644086815e+00 -2.7096353201e+00 1.5644086815e+00 2.7096353201e+00 
80100 5.7471797997e+00 -1.2880379869e-05 1.5644086815e+00 -2.7096353201e+00 1.5644086815e+00 2.7096353201e+00 
80200 5.7471798043e+00 -1.2932001752e-05 1.5644086815e+00 -2.7096353201e+00 1.5644086815e+00 2.7096353201e+00 
80300 5.7471798087e+00 -1.2983244253e-05 1.5644086815e+00 -2.7096353201e+00 1.5644086815e+00 2.7096353201e+00 
80400 5.7471798132e+00 -1.3034108581e-05 1.5644086815e+00 -2.7096353201e+00 1.5644086815e+00 2.7096353201e+00 
80500 5.7471798175e+00 -1.3084595973e-05 1.5644086815e+00 -2.7096353201e+00 1.5644086815e+00 2.7096353201e+00 
80600 5.7471798218e+00 -1.3134707688e-05 1.5644086815e+00 -2.7096353201e+00 1.5644086815e+00 2.7096353201e+00 
80700 5.7471798261e+00 -1.3184445014e-05 1.5644086815e+00 -2.7096353201e+00 1.5644086815e+00 2.7096353201e+00 
80800 5.7471798303e+00 -1.3233809266e-05 1.5644086815e+00 -2.7096353201e+00 1.5644086815e+00 2.7096353201e+00 
80900 5.7471798345e+00 -1.3282801784e-05 1.5644086815e+00 -2.7096353201e+00 1.5644086815e+00 2.7096353201e+00 
81000 5.7471798386e+00 -1.3331423938e-05 1.5644086815e+00 -2.7096353201e+00 1.5644086815e+00 2.7096353201e+00 
81100 5.7471798427e+00 -1.3379677123e-05 1.5644086815e+00 -2.7096353201e+00 1.5644086815e+00 2.7096353201e+00 
81200 5.7471798467e+00 -1.3427562763e-05 1.5644086815e+00 -2.7096353201e+00 1.5644086815e+00 2.7096353201e+00 
81300 5.7471798507e+00 -1.3475082306e-05 1.5644086815e+00 -2.7096353201e+00 1.5644086815e+00 2.7096353201e+00 
81400 5.7471798546e+00 -1.3522237229e-05 1.5644086815e+00 -2.7096353201e+00 1.5644086815e+00 2.7096353201e+00 
81500 5.7471798585e+00 -1.3569029035e-05 1.5644086815e+00 -2.7096353201e+00 1.5644086815e+00 2.7096353201e+00 
81600 5.7471798624e+00 -1.3615459252e-05 1.5644086815e+00 -2.7096353201e+00 1.5644086815e+00 2.7096353201e+00 
81700 5.7471798661e+00 -1.3661529443e-05 1.5644086815e+00 -2.7096353201e+00 1.5644086815e+00 2.7096353201e+00 
81800 5.7471798699e+00 -1.3707241184e-05 1.5644086815e+00 -2.7096353201e+00 1.5644086815e+00 2.7096353201e+00 
81900 5.7471798736e+00 -1.3752596086e-05 1.5644086815e+00 -2.7096353201e+00 1.5644086815e+00 2.7096353201e+00 
82000 5.7471798773e+00 -1.3797595783e-05 1.5644086815e+00 -2.7096353201e+00 1.5644086815e+00 2.7096353201e+00 
82100 5.7471798809e+00 -1.3842241934e-05 1.5644086815e+00 -2.7096353201e+00 1.5644086815e+00 2.7096353201e+00 
82200 5.7471798845e+00 -1.3886536224e-05 1.5644086815e+00 -2.7096353201e+00 1.5644086815e+00 2.7096353201e+00 
82300 5.7471798880e+00 -1.3930480360e-05 1.5644086815e+00 -2.7096353201e+00 1.5644086815e+00 2.7096353201e+00 
82400 5.7471798915e+00 -1.3974076075e-05 1.5644086815e+00 -2.7096353201e+00 1.5644086815e+00 2.7096353201e+00 
82500 5.7471798950e+00 -1.4017325126e-05 1.5644086815e+00 -2.7096353201e+00 1.5644086815e+00 2.7096353201e+00 
82600 5.7471798984e+00 -1.4060229291e-05 1.5644086815e+00 -2.7096353201e+00 1.5644086815e+00 2.7096353201e+00 
82700 5.7471799018e+00 -1.4102790372e-05 1.5644086815e+00 -2.7096353201e+00 1.5644086815e+00 2.7096353201e+00 
82800 5.7471799052e+00 -1.4145010193e-05 1.5644086815e+00 -2.7096353201e+00 1.5644086815e+00 2.7096353201e+00 
82900 5.7471799085e+00 -1.4186890600e-05 1.5644086815e+00 -2.7096353201e+00 1.5644086815e+00 2.7096353201e+00 
83000 5.7471799117e+00 -1.4228433458e-05 1.5644086815e+00 -2.7096353201e+00 1.5644086815e+00 2.7096353201e+00 
83100 5.7471799150e+00 -1.4269640652e-05 1.5644086815e+00 -2.7096353201e+00 1.5644086815e+00 2.7096353201e+00 
83200 5.7471799182e+00 -1.4310514091e-05 1.5644086815e+00 -2.7096353201e+00 1.5644086815e+00 2.7096353201e+00 
83300 5.7471799213e+00 -1.4351055700e-05 1.5644086815e+00 -2.7096353201e+00 1.5644086815e+00 2.7096353201e+00 
83400 5.7471799244e+00 -1.4391267421e-05 1.5644086815e+00 -2.7096353201e+00 1.5644086815e+00 2.7096353201e+00 
83500 5.7471799275e+00 -1.4431151218e-05 1.5644086815e+00 -2.7096353201e+00 1.5644086815e+00 2.7096353201e+00 
83600 5.7471799306e+00 -1.4470709069e-05 1.5644086815e+00 -2.7096353201e+00 1.5644086815e+00 2.7096353201e+00 
83700 5.7471799336e+00 -1.4509942969e-05 1.5644086815e+00 -2.7096353201e+00 1.5644086815e+00 2.7096353201e+00 
83800 5.7471799366e+00 -1.4548854932e-05 1.5644086815e+00 -2.7096353201e+00 1.5644086815e+00 2.7096353201e+00 
83900 5.7471799395e+00 -1.4587446983e-05 1.5644086815e+00 -2.7096353201e+00 1.5644086815e+00 2.7096353201e+00 
84000 5.7471799424e+00 -1.4625721163e-05 1.5644086815e+00 -2.7096353201e+00 1.5644086815e+00 2.7096353201e+00 
84100 5.7471799453e+00 -1.4663679530e-05 1.5644086815e+00 -2.7096353201e+00 1.5644086815e+00 2.7096353201e+00 
84200 5.7471799481e+00 -1.4701324152e-05 1.5644086815e+00 -2.7096353201e+00 1.5644086815e+00 2.7096353201e+00 
84300 5.7471799509e+00 -1.4738657109e-05 1.5644086815e+00 -2.7096353201e+00 1.5644086815e+00 2.7096353201e+00 
84400 5.7471799537e+00 -1.4775680495e-05 1.5644086815e+00 -2.7096353201e+00 1.5644086815e+00 2.7096353201e+00 
84500 5.7471799565e+00 -1.4812396414e-05 1.5644086815e+00 -2.7096353201e+00 1.5644086815e+00 2.7096353201e+00 
84600 5.7471799592e+00 -1.4848806982e-05 1.5644086815e+00 -2.7096353201e+00 1.5644086815e+00 2.7096353201e+00 
84700 5.7471799619e+00 -1.4884914323e-05 1.5644086815e+00 -2.7096353201e+00 1.5644086815e+00 2.7096353201e+00 
84800 5.7471799645e+00 -1.4920720572e-05 1.5644086815e+00 -2.7096353201e+00 1.5644086815e+00 2.7096353201e+00 
84900 5.7471799671e+00 -1.4956227870e-05 1.5644086815e+00 -2.7096353201e+00 1.5644086815e+00 2.7096353201e+00 
85000 5.7471799697e+00 -1.4991438368e-05 1.5644086815e+00 -2.7096353201e+00 1.5644086815e+00 2.7096353201e+00 
85100 5.7471799723e+00 -1.5026354224e-05 1.5644086815e+00 -2.7096353201e+00 1.5644086815e+00 2.7096353201e+00 
85200 5.7471799748e+00 -1.5060977599e-05 1.5644086815e+00 -2.7096353201e+00 1.5644086815e+00 2.7096353201e+00 
85300 5.7471799773e+00 -1.5095310666e-05 1.5644086815e+00 -2.7096353201e+00 1.5644086815e+00 2.7096353201e+00 
85400 5.7471799798e+00 -1.5129355596e-05 1.5644086815e+00 -2.7096353201e+00 1.5644086815e+00 2.7096353201e+00 
85500 5.7471799823e+00 -1.5163114570e-05 1.5644086815e+00 -2.7096353201e+00 1.5644086815e+00 2.7096353201e+00 
85600 5.7471799847e+00 -1.5196589771e-05 1.5644086815e+00 -2.7096353201e+00 1.5644086815e+00 2.7096353201e+00 
85700 5.7471799871e+00 -1.5229783383e-05 1.5644086815e+00 -2.7096353201e+00 1.5644086815e+00 2.7096353201e+00 
85800 5.7471799894e+00 -1.5262697596e-05 1.5644086815e+00 -2.7096353201e+00 1.5644086815e+00 2.7096353201e+00 
85900 5.7471799918e+00 -1.5295334599e-05 1.5644086815e+00 -2.7096353201e+00 1.5644086815e+00 2.7096353201e+00 
86000 5.7471799941e+00 -1.5327696584e-05 1.5644086815e+00 -2.7096353201e+00 1.5644086815e+00 2.7096353201e+00 
86100 5.7471799964e+00 -1.5359785742e-05 1.5644086815e+00 -2.7096353201e+00 1.5644086815e+00 2.7096353201e+00 
86200 5.7471799986e+00 -1.5391604266e-05 1.5644086815e+00 -2.7096353201e+00 1.5644086815e+00 2.7096353201e+00 
86300 5.7471800009e+00 -1.5423154346e-05 1.5644086815e+00 -2.7096353201e+00 1.5644086815e+00 2.7096353201e+00 
86400 5.7471800031e+00 -1.5454438173e-05 1.5644086815e+00 -2.7096353201e+00 1.5644086815e+00 2.7096353201e+00 
86500 5.7471800053e+00 -1.5485457935e-05 1.5644086815e+00 -2.7096353201e+00 1.5644086815e+00 2.7096353201e+00 
86600 5.7471800074e+00 -1.5516215819e-05 1.5644086815e+00 -2.7096353201e+00 1.5644086815e+00 2.7096353201e+00 
86700 5.7471800095e+00 -1.5546714006e-05 1.5644086815e+00 -2.7096353201e+00 1.5644086815e+00 2.7096353201e+00 
86800 5.7471800117e+00 -1.5576954676e-05 1.5644086815e+00 -2.7096353201e+00 1.5644086815e+00 2.7096353201e+00 
86900 5.7471800137e+00 -1.5606940006e-05 1.5644086815e+00 -2.7096353201e+00 1.5644086815e+00 2.7096353201e+00 
87000 5.7471800158e+00 -1.5636672166e-05 1.5644086815e+00 -2.7096353201e+00 1.5644086815e+00 2.7096353201e+00 
87100 5.7471800178e+00 -1.5666153322e-05 1.5644086815e+00 -2.7096353201e+00 1.5644086815e+00 2.7096353201e+00 
87200 5.7471800198e+00 -1.5695385635e-05 1.5644086815e+00 -2.7096353201e+00 1.5644086815e+00 2.7096353201e+00 
87300 5.7471800218e+00 -1.5724371259e-05 1.5644086815e+00 -2.7096353201e+00 1.5644086815e+00 2.7096353201e+00 
87400 5.7471800238e+00 -1.5753112342e-05 1.5644086815e+00 -2.7096353201e+00 1.5644086815e+00 2.7096353201e+00 
87500 5.7471800257e+00 -1.5781611026e-05 1.5644086815e+00 -2.7096353201e+00 1.5644086815e+00 2.7096353201e+00 
87600 5.7471800277e+00 -1.5809869444e-05 1.5644086815e+00 -2.7096353201e+00 1.5644086815e+00 2.7096353201e+00 
87700 5.7471800296e+00 -1.5837889721e-05 1.5644086815e+00 -2.7096353201e+00 1.5644086815e+00 2.7096353201e+00 
87800 5.7471800315e+00 -1.5865673974e-05 1.5644086815e+00 -2.7096353201e+00 1.5644086815e+00 2.7096353201e+00 
87900 5.7471800333e+00 -1.5893224312e-05 1.5644086815e+00 -2.7096353201e+00 1.5644086815e+00 2.7096353201e+00 
88000 5.7471800351e+00 -1.5920542836e-05 1.5644086815e+00 -2.7096353201e+00 1.5644086815e+00 2.7096353201e+00 
88100 5.7471800370e+00 -1.5947631634e-05 1.5644086815e+00 -2.7096353201e+00 1.5644086815e+00 2.7096353201e+00 
88200 5.7471800388e+00 -1.5974492787e-05 1.5644086815e+00 -2.7096353201e+00 1.5644086815e+00 2.7096353201e+00 
88300 5.7471800405e+00 -1.6001128365e-05 1.5644086815e+00 -2.7096353201e+00 1.5644086815e+00 2.7096353201e+00 
88400 5.7471800423e+00 -1.6027540428e-05 1.5644086815e+00 -2.7096353201e+00 1.5644086815e+00 2.7096353201e+00 
88500 5.7471800440e+00 -1.6053731021e-05 1.5644086815e+00 -2.7096353201e+00 1.5644086815e+00 2.7096353201e+00 
88600 5.7471800457e+00 -1.6079702185e-05 1.5644086815e+00 -2.7096353201e+00 1.5644086815e+00 2.7096353201e+00 
88700 5.7471800474e+00 -1.6105455942e-05 1.5644086815e+00 -2.7096353201e+00 1.5644086815e+00 2.7096353201e+00 
88800 5.7471800491e+00 -1.6130994308e-05 1.5644086815e+00 -2.7096353201e+00 1.5644086815e+00 2.7096353201e+00 
88900 5.7471800508e+00 -1.6156319282e-05 1.5644086815e+00 -2.7096353201e+00 1.5644086815e+00 2.7096353201e+00 
89000 5.7471800524e+00 -1.6181432854e-05 1.5644086815e+00 -2.7096353201e+00 1.5644086815e+00 2.7096353201e+00 
89100 5.7471800540e+00 -1.6206336999e-05 1.5644086815e+00 -2.7096353201e+00 1.5644086815e+00 2.7096353201e+00 
89200 5.7471800556e+00 -1.6231033680e-05 1.5644086815e+00 -2.7096353201e+00 1.5644086815e+00 2.7096353201e+00 
89300 5.7471800572e+00 -1.6255524847e-05 1.5644086815e+00 -2.7096353201e+00 1.5644086815e+00 2.7096353201e+00 
89400 5.7471800588e+00 -1.6279812435e-05 1.5644086815e+00 -2.7096353201e+00 1.5644086815e+00 2.7096353201e+00 
89500 5.7471800603e+00 -1.6303898368e-05 1.5644086815e+00 -2.7096353201e+00 1.5644086815e+00 2.7096353201e+00 
89600 5.7471800618e+00 -1.6327784553e-05 1.5644086815e+00 -2.7096353201e+00 1.5644086815e+00 2.7096353201e+00 
89700 5.7471800633e+00 -1.6351472885e-05 1.5644086815e+00 -2.7096353201e+00 1.5644086815e+00 2.7096353201e+00 
89800 5.7471800648e+00 -1.6374965243e-05 1.5644086815e+00 -2.7096353201e+00 1.5644086815e+00 2.7096353201e+00 
89900 5.7471800663e+00 -1.6398263493e-05 1.5644086815e+00 -2.7096353201e+00 1.5644086815e+00 2.7096353201e+00 
90000 5.7471800678e+00 -1.6421369485e-05 1.5644086815e+00 -2.7096353201e+00 1.5644086815e+00 2.7096353201e+00 
90100 5.7471800692e+00 -1.6444285055e-05 1.5644086815e+00 -2.7096353201e+00 1.5644086815e+00 2.7096353201e+00 
90200 5.7471800706e+00 -1.6467012026e-05 1.5644086815e+00 -2.7096353201e+00 1.5644086815e+00 2.7096353201e+00 
90300 5.7471800721e+00 -1.6489552200e-05 1.5644086815e+00 -2.7096353201e+00 1.5644086815e+00 2.7096353201e+00 
90400 5.7471800735e+00 -1.6511907369e-05 1.5644086815e+00 -2.7096353201e+00 1.5644086815e+00 2.7096353201e+00 
90500 5.7471800748e+00 -1.6534079309e-05 1.5644086815e+00 -2.7096353201e+00 1.5644086815e+00 2.7096353201e+00 
90600 5.7471800762e+00 -1.6556069779e-05 1.5644086815e+00 -2.7096353201e+00 1.5644086815e+00 2.7096353201e+00 
90700 5.7471800775e+00 -1.6577880523e-05 1.5644086815e+00 -2.7096353201e+00 1.5644086815e+00 2.7096353201e+00 
90800 5.7471800789e+00 -1.6599513269e-05 1.5644086815e+00 -2.7096353201e+00 1.5644086815e+00 2.7096353201e+00 
90900 5.7471800802e+00 -1.6620969730e-05 1.5644086815e+00 -2.7096353201e+00 1.5644086815e+00 2.7096353201e+00 
91000 5.7471800815e+00 -1.6642251605e-05 1.5644086815e+00 -2.7096353201e+00 1.5644086815e+00 2.7096353201e+00 
91100 5.7471800828e+00 -1.6663360571e-05 1.5644086815e+00 -2.7096353201e+00 1.5644086815e+00 2.7096353201e+00 
91200 5.7471800841e+00 -1.6684298296e-05 1.5644086815e+00 -2.7096353201e+00 1.5644086815e+00 2.7096353201e+00 
91300 5.7471800853e+00 -1.6705066429e-05 1.5644086815e+00 -2.7096353201e+00 1.5644086815e+00 2.7096353201e+00 
91400 5.7471800866e+00 -1.6725666603e-05 1.5644086815e+00 -2.7096353201e+00 1.5644086815e+00 2.7096353201e+00 
91500 5.7471800878e+00 -1.6746100435e-05 1.5644086815e+00 -2.7096353201e+00 1.5644086815e+00 2.7096353201e+00 
91600 5.7471800890e+00 -1.6766369526e-05 1.5644086815e+00 -2.7096353201e+00 1.5644086815e+00 2.7096353201e+00 
91700 5.7471800902e+00 -1.6786475463e-05 1.5644086815e+00 -2.7096353201e+00 1.5644086815e+00 2.7096353201e+00 
91800 5.7471800914e+00 -1.6806419813e-05 1.5644086815e+00 -2.7096353201e+00 1.5644086815e+00 2.7096353201e+00 
91900 5.7471800926e+00 -1.6826204132e-05 1.5644086815e+00 -2.7096353201e+00 1.5644086815e+00 2.7096353201e+00 
92000 5.7471800937e+00 -1.6845829955e-05 1.5644086815e+00 -2.7096353201e+00 1.5644086815e+00 2.7096353201e+00 
92100 5.7471800949e+00 -1.6865298804e-05 1.5644086815e+00 -2.7096353201e+00 1.5644086815e+00 2.7096353201e+00 
92200 5.7471800960e+00 -1.6884612185e-05 1.5644086815e+00 -2.7096353201e+00 1.5644086815e+00 2.7096353201e+00 
92300 5.7471800971e+00 -1.6903771586e-05 1.5644086815e+00 -2.7096353201e+00 1.5644086815e+00 2.7096353201e+00 
92400 5.7471800983e+00 -1.6922778482e-05 1.5644086815e+00 -2.7096353201e+00 1.5644086815e+00 2.7096353201e+00 
92500 5.7471800993e+00 -1.6941634331e-05 1.5644086815e+00 -2.7096353201e+00 1.5644086815e+00 2.7096353201e+00 
92600 5.7471801004e+00 -1.6960340574e-05 1.5644086815e+00 -2.7096353201e+00 1.5644086815e+00 2.7096353201e+00 
92700 5.7471801015e+00 -1.6978898637e-05 1.5644086815e+00 -2.7096353201e+00 1.5644086815e+00 2.7096353201e+00 
92800 5.7471801026e+00 -1.6997309933e-05 1.5644086815e+00 -2.7096353201e+00 1.5644086815e+00 2.7096353201e+00 
92900 5.7471801036e+00 -1.7015575853e-05 1.5644086815e+00 -2.7096353201e+00 1.5644086815e+00 2.7096353201e+00 
93000 5.7471801047e+00 -1.7033697781e-05 1.5644086815e+00 -2.7096353201e+00 1.5644086815e+00 2.7096353201e+00 
93100 5.7471801057e+00 -1.7051677077e-05 1.5644086815e+00 -2.7096353201e+00 1.5644086815e+00 2.7096353201e+00 
93200 5.7471801067e+00 -1.7069515094e-05 1.5644086815e+00 -2.7096353201e+00 1.5644086815e+00 2.7096353201e+00 
93300 5.7471801077e+00 -1.7087213163e-05 1.5644086815e+00 -2.7096353201e+00 1.5644086815e+00 2.7096353201e+00 
93400 5.7471801087e+00 -1.7104772603e-05 1.5644086815e+00 -2.7096353201e+00 1.5644086815e+00 2.7096353201e+00 
93500 5.7471801097e+00 -1.7122194718e-05 1.5644086815e+00 -2.7096353201e+00 1.5644086815e+00 2.7096353201e+00 
93600 5.7471801106e+00 -1.7139480794e-05 1.5644086815e+00 -2.7096353201e+00 1.5644086815e+00 2.7096353201e+00 
93700 5.7471801116e+00 -1.7156632108e-05 1.5644086815e+00 -2.7096353201e+00 1.5644086815e+00 2.7096353201e+00 
93800 5.7471801125e+00 -1.7173649917e-05 1.5644086815e+00 -2.7096353201e+00 1.5644086815e+00 2.7096353201e+00 
93900 5.7471801135e+00 -1.7190535465e-05 1.5644086815e+00 -2.7096353201e+00 1.5644086815e+00 2.7096353201e+00 
94000 5.7471801144e+00 -1.7207289982e-05 1.5644086815e+00 -2.7096353201e+00 1.5644086815e+00 2.7096353201e+00 
94100 5.7471801153e+00 -1.7223914683e-05 1.5644086815e+00 -2.7096353201e+00 1.5644086815e+00 2.7096353201e+00 
94200 5.7471801162e+00 -1.7240410769e-05 1.5644086815e+00 -2.7096353201e+00 1.5644086815e+00 2.7096353201e+00 
94300 5.7471801171e+00 -1.7256779429e-05 1.5644086815e+00 -2.7096353201e+00 1.5644086815e+00 2.7096353201e+00 
94400 5.7471801180e+00 -1.7273021833e-05 1.5644086815e+00 -2.7096353201e+00 1.5644086815e+00 2.7096353201e+00 
94500 5.7471801189e+00 -1.7289139140e-05 1.5644086815e+00 -2.7096353201e+00 1.5644086815e+00 2.7096353201e+00 
94600 5.7471801197e+00 -1.7305132497e-05 1.5644086815e+00 -2.7096353201e+00 1.5644086815e+00 2.7096353201e+00 
94700 5.7471801206e+00 -1.7321003034e-05 1.5644086815e+00 -2.7096353201e+00 1.5644086815e+00 2.7096353201e+00 
94800 5.7471801214e+00 -1.7336751871e-05 1.5644086815e+00 -2.7096353201e+00 1.5644086815e+00 2.7096353201e+00 
94900 5.7471801223e+00 -1.7352380110e-05 1.5644086815e+00 -2.7096353201e+00 1.5644086815e+00 2.7096353201e+00 
95000 5.7471801231e+00 -1.7367888845e-05 1.5644086815e+00 -2.7096353201e+00 1.5644086815e+00 2.7096353201e+00 
95100 5.7471801239e+00 -1.7383279154e-05 1.5644086815e+00 -2.7096353201e+00 1.5644086815e+00 2.7096353201e+00 
95200 5.7471801247e+00 -1.7398552101e-05 1.5644086815e+00 -2.7096353201e+00 1.5644086815e+00 2.7096353201e+00 
95300 5.7471801255e+00 -1.7413708740e-05 1.5644086815e+00 -2.7096353201e+00 1.5644086815e+00 2.7096353201e+00 
95400 5.7471801263e+00 -1.7428750110e-05 1.5644086815e+00 -2.7096353201e+00 1.5644086815e+00 2.7096353201e+00 
95500 5.7471801271e+00 -1.7443677240e-05 1.5644086815e+00 -2.7096353201e+00 1.5644086815e+00 2.7096353201e+00 
95600 5.7471801278e+00 -1.7458491144e-05 1.5644086815e+00 -2.7096353201e+00 1.5644086815e+00 2.7096353201e+00 
95700 5.7471801286e+00 -1.7473192825e-05 1.5644086815e+00 -2.7096353201e+00 1.5644086815e+00 2.7096353201e+00 
95800 5.7471801294e+00 -1.7487783276e-05 1.5644086815e+00 -2.7096353201e+00 1.5644086815e+00 2.7096353201e+00 
95900 5.7471801301e+00 -1.7502263473e-05 1.5644086815e+00 -2.7096353201e+00 1.5644086815e+00 2.7096353201e+00 
96000 5.7471801308e+00 -1.7516634385e-05 1.5644086815e+00 -2.7096353201e+00 1.5644086815e+00 2.7096353201e+00 
96100 5.7471801316e+00 -1.7530896967e-05 1.5644086815e+00 -2.7096353201e+00 1.5644086815e+00 2.7096353201e+00 
96200 5.7471801323e+00 -1.7545052165e-05 1.5644086815e+00 -2.7096353201e+00 1.5644086815e+00 2.7096353201e+00 
96300 5.7471801330e+00 -1.7559100909e-05 1.5644086815e+00 -2.7096353201e+00 1.5644086815e+00 2.7096353201e+00 
96400 5.7471801337e+00 -1.7573044122e-05 1.5644086815e+00 -2.7096353201e+00 1.5644086815e+00 2.7096353201e+00 
96500 5.7471801344e+00 -1.7586882718e-05 1.5644086815e+00 -2.7096353201e+00 1.5644086815e+00 2.7096353201e+00 
96600 5.7471801351e+00 -1.7600617592e-05 1.5644086815e+00 -2.7096353201e+00 1.5644086815e+00 2.7096353201e+00 
96700 5.7471801358e+00 -1.7614249636e-05 1.5644086815e+00 -2.7096353201e+00 1.5644086815e+00 2.7096353201e+00 
96800 5.7471801365e+00 -1.7627779728e-05 1.5644086815e+00 -2.7096353201e+00 1.5644086815e+00 2.7096353201e+00 
96900 5.7471801371e+00 -1.7641208735e-05 1.5644086815e+00 -2.7096353201e+00 1.5644086815e+00 2.7096353201e+00 
97000 5.7471801378e+00 -1.7654537516e-05 1.5644086815e+00 -2.7096353201e+00 1.5644086815e+00 2.7096353201e+00 
97100 5.7471801384e+00 -1.7667766921e-05 1.5644086815e+00 -2.7096353201e+00 1.5644086815e+00 2.7096353201e+00 
97200 5.7471801391e+00 -1.7680897785e-05 1.5644086815e+00 -2.7096353201e+00 1.5644086815e+00 2.7096353201e+00 
97300 5.7471801397e+00 -1.7693930937e-05 1.5644086815e+00 -2.7096353201e+00 1.5644086815e+00 2.7096353201e+00 
97400 5.7471801403e+00 -1.7706867195e-05 1.5644086815e+00 -2.7096353201e+00 1.5644086815e+00 2.7096353201e+00 
97500 5.7471801410e+00 -1.7719707369e-05 1.5644086815e+00 -2.7096353201e+00 1.5644086815e+00 2.7096353201e+00 
97600 5.7471801416e+00 -1.7732452256e-05 1.5644086815e+00 -2.7096353201e+00 1.5644086815e+00 2.7096353201e+00 
97700 5.7471801422e+00 -1.7745102650e-05 1.5644086815e+00 -2.7096353201e+00 1.5644086815e+00 2.7096353201e+00 
97800 5.7471801428e+00 -1.7757659328e-05 1.5644086815e+00 -2.7096353201e+00 1.5644086815e+00 2.7096353201e+00 
97900 5.7471801434e+00 -1.7770123064e-05 1.5644086815e+00 -2.7096353201e+00 1.5644086815e+00 2.7096353201e+00 
98000 5.7471801440e+00 -1.7782494622e-05 1.5644086815e+00 -2.7096353201e+00 1.5644086815e+00 2.7096353201e+00 
98100 5.7471801445e+00 -1.7794774757e-05 1.5644086815e+00 -2.7096353201e+00 1.5644086815e+00 2.7096353201e+00 
98200 5.7471801451e+00 -1.7806964214e-05 1.5644086815e+00 -2.7096353201e+00 1.5644086815e+00 2.7096353201e+00 
98300 5.7471801457e+00 -1.7819063730e-05 1.5644086815e+00 -2.7096353201e+00 1.5644086815e+00 2.7096353201e+00 
98400 5.7471801462e+00 -1.7831074035e-05 1.5644086815e+00 -2.7096353201e+00 1.5644086815e+00 2.7096353201e+00 
98500 5.7471801468e+00 -1.7842995851e-05 1.5644086815e+00 -2.7096353201e+00 1.5644086815e+00 2.7096353201e+00 
98600 5.7471801474e+00 -1.7854829891e-05 1.5644086815e+00 -2.7096353201e+00 1.5644086815e+00 2.7096353201e+00 
98700 5.7471801479e+00 -1.7866576858e-05 1.5644086815e+00 -2.7096353201e+00 1.5644086815e+00 2.7096353201e+00 
98800 5.7471801484e+00 -1.7878237454e-05 1.5644086815e+00 -2.7096353201e+00 1.5644086815e+00 2.7096353201e+00 
98900 5.7471801490e+00 -1.7889812365e-05 1.5644086815e+00 -2.7096353201e+00 1.5644086815e+00 2.7096353201e+00 
99000 5.7471801495e+00 -1.7901302274e-05 1.5644086815e+00 -2.7096353201e+00 1.5644086815e+00 2.7096353201e+00 
99100 5.7471801500e+00 -1.7912707857e-05 1.5644086815e+00 -2.7096353201e+00 1.5644086815e+00 2.7096353201e+00 
99200 5.7471801505e+00 -1.7924029781e-05 1.5644086815e+00 -2.7096353201e+00 1.5644086815e+00 2.7096353201e+00 
99300 5.7471801510e+00 -1.7935268708e-05 1.5644086815e+00 -2.7096353201e+00 1.5644086815e+00 2.7096353201e+00 
99400 5.7471801515e+00 -1.7946425291e-05 1.5644086815e+00 -2.7096353201e+00 1.5644086815e+00 2.7096353201e+00 
99500 5.7471801520e+00 -1.7957500175e-05 1.5644086815e+00 -2.7096353201e+00 1.5644086815e+00 2.7096353201e+00 
99600 5.7471801525e+00 -1.7968494001e-05 1.5644086815e+00 -2.7096353201e+00 1.5644086815e+00 2.7096353201e+00 
99700 5.7471801530e+00 -1.7979407403e-05 1.5644086815e+00 -2.7096353201e+00 1.5644086815e+00 2.7096353201e+00 
99800 5.7471801535e+00 -1.7990241007e-05 1.5644086815e+00 -2.7096353201e+00 1.5644086815e+00 2.7096353201e+00 
99900 5.7471801540e+00 -1.8000995432e-05 1.5644086815e+00 -2.7096353201e+00 1.5644086815e+00 2.7096353201e+00 
100000 5.7471801544e+00 -1.8011671294e-05 1.5644086815e+00 -2.7096353201e+00 1.5644086815e+00 2.7096353201e+00 
100100 5.7471801549e+00 -1.8022269198e-05 1.5644086815e+00 -2.7096353201e+00 1.5644086815e+00 2.7096353201e+00 
100200 5.7471801553e+00 -1.8032789747e-05 1.5644086815e+00 -2.7096353201e+00 1.5644086815e+00 2.7096353201e+00 
100300 5.7471801558e+00 -1.8043233537e-05 1.5644086815e+00 -2.7096353201e+00 1.5644086815e+00 2.7096353201e+00 
100400 5.7471801562e+00 -1.8053601156e-05 1.5644086815e+00 -2.7096353201e+00 1.5644086815e+00 2.7096353201e+00 
100500 5.7471801567e+00 -1.8063893188e-05 1.5644086815e+00 -2.7096353201e+00 1.5644086815e+00 2.7096353201e+00 
100600 5.7471801571e+00 -1.8074110210e-05 1.5644086815e+00 -2.7096353201e+00 1.5644086815e+00 2.7096353201e+00 
100700 5.7471801576e+00 -1.8084252796e-05 1.5644086815e+00 -2.7096353201e+00 1.5644086815e+00 2.7096353201e+00 
100800 5.7471801580e+00 -1.8094321513e-05 1.5644086815e+00 -2.7096353201e+00 1.5644086815e+00 2.7096353201e+00 
100900 5.7471801584e+00 -1.8104316920e-05 1.5644086815e+00 -2.7096353201e+00 1.5644086815e+00 2.7096353201e+00 
101000 5.7471801588e+00 -1.8114239573e-05 1.5644086815e+00 -2.7096353201e+00 1.5644086815e+00 2.7096353201e+00 
101100 5.7471801592e+00 -1.8124090023e-05 1.5644086815e+00 -2.7096353201e+00 1.5644086815e+00 2.7096353201e+00 
101200 5.7471801596e+00 -1.8133868817e-05 1.5644086815e+00 -2.7096353201e+00 1.5644086815e+00 2.7096353201e+00 
101300 5.7471801601e+00 -1.8143576494e-05 1.5644086815e+00 -2.7096353201e+00 1.5644086815e+00 2.7096353201e+00 
101400 5.7471801605e+00 -1.8153213590e-05 1.5644086815e+00 -2.7096353201e+00 1.5644086815e+00 2.7096353201e+00 
101500 5.7471801608e+00 -1.8162780634e-05 1.5644086815e+00 -2.7096353201e+00 1.5644086815e+00 2.7096353201e+00 
101600 5.7471801612e+00 -1.8172278151e-05 1.5644086815e+00 -2.7096353201e+00 1.5644086815e+00 2.7096353201e+00 
101700 5.7471801616e+00 -1.8181706664e-05 1.5644086815e+00 -2.7096353201e+00 1.5644086815e+00 2.7096353201e+00 
101800 5.7471801620e+00 -1.8191066687e-05 1.5644086815e+00 -2.7096353201e+00 1.5644086815e+00 2.7096353201e+00 
101900 5.7471801624e+00 -1.8200358733e-05 1.5644086815e+00 -2.7096353201e+00 1.5644086815e+00 2.7096353201e+00 
102000 5.7471801628e+00 -1.8209583309e-05 1.5644086815e+00 -2.7096353201e+00 1.5644086815e+00 2.7096353201e+00 
102100 5.7471801631e+00 -1.8218740915e-05 1.5644086815e+00 -2.7096353201e+00 1.5644086815e+00 2.7096353201e+00 
102200 5.7471801635e+00 -1.8227832049e-05 1.5644086815e+00 -2.7096353201e+00 1.5644086815e+00 2.7096353201e+00 
102300 5.7471801639e+00 -1.8236857209e-05 1.5644086815e+00 -2.7096353201e+00 1.5644086815e+00 2.7096353201e+00 
102400 5.7471801642e+00 -1.8245816878e-05 1.5644086815e+00 -2.7096353201e+00 1.5644086815e+00 2.7096353201e+00 
102500 5.7471801646e+00 -1.8254711547e-05 1.5644086815e+00 -2.7096353201e+00 1.5644086815e+00 2.7096353201e+00 
102600 5.7471801649e+00 -1.8263541694e-05 1.5644086815e+00 -2.7096353201e+00 1.5644086815e+00 2.7096353201e+00 
102700 5.7471801653e+00 -1.8272307796e-05 1.5644086815e+00 -2.7096353201e+00 1.5644086815e+00 2.7096353201e+00 
102800 5.7471801656e+00 -1.8281010327e-05 1.5644086815e+00 -2.7096353201e+00 1.5644086815e+00 2.7096353201e+00 
102900 5.7471801659e+00 -1.8289649754e-05 1.5644086815e+00 -2.7096353201e+00 1.5644086815e+00 2.7096353201e+00 
103000 5.7471801663e+00 -1.8298226545e-05 1.5644086815e+00 -2.7096353201e+00 1.5644086815e+00 2.7096353201e+00 
103100 5.7471801666e+00 -1.8306741160e-05 1.5644086815e+00 -2.7096353201e+00 1.5644086815e+00 2.7096353201e+00 
103200 5.7471801669e+00 -1.8315194055e-05 1.5644086815e+00 -2.7096353201e+00 1.5644086815e+00 2.7096353201e+00 
103300 5.7471801673e+00 -1.8323585686e-05 1.5644086815e+00 -2.7096353201e+00 1.5644086815e+00 2.7096353201e+00 
103400 5.7471801676e+00 -1.8331916504e-05 1.5644086815e+00 -2.7096353201e+00 1.5644086815e+00 2.7096353201e+00 
103500 5.7471801679e+00 -1.8340186953e-05 1.5644086815e+00 -2.7096353201e+00 1.5644086815e+00 2.7096353201e+00 
103600 5.7471801682e+00 -1.8348397475e-05 1.5644086815e+00 -2.7096353201e+00 1.5644086815e+00 2.7096353201e+00 
103700 5.7471801685e+00 -1.8356548513e-05 1.5644086815e+00 -2.7096353201e+00 1.5644086815e+00 2.7096353201e+00 
103800 5.7471801688e+00 -1.8364640501e-05 1.5644086815e+00 -2.7096353201e+00 1.5644086815e+00 2.7096353201e+00 
103900 5.7471801691e+00 -1.8372673872e-05 1.5644086815e+00 -2.7096353201e+00 1.5644086815e+00 2.7096353201e+00 
104000 5.7471801694e+00 -1.8380649054e-05 1.5644086815e+00 -2.7096353201e+00 1.5644086815e+00 2.7096353201e+00 
104100 5.7471801697e+00 -1.8388566476e-05 1.5644086815e+00 -2.7096353201e+00 1.5644086815e+00 2.7096353201e+00 
104200 5.7471801700e+00 -1.8396426558e-05 1.5644086815e+00 -2.7096353201e+00 1.5644086815e+00 2.7096353201e+00 
104300 5.7471801703e+00 -1.8404229719e-05 1.5644086815e+00 -2.7096353201e+00 1.5644086815e+00 2.7096353201e+00 
104400 5.7471801706e+00 -1.8411976378e-05 1.5644086815e+00 -2.7096353201e+00 1.5644086815e+00 2.7096353201e+00 
104500 5.7471801709e+00 -1.8419666944e-05 1.5644086815e+00 -2.7096353201e+00 1.5644086815e+00 2.7096353201e+00 
104600 5.7471801711e+00 -1.8427301830e-05 1.5644086815e+00 -2.7096353201e+00 1.5644086815e+00 2.7096353201e+00 
104700 5.7471801714e+00 -1.8434881443e-05 1.5644086815e+00 -2.7096353201e+00 1.5644086815e+00 2.7096353201e+00 
104800 5.7471801717e+00 -1.8442406185e-05 1.5644086815e+00 -2.7096353201e+00 1.5644086815e+00 2.7096353201e+00 
104900 5.7471801720e+00 -1.8449876457e-05 1.5644086815e+00 -2.7096353201e+00 1.5644086815e+00 2.7096353201e+00 
105000 5.7471801722e+00 -1.8457292659e-05 1.5644086815e+00 -2.7096353201e+00 1.5644086815e+00 2.7096353201e+00 
105100 5.7471801725e+00 -1.8464655183e-05 1.5644086815e+00 -2.7096353201e+00 1.5644086815e+00 2.7096353201e+00 
105200 5.7471801728e+00 -1.8471964423e-05 1.5644086815e+00 -2.7096353201e+00 1.5644086815e+00 2.7096353201e+00 
105300 5.7471801730e+00 -1.8479220768e-05 1.5644086815e+00 -2.7096353201e+00 1.5644086815e+00 2.7096353201e+00 
105400 5.7471801733e+00 -1.8486424603e-05 1.5644086815e+00 -2.7096353201e+00 1.5644086815e+00 2.7096353201e+00 
105500 5.7471801735e+00 -1.8493576314e-05 1.5644086815e+00 -2.7096353201e+00 1.5644086815e+00 2.7096353201e+00 
105600 5.7471801738e+00 -1.8500676279e-05 1.5644086815e+00 -2.7096353201e+00 1.5644086815e+00 2.7096353201e+00 
105700 5.7471801740e+00 -1.8507724878e-05 1.5644086815e+00 -2.7096353201e+00 1.5644086815e+00 2.7096353201e+00 
105800 5.7471801743e+00 -1.8514722485e-05 1.5644086815e+00 -2.7096353201e+00 1.5644086815e+00 2.7096353201e+00 
105900 5.7471801745e+00 -1.8521669473e-05 1.5644086815e+00 -2.7096353201e+00 1.5644086815e+00 2.7096353201e+00 
106000 5.7471801747e+00 -1.8528566213e-05 1.5644086815e+00 -2.7096353201e+00 1.5644086815e+00 2.7096353201e+00 
106100 5.7471801750e+00 -1.8535413070e-05 1.5644086815e+00 -2.7096353201e+00 1.5644086815e+00 2.7096353201e+00 
106200 5.7471801752e+00 -1.8542210411e-05 1.5644086815e+00 -2.7096353201e+00 1.5644086815e+00 2.7096353201e+00 
106300 5.7471801754e+00 -1.8548958597e-05 1.5644086815e+00 -2.7096353201e+00 1.5644086815e+00 2.7096353201e+00 
106400 5.7471801757e+00 -1.8555657988e-05 1.5644086815e+00 -2.7096353201e+00 1.5644086815e+00 2.7096353201e+00 
106500 5.7471801759e+00 -1.8562308940e-05 1.5644086815e+00 -2.7096353201e+00 1.5644086815e+00 2.7096353201e+00 
106600 5.7471801761e+00 -1.8568911809e-05 1.5644086815e+00 -2.7096353201e+00 1.5644086815e+00 2.7096353201e+00 
106700 5.7471801763e+00 -1.8575466947e-05 1.5644086815e+00 -2.7096353201e+00 1.5644086815e+00 2.7096353201e+00 
106800 5.7471801766e+00 -1.8581974702e-05 1.5644086815e+00 -2.7096353201e+00 1.5644086815e+00 2.7096353201e+00 
106900 5.7471801768e+00 -1.8588435422e-05 1.5644086815e+00 -2.7096353201e+00 1.5644086815e+00 2.7096353201e+00 
107000 5.7471801770e+00 -1.8594849452e-05 1.5644086815e+00 -2.7096353201e+00 1.5644086815e+00 2.7096353201e+00 
107100 5.7471801772e+00 -1.8601217134e-05 1.5644086815e+00 -2.7096353201e+00 1.5644086815e+00 2.7096353201e+00 
107200 5.7471801774e+00 -1.8607538809e-05 1.5644086815e+00 -2.7096353201e+00 1.5644086815e+00 2.7096353201e+00 
107300 5.7471801776e+00 -1.8613814813e-05 1.5644086815e+00 -2.7096353201e+00 1.5644086815e+00 2.7096353201e+00 
107400 5.7471801778e+00 -1.8620045482e-05 1.5644086815e+00 -2.7096353201e+00 1.5644086815e+00 2.7096353201e+00 
107500 5.7471801780e+00 -1.8626231148e-05 1.5644086815e+00 -2.7096353201e+00 1.5644086815e+00 2.7096353201e+00 
107600 5.7471801782e+00 -1.8632372143e-05 1.5644086815e+00 -2.7096353201e+00 1.5644086815e+00 2.7096353201e+00 
107700 5.7471801784e+00 -1.8638468794e-05 1.5644086815e+00 -2.7096353201e+00 1.5644086815e+00 2.7096353201e+00 
107800 5.7471801786e+00 -1.8644521428e-05 1.5644086815e+00 -2.7096353201e+00 1.5644086815e+00 2.7096353201e+00 
107900 5.7471801788e+00 -1.8650530369e-05 1.5644086815e+00 -2.7096353201e+00 1.5644086815e+00 2.7096353201e+00 
108000 5.7471801790e+00 -1.8656495937e-05 1.5644086815e+00 -2.7096353201e+00 1.5644086815e+00 2.7096353201e+00 
108100 5.7471801792e+00 -1.8662418453e-05 1.5644086815e+00 -2.7096353201e+00 1.5644086815e+00 2.7096353201e+00 
108200 5.7471801794e+00 -1.8668298232e-05 1.5644086815e+00 -2.7096353201e+00 1.5644086815e+00 2.7096353201e+00 
108300 5.7471801796e+00 -1.8674135591e-05 1.5644086815e+00 -2.7096353201e+00 1.5644086815e+00 2.7096353201e+00 
108400 5.7471801797e+00 -1.8679930841e-05 1.5644086815e+00 -2.7096353201e+00 1.5644086815e+00 2.7096353201e+00 
108500 5.7471801799e+00 -1.8685684295e-05 1.5644086815e+00 -2.7096353201e+00 1.5644086815e+00 2.7096353201e+00 
108600 5.7471801801e+00 -1.8691396258e-05 1.5644086815e+00 -2.7096353201e+00 1.5644086815e+00 2.7096353201e+00 
108700 5.7471801803e+00 -1.8697067038e-05 1.5644086815e+00 -2.7096353201e+00 1.5644086815e+00 2.7096353201e+00 
108800 5.7471801804e+00 -1.8702696940e-05 1.5644086815e+00 -2.7096353201e+00 1.5644086815e+00 2.7096353201e+00 
108900 5.7471801806e+00 -1.8708286264e-05 1.5644086815e+00 -2.7096353201e+00 1.5644086815e+00 2.7096353201e+00 
109000 5.7471801808e+00 -1.8713835312e-05 1.5644086815e+00 -2.7096353201e+00 1.5644086815e+00 2.7096353201e+00 
109100 5.7471801810e+00 -1.8719344380e-05 1.5644086815e+00 -2.7096353201e+00 1.5644086815e+00 2.7096353201e+00 
109200 5.7471801811e+00 -1.8724813765e-05 1.5644086815e+00 -2.7096353201e+00 1.5644086815e+00 2.7096353201e+00 
109300 5.7471801813e+00 -1.8730243760e-05 1.5644086815e+00 -2.7096353201e+00 1.5644086815e+00 2.7096353201e+00 
109400 5.7471801815e+00 -1.8735634656e-05 1.5644086815e+00 -2.7096353201e+00 1.5644086815e+00 2.7096353201e+00 
109500 5.7471801816e+00 -1.8740986744e-05 1.5644086815e+00 -2.7096353201e+00 1.5644086815e+00 2.7096353201e+00 
109600 5.7471801818e+00 -1.8746300311e-05 1.5644086815e+00 -2.7096353201e+00 1.5644086815e+00 2.7096353201e+00 
109700 5.7471801819e+00 -1.8751575643e-05 1.5644086815e+00 -2.7096353201e+00 1.5644086815e+00 2.7096353201e+00 
109800 5.7471801821e+00 -1.8756813022e-05 1.5644086815e+00 -2.7096353201e+00 1.5644086815e+00 2.7096353201e+00 
109900 5.7471801822e+00 -1.8762012732e-05 1.5644086815e+00 -2.7096353201e+00 1.5644086815e+00 2.7096353201e+00 
110000 5.7471801824e+00 -1.8767175050e-05 1.5644086815e+00 -2.7096353201e+00 1.5644086815e+00 2.7096353201e+00 
110100 5.7471801825e+00 -1.8772300255e-05 1.5644086815e+00 -2.7096353201e+00 1.5644086815e+00 2.7096353201e+00 
110200 5.7471801827e+00 -1.8777388623e-05 1.5644086815e+00 -2.7096353201e+00 1.5644086815e+00 2.7096353201e+00 
110300 5.7471801828e+00 -1.8782440427e-05 1.5644086815e+00 -2.7096353201e+00 1.5644086815e+00 2.7096353201e+00 
110400 5.7471801830e+00 -1.8787455939e-05 1.5644086815e+00 -2.7096353201e+00 1.5644086815e+00 2.7096353201e+00 
110500 5.7471801831e+00 -1.8792435429e-05 1.5644086815e+00 -2.7096353201e+00 1.5644086815e+00 2.7096353201e+00 
110600 5.7471801833e+00 -1.8797379164e-05 1.5644086815e+00 -2.7096353201e+00 1.5644086815e+00 2.7096353201e+00 
110700 5.7471801834e+00 -1.8802287412e-05 1.5644086815e+00 -2.7096353201e+00 1.5644086815e+00 2.7096353201e+00 
110800 5.7471801836e+00 -1.8807160435e-05 1.5644086815e+00 -2.7096353201e+00 1.5644086815e+00 2.7096353201e+00 
110900 5.7471801837e+00 -1.8811998497e-05 1.5644086815e+00 -2.7096353201e+00 1.5644086815e+00 2.7096353201e+00 
111000 5.7471801838e+00 -1.8816801857e-05 1.5644086815e+00 -2.7096353201e+00 1.5644086815e+00 2.7096353201e+00 
111100 5.7471801840e+00 -1.8821570775e-05 1.5644086815e+00 -2.7096353201e+00 1.5644086815e+00 2.7096353201e+00 
111200 5.7471801841e+00 -1.8826305505e-05 1.5644086815e+00 -2.7096353201e+00 1.5644086815e+00 2.7096353201e+00 
111300 5.7471801842e+00 -1.8831006305e-05 1.5644086815e+00 -2.7096353201e+00 1.5644086815e+00 2.7096353201e+00 
111400 5.7471801844e+00 -1.8835673426e-05 1.5644086815e+00 -2.7096353201e+00 1.5644086815e+00 2.7096353201e+00 
111500 5.7471801845e+00 -1.8840307121e-05 1.5644086815e+00 -2.7096353201e+00 1.5644086815e+00 2.7096353201e+00 
111600 5.7471801846e+00 -1.8844907637e-05 1.5644086815e+00 -2.7096353201e+00 1.5644086815e+00 2.7096353201e+00 
111700 5.7471801847e+00 -1.8849475223e-05 1.5644086815e+00 -2.7096353201e+00 1.5644086815e+00 2.7096353201e+00 
111800 5.7471801849e+00 -1.8854010124e-05 1.5644086815e+00 -2.7096353201e+00 1.5644086815e+00 2.7096353201e+00 
111900 5.7471801850e+00 -1.8858512585e-05 1.5644086815e+00 -2.7096353201e+00 1.5644086815e+00 2.7096353201e+00 
112000 5.7471801851e+00 -1.8862982847e-05 1.5644086815e+00 -2.7096353201e+00 1.5644086815e+00 2.7096353201e+00 
112100 5.7471801852e+00 -1.8867421151e-05 1.5644086815e+00 -2.7096353201e+00 1.5644086815e+00 2.7096353201e+00 
112200 5.7471801853e+00 -1.8871827736e-05 1.5644086815e+00 -2.7096353201e+00 1.5644086815e+00 2.7096353201e+00 
112300 5.7471801855e+00 -1.8876202838e-05 1.5644086815e+00 -2.7096353201e+00 1.5644086815e+00 2.7096353201e+00 
112400 5.7471801856e+00 -1.8880546693e-05 1.5644086815e+00 -2.7096353201e+00 1.5644086815e+00 2.7096353201e+00 
112500 5.7471801857e+00 -1.8884859535e-05 1.5644086815e+00 -2.7096353201e+00 1.5644086815e+00 2.7096353201e+00 
112600 5.7471801858e+00 -1.8889141594e-05 1.5644086815e+00 -2.7096353201e+00 1.5644086815e+00 2.7096353201e+00 
112700 5.7471801859e+00 -1.8893393101e-05 1.5644086815e+00 -2.7096353201e+00 1.5644086815e+00 2.7096353201e+00 
112800 5.7471801860e+00 -1.8897614286e-05 1.5644086815e+00 -2.7096353201e+00 1.5644086815e+00 2.7096353201e+00 
112900 5.7471801861e+00 -1.8901805372e-05 1.5644086815e+00 -2.7096353201e+00 1.5644086815e+00 2.7096353201e+00 
113000 5.7471801863e+00 -1.8905966586e-05 1.5644086815e+00 -2.7096353201e+00 1.5644086815e+00 2.7096353201e+00 
113100 5.7471801864e+00 -1.8910098152e-05 1.5644086815e+00 -2.7096353201e+00 1.5644086815e+00 2.7096353201e+00 
113200 5.7471801865e+00 -1.8914200290e-05 1.5644086815e+00 -2.7096353201e+00 1.5644086815e+00 2.7096353201e+00 
113300 5.7471801866e+00 -1.8918273221e-05 1.5644086815e+00 -2.7096353201e+00 1.5644086815e+00 2.7096353201e+00 
113400 5.7471801867e+00 -1.8922317164e-05 1.5644086815e+00 -2.7096353201e+00 1.5644086815e+00 2.7096353201e+00 
113500 5.7471801868e+00 -1.8926332334e-05 1.5644086815e+00 -2.7096353201e+00 1.5644086815e+00 2.7096353201e+00 
113600 5.7471801869e+00 -1.8930318948e-05 1.5644086815e+00 -2.7096353201e+00 1.5644086815e+00 2.7096353201e+00 
113700 5.7471801870e+00 -1.8934277217e-05 1.5644086815e+00 -2.7096353201e+00 1.5644086815e+00 2.7096353201e+00 
113800 5.7471801871e+00 -1.8938207355e-05 1.5644086815e+00 -2.7096353201e+00 1.5644086815e+00 2.7096353201e+00 
113900 5.7471801872e+00 -1.8942109570e-05 1.5644086815e+00 -2.7096353201e+00 1.5644086815e+00 2.7096353201e+00 
114000 5.7471801873e+00 -1.8945984074e-05 1.5644086815e+00 -2.7096353201e+00 1.5644086815e+00 2.7096353201e+00 
114100 5.7471801874e+00 -1.8949831071e-05 1.5644086815e+00 -2.7096353201e+00 1.5644086815e+00 2.7096353201e+00 
114200 5.7471801875e+00 -1.8953650768e-05 1.5644086815e+00 -2.7096353201e+00 1.5644086815e+00 2.7096353201e+00 
114300 5.7471801876e+00 -1.8957443368e-05 1.5644086815e+00 -2.7096353201e+00 1.5644086815e+00 2.7096353201e+00 
114400 5.7471801877e+00 -1.8961209074e-05 1.5644086815e+00 -2.7096353201e+00 1.5644086815e+00 2.7096353201e+00 
114500 5.7471801878e+00 -1.8964948088e-05 1.5644086815e+00 -2.7096353201e+00 1.5644086815e+00 2.7096353201e+00 
114600 5.7471801878e+00 -1.8968660608e-05 1.5644086815e+00 -2.7096353201e+00 1.5644086815e+00 2.7096353201e+00 
114700 5.7471801879e+00 -1.8972346831e-05 1.5644086815e+00 -2.7096353201e+00 1.5644086815e+00 2.7096353201e+00 
114800 5.7471801880e+00 -1.8976006955e-05 1.5644086815e+00 -2.7096353201e+00 1.5644086815e+00 2.7096353201e+00 
114900 5.7471801881e+00 -1.8979641173e-05 1.5644086815e+00 -2.7096353201e+00 1.5644086815e+00 2.7096353201e+00 
115000 5.7471801882e+00 -1.8983249682e-05 1.5644086815e+00 -2.7096353201e+00 1.5644086815e+00 2.7096353201e+00 
115100 5.7471801883e+00 -1.8986832669e-05 1.5644086815e+00 -2.7096353201e+00 1.5644086815e+00 2.7096353201e+00 
115200 5.7471801884e+00 -1.8990390327e-05 1.5644086815e+00 -2.7096353201e+00 1.5644086815e+00 2.7096353201e+00 
115300 5.7471801885e+00 -1.8993922845e-05 1.5644086815e+00 -2.7096353201e+00 1.5644086815e+00 2.7096353201e+00 
115400 5.7471801885e+00 -1.8997430410e-05 1.5644086815e+00 -2.7096353201e+00 1.5644086815e+00 2.7096353201e+00 
115500 5.7471801886e+00 -1.9000913208e-05 1.5644086815e+00 -2.7096353201e+00 1.5644086815e+00 2.7096353201e+00 
115600 5.7471801887e+00 -1.9004371424e-05 1.5644086815e+00 -2.7096353201e+00 1.5644086815e+00 2.7096353201e+00 
115700 5.7471801888e+00 -1.9007805240e-05 1.5644086815e+00 -2.7096353201e+00 1.5644086815e+00 2.7096353201e+00 
115800 5.7471801889e+00 -1.9011214839e-05 1.5644086815e+00 -2.7096353201e+00 1.5644086815e+00 2.7096353201e+00 
115900 5.7471801889e+00 -1.9014600400e-05 1.5644086815e+00 -2.7096353201e+00 1.5644086815e+00 2.7096353201e+00 
116000 5.7471801890e+00 -1.9017962102e-05 1.5644086815e+00 -2.7096353201e+00 1.5644086815e+00 2.7096353201e+00 
116100 5.7471801891e+00 -1.9021300124e-05 1.5644086815e+00 -2.7096353201e+00 1.5644086815e+00 2.7096353201e+00 
116200 5.7471801892e+00 -1.9024614642e-05 1.5644086815e+00 -2.7096353201e+00 1.5644086815e+00 2.7096353201e+00 
116300 5.7471801893e+00 -1.9027905828e-05 1.5644086815e+00 -2.7096353201e+00 1.5644086815e+00 2.7096353201e+00 
116400 5.7471801893e+00 -1.9031173859e-05 1.5644086815e+00 -2.7096353201e+00 1.5644086815e+00 2.7096353201e+00 
116500 5.7471801894e+00 -1.9034418905e-05 1.5644086815e+00 -2.7096353201e+00 1.5644086815e+00 2.7096353201e+00 
116600 5.7471801895e+00 -1.9037641137e-05 1.5644086815e+00 -2.7096353201e+00 1.5644086815e+00 2.7096353201e+00 
116700 5.7471801895e+00 -1.9040840725e-05 1.5644086815e+00 -2.7096353201e+00 1.5644086815e+00 2.7096353201e+00 
116800 5.7471801896e+00 -1.9044017836e-05 1.5644086815e+00 -2.7096353201e+00 1.5644086815e+00 2.7096353201e+00 
116900 5.7471801897e+00 -1.9047172637e-05 1.5644086815e+00 -2.7096353201e+00 1.5644086815e+00 2.7096353201e+00 
117000 5.7471801898e+00 -1.9050305295e-05 1.5644086815e+00 -2.7096353201e+00 1.5644086815e+00 2.7096353201e+00 
117100 5.7471801898e+00 -1.9053415972e-05 1.5644086815e+00 -2.7096353201e+00 1.5644086815e+00 2.7096353201e+00 
117200 5.7471801899e+00 -1.9056504832e-05 1.5644086815e+00 -2.7096353201e+00 1.5644086815e+00 2.7096353201e+00 
117300 5.7471801900e+00 -1.9059572036e-05 1.5644086815e+00 -2.7096353201e+00 1.5644086815e+00 2.7096353201e+00 
117400 5.7471801900e+00 -1.9062617745e-05 1.5644086815e+00 -2.7096353201e+00 1.5644086815e+00 2.7096353201e+00 
117500 5.7471801901e+00 -1.9065642118e-05 1.5644086815e+00 -2.7096353201e+00 1.5644086815e+00 2.7096353201e+00 
117600 5.7471801902e+00 -1.9068645313e-05 1.5644086815e+00 -2.7096353201e+00 1.5644086815e+00 2.7096353201e+00 
117700 5.7471801902e+00 -1.9071627485e-05 1.5644086815e+00 -2.7096353201e+00 1.5644086815e+00 2.7096353201e+00 
117800 5.7471801903e+00 -1.9074588791e-05 1.5644086815e+00 -2.7096353201e+00 1.5644086815e+00 2.7096353201e+00 
117900 5.7471801904e+00 -1.9077529385e-05 1.5644086815e+00 -2.7096353201e+00 1.5644086815e+00 2.7096353201e+00 
118000 5.7471801904e+00 -1.9080449419e-05 1.5644086815e+00 -2.7096353201e+00 1.5644086815e+00 2.7096353201e+00 
118100 5.7471801905e+00 -1.9083349046e-05 1.5644086815e+00 -2.7096353201e+00 1.5644086815e+00 2.7096353201e+00 
118200 5.7471801905e+00 -1.9086228415e-05 1.5644086815e+00 -2.7096353201e+00 1.5644086815e+00 2.7096353201e+00 
118300 5.7471801906e+00 -1.9089087676e-05 1.5644086815e+00 -2.7096353201e+00 1.5644086815e+00 2.7096353201e+00 
118400 5.7471801907e+00 -1.9091926977e-05 1.5644086815e+00 -2.7096353201e+00 1.5644086815e+00 2.7096353201e+00 
118500 5.7471801907e+00 -1.9094746465e-05 1.5644086815e+00 -2.7096353201e+00 1.5644086815e+00 2.7096353201e+00 
118600 5.7471801908e+00 -1.9097546287e-05 1.5644086815e+00 -2.7096353201e+00 1.5644086815e+00 2.7096353201e+00 
118700 5.7471801908e+00 -1.9100326586e-05 1.5644086815e+00 -2.7096353201e+00 1.5644086815e+00 2.7096353201e+00 
118800 5.7471801909e+00 -1.9103087507e-05 1.5644086815e+00 -2.7096353201e+00 1.5644086815e+00 2.7096353201e+00 
118900 5.7471801910e+00 -1.9105829193e-05 1.5644086815e+00 -2.7096353201e+00 1.5644086815e+00 2.7096353201e+00 
119000 5.7471801910e+00 -1.9108551783e-05 1.5644086815e+00 -2.7096353201e+00 1.5644086815e+00 2.7096353201e+00 
119100 5.7471801911e+00 -1.9111255418e-05 1.5644086815e+00 -2.7096353201e+00 1.5644086815e+00 2.7096353201e+00 
119200 5.7471801911e+00 -1.9113940237e-05 1.5644086815e+00 -2.7096353201e+00 1.5644086815e+00 2.7096353201e+00 
119300 5.7471801912e+00 -1.9116606379e-05 1.5644086815e+00 -2.7096353201e+00 1.5644086815e+00 2.7096353201e+00 
119400 5.7471801912e+00 -1.9119253980e-05 1.5644086815e+00 -2.7096353201e+00 1.5644086815e+00 2.7096353201e+00 
119500 5.7471801913e+00 -1.9121883176e-05 1.5644086815e+00 -2.7096353201e+00 1.5644086815e+00 2.7096353201e+00 
119600 5.7471801913e+00 -1.9124494101e-05 1.5644086815e+00 -2.7096353201e+00 1.5644086815e+00 2.7096353201e+00 
119700 5.7471801914e+00 -1.9127086890e-05 1.5644086815e+00 -2.7096353201e+00 1.5644086815e+00 2.7096353201e+00 
119800 5.7471801914e+00 -1.9129661676e-05 1.5644086815e+00 -2.7096353201e+00 1.5644086815e+00 2.7096353201e+00 
119900 5.7471801915e+00 -1.9132218589e-05 1.5644086815e+00 -2.7096353201e+00 1.5644086815e+00 2.7096353201e+00 
120000 5.7471801915e+00 -1.9134757761e-05 1.5644086815e+00 -2.7096353201e+00 1.5644086815e+00 2.7096353201e+00 
120100 5.7471801916e+00 -1.9135919858e-05 1.5644086815e+00 -2.7096353201e+00 1.5644086815e+00 2.7096353201e+00 
120100 5.7471801916e+00 -1.9135919858e-05 1.5644086815e+00 -2.7096353201e+00 1.5644086815e+00 2.7096353201e+00 
