# step Hamiltonian StressXX CellTensor1 CellTensor2 CellTensor3 CellTensor4 
0 6.5795758892e+00 2.5433686513e-01 2.6408444507e+00 -4.5740767634e+00 2.6408444507e+00 4.5740767634e+00 
100 6.6003969216e+00 2.8230241246e-01 2.6408444507e+00 -4.5740767634e+00 2.6408444507e+00 4.5740767634e+00 
200 6.6192269458e+00 3.0825500755e-01 2.6355013304e+00 -4.5648222076e+00 2.6355013304e+00 4.5648222076e+00 
300 6.6371092327e+00 3.3265184972e-01 2.6296553695e+00 -4.5546967064e+00 2.6296553695e+00 4.5546967064e+00 
400 6.6541244817e+00 3.5576115925e-01 2.6233329027e+00 -4.5437458726e+00 2.6233329027e+00 4.5437458726e+00 
500 6.6703233522e+00 3.7779462872e-01 2.6165551220e+00 -4.5320064121e+00 2.6165551220e+00 4.5320064121e+00 
600 6.6857339996e+00 3.9891902156e-01 2.6093391376e+00 -4.5195079605e+00 2.6093391376e+00 4.5195079605e+00 
700 6.7003678002e+00 4.1926529455e-01 2.6016988184e+00 -4.5062745395e+00 2.6016988184e+00 4.5062745395e+00 
800 6.7142236980e+00 4.3893571606e-01 2.5936454610e+00 -4.4923257152e+00 2.5936454610e+00 4.4923257152e+00 
900 6.7272915133e+00 4.5800940031e-01 2.5851883247e+00 -4.4776775255e+00 2.5851883247e+00 4.4776775255e+00 
1000 6.7395544800e+00 4.7654660670e-01 2.5763350638e+00 -4.4623432278e+00 2.5763350638e+00 4.4623432278e+00 
1100 6.7509912090e+00 4.9459208405e-01 2.5670920800e+00 -4.4463339103e+00 2.5670920800e+00 4.4463339103e+00 
1200 6.7615772289e+00 5.1217767877e-01 2.5574648137e+00 -4.4296589959e+00 2.5574648137e+00 4.4296589959e+00 
1300 6.7712862155e+00 5.2932437742e-01 2.5474579871e+00 -4.4123266638e+00 2.5474579871e+00 4.4123266638e+00 
1400 6.7800909921e+00 5.4604391507e-01 2.5370758116e+00 -4.3943442084e+00 2.5370758116e+00 4.3943442084e+00 
1500 6.7879643625e+00 5.6234005196e-01 2.5263221666e+00 -4.3757183489e+00 2.5263221666e+00 4.3757183489e+00 
1600 6.7948798227e+00 5.7820959832e-01 2.5152007558e+00 -4.3564555004e+00 2.5152007558e+00 4.3564555004e+00 
1700 6.8008121826e+00 5.9364325065e-01 2.5037152476e+00 -4.3365620165e+00 2.5037152476e+00 4.3365620165e+00 
1800 6.8057381232e+00 6.0862628985e-01 2.4918694010e+00 -4.3160444084e+00 2.4918694010e+00 4.3160444084e+00 
1900 6.8096367039e+00 6.2313918206e-01 2.4796671822e+00 -4.2949095455e+00 2.4796671822e+00 4.2949095455e+00 
2000 6.8124898315e+00 6.3715811532e-01 2.4671128716e+00 -4.2731648417e+00 2.4671128716e+00 4.2731648417e+00 
2100 6.8142826945e+00 6.5065549870e-01 2.4542111642e+00 -4.2508184288e+00 2.4542111642e+00 4.2508184288e+00 
2200 6.8150041657e+00 6.6360044522e-01 2.4409672632e+00 -4.2278793195e+00 2.4409672632e+00 4.2278793195e+00 
2300 6.8146471698e+00 6.7595925487e-01 2.4273869684e+00 -4.2043575590e+00 2.4273869684e+00 4.2043575590e+00 
2400 6.8132090123e+00 6.8769590892e-01 2.4134767573e+00 -4.1802643665e+00 2.4134767573e+00 4.1802643665e+00 
2500 6.8106916626e+00 6.9877258248e-01 2.3992438607e+00 -4.1556122664e+00 2.3992438607e+00 4.1556122664e+00 
2600 6.8071019857e+00 7.0915017709e-01 2.3846963316e+00 -4.1304152070e+00 2.3846963316e+00 4.1304152070e+00 
2700 6.8024519135e+00 7.1878887103e-01 2.3698431067e+00 -4.1046886667e+00 2.3698431067e+00 4.1046886667e+00 
2800 6.7967585506e+00 7.2764868110e-01 2.3546940592e+00 -4.0784497469e+00 2.3546940592e+00 4.0784497469e+00 
2900 6.7900442098e+00 7.3569002624e-01 2.3392600447e+00 -4.0517172495e+00 2.3392600447e+00 4.0517172495e+00 
3000 6.7823363744e+00 7.4287428146e-01 2.3235529364e+00 -4.0245117400e+00 2.3235529364e+00 4.0245117400e+00 
3100 6.7736675892e+00 7.4916430996e-01 2.3075856529e+00 -3.9968555936e+00 2.3075856529e+00 3.9968555936e+00 
3200 6.7640752829e+00 7.5452496199e-01 2.2913721754e+00 -3.9687730268e+00 2.2913721754e+00 3.9687730268e+00 
3300 6.7536015290e+00 7.5892353150e-01 2.2749275568e+00 -3.9402901119e+00 2.2749275568e+00 3.9402901119e+00 
3400 6.7422927558e+00 7.6233016492e-01 2.2582679217e+00 -3.9114347775e+00 2.2582679217e+00 3.9114347775e+00 
3500 6.7301994145e+00 7.6471822043e-01 2.2414104580e+00 -3.8822367939e+00 2.2414104580e+00 3.8822367939e+00 
3600 6.7173756187e+00 7.6606458000e-01 2.2243734007e+00 -3.8527277450e+00 2.2243734007e+00 3.8527277450e+00 
3700 6.7038787651e+00 7.6634991959e-01 2.2071760077e+00 -3.8229409866e+00 2.2071760077e+00 3.8229409866e+00 
3800 6.6897691465e+00 7.6555894483e-01 2.1898385288e+00 -3.7929115923e+00 2.1898385288e+00 3.7929115923e+00 
3900 6.6751095615e+00 7.6368060026e-01 2.1723821669e+00 -3.7626762866e+00 2.1723821669e+00 3.7626762866e+00 
4000 6.6599649281e+00 7.6070825911e-01 2.1548290316e+00 -3.7322733643e+00 2.1548290316e+00 3.7322733643e+00 
4100 6.6444018998e+00 7.5663989884e-01 2.1372020848e+00 -3.7017425969e+00 2.1372020848e+00 3.7017425969e+00 
4200 6.6284884851e+00 7.5147826485e-01 2.1195250787e+00 -3.6711251242e+00 2.1195250787e+00 3.6711251242e+00 
4300 6.6122936656e+00 7.4523102166e-01 2.1018224835e+00 -3.6404633300e+00 2.1018224835e+00 3.6404633300e+00 
4400 6.5958870101e+00 7.3791088809e-01 2.0841194070e+00 -3.6098007020e+00 2.0841194070e+00 3.6098007020e+00 
4500 6.5793382785e+00 7.2953575004e-01 2.0664415027e+00 -3.5791816736e+00 2.0664415027e+00 3.5791816736e+00 
4600 6.5627170142e+00 7.2012874290e-01 2.0488148686e+00 -3.5486514477e+00 2.0488148686e+00 3.5486514477e+00 
4700 6.5460921203e+00 7.0971829429e-01 2.0312659349e+00 -3.5182558029e+00 2.0312659349e+00 3.5182558029e+00 
4800 6.5295314209e+00 6.9833811743e-01 2.0138213418e+00 -3.4880408813e+00 2.0138213418e+00 3.4880408813e+00 
4900 6.5131012083e+00 6.8602714625e-01 1.9965078067e+00 -3.4580529589e+00 1.9965078067e+00 3.4580529589e+00 
5000 6.4968657807e+00 6.7282940435e-01 1.9793519837e+00 -3.4283382018e+00 1.9793519837e+00 3.4283382018e+00 
5100 6.4808869759e+00 6.5879380205e-01 1.9623803138e+00 -3.3989424073e+00 1.9623803138e+00 3.3989424073e+00 
5200 6.4652237098e+00 6.4397385792e-01 1.9456188707e+00 -3.3699107363e+00 1.9456188707e+00 3.3699107363e+00 
5300 6.4499315279e+00 6.2842734434e-01 1.9290932010e+00 -3.3412874367e+00 1.9290932010e+00 3.3412874367e+00 
5400 6.4350621814e+00 6.1221585891e-01 1.9128281633e+00 -3.3131155650e+00 1.9128281633e+00 3.3131155650e+00 
5500 6.4206632368e+00 5.9540432676e-01 1.8968477676e+00 -3.2854367077e+00 1.8968477676e+00 3.2854367077e+00 
5600 6.4067777304e+00 5.7806044134e-01 1.8811750176e+00 -3.2582907085e+00 1.8811750176e+00 3.2582907085e+00 
5700 6.3934438766e+00 5.6025405340e-01 1.8658317592e+00 -3.2317154053e+00 1.8658317592e+00 3.2317154053e+00 
5800 6.3806948379e+00 5.4205652014e-01 1.8508385368e+00 -3.2057463823e+00 1.8508385368e+00 3.2057463823e+00 
5900 6.3685585635e+00 5.2354002752e-01 1.8362144614e+00 -3.1804167407e+00 1.8362144614e+00 3.1804167407e+00 
6000 6.3570576990e+00 5.0477690015e-01 1.8219770915e+00 -3.1557568928e+00 1.8219770915e+00 3.1557568928e+00 
6100 6.3462095718e+00 4.8583891304e-01 1.8081423301e+00 -3.1317943830e+00 1.8081423301e+00 3.1317943830e+00 
6200 6.3360262497e+00 4.6679661995e-01 1.7947243385e+00 -3.1085537399e+00 1.7947243385e+00 3.1085537399e+00 
6300 6.3265146714e+00 4.4771871174e-01 1.7817354701e+00 -3.0860563598e+00 1.7817354701e+00 3.0860563598e+00 
6400 6.3176768432e+00 4.2867141775e-01 1.7691862226e+00 -3.0643204256e+00 1.7691862226e+00 3.0643204256e+00 
6500 6.3095100974e+00 4.0971796114e-01 1.7570852125e+00 -3.0433608612e+00 1.7570852125e+00 3.0433608612e+00 
6600 6.3020074012e+00 3.9091807746e-01 1.7454391687e+00 -3.0231893216e+00 1.7454391687e+00 3.0231893216e+00 
6700 6.2951577111e+00 3.7232760388e-01 1.7342529474e+00 -3.0038142180e+00 1.7342529474e+00 3.0038142180e+00 
6800 6.2889463589e+00 3.5399814388e-01 1.7235295661e+00 -2.9852407768e+00 1.7235295661e+00 2.9852407768e+00 
6900 6.2833554628e+00 3.3597681017e-01 1.7132702558e+00 -2.9674711302e+00 1.7132702558e+00 2.9674711302e+00 
7000 6.2783643504e+00 3.1830604642e-01 1.7034745305e+00 -2.9505044362e+00 1.7034745305e+00 2.9505044362e+00 
7100 6.2739499865e+00 3.0102352616e-01 1.6941402706e+00 -2.9343370238e+00 1.6941402706e+00 2.9343370238e+00 
7200 6.2700873960e+00 2.8416212538e-01 1.6852638202e+00 -2.9189625608e+00 1.6852638202e+00 2.9189625608e+00 
7300 6.2667500733e+00 2.6774996380e-01 1.6768400944e+00 -2.9043722397e+00 1.6768400944e+00 2.9043722397e+00 
7400 6.2639103725e+00 2.5181050844e-01 1.6688626945e+00 -2.8905549778e+00 1.6688626945e+00 2.8905549778e+00 
7500 6.2615398738e+00 2.3636273217e-01 1.6613240299e+00 -2.8774976277e+00 1.6613240299e+00 2.8774976277e+00 
7600 6.2596097192e+00 2.2142131912e-01 1.6542154430e+00 -2.8651851940e+00 1.6542154430e+00 2.8651851940e+00 
7700 6.2580909179e+00 2.0699690884e-01 1.6475273357e+00 -2.8536010523e+00 1.6475273357e+00 2.8536010523e+00 
7800 6.2569546175e+00 1.9309637061e-01 1.6412492955e+00 -2.8427271676e+00 1.6412492955e+00 2.8427271676e+00 
7900 6.2561723420e+00 1.7972309991e-01 1.6353702189e+00 -2.8325443083e+00 1.6353702189e+00 2.8325443083e+00 
8000 6.2557161947e+00 1.6687732939e-01 1.6298784314e+00 -2.8230322533e+00 1.6298784314e+00 2.8230322533e+00 
8100 6.2555590302e+00 1.5455644698e-01 1.6247618014e+00 -2.8141699902e+00 1.6247618014e+00 2.8141699902e+00 
8200 6.2556745946e+00 1.4275531508e-01 1.6200078486e+00 -2.8059359024e+00 1.6200078486e+00 2.8059359024e+00 
8300 6.2560376370e+00 1.3146658505e-01 1.6156038444e+00 -2.7983079433e+00 1.6156038444e+00 2.7983079433e+00 
8400 6.2566239952e+00 1.2068100236e-01 1.6115369047e+00 -2.7912637973e+00 1.6115369047e+00 2.7912637973e+00 
8500 6.2574106575e+00 1.1038769856e-01 1.6077940751e+00 -2.7847810262e+00 1.6077940751e+00 2.7847810262e+00 
8600 6.2583758041e+00 1.0057446689e-01 1.6043624064e+00 -2.7788372016e+00 1.6043624064e+00 2.7788372016e+00 
8700 6.2594988295e+00 9.1228019487e-02 1.6012290229e+00 -2.7734100222e+00 1.6012290229e+00 2.7734100222e+00 
8800 6.2607603500e+00 8.2334224467e-02 1.5983811816e+00 -2.7684774164e+00 1.5983811816e+00 2.7684774164e+00 
8900 6.2621421979e+00 7.3878322005e-02 1.5958063241e+00 -2.7640176323e+00 1.5958063241e+00 2.7640176323e+00 
9000 6.2636274048e+00 6.5845119110e-02 1.5934921198e+00 -2.7600093130e+00 1.5934921198e+00 2.7600093130e+00 
9100 6.2652001756e+00 5.8219163161e-02 1.5914265033e+00 -2.7564315603e+00 1.5914265033e+00 2.7564315603e+00 
9200 6.2668458557e+00 5.0984894710e-02 1.5895977039e+00 -2.7532639868e+00 1.5895977039e+00 2.7532639868e+00 
9300 6.2685508932e+00 4.4126780365e-02 1.5879942695e+00 -2.7504867569e+00 1.5879942695e+00 2.7504867569e+00 
9400 6.2703027959e+00 3.7629426799e-02 1.5866050850e+00 -2.7480806188e+00 1.5866050850e+00 2.7480806188e+00 
9500 6.2720900863e+00 3.1477677080e-02 1.5854193855e+00 -2.7460269271e+00 1.5854193855e+00 2.7460269271e+00 
9600 6.2739022541e+00 2.5656690675e-02 1.5844267652e+00 -2.7443076582e+00 1.5844267652e+00 2.7443076582e+00 
9700 6.2757297078e+00 2.0152008490e-02 1.5836171821e+00 -2.7429054191e+00 1.5836171821e+00 2.7429054191e+00 
9800 6.2775637259e+00 1.4949604373e-02 1.5829809595e+00 -2.7418034493e+00 1.5829809595e+00 2.7418034493e+00 
9900 6.2793964078e+00 1.0035924481e-02 1.5825087852e+00 -2.7409856193e+00 1.5825087852e+00 2.7409856193e+00 
10000 6.2812206259e+00 5.3979158642e-03 1.5821917067e+00 -2.7404364233e+00 1.5821917067e+00 2.7404364233e+00 
10100 6.2830299778e+00 1.0230455926e-03 1.5820211263e+00 -2.7401409693e+00 1.5820211263e+00 2.7401409693e+00 
10200 6.2848187406e+00 -3.1006883636e-03 1.5819887929e+00 -2.7400849663e+00 1.5819887929e+00 2.7400849663e+00 
10300 6.2865818252e+00 -6.9847533276e-03 1.5820867936e+00 -2.7402547085e+00 1.5820867936e+00 2.7402547085e+00 
10400 6.2883147338e+00 -1.0640084130e-02 1.5823075437e+00 -2.7406370588e+00 1.5823075437e+00 2.7406370588e+00 
10500 6.2900135174e+00 -1.4077090365e-02 1.5826437761e+00 -2.7412194304e+00 1.5826437761e+00 2.7412194304e+00 
10600 6.2916747362e+00 -1.7305667813e-02 1.5830885303e+00 -2.7419897673e+00 1.5830885303e+00 2.7419897673e+00 
10700 6.2932954207e+00 -2.0335213224e-02 1.5836351410e+00 -2.7429365248e+00 1.5836351410e+00 2.7429365248e+00 
10800 6.2948730356e+00 -2.3174641768e-02 1.5842772266e+00 -2.7440486497e+00 1.5842772266e+00 2.7440486497e+00 
10900 6.2964054447e+00 -2.5832406524e-02 1.5850086776e+00 -2.7453155601e+00 1.5850086776e+00 2.7453155601e+00 
11000 6.2978908776e+00 -2.8316519453e-02 1.5858236454e+00 -2.7467271256e+00 1.5858236454e+00 2.7467271256e+00 
11100 6.2993278988e+00 -3.0634573379e-02 1.5867165307e+00 -2.7482736484e+00 1.5867165307e+00 2.7482736484e+00 
11200 6.3007153774e+00 -3.2793764577e-02 1.5876819734e+00 -2.7499458443e+00 1.5876819734e+00 2.7499458443e+00 
11300 6.3020524599e+00 -3.4800915599e-02 1.5887148414e+00 -2.7517348241e+00 1.5887148414e+00 2.7517348241e+00 
11400 6.3033385433e+00 -3.6662498044e-02 1.5898102209e+00 -2.7536320769e+00 1.5898102209e+00 2.7536320769e+00 
11500 6.3045732507e+00 -3.8384655036e-02 1.5909634065e+00 -2.7556294531e+00 1.5909634065e+00 2.7556294531e+00 
11600 6.3057564082e+00 -3.9973223175e-02 1.5921698925e+00 -2.7577191481e+00 1.5921698925e+00 2.7577191481e+00 
11700 6.3068880235e+00 -4.1433753820e-02 1.5934253638e+00 -2.7598936882e+00 1.5934253638e+00 2.7598936882e+00 
11800 6.3079682655e+00 -4.2771533547e-02 1.5947256878e+00 -2.7621459154e+00 1.5947256878e+00 2.7621459154e+00 
11900 6.3089974463e+00 -4.3991603689e-02 1.5960669066e+00 -2.7644689746e+00 1.5960669066e+00 2.7644689746e+00 
12000 6.3099760035e+00 -4.5098778883e-02 1.5974452301e+00 -2.7668563008e+00 1.5974452301e+00 2.7668563008e+00 
12100 6.3109044850e+00 -4.6097664547e-02 1.5988570286e+00 -2.7693016075e+00 1.5988570286e+00 2.7693016075e+00 
12200 6.3117835343e+00 -4.6992673272e-02 1.6002988268e+00 -2.7717988753e+00 1.6002988268e+00 2.7717988753e+00 
12300 6.3126138770e+00 -4.7788040100e-02 1.6017672980e+00 -2.7743423420e+00 1.6017672980e+00 2.7743423420e+00 
12400 6.3133963096e+00 -4.8487836682e-02 1.6032592578e+00 -2.7769264923e+00 1.6032592578e+00 2.7769264923e+00 
12500 6.3141316881e+00 -4.9095984323e-02 1.6047716599e+00 -2.7795460494e+00 1.6047716599e+00 2.7795460494e+00 
12600 6.3148209187e+00 -4.9616265938e-02 1.6063015902e+00 -2.7821959665e+00 1.6063015902e+00 2.7821959665e+00 
12700 6.3154649487e+00 -5.0052336931e-02 1.6078462631e+00 -2.7848714184e+00 1.6078462631e+00 2.7848714184e+00 
12800 6.3160647596e+00 -5.0407735054e-02 1.6094030165e+00 -2.7875677945e+00 1.6094030165e+00 2.7875677945e+00 
12900 6.3166213596e+00 -5.0685889254e-02 1.6109693085e+00 -2.7902806918e+00 1.6109693085e+00 2.7902806918e+00 
13000 6.3171357785e+00 -5.0890127592e-02 1.6125427131e+00 -2.7930059085e+00 1.6125427131e+00 2.7930059085e+00 
13100 6.3176090621e+00 -5.1023684237e-02 1.6141209169e+00 -2.7957394376e+00 1.6141209169e+00 2.7957394376e+00 
13200 6.3180422682e+00 -5.1089705631e-02 1.6157017155e+00 -2.7984774612e+00 1.6157017155e+00 2.7984774612e+00 
13300 6.3184364630e+00 -5.1091255847e-02 1.6172830108e+00 -2.8012163449e+00 1.6172830108e+00 2.8012163449e+00 
13400 6.3187927181e+00 -5.1031321206e-02 1.6188628074e+00 -2.8039526329e+00 1.6188628074e+00 2.8039526329e+00 
13500 6.3191121082e+00 -5.0912814211e-02 1.6204392101e+00 -2.8066830425e+00 1.6204392101e+00 2.8066830425e+00 
13600 6.3193957089e+00 -5.0738576853e-02 1.6220104209e+00 -2.8094044595e+00 1.6220104209e+00 2.8094044595e+00 
13700 6.3196445959e+00 -5.0511383340e-02 1.6235747365e+00 -2.8121139335e+00 1.6235747365e+00 2.8121139335e+00 
13800 6.3198598431e+00 -5.0233942304e-02 1.6251305454e+00 -2.8148086736e+00 1.6251305454e+00 2.8148086736e+00 
13900 6.3200425226e+00 -4.9908898558e-02 1.6266763258e+00 -2.8174860437e+00 1.6266763258e+00 2.8174860437e+00 
14000 6.3201937042e+00 -4.9538834419e-02 1.6282106426e+00 -2.8201435584e+00 1.6282106426e+00 2.8201435584e+00 
14100 6.3203144546e+00 -4.9126270693e-02 1.6297321454e+00 -2.8227788785e+00 1.6297321454e+00 2.8227788785e+00 
14200 6.3204058382e+00 -4.8673667330e-02 1.6312395660e+00 -2.8253898076e+00 1.6312395660e+00 2.8253898076e+00 
14300 6.3204689169e+00 -4.8183423820e-02 1.6327317159e+00 -2.8279742871e+00 1.6327317159e+00 2.8279742871e+00 
14400 6.3205047501e+00 -4.7657879376e-02 1.6342074842e+00 -2.8305303928e+00 1.6342074842e+00 2.8305303928e+00 
14500 6.3205143956e+00 -4.7099312922e-02 1.6356658351e+00 -2.8330563307e+00 1.6356658351e+00 2.8330563307e+00 
14600 6.3204989095e+00 -4.6509942954e-02 1.6371058058e+00 -2.8355504330e+00 1.6371058058e+00 2.8355504330e+00 
14700 6.3204593465e+00 -4.5891927292e-02 1.6385265039e+00 -2.8380111544e+00 1.6385265039e+00 2.8380111544e+00 
14800 6.3203967608e+00 -4.5247362764e-02 1.6399271056e+00 -2.8404370676e+00 1.6399271056e+00 2.8404370676e+00 
14900 6.3203122055e+00 -4.4578284844e-02 1.6413068529e+00 -2.8428268601e+00 1.6413068529e+00 2.8428268601e+00 
15000 6.3202067336e+00 -4.3886667291e-02 1.6426650520e+00 -2.8451793298e+00 1.6426650520e+00 2.8451793298e+00 
15100 6.3200813977e+00 -4.3174421784e-02 1.6440010702e+00 -2.8474933814e+00 1.6440010702e+00 2.8474933814e+00 
15200 6.3199372498e+00 -4.2443397610e-02 1.6453143347e+00 -2.8497680222e+00 1.6453143347e+00 2.8497680222e+00 
15300 6.3197753416e+00 -4.1695381388e-02 1.6466043295e+00 -2.8520023587e+00 1.6466043295e+00 2.8520023587e+00 
15400 6.3195967240e+00 -4.0932096881e-02 1.6478705937e+00 -2.8541955926e+00 1.6478705937e+00 2.8541955926e+00 
15500 6.3194024467e+00 -4.0155204874e-02 1.6491127190e+00 -2.8563470167e+00 1.6491127190e+00 2.8563470167e+00 
15600 6.3191935579e+00 -3.9366303164e-02 1.6503303477e+00 -2.8584560116e+00 1.6503303477e+00 2.8584560116e+00 
15700 6.3189711031e+00 -3.8566926645e-02 1.6515231708e+00 -2.8605220417e+00 1.6515231708e+00 2.8605220417e+00 
15800 6.3187361250e+00 -3.7758547501e-02 1.6526909252e+00 -2.8625446516e+00 1.6526909252e+00 2.8625446516e+00 
15900 6.3184896618e+00 -3.6942575526e-02 1.6538333921e+00 -2.8645234623e+00 1.6538333921e+00 2.8645234623e+00 
16000 6.3182327469e+00 -3.6120358547e-02 1.6549503949e+00 -2.8664581679e+00 1.6549503949e+00 2.8664581679e+00 
16100 6.3179664072e+00 -3.5293182978e-02 1.6560417970e+00 -2.8683485318e+00 1.6560417970e+00 2.8683485318e+00 
16200 6.3176916619e+00 -3.4462274483e-02 1.6571074997e+00 -2.8701943831e+00 1.6571074997e+00 2.8701943831e+00 
16300 6.3174095214e+00 -3.3628798758e-02 1.6581474406e+00 -2.8719956135e+00 1.6581474406e+00 2.8719956135e+00 
16400 6.3171209854e+00 -3.2793862425e-02 1.6591615912e+00 -2.8737521738e+00 1.6591615912e+00 2.8737521738e+00 
16500 6.3168270419e+00 -3.1958514029e-02 1.6601499553e+00 -2.8754640707e+00 1.6601499553e+00 2.8754640707e+00 
16600 6.3165286648e+00 -3.1123745142e-02 1.6611125671e+00 -2.8771313634e+00 1.6611125671e+00 2.8771313634e+00 
16700 6.3162268132e+00 -3.0290491555e-02 1.6620494895e+00 -2.8787541604e+00 1.6620494895e+00 2.8787541604e+00 
16800 6.3159224290e+00 -2.9459634561e-02 1.6629608118e+00 -2.8803326171e+00 1.6629608118e+00 2.8803326171e+00 
16900 6.3156164356e+00 -2.8632002319e-02 1.6638466490e+00 -2.8818669320e+00 1.6638466490e+00 2.8818669320e+00 
17000 6.3153097359e+00 -2.7808371290e-02 1.6647071390e+00 -2.8833573444e+00 1.6647071390e+00 2.8833573444e+00 
17100 6.3150032109e+00 -2.6989467728e-02 1.6655424419e+00 -2.8848041316e+00 1.6655424419e+00 2.8848041316e+00 
17200 6.3146977178e+00 -2.6175969243e-02 1.6663527381e+00 -2.8862076058e+00 1.6663527381e+00 2.8862076058e+00 
17300 6.3143940884e+00 -2.5368506394e-02 1.6671382268e+00 -2.8875681121e+00 1.6671382268e+00 2.8875681121e+00 
17400 6.3140931278e+00 -2.4567664330e-02 1.6678991246e+00 -2.8888860257e+00 1.6678991246e+00 2.8888860257e+00 
17500 6.3137956123e+00 -2.3773984462e-02 1.6686356641e+00 -2.8901617495e+00 1.6686356641e+00 2.8901617495e+00 
17600 6.3135022884e+00 -2.2987966155e-02 1.6693480927e+00 -2.8913957121e+00 1.6693480927e+00 2.8913957121e+00 
17700 6.3132138713e+00 -2.2210068431e-02 1.6700366712e+00 -2.8925883651e+00 1.6700366712e+00 2.8925883651e+00 
17800 6.3129310436e+00 -2.1440711689e-02 1.6707016729e+00 -2.8937401817e+00 1.6707016729e+00 2.8937401817e+00 
17900 6.3126544538e+00 -2.0680279423e-02 1.6713433818e+00 -2.8948516542e+00 1.6713433818e+00 2.8948516542e+00 
18000 6.3123847158e+00 -1.9929119924e-02 1.6719620923e+00 -2.8959232922e+00 1.6719620923e+00 2.8959232922e+00 
18100 6.3121224073e+00 -1.9187547990e-02 1.6725581077e+00 -2.8969556212e+00 1.6725581077e+00 2.8969556212e+00 
18200 6.3118680693e+00 -1.8455846598e-02 1.6731317394e+00 -2.8979491803e+00 1.6731317394e+00 2.8979491803e+00 
18300 6.3116222053e+00 -1.7734268572e-02 1.6736833056e+00 -2.8989045211e+00 1.6736833056e+00 2.8989045211e+00 
18400 6.3113852804e+00 -1.7023038207e-02 1.6742131312e+00 -2.8998222059e+00 1.6742131312e+00 2.8998222059e+00 
18500 6.3111577213e+00 -1.6322352877e-02 1.6747215461e+00 -2.9007028064e+00 1.6747215461e+00 2.9007028064e+00 
18600 6.3109399153e+00 -1.5632384595e-02 1.6752088852e+00 -2.9015469024e+00 1.6752088852e+00 2.9015469024e+00 
18700 6.3107322105e+00 -1.4953281546e-02 1.6756754870e+00 -2.9023550804e+00 1.6756754870e+00 2.9023550804e+00 
18800 6.3105349156e+00 -1.4285169568e-02 1.6761216934e+00 -2.9031279327e+00 1.6761216934e+00 2.9031279327e+00 
18900 6.3103482998e+00 -1.3628153595e-02 1.6765478491e+00 -2.9038660560e+00 1.6765478491e+00 2.9038660560e+00 
19000 6.3101725928e+00 -1.2982319055e-02 1.6769543005e+00 -2.9045700504e+00 1.6769543005e+00 2.9045700504e+00 
19100 6.3100079856e+00 -1.2347733213e-02 1.6773413957e+00 -2.9052405189e+00 1.6773413957e+00 2.9052405189e+00 
19200 6.3098546301e+00 -1.1724446476e-02 1.6777094837e+00 -2.9058780661e+00 1.6777094837e+00 2.9058780661e+00 
19300 6.3097126404e+00 -1.1112493635e-02 1.6780589141e+00 -2.9064832972e+00 1.6780589141e+00 2.9064832972e+00 
19400 6.3095820928e+00 -1.0511895064e-02 1.6783900365e+00 -2.9070568181e+00 1.6783900365e+00 2.9070568181e+00 
19500 6.3094630267e+00 -9.9226578647e-03 1.6787032003e+00 -2.9075992338e+00 1.6787032003e+00 2.9075992338e+00 
19600 6.3093554457e+00 -9.3447769587e-03 1.6789987543e+00 -2.9081111484e+00 1.6789987543e+00 2.9081111484e+00 
19700 6.3092593181e+00 -8.7782361280e-03 1.6792770462e+00 -2.9085931641e+00 1.6792770462e+00 2.9085931641e+00 
19800 6.3091745783e+00 -8.2230090030e-03 1.6795384225e+00 -2.9090458811e+00 1.6795384225e+00 2.9090458811e+00 
19900 6.3091011276e+00 -7.6790599990e-03 1.6797832281e+00 -2.9094698968e+00 1.6797832281e+00 2.9094698968e+00 
20000 6.3090388358e+00 -7.1463452016e-03 1.6800118063e+00 -2.9098658058e+00 1.6800118063e+00 2.9098658058e+00 
20100 6.3089875421e+00 -6.6248132008e-03 1.6802244981e+00 -2.9102341988e+00 1.6802244981e+00 2.9102341988e+00 
20200 6.3089470564e+00 -6.1144058766e-03 1.6804216427e+00 -2.9105756632e+00 1.6804216427e+00 2.9105756632e+00 
20300 6.3089171612e+00 -5.6150591342e-03 1.6806035767e+00 -2.9108907822e+00 1.6806035767e+00 2.9108907822e+00 
20400 6.3088976127e+00 -5.1267035926e-03 1.6807706343e+00 -2.9111801344e+00 1.6807706343e+00 2.9111801344e+00 
20500 6.3088881422e+00 -4.6492652261e-03 1.6809231471e+00 -2.9114442944e+00 1.6809231471e+00 2.9114442944e+00 
20600 6.3088884580e+00 -4.1826659597e-03 1.6810614440e+00 -2.9116838316e+00 1.6810614440e+00 2.9116838316e+00 
20700 6.3088982469e+00 -3.7268242213e-03 1.6811858510e+00 -2.9118993109e+00 1.6811858510e+00 2.9118993109e+00 
20800 6.3089171756e+00 -3.2816554504e-03 1.6812966914e+00 -2.9120912921e+00 1.6812966914e+00 2.9120912921e+00 
20900 6.3089448927e+00 -2.8470725654e-03 1.6813942853e+00 -2.9122603297e+00 1.6813942853e+00 2.9122603297e+00 
21000 6.3089810301e+00 -2.4229863910e-03 1.6814789501e+00 -2.9124069734e+00 1.6814789501e+00 2.9124069734e+00 
21100 6.3090252048e+00 -2.0093060469e-03 1.6815509998e+00 -2.9125317672e+00 1.6815509998e+00 2.9125317672e+00 
21200 6.3090770205e+00 -1.6059392992e-03 1.6816107458e+00 -2.9126352503e+00 1.6816107458e+00 2.9126352503e+00 
21300 6.3091360694e+00 -1.2127928771e-03 1.6816584961e+00 -2.9127179562e+00 1.6816584961e+00 2.9127179562e+00 
21400 6.3092019338e+00 -8.2977275462e-04 1.6816945556e+00 -2.9127804131e+00 1.6816945556e+00 2.9127804131e+00 
21500 6.3092741878e+00 -4.5678440030e-04 1.6817192264e+00 -2.9128231442e+00 1.6817192264e+00 2.9128231442e+00 
21600 6.3093523987e+00 -9.3732996179e-05 1.6817328073e+00 -2.9128466670e+00 1.6817328073e+00 2.9128466670e+00 
21700 6.3094361291e+00 2.5947637281e-04 1.6817355941e+00 -2.9128514939e+00 1.6817355941e+00 2.9128514939e+00 
21800 6.3095249380e+00 6.0293855708e-04 1.6817278796e+00 -2.9128381319e+00 1.6817278796e+00 2.9128381319e+00 
21900 6.3096183825e+00 9.3674820688e-04 1.6817099534e+00 -2.9128070830e+00 1.6817099534e+00 2.9128070830e+00 
22000 6.3097160193e+00 1.2609996614e-03 1.6816821025e+00 -2.9127588436e+00 1.6816821025e+00 2.9127588436e+00 
22100 6.3098174064e+00 1.5757868609e-03 1.6816446104e+00 -2.9126939055e+00 1.6816446104e+00 2.9126939055e+00 
22200 6.3099221040e+00 1.8812032808e-03 1.6815977580e+00 -2.9126127548e+00 1.6815977580e+00 2.9126127548e+00 
22300 6.3100296765e+00 2.1773418851e-03 1.6815418234e+00 -2.9125158731e+00 1.6815418234e+00 2.9125158731e+00 
22400 6.3101396931e+00 2.4642950996e-03 1.6814770814e+00 -2.9124037367e+00 1.6814770814e+00 2.9124037367e+00 
22500 6.3102517297e+00 2.7421548008e-03 1.6814038042e+00 -2.9122768169e+00 1.6814038042e+00 2.9122768169e+00 
22600 6.3103653695e+00 3.0110123219e-03 1.6813222612e+00 -2.9121355804e+00 1.6813222612e+00 2.9121355804e+00 
22700 6.3104802048e+00 3.2709584721e-03 1.6812327191e+00 -2.9119804887e+00 1.6812327191e+00 2.9119804887e+00 
22800 6.3105958373e+00 3.5220835694e-03 1.6811354414e+00 -2.9118119989e+00 1.6811354414e+00 2.9118119989e+00 
22900 6.3107118797e+00 3.7644774848e-03 1.6810306894e+00 -2.9116305631e+00 1.6810306894e+00 2.9116305631e+00 
23000 6.3108279562e+00 3.9982296969e-03 1.6809187213e+00 -2.9114366287e+00 1.6809187213e+00 2.9114366287e+00 
23100 6.3109437038e+00 4.2234293550e-03 1.6807997928e+00 -2.9112306385e+00 1.6807997928e+00 2.9112306385e+00 
23200 6.3110587725e+00 4.4401653511e-03 1.6806741569e+00 -2.9110130307e+00 1.6806741569e+00 2.9110130307e+00 
23300 6.3111728267e+00 4.6485263969e-03 1.6805420638e+00 -2.9107842388e+00 1.6805420638e+00 2.9107842388e+00 
23400 6.3112855450e+00 4.8486011080e-03 1.6804037614e+00 -2.9105446919e+00 1.6804037614e+00 2.9105446919e+00 
23500 6.3113966218e+00 5.0404780907e-03 1.6802594945e+00 -2.9102948144e+00 1.6802594945e+00 2.9102948144e+00 
23600 6.3115057668e+00 5.2242460333e-03 1.6801095057e+00 -2.9100350261e+00 1.6801095057e+00 2.9100350261e+00 
23700 6.3116127062e+00 5.3999937991e-03 1.6799540347e+00 -2.9097657425e+00 1.6799540347e+00 2.9097657425e+00 
23800 6.3117171825e+00 5.5678105209e-03 1.6797933188e+00 -2.9094873743e+00 1.6797933188e+00 2.9094873743e+00 
23900 6.3118189552e+00 5.7277856952e-03 1.6796275924e+00 -2.9092003279e+00 1.6796275924e+00 2.9092003279e+00 
24000 6.3119178007e+00 5.8800092768e-03 1.6794570877e+00 -2.9089050051e+00 1.6794570877e+00 2.9089050051e+00 
24100 6.3120135129e+00 6.0245717711e-03 1.6792820339e+00 -2.9086018030e+00 1.6792820339e+00 2.9086018030e+00 
24200 6.3121059027e+00 6.1615643251e-03 1.6791026577e+00 -2.9082911143e+00 1.6791026577e+00 2.9082911143e+00 
24300 6.3121947985e+00 6.2910788149e-03 1.6789191832e+00 -2.9079733270e+00 1.6789191832e+00 2.9079733270e+00 
24400 6.3122800462e+00 6.4132079298e-03 1.6787318316e+00 -2.9076488247e+00 1.6787318316e+00 2.9076488247e+00 
24500 6.3123615086e+00 6.5280452523e-03 1.6785408218e+00 -2.9073179859e+00 1.6785408218e+00 2.9073179859e+00 
24600 6.3124390658e+00 6.6356853333e-03 1.6783463696e+00 -2.9069811848e+00 1.6783463696e+00 2.9069811848e+00 
24700 6.3125126148e+00 6.7362237624e-03 1.6781486882e+00 -2.9066387907e+00 1.6781486882e+00 2.9066387907e+00 
24800 6.3125820694e+00 6.8297572317e-03 1.6779479882e+00 -2.9062911681e+00 1.6779479882e+00 2.9062911681e+00 
24900 6.3126473595e+00 6.9163835942e-03 1.6777444772e+00 -2.9059386766e+00 1.6777444772e+00 2.9059386766e+00 
25000 6.3127084312e+00 6.9962019154e-03 1.6775383599e+00 -2.9055816710e+00 1.6775383599e+00 2.9055816710e+00 
25100 6.3127652462e+00 7.0693125182e-03 1.6773298384e+00 -2.9052205011e+00 1.6773298384e+00 2.9052205011e+00 
25200 6.3128177816e+00 7.1358170209e-03 1.6771191117e+00 -2.9048555117e+00 1.6771191117e+00 2.9048555117e+00 
25300 6.3128660291e+00 7.1958183671e-03 1.6769063758e+00 -2.9044870425e+00 1.6769063758e+00 2.9044870425e+00 
25400 6.3129099948e+00 7.2494208498e-03 1.6766918241e+00 -2.9041154279e+00 1.6766918241e+00 2.9041154279e+00 
25500 6.3129496984e+00 7.2967301264e-03 1.6764756464e+00 -2.9037409973e+00 1.6764756464e+00 2.9037409973e+00 
25600 6.3129851729e+00 7.3378532268e-03 1.6762580300e+00 -2.9033640746e+00 1.6762580300e+00 2.9033640746e+00 
25700 6.3130164641e+00 7.3728985543e-03 1.6760391588e+00 -2.9029849785e+00 1.6760391588e+00 2.9029849785e+00 
25800 6.3130436296e+00 7.4019758782e-03 1.6758192135e+00 -2.9026040221e+00 1.6758192135e+00 2.9026040221e+00 
25900 6.3130667385e+00 7.4251963191e-03 1.6755983719e+00 -2.9022215132e+00 1.6755983719e+00 2.9022215132e+00 
26000 6.3130858707e+00 7.4426723273e-03 1.6753768083e+00 -2.9018377538e+00 1.6753768083e+00 2.9018377538e+00 
26100 6.3131011162e+00 7.4545176535e-03 1.6751546938e+00 -2.9014530403e+00 1.6751546938e+00 2.9014530403e+00 
26200 6.3131125743e+00 7.4608473123e-03 1.6749321964e+00 -2.9010676634e+00 1.6749321964e+00 2.9010676634e+00 
26300 6.3131203533e+00 7.4617775395e-03 1.6747094805e+00 -2.9006819081e+00 1.6747094805e+00 2.9006819081e+00 
26400 6.3131245696e+00 7.4574257422e-03 1.6744867071e+00 -2.9002960533e+00 1.6744867071e+00 2.9002960533e+00 
26500 6.3131253470e+00 7.4479104427e-03 1.6742640341e+00 -2.8999103724e+00 1.6742640341e+00 2.8999103724e+00 
26600 6.3131228158e+00 7.4333512171e-03 1.6740416156e+00 -2.8995251322e+00 1.6740416156e+00 2.8995251322e+00 
26700 6.3131171127e+00 7.4138686269e-03 1.6738196024e+00 -2.8991405941e+00 1.6738196024e+00 2.8991405941e+00 
26800 6.3131083796e+00 7.3895841468e-03 1.6735981417e+00 -2.8987570129e+00 1.6735981417e+00 2.8987570129e+00 
26900 6.3130967632e+00 7.3606200861e-03 1.6733773772e+00 -2.8983746375e+00 1.6733773772e+00 2.8983746375e+00 
27000 6.3130824141e+00 7.3270995070e-03 1.6731574490e+00 -2.8979937107e+00 1.6731574490e+00 2.8979937107e+00 
27100 6.3130654866e+00 7.2891461373e-03 1.6729384935e+00 -2.8976144686e+00 1.6729384935e+00 2.8976144686e+00 
27200 6.3130461373e+00 7.2468842805e-03 1.6727206436e+00 -2.8972371416e+00 1.6727206436e+00 2.8972371416e+00 
27300 6.3130245253e+00 7.2004387220e-03 1.6725040286e+00 -2.8968619534e+00 1.6725040286e+00 2.8968619534e+00 
27400 6.3130008110e+00 7.1499346325e-03 1.6722887740e+00 -2.8964891215e+00 1.6722887740e+00 2.8964891215e+00 
27500 6.3129751560e+00 7.0954974694e-03 1.6720750017e+00 -2.8961188569e+00 1.6720750017e+00 2.8961188569e+00 
27600 6.3129477218e+00 7.0372528751e-03 1.6718628297e+00 -2.8957513644e+00 1.6718628297e+00 2.8957513644e+00 
27700 6.3129186701e+00 6.9753265752e-03 1.6716523727e+00 -2.8953868421e+00 1.6716523727e+00 2.8953868421e+00 
27800 6.3128881616e+00 6.9098442743e-03 1.6714437414e+00 -2.8950254821e+00 1.6714437414e+00 2.8950254821e+00 
27900 6.3128563559e+00 6.8409315516e-03 1.6712370428e+00 -2.8946674696e+00 1.6712370428e+00 2.8946674696e+00 
28000 6.3128234106e+00 6.7687137564e-03 1.6710323802e+00 -2.8943129837e+00 1.6710323802e+00 2.8943129837e+00 
28100 6.3127894814e+00 6.6933159034e-03 1.6708298534e+00 -2.8939621970e+00 1.6708298534e+00 2.8939621970e+00 
28200 6.3127547211e+00 6.6148625685e-03 1.6706295583e+00 -2.8936152756e+00 1.6706295583e+00 2.8936152756e+00 
28300 6.3127192795e+00 6.5334777857e-03 1.6704315871e+00 -2.8932723794e+00 1.6704315871e+00 2.8932723794e+00 
28400 6.3126833030e+00 6.4492849453e-03 1.6702360283e+00 -2.8929336617e+00 1.6702360283e+00 2.8929336617e+00 
28500 6.3126469340e+00 6.3624066935e-03 1.6700429670e+00 -2.8925992696e+00 1.6700429670e+00 2.8925992696e+00 
28600 6.3126103109e+00 6.2729648341e-03 1.6698524843e+00 -2.8922693439e+00 1.6698524843e+00 2.8922693439e+00 
28700 6.3125735675e+00 6.1810802328e-03 1.6696646579e+00 -2.8919440190e+00 1.6696646579e+00 2.8919440190e+00 
28800 6.3125368330e+00 6.0868727235e-03 1.6694795618e+00 -2.8916234233e+00 1.6694795618e+00 2.8916234233e+00 
28900 6.3125002314e+00 5.9904610179e-03 1.6692972666e+00 -2.8913076788e+00 1.6692972666e+00 2.8913076788e+00 
29000 6.3124638815e+00 5.8919626183e-03 1.6691178392e+00 -2.8909969014e+00 1.6691178392e+00 2.8909969014e+00 
29100 6.3124278967e+00 5.7914937336e-03 1.6689413430e+00 -2.8906912010e+00 1.6689413430e+00 2.8906912010e+00 
29200 6.3123923847e+00 5.6891691988e-03 1.6687678380e+00 -2.8903906815e+00 1.6687678380e+00 2.8903906815e+00 
29300 6.3123574476e+00 5.5851023988e-03 1.6685973808e+00 -2.8900954409e+00 1.6685973808e+00 2.8900954409e+00 
29400 6.3123231814e+00 5.4794051957e-03 1.6684300244e+00 -2.8898055711e+00 1.6684300244e+00 2.8898055711e+00 
29500 6.3122896762e+00 5.3721878601e-03 1.6682658186e+00 -2.8895211584e+00 1.6682658186e+00 2.8895211584e+00 
29600 6.3122570159e+00 5.2635590073e-03 1.6681048101e+00 -2.8892422834e+00 1.6681048101e+00 2.8892422834e+00 
29700 6.3122252784e+00 5.1536255376e-03 1.6679470419e+00 -2.8889690210e+00 1.6679470419e+00 2.8889690210e+00 
29800 6.3121945354e+00 5.0424925801e-03 1.6677925542e+00 -2.8887014404e+00 1.6677925542e+00 2.8887014404e+00 
29900 6.3121648525e+00 4.9302634429e-03 1.6676413839e+00 -2.8884396057e+00 1.6676413839e+00 2.8884396057e+00 
30000 6.3121362890e+00 4.8170395658e-03 1.6674935646e+00 -2.8881835752e+00 1.6674935646e+00 2.8881835752e+00 
30100 6.3121088983e+00 4.7029204790e-03 1.6673491272e+00 -2.8879334022e+00 1.6673491272e+00 2.8879334022e+00 
30200 6.3120827275e+00 4.5880037657e-03 1.6672080993e+00 -2.8876891348e+00 1.6672080993e+00 2.8876891348e+00 
30300 6.3120578178e+00 4.4723850290e-03 1.6670705058e+00 -2.8874508158e+00 1.6670705058e+00 2.8874508158e+00 
30400 6.3120342047e+00 4.3561578642e-03 1.6669363685e+00 -2.8872184833e+00 1.6669363685e+00 2.8872184833e+00 
30500 6.3120119176e+00 4.2394138343e-03 1.6668057066e+00 -2.8869921702e+00 1.6668057066e+00 2.8869921702e+00 
30600 6.3119909805e+00 4.1222424508e-03 1.6666785364e+00 -2.8867719050e+00 1.6666785364e+00 2.8867719050e+00 
30700 6.3119714118e+00 4.0047311583e-03 1.6665548716e+00 -2.8865577112e+00 1.6665548716e+00 2.8865577112e+00 
30800 6.3119532244e+00 3.8869653230e-03 1.6664347230e+00 -2.8863496078e+00 1.6664347230e+00 2.8863496078e+00 
30900 6.3119364262e+00 3.7690282258e-03 1.6663180992e+00 -2.8861476094e+00 1.6663180992e+00 2.8861476094e+00 
31000 6.3119210200e+00 3.6510010589e-03 1.6662050060e+00 -2.8859517262e+00 1.6662050060e+00 2.8859517262e+00 
31100 6.3119070038e+00 3.5329629259e-03 1.6660954468e+00 -2.8857619641e+00 1.6660954468e+00 2.8857619641e+00 
31200 6.3118943708e+00 3.4149908462e-03 1.6659894227e+00 -2.8855783250e+00 1.6659894227e+00 2.8855783250e+00 
31300 6.3118831100e+00 3.2971597618e-03 1.6658869324e+00 -2.8854008065e+00 1.6658869324e+00 2.8854008065e+00 
31400 6.3118732061e+00 3.1795425479e-03 1.6657879723e+00 -2.8852294026e+00 1.6657879723e+00 2.8852294026e+00 
31500 6.3118646396e+00 3.0622100269e-03 1.6656925366e+00 -2.8850641032e+00 1.6656925366e+00 2.8850641032e+00 
31600 6.3118573875e+00 2.9452309843e-03 1.6656006174e+00 -2.8849048945e+00 1.6656006174e+00 2.8849048945e+00 
31700 6.3118514232e+00 2.8286721878e-03 1.6655122047e+00 -2.8847517592e+00 1.6655122047e+00 2.8847517592e+00 
31800 6.3118467167e+00 2.7125984091e-03 1.6654272864e+00 -2.8846046764e+00 1.6654272864e+00 2.8846046764e+00 
31900 6.3118432348e+00 2.5970724473e-03 1.6653458486e+00 -2.8844636219e+00 1.6653458486e+00 2.8844636219e+00 
32000 6.3118409418e+00 2.4821551550e-03 1.6652678752e+00 -2.8843285681e+00 1.6652678752e+00 2.8843285681e+00 
32100 6.3118397991e+00 2.3679054658e-03 1.6651933486e+00 -2.8841994842e+00 1.6651933486e+00 2.8841994842e+00 
32200 6.3118397659e+00 2.2543804237e-03 1.6651222491e+00 -2.8840763362e+00 1.6651222491e+00 2.8840763362e+00 
32300 6.3118407990e+00 2.1416352138e-03 1.6650545554e+00 -2.8839590873e+00 1.6650545554e+00 2.8839590873e+00 
32400 6.3118428536e+00 2.0297231944e-03 1.6649902445e+00 -2.8838476977e+00 1.6649902445e+00 2.8838476977e+00 
32500 6.3118458830e+00 1.9186959302e-03 1.6649292919e+00 -2.8837421246e+00 1.6649292919e+00 2.8837421246e+00 
32600 6.3118498392e+00 1.8086032262e-03 1.6648716713e+00 -2.8836423228e+00 1.6648716713e+00 2.8836423228e+00 
32700 6.3118546729e+00 1.6994931625e-03 1.6648173550e+00 -2.8835482442e+00 1.6648173550e+00 2.8835482442e+00 
32800 6.3118603337e+00 1.5914121295e-03 1.6647663138e+00 -2.8834598383e+00 1.6647663138e+00 2.8834598383e+00 
32900 6.3118667707e+00 1.4844048636e-03 1.6647185172e+00 -2.8833770521e+00 1.6647185172e+00 2.8833770521e+00 
33000 6.3118739320e+00 1.3785144827e-03 1.6646739331e+00 -2.8832998302e+00 1.6646739331e+00 2.8832998302e+00 
33100 6.3118817656e+00 1.2737825224e-03 1.6646325284e+00 -2.8832281151e+00 1.6646325284e+00 2.8832281151e+00 
33200 6.3118902191e+00 1.1702489715e-03 1.6645942683e+00 -2.8831618468e+00 1.6645942683e+00 2.8831618468e+00 
33300 6.3118992404e+00 1.0679523076e-03 1.6645591173e+00 -2.8831009633e+00 1.6645591173e+00 2.8831009633e+00 
33400 6.3119087773e+00 9.6692953200e-04 1.6645270383e+00 -2.8830454008e+00 1.6645270383e+00 2.8830454008e+00 
33500 6.3119187779e+00 8.6721620431e-04 1.6644979932e+00 -2.8829950933e+00 1.6644979932e+00 2.8829950933e+00 
33600 6.3119291910e+00 7.6884647655e-04 1.6644719429e+00 -2.8829499728e+00 1.6644719429e+00 2.8829499728e+00 
33700 6.3119399659e+00 6.7185312618e-04 1.6644488471e+00 -2.8829099698e+00 1.6644488471e+00 2.8829099698e+00 
33800 6.3119510528e+00 5.7626758853e-04 1.6644286647e+00 -2.8828750128e+00 1.6644286647e+00 2.8828750128e+00 
33900 6.3119624029e+00 4.8211998829e-04 1.6644113534e+00 -2.8828450289e+00 1.6644113534e+00 2.8828450289e+00 
34000 6.3119739683e+00 3.8943916992e-04 1.6643968703e+00 -2.8828199433e+00 1.6643968703e+00 2.8828199433e+00 
34100 6.3119857024e+00 2.9825272710e-04 1.6643851712e+00 -2.8827996798e+00 1.6643851712e+00 2.8827996798e+00 
34200 6.3119975598e+00 2.0858703096e-04 1.6643762113e+00 -2.8827841609e+00 1.6643762113e+00 2.8827841609e+00 
34300 6.3120094966e+00 1.2046725722e-04 1.6643699451e+00 -2.8827733075e+00 1.6643699451e+00 2.8827733075e+00 
34400 6.3120214705e+00 3.3917411998e-05 1.6643663261e+00 -2.8827670392e+00 1.6643663261e+00 2.8827670392e+00 
34500 6.3120334403e+00 -4.9730879647e-05 1.6643663261e+00 -2.8827670392e+00 1.6643663261e+00 2.8827670392e+00 
34600 6.3120453674e+00 -1.3503343373e-04 1.6643663261e+00 -2.8827670392e+00 1.6643663261e+00 2.8827670392e+00 
34700 6.3120572139e+00 -2.1672015670e-04 1.6643703827e+00 -2.8827740655e+00 1.6643703827e+00 2.8827740655e+00 
34800 6.3120689441e+00 -2.9675287656e-04 1.6643768933e+00 -2.8827853421e+00 1.6643768933e+00 2.8827853421e+00 
34900 6.3120805242e+00 -3.7511305621e-04 1.6643858081e+00 -2.8828007831e+00 1.6643858081e+00 2.8828007831e+00 
35000 6.3120919222e+00 -4.5178320165e-04 1.6643970770e+00 -2.8828203013e+00 1.6643970770e+00 2.8828203013e+00 
35100 6.3121031079e+00 -5.2674684511e-04 1.6644106490e+00 -2.8828438087e+00 1.6644106490e+00 2.8828438087e+00 
35200 6.3121140533e+00 -5.9998852931e-04 1.6644264728e+00 -2.8828712164e+00 1.6644264728e+00 2.8828712164e+00 
35300 6.3121247319e+00 -6.7149379314e-04 1.6644444967e+00 -2.8829024347e+00 1.6644444967e+00 2.8829024347e+00 
35400 6.3121351197e+00 -7.4124915841e-04 1.6644646685e+00 -2.8829373732e+00 1.6644646685e+00 2.8829373732e+00 
35500 6.3121451941e+00 -8.0924211789e-04 1.6644869354e+00 -2.8829759407e+00 1.6644869354e+00 2.8829759407e+00 
35600 6.3121549350e+00 -8.7546112443e-04 1.6645112445e+00 -2.8830180453e+00 1.6645112445e+00 2.8830180453e+00 
35700 6.3121643237e+00 -9.3989558118e-04 1.6645375424e+00 -2.8830635946e+00 1.6645375424e+00 2.8830635946e+00 
35800 6.3121733438e+00 -1.0025358329e-03 1.6645657755e+00 -2.8831124956e+00 1.6645657755e+00 2.8831124956e+00 
35900 6.3121819807e+00 -1.0633731582e-03 1.6645958896e+00 -2.8831646548e+00 1.6645958896e+00 2.8831646548e+00 
36000 6.3121902217e+00 -1.1223997628e-03 1.6646278306e+00 -2.8832199782e+00 1.6646278306e+00 2.8832199782e+00 
36100 6.3121980557e+00 -1.1796087736e-03 1.6646615439e+00 -2.8832783715e+00 1.6646615439e+00 2.8832783715e+00 
36200 6.3122054739e+00 -1.2349942334e-03 1.6646969749e+00 -2.8833397398e+00 1.6646969749e+00 2.8833397398e+00 
36300 6.3122124687e+00 -1.2885510969e-03 1.6647340687e+00 -2.8834039881e+00 1.6647340687e+00 2.8834039881e+00 
36400 6.3122190347e+00 -1.3402752265e-03 1.6647727703e+00 -2.8834710212e+00 1.6647727703e+00 2.8834710212e+00 
36500 6.3122251677e+00 -1.3901633899e-03 1.6648130245e+00 -2.8835407435e+00 1.6648130245e+00 2.8835407435e+00 
36600 6.3122308656e+00 -1.4382132568e-03 1.6648547760e+00 -2.8836130592e+00 1.6648547760e+00 2.8836130592e+00 
36700 6.3122361274e+00 -1.4844233976e-03 1.6648979695e+00 -2.8836878726e+00 1.6648979695e+00 2.8836878726e+00 
36800 6.3122409538e+00 -1.5287932811e-03 1.6649425497e+00 -2.8837650878e+00 1.6649425497e+00 2.8837650878e+00 
36900 6.3122453470e+00 -1.5713232734e-03 1.6649884612e+00 -2.8838446089e+00 1.6649884612e+00 2.8838446089e+00 
37000 6.3122493104e+00 -1.6120146372e-03 1.6650356487e+00 -2.8839263399e+00 1.6650356487e+00 2.8839263399e+00 
37100 6.3122528488e+00 -1.6508695301e-03 1.6650840567e+00 -2.8840101851e+00 1.6650840567e+00 2.8840101851e+00 
37200 6.3122559682e+00 -1.6878910046e-03 1.6651336301e+00 -2.8840960487e+00 1.6651336301e+00 2.8840960487e+00 
37300 6.3122586757e+00 -1.7230830070e-03 1.6651843137e+00 -2.8841838353e+00 1.6651843137e+00 2.8841838353e+00 
37400 6.3122609795e+00 -1.7564503766e-03 1.6652360525e+00 -2.8842734495e+00 1.6652360525e+00 2.8842734495e+00 
37500 6.3122628890e+00 -1.7879988450e-03 1.6652887915e+00 -2.8843647962e+00 1.6652887915e+00 2.8843647962e+00 
37600 6.3122644142e+00 -1.8177350354e-03 1.6653424762e+00 -2.8844577808e+00 1.6653424762e+00 2.8844577808e+00 
37700 6.3122655663e+00 -1.8456664607e-03 1.6653970519e+00 -2.8845523087e+00 1.6653970519e+00 2.8845523087e+00 
37800 6.3122663570e+00 -1.8718015226e-03 1.6654524644e+00 -2.8846482859e+00 1.6654524644e+00 2.8846482859e+00 
37900 6.3122667990e+00 -1.8961495099e-03 1.6655086597e+00 -2.8847456191e+00 1.6655086597e+00 2.8847456191e+00 
38000 6.3122669055e+00 -1.9187205957e-03 1.6655655841e+00 -2.8848442149e+00 1.6655655841e+00 2.8848442149e+00 
38100 6.3122666903e+00 -1.9395258355e-03 1.6656231841e+00 -2.8849439811e+00 1.6656231841e+00 2.8849439811e+00 
38200 6.3122661676e+00 -1.9585771635e-03 1.6656814066e+00 -2.8850448255e+00 1.6656814066e+00 2.8850448255e+00 
38300 6.3122653523e+00 -1.9758873894e-03 1.6657401991e+00 -2.8851466570e+00 1.6657401991e+00 2.8851466570e+00 
38400 6.3122642595e+00 -1.9914701939e-03 1.6657995090e+00 -2.8852493848e+00 1.6657995090e+00 2.8852493848e+00 
38500 6.3122629047e+00 -2.0053401240e-03 1.6658592846e+00 -2.8853529191e+00 1.6658592846e+00 2.8853529191e+00 
38600 6.3122613035e+00 -2.0175125874e-03 1.6659194743e+00 -2.8854571708e+00 1.6659194743e+00 2.8854571708e+00 
38700 6.3122594718e+00 -2.0280038463e-03 1.6659800272e+00 -2.8855620515e+00 1.6659800272e+00 2.8855620515e+00 
38800 6.3122574257e+00 -2.0368310105e-03 1.6660408927e+00 -2.8856674737e+00 1.6660408927e+00 2.8856674737e+00 
38900 6.3122551811e+00 -2.0440120296e-03 1.6661020210e+00 -2.8857733510e+00 1.6661020210e+00 2.8857733510e+00 
39000 6.3122527543e+00 -2.0495656846e-03 1.6661633625e+00 -2.8858795976e+00 1.6661633625e+00 2.8858795976e+00 
39100 6.3122501611e+00 -2.0535115787e-03 1.6662248684e+00 -2.8859861290e+00 1.6662248684e+00 2.8859861290e+00 
39200 6.3122474176e+00 -2.0558701269e-03 1.6662864905e+00 -2.8860928615e+00 1.6662864905e+00 2.8860928615e+00 
39300 6.3122445395e+00 -2.0566625452e-03 1.6663481811e+00 -2.8861997127e+00 1.6663481811e+00 2.8861997127e+00 
39400 6.3122415425e+00 -2.0559108386e-03 1.6664098931e+00 -2.8863066011e+00 1.6664098931e+00 2.8863066011e+00 
39500 6.3122384419e+00 -2.0536377886e-03 1.6664715803e+00 -2.8864134465e+00 1.6664715803e+00 2.8864134465e+00 
39600 6.3122352529e+00 -2.0498669395e-03 1.6665331970e+00 -2.8865201698e+00 1.6665331970e+00 2.8865201698e+00 
39700 6.3122319901e+00 -2.0446225839e-03 1.6665946983e+00 -2.8866266932e+00 1.6665946983e+00 2.8866266932e+00 
39800 6.3122286680e+00 -2.0379297473e-03 1.6666560401e+00 -2.8867329401e+00 1.6666560401e+00 2.8867329401e+00 
39900 6.3122253007e+00 -2.0298141719e-03 1.6667171787e+00 -2.8868388354e+00 1.6667171787e+00 2.8868388354e+00 
40000 6.3122219018e+00 -2.0203022994e-03 1.6667780717e+00 -2.8869443051e+00 1.6667780717e+00 2.8869443051e+00 
40100 6.3122184844e+00 -2.0094212533e-03 1.6668386770e+00 -2.8870492767e+00 1.6668386770e+00 2.8870492767e+00 
40200 6.3122150613e+00 -1.9971988196e-03 1.6668989538e+00 -2.8871536791e+00 1.6668989538e+00 2.8871536791e+00 
40300 6.3122116447e+00 -1.9836634273e-03 1.6669588618e+00 -2.8872574428e+00 1.6669588618e+00 2.8872574428e+00 
40400 6.3122082462e+00 -1.9688441278e-03 1.6670183616e+00 -2.8873604995e+00 1.6670183616e+00 2.8873604995e+00 
40500 6.3122048771e+00 -1.9527705737e-03 1.6670774148e+00 -2.8874627826e+00 1.6670774148e+00 2.8874627826e+00 
40600 6.3122015480e+00 -1.9354729965e-03 1.6671359839e+00 -2.8875642272e+00 1.6671359839e+00 2.8875642272e+00 
40700 6.3121982688e+00 -1.9169821835e-03 1.6671940320e+00 -2.8876647696e+00 1.6671940320e+00 2.8876647696e+00 
40800 6.3121950492e+00 -1.8973294545e-03 1.6672515236e+00 -2.8877643479e+00 1.6672515236e+00 2.8877643479e+00 
40900 6.3121918979e+00 -1.8765466371e-03 1.6673084239e+00 -2.8878629021e+00 1.6673084239e+00 2.8878629021e+00 
41000 6.3121888234e+00 -1.8546660417e-03 1.6673646989e+00 -2.8879603733e+00 1.6673646989e+00 2.8879603733e+00 
41100 6.3121858333e+00 -1.8317204358e-03 1.6674203159e+00 -2.8880567048e+00 1.6674203159e+00 2.8880567048e+00 
41200 6.3121829348e+00 -1.8077430175e-03 1.6674752430e+00 -2.8881518413e+00 1.6674752430e+00 2.8881518413e+00 
41300 6.3121801345e+00 -1.7827673886e-03 1.6675294493e+00 -2.8882457293e+00 1.6675294493e+00 2.8882457293e+00 
41400 6.3121774382e+00 -1.7568275269e-03 1.6675829049e+00 -2.8883383172e+00 1.6675829049e+00 2.8883383172e+00 
41500 6.3121748513e+00 -1.7299577585e-03 1.6676355811e+00 -2.8884295549e+00 1.6676355811e+00 2.8884295549e+00 
41600 6.3121723786e+00 -1.7021927289e-03 1.6676874499e+00 -2.8885193944e+00 1.6676874499e+00 2.8885193944e+00 
41700 6.3121700244e+00 -1.6735673740e-03 1.6677384847e+00 -2.8886077892e+00 1.6677384847e+00 2.8886077892e+00 
41800 6.3121677923e+00 -1.6441168911e-03 1.6677886597e+00 -2.8886946949e+00 1.6677886597e+00 2.8886946949e+00 
41900 6.3121656853e+00 -1.6138767088e-03 1.6678379503e+00 -2.8887800687e+00 1.6678379503e+00 2.8887800687e+00 
42000 6.3121637060e+00 -1.5828824569e-03 1.6678863328e+00 -2.8888638697e+00 1.6678863328e+00 2.8888638697e+00 
42100 6.3121618564e+00 -1.5511699363e-03 1.6679337848e+00 -2.8889460589e+00 1.6679337848e+00 2.8889460589e+00 
42200 6.3121601380e+00 -1.5187750883e-03 1.6679802847e+00 -2.8890265992e+00 1.6679802847e+00 2.8890265992e+00 
42300 6.3121585519e+00 -1.4857339638e-03 1.6680258123e+00 -2.8891054553e+00 1.6680258123e+00 2.8891054553e+00 
42400 6.3121570985e+00 -1.4520826927e-03 1.6680703482e+00 -2.8891825937e+00 1.6680703482e+00 2.8891825937e+00 
42500 6.3121557779e+00 -1.4178574523e-03 1.6681138742e+00 -2.8892579830e+00 1.6681138742e+00 2.8892579830e+00 
42600 6.3121545896e+00 -1.3830944370e-03 1.6681563732e+00 -2.8893315934e+00 1.6681563732e+00 2.8893315934e+00 
42700 6.3121535330e+00 -1.3478298268e-03 1.6681978292e+00 -2.8894033972e+00 1.6681978292e+00 2.8894033972e+00 
42800 6.3121526066e+00 -1.3120997564e-03 1.6682382271e+00 -2.8894733685e+00 1.6682382271e+00 2.8894733685e+00 
42900 6.3121518090e+00 -1.2759402843e-03 1.6682775532e+00 -2.8895414833e+00 1.6682775532e+00 2.8895414833e+00 
43000 6.3121511381e+00 -1.2393873622e-03 1.6683157946e+00 -2.8896077193e+00 1.6683157946e+00 2.8896077193e+00 
43100 6.3121505915e+00 -1.2024768042e-03 1.6683529396e+00 -2.8896720563e+00 1.6683529396e+00 2.8896720563e+00 
43200 6.3121501667e+00 -1.1652442567e-03 1.6683889776e+00 -2.8897344759e+00 1.6683889776e+00 2.8897344759e+00 
43300 6.3121498605e+00 -1.1277251679e-03 1.6684238989e+00 -2.8897949615e+00 1.6684238989e+00 2.8897949615e+00 
43400 6.3121496699e+00 -1.0899547584e-03 1.6684576952e+00 -2.8898534983e+00 1.6684576952e+00 2.8898534983e+00 
43500 6.3121495912e+00 -1.0519679918e-03 1.6684903588e+00 -2.8899100734e+00 1.6684903588e+00 2.8899100734e+00 
43600 6.3121496208e+00 -1.0137995454e-03 1.6685218835e+00 -2.8899646757e+00 1.6685218835e+00 2.8899646757e+00 
43700 6.3121497546e+00 -9.7548378179e-04 1.6685522637e+00 -2.8900172958e+00 1.6685522637e+00 2.8900172958e+00 
43800 6.3121499885e+00 -9.3705472082e-04 1.6685814952e+00 -2.8900679263e+00 1.6685814952e+00 2.8900679263e+00 
43900 6.3121503181e+00 -8.9854601188e-04 1.6686095747e+00 -2.8901165614e+00 1.6686095747e+00 2.8901165614e+00 
44000 6.3121507390e+00 -8.5999090696e-04 1.6686364998e+00 -2.8901631970e+00 1.6686364998e+00 2.8901631970e+00 
44100 6.3121512465e+00 -8.2142223419e-04 1.6686622691e+00 -2.8902078308e+00 1.6686622691e+00 2.8902078308e+00 
44200 6.3121518359e+00 -7.8287237207e-04 1.6686868824e+00 -2.8902504622e+00 1.6686868824e+00 2.8902504622e+00 
44300 6.3121525024e+00 -7.4437322430e-04 1.6687103402e+00 -2.8902910923e+00 1.6687103402e+00 2.8902910923e+00 
44400 6.3121532411e+00 -7.0595619533e-04 1.6687326441e+00 -2.8903297238e+00 1.6687326441e+00 2.8903297238e+00 
44500 6.3121540470e+00 -6.6765216670e-04 1.6687537966e+00 -2.8903663610e+00 1.6687537966e+00 2.8903663610e+00 
44600 6.3121549151e+00 -6.2949147399e-04 1.6687738011e+00 -2.8904010099e+00 1.6687738011e+00 2.8904010099e+00 
44700 6.3121558405e+00 -5.9150388473e-04 1.6687926621e+00 -2.8904336780e+00 1.6687926621e+00 2.8904336780e+00 
44800 6.3121568181e+00 -5.5371857696e-04 1.6688103846e+00 -2.8904643743e+00 1.6688103846e+00 2.8904643743e+00 
44900 6.3121578429e+00 -5.1616411875e-04 1.6688269748e+00 -2.8904931095e+00 1.6688269748e+00 2.8904931095e+00 
45000 6.3121589101e+00 -4.7886844847e-04 1.6688424397e+00 -2.8905198955e+00 1.6688424397e+00 2.8905198955e+00 
45100 6.3121600146e+00 -4.4185885606e-04 1.6688567871e+00 -2.8905447458e+00 1.6688567871e+00 2.8905447458e+00 
45200 6.3121611518e+00 -4.0516196506e-04 1.6688700255e+00 -2.8905676754e+00 1.6688700255e+00 2.8905676754e+00 
45300 6.3121623167e+00 -3.6880371569e-04 1.6688821643e+00 -2.8905887004e+00 1.6688821643e+00 2.8905887004e+00 
45400 6.3121635048e+00 -3.3280934874e-04 1.6688932137e+00 -2.8906078386e+00 1.6688932137e+00 2.8906078386e+00 
45500 6.3121647114e+00 -2.9720339053e-04 1.6689031847e+00 -2.8906251088e+00 1.6689031847e+00 2.8906251088e+00 
45600 6.3121659320e+00 -2.6200963871e-04 1.6689120889e+00 -2.8906405313e+00 1.6689120889e+00 2.8906405313e+00 
45700 6.3121671625e+00 -2.2725114912e-04 1.6689199386e+00 -2.8906541274e+00 1.6689199386e+00 2.8906541274e+00 
45800 6.3121683985e+00 -1.9295022358e-04 1.6689267469e+00 -2.8906659198e+00 1.6689267469e+00 2.8906659198e+00 
45900 6.3121696360e+00 -1.5912839869e-04 1.6689325276e+00 -2.8906759322e+00 1.6689325276e+00 2.8906759322e+00 
46000 6.3121708710e+00 -1.2580643559e-04 1.6689372950e+00 -2.8906841895e+00 1.6689372950e+00 2.8906841895e+00 
46100 6.3121720999e+00 -9.3004310764e-05 1.6689410640e+00 -2.8906907177e+00 1.6689410640e+00 2.8906907177e+00 
46200 6.3121733190e+00 -6.0741207774e-05 1.6689438504e+00 -2.8906955438e+00 1.6689438504e+00 2.8906955438e+00 
46300 6.3121745249e+00 -3.1352982802e-05 1.6689438504e+00 -2.8906955438e+00 1.6689438504e+00 2.8906955438e+00 
46400 6.3121757141e+00 -1.3466398693e-06 1.6689438504e+00 -2.8906955438e+00 1.6689438504e+00 2.8906955438e+00 
46500 6.3121768838e+00 2.9247461221e-05 1.6689438504e+00 -2.8906955438e+00 1.6689438504e+00 2.8906955438e+00 
46600 6.3121780312e+00 6.0399197459e-05 1.6689438504e+00 -2.8906955438e+00 1.6689438504e+00 2.8906955438e+00 
46700 6.3121791536e+00 9.2078691395e-05 1.6689438504e+00 -2.8906955438e+00 1.6689438504e+00 2.8906955438e+00 
46800 6.3121802483e+00 1.2074282204e-04 1.6689410918e+00 -2.8906907658e+00 1.6689410918e+00 2.8906907658e+00 
46900 6.3121813130e+00 1.4875673501e-04 1.6689374744e+00 -2.8906845003e+00 1.6689374744e+00 2.8906845003e+00 
47000 6.3121823455e+00 1.7610774444e-04 1.6689330178e+00 -2.8906767812e+00 1.6689330178e+00 2.8906767812e+00 
47100 6.3121833439e+00 2.0278398823e-04 1.6689277417e+00 -2.8906676428e+00 1.6689277417e+00 2.8906676428e+00 
47200 6.3121843064e+00 2.2877442658e-04 1.6689216665e+00 -2.8906571202e+00 1.6689216665e+00 2.8906571202e+00 
47300 6.3121852315e+00 2.5406883958e-04 1.6689148125e+00 -2.8906452488e+00 1.6689148125e+00 2.8906452488e+00 
47400 6.3121861177e+00 2.7865782391e-04 1.6689072007e+00 -2.8906320648e+00 1.6689072007e+00 2.8906320648e+00 
47500 6.3121869637e+00 3.0253278869e-04 1.6688988522e+00 -2.8906176047e+00 1.6688988522e+00 2.8906176047e+00 
47600 6.3121877686e+00 3.2568595047e-04 1.6688897884e+00 -2.8906019057e+00 1.6688897884e+00 2.8906019057e+00 
47700 6.3121885315e+00 3.4811032738e-04 1.6688800308e+00 -2.8905850051e+00 1.6688800308e+00 2.8905850051e+00 
47800 6.3121892516e+00 3.6979973247e-04 1.6688696014e+00 -2.8905669408e+00 1.6688696014e+00 2.8905669408e+00 
47900 6.3121899285e+00 3.9074876627e-04 1.6688585220e+00 -2.8905477508e+00 1.6688585220e+00 2.8905477508e+00 
48000 6.3121905618e+00 4.1095280857e-04 1.6688468150e+00 -2.8905274736e+00 1.6688468150e+00 2.8905274736e+00 
48100 6.3121911512e+00 4.3040800949e-04 1.6688345025e+00 -2.8905061478e+00 1.6688345025e+00 2.8905061478e+00 
48200 6.3121916967e+00 4.4911127980e-04 1.6688216071e+00 -2.8904838122e+00 1.6688216071e+00 2.8904838122e+00 
48300 6.3121921983e+00 4.6706028056e-04 1.6688081511e+00 -2.8904605059e+00 1.6688081511e+00 2.8904605059e+00 
48400 6.3121926564e+00 4.8425341209e-04 1.6687941573e+00 -2.8904362679e+00 1.6687941573e+00 2.8904362679e+00 
48500 6.3121930712e+00 5.0068980231e-04 1.6687796483e+00 -2.8904111374e+00 1.6687796483e+00 2.8904111374e+00 
48600 6.3121934432e+00 5.1636929448e-04 1.6687646466e+00 -2.8903851538e+00 1.6687646466e+00 2.8903851538e+00 
48700 6.3121937731e+00 5.3129243433e-04 1.6687491750e+00 -2.8903583563e+00 1.6687491750e+00 2.8903583563e+00 
48800 6.3121940616e+00 5.4546045664e-04 1.6687332562e+00 -2.8903307840e+00 1.6687332562e+00 2.8903307840e+00 
48900 6.3121943094e+00 5.5887527130e-04 1.6687169127e+00 -2.8903024762e+00 1.6687169127e+00 2.8903024762e+00 
49000 6.3121945176e+00 5.7153944888e-04 1.6687001670e+00 -2.8902734719e+00 1.6687001670e+00 2.8902734719e+00 
49100 6.3121946871e+00 5.8345620572e-04 1.6686830418e+00 -2.8902438101e+00 1.6686830418e+00 2.8902438101e+00 
49200 6.3121948191e+00 5.9462938855e-04 1.6686655593e+00 -2.8902135295e+00 1.6686655593e+00 2.8902135295e+00 
49300 6.3121949148e+00 6.0506345877e-04 1.6686477418e+00 -2.8901826687e+00 1.6686477418e+00 2.8901826687e+00 
49400 6.3121949754e+00 6.1476347628e-04 1.6686296115e+00 -2.8901512661e+00 1.6686296115e+00 2.8901512661e+00 
49500 6.3121950022e+00 6.2373508299e-04 1.6686111903e+00 -2.8901193597e+00 1.6686111903e+00 2.8901193597e+00 
49600 6.3121949967e+00 6.3198448597e-04 1.6685925001e+00 -2.8900869873e+00 1.6685925001e+00 2.8900869873e+00 
49700 6.3121949602e+00 6.3951844036e-04 1.6685735625e+00 -2.8900541864e+00 1.6685735625e+00 2.8900541864e+00 
49800 6.3121948943e+00 6.4634423198e-04 1.6685543989e+00 -2.8900209940e+00 1.6685543989e+00 2.8900209940e+00 
49900 6.3121948005e+00 6.5246965967e-04 1.6685350305e+00 -2.8899874471e+00 1.6685350305e+00 2.8899874471e+00 
50000 6.3121946804e+00 6.5790301749e-04 1.6685154784e+00 -2.8899535818e+00 1.6685154784e+00 2.8899535818e+00 
50100 6.3121945355e+00 6.6265307669e-04 1.6684957632e+00 -2.8899194341e+00 1.6684957632e+00 2.8899194341e+00 
50200 6.3121943674e+00 6.6672906750e-04 1.6684759054e+00 -2.8898850394e+00 1.6684759054e+00 2.8898850394e+00 
50300 6.3121941778e+00 6.7014066085e-04 1.6684559253e+00 -2.8898504328e+00 1.6684559253e+00 2.8898504328e+00 
50400 6.3121939682e+00 6.7289794997e-04 1.6684358427e+00 -2.8898156487e+00 1.6684358427e+00 2.8898156487e+00 
50500 6.3121937404e+00 6.7501143188e-04 1.6684156772e+00 -2.8897807210e+00 1.6684156772e+00 2.8897807210e+00 
50600 6.3121934958e+00 6.7649198884e-04 1.6683954481e+00 -2.8897456833e+00 1.6683954481e+00 2.8897456833e+00 
50700 6.3121932362e+00 6.7735086983e-04 1.6683751744e+00 -2.8897105682e+00 1.6683751744e+00 2.8897105682e+00 
50800 6.3121929631e+00 6.7759967192e-04 1.6683548748e+00 -2.8896754081e+00 1.6683548748e+00 2.8896754081e+00 
50900 6.3121926782e+00 6.7725032178e-04 1.6683345674e+00 -2.8896402347e+00 1.6683345674e+00 2.8896402347e+00 
51000 6.3121923828e+00 6.7631505713e-04 1.6683142702e+00 -2.8896050790e+00 1.6683142702e+00 2.8896050790e+00 
51100 6.3121920787e+00 6.7480640833e-04 1.6682940008e+00 -2.8895699714e+00 1.6682940008e+00 2.8895699714e+00 
51200 6.3121917672e+00 6.7273718000e-04 1.6682737764e+00 -2.8895349417e+00 1.6682737764e+00 2.8895349417e+00 
51300 6.3121914499e+00 6.7012043283e-04 1.6682536138e+00 -2.8895000190e+00 1.6682536138e+00 2.8895000190e+00 
51400 6.3121911281e+00 6.6696946539e-04 1.6682335294e+00 -2.8894652317e+00 1.6682335294e+00 2.8894652317e+00 
51500 6.3121908033e+00 6.6329779623e-04 1.6682135391e+00 -2.8894306076e+00 1.6682135391e+00 2.8894306076e+00 
51600 6.3121904768e+00 6.5911914605e-04 1.6681936587e+00 -2.8893961737e+00 1.6681936587e+00 2.8893961737e+00 
51700 6.3121901498e+00 6.5444742007e-04 1.6681739032e+00 -2.8893619563e+00 1.6681739032e+00 2.8893619563e+00 
51800 6.3121898236e+00 6.4929669064e-04 1.6681542876e+00 -2.8893279810e+00 1.6681542876e+00 2.8893279810e+00 
51900 6.3121894994e+00 6.4368118003e-04 1.6681348261e+00 -2.8892942727e+00 1.6681348261e+00 2.8892942727e+00 
52000 6.3121891783e+00 6.3761524348e-04 1.6681155327e+00 -2.8892608555e+00 1.6681155327e+00 2.8892608555e+00 
52100 6.3121888614e+00 6.3111335242e-04 1.6680964209e+00 -2.8892277529e+00 1.6680964209e+00 2.8892277529e+00 
52200 6.3121885497e+00 6.2419007812e-04 1.6680775037e+00 -2.8891949875e+00 1.6680775037e+00 2.8891949875e+00 
52300 6.3121882442e+00 6.1686007539e-04 1.6680587939e+00 -2.8891625811e+00 1.6680587939e+00 2.8891625811e+00 
52400 6.3121879457e+00 6.0913806678e-04 1.6680403036e+00 -2.8891305549e+00 1.6680403036e+00 2.8891305549e+00 
52500 6.3121876551e+00 6.0103882690e-04 1.6680220445e+00 -2.8890989293e+00 1.6680220445e+00 2.8890989293e+00 
52600 6.3121873732e+00 5.9257716721e-04 1.6680040281e+00 -2.8890677238e+00 1.6680040281e+00 2.8890677238e+00 
52700 6.3121871006e+00 5.8376792097e-04 1.6679862650e+00 -2.8890369574e+00 1.6679862650e+00 2.8890369574e+00 
52800 6.3121868382e+00 5.7462592868e-04 1.6679687659e+00 -2.8890066479e+00 1.6679687659e+00 2.8890066479e+00 
52900 6.3121865863e+00 5.6516602369e-04 1.6679515406e+00 -2.8889768129e+00 1.6679515406e+00 2.8889768129e+00 
53000 6.3121863457e+00 5.5540301830e-04 1.6679345987e+00 -2.8889474686e+00 1.6679345987e+00 2.8889474686e+00 
53100 6.3121861166e+00 5.4535169011e-04 1.6679179493e+00 -2.8889186310e+00 1.6679179493e+00 2.8889186310e+00 
53200 6.3121858997e+00 5.3502676879e-04 1.6679016010e+00 -2.8888903150e+00 1.6679016010e+00 2.8888903150e+00 
53300 6.3121856952e+00 5.2444292320e-04 1.6678855622e+00 -2.8888625349e+00 1.6678855622e+00 2.8888625349e+00 
53400 6.3121855034e+00 5.1361474882e-04 1.6678698404e+00 -2.8888353040e+00 1.6678698404e+00 2.8888353040e+00 
53500 6.3121853246e+00 5.0255675566e-04 1.6678544431e+00 -2.8888086350e+00 1.6678544431e+00 2.8888086350e+00 
53600 6.3121851590e+00 4.9128335646e-04 1.6678393771e+00 -2.8887825401e+00 1.6678393771e+00 2.8887825401e+00 
53700 6.3121850067e+00 4.7980885529e-04 1.6678246490e+00 -2.8887570302e+00 1.6678246490e+00 2.8887570302e+00 
53800 6.3121848678e+00 4.6814743653e-04 1.6678102648e+00 -2.8887321160e+00 1.6678102648e+00 2.8887321160e+00 
53900 6.3121847423e+00 4.5631315430e-04 1.6677962300e+00 -2.8887078070e+00 1.6677962300e+00 2.8887078070e+00 
54000 6.3121846302e+00 4.4431992213e-04 1.6677825499e+00 -2.8886841124e+00 1.6677825499e+00 2.8886841124e+00 
54100 6.3121845315e+00 4.3218150320e-04 1.6677692292e+00 -2.8886610403e+00 1.6677692292e+00 2.8886610403e+00 
54200 6.3121844461e+00 4.1991150077e-04 1.6677562724e+00 -2.8886385984e+00 1.6677562724e+00 2.8886385984e+00 
54300 6.3121843738e+00 4.0752334919e-04 1.6677436833e+00 -2.8886167934e+00 1.6677436833e+00 2.8886167934e+00 
54400 6.3121843145e+00 3.9503030512e-04 1.6677314655e+00 -2.8885956316e+00 1.6677314655e+00 2.8885956316e+00 
54500 6.3121842679e+00 3.8244543927e-04 1.6677196222e+00 -2.8885751184e+00 1.6677196222e+00 2.8885751184e+00 
54600 6.3121842338e+00 3.6978162843e-04 1.6677081561e+00 -2.8885552585e+00 1.6677081561e+00 2.8885552585e+00 
54700 6.3121842119e+00 3.5705154795e-04 1.6676970695e+00 -2.8885360561e+00 1.6676970695e+00 2.8885360561e+00 
54800 6.3121842019e+00 3.4426766455e-04 1.6676863646e+00 -2.8885175146e+00 1.6676863646e+00 2.8885175146e+00 
54900 6.3121842034e+00 3.3144222947e-04 1.6676760429e+00 -2.8884996369e+00 1.6676760429e+00 2.8884996369e+00 
55000 6.3121842161e+00 3.1858727215e-04 1.6676661057e+00 -2.8884824251e+00 1.6676661057e+00 2.8884824251e+00 
55100 6.3121842395e+00 3.0571459405e-04 1.6676565538e+00 -2.8884658808e+00 1.6676565538e+00 2.8884658808e+00 
55200 6.3121842733e+00 2.9283576305e-04 1.6676473878e+00 -2.8884500048e+00 1.6676473878e+00 2.8884500048e+00 
55300 6.3121843170e+00 2.7996210803e-04 1.6676386079e+00 -2.8884347976e+00 1.6676386079e+00 2.8884347976e+00 
55400 6.3121843702e+00 2.6710471396e-04 1.6676302140e+00 -2.8884202588e+00 1.6676302140e+00 2.8884202588e+00 
55500 6.3121844324e+00 2.5427441721e-04 1.6676222055e+00 -2.8884063877e+00 1.6676222055e+00 2.8884063877e+00 
55600 6.3121845031e+00 2.4148180131e-04 1.6676145816e+00 -2.8883931828e+00 1.6676145816e+00 2.8883931828e+00 
55700 6.3121845818e+00 2.2873719298e-04 1.6676073413e+00 -2.8883806421e+00 1.6676073413e+00 2.8883806421e+00 
55800 6.3121846681e+00 2.1605065852e-04 1.6676004830e+00 -2.8883687633e+00 1.6676004830e+00 2.8883687633e+00 
55900 6.3121847613e+00 2.0343200055e-04 1.6675940051e+00 -2.8883575433e+00 1.6675940051e+00 2.8883575433e+00 
56000 6.3121848611e+00 1.9089075502e-04 1.6675879056e+00 -2.8883469785e+00 1.6675879056e+00 2.8883469785e+00 
56100 6.3121849668e+00 1.7843618862e-04 1.6675821820e+00 -2.8883370651e+00 1.6675821820e+00 2.8883370651e+00 
56200 6.3121850781e+00 1.6607729638e-04 1.6675768319e+00 -2.8883277983e+00 1.6675768319e+00 2.8883277983e+00 
56300 6.3121851943e+00 1.5382279973e-04 1.6675718523e+00 -2.8883191734e+00 1.6675718523e+00 2.8883191734e+00 
56400 6.3121853149e+00 1.4168114472e-04 1.6675672401e+00 -2.8883111849e+00 1.6675672401e+00 2.8883111849e+00 
56500 6.3121854395e+00 1.2966050063e-04 1.6675629920e+00 -2.8883038269e+00 1.6675629920e+00 2.8883038269e+00 
56600 6.3121855676e+00 1.1776875876e-04 1.6675591042e+00 -2.8882970932e+00 1.6675591042e+00 2.8882970932e+00 
56700 6.3121856986e+00 1.0601353166e-04 1.6675555731e+00 -2.8882909770e+00 1.6675555731e+00 2.8882909770e+00 
56800 6.3121858320e+00 9.4402152452e-05 1.6675523944e+00 -2.8882854713e+00 1.6675523944e+00 2.8882854713e+00 
56900 6.3121859675e+00 8.2941674551e-05 1.6675495638e+00 -2.8882805686e+00 1.6675495638e+00 2.8882805686e+00 
57000 6.3121861045e+00 7.1638871573e-05 1.6675470769e+00 -2.8882762612e+00 1.6675470769e+00 2.8882762612e+00 
57100 6.3121862425e+00 6.0500237538e-05 1.6675449288e+00 -2.8882725407e+00 1.6675449288e+00 2.8882725407e+00 
57200 6.3121863813e+00 5.1848620918e-05 1.6675449288e+00 -2.8882725407e+00 1.6675449288e+00 2.8882725407e+00 
57300 6.3121865202e+00 4.2969816700e-05 1.6675449288e+00 -2.8882725407e+00 1.6675449288e+00 2.8882725407e+00 
57400 6.3121866589e+00 3.3873583870e-05 1.6675449288e+00 -2.8882725407e+00 1.6675449288e+00 2.8882725407e+00 
57500 6.3121867969e+00 2.4569578297e-05 1.6675449288e+00 -2.8882725407e+00 1.6675449288e+00 2.8882725407e+00 
57600 6.3121869339e+00 1.5067352602e-05 1.6675449288e+00 -2.8882725407e+00 1.6675449288e+00 2.8882725407e+00 
57700 6.3121870696e+00 5.3763559757e-06 1.6675449288e+00 -2.8882725407e+00 1.6675449288e+00 2.8882725407e+00 
57800 6.3121872036e+00 -4.4940660744e-06 1.6675449288e+00 -2.8882725407e+00 1.6675449288e+00 2.8882725407e+00 
57900 6.3121873356e+00 -1.4534672010e-05 1.6675449288e+00 -2.8882725407e+00 1.6675449288e+00 2.8882725407e+00 
58000 6.3121874654e+00 -2.4736324619e-05 1.6675449288e+00 -2.8882725407e+00 1.6675449288e+00 2.8882725407e+00 
58100 6.3121875926e+00 -3.5089991419e-05 1.6675449288e+00 -2.8882725407e+00 1.6675449288e+00 2.8882725407e+00 
58200 6.3121877170e+00 -4.5586745119e-05 1.6675449288e+00 -2.8882725407e+00 1.6675449288e+00 2.8882725407e+00 
58300 6.3121878384e+00 -5.6217764107e-05 1.6675449288e+00 -2.8882725407e+00 1.6675449288e+00 2.8882725407e+00 
58400 6.3121879566e+00 -6.6974333023e-05 1.6675449288e+00 -2.8882725407e+00 1.6675449288e+00 2.8882725407e+00 
58500 6.3121880713e+00 -7.7847843345e-05 1.6675449288e+00 -2.8882725407e+00 1.6675449288e+00 2.8882725407e+00 
58600 6.3121881821e+00 -8.5849200896e-05 1.6675472630e+00 -2.8882765836e+00 1.6675472630e+00 2.8882765836e+00 
58700 6.3121882890e+00 -9.3623091016e-05 1.6675498372e+00 -2.8882810421e+00 1.6675498372e+00 2.8882810421e+00 
58800 6.3121883919e+00 -1.0116733622e-04 1.6675526444e+00 -2.8882859043e+00 1.6675526444e+00 2.8882859043e+00 
58900 6.3121884906e+00 -1.0848001000e-04 1.6675556778e+00 -2.8882911584e+00 1.6675556778e+00 2.8882911584e+00 
59000 6.3121885850e+00 -1.1555943274e-04 1.6675589304e+00 -2.8882967921e+00 1.6675589304e+00 2.8882967921e+00 
59100 6.3121886751e+00 -1.2240416749e-04 1.6675623954e+00 -2.8883027936e+00 1.6675623954e+00 2.8883027936e+00 
59200 6.3121887606e+00 -1.2901301566e-04 1.6675660655e+00 -2.8883091505e+00 1.6675660655e+00 2.8883091505e+00 
59300 6.3121888417e+00 -1.3538501265e-04 1.6675699338e+00 -2.8883158506e+00 1.6675699338e+00 2.8883158506e+00 
59400 6.3121889182e+00 -1.4151942334e-04 1.6675739932e+00 -2.8883228816e+00 1.6675739932e+00 2.8883228816e+00 
59500 6.3121889901e+00 -1.4741573752e-04 1.6675782365e+00 -2.8883302311e+00 1.6675782365e+00 2.8883302311e+00 
59600 6.3121890574e+00 -1.5307366527e-04 1.6675826565e+00 -2.8883378869e+00 1.6675826565e+00 2.8883378869e+00 
59700 6.3121891201e+00 -1.5849313225e-04 1.6675872462e+00 -2.8883458365e+00 1.6675872462e+00 2.8883458365e+00 
59800 6.3121891782e+00 -1.6367427487e-04 1.6675919984e+00 -2.8883540675e+00 1.6675919984e+00 2.8883540675e+00 
59900 6.3121892318e+00 -1.6861743552e-04 1.6675969059e+00 -2.8883625675e+00 1.6675969059e+00 2.8883625675e+00 
60000 6.3121892808e+00 -1.7332315765e-04 1.6676019616e+00 -2.8883713243e+00 1.6676019616e+00 2.8883713243e+00 
60100 6.3121893255e+00 -1.7779218078e-04 1.6676071584e+00 -2.8883803254e+00 1.6676071584e+00 2.8883803254e+00 
60200 6.3121893657e+00 -1.8202543556e-04 1.6676124891e+00 -2.8883895585e+00 1.6676124891e+00 2.8883895585e+00 
60300 6.3121894017e+00 -1.8602403873e-04 1.6676179468e+00 -2.8883990115e+00 1.6676179468e+00 2.8883990115e+00 
60400 6.3121894334e+00 -1.8978928799e-04 1.6676235243e+00 -2.8884086720e+00 1.6676235243e+00 2.8884086720e+00 
60500 6.3121894611e+00 -1.9332265699e-04 1.6676292148e+00 -2.8884185281e+00 1.6676292148e+00 2.8884185281e+00 
60600 6.3121894848e+00 -1.9662579010e-04 1.6676350111e+00 -2.8884285677e+00 1.6676350111e+00 2.8884285677e+00 
60700 6.3121895046e+00 -1.9970049732e-04 1.6676409064e+00 -2.8884387787e+00 1.6676409064e+00 2.8884387787e+00 
60800 6.3121895207e+00 -2.0254874907e-04 1.6676468940e+00 -2.8884491494e+00 1.6676468940e+00 2.8884491494e+00 
60900 6.3121895332e+00 -2.0517267099e-04 1.6676529669e+00 -2.8884596680e+00 1.6676529669e+00 2.8884596680e+00 
61000 6.3121895422e+00 -2.0757453880e-04 1.6676591184e+00 -2.8884703228e+00 1.6676591184e+00 2.8884703228e+00 
61100 6.3121895479e+00 -2.0975677300e-04 1.6676653419e+00 -2.8884811022e+00 1.6676653419e+00 2.8884811022e+00 
61200 6.3121895505e+00 -2.1172193373e-04 1.6676716309e+00 -2.8884919950e+00 1.6676716309e+00 2.8884919950e+00 
61300 6.3121895501e+00 -2.1347271551e-04 1.6676779787e+00 -2.8885029898e+00 1.6676779787e+00 2.8885029898e+00 
61400 6.3121895468e+00 -2.1501194207e-04 1.6676843790e+00 -2.8885140754e+00 1.6676843790e+00 2.8885140754e+00 
61500 6.3121895408e+00 -2.1634256112e-04 1.6676908254e+00 -2.8885252410e+00 1.6676908254e+00 2.8885252410e+00 
61600 6.3121895323e+00 -2.1746763921e-04 1.6676973117e+00 -2.8885364756e+00 1.6676973117e+00 2.8885364756e+00 
61700 6.3121895214e+00 -2.1839035650e-04 1.6677038317e+00 -2.8885477685e+00 1.6677038317e+00 2.8885477685e+00 
61800 6.3121895084e+00 -2.1911400166e-04 1.6677103794e+00 -2.8885591094e+00 1.6677103794e+00 2.8885591094e+00 
61900 6.3121894934e+00 -2.1964196672e-04 1.6677169487e+00 -2.8885704878e+00 1.6677169487e+00 2.8885704878e+00 
62000 6.3121894764e+00 -2.1997774197e-04 1.6677235338e+00 -2.8885818935e+00 1.6677235338e+00 2.8885818935e+00 
62100 6.3121894578e+00 -2.2012491091e-04 1.6677301289e+00 -2.8885933166e+00 1.6677301289e+00 2.8885933166e+00 
62200 6.3121894377e+00 -2.2008714516e-04 1.6677367285e+00 -2.8886047474e+00 1.6677367285e+00 2.8886047474e+00 
62300 6.3121894162e+00 -2.1986819953e-04 1.6677433269e+00 -2.8886161761e+00 1.6677433269e+00 2.8886161761e+00 
62400 6.3121893936e+00 -2.1947190701e-04 1.6677499187e+00 -2.8886275934e+00 1.6677499187e+00 2.8886275934e+00 
62500 6.3121893698e+00 -2.1890217385e-04 1.6677564985e+00 -2.8886389901e+00 1.6677564985e+00 2.8886389901e+00 
62600 6.3121893452e+00 -2.1816297469e-04 1.6677630613e+00 -2.8886503572e+00 1.6677630613e+00 2.8886503572e+00 
62700 6.3121893199e+00 -2.1725834774e-04 1.6677696019e+00 -2.8886616858e+00 1.6677696019e+00 2.8886616858e+00 
62800 6.3121892939e+00 -2.1619239001e-04 1.6677761154e+00 -2.8886729675e+00 1.6677761154e+00 2.8886729675e+00 
62900 6.3121892676e+00 -2.1496925253e-04 1.6677825968e+00 -2.8886841937e+00 1.6677825968e+00 2.8886841937e+00 
63000 6.3121892409e+00 -2.1359313576e-04 1.6677890416e+00 -2.8886953563e+00 1.6677890416e+00 2.8886953563e+00 
63100 6.3121892140e+00 -2.1206828491e-04 1.6677954451e+00 -2.8887064475e+00 1.6677954451e+00 2.8887064475e+00 
63200 6.3121891871e+00 -2.1039898543e-04 1.6678018028e+00 -2.8887174594e+00 1.6678018028e+00 2.8887174594e+00 
63300 6.3121891603e+00 -2.0858955849e-04 1.6678081105e+00 -2.8887283847e+00 1.6678081105e+00 2.8887283847e+00 
63400 6.3121891337e+00 -2.0664435659e-04 1.6678143639e+00 -2.8887392159e+00 1.6678143639e+00 2.8887392159e+00 
63500 6.3121891073e+00 -2.0456775916e-04 1.6678205590e+00 -2.8887499461e+00 1.6678205590e+00 2.8887499461e+00 
63600 6.3121890815e+00 -2.0236416831e-04 1.6678266918e+00 -2.8887605684e+00 1.6678266918e+00 2.8887605684e+00 
63700 6.3121890561e+00 -2.0003800460e-04 1.6678327585e+00 -2.8887710762e+00 1.6678327585e+00 2.8887710762e+00 
63800 6.3121890313e+00 -1.9759370286e-04 1.6678387554e+00 -2.8887814632e+00 1.6678387554e+00 2.8887814632e+00 
63900 6.3121890072e+00 -1.9503570819e-04 1.6678446791e+00 -2.8887917233e+00 1.6678446791e+00 2.8887917233e+00 
64000 6.3121889839e+00 -1.9236847191e-04 1.6678505260e+00 -2.8888018505e+00 1.6678505260e+00 2.8888018505e+00 
64100 6.3121889615e+00 -1.8959644764e-04 1.6678562930e+00 -2.8888118392e+00 1.6678562930e+00 2.8888118392e+00 
64200 6.3121889400e+00 -1.8672408750e-04 1.6678619768e+00 -2.8888216838e+00 1.6678619768e+00 2.8888216838e+00 
64300 6.3121889195e+00 -1.8375583833e-04 1.6678675745e+00 -2.8888313794e+00 1.6678675745e+00 2.8888313794e+00 
64400 6.3121889001e+00 -1.8069613803e-04 1.6678730832e+00 -2.8888409207e+00 1.6678730832e+00 2.8888409207e+00 
64500 6.3121888817e+00 -1.7754941194e-04 1.6678785002e+00 -2.8888503032e+00 1.6678785002e+00 2.8888503032e+00 
64600 6.3121888645e+00 -1.7432006936e-04 1.6678838228e+00 -2.8888595222e+00 1.6678838228e+00 2.8888595222e+00 
64700 6.3121888485e+00 -1.7101250014e-04 1.6678890486e+00 -2.8888685736e+00 1.6678890486e+00 2.8888685736e+00 
64800 6.3121888337e+00 -1.6763107130e-04 1.6678941752e+00 -2.8888774531e+00 1.6678941752e+00 2.8888774531e+00 
64900 6.3121888201e+00 -1.6418012384e-04 1.6678992005e+00 -2.8888861571e+00 1.6678992005e+00 2.8888861571e+00 
65000 6.3121888079e+00 -1.6066396954e-04 1.6679041222e+00 -2.8888946818e+00 1.6679041222e+00 2.8888946818e+00 
65100 6.3121887969e+00 -1.5708688791e-04 1.6679089386e+00 -2.8889030240e+00 1.6679089386e+00 2.8889030240e+00 
65200 6.3121887872e+00 -1.5345312321e-04 1.6679136477e+00 -2.8889111804e+00 1.6679136477e+00 2.8889111804e+00 
65300 6.3121887788e+00 -1.4976688157e-04 1.6679182478e+00 -2.8889191481e+00 1.6679182478e+00 2.8889191481e+00 
65400 6.3121887717e+00 -1.4603232819e-04 1.6679227375e+00 -2.8889269244e+00 1.6679227375e+00 2.8889269244e+00 
65500 6.3121887660e+00 -1.4225358462e-04 1.6679271151e+00 -2.8889345067e+00 1.6679271151e+00 2.8889345067e+00 
65600 6.3121887615e+00 -1.3843472617e-04 1.6679313795e+00 -2.8889418929e+00 1.6679313795e+00 2.8889418929e+00 
65700 6.3121887583e+00 -1.3457977939e-04 1.6679355294e+00 -2.8889490807e+00 1.6679355294e+00 2.8889490807e+00 
65800 6.3121887564e+00 -1.3069271962e-04 1.6679395637e+00 -2.8889560683e+00 1.6679395637e+00 2.8889560683e+00 
65900 6.3121887557e+00 -1.2677746869e-04 1.6679434815e+00 -2.8889628541e+00 1.6679434815e+00 2.8889628541e+00 
66000 6.3121887563e+00 -1.2283789266e-04 1.6679472819e+00 -2.8889694367e+00 1.6679472819e+00 2.8889694367e+00 
66100 6.3121887580e+00 -1.1887779966e-04 1.6679509642e+00 -2.8889758146e+00 1.6679509642e+00 2.8889758146e+00 
66200 6.3121887610e+00 -1.1490093785e-04 1.6679545278e+00 -2.8889819869e+00 1.6679545278e+00 2.8889819869e+00 
66300 6.3121887650e+00 -1.1091099349e-04 1.6679579722e+00 -2.8889879527e+00 1.6679579722e+00 2.8889879527e+00 
66400 6.3121887702e+00 -1.0691158899e-04 1.6679612970e+00 -2.8889937114e+00 1.6679612970e+00 2.8889937114e+00 
66500 6.3121887764e+00 -1.0290628121e-04 1.6679645018e+00 -2.8889992624e+00 1.6679645018e+00 2.8889992624e+00 
66600 6.3121887837e+00 -9.8898559746e-05 1.6679675866e+00 -2.8890046054e+00 1.6679675866e+00 2.8890046054e+00 
66700 6.3121887919e+00 -9.4891845313e-05 1.6679705512e+00 -2.8890097403e+00 1.6679705512e+00 2.8890097403e+00 
66800 6.3121888011e+00 -9.0889488283e-05 1.6679733958e+00 -2.8890146672e+00 1.6679733958e+00 2.8890146672e+00 
66900 6.3121888111e+00 -8.6894767241e-05 1.6679761203e+00 -2.8890193862e+00 1.6679761203e+00 2.8890193862e+00 
67000 6.3121888220e+00 -8.2910887685e-05 1.6679787251e+00 -2.8890238979e+00 1.6679787251e+00 2.8890238979e+00 
67100 6.3121888336e+00 -7.8940980771e-05 1.6679812105e+00 -2.8890282026e+00 1.6679812105e+00 2.8890282026e+00 
67200 6.3121888461e+00 -7.4988102181e-05 1.6679835769e+00 -2.8890323013e+00 1.6679835769e+00 2.8890323013e+00 
67300 6.3121888592e+00 -7.1055231071e-05 1.6679858247e+00 -2.8890361947e+00 1.6679858247e+00 2.8890361947e+00 
67400 6.3121888729e+00 -6.7145269082e-05 1.6679879547e+00 -2.8890398839e+00 1.6679879547e+00 2.8890398839e+00 
67500 6.3121888874e+00 -6.5829066904e-05 1.6679879547e+00 -2.8890398839e+00 1.6679879547e+00 2.8890398839e+00 
67600 6.3121889024e+00 -6.4411063398e-05 1.6679879547e+00 -2.8890398839e+00 1.6679879547e+00 2.8890398839e+00 
67700 6.3121889178e+00 -6.2894330826e-05 1.6679879547e+00 -2.8890398839e+00 1.6679879547e+00 2.8890398839e+00 
67800 6.3121889336e+00 -6.1281913947e-05 1.6679879547e+00 -2.8890398839e+00 1.6679879547e+00 2.8890398839e+00 
67900 6.3121889499e+00 -5.9576830336e-05 1.6679879547e+00 -2.8890398839e+00 1.6679879547e+00 2.8890398839e+00 
68000 6.3121889664e+00 -5.7782070671e-05 1.6679879547e+00 -2.8890398839e+00 1.6679879547e+00 2.8890398839e+00 
68100 6.3121889831e+00 -5.5900599001e-05 1.6679879547e+00 -2.8890398839e+00 1.6679879547e+00 2.8890398839e+00 
68200 6.3121890001e+00 -5.3935352978e-05 1.6679879547e+00 -2.8890398839e+00 1.6679879547e+00 2.8890398839e+00 
68300 6.3121890173e+00 -5.1889244060e-05 1.6679879547e+00 -2.8890398839e+00 1.6679879547e+00 2.8890398839e+00 
68400 6.3121890345e+00 -4.9765157689e-05 1.6679879547e+00 -2.8890398839e+00 1.6679879547e+00 2.8890398839e+00 
68500 6.3121890518e+00 -4.7565953432e-05 1.6679879547e+00 -2.8890398839e+00 1.6679879547e+00 2.8890398839e+00 
68600 6.3121890692e+00 -4.5294465100e-05 1.6679879547e+00 -2.8890398839e+00 1.6679879547e+00 2.8890398839e+00 
68700 6.3121890866e+00 -4.2953500830e-05 1.6679879547e+00 -2.8890398839e+00 1.6679879547e+00 2.8890398839e+00 
68800 6.3121891038e+00 -4.0545843148e-05 1.6679879547e+00 -2.8890398839e+00 1.6679879547e+00 2.8890398839e+00 
68900 6.3121891210e+00 -3.8074249003e-05 1.6679879547e+00 -2.8890398839e+00 1.6679879547e+00 2.8890398839e+00 
69000 6.3121891381e+00 -3.5541449764e-05 1.6679879547e+00 -2.8890398839e+00 1.6679879547e+00 2.8890398839e+00 
69100 6.3121891550e+00 -3.2950151200e-05 1.6679879547e+00 -2.8890398839e+00 1.6679879547e+00 2.8890398839e+00 
69200 6.3121891717e+00 -3.0303033433e-05 1.6679879547e+00 -2.8890398839e+00 1.6679879547e+00 2.8890398839e+00 
69300 6.3121891882e+00 -2.7602750859e-05 1.6679879547e+00 -2.8890398839e+00 1.6679879547e+00 2.8890398839e+00 
69400 6.3121892045e+00 -2.4851932052e-05 1.6679879547e+00 -2.8890398839e+00 1.6679879547e+00 2.8890398839e+00 
69500 6.3121892204e+00 -2.2053179639e-05 1.6679879547e+00 -2.8890398839e+00 1.6679879547e+00 2.8890398839e+00 
69600 6.3121892360e+00 -1.9209070158e-05 1.6679879547e+00 -2.8890398839e+00 1.6679879547e+00 2.8890398839e+00 
69700 6.3121892513e+00 -1.6322153879e-05 1.6679879547e+00 -2.8890398839e+00 1.6679879547e+00 2.8890398839e+00 
69800 6.3121892663e+00 -1.3394954627e-05 1.6679879547e+00 -2.8890398839e+00 1.6679879547e+00 2.8890398839e+00 
69900 6.3121892808e+00 -1.0429969571e-05 1.6679879547e+00 -2.8890398839e+00 1.6679879547e+00 2.8890398839e+00 
70000 6.3121892950e+00 -7.4296689812e-06 1.6679879547e+00 -2.8890398839e+00 1.6679879547e+00 2.8890398839e+00 
70100 6.3121893087e+00 -4.3964959937e-06 1.6679879547e+00 -2.8890398839e+00 1.6679879547e+00 2.8890398839e+00 
70200 6.3121893221e+00 -1.3328663475e-06 1.6679879547e+00 -2.8890398839e+00 1.6679879547e+00 2.8890398839e+00 
70300 6.3121893349e+00 1.7588319066e-06 1.6679879547e+00 -2.8890398839e+00 1.6679879547e+00 2.8890398839e+00 
70400 6.3121893474e+00 4.8762386983e-06 1.6679879547e+00 -2.8890398839e+00 1.6679879547e+00 2.8890398839e+00 
70500 6.3121893593e+00 8.0170222427e-06 1.6679879547e+00 -2.8890398839e+00 1.6679879547e+00 2.8890398839e+00 
70600 6.3121893709e+00 1.1178879372e-05 1.6679879547e+00 -2.8890398839e+00 1.6679879547e+00 2.8890398839e+00 
70700 6.3121893819e+00 1.4359535866e-05 1.6679879547e+00 -2.8890398839e+00 1.6679879547e+00 2.8890398839e+00 
70800 6.3121893925e+00 1.7556746804e-05 1.6679879547e+00 -2.8890398839e+00 1.6679879547e+00 2.8890398839e+00 
70900 6.3121894025e+00 2.0768296909e-05 1.6679879547e+00 -2.8890398839e+00 1.6679879547e+00 2.8890398839e+00 
71000 6.3121894121e+00 2.3992000929e-05 1.6679879547e+00 -2.8890398839e+00 1.6679879547e+00 2.8890398839e+00 
71100 6.3121894213e+00 2.7225703995e-05 1.6679879547e+00 -2.8890398839e+00 1.6679879547e+00 2.8890398839e+00 
71200 6.3121894299e+00 3.0467282007e-05 1.6679879547e+00 -2.8890398839e+00 1.6679879547e+00 2.8890398839e+00 
71300 6.3121894381e+00 3.3714642011e-05 1.6679879547e+00 -2.8890398839e+00 1.6679879547e+00 2.8890398839e+00 
71400 6.3121894458e+00 3.6965722593e-05 1.6679879547e+00 -2.8890398839e+00 1.6679879547e+00 2.8890398839e+00 
71500 6.3121894530e+00 4.0218494268e-05 1.6679879547e+00 -2.8890398839e+00 1.6679879547e+00 2.8890398839e+00 
71600 6.3121894598e+00 4.3470959870e-05 1.6679879547e+00 -2.8890398839e+00 1.6679879547e+00 2.8890398839e+00 
71700 6.3121894661e+00 4.6721154943e-05 1.6679879547e+00 -2.8890398839e+00 1.6679879547e+00 2.8890398839e+00 
71800 6.3121894720e+00 4.9967148144e-05 1.6679879547e+00 -2.8890398839e+00 1.6679879547e+00 2.8890398839e+00 
71900 6.3121894775e+00 5.3207041620e-05 1.6679879547e+00 -2.8890398839e+00 1.6679879547e+00 2.8890398839e+00 
72000 6.3121894826e+00 5.6438971408e-05 1.6679879547e+00 -2.8890398839e+00 1.6679879547e+00 2.8890398839e+00 
72100 6.3121894872e+00 5.9661107821e-05 1.6679879547e+00 -2.8890398839e+00 1.6679879547e+00 2.8890398839e+00 
72200 6.3121894915e+00 6.2871655813e-05 1.6679879547e+00 -2.8890398839e+00 1.6679879547e+00 2.8890398839e+00 
72300 6.3121894953e+00 6.6068855377e-05 1.6679879547e+00 -2.8890398839e+00 1.6679879547e+00 2.8890398839e+00 
72400 6.3121894988e+00 6.9250981900e-05 1.6679879547e+00 -2.8890398839e+00 1.6679879547e+00 2.8890398839e+00 
72500 6.3121895020e+00 7.2416346523e-05 1.6679879547e+00 -2.8890398839e+00 1.6679879547e+00 2.8890398839e+00 
72600 6.3121895046e+00 7.2793430041e-05 1.6679857839e+00 -2.8890361241e+00 1.6679857839e+00 2.8890361241e+00 
72700 6.3121895069e+00 7.3116313781e-05 1.6679836019e+00 -2.8890323446e+00 1.6679836019e+00 2.8890323446e+00 
72800 6.3121895088e+00 7.3384983570e-05 1.6679814101e+00 -2.8890285484e+00 1.6679814101e+00 2.8890285484e+00 
72900 6.3121895105e+00 7.3599513150e-05 1.6679792103e+00 -2.8890247382e+00 1.6679792103e+00 2.8890247382e+00 
73000 6.3121895118e+00 7.3760060506e-05 1.6679770040e+00 -2.8890209168e+00 1.6679770040e+00 2.8890209168e+00 
73100 6.3121895129e+00 7.3866864225e-05 1.6679747930e+00 -2.8890170872e+00 1.6679747930e+00 2.8890170872e+00 
73200 6.3121895137e+00 7.3920239985e-05 1.6679725787e+00 -2.8890132519e+00 1.6679725787e+00 2.8890132519e+00 
73300 6.3121895143e+00 7.3920577063e-05 1.6679703628e+00 -2.8890094139e+00 1.6679703628e+00 2.8890094139e+00 
73400 6.3121895146e+00 7.3868334968e-05 1.6679681469e+00 -2.8890055759e+00 1.6679681469e+00 2.8890055759e+00 
73500 6.3121895148e+00 7.3764040110e-05 1.6679659326e+00 -2.8890017406e+00 1.6679659326e+00 2.8890017406e+00 
73600 6.3121895147e+00 7.3608282556e-05 1.6679637214e+00 -2.8889979107e+00 1.6679637214e+00 2.8889979107e+00 
73700 6.3121895145e+00 7.3401712840e-05 1.6679615149e+00 -2.8889940889e+00 1.6679615149e+00 2.8889940889e+00 
73800 6.3121895141e+00 7.3145038875e-05 1.6679593146e+00 -2.8889902778e+00 1.6679593146e+00 2.8889902778e+00 
73900 6.3121895136e+00 7.2839022892e-05 1.6679571219e+00 -2.8889864800e+00 1.6679571219e+00 2.8889864800e+00 
74000 6.3121895130e+00 7.2484478476e-05 1.6679549384e+00 -2.8889826981e+00 1.6679549384e+00 2.8889826981e+00 
74100 6.3121895123e+00 7.2082267659e-05 1.6679527656e+00 -2.8889789346e+00 1.6679527656e+00 2.8889789346e+00 
74200 6.3121895114e+00 7.1633298060e-05 1.6679506048e+00 -2.8889751920e+00 1.6679506048e+00 2.8889751920e+00 
74300 6.3121895105e+00 7.1138520145e-05 1.6679484574e+00 -2.8889714727e+00 1.6679484574e+00 2.8889714727e+00 
74400 6.3121895095e+00 7.0598924478e-05 1.6679463249e+00 -2.8889677791e+00 1.6679463249e+00 2.8889677791e+00 
74500 6.3121895087e+00 7.2716171266e-05 1.6679463249e+00 -2.8889677791e+00 1.6679463249e+00 2.8889677791e+00 
74600 6.3121895077e+00 7.2005996963e-05 1.6679441451e+00 -2.8889640035e+00 1.6679441451e+00 2.8889640035e+00 
74700 6.3121895066e+00 7.1257064344e-05 1.6679419866e+00 -2.8889602648e+00 1.6679419866e+00 2.8889602648e+00 
74800 6.3121895055e+00 7.0470359907e-05 1.6679398505e+00 -2.8889565650e+00 1.6679398505e+00 2.8889565650e+00 
74900 6.3121895046e+00 7.2342660792e-05 1.6679398505e+00 -2.8889565650e+00 1.6679398505e+00 2.8889565650e+00 
75000 6.3121895035e+00 7.1399597121e-05 1.6679376819e+00 -2.8889528089e+00 1.6679376819e+00 2.8889528089e+00 
75100 6.3121895025e+00 7.0424788501e-05 1.6679355415e+00 -2.8889491017e+00 1.6679355415e+00 2.8889491017e+00 
75200 6.3121895017e+00 7.2113246614e-05 1.6679355415e+00 -2.8889491017e+00 1.6679355415e+00 2.8889491017e+00 
75300 6.3121895007e+00 7.0994036480e-05 1.6679333798e+00 -2.8889453574e+00 1.6679333798e+00 2.8889453574e+00 
75400 6.3121894998e+00 6.9848957956e-05 1.6679312516e+00 -2.8889416713e+00 1.6679312516e+00 2.8889416713e+00 
75500 6.3121894991e+00 7.1350970740e-05 1.6679312516e+00 -2.8889416713e+00 1.6679312516e+00 2.8889416713e+00 
75600 6.3121894984e+00 7.0073776385e-05 1.6679291127e+00 -2.8889379666e+00 1.6679291127e+00 2.8889379666e+00 
75700 6.3121894978e+00 7.1457065782e-05 1.6679291127e+00 -2.8889379666e+00 1.6679291127e+00 2.8889379666e+00 
75800 6.3121894972e+00 7.0056962442e-05 1.6679269706e+00 -2.8889342564e+00 1.6679269706e+00 2.8889342564e+00 
75900 6.3121894968e+00 7.1321337616e-05 1.6679269706e+00 -2.8889342564e+00 1.6679269706e+00 2.8889342564e+00 
76000 6.3121894964e+00 6.9807515392e-05 1.6679248326e+00 -2.8889305532e+00 1.6679248326e+00 2.8889305532e+00 
76100 6.3121894962e+00 7.0953109382e-05 1.6679248326e+00 -2.8889305532e+00 1.6679248326e+00 2.8889305532e+00 
76200 6.3121894960e+00 6.9334723857e-05 1.6679227056e+00 -2.8889268691e+00 1.6679227056e+00 2.8889268691e+00 
76300 6.3121894960e+00 7.0361987038e-05 1.6679227056e+00 -2.8889268691e+00 1.6679227056e+00 2.8889268691e+00 
76400 6.3121894961e+00 7.1339855671e-05 1.6679227056e+00 -2.8889268691e+00 1.6679227056e+00 2.8889268691e+00 
76500 6.3121894962e+00 6.9539594135e-05 1.6679205670e+00 -2.8889231650e+00 1.6679205670e+00 2.8889231650e+00 
76600 6.3121894966e+00 7.0400411180e-05 1.6679205670e+00 -2.8889231650e+00 1.6679205670e+00 2.8889231650e+00 
76700 6.3121894970e+00 7.1212629300e-05 1.6679205670e+00 -2.8889231650e+00 1.6679205670e+00 2.8889231650e+00 
76800 6.3121894974e+00 6.9252437399e-05 1.6679184322e+00 -2.8889194675e+00 1.6679184322e+00 2.8889194675e+00 
76900 6.3121894981e+00 6.9949437413e-05 1.6679184322e+00 -2.8889194675e+00 1.6679184322e+00 2.8889194675e+00 
77000 6.3121894989e+00 7.0598840413e-05 1.6679184322e+00 -2.8889194675e+00 1.6679184322e+00 2.8889194675e+00 
77100 6.3121894998e+00 7.1201169733e-05 1.6679184322e+00 -2.8889194675e+00 1.6679184322e+00 2.8889194675e+00 
77200 6.3121895007e+00 6.9033116755e-05 1.6679162978e+00 -2.8889157705e+00 1.6679162978e+00 2.8889157705e+00 
77300 6.3121895018e+00 6.9523507136e-05 1.6679162978e+00 -2.8889157705e+00 1.6679162978e+00 2.8889157705e+00 
77400 6.3121895030e+00 6.9968049157e-05 1.6679162978e+00 -2.8889157705e+00 1.6679162978e+00 2.8889157705e+00 
77500 6.3121895044e+00 7.0367338549e-05 1.6679162978e+00 -2.8889157705e+00 1.6679162978e+00 2.8889157705e+00 
77600 6.3121895058e+00 7.0721978793e-05 1.6679162978e+00 -2.8889157705e+00 1.6679162978e+00 2.8889157705e+00 
77700 6.3121895072e+00 6.8327061757e-05 1.6679141777e+00 -2.8889120985e+00 1.6679141777e+00 2.8889120985e+00 
77800 6.3121895088e+00 6.8574978976e-05 1.6679141777e+00 -2.8889120985e+00 1.6679141777e+00 2.8889120985e+00 
77900 6.3121895105e+00 6.8779708608e-05 1.6679141777e+00 -2.8889120985e+00 1.6679141777e+00 2.8889120985e+00 
78000 6.3121895123e+00 6.8941921502e-05 1.6679141777e+00 -2.8889120985e+00 1.6679141777e+00 2.8889120985e+00 
78100 6.3121895142e+00 6.9062294921e-05 1.6679141777e+00 -2.8889120985e+00 1.6679141777e+00 2.8889120985e+00 
78200 6.3121895162e+00 6.9141512475e-05 1.6679141777e+00 -2.8889120985e+00 1.6679141777e+00 2.8889120985e+00 
78300 6.3121895182e+00 6.9180264029e-05 1.6679141777e+00 -2.8889120985e+00 1.6679141777e+00 2.8889120985e+00 
78400 6.3121895203e+00 6.9179245611e-05 1.6679141777e+00 -2.8889120985e+00 1.6679141777e+00 2.8889120985e+00 
78500 6.3121895225e+00 6.9139159299e-05 1.6679141777e+00 -2.8889120985e+00 1.6679141777e+00 2.8889120985e+00 
78600 6.3121895247e+00 6.9060713102e-05 1.6679141777e+00 -2.8889120985e+00 1.6679141777e+00 2.8889120985e+00 
78700 6.3121895270e+00 6.8944620820e-05 1.6679141777e+00 -2.8889120985e+00 1.6679141777e+00 2.8889120985e+00 
78800 6.3121895293e+00 6.8791601911e-05 1.6679141777e+00 -2.8889120985e+00 1.6679141777e+00 2.8889120985e+00 
78900 6.3121895317e+00 6.8602381322e-05 1.6679141777e+00 -2.8889120985e+00 1.6679141777e+00 2.8889120985e+00 
79000 6.3121895342e+00 6.8377689327e-05 1.6679141777e+00 -2.8889120985e+00 1.6679141777e+00 2.8889120985e+00 
79100 6.3121895366e+00 6.8118261347e-05 1.6679141777e+00 -2.8889120985e+00 1.6679141777e+00 2.8889120985e+00 
79200 6.3121895391e+00 6.7824837754e-05 1.6679141777e+00 -2.8889120985e+00 1.6679141777e+00 2.8889120985e+00 
79300 6.3121895416e+00 6.7498163674e-05 1.6679141777e+00 -2.8889120985e+00 1.6679141777e+00 2.8889120985e+00 
79400 6.3121895442e+00 6.7138988775e-05 1.6679141777e+00 -2.8889120985e+00 1.6679141777e+00 2.8889120985e+00 
79500 6.3121895468e+00 6.6748067035e-05 1.6679141777e+00 -2.8889120985e+00 1.6679141777e+00 2.8889120985e+00 
79600 6.3121895493e+00 6.6326156520e-05 1.6679141777e+00 -2.8889120985e+00 1.6679141777e+00 2.8889120985e+00 
79700 6.3121895519e+00 6.5874019128e-05 1.6679141777e+00 -2.8889120985e+00 1.6679141777e+00 2.8889120985e+00 
79800 6.3121895545e+00 6.5392420350e-05 1.6679141777e+00 -2.8889120985e+00 1.6679141777e+00 2.8889120985e+00 
79900 6.3121895571e+00 6.4882128995e-05 1.6679141777e+00 -2.8889120985e+00 1.6679141777e+00 2.8889120985e+00 
80000 6.3121895597e+00 6.4343916918e-05 1.6679141777e+00 -2.8889120985e+00 1.6679141777e+00 2.8889120985e+00 
80100 6.3121895623e+00 6.3778558753e-05 1.6679141777e+00 -2.8889120985e+00 1.6679141777e+00 2.8889120985e+00 
80200 6.3121895648e+00 6.3186831607e-05 1.6679141777e+00 -2.8889120985e+00 1.6679141777e+00 2.8889120985e+00 
80300 6.3121895674e+00 6.2569514782e-05 1.6679141777e+00 -2.8889120985e+00 1.6679141777e+00 2.8889120985e+00 
80400 6.3121895699e+00 6.1927389454e-05 1.6679141777e+00 -2.8889120985e+00 1.6679141777e+00 2.8889120985e+00 
80500 6.3121895724e+00 6.1261238371e-05 1.6679141777e+00 -2.8889120985e+00 1.6679141777e+00 2.8889120985e+00 
80600 6.3121895749e+00 6.0571845537e-05 1.6679141777e+00 -2.8889120985e+00 1.6679141777e+00 2.8889120985e+00 
80700 6.3121895773e+00 5.9859995886e-05 1.6679141777e+00 -2.8889120985e+00 1.6679141777e+00 2.8889120985e+00 
80800 6.3121895797e+00 5.9126474948e-05 1.6679141777e+00 -2.8889120985e+00 1.6679141777e+00 2.8889120985e+00 
80900 6.3121895821e+00 5.8372068521e-05 1.6679141777e+00 -2.8889120985e+00 1.6679141777e+00 2.8889120985e+00 
81000 6.3121895845e+00 5.7597562331e-05 1.6679141777e+00 -2.8889120985e+00 1.6679141777e+00 2.8889120985e+00 
81100 6.3121895868e+00 5.6803741686e-05 1.6679141777e+00 -2.8889120985e+00 1.6679141777e+00 2.8889120985e+00 
81200 6.3121895891e+00 5.5991391126e-05 1.6679141777e+00 -2.8889120985e+00 1.6679141777e+00 2.8889120985e+00 
81300 6.3121895913e+00 5.5161294076e-05 1.6679141777e+00 -2.8889120985e+00 1.6679141777e+00 2.8889120985e+00 
81400 6.3121895934e+00 5.4314232492e-05 1.6679141777e+00 -2.8889120985e+00 1.6679141777e+00 2.8889120985e+00 
81500 6.3121895956e+00 5.3450986501e-05 1.6679141777e+00 -2.8889120985e+00 1.6679141777e+00 2.8889120985e+00 
81600 6.3121895977e+00 5.2572334044e-05 1.6679141777e+00 -2.8889120985e+00 1.6679141777e+00 2.8889120985e+00 
81700 6.3121895997e+00 5.1679050516e-05 1.6679141777e+00 -2.8889120985e+00 1.6679141777e+00 2.8889120985e+00 
81800 6.3121896017e+00 5.0771908407e-05 1.6679141777e+00 -2.8889120985e+00 1.6679141777e+00 2.8889120985e+00 
81900 6.3121896036e+00 4.9851676933e-05 1.6679141777e+00 -2.8889120985e+00 1.6679141777e+00 2.8889120985e+00 
82000 6.3121896055e+00 4.8919121685e-05 1.6679141777e+00 -2.8889120985e+00 1.6679141777e+00 2.8889120985e+00 
82100 6.3121896073e+00 4.7975004256e-05 1.6679141777e+00 -2.8889120985e+00 1.6679141777e+00 2.8889120985e+00 
82200 6.3121896091e+00 4.7020081887e-05 1.6679141777e+00 -2.8889120985e+00 1.6679141777e+00 2.8889120985e+00 
82300 6.3121896108e+00 4.6055107106e-05 1.6679141777e+00 -2.8889120985e+00 1.6679141777e+00 2.8889120985e+00 
82400 6.3121896125e+00 4.5080827365e-05 1.6679141777e+00 -2.8889120985e+00 1.6679141777e+00 2.8889120985e+00 
82500 6.3121896141e+00 4.4097984696e-05 1.6679141777e+00 -2.8889120985e+00 1.6679141777e+00 2.8889120985e+00 
82600 6.3121896156e+00 4.3107315348e-05 1.6679141777e+00 -2.8889120985e+00 1.6679141777e+00 2.8889120985e+00 
82700 6.3121896171e+00 4.2109549436e-05 1.6679141777e+00 -2.8889120985e+00 1.6679141777e+00 2.8889120985e+00 
82800 6.3121896186e+00 4.1105410603e-05 1.6679141777e+00 -2.8889120985e+00 1.6679141777e+00 2.8889120985e+00 
82900 6.3121896200e+00 4.0095615664e-05 1.6679141777e+00 -2.8889120985e+00 1.6679141777e+00 2.8889120985e+00 
83000 6.3121896213e+00 3.9080874282e-05 1.6679141777e+00 -2.8889120985e+00 1.6679141777e+00 2.8889120985e+00 
83100 6.3121896226e+00 3.8061888622e-05 1.6679141777e+00 -2.8889120985e+00 1.6679141777e+00 2.8889120985e+00 
83200 6.3121896239e+00 3.7039353030e-05 1.6679141777e+00 -2.8889120985e+00 1.6679141777e+00 2.8889120985e+00 
83300 6.3121896251e+00 3.6013953705e-05 1.6679141777e+00 -2.8889120985e+00 1.6679141777e+00 2.8889120985e+00 
83400 6.3121896262e+00 3.4986368383e-05 1.6679141777e+00 -2.8889120985e+00 1.6679141777e+00 2.8889120985e+00 
83500 6.3121896273e+00 3.3957266019e-05 1.6679141777e+00 -2.8889120985e+00 1.6679141777e+00 2.8889120985e+00 
83600 6.3121896284e+00 3.2927306497e-05 1.6679141777e+00 -2.8889120985e+00 1.6679141777e+00 2.8889120985e+00 
83700 6.3121896294e+00 3.1897140314e-05 1.6679141777e+00 -2.8889120985e+00 1.6679141777e+00 2.8889120985e+00 
83800 6.3121896304e+00 3.0867408303e-05 1.6679141777e+00 -2.8889120985e+00 1.6679141777e+00 2.8889120985e+00 
83900 6.3121896313e+00 2.9838741338e-05 1.6679141777e+00 -2.8889120985e+00 1.6679141777e+00 2.8889120985e+00 
84000 6.3121896322e+00 2.8811760068e-05 1.6679141777e+00 -2.8889120985e+00 1.6679141777e+00 2.8889120985e+00 
84100 6.3121896330e+00 2.7787074638e-05 1.6679141777e+00 -2.8889120985e+00 1.6679141777e+00 2.8889120985e+00 
84200 6.3121896338e+00 2.6765284442e-05 1.6679141777e+00 -2.8889120985e+00 1.6679141777e+00 2.8889120985e+00 
84300 6.3121896346e+00 2.5746977859e-05 1.6679141777e+00 -2.8889120985e+00 1.6679141777e+00 2.8889120985e+00 
84400 6.3121896354e+00 2.4732732018e-05 1.6679141777e+00 -2.8889120985e+00 1.6679141777e+00 2.8889120985e+00 
84500 6.3121896361e+00 2.3723112566e-05 1.6679141777e+00 -2.8889120985e+00 1.6679141777e+00 2.8889120985e+00 
84600 6.3121896368e+00 2.2718673438e-05 1.6679141777e+00 -2.8889120985e+00 1.6679141777e+00 2.8889120985e+00 
84700 6.3121896374e+00 2.1719956647e-05 1.6679141777e+00 -2.8889120985e+00 1.6679141777e+00 2.8889120985e+00 
84800 6.3121896380e+00 2.0727492076e-05 1.6679141777e+00 -2.8889120985e+00 1.6679141777e+00 2.8889120985e+00 
84900 6.3121896386e+00 1.9741797281e-05 1.6679141777e+00 -2.8889120985e+00 1.6679141777e+00 2.8889120985e+00 
85000 6.3121896392e+00 1.8763377315e-05 1.6679141777e+00 -2.8889120985e+00 1.6679141777e+00 2.8889120985e+00 
85100 6.3121896398e+00 1.7792724537e-05 1.6679141777e+00 -2.8889120985e+00 1.6679141777e+00 2.8889120985e+00 
85200 6.3121896403e+00 1.6830318465e-05 1.6679141777e+00 -2.8889120985e+00 1.6679141777e+00 2.8889120985e+00 
85300 6.3121896408e+00 1.5876625607e-05 1.6679141777e+00 -2.8889120985e+00 1.6679141777e+00 2.8889120985e+00 
85400 6.3121896413e+00 1.4932099321e-05 1.6679141777e+00 -2.8889120985e+00 1.6679141777e+00 2.8889120985e+00 
85500 6.3121896418e+00 1.3997179684e-05 1.6679141777e+00 -2.8889120985e+00 1.6679141777e+00 2.8889120985e+00 
85600 6.3121896423e+00 1.3072293363e-05 1.6679141777e+00 -2.8889120985e+00 1.6679141777e+00 2.8889120985e+00 
85700 6.3121896427e+00 1.2157853512e-05 1.6679141777e+00 -2.8889120985e+00 1.6679141777e+00 2.8889120985e+00 
85800 6.3121896432e+00 1.1254259660e-05 1.6679141777e+00 -2.8889120985e+00 1.6679141777e+00 2.8889120985e+00 
85900 6.3121896436e+00 1.0361897625e-05 1.6679141777e+00 -2.8889120985e+00 1.6679141777e+00 2.8889120985e+00 
86000 6.3121896440e+00 9.4811394355e-06 1.6679141777e+00 -2.8889120985e+00 1.6679141777e+00 2.8889120985e+00 
86100 6.3121896444e+00 8.6123432587e-06 1.6679141777e+00 -2.8889120985e+00 1.6679141777e+00 2.8889120985e+00 
86200 6.3121896448e+00 7.7558533385e-06 1.6679141777e+00 -2.8889120985e+00 1.6679141777e+00 2.8889120985e+00 
86300 6.3121896452e+00 6.9119999494e-06 1.6679141777e+00 -2.8889120985e+00 1.6679141777e+00 2.8889120985e+00 
86400 6.3121896456e+00 6.0810993678e-06 1.6679141777e+00 -2.8889120985e+00 1.6679141777e+00 2.8889120985e+00 
86500 6.3121896460e+00 5.2634538315e-06 1.6679141777e+00 -2.8889120985e+00 1.6679141777e+00 2.8889120985e+00 
86600 6.3121896464e+00 4.4593515347e-06 1.6679141777e+00 -2.8889120985e+00 1.6679141777e+00 2.8889120985e+00 
86700 6.3121896468e+00 3.6690666155e-06 1.6679141777e+00 -2.8889120985e+00 1.6679141777e+00 2.8889120985e+00 
86800 6.3121896472e+00 2.8928591696e-06 1.6679141777e+00 -2.8889120985e+00 1.6679141777e+00 2.8889120985e+00 
86900 6.3121896475e+00 2.1309752547e-06 1.6679141777e+00 -2.8889120985e+00 1.6679141777e+00 2.8889120985e+00 
87000 6.3121896479e+00 1.3836469263e-06 1.6679141777e+00 -2.8889120985e+00 1.6679141777e+00 2.8889120985e+00 
87100 6.3121896483e+00 6.5109226687e-07 1.6679141777e+00 -2.8889120985e+00 1.6679141777e+00 2.8889120985e+00 
87200 6.3121896487e+00 -6.6484561432e-08 1.6679141777e+00 -2.8889120985e+00 1.6679141777e+00 2.8889120985e+00 
87300 6.3121896491e+00 -7.6889326447e-07 1.6679141777e+00 -2.8889120985e+00 1.6679141777e+00 2.8889120985e+00 
87400 6.3121896495e+00 -1.4559573551e-06 1.6679141777e+00 -2.8889120985e+00 1.6679141777e+00 2.8889120985e+00 
87500 6.3121896499e+00 -2.1275140654e-06 1.6679141777e+00 -2.8889120985e+00 1.6679141777e+00 2.8889120985e+00 
87600 6.3121896503e+00 -2.7834142727e-06 1.6679141777e+00 -2.8889120985e+00 1.6679141777e+00 2.8889120985e+00 
87700 6.3121896507e+00 -3.4235223968e-06 1.6679141777e+00 -2.8889120985e+00 1.6679141777e+00 2.8889120985e+00 
87800 6.3121896511e+00 -4.0477163036e-06 1.6679141777e+00 -2.8889120985e+00 1.6679141777e+00 2.8889120985e+00 
87900 6.3121896515e+00 -4.6558871879e-06 1.6679141777e+00 -2.8889120985e+00 1.6679141777e+00 2.8889120985e+00 
88000 6.3121896519e+00 -5.2479394504e-06 1.6679141777e+00 -2.8889120985e+00 1.6679141777e+00 2.8889120985e+00 
88100 6.3121896523e+00 -5.8237905756e-06 1.6679141777e+00 -2.8889120985e+00 1.6679141777e+00 2.8889120985e+00 
88200 6.3121896527e+00 -6.3833709802e-06 1.6679141777e+00 -2.8889120985e+00 1.6679141777e+00 2.8889120985e+00 
88300 6.3121896532e+00 -6.9266238820e-06 1.6679141777e+00 -2.8889120985e+00 1.6679141777e+00 2.8889120985e+00 
88400 6.3121896536e+00 -7.4535051338e-06 1.6679141777e+00 -2.8889120985e+00 1.6679141777e+00 2.8889120985e+00 
88500 6.3121896540e+00 -7.9639830651e-06 1.6679141777e+00 -2.8889120985e+00 1.6679141777e+00 2.8889120985e+00 
88600 6.3121896545e+00 -8.4580383095e-06 1.6679141777e+00 -2.8889120985e+00 1.6679141777e+00 2.8889120985e+00 
88700 6.3121896549e+00 -8.9356636332e-06 1.6679141777e+00 -2.8889120985e+00 1.6679141777e+00 2.8889120985e+00 
88800 6.3121896554e+00 -9.3968637472e-06 1.6679141777e+00 -2.8889120985e+00 1.6679141777e+00 2.8889120985e+00 
88900 6.3121896559e+00 -9.8416551153e-06 1.6679141777e+00 -2.8889120985e+00 1.6679141777e+00 2.8889120985e+00 
89000 6.3121896563e+00 -1.0270065757e-05 1.6679141777e+00 -2.8889120985e+00 1.6679141777e+00 2.8889120985e+00 
89100 6.3121896568e+00 -1.0682135044e-05 1.6679141777e+00 -2.8889120985e+00 1.6679141777e+00 2.8889120985e+00 
89200 6.3121896573e+00 -1.1077913496e-05 1.6679141777e+00 -2.8889120985e+00 1.6679141777e+00 2.8889120985e+00 
89300 6.3121896577e+00 -1.1457462552e-05 1.6679141777e+00 -2.8889120985e+00 1.6679141777e+00 2.8889120985e+00 
89400 6.3121896582e+00 -1.1820854361e-05 1.6679141777e+00 -2.8889120985e+00 1.6679141777e+00 2.8889120985e+00 
89500 6.3121896587e+00 -1.2168171549e-05 1.6679141777e+00 -2.8889120985e+00 1.6679141777e+00 2.8889120985e+00 
89600 6.3121896592e+00 -1.2499506992e-05 1.6679141777e+00 -2.8889120985e+00 1.6679141777e+00 2.8889120985e+00 
89700 6.3121896597e+00 -1.2814963575e-05 1.6679141777e+00 -2.8889120985e+00 1.6679141777e+00 2.8889120985e+00 
89800 6.3121896602e+00 -1.3114653950e-05 1.6679141777e+00 -2.8889120985e+00 1.6679141777e+00 2.8889120985e+00 
89900 6.3121896607e+00 -1.3398700303e-05 1.6679141777e+00 -2.8889120985e+00 1.6679141777e+00 2.8889120985e+00 
90000 6.3121896612e+00 -1.3667234090e-05 1.6679141777e+00 -2.8889120985e+00 1.6679141777e+00 2.8889120985e+00 
90100 6.3121896617e+00 -1.3920395793e-05 1.6679141777e+00 -2.8889120985e+00 1.6679141777e+00 2.8889120985e+00 
90200 6.3121896622e+00 -1.4158334658e-05 1.6679141777e+00 -2.8889120985e+00 1.6679141777e+00 2.8889120985e+00 
90300 6.3121896627e+00 -1.4381208445e-05 1.6679141777e+00 -2.8889120985e+00 1.6679141777e+00 2.8889120985e+00 
90400 6.3121896632e+00 -1.4589183157e-05 1.6679141777e+00 -2.8889120985e+00 1.6679141777e+00 2.8889120985e+00 
90500 6.3121896637e+00 -1.4782432779e-05 1.6679141777e+00 -2.8889120985e+00 1.6679141777e+00 2.8889120985e+00 
90600 6.3121896642e+00 -1.4961139009e-05 1.6679141777e+00 -2.8889120985e+00 1.6679141777e+00 2.8889120985e+00 
90700 6.3121896647e+00 -1.5125491001e-05 1.6679141777e+00 -2.8889120985e+00 1.6679141777e+00 2.8889120985e+00 
90800 6.3121896652e+00 -1.5275685070e-05 1.6679141777e+00 -2.8889120985e+00 1.6679141777e+00 2.8889120985e+00 
90900 6.3121896657e+00 -1.5411924440e-05 1.6679141777e+00 -2.8889120985e+00 1.6679141777e+00 2.8889120985e+00 
91000 6.3121896662e+00 -1.5534418964e-05 1.6679141777e+00 -2.8889120985e+00 1.6679141777e+00 2.8889120985e+00 
91100 6.3121896667e+00 -1.5643384844e-05 1.6679141777e+00 -2.8889120985e+00 1.6679141777e+00 2.8889120985e+00 
91200 6.3121896672e+00 -1.5739044371e-05 1.6679141777e+00 -2.8889120985e+00 1.6679141777e+00 2.8889120985e+00 
91300 6.3121896677e+00 -1.5821625626e-05 1.6679141777e+00 -2.8889120985e+00 1.6679141777e+00 2.8889120985e+00 
91400 6.3121896682e+00 -1.5891362225e-05 1.6679141777e+00 -2.8889120985e+00 1.6679141777e+00 2.8889120985e+00 
91500 6.3121896687e+00 -1.5948493024e-05 1.6679141777e+00 -2.8889120985e+00 1.6679141777e+00 2.8889120985e+00 
91600 6.3121896692e+00 -1.5993261863e-05 1.6679141777e+00 -2.8889120985e+00 1.6679141777e+00 2.8889120985e+00 
91700 6.3121896697e+00 -1.6025917273e-05 1.6679141777e+00 -2.8889120985e+00 1.6679141777e+00 2.8889120985e+00 
91800 6.3121896701e+00 -1.6046712206e-05 1.6679141777e+00 -2.8889120985e+00 1.6679141777e+00 2.8889120985e+00 
91900 6.3121896706e+00 -1.6055903767e-05 1.6679141777e+00 -2.8889120985e+00 1.6679141777e+00 2.8889120985e+00 
92000 6.3121896711e+00 -1.6053752931e-05 1.6679141777e+00 -2.8889120985e+00 1.6679141777e+00 2.8889120985e+00 
92100 6.3121896715e+00 -1.6040524281e-05 1.6679141777e+00 -2.8889120985e+00 1.6679141777e+00 2.8889120985e+00 
92200 6.3121896720e+00 -1.6016485729e-05 1.6679141777e+00 -2.8889120985e+00 1.6679141777e+00 2.8889120985e+00 
92300 6.3121896724e+00 -1.5981908249e-05 1.6679141777e+00 -2.8889120985e+00 1.6679141777e+00 2.8889120985e+00 
92400 6.3121896729e+00 -1.5937065619e-05 1.6679141777e+00 -2.8889120985e+00 1.6679141777e+00 2.8889120985e+00 
92500 6.3121896733e+00 -1.5882234147e-05 1.6679141777e+00 -2.8889120985e+00 1.6679141777e+00 2.8889120985e+00 
92600 6.3121896738e+00 -1.5817692414e-05 1.6679141777e+00 -2.8889120985e+00 1.6679141777e+00 2.8889120985e+00 
92700 6.3121896742e+00 -1.5743721008e-05 1.6679141777e+00 -2.8889120985e+00 1.6679141777e+00 2.8889120985e+00 
92800 6.3121896746e+00 -1.5660602280e-05 1.6679141777e+00 -2.8889120985e+00 1.6679141777e+00 2.8889120985e+00 
92900 6.3121896750e+00 -1.5568620077e-05 1.6679141777e+00 -2.8889120985e+00 1.6679141777e+00 2.8889120985e+00 
93000 6.3121896754e+00 -1.5468059499e-05 1.6679141777e+00 -2.8889120985e+00 1.6679141777e+00 2.8889120985e+00 
93100 6.3121896758e+00 -1.5359206645e-05 1.6679141777e+00 -2.8889120985e+00 1.6679141777e+00 2.8889120985e+00 
93200 6.3121896762e+00 -1.5242348381e-05 1.6679141777e+00 -2.8889120985e+00 1.6679141777e+00 2.8889120985e+00 
93300 6.3121896766e+00 -1.5117772083e-05 1.6679141777e+00 -2.8889120985e+00 1.6679141777e+00 2.8889120985e+00 
93400 6.3121896770e+00 -1.4985765417e-05 1.6679141777e+00 -2.8889120985e+00 1.6679141777e+00 2.8889120985e+00 
93500 6.3121896774e+00 -1.4846616093e-05 1.6679141777e+00 -2.8889120985e+00 1.6679141777e+00 2.8889120985e+00 
93600 6.3121896778e+00 -1.4700611642e-05 1.6679141777e+00 -2.8889120985e+00 1.6679141777e+00 2.8889120985e+00 
93700 6.3121896781e+00 -1.4548039190e-05 1.6679141777e+00 -2.8889120985e+00 1.6679141777e+00 2.8889120985e+00 
93800 6.3121896785e+00 -1.4389185241e-05 1.6679141777e+00 -2.8889120985e+00 1.6679141777e+00 2.8889120985e+00 
93900 6.3121896788e+00 -1.4224335454e-05 1.6679141777e+00 -2.8889120985e+00 1.6679141777e+00 2.8889120985e+00 
94000 6.3121896792e+00 -1.4053774432e-05 1.6679141777e+00 -2.8889120985e+00 1.6679141777e+00 2.8889120985e+00 
94100 6.3121896795e+00 -1.3877785526e-05 1.6679141777e+00 -2.8889120985e+00 1.6679141777e+00 2.8889120985e+00 
94200 6.3121896798e+00 -1.3696650619e-05 1.6679141777e+00 -2.8889120985e+00 1.6679141777e+00 2.8889120985e+00 
94300 6.3121896801e+00 -1.3510649934e-05 1.6679141777e+00 -2.8889120985e+00 1.6679141777e+00 2.8889120985e+00 
94400 6.3121896805e+00 -1.3320061844e-05 1.6679141777e+00 -2.8889120985e+00 1.6679141777e+00 2.8889120985e+00 
94500 6.3121896808e+00 -1.3125162679e-05 1.6679141777e+00 -2.8889120985e+00 1.6679141777e+00 2.8889120985e+00 
94600 6.3121896811e+00 -1.2926226546e-05 1.6679141777e+00 -2.8889120985e+00 1.6679141777e+00 2.8889120985e+00 
94700 6.3121896814e+00 -1.2723525152e-05 1.6679141777e+00 -2.8889120985e+00 1.6679141777e+00 2.8889120985e+00 
94800 6.3121896817e+00 -1.2517327631e-05 1.6679141777e+00 -2.8889120985e+00 1.6679141777e+00 2.8889120985e+00 
94900 6.3121896819e+00 -1.2307900376e-05 1.6679141777e+00 -2.8889120985e+00 1.6679141777e+00 2.8889120985e+00 
95000 6.3121896822e+00 -1.2095506878e-05 1.6679141777e+00 -2.8889120985e+00 1.6679141777e+00 2.8889120985e+00 
95100 6.3121896825e+00 -1.1880407568e-05 1.6679141777e+00 -2.8889120985e+00 1.6679141777e+00 2.8889120985e+00 
95200 6.3121896827e+00 -1.1662859670e-05 1.6679141777e+00 -2.8889120985e+00 1.6679141777e+00 2.8889120985e+00 
95300 6.3121896830e+00 -1.1443117051e-05 1.6679141777e+00 -2.8889120985e+00 1.6679141777e+00 2.8889120985e+00 
95400 6.3121896833e+00 -1.1221430078e-05 1.6679141777e+00 -2.8889120985e+00 1.6679141777e+00 2.8889120985e+00 
95500 6.3121896835e+00 -1.0998045493e-05 1.6679141777e+00 -2.8889120985e+00 1.6679141777e+00 2.8889120985e+00 
95600 6.3121896838e+00 -1.0773206276e-05 1.6679141777e+00 -2.8889120985e+00 1.6679141777e+00 2.8889120985e+00 
95700 6.3121896840e+00 -1.0547151521e-05 1.6679141777e+00 -2.8889120985e+00 1.6679141777e+00 2.8889120985e+00 
95800 6.3121896842e+00 -1.0320116320e-05 1.6679141777e+00 -2.8889120985e+00 1.6679141777e+00 2.8889120985e+00 
95900 6.3121896845e+00 -1.0092331652e-05 1.6679141777e+00 -2.8889120985e+00 1.6679141777e+00 2.8889120985e+00 
96000 6.3121896847e+00 -9.8640242723e-06 1.6679141777e+00 -2.8889120985e+00 1.6679141777e+00 2.8889120985e+00 
96100 6.3121896849e+00 -9.6354166123e-06 1.6679141777e+00 -2.8889120985e+00 1.6679141777e+00 2.8889120985e+00 
96200 6.3121896851e+00 -9.4067266812e-06 1.6679141777e+00 -2.8889120985e+00 1.6679141777e+00 2.8889120985e+00 
96300 6.3121896853e+00 -9.1781679793e-06 1.6679141777e+00 -2.8889120985e+00 1.6679141777e+00 2.8889120985e+00 
96400 6.3121896855e+00 -8.9499494081e-06 1.6679141777e+00 -2.8889120985e+00 1.6679141777e+00 2.8889120985e+00 
96500 6.3121896857e+00 -8.7222751936e-06 1.6679141777e+00 -2.8889120985e+00 1.6679141777e+00 2.8889120985e+00 
96600 6.3121896859e+00 -8.4953448101e-06 1.6679141777e+00 -2.8889120985e+00 1.6679141777e+00 2.8889120985e+00 
96700 6.3121896861e+00 -8.2693529101e-06 1.6679141777e+00 -2.8889120985e+00 1.6679141777e+00 2.8889120985e+00 
96800 6.3121896863e+00 -8.0444892646e-06 1.6679141777e+00 -2.8889120985e+00 1.6679141777e+00 2.8889120985e+00 
96900 6.3121896865e+00 -7.8209386989e-06 1.6679141777e+00 -2.8889120985e+00 1.6679141777e+00 2.8889120985e+00 
97000 6.3121896867e+00 -7.5988810458e-06 1.6679141777e+00 -2.8889120985e+00 1.6679141777e+00 2.8889120985e+00 
97100 6.3121896869e+00 -7.3784910894e-06 1.6679141777e+00 -2.8889120985e+00 1.6679141777e+00 2.8889120985e+00 
97200 6.3121896871e+00 -7.1599385316e-06 1.6679141777e+00 -2.8889120985e+00 1.6679141777e+00 2.8889120985e+00 
97300 6.3121896872e+00 -6.9433879429e-06 1.6679141777e+00 -2.8889120985e+00 1.6679141777e+00 2.8889120985e+00 
97400 6.3121896874e+00 -6.7289987437e-06 1.6679141777e+00 -2.8889120985e+00 1.6679141777e+00 2.8889120985e+00 
97500 6.3121896876e+00 -6.5169251614e-06 1.6679141777e+00 -2.8889120985e+00 1.6679141777e+00 2.8889120985e+00 
97600 6.3121896878e+00 -6.3073162144e-06 1.6679141777e+00 -2.8889120985e+00 1.6679141777e+00 2.8889120985e+00 
97700 6.3121896879e+00 -6.1003156981e-06 1.6679141777e+00 -2.8889120985e+00 1.6679141777e+00 2.8889120985e+00 
97800 6.3121896881e+00 -5.8960621648e-06 1.6679141777e+00 -2.8889120985e+00 1.6679141777e+00 2.8889120985e+00 
97900 6.3121896883e+00 -5.6946889160e-06 1.6679141777e+00 -2.8889120985e+00 1.6679141777e+00 2.8889120985e+00 
98000 6.3121896884e+00 -5.4963240009e-06 1.6679141777e+00 -2.8889120985e+00 1.6679141777e+00 2.8889120985e+00 
98100 6.3121896886e+00 -5.3010902124e-06 1.6679141777e+00 -2.8889120985e+00 1.6679141777e+00 2.8889120985e+00 
98200 6.3121896887e+00 -5.1091050937e-06 1.6679141777e+00 -2.8889120985e+00 1.6679141777e+00 2.8889120985e+00 
98300 6.3121896889e+00 -4.9204809506e-06 1.6679141777e+00 -2.8889120985e+00 1.6679141777e+00 2.8889120985e+00 
98400 6.3121896891e+00 -4.7353248602e-06 1.6679141777e+00 -2.8889120985e+00 1.6679141777e+00 2.8889120985e+00 
98500 6.3121896892e+00 -4.5537386875e-06 1.6679141777e+00 -2.8889120985e+00 1.6679141777e+00 2.8889120985e+00 
98600 6.3121896894e+00 -4.3758191090e-06 1.6679141777e+00 -2.8889120985e+00 1.6679141777e+00 2.8889120985e+00 
98700 6.3121896895e+00 -4.2016576355e-06 1.6679141777e+00 -2.8889120985e+00 1.6679141777e+00 2.8889120985e+00 
98800 6.3121896897e+00 -4.0313406476e-06 1.6679141777e+00 -2.8889120985e+00 1.6679141777e+00 2.8889120985e+00 
98900 6.3121896898e+00 -3.8649494231e-06 1.6679141777e+00 -2.8889120985e+00 1.6679141777e+00 2.8889120985e+00 
99000 6.3121896900e+00 -3.7025601702e-06 1.6679141777e+00 -2.8889120985e+00 1.6679141777e+00 2.8889120985e+00 
99100 6.3121896901e+00 -3.5442440764e-06 1.6679141777e+00 -2.8889120985e+00 1.6679141777e+00 2.8889120985e+00 
99200 6.3121896903e+00 -3.3900673443e-06 1.6679141777e+00 -2.8889120985e+00 1.6679141777e+00 2.8889120985e+00 
99300 6.3121896904e+00 -3.2400912406e-06 1.6679141777e+00 -2.8889120985e+00 1.6679141777e+00 2.8889120985e+00 
99400 6.3121896906e+00 -3.0943721498e-06 1.6679141777e+00 -2.8889120985e+00 1.6679141777e+00 2.8889120985e+00 
99500 6.3121896907e+00 -2.9529616238e-06 1.6679141777e+00 -2.8889120985e+00 1.6679141777e+00 2.8889120985e+00 
99600 6.3121896909e+00 -2.8159064365e-06 1.6679141777e+00 -2.8889120985e+00 1.6679141777e+00 2.8889120985e+00 
99700 6.3121896910e+00 -2.6832486465e-06 1.6679141777e+00 -2.8889120985e+00 1.6679141777e+00 2.8889120985e+00 
99800 6.3121896911e+00 -2.5550256536e-06 1.6679141777e+00 -2.8889120985e+00 1.6679141777e+00 2.8889120985e+00 
99900 6.3121896913e+00 -2.4312702741e-06 1.6679141777e+00 -2.8889120985e+00 1.6679141777e+00 2.8889120985e+00 
100000 6.3121896914e+00 -2.3120107961e-06 1.6679141777e+00 -2.8889120985e+00 1.6679141777e+00 2.8889120985e+00 
100100 6.3121896916e+00 -2.1972710542e-06 1.6679141777e+00 -2.8889120985e+00 1.6679141777e+00 2.8889120985e+00 
100200 6.3121896917e+00 -2.0870705040e-06 1.6679141777e+00 -2.8889120985e+00 1.6679141777e+00 2.8889120985e+00 
100300 6.3121896918e+00 -1.9814242894e-06 1.6679141777e+00 -2.8889120985e+00 1.6679141777e+00 2.8889120985e+00 
100400 6.3121896920e+00 -1.8803433288e-06 1.6679141777e+00 -2.8889120985e+00 1.6679141777e+00 2.8889120985e+00 
100500 6.3121896921e+00 -1.7838343798e-06 1.6679141777e+00 -2.8889120985e+00 1.6679141777e+00 2.8889120985e+00 
100600 6.3121896923e+00 -1.6919001360e-06 1.6679141777e+00 -2.8889120985e+00 1.6679141777e+00 2.8889120985e+00 
100700 6.3121896924e+00 -1.6045392967e-06 1.6679141777e+00 -2.8889120985e+00 1.6679141777e+00 2.8889120985e+00 
100800 6.3121896925e+00 -1.5217466576e-06 1.6679141777e+00 -2.8889120985e+00 1.6679141777e+00 2.8889120985e+00 
100900 6.3121896927e+00 -1.4435131883e-06 1.6679141777e+00 -2.8889120985e+00 1.6679141777e+00 2.8889120985e+00 
101000 6.3121896928e+00 -1.3698261296e-06 1.6679141777e+00 -2.8889120985e+00 1.6679141777e+00 2.8889120985e+00 
101100 6.3121896929e+00 -1.3006690740e-06 1.6679141777e+00 -2.8889120985e+00 1.6679141777e+00 2.8889120985e+00 
101200 6.3121896931e+00 -1.2360220641e-06 1.6679141777e+00 -2.8889120985e+00 1.6679141777e+00 2.8889120985e+00 
101300 6.3121896932e+00 -1.1758616698e-06 1.6679141777e+00 -2.8889120985e+00 1.6679141777e+00 2.8889120985e+00 
101400 6.3121896933e+00 -1.1201610943e-06 1.6679141777e+00 -2.8889120985e+00 1.6679141777e+00 2.8889120985e+00 
101500 6.3121896935e+00 -1.0688902561e-06 1.6679141777e+00 -2.8889120985e+00 1.6679141777e+00 2.8889120985e+00 
101600 6.3121896936e+00 -1.0220158920e-06 1.6679141777e+00 -2.8889120985e+00 1.6679141777e+00 2.8889120985e+00 
101700 6.3121896937e+00 -9.7950164655e-07 1.6679141777e+00 -2.8889120985e+00 1.6679141777e+00 2.8889120985e+00 
101800 6.3121896938e+00 -9.4130816559e-07 1.6679141777e+00 -2.8889120985e+00 1.6679141777e+00 2.8889120985e+00 
101900 6.3121896940e+00 -9.0739319784e-07 1.6679141777e+00 -2.8889120985e+00 1.6679141777e+00 2.8889120985e+00 
102000 6.3121896941e+00 -8.7771168672e-07 1.6679141777e+00 -2.8889120985e+00 1.6679141777e+00 2.8889120985e+00 
102100 6.3121896942e+00 -8.5221587035e-07 1.6679141777e+00 -2.8889120985e+00 1.6679141777e+00 2.8889120985e+00 
102200 6.3121896943e+00 -8.3085537903e-07 1.6679141777e+00 -2.8889120985e+00 1.6679141777e+00 2.8889120985e+00 
102300 6.3121896945e+00 -8.1357732054e-07 1.6679141777e+00 -2.8889120985e+00 1.6679141777e+00 2.8889120985e+00 
102400 6.3121896946e+00 -8.0032640144e-07 1.6679141777e+00 -2.8889120985e+00 1.6679141777e+00 2.8889120985e+00 
102500 6.3121896947e+00 -7.9104500300e-07 1.6679141777e+00 -2.8889120985e+00 1.6679141777e+00 2.8889120985e+00 
102600 6.3121896948e+00 -7.8567328572e-07 1.6679141777e+00 -2.8889120985e+00 1.6679141777e+00 2.8889120985e+00 
102700 6.3121896949e+00 -7.8414929353e-07 1.6679141777e+00 -2.8889120985e+00 1.6679141777e+00 2.8889120985e+00 
102800 6.3121896951e+00 -7.8640903534e-07 1.6679141777e+00 -2.8889120985e+00 1.6679141777e+00 2.8889120985e+00 
102900 6.3121896952e+00 -7.9238660431e-07 1.6679141777e+00 -2.8889120985e+00 1.6679141777e+00 2.8889120985e+00 
103000 6.3121896953e+00 -8.0201425318e-07 1.6679141777e+00 -2.8889120985e+00 1.6679141777e+00 2.8889120985e+00 
103100 6.3121896954e+00 -8.1522249805e-07 1.6679141777e+00 -2.8889120985e+00 1.6679141777e+00 2.8889120985e+00 
103200 6.3121896955e+00 -8.3194021586e-07 1.6679141777e+00 -2.8889120985e+00 1.6679141777e+00 2.8889120985e+00 
103300 6.3121896956e+00 -8.5209474501e-07 1.6679141777e+00 -2.8889120985e+00 1.6679141777e+00 2.8889120985e+00 
103400 6.3121896957e+00 -8.7561196455e-07 1.6679141777e+00 -2.8889120985e+00 1.6679141777e+00 2.8889120985e+00 
103500 6.3121896959e+00 -9.0241639511e-07 1.6679141777e+00 -2.8889120985e+00 1.6679141777e+00 2.8889120985e+00 
103600 6.3121896960e+00 -9.3243129791e-07 1.6679141777e+00 -2.8889120985e+00 1.6679141777e+00 2.8889120985e+00 
103700 6.3121896961e+00 -9.6557876248e-07 1.6679141777e+00 -2.8889120985e+00 1.6679141777e+00 2.8889120985e+00 
103800 6.3121896962e+00 -1.0017797914e-06 1.6679141777e+00 -2.8889120985e+00 1.6679141777e+00 2.8889120985e+00 
103900 6.3121896963e+00 -1.0409543969e-06 1.6679141777e+00 -2.8889120985e+00 1.6679141777e+00 2.8889120985e+00 
104000 6.3121896964e+00 -1.0830216913e-06 1.6679141777e+00 -2.8889120985e+00 1.6679141777e+00 2.8889120985e+00 
104100 6.3121896965e+00 -1.1278999685e-06 1.6679141777e+00 -2.8889120985e+00 1.6679141777e+00 2.8889120985e+00 
104200 6.3121896966e+00 -1.1755067971e-06 1.6679141777e+00 -2.8889120985e+00 1.6679141777e+00 2.8889120985e+00 
104300 6.3121896967e+00 -1.2257591024e-06 1.6679141777e+00 -2.8889120985e+00 1.6679141777e+00 2.8889120985e+00 
104400 6.3121896968e+00 -1.2785732534e-06 1.6679141777e+00 -2.8889120985e+00 1.6679141777e+00 2.8889120985e+00 
104500 6.3121896969e+00 -1.3338651424e-06 1.6679141777e+00 -2.8889120985e+00 1.6679141777e+00 2.8889120985e+00 
104600 6.3121896970e+00 -1.3915502685e-06 1.6679141777e+00 -2.8889120985e+00 1.6679141777e+00 2.8889120985e+00 
104700 6.3121896971e+00 -1.4515438160e-06 1.6679141777e+00 -2.8889120985e+00 1.6679141777e+00 2.8889120985e+00 
104800 6.3121896972e+00 -1.5137607417e-06 1.6679141777e+00 -2.8889120985e+00 1.6679141777e+00 2.8889120985e+00 
104900 6.3121896973e+00 -1.5781158377e-06 1.6679141777e+00 -2.8889120985e+00 1.6679141777e+00 2.8889120985e+00 
105000 6.3121896974e+00 -1.6445238244e-06 1.6679141777e+00 -2.8889120985e+00 1.6679141777e+00 2.8889120985e+00 
105100 6.3121896974e+00 -1.7128994101e-06 1.6679141777e+00 -2.8889120985e+00 1.6679141777e+00 2.8889120985e+00 
105200 6.3121896975e+00 -1.7831573718e-06 1.6679141777e+00 -2.8889120985e+00 1.6679141777e+00 2.8889120985e+00 
105300 6.3121896976e+00 -1.8552126221e-06 1.6679141777e+00 -2.8889120985e+00 1.6679141777e+00 2.8889120985e+00 
105400 6.3121896977e+00 -1.9289802893e-06 1.6679141777e+00 -2.8889120985e+00 1.6679141777e+00 2.8889120985e+00 
105500 6.3121896978e+00 -2.0043757686e-06 1.6679141777e+00 -2.8889120985e+00 1.6679141777e+00 2.8889120985e+00 
105600 6.3121896979e+00 -2.0813148020e-06 1.6679141777e+00 -2.8889120985e+00 1.6679141777e+00 2.8889120985e+00 
105700 6.3121896980e+00 -2.1597135385e-06 1.6679141777e+00 -2.8889120985e+00 1.6679141777e+00 2.8889120985e+00 
105800 6.3121896980e+00 -2.2394885963e-06 1.6679141777e+00 -2.8889120985e+00 1.6679141777e+00 2.8889120985e+00 
105900 6.3121896981e+00 -2.3205571236e-06 1.6679141777e+00 -2.8889120985e+00 1.6679141777e+00 2.8889120985e+00 
106000 6.3121896982e+00 -2.4028368605e-06 1.6679141777e+00 -2.8889120985e+00 1.6679141777e+00 2.8889120985e+00 
106100 6.3121896983e+00 -2.4862461974e-06 1.6679141777e+00 -2.8889120985e+00 1.6679141777e+00 2.8889120985e+00 
106200 6.3121896984e+00 -2.5707042259e-06 1.6679141777e+00 -2.8889120985e+00 1.6679141777e+00 2.8889120985e+00 
106300 6.3121896984e+00 -2.6561307966e-06 1.6679141777e+00 -2.8889120985e+00 1.6679141777e+00 2.8889120985e+00 
106400 6.3121896985e+00 -2.7424465763e-06 1.6679141777e+00 -2.8889120985e+00 1.6679141777e+00 2.8889120985e+00 
106500 6.3121896986e+00 -2.8295730848e-06 1.6679141777e+00 -2.8889120985e+00 1.6679141777e+00 2.8889120985e+00 
106600 6.3121896987e+00 -2.9174327562e-06 1.6679141777e+00 -2.8889120985e+00 1.6679141777e+00 2.8889120985e+00 
106700 6.3121896987e+00 -3.0059489837e-06 1.6679141777e+00 -2.8889120985e+00 1.6679141777e+00 2.8889120985e+00 
106800 6.3121896988e+00 -3.0950461558e-06 1.6679141777e+00 -2.8889120985e+00 1.6679141777e+00 2.8889120985e+00 
106900 6.3121896989e+00 -3.1846497168e-06 1.6679141777e+00 -2.8889120985e+00 1.6679141777e+00 2.8889120985e+00 
107000 6.3121896989e+00 -3.2746861904e-06 1.6679141777e+00 -2.8889120985e+00 1.6679141777e+00 2.8889120985e+00 
107100 6.3121896990e+00 -3.3650832288e-06 1.6679141777e+00 -2.8889120985e+00 1.6679141777e+00 2.8889120985e+00 
107200 6.3121896991e+00 -3.4557696509e-06 1.6679141777e+00 -2.8889120985e+00 1.6679141777e+00 2.8889120985e+00 
107300 6.3121896991e+00 -3.5466754729e-06 1.6679141777e+00 -2.8889120985e+00 1.6679141777e+00 2.8889120985e+00 
107400 6.3121896992e+00 -3.6377319480e-06 1.6679141777e+00 -2.8889120985e+00 1.6679141777e+00 2.8889120985e+00 
107500 6.3121896993e+00 -3.7288715962e-06 1.6679141777e+00 -2.8889120985e+00 1.6679141777e+00 2.8889120985e+00 
107600 6.3121896993e+00 -3.8200282387e-06 1.6679141777e+00 -2.8889120985e+00 1.6679141777e+00 2.8889120985e+00 
107700 6.3121896994e+00 -3.9111370214e-06 1.6679141777e+00 -2.8889120985e+00 1.6679141777e+00 2.8889120985e+00 
107800 6.3121896994e+00 -4.0021344431e-06 1.6679141777e+00 -2.8889120985e+00 1.6679141777e+00 2.8889120985e+00 
107900 6.3121896995e+00 -4.0929583834e-06 1.6679141777e+00 -2.8889120985e+00 1.6679141777e+00 2.8889120985e+00 
108000 6.3121896996e+00 -4.1835481267e-06 1.6679141777e+00 -2.8889120985e+00 1.6679141777e+00 2.8889120985e+00 
108100 6.3121896996e+00 -4.2738443857e-06 1.6679141777e+00 -2.8889120985e+00 1.6679141777e+00 2.8889120985e+00 
108200 6.3121896997e+00 -4.3637893127e-06 1.6679141777e+00 -2.8889120985e+00 1.6679141777e+00 2.8889120985e+00 
108300 6.3121896997e+00 -4.4533265276e-06 1.6679141777e+00 -2.8889120985e+00 1.6679141777e+00 2.8889120985e+00 
108400 6.3121896998e+00 -4.5424011342e-06 1.6679141777e+00 -2.8889120985e+00 1.6679141777e+00 2.8889120985e+00 
108500 6.3121896999e+00 -4.6309597295e-06 1.6679141777e+00 -2.8889120985e+00 1.6679141777e+00 2.8889120985e+00 
108600 6.3121896999e+00 -4.7189504242e-06 1.6679141777e+00 -2.8889120985e+00 1.6679141777e+00 2.8889120985e+00 
108700 6.3121897000e+00 -4.8063228522e-06 1.6679141777e+00 -2.8889120985e+00 1.6679141777e+00 2.8889120985e+00 
108800 6.3121897000e+00 -4.8930281806e-06 1.6679141777e+00 -2.8889120985e+00 1.6679141777e+00 2.8889120985e+00 
108900 6.3121897001e+00 -4.9790191156e-06 1.6679141777e+00 -2.8889120985e+00 1.6679141777e+00 2.8889120985e+00 
109000 6.3121897001e+00 -5.0642499186e-06 1.6679141777e+00 -2.8889120985e+00 1.6679141777e+00 2.8889120985e+00 
109100 6.3121897002e+00 -5.1486764066e-06 1.6679141777e+00 -2.8889120985e+00 1.6679141777e+00 2.8889120985e+00 
109200 6.3121897002e+00 -5.2322559564e-06 1.6679141777e+00 -2.8889120985e+00 1.6679141777e+00 2.8889120985e+00 
109300 6.3121897003e+00 -5.3149475096e-06 1.6679141777e+00 -2.8889120985e+00 1.6679141777e+00 2.8889120985e+00 
109400 6.3121897003e+00 -5.3967115744e-06 1.6679141777e+00 -2.8889120985e+00 1.6679141777e+00 2.8889120985e+00 
109500 6.3121897004e+00 -5.4775102224e-06 1.6679141777e+00 -2.8889120985e+00 1.6679141777e+00 2.8889120985e+00 
109600 6.3121897004e+00 -5.5573070954e-06 1.6679141777e+00 -2.8889120985e+00 1.6679141777e+00 2.8889120985e+00 
109700 6.3121897005e+00 -5.6360673960e-06 1.6679141777e+00 -2.8889120985e+00 1.6679141777e+00 2.8889120985e+00 
109800 6.3121897005e+00 -5.7137578865e-06 1.6679141777e+00 -2.8889120985e+00 1.6679141777e+00 2.8889120985e+00 
109900 6.3121897006e+00 -5.7903468854e-06 1.6679141777e+00 -2.8889120985e+00 1.6679141777e+00 2.8889120985e+00 
110000 6.3121897006e+00 -5.8658042599e-06 1.6679141777e+00 -2.8889120985e+00 1.6679141777e+00 2.8889120985e+00 
110100 6.3121897007e+00 -5.9401014159e-06 1.6679141777e+00 -2.8889120985e+00 1.6679141777e+00 2.8889120985e+00 
110200 6.3121897007e+00 -5.9724175789e-06 1.6679141777e+00 -2.8889120985e+00 1.6679141777e+00 2.8889120985e+00 
110200 6.3121897007e+00 -5.9724175787e-06 1.6679141777e+00 -2.8889120985e+00 1.6679141777e+00 2.8889120985e+00 
