# step Hamiltonian StressXX CellTensor1 CellTensor2 CellTensor3 CellTensor4 
0 5.0791460877e+00 2.5974281799e-02 1.6387017056e+00 -2.8383146126e+00 1.6387017056e+00 2.8383146126e+00 
100 5.0846933306e+00 2.5272884226e-02 1.6387017056e+00 -2.8383146126e+00 1.6387017056e+00 2.8383146126e+00 
200 5.0895796262e+00 2.3539822205e-02 1.6379306409e+00 -2.8369790893e+00 1.6379306409e+00 2.8369790893e+00 
300 5.0938586212e+00 2.1696184091e-02 1.6372121093e+00 -2.8357345560e+00 1.6372121093e+00 2.8357345560e+00 
400 5.0975600572e+00 1.9761931592e-02 1.6365495586e+00 -2.8345869845e+00 1.6365495586e+00 2.8345869845e+00 
500 5.1007156422e+00 1.7756214153e-02 1.6359458275e+00 -2.8335412917e+00 1.6359458275e+00 2.8335412917e+00 
600 5.1033585330e+00 1.5697296835e-02 1.6354031680e+00 -2.8326013778e+00 1.6354031680e+00 2.8326013778e+00 
700 5.1055228570e+00 1.3602497894e-02 1.6349232701e+00 -2.8317701704e+00 1.6349232701e+00 2.8317701704e+00 
800 5.1072432752e+00 1.1488137732e-02 1.6345072897e+00 -2.8310496712e+00 1.6345072897e+00 2.8310496712e+00 
900 5.1085545883e+00 9.3695000366e-03 1.6341558772e+00 -2.8304410068e+00 1.6341558772e+00 2.8304410068e+00 
1000 5.1094913868e+00 7.2608052576e-03 1.6338692085e+00 -2.8299444821e+00 1.6338692085e+00 2.8299444821e+00 
1100 5.1100877433e+00 5.1751960584e-03 1.6336470169e+00 -2.8295596350e+00 1.6336470169e+00 2.8295596350e+00 
1200 5.1103769478e+00 3.1247339967e-03 1.6334886255e+00 -2.8292852930e+00 1.6334886255e+00 2.8292852930e+00 
1300 5.1103912823e+00 1.1204064433e-03 1.6333929805e+00 -2.8291196309e+00 1.6333929805e+00 2.8291196309e+00 
1400 5.1101618329e+00 -8.2785741620e-04 1.6333586837e+00 -2.8290602271e+00 1.6333586837e+00 2.8290602271e+00 
1500 5.1097183377e+00 -2.7111627298e-03 1.6333840259e+00 -2.8291041212e+00 1.6333840259e+00 2.8291041212e+00 
1600 5.1090890665e+00 -4.5216185271e-03 1.6334670188e+00 -2.8292478691e+00 1.6334670188e+00 2.8292478691e+00 
1700 5.1083007304e+00 -6.2523018864e-03 1.6336054263e+00 -2.8294875979e+00 1.6336054263e+00 2.8294875979e+00 
1800 5.1073784177e+00 -7.8972178730e-03 1.6337967952e+00 -2.8298190585e+00 1.6337967952e+00 2.8298190585e+00 
1900 5.1063455540e+00 -9.4512563134e-03 1.6340384841e+00 -2.8302376761e+00 1.6340384841e+00 2.8302376761e+00 
2000 5.1052238829e+00 -1.0910146361e-02 1.6343276920e+00 -2.8307385987e+00 1.6343276920e+00 2.8307385987e+00 
2100 5.1040334656e+00 -1.2270409703e-02 1.6346614842e+00 -2.8313167438e+00 1.6346614842e+00 2.8313167438e+00 
2200 5.1027926964e+00 -1.3529313132e-02 1.6350368182e+00 -2.8319668413e+00 1.6350368182e+00 2.8319668413e+00 
2300 5.1015183315e+00 -1.4684821110e-02 1.6354505668e+00 -2.8326834749e+00 1.6354505668e+00 2.8326834749e+00 
2400 5.1002255300e+00 -1.5735548833e-02 1.6358995407e+00 -2.8334611205e+00 1.6358995407e+00 2.8334611205e+00 
2500 5.0989279043e+00 -1.6680716210e-02 1.6363805091e+00 -2.8342941822e+00 1.6363805091e+00 2.8342941822e+00 
2600 5.0976375779e+00 -1.7520103081e-02 1.6368902188e+00 -2.8351770254e+00 1.6368902188e+00 2.8351770254e+00 
2700 5.0963652504e+00 -1.8254005922e-02 1.6374254122e+00 -2.8361040076e+00 1.6374254122e+00 2.8361040076e+00 
2800 5.0951202666e+00 -1.8883196216e-02 1.6379828435e+00 -2.8370695068e+00 1.6379828435e+00 2.8370695068e+00 
2900 5.0939106892e+00 -1.9408880592e-02 1.6385592934e+00 -2.8380679474e+00 1.6385592934e+00 2.8380679474e+00 
3000 5.0927433745e+00 -1.9832662820e-02 1.6391515836e+00 -2.8390938240e+00 1.6391515836e+00 2.8390938240e+00 
3100 5.0916240492e+00 -2.0156507669e-02 1.6397565881e+00 -2.8401417226e+00 1.6397565881e+00 2.8401417226e+00 
3200 5.0905573875e+00 -2.0382706629e-02 1.6403712453e+00 -2.8412063402e+00 1.6403712453e+00 2.8412063402e+00 
3300 5.0895470892e+00 -2.0513845461e-02 1.6409925679e+00 -2.8422825024e+00 1.6409925679e+00 2.8422825024e+00 
3400 5.0885959554e+00 -2.0552773515e-02 1.6416176514e+00 -2.8433651788e+00 1.6416176514e+00 2.8433651788e+00 
3500 5.0877059643e+00 -2.0502574757e-02 1.6422436826e+00 -2.8444494967e+00 1.6422436826e+00 2.8444494967e+00 
3600 5.0868783448e+00 -2.0366540415e-02 1.6428679467e+00 -2.8455307538e+00 1.6428679467e+00 2.8455307538e+00 
3700 5.0861136476e+00 -2.0148143166e-02 1.6434878328e+00 -2.8466044280e+00 1.6434878328e+00 2.8466044280e+00 
3800 5.0854118143e+00 -1.9851012772e-02 1.6441008399e+00 -2.8476661875e+00 1.6441008399e+00 2.8476661875e+00 
3900 5.0847722435e+00 -1.9478913085e-02 1.6447045811e+00 -2.8487118979e+00 1.6447045811e+00 2.8487118979e+00 
4000 5.0841938546e+00 -1.9035720322e-02 1.6452967872e+00 -2.8497376289e+00 1.6452967872e+00 2.8497376289e+00 
4100 5.0836751475e+00 -1.8525402548e-02 1.6458753100e+00 -2.8507396599e+00 1.6458753100e+00 2.8507396599e+00 
4200 5.0832142604e+00 -1.7952000275e-02 1.6464381248e+00 -2.8517144836e+00 1.6464381248e+00 2.8517144836e+00 
4300 5.0828090231e+00 -1.7319608105e-02 1.6469833317e+00 -2.8526588098e+00 1.6469833317e+00 2.8526588098e+00 
4400 5.0824570080e+00 -1.6632357380e-02 1.6475091576e+00 -2.8535695669e+00 1.6475091576e+00 2.8535695669e+00 
4500 5.0821555775e+00 -1.5894399744e-02 1.6480139562e+00 -2.8544439037e+00 1.6480139562e+00 2.8544439037e+00 
4600 5.0819019278e+00 -1.5109891599e-02 1.6484962086e+00 -2.8552791895e+00 1.6484962086e+00 2.8552791895e+00 
4700 5.0816931299e+00 -1.4282979400e-02 1.6489545231e+00 -2.8560730133e+00 1.6489545231e+00 2.8560730133e+00 
4800 5.0815261672e+00 -1.3417785752e-02 1.6493876340e+00 -2.8568231834e+00 1.6493876340e+00 2.8568231834e+00 
4900 5.0813979694e+00 -1.2518396284e-02 1.6497944012e+00 -2.8575277250e+00 1.6497944012e+00 2.8575277250e+00 
5000 5.0813054447e+00 -1.1588847272e-02 1.6501738084e+00 -2.8581848774e+00 1.6501738084e+00 2.8581848774e+00 
5100 5.0812455075e+00 -1.0633114003e-02 1.6505249610e+00 -2.8587930917e+00 1.6505249610e+00 2.8587930917e+00 
5200 5.0812151038e+00 -9.6550998502e-03 1.6508470846e+00 -2.8593510261e+00 1.6508470846e+00 2.8593510261e+00 
5300 5.0812112340e+00 -8.6586260623e-03 1.6511395219e+00 -2.8598575423e+00 1.6511395219e+00 2.8598575423e+00 
5400 5.0812309731e+00 -7.6474222566e-03 1.6514017304e+00 -2.8603117007e+00 1.6514017304e+00 2.8603117007e+00 
5500 5.0812714872e+00 -6.6251176094e-03 1.6516332791e+00 -2.8607127549e+00 1.6516332791e+00 2.8607127549e+00 
5600 5.0813300494e+00 -5.5952327442e-03 1.6518338458e+00 -2.8610601466e+00 1.6518338458e+00 2.8610601466e+00 
5700 5.0814040514e+00 -4.5611723151e-03 1.6520032130e+00 -2.8613534991e+00 1.6520032130e+00 2.8613534991e+00 
5800 5.0814910144e+00 -3.5262182852e-03 1.6521412646e+00 -2.8615926116e+00 1.6521412646e+00 2.8615926116e+00 
5900 5.0815885975e+00 -2.4935238982e-03 1.6522479824e+00 -2.8617774522e+00 1.6522479824e+00 2.8617774522e+00 
6000 5.0816946035e+00 -1.4661083428e-03 1.6523234415e+00 -2.8619081512e+00 1.6523234415e+00 2.8619081512e+00 
6100 5.0818069837e+00 -4.4685210557e-04 1.6523678067e+00 -2.8619849941e+00 1.6523678067e+00 2.8619849941e+00 
6200 5.0819238411e+00 5.6150699100e-04 1.6523813283e+00 -2.8620084141e+00 1.6523813283e+00 2.8620084141e+00 
6300 5.0820434310e+00 1.5563770721e-03 1.6523643375e+00 -2.8619789852e+00 1.6523643375e+00 2.8619789852e+00 
6400 5.0821641619e+00 2.5353148253e-03 1.6523172423e+00 -2.8618974138e+00 1.6523172423e+00 2.8618974138e+00 
6500 5.0822845932e+00 3.4960274560e-03 1.6522405229e+00 -2.8617645320e+00 1.6522405229e+00 2.8617645320e+00 
6600 5.0824034334e+00 4.4363740003e-03 1.6521347275e+00 -2.8615812889e+00 1.6521347275e+00 2.8615812889e+00 
6700 5.0825195367e+00 5.3543660082e-03 1.6520004674e+00 -2.8613487437e+00 1.6520004674e+00 2.8613487437e+00 
6800 5.0826318979e+00 6.2481676205e-03 1.6518384130e+00 -2.8610680572e+00 1.6518384130e+00 2.8610680572e+00 
6900 5.0827396482e+00 7.1160950580e-03 1.6516492889e+00 -2.8607404847e+00 1.6516492889e+00 2.8607404847e+00 
7000 5.0828420487e+00 7.9566155504e-03 1.6514338697e+00 -2.8603673677e+00 1.6514338697e+00 2.8603673677e+00 
7100 5.0829384848e+00 8.7683457292e-03 1.6511929753e+00 -2.8599501264e+00 1.6511929753e+00 2.8599501264e+00 
7200 5.0830284585e+00 9.5500495164e-03 1.6509274670e+00 -2.8594902524e+00 1.6509274670e+00 2.8594902524e+00 
7300 5.0831115824e+00 1.0300635538e-02 1.6506382426e+00 -2.8589893011e+00 1.6506382426e+00 2.8589893011e+00 
7400 5.0831875712e+00 1.1019154094e-02 1.6503262326e+00 -2.8584488840e+00 1.6503262326e+00 2.8584488840e+00 
7500 5.0832562354e+00 1.1704793728e-02 1.6499923961e+00 -2.8578706622e+00 1.6499923961e+00 2.8578706622e+00 
7600 5.0833174724e+00 1.2356877411e-02 1.6496377165e+00 -2.8572563390e+00 1.6496377165e+00 2.8572563390e+00 
7700 5.0833712601e+00 1.2974858401e-02 1.6492631976e+00 -2.8566076533e+00 1.6492631976e+00 2.8566076533e+00 
7800 5.0834176484e+00 1.3558315794e-02 1.6488698601e+00 -2.8559263727e+00 1.6488698601e+00 2.8559263727e+00 
7900 5.0834567522e+00 1.4106949816e-02 1.6484587375e+00 -2.8552142875e+00 1.6484587375e+00 2.8552142875e+00 
8000 5.0834887441e+00 1.4620576876e-02 1.6480308730e+00 -2.8544732045e+00 1.6480308730e+00 2.8544732045e+00 
8100 5.0835138470e+00 1.5099124439e-02 1.6475873158e+00 -2.8537049408e+00 1.6475873158e+00 2.8537049408e+00 
8200 5.0835323276e+00 1.5542625732e-02 1.6471291177e+00 -2.8529113186e+00 1.6471291177e+00 2.8529113186e+00 
8300 5.0835444897e+00 1.5951214324e-02 1.6466573307e+00 -2.8520941594e+00 1.6466573307e+00 2.8520941594e+00 
8400 5.0835506679e+00 1.6325118620e-02 1.6461730031e+00 -2.8512552794e+00 1.6461730031e+00 2.8512552794e+00 
8500 5.0835512217e+00 1.6664656286e-02 1.6456771774e+00 -2.8503964840e+00 1.6456771774e+00 2.8503964840e+00 
8600 5.0835465300e+00 1.6970228647e-02 1.6451708873e+00 -2.8495195639e+00 1.6451708873e+00 2.8495195639e+00 
8700 5.0835369861e+00 1.7242315081e-02 1.6446551554e+00 -2.8486262900e+00 1.6446551554e+00 2.8486262900e+00 
8800 5.0835229923e+00 1.7481467429e-02 1.6441309908e+00 -2.8477184104e+00 1.6441309908e+00 2.8477184104e+00 
8900 5.0835049561e+00 1.7688304460e-02 1.6435993870e+00 -2.8467976456e+00 1.6435993870e+00 2.8467976456e+00 
9000 5.0834832857e+00 1.7863506395e-02 1.6430613198e+00 -2.8458656859e+00 1.6430613198e+00 2.8458656859e+00 
9100 5.0834583867e+00 1.8007809527e-02 1.6425177454e+00 -2.8449241874e+00 1.6425177454e+00 2.8449241874e+00 
9200 5.0834306585e+00 1.8122000949e-02 1.6419695989e+00 -2.8439747698e+00 1.6419695989e+00 2.8439747698e+00 
9300 5.0834004915e+00 1.8206913393e-02 1.6414177925e+00 -2.8430190131e+00 1.6414177925e+00 2.8430190131e+00 
9400 5.0833682645e+00 1.8263420227e-02 1.6408632144e+00 -2.8420584557e+00 1.6408632144e+00 2.8420584557e+00 
9500 5.0833343424e+00 1.8292430591e-02 1.6403067272e+00 -2.8410945916e+00 1.6403067272e+00 2.8410945916e+00 
9600 5.0832990745e+00 1.8294884694e-02 1.6397491671e+00 -2.8401288690e+00 1.6397491671e+00 2.8401288690e+00 
9700 5.0832627928e+00 1.8271749295e-02 1.6391913425e+00 -2.8391626885e+00 1.6391913425e+00 2.8391626885e+00 
9800 5.0832258106e+00 1.8224013349e-02 1.6386340338e+00 -2.8381974015e+00 1.6386340338e+00 2.8381974015e+00 
9900 5.0831884216e+00 1.8152683854e-02 1.6380779919e+00 -2.8372343087e+00 1.6380779919e+00 2.8372343087e+00 
10000 5.0831508992e+00 1.8058781874e-02 1.6375239383e+00 -2.8362746597e+00 1.6375239383e+00 2.8362746597e+00 
10100 5.0831134960e+00 1.7943338771e-02 1.6369725641e+00 -2.8353196517e+00 1.6369725641e+00 2.8353196517e+00 
10200 5.0830764434e+00 1.7807392622e-02 1.6364245300e+00 -2.8343704287e+00 1.6364245300e+00 2.8343704287e+00 
10300 5.0830399516e+00 1.7651984842e-02 1.6358804656e+00 -2.8334280816e+00 1.6358804656e+00 2.8334280816e+00 
10400 5.0830042097e+00 1.7478156998e-02 1.6353409698e+00 -2.8324936473e+00 1.6353409698e+00 2.8324936473e+00 
10500 5.0829693862e+00 1.7286947825e-02 1.6348066101e+00 -2.8315681093e+00 1.6348066101e+00 2.8315681093e+00 
10600 5.0829356290e+00 1.7079390432e-02 1.6342779233e+00 -2.8306523968e+00 1.6342779233e+00 2.8306523968e+00 
10700 5.0829030662e+00 1.6856509707e-02 1.6337554148e+00 -2.8297473856e+00 1.6337554148e+00 2.8297473856e+00 
10800 5.0828718070e+00 1.6619319901e-02 1.6332395597e+00 -2.8288538983e+00 1.6332395597e+00 2.8288538983e+00 
10900 5.0828419421e+00 1.6368822405e-02 1.6327308022e+00 -2.8279727045e+00 1.6327308022e+00 2.8279727045e+00 
11000 5.0828135447e+00 1.6106003701e-02 1.6322295565e+00 -2.8271045216e+00 1.6322295565e+00 2.8271045216e+00 
11100 5.0827866715e+00 1.5831833494e-02 1.6317362071e+00 -2.8262500152e+00 1.6317362071e+00 2.8262500152e+00 
11200 5.0827613637e+00 1.5547263005e-02 1.6312511088e+00 -2.8254098003e+00 1.6312511088e+00 2.8254098003e+00 
11300 5.0827376477e+00 1.5253223436e-02 1.6307745879e+00 -2.8245844419e+00 1.6307745879e+00 2.8245844419e+00 
11400 5.0827155366e+00 1.4950624587e-02 1.6303069422e+00 -2.8237744558e+00 1.6303069422e+00 2.8237744558e+00 
11500 5.0826950310e+00 1.4640353625e-02 1.6298484419e+00 -2.8229803100e+00 1.6298484419e+00 2.8229803100e+00 
11600 5.0826761201e+00 1.4323274001e-02 1.6293993302e+00 -2.8222024257e+00 1.6293993302e+00 2.8222024257e+00 
11700 5.0826587828e+00 1.4000224500e-02 1.6289598237e+00 -2.8214411782e+00 1.6289598237e+00 2.8214411782e+00 
11800 5.0826429888e+00 1.3672018424e-02 1.6285301137e+00 -2.8206968985e+00 1.6285301137e+00 2.8206968985e+00 
11900 5.0826286994e+00 1.3339442906e-02 1.6281103661e+00 -2.8199698744e+00 1.6281103661e+00 2.8199698744e+00 
12000 5.0826158688e+00 1.3003258331e-02 1.6277007230e+00 -2.8192603517e+00 1.6277007230e+00 2.8192603517e+00 
12100 5.0826044449e+00 1.2664197876e-02 1.6273013029e+00 -2.8185685359e+00 1.6273013029e+00 2.8185685359e+00 
12200 5.0825943703e+00 1.2322967157e-02 1.6269122019e+00 -2.8178945931e+00 1.6269122019e+00 2.8178945931e+00 
12300 5.0825855833e+00 1.1980243965e-02 1.6265334940e+00 -2.8172386518e+00 1.6265334940e+00 2.8172386518e+00 
12400 5.0825780185e+00 1.1636678108e-02 1.6261652326e+00 -2.8166008043e+00 1.6261652326e+00 2.8166008043e+00 
12500 5.0825716077e+00 1.1292891323e-02 1.6258074506e+00 -2.8159811078e+00 1.6258074506e+00 2.8159811078e+00 
12600 5.0825662808e+00 1.0949477285e-02 1.6254601620e+00 -2.8153795862e+00 1.6254601620e+00 2.8153795862e+00 
12700 5.0825619663e+00 1.0607001680e-02 1.6251233620e+00 -2.8147962315e+00 1.6251233620e+00 2.8147962315e+00 
12800 5.0825585921e+00 1.0266002348e-02 1.6247970284e+00 -2.8142310052e+00 1.6247970284e+00 2.8142310052e+00 
12900 5.0825560860e+00 9.9269894924e-03 1.6244811222e+00 -2.8136838396e+00 1.6244811222e+00 2.8136838396e+00 
13000 5.0825543762e+00 9.5904459497e-03 1.6241755884e+00 -2.8131546395e+00 1.6241755884e+00 2.8131546395e+00 
13100 5.0825533920e+00 9.2568275066e-03 1.6238803569e+00 -2.8126432836e+00 1.6238803569e+00 2.8126432836e+00 
13200 5.0825530639e+00 8.9265632710e-03 1.6235953434e+00 -2.8121496257e+00 1.6235953434e+00 2.8121496257e+00 
13300 5.0825533243e+00 8.6000560857e-03 1.6233204500e+00 -2.8116734964e+00 1.6233204500e+00 2.8116734964e+00 
13400 5.0825541078e+00 8.2776829826e-03 1.6230555664e+00 -2.8112147044e+00 1.6230555664e+00 2.8112147044e+00 
13500 5.0825553513e+00 7.9597956726e-03 1.6228005700e+00 -2.8107730377e+00 1.6228005700e+00 2.8107730377e+00 
13600 5.0825569944e+00 7.6467210679e-03 1.6225553274e+00 -2.8103482652e+00 1.6225553274e+00 2.8103482652e+00 
13700 5.0825589794e+00 7.3387618332e-03 1.6223196949e+00 -2.8099401377e+00 1.6223196949e+00 2.8099401377e+00 
13800 5.0825612519e+00 7.0361969616e-03 1.6220935190e+00 -2.8095483896e+00 1.6220935190e+00 2.8095483896e+00 
13900 5.0825637605e+00 6.7392823732e-03 1.6218766376e+00 -2.8091727399e+00 1.6218766376e+00 2.8091727399e+00 
14000 5.0825664570e+00 6.4482515320e-03 1.6216688801e+00 -2.8088128934e+00 1.6216688801e+00 2.8088128934e+00 
14100 5.0825692965e+00 6.1633160792e-03 1.6214700689e+00 -2.8084685423e+00 1.6214700689e+00 2.8084685423e+00 
14200 5.0825722376e+00 5.8846664803e-03 1.6212800193e+00 -2.8081393667e+00 1.6212800193e+00 2.8081393667e+00 
14300 5.0825752420e+00 5.6124726828e-03 1.6210985405e+00 -2.8078250363e+00 1.6210985405e+00 2.8078250363e+00 
14400 5.0825782747e+00 5.3468847830e-03 1.6209254365e+00 -2.8075252114e+00 1.6209254365e+00 2.8075252114e+00 
14500 5.0825813042e+00 5.0880336988e-03 1.6207605063e+00 -2.8072395437e+00 1.6207605063e+00 2.8072395437e+00 
14600 5.0825843019e+00 4.8360318481e-03 1.6206035444e+00 -2.8069676778e+00 1.6206035444e+00 2.8069676778e+00 
14700 5.0825872423e+00 4.5909738292e-03 1.6204543420e+00 -2.8067092517e+00 1.6204543420e+00 2.8067092517e+00 
14800 5.0825901031e+00 4.3529371018e-03 1.6203126871e+00 -2.8064638982e+00 1.6203126871e+00 2.8064638982e+00 
14900 5.0825928647e+00 4.1219826689e-03 1.6201783650e+00 -2.8062312455e+00 1.6201783650e+00 2.8062312455e+00 
15000 5.0825955103e+00 3.8981557553e-03 1.6200511590e+00 -2.8060109182e+00 1.6200511590e+00 2.8060109182e+00 
15100 5.0825980257e+00 3.6814864834e-03 1.6199308508e+00 -2.8058025383e+00 1.6199308508e+00 2.8058025383e+00 
15200 5.0826003991e+00 3.4719905441e-03 1.6198172212e+00 -2.8056057260e+00 1.6198172212e+00 2.8056057260e+00 
15300 5.0826026211e+00 3.2696698622e-03 1.6197100500e+00 -2.8054201002e+00 1.6197100500e+00 2.8054201002e+00 
15400 5.0826046846e+00 3.0745132552e-03 1.6196091173e+00 -2.8052452795e+00 1.6196091173e+00 2.8052452795e+00 
15500 5.0826065841e+00 2.8864970834e-03 1.6195142029e+00 -2.8050808830e+00 1.6195142029e+00 2.8050808830e+00 
15600 5.0826083165e+00 2.7055858927e-03 1.6194250876e+00 -2.8049265308e+00 1.6194250876e+00 2.8049265308e+00 
15700 5.0826098799e+00 2.5317330470e-03 1.6193415529e+00 -2.8047818445e+00 1.6193415529e+00 2.8047818445e+00 
15800 5.0826112744e+00 2.3648813508e-03 1.6192633819e+00 -2.8046464483e+00 1.6192633819e+00 2.8046464483e+00 
15900 5.0826125011e+00 2.2049636610e-03 1.6191903591e+00 -2.8045199690e+00 1.6191903591e+00 2.8045199690e+00 
16000 5.0826135627e+00 2.0519034874e-03 1.6191222711e+00 -2.8044020372e+00 1.6191222711e+00 2.8044020372e+00 
16100 5.0826144628e+00 1.9056155814e-03 1.6190589068e+00 -2.8042922870e+00 1.6190589068e+00 2.8042922870e+00 
16200 5.0826152060e+00 1.7660065114e-03 1.6190000577e+00 -2.8041903574e+00 1.6190000577e+00 2.8041903574e+00 
16300 5.0826157979e+00 1.6329752270e-03 1.6189455179e+00 -2.8040958918e+00 1.6189455179e+00 2.8040958918e+00 
16400 5.0826162447e+00 1.5064136086e-03 1.6188950849e+00 -2.8040085392e+00 1.6188950849e+00 2.8040085392e+00 
16500 5.0826165532e+00 1.3862070040e-03 1.6188485592e+00 -2.8039279542e+00 1.6188485592e+00 2.8039279542e+00 
16600 5.0826167308e+00 1.2722347515e-03 1.6188057447e+00 -2.8038537975e+00 1.6188057447e+00 2.8038537975e+00 
16700 5.0826167851e+00 1.1643706881e-03 1.6187664494e+00 -2.8037857360e+00 1.6187664494e+00 2.8037857360e+00 
16800 5.0826167242e+00 1.0624836444e-03 1.6187304848e+00 -2.8037234435e+00 1.6187304848e+00 2.8037234435e+00 
16900 5.0826165562e+00 9.6643792469e-04 1.6186976665e+00 -2.8036666005e+00 1.6186976665e+00 2.8036666005e+00 
17000 5.0826162896e+00 8.7609377179e-04 1.6186678143e+00 -2.8036148949e+00 1.6186678143e+00 2.8036148949e+00 
17100 5.0826159326e+00 7.9130781834e-04 1.6186407522e+00 -2.8035680219e+00 1.6186407522e+00 2.8035680219e+00 
17200 5.0826154936e+00 7.1193352247e-04 1.6186163086e+00 -2.8035256845e+00 1.6186163086e+00 2.8035256845e+00 
17300 5.0826149809e+00 6.3782158895e-04 1.6185943166e+00 -2.8034875933e+00 1.6185943166e+00 2.8034875933e+00 
17400 5.0826144026e+00 5.6882037536e-04 1.6185746137e+00 -2.8034534668e+00 1.6185746137e+00 2.8034534668e+00 
17500 5.0826137666e+00 5.0477628346e-04 1.6185570421e+00 -2.8034230319e+00 1.6185570421e+00 2.8034230319e+00 
17600 5.0826130805e+00 4.4553413567e-04 1.6185414487e+00 -2.8033960234e+00 1.6185414487e+00 2.8033960234e+00 
17700 5.0826123517e+00 3.9093753669e-04 1.6185276853e+00 -2.8033721844e+00 1.6185276853e+00 2.8033721844e+00 
17800 5.0826115874e+00 3.4082922038e-04 1.6185156084e+00 -2.8033512665e+00 1.6185156084e+00 2.8033512665e+00 
17900 5.0826107943e+00 2.9505138204e-04 1.6185050793e+00 -2.8033330297e+00 1.6185050793e+00 2.8033330297e+00 
18000 5.0826099788e+00 2.5344599593e-04 1.6184959644e+00 -2.8033172422e+00 1.6184959644e+00 2.8033172422e+00 
18100 5.0826091469e+00 2.1585511853e-04 1.6184881347e+00 -2.8033036808e+00 1.6184881347e+00 2.8033036808e+00 
18200 5.0826083043e+00 1.8212117733e-04 1.6184814663e+00 -2.8032921308e+00 1.6184814663e+00 2.8032921308e+00 
18300 5.0826074563e+00 1.5208724547e-04 1.6184758400e+00 -2.8032823857e+00 1.6184758400e+00 2.8032823857e+00 
18400 5.0826066077e+00 1.2559730244e-04 1.6184711415e+00 -2.8032742477e+00 1.6184711415e+00 2.8032742477e+00 
18500 5.0826057629e+00 1.0249648082e-04 1.6184672614e+00 -2.8032675272e+00 1.6184672614e+00 2.8032675272e+00 
18600 5.0826049262e+00 8.2631299533e-05 1.6184640950e+00 -2.8032620427e+00 1.6184640950e+00 2.8032620427e+00 
18700 5.0826041011e+00 6.5849883535e-05 1.6184615422e+00 -2.8032576212e+00 1.6184615422e+00 2.8032576212e+00 
18800 5.0826032910e+00 5.3882704704e-05 1.6184615422e+00 -2.8032576212e+00 1.6184615422e+00 2.8032576212e+00 
18900 5.0826024989e+00 4.4318790510e-05 1.6184615422e+00 -2.8032576212e+00 1.6184615422e+00 2.8032576212e+00 
19000 5.0826017273e+00 3.7089294020e-05 1.6184615422e+00 -2.8032576212e+00 1.6184615422e+00 2.8032576212e+00 
19100 5.0826009784e+00 3.2124009310e-05 1.6184615422e+00 -2.8032576212e+00 1.6184615422e+00 2.8032576212e+00 
19200 5.0826002543e+00 2.9351587805e-05 1.6184615422e+00 -2.8032576212e+00 1.6184615422e+00 2.8032576212e+00 
19300 5.0825995566e+00 2.8699744916e-05 1.6184615422e+00 -2.8032576212e+00 1.6184615422e+00 2.8032576212e+00 
19400 5.0825988865e+00 3.0095457082e-05 1.6184615422e+00 -2.8032576212e+00 1.6184615422e+00 2.8032576212e+00 
19500 5.0825982451e+00 3.3465149368e-05 1.6184615422e+00 -2.8032576212e+00 1.6184615422e+00 2.8032576212e+00 
19600 5.0825976332e+00 3.8734873771e-05 1.6184615422e+00 -2.8032576212e+00 1.6184615422e+00 2.8032576212e+00 
19700 5.0825970512e+00 4.5830478401e-05 1.6184615422e+00 -2.8032576212e+00 1.6184615422e+00 2.8032576212e+00 
19800 5.0825964996e+00 5.4677767691e-05 1.6184615422e+00 -2.8032576212e+00 1.6184615422e+00 2.8032576212e+00 
19900 5.0825959784e+00 6.5202653836e-05 1.6184615422e+00 -2.8032576212e+00 1.6184615422e+00 2.8032576212e+00 
20000 5.0825954876e+00 7.7331299649e-05 1.6184615422e+00 -2.8032576212e+00 1.6184615422e+00 2.8032576212e+00 
20100 5.0825950265e+00 8.8785460913e-05 1.6184591532e+00 -2.8032534832e+00 1.6184591532e+00 2.8032534832e+00 
20200 5.0825945949e+00 1.0135481131e-04 1.6184564103e+00 -2.8032487324e+00 1.6184564103e+00 2.8032487324e+00 
20300 5.0825941923e+00 1.1493276308e-04 1.6184532790e+00 -2.8032433090e+00 1.6184532790e+00 2.8032433090e+00 
20400 5.0825938179e+00 1.2941629276e-04 1.6184497283e+00 -2.8032371590e+00 1.6184497283e+00 2.8032371590e+00 
20500 5.0825934710e+00 1.4470596413e-04 1.6184457302e+00 -2.8032302340e+00 1.6184457302e+00 2.8032302340e+00 
20600 5.0825931506e+00 1.6070594342e-04 1.6184412597e+00 -2.8032224908e+00 1.6184412597e+00 2.8032224908e+00 
20700 5.0825928557e+00 1.7732400682e-04 1.6184362948e+00 -2.8032138915e+00 1.6184362948e+00 2.8032138915e+00 
20800 5.0825925854e+00 1.9447154100e-04 1.6184308166e+00 -2.8032044029e+00 1.6184308166e+00 2.8032044029e+00 
20900 5.0825923385e+00 2.1206353664e-04 1.6184248086e+00 -2.8031939966e+00 1.6184248086e+00 2.8031939966e+00 
21000 5.0825921140e+00 2.3001857547e-04 1.6184182570e+00 -2.8031826491e+00 1.6184182570e+00 2.8031826491e+00 
21100 5.0825919106e+00 2.4825881108e-04 1.6184111507e+00 -2.8031703406e+00 1.6184111507e+00 2.8031703406e+00 
21200 5.0825917273e+00 2.6670994392e-04 1.6184034809e+00 -2.8031570561e+00 1.6184034809e+00 2.8031570561e+00 
21300 5.0825915629e+00 2.8530119061e-04 1.6183952410e+00 -2.8031427842e+00 1.6183952410e+00 2.8031427842e+00 
21400 5.0825914162e+00 3.0396524807e-04 1.6183864267e+00 -2.8031275173e+00 1.6183864267e+00 2.8031275173e+00 
21500 5.0825912860e+00 3.2263825270e-04 1.6183770357e+00 -2.8031112517e+00 1.6183770357e+00 2.8031112517e+00 
21600 5.0825911712e+00 3.4125973491e-04 1.6183670678e+00 -2.8030939867e+00 1.6183670678e+00 2.8030939867e+00 
21700 5.0825910708e+00 3.5977256929e-04 1.6183565244e+00 -2.8030757251e+00 1.6183565244e+00 2.8030757251e+00 
21800 5.0825909835e+00 3.7812292081e-04 1.6183454091e+00 -2.8030564727e+00 1.6183454091e+00 2.8030564727e+00 
21900 5.0825909084e+00 3.9626018717e-04 1.6183337267e+00 -2.8030362383e+00 1.6183337267e+00 2.8030362383e+00 
22000 5.0825908444e+00 4.1413693779e-04 1.6183214839e+00 -2.8030150331e+00 1.6183214839e+00 2.8030150331e+00 
22100 5.0825907905e+00 4.3170884952e-04 1.6183086886e+00 -2.8029928710e+00 1.6183086886e+00 2.8029928710e+00 
22200 5.0825907459e+00 4.4893463952e-04 1.6182953504e+00 -2.8029697685e+00 1.6182953504e+00 2.8029697685e+00 
22300 5.0825907095e+00 4.6577599543e-04 1.6182814798e+00 -2.8029457440e+00 1.6182814798e+00 2.8029457440e+00 
22400 5.0825906807e+00 4.8219750317e-04 1.6182670888e+00 -2.8029208179e+00 1.6182670888e+00 2.8029208179e+00 
22500 5.0825906585e+00 4.9816657267e-04 1.6182521902e+00 -2.8028950129e+00 1.6182521902e+00 2.8028950129e+00 
22600 5.0825906422e+00 5.1365336157e-04 1.6182367981e+00 -2.8028683530e+00 1.6182367981e+00 2.8028683530e+00 
22700 5.0825906312e+00 5.2863069738e-04 1.6182209274e+00 -2.8028408641e+00 1.6182209274e+00 2.8028408641e+00 
22800 5.0825906247e+00 5.4307399822e-04 1.6182045937e+00 -2.8028125733e+00 1.6182045937e+00 2.8028125733e+00 
22900 5.0825906221e+00 5.5696119224e-04 1.6181878136e+00 -2.8027835093e+00 1.6181878136e+00 2.8027835093e+00 
23000 5.0825906230e+00 5.7027263621e-04 1.6181706042e+00 -2.8027537018e+00 1.6181706042e+00 2.8027537018e+00 
23100 5.0825906268e+00 5.8299103317e-04 1.6181529833e+00 -2.8027231815e+00 1.6181529833e+00 2.8027231815e+00 
23200 5.0825906329e+00 5.9510134962e-04 1.6181349693e+00 -2.8026919803e+00 1.6181349693e+00 2.8026919803e+00 
23300 5.0825906411e+00 6.0659073226e-04 1.6181165808e+00 -2.8026601305e+00 1.6181165808e+00 2.8026601305e+00 
23400 5.0825906509e+00 6.1744842449e-04 1.6180978371e+00 -2.8026276655e+00 1.6180978371e+00 2.8026276655e+00 
23500 5.0825906619e+00 6.2766568293e-04 1.6180787577e+00 -2.8025946190e+00 1.6180787577e+00 2.8025946190e+00 
23600 5.0825906740e+00 6.3723569401e-04 1.6180593623e+00 -2.8025610252e+00 1.6180593623e+00 2.8025610252e+00 
23700 5.0825906867e+00 6.4615349088e-04 1.6180396710e+00 -2.8025269189e+00 1.6180396710e+00 2.8025269189e+00 
23800 5.0825906999e+00 6.5441587073e-04 1.6180197039e+00 -2.8024923348e+00 1.6180197039e+00 2.8024923348e+00 
23900 5.0825907134e+00 6.6202131270e-04 1.6179994812e+00 -2.8024573080e+00 1.6179994812e+00 2.8024573080e+00 
24000 5.0825907269e+00 6.6896989647e-04 1.6179790232e+00 -2.8024218738e+00 1.6179790232e+00 2.8024218738e+00 
24100 5.0825907404e+00 6.7526322174e-04 1.6179583502e+00 -2.8023860672e+00 1.6179583502e+00 2.8023860672e+00 
24200 5.0825907538e+00 6.8090432856e-04 1.6179374825e+00 -2.8023499232e+00 1.6179374825e+00 2.8023499232e+00 
24300 5.0825907669e+00 6.8589761885e-04 1.6179164402e+00 -2.8023134769e+00 1.6179164402e+00 2.8023134769e+00 
24400 5.0825907796e+00 6.9024877897e-04 1.6178952433e+00 -2.8022767628e+00 1.6178952433e+00 2.8022767628e+00 
24500 5.0825907920e+00 6.9396470363e-04 1.6178739117e+00 -2.8022398153e+00 1.6178739117e+00 2.8022398153e+00 
24600 5.0825908040e+00 6.9705342111e-04 1.6178524649e+00 -2.8022026684e+00 1.6178524649e+00 2.8022026684e+00 
24700 5.0825908155e+00 6.9952401991e-04 1.6178309224e+00 -2.8021653557e+00 1.6178309224e+00 2.8021653557e+00 
24800 5.0825908266e+00 7.0138657693e-04 1.6178093033e+00 -2.8021279102e+00 1.6178093033e+00 2.8021279102e+00 
24900 5.0825908373e+00 7.0265208723e-04 1.6177876263e+00 -2.8020903646e+00 1.6177876263e+00 2.8020903646e+00 
25000 5.0825908476e+00 7.0333239537e-04 1.6177659099e+00 -2.8020527507e+00 1.6177659099e+00 2.8020527507e+00 
25100 5.0825908575e+00 7.0344012854e-04 1.6177441722e+00 -2.8020150998e+00 1.6177441722e+00 2.8020150998e+00 
25200 5.0825908670e+00 7.0298863132e-04 1.6177224308e+00 -2.8019774427e+00 1.6177224308e+00 2.8019774427e+00 
25300 5.0825908762e+00 7.0199190231e-04 1.6177007031e+00 -2.8019398093e+00 1.6177007031e+00 2.8019398093e+00 
25400 5.0825908851e+00 7.0046453256e-04 1.6176790060e+00 -2.8019022287e+00 1.6176790060e+00 2.8019022287e+00 
25500 5.0825908939e+00 6.9842164584e-04 1.6176573557e+00 -2.8018647294e+00 1.6176573557e+00 2.8018647294e+00 
25600 5.0825909024e+00 6.9587884079e-04 1.6176357683e+00 -2.8018273389e+00 1.6176357683e+00 2.8018273389e+00 
25700 5.0825909109e+00 6.9285213503e-04 1.6176142592e+00 -2.8017900841e+00 1.6176142592e+00 2.8017900841e+00 
25800 5.0825909193e+00 6.8935791113e-04 1.6175928434e+00 -2.8017529908e+00 1.6175928434e+00 2.8017529908e+00 
25900 5.0825909276e+00 6.8541286454e-04 1.6175715353e+00 -2.8017160841e+00 1.6175715353e+00 2.8017160841e+00 
26000 5.0825909361e+00 6.8103395345e-04 1.6175503489e+00 -2.8016793881e+00 1.6175503489e+00 2.8016793881e+00 
26100 5.0825909446e+00 6.7623835062e-04 1.6175292976e+00 -2.8016429261e+00 1.6175292976e+00 2.8016429261e+00 
26200 5.0825909533e+00 6.7104339715e-04 1.6175083942e+00 -2.8016067204e+00 1.6175083942e+00 2.8016067204e+00 
26300 5.0825909622e+00 6.6546655816e-04 1.6174876511e+00 -2.8015707923e+00 1.6174876511e+00 2.8015707923e+00 
26400 5.0825909713e+00 6.5952538047e-04 1.6174670801e+00 -2.8015351624e+00 1.6174670801e+00 2.8015351624e+00 
26500 5.0825909807e+00 6.5323745210e-04 1.6174466926e+00 -2.8014998501e+00 1.6174466926e+00 2.8014998501e+00 
26600 5.0825909904e+00 6.4662036382e-04 1.6174264991e+00 -2.8014648740e+00 1.6174264991e+00 2.8014648740e+00 
26700 5.0825910005e+00 6.3969167244e-04 1.6174065100e+00 -2.8014302518e+00 1.6174065100e+00 2.8014302518e+00 
26800 5.0825910110e+00 6.3246886608e-04 1.6173867348e+00 -2.8013960002e+00 1.6173867348e+00 2.8013960002e+00 
26900 5.0825910219e+00 6.2496933122e-04 1.6173671827e+00 -2.8013621349e+00 1.6173671827e+00 2.8013621349e+00 
27000 5.0825910332e+00 6.1721032162e-04 1.6173478621e+00 -2.8013286708e+00 1.6173478621e+00 2.8013286708e+00 
27100 5.0825910450e+00 6.0920892900e-04 1.6173287812e+00 -2.8012956217e+00 1.6173287812e+00 2.8012956217e+00 
27200 5.0825910573e+00 6.0098205549e-04 1.6173099475e+00 -2.8012630006e+00 1.6173099475e+00 2.8012630006e+00 
27300 5.0825910700e+00 5.9254638780e-04 1.6172913678e+00 -2.8012308197e+00 1.6172913678e+00 2.8012308197e+00 
27400 5.0825910832e+00 5.8391837312e-04 1.6172730488e+00 -2.8011990902e+00 1.6172730488e+00 2.8011990902e+00 
27500 5.0825910969e+00 5.7511419663e-04 1.6172549962e+00 -2.8011678223e+00 1.6172549962e+00 2.8011678223e+00 
27600 5.0825911112e+00 5.6614976066e-04 1.6172372157e+00 -2.8011370255e+00 1.6172372157e+00 2.8011370255e+00 
27700 5.0825911259e+00 5.5704066547e-04 1.6172197121e+00 -2.8011067084e+00 1.6172197121e+00 2.8011067084e+00 
27800 5.0825911411e+00 5.4780219147e-04 1.6172024900e+00 -2.8010768788e+00 1.6172024900e+00 2.8010768788e+00 
27900 5.0825911568e+00 5.3844928305e-04 1.6171855533e+00 -2.8010475436e+00 1.6171855533e+00 2.8010475436e+00 
28000 5.0825911729e+00 5.2899653383e-04 1.6171689056e+00 -2.8010187089e+00 1.6171689056e+00 2.8010187089e+00 
28100 5.0825911895e+00 5.1945817331e-04 1.6171525500e+00 -2.8009903802e+00 1.6171525500e+00 2.8009903802e+00 
28200 5.0825912066e+00 5.0984805490e-04 1.6171364891e+00 -2.8009625619e+00 1.6171364891e+00 2.8009625619e+00 
28300 5.0825912241e+00 5.0017964532e-04 1.6171207252e+00 -2.8009352581e+00 1.6171207252e+00 2.8009352581e+00 
28400 5.0825912419e+00 4.9046601525e-04 1.6171052601e+00 -2.8009084717e+00 1.6171052601e+00 2.8009084717e+00 
28500 5.0825912602e+00 4.8071983120e-04 1.6170900952e+00 -2.8008822053e+00 1.6170900952e+00 2.8008822053e+00 
28600 5.0825912788e+00 4.7095334863e-04 1.6170752315e+00 -2.8008564606e+00 1.6170752315e+00 2.8008564606e+00 
28700 5.0825912978e+00 4.6117840620e-04 1.6170606696e+00 -2.8008312388e+00 1.6170606696e+00 2.8008312388e+00 
28800 5.0825913171e+00 4.5140642112e-04 1.6170464099e+00 -2.8008065401e+00 1.6170464099e+00 2.8008065401e+00 
28900 5.0825913366e+00 4.4164838553e-04 1.6170324522e+00 -2.8007823646e+00 1.6170324522e+00 2.8007823646e+00 
29000 5.0825913565e+00 4.3191486399e-04 1.6170187961e+00 -2.8007587116e+00 1.6170187961e+00 2.8007587116e+00 
29100 5.0825913765e+00 4.2221599184e-04 1.6170054408e+00 -2.8007355796e+00 1.6170054408e+00 2.8007355796e+00 
29200 5.0825913968e+00 4.1256147451e-04 1.6169923853e+00 -2.8007129668e+00 1.6169923853e+00 2.8007129668e+00 
29300 5.0825914173e+00 4.0296058780e-04 1.6169796283e+00 -2.8006908710e+00 1.6169796283e+00 2.8006908710e+00 
29400 5.0825914379e+00 3.9342217887e-04 1.6169671680e+00 -2.8006692891e+00 1.6169671680e+00 2.8006692891e+00 
29500 5.0825914586e+00 3.8395466812e-04 1.6169550026e+00 -2.8006482180e+00 1.6169550026e+00 2.8006482180e+00 
29600 5.0825914795e+00 3.7456605175e-04 1.6169431298e+00 -2.8006276538e+00 1.6169431298e+00 2.8006276538e+00 
29700 5.0825915004e+00 3.6526390516e-04 1.6169315473e+00 -2.8006075923e+00 1.6169315473e+00 2.8006075923e+00 
29800 5.0825915214e+00 3.5605538684e-04 1.6169202523e+00 -2.8005880288e+00 1.6169202523e+00 2.8005880288e+00 
29900 5.0825915424e+00 3.4694724304e-04 1.6169092421e+00 -2.8005689585e+00 1.6169092421e+00 2.8005689585e+00 
30000 5.0825915634e+00 3.3794581297e-04 1.6168985134e+00 -2.8005503758e+00 1.6168985134e+00 2.8005503758e+00 
30100 5.0825915844e+00 3.2905703455e-04 1.6168880629e+00 -2.8005322751e+00 1.6168880629e+00 2.8005322751e+00 
30200 5.0825916054e+00 3.2028645070e-04 1.6168778873e+00 -2.8005146505e+00 1.6168778873e+00 2.8005146505e+00 
30300 5.0825916263e+00 3.1163921607e-04 1.6168679829e+00 -2.8004974954e+00 1.6168679829e+00 2.8004974954e+00 
30400 5.0825916471e+00 3.0312010425e-04 1.6168583457e+00 -2.8004808035e+00 1.6168583457e+00 2.8004808035e+00 
30500 5.0825916679e+00 2.9473351533e-04 1.6168489720e+00 -2.8004645677e+00 1.6168489720e+00 2.8004645677e+00 
30600 5.0825916885e+00 2.8648348392e-04 1.6168398576e+00 -2.8004487810e+00 1.6168398576e+00 2.8004487810e+00 
30700 5.0825917090e+00 2.7837368742e-04 1.6168309982e+00 -2.8004334362e+00 1.6168309982e+00 2.8004334362e+00 
30800 5.0825917294e+00 2.7040745464e-04 1.6168223896e+00 -2.8004185256e+00 1.6168223896e+00 2.8004185256e+00 
30900 5.0825917496e+00 2.6258777465e-04 1.6168140273e+00 -2.8004040417e+00 1.6168140273e+00 2.8004040417e+00 
31000 5.0825917696e+00 2.5491730598e-04 1.6168059068e+00 -2.8003899765e+00 1.6168059068e+00 2.8003899765e+00 
31100 5.0825917894e+00 2.4739838587e-04 1.6167980234e+00 -2.8003763221e+00 1.6167980234e+00 2.8003763221e+00 
31200 5.0825918091e+00 2.4003303986e-04 1.6167903726e+00 -2.8003630704e+00 1.6167903726e+00 2.8003630704e+00 
31300 5.0825918285e+00 2.3282299143e-04 1.6167829494e+00 -2.8003502132e+00 1.6167829494e+00 2.8003502132e+00 
31400 5.0825918477e+00 2.2576967183e-04 1.6167757492e+00 -2.8003377421e+00 1.6167757492e+00 2.8003377421e+00 
31500 5.0825918667e+00 2.1887423002e-04 1.6167687671e+00 -2.8003256488e+00 1.6167687671e+00 2.8003256488e+00 
31600 5.0825918855e+00 2.1213754262e-04 1.6167619983e+00 -2.8003139248e+00 1.6167619983e+00 2.8003139248e+00 
31700 5.0825919040e+00 2.0556022401e-04 1.6167554377e+00 -2.8003025615e+00 1.6167554377e+00 2.8003025615e+00 
31800 5.0825919223e+00 1.9914263640e-04 1.6167490805e+00 -2.8002915506e+00 1.6167490805e+00 2.8002915506e+00 
31900 5.0825919403e+00 1.9288489995e-04 1.6167429218e+00 -2.8002808833e+00 1.6167429218e+00 2.8002808833e+00 
32000 5.0825919581e+00 1.8678690288e-04 1.6167369566e+00 -2.8002705512e+00 1.6167369566e+00 2.8002705512e+00 
32100 5.0825919756e+00 1.8084831154e-04 1.6167311799e+00 -2.8002605458e+00 1.6167311799e+00 2.8002605458e+00 
32200 5.0825919929e+00 1.7506858045e-04 1.6167255869e+00 -2.8002508584e+00 1.6167255869e+00 2.8002508584e+00 
32300 5.0825920099e+00 1.6944696226e-04 1.6167201726e+00 -2.8002414806e+00 1.6167201726e+00 2.8002414806e+00 
32400 5.0825920266e+00 1.6398251769e-04 1.6167149321e+00 -2.8002324038e+00 1.6167149321e+00 2.8002324038e+00 
32500 5.0825920431e+00 1.5867412528e-04 1.6167098607e+00 -2.8002236198e+00 1.6167098607e+00 2.8002236198e+00 
32600 5.0825920593e+00 1.5352049114e-04 1.6167049534e+00 -2.8002151201e+00 1.6167049534e+00 2.8002151201e+00 
32700 5.0825920753e+00 1.4852015851e-04 1.6167002054e+00 -2.8002068964e+00 1.6167002054e+00 2.8002068964e+00 
32800 5.0825920910e+00 1.4367151721e-04 1.6166956121e+00 -2.8001989405e+00 1.6166956121e+00 2.8001989405e+00 
32900 5.0825921064e+00 1.3897281295e-04 1.6166911687e+00 -2.8001912444e+00 1.6166911687e+00 2.8001912444e+00 
33000 5.0825921216e+00 1.3442215645e-04 1.6166868707e+00 -2.8001837999e+00 1.6166868707e+00 2.8001837999e+00 
33100 5.0825921365e+00 1.3001753247e-04 1.6166827133e+00 -2.8001765992e+00 1.6166827133e+00 2.8001765992e+00 
33200 5.0825921511e+00 1.2575680857e-04 1.6166786922e+00 -2.8001696345e+00 1.6166786922e+00 2.8001696345e+00 
33300 5.0825921655e+00 1.2163774377e-04 1.6166748029e+00 -2.8001628979e+00 1.6166748029e+00 2.8001628979e+00 
33400 5.0825921797e+00 1.1765799695e-04 1.6166710409e+00 -2.8001563820e+00 1.6166710409e+00 2.8001563820e+00 
33500 5.0825921936e+00 1.1381513510e-04 1.6166674020e+00 -2.8001500792e+00 1.6166674020e+00 2.8001500792e+00 
33600 5.0825922073e+00 1.1010664134e-04 1.6166638820e+00 -2.8001439823e+00 1.6166638820e+00 2.8001439823e+00 
33700 5.0825922207e+00 1.0652992277e-04 1.6166604766e+00 -2.8001380840e+00 1.6166604766e+00 2.8001380840e+00 
33800 5.0825922339e+00 1.0308231800e-04 1.6166571818e+00 -2.8001323774e+00 1.6166571818e+00 2.8001323774e+00 
33900 5.0825922469e+00 9.9761104630e-05 1.6166539937e+00 -2.8001268554e+00 1.6166539937e+00 2.8001268554e+00 
34000 5.0825922596e+00 9.6563506310e-05 1.6166509083e+00 -2.8001215113e+00 1.6166509083e+00 2.8001215113e+00 
34100 5.0825922721e+00 9.3486699740e-05 1.6166479218e+00 -2.8001163384e+00 1.6166479218e+00 2.8001163384e+00 
34200 5.0825922844e+00 9.0527821345e-05 1.6166450304e+00 -2.8001113304e+00 1.6166450304e+00 2.8001113304e+00 
34300 5.0825922964e+00 8.7683973755e-05 1.6166422305e+00 -2.8001064809e+00 1.6166422305e+00 2.8001064809e+00 
34400 5.0825923083e+00 8.4952232037e-05 1.6166395186e+00 -2.8001017837e+00 1.6166395186e+00 2.8001017837e+00 
34500 5.0825923199e+00 8.2329649709e-05 1.6166368912e+00 -2.8000972329e+00 1.6166368912e+00 2.8000972329e+00 
34600 5.0825923314e+00 7.9813264507e-05 1.6166343448e+00 -2.8000928225e+00 1.6166343448e+00 2.8000928225e+00 
34700 5.0825923426e+00 7.7400103926e-05 1.6166318763e+00 -2.8000885470e+00 1.6166318763e+00 2.8000885470e+00 
34800 5.0825923537e+00 7.5087190523e-05 1.6166294825e+00 -2.8000844007e+00 1.6166294825e+00 2.8000844007e+00 
34900 5.0825923645e+00 7.2871546991e-05 1.6166271601e+00 -2.8000803783e+00 1.6166271601e+00 2.8000803783e+00 
35000 5.0825923751e+00 7.0750201003e-05 1.6166249063e+00 -2.8000764745e+00 1.6166249063e+00 2.8000764745e+00 
35100 5.0825923856e+00 6.8720189820e-05 1.6166227181e+00 -2.8000726845e+00 1.6166227181e+00 2.8000726845e+00 
35200 5.0825923961e+00 6.8740132607e-05 1.6166227181e+00 -2.8000726845e+00 1.6166227181e+00 2.8000726845e+00 
35300 5.0825924063e+00 6.8804206175e-05 1.6166227181e+00 -2.8000726845e+00 1.6166227181e+00 2.8000726845e+00 
35400 5.0825924164e+00 6.8911676398e-05 1.6166227181e+00 -2.8000726845e+00 1.6166227181e+00 2.8000726845e+00 
35500 5.0825924263e+00 6.9061731794e-05 1.6166227181e+00 -2.8000726845e+00 1.6166227181e+00 2.8000726845e+00 
35600 5.0825924360e+00 6.9253489934e-05 1.6166227181e+00 -2.8000726845e+00 1.6166227181e+00 2.8000726845e+00 
35700 5.0825924456e+00 6.9486003629e-05 1.6166227181e+00 -2.8000726845e+00 1.6166227181e+00 2.8000726845e+00 
35800 5.0825924550e+00 6.9758266872e-05 1.6166227181e+00 -2.8000726845e+00 1.6166227181e+00 2.8000726845e+00 
35900 5.0825924642e+00 7.0069220568e-05 1.6166227181e+00 -2.8000726845e+00 1.6166227181e+00 2.8000726845e+00 
36000 5.0825924733e+00 7.0417758026e-05 1.6166227181e+00 -2.8000726845e+00 1.6166227181e+00 2.8000726845e+00 
36100 5.0825924822e+00 7.0802730235e-05 1.6166227181e+00 -2.8000726845e+00 1.6166227181e+00 2.8000726845e+00 
36200 5.0825924907e+00 6.9202041797e-05 1.6166205283e+00 -2.8000688916e+00 1.6166205283e+00 2.8000688916e+00 
36300 5.0825924993e+00 6.9641759617e-05 1.6166205283e+00 -2.8000688916e+00 1.6166205283e+00 2.8000688916e+00 
36400 5.0825925078e+00 7.0114123652e-05 1.6166205283e+00 -2.8000688916e+00 1.6166205283e+00 2.8000688916e+00 
36500 5.0825925161e+00 7.0617898838e-05 1.6166205283e+00 -2.8000688916e+00 1.6166205283e+00 2.8000688916e+00 
36600 5.0825925242e+00 7.1151829206e-05 1.6166205283e+00 -2.8000688916e+00 1.6166205283e+00 2.8000688916e+00 
36700 5.0825925320e+00 6.9683799062e-05 1.6166183277e+00 -2.8000650799e+00 1.6166183277e+00 2.8000650799e+00 
36800 5.0825925399e+00 7.0259602835e-05 1.6166183277e+00 -2.8000650799e+00 1.6166183277e+00 2.8000650799e+00 
36900 5.0825925477e+00 7.0861570104e-05 1.6166183277e+00 -2.8000650799e+00 1.6166183277e+00 2.8000650799e+00 
37000 5.0825925551e+00 6.9465887914e-05 1.6166161360e+00 -2.8000612839e+00 1.6166161360e+00 2.8000612839e+00 
37100 5.0825925626e+00 7.0101832767e-05 1.6166161360e+00 -2.8000612839e+00 1.6166161360e+00 2.8000612839e+00 
37200 5.0825925699e+00 7.0759995224e-05 1.6166161360e+00 -2.8000612839e+00 1.6166161360e+00 2.8000612839e+00 
37300 5.0825925769e+00 6.9419501327e-05 1.6166139475e+00 -2.8000574932e+00 1.6166139475e+00 2.8000574932e+00 
37400 5.0825925840e+00 7.0103869487e-05 1.6166139475e+00 -2.8000574932e+00 1.6166139475e+00 2.8000574932e+00 
37500 5.0825925910e+00 7.0806622778e-05 1.6166139475e+00 -2.8000574932e+00 1.6166139475e+00 2.8000574932e+00 
37600 5.0825925976e+00 6.9505613827e-05 1.6166117575e+00 -2.8000537001e+00 1.6166117575e+00 2.8000537001e+00 
37700 5.0825926044e+00 7.0227055428e-05 1.6166117575e+00 -2.8000537001e+00 1.6166117575e+00 2.8000537001e+00 
37800 5.0825926110e+00 7.0963218062e-05 1.6166117575e+00 -2.8000537001e+00 1.6166117575e+00 2.8000537001e+00 
37900 5.0825926173e+00 6.9687556056e-05 1.6166095627e+00 -2.8000498986e+00 1.6166095627e+00 2.8000498986e+00 
38000 5.0825926236e+00 7.0435249955e-05 1.6166095627e+00 -2.8000498986e+00 1.6166095627e+00 2.8000498986e+00 
38100 5.0825926299e+00 7.1194212549e-05 1.6166095627e+00 -2.8000498986e+00 1.6166095627e+00 2.8000498986e+00 
38200 5.0825926359e+00 6.9931386737e-05 1.6166073607e+00 -2.8000460847e+00 1.6166073607e+00 2.8000460847e+00 
38300 5.0825926419e+00 7.0695167159e-05 1.6166073607e+00 -2.8000460847e+00 1.6166073607e+00 2.8000460847e+00 
38400 5.0825926478e+00 7.1467008605e-05 1.6166073607e+00 -2.8000460847e+00 1.6166073607e+00 2.8000460847e+00 
38500 5.0825926535e+00 7.0206156720e-05 1.6166051503e+00 -2.8000422562e+00 1.6166051503e+00 2.8000422562e+00 
38600 5.0825926592e+00 7.0976608967e-05 1.6166051503e+00 -2.8000422562e+00 1.6166051503e+00 2.8000422562e+00 
38700 5.0825926646e+00 6.9726375379e-05 1.6166029551e+00 -2.8000384539e+00 1.6166029551e+00 2.8000384539e+00 
38800 5.0825926701e+00 7.0491640134e-05 1.6166029551e+00 -2.8000384539e+00 1.6166029551e+00 2.8000384539e+00 
38900 5.0825926755e+00 7.1260190773e-05 1.6166029551e+00 -2.8000384539e+00 1.6166029551e+00 2.8000384539e+00 
39000 5.0825926807e+00 6.9997341272e-05 1.6166007511e+00 -2.8000346364e+00 1.6166007511e+00 2.8000346364e+00 
39100 5.0825926859e+00 7.0755501536e-05 1.6166007511e+00 -2.8000346364e+00 1.6166007511e+00 2.8000346364e+00 
39200 5.0825926908e+00 6.9495016624e-05 1.6165985627e+00 -2.8000308460e+00 1.6165985627e+00 2.8000308460e+00 
39300 5.0825926958e+00 7.0239674098e-05 1.6165985627e+00 -2.8000308460e+00 1.6165985627e+00 2.8000308460e+00 
39400 5.0825927008e+00 7.0983694179e-05 1.6165985627e+00 -2.8000308460e+00 1.6165985627e+00 2.8000308460e+00 
39500 5.0825927054e+00 6.9700447232e-05 1.6165963672e+00 -2.8000270434e+00 1.6165963672e+00 2.8000270434e+00 
39600 5.0825927102e+00 7.0426798647e-05 1.6165963672e+00 -2.8000270434e+00 1.6165963672e+00 2.8000270434e+00 
39700 5.0825927148e+00 7.1150593114e-05 1.6165963672e+00 -2.8000270434e+00 1.6165963672e+00 2.8000270434e+00 
39800 5.0825927192e+00 6.9840527121e-05 1.6165941666e+00 -2.8000232318e+00 1.6165941666e+00 2.8000232318e+00 
39900 5.0825927237e+00 7.0543057925e-05 1.6165941666e+00 -2.8000232318e+00 1.6165941666e+00 2.8000232318e+00 
40000 5.0825927281e+00 7.1241388727e-05 1.6165941666e+00 -2.8000232318e+00 1.6165941666e+00 2.8000232318e+00 
40100 5.0825927323e+00 6.9901711051e-05 1.6165919631e+00 -2.8000194153e+00 1.6165919631e+00 2.8000194153e+00 
40200 5.0825927365e+00 7.0575744014e-05 1.6165919631e+00 -2.8000194153e+00 1.6165919631e+00 2.8000194153e+00 
40300 5.0825927407e+00 7.1244201908e-05 1.6165919631e+00 -2.8000194153e+00 1.6165919631e+00 2.8000194153e+00 
40400 5.0825927446e+00 6.9873278175e-05 1.6165897596e+00 -2.8000155987e+00 1.6165897596e+00 2.8000155987e+00 
40500 5.0825927486e+00 7.0514946694e-05 1.6165897596e+00 -2.8000155987e+00 1.6165897596e+00 2.8000155987e+00 
40600 5.0825927525e+00 7.1149921160e-05 1.6165897596e+00 -2.8000155987e+00 1.6165897596e+00 2.8000155987e+00 
40700 5.0825927562e+00 6.9747163031e-05 1.6165875590e+00 -2.8000117871e+00 1.6165875590e+00 2.8000117871e+00 
40800 5.0825927600e+00 7.0353374447e-05 1.6165875590e+00 -2.8000117871e+00 1.6165875590e+00 2.8000117871e+00 
40900 5.0825927637e+00 7.0952014336e-05 1.6165875590e+00 -2.8000117871e+00 1.6165875590e+00 2.8000117871e+00 
41000 5.0825927671e+00 6.9517764107e-05 1.6165853645e+00 -2.8000079861e+00 1.6165853645e+00 2.8000079861e+00 
41100 5.0825927707e+00 7.0086155153e-05 1.6165853645e+00 -2.8000079861e+00 1.6165853645e+00 2.8000079861e+00 
41200 5.0825927742e+00 7.0646322121e-05 1.6165853645e+00 -2.8000079861e+00 1.6165853645e+00 2.8000079861e+00 
41300 5.0825927777e+00 7.1198151939e-05 1.6165853645e+00 -2.8000079861e+00 1.6165853645e+00 2.8000079861e+00 
41400 5.0825927809e+00 6.9709376184e-05 1.6165831624e+00 -2.8000041719e+00 1.6165831624e+00 2.8000041719e+00 
41500 5.0825927842e+00 7.0229615850e-05 1.6165831624e+00 -2.8000041719e+00 1.6165831624e+00 2.8000041719e+00 
41600 5.0825927874e+00 7.0741101324e-05 1.6165831624e+00 -2.8000041719e+00 1.6165831624e+00 2.8000041719e+00 
41700 5.0825927904e+00 6.9224667624e-05 1.6165809744e+00 -2.8000003822e+00 1.6165809744e+00 2.8000003822e+00 
41800 5.0825927936e+00 6.9704013732e-05 1.6165809744e+00 -2.8000003822e+00 1.6165809744e+00 2.8000003822e+00 
41900 5.0825927966e+00 7.0174376041e-05 1.6165809744e+00 -2.8000003822e+00 1.6165809744e+00 2.8000003822e+00 
42000 5.0825927997e+00 7.0635773467e-05 1.6165809744e+00 -2.8000003822e+00 1.6165809744e+00 2.8000003822e+00 
42100 5.0825928026e+00 7.1088230510e-05 1.6165809744e+00 -2.8000003822e+00 1.6165809744e+00 2.8000003822e+00 
42200 5.0825928053e+00 6.9502737248e-05 1.6165787757e+00 -2.7999965739e+00 1.6165787757e+00 2.7999965739e+00 
42300 5.0825928082e+00 6.9922814958e-05 1.6165787757e+00 -2.7999965739e+00 1.6165787757e+00 2.7999965739e+00 
42400 5.0825928110e+00 7.0333920588e-05 1.6165787757e+00 -2.7999965739e+00 1.6165787757e+00 2.7999965739e+00 
42500 5.0825928137e+00 7.0736134489e-05 1.6165787757e+00 -2.7999965739e+00 1.6165787757e+00 2.7999965739e+00 
42600 5.0825928162e+00 6.9110543593e-05 1.6165765879e+00 -2.7999927845e+00 1.6165765879e+00 2.7999927845e+00 
42700 5.0825928189e+00 6.9480706217e-05 1.6165765879e+00 -2.7999927845e+00 1.6165765879e+00 2.7999927845e+00 
42800 5.0825928215e+00 6.9842099734e-05 1.6165765879e+00 -2.7999927845e+00 1.6165765879e+00 2.7999927845e+00 
42900 5.0825928240e+00 7.0194850949e-05 1.6165765879e+00 -2.7999927845e+00 1.6165765879e+00 2.7999927845e+00 
43000 5.0825928265e+00 7.0539087535e-05 1.6165765879e+00 -2.7999927845e+00 1.6165765879e+00 2.7999927845e+00 
43100 5.0825928290e+00 7.0874937922e-05 1.6165765879e+00 -2.7999927845e+00 1.6165765879e+00 2.7999927845e+00 
43200 5.0825928312e+00 6.9179566773e-05 1.6165743957e+00 -2.7999889876e+00 1.6165743957e+00 2.7999889876e+00 
43300 5.0825928335e+00 6.9484483097e-05 1.6165743957e+00 -2.7999889876e+00 1.6165743957e+00 2.7999889876e+00 
43400 5.0825928359e+00 6.9781265135e-05 1.6165743957e+00 -2.7999889876e+00 1.6165743957e+00 2.7999889876e+00 
43500 5.0825928381e+00 7.0070078165e-05 1.6165743957e+00 -2.7999889876e+00 1.6165743957e+00 2.7999889876e+00 
43600 5.0825928404e+00 7.0351086001e-05 1.6165743957e+00 -2.7999889876e+00 1.6165743957e+00 2.7999889876e+00 
43700 5.0825928426e+00 7.0624450922e-05 1.6165743957e+00 -2.7999889876e+00 1.6165743957e+00 2.7999889876e+00 
43800 5.0825928447e+00 7.0890333608e-05 1.6165743957e+00 -2.7999889876e+00 1.6165743957e+00 2.7999889876e+00 
43900 5.0825928466e+00 6.9125482989e-05 1.6165722031e+00 -2.7999851899e+00 1.6165722031e+00 2.7999851899e+00 
44000 5.0825928487e+00 6.9362324226e-05 1.6165722031e+00 -2.7999851899e+00 1.6165722031e+00 2.7999851899e+00 
44100 5.0825928507e+00 6.9592018196e-05 1.6165722031e+00 -2.7999851899e+00 1.6165722031e+00 2.7999851899e+00 
44200 5.0825928527e+00 6.9814753499e-05 1.6165722031e+00 -2.7999851899e+00 1.6165722031e+00 2.7999851899e+00 
44300 5.0825928547e+00 7.0030715167e-05 1.6165722031e+00 -2.7999851899e+00 1.6165722031e+00 2.7999851899e+00 
44400 5.0825928566e+00 7.0240084650e-05 1.6165722031e+00 -2.7999851899e+00 1.6165722031e+00 2.7999851899e+00 
44500 5.0825928585e+00 7.0443039806e-05 1.6165722031e+00 -2.7999851899e+00 1.6165722031e+00 2.7999851899e+00 
44600 5.0825928604e+00 7.0639754897e-05 1.6165722031e+00 -2.7999851899e+00 1.6165722031e+00 2.7999851899e+00 
44700 5.0825928622e+00 7.0830400594e-05 1.6165722031e+00 -2.7999851899e+00 1.6165722031e+00 2.7999851899e+00 
44800 5.0825928638e+00 6.8993438277e-05 1.6165700124e+00 -2.7999813954e+00 1.6165700124e+00 2.7999813954e+00 
44900 5.0825928656e+00 6.9157903162e-05 1.6165700124e+00 -2.7999813954e+00 1.6165700124e+00 2.7999813954e+00 
45000 5.0825928673e+00 6.9316652390e-05 1.6165700124e+00 -2.7999813954e+00 1.6165700124e+00 2.7999813954e+00 
45100 5.0825928690e+00 6.9469877208e-05 1.6165700124e+00 -2.7999813954e+00 1.6165700124e+00 2.7999813954e+00 
45200 5.0825928706e+00 6.9617763634e-05 1.6165700124e+00 -2.7999813954e+00 1.6165700124e+00 2.7999813954e+00 
45300 5.0825928723e+00 6.9760492508e-05 1.6165700124e+00 -2.7999813954e+00 1.6165700124e+00 2.7999813954e+00 
45400 5.0825928739e+00 6.9898239554e-05 1.6165700124e+00 -2.7999813954e+00 1.6165700124e+00 2.7999813954e+00 
45500 5.0825928755e+00 7.0031175437e-05 1.6165700124e+00 -2.7999813954e+00 1.6165700124e+00 2.7999813954e+00 
45600 5.0825928770e+00 7.0159465835e-05 1.6165700124e+00 -2.7999813954e+00 1.6165700124e+00 2.7999813954e+00 
45700 5.0825928785e+00 7.0283271500e-05 1.6165700124e+00 -2.7999813954e+00 1.6165700124e+00 2.7999813954e+00 
45800 5.0825928800e+00 7.0402748342e-05 1.6165700124e+00 -2.7999813954e+00 1.6165700124e+00 2.7999813954e+00 
45900 5.0825928815e+00 7.0518047495e-05 1.6165700124e+00 -2.7999813954e+00 1.6165700124e+00 2.7999813954e+00 
46000 5.0825928829e+00 7.0629315397e-05 1.6165700124e+00 -2.7999813954e+00 1.6165700124e+00 2.7999813954e+00 
46100 5.0825928843e+00 7.0736693873e-05 1.6165700124e+00 -2.7999813954e+00 1.6165700124e+00 2.7999813954e+00 
46200 5.0825928855e+00 6.8821282914e-05 1.6165678245e+00 -2.7999776059e+00 1.6165678245e+00 2.7999776059e+00 
46300 5.0825928869e+00 6.8906769946e-05 1.6165678245e+00 -2.7999776059e+00 1.6165678245e+00 2.7999776059e+00 
46400 5.0825928882e+00 6.8988629583e-05 1.6165678245e+00 -2.7999776059e+00 1.6165678245e+00 2.7999776059e+00 
46500 5.0825928895e+00 6.9067020871e-05 1.6165678245e+00 -2.7999776059e+00 1.6165678245e+00 2.7999776059e+00 
46600 5.0825928908e+00 6.9142096982e-05 1.6165678245e+00 -2.7999776059e+00 1.6165678245e+00 2.7999776059e+00 
46700 5.0825928921e+00 6.9214005337e-05 1.6165678245e+00 -2.7999776059e+00 1.6165678245e+00 2.7999776059e+00 
46800 5.0825928933e+00 6.9282887726e-05 1.6165678245e+00 -2.7999776059e+00 1.6165678245e+00 2.7999776059e+00 
46900 5.0825928946e+00 6.9348880440e-05 1.6165678245e+00 -2.7999776059e+00 1.6165678245e+00 2.7999776059e+00 
47000 5.0825928958e+00 6.9412114394e-05 1.6165678245e+00 -2.7999776059e+00 1.6165678245e+00 2.7999776059e+00 
47100 5.0825928969e+00 6.9472715259e-05 1.6165678245e+00 -2.7999776059e+00 1.6165678245e+00 2.7999776059e+00 
47200 5.0825928981e+00 6.9530803590e-05 1.6165678245e+00 -2.7999776059e+00 1.6165678245e+00 2.7999776059e+00 
47300 5.0825928992e+00 6.9586494959e-05 1.6165678245e+00 -2.7999776059e+00 1.6165678245e+00 2.7999776059e+00 
47400 5.0825929004e+00 6.9639900086e-05 1.6165678245e+00 -2.7999776059e+00 1.6165678245e+00 2.7999776059e+00 
47500 5.0825929015e+00 6.9691124970e-05 1.6165678245e+00 -2.7999776059e+00 1.6165678245e+00 2.7999776059e+00 
47600 5.0825929025e+00 6.9740271021e-05 1.6165678245e+00 -2.7999776059e+00 1.6165678245e+00 2.7999776059e+00 
47700 5.0825929036e+00 6.9787435190e-05 1.6165678245e+00 -2.7999776059e+00 1.6165678245e+00 2.7999776059e+00 
47800 5.0825929046e+00 6.9832710106e-05 1.6165678245e+00 -2.7999776059e+00 1.6165678245e+00 2.7999776059e+00 
47900 5.0825929057e+00 6.9876184198e-05 1.6165678245e+00 -2.7999776059e+00 1.6165678245e+00 2.7999776059e+00 
48000 5.0825929067e+00 6.9917941836e-05 1.6165678245e+00 -2.7999776059e+00 1.6165678245e+00 2.7999776059e+00 
48100 5.0825929077e+00 6.9958063449e-05 1.6165678245e+00 -2.7999776059e+00 1.6165678245e+00 2.7999776059e+00 
48200 5.0825929086e+00 6.9996625663e-05 1.6165678245e+00 -2.7999776059e+00 1.6165678245e+00 2.7999776059e+00 
48300 5.0825929096e+00 7.0033701419e-05 1.6165678245e+00 -2.7999776059e+00 1.6165678245e+00 2.7999776059e+00 
48400 5.0825929105e+00 7.0069360104e-05 1.6165678245e+00 -2.7999776059e+00 1.6165678245e+00 2.7999776059e+00 
48500 5.0825929115e+00 7.0103667675e-05 1.6165678245e+00 -2.7999776059e+00 1.6165678245e+00 2.7999776059e+00 
48600 5.0825929124e+00 7.0136686781e-05 1.6165678245e+00 -2.7999776059e+00 1.6165678245e+00 2.7999776059e+00 
48700 5.0825929133e+00 7.0168476881e-05 1.6165678245e+00 -2.7999776059e+00 1.6165678245e+00 2.7999776059e+00 
48800 5.0825929141e+00 7.0199094365e-05 1.6165678245e+00 -2.7999776059e+00 1.6165678245e+00 2.7999776059e+00 
48900 5.0825929150e+00 7.0228592670e-05 1.6165678245e+00 -2.7999776059e+00 1.6165678245e+00 2.7999776059e+00 
49000 5.0825929158e+00 7.0257022398e-05 1.6165678245e+00 -2.7999776059e+00 1.6165678245e+00 2.7999776059e+00 
49100 5.0825929167e+00 7.0284431423e-05 1.6165678245e+00 -2.7999776059e+00 1.6165678245e+00 2.7999776059e+00 
49200 5.0825929175e+00 7.0310865010e-05 1.6165678245e+00 -2.7999776059e+00 1.6165678245e+00 2.7999776059e+00 
49300 5.0825929183e+00 7.0336365912e-05 1.6165678245e+00 -2.7999776059e+00 1.6165678245e+00 2.7999776059e+00 
49400 5.0825929191e+00 7.0360974489e-05 1.6165678245e+00 -2.7999776059e+00 1.6165678245e+00 2.7999776059e+00 
49500 5.0825929199e+00 7.0384728800e-05 1.6165678245e+00 -2.7999776059e+00 1.6165678245e+00 2.7999776059e+00 
49600 5.0825929206e+00 7.0407664709e-05 1.6165678245e+00 -2.7999776059e+00 1.6165678245e+00 2.7999776059e+00 
49700 5.0825929214e+00 7.0429815991e-05 1.6165678245e+00 -2.7999776059e+00 1.6165678245e+00 2.7999776059e+00 
49800 5.0825929221e+00 7.0451214415e-05 1.6165678245e+00 -2.7999776059e+00 1.6165678245e+00 2.7999776059e+00 
49900 5.0825929228e+00 7.0471889849e-05 1.6165678245e+00 -2.7999776059e+00 1.6165678245e+00 2.7999776059e+00 
50000 5.0825929235e+00 7.0491870343e-05 1.6165678245e+00 -2.7999776059e+00 1.6165678245e+00 2.7999776059e+00 
50100 5.0825929242e+00 7.0511182228e-05 1.6165678245e+00 -2.7999776059e+00 1.6165678245e+00 2.7999776059e+00 
50200 5.0825929249e+00 7.0529850190e-05 1.6165678245e+00 -2.7999776059e+00 1.6165678245e+00 2.7999776059e+00 
50300 5.0825929256e+00 7.0547897366e-05 1.6165678245e+00 -2.7999776059e+00 1.6165678245e+00 2.7999776059e+00 
50400 5.0825929263e+00 7.0565345414e-05 1.6165678245e+00 -2.7999776059e+00 1.6165678245e+00 2.7999776059e+00 
50500 5.0825929269e+00 7.0582214602e-05 1.6165678245e+00 -2.7999776059e+00 1.6165678245e+00 2.7999776059e+00 
50600 5.0825929276e+00 7.0598523878e-05 1.6165678245e+00 -2.7999776059e+00 1.6165678245e+00 2.7999776059e+00 
50700 5.0825929282e+00 7.0614290943e-05 1.6165678245e+00 -2.7999776059e+00 1.6165678245e+00 2.7999776059e+00 
50800 5.0825929288e+00 7.0629532328e-05 1.6165678245e+00 -2.7999776059e+00 1.6165678245e+00 2.7999776059e+00 
50900 5.0825929294e+00 7.0644263456e-05 1.6165678245e+00 -2.7999776059e+00 1.6165678245e+00 2.7999776059e+00 
51000 5.0825929300e+00 7.0658498712e-05 1.6165678245e+00 -2.7999776059e+00 1.6165678245e+00 2.7999776059e+00 
51100 5.0825929306e+00 7.0672251508e-05 1.6165678245e+00 -2.7999776059e+00 1.6165678245e+00 2.7999776059e+00 
51200 5.0825929312e+00 7.0685534338e-05 1.6165678245e+00 -2.7999776059e+00 1.6165678245e+00 2.7999776059e+00 
51300 5.0825929318e+00 7.0698358849e-05 1.6165678245e+00 -2.7999776059e+00 1.6165678245e+00 2.7999776059e+00 
51400 5.0825929323e+00 7.0710735881e-05 1.6165678245e+00 -2.7999776059e+00 1.6165678245e+00 2.7999776059e+00 
51500 5.0825929327e+00 6.8704367641e-05 1.6165656374e+00 -2.7999738178e+00 1.6165656374e+00 2.7999738178e+00 
51600 5.0825929333e+00 6.8701365404e-05 1.6165656374e+00 -2.7999738178e+00 1.6165656374e+00 2.7999738178e+00 
51700 5.0825929338e+00 6.8697807355e-05 1.6165656374e+00 -2.7999738178e+00 1.6165656374e+00 2.7999738178e+00 
51800 5.0825929343e+00 6.8693736485e-05 1.6165656374e+00 -2.7999738178e+00 1.6165656374e+00 2.7999738178e+00 
51900 5.0825929348e+00 6.8689193547e-05 1.6165656374e+00 -2.7999738178e+00 1.6165656374e+00 2.7999738178e+00 
52000 5.0825929353e+00 6.8684217127e-05 1.6165656374e+00 -2.7999738178e+00 1.6165656374e+00 2.7999738178e+00 
52100 5.0825929358e+00 6.8678843721e-05 1.6165656374e+00 -2.7999738178e+00 1.6165656374e+00 2.7999738178e+00 
52200 5.0825929363e+00 6.8673107804e-05 1.6165656374e+00 -2.7999738178e+00 1.6165656374e+00 2.7999738178e+00 
52300 5.0825929368e+00 6.8667041908e-05 1.6165656374e+00 -2.7999738178e+00 1.6165656374e+00 2.7999738178e+00 
52400 5.0825929373e+00 6.8660676685e-05 1.6165656374e+00 -2.7999738178e+00 1.6165656374e+00 2.7999738178e+00 
52500 5.0825929378e+00 6.8654040991e-05 1.6165656374e+00 -2.7999738178e+00 1.6165656374e+00 2.7999738178e+00 
52600 5.0825929382e+00 6.8647161938e-05 1.6165656374e+00 -2.7999738178e+00 1.6165656374e+00 2.7999738178e+00 
52700 5.0825929387e+00 6.8640064973e-05 1.6165656374e+00 -2.7999738178e+00 1.6165656374e+00 2.7999738178e+00 
52800 5.0825929391e+00 6.8632773944e-05 1.6165656374e+00 -2.7999738178e+00 1.6165656374e+00 2.7999738178e+00 
52900 5.0825929396e+00 6.8625311161e-05 1.6165656374e+00 -2.7999738178e+00 1.6165656374e+00 2.7999738178e+00 
53000 5.0825929400e+00 6.8617697464e-05 1.6165656374e+00 -2.7999738178e+00 1.6165656374e+00 2.7999738178e+00 
53100 5.0825929404e+00 6.8609952285e-05 1.6165656374e+00 -2.7999738178e+00 1.6165656374e+00 2.7999738178e+00 
53200 5.0825929408e+00 6.8602093707e-05 1.6165656374e+00 -2.7999738178e+00 1.6165656374e+00 2.7999738178e+00 
53300 5.0825929413e+00 6.8594138527e-05 1.6165656374e+00 -2.7999738178e+00 1.6165656374e+00 2.7999738178e+00 
53400 5.0825929417e+00 6.8586102313e-05 1.6165656374e+00 -2.7999738178e+00 1.6165656374e+00 2.7999738178e+00 
53500 5.0825929421e+00 6.8577999464e-05 1.6165656374e+00 -2.7999738178e+00 1.6165656374e+00 2.7999738178e+00 
53600 5.0825929425e+00 6.8569843262e-05 1.6165656374e+00 -2.7999738178e+00 1.6165656374e+00 2.7999738178e+00 
53700 5.0825929428e+00 6.8561645928e-05 1.6165656374e+00 -2.7999738178e+00 1.6165656374e+00 2.7999738178e+00 
53800 5.0825929432e+00 6.8553418674e-05 1.6165656374e+00 -2.7999738178e+00 1.6165656374e+00 2.7999738178e+00 
53900 5.0825929436e+00 6.8545171757e-05 1.6165656374e+00 -2.7999738178e+00 1.6165656374e+00 2.7999738178e+00 
54000 5.0825929440e+00 6.8536914527e-05 1.6165656374e+00 -2.7999738178e+00 1.6165656374e+00 2.7999738178e+00 
54100 5.0825929443e+00 6.8528655474e-05 1.6165656374e+00 -2.7999738178e+00 1.6165656374e+00 2.7999738178e+00 
54200 5.0825929447e+00 6.8520402277e-05 1.6165656374e+00 -2.7999738178e+00 1.6165656374e+00 2.7999738178e+00 
54300 5.0825929450e+00 6.8512161848e-05 1.6165656374e+00 -2.7999738178e+00 1.6165656374e+00 2.7999738178e+00 
54400 5.0825929454e+00 6.8503940378e-05 1.6165656374e+00 -2.7999738178e+00 1.6165656374e+00 2.7999738178e+00 
54500 5.0825929457e+00 6.8495743380e-05 1.6165656374e+00 -2.7999738178e+00 1.6165656374e+00 2.7999738178e+00 
54600 5.0825929460e+00 6.8487575723e-05 1.6165656374e+00 -2.7999738178e+00 1.6165656374e+00 2.7999738178e+00 
54700 5.0825929464e+00 6.8479441680e-05 1.6165656374e+00 -2.7999738178e+00 1.6165656374e+00 2.7999738178e+00 
54800 5.0825929467e+00 6.8471344964e-05 1.6165656374e+00 -2.7999738178e+00 1.6165656374e+00 2.7999738178e+00 
54900 5.0825929470e+00 6.8463288763e-05 1.6165656374e+00 -2.7999738178e+00 1.6165656374e+00 2.7999738178e+00 
55000 5.0825929473e+00 6.8455275775e-05 1.6165656374e+00 -2.7999738178e+00 1.6165656374e+00 2.7999738178e+00 
55100 5.0825929476e+00 6.8447308242e-05 1.6165656374e+00 -2.7999738178e+00 1.6165656374e+00 2.7999738178e+00 
55200 5.0825929479e+00 6.8439387988e-05 1.6165656374e+00 -2.7999738178e+00 1.6165656374e+00 2.7999738178e+00 
55300 5.0825929482e+00 6.8431516442e-05 1.6165656374e+00 -2.7999738178e+00 1.6165656374e+00 2.7999738178e+00 
55400 5.0825929485e+00 6.8423694673e-05 1.6165656374e+00 -2.7999738178e+00 1.6165656374e+00 2.7999738178e+00 
55500 5.0825929488e+00 6.8415923420e-05 1.6165656374e+00 -2.7999738178e+00 1.6165656374e+00 2.7999738178e+00 
55600 5.0825929491e+00 6.8408203113e-05 1.6165656374e+00 -2.7999738178e+00 1.6165656374e+00 2.7999738178e+00 
55700 5.0825929494e+00 6.8400533906e-05 1.6165656374e+00 -2.7999738178e+00 1.6165656374e+00 2.7999738178e+00 
55800 5.0825929497e+00 6.8392915699e-05 1.6165656374e+00 -2.7999738178e+00 1.6165656374e+00 2.7999738178e+00 
55900 5.0825929499e+00 6.8385348159e-05 1.6165656374e+00 -2.7999738178e+00 1.6165656374e+00 2.7999738178e+00 
56000 5.0825929502e+00 6.8377830752e-05 1.6165656374e+00 -2.7999738178e+00 1.6165656374e+00 2.7999738178e+00 
56100 5.0825929505e+00 6.8370362751e-05 1.6165656374e+00 -2.7999738178e+00 1.6165656374e+00 2.7999738178e+00 
56200 5.0825929507e+00 6.8362943267e-05 1.6165656374e+00 -2.7999738178e+00 1.6165656374e+00 2.7999738178e+00 
56300 5.0825929510e+00 6.8355571266e-05 1.6165656374e+00 -2.7999738178e+00 1.6165656374e+00 2.7999738178e+00 
56400 5.0825929512e+00 6.8348245583e-05 1.6165656374e+00 -2.7999738178e+00 1.6165656374e+00 2.7999738178e+00 
56500 5.0825929515e+00 6.8340964944e-05 1.6165656374e+00 -2.7999738178e+00 1.6165656374e+00 2.7999738178e+00 
56600 5.0825929517e+00 6.8333727981e-05 1.6165656374e+00 -2.7999738178e+00 1.6165656374e+00 2.7999738178e+00 
56700 5.0825929520e+00 6.8326533246e-05 1.6165656374e+00 -2.7999738178e+00 1.6165656374e+00 2.7999738178e+00 
56800 5.0825929522e+00 6.8319379226e-05 1.6165656374e+00 -2.7999738178e+00 1.6165656374e+00 2.7999738178e+00 
56900 5.0825929524e+00 6.8312264359e-05 1.6165656374e+00 -2.7999738178e+00 1.6165656374e+00 2.7999738178e+00 
57000 5.0825929527e+00 6.8305187041e-05 1.6165656374e+00 -2.7999738178e+00 1.6165656374e+00 2.7999738178e+00 
57100 5.0825929529e+00 6.8298145644e-05 1.6165656374e+00 -2.7999738178e+00 1.6165656374e+00 2.7999738178e+00 
57200 5.0825929531e+00 6.8291138524e-05 1.6165656374e+00 -2.7999738178e+00 1.6165656374e+00 2.7999738178e+00 
57300 5.0825929533e+00 6.8284164028e-05 1.6165656374e+00 -2.7999738178e+00 1.6165656374e+00 2.7999738178e+00 
57400 5.0825929535e+00 6.8277220511e-05 1.6165656374e+00 -2.7999738178e+00 1.6165656374e+00 2.7999738178e+00 
57500 5.0825929538e+00 6.8270306340e-05 1.6165656374e+00 -2.7999738178e+00 1.6165656374e+00 2.7999738178e+00 
57600 5.0825929540e+00 6.8263419898e-05 1.6165656374e+00 -2.7999738178e+00 1.6165656374e+00 2.7999738178e+00 
57700 5.0825929542e+00 6.8256559604e-05 1.6165656374e+00 -2.7999738178e+00 1.6165656374e+00 2.7999738178e+00 
57800 5.0825929544e+00 6.8249723902e-05 1.6165656374e+00 -2.7999738178e+00 1.6165656374e+00 2.7999738178e+00 
57900 5.0825929546e+00 6.8242911286e-05 1.6165656374e+00 -2.7999738178e+00 1.6165656374e+00 2.7999738178e+00 
58000 5.0825929548e+00 6.8236120288e-05 1.6165656374e+00 -2.7999738178e+00 1.6165656374e+00 2.7999738178e+00 
58100 5.0825929550e+00 6.8229349498e-05 1.6165656374e+00 -2.7999738178e+00 1.6165656374e+00 2.7999738178e+00 
58200 5.0825929552e+00 6.8222597558e-05 1.6165656374e+00 -2.7999738178e+00 1.6165656374e+00 2.7999738178e+00 
58300 5.0825929553e+00 6.8215863169e-05 1.6165656374e+00 -2.7999738178e+00 1.6165656374e+00 2.7999738178e+00 
58400 5.0825929555e+00 6.8209145097e-05 1.6165656374e+00 -2.7999738178e+00 1.6165656374e+00 2.7999738178e+00 
58500 5.0825929557e+00 6.8202442173e-05 1.6165656374e+00 -2.7999738178e+00 1.6165656374e+00 2.7999738178e+00 
58600 5.0825929559e+00 6.8195753297e-05 1.6165656374e+00 -2.7999738178e+00 1.6165656374e+00 2.7999738178e+00 
58700 5.0825929561e+00 6.8189077439e-05 1.6165656374e+00 -2.7999738178e+00 1.6165656374e+00 2.7999738178e+00 
58800 5.0825929562e+00 6.8182413640e-05 1.6165656374e+00 -2.7999738178e+00 1.6165656374e+00 2.7999738178e+00 
58900 5.0825929564e+00 6.8175761019e-05 1.6165656374e+00 -2.7999738178e+00 1.6165656374e+00 2.7999738178e+00 
59000 5.0825929566e+00 6.8169118764e-05 1.6165656374e+00 -2.7999738178e+00 1.6165656374e+00 2.7999738178e+00 
59100 5.0825929567e+00 6.8162486142e-05 1.6165656374e+00 -2.7999738178e+00 1.6165656374e+00 2.7999738178e+00 
59200 5.0825929569e+00 6.8155862494e-05 1.6165656374e+00 -2.7999738178e+00 1.6165656374e+00 2.7999738178e+00 
59300 5.0825929571e+00 6.8149247239e-05 1.6165656374e+00 -2.7999738178e+00 1.6165656374e+00 2.7999738178e+00 
59400 5.0825929572e+00 6.8142639868e-05 1.6165656374e+00 -2.7999738178e+00 1.6165656374e+00 2.7999738178e+00 
59500 5.0825929574e+00 6.8136039951e-05 1.6165656374e+00 -2.7999738178e+00 1.6165656374e+00 2.7999738178e+00 
59600 5.0825929575e+00 6.8129447132e-05 1.6165656374e+00 -2.7999738178e+00 1.6165656374e+00 2.7999738178e+00 
59700 5.0825929577e+00 6.8122861124e-05 1.6165656374e+00 -2.7999738178e+00 1.6165656374e+00 2.7999738178e+00 
59800 5.0825929578e+00 6.8116281719e-05 1.6165656374e+00 -2.7999738178e+00 1.6165656374e+00 2.7999738178e+00 
59900 5.0825929580e+00 6.8109708774e-05 1.6165656374e+00 -2.7999738178e+00 1.6165656374e+00 2.7999738178e+00 
60000 5.0825929581e+00 6.8103142222e-05 1.6165656374e+00 -2.7999738178e+00 1.6165656374e+00 2.7999738178e+00 
60100 5.0825929583e+00 6.8096582059e-05 1.6165656374e+00 -2.7999738178e+00 1.6165656374e+00 2.7999738178e+00 
60200 5.0825929584e+00 6.8090028351e-05 1.6165656374e+00 -2.7999738178e+00 1.6165656374e+00 2.7999738178e+00 
60300 5.0825929585e+00 6.8083481226e-05 1.6165656374e+00 -2.7999738178e+00 1.6165656374e+00 2.7999738178e+00 
60400 5.0825929587e+00 6.8076940878e-05 1.6165656374e+00 -2.7999738178e+00 1.6165656374e+00 2.7999738178e+00 
60500 5.0825929588e+00 6.8070407557e-05 1.6165656374e+00 -2.7999738178e+00 1.6165656374e+00 2.7999738178e+00 
60600 5.0825929590e+00 6.8063881574e-05 1.6165656374e+00 -2.7999738178e+00 1.6165656374e+00 2.7999738178e+00 
60700 5.0825929591e+00 6.8057363298e-05 1.6165656374e+00 -2.7999738178e+00 1.6165656374e+00 2.7999738178e+00 
60800 5.0825929592e+00 6.8050853148e-05 1.6165656374e+00 -2.7999738178e+00 1.6165656374e+00 2.7999738178e+00 
60900 5.0825929593e+00 6.8044351598e-05 1.6165656374e+00 -2.7999738178e+00 1.6165656374e+00 2.7999738178e+00 
61000 5.0825929595e+00 6.8037859168e-05 1.6165656374e+00 -2.7999738178e+00 1.6165656374e+00 2.7999738178e+00 
61100 5.0825929596e+00 6.8031376426e-05 1.6165656374e+00 -2.7999738178e+00 1.6165656374e+00 2.7999738178e+00 
61200 5.0825929597e+00 6.8024903986e-05 1.6165656374e+00 -2.7999738178e+00 1.6165656374e+00 2.7999738178e+00 
61300 5.0825929598e+00 6.8018442501e-05 1.6165656374e+00 -2.7999738178e+00 1.6165656374e+00 2.7999738178e+00 
61400 5.0825929599e+00 6.8011992663e-05 1.6165656374e+00 -2.7999738178e+00 1.6165656374e+00 2.7999738178e+00 
61500 5.0825929601e+00 6.8005555203e-05 1.6165656374e+00 -2.7999738178e+00 1.6165656374e+00 2.7999738178e+00 
61600 5.0825929602e+00 6.7999130886e-05 1.6165656374e+00 -2.7999738178e+00 1.6165656374e+00 2.7999738178e+00 
61700 5.0825929603e+00 6.7992720506e-05 1.6165656374e+00 -2.7999738178e+00 1.6165656374e+00 2.7999738178e+00 
61800 5.0825929604e+00 6.7986324888e-05 1.6165656374e+00 -2.7999738178e+00 1.6165656374e+00 2.7999738178e+00 
61900 5.0825929605e+00 6.7979944885e-05 1.6165656374e+00 -2.7999738178e+00 1.6165656374e+00 2.7999738178e+00 
62000 5.0825929606e+00 6.7973581370e-05 1.6165656374e+00 -2.7999738178e+00 1.6165656374e+00 2.7999738178e+00 
62100 5.0825929607e+00 6.7967235243e-05 1.6165656374e+00 -2.7999738178e+00 1.6165656374e+00 2.7999738178e+00 
62200 5.0825929608e+00 6.7960907419e-05 1.6165656374e+00 -2.7999738178e+00 1.6165656374e+00 2.7999738178e+00 
62300 5.0825929609e+00 6.7954598834e-05 1.6165656374e+00 -2.7999738178e+00 1.6165656374e+00 2.7999738178e+00 
62400 5.0825929610e+00 6.7948310435e-05 1.6165656374e+00 -2.7999738178e+00 1.6165656374e+00 2.7999738178e+00 
62500 5.0825929611e+00 6.7942043185e-05 1.6165656374e+00 -2.7999738178e+00 1.6165656374e+00 2.7999738178e+00 
62600 5.0825929612e+00 6.7935798057e-05 1.6165656374e+00 -2.7999738178e+00 1.6165656374e+00 2.7999738178e+00 
62700 5.0825929613e+00 6.7929576030e-05 1.6165656374e+00 -2.7999738178e+00 1.6165656374e+00 2.7999738178e+00 
62800 5.0825929614e+00 6.7923378090e-05 1.6165656374e+00 -2.7999738178e+00 1.6165656374e+00 2.7999738178e+00 
62900 5.0825929615e+00 6.7917205229e-05 1.6165656374e+00 -2.7999738178e+00 1.6165656374e+00 2.7999738178e+00 
63000 5.0825929616e+00 6.7911058438e-05 1.6165656374e+00 -2.7999738178e+00 1.6165656374e+00 2.7999738178e+00 
63100 5.0825929617e+00 6.7904938712e-05 1.6165656374e+00 -2.7999738178e+00 1.6165656374e+00 2.7999738178e+00 
63200 5.0825929618e+00 6.7898847043e-05 1.6165656374e+00 -2.7999738178e+00 1.6165656374e+00 2.7999738178e+00 
63300 5.0825929619e+00 6.7892784418e-05 1.6165656374e+00 -2.7999738178e+00 1.6165656374e+00 2.7999738178e+00 
63400 5.0825929620e+00 6.7886751819e-05 1.6165656374e+00 -2.7999738178e+00 1.6165656374e+00 2.7999738178e+00 
63500 5.0825929620e+00 6.7880750226e-05 1.6165656374e+00 -2.7999738178e+00 1.6165656374e+00 2.7999738178e+00 
63600 5.0825929621e+00 6.7874780606e-05 1.6165656374e+00 -2.7999738178e+00 1.6165656374e+00 2.7999738178e+00 
63700 5.0825929622e+00 6.7868843915e-05 1.6165656374e+00 -2.7999738178e+00 1.6165656374e+00 2.7999738178e+00 
63800 5.0825929623e+00 6.7862941104e-05 1.6165656374e+00 -2.7999738178e+00 1.6165656374e+00 2.7999738178e+00 
63900 5.0825929624e+00 6.7857073106e-05 1.6165656374e+00 -2.7999738178e+00 1.6165656374e+00 2.7999738178e+00 
64000 5.0825929625e+00 6.7851240842e-05 1.6165656374e+00 -2.7999738178e+00 1.6165656374e+00 2.7999738178e+00 
64100 5.0825929625e+00 6.7845445219e-05 1.6165656374e+00 -2.7999738178e+00 1.6165656374e+00 2.7999738178e+00 
64200 5.0825929626e+00 6.7839687123e-05 1.6165656374e+00 -2.7999738178e+00 1.6165656374e+00 2.7999738178e+00 
64300 5.0825929627e+00 6.7833967432e-05 1.6165656374e+00 -2.7999738178e+00 1.6165656374e+00 2.7999738178e+00 
64400 5.0825929628e+00 6.7828286995e-05 1.6165656374e+00 -2.7999738178e+00 1.6165656374e+00 2.7999738178e+00 
64500 5.0825929628e+00 6.7822646648e-05 1.6165656374e+00 -2.7999738178e+00 1.6165656374e+00 2.7999738178e+00 
64600 5.0825929629e+00 6.7817047206e-05 1.6165656374e+00 -2.7999738178e+00 1.6165656374e+00 2.7999738178e+00 
64700 5.0825929630e+00 6.7811489459e-05 1.6165656374e+00 -2.7999738178e+00 1.6165656374e+00 2.7999738178e+00 
64800 5.0825929631e+00 6.7805974182e-05 1.6165656374e+00 -2.7999738178e+00 1.6165656374e+00 2.7999738178e+00 
64900 5.0825929631e+00 6.7800502122e-05 1.6165656374e+00 -2.7999738178e+00 1.6165656374e+00 2.7999738178e+00 
65000 5.0825929632e+00 6.7795074004e-05 1.6165656374e+00 -2.7999738178e+00 1.6165656374e+00 2.7999738178e+00 
65100 5.0825929633e+00 6.7789690530e-05 1.6165656374e+00 -2.7999738178e+00 1.6165656374e+00 2.7999738178e+00 
65200 5.0825929633e+00 6.7784352377e-05 1.6165656374e+00 -2.7999738178e+00 1.6165656374e+00 2.7999738178e+00 
65300 5.0825929634e+00 6.7779060196e-05 1.6165656374e+00 -2.7999738178e+00 1.6165656374e+00 2.7999738178e+00 
65400 5.0825929635e+00 6.7773814615e-05 1.6165656374e+00 -2.7999738178e+00 1.6165656374e+00 2.7999738178e+00 
65500 5.0825929635e+00 6.7768616237e-05 1.6165656374e+00 -2.7999738178e+00 1.6165656374e+00 2.7999738178e+00 
65600 5.0825929636e+00 6.7763465636e-05 1.6165656374e+00 -2.7999738178e+00 1.6165656374e+00 2.7999738178e+00 
65700 5.0825929637e+00 6.7758363359e-05 1.6165656374e+00 -2.7999738178e+00 1.6165656374e+00 2.7999738178e+00 
65800 5.0825929637e+00 6.7753309932e-05 1.6165656374e+00 -2.7999738178e+00 1.6165656374e+00 2.7999738178e+00 
65900 5.0825929638e+00 6.7748305850e-05 1.6165656374e+00 -2.7999738178e+00 1.6165656374e+00 2.7999738178e+00 
66000 5.0825929638e+00 6.7743351583e-05 1.6165656374e+00 -2.7999738178e+00 1.6165656374e+00 2.7999738178e+00 
66100 5.0825929639e+00 6.7738447573e-05 1.6165656374e+00 -2.7999738178e+00 1.6165656374e+00 2.7999738178e+00 
66200 5.0825929640e+00 6.7733594236e-05 1.6165656374e+00 -2.7999738178e+00 1.6165656374e+00 2.7999738178e+00 
66300 5.0825929640e+00 6.7728791962e-05 1.6165656374e+00 -2.7999738178e+00 1.6165656374e+00 2.7999738178e+00 
66400 5.0825929641e+00 6.7724041112e-05 1.6165656374e+00 -2.7999738178e+00 1.6165656374e+00 2.7999738178e+00 
66500 5.0825929641e+00 6.7719342022e-05 1.6165656374e+00 -2.7999738178e+00 1.6165656374e+00 2.7999738178e+00 
66600 5.0825929642e+00 6.7714695002e-05 1.6165656374e+00 -2.7999738178e+00 1.6165656374e+00 2.7999738178e+00 
66700 5.0825929642e+00 6.7710100335e-05 1.6165656374e+00 -2.7999738178e+00 1.6165656374e+00 2.7999738178e+00 
66800 5.0825929643e+00 6.7705558277e-05 1.6165656374e+00 -2.7999738178e+00 1.6165656374e+00 2.7999738178e+00 
66900 5.0825929643e+00 6.7701069057e-05 1.6165656374e+00 -2.7999738178e+00 1.6165656374e+00 2.7999738178e+00 
67000 5.0825929644e+00 6.7696632884e-05 1.6165656374e+00 -2.7999738178e+00 1.6165656374e+00 2.7999738178e+00 
67100 5.0825929645e+00 6.7692249934e-05 1.6165656374e+00 -2.7999738178e+00 1.6165656374e+00 2.7999738178e+00 
67200 5.0825929645e+00 6.7687920363e-05 1.6165656374e+00 -2.7999738178e+00 1.6165656374e+00 2.7999738178e+00 
67300 5.0825929646e+00 6.7683644299e-05 1.6165656374e+00 -2.7999738178e+00 1.6165656374e+00 2.7999738178e+00 
67400 5.0825929646e+00 6.7682456605e-05 1.6165656374e+00 -2.7999738178e+00 1.6165656374e+00 2.7999738178e+00 
67400 5.0825929646e+00 6.7682456605e-05 1.6165656374e+00 -2.7999738178e+00 1.6165656374e+00 2.7999738178e+00 
