# step Hamiltonian StressXX CellTensor1 CellTensor2 CellTensor3 CellTensor4 
0 6.9854962917e+00 -2.1692157980e-01 1.6387017056e+00 -2.8383146126e+00 1.6387017056e+00 2.8383146126e+00 
100 6.9731955983e+00 -2.1956270852e-01 1.6387017056e+00 -2.8383146126e+00 1.6387017056e+00 2.8383146126e+00 
200 6.9595991129e+00 -2.1577823542e-01 1.6454055401e+00 -2.8499259946e+00 1.6454055401e+00 2.8499259946e+00 
300 6.9465832286e+00 -2.1202505895e-01 1.6519668703e+00 -2.8612905518e+00 1.6519668703e+00 2.8612905518e+00 
400 6.9341710740e+00 -2.0830753525e-01 1.6583883611e+00 -2.8724129002e+00 1.6583883611e+00 2.8724129002e+00 
500 6.9223773765e+00 -2.0463097277e-01 1.6646727310e+00 -2.8832977481e+00 1.6646727310e+00 2.8832977481e+00 
600 6.9112094629e+00 -2.0100129380e-01 1.6708227817e+00 -2.8939499483e+00 1.6708227817e+00 2.8939499483e+00 
700 6.9006681602e+00 -1.9742476394e-01 1.6768414171e+00 -2.9043745306e+00 1.6768414171e+00 2.9043745306e+00 
800 6.8907486113e+00 -1.9390777652e-01 1.6827316543e+00 -2.9145767208e+00 1.6827316543e+00 2.9145767208e+00 
900 6.8814410184e+00 -1.9045668150e-01 1.6884966275e+00 -2.9245619472e+00 1.6884966275e+00 2.9245619472e+00 
1000 6.8727313216e+00 -1.8707765049e-01 1.6941395867e+00 -2.9343358393e+00 1.6941395867e+00 2.9343358393e+00 
1100 6.8646018212e+00 -1.8377657122e-01 1.6996638935e+00 -2.9439042194e+00 1.6996638935e+00 2.9439042194e+00 
1200 6.8570317484e+00 -1.8055896610e-01 1.7050730126e+00 -2.9532730884e+00 1.7050730126e+00 2.9532730884e+00 
1300 6.8499977893e+00 -1.7742993046e-01 1.7103705020e+00 -2.9624486093e+00 1.7103705020e+00 2.9624486093e+00 
1400 6.8434745657e+00 -1.7439408686e-01 1.7155600016e+00 -2.9714370861e+00 1.7155600016e+00 2.9714370861e+00 
1500 6.8374350764e+00 -1.7145555263e-01 1.7206452200e+00 -2.9802449428e+00 1.7206452200e+00 2.9802449428e+00 
1600 6.8318510997e+00 -1.6861791830e-01 1.7256299215e+00 -2.9888786991e+00 1.7256299215e+00 2.9888786991e+00 
1700 6.8266935614e+00 -1.6588423485e-01 1.7305179122e+00 -2.9973449474e+00 1.7305179122e+00 2.9973449474e+00 
1800 6.8219328696e+00 -1.6325700846e-01 1.7353130257e+00 -3.0056503276e+00 1.7353130257e+00 3.0056503276e+00 
1900 6.8175392167e+00 -1.6073820115e-01 1.7400191094e+00 -3.0138015037e+00 1.7400191094e+00 3.0138015037e+00 
2000 6.8134828523e+00 -1.5832923658e-01 1.7446400106e+00 -3.0218051392e+00 1.7446400106e+00 3.0218051392e+00 
2100 6.8097343271e+00 -1.5603100997e-01 1.7491795629e+00 -3.0296678744e+00 1.7491795629e+00 3.0296678744e+00 
2200 6.8062647097e+00 -1.5384390138e-01 1.7536415733e+00 -3.0373963033e+00 1.7536415733e+00 3.0373963033e+00 
2300 6.8030457772e+00 -1.5176779200e-01 1.7580298097e+00 -3.0449969517e+00 1.7580298097e+00 3.0449969517e+00 
2400 6.8000501821e+00 -1.4980208277e-01 1.7623479887e+00 -3.0524762570e+00 1.7623479887e+00 3.0524762570e+00 
2500 6.7972515955e+00 -1.4794571493e-01 1.7665997638e+00 -3.0598405476e+00 1.7665997638e+00 3.0598405476e+00 
2600 6.7946248285e+00 -1.4619719228e-01 1.7707887155e+00 -3.0670960247e+00 1.7707887155e+00 3.0670960247e+00 
2700 6.7921459336e+00 -1.4455460479e-01 1.7749183404e+00 -3.0742487448e+00 1.7749183404e+00 3.0742487448e+00 
2800 6.7897922863e+00 -1.4301565323e-01 1.7789920420e+00 -3.0813046029e+00 1.7789920420e+00 3.0813046029e+00 
2900 6.7875426489e+00 -1.4157767473e-01 1.7830131220e+00 -3.0882693179e+00 1.7830131220e+00 3.0882693179e+00 
3000 6.7853772178e+00 -1.4023766895e-01 1.7869847725e+00 -3.0951484183e+00 1.7869847725e+00 3.0951484183e+00 
3100 6.7832776553e+00 -1.3899232474e-01 1.7909100684e+00 -3.1019472302e+00 1.7909100684e+00 3.1019472302e+00 
3200 6.7812271070e+00 -1.3783804707e-01 1.7947919610e+00 -3.1086708654e+00 1.7947919610e+00 3.1086708654e+00 
3300 6.7792102066e+00 -1.3677098413e-01 1.7986332723e+00 -3.1153242117e+00 1.7986332723e+00 3.1153242117e+00 
3400 6.7772130686e+00 -1.3578705434e-01 1.8024366898e+00 -3.1219119242e+00 1.8024366898e+00 3.1219119242e+00 
3500 6.7752232705e+00 -1.3488197326e-01 1.8062047626e+00 -3.1284384177e+00 1.8062047626e+00 3.1284384177e+00 
3600 6.7732298255e+00 -1.3405128017e-01 1.8099398969e+00 -3.1349078601e+00 1.8099398969e+00 3.1349078601e+00 
3700 6.7712231467e+00 -1.3329036417e-01 1.8136443542e+00 -3.1413241683e+00 1.8136443542e+00 3.1413241683e+00 
3800 6.7691950040e+00 -1.3259448983e-01 1.8173202481e+00 -3.1476910032e+00 1.8173202481e+00 3.1476910032e+00 
3900 6.7671384749e+00 -1.3195882208e-01 1.8209695433e+00 -3.1540117680e+00 1.8209695433e+00 3.1540117680e+00 
4000 6.7650478890e+00 -1.3137845039e-01 1.8245940547e+00 -3.1602896059e+00 1.8245940547e+00 3.1602896059e+00 
4100 6.7629187690e+00 -1.3084841208e-01 1.8281954467e+00 -3.1665273999e+00 1.8281954467e+00 3.1665273999e+00 
4200 6.7607477677e+00 -1.3036371469e-01 1.8317752340e+00 -3.1727277734e+00 1.8317752340e+00 3.1727277734e+00 
4300 6.7585326016e+00 -1.2991935732e-01 1.8353347821e+00 -3.1788930915e+00 1.8353347821e+00 3.1788930915e+00 
4400 6.7562719830e+00 -1.2951035095e-01 1.8388753088e+00 -3.1850254635e+00 1.8388753088e+00 3.1850254635e+00 
4500 6.7539655503e+00 -1.2913173759e-01 1.8423978860e+00 -3.1911267464e+00 1.8423978860e+00 3.1911267464e+00 
4600 6.7516137975e+00 -1.2877860825e-01 1.8459034425e+00 -3.1971985483e+00 1.8459034425e+00 3.1971985483e+00 
4700 6.7492180037e+00 -1.2844611982e-01 1.8493927662e+00 -3.2032422341e+00 1.8493927662e+00 3.2032422341e+00 
4800 6.7467801624e+00 -1.2812951059e-01 1.8528665075e+00 -3.2092589306e+00 1.8528665075e+00 3.2092589306e+00 
4900 6.7443029118e+00 -1.2782411466e-01 1.8563251832e+00 -3.2152495326e+00 1.8563251832e+00 3.2152495326e+00 
5000 6.7417894659e+00 -1.2752537511e-01 1.8597691798e+00 -3.2212147098e+00 1.8597691798e+00 3.2212147098e+00 
5100 6.7392435477e+00 -1.2722885590e-01 1.8631987583e+00 -3.2271549139e+00 1.8631987583e+00 3.2271549139e+00 
5200 6.7366693237e+00 -1.2693025266e-01 1.8666140579e+00 -3.2330703865e+00 1.8666140579e+00 3.2330703865e+00 
5300 6.7340713404e+00 -1.2662540224e-01 1.8700151015e+00 -3.2389611668e+00 1.8700151015e+00 3.2389611668e+00 
5400 6.7314544637e+00 -1.2631029115e-01 1.8734017999e+00 -3.2448271005e+00 1.8734017999e+00 3.2448271005e+00 
5500 6.7288238198e+00 -1.2598106291e-01 1.8767739571e+00 -3.2506678480e+00 1.8767739571e+00 3.2506678480e+00 
5600 6.7261847399e+00 -1.2563402430e-01 1.8801312752e+00 -3.2564828936e+00 1.8801312752e+00 3.2564828936e+00 
5700 6.7235427071e+00 -1.2526565068e-01 1.8834733602e+00 -3.2622715545e+00 1.8834733602e+00 3.2622715545e+00 
5800 6.7209033057e+00 -1.2487259025e-01 1.8867997265e+00 -3.2680329899e+00 1.8867997265e+00 3.2680329899e+00 
5900 6.7182721744e+00 -1.2445166747e-01 1.8901098029e+00 -3.2737662105e+00 1.8901098029e+00 3.2737662105e+00 
6000 6.7156549619e+00 -1.2399988562e-01 1.8934029379e+00 -3.2794700876e+00 1.8934029379e+00 3.2794700876e+00 
6100 6.7130572853e+00 -1.2351442857e-01 1.8966784046e+00 -3.2851433623e+00 1.8966784046e+00 3.2851433623e+00 
6200 6.7104846922e+00 -1.2299266175e-01 1.8999354066e+00 -3.2907846553e+00 1.8999354066e+00 3.2907846553e+00 
6300 6.7079426248e+00 -1.2243213261e-01 1.9031730831e+00 -3.2963924755e+00 1.9031730831e+00 3.2963924755e+00 
6400 6.7054363878e+00 -1.2183057023e-01 1.9063905141e+00 -3.3019652295e+00 1.9063905141e+00 3.3019652295e+00 
6500 6.7029711188e+00 -1.2118588463e-01 1.9095867256e+00 -3.3075012302e+00 1.9095867256e+00 3.3075012302e+00 
6600 6.7005517609e+00 -1.2049616533e-01 1.9127606949e+00 -3.3129987062e+00 1.9127606949e+00 3.3129987062e+00 
6700 6.6981830393e+00 -1.1975967967e-01 1.9159113551e+00 -3.3184558098e+00 1.9159113551e+00 3.3184558098e+00 
6800 6.6958694398e+00 -1.1897487061e-01 1.9190376007e+00 -3.3238706260e+00 1.9190376007e+00 3.3238706260e+00 
6900 6.6936151891e+00 -1.1814035420e-01 1.9221382916e+00 -3.3292411802e+00 1.9221382916e+00 3.3292411802e+00 
7000 6.6914242397e+00 -1.1725491686e-01 1.9252122584e+00 -3.3345654468e+00 1.9252122584e+00 3.3345654468e+00 
7100 6.6893002545e+00 -1.1631751226e-01 1.9282583064e+00 -3.3398413568e+00 1.9282583064e+00 3.3398413568e+00 
7200 6.6872465959e+00 -1.1532725809e-01 1.9312752203e+00 -3.3450668050e+00 1.9312752203e+00 3.3450668050e+00 
7300 6.6852663161e+00 -1.1428343264e-01 1.9342617685e+00 -3.3502396581e+00 1.9342617685e+00 3.3502396581e+00 
7400 6.6833621491e+00 -1.1318547128e-01 1.9372167067e+00 -3.3553577612e+00 1.9372167067e+00 3.3553577612e+00 
7500 6.6815365057e+00 -1.1203296277e-01 1.9401387823e+00 -3.3604189447e+00 1.9401387823e+00 3.3604189447e+00 
7600 6.6797914692e+00 -1.1082564558e-01 1.9430267383e+00 -3.3654210312e+00 1.9430267383e+00 3.3654210312e+00 
7700 6.6781287943e+00 -1.0956340411e-01 1.9458793166e+00 -3.3703618417e+00 1.9458793166e+00 3.3703618417e+00 
7800 6.6765499059e+00 -1.0824626497e-01 1.9486952616e+00 -3.3752392016e+00 1.9486952616e+00 3.3752392016e+00 
7900 6.6750559012e+00 -1.0687439318e-01 1.9514733241e+00 -3.3800509469e+00 1.9514733241e+00 3.3800509469e+00 
8000 6.6736475520e+00 -1.0544808845e-01 1.9542122637e+00 -3.3847949295e+00 1.9542122637e+00 3.3847949295e+00 
8100 6.6723253093e+00 -1.0396778148e-01 1.9569108528e+00 -3.3894690229e+00 1.9569108528e+00 3.3894690229e+00 
8200 6.6710893086e+00 -1.0243403027e-01 1.9595678791e+00 -3.3940711275e+00 1.9595678791e+00 3.3940711275e+00 
8300 6.6699393767e+00 -1.0084751661e-01 1.9621821486e+00 -3.3985991751e+00 1.9621821486e+00 3.3985991751e+00 
8400 6.6688750396e+00 -9.9209042437e-02 1.9647524885e+00 -3.4030511343e+00 1.9647524885e+00 3.4030511343e+00 
8500 6.6678955317e+00 -9.7519526448e-02 1.9672777496e+00 -3.4074250150e+00 1.9672777496e+00 3.4074250150e+00 
8600 6.6669998052e+00 -9.5780000650e-02 1.9697568093e+00 -3.4117188722e+00 1.9697568093e+00 3.4117188722e+00 
8700 6.6661865417e+00 -9.3991607035e-02 1.9721885734e+00 -3.4159308113e+00 1.9721885734e+00 3.4159308113e+00 
8800 6.6654541633e+00 -9.2155594286e-02 1.9745719792e+00 -3.4200589911e+00 1.9745719792e+00 3.4200589911e+00 
8900 6.6648008455e+00 -9.0273314546e-02 1.9769059970e+00 -3.4241016286e+00 1.9769059970e+00 3.4241016286e+00 
9000 6.6642245305e+00 -8.8346220227e-02 1.9791896329e+00 -3.4280570021e+00 1.9791896329e+00 3.4280570021e+00 
9100 6.6637229407e+00 -8.6375860849e-02 1.9814219306e+00 -3.4319234550e+00 1.9814219306e+00 3.4319234550e+00 
9200 6.6632935933e+00 -8.4363879898e-02 1.9836019730e+00 -3.4356993993e+00 1.9836019730e+00 3.4356993993e+00 
9300 6.6629338157e+00 -8.2312011695e-02 1.9857288851e+00 -3.4393833190e+00 1.9857288851e+00 3.4393833190e+00 
9400 6.6626407603e+00 -8.0222078248e-02 1.9878018346e+00 -3.4429737729e+00 1.9878018346e+00 3.4429737729e+00 
9500 6.6624114209e+00 -7.8095986089e-02 1.9898200347e+00 -3.4464693980e+00 1.9898200347e+00 3.4464693980e+00 
9600 6.6622426487e+00 -7.5935723059e-02 1.9917827451e+00 -3.4498689122e+00 1.9917827451e+00 3.4498689122e+00 
9700 6.6621311686e+00 -7.3743355043e-02 1.9936892739e+00 -3.4531711169e+00 1.9936892739e+00 3.4531711169e+00 
9800 6.6620735964e+00 -7.1521022623e-02 1.9955389790e+00 -3.4563749002e+00 1.9955389790e+00 3.4563749002e+00 
9900 6.6620664552e+00 -6.9270937635e-02 1.9973312697e+00 -3.4594792387e+00 1.9973312697e+00 3.4594792387e+00 
10000 6.6621061927e+00 -6.6995379619e-02 1.9990656078e+00 -3.4624832003e+00 1.9990656078e+00 3.4624832003e+00 
10100 6.6621891981e+00 -6.4696692140e-02 2.0007415090e+00 -3.4653859464e+00 2.0007415090e+00 3.4653859464e+00 
10200 6.6623118191e+00 -6.2377278956e-02 2.0023585445e+00 -3.4681867340e+00 2.0023585445e+00 3.4681867340e+00 
10300 6.6624703792e+00 -6.0039600033e-02 2.0039163414e+00 -3.4708849174e+00 2.0039163414e+00 3.4708849174e+00 
10400 6.6626611938e+00 -5.7686167380e-02 2.0054145845e+00 -3.4734799505e+00 2.0054145845e+00 3.4734799505e+00 
10500 6.6628805874e+00 -5.5319540702e-02 2.0068530166e+00 -3.4759713881e+00 2.0068530166e+00 3.4759713881e+00 
10600 6.6631249096e+00 -5.2942322848e-02 2.0082314402e+00 -3.4783588877e+00 2.0082314402e+00 3.4783588877e+00 
10700 6.6633905515e+00 -5.0557155061e-02 2.0095497173e+00 -3.4806422107e+00 2.0095497173e+00 3.4806422107e+00 
10800 6.6636739606e+00 -4.8166712008e-02 2.0108077709e+00 -3.4828212235e+00 2.0108077709e+00 3.4828212235e+00 
10900 6.6639716564e+00 -4.5773696599e-02 2.0120055853e+00 -3.4848958989e+00 2.0120055853e+00 3.4848958989e+00 
11000 6.6642802448e+00 -4.3380834587e-02 2.0131432066e+00 -3.4868663167e+00 2.0131432066e+00 3.4868663167e+00 
11100 6.6645964322e+00 -4.0990868961e-02 2.0142207430e+00 -3.4887326646e+00 2.0142207430e+00 3.4887326646e+00 
11200 6.6649170387e+00 -3.8606554121e-02 2.0152383653e+00 -3.4904952381e+00 2.0152383653e+00 3.4904952381e+00 
11300 6.6652390106e+00 -3.6230649862e-02 2.0161963068e+00 -3.4921544415e+00 2.0161963068e+00 3.4921544415e+00 
11400 6.6655594320e+00 -3.3865915173e-02 2.0170948637e+00 -3.4937107876e+00 2.0170948637e+00 3.4937107876e+00 
11500 6.6658755362e+00 -3.1515101858e-02 2.0179343944e+00 -3.4951648975e+00 2.0179343944e+00 3.4951648975e+00 
11600 6.6661847153e+00 -2.9180948015e-02 2.0187153201e+00 -3.4965175004e+00 2.0187153201e+00 3.4965175004e+00 
11700 6.6664845293e+00 -2.6866171386e-02 2.0194381235e+00 -3.4977694327e+00 2.0194381235e+00 3.4977694327e+00 
11800 6.6667727142e+00 -2.4573462597e-02 2.0201033493e+00 -3.4989216375e+00 2.0201033493e+00 3.4989216375e+00 
11900 6.6670471886e+00 -2.2305478340e-02 2.0207116027e+00 -3.4999751634e+00 2.0207116027e+00 3.4999751634e+00 
12000 6.6673060601e+00 -2.0064834502e-02 2.0212635492e+00 -3.5009311627e+00 2.0212635492e+00 3.5009311627e+00 
12100 6.6675476294e+00 -1.7854099298e-02 2.0217599134e+00 -3.5017908907e+00 2.0217599134e+00 3.5017908907e+00 
12200 6.6677703943e+00 -1.5675786427e-02 2.0222014779e+00 -3.5025557028e+00 2.0222014779e+00 3.5025557028e+00 
12300 6.6679730518e+00 -1.3532348305e-02 2.0225890824e+00 -3.5032270535e+00 2.0225890824e+00 3.5032270535e+00 
12400 6.6681544991e+00 -1.1426169405e-02 2.0229236219e+00 -3.5038064930e+00 2.0229236219e+00 3.5038064930e+00 
12500 6.6683138340e+00 -9.3595597457e-03 2.0232060457e+00 -3.5042956654e+00 2.0232060457e+00 3.5042956654e+00 
12600 6.6684503532e+00 -7.3347485771e-03 2.0234373553e+00 -3.5046963053e+00 2.0234373553e+00 3.5046963053e+00 
12700 6.6685635502e+00 -5.3538782973e-03 2.0236186028e+00 -3.5050102351e+00 2.0236186028e+00 3.5050102351e+00 
12800 6.6686531112e+00 -3.4189986428e-03 2.0237508890e+00 -3.5052393615e+00 2.0237508890e+00 3.5052393615e+00 
12900 6.6687189111e+00 -1.5320611941e-03 2.0238353614e+00 -3.5053856721e+00 2.0238353614e+00 3.5053856721e+00 
13000 6.6687610071e+00 3.0508576858e-04 2.0238732119e+00 -3.5054512311e+00 2.0238732119e+00 3.5054512311e+00 
13100 6.6687796319e+00 2.0907020230e-03 2.0238656748e+00 -3.5054381764e+00 2.0238656748e+00 3.5054381764e+00 
13200 6.6687751862e+00 3.8231597432e-03 2.0238140238e+00 -3.5053487143e+00 2.0238140238e+00 3.5053487143e+00 
13300 6.6687482297e+00 5.5009473897e-03 2.0237195702e+00 -3.5051851158e+00 2.0237195702e+00 3.5051851158e+00 
13400 6.6686994711e+00 7.1226731256e-03 2.0235836599e+00 -3.5049497123e+00 2.0235836599e+00 3.5049497123e+00 
13500 6.6686297587e+00 8.6870677370e-03 2.0234076709e+00 -3.5046448904e+00 2.0234076709e+00 3.5046448904e+00 
13600 6.6685400682e+00 1.0192987041e-02 2.0231930104e+00 -3.5042730875e+00 2.0231930104e+00 3.5042730875e+00 
13700 6.6684314921e+00 1.1639413767e-02 2.0229411121e+00 -3.5038367870e+00 2.0229411121e+00 3.5038367870e+00 
13800 6.6683052268e+00 1.3025458905e-02 2.0226534335e+00 -3.5033385130e+00 2.0226534335e+00 3.5033385130e+00 
13900 6.6681625604e+00 1.4350362517e-02 2.0223314527e+00 -3.5027808258e+00 2.0223314527e+00 3.5027808258e+00 
14000 6.6680048600e+00 1.5613494012e-02 2.0219766656e+00 -3.5021663165e+00 2.0219766656e+00 3.5021663165e+00 
14100 6.6678335586e+00 1.6814351892e-02 2.0215905830e+00 -3.5014976019e+00 2.0215905830e+00 3.5014976019e+00 
14200 6.6676501419e+00 1.7952562980e-02 2.0211747279e+00 -3.5007773198e+00 2.0211747279e+00 3.5007773198e+00 
14300 6.6674561356e+00 1.9027881144e-02 2.0207306321e+00 -3.5000081232e+00 2.0207306321e+00 3.5000081232e+00 
14400 6.6672530923e+00 2.0040185537e-02 2.0202598335e+00 -3.4991926762e+00 2.0202598335e+00 3.4991926762e+00 
14500 6.6670425790e+00 2.0989478377e-02 2.0197638734e+00 -3.4983336481e+00 2.0197638734e+00 3.4983336481e+00 
14600 6.6668261643e+00 2.1875882288e-02 2.0192442934e+00 -3.4974337091e+00 2.0192442934e+00 3.4974337091e+00 
14700 6.6666054074e+00 2.2699637244e-02 2.0187026328e+00 -3.4964955253e+00 2.0187026328e+00 3.4964955253e+00 
14800 6.6663818456e+00 2.3461097130e-02 2.0181404256e+00 -3.4955217539e+00 2.0181404256e+00 3.4955217539e+00 
14900 6.6661569844e+00 2.4160725970e-02 2.0175591982e+00 -3.4945150385e+00 2.0175591982e+00 3.4945150385e+00 
15000 6.6659322867e+00 2.4799093844e-02 2.0169604665e+00 -3.4934780049e+00 2.0169604665e+00 3.4934780049e+00 
15100 6.6657091637e+00 2.5376872548e-02 2.0163457338e+00 -3.4924132565e+00 2.0163457338e+00 3.4924132565e+00 
15200 6.6654889662e+00 2.5894831009e-02 2.0157164877e+00 -3.4913233704e+00 2.0157164877e+00 3.4913233704e+00 
15300 6.6652729764e+00 2.6353830517e-02 2.0150741986e+00 -3.4902108930e+00 2.0150741986e+00 3.4902108930e+00 
15400 6.6650624011e+00 2.6754819795e-02 2.0144203168e+00 -3.4890783366e+00 2.0144203168e+00 3.4890783366e+00 
15500 6.6648583656e+00 2.7098829948e-02 2.0137562710e+00 -3.4879281754e+00 2.0137562710e+00 3.4879281754e+00 
15600 6.6646619085e+00 2.7386969324e-02 2.0130834656e+00 -3.4867628423e+00 2.0130834656e+00 3.4867628423e+00 
15700 6.6644739771e+00 2.7620418329e-02 2.0124032796e+00 -3.4855847255e+00 2.0124032796e+00 3.4855847255e+00 
15800 6.6642954240e+00 2.7800424211e-02 2.0117170640e+00 -3.4843961653e+00 2.0117170640e+00 3.4843961653e+00 
15900 6.6641270050e+00 2.7928295856e-02 2.0110261410e+00 -3.4831994516e+00 2.0110261410e+00 3.4831994516e+00 
16000 6.6639693767e+00 2.8005398622e-02 2.0103318017e+00 -3.4819968207e+00 2.0103318017e+00 3.4819968207e+00 
16100 6.6638230963e+00 2.8033149229e-02 2.0096353053e+00 -3.4807904534e+00 2.0096353053e+00 3.4807904534e+00 
16200 6.6636886215e+00 2.8013010734e-02 2.0089378770e+00 -3.4795824723e+00 2.0089378770e+00 3.4795824723e+00 
16300 6.6635663110e+00 2.7946487608e-02 2.0082407079e+00 -3.4783749399e+00 2.0082407079e+00 3.4783749399e+00 
16400 6.6634564264e+00 2.7835120938e-02 2.0075449528e+00 -3.4771698568e+00 2.0075449528e+00 3.4771698568e+00 
16500 6.6633591345e+00 2.7680483753e-02 2.0068517300e+00 -3.4759691597e+00 2.0068517300e+00 3.4759691597e+00 
16600 6.6632745098e+00 2.7484176512e-02 2.0061621201e+00 -3.4747747202e+00 2.0061621201e+00 3.4747747202e+00 
16700 6.6632025383e+00 2.7247822741e-02 2.0054771652e+00 -3.4735883435e+00 2.0054771652e+00 3.4735883435e+00 
16800 6.6631431216e+00 2.6973064838e-02 2.0047978684e+00 -3.4724117670e+00 2.0047978684e+00 3.4724117670e+00 
16900 6.6630960811e+00 2.6661560047e-02 2.0041251932e+00 -3.4712466594e+00 2.0041251932e+00 3.4712466594e+00 
17000 6.6630611631e+00 2.6314976618e-02 2.0034600630e+00 -3.4700946200e+00 2.0034600630e+00 3.4700946200e+00 
17100 6.6630380442e+00 2.5934990131e-02 2.0028033606e+00 -3.4689571782e+00 2.0028033606e+00 3.4689571782e+00 
17200 6.6630263364e+00 2.5523280007e-02 2.0021559283e+00 -3.4678357925e+00 2.0021559283e+00 3.4678357925e+00 
17300 6.6630255934e+00 2.5081526190e-02 2.0015185672e+00 -3.4667318508e+00 2.0015185672e+00 3.4667318508e+00 
17400 6.6630353161e+00 2.4611406015e-02 2.0008920375e+00 -3.4656466695e+00 2.0008920375e+00 3.4656466695e+00 
17500 6.6630549589e+00 2.4114591230e-02 2.0002770582e+00 -3.4645814940e+00 2.0002770582e+00 3.4645814940e+00 
17600 6.6630839356e+00 2.3592745205e-02 1.9996743072e+00 -3.4635374987e+00 1.9996743072e+00 3.4635374987e+00 
17700 6.6631216258e+00 2.3047520285e-02 1.9990844215e+00 -3.4625157867e+00 1.9990844215e+00 3.4625157867e+00 
17800 6.6631673806e+00 2.2480555316e-02 1.9985079973e+00 -3.4615173907e+00 1.9985079973e+00 3.4615173907e+00 
17900 6.6632205287e+00 2.1893473313e-02 1.9979455903e+00 -3.4605432731e+00 1.9979455903e+00 3.4605432731e+00 
18000 6.6632803821e+00 2.1287879273e-02 1.9973977157e+00 -3.4595943265e+00 1.9973977157e+00 3.4595943265e+00 
18100 6.6633462420e+00 2.0665358134e-02 1.9968648490e+00 -3.4586713744e+00 1.9968648490e+00 3.4586713744e+00 
18200 6.6634174040e+00 2.0027472856e-02 1.9963474263e+00 -3.4577751719e+00 1.9963474263e+00 3.4577751719e+00 
18300 6.6634931631e+00 1.9375762641e-02 1.9958458444e+00 -3.4569064066e+00 1.9958458444e+00 3.4569064066e+00 
18400 6.6635728191e+00 1.8711741263e-02 1.9953604618e+00 -3.4560656993e+00 1.9953604618e+00 3.4560656993e+00 
18500 6.6636556805e+00 1.8036895515e-02 1.9948915989e+00 -3.4552536050e+00 1.9948915989e+00 3.4552536050e+00 
18600 6.6637410696e+00 1.7352683767e-02 1.9944395389e+00 -3.4544706141e+00 1.9944395389e+00 3.4544706141e+00 
18700 6.6638283256e+00 1.6660534627e-02 1.9940045282e+00 -3.4537171534e+00 1.9940045282e+00 3.4537171534e+00 
18800 6.6639168090e+00 1.5961845698e-02 1.9935867771e+00 -3.4529935872e+00 1.9935867771e+00 3.4529935872e+00 
18900 6.6640059044e+00 1.5257982430e-02 1.9931864606e+00 -3.4523002188e+00 1.9931864606e+00 3.4523002188e+00 
19000 6.6640950234e+00 1.4550277061e-02 1.9928037194e+00 -3.4516372914e+00 1.9928037194e+00 3.4516372914e+00 
19100 6.6641836075e+00 1.3840027646e-02 1.9924386600e+00 -3.4510049901e+00 1.9924386600e+00 3.4510049901e+00 
19200 6.6642711299e+00 1.3128497160e-02 1.9920913563e+00 -3.4504034425e+00 1.9920913563e+00 3.4504034425e+00 
19300 6.6643570977e+00 1.2416912689e-02 1.9917618500e+00 -3.4498327207e+00 1.9917618500e+00 3.4498327207e+00 
19400 6.6644410532e+00 1.1706464692e-02 1.9914501513e+00 -3.4492928429e+00 1.9914501513e+00 3.4492928429e+00 
19500 6.6645225753e+00 1.0998306331e-02 1.9911562405e+00 -3.4487837743e+00 1.9911562405e+00 3.4487837743e+00 
19600 6.6646012802e+00 1.0293552880e-02 1.9908800680e+00 -3.4483054295e+00 1.9908800680e+00 3.4483054295e+00 
19700 6.6646768218e+00 9.5932811989e-03 1.9906215559e+00 -3.4478576735e+00 1.9906215559e+00 3.4478576735e+00 
19800 6.6647488926e+00 8.8985292667e-03 1.9903805988e+00 -3.4474403236e+00 1.9903805988e+00 3.4474403236e+00 
19900 6.6648172228e+00 8.2102957902e-03 1.9901570646e+00 -3.4470531510e+00 1.9901570646e+00 3.4470531510e+00 
20000 6.6648815808e+00 7.5295398678e-03 1.9899507956e+00 -3.4466958826e+00 1.9899507956e+00 3.4466958826e+00 
20100 6.6649417725e+00 6.8571807170e-03 1.9897616095e+00 -3.4463682027e+00 1.9897616095e+00 3.4463682027e+00 
20200 6.6649976400e+00 6.1940974612e-03 1.9895893004e+00 -3.4460697545e+00 1.9895893004e+00 3.4460697545e+00 
20300 6.6650490616e+00 5.5411289756e-03 1.9894336397e+00 -3.4458001423e+00 1.9894336397e+00 3.4458001423e+00 
20400 6.6650959500e+00 4.8990737897e-03 1.9892943774e+00 -3.4455589328e+00 1.9892943774e+00 3.4455589328e+00 
20500 6.6651382513e+00 4.2686900467e-03 1.9891712427e+00 -3.4453456573e+00 1.9891712427e+00 3.4453456573e+00 
20600 6.6651759433e+00 3.6506955168e-03 1.9890639454e+00 -3.4451598130e+00 1.9890639454e+00 3.4451598130e+00 
20700 6.6652090344e+00 3.0457676648e-03 1.9889721770e+00 -3.4450008653e+00 1.9889721770e+00 3.4450008653e+00 
20800 6.6652375613e+00 2.4545437703e-03 1.9888956111e+00 -3.4448682493e+00 1.9888956111e+00 3.4448682493e+00 
20900 6.6652615878e+00 1.8776210988e-03 1.9888339052e+00 -3.4447613716e+00 1.9888339052e+00 3.4447613716e+00 
21000 6.6652812027e+00 1.3155571229e-03 1.9887867013e+00 -3.4446796121e+00 1.9887867013e+00 3.4446796121e+00 
21100 6.6652965179e+00 7.6886979230e-04 1.9887536270e+00 -3.4446223258e+00 1.9887536270e+00 3.4446223258e+00 
21200 6.6653076664e+00 2.3803785092e-04 1.9887342966e+00 -3.4445888445e+00 1.9887342966e+00 3.4445888445e+00 
21300 6.6653148005e+00 -2.7649879956e-04 1.9887283120e+00 -3.4445784788e+00 1.9887283120e+00 3.4445784788e+00 
21400 6.6653180897e+00 -7.7433869220e-04 1.9887352636e+00 -3.4445905194e+00 1.9887352636e+00 3.4445905194e+00 
21500 6.6653177187e+00 -1.2551183440e-03 1.9887547318e+00 -3.4446242392e+00 1.9887547318e+00 3.4446242392e+00 
21600 6.6653138855e+00 -1.7185117636e-03 1.9887862872e+00 -3.4446788949e+00 1.9887862872e+00 3.4446788949e+00 
21700 6.6653067996e+00 -2.1642299195e-03 1.9888294924e+00 -3.4447537285e+00 1.9888294924e+00 3.4447537285e+00 
21800 6.6652966796e+00 -2.5920201694e-03 1.9888839023e+00 -3.4448479692e+00 1.9888839023e+00 3.4448479692e+00 
21900 6.6652837519e+00 -3.0016656538e-03 1.9889490654e+00 -3.4449608349e+00 1.9889490654e+00 3.4449608349e+00 
22000 6.6652682487e+00 -3.3929846540e-03 1.9890245244e+00 -3.4450915338e+00 1.9890245244e+00 3.4450915338e+00 
22100 6.6652504061e+00 -3.7658299176e-03 1.9891098177e+00 -3.4452392661e+00 1.9891098177e+00 3.4452392661e+00 
22200 6.6652304627e+00 -4.1200879524e-03 1.9892044796e+00 -3.4454032254e+00 1.9892044796e+00 3.4454032254e+00 
22300 6.6652086576e+00 -4.4556782907e-03 1.9893080417e+00 -3.4455826002e+00 1.9893080417e+00 3.4455826002e+00 
22400 6.6651852296e+00 -4.7725527258e-03 1.9894200335e+00 -3.4457765755e+00 1.9894200335e+00 3.4457765755e+00 
22500 6.6651604149e+00 -5.0706945230e-03 1.9895399830e+00 -3.4459843342e+00 1.9895399830e+00 3.4459843342e+00 
22600 6.6651344464e+00 -5.3501176055e-03 1.9896674182e+00 -3.4462050585e+00 1.9896674182e+00 3.4462050585e+00 
22700 6.6651075524e+00 -5.6108657188e-03 1.9898018673e+00 -3.4464379311e+00 1.9898018673e+00 3.4464379311e+00 
22800 6.6650799550e+00 -5.8530115738e-03 1.9899428595e+00 -3.4466821368e+00 1.9899428595e+00 3.4466821368e+00 
22900 6.6650518697e+00 -6.0766559713e-03 1.9900899261e+00 -3.4469368637e+00 1.9900899261e+00 3.4469368637e+00 
23000 6.6650235040e+00 -6.2819269090e-03 1.9902426010e+00 -3.4472013043e+00 1.9902426010e+00 3.4472013043e+00 
23100 6.6649950565e+00 -6.4689786733e-03 1.9904004212e+00 -3.4474746569e+00 1.9904004212e+00 3.4474746569e+00 
23200 6.6649667165e+00 -6.6379909171e-03 1.9905629278e+00 -3.4477561267e+00 1.9905629278e+00 3.4477561267e+00 
23300 6.6649386632e+00 -6.7891677253e-03 1.9907296667e+00 -3.4480449268e+00 1.9907296667e+00 3.4480449268e+00 
23400 6.6649110649e+00 -6.9227366697e-03 1.9909001887e+00 -3.4483402796e+00 1.9909001887e+00 3.4483402796e+00 
23500 6.6648840788e+00 -7.0389478546e-03 1.9910740507e+00 -3.4486414174e+00 1.9910740507e+00 3.4486414174e+00 
23600 6.6648578506e+00 -7.1380729552e-03 1.9912508159e+00 -3.4489475837e+00 1.9912508159e+00 3.4489475837e+00 
23700 6.6648325142e+00 -7.2204042493e-03 1.9914300545e+00 -3.4492580341e+00 1.9914300545e+00 3.4492580341e+00 
23800 6.6648081912e+00 -7.2862536447e-03 1.9916113441e+00 -3.4495720370e+00 1.9916113441e+00 3.4495720370e+00 
23900 6.6647849911e+00 -7.3359517029e-03 1.9917942705e+00 -3.4498888748e+00 1.9917942705e+00 3.4498888748e+00 
24000 6.6647630114e+00 -7.3698466609e-03 1.9919784277e+00 -3.4502078444e+00 1.9919784277e+00 3.4502078444e+00 
24100 6.6647423370e+00 -7.3883034522e-03 1.9921634187e+00 -3.4505282582e+00 1.9921634187e+00 3.4505282582e+00 
24200 6.6647230410e+00 -7.3917027281e-03 1.9923488557e+00 -3.4508494446e+00 1.9923488557e+00 3.4508494446e+00 
24300 6.6647051844e+00 -7.3804398811e-03 1.9925343608e+00 -3.4511707488e+00 1.9925343608e+00 3.4511707488e+00 
24400 6.6646888165e+00 -7.3549240701e-03 1.9927195660e+00 -3.4514915336e+00 1.9927195660e+00 3.4514915336e+00 
24500 6.6646739751e+00 -7.3155772511e-03 1.9929041138e+00 -3.4518111797e+00 1.9929041138e+00 3.4518111797e+00 
24600 6.6646606870e+00 -7.2628332111e-03 1.9930876572e+00 -3.4521290862e+00 1.9930876572e+00 3.4521290862e+00 
24700 6.6646489682e+00 -7.1971366095e-03 1.9932698605e+00 -3.4524446716e+00 1.9932698605e+00 3.4524446716e+00 
24800 6.6646388243e+00 -7.1189420257e-03 1.9934503992e+00 -3.4527573738e+00 1.9934503992e+00 3.4527573738e+00 
24900 6.6646302512e+00 -7.0287130148e-03 1.9936289601e+00 -3.4530666504e+00 1.9936289601e+00 3.4530666504e+00 
25000 6.6646232354e+00 -6.9269211728e-03 1.9938052421e+00 -3.4533719797e+00 1.9938052421e+00 3.4533719797e+00 
25100 6.6646177546e+00 -6.8140452110e-03 1.9939789557e+00 -3.4536728605e+00 1.9939789557e+00 3.4536728605e+00 
25200 6.6646137782e+00 -6.6905700415e-03 1.9941498237e+00 -3.4539688125e+00 1.9941498237e+00 3.4539688125e+00 
25300 6.6646112681e+00 -6.5569858742e-03 1.9943175810e+00 -3.4542593767e+00 1.9943175810e+00 3.4542593767e+00 
25400 6.6646101787e+00 -6.4137873263e-03 1.9944819750e+00 -3.4545441154e+00 1.9944819750e+00 3.4545441154e+00 
25500 6.6646104584e+00 -6.2614725453e-03 1.9946427654e+00 -3.4548226127e+00 1.9946427654e+00 3.4548226127e+00 
25600 6.6646120495e+00 -6.1005423456e-03 1.9947997247e+00 -3.4550944741e+00 1.9947997247e+00 3.4550944741e+00 
25700 6.6646148889e+00 -5.9314993604e-03 1.9949526378e+00 -3.4553593274e+00 1.9949526378e+00 3.4553593274e+00 
25800 6.6646189092e+00 -5.7548472091e-03 1.9951013023e+00 -3.4556168219e+00 1.9951013023e+00 3.4556168219e+00 
25900 6.6646240387e+00 -5.5710896808e-03 1.9952455285e+00 -3.4558666289e+00 1.9952455285e+00 3.4558666289e+00 
26000 6.6646302026e+00 -5.3807299349e-03 1.9953851393e+00 -3.4561084419e+00 1.9953851393e+00 3.4561084419e+00 
26100 6.6646373230e+00 -5.1842697202e-03 1.9955199701e+00 -3.4563419758e+00 1.9955199701e+00 3.4563419758e+00 
26200 6.6646453201e+00 -4.9822086116e-03 1.9956498693e+00 -3.4565669677e+00 1.9956498693e+00 3.4565669677e+00 
26300 6.6646541122e+00 -4.7750432659e-03 1.9957746973e+00 -3.4567831761e+00 1.9957746973e+00 3.4567831761e+00 
26400 6.6646636168e+00 -4.5632666985e-03 1.9958943273e+00 -3.4569903814e+00 1.9958943273e+00 3.4569903814e+00 
26500 6.6646737506e+00 -4.3473675791e-03 1.9960086447e+00 -3.4571883850e+00 1.9960086447e+00 3.4571883850e+00 
26600 6.6646844307e+00 -4.1278295494e-03 1.9961175472e+00 -3.4573770097e+00 1.9961175472e+00 3.4573770097e+00 
26700 6.6646955743e+00 -3.9051305620e-03 1.9962209446e+00 -3.4575560991e+00 1.9962209446e+00 3.4575560991e+00 
26800 6.6647070997e+00 -3.6797422417e-03 1.9963187585e+00 -3.4577255178e+00 1.9963187585e+00 3.4577255178e+00 
26900 6.6647189269e+00 -3.4521292694e-03 1.9964109224e+00 -3.4578851503e+00 1.9964109224e+00 3.4578851503e+00 
27000 6.6647309773e+00 -3.2227487895e-03 1.9964973814e+00 -3.4580349017e+00 1.9964973814e+00 3.4580349017e+00 
27100 6.6647431747e+00 -2.9920498407e-03 1.9965780920e+00 -3.4581746966e+00 1.9965780920e+00 3.4581746966e+00 
27200 6.6647554456e+00 -2.7604728112e-03 1.9966530219e+00 -3.4583044790e+00 1.9966530219e+00 3.4583044790e+00 
27300 6.6647677192e+00 -2.5284489188e-03 1.9967221498e+00 -3.4584242121e+00 1.9967221498e+00 3.4584242121e+00 
27400 6.6647799279e+00 -2.2963997156e-03 1.9967854651e+00 -3.4585338774e+00 1.9967854651e+00 3.4585338774e+00 
27500 6.6647920078e+00 -2.0647366187e-03 1.9968429678e+00 -3.4586334750e+00 1.9968429678e+00 3.4586334750e+00 
27600 6.6648038982e+00 -1.8338604664e-03 1.9968946681e+00 -3.4587230225e+00 1.9968946681e+00 3.4587230225e+00 
27700 6.6648155428e+00 -1.6041611001e-03 1.9969405861e+00 -3.4588025547e+00 1.9969405861e+00 3.4588025547e+00 
27800 6.6648268890e+00 -1.3760169734e-03 1.9969807517e+00 -3.4588721236e+00 1.9969807517e+00 3.4588721236e+00 
27900 6.6648378884e+00 -1.1497947870e-03 1.9970152042e+00 -3.4589317971e+00 1.9970152042e+00 3.4589317971e+00 
28000 6.6648484970e+00 -9.2584915092e-04 1.9970439921e+00 -3.4589816593e+00 1.9970439921e+00 3.4589816593e+00 
28100 6.6648586751e+00 -7.0452227306e-04 1.9970671726e+00 -3.4590218091e+00 1.9970671726e+00 3.4590218091e+00 
28200 6.6648683874e+00 -4.8614367515e-04 1.9970848116e+00 -3.4590523607e+00 1.9970848116e+00 3.4590523607e+00 
28300 6.6648776028e+00 -2.7102993551e-04 1.9970969829e+00 -3.4590734421e+00 1.9970969829e+00 3.4590734421e+00 
28400 6.6648862950e+00 -5.9484458918e-05 1.9971037685e+00 -3.4590851951e+00 1.9971037685e+00 3.4590851951e+00 
28500 6.6648944411e+00 1.4703483933e-04 1.9971037685e+00 -3.4590851951e+00 1.9971037685e+00 3.4590851951e+00 
28600 6.6649020237e+00 3.5060388008e-04 1.9971000873e+00 -3.4590788190e+00 1.9971000873e+00 3.4590788190e+00 
28700 6.6649090293e+00 5.4977484355e-04 1.9970913095e+00 -3.4590636154e+00 1.9970913095e+00 3.4590636154e+00 
28800 6.6649154482e+00 7.4429881928e-04 1.9970775451e+00 -3.4590397748e+00 1.9970775451e+00 3.4590397748e+00 
28900 6.6649212748e+00 9.3394081842e-04 1.9970589105e+00 -3.4590074986e+00 1.9970589105e+00 3.4590074986e+00 
29000 6.6649265074e+00 1.1184798448e-03 1.9970355276e+00 -3.4589669983e+00 1.9970355276e+00 3.4589669983e+00 
29100 6.6649311477e+00 1.2977089401e-03 1.9970075242e+00 -3.4589184949e+00 1.9970075242e+00 3.4589184949e+00 
29200 6.6649352012e+00 1.4714352045e-03 1.9969750329e+00 -3.4588622184e+00 1.9969750329e+00 3.4588622184e+00 
29300 6.6649386765e+00 1.6394797916e-03 1.9969381914e+00 -3.4587984071e+00 1.9969381914e+00 3.4587984071e+00 
29400 6.6649415852e+00 1.8016778801e-03 1.9968971417e+00 -3.4587273070e+00 1.9968971417e+00 3.4587273070e+00 
29500 6.6649439421e+00 1.9578786208e-03 1.9968520300e+00 -3.4586491711e+00 1.9968520300e+00 3.4586491711e+00 
29600 6.6649457644e+00 2.1079450611e-03 1.9968030060e+00 -3.4585642591e+00 1.9968030060e+00 3.4585642591e+00 
29700 6.6649470717e+00 2.2517540466e-03 1.9967502233e+00 -3.4584728367e+00 1.9967502233e+00 3.4584728367e+00 
29800 6.6649478859e+00 2.3891961009e-03 1.9966938381e+00 -3.4583751747e+00 1.9966938381e+00 3.4583751747e+00 
29900 6.6649482309e+00 2.5201752845e-03 1.9966340095e+00 -3.4582715487e+00 1.9966340095e+00 3.4582715487e+00 
30000 6.6649481323e+00 2.6446090323e-03 1.9965708993e+00 -3.4581622385e+00 1.9965708993e+00 3.4581622385e+00 
30100 6.6649476171e+00 2.7624279729e-03 1.9965046709e+00 -3.4580475275e+00 1.9965046709e+00 3.4580475275e+00 
30200 6.6649467135e+00 2.8735757272e-03 1.9964354897e+00 -3.4579277021e+00 1.9964354897e+00 3.4579277021e+00 
30300 6.6649454510e+00 2.9780086903e-03 1.9963635224e+00 -3.4578030512e+00 1.9963635224e+00 3.4578030512e+00 
30400 6.6649438597e+00 3.0756957954e-03 1.9962889371e+00 -3.4576738656e+00 1.9962889371e+00 3.4576738656e+00 
30500 6.6649419701e+00 3.1666182616e-03 1.9962119022e+00 -3.4575404373e+00 1.9962119022e+00 3.4575404373e+00 
30600 6.6649398134e+00 3.2507693256e-03 1.9961325871e+00 -3.4574030595e+00 1.9961325871e+00 3.4574030595e+00 
30700 6.6649374206e+00 3.3281539597e-03 1.9960511609e+00 -3.4572620253e+00 1.9960511609e+00 3.4572620253e+00 
30800 6.6649348229e+00 3.3987885750e-03 1.9959677931e+00 -3.4571176279e+00 1.9959677931e+00 3.4571176279e+00 
30900 6.6649320511e+00 3.4627007125e-03 1.9958826523e+00 -3.4569701597e+00 1.9958826523e+00 3.4569701597e+00 
31000 6.6649291357e+00 3.5199287219e-03 1.9957959068e+00 -3.4568199122e+00 1.9957959068e+00 3.4568199122e+00 
31100 6.6649261064e+00 3.5705214295e-03 1.9957077239e+00 -3.4566671748e+00 1.9957077239e+00 3.4566671748e+00 
31200 6.6649229922e+00 3.6145377960e-03 1.9956182695e+00 -3.4565122354e+00 1.9956182695e+00 3.4565122354e+00 
31300 6.6649198213e+00 3.6520465652e-03 1.9955277084e+00 -3.4563553788e+00 1.9955277084e+00 3.4563553788e+00 
31400 6.6649166208e+00 3.6831259042e-03 1.9954362033e+00 -3.4561968874e+00 1.9954362033e+00 3.4561968874e+00 
31500 6.6649134165e+00 3.7078630366e-03 1.9953439153e+00 -3.4560370398e+00 1.9953439153e+00 3.4560370398e+00 
31600 6.6649102331e+00 3.7263538689e-03 1.9952510031e+00 -3.4558761112e+00 1.9952510031e+00 3.4558761112e+00 
31700 6.6649070939e+00 3.7387026117e-03 1.9951576233e+00 -3.4557143726e+00 1.9951576233e+00 3.4557143726e+00 
31800 6.6649040206e+00 3.7450213956e-03 1.9950639296e+00 -3.4555520904e+00 1.9950639296e+00 3.4555520904e+00 
31900 6.6649010336e+00 3.7454298843e-03 1.9949700731e+00 -3.4553895262e+00 1.9949700731e+00 3.4553895262e+00 
32000 6.6648981515e+00 3.7400548833e-03 1.9948762020e+00 -3.4552269367e+00 1.9948762020e+00 3.4552269367e+00 
32100 6.6648953915e+00 3.7290299475e-03 1.9947824612e+00 -3.4550645729e+00 1.9947824612e+00 3.4550645729e+00 
32200 6.6648927688e+00 3.7124949872e-03 1.9946889924e+00 -3.4549026801e+00 1.9946889924e+00 3.4549026801e+00 
32300 6.6648902974e+00 3.6905958729e-03 1.9945959336e+00 -3.4547414976e+00 1.9945959336e+00 3.4547414976e+00 
32400 6.6648879892e+00 3.6634840408e-03 1.9945034194e+00 -3.4545812584e+00 1.9945034194e+00 3.4545812584e+00 
32500 6.6648858546e+00 3.6313160990e-03 1.9944115807e+00 -3.4544221889e+00 1.9944115807e+00 3.4544221889e+00 
32600 6.6648839023e+00 3.5942534352e-03 1.9943205441e+00 -3.4542645089e+00 1.9943205441e+00 3.4542645089e+00 
32700 6.6648821394e+00 3.5524618266e-03 1.9942304325e+00 -3.4541084311e+00 1.9942304325e+00 3.4541084311e+00 
32800 6.6648805713e+00 3.5061110523e-03 1.9941413647e+00 -3.4539541611e+00 1.9941413647e+00 3.4539541611e+00 
32900 6.6648792019e+00 3.4553745102e-03 1.9940534550e+00 -3.4538018971e+00 1.9940534550e+00 3.4538018971e+00 
33000 6.6648780336e+00 3.4004288365e-03 1.9939668137e+00 -3.4536518299e+00 1.9939668137e+00 3.4536518299e+00 
33100 6.6648770672e+00 3.3414535310e-03 1.9938815464e+00 -3.4535041426e+00 1.9938815464e+00 3.4535041426e+00 
33200 6.6648763023e+00 3.2786305870e-03 1.9937977543e+00 -3.4533590104e+00 1.9937977543e+00 3.4533590104e+00 
33300 6.6648757370e+00 3.2121441270e-03 1.9937155341e+00 -3.4532166009e+00 1.9937155341e+00 3.4532166009e+00 
33400 6.6648753682e+00 3.1421800442e-03 1.9936349779e+00 -3.4530770735e+00 1.9936349779e+00 3.4530770735e+00 
33500 6.6648751917e+00 3.0689256509e-03 1.9935561731e+00 -3.4529405796e+00 1.9935561731e+00 3.4529405796e+00 
33600 6.6648752020e+00 2.9925693338e-03 1.9934792025e+00 -3.4528072625e+00 1.9934792025e+00 3.4528072625e+00 
33700 6.6648753929e+00 2.9133002164e-03 1.9934041440e+00 -3.4526772574e+00 1.9934041440e+00 3.4526772574e+00 
33800 6.6648757571e+00 2.8313078294e-03 1.9933310709e+00 -3.4525506912e+00 1.9933310709e+00 3.4525506912e+00 
33900 6.6648762865e+00 2.7467817891e-03 1.9932600519e+00 -3.4524276825e+00 1.9932600519e+00 3.4524276825e+00 
34000 6.6648769721e+00 2.6599114839e-03 1.9931911505e+00 -3.4523083419e+00 1.9931911505e+00 3.4523083419e+00 
34100 6.6648778046e+00 2.5708857696e-03 1.9931244259e+00 -3.4521927715e+00 1.9931244259e+00 3.4521927715e+00 
34200 6.6648787739e+00 2.4798926736e-03 1.9930599324e+00 -3.4520810655e+00 1.9930599324e+00 3.4520810655e+00 
34300 6.6648798696e+00 2.3871191084e-03 1.9929977196e+00 -3.4519733096e+00 1.9929977196e+00 3.4519733096e+00 
34400 6.6648810807e+00 2.2927505937e-03 1.9929378322e+00 -3.4518695817e+00 1.9929378322e+00 3.4518695817e+00 
34500 6.6648823961e+00 2.1969709889e-03 1.9928803106e+00 -3.4517699514e+00 1.9928803106e+00 3.4517699514e+00 
34600 6.6648838045e+00 2.0999622347e-03 1.9928251904e+00 -3.4516744803e+00 1.9928251904e+00 3.4516744803e+00 
34700 6.6648852945e+00 2.0019041049e-03 1.9927725025e+00 -3.4515832223e+00 1.9927725025e+00 3.4515832223e+00 
34800 6.6648868546e+00 1.9029739671e-03 1.9927222736e+00 -3.4514962233e+00 1.9927222736e+00 3.4514962233e+00 
34900 6.6648884732e+00 1.8033465553e-03 1.9926745257e+00 -3.4514135215e+00 1.9926745257e+00 3.4514135215e+00 
35000 6.6648901392e+00 1.7031937505e-03 1.9926292765e+00 -3.4513351475e+00 1.9926292765e+00 3.4513351475e+00 
35100 6.6648918413e+00 1.6026843730e-03 1.9925865393e+00 -3.4512611245e+00 1.9925865393e+00 3.4512611245e+00 
35200 6.6648935687e+00 1.5019839843e-03 1.9925463232e+00 -3.4511914683e+00 1.9925463232e+00 3.4511914683e+00 
35300 6.6648953107e+00 1.4012546988e-03 1.9925086333e+00 -3.4511261874e+00 1.9925086333e+00 3.4511261874e+00 
35400 6.6648970572e+00 1.3006550069e-03 1.9924734703e+00 -3.4510652833e+00 1.9924734703e+00 3.4510652833e+00 
35500 6.6648987983e+00 1.2003396069e-03 1.9924408312e+00 -3.4510087507e+00 1.9924408312e+00 3.4510087507e+00 
35600 6.6649005246e+00 1.1004592486e-03 1.9924107089e+00 -3.4509565774e+00 1.9924107089e+00 3.4509565774e+00 
35700 6.6649022272e+00 1.0011605856e-03 1.9923830927e+00 -3.4509087447e+00 1.9923830927e+00 3.4509087447e+00 
35800 6.6649038978e+00 9.0258603884e-04 1.9923579681e+00 -3.4508652276e+00 1.9923579681e+00 3.4508652276e+00 
35900 6.6649055286e+00 8.0487366951e-04 1.9923353169e+00 -3.4508259946e+00 1.9923353169e+00 3.4508259946e+00 
36000 6.6649071124e+00 7.0815706250e-04 1.9923151177e+00 -3.4507910086e+00 1.9923151177e+00 3.4507910086e+00 
36100 6.6649086425e+00 6.1256521922e-04 1.9922973455e+00 -3.4507602262e+00 1.9922973455e+00 3.4507602262e+00 
36200 6.6649101129e+00 5.1822246057e-04 1.9922819722e+00 -3.4507335988e+00 1.9922819722e+00 3.4507335988e+00 
36300 6.6649115184e+00 4.2524833940e-04 1.9922689665e+00 -3.4507110723e+00 1.9922689665e+00 3.4507110723e+00 
36400 6.6649128540e+00 3.3375756264e-04 1.9922582940e+00 -3.4506925870e+00 1.9922582940e+00 3.4506925870e+00 
36500 6.6649141157e+00 2.4385992282e-04 1.9922499176e+00 -3.4506780787e+00 1.9922499176e+00 3.4506780787e+00 
36600 6.6649153001e+00 1.5566023891e-04 1.9922437974e+00 -3.4506674782e+00 1.9922437974e+00 3.4506674782e+00 
36700 6.6649164042e+00 6.9258306261e-05 1.9922398908e+00 -3.4506607117e+00 1.9922398908e+00 3.4506607117e+00 
36800 6.6649174256e+00 -1.3874409911e-05 1.9922398908e+00 -3.4506607117e+00 1.9922398908e+00 3.4506607117e+00 
36900 6.6649183628e+00 -9.6697803091e-05 1.9922398908e+00 -3.4506607117e+00 1.9922398908e+00 3.4506607117e+00 
37000 6.6649192148e+00 -1.7717410053e-04 1.9922423176e+00 -3.4506649151e+00 1.9922423176e+00 3.4506649151e+00 
37100 6.6649199810e+00 -2.5550392632e-04 1.9922467642e+00 -3.4506726169e+00 1.9922467642e+00 3.4506726169e+00 
37200 6.6649206616e+00 -3.3161307397e-04 1.9922531767e+00 -3.4506837236e+00 1.9922531767e+00 3.4506837236e+00 
37300 6.6649212570e+00 -4.0543247683e-04 1.9922614993e+00 -3.4506981387e+00 1.9922614993e+00 3.4506981387e+00 
37400 6.6649217684e+00 -4.7689819899e-04 1.9922716745e+00 -3.4507157627e+00 1.9922716745e+00 3.4507157627e+00 
37500 6.6649221971e+00 -5.4595141840e-04 1.9922836432e+00 -3.4507364931e+00 1.9922836432e+00 3.4507364931e+00 
37600 6.6649225452e+00 -6.1253840257e-04 1.9922973448e+00 -3.4507602251e+00 1.9922973448e+00 3.4507602251e+00 
37700 6.6649228149e+00 -6.7661047691e-04 1.9923127175e+00 -3.4507868513e+00 1.9923127175e+00 3.4507868513e+00 
37800 6.6649230090e+00 -7.3812398617e-04 1.9923296981e+00 -3.4508162625e+00 1.9923296981e+00 3.4508162625e+00 
37900 6.6649231304e+00 -7.9704024888e-04 1.9923482223e+00 -3.4508483473e+00 1.9923482223e+00 3.4508483473e+00 
38000 6.6649231825e+00 -8.5332550532e-04 1.9923682248e+00 -3.4508829928e+00 1.9923682248e+00 3.4508829928e+00 
38100 6.6649231690e+00 -9.0695085912e-04 1.9923896397e+00 -3.4509200845e+00 1.9923896397e+00 3.4509200845e+00 
38200 6.6649230935e+00 -9.5789221259e-04 1.9924124001e+00 -3.4509595067e+00 1.9924124001e+00 3.4509595067e+00 
38300 6.6649229601e+00 -1.0061301964e-03 1.9924364387e+00 -3.4510011427e+00 1.9924364387e+00 3.4510011427e+00 
38400 6.6649227730e+00 -1.0516500931e-03 1.9924616875e+00 -3.4510448749e+00 1.9924616875e+00 3.4510448749e+00 
38500 6.6649225366e+00 -1.0944417563e-03 1.9924880783e+00 -3.4510905850e+00 1.9924880783e+00 3.4510905850e+00 
38600 6.6649222551e+00 -1.1344995230e-03 1.9925155425e+00 -3.4511381545e+00 1.9925155425e+00 3.4511381545e+00 
38700 6.6649219331e+00 -1.1718221227e-03 1.9925440116e+00 -3.4511874644e+00 1.9925440116e+00 3.4511874644e+00 
38800 6.6649215751e+00 -1.2064125808e-03 1.9925734169e+00 -3.4512383958e+00 1.9925734169e+00 3.4512383958e+00 
38900 6.6649211855e+00 -1.2382781177e-03 1.9926036897e+00 -3.4512908299e+00 1.9926036897e+00 3.4512908299e+00 
39000 6.6649207689e+00 -1.2674300440e-03 1.9926347616e+00 -3.4513446480e+00 1.9926347616e+00 3.4513446480e+00 
39100 6.6649203297e+00 -1.2938836516e-03 1.9926665646e+00 -3.4513997324e+00 1.9926665646e+00 3.4513997324e+00 
39200 6.6649198722e+00 -1.3176581012e-03 1.9926990308e+00 -3.4514559655e+00 1.9926990308e+00 3.4514559655e+00 
39300 6.6649194008e+00 -1.3387763061e-03 1.9927320930e+00 -3.4515132310e+00 1.9927320930e+00 3.4515132310e+00 
39400 6.6649189195e+00 -1.3572648130e-03 1.9927656846e+00 -3.4515714133e+00 1.9927656846e+00 3.4515714133e+00 
39500 6.6649184323e+00 -1.3731536801e-03 1.9927997395e+00 -3.4516303981e+00 1.9927997395e+00 3.4516303981e+00 
39600 6.6649179432e+00 -1.3864763518e-03 1.9928341925e+00 -3.4516900724e+00 1.9928341925e+00 3.4516900724e+00 
39700 6.6649174558e+00 -1.3972695316e-03 1.9928689791e+00 -3.4517503247e+00 1.9928689791e+00 3.4517503247e+00 
39800 6.6649169735e+00 -1.4055730529e-03 1.9929040360e+00 -3.4518110449e+00 1.9929040360e+00 3.4518110449e+00 
39900 6.6649164996e+00 -1.4114297469e-03 1.9929393005e+00 -3.4518721249e+00 1.9929393005e+00 3.4518721249e+00 
40000 6.6649160372e+00 -1.4148853097e-03 1.9929747114e+00 -3.4519334583e+00 1.9929747114e+00 3.4519334583e+00 
40100 6.6649155892e+00 -1.4159881675e-03 1.9930102083e+00 -3.4519949408e+00 1.9930102083e+00 3.4519949408e+00 
40200 6.6649151582e+00 -1.4147893407e-03 1.9930457323e+00 -3.4520564701e+00 1.9930457323e+00 3.4520564701e+00 
40300 6.6649147465e+00 -1.4113423068e-03 1.9930812255e+00 -3.4521179462e+00 1.9930812255e+00 3.4521179462e+00 
40400 6.6649143564e+00 -1.4057028626e-03 1.9931166317e+00 -3.4521792714e+00 1.9931166317e+00 3.4521792714e+00 
40500 6.6649139896e+00 -1.3979289858e-03 1.9931518957e+00 -3.4522403505e+00 1.9931518957e+00 3.4522403505e+00 
40600 6.6649136480e+00 -1.3880806964e-03 1.9931869641e+00 -3.4523010908e+00 1.9931869641e+00 3.4523010908e+00 
40700 6.6649133328e+00 -1.3762199175e-03 1.9932217848e+00 -3.4523614021e+00 1.9932217848e+00 3.4523614021e+00 
40800 6.6649130453e+00 -1.3624103369e-03 1.9932563074e+00 -3.4524211970e+00 1.9932563074e+00 3.4524211970e+00 
40900 6.6649127866e+00 -1.3467172685e-03 1.9932904830e+00 -3.4524803908e+00 1.9932904830e+00 3.4524803908e+00 
41000 6.6649125571e+00 -1.3292075139e-03 1.9933242644e+00 -3.4525389019e+00 1.9933242644e+00 3.4525389019e+00 
41100 6.6649123576e+00 -1.3099492259e-03 1.9933576059e+00 -3.4525966512e+00 1.9933576059e+00 3.4525966512e+00 
41200 6.6649121883e+00 -1.2890117711e-03 1.9933904639e+00 -3.4526535628e+00 1.9933904639e+00 3.4526535628e+00 
41300 6.6649120493e+00 -1.2664655954e-03 1.9934227961e+00 -3.4527095639e+00 1.9934227961e+00 3.4527095639e+00 
41400 6.6649119404e+00 -1.2423820895e-03 1.9934545623e+00 -3.4527645845e+00 1.9934545623e+00 3.4527645845e+00 
41500 6.6649118614e+00 -1.2168334563e-03 1.9934857239e+00 -3.4528185580e+00 1.9934857239e+00 3.4528185580e+00 
41600 6.6649118117e+00 -1.1898925802e-03 1.9935162443e+00 -3.4528714208e+00 1.9935162443e+00 3.4528714208e+00 
41700 6.6649117908e+00 -1.1616328974e-03 1.9935460884e+00 -3.4529231123e+00 1.9935460884e+00 3.4529231123e+00 
41800 6.6649117978e+00 -1.1321282690e-03 1.9935752233e+00 -3.4529735755e+00 1.9935752233e+00 3.4529735755e+00 
41900 6.6649118319e+00 -1.1014528559e-03 1.9936036178e+00 -3.4530227562e+00 1.9936036178e+00 3.4530227562e+00 
42000 6.6649118918e+00 -1.0696809957e-03 1.9936312425e+00 -3.4530706036e+00 1.9936312425e+00 3.4530706036e+00 
42100 6.6649119765e+00 -1.0368870821e-03 1.9936580700e+00 -3.4531170702e+00 1.9936580700e+00 3.4531170702e+00 
42200 6.6649120847e+00 -1.0031454475e-03 1.9936840747e+00 -3.4531621117e+00 1.9936840747e+00 3.4531621117e+00 
42300 6.6649122150e+00 -9.6853024704e-04 1.9937092329e+00 -3.4532056869e+00 1.9937092329e+00 3.4532056869e+00 
42400 6.6649123658e+00 -9.3311534671e-04 1.9937335226e+00 -3.4532477579e+00 1.9937335226e+00 3.4532477579e+00 
42500 6.6649125358e+00 -8.9697421343e-04 1.9937569238e+00 -3.4532882900e+00 1.9937569238e+00 3.4532882900e+00 
42600 6.6649127233e+00 -8.6017980865e-04 1.9937794184e+00 -3.4533272518e+00 1.9937794184e+00 3.4533272518e+00 
42700 6.6649129267e+00 -8.2280448493e-04 1.9938009901e+00 -3.4533646150e+00 1.9938009901e+00 3.4533646150e+00 
42800 6.6649131443e+00 -7.8491988573e-04 1.9938216242e+00 -3.4534003543e+00 1.9938216242e+00 3.4534003543e+00 
42900 6.6649133745e+00 -7.4659684859e-04 1.9938413080e+00 -3.4534344477e+00 1.9938413080e+00 3.4534344477e+00 
43000 6.6649136156e+00 -7.0790531162e-04 1.9938600306e+00 -3.4534668762e+00 1.9938600306e+00 3.4534668762e+00 
43100 6.6649138660e+00 -6.6891422357e-04 1.9938777828e+00 -3.4534976239e+00 1.9938777828e+00 3.4534976239e+00 
43200 6.6649141240e+00 -6.2969145732e-04 1.9938945570e+00 -3.4535266777e+00 1.9938945570e+00 3.4535266777e+00 
43300 6.6649143879e+00 -5.9030372707e-04 1.9939103475e+00 -3.4535540276e+00 1.9939103475e+00 3.4535540276e+00 
43400 6.6649146562e+00 -5.5081650920e-04 1.9939251502e+00 -3.4535796666e+00 1.9939251502e+00 3.4535796666e+00 
43500 6.6649149274e+00 -5.1129396675e-04 1.9939389626e+00 -3.4536035904e+00 1.9939389626e+00 3.4536035904e+00 
43600 6.6649151999e+00 -4.7179887772e-04 1.9939517838e+00 -3.4536257974e+00 1.9939517838e+00 3.4536257974e+00 
43700 6.6649154722e+00 -4.3239256717e-04 1.9939636146e+00 -3.4536462889e+00 1.9939636146e+00 3.4536462889e+00 
43800 6.6649157431e+00 -3.9313484305e-04 1.9939744571e+00 -3.4536650687e+00 1.9939744571e+00 3.4536650687e+00 
43900 6.6649160111e+00 -3.5408393600e-04 1.9939843152e+00 -3.4536821434e+00 1.9939843152e+00 3.4536821434e+00 
44000 6.6649162751e+00 -3.1529644281e-04 1.9939931940e+00 -3.4536975220e+00 1.9939931940e+00 3.4536975220e+00 
44100 6.6649165339e+00 -2.7682727394e-04 1.9940011002e+00 -3.4537112158e+00 1.9940011002e+00 3.4537112158e+00 
44200 6.6649167864e+00 -2.3872960472e-04 1.9940080417e+00 -3.4537232389e+00 1.9940080417e+00 3.4537232389e+00 
44300 6.6649170315e+00 -2.0105483053e-04 1.9940140278e+00 -3.4537336072e+00 1.9940140278e+00 3.4537336072e+00 
44400 6.6649172685e+00 -1.6385252574e-04 1.9940190693e+00 -3.4537423393e+00 1.9940190693e+00 3.4537423393e+00 
44500 6.6649174965e+00 -1.2717040650e-04 1.9940231779e+00 -3.4537494556e+00 1.9940231779e+00 3.4537494556e+00 
44600 6.6649177147e+00 -9.1054297326e-05 1.9940263667e+00 -3.4537549788e+00 1.9940263667e+00 3.4537549788e+00 
44700 6.6649179225e+00 -5.5548101465e-05 1.9940286499e+00 -3.4537589333e+00 1.9940286499e+00 3.4537589333e+00 
44800 6.6649181194e+00 -2.1793128031e-05 1.9940286499e+00 -3.4537589333e+00 1.9940286499e+00 3.4537589333e+00 
44900 6.6649183047e+00 1.1953950760e-05 1.9940286499e+00 -3.4537589333e+00 1.9940286499e+00 3.4537589333e+00 
45000 6.6649184783e+00 4.5644849079e-05 1.9940286499e+00 -3.4537589333e+00 1.9940286499e+00 3.4537589333e+00 
45100 6.6649186400e+00 7.9232663439e-05 1.9940286499e+00 -3.4537589333e+00 1.9940286499e+00 3.4537589333e+00 
45200 6.6649187894e+00 1.1110358754e-04 1.9940266631e+00 -3.4537554922e+00 1.9940266631e+00 3.4537554922e+00 
45300 6.6649189263e+00 1.4214265089e-04 1.9940238772e+00 -3.4537506668e+00 1.9940238772e+00 3.4537506668e+00 
45400 6.6649190509e+00 1.7231992828e-04 1.9940203130e+00 -3.4537444934e+00 1.9940203130e+00 3.4537444934e+00 
45500 6.6649191630e+00 2.0160752225e-04 1.9940159921e+00 -3.4537370094e+00 1.9940159921e+00 3.4537370094e+00 
45600 6.6649192629e+00 2.2997956103e-04 1.9940109368e+00 -3.4537282533e+00 1.9940109368e+00 3.4537282533e+00 
45700 6.6649193507e+00 2.5741219326e-04 1.9940051700e+00 -3.4537182650e+00 1.9940051700e+00 3.4537182650e+00 
45800 6.6649194266e+00 2.8388357962e-04 1.9939987154e+00 -3.4537070852e+00 1.9939987154e+00 3.4537070852e+00 
45900 6.6649194908e+00 3.0937388142e-04 1.9939915969e+00 -3.4536947557e+00 1.9939915969e+00 3.4536947557e+00 
46000 6.6649195439e+00 3.3386524629e-04 1.9939838393e+00 -3.4536813191e+00 1.9939838393e+00 3.4536813191e+00 
46100 6.6649195861e+00 3.5734179094e-04 1.9939754675e+00 -3.4536668187e+00 1.9939754675e+00 3.4536668187e+00 
46200 6.6649196180e+00 3.7978958126e-04 1.9939665069e+00 -3.4536512986e+00 1.9939665069e+00 3.4536512986e+00 
46300 6.6649196399e+00 4.0119660965e-04 1.9939569835e+00 -3.4536348035e+00 1.9939569835e+00 3.4536348035e+00 
46400 6.6649196524e+00 4.2155276991e-04 1.9939469232e+00 -3.4536173785e+00 1.9939469232e+00 3.4536173785e+00 
46500 6.6649196561e+00 4.4084982955e-04 1.9939363524e+00 -3.4535990694e+00 1.9939363524e+00 3.4535990694e+00 
46600 6.6649196516e+00 4.5908139981e-04 1.9939252976e+00 -3.4535799220e+00 1.9939252976e+00 3.4535799220e+00 
46700 6.6649196393e+00 4.7624290345e-04 1.9939137856e+00 -3.4535599826e+00 1.9939137856e+00 3.4535599826e+00 
46800 6.6649196201e+00 4.9233154027e-04 1.9939018432e+00 -3.4535392978e+00 1.9939018432e+00 3.4535392978e+00 
46900 6.6649195944e+00 5.0734625074e-04 1.9938894973e+00 -3.4535179140e+00 1.9938894973e+00 3.4535179140e+00 
47000 6.6649195629e+00 5.2128767755e-04 1.9938767748e+00 -3.4534958780e+00 1.9938767748e+00 3.4534958780e+00 
47100 6.6649195263e+00 5.3415812544e-04 1.9938637026e+00 -3.4534732363e+00 1.9938637026e+00 3.4534732363e+00 
47200 6.6649194851e+00 5.4596151925e-04 1.9938503076e+00 -3.4534500354e+00 1.9938503076e+00 3.4534500354e+00 
47300 6.6649194401e+00 5.5670336035e-04 1.9938366164e+00 -3.4534263217e+00 1.9938366164e+00 3.4534263217e+00 
47400 6.6649193918e+00 5.6639068164e-04 1.9938226558e+00 -3.4534021412e+00 1.9938226558e+00 3.4534021412e+00 
47500 6.6649193409e+00 5.7503200106e-04 1.9938084522e+00 -3.4533775398e+00 1.9938084522e+00 3.4533775398e+00 
47600 6.6649192879e+00 5.8263727387e-04 1.9937940318e+00 -3.4533525629e+00 1.9937940318e+00 3.4533525629e+00 
47700 6.6649192334e+00 5.8921784376e-04 1.9937794205e+00 -3.4533272555e+00 1.9937794205e+00 3.4533272555e+00 
47800 6.6649191781e+00 5.9478639285e-04 1.9937646442e+00 -3.4533016620e+00 1.9937646442e+00 3.4533016620e+00 
47900 6.6649191223e+00 5.9935689075e-04 1.9937497280e+00 -3.4532758265e+00 1.9937497280e+00 3.4532758265e+00 
48000 6.6649190667e+00 6.0294454279e-04 1.9937346971e+00 -3.4532497923e+00 1.9937346971e+00 3.4532497923e+00 
48100 6.6649190117e+00 6.0556573744e-04 1.9937195762e+00 -3.4532236020e+00 1.9937195762e+00 3.4532236020e+00 
48200 6.6649189577e+00 6.0723799312e-04 1.9937043894e+00 -3.4531972977e+00 1.9937043894e+00 3.4531972977e+00 
48300 6.6649189052e+00 6.0797990442e-04 1.9936891605e+00 -3.4531709205e+00 1.9936891605e+00 3.4531709205e+00 
48400 6.6649188547e+00 6.0781108796e-04 1.9936739129e+00 -3.4531445109e+00 1.9936739129e+00 3.4531445109e+00 
48500 6.6649188063e+00 6.0675212779e-04 1.9936586694e+00 -3.4531181084e+00 1.9936586694e+00 3.4531181084e+00 
48600 6.6649187605e+00 6.0482452063e-04 1.9936434524e+00 -3.4530917517e+00 1.9936434524e+00 3.4530917517e+00 
48700 6.6649187176e+00 6.0205062086e-04 1.9936282836e+00 -3.4530654786e+00 1.9936282836e+00 3.4530654786e+00 
48800 6.6649186777e+00 5.9845358556e-04 1.9936131842e+00 -3.4530393258e+00 1.9936131842e+00 3.4530393258e+00 
48900 6.6649186412e+00 5.9405731945e-04 1.9935981750e+00 -3.4530133290e+00 1.9935981750e+00 3.4530133290e+00 
49000 6.6649186083e+00 5.8888642004e-04 1.9935832759e+00 -3.4529875230e+00 1.9935832759e+00 3.4529875230e+00 
49100 6.6649185790e+00 5.8296612292e-04 1.9935685064e+00 -3.4529619414e+00 1.9935685064e+00 3.4529619414e+00 
49200 6.6649185535e+00 5.7632224736e-04 1.9935538852e+00 -3.4529366168e+00 1.9935538852e+00 3.4529366168e+00 
49300 6.6649185319e+00 5.6898114228e-04 1.9935394306e+00 -3.4529115807e+00 1.9935394306e+00 3.4529115807e+00 
49400 6.6649185143e+00 5.6096963261e-04 1.9935251600e+00 -3.4528868632e+00 1.9935251600e+00 3.4528868632e+00 
49500 6.6649185007e+00 5.5231496619e-04 1.9935110902e+00 -3.4528624937e+00 1.9935110902e+00 3.4528624937e+00 
49600 6.6649184911e+00 5.4304476133e-04 1.9934972374e+00 -3.4528384999e+00 1.9934972374e+00 3.4528384999e+00 
49700 6.6649184854e+00 5.3318695489e-04 1.9934836170e+00 -3.4528149087e+00 1.9934836170e+00 3.4528149087e+00 
49800 6.6649184837e+00 5.2276975121e-04 1.9934702438e+00 -3.4527917456e+00 1.9934702438e+00 3.4527917456e+00 
49900 6.6649184859e+00 5.1182157172e-04 1.9934571317e+00 -3.4527690349e+00 1.9934571317e+00 3.4527690349e+00 
50000 6.6649184918e+00 5.0037100552e-04 1.9934442942e+00 -3.4527467996e+00 1.9934442942e+00 3.4527467996e+00 
50100 6.6649185014e+00 4.8844676076e-04 1.9934317438e+00 -3.4527250617e+00 1.9934317438e+00 3.4527250617e+00 
50200 6.6649185144e+00 4.7607761703e-04 1.9934194924e+00 -3.4527038417e+00 1.9934194924e+00 3.4527038417e+00 
50300 6.6649185309e+00 4.6329237879e-04 1.9934075512e+00 -3.4526831589e+00 1.9934075512e+00 3.4526831589e+00 
50400 6.6649185505e+00 4.5011982980e-04 1.9933959306e+00 -3.4526630314e+00 1.9933959306e+00 3.4526630314e+00 
50500 6.6649185732e+00 4.3658868871e-04 1.9933846403e+00 -3.4526434761e+00 1.9933846403e+00 3.4526434761e+00 
50600 6.6649185986e+00 4.2272756582e-04 1.9933736894e+00 -3.4526245085e+00 1.9933736894e+00 3.4526245085e+00 
50700 6.6649186267e+00 4.0856492097e-04 1.9933630861e+00 -3.4526061430e+00 1.9933630861e+00 3.4526061430e+00 
50800 6.6649186572e+00 3.9412902272e-04 1.9933528380e+00 -3.4525883928e+00 1.9933528380e+00 3.4525883928e+00 
50900 6.6649186899e+00 3.7944790878e-04 1.9933429519e+00 -3.4525712696e+00 1.9933429519e+00 3.4525712696e+00 
51000 6.6649187245e+00 3.6454934777e-04 1.9933334340e+00 -3.4525547842e+00 1.9933334340e+00 3.4525547842e+00 
51100 6.6649187609e+00 3.4946080221e-04 1.9933242898e+00 -3.4525389459e+00 1.9933242898e+00 3.4525389459e+00 
51200 6.6649187988e+00 3.3420939298e-04 1.9933155240e+00 -3.4525237632e+00 1.9933155240e+00 3.4525237632e+00 
51300 6.6649188380e+00 3.1882186514e-04 1.9933071408e+00 -3.4525092430e+00 1.9933071408e+00 3.4525092430e+00 
51400 6.6649188782e+00 3.0332455503e-04 1.9932991435e+00 -3.4524953912e+00 1.9932991435e+00 3.4524953912e+00 
51500 6.6649189193e+00 2.8774335898e-04 1.9932915349e+00 -3.4524822127e+00 1.9932915349e+00 3.4524822127e+00 
51600 6.6649189610e+00 2.7210370326e-04 1.9932843171e+00 -3.4524697112e+00 1.9932843171e+00 3.4524697112e+00 
51700 6.6649190031e+00 2.5643051564e-04 1.9932774916e+00 -3.4524578890e+00 1.9932774916e+00 3.4524578890e+00 
51800 6.6649190454e+00 2.4074819827e-04 1.9932710592e+00 -3.4524467478e+00 1.9932710592e+00 3.4524467478e+00 
51900 6.6649190876e+00 2.2508060210e-04 1.9932650202e+00 -3.4524362879e+00 1.9932650202e+00 3.4524362879e+00 
52000 6.6649191297e+00 2.0945100274e-04 1.9932593742e+00 -3.4524265087e+00 1.9932593742e+00 3.4524265087e+00 
52100 6.6649191714e+00 1.9388207781e-04 1.9932541202e+00 -3.4524174086e+00 1.9932541202e+00 3.4524174086e+00 
52200 6.6649192126e+00 1.7839588570e-04 1.9932492567e+00 -3.4524089848e+00 1.9932492567e+00 3.4524089848e+00 
52300 6.6649192530e+00 1.6301384590e-04 1.9932447817e+00 -3.4524012339e+00 1.9932447817e+00 3.4524012339e+00 
52400 6.6649192926e+00 1.4775672069e-04 1.9932406926e+00 -3.4523941513e+00 1.9932406926e+00 3.4523941513e+00 
52500 6.6649193312e+00 1.3264459831e-04 1.9932369861e+00 -3.4523877315e+00 1.9932369861e+00 3.4523877315e+00 
52600 6.6649193686e+00 1.1769687766e-04 1.9932336588e+00 -3.4523819683e+00 1.9932336588e+00 3.4523819683e+00 
52700 6.6649194048e+00 1.0293225431e-04 1.9932307064e+00 -3.4523768546e+00 1.9932307064e+00 3.4523768546e+00 
52800 6.6649194397e+00 8.8368708022e-05 1.9932281243e+00 -3.4523723824e+00 1.9932281243e+00 3.4523723824e+00 
52900 6.6649194731e+00 7.4023491659e-05 1.9932259076e+00 -3.4523685429e+00 1.9932259076e+00 3.4523685429e+00 
53000 6.6649195049e+00 5.9913121456e-05 1.9932240507e+00 -3.4523653267e+00 1.9932240507e+00 3.4523653267e+00 
53100 6.6649195353e+00 4.7241484066e-05 1.9932240507e+00 -3.4523653267e+00 1.9932240507e+00 3.4523653267e+00 
53200 6.6649195639e+00 3.4566869924e-05 1.9932240507e+00 -3.4523653267e+00 1.9932240507e+00 3.4523653267e+00 
53300 6.6649195908e+00 2.1907688053e-05 1.9932240507e+00 -3.4523653267e+00 1.9932240507e+00 3.4523653267e+00 
53400 6.6649196160e+00 9.2818045135e-06 1.9932240507e+00 -3.4523653267e+00 1.9932240507e+00 3.4523653267e+00 
53500 6.6649196394e+00 -3.2934684869e-06 1.9932240507e+00 -3.4523653267e+00 1.9932240507e+00 3.4523653267e+00 
53600 6.6649196611e+00 -1.5801382399e-05 1.9932240507e+00 -3.4523653267e+00 1.9932240507e+00 3.4523653267e+00 
53700 6.6649196811e+00 -2.8225761096e-05 1.9932240507e+00 -3.4523653267e+00 1.9932240507e+00 3.4523653267e+00 
53800 6.6649196993e+00 -4.0551008578e-05 1.9932240507e+00 -3.4523653267e+00 1.9932240507e+00 3.4523653267e+00 
53900 6.6649197160e+00 -5.2762115643e-05 1.9932240507e+00 -3.4523653267e+00 1.9932240507e+00 3.4523653267e+00 
54000 6.6649197310e+00 -6.4844665552e-05 1.9932240507e+00 -3.4523653267e+00 1.9932240507e+00 3.4523653267e+00 
54100 6.6649197444e+00 -7.6784838684e-05 1.9932240507e+00 -3.4523653267e+00 1.9932240507e+00 3.4523653267e+00 
54200 6.6649197562e+00 -8.7046949653e-05 1.9932259769e+00 -3.4523686629e+00 1.9932259769e+00 3.4523686629e+00 
54300 6.6649197664e+00 -9.6929395294e-05 1.9932281604e+00 -3.4523724449e+00 1.9932281604e+00 3.4523724449e+00 
54400 6.6649197752e+00 -1.0642622166e-04 1.9932305919e+00 -3.4523766564e+00 1.9932305919e+00 3.4523766564e+00 
54500 6.6649197825e+00 -1.1553220692e-04 1.9932332616e+00 -3.4523812804e+00 1.9932332616e+00 3.4523812804e+00 
54600 6.6649197885e+00 -1.2424285220e-04 1.9932361597e+00 -3.4523863001e+00 1.9932361597e+00 3.4523863001e+00 
54700 6.6649197933e+00 -1.3255437153e-04 1.9932392763e+00 -3.4523916982e+00 1.9932392763e+00 3.4523916982e+00 
54800 6.6649197968e+00 -1.4046368086e-04 1.9932426014e+00 -3.4523974575e+00 1.9932426014e+00 3.4523974575e+00 
54900 6.6649197993e+00 -1.4796838637e-04 1.9932461249e+00 -3.4524035603e+00 1.9932461249e+00 3.4524035603e+00 
55000 6.6649198007e+00 -1.5506677185e-04 1.9932498367e+00 -3.4524099893e+00 1.9932498367e+00 3.4524099893e+00 
55100 6.6649198012e+00 -1.6175778542e-04 1.9932537265e+00 -3.4524167266e+00 1.9932537265e+00 3.4524167266e+00 
55200 6.6649198008e+00 -1.6804102551e-04 1.9932577841e+00 -3.4524237546e+00 1.9932577841e+00 3.4524237546e+00 
55300 6.6649197997e+00 -1.7391672613e-04 1.9932619993e+00 -3.4524310556e+00 1.9932619993e+00 3.4524310556e+00 
55400 6.6649197979e+00 -1.7938574157e-04 1.9932663619e+00 -3.4524386119e+00 1.9932663619e+00 3.4524386119e+00 
55500 6.6649197956e+00 -1.8444953038e-04 1.9932708617e+00 -3.4524464058e+00 1.9932708617e+00 3.4524464058e+00 
55600 6.6649197927e+00 -1.8911013897e-04 1.9932754885e+00 -3.4524544196e+00 1.9932754885e+00 3.4524544196e+00 
55700 6.6649197895e+00 -1.9337018450e-04 1.9932802323e+00 -3.4524626360e+00 1.9932802323e+00 3.4524626360e+00 
55800 6.6649197859e+00 -1.9723283739e-04 1.9932850828e+00 -3.4524710374e+00 1.9932850828e+00 3.4524710374e+00 
55900 6.6649197820e+00 -2.0070180338e-04 1.9932900302e+00 -3.4524796066e+00 1.9932900302e+00 3.4524796066e+00 
56000 6.6649197780e+00 -2.0378130514e-04 1.9932950647e+00 -3.4524883265e+00 1.9932950647e+00 3.4524883265e+00 
56100 6.6649197739e+00 -2.0647606356e-04 1.9933001764e+00 -3.4524971802e+00 1.9933001764e+00 3.4524971802e+00 
56200 6.6649197697e+00 -2.0879127866e-04 1.9933053556e+00 -3.4525061509e+00 1.9933053556e+00 3.4525061509e+00 
56300 6.6649197656e+00 -2.1073261022e-04 1.9933105929e+00 -3.4525152222e+00 1.9933105929e+00 3.4525152222e+00 
56400 6.6649197616e+00 -2.1230615818e-04 1.9933158789e+00 -3.4525243778e+00 1.9933158789e+00 3.4525243778e+00 
56500 6.6649197577e+00 -2.1351844281e-04 1.9933212044e+00 -3.4525336018e+00 1.9933212044e+00 3.4525336018e+00 
56600 6.6649197541e+00 -2.1437638463e-04 1.9933265602e+00 -3.4525428784e+00 1.9933265602e+00 3.4525428784e+00 
56700 6.6649197507e+00 -2.1488728427e-04 1.9933319376e+00 -3.4525521922e+00 1.9933319376e+00 3.4525521922e+00 
56800 6.6649197477e+00 -2.1505880216e-04 1.9933373277e+00 -3.4525615283e+00 1.9933373277e+00 3.4525615283e+00 
56900 6.6649197450e+00 -2.1489893816e-04 1.9933427222e+00 -3.4525708717e+00 1.9933427222e+00 3.4525708717e+00 
57000 6.6649197427e+00 -2.1441601112e-04 1.9933481126e+00 -3.4525802082e+00 1.9933481126e+00 3.4525802082e+00 
57100 6.6649197408e+00 -2.1361863845e-04 1.9933534909e+00 -3.4525895237e+00 1.9933534909e+00 3.4525895237e+00 
57200 6.6649197394e+00 -2.1251571572e-04 1.9933588492e+00 -3.4525988045e+00 1.9933588492e+00 3.4525988045e+00 
57300 6.6649197384e+00 -2.1111639621e-04 1.9933641798e+00 -3.4526080373e+00 1.9933641798e+00 3.4526080373e+00 
57400 6.6649197379e+00 -2.0943007070e-04 1.9933694752e+00 -3.4526172094e+00 1.9933694752e+00 3.4526172094e+00 
57500 6.6649197380e+00 -2.0746634721e-04 1.9933747284e+00 -3.4526263081e+00 1.9933747284e+00 3.4526263081e+00 
57600 6.6649197385e+00 -2.0523503101e-04 1.9933799323e+00 -3.4526353215e+00 1.9933799323e+00 3.4526353215e+00 
57700 6.6649197396e+00 -2.0274610465e-04 1.9933850802e+00 -3.4526442380e+00 1.9933850802e+00 3.4526442380e+00 
57800 6.6649197411e+00 -2.0000970836e-04 1.9933901657e+00 -3.4526530463e+00 1.9933901657e+00 3.4526530463e+00 
57900 6.6649197432e+00 -1.9703612050e-04 1.9933951825e+00 -3.4526617357e+00 1.9933951825e+00 3.4526617357e+00 
58000 6.6649197458e+00 -1.9383573834e-04 1.9934001247e+00 -3.4526702959e+00 1.9934001247e+00 3.4526702959e+00 
58100 6.6649197489e+00 -1.9041905913e-04 1.9934049867e+00 -3.4526787170e+00 1.9934049867e+00 3.4526787170e+00 
58200 6.6649197525e+00 -1.8679666138e-04 1.9934097629e+00 -3.4526869897e+00 1.9934097629e+00 3.4526869897e+00 
58300 6.6649197566e+00 -1.8297918652e-04 1.9934144483e+00 -3.4526951050e+00 1.9934144483e+00 3.4526951050e+00 
58400 6.6649197611e+00 -1.7897732085e-04 1.9934190379e+00 -3.4527030544e+00 1.9934190379e+00 3.4527030544e+00 
58500 6.6649197660e+00 -1.7480177791e-04 1.9934235271e+00 -3.4527108299e+00 1.9934235271e+00 3.4527108299e+00 
58600 6.6649197714e+00 -1.7046328113e-04 1.9934279115e+00 -3.4527184240e+00 1.9934279115e+00 3.4527184240e+00 
58700 6.6649197771e+00 -1.6597254697e-04 1.9934321872e+00 -3.4527258296e+00 1.9934321872e+00 3.4527258296e+00 
58800 6.6649197832e+00 -1.6134026838e-04 1.9934363502e+00 -3.4527330401e+00 1.9934363502e+00 3.4527330401e+00 
58900 6.6649197897e+00 -1.5657709875e-04 1.9934403969e+00 -3.4527400494e+00 1.9934403969e+00 3.4527400494e+00 
59000 6.6649197964e+00 -1.5169363629e-04 1.9934443243e+00 -3.4527468517e+00 1.9934443243e+00 3.4527468517e+00 
59100 6.6649198034e+00 -1.4670040884e-04 1.9934481291e+00 -3.4527534418e+00 1.9934481291e+00 3.4527534418e+00 
59200 6.6649198107e+00 -1.4160785915e-04 1.9934518086e+00 -3.4527598150e+00 1.9934518086e+00 3.4527598150e+00 
59300 6.6649198181e+00 -1.3642633068e-04 1.9934553605e+00 -3.4527659669e+00 1.9934553605e+00 3.4527659669e+00 
59400 6.6649198257e+00 -1.3116605385e-04 1.9934587823e+00 -3.4527718938e+00 1.9934587823e+00 3.4527718938e+00 
59500 6.6649198335e+00 -1.2583713281e-04 1.9934620722e+00 -3.4527775921e+00 1.9934620722e+00 3.4527775921e+00 
59600 6.6649198414e+00 -1.2044953271e-04 1.9934652285e+00 -3.4527830588e+00 1.9934652285e+00 3.4527830588e+00 
59700 6.6649198494e+00 -1.1501306749e-04 1.9934682496e+00 -3.4527882916e+00 1.9934682496e+00 3.4527882916e+00 
59800 6.6649198574e+00 -1.0953738822e-04 1.9934711343e+00 -3.4527932881e+00 1.9934711343e+00 3.4527932881e+00 
59900 6.6649198655e+00 -1.0403197192e-04 1.9934738817e+00 -3.4527980467e+00 1.9934738817e+00 3.4527980467e+00 
60000 6.6649198736e+00 -9.8506110975e-05 1.9934764911e+00 -3.4528025662e+00 1.9934764911e+00 3.4528025662e+00 
60100 6.6649198816e+00 -9.2968903038e-05 1.9934789618e+00 -3.4528068456e+00 1.9934789618e+00 3.4528068456e+00 
60200 6.6649198896e+00 -8.7429241512e-05 1.9934812936e+00 -3.4528108844e+00 1.9934812936e+00 3.4528108844e+00 
60300 6.6649198974e+00 -8.1895806573e-05 1.9934834865e+00 -3.4528146826e+00 1.9934834865e+00 3.4528146826e+00 
60400 6.6649199052e+00 -7.6377056721e-05 1.9934855406e+00 -3.4528182404e+00 1.9934855406e+00 3.4528182404e+00 
60500 6.6649199128e+00 -7.0881220887e-05 1.9934874562e+00 -3.4528215584e+00 1.9934874562e+00 3.4528215584e+00 
60600 6.6649199203e+00 -6.5416291100e-05 1.9934892340e+00 -3.4528246377e+00 1.9934892340e+00 3.4528246377e+00 
60700 6.6649199278e+00 -6.1286259578e-05 1.9934892340e+00 -3.4528246377e+00 1.9934892340e+00 3.4528246377e+00 
60800 6.6649199349e+00 -5.7101704231e-05 1.9934892340e+00 -3.4528246377e+00 1.9934892340e+00 3.4528246377e+00 
60900 6.6649199419e+00 -5.2870561504e-05 1.9934892340e+00 -3.4528246377e+00 1.9934892340e+00 3.4528246377e+00 
61000 6.6649199486e+00 -4.8600606573e-05 1.9934892340e+00 -3.4528246377e+00 1.9934892340e+00 3.4528246377e+00 
61100 6.6649199551e+00 -4.4299446429e-05 1.9934892340e+00 -3.4528246377e+00 1.9934892340e+00 3.4528246377e+00 
61200 6.6649199613e+00 -3.9974513424e-05 1.9934892340e+00 -3.4528246377e+00 1.9934892340e+00 3.4528246377e+00 
61300 6.6649199672e+00 -3.5633059210e-05 1.9934892340e+00 -3.4528246377e+00 1.9934892340e+00 3.4528246377e+00 
61400 6.6649199729e+00 -3.1282149093e-05 1.9934892340e+00 -3.4528246377e+00 1.9934892340e+00 3.4528246377e+00 
61500 6.6649199783e+00 -2.6928656848e-05 1.9934892340e+00 -3.4528246377e+00 1.9934892340e+00 3.4528246377e+00 
61600 6.6649199834e+00 -2.2579259881e-05 1.9934892340e+00 -3.4528246377e+00 1.9934892340e+00 3.4528246377e+00 
61700 6.6649199882e+00 -1.8240434853e-05 1.9934892340e+00 -3.4528246377e+00 1.9934892340e+00 3.4528246377e+00 
61800 6.6649199927e+00 -1.3918453713e-05 1.9934892340e+00 -3.4528246377e+00 1.9934892340e+00 3.4528246377e+00 
61900 6.6649199970e+00 -9.6193801037e-06 1.9934892340e+00 -3.4528246377e+00 1.9934892340e+00 3.4528246377e+00 
62000 6.6649200010e+00 -5.3490661829e-06 1.9934892340e+00 -3.4528246377e+00 1.9934892340e+00 3.4528246377e+00 
62100 6.6649200048e+00 -1.1131498495e-06 1.9934892340e+00 -3.4528246377e+00 1.9934892340e+00 3.4528246377e+00 
62200 6.6649200083e+00 3.0829476485e-06 1.9934892340e+00 -3.4528246377e+00 1.9934892340e+00 3.4528246377e+00 
62300 6.6649200115e+00 7.2340237392e-06 1.9934892340e+00 -3.4528246377e+00 1.9934892340e+00 3.4528246377e+00 
62400 6.6649200145e+00 1.1335096147e-05 1.9934892340e+00 -3.4528246377e+00 1.9934892340e+00 3.4528246377e+00 
62500 6.6649200173e+00 1.5381404167e-05 1.9934892340e+00 -3.4528246377e+00 1.9934892340e+00 3.4528246377e+00 
62600 6.6649200199e+00 1.9368409569e-05 1.9934892340e+00 -3.4528246377e+00 1.9934892340e+00 3.4528246377e+00 
62700 6.6649200222e+00 2.3291797143e-05 1.9934892340e+00 -3.4528246377e+00 1.9934892340e+00 3.4528246377e+00 
62800 6.6649200244e+00 2.7147474909e-05 1.9934892340e+00 -3.4528246377e+00 1.9934892340e+00 3.4528246377e+00 
62900 6.6649200263e+00 3.0931573986e-05 1.9934892340e+00 -3.4528246377e+00 1.9934892340e+00 3.4528246377e+00 
63000 6.6649200281e+00 3.4640448123e-05 1.9934892340e+00 -3.4528246377e+00 1.9934892340e+00 3.4528246377e+00 
63100 6.6649200297e+00 3.8270672927e-05 1.9934892340e+00 -3.4528246377e+00 1.9934892340e+00 3.4528246377e+00 
63200 6.6649200312e+00 4.1819044772e-05 1.9934892340e+00 -3.4528246377e+00 1.9934892340e+00 3.4528246377e+00 
63300 6.6649200326e+00 4.5282579407e-05 1.9934892340e+00 -3.4528246377e+00 1.9934892340e+00 3.4528246377e+00 
63400 6.6649200338e+00 4.8658510279e-05 1.9934892340e+00 -3.4528246377e+00 1.9934892340e+00 3.4528246377e+00 
63500 6.6649200349e+00 5.1944286560e-05 1.9934892340e+00 -3.4528246377e+00 1.9934892340e+00 3.4528246377e+00 
63600 6.6649200359e+00 5.5137570935e-05 1.9934892340e+00 -3.4528246377e+00 1.9934892340e+00 3.4528246377e+00 
63700 6.6649200368e+00 5.8236237104e-05 1.9934892340e+00 -3.4528246377e+00 1.9934892340e+00 3.4528246377e+00 
63800 6.6649200376e+00 6.1238367034e-05 1.9934892340e+00 -3.4528246377e+00 1.9934892340e+00 3.4528246377e+00 
63900 6.6649200383e+00 6.4142247993e-05 1.9934892340e+00 -3.4528246377e+00 1.9934892340e+00 3.4528246377e+00 
64000 6.6649200390e+00 6.6946369337e-05 1.9934892340e+00 -3.4528246377e+00 1.9934892340e+00 3.4528246377e+00 
64100 6.6649200397e+00 6.9649419091e-05 1.9934892340e+00 -3.4528246377e+00 1.9934892340e+00 3.4528246377e+00 
64200 6.6649200403e+00 7.2250280320e-05 1.9934892340e+00 -3.4528246377e+00 1.9934892340e+00 3.4528246377e+00 
64300 6.6649200408e+00 7.3316163337e-05 1.9934874219e+00 -3.4528214990e+00 1.9934874219e+00 3.4528214990e+00 
64400 6.6649200412e+00 7.4249504650e-05 1.9934855830e+00 -3.4528183139e+00 1.9934855830e+00 3.4528183139e+00 
64500 6.6649200416e+00 7.5051881095e-05 1.9934837207e+00 -3.4528150883e+00 1.9934837207e+00 3.4528150883e+00 
64600 6.6649200420e+00 7.5725047175e-05 1.9934818383e+00 -3.4528118278e+00 1.9934818383e+00 3.4528118278e+00 
64700 6.6649200424e+00 7.6270927600e-05 1.9934799389e+00 -3.4528085381e+00 1.9934799389e+00 3.4528085381e+00 
64800 6.6649200428e+00 7.6691609772e-05 1.9934780259e+00 -3.4528052247e+00 1.9934780259e+00 3.4528052247e+00 
64900 6.6649200433e+00 7.6989336213e-05 1.9934761024e+00 -3.4528018930e+00 1.9934761024e+00 3.4528018930e+00 
65000 6.6649200437e+00 7.7166496925e-05 1.9934741713e+00 -3.4527985483e+00 1.9934741713e+00 3.4527985483e+00 
65100 6.6649200442e+00 7.7225621721e-05 1.9934722359e+00 -3.4527951960e+00 1.9934722359e+00 3.4527951960e+00 
65200 6.6649200447e+00 7.7169372545e-05 1.9934702989e+00 -3.4527918411e+00 1.9934702989e+00 3.4527918411e+00 
65300 6.6649200453e+00 7.7000535758e-05 1.9934683634e+00 -3.4527884886e+00 1.9934683634e+00 3.4527884886e+00 
65400 6.6649200459e+00 7.6722014445e-05 1.9934664320e+00 -3.4527851435e+00 1.9934664320e+00 3.4527851435e+00 
65500 6.6649200465e+00 7.6336820725e-05 1.9934645077e+00 -3.4527818104e+00 1.9934645077e+00 3.4527818104e+00 
65600 6.6649200473e+00 7.5848068077e-05 1.9934625930e+00 -3.4527784941e+00 1.9934625930e+00 3.4527784941e+00 
65700 6.6649200480e+00 7.5258963711e-05 1.9934606906e+00 -3.4527751990e+00 1.9934606906e+00 3.4527751990e+00 
65800 6.6649200488e+00 7.4572800992e-05 1.9934588030e+00 -3.4527719295e+00 1.9934588030e+00 3.4527719295e+00 
65900 6.6649200497e+00 7.3792951894e-05 1.9934569325e+00 -3.4527686898e+00 1.9934569325e+00 3.4527686898e+00 
66000 6.6649200507e+00 7.2922859546e-05 1.9934550816e+00 -3.4527654840e+00 1.9934550816e+00 3.4527654840e+00 
66100 6.6649200517e+00 7.1966030845e-05 1.9934532526e+00 -3.4527623160e+00 1.9934532526e+00 3.4527623160e+00 
66200 6.6649200527e+00 7.0926029145e-05 1.9934514475e+00 -3.4527591895e+00 1.9934514475e+00 3.4527591895e+00 
66300 6.6649200538e+00 6.9806467051e-05 1.9934496685e+00 -3.4527561083e+00 1.9934496685e+00 3.4527561083e+00 
66400 6.6649200551e+00 6.9994564407e-05 1.9934496685e+00 -3.4527561083e+00 1.9934496685e+00 3.4527561083e+00 
66500 6.6649200565e+00 7.0094054595e-05 1.9934496685e+00 -3.4527561083e+00 1.9934496685e+00 3.4527561083e+00 
66600 6.6649200579e+00 7.0107469043e-05 1.9934496685e+00 -3.4527561083e+00 1.9934496685e+00 3.4527561083e+00 
66700 6.6649200594e+00 7.0037399330e-05 1.9934496685e+00 -3.4527561083e+00 1.9934496685e+00 3.4527561083e+00 
66800 6.6649200609e+00 6.9886491661e-05 1.9934496685e+00 -3.4527561083e+00 1.9934496685e+00 3.4527561083e+00 
66900 6.6649200624e+00 6.9657441388e-05 1.9934496685e+00 -3.4527561083e+00 1.9934496685e+00 3.4527561083e+00 
67000 6.6649200640e+00 6.9352987612e-05 1.9934496685e+00 -3.4527561083e+00 1.9934496685e+00 3.4527561083e+00 
67100 6.6649200656e+00 6.8975907835e-05 1.9934496685e+00 -3.4527561083e+00 1.9934496685e+00 3.4527561083e+00 
67200 6.6649200672e+00 6.8529012718e-05 1.9934496685e+00 -3.4527561083e+00 1.9934496685e+00 3.4527561083e+00 
67300 6.6649200688e+00 6.8015140906e-05 1.9934496685e+00 -3.4527561083e+00 1.9934496685e+00 3.4527561083e+00 
67400 6.6649200705e+00 6.7437153957e-05 1.9934496685e+00 -3.4527561083e+00 1.9934496685e+00 3.4527561083e+00 
67500 6.6649200722e+00 6.6797931369e-05 1.9934496685e+00 -3.4527561083e+00 1.9934496685e+00 3.4527561083e+00 
67600 6.6649200739e+00 6.6100365696e-05 1.9934496685e+00 -3.4527561083e+00 1.9934496685e+00 3.4527561083e+00 
67700 6.6649200756e+00 6.5347357786e-05 1.9934496685e+00 -3.4527561083e+00 1.9934496685e+00 3.4527561083e+00 
67800 6.6649200773e+00 6.4541812129e-05 1.9934496685e+00 -3.4527561083e+00 1.9934496685e+00 3.4527561083e+00 
67900 6.6649200790e+00 6.3686632325e-05 1.9934496685e+00 -3.4527561083e+00 1.9934496685e+00 3.4527561083e+00 
68000 6.6649200807e+00 6.2784716656e-05 1.9934496685e+00 -3.4527561083e+00 1.9934496685e+00 3.4527561083e+00 
68100 6.6649200824e+00 6.1838953810e-05 1.9934496685e+00 -3.4527561083e+00 1.9934496685e+00 3.4527561083e+00 
68200 6.6649200841e+00 6.0852218707e-05 1.9934496685e+00 -3.4527561083e+00 1.9934496685e+00 3.4527561083e+00 
68300 6.6649200858e+00 5.9827368474e-05 1.9934496685e+00 -3.4527561083e+00 1.9934496685e+00 3.4527561083e+00 
68400 6.6649200874e+00 5.8767238546e-05 1.9934496685e+00 -3.4527561083e+00 1.9934496685e+00 3.4527561083e+00 
68500 6.6649200890e+00 5.7674638914e-05 1.9934496685e+00 -3.4527561083e+00 1.9934496685e+00 3.4527561083e+00 
68600 6.6649200907e+00 5.6552350488e-05 1.9934496685e+00 -3.4527561083e+00 1.9934496685e+00 3.4527561083e+00 
68700 6.6649200922e+00 5.5403121633e-05 1.9934496685e+00 -3.4527561083e+00 1.9934496685e+00 3.4527561083e+00 
68800 6.6649200938e+00 5.4229664823e-05 1.9934496685e+00 -3.4527561083e+00 1.9934496685e+00 3.4527561083e+00 
68900 6.6649200953e+00 5.3034653457e-05 1.9934496685e+00 -3.4527561083e+00 1.9934496685e+00 3.4527561083e+00 
69000 6.6649200968e+00 5.1820718793e-05 1.9934496685e+00 -3.4527561083e+00 1.9934496685e+00 3.4527561083e+00 
69100 6.6649200983e+00 5.0590447071e-05 1.9934496685e+00 -3.4527561083e+00 1.9934496685e+00 3.4527561083e+00 
69200 6.6649200997e+00 4.9346376743e-05 1.9934496685e+00 -3.4527561083e+00 1.9934496685e+00 3.4527561083e+00 
69300 6.6649201011e+00 4.8090995865e-05 1.9934496685e+00 -3.4527561083e+00 1.9934496685e+00 3.4527561083e+00 
69400 6.6649201024e+00 4.6826739658e-05 1.9934496685e+00 -3.4527561083e+00 1.9934496685e+00 3.4527561083e+00 
69500 6.6649201037e+00 4.5555988166e-05 1.9934496685e+00 -3.4527561083e+00 1.9934496685e+00 3.4527561083e+00 
69600 6.6649201050e+00 4.4281064113e-05 1.9934496685e+00 -3.4527561083e+00 1.9934496685e+00 3.4527561083e+00 
69700 6.6649201062e+00 4.3004230880e-05 1.9934496685e+00 -3.4527561083e+00 1.9934496685e+00 3.4527561083e+00 
69800 6.6649201074e+00 4.1727690627e-05 1.9934496685e+00 -3.4527561083e+00 1.9934496685e+00 3.4527561083e+00 
69900 6.6649201085e+00 4.0453582568e-05 1.9934496685e+00 -3.4527561083e+00 1.9934496685e+00 3.4527561083e+00 
70000 6.6649201096e+00 3.9183981394e-05 1.9934496685e+00 -3.4527561083e+00 1.9934496685e+00 3.4527561083e+00 
70100 6.6649201107e+00 3.7920895829e-05 1.9934496685e+00 -3.4527561083e+00 1.9934496685e+00 3.4527561083e+00 
70200 6.6649201117e+00 3.6666267313e-05 1.9934496685e+00 -3.4527561083e+00 1.9934496685e+00 3.4527561083e+00 
70300 6.6649201127e+00 3.5421968866e-05 1.9934496685e+00 -3.4527561083e+00 1.9934496685e+00 3.4527561083e+00 
70400 6.6649201137e+00 3.4189804048e-05 1.9934496685e+00 -3.4527561083e+00 1.9934496685e+00 3.4527561083e+00 
70500 6.6649201146e+00 3.2971506072e-05 1.9934496685e+00 -3.4527561083e+00 1.9934496685e+00 3.4527561083e+00 
70600 6.6649201155e+00 3.1768737055e-05 1.9934496685e+00 -3.4527561083e+00 1.9934496685e+00 3.4527561083e+00 
70700 6.6649201163e+00 3.0583087378e-05 1.9934496685e+00 -3.4527561083e+00 1.9934496685e+00 3.4527561083e+00 
70800 6.6649201172e+00 2.9416075204e-05 1.9934496685e+00 -3.4527561083e+00 1.9934496685e+00 3.4527561083e+00 
70900 6.6649201179e+00 2.8269146092e-05 1.9934496685e+00 -3.4527561083e+00 1.9934496685e+00 3.4527561083e+00 
71000 6.6649201187e+00 2.7143672762e-05 1.9934496685e+00 -3.4527561083e+00 1.9934496685e+00 3.4527561083e+00 
71100 6.6649201194e+00 2.6040954948e-05 1.9934496685e+00 -3.4527561083e+00 1.9934496685e+00 3.4527561083e+00 
71200 6.6649201201e+00 2.4962219392e-05 1.9934496685e+00 -3.4527561083e+00 1.9934496685e+00 3.4527561083e+00 
71300 6.6649201208e+00 2.3908619948e-05 1.9934496685e+00 -3.4527561083e+00 1.9934496685e+00 3.4527561083e+00 
71400 6.6649201214e+00 2.2881237790e-05 1.9934496685e+00 -3.4527561083e+00 1.9934496685e+00 3.4527561083e+00 
71500 6.6649201221e+00 2.1881081728e-05 1.9934496685e+00 -3.4527561083e+00 1.9934496685e+00 3.4527561083e+00 
71600 6.6649201227e+00 2.0909088630e-05 1.9934496685e+00 -3.4527561083e+00 1.9934496685e+00 3.4527561083e+00 
71700 6.6649201232e+00 1.9966123939e-05 1.9934496685e+00 -3.4527561083e+00 1.9934496685e+00 3.4527561083e+00 
71800 6.6649201238e+00 1.9052982303e-05 1.9934496685e+00 -3.4527561083e+00 1.9934496685e+00 3.4527561083e+00 
71900 6.6649201243e+00 1.8170388276e-05 1.9934496685e+00 -3.4527561083e+00 1.9934496685e+00 3.4527561083e+00 
72000 6.6649201249e+00 1.7318997122e-05 1.9934496685e+00 -3.4527561083e+00 1.9934496685e+00 3.4527561083e+00 
72100 6.6649201254e+00 1.6499395705e-05 1.9934496685e+00 -3.4527561083e+00 1.9934496685e+00 3.4527561083e+00 
72200 6.6649201259e+00 1.5712103450e-05 1.9934496685e+00 -3.4527561083e+00 1.9934496685e+00 3.4527561083e+00 
72300 6.6649201264e+00 1.4957573407e-05 1.9934496685e+00 -3.4527561083e+00 1.9934496685e+00 3.4527561083e+00 
72400 6.6649201268e+00 1.4236193360e-05 1.9934496685e+00 -3.4527561083e+00 1.9934496685e+00 3.4527561083e+00 
72500 6.6649201273e+00 1.3548287022e-05 1.9934496685e+00 -3.4527561083e+00 1.9934496685e+00 3.4527561083e+00 
72600 6.6649201278e+00 1.2894115299e-05 1.9934496685e+00 -3.4527561083e+00 1.9934496685e+00 3.4527561083e+00 
72700 6.6649201282e+00 1.2273877619e-05 1.9934496685e+00 -3.4527561083e+00 1.9934496685e+00 3.4527561083e+00 
72800 6.6649201287e+00 1.1687713302e-05 1.9934496685e+00 -3.4527561083e+00 1.9934496685e+00 3.4527561083e+00 
72900 6.6649201291e+00 1.1135703021e-05 1.9934496685e+00 -3.4527561083e+00 1.9934496685e+00 3.4527561083e+00 
73000 6.6649201295e+00 1.0617870272e-05 1.9934496685e+00 -3.4527561083e+00 1.9934496685e+00 3.4527561083e+00 
73100 6.6649201300e+00 1.0134182933e-05 1.9934496685e+00 -3.4527561083e+00 1.9934496685e+00 3.4527561083e+00 
73200 6.6649201304e+00 9.6845548390e-06 1.9934496685e+00 -3.4527561083e+00 1.9934496685e+00 3.4527561083e+00 
73300 6.6649201308e+00 9.2688474109e-06 1.9934496685e+00 -3.4527561083e+00 1.9934496685e+00 3.4527561083e+00 
73400 6.6649201313e+00 8.8868713210e-06 1.9934496685e+00 -3.4527561083e+00 1.9934496685e+00 3.4527561083e+00 
73500 6.6649201317e+00 8.5383881893e-06 1.9934496685e+00 -3.4527561083e+00 1.9934496685e+00 3.4527561083e+00 
73600 6.6649201321e+00 8.2231123114e-06 1.9934496685e+00 -3.4527561083e+00 1.9934496685e+00 3.4527561083e+00 
73700 6.6649201325e+00 7.9407124161e-06 1.9934496685e+00 -3.4527561083e+00 1.9934496685e+00 3.4527561083e+00 
73800 6.6649201330e+00 7.6908134386e-06 1.9934496685e+00 -3.4527561083e+00 1.9934496685e+00 3.4527561083e+00 
73900 6.6649201334e+00 7.4729983250e-06 1.9934496685e+00 -3.4527561083e+00 1.9934496685e+00 3.4527561083e+00 
74000 6.6649201338e+00 7.2868098400e-06 1.9934496685e+00 -3.4527561083e+00 1.9934496685e+00 3.4527561083e+00 
74100 6.6649201343e+00 7.1317523956e-06 1.9934496685e+00 -3.4527561083e+00 1.9934496685e+00 3.4527561083e+00 
74200 6.6649201347e+00 7.0072938948e-06 1.9934496685e+00 -3.4527561083e+00 1.9934496685e+00 3.4527561083e+00 
74300 6.6649201351e+00 6.9128675689e-06 1.9934496685e+00 -3.4527561083e+00 1.9934496685e+00 3.4527561083e+00 
74400 6.6649201356e+00 6.8478738369e-06 1.9934496685e+00 -3.4527561083e+00 1.9934496685e+00 3.4527561083e+00 
74500 6.6649201360e+00 6.8116821355e-06 1.9934496685e+00 -3.4527561083e+00 1.9934496685e+00 3.4527561083e+00 
74600 6.6649201364e+00 6.8036327900e-06 1.9934496685e+00 -3.4527561083e+00 1.9934496685e+00 3.4527561083e+00 
74700 6.6649201369e+00 6.8230388407e-06 1.9934496685e+00 -3.4527561083e+00 1.9934496685e+00 3.4527561083e+00 
74800 6.6649201373e+00 6.8691878797e-06 1.9934496685e+00 -3.4527561083e+00 1.9934496685e+00 3.4527561083e+00 
74900 6.6649201378e+00 6.9413438846e-06 1.9934496685e+00 -3.4527561083e+00 1.9934496685e+00 3.4527561083e+00 
75000 6.6649201382e+00 7.0387490193e-06 1.9934496685e+00 -3.4527561083e+00 1.9934496685e+00 3.4527561083e+00 
75100 6.6649201386e+00 7.1606254360e-06 1.9934496685e+00 -3.4527561083e+00 1.9934496685e+00 3.4527561083e+00 
75200 6.6649201391e+00 7.3061770562e-06 1.9934496685e+00 -3.4527561083e+00 1.9934496685e+00 3.4527561083e+00 
75300 6.6649201395e+00 7.4745913189e-06 1.9934496685e+00 -3.4527561083e+00 1.9934496685e+00 3.4527561083e+00 
75400 6.6649201400e+00 7.6650409322e-06 1.9934496685e+00 -3.4527561083e+00 1.9934496685e+00 3.4527561083e+00 
75500 6.6649201404e+00 7.8766855759e-06 1.9934496685e+00 -3.4527561083e+00 1.9934496685e+00 3.4527561083e+00 
75600 6.6649201409e+00 8.1086735870e-06 1.9934496685e+00 -3.4527561083e+00 1.9934496685e+00 3.4527561083e+00 
75700 6.6649201413e+00 8.3601436214e-06 1.9934496685e+00 -3.4527561083e+00 1.9934496685e+00 3.4527561083e+00 
75800 6.6649201417e+00 8.6302262806e-06 1.9934496685e+00 -3.4527561083e+00 1.9934496685e+00 3.4527561083e+00 
75900 6.6649201422e+00 8.9180457031e-06 1.9934496685e+00 -3.4527561083e+00 1.9934496685e+00 3.4527561083e+00 
76000 6.6649201426e+00 9.2227211355e-06 1.9934496685e+00 -3.4527561083e+00 1.9934496685e+00 3.4527561083e+00 
76100 6.6649201430e+00 9.5433684492e-06 1.9934496685e+00 -3.4527561083e+00 1.9934496685e+00 3.4527561083e+00 
76200 6.6649201435e+00 9.8791016411e-06 1.9934496685e+00 -3.4527561083e+00 1.9934496685e+00 3.4527561083e+00 
76300 6.6649201439e+00 1.0229034277e-05 1.9934496685e+00 -3.4527561083e+00 1.9934496685e+00 3.4527561083e+00 
76400 6.6649201443e+00 1.0592280916e-05 1.9934496685e+00 -3.4527561083e+00 1.9934496685e+00 3.4527561083e+00 
76500 6.6649201447e+00 1.0967958482e-05 1.9934496685e+00 -3.4527561083e+00 1.9934496685e+00 3.4527561083e+00 
76600 6.6649201451e+00 1.1355187589e-05 1.9934496685e+00 -3.4527561083e+00 1.9934496685e+00 3.4527561083e+00 
76700 6.6649201455e+00 1.1753093836e-05 1.9934496685e+00 -3.4527561083e+00 1.9934496685e+00 3.4527561083e+00 
76800 6.6649201459e+00 1.2160809060e-05 1.9934496685e+00 -3.4527561083e+00 1.9934496685e+00 3.4527561083e+00 
76900 6.6649201463e+00 1.2577472539e-05 1.9934496685e+00 -3.4527561083e+00 1.9934496685e+00 3.4527561083e+00 
77000 6.6649201467e+00 1.3002232141e-05 1.9934496685e+00 -3.4527561083e+00 1.9934496685e+00 3.4527561083e+00 
77100 6.6649201471e+00 1.3434245448e-05 1.9934496685e+00 -3.4527561083e+00 1.9934496685e+00 3.4527561083e+00 
77200 6.6649201475e+00 1.3872680825e-05 1.9934496685e+00 -3.4527561083e+00 1.9934496685e+00 3.4527561083e+00 
77300 6.6649201478e+00 1.4316718434e-05 1.9934496685e+00 -3.4527561083e+00 1.9934496685e+00 3.4527561083e+00 
77400 6.6649201482e+00 1.4765551227e-05 1.9934496685e+00 -3.4527561083e+00 1.9934496685e+00 3.4527561083e+00 
77500 6.6649201486e+00 1.5218385852e-05 1.9934496685e+00 -3.4527561083e+00 1.9934496685e+00 3.4527561083e+00 
77600 6.6649201489e+00 1.5674443558e-05 1.9934496685e+00 -3.4527561083e+00 1.9934496685e+00 3.4527561083e+00 
77700 6.6649201493e+00 1.6132961014e-05 1.9934496685e+00 -3.4527561083e+00 1.9934496685e+00 3.4527561083e+00 
77800 6.6649201496e+00 1.6593191106e-05 1.9934496685e+00 -3.4527561083e+00 1.9934496685e+00 3.4527561083e+00 
77900 6.6649201500e+00 1.7054403683e-05 1.9934496685e+00 -3.4527561083e+00 1.9934496685e+00 3.4527561083e+00 
78000 6.6649201503e+00 1.7515886240e-05 1.9934496685e+00 -3.4527561083e+00 1.9934496685e+00 3.4527561083e+00 
78100 6.6649201506e+00 1.7976944577e-05 1.9934496685e+00 -3.4527561083e+00 1.9934496685e+00 3.4527561083e+00 
78200 6.6649201509e+00 1.8436903396e-05 1.9934496685e+00 -3.4527561083e+00 1.9934496685e+00 3.4527561083e+00 
78300 6.6649201512e+00 1.8895106861e-05 1.9934496685e+00 -3.4527561083e+00 1.9934496685e+00 3.4527561083e+00 
78400 6.6649201515e+00 1.9350919096e-05 1.9934496685e+00 -3.4527561083e+00 1.9934496685e+00 3.4527561083e+00 
78500 6.6649201518e+00 1.9803724666e-05 1.9934496685e+00 -3.4527561083e+00 1.9934496685e+00 3.4527561083e+00 
78600 6.6649201521e+00 2.0252928990e-05 1.9934496685e+00 -3.4527561083e+00 1.9934496685e+00 3.4527561083e+00 
78700 6.6649201524e+00 2.0697958715e-05 1.9934496685e+00 -3.4527561083e+00 1.9934496685e+00 3.4527561083e+00 
78800 6.6649201527e+00 2.1138262051e-05 1.9934496685e+00 -3.4527561083e+00 1.9934496685e+00 3.4527561083e+00 
78900 6.6649201529e+00 2.1573309058e-05 1.9934496685e+00 -3.4527561083e+00 1.9934496685e+00 3.4527561083e+00 
79000 6.6649201532e+00 2.2002591898e-05 1.9934496685e+00 -3.4527561083e+00 1.9934496685e+00 3.4527561083e+00 
79100 6.6649201535e+00 2.2425625038e-05 1.9934496685e+00 -3.4527561083e+00 1.9934496685e+00 3.4527561083e+00 
79200 6.6649201537e+00 2.2841945415e-05 1.9934496685e+00 -3.4527561083e+00 1.9934496685e+00 3.4527561083e+00 
79300 6.6649201540e+00 2.3251112564e-05 1.9934496685e+00 -3.4527561083e+00 1.9934496685e+00 3.4527561083e+00 
79400 6.6649201542e+00 2.3652708701e-05 1.9934496685e+00 -3.4527561083e+00 1.9934496685e+00 3.4527561083e+00 
79500 6.6649201544e+00 2.4046338773e-05 1.9934496685e+00 -3.4527561083e+00 1.9934496685e+00 3.4527561083e+00 
79600 6.6649201547e+00 2.4431630471e-05 1.9934496685e+00 -3.4527561083e+00 1.9934496685e+00 3.4527561083e+00 
79700 6.6649201549e+00 2.4808234205e-05 1.9934496685e+00 -3.4527561083e+00 1.9934496685e+00 3.4527561083e+00 
79800 6.6649201551e+00 2.5175823042e-05 1.9934496685e+00 -3.4527561083e+00 1.9934496685e+00 3.4527561083e+00 
79900 6.6649201554e+00 2.5534092619e-05 1.9934496685e+00 -3.4527561083e+00 1.9934496685e+00 3.4527561083e+00 
80000 6.6649201556e+00 2.5882761009e-05 1.9934496685e+00 -3.4527561083e+00 1.9934496685e+00 3.4527561083e+00 
80100 6.6649201558e+00 2.6221568564e-05 1.9934496685e+00 -3.4527561083e+00 1.9934496685e+00 3.4527561083e+00 
80200 6.6649201560e+00 2.6550277734e-05 1.9934496685e+00 -3.4527561083e+00 1.9934496685e+00 3.4527561083e+00 
80300 6.6649201562e+00 2.6868672845e-05 1.9934496685e+00 -3.4527561083e+00 1.9934496685e+00 3.4527561083e+00 
80400 6.6649201564e+00 2.7176559842e-05 1.9934496685e+00 -3.4527561083e+00 1.9934496685e+00 3.4527561083e+00 
80500 6.6649201566e+00 2.7473766029e-05 1.9934496685e+00 -3.4527561083e+00 1.9934496685e+00 3.4527561083e+00 
80600 6.6649201568e+00 2.7760139760e-05 1.9934496685e+00 -3.4527561083e+00 1.9934496685e+00 3.4527561083e+00 
80700 6.6649201570e+00 2.8035550124e-05 1.9934496685e+00 -3.4527561083e+00 1.9934496685e+00 3.4527561083e+00 
80800 6.6649201572e+00 2.8299886582e-05 1.9934496685e+00 -3.4527561083e+00 1.9934496685e+00 3.4527561083e+00 
80900 6.6649201573e+00 2.8553058606e-05 1.9934496685e+00 -3.4527561083e+00 1.9934496685e+00 3.4527561083e+00 
81000 6.6649201575e+00 2.8794995283e-05 1.9934496685e+00 -3.4527561083e+00 1.9934496685e+00 3.4527561083e+00 
81100 6.6649201577e+00 2.9025644904e-05 1.9934496685e+00 -3.4527561083e+00 1.9934496685e+00 3.4527561083e+00 
81200 6.6649201579e+00 2.9244974529e-05 1.9934496685e+00 -3.4527561083e+00 1.9934496685e+00 3.4527561083e+00 
81300 6.6649201581e+00 2.9452969537e-05 1.9934496685e+00 -3.4527561083e+00 1.9934496685e+00 3.4527561083e+00 
81400 6.6649201582e+00 2.9649633170e-05 1.9934496685e+00 -3.4527561083e+00 1.9934496685e+00 3.4527561083e+00 
81500 6.6649201584e+00 2.9834986037e-05 1.9934496685e+00 -3.4527561083e+00 1.9934496685e+00 3.4527561083e+00 
81600 6.6649201586e+00 3.0009065622e-05 1.9934496685e+00 -3.4527561083e+00 1.9934496685e+00 3.4527561083e+00 
81700 6.6649201587e+00 3.0171925786e-05 1.9934496685e+00 -3.4527561083e+00 1.9934496685e+00 3.4527561083e+00 
81800 6.6649201589e+00 3.0323636235e-05 1.9934496685e+00 -3.4527561083e+00 1.9934496685e+00 3.4527561083e+00 
81900 6.6649201591e+00 3.0464281987e-05 1.9934496685e+00 -3.4527561083e+00 1.9934496685e+00 3.4527561083e+00 
82000 6.6649201592e+00 3.0593962846e-05 1.9934496685e+00 -3.4527561083e+00 1.9934496685e+00 3.4527561083e+00 
82100 6.6649201594e+00 3.0712792831e-05 1.9934496685e+00 -3.4527561083e+00 1.9934496685e+00 3.4527561083e+00 
82200 6.6649201595e+00 3.0820899635e-05 1.9934496685e+00 -3.4527561083e+00 1.9934496685e+00 3.4527561083e+00 
82300 6.6649201597e+00 3.0918424059e-05 1.9934496685e+00 -3.4527561083e+00 1.9934496685e+00 3.4527561083e+00 
82400 6.6649201599e+00 3.1005519431e-05 1.9934496685e+00 -3.4527561083e+00 1.9934496685e+00 3.4527561083e+00 
82500 6.6649201600e+00 3.1082351053e-05 1.9934496685e+00 -3.4527561083e+00 1.9934496685e+00 3.4527561083e+00 
82600 6.6649201602e+00 3.1149095605e-05 1.9934496685e+00 -3.4527561083e+00 1.9934496685e+00 3.4527561083e+00 
82700 6.6649201603e+00 3.1205940580e-05 1.9934496685e+00 -3.4527561083e+00 1.9934496685e+00 3.4527561083e+00 
82800 6.6649201605e+00 3.1253083697e-05 1.9934496685e+00 -3.4527561083e+00 1.9934496685e+00 3.4527561083e+00 
82900 6.6649201606e+00 3.1290732322e-05 1.9934496685e+00 -3.4527561083e+00 1.9934496685e+00 3.4527561083e+00 
83000 6.6649201608e+00 3.1319102891e-05 1.9934496685e+00 -3.4527561083e+00 1.9934496685e+00 3.4527561083e+00 
83100 6.6649201609e+00 3.1338420327e-05 1.9934496685e+00 -3.4527561083e+00 1.9934496685e+00 3.4527561083e+00 
83200 6.6649201611e+00 3.1348917464e-05 1.9934496685e+00 -3.4527561083e+00 1.9934496685e+00 3.4527561083e+00 
83300 6.6649201612e+00 3.1350834482e-05 1.9934496685e+00 -3.4527561083e+00 1.9934496685e+00 3.4527561083e+00 
83400 6.6649201614e+00 3.1344418326e-05 1.9934496685e+00 -3.4527561083e+00 1.9934496685e+00 3.4527561083e+00 
83500 6.6649201615e+00 3.1329922152e-05 1.9934496685e+00 -3.4527561083e+00 1.9934496685e+00 3.4527561083e+00 
83600 6.6649201616e+00 3.1307604761e-05 1.9934496685e+00 -3.4527561083e+00 1.9934496685e+00 3.4527561083e+00 
83700 6.6649201618e+00 3.1277730051e-05 1.9934496685e+00 -3.4527561083e+00 1.9934496685e+00 3.4527561083e+00 
83800 6.6649201619e+00 3.1240566470e-05 1.9934496685e+00 -3.4527561083e+00 1.9934496685e+00 3.4527561083e+00 
83900 6.6649201620e+00 3.1196386474e-05 1.9934496685e+00 -3.4527561083e+00 1.9934496685e+00 3.4527561083e+00 
84000 6.6649201622e+00 3.1145466008e-05 1.9934496685e+00 -3.4527561083e+00 1.9934496685e+00 3.4527561083e+00 
84100 6.6649201623e+00 3.1088083970e-05 1.9934496685e+00 -3.4527561083e+00 1.9934496685e+00 3.4527561083e+00 
84200 6.6649201625e+00 3.1024521712e-05 1.9934496685e+00 -3.4527561083e+00 1.9934496685e+00 3.4527561083e+00 
84300 6.6649201626e+00 3.0955062525e-05 1.9934496685e+00 -3.4527561083e+00 1.9934496685e+00 3.4527561083e+00 
84400 6.6649201627e+00 3.0879991168e-05 1.9934496685e+00 -3.4527561083e+00 1.9934496685e+00 3.4527561083e+00 
84500 6.6649201628e+00 3.0799593368e-05 1.9934496685e+00 -3.4527561083e+00 1.9934496685e+00 3.4527561083e+00 
84600 6.6649201630e+00 3.0714155360e-05 1.9934496685e+00 -3.4527561083e+00 1.9934496685e+00 3.4527561083e+00 
84700 6.6649201631e+00 3.0623963428e-05 1.9934496685e+00 -3.4527561083e+00 1.9934496685e+00 3.4527561083e+00 
84800 6.6649201632e+00 3.0529303459e-05 1.9934496685e+00 -3.4527561083e+00 1.9934496685e+00 3.4527561083e+00 
84900 6.6649201633e+00 3.0430460515e-05 1.9934496685e+00 -3.4527561083e+00 1.9934496685e+00 3.4527561083e+00 
85000 6.6649201635e+00 3.0327718411e-05 1.9934496685e+00 -3.4527561083e+00 1.9934496685e+00 3.4527561083e+00 
85100 6.6649201636e+00 3.0221359307e-05 1.9934496685e+00 -3.4527561083e+00 1.9934496685e+00 3.4527561083e+00 
85200 6.6649201637e+00 3.0111663318e-05 1.9934496685e+00 -3.4527561083e+00 1.9934496685e+00 3.4527561083e+00 
85300 6.6649201638e+00 2.9998908132e-05 1.9934496685e+00 -3.4527561083e+00 1.9934496685e+00 3.4527561083e+00 
85400 6.6649201639e+00 2.9883368650e-05 1.9934496685e+00 -3.4527561083e+00 1.9934496685e+00 3.4527561083e+00 
85500 6.6649201641e+00 2.9765316625e-05 1.9934496685e+00 -3.4527561083e+00 1.9934496685e+00 3.4527561083e+00 
85600 6.6649201642e+00 2.9645020344e-05 1.9934496685e+00 -3.4527561083e+00 1.9934496685e+00 3.4527561083e+00 
85700 6.6649201643e+00 2.9522744287e-05 1.9934496685e+00 -3.4527561083e+00 1.9934496685e+00 3.4527561083e+00 
85800 6.6649201644e+00 2.9398748824e-05 1.9934496685e+00 -3.4527561083e+00 1.9934496685e+00 3.4527561083e+00 
85900 6.6649201645e+00 2.9273289933e-05 1.9934496685e+00 -3.4527561083e+00 1.9934496685e+00 3.4527561083e+00 
86000 6.6649201646e+00 2.9146618910e-05 1.9934496685e+00 -3.4527561083e+00 1.9934496685e+00 3.4527561083e+00 
86100 6.6649201647e+00 2.9018982110e-05 1.9934496685e+00 -3.4527561083e+00 1.9934496685e+00 3.4527561083e+00 
86200 6.6649201648e+00 2.8890620699e-05 1.9934496685e+00 -3.4527561083e+00 1.9934496685e+00 3.4527561083e+00 
86300 6.6649201649e+00 2.8761770415e-05 1.9934496685e+00 -3.4527561083e+00 1.9934496685e+00 3.4527561083e+00 
86400 6.6649201650e+00 2.8632661361e-05 1.9934496685e+00 -3.4527561083e+00 1.9934496685e+00 3.4527561083e+00 
86500 6.6649201651e+00 2.8503517789e-05 1.9934496685e+00 -3.4527561083e+00 1.9934496685e+00 3.4527561083e+00 
86600 6.6649201652e+00 2.8374557912e-05 1.9934496685e+00 -3.4527561083e+00 1.9934496685e+00 3.4527561083e+00 
86700 6.6649201653e+00 2.8245993732e-05 1.9934496685e+00 -3.4527561083e+00 1.9934496685e+00 3.4527561083e+00 
86800 6.6649201654e+00 2.8118030879e-05 1.9934496685e+00 -3.4527561083e+00 1.9934496685e+00 3.4527561083e+00 
86900 6.6649201655e+00 2.7990868461e-05 1.9934496685e+00 -3.4527561083e+00 1.9934496685e+00 3.4527561083e+00 
87000 6.6649201656e+00 2.7864698938e-05 1.9934496685e+00 -3.4527561083e+00 1.9934496685e+00 3.4527561083e+00 
87100 6.6649201657e+00 2.7739707986e-05 1.9934496685e+00 -3.4527561083e+00 1.9934496685e+00 3.4527561083e+00 
87200 6.6649201658e+00 2.7616074417e-05 1.9934496685e+00 -3.4527561083e+00 1.9934496685e+00 3.4527561083e+00 
87300 6.6649201658e+00 2.7493970072e-05 1.9934496685e+00 -3.4527561083e+00 1.9934496685e+00 3.4527561083e+00 
87400 6.6649201659e+00 2.7373559743e-05 1.9934496685e+00 -3.4527561083e+00 1.9934496685e+00 3.4527561083e+00 
87500 6.6649201660e+00 2.7255001108e-05 1.9934496685e+00 -3.4527561083e+00 1.9934496685e+00 3.4527561083e+00 
87600 6.6649201661e+00 2.7138444686e-05 1.9934496685e+00 -3.4527561083e+00 1.9934496685e+00 3.4527561083e+00 
87700 6.6649201662e+00 2.7024033790e-05 1.9934496685e+00 -3.4527561083e+00 1.9934496685e+00 3.4527561083e+00 
87800 6.6649201663e+00 2.6911904503e-05 1.9934496685e+00 -3.4527561083e+00 1.9934496685e+00 3.4527561083e+00 
87900 6.6649201663e+00 2.6802185657e-05 1.9934496685e+00 -3.4527561083e+00 1.9934496685e+00 3.4527561083e+00 
88000 6.6649201664e+00 2.6694998833e-05 1.9934496685e+00 -3.4527561083e+00 1.9934496685e+00 3.4527561083e+00 
88100 6.6649201665e+00 2.6590458371e-05 1.9934496685e+00 -3.4527561083e+00 1.9934496685e+00 3.4527561083e+00 
88200 6.6649201666e+00 2.6488671387e-05 1.9934496685e+00 -3.4527561083e+00 1.9934496685e+00 3.4527561083e+00 
88300 6.6649201667e+00 2.6389737795e-05 1.9934496685e+00 -3.4527561083e+00 1.9934496685e+00 3.4527561083e+00 
88400 6.6649201667e+00 2.6293750357e-05 1.9934496685e+00 -3.4527561083e+00 1.9934496685e+00 3.4527561083e+00 
88500 6.6649201668e+00 2.6200794726e-05 1.9934496685e+00 -3.4527561083e+00 1.9934496685e+00 3.4527561083e+00 
88600 6.6649201669e+00 2.6110949503e-05 1.9934496685e+00 -3.4527561083e+00 1.9934496685e+00 3.4527561083e+00 
88700 6.6649201669e+00 2.6024286316e-05 1.9934496685e+00 -3.4527561083e+00 1.9934496685e+00 3.4527561083e+00 
88800 6.6649201670e+00 2.5940869890e-05 1.9934496685e+00 -3.4527561083e+00 1.9934496685e+00 3.4527561083e+00 
88900 6.6649201671e+00 2.5860758129e-05 1.9934496685e+00 -3.4527561083e+00 1.9934496685e+00 3.4527561083e+00 
89000 6.6649201671e+00 2.5784002220e-05 1.9934496685e+00 -3.4527561083e+00 1.9934496685e+00 3.4527561083e+00 
89100 6.6649201672e+00 2.5710646731e-05 1.9934496685e+00 -3.4527561083e+00 1.9934496685e+00 3.4527561083e+00 
89200 6.6649201673e+00 2.5640729715e-05 1.9934496685e+00 -3.4527561083e+00 1.9934496685e+00 3.4527561083e+00 
89300 6.6649201673e+00 2.5574282842e-05 1.9934496685e+00 -3.4527561083e+00 1.9934496685e+00 3.4527561083e+00 
89400 6.6649201674e+00 2.5511331505e-05 1.9934496685e+00 -3.4527561083e+00 1.9934496685e+00 3.4527561083e+00 
89500 6.6649201675e+00 2.5451894962e-05 1.9934496685e+00 -3.4527561083e+00 1.9934496685e+00 3.4527561083e+00 
89600 6.6649201675e+00 2.5395986469e-05 1.9934496685e+00 -3.4527561083e+00 1.9934496685e+00 3.4527561083e+00 
89700 6.6649201676e+00 2.5343613417e-05 1.9934496685e+00 -3.4527561083e+00 1.9934496685e+00 3.4527561083e+00 
89800 6.6649201677e+00 2.5294777487e-05 1.9934496685e+00 -3.4527561083e+00 1.9934496685e+00 3.4527561083e+00 
89900 6.6649201677e+00 2.5249474799e-05 1.9934496685e+00 -3.4527561083e+00 1.9934496685e+00 3.4527561083e+00 
90000 6.6649201678e+00 2.5207696061e-05 1.9934496685e+00 -3.4527561083e+00 1.9934496685e+00 3.4527561083e+00 
90100 6.6649201678e+00 2.5169426740e-05 1.9934496685e+00 -3.4527561083e+00 1.9934496685e+00 3.4527561083e+00 
90200 6.6649201679e+00 2.5134647218e-05 1.9934496685e+00 -3.4527561083e+00 1.9934496685e+00 3.4527561083e+00 
90300 6.6649201679e+00 2.5103332972e-05 1.9934496685e+00 -3.4527561083e+00 1.9934496685e+00 3.4527561083e+00 
90400 6.6649201680e+00 2.5075454724e-05 1.9934496685e+00 -3.4527561083e+00 1.9934496685e+00 3.4527561083e+00 
90500 6.6649201681e+00 2.5050978641e-05 1.9934496685e+00 -3.4527561083e+00 1.9934496685e+00 3.4527561083e+00 
90600 6.6649201681e+00 2.5029866483e-05 1.9934496685e+00 -3.4527561083e+00 1.9934496685e+00 3.4527561083e+00 
90700 6.6649201682e+00 2.5012075810e-05 1.9934496685e+00 -3.4527561083e+00 1.9934496685e+00 3.4527561083e+00 
90800 6.6649201682e+00 2.4997560130e-05 1.9934496685e+00 -3.4527561083e+00 1.9934496685e+00 3.4527561083e+00 
90900 6.6649201683e+00 2.4986269111e-05 1.9934496685e+00 -3.4527561083e+00 1.9934496685e+00 3.4527561083e+00 
91000 6.6649201683e+00 2.4978148736e-05 1.9934496685e+00 -3.4527561083e+00 1.9934496685e+00 3.4527561083e+00 
91100 6.6649201684e+00 2.4973141511e-05 1.9934496685e+00 -3.4527561083e+00 1.9934496685e+00 3.4527561083e+00 
91200 6.6649201684e+00 2.4971186632e-05 1.9934496685e+00 -3.4527561083e+00 1.9934496685e+00 3.4527561083e+00 
91300 6.6649201685e+00 2.4972220165e-05 1.9934496685e+00 -3.4527561083e+00 1.9934496685e+00 3.4527561083e+00 
91400 6.6649201685e+00 2.4976175247e-05 1.9934496685e+00 -3.4527561083e+00 1.9934496685e+00 3.4527561083e+00 
91500 6.6649201686e+00 2.4982982253e-05 1.9934496685e+00 -3.4527561083e+00 1.9934496685e+00 3.4527561083e+00 
91600 6.6649201686e+00 2.4992568988e-05 1.9934496685e+00 -3.4527561083e+00 1.9934496685e+00 3.4527561083e+00 
91700 6.6649201687e+00 2.5004860866e-05 1.9934496685e+00 -3.4527561083e+00 1.9934496685e+00 3.4527561083e+00 
91800 6.6649201687e+00 2.5019781079e-05 1.9934496685e+00 -3.4527561083e+00 1.9934496685e+00 3.4527561083e+00 
91900 6.6649201688e+00 2.5037250798e-05 1.9934496685e+00 -3.4527561083e+00 1.9934496685e+00 3.4527561083e+00 
92000 6.6649201688e+00 2.5042976848e-05 1.9934496685e+00 -3.4527561083e+00 1.9934496685e+00 3.4527561083e+00 
92000 6.6649201688e+00 2.5042976849e-05 1.9934496685e+00 -3.4527561083e+00 1.9934496685e+00 3.4527561083e+00 
