# step Hamiltonian StressXX CellTensor1 CellTensor2 CellTensor3 CellTensor4 
0 6.6557826283e+00 2.5898579762e-01 2.6408444507e+00 -4.5740767634e+00 2.6408444507e+00 4.5740767634e+00 
100 6.6843015284e+00 3.0001482070e-01 2.6408444507e+00 -4.5740767634e+00 2.6408444507e+00 4.5740767634e+00 
200 6.7085236729e+00 3.3680493983e-01 2.6351662094e+00 -4.5642417611e+00 2.6351662094e+00 4.5642417611e+00 
300 6.7299669727e+00 3.6977807638e-01 2.6287782162e+00 -4.5531774323e+00 2.6287782162e+00 4.5531774323e+00 
400 6.7490719773e+00 3.9964770500e-01 2.6217480921e+00 -4.5410009001e+00 2.6217480921e+00 4.5410009001e+00 
500 6.7661761206e+00 4.2698983686e-01 2.6141300165e+00 -4.5278060061e+00 2.6141300165e+00 4.5278060061e+00 
600 6.7815344011e+00 4.5226339454e-01 2.6059673236e+00 -4.5136678073e+00 2.6059673236e+00 4.5136678073e+00 
700 6.7953371781e+00 4.7583037087e-01 2.5972946983e+00 -4.4986463797e+00 2.5972946983e+00 4.4986463797e+00 
800 6.8077248411e+00 4.9797398210e-01 2.5881399865e+00 -4.4827899537e+00 2.5881399865e+00 4.4827899537e+00 
900 6.8187995624e+00 5.1891412953e-01 2.5785256625e+00 -4.4661374560e+00 2.5785256625e+00 4.4661374560e+00 
1000 6.8286345420e+00 5.3882011422e-01 2.5684700070e+00 -4.4487205498e+00 2.5684700070e+00 4.4487205498e+00 
1100 6.8372811998e+00 5.5782086001e-01 2.5579880494e+00 -4.4305652668e+00 2.5579880494e+00 4.4305652668e+00 
1200 6.8447747416e+00 5.7601301778e-01 2.5470923207e+00 -4.4116933111e+00 2.5470923207e+00 4.4116933111e+00 
1300 6.8511384644e+00 5.9346733823e-01 2.5357934579e+00 -4.3921231065e+00 2.5357934579e+00 4.3921231065e+00 
1400 6.8563870958e+00 6.1023366507e-01 2.5241006920e+00 -4.3718706420e+00 2.5241006920e+00 4.3718706420e+00 
1500 6.8605294029e+00 6.2634484765e-01 2.5120222467e+00 -4.3509501610e+00 2.5120222467e+00 4.3509501610e+00 
1600 6.8635702493e+00 6.4181981726e-01 2.4995656655e+00 -4.3293747295e+00 2.4995656655e+00 4.3293747295e+00 
1700 6.8655122359e+00 6.5666602193e-01 2.4867380860e+00 -4.3071567100e+00 2.4867380860e+00 4.3071567100e+00 
1800 6.8663570273e+00 6.7088137317e-01 2.4735464710e+00 -4.2843081627e+00 2.4735464710e+00 4.2843081627e+00 
1900 6.8661064397e+00 6.8445582419e-01 2.4599978074e+00 -4.2608411889e+00 2.4599978074e+00 4.2608411889e+00 
2000 6.8647633437e+00 6.9737267278e-01 2.4460992780e+00 -4.2367682298e+00 2.4460992780e+00 4.2367682298e+00 
2100 6.8623324236e+00 7.0960966071e-01 2.4318584133e+00 -4.2121023287e+00 2.4318584133e+00 4.2121023287e+00 
2200 6.8588208189e+00 7.2113992547e-01 2.4172832261e+00 -4.1868573639e+00 2.4172832261e+00 4.1868573639e+00 
2300 6.8542386695e+00 7.3193284648e-01 2.4023823312e+00 -4.1610482569e+00 2.4023823312e+00 4.1610482569e+00 
2400 6.8485995759e+00 7.4195481817e-01 2.3871650535e+00 -4.1346911587e+00 2.3871650535e+00 4.1346911587e+00 
2500 6.8419209827e+00 7.5116997311e-01 2.3716415244e+00 -4.1078036176e+00 2.3716415244e+00 4.1078036176e+00 
2600 6.8342244911e+00 7.5954087223e-01 2.3558227684e+00 -4.0804047284e+00 2.3558227684e+00 4.0804047284e+00 
2700 6.8255361024e+00 7.6702917300e-01 2.3397207788e+00 -4.0525152644e+00 2.3397207788e+00 4.0525152644e+00 
2800 6.8158863938e+00 7.7359628235e-01 2.3233485847e+00 -4.0241577923e+00 2.3233485847e+00 4.0241577923e+00 
2900 6.8053106286e+00 7.7920399761e-01 2.3067203065e+00 -3.9953567697e+00 2.3067203065e+00 3.9953567697e+00 
3000 6.7938488008e+00 7.8381513642e-01 2.2898512024e+00 -3.9661386244e+00 2.2898512024e+00 3.9661386244e+00 
3100 6.7815456162e+00 7.8739415463e-01 2.2727577036e+00 -3.9365318159e+00 2.2727577036e+00 3.9365318159e+00 
3200 6.7684504112e+00 7.8990775067e-01 2.2554574376e+00 -3.9065668762e+00 2.2554574376e+00 3.9065668762e+00 
3300 6.7546170119e+00 7.9132545383e-01 2.2379692415e+00 -3.8762764321e+00 2.2379692415e+00 3.8762764321e+00 
3400 6.7401035358e+00 7.9162019389e-01 2.2203131616e+00 -3.8456952046e+00 2.2203131616e+00 3.8456952046e+00 
3500 6.7249721375e+00 7.9076884887e-01 2.2025104407e+00 -3.8148599874e+00 2.2025104407e+00 3.8148599874e+00 
3600 6.7092887030e+00 7.8875276735e-01 2.1845834919e+00 -3.7838096014e+00 2.1845834919e+00 3.7838096014e+00 
3700 6.6931224908e+00 7.8555826070e-01 2.1665558589e+00 -3.7525848251e+00 2.1665558589e+00 3.7525848251e+00 
3800 6.6765457253e+00 7.8117705965e-01 2.1484521608e+00 -3.7212283002e+00 2.1484521608e+00 3.7212283002e+00 
3900 6.6596331408e+00 7.7560672857e-01 2.1302980224e+00 -3.6897844101e+00 2.1302980224e+00 3.6897844101e+00 
4000 6.6424614795e+00 7.6885102916e-01 2.1121199890e+00 -3.6582991327e+00 2.1121199890e+00 3.6582991327e+00 
4100 6.6251089455e+00 7.6092022485e-01 2.0939454252e+00 -3.6268198647e+00 2.0939454252e+00 3.6268198647e+00 
4200 6.6076546167e+00 7.5183131613e-01 2.0758023984e+00 -3.5953952204e+00 2.0758023984e+00 3.5953952204e+00 
4300 6.5901778201e+00 7.4160819710e-01 2.0577195468e+00 -3.5640748028e+00 2.0577195468e+00 3.5640748028e+00 
4400 6.5727574768e+00 7.3028172397e-01 2.0397259329e+00 -3.5329089492e+00 2.0397259329e+00 3.5329089492e+00 
4500 6.5554714226e+00 7.1788968735e-01 2.0218508828e+00 -3.5019484543e+00 2.0218508828e+00 3.5019484543e+00 
4600 6.5383957169e+00 7.0447668192e-01 2.0041238140e+00 -3.4712442706e+00 2.0041238140e+00 3.4712442706e+00 
4700 6.5216039479e+00 6.9009386937e-01 1.9865740526e+00 -3.4408471921e+00 1.9865740526e+00 3.4408471921e+00 
4800 6.5051665502e+00 6.7479863326e-01 1.9692306416e+00 -3.4108075231e+00 1.9692306416e+00 3.4108075231e+00 
4900 6.4891501472e+00 6.5865412758e-01 1.9521221448e+00 -3.3811747374e+00 1.9521221448e+00 3.3811747374e+00 
5000 6.4736169317e+00 6.4172872394e-01 1.9352764473e+00 -3.3519971334e+00 1.9352764473e+00 3.3519971334e+00 
5100 6.4586241016e+00 6.2409536571e-01 1.9187205563e+00 -3.3233214891e+00 1.9187205563e+00 3.3233214891e+00 
5200 6.4442233620e+00 6.0583084022e-01 1.9024804066e+00 -3.2951927247e+00 1.9024804066e+00 3.2951927247e+00 
5300 6.4304605059e+00 5.8701498319e-01 1.8865806722e+00 -3.2676535768e+00 1.8865806722e+00 3.2676535768e+00 
5400 6.4173750850e+00 5.6772983161e-01 1.8710445892e+00 -3.2407442916e+00 1.8710445892e+00 3.2407442916e+00 
5500 6.4050001763e+00 5.4805874298e-01 1.8558937926e+00 -3.2145023422e+00 1.8558937926e+00 3.2145023422e+00 
5600 6.3933622502e+00 5.2808550017e-01 1.8411481697e+00 -3.1889621742e+00 1.8411481697e+00 3.1889621742e+00 
5700 6.3824811417e+00 5.0789342122e-01 1.8268257332e+00 -3.1641549865e+00 1.8268257332e+00 3.1641549865e+00 
5800 6.3723701221e+00 4.8756449338e-01 1.8129425162e+00 -3.1401085493e+00 1.8129425162e+00 3.1401085493e+00 
5900 6.3630360688e+00 4.6717854951e-01 1.7995124910e+00 -3.1168470633e+00 1.7995124910e+00 3.1168470633e+00 
6000 6.3544797238e+00 4.4681250352e-01 1.7865475127e+00 -3.0943910621e+00 1.7865475127e+00 3.0943910621e+00 
6100 6.3466960320e+00 4.2653965937e-01 1.7740572882e+00 -3.0727573587e+00 1.7740572882e+00 3.0727573587e+00 
6200 6.3396745486e+00 4.0642910539e-01 1.7620493714e+00 -3.0519590368e+00 1.7620493714e+00 3.0519590368e+00 
6300 6.3333999012e+00 3.8654520304e-01 1.7505291826e+00 -3.0320054844e+00 1.7505291826e+00 3.0320054844e+00 
6400 6.3278522946e+00 3.6694717603e-01 1.7395000521e+00 -3.0129024701e+00 1.7395000521e+00 3.0129024701e+00 
6500 6.3230080427e+00 3.4768880253e-01 1.7289632866e+00 -2.9946522569e+00 1.7289632866e+00 2.9946522569e+00 
6600 6.3188401155e+00 3.2881821039e-01 1.7189182546e+00 -2.9772537510e+00 1.7189182546e+00 2.9772537510e+00 
6700 6.3153186873e+00 3.1037777230e-01 1.7093624901e+00 -2.9607026813e+00 1.7093624901e+00 2.9607026813e+00 
6800 6.3124116756e+00 2.9240409548e-01 1.7002918113e+00 -2.9449918049e+00 1.7002918113e+00 2.9449918049e+00 
6900 6.3100852600e+00 2.7492809832e-01 1.6917004511e+00 -2.9301111325e+00 1.6917004511e+00 2.9301111325e+00 
7000 6.3083043727e+00 2.5797516492e-01 1.6835811963e+00 -2.9160481706e+00 1.6835811963e+00 2.9160481706e+00 
7100 6.3070331550e+00 2.4156536696e-01 1.6759255332e+00 -2.9027881732e+00 1.6759255332e+00 2.9027881732e+00 
7200 6.3062353737e+00 2.2571374223e-01 1.6687237965e+00 -2.8903143994e+00 1.6687237965e+00 2.8903143994e+00 
7300 6.3058747960e+00 2.1043061820e-01 1.6619653186e+00 -2.8786083722e+00 1.6619653186e+00 2.8786083722e+00 
7400 6.3059155193e+00 1.9572196975e-01 1.6556385767e+00 -2.8676501339e+00 1.6556385767e+00 2.8676501339e+00 
7500 6.3063222577e+00 1.8158980025e-01 1.6497313365e+00 -2.8574184937e+00 1.6497313365e+00 2.8574184937e+00 
7600 6.3070605856e+00 1.6803253613e-01 1.6442307895e+00 -2.8478912668e+00 1.6442307895e+00 2.8478912668e+00 
7700 6.3080971393e+00 1.5504542599e-01 1.6391236831e+00 -2.8390454989e+00 1.6391236831e+00 2.8390454989e+00 
7800 6.3093997813e+00 1.4262093624e-01 1.6343964422e+00 -2.8308576776e+00 1.6343964422e+00 2.8308576776e+00 
7900 6.3109377279e+00 1.3074913680e-01 1.6300352815e+00 -2.8233039257e+00 1.6300352815e+00 2.8233039257e+00 
8000 6.3126816462e+00 1.1941807107e-01 1.6260263073e+00 -2.8163601787e+00 1.6260263073e+00 2.8163601787e+00 
8100 6.3146037218e+00 1.0861410591e-01 1.6223556095e+00 -2.8100023437e+00 1.6223556095e+00 2.8100023437e+00 
8200 6.3166777018e+00 9.8322258422e-02 1.6190093433e+00 -2.8042064404e+00 1.6190093433e+00 2.8042064404e+00 
8300 6.3188789167e+00 8.8526497048e-02 1.6159737997e+00 -2.7989487248e+00 1.6159737997e+00 2.7989487248e+00 
8400 6.3211842838e+00 7.9210015869e-02 1.6132354680e+00 -2.7942057952e+00 1.6132354680e+00 2.7942057952e+00 
8500 6.3235722951e+00 7.0355481326e-02 1.6107810869e+00 -2.7899546823e+00 1.6107810869e+00 2.7899546823e+00 
8600 6.3260229934e+00 6.1945251518e-02 1.6085976877e+00 -2.7861729240e+00 1.6085976877e+00 2.7861729240e+00 
8700 6.3285179376e+00 5.3961568696e-02 1.6066726296e+00 -2.7828386257e+00 1.6066726296e+00 2.7828386257e+00 
8800 6.3310401602e+00 4.6386725983e-02 1.6049936268e+00 -2.7799305074e+00 1.6049936268e+00 2.7799305074e+00 
8900 6.3335741190e+00 3.9203209714e-02 1.6035487687e+00 -2.7774279399e+00 1.6035487687e+00 2.7774279399e+00 
9000 6.3361056431e+00 3.2393818990e-02 1.6023265351e+00 -2.7753109691e+00 1.6023265351e+00 2.7753109691e+00 
9100 6.3386218770e+00 2.5941764237e-02 1.6013158044e+00 -2.7735603323e+00 1.6013158044e+00 2.7735603323e+00 
9200 6.3411112214e+00 1.9830746588e-02 1.6005058588e+00 -2.7721574652e+00 1.6005058588e+00 2.7721574652e+00 
9300 6.3435632729e+00 1.4045019978e-02 1.5998863838e+00 -2.7710845031e+00 1.5998863838e+00 2.7710845031e+00 
9400 6.3459687633e+00 8.5694378038e-03 1.5994474658e+00 -2.7703242748e+00 1.5994474658e+00 2.7703242748e+00 
9500 6.3483194986e+00 3.3894859433e-03 1.5991795859e+00 -2.7698602931e+00 1.5991795859e+00 2.7698602931e+00 
9600 6.3506082989e+00 -1.5086961589e-03 1.5990736113e+00 -2.7696767397e+00 1.5990736113e+00 2.7696767397e+00 
9700 6.3528289383e+00 -6.1383047179e-03 1.5991207856e+00 -2.7697584480e+00 1.5991207856e+00 2.7697584480e+00 
9800 6.3549760866e+00 -1.0511869659e-02 1.5993127169e+00 -2.7700908828e+00 1.5993127169e+00 2.7700908828e+00 
9900 6.3570452522e+00 -1.4641260117e-02 1.5996413652e+00 -2.7706601185e+00 1.5996413652e+00 2.7706601185e+00 
10000 6.3590327258e+00 -1.8537696138e-02 1.6000990290e+00 -2.7714528154e+00 1.6000990290e+00 2.7714528154e+00 
10100 6.3609355269e+00 -2.2211765456e-02 1.6006783311e+00 -2.7724561960e+00 1.6006783311e+00 2.7724561960e+00 
10200 6.3627513505e+00 -2.5673444343e-02 1.6013722047e+00 -2.7736580204e+00 1.6013722047e+00 2.7736580204e+00 
10300 6.3644785170e+00 -2.8932121647e-02 1.6021738792e+00 -2.7750465613e+00 1.6021738792e+00 2.7750465613e+00 
10400 6.3661159226e+00 -3.1996625227e-02 1.6030768660e+00 -2.7766105804e+00 1.6030768660e+00 2.7766105804e+00 
10500 6.3676629926e+00 -3.4875250119e-02 1.6040749449e+00 -2.7783393037e+00 1.6040749449e+00 2.7783393037e+00 
10600 6.3691196360e+00 -3.7575787838e-02 1.6051621505e+00 -2.7802223991e+00 1.6051621505e+00 2.7802223991e+00 
10700 6.3704862016e+00 -4.0105556301e-02 1.6063327597e+00 -2.7822499537e+00 1.6063327597e+00 2.7822499537e+00 
10800 6.3717634370e+00 -4.2471429970e-02 1.6075812790e+00 -2.7844124524e+00 1.6075812790e+00 2.7844124524e+00 
10900 6.3729524486e+00 -4.4679869829e-02 1.6089024327e+00 -2.7867007579e+00 1.6089024327e+00 2.7867007579e+00 
11000 6.3740546636e+00 -4.6736952909e-02 1.6102911525e+00 -2.7891060910e+00 1.6102911525e+00 2.7891060910e+00 
11100 6.3750717942e+00 -4.8648401107e-02 1.6117425660e+00 -2.7916200130e+00 1.6117425660e+00 2.7916200130e+00 
11200 6.3760058036e+00 -5.0419609115e-02 1.6132519877e+00 -2.7942344082e+00 1.6132519877e+00 2.7942344082e+00 
11300 6.3768588733e+00 -5.2055671274e-02 1.6148149097e+00 -2.7969414685e+00 1.6148149097e+00 2.7969414685e+00 
11400 6.3776333730e+00 -5.3561407261e-02 1.6164269930e+00 -2.7997336787e+00 1.6164269930e+00 2.7997336787e+00 
11500 6.3783318316e+00 -5.4941386494e-02 1.6180840598e+00 -2.8026038024e+00 1.6180840598e+00 2.8026038024e+00 
11600 6.3789569109e+00 -5.6199951196e-02 1.6197820860e+00 -2.8055448701e+00 1.6197820860e+00 2.8055448701e+00 
11700 6.3795113797e+00 -5.7341238090e-02 1.6215171951e+00 -2.8085501672e+00 1.6215171951e+00 2.8085501672e+00 
11800 6.3799980911e+00 -5.8369198671e-02 1.6232856514e+00 -2.8116132235e+00 1.6232856514e+00 2.8116132235e+00 
11900 6.3804199607e+00 -5.9287618080e-02 1.6250838550e+00 -2.8147278034e+00 1.6250838550e+00 2.8147278034e+00 
12000 6.3807799463e+00 -6.0100132568e-02 1.6269083362e+00 -2.8178878975e+00 1.6269083362e+00 2.8178878975e+00 
12100 6.3810810297e+00 -6.0810245575e-02 1.6287557510e+00 -2.8210877139e+00 1.6287557510e+00 2.8210877139e+00 
12200 6.3813262003e+00 -6.1421342445e-02 1.6306228771e+00 -2.8243216712e+00 1.6306228771e+00 2.8243216712e+00 
12300 6.3815184390e+00 -6.1936703828e-02 1.6325066098e+00 -2.8275843919e+00 1.6325066098e+00 2.8275843919e+00 
12400 6.3816607054e+00 -6.2359517793e-02 1.6344039585e+00 -2.8308706962e+00 1.6344039585e+00 2.8308706962e+00 
12500 6.3817559247e+00 -6.2692890717e-02 1.6363120435e+00 -2.8341755964e+00 1.6363120435e+00 2.8341755964e+00 
12600 6.3818069771e+00 -6.2939856988e-02 1.6382280934e+00 -2.8374942921e+00 1.6382280934e+00 2.8374942921e+00 
12700 6.3818166884e+00 -6.3103387586e-02 1.6401494419e+00 -2.8408221654e+00 1.6401494419e+00 2.8408221654e+00 
12800 6.3817878211e+00 -6.3186397596e-02 1.6420735260e+00 -2.8441547768e+00 1.6420735260e+00 2.8441547768e+00 
12900 6.3817230674e+00 -6.3191752715e-02 1.6439978833e+00 -2.8474878614e+00 1.6439978833e+00 2.8474878614e+00 
13000 6.3816250435e+00 -6.3122274812e-02 1.6459201501e+00 -2.8508173251e+00 1.6459201501e+00 2.8508173251e+00 
13100 6.3814962841e+00 -6.2980746603e-02 1.6478380595e+00 -2.8541392418e+00 1.6478380595e+00 2.8541392418e+00 
13200 6.3813392386e+00 -6.2769915498e-02 1.6497494399e+00 -2.8574498496e+00 1.6497494399e+00 2.8574498496e+00 
13300 6.3811562681e+00 -6.2492496695e-02 1.6516522126e+00 -2.8607455487e+00 1.6516522126e+00 2.8607455487e+00 
13400 6.3809496431e+00 -6.2151175561e-02 1.6535443910e+00 -2.8640228978e+00 1.6535443910e+00 2.8640228978e+00 
13500 6.3807215420e+00 -6.1748609382e-02 1.6554240786e+00 -2.8672786121e+00 1.6554240786e+00 2.8672786121e+00 
13600 6.3804740503e+00 -6.1287428523e-02 1.6572894674e+00 -2.8705095603e+00 1.6572894674e+00 2.8705095603e+00 
13700 6.3802091606e+00 -6.0770237066e-02 1.6591388369e+00 -2.8737127623e+00 1.6591388369e+00 2.8737127623e+00 
13800 6.3799287732e+00 -6.0199612978e-02 1.6609705523e+00 -2.8768853865e+00 1.6609705523e+00 2.8768853865e+00 
13900 6.3796346970e+00 -5.9578107862e-02 1.6627830633e+00 -2.8800247476e+00 1.6627830633e+00 2.8800247476e+00 
14000 6.3793286507e+00 -5.8908246350e-02 1.6645749024e+00 -2.8831283040e+00 1.6645749024e+00 2.8831283040e+00 
14100 6.3790122651e+00 -5.8192525174e-02 1.6663446838e+00 -2.8861936552e+00 1.6663446838e+00 2.8861936552e+00 
14200 6.3786870850e+00 -5.7433411979e-02 1.6680911015e+00 -2.8892185394e+00 1.6680911015e+00 2.8892185394e+00 
14300 6.3783545717e+00 -5.6633343912e-02 1.6698129283e+00 -2.8922008310e+00 1.6698129283e+00 2.8922008310e+00 
14400 6.3780161057e+00 -5.5794726030e-02 1.6715090141e+00 -2.8951385378e+00 1.6715090141e+00 2.8951385378e+00 
14500 6.3776729897e+00 -5.4919929580e-02 1.6731782843e+00 -2.8980297985e+00 1.6731782843e+00 2.8980297985e+00 
14600 6.3773264511e+00 -5.4011290167e-02 1.6748197381e+00 -2.9008728800e+00 1.6748197381e+00 2.9008728800e+00 
14700 6.3769776459e+00 -5.3071105867e-02 1.6764324475e+00 -2.9036661745e+00 1.6764324475e+00 2.9036661745e+00 
14800 6.3766276609e+00 -5.2101635300e-02 1.6780155548e+00 -2.9064081968e+00 1.6780155548e+00 2.9064081968e+00 
14900 6.3762775174e+00 -5.1105095703e-02 1.6795682717e+00 -2.9090975813e+00 1.6795682717e+00 2.9090975813e+00 
15000 6.3759281743e+00 -5.0083661028e-02 1.6810898771e+00 -2.9117330792e+00 1.6810898771e+00 2.9117330792e+00 
15100 6.3755805309e+00 -4.9039460084e-02 1.6825797157e+00 -2.9143135553e+00 1.6825797157e+00 2.9143135553e+00 
15200 6.3752354301e+00 -4.7974574746e-02 1.6840371959e+00 -2.9168379851e+00 1.6840371959e+00 2.9168379851e+00 
15300 6.3748936611e+00 -4.6891038264e-02 1.6854617883e+00 -2.9193054515e+00 1.6854617883e+00 2.9193054515e+00 
15400 6.3745559623e+00 -4.5790833658e-02 1.6868530237e+00 -2.9217151420e+00 1.6868530237e+00 2.9217151420e+00 
15500 6.3742230241e+00 -4.4675892250e-02 1.6882104914e+00 -2.9240663450e+00 1.6882104914e+00 2.9240663450e+00 
15600 6.3738954910e+00 -4.3548092310e-02 1.6895338372e+00 -2.9263584471e+00 1.6895338372e+00 2.9263584471e+00 
15700 6.3735739643e+00 -4.2409257856e-02 1.6908227615e+00 -2.9285909294e+00 1.6908227615e+00 2.9285909294e+00 
15800 6.3732590040e+00 -4.1261157587e-02 1.6920770176e+00 -2.9307633648e+00 1.6920770176e+00 2.9307633648e+00 
15900 6.3729511313e+00 -4.0105503981e-02 1.6932964098e+00 -2.9328754140e+00 1.6932964098e+00 2.9328754140e+00 
16000 6.3726508299e+00 -3.8943952537e-02 1.6944807912e+00 -2.9349268227e+00 1.6944807912e+00 2.9349268227e+00 
16100 6.3723585479e+00 -3.7778101186e-02 1.6956300621e+00 -2.9369174184e+00 1.6956300621e+00 2.9369174184e+00 
16200 6.3720746998e+00 -3.6609489848e-02 1.6967441682e+00 -2.9388471068e+00 1.6967441682e+00 2.9388471068e+00 
16300 6.3717996670e+00 -3.5439600153e-02 1.6978230983e+00 -2.9407158685e+00 1.6978230983e+00 2.9407158685e+00 
16400 6.3715337999e+00 -3.4269855316e-02 1.6988668828e+00 -2.9425237563e+00 1.6988668828e+00 2.9425237563e+00 
16500 6.3712774186e+00 -3.3101620154e-02 1.6998755917e+00 -2.9442708914e+00 1.6998755917e+00 2.9442708914e+00 
16600 6.3710308138e+00 -3.1936201260e-02 1.7008493329e+00 -2.9459574607e+00 1.7008493329e+00 2.9459574607e+00 
16700 6.3707942479e+00 -3.0774847303e-02 1.7017882503e+00 -2.9475837132e+00 1.7017882503e+00 2.9475837132e+00 
16800 6.3705679554e+00 -2.9618749475e-02 1.7026925217e+00 -2.9491499573e+00 1.7026925217e+00 2.9491499573e+00 
16900 6.3703521440e+00 -2.8469042049e-02 1.7035623579e+00 -2.9506565577e+00 1.7035623579e+00 2.9506565577e+00 
17000 6.3701469947e+00 -2.7326803072e-02 1.7043979999e+00 -2.9521039322e+00 1.7043979999e+00 2.9521039322e+00 
17100 6.3699526626e+00 -2.6193055151e-02 1.7051997183e+00 -2.9534925492e+00 1.7051997183e+00 2.9534925492e+00 
17200 6.3697692771e+00 -2.5068766355e-02 1.7059678108e+00 -2.9548229243e+00 1.7059678108e+00 2.9548229243e+00 
17300 6.3695969422e+00 -2.3954851200e-02 1.7067026009e+00 -2.9560956181e+00 1.7067026009e+00 2.9560956181e+00 
17400 6.3694357371e+00 -2.2852171728e-02 1.7074044365e+00 -2.9573112330e+00 1.7074044365e+00 2.9573112330e+00 
17500 6.3692857163e+00 -2.1761538654e-02 1.7080736881e+00 -2.9584704108e+00 1.7080736881e+00 2.9584704108e+00 
17600 6.3691469098e+00 -2.0683712584e-02 1.7087107476e+00 -2.9595738302e+00 1.7087107476e+00 2.9595738302e+00 
17700 6.3690193233e+00 -1.9619405296e-02 1.7093160265e+00 -2.9606222041e+00 1.7093160265e+00 2.9606222041e+00 
17800 6.3689029389e+00 -1.8569281062e-02 1.7098899550e+00 -2.9616162774e+00 1.7098899550e+00 2.9616162774e+00 
17900 6.3687977146e+00 -1.7533958022e-02 1.7104329801e+00 -2.9625568245e+00 1.7104329801e+00 2.9625568245e+00 
18000 6.3687035854e+00 -1.6514009586e-02 1.7109455647e+00 -2.9634446471e+00 1.7109455647e+00 2.9634446471e+00 
18100 6.3686204630e+00 -1.5509965870e-02 1.7114281863e+00 -2.9642805723e+00 1.7114281863e+00 2.9642805723e+00 
18200 6.3685482364e+00 -1.4522315145e-02 1.7118813357e+00 -2.9650654499e+00 1.7118813357e+00 2.9650654499e+00 
18300 6.3684867723e+00 -1.3551505303e-02 1.7123055156e+00 -2.9658001511e+00 1.7123055156e+00 2.9658001511e+00 
18400 6.3684359152e+00 -1.2597945328e-02 1.7127012402e+00 -2.9664855662e+00 1.7127012402e+00 2.9664855662e+00 
18500 6.3683954885e+00 -1.1662006772e-02 1.7130690333e+00 -2.9671226026e+00 1.7130690333e+00 2.9671226026e+00 
18600 6.3683652944e+00 -1.0744025218e-02 1.7134094281e+00 -2.9677121836e+00 1.7134094281e+00 2.9677121836e+00 
18700 6.3683451148e+00 -9.8443017429e-03 1.7137229653e+00 -2.9682552460e+00 1.7137229653e+00 2.9682552460e+00 
18800 6.3683347118e+00 -8.9631043547e-03 1.7140101931e+00 -2.9687527391e+00 1.7140101931e+00 2.9687527391e+00 
18900 6.3683338288e+00 -8.1006694193e-03 1.7142716656e+00 -2.9692056228e+00 1.7142716656e+00 2.9692056228e+00 
19000 6.3683421904e+00 -7.2572030584e-03 1.7145079425e+00 -2.9696148664e+00 1.7145079425e+00 2.9696148664e+00 
19100 6.3683595042e+00 -6.4328825230e-03 1.7147195878e+00 -2.9699814469e+00 1.7147195878e+00 2.9699814469e+00 
19200 6.3683854610e+00 -5.6278575350e-03 1.7149071695e+00 -2.9703063479e+00 1.7149071695e+00 2.9703063479e+00 
19300 6.3684197360e+00 -4.8422515973e-03 1.7150712585e+00 -2.9705905583e+00 1.7150712585e+00 2.9705905583e+00 
19400 6.3684619897e+00 -4.0761632671e-03 1.7152124281e+00 -2.9708350712e+00 1.7152124281e+00 2.9708350712e+00 
19500 6.3685118690e+00 -3.3296673923e-03 1.7153312533e+00 -2.9710408825e+00 1.7153312533e+00 2.9710408825e+00 
19600 6.3685690084e+00 -2.6028163082e-03 1.7154283103e+00 -2.9712089902e+00 1.7154283103e+00 2.9712089902e+00 
19700 6.3686330307e+00 -1.8956409938e-03 1.7155041758e+00 -2.9713403931e+00 1.7155041758e+00 2.9713403931e+00 
19800 6.3687035488e+00 -1.2081521855e-03 1.7155594264e+00 -2.9714360899e+00 1.7155594264e+00 2.9714360899e+00 
19900 6.3687801662e+00 -5.4034144891e-04 1.7155946381e+00 -2.9714970784e+00 1.7155946381e+00 2.9714970784e+00 
20000 6.3688624788e+00 1.0781779339e-04 1.7156103860e+00 -2.9715243546e+00 1.7156103860e+00 2.9715243546e+00 
20100 6.3689500760e+00 7.3636927728e-04 1.7156072438e+00 -2.9715189121e+00 1.7156072438e+00 2.9715189121e+00 
20200 6.3690425418e+00 1.3453729562e-03 1.7155857829e+00 -2.9714817408e+00 1.7155857829e+00 2.9714817408e+00 
20300 6.3691394563e+00 1.9349041037e-03 1.7155465728e+00 -2.9714138268e+00 1.7155465728e+00 2.9714138268e+00 
20400 6.3692403970e+00 2.5050524588e-03 1.7154901799e+00 -2.9713161514e+00 1.7154901799e+00 2.9713161514e+00 
20500 6.3693449399e+00 3.0559214145e-03 1.7154171677e+00 -2.9711896905e+00 1.7154171677e+00 2.9711896905e+00 
20600 6.3694526610e+00 3.5876272468e-03 1.7153280962e+00 -2.9710354142e+00 1.7153280962e+00 2.9710354142e+00 
20700 6.3695631375e+00 4.1002983854e-03 1.7152235217e+00 -2.9708542859e+00 1.7152235217e+00 2.9708542859e+00 
20800 6.3696759491e+00 4.5940747234e-03 1.7151039964e+00 -2.9706472621e+00 1.7151039964e+00 2.9706472621e+00 
20900 6.3697906795e+00 5.0691069659e-03 1.7149700683e+00 -2.9704152917e+00 1.7149700683e+00 2.9704152917e+00 
21000 6.3699069169e+00 5.5255560156e-03 1.7148222804e+00 -2.9701593156e+00 1.7148222804e+00 2.9701593156e+00 
21100 6.3700242562e+00 5.9635923935e-03 1.7146611713e+00 -2.9698802665e+00 1.7146611713e+00 2.9698802665e+00 
21200 6.3701422993e+00 6.3833956943e-03 1.7144872742e+00 -2.9695790679e+00 1.7144872742e+00 2.9695790679e+00 
21300 6.3702606569e+00 6.7851540744e-03 1.7143011171e+00 -2.9692566343e+00 1.7143011171e+00 2.9692566343e+00 
21400 6.3703789489e+00 7.1690637706e-03 1.7141032224e+00 -2.9689138706e+00 1.7141032224e+00 2.9689138706e+00 
21500 6.3704968061e+00 7.5353286478e-03 1.7138941067e+00 -2.9685516716e+00 1.7138941067e+00 2.9685516716e+00 
21600 6.3706138707e+00 7.8841597747e-03 1.7136742807e+00 -2.9681709219e+00 1.7136742807e+00 2.9681709219e+00 
21700 6.3707297974e+00 8.2157750252e-03 1.7134442492e+00 -2.9677724955e+00 1.7134442492e+00 2.9677724955e+00 
21800 6.3708442544e+00 8.5303987031e-03 1.7132045103e+00 -2.9673572556e+00 1.7132045103e+00 2.9673572556e+00 
21900 6.3709569237e+00 8.8282611902e-03 1.7129555560e+00 -2.9669260542e+00 1.7129555560e+00 2.9669260542e+00 
22000 6.3710675025e+00 9.1095986143e-03 1.7126978716e+00 -2.9664797316e+00 1.7126978716e+00 2.9664797316e+00 
22100 6.3711757033e+00 9.3746525359e-03 1.7124319355e+00 -2.9660191168e+00 1.7124319355e+00 2.9660191168e+00 
22200 6.3712812548e+00 9.6236696526e-03 1.7121582195e+00 -2.9655450267e+00 1.7121582195e+00 2.9655450267e+00 
22300 6.3713839024e+00 9.8569015185e-03 1.7118771880e+00 -2.9650582659e+00 1.7118771880e+00 2.9650582659e+00 
22400 6.3714834085e+00 1.0074604278e-02 1.7115892986e+00 -2.9645596269e+00 1.7115892986e+00 2.9645596269e+00 
22500 6.3715795529e+00 1.0277038412e-02 1.7112950015e+00 -2.9640498894e+00 1.7112950015e+00 2.9640498894e+00 
22600 6.3716721332e+00 1.0464468494e-02 1.7109947395e+00 -2.9635298203e+00 1.7109947395e+00 2.9635298203e+00 
22700 6.3717609651e+00 1.0637162958e-02 1.7106889479e+00 -2.9630001737e+00 1.7106889479e+00 2.9630001737e+00 
22800 6.3718458822e+00 1.0795393873e-02 1.7103780544e+00 -2.9624616904e+00 1.7103780544e+00 2.9624616904e+00 
22900 6.3719267367e+00 1.0939436722e-02 1.7100624791e+00 -2.9619150979e+00 1.7100624791e+00 2.9619150979e+00 
23000 6.3720033987e+00 1.1069570193e-02 1.7097426342e+00 -2.9613611103e+00 1.7097426342e+00 2.9613611103e+00 
23100 6.3720757568e+00 1.1186075971e-02 1.7094189240e+00 -2.9608004279e+00 1.7094189240e+00 2.9608004279e+00 
23200 6.3721437173e+00 1.1289238530e-02 1.7090917451e+00 -2.9602337372e+00 1.7090917451e+00 2.9602337372e+00 
23300 6.3722072048e+00 1.1379344936e-02 1.7087614856e+00 -2.9596617110e+00 1.7087614856e+00 2.9596617110e+00 
23400 6.3722661613e+00 1.1456684646e-02 1.7084285259e+00 -2.9590850079e+00 1.7084285259e+00 2.9590850079e+00 
23500 6.3723205463e+00 1.1521549309e-02 1.7080932379e+00 -2.9585042721e+00 1.7080932379e+00 2.9585042721e+00 
23600 6.3723703362e+00 1.1574232568e-02 1.7077559855e+00 -2.9579201339e+00 1.7077559855e+00 2.9579201339e+00 
23700 6.3724155239e+00 1.1615029864e-02 1.7074171242e+00 -2.9573332088e+00 1.7074171242e+00 2.9573332088e+00 
23800 6.3724561186e+00 1.1644238235e-02 1.7070770010e+00 -2.9567440981e+00 1.7070770010e+00 2.9567440981e+00 
23900 6.3724921450e+00 1.1662156120e-02 1.7067359545e+00 -2.9561533884e+00 1.7067359545e+00 2.9561533884e+00 
24000 6.3725236427e+00 1.1669083156e-02 1.7063943151e+00 -2.9555616515e+00 1.7063943151e+00 2.9555616515e+00 
24100 6.3725506660e+00 1.1665319975e-02 1.7060524043e+00 -2.9549694446e+00 1.7060524043e+00 2.9549694446e+00 
24200 6.3725732827e+00 1.1651168004e-02 1.7057105352e+00 -2.9543773100e+00 1.7057105352e+00 2.9543773100e+00 
24300 6.3725915740e+00 1.1626929257e-02 1.7053690125e+00 -2.9537857752e+00 1.7053690125e+00 2.9537857752e+00 
24400 6.3726056332e+00 1.1592906127e-02 1.7050281319e+00 -2.9531953528e+00 1.7050281319e+00 2.9531953528e+00 
24500 6.3726155656e+00 1.1549401178e-02 1.7046881809e+00 -2.9526065404e+00 1.7046881809e+00 2.9526065404e+00 
24600 6.3726214872e+00 1.1496716936e-02 1.7043494381e+00 -2.9520198206e+00 1.7043494381e+00 2.9520198206e+00 
24700 6.3726235245e+00 1.1435155674e-02 1.7040121734e+00 -2.9514356610e+00 1.7040121734e+00 2.9514356610e+00 
24800 6.3726218130e+00 1.1365019200e-02 1.7036766482e+00 -2.9508545143e+00 1.7036766482e+00 2.9508545143e+00 
24900 6.3726164970e+00 1.1286608643e-02 1.7033431152e+00 -2.9502768182e+00 1.7033431152e+00 2.9502768182e+00 
25000 6.3726077287e+00 1.1200224238e-02 1.7030118184e+00 -2.9497029953e+00 1.7030118184e+00 2.9497029953e+00 
25100 6.3725956670e+00 1.1106165110e-02 1.7026829932e+00 -2.9491334534e+00 1.7026829932e+00 2.9491334534e+00 
25200 6.3725804772e+00 1.1004729059e-02 1.7023568664e+00 -2.9485685852e+00 1.7023568664e+00 2.9485685852e+00 
25300 6.3725623300e+00 1.0896212345e-02 1.7020336562e+00 -2.9480087688e+00 1.7020336562e+00 2.9480087688e+00 
25400 6.3725414004e+00 1.0780909475e-02 1.7017135723e+00 -2.9474543672e+00 1.7017135723e+00 2.9474543672e+00 
25500 6.3725178676e+00 1.0659112989e-02 1.7013968159e+00 -2.9469057290e+00 1.7013968159e+00 2.9469057290e+00 
25600 6.3724919133e+00 1.0531113251e-02 1.7010835796e+00 -2.9463631877e+00 1.7010835796e+00 2.9463631877e+00 
25700 6.3724637220e+00 1.0397198238e-02 1.7007740476e+00 -2.9458270627e+00 1.7007740476e+00 2.9458270627e+00 
25800 6.3724334791e+00 1.0257653339e-02 1.7004683960e+00 -2.9452976586e+00 1.7004683960e+00 2.9452976586e+00 
25900 6.3724013713e+00 1.0112761147e-02 1.7001667924e+00 -2.9447752657e+00 1.7001667924e+00 2.9447752657e+00 
26000 6.3723675849e+00 9.9628012655e-03 1.6998693961e+00 -2.9442601602e+00 1.6998693961e+00 2.9442601602e+00 
26100 6.3723323058e+00 9.8080501114e-03 1.6995763584e+00 -2.9437526041e+00 1.6995763584e+00 2.9437526041e+00 
26200 6.3722957186e+00 9.6487807267e-03 1.6992878226e+00 -2.9432528454e+00 1.6992878226e+00 2.9432528454e+00 
26300 6.3722580058e+00 9.4852625940e-03 1.6990039239e+00 -2.9427611184e+00 1.6990039239e+00 2.9427611184e+00 
26400 6.3722193476e+00 9.3177614586e-03 1.6987247897e+00 -2.9422776438e+00 1.6987247897e+00 2.9422776438e+00 
26500 6.3721799210e+00 9.1465391556e-03 1.6984505395e+00 -2.9418026286e+00 1.6984505395e+00 2.9418026286e+00 
26600 6.3721398993e+00 8.9718534446e-03 1.6981812854e+00 -2.9413362667e+00 1.6981812854e+00 2.9413362667e+00 
26700 6.3720994515e+00 8.7939578509e-03 1.6979171316e+00 -2.9408787389e+00 1.6979171316e+00 2.9408787389e+00 
26800 6.3720587424e+00 8.6131015137e-03 1.6976581750e+00 -2.9404302131e+00 1.6976581750e+00 2.9404302131e+00 
26900 6.3720179313e+00 8.4295290426e-03 1.6974045054e+00 -2.9399908443e+00 1.6974045054e+00 2.9399908443e+00 
27000 6.3719771722e+00 8.2434803820e-03 1.6971562050e+00 -2.9395607755e+00 1.6971562050e+00 2.9395607755e+00 
27100 6.3719366133e+00 8.0551906831e-03 1.6969133492e+00 -2.9391401369e+00 1.6969133492e+00 2.9391401369e+00 
27200 6.3718963965e+00 7.8648901855e-03 1.6966760065e+00 -2.9387290472e+00 1.6966760065e+00 2.9387290472e+00 
27300 6.3718566572e+00 7.6728041063e-03 1.6964442382e+00 -2.9383276129e+00 1.6964442382e+00 2.9383276129e+00 
27400 6.3718175241e+00 7.4791525392e-03 1.6962180996e+00 -2.9379359291e+00 1.6962180996e+00 2.9379359291e+00 
27500 6.3717791190e+00 7.2841503625e-03 1.6959976388e+00 -2.9375540799e+00 1.6959976388e+00 2.9375540799e+00 
27600 6.3717415563e+00 7.0880071556e-03 1.6957828980e+00 -2.9371821380e+00 1.6957828980e+00 2.9371821380e+00 
27700 6.3717049432e+00 6.8909271256e-03 1.6955739131e+00 -2.9368201655e+00 1.6955739131e+00 2.9368201655e+00 
27800 6.3716693795e+00 6.6931090430e-03 1.6953707138e+00 -2.9364682139e+00 1.6953707138e+00 2.9364682139e+00 
27900 6.3716349572e+00 6.4947461868e-03 1.6951733239e+00 -2.9361263247e+00 1.6951733239e+00 2.9361263247e+00 
28000 6.3716017610e+00 6.2960262988e-03 1.6949817617e+00 -2.9357945292e+00 1.6949817617e+00 2.9357945292e+00 
28100 6.3715698675e+00 6.0971315476e-03 1.6947960396e+00 -2.9354728491e+00 1.6947960396e+00 2.9354728491e+00 
28200 6.3715393461e+00 5.8982385015e-03 1.6946161648e+00 -2.9351612967e+00 1.6946161648e+00 2.9351612967e+00 
28300 6.3715102582e+00 5.6995181110e-03 1.6944421390e+00 -2.9348598752e+00 1.6944421390e+00 2.9348598752e+00 
28400 6.3714826579e+00 5.5011356996e-03 1.6942739590e+00 -2.9345685790e+00 1.6942739590e+00 2.9345685790e+00 
28500 6.3714565915e+00 5.3032509644e-03 1.6941116167e+00 -2.9342873938e+00 1.6941116167e+00 2.9342873938e+00 
28600 6.3714320983e+00 5.1060179848e-03 1.6939550990e+00 -2.9340162972e+00 1.6939550990e+00 2.9340162972e+00 
28700 6.3714092099e+00 4.9095852397e-03 1.6938043883e+00 -2.9337552587e+00 1.6938043883e+00 2.9337552587e+00 
28800 6.3713879512e+00 4.7140956329e-03 1.6936594626e+00 -2.9335042400e+00 1.6936594626e+00 2.9335042400e+00 
28900 6.3713683398e+00 4.5196865272e-03 1.6935202956e+00 -2.9332631956e+00 1.6935202956e+00 2.9332631956e+00 
29000 6.3713503869e+00 4.3264897849e-03 1.6933868568e+00 -2.9330320728e+00 1.6933868568e+00 2.9330320728e+00 
29100 6.3713340969e+00 4.1346318169e-03 1.6932591117e+00 -2.9328108119e+00 1.6932591117e+00 2.9328108119e+00 
29200 6.3713194681e+00 3.9442336384e-03 1.6931370223e+00 -2.9325993468e+00 1.6931370223e+00 2.9325993468e+00 
29300 6.3713064926e+00 3.7554109312e-03 1.6930205465e+00 -2.9323976048e+00 1.6930205465e+00 2.9323976048e+00 
29400 6.3712951569e+00 3.5682741126e-03 1.6929096391e+00 -2.9322055076e+00 1.6929096391e+00 2.9322055076e+00 
29500 6.3712854418e+00 3.3829284107e-03 1.6928042514e+00 -2.9320229707e+00 1.6928042514e+00 2.9320229707e+00 
29600 6.3712773229e+00 3.1994739446e-03 1.6927043316e+00 -2.9318499045e+00 1.6927043316e+00 2.9318499045e+00 
29700 6.3712707709e+00 3.0180058110e-03 1.6926098247e+00 -2.9316862137e+00 1.6926098247e+00 2.9316862137e+00 
29800 6.3712657518e+00 2.8386141744e-03 1.6925206730e+00 -2.9315317985e+00 1.6925206730e+00 2.9315317985e+00 
29900 6.3712622273e+00 2.6613843632e-03 1.6924368161e+00 -2.9313865541e+00 1.6924368161e+00 2.9313865541e+00 
30000 6.3712601550e+00 2.4863969690e-03 1.6923581909e+00 -2.9312503713e+00 1.6923581909e+00 2.9312503713e+00 
30100 6.3712594887e+00 2.3137279503e-03 1.6922847319e+00 -2.9311231366e+00 1.6922847319e+00 2.9311231366e+00 
30200 6.3712601791e+00 2.1434487391e-03 1.6922163713e+00 -2.9310047325e+00 1.6922163713e+00 2.9310047325e+00 
30300 6.3712621734e+00 1.9756263509e-03 1.6921530391e+00 -2.9308950379e+00 1.6921530391e+00 2.9308950379e+00 
30400 6.3712654162e+00 1.8103234968e-03 1.6920946633e+00 -2.9307939281e+00 1.6920946633e+00 2.9307939281e+00 
30500 6.3712698498e+00 1.6475986988e-03 1.6920411701e+00 -2.9307012750e+00 1.6920411701e+00 2.9307012750e+00 
30600 6.3712754140e+00 1.4875064055e-03 1.6919924836e+00 -2.9306169476e+00 1.6919924836e+00 2.9306169476e+00 
30700 6.3712820469e+00 1.3300971105e-03 1.6919485265e+00 -2.9305408117e+00 1.6919485265e+00 2.9305408117e+00 
30800 6.3712896852e+00 1.1754174717e-03 1.6919092200e+00 -2.9304727309e+00 1.6919092200e+00 2.9304727309e+00 
30900 6.3712982641e+00 1.0235104304e-03 1.6918744837e+00 -2.9304125658e+00 1.6918744837e+00 2.9304125658e+00 
31000 6.3713077179e+00 8.7441533256e-04 1.6918442360e+00 -2.9303601752e+00 1.6918442360e+00 2.9303601752e+00 
31100 6.3713179803e+00 7.2816804819e-04 1.6918183940e+00 -2.9303154155e+00 1.6918183940e+00 2.9303154155e+00 
31200 6.3713289845e+00 5.8480109208e-04 1.6917968737e+00 -2.9302781414e+00 1.6917968737e+00 2.9302781414e+00 
31300 6.3713406635e+00 4.4434374316e-04 1.6917795903e+00 -2.9302482057e+00 1.6917795903e+00 2.9302482057e+00 
31400 6.3713529505e+00 3.0682216320e-04 1.6917664579e+00 -2.9302254596e+00 1.6917664579e+00 2.9302254596e+00 
31500 6.3713657791e+00 1.7225951449e-04 1.6917573898e+00 -2.9302097532e+00 1.6917573898e+00 2.9302097532e+00 
31600 6.3713790833e+00 4.0676076001e-05 1.6917522987e+00 -2.9302009351e+00 1.6917522987e+00 2.9302009351e+00 
31700 6.3713927978e+00 -8.6358625661e-05 1.6917522987e+00 -2.9302009351e+00 1.6917522987e+00 2.9302009351e+00 
31800 6.3714068586e+00 -2.1198096906e-04 1.6917548510e+00 -2.9302053559e+00 1.6917548510e+00 2.9302053559e+00 
31900 6.3714212029e+00 -3.3457780569e-04 1.6917611161e+00 -2.9302162074e+00 1.6917611161e+00 2.9302162074e+00 
32000 6.3714357693e+00 -4.5413934695e-04 1.6917710046e+00 -2.9302333347e+00 1.6917710046e+00 2.9302333347e+00 
32100 6.3714504978e+00 -5.7065813054e-04 1.6917844266e+00 -2.9302565824e+00 1.6917844266e+00 2.9302565824e+00 
32200 6.3714653301e+00 -6.8412891739e-04 1.6918012922e+00 -2.9302857945e+00 1.6918012922e+00 2.9302857945e+00 
32300 6.3714802100e+00 -7.9454859145e-04 1.6918215112e+00 -2.9303208148e+00 1.6918215112e+00 2.9303208148e+00 
32400 6.3714950831e+00 -9.0191606234e-04 1.6918449933e+00 -2.9303614870e+00 1.6918449933e+00 2.9303614870e+00 
32500 6.3715098972e+00 -1.0062321711e-03 1.6918716482e+00 -2.9304076546e+00 1.6918716482e+00 2.9304076546e+00 
32600 6.3715246023e+00 -1.1074995990e-03 1.6919013855e+00 -2.9304591611e+00 1.6919013855e+00 2.9304591611e+00 
32700 6.3715391508e+00 -1.2057227798e-03 1.6919341151e+00 -2.9305158504e+00 1.6919341151e+00 2.9305158504e+00 
32800 6.3715534975e+00 -1.3009078150e-03 1.6919697467e+00 -2.9305775661e+00 1.6919697467e+00 2.9305775661e+00 
32900 6.3715675996e+00 -1.3930623924e-03 1.6920081904e+00 -2.9306441526e+00 1.6920081904e+00 2.9306441526e+00 
33000 6.3715814170e+00 -1.4821957091e-03 1.6920493565e+00 -2.9307154544e+00 1.6920493565e+00 2.9307154544e+00 
33100 6.3715949120e+00 -1.5683183961e-03 1.6920931556e+00 -2.9307913166e+00 1.6920931556e+00 2.9307913166e+00 
33200 6.3716080497e+00 -1.6514424480e-03 1.6921394983e+00 -2.9308715846e+00 1.6921394983e+00 2.9308715846e+00 
33300 6.3716207978e+00 -1.7315811557e-03 1.6921882960e+00 -2.9309561047e+00 1.6921882960e+00 2.9309561047e+00 
33400 6.3716331266e+00 -1.8087490416e-03 1.6922394603e+00 -2.9310447237e+00 1.6922394603e+00 2.9310447237e+00 
33500 6.3716450093e+00 -1.8829618001e-03 1.6922929030e+00 -2.9311372893e+00 1.6922929030e+00 2.9311372893e+00 
33600 6.3716564214e+00 -1.9542362393e-03 1.6923485368e+00 -2.9312336498e+00 1.6923485368e+00 2.9312336498e+00 
33700 6.3716673413e+00 -2.0225902280e-03 1.6924062745e+00 -2.9313336545e+00 1.6924062745e+00 2.9313336545e+00 
33800 6.3716777500e+00 -2.0880426446e-03 1.6924660297e+00 -2.9314371535e+00 1.6924660297e+00 2.9314371535e+00 
33900 6.3716876311e+00 -2.1506133302e-03 1.6925277165e+00 -2.9315439982e+00 1.6925277165e+00 2.9315439982e+00 
34000 6.3716969706e+00 -2.2103230439e-03 1.6925912495e+00 -2.9316540405e+00 1.6925912495e+00 2.9316540405e+00 
34100 6.3717057572e+00 -2.2671934219e-03 1.6926565439e+00 -2.9317671339e+00 1.6926565439e+00 2.9317671339e+00 
34200 6.3717139819e+00 -2.3212469396e-03 1.6927235158e+00 -2.9318831326e+00 1.6927235158e+00 2.9318831326e+00 
34300 6.3717216381e+00 -2.3725068757e-03 1.6927920817e+00 -2.9320018922e+00 1.6927920817e+00 2.9320018922e+00 
34400 6.3717287215e+00 -2.4209972802e-03 1.6928621590e+00 -2.9321232695e+00 1.6928621590e+00 2.9321232695e+00 
34500 6.3717352301e+00 -2.4667429444e-03 1.6929336655e+00 -2.9322471225e+00 1.6929336655e+00 2.9322471225e+00 
34600 6.3717411640e+00 -2.5097693734e-03 1.6930065201e+00 -2.9323733104e+00 1.6930065201e+00 2.9323733104e+00 
34700 6.3717465253e+00 -2.5501027612e-03 1.6930806423e+00 -2.9325016938e+00 1.6930806423e+00 2.9325016938e+00 
34800 6.3717513181e+00 -2.5877699685e-03 1.6931559524e+00 -2.9326321348e+00 1.6931559524e+00 2.9326321348e+00 
34900 6.3717555486e+00 -2.6227985016e-03 1.6932323716e+00 -2.9327644965e+00 1.6932323716e+00 2.9327644965e+00 
35000 6.3717592244e+00 -2.6552164946e-03 1.6933098216e+00 -2.9328986440e+00 1.6933098216e+00 2.9328986440e+00 
35100 6.3717623550e+00 -2.6850526927e-03 1.6933882254e+00 -2.9330344432e+00 1.6933882254e+00 2.9330344432e+00 
35200 6.3717649516e+00 -2.7123364374e-03 1.6934675065e+00 -2.9331717621e+00 1.6934675065e+00 2.9331717621e+00 
35300 6.3717670266e+00 -2.7370976534e-03 1.6935475894e+00 -2.9333104699e+00 1.6935475894e+00 2.9333104699e+00 
35400 6.3717685939e+00 -2.7593668375e-03 1.6936283996e+00 -2.9334504373e+00 1.6936283996e+00 2.9334504373e+00 
35500 6.3717696688e+00 -2.7791750477e-03 1.6937098635e+00 -2.9335915368e+00 1.6937098635e+00 2.9335915368e+00 
35600 6.3717702677e+00 -2.7965538951e-03 1.6937919081e+00 -2.9337336424e+00 1.6937919081e+00 2.9337336424e+00 
35700 6.3717704078e+00 -2.8115355353e-03 1.6938744619e+00 -2.9338766296e+00 1.6938744619e+00 2.9338766296e+00 
35800 6.3717701076e+00 -2.8241526621e-03 1.6939574538e+00 -2.9340203759e+00 1.6939574538e+00 2.9340203759e+00 
35900 6.3717693864e+00 -2.8344385013e-03 1.6940408141e+00 -2.9341647601e+00 1.6940408141e+00 2.9341647601e+00 
36000 6.3717682640e+00 -2.8424268056e-03 1.6941244739e+00 -2.9343096631e+00 1.6941244739e+00 2.9343096631e+00 
36100 6.3717667611e+00 -2.8481518495e-03 1.6942083653e+00 -2.9344549673e+00 1.6942083653e+00 2.9344549673e+00 
36200 6.3717648989e+00 -2.8516484257e-03 1.6942924215e+00 -2.9346005570e+00 1.6942924215e+00 2.9346005570e+00 
36300 6.3717626990e+00 -2.8529518411e-03 1.6943765768e+00 -2.9347463182e+00 1.6943765768e+00 2.9347463182e+00 
36400 6.3717601833e+00 -2.8520979130e-03 1.6944607663e+00 -2.9348921387e+00 1.6944607663e+00 2.9348921387e+00 
36500 6.3717573741e+00 -2.8491229658e-03 1.6945449265e+00 -2.9350379084e+00 1.6945449265e+00 2.9350379084e+00 
36600 6.3717542938e+00 -2.8440638279e-03 1.6946289947e+00 -2.9351835187e+00 1.6946289947e+00 2.9351835187e+00 
36700 6.3717509649e+00 -2.8369578278e-03 1.6947129094e+00 -2.9353288633e+00 1.6947129094e+00 2.9353288633e+00 
36800 6.3717474098e+00 -2.8278427908e-03 1.6947966104e+00 -2.9354738376e+00 1.6947966104e+00 2.9354738376e+00 
36900 6.3717436510e+00 -2.8167570351e-03 1.6948800382e+00 -2.9356183390e+00 1.6948800382e+00 2.9356183390e+00 
37000 6.3717397106e+00 -2.8037393673e-03 1.6949631350e+00 -2.9357622667e+00 1.6949631350e+00 2.9357622667e+00 
37100 6.3717356108e+00 -2.7888290782e-03 1.6950458436e+00 -2.9359055223e+00 1.6950458436e+00 2.9359055223e+00 
37200 6.3717313733e+00 -2.7720659373e-03 1.6951281084e+00 -2.9360480091e+00 1.6951281084e+00 2.9360480091e+00 
37300 6.3717270193e+00 -2.7534901872e-03 1.6952098747e+00 -2.9361896325e+00 1.6952098747e+00 2.9361896325e+00 
37400 6.3717225699e+00 -2.7331425372e-03 1.6952910892e+00 -2.9363303002e+00 1.6952910892e+00 2.9363303002e+00 
37500 6.3717180454e+00 -2.7110641566e-03 1.6953716997e+00 -2.9364699216e+00 1.6953716997e+00 2.9364699216e+00 
37600 6.3717134658e+00 -2.6872966662e-03 1.6954516552e+00 -2.9366084086e+00 1.6954516552e+00 2.9366084086e+00 
37700 6.3717088504e+00 -2.6618821302e-03 1.6955309060e+00 -2.9367456750e+00 1.6955309060e+00 2.9367456750e+00 
37800 6.3717042179e+00 -2.6348630464e-03 1.6956094036e+00 -2.9368816368e+00 1.6956094036e+00 2.9368816368e+00 
37900 6.3716995863e+00 -2.6062823362e-03 1.6956871008e+00 -2.9370162124e+00 1.6956871008e+00 2.9370162124e+00 
38000 6.3716949728e+00 -2.5761833327e-03 1.6957639517e+00 -2.9371493221e+00 1.6957639517e+00 2.9371493221e+00 
38100 6.3716903940e+00 -2.5446097690e-03 1.6958399117e+00 -2.9372808885e+00 1.6958399117e+00 2.9372808885e+00 
38200 6.3716858658e+00 -2.5116057643e-03 1.6959149373e+00 -2.9374108367e+00 1.6959149373e+00 2.9374108367e+00 
38300 6.3716814030e+00 -2.4772158103e-03 1.6959889865e+00 -2.9375390937e+00 1.6959889865e+00 2.9375390937e+00 
38400 6.3716770198e+00 -2.4414847554e-03 1.6960620187e+00 -2.9376655891e+00 1.6960620187e+00 2.9376655891e+00 
38500 6.3716727296e+00 -2.4044577883e-03 1.6961339943e+00 -2.9377902545e+00 1.6961339943e+00 2.9377902545e+00 
38600 6.3716685447e+00 -2.3661804211e-03 1.6962048753e+00 -2.9379130241e+00 1.6962048753e+00 2.9379130241e+00 
38700 6.3716644768e+00 -2.3266984703e-03 1.6962746250e+00 -2.9380338341e+00 1.6962746250e+00 2.9380338341e+00 
38800 6.3716605366e+00 -2.2860580378e-03 1.6963432081e+00 -2.9381526235e+00 1.6963432081e+00 2.9381526235e+00 
38900 6.3716567339e+00 -2.2443054899e-03 1.6964105905e+00 -2.9382693332e+00 1.6964105905e+00 2.9382693332e+00 
39000 6.3716530777e+00 -2.2014874365e-03 1.6964767396e+00 -2.9383839068e+00 1.6964767396e+00 2.9383839068e+00 
39100 6.3716495761e+00 -2.1576507079e-03 1.6965416241e+00 -2.9384962901e+00 1.6965416241e+00 2.9384962901e+00 
39200 6.3716462363e+00 -2.1128423315e-03 1.6966052141e+00 -2.9386064313e+00 1.6966052141e+00 2.9386064313e+00 
39300 6.3716430647e+00 -2.0671095076e-03 1.6966674813e+00 -2.9387142812e+00 1.6966674813e+00 2.9387142812e+00 
39400 6.3716400667e+00 -2.0204995840e-03 1.6967283984e+00 -2.9388197927e+00 1.6967283984e+00 2.9388197927e+00 
39500 6.3716372471e+00 -1.9730600293e-03 1.6967879398e+00 -2.9389229214e+00 1.6967879398e+00 2.9389229214e+00 
39600 6.3716346096e+00 -1.9248384063e-03 1.6968460812e+00 -2.9390236252e+00 1.6968460812e+00 2.9390236252e+00 
39700 6.3716321574e+00 -1.8758823438e-03 1.6969027996e+00 -2.9391218644e+00 1.6969027996e+00 2.9391218644e+00 
39800 6.3716298928e+00 -1.8262395078e-03 1.6969580736e+00 -2.9392176018e+00 1.6969580736e+00 2.9392176018e+00 
39900 6.3716278171e+00 -1.7759575725e-03 1.6970118831e+00 -2.9393108026e+00 1.6970118831e+00 2.9393108026e+00 
40000 6.3716259313e+00 -1.7250841895e-03 1.6970642094e+00 -2.9394014344e+00 1.6970642094e+00 2.9394014344e+00 
40100 6.3716242353e+00 -1.6736669577e-03 1.6971150352e+00 -2.9394894673e+00 1.6971150352e+00 2.9394894673e+00 
40200 6.3716227286e+00 -1.6217533914e-03 1.6971643446e+00 -2.9395748737e+00 1.6971643446e+00 2.9395748737e+00 
40300 6.3716214099e+00 -1.5693908887e-03 1.6972121232e+00 -2.9396576285e+00 1.6972121232e+00 2.9396576285e+00 
40400 6.3716202772e+00 -1.5166266992e-03 1.6972583578e+00 -2.9397377092e+00 1.6972583578e+00 2.9397377092e+00 
40500 6.3716193282e+00 -1.4635078910e-03 1.6973030367e+00 -2.9398150954e+00 1.6973030367e+00 2.9398150954e+00 
40600 6.3716185597e+00 -1.4100813176e-03 1.6973461496e+00 -2.9398897691e+00 1.6973461496e+00 2.9398897691e+00 
40700 6.3716179682e+00 -1.3563935847e-03 1.6973876876e+00 -2.9399617150e+00 1.6973876876e+00 2.9399617150e+00 
40800 6.3716175495e+00 -1.3024910164e-03 1.6974276431e+00 -2.9400309200e+00 1.6974276431e+00 2.9400309200e+00 
40900 6.3716172992e+00 -1.2484196212e-03 1.6974660098e+00 -2.9400973732e+00 1.6974660098e+00 2.9400973732e+00 
41000 6.3716172123e+00 -1.1942250582e-03 1.6975027830e+00 -2.9401610662e+00 1.6975027830e+00 2.9401610662e+00 
41100 6.3716172834e+00 -1.1399526033e-03 1.6975379591e+00 -2.9402219929e+00 1.6975379591e+00 2.9402219929e+00 
41200 6.3716175068e+00 -1.0856471148e-03 1.6975715358e+00 -2.9402801495e+00 1.6975715358e+00 2.9402801495e+00 
41300 6.3716178764e+00 -1.0313530000e-03 1.6976035124e+00 -2.9403355346e+00 1.6976035124e+00 2.9403355346e+00 
41400 6.3716183859e+00 -9.7711418099e-04 1.6976338892e+00 -2.9403881488e+00 1.6976338892e+00 2.9403881488e+00 
41500 6.3716190286e+00 -9.2297406145e-04 1.6976626680e+00 -2.9404379951e+00 1.6976626680e+00 2.9404379951e+00 
41600 6.3716197978e+00 -8.6897549328e-04 1.6976898518e+00 -2.9404850787e+00 1.6976898518e+00 2.9404850787e+00 
41700 6.3716206864e+00 -8.1516074377e-04 1.6977154447e+00 -2.9405294070e+00 1.6977154447e+00 2.9405294070e+00 
41800 6.3716216872e+00 -7.6157146299e-04 1.6977394523e+00 -2.9405709895e+00 1.6977394523e+00 2.9405709895e+00 
41900 6.3716227929e+00 -7.0824865186e-04 1.6977618814e+00 -2.9406098377e+00 1.6977618814e+00 2.9406098377e+00 
42000 6.3716239960e+00 -6.5523263058e-04 1.6977827397e+00 -2.9406459654e+00 1.6977827397e+00 2.9406459654e+00 
42100 6.3716252892e+00 -6.0256300773e-04 1.6978020365e+00 -2.9406793884e+00 1.6978020365e+00 2.9406793884e+00 
42200 6.3716266647e+00 -5.5027865001e-04 1.6978197819e+00 -2.9407101243e+00 1.6978197819e+00 2.9407101243e+00 
42300 6.3716281151e+00 -4.9841765266e-04 1.6978359874e+00 -2.9407381930e+00 1.6978359874e+00 2.9407381930e+00 
42400 6.3716296329e+00 -4.4701731065e-04 1.6978506654e+00 -2.9407636161e+00 1.6978506654e+00 2.9407636161e+00 
42500 6.3716312106e+00 -3.9611409068e-04 1.6978638296e+00 -2.9407864173e+00 1.6978638296e+00 2.9407864173e+00 
42600 6.3716328407e+00 -3.4574360407e-04 1.6978754947e+00 -2.9408066218e+00 1.6978754947e+00 2.9408066218e+00 
42700 6.3716345158e+00 -2.9594058052e-04 1.6978856764e+00 -2.9408242569e+00 1.6978856764e+00 2.9408242569e+00 
42800 6.3716362288e+00 -2.4673884286e-04 1.6978943914e+00 -2.9408393517e+00 1.6978943914e+00 2.9408393517e+00 
42900 6.3716379726e+00 -1.9817128279e-04 1.6979016574e+00 -2.9408519369e+00 1.6979016574e+00 2.9408519369e+00 
43000 6.3716397402e+00 -1.5026983774e-04 1.6979074932e+00 -2.9408620447e+00 1.6979074932e+00 2.9408620447e+00 
43100 6.3716415249e+00 -1.0306546869e-04 1.6979119183e+00 -2.9408697093e+00 1.6979119183e+00 2.9408697093e+00 
43200 6.3716433200e+00 -5.6588139251e-05 1.6979149534e+00 -2.9408749662e+00 1.6979149534e+00 2.9408749662e+00 
43300 6.3716451192e+00 -1.2994517413e-05 1.6979149534e+00 -2.9408749662e+00 1.6979149534e+00 2.9408749662e+00 
43400 6.3716469161e+00 3.1517637172e-05 1.6979149534e+00 -2.9408749662e+00 1.6979149534e+00 2.9408749662e+00 
43500 6.3716487052e+00 7.6905184531e-05 1.6979149534e+00 -2.9408749662e+00 1.6979149534e+00 2.9408749662e+00 
43600 6.3716504805e+00 1.2023324485e-04 1.6979126887e+00 -2.9408710436e+00 1.6979126887e+00 2.9408710436e+00 
43700 6.3716522368e+00 1.6269885418e-04 1.6979091481e+00 -2.9408649111e+00 1.6979091481e+00 2.9408649111e+00 
43800 6.3716539689e+00 2.0427846750e-04 1.6979043569e+00 -2.9408566126e+00 1.6979043569e+00 2.9408566126e+00 
43900 6.3716556718e+00 2.4494964606e-04 1.6978983413e+00 -2.9408461933e+00 1.6978983413e+00 2.9408461933e+00 
44000 6.3716573409e+00 2.8469106839e-04 1.6978911280e+00 -2.9408336994e+00 1.6978911280e+00 2.9408336994e+00 
44100 6.3716589720e+00 3.2348254002e-04 1.6978827443e+00 -2.9408191785e+00 1.6978827443e+00 2.9408191785e+00 
44200 6.3716605611e+00 3.6130500176e-04 1.6978732183e+00 -2.9408026789e+00 1.6978732183e+00 2.9408026789e+00 
44300 6.3716621044e+00 3.9814053663e-04 1.6978625784e+00 -2.9407842500e+00 1.6978625784e+00 2.9407842500e+00 
44400 6.3716635984e+00 4.3397237541e-04 1.6978508536e+00 -2.9407639422e+00 1.6978508536e+00 2.9407639422e+00 
44500 6.3716650401e+00 4.6878490080e-04 1.6978380736e+00 -2.9407418065e+00 1.6978380736e+00 2.9407418065e+00 
44600 6.3716664265e+00 5.0256365021e-04 1.6978242683e+00 -2.9407178950e+00 1.6978242683e+00 2.9407178950e+00 
44700 6.3716677553e+00 5.3529531713e-04 1.6978094681e+00 -2.9406922603e+00 1.6978094681e+00 2.9406922603e+00 
44800 6.3716690240e+00 5.6696775118e-04 1.6977937038e+00 -2.9406649558e+00 1.6977937038e+00 2.9406649558e+00 
44900 6.3716702309e+00 5.9756995674e-04 1.6977770066e+00 -2.9406360354e+00 1.6977770066e+00 2.9406360354e+00 
45000 6.3716713741e+00 6.2709209029e-04 1.6977594081e+00 -2.9406055538e+00 1.6977594081e+00 2.9406055538e+00 
45100 6.3716724524e+00 6.5552545632e-04 1.6977409399e+00 -2.9405735659e+00 1.6977409399e+00 2.9405735659e+00 
45200 6.3716734647e+00 6.8286250204e-04 1.6977216341e+00 -2.9405401274e+00 1.6977216341e+00 2.9405401274e+00 
45300 6.3716744100e+00 7.0909681068e-04 1.6977015230e+00 -2.9405052939e+00 1.6977015230e+00 2.9405052939e+00 
45400 6.3716752879e+00 7.3422309358e-04 1.6976806390e+00 -2.9404691218e+00 1.6976806390e+00 2.9404691218e+00 
45500 6.3716760980e+00 7.5823718096e-04 1.6976590148e+00 -2.9404316675e+00 1.6976590148e+00 2.9404316675e+00 
45600 6.3716768402e+00 7.8113601155e-04 1.6976366830e+00 -2.9403929877e+00 1.6976366830e+00 2.9403929877e+00 
45700 6.3716775148e+00 8.0291762092e-04 1.6976136764e+00 -2.9403531392e+00 1.6976136764e+00 2.9403531392e+00 
45800 6.3716781222e+00 8.2358112868e-04 1.6975900281e+00 -2.9403121790e+00 1.6975900281e+00 2.9403121790e+00 
45900 6.3716786630e+00 8.4312672457e-04 1.6975657708e+00 -2.9402701642e+00 1.6975657708e+00 2.9402701642e+00 
46000 6.3716791379e+00 8.6155565341e-04 1.6975409374e+00 -2.9402271515e+00 1.6975409374e+00 2.9402271515e+00 
46100 6.3716795482e+00 8.7887019897e-04 1.6975155609e+00 -2.9401831981e+00 1.6975155609e+00 2.9401831981e+00 
46200 6.3716798949e+00 8.9507366681e-04 1.6974896740e+00 -2.9401383607e+00 1.6974896740e+00 2.9401383607e+00 
46300 6.3716801795e+00 9.1017036618e-04 1.6974633095e+00 -2.9400926960e+00 1.6974633095e+00 2.9400926960e+00 
46400 6.3716804035e+00 9.2416559084e-04 1.6974364998e+00 -2.9400462603e+00 1.6974364998e+00 2.9400462603e+00 
46500 6.3716805687e+00 9.3706559913e-04 1.6974092775e+00 -2.9399991099e+00 1.6974092775e+00 2.9399991099e+00 
46600 6.3716806769e+00 9.4887759300e-04 1.6973816747e+00 -2.9399513005e+00 1.6973816747e+00 2.9399513005e+00 
46700 6.3716807302e+00 9.5960969634e-04 1.6973537236e+00 -2.9399028877e+00 1.6973537236e+00 2.9399028877e+00 
46800 6.3716807305e+00 9.6927093243e-04 1.6973254559e+00 -2.9398539265e+00 1.6973254559e+00 2.9398539265e+00 
46900 6.3716806802e+00 9.7787120071e-04 1.6972969031e+00 -2.9398044716e+00 1.6972969031e+00 2.9398044716e+00 
47000 6.3716805816e+00 9.8542125282e-04 1.6972680964e+00 -2.9397545771e+00 1.6972680964e+00 2.9397545771e+00 
47100 6.3716804369e+00 9.9193266799e-04 1.6972390669e+00 -2.9397042964e+00 1.6972390669e+00 2.9397042964e+00 
47200 6.3716802488e+00 9.9741782783e-04 1.6972098450e+00 -2.9396536827e+00 1.6972098450e+00 2.9396536827e+00 
47300 6.3716800197e+00 1.0018898905e-03 1.6971804610e+00 -2.9396027881e+00 1.6971804610e+00 2.9396027881e+00 
47400 6.3716797521e+00 1.0053627647e-03 1.6971509448e+00 -2.9395516646e+00 1.6971509448e+00 2.9395516646e+00 
47500 6.3716794488e+00 1.0078510823e-03 1.6971213258e+00 -2.9395003629e+00 1.6971213258e+00 2.9395003629e+00 
47600 6.3716791123e+00 1.0093701719e-03 1.6970916329e+00 -2.9394489333e+00 1.6970916329e+00 2.9394489333e+00 
47700 6.3716787453e+00 1.0099360308e-03 1.6970618948e+00 -2.9393974253e+00 1.6970618948e+00 2.9393974253e+00 
47800 6.3716783505e+00 1.0095652971e-03 1.6970321394e+00 -2.9393458876e+00 1.6970321394e+00 2.9393458876e+00 
47900 6.3716779304e+00 1.0082752220e-03 1.6970023945e+00 -2.9392943678e+00 1.6970023945e+00 2.9392943678e+00 
48000 6.3716774878e+00 1.0060836408e-03 1.6969726870e+00 -2.9392429130e+00 1.6969726870e+00 2.9392429130e+00 
48100 6.3716770253e+00 1.0030089445e-03 1.6969430436e+00 -2.9391915691e+00 1.6969430436e+00 2.9391915691e+00 
48200 6.3716765454e+00 9.9907005140e-04 1.6969134903e+00 -2.9391403813e+00 1.6969134903e+00 2.9391403813e+00 
48300 6.3716760508e+00 9.9428637759e-04 1.6968840525e+00 -2.9390893936e+00 1.6968840525e+00 2.9390893936e+00 
48400 6.3716755439e+00 9.8867780856e-04 1.6968547552e+00 -2.9390386491e+00 1.6968547552e+00 2.9390386491e+00 
48500 6.3716750272e+00 9.8226466998e-04 1.6968256226e+00 -2.9389881900e+00 1.6968256226e+00 2.9389881900e+00 
48600 6.3716745031e+00 9.7506769885e-04 1.6967966785e+00 -2.9389380573e+00 1.6967966785e+00 2.9389380573e+00 
48700 6.3716739739e+00 9.6710801456e-04 1.6967679460e+00 -2.9388882911e+00 1.6967679460e+00 2.9388882911e+00 
48800 6.3716734419e+00 9.5840709014e-04 1.6967394476e+00 -2.9388389304e+00 1.6967394476e+00 2.9388389304e+00 
48900 6.3716729093e+00 9.4898672360e-04 1.6967112050e+00 -2.9387900129e+00 1.6967112050e+00 2.9387900129e+00 
49000 6.3716723782e+00 9.3886900942e-04 1.6966832396e+00 -2.9387415754e+00 1.6966832396e+00 2.9387415754e+00 
49100 6.3716718505e+00 9.2807631031e-04 1.6966555719e+00 -2.9386936535e+00 1.6966555719e+00 2.9386936535e+00 
49200 6.3716713283e+00 9.1663122909e-04 1.6966282218e+00 -2.9386462818e+00 1.6966282218e+00 2.9386462818e+00 
49300 6.3716708134e+00 9.0455658100e-04 1.6966012086e+00 -2.9385994934e+00 1.6966012086e+00 2.9385994934e+00 
49400 6.3716703075e+00 8.9187536617e-04 1.6965745507e+00 -2.9385533207e+00 1.6965745507e+00 2.9385533207e+00 
49500 6.3716698122e+00 8.7861074249e-04 1.6965482662e+00 -2.9385077946e+00 1.6965482662e+00 2.9385077946e+00 
49600 6.3716693291e+00 8.6478599887e-04 1.6965223722e+00 -2.9384629449e+00 1.6965223722e+00 2.9384629449e+00 
49700 6.3716688596e+00 8.5042452879e-04 1.6964968853e+00 -2.9384188002e+00 1.6964968853e+00 2.9384188002e+00 
49800 6.3716684050e+00 8.3554980436e-04 1.6964718212e+00 -2.9383753879e+00 1.6964718212e+00 2.9383753879e+00 
49900 6.3716679666e+00 8.2018535078e-04 1.6964471951e+00 -2.9383327344e+00 1.6964471951e+00 2.9383327344e+00 
50000 6.3716675455e+00 8.0435472128e-04 1.6964230216e+00 -2.9382908645e+00 1.6964230216e+00 2.9382908645e+00 
50100 6.3716671427e+00 7.8808147252e-04 1.6963993143e+00 -2.9382498022e+00 1.6963993143e+00 2.9382498022e+00 
50200 6.3716667591e+00 7.7138914052e-04 1.6963760863e+00 -2.9382095701e+00 1.6963760863e+00 2.9382095701e+00 
50300 6.3716663956e+00 7.5430121710e-04 1.6963533499e+00 -2.9381701897e+00 1.6963533499e+00 2.9381701897e+00 
50400 6.3716660527e+00 7.3684112686e-04 1.6963311169e+00 -2.9381316810e+00 1.6963311169e+00 2.9381316810e+00 
50500 6.3716657312e+00 7.1903220478e-04 1.6963093983e+00 -2.9380940633e+00 1.6963093983e+00 2.9380940633e+00 
50600 6.3716654315e+00 7.0089767428e-04 1.6962882044e+00 -2.9380573542e+00 1.6962882044e+00 2.9380573542e+00 
50700 6.3716651540e+00 6.8246062597e-04 1.6962675446e+00 -2.9380215706e+00 1.6962675446e+00 2.9380215706e+00 
50800 6.3716648990e+00 6.6374399697e-04 1.6962474281e+00 -2.9379867278e+00 1.6962474281e+00 2.9379867278e+00 
50900 6.3716646668e+00 6.4477055082e-04 1.6962278631e+00 -2.9379528401e+00 1.6962278631e+00 2.9379528401e+00 
51000 6.3716644574e+00 6.2556285806e-04 1.6962088571e+00 -2.9379199208e+00 1.6962088571e+00 2.9379199208e+00 
51100 6.3716642709e+00 6.0614327738e-04 1.6961904171e+00 -2.9378879818e+00 1.6961904171e+00 2.9378879818e+00 
51200 6.3716641073e+00 5.8653393749e-04 1.6961725494e+00 -2.9378570339e+00 1.6961725494e+00 2.9378570339e+00 
51300 6.3716639664e+00 5.6675671953e-04 1.6961552595e+00 -2.9378270870e+00 1.6961552595e+00 2.9378270870e+00 
51400 6.3716638479e+00 5.4683324025e-04 1.6961385524e+00 -2.9377981495e+00 1.6961385524e+00 2.9377981495e+00 
51500 6.3716637517e+00 5.2678483576e-04 1.6961224325e+00 -2.9377702289e+00 1.6961224325e+00 2.9377702289e+00 
51600 6.3716636773e+00 5.0663254596e-04 1.6961069034e+00 -2.9377433318e+00 1.6961069034e+00 2.9377433318e+00 
51700 6.3716636244e+00 4.8639709966e-04 1.6960919683e+00 -2.9377174634e+00 1.6960919683e+00 2.9377174634e+00 
51800 6.3716635924e+00 4.6609890029e-04 1.6960776296e+00 -2.9376926280e+00 1.6960776296e+00 2.9376926280e+00 
51900 6.3716635809e+00 4.4575801239e-04 1.6960638891e+00 -2.9376688288e+00 1.6960638891e+00 2.9376688288e+00 
52000 6.3716635891e+00 4.2539414863e-04 1.6960507481e+00 -2.9376460680e+00 1.6960507481e+00 2.9376460680e+00 
52100 6.3716636165e+00 4.0502665758e-04 1.6960382074e+00 -2.9376243468e+00 1.6960382074e+00 2.9376243468e+00 
52200 6.3716636625e+00 3.8467451207e-04 1.6960262671e+00 -2.9376036655e+00 1.6960262671e+00 2.9376036655e+00 
52300 6.3716637261e+00 3.6435629830e-04 1.6960149266e+00 -2.9375840233e+00 1.6960149266e+00 2.9375840233e+00 
52400 6.3716638067e+00 3.4409020546e-04 1.6960041851e+00 -2.9375654184e+00 1.6960041851e+00 2.9375654184e+00 
52500 6.3716639035e+00 3.2389401615e-04 1.6959940410e+00 -2.9375478483e+00 1.6959940410e+00 2.9375478483e+00 
52600 6.3716640157e+00 3.0378509727e-04 1.6959844922e+00 -2.9375313093e+00 1.6959844922e+00 2.9375313093e+00 
52700 6.3716641423e+00 2.8378039171e-04 1.6959755362e+00 -2.9375157970e+00 1.6959755362e+00 2.9375157970e+00 
52800 6.3716642825e+00 2.6389641054e-04 1.6959671699e+00 -2.9375013062e+00 1.6959671699e+00 2.9375013062e+00 
52900 6.3716644355e+00 2.4414922585e-04 1.6959593898e+00 -2.9374878307e+00 1.6959593898e+00 2.9374878307e+00 
53000 6.3716646003e+00 2.2455446424e-04 1.6959521918e+00 -2.9374753634e+00 1.6959521918e+00 2.9374753634e+00 
53100 6.3716647759e+00 2.0512730086e-04 1.6959455715e+00 -2.9374638967e+00 1.6959455715e+00 2.9374638967e+00 
53200 6.3716649615e+00 1.8588245408e-04 1.6959395239e+00 -2.9374534220e+00 1.6959395239e+00 2.9374534220e+00 
53300 6.3716651561e+00 1.6683418069e-04 1.6959340437e+00 -2.9374439300e+00 1.6959340437e+00 2.9374439300e+00 
53400 6.3716653589e+00 1.4799627172e-04 1.6959291251e+00 -2.9374354106e+00 1.6959291251e+00 2.9374354106e+00 
53500 6.3716655689e+00 1.2938204879e-04 1.6959247618e+00 -2.9374278532e+00 1.6959247618e+00 2.9374278532e+00 
53600 6.3716657851e+00 1.1100436105e-04 1.6959209473e+00 -2.9374212463e+00 1.6959209473e+00 2.9374212463e+00 
53700 6.3716660067e+00 9.2875582592e-05 1.6959176746e+00 -2.9374155779e+00 1.6959176746e+00 2.9374155779e+00 
53800 6.3716662328e+00 7.5007610471e-05 1.6959149364e+00 -2.9374108352e+00 1.6959149364e+00 2.9374108352e+00 
53900 6.3716664625e+00 5.7411863174e-05 1.6959127250e+00 -2.9374070049e+00 1.6959127250e+00 2.9374070049e+00 
54000 6.3716666951e+00 4.2268029458e-05 1.6959127250e+00 -2.9374070049e+00 1.6959127250e+00 2.9374070049e+00 
54100 6.3716669294e+00 2.6780782212e-05 1.6959127250e+00 -2.9374070049e+00 1.6959127250e+00 2.9374070049e+00 
54200 6.3716671649e+00 1.0966483586e-05 1.6959127250e+00 -2.9374070049e+00 1.6959127250e+00 2.9374070049e+00 
54300 6.3716674006e+00 -5.1586730271e-06 1.6959127250e+00 -2.9374070049e+00 1.6959127250e+00 2.9374070049e+00 
54400 6.3716676359e+00 -2.1578663746e-05 1.6959127250e+00 -2.9374070049e+00 1.6959127250e+00 2.9374070049e+00 
54500 6.3716678702e+00 -3.8277635075e-05 1.6959127250e+00 -2.9374070049e+00 1.6959127250e+00 2.9374070049e+00 
54600 6.3716681026e+00 -5.5239904866e-05 1.6959127250e+00 -2.9374070049e+00 1.6959127250e+00 2.9374070049e+00 
54700 6.3716683327e+00 -7.2449963398e-05 1.6959127250e+00 -2.9374070049e+00 1.6959127250e+00 2.9374070049e+00 
54800 6.3716685595e+00 -8.7155941406e-05 1.6959148610e+00 -2.9374107045e+00 1.6959148610e+00 2.9374107045e+00 
54900 6.3716687826e+00 -1.0150239539e-04 1.6959174306e+00 -2.9374151552e+00 1.6959174306e+00 2.9374151552e+00 
55000 6.3716690014e+00 -1.1548309697e-04 1.6959204231e+00 -2.9374203385e+00 1.6959204231e+00 2.9374203385e+00 
55100 6.3716692153e+00 -1.2909228019e-04 1.6959238279e+00 -2.9374262356e+00 1.6959238279e+00 2.9374262356e+00 
55200 6.3716694239e+00 -1.4232463739e-04 1.6959276338e+00 -2.9374328277e+00 1.6959276338e+00 2.9374328277e+00 
55300 6.3716696267e+00 -1.5517531482e-04 1.6959318299e+00 -2.9374400956e+00 1.6959318299e+00 2.9374400956e+00 
55400 6.3716698233e+00 -1.6763990773e-04 1.6959364048e+00 -2.9374480196e+00 1.6959364048e+00 2.9374480196e+00 
55500 6.3716700134e+00 -1.7971445537e-04 1.6959413472e+00 -2.9374565801e+00 1.6959413472e+00 2.9374565801e+00 
55600 6.3716701964e+00 -1.9139543552e-04 1.6959466456e+00 -2.9374657571e+00 1.6959466456e+00 2.9374657571e+00 
55700 6.3716703723e+00 -2.0267975880e-04 1.6959522883e+00 -2.9374755306e+00 1.6959522883e+00 2.9374755306e+00 
55800 6.3716705406e+00 -2.1356476273e-04 1.6959582637e+00 -2.9374858803e+00 1.6959582637e+00 2.9374858803e+00 
55900 6.3716707011e+00 -2.2404820547e-04 1.6959645600e+00 -2.9374967858e+00 1.6959645600e+00 2.9374967858e+00 
56000 6.3716708537e+00 -2.3412825933e-04 1.6959711654e+00 -2.9375082266e+00 1.6959711654e+00 2.9375082266e+00 
56100 6.3716709982e+00 -2.4380350405e-04 1.6959780678e+00 -2.9375201820e+00 1.6959780678e+00 2.9375201820e+00 
56200 6.3716711344e+00 -2.5307291982e-04 1.6959852555e+00 -2.9375326315e+00 1.6959852555e+00 2.9375326315e+00 
56300 6.3716712622e+00 -2.6193588014e-04 1.6959927165e+00 -2.9375455542e+00 1.6959927165e+00 2.9375455542e+00 
56400 6.3716713816e+00 -2.7039214442e-04 1.6960004387e+00 -2.9375589295e+00 1.6960004387e+00 2.9375589295e+00 
56500 6.3716714926e+00 -2.7844185039e-04 1.6960084102e+00 -2.9375727365e+00 1.6960084102e+00 2.9375727365e+00 
56600 6.3716715951e+00 -2.8608550636e-04 1.6960166189e+00 -2.9375869544e+00 1.6960166189e+00 2.9375869544e+00 
56700 6.3716716892e+00 -2.9332398328e-04 1.6960250530e+00 -2.9376015626e+00 1.6960250530e+00 2.9376015626e+00 
56800 6.3716717749e+00 -3.0015850667e-04 1.6960337004e+00 -2.9376165404e+00 1.6960337004e+00 2.9376165404e+00 
56900 6.3716718522e+00 -3.0659064835e-04 1.6960425492e+00 -2.9376318670e+00 1.6960425492e+00 2.9376318670e+00 
57000 6.3716719214e+00 -3.1262231808e-04 1.6960515876e+00 -2.9376475220e+00 1.6960515876e+00 2.9376475220e+00 
57100 6.3716719825e+00 -3.1825575502e-04 1.6960608038e+00 -2.9376634849e+00 1.6960608038e+00 2.9376634849e+00 
57200 6.3716720357e+00 -3.2349351916e-04 1.6960701860e+00 -2.9376797354e+00 1.6960701860e+00 2.9376797354e+00 
57300 6.3716720812e+00 -3.2833848250e-04 1.6960797226e+00 -2.9376962532e+00 1.6960797226e+00 2.9376962532e+00 
57400 6.3716721191e+00 -3.3279382029e-04 1.6960894019e+00 -2.9377130184e+00 1.6960894019e+00 2.9377130184e+00 
57500 6.3716721497e+00 -3.3686300206e-04 1.6960992126e+00 -2.9377300109e+00 1.6960992126e+00 2.9377300109e+00 
57600 6.3716721732e+00 -3.4054978262e-04 1.6961091431e+00 -2.9377472111e+00 1.6961091431e+00 2.9377472111e+00 
57700 6.3716721899e+00 -3.4385819300e-04 1.6961191823e+00 -2.9377645994e+00 1.6961191823e+00 2.9377645994e+00 
57800 6.3716722000e+00 -3.4679253126e-04 1.6961293189e+00 -2.9377821565e+00 1.6961293189e+00 2.9377821565e+00 
57900 6.3716722037e+00 -3.4935735340e-04 1.6961395420e+00 -2.9377998634e+00 1.6961395420e+00 2.9377998634e+00 
58000 6.3716722015e+00 -3.5155746403e-04 1.6961498406e+00 -2.9378177011e+00 1.6961498406e+00 2.9378177011e+00 
58100 6.3716721935e+00 -3.5339790713e-04 1.6961602040e+00 -2.9378356511e+00 1.6961602040e+00 2.9378356511e+00 
58200 6.3716721800e+00 -3.5488395681e-04 1.6961706216e+00 -2.9378536949e+00 1.6961706216e+00 2.9378536949e+00 
58300 6.3716721615e+00 -3.5602110791e-04 1.6961810829e+00 -2.9378718145e+00 1.6961810829e+00 2.9378718145e+00 
58400 6.3716721381e+00 -3.5681506675e-04 1.6961915777e+00 -2.9378899920e+00 1.6961915777e+00 2.9378899920e+00 
58500 6.3716721103e+00 -3.5727174178e-04 1.6962020958e+00 -2.9379082099e+00 1.6962020958e+00 2.9379082099e+00 
58600 6.3716720784e+00 -3.5739723427e-04 1.6962126274e+00 -2.9379264511e+00 1.6962126274e+00 2.9379264511e+00 
58700 6.3716720426e+00 -3.5719782899e-04 1.6962231625e+00 -2.9379446985e+00 1.6962231625e+00 2.9379446985e+00 
58800 6.3716720033e+00 -3.5667998496e-04 1.6962336918e+00 -2.9379629357e+00 1.6962336918e+00 2.9379629357e+00 
58900 6.3716719608e+00 -3.5585032619e-04 1.6962442057e+00 -2.9379811462e+00 1.6962442057e+00 2.9379811462e+00 
59000 6.3716719155e+00 -3.5471563243e-04 1.6962546950e+00 -2.9379993144e+00 1.6962546950e+00 2.9379993144e+00 
59100 6.3716718677e+00 -3.5328283007e-04 1.6962651509e+00 -2.9380174244e+00 1.6962651509e+00 2.9380174244e+00 
59200 6.3716718177e+00 -3.5155898294e-04 1.6962755644e+00 -2.9380354613e+00 1.6962755644e+00 2.9380354613e+00 
59300 6.3716717657e+00 -3.4955128329e-04 1.6962859271e+00 -2.9380534100e+00 1.6962859271e+00 2.9380534100e+00 
59400 6.3716717123e+00 -3.4726704278e-04 1.6962962306e+00 -2.9380712560e+00 1.6962962306e+00 2.9380712560e+00 
59500 6.3716716575e+00 -3.4471368352e-04 1.6963064666e+00 -2.9380889854e+00 1.6963064666e+00 2.9380889854e+00 
59600 6.3716716017e+00 -3.4189872926e-04 1.6963166273e+00 -2.9381065843e+00 1.6963166273e+00 2.9381065843e+00 
59700 6.3716715453e+00 -3.3882979655e-04 1.6963267050e+00 -2.9381240394e+00 1.6963267050e+00 2.9381240394e+00 
59800 6.3716714884e+00 -3.3551458612e-04 1.6963366922e+00 -2.9381413376e+00 1.6963366922e+00 2.9381413376e+00 
59900 6.3716714313e+00 -3.3196087420e-04 1.6963465816e+00 -2.9381584666e+00 1.6963465816e+00 2.9381584666e+00 
60000 6.3716713744e+00 -3.2817650410e-04 1.6963563662e+00 -2.9381754140e+00 1.6963563662e+00 2.9381754140e+00 
60100 6.3716713178e+00 -3.2416937777e-04 1.6963660392e+00 -2.9381921681e+00 1.6963660392e+00 2.9381921681e+00 
60200 6.3716712618e+00 -3.1994744750e-04 1.6963755940e+00 -2.9382087176e+00 1.6963755940e+00 2.9382087176e+00 
60300 6.3716712067e+00 -3.1551870778e-04 1.6963850243e+00 -2.9382250514e+00 1.6963850243e+00 2.9382250514e+00 
60400 6.3716711525e+00 -3.1089118723e-04 1.6963943241e+00 -2.9382411590e+00 1.6963943241e+00 2.9382411590e+00 
60500 6.3716710996e+00 -3.0607294065e-04 1.6964034874e+00 -2.9382570303e+00 1.6964034874e+00 2.9382570303e+00 
60600 6.3716710480e+00 -3.0107204125e-04 1.6964125086e+00 -2.9382726556e+00 1.6964125086e+00 2.9382726556e+00 
60700 6.3716709981e+00 -2.9589657293e-04 1.6964213824e+00 -2.9382880254e+00 1.6964213824e+00 2.9382880254e+00 
60800 6.3716709499e+00 -2.9055462277e-04 1.6964301036e+00 -2.9383031310e+00 1.6964301036e+00 2.9383031310e+00 
60900 6.3716709037e+00 -2.8505427364e-04 1.6964386674e+00 -2.9383179638e+00 1.6964386674e+00 2.9383179638e+00 
61000 6.3716708594e+00 -2.7940359693e-04 1.6964470689e+00 -2.9383325157e+00 1.6964470689e+00 2.9383325157e+00 
61100 6.3716708173e+00 -2.7361064540e-04 1.6964553039e+00 -2.9383467791e+00 1.6964553039e+00 2.9383467791e+00 
61200 6.3716707775e+00 -2.6768344632e-04 1.6964633681e+00 -2.9383607467e+00 1.6964633681e+00 2.9383607467e+00 
61300 6.3716707401e+00 -2.6162999458e-04 1.6964712575e+00 -2.9383744116e+00 1.6964712575e+00 2.9383744116e+00 
61400 6.3716707051e+00 -2.5545824605e-04 1.6964789685e+00 -2.9383877675e+00 1.6964789685e+00 2.9383877675e+00 
61500 6.3716706726e+00 -2.4917611116e-04 1.6964864976e+00 -2.9384008082e+00 1.6964864976e+00 2.9384008082e+00 
61600 6.3716706428e+00 -2.4279144850e-04 1.6964938415e+00 -2.9384135282e+00 1.6964938415e+00 2.9384135282e+00 
61700 6.3716706155e+00 -2.3631205868e-04 1.6965009972e+00 -2.9384259222e+00 1.6965009972e+00 2.9384259222e+00 
61800 6.3716705910e+00 -2.2974567836e-04 1.6965079619e+00 -2.9384379854e+00 1.6965079619e+00 2.9384379854e+00 
61900 6.3716705691e+00 -2.2309997443e-04 1.6965147330e+00 -2.9384497134e+00 1.6965147330e+00 2.9384497134e+00 
62000 6.3716705500e+00 -2.1638253829e-04 1.6965213083e+00 -2.9384611021e+00 1.6965213083e+00 2.9384611021e+00 
62100 6.3716705336e+00 -2.0960088048e-04 1.6965276855e+00 -2.9384721478e+00 1.6965276855e+00 2.9384721478e+00 
62200 6.3716705199e+00 -2.0276242528e-04 1.6965338629e+00 -2.9384828473e+00 1.6965338629e+00 2.9384828473e+00 
62300 6.3716705089e+00 -1.9587450566e-04 1.6965398387e+00 -2.9384931976e+00 1.6965398387e+00 2.9384931976e+00 
62400 6.3716705006e+00 -1.8894435829e-04 1.6965456114e+00 -2.9385031964e+00 1.6965456114e+00 2.9385031964e+00 
62500 6.3716704949e+00 -1.8197911878e-04 1.6965511799e+00 -2.9385128413e+00 1.6965511799e+00 2.9385128413e+00 
62600 6.3716704918e+00 -1.7498581710e-04 1.6965565432e+00 -2.9385221307e+00 1.6965565432e+00 2.9385221307e+00 
62700 6.3716704912e+00 -1.6797137318e-04 1.6965617002e+00 -2.9385310630e+00 1.6965617002e+00 2.9385310630e+00 
62800 6.3716704932e+00 -1.6094259269e-04 1.6965666506e+00 -2.9385396373e+00 1.6965666506e+00 2.9385396373e+00 
62900 6.3716704975e+00 -1.5390616299e-04 1.6965713938e+00 -2.9385478527e+00 1.6965713938e+00 2.9385478527e+00 
63000 6.3716705042e+00 -1.4686864927e-04 1.6965759296e+00 -2.9385557089e+00 1.6965759296e+00 2.9385557089e+00 
63100 6.3716705132e+00 -1.3983649090e-04 1.6965802580e+00 -2.9385632059e+00 1.6965802580e+00 2.9385632059e+00 
63200 6.3716705244e+00 -1.3281599792e-04 1.6965843791e+00 -2.9385703439e+00 1.6965843791e+00 2.9385703439e+00 
63300 6.3716705376e+00 -1.2581334775e-04 1.6965882933e+00 -2.9385771236e+00 1.6965882933e+00 2.9385771236e+00 
63400 6.3716705529e+00 -1.1883458206e-04 1.6965920012e+00 -2.9385835457e+00 1.6965920012e+00 2.9385835457e+00 
63500 6.3716705700e+00 -1.1188560381e-04 1.6965955033e+00 -2.9385896116e+00 1.6965955033e+00 2.9385896116e+00 
63600 6.3716705890e+00 -1.0497217456e-04 1.6965988007e+00 -2.9385953228e+00 1.6965988007e+00 2.9385953228e+00 
63700 6.3716706097e+00 -9.8099911810e-05 1.6966018943e+00 -2.9386006811e+00 1.6966018943e+00 2.9386006811e+00 
63800 6.3716706319e+00 -9.1274286660e-05 1.6966047853e+00 -2.9386056886e+00 1.6966047853e+00 2.9386056886e+00 
63900 6.3716706557e+00 -8.4500621576e-05 1.6966074753e+00 -2.9386103476e+00 1.6966074753e+00 2.9386103476e+00 
64000 6.3716706808e+00 -7.7784088364e-05 1.6966099655e+00 -2.9386146609e+00 1.6966099655e+00 2.9386146609e+00 
64100 6.3716707072e+00 -7.1129706291e-05 1.6966122579e+00 -2.9386186314e+00 1.6966122579e+00 2.9386186314e+00 
64200 6.3716707347e+00 -6.4542340428e-05 1.6966143541e+00 -2.9386222622e+00 1.6966143541e+00 2.9386222622e+00 
64300 6.3716707634e+00 -6.0460585114e-05 1.6966143541e+00 -2.9386222622e+00 1.6966143541e+00 2.9386222622e+00 
64400 6.3716707930e+00 -5.6228461948e-05 1.6966143541e+00 -2.9386222622e+00 1.6966143541e+00 2.9386222622e+00 
64500 6.3716708234e+00 -5.1851765408e-05 1.6966143541e+00 -2.9386222622e+00 1.6966143541e+00 2.9386222622e+00 
64600 6.3716708544e+00 -4.7336234403e-05 1.6966143541e+00 -2.9386222622e+00 1.6966143541e+00 2.9386222622e+00 
64700 6.3716708860e+00 -4.2687552400e-05 1.6966143541e+00 -2.9386222622e+00 1.6966143541e+00 2.9386222622e+00 
64800 6.3716709180e+00 -3.7911347484e-05 1.6966143541e+00 -2.9386222622e+00 1.6966143541e+00 2.9386222622e+00 
64900 6.3716709504e+00 -3.3013192371e-05 1.6966143541e+00 -2.9386222622e+00 1.6966143541e+00 2.9386222622e+00 
65000 6.3716709831e+00 -2.7998604376e-05 1.6966143541e+00 -2.9386222622e+00 1.6966143541e+00 2.9386222622e+00 
65100 6.3716710159e+00 -2.2873045323e-05 1.6966143541e+00 -2.9386222622e+00 1.6966143541e+00 2.9386222622e+00 
65200 6.3716710488e+00 -1.7641921402e-05 1.6966143541e+00 -2.9386222622e+00 1.6966143541e+00 2.9386222622e+00 
65300 6.3716710817e+00 -1.2310582989e-05 1.6966143541e+00 -2.9386222622e+00 1.6966143541e+00 2.9386222622e+00 
65400 6.3716711145e+00 -6.8843244215e-06 1.6966143541e+00 -2.9386222622e+00 1.6966143541e+00 2.9386222622e+00 
65500 6.3716711470e+00 -1.3683837102e-06 1.6966143541e+00 -2.9386222622e+00 1.6966143541e+00 2.9386222622e+00 
65600 6.3716711793e+00 4.2320577809e-06 1.6966143541e+00 -2.9386222622e+00 1.6966143541e+00 2.9386222622e+00 
65700 6.3716712113e+00 9.9118756858e-06 1.6966143541e+00 -2.9386222622e+00 1.6966143541e+00 2.9386222622e+00 
65800 6.3716712428e+00 1.5666003047e-05 1.6966143541e+00 -2.9386222622e+00 1.6966143541e+00 2.9386222622e+00 
65900 6.3716712739e+00 2.1489430757e-05 1.6966143541e+00 -2.9386222622e+00 1.6966143541e+00 2.9386222622e+00 
66000 6.3716713044e+00 2.7377208026e-05 1.6966143541e+00 -2.9386222622e+00 1.6966143541e+00 2.9386222622e+00 
66100 6.3716713343e+00 3.3324442901e-05 1.6966143541e+00 -2.9386222622e+00 1.6966143541e+00 2.9386222622e+00 
66200 6.3716713635e+00 3.9326302799e-05 1.6966143541e+00 -2.9386222622e+00 1.6966143541e+00 2.9386222622e+00 
66300 6.3716713920e+00 4.5378015096e-05 1.6966143541e+00 -2.9386222622e+00 1.6966143541e+00 2.9386222622e+00 
66400 6.3716714198e+00 5.1474867709e-05 1.6966143541e+00 -2.9386222622e+00 1.6966143541e+00 2.9386222622e+00 
66500 6.3716714467e+00 5.7612209730e-05 1.6966143541e+00 -2.9386222622e+00 1.6966143541e+00 2.9386222622e+00 
66600 6.3716714728e+00 6.3785452077e-05 1.6966143541e+00 -2.9386222622e+00 1.6966143541e+00 2.9386222622e+00 
66700 6.3716714980e+00 6.9990068168e-05 1.6966143541e+00 -2.9386222622e+00 1.6966143541e+00 2.9386222622e+00 
66800 6.3716715223e+00 7.6221594601e-05 1.6966143541e+00 -2.9386222622e+00 1.6966143541e+00 2.9386222622e+00 
66900 6.3716715454e+00 7.9601032715e-05 1.6966121078e+00 -2.9386183715e+00 1.6966121078e+00 2.9386183715e+00 
67000 6.3716715675e+00 8.2848661418e-05 1.6966097619e+00 -2.9386143083e+00 1.6966097619e+00 2.9386143083e+00 
67100 6.3716715886e+00 8.5963652804e-05 1.6966073203e+00 -2.9386100793e+00 1.6966073203e+00 2.9386100793e+00 
67200 6.3716716086e+00 8.8945338118e-05 1.6966047869e+00 -2.9386056914e+00 1.6966047869e+00 2.9386056914e+00 
67300 6.3716716275e+00 9.1793204340e-05 1.6966021657e+00 -2.9386011512e+00 1.6966021657e+00 2.9386011512e+00 
67400 6.3716716454e+00 9.4506890716e-05 1.6965994605e+00 -2.9385964656e+00 1.6965994605e+00 2.9385964656e+00 
67500 6.3716716623e+00 9.7086185278e-05 1.6965966753e+00 -2.9385916415e+00 1.6965966753e+00 2.9385916415e+00 
67600 6.3716716780e+00 9.9531021299e-05 1.6965938141e+00 -2.9385866858e+00 1.6965938141e+00 2.9385866858e+00 
67700 6.3716716927e+00 1.0184147374e-04 1.6965908808e+00 -2.9385816052e+00 1.6965908808e+00 2.9385816052e+00 
67800 6.3716717063e+00 1.0401775562e-04 1.6965878795e+00 -2.9385764067e+00 1.6965878795e+00 2.9385764067e+00 
67900 6.3716717188e+00 1.0606021443e-04 1.6965848140e+00 -2.9385710971e+00 1.6965848140e+00 2.9385710971e+00 
68000 6.3716717304e+00 1.0796932844e-04 1.6965816883e+00 -2.9385656833e+00 1.6965816883e+00 2.9385656833e+00 
68100 6.3716717409e+00 1.0974570304e-04 1.6965785063e+00 -2.9385601720e+00 1.6965785063e+00 2.9385601720e+00 
68200 6.3716717504e+00 1.1139006703e-04 1.6965752720e+00 -2.9385545699e+00 1.6965752720e+00 2.9385545699e+00 
68300 6.3716717589e+00 1.1290326890e-04 1.6965719892e+00 -2.9385488840e+00 1.6965719892e+00 2.9385488840e+00 
68400 6.3716717664e+00 1.1428627314e-04 1.6965686618e+00 -2.9385431208e+00 1.6965686618e+00 2.9385431208e+00 
68500 6.3716717731e+00 1.1554015642e-04 1.6965652936e+00 -2.9385372869e+00 1.6965652936e+00 2.9385372869e+00 
68600 6.3716717788e+00 1.1666610391e-04 1.6965618885e+00 -2.9385313891e+00 1.6965618885e+00 2.9385313891e+00 
68700 6.3716717837e+00 1.1766540549e-04 1.6965584502e+00 -2.9385254338e+00 1.6965584502e+00 2.9385254338e+00 
68800 6.3716717877e+00 1.1853945198e-04 1.6965549824e+00 -2.9385194274e+00 1.6965549824e+00 2.9385194274e+00 
68900 6.3716717909e+00 1.1928973142e-04 1.6965514889e+00 -2.9385133765e+00 1.6965514889e+00 2.9385133765e+00 
69000 6.3716717933e+00 1.1991782526e-04 1.6965479733e+00 -2.9385072872e+00 1.6965479733e+00 2.9385072872e+00 
69100 6.3716717950e+00 1.2042540465e-04 1.6965444391e+00 -2.9385011658e+00 1.6965444391e+00 2.9385011658e+00 
69200 6.3716717961e+00 1.2081422666e-04 1.6965408900e+00 -2.9384950185e+00 1.6965408900e+00 2.9384950185e+00 
69300 6.3716717964e+00 1.2108613059e-04 1.6965373294e+00 -2.9384888514e+00 1.6965373294e+00 2.9384888514e+00 
69400 6.3716717962e+00 1.2124303422e-04 1.6965337607e+00 -2.9384826703e+00 1.6965337607e+00 2.9384826703e+00 
69500 6.3716717953e+00 1.2128693011e-04 1.6965301875e+00 -2.9384764813e+00 1.6965301875e+00 2.9384764813e+00 
69600 6.3716717940e+00 1.2121988195e-04 1.6965266129e+00 -2.9384702900e+00 1.6965266129e+00 2.9384702900e+00 
69700 6.3716717921e+00 1.2104402084e-04 1.6965230403e+00 -2.9384641021e+00 1.6965230403e+00 2.9384641021e+00 
69800 6.3716717898e+00 1.2076154172e-04 1.6965194729e+00 -2.9384579231e+00 1.6965194729e+00 2.9384579231e+00 
69900 6.3716717870e+00 1.2037469971e-04 1.6965159138e+00 -2.9384517586e+00 1.6965159138e+00 2.9384517586e+00 
70000 6.3716717839e+00 1.1988580658e-04 1.6965123661e+00 -2.9384456138e+00 1.6965123661e+00 2.9384456138e+00 
70100 6.3716717804e+00 1.1929722713e-04 1.6965088328e+00 -2.9384394939e+00 1.6965088328e+00 2.9384394939e+00 
70200 6.3716717767e+00 1.1861137577e-04 1.6965053169e+00 -2.9384334041e+00 1.6965053169e+00 2.9384334041e+00 
70300 6.3716717727e+00 1.1783071295e-04 1.6965018211e+00 -2.9384273493e+00 1.6965018211e+00 2.9384273493e+00 
70400 6.3716717685e+00 1.1695774180e-04 1.6964983483e+00 -2.9384213343e+00 1.6964983483e+00 2.9384213343e+00 
70500 6.3716717640e+00 1.1599500467e-04 1.6964949013e+00 -2.9384153639e+00 1.6964949013e+00 2.9384153639e+00 
70600 6.3716717595e+00 1.1494507982e-04 1.6964914826e+00 -2.9384094425e+00 1.6964914826e+00 2.9384094425e+00 
70700 6.3716717548e+00 1.1381057808e-04 1.6964880949e+00 -2.9384035748e+00 1.6964880949e+00 2.9384035748e+00 
70800 6.3716717501e+00 1.1259413960e-04 1.6964847406e+00 -2.9383977650e+00 1.6964847406e+00 2.9383977650e+00 
70900 6.3716717453e+00 1.1129843064e-04 1.6964814222e+00 -2.9383920173e+00 1.6964814222e+00 2.9383920173e+00 
71000 6.3716717405e+00 1.0992614038e-04 1.6964781419e+00 -2.9383863357e+00 1.6964781419e+00 2.9383863357e+00 
71100 6.3716717357e+00 1.0847997782e-04 1.6964749021e+00 -2.9383807241e+00 1.6964749021e+00 2.9383807241e+00 
71200 6.3716717310e+00 1.0696266872e-04 1.6964717048e+00 -2.9383751864e+00 1.6964717048e+00 2.9383751864e+00 
71300 6.3716717263e+00 1.0537695261e-04 1.6964685523e+00 -2.9383697261e+00 1.6964685523e+00 2.9383697261e+00 
71400 6.3716717218e+00 1.0372557981e-04 1.6964654466e+00 -2.9383643467e+00 1.6964654466e+00 2.9383643467e+00 
71500 6.3716717173e+00 1.0201130854e-04 1.6964623895e+00 -2.9383590517e+00 1.6964623895e+00 2.9383590517e+00 
71600 6.3716717130e+00 1.0023690213e-04 1.6964593829e+00 -2.9383538441e+00 1.6964593829e+00 2.9383538441e+00 
71700 6.3716717089e+00 9.8405126165e-05 1.6964564286e+00 -2.9383487271e+00 1.6964564286e+00 2.9383487271e+00 
71800 6.3716717050e+00 9.6518745865e-05 1.6964535283e+00 -2.9383437036e+00 1.6964535283e+00 2.9383437036e+00 
71900 6.3716717013e+00 9.4580523375e-05 1.6964506835e+00 -2.9383387764e+00 1.6964506835e+00 2.9383387764e+00 
72000 6.3716716978e+00 9.2593215191e-05 1.6964478959e+00 -2.9383339482e+00 1.6964478959e+00 2.9383339482e+00 
72100 6.3716716946e+00 9.0559569651e-05 1.6964451669e+00 -2.9383292213e+00 1.6964451669e+00 2.9383292213e+00 
72200 6.3716716916e+00 8.8482324452e-05 1.6964424978e+00 -2.9383245983e+00 1.6964424978e+00 2.9383245983e+00 
72300 6.3716716889e+00 8.6364204285e-05 1.6964398899e+00 -2.9383200814e+00 1.6964398899e+00 2.9383200814e+00 
72400 6.3716716865e+00 8.4207918490e-05 1.6964373445e+00 -2.9383156725e+00 1.6964373445e+00 2.9383156725e+00 
72500 6.3716716843e+00 8.2016158808e-05 1.6964348626e+00 -2.9383113737e+00 1.6964348626e+00 2.9383113737e+00 
72600 6.3716716825e+00 7.9791597176e-05 1.6964324453e+00 -2.9383071868e+00 1.6964324453e+00 2.9383071868e+00 
72700 6.3716716809e+00 7.7536883618e-05 1.6964300935e+00 -2.9383031135e+00 1.6964300935e+00 2.9383031135e+00 
72800 6.3716716797e+00 7.5254644183e-05 1.6964278082e+00 -2.9382991552e+00 1.6964278082e+00 2.9382991552e+00 
72900 6.3716716788e+00 7.2947478953e-05 1.6964255902e+00 -2.9382953135e+00 1.6964255902e+00 2.9382953135e+00 
73000 6.3716716782e+00 7.0617960129e-05 1.6964234402e+00 -2.9382915895e+00 1.6964234402e+00 2.9382915895e+00 
73100 6.3716716781e+00 7.0933025115e-05 1.6964234402e+00 -2.9382915895e+00 1.6964234402e+00 2.9382915895e+00 
73200 6.3716716781e+00 6.8486739019e-05 1.6964213495e+00 -2.9382879684e+00 1.6964213495e+00 2.9382879684e+00 
73300 6.3716716785e+00 6.8612325001e-05 1.6964213495e+00 -2.9382879684e+00 1.6964213495e+00 2.9382879684e+00 
73400 6.3716716793e+00 6.8655579978e-05 1.6964213495e+00 -2.9382879684e+00 1.6964213495e+00 2.9382879684e+00 
73500 6.3716716804e+00 6.8618155779e-05 1.6964213495e+00 -2.9382879684e+00 1.6964213495e+00 2.9382879684e+00 
73600 6.3716716817e+00 6.8501698120e-05 1.6964213495e+00 -2.9382879684e+00 1.6964213495e+00 2.9382879684e+00 
73700 6.3716716833e+00 6.8307846999e-05 1.6964213495e+00 -2.9382879684e+00 1.6964213495e+00 2.9382879684e+00 
73800 6.3716716852e+00 6.8038237081e-05 1.6964213495e+00 -2.9382879684e+00 1.6964213495e+00 2.9382879684e+00 
73900 6.3716716874e+00 6.7694498046e-05 1.6964213495e+00 -2.9382879684e+00 1.6964213495e+00 2.9382879684e+00 
74000 6.3716716898e+00 6.7278254926e-05 1.6964213495e+00 -2.9382879684e+00 1.6964213495e+00 2.9382879684e+00 
74100 6.3716716925e+00 6.6791128398e-05 1.6964213495e+00 -2.9382879684e+00 1.6964213495e+00 2.9382879684e+00 
74200 6.3716716954e+00 6.6234735071e-05 1.6964213495e+00 -2.9382879684e+00 1.6964213495e+00 2.9382879684e+00 
74300 6.3716716985e+00 6.5610687733e-05 1.6964213495e+00 -2.9382879684e+00 1.6964213495e+00 2.9382879684e+00 
74400 6.3716717018e+00 6.4920595562e-05 1.6964213495e+00 -2.9382879684e+00 1.6964213495e+00 2.9382879684e+00 
74500 6.3716717054e+00 6.4166064343e-05 1.6964213495e+00 -2.9382879684e+00 1.6964213495e+00 2.9382879684e+00 
74600 6.3716717091e+00 6.3348696616e-05 1.6964213495e+00 -2.9382879684e+00 1.6964213495e+00 2.9382879684e+00 
74700 6.3716717130e+00 6.2470091813e-05 1.6964213495e+00 -2.9382879684e+00 1.6964213495e+00 2.9382879684e+00 
74800 6.3716717171e+00 6.1531846380e-05 1.6964213495e+00 -2.9382879684e+00 1.6964213495e+00 2.9382879684e+00 
74900 6.3716717213e+00 6.0535553848e-05 1.6964213495e+00 -2.9382879684e+00 1.6964213495e+00 2.9382879684e+00 
75000 6.3716717257e+00 5.9482804884e-05 1.6964213495e+00 -2.9382879684e+00 1.6964213495e+00 2.9382879684e+00 
75100 6.3716717302e+00 5.8375187317e-05 1.6964213495e+00 -2.9382879684e+00 1.6964213495e+00 2.9382879684e+00 
75200 6.3716717348e+00 5.7214286131e-05 1.6964213495e+00 -2.9382879684e+00 1.6964213495e+00 2.9382879684e+00 
75300 6.3716717395e+00 5.6001683432e-05 1.6964213495e+00 -2.9382879684e+00 1.6964213495e+00 2.9382879684e+00 
75400 6.3716717443e+00 5.4738958386e-05 1.6964213495e+00 -2.9382879684e+00 1.6964213495e+00 2.9382879684e+00 
75500 6.3716717492e+00 5.3427687124e-05 1.6964213495e+00 -2.9382879684e+00 1.6964213495e+00 2.9382879684e+00 
75600 6.3716717541e+00 5.2069442634e-05 1.6964213495e+00 -2.9382879684e+00 1.6964213495e+00 2.9382879684e+00 
75700 6.3716717591e+00 5.0665794611e-05 1.6964213495e+00 -2.9382879684e+00 1.6964213495e+00 2.9382879684e+00 
75800 6.3716717642e+00 4.9218309293e-05 1.6964213495e+00 -2.9382879684e+00 1.6964213495e+00 2.9382879684e+00 
75900 6.3716717692e+00 4.7728549260e-05 1.6964213495e+00 -2.9382879684e+00 1.6964213495e+00 2.9382879684e+00 
76000 6.3716717743e+00 4.6198073211e-05 1.6964213495e+00 -2.9382879684e+00 1.6964213495e+00 2.9382879684e+00 
76100 6.3716717794e+00 4.4628435735e-05 1.6964213495e+00 -2.9382879684e+00 1.6964213495e+00 2.9382879684e+00 
76200 6.3716717845e+00 4.3021187021e-05 1.6964213495e+00 -2.9382879684e+00 1.6964213495e+00 2.9382879684e+00 
76300 6.3716717896e+00 4.1377872584e-05 1.6964213495e+00 -2.9382879684e+00 1.6964213495e+00 2.9382879684e+00 
76400 6.3716717946e+00 3.9700032941e-05 1.6964213495e+00 -2.9382879684e+00 1.6964213495e+00 2.9382879684e+00 
76500 6.3716717996e+00 3.7989203286e-05 1.6964213495e+00 -2.9382879684e+00 1.6964213495e+00 2.9382879684e+00 
76600 6.3716718046e+00 3.6246913126e-05 1.6964213495e+00 -2.9382879684e+00 1.6964213495e+00 2.9382879684e+00 
76700 6.3716718095e+00 3.4474685913e-05 1.6964213495e+00 -2.9382879684e+00 1.6964213495e+00 2.9382879684e+00 
76800 6.3716718144e+00 3.2674038648e-05 1.6964213495e+00 -2.9382879684e+00 1.6964213495e+00 2.9382879684e+00 
76900 6.3716718191e+00 3.0846481476e-05 1.6964213495e+00 -2.9382879684e+00 1.6964213495e+00 2.9382879684e+00 
77000 6.3716718238e+00 2.8993517253e-05 1.6964213495e+00 -2.9382879684e+00 1.6964213495e+00 2.9382879684e+00 
77100 6.3716718285e+00 2.7116641108e-05 1.6964213495e+00 -2.9382879684e+00 1.6964213495e+00 2.9382879684e+00 
77200 6.3716718330e+00 2.5217339984e-05 1.6964213495e+00 -2.9382879684e+00 1.6964213495e+00 2.9382879684e+00 
77300 6.3716718374e+00 2.3297092169e-05 1.6964213495e+00 -2.9382879684e+00 1.6964213495e+00 2.9382879684e+00 
77400 6.3716718417e+00 2.1357366815e-05 1.6964213495e+00 -2.9382879684e+00 1.6964213495e+00 2.9382879684e+00 
77500 6.3716718460e+00 1.9399623442e-05 1.6964213495e+00 -2.9382879684e+00 1.6964213495e+00 2.9382879684e+00 
77600 6.3716718501e+00 1.7425311435e-05 1.6964213495e+00 -2.9382879684e+00 1.6964213495e+00 2.9382879684e+00 
77700 6.3716718541e+00 1.5435869530e-05 1.6964213495e+00 -2.9382879684e+00 1.6964213495e+00 2.9382879684e+00 
77800 6.3716718579e+00 1.3432725290e-05 1.6964213495e+00 -2.9382879684e+00 1.6964213495e+00 2.9382879684e+00 
77900 6.3716718617e+00 1.1417294583e-05 1.6964213495e+00 -2.9382879684e+00 1.6964213495e+00 2.9382879684e+00 
78000 6.3716718653e+00 9.3909810408e-06 1.6964213495e+00 -2.9382879684e+00 1.6964213495e+00 2.9382879684e+00 
78100 6.3716718688e+00 7.3551755241e-06 1.6964213495e+00 -2.9382879684e+00 1.6964213495e+00 2.9382879684e+00 
78200 6.3716718722e+00 5.3112555820e-06 1.6964213495e+00 -2.9382879684e+00 1.6964213495e+00 2.9382879684e+00 
78300 6.3716718754e+00 3.2605848957e-06 1.6964213495e+00 -2.9382879684e+00 1.6964213495e+00 2.9382879684e+00 
78400 6.3716718785e+00 1.2045127411e-06 1.6964213495e+00 -2.9382879684e+00 1.6964213495e+00 2.9382879684e+00 
78500 6.3716718815e+00 -8.5562656164e-07 1.6964213495e+00 -2.9382879684e+00 1.6964213495e+00 2.9382879684e+00 
78600 6.3716718844e+00 -2.9185141991e-06 1.6964213495e+00 -2.9382879684e+00 1.6964213495e+00 2.9382879684e+00 
78700 6.3716718871e+00 -4.9828474033e-06 1.6964213495e+00 -2.9382879684e+00 1.6964213495e+00 2.9382879684e+00 
78800 6.3716718897e+00 -7.0473400036e-06 1.6964213495e+00 -2.9382879684e+00 1.6964213495e+00 2.9382879684e+00 
78900 6.3716718922e+00 -9.1107229645e-06 1.6964213495e+00 -2.9382879684e+00 1.6964213495e+00 2.9382879684e+00 
79000 6.3716718945e+00 -1.1171744911e-05 1.6964213495e+00 -2.9382879684e+00 1.6964213495e+00 2.9382879684e+00 
79100 6.3716718967e+00 -1.3229172681e-05 1.6964213495e+00 -2.9382879684e+00 1.6964213495e+00 2.9382879684e+00 
79200 6.3716718988e+00 -1.5281791823e-05 1.6964213495e+00 -2.9382879684e+00 1.6964213495e+00 2.9382879684e+00 
79300 6.3716719008e+00 -1.7328407130e-05 1.6964213495e+00 -2.9382879684e+00 1.6964213495e+00 2.9382879684e+00 
79400 6.3716719026e+00 -1.9367843142e-05 1.6964213495e+00 -2.9382879684e+00 1.6964213495e+00 2.9382879684e+00 
79500 6.3716719044e+00 -2.1398944644e-05 1.6964213495e+00 -2.9382879684e+00 1.6964213495e+00 2.9382879684e+00 
79600 6.3716719060e+00 -2.3420577160e-05 1.6964213495e+00 -2.9382879684e+00 1.6964213495e+00 2.9382879684e+00 
79700 6.3716719075e+00 -2.5431627422e-05 1.6964213495e+00 -2.9382879684e+00 1.6964213495e+00 2.9382879684e+00 
79800 6.3716719090e+00 -2.7431003850e-05 1.6964213495e+00 -2.9382879684e+00 1.6964213495e+00 2.9382879684e+00 
79900 6.3716719103e+00 -2.9417636993e-05 1.6964213495e+00 -2.9382879684e+00 1.6964213495e+00 2.9382879684e+00 
80000 6.3716719115e+00 -3.1390479983e-05 1.6964213495e+00 -2.9382879684e+00 1.6964213495e+00 2.9382879684e+00 
80100 6.3716719126e+00 -3.3348508948e-05 1.6964213495e+00 -2.9382879684e+00 1.6964213495e+00 2.9382879684e+00 
80200 6.3716719137e+00 -3.5290723444e-05 1.6964213495e+00 -2.9382879684e+00 1.6964213495e+00 2.9382879684e+00 
80300 6.3716719146e+00 -3.7216146837e-05 1.6964213495e+00 -2.9382879684e+00 1.6964213495e+00 2.9382879684e+00 
80400 6.3716719155e+00 -3.9123826691e-05 1.6964213495e+00 -2.9382879684e+00 1.6964213495e+00 2.9382879684e+00 
80500 6.3716719163e+00 -4.1012835135e-05 1.6964213495e+00 -2.9382879684e+00 1.6964213495e+00 2.9382879684e+00 
80600 6.3716719171e+00 -4.2882269214e-05 1.6964213495e+00 -2.9382879684e+00 1.6964213495e+00 2.9382879684e+00 
80700 6.3716719177e+00 -4.4731251219e-05 1.6964213495e+00 -2.9382879684e+00 1.6964213495e+00 2.9382879684e+00 
80800 6.3716719183e+00 -4.6558928999e-05 1.6964213495e+00 -2.9382879684e+00 1.6964213495e+00 2.9382879684e+00 
80900 6.3716719189e+00 -4.8364476265e-05 1.6964213495e+00 -2.9382879684e+00 1.6964213495e+00 2.9382879684e+00 
81000 6.3716719194e+00 -5.0147092853e-05 1.6964213495e+00 -2.9382879684e+00 1.6964213495e+00 2.9382879684e+00 
81100 6.3716719198e+00 -5.1906004997e-05 1.6964213495e+00 -2.9382879684e+00 1.6964213495e+00 2.9382879684e+00 
81200 6.3716719202e+00 -5.3640465557e-05 1.6964213495e+00 -2.9382879684e+00 1.6964213495e+00 2.9382879684e+00 
81300 6.3716719206e+00 -5.5349754242e-05 1.6964213495e+00 -2.9382879684e+00 1.6964213495e+00 2.9382879684e+00 
81400 6.3716719209e+00 -5.7033177815e-05 1.6964213495e+00 -2.9382879684e+00 1.6964213495e+00 2.9382879684e+00 
81500 6.3716719212e+00 -5.8690070258e-05 1.6964213495e+00 -2.9382879684e+00 1.6964213495e+00 2.9382879684e+00 
81600 6.3716719215e+00 -6.0319792938e-05 1.6964213495e+00 -2.9382879684e+00 1.6964213495e+00 2.9382879684e+00 
81700 6.3716719217e+00 -6.1921734744e-05 1.6964213495e+00 -2.9382879684e+00 1.6964213495e+00 2.9382879684e+00 
81800 6.3716719219e+00 -6.3495312206e-05 1.6964213495e+00 -2.9382879684e+00 1.6964213495e+00 2.9382879684e+00 
81900 6.3716719221e+00 -6.5039969580e-05 1.6964213495e+00 -2.9382879684e+00 1.6964213495e+00 2.9382879684e+00 
82000 6.3716719223e+00 -6.6555178935e-05 1.6964213495e+00 -2.9382879684e+00 1.6964213495e+00 2.9382879684e+00 
82100 6.3716719225e+00 -6.8040440197e-05 1.6964213495e+00 -2.9382879684e+00 1.6964213495e+00 2.9382879684e+00 
82200 6.3716719227e+00 -6.9495281183e-05 1.6964213495e+00 -2.9382879684e+00 1.6964213495e+00 2.9382879684e+00 
82300 6.3716719228e+00 -7.0919257615e-05 1.6964213495e+00 -2.9382879684e+00 1.6964213495e+00 2.9382879684e+00 
82400 6.3716719228e+00 -6.9636413924e-05 1.6964234398e+00 -2.9382915888e+00 1.6964234398e+00 2.9382915888e+00 
82500 6.3716719230e+00 -7.0976498909e-05 1.6964234398e+00 -2.9382915888e+00 1.6964234398e+00 2.9382915888e+00 
82600 6.3716719230e+00 -6.9606377618e-05 1.6964255317e+00 -2.9382952122e+00 1.6964255317e+00 2.9382952122e+00 
82700 6.3716719232e+00 -7.0860171741e-05 1.6964255317e+00 -2.9382952122e+00 1.6964255317e+00 2.9382952122e+00 
82800 6.3716719232e+00 -6.9407116673e-05 1.6964276202e+00 -2.9382988296e+00 1.6964276202e+00 2.9382988296e+00 
82900 6.3716719233e+00 -7.0572659531e-05 1.6964276202e+00 -2.9382988296e+00 1.6964276202e+00 2.9382988296e+00 
83000 6.3716719236e+00 -7.1703781143e-05 1.6964276202e+00 -2.9382988296e+00 1.6964276202e+00 2.9382988296e+00 
83100 6.3716719236e+00 -7.0095285690e-05 1.6964297336e+00 -2.9383024901e+00 1.6964297336e+00 2.9383024901e+00 
83200 6.3716719238e+00 -7.1136110173e-05 1.6964297336e+00 -2.9383024901e+00 1.6964297336e+00 2.9383024901e+00 
83300 6.3716719239e+00 -6.9458116211e-05 1.6964318302e+00 -2.9383061216e+00 1.6964318302e+00 2.9383061216e+00 
83400 6.3716719242e+00 -7.0407639247e-05 1.6964318302e+00 -2.9383061216e+00 1.6964318302e+00 2.9383061216e+00 
83500 6.3716719244e+00 -7.1321559175e-05 1.6964318302e+00 -2.9383061216e+00 1.6964318302e+00 2.9383061216e+00 
83600 6.3716719246e+00 -6.9509325410e-05 1.6964339323e+00 -2.9383097625e+00 1.6964339323e+00 2.9383097625e+00 
83700 6.3716719249e+00 -7.0331288877e-05 1.6964339323e+00 -2.9383097625e+00 1.6964339323e+00 2.9383097625e+00 
83800 6.3716719253e+00 -7.1117503895e-05 1.6964339323e+00 -2.9383097625e+00 1.6964339323e+00 2.9383097625e+00 
83900 6.3716719255e+00 -6.9185232767e-05 1.6964360284e+00 -2.9383133930e+00 1.6964360284e+00 2.9383133930e+00 
84000 6.3716719259e+00 -6.9879563251e-05 1.6964360284e+00 -2.9383133930e+00 1.6964360284e+00 2.9383133930e+00 
84100 6.3716719263e+00 -7.0538299676e-05 1.6964360284e+00 -2.9383133930e+00 1.6964360284e+00 2.9383133930e+00 
84200 6.3716719268e+00 -7.1161735414e-05 1.6964360284e+00 -2.9383133930e+00 1.6964360284e+00 2.9383133930e+00 
84300 6.3716719271e+00 -6.9065587964e-05 1.6964381258e+00 -2.9383170258e+00 1.6964381258e+00 2.9383170258e+00 
84400 6.3716719276e+00 -6.9598351016e-05 1.6964381258e+00 -2.9383170258e+00 1.6964381258e+00 2.9383170258e+00 
84500 6.3716719281e+00 -7.0096292055e-05 1.6964381258e+00 -2.9383170258e+00 1.6964381258e+00 2.9383170258e+00 
84600 6.3716719287e+00 -7.0559807768e-05 1.6964381258e+00 -2.9383170258e+00 1.6964381258e+00 2.9383170258e+00 
84700 6.3716719293e+00 -7.0989307792e-05 1.6964381258e+00 -2.9383170258e+00 1.6964381258e+00 2.9383170258e+00 
84800 6.3716719298e+00 -6.8707140631e-05 1.6964402181e+00 -2.9383206498e+00 1.6964402181e+00 2.9383206498e+00 
84900 6.3716719304e+00 -6.9048926114e-05 1.6964402181e+00 -2.9383206498e+00 1.6964402181e+00 2.9383206498e+00 
85000 6.3716719311e+00 -6.9357507351e-05 1.6964402181e+00 -2.9383206498e+00 1.6964402181e+00 2.9383206498e+00 
85100 6.3716719317e+00 -6.9633385620e-05 1.6964402181e+00 -2.9383206498e+00 1.6964402181e+00 2.9383206498e+00 
85200 6.3716719325e+00 -6.9877072180e-05 1.6964402181e+00 -2.9383206498e+00 1.6964402181e+00 2.9383206498e+00 
85300 6.3716719332e+00 -7.0089087918e-05 1.6964402181e+00 -2.9383206498e+00 1.6964402181e+00 2.9383206498e+00 
85400 6.3716719339e+00 -7.0269963014e-05 1.6964402181e+00 -2.9383206498e+00 1.6964402181e+00 2.9383206498e+00 
85500 6.3716719347e+00 -7.0420236555e-05 1.6964402181e+00 -2.9383206498e+00 1.6964402181e+00 2.9383206498e+00 
85600 6.3716719355e+00 -7.0540456195e-05 1.6964402181e+00 -2.9383206498e+00 1.6964402181e+00 2.9383206498e+00 
85700 6.3716719363e+00 -7.0631177776e-05 1.6964402181e+00 -2.9383206498e+00 1.6964402181e+00 2.9383206498e+00 
85800 6.3716719371e+00 -7.0692964959e-05 1.6964402181e+00 -2.9383206498e+00 1.6964402181e+00 2.9383206498e+00 
85900 6.3716719380e+00 -7.0726388851e-05 1.6964402181e+00 -2.9383206498e+00 1.6964402181e+00 2.9383206498e+00 
86000 6.3716719387e+00 -6.8063883853e-05 1.6964423027e+00 -2.9383242604e+00 1.6964423027e+00 2.9383242604e+00 
86100 6.3716719395e+00 -6.8021437354e-05 1.6964423027e+00 -2.9383242604e+00 1.6964423027e+00 2.9383242604e+00 
86200 6.3716719404e+00 -6.7951891582e-05 1.6964423027e+00 -2.9383242604e+00 1.6964423027e+00 2.9383242604e+00 
86300 6.3716719413e+00 -6.7855886562e-05 1.6964423027e+00 -2.9383242604e+00 1.6964423027e+00 2.9383242604e+00 
86400 6.3716719422e+00 -6.7734066550e-05 1.6964423027e+00 -2.9383242604e+00 1.6964423027e+00 2.9383242604e+00 
86500 6.3716719431e+00 -6.7587079657e-05 1.6964423027e+00 -2.9383242604e+00 1.6964423027e+00 2.9383242604e+00 
86600 6.3716719440e+00 -6.7415577456e-05 1.6964423027e+00 -2.9383242604e+00 1.6964423027e+00 2.9383242604e+00 
86700 6.3716719449e+00 -6.7220214594e-05 1.6964423027e+00 -2.9383242604e+00 1.6964423027e+00 2.9383242604e+00 
86800 6.3716719458e+00 -6.7001648408e-05 1.6964423027e+00 -2.9383242604e+00 1.6964423027e+00 2.9383242604e+00 
86900 6.3716719467e+00 -6.6760538546e-05 1.6964423027e+00 -2.9383242604e+00 1.6964423027e+00 2.9383242604e+00 
87000 6.3716719476e+00 -6.6497546570e-05 1.6964423027e+00 -2.9383242604e+00 1.6964423027e+00 2.9383242604e+00 
87100 6.3716719485e+00 -6.6213335581e-05 1.6964423027e+00 -2.9383242604e+00 1.6964423027e+00 2.9383242604e+00 
87200 6.3716719494e+00 -6.5908569828e-05 1.6964423027e+00 -2.9383242604e+00 1.6964423027e+00 2.9383242604e+00 
87300 6.3716719504e+00 -6.5583914333e-05 1.6964423027e+00 -2.9383242604e+00 1.6964423027e+00 2.9383242604e+00 
87400 6.3716719513e+00 -6.5240034501e-05 1.6964423027e+00 -2.9383242604e+00 1.6964423027e+00 2.9383242604e+00 
87500 6.3716719522e+00 -6.4877595751e-05 1.6964423027e+00 -2.9383242604e+00 1.6964423027e+00 2.9383242604e+00 
87600 6.3716719530e+00 -6.4497263135e-05 1.6964423027e+00 -2.9383242604e+00 1.6964423027e+00 2.9383242604e+00 
87700 6.3716719539e+00 -6.4099700968e-05 1.6964423027e+00 -2.9383242604e+00 1.6964423027e+00 2.9383242604e+00 
87800 6.3716719548e+00 -6.3685572444e-05 1.6964423027e+00 -2.9383242604e+00 1.6964423027e+00 2.9383242604e+00 
87900 6.3716719557e+00 -6.3255539286e-05 1.6964423027e+00 -2.9383242604e+00 1.6964423027e+00 2.9383242604e+00 
88000 6.3716719565e+00 -6.2810261365e-05 1.6964423027e+00 -2.9383242604e+00 1.6964423027e+00 2.9383242604e+00 
88100 6.3716719574e+00 -6.2350396354e-05 1.6964423027e+00 -2.9383242604e+00 1.6964423027e+00 2.9383242604e+00 
88200 6.3716719582e+00 -6.1876599357e-05 1.6964423027e+00 -2.9383242604e+00 1.6964423027e+00 2.9383242604e+00 
88300 6.3716719590e+00 -6.1389522557e-05 1.6964423027e+00 -2.9383242604e+00 1.6964423027e+00 2.9383242604e+00 
88400 6.3716719598e+00 -6.0889814880e-05 1.6964423027e+00 -2.9383242604e+00 1.6964423027e+00 2.9383242604e+00 
88500 6.3716719606e+00 -6.0378121633e-05 1.6964423027e+00 -2.9383242604e+00 1.6964423027e+00 2.9383242604e+00 
88600 6.3716719614e+00 -5.9855084177e-05 1.6964423027e+00 -2.9383242604e+00 1.6964423027e+00 2.9383242604e+00 
88700 6.3716719621e+00 -5.9321339586e-05 1.6964423027e+00 -2.9383242604e+00 1.6964423027e+00 2.9383242604e+00 
88800 6.3716719629e+00 -5.8777520321e-05 1.6964423027e+00 -2.9383242604e+00 1.6964423027e+00 2.9383242604e+00 
88900 6.3716719636e+00 -5.8224253903e-05 1.6964423027e+00 -2.9383242604e+00 1.6964423027e+00 2.9383242604e+00 
89000 6.3716719643e+00 -5.7662162599e-05 1.6964423027e+00 -2.9383242604e+00 1.6964423027e+00 2.9383242604e+00 
89100 6.3716719650e+00 -5.7091863108e-05 1.6964423027e+00 -2.9383242604e+00 1.6964423027e+00 2.9383242604e+00 
89200 6.3716719657e+00 -5.6513966256e-05 1.6964423027e+00 -2.9383242604e+00 1.6964423027e+00 2.9383242604e+00 
89300 6.3716719664e+00 -5.5929076694e-05 1.6964423027e+00 -2.9383242604e+00 1.6964423027e+00 2.9383242604e+00 
89400 6.3716719670e+00 -5.5337792612e-05 1.6964423027e+00 -2.9383242604e+00 1.6964423027e+00 2.9383242604e+00 
89500 6.3716719676e+00 -5.4740705452e-05 1.6964423027e+00 -2.9383242604e+00 1.6964423027e+00 2.9383242604e+00 
89600 6.3716719682e+00 -5.4138399621e-05 1.6964423027e+00 -2.9383242604e+00 1.6964423027e+00 2.9383242604e+00 
89700 6.3716719688e+00 -5.3531452230e-05 1.6964423027e+00 -2.9383242604e+00 1.6964423027e+00 2.9383242604e+00 
89800 6.3716719694e+00 -5.2920432824e-05 1.6964423027e+00 -2.9383242604e+00 1.6964423027e+00 2.9383242604e+00 
89900 6.3716719700e+00 -5.2305903129e-05 1.6964423027e+00 -2.9383242604e+00 1.6964423027e+00 2.9383242604e+00 
90000 6.3716719705e+00 -5.1688416801e-05 1.6964423027e+00 -2.9383242604e+00 1.6964423027e+00 2.9383242604e+00 
90100 6.3716719710e+00 -5.1068519186e-05 1.6964423027e+00 -2.9383242604e+00 1.6964423027e+00 2.9383242604e+00 
90200 6.3716719716e+00 -5.0446747089e-05 1.6964423027e+00 -2.9383242604e+00 1.6964423027e+00 2.9383242604e+00 
90300 6.3716719721e+00 -4.9823628544e-05 1.6964423027e+00 -2.9383242604e+00 1.6964423027e+00 2.9383242604e+00 
90400 6.3716719725e+00 -4.9199682606e-05 1.6964423027e+00 -2.9383242604e+00 1.6964423027e+00 2.9383242604e+00 
90500 6.3716719730e+00 -4.8575419138e-05 1.6964423027e+00 -2.9383242604e+00 1.6964423027e+00 2.9383242604e+00 
90600 6.3716719734e+00 -4.7951338607e-05 1.6964423027e+00 -2.9383242604e+00 1.6964423027e+00 2.9383242604e+00 
90700 6.3716719739e+00 -4.7327931900e-05 1.6964423027e+00 -2.9383242604e+00 1.6964423027e+00 2.9383242604e+00 
90800 6.3716719743e+00 -4.6705680145e-05 1.6964423027e+00 -2.9383242604e+00 1.6964423027e+00 2.9383242604e+00 
90900 6.3716719747e+00 -4.6085054521e-05 1.6964423027e+00 -2.9383242604e+00 1.6964423027e+00 2.9383242604e+00 
91000 6.3716719751e+00 -4.5466516113e-05 1.6964423027e+00 -2.9383242604e+00 1.6964423027e+00 2.9383242604e+00 
91100 6.3716719755e+00 -4.4850515744e-05 1.6964423027e+00 -2.9383242604e+00 1.6964423027e+00 2.9383242604e+00 
91200 6.3716719758e+00 -4.4237493831e-05 1.6964423027e+00 -2.9383242604e+00 1.6964423027e+00 2.9383242604e+00 
91300 6.3716719762e+00 -4.3627880244e-05 1.6964423027e+00 -2.9383242604e+00 1.6964423027e+00 2.9383242604e+00 
91400 6.3716719765e+00 -4.3022094187e-05 1.6964423027e+00 -2.9383242604e+00 1.6964423027e+00 2.9383242604e+00 
91500 6.3716719768e+00 -4.2420544063e-05 1.6964423027e+00 -2.9383242604e+00 1.6964423027e+00 2.9383242604e+00 
91600 6.3716719772e+00 -4.1823627377e-05 1.6964423027e+00 -2.9383242604e+00 1.6964423027e+00 2.9383242604e+00 
91700 6.3716719775e+00 -4.1231730624e-05 1.6964423027e+00 -2.9383242604e+00 1.6964423027e+00 2.9383242604e+00 
91800 6.3716719778e+00 -4.0645229200e-05 1.6964423027e+00 -2.9383242604e+00 1.6964423027e+00 2.9383242604e+00 
91900 6.3716719780e+00 -4.0064487324e-05 1.6964423027e+00 -2.9383242604e+00 1.6964423027e+00 2.9383242604e+00 
92000 6.3716719783e+00 -3.9489857949e-05 1.6964423027e+00 -2.9383242604e+00 1.6964423027e+00 2.9383242604e+00 
92100 6.3716719786e+00 -3.8921682712e-05 1.6964423027e+00 -2.9383242604e+00 1.6964423027e+00 2.9383242604e+00 
92200 6.3716719789e+00 -3.8360291861e-05 1.6964423027e+00 -2.9383242604e+00 1.6964423027e+00 2.9383242604e+00 
92300 6.3716719791e+00 -3.7806004221e-05 1.6964423027e+00 -2.9383242604e+00 1.6964423027e+00 2.9383242604e+00 
92400 6.3716719794e+00 -3.7259127148e-05 1.6964423027e+00 -2.9383242604e+00 1.6964423027e+00 2.9383242604e+00 
92500 6.3716719796e+00 -3.6719956499e-05 1.6964423027e+00 -2.9383242604e+00 1.6964423027e+00 2.9383242604e+00 
92600 6.3716719798e+00 -3.6188776612e-05 1.6964423027e+00 -2.9383242604e+00 1.6964423027e+00 2.9383242604e+00 
92700 6.3716719801e+00 -3.5665860290e-05 1.6964423027e+00 -2.9383242604e+00 1.6964423027e+00 2.9383242604e+00 
92800 6.3716719803e+00 -3.5151468799e-05 1.6964423027e+00 -2.9383242604e+00 1.6964423027e+00 2.9383242604e+00 
92900 6.3716719805e+00 -3.4645851875e-05 1.6964423027e+00 -2.9383242604e+00 1.6964423027e+00 2.9383242604e+00 
93000 6.3716719807e+00 -3.4149247729e-05 1.6964423027e+00 -2.9383242604e+00 1.6964423027e+00 2.9383242604e+00 
93100 6.3716719809e+00 -3.3661883074e-05 1.6964423027e+00 -2.9383242604e+00 1.6964423027e+00 2.9383242604e+00 
93200 6.3716719811e+00 -3.3183973150e-05 1.6964423027e+00 -2.9383242604e+00 1.6964423027e+00 2.9383242604e+00 
93300 6.3716719813e+00 -3.2715721766e-05 1.6964423027e+00 -2.9383242604e+00 1.6964423027e+00 2.9383242604e+00 
93400 6.3716719815e+00 -3.2257321334e-05 1.6964423027e+00 -2.9383242604e+00 1.6964423027e+00 2.9383242604e+00 
93500 6.3716719817e+00 -3.1808952939e-05 1.6964423027e+00 -2.9383242604e+00 1.6964423027e+00 2.9383242604e+00 
93600 6.3716719819e+00 -3.1370786381e-05 1.6964423027e+00 -2.9383242604e+00 1.6964423027e+00 2.9383242604e+00 
93700 6.3716719821e+00 -3.0942980260e-05 1.6964423027e+00 -2.9383242604e+00 1.6964423027e+00 2.9383242604e+00 
93800 6.3716719823e+00 -3.0525682036e-05 1.6964423027e+00 -2.9383242604e+00 1.6964423027e+00 2.9383242604e+00 
93900 6.3716719825e+00 -3.0119028122e-05 1.6964423027e+00 -2.9383242604e+00 1.6964423027e+00 2.9383242604e+00 
94000 6.3716719827e+00 -2.9723143970e-05 1.6964423027e+00 -2.9383242604e+00 1.6964423027e+00 2.9383242604e+00 
94100 6.3716719829e+00 -2.9338144165e-05 1.6964423027e+00 -2.9383242604e+00 1.6964423027e+00 2.9383242604e+00 
94200 6.3716719831e+00 -2.8964132537e-05 1.6964423027e+00 -2.9383242604e+00 1.6964423027e+00 2.9383242604e+00 
94300 6.3716719833e+00 -2.8601202259e-05 1.6964423027e+00 -2.9383242604e+00 1.6964423027e+00 2.9383242604e+00 
94400 6.3716719834e+00 -2.8249435973e-05 1.6964423027e+00 -2.9383242604e+00 1.6964423027e+00 2.9383242604e+00 
94500 6.3716719836e+00 -2.7908905912e-05 1.6964423027e+00 -2.9383242604e+00 1.6964423027e+00 2.9383242604e+00 
94600 6.3716719838e+00 -2.7579674020e-05 1.6964423027e+00 -2.9383242604e+00 1.6964423027e+00 2.9383242604e+00 
94700 6.3716719840e+00 -2.7261792098e-05 1.6964423027e+00 -2.9383242604e+00 1.6964423027e+00 2.9383242604e+00 
94800 6.3716719842e+00 -2.6955301936e-05 1.6964423027e+00 -2.9383242604e+00 1.6964423027e+00 2.9383242604e+00 
94900 6.3716719844e+00 -2.6660235460e-05 1.6964423027e+00 -2.9383242604e+00 1.6964423027e+00 2.9383242604e+00 
95000 6.3716719846e+00 -2.6376614891e-05 1.6964423027e+00 -2.9383242604e+00 1.6964423027e+00 2.9383242604e+00 
95100 6.3716719848e+00 -2.6104452892e-05 1.6964423027e+00 -2.9383242604e+00 1.6964423027e+00 2.9383242604e+00 
95200 6.3716719850e+00 -2.5843752733e-05 1.6964423027e+00 -2.9383242604e+00 1.6964423027e+00 2.9383242604e+00 
95300 6.3716719852e+00 -2.5594508452e-05 1.6964423027e+00 -2.9383242604e+00 1.6964423027e+00 2.9383242604e+00 
95400 6.3716719854e+00 -2.5356705038e-05 1.6964423027e+00 -2.9383242604e+00 1.6964423027e+00 2.9383242604e+00 
95500 6.3716719855e+00 -2.5130318593e-05 1.6964423027e+00 -2.9383242604e+00 1.6964423027e+00 2.9383242604e+00 
95600 6.3716719857e+00 -2.4915316517e-05 1.6964423027e+00 -2.9383242604e+00 1.6964423027e+00 2.9383242604e+00 
95700 6.3716719859e+00 -2.4711657688e-05 1.6964423027e+00 -2.9383242604e+00 1.6964423027e+00 2.9383242604e+00 
95800 6.3716719861e+00 -2.4519292657e-05 1.6964423027e+00 -2.9383242604e+00 1.6964423027e+00 2.9383242604e+00 
95900 6.3716719863e+00 -2.4338163818e-05 1.6964423027e+00 -2.9383242604e+00 1.6964423027e+00 2.9383242604e+00 
96000 6.3716719865e+00 -2.4168205628e-05 1.6964423027e+00 -2.9383242604e+00 1.6964423027e+00 2.9383242604e+00 
96100 6.3716719867e+00 -2.4009344782e-05 1.6964423027e+00 -2.9383242604e+00 1.6964423027e+00 2.9383242604e+00 
96200 6.3716719869e+00 -2.3861500424e-05 1.6964423027e+00 -2.9383242604e+00 1.6964423027e+00 2.9383242604e+00 
96300 6.3716719872e+00 -2.3724584346e-05 1.6964423027e+00 -2.9383242604e+00 1.6964423027e+00 2.9383242604e+00 
96400 6.3716719874e+00 -2.3598501188e-05 1.6964423027e+00 -2.9383242604e+00 1.6964423027e+00 2.9383242604e+00 
96500 6.3716719876e+00 -2.3483148655e-05 1.6964423027e+00 -2.9383242604e+00 1.6964423027e+00 2.9383242604e+00 
96600 6.3716719878e+00 -2.3378417717e-05 1.6964423027e+00 -2.9383242604e+00 1.6964423027e+00 2.9383242604e+00 
96700 6.3716719880e+00 -2.3284192819e-05 1.6964423027e+00 -2.9383242604e+00 1.6964423027e+00 2.9383242604e+00 
96800 6.3716719882e+00 -2.3200352106e-05 1.6964423027e+00 -2.9383242604e+00 1.6964423027e+00 2.9383242604e+00 
96900 6.3716719884e+00 -2.3126767615e-05 1.6964423027e+00 -2.9383242604e+00 1.6964423027e+00 2.9383242604e+00 
97000 6.3716719886e+00 -2.3063305517e-05 1.6964423027e+00 -2.9383242604e+00 1.6964423027e+00 2.9383242604e+00 
97100 6.3716719888e+00 -2.3009826311e-05 1.6964423027e+00 -2.9383242604e+00 1.6964423027e+00 2.9383242604e+00 
97200 6.3716719890e+00 -2.2966185049e-05 1.6964423027e+00 -2.9383242604e+00 1.6964423027e+00 2.9383242604e+00 
97300 6.3716719892e+00 -2.2932231560e-05 1.6964423027e+00 -2.9383242604e+00 1.6964423027e+00 2.9383242604e+00 
97400 6.3716719894e+00 -2.2907810654e-05 1.6964423027e+00 -2.9383242604e+00 1.6964423027e+00 2.9383242604e+00 
97500 6.3716719896e+00 -2.2892762359e-05 1.6964423027e+00 -2.9383242604e+00 1.6964423027e+00 2.9383242604e+00 
97600 6.3716719898e+00 -2.2886922126e-05 1.6964423027e+00 -2.9383242604e+00 1.6964423027e+00 2.9383242604e+00 
97700 6.3716719900e+00 -2.2890121046e-05 1.6964423027e+00 -2.9383242604e+00 1.6964423027e+00 2.9383242604e+00 
97800 6.3716719902e+00 -2.2902186079e-05 1.6964423027e+00 -2.9383242604e+00 1.6964423027e+00 2.9383242604e+00 
97900 6.3716719904e+00 -2.2922940261e-05 1.6964423027e+00 -2.9383242604e+00 1.6964423027e+00 2.9383242604e+00 
98000 6.3716719906e+00 -2.2952202936e-05 1.6964423027e+00 -2.9383242604e+00 1.6964423027e+00 2.9383242604e+00 
98100 6.3716719908e+00 -2.2989789956e-05 1.6964423027e+00 -2.9383242604e+00 1.6964423027e+00 2.9383242604e+00 
98200 6.3716719910e+00 -2.3035513904e-05 1.6964423027e+00 -2.9383242604e+00 1.6964423027e+00 2.9383242604e+00 
98300 6.3716719912e+00 -2.3089184314e-05 1.6964423027e+00 -2.9383242604e+00 1.6964423027e+00 2.9383242604e+00 
98400 6.3716719914e+00 -2.3150607871e-05 1.6964423027e+00 -2.9383242604e+00 1.6964423027e+00 2.9383242604e+00 
98500 6.3716719916e+00 -2.3219588636e-05 1.6964423027e+00 -2.9383242604e+00 1.6964423027e+00 2.9383242604e+00 
98600 6.3716719918e+00 -2.3295928247e-05 1.6964423027e+00 -2.9383242604e+00 1.6964423027e+00 2.9383242604e+00 
98700 6.3716719920e+00 -2.3379426135e-05 1.6964423027e+00 -2.9383242604e+00 1.6964423027e+00 2.9383242604e+00 
98800 6.3716719922e+00 -2.3469879719e-05 1.6964423027e+00 -2.9383242604e+00 1.6964423027e+00 2.9383242604e+00 
98900 6.3716719924e+00 -2.3567084624e-05 1.6964423027e+00 -2.9383242604e+00 1.6964423027e+00 2.9383242604e+00 
99000 6.3716719926e+00 -2.3670834878e-05 1.6964423027e+00 -2.9383242604e+00 1.6964423027e+00 2.9383242604e+00 
99100 6.3716719928e+00 -2.3780923106e-05 1.6964423027e+00 -2.9383242604e+00 1.6964423027e+00 2.9383242604e+00 
99200 6.3716719930e+00 -2.3897140733e-05 1.6964423027e+00 -2.9383242604e+00 1.6964423027e+00 2.9383242604e+00 
99300 6.3716719931e+00 -2.4019278185e-05 1.6964423027e+00 -2.9383242604e+00 1.6964423027e+00 2.9383242604e+00 
99400 6.3716719933e+00 -2.4147125069e-05 1.6964423027e+00 -2.9383242604e+00 1.6964423027e+00 2.9383242604e+00 
99500 6.3716719935e+00 -2.4280470374e-05 1.6964423027e+00 -2.9383242604e+00 1.6964423027e+00 2.9383242604e+00 
99600 6.3716719937e+00 -2.4419102647e-05 1.6964423027e+00 -2.9383242604e+00 1.6964423027e+00 2.9383242604e+00 
99700 6.3716719938e+00 -2.4562810183e-05 1.6964423027e+00 -2.9383242604e+00 1.6964423027e+00 2.9383242604e+00 
99800 6.3716719940e+00 -2.4711381210e-05 1.6964423027e+00 -2.9383242604e+00 1.6964423027e+00 2.9383242604e+00 
99900 6.3716719942e+00 -2.4864604054e-05 1.6964423027e+00 -2.9383242604e+00 1.6964423027e+00 2.9383242604e+00 
100000 6.3716719943e+00 -2.5022267324e-05 1.6964423027e+00 -2.9383242604e+00 1.6964423027e+00 2.9383242604e+00 
100100 6.3716719945e+00 -2.5184160076e-05 1.6964423027e+00 -2.9383242604e+00 1.6964423027e+00 2.9383242604e+00 
100200 6.3716719946e+00 -2.5350071987e-05 1.6964423027e+00 -2.9383242604e+00 1.6964423027e+00 2.9383242604e+00 
100300 6.3716719948e+00 -2.5519793505e-05 1.6964423027e+00 -2.9383242604e+00 1.6964423027e+00 2.9383242604e+00 
100400 6.3716719950e+00 -2.5693116028e-05 1.6964423027e+00 -2.9383242604e+00 1.6964423027e+00 2.9383242604e+00 
100500 6.3716719951e+00 -2.5869832044e-05 1.6964423027e+00 -2.9383242604e+00 1.6964423027e+00 2.9383242604e+00 
100600 6.3716719953e+00 -2.6049735288e-05 1.6964423027e+00 -2.9383242604e+00 1.6964423027e+00 2.9383242604e+00 
100700 6.3716719954e+00 -2.6232620897e-05 1.6964423027e+00 -2.9383242604e+00 1.6964423027e+00 2.9383242604e+00 
100800 6.3716719955e+00 -2.6418285543e-05 1.6964423027e+00 -2.9383242604e+00 1.6964423027e+00 2.9383242604e+00 
100900 6.3716719957e+00 -2.6606527585e-05 1.6964423027e+00 -2.9383242604e+00 1.6964423027e+00 2.9383242604e+00 
101000 6.3716719958e+00 -2.6797147197e-05 1.6964423027e+00 -2.9383242604e+00 1.6964423027e+00 2.9383242604e+00 
101100 6.3716719960e+00 -2.6989946507e-05 1.6964423027e+00 -2.9383242604e+00 1.6964423027e+00 2.9383242604e+00 
101200 6.3716719961e+00 -2.7184729716e-05 1.6964423027e+00 -2.9383242604e+00 1.6964423027e+00 2.9383242604e+00 
101300 6.3716719962e+00 -2.7381303234e-05 1.6964423027e+00 -2.9383242604e+00 1.6964423027e+00 2.9383242604e+00 
101400 6.3716719963e+00 -2.7579475794e-05 1.6964423027e+00 -2.9383242604e+00 1.6964423027e+00 2.9383242604e+00 
101500 6.3716719965e+00 -2.7779058565e-05 1.6964423027e+00 -2.9383242604e+00 1.6964423027e+00 2.9383242604e+00 
101600 6.3716719966e+00 -2.7979865265e-05 1.6964423027e+00 -2.9383242604e+00 1.6964423027e+00 2.9383242604e+00 
101700 6.3716719967e+00 -2.8181712278e-05 1.6964423027e+00 -2.9383242604e+00 1.6964423027e+00 2.9383242604e+00 
101800 6.3716719968e+00 -2.8384418742e-05 1.6964423027e+00 -2.9383242604e+00 1.6964423027e+00 2.9383242604e+00 
101900 6.3716719969e+00 -2.8587806659e-05 1.6964423027e+00 -2.9383242604e+00 1.6964423027e+00 2.9383242604e+00 
102000 6.3716719971e+00 -2.8791700983e-05 1.6964423027e+00 -2.9383242604e+00 1.6964423027e+00 2.9383242604e+00 
102100 6.3716719972e+00 -2.8995929714e-05 1.6964423027e+00 -2.9383242604e+00 1.6964423027e+00 2.9383242604e+00 
102200 6.3716719973e+00 -2.9200323981e-05 1.6964423027e+00 -2.9383242604e+00 1.6964423027e+00 2.9383242604e+00 
102300 6.3716719974e+00 -2.9404718130e-05 1.6964423027e+00 -2.9383242604e+00 1.6964423027e+00 2.9383242604e+00 
102400 6.3716719975e+00 -2.9608949790e-05 1.6964423027e+00 -2.9383242604e+00 1.6964423027e+00 2.9383242604e+00 
102500 6.3716719976e+00 -2.9812859958e-05 1.6964423027e+00 -2.9383242604e+00 1.6964423027e+00 2.9383242604e+00 
102600 6.3716719977e+00 -3.0016293060e-05 1.6964423027e+00 -2.9383242604e+00 1.6964423027e+00 2.9383242604e+00 
102700 6.3716719978e+00 -3.0219097017e-05 1.6964423027e+00 -2.9383242604e+00 1.6964423027e+00 2.9383242604e+00 
102800 6.3716719979e+00 -3.0421123311e-05 1.6964423027e+00 -2.9383242604e+00 1.6964423027e+00 2.9383242604e+00 
102900 6.3716719980e+00 -3.0622227034e-05 1.6964423027e+00 -2.9383242604e+00 1.6964423027e+00 2.9383242604e+00 
103000 6.3716719981e+00 -3.0822266942e-05 1.6964423027e+00 -2.9383242604e+00 1.6964423027e+00 2.9383242604e+00 
103100 6.3716719982e+00 -3.1021105505e-05 1.6964423027e+00 -2.9383242604e+00 1.6964423027e+00 2.9383242604e+00 
103200 6.3716719983e+00 -3.1218608951e-05 1.6964423027e+00 -2.9383242604e+00 1.6964423027e+00 2.9383242604e+00 
103300 6.3716719983e+00 -3.1414647300e-05 1.6964423027e+00 -2.9383242604e+00 1.6964423027e+00 2.9383242604e+00 
103400 6.3716719984e+00 -3.1609094412e-05 1.6964423027e+00 -2.9383242604e+00 1.6964423027e+00 2.9383242604e+00 
103500 6.3716719985e+00 -3.1801828000e-05 1.6964423027e+00 -2.9383242604e+00 1.6964423027e+00 2.9383242604e+00 
103600 6.3716719986e+00 -3.1992729681e-05 1.6964423027e+00 -2.9383242604e+00 1.6964423027e+00 2.9383242604e+00 
103700 6.3716719987e+00 -3.2181684980e-05 1.6964423027e+00 -2.9383242604e+00 1.6964423027e+00 2.9383242604e+00 
103800 6.3716719988e+00 -3.2368583361e-05 1.6964423027e+00 -2.9383242604e+00 1.6964423027e+00 2.9383242604e+00 
103900 6.3716719988e+00 -3.2553318239e-05 1.6964423027e+00 -2.9383242604e+00 1.6964423027e+00 2.9383242604e+00 
104000 6.3716719989e+00 -3.2735786994e-05 1.6964423027e+00 -2.9383242604e+00 1.6964423027e+00 2.9383242604e+00 
104100 6.3716719990e+00 -3.2915890984e-05 1.6964423027e+00 -2.9383242604e+00 1.6964423027e+00 2.9383242604e+00 
104200 6.3716719991e+00 -3.3093535545e-05 1.6964423027e+00 -2.9383242604e+00 1.6964423027e+00 2.9383242604e+00 
104300 6.3716719992e+00 -3.3268629991e-05 1.6964423027e+00 -2.9383242604e+00 1.6964423027e+00 2.9383242604e+00 
104400 6.3716719992e+00 -3.3441087624e-05 1.6964423027e+00 -2.9383242604e+00 1.6964423027e+00 2.9383242604e+00 
104500 6.3716719993e+00 -3.3610825713e-05 1.6964423027e+00 -2.9383242604e+00 1.6964423027e+00 2.9383242604e+00 
104600 6.3716719994e+00 -3.3777765501e-05 1.6964423027e+00 -2.9383242604e+00 1.6964423027e+00 2.9383242604e+00 
104700 6.3716719995e+00 -3.3941832180e-05 1.6964423027e+00 -2.9383242604e+00 1.6964423027e+00 2.9383242604e+00 
104800 6.3716719995e+00 -3.4102954889e-05 1.6964423027e+00 -2.9383242604e+00 1.6964423027e+00 2.9383242604e+00 
104900 6.3716719996e+00 -3.4261066690e-05 1.6964423027e+00 -2.9383242604e+00 1.6964423027e+00 2.9383242604e+00 
105000 6.3716719997e+00 -3.4416104542e-05 1.6964423027e+00 -2.9383242604e+00 1.6964423027e+00 2.9383242604e+00 
105100 6.3716719997e+00 -3.4568009287e-05 1.6964423027e+00 -2.9383242604e+00 1.6964423027e+00 2.9383242604e+00 
105200 6.3716719998e+00 -3.4716725618e-05 1.6964423027e+00 -2.9383242604e+00 1.6964423027e+00 2.9383242604e+00 
105300 6.3716719999e+00 -3.4862202050e-05 1.6964423027e+00 -2.9383242604e+00 1.6964423027e+00 2.9383242604e+00 
105400 6.3716719999e+00 -3.5004390886e-05 1.6964423027e+00 -2.9383242604e+00 1.6964423027e+00 2.9383242604e+00 
105500 6.3716720000e+00 -3.5143248189e-05 1.6964423027e+00 -2.9383242604e+00 1.6964423027e+00 2.9383242604e+00 
105600 6.3716720001e+00 -3.5278733736e-05 1.6964423027e+00 -2.9383242604e+00 1.6964423027e+00 2.9383242604e+00 
105700 6.3716720001e+00 -3.5410810990e-05 1.6964423027e+00 -2.9383242604e+00 1.6964423027e+00 2.9383242604e+00 
105800 6.3716720002e+00 -3.5539447037e-05 1.6964423027e+00 -2.9383242604e+00 1.6964423027e+00 2.9383242604e+00 
105900 6.3716720003e+00 -3.5664612560e-05 1.6964423027e+00 -2.9383242604e+00 1.6964423027e+00 2.9383242604e+00 
106000 6.3716720003e+00 -3.5786281790e-05 1.6964423027e+00 -2.9383242604e+00 1.6964423027e+00 2.9383242604e+00 
106100 6.3716720004e+00 -3.5904432452e-05 1.6964423027e+00 -2.9383242604e+00 1.6964423027e+00 2.9383242604e+00 
106200 6.3716720005e+00 -3.6019045711e-05 1.6964423027e+00 -2.9383242604e+00 1.6964423027e+00 2.9383242604e+00 
106300 6.3716720005e+00 -3.6130106129e-05 1.6964423027e+00 -2.9383242604e+00 1.6964423027e+00 2.9383242604e+00 
106400 6.3716720006e+00 -3.6237601601e-05 1.6964423027e+00 -2.9383242604e+00 1.6964423027e+00 2.9383242604e+00 
106500 6.3716720007e+00 -3.6341523303e-05 1.6964423027e+00 -2.9383242604e+00 1.6964423027e+00 2.9383242604e+00 
106600 6.3716720007e+00 -3.6441865630e-05 1.6964423027e+00 -2.9383242604e+00 1.6964423027e+00 2.9383242604e+00 
106700 6.3716720008e+00 -3.6538626142e-05 1.6964423027e+00 -2.9383242604e+00 1.6964423027e+00 2.9383242604e+00 
106800 6.3716720008e+00 -3.6631805498e-05 1.6964423027e+00 -2.9383242604e+00 1.6964423027e+00 2.9383242604e+00 
106900 6.3716720009e+00 -3.6721407390e-05 1.6964423027e+00 -2.9383242604e+00 1.6964423027e+00 2.9383242604e+00 
107000 6.3716720010e+00 -3.6807438487e-05 1.6964423027e+00 -2.9383242604e+00 1.6964423027e+00 2.9383242604e+00 
107100 6.3716720010e+00 -3.6889908358e-05 1.6964423027e+00 -2.9383242604e+00 1.6964423027e+00 2.9383242604e+00 
107200 6.3716720011e+00 -3.6968829419e-05 1.6964423027e+00 -2.9383242604e+00 1.6964423027e+00 2.9383242604e+00 
107300 6.3716720011e+00 -3.7044216850e-05 1.6964423027e+00 -2.9383242604e+00 1.6964423027e+00 2.9383242604e+00 
107400 6.3716720012e+00 -3.7116088540e-05 1.6964423027e+00 -2.9383242604e+00 1.6964423027e+00 2.9383242604e+00 
107500 6.3716720013e+00 -3.7184465001e-05 1.6964423027e+00 -2.9383242604e+00 1.6964423027e+00 2.9383242604e+00 
107600 6.3716720013e+00 -3.7249369316e-05 1.6964423027e+00 -2.9383242604e+00 1.6964423027e+00 2.9383242604e+00 
107700 6.3716720014e+00 -3.7310827045e-05 1.6964423027e+00 -2.9383242604e+00 1.6964423027e+00 2.9383242604e+00 
107800 6.3716720014e+00 -3.7368866177e-05 1.6964423027e+00 -2.9383242604e+00 1.6964423027e+00 2.9383242604e+00 
107900 6.3716720015e+00 -3.7423517034e-05 1.6964423027e+00 -2.9383242604e+00 1.6964423027e+00 2.9383242604e+00 
108000 6.3716720015e+00 -3.7474812212e-05 1.6964423027e+00 -2.9383242604e+00 1.6964423027e+00 2.9383242604e+00 
108100 6.3716720016e+00 -3.7522786502e-05 1.6964423027e+00 -2.9383242604e+00 1.6964423027e+00 2.9383242604e+00 
108200 6.3716720017e+00 -3.7567476814e-05 1.6964423027e+00 -2.9383242604e+00 1.6964423027e+00 2.9383242604e+00 
108300 6.3716720017e+00 -3.7608922102e-05 1.6964423027e+00 -2.9383242604e+00 1.6964423027e+00 2.9383242604e+00 
108400 6.3716720018e+00 -3.7647163293e-05 1.6964423027e+00 -2.9383242604e+00 1.6964423027e+00 2.9383242604e+00 
108500 6.3716720018e+00 -3.7682243205e-05 1.6964423027e+00 -2.9383242604e+00 1.6964423027e+00 2.9383242604e+00 
108600 6.3716720019e+00 -3.7714206476e-05 1.6964423027e+00 -2.9383242604e+00 1.6964423027e+00 2.9383242604e+00 
108700 6.3716720019e+00 -3.7743099488e-05 1.6964423027e+00 -2.9383242604e+00 1.6964423027e+00 2.9383242604e+00 
108800 6.3716720020e+00 -3.7768970287e-05 1.6964423027e+00 -2.9383242604e+00 1.6964423027e+00 2.9383242604e+00 
108900 6.3716720020e+00 -3.7791868511e-05 1.6964423027e+00 -2.9383242604e+00 1.6964423027e+00 2.9383242604e+00 
109000 6.3716720021e+00 -3.7811845315e-05 1.6964423027e+00 -2.9383242604e+00 1.6964423027e+00 2.9383242604e+00 
109100 6.3716720021e+00 -3.7828953294e-05 1.6964423027e+00 -2.9383242604e+00 1.6964423027e+00 2.9383242604e+00 
109200 6.3716720022e+00 -3.7843246407e-05 1.6964423027e+00 -2.9383242604e+00 1.6964423027e+00 2.9383242604e+00 
109300 6.3716720023e+00 -3.7854779907e-05 1.6964423027e+00 -2.9383242604e+00 1.6964423027e+00 2.9383242604e+00 
109400 6.3716720023e+00 -3.7863610257e-05 1.6964423027e+00 -2.9383242604e+00 1.6964423027e+00 2.9383242604e+00 
109500 6.3716720024e+00 -3.7869795069e-05 1.6964423027e+00 -2.9383242604e+00 1.6964423027e+00 2.9383242604e+00 
109600 6.3716720024e+00 -3.7873393015e-05 1.6964423027e+00 -2.9383242604e+00 1.6964423027e+00 2.9383242604e+00 
109700 6.3716720025e+00 -3.7874463771e-05 1.6964423027e+00 -2.9383242604e+00 1.6964423027e+00 2.9383242604e+00 
109800 6.3716720025e+00 -3.7873067932e-05 1.6964423027e+00 -2.9383242604e+00 1.6964423027e+00 2.9383242604e+00 
109900 6.3716720026e+00 -3.7869266946e-05 1.6964423027e+00 -2.9383242604e+00 1.6964423027e+00 2.9383242604e+00 
110000 6.3716720026e+00 -3.7863123042e-05 1.6964423027e+00 -2.9383242604e+00 1.6964423027e+00 2.9383242604e+00 
110000 6.3716720026e+00 -3.7863123042e-05 1.6964423027e+00 -2.9383242604e+00 1.6964423027e+00 2.9383242604e+00 
