# step Hamiltonian StressXX CellTensor1 CellTensor2 CellTensor3 CellTensor4 
0 6.8445227940e+00 2.5117523424e-01 2.8237630504e+00 -4.8909010719e+00 2.8237630504e+00 4.8909010719e+00 
100 6.8778087555e+00 2.9842857337e-01 2.8237630504e+00 -4.8909010719e+00 2.8237630504e+00 4.8909010719e+00 
200 6.9073082106e+00 3.4102082730e-01 2.8184804662e+00 -4.8817513676e+00 2.8184804662e+00 4.8817513676e+00 
300 6.9342530717e+00 3.7989089643e-01 2.8124329067e+00 -4.8712766873e+00 2.8124329067e+00 4.8712766873e+00 
400 6.9590119178e+00 4.1553260101e-01 2.8056818392e+00 -4.8595834954e+00 2.8056818392e+00 4.8595834954e+00 
500 6.9818849668e+00 4.4838018902e-01 2.7982799072e+00 -4.8467629730e+00 2.7982799072e+00 4.8467629730e+00 
600 7.0031130757e+00 4.7881163266e-01 2.7902720304e+00 -4.8328929235e+00 2.7902720304e+00 4.8328929235e+00 
700 7.0228863696e+00 5.0715336145e-01 2.7816964241e+00 -4.8180395377e+00 2.7816964241e+00 4.8180395377e+00 
800 7.0413520848e+00 5.3368563514e-01 2.7725855188e+00 -4.8022589869e+00 2.7725855188e+00 4.8022589869e+00 
900 7.0586213991e+00 5.5864790880e-01 2.7629667749e+00 -4.7855988338e+00 2.7629667749e+00 4.7855988338e+00 
1000 7.0747751565e+00 5.8224365970e-01 2.7528633964e+00 -4.7680992689e+00 2.7528633964e+00 4.7680992689e+00 
1100 7.0898684584e+00 6.0464418011e-01 2.7422949564e+00 -4.7497941938e+00 2.7422949564e+00 4.7497941938e+00 
1200 7.1039340997e+00 6.2599074422e-01 2.7312779536e+00 -4.7307121853e+00 2.7312779536e+00 4.7307121853e+00 
1300 7.1169847780e+00 6.4639428026e-01 2.7198263335e+00 -4.7108773974e+00 2.7198263335e+00 4.7108773974e+00 
1400 7.1290139012e+00 6.6593116821e-01 2.7079520178e+00 -4.6903104793e+00 2.7079520178e+00 4.6903104793e+00 
1500 7.1399946780e+00 6.8463301599e-01 2.6956655204e+00 -4.6690296415e+00 2.6956655204e+00 4.6690296415e+00 
1600 7.1498770592e+00 7.0246735814e-01 2.6829767625e+00 -4.6470520681e+00 2.6829767625e+00 4.6470520681e+00 
1700 7.1585821325e+00 7.1930569211e-01 2.6698962673e+00 -4.6243959858e+00 2.6698962673e+00 4.6243959858e+00 
1800 7.1659940981e+00 7.3487661212e-01 2.6564369847e+00 -4.6010838247e+00 2.6564369847e+00 4.6010838247e+00 
1900 7.1719515734e+00 7.4870835330e-01 2.6426170535e+00 -4.5771470016e+00 2.6426170535e+00 4.5771470016e+00 
2000 7.1762435593e+00 7.6008227659e-01 2.6284637386e+00 -4.5526327411e+00 2.6284637386e+00 4.5526327411e+00 
2100 7.1786211251e+00 7.6805017670e-01 2.6140183885e+00 -4.5276126608e+00 2.6140183885e+00 4.5276126608e+00 
2200 7.1788404450e+00 7.7159913241e-01 2.5993412405e+00 -4.5021910947e+00 2.5993412405e+00 4.5021910947e+00 
2300 7.1767457435e+00 7.7002005921e-01 2.5845132409e+00 -4.4765082461e+00 2.5845132409e+00 4.4765082461e+00 
2400 7.1723696579e+00 7.6337397483e-01 2.5696308243e+00 -4.4507311444e+00 2.5696308243e+00 4.4507311444e+00 
2500 7.1659871518e+00 7.5272311607e-01 2.5547914504e+00 -4.4250285948e+00 2.5547914504e+00 4.4250285948e+00 
2600 7.1580642089e+00 7.3982934584e-01 2.5400740941e+00 -4.3995373859e+00 2.5400740941e+00 4.3995373859e+00 
2700 7.1491219679e+00 7.2647037273e-01 2.5255249452e+00 -4.3743375209e+00 2.5255249452e+00 4.3743375209e+00 
2800 7.1396072988e+00 7.1387980189e-01 2.5111561127e+00 -4.3494499730e+00 2.5111561127e+00 4.3494499730e+00 
2900 7.1298359026e+00 7.0261440517e-01 2.4969554326e+00 -4.3248536735e+00 2.4969554326e+00 4.3248536735e+00 
3000 7.1200017622e+00 6.9273761880e-01 2.4828992979e+00 -4.3005077340e+00 2.4828992979e+00 4.3005077340e+00 
3100 7.1102132431e+00 6.8407081825e-01 2.4689622593e+00 -4.2763680751e+00 2.4689622593e+00 4.2763680751e+00 
3200 7.1005270998e+00 6.7637233662e-01 2.4551218799e+00 -4.2523958348e+00 2.4551218799e+00 4.2523958348e+00 
3300 7.0909712869e+00 6.6942619377e-01 2.4413601132e+00 -4.2285597556e+00 2.4413601132e+00 4.2285597556e+00 
3400 7.0815578545e+00 6.6307090505e-01 2.4276629102e+00 -4.2048355041e+00 2.4276629102e+00 4.2048355041e+00 
3500 7.0722895432e+00 6.5719931589e-01 2.4140192179e+00 -4.1812039358e+00 2.4140192179e+00 4.1812039358e+00 
3600 7.0631629531e+00 6.5174824092e-01 2.4004199438e+00 -4.1576493021e+00 2.4004199438e+00 4.1576493021e+00 
3700 7.0541700006e+00 6.4668664369e-01 2.3868571000e+00 -4.1341577675e+00 2.3868571000e+00 4.1341577675e+00 
3800 7.0452985568e+00 6.4200549519e-01 2.3733231638e+00 -4.1107163025e+00 2.3733231638e+00 4.1107163025e+00 
3900 7.0365327055e+00 6.3770993401e-01 2.3598106296e+00 -4.0873119067e+00 2.3598106296e+00 4.0873119067e+00 
4000 7.0278528255e+00 6.3381343078e-01 2.3463117104e+00 -4.0639310928e+00 2.3463117104e+00 4.0639310928e+00 
4100 7.0192355920e+00 6.3033343563e-01 2.3328181533e+00 -4.0405595664e+00 2.3328181533e+00 4.0405595664e+00 
4200 7.0106539441e+00 6.2728801866e-01 2.3193211416e+00 -4.0171820563e+00 2.3193211416e+00 4.0171820563e+00 
4300 7.0020770453e+00 6.2469311409e-01 2.3058112646e+00 -3.9937822630e+00 2.3058112646e+00 3.9937822630e+00 
4400 6.9934702585e+00 6.2256008197e-01 2.2922785471e+00 -3.9703429087e+00 2.2922785471e+00 3.9703429087e+00 
4500 6.9847951559e+00 6.2089338877e-01 2.2787125312e+00 -3.9468458799e+00 2.2787125312e+00 3.9468458799e+00 
4600 6.9760095942e+00 6.1968828219e-01 2.2651024121e+00 -3.9232724621e+00 2.2651024121e+00 3.9232724621e+00 
4700 6.9670678879e+00 6.1892840259e-01 2.2514372292e+00 -3.8996036711e+00 2.2514372292e+00 3.8996036711e+00 
4800 6.9579211270e+00 6.1858334292e-01 2.2377061165e+00 -3.8758206861e+00 2.2377061165e+00 3.8758206861e+00 
4900 6.9485176932e+00 6.1860624667e-01 2.2238986157e+00 -3.8519053933e+00 2.2238986157e+00 3.8519053933e+00 
5000 6.9388040366e+00 6.1893162400e-01 2.2100050551e+00 -3.8278410405e+00 2.2100050551e+00 3.8278410405e+00 
5100 6.9287257754e+00 6.1947366626e-01 2.1960169910e+00 -3.8036130027e+00 2.1960169910e+00 3.8036130027e+00 
5200 6.9182291796e+00 6.2012543685e-01 2.1819277043e+00 -3.7792096422e+00 2.1819277043e+00 3.7792096422e+00 
5300 6.9072630704e+00 6.2075938831e-01 2.1677327358e+00 -3.7546232356e+00 2.1677327358e+00 3.7546232356e+00 
5400 6.8957811317e+00 6.2122966165e-01 2.1534304311e+00 -3.7298509173e+00 2.1534304311e+00 3.7298509173e+00 
5500 6.8837445624e+00 6.2137652059e-01 2.1390224555e+00 -3.7048955714e+00 2.1390224555e+00 3.7048955714e+00 
5600 6.8711249147e+00 6.2103302063e-01 2.1245142281e+00 -3.6797665844e+00 2.1245142281e+00 3.6797665844e+00 
5700 6.8579068751e+00 6.2003360797e-01 2.1099152199e+00 -3.6544803606e+00 2.1099152199e+00 3.6544803606e+00 
5800 6.8440906707e+00 6.1822384410e-01 2.0952390635e+00 -3.6290605119e+00 2.0952390635e+00 3.6290605119e+00 
5900 6.8296937566e+00 6.1546999400e-01 2.0805034373e+00 -3.6035376586e+00 2.0805034373e+00 3.6035376586e+00 
6000 6.8147514923e+00 6.1166698271e-01 2.0657297175e+00 -3.5779488255e+00 2.0657297175e+00 3.5779488255e+00 
6100 6.7993166407e+00 6.0674337250e-01 2.0509424230e+00 -3.5523364801e+00 2.0509424230e+00 3.5523364801e+00 
6200 6.7834577183e+00 6.0066257685e-01 2.0361685136e+00 -3.5267473184e+00 2.0361685136e+00 3.5267473184e+00 
6300 6.7672564196e+00 5.9342036189e-01 2.0214366264e+00 -3.5012309412e+00 2.0214366264e+00 3.5012309412e+00 
6400 6.7508044855e+00 5.8503950767e-01 2.0067763363e+00 -3.4758385739e+00 2.0067763363e+00 3.4758385739e+00 
6500 6.7342004318e+00 5.7556301960e-01 1.9922175122e+00 -3.4506219509e+00 1.9922175122e+00 3.4506219509e+00 
6600 6.7175464973e+00 5.6504734194e-01 1.9777898108e+00 -3.4256324391e+00 1.9777898108e+00 3.4256324391e+00 
6700 6.7009460421e+00 5.5355667941e-01 1.9635223137e+00 -3.4009204091e+00 1.9635223137e+00 3.4009204091e+00 
6800 6.6845014804e+00 5.4115897964e-01 1.9494432894e+00 -3.3765348237e+00 1.9494432894e+00 3.3765348237e+00 
6900 6.6683127128e+00 5.2792359632e-01 1.9355800440e+00 -3.3525229784e+00 1.9355800440e+00 3.3525229784e+00 
7000 6.6524759543e+00 5.1392029361e-01 1.9219588229e+00 -3.3289303313e+00 1.9219588229e+00 3.3289303313e+00 
7100 6.6370828352e+00 4.9921910748e-01 1.9086047311e+00 -3.3058003658e+00 1.9086047311e+00 3.3058003658e+00 
7200 6.6222196713e+00 4.8389060475e-01 1.8955416530e+00 -3.2831744509e+00 1.8955416530e+00 3.2831744509e+00 
7300 6.6079668333e+00 4.6800619728e-01 1.8827921609e+00 -3.2610916827e+00 1.8827921609e+00 3.2610916827e+00 
7400 6.5943981778e+00 4.5163830658e-01 1.8703774108e+00 -3.2395887048e+00 1.8703774108e+00 3.2395887048e+00 
7500 6.5815805321e+00 4.3486029180e-01 1.8583170305e+00 -3.2186995133e+00 1.8583170305e+00 3.2186995133e+00 
7600 6.5695732392e+00 4.1774613402e-01 1.8466290067e+00 -3.1984552623e+00 1.8466290067e+00 3.1984552623e+00 
7700 6.5584277783e+00 4.0036991578e-01 1.8353295784e+00 -3.1788840784e+00 1.8353295784e+00 3.1788840784e+00 
7800 6.5481874762e+00 3.8280515381e-01 1.8244331436e+00 -3.1600108997e+00 1.8244331436e+00 3.1600108997e+00 
7900 6.5388873228e+00 3.6512404684e-01 1.8139521852e+00 -3.1418573473e+00 1.8139521852e+00 3.1418573473e+00 
8000 6.5305538980e+00 3.4739669500e-01 1.8038972198e+00 -3.1244416363e+00 1.8038972198e+00 3.1244416363e+00 
8100 6.5232054118e+00 3.2969033871e-01 1.7942767722e+00 -3.1077785323e+00 1.7942767722e+00 3.1077785323e+00 
8200 6.5168518545e+00 3.1206865504e-01 1.7850973763e+00 -3.0918793521e+00 1.7850973763e+00 3.0918793521e+00 
8300 6.5114952500e+00 2.9459114014e-01 1.7763636028e+00 -3.0767520128e+00 1.7763636028e+00 3.0767520128e+00 
8400 6.5071299998e+00 2.7731259716e-01 1.7680781123e+00 -3.0624011222e+00 1.7680781123e+00 3.0624011222e+00 
8500 6.5037433056e+00 2.6028274156e-01 1.7602417310e+00 -3.0488281117e+00 1.7602417310e+00 3.0488281117e+00 
8600 6.5013156556e+00 2.4354592845e-01 1.7528535478e+00 -3.0360314031e+00 1.7528535478e+00 3.0360314031e+00 
8700 6.4998213596e+00 2.2714100095e-01 1.7459110279e+00 -3.0240066059e+00 1.7459110279e+00 3.0240066059e+00 
8800 6.4992291189e+00 2.1110125384e-01 1.7394101403e+00 -3.0127467383e+00 1.7394101403e+00 3.0127467383e+00 
8900 6.4995026170e+00 1.9545450294e-01 1.7333454959e+00 -3.0022424660e+00 1.7333454959e+00 3.0022424660e+00 
9000 6.5006011199e+00 1.8022324808e-01 1.7277104913e+00 -2.9924823516e+00 1.7277104913e+00 2.9924823516e+00 
9100 6.5024800754e+00 1.6542491587e-01 1.7224974565e+00 -2.9834531106e+00 1.7224974565e+00 2.9834531106e+00 
9200 6.5050917025e+00 1.5107216752e-01 1.7176978024e+00 -2.9751398658e+00 1.7176978024e+00 2.9751398658e+00 
9300 6.5083855646e+00 1.3717325687e-01 1.7133021648e+00 -2.9675263981e+00 1.7133021648e+00 2.9675263981e+00 
9400 6.5123091199e+00 1.2373242440e-01 1.7093005439e+00 -2.9605953875e+00 1.7093005439e+00 2.9605953875e+00 
9500 6.5168082470e+00 1.1075031379e-01 1.7056824363e+00 -2.9543286413e+00 1.7056824363e+00 2.9543286413e+00 
9600 6.5218277406e+00 9.8224399014e-02 1.7024369578e+00 -2.9487073076e+00 1.7024369578e+00 2.9487073076e+00 
9700 6.5273117779e+00 8.6149411447e-02 1.6995529564e+00 -2.9437120707e+00 1.6995529564e+00 2.9437120707e+00 
9800 6.5332043530e+00 7.4517757954e-02 1.6970191146e+00 -2.9393233279e+00 1.6970191146e+00 2.9393233279e+00 
9900 6.5394496792e+00 6.3319922782e-02 1.6948240400e+00 -2.9355213473e+00 1.6948240400e+00 2.9355213473e+00 
10000 6.5459925609e+00 5.2544847463e-02 1.6929563453e+00 -2.9322864051e+00 1.6929563453e+00 2.9322864051e+00 
10100 6.5527787330e+00 4.2180284506e-02 1.6914047161e+00 -2.9295989044e+00 1.6914047161e+00 2.9295989044e+00 
10200 6.5597551707e+00 3.2213121952e-02 1.6901579684e+00 -2.9274394740e+00 1.6901579684e+00 2.9274394740e+00 
10300 6.5668703694e+00 2.2629677044e-02 1.6892050961e+00 -2.9257890509e+00 1.6892050961e+00 2.9257890509e+00 
10400 6.5740745953e+00 1.3415958250e-02 1.6885353083e+00 -2.9246289443e+00 1.6885353083e+00 2.9246289443e+00 
10500 6.5813201082e+00 4.5578957102e-03 1.6881380577e+00 -2.9239408861e+00 1.6881380577e+00 2.9239408861e+00 
10600 6.5885613577e+00 -3.9584591808e-03 1.6880030618e+00 -2.9237070663e+00 1.6880030618e+00 2.9237070663e+00 
10700 6.5957551521e+00 -1.2146763811e-02 1.6881203159e+00 -2.9239101564e+00 1.6881203159e+00 2.9239101564e+00 
10800 6.6028608027e+00 -2.0020242403e-02 1.6884801005e+00 -2.9245333216e+00 1.6884801005e+00 2.9245333216e+00 
10900 6.6098402432e+00 -2.7591570215e-02 1.6890729832e+00 -2.9255602246e+00 1.6890729832e+00 2.9255602246e+00 
11000 6.6166581256e+00 -3.4872781850e-02 1.6898898157e+00 -2.9269750200e+00 1.6898898157e+00 2.9269750200e+00 
11100 6.6232818933e+00 -4.1875201558e-02 1.6909217270e+00 -2.9287623428e+00 1.6909217270e+00 2.9287623428e+00 
11200 6.6296818320e+00 -4.8609393404e-02 1.6921601140e+00 -2.9309072919e+00 1.6921601140e+00 2.9309072919e+00 
11300 6.6358311009e+00 -5.5085129185e-02 1.6935966289e+00 -2.9333954087e+00 1.6935966289e+00 2.9333954087e+00 
11400 6.6417057422e+00 -6.1311372069e-02 1.6952231654e+00 -2.9362126527e+00 1.6952231654e+00 2.9362126527e+00 
11500 6.6472846739e+00 -6.7296274004e-02 1.6970318435e+00 -2.9393453751e+00 1.6970318435e+00 2.9393453751e+00 
11600 6.6525496627e+00 -7.3047185069e-02 1.6990149932e+00 -2.9427802911e+00 1.6990149932e+00 2.9427802911e+00 
11700 6.6574852825e+00 -7.8570673058e-02 1.7011651382e+00 -2.9465044514e+00 1.7011651382e+00 2.9465044514e+00 
11800 6.6620788558e+00 -8.3872551698e-02 1.7034749793e+00 -2.9505052136e+00 1.7034749793e+00 2.9505052136e+00 
11900 6.6663203820e+00 -8.8957916062e-02 1.7059373790e+00 -2.9547702149e+00 1.7059373790e+00 2.9547702149e+00 
12000 6.6702024524e+00 -9.3831183821e-02 1.7085453452e+00 -2.9592873450e+00 1.7085453452e+00 2.9592873450e+00 
12100 6.6737201536e+00 -9.8496141132e-02 1.7112920173e+00 -2.9640447206e+00 1.7112920173e+00 2.9640447206e+00 
12200 6.6768709609e+00 -1.0295599205e-01 1.7141706523e+00 -2.9690306627e+00 1.7141706523e+00 2.9690306627e+00 
12300 6.6796546228e+00 -1.0721341048e-01 1.7171746123e+00 -2.9742336740e+00 1.7171746123e+00 2.9742336740e+00 
12400 6.6820730372e+00 -1.1127059374e-01 1.7202973535e+00 -2.9796424203e+00 1.7202973535e+00 2.9796424203e+00 
12500 6.6841301217e+00 -1.1512931700e-01 1.7235324161e+00 -2.9852457131e+00 1.7235324161e+00 2.9852457131e+00 
12600 6.6858316794e+00 -1.1879098774e-01 1.7268734158e+00 -2.9910324945e+00 1.7268734158e+00 2.9910324945e+00 
12700 6.6871852593e+00 -1.2225669979e-01 1.7303140370e+00 -2.9969918251e+00 1.7303140370e+00 2.9969918251e+00 
12800 6.6882000157e+00 -1.2552728622e-01 1.7338480260e+00 -3.0031128736e+00 1.7338480260e+00 3.0031128736e+00 
12900 6.6888865649e+00 -1.2860337058e-01 1.7374691875e+00 -3.0093849093e+00 1.7374691875e+00 3.0093849093e+00 
13000 6.6892568422e+00 -1.3148541627e-01 1.7411713806e+00 -3.0157972959e+00 1.7411713806e+00 3.0157972959e+00 
13100 6.6893239588e+00 -1.3417377341e-01 1.7449485170e+00 -3.0223394880e+00 1.7449485170e+00 3.0223394880e+00 
13200 6.6891020608e+00 -1.3666872303e-01 1.7487945598e+00 -3.0290010296e+00 1.7487945598e+00 3.0290010296e+00 
13300 6.6886061905e+00 -1.3897051838e-01 1.7527035240e+00 -3.0357715541e+00 1.7527035240e+00 3.0357715541e+00 
13400 6.6878521504e+00 -1.4107942300e-01 1.7566694768e+00 -3.0426407859e+00 1.7566694768e+00 3.0426407859e+00 
13500 6.6868563719e+00 -1.4299574558e-01 1.7606865401e+00 -3.0495985436e+00 1.7606865401e+00 3.0495985436e+00 
13600 6.6856357878e+00 -1.4471987133e-01 1.7647488925e+00 -3.0566347445e+00 1.7647488925e+00 3.0566347445e+00 
13700 6.6842077103e+00 -1.4625228995e-01 1.7688507731e+00 -3.0637394100e+00 1.7688507731e+00 3.0637394100e+00 
13800 6.6825897145e+00 -1.4759362004e-01 1.7729864845e+00 -3.0709026723e+00 1.7729864845e+00 3.0709026723e+00 
13900 6.6807995276e+00 -1.4874463014e-01 1.7771503976e+00 -3.0781147814e+00 1.7771503976e+00 3.0781147814e+00 
14000 6.6788549250e+00 -1.4970625621e-01 1.7813369558e+00 -3.0853661129e+00 1.7813369558e+00 3.0853661129e+00 
14100 6.6767736316e+00 -1.5047961592e-01 1.7855406798e+00 -3.0926471763e+00 1.7855406798e+00 3.0926471763e+00 
14200 6.6745732314e+00 -1.5106601967e-01 1.7897561722e+00 -3.0999486234e+00 1.7897561722e+00 3.0999486234e+00 
14300 6.6722710824e+00 -1.5146697848e-01 1.7939781230e+00 -3.1072612567e+00 1.7939781230e+00 3.1072612567e+00 
14400 6.6698842391e+00 -1.5168420909e-01 1.7982013139e+00 -3.1145760380e+00 1.7982013139e+00 3.1145760380e+00 
14500 6.6674293811e+00 -1.5171963626e-01 1.8024206237e+00 -3.1218840968e+00 1.8024206237e+00 3.1218840968e+00 
14600 6.6649227494e+00 -1.5157539259e-01 1.8066310322e+00 -3.1291767383e+00 1.8066310322e+00 3.1291767383e+00 
14700 6.6623800878e+00 -1.5125381601e-01 1.8108276256e+00 -3.1364454513e+00 1.8108276256e+00 3.1364454513e+00 
14800 6.6598165918e+00 -1.5075744526e-01 1.8150055998e+00 -3.1436819149e+00 1.8150055998e+00 3.1436819149e+00 
14900 6.6572468628e+00 -1.5008901344e-01 1.8191602649e+00 -3.1508780059e+00 1.8191602649e+00 3.1508780059e+00 
15000 6.6546848692e+00 -1.4925144001e-01 1.8232870483e+00 -3.1580258045e+00 1.8232870483e+00 3.1580258045e+00 
15100 6.6521439122e+00 -1.4824782144e-01 1.8273814984e+00 -3.1651176000e+00 1.8273814984e+00 3.1651176000e+00 
15200 6.6496365972e+00 -1.4708142063e-01 1.8314392867e+00 -3.1721458955e+00 1.8314392867e+00 3.1721458955e+00 
15300 6.6471748106e+00 -1.4575565553e-01 1.8354562107e+00 -3.1791034120e+00 1.8354562107e+00 3.1791034120e+00 
15400 6.6447697012e+00 -1.4427408697e-01 1.8394281958e+00 -3.1859830920e+00 1.8394281958e+00 3.1859830920e+00 
15500 6.6424316658e+00 -1.4264040609e-01 1.8433512966e+00 -3.1927781018e+00 1.8433512966e+00 3.1927781018e+00 
15600 6.6401703395e+00 -1.4085842144e-01 1.8472216983e+00 -3.1994818342e+00 1.8472216983e+00 3.1994818342e+00 
15700 6.6379945889e+00 -1.3893204603e-01 1.8510357174e+00 -3.2060879091e+00 1.8510357174e+00 3.2060879091e+00 
15800 6.6359125101e+00 -1.3686528443e-01 1.8547898021e+00 -3.2125901745e+00 1.8547898021e+00 3.2125901745e+00 
15900 6.6339314288e+00 -1.3466222015e-01 1.8584805321e+00 -3.2189827065e+00 1.8584805321e+00 3.2189827065e+00 
16000 6.6320579042e+00 -1.3232700340e-01 1.8621046187e+00 -3.2252598086e+00 1.8621046187e+00 3.2252598086e+00 
16100 6.6302977350e+00 -1.2986383937e-01 1.8656589036e+00 -3.2314160106e+00 1.8656589036e+00 3.2314160106e+00 
16200 6.6286559679e+00 -1.2727697719e-01 1.8691403583e+00 -3.2374460671e+00 1.8691403583e+00 3.2374460671e+00 
16300 6.6271369089e+00 -1.2457069957e-01 1.8725460829e+00 -3.2433449552e+00 1.8725460829e+00 3.2433449552e+00 
16400 6.6257441361e+00 -1.2174931334e-01 1.8758733045e+00 -3.2491078720e+00 1.8758733045e+00 3.2491078720e+00 
16500 6.6244805137e+00 -1.1881714082e-01 1.8791193754e+00 -3.2547302317e+00 1.8791193754e+00 3.2547302317e+00 
16600 6.6233482093e+00 -1.1577851222e-01 1.8822817717e+00 -3.2602076627e+00 1.8822817717e+00 3.2602076627e+00 
16700 6.6223487105e+00 -1.1263775897e-01 1.8853580908e+00 -3.2655360038e+00 1.8853580908e+00 3.2655360038e+00 
16800 6.6214828446e+00 -1.0939920814e-01 1.8883460499e+00 -3.2707113007e+00 1.8883460499e+00 3.2707113007e+00 
16900 6.6207507983e+00 -1.0606717787e-01 1.8912434832e+00 -3.2757298024e+00 1.8912434832e+00 3.2757298024e+00 
17000 6.6201521388e+00 -1.0264597388e-01 1.8940483402e+00 -3.2805879572e+00 1.8940483402e+00 3.2805879572e+00 
17100 6.6196858360e+00 -9.9139887001e-02 1.8967586832e+00 -3.2852824090e+00 1.8967586832e+00 3.2852824090e+00 
17200 6.6193502853e+00 -9.5553191778e-02 1.8993726853e+00 -3.2898099934e+00 1.8993726853e+00 3.2898099934e+00 
17300 6.6191433309e+00 -9.1890146047e-02 1.9018886279e+00 -3.2941677339e+00 1.9018886279e+00 3.2941677339e+00 
17400 6.6190622908e+00 -8.8154991515e-02 1.9043048991e+00 -3.2983528384e+00 1.9043048991e+00 3.2983528384e+00 
17500 6.6191039812e+00 -8.4351955269e-02 1.9066199913e+00 -3.3023626957e+00 1.9066199913e+00 3.3023626957e+00 
17600 6.6192647420e+00 -8.0485252164e-02 1.9088324995e+00 -3.3061948723e+00 1.9088324995e+00 3.3061948723e+00 
17700 6.6195404638e+00 -7.6559088053e-02 1.9109411196e+00 -3.3098471094e+00 1.9109411196e+00 3.3098471094e+00 
17800 6.6199266135e+00 -7.2577663770e-02 1.9129446468e+00 -3.3133173203e+00 1.9129446468e+00 3.3133173203e+00 
17900 6.6204182624e+00 -6.8545179820e-02 1.9148419742e+00 -3.3166035878e+00 1.9148419742e+00 3.3166035878e+00 
18000 6.6210101137e+00 -6.4465841685e-02 1.9166320919e+00 -3.3197041626e+00 1.9166320919e+00 3.3197041626e+00 
18100 6.6216965306e+00 -6.0343865666e-02 1.9183140856e+00 -3.3226174611e+00 1.9183140856e+00 3.3226174611e+00 
18200 6.6224715653e+00 -5.6183485186e-02 1.9198871362e+00 -3.3253420647e+00 1.9198871362e+00 3.3253420647e+00 
18300 6.6233289883e+00 -5.1988957439e-02 1.9213505195e+00 -3.3278767190e+00 1.9213505195e+00 3.3278767190e+00 
18400 6.6242623180e+00 -4.7764570315e-02 1.9227036057e+00 -3.3302203329e+00 1.9227036057e+00 3.3302203329e+00 
18500 6.6252648510e+00 -4.3514649478e-02 1.9239458593e+00 -3.3323719793e+00 1.9239458593e+00 3.3323719793e+00 
18600 6.6263296928e+00 -3.9243565496e-02 1.9250768399e+00 -3.3343308952e+00 1.9250768399e+00 3.3343308952e+00 
18700 6.6274497886e+00 -3.4955740924e-02 1.9260962025e+00 -3.3360964830e+00 1.9260962025e+00 3.3360964830e+00 
18800 6.6286179552e+00 -3.0655657207e-02 1.9270036983e+00 -3.3376683118e+00 1.9270036983e+00 3.3376683118e+00 
18900 6.6298269126e+00 -2.6347861303e-02 1.9277991759e+00 -3.3390461194e+00 1.9277991759e+00 3.3390461194e+00 
19000 6.6310693163e+00 -2.2036971898e-02 1.9284825826e+00 -3.3402298146e+00 1.9284825826e+00 3.3402298146e+00 
19100 6.6323377893e+00 -1.7727685087e-02 1.9290539660e+00 -3.3412194797e+00 1.9290539660e+00 3.3412194797e+00 
19200 6.6336249555e+00 -1.3424779405e-02 1.9295134759e+00 -3.3420153742e+00 1.9295134759e+00 3.3420153742e+00 
19300 6.6349234718e+00 -9.1331200855e-03 1.9298613663e+00 -3.3426179380e+00 1.9298613663e+00 3.3426179380e+00 
19400 6.6362260612e+00 -4.8576624127e-03 1.9300979975e+00 -3.3430277952e+00 1.9300979975e+00 3.3430277952e+00 
19500 6.6375255456e+00 -6.0345405346e-04 1.9302238386e+00 -3.3432457585e+00 1.9302238386e+00 3.3432457585e+00 
19600 6.6388148784e+00 3.6243637508e-03 1.9302394704e+00 -3.3432728334e+00 1.9302394704e+00 3.3432728334e+00 
19700 6.6400871769e+00 7.8205562496e-03 1.9301455873e+00 -3.3431102233e+00 1.9301455873e+00 3.3431102233e+00 
19800 6.6413357540e+00 1.1979796614e-02 1.9299430011e+00 -3.3427593336e+00 1.9299430011e+00 3.3427593336e+00 
19900 6.6425541499e+00 1.6096668832e-02 1.9296326428e+00 -3.3422217773e+00 1.9296326428e+00 3.3422217773e+00 
20000 6.6437361629e+00 2.0165672167e-02 1.9292155663e+00 -3.3414993796e+00 1.9292155663e+00 3.3414993796e+00 
20100 6.6448758787e+00 2.4181227252e-02 1.9286929507e+00 -3.3405941829e+00 1.9286929507e+00 3.3405941829e+00 
20200 6.6459677000e+00 2.8137683893e-02 1.9280661035e+00 -3.3395084516e+00 1.9280661035e+00 3.3395084516e+00 
20300 6.6470063732e+00 3.2029330631e-02 1.9273364628e+00 -3.3382446769e+00 1.9273364628e+00 3.3382446769e+00 
20400 6.6479870155e+00 3.5850406105e-02 1.9265056004e+00 -3.3368055810e+00 1.9265056004e+00 3.3368055810e+00 
20500 6.6489051386e+00 3.9595112224e-02 1.9255752237e+00 -3.3351941213e+00 1.9255752237e+00 3.3351941213e+00 
20600 6.6497566719e+00 4.3257629142e-02 1.9245471780e+00 -3.3334134939e+00 1.9245471780e+00 3.3334134939e+00 
20700 6.6505379834e+00 4.6832132027e-02 1.9234234483e+00 -3.3314671369e+00 1.9234234483e+00 3.3314671369e+00 
20800 6.6512458977e+00 5.0312809551e-02 1.9222061608e+00 -3.3293587331e+00 1.9222061608e+00 3.3293587331e+00 
20900 6.6518777125e+00 5.3693884038e-02 1.9208975837e+00 -3.3270922112e+00 1.9208975837e+00 3.3270922112e+00 
21000 6.6524312121e+00 5.6969633167e-02 1.9195001285e+00 -3.3246717477e+00 1.9195001285e+00 3.3246717477e+00 
21100 6.6529046782e+00 6.0134413099e-02 1.9180163493e+00 -3.3221017667e+00 1.9180163493e+00 3.3221017667e+00 
21200 6.6532968976e+00 6.3182682875e-02 1.9164489431e+00 -3.3193869395e+00 1.9164489431e+00 3.3193869395e+00 
21300 6.6536071669e+00 6.6109029909e-02 1.9148007484e+00 -3.3165321827e+00 1.9148007484e+00 3.3165321827e+00 
21400 6.6538352945e+00 6.8908196364e-02 1.9130747441e+00 -3.3135426555e+00 1.9130747441e+00 3.3135426555e+00 
21500 6.6539815985e+00 7.1575106182e-02 1.9112740467e+00 -3.3104237561e+00 1.9112740467e+00 3.3104237561e+00 
21600 6.6540469015e+00 7.4104892531e-02 1.9094019079e+00 -3.3071811165e+00 1.9094019079e+00 3.3071811165e+00 
21700 6.6540325226e+00 7.6492925384e-02 1.9074617106e+00 -3.3038205962e+00 1.9074617106e+00 3.3038205962e+00 
21800 6.6539402648e+00 7.8734838957e-02 1.9054569650e+00 -3.3003482750e+00 1.9054569650e+00 3.3003482750e+00 
21900 6.6537723999e+00 8.0826558703e-02 1.9033913031e+00 -3.2967704437e+00 1.9033913031e+00 3.2967704437e+00 
22000 6.6535316498e+00 8.2764327568e-02 1.9012684733e+00 -3.2930935947e+00 1.9012684733e+00 3.2930935947e+00 
22100 6.6532211641e+00 8.4544731193e-02 1.8990923336e+00 -3.2893244100e+00 1.8990923336e+00 3.2893244100e+00 
22200 6.6528444954e+00 8.6164721758e-02 1.8968668442e+00 -3.2854697494e+00 1.8968668442e+00 3.2854697494e+00 
22300 6.6524055703e+00 8.7621640179e-02 1.8945960600e+00 -3.2815366357e+00 1.8945960600e+00 3.2815366357e+00 
22400 6.6519086592e+00 8.8913236356e-02 1.8922841214e+00 -3.2775322407e+00 1.8922841214e+00 3.2775322407e+00 
22500 6.6513583420e+00 9.0037687219e-02 1.8899352454e+00 -3.2734638681e+00 1.8899352454e+00 3.2734638681e+00 
22600 6.6507594726e+00 9.0993612303e-02 1.8875537154e+00 -3.2693389371e+00 1.8875537154e+00 3.2693389371e+00 
22700 6.6501171407e+00 9.1780086658e-02 1.8851438708e+00 -3.2651649639e+00 1.8851438708e+00 3.2651649639e+00 
22800 6.6494366325e+00 9.2396650874e-02 1.8827100962e+00 -3.2609495425e+00 1.8827100962e+00 3.2609495425e+00 
22900 6.6487233896e+00 9.2843318088e-02 1.8802568094e+00 -3.2567003252e+00 1.8802568094e+00 3.2567003252e+00 
23000 6.6479829669e+00 9.3120577842e-02 1.8777884505e+00 -3.2524250022e+00 1.8777884505e+00 3.2524250022e+00 
23100 6.6472209907e+00 9.3229396720e-02 1.8753094690e+00 -3.2481312802e+00 1.8753094690e+00 3.2481312802e+00 
23200 6.6464431153e+00 9.3171215726e-02 1.8728243119e+00 -3.2438268618e+00 1.8728243119e+00 3.2438268618e+00 
23300 6.6456549812e+00 9.2947944419e-02 1.8703374111e+00 -3.2395194234e+00 1.8703374111e+00 3.2395194234e+00 
23400 6.6448621729e+00 9.2561951838e-02 1.8678531712e+00 -3.2352165937e+00 1.8678531712e+00 3.2352165937e+00 
23500 6.6440701784e+00 9.2016054339e-02 1.8653759567e+00 -3.2309259322e+00 1.8653759567e+00 3.2309259322e+00 
23600 6.6432843492e+00 9.1313500446e-02 1.8629100798e+00 -3.2266549081e+00 1.8629100798e+00 3.2266549081e+00 
23700 6.6425098633e+00 9.0457952918e-02 1.8604597884e+00 -3.2224108789e+00 1.8604597884e+00 3.2224108789e+00 
23800 6.6417516892e+00 8.9453468221e-02 1.8580292541e+00 -3.2182010700e+00 1.8580292541e+00 3.2182010700e+00 
23900 6.6410145526e+00 8.8304473655e-02 1.8556225609e+00 -3.2140325551e+00 1.8556225609e+00 3.2140325551e+00 
24000 6.6403029062e+00 8.7015742388e-02 1.8532436941e+00 -3.2099122369e+00 1.8532436941e+00 3.2099122369e+00 
24100 6.6396209021e+00 8.5592366706e-02 1.8508965298e+00 -3.2058468292e+00 1.8508965298e+00 3.2058468292e+00 
24200 6.6389723672e+00 8.4039729756e-02 1.8485848251e+00 -3.2018428392e+00 1.8485848251e+00 3.2018428392e+00 
24300 6.6383607820e+00 8.2363476121e-02 1.8463122087e+00 -3.1979065520e+00 1.8463122087e+00 3.1979065520e+00 
24400 6.6377892635e+00 8.0569481527e-02 1.8440821722e+00 -3.1940440155e+00 1.8440821722e+00 3.1940440155e+00 
24500 6.6372605504e+00 7.8663822011e-02 1.8418980624e+00 -3.1902610265e+00 1.8418980624e+00 3.1902610265e+00 
24600 6.6367769930e+00 7.6652742870e-02 1.8397630745e+00 -3.1865631189e+00 1.8397630745e+00 3.1865631189e+00 
24700 6.6363405462e+00 7.4542627671e-02 1.8376802448e+00 -3.1829555521e+00 1.8376802448e+00 3.1829555521e+00 
24800 6.6359527659e+00 7.2339967646e-02 1.8356524465e+00 -3.1794433023e+00 1.8356524465e+00 3.1794433023e+00 
24900 6.6356148094e+00 7.0051331703e-02 1.8336823837e+00 -3.1760310534e+00 1.8336823837e+00 3.1760310534e+00 
25000 6.6353274388e+00 6.7683337339e-02 1.8317725884e+00 -3.1727231911e+00 1.8317725884e+00 3.1727231911e+00 
25100 6.6350910274e+00 6.5242622641e-02 1.8299254173e+00 -3.1695237969e+00 1.8299254173e+00 3.1695237969e+00 
25200 6.6349055699e+00 6.2735819607e-02 1.8281430491e+00 -3.1664366445e+00 1.8281430491e+00 3.1664366445e+00 
25300 6.6347706945e+00 6.0169528919e-02 1.8264274832e+00 -3.1634651972e+00 1.8264274832e+00 3.1634651972e+00 
25400 6.6346856786e+00 5.7550296335e-02 1.8247805392e+00 -3.1606126065e+00 1.8247805392e+00 3.1606126065e+00 
25500 6.6346494659e+00 5.4884590793e-02 1.8232038564e+00 -3.1578817118e+00 1.8232038564e+00 3.1578817118e+00 
25600 6.6346606867e+00 5.2178784307e-02 1.8216988949e+00 -3.1552750420e+00 1.8216988949e+00 3.1552750420e+00 
25700 6.6347176789e+00 4.9439133713e-02 1.8202669364e+00 -3.1527948173e+00 1.8202669364e+00 3.1527948173e+00 
25800 6.6348185115e+00 4.6671764284e-02 1.8189090866e+00 -3.1504429524e+00 1.8189090866e+00 3.1504429524e+00 
25900 6.6349610090e+00 4.3882655214e-02 1.8176262772e+00 -3.1482210613e+00 1.8176262772e+00 3.1482210613e+00 
26000 6.6351427769e+00 4.1077626949e-02 1.8164192691e+00 -3.1461304619e+00 1.8164192691e+00 3.1461304619e+00 
26100 6.6353612277e+00 3.8262330320e-02 1.8152886556e+00 -3.1441721819e+00 1.8152886556e+00 3.1441721819e+00 
26200 6.6356136081e+00 3.5442237418e-02 1.8142348666e+00 -3.1423469657e+00 1.8142348666e+00 3.1423469657e+00 
26300 6.6358970252e+00 3.2622634127e-02 1.8132581723e+00 -3.1406552817e+00 1.8132581723e+00 3.1406552817e+00 
26400 6.6362084743e+00 2.9808614235e-02 1.8123586883e+00 -3.1390973296e+00 1.8123586883e+00 3.1390973296e+00 
26500 6.6365448648e+00 2.7005075009e-02 1.8115363798e+00 -3.1376730495e+00 1.8115363798e+00 3.1376730495e+00 
26600 6.6369030466e+00 2.4216714138e-02 1.8107910670e+00 -3.1363821300e+00 1.8107910670e+00 3.1363821300e+00 
26700 6.6372798355e+00 2.1448027922e-02 1.8101224305e+00 -3.1352240175e+00 1.8101224305e+00 3.1352240175e+00 
26800 6.6376720383e+00 1.8703310598e-02 1.8095300159e+00 -3.1341979254e+00 1.8095300159e+00 3.1341979254e+00 
26900 6.6380764756e+00 1.5986654672e-02 1.8090132403e+00 -3.1333028437e+00 1.8090132403e+00 3.1333028437e+00 
27000 6.6384900046e+00 1.3301952154e-02 1.8085713971e+00 -3.1325375489e+00 1.8085713971e+00 3.1325375489e+00 
27100 6.6389095405e+00 1.0652896579e-02 1.8082036621e+00 -3.1319006131e+00 1.8082036621e+00 3.1319006131e+00 
27200 6.6393320754e+00 8.0429856907e-03 1.8079090988e+00 -3.1313904146e+00 1.8079090988e+00 3.1313904146e+00 
27300 6.6397546975e+00 5.4755247038e-03 1.8076866645e+00 -3.1310051470e+00 1.8076866645e+00 3.1310051470e+00 
27400 6.6401746068e+00 2.9536300252e-03 1.8075352154e+00 -3.1307428296e+00 1.8075352154e+00 3.1307428296e+00 
27500 6.6405891308e+00 4.8023335591e-04 1.8074535128e+00 -3.1306013165e+00 1.8074535128e+00 3.1306013165e+00 
27600 6.6409957373e+00 -1.9419139195e-03 1.8074402280e+00 -3.1305783066e+00 1.8074402280e+00 3.1305783066e+00 
27700 6.6413920466e+00 -4.3102361298e-03 1.8074939483e+00 -3.1306713528e+00 1.8074939483e+00 3.1306713528e+00 
27800 6.6417758415e+00 -6.6223285716e-03 1.8076131820e+00 -3.1308778716e+00 1.8076131820e+00 3.1308778716e+00 
27900 6.6421450750e+00 -8.8759526819e-03 1.8077963639e+00 -3.1311951520e+00 1.8077963639e+00 3.1311951520e+00 
28000 6.6424978781e+00 -1.1069031184e-02 1.8080418604e+00 -3.1316203644e+00 1.8080418604e+00 3.1316203644e+00 
28100 6.6428325640e+00 -1.3199643254e-02 1.8083479745e+00 -3.1321505696e+00 1.8083479745e+00 3.1321505696e+00 
28200 6.6431476322e+00 -1.5266019739e-02 1.8087129509e+00 -3.1327827273e+00 1.8087129509e+00 3.1327827273e+00 
28300 6.6434417708e+00 -1.7266538479e-02 1.8091349807e+00 -3.1335137043e+00 1.8091349807e+00 3.1335137043e+00 
28400 6.6437138566e+00 -1.9199719726e-02 1.8096122059e+00 -3.1343402826e+00 1.8096122059e+00 3.1343402826e+00 
28500 6.6439629548e+00 -2.1064221721e-02 1.8101427245e+00 -3.1352591677e+00 1.8101427245e+00 3.1352591677e+00 
28600 6.6441883171e+00 -2.2858836401e-02 1.8107245943e+00 -3.1362669959e+00 1.8107245943e+00 3.1362669959e+00 
28700 6.6443893788e+00 -2.4582485283e-02 1.8113558379e+00 -3.1373603418e+00 1.8113558379e+00 3.1373603418e+00 
28800 6.6445657538e+00 -2.6234215499e-02 1.8120344461e+00 -3.1385357257e+00 1.8120344461e+00 3.1385357257e+00 
28900 6.6447172304e+00 -2.7813196012e-02 1.8127583827e+00 -3.1397896207e+00 1.8127583827e+00 3.1397896207e+00 
29000 6.6448437643e+00 -2.9318713983e-02 1.8135255880e+00 -3.1411184593e+00 1.8135255880e+00 3.1411184593e+00 
29100 6.6449454724e+00 -3.0750171313e-02 1.8143339828e+00 -3.1425186400e+00 1.8143339828e+00 3.1425186400e+00 
29200 6.6450226243e+00 -3.2107081325e-02 1.8151814718e+00 -3.1439865341e+00 1.8151814718e+00 3.1439865341e+00 
29300 6.6450756349e+00 -3.3389065603e-02 1.8160659478e+00 -3.1455184914e+00 1.8160659478e+00 3.1455184914e+00 
29400 6.6451050545e+00 -3.4595850957e-02 1.8169852944e+00 -3.1471108464e+00 1.8169852944e+00 3.1471108464e+00 
29500 6.6451115606e+00 -3.5727266523e-02 1.8179373899e+00 -3.1487599242e+00 1.8179373899e+00 3.1487599242e+00 
29600 6.6450959471e+00 -3.6783240966e-02 1.8189201103e+00 -3.1504620459e+00 1.8189201103e+00 3.1504620459e+00 
29700 6.6450591153e+00 -3.7763799790e-02 1.8199313324e+00 -3.1522135341e+00 1.8199313324e+00 3.1522135341e+00 
29800 6.6450020628e+00 -3.8669062739e-02 1.8209689371e+00 -3.1540107181e+00 1.8209689371e+00 3.1540107181e+00 
29900 6.6449258741e+00 -3.9499241269e-02 1.8220308119e+00 -3.1558499391e+00 1.8220308119e+00 3.1558499391e+00 
30000 6.6448317095e+00 -4.0254636095e-02 1.8231148538e+00 -3.1577275548e+00 1.8231148538e+00 3.1577275548e+00 
30100 6.6447207952e+00 -4.0935634790e-02 1.8242189723e+00 -3.1596399441e+00 1.8242189723e+00 3.1596399441e+00 
30200 6.6445944127e+00 -4.1542709427e-02 1.8253410916e+00 -3.1615835119e+00 1.8253410916e+00 3.1615835119e+00 
30300 6.6444538890e+00 -4.2076414262e-02 1.8264791535e+00 -3.1635546929e+00 1.8264791535e+00 3.1635546929e+00 
30400 6.6443005864e+00 -4.2537383448e-02 1.8276311194e+00 -3.1655499564e+00 1.8276311194e+00 3.1655499564e+00 
30500 6.6441358928e+00 -4.2926328759e-02 1.8287949729e+00 -3.1675658096e+00 1.8287949729e+00 3.1675658096e+00 
30600 6.6439612127e+00 -4.3244037343e-02 1.8299687216e+00 -3.1695988021e+00 1.8299687216e+00 3.1695988021e+00 
30700 6.6437779575e+00 -4.3491369471e-02 1.8311504000e+00 -3.1716455291e+00 1.8311504000e+00 3.1716455291e+00 
30800 6.6435875372e+00 -4.3669256301e-02 1.8323380705e+00 -3.1737026348e+00 1.8323380705e+00 3.1737026348e+00 
30900 6.6433913521e+00 -4.3778697630e-02 1.8335298262e+00 -3.1757668162e+00 1.8335298262e+00 3.1757668162e+00 
31000 6.6431907846e+00 -4.3820759662e-02 1.8347237922e+00 -3.1778348259e+00 1.8347237922e+00 3.1778348259e+00 
31100 6.6429871923e+00 -4.3796572750e-02 1.8359181276e+00 -3.1799034755e+00 1.8359181276e+00 3.1799034755e+00 
31200 6.6427819004e+00 -4.3707329150e-02 1.8371110269e+00 -3.1819696378e+00 1.8371110269e+00 3.1819696378e+00 
31300 6.6425761957e+00 -4.3554280762e-02 1.8383007221e+00 -3.1840302503e+00 1.8383007221e+00 3.1840302503e+00 
31400 6.6423713206e+00 -4.3338736858e-02 1.8394854836e+00 -3.1860823173e+00 1.8394854836e+00 3.1860823173e+00 
31500 6.6421684672e+00 -4.3062061820e-02 1.8406636217e+00 -3.1881229124e+00 1.8406636217e+00 3.1881229124e+00 
31600 6.6419687731e+00 -4.2725672855e-02 1.8418334883e+00 -3.1901491809e+00 1.8418334883e+00 3.1901491809e+00 
31700 6.6417733162e+00 -4.2331037718e-02 1.8429934780e+00 -3.1921583418e+00 1.8429934780e+00 3.1921583418e+00 
31800 6.6415831112e+00 -4.1879672429e-02 1.8441420287e+00 -3.1941476901e+00 1.8441420287e+00 3.1941476901e+00 
31900 6.6413991060e+00 -4.1373138988e-02 1.8452776237e+00 -3.1961145983e+00 1.8452776237e+00 3.1961145983e+00 
32000 6.6412221791e+00 -4.0813043093e-02 1.8463987917e+00 -3.1980565183e+00 1.8463987917e+00 3.1980565183e+00 
32100 6.6410531368e+00 -4.0201031856e-02 1.8475041085e+00 -3.1999709831e+00 1.8475041085e+00 3.1999709831e+00 
32200 6.6408927116e+00 -3.9538791533e-02 1.8485921974e+00 -3.2018556084e+00 1.8485921974e+00 3.2018556084e+00 
32300 6.6407415604e+00 -3.8828045250e-02 1.8496617303e+00 -3.2037080937e+00 1.8496617303e+00 3.2037080937e+00 
32400 6.6406002640e+00 -3.8070550741e-02 1.8507114280e+00 -3.2055262235e+00 1.8507114280e+00 3.2055262235e+00 
32500 6.6404693262e+00 -3.7268098100e-02 1.8517400615e+00 -3.2073078690e+00 1.8517400615e+00 3.2073078690e+00 
32600 6.6403491737e+00 -3.6422507536e-02 1.8527464520e+00 -3.2090509884e+00 1.8527464520e+00 3.2090509884e+00 
32700 6.6402401567e+00 -3.5535627142e-02 1.8537294717e+00 -3.2107536285e+00 1.8537294717e+00 3.2107536285e+00 
32800 6.6401425494e+00 -3.4609330681e-02 1.8546880444e+00 -3.2124139251e+00 1.8546880444e+00 3.2124139251e+00 
32900 6.6400565511e+00 -3.3645515379e-02 1.8556211456e+00 -3.2140301037e+00 1.8556211456e+00 3.2140301037e+00 
33000 6.6399822878e+00 -3.2646099733e-02 1.8565278030e+00 -3.2156004804e+00 1.8565278030e+00 3.2156004804e+00 
33100 6.6399198136e+00 -3.1613021335e-02 1.8574070970e+00 -3.2171234623e+00 1.8574070970e+00 3.2171234623e+00 
33200 6.6398691133e+00 -3.0548234703e-02 1.8582581607e+00 -3.2185975478e+00 1.8582581607e+00 3.2185975478e+00 
33300 6.6398301045e+00 -2.9453709128e-02 1.8590801801e+00 -3.2200213272e+00 1.8590801801e+00 3.2200213272e+00 
33400 6.6398026403e+00 -2.8331426531e-02 1.8598723944e+00 -3.2213934827e+00 1.8598723944e+00 3.2213934827e+00 
33500 6.6397865124e+00 -2.7183379332e-02 1.8606340961e+00 -3.2227127888e+00 1.8606340961e+00 3.2227127888e+00 
33600 6.6397814537e+00 -2.6011568321e-02 1.8613646309e+00 -3.2239781121e+00 1.8613646309e+00 3.2239781121e+00 
33700 6.6397871425e+00 -2.4818000545e-02 1.8620633977e+00 -3.2251884116e+00 1.8620633977e+00 3.2251884116e+00 
33800 6.6398032052e+00 -2.3604687191e-02 1.8627298487e+00 -3.2263427386e+00 1.8627298487e+00 3.2263427386e+00 
33900 6.6398292205e+00 -2.2373641484e-02 1.8633634892e+00 -3.2274402363e+00 1.8633634892e+00 3.2274402363e+00 
34000 6.6398647231e+00 -2.1126876572e-02 1.8639638778e+00 -3.2284801398e+00 1.8639638778e+00 3.2284801398e+00 
34100 6.6399092073e+00 -1.9866403423e-02 1.8645306256e+00 -3.2294617757e+00 1.8645306256e+00 3.2294617757e+00 
34200 6.6399621317e+00 -1.8594228713e-02 1.8650633964e+00 -3.2303845618e+00 1.8650633964e+00 3.2303845618e+00 
34300 6.6400229228e+00 -1.7312352715e-02 1.8655619064e+00 -3.2312480066e+00 1.8655619064e+00 3.2312480066e+00 
34400 6.6400909793e+00 -1.6022767176e-02 1.8660259240e+00 -3.2320517086e+00 1.8660259240e+00 3.2320517086e+00 
34500 6.6401656760e+00 -1.4727453191e-02 1.8664552691e+00 -3.2327953561e+00 1.8664552691e+00 3.2327953561e+00 
34600 6.6402463687e+00 -1.3428379068e-02 1.8668498130e+00 -3.2334787262e+00 1.8668498130e+00 3.2334787262e+00 
34700 6.6403323975e+00 -1.2127498183e-02 1.8672094780e+00 -3.2341016842e+00 1.8672094780e+00 3.2341016842e+00 
34800 6.6404230916e+00 -1.0826746821e-02 1.8675342367e+00 -3.2346641828e+00 1.8675342367e+00 3.2346641828e+00 
34900 6.6405177730e+00 -9.5280420125e-03 1.8678241116e+00 -3.2351662609e+00 1.8678241116e+00 3.2351662609e+00 
35000 6.6406157607e+00 -8.2332793532e-03 1.8680791746e+00 -3.2356080431e+00 1.8680791746e+00 3.2356080431e+00 
35100 6.6407163745e+00 -6.9443308165e-03 1.8682995465e+00 -3.2359897383e+00 1.8682995465e+00 3.2359897383e+00 
35200 6.6408189390e+00 -5.6630425548e-03 1.8684853959e+00 -3.2363116388e+00 1.8684853959e+00 3.2363116388e+00 
35300 6.6409227872e+00 -4.3912326922e-03 1.8686369389e+00 -3.2365741191e+00 1.8686369389e+00 3.2365741191e+00 
35400 6.6410272638e+00 -3.1306891116e-03 1.8687544384e+00 -3.2367776342e+00 1.8687544384e+00 3.2367776342e+00 
35500 6.6411317291e+00 -1.8831672363e-03 1.8688382031e+00 -3.2369227189e+00 1.8688382031e+00 3.2369227189e+00 
35600 6.6412355619e+00 -6.5038781100e-04 1.8688885867e+00 -3.2370099859e+00 1.8688885867e+00 3.2370099859e+00 
35700 6.6413381624e+00 5.6596531476e-04 1.8689059871e+00 -3.2370401243e+00 1.8689059871e+00 3.2370401243e+00 
35800 6.6414389557e+00 1.7642473979e-03 1.8688908455e+00 -3.2370138982e+00 1.8688908455e+00 3.2370138982e+00 
35900 6.6415373937e+00 2.9428550016e-03 1.8688436453e+00 -3.2369321451e+00 1.8688436453e+00 3.2369321451e+00 
36000 6.6416329579e+00 4.1002281794e-03 1.8687649112e+00 -3.2367957737e+00 1.8687649112e+00 3.2367957737e+00 
36100 6.6417251618e+00 5.2348526379e-03 1.8686552081e+00 -3.2366057622e+00 1.8686552081e+00 3.2366057622e+00 
36200 6.6418135524e+00 6.3452618716e-03 1.8685151398e+00 -3.2363631568e+00 1.8685151398e+00 3.2363631568e+00 
36300 6.6418977125e+00 7.4300392634e-03 1.8683453481e+00 -3.2360690690e+00 1.8683453481e+00 3.2360690690e+00 
36400 6.6419772617e+00 8.4878201437e-03 1.8681465116e+00 -3.2357246740e+00 1.8681465116e+00 3.2357246740e+00 
36500 6.6420518580e+00 9.5172938011e-03 1.8679193439e+00 -3.2353312081e+00 1.8679193439e+00 3.2353312081e+00 
36600 6.6421211986e+00 1.0517205436e-02 1.8676645932e+00 -3.2348899669e+00 1.8676645932e+00 3.2348899669e+00 
36700 6.6421850209e+00 1.1486358051e-02 1.8673830399e+00 -3.2344023023e+00 1.8673830399e+00 3.2344023023e+00 
36800 6.6422431027e+00 1.2423614264e-02 1.8670754961e+00 -3.2338696208e+00 1.8670754961e+00 3.2338696208e+00 
36900 6.6422952627e+00 1.3327898050e-02 1.8667428034e+00 -3.2332933802e+00 1.8667428034e+00 3.2332933802e+00 
37000 6.6423413606e+00 1.4198196379e-02 1.8663858321e+00 -3.2326750877e+00 1.8663858321e+00 3.2326750877e+00 
37100 6.6423812964e+00 1.5033560770e-02 1.8660054790e+00 -3.2320162968e+00 1.8660054790e+00 3.2320162968e+00 
37200 6.6424150106e+00 1.5833108730e-02 1.8656026661e+00 -3.2313186045e+00 1.8656026661e+00 3.2313186045e+00 
37300 6.6424424829e+00 1.6596025080e-02 1.8651783392e+00 -3.2305836487e+00 1.8651783392e+00 3.2305836487e+00 
37400 6.6424637317e+00 1.7321563158e-02 1.8647334658e+00 -3.2298131053e+00 1.8647334658e+00 3.2298131053e+00 
37500 6.6424788129e+00 1.8009045898e-02 1.8642690336e+00 -3.2290086852e+00 1.8642690336e+00 3.2290086852e+00 
37600 6.6424878183e+00 1.8657866758e-02 1.8637860489e+00 -3.2281721312e+00 1.8637860489e+00 3.2281721312e+00 
37700 6.6424908746e+00 1.9267490521e-02 1.8632855346e+00 -3.2273052150e+00 1.8632855346e+00 3.2273052150e+00 
37800 6.6424881412e+00 1.9837453928e-02 1.8627685286e+00 -3.2264097342e+00 1.8627685286e+00 3.2264097342e+00 
37900 6.6424798087e+00 2.0367366170e-02 1.8622360816e+00 -3.2254875090e+00 1.8622360816e+00 3.2254875090e+00 
38000 6.6424660968e+00 2.0856909208e-02 1.8616892560e+00 -3.2245403792e+00 1.8616892560e+00 3.2245403792e+00 
38100 6.6424472521e+00 2.1305837934e-02 1.8611291232e+00 -3.2235702008e+00 1.8611291232e+00 3.2235702008e+00 
38200 6.6424235460e+00 2.1713980160e-02 1.8605567624e+00 -3.2225788429e+00 1.8605567624e+00 3.2225788429e+00 
38300 6.6423952722e+00 2.2081236439e-02 1.8599732585e+00 -3.2215681844e+00 1.8599732585e+00 3.2215681844e+00 
38400 6.6423627443e+00 2.2407579708e-02 1.8593796999e+00 -3.2205401108e+00 1.8593796999e+00 3.2205401108e+00 
38500 6.6423262934e+00 2.2693054763e-02 1.8587771772e+00 -3.2194965109e+00 1.8587771772e+00 3.2194965109e+00 
38600 6.6422862655e+00 2.2937777557e-02 1.8581667810e+00 -3.2184392736e+00 1.8581667810e+00 3.2184392736e+00 
38700 6.6422430189e+00 2.3141934326e-02 1.8575495999e+00 -3.2173702846e+00 1.8575495999e+00 3.2173702846e+00 
38800 6.6421969218e+00 2.3305780547e-02 1.8569267191e+00 -3.2162914234e+00 1.8569267191e+00 3.2162914234e+00 
38900 6.6421483492e+00 2.3429639722e-02 1.8562992181e+00 -3.2152045598e+00 1.8562992181e+00 3.2152045598e+00 
39000 6.6420976810e+00 2.3513902010e-02 1.8556681692e+00 -3.2141115510e+00 1.8556681692e+00 3.2141115510e+00 
39100 6.6420452989e+00 2.3559022683e-02 1.8550346356e+00 -3.2130142386e+00 1.8550346356e+00 3.2130142386e+00 
39200 6.6419915842e+00 2.3565520448e-02 1.8543996696e+00 -3.2119144452e+00 1.8543996696e+00 3.2119144452e+00 
39300 6.6419369156e+00 2.3533975608e-02 1.8537643110e+00 -3.2108139719e+00 1.8537643110e+00 3.2108139719e+00 
39400 6.6418816663e+00 2.3465028089e-02 1.8531295854e+00 -3.2097145950e+00 1.8531295854e+00 3.2097145950e+00 
39500 6.6418262022e+00 2.3359375335e-02 1.8524965026e+00 -3.2086180633e+00 1.8524965026e+00 3.2086180633e+00 
39600 6.6417708796e+00 2.3217770080e-02 1.8518660547e+00 -3.2075260955e+00 1.8518660547e+00 3.2075260955e+00 
39700 6.6417160434e+00 2.3041018000e-02 1.8512392151e+00 -3.2064403775e+00 1.8512392151e+00 3.2064403775e+00 
39800 6.6416620247e+00 2.2829975275e-02 1.8506169366e+00 -3.2053625595e+00 1.8506169366e+00 3.2053625595e+00 
39900 6.6416091399e+00 2.2585546037e-02 1.8500001502e+00 -3.2042942542e+00 1.8500001502e+00 3.2042942542e+00 
40000 6.6415576882e+00 2.2308679752e-02 1.8493897637e+00 -3.2032370337e+00 1.8493897637e+00 3.2032370337e+00 
40100 6.6415079509e+00 2.2000368517e-02 1.8487866602e+00 -3.2021924279e+00 1.8487866602e+00 3.2021924279e+00 
40200 6.6414601896e+00 2.1661644297e-02 1.8481916974e+00 -3.2011619220e+00 1.8481916974e+00 3.2011619220e+00 
40300 6.6414146454e+00 2.1293576115e-02 1.8476057057e+00 -3.2001469546e+00 1.8476057057e+00 3.2001469546e+00 
40400 6.6413715379e+00 2.0897267195e-02 1.8470294878e+00 -3.1991489160e+00 1.8470294878e+00 3.1991489160e+00 
40500 6.6413310644e+00 2.0473852079e-02 1.8464638174e+00 -3.1981691460e+00 1.8464638174e+00 3.1981691460e+00 
40600 6.6412933990e+00 2.0024493721e-02 1.8459094380e+00 -3.1972089328e+00 1.8459094380e+00 3.1972089328e+00 
40700 6.6412586930e+00 1.9550380582e-02 1.8453670628e+00 -3.1962695113e+00 1.8453670628e+00 3.1962695113e+00 
40800 6.6412270735e+00 1.9052723711e-02 1.8448373729e+00 -3.1953520615e+00 1.8448373729e+00 3.1953520615e+00 
40900 6.6411986443e+00 1.8532753852e-02 1.8443210175e+00 -3.1944577078e+00 1.8443210175e+00 3.1944577078e+00 
41000 6.6411734854e+00 1.7991718568e-02 1.8438186128e+00 -3.1935875172e+00 1.8438186128e+00 3.1935875172e+00 
41100 6.6411516533e+00 1.7430879389e-02 1.8433307414e+00 -3.1927424993e+00 1.8433307414e+00 3.1927424993e+00 
41200 6.6411331816e+00 1.6851509009e-02 1.8428579523e+00 -3.1919236045e+00 1.8428579523e+00 3.1919236045e+00 
41300 6.6411180812e+00 1.6254888519e-02 1.8424007599e+00 -3.1911317241e+00 1.8424007599e+00 3.1911317241e+00 
41400 6.6411063412e+00 1.5642304709e-02 1.8419596442e+00 -3.1903676892e+00 1.8419596442e+00 3.1903676892e+00 
41500 6.6410979293e+00 1.5015047416e-02 1.8415350501e+00 -3.1896322707e+00 1.8415350501e+00 3.1896322707e+00 
41600 6.6410927932e+00 1.4374406947e-02 1.8411273877e+00 -3.1889261786e+00 1.8411273877e+00 3.1889261786e+00 
41700 6.6410908611e+00 1.3721671581e-02 1.8407370318e+00 -3.1882500624e+00 1.8407370318e+00 3.1882500624e+00 
41800 6.6410920433e+00 1.3058125140e-02 1.8403643221e+00 -3.1876045104e+00 1.8403643221e+00 3.1876045104e+00 
41900 6.6410962326e+00 1.2385044647e-02 1.8400095634e+00 -3.1869900503e+00 1.8400095634e+00 3.1869900503e+00 
42000 6.6411033065e+00 1.1703698072e-02 1.8396730253e+00 -3.1864071491e+00 1.8396730253e+00 3.1864071491e+00 
42100 6.6411131278e+00 1.1015342171e-02 1.8393549427e+00 -3.1858562139e+00 1.8393549427e+00 3.1858562139e+00 
42200 6.6411255461e+00 1.0321220410e-02 1.8390555159e+00 -3.1853375914e+00 1.8390555159e+00 3.1853375914e+00 
42300 6.6411403994e+00 9.6225609930e-03 1.8387749110e+00 -3.1848515696e+00 1.8387749110e+00 3.1848515696e+00 
42400 6.6411575155e+00 8.9205749803e-03 1.8385132604e+00 -3.1843983774e+00 1.8385132604e+00 3.1843983774e+00 
42500 6.6411767133e+00 8.2164545092e-03 1.8382706628e+00 -3.1839781860e+00 1.8382706628e+00 3.1839781860e+00 
42600 6.6411978044e+00 7.5113711103e-03 1.8380471840e+00 -3.1835911094e+00 1.8380471840e+00 3.1835911094e+00 
42700 6.6412205943e+00 6.8064741238e-03 1.8378428576e+00 -3.1832372057e+00 1.8378428576e+00 3.1832372057e+00 
42800 6.6412448844e+00 6.1028892133e-03 1.8376576851e+00 -3.1829164775e+00 1.8376576851e+00 3.1829164775e+00 
42900 6.6412704727e+00 5.4017169781e-03 1.8374916368e+00 -3.1826288735e+00 1.8374916368e+00 3.1826288735e+00 
43000 6.6412971560e+00 4.7040316609e-03 1.8373446526e+00 -3.1823742894e+00 1.8373446526e+00 3.1823742894e+00 
43100 6.6413247305e+00 4.0108799515e-03 1.8372166424e+00 -3.1821525692e+00 1.8372166424e+00 3.1821525692e+00 
43200 6.6413529937e+00 3.3232798840e-03 1.8371074871e+00 -3.1819635066e+00 1.8371074871e+00 3.1819635066e+00 
43300 6.6413817452e+00 2.6422198248e-03 1.8370170391e+00 -3.1818068461e+00 1.8370170391e+00 3.1818068461e+00 
43400 6.6414107885e+00 1.9686575514e-03 1.8369451236e+00 -3.1816822847e+00 1.8369451236e+00 3.1816822847e+00 
43500 6.6414399314e+00 1.3035194168e-03 1.8368915387e+00 -3.1815894731e+00 1.8368915387e+00 3.1815894731e+00 
43600 6.6414689877e+00 6.4769960011e-04 1.8368560572e+00 -3.1815280172e+00 1.8368560572e+00 3.1815280172e+00 
43700 6.6414977778e+00 2.0594380908e-06 1.8368384265e+00 -3.1814974801e+00 1.8368384265e+00 3.1814974801e+00 
43800 6.6415261298e+00 -6.3250956723e-04 1.8368384265e+00 -3.1814974801e+00 1.8368384265e+00 3.1814974801e+00 
43900 6.6415538804e+00 -1.2553421214e-03 1.8368556439e+00 -3.1815273014e+00 1.8368556439e+00 3.1815273014e+00 
44000 6.6415808753e+00 -1.8656134922e-03 1.8368898150e+00 -3.1815864874e+00 1.8368898150e+00 3.1815864874e+00 
44100 6.6416069704e+00 -2.4625988504e-03 1.8369405971e+00 -3.1816744446e+00 1.8369405971e+00 3.1816744446e+00 
44200 6.6416320319e+00 -3.0456084131e-03 1.8370076274e+00 -3.1817905445e+00 1.8370076274e+00 3.1817905445e+00 
44300 6.6416559370e+00 -3.6139876776e-03 1.8370905239e+00 -3.1819341255e+00 1.8370905239e+00 3.1819341255e+00 
44400 6.6416785743e+00 -4.1671175920e-03 1.8371888865e+00 -3.1821044945e+00 1.8371888865e+00 3.1821044945e+00 
44500 6.6416998440e+00 -4.7044146668e-03 1.8373022978e+00 -3.1823009287e+00 1.8373022978e+00 3.1823009287e+00 
44600 6.6417196583e+00 -5.2253310287e-03 1.8374303244e+00 -3.1825226772e+00 1.8374303244e+00 3.1825226772e+00 
44700 6.6417379414e+00 -5.7293544205e-03 1.8375725175e+00 -3.1827689628e+00 1.8375725175e+00 3.1827689628e+00 
44800 6.6417546297e+00 -6.2160081484e-03 1.8377284143e+00 -3.1830389841e+00 1.8377284143e+00 3.1830389841e+00 
44900 6.6417696716e+00 -6.6848509810e-03 1.8378975390e+00 -3.1833319166e+00 1.8378975390e+00 3.1833319166e+00 
45000 6.6417830275e+00 -7.1354769999e-03 1.8380794033e+00 -3.1836469149e+00 1.8380794033e+00 3.1836469149e+00 
45100 6.6417946697e+00 -7.5675154070e-03 1.8382735082e+00 -3.1839831144e+00 1.8382735082e+00 3.1839831144e+00 
45200 6.6418045821e+00 -7.9806302878e-03 1.8384793442e+00 -3.1843396328e+00 1.8384793442e+00 3.1843396328e+00 
45300 6.6418127599e+00 -8.3745203360e-03 1.8386963928e+00 -3.1847155720e+00 1.8386963928e+00 3.1847155720e+00 
45400 6.6418192092e+00 -8.7489185382e-03 1.8389241273e+00 -3.1851100197e+00 1.8389241273e+00 3.1851100197e+00 
45500 6.6418239468e+00 -9.1035918237e-03 1.8391620139e+00 -3.1855220514e+00 1.8391620139e+00 3.1855220514e+00 
45600 6.6418269992e+00 -9.4383406781e-03 1.8394095123e+00 -3.1859507313e+00 1.8394095123e+00 3.1859507313e+00 
45700 6.6418284028e+00 -9.7529987261e-03 1.8396660773e+00 -3.1863951148e+00 1.8396660773e+00 3.1863951148e+00 
45800 6.6418282030e+00 -1.0047432281e-02 1.8399311589e+00 -3.1868542496e+00 1.8399311589e+00 3.1868542496e+00 
45900 6.6418264533e+00 -1.0321539868e-02 1.8402042039e+00 -3.1873271775e+00 1.8402042039e+00 3.1873271775e+00 
46000 6.6418232154e+00 -1.0575251715e-02 1.8404846565e+00 -3.1878129357e+00 1.8404846565e+00 3.1878129357e+00 
46100 6.6418185578e+00 -1.0808529220e-02 1.8407719593e+00 -3.1883105587e+00 1.8407719593e+00 3.1883105587e+00 
46200 6.6418125557e+00 -1.1021364394e-02 1.8410655540e+00 -3.1888190795e+00 1.8410655540e+00 3.1888190795e+00 
46300 6.6418052899e+00 -1.1213779279e-02 1.8413648823e+00 -3.1893375315e+00 1.8413648823e+00 3.1893375315e+00 
46400 6.6417968465e+00 -1.1385825341e-02 1.8416693871e+00 -3.1898649492e+00 1.8416693871e+00 3.1898649492e+00 
46500 6.6417873160e+00 -1.1537582845e-02 1.8419785127e+00 -3.1904003705e+00 1.8419785127e+00 3.1904003705e+00 
46600 6.6417767923e+00 -1.1669160210e-02 1.8422917061e+00 -3.1909428374e+00 1.8422917061e+00 3.1909428374e+00 
46700 6.6417653726e+00 -1.1780693342e-02 1.8426084175e+00 -3.1914913976e+00 1.8426084175e+00 3.1914913976e+00 
46800 6.6417531563e+00 -1.1872344950e-02 1.8429281011e+00 -3.1920451058e+00 1.8429281011e+00 3.1920451058e+00 
46900 6.6417402444e+00 -1.1944303848e-02 1.8432502160e+00 -3.1926030251e+00 1.8432502160e+00 3.1926030251e+00 
47000 6.6417267388e+00 -1.1996784232e-02 1.8435742266e+00 -3.1931642280e+00 1.8435742266e+00 3.1931642280e+00 
47100 6.6417127416e+00 -1.2030024957e-02 1.8438996037e+00 -3.1937277977e+00 1.8438996037e+00 3.1937277977e+00 
47200 6.6416983549e+00 -1.2044288780e-02 1.8442258248e+00 -3.1942928292e+00 1.8442258248e+00 3.1942928292e+00 
47300 6.6416836794e+00 -1.2039861608e-02 1.8445523750e+00 -3.1948584307e+00 1.8445523750e+00 3.1948584307e+00 
47400 6.6416688146e+00 -1.2017051723e-02 1.8448787473e+00 -3.1954237241e+00 1.8448787473e+00 3.1954237241e+00 
47500 6.6416538577e+00 -1.1976188994e-02 1.8452044436e+00 -3.1959878467e+00 1.8452044436e+00 3.1959878467e+00 
47600 6.6416389033e+00 -1.1917624087e-02 1.8455289751e+00 -3.1965499518e+00 1.8455289751e+00 3.1965499518e+00 
47700 6.6416240431e+00 -1.1841727653e-02 1.8458518628e+00 -3.1971092097e+00 1.8458518628e+00 3.1971092097e+00 
47800 6.6416093651e+00 -1.1748889516e-02 1.8461726380e+00 -3.1976648086e+00 1.8461726380e+00 3.1976648086e+00 
47900 6.6415949532e+00 -1.1639517850e-02 1.8464908430e+00 -3.1982159559e+00 1.8464908430e+00 3.1982159559e+00 
48000 6.6415808871e+00 -1.1514038342e-02 1.8468060314e+00 -3.1987618781e+00 1.8468060314e+00 3.1987618781e+00 
48100 6.6415672419e+00 -1.1372893355e-02 1.8471177686e+00 -3.1993018228e+00 1.8471177686e+00 3.1993018228e+00 
48200 6.6415540876e+00 -1.1216541079e-02 1.8474256323e+00 -3.1998350583e+00 1.8474256323e+00 3.1998350583e+00 
48300 6.6415414889e+00 -1.1045454685e-02 1.8477292128e+00 -3.2003608752e+00 1.8477292128e+00 3.2003608752e+00 
48400 6.6415295050e+00 -1.0860121455e-02 1.8480281135e+00 -3.2008785864e+00 1.8480281135e+00 3.2008785864e+00 
48500 6.6415181898e+00 -1.0661041934e-02 1.8483219513e+00 -3.2013875284e+00 1.8483219513e+00 3.2013875284e+00 
48600 6.6415075909e+00 -1.0448729050e-02 1.8486103566e+00 -3.2018870611e+00 1.8486103566e+00 3.2018870611e+00 
48700 6.6414977505e+00 -1.0223707255e-02 1.8488929742e+00 -3.2023765691e+00 1.8488929742e+00 3.2023765691e+00 
48800 6.6414887044e+00 -9.9865116450e-03 1.8491694630e+00 -3.2028554616e+00 1.8491694630e+00 3.2028554616e+00 
48900 6.6414804828e+00 -9.7376870916e-03 1.8494394965e+00 -3.2033231734e+00 1.8494394965e+00 3.2033231734e+00 
49000 6.6414731097e+00 -9.4777873636e-03 1.8497027632e+00 -3.2037791648e+00 1.8497027632e+00 3.2037791648e+00 
49100 6.6414666033e+00 -9.2073742523e-03 1.8499589667e+00 -3.2042229222e+00 1.8499589667e+00 3.2042229222e+00 
49200 6.6414609758e+00 -8.9270166961e-03 1.8502078258e+00 -3.2046539588e+00 1.8502078258e+00 3.2046539588e+00 
49300 6.6414562339e+00 -8.6372899062e-03 1.8504490746e+00 -3.2050718141e+00 1.8504490746e+00 3.2050718141e+00 
49400 6.6414523786e+00 -8.3387744937e-03 1.8506824631e+00 -3.2054760548e+00 1.8506824631e+00 3.2054760548e+00 
49500 6.6414494054e+00 -8.0320555995e-03 1.8509077569e+00 -3.2058662750e+00 1.8509077569e+00 3.2058662750e+00 
49600 6.6414473047e+00 -7.7177220273e-03 1.8511247372e+00 -3.2062420960e+00 1.8511247372e+00 3.2062420960e+00 
49700 6.6414460619e+00 -7.3963653800e-03 1.8513332015e+00 -3.2066031667e+00 1.8513332015e+00 3.2066031667e+00 
49800 6.6414456576e+00 -7.0685792019e-03 1.8515329629e+00 -3.2069491636e+00 1.8515329629e+00 3.2069491636e+00 
49900 6.6414460680e+00 -6.7349581253e-03 1.8517238507e+00 -3.2072797910e+00 1.8517238507e+00 3.2072797910e+00 
50000 6.6414472649e+00 -6.3960970238e-03 1.8519057101e+00 -3.2075947807e+00 1.8519057101e+00 3.2075947807e+00 
50100 6.6414492165e+00 -6.0525901733e-03 1.8520784024e+00 -3.2078938925e+00 1.8520784024e+00 3.2078938925e+00 
50200 6.6414518871e+00 -5.7050304194e-03 1.8522418047e+00 -3.2081769137e+00 1.8522418047e+00 3.2081769137e+00 
50300 6.6414552380e+00 -5.3540083556e-03 1.8523958103e+00 -3.2084436591e+00 1.8523958103e+00 3.2084436591e+00 
50400 6.6414592275e+00 -5.0001115090e-03 1.8525403279e+00 -3.2086939710e+00 1.8525403279e+00 3.2086939710e+00 
50500 6.6414638112e+00 -4.6439235381e-03 1.8526752824e+00 -3.2089277190e+00 1.8526752824e+00 3.2089277190e+00 
50600 6.6414689426e+00 -4.2860234411e-03 1.8528006140e+00 -3.2091447998e+00 1.8528006140e+00 3.2091447998e+00 
50700 6.6414745732e+00 -3.9269847766e-03 1.8529162786e+00 -3.2093451367e+00 1.8529162786e+00 3.2093451367e+00 
50800 6.6414806532e+00 -3.5673748978e-03 1.8530222473e+00 -3.2095286798e+00 1.8530222473e+00 3.2095286798e+00 
50900 6.6414871314e+00 -3.2077542000e-03 1.8531185064e+00 -3.2096954055e+00 1.8531185064e+00 3.2096954055e+00 
51000 6.6414939557e+00 -2.8486753841e-03 1.8532050572e+00 -3.2098453160e+00 1.8532050572e+00 3.2098453160e+00 
51100 6.6415010737e+00 -2.4906827347e-03 1.8532819158e+00 -3.2099784390e+00 1.8532819158e+00 3.2099784390e+00 
51200 6.6415084328e+00 -2.1343114164e-03 1.8533491128e+00 -3.2100948275e+00 1.8533491128e+00 3.2100948275e+00 
51300 6.6415159805e+00 -1.7800867870e-03 1.8534066929e+00 -3.2101945593e+00 1.8534066929e+00 3.2101945593e+00 
51400 6.6415236647e+00 -1.4285237296e-03 1.8534547152e+00 -3.2102777362e+00 1.8534547152e+00 3.2102777362e+00 
51500 6.6415314342e+00 -1.0801260041e-03 1.8534932521e+00 -3.2103444841e+00 1.8534932521e+00 3.2103444841e+00 
51600 6.6415392388e+00 -7.3538562010e-04 1.8535223897e+00 -3.2103949520e+00 1.8535223897e+00 3.2103949520e+00 
51700 6.6415470297e+00 -3.9478223008e-04 1.8535422273e+00 -3.2104293116e+00 1.8535422273e+00 3.2104293116e+00 
51800 6.6415547596e+00 -5.8782545889e-05 1.8535528767e+00 -3.2104477570e+00 1.8535528767e+00 3.2104477570e+00 
51900 6.6415623820e+00 2.7042477745e-04 1.8535528767e+00 -3.2104477570e+00 1.8535528767e+00 3.2104477570e+00 
52000 6.6415698545e+00 5.9590735222e-04 1.8535455819e+00 -3.2104351221e+00 1.8535455819e+00 3.2104351221e+00 
52100 6.6415771360e+00 9.1546725766e-04 1.8535295072e+00 -3.2104072797e+00 1.8535295072e+00 3.2104072797e+00 
52200 6.6415841879e+00 1.2286950592e-03 1.8535048120e+00 -3.2103645064e+00 1.8535048120e+00 3.2103645064e+00 
52300 6.6415909741e+00 1.5351968087e-03 1.8534716669e+00 -3.2103070974e+00 1.8534716669e+00 3.2103070974e+00 
52400 6.6415974612e+00 1.8345944759e-03 1.8534302530e+00 -3.2102353664e+00 1.8534302530e+00 3.2102353664e+00 
52500 6.6416036186e+00 2.1265263528e-03 1.8533807613e+00 -3.2101496444e+00 1.8533807613e+00 3.2101496444e+00 
52600 6.6416094189e+00 2.4106474281e-03 1.8533233928e+00 -3.2100502791e+00 1.8533233928e+00 3.2100502791e+00 
52700 6.6416148376e+00 2.6866297332e-03 1.8532583573e+00 -3.2099376345e+00 1.8532583573e+00 3.2099376345e+00 
52800 6.6416198531e+00 2.9541626573e-03 1.8531858739e+00 -3.2098120894e+00 1.8531858739e+00 3.2098120894e+00 
52900 6.6416244474e+00 3.2129532327e-03 1.8531061695e+00 -3.2096740373e+00 1.8531061695e+00 3.2096740373e+00 
53000 6.6416286051e+00 3.4627263886e-03 1.8530194791e+00 -3.2095238852e+00 1.8530194791e+00 3.2095238852e+00 
53100 6.6416323144e+00 3.7032251739e-03 1.8529260452e+00 -3.2093620530e+00 1.8529260452e+00 3.2093620530e+00 
53200 6.6416355664e+00 3.9342109476e-03 1.8528261170e+00 -3.2091889722e+00 1.8528261170e+00 3.2091889722e+00 
53300 6.6416383553e+00 4.1554635374e-03 1.8527199502e+00 -3.2090050859e+00 1.8527199502e+00 3.2090050859e+00 
53400 6.6416406784e+00 4.3667813664e-03 1.8526078063e+00 -3.2088108471e+00 1.8526078063e+00 3.2088108471e+00 
53500 6.6416425360e+00 4.5679815462e-03 1.8524899526e+00 -3.2086067184e+00 1.8524899526e+00 3.2086067184e+00 
53600 6.6416439311e+00 4.7588999392e-03 1.8523666610e+00 -3.2083931710e+00 1.8523666610e+00 3.2083931710e+00 
53700 6.6416448697e+00 4.9393911861e-03 1.8522382079e+00 -3.2081706837e+00 1.8522382079e+00 3.2081706837e+00 
53800 6.6416453601e+00 5.1093287033e-03 1.8521048737e+00 -3.2079397422e+00 1.8521048737e+00 3.2079397422e+00 
53900 6.6416454134e+00 5.2686046459e-03 1.8519669424e+00 -3.2077008382e+00 1.8519669424e+00 3.2077008382e+00 
54000 6.6416450430e+00 5.4171298396e-03 1.8518247007e+00 -3.2074544684e+00 1.8518247007e+00 3.2074544684e+00 
54100 6.6416442644e+00 5.5548336812e-03 1.8516784380e+00 -3.2072011339e+00 1.8516784380e+00 3.2072011339e+00 
54200 6.6416430953e+00 5.6816640063e-03 1.8515284455e+00 -3.2069413392e+00 1.8515284455e+00 3.2069413392e+00 
54300 6.6416415551e+00 5.7975869274e-03 1.8513750159e+00 -3.2066755913e+00 1.8513750159e+00 3.2066755913e+00 
54400 6.6416396651e+00 5.9025866404e-03 1.8512184429e+00 -3.2064043990e+00 1.8512184429e+00 3.2064043990e+00 
54500 6.6416374479e+00 5.9966652025e-03 1.8510590208e+00 -3.2061282719e+00 1.8510590208e+00 3.2061282719e+00 
54600 6.6416349276e+00 6.0798422796e-03 1.8508970439e+00 -3.2058477196e+00 1.8508970439e+00 3.2058477196e+00 
54700 6.6416321294e+00 6.1521548662e-03 1.8507328059e+00 -3.2055632510e+00 1.8507328059e+00 3.2055632510e+00 
54800 6.6416290793e+00 6.2136569774e-03 1.8505665998e+00 -3.2052753736e+00 1.8505665998e+00 3.2052753736e+00 
54900 6.6416258043e+00 6.2644193143e-03 1.8503987170e+00 -3.2049845922e+00 1.8503987170e+00 3.2049845922e+00 
55000 6.6416223318e+00 6.3045289033e-03 1.8502294475e+00 -3.2046914087e+00 1.8502294475e+00 3.2046914087e+00 
55100 6.6416186895e+00 6.3340887114e-03 1.8500590785e+00 -3.2043963210e+00 1.8500590785e+00 3.2043963210e+00 
55200 6.6416149056e+00 6.3532172368e-03 1.8498878951e+00 -3.2040998226e+00 1.8498878951e+00 3.2040998226e+00 
55300 6.6416110078e+00 6.3620480780e-03 1.8497161787e+00 -3.2038024012e+00 1.8497161787e+00 3.2038024012e+00 
55400 6.6416070243e+00 6.3607294807e-03 1.8495442078e+00 -3.2035045387e+00 1.8495442078e+00 3.2035045387e+00 
55500 6.6416029823e+00 6.3494238649e-03 1.8493722565e+00 -3.2032067103e+00 1.8493722565e+00 3.2032067103e+00 
55600 6.6415989090e+00 6.3283073328e-03 1.8492005948e+00 -3.2029093836e+00 1.8492005948e+00 3.2029093836e+00 
55700 6.6415948307e+00 6.2975691596e-03 1.8490294882e+00 -3.2026130183e+00 1.8490294882e+00 3.2026130183e+00 
55800 6.6415907730e+00 6.2574112674e-03 1.8488591969e+00 -3.2023180651e+00 1.8488591969e+00 3.2023180651e+00 
55900 6.6415867605e+00 6.2080476842e-03 1.8486899759e+00 -3.2020249657e+00 1.8486899759e+00 3.2020249657e+00 
56000 6.6415828168e+00 6.1497039893e-03 1.8485220745e+00 -3.2017341519e+00 1.8485220745e+00 3.2017341519e+00 
56100 6.6415789643e+00 6.0826167469e-03 1.8483557359e+00 -3.2014460450e+00 1.8483557359e+00 3.2014460450e+00 
56200 6.6415752241e+00 6.0070329278e-03 1.8481911970e+00 -3.2011610554e+00 1.8481911970e+00 3.2011610554e+00 
56300 6.6415716161e+00 5.9232093225e-03 1.8480286883e+00 -3.2008795819e+00 1.8480286883e+00 3.2008795819e+00 
56400 6.6415681586e+00 5.8314119458e-03 1.8478684331e+00 -3.2006020118e+00 1.8478684331e+00 3.2006020118e+00 
56500 6.6415648683e+00 5.7319154348e-03 1.8477106478e+00 -3.2003287197e+00 1.8477106478e+00 3.2003287197e+00 
56600 6.6415617605e+00 5.6250024411e-03 1.8475555414e+00 -3.2000600675e+00 1.8475555414e+00 3.2000600675e+00 
56700 6.6415588488e+00 5.5109630199e-03 1.8474033152e+00 -3.1997964041e+00 1.8474033152e+00 3.1997964041e+00 
56800 6.6415561452e+00 5.3900940151e-03 1.8472541630e+00 -3.1995380647e+00 1.8472541630e+00 3.1995380647e+00 
56900 6.6415536599e+00 5.2626984447e-03 1.8471082701e+00 -3.1992853709e+00 1.8471082701e+00 3.1992853709e+00 
57000 6.6415514016e+00 5.1290848844e-03 1.8469658142e+00 -3.1990386300e+00 1.8469658142e+00 3.1990386300e+00 
57100 6.6415493771e+00 4.9895668540e-03 1.8468269643e+00 -3.1987981349e+00 1.8468269643e+00 3.1987981349e+00 
57200 6.6415475917e+00 4.8444622050e-03 1.8466918811e+00 -3.1985641639e+00 1.8466918811e+00 3.1985641639e+00 
57300 6.6415460489e+00 4.6940925125e-03 1.8465607167e+00 -3.1983369805e+00 1.8465607167e+00 3.1983369805e+00 
57400 6.6415447507e+00 4.5387824718e-03 1.8464336145e+00 -3.1981168331e+00 1.8464336145e+00 3.1981168331e+00 
57500 6.6415436973e+00 4.3788593008e-03 1.8463107091e+00 -3.1979039547e+00 1.8463107091e+00 3.1979039547e+00 
57600 6.6415428876e+00 4.2146521493e-03 1.8461921263e+00 -3.1976985633e+00 1.8461921263e+00 3.1976985633e+00 
57700 6.6415423189e+00 4.0464915162e-03 1.8460779830e+00 -3.1975008614e+00 1.8460779830e+00 3.1975008614e+00 
57800 6.6415419871e+00 3.8747086765e-03 1.8459683871e+00 -3.1973110357e+00 1.8459683871e+00 3.1973110357e+00 
57900 6.6415418867e+00 3.6996351169e-03 1.8458634376e+00 -3.1971292577e+00 1.8458634376e+00 3.1971292577e+00 
58000 6.6415420110e+00 3.5216019832e-03 1.8457632243e+00 -3.1969556832e+00 1.8457632243e+00 3.1969556832e+00 
58100 6.6415423520e+00 3.3409395389e-03 1.8456678282e+00 -3.1967904523e+00 1.8456678282e+00 3.1967904523e+00 
58200 6.6415429008e+00 3.1579766363e-03 1.8455773213e+00 -3.1966336898e+00 1.8455773213e+00 3.1966336898e+00 
58300 6.6415436474e+00 2.9730402005e-03 1.8454917667e+00 -3.1964855049e+00 1.8454917667e+00 3.1964855049e+00 
58400 6.6415445807e+00 2.7864547276e-03 1.8454112186e+00 -3.1963459914e+00 1.8454112186e+00 3.1963459914e+00 
58500 6.6415456890e+00 2.5985417969e-03 1.8453357222e+00 -3.1962152280e+00 1.8453357222e+00 3.1962152280e+00 
58600 6.6415469598e+00 2.4096195980e-03 1.8452653143e+00 -3.1960932778e+00 1.8452653143e+00 3.1960932778e+00 
58700 6.6415483801e+00 2.2200024741e-03 1.8452000228e+00 -3.1959801895e+00 1.8452000228e+00 3.1959801895e+00 
58800 6.6415499362e+00 2.0300004807e-03 1.8451398669e+00 -3.1958759966e+00 1.8451398669e+00 3.1958759966e+00 
58900 6.6415516141e+00 1.8399189603e-03 1.8450848578e+00 -3.1957807180e+00 1.8450848578e+00 3.1957807180e+00 
59000 6.6415533995e+00 1.6500581346e-03 1.8450349980e+00 -3.1956943583e+00 1.8450349980e+00 3.1956943583e+00 
59100 6.6415552778e+00 1.4607127137e-03 1.8449902820e+00 -3.1956169080e+00 1.8449902820e+00 3.1956169080e+00 
59200 6.6415572345e+00 1.2721715220e-03 1.8449506963e+00 -3.1955483434e+00 1.8449506963e+00 3.1955483434e+00 
59300 6.6415592548e+00 1.0847171421e-03 1.8449162192e+00 -3.1954886274e+00 1.8449162192e+00 3.1954886274e+00 
59400 6.6415613241e+00 8.9862557655e-04 1.8448868219e+00 -3.1954377097e+00 1.8448868219e+00 3.1954377097e+00 
59500 6.6415634281e+00 7.1416592742e-04 1.8448624674e+00 -3.1953955266e+00 1.8448624674e+00 3.1953955266e+00 
59600 6.6415655525e+00 5.3160009350e-04 1.8448431119e+00 -3.1953620019e+00 1.8448431119e+00 3.1953620019e+00 
59700 6.6415676835e+00 3.5118248605e-04 1.8448287042e+00 -3.1953370470e+00 1.8448287042e+00 3.1953370470e+00 
59800 6.6415698076e+00 1.7315976238e-04 1.8448191862e+00 -3.1953205613e+00 1.8448191862e+00 3.1953205613e+00 
59900 6.6415719120e+00 -2.2294224960e-06 1.8448144931e+00 -3.1953124325e+00 1.8448144931e+00 3.1953124325e+00 
60000 6.6415739841e+00 -1.7482200846e-04 1.8448144931e+00 -3.1953124325e+00 1.8448144931e+00 3.1953124325e+00 
60100 6.6415760122e+00 -3.4425981259e-04 1.8448192313e+00 -3.1953206393e+00 1.8448192313e+00 3.1953206393e+00 
60200 6.6415779850e+00 -5.1039841789e-04 1.8448285617e+00 -3.1953368002e+00 1.8448285617e+00 3.1953368002e+00 
60300 6.6415798922e+00 -6.7303329608e-04 1.8448423950e+00 -3.1953607600e+00 1.8448423950e+00 3.1953607600e+00 
60400 6.6415817240e+00 -8.3196889443e-04 1.8448606359e+00 -3.1953923543e+00 1.8448606359e+00 3.1953923543e+00 
60500 6.6415834714e+00 -9.8701877753e-04 1.8448831843e+00 -3.1954314092e+00 1.8448831843e+00 3.1954314092e+00 
60600 6.6415851263e+00 -1.1380057519e-03 1.8449099345e+00 -3.1954777419e+00 1.8449099345e+00 3.1954777419e+00 
60700 6.6415866816e+00 -1.2847619739e-03 1.8449407764e+00 -3.1955311616e+00 1.8449407764e+00 3.1955311616e+00 
60800 6.6415881306e+00 -1.4271290403e-03 1.8449755950e+00 -3.1955914692e+00 1.8449755950e+00 3.1955914692e+00 
60900 6.6415894680e+00 -1.5649580633e-03 1.8450142712e+00 -3.1956584584e+00 1.8450142712e+00 3.1956584584e+00 
61000 6.6415906889e+00 -1.6981097289e-03 1.8450566818e+00 -3.1957319158e+00 1.8450566818e+00 3.1957319158e+00 
61100 6.6415917896e+00 -1.8264543395e-03 1.8451026998e+00 -3.1958116213e+00 1.8451026998e+00 3.1958116213e+00 
61200 6.6415927671e+00 -1.9498718409e-03 1.8451521947e+00 -3.1958973489e+00 1.8451521947e+00 3.1958973489e+00 
61300 6.6415936193e+00 -2.0682518344e-03 1.8452050327e+00 -3.1959888670e+00 1.8452050327e+00 3.1959888670e+00 
61400 6.6415943451e+00 -2.1814935739e-03 1.8452610769e+00 -3.1960859384e+00 1.8452610769e+00 3.1960859384e+00 
61500 6.6415949439e+00 -2.2895059485e-03 1.8453201879e+00 -3.1961883217e+00 1.8453201879e+00 3.1961883217e+00 
61600 6.6415954162e+00 -2.3922074509e-03 1.8453822237e+00 -3.1962957709e+00 1.8453822237e+00 3.1962957709e+00 
61700 6.6415957631e+00 -2.4895261322e-03 1.8454470402e+00 -3.1964080362e+00 1.8454470402e+00 3.1964080362e+00 
61800 6.6415959866e+00 -2.5813995431e-03 1.8455144911e+00 -3.1965248646e+00 1.8455144911e+00 3.1965248646e+00 
61900 6.6415960892e+00 -2.6677746626e-03 1.8455844286e+00 -3.1966460000e+00 1.8455844286e+00 3.1966460000e+00 
62000 6.6415960741e+00 -2.7486078132e-03 1.8456567036e+00 -3.1967711840e+00 1.8456567036e+00 3.1967711840e+00 
62100 6.6415959453e+00 -2.8238645648e-03 1.8457311656e+00 -3.1969001560e+00 1.8457311656e+00 3.1969001560e+00 
62200 6.6415957073e+00 -2.8935196266e-03 1.8458076633e+00 -3.1970326539e+00 1.8458076633e+00 3.1970326539e+00 
62300 6.6415953649e+00 -2.9575567266e-03 1.8458860448e+00 -3.1971684145e+00 1.8458860448e+00 3.1971684145e+00 
62400 6.6415949238e+00 -3.0159684820e-03 1.8459661574e+00 -3.1973071738e+00 1.8459661574e+00 3.1973071738e+00 
62500 6.6415943898e+00 -3.0687562569e-03 1.8460478488e+00 -3.1974486674e+00 1.8460478488e+00 3.1974486674e+00 
62600 6.6415937692e+00 -3.1159300118e-03 1.8461309664e+00 -3.1975926312e+00 1.8461309664e+00 3.1975926312e+00 
62700 6.6415930686e+00 -3.1575081414e-03 1.8462153578e+00 -3.1977388015e+00 1.8462153578e+00 3.1977388015e+00 
62800 6.6415922950e+00 -3.1935173049e-03 1.8463008715e+00 -3.1978869155e+00 1.8463008715e+00 3.1978869155e+00 
62900 6.6415914556e+00 -3.2239922460e-03 1.8463873564e+00 -3.1980367117e+00 1.8463873564e+00 3.1980367117e+00 
63000 6.6415905575e+00 -3.2489756049e-03 1.8464746625e+00 -3.1981879303e+00 1.8464746625e+00 3.1981879303e+00 
63100 6.6415896083e+00 -3.2685177223e-03 1.8465626410e+00 -3.1983403135e+00 1.8465626410e+00 3.1983403135e+00 
63200 6.6415886154e+00 -3.2826764357e-03 1.8466511444e+00 -3.1984936060e+00 1.8466511444e+00 3.1984936060e+00 
63300 6.6415875865e+00 -3.2915168680e-03 1.8467400270e+00 -3.1986475552e+00 1.8467400270e+00 3.1986475552e+00 
63400 6.6415865290e+00 -3.2951112096e-03 1.8468291447e+00 -3.1988019115e+00 1.8468291447e+00 3.1988019115e+00 
63500 6.6415854504e+00 -3.2935384943e-03 1.8469183554e+00 -3.1989564290e+00 1.8469183554e+00 3.1989564290e+00 
63600 6.6415843581e+00 -3.2868843684e-03 1.8470075192e+00 -3.1991108652e+00 1.8470075192e+00 3.1991108652e+00 
63700 6.6415832593e+00 -3.2752408548e-03 1.8470964985e+00 -3.1992649819e+00 1.8470964985e+00 3.1992649819e+00 
63800 6.6415821610e+00 -3.2587061119e-03 1.8471851584e+00 -3.1994185454e+00 1.8471851584e+00 3.1994185454e+00 
63900 6.6415810699e+00 -3.2373841869e-03 1.8472733665e+00 -3.1995713262e+00 1.8472733665e+00 3.1995713262e+00 
64000 6.6415799925e+00 -3.2113847658e-03 1.8473609932e+00 -3.1997231001e+00 1.8473609932e+00 3.1997231001e+00 
64100 6.6415789352e+00 -3.1808229186e-03 1.8474479120e+00 -3.1998736480e+00 1.8474479120e+00 3.1998736480e+00 
64200 6.6415779038e+00 -3.1458188410e-03 1.8475339996e+00 -3.2000227561e+00 1.8475339996e+00 3.2000227561e+00 
64300 6.6415769039e+00 -3.1064975930e-03 1.8476191359e+00 -3.2001702164e+00 1.8476191359e+00 3.2001702164e+00 
64400 6.6415759406e+00 -3.0629888347e-03 1.8477032041e+00 -3.2003158269e+00 1.8477032041e+00 3.2003158269e+00 
64500 6.6415750188e+00 -3.0154265596e-03 1.8477860911e+00 -3.2004593914e+00 1.8477860911e+00 3.2004593914e+00 
64600 6.6415741428e+00 -2.9639488256e-03 1.8478676874e+00 -3.2006007202e+00 1.8478676874e+00 3.2006007202e+00 
64700 6.6415733166e+00 -2.9086974849e-03 1.8479478871e+00 -3.2007396303e+00 1.8479478871e+00 3.2007396303e+00 
64800 6.6415725437e+00 -2.8498179119e-03 1.8480265884e+00 -3.2008759449e+00 1.8480265884e+00 3.2008759449e+00 
64900 6.6415718272e+00 -2.7874587307e-03 1.8481036933e+00 -3.2010094945e+00 1.8481036933e+00 3.2010094945e+00 
65000 6.6415711698e+00 -2.7217715417e-03 1.8481791079e+00 -3.2011401163e+00 1.8481791079e+00 3.2011401163e+00 
65100 6.6415705736e+00 -2.6529106484e-03 1.8482527422e+00 -3.2012676548e+00 1.8482527422e+00 3.2012676548e+00 
65200 6.6415700405e+00 -2.5810327841e-03 1.8483245108e+00 -3.2013919615e+00 1.8483245108e+00 3.2013919615e+00 
65300 6.6415695716e+00 -2.5062968389e-03 1.8483943321e+00 -3.2015128956e+00 1.8483943321e+00 3.2015128956e+00 
65400 6.6415691679e+00 -2.4288635885e-03 1.8484621291e+00 -3.2016303235e+00 1.8484621291e+00 3.2016303235e+00 
65500 6.6415688298e+00 -2.3488954230e-03 1.8485278291e+00 -3.2017441191e+00 1.8485278291e+00 3.2017441191e+00 
65600 6.6415685573e+00 -2.2665560783e-03 1.8485913636e+00 -3.2018541643e+00 1.8485913636e+00 3.2018541643e+00 
65700 6.6415683501e+00 -2.1820103689e-03 1.8486526689e+00 -3.2019603481e+00 1.8486526689e+00 3.2019603481e+00 
65800 6.6415682074e+00 -2.0954239235e-03 1.8487116855e+00 -3.2020625678e+00 1.8487116855e+00 3.2020625678e+00 
65900 6.6415681279e+00 -2.0069629222e-03 1.8487683583e+00 -3.2021607280e+00 1.8487683583e+00 3.2021607280e+00 
66000 6.6415681103e+00 -1.9167938378e-03 1.8488226370e+00 -3.2022547414e+00 1.8488226370e+00 3.2022547414e+00 
66100 6.6415681527e+00 -1.8250831794e-03 1.8488744754e+00 -3.2023445283e+00 1.8488744754e+00 3.2023445283e+00 
66200 6.6415682529e+00 -1.7319972404e-03 1.8489238322e+00 -3.2024300168e+00 1.8489238322e+00 3.2024300168e+00 
66300 6.6415684085e+00 -1.6377018495e-03 1.8489706704e+00 -3.2025111429e+00 1.8489706704e+00 3.2025111429e+00 
66400 6.6415686168e+00 -1.5423621261e-03 1.8490149575e+00 -3.2025878503e+00 1.8490149575e+00 3.2025878503e+00 
66500 6.6415688749e+00 -1.4461422411e-03 1.8490566653e+00 -3.2026600903e+00 1.8490566653e+00 3.2026600903e+00 
66600 6.6415691796e+00 -1.3492051808e-03 1.8490957703e+00 -3.2027278222e+00 1.8490957703e+00 3.2027278222e+00 
66700 6.6415695276e+00 -1.2517125169e-03 1.8491322532e+00 -3.2027910125e+00 1.8491322532e+00 3.2027910125e+00 
66800 6.6415699154e+00 -1.1538241816e-03 1.8491660993e+00 -3.2028496356e+00 1.8491660993e+00 3.2028496356e+00 
66900 6.6415703393e+00 -1.0556982482e-03 1.8491972979e+00 -3.2029036731e+00 1.8491972979e+00 3.2029036731e+00 
67000 6.6415707957e+00 -9.5749071712e-04 1.8492258427e+00 -3.2029531143e+00 1.8492258427e+00 3.2029531143e+00 
67100 6.6415712806e+00 -8.5935530848e-04 1.8492517317e+00 -3.2029979554e+00 1.8492517317e+00 3.2029979554e+00 
67200 6.6415717902e+00 -7.6144326058e-04 1.8492749670e+00 -3.2030382000e+00 1.8492749670e+00 3.2030382000e+00 
67300 6.6415723206e+00 -6.6390313500e-04 1.8492955547e+00 -3.2030738589e+00 1.8492955547e+00 3.2030738589e+00 
67400 6.6415728679e+00 -5.6688062835e-04 1.8493135049e+00 -3.2031049495e+00 1.8493135049e+00 3.2031049495e+00 
67500 6.6415734281e+00 -4.7051839087e-04 1.8493288317e+00 -3.2031314963e+00 1.8493288317e+00 3.2031314963e+00 
67600 6.6415739975e+00 -3.7495585218e-04 1.8493415530e+00 -3.2031535304e+00 1.8493415530e+00 3.2031535304e+00 
67700 6.6415745722e+00 -2.8032905422e-04 1.8493516906e+00 -3.2031710891e+00 1.8493516906e+00 3.2031710891e+00 
67800 6.6415751486e+00 -1.8677049166e-04 1.8493592697e+00 -3.2031842165e+00 1.8493592697e+00 3.2031842165e+00 
67900 6.6415757230e+00 -9.4408959871e-05 1.8493643193e+00 -3.2031929627e+00 1.8493643193e+00 3.2031929627e+00 
68000 6.6415762919e+00 -3.3694106163e-06 1.8493668718e+00 -3.2031973837e+00 1.8493668718e+00 3.2031973837e+00 
68100 6.6415768521e+00 8.6126598347e-05 1.8493668718e+00 -3.2031973837e+00 1.8493668718e+00 3.2031973837e+00 
68200 6.6415774004e+00 1.7416551806e-04 1.8493645432e+00 -3.2031933506e+00 1.8493645432e+00 3.2031933506e+00 
68300 6.6415779337e+00 2.6053187095e-04 1.8493598344e+00 -3.2031851947e+00 1.8493598344e+00 3.2031851947e+00 
68400 6.6415784493e+00 3.4511737277e-04 1.8493527906e+00 -3.2031729944e+00 1.8493527906e+00 3.2031729944e+00 
68500 6.6415789446e+00 4.2781818393e-04 1.8493434598e+00 -3.2031568331e+00 1.8493434598e+00 3.2031568331e+00 
68600 6.6415794171e+00 5.0853500508e-04 1.8493318931e+00 -3.2031367989e+00 1.8493318931e+00 3.2031367989e+00 
68700 6.6415798647e+00 5.8717316446e-04 1.8493181440e+00 -3.2031129847e+00 1.8493181440e+00 3.2031129847e+00 
68800 6.6415802853e+00 6.6364269669e-04 1.8493022686e+00 -3.2030854877e+00 1.8493022686e+00 3.2030854877e+00 
68900 6.6415806774e+00 7.3785841320e-04 1.8492843256e+00 -3.2030544095e+00 1.8492843256e+00 3.2030544095e+00 
69000 6.6415810392e+00 8.0973996413e-04 1.8492643758e+00 -3.2030198554e+00 1.8492643758e+00 3.2030198554e+00 
69100 6.6415813697e+00 8.7921189188e-04 1.8492424822e+00 -3.2029819347e+00 1.8492424822e+00 3.2029819347e+00 
69200 6.6415816677e+00 9.4620367609e-04 1.8492187101e+00 -3.2029407601e+00 1.8492187101e+00 3.2029407601e+00 
69300 6.6415819324e+00 1.0106497703e-03 1.8491931262e+00 -3.2028964477e+00 1.8491931262e+00 3.2028964477e+00 
69400 6.6415821632e+00 1.0724896302e-03 1.8491657995e+00 -3.2028491164e+00 1.8491657995e+00 3.2028491164e+00 
69500 6.6415823599e+00 1.1316677336e-03 1.8491368003e+00 -3.2027988883e+00 1.8491368003e+00 3.2027988883e+00 
69600 6.6415825223e+00 1.1881335919e-03 1.8491062005e+00 -3.2027458879e+00 1.8491062005e+00 3.2027458879e+00 
69700 6.6415826504e+00 1.2418417541e-03 1.8490740734e+00 -3.2026902420e+00 1.8490740734e+00 3.2026902420e+00 
69800 6.6415827446e+00 1.2927518016e-03 1.8490404934e+00 -3.2026320798e+00 1.8490404934e+00 3.2026320798e+00 
69900 6.6415828053e+00 1.3408283363e-03 1.8490055361e+00 -3.2025715320e+00 1.8490055361e+00 3.2025715320e+00 
70000 6.6415828333e+00 1.3860409599e-03 1.8489692781e+00 -3.2025087314e+00 1.8489692781e+00 3.2025087314e+00 
70100 6.6415828295e+00 1.4283642457e-03 1.8489317968e+00 -3.2024438118e+00 1.8489317968e+00 3.2024438118e+00 
70200 6.6415827948e+00 1.4677777036e-03 1.8488931702e+00 -3.2023769086e+00 1.8488931702e+00 3.2023769086e+00 
70300 6.6415827304e+00 1.5042657364e-03 1.8488534769e+00 -3.2023081578e+00 1.8488534769e+00 3.2023081578e+00 
70400 6.6415826378e+00 1.5378175898e-03 1.8488127960e+00 -3.2022376964e+00 1.8488127960e+00 3.2022376964e+00 
70500 6.6415825183e+00 1.5684272952e-03 1.8487712069e+00 -3.2021656619e+00 1.8487712069e+00 3.2021656619e+00 
70600 6.6415823736e+00 1.5960936053e-03 1.8487287889e+00 -3.2020921918e+00 1.8487287889e+00 3.2020921918e+00 
70700 6.6415822054e+00 1.6208199237e-03 1.8486856218e+00 -3.2020174241e+00 1.8486856218e+00 3.2020174241e+00 
70800 6.6415820155e+00 1.6426142267e-03 1.8486417849e+00 -3.2019414964e+00 1.8486417849e+00 3.2019414964e+00 
70900 6.6415818057e+00 1.6614889808e-03 1.8485973574e+00 -3.2018645458e+00 1.8485973574e+00 3.2018645458e+00 
71000 6.6415815780e+00 1.6774610524e-03 1.8485524184e+00 -3.2017867092e+00 1.8485524184e+00 3.2017867092e+00 
71100 6.6415813344e+00 1.6905516128e-03 1.8485070463e+00 -3.2017081224e+00 1.8485070463e+00 3.2017081224e+00 
71200 6.6415810768e+00 1.7007860374e-03 1.8484613190e+00 -3.2016289204e+00 1.8484613190e+00 3.2016289204e+00 
71300 6.6415808073e+00 1.7081937993e-03 1.8484153138e+00 -3.2015492370e+00 1.8484153138e+00 3.2015492370e+00 
71400 6.6415805281e+00 1.7128083584e-03 1.8483691070e+00 -3.2014692044e+00 1.8483691070e+00 3.2014692044e+00 
71500 6.6415802410e+00 1.7146670451e-03 1.8483227742e+00 -3.2013889537e+00 1.8483227742e+00 3.2013889537e+00 
71600 6.6415799482e+00 1.7138109405e-03 1.8482763900e+00 -3.2013086139e+00 1.8482763900e+00 3.2013086139e+00 
71700 6.6415796517e+00 1.7102847511e-03 1.8482300278e+00 -3.2012283122e+00 1.8482300278e+00 3.2012283122e+00 
71800 6.6415793534e+00 1.7041366806e-03 1.8481837598e+00 -3.2011481737e+00 1.8481837598e+00 3.2011481737e+00 
71900 6.6415790552e+00 1.6954182974e-03 1.8481376570e+00 -3.2010683213e+00 1.8481376570e+00 3.2010683213e+00 
72000 6.6415787590e+00 1.6841843992e-03 1.8480917889e+00 -3.2009888754e+00 1.8480917889e+00 3.2009888754e+00 
72100 6.6415784666e+00 1.6704928739e-03 1.8480462236e+00 -3.2009099540e+00 1.8480462236e+00 3.2009099540e+00 
72200 6.6415781797e+00 1.6544045583e-03 1.8480010276e+00 -3.2008316722e+00 1.8480010276e+00 3.2008316722e+00 
72300 6.6415778998e+00 1.6359830938e-03 1.8479562658e+00 -3.2007541425e+00 1.8479562658e+00 3.2007541425e+00 
72400 6.6415776285e+00 1.6152947800e-03 1.8479120013e+00 -3.2006774741e+00 1.8479120013e+00 3.2006774741e+00 
72500 6.6415773672e+00 1.5924084264e-03 1.8478682955e+00 -3.2006017735e+00 1.8478682955e+00 3.2006017735e+00 
72600 6.6415771172e+00 1.5673952024e-03 1.8478252080e+00 -3.2005271437e+00 1.8478252080e+00 3.2005271437e+00 
72700 6.6415768797e+00 1.5403284857e-03 1.8477827962e+00 -3.2004536844e+00 1.8477827962e+00 3.2004536844e+00 
72800 6.6415766559e+00 1.5112837099e-03 1.8477411159e+00 -3.2003814920e+00 1.8477411159e+00 3.2003814920e+00 
72900 6.6415764465e+00 1.4803382110e-03 1.8477002206e+00 -3.2003106593e+00 1.8477002206e+00 3.2003106593e+00 
73000 6.6415762526e+00 1.4475710732e-03 1.8476601618e+00 -3.2002412754e+00 1.8476601618e+00 3.2002412754e+00 
73100 6.6415760748e+00 1.4130629750e-03 1.8476209889e+00 -3.2001734259e+00 1.8476209889e+00 3.2001734259e+00 
73200 6.6415759138e+00 1.3768960347e-03 1.8475827490e+00 -3.2001071924e+00 1.8475827490e+00 3.2001071924e+00 
73300 6.6415757699e+00 1.3391536560e-03 1.8475454870e+00 -3.2000426528e+00 1.8475454870e+00 3.2000426528e+00 
73400 6.6415756435e+00 1.2999203749e-03 1.8475092457e+00 -3.1999798810e+00 1.8475092457e+00 3.1999798810e+00 
73500 6.6415755350e+00 1.2592817063e-03 1.8474740654e+00 -3.1999189470e+00 1.8474740654e+00 3.1999189470e+00 
73600 6.6415754443e+00 1.2173239923e-03 1.8474399844e+00 -3.1998599169e+00 1.8474399844e+00 3.1998599169e+00 
73700 6.6415753715e+00 1.1741342514e-03 1.8474070382e+00 -3.1998028525e+00 1.8474070382e+00 3.1998028525e+00 
73800 6.6415753165e+00 1.1298000293e-03 1.8473752604e+00 -3.1997478117e+00 1.8473752604e+00 3.1997478117e+00 
73900 6.6415752790e+00 1.0844092513e-03 1.8473446820e+00 -3.1996948483e+00 1.8473446820e+00 3.1996948483e+00 
74000 6.6415752588e+00 1.0380500764e-03 1.8473153316e+00 -3.1996440119e+00 1.8473153316e+00 3.1996440119e+00 
74100 6.6415752554e+00 9.9081075384e-04 1.8472872355e+00 -3.1995953480e+00 1.8472872355e+00 3.1995953480e+00 
74200 6.6415752683e+00 9.4277948155e-04 1.8472604176e+00 -3.1995488980e+00 1.8472604176e+00 3.1995488980e+00 
74300 6.6415752970e+00 8.9404426751e-04 1.8472348993e+00 -3.1995046991e+00 1.8472348993e+00 3.1995046991e+00 
74400 6.6415753407e+00 8.4469279345e-04 1.8472106998e+00 -3.1994627844e+00 1.8472106998e+00 3.1994627844e+00 
74500 6.6415753987e+00 7.9481228152e-04 1.8471878359e+00 -3.1994231828e+00 1.8471878359e+00 3.1994231828e+00 
74600 6.6415754702e+00 7.4448936399e-04 1.8471663218e+00 -3.1993859194e+00 1.8471663218e+00 3.1993859194e+00 
74700 6.6415755543e+00 6.9380995605e-04 1.8471461696e+00 -3.1993510148e+00 1.8471461696e+00 3.1993510148e+00 
74800 6.6415756502e+00 6.4285913209e-04 1.8471273891e+00 -3.1993184859e+00 1.8471273891e+00 3.1993184859e+00 
74900 6.6415757568e+00 5.9172100528e-04 1.8471099875e+00 -3.1992883455e+00 1.8471099875e+00 3.1992883455e+00 
75000 6.6415758731e+00 5.4047861085e-04 1.8470939700e+00 -3.1992606025e+00 1.8470939700e+00 3.1992606025e+00 
75100 6.6415759982e+00 4.8921379310e-04 1.8470793395e+00 -3.1992352617e+00 1.8470793395e+00 3.1992352617e+00 
75200 6.6415761310e+00 4.3800709620e-04 1.8470660967e+00 -3.1992123243e+00 1.8470660967e+00 3.1992123243e+00 
75300 6.6415762703e+00 3.8693765900e-04 1.8470542398e+00 -3.1991917877e+00 1.8470542398e+00 3.1991917877e+00 
75400 6.6415764153e+00 3.3608311381e-04 1.8470437654e+00 -3.1991736455e+00 1.8470437654e+00 3.1991736455e+00 
75500 6.6415765647e+00 2.8551948943e-04 1.8470346675e+00 -3.1991578875e+00 1.8470346675e+00 3.1991578875e+00 
75600 6.6415767175e+00 2.3532111828e-04 1.8470269384e+00 -3.1991445003e+00 1.8470269384e+00 3.1991445003e+00 
75700 6.6415768727e+00 1.8556054786e-04 1.8470205681e+00 -3.1991334667e+00 1.8470205681e+00 3.1991334667e+00 
75800 6.6415770292e+00 1.3630845663e-04 1.8470155449e+00 -3.1991247661e+00 1.8470155449e+00 3.1991247661e+00 
75900 6.6415771861e+00 8.7633574152e-05 1.8470118549e+00 -3.1991183749e+00 1.8470118549e+00 3.1991183749e+00 
76000 6.6415773423e+00 3.9602605800e-05 1.8470094826e+00 -3.1991142660e+00 1.8470094826e+00 3.1991142660e+00 
76100 6.6415774968e+00 -6.5302075394e-06 1.8470094826e+00 -3.1991142660e+00 1.8470094826e+00 3.1991142660e+00 
76200 6.6415776488e+00 -5.3303584138e-05 1.8470094826e+00 -3.1991142660e+00 1.8470094826e+00 3.1991142660e+00 
76300 6.6415777977e+00 -1.0064505861e-04 1.8470094826e+00 -3.1991142660e+00 1.8470094826e+00 3.1991142660e+00 
76400 6.6415779424e+00 -1.4546061264e-04 1.8470122072e+00 -3.1991189850e+00 1.8470122072e+00 3.1991189850e+00 
76500 6.6415780821e+00 -1.8933230016e-04 1.8470161449e+00 -3.1991258054e+00 1.8470161449e+00 3.1991258054e+00 
76600 6.6415782162e+00 -2.3220682689e-04 1.8470212703e+00 -3.1991346828e+00 1.8470212703e+00 3.1991346828e+00 
76700 6.6415783440e+00 -2.7403332628e-04 1.8470275563e+00 -3.1991455704e+00 1.8470275563e+00 3.1991455704e+00 
76800 6.6415784649e+00 -3.1476339843e-04 1.8470349745e+00 -3.1991584192e+00 1.8470349745e+00 3.1991584192e+00 
76900 6.6415785785e+00 -3.5435114453e-04 1.8470434953e+00 -3.1991731776e+00 1.8470434953e+00 3.1991731776e+00 
77000 6.6415786842e+00 -3.9275319682e-04 1.8470530877e+00 -3.1991897921e+00 1.8470530877e+00 3.1991897921e+00 
77100 6.6415787817e+00 -4.2992874408e-04 1.8470637196e+00 -3.1992082071e+00 1.8470637196e+00 3.1992082071e+00 
77200 6.6415788705e+00 -4.6583955278e-04 1.8470753577e+00 -3.1992283650e+00 1.8470753577e+00 3.1992283650e+00 
77300 6.6415789505e+00 -5.0044998380e-04 1.8470879679e+00 -3.1992502065e+00 1.8470879679e+00 3.1992502065e+00 
77400 6.6415790215e+00 -5.3372700486e-04 1.8471015150e+00 -3.1992736706e+00 1.8471015150e+00 3.1992736706e+00 
77500 6.6415790832e+00 -5.6564019878e-04 1.8471159627e+00 -3.1992986948e+00 1.8471159627e+00 3.1992986948e+00 
77600 6.6415791356e+00 -5.9616176745e-04 1.8471312741e+00 -3.1993252150e+00 1.8471312741e+00 3.1993252150e+00 
77700 6.6415791787e+00 -6.2526653179e-04 1.8471474117e+00 -3.1993531661e+00 1.8471474117e+00 3.1993531661e+00 
77800 6.6415792125e+00 -6.5293192756e-04 1.8471643369e+00 -3.1993824814e+00 1.8471643369e+00 3.1993824814e+00 
77900 6.6415792371e+00 -6.7913799731e-04 1.8471820108e+00 -3.1994130935e+00 1.8471820108e+00 3.1994130935e+00 
78000 6.6415792526e+00 -7.0386737843e-04 1.8472003939e+00 -3.1994449340e+00 1.8472003939e+00 3.1994449340e+00 
78100 6.6415792593e+00 -7.2710528735e-04 1.8472194462e+00 -3.1994779336e+00 1.8472194462e+00 3.1994779336e+00 
78200 6.6415792574e+00 -7.4883950010e-04 1.8472391273e+00 -3.1995120223e+00 1.8472391273e+00 3.1995120223e+00 
78300 6.6415792471e+00 -7.6906032925e-04 1.8472593965e+00 -3.1995471295e+00 1.8472593965e+00 3.1995471295e+00 
78400 6.6415792289e+00 -7.8776059733e-04 1.8472802128e+00 -3.1995831844e+00 1.8472802128e+00 3.1995831844e+00 
78500 6.6415792030e+00 -8.0493560686e-04 1.8473015350e+00 -3.1996201156e+00 1.8473015350e+00 3.1996201156e+00 
78600 6.6415791699e+00 -8.2058310704e-04 1.8473233219e+00 -3.1996578515e+00 1.8473233219e+00 3.1996578515e+00 
78700 6.6415791301e+00 -8.3470325732e-04 1.8473455320e+00 -3.1996963205e+00 1.8473455320e+00 3.1996963205e+00 
78800 6.6415790839e+00 -8.4729858778e-04 1.8473681240e+00 -3.1997354510e+00 1.8473681240e+00 3.1997354510e+00 
78900 6.6415790319e+00 -8.5837395663e-04 1.8473910566e+00 -3.1997751715e+00 1.8473910566e+00 3.1997751715e+00 
79000 6.6415789746e+00 -8.6793650483e-04 1.8474142887e+00 -3.1998154107e+00 1.8474142887e+00 3.1998154107e+00 
79100 6.6415789125e+00 -8.7599560790e-04 1.8474377793e+00 -3.1998560977e+00 1.8474377793e+00 3.1998560977e+00 
79200 6.6415788461e+00 -8.8256282520e-04 1.8474614878e+00 -3.1998971619e+00 1.8474614878e+00 3.1998971619e+00 
79300 6.6415787761e+00 -8.8765184666e-04 1.8474853737e+00 -3.1999385334e+00 1.8474853737e+00 3.1999385334e+00 
79400 6.6415787029e+00 -8.9127843713e-04 1.8475093970e+00 -3.1999801430e+00 1.8475093970e+00 3.1999801430e+00 
79500 6.6415786272e+00 -8.9346037847e-04 1.8475335181e+00 -3.2000219220e+00 1.8475335181e+00 3.2000219220e+00 
79600 6.6415785494e+00 -8.9421740953e-04 1.8475576980e+00 -3.2000638028e+00 1.8475576980e+00 3.2000638028e+00 
79700 6.6415784701e+00 -8.9357116408e-04 1.8475818980e+00 -3.2001057185e+00 1.8475818980e+00 3.2001057185e+00 
79800 6.6415783899e+00 -8.9154510690e-04 1.8476060802e+00 -3.2001476033e+00 1.8476060802e+00 3.2001476033e+00 
79900 6.6415783092e+00 -8.8816446806e-04 1.8476302073e+00 -3.2001893927e+00 1.8476302073e+00 3.2001893927e+00 
80000 6.6415782287e+00 -8.8345617562e-04 1.8476542426e+00 -3.2002310230e+00 1.8476542426e+00 3.2002310230e+00 
80100 6.6415781488e+00 -8.7744878681e-04 1.8476781502e+00 -3.2002724321e+00 1.8476781502e+00 3.2002724321e+00 
80200 6.6415780699e+00 -8.7017241780e-04 1.8477018949e+00 -3.2003135591e+00 1.8477018949e+00 3.2003135591e+00 
80300 6.6415779926e+00 -8.6165867228e-04 1.8477254423e+00 -3.2003543445e+00 1.8477254423e+00 3.2003543445e+00 
80400 6.6415779173e+00 -8.5194056884e-04 1.8477487591e+00 -3.2003947304e+00 1.8477487591e+00 3.2003947304e+00 
80500 6.6415778443e+00 -8.4105246744e-04 1.8477718126e+00 -3.2004346603e+00 1.8477718126e+00 3.2004346603e+00 
80600 6.6415777741e+00 -8.2902999491e-04 1.8477945712e+00 -3.2004740793e+00 1.8477945712e+00 3.2004740793e+00 
80700 6.6415777069e+00 -8.1590996982e-04 1.8478170042e+00 -3.2005129344e+00 1.8478170042e+00 3.2005129344e+00 
80800 6.6415776432e+00 -8.0173032658e-04 1.8478390820e+00 -3.2005511742e+00 1.8478390820e+00 3.2005511742e+00 
80900 6.6415775833e+00 -7.8653003918e-04 1.8478607757e+00 -3.2005887489e+00 1.8478607757e+00 3.2005887489e+00 
81000 6.6415775272e+00 -7.7034904446e-04 1.8478820580e+00 -3.2006256108e+00 1.8478820580e+00 3.2006256108e+00 
81100 6.6415774754e+00 -7.5322816517e-04 1.8479029021e+00 -3.2006617139e+00 1.8479029021e+00 3.2006617139e+00 
81200 6.6415774279e+00 -7.3520903283e-04 1.8479232828e+00 -3.2006970142e+00 1.8479232828e+00 3.2006970142e+00 
81300 6.6415773850e+00 -7.1633401067e-04 1.8479431756e+00 -3.2007314697e+00 1.8479431756e+00 3.2007314697e+00 
81400 6.6415773467e+00 -6.9664611654e-04 1.8479625576e+00 -3.2007650402e+00 1.8479625576e+00 3.2007650402e+00 
81500 6.6415773132e+00 -6.7618894613e-04 1.8479814067e+00 -3.2007976878e+00 1.8479814067e+00 3.2007976878e+00 
81600 6.6415772845e+00 -6.5500659644e-04 1.8479997020e+00 -3.2008293763e+00 1.8479997020e+00 3.2008293763e+00 
81700 6.6415772607e+00 -6.3314358971e-04 1.8480174241e+00 -3.2008600718e+00 1.8480174241e+00 3.2008600718e+00 
81800 6.6415772416e+00 -6.1064479790e-04 1.8480345545e+00 -3.2008897425e+00 1.8480345545e+00 3.2008897425e+00 
81900 6.6415772274e+00 -5.8755536777e-04 1.8480510760e+00 -3.2009183586e+00 1.8480510760e+00 3.2009183586e+00 
82000 6.6415772179e+00 -5.6392064673e-04 1.8480669726e+00 -3.2009458924e+00 1.8480669726e+00 3.2009458924e+00 
82100 6.6415772131e+00 -5.3978610955e-04 1.8480822297e+00 -3.2009723184e+00 1.8480822297e+00 3.2009723184e+00 
82200 6.6415772128e+00 -5.1519728597e-04 1.8480968336e+00 -3.2009976132e+00 1.8480968336e+00 3.2009976132e+00 
82300 6.6415772169e+00 -4.9019968937e-04 1.8481107723e+00 -3.2010217556e+00 1.8481107723e+00 3.2010217556e+00 
82400 6.6415772252e+00 -4.6483874661e-04 1.8481240345e+00 -3.2010447264e+00 1.8481240345e+00 3.2010447264e+00 
82500 6.6415772376e+00 -4.3915972900e-04 1.8481366104e+00 -3.2010665086e+00 1.8481366104e+00 3.2010665086e+00 
82600 6.6415772538e+00 -4.1320768463e-04 1.8481484916e+00 -3.2010870874e+00 1.8481484916e+00 3.2010870874e+00 
82700 6.6415772736e+00 -3.8702737210e-04 1.8481596706e+00 -3.2011064499e+00 1.8481596706e+00 3.2011064499e+00 
82800 6.6415772969e+00 -3.6066319572e-04 1.8481701412e+00 -3.2011245856e+00 1.8481701412e+00 3.2011245856e+00 
82900 6.6415773232e+00 -3.3415914217e-04 1.8481798985e+00 -3.2011414857e+00 1.8481798985e+00 3.2011414857e+00 
83000 6.6415773525e+00 -3.0755871889e-04 1.8481889387e+00 -3.2011571439e+00 1.8481889387e+00 3.2011571439e+00 
83100 6.6415773844e+00 -2.8090489409e-04 1.8481972593e+00 -3.2011715555e+00 1.8481972593e+00 3.2011715555e+00 
83200 6.6415774186e+00 -2.5424003853e-04 1.8482048587e+00 -3.2011847181e+00 1.8482048587e+00 3.2011847181e+00 
83300 6.6415774548e+00 -2.2760586915e-04 1.8482117367e+00 -3.2011966312e+00 1.8482117367e+00 3.2011966312e+00 
83400 6.6415774929e+00 -2.0104339449e-04 1.8482178942e+00 -3.2012072962e+00 1.8482178942e+00 3.2012072962e+00 
83500 6.6415775324e+00 -1.7459286216e-04 1.8482233331e+00 -3.2012167166e+00 1.8482233331e+00 3.2012167166e+00 
83600 6.6415775731e+00 -1.4829370817e-04 1.8482280563e+00 -3.2012248975e+00 1.8482280563e+00 3.2012248975e+00 
83700 6.6415776146e+00 -1.2218450844e-04 1.8482320681e+00 -3.2012318461e+00 1.8482320681e+00 3.2012318461e+00 
83800 6.6415776568e+00 -9.6302932185e-05 1.8482353736e+00 -3.2012375713e+00 1.8482353736e+00 3.2012375713e+00 
83900 6.6415776994e+00 -7.0685697662e-05 1.8482379788e+00 -3.2012420838e+00 1.8482379788e+00 3.2012420838e+00 
84000 6.6415777420e+00 -4.7484781918e-05 1.8482379788e+00 -3.2012420838e+00 1.8482379788e+00 3.2012420838e+00 
84100 6.6415777843e+00 -2.3878617577e-05 1.8482379788e+00 -3.2012420838e+00 1.8482379788e+00 3.2012420838e+00 
84200 6.6415778261e+00 9.3992238756e-08 1.8482379788e+00 -3.2012420838e+00 1.8482379788e+00 3.2012420838e+00 
84300 6.6415778672e+00 2.4394915711e-05 1.8482379788e+00 -3.2012420838e+00 1.8482379788e+00 3.2012420838e+00 
84400 6.6415779073e+00 4.8986713707e-05 1.8482379788e+00 -3.2012420838e+00 1.8482379788e+00 3.2012420838e+00 
84500 6.6415779465e+00 7.3832659948e-05 1.8482379788e+00 -3.2012420838e+00 1.8482379788e+00 3.2012420838e+00 
84600 6.6415779843e+00 9.6686025991e-05 1.8482359814e+00 -3.2012386242e+00 1.8482359814e+00 3.2012386242e+00 
84700 6.6415780205e+00 1.1901920949e-04 1.8482333658e+00 -3.2012340938e+00 1.8482333658e+00 3.2012340938e+00 
84800 6.6415780551e+00 1.4080579263e-04 1.8482301460e+00 -3.2012285170e+00 1.8482301460e+00 3.2012285170e+00 
84900 6.6415780877e+00 1.6202062302e-04 1.8482263368e+00 -3.2012219192e+00 1.8482263368e+00 3.2012219192e+00 
85000 6.6415781184e+00 1.8263983331e-04 1.8482219537e+00 -3.2012143274e+00 1.8482219537e+00 3.2012143274e+00 
85100 6.6415781469e+00 2.0264085855e-04 1.8482170127e+00 -3.2012057694e+00 1.8482170127e+00 3.2012057694e+00 
85200 6.6415781732e+00 2.2200245122e-04 1.8482115306e+00 -3.2011962742e+00 1.8482115306e+00 3.2011962742e+00 
85300 6.6415781972e+00 2.4070469396e-04 1.8482055248e+00 -3.2011858717e+00 1.8482055248e+00 3.2011858717e+00 
85400 6.6415782188e+00 2.5872901001e-04 1.8481990129e+00 -3.2011745929e+00 1.8481990129e+00 3.2011745929e+00 
85500 6.6415782379e+00 2.7605817138e-04 1.8481920134e+00 -3.2011624694e+00 1.8481920134e+00 3.2011624694e+00 
85600 6.6415782545e+00 2.9267630472e-04 1.8481845451e+00 -3.2011495339e+00 1.8481845451e+00 3.2011495339e+00 
85700 6.6415782686e+00 3.0856889511e-04 1.8481766272e+00 -3.2011358196e+00 1.8481766272e+00 3.2011358196e+00 
85800 6.6415782802e+00 3.2372278747e-04 1.8481682793e+00 -3.2011213606e+00 1.8481682793e+00 3.2011213606e+00 
85900 6.6415782893e+00 3.3812618595e-04 1.8481595213e+00 -3.2011061914e+00 1.8481595213e+00 3.2011061914e+00 
86000 6.6415782959e+00 3.5176865108e-04 1.8481503737e+00 -3.2010903473e+00 1.8481503737e+00 3.2010903473e+00 
86100 6.6415783000e+00 3.6464109493e-04 1.8481408569e+00 -3.2010738637e+00 1.8481408569e+00 3.2010738637e+00 
86200 6.6415783018e+00 3.7673577416e-04 1.8481309919e+00 -3.2010567769e+00 1.8481309919e+00 3.2010567769e+00 
86300 6.6415783012e+00 3.8804628103e-04 1.8481207995e+00 -3.2010391233e+00 1.8481207995e+00 3.2010391233e+00 
86400 6.6415782984e+00 3.9856753250e-04 1.8481103011e+00 -3.2010209395e+00 1.8481103011e+00 3.2010209395e+00 
86500 6.6415782934e+00 4.0829575738e-04 1.8480995180e+00 -3.2010022627e+00 1.8480995180e+00 3.2010022627e+00 
86600 6.6415782863e+00 4.1722848160e-04 1.8480884717e+00 -3.2009831298e+00 1.8480884717e+00 3.2009831298e+00 
86700 6.6415782773e+00 4.2536451173e-04 1.8480771836e+00 -3.2009635783e+00 1.8480771836e+00 3.2009635783e+00 
86800 6.6415782665e+00 4.3270391663e-04 1.8480656753e+00 -3.2009436453e+00 1.8480656753e+00 3.2009436453e+00 
86900 6.6415782540e+00 4.3924800747e-04 1.8480539684e+00 -3.2009233683e+00 1.8480539684e+00 3.2009233683e+00 
87000 6.6415782399e+00 4.4499931612e-04 1.8480420843e+00 -3.2009027845e+00 1.8480420843e+00 3.2009027845e+00 
87100 6.6415782244e+00 4.4996157185e-04 1.8480300446e+00 -3.2008819311e+00 1.8480300446e+00 3.2008819311e+00 
87200 6.6415782076e+00 4.5413967660e-04 1.8480178705e+00 -3.2008608450e+00 1.8480178705e+00 3.2008608450e+00 
87300 6.6415781897e+00 4.5753967878e-04 1.8480055833e+00 -3.2008395629e+00 1.8480055833e+00 3.2008395629e+00 
87400 6.6415781707e+00 4.6016874559e-04 1.8479932040e+00 -3.2008181214e+00 1.8479932040e+00 3.2008181214e+00 
87500 6.6415781509e+00 4.6203513412e-04 1.8479807535e+00 -3.2007965565e+00 1.8479807535e+00 3.2007965565e+00 
87600 6.6415781305e+00 4.6314816113e-04 1.8479682525e+00 -3.2007749041e+00 1.8479682525e+00 3.2007749041e+00 
87700 6.6415781095e+00 4.6351817156e-04 1.8479557212e+00 -3.2007531993e+00 1.8479557212e+00 3.2007531993e+00 
87800 6.6415780880e+00 4.6315650608e-04 1.8479431798e+00 -3.2007314770e+00 1.8479431798e+00 3.2007314770e+00 
87900 6.6415780664e+00 4.6207546744e-04 1.8479306482e+00 -3.2007097715e+00 1.8479306482e+00 3.2007097715e+00 
88000 6.6415780446e+00 4.6028828588e-04 1.8479181457e+00 -3.2006881166e+00 1.8479181457e+00 3.2006881166e+00 
88100 6.6415780229e+00 4.5780908364e-04 1.8479056915e+00 -3.2006665452e+00 1.8479056915e+00 3.2006665452e+00 
88200 6.6415780013e+00 4.5465283860e-04 1.8478933042e+00 -3.2006450899e+00 1.8478933042e+00 3.2006450899e+00 
88300 6.6415779801e+00 4.5083534718e-04 1.8478810023e+00 -3.2006237824e+00 1.8478810023e+00 3.2006237824e+00 
88400 6.6415779593e+00 4.4637318648e-04 1.8478688036e+00 -3.2006026536e+00 1.8478688036e+00 3.2006026536e+00 
88500 6.6415779390e+00 4.4128367585e-04 1.8478567256e+00 -3.2005817338e+00 1.8478567256e+00 3.2005817338e+00 
88600 6.6415779193e+00 4.3558483788e-04 1.8478447852e+00 -3.2005610524e+00 1.8478447852e+00 3.2005610524e+00 
88700 6.6415779004e+00 4.2929535888e-04 1.8478329989e+00 -3.2005406380e+00 1.8478329989e+00 3.2005406380e+00 
88800 6.6415778824e+00 4.2243454898e-04 1.8478213827e+00 -3.2005205182e+00 1.8478213827e+00 3.2005205182e+00 
88900 6.6415778653e+00 4.1502230188e-04 1.8478099521e+00 -3.2005007198e+00 1.8478099521e+00 3.2005007198e+00 
89000 6.6415778492e+00 4.0707905429e-04 1.8477987220e+00 -3.2004812687e+00 1.8477987220e+00 3.2004812687e+00 
89100 6.6415778341e+00 3.9862574522e-04 1.8477877068e+00 -3.2004621898e+00 1.8477877068e+00 3.2004621898e+00 
89200 6.6415778202e+00 3.8968377507e-04 1.8477769202e+00 -3.2004435069e+00 1.8477769202e+00 3.2004435069e+00 
89300 6.6415778075e+00 3.8027496470e-04 1.8477663756e+00 -3.2004252430e+00 1.8477663756e+00 3.2004252430e+00 
89400 6.6415777961e+00 3.7042151447e-04 1.8477560855e+00 -3.2004074200e+00 1.8477560855e+00 3.2004074200e+00 
89500 6.6415777858e+00 3.6014596335e-04 1.8477460619e+00 -3.2003900587e+00 1.8477460619e+00 3.2003900587e+00 
89600 6.6415777769e+00 3.4947114817e-04 1.8477363164e+00 -3.2003731790e+00 1.8477363164e+00 3.2003731790e+00 
89700 6.6415777693e+00 3.3842016300e-04 1.8477268597e+00 -3.2003567994e+00 1.8477268597e+00 3.2003567994e+00 
89800 6.6415777630e+00 3.2701631889e-04 1.8477177019e+00 -3.2003409378e+00 1.8477177019e+00 3.2003409378e+00 
89900 6.6415777580e+00 3.1528310382e-04 1.8477088527e+00 -3.2003256105e+00 1.8477088527e+00 3.2003256105e+00 
90000 6.6415777543e+00 3.0324414304e-04 1.8477003210e+00 -3.2003108331e+00 1.8477003210e+00 3.2003108331e+00 
90100 6.6415777519e+00 2.9092315987e-04 1.8476921150e+00 -3.2002966200e+00 1.8476921150e+00 3.2002966200e+00 
90200 6.6415777507e+00 2.7834393698e-04 1.8476842424e+00 -3.2002829842e+00 1.8476842424e+00 3.2002829842e+00 
90300 6.6415777508e+00 2.6553027815e-04 1.8476767102e+00 -3.2002699380e+00 1.8476767102e+00 3.2002699380e+00 
90400 6.6415777520e+00 2.5250597069e-04 1.8476695247e+00 -3.2002574923e+00 1.8476695247e+00 3.2002574923e+00 
90500 6.6415777544e+00 2.3929474844e-04 1.8476626916e+00 -3.2002456571e+00 1.8476626916e+00 3.2002456571e+00 
90600 6.6415777579e+00 2.2592025550e-04 1.8476562160e+00 -3.2002344410e+00 1.8476562160e+00 3.2002344410e+00 
90700 6.6415777624e+00 2.1240601064e-04 1.8476501023e+00 -3.2002238518e+00 1.8476501023e+00 3.2002238518e+00 
90800 6.6415777679e+00 1.9877537256e-04 1.8476443543e+00 -3.2002138959e+00 1.8476443543e+00 3.2002138959e+00 
90900 6.6415777744e+00 1.8505150587e-04 1.8476389751e+00 -3.2002045790e+00 1.8476389751e+00 3.2002045790e+00 
91000 6.6415777816e+00 1.7125734804e-04 1.8476339673e+00 -3.2001959052e+00 1.8476339673e+00 3.2001959052e+00 
91100 6.6415777897e+00 1.5741557712e-04 1.8476293328e+00 -3.2001878780e+00 1.8476293328e+00 3.2001878780e+00 
91200 6.6415777984e+00 1.4354858052e-04 1.8476250729e+00 -3.2001804996e+00 1.8476250729e+00 3.2001804996e+00 
91300 6.6415778077e+00 1.2967842470e-04 1.8476211882e+00 -3.2001737712e+00 1.8476211882e+00 3.2001737712e+00 
91400 6.6415778177e+00 1.1582682577e-04 1.8476176789e+00 -3.2001676928e+00 1.8476176789e+00 3.2001676928e+00 
91500 6.6415778280e+00 1.0201512133e-04 1.8476145444e+00 -3.2001622637e+00 1.8476145444e+00 3.2001622637e+00 
91600 6.6415778388e+00 8.8264243124e-05 1.8476117837e+00 -3.2001574820e+00 1.8476117837e+00 3.2001574820e+00 
91700 6.6415778499e+00 7.4594690960e-05 1.8476093951e+00 -3.2001533448e+00 1.8476093951e+00 3.2001533448e+00 
91800 6.6415778612e+00 6.1026507621e-05 1.8476073764e+00 -3.2001498484e+00 1.8476073764e+00 3.2001498484e+00 
91900 6.6415778728e+00 4.9409567983e-05 1.8476073764e+00 -3.2001498484e+00 1.8476073764e+00 3.2001498484e+00 
92000 6.6415778843e+00 3.7544729226e-05 1.8476073764e+00 -3.2001498484e+00 1.8476073764e+00 3.2001498484e+00 
92100 6.6415778958e+00 2.5452716674e-05 1.8476073764e+00 -3.2001498484e+00 1.8476073764e+00 3.2001498484e+00 
92200 6.6415779072e+00 1.3153928579e-05 1.8476073764e+00 -3.2001498484e+00 1.8476073764e+00 3.2001498484e+00 
92300 6.6415779185e+00 6.6842382166e-07 1.8476073764e+00 -3.2001498484e+00 1.8476073764e+00 3.2001498484e+00 
92400 6.6415779296e+00 -1.1984089772e-05 1.8476073764e+00 -3.2001498484e+00 1.8476073764e+00 3.2001498484e+00 
92500 6.6415779404e+00 -2.4784266491e-05 1.8476073764e+00 -3.2001498484e+00 1.8476073764e+00 3.2001498484e+00 
92600 6.6415779509e+00 -3.7713133144e-05 1.8476073764e+00 -3.2001498484e+00 1.8476073764e+00 3.2001498484e+00 
92700 6.6415779612e+00 -5.0752098892e-05 1.8476073764e+00 -3.2001498484e+00 1.8476073764e+00 3.2001498484e+00 
92800 6.6415779711e+00 -6.3882964408e-05 1.8476073764e+00 -3.2001498484e+00 1.8476073764e+00 3.2001498484e+00 
92900 6.6415779806e+00 -7.7087930491e-05 1.8476073764e+00 -3.2001498484e+00 1.8476073764e+00 3.2001498484e+00 
93000 6.6415779895e+00 -8.8037839870e-05 1.8476094626e+00 -3.2001534617e+00 1.8476094626e+00 3.2001534617e+00 
93100 6.6415779978e+00 -9.8679650562e-05 1.8476118450e+00 -3.2001575883e+00 1.8476118450e+00 3.2001575883e+00 
93200 6.6415780056e+00 -1.0900153413e-04 1.8476145155e+00 -3.2001622137e+00 1.8476145155e+00 3.2001622137e+00 
93300 6.6415780127e+00 -1.1899235852e-04 1.8476174653e+00 -3.2001673228e+00 1.8476174653e+00 3.2001673228e+00 
93400 6.6415780192e+00 -1.2864169390e-04 1.8476206855e+00 -3.2001729003e+00 1.8476206855e+00 3.2001729003e+00 
93500 6.6415780251e+00 -1.3793981725e-04 1.8476241667e+00 -3.2001789301e+00 1.8476241667e+00 3.2001789301e+00 
93600 6.6415780303e+00 -1.4687771584e-04 1.8476278996e+00 -3.2001853956e+00 1.8476278996e+00 3.2001853956e+00 
93700 6.6415780348e+00 -1.5544708952e-04 1.8476318744e+00 -3.2001922801e+00 1.8476318744e+00 3.2001922801e+00 
93800 6.6415780386e+00 -1.6364035189e-04 1.8476360811e+00 -3.2001995663e+00 1.8476360811e+00 3.2001995663e+00 
93900 6.6415780417e+00 -1.7145063039e-04 1.8476405094e+00 -3.2002072365e+00 1.8476405094e+00 3.2002072365e+00 
94000 6.6415780442e+00 -1.7887176521e-04 1.8476451492e+00 -3.2002152727e+00 1.8476451492e+00 3.2002152727e+00 
94100 6.6415780460e+00 -1.8589830717e-04 1.8476499897e+00 -3.2002236567e+00 1.8476499897e+00 3.2002236567e+00 
94200 6.6415780471e+00 -1.9252551457e-04 1.8476550204e+00 -3.2002323701e+00 1.8476550204e+00 3.2002323701e+00 
94300 6.6415780476e+00 -1.9874934891e-04 1.8476602304e+00 -3.2002413941e+00 1.8476602304e+00 3.2002413941e+00 
94400 6.6415780474e+00 -2.0456646967e-04 1.8476656088e+00 -3.2002507098e+00 1.8476656088e+00 3.2002507098e+00 
94500 6.6415780467e+00 -2.0997422808e-04 1.8476711446e+00 -3.2002602981e+00 1.8476711446e+00 3.2002602981e+00 
94600 6.6415780453e+00 -2.1497065993e-04 1.8476768267e+00 -3.2002701398e+00 1.8476768267e+00 3.2002701398e+00 
94700 6.6415780434e+00 -2.1955447742e-04 1.8476826440e+00 -3.2002802157e+00 1.8476826440e+00 3.2002802157e+00 
94800 6.6415780410e+00 -2.2372506007e-04 1.8476885854e+00 -3.2002905065e+00 1.8476885854e+00 3.2002905065e+00 
94900 6.6415780380e+00 -2.2748244487e-04 1.8476946396e+00 -3.2003009926e+00 1.8476946396e+00 3.2003009926e+00 
95000 6.6415780346e+00 -2.3082731544e-04 1.8477007954e+00 -3.2003116549e+00 1.8477007954e+00 3.2003116549e+00 
95100 6.6415780308e+00 -2.3376099042e-04 1.8477070418e+00 -3.2003224739e+00 1.8477070418e+00 3.2003224739e+00 
95200 6.6415780266e+00 -2.3628541111e-04 1.8477133675e+00 -3.2003334303e+00 1.8477133675e+00 3.2003334303e+00 
95300 6.6415780221e+00 -2.3840312825e-04 1.8477197615e+00 -3.2003445050e+00 1.8477197615e+00 3.2003445050e+00 
95400 6.6415780172e+00 -2.4011728820e-04 1.8477262128e+00 -3.2003556790e+00 1.8477262128e+00 3.2003556790e+00 
95500 6.6415780121e+00 -2.4143161830e-04 1.8477327104e+00 -3.2003669332e+00 1.8477327104e+00 3.2003669332e+00 
95600 6.6415780068e+00 -2.4235041167e-04 1.8477392436e+00 -3.2003782491e+00 1.8477392436e+00 3.2003782491e+00 
95700 6.6415780012e+00 -2.4287851129e-04 1.8477458016e+00 -3.2003896079e+00 1.8477458016e+00 3.2003896079e+00 
95800 6.6415779955e+00 -2.4302129360e-04 1.8477523739e+00 -3.2004009914e+00 1.8477523739e+00 3.2004009914e+00 
95900 6.6415779898e+00 -2.4278465143e-04 1.8477589501e+00 -3.2004123816e+00 1.8477589501e+00 3.2004123816e+00 
96000 6.6415779839e+00 -2.4217497645e-04 1.8477655198e+00 -3.2004237607e+00 1.8477655198e+00 3.2004237607e+00 
96100 6.6415779780e+00 -2.4119914121e-04 1.8477720730e+00 -3.2004351112e+00 1.8477720730e+00 3.2004351112e+00 
96200 6.6415779722e+00 -2.3986448055e-04 1.8477785997e+00 -3.2004464159e+00 1.8477785997e+00 3.2004464159e+00 
96300 6.6415779664e+00 -2.3817877279e-04 1.8477850903e+00 -3.2004576579e+00 1.8477850903e+00 3.2004576579e+00 
96400 6.6415779606e+00 -2.3615022038e-04 1.8477915353e+00 -3.2004688210e+00 1.8477915353e+00 3.2004688210e+00 
96500 6.6415779550e+00 -2.3378743035e-04 1.8477979254e+00 -3.2004798889e+00 1.8477979254e+00 3.2004798889e+00 
96600 6.6415779495e+00 -2.3109939429e-04 1.8478042515e+00 -3.2004908461e+00 1.8478042515e+00 3.2004908461e+00 
96700 6.6415779443e+00 -2.2809546819e-04 1.8478105049e+00 -3.2005016772e+00 1.8478105049e+00 3.2005016772e+00 
96800 6.6415779392e+00 -2.2478535198e-04 1.8478166769e+00 -3.2005123675e+00 1.8478166769e+00 3.2005123675e+00 
96900 6.6415779343e+00 -2.2117906887e-04 1.8478227594e+00 -3.2005229026e+00 1.8478227594e+00 3.2005229026e+00 
97000 6.6415779297e+00 -2.1728694453e-04 1.8478287442e+00 -3.2005332687e+00 1.8478287442e+00 3.2005332687e+00 
97100 6.6415779254e+00 -2.1311958616e-04 1.8478346238e+00 -3.2005434523e+00 1.8478346238e+00 3.2005434523e+00 
97200 6.6415779214e+00 -2.0868786137e-04 1.8478403905e+00 -3.2005534406e+00 1.8478403905e+00 3.2005534406e+00 
97300 6.6415779176e+00 -2.0400287715e-04 1.8478460373e+00 -3.2005632212e+00 1.8478460373e+00 3.2005632212e+00 
97400 6.6415779142e+00 -1.9907595862e-04 1.8478515573e+00 -3.2005727821e+00 1.8478515573e+00 3.2005727821e+00 
97500 6.6415779112e+00 -1.9391862795e-04 1.8478569440e+00 -3.2005821122e+00 1.8478569440e+00 3.2005821122e+00 
97600 6.6415779084e+00 -1.8854258323e-04 1.8478621911e+00 -3.2005912004e+00 1.8478621911e+00 3.2005912004e+00 
97700 6.6415779061e+00 -1.8295967735e-04 1.8478672928e+00 -3.2006000367e+00 1.8478672928e+00 3.2006000367e+00 
97800 6.6415779040e+00 -1.7718189716e-04 1.8478722434e+00 -3.2006086114e+00 1.8478722434e+00 3.2006086114e+00 
97900 6.6415779024e+00 -1.7122134252e-04 1.8478770376e+00 -3.2006169152e+00 1.8478770376e+00 3.2006169152e+00 
98000 6.6415779010e+00 -1.6509020571e-04 1.8478816705e+00 -3.2006249397e+00 1.8478816705e+00 3.2006249397e+00 
98100 6.6415779001e+00 -1.5880075092e-04 1.8478861375e+00 -3.2006326768e+00 1.8478861375e+00 3.2006326768e+00 
98200 6.6415778995e+00 -1.5236529396e-04 1.8478904343e+00 -3.2006401191e+00 1.8478904343e+00 3.2006401191e+00 
98300 6.6415778992e+00 -1.4579618226e-04 1.8478945570e+00 -3.2006472598e+00 1.8478945570e+00 3.2006472598e+00 
98400 6.6415778993e+00 -1.3910577509e-04 1.8478985019e+00 -3.2006540926e+00 1.8478985019e+00 3.2006540926e+00 
98500 6.6415778996e+00 -1.3230642413e-04 1.8479022658e+00 -3.2006606118e+00 1.8479022658e+00 3.2006606118e+00 
98600 6.6415779003e+00 -1.2541045431e-04 1.8479058457e+00 -3.2006668124e+00 1.8479058457e+00 3.2006668124e+00 
98700 6.6415779013e+00 -1.1843014502e-04 1.8479092391e+00 -3.2006726898e+00 1.8479092391e+00 3.2006726898e+00 
98800 6.6415779026e+00 -1.1137771168e-04 1.8479124435e+00 -3.2006782401e+00 1.8479124435e+00 3.2006782401e+00 
98900 6.6415779041e+00 -1.0426528775e-04 1.8479154571e+00 -3.2006834598e+00 1.8479154571e+00 3.2006834598e+00 
99000 6.6415779059e+00 -9.7104907069e-05 1.8479182783e+00 -3.2006883462e+00 1.8479182783e+00 3.2006883462e+00 
99100 6.6415779079e+00 -8.9908486691e-05 1.8479209057e+00 -3.2006928970e+00 1.8479209057e+00 3.2006928970e+00 
99200 6.6415779101e+00 -8.2687810164e-05 1.8479233384e+00 -3.2006971105e+00 1.8479233384e+00 3.2006971105e+00 
99300 6.6415779125e+00 -7.5454511289e-05 1.8479255757e+00 -3.2007009857e+00 1.8479255757e+00 3.2007009857e+00 
99400 6.6415779150e+00 -6.8220058321e-05 1.8479276173e+00 -3.2007045219e+00 1.8479276173e+00 3.2007045219e+00 
99500 6.6415779179e+00 -6.3039847318e-05 1.8479276173e+00 -3.2007045219e+00 1.8479276173e+00 3.2007045219e+00 
99600 6.6415779208e+00 -5.7681682203e-05 1.8479276173e+00 -3.2007045219e+00 1.8479276173e+00 3.2007045219e+00 
99700 6.6415779237e+00 -5.2156804287e-05 1.8479276173e+00 -3.2007045219e+00 1.8479276173e+00 3.2007045219e+00 
99800 6.6415779268e+00 -4.6476323325e-05 1.8479276173e+00 -3.2007045219e+00 1.8479276173e+00 3.2007045219e+00 
99900 6.6415779298e+00 -4.0651209743e-05 1.8479276173e+00 -3.2007045219e+00 1.8479276173e+00 3.2007045219e+00 
100000 6.6415779328e+00 -3.4692287200e-05 1.8479276173e+00 -3.2007045219e+00 1.8479276173e+00 3.2007045219e+00 
100100 6.6415779359e+00 -2.8610225481e-05 1.8479276173e+00 -3.2007045219e+00 1.8479276173e+00 3.2007045219e+00 
100200 6.6415779389e+00 -2.2415533671e-05 1.8479276173e+00 -3.2007045219e+00 1.8479276173e+00 3.2007045219e+00 
100300 6.6415779419e+00 -1.6118553697e-05 1.8479276173e+00 -3.2007045219e+00 1.8479276173e+00 3.2007045219e+00 
100400 6.6415779449e+00 -9.7294541364e-06 1.8479276173e+00 -3.2007045219e+00 1.8479276173e+00 3.2007045219e+00 
100500 6.6415779478e+00 -3.2582243921e-06 1.8479276173e+00 -3.2007045219e+00 1.8479276173e+00 3.2007045219e+00 
100600 6.6415779506e+00 3.2853308652e-06 1.8479276173e+00 -3.2007045219e+00 1.8479276173e+00 3.2007045219e+00 
100700 6.6415779534e+00 9.8915969336e-06 1.8479276173e+00 -3.2007045219e+00 1.8479276173e+00 3.2007045219e+00 
100800 6.6415779561e+00 1.6551153987e-05 1.8479276173e+00 -3.2007045219e+00 1.8479276173e+00 3.2007045219e+00 
100900 6.6415779587e+00 2.3254781714e-05 1.8479276173e+00 -3.2007045219e+00 1.8479276173e+00 3.2007045219e+00 
101000 6.6415779612e+00 2.9993463608e-05 1.8479276173e+00 -3.2007045219e+00 1.8479276173e+00 3.2007045219e+00 
101100 6.6415779635e+00 3.6758391030e-05 1.8479276173e+00 -3.2007045219e+00 1.8479276173e+00 3.2007045219e+00 
101200 6.6415779658e+00 4.3540966885e-05 1.8479276173e+00 -3.2007045219e+00 1.8479276173e+00 3.2007045219e+00 
101300 6.6415779680e+00 5.0332809079e-05 1.8479276173e+00 -3.2007045219e+00 1.8479276173e+00 3.2007045219e+00 
101400 6.6415779700e+00 5.7125753651e-05 1.8479276173e+00 -3.2007045219e+00 1.8479276173e+00 3.2007045219e+00 
101500 6.6415779719e+00 6.3911857630e-05 1.8479276173e+00 -3.2007045219e+00 1.8479276173e+00 3.2007045219e+00 
101600 6.6415779736e+00 7.0683401608e-05 1.8479276173e+00 -3.2007045219e+00 1.8479276173e+00 3.2007045219e+00 
101700 6.6415779753e+00 7.7432892032e-05 1.8479276173e+00 -3.2007045219e+00 1.8479276173e+00 3.2007045219e+00 
101800 6.6415779766e+00 8.1832635363e-05 1.8479255222e+00 -3.2007008930e+00 1.8479255222e+00 3.2007008930e+00 
101900 6.6415779777e+00 8.6044538769e-05 1.8479233080e+00 -3.2006970579e+00 1.8479233080e+00 3.2006970579e+00 
102000 6.6415779786e+00 9.0064546173e-05 1.8479209798e+00 -3.2006930255e+00 1.8479209798e+00 3.2006930255e+00 
102100 6.6415779793e+00 9.3888987985e-05 1.8479185429e+00 -3.2006888046e+00 1.8479185429e+00 3.2006888046e+00 
102200 6.6415779799e+00 9.7514579690e-05 1.8479160025e+00 -3.2006844045e+00 1.8479160025e+00 3.2006844045e+00 
102300 6.6415779803e+00 1.0093841992e-04 1.8479133640e+00 -3.2006798345e+00 1.8479133640e+00 3.2006798345e+00 
102400 6.6415779805e+00 1.0415798801e-04 1.8479106329e+00 -3.2006751040e+00 1.8479106329e+00 3.2006751040e+00 
102500 6.6415779805e+00 1.0717114099e-04 1.8479078146e+00 -3.2006702226e+00 1.8479078146e+00 3.2006702226e+00 
102600 6.6415779804e+00 1.0997611011e-04 1.8479049148e+00 -3.2006652000e+00 1.8479049148e+00 3.2006652000e+00 
102700 6.6415779801e+00 1.1257149687e-04 1.8479019391e+00 -3.2006600460e+00 1.8479019391e+00 3.2006600460e+00 
102800 6.6415779796e+00 1.1495626852e-04 1.8478988932e+00 -3.2006547703e+00 1.8478988932e+00 3.2006547703e+00 
102900 6.6415779790e+00 1.1712975315e-04 1.8478957827e+00 -3.2006493828e+00 1.8478957827e+00 3.2006493828e+00 
103000 6.6415779783e+00 1.1909163429e-04 1.8478926135e+00 -3.2006438935e+00 1.8478926135e+00 3.2006438935e+00 
103100 6.6415779774e+00 1.2084194508e-04 1.8478893911e+00 -3.2006383122e+00 1.8478893911e+00 3.2006383122e+00 
103200 6.6415779764e+00 1.2238106199e-04 1.8478861214e+00 -3.2006326488e+00 1.8478861214e+00 3.2006326488e+00 
103300 6.6415779753e+00 1.2370969817e-04 1.8478828100e+00 -3.2006269134e+00 1.8478828100e+00 3.2006269134e+00 
103400 6.6415779741e+00 1.2482889636e-04 1.8478794627e+00 -3.2006211156e+00 1.8478794627e+00 3.2006211156e+00 
103500 6.6415779728e+00 1.2574002147e-04 1.8478760850e+00 -3.2006152654e+00 1.8478760850e+00 3.2006152654e+00 
103600 6.6415779715e+00 1.2644475275e-04 1.8478726828e+00 -3.2006093725e+00 1.8478726828e+00 3.2006093725e+00 
103700 6.6415779701e+00 1.2694507565e-04 1.8478692614e+00 -3.2006034465e+00 1.8478692614e+00 3.2006034465e+00 
103800 6.6415779686e+00 1.2724327331e-04 1.8478658265e+00 -3.2005974971e+00 1.8478658265e+00 3.2005974971e+00 
103900 6.6415779671e+00 1.2734191781e-04 1.8478623835e+00 -3.2005915337e+00 1.8478623835e+00 3.2005915337e+00 
104000 6.6415779655e+00 1.2724386106e-04 1.8478589379e+00 -3.2005855656e+00 1.8478589379e+00 3.2005855656e+00 
104100 6.6415779640e+00 1.2695222544e-04 1.8478554949e+00 -3.2005796021e+00 1.8478554949e+00 3.2005796021e+00 
104200 6.6415779624e+00 1.2647039420e-04 1.8478520597e+00 -3.2005736523e+00 1.8478520597e+00 3.2005736523e+00 
104300 6.6415779608e+00 1.2580200159e-04 1.8478486376e+00 -3.2005677251e+00 1.8478486376e+00 3.2005677251e+00 
104400 6.6415779592e+00 1.2495092282e-04 1.8478452336e+00 -3.2005618292e+00 1.8478452336e+00 3.2005618292e+00 
104500 6.6415779577e+00 1.2392126375e-04 1.8478418526e+00 -3.2005559731e+00 1.8478418526e+00 3.2005559731e+00 
104600 6.6415779561e+00 1.2271735046e-04 1.8478384995e+00 -3.2005501653e+00 1.8478384995e+00 3.2005501653e+00 
104700 6.6415779547e+00 1.2134371865e-04 1.8478351789e+00 -3.2005444139e+00 1.8478351789e+00 3.2005444139e+00 
104800 6.6415779532e+00 1.1980510285e-04 1.8478318955e+00 -3.2005387269e+00 1.8478318955e+00 3.2005387269e+00 
104900 6.6415779518e+00 1.1810642556e-04 1.8478286538e+00 -3.2005331120e+00 1.8478286538e+00 3.2005331120e+00 
105000 6.6415779505e+00 1.1625278623e-04 1.8478254580e+00 -3.2005275767e+00 1.8478254580e+00 3.2005275767e+00 
105100 6.6415779492e+00 1.1424945024e-04 1.8478223123e+00 -3.2005221283e+00 1.8478223123e+00 3.2005221283e+00 
105200 6.6415779481e+00 1.1210183767e-04 1.8478192208e+00 -3.2005167737e+00 1.8478192208e+00 3.2005167737e+00 
105300 6.6415779469e+00 1.0981551215e-04 1.8478161875e+00 -3.2005115198e+00 1.8478161875e+00 3.2005115198e+00 
105400 6.6415779459e+00 1.0739616963e-04 1.8478132160e+00 -3.2005063730e+00 1.8478132160e+00 3.2005063730e+00 
105500 6.6415779450e+00 1.0484962710e-04 1.8478103099e+00 -3.2005013396e+00 1.8478103099e+00 3.2005013396e+00 
105600 6.6415779441e+00 1.0218181134e-04 1.8478074728e+00 -3.2004964255e+00 1.8478074728e+00 3.2004964255e+00 
105700 6.6415779434e+00 9.9398747721e-05 1.8478047079e+00 -3.2004916365e+00 1.8478047079e+00 3.2004916365e+00 
105800 6.6415779427e+00 9.6506548960e-05 1.8478020182e+00 -3.2004869779e+00 1.8478020182e+00 3.2004869779e+00 
105900 6.6415779421e+00 9.3511404022e-05 1.8477994068e+00 -3.2004824548e+00 1.8477994068e+00 3.2004824548e+00 
106000 6.6415779417e+00 9.0419567018e-05 1.8477968765e+00 -3.2004780722e+00 1.8477968765e+00 3.2004780722e+00 
106100 6.6415779413e+00 8.7237346208e-05 1.8477944298e+00 -3.2004738344e+00 1.8477944298e+00 3.2004738344e+00 
106200 6.6415779410e+00 8.3971093133e-05 1.8477920692e+00 -3.2004697457e+00 1.8477920692e+00 3.2004697457e+00 
106300 6.6415779408e+00 8.0627191807e-05 1.8477897970e+00 -3.2004658102e+00 1.8477897970e+00 3.2004658102e+00 
106400 6.6415779407e+00 7.7212048101e-05 1.8477876153e+00 -3.2004620313e+00 1.8477876153e+00 3.2004620313e+00 
106500 6.6415779407e+00 7.3732079215e-05 1.8477855260e+00 -3.2004584125e+00 1.8477855260e+00 3.2004584125e+00 
106600 6.6415779408e+00 7.0193703338e-05 1.8477835309e+00 -3.2004549568e+00 1.8477835309e+00 3.2004549568e+00 
106700 6.6415779411e+00 6.8707614339e-05 1.8477835309e+00 -3.2004549568e+00 1.8477835309e+00 3.2004549568e+00 
106800 6.6415779415e+00 6.7086055633e-05 1.8477835309e+00 -3.2004549568e+00 1.8477835309e+00 3.2004549568e+00 
106900 6.6415779419e+00 6.5334709518e-05 1.8477835309e+00 -3.2004549568e+00 1.8477835309e+00 3.2004549568e+00 
107000 6.6415779424e+00 6.3459240089e-05 1.8477835309e+00 -3.2004549568e+00 1.8477835309e+00 3.2004549568e+00 
107100 6.6415779429e+00 6.1465288094e-05 1.8477835309e+00 -3.2004549568e+00 1.8477835309e+00 3.2004549568e+00 
107200 6.6415779434e+00 5.9358465916e-05 1.8477835309e+00 -3.2004549568e+00 1.8477835309e+00 3.2004549568e+00 
107300 6.6415779440e+00 5.7144352701e-05 1.8477835309e+00 -3.2004549568e+00 1.8477835309e+00 3.2004549568e+00 
107400 6.6415779446e+00 5.4828489656e-05 1.8477835309e+00 -3.2004549568e+00 1.8477835309e+00 3.2004549568e+00 
107500 6.6415779453e+00 5.2416375490e-05 1.8477835309e+00 -3.2004549568e+00 1.8477835309e+00 3.2004549568e+00 
107600 6.6415779460e+00 4.9913461980e-05 1.8477835309e+00 -3.2004549568e+00 1.8477835309e+00 3.2004549568e+00 
107700 6.6415779467e+00 4.7325149727e-05 1.8477835309e+00 -3.2004549568e+00 1.8477835309e+00 3.2004549568e+00 
107800 6.6415779474e+00 4.4656784047e-05 1.8477835309e+00 -3.2004549568e+00 1.8477835309e+00 3.2004549568e+00 
107900 6.6415779481e+00 4.1913650990e-05 1.8477835309e+00 -3.2004549568e+00 1.8477835309e+00 3.2004549568e+00 
108000 6.6415779488e+00 3.9100973559e-05 1.8477835309e+00 -3.2004549568e+00 1.8477835309e+00 3.2004549568e+00 
108100 6.6415779496e+00 3.6223908026e-05 1.8477835309e+00 -3.2004549568e+00 1.8477835309e+00 3.2004549568e+00 
108200 6.6415779503e+00 3.3287540439e-05 1.8477835309e+00 -3.2004549568e+00 1.8477835309e+00 3.2004549568e+00 
108300 6.6415779510e+00 3.0296883254e-05 1.8477835309e+00 -3.2004549568e+00 1.8477835309e+00 3.2004549568e+00 
108400 6.6415779518e+00 2.7256872132e-05 1.8477835309e+00 -3.2004549568e+00 1.8477835309e+00 3.2004549568e+00 
108500 6.6415779525e+00 2.4172362881e-05 1.8477835309e+00 -3.2004549568e+00 1.8477835309e+00 3.2004549568e+00 
108600 6.6415779532e+00 2.1048128536e-05 1.8477835309e+00 -3.2004549568e+00 1.8477835309e+00 3.2004549568e+00 
108700 6.6415779539e+00 1.7888856601e-05 1.8477835309e+00 -3.2004549568e+00 1.8477835309e+00 3.2004549568e+00 
108800 6.6415779545e+00 1.4699146431e-05 1.8477835309e+00 -3.2004549568e+00 1.8477835309e+00 3.2004549568e+00 
108900 6.6415779552e+00 1.1483506759e-05 1.8477835309e+00 -3.2004549568e+00 1.8477835309e+00 3.2004549568e+00 
109000 6.6415779558e+00 8.2463533662e-06 1.8477835309e+00 -3.2004549568e+00 1.8477835309e+00 3.2004549568e+00 
109100 6.6415779564e+00 4.9920069108e-06 1.8477835309e+00 -3.2004549568e+00 1.8477835309e+00 3.2004549568e+00 
109200 6.6415779570e+00 1.7246908803e-06 1.8477835309e+00 -3.2004549568e+00 1.8477835309e+00 3.2004549568e+00 
109300 6.6415779575e+00 -1.5514703027e-06 1.8477835309e+00 -3.2004549568e+00 1.8477835309e+00 3.2004549568e+00 
109400 6.6415779581e+00 -4.8324530516e-06 1.8477835309e+00 -3.2004549568e+00 1.8477835309e+00 3.2004549568e+00 
109500 6.6415779585e+00 -8.1143362186e-06 1.8477835309e+00 -3.2004549568e+00 1.8477835309e+00 3.2004549568e+00 
109600 6.6415779590e+00 -1.1393302581e-05 1.8477835309e+00 -3.2004549568e+00 1.8477835309e+00 3.2004549568e+00 
109700 6.6415779594e+00 -1.4665640195e-05 1.8477835309e+00 -3.2004549568e+00 1.8477835309e+00 3.2004549568e+00 
109800 6.6415779598e+00 -1.7927743604e-05 1.8477835309e+00 -3.2004549568e+00 1.8477835309e+00 3.2004549568e+00 
109900 6.6415779602e+00 -2.1176114909e-05 1.8477835309e+00 -3.2004549568e+00 1.8477835309e+00 3.2004549568e+00 
110000 6.6415779605e+00 -2.4407364742e-05 1.8477835309e+00 -3.2004549568e+00 1.8477835309e+00 3.2004549568e+00 
110100 6.6415779608e+00 -2.7618213057e-05 1.8477835309e+00 -3.2004549568e+00 1.8477835309e+00 3.2004549568e+00 
110200 6.6415779611e+00 -3.0805489846e-05 1.8477835309e+00 -3.2004549568e+00 1.8477835309e+00 3.2004549568e+00 
110300 6.6415779614e+00 -3.3966135705e-05 1.8477835309e+00 -3.2004549568e+00 1.8477835309e+00 3.2004549568e+00 
110400 6.6415779616e+00 -3.7097202272e-05 1.8477835309e+00 -3.2004549568e+00 1.8477835309e+00 3.2004549568e+00 
110500 6.6415779617e+00 -4.0195852558e-05 1.8477835309e+00 -3.2004549568e+00 1.8477835309e+00 3.2004549568e+00 
110600 6.6415779619e+00 -4.3259361162e-05 1.8477835309e+00 -3.2004549568e+00 1.8477835309e+00 3.2004549568e+00 
110700 6.6415779620e+00 -4.6285114349e-05 1.8477835309e+00 -3.2004549568e+00 1.8477835309e+00 3.2004549568e+00 
110800 6.6415779621e+00 -4.9270610042e-05 1.8477835309e+00 -3.2004549568e+00 1.8477835309e+00 3.2004549568e+00 
110900 6.6415779622e+00 -5.2213457679e-05 1.8477835309e+00 -3.2004549568e+00 1.8477835309e+00 3.2004549568e+00 
111000 6.6415779622e+00 -5.5111377969e-05 1.8477835309e+00 -3.2004549568e+00 1.8477835309e+00 3.2004549568e+00 
111100 6.6415779622e+00 -5.7962202557e-05 1.8477835309e+00 -3.2004549568e+00 1.8477835309e+00 3.2004549568e+00 
111200 6.6415779622e+00 -6.0763873556e-05 1.8477835309e+00 -3.2004549568e+00 1.8477835309e+00 3.2004549568e+00 
111300 6.6415779622e+00 -6.3514443000e-05 1.8477835309e+00 -3.2004549568e+00 1.8477835309e+00 3.2004549568e+00 
111400 6.6415779621e+00 -6.6212072190e-05 1.8477835309e+00 -3.2004549568e+00 1.8477835309e+00 3.2004549568e+00 
111500 6.6415779621e+00 -6.8855030940e-05 1.8477835309e+00 -3.2004549568e+00 1.8477835309e+00 3.2004549568e+00 
111600 6.6415779620e+00 -7.1441696752e-05 1.8477835309e+00 -3.2004549568e+00 1.8477835309e+00 3.2004549568e+00 
111700 6.6415779617e+00 -7.1829086871e-05 1.8477854640e+00 -3.2004583052e+00 1.8477854640e+00 3.2004583052e+00 
111800 6.6415779614e+00 -7.2127572893e-05 1.8477874077e+00 -3.2004616717e+00 1.8477874077e+00 3.2004616717e+00 
111900 6.6415779611e+00 -7.2336789388e-05 1.8477893594e+00 -3.2004650522e+00 1.8477893594e+00 3.2004650522e+00 
112000 6.6415779608e+00 -7.2456577406e-05 1.8477913168e+00 -3.2004684425e+00 1.8477913168e+00 3.2004684425e+00 
112100 6.6415779604e+00 -7.2486978721e-05 1.8477932774e+00 -3.2004718384e+00 1.8477932774e+00 3.2004718384e+00 
112200 6.6415779600e+00 -7.2428229919e-05 1.8477952389e+00 -3.2004752357e+00 1.8477952389e+00 3.2004752357e+00 
112300 6.6415779597e+00 -7.2280756429e-05 1.8477971987e+00 -3.2004786303e+00 1.8477971987e+00 3.2004786303e+00 
112400 6.6415779593e+00 -7.2045166469e-05 1.8477991546e+00 -3.2004820179e+00 1.8477991546e+00 3.2004820179e+00 
112500 6.6415779589e+00 -7.1722244859e-05 1.8478011041e+00 -3.2004853945e+00 1.8478011041e+00 3.2004853945e+00 
112600 6.6415779585e+00 -7.1312946768e-05 1.8478030448e+00 -3.2004887560e+00 1.8478030448e+00 3.2004887560e+00 
112700 6.6415779581e+00 -7.0818391437e-05 1.8478049745e+00 -3.2004920983e+00 1.8478049745e+00 3.2004920983e+00 
112800 6.6415779577e+00 -7.0239855758e-05 1.8478068908e+00 -3.2004954174e+00 1.8478068908e+00 3.2004954174e+00 
112900 6.6415779574e+00 -7.1684074172e-05 1.8478068908e+00 -3.2004954174e+00 1.8478068908e+00 3.2004954174e+00 
113000 6.6415779570e+00 -7.0896678763e-05 1.8478088305e+00 -3.2004987771e+00 1.8478088305e+00 3.2004987771e+00 
113100 6.6415779566e+00 -7.0032440679e-05 1.8478107489e+00 -3.2005020998e+00 1.8478107489e+00 3.2005020998e+00 
113200 6.6415779564e+00 -7.1192085254e-05 1.8478107489e+00 -3.2005020998e+00 1.8478107489e+00 3.2005020998e+00 
113300 6.6415779560e+00 -7.0134072249e-05 1.8478126753e+00 -3.2005054364e+00 1.8478126753e+00 3.2005054364e+00 
113400 6.6415779558e+00 -7.1109104956e-05 1.8478126753e+00 -3.2005054364e+00 1.8478126753e+00 3.2005054364e+00 
113500 6.6415779554e+00 -6.9869567232e-05 1.8478145994e+00 -3.2005087692e+00 1.8478145994e+00 3.2005087692e+00 
113600 6.6415779553e+00 -7.0661387001e-05 1.8478145994e+00 -3.2005087692e+00 1.8478145994e+00 3.2005087692e+00 
113700 6.6415779551e+00 -7.1370947099e-05 1.8478145994e+00 -3.2005087692e+00 1.8478145994e+00 3.2005087692e+00 
113800 6.6415779548e+00 -6.9860535934e-05 1.8478165306e+00 -3.2005121141e+00 1.8478165306e+00 3.2005121141e+00 
113900 6.6415779546e+00 -7.0391927170e-05 1.8478165306e+00 -3.2005121141e+00 1.8478165306e+00 3.2005121141e+00 
114000 6.6415779545e+00 -7.0843949540e-05 1.8478165306e+00 -3.2005121141e+00 1.8478165306e+00 3.2005121141e+00 
114100 6.6415779542e+00 -6.9094910787e-05 1.8478184476e+00 -3.2005154344e+00 1.8478184476e+00 3.2005154344e+00 
114200 6.6415779541e+00 -6.9375318334e-05 1.8478184476e+00 -3.2005154344e+00 1.8478184476e+00 3.2005154344e+00 
114300 6.6415779540e+00 -6.9579881096e-05 1.8478184476e+00 -3.2005154344e+00 1.8478184476e+00 3.2005154344e+00 
114400 6.6415779540e+00 -6.9710461340e-05 1.8478184476e+00 -3.2005154344e+00 1.8478184476e+00 3.2005154344e+00 
114500 6.6415779539e+00 -6.9768952075e-05 1.8478184476e+00 -3.2005154344e+00 1.8478184476e+00 3.2005154344e+00 
114600 6.6415779539e+00 -6.9757274376e-05 1.8478184476e+00 -3.2005154344e+00 1.8478184476e+00 3.2005154344e+00 
114700 6.6415779538e+00 -6.9677374738e-05 1.8478184476e+00 -3.2005154344e+00 1.8478184476e+00 3.2005154344e+00 
114800 6.6415779538e+00 -6.9531222459e-05 1.8478184476e+00 -3.2005154344e+00 1.8478184476e+00 3.2005154344e+00 
114900 6.6415779538e+00 -6.9320807068e-05 1.8478184476e+00 -3.2005154344e+00 1.8478184476e+00 3.2005154344e+00 
115000 6.6415779539e+00 -6.9048135802e-05 1.8478184476e+00 -3.2005154344e+00 1.8478184476e+00 3.2005154344e+00 
115100 6.6415779539e+00 -6.8715231084e-05 1.8478184476e+00 -3.2005154344e+00 1.8478184476e+00 3.2005154344e+00 
115200 6.6415779539e+00 -6.8324128105e-05 1.8478184476e+00 -3.2005154344e+00 1.8478184476e+00 3.2005154344e+00 
115300 6.6415779540e+00 -6.7876872385e-05 1.8478184476e+00 -3.2005154344e+00 1.8478184476e+00 3.2005154344e+00 
115400 6.6415779540e+00 -6.7375517425e-05 1.8478184476e+00 -3.2005154344e+00 1.8478184476e+00 3.2005154344e+00 
115500 6.6415779541e+00 -6.6822122376e-05 1.8478184476e+00 -3.2005154344e+00 1.8478184476e+00 3.2005154344e+00 
115600 6.6415779542e+00 -6.6218749785e-05 1.8478184476e+00 -3.2005154344e+00 1.8478184476e+00 3.2005154344e+00 
115700 6.6415779543e+00 -6.5567463345e-05 1.8478184476e+00 -3.2005154344e+00 1.8478184476e+00 3.2005154344e+00 
115800 6.6415779543e+00 -6.4870325747e-05 1.8478184476e+00 -3.2005154344e+00 1.8478184476e+00 3.2005154344e+00 
115900 6.6415779544e+00 -6.4129396532e-05 1.8478184476e+00 -3.2005154344e+00 1.8478184476e+00 3.2005154344e+00 
116000 6.6415779545e+00 -6.3346730022e-05 1.8478184476e+00 -3.2005154344e+00 1.8478184476e+00 3.2005154344e+00 
116100 6.6415779547e+00 -6.2524373305e-05 1.8478184476e+00 -3.2005154344e+00 1.8478184476e+00 3.2005154344e+00 
116200 6.6415779548e+00 -6.1664364247e-05 1.8478184476e+00 -3.2005154344e+00 1.8478184476e+00 3.2005154344e+00 
116300 6.6415779549e+00 -6.0768729594e-05 1.8478184476e+00 -3.2005154344e+00 1.8478184476e+00 3.2005154344e+00 
116400 6.6415779550e+00 -5.9839483091e-05 1.8478184476e+00 -3.2005154344e+00 1.8478184476e+00 3.2005154344e+00 
116500 6.6415779551e+00 -5.8878623686e-05 1.8478184476e+00 -3.2005154344e+00 1.8478184476e+00 3.2005154344e+00 
116600 6.6415779552e+00 -5.7888133763e-05 1.8478184476e+00 -3.2005154344e+00 1.8478184476e+00 3.2005154344e+00 
116700 6.6415779554e+00 -5.6869977453e-05 1.8478184476e+00 -3.2005154344e+00 1.8478184476e+00 3.2005154344e+00 
116800 6.6415779555e+00 -5.5826098983e-05 1.8478184476e+00 -3.2005154344e+00 1.8478184476e+00 3.2005154344e+00 
116900 6.6415779556e+00 -5.4758421107e-05 1.8478184476e+00 -3.2005154344e+00 1.8478184476e+00 3.2005154344e+00 
117000 6.6415779557e+00 -5.3668843557e-05 1.8478184476e+00 -3.2005154344e+00 1.8478184476e+00 3.2005154344e+00 
117100 6.6415779559e+00 -5.2559241583e-05 1.8478184476e+00 -3.2005154344e+00 1.8478184476e+00 3.2005154344e+00 
117200 6.6415779560e+00 -5.1431464538e-05 1.8478184476e+00 -3.2005154344e+00 1.8478184476e+00 3.2005154344e+00 
117300 6.6415779561e+00 -5.0287334527e-05 1.8478184476e+00 -3.2005154344e+00 1.8478184476e+00 3.2005154344e+00 
117400 6.6415779562e+00 -4.9128645102e-05 1.8478184476e+00 -3.2005154344e+00 1.8478184476e+00 3.2005154344e+00 
117500 6.6415779563e+00 -4.7957160014e-05 1.8478184476e+00 -3.2005154344e+00 1.8478184476e+00 3.2005154344e+00 
117600 6.6415779564e+00 -4.6774612062e-05 1.8478184476e+00 -3.2005154344e+00 1.8478184476e+00 3.2005154344e+00 
117700 6.6415779565e+00 -4.5582701941e-05 1.8478184476e+00 -3.2005154344e+00 1.8478184476e+00 3.2005154344e+00 
117800 6.6415779566e+00 -4.4383097185e-05 1.8478184476e+00 -3.2005154344e+00 1.8478184476e+00 3.2005154344e+00 
117900 6.6415779567e+00 -4.3177431165e-05 1.8478184476e+00 -3.2005154344e+00 1.8478184476e+00 3.2005154344e+00 
118000 6.6415779568e+00 -4.1967302134e-05 1.8478184476e+00 -3.2005154344e+00 1.8478184476e+00 3.2005154344e+00 
118100 6.6415779569e+00 -4.0754272345e-05 1.8478184476e+00 -3.2005154344e+00 1.8478184476e+00 3.2005154344e+00 
118200 6.6415779570e+00 -3.9539867204e-05 1.8478184476e+00 -3.2005154344e+00 1.8478184476e+00 3.2005154344e+00 
118300 6.6415779570e+00 -3.8325574507e-05 1.8478184476e+00 -3.2005154344e+00 1.8478184476e+00 3.2005154344e+00 
118400 6.6415779571e+00 -3.7112843708e-05 1.8478184476e+00 -3.2005154344e+00 1.8478184476e+00 3.2005154344e+00 
118500 6.6415779572e+00 -3.5903085260e-05 1.8478184476e+00 -3.2005154344e+00 1.8478184476e+00 3.2005154344e+00 
118600 6.6415779572e+00 -3.4697670015e-05 1.8478184476e+00 -3.2005154344e+00 1.8478184476e+00 3.2005154344e+00 
118700 6.6415779573e+00 -3.3497928666e-05 1.8478184476e+00 -3.2005154344e+00 1.8478184476e+00 3.2005154344e+00 
118800 6.6415779573e+00 -3.2305151232e-05 1.8478184476e+00 -3.2005154344e+00 1.8478184476e+00 3.2005154344e+00 
118900 6.6415779574e+00 -3.1120586650e-05 1.8478184476e+00 -3.2005154344e+00 1.8478184476e+00 3.2005154344e+00 
119000 6.6415779574e+00 -3.0784522544e-05 1.8478184476e+00 -3.2005154344e+00 1.8478184476e+00 3.2005154344e+00 
119000 6.6415779574e+00 -3.0784522544e-05 1.8478184476e+00 -3.2005154344e+00 1.8478184476e+00 3.2005154344e+00 
