# step Hamiltonian StressXX CellTensor1 CellTensor2 CellTensor3 CellTensor4 
0 6.8178014740e+00 5.5848722110e-02 1.6387017056e+00 -2.8383146126e+00 1.6387017056e+00 2.8383146126e+00 
100 6.8115608468e+00 5.9088532922e-02 1.6387017056e+00 -2.8383146126e+00 1.6387017056e+00 2.8383146126e+00 
200 6.8048178130e+00 5.9775381590e-02 1.6368991297e+00 -2.8351924594e+00 1.6368991297e+00 2.8351924594e+00 
300 6.7977825816e+00 5.9853717544e-02 1.6350735970e+00 -2.8320305441e+00 1.6350735970e+00 2.8320305441e+00 
400 6.7905317458e+00 5.9388643864e-02 1.6332436323e+00 -2.8288609523e+00 1.6332436323e+00 2.8288609523e+00 
500 6.7831314908e+00 5.8439596311e-02 1.6314258505e+00 -2.8257124618e+00 1.6314258505e+00 2.8257124618e+00 
600 6.7756388243e+00 5.7060892017e-02 1.6296351196e+00 -2.8226108250e+00 1.6296351196e+00 2.8226108250e+00 
700 6.7681026565e+00 5.5302210021e-02 1.6278847074e+00 -2.8195790221e+00 1.6278847074e+00 2.8195790221e+00 
800 6.7605647471e+00 5.3209012393e-02 1.6261864120e+00 -2.8166374882e+00 1.6261864120e+00 2.8166374882e+00 
900 6.7530605404e+00 5.0822914045e-02 1.6245506807e+00 -2.8138043184e+00 1.6245506807e+00 2.8138043184e+00 
1000 6.7456199009e+00 4.8182008497e-02 1.6229867174e+00 -2.8110954546e+00 1.6229867174e+00 2.8110954546e+00 
1100 6.7382677651e+00 4.5321156099e-02 1.6215025815e+00 -2.8085248558e+00 1.6215025815e+00 2.8085248558e+00 
1200 6.7310247188e+00 4.2272240414e-02 1.6201052775e+00 -2.8061046543e+00 1.6201052775e+00 2.8061046543e+00 
1300 6.7239075111e+00 3.9064397719e-02 1.6188008388e+00 -2.8038453001e+00 1.6188008388e+00 2.8038453001e+00 
1400 6.7169295120e+00 3.5724223848e-02 1.6175944044e+00 -2.8017556944e+00 1.6175944044e+00 2.8017556944e+00 
1500 6.7101011213e+00 3.2275961984e-02 1.6164902908e+00 -2.7998433137e+00 1.6164902908e+00 2.7998433137e+00 
1600 6.7034301349e+00 2.8741674397e-02 1.6154920591e+00 -2.7981143256e+00 1.6154920591e+00 2.7981143256e+00 
1700 6.6969220724e+00 2.5141400593e-02 1.6146025767e+00 -2.7965736969e+00 1.6146025767e+00 2.7965736969e+00 
1800 6.6905804723e+00 2.1493303907e-02 1.6138240762e+00 -2.7952252945e+00 1.6138240762e+00 2.7952252945e+00 
1900 6.6844071559e+00 1.7813808162e-02 1.6131582098e+00 -2.7940719800e+00 1.6131582098e+00 2.7940719800e+00 
2000 6.6784024663e+00 1.4117725671e-02 1.6126061005e+00 -2.7931156987e+00 1.6126061005e+00 2.7931156987e+00 
2100 6.6725654818e+00 1.0418377600e-02 1.6121683902e+00 -2.7923575622e+00 1.6121683902e+00 2.7923575622e+00 
2200 6.6668942090e+00 6.7277074547e-03 1.6118452841e+00 -2.7917979260e+00 1.6118452841e+00 2.7917979260e+00 
2300 6.6613857558e+00 3.0563883016e-03 1.6116365928e+00 -2.7914364620e+00 1.6116365928e+00 2.7914364620e+00 
2400 6.6560364872e+00 -5.8607586344e-04 1.6115417712e+00 -2.7912722262e+00 1.6115417712e+00 2.7912722262e+00 
2500 6.6508421650e+00 -4.1912542469e-03 1.6115599549e+00 -2.7913037214e+00 1.6115599549e+00 2.7913037214e+00 
2600 6.6457980726e+00 -7.7516986585e-03 1.6116899939e+00 -2.7915289554e+00 1.6116899939e+00 2.7915289554e+00 
2700 6.6408991269e+00 -1.1260857993e-02 1.6119304834e+00 -2.7919454955e+00 1.6119304834e+00 2.7919454955e+00 
2800 6.6361399783e+00 -1.4712997652e-02 1.6122797933e+00 -2.7925505179e+00 1.6122797933e+00 2.7925505179e+00 
2900 6.6315150984e+00 -1.8103123794e-02 1.6127360941e+00 -2.7933408541e+00 1.6127360941e+00 2.7933408541e+00 
3000 6.6270188593e+00 -2.1426912293e-02 1.6132973816e+00 -2.7943130326e+00 1.6132973816e+00 2.7943130326e+00 
3100 6.6226456018e+00 -2.4680642328e-02 1.6139614991e+00 -2.7954633180e+00 1.6139614991e+00 2.7954633180e+00 
3200 6.6183896963e+00 -2.7861134484e-02 1.6147261577e+00 -2.7967877455e+00 1.6147261577e+00 2.7967877455e+00 
3300 6.6142455951e+00 -3.0965693254e-02 1.6155889546e+00 -2.7982821535e+00 1.6155889546e+00 2.7982821535e+00 
3400 6.6102078779e+00 -3.3992053834e-02 1.6165473900e+00 -2.7999422123e+00 1.6165473900e+00 2.7999422123e+00 
3500 6.6062712905e+00 -3.6938333063e-02 1.6175988821e+00 -2.8017634501e+00 1.6175988821e+00 2.8017634501e+00 
3600 6.6024307776e+00 -3.9802984375e-02 1.6187407806e+00 -2.8037412763e+00 1.6187407806e+00 2.8037412763e+00 
3700 6.5986815098e+00 -4.2584756599e-02 1.6199703789e+00 -2.8058710031e+00 1.6199703789e+00 2.8058710031e+00 
3800 6.5950189058e+00 -4.5282656446e-02 1.6212849249e+00 -2.8081478635e+00 1.6212849249e+00 2.8081478635e+00 
3900 6.5914386500e+00 -4.7895914506e-02 1.6226816304e+00 -2.8105670284e+00 1.6226816304e+00 2.8105670284e+00 
4000 6.5879367057e+00 -5.0423954578e-02 1.6241576799e+00 -2.8131236211e+00 1.6241576799e+00 2.8131236211e+00 
4100 6.5845093247e+00 -5.2866366134e-02 1.6257102379e+00 -2.8158127304e+00 1.6257102379e+00 2.8158127304e+00 
4200 6.5811530531e+00 -5.5222879745e-02 1.6273364554e+00 -2.8186294218e+00 1.6273364554e+00 2.8186294218e+00 
4300 6.5778647345e+00 -5.7493345262e-02 1.6290334759e+00 -2.8215687475e+00 1.6290334759e+00 2.8215687475e+00 
4400 6.5746415098e+00 -5.9677712580e-02 1.6307984401e+00 -2.8246257551e+00 1.6307984401e+00 2.8246257551e+00 
4500 6.5714808152e+00 -6.1776014781e-02 1.6326284902e+00 -2.8277954950e+00 1.6326284902e+00 2.8277954950e+00 
4600 6.5683803769e+00 -6.3788353480e-02 1.6345207741e+00 -2.8310730268e+00 1.6345207741e+00 2.8310730268e+00 
4700 6.5653382049e+00 -6.5714886201e-02 1.6364724480e+00 -2.8344534251e+00 1.6364724480e+00 2.8344534251e+00 
4800 6.5623525845e+00 -6.7555815601e-02 1.6384806794e+00 -2.8379317840e+00 1.6384806794e+00 2.8379317840e+00 
4900 6.5594220662e+00 -6.9311380387e-02 1.6405426496e+00 -2.8415032210e+00 1.6405426496e+00 2.8415032210e+00 
5000 6.5565454542e+00 -7.0981847762e-02 1.6426555552e+00 -2.8451628809e+00 1.6426555552e+00 2.8451628809e+00 
5100 6.5537217943e+00 -7.2567507250e-02 1.6448166104e+00 -2.8489059384e+00 1.6448166104e+00 2.8489059384e+00 
5200 6.5509503604e+00 -7.4068665768e-02 1.6470230481e+00 -2.8527276005e+00 1.6470230481e+00 2.8527276005e+00 
5300 6.5482306400e+00 -7.5485643805e-02 1.6492721209e+00 -2.8566231089e+00 1.6492721209e+00 2.8566231089e+00 
5400 6.5455623198e+00 -7.6818772587e-02 1.6515611027e+00 -2.8605877417e+00 1.6515611027e+00 2.8605877417e+00 
5500 6.5429452699e+00 -7.8068392121e-02 1.6538872890e+00 -2.8646168145e+00 1.6538872890e+00 2.8646168145e+00 
5600 6.5403795283e+00 -7.9234849998e-02 1.6562479980e+00 -2.8687056825e+00 1.6562479980e+00 2.8687056825e+00 
5700 6.5378652850e+00 -8.0318500872e-02 1.6586405713e+00 -2.8728497410e+00 1.6586405713e+00 2.8728497410e+00 
5800 6.5354028659e+00 -8.1319706523e-02 1.6610623743e+00 -2.8770444268e+00 1.6610623743e+00 2.8770444268e+00 
5900 6.5329927164e+00 -8.2238836410e-02 1.6635107968e+00 -2.8812852190e+00 1.6635107968e+00 2.8812852190e+00 
6000 6.5306353861e+00 -8.3076268663e-02 1.6659832536e+00 -2.8855676398e+00 1.6659832536e+00 2.8855676398e+00 
6100 6.5283315120e+00 -8.3832391425e-02 1.6684771851e+00 -2.8898872558e+00 1.6684771851e+00 2.8898872558e+00 
6200 6.5260818036e+00 -8.4507604503e-02 1.6709900572e+00 -2.8942396780e+00 1.6709900572e+00 2.8942396780e+00 
6300 6.5238870274e+00 -8.5102321258e-02 1.6735193627e+00 -2.8986205636e+00 1.6735193627e+00 2.8986205636e+00 
6400 6.5217479919e+00 -8.5616970694e-02 1.6760626209e+00 -2.9030256161e+00 1.6760626209e+00 2.9030256161e+00 
6500 6.5196655333e+00 -8.6051999705e-02 1.6786173788e+00 -2.9074505865e+00 1.6786173788e+00 2.9074505865e+00 
6600 6.5176405014e+00 -8.6407875439e-02 1.6811812110e+00 -2.9118912742e+00 1.6811812110e+00 2.9118912742e+00 
6700 6.5156737461e+00 -8.6685087746e-02 1.6837517208e+00 -2.9163435277e+00 1.6837517208e+00 2.9163435277e+00 
6800 6.5137661050e+00 -8.6884151673e-02 1.6863265405e+00 -2.9208032463e+00 1.6863265405e+00 2.9208032463e+00 
6900 6.5119183907e+00 -8.7005610002e-02 1.6889033320e+00 -2.9252663802e+00 1.6889033320e+00 2.9252663802e+00 
7000 6.5101313793e+00 -8.7050035781e-02 1.6914797877e+00 -2.9297289323e+00 1.6914797877e+00 2.9297289323e+00 
7100 6.5084057998e+00 -8.7018034851e-02 1.6940536309e+00 -2.9341869594e+00 1.6940536309e+00 2.9341869594e+00 
7200 6.5067423238e+00 -8.6910248336e-02 1.6966226165e+00 -2.9386365731e+00 1.6966226165e+00 2.9386365731e+00 
7300 6.5051415558e+00 -8.6727355095e-02 1.6991845322e+00 -2.9430739413e+00 1.6991845322e+00 2.9430739413e+00 
7400 6.5036040250e+00 -8.6470074112e-02 1.7017371988e+00 -2.9474952895e+00 1.7017371988e+00 2.9474952895e+00 
7500 6.5021301767e+00 -8.6139166818e-02 1.7042784713e+00 -2.9518969026e+00 1.7042784713e+00 2.9518969026e+00 
7600 6.5007203656e+00 -8.5735439339e-02 1.7068062397e+00 -2.9562751258e+00 1.7068062397e+00 2.9562751258e+00 
7700 6.4993748489e+00 -8.5259744654e-02 1.7093184298e+00 -2.9606263667e+00 1.7093184298e+00 2.9606263667e+00 
7800 6.4980937809e+00 -8.4712984662e-02 1.7118130044e+00 -2.9649470967e+00 1.7118130044e+00 2.9649470967e+00 
7900 6.4968772081e+00 -8.4096112147e-02 1.7142879641e+00 -2.9692338526e+00 1.7142879641e+00 2.9692338526e+00 
8000 6.4957250647e+00 -8.3410132639e-02 1.7167413482e+00 -2.9734832385e+00 1.7167413482e+00 2.9734832385e+00 
8100 6.4946371692e+00 -8.2656106166e-02 1.7191712360e+00 -2.9776919276e+00 1.7191712360e+00 2.9776919276e+00 
8200 6.4936132220e+00 -8.1835148882e-02 1.7215757476e+00 -2.9818566639e+00 1.7215757476e+00 2.9818566639e+00 
8300 6.4926528031e+00 -8.0948434581e-02 1.7239530450e+00 -2.9859742638e+00 1.7239530450e+00 2.9859742638e+00 
8400 6.4917553709e+00 -7.9997196081e-02 1.7263013335e+00 -2.9900416188e+00 1.7263013335e+00 2.9900416188e+00 
8500 6.4909202616e+00 -7.8982726482e-02 1.7286188625e+00 -2.9940556968e+00 1.7286188625e+00 2.9940556968e+00 
8600 6.4901466895e+00 -7.7906380278e-02 1.7309039267e+00 -2.9980135440e+00 1.7309039267e+00 2.9980135440e+00 
8700 6.4894337477e+00 -7.6769574335e-02 1.7331548673e+00 -3.0019122876e+00 1.7331548673e+00 3.0019122876e+00 
8800 6.4887804092e+00 -7.5573788725e-02 1.7353700734e+00 -3.0057491371e+00 1.7353700734e+00 3.0057491371e+00 
8900 6.4881855297e+00 -7.4320567398e-02 1.7375479827e+00 -3.0095213867e+00 1.7375479827e+00 3.0095213867e+00 
9000 6.4876478493e+00 -7.3011518704e-02 1.7396870832e+00 -3.0132264174e+00 1.7396870832e+00 3.0132264174e+00 
9100 6.4871659967e+00 -7.1648315749e-02 1.7417859141e+00 -3.0168616991e+00 1.7417859141e+00 3.0168616991e+00 
9200 6.4867384925e+00 -7.0232696580e-02 1.7438430670e+00 -3.0204247925e+00 1.7438430670e+00 3.0204247925e+00 
9300 6.4863637535e+00 -6.8766464190e-02 1.7458571874e+00 -3.0239133514e+00 1.7458571874e+00 3.0239133514e+00 
9400 6.4860400977e+00 -6.7251486346e-02 1.7478269756e+00 -3.0273251246e+00 1.7478269756e+00 3.0273251246e+00 
9500 6.4857657498e+00 -6.5689695222e-02 1.7497511881e+00 -3.0306579584e+00 1.7497511881e+00 3.0306579584e+00 
9600 6.4855388466e+00 -6.4083086834e-02 1.7516286387e+00 -3.0339097982e+00 1.7516286387e+00 3.0339097982e+00 
9700 6.4853574435e+00 -6.2433720271e-02 1.7534581997e+00 -3.0370786909e+00 1.7534581997e+00 3.0370786909e+00 
9800 6.4852195211e+00 -6.0743716719e-02 1.7552388032e+00 -3.0401627865e+00 1.7552388032e+00 3.0401627865e+00 
9900 6.4851229917e+00 -5.9015258258e-02 1.7569694420e+00 -3.0431603408e+00 1.7569694420e+00 3.0431603408e+00 
10000 6.4850657072e+00 -5.7250586441e-02 1.7586491710e+00 -3.0460697168e+00 1.7586491710e+00 3.0460697168e+00 
10100 6.4850454662e+00 -5.5452000639e-02 1.7602771082e+00 -3.0488893868e+00 1.7602771082e+00 3.0488893868e+00 
10200 6.4850600219e+00 -5.3621856145e-02 1.7618524358e+00 -3.0516179343e+00 1.7618524358e+00 3.0516179343e+00 
10300 6.4851070903e+00 -5.1762562045e-02 1.7633744012e+00 -3.0542540557e+00 1.7633744012e+00 3.0542540557e+00 
10400 6.4851843579e+00 -4.9876578828e-02 1.7648423180e+00 -3.0567965621e+00 1.7648423180e+00 3.0567965621e+00 
10500 6.4852894908e+00 -4.7966415755e-02 1.7662555669e+00 -3.0592443810e+00 1.7662555669e+00 3.0592443810e+00 
10600 6.4854201422e+00 -4.6034627966e-02 1.7676135968e+00 -3.0615965578e+00 1.7676135968e+00 3.0615965578e+00 
10700 6.4855739616e+00 -4.4083813333e-02 1.7689159254e+00 -3.0638522571e+00 1.7689159254e+00 3.0638522571e+00 
10800 6.4857486029e+00 -4.2116609056e-02 1.7701621402e+00 -3.0660107645e+00 1.7701621402e+00 3.0660107645e+00 
10900 6.4859417331e+00 -4.0135687997e-02 1.7713518991e+00 -3.0680714874e+00 1.7713518991e+00 3.0680714874e+00 
11000 6.4861510405e+00 -3.8143754755e-02 1.7724849310e+00 -3.0700339562e+00 1.7724849310e+00 3.0700339562e+00 
11100 6.4863742431e+00 -3.6143541500e-02 1.7735610364e+00 -3.0718978254e+00 1.7735610364e+00 3.0718978254e+00 
11200 6.4866090967e+00 -3.4137803540e-02 1.7745800879e+00 -3.0736628744e+00 1.7745800879e+00 3.0736628744e+00 
11300 6.4868534029e+00 -3.2129314659e-02 1.7755420306e+00 -3.0753290079e+00 1.7755420306e+00 3.0753290079e+00 
11400 6.4871050170e+00 -3.0120862212e-02 1.7764468822e+00 -3.0768962569e+00 1.7764468822e+00 3.0768962569e+00 
11500 6.4873618550e+00 -2.8115241999e-02 1.7772947335e+00 -3.0783647785e+00 1.7772947335e+00 3.0783647785e+00 
11600 6.4876219013e+00 -2.6115252928e-02 1.7780857483e+00 -3.0797348562e+00 1.7780857483e+00 3.0797348562e+00 
11700 6.4878832152e+00 -2.4123691466e-02 1.7788201631e+00 -3.0810068999e+00 1.7788201631e+00 3.0810068999e+00 
11800 6.4881439372e+00 -2.2143345926e-02 1.7794982874e+00 -3.0821814457e+00 1.7794982874e+00 3.0821814457e+00 
11900 6.4884022954e+00 -2.0176990569e-02 1.7801205031e+00 -3.0832591549e+00 1.7801205031e+00 3.0832591549e+00 
12000 6.4886566109e+00 -1.8227379570e-02 1.7806872642e+00 -3.0842408139e+00 1.7806872642e+00 3.0842408139e+00 
12100 6.4889053028e+00 -1.6297240858e-02 1.7811990961e+00 -3.0851273328e+00 1.7811990961e+00 3.0851273328e+00 
12200 6.4891468928e+00 -1.4389269855e-02 1.7816565952e+00 -3.0859197445e+00 1.7816565952e+00 3.0859197445e+00 
12300 6.4893800094e+00 -1.2506123132e-02 1.7820604276e+00 -3.0866192027e+00 1.7820604276e+00 3.0866192027e+00 
12400 6.4896033913e+00 -1.0650412027e-02 1.7824113285e+00 -3.0872269810e+00 1.7824113285e+00 3.0872269810e+00 
12500 6.4898158901e+00 -8.8246962329e-03 1.7827101010e+00 -3.0877444701e+00 1.7827101010e+00 3.0877444701e+00 
12600 6.4900164731e+00 -7.0314774034e-03 1.7829576146e+00 -3.0881731762e+00 1.7829576146e+00 3.0881731762e+00 
12700 6.4902042246e+00 -5.2731927906e-03 1.7831548040e+00 -3.0885147183e+00 1.7831548040e+00 3.0885147183e+00 
12800 6.4903783472e+00 -3.5522089611e-03 1.7833026674e+00 -3.0887708252e+00 1.7833026674e+00 3.0887708252e+00 
12900 6.4905381623e+00 -1.8708156151e-03 1.7834022647e+00 -3.0889433327e+00 1.7834022647e+00 3.0889433327e+00 
13000 6.4906831098e+00 -2.3121954410e-04 1.7834547157e+00 -3.0890341805e+00 1.7834547157e+00 3.0890341805e+00 
13100 6.4908127476e+00 1.3644612392e-03 1.7834611980e+00 -3.0890454083e+00 1.7834611980e+00 3.0890454083e+00 
13200 6.4909267500e+00 2.9142031659e-03 1.7834229450e+00 -3.0889791521e+00 1.7834229450e+00 3.0889791521e+00 
13300 6.4910249058e+00 4.4160825375e-03 1.7833412431e+00 -3.0888376403e+00 1.7833412431e+00 3.0888376403e+00 
13400 6.4911071158e+00 5.8682806816e-03 1.7832174297e+00 -3.0886231891e+00 1.7832174297e+00 3.0886231891e+00 
13500 6.4911733898e+00 7.2690888058e-03 1.7830528903e+00 -3.0883381985e+00 1.7830528903e+00 3.0883381985e+00 
13600 6.4912238427e+00 8.6169125194e-03 1.7828490559e+00 -3.0879851470e+00 1.7828490559e+00 3.0879851470e+00 
13700 6.4912586902e+00 9.9102759942e-03 1.7826074000e+00 -3.0875665868e+00 1.7826074000e+00 3.0875665868e+00 
13800 6.4912782448e+00 1.1147825738e-02 1.7823294359e+00 -3.0870851388e+00 1.7823294359e+00 3.0870851388e+00 
13900 6.4912829098e+00 1.2328333959e-02 1.7820167131e+00 -3.0865434871e+00 1.7820167131e+00 3.0865434871e+00 
14000 6.4912731743e+00 1.3450701489e-02 1.7816708147e+00 -3.0859443735e+00 1.7816708147e+00 3.0859443735e+00 
14100 6.4912496074e+00 1.4513960266e-02 1.7812933537e+00 -3.0852905918e+00 1.7812933537e+00 3.0852905918e+00 
14200 6.4912128513e+00 1.5517275335e-02 1.7808859697e+00 -3.0845849820e+00 1.7808859697e+00 3.0845849820e+00 
14300 6.4911636155e+00 1.6459946374e-02 1.7804503258e+00 -3.0838304247e+00 1.7804503258e+00 3.0838304247e+00 
14400 6.4911026696e+00 1.7341408727e-02 1.7799881047e+00 -3.0830298342e+00 1.7799881047e+00 3.0830298342e+00 
14500 6.4910308362e+00 1.8161233932e-02 1.7795010055e+00 -3.0821861536e+00 1.7795010055e+00 3.0821861536e+00 
14600 6.4909489843e+00 1.8919129754e-02 1.7789907398e+00 -3.0813023475e+00 1.7789907398e+00 3.0813023475e+00 
14700 6.4908580216e+00 1.9614939707e-02 1.7784590286e+00 -3.0803813966e+00 1.7784590286e+00 3.0803813966e+00 
14800 6.4907588873e+00 2.0248642091e-02 1.7779075982e+00 -3.0794262913e+00 1.7779075982e+00 3.0794262913e+00 
14900 6.4906525451e+00 2.0820348522e-02 1.7773381771e+00 -3.0784400250e+00 1.7773381771e+00 3.0784400250e+00 
15000 6.4905399756e+00 2.1330301993e-02 1.7767524922e+00 -3.0774255889e+00 1.7767524922e+00 3.0774255889e+00 
15100 6.4904221697e+00 2.1778874462e-02 1.7761522651e+00 -3.0763859651e+00 1.7761522651e+00 3.0763859651e+00 
15200 6.4903001210e+00 2.2166563996e-02 1.7755392089e+00 -3.0753241207e+00 1.7755392089e+00 3.0753241207e+00 
15300 6.4901748196e+00 2.2493991481e-02 1.7749150249e+00 -3.0742430022e+00 1.7749150249e+00 3.0742430022e+00 
15400 6.4900472452e+00 2.2761896926e-02 1.7742813987e+00 -3.0731455295e+00 1.7742813987e+00 3.0731455295e+00 
15500 6.4899183611e+00 2.2971135389e-02 1.7736399975e+00 -3.0720345900e+00 1.7736399975e+00 3.0720345900e+00 
15600 6.4897891080e+00 2.3122672545e-02 1.7729924665e+00 -3.0709130334e+00 1.7729924665e+00 3.0709130334e+00 
15700 6.4896603985e+00 2.3217579936e-02 1.7723404261e+00 -3.0697836663e+00 1.7723404261e+00 3.0697836663e+00 
15800 6.4895331118e+00 2.3257029915e-02 1.7716854687e+00 -3.0686492468e+00 1.7716854687e+00 3.0686492468e+00 
15900 6.4894080892e+00 2.3242290347e-02 1.7710291560e+00 -3.0675124799e+00 1.7710291560e+00 3.0675124799e+00 
16000 6.4892861293e+00 2.3174719067e-02 1.7703730162e+00 -3.0663760124e+00 1.7703730162e+00 3.0663760124e+00 
16100 6.4891679840e+00 2.3055758153e-02 1.7697185414e+00 -3.0652424288e+00 1.7697185414e+00 3.0652424288e+00 
16200 6.4890543554e+00 2.2886928040e-02 1.7690671852e+00 -3.0641142467e+00 1.7690671852e+00 3.0641142467e+00 
16300 6.4889458926e+00 2.2669821501e-02 1.7684203603e+00 -3.0629939132e+00 1.7684203603e+00 3.0629939132e+00 
16400 6.4888431888e+00 2.2406097549e-02 1.7677794366e+00 -3.0618838007e+00 1.7677794366e+00 3.0618838007e+00 
16500 6.4887467798e+00 2.2097475277e-02 1.7671457388e+00 -3.0607862040e+00 1.7671457388e+00 3.0607862040e+00 
16600 6.4886571420e+00 2.1745727666e-02 1.7665205450e+00 -3.0597033365e+00 1.7665205450e+00 3.0597033365e+00 
16700 6.4885746913e+00 2.1352675416e-02 1.7659050847e+00 -3.0586373281e+00 1.7659050847e+00 3.0586373281e+00 
16800 6.4884997825e+00 2.0920180799e-02 1.7653005376e+00 -3.0575902217e+00 1.7653005376e+00 3.0575902217e+00 
16900 6.4884327094e+00 2.0450141585e-02 1.7647080320e+00 -3.0565639719e+00 1.7647080320e+00 3.0565639719e+00 
17000 6.4883737045e+00 1.9944485061e-02 1.7641286437e+00 -3.0555604420e+00 1.7641286437e+00 3.0555604420e+00 
17100 6.4883229400e+00 1.9405162163e-02 1.7635633953e+00 -3.0545814030e+00 1.7635633953e+00 3.0545814030e+00 
17200 6.4882805285e+00 1.8834141753e-02 1.7630132548e+00 -3.0536285317e+00 1.7630132548e+00 3.0536285317e+00 
17300 6.4882465251e+00 1.8233405053e-02 1.7624791354e+00 -3.0527034098e+00 1.7624791354e+00 3.0527034098e+00 
17400 6.4882209284e+00 1.7604940262e-02 1.7619618949e+00 -3.0518075229e+00 1.7619618949e+00 3.0518075229e+00 
17500 6.4882036831e+00 1.6950737364e-02 1.7614623350e+00 -3.0509422599e+00 1.7614623350e+00 3.0509422599e+00 
17600 6.4881946822e+00 1.6272783156e-02 1.7609812017e+00 -3.0501089125e+00 1.7609812017e+00 3.0501089125e+00 
17700 6.4881937697e+00 1.5573056482e-02 1.7605191845e+00 -3.0493086752e+00 1.7605191845e+00 3.0493086752e+00 
17800 6.4882007436e+00 1.4853523718e-02 1.7600769171e+00 -3.0485426457e+00 1.7600769171e+00 3.0485426457e+00 
17900 6.4882153589e+00 1.4116134479e-02 1.7596549773e+00 -3.0478118245e+00 1.7596549773e+00 3.0478118245e+00 
18000 6.4882373308e+00 1.3362817582e-02 1.7592538874e+00 -3.0471171163e+00 1.7592538874e+00 3.0471171163e+00 
18100 6.4882663383e+00 1.2595477255e-02 1.7588741145e+00 -3.0464593305e+00 1.7588741145e+00 3.0464593305e+00 
18200 6.4883020275e+00 1.1815989597e-02 1.7585160716e+00 -3.0458391819e+00 1.7585160716e+00 3.0458391819e+00 
18300 6.4883440158e+00 1.1026199282e-02 1.7581801175e+00 -3.0452572924e+00 1.7581801175e+00 3.0452572924e+00 
18400 6.4883918945e+00 1.0227916527e-02 1.7578665583e+00 -3.0447141919e+00 1.7578665583e+00 3.0447141919e+00 
18500 6.4884452336e+00 9.4229142905e-03 1.7575756478e+00 -3.0442103202e+00 1.7575756478e+00 3.0442103202e+00 
18600 6.4885035849e+00 8.6129257233e-03 1.7573075890e+00 -3.0437460286e+00 1.7573075890e+00 3.0437460286e+00 
18700 6.4885664854e+00 7.7996418538e-03 1.7570625344e+00 -3.0433215817e+00 1.7570625344e+00 3.0433215817e+00 
18800 6.4886334618e+00 6.9847095028e-03 1.7568405879e+00 -3.0429371590e+00 1.7568405879e+00 3.0429371590e+00 
18900 6.4887040330e+00 6.1697294221e-03 1.7566418056e+00 -3.0425928579e+00 1.7566418056e+00 3.0425928579e+00 
19000 6.4887777141e+00 5.3562546493e-03 1.7564661970e+00 -3.0422886950e+00 1.7564661970e+00 3.0422886950e+00 
19100 6.4888540195e+00 4.5457890684e-03 1.7563137267e+00 -3.0420246087e+00 1.7563137267e+00 3.0420246087e+00 
19200 6.4889324664e+00 3.7397861689e-03 1.7561843155e+00 -3.0418004620e+00 1.7561843155e+00 3.0418004620e+00 
19300 6.4890125770e+00 2.9396479926e-03 1.7560778419e+00 -3.0416160441e+00 1.7560778419e+00 3.0416160441e+00 
19400 6.4890938823e+00 2.1467242599e-03 1.7559941433e+00 -3.0414710739e+00 1.7559941433e+00 3.0414710739e+00 
19500 6.4891759240e+00 1.3623116644e-03 1.7559330180e+00 -3.0413652019e+00 1.7559330180e+00 3.0413652019e+00 
19600 6.4892582572e+00 5.8765332645e-04 1.7558942265e+00 -3.0412980130e+00 1.7558942265e+00 3.0412980130e+00 
19700 6.4893404531e+00 -1.7606160321e-04 1.7558774928e+00 -3.0412690294e+00 1.7558774928e+00 3.0412690294e+00 
19800 6.4894221001e+00 -9.2769820109e-04 1.7558825063e+00 -3.0412777130e+00 1.7558825063e+00 3.0412777130e+00 
19900 6.4895028067e+00 -1.6661758981e-03 1.7559089232e+00 -3.0413234685e+00 1.7559089232e+00 3.0413234685e+00 
20000 6.4895822025e+00 -2.3904684857e-03 1.7559563682e+00 -3.0414056457e+00 1.7559563682e+00 3.0414056457e+00 
20100 6.4896599395e+00 -3.0996040107e-03 1.7560244361e+00 -3.0415235427e+00 1.7560244361e+00 3.0415235427e+00 
20200 6.4897356940e+00 -3.7926645665e-03 1.7561126931e+00 -3.0416764083e+00 1.7561126931e+00 3.0416764083e+00 
20300 6.4898091670e+00 -4.4687859891e-03 1.7562206789e+00 -3.0418634452e+00 1.7562206789e+00 3.0418634452e+00 
20400 6.4898800852e+00 -5.1271574667e-03 1.7563479078e+00 -3.0420838120e+00 1.7563479078e+00 3.0420838120e+00 
20500 6.4899482016e+00 -5.7670210693e-03 1.7564938706e+00 -3.0423366270e+00 1.7564938706e+00 3.0423366270e+00 
20600 6.4900132958e+00 -6.3876712056e-03 1.7566580360e+00 -3.0426209698e+00 1.7566580360e+00 3.0426209698e+00 
20700 6.4900751745e+00 -6.9884540142e-03 1.7568398523e+00 -3.0429358849e+00 1.7568398523e+00 3.0429358849e+00 
20800 6.4901336711e+00 -7.5687666955e-03 1.7570387488e+00 -3.0432803838e+00 1.7570387488e+00 3.0432803838e+00 
20900 6.4901886461e+00 -8.1280567889e-03 1.7572541373e+00 -3.0436534477e+00 1.7572541373e+00 3.0436534477e+00 
21000 6.4902399860e+00 -8.6658214017e-03 1.7574854139e+00 -3.0440540305e+00 1.7574854139e+00 3.0440540305e+00 
21100 6.4902876037e+00 -9.1816063948e-03 1.7577319601e+00 -3.0444810609e+00 1.7577319601e+00 3.0444810609e+00 
21200 6.4903314374e+00 -9.6750055288e-03 1.7579931442e+00 -3.0449334451e+00 1.7579931442e+00 3.0449334451e+00 
21300 6.4903714501e+00 -1.0145659576e-02 1.7582683232e+00 -3.0454100692e+00 1.7582683232e+00 3.0454100692e+00 
21400 6.4904076283e+00 -1.0593255400e-02 1.7585568440e+00 -3.0459098017e+00 1.7585568440e+00 3.0459098017e+00 
21500 6.4904399816e+00 -1.1017525010e-02 1.7588580443e+00 -3.0464314960e+00 1.7588580443e+00 3.0464314960e+00 
21600 6.4904685415e+00 -1.1418244588e-02 1.7591712547e+00 -3.0469739923e+00 1.7591712547e+00 3.0469739923e+00 
21700 6.4904933599e+00 -1.1795233498e-02 1.7594957994e+00 -3.0475361203e+00 1.7594957994e+00 3.0475361203e+00 
21800 6.4905145083e+00 -1.2148353274e-02 1.7598309979e+00 -3.0481167012e+00 1.7598309979e+00 3.0481167012e+00 
21900 6.4905320763e+00 -1.2477506590e-02 1.7601761660e+00 -3.0487145498e+00 1.7601761660e+00 3.0487145498e+00 
22000 6.4905461702e+00 -1.2782636222e-02 1.7605306171e+00 -3.0493284770e+00 1.7605306171e+00 3.0493284770e+00 
22100 6.4905569119e+00 -1.3063723990e-02 1.7608936632e+00 -3.0499572913e+00 1.7608936632e+00 3.0499572913e+00 
22200 6.4905644371e+00 -1.3320789694e-02 1.7612646164e+00 -3.0505998011e+00 1.7612646164e+00 3.0505998011e+00 
22300 6.4905688944e+00 -1.3553890040e-02 1.7616427897e+00 -3.0512548165e+00 1.7616427897e+00 3.0512548165e+00 
22400 6.4905704433e+00 -1.3763117559e-02 1.7620274983e+00 -3.0519211514e+00 1.7620274983e+00 3.0519211514e+00 
22500 6.4905692529e+00 -1.3948599516e-02 1.7624180605e+00 -3.0525976249e+00 1.7624180605e+00 3.0525976249e+00 
22600 6.4905655009e+00 -1.4110496820e-02 1.7628137986e+00 -3.0532830635e+00 1.7628137986e+00 3.0532830635e+00 
22700 6.4905593714e+00 -1.4249002925e-02 1.7632140403e+00 -3.0539763024e+00 1.7632140403e+00 3.0539763024e+00 
22800 6.4905510544e+00 -1.4364342726e-02 1.7636181191e+00 -3.0546761874e+00 1.7636181191e+00 3.0546761874e+00 
22900 6.4905407437e+00 -1.4456771459e-02 1.7640253755e+00 -3.0553815762e+00 1.7640253755e+00 3.0553815762e+00 
23000 6.4905286358e+00 -1.4526573596e-02 1.7644351579e+00 -3.0560913401e+00 1.7644351579e+00 3.0560913401e+00 
23100 6.4905149288e+00 -1.4574061735e-02 1.7648468233e+00 -3.0568043655e+00 1.7648468233e+00 3.0568043655e+00 
23200 6.4904998211e+00 -1.4599575496e-02 1.7652597381e+00 -3.0575195550e+00 1.7652597381e+00 3.0575195550e+00 
23300 6.4904835100e+00 -1.4603480417e-02 1.7656732791e+00 -3.0582358290e+00 1.7656732791e+00 3.0582358290e+00 
23400 6.4904661907e+00 -1.4586166843e-02 1.7660868339e+00 -3.0589521268e+00 1.7660868339e+00 3.0589521268e+00 
23500 6.4904480554e+00 -1.4548048826e-02 1.7664998015e+00 -3.0596674078e+00 1.7664998015e+00 3.0596674078e+00 
23600 6.4904292920e+00 -1.4489563024e-02 1.7669115936e+00 -3.0603806527e+00 1.7669115936e+00 3.0603806527e+00 
23700 6.4904100835e+00 -1.4411167597e-02 1.7673216346e+00 -3.0610908645e+00 1.7673216346e+00 3.0610908645e+00 
23800 6.4903906070e+00 -1.4313341116e-02 1.7677293624e+00 -3.0617970697e+00 1.7677293624e+00 3.0617970697e+00 
23900 6.4903710328e+00 -1.4196581466e-02 1.7681342289e+00 -3.0624983190e+00 1.7681342289e+00 3.0624983190e+00 
24000 6.4903515239e+00 -1.4061404757e-02 1.7685357006e+00 -3.0631936884e+00 1.7685357006e+00 3.0631936884e+00 
24100 6.4903322351e+00 -1.3908344240e-02 1.7689332592e+00 -3.0638822801e+00 1.7689332592e+00 3.0638822801e+00 
24200 6.4903133128e+00 -1.3737949231e-02 1.7693264018e+00 -3.0645632230e+00 1.7693264018e+00 3.0645632230e+00 
24300 6.4902948942e+00 -1.3550784027e-02 1.7697146414e+00 -3.0652356737e+00 1.7697146414e+00 3.0652356737e+00 
24400 6.4902771072e+00 -1.3347426846e-02 1.7700975074e+00 -3.0658988172e+00 1.7700975074e+00 3.0658988172e+00 
24500 6.4902600696e+00 -1.3128468761e-02 1.7704745460e+00 -3.0665518671e+00 1.7704745460e+00 3.0665518671e+00 
24600 6.4902438893e+00 -1.2894512642e-02 1.7708453202e+00 -3.0671940669e+00 1.7708453202e+00 3.0671940669e+00 
24700 6.4902286639e+00 -1.2646172109e-02 1.7712094106e+00 -3.0678246899e+00 1.7712094106e+00 3.0678246899e+00 
24800 6.4902144806e+00 -1.2384070493e-02 1.7715664151e+00 -3.0684430400e+00 1.7715664151e+00 3.0684430400e+00 
24900 6.4902014159e+00 -1.2108839799e-02 1.7719159498e+00 -3.0690484518e+00 1.7719159498e+00 3.0690484518e+00 
25000 6.4901895362e+00 -1.1821119681e-02 1.7722576485e+00 -3.0696402914e+00 1.7722576485e+00 3.0696402914e+00 
25100 6.4901788972e+00 -1.1521556433e-02 1.7725911635e+00 -3.0702179563e+00 1.7725911635e+00 3.0702179563e+00 
25200 6.4901695444e+00 -1.1210801975e-02 1.7729161654e+00 -3.0707808760e+00 1.7729161654e+00 3.0707808760e+00 
25300 6.4901615132e+00 -1.0889512863e-02 1.7732323432e+00 -3.0713285121e+00 1.7732323432e+00 3.0713285121e+00 
25400 6.4901548290e+00 -1.0558349302e-02 1.7735394047e+00 -3.0718603582e+00 1.7735394047e+00 3.0718603582e+00 
25500 6.4901495077e+00 -1.0217974174e-02 1.7738370763e+00 -3.0723759404e+00 1.7738370763e+00 3.0723759404e+00 
25600 6.4901455558e+00 -9.8690520722e-03 1.7741251030e+00 -3.0728748174e+00 1.7741251030e+00 3.0728748174e+00 
25700 6.4901429709e+00 -9.5122483566e-03 1.7744032488e+00 -3.0733565801e+00 1.7744032488e+00 3.0733565801e+00 
25800 6.4901417420e+00 -9.1482282140e-03 1.7746712964e+00 -3.0738208520e+00 1.7746712964e+00 3.0738208520e+00 
25900 6.4901418499e+00 -8.7776557369e-03 1.7749290469e+00 -3.0742672890e+00 1.7749290469e+00 3.0742672890e+00 
26000 6.4901432680e+00 -8.4011930139e-03 1.7751763204e+00 -3.0746955794e+00 1.7751763204e+00 3.0746955794e+00 
26100 6.4901459620e+00 -8.0194992365e-03 1.7754129555e+00 -3.0751054433e+00 1.7754129555e+00 3.0751054433e+00 
26200 6.4901498913e+00 -7.6332298205e-03 1.7756388091e+00 -3.0754966333e+00 1.7756388091e+00 3.0754966333e+00 
26300 6.4901550090e+00 -7.2430355443e-03 1.7758537567e+00 -3.0758689334e+00 1.7758537567e+00 3.0758689334e+00 
26400 6.4901612626e+00 -6.8495617029e-03 1.7760576916e+00 -3.0762221591e+00 1.7760576916e+00 3.0762221591e+00 
26500 6.4901685943e+00 -6.4534472811e-03 1.7762505256e+00 -3.0765561574e+00 1.7762505256e+00 3.0765561574e+00 
26600 6.4901769420e+00 -6.0553241431e-03 1.7764321880e+00 -3.0768708058e+00 1.7764321880e+00 3.0768708058e+00 
26700 6.4901862395e+00 -5.6558162428e-03 1.7766026257e+00 -3.0771660126e+00 1.7766026257e+00 3.0771660126e+00 
26800 6.4901964170e+00 -5.2555388523e-03 1.7767618031e+00 -3.0774417160e+00 1.7767618031e+00 3.0774417160e+00 
26900 6.4902074021e+00 -4.8550978121e-03 1.7769097017e+00 -3.0776978839e+00 1.7769097017e+00 3.0776978839e+00 
27000 6.4902191200e+00 -4.4550888013e-03 1.7770463198e+00 -3.0779345133e+00 1.7770463198e+00 3.0779345133e+00 
27100 6.4902314938e+00 -4.0560966307e-03 1.7771716722e+00 -3.0781516301e+00 1.7771716722e+00 3.0781516301e+00 
27200 6.4902444458e+00 -3.6586945578e-03 1.7772857901e+00 -3.0783492880e+00 1.7772857901e+00 3.0783492880e+00 
27300 6.4902578972e+00 -3.2634436259e-03 1.7773887204e+00 -3.0785275685e+00 1.7773887204e+00 3.0785275685e+00 
27400 6.4902717691e+00 -2.8708920266e-03 1.7774805256e+00 -3.0786865798e+00 1.7774805256e+00 3.0786865798e+00 
27500 6.4902859827e+00 -2.4815744877e-03 1.7775612835e+00 -3.0788264567e+00 1.7775612835e+00 3.0788264567e+00 
27600 6.4903004602e+00 -2.0960116866e-03 1.7776310868e+00 -3.0789473594e+00 1.7776310868e+00 3.0789473594e+00 
27700 6.4903151246e+00 -1.7147096902e-03 1.7776900423e+00 -3.0790494734e+00 1.7776900423e+00 3.0790494734e+00 
27800 6.4903299005e+00 -1.3381594211e-03 1.7777382711e+00 -3.0791330081e+00 1.7777382711e+00 3.0791330081e+00 
27900 6.4903447146e+00 -9.6683615275e-04 1.7777759078e+00 -3.0791981968e+00 1.7777759078e+00 3.0791981968e+00 
28000 6.4903594958e+00 -6.0119903163e-04 1.7778031002e+00 -3.0792452954e+00 1.7778031002e+00 3.0792452954e+00 
28100 6.4903741756e+00 -2.4169062956e-04 1.7778200087e+00 -3.0792745818e+00 1.7778200087e+00 3.0792745818e+00 
28200 6.4903886886e+00 1.1126347507e-04 1.7778268061e+00 -3.0792863552e+00 1.7778268061e+00 3.0792863552e+00 
28300 6.4904029723e+00 4.5725508565e-04 1.7778236769e+00 -3.0792809353e+00 1.7778236769e+00 3.0792809353e+00 
28400 6.4904169680e+00 7.9589374503e-04 1.7778108169e+00 -3.0792586612e+00 1.7778108169e+00 3.0792586612e+00 
28500 6.4904306205e+00 1.1268070620e-03 1.7777884329e+00 -3.0792198909e+00 1.7777884329e+00 3.0792198909e+00 
28600 6.4904438786e+00 1.4496410062e-03 1.7777567417e+00 -3.0791650001e+00 1.7777567417e+00 3.0791650001e+00 
28700 6.4904566950e+00 1.7640601710e-03 1.7777159702e+00 -3.0790943819e+00 1.7777159702e+00 3.0790943819e+00 
28800 6.4904690267e+00 2.0697480040e-03 1.7776663545e+00 -3.0790084450e+00 1.7776663545e+00 3.0790084450e+00 
28900 6.4904808349e+00 2.3664070047e-03 1.7776081396e+00 -3.0789076137e+00 1.7776081396e+00 3.0789076137e+00 
29000 6.4904920850e+00 2.6537588901e-03 1.7775415784e+00 -3.0787923264e+00 1.7775415784e+00 3.0787923264e+00 
29100 6.4905027472e+00 2.9315447263e-03 1.7774669321e+00 -3.0786630351e+00 1.7774669321e+00 3.0786630351e+00 
29200 6.4905127955e+00 3.1995250274e-03 1.7773844686e+00 -3.0785202042e+00 1.7773844686e+00 3.0785202042e+00 
29300 6.4905222088e+00 3.4574798219e-03 1.7772944628e+00 -3.0783643096e+00 1.7772944628e+00 3.0783643096e+00 
29400 6.4905309699e+00 3.7052086850e-03 1.7771971956e+00 -3.0781958379e+00 1.7771971956e+00 3.0781958379e+00 
29500 6.4905390664e+00 3.9425307386e-03 1.7770929536e+00 -3.0780152854e+00 1.7770929536e+00 3.0780152854e+00 
29600 6.4905464895e+00 4.1692846187e-03 1.7769820283e+00 -3.0778231572e+00 1.7769820283e+00 3.0778231572e+00 
29700 6.4905532349e+00 4.3853284099e-03 1.7768647160e+00 -3.0776199663e+00 1.7768647160e+00 3.0776199663e+00 
29800 6.4905593022e+00 4.5905395478e-03 1.7767413167e+00 -3.0774062324e+00 1.7767413167e+00 3.0774062324e+00 
29900 6.4905646947e+00 4.7848146902e-03 1.7766121340e+00 -3.0771824814e+00 1.7766121340e+00 3.0771824814e+00 
30000 6.4905694193e+00 4.9680695567e-03 1.7764774745e+00 -3.0769492443e+00 1.7764774745e+00 3.0769492443e+00 
30100 6.4905734867e+00 5.1402387376e-03 1.7763376471e+00 -3.0767070562e+00 1.7763376471e+00 3.0767070562e+00 
30200 6.4905769105e+00 5.3012754731e-03 1.7761929626e+00 -3.0764564553e+00 1.7761929626e+00 3.0764564553e+00 
30300 6.4905797075e+00 5.4511514029e-03 1.7760437333e+00 -3.0761979826e+00 1.7760437333e+00 3.0761979826e+00 
30400 6.4905818975e+00 5.5898562881e-03 1.7758902722e+00 -3.0759321801e+00 1.7758902722e+00 3.0759321801e+00 
30500 6.4905835028e+00 5.7173977041e-03 1.7757328927e+00 -3.0756595909e+00 1.7757328927e+00 3.0756595909e+00 
30600 6.4905845480e+00 5.8338007083e-03 1.7755719082e+00 -3.0753807575e+00 1.7755719082e+00 3.0753807575e+00 
30700 6.4905850601e+00 5.9391074810e-03 1.7754076312e+00 -3.0750962214e+00 1.7754076312e+00 3.0750962214e+00 
30800 6.4905850679e+00 6.0333769422e-03 1.7752403735e+00 -3.0748065225e+00 1.7752403735e+00 3.0748065225e+00 
30900 6.4905846019e+00 6.1166843448e-03 1.7750704449e+00 -3.0745121976e+00 1.7750704449e+00 3.0745121976e+00 
31000 6.4905836939e+00 6.1891208447e-03 1.7748981536e+00 -3.0742137802e+00 1.7748981536e+00 3.0742137802e+00 
31100 6.4905823772e+00 6.2507930512e-03 1.7747238050e+00 -3.0739117996e+00 1.7747238050e+00 3.0739117996e+00 
31200 6.4905806856e+00 6.3018225553e-03 1.7745477018e+00 -3.0736067800e+00 1.7745477018e+00 3.0736067800e+00 
31300 6.4905786541e+00 6.3423454415e-03 1.7743701434e+00 -3.0732992398e+00 1.7743701434e+00 3.0732992398e+00 
31400 6.4905763179e+00 6.3725117804e-03 1.7741914254e+00 -3.0729896911e+00 1.7741914254e+00 3.0729896911e+00 
31500 6.4905737123e+00 6.3924851066e-03 1.7740118392e+00 -3.0726786388e+00 1.7740118392e+00 3.0726786388e+00 
31600 6.4905708731e+00 6.4024418809e-03 1.7738316720e+00 -3.0723665799e+00 1.7738316720e+00 3.0723665799e+00 
31700 6.4905678354e+00 6.4025709401e-03 1.7736512058e+00 -3.0720540033e+00 1.7736512058e+00 3.0720540033e+00 
31800 6.4905646342e+00 6.3930729340e-03 1.7734707176e+00 -3.0717413886e+00 1.7734707176e+00 3.0717413886e+00 
31900 6.4905613040e+00 6.3741597531e-03 1.7732904788e+00 -3.0714292058e+00 1.7732904788e+00 3.0714292058e+00 
32000 6.4905578782e+00 6.3460539457e-03 1.7731107549e+00 -3.0711179149e+00 1.7731107549e+00 3.0711179149e+00 
32100 6.4905543896e+00 6.3089881289e-03 1.7729318054e+00 -3.0708079652e+00 1.7729318054e+00 3.0708079652e+00 
32200 6.4905508697e+00 6.2632043918e-03 1.7727538831e+00 -3.0704997948e+00 1.7727538831e+00 3.0704997948e+00 
32300 6.4905473490e+00 6.2089536956e-03 1.7725772342e+00 -3.0701938299e+00 1.7725772342e+00 3.0701938299e+00 
32400 6.4905438563e+00 6.1464952685e-03 1.7724020979e+00 -3.0698904850e+00 1.7724020979e+00 3.0698904850e+00 
32500 6.4905404192e+00 6.0760959991e-03 1.7722287062e+00 -3.0695901618e+00 1.7722287062e+00 3.0695901618e+00 
32600 6.4905370636e+00 5.9980298296e-03 1.7720572837e+00 -3.0692932493e+00 1.7720572837e+00 3.0692932493e+00 
32700 6.4905338138e+00 5.9125771484e-03 1.7718880472e+00 -3.0690001231e+00 1.7718880472e+00 3.0690001231e+00 
32800 6.4905306922e+00 5.8200241852e-03 1.7717212059e+00 -3.0687111454e+00 1.7717212059e+00 3.0687111454e+00 
32900 6.4905277195e+00 5.7206624088e-03 1.7715569607e+00 -3.0684266644e+00 1.7715569607e+00 3.0684266644e+00 
33000 6.4905249144e+00 5.6147879288e-03 1.7713955045e+00 -3.0681470141e+00 1.7713955045e+00 3.0681470141e+00 
33100 6.4905222938e+00 5.5027009030e-03 1.7712370220e+00 -3.0678725143e+00 1.7712370220e+00 3.0678725143e+00 
33200 6.4905198728e+00 5.3847049513e-03 1.7710816893e+00 -3.0676034702e+00 1.7710816893e+00 3.0676034702e+00 
33300 6.4905176642e+00 5.2611065763e-03 1.7709296741e+00 -3.0673401721e+00 1.7709296741e+00 3.0673401721e+00 
33400 6.4905156793e+00 5.1322145934e-03 1.7707811353e+00 -3.0670828955e+00 1.7707811353e+00 3.0670828955e+00 
33500 6.4905139270e+00 4.9983395692e-03 1.7706362234e+00 -3.0668319007e+00 1.7706362234e+00 3.0668319007e+00 
33600 6.4905124147e+00 4.8597932713e-03 1.7704950800e+00 -3.0665874332e+00 1.7704950800e+00 3.0665874332e+00 
33700 6.4905111478e+00 4.7168881281e-03 1.7703578379e+00 -3.0663497228e+00 1.7703578379e+00 3.0663497228e+00 
33800 6.4905101297e+00 4.5699367018e-03 1.7702246211e+00 -3.0661189845e+00 1.7702246211e+00 3.0661189845e+00 
33900 6.4905093623e+00 4.4192511729e-03 1.7700955448e+00 -3.0658954178e+00 1.7700955448e+00 3.0658954178e+00 
34000 6.4905088457e+00 4.2651428389e-03 1.7699707154e+00 -3.0656792069e+00 1.7699707154e+00 3.0656792069e+00 
34100 6.4905085783e+00 4.1079216261e-03 1.7698502305e+00 -3.0654705210e+00 1.7698502305e+00 3.0654705210e+00 
34200 6.4905085569e+00 3.9478956174e-03 1.7697341789e+00 -3.0652695138e+00 1.7697341789e+00 3.0652695138e+00 
34300 6.4905087771e+00 3.7853705933e-03 1.7696226409e+00 -3.0650763242e+00 1.7696226409e+00 3.0650763242e+00 
34400 6.4905092327e+00 3.6206495898e-03 1.7695156878e+00 -3.0648910760e+00 1.7695156878e+00 3.0648910760e+00 
34500 6.4905099167e+00 3.4540324715e-03 1.7694133825e+00 -3.0647138782e+00 1.7694133825e+00 3.0647138782e+00 
34600 6.4905108205e+00 3.2858155215e-03 1.7693157796e+00 -3.0645448248e+00 1.7693157796e+00 3.0645448248e+00 
34700 6.4905119346e+00 3.1162910475e-03 1.7692229248e+00 -3.0643839957e+00 1.7692229248e+00 3.0643839957e+00 
34800 6.4905132484e+00 2.9457470043e-03 1.7691348561e+00 -3.0642314561e+00 1.7691348561e+00 3.0642314561e+00 
34900 6.4905147506e+00 2.7744666347e-03 1.7690516028e+00 -3.0640872573e+00 1.7690516028e+00 3.0640872573e+00 
35000 6.4905164290e+00 2.6027281257e-03 1.7689731866e+00 -3.0639514365e+00 1.7689731866e+00 3.0639514365e+00 
35100 6.4905182708e+00 2.4308042837e-03 1.7688996211e+00 -3.0638240172e+00 1.7688996211e+00 3.0638240172e+00 
35200 6.4905202625e+00 2.2589622261e-03 1.7688309120e+00 -3.0637050096e+00 1.7688309120e+00 3.0637050096e+00 
35300 6.4905223904e+00 2.0874630903e-03 1.7687670577e+00 -3.0635944107e+00 1.7687670577e+00 3.0635944107e+00 
35400 6.4905246402e+00 1.9165617606e-03 1.7687080491e+00 -3.0634922047e+00 1.7687080491e+00 3.0634922047e+00 
35500 6.4905269975e+00 1.7465066120e-03 1.7686538696e+00 -3.0633983632e+00 1.7686538696e+00 3.0633983632e+00 
35600 6.4905294477e+00 1.5775392711e-03 1.7686044960e+00 -3.0633128455e+00 1.7686044960e+00 3.0633128455e+00 
35700 6.4905319761e+00 1.4098943950e-03 1.7685598977e+00 -3.0632355991e+00 1.7685598977e+00 3.0632355991e+00 
35800 6.4905345682e+00 1.2437994659e-03 1.7685200379e+00 -3.0631665599e+00 1.7685200379e+00 3.0631665599e+00 
35900 6.4905372096e+00 1.0794746036e-03 1.7684848731e+00 -3.0631056526e+00 1.7684848731e+00 3.0631056526e+00 
36000 6.4905398859e+00 9.1713239422e-04 1.7684543534e+00 -3.0630527910e+00 1.7684543534e+00 3.0630527910e+00 
36100 6.4905425832e+00 7.5697773509e-04 1.7684284231e+00 -3.0630078784e+00 1.7684284231e+00 3.0630078784e+00 
36200 6.4905452880e+00 5.9920769613e-04 1.7684070206e+00 -3.0629708082e+00 1.7684070206e+00 3.0629708082e+00 
36300 6.4905479870e+00 4.4401139692e-04 1.7683900786e+00 -3.0629414638e+00 1.7683900786e+00 3.0629414638e+00 
36400 6.4905506676e+00 2.9156989945e-04 1.7683775245e+00 -3.0629197194e+00 1.7683775245e+00 3.0629197194e+00 
36500 6.4905533178e+00 1.4205611604e-04 1.7683692805e+00 -3.0629054404e+00 1.7683692805e+00 3.0629054404e+00 
36600 6.4905559260e+00 -4.3652676611e-06 1.7683652640e+00 -3.0628984835e+00 1.7683652640e+00 3.0628984835e+00 
36700 6.4905584815e+00 -1.4768710521e-04 1.7683652640e+00 -3.0628984835e+00 1.7683652640e+00 3.0628984835e+00 
36800 6.4905609740e+00 -2.8745882734e-04 1.7683694398e+00 -3.0629057162e+00 1.7683694398e+00 3.0629057162e+00 
36900 6.4905633943e+00 -4.2369418125e-04 1.7683775676e+00 -3.0629197940e+00 1.7683775676e+00 3.0629197940e+00 
37000 6.4905657335e+00 -5.5626185942e-04 1.7683895473e+00 -3.0629405435e+00 1.7683895473e+00 3.0629405435e+00 
37100 6.4905679839e+00 -6.8503895444e-04 1.7684052753e+00 -3.0629677851e+00 1.7684052753e+00 3.0629677851e+00 
37200 6.4905701384e+00 -8.0991095355e-04 1.7684246441e+00 -3.0630013330e+00 1.7684246441e+00 3.0630013330e+00 
37300 6.4905721907e+00 -9.3077172086e-04 1.7684475434e+00 -3.0630409957e+00 1.7684475434e+00 3.0630409957e+00 
37400 6.4905741353e+00 -1.0475234674e-03 1.7684738595e+00 -3.0630865766e+00 1.7684738595e+00 3.0630865766e+00 
37500 6.4905759677e+00 -1.1600767096e-03 1.7685034762e+00 -3.0631378742e+00 1.7685034762e+00 3.0631378742e+00 
37600 6.4905776839e+00 -1.2683502166e-03 1.7685362746e+00 -3.0631946826e+00 1.7685362746e+00 3.0631946826e+00 
37700 6.4905792811e+00 -1.3722709464e-03 1.7685721335e+00 -3.0632567920e+00 1.7685721335e+00 3.0632567920e+00 
37800 6.4905807568e+00 -1.4717739719e-03 1.7686109296e+00 -3.0633239889e+00 1.7686109296e+00 3.0633239889e+00 
37900 6.4905821098e+00 -1.5668023968e-03 1.7686525380e+00 -3.0633960567e+00 1.7686525380e+00 3.0633960567e+00 
38000 6.4905833391e+00 -1.6573072615e-03 1.7686968318e+00 -3.0634727759e+00 1.7686968318e+00 3.0634727759e+00 
38100 6.4905844449e+00 -1.7432474402e-03 1.7687436831e+00 -3.0635539247e+00 1.7687436831e+00 3.0635539247e+00 
38200 6.4905854279e+00 -1.8245895289e-03 1.7687929626e+00 -3.0636392793e+00 1.7687929626e+00 3.0636392793e+00 
38300 6.4905862893e+00 -1.9013077249e-03 1.7688445401e+00 -3.0637286141e+00 1.7688445401e+00 3.0637286141e+00 
38400 6.4905870312e+00 -1.9733836982e-03 1.7688982847e+00 -3.0638217025e+00 1.7688982847e+00 3.0638217025e+00 
38500 6.4905876562e+00 -2.0408064553e-03 1.7689540650e+00 -3.0639183169e+00 1.7689540650e+00 3.0639183169e+00 
38600 6.4905881674e+00 -2.1035721955e-03 1.7690117493e+00 -3.0640182290e+00 1.7690117493e+00 3.0640182290e+00 
38700 6.4905885684e+00 -2.1616841604e-03 1.7690712058e+00 -3.0641212106e+00 1.7690712058e+00 3.0641212106e+00 
38800 6.4905888634e+00 -2.2151524771e-03 1.7691323027e+00 -3.0642270336e+00 1.7691323027e+00 3.0642270336e+00 
38900 6.4905890569e+00 -2.2639939943e-03 1.7691949087e+00 -3.0643354704e+00 1.7691949087e+00 3.0643354704e+00 
39000 6.4905891538e+00 -2.3082321137e-03 1.7692588928e+00 -3.0644462941e+00 1.7692588928e+00 3.0644462941e+00 
39100 6.4905891594e+00 -2.3478966152e-03 1.7693241249e+00 -3.0645592793e+00 1.7693241249e+00 3.0645592793e+00 
39200 6.4905890792e+00 -2.3830234771e-03 1.7693904754e+00 -3.0646742018e+00 1.7693904754e+00 3.0646742018e+00 
39300 6.4905889191e+00 -2.4136546919e-03 1.7694578160e+00 -3.0647908392e+00 1.7694578160e+00 3.0647908392e+00 
39400 6.4905886850e+00 -2.4398380772e-03 1.7695260197e+00 -3.0649089714e+00 1.7695260197e+00 3.0649089714e+00 
39500 6.4905883833e+00 -2.4616270831e-03 1.7695949606e+00 -3.0650283805e+00 1.7695949606e+00 3.0650283805e+00 
39600 6.4905880200e+00 -2.4790805952e-03 1.7696645144e+00 -3.0651488514e+00 1.7696645144e+00 3.0651488514e+00 
39700 6.4905876017e+00 -2.4922627348e-03 1.7697345587e+00 -3.0652701716e+00 1.7697345587e+00 3.0652701716e+00 
39800 6.4905871348e+00 -2.5012426562e-03 1.7698049726e+00 -3.0653921321e+00 1.7698049726e+00 3.0653921321e+00 
39900 6.4905866256e+00 -2.5060943402e-03 1.7698756375e+00 -3.0655145272e+00 1.7698756375e+00 3.0655145272e+00 
40000 6.4905860805e+00 -2.5068963865e-03 1.7699464365e+00 -3.0656371548e+00 1.7699464365e+00 3.0656371548e+00 
40100 6.4905855058e+00 -2.5037318034e-03 1.7700172554e+00 -3.0657598167e+00 1.7700172554e+00 3.0657598167e+00 
40200 6.4905849078e+00 -2.4966877956e-03 1.7700879821e+00 -3.0658823189e+00 1.7700879821e+00 3.0658823189e+00 
40300 6.4905842924e+00 -2.4858555507e-03 1.7701585070e+00 -3.0660044715e+00 1.7701585070e+00 3.0660044715e+00 
40400 6.4905836655e+00 -2.4713300246e-03 1.7702287231e+00 -3.0661260893e+00 1.7702287231e+00 3.0661260893e+00 
40500 6.4905830328e+00 -2.4532097263e-03 1.7702985261e+00 -3.0662469917e+00 1.7702985261e+00 3.0662469917e+00 
40600 6.4905823998e+00 -2.4315965010e-03 1.7703678146e+00 -3.0663670029e+00 1.7703678146e+00 3.0663670029e+00 
40700 6.4905817716e+00 -2.4065953147e-03 1.7704364899e+00 -3.0664859521e+00 1.7704364899e+00 3.0664859521e+00 
40800 6.4905811532e+00 -2.3783140369e-03 1.7705044565e+00 -3.0666036737e+00 1.7705044565e+00 3.0666036737e+00 
40900 6.4905805493e+00 -2.3468632251e-03 1.7705716218e+00 -3.0667200074e+00 1.7705716218e+00 3.0667200074e+00 
41000 6.4905799642e+00 -2.3123559087e-03 1.7706378964e+00 -3.0668347983e+00 1.7706378964e+00 3.0668347983e+00 
41100 6.4905794019e+00 -2.2749073746e-03 1.7707031940e+00 -3.0669478972e+00 1.7707031940e+00 3.0669478972e+00 
41200 6.4905788662e+00 -2.2346349531e-03 1.7707674318e+00 -3.0670591603e+00 1.7707674318e+00 3.0670591603e+00 
41300 6.4905783605e+00 -2.1916578056e-03 1.7708305301e+00 -3.0671684497e+00 1.7708305301e+00 3.0671684497e+00 
41400 6.4905778877e+00 -2.1460967140e-03 1.7708924127e+00 -3.0672756335e+00 1.7708924127e+00 3.0672756335e+00 
41500 6.4905774506e+00 -2.0980738709e-03 1.7709530067e+00 -3.0673805854e+00 1.7709530067e+00 3.0673805854e+00 
41600 6.4905770515e+00 -2.0477126734e-03 1.7710122427e+00 -3.0674831852e+00 1.7710122427e+00 3.0674831852e+00 
41700 6.4905766925e+00 -1.9951375179e-03 1.7710700550e+00 -3.0675833190e+00 1.7710700550e+00 3.0675833190e+00 
41800 6.4905763752e+00 -1.9404735977e-03 1.7711263810e+00 -3.0676808786e+00 1.7711263810e+00 3.0676808786e+00 
41900 6.4905761009e+00 -1.8838467040e-03 1.7711811621e+00 -3.0677757621e+00 1.7711811621e+00 3.0677757621e+00 
42000 6.4905758707e+00 -1.8253830287e-03 1.7712343429e+00 -3.0678678740e+00 1.7712343429e+00 3.0678678740e+00 
42100 6.4905756852e+00 -1.7652089715e-03 1.7712858717e+00 -3.0679571245e+00 1.7712858717e+00 3.0679571245e+00 
42200 6.4905755447e+00 -1.7034509495e-03 1.7713357004e+00 -3.0680434303e+00 1.7713357004e+00 3.0680434303e+00 
42300 6.4905754494e+00 -1.6402352107e-03 1.7713837844e+00 -3.0681267143e+00 1.7713837844e+00 3.0681267143e+00 
42400 6.4905753990e+00 -1.5756876511e-03 1.7714300827e+00 -3.0682069053e+00 1.7714300827e+00 3.0682069053e+00 
42500 6.4905753929e+00 -1.5099336361e-03 1.7714745579e+00 -3.0682839386e+00 1.7714745579e+00 3.0682839386e+00 
42600 6.4905754304e+00 -1.4430978252e-03 1.7715171761e+00 -3.0683577555e+00 1.7715171761e+00 3.0683577555e+00 
42700 6.4905755105e+00 -1.3753040020e-03 1.7715579068e+00 -3.0684283031e+00 1.7715579068e+00 3.0684283031e+00 
42800 6.4905756320e+00 -1.3066749075e-03 1.7715967232e+00 -3.0684955351e+00 1.7715967232e+00 3.0684955351e+00 
42900 6.4905757933e+00 -1.2373320791e-03 1.7716336018e+00 -3.0685594106e+00 1.7716336018e+00 3.0685594106e+00 
43000 6.4905759928e+00 -1.1673956932e-03 1.7716685225e+00 -3.0686198952e+00 1.7716685225e+00 3.0686198952e+00 
43100 6.4905762286e+00 -1.0969844138e-03 1.7717014688e+00 -3.0686769599e+00 1.7717014688e+00 3.0686769599e+00 
43200 6.4905764988e+00 -1.0262152450e-03 1.7717324274e+00 -3.0687305817e+00 1.7717324274e+00 3.0687305817e+00 
43300 6.4905768012e+00 -9.5520338944e-04 1.7717613883e+00 -3.0687807434e+00 1.7717613883e+00 3.0687807434e+00 
43400 6.4905771335e+00 -8.8406211145e-04 1.7717883447e+00 -3.0688274333e+00 1.7717883447e+00 3.0688274333e+00 
43500 6.4905774934e+00 -8.1290260596e-04 1.7718132931e+00 -3.0688706451e+00 1.7718132931e+00 3.0688706451e+00 
43600 6.4905778784e+00 -7.4183387249e-04 1.7718362330e+00 -3.0689103782e+00 1.7718362330e+00 3.0689103782e+00 
43700 6.4905782860e+00 -6.7096259485e-04 1.7718571670e+00 -3.0689466371e+00 1.7718571670e+00 3.0689466371e+00 
43800 6.4905787137e+00 -6.0039302641e-04 1.7718761009e+00 -3.0689794316e+00 1.7718761009e+00 3.0689794316e+00 
43900 6.4905791588e+00 -5.3022688106e-04 1.7718930433e+00 -3.0690087765e+00 1.7718930433e+00 3.0690087765e+00 
44000 6.4905796187e+00 -4.6056322996e-04 1.7719080055e+00 -3.0690346918e+00 1.7719080055e+00 3.0690346918e+00 
44100 6.4905800909e+00 -3.9149840398e-04 1.7719210017e+00 -3.0690572020e+00 1.7719210017e+00 3.0690572020e+00 
44200 6.4905805727e+00 -3.2312590214e-04 1.7719320490e+00 -3.0690763365e+00 1.7719320490e+00 3.0690763365e+00 
44300 6.4905810615e+00 -2.5553630587e-04 1.7719411669e+00 -3.0690921291e+00 1.7719411669e+00 3.0690921291e+00 
44400 6.4905815549e+00 -1.8881719919e-04 1.7719483776e+00 -3.0691046183e+00 1.7719483776e+00 3.0691046183e+00 
44500 6.4905820505e+00 -1.2305309487e-04 1.7719537055e+00 -3.0691138466e+00 1.7719537055e+00 3.0691138466e+00 
44600 6.4905825457e+00 -5.8325366513e-05 1.7719571778e+00 -3.0691198607e+00 1.7719571778e+00 3.0691198607e+00 
44700 6.4905830383e+00 3.3136633081e-06 1.7719571778e+00 -3.0691198607e+00 1.7719571778e+00 3.0691198607e+00 
44800 6.4905835261e+00 6.5901323207e-05 1.7719571778e+00 -3.0691198607e+00 1.7719571778e+00 3.0691198607e+00 
44900 6.4905840074e+00 1.2934137229e-04 1.7719571778e+00 -3.0691198607e+00 1.7719571778e+00 3.0691198607e+00 
45000 6.4905844798e+00 1.8916079061e-04 1.7719535281e+00 -3.0691135393e+00 1.7719535281e+00 3.0691135393e+00 
45100 6.4905849415e+00 2.4758671934e-04 1.7719481905e+00 -3.0691042942e+00 1.7719481905e+00 3.0691042942e+00 
45200 6.4905853908e+00 3.0455766823e-04 1.7719412042e+00 -3.0690921937e+00 1.7719412042e+00 3.0690921937e+00 
45300 6.4905858261e+00 3.6001559754e-04 1.7719326103e+00 -3.0690773086e+00 1.7719326103e+00 3.0690773086e+00 
45400 6.4905862459e+00 4.1390593865e-04 1.7719224515e+00 -3.0690597130e+00 1.7719224515e+00 3.0690597130e+00 
45500 6.4905866490e+00 4.6617760919e-04 1.7719107719e+00 -3.0690394834e+00 1.7719107719e+00 3.0690394834e+00 
45600 6.4905870341e+00 5.1678302244e-04 1.7718976172e+00 -3.0690166989e+00 1.7718976172e+00 3.0690166989e+00 
45700 6.4905874002e+00 5.6567809120e-04 1.7718830345e+00 -3.0689914408e+00 1.7718830345e+00 3.0689914408e+00 
45800 6.4905877465e+00 6.1282222630e-04 1.7718670719e+00 -3.0689637928e+00 1.7718670719e+00 3.0689637928e+00 
45900 6.4905880721e+00 6.5817832966e-04 1.7718497788e+00 -3.0689338403e+00 1.7718497788e+00 3.0689338403e+00 
46000 6.4905883766e+00 7.0171278223e-04 1.7718312057e+00 -3.0689016706e+00 1.7718312057e+00 3.0689016706e+00 
46100 6.4905886594e+00 7.4339542666e-04 1.7718114038e+00 -3.0688673728e+00 1.7718114038e+00 3.0688673728e+00 
46200 6.4905889202e+00 7.8319954511e-04 1.7717904254e+00 -3.0688310372e+00 1.7717904254e+00 3.0688310372e+00 
46300 6.4905891588e+00 8.2110183201e-04 1.7717683235e+00 -3.0687927556e+00 1.7717683235e+00 3.0687927556e+00 
46400 6.4905893752e+00 8.5708236218e-04 1.7717451518e+00 -3.0687526209e+00 1.7717451518e+00 3.0687526209e+00 
46500 6.4905895695e+00 8.9112455423e-04 1.7717209643e+00 -3.0687107270e+00 1.7717209643e+00 3.0687107270e+00 
46600 6.4905897419e+00 9.2321512959e-04 1.7716958158e+00 -3.0686671685e+00 1.7716958158e+00 3.0686671685e+00 
46700 6.4905898926e+00 9.5334406703e-04 1.7716697613e+00 -3.0686220408e+00 1.7716697613e+00 3.0686220408e+00 
46800 6.4905900221e+00 9.8150455317e-04 1.7716428561e+00 -3.0685754397e+00 1.7716428561e+00 3.0685754397e+00 
46900 6.4905901310e+00 1.0076929288e-03 1.7716151558e+00 -3.0685274613e+00 1.7716151558e+00 3.0685274613e+00 
47000 6.4905902198e+00 1.0319086314e-03 1.7715867159e+00 -3.0684782020e+00 1.7715867159e+00 3.0684782020e+00 
47100 6.4905902892e+00 1.0541541341e-03 1.7715575922e+00 -3.0684277582e+00 1.7715575922e+00 3.0684277582e+00 
47200 6.4905903400e+00 1.0744348807e-03 1.7715278401e+00 -3.0683762260e+00 1.7715278401e+00 3.0683762260e+00 
47300 6.4905903732e+00 1.0927592176e-03 1.7714975151e+00 -3.0683237016e+00 1.7714975151e+00 3.0683237016e+00 
47400 6.4905903895e+00 1.1091383227e-03 1.7714666723e+00 -3.0682702804e+00 1.7714666723e+00 3.0682702804e+00 
47500 6.4905903901e+00 1.1235861307e-03 1.7714353668e+00 -3.0682160576e+00 1.7714353668e+00 3.0682160576e+00 
47600 6.4905903758e+00 1.1361192563e-03 1.7714036529e+00 -3.0681611275e+00 1.7714036529e+00 3.0681611275e+00 
47700 6.4905903479e+00 1.1467569141e-03 1.7713715846e+00 -3.0681055837e+00 1.7713715846e+00 3.0681055837e+00 
47800 6.4905903073e+00 1.1555208362e-03 1.7713392156e+00 -3.0680495188e+00 1.7713392156e+00 3.0680495188e+00 
47900 6.4905902552e+00 1.1624351878e-03 1.7713065985e+00 -3.0679930244e+00 1.7713065985e+00 3.0679930244e+00 
48000 6.4905901928e+00 1.1675264803e-03 1.7712737857e+00 -3.0679361909e+00 1.7712737857e+00 3.0679361909e+00 
48100 6.4905901212e+00 1.1708234824e-03 1.7712408285e+00 -3.0678791074e+00 1.7712408285e+00 3.0678791074e+00 
48200 6.4905900416e+00 1.1723571300e-03 1.7712077777e+00 -3.0678218617e+00 1.7712077777e+00 3.0678218617e+00 
48300 6.4905899551e+00 1.1721604339e-03 1.7711746829e+00 -3.0677645399e+00 1.7711746829e+00 3.0677645399e+00 
48400 6.4905898628e+00 1.1702683864e-03 1.7711415931e+00 -3.0677072267e+00 1.7711415931e+00 3.0677072267e+00 
48500 6.4905897659e+00 1.1667178666e-03 1.7711085561e+00 -3.0676500049e+00 1.7711085561e+00 3.0676500049e+00 
48600 6.4905896655e+00 1.1615475449e-03 1.7710756187e+00 -3.0675929556e+00 1.7710756187e+00 3.0675929556e+00 
48700 6.4905895626e+00 1.1547977864e-03 1.7710428267e+00 -3.0675361581e+00 1.7710428267e+00 3.0675361581e+00 
48800 6.4905894582e+00 1.1465105534e-03 1.7710102246e+00 -3.0674796897e+00 1.7710102246e+00 3.0674796897e+00 
48900 6.4905893535e+00 1.1367293079e-03 1.7709778558e+00 -3.0674236254e+00 1.7709778558e+00 3.0674236254e+00 
49000 6.4905892493e+00 1.1254989138e-03 1.7709457627e+00 -3.0673680384e+00 1.7709457627e+00 3.0673680384e+00 
49100 6.4905891465e+00 1.1128655377e-03 1.7709139860e+00 -3.0673129995e+00 1.7709139860e+00 3.0673129995e+00 
49200 6.4905890460e+00 1.0988765519e-03 1.7708825654e+00 -3.0672585775e+00 1.7708825654e+00 3.0672585775e+00 
49300 6.4905889486e+00 1.0835804351e-03 1.7708515393e+00 -3.0672048387e+00 1.7708515393e+00 3.0672048387e+00 
49400 6.4905888551e+00 1.0670266754e-03 1.7708209445e+00 -3.0671518469e+00 1.7708209445e+00 3.0671518469e+00 
49500 6.4905887661e+00 1.0492656725e-03 1.7707908165e+00 -3.0670996638e+00 1.7707908165e+00 3.0670996638e+00 
49600 6.4905886822e+00 1.0303486412e-03 1.7707611896e+00 -3.0670483484e+00 1.7707611896e+00 3.0670483484e+00 
49700 6.4905886041e+00 1.0103275151e-03 1.7707320963e+00 -3.0669979573e+00 1.7707320963e+00 3.0669979573e+00 
49800 6.4905885322e+00 9.8925485172e-04 1.7707035678e+00 -3.0669485446e+00 1.7707035678e+00 3.0669485446e+00 
49900 6.4905884670e+00 9.6718373839e-04 1.7706756339e+00 -3.0669001617e+00 1.7706756339e+00 3.0669001617e+00 
50000 6.4905884089e+00 9.4416769920e-04 1.7706483229e+00 -3.0668528575e+00 1.7706483229e+00 3.0668528575e+00 
50100 6.4905883581e+00 9.2026060338e-04 1.7706216613e+00 -3.0668066783e+00 1.7706216613e+00 3.0668066783e+00 
50200 6.4905883150e+00 8.9551657506e-04 1.7705956744e+00 -3.0667616677e+00 1.7705956744e+00 3.0667616677e+00 
50300 6.4905882798e+00 8.6998990447e-04 1.7705703859e+00 -3.0667178668e+00 1.7705703859e+00 3.0667178668e+00 
50400 6.4905882525e+00 8.4373496087e-04 1.7705458179e+00 -3.0666753137e+00 1.7705458179e+00 3.0666753137e+00 
50500 6.4905882333e+00 8.1680610711e-04 1.7705219910e+00 -3.0666340443e+00 1.7705219910e+00 3.0666340443e+00 
50600 6.4905882221e+00 7.8925761607e-04 1.7704989242e+00 -3.0665940915e+00 1.7704989242e+00 3.0665940915e+00 
50700 6.4905882190e+00 7.6114358901e-04 1.7704766351e+00 -3.0665554856e+00 1.7704766351e+00 3.0665554856e+00 
50800 6.4905882239e+00 7.3251787592e-04 1.7704551397e+00 -3.0665182545e+00 1.7704551397e+00 3.0665182545e+00 
50900 6.4905882367e+00 7.0343399799e-04 1.7704344525e+00 -3.0664824232e+00 1.7704344525e+00 3.0664824232e+00 
51000 6.4905882571e+00 6.7394507221e-04 1.7704145864e+00 -3.0664480141e+00 1.7704145864e+00 3.0664480141e+00 
51100 6.4905882850e+00 6.4410373822e-04 1.7703955529e+00 -3.0664150471e+00 1.7703955529e+00 3.0664150471e+00 
51200 6.4905883201e+00 6.1396208750e-04 1.7703773620e+00 -3.0663835395e+00 1.7703773620e+00 3.0663835395e+00 
51300 6.4905883621e+00 5.8357159490e-04 1.7703600221e+00 -3.0663535060e+00 1.7703600221e+00 3.0663535060e+00 
51400 6.4905884107e+00 5.5298305261e-04 1.7703435404e+00 -3.0663249589e+00 1.7703435404e+00 3.0663249589e+00 
51500 6.4905884656e+00 5.2224650655e-04 1.7703279225e+00 -3.0662979078e+00 1.7703279225e+00 3.0662979078e+00 
51600 6.4905885263e+00 4.9141119538e-04 1.7703131725e+00 -3.0662723601e+00 1.7703131725e+00 3.0662723601e+00 
51700 6.4905885924e+00 4.6052549198e-04 1.7702992933e+00 -3.0662483206e+00 1.7702992933e+00 3.0662483206e+00 
51800 6.4905886636e+00 4.2963684756e-04 1.7702862863e+00 -3.0662257919e+00 1.7702862863e+00 3.0662257919e+00 
51900 6.4905887393e+00 3.9879173839e-04 1.7702741517e+00 -3.0662047740e+00 1.7702741517e+00 3.0662047740e+00 
52000 6.4905888192e+00 3.6803561518e-04 1.7702628881e+00 -3.0661852650e+00 1.7702628881e+00 3.0661852650e+00 
52100 6.4905889028e+00 3.3741285514e-04 1.7702524932e+00 -3.0661672604e+00 1.7702524932e+00 3.0661672604e+00 
52200 6.4905889896e+00 3.0696671665e-04 1.7702429631e+00 -3.0661507539e+00 1.7702429631e+00 3.0661507539e+00 
52300 6.4905890791e+00 2.7673929675e-04 1.7702342930e+00 -3.0661357367e+00 1.7702342930e+00 3.0661357367e+00 
52400 6.4905891708e+00 2.4677149121e-04 1.7702264765e+00 -3.0661221982e+00 1.7702264765e+00 3.0661221982e+00 
52500 6.4905892644e+00 2.1710295738e-04 1.7702195064e+00 -3.0661101257e+00 1.7702195064e+00 3.0661101257e+00 
52600 6.4905893593e+00 1.8777207965e-04 1.7702133744e+00 -3.0660995046e+00 1.7702133744e+00 3.0660995046e+00 
52700 6.4905894550e+00 1.5881593773e-04 1.7702080707e+00 -3.0660903184e+00 1.7702080707e+00 3.0660903184e+00 
52800 6.4905895512e+00 1.3027027745e-04 1.7702035849e+00 -3.0660825488e+00 1.7702035849e+00 3.0660825488e+00 
52900 6.4905896474e+00 1.0216948435e-04 1.7701999054e+00 -3.0660761757e+00 1.7701999054e+00 3.0660761757e+00 
53000 6.4905897432e+00 7.4546559866e-05 1.7701970196e+00 -3.0660711773e+00 1.7701970196e+00 3.0660711773e+00 
53100 6.4905898381e+00 4.7433100125e-05 1.7701949140e+00 -3.0660675303e+00 1.7701949140e+00 3.0660675303e+00 
53200 6.4905899318e+00 2.2472370293e-05 1.7701949140e+00 -3.0660675303e+00 1.7701949140e+00 3.0660675303e+00 
53300 6.4905900239e+00 -2.8115804834e-06 1.7701949140e+00 -3.0660675303e+00 1.7701949140e+00 3.0660675303e+00 
53400 6.4905901141e+00 -2.8378090795e-05 1.7701949140e+00 -3.0660675303e+00 1.7701949140e+00 3.0660675303e+00 
53500 6.4905902021e+00 -5.4187391235e-05 1.7701949140e+00 -3.0660675303e+00 1.7701949140e+00 3.0660675303e+00 
53600 6.4905902878e+00 -8.0200620650e-05 1.7701949140e+00 -3.0660675303e+00 1.7701949140e+00 3.0660675303e+00 
53700 6.4905903706e+00 -1.0365272190e-04 1.7701971793e+00 -3.0660714539e+00 1.7701971793e+00 3.0660714539e+00 
53800 6.4905904504e+00 -1.2641592084e-04 1.7702001070e+00 -3.0660765249e+00 1.7702001070e+00 3.0660765249e+00 
53900 6.4905905269e+00 -1.4847025204e-04 1.7702036777e+00 -3.0660827095e+00 1.7702036777e+00 3.0660827095e+00 
54000 6.4905906000e+00 -1.6979723690e-04 1.7702078713e+00 -3.0660899730e+00 1.7702078713e+00 3.0660899730e+00 
54100 6.4905906695e+00 -1.9037988053e-04 1.7702126672e+00 -3.0660982798e+00 1.7702126672e+00 3.0660982798e+00 
54200 6.4905907353e+00 -2.1020266635e-04 1.7702180445e+00 -3.0661075936e+00 1.7702180445e+00 3.0661075936e+00 
54300 6.4905907972e+00 -2.2925154862e-04 1.7702239817e+00 -3.0661178772e+00 1.7702239817e+00 3.0661178772e+00 
54400 6.4905908552e+00 -2.4751394288e-04 1.7702304570e+00 -3.0661290926e+00 1.7702304570e+00 3.0661290926e+00 
54500 6.4905909092e+00 -2.6497871453e-04 1.7702374480e+00 -3.0661412014e+00 1.7702374480e+00 3.0661412014e+00 
54600 6.4905909592e+00 -2.8163616528e-04 1.7702449322e+00 -3.0661541645e+00 1.7702449322e+00 3.0661541645e+00 
54700 6.4905910051e+00 -2.9747801786e-04 1.7702528870e+00 -3.0661679425e+00 1.7702528870e+00 3.0661679425e+00 
54800 6.4905910469e+00 -3.1249739891e-04 1.7702612891e+00 -3.0661824954e+00 1.7702612891e+00 3.0661824954e+00 
54900 6.4905910848e+00 -3.2668882010e-04 1.7702701154e+00 -3.0661977831e+00 1.7702701154e+00 3.0661977831e+00 
55000 6.4905911187e+00 -3.4004815755e-04 1.7702793425e+00 -3.0662137649e+00 1.7702793425e+00 3.0662137649e+00 
55100 6.4905911487e+00 -3.5257262971e-04 1.7702889469e+00 -3.0662304001e+00 1.7702889469e+00 3.0662304001e+00 
55200 6.4905911749e+00 -3.6426077360e-04 1.7702989050e+00 -3.0662476480e+00 1.7702989050e+00 3.0662476480e+00 
55300 6.4905911975e+00 -3.7511241969e-04 1.7703091931e+00 -3.0662654675e+00 1.7703091931e+00 3.0662654675e+00 
55400 6.4905912165e+00 -3.8512866526e-04 1.7703197876e+00 -3.0662838178e+00 1.7703197876e+00 3.0662838178e+00 
55500 6.4905912320e+00 -3.9431184652e-04 1.7703306650e+00 -3.0663026580e+00 1.7703306650e+00 3.0663026580e+00 
55600 6.4905912443e+00 -4.0266550936e-04 1.7703418017e+00 -3.0663219473e+00 1.7703418017e+00 3.0663219473e+00 
55700 6.4905912535e+00 -4.1019437902e-04 1.7703531743e+00 -3.0663416452e+00 1.7703531743e+00 3.0663416452e+00 
55800 6.4905912597e+00 -4.1690432852e-04 1.7703647594e+00 -3.0663617112e+00 1.7703647594e+00 3.0663617112e+00 
55900 6.4905912632e+00 -4.2280234612e-04 1.7703765339e+00 -3.0663821053e+00 1.7703765339e+00 3.0663821053e+00 
56000 6.4905912641e+00 -4.2789650173e-04 1.7703884750e+00 -3.0664027878e+00 1.7703884750e+00 3.0664027878e+00 
56100 6.4905912627e+00 -4.3219591244e-04 1.7704005598e+00 -3.0664237193e+00 1.7704005598e+00 3.0664237193e+00 
56200 6.4905912591e+00 -4.3571070721e-04 1.7704127660e+00 -3.0664448610e+00 1.7704127660e+00 3.0664448610e+00 
56300 6.4905912536e+00 -4.3845199072e-04 1.7704250713e+00 -3.0664661745e+00 1.7704250713e+00 3.0664661745e+00 
56400 6.4905912463e+00 -4.4043180661e-04 1.7704374540e+00 -3.0664876220e+00 1.7704374540e+00 3.0664876220e+00 
56500 6.4905912374e+00 -4.4166309999e-04 1.7704498925e+00 -3.0665091661e+00 1.7704498925e+00 3.0665091661e+00 
56600 6.4905912273e+00 -4.4215967942e-04 1.7704623657e+00 -3.0665307704e+00 1.7704623657e+00 3.0665307704e+00 
56700 6.4905912160e+00 -4.4193617840e-04 1.7704748529e+00 -3.0665523987e+00 1.7704748529e+00 3.0665523987e+00 
56800 6.4905912037e+00 -4.4100801640e-04 1.7704873336e+00 -3.0665740160e+00 1.7704873336e+00 3.0665740160e+00 
56900 6.4905911908e+00 -4.3939135950e-04 1.7704997881e+00 -3.0665955877e+00 1.7704997881e+00 3.0665955877e+00 
57000 6.4905911773e+00 -4.3710308080e-04 1.7705121968e+00 -3.0666170802e+00 1.7705121968e+00 3.0666170802e+00 
57100 6.4905911634e+00 -4.3416072049e-04 1.7705245407e+00 -3.0666384606e+00 1.7705245407e+00 3.0666384606e+00 
57200 6.4905911494e+00 -4.3058244584e-04 1.7705368016e+00 -3.0666596970e+00 1.7705368016e+00 3.0666596970e+00 
57300 6.4905911354e+00 -4.2638701096e-04 1.7705489612e+00 -3.0666807581e+00 1.7705489612e+00 3.0666807581e+00 
57400 6.4905911216e+00 -4.2159371668e-04 1.7705610023e+00 -3.0667016139e+00 1.7705610023e+00 3.0667016139e+00 
57500 6.4905911081e+00 -4.1622237021e-04 1.7705729080e+00 -3.0667222352e+00 1.7705729080e+00 3.0667222352e+00 
57600 6.4905910951e+00 -4.1029324507e-04 1.7705846619e+00 -3.0667425935e+00 1.7705846619e+00 3.0667425935e+00 
57700 6.4905910827e+00 -4.0382704104e-04 1.7705962483e+00 -3.0667626617e+00 1.7705962483e+00 3.0667626617e+00 
57800 6.4905910710e+00 -3.9684484431e-04 1.7706076520e+00 -3.0667824135e+00 1.7706076520e+00 3.0667824135e+00 
57900 6.4905910602e+00 -3.8936808782e-04 1.7706188585e+00 -3.0668018237e+00 1.7706188585e+00 3.0668018237e+00 
58000 6.4905910503e+00 -3.8141851202e-04 1.7706298537e+00 -3.0668208681e+00 1.7706298537e+00 3.0668208681e+00 
58100 6.4905910415e+00 -3.7301812579e-04 1.7706406245e+00 -3.0668395235e+00 1.7706406245e+00 3.0668395235e+00 
58200 6.4905910338e+00 -3.6418916790e-04 1.7706511579e+00 -3.0668577679e+00 1.7706511579e+00 3.0668577679e+00 
58300 6.4905910273e+00 -3.5495406883e-04 1.7706614419e+00 -3.0668755805e+00 1.7706614419e+00 3.0668755805e+00 
58400 6.4905910221e+00 -3.4533541310e-04 1.7706714652e+00 -3.0668929412e+00 1.7706714652e+00 3.0668929412e+00 
58500 6.4905910182e+00 -3.3535590212e-04 1.7706812167e+00 -3.0669098313e+00 1.7706812167e+00 3.0669098313e+00 
58600 6.4905910156e+00 -3.2503831765e-04 1.7706906864e+00 -3.0669262333e+00 1.7706906864e+00 3.0669262333e+00 
58700 6.4905910145e+00 -3.1440548584e-04 1.7706998647e+00 -3.0669421306e+00 1.7706998647e+00 3.0669421306e+00 
58800 6.4905910147e+00 -3.0348024193e-04 1.7707087427e+00 -3.0669575078e+00 1.7707087427e+00 3.0669575078e+00 
58900 6.4905910163e+00 -2.9228539570e-04 1.7707173122e+00 -3.0669723505e+00 1.7707173122e+00 3.0669723505e+00 
59000 6.4905910194e+00 -2.8084369760e-04 1.7707255655e+00 -3.0669866457e+00 1.7707255655e+00 3.0669866457e+00 
59100 6.4905910238e+00 -2.6917780565e-04 1.7707334957e+00 -3.0670003812e+00 1.7707334957e+00 3.0670003812e+00 
59200 6.4905910296e+00 -2.5731025322e-04 1.7707410964e+00 -3.0670135461e+00 1.7707410964e+00 3.0670135461e+00 
59300 6.4905910368e+00 -2.4526341752e-04 1.7707483620e+00 -3.0670261305e+00 1.7707483620e+00 3.0670261305e+00 
59400 6.4905910452e+00 -2.3305948912e-04 1.7707552875e+00 -3.0670381257e+00 1.7707552875e+00 3.0670381257e+00 
59500 6.4905910549e+00 -2.2072044218e-04 1.7707618683e+00 -3.0670495239e+00 1.7707618683e+00 3.0670495239e+00 
59600 6.4905910658e+00 -2.0826800576e-04 1.7707681006e+00 -3.0670603187e+00 1.7707681006e+00 3.0670603187e+00 
59700 6.4905910779e+00 -1.9572363602e-04 1.7707739813e+00 -3.0670705044e+00 1.7707739813e+00 3.0670705044e+00 
59800 6.4905910911e+00 -1.8310848931e-04 1.7707795079e+00 -3.0670800766e+00 1.7707795079e+00 3.0670800766e+00 
59900 6.4905911053e+00 -1.7044339639e-04 1.7707846781e+00 -3.0670890318e+00 1.7707846781e+00 3.0670890318e+00 
60000 6.4905911204e+00 -1.5774883757e-04 1.7707894908e+00 -3.0670973676e+00 1.7707894908e+00 3.0670973676e+00 
60100 6.4905911365e+00 -1.4504491890e-04 1.7707939450e+00 -3.0671050824e+00 1.7707939450e+00 3.0671050824e+00 
60200 6.4905911533e+00 -1.3235134936e-04 1.7707980405e+00 -3.0671121760e+00 1.7707980405e+00 3.0671121760e+00 
60300 6.4905911709e+00 -1.1968741918e-04 1.7708017775e+00 -3.0671186488e+00 1.7708017775e+00 3.0671186488e+00 
60400 6.4905911891e+00 -1.0707197918e-04 1.7708051570e+00 -3.0671245022e+00 1.7708051570e+00 3.0671245022e+00 
60500 6.4905912079e+00 -9.4523421192e-05 1.7708081802e+00 -3.0671297386e+00 1.7708081802e+00 3.0671297386e+00 
60600 6.4905912271e+00 -8.2059659553e-05 1.7708108492e+00 -3.0671343614e+00 1.7708108492e+00 3.0671343614e+00 
60700 6.4905912467e+00 -6.9698113715e-05 1.7708131662e+00 -3.0671383746e+00 1.7708131662e+00 3.0671383746e+00 
60800 6.4905912667e+00 -5.9821774196e-05 1.7708131662e+00 -3.0671383746e+00 1.7708131662e+00 3.0671383746e+00 
60900 6.4905912869e+00 -4.9683276730e-05 1.7708131662e+00 -3.0671383746e+00 1.7708131662e+00 3.0671383746e+00 
61000 6.4905913072e+00 -3.9301109484e-05 1.7708131662e+00 -3.0671383746e+00 1.7708131662e+00 3.0671383746e+00 
61100 6.4905913274e+00 -2.8693502697e-05 1.7708131662e+00 -3.0671383746e+00 1.7708131662e+00 3.0671383746e+00 
61200 6.4905913476e+00 -1.7878417034e-05 1.7708131662e+00 -3.0671383746e+00 1.7708131662e+00 3.0671383746e+00 
61300 6.4905913677e+00 -6.8735324845e-06 1.7708131662e+00 -3.0671383746e+00 1.7708131662e+00 3.0671383746e+00 
61400 6.4905913876e+00 4.3037622188e-06 1.7708131662e+00 -3.0671383746e+00 1.7708131662e+00 3.0671383746e+00 
61500 6.4905914072e+00 1.5636379615e-05 1.7708131662e+00 -3.0671383746e+00 1.7708131662e+00 3.0671383746e+00 
61600 6.4905914267e+00 2.7107543026e-05 1.7708131662e+00 -3.0671383746e+00 1.7708131662e+00 3.0671383746e+00 
61700 6.4905914458e+00 3.8700795511e-05 1.7708131662e+00 -3.0671383746e+00 1.7708131662e+00 3.0671383746e+00 
61800 6.4905914645e+00 5.0400008305e-05 1.7708131662e+00 -3.0671383746e+00 1.7708131662e+00 3.0671383746e+00 
61900 6.4905914828e+00 6.2189388733e-05 1.7708131662e+00 -3.0671383746e+00 1.7708131662e+00 3.0671383746e+00 
62000 6.4905915008e+00 7.4053487599e-05 1.7708131662e+00 -3.0671383746e+00 1.7708131662e+00 3.0671383746e+00 
62100 6.4905915180e+00 8.3462942426e-05 1.7708110752e+00 -3.0671347529e+00 1.7708110752e+00 3.0671347529e+00 
62200 6.4905915346e+00 9.2578720281e-05 1.7708087186e+00 -3.0671306711e+00 1.7708087186e+00 3.0671306711e+00 
62300 6.4905915506e+00 1.0139270900e-04 1.7708061046e+00 -3.0671261435e+00 1.7708061046e+00 3.0671261435e+00 
62400 6.4905915659e+00 1.0989742328e-04 1.7708032417e+00 -3.0671211848e+00 1.7708032417e+00 3.0671211848e+00 
62500 6.4905915805e+00 1.1808600325e-04 1.7708001387e+00 -3.0671158102e+00 1.7708001387e+00 3.0671158102e+00 
62600 6.4905915944e+00 1.2595221203e-04 1.7707968044e+00 -3.0671100351e+00 1.7707968044e+00 3.0671100351e+00 
62700 6.4905916076e+00 1.3349043251e-04 1.7707932480e+00 -3.0671038753e+00 1.7707932480e+00 3.0671038753e+00 
62800 6.4905916200e+00 1.4069566315e-04 1.7707894788e+00 -3.0670973468e+00 1.7707894788e+00 3.0670973468e+00 
62900 6.4905916317e+00 1.4756351301e-04 1.7707855061e+00 -3.0670904659e+00 1.7707855061e+00 3.0670904659e+00 
63000 6.4905916426e+00 1.5409019594e-04 1.7707813395e+00 -3.0670832491e+00 1.7707813395e+00 3.0670832491e+00 
63100 6.4905916528e+00 1.6027252393e-04 1.7707769886e+00 -3.0670757131e+00 1.7707769886e+00 3.0670757131e+00 
63200 6.4905916622e+00 1.6610789972e-04 1.7707724631e+00 -3.0670678748e+00 1.7707724631e+00 3.0670678748e+00 
63300 6.4905916709e+00 1.7159430868e-04 1.7707677729e+00 -3.0670597510e+00 1.7707677729e+00 3.0670597510e+00 
63400 6.4905916788e+00 1.7673030994e-04 1.7707629277e+00 -3.0670513589e+00 1.7707629277e+00 3.0670513589e+00 
63500 6.4905916861e+00 1.8151502682e-04 1.7707579374e+00 -3.0670427155e+00 1.7707579374e+00 3.0670427155e+00 
63600 6.4905916926e+00 1.8594813667e-04 1.7707528121e+00 -3.0670338382e+00 1.7707528121e+00 3.0670338382e+00 
63700 6.4905916985e+00 1.9002985995e-04 1.7707475616e+00 -3.0670247440e+00 1.7707475616e+00 3.0670247440e+00 
63800 6.4905917037e+00 1.9376094884e-04 1.7707421957e+00 -3.0670154501e+00 1.7707421957e+00 3.0670154501e+00 
63900 6.4905917082e+00 1.9714267517e-04 1.7707367246e+00 -3.0670059738e+00 1.7707367246e+00 3.0670059738e+00 
64000 6.4905917122e+00 2.0017681789e-04 1.7707311579e+00 -3.0669963320e+00 1.7707311579e+00 3.0669963320e+00 
64100 6.4905917157e+00 2.0286564993e-04 1.7707255055e+00 -3.0669865418e+00 1.7707255055e+00 3.0669865418e+00 
64200 6.4905917185e+00 2.0521192468e-04 1.7707197772e+00 -3.0669766201e+00 1.7707197772e+00 3.0669766201e+00 
64300 6.4905917209e+00 2.0721886190e-04 1.7707139826e+00 -3.0669665836e+00 1.7707139826e+00 3.0669665836e+00 
64400 6.4905917229e+00 2.0889013334e-04 1.7707081313e+00 -3.0669564488e+00 1.7707081313e+00 3.0669564488e+00 
64500 6.4905917244e+00 2.1022984785e-04 1.7707022328e+00 -3.0669462324e+00 1.7707022328e+00 3.0669462324e+00 
64600 6.4905917255e+00 2.1124253616e-04 1.7706962965e+00 -3.0669359503e+00 1.7706962965e+00 3.0669359503e+00 
64700 6.4905917263e+00 2.1193313542e-04 1.7706903316e+00 -3.0669256187e+00 1.7706903316e+00 3.0669256187e+00 
64800 6.4905917267e+00 2.1230697324e-04 1.7706843471e+00 -3.0669152533e+00 1.7706843471e+00 3.0669152533e+00 
64900 6.4905917269e+00 2.1236975168e-04 1.7706783520e+00 -3.0669048696e+00 1.7706783520e+00 3.0669048696e+00 
65000 6.4905917268e+00 2.1212753087e-04 1.7706723552e+00 -3.0668944827e+00 1.7706723552e+00 3.0668944827e+00 
65100 6.4905917265e+00 2.1158671240e-04 1.7706663652e+00 -3.0668841077e+00 1.7706663652e+00 3.0668841077e+00 
65200 6.4905917261e+00 2.1075402265e-04 1.7706603904e+00 -3.0668737591e+00 1.7706603904e+00 3.0668737591e+00 
65300 6.4905917255e+00 2.0963649584e-04 1.7706544391e+00 -3.0668634512e+00 1.7706544391e+00 3.0668634512e+00 
65400 6.4905917249e+00 2.0824145704e-04 1.7706485194e+00 -3.0668531979e+00 1.7706485194e+00 3.0668531979e+00 
65500 6.4905917241e+00 2.0657650504e-04 1.7706426390e+00 -3.0668430128e+00 1.7706426390e+00 3.0668430128e+00 
65600 6.4905917234e+00 2.0464949516e-04 1.7706368056e+00 -3.0668329091e+00 1.7706368056e+00 3.0668329091e+00 
65700 6.4905917226e+00 2.0246852206e-04 1.7706310266e+00 -3.0668228996e+00 1.7706310266e+00 3.0668228996e+00 
65800 6.4905917219e+00 2.0004190250e-04 1.7706253092e+00 -3.0668129968e+00 1.7706253092e+00 3.0668129968e+00 
65900 6.4905917212e+00 1.9737815812e-04 1.7706196603e+00 -3.0668032126e+00 1.7706196603e+00 3.0668032126e+00 
66000 6.4905917206e+00 1.9448599826e-04 1.7706140866e+00 -3.0667935587e+00 1.7706140866e+00 3.0667935587e+00 
66100 6.4905917201e+00 1.9137430286e-04 1.7706085946e+00 -3.0667840461e+00 1.7706085946e+00 3.0667840461e+00 
66200 6.4905917197e+00 1.8805210544e-04 1.7706031904e+00 -3.0667746858e+00 1.7706031904e+00 3.0667746858e+00 
66300 6.4905917194e+00 1.8452857624e-04 1.7705978800e+00 -3.0667654879e+00 1.7705978800e+00 3.0667654879e+00 
66400 6.4905917194e+00 1.8081300538e-04 1.7705926691e+00 -3.0667564624e+00 1.7705926691e+00 3.0667564624e+00 
66500 6.4905917195e+00 1.7691478632e-04 1.7705875631e+00 -3.0667476185e+00 1.7705875631e+00 3.0667476185e+00 
66600 6.4905917198e+00 1.7284339944e-04 1.7705825672e+00 -3.0667389653e+00 1.7705825672e+00 3.0667389653e+00 
66700 6.4905917203e+00 1.6860839583e-04 1.7705776862e+00 -3.0667305112e+00 1.7705776862e+00 3.0667305112e+00 
66800 6.4905917210e+00 1.6421938126e-04 1.7705729248e+00 -3.0667222643e+00 1.7705729248e+00 3.0667222643e+00 
66900 6.4905917219e+00 1.5968600054e-04 1.7705682873e+00 -3.0667142319e+00 1.7705682873e+00 3.0667142319e+00 
67000 6.4905917231e+00 1.5501792194e-04 1.7705637779e+00 -3.0667064213e+00 1.7705637779e+00 3.0667064213e+00 
67100 6.4905917245e+00 1.5022482205e-04 1.7705594002e+00 -3.0666988390e+00 1.7705594002e+00 3.0666988390e+00 
67200 6.4905917261e+00 1.4531637092e-04 1.7705551579e+00 -3.0666914912e+00 1.7705551579e+00 3.0666914912e+00 
67300 6.4905917280e+00 1.4030221742e-04 1.7705510542e+00 -3.0666843834e+00 1.7705510542e+00 3.0666843834e+00 
67400 6.4905917301e+00 1.3519197507e-04 1.7705470921e+00 -3.0666775208e+00 1.7705470921e+00 3.0666775208e+00 
67500 6.4905917324e+00 1.2999520807e-04 1.7705432743e+00 -3.0666709082e+00 1.7705432743e+00 3.0666709082e+00 
67600 6.4905917349e+00 1.2472141784e-04 1.7705396033e+00 -3.0666645497e+00 1.7705396033e+00 3.0666645497e+00 
67700 6.4905917377e+00 1.1938002983e-04 1.7705360812e+00 -3.0666584492e+00 1.7705360812e+00 3.0666584492e+00 
67800 6.4905917407e+00 1.1398038074e-04 1.7705327099e+00 -3.0666526100e+00 1.7705327099e+00 3.0666526100e+00 
67900 6.4905917439e+00 1.0853170615e-04 1.7705294911e+00 -3.0666470348e+00 1.7705294911e+00 3.0666470348e+00 
68000 6.4905917473e+00 1.0304312860e-04 1.7705264261e+00 -3.0666417262e+00 1.7705264261e+00 3.0666417262e+00 
68100 6.4905917508e+00 9.7523645970e-05 1.7705235161e+00 -3.0666366860e+00 1.7705235161e+00 3.0666366860e+00 
68200 6.4905917546e+00 9.1982120447e-05 1.7705207621e+00 -3.0666319157e+00 1.7705207621e+00 3.0666319157e+00 
68300 6.4905917585e+00 8.6427267775e-05 1.7705181645e+00 -3.0666274166e+00 1.7705181645e+00 3.0666274166e+00 
68400 6.4905917625e+00 8.0867647052e-05 1.7705157237e+00 -3.0666231891e+00 1.7705157237e+00 3.0666231891e+00 
68500 6.4905917667e+00 7.5311650926e-05 1.7705134400e+00 -3.0666192335e+00 1.7705134400e+00 3.0666192335e+00 
68600 6.4905917710e+00 6.9767496281e-05 1.7705113132e+00 -3.0666155498e+00 1.7705113132e+00 3.0666155498e+00 
68700 6.4905917755e+00 6.6613834442e-05 1.7705113132e+00 -3.0666155498e+00 1.7705113132e+00 3.0666155498e+00 
68800 6.4905917801e+00 6.3318093931e-05 1.7705113132e+00 -3.0666155498e+00 1.7705113132e+00 3.0666155498e+00 
68900 6.4905917847e+00 5.9888634899e-05 1.7705113132e+00 -3.0666155498e+00 1.7705113132e+00 3.0666155498e+00 
69000 6.4905917894e+00 5.6333715263e-05 1.7705113132e+00 -3.0666155498e+00 1.7705113132e+00 3.0666155498e+00 
69100 6.4905917941e+00 5.2661485284e-05 1.7705113132e+00 -3.0666155498e+00 1.7705113132e+00 3.0666155498e+00 
69200 6.4905917987e+00 4.8879982403e-05 1.7705113132e+00 -3.0666155498e+00 1.7705113132e+00 3.0666155498e+00 
69300 6.4905918034e+00 4.4997126300e-05 1.7705113132e+00 -3.0666155498e+00 1.7705113132e+00 3.0666155498e+00 
69400 6.4905918080e+00 4.1020714180e-05 1.7705113132e+00 -3.0666155498e+00 1.7705113132e+00 3.0666155498e+00 
69500 6.4905918127e+00 3.6958416298e-05 1.7705113132e+00 -3.0666155498e+00 1.7705113132e+00 3.0666155498e+00 
69600 6.4905918172e+00 3.2817771715e-05 1.7705113132e+00 -3.0666155498e+00 1.7705113132e+00 3.0666155498e+00 
69700 6.4905918217e+00 2.8606184270e-05 1.7705113132e+00 -3.0666155498e+00 1.7705113132e+00 3.0666155498e+00 
69800 6.4905918262e+00 2.4330918787e-05 1.7705113132e+00 -3.0666155498e+00 1.7705113132e+00 3.0666155498e+00 
69900 6.4905918306e+00 1.9999097514e-05 1.7705113132e+00 -3.0666155498e+00 1.7705113132e+00 3.0666155498e+00 
70000 6.4905918349e+00 1.5617696761e-05 1.7705113132e+00 -3.0666155498e+00 1.7705113132e+00 3.0666155498e+00 
70100 6.4905918392e+00 1.1193543779e-05 1.7705113132e+00 -3.0666155498e+00 1.7705113132e+00 3.0666155498e+00 
70200 6.4905918433e+00 6.7333138640e-06 1.7705113132e+00 -3.0666155498e+00 1.7705113132e+00 3.0666155498e+00 
70300 6.4905918474e+00 2.2435276457e-06 1.7705113132e+00 -3.0666155498e+00 1.7705113132e+00 3.0666155498e+00 
70400 6.4905918513e+00 -2.2694513814e-06 1.7705113132e+00 -3.0666155498e+00 1.7705113132e+00 3.0666155498e+00 
70500 6.4905918552e+00 -6.7994191226e-06 1.7705113132e+00 -3.0666155498e+00 1.7705113132e+00 3.0666155498e+00 
70600 6.4905918589e+00 -1.1340332948e-05 1.7705113132e+00 -3.0666155498e+00 1.7705113132e+00 3.0666155498e+00 
70700 6.4905918625e+00 -1.5886313538e-05 1.7705113132e+00 -3.0666155498e+00 1.7705113132e+00 3.0666155498e+00 
70800 6.4905918660e+00 -2.0431646540e-05 1.7705113132e+00 -3.0666155498e+00 1.7705113132e+00 3.0666155498e+00 
70900 6.4905918694e+00 -2.4970784012e-05 1.7705113132e+00 -3.0666155498e+00 1.7705113132e+00 3.0666155498e+00 
71000 6.4905918727e+00 -2.9498345678e-05 1.7705113132e+00 -3.0666155498e+00 1.7705113132e+00 3.0666155498e+00 
71100 6.4905918759e+00 -3.4009119979e-05 1.7705113132e+00 -3.0666155498e+00 1.7705113132e+00 3.0666155498e+00 
71200 6.4905918789e+00 -3.8498064959e-05 1.7705113132e+00 -3.0666155498e+00 1.7705113132e+00 3.0666155498e+00 
71300 6.4905918819e+00 -4.2960308930e-05 1.7705113132e+00 -3.0666155498e+00 1.7705113132e+00 3.0666155498e+00 
71400 6.4905918847e+00 -4.7391150968e-05 1.7705113132e+00 -3.0666155498e+00 1.7705113132e+00 3.0666155498e+00 
71500 6.4905918874e+00 -5.1786061245e-05 1.7705113132e+00 -3.0666155498e+00 1.7705113132e+00 3.0666155498e+00 
71600 6.4905918899e+00 -5.6140681152e-05 1.7705113132e+00 -3.0666155498e+00 1.7705113132e+00 3.0666155498e+00 
71700 6.4905918924e+00 -6.0450823282e-05 1.7705113132e+00 -3.0666155498e+00 1.7705113132e+00 3.0666155498e+00 
71800 6.4905918947e+00 -6.4712471227e-05 1.7705113132e+00 -3.0666155498e+00 1.7705113132e+00 3.0666155498e+00 
71900 6.4905918970e+00 -6.8921779202e-05 1.7705113132e+00 -3.0666155498e+00 1.7705113132e+00 3.0666155498e+00 
72000 6.4905918991e+00 -7.3075071529e-05 1.7705113132e+00 -3.0666155498e+00 1.7705113132e+00 3.0666155498e+00 
72100 6.4905919009e+00 -7.4686156708e-05 1.7705133768e+00 -3.0666191242e+00 1.7705133768e+00 3.0666191242e+00 
72200 6.4905919026e+00 -7.6160893698e-05 1.7705154860e+00 -3.0666227773e+00 1.7705154860e+00 3.0666227773e+00 
72300 6.4905919042e+00 -7.7499075055e-05 1.7705176368e+00 -3.0666265027e+00 1.7705176368e+00 3.0666265027e+00 
72400 6.4905919057e+00 -7.8700742765e-05 1.7705198254e+00 -3.0666302934e+00 1.7705198254e+00 3.0666302934e+00 
72500 6.4905919070e+00 -7.9766181302e-05 1.7705220479e+00 -3.0666341430e+00 1.7705220479e+00 3.0666341430e+00 
72600 6.4905919083e+00 -8.0695910545e-05 1.7705243006e+00 -3.0666380446e+00 1.7705243006e+00 3.0666380446e+00 
72700 6.4905919094e+00 -8.1490678544e-05 1.7705265794e+00 -3.0666419917e+00 1.7705265794e+00 3.0666419917e+00 
72800 6.4905919105e+00 -8.2151454192e-05 1.7705288807e+00 -3.0666459777e+00 1.7705288807e+00 3.0666459777e+00 
72900 6.4905919115e+00 -8.2679419745e-05 1.7705312007e+00 -3.0666499960e+00 1.7705312007e+00 3.0666499960e+00 
73000 6.4905919124e+00 -8.3075963261e-05 1.7705335356e+00 -3.0666540401e+00 1.7705335356e+00 3.0666540401e+00 
73100 6.4905919132e+00 -8.3342670940e-05 1.7705358817e+00 -3.0666581037e+00 1.7705358817e+00 3.0666581037e+00 
73200 6.4905919139e+00 -8.3481319379e-05 1.7705382353e+00 -3.0666621802e+00 1.7705382353e+00 3.0666621802e+00 
73300 6.4905919146e+00 -8.3493867740e-05 1.7705405928e+00 -3.0666662636e+00 1.7705405928e+00 3.0666662636e+00 
73400 6.4905919153e+00 -8.3382449907e-05 1.7705429506e+00 -3.0666703475e+00 1.7705429506e+00 3.0666703475e+00 
73500 6.4905919159e+00 -8.3149366512e-05 1.7705453054e+00 -3.0666744260e+00 1.7705453054e+00 3.0666744260e+00 
73600 6.4905919164e+00 -8.2797077000e-05 1.7705476535e+00 -3.0666784931e+00 1.7705476535e+00 3.0666784931e+00 
73700 6.4905919169e+00 -8.2328191615e-05 1.7705499917e+00 -3.0666825429e+00 1.7705499917e+00 3.0666825429e+00 
73800 6.4905919174e+00 -8.1745463381e-05 1.7705523166e+00 -3.0666865698e+00 1.7705523166e+00 3.0666865698e+00 
73900 6.4905919179e+00 -8.1051780089e-05 1.7705546251e+00 -3.0666905682e+00 1.7705546251e+00 3.0666905682e+00 
74000 6.4905919183e+00 -8.0250156266e-05 1.7705569140e+00 -3.0666945327e+00 1.7705569140e+00 3.0666945327e+00 
74100 6.4905919188e+00 -7.9343725166e-05 1.7705591802e+00 -3.0666984579e+00 1.7705591802e+00 3.0666984579e+00 
74200 6.4905919192e+00 -7.8335730787e-05 1.7705614208e+00 -3.0667023388e+00 1.7705614208e+00 3.0667023388e+00 
74300 6.4905919197e+00 -7.7229519904e-05 1.7705636330e+00 -3.0667061704e+00 1.7705636330e+00 3.0667061704e+00 
74400 6.4905919201e+00 -7.6028534184e-05 1.7705658139e+00 -3.0667099479e+00 1.7705658139e+00 3.0667099479e+00 
74500 6.4905919206e+00 -7.4736302288e-05 1.7705679609e+00 -3.0667136666e+00 1.7705679609e+00 3.0667136666e+00 
74600 6.4905919211e+00 -7.3356432107e-05 1.7705700715e+00 -3.0667173221e+00 1.7705700715e+00 3.0667173221e+00 
74700 6.4905919216e+00 -7.1892603005e-05 1.7705721430e+00 -3.0667209102e+00 1.7705721430e+00 3.0667209102e+00 
74800 6.4905919221e+00 -7.0348558193e-05 1.7705741732e+00 -3.0667244266e+00 1.7705741732e+00 3.0667244266e+00 
74900 6.4905919228e+00 -7.1117744237e-05 1.7705741732e+00 -3.0667244266e+00 1.7705741732e+00 3.0667244266e+00 
75000 6.4905919234e+00 -6.9361611188e-05 1.7705761816e+00 -3.0667279051e+00 1.7705761816e+00 3.0667279051e+00 
75100 6.4905919241e+00 -6.9895653218e-05 1.7705761816e+00 -3.0667279051e+00 1.7705761816e+00 3.0667279051e+00 
75200 6.4905919249e+00 -7.0323420781e-05 1.7705761816e+00 -3.0667279051e+00 1.7705761816e+00 3.0667279051e+00 
75300 6.4905919256e+00 -7.0647303059e-05 1.7705761816e+00 -3.0667279051e+00 1.7705761816e+00 3.0667279051e+00 
75400 6.4905919265e+00 -7.0869734615e-05 1.7705761816e+00 -3.0667279051e+00 1.7705761816e+00 3.0667279051e+00 
75500 6.4905919271e+00 -6.8585843741e-05 1.7705781829e+00 -3.0667313715e+00 1.7705781829e+00 3.0667313715e+00 
75600 6.4905919280e+00 -6.8594627666e-05 1.7705781829e+00 -3.0667313715e+00 1.7705781829e+00 3.0667313715e+00 
75700 6.4905919289e+00 -6.8508283019e-05 1.7705781829e+00 -3.0667313715e+00 1.7705781829e+00 3.0667313715e+00 
75800 6.4905919298e+00 -6.8329457091e-05 1.7705781829e+00 -3.0667313715e+00 1.7705781829e+00 3.0667313715e+00 
75900 6.4905919307e+00 -6.8060824011e-05 1.7705781829e+00 -3.0667313715e+00 1.7705781829e+00 3.0667313715e+00 
76000 6.4905919317e+00 -6.7705081365e-05 1.7705781829e+00 -3.0667313715e+00 1.7705781829e+00 3.0667313715e+00 
76100 6.4905919326e+00 -6.7264946891e-05 1.7705781829e+00 -3.0667313715e+00 1.7705781829e+00 3.0667313715e+00 
76200 6.4905919336e+00 -6.6743155207e-05 1.7705781829e+00 -3.0667313715e+00 1.7705781829e+00 3.0667313715e+00 
76300 6.4905919346e+00 -6.6142454610e-05 1.7705781829e+00 -3.0667313715e+00 1.7705781829e+00 3.0667313715e+00 
76400 6.4905919357e+00 -6.5465603943e-05 1.7705781829e+00 -3.0667313715e+00 1.7705781829e+00 3.0667313715e+00 
76500 6.4905919367e+00 -6.4715369499e-05 1.7705781829e+00 -3.0667313715e+00 1.7705781829e+00 3.0667313715e+00 
76600 6.4905919378e+00 -6.3894522039e-05 1.7705781829e+00 -3.0667313715e+00 1.7705781829e+00 3.0667313715e+00 
76700 6.4905919388e+00 -6.3005833814e-05 1.7705781829e+00 -3.0667313715e+00 1.7705781829e+00 3.0667313715e+00 
76800 6.4905919399e+00 -6.2052075709e-05 1.7705781829e+00 -3.0667313715e+00 1.7705781829e+00 3.0667313715e+00 
76900 6.4905919410e+00 -6.1036014412e-05 1.7705781829e+00 -3.0667313715e+00 1.7705781829e+00 3.0667313715e+00 
77000 6.4905919421e+00 -5.9960409691e-05 1.7705781829e+00 -3.0667313715e+00 1.7705781829e+00 3.0667313715e+00 
77100 6.4905919432e+00 -5.8828011717e-05 1.7705781829e+00 -3.0667313715e+00 1.7705781829e+00 3.0667313715e+00 
77200 6.4905919443e+00 -5.7641558449e-05 1.7705781829e+00 -3.0667313715e+00 1.7705781829e+00 3.0667313715e+00 
77300 6.4905919454e+00 -5.6403773128e-05 1.7705781829e+00 -3.0667313715e+00 1.7705781829e+00 3.0667313715e+00 
77400 6.4905919465e+00 -5.5117361816e-05 1.7705781829e+00 -3.0667313715e+00 1.7705781829e+00 3.0667313715e+00 
77500 6.4905919476e+00 -5.3785011004e-05 1.7705781829e+00 -3.0667313715e+00 1.7705781829e+00 3.0667313715e+00 
77600 6.4905919487e+00 -5.2409385335e-05 1.7705781829e+00 -3.0667313715e+00 1.7705781829e+00 3.0667313715e+00 
77700 6.4905919498e+00 -5.0993125341e-05 1.7705781829e+00 -3.0667313715e+00 1.7705781829e+00 3.0667313715e+00 
77800 6.4905919509e+00 -4.9538845314e-05 1.7705781829e+00 -3.0667313715e+00 1.7705781829e+00 3.0667313715e+00 
77900 6.4905919519e+00 -4.8049131222e-05 1.7705781829e+00 -3.0667313715e+00 1.7705781829e+00 3.0667313715e+00 
78000 6.4905919530e+00 -4.6526538698e-05 1.7705781829e+00 -3.0667313715e+00 1.7705781829e+00 3.0667313715e+00 
78100 6.4905919541e+00 -4.4973591138e-05 1.7705781829e+00 -3.0667313715e+00 1.7705781829e+00 3.0667313715e+00 
78200 6.4905919551e+00 -4.3392777836e-05 1.7705781829e+00 -3.0667313715e+00 1.7705781829e+00 3.0667313715e+00 
78300 6.4905919562e+00 -4.1786552223e-05 1.7705781829e+00 -3.0667313715e+00 1.7705781829e+00 3.0667313715e+00 
78400 6.4905919572e+00 -4.0157330188e-05 1.7705781829e+00 -3.0667313715e+00 1.7705781829e+00 3.0667313715e+00 
78500 6.4905919582e+00 -3.8507488438e-05 1.7705781829e+00 -3.0667313715e+00 1.7705781829e+00 3.0667313715e+00 
78600 6.4905919592e+00 -3.6839362990e-05 1.7705781829e+00 -3.0667313715e+00 1.7705781829e+00 3.0667313715e+00 
78700 6.4905919602e+00 -3.5155247702e-05 1.7705781829e+00 -3.0667313715e+00 1.7705781829e+00 3.0667313715e+00 
78800 6.4905919612e+00 -3.3457392891e-05 1.7705781829e+00 -3.0667313715e+00 1.7705781829e+00 3.0667313715e+00 
78900 6.4905919621e+00 -3.1748004033e-05 1.7705781829e+00 -3.0667313715e+00 1.7705781829e+00 3.0667313715e+00 
79000 6.4905919631e+00 -3.0029240546e-05 1.7705781829e+00 -3.0667313715e+00 1.7705781829e+00 3.0667313715e+00 
79100 6.4905919640e+00 -2.8303214622e-05 1.7705781829e+00 -3.0667313715e+00 1.7705781829e+00 3.0667313715e+00 
79200 6.4905919649e+00 -2.6571990168e-05 1.7705781829e+00 -3.0667313715e+00 1.7705781829e+00 3.0667313715e+00 
79300 6.4905919657e+00 -2.4837581805e-05 1.7705781829e+00 -3.0667313715e+00 1.7705781829e+00 3.0667313715e+00 
79400 6.4905919666e+00 -2.3101953939e-05 1.7705781829e+00 -3.0667313715e+00 1.7705781829e+00 3.0667313715e+00 
79500 6.4905919674e+00 -2.1367019924e-05 1.7705781829e+00 -3.0667313715e+00 1.7705781829e+00 3.0667313715e+00 
79600 6.4905919683e+00 -1.9634641270e-05 1.7705781829e+00 -3.0667313715e+00 1.7705781829e+00 3.0667313715e+00 
79700 6.4905919691e+00 -1.7906626957e-05 1.7705781829e+00 -3.0667313715e+00 1.7705781829e+00 3.0667313715e+00 
79800 6.4905919698e+00 -1.6184732800e-05 1.7705781829e+00 -3.0667313715e+00 1.7705781829e+00 3.0667313715e+00 
79900 6.4905919706e+00 -1.4470660874e-05 1.7705781829e+00 -3.0667313715e+00 1.7705781829e+00 3.0667313715e+00 
80000 6.4905919713e+00 -1.2766059042e-05 1.7705781829e+00 -3.0667313715e+00 1.7705781829e+00 3.0667313715e+00 
80100 6.4905919721e+00 -1.1072520539e-05 1.7705781829e+00 -3.0667313715e+00 1.7705781829e+00 3.0667313715e+00 
80200 6.4905919728e+00 -9.3915836046e-06 1.7705781829e+00 -3.0667313715e+00 1.7705781829e+00 3.0667313715e+00 
80300 6.4905919734e+00 -7.7247311984e-06 1.7705781829e+00 -3.0667313715e+00 1.7705781829e+00 3.0667313715e+00 
80400 6.4905919741e+00 -6.0733907922e-06 1.7705781829e+00 -3.0667313715e+00 1.7705781829e+00 3.0667313715e+00 
80500 6.4905919747e+00 -4.4389342064e-06 1.7705781829e+00 -3.0667313715e+00 1.7705781829e+00 3.0667313715e+00 
80600 6.4905919754e+00 -2.8226775225e-06 1.7705781829e+00 -3.0667313715e+00 1.7705781829e+00 3.0667313715e+00 
80700 6.4905919760e+00 -1.2258810527e-06 1.7705781829e+00 -3.0667313715e+00 1.7705781829e+00 3.0667313715e+00 
80800 6.4905919766e+00 3.5025062917e-07 1.7705781829e+00 -3.0667313715e+00 1.7705781829e+00 3.0667313715e+00 
80900 6.4905919771e+00 1.9045685941e-06 1.7705781829e+00 -3.0667313715e+00 1.7705781829e+00 3.0667313715e+00 
81000 6.4905919777e+00 3.4359794147e-06 1.7705781829e+00 -3.0667313715e+00 1.7705781829e+00 3.0667313715e+00 
81100 6.4905919782e+00 4.9434449530e-06 1.7705781829e+00 -3.0667313715e+00 1.7705781829e+00 3.0667313715e+00 
81200 6.4905919788e+00 6.4259821001e-06 1.7705781829e+00 -3.0667313715e+00 1.7705781829e+00 3.0667313715e+00 
81300 6.4905919793e+00 7.8826624617e-06 1.7705781829e+00 -3.0667313715e+00 1.7705781829e+00 3.0667313715e+00 
81400 6.4905919798e+00 9.3126119960e-06 1.7705781829e+00 -3.0667313715e+00 1.7705781829e+00 3.0667313715e+00 
81500 6.4905919803e+00 1.0715010597e-05 1.7705781829e+00 -3.0667313715e+00 1.7705781829e+00 3.0667313715e+00 
81600 6.4905919807e+00 1.2089091613e-05 1.7705781829e+00 -3.0667313715e+00 1.7705781829e+00 3.0667313715e+00 
81700 6.4905919812e+00 1.3434141344e-05 1.7705781829e+00 -3.0667313715e+00 1.7705781829e+00 3.0667313715e+00 
81800 6.4905919817e+00 1.4749498490e-05 1.7705781829e+00 -3.0667313715e+00 1.7705781829e+00 3.0667313715e+00 
81900 6.4905919821e+00 1.6034553528e-05 1.7705781829e+00 -3.0667313715e+00 1.7705781829e+00 3.0667313715e+00 
82000 6.4905919825e+00 1.7288748079e-05 1.7705781829e+00 -3.0667313715e+00 1.7705781829e+00 3.0667313715e+00 
82100 6.4905919829e+00 1.8511574214e-05 1.7705781829e+00 -3.0667313715e+00 1.7705781829e+00 3.0667313715e+00 
82200 6.4905919833e+00 1.9702573726e-05 1.7705781829e+00 -3.0667313715e+00 1.7705781829e+00 3.0667313715e+00 
82300 6.4905919837e+00 2.0861337375e-05 1.7705781829e+00 -3.0667313715e+00 1.7705781829e+00 3.0667313715e+00 
82400 6.4905919841e+00 2.1987504071e-05 1.7705781829e+00 -3.0667313715e+00 1.7705781829e+00 3.0667313715e+00 
82500 6.4905919845e+00 2.3080760050e-05 1.7705781829e+00 -3.0667313715e+00 1.7705781829e+00 3.0667313715e+00 
82600 6.4905919849e+00 2.4140838011e-05 1.7705781829e+00 -3.0667313715e+00 1.7705781829e+00 3.0667313715e+00 
82700 6.4905919853e+00 2.5167516206e-05 1.7705781829e+00 -3.0667313715e+00 1.7705781829e+00 3.0667313715e+00 
82800 6.4905919856e+00 2.6160617512e-05 1.7705781829e+00 -3.0667313715e+00 1.7705781829e+00 3.0667313715e+00 
82900 6.4905919860e+00 2.7120008491e-05 1.7705781829e+00 -3.0667313715e+00 1.7705781829e+00 3.0667313715e+00 
83000 6.4905919864e+00 2.8045598396e-05 1.7705781829e+00 -3.0667313715e+00 1.7705781829e+00 3.0667313715e+00 
83100 6.4905919867e+00 2.8937338169e-05 1.7705781829e+00 -3.0667313715e+00 1.7705781829e+00 3.0667313715e+00 
83200 6.4905919871e+00 2.9795219417e-05 1.7705781829e+00 -3.0667313715e+00 1.7705781829e+00 3.0667313715e+00 
83300 6.4905919874e+00 3.0619273360e-05 1.7705781829e+00 -3.0667313715e+00 1.7705781829e+00 3.0667313715e+00 
83400 6.4905919877e+00 3.1409569765e-05 1.7705781829e+00 -3.0667313715e+00 1.7705781829e+00 3.0667313715e+00 
83500 6.4905919881e+00 3.2166215863e-05 1.7705781829e+00 -3.0667313715e+00 1.7705781829e+00 3.0667313715e+00 
83600 6.4905919884e+00 3.2889355244e-05 1.7705781829e+00 -3.0667313715e+00 1.7705781829e+00 3.0667313715e+00 
83700 6.4905919887e+00 3.3579166748e-05 1.7705781829e+00 -3.0667313715e+00 1.7705781829e+00 3.0667313715e+00 
83800 6.4905919891e+00 3.4235863333e-05 1.7705781829e+00 -3.0667313715e+00 1.7705781829e+00 3.0667313715e+00 
83900 6.4905919894e+00 3.4859690937e-05 1.7705781829e+00 -3.0667313715e+00 1.7705781829e+00 3.0667313715e+00 
84000 6.4905919897e+00 3.5450927334e-05 1.7705781829e+00 -3.0667313715e+00 1.7705781829e+00 3.0667313715e+00 
84100 6.4905919900e+00 3.6009880972e-05 1.7705781829e+00 -3.0667313715e+00 1.7705781829e+00 3.0667313715e+00 
84200 6.4905919904e+00 3.6536889813e-05 1.7705781829e+00 -3.0667313715e+00 1.7705781829e+00 3.0667313715e+00 
84300 6.4905919907e+00 3.7032320165e-05 1.7705781829e+00 -3.0667313715e+00 1.7705781829e+00 3.0667313715e+00 
84400 6.4905919910e+00 3.7496565508e-05 1.7705781829e+00 -3.0667313715e+00 1.7705781829e+00 3.0667313715e+00 
84500 6.4905919913e+00 3.7930045331e-05 1.7705781829e+00 -3.0667313715e+00 1.7705781829e+00 3.0667313715e+00 
84600 6.4905919916e+00 3.8333203940e-05 1.7705781829e+00 -3.0667313715e+00 1.7705781829e+00 3.0667313715e+00 
84700 6.4905919919e+00 3.8706509297e-05 1.7705781829e+00 -3.0667313715e+00 1.7705781829e+00 3.0667313715e+00 
84800 6.4905919922e+00 3.9050451848e-05 1.7705781829e+00 -3.0667313715e+00 1.7705781829e+00 3.0667313715e+00 
84900 6.4905919926e+00 3.9365543348e-05 1.7705781829e+00 -3.0667313715e+00 1.7705781829e+00 3.0667313715e+00 
85000 6.4905919929e+00 3.9652315697e-05 1.7705781829e+00 -3.0667313715e+00 1.7705781829e+00 3.0667313715e+00 
85100 6.4905919932e+00 3.9911319792e-05 1.7705781829e+00 -3.0667313715e+00 1.7705781829e+00 3.0667313715e+00 
85200 6.4905919935e+00 4.0143124361e-05 1.7705781829e+00 -3.0667313715e+00 1.7705781829e+00 3.0667313715e+00 
85300 6.4905919938e+00 4.0348314831e-05 1.7705781829e+00 -3.0667313715e+00 1.7705781829e+00 3.0667313715e+00 
85400 6.4905919941e+00 4.0527492190e-05 1.7705781829e+00 -3.0667313715e+00 1.7705781829e+00 3.0667313715e+00 
85500 6.4905919944e+00 4.0681271857e-05 1.7705781829e+00 -3.0667313715e+00 1.7705781829e+00 3.0667313715e+00 
85600 6.4905919947e+00 4.0810282582e-05 1.7705781829e+00 -3.0667313715e+00 1.7705781829e+00 3.0667313715e+00 
85700 6.4905919950e+00 4.0915165335e-05 1.7705781829e+00 -3.0667313715e+00 1.7705781829e+00 3.0667313715e+00 
85800 6.4905919953e+00 4.0996572220e-05 1.7705781829e+00 -3.0667313715e+00 1.7705781829e+00 3.0667313715e+00 
85900 6.4905919956e+00 4.1055165411e-05 1.7705781829e+00 -3.0667313715e+00 1.7705781829e+00 3.0667313715e+00 
86000 6.4905919959e+00 4.1091616093e-05 1.7705781829e+00 -3.0667313715e+00 1.7705781829e+00 3.0667313715e+00 
86100 6.4905919962e+00 4.1106603410e-05 1.7705781829e+00 -3.0667313715e+00 1.7705781829e+00 3.0667313715e+00 
86200 6.4905919965e+00 4.1100813453e-05 1.7705781829e+00 -3.0667313715e+00 1.7705781829e+00 3.0667313715e+00 
86300 6.4905919968e+00 4.1074938251e-05 1.7705781829e+00 -3.0667313715e+00 1.7705781829e+00 3.0667313715e+00 
86400 6.4905919971e+00 4.1029674780e-05 1.7705781829e+00 -3.0667313715e+00 1.7705781829e+00 3.0667313715e+00 
86500 6.4905919974e+00 4.0965724002e-05 1.7705781829e+00 -3.0667313715e+00 1.7705781829e+00 3.0667313715e+00 
86600 6.4905919976e+00 4.0883789904e-05 1.7705781829e+00 -3.0667313715e+00 1.7705781829e+00 3.0667313715e+00 
86700 6.4905919979e+00 4.0784578581e-05 1.7705781829e+00 -3.0667313715e+00 1.7705781829e+00 3.0667313715e+00 
86800 6.4905919982e+00 4.0668797330e-05 1.7705781829e+00 -3.0667313715e+00 1.7705781829e+00 3.0667313715e+00 
86900 6.4905919985e+00 4.0537153750e-05 1.7705781829e+00 -3.0667313715e+00 1.7705781829e+00 3.0667313715e+00 
87000 6.4905919987e+00 4.0390354900e-05 1.7705781829e+00 -3.0667313715e+00 1.7705781829e+00 3.0667313715e+00 
87100 6.4905919990e+00 4.0229106441e-05 1.7705781829e+00 -3.0667313715e+00 1.7705781829e+00 3.0667313715e+00 
87200 6.4905919993e+00 4.0054111833e-05 1.7705781829e+00 -3.0667313715e+00 1.7705781829e+00 3.0667313715e+00 
87300 6.4905919996e+00 3.9866071529e-05 1.7705781829e+00 -3.0667313715e+00 1.7705781829e+00 3.0667313715e+00 
87400 6.4905919998e+00 3.9665682218e-05 1.7705781829e+00 -3.0667313715e+00 1.7705781829e+00 3.0667313715e+00 
87500 6.4905920001e+00 3.9453636065e-05 1.7705781829e+00 -3.0667313715e+00 1.7705781829e+00 3.0667313715e+00 
87600 6.4905920003e+00 3.9230620006e-05 1.7705781829e+00 -3.0667313715e+00 1.7705781829e+00 3.0667313715e+00 
87700 6.4905920006e+00 3.8997315037e-05 1.7705781829e+00 -3.0667313715e+00 1.7705781829e+00 3.0667313715e+00 
87800 6.4905920008e+00 3.8754395558e-05 1.7705781829e+00 -3.0667313715e+00 1.7705781829e+00 3.0667313715e+00 
87900 6.4905920011e+00 3.8502528719e-05 1.7705781829e+00 -3.0667313715e+00 1.7705781829e+00 3.0667313715e+00 
88000 6.4905920013e+00 3.8242373797e-05 1.7705781829e+00 -3.0667313715e+00 1.7705781829e+00 3.0667313715e+00 
88100 6.4905920016e+00 3.7974581610e-05 1.7705781829e+00 -3.0667313715e+00 1.7705781829e+00 3.0667313715e+00 
88200 6.4905920018e+00 3.7699793938e-05 1.7705781829e+00 -3.0667313715e+00 1.7705781829e+00 3.0667313715e+00 
88300 6.4905920020e+00 3.7418642992e-05 1.7705781829e+00 -3.0667313715e+00 1.7705781829e+00 3.0667313715e+00 
88400 6.4905920023e+00 3.7131750879e-05 1.7705781829e+00 -3.0667313715e+00 1.7705781829e+00 3.0667313715e+00 
88500 6.4905920025e+00 3.6839729128e-05 1.7705781829e+00 -3.0667313715e+00 1.7705781829e+00 3.0667313715e+00 
88600 6.4905920027e+00 3.6543178213e-05 1.7705781829e+00 -3.0667313715e+00 1.7705781829e+00 3.0667313715e+00 
88700 6.4905920029e+00 3.6242687110e-05 1.7705781829e+00 -3.0667313715e+00 1.7705781829e+00 3.0667313715e+00 
88800 6.4905920031e+00 3.5938832892e-05 1.7705781829e+00 -3.0667313715e+00 1.7705781829e+00 3.0667313715e+00 
88900 6.4905920034e+00 3.5632180327e-05 1.7705781829e+00 -3.0667313715e+00 1.7705781829e+00 3.0667313715e+00 
89000 6.4905920036e+00 3.5323281518e-05 1.7705781829e+00 -3.0667313715e+00 1.7705781829e+00 3.0667313715e+00 
89100 6.4905920038e+00 3.5012675562e-05 1.7705781829e+00 -3.0667313715e+00 1.7705781829e+00 3.0667313715e+00 
89200 6.4905920040e+00 3.4700888238e-05 1.7705781829e+00 -3.0667313715e+00 1.7705781829e+00 3.0667313715e+00 
89300 6.4905920042e+00 3.4388431715e-05 1.7705781829e+00 -3.0667313715e+00 1.7705781829e+00 3.0667313715e+00 
89400 6.4905920044e+00 3.4075804277e-05 1.7705781829e+00 -3.0667313715e+00 1.7705781829e+00 3.0667313715e+00 
89500 6.4905920046e+00 3.3763490093e-05 1.7705781829e+00 -3.0667313715e+00 1.7705781829e+00 3.0667313715e+00 
89600 6.4905920048e+00 3.3451958989e-05 1.7705781829e+00 -3.0667313715e+00 1.7705781829e+00 3.0667313715e+00 
89700 6.4905920049e+00 3.3141666253e-05 1.7705781829e+00 -3.0667313715e+00 1.7705781829e+00 3.0667313715e+00 
89800 6.4905920051e+00 3.2833052465e-05 1.7705781829e+00 -3.0667313715e+00 1.7705781829e+00 3.0667313715e+00 
89900 6.4905920053e+00 3.2526543352e-05 1.7705781829e+00 -3.0667313715e+00 1.7705781829e+00 3.0667313715e+00 
90000 6.4905920055e+00 3.2222549650e-05 1.7705781829e+00 -3.0667313715e+00 1.7705781829e+00 3.0667313715e+00 
90100 6.4905920057e+00 3.1921466996e-05 1.7705781829e+00 -3.0667313715e+00 1.7705781829e+00 3.0667313715e+00 
90200 6.4905920058e+00 3.1623675860e-05 1.7705781829e+00 -3.0667313715e+00 1.7705781829e+00 3.0667313715e+00 
90300 6.4905920060e+00 3.1329541464e-05 1.7705781829e+00 -3.0667313715e+00 1.7705781829e+00 3.0667313715e+00 
90400 6.4905920062e+00 3.1039413752e-05 1.7705781829e+00 -3.0667313715e+00 1.7705781829e+00 3.0667313715e+00 
90500 6.4905920063e+00 3.0753627353e-05 1.7705781829e+00 -3.0667313715e+00 1.7705781829e+00 3.0667313715e+00 
90600 6.4905920065e+00 3.0472501592e-05 1.7705781829e+00 -3.0667313715e+00 1.7705781829e+00 3.0667313715e+00 
90700 6.4905920066e+00 3.0196340495e-05 1.7705781829e+00 -3.0667313715e+00 1.7705781829e+00 3.0667313715e+00 
90800 6.4905920068e+00 2.9925432828e-05 1.7705781829e+00 -3.0667313715e+00 1.7705781829e+00 3.0667313715e+00 
90900 6.4905920069e+00 2.9660052147e-05 1.7705781829e+00 -3.0667313715e+00 1.7705781829e+00 3.0667313715e+00 
91000 6.4905920071e+00 2.9400456872e-05 1.7705781829e+00 -3.0667313715e+00 1.7705781829e+00 3.0667313715e+00 
91100 6.4905920072e+00 2.9146890368e-05 1.7705781829e+00 -3.0667313715e+00 1.7705781829e+00 3.0667313715e+00 
91200 6.4905920074e+00 2.8899581053e-05 1.7705781829e+00 -3.0667313715e+00 1.7705781829e+00 3.0667313715e+00 
91300 6.4905920075e+00 2.8658742515e-05 1.7705781829e+00 -3.0667313715e+00 1.7705781829e+00 3.0667313715e+00 
91400 6.4905920077e+00 2.8424573642e-05 1.7705781829e+00 -3.0667313715e+00 1.7705781829e+00 3.0667313715e+00 
91500 6.4905920078e+00 2.8197258781e-05 1.7705781829e+00 -3.0667313715e+00 1.7705781829e+00 3.0667313715e+00 
91600 6.4905920080e+00 2.7976967895e-05 1.7705781829e+00 -3.0667313715e+00 1.7705781829e+00 3.0667313715e+00 
91700 6.4905920081e+00 2.7763856747e-05 1.7705781829e+00 -3.0667313715e+00 1.7705781829e+00 3.0667313715e+00 
91800 6.4905920082e+00 2.7558067077e-05 1.7705781829e+00 -3.0667313715e+00 1.7705781829e+00 3.0667313715e+00 
91900 6.4905920084e+00 2.7359726812e-05 1.7705781829e+00 -3.0667313715e+00 1.7705781829e+00 3.0667313715e+00 
92000 6.4905920085e+00 2.7168950296e-05 1.7705781829e+00 -3.0667313715e+00 1.7705781829e+00 3.0667313715e+00 
92100 6.4905920086e+00 2.6985838483e-05 1.7705781829e+00 -3.0667313715e+00 1.7705781829e+00 3.0667313715e+00 
92200 6.4905920087e+00 2.6810479210e-05 1.7705781829e+00 -3.0667313715e+00 1.7705781829e+00 3.0667313715e+00 
92300 6.4905920089e+00 2.6642947414e-05 1.7705781829e+00 -3.0667313715e+00 1.7705781829e+00 3.0667313715e+00 
92400 6.4905920090e+00 2.6483305410e-05 1.7705781829e+00 -3.0667313715e+00 1.7705781829e+00 3.0667313715e+00 
92500 6.4905920091e+00 2.6331603148e-05 1.7705781829e+00 -3.0667313715e+00 1.7705781829e+00 3.0667313715e+00 
92600 6.4905920092e+00 2.6187878490e-05 1.7705781829e+00 -3.0667313715e+00 1.7705781829e+00 3.0667313715e+00 
92700 6.4905920094e+00 2.6052157492e-05 1.7705781829e+00 -3.0667313715e+00 1.7705781829e+00 3.0667313715e+00 
92800 6.4905920095e+00 2.5924454686e-05 1.7705781829e+00 -3.0667313715e+00 1.7705781829e+00 3.0667313715e+00 
92900 6.4905920096e+00 2.5804773388e-05 1.7705781829e+00 -3.0667313715e+00 1.7705781829e+00 3.0667313715e+00 
93000 6.4905920097e+00 2.5693106002e-05 1.7705781829e+00 -3.0667313715e+00 1.7705781829e+00 3.0667313715e+00 
93100 6.4905920098e+00 2.5589434317e-05 1.7705781829e+00 -3.0667313715e+00 1.7705781829e+00 3.0667313715e+00 
93200 6.4905920099e+00 2.5493729834e-05 1.7705781829e+00 -3.0667313715e+00 1.7705781829e+00 3.0667313715e+00 
93300 6.4905920100e+00 2.5405954073e-05 1.7705781829e+00 -3.0667313715e+00 1.7705781829e+00 3.0667313715e+00 
93400 6.4905920102e+00 2.5326058902e-05 1.7705781829e+00 -3.0667313715e+00 1.7705781829e+00 3.0667313715e+00 
93500 6.4905920103e+00 2.5253986867e-05 1.7705781829e+00 -3.0667313715e+00 1.7705781829e+00 3.0667313715e+00 
93600 6.4905920104e+00 2.5189671512e-05 1.7705781829e+00 -3.0667313715e+00 1.7705781829e+00 3.0667313715e+00 
93700 6.4905920105e+00 2.5133037716e-05 1.7705781829e+00 -3.0667313715e+00 1.7705781829e+00 3.0667313715e+00 
93800 6.4905920106e+00 2.5084002034e-05 1.7705781829e+00 -3.0667313715e+00 1.7705781829e+00 3.0667313715e+00 
93900 6.4905920107e+00 2.5042473027e-05 1.7705781829e+00 -3.0667313715e+00 1.7705781829e+00 3.0667313715e+00 
94000 6.4905920108e+00 2.5008351590e-05 1.7705781829e+00 -3.0667313715e+00 1.7705781829e+00 3.0667313715e+00 
94100 6.4905920109e+00 2.4981531314e-05 1.7705781829e+00 -3.0667313715e+00 1.7705781829e+00 3.0667313715e+00 
94200 6.4905920110e+00 2.4961898794e-05 1.7705781829e+00 -3.0667313715e+00 1.7705781829e+00 3.0667313715e+00 
94300 6.4905920111e+00 2.4949333999e-05 1.7705781829e+00 -3.0667313715e+00 1.7705781829e+00 3.0667313715e+00 
94400 6.4905920112e+00 2.4943710581e-05 1.7705781829e+00 -3.0667313715e+00 1.7705781829e+00 3.0667313715e+00 
94500 6.4905920113e+00 2.4944896229e-05 1.7705781829e+00 -3.0667313715e+00 1.7705781829e+00 3.0667313715e+00 
94600 6.4905920114e+00 2.4952753004e-05 1.7705781829e+00 -3.0667313715e+00 1.7705781829e+00 3.0667313715e+00 
94700 6.4905920115e+00 2.4967137663e-05 1.7705781829e+00 -3.0667313715e+00 1.7705781829e+00 3.0667313715e+00 
94800 6.4905920116e+00 2.4987901998e-05 1.7705781829e+00 -3.0667313715e+00 1.7705781829e+00 3.0667313715e+00 
94900 6.4905920117e+00 2.5014893162e-05 1.7705781829e+00 -3.0667313715e+00 1.7705781829e+00 3.0667313715e+00 
95000 6.4905920118e+00 2.5047953998e-05 1.7705781829e+00 -3.0667313715e+00 1.7705781829e+00 3.0667313715e+00 
95100 6.4905920119e+00 2.5086923358e-05 1.7705781829e+00 -3.0667313715e+00 1.7705781829e+00 3.0667313715e+00 
95200 6.4905920120e+00 2.5131636424e-05 1.7705781829e+00 -3.0667313715e+00 1.7705781829e+00 3.0667313715e+00 
95300 6.4905920120e+00 2.5181925021e-05 1.7705781829e+00 -3.0667313715e+00 1.7705781829e+00 3.0667313715e+00 
95400 6.4905920121e+00 2.5237617939e-05 1.7705781829e+00 -3.0667313715e+00 1.7705781829e+00 3.0667313715e+00 
95500 6.4905920122e+00 2.5298541222e-05 1.7705781829e+00 -3.0667313715e+00 1.7705781829e+00 3.0667313715e+00 
95600 6.4905920123e+00 2.5364518486e-05 1.7705781829e+00 -3.0667313715e+00 1.7705781829e+00 3.0667313715e+00 
95700 6.4905920124e+00 2.5435371207e-05 1.7705781829e+00 -3.0667313715e+00 1.7705781829e+00 3.0667313715e+00 
95800 6.4905920125e+00 2.5510919019e-05 1.7705781829e+00 -3.0667313715e+00 1.7705781829e+00 3.0667313715e+00 
95900 6.4905920126e+00 2.5590979998e-05 1.7705781829e+00 -3.0667313715e+00 1.7705781829e+00 3.0667313715e+00 
96000 6.4905920127e+00 2.5675370938e-05 1.7705781829e+00 -3.0667313715e+00 1.7705781829e+00 3.0667313715e+00 
96100 6.4905920127e+00 2.5763907639e-05 1.7705781829e+00 -3.0667313715e+00 1.7705781829e+00 3.0667313715e+00 
96200 6.4905920128e+00 2.5856405159e-05 1.7705781829e+00 -3.0667313715e+00 1.7705781829e+00 3.0667313715e+00 
96300 6.4905920129e+00 2.5952678091e-05 1.7705781829e+00 -3.0667313715e+00 1.7705781829e+00 3.0667313715e+00 
96400 6.4905920130e+00 2.6052540813e-05 1.7705781829e+00 -3.0667313715e+00 1.7705781829e+00 3.0667313715e+00 
96500 6.4905920131e+00 2.6155807735e-05 1.7705781829e+00 -3.0667313715e+00 1.7705781829e+00 3.0667313715e+00 
96600 6.4905920131e+00 2.6262293548e-05 1.7705781829e+00 -3.0667313715e+00 1.7705781829e+00 3.0667313715e+00 
96700 6.4905920132e+00 2.6371813453e-05 1.7705781829e+00 -3.0667313715e+00 1.7705781829e+00 3.0667313715e+00 
96800 6.4905920133e+00 2.6484183400e-05 1.7705781829e+00 -3.0667313715e+00 1.7705781829e+00 3.0667313715e+00 
96900 6.4905920134e+00 2.6599220302e-05 1.7705781829e+00 -3.0667313715e+00 1.7705781829e+00 3.0667313715e+00 
97000 6.4905920134e+00 2.6716742249e-05 1.7705781829e+00 -3.0667313715e+00 1.7705781829e+00 3.0667313715e+00 
97100 6.4905920135e+00 2.6836568720e-05 1.7705781829e+00 -3.0667313715e+00 1.7705781829e+00 3.0667313715e+00 
97200 6.4905920136e+00 2.6958520777e-05 1.7705781829e+00 -3.0667313715e+00 1.7705781829e+00 3.0667313715e+00 
97300 6.4905920137e+00 2.7082421266e-05 1.7705781829e+00 -3.0667313715e+00 1.7705781829e+00 3.0667313715e+00 
97400 6.4905920137e+00 2.7208094998e-05 1.7705781829e+00 -3.0667313715e+00 1.7705781829e+00 3.0667313715e+00 
97500 6.4905920138e+00 2.7335368922e-05 1.7705781829e+00 -3.0667313715e+00 1.7705781829e+00 3.0667313715e+00 
97600 6.4905920139e+00 2.7464072300e-05 1.7705781829e+00 -3.0667313715e+00 1.7705781829e+00 3.0667313715e+00 
97700 6.4905920139e+00 2.7594036873e-05 1.7705781829e+00 -3.0667313715e+00 1.7705781829e+00 3.0667313715e+00 
97800 6.4905920140e+00 2.7725097007e-05 1.7705781829e+00 -3.0667313715e+00 1.7705781829e+00 3.0667313715e+00 
97900 6.4905920141e+00 2.7857089846e-05 1.7705781829e+00 -3.0667313715e+00 1.7705781829e+00 3.0667313715e+00 
98000 6.4905920141e+00 2.7989855452e-05 1.7705781829e+00 -3.0667313715e+00 1.7705781829e+00 3.0667313715e+00 
98100 6.4905920142e+00 2.8123236932e-05 1.7705781829e+00 -3.0667313715e+00 1.7705781829e+00 3.0667313715e+00 
98200 6.4905920143e+00 2.8257080568e-05 1.7705781829e+00 -3.0667313715e+00 1.7705781829e+00 3.0667313715e+00 
98300 6.4905920143e+00 2.8391235934e-05 1.7705781829e+00 -3.0667313715e+00 1.7705781829e+00 3.0667313715e+00 
98400 6.4905920144e+00 2.8525556004e-05 1.7705781829e+00 -3.0667313715e+00 1.7705781829e+00 3.0667313715e+00 
98500 6.4905920145e+00 2.8659897252e-05 1.7705781829e+00 -3.0667313715e+00 1.7705781829e+00 3.0667313715e+00 
98600 6.4905920145e+00 2.8794119749e-05 1.7705781829e+00 -3.0667313715e+00 1.7705781829e+00 3.0667313715e+00 
98700 6.4905920146e+00 2.8928087253e-05 1.7705781829e+00 -3.0667313715e+00 1.7705781829e+00 3.0667313715e+00 
98800 6.4905920146e+00 2.9061667290e-05 1.7705781829e+00 -3.0667313715e+00 1.7705781829e+00 3.0667313715e+00 
98900 6.4905920147e+00 2.9194731220e-05 1.7705781829e+00 -3.0667313715e+00 1.7705781829e+00 3.0667313715e+00 
99000 6.4905920147e+00 2.9327154317e-05 1.7705781829e+00 -3.0667313715e+00 1.7705781829e+00 3.0667313715e+00 
99100 6.4905920148e+00 2.9458815809e-05 1.7705781829e+00 -3.0667313715e+00 1.7705781829e+00 3.0667313715e+00 
99200 6.4905920149e+00 2.9589598952e-05 1.7705781829e+00 -3.0667313715e+00 1.7705781829e+00 3.0667313715e+00 
99300 6.4905920149e+00 2.9719391064e-05 1.7705781829e+00 -3.0667313715e+00 1.7705781829e+00 3.0667313715e+00 
99400 6.4905920150e+00 2.9848083570e-05 1.7705781829e+00 -3.0667313715e+00 1.7705781829e+00 3.0667313715e+00 
99500 6.4905920150e+00 2.9975572020e-05 1.7705781829e+00 -3.0667313715e+00 1.7705781829e+00 3.0667313715e+00 
99600 6.4905920151e+00 3.0101756144e-05 1.7705781829e+00 -3.0667313715e+00 1.7705781829e+00 3.0667313715e+00 
99700 6.4905920151e+00 3.0226539853e-05 1.7705781829e+00 -3.0667313715e+00 1.7705781829e+00 3.0667313715e+00 
99800 6.4905920152e+00 3.0349831250e-05 1.7705781829e+00 -3.0667313715e+00 1.7705781829e+00 3.0667313715e+00 
99900 6.4905920152e+00 3.0471542656e-05 1.7705781829e+00 -3.0667313715e+00 1.7705781829e+00 3.0667313715e+00 
100000 6.4905920153e+00 3.0591590598e-05 1.7705781829e+00 -3.0667313715e+00 1.7705781829e+00 3.0667313715e+00 
100100 6.4905920153e+00 3.0709895814e-05 1.7705781829e+00 -3.0667313715e+00 1.7705781829e+00 3.0667313715e+00 
100200 6.4905920154e+00 3.0826383243e-05 1.7705781829e+00 -3.0667313715e+00 1.7705781829e+00 3.0667313715e+00 
100300 6.4905920154e+00 3.0904520042e-05 1.7705781829e+00 -3.0667313715e+00 1.7705781829e+00 3.0667313715e+00 
100300 6.4905920154e+00 3.0904520041e-05 1.7705781829e+00 -3.0667313715e+00 1.7705781829e+00 3.0667313715e+00 
