# step Hamiltonian StressXX CellTensor1 CellTensor2 CellTensor3 CellTensor4 
0 5.1593870441e+00 1.6582409126e-01 1.8793944066e+00 -3.2552065997e+00 1.8793944066e+00 3.2552065997e+00 
100 5.1588097799e+00 1.6888208568e-01 1.8793944066e+00 -3.2552065997e+00 1.8793944066e+00 3.2552065997e+00 
200 5.1572515207e+00 1.6962116587e-01 1.8749032090e+00 -3.2474276172e+00 1.8749032090e+00 3.2474276172e+00 
300 5.1555441131e+00 1.7006394164e-01 1.8703815677e+00 -3.2395959048e+00 1.8703815677e+00 3.2395959048e+00 
400 5.1537253402e+00 1.7025257355e-01 1.8658371773e+00 -3.2317247898e+00 1.8658371773e+00 3.2317247898e+00 
500 5.1518277729e+00 1.7022404778e-01 1.8612766770e+00 -3.2238257715e+00 1.8612766770e+00 3.2238257715e+00 
600 5.1498791601e+00 1.7001053421e-01 1.8567057775e+00 -3.2159087413e+00 1.8567057775e+00 3.2159087413e+00 
700 5.1479028575e+00 1.6963978288e-01 1.8521293794e+00 -3.2079821874e+00 1.8521293794e+00 3.2079821874e+00 
800 5.1459182721e+00 1.6913553802e-01 1.8475516836e+00 -3.2000533855e+00 1.8475516836e+00 3.2000533855e+00 
900 5.1439413027e+00 1.6851795340e-01 1.8429762899e+00 -3.1921285712e+00 1.8429762899e+00 3.1921285712e+00 
1000 5.1419847673e+00 1.6780399687e-01 1.8384062879e+00 -3.1842130956e+00 1.8384062879e+00 3.1842130956e+00 
1100 5.1400588054e+00 1.6700783550e-01 1.8338443367e+00 -3.1763115643e+00 1.8338443367e+00 3.1763115643e+00 
1200 5.1381712519e+00 1.6614119550e-01 1.8292927358e+00 -3.1684279604e+00 1.8292927358e+00 3.1684279604e+00 
1300 5.1363279783e+00 1.6521369370e-01 1.8247534874e+00 -3.1605657514e+00 1.8247534874e+00 3.1605657514e+00 
1400 5.1345332005e+00 1.6423313898e-01 1.8202283498e+00 -3.1527279832e+00 1.8202283498e+00 3.1527279832e+00 
1500 5.1327897538e+00 1.6320580340e-01 1.8157188845e+00 -3.1449173603e+00 1.8157188845e+00 3.1449173603e+00 
1600 5.1310993349e+00 1.6213666398e-01 1.8112264956e+00 -3.1371363144e+00 1.8112264956e+00 3.1371363144e+00 
1700 5.1294627143e+00 1.6102961636e-01 1.8067524632e+00 -3.1293870630e+00 1.8067524632e+00 3.1293870630e+00 
1800 5.1278799201e+00 1.5988766248e-01 1.8022979721e+00 -3.1216716580e+00 1.8022979721e+00 3.1216716580e+00 
1900 5.1263503964e+00 1.5871307407e-01 1.7978641348e+00 -3.1139920267e+00 1.7978641348e+00 3.1139920267e+00 
2000 5.1248731381e+00 1.5750753443e-01 1.7934520114e+00 -3.1063500046e+00 1.7934520114e+00 3.1063500046e+00 
2100 5.1234468049e+00 1.5627226043e-01 1.7890626243e+00 -3.0987473632e+00 1.7890626243e+00 3.0987473632e+00 
2200 5.1220698169e+00 1.5500810703e-01 1.7846969715e+00 -3.0911858308e+00 1.7846969715e+00 3.0911858308e+00 
2300 5.1207404340e+00 1.5371565614e-01 1.7803560360e+00 -3.0836671099e+00 1.7803560360e+00 3.0836671099e+00 
2400 5.1194568208e+00 1.5239529176e-01 1.7760407928e+00 -3.0761928895e+00 1.7760407928e+00 3.0761928895e+00 
2500 5.1182170990e+00 1.5104726300e-01 1.7717522149e+00 -3.0687648546e+00 1.7717522149e+00 3.0687648546e+00 
2600 5.1170193899e+00 1.4967173658e-01 1.7674912763e+00 -3.0613846924e+00 1.7674912763e+00 3.0613846924e+00 
2700 5.1158618468e+00 1.4826884004e-01 1.7632589545e+00 -3.0540540960e+00 1.7632589545e+00 3.0540540960e+00 
2800 5.1147426803e+00 1.4683869702e-01 1.7590562316e+00 -3.0467747664e+00 1.7590562316e+00 3.0467747664e+00 
2900 5.1136601766e+00 1.4538145552e-01 1.7548840940e+00 -3.0395484122e+00 1.7548840940e+00 3.0395484122e+00 
3000 5.1126127108e+00 1.4389731028e-01 1.7507435320e+00 -3.0323767485e+00 1.7507435320e+00 3.0323767485e+00 
3100 5.1115987545e+00 1.4238651991e-01 1.7466355379e+00 -3.0252614940e+00 1.7466355379e+00 3.0252614940e+00 
3200 5.1106168816e+00 1.4084941964e-01 1.7425611043e+00 -3.0182043680e+00 1.7425611043e+00 3.0182043680e+00 
3300 5.1096657686e+00 1.3928643031e-01 1.7385212217e+00 -3.0112070859e+00 1.7385212217e+00 3.0112070859e+00 
3400 5.1087441946e+00 1.3769806412e-01 1.7345168755e+00 -3.0042713549e+00 1.7345168755e+00 3.0042713549e+00 
3500 5.1078510380e+00 1.3608492767e-01 1.7305490437e+00 -2.9973988686e+00 1.7305490437e+00 2.9973988686e+00 
3600 5.1069852725e+00 1.3444772276e-01 1.7266186934e+00 -2.9905913022e+00 1.7266186934e+00 2.9905913022e+00 
3700 5.1061459612e+00 1.3278724517e-01 1.7227267779e+00 -2.9838503068e+00 1.7227267779e+00 2.9838503068e+00 
3800 5.1053322510e+00 1.3110438203e-01 1.7188742336e+00 -2.9771775044e+00 1.7188742336e+00 2.9771775044e+00 
3900 5.1045433655e+00 1.2940010776e-01 1.7150619770e+00 -2.9705744823e+00 1.7150619770e+00 2.9705744823e+00 
4000 5.1037785983e+00 1.2767547907e-01 1.7112909014e+00 -2.9640427878e+00 1.7112909014e+00 2.9640427878e+00 
4100 5.1030373056e+00 1.2593162910e-01 1.7075618747e+00 -2.9575839240e+00 1.7075618747e+00 2.9575839240e+00 
4200 5.1023188996e+00 1.2416976101e-01 1.7038757357e+00 -2.9511993441e+00 1.7038757357e+00 2.9511993441e+00 
4300 5.1016228417e+00 1.2239114104e-01 1.7002332926e+00 -2.9448904475e+00 1.7002332926e+00 2.9448904475e+00 
4400 5.1009486353e+00 1.2059709135e-01 1.6966353197e+00 -2.9386585756e+00 1.6966353197e+00 2.9386585756e+00 
4500 5.1002958206e+00 1.1878898263e-01 1.6930825556e+00 -2.9325050077e+00 1.6930825556e+00 2.9325050077e+00 
4600 5.0996639680e+00 1.1696822666e-01 1.6895757013e+00 -2.9264309579e+00 1.6895757013e+00 2.9264309579e+00 
4700 5.0990526732e+00 1.1513626894e-01 1.6861154182e+00 -2.9204375718e+00 1.6861154182e+00 2.9204375718e+00 
4800 5.0984615519e+00 1.1329458132e-01 1.6827023264e+00 -2.9145259234e+00 1.6827023264e+00 2.9145259234e+00 
4900 5.0978902358e+00 1.1144465497e-01 1.6793370037e+00 -2.9086970134e+00 1.6793370037e+00 2.9086970134e+00 
5000 5.0973383686e+00 1.0958799338e-01 1.6760199838e+00 -2.9029517665e+00 1.6760199838e+00 2.9029517665e+00 
5100 5.0968056020e+00 1.0772610581e-01 1.6727517562e+00 -2.8972910302e+00 1.6727517562e+00 2.8972910302e+00 
5200 5.0962915931e+00 1.0586050094e-01 1.6695327646e+00 -2.8917155732e+00 1.6695327646e+00 2.8917155732e+00 
5300 5.0957960020e+00 1.0399268090e-01 1.6663634068e+00 -2.8862260845e+00 1.6663634068e+00 2.8862260845e+00 
5400 5.0953184887e+00 1.0212413567e-01 1.6632440343e+00 -2.8808231728e+00 1.6632440343e+00 2.8808231728e+00 
5500 5.0948587124e+00 1.0025633783e-01 1.6601749519e+00 -2.8755073661e+00 1.6601749519e+00 2.8755073661e+00 
5600 5.0944163291e+00 9.8390737697e-02 1.6571564178e+00 -2.8702791118e+00 1.6571564178e+00 2.8702791118e+00 
5700 5.0939909910e+00 9.6528758903e-02 1.6541886440e+00 -2.8651387767e+00 1.6541886440e+00 2.8651387767e+00 
5800 5.0935823455e+00 9.4671794291e-02 1.6512717962e+00 -2.8600866481e+00 1.6512717962e+00 2.8600866481e+00 
5900 5.0931900348e+00 9.2821202255e-02 1.6484059943e+00 -2.8551229337e+00 1.6484059943e+00 2.8551229337e+00 
6000 5.0928136951e+00 9.0978303447e-02 1.6455913135e+00 -2.8502477635e+00 1.6455913135e+00 2.8502477635e+00 
6100 5.0924529571e+00 8.9144377857e-02 1.6428277844e+00 -2.8454611907e+00 1.6428277844e+00 2.8454611907e+00 
6200 5.0921074459e+00 8.7320662263e-02 1.6401153942e+00 -2.8407631931e+00 1.6401153942e+00 2.8407631931e+00 
6300 5.0917767809e+00 8.5508348030e-02 1.6374540875e+00 -2.8361536746e+00 1.6374540875e+00 2.8361536746e+00 
6400 5.0914605768e+00 8.3708579252e-02 1.6348437674e+00 -2.8316324675e+00 1.6348437674e+00 2.8316324675e+00 
6500 5.0911584437e+00 8.1922451208e-02 1.6322842966e+00 -2.8271993341e+00 1.6322842966e+00 2.8271993341e+00 
6600 5.0908699877e+00 8.0151009134e-02 1.6297754987e+00 -2.8228539687e+00 1.6297754987e+00 2.8228539687e+00 
6700 5.0905948120e+00 7.8395247283e-02 1.6273171594e+00 -2.8185960001e+00 1.6273171594e+00 2.8185960001e+00 
6800 5.0903325172e+00 7.6656108249e-02 1.6249090277e+00 -2.8144249937e+00 1.6249090277e+00 2.8144249937e+00 
6900 5.0900827022e+00 7.4934482558e-02 1.6225508177e+00 -2.8103404542e+00 1.6225508177e+00 2.8103404542e+00 
7000 5.0898449652e+00 7.3231208486e-02 1.6202422095e+00 -2.8063418274e+00 1.6202422095e+00 2.8063418274e+00 
7100 5.0896189044e+00 7.1547072099e-02 1.6179828510e+00 -2.8024285037e+00 1.6179828510e+00 2.8024285037e+00 
7200 5.0894041188e+00 6.9882807501e-02 1.6157723592e+00 -2.7985998196e+00 1.6157723592e+00 2.7985998196e+00 
7300 5.0892002092e+00 6.8239097254e-02 1.6136103220e+00 -2.7948550614e+00 1.6136103220e+00 2.7948550614e+00 
7400 5.0890067787e+00 6.6616572976e-02 1.6114962994e+00 -2.7911934668e+00 1.6114962994e+00 2.7911934668e+00 
7500 5.0888234340e+00 6.5015816090e-02 1.6094298251e+00 -2.7876142283e+00 1.6094298251e+00 2.7876142283e+00 
7600 5.0886497855e+00 6.3437358701e-02 1.6074104081e+00 -2.7841164954e+00 1.6074104081e+00 2.7841164954e+00 
7700 5.0884854486e+00 6.1881684605e-02 1.6054375341e+00 -2.7806993775e+00 1.6054375341e+00 2.7806993775e+00 
7800 5.0883300442e+00 6.0349230394e-02 1.6035106672e+00 -2.7773619461e+00 1.6035106672e+00 2.7773619461e+00 
7900 5.0881831990e+00 5.8840386663e-02 1.6016292512e+00 -2.7741032380e+00 1.6016292512e+00 2.7741032380e+00 
8000 5.0880445467e+00 5.7355499290e-02 1.5997927111e+00 -2.7709222572e+00 1.5997927111e+00 2.7709222572e+00 
8100 5.0879137280e+00 5.5894870788e-02 1.5980004547e+00 -2.7678179780e+00 1.5980004547e+00 2.7678179780e+00 
8200 5.0877903913e+00 5.4458761713e-02 1.5962518737e+00 -2.7647893469e+00 1.5962518737e+00 2.7647893469e+00 
8300 5.0876741934e+00 5.3047392115e-02 1.5945463455e+00 -2.7618352854e+00 1.5945463455e+00 2.7618352854e+00 
8400 5.0875647994e+00 5.1660943029e-02 1.5928832342e+00 -2.7589546922e+00 1.5928832342e+00 2.7589546922e+00 
8500 5.0874618832e+00 5.0299557989e-02 1.5912618923e+00 -2.7561464456e+00 1.5912618923e+00 2.7561464456e+00 
8600 5.0873651281e+00 4.8963344562e-02 1.5896816614e+00 -2.7534094054e+00 1.5896816614e+00 2.7534094054e+00 
8700 5.0872742268e+00 4.7652375890e-02 1.5881418741e+00 -2.7507424157e+00 1.5881418741e+00 2.7507424157e+00 
8800 5.0871888813e+00 4.6366692241e-02 1.5866418549e+00 -2.7481443062e+00 1.5866418549e+00 2.7481443062e+00 
8900 5.0871088036e+00 4.5106302548e-02 1.5851809213e+00 -2.7456138949e+00 1.5851809213e+00 2.7456138949e+00 
9000 5.0870337155e+00 4.3871185946e-02 1.5837583850e+00 -2.7431499897e+00 1.5837583850e+00 2.7431499897e+00 
9100 5.0869633487e+00 4.2661293291e-02 1.5823735530e+00 -2.7407513903e+00 1.5823735530e+00 2.7407513903e+00 
9200 5.0868974449e+00 4.1476548660e-02 1.5810257287e+00 -2.7384168901e+00 1.5810257287e+00 2.7384168901e+00 
9300 5.0868357556e+00 4.0316850831e-02 1.5797142127e+00 -2.7361452779e+00 1.5797142127e+00 2.7361452779e+00 
9400 5.0867780424e+00 3.9182074731e-02 1.5784383041e+00 -2.7339353394e+00 1.5784383041e+00 2.7339353394e+00 
9500 5.0867240765e+00 3.8072072854e-02 1.5771973011e+00 -2.7317858590e+00 1.5771973011e+00 2.7317858590e+00 
9600 5.0866736390e+00 3.6986676654e-02 1.5759905017e+00 -2.7296956212e+00 1.5759905017e+00 2.7296956212e+00 
9700 5.0866265206e+00 3.5925697894e-02 1.5748172052e+00 -2.7276634120e+00 1.5748172052e+00 2.7276634120e+00 
9800 5.0865825212e+00 3.4888929957e-02 1.5736767123e+00 -2.7256880203e+00 1.5736767123e+00 2.7256880203e+00 
9900 5.0865414503e+00 3.3876149127e-02 1.5725683261e+00 -2.7237682391e+00 1.5725683261e+00 2.7237682391e+00 
10000 5.0865031263e+00 3.2887115822e-02 1.5714913529e+00 -2.7219028668e+00 1.5714913529e+00 2.7219028668e+00 
10100 5.0864673764e+00 3.1921575790e-02 1.5704451026e+00 -2.7200907082e+00 1.5704451026e+00 2.7200907082e+00 
10200 5.0864340368e+00 3.0979261259e-02 1.5694288898e+00 -2.7183305759e+00 1.5694288898e+00 2.7183305759e+00 
10300 5.0864029516e+00 3.0059892049e-02 1.5684420336e+00 -2.7166212909e+00 1.5684420336e+00 2.7166212909e+00 
10400 5.0863739736e+00 2.9163176640e-02 1.5674838589e+00 -2.7149616836e+00 1.5674838589e+00 2.7149616836e+00 
10500 5.0863469632e+00 2.8288813195e-02 1.5665536965e+00 -2.7133505951e+00 1.5665536965e+00 2.7133505951e+00 
10600 5.0863217885e+00 2.7436490547e-02 1.5656508837e+00 -2.7117868775e+00 1.5656508837e+00 2.7117868775e+00 
10700 5.0862983251e+00 2.6605889135e-02 1.5647747647e+00 -2.7102693948e+00 1.5647747647e+00 2.7102693948e+00 
10800 5.0862764557e+00 2.5796681904e-02 1.5639246910e+00 -2.7087970239e+00 1.5639246910e+00 2.7087970239e+00 
10900 5.0862560697e+00 2.5008535167e-02 1.5631000217e+00 -2.7073686548e+00 1.5631000217e+00 2.7073686548e+00 
11000 5.0862370633e+00 2.4241109416e-02 1.5623001240e+00 -2.7059831914e+00 1.5623001240e+00 2.7059831914e+00 
11100 5.0862193389e+00 2.3494060105e-02 1.5615243735e+00 -2.7046395522e+00 1.5615243735e+00 2.7046395522e+00 
11200 5.0862028051e+00 2.2767038386e-02 1.5607721543e+00 -2.7033366703e+00 1.5607721543e+00 2.7033366703e+00 
11300 5.0861873759e+00 2.2059691814e-02 1.5600428594e+00 -2.7020734944e+00 1.5600428594e+00 2.7020734944e+00 
11400 5.0861729711e+00 2.1371665005e-02 1.5593358908e+00 -2.7008489889e+00 1.5593358908e+00 2.7008489889e+00 
11500 5.0861595158e+00 2.0702600273e-02 1.5586506600e+00 -2.6996621344e+00 1.5586506600e+00 2.6996621344e+00 
11600 5.0861469399e+00 2.0052138217e-02 1.5579865879e+00 -2.6985119277e+00 1.5579865879e+00 2.6985119277e+00 
11700 5.0861351782e+00 1.9419918286e-02 1.5573431049e+00 -2.6973973825e+00 1.5573431049e+00 2.6973973825e+00 
11800 5.0861241697e+00 1.8805579305e-02 1.5567196513e+00 -2.6963175293e+00 1.5567196513e+00 2.6963175293e+00 
11900 5.0861138580e+00 1.8208759969e-02 1.5561156774e+00 -2.6952714157e+00 1.5561156774e+00 2.6952714157e+00 
12000 5.0861041905e+00 1.7629099315e-02 1.5555306432e+00 -2.6942581067e+00 1.5555306432e+00 2.6942581067e+00 
12100 5.0860951185e+00 1.7066237155e-02 1.5549640189e+00 -2.6932766847e+00 1.5549640189e+00 2.6932766847e+00 
12200 5.0860865969e+00 1.6519814485e-02 1.5544152849e+00 -2.6923262495e+00 1.5544152849e+00 2.6923262495e+00 
12300 5.0860785838e+00 1.5989473868e-02 1.5538839316e+00 -2.6914059186e+00 1.5538839316e+00 2.6914059186e+00 
12400 5.0860710405e+00 1.5474859793e-02 1.5533694597e+00 -2.6905148272e+00 1.5533694597e+00 2.6905148272e+00 
12500 5.0860639315e+00 1.4975619003e-02 1.5528713801e+00 -2.6896521280e+00 1.5528713801e+00 2.6896521280e+00 
12600 5.0860572239e+00 1.4491400804e-02 1.5523892139e+00 -2.6888169916e+00 1.5523892139e+00 2.6888169916e+00 
12700 5.0860508872e+00 1.4021857354e-02 1.5519224922e+00 -2.6880086059e+00 1.5519224922e+00 2.6880086059e+00 
12800 5.0860448938e+00 1.3566643921e-02 1.5514707565e+00 -2.6872261766e+00 1.5514707565e+00 2.6872261766e+00 
12900 5.0860392180e+00 1.3125419133e-02 1.5510335582e+00 -2.6864689270e+00 1.5510335582e+00 2.6864689270e+00 
13000 5.0860338362e+00 1.2697845197e-02 1.5506104590e+00 -2.6857360977e+00 1.5506104590e+00 2.6857360977e+00 
13100 5.0860287270e+00 1.2283588106e-02 1.5502010303e+00 -2.6850269465e+00 1.5502010303e+00 2.6850269465e+00 
13200 5.0860238707e+00 1.1882317828e-02 1.5498048538e+00 -2.6843407486e+00 1.5498048538e+00 2.6843407486e+00 
13300 5.0860192493e+00 1.1493708474e-02 1.5494215208e+00 -2.6836767963e+00 1.5494215208e+00 2.6836767963e+00 
13400 5.0860148462e+00 1.1117438455e-02 1.5490506324e+00 -2.6830343988e+00 1.5490506324e+00 2.6830343988e+00 
13500 5.0860106465e+00 1.0753190620e-02 1.5486917994e+00 -2.6824128818e+00 1.5486917994e+00 2.6824128818e+00 
13600 5.0860066366e+00 1.0400652381e-02 1.5483446422e+00 -2.6818115880e+00 1.5483446422e+00 2.6818115880e+00 
13700 5.0860028039e+00 1.0059515825e-02 1.5480087908e+00 -2.6812298762e+00 1.5480087908e+00 2.6812298762e+00 
13800 5.0859991371e+00 9.7294778131e-03 1.5476838842e+00 -2.6806671215e+00 1.5476838842e+00 2.6806671215e+00 
13900 5.0859956260e+00 9.4102400661e-03 1.5473695711e+00 -2.6801227152e+00 1.5473695711e+00 2.6801227152e+00 
14000 5.0859922611e+00 9.1015092390e-03 1.5470655089e+00 -2.6795960640e+00 1.5470655089e+00 2.6795960640e+00 
14100 5.0859890341e+00 8.8029969854e-03 1.5467713642e+00 -2.6790865905e+00 1.5467713642e+00 2.6790865905e+00 
14200 5.0859859371e+00 8.5144200109e-03 1.5464868126e+00 -2.6785937326e+00 1.5464868126e+00 2.6785937326e+00 
14300 5.0859829632e+00 8.2355001175e-03 1.5462115381e+00 -2.6781169432e+00 1.5462115381e+00 2.6781169432e+00 
14400 5.0859801061e+00 7.9659642379e-03 1.5459452335e+00 -2.6776556902e+00 1.5459452335e+00 2.6776556902e+00 
14500 5.0859773601e+00 7.7055444622e-03 1.5456876001e+00 -2.6772094560e+00 1.5456876001e+00 2.6772094560e+00 
14600 5.0859747199e+00 7.4539780561e-03 1.5454383474e+00 -2.6767777376e+00 1.5454383474e+00 2.6767777376e+00 
14700 5.0859721808e+00 7.2110074711e-03 1.5451971930e+00 -2.6763600460e+00 1.5451971930e+00 2.6763600460e+00 
14800 5.0859697385e+00 6.9763803489e-03 1.5449638627e+00 -2.6759559061e+00 1.5449638627e+00 2.6759559061e+00 
14900 5.0859673892e+00 6.7498495177e-03 1.5447380901e+00 -2.6755648564e+00 1.5447380901e+00 2.6755648564e+00 
15000 5.0859651292e+00 6.5311729831e-03 1.5445196165e+00 -2.6751864490e+00 1.5445196165e+00 2.6751864490e+00 
15100 5.0859629553e+00 6.3201139132e-03 1.5443081907e+00 -2.6748202489e+00 1.5443081907e+00 2.6748202489e+00 
15200 5.0859608646e+00 6.1164406178e-03 1.5441035692e+00 -2.6744658340e+00 1.5441035692e+00 2.6744658340e+00 
15300 5.0859588544e+00 5.9199265229e-03 1.5439055155e+00 -2.6741227949e+00 1.5439055155e+00 2.6741227949e+00 
15400 5.0859569220e+00 5.7303501408e-03 1.5437138002e+00 -2.6737907344e+00 1.5437138002e+00 2.6737907344e+00 
15500 5.0859550652e+00 5.5474950348e-03 1.5435282012e+00 -2.6734692674e+00 1.5435282012e+00 2.6734692674e+00 
15600 5.0859532819e+00 5.3711497809e-03 1.5433485029e+00 -2.6731580209e+00 1.5433485029e+00 2.6731580209e+00 
15700 5.0859515701e+00 5.2011079254e-03 1.5431744966e+00 -2.6728566330e+00 1.5431744966e+00 2.6728566330e+00 
15800 5.0859499278e+00 5.0371679387e-03 1.5430059799e+00 -2.6725647536e+00 1.5430059799e+00 2.6725647536e+00 
15900 5.0859483533e+00 4.8791331660e-03 1.5428427570e+00 -2.6722820432e+00 1.5428427570e+00 2.6722820432e+00 
16000 5.0859468449e+00 4.7268117758e-03 1.5426846381e+00 -2.6720081733e+00 1.5426846381e+00 2.6720081733e+00 
16100 5.0859454010e+00 4.5800167043e-03 1.5425314398e+00 -2.6717428261e+00 1.5425314398e+00 2.6717428261e+00 
16200 5.0859440202e+00 4.4385655990e-03 1.5423829844e+00 -2.6714856937e+00 1.5423829844e+00 2.6714856937e+00 
16300 5.0859427008e+00 4.3022807581e-03 1.5422391000e+00 -2.6712364786e+00 1.5422391000e+00 2.6712364786e+00 
16400 5.0859414416e+00 4.1709890701e-03 1.5420996205e+00 -2.6709948930e+00 1.5420996205e+00 2.6709948930e+00 
16500 5.0859402411e+00 4.0445219492e-03 1.5419643851e+00 -2.6707606585e+00 1.5419643851e+00 2.6707606585e+00 
16600 5.0859390980e+00 3.9227152712e-03 1.5418332386e+00 -2.6705335061e+00 1.5418332386e+00 2.6705335061e+00 
16700 5.0859380110e+00 3.8054093060e-03 1.5417060309e+00 -2.6703131759e+00 1.5417060309e+00 2.6703131759e+00 
16800 5.0859369788e+00 3.6924486507e-03 1.5415826170e+00 -2.6700994168e+00 1.5415826170e+00 2.6700994168e+00 
16900 5.0859360000e+00 3.5836821594e-03 1.5414628570e+00 -2.6698919862e+00 1.5414628570e+00 2.6698919862e+00 
17000 5.0859350735e+00 3.4789628742e-03 1.5413466155e+00 -2.6696906502e+00 1.5413466155e+00 2.6696906502e+00 
17100 5.0859341979e+00 3.3781479534e-03 1.5412337622e+00 -2.6694951825e+00 1.5412337622e+00 2.6694951825e+00 
17200 5.0859333721e+00 3.2810986002e-03 1.5411241712e+00 -2.6693053653e+00 1.5411241712e+00 2.6693053653e+00 
17300 5.0859325948e+00 3.1876799906e-03 1.5410177210e+00 -2.6691209881e+00 1.5410177210e+00 2.6691209881e+00 
17400 5.0859318647e+00 3.0977612001e-03 1.5409142944e+00 -2.6689418480e+00 1.5409142944e+00 2.6689418480e+00 
17500 5.0859311808e+00 3.0112151310e-03 1.5408137785e+00 -2.6687677493e+00 1.5408137785e+00 2.6687677493e+00 
17600 5.0859305416e+00 2.9279184384e-03 1.5407160644e+00 -2.6685985036e+00 1.5407160644e+00 2.6685985036e+00 
17700 5.0859299461e+00 2.8477514575e-03 1.5406210473e+00 -2.6684339291e+00 1.5406210473e+00 2.6684339291e+00 
17800 5.0859293930e+00 2.7705981289e-03 1.5405286260e+00 -2.6682738508e+00 1.5405286260e+00 2.6682738508e+00 
17900 5.0859288811e+00 2.6963459257e-03 1.5404387033e+00 -2.6681181000e+00 1.5404387033e+00 2.6681181000e+00 
18000 5.0859284092e+00 2.6248857794e-03 1.5403511853e+00 -2.6679665145e+00 1.5403511853e+00 2.6679665145e+00 
18100 5.0859279761e+00 2.5561120069e-03 1.5402659820e+00 -2.6678189380e+00 1.5402659820e+00 2.6678189380e+00 
18200 5.0859275806e+00 2.4899222371e-03 1.5401830064e+00 -2.6676752201e+00 1.5401830064e+00 2.6676752201e+00 
18300 5.0859272216e+00 2.4262173381e-03 1.5401021751e+00 -2.6675352161e+00 1.5401021751e+00 2.6675352161e+00 
18400 5.0859268979e+00 2.3649013449e-03 1.5400234077e+00 -2.6673987870e+00 1.5400234077e+00 2.6673987870e+00 
18500 5.0859266082e+00 2.3058813871e-03 1.5399466270e+00 -2.6672657989e+00 1.5399466270e+00 2.6672657989e+00 
18600 5.0859263515e+00 2.2490676179e-03 1.5398717587e+00 -2.6671361233e+00 1.5398717587e+00 2.6671361233e+00 
18700 5.0859261266e+00 2.1943731425e-03 1.5397987316e+00 -2.6670096365e+00 1.5397987316e+00 2.6670096365e+00 
18800 5.0859259324e+00 2.1417139483e-03 1.5397274769e+00 -2.6668862198e+00 1.5397274769e+00 2.6668862198e+00 
18900 5.0859257677e+00 2.0910088349e-03 1.5396579290e+00 -2.6667657592e+00 1.5396579290e+00 2.6667657592e+00 
19000 5.0859256315e+00 2.0421793452e-03 1.5395900245e+00 -2.6666481452e+00 1.5395900245e+00 2.6666481452e+00 
19100 5.0859255226e+00 1.9951496972e-03 1.5395237028e+00 -2.6665332727e+00 1.5395237028e+00 2.6665332727e+00 
19200 5.0859254401e+00 1.9498467162e-03 1.5394589056e+00 -2.6664210407e+00 1.5394589056e+00 2.6664210407e+00 
19300 5.0859253827e+00 1.9061997685e-03 1.5393955771e+00 -2.6663113524e+00 1.5393955771e+00 2.6663113524e+00 
19400 5.0859253495e+00 1.8641406953e-03 1.5393336636e+00 -2.6662041151e+00 1.5393336636e+00 2.6662041151e+00 
19500 5.0859253396e+00 1.8236037477e-03 1.5392731137e+00 -2.6660992397e+00 1.5392731137e+00 2.6660992397e+00 
19600 5.0859253517e+00 1.7845255225e-03 1.5392138782e+00 -2.6659966408e+00 1.5392138782e+00 2.6659966408e+00 
19700 5.0859253851e+00 1.7468448993e-03 1.5391559099e+00 -2.6658962367e+00 1.5391559099e+00 2.6658962367e+00 
19800 5.0859254386e+00 1.7105029778e-03 1.5390991634e+00 -2.6657979489e+00 1.5390991634e+00 2.6657979489e+00 
19900 5.0859255115e+00 1.6754430168e-03 1.5390435954e+00 -2.6657017023e+00 1.5390435954e+00 2.6657017023e+00 
20000 5.0859256027e+00 1.6416103736e-03 1.5389891644e+00 -2.6656074251e+00 1.5389891644e+00 2.6656074251e+00 
20100 5.0859257113e+00 1.6089524447e-03 1.5389358307e+00 -2.6655150483e+00 1.5389358307e+00 2.6655150483e+00 
20200 5.0859258365e+00 1.5774186077e-03 1.5388835561e+00 -2.6654245062e+00 1.5388835561e+00 2.6654245062e+00 
20300 5.0859259775e+00 1.5469601633e-03 1.5388323044e+00 -2.6653357355e+00 1.5388323044e+00 2.6653357355e+00 
20400 5.0859261334e+00 1.5175302795e-03 1.5387820406e+00 -2.6652486760e+00 1.5387820406e+00 2.6652486760e+00 
20500 5.0859263033e+00 1.4890839359e-03 1.5387327314e+00 -2.6651632700e+00 1.5387327314e+00 2.6651632700e+00 
20600 5.0859264865e+00 1.4615778697e-03 1.5386843449e+00 -2.6650794622e+00 1.5386843449e+00 2.6650794622e+00 
20700 5.0859266823e+00 1.4349705220e-03 1.5386368508e+00 -2.6649971999e+00 1.5386368508e+00 2.6649971999e+00 
20800 5.0859268899e+00 1.4092219860e-03 1.5385902198e+00 -2.6649164327e+00 1.5385902198e+00 2.6649164327e+00 
20900 5.0859271086e+00 1.3842939556e-03 1.5385444241e+00 -2.6648371123e+00 1.5385444241e+00 2.6648371123e+00 
21000 5.0859273376e+00 1.3601496751e-03 1.5384994372e+00 -2.6647591926e+00 1.5384994372e+00 2.6647591926e+00 
21100 5.0859275764e+00 1.3367538903e-03 1.5384552336e+00 -2.6646826298e+00 1.5384552336e+00 2.6646826298e+00 
21200 5.0859278243e+00 1.3140728004e-03 1.5384117892e+00 -2.6646073818e+00 1.5384117892e+00 2.6646073818e+00 
21300 5.0859280806e+00 1.2920740109e-03 1.5383690806e+00 -2.6645334084e+00 1.5383690806e+00 2.6645334084e+00 
21400 5.0859283447e+00 1.2707264875e-03 1.5383270859e+00 -2.6644606714e+00 1.5383270859e+00 2.6644606714e+00 
21500 5.0859286161e+00 1.2500005114e-03 1.5382857838e+00 -2.6643891342e+00 1.5382857838e+00 2.6643891342e+00 
21600 5.0859288943e+00 1.2298676349e-03 1.5382451544e+00 -2.6643187618e+00 1.5382451544e+00 2.6643187618e+00 
21700 5.0859291786e+00 1.2103006391e-03 1.5382051782e+00 -2.6642495211e+00 1.5382051782e+00 2.6642495211e+00 
21800 5.0859294685e+00 1.1912734913e-03 1.5381658370e+00 -2.6641813802e+00 1.5381658370e+00 2.6641813802e+00 
21900 5.0859297637e+00 1.1727613047e-03 1.5381271134e+00 -2.6641143089e+00 1.5381271134e+00 2.6641143089e+00 
22000 5.0859300635e+00 1.1547402978e-03 1.5380889905e+00 -2.6640482781e+00 1.5380889905e+00 2.6640482781e+00 
22100 5.0859303675e+00 1.1371877562e-03 1.5380514525e+00 -2.6639832604e+00 1.5380514525e+00 2.6639832604e+00 
22200 5.0859306754e+00 1.1200819940e-03 1.5380144842e+00 -2.6639192294e+00 1.5380144842e+00 2.6639192294e+00 
22300 5.0859309866e+00 1.1034023172e-03 1.5379780711e+00 -2.6638561601e+00 1.5379780711e+00 2.6638561601e+00 
22400 5.0859313008e+00 1.0871289876e-03 1.5379421994e+00 -2.6637940284e+00 1.5379421994e+00 2.6637940284e+00 
22500 5.0859316176e+00 1.0712431874e-03 1.5379068559e+00 -2.6637328117e+00 1.5379068559e+00 2.6637328117e+00 
22600 5.0859319366e+00 1.0557269856e-03 1.5378720281e+00 -2.6636724882e+00 1.5378720281e+00 2.6636724882e+00 
22700 5.0859322576e+00 1.0405633042e-03 1.5378377039e+00 -2.6636130370e+00 1.5378377039e+00 2.6636130370e+00 
22800 5.0859325800e+00 1.0257358861e-03 1.5378038720e+00 -2.6635544384e+00 1.5378038720e+00 2.6635544384e+00 
22900 5.0859329038e+00 1.0112292637e-03 1.5377705215e+00 -2.6634966736e+00 1.5377705215e+00 2.6634966736e+00 
23000 5.0859332285e+00 9.9702872834e-04 1.5377376419e+00 -2.6634397244e+00 1.5377376419e+00 2.6634397244e+00 
23100 5.0859335539e+00 9.8312030046e-04 1.5377052233e+00 -2.6633835738e+00 1.5377052233e+00 2.6633835738e+00 
23200 5.0859338796e+00 9.6949070091e-04 1.5376732563e+00 -2.6633282053e+00 1.5376732563e+00 2.6633282053e+00 
23300 5.0859342055e+00 9.5612732289e-04 1.5376417318e+00 -2.6632736033e+00 1.5376417318e+00 2.6632736033e+00 
23400 5.0859345314e+00 9.4301820479e-04 1.5376106412e+00 -2.6632197528e+00 1.5376106412e+00 2.6632197528e+00 
23500 5.0859348569e+00 9.3015200384e-04 1.5375799762e+00 -2.6631666395e+00 1.5375799762e+00 2.6631666395e+00 
23600 5.0859351819e+00 9.1751797054e-04 1.5375497291e+00 -2.6631142499e+00 1.5375497291e+00 2.6631142499e+00 
23700 5.0859355061e+00 9.0510592388e-04 1.5375198921e+00 -2.6630625708e+00 1.5375198921e+00 2.6630625708e+00 
23800 5.0859358294e+00 8.9290622733e-04 1.5374904583e+00 -2.6630115899e+00 1.5374904583e+00 2.6630115899e+00 
23900 5.0859361517e+00 8.8090976559e-04 1.5374614206e+00 -2.6629612951e+00 1.5374614206e+00 2.6629612951e+00 
24000 5.0859364726e+00 8.6910792208e-04 1.5374327725e+00 -2.6629116752e+00 1.5374327725e+00 2.6629116752e+00 
24100 5.0859367921e+00 8.5749255712e-04 1.5374045077e+00 -2.6628627191e+00 1.5374045077e+00 2.6628627191e+00 
24200 5.0859371101e+00 8.4605598687e-04 1.5373766201e+00 -2.6628144163e+00 1.5373766201e+00 2.6628144163e+00 
24300 5.0859374263e+00 8.3479096294e-04 1.5373491039e+00 -2.6627667570e+00 1.5373491039e+00 2.6627667570e+00 
24400 5.0859377407e+00 8.2369065264e-04 1.5373219537e+00 -2.6627197314e+00 1.5373219537e+00 2.6627197314e+00 
24500 5.0859380531e+00 8.1274861998e-04 1.5372951640e+00 -2.6626733302e+00 1.5372951640e+00 2.6626733302e+00 
24600 5.0859383635e+00 8.0195880725e-04 1.5372687297e+00 -2.6626275447e+00 1.5372687297e+00 2.6626275447e+00 
24700 5.0859386717e+00 7.9131551725e-04 1.5372426459e+00 -2.6625823662e+00 1.5372426459e+00 2.6625823662e+00 
24800 5.0859389776e+00 7.8081339617e-04 1.5372169078e+00 -2.6625377865e+00 1.5372169078e+00 2.6625377865e+00 
24900 5.0859392811e+00 7.7044741701e-04 1.5371915109e+00 -2.6624937978e+00 1.5371915109e+00 2.6624937978e+00 
25000 5.0859395822e+00 7.6021286366e-04 1.5371664507e+00 -2.6624503923e+00 1.5371664507e+00 2.6624503923e+00 
25100 5.0859398808e+00 7.5010531554e-04 1.5371417230e+00 -2.6624075627e+00 1.5371417230e+00 2.6624075627e+00 
25200 5.0859401768e+00 7.4012063274e-04 1.5371173238e+00 -2.6623653019e+00 1.5371173238e+00 2.6623653019e+00 
25300 5.0859404701e+00 7.3025494183e-04 1.5370932489e+00 -2.6623236030e+00 1.5370932489e+00 2.6623236030e+00 
25400 5.0859407607e+00 7.2050462204e-04 1.5370694945e+00 -2.6622824593e+00 1.5370694945e+00 2.6622824593e+00 
25500 5.0859410486e+00 7.1086629215e-04 1.5370460570e+00 -2.6622418642e+00 1.5370460570e+00 2.6622418642e+00 
25600 5.0859413337e+00 7.0133679770e-04 1.5370229326e+00 -2.6622018116e+00 1.5370229326e+00 2.6622018116e+00 
25700 5.0859416159e+00 6.9191319882e-04 1.5370001179e+00 -2.6621622954e+00 1.5370001179e+00 2.6621622954e+00 
25800 5.0859418952e+00 6.8259275852e-04 1.5369776094e+00 -2.6621233095e+00 1.5369776094e+00 2.6621233095e+00 
25900 5.0859421716e+00 6.7337293136e-04 1.5369554037e+00 -2.6620848482e+00 1.5369554037e+00 2.6620848482e+00 
26000 5.0859424451e+00 6.6425135271e-04 1.5369334977e+00 -2.6620469059e+00 1.5369334977e+00 2.6620469059e+00 
26100 5.0859427156e+00 6.5522582829e-04 1.5369118881e+00 -2.6620094770e+00 1.5369118881e+00 2.6620094770e+00 
26200 5.0859429831e+00 6.4629432434e-04 1.5368905719e+00 -2.6619725562e+00 1.5368905719e+00 2.6619725562e+00 
26300 5.0859432476e+00 6.3745495795e-04 1.5368695459e+00 -2.6619361381e+00 1.5368695459e+00 2.6619361381e+00 
26400 5.0859435090e+00 6.2870598805e-04 1.5368488072e+00 -2.6619002176e+00 1.5368488072e+00 2.6619002176e+00 
26500 5.0859437675e+00 6.2004580661e-04 1.5368283528e+00 -2.6618647896e+00 1.5368283528e+00 2.6618647896e+00 
26600 5.0859440228e+00 6.1147293028e-04 1.5368081800e+00 -2.6618298492e+00 1.5368081800e+00 2.6618298492e+00 
26700 5.0859442752e+00 6.0298599241e-04 1.5367882858e+00 -2.6617953914e+00 1.5367882858e+00 2.6617953914e+00 
26800 5.0859445245e+00 5.9458373543e-04 1.5367686674e+00 -2.6617614115e+00 1.5367686674e+00 2.6617614115e+00 
26900 5.0859447707e+00 5.8626500350e-04 1.5367493222e+00 -2.6617279046e+00 1.5367493222e+00 2.6617279046e+00 
27000 5.0859450139e+00 5.7802873560e-04 1.5367302474e+00 -2.6616948661e+00 1.5367302474e+00 2.6616948661e+00 
27100 5.0859452540e+00 5.6987395887e-04 1.5367114404e+00 -2.6616622913e+00 1.5367114404e+00 2.6616622913e+00 
27200 5.0859454911e+00 5.6179978228e-04 1.5366928984e+00 -2.6616301757e+00 1.5366928984e+00 2.6616301757e+00 
27300 5.0859457252e+00 5.5380539062e-04 1.5366746189e+00 -2.6615985147e+00 1.5366746189e+00 2.6615985147e+00 
27400 5.0859459562e+00 5.4589003873e-04 1.5366565994e+00 -2.6615673039e+00 1.5366565994e+00 2.6615673039e+00 
27500 5.0859461842e+00 5.3805304607e-04 1.5366388371e+00 -2.6615365388e+00 1.5366388371e+00 2.6615365388e+00 
27600 5.0859464093e+00 5.3029379156e-04 1.5366213297e+00 -2.6615062150e+00 1.5366213297e+00 2.6615062150e+00 
27700 5.0859466313e+00 5.2261170860e-04 1.5366040745e+00 -2.6614763282e+00 1.5366040745e+00 2.6614763282e+00 
27800 5.0859468504e+00 5.1500628046e-04 1.5365870692e+00 -2.6614468740e+00 1.5365870692e+00 2.6614468740e+00 
27900 5.0859470665e+00 5.0747703580e-04 1.5365703111e+00 -2.6614178482e+00 1.5365703111e+00 2.6614178482e+00 
28000 5.0859472797e+00 5.0002354454e-04 1.5365537978e+00 -2.6613892463e+00 1.5365537978e+00 2.6613892463e+00 
28100 5.0859474900e+00 4.9264541384e-04 1.5365375269e+00 -2.6613610643e+00 1.5365375269e+00 2.6613610643e+00 
28200 5.0859476973e+00 4.8534228438e-04 1.5365214959e+00 -2.6613332978e+00 1.5365214959e+00 2.6613332978e+00 
28300 5.0859479018e+00 4.7811382684e-04 1.5365057024e+00 -2.6613059426e+00 1.5365057024e+00 2.6613059426e+00 
28400 5.0859481035e+00 4.7095973852e-04 1.5364901439e+00 -2.6612789946e+00 1.5364901439e+00 2.6612789946e+00 
28500 5.0859483023e+00 4.6387974024e-04 1.5364748181e+00 -2.6612524495e+00 1.5364748181e+00 2.6612524495e+00 
28600 5.0859484983e+00 4.5687357334e-04 1.5364597226e+00 -2.6612263032e+00 1.5364597226e+00 2.6612263032e+00 
28700 5.0859486916e+00 4.4994099696e-04 1.5364448548e+00 -2.6612005516e+00 1.5364448548e+00 2.6612005516e+00 
28800 5.0859488821e+00 4.4308178538e-04 1.5364302126e+00 -2.6611751905e+00 1.5364302126e+00 2.6611751905e+00 
28900 5.0859490698e+00 4.3629572561e-04 1.5364157934e+00 -2.6611502157e+00 1.5364157934e+00 2.6611502157e+00 
29000 5.0859492548e+00 4.2958261507e-04 1.5364015949e+00 -2.6611256233e+00 1.5364015949e+00 2.6611256233e+00 
29100 5.0859494372e+00 4.2294225952e-04 1.5363876148e+00 -2.6611014090e+00 1.5363876148e+00 2.6611014090e+00 
29200 5.0859496169e+00 4.1637447099e-04 1.5363738507e+00 -2.6610775687e+00 1.5363738507e+00 2.6610775687e+00 
29300 5.0859497940e+00 4.0987906602e-04 1.5363603001e+00 -2.6610540985e+00 1.5363603001e+00 2.6610540985e+00 
29400 5.0859499684e+00 4.0345586384e-04 1.5363469608e+00 -2.6610309942e+00 1.5363469608e+00 2.6610309942e+00 
29500 5.0859501403e+00 3.9710468488e-04 1.5363338305e+00 -2.6610082518e+00 1.5363338305e+00 2.6610082518e+00 
29600 5.0859503097e+00 3.9082534922e-04 1.5363209067e+00 -2.6609858672e+00 1.5363209067e+00 2.6609858672e+00 
29700 5.0859504765e+00 3.8461767527e-04 1.5363081872e+00 -2.6609638364e+00 1.5363081872e+00 2.6609638364e+00 
29800 5.0859506409e+00 3.7848147854e-04 1.5362956697e+00 -2.6609421553e+00 1.5362956697e+00 2.6609421553e+00 
29900 5.0859508027e+00 3.7241657045e-04 1.5362833517e+00 -2.6609208199e+00 1.5362833517e+00 2.6609208199e+00 
30000 5.0859509622e+00 3.6642275733e-04 1.5362712310e+00 -2.6608998263e+00 1.5362712310e+00 2.6608998263e+00 
30100 5.0859511192e+00 3.6049983947e-04 1.5362593053e+00 -2.6608791704e+00 1.5362593053e+00 2.6608791704e+00 
30200 5.0859512739e+00 3.5464761024e-04 1.5362475723e+00 -2.6608588482e+00 1.5362475723e+00 2.6608588482e+00 
30300 5.0859514262e+00 3.4886585533e-04 1.5362360296e+00 -2.6608388557e+00 1.5362360296e+00 2.6608388557e+00 
30400 5.0859515761e+00 3.4315435208e-04 1.5362246751e+00 -2.6608191891e+00 1.5362246751e+00 2.6608191891e+00 
30500 5.0859517238e+00 3.3751286885e-04 1.5362135063e+00 -2.6607998443e+00 1.5362135063e+00 2.6607998443e+00 
30600 5.0859518693e+00 3.3194116448e-04 1.5362025211e+00 -2.6607808173e+00 1.5362025211e+00 2.6607808173e+00 
30700 5.0859520124e+00 3.2643898782e-04 1.5361917172e+00 -2.6607621043e+00 1.5361917172e+00 2.6607621043e+00 
30800 5.0859521534e+00 3.2100607734e-04 1.5361810923e+00 -2.6607437014e+00 1.5361810923e+00 2.6607437014e+00 
30900 5.0859522922e+00 3.1564216077e-04 1.5361706441e+00 -2.6607256047e+00 1.5361706441e+00 2.6607256047e+00 
31000 5.0859524289e+00 3.1034695483e-04 1.5361603704e+00 -2.6607078102e+00 1.5361603704e+00 2.6607078102e+00 
31100 5.0859525634e+00 3.0512016498e-04 1.5361502691e+00 -2.6606903141e+00 1.5361502691e+00 2.6606903141e+00 
31200 5.0859526958e+00 2.9996148528e-04 1.5361403377e+00 -2.6606731125e+00 1.5361403377e+00 2.6606731125e+00 
31300 5.0859528262e+00 2.9487059821e-04 1.5361305743e+00 -2.6606562017e+00 1.5361305743e+00 2.6606562017e+00 
31400 5.0859529545e+00 2.8984717462e-04 1.5361209764e+00 -2.6606395778e+00 1.5361209764e+00 2.6606395778e+00 
31500 5.0859530808e+00 2.8489087369e-04 1.5361115421e+00 -2.6606232370e+00 1.5361115421e+00 2.6606232370e+00 
31600 5.0859532051e+00 2.8000134291e-04 1.5361022690e+00 -2.6606071755e+00 1.5361022690e+00 2.6606071755e+00 
31700 5.0859533274e+00 2.7517821812e-04 1.5360931550e+00 -2.6605913895e+00 1.5360931550e+00 2.6605913895e+00 
31800 5.0859534478e+00 2.7042112359e-04 1.5360841979e+00 -2.6605758754e+00 1.5360841979e+00 2.6605758754e+00 
31900 5.0859535663e+00 2.6572967212e-04 1.5360753956e+00 -2.6605606294e+00 1.5360753956e+00 2.6605606294e+00 
32000 5.0859536829e+00 2.6110346516e-04 1.5360667460e+00 -2.6605456478e+00 1.5360667460e+00 2.6605456478e+00 
32100 5.0859537977e+00 2.5654209297e-04 1.5360582469e+00 -2.6605309270e+00 1.5360582469e+00 2.6605309270e+00 
32200 5.0859539107e+00 2.5204513482e-04 1.5360498962e+00 -2.6605164632e+00 1.5360498962e+00 2.6605164632e+00 
32300 5.0859540218e+00 2.4761215920e-04 1.5360416919e+00 -2.6605022529e+00 1.5360416919e+00 2.6605022529e+00 
32400 5.0859541312e+00 2.4324272402e-04 1.5360336318e+00 -2.6604882925e+00 1.5360336318e+00 2.6604882925e+00 
32500 5.0859542388e+00 2.3893637688e-04 1.5360257140e+00 -2.6604745783e+00 1.5360257140e+00 2.6604745783e+00 
32600 5.0859543447e+00 2.3469265536e-04 1.5360179362e+00 -2.6604611069e+00 1.5360179362e+00 2.6604611069e+00 
32700 5.0859544488e+00 2.3051108723e-04 1.5360102966e+00 -2.6604478746e+00 1.5360102966e+00 2.6604478746e+00 
32800 5.0859545513e+00 2.2639119084e-04 1.5360027930e+00 -2.6604348781e+00 1.5360027930e+00 2.6604348781e+00 
32900 5.0859546522e+00 2.2233247535e-04 1.5359954235e+00 -2.6604221138e+00 1.5359954235e+00 2.6604221138e+00 
33000 5.0859547514e+00 2.1833444112e-04 1.5359881861e+00 -2.6604095782e+00 1.5359881861e+00 2.6604095782e+00 
33100 5.0859548491e+00 2.1439657997e-04 1.5359810789e+00 -2.6603972680e+00 1.5359810789e+00 2.6603972680e+00 
33200 5.0859549451e+00 2.1051837558e-04 1.5359740997e+00 -2.6603851798e+00 1.5359740997e+00 2.6603851798e+00 
33300 5.0859550396e+00 2.0669930381e-04 1.5359672468e+00 -2.6603733102e+00 1.5359672468e+00 2.6603733102e+00 
33400 5.0859551326e+00 2.0293883305e-04 1.5359605182e+00 -2.6603616559e+00 1.5359605182e+00 2.6603616559e+00 
33500 5.0859552240e+00 1.9923642460e-04 1.5359539119e+00 -2.6603502135e+00 1.5359539119e+00 2.6603502135e+00 
33600 5.0859553140e+00 1.9559153301e-04 1.5359474262e+00 -2.6603389799e+00 1.5359474262e+00 2.6603389799e+00 
33700 5.0859554025e+00 1.9200360646e-04 1.5359410590e+00 -2.6603279517e+00 1.5359410590e+00 2.6603279517e+00 
33800 5.0859554895e+00 1.8847208713e-04 1.5359348087e+00 -2.6603171258e+00 1.5359348087e+00 2.6603171258e+00 
33900 5.0859555752e+00 1.8499641155e-04 1.5359286733e+00 -2.6603064989e+00 1.5359286733e+00 2.6603064989e+00 
34000 5.0859556594e+00 1.8157601099e-04 1.5359226510e+00 -2.6602960680e+00 1.5359226510e+00 2.6602960680e+00 
34100 5.0859557423e+00 1.7821031183e-04 1.5359167400e+00 -2.6602858299e+00 1.5359167400e+00 2.6602858299e+00 
34200 5.0859558238e+00 1.7489873592e-04 1.5359109386e+00 -2.6602757815e+00 1.5359109386e+00 2.6602757815e+00 
34300 5.0859559039e+00 1.7164070093e-04 1.5359052449e+00 -2.6602659198e+00 1.5359052449e+00 2.6602659198e+00 
34400 5.0859559828e+00 1.6843562076e-04 1.5358996573e+00 -2.6602562418e+00 1.5358996573e+00 2.6602562418e+00 
34500 5.0859560604e+00 1.6528290586e-04 1.5358941740e+00 -2.6602467445e+00 1.5358941740e+00 2.6602467445e+00 
34600 5.0859561367e+00 1.6218196359e-04 1.5358887934e+00 -2.6602374249e+00 1.5358887934e+00 2.6602374249e+00 
34700 5.0859562117e+00 1.5913219861e-04 1.5358835136e+00 -2.6602282801e+00 1.5358835136e+00 2.6602282801e+00 
34800 5.0859562855e+00 1.5613301319e-04 1.5358783332e+00 -2.6602193073e+00 1.5358783332e+00 2.6602193073e+00 
34900 5.0859563581e+00 1.5318380756e-04 1.5358732503e+00 -2.6602105035e+00 1.5358732503e+00 2.6602105035e+00 
35000 5.0859564295e+00 1.5028398027e-04 1.5358682634e+00 -2.6602018660e+00 1.5358682634e+00 2.6602018660e+00 
35100 5.0859564997e+00 1.4743292851e-04 1.5358633710e+00 -2.6601933920e+00 1.5358633710e+00 2.6601933920e+00 
35200 5.0859565688e+00 1.4463004843e-04 1.5358585713e+00 -2.6601850787e+00 1.5358585713e+00 2.6601850787e+00 
35300 5.0859566367e+00 1.4187473547e-04 1.5358538629e+00 -2.6601769235e+00 1.5358538629e+00 2.6601769235e+00 
35400 5.0859567035e+00 1.3916638467e-04 1.5358492441e+00 -2.6601689236e+00 1.5358492441e+00 2.6601689236e+00 
35500 5.0859567692e+00 1.3650439097e-04 1.5358447135e+00 -2.6601610763e+00 1.5358447135e+00 2.6601610763e+00 
35600 5.0859568339e+00 1.3388814953e-04 1.5358402696e+00 -2.6601533792e+00 1.5358402696e+00 2.6601533792e+00 
35700 5.0859568974e+00 1.3131705601e-04 1.5358359108e+00 -2.6601458295e+00 1.5358359108e+00 2.6601458295e+00 
35800 5.0859569599e+00 1.2879050684e-04 1.5358316357e+00 -2.6601384249e+00 1.5358316357e+00 2.6601384249e+00 
35900 5.0859570214e+00 1.2630789951e-04 1.5358274428e+00 -2.6601311626e+00 1.5358274428e+00 2.6601311626e+00 
36000 5.0859570819e+00 1.2386863287e-04 1.5358233308e+00 -2.6601240403e+00 1.5358233308e+00 2.6601240403e+00 
36100 5.0859571413e+00 1.2147210734e-04 1.5358192981e+00 -2.6601170556e+00 1.5358192981e+00 2.6601170556e+00 
36200 5.0859571998e+00 1.1911772517e-04 1.5358153435e+00 -2.6601102060e+00 1.5358153435e+00 2.6601102060e+00 
36300 5.0859572573e+00 1.1680489074e-04 1.5358114655e+00 -2.6601034891e+00 1.5358114655e+00 2.6601034891e+00 
36400 5.0859573139e+00 1.1453301073e-04 1.5358076628e+00 -2.6600969026e+00 1.5358076628e+00 2.6600969026e+00 
36500 5.0859573695e+00 1.1230149438e-04 1.5358039340e+00 -2.6600904442e+00 1.5358039340e+00 2.6600904442e+00 
36600 5.0859574242e+00 1.1010975374e-04 1.5358002779e+00 -2.6600841116e+00 1.5358002779e+00 2.6600841116e+00 
36700 5.0859574780e+00 1.0795720381e-04 1.5357966932e+00 -2.6600779026e+00 1.5357966932e+00 2.6600779026e+00 
36800 5.0859575309e+00 1.0584326281e-04 1.5357931785e+00 -2.6600718150e+00 1.5357931785e+00 2.6600718150e+00 
36900 5.0859575829e+00 1.0376735235e-04 1.5357897326e+00 -2.6600658466e+00 1.5357897326e+00 2.6600658466e+00 
37000 5.0859576341e+00 1.0172889763e-04 1.5357863543e+00 -2.6600599952e+00 1.5357863543e+00 2.6600599952e+00 
37100 5.0859576844e+00 9.9727327608e-05 1.5357830423e+00 -2.6600542587e+00 1.5357830423e+00 2.6600542587e+00 
37200 5.0859577339e+00 9.7762075177e-05 1.5357797955e+00 -2.6600486351e+00 1.5357797955e+00 2.6600486351e+00 
37300 5.0859577826e+00 9.5832577334e-05 1.5357766127e+00 -2.6600431223e+00 1.5357766127e+00 2.6600431223e+00 
37400 5.0859578304e+00 9.3938275337e-05 1.5357734927e+00 -2.6600377183e+00 1.5357734927e+00 2.6600377183e+00 
37500 5.0859578775e+00 9.2078614852e-05 1.5357704344e+00 -2.6600324211e+00 1.5357704344e+00 2.6600324211e+00 
37600 5.0859579238e+00 9.0253046095e-05 1.5357674366e+00 -2.6600272288e+00 1.5357674366e+00 2.6600272288e+00 
37700 5.0859579693e+00 8.8461023965e-05 1.5357644982e+00 -2.6600221394e+00 1.5357644982e+00 2.6600221394e+00 
37800 5.0859580141e+00 8.6702008180e-05 1.5357616182e+00 -2.6600171510e+00 1.5357616182e+00 2.6600171510e+00 
37900 5.0859580582e+00 8.4975463383e-05 1.5357587954e+00 -2.6600122618e+00 1.5357587954e+00 2.6600122618e+00 
38000 5.0859581015e+00 8.3280859265e-05 1.5357560289e+00 -2.6600074700e+00 1.5357560289e+00 2.6600074700e+00 
38100 5.0859581441e+00 8.1617670664e-05 1.5357533175e+00 -2.6600027737e+00 1.5357533175e+00 2.6600027737e+00 
38200 5.0859581860e+00 7.9985377673e-05 1.5357506602e+00 -2.6599981712e+00 1.5357506602e+00 2.6599981712e+00 
38300 5.0859582272e+00 7.8383465721e-05 1.5357480561e+00 -2.6599936608e+00 1.5357480561e+00 2.6599936608e+00 
38400 5.0859582677e+00 7.6811425664e-05 1.5357455041e+00 -2.6599892407e+00 1.5357455041e+00 2.6599892407e+00 
38500 5.0859583075e+00 7.5268753864e-05 1.5357430033e+00 -2.6599849092e+00 1.5357430033e+00 2.6599849092e+00 
38600 5.0859583467e+00 7.3754952260e-05 1.5357405528e+00 -2.6599806647e+00 1.5357405528e+00 2.6599806647e+00 
38700 5.0859583853e+00 7.2269528437e-05 1.5357381515e+00 -2.6599765055e+00 1.5357381515e+00 2.6599765055e+00 
38800 5.0859584232e+00 7.0811995683e-05 1.5357357986e+00 -2.6599724301e+00 1.5357357986e+00 2.6599724301e+00 
38900 5.0859584604e+00 6.9381873044e-05 1.5357334931e+00 -2.6599684369e+00 1.5357334931e+00 2.6599684369e+00 
39000 5.0859584973e+00 6.9632380308e-05 1.5357334931e+00 -2.6599684369e+00 1.5357334931e+00 2.6599684369e+00 
39100 5.0859585336e+00 6.9885340598e-05 1.5357334931e+00 -2.6599684369e+00 1.5357334931e+00 2.6599684369e+00 
39200 5.0859585692e+00 7.0140457979e-05 1.5357334931e+00 -2.6599684369e+00 1.5357334931e+00 2.6599684369e+00 
39300 5.0859586043e+00 7.0397446176e-05 1.5357334931e+00 -2.6599684369e+00 1.5357334931e+00 2.6599684369e+00 
39400 5.0859586388e+00 7.0656028351e-05 1.5357334931e+00 -2.6599684369e+00 1.5357334931e+00 2.6599684369e+00 
39500 5.0859586727e+00 7.0915936878e-05 1.5357334931e+00 -2.6599684369e+00 1.5357334931e+00 2.6599684369e+00 
39600 5.0859587059e+00 6.9486725105e-05 1.5357311842e+00 -2.6599644379e+00 1.5357311842e+00 2.6599644379e+00 
39700 5.0859587387e+00 6.9738872761e-05 1.5357311842e+00 -2.6599644379e+00 1.5357311842e+00 2.6599644379e+00 
39800 5.0859587709e+00 6.9991875976e-05 1.5357311842e+00 -2.6599644379e+00 1.5357311842e+00 2.6599644379e+00 
39900 5.0859588027e+00 7.0245496183e-05 1.5357311842e+00 -2.6599644379e+00 1.5357311842e+00 2.6599644379e+00 
40000 5.0859588339e+00 7.0499503184e-05 1.5357311842e+00 -2.6599644379e+00 1.5357311842e+00 2.6599644379e+00 
40100 5.0859588646e+00 7.0753674967e-05 1.5357311842e+00 -2.6599644379e+00 1.5357311842e+00 2.6599644379e+00 
40200 5.0859588946e+00 6.9321531587e-05 1.5357288807e+00 -2.6599604479e+00 1.5357288807e+00 2.6599604479e+00 
40300 5.0859589242e+00 6.9565774054e-05 1.5357288807e+00 -2.6599604479e+00 1.5357288807e+00 2.6599604479e+00 
40400 5.0859589534e+00 6.9809840814e-05 1.5357288807e+00 -2.6599604479e+00 1.5357288807e+00 2.6599604479e+00 
40500 5.0859589822e+00 7.0053535088e-05 1.5357288807e+00 -2.6599604479e+00 1.5357288807e+00 2.6599604479e+00 
40600 5.0859590104e+00 7.0296667569e-05 1.5357288807e+00 -2.6599604479e+00 1.5357288807e+00 2.6599604479e+00 
40700 5.0859590382e+00 7.0539056255e-05 1.5357288807e+00 -2.6599604479e+00 1.5357288807e+00 2.6599604479e+00 
40800 5.0859590655e+00 7.0780526295e-05 1.5357288807e+00 -2.6599604479e+00 1.5357288807e+00 2.6599604479e+00 
40900 5.0859590922e+00 6.9334058966e-05 1.5357265762e+00 -2.6599564565e+00 1.5357265762e+00 2.6599564565e+00 
41000 5.0859591187e+00 6.9563566447e-05 1.5357265762e+00 -2.6599564565e+00 1.5357265762e+00 2.6599564565e+00 
41100 5.0859591447e+00 6.9791950373e-05 1.5357265762e+00 -2.6599564565e+00 1.5357265762e+00 2.6599564565e+00 
41200 5.0859591702e+00 7.0019057181e-05 1.5357265762e+00 -2.6599564565e+00 1.5357265762e+00 2.6599564565e+00 
41300 5.0859591954e+00 7.0244739833e-05 1.5357265762e+00 -2.6599564565e+00 1.5357265762e+00 2.6599564565e+00 
41400 5.0859592202e+00 7.0468857672e-05 1.5357265762e+00 -2.6599564565e+00 1.5357265762e+00 2.6599564565e+00 
41500 5.0859592445e+00 7.0691276271e-05 1.5357265762e+00 -2.6599564565e+00 1.5357265762e+00 2.6599564565e+00 
41600 5.0859592685e+00 7.0911867298e-05 1.5357265762e+00 -2.6599564565e+00 1.5357265762e+00 2.6599564565e+00 
41700 5.0859592918e+00 6.9440579698e-05 1.5357242675e+00 -2.6599524577e+00 1.5357242675e+00 2.6599524577e+00 
41800 5.0859593150e+00 6.9647507724e-05 1.5357242675e+00 -2.6599524577e+00 1.5357242675e+00 2.6599524577e+00 
41900 5.0859593378e+00 6.9852537122e-05 1.5357242675e+00 -2.6599524577e+00 1.5357242675e+00 2.6599524577e+00 
42000 5.0859593602e+00 7.0055556741e-05 1.5357242675e+00 -2.6599524577e+00 1.5357242675e+00 2.6599524577e+00 
42100 5.0859593823e+00 7.0256460960e-05 1.5357242675e+00 -2.6599524577e+00 1.5357242675e+00 2.6599524577e+00 
42200 5.0859594040e+00 7.0455149558e-05 1.5357242675e+00 -2.6599524577e+00 1.5357242675e+00 2.6599524577e+00 
42300 5.0859594253e+00 7.0651527575e-05 1.5357242675e+00 -2.6599524577e+00 1.5357242675e+00 2.6599524577e+00 
42400 5.0859594463e+00 7.0845505185e-05 1.5357242675e+00 -2.6599524577e+00 1.5357242675e+00 2.6599524577e+00 
42500 5.0859594668e+00 6.9348692082e-05 1.5357219609e+00 -2.6599484625e+00 1.5357219609e+00 2.6599484625e+00 
42600 5.0859594871e+00 6.9527981757e-05 1.5357219609e+00 -2.6599484625e+00 1.5357219609e+00 2.6599484625e+00 
42700 5.0859595071e+00 6.9704909551e-05 1.5357219609e+00 -2.6599484625e+00 1.5357219609e+00 2.6599484625e+00 
42800 5.0859595268e+00 6.9879399073e-05 1.5357219609e+00 -2.6599484625e+00 1.5357219609e+00 2.6599484625e+00 
42900 5.0859595461e+00 7.0051378558e-05 1.5357219609e+00 -2.6599484625e+00 1.5357219609e+00 2.6599484625e+00 
43000 5.0859595652e+00 7.0220780735e-05 1.5357219609e+00 -2.6599484625e+00 1.5357219609e+00 2.6599484625e+00 
43100 5.0859595839e+00 7.0387542700e-05 1.5357219609e+00 -2.6599484625e+00 1.5357219609e+00 2.6599484625e+00 
43200 5.0859596024e+00 7.0551605797e-05 1.5357219609e+00 -2.6599484625e+00 1.5357219609e+00 2.6599484625e+00 
43300 5.0859596205e+00 7.0712915499e-05 1.5357219609e+00 -2.6599484625e+00 1.5357219609e+00 2.6599484625e+00 
43400 5.0859596381e+00 6.9186312660e-05 1.5357196586e+00 -2.6599444749e+00 1.5357196586e+00 2.6599444749e+00 
43500 5.0859596557e+00 6.9332348500e-05 1.5357196586e+00 -2.6599444749e+00 1.5357196586e+00 2.6599444749e+00 
43600 5.0859596729e+00 6.9475768927e-05 1.5357196586e+00 -2.6599444749e+00 1.5357196586e+00 2.6599444749e+00 
43700 5.0859596899e+00 6.9616528960e-05 1.5357196586e+00 -2.6599444749e+00 1.5357196586e+00 2.6599444749e+00 
43800 5.0859597067e+00 6.9754587296e-05 1.5357196586e+00 -2.6599444749e+00 1.5357196586e+00 2.6599444749e+00 
43900 5.0859597231e+00 6.9889906195e-05 1.5357196586e+00 -2.6599444749e+00 1.5357196586e+00 2.6599444749e+00 
44000 5.0859597393e+00 7.0022451360e-05 1.5357196586e+00 -2.6599444749e+00 1.5357196586e+00 2.6599444749e+00 
44100 5.0859597552e+00 7.0152191836e-05 1.5357196586e+00 -2.6599444749e+00 1.5357196586e+00 2.6599444749e+00 
44200 5.0859597709e+00 7.0279099897e-05 1.5357196586e+00 -2.6599444749e+00 1.5357196586e+00 2.6599444749e+00 
44300 5.0859597863e+00 7.0403150940e-05 1.5357196586e+00 -2.6599444749e+00 1.5357196586e+00 2.6599444749e+00 
44400 5.0859598015e+00 7.0524323383e-05 1.5357196586e+00 -2.6599444749e+00 1.5357196586e+00 2.6599444749e+00 
44500 5.0859598164e+00 7.0642598568e-05 1.5357196586e+00 -2.6599444749e+00 1.5357196586e+00 2.6599444749e+00 
44600 5.0859598311e+00 7.0757960654e-05 1.5357196586e+00 -2.6599444749e+00 1.5357196586e+00 2.6599444749e+00 
44700 5.0859598454e+00 6.9184255285e-05 1.5357173549e+00 -2.6599404847e+00 1.5357173549e+00 2.6599404847e+00 
44800 5.0859598596e+00 6.9284129120e-05 1.5357173549e+00 -2.6599404847e+00 1.5357173549e+00 2.6599404847e+00 
44900 5.0859598736e+00 6.9381336433e-05 1.5357173549e+00 -2.6599404847e+00 1.5357173549e+00 2.6599404847e+00 
45000 5.0859598874e+00 6.9475865913e-05 1.5357173549e+00 -2.6599404847e+00 1.5357173549e+00 2.6599404847e+00 
45100 5.0859599010e+00 6.9567708725e-05 1.5357173549e+00 -2.6599404847e+00 1.5357173549e+00 2.6599404847e+00 
45200 5.0859599143e+00 6.9656858412e-05 1.5357173549e+00 -2.6599404847e+00 1.5357173549e+00 2.6599404847e+00 
45300 5.0859599274e+00 6.9743310808e-05 1.5357173549e+00 -2.6599404847e+00 1.5357173549e+00 2.6599404847e+00 
45400 5.0859599404e+00 6.9827063941e-05 1.5357173549e+00 -2.6599404847e+00 1.5357173549e+00 2.6599404847e+00 
45500 5.0859599531e+00 6.9908117955e-05 1.5357173549e+00 -2.6599404847e+00 1.5357173549e+00 2.6599404847e+00 
45600 5.0859599656e+00 6.9986475017e-05 1.5357173549e+00 -2.6599404847e+00 1.5357173549e+00 2.6599404847e+00 
45700 5.0859599779e+00 7.0062139238e-05 1.5357173549e+00 -2.6599404847e+00 1.5357173549e+00 2.6599404847e+00 
45800 5.0859599900e+00 7.0135116593e-05 1.5357173549e+00 -2.6599404847e+00 1.5357173549e+00 2.6599404847e+00 
45900 5.0859600020e+00 7.0205414842e-05 1.5357173549e+00 -2.6599404847e+00 1.5357173549e+00 2.6599404847e+00 
46000 5.0859600137e+00 7.0273043452e-05 1.5357173549e+00 -2.6599404847e+00 1.5357173549e+00 2.6599404847e+00 
46100 5.0859600253e+00 7.0338013527e-05 1.5357173549e+00 -2.6599404847e+00 1.5357173549e+00 2.6599404847e+00 
46200 5.0859600367e+00 7.0400337727e-05 1.5357173549e+00 -2.6599404847e+00 1.5357173549e+00 2.6599404847e+00 
46300 5.0859600479e+00 7.0460030210e-05 1.5357173549e+00 -2.6599404847e+00 1.5357173549e+00 2.6599404847e+00 
46400 5.0859600589e+00 7.0517106552e-05 1.5357173549e+00 -2.6599404847e+00 1.5357173549e+00 2.6599404847e+00 
46500 5.0859600697e+00 7.0571583685e-05 1.5357173549e+00 -2.6599404847e+00 1.5357173549e+00 2.6599404847e+00 
46600 5.0859600804e+00 7.0623479833e-05 1.5357173549e+00 -2.6599404847e+00 1.5357173549e+00 2.6599404847e+00 
46700 5.0859600909e+00 7.0672814445e-05 1.5357173549e+00 -2.6599404847e+00 1.5357173549e+00 2.6599404847e+00 
46800 5.0859601013e+00 7.0719608139e-05 1.5357173549e+00 -2.6599404847e+00 1.5357173549e+00 2.6599404847e+00 
46900 5.0859601112e+00 6.9078698124e-05 1.5357150524e+00 -2.6599364967e+00 1.5357150524e+00 2.6599364967e+00 
47000 5.0859601213e+00 6.9110856559e-05 1.5357150524e+00 -2.6599364967e+00 1.5357150524e+00 2.6599364967e+00 
47100 5.0859601311e+00 6.9140820261e-05 1.5357150524e+00 -2.6599364967e+00 1.5357150524e+00 2.6599364967e+00 
47200 5.0859601408e+00 6.9168608122e-05 1.5357150524e+00 -2.6599364967e+00 1.5357150524e+00 2.6599364967e+00 
47300 5.0859601504e+00 6.9194240030e-05 1.5357150524e+00 -2.6599364967e+00 1.5357150524e+00 2.6599364967e+00 
47400 5.0859601598e+00 6.9217736814e-05 1.5357150524e+00 -2.6599364967e+00 1.5357150524e+00 2.6599364967e+00 
47500 5.0859601691e+00 6.9239120187e-05 1.5357150524e+00 -2.6599364967e+00 1.5357150524e+00 2.6599364967e+00 
47600 5.0859601782e+00 6.9258412688e-05 1.5357150524e+00 -2.6599364967e+00 1.5357150524e+00 2.6599364967e+00 
47700 5.0859601872e+00 6.9275637634e-05 1.5357150524e+00 -2.6599364967e+00 1.5357150524e+00 2.6599364967e+00 
47800 5.0859601960e+00 6.9290819062e-05 1.5357150524e+00 -2.6599364967e+00 1.5357150524e+00 2.6599364967e+00 
47900 5.0859602047e+00 6.9303981683e-05 1.5357150524e+00 -2.6599364967e+00 1.5357150524e+00 2.6599364967e+00 
48000 5.0859602133e+00 6.9315150837e-05 1.5357150524e+00 -2.6599364967e+00 1.5357150524e+00 2.6599364967e+00 
48100 5.0859602217e+00 6.9324352441e-05 1.5357150524e+00 -2.6599364967e+00 1.5357150524e+00 2.6599364967e+00 
48200 5.0859602300e+00 6.9331612951e-05 1.5357150524e+00 -2.6599364967e+00 1.5357150524e+00 2.6599364967e+00 
48300 5.0859602382e+00 6.9336959315e-05 1.5357150524e+00 -2.6599364967e+00 1.5357150524e+00 2.6599364967e+00 
48400 5.0859602462e+00 6.9340418936e-05 1.5357150524e+00 -2.6599364967e+00 1.5357150524e+00 2.6599364967e+00 
48500 5.0859602542e+00 6.9342019628e-05 1.5357150524e+00 -2.6599364967e+00 1.5357150524e+00 2.6599364967e+00 
48600 5.0859602620e+00 6.9341789583e-05 1.5357150524e+00 -2.6599364967e+00 1.5357150524e+00 2.6599364967e+00 
48700 5.0859602696e+00 6.9339757328e-05 1.5357150524e+00 -2.6599364967e+00 1.5357150524e+00 2.6599364967e+00 
48800 5.0859602772e+00 6.9335951699e-05 1.5357150524e+00 -2.6599364967e+00 1.5357150524e+00 2.6599364967e+00 
48900 5.0859602846e+00 6.9330401798e-05 1.5357150524e+00 -2.6599364967e+00 1.5357150524e+00 2.6599364967e+00 
49000 5.0859602920e+00 6.9323136968e-05 1.5357150524e+00 -2.6599364967e+00 1.5357150524e+00 2.6599364967e+00 
49100 5.0859602992e+00 6.9314186753e-05 1.5357150524e+00 -2.6599364967e+00 1.5357150524e+00 2.6599364967e+00 
49200 5.0859603063e+00 6.9303580879e-05 1.5357150524e+00 -2.6599364967e+00 1.5357150524e+00 2.6599364967e+00 
49300 5.0859603133e+00 6.9291349215e-05 1.5357150524e+00 -2.6599364967e+00 1.5357150524e+00 2.6599364967e+00 
49400 5.0859603202e+00 6.9277521753e-05 1.5357150524e+00 -2.6599364967e+00 1.5357150524e+00 2.6599364967e+00 
49500 5.0859603270e+00 6.9262128577e-05 1.5357150524e+00 -2.6599364967e+00 1.5357150524e+00 2.6599364967e+00 
49600 5.0859603337e+00 6.9245199836e-05 1.5357150524e+00 -2.6599364967e+00 1.5357150524e+00 2.6599364967e+00 
49700 5.0859603402e+00 6.9226765726e-05 1.5357150524e+00 -2.6599364967e+00 1.5357150524e+00 2.6599364967e+00 
49800 5.0859603467e+00 6.9206856460e-05 1.5357150524e+00 -2.6599364967e+00 1.5357150524e+00 2.6599364967e+00 
49900 5.0859603531e+00 6.9185502248e-05 1.5357150524e+00 -2.6599364967e+00 1.5357150524e+00 2.6599364967e+00 
50000 5.0859603594e+00 6.9162733278e-05 1.5357150524e+00 -2.6599364967e+00 1.5357150524e+00 2.6599364967e+00 
50100 5.0859603656e+00 6.9138579691e-05 1.5357150524e+00 -2.6599364967e+00 1.5357150524e+00 2.6599364967e+00 
50200 5.0859603717e+00 6.9113071564e-05 1.5357150524e+00 -2.6599364967e+00 1.5357150524e+00 2.6599364967e+00 
50300 5.0859603776e+00 6.9086238889e-05 1.5357150524e+00 -2.6599364967e+00 1.5357150524e+00 2.6599364967e+00 
50400 5.0859603836e+00 6.9058111560e-05 1.5357150524e+00 -2.6599364967e+00 1.5357150524e+00 2.6599364967e+00 
50500 5.0859603894e+00 6.9028719349e-05 1.5357150524e+00 -2.6599364967e+00 1.5357150524e+00 2.6599364967e+00 
50600 5.0859603951e+00 6.8998091893e-05 1.5357150524e+00 -2.6599364967e+00 1.5357150524e+00 2.6599364967e+00 
50700 5.0859604007e+00 6.8966258682e-05 1.5357150524e+00 -2.6599364967e+00 1.5357150524e+00 2.6599364967e+00 
50800 5.0859604063e+00 6.8933249038e-05 1.5357150524e+00 -2.6599364967e+00 1.5357150524e+00 2.6599364967e+00 
50900 5.0859604118e+00 6.8899092103e-05 1.5357150524e+00 -2.6599364967e+00 1.5357150524e+00 2.6599364967e+00 
51000 5.0859604172e+00 6.8863816828e-05 1.5357150524e+00 -2.6599364967e+00 1.5357150524e+00 2.6599364967e+00 
51100 5.0859604225e+00 6.8827451958e-05 1.5357150524e+00 -2.6599364967e+00 1.5357150524e+00 2.6599364967e+00 
51200 5.0859604277e+00 6.8790026020e-05 1.5357150524e+00 -2.6599364967e+00 1.5357150524e+00 2.6599364967e+00 
51300 5.0859604328e+00 6.8751567312e-05 1.5357150524e+00 -2.6599364967e+00 1.5357150524e+00 2.6599364967e+00 
51400 5.0859604379e+00 6.8712103894e-05 1.5357150524e+00 -2.6599364967e+00 1.5357150524e+00 2.6599364967e+00 
51500 5.0859604429e+00 6.8671663575e-05 1.5357150524e+00 -2.6599364967e+00 1.5357150524e+00 2.6599364967e+00 
51600 5.0859604478e+00 6.8630273905e-05 1.5357150524e+00 -2.6599364967e+00 1.5357150524e+00 2.6599364967e+00 
51700 5.0859604527e+00 6.8587962167e-05 1.5357150524e+00 -2.6599364967e+00 1.5357150524e+00 2.6599364967e+00 
51800 5.0859604574e+00 6.8544755366e-05 1.5357150524e+00 -2.6599364967e+00 1.5357150524e+00 2.6599364967e+00 
51900 5.0859604621e+00 6.8500680222e-05 1.5357150524e+00 -2.6599364967e+00 1.5357150524e+00 2.6599364967e+00 
52000 5.0859604668e+00 6.8455763166e-05 1.5357150524e+00 -2.6599364967e+00 1.5357150524e+00 2.6599364967e+00 
52100 5.0859604713e+00 6.8410030329e-05 1.5357150524e+00 -2.6599364967e+00 1.5357150524e+00 2.6599364967e+00 
52200 5.0859604758e+00 6.8363507536e-05 1.5357150524e+00 -2.6599364967e+00 1.5357150524e+00 2.6599364967e+00 
52300 5.0859604803e+00 6.8316220303e-05 1.5357150524e+00 -2.6599364967e+00 1.5357150524e+00 2.6599364967e+00 
52400 5.0859604846e+00 6.8268193831e-05 1.5357150524e+00 -2.6599364967e+00 1.5357150524e+00 2.6599364967e+00 
52500 5.0859604889e+00 6.8219452995e-05 1.5357150524e+00 -2.6599364967e+00 1.5357150524e+00 2.6599364967e+00 
52600 5.0859604931e+00 6.8170022350e-05 1.5357150524e+00 -2.6599364967e+00 1.5357150524e+00 2.6599364967e+00 
52700 5.0859604973e+00 6.8119926117e-05 1.5357150524e+00 -2.6599364967e+00 1.5357150524e+00 2.6599364967e+00 
52800 5.0859605014e+00 6.8069188187e-05 1.5357150524e+00 -2.6599364967e+00 1.5357150524e+00 2.6599364967e+00 
52900 5.0859605054e+00 6.8017832112e-05 1.5357150524e+00 -2.6599364967e+00 1.5357150524e+00 2.6599364967e+00 
53000 5.0859605094e+00 6.7965881105e-05 1.5357150524e+00 -2.6599364967e+00 1.5357150524e+00 2.6599364967e+00 
53100 5.0859605133e+00 6.7913358037e-05 1.5357150524e+00 -2.6599364967e+00 1.5357150524e+00 2.6599364967e+00 
53200 5.0859605172e+00 6.7860285432e-05 1.5357150524e+00 -2.6599364967e+00 1.5357150524e+00 2.6599364967e+00 
53300 5.0859605210e+00 6.7806685471e-05 1.5357150524e+00 -2.6599364967e+00 1.5357150524e+00 2.6599364967e+00 
53400 5.0859605248e+00 6.7752579984e-05 1.5357150524e+00 -2.6599364967e+00 1.5357150524e+00 2.6599364967e+00 
53500 5.0859605285e+00 6.7697990454e-05 1.5357150524e+00 -2.6599364967e+00 1.5357150524e+00 2.6599364967e+00 
53600 5.0859605321e+00 6.7642938012e-05 1.5357150524e+00 -2.6599364967e+00 1.5357150524e+00 2.6599364967e+00 
53700 5.0859605357e+00 6.7587443439e-05 1.5357150524e+00 -2.6599364967e+00 1.5357150524e+00 2.6599364967e+00 
53800 5.0859605392e+00 6.7531527162e-05 1.5357150524e+00 -2.6599364967e+00 1.5357150524e+00 2.6599364967e+00 
53900 5.0859605427e+00 6.7475209258e-05 1.5357150524e+00 -2.6599364967e+00 1.5357150524e+00 2.6599364967e+00 
54000 5.0859605461e+00 6.7418509453e-05 1.5357150524e+00 -2.6599364967e+00 1.5357150524e+00 2.6599364967e+00 
54100 5.0859605495e+00 6.7361447122e-05 1.5357150524e+00 -2.6599364967e+00 1.5357150524e+00 2.6599364967e+00 
54200 5.0859605528e+00 6.7304041286e-05 1.5357150524e+00 -2.6599364967e+00 1.5357150524e+00 2.6599364967e+00 
54300 5.0859605561e+00 6.7246310620e-05 1.5357150524e+00 -2.6599364967e+00 1.5357150524e+00 2.6599364967e+00 
54400 5.0859605593e+00 6.7188273447e-05 1.5357150524e+00 -2.6599364967e+00 1.5357150524e+00 2.6599364967e+00 
54500 5.0859605625e+00 6.7129947743e-05 1.5357150524e+00 -2.6599364967e+00 1.5357150524e+00 2.6599364967e+00 
54600 5.0859605657e+00 6.7071351140e-05 1.5357150524e+00 -2.6599364967e+00 1.5357150524e+00 2.6599364967e+00 
54700 5.0859605687e+00 6.7012500920e-05 1.5357150524e+00 -2.6599364967e+00 1.5357150524e+00 2.6599364967e+00 
54800 5.0859605718e+00 6.6953414028e-05 1.5357150524e+00 -2.6599364967e+00 1.5357150524e+00 2.6599364967e+00 
54900 5.0859605748e+00 6.6894107062e-05 1.5357150524e+00 -2.6599364967e+00 1.5357150524e+00 2.6599364967e+00 
55000 5.0859605777e+00 6.6834596286e-05 1.5357150524e+00 -2.6599364967e+00 1.5357150524e+00 2.6599364967e+00 
55100 5.0859605807e+00 6.6774897623e-05 1.5357150524e+00 -2.6599364967e+00 1.5357150524e+00 2.6599364967e+00 
55200 5.0859605835e+00 6.6715026663e-05 1.5357150524e+00 -2.6599364967e+00 1.5357150524e+00 2.6599364967e+00 
55300 5.0859605863e+00 6.6654998667e-05 1.5357150524e+00 -2.6599364967e+00 1.5357150524e+00 2.6599364967e+00 
55400 5.0859605891e+00 6.6594828560e-05 1.5357150524e+00 -2.6599364967e+00 1.5357150524e+00 2.6599364967e+00 
55500 5.0859605919e+00 6.6534530946e-05 1.5357150524e+00 -2.6599364967e+00 1.5357150524e+00 2.6599364967e+00 
55600 5.0859605946e+00 6.6474120104e-05 1.5357150524e+00 -2.6599364967e+00 1.5357150524e+00 2.6599364967e+00 
55700 5.0859605972e+00 6.6413609991e-05 1.5357150524e+00 -2.6599364967e+00 1.5357150524e+00 2.6599364967e+00 
55800 5.0859605999e+00 6.6353014245e-05 1.5357150524e+00 -2.6599364967e+00 1.5357150524e+00 2.6599364967e+00 
55900 5.0859606025e+00 6.6292346195e-05 1.5357150524e+00 -2.6599364967e+00 1.5357150524e+00 2.6599364967e+00 
56000 5.0859606050e+00 6.6231618851e-05 1.5357150524e+00 -2.6599364967e+00 1.5357150524e+00 2.6599364967e+00 
56100 5.0859606075e+00 6.6170844923e-05 1.5357150524e+00 -2.6599364967e+00 1.5357150524e+00 2.6599364967e+00 
56200 5.0859606100e+00 6.6110036809e-05 1.5357150524e+00 -2.6599364967e+00 1.5357150524e+00 2.6599364967e+00 
56300 5.0859606124e+00 6.6049206612e-05 1.5357150524e+00 -2.6599364967e+00 1.5357150524e+00 2.6599364967e+00 
56400 5.0859606148e+00 6.5988366133e-05 1.5357150524e+00 -2.6599364967e+00 1.5357150524e+00 2.6599364967e+00 
56500 5.0859606172e+00 6.5927526882e-05 1.5357150524e+00 -2.6599364967e+00 1.5357150524e+00 2.6599364967e+00 
56600 5.0859606195e+00 6.5866700078e-05 1.5357150524e+00 -2.6599364967e+00 1.5357150524e+00 2.6599364967e+00 
56700 5.0859606218e+00 6.5805896654e-05 1.5357150524e+00 -2.6599364967e+00 1.5357150524e+00 2.6599364967e+00 
56800 5.0859606241e+00 6.5745127259e-05 1.5357150524e+00 -2.6599364967e+00 1.5357150524e+00 2.6599364967e+00 
56900 5.0859606263e+00 6.5684402262e-05 1.5357150524e+00 -2.6599364967e+00 1.5357150524e+00 2.6599364967e+00 
57000 5.0859606285e+00 6.5623731760e-05 1.5357150524e+00 -2.6599364967e+00 1.5357150524e+00 2.6599364967e+00 
57100 5.0859606307e+00 6.5563125578e-05 1.5357150524e+00 -2.6599364967e+00 1.5357150524e+00 2.6599364967e+00 
57200 5.0859606329e+00 6.5502593271e-05 1.5357150524e+00 -2.6599364967e+00 1.5357150524e+00 2.6599364967e+00 
57300 5.0859606350e+00 6.5442144134e-05 1.5357150524e+00 -2.6599364967e+00 1.5357150524e+00 2.6599364967e+00 
57400 5.0859606370e+00 6.5381787199e-05 1.5357150524e+00 -2.6599364967e+00 1.5357150524e+00 2.6599364967e+00 
57500 5.0859606391e+00 6.5321531247e-05 1.5357150524e+00 -2.6599364967e+00 1.5357150524e+00 2.6599364967e+00 
57600 5.0859606411e+00 6.5261384803e-05 1.5357150524e+00 -2.6599364967e+00 1.5357150524e+00 2.6599364967e+00 
57700 5.0859606431e+00 6.5201356146e-05 1.5357150524e+00 -2.6599364967e+00 1.5357150524e+00 2.6599364967e+00 
57800 5.0859606451e+00 6.5141453312e-05 1.5357150524e+00 -2.6599364967e+00 1.5357150524e+00 2.6599364967e+00 
57900 5.0859606470e+00 6.5081684098e-05 1.5357150524e+00 -2.6599364967e+00 1.5357150524e+00 2.6599364967e+00 
58000 5.0859606489e+00 6.5022056062e-05 1.5357150524e+00 -2.6599364967e+00 1.5357150524e+00 2.6599364967e+00 
58100 5.0859606508e+00 6.4962576535e-05 1.5357150524e+00 -2.6599364967e+00 1.5357150524e+00 2.6599364967e+00 
58200 5.0859606526e+00 6.4903252615e-05 1.5357150524e+00 -2.6599364967e+00 1.5357150524e+00 2.6599364967e+00 
58300 5.0859606544e+00 6.4844091182e-05 1.5357150524e+00 -2.6599364967e+00 1.5357150524e+00 2.6599364967e+00 
58400 5.0859606562e+00 6.4785098890e-05 1.5357150524e+00 -2.6599364967e+00 1.5357150524e+00 2.6599364967e+00 
58500 5.0859606580e+00 6.4726282184e-05 1.5357150524e+00 -2.6599364967e+00 1.5357150524e+00 2.6599364967e+00 
58600 5.0859606597e+00 6.4667647290e-05 1.5357150524e+00 -2.6599364967e+00 1.5357150524e+00 2.6599364967e+00 
58700 5.0859606615e+00 6.4609200231e-05 1.5357150524e+00 -2.6599364967e+00 1.5357150524e+00 2.6599364967e+00 
58800 5.0859606632e+00 6.4550946824e-05 1.5357150524e+00 -2.6599364967e+00 1.5357150524e+00 2.6599364967e+00 
58900 5.0859606648e+00 6.4492892686e-05 1.5357150524e+00 -2.6599364967e+00 1.5357150524e+00 2.6599364967e+00 
59000 5.0859606665e+00 6.4435043238e-05 1.5357150524e+00 -2.6599364967e+00 1.5357150524e+00 2.6599364967e+00 
59100 5.0859606681e+00 6.4377403707e-05 1.5357150524e+00 -2.6599364967e+00 1.5357150524e+00 2.6599364967e+00 
59200 5.0859606697e+00 6.4319979132e-05 1.5357150524e+00 -2.6599364967e+00 1.5357150524e+00 2.6599364967e+00 
59300 5.0859606713e+00 6.4262774368e-05 1.5357150524e+00 -2.6599364967e+00 1.5357150524e+00 2.6599364967e+00 
59400 5.0859606728e+00 6.4205794086e-05 1.5357150524e+00 -2.6599364967e+00 1.5357150524e+00 2.6599364967e+00 
59500 5.0859606744e+00 6.4149042782e-05 1.5357150524e+00 -2.6599364967e+00 1.5357150524e+00 2.6599364967e+00 
59600 5.0859606759e+00 6.4092524775e-05 1.5357150524e+00 -2.6599364967e+00 1.5357150524e+00 2.6599364967e+00 
59700 5.0859606774e+00 6.4036244218e-05 1.5357150524e+00 -2.6599364967e+00 1.5357150524e+00 2.6599364967e+00 
59800 5.0859606788e+00 6.3980205093e-05 1.5357150524e+00 -2.6599364967e+00 1.5357150524e+00 2.6599364967e+00 
59900 5.0859606803e+00 6.3924411220e-05 1.5357150524e+00 -2.6599364967e+00 1.5357150524e+00 2.6599364967e+00 
60000 5.0859606817e+00 6.3868866261e-05 1.5357150524e+00 -2.6599364967e+00 1.5357150524e+00 2.6599364967e+00 
60100 5.0859606831e+00 6.3813573719e-05 1.5357150524e+00 -2.6599364967e+00 1.5357150524e+00 2.6599364967e+00 
60200 5.0859606845e+00 6.3758536947e-05 1.5357150524e+00 -2.6599364967e+00 1.5357150524e+00 2.6599364967e+00 
60300 5.0859606859e+00 6.3703759145e-05 1.5357150524e+00 -2.6599364967e+00 1.5357150524e+00 2.6599364967e+00 
60400 5.0859606872e+00 6.3649243371e-05 1.5357150524e+00 -2.6599364967e+00 1.5357150524e+00 2.6599364967e+00 
60500 5.0859606885e+00 6.3594992538e-05 1.5357150524e+00 -2.6599364967e+00 1.5357150524e+00 2.6599364967e+00 
60600 5.0859606898e+00 6.3541009419e-05 1.5357150524e+00 -2.6599364967e+00 1.5357150524e+00 2.6599364967e+00 
60700 5.0859606911e+00 6.3487296652e-05 1.5357150524e+00 -2.6599364967e+00 1.5357150524e+00 2.6599364967e+00 
60800 5.0859606924e+00 6.3433856742e-05 1.5357150524e+00 -2.6599364967e+00 1.5357150524e+00 2.6599364967e+00 
60900 5.0859606937e+00 6.3380692063e-05 1.5357150524e+00 -2.6599364967e+00 1.5357150524e+00 2.6599364967e+00 
61000 5.0859606949e+00 6.3327804864e-05 1.5357150524e+00 -2.6599364967e+00 1.5357150524e+00 2.6599364967e+00 
61100 5.0859606961e+00 6.3275197267e-05 1.5357150524e+00 -2.6599364967e+00 1.5357150524e+00 2.6599364967e+00 
61200 5.0859606973e+00 6.3222871277e-05 1.5357150524e+00 -2.6599364967e+00 1.5357150524e+00 2.6599364967e+00 
61300 5.0859606985e+00 6.3170828780e-05 1.5357150524e+00 -2.6599364967e+00 1.5357150524e+00 2.6599364967e+00 
61400 5.0859606997e+00 6.3119071545e-05 1.5357150524e+00 -2.6599364967e+00 1.5357150524e+00 2.6599364967e+00 
61500 5.0859607008e+00 6.3067601231e-05 1.5357150524e+00 -2.6599364967e+00 1.5357150524e+00 2.6599364967e+00 
61600 5.0859607019e+00 6.3016419389e-05 1.5357150524e+00 -2.6599364967e+00 1.5357150524e+00 2.6599364967e+00 
61700 5.0859607031e+00 6.2965527460e-05 1.5357150524e+00 -2.6599364967e+00 1.5357150524e+00 2.6599364967e+00 
61800 5.0859607042e+00 6.2914926786e-05 1.5357150524e+00 -2.6599364967e+00 1.5357150524e+00 2.6599364967e+00 
61900 5.0859607053e+00 6.2864618604e-05 1.5357150524e+00 -2.6599364967e+00 1.5357150524e+00 2.6599364967e+00 
62000 5.0859607063e+00 6.2814604055e-05 1.5357150524e+00 -2.6599364967e+00 1.5357150524e+00 2.6599364967e+00 
62100 5.0859607074e+00 6.2764884183e-05 1.5357150524e+00 -2.6599364967e+00 1.5357150524e+00 2.6599364967e+00 
62200 5.0859607084e+00 6.2715459940e-05 1.5357150524e+00 -2.6599364967e+00 1.5357150524e+00 2.6599364967e+00 
62300 5.0859607095e+00 6.2666332187e-05 1.5357150524e+00 -2.6599364967e+00 1.5357150524e+00 2.6599364967e+00 
62400 5.0859607105e+00 6.2617501697e-05 1.5357150524e+00 -2.6599364967e+00 1.5357150524e+00 2.6599364967e+00 
62500 5.0859607115e+00 6.2568969157e-05 1.5357150524e+00 -2.6599364967e+00 1.5357150524e+00 2.6599364967e+00 
62600 5.0859607124e+00 6.2520735170e-05 1.5357150524e+00 -2.6599364967e+00 1.5357150524e+00 2.6599364967e+00 
62700 5.0859607134e+00 6.2472800259e-05 1.5357150524e+00 -2.6599364967e+00 1.5357150524e+00 2.6599364967e+00 
62800 5.0859607144e+00 6.2425164869e-05 1.5357150524e+00 -2.6599364967e+00 1.5357150524e+00 2.6599364967e+00 
62900 5.0859607153e+00 6.2377829367e-05 1.5357150524e+00 -2.6599364967e+00 1.5357150524e+00 2.6599364967e+00 
63000 5.0859607162e+00 6.2330794045e-05 1.5357150524e+00 -2.6599364967e+00 1.5357150524e+00 2.6599364967e+00 
63100 5.0859607172e+00 6.2284059127e-05 1.5357150524e+00 -2.6599364967e+00 1.5357150524e+00 2.6599364967e+00 
63200 5.0859607181e+00 6.2237624762e-05 1.5357150524e+00 -2.6599364967e+00 1.5357150524e+00 2.6599364967e+00 
63300 5.0859607190e+00 6.2191491035e-05 1.5357150524e+00 -2.6599364967e+00 1.5357150524e+00 2.6599364967e+00 
63400 5.0859607198e+00 6.2145657962e-05 1.5357150524e+00 -2.6599364967e+00 1.5357150524e+00 2.6599364967e+00 
63500 5.0859607207e+00 6.2100125497e-05 1.5357150524e+00 -2.6599364967e+00 1.5357150524e+00 2.6599364967e+00 
63600 5.0859607216e+00 6.2054893532e-05 1.5357150524e+00 -2.6599364967e+00 1.5357150524e+00 2.6599364967e+00 
63700 5.0859607224e+00 6.2009961899e-05 1.5357150524e+00 -2.6599364967e+00 1.5357150524e+00 2.6599364967e+00 
63800 5.0859607232e+00 6.1965330371e-05 1.5357150524e+00 -2.6599364967e+00 1.5357150524e+00 2.6599364967e+00 
63900 5.0859607241e+00 6.1920998666e-05 1.5357150524e+00 -2.6599364967e+00 1.5357150524e+00 2.6599364967e+00 
64000 5.0859607249e+00 6.1876966446e-05 1.5357150524e+00 -2.6599364967e+00 1.5357150524e+00 2.6599364967e+00 
64100 5.0859607257e+00 6.1833233322e-05 1.5357150524e+00 -2.6599364967e+00 1.5357150524e+00 2.6599364967e+00 
64200 5.0859607264e+00 6.1789798851e-05 1.5357150524e+00 -2.6599364967e+00 1.5357150524e+00 2.6599364967e+00 
64300 5.0859607272e+00 6.1746662545e-05 1.5357150524e+00 -2.6599364967e+00 1.5357150524e+00 2.6599364967e+00 
64400 5.0859607280e+00 6.1703823864e-05 1.5357150524e+00 -2.6599364967e+00 1.5357150524e+00 2.6599364967e+00 
64500 5.0859607287e+00 6.1661282226e-05 1.5357150524e+00 -2.6599364967e+00 1.5357150524e+00 2.6599364967e+00 
64600 5.0859607295e+00 6.1619037001e-05 1.5357150524e+00 -2.6599364967e+00 1.5357150524e+00 2.6599364967e+00 
64700 5.0859607302e+00 6.1577087516e-05 1.5357150524e+00 -2.6599364967e+00 1.5357150524e+00 2.6599364967e+00 
64800 5.0859607309e+00 6.1535433059e-05 1.5357150524e+00 -2.6599364967e+00 1.5357150524e+00 2.6599364967e+00 
64900 5.0859607316e+00 6.1494072878e-05 1.5357150524e+00 -2.6599364967e+00 1.5357150524e+00 2.6599364967e+00 
65000 5.0859607323e+00 6.1453006179e-05 1.5357150524e+00 -2.6599364967e+00 1.5357150524e+00 2.6599364967e+00 
65100 5.0859607330e+00 6.1412232133e-05 1.5357150524e+00 -2.6599364967e+00 1.5357150524e+00 2.6599364967e+00 
65200 5.0859607337e+00 6.1371749876e-05 1.5357150524e+00 -2.6599364967e+00 1.5357150524e+00 2.6599364967e+00 
65300 5.0859607344e+00 6.1331558507e-05 1.5357150524e+00 -2.6599364967e+00 1.5357150524e+00 2.6599364967e+00 
65400 5.0859607351e+00 6.1291657095e-05 1.5357150524e+00 -2.6599364967e+00 1.5357150524e+00 2.6599364967e+00 
65500 5.0859607357e+00 6.1252044674e-05 1.5357150524e+00 -2.6599364967e+00 1.5357150524e+00 2.6599364967e+00 
65600 5.0859607364e+00 6.1212720247e-05 1.5357150524e+00 -2.6599364967e+00 1.5357150524e+00 2.6599364967e+00 
65700 5.0859607370e+00 6.1173682792e-05 1.5357150524e+00 -2.6599364967e+00 1.5357150524e+00 2.6599364967e+00 
65800 5.0859607376e+00 6.1134931253e-05 1.5357150524e+00 -2.6599364967e+00 1.5357150524e+00 2.6599364967e+00 
65900 5.0859607382e+00 6.1096464551e-05 1.5357150524e+00 -2.6599364967e+00 1.5357150524e+00 2.6599364967e+00 
66000 5.0859607388e+00 6.1058281577e-05 1.5357150524e+00 -2.6599364967e+00 1.5357150524e+00 2.6599364967e+00 
66100 5.0859607395e+00 6.1020381201e-05 1.5357150524e+00 -2.6599364967e+00 1.5357150524e+00 2.6599364967e+00 
66200 5.0859607400e+00 6.0982762267e-05 1.5357150524e+00 -2.6599364967e+00 1.5357150524e+00 2.6599364967e+00 
66300 5.0859607406e+00 6.0945423594e-05 1.5357150524e+00 -2.6599364967e+00 1.5357150524e+00 2.6599364967e+00 
66400 5.0859607412e+00 6.0908363984e-05 1.5357150524e+00 -2.6599364967e+00 1.5357150524e+00 2.6599364967e+00 
66500 5.0859607418e+00 6.0871582213e-05 1.5357150524e+00 -2.6599364967e+00 1.5357150524e+00 2.6599364967e+00 
66600 5.0859607423e+00 6.0835077040e-05 1.5357150524e+00 -2.6599364967e+00 1.5357150524e+00 2.6599364967e+00 
66700 5.0859607429e+00 6.0798847205e-05 1.5357150524e+00 -2.6599364967e+00 1.5357150524e+00 2.6599364967e+00 
66800 5.0859607434e+00 6.0762891428e-05 1.5357150524e+00 -2.6599364967e+00 1.5357150524e+00 2.6599364967e+00 
66900 5.0859607440e+00 6.0727208413e-05 1.5357150524e+00 -2.6599364967e+00 1.5357150524e+00 2.6599364967e+00 
67000 5.0859607445e+00 6.0691796846e-05 1.5357150524e+00 -2.6599364967e+00 1.5357150524e+00 2.6599364967e+00 
67100 5.0859607450e+00 6.0656655400e-05 1.5357150524e+00 -2.6599364967e+00 1.5357150524e+00 2.6599364967e+00 
67200 5.0859607455e+00 6.0621782732e-05 1.5357150524e+00 -2.6599364967e+00 1.5357150524e+00 2.6599364967e+00 
67300 5.0859607461e+00 6.0587177482e-05 1.5357150524e+00 -2.6599364967e+00 1.5357150524e+00 2.6599364967e+00 
67400 5.0859607466e+00 6.0552838282e-05 1.5357150524e+00 -2.6599364967e+00 1.5357150524e+00 2.6599364967e+00 
67500 5.0859607471e+00 6.0518763749e-05 1.5357150524e+00 -2.6599364967e+00 1.5357150524e+00 2.6599364967e+00 
67600 5.0859607475e+00 6.0484952485e-05 1.5357150524e+00 -2.6599364967e+00 1.5357150524e+00 2.6599364967e+00 
67700 5.0859607480e+00 6.0451403087e-05 1.5357150524e+00 -2.6599364967e+00 1.5357150524e+00 2.6599364967e+00 
67800 5.0859607485e+00 6.0418114136e-05 1.5357150524e+00 -2.6599364967e+00 1.5357150524e+00 2.6599364967e+00 
67900 5.0859607490e+00 6.0385084207e-05 1.5357150524e+00 -2.6599364967e+00 1.5357150524e+00 2.6599364967e+00 
68000 5.0859607494e+00 6.0352311865e-05 1.5357150524e+00 -2.6599364967e+00 1.5357150524e+00 2.6599364967e+00 
68100 5.0859607499e+00 6.0319795665e-05 1.5357150524e+00 -2.6599364967e+00 1.5357150524e+00 2.6599364967e+00 
68200 5.0859607503e+00 6.0287534154e-05 1.5357150524e+00 -2.6599364967e+00 1.5357150524e+00 2.6599364967e+00 
68300 5.0859607508e+00 6.0255525875e-05 1.5357150524e+00 -2.6599364967e+00 1.5357150524e+00 2.6599364967e+00 
68400 5.0859607512e+00 6.0223769360e-05 1.5357150524e+00 -2.6599364967e+00 1.5357150524e+00 2.6599364967e+00 
68500 5.0859607516e+00 6.0192263138e-05 1.5357150524e+00 -2.6599364967e+00 1.5357150524e+00 2.6599364967e+00 
68600 5.0859607521e+00 6.0161005729e-05 1.5357150524e+00 -2.6599364967e+00 1.5357150524e+00 2.6599364967e+00 
68700 5.0859607525e+00 6.0129995652e-05 1.5357150524e+00 -2.6599364967e+00 1.5357150524e+00 2.6599364967e+00 
68800 5.0859607529e+00 6.0099231418e-05 1.5357150524e+00 -2.6599364967e+00 1.5357150524e+00 2.6599364967e+00 
68900 5.0859607533e+00 6.0068711534e-05 1.5357150524e+00 -2.6599364967e+00 1.5357150524e+00 2.6599364967e+00 
69000 5.0859607537e+00 6.0038434507e-05 1.5357150524e+00 -2.6599364967e+00 1.5357150524e+00 2.6599364967e+00 
69100 5.0859607541e+00 6.0008398834e-05 1.5357150524e+00 -2.6599364967e+00 1.5357150524e+00 2.6599364967e+00 
69200 5.0859607545e+00 5.9978603017e-05 1.5357150524e+00 -2.6599364967e+00 1.5357150524e+00 2.6599364967e+00 
69300 5.0859607549e+00 5.9949045549e-05 1.5357150524e+00 -2.6599364967e+00 1.5357150524e+00 2.6599364967e+00 
69400 5.0859607553e+00 5.9919724925e-05 1.5357150524e+00 -2.6599364967e+00 1.5357150524e+00 2.6599364967e+00 
69500 5.0859607557e+00 5.9890639635e-05 1.5357150524e+00 -2.6599364967e+00 1.5357150524e+00 2.6599364967e+00 
69600 5.0859607560e+00 5.9861788173e-05 1.5357150524e+00 -2.6599364967e+00 1.5357150524e+00 2.6599364967e+00 
69700 5.0859607564e+00 5.9833169027e-05 1.5357150524e+00 -2.6599364967e+00 1.5357150524e+00 2.6599364967e+00 
69800 5.0859607568e+00 5.9804780686e-05 1.5357150524e+00 -2.6599364967e+00 1.5357150524e+00 2.6599364967e+00 
69900 5.0859607571e+00 5.9776621642e-05 1.5357150524e+00 -2.6599364967e+00 1.5357150524e+00 2.6599364967e+00 
70000 5.0859607575e+00 5.9748690383e-05 1.5357150524e+00 -2.6599364967e+00 1.5357150524e+00 2.6599364967e+00 
70100 5.0859607578e+00 5.9720985400e-05 1.5357150524e+00 -2.6599364967e+00 1.5357150524e+00 2.6599364967e+00 
70200 5.0859607581e+00 5.9693505182e-05 1.5357150524e+00 -2.6599364967e+00 1.5357150524e+00 2.6599364967e+00 
70300 5.0859607585e+00 5.9666248224e-05 1.5357150524e+00 -2.6599364967e+00 1.5357150524e+00 2.6599364967e+00 
70400 5.0859607588e+00 5.9639213017e-05 1.5357150524e+00 -2.6599364967e+00 1.5357150524e+00 2.6599364967e+00 
70500 5.0859607591e+00 5.9612398059e-05 1.5357150524e+00 -2.6599364967e+00 1.5357150524e+00 2.6599364967e+00 
70600 5.0859607595e+00 5.9585801845e-05 1.5357150524e+00 -2.6599364967e+00 1.5357150524e+00 2.6599364967e+00 
70700 5.0859607598e+00 5.9559422876e-05 1.5357150524e+00 -2.6599364967e+00 1.5357150524e+00 2.6599364967e+00 
70800 5.0859607601e+00 5.9533259655e-05 1.5357150524e+00 -2.6599364967e+00 1.5357150524e+00 2.6599364967e+00 
70900 5.0859607604e+00 5.9507310685e-05 1.5357150524e+00 -2.6599364967e+00 1.5357150524e+00 2.6599364967e+00 
71000 5.0859607607e+00 5.9481574475e-05 1.5357150524e+00 -2.6599364967e+00 1.5357150524e+00 2.6599364967e+00 
71100 5.0859607610e+00 5.9456049536e-05 1.5357150524e+00 -2.6599364967e+00 1.5357150524e+00 2.6599364967e+00 
71200 5.0859607613e+00 5.9430734382e-05 1.5357150524e+00 -2.6599364967e+00 1.5357150524e+00 2.6599364967e+00 
71300 5.0859607616e+00 5.9405627533e-05 1.5357150524e+00 -2.6599364967e+00 1.5357150524e+00 2.6599364967e+00 
71400 5.0859607619e+00 5.9380727509e-05 1.5357150524e+00 -2.6599364967e+00 1.5357150524e+00 2.6599364967e+00 
71500 5.0859607622e+00 5.9356032838e-05 1.5357150524e+00 -2.6599364967e+00 1.5357150524e+00 2.6599364967e+00 
71600 5.0859607625e+00 5.9331542049e-05 1.5357150524e+00 -2.6599364967e+00 1.5357150524e+00 2.6599364967e+00 
71700 5.0859607627e+00 5.9307253677e-05 1.5357150524e+00 -2.6599364967e+00 1.5357150524e+00 2.6599364967e+00 
71800 5.0859607630e+00 5.9283166263e-05 1.5357150524e+00 -2.6599364967e+00 1.5357150524e+00 2.6599364967e+00 
71900 5.0859607633e+00 5.9259278349e-05 1.5357150524e+00 -2.6599364967e+00 1.5357150524e+00 2.6599364967e+00 
72000 5.0859607636e+00 5.9235588484e-05 1.5357150524e+00 -2.6599364967e+00 1.5357150524e+00 2.6599364967e+00 
72100 5.0859607638e+00 5.9212095224e-05 1.5357150524e+00 -2.6599364967e+00 1.5357150524e+00 2.6599364967e+00 
72200 5.0859607641e+00 5.9188797128e-05 1.5357150524e+00 -2.6599364967e+00 1.5357150524e+00 2.6599364967e+00 
72300 5.0859607643e+00 5.9165692759e-05 1.5357150524e+00 -2.6599364967e+00 1.5357150524e+00 2.6599364967e+00 
72400 5.0859607646e+00 5.9142780688e-05 1.5357150524e+00 -2.6599364967e+00 1.5357150524e+00 2.6599364967e+00 
72500 5.0859607648e+00 5.9120059491e-05 1.5357150524e+00 -2.6599364967e+00 1.5357150524e+00 2.6599364967e+00 
72600 5.0859607651e+00 5.9097527749e-05 1.5357150524e+00 -2.6599364967e+00 1.5357150524e+00 2.6599364967e+00 
72700 5.0859607653e+00 5.9075184049e-05 1.5357150524e+00 -2.6599364967e+00 1.5357150524e+00 2.6599364967e+00 
72800 5.0859607656e+00 5.9053026985e-05 1.5357150524e+00 -2.6599364967e+00 1.5357150524e+00 2.6599364967e+00 
72900 5.0859607658e+00 5.9031055155e-05 1.5357150524e+00 -2.6599364967e+00 1.5357150524e+00 2.6599364967e+00 
73000 5.0859607660e+00 5.9009267167e-05 1.5357150524e+00 -2.6599364967e+00 1.5357150524e+00 2.6599364967e+00 
73100 5.0859607663e+00 5.8987661630e-05 1.5357150524e+00 -2.6599364967e+00 1.5357150524e+00 2.6599364967e+00 
73200 5.0859607665e+00 5.8966237163e-05 1.5357150524e+00 -2.6599364967e+00 1.5357150524e+00 2.6599364967e+00 
73300 5.0859607667e+00 5.8944992391e-05 1.5357150524e+00 -2.6599364967e+00 1.5357150524e+00 2.6599364967e+00 
73400 5.0859607669e+00 5.8923925944e-05 1.5357150524e+00 -2.6599364967e+00 1.5357150524e+00 2.6599364967e+00 
73500 5.0859607672e+00 5.8903036459e-05 1.5357150524e+00 -2.6599364967e+00 1.5357150524e+00 2.6599364967e+00 
73600 5.0859607674e+00 5.8882322583e-05 1.5357150524e+00 -2.6599364967e+00 1.5357150524e+00 2.6599364967e+00 
73700 5.0859607676e+00 5.8861782964e-05 1.5357150524e+00 -2.6599364967e+00 1.5357150524e+00 2.6599364967e+00 
73800 5.0859607678e+00 5.8841416260e-05 1.5357150524e+00 -2.6599364967e+00 1.5357150524e+00 2.6599364967e+00 
73900 5.0859607680e+00 5.8821221137e-05 1.5357150524e+00 -2.6599364967e+00 1.5357150524e+00 2.6599364967e+00 
74000 5.0859607682e+00 5.8801196266e-05 1.5357150524e+00 -2.6599364967e+00 1.5357150524e+00 2.6599364967e+00 
74100 5.0859607684e+00 5.8781340325e-05 1.5357150524e+00 -2.6599364967e+00 1.5357150524e+00 2.6599364967e+00 
74200 5.0859607686e+00 5.8761652000e-05 1.5357150524e+00 -2.6599364967e+00 1.5357150524e+00 2.6599364967e+00 
74300 5.0859607688e+00 5.8742129984e-05 1.5357150524e+00 -2.6599364967e+00 1.5357150524e+00 2.6599364967e+00 
74400 5.0859607690e+00 5.8722772975e-05 1.5357150524e+00 -2.6599364967e+00 1.5357150524e+00 2.6599364967e+00 
74500 5.0859607692e+00 5.8703579681e-05 1.5357150524e+00 -2.6599364967e+00 1.5357150524e+00 2.6599364967e+00 
74600 5.0859607694e+00 5.8684548816e-05 1.5357150524e+00 -2.6599364967e+00 1.5357150524e+00 2.6599364967e+00 
74700 5.0859607696e+00 5.8665679101e-05 1.5357150524e+00 -2.6599364967e+00 1.5357150524e+00 2.6599364967e+00 
74800 5.0859607697e+00 5.8646969265e-05 1.5357150524e+00 -2.6599364967e+00 1.5357150524e+00 2.6599364967e+00 
74900 5.0859607699e+00 5.8628418044e-05 1.5357150524e+00 -2.6599364967e+00 1.5357150524e+00 2.6599364967e+00 
75000 5.0859607701e+00 5.8610024180e-05 1.5357150524e+00 -2.6599364967e+00 1.5357150524e+00 2.6599364967e+00 
75100 5.0859607703e+00 5.8591786424e-05 1.5357150524e+00 -2.6599364967e+00 1.5357150524e+00 2.6599364967e+00 
75200 5.0859607704e+00 5.8573703535e-05 1.5357150524e+00 -2.6599364967e+00 1.5357150524e+00 2.6599364967e+00 
75300 5.0859607706e+00 5.8555774276e-05 1.5357150524e+00 -2.6599364967e+00 1.5357150524e+00 2.6599364967e+00 
75400 5.0859607708e+00 5.8537997422e-05 1.5357150524e+00 -2.6599364967e+00 1.5357150524e+00 2.6599364967e+00 
75500 5.0859607710e+00 5.8520371752e-05 1.5357150524e+00 -2.6599364967e+00 1.5357150524e+00 2.6599364967e+00 
75600 5.0859607711e+00 5.8502896054e-05 1.5357150524e+00 -2.6599364967e+00 1.5357150524e+00 2.6599364967e+00 
75700 5.0859607713e+00 5.8485569122e-05 1.5357150524e+00 -2.6599364967e+00 1.5357150524e+00 2.6599364967e+00 
75800 5.0859607714e+00 5.8468389760e-05 1.5357150524e+00 -2.6599364967e+00 1.5357150524e+00 2.6599364967e+00 
75900 5.0859607716e+00 5.8451356777e-05 1.5357150524e+00 -2.6599364967e+00 1.5357150524e+00 2.6599364967e+00 
76000 5.0859607717e+00 5.8434468991e-05 1.5357150524e+00 -2.6599364967e+00 1.5357150524e+00 2.6599364967e+00 
76100 5.0859607719e+00 5.8417725226e-05 1.5357150524e+00 -2.6599364967e+00 1.5357150524e+00 2.6599364967e+00 
76200 5.0859607721e+00 5.8401124315e-05 1.5357150524e+00 -2.6599364967e+00 1.5357150524e+00 2.6599364967e+00 
76300 5.0859607722e+00 5.8384665099e-05 1.5357150524e+00 -2.6599364967e+00 1.5357150524e+00 2.6599364967e+00 
76400 5.0859607724e+00 5.8368346423e-05 1.5357150524e+00 -2.6599364967e+00 1.5357150524e+00 2.6599364967e+00 
76500 5.0859607725e+00 5.8352167144e-05 1.5357150524e+00 -2.6599364967e+00 1.5357150524e+00 2.6599364967e+00 
76600 5.0859607726e+00 5.8336126124e-05 1.5357150524e+00 -2.6599364967e+00 1.5357150524e+00 2.6599364967e+00 
76700 5.0859607728e+00 5.8320222232e-05 1.5357150524e+00 -2.6599364967e+00 1.5357150524e+00 2.6599364967e+00 
76800 5.0859607729e+00 5.8304454346e-05 1.5357150524e+00 -2.6599364967e+00 1.5357150524e+00 2.6599364967e+00 
76900 5.0859607731e+00 5.8288821351e-05 1.5357150524e+00 -2.6599364967e+00 1.5357150524e+00 2.6599364967e+00 
77000 5.0859607732e+00 5.8273322139e-05 1.5357150524e+00 -2.6599364967e+00 1.5357150524e+00 2.6599364967e+00 
77100 5.0859607733e+00 5.8257955609e-05 1.5357150524e+00 -2.6599364967e+00 1.5357150524e+00 2.6599364967e+00 
77200 5.0859607735e+00 5.8242720669e-05 1.5357150524e+00 -2.6599364967e+00 1.5357150524e+00 2.6599364967e+00 
77300 5.0859607736e+00 5.8227616235e-05 1.5357150524e+00 -2.6599364967e+00 1.5357150524e+00 2.6599364967e+00 
77400 5.0859607737e+00 5.8212641225e-05 1.5357150524e+00 -2.6599364967e+00 1.5357150524e+00 2.6599364967e+00 
77500 5.0859607738e+00 5.8197794572e-05 1.5357150524e+00 -2.6599364967e+00 1.5357150524e+00 2.6599364967e+00 
77600 5.0859607740e+00 5.8183075212e-05 1.5357150524e+00 -2.6599364967e+00 1.5357150524e+00 2.6599364967e+00 
77700 5.0859607741e+00 5.8168482088e-05 1.5357150524e+00 -2.6599364967e+00 1.5357150524e+00 2.6599364967e+00 
77800 5.0859607742e+00 5.8154014153e-05 1.5357150524e+00 -2.6599364967e+00 1.5357150524e+00 2.6599364967e+00 
77900 5.0859607743e+00 5.8139670364e-05 1.5357150524e+00 -2.6599364967e+00 1.5357150524e+00 2.6599364967e+00 
78000 5.0859607745e+00 5.8125449689e-05 1.5357150524e+00 -2.6599364967e+00 1.5357150524e+00 2.6599364967e+00 
78100 5.0859607746e+00 5.8111351101e-05 1.5357150524e+00 -2.6599364967e+00 1.5357150524e+00 2.6599364967e+00 
78200 5.0859607747e+00 5.8097373579e-05 1.5357150524e+00 -2.6599364967e+00 1.5357150524e+00 2.6599364967e+00 
78300 5.0859607748e+00 5.8083516113e-05 1.5357150524e+00 -2.6599364967e+00 1.5357150524e+00 2.6599364967e+00 
78400 5.0859607749e+00 5.8069777697e-05 1.5357150524e+00 -2.6599364967e+00 1.5357150524e+00 2.6599364967e+00 
78500 5.0859607750e+00 5.8056157334e-05 1.5357150524e+00 -2.6599364967e+00 1.5357150524e+00 2.6599364967e+00 
78600 5.0859607751e+00 5.8042654034e-05 1.5357150524e+00 -2.6599364967e+00 1.5357150524e+00 2.6599364967e+00 
78700 5.0859607753e+00 5.8029266813e-05 1.5357150524e+00 -2.6599364967e+00 1.5357150524e+00 2.6599364967e+00 
78800 5.0859607754e+00 5.8015994694e-05 1.5357150524e+00 -2.6599364967e+00 1.5357150524e+00 2.6599364967e+00 
78900 5.0859607755e+00 5.8002836710e-05 1.5357150524e+00 -2.6599364967e+00 1.5357150524e+00 2.6599364967e+00 
79000 5.0859607756e+00 5.7989791897e-05 1.5357150524e+00 -2.6599364967e+00 1.5357150524e+00 2.6599364967e+00 
79100 5.0859607757e+00 5.7976859302e-05 1.5357150524e+00 -2.6599364967e+00 1.5357150524e+00 2.6599364967e+00 
79200 5.0859607758e+00 5.7964037976e-05 1.5357150524e+00 -2.6599364967e+00 1.5357150524e+00 2.6599364967e+00 
79300 5.0859607759e+00 5.7951326978e-05 1.5357150524e+00 -2.6599364967e+00 1.5357150524e+00 2.6599364967e+00 
79400 5.0859607760e+00 5.7938725374e-05 1.5357150524e+00 -2.6599364967e+00 1.5357150524e+00 2.6599364967e+00 
79500 5.0859607761e+00 5.7926232238e-05 1.5357150524e+00 -2.6599364967e+00 1.5357150524e+00 2.6599364967e+00 
79600 5.0859607762e+00 5.7913846649e-05 1.5357150524e+00 -2.6599364967e+00 1.5357150524e+00 2.6599364967e+00 
79700 5.0859607763e+00 5.7901567694e-05 1.5357150524e+00 -2.6599364967e+00 1.5357150524e+00 2.6599364967e+00 
79800 5.0859607764e+00 5.7889394468e-05 1.5357150524e+00 -2.6599364967e+00 1.5357150524e+00 2.6599364967e+00 
79900 5.0859607764e+00 5.7877326069e-05 1.5357150524e+00 -2.6599364967e+00 1.5357150524e+00 2.6599364967e+00 
80000 5.0859607765e+00 5.7865361607e-05 1.5357150524e+00 -2.6599364967e+00 1.5357150524e+00 2.6599364967e+00 
80100 5.0859607766e+00 5.7853500194e-05 1.5357150524e+00 -2.6599364967e+00 1.5357150524e+00 2.6599364967e+00 
80200 5.0859607767e+00 5.7841740951e-05 1.5357150524e+00 -2.6599364967e+00 1.5357150524e+00 2.6599364967e+00 
80300 5.0859607768e+00 5.7830083007e-05 1.5357150524e+00 -2.6599364967e+00 1.5357150524e+00 2.6599364967e+00 
80400 5.0859607769e+00 5.7818525495e-05 1.5357150524e+00 -2.6599364967e+00 1.5357150524e+00 2.6599364967e+00 
80500 5.0859607770e+00 5.7807067556e-05 1.5357150524e+00 -2.6599364967e+00 1.5357150524e+00 2.6599364967e+00 
80600 5.0859607771e+00 5.7795708337e-05 1.5357150524e+00 -2.6599364967e+00 1.5357150524e+00 2.6599364967e+00 
80700 5.0859607771e+00 5.7784446993e-05 1.5357150524e+00 -2.6599364967e+00 1.5357150524e+00 2.6599364967e+00 
80800 5.0859607772e+00 5.7773282683e-05 1.5357150524e+00 -2.6599364967e+00 1.5357150524e+00 2.6599364967e+00 
80900 5.0859607773e+00 5.7762214575e-05 1.5357150524e+00 -2.6599364967e+00 1.5357150524e+00 2.6599364967e+00 
81000 5.0859607774e+00 5.7751241843e-05 1.5357150524e+00 -2.6599364967e+00 1.5357150524e+00 2.6599364967e+00 
81100 5.0859607775e+00 5.7740363667e-05 1.5357150524e+00 -2.6599364967e+00 1.5357150524e+00 2.6599364967e+00 
81200 5.0859607775e+00 5.7729579231e-05 1.5357150524e+00 -2.6599364967e+00 1.5357150524e+00 2.6599364967e+00 
81300 5.0859607776e+00 5.7718887730e-05 1.5357150524e+00 -2.6599364967e+00 1.5357150524e+00 2.6599364967e+00 
81400 5.0859607777e+00 5.7708288362e-05 1.5357150524e+00 -2.6599364967e+00 1.5357150524e+00 2.6599364967e+00 
81500 5.0859607778e+00 5.7697780334e-05 1.5357150524e+00 -2.6599364967e+00 1.5357150524e+00 2.6599364967e+00 
81600 5.0859607778e+00 5.7687362855e-05 1.5357150524e+00 -2.6599364967e+00 1.5357150524e+00 2.6599364967e+00 
81700 5.0859607779e+00 5.7677035144e-05 1.5357150524e+00 -2.6599364967e+00 1.5357150524e+00 2.6599364967e+00 
81800 5.0859607780e+00 5.7666796426e-05 1.5357150524e+00 -2.6599364967e+00 1.5357150524e+00 2.6599364967e+00 
81900 5.0859607781e+00 5.7656645930e-05 1.5357150524e+00 -2.6599364967e+00 1.5357150524e+00 2.6599364967e+00 
82000 5.0859607781e+00 5.7646582892e-05 1.5357150524e+00 -2.6599364967e+00 1.5357150524e+00 2.6599364967e+00 
82100 5.0859607782e+00 5.7636606556e-05 1.5357150524e+00 -2.6599364967e+00 1.5357150524e+00 2.6599364967e+00 
82200 5.0859607783e+00 5.7626716169e-05 1.5357150524e+00 -2.6599364967e+00 1.5357150524e+00 2.6599364967e+00 
82300 5.0859607783e+00 5.7616910986e-05 1.5357150524e+00 -2.6599364967e+00 1.5357150524e+00 2.6599364967e+00 
82400 5.0859607784e+00 5.7607190268e-05 1.5357150524e+00 -2.6599364967e+00 1.5357150524e+00 2.6599364967e+00 
82500 5.0859607785e+00 5.7597553280e-05 1.5357150524e+00 -2.6599364967e+00 1.5357150524e+00 2.6599364967e+00 
82600 5.0859607785e+00 5.7587999295e-05 1.5357150524e+00 -2.6599364967e+00 1.5357150524e+00 2.6599364967e+00 
82700 5.0859607786e+00 5.7578527593e-05 1.5357150524e+00 -2.6599364967e+00 1.5357150524e+00 2.6599364967e+00 
82800 5.0859607787e+00 5.7569137456e-05 1.5357150524e+00 -2.6599364967e+00 1.5357150524e+00 2.6599364967e+00 
82900 5.0859607787e+00 5.7559828174e-05 1.5357150524e+00 -2.6599364967e+00 1.5357150524e+00 2.6599364967e+00 
83000 5.0859607788e+00 5.7550599043e-05 1.5357150524e+00 -2.6599364967e+00 1.5357150524e+00 2.6599364967e+00 
83100 5.0859607788e+00 5.7541449365e-05 1.5357150524e+00 -2.6599364967e+00 1.5357150524e+00 2.6599364967e+00 
83200 5.0859607789e+00 5.7532378447e-05 1.5357150524e+00 -2.6599364967e+00 1.5357150524e+00 2.6599364967e+00 
83300 5.0859607790e+00 5.7523385600e-05 1.5357150524e+00 -2.6599364967e+00 1.5357150524e+00 2.6599364967e+00 
83400 5.0859607790e+00 5.7514470145e-05 1.5357150524e+00 -2.6599364967e+00 1.5357150524e+00 2.6599364967e+00 
83500 5.0859607791e+00 5.7505631405e-05 1.5357150524e+00 -2.6599364967e+00 1.5357150524e+00 2.6599364967e+00 
83600 5.0859607791e+00 5.7496868708e-05 1.5357150524e+00 -2.6599364967e+00 1.5357150524e+00 2.6599364967e+00 
83700 5.0859607792e+00 5.7488181392e-05 1.5357150524e+00 -2.6599364967e+00 1.5357150524e+00 2.6599364967e+00 
83800 5.0859607792e+00 5.7479568795e-05 1.5357150524e+00 -2.6599364967e+00 1.5357150524e+00 2.6599364967e+00 
83900 5.0859607793e+00 5.7471030265e-05 1.5357150524e+00 -2.6599364967e+00 1.5357150524e+00 2.6599364967e+00 
84000 5.0859607794e+00 5.7462565151e-05 1.5357150524e+00 -2.6599364967e+00 1.5357150524e+00 2.6599364967e+00 
84100 5.0859607794e+00 5.7454172812e-05 1.5357150524e+00 -2.6599364967e+00 1.5357150524e+00 2.6599364967e+00 
84200 5.0859607795e+00 5.7445852610e-05 1.5357150524e+00 -2.6599364967e+00 1.5357150524e+00 2.6599364967e+00 
84300 5.0859607795e+00 5.7437603911e-05 1.5357150524e+00 -2.6599364967e+00 1.5357150524e+00 2.6599364967e+00 
84400 5.0859607796e+00 5.7429426089e-05 1.5357150524e+00 -2.6599364967e+00 1.5357150524e+00 2.6599364967e+00 
84500 5.0859607796e+00 5.7421318523e-05 1.5357150524e+00 -2.6599364967e+00 1.5357150524e+00 2.6599364967e+00 
84600 5.0859607797e+00 5.7413280594e-05 1.5357150524e+00 -2.6599364967e+00 1.5357150524e+00 2.6599364967e+00 
84700 5.0859607797e+00 5.7412800520e-05 1.5357150524e+00 -2.6599364967e+00 1.5357150524e+00 2.6599364967e+00 
84700 5.0859607797e+00 5.7412800520e-05 1.5357150524e+00 -2.6599364967e+00 1.5357150524e+00 2.6599364967e+00 
