# step Hamiltonian StressXX CellTensor1 CellTensor2 CellTensor3 CellTensor4 
0 5.3366087043e+00 -5.3077178949e-01 1.6185780433e+00 -2.8034594071e+00 1.6185780433e+00 2.8034594071e+00 
100 5.3259919051e+00 -5.3787679239e-01 1.6185780433e+00 -2.8034594071e+00 1.6185780433e+00 2.8034594071e+00 
200 5.3056281359e+00 -5.2581277396e-01 1.6352219027e+00 -2.8322874172e+00 1.6352219027e+00 2.8322874172e+00 
300 5.2870095746e+00 -5.1421835470e-01 1.6513257117e+00 -2.8601800324e+00 1.6513257117e+00 2.8601800324e+00 
400 5.2700614256e+00 -5.0309453703e-01 1.6669198148e+00 -2.8871898114e+00 1.6669198148e+00 2.8871898114e+00 
500 5.2547044096e+00 -4.9243974244e-01 1.6820329234e+00 -2.9133664833e+00 1.6820329234e+00 2.9133664833e+00 
600 5.2408556952e+00 -4.8225011197e-01 1.6966922035e+00 -2.9387571013e+00 1.6966922035e+00 2.9387571013e+00 
700 5.2284297659e+00 -4.7251980274e-01 1.7109233568e+00 -2.9634061818e+00 1.7109233568e+00 2.9634061818e+00 
800 5.2173392244e+00 -4.6324126791e-01 1.7247506954e+00 -2.9873558347e+00 1.7247506954e+00 2.9873558347e+00 
900 5.2074955367e+00 -4.5440551320e-01 1.7381972117e+00 -3.0106458842e+00 1.7381972117e+00 3.0106458842e+00 
1000 5.1988097183e+00 -4.4600232633e-01 1.7512846443e+00 -3.0333139825e+00 1.7512846443e+00 3.0333139825e+00 
1100 5.1911929650e+00 -4.3802047881e-01 1.7640335399e+00 -3.0553957174e+00 1.7640335399e+00 3.0553957174e+00 
1200 5.1845572301e+00 -4.3044790072e-01 1.7764633117e+00 -3.0769247136e+00 1.7764633117e+00 3.0769247136e+00 
1300 5.1788157514e+00 -4.2327183042e-01 1.7885922943e+00 -3.0979327278e+00 1.7885922943e+00 3.0979327278e+00 
1400 5.1738835273e+00 -4.1647894178e-01 1.8004377959e+00 -3.1184497384e+00 1.8004377959e+00 3.1184497384e+00 
1500 5.1696777463e+00 -4.1005545160e-01 1.8120161467e+00 -3.1385040302e+00 1.8120161467e+00 3.1385040302e+00 
1600 5.1661181681e+00 -4.0398721020e-01 1.8233427444e+00 -3.1581222729e+00 1.8233427444e+00 3.1581222729e+00 
1700 5.1631274603e+00 -3.9825977802e-01 1.8344320974e+00 -3.1773295957e+00 1.8344320974e+00 3.1773295957e+00 
1800 5.1606314900e+00 -3.9285849089e-01 1.8452978647e+00 -3.1961496567e+00 1.8452978647e+00 3.1961496567e+00 
1900 5.1585595720e+00 -3.8776851642e-01 1.8559528933e+00 -3.2146047077e+00 1.8559528933e+00 3.2146047077e+00 
2000 5.1568446756e+00 -3.8297490374e-01 1.8664092539e+00 -3.2327156554e+00 1.8664092539e+00 3.2327156554e+00 
2100 5.1554235901e+00 -3.7846262835e-01 1.8766782732e+00 -3.2505021187e+00 1.8766782732e+00 3.2505021187e+00 
2200 5.1542370519e+00 -3.7421663379e-01 1.8867705659e+00 -3.2679824823e+00 1.8867705659e+00 3.2679824823e+00 
2300 5.1532298339e+00 -3.7022187138e-01 1.8966960634e+00 -3.2851739483e+00 1.8966960634e+00 3.2851739483e+00 
2400 5.1523508002e+00 -3.6646333884e-01 1.9064640424e+00 -3.3020925843e+00 1.9064640424e+00 3.3020925843e+00 
2500 5.1515529267e+00 -3.6292611879e-01 1.9160831513e+00 -3.3187533696e+00 1.9160831513e+00 3.3187533696e+00 
2600 5.1507932918e+00 -3.5959541725e-01 1.9255614356e+00 -3.3351702396e+00 1.9255614356e+00 3.3351702396e+00 
2700 5.1500330375e+00 -3.5645660255e-01 1.9349063631e+00 -3.3513561287e+00 1.9349063631e+00 3.3513561287e+00 
2800 5.1492373056e+00 -3.5349524456e-01 1.9441248475e+00 -3.3673230121e+00 1.9441248475e+00 3.3673230121e+00 
2900 5.1483751494e+00 -3.5069715416e-01 1.9532232722e+00 -3.3830819460e+00 1.9532232722e+00 3.3830819460e+00 
3000 5.1474194253e+00 -3.4804842252e-01 1.9622075132e+00 -3.3986431078e+00 1.9622075132e+00 3.3986431078e+00 
3100 5.1463466656e+00 -3.4553545990e-01 1.9710829615e+00 -3.4140158352e+00 1.9710829615e+00 3.4140158352e+00 
3200 5.1451369367e+00 -3.4314503346e-01 1.9798545460e+00 -3.4292086653e+00 1.9798545460e+00 3.4292086653e+00 
3300 5.1437736831e+00 -3.4086430353e-01 1.9885267556e+00 -3.4442293728e+00 1.9885267556e+00 3.4442293728e+00 
3400 5.1422435616e+00 -3.3868085789e-01 1.9971036608e+00 -3.4590850086e+00 1.9971036608e+00 3.4590850086e+00 
3500 5.1405362668e+00 -3.3658274344e-01 2.0055889366e+00 -3.4737819373e+00 2.0055889366e+00 3.4737819373e+00 
3600 5.1386443512e+00 -3.3455849492e-01 2.0139858833e+00 -3.4883258756e+00 2.0139858833e+00 3.4883258756e+00 
3700 5.1365630404e+00 -3.3259716012e-01 2.0222974487e+00 -3.5027219292e+00 2.0222974487e+00 3.5027219292e+00 
3800 5.1342900467e+00 -3.3068832133e-01 2.0305262494e+00 -3.5169746301e+00 2.0305262494e+00 3.5169746301e+00 
3900 5.1318253824e+00 -3.2882211270e-01 2.0386745918e+00 -3.5310879731e+00 2.0386745918e+00 3.5310879731e+00 
4000 5.1291711732e+00 -3.2698923329e-01 2.0467444930e+00 -3.5450654521e+00 2.0467444930e+00 3.5450654521e+00 
4100 5.1263314751e+00 -3.2518095579e-01 2.0547377013e+00 -3.5589100950e+00 2.0547377013e+00 3.5589100950e+00 
4200 5.1233120935e+00 -3.2338913076e-01 2.0626557162e+00 -3.5726244989e+00 2.0626557162e+00 3.5726244989e+00 
4300 5.1201204078e+00 -3.2160618662e-01 2.0704998075e+00 -3.5862108636e+00 2.0704998075e+00 3.5862108636e+00 
4400 5.1167652006e+00 -3.1982512531e-01 2.0782710347e+00 -3.5996710241e+00 2.0782710347e+00 3.5996710241e+00 
4500 5.1132564922e+00 -3.1803951401e-01 2.0859702651e+00 -3.6130064822e+00 2.0859702651e+00 3.6130064822e+00 
4600 5.1096053824e+00 -3.1624347309e-01 2.0935981908e+00 -3.6262184371e+00 2.0935981908e+00 3.6262184371e+00 
4700 5.1058238982e+00 -3.1443166062e-01 2.1011553460e+00 -3.6393078139e+00 2.1011553460e+00 3.6393078139e+00 
4800 5.1019248487e+00 -3.1259925382e-01 2.1086421227e+00 -3.6522752915e+00 2.1086421227e+00 3.6522752915e+00 
4900 5.0979216865e+00 -3.1074192779e-01 2.1160587855e+00 -3.6651213284e+00 2.1160587855e+00 3.6651213284e+00 
5000 5.0938283772e+00 -3.0885583197e-01 2.1234054863e+00 -3.6778461873e+00 2.1234054863e+00 3.6778461873e+00 
5100 5.0896592750e+00 -3.0693756469e-01 2.1306822767e+00 -3.6904499581e+00 2.1306822767e+00 3.6904499581e+00 
5200 5.0854290061e+00 -3.0498414631e-01 2.1378891212e+00 -3.7029325789e+00 2.1378891212e+00 3.7029325789e+00 
5300 5.0811523587e+00 -3.0299299120e-01 2.1450259079e+00 -3.7152938560e+00 2.1450259079e+00 3.7152938560e+00 
5400 5.0768441802e+00 -3.0096187911e-01 2.1520924593e+00 -3.7275334821e+00 2.1520924593e+00 3.7275334821e+00 
5500 5.0725192809e+00 -2.9888892625e-01 2.1590885418e+00 -3.7396510524e+00 2.1590885418e+00 3.7396510524e+00 
5600 5.0681923441e+00 -2.9677255632e-01 2.1660138741e+00 -3.7516460798e+00 2.1660138741e+00 3.7516460798e+00 
5700 5.0638778436e+00 -2.9461147195e-01 2.1728681354e+00 -3.7635180086e+00 2.1728681354e+00 3.7635180086e+00 
5800 5.0595899659e+00 -2.9240462669e-01 2.1796509720e+00 -3.7752662264e+00 2.1796509720e+00 3.7752662264e+00 
5900 5.0553425404e+00 -2.9015119795e-01 2.1863620038e+00 -3.7868900744e+00 2.1863620038e+00 3.7868900744e+00 
6000 5.0511489735e+00 -2.8785056093e-01 2.1930008294e+00 -3.7983888576e+00 2.1930008294e+00 3.7983888576e+00 
6100 5.0470221903e+00 -2.8550226384e-01 2.1995670309e+00 -3.8097618522e+00 2.1995670309e+00 3.8097618522e+00 
6200 5.0429745805e+00 -2.8310600449e-01 2.2060601781e+00 -3.8210083130e+00 2.2060601781e+00 3.8210083130e+00 
6300 5.0390179503e+00 -2.8066160840e-01 2.2124798318e+00 -3.8321274793e+00 2.2124798318e+00 3.8321274793e+00 
6400 5.0351634799e+00 -2.7816900847e-01 2.2188255466e+00 -3.8431185799e+00 2.2188255466e+00 3.8431185799e+00 
6500 5.0314216853e+00 -2.7562822634e-01 2.2250968737e+00 -3.8539808371e+00 2.2250968737e+00 3.8539808371e+00 
6600 5.0278023855e+00 -2.7303935536e-01 2.2312933622e+00 -3.8647134699e+00 2.2312933622e+00 3.8647134699e+00 
6700 5.0243146746e+00 -2.7040254533e-01 2.2374145608e+00 -3.8753156969e+00 2.2374145608e+00 3.8753156969e+00 
6800 5.0209668976e+00 -2.6771798885e-01 2.2434600192e+00 -3.8857867380e+00 2.2434600192e+00 3.8857867380e+00 
6900 5.0177666321e+00 -2.6498590940e-01 2.2494292886e+00 -3.8961258158e+00 2.2494292886e+00 3.8961258158e+00 
7000 5.0147206726e+00 -2.6220655104e-01 2.2553219221e+00 -3.9063321565e+00 2.2553219221e+00 3.9063321565e+00 
7100 5.0118350200e+00 -2.5938016967e-01 2.2611374755e+00 -3.9164049905e+00 2.2611374755e+00 3.9164049905e+00 
7200 5.0091148746e+00 -2.5650702594e-01 2.2668755067e+00 -3.9263435521e+00 2.2668755067e+00 3.9263435521e+00 
7300 5.0065646326e+00 -2.5358737958e-01 2.2725355763e+00 -3.9361470801e+00 2.2725355763e+00 3.9361470801e+00 
7400 5.0041878865e+00 -2.5062148515e-01 2.2781172467e+00 -3.9458148168e+00 2.2781172467e+00 3.9458148168e+00 
7500 5.0019874284e+00 -2.4760958933e-01 2.2836200824e+00 -3.9553460079e+00 2.2836200824e+00 3.9553460079e+00 
7600 4.9999652570e+00 -2.4455192932e-01 2.2890436494e+00 -3.9647399014e+00 2.2890436494e+00 3.9647399014e+00 
7700 4.9981225868e+00 -2.4144873273e-01 2.2943875148e+00 -3.9739957478e+00 2.2943875148e+00 3.9739957478e+00 
7800 4.9964598608e+00 -2.3830021850e-01 2.2996512465e+00 -3.9831127986e+00 2.2996512465e+00 3.9831127986e+00 
7900 4.9949767656e+00 -2.3510659907e-01 2.3048344129e+00 -3.9920903062e+00 2.3048344129e+00 3.9920903062e+00 
8000 4.9936722486e+00 -2.3186808358e-01 2.3099365824e+00 -4.0009275230e+00 2.3099365824e+00 4.0009275230e+00 
8100 4.9925445382e+00 -2.2858488218e-01 2.3149573234e+00 -4.0096237015e+00 2.3149573234e+00 4.0096237015e+00 
8200 4.9915911652e+00 -2.2525721119e-01 2.3198962041e+00 -4.0181780938e+00 2.3198962041e+00 4.0181780938e+00 
8300 4.9908089874e+00 -2.2188529930e-01 2.3247527924e+00 -4.0265899514e+00 2.3247527924e+00 4.0265899514e+00 
8400 4.9901942148e+00 -2.1846939448e-01 2.3295266560e+00 -4.0348585259e+00 2.3295266560e+00 4.0348585259e+00 
8500 4.9897424376e+00 -2.1500977179e-01 2.3342173631e+00 -4.0429830687e+00 2.3342173631e+00 4.0429830687e+00 
8600 4.9894486555e+00 -2.1150674186e-01 2.3388244820e+00 -4.0509628327e+00 2.3388244820e+00 4.0509628327e+00 
8700 4.9893073080e+00 -2.0796065999e-01 2.3433475824e+00 -4.0587970725e+00 2.3433475824e+00 4.0587970725e+00 
8800 4.9893123072e+00 -2.0437193592e-01 2.3477862361e+00 -4.0664850462e+00 2.3477862361e+00 4.0664850462e+00 
8900 4.9894570715e+00 -2.0074104398e-01 2.3521400175e+00 -4.0740260169e+00 2.3521400175e+00 4.0740260169e+00 
9000 4.9897345602e+00 -1.9706853379e-01 2.3564085056e+00 -4.0814192551e+00 2.3564085056e+00 4.0814192551e+00 
9100 4.9901373103e+00 -1.9335504123e-01 2.3605912845e+00 -4.0886640406e+00 2.3605912845e+00 4.0886640406e+00 
9200 4.9906574737e+00 -1.8960129967e-01 2.3646879457e+00 -4.0957596659e+00 2.3646879457e+00 4.0957596659e+00 
9300 4.9912868562e+00 -1.8580815132e-01 2.3686980897e+00 -4.1027054391e+00 2.3686980897e+00 4.1027054391e+00 
9400 4.9920169574e+00 -1.8197655875e-01 2.3726213280e+00 -4.1095006873e+00 2.3726213280e+00 4.1095006873e+00 
9500 4.9928390115e+00 -1.7810761617e-01 2.3764572857e+00 -4.1161447609e+00 2.3764572857e+00 4.1161447609e+00 
9600 4.9937440296e+00 -1.7420256067e-01 2.3802056037e+00 -4.1226370381e+00 2.3802056037e+00 4.1226370381e+00 
9700 4.9947228427e+00 -1.7026278307e-01 2.3838659415e+00 -4.1289769291e+00 2.3838659415e+00 4.1289769291e+00 
9800 4.9957661456e+00 -1.6628983841e-01 2.3874379802e+00 -4.1351638817e+00 2.3874379802e+00 4.1351638817e+00 
9900 4.9968645423e+00 -1.6228545577e-01 2.3909214258e+00 -4.1411973865e+00 2.3909214258e+00 4.1411973865e+00 
10000 4.9980085911e+00 -1.5825154741e-01 2.3943160124e+00 -4.1470769828e+00 2.3943160124e+00 4.1470769828e+00 
10100 4.9991888516e+00 -1.5419021708e-01 2.3976215055e+00 -4.1528022648e+00 2.3976215055e+00 4.1528022648e+00 
10200 5.0003959312e+00 -1.5010376722e-01 2.4008377061e+00 -4.1583728877e+00 2.4008377061e+00 4.1583728877e+00 
10300 5.0016205332e+00 -1.4599470503e-01 2.4039644543e+00 -4.1637885744e+00 2.4039644543e+00 4.1637885744e+00 
10400 5.0028535037e+00 -1.4186574722e-01 2.4070016332e+00 -4.1690491226e+00 2.4070016332e+00 4.1690491226e+00 
10500 5.0040858800e+00 -1.3771982314e-01 2.4099491729e+00 -4.1741544112e+00 2.4099491729e+00 4.1741544112e+00 
10600 5.0053089379e+00 -1.3356007647e-01 2.4128070549e+00 -4.1791044079e+00 2.4128070549e+00 4.1791044079e+00 
10700 5.0065142392e+00 -1.2938986490e-01 2.4155753157e+00 -4.1838991762e+00 2.4155753157e+00 4.1838991762e+00 
10800 5.0076936776e+00 -1.2521275806e-01 2.4182540512e+00 -4.1885388823e+00 2.4182540512e+00 4.1885388823e+00 
10900 5.0088395246e+00 -1.2103253328e-01 2.4208434209e+00 -4.1930238021e+00 2.4208434209e+00 4.1930238021e+00 
11000 5.0099444735e+00 -1.1685316928e-01 2.4233436516e+00 -4.1973543288e+00 2.4233436516e+00 4.1973543288e+00 
11100 5.0110016814e+00 -1.1267883759e-01 2.4257550415e+00 -4.2015309785e+00 2.4257550415e+00 4.2015309785e+00 
11200 5.0120048097e+00 -1.0851389168e-01 2.4280779636e+00 -4.2055543977e+00 2.4280779636e+00 4.2055543977e+00 
11300 5.0129480615e+00 -1.0436285378e-01 2.4303128696e+00 -4.2094253684e+00 2.4303128696e+00 4.2094253684e+00 
11400 5.0138262161e+00 -1.0023039939e-01 2.4324602929e+00 -4.2131448146e+00 2.4324602929e+00 4.2131448146e+00 
11500 5.0146346603e+00 -9.6121339486e-02 2.4345208514e+00 -4.2167138067e+00 2.4345208514e+00 4.2167138067e+00 
11600 5.0153694157e+00 -9.2040600495e-02 2.4364952506e+00 -4.2201335664e+00 2.4364952506e+00 4.2201335664e+00 
11700 5.0160271616e+00 -8.7993202224e-02 2.4383842853e+00 -4.2234054705e+00 2.4383842853e+00 4.2234054705e+00 
11800 5.0166052532e+00 -8.3984233790e-02 2.4401888418e+00 -4.2265310541e+00 2.4401888418e+00 4.2265310541e+00 
11900 5.0171017351e+00 -8.0018827799e-02 2.4419098992e+00 -4.2295120129e+00 2.4419098992e+00 4.2295120129e+00 
12000 5.0175153490e+00 -7.6102132999e-02 2.4435485299e+00 -4.2323502045e+00 2.4435485299e+00 4.2323502045e+00 
12100 5.0178455358e+00 -7.2239285655e-02 2.4451059004e+00 -4.2350476494e+00 2.4451059004e+00 4.2350476494e+00 
12200 5.0180924316e+00 -6.8435379951e-02 2.4465832711e+00 -4.2376065305e+00 2.4465832711e+00 4.2376065305e+00 
12300 5.0182568583e+00 -6.4695437760e-02 2.4479819951e+00 -4.2400291916e+00 2.4479819951e+00 4.2400291916e+00 
12400 5.0183403070e+00 -6.1024378104e-02 2.4493035174e+00 -4.2423181353e+00 2.4493035174e+00 4.2423181353e+00 
12500 5.0183449160e+00 -5.7426986713e-02 2.4505493726e+00 -4.2444760198e+00 2.4505493726e+00 4.2444760198e+00 
12600 5.0182734424e+00 -5.3907886022e-02 2.4517211825e+00 -4.2465056541e+00 2.4517211825e+00 4.2465056541e+00 
12700 5.0181292276e+00 -5.0471506019e-02 2.4528206532e+00 -4.2484099932e+00 2.4528206532e+00 4.2484099932e+00 
12800 5.0179161578e+00 -4.7122056314e-02 2.4538495713e+00 -4.2501921317e+00 2.4538495713e+00 4.2501921317e+00 
12900 5.0176386181e+00 -4.3863499785e-02 2.4548097999e+00 -4.2518552963e+00 2.4548097999e+00 4.2518552963e+00 
13000 5.0173014429e+00 -4.0699528160e-02 2.4557032736e+00 -4.2534028382e+00 2.4557032736e+00 4.2534028382e+00 
13100 5.0169098615e+00 -3.7633539836e-02 2.4565319937e+00 -4.2548382236e+00 2.4565319937e+00 4.2548382236e+00 
13200 5.0164694397e+00 -3.4668620225e-02 2.4572980227e+00 -4.2561650247e+00 2.4572980227e+00 4.2561650247e+00 
13300 5.0159860191e+00 -3.1807524861e-02 2.4580034781e+00 -4.2573869092e+00 2.4580034781e+00 4.2573869092e+00 
13400 5.0154656540e+00 -2.9052665453e-02 2.4586505260e+00 -4.2585076290e+00 2.4586505260e+00 4.2585076290e+00 
13500 5.0149145463e+00 -2.6406099031e-02 2.4592413751e+00 -4.2595310097e+00 2.4592413751e+00 4.2595310097e+00 
13600 5.0143389805e+00 -2.3869520269e-02 2.4597782695e+00 -4.2604609381e+00 2.4597782695e+00 4.2604609381e+00 
13700 5.0137452586e+00 -2.1444257013e-02 2.4602634820e+00 -4.2613013508e+00 2.4602634820e+00 4.2613013508e+00 
13800 5.0131396360e+00 -1.9131269006e-02 2.4606993071e+00 -4.2620562220e+00 2.4606993071e+00 4.2620562220e+00 
13900 5.0125282598e+00 -1.6931149718e-02 2.4610880537e+00 -4.2627295510e+00 2.4610880537e+00 4.2627295510e+00 
14000 5.0119171088e+00 -1.4844131187e-02 2.4614320387e+00 -4.2633253503e+00 2.4614320387e+00 4.2633253503e+00 
14100 5.0113119377e+00 -1.2870091682e-02 2.4617335793e+00 -4.2638476340e+00 2.4617335793e+00 4.2638476340e+00 
14200 5.0107182254e+00 -1.1008566003e-02 2.4619949869e+00 -4.2643004053e+00 2.4619949869e+00 4.2643004053e+00 
14300 5.0101411273e+00 -9.2587581808e-03 2.4622185603e+00 -4.2646876458e+00 2.4622185603e+00 4.2646876458e+00 
14400 5.0095854331e+00 -7.6195563115e-03 2.4624065793e+00 -4.2650133042e+00 2.4624065793e+00 4.2650133042e+00 
14500 5.0090555307e+00 -6.0895492578e-03 2.4625612986e+00 -4.2652812859e+00 2.4625612986e+00 4.2652812859e+00 
14600 5.0085553751e+00 -4.6670449174e-03 2.4626849422e+00 -4.2654954430e+00 2.4626849422e+00 4.2654954430e+00 
14700 5.0080884640e+00 -3.3500897702e-03 2.4627796980e+00 -4.2656595649e+00 2.4627796980e+00 4.2656595649e+00 
14800 5.0076578195e+00 -2.1364894072e-03 2.4628477128e+00 -4.2657773698e+00 2.4628477128e+00 4.2657773698e+00 
14900 5.0072659759e+00 -1.0238297553e-03 2.4628910873e+00 -4.2658524966e+00 2.4628910873e+00 4.2658524966e+00 
15000 5.0069149741e+00 -9.4987229643e-06 2.4629118724e+00 -4.2658884976e+00 2.4629118724e+00 4.2658884976e+00 
15100 5.0066063610e+00 9.0921419649e-04 2.4629118724e+00 -4.2658884976e+00 2.4629118724e+00 4.2658884976e+00 
15200 5.0063411962e+00 1.7354057536e-03 2.4628934143e+00 -4.2658565272e+00 2.4628934143e+00 4.2658565272e+00 
15300 5.0061200627e+00 2.4720755788e-03 2.4628581834e+00 -4.2657955054e+00 2.4628581834e+00 4.2657955054e+00 
15400 5.0059430826e+00 3.1224116370e-03 2.4628079964e+00 -4.2657085791e+00 2.4628079964e+00 4.2657085791e+00 
15500 5.0058099384e+00 3.6896937178e-03 2.4627446054e+00 -4.2655987826e+00 2.4627446054e+00 4.2655987826e+00 
15600 5.0057198972e+00 4.1772739512e-03 2.4626696956e+00 -4.2654690350e+00 2.4626696956e+00 4.2654690350e+00 
15700 5.0056718394e+00 4.5885582432e-03 2.4625848842e+00 -4.2653221373e+00 2.4625848842e+00 4.2653221373e+00 
15800 5.0056642893e+00 4.9269887232e-03 2.4624917193e+00 -4.2651607710e+00 2.4624917193e+00 4.2651607710e+00 
15900 5.0056954489e+00 5.1960272763e-03 2.4623916792e+00 -4.2649874965e+00 2.4623916792e+00 4.2649874965e+00 
16000 5.0057632329e+00 5.3991402084e-03 2.4622861722e+00 -4.2648047531e+00 2.4622861722e+00 4.2648047531e+00 
16100 5.0058653056e+00 5.5397840760e-03 2.4621765363e+00 -4.2646148581e+00 2.4621765363e+00 4.2646148581e+00 
16200 5.0059991179e+00 5.6213926938e-03 2.4620640395e+00 -4.2644200079e+00 2.4620640395e+00 4.2644200079e+00 
16300 5.0061619451e+00 5.6473653170e-03 2.4619498802e+00 -4.2642222782e+00 2.4619498802e+00 4.2642222782e+00 
16400 5.0063509240e+00 5.6210559846e-03 2.4618351881e+00 -4.2640236257e+00 2.4618351881e+00 4.2640236257e+00 
16500 5.0065630891e+00 5.5457639976e-03 2.4617210251e+00 -4.2638258895e+00 2.4617210251e+00 4.2638258895e+00 
16600 5.0067954087e+00 5.4247254959e-03 2.4616083860e+00 -4.2636307928e+00 2.4616083860e+00 4.2636307928e+00 
16700 5.0070448187e+00 5.2611060937e-03 2.4614982002e+00 -4.2634399455e+00 2.4614982002e+00 4.2634399455e+00 
16800 5.0073082545e+00 5.0579945231e-03 2.4613913330e+00 -4.2632548461e+00 2.4613913330e+00 4.2632548461e+00 
16900 5.0075826819e+00 4.8183972370e-03 2.4612885871e+00 -4.2630768849e+00 2.4612885871e+00 4.2630768849e+00 
17000 5.0078651247e+00 4.5452339128e-03 2.4611907041e+00 -4.2629073466e+00 2.4611907041e+00 4.2629073466e+00 
17100 5.0081526904e+00 4.2413338043e-03 2.4610983665e+00 -4.2627474133e+00 2.4610983665e+00 4.2627474133e+00 
17200 5.0084425936e+00 3.9094328809e-03 2.4610121995e+00 -4.2625981677e+00 2.4610121995e+00 4.2625981677e+00 
17300 5.0087321764e+00 3.5521716988e-03 2.4609327726e+00 -4.2624605962e+00 2.4609327726e+00 4.2624605962e+00 
17400 5.0090189263e+00 3.1720939459e-03 2.4608606017e+00 -4.2623355926e+00 2.4608606017e+00 4.2623355926e+00 
17500 5.0093004915e+00 2.7716456046e-03 2.4607961511e+00 -4.2622239608e+00 2.4607961511e+00 4.2622239608e+00 
17600 5.0095746937e+00 2.3531746778e-03 2.4607398353e+00 -4.2621264189e+00 2.4607398353e+00 4.2621264189e+00 
17700 5.0098395383e+00 1.9189314240e-03 2.4606920211e+00 -4.2620436023e+00 2.4606920211e+00 4.2620436023e+00 
17800 5.0100932216e+00 1.4710690507e-03 2.4606530295e+00 -4.2619760669e+00 2.4606530295e+00 4.2619760669e+00 
17900 5.0103341367e+00 1.0116448158e-03 2.4606231377e+00 -4.2619242928e+00 2.4606231377e+00 4.2619242928e+00 
18000 5.0105608762e+00 5.4262148946e-04 2.4606025810e+00 -4.2618886876e+00 2.4606025810e+00 4.2618886876e+00 
18100 5.0107722333e+00 6.5869130010e-05 2.4605915549e+00 -4.2618695897e+00 2.4605915549e+00 4.2618695897e+00 
18200 5.0109671996e+00 -4.1629733282e-04 2.4605915549e+00 -4.2618695897e+00 2.4605915549e+00 4.2618695897e+00 
18300 5.0111449654e+00 -9.0324587231e-04 2.4606000142e+00 -4.2618842416e+00 2.4606000142e+00 4.2618842416e+00 
18400 5.0113049124e+00 -1.3928478106e-03 2.4606183684e+00 -4.2619160320e+00 2.4606183684e+00 4.2619160320e+00 
18500 5.0114466087e+00 -1.8835814521e-03 2.4606466712e+00 -4.2619650540e+00 2.4606466712e+00 4.2619650540e+00 
18600 5.0115698014e+00 -2.3740056630e-03 2.4606849454e+00 -4.2620313469e+00 2.4606849454e+00 4.2620313469e+00 
18700 5.0116744086e+00 -2.8627570521e-03 2.4607331843e+00 -4.2621148991e+00 2.4607331843e+00 4.2621148991e+00 
18800 5.0117605096e+00 -3.3485470969e-03 2.4607913533e+00 -4.2622156508e+00 2.4607913533e+00 4.2622156508e+00 
18900 5.0118283353e+00 -3.8301592461e-03 2.4608593916e+00 -4.2623334966e+00 2.4608593916e+00 4.2623334966e+00 
19000 5.0118782572e+00 -4.3064460220e-03 2.4609372136e+00 -4.2624682883e+00 2.4609372136e+00 4.2624682883e+00 
19100 5.0119107760e+00 -4.7763261496e-03 2.4610247102e+00 -4.2626198368e+00 2.4610247102e+00 4.2626198368e+00 
19200 5.0119265100e+00 -5.2387817313e-03 2.4611217502e+00 -4.2627879150e+00 2.4611217502e+00 4.2627879150e+00 
19300 5.0119261832e+00 -5.6928554888e-03 2.4612281818e+00 -4.2629722598e+00 2.4612281818e+00 4.2629722598e+00 
19400 5.0119106135e+00 -6.1376480880e-03 2.4613438334e+00 -4.2631725743e+00 2.4613438334e+00 4.2631725743e+00 
19500 5.0118807002e+00 -6.5723155623e-03 2.4614685153e+00 -4.2633885297e+00 2.4614685153e+00 4.2633885297e+00 
19600 5.0118374123e+00 -6.9960668469e-03 2.4616020204e+00 -4.2636197674e+00 2.4616020204e+00 4.2636197674e+00 
19700 5.0117817768e+00 -7.4081614338e-03 2.4617441257e+00 -4.2638659010e+00 2.4617441257e+00 4.2638659010e+00 
19800 5.0117148673e+00 -7.8079071579e-03 2.4618945930e+00 -4.2641265179e+00 2.4618945930e+00 4.2641265179e+00 
19900 5.0116377923e+00 -8.1946581175e-03 2.4620531698e+00 -4.2644011811e+00 2.4620531698e+00 4.2644011811e+00 
20000 5.0115516852e+00 -8.5678127365e-03 2.4622195909e+00 -4.2646894309e+00 2.4622195909e+00 4.2646894309e+00 
20100 5.0114576933e+00 -8.9268119691e-03 2.4623935785e+00 -4.2649907862e+00 2.4623935785e+00 4.2649907862e+00 
20200 5.0113569687e+00 -9.2711376482e-03 2.4625748436e+00 -4.2653047466e+00 2.4625748436e+00 4.2653047466e+00 
20300 5.0112506586e+00 -9.6003109768e-03 2.4627630868e+00 -4.2656307933e+00 2.4627630868e+00 4.2656307933e+00 
20400 5.0111398967e+00 -9.9138911609e-03 2.4629579987e+00 -4.2659683906e+00 2.4629579987e+00 4.2659683906e+00 
20500 5.0110257957e+00 -1.0211474179e-02 2.4631592613e+00 -4.2663169877e+00 2.4631592613e+00 4.2663169877e+00 
20600 5.0109094390e+00 -1.0492691682e-02 2.4633665483e+00 -4.2666760193e+00 2.4633665483e+00 4.2666760193e+00 
20700 5.0107918750e+00 -1.0757210025e-02 2.4635795260e+00 -4.2670449075e+00 2.4635795260e+00 4.2670449075e+00 
20800 5.0106741100e+00 -1.1004729413e-02 2.4637978540e+00 -4.2674230627e+00 2.4637978540e+00 4.2674230627e+00 
20900 5.0105571035e+00 -1.1234983159e-02 2.4640211859e+00 -4.2678098850e+00 2.4640211859e+00 4.2678098850e+00 
21000 5.0104417631e+00 -1.1447737050e-02 2.4642491701e+00 -4.2682047651e+00 2.4642491701e+00 4.2682047651e+00 
21100 5.0103289403e+00 -1.1642788806e-02 2.4644814501e+00 -4.2686070859e+00 2.4644814501e+00 4.2686070859e+00 
21200 5.0102194271e+00 -1.1819967617e-02 2.4647176656e+00 -4.2690162232e+00 2.4647176656e+00 4.2690162232e+00 
21300 5.0101139529e+00 -1.1979133771e-02 2.4649574529e+00 -4.2694315470e+00 2.4649574529e+00 4.2694315470e+00 
21400 5.0100131826e+00 -1.2120178332e-02 2.4652004456e+00 -4.2698524226e+00 2.4652004456e+00 4.2698524226e+00 
21500 5.0099177145e+00 -1.2243022883e-02 2.4654462751e+00 -4.2702782117e+00 2.4654462751e+00 4.2702782117e+00 
21600 5.0098280792e+00 -1.2347619315e-02 2.4656945715e+00 -4.2707082737e+00 2.4656945715e+00 4.2707082737e+00 
21700 5.0097447390e+00 -1.2433949650e-02 2.4659449639e+00 -4.2711419662e+00 2.4659449639e+00 4.2711419662e+00 
21800 5.0096680880e+00 -1.2502025887e-02 2.4661970815e+00 -4.2715786467e+00 2.4661970815e+00 4.2715786467e+00 
21900 5.0095984521e+00 -1.2551889873e-02 2.4664505536e+00 -4.2720176731e+00 2.4664505536e+00 4.2720176731e+00 
22000 5.0095360901e+00 -1.2583613177e-02 2.4667050104e+00 -4.2724584054e+00 2.4667050104e+00 4.2724584054e+00 
22100 5.0094811947e+00 -1.2597296961e-02 2.4669600841e+00 -4.2729002059e+00 2.4669600841e+00 4.2729002059e+00 
22200 5.0094338944e+00 -1.2593071846e-02 2.4672154088e+00 -4.2733424412e+00 2.4672154088e+00 4.2733424412e+00 
22300 5.0093942554e+00 -1.2571097759e-02 2.4674706213e+00 -4.2737844824e+00 2.4674706213e+00 4.2737844824e+00 
22400 5.0093622836e+00 -1.2531563749e-02 2.4677253623e+00 -4.2742257065e+00 2.4677253623e+00 4.2742257065e+00 
22500 5.0093379279e+00 -1.2474687784e-02 2.4679792758e+00 -4.2746654977e+00 2.4679792758e+00 4.2746654977e+00 
22600 5.0093210825e+00 -1.2400716494e-02 2.4682320109e+00 -4.2751032478e+00 2.4682320109e+00 4.2751032478e+00 
22700 5.0093115903e+00 -1.2309924876e-02 2.4684832217e+00 -4.2755383575e+00 2.4684832217e+00 4.2755383575e+00 
22800 5.0093092464e+00 -1.2202615953e-02 2.4687325677e+00 -4.2759702376e+00 2.4687325677e+00 4.2759702376e+00 
22900 5.0093138011e+00 -1.2079120367e-02 2.4689797152e+00 -4.2763983096e+00 2.4689797152e+00 4.2763983096e+00 
23000 5.0093249643e+00 -1.1939795922e-02 2.4692243369e+00 -4.2768220067e+00 2.4692243369e+00 4.2768220067e+00 
23100 5.0093424087e+00 -1.1785027056e-02 2.4694661130e+00 -4.2772407753e+00 2.4694661130e+00 4.2772407753e+00 
23200 5.0093657742e+00 -1.1615224252e-02 2.4697047317e+00 -4.2776540751e+00 2.4697047317e+00 4.2776540751e+00 
23300 5.0093946713e+00 -1.1430823376e-02 2.4699398896e+00 -4.2780613804e+00 2.4699398896e+00 4.2780613804e+00 
23400 5.0094286855e+00 -1.1232284944e-02 2.4701712920e+00 -4.2784621812e+00 2.4701712920e+00 4.2784621812e+00 
23500 5.0094673813e+00 -1.1020093319e-02 2.4703986539e+00 -4.2788559835e+00 2.4703986539e+00 4.2788559835e+00 
23600 5.0095103058e+00 -1.0794755829e-02 2.4706217001e+00 -4.2792423108e+00 2.4706217001e+00 4.2792423108e+00 
23700 5.0095569931e+00 -1.0556801819e-02 2.4708401656e+00 -4.2796207043e+00 2.4708401656e+00 4.2796207043e+00 
23800 5.0096069681e+00 -1.0306781620e-02 2.4710537965e+00 -4.2799907238e+00 2.4710537965e+00 4.2799907238e+00 
23900 5.0096597500e+00 -1.0045265455e-02 2.4712623498e+00 -4.2803519486e+00 2.4712623498e+00 4.2803519486e+00 
24000 5.0097148562e+00 -9.7728422671e-03 2.4714655941e+00 -4.2807039782e+00 2.4714655941e+00 4.2807039782e+00 
24100 5.0097718060e+00 -9.4901184834e-03 2.4716633103e+00 -4.2810464326e+00 2.4716633103e+00 4.2810464326e+00 
24200 5.0098301237e+00 -9.1977167089e-03 2.4718552911e+00 -4.2813789532e+00 2.4718552911e+00 4.2813789532e+00 
24300 5.0098893422e+00 -8.8962743598e-03 2.4720413423e+00 -4.2817012033e+00 2.4720413423e+00 4.2817012033e+00 
24400 5.0099490059e+00 -8.5864422371e-03 2.4722212823e+00 -4.2820128685e+00 2.4722212823e+00 4.2820128685e+00 
24500 5.0100086735e+00 -8.2688830441e-03 2.4723949428e+00 -4.2823136573e+00 2.4723949428e+00 4.2823136573e+00 
24600 5.0100679208e+00 -7.9442698541e-03 2.4725621688e+00 -4.2826033013e+00 2.4725621688e+00 4.2826033013e+00 
24700 5.0101263433e+00 -7.6132845318e-03 2.4727228191e+00 -4.2828815557e+00 2.4727228191e+00 4.2828815557e+00 
24800 5.0101835582e+00 -7.2766161158e-03 2.4728767661e+00 -4.2831481997e+00 2.4728767661e+00 4.2831481997e+00 
24900 5.0102392065e+00 -6.9349591658e-03 2.4730238961e+00 -4.2834030364e+00 2.4730238961e+00 4.2834030364e+00 
25000 5.0102929550e+00 -6.5890120822e-03 2.4731641096e+00 -4.2836458932e+00 2.4731641096e+00 4.2836458932e+00 
25100 5.0103444972e+00 -6.2394754045e-03 2.4732973209e+00 -4.2838766221e+00 2.4732973209e+00 4.2838766221e+00 
25200 5.0103935554e+00 -5.8870500943e-03 2.4734234588e+00 -4.2840950992e+00 2.4734234588e+00 4.2840950992e+00 
25300 5.0104398812e+00 -5.5324358112e-03 2.4735424658e+00 -4.2843012255e+00 2.4735424658e+00 4.2843012255e+00 
25400 5.0104832562e+00 -5.1763291878e-03 2.4736542989e+00 -4.2844949261e+00 2.4736542989e+00 4.2844949261e+00 
25500 5.0105234928e+00 -4.8194221107e-03 2.4737589289e+00 -4.2846761504e+00 2.4737589289e+00 4.2846761504e+00 
25600 5.0105604347e+00 -4.4624000167e-03 2.4738563404e+00 -4.2848448722e+00 2.4738563404e+00 4.2848448722e+00 
25700 5.0105939562e+00 -4.1059402092e-03 2.4739465321e+00 -4.2850010888e+00 2.4739465321e+00 4.2850010888e+00 
25800 5.0106239627e+00 -3.7507102030e-03 2.4740295162e+00 -4.2851448215e+00 2.4740295162e+00 4.2851448215e+00 
25900 5.0106503900e+00 -3.3973661061e-03 2.4741053182e+00 -4.2852761144e+00 2.4741053182e+00 4.2852761144e+00 
26000 5.0106732036e+00 -3.0465510424e-03 2.4741739770e+00 -4.2853950350e+00 2.4741739770e+00 4.2853950350e+00 
26100 5.0106923982e+00 -2.6988936254e-03 2.4742355443e+00 -4.2855016726e+00 2.4742355443e+00 4.2855016726e+00 
26200 5.0107079962e+00 -2.3550064874e-03 2.4742900845e+00 -4.2855961389e+00 2.4742900845e+00 4.2855961389e+00 
26300 5.0107200467e+00 -2.0154848707e-03 2.4743376742e+00 -4.2856785667e+00 2.4743376742e+00 4.2856785667e+00 
26400 5.0107286245e+00 -1.6809052878e-03 2.4743784020e+00 -4.2857491095e+00 2.4743784020e+00 4.2857491095e+00 
26500 5.0107338279e+00 -1.3518242546e-03 2.4744123683e+00 -4.2858079408e+00 2.4744123683e+00 4.2858079408e+00 
26600 5.0107357775e+00 -1.0287771023e-03 2.4744396844e+00 -4.2858552537e+00 2.4744396844e+00 4.2858552537e+00 
26700 5.0107346141e+00 -7.1227687331e-04 2.4744604725e+00 -4.2858912598e+00 2.4744604725e+00 4.2858912598e+00 
26800 5.0107304975e+00 -4.0281330344e-04 2.4744748651e+00 -4.2859161885e+00 2.4744748651e+00 4.2859161885e+00 
26900 5.0107236035e+00 -1.0085189546e-04 2.4744830045e+00 -4.2859302863e+00 2.4744830045e+00 4.2859302863e+00 
27000 5.0107141228e+00 1.9316691396e-04 2.4744850423e+00 -4.2859338159e+00 2.4744850423e+00 4.2859338159e+00 
27100 5.0107022585e+00 4.7882849122e-04 2.4744811392e+00 -4.2859270554e+00 2.4744811392e+00 4.2859270554e+00 
27200 5.0106882240e+00 7.5574464512e-04 2.4744714638e+00 -4.2859102973e+00 2.4744714638e+00 4.2859102973e+00 
27300 5.0106722412e+00 1.0235541674e-03 2.4744561930e+00 -4.2858838474e+00 2.4744561930e+00 4.2858838474e+00 
27400 5.0106545379e+00 1.2819232739e-03 2.4744355107e+00 -4.2858480245e+00 2.4744355107e+00 4.2858480245e+00 
27500 5.0106353463e+00 1.5305459464e-03 2.4744096073e+00 -4.2858031587e+00 2.4744096073e+00 4.2858031587e+00 
27600 5.0106149004e+00 1.7691441761e-03 2.4743786799e+00 -4.2857495908e+00 2.4743786799e+00 4.2857495908e+00 
27700 5.0105934345e+00 1.9974681093e-03 2.4743429307e+00 -4.2856876714e+00 2.4743429307e+00 4.2856876714e+00 
27800 5.0105711811e+00 2.2152960976e-03 2.4743025672e+00 -4.2856177598e+00 2.4743025672e+00 4.2856177598e+00 
27900 5.0105483691e+00 2.4224346551e-03 2.4742578013e+00 -4.2855402229e+00 2.4742578013e+00 4.2855402229e+00 
28000 5.0105252218e+00 2.6187183244e-03 2.4742088487e+00 -4.2854554345e+00 2.4742088487e+00 4.2854554345e+00 
28100 5.0105019560e+00 2.8040094553e-03 2.4741559286e+00 -4.2853637742e+00 2.4741559286e+00 4.2853637742e+00 
28200 5.0104787796e+00 2.9781979001e-03 2.4740992628e+00 -4.2852656262e+00 2.4740992628e+00 4.2852656262e+00 
28300 5.0104558911e+00 3.1412006283e-03 2.4740390755e+00 -4.2851613788e+00 2.4740390755e+00 4.2851613788e+00 
28400 5.0104334775e+00 3.2929612664e-03 2.4739755926e+00 -4.2850514230e+00 2.4739755926e+00 4.2850514230e+00 
28500 5.0104117141e+00 3.4334495663e-03 2.4739090409e+00 -4.2849361521e+00 2.4739090409e+00 4.2849361521e+00 
28600 5.0103907628e+00 3.5626608073e-03 2.4738396480e+00 -4.2848159601e+00 2.4738396480e+00 4.2848159601e+00 
28700 5.0103707718e+00 3.6806151369e-03 2.4737676416e+00 -4.2846912414e+00 2.4737676416e+00 4.2846912414e+00 
28800 5.0103518744e+00 3.7873568561e-03 2.4736932491e+00 -4.2845623898e+00 2.4736932491e+00 4.2845623898e+00 
28900 5.0103341894e+00 3.8829536521e-03 2.4736166968e+00 -4.2844297973e+00 2.4736166968e+00 4.2844297973e+00 
29000 5.0103178196e+00 3.9674957868e-03 2.4735382098e+00 -4.2842938539e+00 2.4735382098e+00 4.2842938539e+00 
29100 5.0103028525e+00 4.0410952438e-03 2.4734580115e+00 -4.2841549463e+00 2.4734580115e+00 4.2841549463e+00 
29200 5.0102893599e+00 4.1038848404e-03 2.4733763227e+00 -4.2840134572e+00 2.4733763227e+00 4.2840134572e+00 
29300 5.0102773978e+00 4.1560173090e-03 2.4732933620e+00 -4.2838697650e+00 2.4732933620e+00 4.2838697650e+00 
29400 5.0102670070e+00 4.1976643537e-03 2.4732093446e+00 -4.2837242426e+00 2.4732093446e+00 4.2837242426e+00 
29500 5.0102582128e+00 4.2290156862e-03 2.4731244824e+00 -4.2835772570e+00 2.4731244824e+00 4.2835772570e+00 
29600 5.0102510261e+00 4.2502780460e-03 2.4730389834e+00 -4.2834291684e+00 2.4730389834e+00 4.2834291684e+00 
29700 5.0102454438e+00 4.2616742094e-03 2.4729530517e+00 -4.2832803302e+00 2.4729530517e+00 4.2832803302e+00 
29800 5.0102414488e+00 4.2634419922e-03 2.4728668865e+00 -4.2831310877e+00 2.4728668865e+00 4.2831310877e+00 
29900 5.0102390118e+00 4.2558332480e-03 2.4727806825e+00 -4.2829817781e+00 2.4727806825e+00 4.2829817781e+00 
30000 5.0102380912e+00 4.2391128697e-03 2.4726946294e+00 -4.2828327298e+00 2.4726946294e+00 4.2828327298e+00 
30100 5.0102386343e+00 4.2135577930e-03 2.4726089114e+00 -4.2826842619e+00 2.4726089114e+00 4.2826842619e+00 
30200 5.0102405785e+00 4.1794560099e-03 2.4725237072e+00 -4.2825366839e+00 2.4725237072e+00 4.2825366839e+00 
30300 5.0102438517e+00 4.1371055913e-03 2.4724391897e+00 -4.2823902952e+00 2.4724391897e+00 4.2823902952e+00 
30400 5.0102483740e+00 4.0868137238e-03 2.4723555257e+00 -4.2822453849e+00 2.4723555257e+00 4.2822453849e+00 
30500 5.0102540582e+00 4.0288957629e-03 2.4722728760e+00 -4.2821022314e+00 2.4722728760e+00 4.2821022314e+00 
30600 5.0102608109e+00 3.9636743033e-03 2.4721913948e+00 -4.2819611018e+00 2.4721913948e+00 4.2819611018e+00 
30700 5.0102685342e+00 3.8914782699e-03 2.4721112300e+00 -4.2818222524e+00 2.4721112300e+00 4.2818222524e+00 
30800 5.0102771256e+00 3.8126420308e-03 2.4720325229e+00 -4.2816859276e+00 2.4720325229e+00 4.2816859276e+00 
30900 5.0102864804e+00 3.7275045329e-03 2.4719554077e+00 -4.2815523602e+00 2.4719554077e+00 4.2815523602e+00 
31000 5.0102964914e+00 3.6364084624e-03 2.4718800123e+00 -4.2814217714e+00 2.4718800123e+00 4.2814217714e+00 
31100 5.0103070510e+00 3.5396994302e-03 2.4718064571e+00 -4.2812943702e+00 2.4718064571e+00 4.2812943702e+00 
31200 5.0103180516e+00 3.4377251838e-03 2.4717348560e+00 -4.2811703534e+00 2.4717348560e+00 4.2811703534e+00 
31300 5.0103293862e+00 3.3308348460e-03 2.4716653156e+00 -4.2810499059e+00 2.4716653156e+00 4.2810499059e+00 
31400 5.0103409503e+00 3.2193781804e-03 2.4715979355e+00 -4.2809332002e+00 2.4715979355e+00 4.2809332002e+00 
31500 5.0103526414e+00 3.1037048847e-03 2.4715328083e+00 -4.2808203966e+00 2.4715328083e+00 4.2808203966e+00 
31600 5.0103643610e+00 2.9841639110e-03 2.4714700195e+00 -4.2807116432e+00 2.4714700195e+00 4.2807116432e+00 
31700 5.0103760141e+00 2.8611028143e-03 2.4714096475e+00 -4.2806070758e+00 2.4714096475e+00 4.2806070758e+00 
31800 5.0103875109e+00 2.7348671274e-03 2.4713517637e+00 -4.2805068181e+00 2.4713517637e+00 4.2805068181e+00 
31900 5.0103987666e+00 2.6057997638e-03 2.4712964325e+00 -4.2804109817e+00 2.4712964325e+00 4.2804109817e+00 
32000 5.0104097022e+00 2.4742404468e-03 2.4712437114e+00 -4.2803196660e+00 2.4712437114e+00 4.2803196660e+00 
32100 5.0104202446e+00 2.3405251649e-03 2.4711936509e+00 -4.2802329588e+00 2.4711936509e+00 4.2802329588e+00 
32200 5.0104303276e+00 2.2049856533e-03 2.4711462949e+00 -4.2801509357e+00 2.4711462949e+00 4.2801509357e+00 
32300 5.0104398914e+00 2.0679489009e-03 2.4711016804e+00 -4.2800736611e+00 2.4711016804e+00 4.2800736611e+00 
32400 5.0104488831e+00 1.9297366820e-03 2.4710598379e+00 -4.2800011878e+00 2.4710598379e+00 4.2800011878e+00 
32500 5.0104572571e+00 1.7906651116e-03 2.4710207912e+00 -4.2799335570e+00 2.4710207912e+00 4.2799335570e+00 
32600 5.0104649747e+00 1.6510442258e-03 2.4709845580e+00 -4.2798707992e+00 2.4709845580e+00 4.2798707992e+00 
32700 5.0104720045e+00 1.5111775837e-03 2.4709511495e+00 -4.2798129339e+00 2.4709511495e+00 4.2798129339e+00 
32800 5.0104783220e+00 1.3713618931e-03 2.4709205707e+00 -4.2797599699e+00 2.4709205707e+00 4.2797599699e+00 
32900 5.0104839097e+00 1.2318866570e-03 2.4708928207e+00 -4.2797119055e+00 2.4708928207e+00 4.2797119055e+00 
33000 5.0104887568e+00 1.0930338421e-03 2.4708678928e+00 -4.2796687291e+00 2.4708678928e+00 4.2796687291e+00 
33100 5.0104928593e+00 9.5507756793e-04 2.4708457744e+00 -4.2796304189e+00 2.4708457744e+00 4.2796304189e+00 
33200 5.0104962190e+00 8.1828381616e-04 2.4708264475e+00 -4.2795969437e+00 2.4708264475e+00 4.2795969437e+00 
33300 5.0104988443e+00 6.8291015942e-04 2.4708098886e+00 -4.2795682629e+00 2.4708098886e+00 4.2795682629e+00 
33400 5.0105007488e+00 5.4920550979e-04 2.4707960690e+00 -4.2795443267e+00 2.4707960690e+00 4.2795443267e+00 
33500 5.0105019515e+00 4.1740988578e-04 2.4707849551e+00 -4.2795250768e+00 2.4707849551e+00 4.2795250768e+00 
33600 5.0105024764e+00 2.8775419789e-04 2.4707765082e+00 -4.2795104464e+00 2.4707765082e+00 4.2795104464e+00 
33700 5.0105023518e+00 1.6046005206e-04 2.4707706851e+00 -4.2795003604e+00 2.4707706851e+00 4.2795003604e+00 
33800 5.0105016101e+00 3.5739570919e-05 2.4707674379e+00 -4.2794947361e+00 2.4707674379e+00 4.2794947361e+00 
33900 5.0105002873e+00 -8.5913357181e-05 2.4707674379e+00 -4.2794947361e+00 2.4707674379e+00 4.2794947361e+00 
34000 5.0104984224e+00 -2.0488256151e-04 2.4707691765e+00 -4.2794977475e+00 2.4707691765e+00 4.2794977475e+00 
34100 5.0104960575e+00 -3.2070010230e-04 2.4707733226e+00 -4.2795049288e+00 2.4707733226e+00 4.2795049288e+00 
34200 5.0104932363e+00 -4.3319327399e-04 2.4707798125e+00 -4.2795161696e+00 2.4707798125e+00 4.2795161696e+00 
34300 5.0104900047e+00 -5.4219949039e-04 2.4707885788e+00 -4.2795313533e+00 2.4707885788e+00 4.2795313533e+00 
34400 5.0104864098e+00 -6.4756636314e-04 2.4707995510e+00 -4.2795503577e+00 2.4707995510e+00 4.2795503577e+00 
34500 5.0104824993e+00 -7.4915176383e-04 2.4708126554e+00 -4.2795730552e+00 2.4708126554e+00 4.2795730552e+00 
34600 5.0104783216e+00 -8.4682387043e-04 2.4708278155e+00 -4.2795993132e+00 2.4708278155e+00 4.2795993132e+00 
34700 5.0104739250e+00 -9.4046119773e-04 2.4708449519e+00 -4.2796289944e+00 2.4708449519e+00 4.2796289944e+00 
34800 5.0104693575e+00 -1.0299526121e-03 2.4708639831e+00 -4.2796619574e+00 2.4708639831e+00 4.2796619574e+00 
34900 5.0104646663e+00 -1.1151973307e-03 2.4708848251e+00 -4.2796980567e+00 2.4708848251e+00 4.2796980567e+00 
35000 5.0104598974e+00 -1.1961049051e-03 2.4709073919e+00 -4.2797371436e+00 2.4709073919e+00 4.2797371436e+00 
35100 5.0104550956e+00 -1.2725951893e-03 2.4709315957e+00 -4.2797790658e+00 2.4709315957e+00 4.2797790658e+00 
35200 5.0104503038e+00 -1.3445982931e-03 2.4709573471e+00 -4.2798236685e+00 2.4709573471e+00 4.2798236685e+00 
35300 5.0104455629e+00 -1.4120545193e-03 2.4709845552e+00 -4.2798707943e+00 2.4709845552e+00 4.2798707943e+00 
35400 5.0104409117e+00 -1.4749142865e-03 2.4710131279e+00 -4.2799202837e+00 2.4710131279e+00 4.2799202837e+00 
35500 5.0104363865e+00 -1.5331380364e-03 2.4710429723e+00 -4.2799719757e+00 2.4710429723e+00 4.2799719757e+00 
35600 5.0104320209e+00 -1.5866961269e-03 2.4710739945e+00 -4.2800257077e+00 2.4710739945e+00 4.2800257077e+00 
35700 5.0104278458e+00 -1.6355687100e-03 2.4711060999e+00 -4.2800813160e+00 2.4711060999e+00 4.2800813160e+00 
35800 5.0104238891e+00 -1.6797455949e-03 2.4711391939e+00 -4.2801386363e+00 2.4711391939e+00 4.2801386363e+00 
35900 5.0104201758e+00 -1.7192260976e-03 2.4711731812e+00 -4.2801975041e+00 2.4711731812e+00 4.2801975041e+00 
36000 5.0104167277e+00 -1.7540188759e-03 2.4712079669e+00 -4.2802577548e+00 2.4712079669e+00 4.2802577548e+00 
36100 5.0104135636e+00 -1.7841417502e-03 2.4712434561e+00 -4.2803192238e+00 2.4712434561e+00 4.2803192238e+00 
36200 5.0104106991e+00 -1.8096215115e-03 2.4712795542e+00 -4.2803817477e+00 2.4712795542e+00 4.2803817477e+00 
36300 5.0104081467e+00 -1.8304937154e-03 2.4713161674e+00 -4.2804451635e+00 2.4713161674e+00 4.2804451635e+00 
36400 5.0104059158e+00 -1.8468024634e-03 2.4713532023e+00 -4.2805093098e+00 2.4713532023e+00 4.2805093098e+00 
36500 5.0104040128e+00 -1.8586001717e-03 2.4713905666e+00 -4.2805740266e+00 2.4713905666e+00 4.2805740266e+00 
36600 5.0104024411e+00 -1.8659473277e-03 2.4714281690e+00 -4.2806391559e+00 2.4714281690e+00 4.2806391559e+00 
36700 5.0104012014e+00 -1.8689122344e-03 2.4714659194e+00 -4.2807045417e+00 2.4714659194e+00 4.2807045417e+00 
36800 5.0104002914e+00 -1.8675707442e-03 2.4715037293e+00 -4.2807700303e+00 2.4715037293e+00 4.2807700303e+00 
36900 5.0103997065e+00 -1.8620059811e-03 2.4715415115e+00 -4.2808354709e+00 2.4715415115e+00 4.2808354709e+00 
37000 5.0103994394e+00 -1.8523080531e-03 2.4715791805e+00 -4.2809007156e+00 2.4715791805e+00 4.2809007156e+00 
37100 5.0103994808e+00 -1.8385737547e-03 2.4716166528e+00 -4.2809656194e+00 2.4716166528e+00 4.2809656194e+00 
37200 5.0103998191e+00 -1.8209062600e-03 2.4716538466e+00 -4.2810300411e+00 2.4716538466e+00 4.2810300411e+00 
37300 5.0104004407e+00 -1.7994148078e-03 2.4716906825e+00 -4.2810938427e+00 2.4716906825e+00 4.2810938427e+00 
37400 5.0104013305e+00 -1.7742143782e-03 2.4717270831e+00 -4.2811568903e+00 2.4717270831e+00 4.2811568903e+00 
37500 5.0104024716e+00 -1.7454253624e-03 2.4717629733e+00 -4.2812190541e+00 2.4717629733e+00 4.2812190541e+00 
37600 5.0104038461e+00 -1.7131732259e-03 2.4717982807e+00 -4.2812802083e+00 2.4717982807e+00 4.2812802083e+00 
37700 5.0104054346e+00 -1.6775881656e-03 2.4718329352e+00 -4.2813402316e+00 2.4718329352e+00 4.2813402316e+00 
37800 5.0104072171e+00 -1.6388047622e-03 2.4718668694e+00 -4.2813990073e+00 2.4718668694e+00 4.2813990073e+00 
37900 5.0104091725e+00 -1.5969616285e-03 2.4719000186e+00 -4.2814564234e+00 2.4719000186e+00 4.2814564234e+00 
38000 5.0104112794e+00 -1.5522010533e-03 2.4719323209e+00 -4.2815123727e+00 2.4719323209e+00 4.2815123727e+00 
38100 5.0104135162e+00 -1.5046686436e-03 2.4719637175e+00 -4.2815667532e+00 2.4719637175e+00 4.2815667532e+00 
38200 5.0104158607e+00 -1.4545129643e-03 2.4719941523e+00 -4.2816194677e+00 2.4719941523e+00 4.2816194677e+00 
38300 5.0104182912e+00 -1.4018851770e-03 2.4720235721e+00 -4.2816704245e+00 2.4720235721e+00 4.2816704245e+00 
38400 5.0104207859e+00 -1.3469386787e-03 2.4720519272e+00 -4.2817195369e+00 2.4720519272e+00 4.2817195369e+00 
38500 5.0104233235e+00 -1.2898287405e-03 2.4720791706e+00 -4.2817667238e+00 2.4720791706e+00 4.2817667238e+00 
38600 5.0104258832e+00 -1.2307121485e-03 2.4721052586e+00 -4.2818119095e+00 2.4721052586e+00 4.2818119095e+00 
38700 5.0104284448e+00 -1.1697468461e-03 2.4721301506e+00 -4.2818550238e+00 2.4721301506e+00 4.2818550238e+00 
38800 5.0104309890e+00 -1.1070915801e-03 2.4721538093e+00 -4.2818960019e+00 2.4721538093e+00 4.2818960019e+00 
38900 5.0104334974e+00 -1.0429055496e-03 2.4721762006e+00 -4.2819347847e+00 2.4721762006e+00 4.2819347847e+00 
39000 5.0104359527e+00 -9.7734806084e-04 2.4721972935e+00 -4.2819713187e+00 2.4721972935e+00 4.2819713187e+00 
39100 5.0104383385e+00 -9.1057818637e-04 2.4722170603e+00 -4.2820055558e+00 2.4722170603e+00 4.2820055558e+00 
39200 5.0104406398e+00 -8.4275443080e-04 2.4722354766e+00 -4.2820374537e+00 2.4722354766e+00 4.2820374537e+00 
39300 5.0104428429e+00 -7.7403440346e-04 2.4722525210e+00 -4.2820669754e+00 2.4722525210e+00 4.2820669754e+00 
39400 5.0104449354e+00 -7.0457449858e-04 2.4722681754e+00 -4.2820940897e+00 2.4722681754e+00 4.2820940897e+00 
39500 5.0104469062e+00 -6.3452958386e-04 2.4722824250e+00 -4.2821187707e+00 2.4722824250e+00 4.2821187707e+00 
39600 5.0104487457e+00 -5.6405269783e-04 2.4722952579e+00 -4.2821409979e+00 2.4722952579e+00 4.2821409979e+00 
39700 5.0104504458e+00 -4.9329475702e-04 2.4723066653e+00 -4.2821607563e+00 2.4723066653e+00 4.2821607563e+00 
39800 5.0104519996e+00 -4.2240427305e-04 2.4723166418e+00 -4.2821780359e+00 2.4723166418e+00 4.2821780359e+00 
39900 5.0104534019e+00 -3.5152708062e-04 2.4723251844e+00 -4.2821928323e+00 2.4723251844e+00 4.2821928323e+00 
40000 5.0104546489e+00 -2.8080607665e-04 2.4723322937e+00 -4.2822051458e+00 2.4723322937e+00 4.2822051458e+00 
40100 5.0104557379e+00 -2.1038097113e-04 2.4723379727e+00 -4.2822149821e+00 2.4723379727e+00 4.2822149821e+00 
40200 5.0104566679e+00 -1.4038805014e-04 2.4723422274e+00 -4.2822223515e+00 2.4723422274e+00 4.2822223515e+00 
40300 5.0104574390e+00 -7.0959951367e-05 2.4723450665e+00 -4.2822272691e+00 2.4723450665e+00 4.2822272691e+00 
40400 5.0104580526e+00 -2.2254524930e-06 2.4723465016e+00 -4.2822297547e+00 2.4723465016e+00 4.2822297547e+00 
40500 5.0104585113e+00 6.5672589890e-05 2.4723465016e+00 -4.2822297547e+00 2.4723465016e+00 4.2822297547e+00 
40600 5.0104588191e+00 1.3318480946e-04 2.4723465016e+00 -4.2822297547e+00 2.4723465016e+00 4.2822297547e+00 
40700 5.0104589804e+00 1.9911838199e-04 2.4723438081e+00 -4.2822250894e+00 2.4723438081e+00 4.2822250894e+00 
40800 5.0104590010e+00 2.6388574584e-04 2.4723397812e+00 -4.2822181146e+00 2.4723397812e+00 4.2822181146e+00 
40900 5.0104588875e+00 3.2738005832e-04 2.4723344444e+00 -4.2822088711e+00 2.4723344444e+00 4.2822088711e+00 
41000 5.0104586473e+00 3.8949932676e-04 2.4723278236e+00 -4.2821974034e+00 2.4723278236e+00 4.2821974034e+00 
41100 5.0104582885e+00 4.5014652390e-04 2.4723199464e+00 -4.2821837597e+00 2.4723199464e+00 4.2821837597e+00 
41200 5.0104578196e+00 5.0922968940e-04 2.4723108427e+00 -4.2821679916e+00 2.4723108427e+00 4.2821679916e+00 
41300 5.0104572500e+00 5.6666201721e-04 2.4723005440e+00 -4.2821501538e+00 2.4723005440e+00 4.2821501538e+00 
41400 5.0104565892e+00 6.2236192925e-04 2.4722890838e+00 -4.2821303042e+00 2.4722890838e+00 4.2821303042e+00 
41500 5.0104558470e+00 6.7625313522e-04 2.4722764971e+00 -4.2821085033e+00 2.4722764971e+00 4.2821085033e+00 
41600 5.0104550337e+00 7.2826467897e-04 2.4722628204e+00 -4.2820848145e+00 2.4722628204e+00 4.2820848145e+00 
41700 5.0104541594e+00 7.7833097147e-04 2.4722480917e+00 -4.2820593037e+00 2.4722480917e+00 4.2820593037e+00 
41800 5.0104532345e+00 8.2639181070e-04 2.4722323503e+00 -4.2820320389e+00 2.4722323503e+00 4.2820320389e+00 
41900 5.0104522693e+00 8.7239238877e-04 2.4722156369e+00 -4.2820030903e+00 2.4722156369e+00 4.2820030903e+00 
42000 5.0104512738e+00 9.1628328649e-04 2.4721979929e+00 -4.2819725302e+00 2.4721979929e+00 4.2819725302e+00 
42100 5.0104502581e+00 9.5802045588e-04 2.4721794612e+00 -4.2819404323e+00 2.4721794612e+00 4.2819404323e+00 
42200 5.0104492317e+00 9.9756519081e-04 2.4721600852e+00 -4.2819068720e+00 2.4721600852e+00 4.2819068720e+00 
42300 5.0104482042e+00 1.0348840863e-03 2.4721399093e+00 -4.2818719262e+00 2.4721399093e+00 4.2818719262e+00 
42400 5.0104471842e+00 1.0699489869e-03 2.4721189783e+00 -4.2818356729e+00 2.4721189783e+00 4.2818356729e+00 
42500 5.0104461805e+00 1.1027369243e-03 2.4720973381e+00 -4.2817981908e+00 2.4720973381e+00 4.2817981908e+00 
42600 5.0104452009e+00 1.1332300453e-03 2.4720750344e+00 -4.2817595597e+00 2.4720750344e+00 4.2817595597e+00 
42700 5.0104442529e+00 1.1614155296e-03 2.4720521138e+00 -4.2817198601e+00 2.4720521138e+00 4.2817198601e+00 
42800 5.0104433434e+00 1.1872854991e-03 2.4720286229e+00 -4.2816791727e+00 2.4720286229e+00 4.2816791727e+00 
42900 5.0104424786e+00 1.2108369178e-03 2.4720046086e+00 -4.2816375786e+00 2.4720046086e+00 4.2816375786e+00 
43000 5.0104416640e+00 1.2320714842e-03 2.4719801176e+00 -4.2815951591e+00 2.4719801176e+00 4.2815951591e+00 
43100 5.0104409048e+00 1.2509955159e-03 2.4719551969e+00 -4.2815519951e+00 2.4719551969e+00 4.2815519951e+00 
43200 5.0104402051e+00 1.2676198265e-03 2.4719298932e+00 -4.2815081678e+00 2.4719298932e+00 4.2815081678e+00 
43300 5.0104395686e+00 1.2819595971e-03 2.4719042530e+00 -4.2814637576e+00 2.4719042530e+00 4.2814637576e+00 
43400 5.0104389981e+00 1.2940342401e-03 2.4718783224e+00 -4.2814188446e+00 2.4718783224e+00 4.2814188446e+00 
43500 5.0104384961e+00 1.3038672589e-03 2.4718521473e+00 -4.2813735080e+00 2.4718521473e+00 4.2813735080e+00 
43600 5.0104380641e+00 1.3114861013e-03 2.4718257731e+00 -4.2813278265e+00 2.4718257731e+00 4.2813278265e+00 
43700 5.0104377030e+00 1.3169220094e-03 2.4717992444e+00 -4.2812818775e+00 2.4717992444e+00 4.2812818775e+00 
43800 5.0104374132e+00 1.3202098641e-03 2.4717726056e+00 -4.2812357376e+00 2.4717726056e+00 4.2812357376e+00 
43900 5.0104371945e+00 1.3213880270e-03 2.4717458999e+00 -4.2811894820e+00 2.4717458999e+00 4.2811894820e+00 
44000 5.0104370461e+00 1.3204981792e-03 2.4717191701e+00 -4.2811431846e+00 2.4717191701e+00 4.2811431846e+00 
44100 5.0104369665e+00 1.3175851562e-03 2.4716924580e+00 -4.2810969179e+00 2.4716924580e+00 4.2810969179e+00 
44200 5.0104369539e+00 1.3126967822e-03 2.4716658045e+00 -4.2810507528e+00 2.4716658045e+00 4.2810507528e+00 
44300 5.0104370060e+00 1.3058837011e-03 2.4716392497e+00 -4.2810047584e+00 2.4716392497e+00 4.2810047584e+00 
44400 5.0104371200e+00 1.2971992074e-03 2.4716128324e+00 -4.2809590023e+00 2.4716128324e+00 4.2809590023e+00 
44500 5.0104372928e+00 1.2866990750e-03 2.4715865904e+00 -4.2809135500e+00 2.4715865904e+00 4.2809135500e+00 
44600 5.0104375208e+00 1.2744413867e-03 2.4715605607e+00 -4.2808684651e+00 2.4715605607e+00 4.2808684651e+00 
44700 5.0104378003e+00 1.2604863619e-03 2.4715347786e+00 -4.2808238092e+00 2.4715347786e+00 4.2808238092e+00 
44800 5.0104381272e+00 1.2448961863e-03 2.4715092786e+00 -4.2807796419e+00 2.4715092786e+00 4.2807796419e+00 
44900 5.0104384971e+00 1.2277348408e-03 2.4714840937e+00 -4.2807360203e+00 2.4714840937e+00 4.2807360203e+00 
45000 5.0104389058e+00 1.2090679316e-03 2.4714592557e+00 -4.2806929997e+00 2.4714592557e+00 4.2806929997e+00 
45100 5.0104393486e+00 1.1889625221e-03 2.4714347951e+00 -4.2806506328e+00 2.4714347951e+00 4.2806506328e+00 
45200 5.0104398208e+00 1.1674869655e-03 2.4714107411e+00 -4.2806089699e+00 2.4714107411e+00 4.2806089699e+00 
45300 5.0104403178e+00 1.1447107396e-03 2.4713871213e+00 -4.2805680592e+00 2.4713871213e+00 4.2805680592e+00 
45400 5.0104408348e+00 1.1207042836e-03 2.4713639620e+00 -4.2805279462e+00 2.4713639620e+00 4.2805279462e+00 
45500 5.0104413672e+00 1.0955388375e-03 2.4713412883e+00 -4.2804886741e+00 2.4713412883e+00 4.2804886741e+00 
45600 5.0104419104e+00 1.0692862834e-03 2.4713191234e+00 -4.2804502835e+00 2.4713191234e+00 4.2804502835e+00 
45700 5.0104424600e+00 1.0420189902e-03 2.4712974896e+00 -4.2804128125e+00 2.4712974896e+00 4.2804128125e+00 
45800 5.0104430115e+00 1.0138096613e-03 2.4712764072e+00 -4.2803762967e+00 2.4712764072e+00 4.2803762967e+00 
45900 5.0104435608e+00 9.8473118519e-04 2.4712558953e+00 -4.2803407692e+00 2.4712558953e+00 4.2803407692e+00 
46000 5.0104441038e+00 9.5485648954e-04 2.4712359716e+00 -4.2803062604e+00 2.4712359716e+00 4.2803062604e+00 
46100 5.0104446370e+00 9.2425839907e-04 2.4712166523e+00 -4.2802727982e+00 2.4712166523e+00 4.2802727982e+00 
46200 5.0104451566e+00 8.9300949696e-04 2.4711979518e+00 -4.2802404081e+00 2.4711979518e+00 4.2802404081e+00 
46300 5.0104456594e+00 8.6118199018e-04 2.4711798835e+00 -4.2802091128e+00 2.4711798835e+00 4.2802091128e+00 
46400 5.0104461425e+00 8.2884757889e-04 2.4711624590e+00 -4.2801789327e+00 2.4711624590e+00 4.2801789327e+00 
46500 5.0104466031e+00 7.9607732993e-04 2.4711456886e+00 -4.2801498856e+00 2.4711456886e+00 4.2801498856e+00 
46600 5.0104470389e+00 7.6294155463e-04 2.4711295812e+00 -4.2801219867e+00 2.4711295812e+00 4.2801219867e+00 
46700 5.0104474476e+00 7.2950969092e-04 2.4711141441e+00 -4.2800952489e+00 2.4711141441e+00 4.2800952489e+00 
46800 5.0104478274e+00 6.9585018987e-04 2.4710993834e+00 -4.2800696825e+00 2.4710993834e+00 4.2800696825e+00 
46900 5.0104481769e+00 6.6203040687e-04 2.4710853036e+00 -4.2800452957e+00 2.4710853036e+00 4.2800452957e+00 
47000 5.0104484949e+00 6.2811649733e-04 2.4710719081e+00 -4.2800220939e+00 2.4710719081e+00 4.2800220939e+00 
47100 5.0104487805e+00 5.9417331704e-04 2.4710591987e+00 -4.2800000806e+00 2.4710591987e+00 4.2800000806e+00 
47200 5.0104490330e+00 5.6026432733e-04 2.4710471761e+00 -4.2799792568e+00 2.4710471761e+00 4.2799792568e+00 
47300 5.0104492522e+00 5.2645150491e-04 2.4710358395e+00 -4.2799596213e+00 2.4710358395e+00 4.2799596213e+00 
47400 5.0104494380e+00 4.9279525661e-04 2.4710251871e+00 -4.2799411708e+00 2.4710251871e+00 4.2799411708e+00 
47500 5.0104495906e+00 4.5935433889e-04 2.4710152156e+00 -4.2799238997e+00 2.4710152156e+00 4.2799238997e+00 
47600 5.0104497106e+00 4.2618578221e-04 2.4710059207e+00 -4.2799078005e+00 2.4710059207e+00 4.2799078005e+00 
47700 5.0104497987e+00 3.9334482038e-04 2.4709972970e+00 -4.2798928638e+00 2.4709972970e+00 4.2798928638e+00 
47800 5.0104498557e+00 3.6088482464e-04 2.4709893378e+00 -4.2798790780e+00 2.4709893378e+00 4.2798790780e+00 
47900 5.0104498829e+00 3.2885724276e-04 2.4709820354e+00 -4.2798664298e+00 2.4709820354e+00 4.2798664298e+00 
48000 5.0104498816e+00 2.9731154296e-04 2.4709753810e+00 -4.2798549041e+00 2.4709753810e+00 4.2798549041e+00 
48100 5.0104498533e+00 2.6629516271e-04 2.4709693649e+00 -4.2798444840e+00 2.4709693649e+00 4.2798444840e+00 
48200 5.0104497996e+00 2.3585346240e-04 2.4709639764e+00 -4.2798351508e+00 2.4709639764e+00 4.2798351508e+00 
48300 5.0104497223e+00 2.0602968384e-04 2.4709592039e+00 -4.2798268846e+00 2.4709592039e+00 4.2798268846e+00 
48400 5.0104496234e+00 1.7686491354e-04 2.4709550349e+00 -4.2798196637e+00 2.4709550349e+00 4.2798196637e+00 
48500 5.0104495048e+00 1.4839805079e-04 2.4709514560e+00 -4.2798134649e+00 2.4709514560e+00 4.2798134649e+00 
48600 5.0104493685e+00 1.2066578042e-04 2.4709484532e+00 -4.2798082638e+00 2.4709484532e+00 4.2798082638e+00 
48700 5.0104492166e+00 9.3702550275e-05 2.4709460115e+00 -4.2798040347e+00 2.4709460115e+00 4.2798040347e+00 
48800 5.0104490513e+00 6.7540553328e-05 2.4709441154e+00 -4.2798007505e+00 2.4709441154e+00 4.2798007505e+00 
48900 5.0104488748e+00 4.2761700177e-05 2.4709441154e+00 -4.2798007505e+00 2.4709441154e+00 4.2798007505e+00 
49000 5.0104486890e+00 1.8650970928e-05 2.4709441154e+00 -4.2798007505e+00 2.4709441154e+00 4.2798007505e+00 
49100 5.0104484961e+00 -4.7650285957e-06 2.4709441154e+00 -4.2798007505e+00 2.4709441154e+00 4.2798007505e+00 
49200 5.0104482983e+00 -2.7461756098e-05 2.4709441154e+00 -4.2798007505e+00 2.4709441154e+00 4.2798007505e+00 
49300 5.0104480976e+00 -4.9416707896e-05 2.4709441154e+00 -4.2798007505e+00 2.4709441154e+00 4.2798007505e+00 
49400 5.0104478959e+00 -7.0609392652e-05 2.4709441154e+00 -4.2798007505e+00 2.4709441154e+00 4.2798007505e+00 
49500 5.0104476952e+00 -9.1021303725e-05 2.4709441154e+00 -4.2798007505e+00 2.4709441154e+00 4.2798007505e+00 
49600 5.0104474971e+00 -1.0989194163e-04 2.4709459572e+00 -4.2798039407e+00 2.4709459572e+00 4.2798039407e+00 
49700 5.0104473033e+00 -1.2777439283e-04 2.4709481809e+00 -4.2798077922e+00 2.4709481809e+00 4.2798077922e+00 
49800 5.0104471154e+00 -1.4465896625e-04 2.4709507665e+00 -4.2798122705e+00 2.4709507665e+00 4.2798122705e+00 
49900 5.0104469349e+00 -1.6053814106e-04 2.4709536936e+00 -4.2798173405e+00 2.4709536936e+00 4.2798173405e+00 
50000 5.0104467630e+00 -1.7540653510e-04 2.4709569422e+00 -4.2798229671e+00 2.4709569422e+00 4.2798229671e+00 
50100 5.0104466010e+00 -1.8926086992e-04 2.4709604915e+00 -4.2798291148e+00 2.4709604915e+00 4.2798291148e+00 
50200 5.0104464499e+00 -2.0209993241e-04 2.4709643212e+00 -4.2798357480e+00 2.4709643212e+00 4.2798357480e+00 
50300 5.0104463107e+00 -2.1392453328e-04 2.4709684107e+00 -4.2798428313e+00 2.4709684107e+00 4.2798428313e+00 
50400 5.0104461841e+00 -2.2473746238e-04 2.4709727395e+00 -4.2798503289e+00 2.4709727395e+00 4.2798503289e+00 
50500 5.0104460708e+00 -2.3454344116e-04 2.4709772870e+00 -4.2798582055e+00 2.4709772870e+00 4.2798582055e+00 
50600 5.0104459713e+00 -2.4334907226e-04 2.4709820330e+00 -4.2798664257e+00 2.4709820330e+00 4.2798664257e+00 
50700 5.0104458859e+00 -2.5116278647e-04 2.4709869571e+00 -4.2798749546e+00 2.4709869571e+00 4.2798749546e+00 
50800 5.0104458150e+00 -2.5799478714e-04 2.4709920394e+00 -4.2798837573e+00 2.4709920394e+00 4.2798837573e+00 
50900 5.0104457585e+00 -2.6385699227e-04 2.4709972598e+00 -4.2798927994e+00 2.4709972598e+00 4.2798927994e+00 
51000 5.0104457165e+00 -2.6876297429e-04 2.4710025989e+00 -4.2799020470e+00 2.4710025989e+00 4.2799020470e+00 
51100 5.0104456889e+00 -2.7272789791e-04 2.4710080373e+00 -4.2799114665e+00 2.4710080373e+00 4.2799114665e+00 
51200 5.0104456754e+00 -2.7576845588e-04 2.4710135558e+00 -4.2799210249e+00 2.4710135558e+00 4.2799210249e+00 
51300 5.0104456757e+00 -2.7790280319e-04 2.4710191359e+00 -4.2799306898e+00 2.4710191359e+00 4.2799306898e+00 
51400 5.0104456892e+00 -2.7915048951e-04 2.4710247591e+00 -4.2799404296e+00 2.4710247591e+00 4.2799404296e+00 
51500 5.0104457156e+00 -2.7953239033e-04 2.4710304076e+00 -4.2799502130e+00 2.4710304076e+00 4.2799502130e+00 
51600 5.0104457540e+00 -2.7907063666e-04 2.4710360638e+00 -4.2799600099e+00 2.4710360638e+00 4.2799600099e+00 
51700 5.0104458040e+00 -2.7778854382e-04 2.4710417106e+00 -4.2799697905e+00 2.4710417106e+00 4.2799697905e+00 
51800 5.0104458646e+00 -2.7571053912e-04 2.4710473315e+00 -4.2799795261e+00 2.4710473315e+00 4.2799795261e+00 
51900 5.0104459350e+00 -2.7286208877e-04 2.4710529103e+00 -4.2799891889e+00 2.4710529103e+00 4.2799891889e+00 
52000 5.0104460145e+00 -2.6926962429e-04 2.4710584315e+00 -4.2799987519e+00 2.4710584315e+00 4.2799987519e+00 
52100 5.0104461021e+00 -2.6496046824e-04 2.4710638800e+00 -4.2800081889e+00 2.4710638800e+00 4.2800081889e+00 
52200 5.0104461969e+00 -2.5996275983e-04 2.4710692413e+00 -4.2800174749e+00 2.4710692413e+00 4.2800174749e+00 
52300 5.0104462978e+00 -2.5430538025e-04 2.4710745014e+00 -4.2800265857e+00 2.4710745014e+00 4.2800265857e+00 
52400 5.0104464041e+00 -2.4801787809e-04 2.4710796470e+00 -4.2800354982e+00 2.4710796470e+00 4.2800354982e+00 
52500 5.0104465146e+00 -2.4113039482e-04 2.4710846654e+00 -4.2800441904e+00 2.4710846654e+00 4.2800441904e+00 
52600 5.0104466285e+00 -2.3367359068e-04 2.4710895445e+00 -4.2800526411e+00 2.4710895445e+00 4.2800526411e+00 
52700 5.0104467448e+00 -2.2567857095e-04 2.4710942726e+00 -4.2800608305e+00 2.4710942726e+00 4.2800608305e+00 
52800 5.0104468625e+00 -2.1717681285e-04 2.4710988390e+00 -4.2800687397e+00 2.4710988390e+00 4.2800687397e+00 
52900 5.0104469808e+00 -2.0820009313e-04 2.4711032333e+00 -4.2800763509e+00 2.4711032333e+00 4.2800763509e+00 
53000 5.0104470988e+00 -1.9878041668e-04 2.4711074460e+00 -4.2800836475e+00 2.4711074460e+00 4.2800836475e+00 
53100 5.0104472157e+00 -1.8894994592e-04 2.4711114681e+00 -4.2800906140e+00 2.4711114681e+00 4.2800906140e+00 
53200 5.0104473306e+00 -1.7874093156e-04 2.4711152913e+00 -4.2800972359e+00 2.4711152913e+00 4.2800972359e+00 
53300 5.0104474429e+00 -1.6818564450e-04 2.4711189079e+00 -4.2801035001e+00 2.4711189079e+00 4.2801035001e+00 
53400 5.0104475518e+00 -1.5731630912e-04 2.4711223109e+00 -4.2801093943e+00 2.4711223109e+00 4.2801093943e+00 
53500 5.0104476567e+00 -1.4616503811e-04 2.4711254940e+00 -4.2801149076e+00 2.4711254940e+00 4.2801149076e+00 
53600 5.0104477571e+00 -1.3476376889e-04 2.4711284515e+00 -4.2801200300e+00 2.4711284515e+00 4.2801200300e+00 
53700 5.0104478523e+00 -1.2314420171e-04 2.4711311783e+00 -4.2801247529e+00 2.4711311783e+00 4.2801247529e+00 
53800 5.0104479421e+00 -1.1133773967e-04 2.4711336699e+00 -4.2801290686e+00 2.4711336699e+00 4.2801290686e+00 
53900 5.0104480259e+00 -9.9375430465e-05 2.4711359227e+00 -4.2801329705e+00 2.4711359227e+00 4.2801329705e+00 
54000 5.0104481034e+00 -8.7287910303e-05 2.4711379334e+00 -4.2801364532e+00 2.4711379334e+00 4.2801364532e+00 
54100 5.0104481745e+00 -7.5105349765e-05 2.4711396996e+00 -4.2801395122e+00 2.4711396996e+00 4.2801395122e+00 
54200 5.0104482388e+00 -6.2857401882e-05 2.4711412192e+00 -4.2801421444e+00 2.4711412192e+00 4.2801421444e+00 
54300 5.0104482963e+00 -5.1086712584e-05 2.4711412192e+00 -4.2801421444e+00 2.4711412192e+00 4.2801421444e+00 
54400 5.0104483468e+00 -3.9222994680e-05 2.4711412192e+00 -4.2801421444e+00 2.4711412192e+00 4.2801421444e+00 
54500 5.0104483903e+00 -2.7291367291e-05 2.4711412192e+00 -4.2801421444e+00 2.4711412192e+00 4.2801421444e+00 
54600 5.0104484269e+00 -1.5316344627e-05 2.4711412192e+00 -4.2801421444e+00 2.4711412192e+00 4.2801421444e+00 
54700 5.0104484566e+00 -3.3218121688e-06 2.4711412192e+00 -4.2801421444e+00 2.4711412192e+00 4.2801421444e+00 
54800 5.0104484796e+00 8.6689958207e-06 2.4711412192e+00 -4.2801421444e+00 2.4711412192e+00 4.2801421444e+00 
54900 5.0104484960e+00 2.0633517413e-05 2.4711412192e+00 -4.2801421444e+00 2.4711412192e+00 4.2801421444e+00 
55000 5.0104485062e+00 3.2549882738e-05 2.4711412192e+00 -4.2801421444e+00 2.4711412192e+00 4.2801421444e+00 
55100 5.0104485104e+00 4.4396932325e-05 2.4711412192e+00 -4.2801421444e+00 2.4711412192e+00 4.2801421444e+00 
55200 5.0104485089e+00 5.6154234025e-05 2.4711412192e+00 -4.2801421444e+00 2.4711412192e+00 4.2801421444e+00 
55300 5.0104485021e+00 6.7802098511e-05 2.4711412192e+00 -4.2801421444e+00 2.4711412192e+00 4.2801421444e+00 
55400 5.0104484903e+00 7.9321593323e-05 2.4711412192e+00 -4.2801421444e+00 2.4711412192e+00 4.2801421444e+00 
55500 5.0104484738e+00 9.0046541047e-05 2.4711396143e+00 -4.2801393645e+00 2.4711396143e+00 4.2801393645e+00 
55600 5.0104484530e+00 1.0050080142e-04 2.4711377923e+00 -4.2801362087e+00 2.4711377923e+00 4.2801362087e+00 
55700 5.0104484285e+00 1.1066698051e-04 2.4711357588e+00 -4.2801326866e+00 2.4711357588e+00 4.2801326866e+00 
55800 5.0104484005e+00 1.2052871129e-04 2.4711335196e+00 -4.2801288082e+00 2.4711335196e+00 4.2801288082e+00 
55900 5.0104483697e+00 1.3007066388e-04 2.4711310809e+00 -4.2801245842e+00 2.4711310809e+00 4.2801245842e+00 
56000 5.0104483364e+00 1.3927855338e-04 2.4711284491e+00 -4.2801200258e+00 2.4711284491e+00 4.2801200258e+00 
56100 5.0104483010e+00 1.4813914533e-04 2.4711256310e+00 -4.2801151447e+00 2.4711256310e+00 4.2801151447e+00 
56200 5.0104482641e+00 1.5664025873e-04 2.4711226335e+00 -4.2801099530e+00 2.4711226335e+00 4.2801099530e+00 
56300 5.0104482260e+00 1.6477076698e-04 2.4711194641e+00 -4.2801044635e+00 2.4711194641e+00 4.2801044635e+00 
56400 5.0104481871e+00 1.7252059631e-04 2.4711161302e+00 -4.2800986889e+00 2.4711161302e+00 4.2800986889e+00 
56500 5.0104481480e+00 1.7988072227e-04 2.4711126395e+00 -4.2800926428e+00 2.4711126395e+00 4.2800926428e+00 
56600 5.0104481089e+00 1.8684316396e-04 2.4711089998e+00 -4.2800863387e+00 2.4711089998e+00 4.2800863387e+00 
56700 5.0104480703e+00 1.9340097620e-04 2.4711052192e+00 -4.2800797906e+00 2.4711052192e+00 4.2800797906e+00 
56800 5.0104480325e+00 1.9954823976e-04 2.4711013060e+00 -4.2800730126e+00 2.4711013060e+00 4.2800730126e+00 
56900 5.0104479958e+00 2.0528004966e-04 2.4710972684e+00 -4.2800660192e+00 2.4710972684e+00 4.2800660192e+00 
57000 5.0104479606e+00 2.1059250155e-04 2.4710931147e+00 -4.2800588250e+00 2.4710931147e+00 4.2800588250e+00 
57100 5.0104479272e+00 2.1548267642e-04 2.4710888536e+00 -4.2800514445e+00 2.4710888536e+00 4.2800514445e+00 
57200 5.0104478957e+00 2.1994862348e-04 2.4710844935e+00 -4.2800438926e+00 2.4710844935e+00 4.2800438926e+00 
57300 5.0104478664e+00 2.2398934149e-04 2.4710800431e+00 -4.2800361842e+00 2.4710800431e+00 4.2800361842e+00 
57400 5.0104478396e+00 2.2760475856e-04 2.4710755109e+00 -4.2800283342e+00 2.4710755109e+00 4.2800283342e+00 
57500 5.0104478153e+00 2.3079571041e-04 2.4710709055e+00 -4.2800203574e+00 2.4710709055e+00 4.2800203574e+00 
57600 5.0104477938e+00 2.3356391732e-04 2.4710662356e+00 -4.2800122689e+00 2.4710662356e+00 4.2800122689e+00 
57700 5.0104477752e+00 2.3591195972e-04 2.4710615096e+00 -4.2800040832e+00 2.4710615096e+00 4.2800040832e+00 
57800 5.0104477594e+00 2.3784325260e-04 2.4710567361e+00 -4.2799958153e+00 2.4710567361e+00 4.2799958153e+00 
57900 5.0104477467e+00 2.3936201877e-04 2.4710519235e+00 -4.2799874797e+00 2.4710519235e+00 4.2799874797e+00 
58000 5.0104477370e+00 2.4047326106e-04 2.4710470802e+00 -4.2799790908e+00 2.4710470802e+00 4.2799790908e+00 
58100 5.0104477302e+00 2.4118273359e-04 2.4710422144e+00 -4.2799706629e+00 2.4710422144e+00 4.2799706629e+00 
58200 5.0104477265e+00 2.4149691212e-04 2.4710373342e+00 -4.2799622102e+00 2.4710373342e+00 4.2799622102e+00 
58300 5.0104477257e+00 2.4142296363e-04 2.4710324476e+00 -4.2799537465e+00 2.4710324476e+00 4.2799537465e+00 
58400 5.0104477278e+00 2.4096871514e-04 2.4710275626e+00 -4.2799452853e+00 2.4710275626e+00 4.2799452853e+00 
58500 5.0104477327e+00 2.4014262199e-04 2.4710226867e+00 -4.2799368400e+00 2.4710226867e+00 4.2799368400e+00 
58600 5.0104477403e+00 2.3895373543e-04 2.4710178275e+00 -4.2799284237e+00 2.4710178275e+00 4.2799284237e+00 
58700 5.0104477504e+00 2.3741166989e-04 2.4710129924e+00 -4.2799200490e+00 2.4710129924e+00 4.2799200490e+00 
58800 5.0104477629e+00 2.3552656979e-04 2.4710081885e+00 -4.2799117284e+00 2.4710081885e+00 4.2799117284e+00 
58900 5.0104477776e+00 2.3330907597e-04 2.4710034227e+00 -4.2799034738e+00 2.4710034227e+00 4.2799034738e+00 
59000 5.0104477944e+00 2.3077029205e-04 2.4709987017e+00 -4.2798952969e+00 2.4709987017e+00 4.2798952969e+00 
59100 5.0104478131e+00 2.2792175044e-04 2.4709940322e+00 -4.2798872089e+00 2.4709940322e+00 4.2798872089e+00 
59200 5.0104478336e+00 2.2477537848e-04 2.4709894202e+00 -4.2798792208e+00 2.4709894202e+00 4.2798792208e+00 
59300 5.0104478555e+00 2.2134346431e-04 2.4709848719e+00 -4.2798713429e+00 2.4709848719e+00 4.2798713429e+00 
59400 5.0104478788e+00 2.1763862306e-04 2.4709803931e+00 -4.2798635853e+00 2.4709803931e+00 4.2798635853e+00 
59500 5.0104479031e+00 2.1367376296e-04 2.4709759892e+00 -4.2798559576e+00 2.4709759892e+00 4.2798559576e+00 
59600 5.0104479284e+00 2.0946205174e-04 2.4709716655e+00 -4.2798484688e+00 2.4709716655e+00 4.2798484688e+00 
59700 5.0104479544e+00 2.0501688327e-04 2.4709674271e+00 -4.2798411275e+00 2.4709674271e+00 4.2798411275e+00 
59800 5.0104479809e+00 2.0035184454e-04 2.4709632786e+00 -4.2798339421e+00 2.4709632786e+00 4.2798339421e+00 
59900 5.0104480077e+00 1.9548068295e-04 2.4709592244e+00 -4.2798269202e+00 2.4709592244e+00 4.2798269202e+00 
60000 5.0104480346e+00 1.9041727405e-04 2.4709552689e+00 -4.2798200689e+00 2.4709552689e+00 4.2798200689e+00 
60100 5.0104480615e+00 1.8517558988e-04 2.4709514158e+00 -4.2798133951e+00 2.4709514158e+00 4.2798133951e+00 
60200 5.0104480881e+00 1.7976966765e-04 2.4709476687e+00 -4.2798069051e+00 2.4709476687e+00 4.2798069051e+00 
60300 5.0104481143e+00 1.7421357923e-04 2.4709440311e+00 -4.2798006044e+00 2.4709440311e+00 4.2798006044e+00 
60400 5.0104481400e+00 1.6852140108e-04 2.4709405058e+00 -4.2797944985e+00 2.4709405058e+00 4.2797944985e+00 
60500 5.0104481649e+00 1.6270718503e-04 2.4709370957e+00 -4.2797885921e+00 2.4709370957e+00 4.2797885921e+00 
60600 5.0104481890e+00 1.5678492966e-04 2.4709338033e+00 -4.2797828895e+00 2.4709338033e+00 4.2797828895e+00 
60700 5.0104482122e+00 1.5076855253e-04 2.4709306307e+00 -4.2797773944e+00 2.4709306307e+00 4.2797773944e+00 
60800 5.0104482342e+00 1.4467186319e-04 2.4709275799e+00 -4.2797721102e+00 2.4709275799e+00 4.2797721102e+00 
60900 5.0104482551e+00 1.3850853698e-04 2.4709246524e+00 -4.2797670397e+00 2.4709246524e+00 4.2797670397e+00 
61000 5.0104482747e+00 1.3229208981e-04 2.4709218496e+00 -4.2797621851e+00 2.4709218496e+00 4.2797621851e+00 
61100 5.0104482930e+00 1.2603585376e-04 2.4709191727e+00 -4.2797575485e+00 2.4709191727e+00 4.2797575485e+00 
61200 5.0104483099e+00 1.1975295361e-04 2.4709166223e+00 -4.2797531311e+00 2.4709166223e+00 4.2797531311e+00 
61300 5.0104483254e+00 1.1345628438e-04 2.4709141990e+00 -4.2797489339e+00 2.4709141990e+00 4.2797489339e+00 
61400 5.0104483394e+00 1.0715848982e-04 2.4709119032e+00 -4.2797449574e+00 2.4709119032e+00 4.2797449574e+00 
61500 5.0104483519e+00 1.0087194185e-04 2.4709097348e+00 -4.2797412016e+00 2.4709097348e+00 4.2797412016e+00 
61600 5.0104483629e+00 9.4608721150e-05 2.4709076936e+00 -4.2797376662e+00 2.4709076936e+00 4.2797376662e+00 
61700 5.0104483725e+00 8.8380598621e-05 2.4709057792e+00 -4.2797343502e+00 2.4709057792e+00 4.2797343502e+00 
61800 5.0104483805e+00 8.2199018016e-05 2.4709039907e+00 -4.2797312526e+00 2.4709039907e+00 4.2797312526e+00 
61900 5.0104483872e+00 7.6075079588e-05 2.4709023274e+00 -4.2797283716e+00 2.4709023274e+00 4.2797283716e+00 
62000 5.0104483924e+00 7.0019524758e-05 2.4709007880e+00 -4.2797257052e+00 2.4709007880e+00 4.2797257052e+00 
62100 5.0104483964e+00 6.4614975327e-05 2.4709007880e+00 -4.2797257052e+00 2.4709007880e+00 4.2797257052e+00 
62200 5.0104483990e+00 5.9267251284e-05 2.4709007880e+00 -4.2797257052e+00 2.4709007880e+00 4.2797257052e+00 
62300 5.0104484003e+00 5.3985584608e-05 2.4709007880e+00 -4.2797257052e+00 2.4709007880e+00 4.2797257052e+00 
62400 5.0104484005e+00 4.8778797375e-05 2.4709007880e+00 -4.2797257052e+00 2.4709007880e+00 4.2797257052e+00 
62500 5.0104483996e+00 4.3655301173e-05 2.4709007880e+00 -4.2797257052e+00 2.4709007880e+00 4.2797257052e+00 
62600 5.0104483976e+00 3.8623096960e-05 2.4709007880e+00 -4.2797257052e+00 2.4709007880e+00 4.2797257052e+00 
62700 5.0104483947e+00 3.3689775285e-05 2.4709007880e+00 -4.2797257052e+00 2.4709007880e+00 4.2797257052e+00 
62800 5.0104483910e+00 2.8862516965e-05 2.4709007880e+00 -4.2797257052e+00 2.4709007880e+00 4.2797257052e+00 
62900 5.0104483865e+00 2.4148094147e-05 2.4709007880e+00 -4.2797257052e+00 2.4709007880e+00 4.2797257052e+00 
63000 5.0104483813e+00 1.9552871784e-05 2.4709007880e+00 -4.2797257052e+00 2.4709007880e+00 4.2797257052e+00 
63100 5.0104483756e+00 1.5082809505e-05 2.4709007880e+00 -4.2797257052e+00 2.4709007880e+00 4.2797257052e+00 
63200 5.0104483695e+00 1.0743463899e-05 2.4709007880e+00 -4.2797257052e+00 2.4709007880e+00 4.2797257052e+00 
63300 5.0104483629e+00 6.5399911935e-06 2.4709007880e+00 -4.2797257052e+00 2.4709007880e+00 4.2797257052e+00 
63400 5.0104483561e+00 2.4771503319e-06 2.4709007880e+00 -4.2797257052e+00 2.4709007880e+00 4.2797257052e+00 
63500 5.0104483491e+00 -1.4406935703e-06 2.4709007880e+00 -4.2797257052e+00 2.4709007880e+00 4.2797257052e+00 
63600 5.0104483421e+00 -5.2095653584e-06 2.4709007880e+00 -4.2797257052e+00 2.4709007880e+00 4.2797257052e+00 
63700 5.0104483350e+00 -8.8258756067e-06 2.4709007880e+00 -4.2797257052e+00 2.4709007880e+00 4.2797257052e+00 
63800 5.0104483279e+00 -1.2286416007e-05 2.4709007880e+00 -4.2797257052e+00 2.4709007880e+00 4.2797257052e+00 
63900 5.0104483210e+00 -1.5588354346e-05 2.4709007880e+00 -4.2797257052e+00 2.4709007880e+00 4.2797257052e+00 
64000 5.0104483144e+00 -1.8729229169e-05 2.4709007880e+00 -4.2797257052e+00 2.4709007880e+00 4.2797257052e+00 
64100 5.0104483080e+00 -2.1706944046e-05 2.4709007880e+00 -4.2797257052e+00 2.4709007880e+00 4.2797257052e+00 
64200 5.0104483020e+00 -2.4519761492e-05 2.4709007880e+00 -4.2797257052e+00 2.4709007880e+00 4.2797257052e+00 
64300 5.0104482963e+00 -2.7166296533e-05 2.4709007880e+00 -4.2797257052e+00 2.4709007880e+00 4.2797257052e+00 
64400 5.0104482912e+00 -2.9645509953e-05 2.4709007880e+00 -4.2797257052e+00 2.4709007880e+00 4.2797257052e+00 
64500 5.0104482865e+00 -3.1956701168e-05 2.4709007880e+00 -4.2797257052e+00 2.4709007880e+00 4.2797257052e+00 
64600 5.0104482823e+00 -3.4099500840e-05 2.4709007880e+00 -4.2797257052e+00 2.4709007880e+00 4.2797257052e+00 
64700 5.0104482787e+00 -3.6073863125e-05 2.4709007880e+00 -4.2797257052e+00 2.4709007880e+00 4.2797257052e+00 
64800 5.0104482757e+00 -3.7880057648e-05 2.4709007880e+00 -4.2797257052e+00 2.4709007880e+00 4.2797257052e+00 
64900 5.0104482733e+00 -3.9518661182e-05 2.4709007880e+00 -4.2797257052e+00 2.4709007880e+00 4.2797257052e+00 
65000 5.0104482715e+00 -4.0990549063e-05 2.4709007880e+00 -4.2797257052e+00 2.4709007880e+00 4.2797257052e+00 
65100 5.0104482703e+00 -4.2296886319e-05 2.4709007880e+00 -4.2797257052e+00 2.4709007880e+00 4.2797257052e+00 
65200 5.0104482697e+00 -4.3439118565e-05 2.4709007880e+00 -4.2797257052e+00 2.4709007880e+00 4.2797257052e+00 
65300 5.0104482698e+00 -4.4418962645e-05 2.4709007880e+00 -4.2797257052e+00 2.4709007880e+00 4.2797257052e+00 
65400 5.0104482704e+00 -4.5238397087e-05 2.4709007880e+00 -4.2797257052e+00 2.4709007880e+00 4.2797257052e+00 
65500 5.0104482717e+00 -4.5899652306e-05 2.4709007880e+00 -4.2797257052e+00 2.4709007880e+00 4.2797257052e+00 
65600 5.0104482735e+00 -4.6405200634e-05 2.4709007880e+00 -4.2797257052e+00 2.4709007880e+00 4.2797257052e+00 
65700 5.0104482759e+00 -4.6757746174e-05 2.4709007880e+00 -4.2797257052e+00 2.4709007880e+00 4.2797257052e+00 
65800 5.0104482788e+00 -4.6960214491e-05 2.4709007880e+00 -4.2797257052e+00 2.4709007880e+00 4.2797257052e+00 
65900 5.0104482822e+00 -4.7015742167e-05 2.4709007880e+00 -4.2797257052e+00 2.4709007880e+00 4.2797257052e+00 
66000 5.0104482860e+00 -4.6927666204e-05 2.4709007880e+00 -4.2797257052e+00 2.4709007880e+00 4.2797257052e+00 
66100 5.0104482903e+00 -4.6699513342e-05 2.4709007880e+00 -4.2797257052e+00 2.4709007880e+00 4.2797257052e+00 
66200 5.0104482950e+00 -4.6334989274e-05 2.4709007880e+00 -4.2797257052e+00 2.4709007880e+00 4.2797257052e+00 
66300 5.0104483000e+00 -4.5837967771e-05 2.4709007880e+00 -4.2797257052e+00 2.4709007880e+00 4.2797257052e+00 
66400 5.0104483054e+00 -4.5212479770e-05 2.4709007880e+00 -4.2797257052e+00 2.4709007880e+00 4.2797257052e+00 
66500 5.0104483110e+00 -4.4462702406e-05 2.4709007880e+00 -4.2797257052e+00 2.4709007880e+00 4.2797257052e+00 
66600 5.0104483168e+00 -4.3592948027e-05 2.4709007880e+00 -4.2797257052e+00 2.4709007880e+00 4.2797257052e+00 
66700 5.0104483228e+00 -4.2607653207e-05 2.4709007880e+00 -4.2797257052e+00 2.4709007880e+00 4.2797257052e+00 
66800 5.0104483290e+00 -4.1511367752e-05 2.4709007880e+00 -4.2797257052e+00 2.4709007880e+00 4.2797257052e+00 
66900 5.0104483352e+00 -4.0308743753e-05 2.4709007880e+00 -4.2797257052e+00 2.4709007880e+00 4.2797257052e+00 
67000 5.0104483415e+00 -3.9004524687e-05 2.4709007880e+00 -4.2797257052e+00 2.4709007880e+00 4.2797257052e+00 
67100 5.0104483479e+00 -3.7603534575e-05 2.4709007880e+00 -4.2797257052e+00 2.4709007880e+00 4.2797257052e+00 
67200 5.0104483542e+00 -3.6110667220e-05 2.4709007880e+00 -4.2797257052e+00 2.4709007880e+00 4.2797257052e+00 
67300 5.0104483604e+00 -3.4530875541e-05 2.4709007880e+00 -4.2797257052e+00 2.4709007880e+00 4.2797257052e+00 
67400 5.0104483666e+00 -3.2869161034e-05 2.4709007880e+00 -4.2797257052e+00 2.4709007880e+00 4.2797257052e+00 
67500 5.0104483727e+00 -3.1130563348e-05 2.4709007880e+00 -4.2797257052e+00 2.4709007880e+00 4.2797257052e+00 
67600 5.0104483786e+00 -2.9320150028e-05 2.4709007880e+00 -4.2797257052e+00 2.4709007880e+00 4.2797257052e+00 
67700 5.0104483843e+00 -2.7443006392e-05 2.4709007880e+00 -4.2797257052e+00 2.4709007880e+00 4.2797257052e+00 
67800 5.0104483898e+00 -2.5504225623e-05 2.4709007880e+00 -4.2797257052e+00 2.4709007880e+00 4.2797257052e+00 
67900 5.0104483951e+00 -2.3508899002e-05 2.4709007880e+00 -4.2797257052e+00 2.4709007880e+00 4.2797257052e+00 
68000 5.0104484001e+00 -2.1462106395e-05 2.4709007880e+00 -4.2797257052e+00 2.4709007880e+00 4.2797257052e+00 
68100 5.0104484049e+00 -1.9368906938e-05 2.4709007880e+00 -4.2797257052e+00 2.4709007880e+00 4.2797257052e+00 
68200 5.0104484093e+00 -1.7234329939e-05 2.4709007880e+00 -4.2797257052e+00 2.4709007880e+00 4.2797257052e+00 
68300 5.0104484135e+00 -1.5063366067e-05 2.4709007880e+00 -4.2797257052e+00 2.4709007880e+00 4.2797257052e+00 
68400 5.0104484174e+00 -1.2860958753e-05 2.4709007880e+00 -4.2797257052e+00 2.4709007880e+00 4.2797257052e+00 
68500 5.0104484210e+00 -1.0631995869e-05 2.4709007880e+00 -4.2797257052e+00 2.4709007880e+00 4.2797257052e+00 
68600 5.0104484243e+00 -8.3813017106e-06 2.4709007880e+00 -4.2797257052e+00 2.4709007880e+00 4.2797257052e+00 
68700 5.0104484272e+00 -6.1136292318e-06 2.4709007880e+00 -4.2797257052e+00 2.4709007880e+00 4.2797257052e+00 
68800 5.0104484299e+00 -3.8336526046e-06 2.4709007880e+00 -4.2797257052e+00 2.4709007880e+00 4.2797257052e+00 
68900 5.0104484322e+00 -1.5459600612e-06 2.4709007880e+00 -4.2797257052e+00 2.4709007880e+00 4.2797257052e+00 
69000 5.0104484342e+00 7.4495295189e-07 2.4709007880e+00 -4.2797257052e+00 2.4709007880e+00 4.2797257052e+00 
69100 5.0104484360e+00 3.0346902607e-06 2.4709007880e+00 -4.2797257052e+00 2.4709007880e+00 4.2797257052e+00 
69200 5.0104484374e+00 5.3189611868e-06 2.4709007880e+00 -4.2797257052e+00 2.4709007880e+00 4.2797257052e+00 
69300 5.0104484386e+00 7.5935863837e-06 2.4709007880e+00 -4.2797257052e+00 2.4709007880e+00 4.2797257052e+00 
69400 5.0104484395e+00 9.8545033888e-06 2.4709007880e+00 -4.2797257052e+00 2.4709007880e+00 4.2797257052e+00 
69500 5.0104484402e+00 1.2097771783e-05 2.4709007880e+00 -4.2797257052e+00 2.4709007880e+00 4.2797257052e+00 
69600 5.0104484406e+00 1.4319578038e-05 2.4709007880e+00 -4.2797257052e+00 2.4709007880e+00 4.2797257052e+00 
69700 5.0104484408e+00 1.6516240035e-05 2.4709007880e+00 -4.2797257052e+00 2.4709007880e+00 4.2797257052e+00 
69800 5.0104484409e+00 1.8684211192e-05 2.4709007880e+00 -4.2797257052e+00 2.4709007880e+00 4.2797257052e+00 
69900 5.0104484407e+00 2.0820084263e-05 2.4709007880e+00 -4.2797257052e+00 2.4709007880e+00 4.2797257052e+00 
70000 5.0104484404e+00 2.2920594817e-05 2.4709007880e+00 -4.2797257052e+00 2.4709007880e+00 4.2797257052e+00 
70100 5.0104484400e+00 2.4982624318e-05 2.4709007880e+00 -4.2797257052e+00 2.4709007880e+00 4.2797257052e+00 
70200 5.0104484394e+00 2.7003202891e-05 2.4709007880e+00 -4.2797257052e+00 2.4709007880e+00 4.2797257052e+00 
70300 5.0104484387e+00 2.8979511725e-05 2.4709007880e+00 -4.2797257052e+00 2.4709007880e+00 4.2797257052e+00 
70400 5.0104484379e+00 3.0908885166e-05 2.4709007880e+00 -4.2797257052e+00 2.4709007880e+00 4.2797257052e+00 
70500 5.0104484371e+00 3.2788812410e-05 2.4709007880e+00 -4.2797257052e+00 2.4709007880e+00 4.2797257052e+00 
70600 5.0104484363e+00 3.4616938916e-05 2.4709007880e+00 -4.2797257052e+00 2.4709007880e+00 4.2797257052e+00 
70700 5.0104484354e+00 3.6391067468e-05 2.4709007880e+00 -4.2797257052e+00 2.4709007880e+00 4.2797257052e+00 
70800 5.0104484345e+00 3.8109158880e-05 2.4709007880e+00 -4.2797257052e+00 2.4709007880e+00 4.2797257052e+00 
70900 5.0104484336e+00 3.9769332424e-05 2.4709007880e+00 -4.2797257052e+00 2.4709007880e+00 4.2797257052e+00 
71000 5.0104484327e+00 4.1369865919e-05 2.4709007880e+00 -4.2797257052e+00 2.4709007880e+00 4.2797257052e+00 
71100 5.0104484318e+00 4.2909195502e-05 2.4709007880e+00 -4.2797257052e+00 2.4709007880e+00 4.2797257052e+00 
71200 5.0104484310e+00 4.4385915112e-05 2.4709007880e+00 -4.2797257052e+00 2.4709007880e+00 4.2797257052e+00 
71300 5.0104484303e+00 4.5798775661e-05 2.4709007880e+00 -4.2797257052e+00 2.4709007880e+00 4.2797257052e+00 
71400 5.0104484296e+00 4.7146683940e-05 2.4709007880e+00 -4.2797257052e+00 2.4709007880e+00 4.2797257052e+00 
71500 5.0104484291e+00 4.8428701211e-05 2.4709007880e+00 -4.2797257052e+00 2.4709007880e+00 4.2797257052e+00 
71600 5.0104484286e+00 4.9644041573e-05 2.4709007880e+00 -4.2797257052e+00 2.4709007880e+00 4.2797257052e+00 
71700 5.0104484282e+00 5.0792070018e-05 2.4709007880e+00 -4.2797257052e+00 2.4709007880e+00 4.2797257052e+00 
71800 5.0104484279e+00 5.1872300260e-05 2.4709007880e+00 -4.2797257052e+00 2.4709007880e+00 4.2797257052e+00 
71900 5.0104484277e+00 5.2884392317e-05 2.4709007880e+00 -4.2797257052e+00 2.4709007880e+00 4.2797257052e+00 
72000 5.0104484277e+00 5.3828149860e-05 2.4709007880e+00 -4.2797257052e+00 2.4709007880e+00 4.2797257052e+00 
72100 5.0104484277e+00 5.4703517325e-05 2.4709007880e+00 -4.2797257052e+00 2.4709007880e+00 4.2797257052e+00 
72200 5.0104484279e+00 5.5510576838e-05 2.4709007880e+00 -4.2797257052e+00 2.4709007880e+00 4.2797257052e+00 
72300 5.0104484282e+00 5.6249544913e-05 2.4709007880e+00 -4.2797257052e+00 2.4709007880e+00 4.2797257052e+00 
72400 5.0104484286e+00 5.6920768959e-05 2.4709007880e+00 -4.2797257052e+00 2.4709007880e+00 4.2797257052e+00 
72500 5.0104484291e+00 5.7524723631e-05 2.4709007880e+00 -4.2797257052e+00 2.4709007880e+00 4.2797257052e+00 
72600 5.0104484298e+00 5.8062006986e-05 2.4709007880e+00 -4.2797257052e+00 2.4709007880e+00 4.2797257052e+00 
72700 5.0104484305e+00 5.8533336480e-05 2.4709007880e+00 -4.2797257052e+00 2.4709007880e+00 4.2797257052e+00 
72800 5.0104484314e+00 5.8939544844e-05 2.4709007880e+00 -4.2797257052e+00 2.4709007880e+00 4.2797257052e+00 
72900 5.0104484324e+00 5.9281575785e-05 2.4709007880e+00 -4.2797257052e+00 2.4709007880e+00 4.2797257052e+00 
73000 5.0104484334e+00 5.9560479604e-05 2.4709007880e+00 -4.2797257052e+00 2.4709007880e+00 4.2797257052e+00 
73100 5.0104484346e+00 5.9777408665e-05 2.4709007880e+00 -4.2797257052e+00 2.4709007880e+00 4.2797257052e+00 
73200 5.0104484358e+00 5.9933612785e-05 2.4709007880e+00 -4.2797257052e+00 2.4709007880e+00 4.2797257052e+00 
73300 5.0104484371e+00 6.0030434518e-05 2.4709007880e+00 -4.2797257052e+00 2.4709007880e+00 4.2797257052e+00 
73400 5.0104484384e+00 6.0069304386e-05 2.4709007880e+00 -4.2797257052e+00 2.4709007880e+00 4.2797257052e+00 
73500 5.0104484399e+00 6.0051735991e-05 2.4709007880e+00 -4.2797257052e+00 2.4709007880e+00 4.2797257052e+00 
73600 5.0104484413e+00 5.9979321135e-05 2.4709007880e+00 -4.2797257052e+00 2.4709007880e+00 4.2797257052e+00 
73700 5.0104484429e+00 5.9853724832e-05 2.4709007880e+00 -4.2797257052e+00 2.4709007880e+00 4.2797257052e+00 
73800 5.0104484444e+00 5.9676680341e-05 2.4709007880e+00 -4.2797257052e+00 2.4709007880e+00 4.2797257052e+00 
73900 5.0104484460e+00 5.9449984118e-05 2.4709007880e+00 -4.2797257052e+00 2.4709007880e+00 4.2797257052e+00 
74000 5.0104484476e+00 5.9175490803e-05 2.4709007880e+00 -4.2797257052e+00 2.4709007880e+00 4.2797257052e+00 
74100 5.0104484491e+00 5.8855108173e-05 2.4709007880e+00 -4.2797257052e+00 2.4709007880e+00 4.2797257052e+00 
74200 5.0104484507e+00 5.8490792113e-05 2.4709007880e+00 -4.2797257052e+00 2.4709007880e+00 4.2797257052e+00 
74300 5.0104484523e+00 5.8084541594e-05 2.4709007880e+00 -4.2797257052e+00 2.4709007880e+00 4.2797257052e+00 
74400 5.0104484539e+00 5.7638393696e-05 2.4709007880e+00 -4.2797257052e+00 2.4709007880e+00 4.2797257052e+00 
74500 5.0104484555e+00 5.7154418632e-05 2.4709007880e+00 -4.2797257052e+00 2.4709007880e+00 4.2797257052e+00 
74600 5.0104484570e+00 5.6634714855e-05 2.4709007880e+00 -4.2797257052e+00 2.4709007880e+00 4.2797257052e+00 
74700 5.0104484585e+00 5.6081404187e-05 2.4709007880e+00 -4.2797257052e+00 2.4709007880e+00 4.2797257052e+00 
74800 5.0104484599e+00 5.5496627035e-05 2.4709007880e+00 -4.2797257052e+00 2.4709007880e+00 4.2797257052e+00 
74900 5.0104484613e+00 5.4882537640e-05 2.4709007880e+00 -4.2797257052e+00 2.4709007880e+00 4.2797257052e+00 
75000 5.0104484627e+00 5.4241299449e-05 2.4709007880e+00 -4.2797257052e+00 2.4709007880e+00 4.2797257052e+00 
75100 5.0104484640e+00 5.3575080530e-05 2.4709007880e+00 -4.2797257052e+00 2.4709007880e+00 4.2797257052e+00 
75200 5.0104484652e+00 5.2886049114e-05 2.4709007880e+00 -4.2797257052e+00 2.4709007880e+00 4.2797257052e+00 
75300 5.0104484664e+00 5.2176369200e-05 2.4709007880e+00 -4.2797257052e+00 2.4709007880e+00 4.2797257052e+00 
75400 5.0104484675e+00 5.1448196312e-05 2.4709007880e+00 -4.2797257052e+00 2.4709007880e+00 4.2797257052e+00 
75500 5.0104484686e+00 5.0703673315e-05 2.4709007880e+00 -4.2797257052e+00 2.4709007880e+00 4.2797257052e+00 
75600 5.0104484696e+00 4.9944926384e-05 2.4709007880e+00 -4.2797257052e+00 2.4709007880e+00 4.2797257052e+00 
75700 5.0104484705e+00 4.9174061095e-05 2.4709007880e+00 -4.2797257052e+00 2.4709007880e+00 4.2797257052e+00 
75800 5.0104484714e+00 4.8393158628e-05 2.4709007880e+00 -4.2797257052e+00 2.4709007880e+00 4.2797257052e+00 
75900 5.0104484721e+00 4.7604272103e-05 2.4709007880e+00 -4.2797257052e+00 2.4709007880e+00 4.2797257052e+00 
76000 5.0104484729e+00 4.6809423080e-05 2.4709007880e+00 -4.2797257052e+00 2.4709007880e+00 4.2797257052e+00 
76100 5.0104484735e+00 4.6010598168e-05 2.4709007880e+00 -4.2797257052e+00 2.4709007880e+00 4.2797257052e+00 
76200 5.0104484741e+00 4.5209745793e-05 2.4709007880e+00 -4.2797257052e+00 2.4709007880e+00 4.2797257052e+00 
76300 5.0104484747e+00 4.4408773121e-05 2.4709007880e+00 -4.2797257052e+00 2.4709007880e+00 4.2797257052e+00 
76400 5.0104484752e+00 4.3609543133e-05 2.4709007880e+00 -4.2797257052e+00 2.4709007880e+00 4.2797257052e+00 
76500 5.0104484756e+00 4.2813871815e-05 2.4709007880e+00 -4.2797257052e+00 2.4709007880e+00 4.2797257052e+00 
76600 5.0104484760e+00 4.2023525575e-05 2.4709007880e+00 -4.2797257052e+00 2.4709007880e+00 4.2797257052e+00 
76700 5.0104484763e+00 4.1240218756e-05 2.4709007880e+00 -4.2797257052e+00 2.4709007880e+00 4.2797257052e+00 
76800 5.0104484766e+00 4.0465611334e-05 2.4709007880e+00 -4.2797257052e+00 2.4709007880e+00 4.2797257052e+00 
76900 5.0104484768e+00 3.9701306787e-05 2.4709007880e+00 -4.2797257052e+00 2.4709007880e+00 4.2797257052e+00 
77000 5.0104484770e+00 3.8948850091e-05 2.4709007880e+00 -4.2797257052e+00 2.4709007880e+00 4.2797257052e+00 
77100 5.0104484772e+00 3.8209725918e-05 2.4709007880e+00 -4.2797257052e+00 2.4709007880e+00 4.2797257052e+00 
77200 5.0104484773e+00 3.7485356966e-05 2.4709007880e+00 -4.2797257052e+00 2.4709007880e+00 4.2797257052e+00 
77300 5.0104484774e+00 3.6777102478e-05 2.4709007880e+00 -4.2797257052e+00 2.4709007880e+00 4.2797257052e+00 
77400 5.0104484775e+00 3.6086256889e-05 2.4709007880e+00 -4.2797257052e+00 2.4709007880e+00 4.2797257052e+00 
77500 5.0104484776e+00 3.5414048657e-05 2.4709007880e+00 -4.2797257052e+00 2.4709007880e+00 4.2797257052e+00 
77600 5.0104484776e+00 3.4761639268e-05 2.4709007880e+00 -4.2797257052e+00 2.4709007880e+00 4.2797257052e+00 
77700 5.0104484776e+00 3.4130122341e-05 2.4709007880e+00 -4.2797257052e+00 2.4709007880e+00 4.2797257052e+00 
77800 5.0104484777e+00 3.3520522961e-05 2.4709007880e+00 -4.2797257052e+00 2.4709007880e+00 4.2797257052e+00 
77900 5.0104484777e+00 3.2933797120e-05 2.4709007880e+00 -4.2797257052e+00 2.4709007880e+00 4.2797257052e+00 
78000 5.0104484777e+00 3.2370831318e-05 2.4709007880e+00 -4.2797257052e+00 2.4709007880e+00 4.2797257052e+00 
78100 5.0104484777e+00 3.1832442334e-05 2.4709007880e+00 -4.2797257052e+00 2.4709007880e+00 4.2797257052e+00 
78200 5.0104484778e+00 3.1319377103e-05 2.4709007880e+00 -4.2797257052e+00 2.4709007880e+00 4.2797257052e+00 
78300 5.0104484778e+00 3.0832312791e-05 2.4709007880e+00 -4.2797257052e+00 2.4709007880e+00 4.2797257052e+00 
78400 5.0104484778e+00 3.0371856965e-05 2.4709007880e+00 -4.2797257052e+00 2.4709007880e+00 4.2797257052e+00 
78500 5.0104484779e+00 2.9938547925e-05 2.4709007880e+00 -4.2797257052e+00 2.4709007880e+00 4.2797257052e+00 
78600 5.0104484780e+00 2.9532855135e-05 2.4709007880e+00 -4.2797257052e+00 2.4709007880e+00 4.2797257052e+00 
78700 5.0104484780e+00 2.9155179853e-05 2.4709007880e+00 -4.2797257052e+00 2.4709007880e+00 4.2797257052e+00 
78800 5.0104484782e+00 2.8805855812e-05 2.4709007880e+00 -4.2797257052e+00 2.4709007880e+00 4.2797257052e+00 
78900 5.0104484783e+00 2.8485150064e-05 2.4709007880e+00 -4.2797257052e+00 2.4709007880e+00 4.2797257052e+00 
79000 5.0104484784e+00 2.8193263932e-05 2.4709007880e+00 -4.2797257052e+00 2.4709007880e+00 4.2797257052e+00 
79100 5.0104484786e+00 2.7930334075e-05 2.4709007880e+00 -4.2797257052e+00 2.4709007880e+00 4.2797257052e+00 
79200 5.0104484788e+00 2.7696433650e-05 2.4709007880e+00 -4.2797257052e+00 2.4709007880e+00 4.2797257052e+00 
79300 5.0104484790e+00 2.7491573593e-05 2.4709007880e+00 -4.2797257052e+00 2.4709007880e+00 4.2797257052e+00 
79400 5.0104484792e+00 2.7315703999e-05 2.4709007880e+00 -4.2797257052e+00 2.4709007880e+00 4.2797257052e+00 
79500 5.0104484794e+00 2.7168715579e-05 2.4709007880e+00 -4.2797257052e+00 2.4709007880e+00 4.2797257052e+00 
79600 5.0104484797e+00 2.7050441210e-05 2.4709007880e+00 -4.2797257052e+00 2.4709007880e+00 4.2797257052e+00 
79700 5.0104484800e+00 2.6960657598e-05 2.4709007880e+00 -4.2797257052e+00 2.4709007880e+00 4.2797257052e+00 
79800 5.0104484803e+00 2.6899086973e-05 2.4709007880e+00 -4.2797257052e+00 2.4709007880e+00 4.2797257052e+00 
79900 5.0104484807e+00 2.6865398877e-05 2.4709007880e+00 -4.2797257052e+00 2.4709007880e+00 4.2797257052e+00 
80000 5.0104484810e+00 2.6859212036e-05 2.4709007880e+00 -4.2797257052e+00 2.4709007880e+00 4.2797257052e+00 
80100 5.0104484814e+00 2.6880096265e-05 2.4709007880e+00 -4.2797257052e+00 2.4709007880e+00 4.2797257052e+00 
80200 5.0104484817e+00 2.6927574453e-05 2.4709007880e+00 -4.2797257052e+00 2.4709007880e+00 4.2797257052e+00 
80300 5.0104484821e+00 2.7001124595e-05 2.4709007880e+00 -4.2797257052e+00 2.4709007880e+00 4.2797257052e+00 
80400 5.0104484826e+00 2.7100181864e-05 2.4709007880e+00 -4.2797257052e+00 2.4709007880e+00 4.2797257052e+00 
80500 5.0104484830e+00 2.7224140717e-05 2.4709007880e+00 -4.2797257052e+00 2.4709007880e+00 4.2797257052e+00 
80600 5.0104484834e+00 2.7372357062e-05 2.4709007880e+00 -4.2797257052e+00 2.4709007880e+00 4.2797257052e+00 
80700 5.0104484838e+00 2.7544150435e-05 2.4709007880e+00 -4.2797257052e+00 2.4709007880e+00 4.2797257052e+00 
80800 5.0104484843e+00 2.7738806213e-05 2.4709007880e+00 -4.2797257052e+00 2.4709007880e+00 4.2797257052e+00 
80900 5.0104484847e+00 2.7955577839e-05 2.4709007880e+00 -4.2797257052e+00 2.4709007880e+00 4.2797257052e+00 
81000 5.0104484852e+00 2.8193689068e-05 2.4709007880e+00 -4.2797257052e+00 2.4709007880e+00 4.2797257052e+00 
81100 5.0104484856e+00 2.8452336225e-05 2.4709007880e+00 -4.2797257052e+00 2.4709007880e+00 4.2797257052e+00 
81200 5.0104484861e+00 2.8730690468e-05 2.4709007880e+00 -4.2797257052e+00 2.4709007880e+00 4.2797257052e+00 
81300 5.0104484866e+00 2.9027900055e-05 2.4709007880e+00 -4.2797257052e+00 2.4709007880e+00 4.2797257052e+00 
81400 5.0104484870e+00 2.9343092597e-05 2.4709007880e+00 -4.2797257052e+00 2.4709007880e+00 4.2797257052e+00 
81500 5.0104484874e+00 2.9675377305e-05 2.4709007880e+00 -4.2797257052e+00 2.4709007880e+00 4.2797257052e+00 
81600 5.0104484879e+00 3.0023847240e-05 2.4709007880e+00 -4.2797257052e+00 2.4709007880e+00 4.2797257052e+00 
81700 5.0104484883e+00 3.0387581533e-05 2.4709007880e+00 -4.2797257052e+00 2.4709007880e+00 4.2797257052e+00 
81800 5.0104484887e+00 3.0765647579e-05 2.4709007880e+00 -4.2797257052e+00 2.4709007880e+00 4.2797257052e+00 
81900 5.0104484892e+00 3.1157103220e-05 2.4709007880e+00 -4.2797257052e+00 2.4709007880e+00 4.2797257052e+00 
82000 5.0104484896e+00 3.1560998895e-05 2.4709007880e+00 -4.2797257052e+00 2.4709007880e+00 4.2797257052e+00 
82100 5.0104484900e+00 3.1976379739e-05 2.4709007880e+00 -4.2797257052e+00 2.4709007880e+00 4.2797257052e+00 
82200 5.0104484903e+00 3.2402287678e-05 2.4709007880e+00 -4.2797257052e+00 2.4709007880e+00 4.2797257052e+00 
82300 5.0104484907e+00 3.2837763459e-05 2.4709007880e+00 -4.2797257052e+00 2.4709007880e+00 4.2797257052e+00 
82400 5.0104484911e+00 3.3281848643e-05 2.4709007880e+00 -4.2797257052e+00 2.4709007880e+00 4.2797257052e+00 
82500 5.0104484914e+00 3.3733587567e-05 2.4709007880e+00 -4.2797257052e+00 2.4709007880e+00 4.2797257052e+00 
82600 5.0104484917e+00 3.4192029225e-05 2.4709007880e+00 -4.2797257052e+00 2.4709007880e+00 4.2797257052e+00 
82700 5.0104484920e+00 3.4656229127e-05 2.4709007880e+00 -4.2797257052e+00 2.4709007880e+00 4.2797257052e+00 
82800 5.0104484923e+00 3.5125251088e-05 2.4709007880e+00 -4.2797257052e+00 2.4709007880e+00 4.2797257052e+00 
82900 5.0104484926e+00 3.5598168970e-05 2.4709007880e+00 -4.2797257052e+00 2.4709007880e+00 4.2797257052e+00 
83000 5.0104484929e+00 3.6074068353e-05 2.4709007880e+00 -4.2797257052e+00 2.4709007880e+00 4.2797257052e+00 
83100 5.0104484931e+00 3.6552048154e-05 2.4709007880e+00 -4.2797257052e+00 2.4709007880e+00 4.2797257052e+00 
83200 5.0104484934e+00 3.7031222168e-05 2.4709007880e+00 -4.2797257052e+00 2.4709007880e+00 4.2797257052e+00 
83300 5.0104484936e+00 3.7510720572e-05 2.4709007880e+00 -4.2797257052e+00 2.4709007880e+00 4.2797257052e+00 
83400 5.0104484938e+00 3.7989691335e-05 2.4709007880e+00 -4.2797257052e+00 2.4709007880e+00 4.2797257052e+00 
83500 5.0104484940e+00 3.8467301558e-05 2.4709007880e+00 -4.2797257052e+00 2.4709007880e+00 4.2797257052e+00 
83600 5.0104484942e+00 3.8942738776e-05 2.4709007880e+00 -4.2797257052e+00 2.4709007880e+00 4.2797257052e+00 
83700 5.0104484944e+00 3.9415212168e-05 2.4709007880e+00 -4.2797257052e+00 2.4709007880e+00 4.2797257052e+00 
83800 5.0104484945e+00 3.9883953677e-05 2.4709007880e+00 -4.2797257052e+00 2.4709007880e+00 4.2797257052e+00 
83900 5.0104484947e+00 4.0348219100e-05 2.4709007880e+00 -4.2797257052e+00 2.4709007880e+00 4.2797257052e+00 
84000 5.0104484948e+00 4.0807289073e-05 2.4709007880e+00 -4.2797257052e+00 2.4709007880e+00 4.2797257052e+00 
84100 5.0104484949e+00 4.1260469985e-05 2.4709007880e+00 -4.2797257052e+00 2.4709007880e+00 4.2797257052e+00 
84200 5.0104484951e+00 4.1707094846e-05 2.4709007880e+00 -4.2797257052e+00 2.4709007880e+00 4.2797257052e+00 
84300 5.0104484952e+00 4.2146524049e-05 2.4709007880e+00 -4.2797257052e+00 2.4709007880e+00 4.2797257052e+00 
84400 5.0104484953e+00 4.2578146069e-05 2.4709007880e+00 -4.2797257052e+00 2.4709007880e+00 4.2797257052e+00 
84500 5.0104484954e+00 4.3001378092e-05 2.4709007880e+00 -4.2797257052e+00 2.4709007880e+00 4.2797257052e+00 
84600 5.0104484955e+00 4.3415666586e-05 2.4709007880e+00 -4.2797257052e+00 2.4709007880e+00 4.2797257052e+00 
84700 5.0104484956e+00 4.3820487759e-05 2.4709007880e+00 -4.2797257052e+00 2.4709007880e+00 4.2797257052e+00 
84800 5.0104484957e+00 4.4215347992e-05 2.4709007880e+00 -4.2797257052e+00 2.4709007880e+00 4.2797257052e+00 
84900 5.0104484958e+00 4.4599784158e-05 2.4709007880e+00 -4.2797257052e+00 2.4709007880e+00 4.2797257052e+00 
85000 5.0104484959e+00 4.4973363913e-05 2.4709007880e+00 -4.2797257052e+00 2.4709007880e+00 4.2797257052e+00 
85100 5.0104484959e+00 4.5335685883e-05 2.4709007880e+00 -4.2797257052e+00 2.4709007880e+00 4.2797257052e+00 
85200 5.0104484960e+00 4.5686379794e-05 2.4709007880e+00 -4.2797257052e+00 2.4709007880e+00 4.2797257052e+00 
85300 5.0104484961e+00 4.6025106555e-05 2.4709007880e+00 -4.2797257052e+00 2.4709007880e+00 4.2797257052e+00 
85400 5.0104484962e+00 4.6351558241e-05 2.4709007880e+00 -4.2797257052e+00 2.4709007880e+00 4.2797257052e+00 
85500 5.0104484963e+00 4.6665458039e-05 2.4709007880e+00 -4.2797257052e+00 2.4709007880e+00 4.2797257052e+00 
85600 5.0104484964e+00 4.6966560117e-05 2.4709007880e+00 -4.2797257052e+00 2.4709007880e+00 4.2797257052e+00 
85700 5.0104484965e+00 4.7254649447e-05 2.4709007880e+00 -4.2797257052e+00 2.4709007880e+00 4.2797257052e+00 
85800 5.0104484966e+00 4.7529541551e-05 2.4709007880e+00 -4.2797257052e+00 2.4709007880e+00 4.2797257052e+00 
85900 5.0104484967e+00 4.7791082202e-05 2.4709007880e+00 -4.2797257052e+00 2.4709007880e+00 4.2797257052e+00 
86000 5.0104484967e+00 4.8039147061e-05 2.4709007880e+00 -4.2797257052e+00 2.4709007880e+00 4.2797257052e+00 
86100 5.0104484968e+00 4.8273641281e-05 2.4709007880e+00 -4.2797257052e+00 2.4709007880e+00 4.2797257052e+00 
86200 5.0104484970e+00 4.8494499028e-05 2.4709007880e+00 -4.2797257052e+00 2.4709007880e+00 4.2797257052e+00 
86300 5.0104484971e+00 4.8701682983e-05 2.4709007880e+00 -4.2797257052e+00 2.4709007880e+00 4.2797257052e+00 
86400 5.0104484972e+00 4.8895183776e-05 2.4709007880e+00 -4.2797257052e+00 2.4709007880e+00 4.2797257052e+00 
86500 5.0104484973e+00 4.9075019385e-05 2.4709007880e+00 -4.2797257052e+00 2.4709007880e+00 4.2797257052e+00 
86600 5.0104484974e+00 4.9241234495e-05 2.4709007880e+00 -4.2797257052e+00 2.4709007880e+00 4.2797257052e+00 
86700 5.0104484975e+00 4.9393899809e-05 2.4709007880e+00 -4.2797257052e+00 2.4709007880e+00 4.2797257052e+00 
86800 5.0104484976e+00 4.9533111330e-05 2.4709007880e+00 -4.2797257052e+00 2.4709007880e+00 4.2797257052e+00 
86900 5.0104484978e+00 4.9658989593e-05 2.4709007880e+00 -4.2797257052e+00 2.4709007880e+00 4.2797257052e+00 
87000 5.0104484979e+00 4.9771678877e-05 2.4709007880e+00 -4.2797257052e+00 2.4709007880e+00 4.2797257052e+00 
87100 5.0104484980e+00 4.9871346382e-05 2.4709007880e+00 -4.2797257052e+00 2.4709007880e+00 4.2797257052e+00 
87200 5.0104484982e+00 4.9958181387e-05 2.4709007880e+00 -4.2797257052e+00 2.4709007880e+00 4.2797257052e+00 
87300 5.0104484983e+00 5.0032394362e-05 2.4709007880e+00 -4.2797257052e+00 2.4709007880e+00 4.2797257052e+00 
87400 5.0104484985e+00 5.0094216059e-05 2.4709007880e+00 -4.2797257052e+00 2.4709007880e+00 4.2797257052e+00 
87500 5.0104484986e+00 5.0143896610e-05 2.4709007880e+00 -4.2797257052e+00 2.4709007880e+00 4.2797257052e+00 
87600 5.0104484987e+00 5.0181704573e-05 2.4709007880e+00 -4.2797257052e+00 2.4709007880e+00 4.2797257052e+00 
87700 5.0104484989e+00 5.0207925970e-05 2.4709007880e+00 -4.2797257052e+00 2.4709007880e+00 4.2797257052e+00 
87800 5.0104484990e+00 5.0222863329e-05 2.4709007880e+00 -4.2797257052e+00 2.4709007880e+00 4.2797257052e+00 
87900 5.0104484992e+00 5.0226834681e-05 2.4709007880e+00 -4.2797257052e+00 2.4709007880e+00 4.2797257052e+00 
88000 5.0104484993e+00 5.0220172589e-05 2.4709007880e+00 -4.2797257052e+00 2.4709007880e+00 4.2797257052e+00 
88100 5.0104484995e+00 5.0203223114e-05 2.4709007880e+00 -4.2797257052e+00 2.4709007880e+00 4.2797257052e+00 
88200 5.0104484996e+00 5.0176344850e-05 2.4709007880e+00 -4.2797257052e+00 2.4709007880e+00 4.2797257052e+00 
88300 5.0104484998e+00 5.0139907881e-05 2.4709007880e+00 -4.2797257052e+00 2.4709007880e+00 4.2797257052e+00 
88400 5.0104484999e+00 5.0094292776e-05 2.4709007880e+00 -4.2797257052e+00 2.4709007880e+00 4.2797257052e+00 
88500 5.0104485001e+00 5.0039889593e-05 2.4709007880e+00 -4.2797257052e+00 2.4709007880e+00 4.2797257052e+00 
88600 5.0104485002e+00 4.9977096864e-05 2.4709007880e+00 -4.2797257052e+00 2.4709007880e+00 4.2797257052e+00 
88700 5.0104485003e+00 4.9906320587e-05 2.4709007880e+00 -4.2797257052e+00 2.4709007880e+00 4.2797257052e+00 
88800 5.0104485005e+00 4.9827973245e-05 2.4709007880e+00 -4.2797257052e+00 2.4709007880e+00 4.2797257052e+00 
88900 5.0104485006e+00 4.9742472818e-05 2.4709007880e+00 -4.2797257052e+00 2.4709007880e+00 4.2797257052e+00 
89000 5.0104485007e+00 4.9650241805e-05 2.4709007880e+00 -4.2797257052e+00 2.4709007880e+00 4.2797257052e+00 
89100 5.0104485009e+00 4.9551706255e-05 2.4709007880e+00 -4.2797257052e+00 2.4709007880e+00 4.2797257052e+00 
89200 5.0104485010e+00 4.9447294836e-05 2.4709007880e+00 -4.2797257052e+00 2.4709007880e+00 4.2797257052e+00 
89300 5.0104485011e+00 4.9337437907e-05 2.4709007880e+00 -4.2797257052e+00 2.4709007880e+00 4.2797257052e+00 
89400 5.0104485013e+00 4.9222566569e-05 2.4709007880e+00 -4.2797257052e+00 2.4709007880e+00 4.2797257052e+00 
89500 5.0104485014e+00 4.9103111820e-05 2.4709007880e+00 -4.2797257052e+00 2.4709007880e+00 4.2797257052e+00 
89600 5.0104485015e+00 4.8979503643e-05 2.4709007880e+00 -4.2797257052e+00 2.4709007880e+00 4.2797257052e+00 
89700 5.0104485016e+00 4.8852170155e-05 2.4709007880e+00 -4.2797257052e+00 2.4709007880e+00 4.2797257052e+00 
89800 5.0104485017e+00 4.8721536805e-05 2.4709007880e+00 -4.2797257052e+00 2.4709007880e+00 4.2797257052e+00 
89900 5.0104485018e+00 4.8588025536e-05 2.4709007880e+00 -4.2797257052e+00 2.4709007880e+00 4.2797257052e+00 
90000 5.0104485019e+00 4.8452054033e-05 2.4709007880e+00 -4.2797257052e+00 2.4709007880e+00 4.2797257052e+00 
90100 5.0104485020e+00 4.8314034938e-05 2.4709007880e+00 -4.2797257052e+00 2.4709007880e+00 4.2797257052e+00 
90200 5.0104485021e+00 4.8174375142e-05 2.4709007880e+00 -4.2797257052e+00 2.4709007880e+00 4.2797257052e+00 
90300 5.0104485022e+00 4.8033475086e-05 2.4709007880e+00 -4.2797257052e+00 2.4709007880e+00 4.2797257052e+00 
90400 5.0104485023e+00 4.7891728091e-05 2.4709007880e+00 -4.2797257052e+00 2.4709007880e+00 4.2797257052e+00 
90500 5.0104485024e+00 4.7749519698e-05 2.4709007880e+00 -4.2797257052e+00 2.4709007880e+00 4.2797257052e+00 
90600 5.0104485024e+00 4.7607227087e-05 2.4709007880e+00 -4.2797257052e+00 2.4709007880e+00 4.2797257052e+00 
90700 5.0104485025e+00 4.7465218477e-05 2.4709007880e+00 -4.2797257052e+00 2.4709007880e+00 4.2797257052e+00 
90800 5.0104485026e+00 4.7323852582e-05 2.4709007880e+00 -4.2797257052e+00 2.4709007880e+00 4.2797257052e+00 
90900 5.0104485027e+00 4.7183478105e-05 2.4709007880e+00 -4.2797257052e+00 2.4709007880e+00 4.2797257052e+00 
91000 5.0104485027e+00 4.7044433230e-05 2.4709007880e+00 -4.2797257052e+00 2.4709007880e+00 4.2797257052e+00 
91100 5.0104485028e+00 4.6907045196e-05 2.4709007880e+00 -4.2797257052e+00 2.4709007880e+00 4.2797257052e+00 
91200 5.0104485029e+00 4.6771629867e-05 2.4709007880e+00 -4.2797257052e+00 2.4709007880e+00 4.2797257052e+00 
91300 5.0104485029e+00 4.6638491333e-05 2.4709007880e+00 -4.2797257052e+00 2.4709007880e+00 4.2797257052e+00 
91400 5.0104485030e+00 4.6507921584e-05 2.4709007880e+00 -4.2797257052e+00 2.4709007880e+00 4.2797257052e+00 
91500 5.0104485031e+00 4.6380200155e-05 2.4709007880e+00 -4.2797257052e+00 2.4709007880e+00 4.2797257052e+00 
91600 5.0104485031e+00 4.6255593868e-05 2.4709007880e+00 -4.2797257052e+00 2.4709007880e+00 4.2797257052e+00 
91700 5.0104485032e+00 4.6134356560e-05 2.4709007880e+00 -4.2797257052e+00 2.4709007880e+00 4.2797257052e+00 
91800 5.0104485032e+00 4.6016728855e-05 2.4709007880e+00 -4.2797257052e+00 2.4709007880e+00 4.2797257052e+00 
91900 5.0104485033e+00 4.5902937991e-05 2.4709007880e+00 -4.2797257052e+00 2.4709007880e+00 4.2797257052e+00 
92000 5.0104485033e+00 4.5793197641e-05 2.4709007880e+00 -4.2797257052e+00 2.4709007880e+00 4.2797257052e+00 
92100 5.0104485034e+00 4.5687707795e-05 2.4709007880e+00 -4.2797257052e+00 2.4709007880e+00 4.2797257052e+00 
92200 5.0104485034e+00 4.5586654663e-05 2.4709007880e+00 -4.2797257052e+00 2.4709007880e+00 4.2797257052e+00 
92300 5.0104485035e+00 4.5490210600e-05 2.4709007880e+00 -4.2797257052e+00 2.4709007880e+00 4.2797257052e+00 
92400 5.0104485035e+00 4.5398534077e-05 2.4709007880e+00 -4.2797257052e+00 2.4709007880e+00 4.2797257052e+00 
92500 5.0104485036e+00 4.5311769666e-05 2.4709007880e+00 -4.2797257052e+00 2.4709007880e+00 4.2797257052e+00 
92600 5.0104485036e+00 4.5230048077e-05 2.4709007880e+00 -4.2797257052e+00 2.4709007880e+00 4.2797257052e+00 
92700 5.0104485037e+00 4.5153486176e-05 2.4709007880e+00 -4.2797257052e+00 2.4709007880e+00 4.2797257052e+00 
92800 5.0104485037e+00 4.5082187090e-05 2.4709007880e+00 -4.2797257052e+00 2.4709007880e+00 4.2797257052e+00 
92900 5.0104485038e+00 4.5016240302e-05 2.4709007880e+00 -4.2797257052e+00 2.4709007880e+00 4.2797257052e+00 
93000 5.0104485038e+00 4.4955721775e-05 2.4709007880e+00 -4.2797257052e+00 2.4709007880e+00 4.2797257052e+00 
93100 5.0104485039e+00 4.4900694105e-05 2.4709007880e+00 -4.2797257052e+00 2.4709007880e+00 4.2797257052e+00 
93200 5.0104485039e+00 4.4851206696e-05 2.4709007880e+00 -4.2797257052e+00 2.4709007880e+00 4.2797257052e+00 
93300 5.0104485040e+00 4.4807295965e-05 2.4709007880e+00 -4.2797257052e+00 2.4709007880e+00 4.2797257052e+00 
93400 5.0104485040e+00 4.4768985571e-05 2.4709007880e+00 -4.2797257052e+00 2.4709007880e+00 4.2797257052e+00 
93500 5.0104485041e+00 4.4736286640e-05 2.4709007880e+00 -4.2797257052e+00 2.4709007880e+00 4.2797257052e+00 
93600 5.0104485041e+00 4.4709198054e-05 2.4709007880e+00 -4.2797257052e+00 2.4709007880e+00 4.2797257052e+00 
93700 5.0104485042e+00 4.4687706702e-05 2.4709007880e+00 -4.2797257052e+00 2.4709007880e+00 4.2797257052e+00 
93800 5.0104485042e+00 4.4671787806e-05 2.4709007880e+00 -4.2797257052e+00 2.4709007880e+00 4.2797257052e+00 
93900 5.0104485043e+00 4.4661405233e-05 2.4709007880e+00 -4.2797257052e+00 2.4709007880e+00 4.2797257052e+00 
94000 5.0104485043e+00 4.4656511826e-05 2.4709007880e+00 -4.2797257052e+00 2.4709007880e+00 4.2797257052e+00 
94100 5.0104485044e+00 4.4657049757e-05 2.4709007880e+00 -4.2797257052e+00 2.4709007880e+00 4.2797257052e+00 
94200 5.0104485045e+00 4.4662950890e-05 2.4709007880e+00 -4.2797257052e+00 2.4709007880e+00 4.2797257052e+00 
94300 5.0104485045e+00 4.4674137153e-05 2.4709007880e+00 -4.2797257052e+00 2.4709007880e+00 4.2797257052e+00 
94400 5.0104485046e+00 4.4690520934e-05 2.4709007880e+00 -4.2797257052e+00 2.4709007880e+00 4.2797257052e+00 
94500 5.0104485046e+00 4.4712005480e-05 2.4709007880e+00 -4.2797257052e+00 2.4709007880e+00 4.2797257052e+00 
94600 5.0104485047e+00 4.4738485299e-05 2.4709007880e+00 -4.2797257052e+00 2.4709007880e+00 4.2797257052e+00 
94700 5.0104485047e+00 4.4769846582e-05 2.4709007880e+00 -4.2797257052e+00 2.4709007880e+00 4.2797257052e+00 
94800 5.0104485048e+00 4.4805967625e-05 2.4709007880e+00 -4.2797257052e+00 2.4709007880e+00 4.2797257052e+00 
94900 5.0104485048e+00 4.4846719269e-05 2.4709007880e+00 -4.2797257052e+00 2.4709007880e+00 4.2797257052e+00 
95000 5.0104485049e+00 4.4891965339e-05 2.4709007880e+00 -4.2797257052e+00 2.4709007880e+00 4.2797257052e+00 
95100 5.0104485049e+00 4.4941563072e-05 2.4709007880e+00 -4.2797257052e+00 2.4709007880e+00 4.2797257052e+00 
95200 5.0104485050e+00 4.4995363574e-05 2.4709007880e+00 -4.2797257052e+00 2.4709007880e+00 4.2797257052e+00 
95300 5.0104485050e+00 4.5053212272e-05 2.4709007880e+00 -4.2797257052e+00 2.4709007880e+00 4.2797257052e+00 
95400 5.0104485051e+00 4.5114949349e-05 2.4709007880e+00 -4.2797257052e+00 2.4709007880e+00 4.2797257052e+00 
95500 5.0104485051e+00 4.5180410209e-05 2.4709007880e+00 -4.2797257052e+00 2.4709007880e+00 4.2797257052e+00 
95600 5.0104485052e+00 4.5249425923e-05 2.4709007880e+00 -4.2797257052e+00 2.4709007880e+00 4.2797257052e+00 
95700 5.0104485052e+00 4.5321823674e-05 2.4709007880e+00 -4.2797257052e+00 2.4709007880e+00 4.2797257052e+00 
95800 5.0104485053e+00 4.5397427217e-05 2.4709007880e+00 -4.2797257052e+00 2.4709007880e+00 4.2797257052e+00 
95900 5.0104485053e+00 4.5476057294e-05 2.4709007880e+00 -4.2797257052e+00 2.4709007880e+00 4.2797257052e+00 
96000 5.0104485054e+00 4.5557532113e-05 2.4709007880e+00 -4.2797257052e+00 2.4709007880e+00 4.2797257052e+00 
96100 5.0104485054e+00 4.5641667756e-05 2.4709007880e+00 -4.2797257052e+00 2.4709007880e+00 4.2797257052e+00 
96200 5.0104485055e+00 4.5728278619e-05 2.4709007880e+00 -4.2797257052e+00 2.4709007880e+00 4.2797257052e+00 
96300 5.0104485055e+00 4.5813580268e-05 2.4709007880e+00 -4.2797257052e+00 2.4709007880e+00 4.2797257052e+00 
96300 5.0104485055e+00 4.5813580269e-05 2.4709007880e+00 -4.2797257052e+00 2.4709007880e+00 4.2797257052e+00 
