# step Hamiltonian StressXX CellTensor1 CellTensor2 CellTensor3 CellTensor4 
0 5.7116715263e+00 1.5516983970e-01 2.2220832177e+00 -3.8487610317e+00 2.2220832177e+00 3.8487610317e+00 
100 5.7153745909e+00 1.6026686670e-01 2.2220832177e+00 -3.8487610317e+00 2.2220832177e+00 3.8487610317e+00 
200 5.7184897928e+00 1.6498377679e-01 2.2184779646e+00 -3.8425165502e+00 2.2184779646e+00 3.8425165502e+00 
300 5.7215226466e+00 1.6958936762e-01 2.2147606049e+00 -3.8360778944e+00 2.2147606049e+00 3.8360778944e+00 
400 5.7244799583e+00 1.7410939384e-01 2.2109330937e+00 -3.8294484504e+00 2.2109330937e+00 3.8294484504e+00 
500 5.7273606373e+00 1.7855919932e-01 2.2069968004e+00 -3.8226305904e+00 2.2069968004e+00 3.8226305904e+00 
600 5.7301584581e+00 1.8294684387e-01 2.2029527404e+00 -3.8156260730e+00 2.2029527404e+00 3.8156260730e+00 
700 5.7328640290e+00 1.8727529071e-01 2.1988017375e+00 -3.8084363251e+00 2.1988017375e+00 3.8084363251e+00 
800 5.7354661996e+00 1.9154394666e-01 2.1945445387e+00 -3.8010626405e+00 2.1945445387e+00 3.8010626405e+00 
900 5.7379530679e+00 1.9574975372e-01 2.1901818946e+00 -3.7935063193e+00 2.1901818946e+00 3.7935063193e+00 
1000 5.7403126991e+00 1.9988796849e-01 2.1857146161e+00 -3.7857687659e+00 2.1857146161e+00 3.7857687659e+00 
1100 5.7425336363e+00 2.0395272334e-01 2.1811436139e+00 -3.7778515578e+00 2.1811436139e+00 3.7778515578e+00 
1200 5.7446052573e+00 2.0793743473e-01 2.1764699257e+00 -3.7697564924e+00 2.1764699257e+00 3.7697564924e+00 
1300 5.7465180187e+00 2.1183510417e-01 2.1716947344e+00 -3.7614856185e+00 2.1716947344e+00 3.7614856185e+00 
1400 5.7482636162e+00 2.1563854325e-01 2.1668193799e+00 -3.7530412568e+00 2.1668193799e+00 3.7530412568e+00 
1500 5.7498350800e+00 2.1934054528e-01 2.1618453654e+00 -3.7444260109e+00 2.1618453654e+00 3.7444260109e+00 
1600 5.7512268237e+00 2.2293401839e-01 2.1567743607e+00 -3.7356427732e+00 2.1567743607e+00 3.7356427732e+00 
1700 5.7524346544e+00 2.2641209121e-01 2.1516082021e+00 -3.7266947239e+00 2.1516082021e+00 3.7266947239e+00 
1800 5.7534557555e+00 2.2976819805e-01 2.1463488898e+00 -3.7175853279e+00 2.1463488898e+00 3.7175853279e+00 
1900 5.7542886455e+00 2.3299614866e-01 2.1409985839e+00 -3.7083183263e+00 2.1409985839e+00 3.7083183263e+00 
2000 5.7549331212e+00 2.3609018582e-01 2.1355595984e+00 -3.6988977271e+00 2.1355595984e+00 3.6988977271e+00 
2100 5.7553901857e+00 2.3904503284e-01 2.1300343938e+00 -3.6893277920e+00 2.1300343938e+00 3.6893277920e+00 
2200 5.7556619667e+00 2.4185593227e-01 2.1244255689e+00 -3.6796130223e+00 2.1244255689e+00 3.6796130223e+00 
2300 5.7557516271e+00 2.4451867665e-01 2.1187358512e+00 -3.6697581421e+00 2.1187358512e+00 3.6697581421e+00 
2400 5.7556632698e+00 2.4702963179e-01 2.1129680868e+00 -3.6597680812e+00 2.1129680868e+00 3.6597680812e+00 
2500 5.7554018388e+00 2.4938575284e-01 2.1071252297e+00 -3.6496479557e+00 2.1071252297e+00 3.6496479557e+00 
2600 5.7549730190e+00 2.5158459340e-01 2.1012103298e+00 -3.6394030487e+00 2.1012103298e+00 3.6394030487e+00 
2700 5.7543831356e+00 2.5362430786e-01 2.0952265218e+00 -3.6290387891e+00 2.0952265218e+00 3.6290387891e+00 
2800 5.7536390545e+00 2.5550364731e-01 2.0891770125e+00 -3.6185607316e+00 2.0891770125e+00 3.6185607316e+00 
2900 5.7527480852e+00 2.5722194914e-01 2.0830650689e+00 -3.6079745348e+00 2.0830650689e+00 3.6079745348e+00 
3000 5.7517178876e+00 2.5877912103e-01 2.0768940061e+00 -3.5972859406e+00 2.0768940061e+00 3.5972859406e+00 
3100 5.7505563831e+00 2.6017561954e-01 2.0706671752e+00 -3.5865007530e+00 2.0706671752e+00 3.5865007530e+00 
3200 5.7492716708e+00 2.6141242410e-01 2.0643879513e+00 -3.5756248181e+00 2.0643879513e+00 3.5756248181e+00 
3300 5.7478719501e+00 2.6249100686e-01 2.0580597224e+00 -3.5646640043e+00 2.0580597224e+00 3.5646640043e+00 
3400 5.7463654494e+00 2.6341329921e-01 2.0516858786e+00 -3.5536241829e+00 2.0516858786e+00 3.5536241829e+00 
3500 5.7447603616e+00 2.6418165560e-01 2.0452698013e+00 -3.5425112110e+00 2.0452698013e+00 3.5425112110e+00 
3600 5.7430647867e+00 2.6479881542e-01 2.0388148539e+00 -3.5313309141e+00 2.0388148539e+00 3.5313309141e+00 
3700 5.7412866808e+00 2.6526786362e-01 2.0323243725e+00 -3.5200890706e+00 2.0323243725e+00 3.5200890706e+00 
3800 5.7394338128e+00 2.6559219075e-01 2.0258016580e+00 -3.5087913977e+00 2.0258016580e+00 3.5087913977e+00 
3900 5.7375137270e+00 2.6577545307e-01 2.0192499680e+00 -3.4974435377e+00 2.0192499680e+00 3.4974435377e+00 
4000 5.7355337125e+00 2.6582153322e-01 2.0126725106e+00 -3.4860510473e+00 2.0126725106e+00 3.4860510473e+00 
4100 5.7335007782e+00 2.6573450204e-01 2.0060724380e+00 -3.4746193863e+00 2.0060724380e+00 3.4746193863e+00 
4200 5.7314216340e+00 2.6551858191e-01 1.9994528417e+00 -3.4631539092e+00 1.9994528417e+00 3.4631539092e+00 
4300 5.7293026762e+00 2.6517811200e-01 1.9928167478e+00 -3.4516598574e+00 1.9928167478e+00 3.4516598574e+00 
4400 5.7271499784e+00 2.6471751560e-01 1.9861671133e+00 -3.4401423525e+00 1.9861671133e+00 3.4401423525e+00 
4500 5.7249692862e+00 2.6414126988e-01 1.9795068231e+00 -3.4286063915e+00 1.9795068231e+00 3.4286063915e+00 
4600 5.7227660149e+00 2.6345387814e-01 1.9728386878e+00 -3.4170568423e+00 1.9728386878e+00 3.4170568423e+00 
4700 5.7205452514e+00 2.6265984457e-01 1.9661654416e+00 -3.4054984409e+00 1.9661654416e+00 3.4054984409e+00 
4800 5.7183117580e+00 2.6176365163e-01 1.9594897414e+00 -3.3939357891e+00 1.9594897414e+00 3.3939357891e+00 
4900 5.7160699786e+00 2.6076973997e-01 1.9528141661e+00 -3.3823733534e+00 1.9528141661e+00 3.3823733534e+00 
5000 5.7138240473e+00 2.5968249082e-01 1.9461412159e+00 -3.3708154646e+00 1.9461412159e+00 3.3708154646e+00 
5100 5.7115777969e+00 2.5850621079e-01 1.9394733131e+00 -3.3592663183e+00 1.9394733131e+00 3.3592663183e+00 
5200 5.7093347710e+00 2.5724511889e-01 1.9328128024e+00 -3.3477299753e+00 1.9328128024e+00 3.3477299753e+00 
5300 5.7070982344e+00 2.5590333568e-01 1.9261619516e+00 -3.3362103637e+00 1.9261619516e+00 3.3362103637e+00 
5400 5.7048711858e+00 2.5448487439e-01 1.9195229528e+00 -3.3247112806e+00 1.9195229528e+00 3.3247112806e+00 
5500 5.7026563704e+00 2.5299363382e-01 1.9128979241e+00 -3.3132363942e+00 1.9128979241e+00 3.3132363942e+00 
5600 5.7004562925e+00 2.5143339286e-01 1.9062889106e+00 -3.3017892471e+00 1.9062889106e+00 3.3017892471e+00 
5700 5.6982732280e+00 2.4980780651e-01 1.8996978867e+00 -3.2903732587e+00 1.8996978867e+00 3.2903732587e+00 
5800 5.6961092376e+00 2.4812040324e-01 1.8931267574e+00 -3.2789917290e+00 1.8931267574e+00 3.2789917290e+00 
5900 5.6939661791e+00 2.4637458342e-01 1.8865773608e+00 -3.2676478414e+00 1.8865773608e+00 3.2676478414e+00 
6000 5.6918457194e+00 2.4457361884e-01 1.8800514697e+00 -3.2563446664e+00 1.8800514697e+00 3.2563446664e+00 
6100 5.6897493464e+00 2.4272065315e-01 1.8735507939e+00 -3.2450851656e+00 1.8735507939e+00 3.2450851656e+00 
6200 5.6876783810e+00 2.4081870294e-01 1.8670769821e+00 -3.2338721946e+00 1.8670769821e+00 3.2338721946e+00 
6300 5.6856339875e+00 2.3887065961e-01 1.8606316242e+00 -3.2227085073e+00 1.8606316242e+00 3.2227085073e+00 
6400 5.6836171844e+00 2.3687929171e-01 1.8542162534e+00 -3.2115967591e+00 1.8542162534e+00 3.2115967591e+00 
6500 5.6816288549e+00 2.3484724770e-01 1.8478323481e+00 -3.2005395108e+00 1.8478323481e+00 3.2005395108e+00 
6600 5.6796697562e+00 2.3277705920e-01 1.8414813343e+00 -3.1895392321e+00 1.8414813343e+00 3.1895392321e+00 
6700 5.6777405291e+00 2.3067114445e-01 1.8351645870e+00 -3.1785983049e+00 1.8351645870e+00 3.1785983049e+00 
6800 5.6758417062e+00 2.2853181200e-01 1.8288834329e+00 -3.1677190269e+00 1.8288834329e+00 3.1677190269e+00 
6900 5.6739737209e+00 2.2636126465e-01 1.8226391517e+00 -3.1569036147e+00 1.8226391517e+00 3.1569036147e+00 
7000 5.6721369150e+00 2.2416160349e-01 1.8164329784e+00 -3.1461542071e+00 1.8164329784e+00 3.1461542071e+00 
7100 5.6703315461e+00 2.2193483198e-01 1.8102661046e+00 -3.1354728684e+00 1.8102661046e+00 3.1354728684e+00 
7200 5.6685577949e+00 2.1968286018e-01 1.8041396806e+00 -3.1248615907e+00 1.8041396806e+00 3.1248615907e+00 
7300 5.6668157716e+00 2.1740750889e-01 1.7980548168e+00 -3.1143222975e+00 1.7980548168e+00 3.1143222975e+00 
7400 5.6651055223e+00 2.1511051394e-01 1.7920125854e+00 -3.1038568457e+00 1.7920125854e+00 3.1038568457e+00 
7500 5.6634270352e+00 2.1279353027e-01 1.7860140217e+00 -3.0934670286e+00 1.7860140217e+00 3.0934670286e+00 
7600 5.6617802457e+00 2.1045813616e-01 1.7800601255e+00 -3.0831545779e+00 1.7800601255e+00 3.0831545779e+00 
7700 5.6601650421e+00 2.0810583720e-01 1.7741518627e+00 -3.0729211666e+00 1.7741518627e+00 3.0729211666e+00 
7800 5.6585812702e+00 2.0573807039e-01 1.7682901661e+00 -3.0627684103e+00 1.7682901661e+00 3.0627684103e+00 
7900 5.6570287381e+00 2.0335620799e-01 1.7624759368e+00 -3.0526978697e+00 1.7624759368e+00 3.0526978697e+00 
8000 5.6555072205e+00 2.0096156141e-01 1.7567100452e+00 -3.0427110525e+00 1.7567100452e+00 3.0427110525e+00 
8100 5.6540164625e+00 1.9855538488e-01 1.7509933320e+00 -3.0328094148e+00 1.7509933320e+00 3.0328094148e+00 
8200 5.6525561839e+00 1.9613887909e-01 1.7453266091e+00 -3.0229943627e+00 1.7453266091e+00 3.0229943627e+00 
8300 5.6511260820e+00 1.9371319473e-01 1.7397106603e+00 -3.0132672541e+00 1.7397106603e+00 3.0132672541e+00 
8400 5.6497258354e+00 1.9127943584e-01 1.7341462424e+00 -3.0036293996e+00 1.7341462424e+00 3.0036293996e+00 
8500 5.6483551066e+00 1.8883866310e-01 1.7286340855e+00 -2.9940820637e+00 1.7286340855e+00 2.9940820637e+00 
8600 5.6470135453e+00 1.8639189694e-01 1.7231748937e+00 -2.9846264662e+00 1.7231748937e+00 2.9846264662e+00 
8700 5.6457007900e+00 1.8394012063e-01 1.7177693458e+00 -2.9752637826e+00 1.7177693458e+00 2.9752637826e+00 
8800 5.6444164714e+00 1.8148428306e-01 1.7124180956e+00 -2.9659951454e+00 1.7124180956e+00 2.9659951454e+00 
8900 5.6431602136e+00 1.7902530158e-01 1.7071217725e+00 -2.9568216446e+00 1.7071217725e+00 2.9568216446e+00 
9000 5.6419316367e+00 1.7656406452e-01 1.7018809814e+00 -2.9477443282e+00 1.7018809814e+00 2.9477443282e+00 
9100 5.6407303578e+00 1.7410143374e-01 1.6966963034e+00 -2.9387642025e+00 1.6966963034e+00 2.9387642025e+00 
9200 5.6395559931e+00 1.7163824690e-01 1.6915682960e+00 -2.9298822332e+00 1.6915682960e+00 2.9298822332e+00 
9300 5.6384081590e+00 1.6917531968e-01 1.6864974930e+00 -2.9210993447e+00 1.6864974930e+00 2.9210993447e+00 
9400 5.6372864733e+00 1.6671344777e-01 1.6814844047e+00 -2.9124164211e+00 1.6814844047e+00 2.9124164211e+00 
9500 5.6361905561e+00 1.6425340882e-01 1.6765295182e+00 -2.9038343059e+00 1.6765295182e+00 2.9038343059e+00 
9600 5.6351200308e+00 1.6179596417e-01 1.6716332970e+00 -2.8953538020e+00 1.6716332970e+00 2.8953538020e+00 
9700 5.6340745248e+00 1.5934186042e-01 1.6667961814e+00 -2.8869756721e+00 1.6667961814e+00 2.8869756721e+00 
9800 5.6330536700e+00 1.5689183094e-01 1.6620185882e+00 -2.8787006378e+00 1.6620185882e+00 2.8787006378e+00 
9900 5.6320571031e+00 1.5444659713e-01 1.6573009105e+00 -2.8705293803e+00 1.6573009105e+00 2.8705293803e+00 
10000 5.6310844664e+00 1.5200686962e-01 1.6526435178e+00 -2.8624625397e+00 1.6526435178e+00 2.8624625397e+00 
10100 5.6301354075e+00 1.4957334929e-01 1.6480467560e+00 -2.8545007146e+00 1.6480467560e+00 2.8545007146e+00 
10200 5.6292095797e+00 1.4714672817e-01 1.6435109466e+00 -2.8466444623e+00 1.6435109466e+00 2.8466444623e+00 
10300 5.6283066420e+00 1.4472769015e-01 1.6390363873e+00 -2.8388942982e+00 1.6390363873e+00 2.8388942982e+00 
10400 5.6274262589e+00 1.4231691165e-01 1.6346233510e+00 -2.8312506952e+00 1.6346233510e+00 2.8312506952e+00 
10500 5.6265681005e+00 1.3991506207e-01 1.6302720864e+00 -2.8237140838e+00 1.6302720864e+00 2.8237140838e+00 
10600 5.6257318421e+00 1.3752280417e-01 1.6259828171e+00 -2.8162848514e+00 1.6259828171e+00 2.8162848514e+00 
10700 5.6249171641e+00 1.3514079431e-01 1.6217557418e+00 -2.8089633422e+00 1.6217557418e+00 2.8089633422e+00 
10800 5.6241237515e+00 1.3276968259e-01 1.6175910339e+00 -2.8017498565e+00 1.6175910339e+00 2.8017498565e+00 
10900 5.6233512939e+00 1.3041011284e-01 1.6134888413e+00 -2.7946446505e+00 1.6134888413e+00 2.7946446505e+00 
11000 5.6225994847e+00 1.2806272260e-01 1.6094492863e+00 -2.7876479361e+00 1.6094492863e+00 2.7876479361e+00 
11100 5.6218680210e+00 1.2572814287e-01 1.6054724654e+00 -2.7807598802e+00 1.6054724654e+00 2.7807598802e+00 
11200 5.6211566031e+00 1.2340699790e-01 1.6015584490e+00 -2.7739806050e+00 1.6015584490e+00 2.7739806050e+00 
11300 5.6204649340e+00 1.2109990481e-01 1.5977072814e+00 -2.7673101870e+00 1.5977072814e+00 2.7673101870e+00 
11400 5.6197927192e+00 1.1880747318e-01 1.5939189806e+00 -2.7607486575e+00 1.5939189806e+00 2.7607486575e+00 
11500 5.6191396657e+00 1.1653030459e-01 1.5901935382e+00 -2.7542960021e+00 1.5901935382e+00 2.7542960021e+00 
11600 5.6185054825e+00 1.1426899204e-01 1.5865309196e+00 -2.7479521605e+00 1.5865309196e+00 2.7479521605e+00 
11700 5.6178898791e+00 1.1202411935e-01 1.5829310633e+00 -2.7417170266e+00 1.5829310633e+00 2.7417170266e+00 
11800 5.6172925662e+00 1.0979626058e-01 1.5793938818e+00 -2.7355904485e+00 1.5793938818e+00 2.7355904485e+00 
11900 5.6167132542e+00 1.0758597930e-01 1.5759192610e+00 -2.7295722286e+00 1.5759192610e+00 2.7295722286e+00 
12000 5.6161516538e+00 1.0539382791e-01 1.5725070602e+00 -2.7236621236e+00 1.5725070602e+00 2.7236621236e+00 
12100 5.6156074751e+00 1.0322034694e-01 1.5691571130e+00 -2.7178598448e+00 1.5691571130e+00 2.7178598448e+00 
12200 5.6150804277e+00 1.0106606432e-01 1.5658692264e+00 -2.7121650582e+00 1.5658692264e+00 2.7121650582e+00 
12300 5.6145702198e+00 9.8931494639e-02 1.5626431819e+00 -2.7065773851e+00 1.5626431819e+00 2.7065773851e+00 
12400 5.6140765588e+00 9.6817138408e-02 1.5594787351e+00 -2.7010964024e+00 1.5594787351e+00 2.7010964024e+00 
12500 5.6135991504e+00 9.4723481372e-02 1.5563756163e+00 -2.6957216430e+00 1.5563756163e+00 2.6957216430e+00 
12600 5.6131376988e+00 9.2650993784e-02 1.5533335308e+00 -2.6904525964e+00 1.5533335308e+00 2.6904525964e+00 
12700 5.6126919066e+00 9.0600129737e-02 1.5503521592e+00 -2.6852887094e+00 1.5503521592e+00 2.6852887094e+00 
12800 5.6122614744e+00 8.8571326506e-02 1.5474311578e+00 -2.6802293865e+00 1.5474311578e+00 2.6802293865e+00 
12900 5.6118461011e+00 8.6565003928e-02 1.5445701589e+00 -2.6752739911e+00 1.5445701589e+00 2.6752739911e+00 
13000 5.6114454836e+00 8.4581563820e-02 1.5417687718e+00 -2.6704218462e+00 1.5417687718e+00 2.6704218462e+00 
13100 5.6110593172e+00 8.2621389434e-02 1.5390265824e+00 -2.6656722349e+00 1.5390265824e+00 2.6656722349e+00 
13200 5.6106872951e+00 8.0684844961e-02 1.5363431547e+00 -2.6610244018e+00 1.5363431547e+00 2.6610244018e+00 
13300 5.6103291089e+00 7.8772275076e-02 1.5337180308e+00 -2.6564775539e+00 1.5337180308e+00 2.6564775539e+00 
13400 5.6099844488e+00 7.6884004538e-02 1.5311507318e+00 -2.6520308615e+00 1.5311507318e+00 2.6520308615e+00 
13500 5.6096530033e+00 7.5020337842e-02 1.5286407582e+00 -2.6476834597e+00 1.5286407582e+00 2.6476834597e+00 
13600 5.6093344596e+00 7.3181558921e-02 1.5261875908e+00 -2.6434344491e+00 1.5261875908e+00 2.6434344491e+00 
13700 5.6090285042e+00 7.1367930904e-02 1.5237906912e+00 -2.6392828972e+00 1.5237906912e+00 2.6392828972e+00 
13800 5.6087348224e+00 6.9579695930e-02 1.5214495027e+00 -2.6352278399e+00 1.5214495027e+00 2.6352278399e+00 
13900 5.6084530990e+00 6.7817075019e-02 1.5191634511e+00 -2.6312682824e+00 1.5191634511e+00 2.6312682824e+00 
14000 5.6081830185e+00 6.6080267995e-02 1.5169319453e+00 -2.6274032008e+00 1.5169319453e+00 2.6274032008e+00 
14100 5.6079242652e+00 6.4369453466e-02 1.5147543778e+00 -2.6236315434e+00 1.5147543778e+00 2.6236315434e+00 
14200 5.6076765239e+00 6.2684788855e-02 1.5126301264e+00 -2.6199522320e+00 1.5126301264e+00 2.6199522320e+00 
14300 5.6074394797e+00 6.1026410491e-02 1.5105585539e+00 -2.6163641632e+00 1.5105585539e+00 2.6163641632e+00 
14400 5.6072128186e+00 5.9394433741e-02 1.5085390099e+00 -2.6128662103e+00 1.5085390099e+00 2.6128662103e+00 
14500 5.6069962278e+00 5.7788953198e-02 1.5065708308e+00 -2.6094572241e+00 1.5065708308e+00 2.6094572241e+00 
14600 5.6067893959e+00 5.6210042916e-02 1.5046533412e+00 -2.6061360348e+00 1.5046533412e+00 2.6061360348e+00 
14700 5.6065920136e+00 5.4657756687e-02 1.5027858546e+00 -2.6029014531e+00 1.5027858546e+00 2.6029014531e+00 
14800 5.6064037733e+00 5.3132128362e-02 1.5009676741e+00 -2.5997522721e+00 1.5009676741e+00 2.5997522721e+00 
14900 5.6062243703e+00 5.1633172214e-02 1.4991980932e+00 -2.5966872681e+00 1.4991980932e+00 2.5966872681e+00 
15000 5.6060535023e+00 5.0160883335e-02 1.4974763969e+00 -2.5937052026e+00 1.4974763969e+00 2.5937052026e+00 
15100 5.6058908705e+00 4.8715238071e-02 1.4958018623e+00 -2.5908048235e+00 1.4958018623e+00 2.5908048235e+00 
15200 5.6057361791e+00 4.7296194481e-02 1.4941737593e+00 -2.5879848664e+00 1.4941737593e+00 2.5879848664e+00 
15300 5.6055891363e+00 4.5903692840e-02 1.4925913518e+00 -2.5852440562e+00 1.4925913518e+00 2.5852440562e+00 
15400 5.6054494544e+00 4.4537656150e-02 1.4910538980e+00 -2.5825811082e+00 1.4910538980e+00 2.5825811082e+00 
15500 5.6053168495e+00 4.3197990686e-02 1.4895606518e+00 -2.5799947298e+00 1.4895606518e+00 2.5799947298e+00 
15600 5.6051910428e+00 4.1884586556e-02 1.4881108627e+00 -2.5774836215e+00 1.4881108627e+00 2.5774836215e+00 
15700 5.6050717601e+00 4.0597318285e-02 1.4867037774e+00 -2.5750464782e+00 1.4867037774e+00 2.5750464782e+00 
15800 5.6049587320e+00 3.9336045403e-02 1.4853386400e+00 -2.5726819909e+00 1.4853386400e+00 2.5726819909e+00 
15900 5.6048516947e+00 3.8100613054e-02 1.4840146929e+00 -2.5703888473e+00 1.4840146929e+00 2.5703888473e+00 
16000 5.6047503897e+00 3.6890852610e-02 1.4827311774e+00 -2.5681657333e+00 1.4827311774e+00 2.5681657333e+00 
16100 5.6046545643e+00 3.5706582292e-02 1.4814873347e+00 -2.5660113344e+00 1.4814873347e+00 2.5660113344e+00 
16200 5.6045639716e+00 3.4547607795e-02 1.4802824058e+00 -2.5639243364e+00 1.4802824058e+00 2.5639243364e+00 
16300 5.6044783706e+00 3.3413722915e-02 1.4791156330e+00 -2.5619034266e+00 1.4791156330e+00 2.5619034266e+00 
16400 5.6043975265e+00 3.2304710174e-02 1.4779862599e+00 -2.5599472950e+00 1.4779862599e+00 2.5599472950e+00 
16500 5.6043212109e+00 3.1220341449e-02 1.4768935324e+00 -2.5580546354e+00 1.4768935324e+00 2.5580546354e+00 
16600 5.6042492017e+00 3.0160378585e-02 1.4758366987e+00 -2.5562241459e+00 1.4758366987e+00 2.5562241459e+00 
16700 5.6041812831e+00 2.9124574016e-02 1.4748150106e+00 -2.5544545302e+00 1.4748150106e+00 2.5544545302e+00 
16800 5.6041172462e+00 2.8112671365e-02 1.4738277234e+00 -2.5527444985e+00 1.4738277234e+00 2.5527444985e+00 
16900 5.6040568883e+00 2.7124406044e-02 1.4728740964e+00 -2.5510927681e+00 1.4728740964e+00 2.5510927681e+00 
17000 5.6040000138e+00 2.6159505841e-02 1.4719533939e+00 -2.5494980645e+00 1.4719533939e+00 2.5494980645e+00 
17100 5.6039464334e+00 2.5217691490e-02 1.4710648850e+00 -2.5479591221e+00 1.4710648850e+00 2.5479591221e+00 
17200 5.6038959646e+00 2.4298677238e-02 1.4702078446e+00 -2.5464746845e+00 1.4702078446e+00 2.5464746845e+00 
17300 5.6038484317e+00 2.3402171389e-02 1.4693815533e+00 -2.5450435060e+00 1.4693815533e+00 2.5450435060e+00 
17400 5.6038036654e+00 2.2527876838e-02 1.4685852980e+00 -2.5436643514e+00 1.4685852980e+00 2.5436643514e+00 
17500 5.6037615033e+00 2.1675491587e-02 1.4678183723e+00 -2.5423359972e+00 1.4678183723e+00 2.5423359972e+00 
17600 5.6037217894e+00 2.0844709249e-02 1.4670800769e+00 -2.5410572319e+00 1.4670800769e+00 2.5410572319e+00 
17700 5.6036843742e+00 2.0035219530e-02 1.4663697194e+00 -2.5398268566e+00 1.4663697194e+00 2.5398268566e+00 
17800 5.6036491149e+00 1.9246708699e-02 1.4656866153e+00 -2.5386436856e+00 1.4656866153e+00 2.5386436856e+00 
17900 5.6036158748e+00 1.8478860036e-02 1.4650300878e+00 -2.5375065467e+00 1.4650300878e+00 2.5375065467e+00 
18000 5.6035845235e+00 1.7731354268e-02 1.4643994682e+00 -2.5364142815e+00 1.4643994682e+00 2.5364142815e+00 
18100 5.6035549369e+00 1.7003869981e-02 1.4637940961e+00 -2.5353657462e+00 1.4637940961e+00 2.5353657462e+00 
18200 5.6035269969e+00 1.6296084021e-02 1.4632133196e+00 -2.5343598118e+00 1.4632133196e+00 2.5343598118e+00 
18300 5.6035005912e+00 1.5607671874e-02 1.4626564954e+00 -2.5333953641e+00 1.4626564954e+00 2.5333953641e+00 
18400 5.6034756135e+00 1.4938308026e-02 1.4621229893e+00 -2.5324713044e+00 1.4621229893e+00 2.5324713044e+00 
18500 5.6034519631e+00 1.4287666312e-02 1.4616121760e+00 -2.5315865498e+00 1.4616121760e+00 2.5315865498e+00 
18600 5.6034295447e+00 1.3655420242e-02 1.4611234393e+00 -2.5307400331e+00 1.4611234393e+00 2.5307400331e+00 
18700 5.6034082686e+00 1.3041243313e-02 1.4606561724e+00 -2.5299307031e+00 1.4606561724e+00 2.5299307031e+00 
18800 5.6033880501e+00 1.2444809306e-02 1.4602097779e+00 -2.5291575250e+00 1.4602097779e+00 2.5291575250e+00 
18900 5.6033688098e+00 1.1865792564e-02 1.4597836678e+00 -2.5284194806e+00 1.4597836678e+00 2.5284194806e+00 
19000 5.6033504730e+00 1.1303868253e-02 1.4593772636e+00 -2.5277155680e+00 1.4593772636e+00 2.5277155680e+00 
19100 5.6033329698e+00 1.0758712613e-02 1.4589899968e+00 -2.5270448022e+00 1.4589899968e+00 2.5270448022e+00 
19200 5.6033162349e+00 1.0230003192e-02 1.4586213082e+00 -2.5264062148e+00 1.4586213082e+00 2.5264062148e+00 
19300 5.6033002074e+00 9.7174190604e-03 1.4582706486e+00 -2.5257988545e+00 1.4582706486e+00 2.5257988545e+00 
19400 5.6032848306e+00 9.2206410191e-03 1.4579374783e+00 -2.5252217866e+00 1.4579374783e+00 2.5252217866e+00 
19500 5.6032700519e+00 8.7393517907e-03 1.4576212676e+00 -2.5246740937e+00 1.4576212676e+00 2.5246740937e+00 
19600 5.6032558225e+00 8.2732361969e-03 1.4573214966e+00 -2.5241548751e+00 1.4573214966e+00 2.5241548751e+00 
19700 5.6032420974e+00 7.8219813254e-03 1.4570376550e+00 -2.5236632471e+00 1.4570376550e+00 2.5236632471e+00 
19800 5.6032288353e+00 7.3852766839e-03 1.4567692426e+00 -2.5231983431e+00 1.4567692426e+00 2.5231983431e+00 
19900 5.6032159979e+00 6.9628143429e-03 1.4565157686e+00 -2.5227593132e+00 1.4565157686e+00 2.5227593132e+00 
20000 5.6032035505e+00 6.5542890676e-03 1.4562767522e+00 -2.5223453246e+00 1.4562767522e+00 2.5223453246e+00 
20100 5.6031914611e+00 6.1593984401e-03 1.4560517221e+00 -2.5219555612e+00 1.4560517221e+00 2.5219555612e+00 
20200 5.6031797009e+00 5.7778429703e-03 1.4558402170e+00 -2.5215892235e+00 1.4558402170e+00 2.5215892235e+00 
20300 5.6031682437e+00 5.4093261993e-03 1.4556417848e+00 -2.5212455288e+00 1.4556417848e+00 2.5212455288e+00 
20400 5.6031570657e+00 5.0535547924e-03 1.4554559832e+00 -2.5209237110e+00 1.4554559832e+00 2.5209237110e+00 
20500 5.6031461458e+00 4.7102386244e-03 1.4552823794e+00 -2.5206230204e+00 1.4552823794e+00 2.5206230204e+00 
20600 5.6031354650e+00 4.3790908571e-03 1.4551205499e+00 -2.5203427235e+00 1.4551205499e+00 2.5203427235e+00 
20700 5.6031250064e+00 4.0598280085e-03 1.4549700807e+00 -2.5200821033e+00 1.4549700807e+00 2.5200821033e+00 
20800 5.6031147552e+00 3.7521700161e-03 1.4548305671e+00 -2.5198404586e+00 1.4548305671e+00 2.5198404586e+00 
20900 5.6031046983e+00 3.4558402928e-03 1.4547016134e+00 -2.5196171043e+00 1.4547016134e+00 2.5196171043e+00 
21000 5.6030948243e+00 3.1705657762e-03 1.4545828333e+00 -2.5194113711e+00 1.4545828333e+00 2.5194113711e+00 
21100 5.6030851236e+00 2.8960769730e-03 1.4544738493e+00 -2.5192226052e+00 1.4544738493e+00 2.5192226052e+00 
21200 5.6030755879e+00 2.6321079975e-03 1.4543742928e+00 -2.5190501684e+00 1.4543742928e+00 2.5190501684e+00 
21300 5.6030662100e+00 2.3783966044e-03 1.4542838044e+00 -2.5188934379e+00 1.4542838044e+00 2.5188934379e+00 
21400 5.6030569843e+00 2.1346842175e-03 1.4542020331e+00 -2.5187518058e+00 1.4542020331e+00 2.5187518058e+00 
21500 5.6030479061e+00 1.9007159537e-03 1.4541286366e+00 -2.5186246794e+00 1.4541286366e+00 2.5186246794e+00 
21600 5.6030389718e+00 1.6762406426e-03 1.4540632813e+00 -2.5185114806e+00 1.4540632813e+00 2.5185114806e+00 
21700 5.6030301786e+00 1.4610108425e-03 1.4540056418e+00 -2.5184116460e+00 1.4540056418e+00 2.5184116460e+00 
21800 5.6030215246e+00 1.2547828522e-03 1.4539554012e+00 -2.5183246268e+00 1.4539554012e+00 2.5183246268e+00 
21900 5.6030130085e+00 1.0573167202e-03 1.4539122507e+00 -2.5182498880e+00 1.4539122507e+00 2.5182498880e+00 
22000 5.6030046298e+00 8.6837625013e-04 1.4538758898e+00 -2.5181869090e+00 1.4538758898e+00 2.5181869090e+00 
22100 5.6029963883e+00 6.8772900342e-04 1.4538460257e+00 -2.5181351829e+00 1.4538460257e+00 2.5181351829e+00 
22200 5.6029882846e+00 5.1514629922e-04 1.4538223737e+00 -2.5180942164e+00 1.4538223737e+00 2.5180942164e+00 
22300 5.6029803194e+00 3.5040321184e-04 1.4538046568e+00 -2.5180635298e+00 1.4538046568e+00 2.5180635298e+00 
22400 5.6029724940e+00 1.9327856585e-04 1.4537926055e+00 -2.5180426565e+00 1.4537926055e+00 2.5180426565e+00 
22500 5.6029648097e+00 4.3554928893e-05 1.4537859582e+00 -2.5180311429e+00 1.4537859582e+00 2.5180311429e+00 
22600 5.6029572678e+00 -9.7623051940e-05 1.4537859582e+00 -2.5180311429e+00 1.4537859582e+00 2.5180311429e+00 
22700 5.6029498705e+00 -2.3322032526e-04 1.4537893157e+00 -2.5180369583e+00 1.4537893157e+00 2.5180369583e+00 
22800 5.6029426198e+00 -3.6204552086e-04 1.4537973368e+00 -2.5180508513e+00 1.4537973368e+00 2.5180508513e+00 
22900 5.6029355178e+00 -4.8430123261e-04 1.4538097886e+00 -2.5180724183e+00 1.4538097886e+00 2.5180724183e+00 
23000 5.6029285665e+00 -6.0018637430e-04 1.4538264449e+00 -2.5181012679e+00 1.4538264449e+00 2.5181012679e+00 
23100 5.6029217679e+00 -7.0989619699e-04 1.4538470865e+00 -2.5181370203e+00 1.4538470865e+00 2.5181370203e+00 
23200 5.6029151240e+00 -8.1362230765e-04 1.4538715010e+00 -2.5181793074e+00 1.4538715010e+00 2.5181793074e+00 
23300 5.6029086367e+00 -9.1155268906e-04 1.4538994823e+00 -2.5182277725e+00 1.4538994823e+00 2.5182277725e+00 
23400 5.6029023078e+00 -1.0038717208e-03 1.4539308310e+00 -2.5182820700e+00 1.4539308310e+00 2.5182820700e+00 
23500 5.6028961390e+00 -1.0907602015e-03 1.4539653538e+00 -2.5183418652e+00 1.4539653538e+00 2.5183418652e+00 
23600 5.6028901318e+00 -1.1723953716e-03 1.4540028638e+00 -2.5184068345e+00 1.4540028638e+00 2.5184068345e+00 
23700 5.6028842877e+00 -1.2489509380e-03 1.4540431801e+00 -2.5184766644e+00 1.4540431801e+00 2.5184766644e+00 
23800 5.6028786076e+00 -1.3205970984e-03 1.4540861279e+00 -2.5185510520e+00 1.4540861279e+00 2.5185510520e+00 
23900 5.6028730928e+00 -1.3875005675e-03 1.4541315380e+00 -2.5186297046e+00 1.4541315380e+00 2.5186297046e+00 
24000 5.6028677439e+00 -1.4498246037e-03 1.4541792471e+00 -2.5187123393e+00 1.4541792471e+00 2.5187123393e+00 
24100 5.6028625616e+00 -1.5077290361e-03 1.4542290977e+00 -2.5187986830e+00 1.4542290977e+00 2.5187986830e+00 
24200 5.6028575462e+00 -1.5613702929e-03 1.4542809375e+00 -2.5188884721e+00 1.4542809375e+00 2.5188884721e+00 
24300 5.6028526978e+00 -1.6109014299e-03 1.4543346196e+00 -2.5189814524e+00 1.4543346196e+00 2.5189814524e+00 
24400 5.6028480163e+00 -1.6564721602e-03 1.4543900028e+00 -2.5190773788e+00 1.4543900028e+00 2.5190773788e+00 
24500 5.6028435015e+00 -1.6982288844e-03 1.4544469505e+00 -2.5191760151e+00 1.4544469505e+00 2.5191760151e+00 
24600 5.6028391527e+00 -1.7363147206e-03 1.4545053314e+00 -2.5192771339e+00 1.4545053314e+00 2.5192771339e+00 
24700 5.6028349693e+00 -1.7708695364e-03 1.4545650193e+00 -2.5193805163e+00 1.4545650193e+00 2.5193805163e+00 
24800 5.6028309502e+00 -1.8020299802e-03 1.4546258925e+00 -2.5194859519e+00 1.4546258925e+00 2.5194859519e+00 
24900 5.6028270942e+00 -1.8299295139e-03 1.4546878343e+00 -2.5195932382e+00 1.4546878343e+00 2.5195932382e+00 
25000 5.6028233999e+00 -1.8546984453e-03 1.4547507325e+00 -2.5197021810e+00 1.4547507325e+00 2.5197021810e+00 
25100 5.6028198658e+00 -1.8764639619e-03 1.4548144792e+00 -2.5198125935e+00 1.4548144792e+00 2.5198125935e+00 
25200 5.6028164899e+00 -1.8953501642e-03 1.4548789712e+00 -2.5199242969e+00 1.4548789712e+00 2.5199242969e+00 
25300 5.6028132703e+00 -1.9114781006e-03 1.4549441094e+00 -2.5200371196e+00 1.4549441094e+00 2.5200371196e+00 
25400 5.6028102049e+00 -1.9249658015e-03 1.4550097989e+00 -2.5201508973e+00 1.4550097989e+00 2.5201508973e+00 
25500 5.6028072912e+00 -1.9359283150e-03 1.4550759490e+00 -2.5202654726e+00 1.4550759490e+00 2.5202654726e+00 
25600 5.6028045267e+00 -1.9444777419e-03 1.4551424728e+00 -2.5203806951e+00 1.4551424728e+00 2.5203806951e+00 
25700 5.6028019089e+00 -1.9507232721e-03 1.4552092873e+00 -2.5204964213e+00 1.4552092873e+00 2.5204964213e+00 
25800 5.6027994348e+00 -1.9547712207e-03 1.4552763133e+00 -2.5206125138e+00 1.4552763133e+00 2.5206125138e+00 
25900 5.6027971016e+00 -1.9567250648e-03 1.4553434754e+00 -2.5207288418e+00 1.4553434754e+00 2.5207288418e+00 
26000 5.6027949062e+00 -1.9566854805e-03 1.4554107014e+00 -2.5208452808e+00 1.4554107014e+00 2.5208452808e+00 
26100 5.6027928455e+00 -1.9547503802e-03 1.4554779230e+00 -2.5209617120e+00 1.4554779230e+00 2.5209617120e+00 
26200 5.6027909162e+00 -1.9510149505e-03 1.4555450750e+00 -2.5210780227e+00 1.4555450750e+00 2.5210780227e+00 
26300 5.6027891149e+00 -1.9455716898e-03 1.4556120956e+00 -2.5211941058e+00 1.4556120956e+00 2.5211941058e+00 
26400 5.6027874383e+00 -1.9385104471e-03 1.4556789262e+00 -2.5213098596e+00 1.4556789262e+00 2.5213098596e+00 
26500 5.6027858829e+00 -1.9299184600e-03 1.4557455111e+00 -2.5214251881e+00 1.4557455111e+00 2.5214251881e+00 
26600 5.6027844450e+00 -1.9198803939e-03 1.4558117978e+00 -2.5215400001e+00 1.4558117978e+00 2.5215400001e+00 
26700 5.6027831213e+00 -1.9084783809e-03 1.4558777368e+00 -2.5216542098e+00 1.4558777368e+00 2.5216542098e+00 
26800 5.6027819079e+00 -1.8957920587e-03 1.4559432812e+00 -2.5217677360e+00 1.4559432812e+00 2.5217677360e+00 
26900 5.6027808014e+00 -1.8818986106e-03 1.4560083870e+00 -2.5218805025e+00 1.4560083870e+00 2.5218805025e+00 
27000 5.6027797979e+00 -1.8668728046e-03 1.4560730127e+00 -2.5219924376e+00 1.4560730127e+00 2.5219924376e+00 
27100 5.6027788939e+00 -1.8507870333e-03 1.4561371196e+00 -2.5221034740e+00 1.4561371196e+00 2.5221034740e+00 
27200 5.6027780857e+00 -1.8337113539e-03 1.4562006714e+00 -2.5222135488e+00 1.4562006714e+00 2.5222135488e+00 
27300 5.6027773695e+00 -1.8157135279e-03 1.4562636340e+00 -2.5223226033e+00 1.4562636340e+00 2.5223226033e+00 
27400 5.6027767419e+00 -1.7968590618e-03 1.4563259760e+00 -2.5224305827e+00 1.4563259760e+00 2.5224305827e+00 
27500 5.6027761991e+00 -1.7772112465e-03 1.4563876679e+00 -2.5225374363e+00 1.4563876679e+00 2.5225374363e+00 
27600 5.6027757375e+00 -1.7568311979e-03 1.4564486827e+00 -2.5226431170e+00 1.4564486827e+00 2.5226431170e+00 
27700 5.6027753537e+00 -1.7357778974e-03 1.4565089953e+00 -2.5227475815e+00 1.4565089953e+00 2.5227475815e+00 
27800 5.6027750440e+00 -1.7141082317e-03 1.4565685826e+00 -2.5228507898e+00 1.4565685826e+00 2.5228507898e+00 
27900 5.6027748051e+00 -1.6918770335e-03 1.4566274236e+00 -2.5229527054e+00 1.4566274236e+00 2.5229527054e+00 
28000 5.6027746335e+00 -1.6691371214e-03 1.4566854992e+00 -2.5230532952e+00 1.4566854992e+00 2.5230532952e+00 
28100 5.6027745259e+00 -1.6459393403e-03 1.4567427918e+00 -2.5231525290e+00 1.4567427918e+00 2.5231525290e+00 
28200 5.6027744789e+00 -1.6223326015e-03 1.4567992860e+00 -2.5232503798e+00 1.4567992860e+00 2.5232503798e+00 
28300 5.6027744894e+00 -1.5983639230e-03 1.4568549678e+00 -2.5233468234e+00 1.4568549678e+00 2.5233468234e+00 
28400 5.6027745542e+00 -1.5740784688e-03 1.4569098248e+00 -2.5234418386e+00 1.4569098248e+00 2.5234418386e+00 
28500 5.6027746702e+00 -1.5495195894e-03 1.4569638462e+00 -2.5235354065e+00 1.4569638462e+00 2.5235354065e+00 
28600 5.6027748345e+00 -1.5247288613e-03 1.4570170229e+00 -2.5236275111e+00 1.4570170229e+00 2.5236275111e+00 
28700 5.6027750441e+00 -1.4997461262e-03 1.4570693469e+00 -2.5237181389e+00 1.4570693469e+00 2.5237181389e+00 
28800 5.6027752962e+00 -1.4746095307e-03 1.4571208116e+00 -2.5238072785e+00 1.4571208116e+00 2.5238072785e+00 
28900 5.6027755881e+00 -1.4493555654e-03 1.4571714120e+00 -2.5238949210e+00 1.4571714120e+00 2.5238949210e+00 
29000 5.6027759170e+00 -1.4240191034e-03 1.4572211441e+00 -2.5239810595e+00 1.4572211441e+00 2.5239810595e+00 
29100 5.6027762804e+00 -1.3986334398e-03 1.4572700052e+00 -2.5240656893e+00 1.4572700052e+00 2.5240656893e+00 
29200 5.6027766758e+00 -1.3732303291e-03 1.4573179936e+00 -2.5241488077e+00 1.4573179936e+00 2.5241488077e+00 
29300 5.6027771008e+00 -1.3478400243e-03 1.4573651088e+00 -2.5242304137e+00 1.4573651088e+00 2.5242304137e+00 
29400 5.6027775530e+00 -1.3224913141e-03 1.4574113514e+00 -2.5243105082e+00 1.4574113514e+00 2.5243105082e+00 
29500 5.6027780303e+00 -1.2972115607e-03 1.4574567229e+00 -2.5243890939e+00 1.4574567229e+00 2.5243890939e+00 
29600 5.6027785306e+00 -1.2720267370e-03 1.4575012257e+00 -2.5244661750e+00 1.4575012257e+00 2.5244661750e+00 
29700 5.6027790516e+00 -1.2469614637e-03 1.4575448632e+00 -2.5245417573e+00 1.4575448632e+00 2.5245417573e+00 
29800 5.6027795916e+00 -1.2220390454e-03 1.4575876395e+00 -2.5246158480e+00 1.4575876395e+00 2.5246158480e+00 
29900 5.6027801486e+00 -1.1972815072e-03 1.4576295596e+00 -2.5246884558e+00 1.4576295596e+00 2.5246884558e+00 
30000 5.6027807208e+00 -1.1727096304e-03 1.4576706292e+00 -2.5247595906e+00 1.4576706292e+00 2.5247595906e+00 
30100 5.6027813065e+00 -1.1483429877e-03 1.4577108549e+00 -2.5248292634e+00 1.4577108549e+00 2.5248292634e+00 
30200 5.6027819040e+00 -1.1241999785e-03 1.4577502436e+00 -2.5248974867e+00 1.4577502436e+00 2.5248974867e+00 
30300 5.6027825119e+00 -1.1002978632e-03 1.4577888032e+00 -2.5249642739e+00 1.4577888032e+00 2.5249642739e+00 
30400 5.6027831287e+00 -1.0766527977e-03 1.4578265420e+00 -2.5250296393e+00 1.4578265420e+00 2.5250296393e+00 
30500 5.6027837530e+00 -1.0532798668e-03 1.4578634688e+00 -2.5250935984e+00 1.4578634688e+00 2.5250935984e+00 
30600 5.6027843834e+00 -1.0301931176e-03 1.4578995930e+00 -2.5251561675e+00 1.4578995930e+00 2.5251561675e+00 
30700 5.6027850188e+00 -1.0074055925e-03 1.4579349246e+00 -2.5252173635e+00 1.4579349246e+00 2.5252173635e+00 
30800 5.6027856579e+00 -9.8492936109e-04 1.4579694738e+00 -2.5252772045e+00 1.4579694738e+00 2.5252772045e+00 
30900 5.6027862997e+00 -9.6277555263e-04 1.4580032513e+00 -2.5253357089e+00 1.4580032513e+00 2.5253357089e+00 
31000 5.6027869431e+00 -9.4095438693e-04 1.4580362684e+00 -2.5253928961e+00 1.4580362684e+00 2.5253928961e+00 
31100 5.6027875872e+00 -9.1947520548e-04 1.4580685364e+00 -2.5254487859e+00 1.4580685364e+00 2.5254487859e+00 
31200 5.6027882311e+00 -8.9834650183e-04 1.4581000671e+00 -2.5255033987e+00 1.4581000671e+00 2.5255033987e+00 
31300 5.6027888740e+00 -8.7757595146e-04 1.4581308726e+00 -2.5255567554e+00 1.4581308726e+00 2.5255567554e+00 
31400 5.6027895150e+00 -8.5717044119e-04 1.4581609652e+00 -2.5256088773e+00 1.4581609652e+00 2.5256088773e+00 
31500 5.6027901535e+00 -8.3713609804e-04 1.4581903574e+00 -2.5256597862e+00 1.4581903574e+00 2.5256597862e+00 
31600 5.6027907888e+00 -8.1747831763e-04 1.4582190622e+00 -2.5257095042e+00 1.4582190622e+00 2.5257095042e+00 
31700 5.6027914202e+00 -7.9820179193e-04 1.4582470923e+00 -2.5257580538e+00 1.4582470923e+00 2.5257580538e+00 
31800 5.6027920473e+00 -7.7931053668e-04 1.4582744609e+00 -2.5258054576e+00 1.4582744609e+00 2.5258054576e+00 
31900 5.6027926695e+00 -7.6080791807e-04 1.4583011813e+00 -2.5258517387e+00 1.4583011813e+00 2.5258517387e+00 
32000 5.6027932864e+00 -7.4269667907e-04 1.4583272668e+00 -2.5258969201e+00 1.4583272668e+00 2.5258969201e+00 
32100 5.6027938975e+00 -7.2497896510e-04 1.4583527308e+00 -2.5259410252e+00 1.4583527308e+00 2.5259410252e+00 
32200 5.6027945024e+00 -7.0765634923e-04 1.4583775870e+00 -2.5259840773e+00 1.4583775870e+00 2.5259840773e+00 
32300 5.6027951008e+00 -6.9072985685e-04 1.4584018488e+00 -2.5260261000e+00 1.4584018488e+00 2.5260261000e+00 
32400 5.6027956924e+00 -6.7419998976e-04 1.4584255299e+00 -2.5260671169e+00 1.4584255299e+00 2.5260671169e+00 
32500 5.6027962769e+00 -6.5806674975e-04 1.4584486440e+00 -2.5261071516e+00 1.4584486440e+00 2.5261071516e+00 
32600 5.6027968541e+00 -6.4232966168e-04 1.4584712045e+00 -2.5261462276e+00 1.4584712045e+00 2.5261462276e+00 
32700 5.6027974238e+00 -6.2698779597e-04 1.4584932252e+00 -2.5261843686e+00 1.4584932252e+00 2.5261843686e+00 
32800 5.6027979858e+00 -6.1203979055e-04 1.4585147197e+00 -2.5262215980e+00 1.4585147197e+00 2.5262215980e+00 
32900 5.6027985400e+00 -5.9748387241e-04 1.4585357013e+00 -2.5262579394e+00 1.4585357013e+00 2.5262579394e+00 
33000 5.6027990862e+00 -5.8331787840e-04 1.4585561837e+00 -2.5262934159e+00 1.4585561837e+00 2.5262934159e+00 
33100 5.6027996244e+00 -5.6953927572e-04 1.4585761802e+00 -2.5263280507e+00 1.4585761802e+00 2.5263280507e+00 
33200 5.6028001544e+00 -5.5614518176e-04 1.4585957040e+00 -2.5263618670e+00 1.4585957040e+00 2.5263618670e+00 
33300 5.6028006763e+00 -5.4313238347e-04 1.4586147685e+00 -2.5263948876e+00 1.4586147685e+00 2.5263948876e+00 
33400 5.6028011900e+00 -5.3049735617e-04 1.4586333866e+00 -2.5264271352e+00 1.4586333866e+00 2.5264271352e+00 
33500 5.6028016954e+00 -5.1823628192e-04 1.4586515714e+00 -2.5264586321e+00 1.4586515714e+00 2.5264586321e+00 
33600 5.6028021926e+00 -5.0634506730e-04 1.4586693356e+00 -2.5264894007e+00 1.4586693356e+00 2.5264894007e+00 
33700 5.6028026817e+00 -4.9481936077e-04 1.4586866921e+00 -2.5265194630e+00 1.4586866921e+00 2.5265194630e+00 
33800 5.6028031625e+00 -4.8365456945e-04 1.4587036532e+00 -2.5265488406e+00 1.4587036532e+00 2.5265488406e+00 
33900 5.6028036353e+00 -4.7284587546e-04 1.4587202315e+00 -2.5265775550e+00 1.4587202315e+00 2.5265775550e+00 
34000 5.6028041000e+00 -4.6238825175e-04 1.4587364391e+00 -2.5266056273e+00 1.4587364391e+00 2.5266056273e+00 
34100 5.6028045566e+00 -4.5227647746e-04 1.4587522880e+00 -2.5266330785e+00 1.4587522880e+00 2.5266330785e+00 
34200 5.6028050054e+00 -4.4250515279e-04 1.4587677902e+00 -2.5266599291e+00 1.4587677902e+00 2.5266599291e+00 
34300 5.6028054463e+00 -4.3306871339e-04 1.4587829573e+00 -2.5266861993e+00 1.4587829573e+00 2.5266861993e+00 
34400 5.6028058795e+00 -4.2396144432e-04 1.4587978009e+00 -2.5267119091e+00 1.4587978009e+00 2.5267119091e+00 
34500 5.6028063051e+00 -4.1517749351e-04 1.4588123321e+00 -2.5267370779e+00 1.4588123321e+00 2.5267370779e+00 
34600 5.6028067231e+00 -4.0671088478e-04 1.4588265621e+00 -2.5267617250e+00 1.4588265621e+00 2.5267617250e+00 
34700 5.6028071337e+00 -3.9855553043e-04 1.4588405018e+00 -2.5267858692e+00 1.4588405018e+00 2.5267858692e+00 
34800 5.6028075370e+00 -3.9070524337e-04 1.4588541618e+00 -2.5268095291e+00 1.4588541618e+00 2.5268095291e+00 
34900 5.6028079331e+00 -3.8315374883e-04 1.4588675526e+00 -2.5268327227e+00 1.4588675526e+00 2.5268327227e+00 
35000 5.6028083222e+00 -3.7589469562e-04 1.4588806845e+00 -2.5268554678e+00 1.4588806845e+00 2.5268554678e+00 
35100 5.6028087043e+00 -3.6892166700e-04 1.4588935675e+00 -2.5268777818e+00 1.4588935675e+00 2.5268777818e+00 
35200 5.6028090796e+00 -3.6222819112e-04 1.4589062115e+00 -2.5268996817e+00 1.4589062115e+00 2.5268996817e+00 
35300 5.6028094483e+00 -3.5580775109e-04 1.4589186258e+00 -2.5269211841e+00 1.4589186258e+00 2.5269211841e+00 
35400 5.6028098104e+00 -3.4965379457e-04 1.4589308201e+00 -2.5269423051e+00 1.4589308201e+00 2.5269423051e+00 
35500 5.6028101660e+00 -3.4375974306e-04 1.4589428033e+00 -2.5269630607e+00 1.4589428033e+00 2.5269630607e+00 
35600 5.6028105154e+00 -3.3811900077e-04 1.4589545845e+00 -2.5269834662e+00 1.4589545845e+00 2.5269834662e+00 
35700 5.6028108587e+00 -3.3272496311e-04 1.4589661722e+00 -2.5270035368e+00 1.4589661722e+00 2.5270035368e+00 
35800 5.6028111959e+00 -3.2757102480e-04 1.4589775750e+00 -2.5270232870e+00 1.4589775750e+00 2.5270232870e+00 
35900 5.6028115273e+00 -3.2265058767e-04 1.4589888010e+00 -2.5270427311e+00 1.4589888010e+00 2.5270427311e+00 
36000 5.6028118529e+00 -3.1795706804e-04 1.4589998584e+00 -2.5270618830e+00 1.4589998584e+00 2.5270618830e+00 
36100 5.6028121728e+00 -3.1348390382e-04 1.4590107548e+00 -2.5270807561e+00 1.4590107548e+00 2.5270807561e+00 
36200 5.6028124873e+00 -3.0922456122e-04 1.4590214979e+00 -2.5270993636e+00 1.4590214979e+00 2.5270993636e+00 
36300 5.6028127963e+00 -3.0517254119e-04 1.4590320948e+00 -2.5271177182e+00 1.4590320948e+00 2.5271177182e+00 
36400 5.6028131002e+00 -3.0132138545e-04 1.4590425529e+00 -2.5271358320e+00 1.4590425529e+00 2.5271358320e+00 
36500 5.6028133988e+00 -2.9766468229e-04 1.4590528789e+00 -2.5271537172e+00 1.4590528789e+00 2.5271537172e+00 
36600 5.6028136925e+00 -2.9419607203e-04 1.4590630795e+00 -2.5271713852e+00 1.4590630795e+00 2.5271713852e+00 
36700 5.6028139812e+00 -2.9090925217e-04 1.4590731612e+00 -2.5271888472e+00 1.4590731612e+00 2.5271888472e+00 
36800 5.6028142652e+00 -2.8779798228e-04 1.4590831302e+00 -2.5272061140e+00 1.4590831302e+00 2.5272061140e+00 
36900 5.6028145445e+00 -2.8485608855e-04 1.4590929925e+00 -2.5272231960e+00 1.4590929925e+00 2.5272231960e+00 
37000 5.6028148192e+00 -2.8207746813e-04 1.4591027539e+00 -2.5272401033e+00 1.4591027539e+00 2.5272401033e+00 
37100 5.6028150895e+00 -2.7945609318e-04 1.4591124201e+00 -2.5272568455e+00 1.4591124201e+00 2.5272568455e+00 
37200 5.6028153554e+00 -2.7698601460e-04 1.4591219963e+00 -2.5272734321e+00 1.4591219963e+00 2.5272734321e+00 
37300 5.6028156171e+00 -2.7466136562e-04 1.4591314879e+00 -2.5272898719e+00 1.4591314879e+00 2.5272898719e+00 
37400 5.6028158746e+00 -2.7247636503e-04 1.4591408997e+00 -2.5273061737e+00 1.4591408997e+00 2.5273061737e+00 
37500 5.6028161280e+00 -2.7042532021e-04 1.4591502366e+00 -2.5273223456e+00 1.4591502366e+00 2.5273223456e+00 
37600 5.6028163775e+00 -2.6850263001e-04 1.4591595031e+00 -2.5273383957e+00 1.4591595031e+00 2.5273383957e+00 
37700 5.6028166232e+00 -2.6670278724e-04 1.4591687037e+00 -2.5273543317e+00 1.4591687037e+00 2.5273543317e+00 
37800 5.6028168650e+00 -2.6502038107e-04 1.4591778426e+00 -2.5273701606e+00 1.4591778426e+00 2.5273701606e+00 
37900 5.6028171032e+00 -2.6345009921e-04 1.4591869238e+00 -2.5273858897e+00 1.4591869238e+00 2.5273858897e+00 
38000 5.6028173377e+00 -2.6198672979e-04 1.4591959511e+00 -2.5274015254e+00 1.4591959511e+00 2.5274015254e+00 
38100 5.6028175687e+00 -2.6062516318e-04 1.4592049282e+00 -2.5274170742e+00 1.4592049282e+00 2.5274170742e+00 
38200 5.6028177963e+00 -2.5936039349e-04 1.4592138585e+00 -2.5274325421e+00 1.4592138585e+00 2.5274325421e+00 
38300 5.6028180204e+00 -2.5818751996e-04 1.4592227455e+00 -2.5274479348e+00 1.4592227455e+00 2.5274479348e+00 
38400 5.6028182413e+00 -2.5710174817e-04 1.4592315923e+00 -2.5274632579e+00 1.4592315923e+00 2.5274632579e+00 
38500 5.6028184590e+00 -2.5609839104e-04 1.4592404018e+00 -2.5274785164e+00 1.4592404018e+00 2.5274785164e+00 
38600 5.6028186735e+00 -2.5517286969e-04 1.4592491769e+00 -2.5274937152e+00 1.4592491769e+00 2.5274937152e+00 
38700 5.6028188849e+00 -2.5432071414e-04 1.4592579202e+00 -2.5275088591e+00 1.4592579202e+00 2.5275088591e+00 
38800 5.6028190933e+00 -2.5353756389e-04 1.4592666342e+00 -2.5275239523e+00 1.4592666342e+00 2.5275239523e+00 
38900 5.6028192988e+00 -2.5281916824e-04 1.4592753214e+00 -2.5275389989e+00 1.4592753214e+00 2.5275389989e+00 
39000 5.6028195014e+00 -2.5216138661e-04 1.4592839839e+00 -2.5275540028e+00 1.4592839839e+00 2.5275540028e+00 
39100 5.6028197011e+00 -2.5156018864e-04 1.4592926238e+00 -2.5275689675e+00 1.4592926238e+00 2.5275689675e+00 
39200 5.6028198980e+00 -2.5101165417e-04 1.4593012431e+00 -2.5275838965e+00 1.4593012431e+00 2.5275838965e+00 
39300 5.6028200922e+00 -2.5051197315e-04 1.4593098435e+00 -2.5275987929e+00 1.4593098435e+00 2.5275987929e+00 
39400 5.6028202838e+00 -2.5005744531e-04 1.4593184267e+00 -2.5276136595e+00 1.4593184267e+00 2.5276136595e+00 
39500 5.6028204728e+00 -2.4964447988e-04 1.4593269943e+00 -2.5276284990e+00 1.4593269943e+00 2.5276284990e+00 
39600 5.6028206591e+00 -2.4926959506e-04 1.4593355477e+00 -2.5276433140e+00 1.4593355477e+00 2.5276433140e+00 
39700 5.6028208430e+00 -2.4892941747e-04 1.4593440883e+00 -2.5276581066e+00 1.4593440883e+00 2.5276581066e+00 
39800 5.6028210244e+00 -2.4862068146e-04 1.4593526171e+00 -2.5276728790e+00 1.4593526171e+00 2.5276728790e+00 
39900 5.6028212034e+00 -2.4834022835e-04 1.4593611353e+00 -2.5276876329e+00 1.4593611353e+00 2.5276876329e+00 
40000 5.6028213801e+00 -2.4808500560e-04 1.4593696438e+00 -2.5277023701e+00 1.4593696438e+00 2.5277023701e+00 
40100 5.6028215544e+00 -2.4785206582e-04 1.4593781436e+00 -2.5277170921e+00 1.4593781436e+00 2.5277170921e+00 
40200 5.6028217264e+00 -2.4763856581e-04 1.4593866353e+00 -2.5277318002e+00 1.4593866353e+00 2.5277318002e+00 
40300 5.6028218962e+00 -2.4744176541e-04 1.4593951196e+00 -2.5277464955e+00 1.4593951196e+00 2.5277464955e+00 
40400 5.6028220638e+00 -2.4725902640e-04 1.4594035972e+00 -2.5277611790e+00 1.4594035972e+00 2.5277611790e+00 
40500 5.6028222292e+00 -2.4708781122e-04 1.4594120684e+00 -2.5277758517e+00 1.4594120684e+00 2.5277758517e+00 
40600 5.6028223925e+00 -2.4692568171e-04 1.4594205337e+00 -2.5277905140e+00 1.4594205337e+00 2.5277905140e+00 
40700 5.6028225538e+00 -2.4677029778e-04 1.4594289935e+00 -2.5278051667e+00 1.4594289935e+00 2.5278051667e+00 
40800 5.6028227129e+00 -2.4661941595e-04 1.4594374478e+00 -2.5278198101e+00 1.4594374478e+00 2.5278198101e+00 
40900 5.6028228701e+00 -2.4647088798e-04 1.4594458970e+00 -2.5278344444e+00 1.4594458970e+00 2.5278344444e+00 
41000 5.6028230253e+00 -2.4632265929e-04 1.4594543409e+00 -2.5278490699e+00 1.4594543409e+00 2.5278490699e+00 
41100 5.6028231785e+00 -2.4617276750e-04 1.4594627798e+00 -2.5278636864e+00 1.4594627798e+00 2.5278636864e+00 
41200 5.6028233298e+00 -2.4601934081e-04 1.4594712135e+00 -2.5278782940e+00 1.4594712135e+00 2.5278782940e+00 
41300 5.6028234793e+00 -2.4586059639e-04 1.4594796419e+00 -2.5278928924e+00 1.4594796419e+00 2.5278928924e+00 
41400 5.6028236269e+00 -2.4569483874e-04 1.4594880648e+00 -2.5279074812e+00 1.4594880648e+00 2.5279074812e+00 
41500 5.6028237726e+00 -2.4552045803e-04 1.4594964819e+00 -2.5279220602e+00 1.4594964819e+00 2.5279220602e+00 
41600 5.6028239166e+00 -2.4533592838e-04 1.4595048931e+00 -2.5279366287e+00 1.4595048931e+00 2.5279366287e+00 
41700 5.6028240588e+00 -2.4513980612e-04 1.4595132979e+00 -2.5279511862e+00 1.4595132979e+00 2.5279511862e+00 
41800 5.6028241993e+00 -2.4493072812e-04 1.4595216959e+00 -2.5279657320e+00 1.4595216959e+00 2.5279657320e+00 
41900 5.6028243380e+00 -2.4470740993e-04 1.4595300867e+00 -2.5279802653e+00 1.4595300867e+00 2.5279802653e+00 
42000 5.6028244751e+00 -2.4446864409e-04 1.4595384698e+00 -2.5279947852e+00 1.4595384698e+00 2.5279947852e+00 
42100 5.6028246105e+00 -2.4421329827e-04 1.4595468446e+00 -2.5280092909e+00 1.4595468446e+00 2.5280092909e+00 
42200 5.6028247442e+00 -2.4394031355e-04 1.4595552107e+00 -2.5280237814e+00 1.4595552107e+00 2.5280237814e+00 
42300 5.6028248764e+00 -2.4364870254e-04 1.4595635674e+00 -2.5280382556e+00 1.4595635674e+00 2.5280382556e+00 
42400 5.6028250070e+00 -2.4333754760e-04 1.4595719140e+00 -2.5280527124e+00 1.4595719140e+00 2.5280527124e+00 
42500 5.6028251360e+00 -2.4300599907e-04 1.4595802499e+00 -2.5280671506e+00 1.4595802499e+00 2.5280671506e+00 
42600 5.6028252634e+00 -2.4265327336e-04 1.4595885745e+00 -2.5280815691e+00 1.4595885745e+00 2.5280815691e+00 
42700 5.6028253894e+00 -2.4227865125e-04 1.4595968869e+00 -2.5280959666e+00 1.4595968869e+00 2.5280959666e+00 
42800 5.6028255138e+00 -2.4188147598e-04 1.4596051864e+00 -2.5281103418e+00 1.4596051864e+00 2.5281103418e+00 
42900 5.6028256368e+00 -2.4146115151e-04 1.4596134722e+00 -2.5281246933e+00 1.4596134722e+00 2.5281246933e+00 
43000 5.6028257583e+00 -2.4101714072e-04 1.4596217437e+00 -2.5281390198e+00 1.4596217437e+00 2.5281390198e+00 
43100 5.6028258784e+00 -2.4054896358e-04 1.4596299998e+00 -2.5281533199e+00 1.4596299998e+00 2.5281533199e+00 
43200 5.6028259970e+00 -2.4005619540e-04 1.4596382399e+00 -2.5281675922e+00 1.4596382399e+00 2.5281675922e+00 
43300 5.6028261143e+00 -2.3953846507e-04 1.4596464630e+00 -2.5281818351e+00 1.4596464630e+00 2.5281818351e+00 
43400 5.6028262301e+00 -2.3899545331e-04 1.4596546684e+00 -2.5281960472e+00 1.4596546684e+00 2.5281960472e+00 
43500 5.6028263446e+00 -2.3842689089e-04 1.4596628551e+00 -2.5282102270e+00 1.4596628551e+00 2.5282102270e+00 
43600 5.6028264578e+00 -2.3783255697e-04 1.4596710223e+00 -2.5282243730e+00 1.4596710223e+00 2.5282243730e+00 
43700 5.6028265697e+00 -2.3721227732e-04 1.4596791691e+00 -2.5282384837e+00 1.4596791691e+00 2.5282384837e+00 
43800 5.6028266802e+00 -2.3656592270e-04 1.4596872946e+00 -2.5282525574e+00 1.4596872946e+00 2.5282525574e+00 
43900 5.6028267894e+00 -2.3589340717e-04 1.4596953979e+00 -2.5282665928e+00 1.4596953979e+00 2.5282665928e+00 
44000 5.6028268974e+00 -2.3519468642e-04 1.4597034782e+00 -2.5282805882e+00 1.4597034782e+00 2.5282805882e+00 
44100 5.6028270041e+00 -2.3446975616e-04 1.4597115344e+00 -2.5282945420e+00 1.4597115344e+00 2.5282945420e+00 
44200 5.6028271096e+00 -2.3371865054e-04 1.4597195658e+00 -2.5283084528e+00 1.4597195658e+00 2.5283084528e+00 
44300 5.6028272138e+00 -2.3294144050e-04 1.4597275714e+00 -2.5283223189e+00 1.4597275714e+00 2.5283223189e+00 
44400 5.6028273168e+00 -2.3213823231e-04 1.4597355504e+00 -2.5283361388e+00 1.4597355504e+00 2.5283361388e+00 
44500 5.6028274186e+00 -2.3130916595e-04 1.4597435017e+00 -2.5283499110e+00 1.4597435017e+00 2.5283499110e+00 
44600 5.6028275192e+00 -2.3045441364e-04 1.4597514247e+00 -2.5283636340e+00 1.4597514247e+00 2.5283636340e+00 
44700 5.6028276187e+00 -2.2957417838e-04 1.4597593183e+00 -2.5283773061e+00 1.4597593183e+00 2.5283773061e+00 
44800 5.6028277170e+00 -2.2866869245e-04 1.4597671817e+00 -2.5283909260e+00 1.4597671817e+00 2.5283909260e+00 
44900 5.6028278142e+00 -2.2773821601e-04 1.4597750141e+00 -2.5284044921e+00 1.4597750141e+00 2.5284044921e+00 
45000 5.6028279102e+00 -2.2678303569e-04 1.4597828146e+00 -2.5284180029e+00 1.4597828146e+00 2.5284180029e+00 
45100 5.6028280051e+00 -2.2580346321e-04 1.4597905823e+00 -2.5284314569e+00 1.4597905823e+00 2.5284314569e+00 
45200 5.6028280989e+00 -2.2479983408e-04 1.4597983164e+00 -2.5284448528e+00 1.4597983164e+00 2.5284448528e+00 
45300 5.6028281917e+00 -2.2377250619e-04 1.4598060161e+00 -2.5284581891e+00 1.4598060161e+00 2.5284581891e+00 
45400 5.6028282833e+00 -2.2272185864e-04 1.4598136806e+00 -2.5284714643e+00 1.4598136806e+00 2.5284714643e+00 
45500 5.6028283739e+00 -2.2164829038e-04 1.4598213090e+00 -2.5284846772e+00 1.4598213090e+00 2.5284846772e+00 
45600 5.6028284634e+00 -2.2055221904e-04 1.4598289006e+00 -2.5284978262e+00 1.4598289006e+00 2.5284978262e+00 
45700 5.6028285519e+00 -2.1943407971e-04 1.4598364547e+00 -2.5285109102e+00 1.4598364547e+00 2.5285109102e+00 
45800 5.6028286393e+00 -2.1829432375e-04 1.4598439704e+00 -2.5285239278e+00 1.4598439704e+00 2.5285239278e+00 
45900 5.6028287258e+00 -2.1713341771e-04 1.4598514470e+00 -2.5285368778e+00 1.4598514470e+00 2.5285368778e+00 
46000 5.6028288112e+00 -2.1595184212e-04 1.4598588839e+00 -2.5285497587e+00 1.4598588839e+00 2.5285497587e+00 
46100 5.6028288956e+00 -2.1475009053e-04 1.4598662802e+00 -2.5285625696e+00 1.4598662802e+00 2.5285625696e+00 
46200 5.6028289791e+00 -2.1352866833e-04 1.4598736353e+00 -2.5285753090e+00 1.4598736353e+00 2.5285753090e+00 
46300 5.6028290615e+00 -2.1228809182e-04 1.4598809486e+00 -2.5285879760e+00 1.4598809486e+00 2.5285879760e+00 
46400 5.6028291430e+00 -2.1102888717e-04 1.4598882193e+00 -2.5286005693e+00 1.4598882193e+00 2.5286005693e+00 
46500 5.6028292236e+00 -2.0975158948e-04 1.4598954469e+00 -2.5286130878e+00 1.4598954469e+00 2.5286130878e+00 
46600 5.6028293032e+00 -2.0845674181e-04 1.4599026307e+00 -2.5286255305e+00 1.4599026307e+00 2.5286255305e+00 
46700 5.6028293819e+00 -2.0714489431e-04 1.4599097701e+00 -2.5286378963e+00 1.4599097701e+00 2.5286378963e+00 
46800 5.6028294596e+00 -2.0581660331e-04 1.4599168646e+00 -2.5286501843e+00 1.4599168646e+00 2.5286501843e+00 
46900 5.6028295364e+00 -2.0447243050e-04 1.4599239135e+00 -2.5286623934e+00 1.4599239135e+00 2.5286623934e+00 
47000 5.6028296124e+00 -2.0311294207e-04 1.4599309163e+00 -2.5286745226e+00 1.4599309163e+00 2.5286745226e+00 
47100 5.6028296874e+00 -2.0173870795e-04 1.4599378726e+00 -2.5286865712e+00 1.4599378726e+00 2.5286865712e+00 
47200 5.6028297616e+00 -2.0035030103e-04 1.4599447818e+00 -2.5286985383e+00 1.4599447818e+00 2.5286985383e+00 
47300 5.6028298348e+00 -1.9894829642e-04 1.4599516433e+00 -2.5287104229e+00 1.4599516433e+00 2.5287104229e+00 
47400 5.6028299073e+00 -1.9753327074e-04 1.4599584569e+00 -2.5287222242e+00 1.4599584569e+00 2.5287222242e+00 
47500 5.6028299788e+00 -1.9610580143e-04 1.4599652219e+00 -2.5287339416e+00 1.4599652219e+00 2.5287339416e+00 
47600 5.6028300495e+00 -1.9466646608e-04 1.4599719380e+00 -2.5287455743e+00 1.4599719380e+00 2.5287455743e+00 
47700 5.6028301194e+00 -1.9321584184e-04 1.4599786048e+00 -2.5287571215e+00 1.4599786048e+00 2.5287571215e+00 
47800 5.6028301884e+00 -1.9175450476e-04 1.4599852219e+00 -2.5287685826e+00 1.4599852219e+00 2.5287685826e+00 
47900 5.6028302566e+00 -1.9028302923e-04 1.4599917889e+00 -2.5287799570e+00 1.4599917889e+00 2.5287799570e+00 
48000 5.6028303240e+00 -1.8880198744e-04 1.4599983055e+00 -2.5287912441e+00 1.4599983055e+00 2.5287912441e+00 
48100 5.6028303906e+00 -1.8731194882e-04 1.4600047713e+00 -2.5288024432e+00 1.4600047713e+00 2.5288024432e+00 
48200 5.6028304564e+00 -1.8581347953e-04 1.4600111861e+00 -2.5288135539e+00 1.4600111861e+00 2.5288135539e+00 
48300 5.6028305215e+00 -1.8430714200e-04 1.4600175495e+00 -2.5288245757e+00 1.4600175495e+00 2.5288245757e+00 
48400 5.6028305857e+00 -1.8279349445e-04 1.4600238613e+00 -2.5288355081e+00 1.4600238613e+00 2.5288355081e+00 
48500 5.6028306492e+00 -1.8127309043e-04 1.4600301213e+00 -2.5288463507e+00 1.4600301213e+00 2.5288463507e+00 
48600 5.6028307119e+00 -1.7974647846e-04 1.4600363292e+00 -2.5288571030e+00 1.4600363292e+00 2.5288571030e+00 
48700 5.6028307738e+00 -1.7821420157e-04 1.4600424847e+00 -2.5288677647e+00 1.4600424847e+00 2.5288677647e+00 
48800 5.6028308350e+00 -1.7667679698e-04 1.4600485878e+00 -2.5288783355e+00 1.4600485878e+00 2.5288783355e+00 
48900 5.6028308955e+00 -1.7513479568e-04 1.4600546381e+00 -2.5288888151e+00 1.4600546381e+00 2.5288888151e+00 
49000 5.6028309552e+00 -1.7358872218e-04 1.4600606357e+00 -2.5288992031e+00 1.4600606357e+00 2.5288992031e+00 
49100 5.6028310142e+00 -1.7203909414e-04 1.4600665803e+00 -2.5289094994e+00 1.4600665803e+00 2.5289094994e+00 
49200 5.6028310725e+00 -1.7048642207e-04 1.4600724717e+00 -2.5289197038e+00 1.4600724717e+00 2.5289197038e+00 
49300 5.6028311301e+00 -1.6893120909e-04 1.4600783100e+00 -2.5289298160e+00 1.4600783100e+00 2.5289298160e+00 
49400 5.6028311870e+00 -1.6737395066e-04 1.4600840950e+00 -2.5289398359e+00 1.4600840950e+00 2.5289398359e+00 
49500 5.6028312432e+00 -1.6581513435e-04 1.4600898267e+00 -2.5289497635e+00 1.4600898267e+00 2.5289497635e+00 
49600 5.6028312987e+00 -1.6425523957e-04 1.4600955050e+00 -2.5289595985e+00 1.4600955050e+00 2.5289595985e+00 
49700 5.6028313536e+00 -1.6269473744e-04 1.4601011298e+00 -2.5289693410e+00 1.4601011298e+00 2.5289693410e+00 
49800 5.6028314077e+00 -1.6113409056e-04 1.4601067011e+00 -2.5289789908e+00 1.4601067011e+00 2.5289789908e+00 
49900 5.6028314612e+00 -1.5957375284e-04 1.4601122190e+00 -2.5289885481e+00 1.4601122190e+00 2.5289885481e+00 
50000 5.6028315141e+00 -1.5801416934e-04 1.4601176835e+00 -2.5289980128e+00 1.4601176835e+00 2.5289980128e+00 
50100 5.6028315663e+00 -1.5645577615e-04 1.4601230945e+00 -2.5290073849e+00 1.4601230945e+00 2.5290073849e+00 
50200 5.6028316178e+00 -1.5489900027e-04 1.4601284521e+00 -2.5290166646e+00 1.4601284521e+00 2.5290166646e+00 
50300 5.6028316688e+00 -1.5334425945e-04 1.4601337564e+00 -2.5290258519e+00 1.4601337564e+00 2.5290258519e+00 
50400 5.6028317191e+00 -1.5179196214e-04 1.4601390074e+00 -2.5290349470e+00 1.4601390074e+00 2.5290349470e+00 
50500 5.6028317687e+00 -1.5024250739e-04 1.4601442053e+00 -2.5290439499e+00 1.4601442053e+00 2.5290439499e+00 
50600 5.6028318178e+00 -1.4869628479e-04 1.4601493501e+00 -2.5290528610e+00 1.4601493501e+00 2.5290528610e+00 
50700 5.6028318663e+00 -1.4715367436e-04 1.4601544419e+00 -2.5290616803e+00 1.4601544419e+00 2.5290616803e+00 
50800 5.6028319141e+00 -1.4561504660e-04 1.4601594809e+00 -2.5290704080e+00 1.4601594809e+00 2.5290704080e+00 
50900 5.6028319614e+00 -1.4408076234e-04 1.4601644672e+00 -2.5290790445e+00 1.4601644672e+00 2.5290790445e+00 
51000 5.6028320081e+00 -1.4255117280e-04 1.4601694009e+00 -2.5290875900e+00 1.4601694009e+00 2.5290875900e+00 
51100 5.6028320542e+00 -1.4102661956e-04 1.4601742822e+00 -2.5290960447e+00 1.4601742822e+00 2.5290960447e+00 
51200 5.6028320997e+00 -1.3950743451e-04 1.4601791113e+00 -2.5291044089e+00 1.4601791113e+00 2.5291044089e+00 
51300 5.6028321446e+00 -1.3799393993e-04 1.4601838884e+00 -2.5291126831e+00 1.4601838884e+00 2.5291126831e+00 
51400 5.6028321890e+00 -1.3648644843e-04 1.4601886136e+00 -2.5291208674e+00 1.4601886136e+00 2.5291208674e+00 
51500 5.6028322329e+00 -1.3498526304e-04 1.4601932872e+00 -2.5291289623e+00 1.4601932872e+00 2.5291289623e+00 
51600 5.6028322762e+00 -1.3349067721e-04 1.4601979094e+00 -2.5291369681e+00 1.4601979094e+00 2.5291369681e+00 
51700 5.6028323190e+00 -1.3200297484e-04 1.4602024803e+00 -2.5291448853e+00 1.4602024803e+00 2.5291448853e+00 
51800 5.6028323612e+00 -1.3052243038e-04 1.4602070004e+00 -2.5291527142e+00 1.4602070004e+00 2.5291527142e+00 
51900 5.6028324029e+00 -1.2904930882e-04 1.4602114697e+00 -2.5291604553e+00 1.4602114697e+00 2.5291604553e+00 
52000 5.6028324441e+00 -1.2758386582e-04 1.4602158885e+00 -2.5291681090e+00 1.4602158885e+00 2.5291681090e+00 
52100 5.6028324847e+00 -1.2612634773e-04 1.4602202572e+00 -2.5291756757e+00 1.4602202572e+00 2.5291756757e+00 
52200 5.6028325249e+00 -1.2467699171e-04 1.4602245760e+00 -2.5291831560e+00 1.4602245760e+00 2.5291831560e+00 
52300 5.6028325645e+00 -1.2323602576e-04 1.4602288451e+00 -2.5291905503e+00 1.4602288451e+00 2.5291905503e+00 
52400 5.6028326037e+00 -1.2180366889e-04 1.4602330648e+00 -2.5291978592e+00 1.4602330648e+00 2.5291978592e+00 
52500 5.6028326423e+00 -1.2038013112e-04 1.4602372355e+00 -2.5292050830e+00 1.4602372355e+00 2.5292050830e+00 
52600 5.6028326805e+00 -1.1896561366e-04 1.4602413575e+00 -2.5292122224e+00 1.4602413575e+00 2.5292122224e+00 
52700 5.6028327182e+00 -1.1756030899e-04 1.4602454309e+00 -2.5292192779e+00 1.4602454309e+00 2.5292192779e+00 
52800 5.6028327554e+00 -1.1616440093e-04 1.4602494563e+00 -2.5292262500e+00 1.4602494563e+00 2.5292262500e+00 
52900 5.6028327921e+00 -1.1477806482e-04 1.4602534339e+00 -2.5292331394e+00 1.4602534339e+00 2.5292331394e+00 
53000 5.6028328284e+00 -1.1340146761e-04 1.4602573639e+00 -2.5292399465e+00 1.4602573639e+00 2.5292399465e+00 
53100 5.6028328642e+00 -1.1203476794e-04 1.4602612469e+00 -2.5292466719e+00 1.4602612469e+00 2.5292466719e+00 
53200 5.6028328996e+00 -1.1067811635e-04 1.4602650830e+00 -2.5292533163e+00 1.4602650830e+00 2.5292533163e+00 
53300 5.6028329345e+00 -1.0933165533e-04 1.4602688726e+00 -2.5292598801e+00 1.4602688726e+00 2.5292598801e+00 
53400 5.6028329690e+00 -1.0799551950e-04 1.4602726162e+00 -2.5292663642e+00 1.4602726162e+00 2.5292663642e+00 
53500 5.6028330030e+00 -1.0666983572e-04 1.4602763140e+00 -2.5292727689e+00 1.4602763140e+00 2.5292727689e+00 
53600 5.6028330367e+00 -1.0535472323e-04 1.4602799664e+00 -2.5292790950e+00 1.4602799664e+00 2.5292790950e+00 
53700 5.6028330698e+00 -1.0405029381e-04 1.4602835737e+00 -2.5292853431e+00 1.4602835737e+00 2.5292853431e+00 
53800 5.6028331026e+00 -1.0275665189e-04 1.4602871364e+00 -2.5292915139e+00 1.4602871364e+00 2.5292915139e+00 
53900 5.6028331350e+00 -1.0147389469e-04 1.4602906548e+00 -2.5292976079e+00 1.4602906548e+00 2.5292976079e+00 
54000 5.6028331669e+00 -1.0020211240e-04 1.4602941292e+00 -2.5293036258e+00 1.4602941292e+00 2.5293036258e+00 
54100 5.6028331984e+00 -9.8941388294e-05 1.4602975601e+00 -2.5293095683e+00 1.4602975601e+00 2.5293095683e+00 
54200 5.6028332296e+00 -9.7691798885e-05 1.4603009478e+00 -2.5293154360e+00 1.4603009478e+00 2.5293154360e+00 
54300 5.6028332603e+00 -9.6453414072e-05 1.4603042927e+00 -2.5293212295e+00 1.4603042927e+00 2.5293212295e+00 
54400 5.6028332907e+00 -9.5226297286e-05 1.4603075952e+00 -2.5293269496e+00 1.4603075952e+00 2.5293269496e+00 
54500 5.6028333206e+00 -9.4010505637e-05 1.4603108557e+00 -2.5293325970e+00 1.4603108557e+00 2.5293325970e+00 
54600 5.6028333502e+00 -9.2806090068e-05 1.4603140746e+00 -2.5293381722e+00 1.4603140746e+00 2.5293381722e+00 
54700 5.6028333794e+00 -9.1613095496e-05 1.4603172522e+00 -2.5293436760e+00 1.4603172522e+00 2.5293436760e+00 
54800 5.6028334082e+00 -9.0431560968e-05 1.4603203890e+00 -2.5293491090e+00 1.4603203890e+00 2.5293491090e+00 
54900 5.6028334367e+00 -8.9261519805e-05 1.4603234852e+00 -2.5293544719e+00 1.4603234852e+00 2.5293544719e+00 
55000 5.6028334648e+00 -8.8102999749e-05 1.4603265415e+00 -2.5293597655e+00 1.4603265415e+00 2.5293597655e+00 
55100 5.6028334926e+00 -8.6956023114e-05 1.4603295580e+00 -2.5293649903e+00 1.4603295580e+00 2.5293649903e+00 
55200 5.6028335200e+00 -8.5820606935e-05 1.4603325353e+00 -2.5293701471e+00 1.4603325353e+00 2.5293701471e+00 
55300 5.6028335470e+00 -8.4696763110e-05 1.4603354737e+00 -2.5293752365e+00 1.4603354737e+00 2.5293752365e+00 
55400 5.6028335737e+00 -8.3584498547e-05 1.4603383736e+00 -2.5293802593e+00 1.4603383736e+00 2.5293802593e+00 
55500 5.6028336001e+00 -8.2483815310e-05 1.4603412354e+00 -2.5293852161e+00 1.4603412354e+00 2.5293852161e+00 
55600 5.6028336261e+00 -8.1394710766e-05 1.4603440596e+00 -2.5293901077e+00 1.4603440596e+00 2.5293901077e+00 
55700 5.6028336518e+00 -8.0317177722e-05 1.4603468464e+00 -2.5293949346e+00 1.4603468464e+00 2.5293949346e+00 
55800 5.6028336771e+00 -7.9251204570e-05 1.4603495963e+00 -2.5293996976e+00 1.4603495963e+00 2.5293996976e+00 
55900 5.6028337022e+00 -7.8196775431e-05 1.4603523098e+00 -2.5294043974e+00 1.4603523098e+00 2.5294043974e+00 
56000 5.6028337269e+00 -7.7153870280e-05 1.4603549871e+00 -2.5294090347e+00 1.4603549871e+00 2.5294090347e+00 
56100 5.6028337513e+00 -7.6122465104e-05 1.4603576287e+00 -2.5294136101e+00 1.4603576287e+00 2.5294136101e+00 
56200 5.6028337754e+00 -7.5102532023e-05 1.4603602350e+00 -2.5294181244e+00 1.4603602350e+00 2.5294181244e+00 
56300 5.6028337992e+00 -7.4094039429e-05 1.4603628064e+00 -2.5294225781e+00 1.4603628064e+00 2.5294225781e+00 
56400 5.6028338226e+00 -7.3096952117e-05 1.4603653432e+00 -2.5294269720e+00 1.4603653432e+00 2.5294269720e+00 
56500 5.6028338458e+00 -7.2111231421e-05 1.4603678459e+00 -2.5294313068e+00 1.4603678459e+00 2.5294313068e+00 
56600 5.6028338687e+00 -7.1136835340e-05 1.4603703148e+00 -2.5294355832e+00 1.4603703148e+00 2.5294355832e+00 
56700 5.6028338913e+00 -7.0173718660e-05 1.4603727504e+00 -2.5294398017e+00 1.4603727504e+00 2.5294398017e+00 
56800 5.6028339138e+00 -7.1432023790e-05 1.4603727504e+00 -2.5294398017e+00 1.4603727504e+00 2.5294398017e+00 
56900 5.6028339358e+00 -7.0428841525e-05 1.4603751961e+00 -2.5294440377e+00 1.4603751961e+00 2.5294440377e+00 
57000 5.6028339578e+00 -7.1656677173e-05 1.4603751961e+00 -2.5294440377e+00 1.4603751961e+00 2.5294440377e+00 
57100 5.6028339792e+00 -7.0616258783e-05 1.4603776495e+00 -2.5294482871e+00 1.4603776495e+00 2.5294482871e+00 
57200 5.6028340006e+00 -7.1814231523e-05 1.4603776495e+00 -2.5294482871e+00 1.4603776495e+00 2.5294482871e+00 
57300 5.6028340215e+00 -7.0739289461e-05 1.4603801082e+00 -2.5294525458e+00 1.4603801082e+00 2.5294525458e+00 
57400 5.6028340421e+00 -6.9679970932e-05 1.4603825302e+00 -2.5294567407e+00 1.4603825302e+00 2.5294567407e+00 
57500 5.6028340627e+00 -7.0830745102e-05 1.4603825302e+00 -2.5294567407e+00 1.4603825302e+00 2.5294567407e+00 
57600 5.6028340828e+00 -6.9740066087e-05 1.4603849552e+00 -2.5294609411e+00 1.4603849552e+00 2.5294609411e+00 
57700 5.6028341029e+00 -7.0862648166e-05 1.4603849552e+00 -2.5294609411e+00 1.4603849552e+00 2.5294609411e+00 
57800 5.6028341225e+00 -6.9743053188e-05 1.4603873814e+00 -2.5294651433e+00 1.4603873814e+00 2.5294651433e+00 
57900 5.6028341420e+00 -7.0838009501e-05 1.4603873814e+00 -2.5294651433e+00 1.4603873814e+00 2.5294651433e+00 
58000 5.6028341611e+00 -6.9691838204e-05 1.4603898067e+00 -2.5294693441e+00 1.4603898067e+00 2.5294693441e+00 
58100 5.6028341801e+00 -7.0759724775e-05 1.4603898067e+00 -2.5294693441e+00 1.4603898067e+00 2.5294693441e+00 
58200 5.6028341987e+00 -6.9589215359e-05 1.4603922293e+00 -2.5294735402e+00 1.4603922293e+00 2.5294735402e+00 
58300 5.6028342173e+00 -7.0630577777e-05 1.4603922293e+00 -2.5294735402e+00 1.4603922293e+00 2.5294735402e+00 
58400 5.6028342356e+00 -7.1662498427e-05 1.4603922293e+00 -2.5294735402e+00 1.4603922293e+00 2.5294735402e+00 
58500 5.6028342535e+00 -7.0427925726e-05 1.4603946829e+00 -2.5294777899e+00 1.4603946829e+00 2.5294777899e+00 
58600 5.6028342713e+00 -7.1433921977e-05 1.4603946829e+00 -2.5294777899e+00 1.4603946829e+00 2.5294777899e+00 
58700 5.6028342887e+00 -7.0180873617e-05 1.4603971286e+00 -2.5294820259e+00 1.4603971286e+00 2.5294820259e+00 
58800 5.6028343061e+00 -7.1161470785e-05 1.4603971286e+00 -2.5294820259e+00 1.4603971286e+00 2.5294820259e+00 
58900 5.6028343231e+00 -6.9891846869e-05 1.4603995650e+00 -2.5294862459e+00 1.4603995650e+00 2.5294862459e+00 
59000 5.6028343400e+00 -7.0847559747e-05 1.4603995650e+00 -2.5294862459e+00 1.4603995650e+00 2.5294862459e+00 
59100 5.6028343565e+00 -6.9563174017e-05 1.4604019906e+00 -2.5294904472e+00 1.4604019906e+00 2.5294904472e+00 
59200 5.6028343730e+00 -7.0494507129e-05 1.4604019906e+00 -2.5294904472e+00 1.4604019906e+00 2.5294904472e+00 
59300 5.6028343894e+00 -7.1417450980e-05 1.4604019906e+00 -2.5294904472e+00 1.4604019906e+00 2.5294904472e+00 
59400 5.6028344052e+00 -7.0082638897e-05 1.4604044357e+00 -2.5294946823e+00 1.4604044357e+00 2.5294946823e+00 
59500 5.6028344211e+00 -7.0981742413e-05 1.4604044357e+00 -2.5294946823e+00 1.4604044357e+00 2.5294946823e+00 
59600 5.6028344366e+00 -6.9637034216e-05 1.4604068659e+00 -2.5294988915e+00 1.4604068659e+00 2.5294988915e+00 
59700 5.6028344521e+00 -7.0512783353e-05 1.4604068659e+00 -2.5294988915e+00 1.4604068659e+00 2.5294988915e+00 
59800 5.6028344673e+00 -7.1380651378e-05 1.4604068659e+00 -2.5294988915e+00 1.4604068659e+00 2.5294988915e+00 
59900 5.6028344822e+00 -6.9992414829e-05 1.4604093098e+00 -2.5295031244e+00 1.4604093098e+00 2.5295031244e+00 
60000 5.6028344971e+00 -7.0837440960e-05 1.4604093098e+00 -2.5295031244e+00 1.4604093098e+00 2.5295031244e+00 
60100 5.6028345116e+00 -6.9443679564e-05 1.4604117351e+00 -2.5295073251e+00 1.4604117351e+00 2.5295073251e+00 
60200 5.6028345261e+00 -7.0266332670e-05 1.4604117351e+00 -2.5295073251e+00 1.4604117351e+00 2.5295073251e+00 
60300 5.6028345404e+00 -7.1081577702e-05 1.4604117351e+00 -2.5295073251e+00 1.4604117351e+00 2.5295073251e+00 
60400 5.6028345543e+00 -6.9650598619e-05 1.4604141687e+00 -2.5295115402e+00 1.4604141687e+00 2.5295115402e+00 
60500 5.6028345683e+00 -7.0443959465e-05 1.4604141687e+00 -2.5295115402e+00 1.4604141687e+00 2.5295115402e+00 
60600 5.6028345820e+00 -7.1230164050e-05 1.4604141687e+00 -2.5295115402e+00 1.4604141687e+00 2.5295115402e+00 
60700 5.6028345954e+00 -6.9765708215e-05 1.4604166074e+00 -2.5295157642e+00 1.4604166074e+00 2.5295157642e+00 
60800 5.6028346088e+00 -7.0530507253e-05 1.4604166074e+00 -2.5295157642e+00 1.4604166074e+00 2.5295157642e+00 
60900 5.6028346221e+00 -7.1288392224e-05 1.4604166074e+00 -2.5295157642e+00 1.4604166074e+00 2.5295157642e+00 
61000 5.6028346349e+00 -6.9794017967e-05 1.4604190481e+00 -2.5295199916e+00 1.4604190481e+00 2.5295199916e+00 
61100 5.6028346478e+00 -7.0530966886e-05 1.4604190481e+00 -2.5295199916e+00 1.4604190481e+00 2.5295199916e+00 
61200 5.6028346606e+00 -7.1261235105e-05 1.4604190481e+00 -2.5295199916e+00 1.4604190481e+00 2.5295199916e+00 
61300 5.6028346729e+00 -6.9740326914e-05 1.4604214878e+00 -2.5295242173e+00 1.4604214878e+00 2.5295242173e+00 
61400 5.6028346854e+00 -7.0450120502e-05 1.4604214878e+00 -2.5295242173e+00 1.4604214878e+00 2.5295242173e+00 
61500 5.6028346976e+00 -7.1153458720e-05 1.4604214878e+00 -2.5295242173e+00 1.4604214878e+00 2.5295242173e+00 
61600 5.6028347095e+00 -6.9609235588e-05 1.4604239239e+00 -2.5295284367e+00 1.4604239239e+00 2.5295284367e+00 
61700 5.6028347214e+00 -7.0292553574e-05 1.4604239239e+00 -2.5295284367e+00 1.4604239239e+00 2.5295284367e+00 
61800 5.6028347332e+00 -7.0969634236e-05 1.4604239239e+00 -2.5295284367e+00 1.4604239239e+00 2.5295284367e+00 
61900 5.6028347446e+00 -6.9405157570e-05 1.4604263536e+00 -2.5295326452e+00 1.4604263536e+00 2.5295326452e+00 
62000 5.6028347561e+00 -7.0062666381e-05 1.4604263536e+00 -2.5295326452e+00 1.4604263536e+00 2.5295326452e+00 
62100 5.6028347674e+00 -7.0714149344e-05 1.4604263536e+00 -2.5295326452e+00 1.4604263536e+00 2.5295326452e+00 
62200 5.6028347784e+00 -6.9132330416e-05 1.4604287746e+00 -2.5295368385e+00 1.4604287746e+00 2.5295368385e+00 
62300 5.6028347894e+00 -6.9764684825e-05 1.4604287746e+00 -2.5295368385e+00 1.4604287746e+00 2.5295368385e+00 
62400 5.6028348004e+00 -7.0391218957e-05 1.4604287746e+00 -2.5295368385e+00 1.4604287746e+00 2.5295368385e+00 
62500 5.6028348111e+00 -7.1011971658e-05 1.4604287746e+00 -2.5295368385e+00 1.4604287746e+00 2.5295368385e+00 
62600 5.6028348215e+00 -6.9390279879e-05 1.4604312058e+00 -2.5295410495e+00 1.4604312058e+00 2.5295410495e+00 
62700 5.6028348320e+00 -6.9992356260e-05 1.4604312058e+00 -2.5295410495e+00 1.4604312058e+00 2.5295410495e+00 
62800 5.6028348423e+00 -7.0588850881e-05 1.4604312058e+00 -2.5295410495e+00 1.4604312058e+00 2.5295410495e+00 
62900 5.6028348526e+00 -7.1179800657e-05 1.4604312058e+00 -2.5295410495e+00 1.4604312058e+00 2.5295410495e+00 
63000 5.6028348624e+00 -6.9523251354e-05 1.4604336428e+00 -2.5295452704e+00 1.4604336428e+00 2.5295452704e+00 
63100 5.6028348724e+00 -7.0095975527e-05 1.4604336428e+00 -2.5295452704e+00 1.4604336428e+00 2.5295452704e+00 
63200 5.6028348822e+00 -7.0663349381e-05 1.4604336428e+00 -2.5295452704e+00 1.4604336428e+00 2.5295452704e+00 
63300 5.6028348919e+00 -7.1225408192e-05 1.4604336428e+00 -2.5295452704e+00 1.4604336428e+00 2.5295452704e+00 
63400 5.6028349012e+00 -6.9538757480e-05 1.4604360813e+00 -2.5295494940e+00 1.4604360813e+00 2.5295494940e+00 
63500 5.6028349107e+00 -7.0083041117e-05 1.4604360813e+00 -2.5295494940e+00 1.4604360813e+00 2.5295494940e+00 
63600 5.6028349200e+00 -7.0622199783e-05 1.4604360813e+00 -2.5295494940e+00 1.4604360813e+00 2.5295494940e+00 
63700 5.6028349292e+00 -7.1156267381e-05 1.4604360813e+00 -2.5295494940e+00 1.4604360813e+00 2.5295494940e+00 
63800 5.6028349381e+00 -6.9444024628e-05 1.4604385174e+00 -2.5295537135e+00 1.4604385174e+00 2.5295537135e+00 
63900 5.6028349471e+00 -6.9960768243e-05 1.4604385174e+00 -2.5295537135e+00 1.4604385174e+00 2.5295537135e+00 
64000 5.6028349559e+00 -7.0472607006e-05 1.4604385174e+00 -2.5295537135e+00 1.4604385174e+00 2.5295537135e+00 
64100 5.6028349647e+00 -7.0979573677e-05 1.4604385174e+00 -2.5295537135e+00 1.4604385174e+00 2.5295537135e+00 
64200 5.6028349731e+00 -6.9246012870e-05 1.4604409475e+00 -2.5295579225e+00 1.4604409475e+00 2.5295579225e+00 
64300 5.6028349816e+00 -6.9736108343e-05 1.4604409475e+00 -2.5295579225e+00 1.4604409475e+00 2.5295579225e+00 
64400 5.6028349900e+00 -7.0221514592e-05 1.4604409475e+00 -2.5295579225e+00 1.4604409475e+00 2.5295579225e+00 
64500 5.6028349983e+00 -7.0702263424e-05 1.4604409475e+00 -2.5295579225e+00 1.4604409475e+00 2.5295579225e+00 
64600 5.6028350065e+00 -7.1178386489e-05 1.4604409475e+00 -2.5295579225e+00 1.4604409475e+00 2.5295579225e+00 
64700 5.6028350143e+00 -6.9407963100e-05 1.4604433844e+00 -2.5295621433e+00 1.4604433844e+00 2.5295621433e+00 
64800 5.6028350223e+00 -6.9867684308e-05 1.4604433844e+00 -2.5295621433e+00 1.4604433844e+00 2.5295621433e+00 
64900 5.6028350302e+00 -7.0322959743e-05 1.4604433844e+00 -2.5295621433e+00 1.4604433844e+00 2.5295621433e+00 
65000 5.6028350380e+00 -7.0773820244e-05 1.4604433844e+00 -2.5295621433e+00 1.4604433844e+00 2.5295621433e+00 
65100 5.6028350454e+00 -6.8991088468e-05 1.4604458074e+00 -2.5295663401e+00 1.4604458074e+00 2.5295663401e+00 
65200 5.6028350530e+00 -6.9426007727e-05 1.4604458074e+00 -2.5295663401e+00 1.4604458074e+00 2.5295663401e+00 
65300 5.6028350605e+00 -6.9856689337e-05 1.4604458074e+00 -2.5295663401e+00 1.4604458074e+00 2.5295663401e+00 
65400 5.6028350679e+00 -7.0283163461e-05 1.4604458074e+00 -2.5295663401e+00 1.4604458074e+00 2.5295663401e+00 
65500 5.6028350752e+00 -7.0705460166e-05 1.4604458074e+00 -2.5295663401e+00 1.4604458074e+00 2.5295663401e+00 
65600 5.6028350824e+00 -7.1123609408e-05 1.4604458074e+00 -2.5295663401e+00 1.4604458074e+00 2.5295663401e+00 
65700 5.6028350893e+00 -6.9297413251e-05 1.4604482424e+00 -2.5295705577e+00 1.4604482424e+00 2.5295705577e+00 
65800 5.6028350963e+00 -6.9700118088e-05 1.4604482424e+00 -2.5295705577e+00 1.4604482424e+00 2.5295705577e+00 
65900 5.6028351032e+00 -7.0098850570e-05 1.4604482424e+00 -2.5295705577e+00 1.4604482424e+00 2.5295705577e+00 
66000 5.6028351100e+00 -7.0493640017e-05 1.4604482424e+00 -2.5295705577e+00 1.4604482424e+00 2.5295705577e+00 
66100 5.6028351168e+00 -7.0884515659e-05 1.4604482424e+00 -2.5295705577e+00 1.4604482424e+00 2.5295705577e+00 
66200 5.6028351232e+00 -6.9038810747e-05 1.4604506692e+00 -2.5295747610e+00 1.4604506692e+00 2.5295747610e+00 
66300 5.6028351298e+00 -6.9414731575e-05 1.4604506692e+00 -2.5295747610e+00 1.4604506692e+00 2.5295747610e+00 
66400 5.6028351363e+00 -6.9786911321e-05 1.4604506692e+00 -2.5295747610e+00 1.4604506692e+00 2.5295747610e+00 
66500 5.6028351427e+00 -7.0155378632e-05 1.4604506692e+00 -2.5295747610e+00 1.4604506692e+00 2.5295747610e+00 
66600 5.6028351490e+00 -7.0520162073e-05 1.4604506692e+00 -2.5295747610e+00 1.4604506692e+00 2.5295747610e+00 
66700 5.6028351553e+00 -7.0881290121e-05 1.4604506692e+00 -2.5295747610e+00 1.4604506692e+00 2.5295747610e+00 
66800 5.6028351612e+00 -6.9006197084e-05 1.4604530959e+00 -2.5295789642e+00 1.4604530959e+00 2.5295789642e+00 
66900 5.6028351673e+00 -6.9352885274e-05 1.4604530959e+00 -2.5295789642e+00 1.4604530959e+00 2.5295789642e+00 
67000 5.6028351733e+00 -6.9696088509e-05 1.4604530959e+00 -2.5295789642e+00 1.4604530959e+00 2.5295789642e+00 
67100 5.6028351792e+00 -7.0035834672e-05 1.4604530959e+00 -2.5295789642e+00 1.4604530959e+00 2.5295789642e+00 
67200 5.6028351851e+00 -7.0372151558e-05 1.4604530959e+00 -2.5295789642e+00 1.4604530959e+00 2.5295789642e+00 
67300 5.6028351908e+00 -7.0705066871e-05 1.4604530959e+00 -2.5295789642e+00 1.4604530959e+00 2.5295789642e+00 
67400 5.6028351966e+00 -7.1034608202e-05 1.4604530959e+00 -2.5295789642e+00 1.4604530959e+00 2.5295789642e+00 
67500 5.6028352020e+00 -6.9123379758e-05 1.4604555278e+00 -2.5295831764e+00 1.4604555278e+00 2.5295831764e+00 
67600 5.6028352075e+00 -6.9439025839e-05 1.4604555278e+00 -2.5295831764e+00 1.4604555278e+00 2.5295831764e+00 
67700 5.6028352130e+00 -6.9751465830e-05 1.4604555278e+00 -2.5295831764e+00 1.4604555278e+00 2.5295831764e+00 
67800 5.6028352184e+00 -7.0060726675e-05 1.4604555278e+00 -2.5295831764e+00 1.4604555278e+00 2.5295831764e+00 
67900 5.6028352238e+00 -7.0366835221e-05 1.4604555278e+00 -2.5295831764e+00 1.4604555278e+00 2.5295831764e+00 
68000 5.6028352291e+00 -7.0669818204e-05 1.4604555278e+00 -2.5295831764e+00 1.4604555278e+00 2.5295831764e+00 
68100 5.6028352343e+00 -7.0969702238e-05 1.4604555278e+00 -2.5295831764e+00 1.4604555278e+00 2.5295831764e+00 
68200 5.6028352392e+00 -6.9031136265e-05 1.4604579576e+00 -2.5295873848e+00 1.4604579576e+00 2.5295873848e+00 
68300 5.6028352443e+00 -6.9317678800e-05 1.4604579576e+00 -2.5295873848e+00 1.4604579576e+00 2.5295873848e+00 
68400 5.6028352493e+00 -6.9601287181e-05 1.4604579576e+00 -2.5295873848e+00 1.4604579576e+00 2.5295873848e+00 
68500 5.6028352542e+00 -6.9881987321e-05 1.4604579576e+00 -2.5295873848e+00 1.4604579576e+00 2.5295873848e+00 
68600 5.6028352591e+00 -7.0159805024e-05 1.4604579576e+00 -2.5295873848e+00 1.4604579576e+00 2.5295873848e+00 
68700 5.6028352639e+00 -7.0434765965e-05 1.4604579576e+00 -2.5295873848e+00 1.4604579576e+00 2.5295873848e+00 
68800 5.6028352687e+00 -7.0706895689e-05 1.4604579576e+00 -2.5295873848e+00 1.4604579576e+00 2.5295873848e+00 
68900 5.6028352734e+00 -7.0976219595e-05 1.4604579576e+00 -2.5295873848e+00 1.4604579576e+00 2.5295873848e+00 
69000 5.6028352778e+00 -6.9007181612e-05 1.4604603875e+00 -2.5295915936e+00 1.4604603875e+00 2.5295915936e+00 
69100 5.6028352824e+00 -6.9263745953e-05 1.4604603875e+00 -2.5295915936e+00 1.4604603875e+00 2.5295915936e+00 
69200 5.6028352869e+00 -6.9517665498e-05 1.4604603875e+00 -2.5295915936e+00 1.4604603875e+00 2.5295915936e+00 
69300 5.6028352914e+00 -6.9768964860e-05 1.4604603875e+00 -2.5295915936e+00 1.4604603875e+00 2.5295915936e+00 
69400 5.6028352958e+00 -7.0017668523e-05 1.4604603875e+00 -2.5295915936e+00 1.4604603875e+00 2.5295915936e+00 
69500 5.6028353002e+00 -7.0263800827e-05 1.4604603875e+00 -2.5295915936e+00 1.4604603875e+00 2.5295915936e+00 
69600 5.6028353045e+00 -7.0507385959e-05 1.4604603875e+00 -2.5295915936e+00 1.4604603875e+00 2.5295915936e+00 
69700 5.6028353087e+00 -7.0748447943e-05 1.4604603875e+00 -2.5295915936e+00 1.4604603875e+00 2.5295915936e+00 
69800 5.6028353127e+00 -6.8758606449e-05 1.4604628096e+00 -2.5295957888e+00 1.4604628096e+00 2.5295957888e+00 
69900 5.6028353168e+00 -6.8987493256e-05 1.4604628096e+00 -2.5295957888e+00 1.4604628096e+00 2.5295957888e+00 
70000 5.6028353209e+00 -6.9214013436e-05 1.4604628096e+00 -2.5295957888e+00 1.4604628096e+00 2.5295957888e+00 
70100 5.6028353250e+00 -6.9438190163e-05 1.4604628096e+00 -2.5295957888e+00 1.4604628096e+00 2.5295957888e+00 
70200 5.6028353289e+00 -6.9660046468e-05 1.4604628096e+00 -2.5295957888e+00 1.4604628096e+00 2.5295957888e+00 
70300 5.6028353329e+00 -6.9879605219e-05 1.4604628096e+00 -2.5295957888e+00 1.4604628096e+00 2.5295957888e+00 
70400 5.6028353368e+00 -7.0096889117e-05 1.4604628096e+00 -2.5295957888e+00 1.4604628096e+00 2.5295957888e+00 
70500 5.6028353406e+00 -7.0311920690e-05 1.4604628096e+00 -2.5295957888e+00 1.4604628096e+00 2.5295957888e+00 
70600 5.6028353444e+00 -7.0524722279e-05 1.4604628096e+00 -2.5295957888e+00 1.4604628096e+00 2.5295957888e+00 
70700 5.6028353481e+00 -7.0735316035e-05 1.4604628096e+00 -2.5295957888e+00 1.4604628096e+00 2.5295957888e+00 
70800 5.6028353516e+00 -6.8715735966e-05 1.4604652313e+00 -2.5295999833e+00 1.4604652313e+00 2.5295999833e+00 
70900 5.6028353552e+00 -6.8914780847e-05 1.4604652313e+00 -2.5295999833e+00 1.4604652313e+00 2.5295999833e+00 
71000 5.6028353588e+00 -6.9111768619e-05 1.4604652313e+00 -2.5295999833e+00 1.4604652313e+00 2.5295999833e+00 
71100 5.6028353624e+00 -6.9306720485e-05 1.4604652313e+00 -2.5295999833e+00 1.4604652313e+00 2.5295999833e+00 
71200 5.6028353659e+00 -6.9499657478e-05 1.4604652313e+00 -2.5295999833e+00 1.4604652313e+00 2.5295999833e+00 
71300 5.6028353694e+00 -6.9690600457e-05 1.4604652313e+00 -2.5295999833e+00 1.4604652313e+00 2.5295999833e+00 
71400 5.6028353728e+00 -6.9879570097e-05 1.4604652313e+00 -2.5295999833e+00 1.4604652313e+00 2.5295999833e+00 
71500 5.6028353762e+00 -7.0066586876e-05 1.4604652313e+00 -2.5295999833e+00 1.4604652313e+00 2.5295999833e+00 
71600 5.6028353795e+00 -7.0251671076e-05 1.4604652313e+00 -2.5295999833e+00 1.4604652313e+00 2.5295999833e+00 
71700 5.6028353828e+00 -7.0434842776e-05 1.4604652313e+00 -2.5295999833e+00 1.4604652313e+00 2.5295999833e+00 
71800 5.6028353860e+00 -7.0616121844e-05 1.4604652313e+00 -2.5295999833e+00 1.4604652313e+00 2.5295999833e+00 
71900 5.6028353892e+00 -7.0795527932e-05 1.4604652313e+00 -2.5295999833e+00 1.4604652313e+00 2.5295999833e+00 
72000 5.6028353922e+00 -6.8743199168e-05 1.4604676550e+00 -2.5296041813e+00 1.4604676550e+00 2.5296041813e+00 
72100 5.6028353953e+00 -6.8911712461e-05 1.4604676550e+00 -2.5296041813e+00 1.4604676550e+00 2.5296041813e+00 
72200 5.6028353984e+00 -6.9078495961e-05 1.4604676550e+00 -2.5296041813e+00 1.4604676550e+00 2.5296041813e+00 
72300 5.6028354015e+00 -6.9243568305e-05 1.4604676550e+00 -2.5296041813e+00 1.4604676550e+00 2.5296041813e+00 
72400 5.6028354045e+00 -6.9406947950e-05 1.4604676550e+00 -2.5296041813e+00 1.4604676550e+00 2.5296041813e+00 
72500 5.6028354074e+00 -6.9568653167e-05 1.4604676550e+00 -2.5296041813e+00 1.4604676550e+00 2.5296041813e+00 
72600 5.6028354104e+00 -6.9728702031e-05 1.4604676550e+00 -2.5296041813e+00 1.4604676550e+00 2.5296041813e+00 
72700 5.6028354133e+00 -6.9887112421e-05 1.4604676550e+00 -2.5296041813e+00 1.4604676550e+00 2.5296041813e+00 
72800 5.6028354161e+00 -7.0043902010e-05 1.4604676550e+00 -2.5296041813e+00 1.4604676550e+00 2.5296041813e+00 
72900 5.6028354190e+00 -7.0199088265e-05 1.4604676550e+00 -2.5296041813e+00 1.4604676550e+00 2.5296041813e+00 
73000 5.6028354218e+00 -7.0352688438e-05 1.4604676550e+00 -2.5296041813e+00 1.4604676550e+00 2.5296041813e+00 
73100 5.6028354245e+00 -7.0504719571e-05 1.4604676550e+00 -2.5296041813e+00 1.4604676550e+00 2.5296041813e+00 
73200 5.6028354273e+00 -7.0655198484e-05 1.4604676550e+00 -2.5296041813e+00 1.4604676550e+00 2.5296041813e+00 
73300 5.6028354299e+00 -7.0804141779e-05 1.4604676550e+00 -2.5296041813e+00 1.4604676550e+00 2.5296041813e+00 
73400 5.6028354324e+00 -6.8721417558e-05 1.4604700790e+00 -2.5296083798e+00 1.4604700790e+00 2.5296083798e+00 
73500 5.6028354350e+00 -6.8860132811e-05 1.4604700790e+00 -2.5296083798e+00 1.4604700790e+00 2.5296083798e+00 
73600 5.6028354376e+00 -6.8997446480e-05 1.4604700790e+00 -2.5296083798e+00 1.4604700790e+00 2.5296083798e+00 
73700 5.6028354401e+00 -6.9133374152e-05 1.4604700790e+00 -2.5296083798e+00 1.4604700790e+00 2.5296083798e+00 
73800 5.6028354427e+00 -6.9267931234e-05 1.4604700790e+00 -2.5296083798e+00 1.4604700790e+00 2.5296083798e+00 
73900 5.6028354452e+00 -6.9401132961e-05 1.4604700790e+00 -2.5296083798e+00 1.4604700790e+00 2.5296083798e+00 
74000 5.6028354476e+00 -6.9532994376e-05 1.4604700790e+00 -2.5296083798e+00 1.4604700790e+00 2.5296083798e+00 
74100 5.6028354500e+00 -6.9663530335e-05 1.4604700790e+00 -2.5296083798e+00 1.4604700790e+00 2.5296083798e+00 
74200 5.6028354525e+00 -6.9792755502e-05 1.4604700790e+00 -2.5296083798e+00 1.4604700790e+00 2.5296083798e+00 
74300 5.6028354548e+00 -6.9920684341e-05 1.4604700790e+00 -2.5296083798e+00 1.4604700790e+00 2.5296083798e+00 
74400 5.6028354572e+00 -7.0047331122e-05 1.4604700790e+00 -2.5296083798e+00 1.4604700790e+00 2.5296083798e+00 
74500 5.6028354595e+00 -7.0172709911e-05 1.4604700790e+00 -2.5296083798e+00 1.4604700790e+00 2.5296083798e+00 
74600 5.6028354618e+00 -7.0296834577e-05 1.4604700790e+00 -2.5296083798e+00 1.4604700790e+00 2.5296083798e+00 
74700 5.6028354640e+00 -7.0419718778e-05 1.4604700790e+00 -2.5296083798e+00 1.4604700790e+00 2.5296083798e+00 
74800 5.6028354662e+00 -7.0541375976e-05 1.4604700790e+00 -2.5296083798e+00 1.4604700790e+00 2.5296083798e+00 
74900 5.6028354684e+00 -7.0661819425e-05 1.4604700790e+00 -2.5296083798e+00 1.4604700790e+00 2.5296083798e+00 
75000 5.6028354706e+00 -7.0781062175e-05 1.4604700790e+00 -2.5296083798e+00 1.4604700790e+00 2.5296083798e+00 
75100 5.6028354725e+00 -6.8669701478e-05 1.4604725023e+00 -2.5296125770e+00 1.4604725023e+00 2.5296125770e+00 
75200 5.6028354747e+00 -6.8779377860e-05 1.4604725023e+00 -2.5296125770e+00 1.4604725023e+00 2.5296125770e+00 
75300 5.6028354767e+00 -6.8887977004e-05 1.4604725023e+00 -2.5296125770e+00 1.4604725023e+00 2.5296125770e+00 
75400 5.6028354788e+00 -6.8995511027e-05 1.4604725023e+00 -2.5296125770e+00 1.4604725023e+00 2.5296125770e+00 
75500 5.6028354809e+00 -6.9101991892e-05 1.4604725023e+00 -2.5296125770e+00 1.4604725023e+00 2.5296125770e+00 
75600 5.6028354829e+00 -6.9207431409e-05 1.4604725023e+00 -2.5296125770e+00 1.4604725023e+00 2.5296125770e+00 
75700 5.6028354849e+00 -6.9311841226e-05 1.4604725023e+00 -2.5296125770e+00 1.4604725023e+00 2.5296125770e+00 
75800 5.6028354868e+00 -6.9415232832e-05 1.4604725023e+00 -2.5296125770e+00 1.4604725023e+00 2.5296125770e+00 
75900 5.6028354888e+00 -6.9517617551e-05 1.4604725023e+00 -2.5296125770e+00 1.4604725023e+00 2.5296125770e+00 
76000 5.6028354907e+00 -6.9619006538e-05 1.4604725023e+00 -2.5296125770e+00 1.4604725023e+00 2.5296125770e+00 
76100 5.6028354926e+00 -6.9719410784e-05 1.4604725023e+00 -2.5296125770e+00 1.4604725023e+00 2.5296125770e+00 
76200 5.6028354944e+00 -6.9818841107e-05 1.4604725023e+00 -2.5296125770e+00 1.4604725023e+00 2.5296125770e+00 
76300 5.6028354963e+00 -6.9917308156e-05 1.4604725023e+00 -2.5296125770e+00 1.4604725023e+00 2.5296125770e+00 
76400 5.6028354981e+00 -7.0014822411e-05 1.4604725023e+00 -2.5296125770e+00 1.4604725023e+00 2.5296125770e+00 
76500 5.6028354999e+00 -7.0111394178e-05 1.4604725023e+00 -2.5296125770e+00 1.4604725023e+00 2.5296125770e+00 
76600 5.6028355017e+00 -7.0207033595e-05 1.4604725023e+00 -2.5296125770e+00 1.4604725023e+00 2.5296125770e+00 
76700 5.6028355035e+00 -7.0301750628e-05 1.4604725023e+00 -2.5296125770e+00 1.4604725023e+00 2.5296125770e+00 
76800 5.6028355052e+00 -7.0395555074e-05 1.4604725023e+00 -2.5296125770e+00 1.4604725023e+00 2.5296125770e+00 
76900 5.6028355069e+00 -7.0488456563e-05 1.4604725023e+00 -2.5296125770e+00 1.4604725023e+00 2.5296125770e+00 
77000 5.6028355086e+00 -7.0580464555e-05 1.4604725023e+00 -2.5296125770e+00 1.4604725023e+00 2.5296125770e+00 
77100 5.6028355103e+00 -7.0671588346e-05 1.4604725023e+00 -2.5296125770e+00 1.4604725023e+00 2.5296125770e+00 
77200 5.6028355119e+00 -7.0761837067e-05 1.4604725023e+00 -2.5296125770e+00 1.4604725023e+00 2.5296125770e+00 
77300 5.6028355133e+00 -6.8622417218e-05 1.4604749248e+00 -2.5296167730e+00 1.4604749248e+00 2.5296167730e+00 
77400 5.6028355149e+00 -6.8703741261e-05 1.4604749248e+00 -2.5296167730e+00 1.4604749248e+00 2.5296167730e+00 
77500 5.6028355165e+00 -6.8784302167e-05 1.4604749248e+00 -2.5296167730e+00 1.4604749248e+00 2.5296167730e+00 
77600 5.6028355181e+00 -6.8864108301e-05 1.4604749248e+00 -2.5296167730e+00 1.4604749248e+00 2.5296167730e+00 
77700 5.6028355197e+00 -6.8943167926e-05 1.4604749248e+00 -2.5296167730e+00 1.4604749248e+00 2.5296167730e+00 
77800 5.6028355212e+00 -6.9021489194e-05 1.4604749248e+00 -2.5296167730e+00 1.4604749248e+00 2.5296167730e+00 
77900 5.6028355227e+00 -6.9099080147e-05 1.4604749248e+00 -2.5296167730e+00 1.4604749248e+00 2.5296167730e+00 
78000 5.6028355242e+00 -6.9175948710e-05 1.4604749248e+00 -2.5296167730e+00 1.4604749248e+00 2.5296167730e+00 
78100 5.6028355257e+00 -6.9252102694e-05 1.4604749248e+00 -2.5296167730e+00 1.4604749248e+00 2.5296167730e+00 
78200 5.6028355271e+00 -6.9327549788e-05 1.4604749248e+00 -2.5296167730e+00 1.4604749248e+00 2.5296167730e+00 
78300 5.6028355286e+00 -6.9402297566e-05 1.4604749248e+00 -2.5296167730e+00 1.4604749248e+00 2.5296167730e+00 
78400 5.6028355300e+00 -6.9476353477e-05 1.4604749248e+00 -2.5296167730e+00 1.4604749248e+00 2.5296167730e+00 
78500 5.6028355314e+00 -6.9549724852e-05 1.4604749248e+00 -2.5296167730e+00 1.4604749248e+00 2.5296167730e+00 
78600 5.6028355328e+00 -6.9622418899e-05 1.4604749248e+00 -2.5296167730e+00 1.4604749248e+00 2.5296167730e+00 
78700 5.6028355342e+00 -6.9694442702e-05 1.4604749248e+00 -2.5296167730e+00 1.4604749248e+00 2.5296167730e+00 
78800 5.6028355355e+00 -6.9765803226e-05 1.4604749248e+00 -2.5296167730e+00 1.4604749248e+00 2.5296167730e+00 
78900 5.6028355369e+00 -6.9836507311e-05 1.4604749248e+00 -2.5296167730e+00 1.4604749248e+00 2.5296167730e+00 
79000 5.6028355382e+00 -6.9906561679e-05 1.4604749248e+00 -2.5296167730e+00 1.4604749248e+00 2.5296167730e+00 
79100 5.6028355395e+00 -6.9975972930e-05 1.4604749248e+00 -2.5296167730e+00 1.4604749248e+00 2.5296167730e+00 
79200 5.6028355408e+00 -7.0044747544e-05 1.4604749248e+00 -2.5296167730e+00 1.4604749248e+00 2.5296167730e+00 
79300 5.6028355421e+00 -7.0112891883e-05 1.4604749248e+00 -2.5296167730e+00 1.4604749248e+00 2.5296167730e+00 
79400 5.6028355433e+00 -7.0180412191e-05 1.4604749248e+00 -2.5296167730e+00 1.4604749248e+00 2.5296167730e+00 
79500 5.6028355446e+00 -7.0247314598e-05 1.4604749248e+00 -2.5296167730e+00 1.4604749248e+00 2.5296167730e+00 
79600 5.6028355458e+00 -7.0313605116e-05 1.4604749248e+00 -2.5296167730e+00 1.4604749248e+00 2.5296167730e+00 
79700 5.6028355470e+00 -7.0379289649e-05 1.4604749248e+00 -2.5296167730e+00 1.4604749248e+00 2.5296167730e+00 
79800 5.6028355482e+00 -7.0444373987e-05 1.4604749248e+00 -2.5296167730e+00 1.4604749248e+00 2.5296167730e+00 
79900 5.6028355494e+00 -7.0508863809e-05 1.4604749248e+00 -2.5296167730e+00 1.4604749248e+00 2.5296167730e+00 
80000 5.6028355506e+00 -7.0572764692e-05 1.4604749248e+00 -2.5296167730e+00 1.4604749248e+00 2.5296167730e+00 
80100 5.6028355517e+00 -7.0636082103e-05 1.4604749248e+00 -2.5296167730e+00 1.4604749248e+00 2.5296167730e+00 
80200 5.6028355528e+00 -7.0698821408e-05 1.4604749248e+00 -2.5296167730e+00 1.4604749248e+00 2.5296167730e+00 
80300 5.6028355540e+00 -7.0760987874e-05 1.4604749248e+00 -2.5296167730e+00 1.4604749248e+00 2.5296167730e+00 
80400 5.6028355549e+00 -6.8593821415e-05 1.4604773474e+00 -2.5296209690e+00 1.4604773474e+00 2.5296209690e+00 
80500 5.6028355560e+00 -6.8647656478e-05 1.4604773474e+00 -2.5296209690e+00 1.4604773474e+00 2.5296209690e+00 
80600 5.6028355570e+00 -6.8701019415e-05 1.4604773474e+00 -2.5296209690e+00 1.4604773474e+00 2.5296209690e+00 
80700 5.6028355581e+00 -6.8753914983e-05 1.4604773474e+00 -2.5296209690e+00 1.4604773474e+00 2.5296209690e+00 
80800 5.6028355592e+00 -6.8806347897e-05 1.4604773474e+00 -2.5296209690e+00 1.4604773474e+00 2.5296209690e+00 
80900 5.6028355602e+00 -6.8858322826e-05 1.4604773474e+00 -2.5296209690e+00 1.4604773474e+00 2.5296209690e+00 
81000 5.6028355613e+00 -6.8909844393e-05 1.4604773474e+00 -2.5296209690e+00 1.4604773474e+00 2.5296209690e+00 
81100 5.6028355623e+00 -6.8960917165e-05 1.4604773474e+00 -2.5296209690e+00 1.4604773474e+00 2.5296209690e+00 
81200 5.6028355633e+00 -6.9011545660e-05 1.4604773474e+00 -2.5296209690e+00 1.4604773474e+00 2.5296209690e+00 
81300 5.6028355643e+00 -6.9061734338e-05 1.4604773474e+00 -2.5296209690e+00 1.4604773474e+00 2.5296209690e+00 
81400 5.6028355653e+00 -6.9111487600e-05 1.4604773474e+00 -2.5296209690e+00 1.4604773474e+00 2.5296209690e+00 
81500 5.6028355662e+00 -6.9160809789e-05 1.4604773474e+00 -2.5296209690e+00 1.4604773474e+00 2.5296209690e+00 
81600 5.6028355672e+00 -6.9209705186e-05 1.4604773474e+00 -2.5296209690e+00 1.4604773474e+00 2.5296209690e+00 
81700 5.6028355682e+00 -6.9258178009e-05 1.4604773474e+00 -2.5296209690e+00 1.4604773474e+00 2.5296209690e+00 
81800 5.6028355691e+00 -6.9306232415e-05 1.4604773474e+00 -2.5296209690e+00 1.4604773474e+00 2.5296209690e+00 
81900 5.6028355700e+00 -6.9353872493e-05 1.4604773474e+00 -2.5296209690e+00 1.4604773474e+00 2.5296209690e+00 
82000 5.6028355709e+00 -6.9401102271e-05 1.4604773474e+00 -2.5296209690e+00 1.4604773474e+00 2.5296209690e+00 
82100 5.6028355718e+00 -6.9447925710e-05 1.4604773474e+00 -2.5296209690e+00 1.4604773474e+00 2.5296209690e+00 
82200 5.6028355727e+00 -6.9494346707e-05 1.4604773474e+00 -2.5296209690e+00 1.4604773474e+00 2.5296209690e+00 
82300 5.6028355736e+00 -6.9540369091e-05 1.4604773474e+00 -2.5296209690e+00 1.4604773474e+00 2.5296209690e+00 
82400 5.6028355745e+00 -6.9585996629e-05 1.4604773474e+00 -2.5296209690e+00 1.4604773474e+00 2.5296209690e+00 
82500 5.6028355754e+00 -6.9631233018e-05 1.4604773474e+00 -2.5296209690e+00 1.4604773474e+00 2.5296209690e+00 
82600 5.6028355762e+00 -6.9676081896e-05 1.4604773474e+00 -2.5296209690e+00 1.4604773474e+00 2.5296209690e+00 
82700 5.6028355770e+00 -6.9720546831e-05 1.4604773474e+00 -2.5296209690e+00 1.4604773474e+00 2.5296209690e+00 
82800 5.6028355779e+00 -6.9764631332e-05 1.4604773474e+00 -2.5296209690e+00 1.4604773474e+00 2.5296209690e+00 
82900 5.6028355787e+00 -6.9808338840e-05 1.4604773474e+00 -2.5296209690e+00 1.4604773474e+00 2.5296209690e+00 
83000 5.6028355795e+00 -6.9851672737e-05 1.4604773474e+00 -2.5296209690e+00 1.4604773474e+00 2.5296209690e+00 
83100 5.6028355803e+00 -6.9894636341e-05 1.4604773474e+00 -2.5296209690e+00 1.4604773474e+00 2.5296209690e+00 
83200 5.6028355811e+00 -6.9937232911e-05 1.4604773474e+00 -2.5296209690e+00 1.4604773474e+00 2.5296209690e+00 
83300 5.6028355819e+00 -6.9979465645e-05 1.4604773474e+00 -2.5296209690e+00 1.4604773474e+00 2.5296209690e+00 
83400 5.6028355827e+00 -7.0021337683e-05 1.4604773474e+00 -2.5296209690e+00 1.4604773474e+00 2.5296209690e+00 
83500 5.6028355834e+00 -7.0062852106e-05 1.4604773474e+00 -2.5296209690e+00 1.4604773474e+00 2.5296209690e+00 
83600 5.6028355842e+00 -7.0104011940e-05 1.4604773474e+00 -2.5296209690e+00 1.4604773474e+00 2.5296209690e+00 
83700 5.6028355849e+00 -7.0144820154e-05 1.4604773474e+00 -2.5296209690e+00 1.4604773474e+00 2.5296209690e+00 
83800 5.6028355857e+00 -7.0185279664e-05 1.4604773474e+00 -2.5296209690e+00 1.4604773474e+00 2.5296209690e+00 
83900 5.6028355864e+00 -7.0225393332e-05 1.4604773474e+00 -2.5296209690e+00 1.4604773474e+00 2.5296209690e+00 
84000 5.6028355871e+00 -7.0265163969e-05 1.4604773474e+00 -2.5296209690e+00 1.4604773474e+00 2.5296209690e+00 
84100 5.6028355878e+00 -7.0304594336e-05 1.4604773474e+00 -2.5296209690e+00 1.4604773474e+00 2.5296209690e+00 
84200 5.6028355885e+00 -7.0343687145e-05 1.4604773474e+00 -2.5296209690e+00 1.4604773474e+00 2.5296209690e+00 
84300 5.6028355892e+00 -7.0382445058e-05 1.4604773474e+00 -2.5296209690e+00 1.4604773474e+00 2.5296209690e+00 
84400 5.6028355899e+00 -7.0420870694e-05 1.4604773474e+00 -2.5296209690e+00 1.4604773474e+00 2.5296209690e+00 
84500 5.6028355906e+00 -7.0458966627e-05 1.4604773474e+00 -2.5296209690e+00 1.4604773474e+00 2.5296209690e+00 
84600 5.6028355912e+00 -7.0496735384e-05 1.4604773474e+00 -2.5296209690e+00 1.4604773474e+00 2.5296209690e+00 
84700 5.6028355919e+00 -7.0534179453e-05 1.4604773474e+00 -2.5296209690e+00 1.4604773474e+00 2.5296209690e+00 
84800 5.6028355925e+00 -7.0571301279e-05 1.4604773474e+00 -2.5296209690e+00 1.4604773474e+00 2.5296209690e+00 
84900 5.6028355932e+00 -7.0608103270e-05 1.4604773474e+00 -2.5296209690e+00 1.4604773474e+00 2.5296209690e+00 
85000 5.6028355938e+00 -7.0644587794e-05 1.4604773474e+00 -2.5296209690e+00 1.4604773474e+00 2.5296209690e+00 
85100 5.6028355945e+00 -7.0680757184e-05 1.4604773474e+00 -2.5296209690e+00 1.4604773474e+00 2.5296209690e+00 
85200 5.6028355951e+00 -7.0716613735e-05 1.4604773474e+00 -2.5296209690e+00 1.4604773474e+00 2.5296209690e+00 
85300 5.6028355955e+00 -6.8524807299e-05 1.4604797684e+00 -2.5296251623e+00 1.4604797684e+00 2.5296251623e+00 
85400 5.6028355961e+00 -6.8552848397e-05 1.4604797684e+00 -2.5296251623e+00 1.4604797684e+00 2.5296251623e+00 
85500 5.6028355967e+00 -6.8580668798e-05 1.4604797684e+00 -2.5296251623e+00 1.4604797684e+00 2.5296251623e+00 
85600 5.6028355973e+00 -6.8608270543e-05 1.4604797684e+00 -2.5296251623e+00 1.4604797684e+00 2.5296251623e+00 
85700 5.6028355979e+00 -6.8635655693e-05 1.4604797684e+00 -2.5296251623e+00 1.4604797684e+00 2.5296251623e+00 
85800 5.6028355984e+00 -6.8662826321e-05 1.4604797684e+00 -2.5296251623e+00 1.4604797684e+00 2.5296251623e+00 
85900 5.6028355990e+00 -6.8689784510e-05 1.4604797684e+00 -2.5296251623e+00 1.4604797684e+00 2.5296251623e+00 
86000 5.6028355996e+00 -6.8716532349e-05 1.4604797684e+00 -2.5296251623e+00 1.4604797684e+00 2.5296251623e+00 
86100 5.6028356001e+00 -6.8743071930e-05 1.4604797684e+00 -2.5296251623e+00 1.4604797684e+00 2.5296251623e+00 
86200 5.6028356007e+00 -6.8769405342e-05 1.4604797684e+00 -2.5296251623e+00 1.4604797684e+00 2.5296251623e+00 
86300 5.6028356012e+00 -6.8795534668e-05 1.4604797684e+00 -2.5296251623e+00 1.4604797684e+00 2.5296251623e+00 
86400 5.6028356018e+00 -6.8821461985e-05 1.4604797684e+00 -2.5296251623e+00 1.4604797684e+00 2.5296251623e+00 
86500 5.6028356023e+00 -6.8847189359e-05 1.4604797684e+00 -2.5296251623e+00 1.4604797684e+00 2.5296251623e+00 
86600 5.6028356028e+00 -6.8872718844e-05 1.4604797684e+00 -2.5296251623e+00 1.4604797684e+00 2.5296251623e+00 
86700 5.6028356033e+00 -6.8898052474e-05 1.4604797684e+00 -2.5296251623e+00 1.4604797684e+00 2.5296251623e+00 
86800 5.6028356038e+00 -6.8923192270e-05 1.4604797684e+00 -2.5296251623e+00 1.4604797684e+00 2.5296251623e+00 
86900 5.6028356044e+00 -6.8948140232e-05 1.4604797684e+00 -2.5296251623e+00 1.4604797684e+00 2.5296251623e+00 
87000 5.6028356049e+00 -6.8972898337e-05 1.4604797684e+00 -2.5296251623e+00 1.4604797684e+00 2.5296251623e+00 
87100 5.6028356053e+00 -6.8997468541e-05 1.4604797684e+00 -2.5296251623e+00 1.4604797684e+00 2.5296251623e+00 
87200 5.6028356058e+00 -6.9021852774e-05 1.4604797684e+00 -2.5296251623e+00 1.4604797684e+00 2.5296251623e+00 
87300 5.6028356063e+00 -6.9046052942e-05 1.4604797684e+00 -2.5296251623e+00 1.4604797684e+00 2.5296251623e+00 
87400 5.6028356068e+00 -6.9070070922e-05 1.4604797684e+00 -2.5296251623e+00 1.4604797684e+00 2.5296251623e+00 
87500 5.6028356073e+00 -6.9093908565e-05 1.4604797684e+00 -2.5296251623e+00 1.4604797684e+00 2.5296251623e+00 
87600 5.6028356077e+00 -6.9117567692e-05 1.4604797684e+00 -2.5296251623e+00 1.4604797684e+00 2.5296251623e+00 
87700 5.6028356082e+00 -6.9141050096e-05 1.4604797684e+00 -2.5296251623e+00 1.4604797684e+00 2.5296251623e+00 
87800 5.6028356087e+00 -6.9164357538e-05 1.4604797684e+00 -2.5296251623e+00 1.4604797684e+00 2.5296251623e+00 
87900 5.6028356091e+00 -6.9187491749e-05 1.4604797684e+00 -2.5296251623e+00 1.4604797684e+00 2.5296251623e+00 
88000 5.6028356095e+00 -6.9210454429e-05 1.4604797684e+00 -2.5296251623e+00 1.4604797684e+00 2.5296251623e+00 
88100 5.6028356100e+00 -6.9233247248e-05 1.4604797684e+00 -2.5296251623e+00 1.4604797684e+00 2.5296251623e+00 
88200 5.6028356104e+00 -6.9255871842e-05 1.4604797684e+00 -2.5296251623e+00 1.4604797684e+00 2.5296251623e+00 
88300 5.6028356108e+00 -6.9278329817e-05 1.4604797684e+00 -2.5296251623e+00 1.4604797684e+00 2.5296251623e+00 
88400 5.6028356113e+00 -6.9300622745e-05 1.4604797684e+00 -2.5296251623e+00 1.4604797684e+00 2.5296251623e+00 
88500 5.6028356117e+00 -6.9322752169e-05 1.4604797684e+00 -2.5296251623e+00 1.4604797684e+00 2.5296251623e+00 
88600 5.6028356121e+00 -6.9344719598e-05 1.4604797684e+00 -2.5296251623e+00 1.4604797684e+00 2.5296251623e+00 
88700 5.6028356125e+00 -6.9366526512e-05 1.4604797684e+00 -2.5296251623e+00 1.4604797684e+00 2.5296251623e+00 
88800 5.6028356129e+00 -6.9388174356e-05 1.4604797684e+00 -2.5296251623e+00 1.4604797684e+00 2.5296251623e+00 
88900 5.6028356133e+00 -6.9409664545e-05 1.4604797684e+00 -2.5296251623e+00 1.4604797684e+00 2.5296251623e+00 
89000 5.6028356137e+00 -6.9430998466e-05 1.4604797684e+00 -2.5296251623e+00 1.4604797684e+00 2.5296251623e+00 
89100 5.6028356141e+00 -6.9452177473e-05 1.4604797684e+00 -2.5296251623e+00 1.4604797684e+00 2.5296251623e+00 
89200 5.6028356145e+00 -6.9473202888e-05 1.4604797684e+00 -2.5296251623e+00 1.4604797684e+00 2.5296251623e+00 
89300 5.6028356149e+00 -6.9494076007e-05 1.4604797684e+00 -2.5296251623e+00 1.4604797684e+00 2.5296251623e+00 
89400 5.6028356152e+00 -6.9514798096e-05 1.4604797684e+00 -2.5296251623e+00 1.4604797684e+00 2.5296251623e+00 
89500 5.6028356156e+00 -6.9535370390e-05 1.4604797684e+00 -2.5296251623e+00 1.4604797684e+00 2.5296251623e+00 
89600 5.6028356160e+00 -6.9555794098e-05 1.4604797684e+00 -2.5296251623e+00 1.4604797684e+00 2.5296251623e+00 
89700 5.6028356163e+00 -6.9576070401e-05 1.4604797684e+00 -2.5296251623e+00 1.4604797684e+00 2.5296251623e+00 
89800 5.6028356167e+00 -6.9596200452e-05 1.4604797684e+00 -2.5296251623e+00 1.4604797684e+00 2.5296251623e+00 
89900 5.6028356171e+00 -6.9616185380e-05 1.4604797684e+00 -2.5296251623e+00 1.4604797684e+00 2.5296251623e+00 
90000 5.6028356174e+00 -6.9636026285e-05 1.4604797684e+00 -2.5296251623e+00 1.4604797684e+00 2.5296251623e+00 
90100 5.6028356178e+00 -6.9655724244e-05 1.4604797684e+00 -2.5296251623e+00 1.4604797684e+00 2.5296251623e+00 
90200 5.6028356181e+00 -6.9675280309e-05 1.4604797684e+00 -2.5296251623e+00 1.4604797684e+00 2.5296251623e+00 
90300 5.6028356184e+00 -6.9694695508e-05 1.4604797684e+00 -2.5296251623e+00 1.4604797684e+00 2.5296251623e+00 
90400 5.6028356188e+00 -6.9713970846e-05 1.4604797684e+00 -2.5296251623e+00 1.4604797684e+00 2.5296251623e+00 
90500 5.6028356191e+00 -6.9733107306e-05 1.4604797684e+00 -2.5296251623e+00 1.4604797684e+00 2.5296251623e+00 
90600 5.6028356194e+00 -6.9752105848e-05 1.4604797684e+00 -2.5296251623e+00 1.4604797684e+00 2.5296251623e+00 
90700 5.6028356198e+00 -6.9770967412e-05 1.4604797684e+00 -2.5296251623e+00 1.4604797684e+00 2.5296251623e+00 
90800 5.6028356201e+00 -6.9789692918e-05 1.4604797684e+00 -2.5296251623e+00 1.4604797684e+00 2.5296251623e+00 
90900 5.6028356204e+00 -6.9808283265e-05 1.4604797684e+00 -2.5296251623e+00 1.4604797684e+00 2.5296251623e+00 
91000 5.6028356207e+00 -6.9826739333e-05 1.4604797684e+00 -2.5296251623e+00 1.4604797684e+00 2.5296251623e+00 
91100 5.6028356210e+00 -6.9845061987e-05 1.4604797684e+00 -2.5296251623e+00 1.4604797684e+00 2.5296251623e+00 
91200 5.6028356213e+00 -6.9863252069e-05 1.4604797684e+00 -2.5296251623e+00 1.4604797684e+00 2.5296251623e+00 
91300 5.6028356216e+00 -6.9881310409e-05 1.4604797684e+00 -2.5296251623e+00 1.4604797684e+00 2.5296251623e+00 
91400 5.6028356219e+00 -6.9899237817e-05 1.4604797684e+00 -2.5296251623e+00 1.4604797684e+00 2.5296251623e+00 
91500 5.6028356222e+00 -6.9917035091e-05 1.4604797684e+00 -2.5296251623e+00 1.4604797684e+00 2.5296251623e+00 
91600 5.6028356225e+00 -6.9934703011e-05 1.4604797684e+00 -2.5296251623e+00 1.4604797684e+00 2.5296251623e+00 
91700 5.6028356228e+00 -6.9952242345e-05 1.4604797684e+00 -2.5296251623e+00 1.4604797684e+00 2.5296251623e+00 
91800 5.6028356231e+00 -6.9969653846e-05 1.4604797684e+00 -2.5296251623e+00 1.4604797684e+00 2.5296251623e+00 
91900 5.6028356233e+00 -6.9986938254e-05 1.4604797684e+00 -2.5296251623e+00 1.4604797684e+00 2.5296251623e+00 
92000 5.6028356236e+00 -7.0004096300e-05 1.4604797684e+00 -2.5296251623e+00 1.4604797684e+00 2.5296251623e+00 
92100 5.6028356239e+00 -7.0021128699e-05 1.4604797684e+00 -2.5296251623e+00 1.4604797684e+00 2.5296251623e+00 
92200 5.6028356242e+00 -7.0038036156e-05 1.4604797684e+00 -2.5296251623e+00 1.4604797684e+00 2.5296251623e+00 
92300 5.6028356244e+00 -7.0054819367e-05 1.4604797684e+00 -2.5296251623e+00 1.4604797684e+00 2.5296251623e+00 
92400 5.6028356247e+00 -7.0071479018e-05 1.4604797684e+00 -2.5296251623e+00 1.4604797684e+00 2.5296251623e+00 
92500 5.6028356249e+00 -7.0088015784e-05 1.4604797684e+00 -2.5296251623e+00 1.4604797684e+00 2.5296251623e+00 
92600 5.6028356252e+00 -7.0104430332e-05 1.4604797684e+00 -2.5296251623e+00 1.4604797684e+00 2.5296251623e+00 
92700 5.6028356255e+00 -7.0120723323e-05 1.4604797684e+00 -2.5296251623e+00 1.4604797684e+00 2.5296251623e+00 
92800 5.6028356257e+00 -7.0136895407e-05 1.4604797684e+00 -2.5296251623e+00 1.4604797684e+00 2.5296251623e+00 
92900 5.6028356260e+00 -7.0152947227e-05 1.4604797684e+00 -2.5296251623e+00 1.4604797684e+00 2.5296251623e+00 
93000 5.6028356262e+00 -7.0168879422e-05 1.4604797684e+00 -2.5296251623e+00 1.4604797684e+00 2.5296251623e+00 
93100 5.6028356265e+00 -7.0184692624e-05 1.4604797684e+00 -2.5296251623e+00 1.4604797684e+00 2.5296251623e+00 
93200 5.6028356267e+00 -7.0200387457e-05 1.4604797684e+00 -2.5296251623e+00 1.4604797684e+00 2.5296251623e+00 
93300 5.6028356269e+00 -7.0215964542e-05 1.4604797684e+00 -2.5296251623e+00 1.4604797684e+00 2.5296251623e+00 
93400 5.6028356272e+00 -7.0231424493e-05 1.4604797684e+00 -2.5296251623e+00 1.4604797684e+00 2.5296251623e+00 
93500 5.6028356274e+00 -7.0246767923e-05 1.4604797684e+00 -2.5296251623e+00 1.4604797684e+00 2.5296251623e+00 
93600 5.6028356276e+00 -7.0261995438e-05 1.4604797684e+00 -2.5296251623e+00 1.4604797684e+00 2.5296251623e+00 
93700 5.6028356278e+00 -7.0277107641e-05 1.4604797684e+00 -2.5296251623e+00 1.4604797684e+00 2.5296251623e+00 
93800 5.6028356281e+00 -7.0292105133e-05 1.4604797684e+00 -2.5296251623e+00 1.4604797684e+00 2.5296251623e+00 
93900 5.6028356283e+00 -7.0306988510e-05 1.4604797684e+00 -2.5296251623e+00 1.4604797684e+00 2.5296251623e+00 
94000 5.6028356285e+00 -7.0321758368e-05 1.4604797684e+00 -2.5296251623e+00 1.4604797684e+00 2.5296251623e+00 
94100 5.6028356287e+00 -7.0336415298e-05 1.4604797684e+00 -2.5296251623e+00 1.4604797684e+00 2.5296251623e+00 
94200 5.6028356289e+00 -7.0350959892e-05 1.4604797684e+00 -2.5296251623e+00 1.4604797684e+00 2.5296251623e+00 
94300 5.6028356292e+00 -7.0365392737e-05 1.4604797684e+00 -2.5296251623e+00 1.4604797684e+00 2.5296251623e+00 
94400 5.6028356294e+00 -7.0379714422e-05 1.4604797684e+00 -2.5296251623e+00 1.4604797684e+00 2.5296251623e+00 
94500 5.6028356296e+00 -7.0393925533e-05 1.4604797684e+00 -2.5296251623e+00 1.4604797684e+00 2.5296251623e+00 
94600 5.6028356298e+00 -7.0408026655e-05 1.4604797684e+00 -2.5296251623e+00 1.4604797684e+00 2.5296251623e+00 
94700 5.6028356300e+00 -7.0422018374e-05 1.4604797684e+00 -2.5296251623e+00 1.4604797684e+00 2.5296251623e+00 
94800 5.6028356302e+00 -7.0435901273e-05 1.4604797684e+00 -2.5296251623e+00 1.4604797684e+00 2.5296251623e+00 
94900 5.6028356304e+00 -7.0449675940e-05 1.4604797684e+00 -2.5296251623e+00 1.4604797684e+00 2.5296251623e+00 
95000 5.6028356306e+00 -7.0463342956e-05 1.4604797684e+00 -2.5296251623e+00 1.4604797684e+00 2.5296251623e+00 
95100 5.6028356308e+00 -7.0476902910e-05 1.4604797684e+00 -2.5296251623e+00 1.4604797684e+00 2.5296251623e+00 
95200 5.6028356309e+00 -7.0490356384e-05 1.4604797684e+00 -2.5296251623e+00 1.4604797684e+00 2.5296251623e+00 
95300 5.6028356311e+00 -7.0503703966e-05 1.4604797684e+00 -2.5296251623e+00 1.4604797684e+00 2.5296251623e+00 
95400 5.6028356313e+00 -7.0516946242e-05 1.4604797684e+00 -2.5296251623e+00 1.4604797684e+00 2.5296251623e+00 
95500 5.6028356315e+00 -7.0530083800e-05 1.4604797684e+00 -2.5296251623e+00 1.4604797684e+00 2.5296251623e+00 
95600 5.6028356317e+00 -7.0543117228e-05 1.4604797684e+00 -2.5296251623e+00 1.4604797684e+00 2.5296251623e+00 
95700 5.6028356319e+00 -7.0556047118e-05 1.4604797684e+00 -2.5296251623e+00 1.4604797684e+00 2.5296251623e+00 
95800 5.6028356320e+00 -7.0568874059e-05 1.4604797684e+00 -2.5296251623e+00 1.4604797684e+00 2.5296251623e+00 
95900 5.6028356322e+00 -7.0581598645e-05 1.4604797684e+00 -2.5296251623e+00 1.4604797684e+00 2.5296251623e+00 
96000 5.6028356324e+00 -7.0594221470e-05 1.4604797684e+00 -2.5296251623e+00 1.4604797684e+00 2.5296251623e+00 
96100 5.6028356326e+00 -7.0606743128e-05 1.4604797684e+00 -2.5296251623e+00 1.4604797684e+00 2.5296251623e+00 
96200 5.6028356327e+00 -7.0619164218e-05 1.4604797684e+00 -2.5296251623e+00 1.4604797684e+00 2.5296251623e+00 
96300 5.6028356329e+00 -7.0631485337e-05 1.4604797684e+00 -2.5296251623e+00 1.4604797684e+00 2.5296251623e+00 
96400 5.6028356331e+00 -7.0643707087e-05 1.4604797684e+00 -2.5296251623e+00 1.4604797684e+00 2.5296251623e+00 
96500 5.6028356332e+00 -7.0655830068e-05 1.4604797684e+00 -2.5296251623e+00 1.4604797684e+00 2.5296251623e+00 
96600 5.6028356334e+00 -7.0667854885e-05 1.4604797684e+00 -2.5296251623e+00 1.4604797684e+00 2.5296251623e+00 
96700 5.6028356335e+00 -7.0679782143e-05 1.4604797684e+00 -2.5296251623e+00 1.4604797684e+00 2.5296251623e+00 
96800 5.6028356337e+00 -7.0691612450e-05 1.4604797684e+00 -2.5296251623e+00 1.4604797684e+00 2.5296251623e+00 
96900 5.6028356339e+00 -7.0703346415e-05 1.4604797684e+00 -2.5296251623e+00 1.4604797684e+00 2.5296251623e+00 
97000 5.6028356340e+00 -7.0714984649e-05 1.4604797684e+00 -2.5296251623e+00 1.4604797684e+00 2.5296251623e+00 
97100 5.6028356339e+00 -6.8499250982e-05 1.4604821893e+00 -2.5296293555e+00 1.4604821893e+00 2.5296293555e+00 
97200 5.6028356341e+00 -6.8503503326e-05 1.4604821893e+00 -2.5296293555e+00 1.4604821893e+00 2.5296293555e+00 
97300 5.6028356342e+00 -6.8507747234e-05 1.4604821893e+00 -2.5296293555e+00 1.4604821893e+00 2.5296293555e+00 
97400 5.6028356344e+00 -6.8511983196e-05 1.4604821893e+00 -2.5296293555e+00 1.4604821893e+00 2.5296293555e+00 
97500 5.6028356345e+00 -6.8516211751e-05 1.4604821893e+00 -2.5296293555e+00 1.4604821893e+00 2.5296293555e+00 
97600 5.6028356347e+00 -6.8520433482e-05 1.4604821893e+00 -2.5296293555e+00 1.4604821893e+00 2.5296293555e+00 
97700 5.6028356348e+00 -6.8524649009e-05 1.4604821893e+00 -2.5296293555e+00 1.4604821893e+00 2.5296293555e+00 
97800 5.6028356349e+00 -6.8528858986e-05 1.4604821893e+00 -2.5296293555e+00 1.4604821893e+00 2.5296293555e+00 
97900 5.6028356351e+00 -6.8533064091e-05 1.4604821893e+00 -2.5296293555e+00 1.4604821893e+00 2.5296293555e+00 
98000 5.6028356352e+00 -6.8537265028e-05 1.4604821893e+00 -2.5296293555e+00 1.4604821893e+00 2.5296293555e+00 
98100 5.6028356354e+00 -6.8541462518e-05 1.4604821893e+00 -2.5296293555e+00 1.4604821893e+00 2.5296293555e+00 
98200 5.6028356355e+00 -6.8545657296e-05 1.4604821893e+00 -2.5296293555e+00 1.4604821893e+00 2.5296293555e+00 
98300 5.6028356356e+00 -6.8549850107e-05 1.4604821893e+00 -2.5296293555e+00 1.4604821893e+00 2.5296293555e+00 
98400 5.6028356358e+00 -6.8554041703e-05 1.4604821893e+00 -2.5296293555e+00 1.4604821893e+00 2.5296293555e+00 
98500 5.6028356359e+00 -6.8558232839e-05 1.4604821893e+00 -2.5296293555e+00 1.4604821893e+00 2.5296293555e+00 
98600 5.6028356360e+00 -6.8562424271e-05 1.4604821893e+00 -2.5296293555e+00 1.4604821893e+00 2.5296293555e+00 
98700 5.6028356361e+00 -6.8566616749e-05 1.4604821893e+00 -2.5296293555e+00 1.4604821893e+00 2.5296293555e+00 
98800 5.6028356363e+00 -6.8570811021e-05 1.4604821893e+00 -2.5296293555e+00 1.4604821893e+00 2.5296293555e+00 
98900 5.6028356364e+00 -6.8575007823e-05 1.4604821893e+00 -2.5296293555e+00 1.4604821893e+00 2.5296293555e+00 
99000 5.6028356365e+00 -6.8579207884e-05 1.4604821893e+00 -2.5296293555e+00 1.4604821893e+00 2.5296293555e+00 
99100 5.6028356366e+00 -6.8583411917e-05 1.4604821893e+00 -2.5296293555e+00 1.4604821893e+00 2.5296293555e+00 
99200 5.6028356367e+00 -6.8587620622e-05 1.4604821893e+00 -2.5296293555e+00 1.4604821893e+00 2.5296293555e+00 
99300 5.6028356369e+00 -6.8591834681e-05 1.4604821893e+00 -2.5296293555e+00 1.4604821893e+00 2.5296293555e+00 
99400 5.6028356370e+00 -6.8596054758e-05 1.4604821893e+00 -2.5296293555e+00 1.4604821893e+00 2.5296293555e+00 
99500 5.6028356371e+00 -6.8600281498e-05 1.4604821893e+00 -2.5296293555e+00 1.4604821893e+00 2.5296293555e+00 
99600 5.6028356372e+00 -6.8604515523e-05 1.4604821893e+00 -2.5296293555e+00 1.4604821893e+00 2.5296293555e+00 
99700 5.6028356373e+00 -6.8608757433e-05 1.4604821893e+00 -2.5296293555e+00 1.4604821893e+00 2.5296293555e+00 
99800 5.6028356374e+00 -6.8613007804e-05 1.4604821893e+00 -2.5296293555e+00 1.4604821893e+00 2.5296293555e+00 
99900 5.6028356375e+00 -6.8617267189e-05 1.4604821893e+00 -2.5296293555e+00 1.4604821893e+00 2.5296293555e+00 
100000 5.6028356377e+00 -6.8621536112e-05 1.4604821893e+00 -2.5296293555e+00 1.4604821893e+00 2.5296293555e+00 
100100 5.6028356378e+00 -6.8625815074e-05 1.4604821893e+00 -2.5296293555e+00 1.4604821893e+00 2.5296293555e+00 
100200 5.6028356379e+00 -6.8630104547e-05 1.4604821893e+00 -2.5296293555e+00 1.4604821893e+00 2.5296293555e+00 
100300 5.6028356380e+00 -6.8634404976e-05 1.4604821893e+00 -2.5296293555e+00 1.4604821893e+00 2.5296293555e+00 
100400 5.6028356381e+00 -6.8638716779e-05 1.4604821893e+00 -2.5296293555e+00 1.4604821893e+00 2.5296293555e+00 
100500 5.6028356382e+00 -6.8643040341e-05 1.4604821893e+00 -2.5296293555e+00 1.4604821893e+00 2.5296293555e+00 
100600 5.6028356383e+00 -6.8647376025e-05 1.4604821893e+00 -2.5296293555e+00 1.4604821893e+00 2.5296293555e+00 
100700 5.6028356384e+00 -6.8651724162e-05 1.4604821893e+00 -2.5296293555e+00 1.4604821893e+00 2.5296293555e+00 
100800 5.6028356385e+00 -6.8656085051e-05 1.4604821893e+00 -2.5296293555e+00 1.4604821893e+00 2.5296293555e+00 
100900 5.6028356386e+00 -6.8660458968e-05 1.4604821893e+00 -2.5296293555e+00 1.4604821893e+00 2.5296293555e+00 
101000 5.6028356387e+00 -6.8664846155e-05 1.4604821893e+00 -2.5296293555e+00 1.4604821893e+00 2.5296293555e+00 
101100 5.6028356388e+00 -6.8669246827e-05 1.4604821893e+00 -2.5296293555e+00 1.4604821893e+00 2.5296293555e+00 
101200 5.6028356389e+00 -6.8673661170e-05 1.4604821893e+00 -2.5296293555e+00 1.4604821893e+00 2.5296293555e+00 
101300 5.6028356390e+00 -6.8678089342e-05 1.4604821893e+00 -2.5296293555e+00 1.4604821893e+00 2.5296293555e+00 
101400 5.6028356390e+00 -6.8682531471e-05 1.4604821893e+00 -2.5296293555e+00 1.4604821893e+00 2.5296293555e+00 
101500 5.6028356391e+00 -6.8686987660e-05 1.4604821893e+00 -2.5296293555e+00 1.4604821893e+00 2.5296293555e+00 
101600 5.6028356392e+00 -6.8691457982e-05 1.4604821893e+00 -2.5296293555e+00 1.4604821893e+00 2.5296293555e+00 
101700 5.6028356393e+00 -6.8695942482e-05 1.4604821893e+00 -2.5296293555e+00 1.4604821893e+00 2.5296293555e+00 
101800 5.6028356394e+00 -6.8700441179e-05 1.4604821893e+00 -2.5296293555e+00 1.4604821893e+00 2.5296293555e+00 
101900 5.6028356395e+00 -6.8704954067e-05 1.4604821893e+00 -2.5296293555e+00 1.4604821893e+00 2.5296293555e+00 
102000 5.6028356396e+00 -6.8709481114e-05 1.4604821893e+00 -2.5296293555e+00 1.4604821893e+00 2.5296293555e+00 
102100 5.6028356397e+00 -6.8714022260e-05 1.4604821893e+00 -2.5296293555e+00 1.4604821893e+00 2.5296293555e+00 
102200 5.6028356397e+00 -6.8718577422e-05 1.4604821893e+00 -2.5296293555e+00 1.4604821893e+00 2.5296293555e+00 
102300 5.6028356398e+00 -6.8723146494e-05 1.4604821893e+00 -2.5296293555e+00 1.4604821893e+00 2.5296293555e+00 
102400 5.6028356399e+00 -6.8727729345e-05 1.4604821893e+00 -2.5296293555e+00 1.4604821893e+00 2.5296293555e+00 
102500 5.6028356400e+00 -6.8732325820e-05 1.4604821893e+00 -2.5296293555e+00 1.4604821893e+00 2.5296293555e+00 
102600 5.6028356401e+00 -6.8736935743e-05 1.4604821893e+00 -2.5296293555e+00 1.4604821893e+00 2.5296293555e+00 
102700 5.6028356402e+00 -6.8741558918e-05 1.4604821893e+00 -2.5296293555e+00 1.4604821893e+00 2.5296293555e+00 
102800 5.6028356402e+00 -6.8746195125e-05 1.4604821893e+00 -2.5296293555e+00 1.4604821893e+00 2.5296293555e+00 
102900 5.6028356403e+00 -6.8750844126e-05 1.4604821893e+00 -2.5296293555e+00 1.4604821893e+00 2.5296293555e+00 
103000 5.6028356404e+00 -6.8755505662e-05 1.4604821893e+00 -2.5296293555e+00 1.4604821893e+00 2.5296293555e+00 
103100 5.6028356405e+00 -6.8760179454e-05 1.4604821893e+00 -2.5296293555e+00 1.4604821893e+00 2.5296293555e+00 
103200 5.6028356405e+00 -6.8764865209e-05 1.4604821893e+00 -2.5296293555e+00 1.4604821893e+00 2.5296293555e+00 
103300 5.6028356406e+00 -6.8769562615e-05 1.4604821893e+00 -2.5296293555e+00 1.4604821893e+00 2.5296293555e+00 
103400 5.6028356407e+00 -6.8774271338e-05 1.4604821893e+00 -2.5296293555e+00 1.4604821893e+00 2.5296293555e+00 
103500 5.6028356408e+00 -6.8778991037e-05 1.4604821893e+00 -2.5296293555e+00 1.4604821893e+00 2.5296293555e+00 
103600 5.6028356408e+00 -6.8783721347e-05 1.4604821893e+00 -2.5296293555e+00 1.4604821893e+00 2.5296293555e+00 
103700 5.6028356409e+00 -6.8788461897e-05 1.4604821893e+00 -2.5296293555e+00 1.4604821893e+00 2.5296293555e+00 
103800 5.6028356410e+00 -6.8793212295e-05 1.4604821893e+00 -2.5296293555e+00 1.4604821893e+00 2.5296293555e+00 
103900 5.6028356410e+00 -6.8797972140e-05 1.4604821893e+00 -2.5296293555e+00 1.4604821893e+00 2.5296293555e+00 
104000 5.6028356411e+00 -6.8802741017e-05 1.4604821893e+00 -2.5296293555e+00 1.4604821893e+00 2.5296293555e+00 
104100 5.6028356412e+00 -6.8807518501e-05 1.4604821893e+00 -2.5296293555e+00 1.4604821893e+00 2.5296293555e+00 
104200 5.6028356412e+00 -6.8812304154e-05 1.4604821893e+00 -2.5296293555e+00 1.4604821893e+00 2.5296293555e+00 
104300 5.6028356413e+00 -6.8817097530e-05 1.4604821893e+00 -2.5296293555e+00 1.4604821893e+00 2.5296293555e+00 
104400 5.6028356414e+00 -6.8821898170e-05 1.4604821893e+00 -2.5296293555e+00 1.4604821893e+00 2.5296293555e+00 
104500 5.6028356414e+00 -6.8826705611e-05 1.4604821893e+00 -2.5296293555e+00 1.4604821893e+00 2.5296293555e+00 
104600 5.6028356415e+00 -6.8831519378e-05 1.4604821893e+00 -2.5296293555e+00 1.4604821893e+00 2.5296293555e+00 
104700 5.6028356416e+00 -6.8836338991e-05 1.4604821893e+00 -2.5296293555e+00 1.4604821893e+00 2.5296293555e+00 
104800 5.6028356416e+00 -6.8841163961e-05 1.4604821893e+00 -2.5296293555e+00 1.4604821893e+00 2.5296293555e+00 
104900 5.6028356417e+00 -6.8845993795e-05 1.4604821893e+00 -2.5296293555e+00 1.4604821893e+00 2.5296293555e+00 
105000 5.6028356418e+00 -6.8850827991e-05 1.4604821893e+00 -2.5296293555e+00 1.4604821893e+00 2.5296293555e+00 
105100 5.6028356418e+00 -6.8855666047e-05 1.4604821893e+00 -2.5296293555e+00 1.4604821893e+00 2.5296293555e+00 
105200 5.6028356419e+00 -6.8860507454e-05 1.4604821893e+00 -2.5296293555e+00 1.4604821893e+00 2.5296293555e+00 
105300 5.6028356419e+00 -6.8865351698e-05 1.4604821893e+00 -2.5296293555e+00 1.4604821893e+00 2.5296293555e+00 
105400 5.6028356420e+00 -6.8870198264e-05 1.4604821893e+00 -2.5296293555e+00 1.4604821893e+00 2.5296293555e+00 
105500 5.6028356420e+00 -6.8875046634e-05 1.4604821893e+00 -2.5296293555e+00 1.4604821893e+00 2.5296293555e+00 
105600 5.6028356421e+00 -6.8879896289e-05 1.4604821893e+00 -2.5296293555e+00 1.4604821893e+00 2.5296293555e+00 
105700 5.6028356422e+00 -6.8884746705e-05 1.4604821893e+00 -2.5296293555e+00 1.4604821893e+00 2.5296293555e+00 
105800 5.6028356422e+00 -6.8889597362e-05 1.4604821893e+00 -2.5296293555e+00 1.4604821893e+00 2.5296293555e+00 
105900 5.6028356423e+00 -6.8894447734e-05 1.4604821893e+00 -2.5296293555e+00 1.4604821893e+00 2.5296293555e+00 
106000 5.6028356423e+00 -6.8899297302e-05 1.4604821893e+00 -2.5296293555e+00 1.4604821893e+00 2.5296293555e+00 
106100 5.6028356424e+00 -6.8904145542e-05 1.4604821893e+00 -2.5296293555e+00 1.4604821893e+00 2.5296293555e+00 
106200 5.6028356424e+00 -6.8908991933e-05 1.4604821893e+00 -2.5296293555e+00 1.4604821893e+00 2.5296293555e+00 
106300 5.6028356425e+00 -6.8913835954e-05 1.4604821893e+00 -2.5296293555e+00 1.4604821893e+00 2.5296293555e+00 
106400 5.6028356425e+00 -6.8918677089e-05 1.4604821893e+00 -2.5296293555e+00 1.4604821893e+00 2.5296293555e+00 
106500 5.6028356426e+00 -6.8923514823e-05 1.4604821893e+00 -2.5296293555e+00 1.4604821893e+00 2.5296293555e+00 
106600 5.6028356426e+00 -6.8928348644e-05 1.4604821893e+00 -2.5296293555e+00 1.4604821893e+00 2.5296293555e+00 
106700 5.6028356427e+00 -6.8933178041e-05 1.4604821893e+00 -2.5296293555e+00 1.4604821893e+00 2.5296293555e+00 
106800 5.6028356427e+00 -6.8937809632e-05 1.4604821893e+00 -2.5296293555e+00 1.4604821893e+00 2.5296293555e+00 
106800 5.6028356427e+00 -6.8937809632e-05 1.4604821893e+00 -2.5296293555e+00 1.4604821893e+00 2.5296293555e+00 
