# step Hamiltonian StressXX CellTensor1 CellTensor2 CellTensor3 CellTensor4 
0 5.5825177384e+00 -2.1731924862e-08 1.3731072612e+00 -2.3782915406e+00 1.3731072612e+00 2.3782915406e+00 
100 5.5824911065e+00 -2.1177145899e-08 1.3731072612e+00 -2.3782915406e+00 1.3731072612e+00 2.3782915406e+00 
200 5.5824663567e+00 -2.0980208641e-08 1.3731072612e+00 -2.3782915406e+00 1.3731072612e+00 2.3782915406e+00 
300 5.5824433562e+00 -2.1069923050e-08 1.3731072612e+00 -2.3782915406e+00 1.3731072612e+00 2.3782915406e+00 
400 5.5824219812e+00 -2.1392057537e-08 1.3731072612e+00 -2.3782915406e+00 1.3731072612e+00 2.3782915406e+00 
500 5.5824021170e+00 -2.1905471369e-08 1.3731072612e+00 -2.3782915406e+00 1.3731072612e+00 2.3782915406e+00 
600 5.5823836567e+00 -2.2579136689e-08 1.3731072612e+00 -2.3782915406e+00 1.3731072612e+00 2.3782915406e+00 
700 5.5823665011e+00 -2.3389845970e-08 1.3731072612e+00 -2.3782915406e+00 1.3731072612e+00 2.3782915406e+00 
800 5.5823505579e+00 -2.4320447606e-08 1.3731072612e+00 -2.3782915406e+00 1.3731072612e+00 2.3782915406e+00 
900 5.5823357416e+00 -2.5358488467e-08 1.3731072612e+00 -2.3782915406e+00 1.3731072612e+00 2.3782915406e+00 
1000 5.5823219724e+00 -2.6495170056e-08 1.3731072612e+00 -2.3782915406e+00 1.3731072612e+00 2.3782915406e+00 
1100 5.5823091763e+00 -2.7724546365e-08 1.3731072612e+00 -2.3782915406e+00 1.3731072612e+00 2.3782915406e+00 
1200 5.5822972846e+00 -2.9042908019e-08 1.3731072612e+00 -2.3782915406e+00 1.3731072612e+00 2.3782915406e+00 
1300 5.5822862332e+00 -3.0448310035e-08 1.3731072612e+00 -2.3782915406e+00 1.3731072612e+00 2.3782915406e+00 
1400 5.5822759628e+00 -3.1940210319e-08 1.3731072612e+00 -2.3782915406e+00 1.3731072612e+00 2.3782915406e+00 
1500 5.5822664182e+00 -3.3519193582e-08 1.3731072612e+00 -2.3782915406e+00 1.3731072612e+00 2.3782915406e+00 
1600 5.5822575481e+00 -3.5186761162e-08 1.3731072612e+00 -2.3782915406e+00 1.3731072612e+00 2.3782915406e+00 
1700 5.5822493048e+00 -3.6945171742e-08 1.3731072612e+00 -2.3782915406e+00 1.3731072612e+00 2.3782915406e+00 
1800 5.5822416439e+00 -3.8797321395e-08 1.3731072612e+00 -2.3782915406e+00 1.3731072612e+00 2.3782915406e+00 
1900 5.5822345243e+00 -4.0746654052e-08 1.3731072612e+00 -2.3782915406e+00 1.3731072612e+00 2.3782915406e+00 
2000 5.5822279077e+00 -4.2797095534e-08 1.3731072612e+00 -2.3782915406e+00 1.3731072612e+00 2.3782915406e+00 
2100 5.5822217585e+00 -4.4953005890e-08 1.3731072612e+00 -2.3782915406e+00 1.3731072612e+00 2.3782915406e+00 
2200 5.5822160437e+00 -4.7219145977e-08 1.3731072612e+00 -2.3782915406e+00 1.3731072612e+00 2.3782915406e+00 
2300 5.5822107326e+00 -4.9600655169e-08 1.3731072612e+00 -2.3782915406e+00 1.3731072612e+00 2.3782915406e+00 
2400 5.5822057967e+00 -5.2103037811e-08 1.3731072612e+00 -2.3782915406e+00 1.3731072612e+00 2.3782915406e+00 
2500 5.5822012093e+00 -5.4732156572e-08 1.3731072612e+00 -2.3782915406e+00 1.3731072612e+00 2.3782915406e+00 
2600 5.5821969458e+00 -5.7494231312e-08 1.3731072612e+00 -2.3782915406e+00 1.3731072612e+00 2.3782915406e+00 
2700 5.5821929834e+00 -6.0395842375e-08 1.3731072612e+00 -2.3782915406e+00 1.3731072612e+00 2.3782915406e+00 
2800 5.5821893006e+00 -6.3443937506e-08 1.3731072612e+00 -2.3782915406e+00 1.3731072612e+00 2.3782915406e+00 
2900 5.5821858779e+00 -6.6645841775e-08 1.3731072612e+00 -2.3782915406e+00 1.3731072612e+00 2.3782915406e+00 
3000 5.5821826966e+00 -7.0009270033e-08 1.3731072612e+00 -2.3782915406e+00 1.3731072612e+00 2.3782915406e+00 
3100 5.5821797398e+00 -7.3542341572e-08 1.3731072612e+00 -2.3782915406e+00 1.3731072612e+00 2.3782915406e+00 
3200 5.5821769916e+00 -7.7253596725e-08 1.3731072612e+00 -2.3782915406e+00 1.3731072612e+00 2.3782915406e+00 
3300 5.5821744371e+00 -8.1152015219e-08 1.3731072612e+00 -2.3782915406e+00 1.3731072612e+00 2.3782915406e+00 
3400 5.5821720627e+00 -8.5247036175e-08 1.3731072612e+00 -2.3782915406e+00 1.3731072612e+00 2.3782915406e+00 
3500 5.5821698557e+00 -8.9548579652e-08 1.3731072612e+00 -2.3782915406e+00 1.3731072612e+00 2.3782915406e+00 
3600 5.5821678040e+00 -9.4067069691e-08 1.3731072612e+00 -2.3782915406e+00 1.3731072612e+00 2.3782915406e+00 
3700 5.5821658969e+00 -9.8813458846e-08 1.3731072612e+00 -2.3782915406e+00 1.3731072612e+00 2.3782915406e+00 
3800 5.5821641239e+00 -1.0379925419e-07 1.3731072612e+00 -2.3782915406e+00 1.3731072612e+00 2.3782915406e+00 
3900 5.5821624757e+00 -1.0903654484e-07 1.3731072612e+00 -2.3782915406e+00 1.3731072612e+00 2.3782915406e+00 
4000 5.5821609433e+00 -1.1453803096e-07 1.3731072612e+00 -2.3782915406e+00 1.3731072612e+00 2.3782915406e+00 
4100 5.5821595185e+00 -1.2031705441e-07 1.3731072612e+00 -2.3782915406e+00 1.3731072612e+00 2.3782915406e+00 
4200 5.5821581937e+00 -1.2638763098e-07 1.3731072612e+00 -2.3782915406e+00 1.3731072612e+00 2.3782915406e+00 
4300 5.5821569617e+00 -1.3276448429e-07 1.3731072612e+00 -2.3782915406e+00 1.3731072612e+00 2.3782915406e+00 
4400 5.5821558161e+00 -1.3946308154e-07 1.3731072612e+00 -2.3782915406e+00 1.3731072612e+00 2.3782915406e+00 
4500 5.5821547505e+00 -1.4649967100e-07 1.3731072612e+00 -2.3782915406e+00 1.3731072612e+00 2.3782915406e+00 
4600 5.5821537594e+00 -1.5389132148e-07 1.3731072612e+00 -2.3782915406e+00 1.3731072612e+00 2.3782915406e+00 
4700 5.5821528374e+00 -1.6165596382e-07 1.3731072612e+00 -2.3782915406e+00 1.3731072612e+00 2.3782915406e+00 
4800 5.5821519796e+00 -1.6981243445e-07 1.3731072612e+00 -2.3782915406e+00 1.3731072612e+00 2.3782915406e+00 
4900 5.5821511814e+00 -1.7838052122e-07 1.3731072612e+00 -2.3782915406e+00 1.3731072612e+00 2.3782915406e+00 
5000 5.5821504386e+00 -1.8738101152e-07 1.3731072612e+00 -2.3782915406e+00 1.3731072612e+00 2.3782915406e+00 
5100 5.5821497471e+00 -1.9683574285e-07 1.3731072612e+00 -2.3782915406e+00 1.3731072612e+00 2.3782915406e+00 
5200 5.5821491033e+00 -2.0676765594e-07 1.3731072612e+00 -2.3782915406e+00 1.3731072612e+00 2.3782915406e+00 
5300 5.5821485037e+00 -2.1720085063e-07 1.3731072612e+00 -2.3782915406e+00 1.3731072612e+00 2.3782915406e+00 
5400 5.5821479452e+00 -2.2816064447e-07 1.3731072612e+00 -2.3782915406e+00 1.3731072612e+00 2.3782915406e+00 
5500 5.5821474247e+00 -2.3967363441e-07 1.3731072612e+00 -2.3782915406e+00 1.3731072612e+00 2.3782915406e+00 
5600 5.5821469396e+00 -2.5176776150e-07 1.3731072612e+00 -2.3782915406e+00 1.3731072612e+00 2.3782915406e+00 
5700 5.5821464873e+00 -2.6447237898e-07 1.3731072612e+00 -2.3782915406e+00 1.3731072612e+00 2.3782915406e+00 
5800 5.5821460653e+00 -2.7781832374e-07 1.3731072612e+00 -2.3782915406e+00 1.3731072612e+00 2.3782915406e+00 
5900 5.5821456715e+00 -2.9183799144e-07 1.3731072612e+00 -2.3782915406e+00 1.3731072612e+00 2.3782915406e+00 
6000 5.5821453037e+00 -3.0656541542e-07 1.3731072612e+00 -2.3782915406e+00 1.3731072612e+00 2.3782915406e+00 
6100 5.5821449600e+00 -3.2203634966e-07 1.3731072612e+00 -2.3782915406e+00 1.3731072612e+00 2.3782915406e+00 
6200 5.5821446387e+00 -3.3828835586e-07 1.3731072612e+00 -2.3782915406e+00 1.3731072612e+00 2.3782915406e+00 
6300 5.5821443380e+00 -3.5536089502e-07 1.3731072612e+00 -2.3782915406e+00 1.3731072612e+00 2.3782915406e+00 
6400 5.5821440564e+00 -3.7329542361e-07 1.3731072612e+00 -2.3782915406e+00 1.3731072612e+00 2.3782915406e+00 
6500 5.5821437924e+00 -3.9213549468e-07 1.3731072612e+00 -2.3782915406e+00 1.3731072612e+00 2.3782915406e+00 
6600 5.5821435447e+00 -4.1192686404e-07 1.3731072612e+00 -2.3782915406e+00 1.3731072612e+00 2.3782915406e+00 
6700 5.5821433120e+00 -4.3271760184e-07 1.3731072612e+00 -2.3782915406e+00 1.3731072612e+00 2.3782915406e+00 
6800 5.5821430931e+00 -4.5455820990e-07 1.3731072612e+00 -2.3782915406e+00 1.3731072612e+00 2.3782915406e+00 
6900 5.5821428869e+00 -4.7750174483e-07 1.3731072612e+00 -2.3782915406e+00 1.3731072612e+00 2.3782915406e+00 
7000 5.5821426923e+00 -5.0160394759e-07 1.3731072612e+00 -2.3782915406e+00 1.3731072612e+00 2.3782915406e+00 
7100 5.5821425085e+00 -5.2692337950e-07 1.3731072612e+00 -2.3782915406e+00 1.3731072612e+00 2.3782915406e+00 
7200 5.5821423344e+00 -5.5352156522e-07 1.3731072612e+00 -2.3782915406e+00 1.3731072612e+00 2.3782915406e+00 
7300 5.5821421693e+00 -5.8146314300e-07 1.3731072612e+00 -2.3782915406e+00 1.3731072612e+00 2.3782915406e+00 
7400 5.5821420122e+00 -6.1081602250e-07 1.3731072612e+00 -2.3782915406e+00 1.3731072612e+00 2.3782915406e+00 
7500 5.5821418626e+00 -6.4165155075e-07 1.3731072612e+00 -2.3782915406e+00 1.3731072612e+00 2.3782915406e+00 
7600 5.5821417196e+00 -6.7404468644e-07 1.3731072612e+00 -2.3782915406e+00 1.3731072612e+00 2.3782915406e+00 
7700 5.5821415826e+00 -7.0807418314e-07 1.3731072612e+00 -2.3782915406e+00 1.3731072612e+00 2.3782915406e+00 
7800 5.5821414510e+00 -7.4382278181e-07 1.3731072612e+00 -2.3782915406e+00 1.3731072612e+00 2.3782915406e+00 
7900 5.5821413241e+00 -7.8137741314e-07 1.3731072612e+00 -2.3782915406e+00 1.3731072612e+00 2.3782915406e+00 
8000 5.5821412014e+00 -8.2082941014e-07 1.3731072612e+00 -2.3782915406e+00 1.3731072612e+00 2.3782915406e+00 
8100 5.5821410824e+00 -8.6227473161e-07 1.3731072612e+00 -2.3782915406e+00 1.3731072612e+00 2.3782915406e+00 
8200 5.5821409665e+00 -9.0581419694e-07 1.3731072612e+00 -2.3782915406e+00 1.3731072612e+00 2.3782915406e+00 
8300 5.5821408533e+00 -9.5155373289e-07 1.3731072612e+00 -2.3782915406e+00 1.3731072612e+00 2.3782915406e+00 
8400 5.5821407422e+00 -9.9960463298e-07 1.3731072612e+00 -2.3782915406e+00 1.3731072612e+00 2.3782915406e+00 
8500 5.5821406330e+00 -1.0500838300e-06 1.3731072612e+00 -2.3782915406e+00 1.3731072612e+00 2.3782915406e+00 
8600 5.5821405250e+00 -1.1031141826e-06 1.3731072612e+00 -2.3782915406e+00 1.3731072612e+00 2.3782915406e+00 
8700 5.5821404179e+00 -1.1588247761e-06 1.3731072612e+00 -2.3782915406e+00 1.3731072612e+00 2.3782915406e+00 
8800 5.5821403113e+00 -1.2173512393e-06 1.3731072612e+00 -2.3782915406e+00 1.3731072612e+00 2.3782915406e+00 
8900 5.5821402048e+00 -1.2788360767e-06 1.3731072612e+00 -2.3782915406e+00 1.3731072612e+00 2.3782915406e+00 
9000 5.5821400980e+00 -1.3434290183e-06 1.3731072612e+00 -2.3782915406e+00 1.3731072612e+00 2.3782915406e+00 
9100 5.5821399906e+00 -1.4112873869e-06 1.3731072612e+00 -2.3782915406e+00 1.3731072612e+00 2.3782915406e+00 
9200 5.5821398821e+00 -1.4825764841e-06 1.3731072612e+00 -2.3782915406e+00 1.3731072612e+00 2.3782915406e+00 
9300 5.5821397722e+00 -1.5574699964e-06 1.3731072612e+00 -2.3782915406e+00 1.3731072612e+00 2.3782915406e+00 
9400 5.5821396606e+00 -1.6361504217e-06 1.3731072612e+00 -2.3782915406e+00 1.3731072612e+00 2.3782915406e+00 
9500 5.5821395468e+00 -1.7188095177e-06 1.3731072612e+00 -2.3782915406e+00 1.3731072612e+00 2.3782915406e+00 
9600 5.5821394306e+00 -1.8056487735e-06 1.3731072612e+00 -2.3782915406e+00 1.3731072612e+00 2.3782915406e+00 
9700 5.5821393115e+00 -1.8968799044e-06 1.3731072612e+00 -2.3782915406e+00 1.3731072612e+00 2.3782915406e+00 
9800 5.5821391893e+00 -1.9927253735e-06 1.3731072612e+00 -2.3782915406e+00 1.3731072612e+00 2.3782915406e+00 
9900 5.5821390635e+00 -2.0934189387e-06 1.3731072612e+00 -2.3782915406e+00 1.3731072612e+00 2.3782915406e+00 
10000 5.5821389338e+00 -2.1992062280e-06 1.3731072612e+00 -2.3782915406e+00 1.3731072612e+00 2.3782915406e+00 
10100 5.5821387998e+00 -2.3103453451e-06 1.3731072612e+00 -2.3782915406e+00 1.3731072612e+00 2.3782915406e+00 
10200 5.5821386612e+00 -2.4271075046e-06 1.3731072612e+00 -2.3782915406e+00 1.3731072612e+00 2.3782915406e+00 
10300 5.5821385175e+00 -2.5497777012e-06 1.3731072612e+00 -2.3782915406e+00 1.3731072612e+00 2.3782915406e+00 
10400 5.5821383683e+00 -2.6786554121e-06 1.3731072612e+00 -2.3782915406e+00 1.3731072612e+00 2.3782915406e+00 
10500 5.5821382133e+00 -2.8140553361e-06 1.3731072612e+00 -2.3782915406e+00 1.3731072612e+00 2.3782915406e+00 
10600 5.5821380520e+00 -2.9563081704e-06 1.3731072612e+00 -2.3782915406e+00 1.3731072612e+00 2.3782915406e+00 
10700 5.5821378840e+00 -3.1057614271e-06 1.3731072612e+00 -2.3782915406e+00 1.3731072612e+00 2.3782915406e+00 
10800 5.5821377089e+00 -3.2627802920e-06 1.3731072612e+00 -2.3782915406e+00 1.3731072612e+00 2.3782915406e+00 
10900 5.5821375262e+00 -3.4277485276e-06 1.3731072612e+00 -2.3782915406e+00 1.3731072612e+00 2.3782915406e+00 
11000 5.5821373354e+00 -3.6010694218e-06 1.3731072612e+00 -2.3782915406e+00 1.3731072612e+00 2.3782915406e+00 
11100 5.5821371360e+00 -3.7831667861e-06 1.3731072612e+00 -2.3782915406e+00 1.3731072612e+00 2.3782915406e+00 
11200 5.5821369275e+00 -3.9744860052e-06 1.3731072612e+00 -2.3782915406e+00 1.3731072612e+00 2.3782915406e+00 
11300 5.5821367094e+00 -4.1754951398e-06 1.3731072612e+00 -2.3782915406e+00 1.3731072612e+00 2.3782915406e+00 
11400 5.5821364811e+00 -4.3866860876e-06 1.3731072612e+00 -2.3782915406e+00 1.3731072612e+00 2.3782915406e+00 
11500 5.5821362421e+00 -4.6085758027e-06 1.3731072612e+00 -2.3782915406e+00 1.3731072612e+00 2.3782915406e+00 
11600 5.5821359917e+00 -4.8417075786e-06 1.3731072612e+00 -2.3782915406e+00 1.3731072612e+00 2.3782915406e+00 
11700 5.5821357293e+00 -5.0866523977e-06 1.3731072612e+00 -2.3782915406e+00 1.3731072612e+00 2.3782915406e+00 
11800 5.5821354543e+00 -5.3440103496e-06 1.3731072612e+00 -2.3782915406e+00 1.3731072612e+00 2.3782915406e+00 
11900 5.5821351660e+00 -5.6144121233e-06 1.3731072612e+00 -2.3782915406e+00 1.3731072612e+00 2.3782915406e+00 
12000 5.5821348635e+00 -5.8985205764e-06 1.3731072612e+00 -2.3782915406e+00 1.3731072612e+00 2.3782915406e+00 
12100 5.5821345463e+00 -6.1970323854e-06 1.3731072612e+00 -2.3782915406e+00 1.3731072612e+00 2.3782915406e+00 
12200 5.5821342134e+00 -6.5106797810e-06 1.3731072612e+00 -2.3782915406e+00 1.3731072612e+00 2.3782915406e+00 
12300 5.5821338641e+00 -6.8402323742e-06 1.3731072612e+00 -2.3782915406e+00 1.3731072612e+00 2.3782915406e+00 
12400 5.5821334975e+00 -7.1864990760e-06 1.3731072612e+00 -2.3782915406e+00 1.3731072612e+00 2.3782915406e+00 
12500 5.5821331127e+00 -7.5503301169e-06 1.3731072612e+00 -2.3782915406e+00 1.3731072612e+00 2.3782915406e+00 
12600 5.5821327087e+00 -7.9326191716e-06 1.3731072612e+00 -2.3782915406e+00 1.3731072612e+00 2.3782915406e+00 
12700 5.5821322845e+00 -8.3343055936e-06 1.3731072612e+00 -2.3782915406e+00 1.3731072612e+00 2.3782915406e+00 
12800 5.5821318391e+00 -8.7563767657e-06 1.3731072612e+00 -2.3782915406e+00 1.3731072612e+00 2.3782915406e+00 
12900 5.5821313713e+00 -9.1998705731e-06 1.3731072612e+00 -2.3782915406e+00 1.3731072612e+00 2.3782915406e+00 
13000 5.5821308801e+00 -9.6658780048e-06 1.3731072612e+00 -2.3782915406e+00 1.3731072612e+00 2.3782915406e+00 
13100 5.5821303641e+00 -1.0155545891e-05 1.3731072612e+00 -2.3782915406e+00 1.3731072612e+00 2.3782915406e+00 
13200 5.5821298221e+00 -1.0670079781e-05 1.3731072612e+00 -2.3782915406e+00 1.3731072612e+00 2.3782915406e+00 
13300 5.5821292528e+00 -1.1210746976e-05 1.3731072612e+00 -2.3782915406e+00 1.3731072612e+00 2.3782915406e+00 
13400 5.5821286548e+00 -1.1778879713e-05 1.3731072612e+00 -2.3782915406e+00 1.3731072612e+00 2.3782915406e+00 
13500 5.5821280265e+00 -1.2375878523e-05 1.3731072612e+00 -2.3782915406e+00 1.3731072612e+00 2.3782915406e+00 
13600 5.5821273665e+00 -1.3003215756e-05 1.3731072612e+00 -2.3782915406e+00 1.3731072612e+00 2.3782915406e+00 
13700 5.5821266730e+00 -1.3662439299e-05 1.3731072612e+00 -2.3782915406e+00 1.3731072612e+00 2.3782915406e+00 
13800 5.5821259443e+00 -1.4355176481e-05 1.3731072612e+00 -2.3782915406e+00 1.3731072612e+00 2.3782915406e+00 
13900 5.5821251788e+00 -1.5083138190e-05 1.3731072612e+00 -2.3782915406e+00 1.3731072612e+00 2.3782915406e+00 
14000 5.5821243743e+00 -1.5848123199e-05 1.3731072612e+00 -2.3782915406e+00 1.3731072612e+00 2.3782915406e+00 
14100 5.5821235290e+00 -1.6652022722e-05 1.3731072612e+00 -2.3782915406e+00 1.3731072612e+00 2.3782915406e+00 
14200 5.5821226408e+00 -1.7496825212e-05 1.3731072612e+00 -2.3782915406e+00 1.3731072612e+00 2.3782915406e+00 
14300 5.5821217073e+00 -1.8384621405e-05 1.3731072612e+00 -2.3782915406e+00 1.3731072612e+00 2.3782915406e+00 
14400 5.5821207264e+00 -1.9317609638e-05 1.3731072612e+00 -2.3782915406e+00 1.3731072612e+00 2.3782915406e+00 
14500 5.5821196956e+00 -2.0298101437e-05 1.3731072612e+00 -2.3782915406e+00 1.3731072612e+00 2.3782915406e+00 
14600 5.5821186123e+00 -2.1328527409e-05 1.3731072612e+00 -2.3782915406e+00 1.3731072612e+00 2.3782915406e+00 
14700 5.5821174738e+00 -2.2411443440e-05 1.3731072612e+00 -2.3782915406e+00 1.3731072612e+00 2.3782915406e+00 
14800 5.5821162773e+00 -2.3549537220e-05 1.3731072612e+00 -2.3782915406e+00 1.3731072612e+00 2.3782915406e+00 
14900 5.5821150198e+00 -2.4745635118e-05 1.3731072612e+00 -2.3782915406e+00 1.3731072612e+00 2.3782915406e+00 
15000 5.5821136981e+00 -2.6002709416e-05 1.3731072612e+00 -2.3782915406e+00 1.3731072612e+00 2.3782915406e+00 
15100 5.5821123089e+00 -2.7323885929e-05 1.3731072612e+00 -2.3782915406e+00 1.3731072612e+00 2.3782915406e+00 
15200 5.5821108489e+00 -2.8712452029e-05 1.3731072612e+00 -2.3782915406e+00 1.3731072612e+00 2.3782915406e+00 
15300 5.5821093143e+00 -3.0171865097e-05 1.3731072612e+00 -2.3782915406e+00 1.3731072612e+00 2.3782915406e+00 
15400 5.5821077012e+00 -3.1705761421e-05 1.3731072612e+00 -2.3782915406e+00 1.3731072612e+00 2.3782915406e+00 
15500 5.5821060057e+00 -3.3317965571e-05 1.3731072612e+00 -2.3782915406e+00 1.3731072612e+00 2.3782915406e+00 
15600 5.5821042235e+00 -3.5012500275e-05 1.3731072612e+00 -2.3782915406e+00 1.3731072612e+00 2.3782915406e+00 
15700 5.5821023502e+00 -3.6793596818e-05 1.3731072612e+00 -2.3782915406e+00 1.3731072612e+00 2.3782915406e+00 
15800 5.5821003809e+00 -3.8665706004e-05 1.3731072612e+00 -2.3782915406e+00 1.3731072612e+00 2.3782915406e+00 
15900 5.5820983108e+00 -4.0633509695e-05 1.3731072612e+00 -2.3782915406e+00 1.3731072612e+00 2.3782915406e+00 
16000 5.5820961347e+00 -4.2701932981e-05 1.3731072612e+00 -2.3782915406e+00 1.3731072612e+00 2.3782915406e+00 
16100 5.5820938471e+00 -4.4876156991e-05 1.3731072612e+00 -2.3782915406e+00 1.3731072612e+00 2.3782915406e+00 
16200 5.5820914422e+00 -4.7161632403e-05 1.3731072612e+00 -2.3782915406e+00 1.3731072612e+00 2.3782915406e+00 
16300 5.5820889139e+00 -4.9564093675e-05 1.3731072612e+00 -2.3782915406e+00 1.3731072612e+00 2.3782915406e+00 
16400 5.5820862559e+00 -5.2089574046e-05 1.3731072612e+00 -2.3782915406e+00 1.3731072612e+00 2.3782915406e+00 
16500 5.5820834615e+00 -5.4744421346e-05 1.3731072612e+00 -2.3782915406e+00 1.3731072612e+00 2.3782915406e+00 
16600 5.5820805236e+00 -5.7535314661e-05 1.3731072612e+00 -2.3782915406e+00 1.3731072612e+00 2.3782915406e+00 
16700 5.5820774347e+00 -6.0469281902e-05 1.3731072612e+00 -2.3782915406e+00 1.3731072612e+00 2.3782915406e+00 
16800 5.5820741870e+00 -6.3553718325e-05 1.3731072612e+00 -2.3782915406e+00 1.3731072612e+00 2.3782915406e+00 
16900 5.5820707723e+00 -6.6796406057e-05 1.3731072612e+00 -2.3782915406e+00 1.3731072612e+00 2.3782915406e+00 
17000 5.5820671818e+00 -7.0205534688e-05 1.3731072612e+00 -2.3782915406e+00 1.3731072612e+00 2.3782915406e+00 
17100 5.5820634066e+00 -7.3789722980e-05 1.3731072612e+00 -2.3782915406e+00 1.3731072612e+00 2.3782915406e+00 
17200 5.5820594365e+00 -7.7557622841e-05 1.3731099481e+00 -2.3782961946e+00 1.3731099481e+00 2.3782961946e+00 
17300 5.5820552618e+00 -8.1519150021e-05 1.3731127723e+00 -2.3783010862e+00 1.3731127723e+00 2.3783010862e+00 
17400 5.5820508718e+00 -8.5684348435e-05 1.3731157407e+00 -2.3783062276e+00 1.3731157407e+00 2.3783062276e+00 
17500 5.5820462552e+00 -9.0063790111e-05 1.3731188608e+00 -2.3783116317e+00 1.3731188608e+00 2.3783116317e+00 
17600 5.5820414003e+00 -9.4668603498e-05 1.3731221403e+00 -2.3783173120e+00 1.3731221403e+00 2.3783173120e+00 
17700 5.5820362945e+00 -9.9510503326e-05 1.3731255875e+00 -2.3783232828e+00 1.3731255875e+00 2.3783232828e+00 
17800 5.5820309248e+00 -1.0460182211e-04 1.3731292110e+00 -2.3783295589e+00 1.3731292110e+00 2.3783295589e+00 
17900 5.5820252773e+00 -1.0995554342e-04 1.3731330199e+00 -2.3783361560e+00 1.3731330199e+00 2.3783361560e+00 
18000 5.5820193374e+00 -1.1558533693e-04 1.3731370237e+00 -2.3783430909e+00 1.3731370237e+00 2.3783430909e+00 
18100 5.5820130899e+00 -1.2150559548e-04 1.3731412325e+00 -2.3783503807e+00 1.3731412325e+00 2.3783503807e+00 
18200 5.5820065186e+00 -1.2773147414e-04 1.3731456569e+00 -2.3783580440e+00 1.3731456569e+00 2.3783580440e+00 
18300 5.5819996065e+00 -1.3427893149e-04 1.3731503080e+00 -2.3783660998e+00 1.3731503080e+00 2.3783660998e+00 
18400 5.5819923357e+00 -1.4116477318e-04 1.3731551974e+00 -2.3783745686e+00 1.3731551974e+00 2.3783745686e+00 
18500 5.5819846872e+00 -1.4840669789e-04 1.3731603376e+00 -2.3783834716e+00 1.3731603376e+00 2.3783834716e+00 
18600 5.5819766412e+00 -1.5602334594e-04 1.3731657414e+00 -2.3783928314e+00 1.3731657414e+00 2.3783928314e+00 
18700 5.5819681767e+00 -1.6403435056e-04 1.3731714226e+00 -2.3784026714e+00 1.3731714226e+00 2.3784026714e+00 
18800 5.5819592715e+00 -1.7246039205e-04 1.3731773954e+00 -2.3784130167e+00 1.3731773954e+00 2.3784130167e+00 
18900 5.5819499025e+00 -1.8132325503e-04 1.3731836750e+00 -2.3784238933e+00 1.3731836750e+00 2.3784238933e+00 
19000 5.5819400450e+00 -1.9064588886e-04 1.3731902773e+00 -2.3784353288e+00 1.3731902773e+00 2.3784353288e+00 
19100 5.5819296732e+00 -2.0045247151e-04 1.3731972191e+00 -2.3784473522e+00 1.3731972191e+00 2.3784473522e+00 
19200 5.5819187597e+00 -2.1076847709e-04 1.3732045178e+00 -2.3784599940e+00 1.3732045178e+00 2.3784599940e+00 
19300 5.5819072758e+00 -2.2162074709e-04 1.3732121921e+00 -2.3784732864e+00 1.3732121921e+00 2.3784732864e+00 
19400 5.5818951912e+00 -2.3303756583e-04 1.3732202616e+00 -2.3784872630e+00 1.3732202616e+00 2.3784872630e+00 
19500 5.5818824738e+00 -2.4504874009e-04 1.3732287467e+00 -2.3785019596e+00 1.3732287467e+00 2.3785019596e+00 
19600 5.5818690900e+00 -2.5768568337e-04 1.3732376690e+00 -2.3785174136e+00 1.3732376690e+00 2.3785174136e+00 
19700 5.5818550041e+00 -2.7098150492e-04 1.3732470515e+00 -2.3785336645e+00 1.3732470515e+00 2.3785336645e+00 
19800 5.5818401786e+00 -2.8497110393e-04 1.3732569179e+00 -2.3785507537e+00 1.3732569179e+00 2.3785507537e+00 
19900 5.5818245739e+00 -2.9969126910e-04 1.3732672937e+00 -2.3785687250e+00 1.3732672937e+00 2.3785687250e+00 
20000 5.5818081482e+00 -3.1518078399e-04 1.3732782053e+00 -2.3785876245e+00 1.3732782053e+00 2.3785876245e+00 
20100 5.5817908575e+00 -3.3148053844e-04 1.3732896808e+00 -2.3786075007e+00 1.3732896808e+00 2.3786075007e+00 
20200 5.5817726552e+00 -3.4863364645e-04 1.3733017497e+00 -2.3786284046e+00 1.3733017497e+00 2.3786284046e+00 
20300 5.5817534922e+00 -3.6668557093e-04 1.3733144430e+00 -2.3786503900e+00 1.3733144430e+00 2.3786503900e+00 
20400 5.5817333167e+00 -3.8568425564e-04 1.3733277934e+00 -2.3786735136e+00 1.3733277934e+00 2.3786735136e+00 
20500 5.5817120741e+00 -4.0568026495e-04 1.3733418354e+00 -2.3786978350e+00 1.3733418354e+00 2.3786978350e+00 
20600 5.5816897065e+00 -4.2672693168e-04 1.3733566052e+00 -2.3787234171e+00 1.3733566052e+00 2.3787234171e+00 
20700 5.5816661531e+00 -4.4888051363e-04 1.3733721411e+00 -2.3787503262e+00 1.3733721411e+00 2.3787503262e+00 
20800 5.5816413494e+00 -4.7220035935e-04 1.3733884834e+00 -2.3787786319e+00 1.3733884834e+00 2.3787786319e+00 
20900 5.5816152274e+00 -4.9674908366e-04 1.3734056746e+00 -2.3788084077e+00 1.3734056746e+00 2.3788084077e+00 
21000 5.5815877153e+00 -5.2259275346e-04 1.3734237592e+00 -2.3788397312e+00 1.3734237592e+00 2.3788397312e+00 
21100 5.5815587372e+00 -5.4980108470e-04 1.3734427844e+00 -2.3788726839e+00 1.3734427844e+00 2.3788726839e+00 
21200 5.5815282131e+00 -5.7844765090e-04 1.3734627999e+00 -2.3789073517e+00 1.3734627999e+00 2.3789073517e+00 
21300 5.5814960582e+00 -6.0861010412e-04 1.3734838579e+00 -2.3789438253e+00 1.3734838579e+00 2.3789438253e+00 
21400 5.5814621829e+00 -6.4037040913e-04 1.3735060137e+00 -2.3789822002e+00 1.3735060137e+00 2.3789822002e+00 
21500 5.5814264928e+00 -6.7381509155e-04 1.3735293253e+00 -2.3790225771e+00 1.3735293253e+00 2.3790225771e+00 
21600 5.5813888878e+00 -7.0903550082e-04 1.3735538540e+00 -2.3790650620e+00 1.3735538540e+00 2.3790650620e+00 
21700 5.5813492622e+00 -7.4612808907e-04 1.3735796643e+00 -2.3791097668e+00 1.3735796643e+00 2.3791097668e+00 
21800 5.5813075041e+00 -7.8519470664e-04 1.3736068244e+00 -2.3791568094e+00 1.3736068244e+00 2.3791568094e+00 
21900 5.5812634955e+00 -8.2634291550e-04 1.3736354060e+00 -2.3792063142e+00 1.3736354060e+00 2.3792063142e+00 
22000 5.5812171112e+00 -8.6968632159e-04 1.3736654848e+00 -2.3792584122e+00 1.3736654848e+00 2.3792584122e+00 
22100 5.5811682189e+00 -9.1534492729e-04 1.3736971406e+00 -2.3793132417e+00 1.3736971406e+00 2.3793132417e+00 
22200 5.5811166787e+00 -9.6344550530e-04 1.3737304575e+00 -2.3793709484e+00 1.3737304575e+00 2.3793709484e+00 
22300 5.5810623426e+00 -1.0141219952e-03 1.3737655244e+00 -2.3794316860e+00 1.3737655244e+00 2.3794316860e+00 
22400 5.5810050537e+00 -1.0675159244e-03 1.3738024349e+00 -2.3794956168e+00 1.3738024349e+00 2.3794956168e+00 
22500 5.5809446461e+00 -1.1237768543e-03 1.3738412877e+00 -2.3795629118e+00 1.3738412877e+00 2.3795629118e+00 
22600 5.5808809441e+00 -1.1830628542e-03 1.3738821870e+00 -2.3796337515e+00 1.3738821870e+00 2.3796337515e+00 
22700 5.5808137618e+00 -1.2455410044e-03 1.3739252427e+00 -2.3797083261e+00 1.3739252427e+00 2.3797083261e+00 
22800 5.5807429020e+00 -1.3113879293e-03 1.3739705708e+00 -2.3797868366e+00 1.3739705708e+00 2.3797868366e+00 
22900 5.5806681561e+00 -1.3807903642e-03 1.3740182936e+00 -2.3798694950e+00 1.3740182936e+00 2.3798694950e+00 
23000 5.5805893030e+00 -1.4539457567e-03 1.3740685403e+00 -2.3799565249e+00 1.3740685403e+00 2.3799565249e+00 
23100 5.5805061083e+00 -1.5310629049e-03 1.3741214473e+00 -2.3800481624e+00 1.3741214473e+00 2.3800481624e+00 
23200 5.5804183236e+00 -1.6123626351e-03 1.3741771583e+00 -2.3801446567e+00 1.3741771583e+00 2.3801446567e+00 
23300 5.5803256858e+00 -1.6980785219e-03 1.3742358251e+00 -2.3802462707e+00 1.3742358251e+00 2.3802462707e+00 
23400 5.5802279155e+00 -1.7884576516e-03 1.3742976083e+00 -2.3803532822e+00 1.3742976083e+00 2.3803532822e+00 
23500 5.5801247168e+00 -1.8837614343e-03 1.3743626768e+00 -2.3804659843e+00 1.3743626768e+00 2.3804659843e+00 
23600 5.5800157757e+00 -1.9842664652e-03 1.3744312096e+00 -2.3805846865e+00 1.3744312096e+00 2.3805846865e+00 
23700 5.5799007589e+00 -2.0902654393e-03 1.3745033952e+00 -2.3807097157e+00 1.3745033952e+00 2.3807097157e+00 
23800 5.5797793129e+00 -2.2020681235e-03 1.3745794330e+00 -2.3808414171e+00 1.3745794330e+00 2.3808414171e+00 
23900 5.5796510625e+00 -2.3200023879e-03 1.3746595335e+00 -2.3809801552e+00 1.3746595335e+00 2.3809801552e+00 
24000 5.5795156094e+00 -2.4444153014e-03 1.3747439190e+00 -2.3811263151e+00 1.3747439190e+00 2.3811263151e+00 
24100 5.5793725305e+00 -2.5756742949e-03 1.3748328243e+00 -2.3812803037e+00 1.3748328243e+00 2.3812803037e+00 
24200 5.5792213766e+00 -2.7141683965e-03 1.3749264977e+00 -2.3814425507e+00 1.3749264977e+00 2.3814425507e+00 
24300 5.5790616705e+00 -2.8603095421e-03 1.3750252012e+00 -2.3816135101e+00 1.3750252012e+00 2.3816135101e+00 
24400 5.5788929051e+00 -3.0145339678e-03 1.3751292118e+00 -2.3817936619e+00 1.3751292118e+00 2.3817936619e+00 
24500 5.5787145416e+00 -3.1773036864e-03 1.3752388224e+00 -2.3819835129e+00 1.3752388224e+00 2.3819835129e+00 
24600 5.5785260071e+00 -3.3491080554e-03 1.3753543423e+00 -2.3821835992e+00 1.3753543423e+00 2.3821835992e+00 
24700 5.5783266926e+00 -3.5304654393e-03 1.3754760984e+00 -2.3823944871e+00 1.3754760984e+00 2.3823944871e+00 
24800 5.5781159503e+00 -3.7219249746e-03 1.3756044366e+00 -2.3826167752e+00 1.3756044366e+00 2.3826167752e+00 
24900 5.5778930913e+00 -3.9240684393e-03 1.3757397220e+00 -2.3828510965e+00 1.3757397220e+00 2.3828510965e+00 
25000 5.5776573824e+00 -4.1375122365e-03 1.3758823412e+00 -2.3830981201e+00 1.3758823412e+00 2.3830981201e+00 
25100 5.5774080435e+00 -4.3629094953e-03 1.3760327024e+00 -2.3833585535e+00 1.3760327024e+00 2.3833585535e+00 
25200 5.5771442442e+00 -4.6009522969e-03 1.3761912376e+00 -2.3836331445e+00 1.3761912376e+00 2.3836331445e+00 
25300 5.5768651003e+00 -4.8523740313e-03 1.3763584036e+00 -2.3839226844e+00 1.3763584036e+00 2.3839226844e+00 
25400 5.5765696701e+00 -5.1179518909e-03 1.3765346831e+00 -2.3842280096e+00 1.3765346831e+00 2.3842280096e+00 
25500 5.5762569507e+00 -5.3985095078e-03 1.3767205872e+00 -2.3845500048e+00 1.3767205872e+00 2.3845500048e+00 
25600 5.5759258734e+00 -5.6949197420e-03 1.3769166559e+00 -2.3848896058e+00 1.3769166559e+00 2.3848896058e+00 
25700 5.5755752993e+00 -6.0081076245e-03 1.3771234608e+00 -2.3852478024e+00 1.3771234608e+00 2.3852478024e+00 
25800 5.5752040146e+00 -6.3390534640e-03 1.3773416063e+00 -2.3856256416e+00 1.3773416063e+00 2.3856256416e+00 
25900 5.5748107249e+00 -6.6887961213e-03 1.3775717319e+00 -2.3860242307e+00 1.3775717319e+00 2.3860242307e+00 
26000 5.5743940501e+00 -7.0584364582e-03 1.3778145139e+00 -2.3864447415e+00 1.3778145139e+00 2.3864447415e+00 
26100 5.5739525181e+00 -7.4491409642e-03 1.3780706679e+00 -2.3868884133e+00 1.3780706679e+00 2.3868884133e+00 
26200 5.5734845584e+00 -7.8621455667e-03 1.3783409510e+00 -2.3873565574e+00 1.3783409510e+00 2.3873565574e+00 
26300 5.5729884950e+00 -8.2987596272e-03 1.3786261641e+00 -2.3878505609e+00 1.3786261641e+00 2.3878505609e+00 
26400 5.5724625394e+00 -8.7603701251e-03 1.3789271544e+00 -2.3883718913e+00 1.3789271544e+00 2.3883718913e+00 
26500 5.5719047824e+00 -9.2484460304e-03 1.3792448182e+00 -2.3889221013e+00 1.3792448182e+00 2.3889221013e+00 
26600 5.5713131854e+00 -9.7645428629e-03 1.3795801039e+00 -2.3895028331e+00 1.3795801039e+00 2.3895028331e+00 
26700 5.5706855718e+00 -1.0310307435e-02 1.3799340145e+00 -2.3901158242e+00 1.3799340145e+00 2.3901158242e+00 
26800 5.5700196169e+00 -1.0887482772e-02 1.3803076111e+00 -2.3907629125e+00 1.3803076111e+00 2.3907629125e+00 
26900 5.5693128374e+00 -1.1497913199e-02 1.3807020160e+00 -2.3914460418e+00 1.3807020160e+00 2.3914460418e+00 
27000 5.5685625806e+00 -1.2143549580e-02 1.3811184161e+00 -2.3921672680e+00 1.3811184161e+00 2.3921672680e+00 
27100 5.5677660122e+00 -1.2826454694e-02 1.3815580668e+00 -2.3929287654e+00 1.3815580668e+00 2.3929287654e+00 
27200 5.5669201039e+00 -1.3548808723e-02 1.3820222953e+00 -2.3937328327e+00 1.3820222953e+00 2.3937328327e+00 
27300 5.5660216196e+00 -1.4312914819e-02 1.3825125048e+00 -2.3945819005e+00 1.3825125048e+00 2.3945819005e+00 
27400 5.5650671011e+00 -1.5121204714e-02 1.3830301786e+00 -2.3954785377e+00 1.3830301786e+00 2.3954785377e+00 
27500 5.5640528531e+00 -1.5976244332e-02 1.3835768839e+00 -2.3964254591e+00 1.3835768839e+00 2.3964254591e+00 
27600 5.5629749264e+00 -1.6880739330e-02 1.3841542770e+00 -2.3974255333e+00 1.3841542770e+00 2.3974255333e+00 
27700 5.5618291010e+00 -1.7837540524e-02 1.3847641071e+00 -2.3984817900e+00 1.3847641071e+00 2.3984817900e+00 
27800 5.5606108678e+00 -1.8849649098e-02 1.3854082212e+00 -2.3995974284e+00 1.3854082212e+00 2.3995974284e+00 
27900 5.5593154096e+00 -1.9920221502e-02 1.3860885691e+00 -2.4007758255e+00 1.3860885691e+00 2.4007758255e+00 
28000 5.5579375806e+00 -2.1052573937e-02 1.3868072080e+00 -2.4020205445e+00 1.3868072080e+00 2.4020205445e+00 
28100 5.5564718851e+00 -2.2250186278e-02 1.3875663075e+00 -2.4033353434e+00 1.3875663075e+00 2.4033353434e+00 
28200 5.5549124556e+00 -2.3516705289e-02 1.3883681548e+00 -2.4047241838e+00 1.3883681548e+00 2.4047241838e+00 
28300 5.5532530295e+00 -2.4855946941e-02 1.3892151598e+00 -2.4061912394e+00 1.3892151598e+00 2.4061912394e+00 
28400 5.5514869253e+00 -2.6271897628e-02 1.3901098597e+00 -2.4077409051e+00 1.3901098597e+00 2.4077409051e+00 
28500 5.5496070174e+00 -2.7768714052e-02 1.3910549243e+00 -2.4093778050e+00 1.3910549243e+00 2.4093778050e+00 
28600 5.5476057116e+00 -2.9350721477e-02 1.3920531607e+00 -2.4111068011e+00 1.3920531607e+00 2.4111068011e+00 
28700 5.5454749185e+00 -3.1022410081e-02 1.3931075178e+00 -2.4129330012e+00 1.3931075178e+00 2.4129330012e+00 
28800 5.5432060283e+00 -3.2788429028e-02 1.3942210908e+00 -2.4148617663e+00 1.3942210908e+00 2.4148617663e+00 
28900 5.5407898848e+00 -3.4653577888e-02 1.3953971250e+00 -2.4168987173e+00 1.3953971250e+00 2.4168987173e+00 
29000 5.5382167600e+00 -3.6622794976e-02 1.3966390193e+00 -2.4190497412e+00 1.3966390193e+00 2.4190497412e+00 
29100 5.5354763299e+00 -3.8701142128e-02 1.3979503287e+00 -2.4213209958e+00 1.3979503287e+00 2.4213209958e+00 
29200 5.5325576518e+00 -4.0893785410e-02 1.3993347671e+00 -2.4237189135e+00 1.3993347671e+00 2.4237189135e+00 
29300 5.5294491435e+00 -4.3205971196e-02 1.4007962078e+00 -2.4262502030e+00 1.4007962078e+00 2.4262502030e+00 
29400 5.5261385657e+00 -4.5642997031e-02 1.4023386838e+00 -2.4289218498e+00 1.4023386838e+00 2.4289218498e+00 
29500 5.5226130081e+00 -4.8210176641e-02 1.4039663867e+00 -2.4317411139e+00 1.4039663867e+00 2.4317411139e+00 
29600 5.5188588801e+00 -5.0912798480e-02 1.4056836640e+00 -2.4347155254e+00 1.4056836640e+00 2.4347155254e+00 
29700 5.5148619083e+00 -5.3756077132e-02 1.4074950145e+00 -2.4378528765e+00 1.4074950145e+00 2.4378528765e+00 
29800 5.5106071407e+00 -5.6745096962e-02 1.4094050822e+00 -2.4411612108e+00 1.4094050822e+00 2.4411612108e+00 
29900 5.5060789602e+00 -5.9884747406e-02 1.4114186476e+00 -2.4446488084e+00 1.4114186476e+00 2.4446488084e+00 
30000 5.5012611090e+00 -6.3179649384e-02 1.4135406164e+00 -2.4483241662e+00 1.4135406164e+00 2.4483241662e+00 
30100 5.4961367250e+00 -6.6634072404e-02 1.4157760057e+00 -2.4521959740e+00 1.4157760057e+00 2.4521959740e+00 
30200 5.4906883932e+00 -7.0251842095e-02 1.4181299268e+00 -2.4562730850e+00 1.4181299268e+00 2.4562730850e+00 
30300 5.4848982135e+00 -7.4036238106e-02 1.4206075650e+00 -2.4605644802e+00 1.4206075650e+00 2.4605644802e+00 
30400 5.4787478875e+00 -7.7989882555e-02 1.4232141550e+00 -2.4650792266e+00 1.4232141550e+00 2.4650792266e+00 
30500 5.4722188266e+00 -8.2114619581e-02 1.4259549533e+00 -2.4698264285e+00 1.4259549533e+00 2.4698264285e+00 
30600 5.4652922827e+00 -8.6411386904e-02 1.4288352055e+00 -2.4748151716e+00 1.4288352055e+00 2.4748151716e+00 
30700 5.4579495047e+00 -9.0880080823e-02 1.4318601100e+00 -2.4800544599e+00 1.4318601100e+00 2.4800544599e+00 
30800 5.4501719217e+00 -9.5519416600e-02 1.4350347769e+00 -2.4855531442e+00 1.4350347769e+00 2.4855531442e+00 
30900 5.4419413545e+00 -1.0032678679e-01 1.4383641824e+00 -2.4913198437e+00 1.4383641824e+00 2.4913198437e+00 
31000 5.4332402558e+00 -1.0529812074e-01 1.4418531191e+00 -2.4973628593e+00 1.4418531191e+00 2.4973628593e+00 
31100 5.4240519793e+00 -1.1042774923e-01 1.4455061421e+00 -2.5036900808e+00 1.4455061421e+00 2.5036900808e+00 
31200 5.4143610767e+00 -1.1570827876e-01 1.4493275113e+00 -2.5103088865e+00 1.4493275113e+00 2.5103088865e+00 
31300 5.4041536194e+00 -1.2113048077e-01 1.4533211307e+00 -2.5172260381e+00 1.4533211307e+00 2.5172260381e+00 
31400 5.3934175431e+00 -1.2668320158e-01 1.4574904847e+00 -2.5244475710e+00 1.4574904847e+00 2.5244475710e+00 
31500 5.3821430084e+00 -1.3235329916e-01 1.4618385738e+00 -2.5319786823e+00 1.4618385738e+00 2.5319786823e+00 
31600 5.3703227711e+00 -1.3812561297e-01 1.4663678495e+00 -2.5398236180e+00 1.4663678495e+00 2.5398236180e+00 
31700 5.3579525554e+00 -1.4398297310e-01 1.4710801500e+00 -2.5479855617e+00 1.4710801500e+00 2.5479855617e+00 
31800 5.3450314173e+00 -1.4990625423e-01 1.4759766384e+00 -2.5564665285e+00 1.4759766384e+00 2.5564665285e+00 
31900 5.3315620898e+00 -1.5587447915e-01 1.4810577459e+00 -2.5652672649e+00 1.4810577459e+00 2.5652672649e+00 
32000 5.3175512952e+00 -1.6186497525e-01 1.4863231199e+00 -2.5743871601e+00 1.4863231199e+00 2.5743871601e+00 
32100 5.3030100128e+00 -1.6785358551e-01 1.4917715800e+00 -2.5838241699e+00 1.4917715800e+00 2.5838241699e+00 
32200 5.2879536888e+00 -1.7381493338e-01 1.4974010845e+00 -2.5935747576e+00 1.4974010845e+00 2.5935747576e+00 
32300 5.2724023756e+00 -1.7972273870e-01 1.5032087063e+00 -2.6036338536e+00 1.5032087063e+00 2.6036338536e+00 
32400 5.2563807888e+00 -1.8555017888e-01 1.5091906230e+00 -2.6139948374e+00 1.5091906230e+00 2.6139948374e+00 
32500 5.2399182745e+00 -1.9127028722e-01 1.5153421201e+00 -2.6246495428e+00 1.5153421201e+00 2.6246495428e+00 
32600 5.2230486789e+00 -1.9685637770e-01 1.5216576082e+00 -2.6355882892e+00 1.5216576082e+00 2.6355882892e+00 
32700 5.2058101177e+00 -2.0228248360e-01 1.5281306563e+00 -2.6467999374e+00 1.5281306563e+00 2.6467999374e+00 
32800 5.1882446471e+00 -2.0752379588e-01 1.5347540388e+00 -2.6582719722e+00 1.5347540388e+00 2.6582719722e+00 
32900 5.1703978398e+00 -2.1255708658e-01 1.5415197968e+00 -2.6699906089e+00 1.5415197968e+00 2.6699906089e+00 
33000 5.1523182760e+00 -2.1736110252e-01 1.5484193132e+00 -2.6819409219e+00 1.5484193132e+00 2.6819409219e+00 
33100 5.1340569620e+00 -2.2191691579e-01 1.5554433981e+00 -2.6941069938e+00 1.5554433981e+00 2.6941069938e+00 
33200 5.1156666907e+00 -2.2620821893e-01 1.5625823839e+00 -2.7064720799e+00 1.5625823839e+00 2.7064720799e+00 
33300 5.0972013634e+00 -2.3022155575e-01 1.5698262277e+00 -2.7190187855e+00 1.5698262277e+00 2.7190187855e+00 
33400 5.0787152923e+00 -2.3394648097e-01 1.5771646180e+00 -2.7317292503e+00 1.5771646180e+00 2.7317292503e+00 
33500 5.0602625019e+00 -2.3737564585e-01 1.5845870829e+00 -2.7445853366e+00 1.5845870829e+00 2.7445853366e+00 
33600 5.0418960504e+00 -2.4050480963e-01 1.5920830980e+00 -2.7575688156e+00 1.5920830980e+00 2.7575688156e+00 
33700 5.0236673880e+00 -2.4333278016e-01 1.5996421908e+00 -2.7706615484e+00 1.5996421908e+00 2.7706615484e+00 
33800 5.0056257679e+00 -2.4586128946e-01 1.6072540398e+00 -2.7838456576e+00 1.6072540398e+00 2.7838456576e+00 
33900 4.9878177226e+00 -2.4809481230e-01 1.6149085660e+00 -2.7971036859e+00 1.6149085660e+00 2.7971036859e+00 
34000 4.9702866151e+00 -2.5004033746e-01 1.6225960155e+00 -2.8104187390e+00 1.6225960155e+00 2.8104187390e+00 
34100 4.9530722719e+00 -2.5170710208e-01 1.6303070319e+00 -2.8237746112e+00 1.6303070319e+00 2.8237746112e+00 
34200 4.9362107001e+00 -2.5310629995e-01 1.6380327180e+00 -2.8371558920e+00 1.6380327180e+00 2.8371558920e+00 
34300 4.9197338894e+00 -2.5425077435e-01 1.6457646860e+00 -2.8505480535e+00 1.6457646860e+00 2.8505480535e+00 
34400 4.9036696956e+00 -2.5515470502e-01 1.6534950965e+00 -2.8639375172e+00 1.6534950965e+00 2.8639375172e+00 
34500 4.8880418014e+00 -2.5583329829e-01 1.6612166864e+00 -2.8773117032e+00 1.6612166864e+00 2.8773117032e+00 
34600 4.8728697481e+00 -2.5630248768e-01 1.6689227861e+00 -2.8906590594e+00 1.6689227861e+00 2.8906590594e+00 
34700 4.8581690295e+00 -2.5657865104e-01 1.6766073276e+00 -2.9039690757e+00 1.6766073276e+00 2.9039690757e+00 
34800 4.8439512401e+00 -2.5667834901e-01 1.6842648429e+00 -2.9172322813e+00 1.6842648429e+00 2.9172322813e+00 
34900 4.8302242682e+00 -2.5661808798e-01 1.6918904554e+00 -2.9304402295e+00 1.6918904554e+00 2.9304402295e+00 
35000 4.8169925255e+00 -2.5641410966e-01 1.6994798635e+00 -2.9435854700e+00 1.6994798635e+00 2.9435854700e+00 
35100 4.8042572031e+00 -2.5608220830e-01 1.7070293196e+00 -2.9566615116e+00 1.7070293196e+00 2.9566615116e+00 
35200 4.7920165483e+00 -2.5563757542e-01 1.7145356033e+00 -2.9696627764e+00 1.7145356033e+00 2.9696627764e+00 
35300 4.7802661515e+00 -2.5509467161e-01 1.7219959917e+00 -2.9825845481e+00 1.7219959917e+00 2.9825845481e+00 
35400 4.7689992391e+00 -2.5446712388e-01 1.7294082263e+00 -2.9954229150e+00 1.7294082263e+00 2.9954229150e+00 
35500 4.7582069657e+00 -2.5376764706e-01 1.7367704782e+00 -3.0081747093e+00 1.7367704782e+00 3.0081747093e+00 
35600 4.7478787001e+00 -2.5300798712e-01 1.7440813122e+00 -3.0208374453e+00 1.7440813122e+00 3.0208374453e+00 
35700 4.7380023022e+00 -2.5219888444e-01 1.7513396501e+00 -3.0334092554e+00 1.7513396501e+00 3.0334092554e+00 
35800 4.7285643863e+00 -2.5135005462e-01 1.7585447341e+00 -3.0458888269e+00 1.7585447341e+00 3.0458888269e+00 
35900 4.7195505694e+00 -2.5047018493e-01 1.7656960907e+00 -3.0582753398e+00 1.7656960907e+00 3.0582753398e+00 
36000 4.7109457021e+00 -2.4956694393e-01 1.7727934955e+00 -3.0705684056e+00 1.7727934955e+00 3.0705684056e+00 
36100 4.7027340805e+00 -2.4864700260e-01 1.7798369397e+00 -3.0827680088e+00 1.7798369397e+00 3.0827680088e+00 
36200 4.6948996394e+00 -2.4771606485e-01 1.7868265970e+00 -3.0948744503e+00 1.7868265970e+00 3.0948744503e+00 
36300 4.6874261259e+00 -2.4677890584e-01 1.7937627935e+00 -3.1068882951e+00 1.7937627935e+00 3.1068882951e+00 
36400 4.6802972531e+00 -2.4583941653e-01 1.8006459787e+00 -3.1188103216e+00 1.8006459787e+00 3.1188103216e+00 
36500 4.6734968359e+00 -2.4490065301e-01 1.8074766985e+00 -3.1306414754e+00 1.8074766985e+00 3.1306414754e+00 
36600 4.6670089076e+00 -2.4396488956e-01 1.8142555707e+00 -3.1423828263e+00 1.8142555707e+00 3.1423828263e+00 
36700 4.6608178195e+00 -2.4303367415e-01 1.8209832617e+00 -3.1540355291e+00 1.8209832617e+00 3.1540355291e+00 
36800 4.6549083243e+00 -2.4210788557e-01 1.8276604667e+00 -3.1656007873e+00 1.8276604667e+00 3.1656007873e+00 
36900 4.6492656444e+00 -2.4118779143e-01 1.8342878899e+00 -3.1770798211e+00 1.8342878899e+00 3.1770798211e+00 
37000 4.6438755256e+00 -2.4027310624e-01 1.8408662290e+00 -3.1884738386e+00 1.8408662290e+00 3.1884738386e+00 
37100 4.6387242784e+00 -2.3936304906e-01 1.8473961595e+00 -3.1997840100e+00 1.8473961595e+00 3.1997840100e+00 
37200 4.6337988082e+00 -2.3845640019e-01 1.8538783225e+00 -3.2110114455e+00 1.8538783225e+00 3.2110114455e+00 
37300 4.6290866342e+00 -2.3755155658e-01 1.8603133131e+00 -3.2221571764e+00 1.8603133131e+00 3.2221571764e+00 
37400 4.6245758998e+00 -2.3664658552e-01 1.8667016718e+00 -3.2332221382e+00 1.8667016718e+00 3.2332221382e+00 
37500 4.6202553753e+00 -2.3573927638e-01 1.8730438759e+00 -3.2442071579e+00 1.8730438759e+00 3.2442071579e+00 
37600 4.6161144528e+00 -2.3482719027e-01 1.8793403338e+00 -3.2551129429e+00 1.8793403338e+00 3.2551129429e+00 
37700 4.6121431359e+00 -2.3390770730e-01 1.8855913801e+00 -3.2659400726e+00 1.8855913801e+00 3.2659400726e+00 
37800 4.6083320248e+00 -2.3297807139e-01 1.8917972719e+00 -3.2766889926e+00 1.8917972719e+00 3.2766889926e+00 
37900 4.6046722967e+00 -2.3203543257e-01 1.8979581870e+00 -3.2873600105e+00 1.8979581870e+00 3.2873600105e+00 
38000 4.6011556838e+00 -2.3107688661e-01 1.9040742223e+00 -3.2979532944e+00 1.9040742223e+00 3.2979532944e+00 
38100 4.5977744481e+00 -2.3009951201e-01 1.9101453940e+00 -3.3084688723e+00 1.9101453940e+00 3.3084688723e+00 
38200 4.5945213558e+00 -2.2910040424e-01 1.9161716383e+00 -3.3189066336e+00 1.9161716383e+00 3.3189066336e+00 
38300 4.5913896489e+00 -2.2807670736e-01 1.9221528133e+00 -3.3292663326e+00 1.9221528133e+00 3.3292663326e+00 
38400 4.5883730182e+00 -2.2702564289e-01 1.9280887013e+00 -3.3395475922e+00 1.9280887013e+00 3.3395475922e+00 
38500 4.5854655748e+00 -2.2594453603e-01 1.9339790119e+00 -3.3497499094e+00 1.9339790119e+00 3.3497499094e+00 
38600 4.5826618226e+00 -2.2483083920e-01 1.9398233860e+00 -3.3598726622e+00 1.9398233860e+00 3.3598726622e+00 
38700 4.5799566311e+00 -2.2368215306e-01 1.9456213997e+00 -3.3699151165e+00 1.9456213997e+00 3.3699151165e+00 
38800 4.5773452102e+00 -2.2249624493e-01 1.9513725693e+00 -3.3798764345e+00 1.9513725693e+00 3.3798764345e+00 
38900 4.5748230848e+00 -2.2127106472e-01 1.9570763562e+00 -3.3897556833e+00 1.9570763562e+00 3.3897556833e+00 
39000 4.5723860719e+00 -2.2000475851e-01 1.9627321724e+00 -3.3995518443e+00 1.9627321724e+00 3.3995518443e+00 
39100 4.5700302590e+00 -2.1869567965e-01 1.9683393858e+00 -3.4092638228e+00 1.9683393858e+00 3.4092638228e+00 
39200 4.5677519837e+00 -2.1734239777e-01 1.9738973263e+00 -3.4188904581e+00 1.9738973263e+00 3.4188904581e+00 
39300 4.5655478156e+00 -2.1594370544e-01 1.9794052913e+00 -3.4284305334e+00 1.9794052913e+00 3.4284305334e+00 
39400 4.5634145393e+00 -2.1449862287e-01 1.9848625520e+00 -3.4378827862e+00 1.9848625520e+00 3.4378827862e+00 
39500 4.5613491398e+00 -2.1300640052e-01 1.9902683591e+00 -3.4472459186e+00 1.9902683591e+00 3.4472459186e+00 
39600 4.5593487887e+00 -2.1146651986e-01 1.9956219486e+00 -3.4565186076e+00 1.9956219486e+00 3.4565186076e+00 
39700 4.5574108325e+00 -2.0987869234e-01 2.0009225478e+00 -3.4656995148e+00 2.0009225478e+00 3.4656995148e+00 
39800 4.5555327823e+00 -2.0824285660e-01 2.0061693810e+00 -3.4747872965e+00 2.0061693810e+00 3.4747872965e+00 
39900 4.5537123047e+00 -2.0655917425e-01 2.0113616748e+00 -3.4837806131e+00 2.0113616748e+00 3.4837806131e+00 
40000 4.5519472138e+00 -2.0482802401e-01 2.0164986633e+00 -3.4926781382e+00 2.0164986633e+00 3.4926781382e+00 
40100 4.5502354647e+00 -2.0304999467e-01 2.0215795937e+00 -3.5014785679e+00 2.0215795937e+00 3.5014785679e+00 
40200 4.5485751476e+00 -2.0122587672e-01 2.0266037307e+00 -3.5101806285e+00 2.0266037307e+00 3.5101806285e+00 
40300 4.5469644829e+00 -1.9935665290e-01 2.0315703611e+00 -3.5187830846e+00 2.0315703611e+00 3.5187830846e+00 
40400 4.5454018167e+00 -1.9744348782e-01 2.0364787982e+00 -3.5272847470e+00 2.0364787982e+00 3.5272847470e+00 
40500 4.5438856168e+00 -1.9548771670e-01 2.0413283855e+00 -3.5356844786e+00 2.0413283855e+00 3.5356844786e+00 
40600 4.5424144699e+00 -1.9349083333e-01 2.0461185007e+00 -3.5439812015e+00 2.0461185007e+00 3.5439812015e+00 
40700 4.5409870775e+00 -1.9145447751e-01 2.0508485586e+00 -3.5521739022e+00 2.0508485586e+00 3.5521739022e+00 
40800 4.5396022535e+00 -1.8938042194e-01 2.0555180145e+00 -3.5602616370e+00 2.0555180145e+00 3.5602616370e+00 
40900 4.5382589207e+00 -1.8727055881e-01 2.0601263663e+00 -3.5682435364e+00 2.0601263663e+00 3.5682435364e+00 
41000 4.5369561074e+00 -1.8512688607e-01 2.0646731570e+00 -3.5761188089e+00 2.0646731570e+00 3.5761188089e+00 
41100 4.5356929446e+00 -1.8295149362e-01 2.0691579767e+00 -3.5838867445e+00 2.0691579767e+00 3.5838867445e+00 
41200 4.5344686617e+00 -1.8074654948e-01 2.0735804641e+00 -3.5915467174e+00 2.0735804641e+00 3.5915467174e+00 
41300 4.5332825827e+00 -1.7851428600e-01 2.0779403078e+00 -3.5990981882e+00 2.0779403078e+00 3.5990981882e+00 
41400 4.5321341218e+00 -1.7625698629e-01 2.0822372470e+00 -3.6065407052e+00 2.0822372470e+00 3.6065407052e+00 
41500 4.5310227786e+00 -1.7397697091e-01 2.0864710723e+00 -3.6138739057e+00 2.0864710723e+00 3.6138739057e+00 
41600 4.5299481329e+00 -1.7167658492e-01 2.0906416260e+00 -3.6210975167e+00 2.0906416260e+00 3.6210975167e+00 
41700 4.5289098387e+00 -1.6935818536e-01 2.0947488022e+00 -3.6282113545e+00 2.0947488022e+00 3.6282113545e+00 
41800 4.5279076185e+00 -1.6702412922e-01 2.0987925460e+00 -3.6352153243e+00 2.0987925460e+00 3.6352153243e+00 
41900 4.5269412568e+00 -1.6467676205e-01 2.1027728538e+00 -3.6421094195e+00 2.1027728538e+00 3.6421094195e+00 
42000 4.5260105927e+00 -1.6231840709e-01 2.1066897718e+00 -3.6488937205e+00 2.1066897718e+00 3.6488937205e+00 
42100 4.5251155134e+00 -1.5995135515e-01 2.1105433954e+00 -3.6555683924e+00 2.1105433954e+00 3.6555683924e+00 
42200 4.5242559464e+00 -1.5757785520e-01 2.1143338678e+00 -3.6621336833e+00 2.1143338678e+00 3.6621336833e+00 
42300 4.5234318516e+00 -1.5520010560e-01 2.1180613790e+00 -3.6685899220e+00 2.1180613790e+00 3.6685899220e+00 
42400 4.5226432139e+00 -1.5282024625e-01 2.1217261635e+00 -3.6749375150e+00 2.1217261635e+00 3.6749375150e+00 
42500 4.5218900351e+00 -1.5044035135e-01 2.1253284994e+00 -3.6811769437e+00 2.1253284994e+00 3.6811769437e+00 
42600 4.5211723260e+00 -1.4806242307e-01 2.1288687059e+00 -3.6873087612e+00 2.1288687059e+00 3.6873087612e+00 
42700 4.5204900983e+00 -1.4568838594e-01 2.1323471418e+00 -3.6933335889e+00 2.1323471418e+00 3.6933335889e+00 
42800 4.5198433573e+00 -1.4332008203e-01 2.1357642032e+00 -3.6992521130e+00 2.1357642032e+00 3.6992521130e+00 
42900 4.5192320943e+00 -1.4095926689e-01 2.1391203216e+00 -3.7050650805e+00 2.1391203216e+00 3.7050650805e+00 
43000 4.5186562789e+00 -1.3860760628e-01 2.1424159613e+00 -3.7107732959e+00 2.1424159613e+00 3.7107732959e+00 
43100 4.5181158526e+00 -1.3626667354e-01 2.1456516176e+00 -3.7163776170e+00 2.1456516176e+00 3.7163776170e+00 
43200 4.5176107222e+00 -1.3393794776e-01 2.1488278143e+00 -3.7218789512e+00 2.1488278143e+00 3.7218789512e+00 
43300 4.5171407536e+00 -1.3162281257e-01 2.1519451017e+00 -3.7272782513e+00 2.1519451017e+00 3.7272782513e+00 
43400 4.5167057663e+00 -1.2932255556e-01 2.1550040539e+00 -3.7325765119e+00 2.1550040539e+00 3.7325765119e+00 
43500 4.5163055284e+00 -1.2703836832e-01 2.1580052670e+00 -3.7377747654e+00 2.1580052670e+00 3.7377747654e+00 
43600 4.5159397524e+00 -1.2477134707e-01 2.1609493563e+00 -3.7428740778e+00 2.1609493563e+00 3.7428740778e+00 
43700 4.5156080909e+00 -1.2252249376e-01 2.1638369551e+00 -3.7478755454e+00 2.1638369551e+00 3.7478755454e+00 
43800 4.5153101340e+00 -1.2029271772e-01 2.1666687113e+00 -3.7527802912e+00 2.1666687113e+00 3.7527802912e+00 
43900 4.5150454063e+00 -1.1808283770e-01 2.1694452865e+00 -3.7575894605e+00 2.1694452865e+00 3.7575894605e+00 
44000 4.5148133651e+00 -1.1589358434e-01 2.1721673532e+00 -3.7623042183e+00 2.1721673532e+00 3.7623042183e+00 
44100 4.5146133995e+00 -1.1372560304e-01 2.1748355932e+00 -3.7669257456e+00 2.1748355932e+00 3.7669257456e+00 
44200 4.5144448293e+00 -1.1157945706e-01 2.1774506958e+00 -3.7714552361e+00 2.1774506958e+00 3.7714552361e+00 
44300 4.5143069054e+00 -1.0945563100e-01 2.1800133557e+00 -3.7758938933e+00 2.1800133557e+00 3.7758938933e+00 
44400 4.5141988104e+00 -1.0735453446e-01 2.1825242719e+00 -3.7802429276e+00 2.1825242719e+00 3.7802429276e+00 
44500 4.5141196598e+00 -1.0527650592e-01 2.1849841454e+00 -3.7845035536e+00 2.1849841454e+00 3.7845035536e+00 
44600 4.5140685036e+00 -1.0322181679e-01 2.1873936784e+00 -3.7886769872e+00 2.1873936784e+00 3.7886769872e+00 
44700 4.5140443292e+00 -1.0119067562e-01 2.1897535727e+00 -3.7927644439e+00 2.1897535727e+00 3.7927644439e+00 
44800 4.5140460637e+00 -9.9183232310e-02 2.1920645280e+00 -3.7967671359e+00 2.1920645280e+00 3.7967671359e+00 
44900 4.5140725778e+00 -9.7199582493e-02 2.1943272413e+00 -3.8006862705e+00 2.1943272413e+00 3.8006862705e+00 
45000 4.5141226888e+00 -9.5239771881e-02 2.1965424059e+00 -3.8045230479e+00 2.1965424059e+00 3.8045230479e+00 
45100 4.5141951656e+00 -9.3303800634e-02 2.1987107096e+00 -3.8082786602e+00 2.1987107096e+00 3.8082786602e+00 
45200 4.5142887326e+00 -9.1391627689e-02 2.2008328349e+00 -3.8119542891e+00 2.2008328349e+00 3.8119542891e+00 
45300 4.5144020747e+00 -8.9503175049e-02 2.2029094575e+00 -3.8155511049e+00 2.2029094575e+00 3.8155511049e+00 
45400 4.5145338426e+00 -8.7638331980e-02 2.2049412460e+00 -3.8190702657e+00 2.2049412460e+00 3.8190702657e+00 
45500 4.5146826578e+00 -8.5796959115e-02 2.2069288609e+00 -3.8225129158e+00 2.2069288609e+00 3.8225129158e+00 
45600 4.5148471180e+00 -8.3978892428e-02 2.2088729549e+00 -3.8258801854e+00 2.2088729549e+00 3.8258801854e+00 
45700 4.5150258031e+00 -8.2183947078e-02 2.2107741717e+00 -3.8291731895e+00 2.2107741717e+00 3.8291731895e+00 
45800 4.5152172808e+00 -8.0411921080e-02 2.2126331462e+00 -3.8323930277e+00 2.2126331462e+00 3.8323930277e+00 
45900 4.5154201122e+00 -7.8662598815e-02 2.2144505039e+00 -3.8355407836e+00 2.2144505039e+00 3.8355407836e+00 
46000 4.5156328578e+00 -7.6935754351e-02 2.2162268612e+00 -3.8386175246e+00 2.2162268612e+00 3.8386175246e+00 
46100 4.5158540831e+00 -7.5231154556e-02 2.2179628249e+00 -3.8416243020e+00 2.2179628249e+00 3.8416243020e+00 
46200 4.5160823648e+00 -7.3548562021e-02 2.2196589925e+00 -3.8445621505e+00 2.2196589925e+00 3.8445621505e+00 
46300 4.5163162959e+00 -7.1887737751e-02 2.2213159521e+00 -3.8474320887e+00 2.2213159521e+00 3.8474320887e+00 
46400 4.5165544917e+00 -7.0248443647e-02 2.2229342824e+00 -3.8502351190e+00 2.2229342824e+00 3.8502351190e+00 
46500 4.5167955949e+00 -6.8630444760e-02 2.2245145532e+00 -3.8529722283e+00 2.2245145532e+00 3.8529722283e+00 
46600 4.5170382811e+00 -6.7033511310e-02 2.2260573251e+00 -3.8556443876e+00 2.2260573251e+00 3.8556443876e+00 
46700 4.5172812638e+00 -6.5457420491e-02 2.2275631502e+00 -3.8582525533e+00 2.2275631502e+00 3.8582525533e+00 
46800 4.5175232990e+00 -6.3901958036e-02 2.2290325724e+00 -3.8607976671e+00 2.2290325724e+00 3.8607976671e+00 
46900 4.5177631899e+00 -6.2366919567e-02 2.2304661271e+00 -3.8632806566e+00 2.2304661271e+00 3.8632806566e+00 
47000 4.5179997916e+00 -6.0852111716e-02 2.2318643422e+00 -3.8657024363e+00 2.2318643422e+00 3.8657024363e+00 
47100 4.5182320142e+00 -5.9357353039e-02 2.2332277383e+00 -3.8680639076e+00 2.2332277383e+00 3.8680639076e+00 
47200 4.5184588275e+00 -5.7882474714e-02 2.2345568288e+00 -3.8703659600e+00 2.2345568288e+00 3.8703659600e+00 
47300 4.5186792637e+00 -5.6427321048e-02 2.2358521206e+00 -3.8726094712e+00 2.2358521206e+00 3.8726094712e+00 
47400 4.5188924206e+00 -5.4991749777e-02 2.2371141144e+00 -3.8747953084e+00 2.2371141144e+00 3.8747953084e+00 
47500 4.5190974644e+00 -5.3575632207e-02 2.2383433047e+00 -3.8769243286e+00 2.2383433047e+00 3.8769243286e+00 
47600 4.5192936320e+00 -5.2178853161e-02 2.2395401811e+00 -3.8789973792e+00 2.2395401811e+00 3.8789973792e+00 
47700 4.5194802327e+00 -5.0801310791e-02 2.2407052277e+00 -3.8810152992e+00 2.2407052277e+00 3.8810152992e+00 
47800 4.5196566500e+00 -4.9442916223e-02 2.2418389242e+00 -3.8829789191e+00 2.2418389242e+00 3.8829789191e+00 
47900 4.5198223427e+00 -4.8103593089e-02 2.2429417458e+00 -3.8848890621e+00 2.2429417458e+00 3.8848890621e+00 
48000 4.5199768454e+00 -4.6783276927e-02 2.2440141638e+00 -3.8867465446e+00 2.2440141638e+00 3.8867465446e+00 
48100 4.5201197694e+00 -4.5481914484e-02 2.2450566460e+00 -3.8885521768e+00 2.2450566460e+00 3.8885521768e+00 
48200 4.5202508022e+00 -4.4199462927e-02 2.2460696568e+00 -3.8903067630e+00 2.2460696568e+00 3.8903067630e+00 
48300 4.5203697072e+00 -4.2935888982e-02 2.2470536577e+00 -3.8920111024e+00 2.2470536577e+00 3.8920111024e+00 
48400 4.5204763231e+00 -4.1691168005e-02 2.2480091073e+00 -3.8936659897e+00 2.2480091073e+00 3.8936659897e+00 
48500 4.5205705624e+00 -4.0465283011e-02 2.2489364619e+00 -3.8952722150e+00 2.2489364619e+00 3.8952722150e+00 
48600 4.5206524100e+00 -3.9258223674e-02 2.2498361756e+00 -3.8968305649e+00 2.2498361756e+00 3.8968305649e+00 
48700 4.5207219213e+00 -3.8069985300e-02 2.2507087005e+00 -3.8983418223e+00 2.2507087005e+00 3.8983418223e+00 
48800 4.5207792200e+00 -3.6900567798e-02 2.2515544867e+00 -3.8998067670e+00 2.2515544867e+00 3.8998067670e+00 
48900 4.5208244953e+00 -3.5749974659e-02 2.2523739829e+00 -3.9012261760e+00 2.2523739829e+00 3.9012261760e+00 
49000 4.5208579989e+00 -3.4618211950e-02 2.2531676360e+00 -3.9026008236e+00 2.2531676360e+00 3.9026008236e+00 
49100 4.5208800423e+00 -3.3505287337e-02 2.2539358917e+00 -3.9039314815e+00 2.2539358917e+00 3.9039314815e+00 
49200 4.5208909928e+00 -3.2411209150e-02 2.2546791943e+00 -3.9052189194e+00 2.2546791943e+00 3.9052189194e+00 
49300 4.5208912699e+00 -3.1335985493e-02 2.2553979869e+00 -3.9064639045e+00 2.2553979869e+00 3.9064639045e+00 
49400 4.5208813416e+00 -3.0279623410e-02 2.2560927111e+00 -3.9076672022e+00 2.2560927111e+00 3.9076672022e+00 
49500 4.5208617198e+00 -2.9242128115e-02 2.2567638077e+00 -3.9088295757e+00 2.2567638077e+00 3.9088295757e+00 
49600 4.5208329564e+00 -2.8223502288e-02 2.2574117162e+00 -3.9099517860e+00 2.2574117162e+00 3.9099517860e+00 
49700 4.5207956386e+00 -2.7223745449e-02 2.2580368747e+00 -3.9110345924e+00 2.2580368747e+00 3.9110345924e+00 
49800 4.5207503844e+00 -2.6242853399e-02 2.2586397204e+00 -3.9120787518e+00 2.2586397204e+00 3.9120787518e+00 
49900 4.5206978377e+00 -2.5280817750e-02 2.2592206891e+00 -3.9130850190e+00 2.2592206891e+00 3.9130850190e+00 
50000 4.5206386640e+00 -2.4337625529e-02 2.2597802152e+00 -3.9140541468e+00 2.2597802152e+00 3.9140541468e+00 
50100 4.5205735454e+00 -2.3413258859e-02 2.2603187320e+00 -3.9149868852e+00 2.2603187320e+00 3.9149868852e+00 
50200 4.5205031759e+00 -2.2507694722e-02 2.2608366712e+00 -3.9158839822e+00 2.2608366712e+00 3.9158839822e+00 
50300 4.5204282567e+00 -2.1620904800e-02 2.2613344631e+00 -3.9167461829e+00 2.2613344631e+00 3.9167461829e+00 
50400 4.5203494916e+00 -2.0752855382e-02 2.2618125362e+00 -3.9175742299e+00 2.2618125362e+00 3.9175742299e+00 
50500 4.5202675828e+00 -1.9903507345e-02 2.2622713178e+00 -3.9183688629e+00 2.2622713178e+00 3.9183688629e+00 
50600 4.5201832259e+00 -1.9072816199e-02 2.2627112330e+00 -3.9191308184e+00 2.2627112330e+00 3.9191308184e+00 
50700 4.5200971063e+00 -1.8260732184e-02 2.2631327054e+00 -3.9198608301e+00 2.2631327054e+00 3.9198608301e+00 
50800 4.5200098946e+00 -1.7467200427e-02 2.2635361567e+00 -3.9205596281e+00 2.2635361567e+00 3.9205596281e+00 
50900 4.5199222434e+00 -1.6692161139e-02 2.2639220064e+00 -3.9212279395e+00 2.2639220064e+00 3.9212279395e+00 
51000 4.5198347830e+00 -1.5935549854e-02 2.2642906723e+00 -3.9218664875e+00 2.2642906723e+00 3.9218664875e+00 
51100 4.5197481187e+00 -1.5197297689e-02 2.2646425697e+00 -3.9224759917e+00 2.2646425697e+00 3.9224759917e+00 
51200 4.5196628274e+00 -1.4477331641e-02 2.2649781121e+00 -3.9230571682e+00 2.2649781121e+00 3.9230571682e+00 
51300 4.5195794546e+00 -1.3775574890e-02 2.2652977106e+00 -3.9236107291e+00 2.2652977106e+00 3.9236107291e+00 
51400 4.5194985123e+00 -1.3091947109e-02 2.2656017740e+00 -3.9241373824e+00 2.2656017740e+00 3.9241373824e+00 
51500 4.5194204767e+00 -1.2426364779e-02 2.2658907089e+00 -3.9246378322e+00 2.2658907089e+00 3.9246378322e+00 
51600 4.5193457861e+00 -1.1778741492e-02 2.2661649193e+00 -3.9251127785e+00 2.2661649193e+00 3.9251127785e+00 
51700 4.5192748395e+00 -1.1148988246e-02 2.2664248069e+00 -3.9255629171e+00 2.2664248069e+00 3.9255629171e+00 
51800 4.5192079955e+00 -1.0537013710e-02 2.2666707712e+00 -3.9259889397e+00 2.2666707712e+00 3.9259889397e+00 
51900 4.5191455710e+00 -9.9427244720e-03 2.2669032089e+00 -3.9263915336e+00 2.2669032089e+00 3.9263915336e+00 
52000 4.5190878411e+00 -9.3660252480e-03 2.2671225143e+00 -3.9267713818e+00 2.2671225143e+00 3.9267713818e+00 
52100 4.5190350384e+00 -8.8068190585e-03 2.2673290794e+00 -3.9271291630e+00 2.2673290794e+00 3.9271291630e+00 
52200 4.5189873532e+00 -8.2650073614e-03 2.2675232935e+00 -3.9274655517e+00 2.2675232935e+00 3.9274655517e+00 
52300 4.5189449339e+00 -7.7404901423e-03 2.2677055434e+00 -3.9277812178e+00 2.2677055434e+00 3.9277812178e+00 
52400 4.5189078874e+00 -7.2331659574e-03 2.2678762134e+00 -3.9280768269e+00 2.2678762134e+00 3.9280768269e+00 
52500 4.5188762802e+00 -6.7429319278e-03 2.2680356853e+00 -3.9283530404e+00 2.2680356853e+00 3.9283530404e+00 
52600 4.5188501396e+00 -6.2696836845e-03 2.2681843383e+00 -3.9286105149e+00 2.2681843383e+00 3.9286105149e+00 
52700 4.5188294546e+00 -5.8133152633e-03 2.2683225490e+00 -3.9288499029e+00 2.2683225490e+00 3.9288499029e+00 
52800 4.5188141782e+00 -5.3737189507e-03 2.2684506915e+00 -3.9290718522e+00 2.2684506915e+00 3.9290718522e+00 
52900 4.5188042285e+00 -4.9507850811e-03 2.2685691372e+00 -3.9292770062e+00 2.2685691372e+00 3.9292770062e+00 
53000 4.5187994912e+00 -4.5444017884e-03 2.2686782550e+00 -3.9294660037e+00 2.2686782550e+00 3.9294660037e+00 
53100 4.5187998215e+00 -4.1544547140e-03 2.2687784110e+00 -3.9296394790e+00 2.2687784110e+00 3.9296394790e+00 
53200 4.5188050466e+00 -3.7808266739e-03 2.2688699687e+00 -3.9297980616e+00 2.2688699687e+00 3.9297980616e+00 
53300 4.5188149676e+00 -3.4233972894e-03 2.2689532888e+00 -3.9299423763e+00 2.2689532888e+00 3.9299423763e+00 
53400 4.5188293624e+00 -3.0820425859e-03 2.2690287293e+00 -3.9300730429e+00 2.2690287293e+00 3.9300730429e+00 
53500 4.5188479883e+00 -2.7566345630e-03 2.2690966451e+00 -3.9301906766e+00 2.2690966451e+00 3.9301906766e+00 
53600 4.5188705841e+00 -2.4470407425e-03 2.2691573883e+00 -3.9302958870e+00 2.2691573883e+00 3.9302958870e+00 
53700 4.5188968732e+00 -2.1531236987e-03 2.2692113081e+00 -3.9303892788e+00 2.2692113081e+00 3.9303892788e+00 
53800 4.5189265660e+00 -1.8747405764e-03 2.2692587504e+00 -3.9304714513e+00 2.2692587504e+00 3.9304714513e+00 
53900 4.5189593625e+00 -1.6117426030e-03 2.2693000579e+00 -3.9305429979e+00 2.2693000579e+00 3.9305429979e+00 
54000 4.5189949549e+00 -1.3639745995e-03 2.2693355699e+00 -3.9306045064e+00 2.2693355699e+00 3.9306045064e+00 
54100 4.5190330299e+00 -1.1312744970e-03 2.2693656222e+00 -3.9306565586e+00 2.2693656222e+00 3.9306565586e+00 
54200 4.5190732716e+00 -9.1347286261e-04 2.2693905472e+00 -3.9306997299e+00 2.2693905472e+00 3.9306997299e+00 
54300 4.5191153632e+00 -7.1039244317e-04 2.2694106732e+00 -3.9307345891e+00 2.2694106732e+00 3.9307345891e+00 
54400 4.5191589898e+00 -5.2184772878e-04 2.2694263246e+00 -3.9307616983e+00 2.2694263246e+00 3.9307616983e+00 
54500 4.5192038403e+00 -3.4764454362e-04 2.2694378220e+00 -3.9307816123e+00 2.2694378220e+00 3.9307816123e+00 
54600 4.5192496091e+00 -1.8757966751e-04 2.2694454813e+00 -3.9307948786e+00 2.2694454813e+00 3.9307948786e+00 
54700 4.5192959985e+00 -4.1440493198e-05 2.2694496140e+00 -3.9308020367e+00 2.2694496140e+00 3.9308020367e+00 
54800 4.5193427198e+00 9.0554248701e-05 2.2694496140e+00 -3.9308020367e+00 2.2694496140e+00 3.9308020367e+00 
54900 4.5193894959e+00 2.0951590195e-04 2.2694476189e+00 -3.9307985811e+00 2.2694476189e+00 3.9307985811e+00 
55000 4.5194360614e+00 3.1524852951e-04 2.2694430029e+00 -3.9307905859e+00 2.2694430029e+00 3.9307905859e+00 
55100 4.5194821648e+00 4.0800493343e-04 2.2694360574e+00 -3.9307785560e+00 2.2694360574e+00 3.9307785560e+00 
55200 4.5195275691e+00 4.8804835475e-04 2.2694270683e+00 -3.9307629864e+00 2.2694270683e+00 3.9307629864e+00 
55300 4.5195720530e+00 5.5565253395e-04 2.2694163156e+00 -3.9307443622e+00 2.2694163156e+00 3.9307443622e+00 
55400 4.5196154115e+00 6.1110171723e-04 2.2694040734e+00 -3.9307231581e+00 2.2694040734e+00 3.9307231581e+00 
55500 4.5196574566e+00 6.5469060762e-04 2.2693906095e+00 -3.9306998379e+00 2.2693906095e+00 3.9306998379e+00 
55600 4.5196980178e+00 6.8672426067e-04 2.2693761852e+00 -3.9306748542e+00 2.2693761852e+00 3.9306748542e+00 
55700 4.5197369424e+00 7.0751792494e-04 2.2693610550e+00 -3.9306486479e+00 2.2693610550e+00 3.9306486479e+00 
55800 4.5197740955e+00 7.1739682773e-04 2.2693454665e+00 -3.9306216479e+00 2.2693454665e+00 3.9306216479e+00 
55900 4.5198093602e+00 7.1669590711e-04 2.2693296603e+00 -3.9305942707e+00 2.2693296603e+00 3.9305942707e+00 
56000 4.5198426376e+00 7.0575949159e-04 2.2693138694e+00 -3.9305669201e+00 2.2693138694e+00 3.9305669201e+00 
56100 4.5198738463e+00 6.8494092926e-04 2.2692983193e+00 -3.9305399866e+00 2.2692983193e+00 3.9305399866e+00 
56200 4.5199029224e+00 6.5460216839e-04 2.2692832279e+00 -3.9305138474e+00 2.2692832279e+00 3.9305138474e+00 
56300 4.5199298185e+00 6.1511329196e-04 2.2692688048e+00 -3.9304888659e+00 2.2692688048e+00 3.9304888659e+00 
56400 4.5199545040e+00 5.6685200880e-04 2.2692552517e+00 -3.9304653912e+00 2.2692552517e+00 3.9304653912e+00 
56500 4.5199769636e+00 5.1020310408e-04 2.2692427619e+00 -3.9304437582e+00 2.2692427619e+00 3.9304437582e+00 
56600 4.5199971973e+00 4.4555785264e-04 2.2692315202e+00 -3.9304242871e+00 2.2692315202e+00 3.9304242871e+00 
56700 4.5200152191e+00 3.7331339798e-04 2.2692217028e+00 -3.9304072829e+00 2.2692217028e+00 3.9304072829e+00 
56800 4.5200310565e+00 2.9387210068e-04 2.2692134772e+00 -3.9303930358e+00 2.2692134772e+00 3.9303930358e+00 
56900 4.5200447496e+00 2.0764085974e-04 2.2692070020e+00 -3.9303818204e+00 2.2692070020e+00 3.9303818204e+00 
57000 4.5200563499e+00 1.1503041026e-04 2.2692024268e+00 -3.9303738959e+00 2.2692024268e+00 3.9303738959e+00 
57100 4.5200659198e+00 1.6454601286e-05 2.2691998922e+00 -3.9303695059e+00 2.2691998922e+00 3.9303695059e+00 
57200 4.5200735309e+00 -8.7494259516e-05 2.2691998922e+00 -3.9303695059e+00 2.2691998922e+00 3.9303695059e+00 
57300 4.5200792640e+00 -1.9674945386e-04 2.2692018201e+00 -3.9303728451e+00 2.2692018201e+00 3.9303728451e+00 
57400 4.5200832074e+00 -3.1071711495e-04 2.2692061553e+00 -3.9303803539e+00 2.2692061553e+00 3.9303803539e+00 
57500 4.5200854559e+00 -4.2897845174e-04 2.2692130017e+00 -3.9303922122e+00 2.2692130017e+00 3.9303922122e+00 
57600 4.5200861103e+00 -5.5111533967e-04 2.2692224539e+00 -3.9304085838e+00 2.2692224539e+00 3.9304085838e+00 
57700 4.5200852758e+00 -6.7671108662e-04 2.2692345971e+00 -3.9304296165e+00 2.2692345971e+00 3.9304296165e+00 
57800 4.5200830617e+00 -8.0535119414e-04 2.2692495077e+00 -3.9304554424e+00 2.2692495077e+00 3.9304554424e+00 
57900 4.5200795799e+00 -9.3662411102e-04 2.2692672526e+00 -3.9304861775e+00 2.2692672526e+00 3.9304861775e+00 
58000 4.5200749444e+00 -1.0701219762e-03 2.2692878898e+00 -3.9305219221e+00 2.2692878898e+00 3.9305219221e+00 
58100 4.5200692702e+00 -1.2054413479e-03 2.2693114682e+00 -3.9305627611e+00 2.2693114682e+00 3.9305627611e+00 
58200 4.5200626727e+00 -1.3421839176e-03 2.2693380279e+00 -3.9306087638e+00 2.2693380279e+00 3.9306087638e+00 
58300 4.5200552667e+00 -1.4799572040e-03 2.2693676001e+00 -3.9306599844e+00 2.2693676001e+00 3.9306599844e+00 
58400 4.5200471658e+00 -1.6183752276e-03 2.2694002074e+00 -3.9307164620e+00 2.2694002074e+00 3.9307164620e+00 
58500 4.5200384817e+00 -1.7570591617e-03 2.2694358640e+00 -3.9307782209e+00 2.2694358640e+00 3.9307782209e+00 
58600 4.5200293237e+00 -1.8956379585e-03 2.2694745754e+00 -3.9308452712e+00 2.2694745754e+00 3.9308452712e+00 
58700 4.5200197978e+00 -2.0337489497e-03 2.2695163394e+00 -3.9309176084e+00 2.2695163394e+00 3.9309176084e+00 
58800 4.5200100064e+00 -2.1710384176e-03 2.2695611453e+00 -3.9309952145e+00 2.2695611453e+00 3.9309952145e+00 
58900 4.5200000479e+00 -2.3071621381e-03 2.2696089749e+00 -3.9310780579e+00 2.2696089749e+00 3.9310780579e+00 
59000 4.5199900161e+00 -2.4417858929e-03 2.2696598024e+00 -3.9311660937e+00 2.2696598024e+00 3.9311660937e+00 
59100 4.5199800000e+00 -2.5745859499e-03 2.2697135945e+00 -3.9312592644e+00 2.2697135945e+00 3.9312592644e+00 
59200 4.5199700831e+00 -2.7052495115e-03 2.2697703109e+00 -3.9313575000e+00 2.2697703109e+00 3.9313575000e+00 
59300 4.5199603438e+00 -2.8334751299e-03 2.2698299042e+00 -3.9314607186e+00 2.2698299042e+00 3.9314607186e+00 
59400 4.5199508545e+00 -2.9589730890e-03 2.2698923205e+00 -3.9315688268e+00 2.2698923205e+00 3.9315688268e+00 
59500 4.5199416821e+00 -3.0814657525e-03 2.2699574995e+00 -3.9316817201e+00 2.2699574995e+00 3.9316817201e+00 
59600 4.5199328873e+00 -3.2006878778e-03 2.2700253748e+00 -3.9317992836e+00 2.2700253748e+00 3.9317992836e+00 
59700 4.5199245247e+00 -3.3163868958e-03 2.2700958741e+00 -3.9319213920e+00 2.2700958741e+00 3.9319213920e+00 
59800 4.5199166430e+00 -3.4283231568e-03 2.2701689196e+00 -3.9320479105e+00 2.2701689196e+00 3.9320479105e+00 
59900 4.5199092849e+00 -3.5362701422e-03 2.2702444281e+00 -3.9321786951e+00 2.2702444281e+00 3.9321786951e+00 
60000 4.5199024868e+00 -3.6400146429e-03 2.2703223116e+00 -3.9323135932e+00 2.2703223116e+00 3.9323135932e+00 
60100 4.5198962796e+00 -3.7393569043e-03 2.2704024772e+00 -3.9324524442e+00 2.2704024772e+00 3.9324524442e+00 
60200 4.5198906881e+00 -3.8341107384e-03 2.2704848278e+00 -3.9325950796e+00 2.2704848278e+00 3.9325950796e+00 
60300 4.5198857316e+00 -3.9241036036e-03 2.2705692621e+00 -3.9327413240e+00 2.2705692621e+00 3.9327413240e+00 
60400 4.5198814239e+00 -4.0091766534e-03 2.2706556749e+00 -3.9328909955e+00 2.2706556749e+00 3.9328909955e+00 
60500 4.5198777735e+00 -4.0891847537e-03 2.2707439579e+00 -3.9330439060e+00 2.2707439579e+00 3.9330439060e+00 
60600 4.5198747839e+00 -4.1639964703e-03 2.2708339991e+00 -3.9331998620e+00 2.2708339991e+00 3.9331998620e+00 
60700 4.5198724539e+00 -4.2334940268e-03 2.2709256840e+00 -3.9333586649e+00 2.2709256840e+00 3.9333586649e+00 
60800 4.5198707776e+00 -4.2975732348e-03 2.2710188954e+00 -3.9335201118e+00 2.2710188954e+00 3.9335201118e+00 
60900 4.5198697451e+00 -4.3561433957e-03 2.2711135138e+00 -3.9336839957e+00 2.2711135138e+00 3.9336839957e+00 
61000 4.5198693424e+00 -4.4091271771e-03 2.2712094177e+00 -3.9338501061e+00 2.2712094177e+00 3.9338501061e+00 
61100 4.5198695518e+00 -4.4564604628e-03 2.2713064840e+00 -3.9340182299e+00 2.2713064840e+00 3.9340182299e+00 
61200 4.5198703524e+00 -4.4980921795e-03 2.2714045882e+00 -3.9341881513e+00 2.2714045882e+00 3.9341881513e+00 
61300 4.5198717202e+00 -4.5339840988e-03 2.2715036046e+00 -3.9343596527e+00 2.2715036046e+00 3.9343596527e+00 
61400 4.5198736285e+00 -4.5641106183e-03 2.2716034067e+00 -3.9345325150e+00 2.2716034067e+00 3.9345325150e+00 
61500 4.5198760482e+00 -4.5884585210e-03 2.2717038675e+00 -3.9347065183e+00 2.2717038675e+00 3.9347065183e+00 
61600 4.5198789482e+00 -4.6070267148e-03 2.2718048599e+00 -3.9348814422e+00 2.2718048599e+00 3.9348814422e+00 
61700 4.5198822954e+00 -4.6198259531e-03 2.2719062564e+00 -3.9350570660e+00 2.2719062564e+00 3.9350570660e+00 
61800 4.5198860556e+00 -4.6268785378e-03 2.2720079300e+00 -3.9352331700e+00 2.2720079300e+00 3.9352331700e+00 
61900 4.5198901930e+00 -4.6282180062e-03 2.2721097543e+00 -3.9354095349e+00 2.2721097543e+00 3.9354095349e+00 
62000 4.5198946714e+00 -4.6238888017e-03 2.2722116036e+00 -3.9355859429e+00 2.2722116036e+00 3.9355859429e+00 
62100 4.5198994536e+00 -4.6139459311e-03 2.2723133530e+00 -3.9357621780e+00 2.2723133530e+00 3.9357621780e+00 
62200 4.5199045023e+00 -4.5984546083e-03 2.2724148790e+00 -3.9359380263e+00 2.2724148790e+00 3.9359380263e+00 
62300 4.5199097802e+00 -4.5774898866e-03 2.2725160597e+00 -3.9361132764e+00 2.2725160597e+00 3.9361132764e+00 
62400 4.5199152501e+00 -4.5511362795e-03 2.2726167746e+00 -3.9362877197e+00 2.2726167746e+00 3.9362877197e+00 
62500 4.5199208751e+00 -4.5194873727e-03 2.2727169052e+00 -3.9364611510e+00 2.2727169052e+00 3.9364611510e+00 
62600 4.5199266192e+00 -4.4826454266e-03 2.2728163351e+00 -3.9366333686e+00 2.2728163351e+00 3.9366333686e+00 
62700 4.5199324471e+00 -4.4407209725e-03 2.2729149501e+00 -3.9368041749e+00 2.2729149501e+00 3.9368041749e+00 
62800 4.5199383244e+00 -4.3938324012e-03 2.2730126386e+00 -3.9369733763e+00 2.2730126386e+00 3.9369733763e+00 
62900 4.5199442182e+00 -4.3421055472e-03 2.2731092915e+00 -3.9371407840e+00 2.2731092915e+00 3.9371407840e+00 
63000 4.5199500969e+00 -4.2856732678e-03 2.2732048024e+00 -3.9373062138e+00 2.2732048024e+00 3.9373062138e+00 
63100 4.5199559301e+00 -4.2246750202e-03 2.2732990681e+00 -3.9374694867e+00 2.2732990681e+00 3.9374694867e+00 
63200 4.5199616894e+00 -4.1592564347e-03 2.2733919882e+00 -3.9376304290e+00 2.2733919882e+00 3.9376304290e+00 
63300 4.5199673478e+00 -4.0895688875e-03 2.2734834657e+00 -3.9377888727e+00 2.2734834657e+00 3.9377888727e+00 
63400 4.5199728806e+00 -4.0157690733e-03 2.2735734068e+00 -3.9379446554e+00 2.2735734068e+00 3.9379446554e+00 
63500 4.5199782644e+00 -3.9380185780e-03 2.2736617215e+00 -3.9380976208e+00 2.2736617215e+00 3.9380976208e+00 
63600 4.5199834782e+00 -3.8564834523e-03 2.2737483228e+00 -3.9382476187e+00 2.2737483228e+00 3.9382476187e+00 
63700 4.5199885027e+00 -3.7713337891e-03 2.2738331279e+00 -3.9383945054e+00 2.2738331279e+00 3.9383945054e+00 
63800 4.5199933210e+00 -3.6827433022e-03 2.2739160574e+00 -3.9385381435e+00 2.2739160574e+00 3.9385381435e+00 
63900 4.5199979178e+00 -3.5908889099e-03 2.2739970358e+00 -3.9386784023e+00 2.2739970358e+00 3.9386784023e+00 
64000 4.5200022800e+00 -3.4959503229e-03 2.2740759917e+00 -3.9388151580e+00 2.2740759917e+00 3.9388151580e+00 
64100 4.5200063968e+00 -3.3981096378e-03 2.2741528575e+00 -3.9389482933e+00 2.2741528575e+00 3.9389482933e+00 
64200 4.5200102590e+00 -3.2975509359e-03 2.2742275694e+00 -3.9390776982e+00 2.2742275694e+00 3.9390776982e+00 
64300 4.5200138596e+00 -3.1944598894e-03 2.2743000681e+00 -3.9392032696e+00 2.2743000681e+00 3.9392032696e+00 
64400 4.5200171935e+00 -3.0890233745e-03 2.2743702980e+00 -3.9393249113e+00 2.2743702980e+00 3.9393249113e+00 
64500 4.5200202573e+00 -2.9814290924e-03 2.2744382077e+00 -3.9394425344e+00 2.2744382077e+00 3.9394425344e+00 
64600 4.5200230495e+00 -2.8718651987e-03 2.2745037501e+00 -3.9395560572e+00 2.2745037501e+00 3.9395560572e+00 
64700 4.5200255705e+00 -2.7605199414e-03 2.2745668821e+00 -3.9396654050e+00 2.2745668821e+00 3.9396654050e+00 
64800 4.5200278220e+00 -2.6475813089e-03 2.2746275647e+00 -3.9397705104e+00 2.2746275647e+00 3.9397705104e+00 
64900 4.5200298075e+00 -2.5332366872e-03 2.2746857631e+00 -3.9398713129e+00 2.2746857631e+00 3.9398713129e+00 
65000 4.5200315319e+00 -2.4176725274e-03 2.2747414465e+00 -3.9399677595e+00 2.2747414465e+00 3.9399677595e+00 
65100 4.5200330013e+00 -2.3010740240e-03 2.2747945884e+00 -3.9400598039e+00 2.2747945884e+00 3.9400598039e+00 
65200 4.5200342232e+00 -2.1836248037e-03 2.2748451662e+00 -3.9401474073e+00 2.2748451662e+00 3.9401474073e+00 
65300 4.5200352063e+00 -2.0655066254e-03 2.2748931614e+00 -3.9402305374e+00 2.2748931614e+00 3.9402305374e+00 
65400 4.5200359602e+00 -1.9468990922e-03 2.2749385595e+00 -3.9403091691e+00 2.2749385595e+00 3.9403091691e+00 
65500 4.5200364955e+00 -1.8279793741e-03 2.2749813497e+00 -3.9403832840e+00 2.2749813497e+00 3.9403832840e+00 
65600 4.5200368235e+00 -1.7089219432e-03 2.2750215256e+00 -3.9404528706e+00 2.2750215256e+00 3.9404528706e+00 
65700 4.5200369564e+00 -1.5898983205e-03 2.2750590840e+00 -3.9405179238e+00 2.2750590840e+00 3.9405179238e+00 
65800 4.5200369068e+00 -1.4710768352e-03 2.2750940260e+00 -3.9405784451e+00 2.2750940260e+00 3.9405784451e+00 
65900 4.5200366880e+00 -1.3526223957e-03 2.2751263561e+00 -3.9406344425e+00 2.2751263561e+00 3.9406344425e+00 
66000 4.5200363133e+00 -1.2346962733e-03 2.2751560825e+00 -3.9406859301e+00 2.2751560825e+00 3.9406859301e+00 
66100 4.5200357968e+00 -1.1174558980e-03 2.2751832169e+00 -3.9407329282e+00 2.2751832169e+00 3.9407329282e+00 
66200 4.5200351522e+00 -1.0010546664e-03 2.2752077744e+00 -3.9407754631e+00 2.2752077744e+00 3.9407754631e+00 
66300 4.5200343938e+00 -8.8564176263e-04 2.2752297737e+00 -3.9408135669e+00 2.2752297737e+00 3.9408135669e+00 
66400 4.5200335354e+00 -7.7136199051e-04 2.2752492364e+00 -3.9408472773e+00 2.2752492364e+00 3.9408472773e+00 
66500 4.5200325911e+00 -6.5835561882e-04 2.2752661875e+00 -3.9408766376e+00 2.2752661875e+00 3.9408766376e+00 
66600 4.5200315746e+00 -5.4675823814e-04 2.2752806552e+00 -3.9409016963e+00 2.2752806552e+00 3.9409016963e+00 
66700 4.5200304993e+00 -4.3670062998e-04 2.2752926704e+00 -3.9409225072e+00 2.2752926704e+00 3.9409225072e+00 
66800 4.5200293783e+00 -3.2830864767e-04 2.2753022670e+00 -3.9409391290e+00 2.2753022670e+00 3.9409391290e+00 
66900 4.5200282244e+00 -2.2170310900e-04 2.2753094816e+00 -3.9409516251e+00 2.2753094816e+00 3.9409516251e+00 
67000 4.5200270497e+00 -1.1699970053e-04 2.2753143536e+00 -3.9409600636e+00 2.2753143536e+00 3.9409600636e+00 
67100 4.5200258659e+00 -1.4308893220e-05 2.2753169246e+00 -3.9409645168e+00 2.2753169246e+00 3.9409645168e+00 
67200 4.5200246842e+00 8.6113699087e-05 2.2753169246e+00 -3.9409645168e+00 2.2753169246e+00 3.9409645168e+00 
67300 4.5200235150e+00 1.8446807617e-04 2.2753150323e+00 -3.9409612391e+00 2.2753150323e+00 3.9409612391e+00 
67400 4.5200223683e+00 2.8051031491e-04 2.2753109786e+00 -3.9409542180e+00 2.2753109786e+00 3.9409542180e+00 
67500 4.5200212530e+00 3.7415144806e-04 2.2753048144e+00 -3.9409435412e+00 2.2753048144e+00 3.9409435412e+00 
67600 4.5200201777e+00 4.6530798048e-04 2.2752965924e+00 -3.9409293003e+00 2.2752965924e+00 3.9409293003e+00 
67700 4.5200191501e+00 5.5390190935e-04 2.2752863672e+00 -3.9409115897e+00 2.2752863672e+00 3.9409115897e+00 
67800 4.5200181770e+00 6.3986073462e-04 2.2752741950e+00 -3.9408905070e+00 2.2752741950e+00 3.9408905070e+00 
67900 4.5200172647e+00 7.2311745990e-04 2.2752601339e+00 -3.9408661523e+00 2.2752601339e+00 3.9408661523e+00 
68000 4.5200164186e+00 8.0361058399e-04 2.2752442430e+00 -3.9408386286e+00 2.2752442430e+00 3.9408386286e+00 
68100 4.5200156434e+00 8.8128408337e-04 2.2752265832e+00 -3.9408080408e+00 2.2752265832e+00 3.9408080408e+00 
68200 4.5200149430e+00 9.5608738603e-04 2.2752072162e+00 -3.9407744963e+00 2.2752072162e+00 3.9407744963e+00 
68300 4.5200143206e+00 1.0279753367e-03 2.2751862053e+00 -3.9407381042e+00 2.2751862053e+00 3.9407381042e+00 
68400 4.5200137787e+00 1.0969081541e-03 2.2751636143e+00 -3.9406989755e+00 2.2751636143e+00 3.9406989755e+00 
68500 4.5200133190e+00 1.1628513798e-03 2.2751395082e+00 -3.9406572225e+00 2.2751395082e+00 3.9406572225e+00 
68600 4.5200129426e+00 1.2257758203e-03 2.2751139527e+00 -3.9406129590e+00 2.2751139527e+00 3.9406129590e+00 
68700 4.5200126501e+00 1.2856574810e-03 2.2750870139e+00 -3.9405662998e+00 2.2750870139e+00 3.9405662998e+00 
68800 4.5200124411e+00 1.3424774936e-03 2.2750587589e+00 -3.9405173605e+00 2.2750587589e+00 3.9405173605e+00 
68900 4.5200123150e+00 1.3962220367e-03 2.2750292547e+00 -3.9404662578e+00 2.2750292547e+00 3.9404662578e+00 
69000 4.5200122704e+00 1.4468822498e-03 2.2749985690e+00 -3.9404131086e+00 2.2749985690e+00 3.9404131086e+00 
69100 4.5200123056e+00 1.4944541416e-03 2.2749667694e+00 -3.9403580301e+00 2.2749667694e+00 3.9403580301e+00 
69200 4.5200124183e+00 1.5389384920e-03 2.2749339238e+00 -3.9403011400e+00 2.2749339238e+00 3.9403011400e+00 
69300 4.5200126056e+00 1.5803407489e-03 2.2749001001e+00 -3.9402425556e+00 2.2749001001e+00 3.9402425556e+00 
69400 4.5200128645e+00 1.6186709195e-03 2.2748653659e+00 -3.9401823942e+00 2.2748653659e+00 3.9401823942e+00 
69500 4.5200131916e+00 1.6539434571e-03 2.2748297887e+00 -3.9401207726e+00 2.2748297887e+00 3.9401207726e+00 
69600 4.5200135830e+00 1.6861771428e-03 2.2747934357e+00 -3.9400578074e+00 2.2747934357e+00 3.9400578074e+00 
69700 4.5200140347e+00 1.7153949631e-03 2.2747563736e+00 -3.9399936139e+00 2.2747563736e+00 3.9399936139e+00 
69800 4.5200145423e+00 1.7416239834e-03 2.2747186687e+00 -3.9399283071e+00 2.2747186687e+00 3.9399283071e+00 
69900 4.5200151015e+00 1.7648952179e-03 2.2746803866e+00 -3.9398620006e+00 2.2746803866e+00 3.9398620006e+00 
70000 4.5200157076e+00 1.7852434956e-03 2.2746415924e+00 -3.9397948070e+00 2.2746415924e+00 3.9397948070e+00 
70100 4.5200163558e+00 1.8027073235e-03 2.2746023502e+00 -3.9397268375e+00 2.2746023502e+00 3.9397268375e+00 
70200 4.5200170414e+00 1.8173287472e-03 2.2745627234e+00 -3.9396582019e+00 2.2745627234e+00 3.9396582019e+00 
70300 4.5200177596e+00 1.8291532077e-03 2.2745227746e+00 -3.9395890085e+00 2.2745227746e+00 3.9395890085e+00 
70400 4.5200185054e+00 1.8382293975e-03 2.2744825651e+00 -3.9395193636e+00 2.2744825651e+00 3.9395193636e+00 
70500 4.5200192741e+00 1.8446091131e-03 2.2744421554e+00 -3.9394493719e+00 2.2744421554e+00 3.9394493719e+00 
70600 4.5200200609e+00 1.8483471069e-03 2.2744016047e+00 -3.9393791361e+00 2.2744016047e+00 3.9393791361e+00 
70700 4.5200208612e+00 1.8495009369e-03 2.2743609711e+00 -3.9393087567e+00 2.2743609711e+00 3.9393087567e+00 
70800 4.5200216704e+00 1.8481308152e-03 2.2743203114e+00 -3.9392383321e+00 2.2743203114e+00 3.9392383321e+00 
70900 4.5200224842e+00 1.8442994561e-03 2.2742796811e+00 -3.9391679584e+00 2.2742796811e+00 3.9391679584e+00 
71000 4.5200232983e+00 1.8380719225e-03 2.2742391344e+00 -3.9390977293e+00 2.2742391344e+00 3.9390977293e+00 
71100 4.5200241087e+00 1.8295154730e-03 2.2741987238e+00 -3.9390277361e+00 2.2741987238e+00 3.9390277361e+00 
71200 4.5200249115e+00 1.8186994074e-03 2.2741585006e+00 -3.9389580675e+00 2.2741585006e+00 3.9389580675e+00 
71300 4.5200257032e+00 1.8056949137e-03 2.2741185145e+00 -3.9388888096e+00 2.2741185145e+00 3.9388888096e+00 
71400 4.5200264804e+00 1.7905749144e-03 2.2740788136e+00 -3.9388200457e+00 2.2740788136e+00 3.9388200457e+00 
71500 4.5200272398e+00 1.7734139135e-03 2.2740394445e+00 -3.9387518563e+00 2.2740394445e+00 3.9387518563e+00 
71600 4.5200279787e+00 1.7542878443e-03 2.2740004520e+00 -3.9386843194e+00 2.2740004520e+00 3.9386843194e+00 
71700 4.5200286943e+00 1.7332739185e-03 2.2739618794e+00 -3.9386175096e+00 2.2739618794e+00 3.9386175096e+00 
71800 4.5200293844e+00 1.7104504758e-03 2.2739237682e+00 -3.9385514991e+00 2.2739237682e+00 3.9385514991e+00 
71900 4.5200300469e+00 1.6858968355e-03 2.2738861582e+00 -3.9384863566e+00 2.2738861582e+00 3.9384863566e+00 
72000 4.5200306798e+00 1.6596931496e-03 2.2738490875e+00 -3.9384221483e+00 2.2738490875e+00 3.9384221483e+00 
72100 4.5200312817e+00 1.6319202574e-03 2.2738125923e+00 -3.9383589368e+00 2.2738125923e+00 3.9383589368e+00 
72200 4.5200318513e+00 1.6026595424e-03 2.2737767073e+00 -3.9382967822e+00 2.2737767073e+00 3.9382967822e+00 
72300 4.5200323875e+00 1.5719927916e-03 2.2737414652e+00 -3.9382357410e+00 2.2737414652e+00 3.9382357410e+00 
72400 4.5200328895e+00 1.5400020565e-03 2.2737068969e+00 -3.9381758669e+00 2.2737068969e+00 3.9381758669e+00 
72500 4.5200333568e+00 1.5067695176e-03 2.2736730315e+00 -3.9381172103e+00 2.2736730315e+00 3.9381172103e+00 
72600 4.5200337892e+00 1.4723773508e-03 2.2736398964e+00 -3.9380598187e+00 2.2736398964e+00 3.9380598187e+00 
72700 4.5200341864e+00 1.4369075970e-03 2.2736075172e+00 -3.9380037363e+00 2.2736075172e+00 3.9380037363e+00 
72800 4.5200345488e+00 1.4004420352e-03 2.2735759176e+00 -3.9379490041e+00 2.2735759176e+00 3.9379490041e+00 
72900 4.5200348766e+00 1.3630620577e-03 2.2735451194e+00 -3.9378956601e+00 2.2735451194e+00 3.9378956601e+00 
73000 4.5200351703e+00 1.3248485500e-03 2.2735151429e+00 -3.9378437393e+00 2.2735151429e+00 3.9378437393e+00 
73100 4.5200354308e+00 1.2858817730e-03 2.2734860064e+00 -3.9377932733e+00 2.2734860064e+00 3.9377932733e+00 
73200 4.5200356588e+00 1.2462412494e-03 2.2734577265e+00 -3.9377442911e+00 2.2734577265e+00 3.9377442911e+00 
73300 4.5200358555e+00 1.2060056536e-03 2.2734303180e+00 -3.9376968183e+00 2.2734303180e+00 3.9376968183e+00 
73400 4.5200360220e+00 1.1652527054e-03 2.2734037942e+00 -3.9376508776e+00 2.2734037942e+00 3.9376508776e+00 
73500 4.5200361596e+00 1.1240590679e-03 2.2733781663e+00 -3.9376064888e+00 2.2733781663e+00 3.9376064888e+00 
73600 4.5200362697e+00 1.0825002486e-03 2.2733534441e+00 -3.9375636688e+00 2.2733534441e+00 3.9375636688e+00 
73700 4.5200363539e+00 1.0406505055e-03 2.2733296357e+00 -3.9375224314e+00 2.2733296357e+00 3.9375224314e+00 
73800 4.5200364136e+00 9.9858275671e-04 2.2733067475e+00 -3.9374827879e+00 2.2733067475e+00 3.9374827879e+00 
73900 4.5200364507e+00 9.5636849451e-04 2.2732847843e+00 -3.9374447465e+00 2.2732847843e+00 3.9374447465e+00 
74000 4.5200364667e+00 9.1407770358e-04 2.2732637494e+00 -3.9374083130e+00 2.2732637494e+00 3.9374083130e+00 
74100 4.5200364634e+00 8.7177878347e-04 2.2732436445e+00 -3.9373734902e+00 2.2732436445e+00 3.9373734902e+00 
74200 4.5200364426e+00 8.2953847560e-04 2.2732244697e+00 -3.9373402786e+00 2.2732244697e+00 3.9373402786e+00 
74300 4.5200364061e+00 7.8742179439e-04 2.2732062239e+00 -3.9373086759e+00 2.2732062239e+00 3.9373086759e+00 
74400 4.5200363556e+00 7.4549196287e-04 2.2731889043e+00 -3.9372786774e+00 2.2731889043e+00 3.9372786774e+00 
74500 4.5200362929e+00 7.0381035275e-04 2.2731725068e+00 -3.9372502762e+00 2.2731725068e+00 3.9372502762e+00 
74600 4.5200362197e+00 6.6243642876e-04 2.2731570260e+00 -3.9372234627e+00 2.2731570260e+00 3.9372234627e+00 
74700 4.5200361377e+00 6.2142769749e-04 2.2731424552e+00 -3.9371982252e+00 2.2731424552e+00 3.9371982252e+00 
74800 4.5200360487e+00 5.8083966055e-04 2.2731287863e+00 -3.9371745500e+00 2.2731287863e+00 3.9371745500e+00 
74900 4.5200359542e+00 5.4072577212e-04 2.2731160101e+00 -3.9371524210e+00 2.2731160101e+00 3.9371524210e+00 
75000 4.5200358559e+00 5.0113740090e-04 2.2731041162e+00 -3.9371318201e+00 2.2731041162e+00 3.9371318201e+00 
75100 4.5200357551e+00 4.6212379622e-04 2.2730930930e+00 -3.9371127274e+00 2.2730930930e+00 3.9371127274e+00 
75200 4.5200356533e+00 4.2373205863e-04 2.2730829279e+00 -3.9370951210e+00 2.2730829279e+00 3.9370951210e+00 
75300 4.5200355519e+00 3.8600711454e-04 2.2730736073e+00 -3.9370789771e+00 2.2730736073e+00 3.9370789771e+00 
75400 4.5200354521e+00 3.4899169508e-04 2.2730651164e+00 -3.9370642705e+00 2.2730651164e+00 3.9370642705e+00 
75500 4.5200353551e+00 3.1272631916e-04 2.2730574397e+00 -3.9370509741e+00 2.2730574397e+00 3.9370509741e+00 
75600 4.5200352620e+00 2.7724928051e-04 2.2730505608e+00 -3.9370390594e+00 2.2730505608e+00 3.9370390594e+00 
75700 4.5200351737e+00 2.4259663865e-04 2.2730444621e+00 -3.9370284963e+00 2.2730444621e+00 3.9370284963e+00 
75800 4.5200350913e+00 2.0880221391e-04 2.2730391258e+00 -3.9370192534e+00 2.2730391258e+00 3.9370192534e+00 
75900 4.5200350155e+00 1.7589758611e-04 2.2730345328e+00 -3.9370112981e+00 2.2730345328e+00 3.9370112981e+00 
76000 4.5200349470e+00 1.4391209718e-04 2.2730306635e+00 -3.9370045964e+00 2.2730306635e+00 3.9370045964e+00 
76100 4.5200348865e+00 1.1287285719e-04 2.2730274979e+00 -3.9369991133e+00 2.2730274979e+00 3.9369991133e+00 
76200 4.5200348344e+00 8.2804754172e-05 2.2730250150e+00 -3.9369948129e+00 2.2730250150e+00 3.9369948129e+00 
76300 4.5200347912e+00 5.3730467216e-05 2.2730231935e+00 -3.9369916580e+00 2.2730231935e+00 3.9369916580e+00 
76400 4.5200347573e+00 2.6239845529e-05 2.2730231935e+00 -3.9369916580e+00 2.2730231935e+00 3.9369916580e+00 
76500 4.5200347328e+00 -5.0586127406e-07 2.2730231935e+00 -3.9369916580e+00 2.2730231935e+00 3.9369916580e+00 
76600 4.5200347181e+00 -2.6484074918e-05 2.2730231935e+00 -3.9369916580e+00 2.2730231935e+00 3.9369916580e+00 
76700 4.5200347131e+00 -5.1674299921e-05 2.2730231935e+00 -3.9369916580e+00 2.2730231935e+00 3.9369916580e+00 
76800 4.5200347181e+00 -7.6058070367e-05 2.2730231935e+00 -3.9369916580e+00 2.2730231935e+00 3.9369916580e+00 
76900 4.5200347327e+00 -9.8813153928e-05 2.2730248666e+00 -3.9369945558e+00 2.2730248666e+00 3.9369945558e+00 
77000 4.5200347570e+00 -1.2047604827e-04 2.2730270402e+00 -3.9369983206e+00 2.2730270402e+00 3.9369983206e+00 
77100 4.5200347907e+00 -1.4104087403e-04 2.2730296903e+00 -3.9370029108e+00 2.2730296903e+00 3.9370029108e+00 
77200 4.5200348335e+00 -1.6050370467e-04 2.2730327928e+00 -3.9370082844e+00 2.2730327928e+00 3.9370082844e+00 
77300 4.5200348853e+00 -1.7886252494e-04 2.2730363234e+00 -3.9370143996e+00 2.2730363234e+00 3.9370143996e+00 
77400 4.5200349455e+00 -1.9611718707e-04 2.2730402579e+00 -3.9370212143e+00 2.2730402579e+00 3.9370212143e+00 
77500 4.5200350139e+00 -2.1226936492e-04 2.2730445719e+00 -3.9370286863e+00 2.2730445719e+00 3.9370286863e+00 
77600 4.5200350899e+00 -2.2732250626e-04 2.2730492411e+00 -3.9370367737e+00 2.2730492411e+00 3.9370367737e+00 
77700 4.5200351731e+00 -2.4128178318e-04 2.2730542415e+00 -3.9370454347e+00 2.2730542415e+00 3.9370454347e+00 
77800 4.5200352630e+00 -2.5415404086e-04 2.2730595490e+00 -3.9370546274e+00 2.2730595490e+00 3.9370546274e+00 
77900 4.5200353590e+00 -2.6594774477e-04 2.2730651395e+00 -3.9370643106e+00 2.2730651395e+00 3.9370643106e+00 
78000 4.5200354606e+00 -2.7667292644e-04 2.2730709895e+00 -3.9370744431e+00 2.2730709895e+00 3.9370744431e+00 
78100 4.5200355672e+00 -2.8634112803e-04 2.2730770754e+00 -3.9370849841e+00 2.2730770754e+00 3.9370849841e+00 
78200 4.5200356783e+00 -2.9496534558e-04 2.2730833739e+00 -3.9370958935e+00 2.2730833739e+00 3.9370958935e+00 
78300 4.5200357932e+00 -3.0255997131e-04 2.2730898622e+00 -3.9371071314e+00 2.2730898622e+00 3.9371071314e+00 
78400 4.5200359114e+00 -3.0914073504e-04 2.2730965174e+00 -3.9371186587e+00 2.2730965174e+00 3.9371186587e+00 
78500 4.5200360323e+00 -3.1472464469e-04 2.2731033174e+00 -3.9371304366e+00 2.2731033174e+00 3.9371304366e+00 
78600 4.5200361553e+00 -3.1932992619e-04 2.2731102402e+00 -3.9371424273e+00 2.2731102402e+00 3.9371424273e+00 
78700 4.5200362798e+00 -3.2297596282e-04 2.2731172643e+00 -3.9371545933e+00 2.2731172643e+00 3.9371545933e+00 
78800 4.5200364052e+00 -3.2568323411e-04 2.2731243686e+00 -3.9371668983e+00 2.2731243686e+00 3.9371668983e+00 
78900 4.5200365311e+00 -3.2747325438e-04 2.2731315323e+00 -3.9371793063e+00 2.2731315323e+00 3.9371793063e+00 
79000 4.5200366569e+00 -3.2836851111e-04 2.2731387355e+00 -3.9371917825e+00 2.2731387355e+00 3.9371917825e+00 
79100 4.5200367821e+00 -3.2839240314e-04 2.2731459583e+00 -3.9372042928e+00 2.2731459583e+00 3.9372042928e+00 
79200 4.5200369062e+00 -3.2756917900e-04 2.2731531816e+00 -3.9372168039e+00 2.2731531816e+00 3.9372168039e+00 
79300 4.5200370287e+00 -3.2592387519e-04 2.2731603868e+00 -3.9372292836e+00 2.2731603868e+00 3.9372292836e+00 
79400 4.5200371493e+00 -3.2348225479e-04 2.2731675557e+00 -3.9372417006e+00 2.2731675557e+00 3.9372417006e+00 
79500 4.5200372676e+00 -3.2027074634e-04 2.2731746710e+00 -3.9372540246e+00 2.2731746710e+00 3.9372540246e+00 
79600 4.5200373831e+00 -3.1631638310e-04 2.2731817155e+00 -3.9372662261e+00 2.2731817155e+00 3.9372662261e+00 
79700 4.5200374955e+00 -3.1164674285e-04 2.2731886731e+00 -3.9372782770e+00 2.2731886731e+00 3.9372782770e+00 
79800 4.5200376046e+00 -3.0628988828e-04 2.2731955279e+00 -3.9372901499e+00 2.2731955279e+00 3.9372901499e+00 
79900 4.5200377101e+00 -3.0027430799e-04 2.2732022649e+00 -3.9373018187e+00 2.2732022649e+00 3.9373018187e+00 
80000 4.5200378116e+00 -2.9362885836e-04 2.2732088696e+00 -3.9373132584e+00 2.2732088696e+00 3.9373132584e+00 
80100 4.5200379092e+00 -2.8638270616e-04 2.2732153281e+00 -3.9373244447e+00 2.2732153281e+00 3.9373244447e+00 
80200 4.5200380024e+00 -2.7856527210e-04 2.2732216271e+00 -3.9373353551e+00 2.2732216271e+00 3.9373353551e+00 
80300 4.5200380913e+00 -2.7020617542e-04 2.2732277542e+00 -3.9373459675e+00 2.2732277542e+00 3.9373459675e+00 
80400 4.5200381756e+00 -2.6133517947e-04 2.2732336975e+00 -3.9373562615e+00 2.2732336975e+00 3.9373562615e+00 
80500 4.5200382554e+00 -2.5198213844e-04 2.2732394456e+00 -3.9373662175e+00 2.2732394456e+00 3.9373662175e+00 
80600 4.5200383306e+00 -2.4217694528e-04 2.2732449879e+00 -3.9373758171e+00 2.2732449879e+00 3.9373758171e+00 
80700 4.5200384011e+00 -2.3194948087e-04 2.2732503146e+00 -3.9373850432e+00 2.2732503146e+00 3.9373850432e+00 
80800 4.5200384670e+00 -2.2132956448e-04 2.2732554163e+00 -3.9373938796e+00 2.2732554163e+00 3.9373938796e+00 
80900 4.5200385282e+00 -2.1034690552e-04 2.2732602844e+00 -3.9374023115e+00 2.2732602844e+00 3.9374023115e+00 
81000 4.5200385849e+00 -1.9903105683e-04 2.2732649110e+00 -3.9374103249e+00 2.2732649110e+00 3.9374103249e+00 
81100 4.5200386372e+00 -1.8741136926e-04 2.2732692886e+00 -3.9374179072e+00 2.2732692886e+00 3.9374179072e+00 
81200 4.5200386850e+00 -1.7551694780e-04 2.2732734107e+00 -3.9374250468e+00 2.2732734107e+00 3.9374250468e+00 
81300 4.5200387287e+00 -1.6337660927e-04 2.2732772712e+00 -3.9374317333e+00 2.2732772712e+00 3.9374317333e+00 
81400 4.5200387682e+00 -1.5101884144e-04 2.2732808646e+00 -3.9374379573e+00 2.2732808646e+00 3.9374379573e+00 
81500 4.5200388038e+00 -1.3847176387e-04 2.2732841862e+00 -3.9374437105e+00 2.2732841862e+00 3.9374437105e+00 
81600 4.5200388356e+00 -1.2576309024e-04 2.2732872318e+00 -3.9374489857e+00 2.2732872318e+00 3.9374489857e+00 
81700 4.5200388638e+00 -1.1292009240e-04 2.2732899979e+00 -3.9374537767e+00 2.2732899979e+00 3.9374537767e+00 
81800 4.5200388886e+00 -9.9969565988e-05 2.2732924815e+00 -3.9374580785e+00 2.2732924815e+00 3.9374580785e+00 
81900 4.5200389102e+00 -8.6937797796e-05 2.2732946803e+00 -3.9374618869e+00 2.2732946803e+00 3.9374618869e+00 
82000 4.5200389288e+00 -7.3850534717e-05 2.2732965925e+00 -3.9374651989e+00 2.2732965925e+00 3.9374651989e+00 
82100 4.5200389447e+00 -6.0732954464e-05 2.2732982168e+00 -3.9374680122e+00 2.2732982168e+00 3.9374680122e+00 
82200 4.5200389581e+00 -4.8252251216e-05 2.2732982168e+00 -3.9374680122e+00 2.2732982168e+00 3.9374680122e+00 
82300 4.5200389691e+00 -3.5661910886e-05 2.2732982168e+00 -3.9374680122e+00 2.2732982168e+00 3.9374680122e+00 
82400 4.5200389779e+00 -2.2983605353e-05 2.2732982168e+00 -3.9374680122e+00 2.2732982168e+00 3.9374680122e+00 
82500 4.5200389849e+00 -1.0238398052e-05 2.2732982168e+00 -3.9374680122e+00 2.2732982168e+00 3.9374680122e+00 
82600 4.5200389902e+00 2.5532613500e-06 2.2732982168e+00 -3.9374680122e+00 2.2732982168e+00 3.9374680122e+00 
82700 4.5200389941e+00 1.5371541349e-05 2.2732982168e+00 -3.9374680122e+00 2.2732982168e+00 3.9374680122e+00 
82800 4.5200389968e+00 2.8197232142e-05 2.2732982168e+00 -3.9374680122e+00 2.2732982168e+00 3.9374680122e+00 
82900 4.5200389985e+00 4.1011748383e-05 2.2732982168e+00 -3.9374680122e+00 2.2732982168e+00 3.9374680122e+00 
83000 4.5200389994e+00 5.3797131111e-05 2.2732982168e+00 -3.9374680122e+00 2.2732982168e+00 3.9374680122e+00 
83100 4.5200389998e+00 6.6536048975e-05 2.2732982168e+00 -3.9374680122e+00 2.2732982168e+00 3.9374680122e+00 
83200 4.5200389999e+00 7.9211798740e-05 2.2732982168e+00 -3.9374680122e+00 2.2732982168e+00 3.9374680122e+00 
83300 4.5200389996e+00 9.0969973594e-05 2.2732964746e+00 -3.9374649946e+00 2.2732964746e+00 3.9374649946e+00 
83400 4.5200389992e+00 1.0249464966e-04 2.2732944737e+00 -3.9374615291e+00 2.2732944737e+00 3.9374615291e+00 
83500 4.5200389989e+00 1.1377062778e-04 2.2732922194e+00 -3.9374576245e+00 2.2732922194e+00 3.9374576245e+00 
83600 4.5200389989e+00 1.2478352158e-04 2.2732897171e+00 -3.9374532903e+00 2.2732897171e+00 3.9374532903e+00 
83700 4.5200389992e+00 1.3551976090e-04 2.2732869725e+00 -3.9374485366e+00 2.2732869725e+00 3.9374485366e+00 
83800 4.5200390000e+00 1.4596659375e-04 2.2732839918e+00 -3.9374433739e+00 2.2732839918e+00 3.9374433739e+00 
83900 4.5200390014e+00 1.5611208692e-04 2.2732807813e+00 -3.9374378132e+00 2.2732807813e+00 3.9374378132e+00 
84000 4.5200390035e+00 1.6594512510e-04 2.2732773477e+00 -3.9374318659e+00 2.2732773477e+00 3.9374318659e+00 
84100 4.5200390063e+00 1.7545540876e-04 2.2732736978e+00 -3.9374255441e+00 2.2732736978e+00 3.9374255441e+00 
84200 4.5200390101e+00 1.8463345063e-04 2.2732698387e+00 -3.9374188600e+00 2.2732698387e+00 3.9374188600e+00 
84300 4.5200390147e+00 1.9347057093e-04 2.2732657777e+00 -3.9374118262e+00 2.2732657777e+00 3.9374118262e+00 
84400 4.5200390204e+00 2.0195889145e-04 2.2732615224e+00 -3.9374044557e+00 2.2732615224e+00 3.9374044557e+00 
84500 4.5200390271e+00 2.1009132828e-04 2.2732570804e+00 -3.9373967618e+00 2.2732570804e+00 3.9373967618e+00 
84600 4.5200390348e+00 2.1786158356e-04 2.2732524594e+00 -3.9373887582e+00 2.2732524594e+00 3.9373887582e+00 
84700 4.5200390436e+00 2.2526413601e-04 2.2732476676e+00 -3.9373804584e+00 2.2732476676e+00 3.9373804584e+00 
84800 4.5200390535e+00 2.3229423043e-04 2.2732427129e+00 -3.9373718767e+00 2.2732427129e+00 3.9373718767e+00 
84900 4.5200390644e+00 2.3894786624e-04 2.2732376036e+00 -3.9373630271e+00 2.2732376036e+00 3.9373630271e+00 
85000 4.5200390765e+00 2.4522178497e-04 2.2732323479e+00 -3.9373539240e+00 2.2732323479e+00 3.9373539240e+00 
85100 4.5200390895e+00 2.5111345686e-04 2.2732269542e+00 -3.9373445819e+00 2.2732269542e+00 3.9373445819e+00 
85200 4.5200391037e+00 2.5662106661e-04 2.2732214310e+00 -3.9373350153e+00 2.2732214310e+00 3.9373350153e+00 
85300 4.5200391188e+00 2.6174349820e-04 2.2732157865e+00 -3.9373252388e+00 2.2732157865e+00 3.9373252388e+00 
85400 4.5200391349e+00 2.6648031911e-04 2.2732100294e+00 -3.9373152672e+00 2.2732100294e+00 3.9373152672e+00 
85500 4.5200391519e+00 2.7083176357e-04 2.2732041681e+00 -3.9373051151e+00 2.2732041681e+00 3.9373051151e+00 
85600 4.5200391698e+00 2.7479871529e-04 2.2731982110e+00 -3.9372947972e+00 2.2731982110e+00 3.9372947972e+00 
85700 4.5200391885e+00 2.7838268948e-04 2.2731921667e+00 -3.9372843281e+00 2.2731921667e+00 3.9372843281e+00 
85800 4.5200392079e+00 2.8158581427e-04 2.2731860436e+00 -3.9372737225e+00 2.2731860436e+00 3.9372737225e+00 
85900 4.5200392281e+00 2.8441081159e-04 2.2731798499e+00 -3.9372629948e+00 2.2731798499e+00 3.9372629948e+00 
86000 4.5200392488e+00 2.8686097752e-04 2.2731735941e+00 -3.9372521595e+00 2.2731735941e+00 3.9372521595e+00 
86100 4.5200392701e+00 2.8894016223e-04 2.2731672844e+00 -3.9372412308e+00 2.2731672844e+00 3.9372412308e+00 
86200 4.5200392919e+00 2.9065274944e-04 2.2731609290e+00 -3.9372302228e+00 2.2731609290e+00 3.9372302228e+00 
86300 4.5200393141e+00 2.9200363554e-04 2.2731545359e+00 -3.9372191496e+00 2.2731545359e+00 3.9372191496e+00 
86400 4.5200393367e+00 2.9299820838e-04 2.2731481130e+00 -3.9372080248e+00 2.2731481130e+00 3.9372080248e+00 
86500 4.5200393595e+00 2.9364232583e-04 2.2731416682e+00 -3.9371968622e+00 2.2731416682e+00 3.9371968622e+00 
86600 4.5200393825e+00 2.9394229394e-04 2.2731352093e+00 -3.9371856749e+00 2.2731352093e+00 3.9371856749e+00 
86700 4.5200394056e+00 2.9390484513e-04 2.2731287437e+00 -3.9371744762e+00 2.2731287437e+00 3.9371744762e+00 
86800 4.5200394288e+00 2.9353711600e-04 2.2731222789e+00 -3.9371632789e+00 2.2731222789e+00 3.9371632789e+00 
86900 4.5200394520e+00 2.9284662521e-04 2.2731158223e+00 -3.9371520956e+00 2.2731158223e+00 3.9371520956e+00 
87000 4.5200394751e+00 2.9184125115e-04 2.2731093807e+00 -3.9371409386e+00 2.2731093807e+00 3.9371409386e+00 
87100 4.5200394980e+00 2.9052920964e-04 2.2731029613e+00 -3.9371298198e+00 2.2731029613e+00 3.9371298198e+00 
87200 4.5200395208e+00 2.8891903163e-04 2.2730965707e+00 -3.9371187510e+00 2.2730965707e+00 3.9371187510e+00 
87300 4.5200395433e+00 2.8701954091e-04 2.2730902155e+00 -3.9371077435e+00 2.2730902155e+00 3.9371077435e+00 
87400 4.5200395654e+00 2.8483983192e-04 2.2730839021e+00 -3.9370968083e+00 2.2730839021e+00 3.9370968083e+00 
87500 4.5200395872e+00 2.8238924766e-04 2.2730776366e+00 -3.9370859562e+00 2.2730776366e+00 3.9370859562e+00 
87600 4.5200396086e+00 2.7967735772e-04 2.2730714250e+00 -3.9370751974e+00 2.2730714250e+00 3.9370751974e+00 
87700 4.5200396296e+00 2.7671393659e-04 2.2730652731e+00 -3.9370645419e+00 2.2730652731e+00 3.9370645419e+00 
87800 4.5200396500e+00 2.7350894201e-04 2.2730591863e+00 -3.9370539992e+00 2.2730591863e+00 3.9370539992e+00 
87900 4.5200396700e+00 2.7007249367e-04 2.2730531699e+00 -3.9370435787e+00 2.2730531699e+00 3.9370435787e+00 
88000 4.5200396893e+00 2.6641485225e-04 2.2730472292e+00 -3.9370332890e+00 2.2730472292e+00 3.9370332890e+00 
88100 4.5200397081e+00 2.6254639852e-04 2.2730413689e+00 -3.9370231387e+00 2.2730413689e+00 3.9370231387e+00 
88200 4.5200397263e+00 2.5847761303e-04 2.2730355937e+00 -3.9370131357e+00 2.2730355937e+00 3.9370131357e+00 
88300 4.5200397438e+00 2.5421905598e-04 2.2730299080e+00 -3.9370032877e+00 2.2730299080e+00 3.9370032877e+00 
88400 4.5200397607e+00 2.4978134754e-04 2.2730243159e+00 -3.9369936019e+00 2.2730243159e+00 3.9369936019e+00 
88500 4.5200397770e+00 2.4517514851e-04 2.2730188214e+00 -3.9369840852e+00 2.2730188214e+00 3.9369840852e+00 
88600 4.5200397925e+00 2.4041114148e-04 2.2730134283e+00 -3.9369747440e+00 2.2730134283e+00 3.9369747440e+00 
88700 4.5200398075e+00 2.3550001237e-04 2.2730081399e+00 -3.9369655843e+00 2.2730081399e+00 3.9369655843e+00 
88800 4.5200398217e+00 2.3045243240e-04 2.2730029595e+00 -3.9369566116e+00 2.2730029595e+00 3.9369566116e+00 
88900 4.5200398353e+00 2.2527904071e-04 2.2729978902e+00 -3.9369478313e+00 2.2729978902e+00 3.9369478313e+00 
89000 4.5200398483e+00 2.1999042719e-04 2.2729929346e+00 -3.9369392480e+00 2.2729929346e+00 3.9369392480e+00 
89100 4.5200398606e+00 2.1459711615e-04 2.2729880954e+00 -3.9369308662e+00 2.2729880954e+00 3.9369308662e+00 
89200 4.5200398722e+00 2.0910955021e-04 2.2729833748e+00 -3.9369226899e+00 2.2729833748e+00 3.9369226899e+00 
89300 4.5200398833e+00 2.0353807499e-04 2.2729787749e+00 -3.9369147227e+00 2.2729787749e+00 3.9369147227e+00 
89400 4.5200398938e+00 1.9789292416e-04 2.2729742976e+00 -3.9369069677e+00 2.2729742976e+00 3.9369069677e+00 
89500 4.5200399036e+00 1.9218420514e-04 2.2729699444e+00 -3.9368994278e+00 2.2729699444e+00 3.9368994278e+00 
89600 4.5200399130e+00 1.8642188542e-04 2.2729657168e+00 -3.9368921054e+00 2.2729657168e+00 3.9368921054e+00 
89700 4.5200399217e+00 1.8061577930e-04 2.2729616160e+00 -3.9368850025e+00 2.2729616160e+00 3.9368850025e+00 
89800 4.5200399300e+00 1.7477553543e-04 2.2729576428e+00 -3.9368781208e+00 2.2729576428e+00 3.9368781208e+00 
89900 4.5200399378e+00 1.6891062476e-04 2.2729537982e+00 -3.9368714617e+00 2.2729537982e+00 3.9368714617e+00 
90000 4.5200399452e+00 1.6303032919e-04 2.2729500825e+00 -3.9368650260e+00 2.2729500825e+00 3.9368650260e+00 
90100 4.5200399521e+00 1.5714373082e-04 2.2729464962e+00 -3.9368588143e+00 2.2729464962e+00 3.9368588143e+00 
90200 4.5200399586e+00 1.5125970176e-04 2.2729430394e+00 -3.9368528269e+00 2.2729430394e+00 3.9368528269e+00 
90300 4.5200399647e+00 1.4538689458e-04 2.2729397120e+00 -3.9368470637e+00 2.2729397120e+00 3.9368470637e+00 
90400 4.5200399705e+00 1.3953373335e-04 2.2729365137e+00 -3.9368415242e+00 2.2729365137e+00 3.9368415242e+00 
90500 4.5200399760e+00 1.3370840536e-04 2.2729334443e+00 -3.9368362077e+00 2.2729334443e+00 3.9368362077e+00 
90600 4.5200399812e+00 1.2791885331e-04 2.2729305030e+00 -3.9368311132e+00 2.2729305030e+00 3.9368311132e+00 
90700 4.5200399862e+00 1.2217276822e-04 2.2729276890e+00 -3.9368262393e+00 2.2729276890e+00 3.9368262393e+00 
90800 4.5200399909e+00 1.1647758291e-04 2.2729250014e+00 -3.9368215843e+00 2.2729250014e+00 3.9368215843e+00 
90900 4.5200399954e+00 1.1084046605e-04 2.2729224392e+00 -3.9368171463e+00 2.2729224392e+00 3.9368171463e+00 
91000 4.5200399998e+00 1.0526831684e-04 2.2729200009e+00 -3.9368129231e+00 2.2729200009e+00 3.9368129231e+00 
91100 4.5200400040e+00 9.9767760245e-05 2.2729176852e+00 -3.9368089121e+00 2.2729176852e+00 3.9368089121e+00 
91200 4.5200400080e+00 9.4345142831e-05 2.2729154905e+00 -3.9368051108e+00 2.2729154905e+00 3.9368051108e+00 
91300 4.5200400120e+00 8.9006529144e-05 2.2729134150e+00 -3.9368015161e+00 2.2729134150e+00 3.9368015161e+00 
91400 4.5200400159e+00 8.3757698698e-05 2.2729114571e+00 -3.9367981247e+00 2.2729114571e+00 3.9367981247e+00 
91500 4.5200400198e+00 7.8604143440e-05 2.2729096145e+00 -3.9367949334e+00 2.2729096145e+00 3.9367949334e+00 
91600 4.5200400236e+00 7.3551065877e-05 2.2729078854e+00 -3.9367919384e+00 2.2729078854e+00 3.9367919384e+00 
91700 4.5200400274e+00 6.8603377605e-05 2.2729062674e+00 -3.9367891360e+00 2.2729062674e+00 3.9367891360e+00 
91800 4.5200400312e+00 6.4492675773e-05 2.2729062674e+00 -3.9367891360e+00 2.2729062674e+00 3.9367891360e+00 
91900 4.5200400351e+00 6.0457436083e-05 2.2729062674e+00 -3.9367891360e+00 2.2729062674e+00 3.9367891360e+00 
92000 4.5200400390e+00 5.6502646692e-05 2.2729062674e+00 -3.9367891360e+00 2.2729062674e+00 3.9367891360e+00 
92100 4.5200400429e+00 5.2632945424e-05 2.2729062674e+00 -3.9367891360e+00 2.2729062674e+00 3.9367891360e+00 
92200 4.5200400468e+00 4.8852628480e-05 2.2729062674e+00 -3.9367891360e+00 2.2729062674e+00 3.9367891360e+00 
92300 4.5200400508e+00 4.5165659256e-05 2.2729062674e+00 -3.9367891360e+00 2.2729062674e+00 3.9367891360e+00 
92400 4.5200400549e+00 4.1575677205e-05 2.2729062674e+00 -3.9367891360e+00 2.2729062674e+00 3.9367891360e+00 
92500 4.5200400590e+00 3.8086006821e-05 2.2729062674e+00 -3.9367891360e+00 2.2729062674e+00 3.9367891360e+00 
92600 4.5200400632e+00 3.4699666580e-05 2.2729062674e+00 -3.9367891360e+00 2.2729062674e+00 3.9367891360e+00 
92700 4.5200400675e+00 3.1419377953e-05 2.2729062674e+00 -3.9367891360e+00 2.2729062674e+00 3.9367891360e+00 
92800 4.5200400718e+00 2.8247574385e-05 2.2729062674e+00 -3.9367891360e+00 2.2729062674e+00 3.9367891360e+00 
92900 4.5200400763e+00 2.5186410273e-05 2.2729062674e+00 -3.9367891360e+00 2.2729062674e+00 3.9367891360e+00 
93000 4.5200400808e+00 2.2237769916e-05 2.2729062674e+00 -3.9367891360e+00 2.2729062674e+00 3.9367891360e+00 
93100 4.5200400855e+00 1.9403276394e-05 2.2729062674e+00 -3.9367891360e+00 2.2729062674e+00 3.9367891360e+00 
93200 4.5200400902e+00 1.6684300417e-05 2.2729062674e+00 -3.9367891360e+00 2.2729062674e+00 3.9367891360e+00 
93300 4.5200400950e+00 1.4081969093e-05 2.2729062674e+00 -3.9367891360e+00 2.2729062674e+00 3.9367891360e+00 
93400 4.5200400999e+00 1.1597174615e-05 2.2729062674e+00 -3.9367891360e+00 2.2729062674e+00 3.9367891360e+00 
93500 4.5200401049e+00 9.2305828556e-06 2.2729062674e+00 -3.9367891360e+00 2.2729062674e+00 3.9367891360e+00 
93600 4.5200401099e+00 6.9826418895e-06 2.2729062674e+00 -3.9367891360e+00 2.2729062674e+00 3.9367891360e+00 
93700 4.5200401151e+00 4.8535903701e-06 2.2729062674e+00 -3.9367891360e+00 2.2729062674e+00 3.9367891360e+00 
93800 4.5200401203e+00 2.8434658336e-06 2.2729062674e+00 -3.9367891360e+00 2.2729062674e+00 3.9367891360e+00 
93900 4.5200401255e+00 9.5211287237e-07 2.2729062674e+00 -3.9367891360e+00 2.2729062674e+00 3.9367891360e+00 
94000 4.5200401308e+00 -8.2080881475e-07 2.2729062674e+00 -3.9367891360e+00 2.2729062674e+00 3.9367891360e+00 
94100 4.5200401361e+00 -2.4758165069e-06 2.2729062674e+00 -3.9367891360e+00 2.2729062674e+00 3.9367891360e+00 
94200 4.5200401415e+00 -4.0135966498e-06 2.2729062674e+00 -3.9367891360e+00 2.2729062674e+00 3.9367891360e+00 
94300 4.5200401469e+00 -5.4349971898e-06 2.2729062674e+00 -3.9367891360e+00 2.2729062674e+00 3.9367891360e+00 
94400 4.5200401523e+00 -6.7410200576e-06 2.2729062674e+00 -3.9367891360e+00 2.2729062674e+00 3.9367891360e+00 
94500 4.5200401577e+00 -7.9328137626e-06 2.2729062674e+00 -3.9367891360e+00 2.2729062674e+00 3.9367891360e+00 
94600 4.5200401631e+00 -9.0116661447e-06 2.2729062674e+00 -3.9367891360e+00 2.2729062674e+00 3.9367891360e+00 
94700 4.5200401685e+00 -9.9789972545e-06 2.2729062674e+00 -3.9367891360e+00 2.2729062674e+00 3.9367891360e+00 
94800 4.5200401739e+00 -1.0836352382e-05 2.2729062674e+00 -3.9367891360e+00 2.2729062674e+00 3.9367891360e+00 
94900 4.5200401793e+00 -1.1585395226e-05 2.2729062674e+00 -3.9367891360e+00 2.2729062674e+00 3.9367891360e+00 
95000 4.5200401846e+00 -1.2227901186e-05 2.2729062674e+00 -3.9367891360e+00 2.2729062674e+00 3.9367891360e+00 
95100 4.5200401899e+00 -1.2765750840e-05 2.2729062674e+00 -3.9367891360e+00 2.2729062674e+00 3.9367891360e+00 
95200 4.5200401951e+00 -1.3200923500e-05 2.2729062674e+00 -3.9367891360e+00 2.2729062674e+00 3.9367891360e+00 
95300 4.5200402002e+00 -1.3535490961e-05 2.2729062674e+00 -3.9367891360e+00 2.2729062674e+00 3.9367891360e+00 
95400 4.5200402053e+00 -1.3771611370e-05 2.2729062674e+00 -3.9367891360e+00 2.2729062674e+00 3.9367891360e+00 
95500 4.5200402103e+00 -1.3911523226e-05 2.2729062674e+00 -3.9367891360e+00 2.2729062674e+00 3.9367891360e+00 
95600 4.5200402153e+00 -1.3957539525e-05 2.2729062674e+00 -3.9367891360e+00 2.2729062674e+00 3.9367891360e+00 
95700 4.5200402201e+00 -1.3912042043e-05 2.2729062674e+00 -3.9367891360e+00 2.2729062674e+00 3.9367891360e+00 
95800 4.5200402249e+00 -1.3777475755e-05 2.2729062674e+00 -3.9367891360e+00 2.2729062674e+00 3.9367891360e+00 
95900 4.5200402296e+00 -1.3556343383e-05 2.2729062674e+00 -3.9367891360e+00 2.2729062674e+00 3.9367891360e+00 
96000 4.5200402341e+00 -1.3251200064e-05 2.2729062674e+00 -3.9367891360e+00 2.2729062674e+00 3.9367891360e+00 
96100 4.5200402386e+00 -1.2864648194e-05 2.2729062674e+00 -3.9367891360e+00 2.2729062674e+00 3.9367891360e+00 
96200 4.5200402430e+00 -1.2399332347e-05 2.2729062674e+00 -3.9367891360e+00 2.2729062674e+00 3.9367891360e+00 
96300 4.5200402472e+00 -1.1857934350e-05 2.2729062674e+00 -3.9367891360e+00 2.2729062674e+00 3.9367891360e+00 
96400 4.5200402513e+00 -1.1243168490e-05 2.2729062674e+00 -3.9367891360e+00 2.2729062674e+00 3.9367891360e+00 
96500 4.5200402554e+00 -1.0557776833e-05 2.2729062674e+00 -3.9367891360e+00 2.2729062674e+00 3.9367891360e+00 
96600 4.5200402593e+00 -9.8045246691e-06 2.2729062674e+00 -3.9367891360e+00 2.2729062674e+00 3.9367891360e+00 
96700 4.5200402631e+00 -8.9861961021e-06 2.2729062674e+00 -3.9367891360e+00 2.2729062674e+00 3.9367891360e+00 
96800 4.5200402668e+00 -8.1055897055e-06 2.2729062674e+00 -3.9367891360e+00 2.2729062674e+00 3.9367891360e+00 
96900 4.5200402704e+00 -7.1655143823e-06 2.2729062674e+00 -3.9367891360e+00 2.2729062674e+00 3.9367891360e+00 
97000 4.5200402739e+00 -6.1687852684e-06 2.2729062674e+00 -3.9367891360e+00 2.2729062674e+00 3.9367891360e+00 
97100 4.5200402772e+00 -5.1182197850e-06 2.2729062674e+00 -3.9367891360e+00 2.2729062674e+00 3.9367891360e+00 
97200 4.5200402805e+00 -4.0166338252e-06 2.2729062674e+00 -3.9367891360e+00 2.2729062674e+00 3.9367891360e+00 
97300 4.5200402836e+00 -2.8668380217e-06 2.2729062674e+00 -3.9367891360e+00 2.2729062674e+00 3.9367891360e+00 
97400 4.5200402867e+00 -1.6716341482e-06 2.2729062674e+00 -3.9367891360e+00 2.2729062674e+00 3.9367891360e+00 
97500 4.5200402896e+00 -4.3381164752e-07 2.2729062674e+00 -3.9367891360e+00 2.2729062674e+00 3.9367891360e+00 
97600 4.5200402925e+00 8.4385576046e-07 2.2729062674e+00 -3.9367891360e+00 2.2729062674e+00 3.9367891360e+00 
97700 4.5200402953e+00 2.1586133295e-06 2.2729062674e+00 -3.9367891360e+00 2.2729062674e+00 3.9367891360e+00 
97800 4.5200402979e+00 3.5077284266e-06 2.2729062674e+00 -3.9367891360e+00 2.2729062674e+00 3.9367891360e+00 
97900 4.5200403005e+00 4.8884935859e-06 2.2729062674e+00 -3.9367891360e+00 2.2729062674e+00 3.9367891360e+00 
98000 4.5200403030e+00 6.2982294280e-06 2.2729062674e+00 -3.9367891360e+00 2.2729062674e+00 3.9367891360e+00 
98100 4.5200403055e+00 7.7342874689e-06 2.2729062674e+00 -3.9367891360e+00 2.2729062674e+00 3.9367891360e+00 
98200 4.5200403078e+00 9.1940528375e-06 2.2729062674e+00 -3.9367891360e+00 2.2729062674e+00 3.9367891360e+00 
98300 4.5200403101e+00 1.0674946872e-05 2.2729062674e+00 -3.9367891360e+00 2.2729062674e+00 3.9367891360e+00 
98400 4.5200403123e+00 1.2174429613e-05 2.2729062674e+00 -3.9367891360e+00 2.2729062674e+00 3.9367891360e+00 
98500 4.5200403145e+00 1.3690002175e-05 2.2729062674e+00 -3.9367891360e+00 2.2729062674e+00 3.9367891360e+00 
98600 4.5200403166e+00 1.5219209037e-05 2.2729062674e+00 -3.9367891360e+00 2.2729062674e+00 3.9367891360e+00 
98700 4.5200403187e+00 1.6759640197e-05 2.2729062674e+00 -3.9367891360e+00 2.2729062674e+00 3.9367891360e+00 
98800 4.5200403207e+00 1.8308933253e-05 2.2729062674e+00 -3.9367891360e+00 2.2729062674e+00 3.9367891360e+00 
98900 4.5200403226e+00 1.9864775339e-05 2.2729062674e+00 -3.9367891360e+00 2.2729062674e+00 3.9367891360e+00 
99000 4.5200403246e+00 2.1424904989e-05 2.2729062674e+00 -3.9367891360e+00 2.2729062674e+00 3.9367891360e+00 
99100 4.5200403265e+00 2.2987113877e-05 2.2729062674e+00 -3.9367891360e+00 2.2729062674e+00 3.9367891360e+00 
99200 4.5200403283e+00 2.4549248468e-05 2.2729062674e+00 -3.9367891360e+00 2.2729062674e+00 3.9367891360e+00 
99300 4.5200403301e+00 2.6109211545e-05 2.2729062674e+00 -3.9367891360e+00 2.2729062674e+00 3.9367891360e+00 
99400 4.5200403319e+00 2.7664963660e-05 2.2729062674e+00 -3.9367891360e+00 2.2729062674e+00 3.9367891360e+00 
99500 4.5200403337e+00 2.9214524437e-05 2.2729062674e+00 -3.9367891360e+00 2.2729062674e+00 3.9367891360e+00 
99600 4.5200403355e+00 3.0755973840e-05 2.2729062674e+00 -3.9367891360e+00 2.2729062674e+00 3.9367891360e+00 
99700 4.5200403372e+00 3.2287453272e-05 2.2729062674e+00 -3.9367891360e+00 2.2729062674e+00 3.9367891360e+00 
99800 4.5200403390e+00 3.3807166609e-05 2.2729062674e+00 -3.9367891360e+00 2.2729062674e+00 3.9367891360e+00 
99900 4.5200403407e+00 3.5313381139e-05 2.2729062674e+00 -3.9367891360e+00 2.2729062674e+00 3.9367891360e+00 
100000 4.5200403424e+00 3.6804428378e-05 2.2729062674e+00 -3.9367891360e+00 2.2729062674e+00 3.9367891360e+00 
100100 4.5200403441e+00 3.8278704805e-05 2.2729062674e+00 -3.9367891360e+00 2.2729062674e+00 3.9367891360e+00 
100200 4.5200403458e+00 3.9734672494e-05 2.2729062674e+00 -3.9367891360e+00 2.2729062674e+00 3.9367891360e+00 
100300 4.5200403475e+00 4.1170859648e-05 2.2729062674e+00 -3.9367891360e+00 2.2729062674e+00 3.9367891360e+00 
100400 4.5200403491e+00 4.2585861034e-05 2.2729062674e+00 -3.9367891360e+00 2.2729062674e+00 3.9367891360e+00 
100500 4.5200403508e+00 4.3978338348e-05 2.2729062674e+00 -3.9367891360e+00 2.2729062674e+00 3.9367891360e+00 
100600 4.5200403525e+00 4.5347020438e-05 2.2729062674e+00 -3.9367891360e+00 2.2729062674e+00 3.9367891360e+00 
100700 4.5200403542e+00 4.6690703498e-05 2.2729062674e+00 -3.9367891360e+00 2.2729062674e+00 3.9367891360e+00 
100800 4.5200403558e+00 4.8008251100e-05 2.2729062674e+00 -3.9367891360e+00 2.2729062674e+00 3.9367891360e+00 
100900 4.5200403575e+00 4.9298594219e-05 2.2729062674e+00 -3.9367891360e+00 2.2729062674e+00 3.9367891360e+00 
101000 4.5200403592e+00 5.0560731080e-05 2.2729062674e+00 -3.9367891360e+00 2.2729062674e+00 3.9367891360e+00 
101100 4.5200403609e+00 5.1793726996e-05 2.2729062674e+00 -3.9367891360e+00 2.2729062674e+00 3.9367891360e+00 
101200 4.5200403625e+00 5.2996714085e-05 2.2729062674e+00 -3.9367891360e+00 2.2729062674e+00 3.9367891360e+00 
101300 4.5200403642e+00 5.4168890897e-05 2.2729062674e+00 -3.9367891360e+00 2.2729062674e+00 3.9367891360e+00 
101400 4.5200403659e+00 5.5309521976e-05 2.2729062674e+00 -3.9367891360e+00 2.2729062674e+00 3.9367891360e+00 
101500 4.5200403675e+00 5.6417937350e-05 2.2729062674e+00 -3.9367891360e+00 2.2729062674e+00 3.9367891360e+00 
101600 4.5200403692e+00 5.7493531929e-05 2.2729062674e+00 -3.9367891360e+00 2.2729062674e+00 3.9367891360e+00 
101700 4.5200403709e+00 5.8535764810e-05 2.2729062674e+00 -3.9367891360e+00 2.2729062674e+00 3.9367891360e+00 
101800 4.5200403725e+00 5.9544158557e-05 2.2729062674e+00 -3.9367891360e+00 2.2729062674e+00 3.9367891360e+00 
101900 4.5200403741e+00 6.0518298372e-05 2.2729062674e+00 -3.9367891360e+00 2.2729062674e+00 3.9367891360e+00 
102000 4.5200403758e+00 6.1457831208e-05 2.2729062674e+00 -3.9367891360e+00 2.2729062674e+00 3.9367891360e+00 
102100 4.5200403774e+00 6.2362464806e-05 2.2729062674e+00 -3.9367891360e+00 2.2729062674e+00 3.9367891360e+00 
102200 4.5200403790e+00 6.3231966699e-05 2.2729062674e+00 -3.9367891360e+00 2.2729062674e+00 3.9367891360e+00 
102300 4.5200403807e+00 6.4066163109e-05 2.2729062674e+00 -3.9367891360e+00 2.2729062674e+00 3.9367891360e+00 
102400 4.5200403823e+00 6.4864937825e-05 2.2729062674e+00 -3.9367891360e+00 2.2729062674e+00 3.9367891360e+00 
102500 4.5200403838e+00 6.5628230997e-05 2.2729062674e+00 -3.9367891360e+00 2.2729062674e+00 3.9367891360e+00 
102600 4.5200403854e+00 6.6356037884e-05 2.2729062674e+00 -3.9367891360e+00 2.2729062674e+00 3.9367891360e+00 
102700 4.5200403870e+00 6.7048407568e-05 2.2729062674e+00 -3.9367891360e+00 2.2729062674e+00 3.9367891360e+00 
102800 4.5200403885e+00 6.7705441577e-05 2.2729062674e+00 -3.9367891360e+00 2.2729062674e+00 3.9367891360e+00 
102900 4.5200403901e+00 6.8327292510e-05 2.2729062674e+00 -3.9367891360e+00 2.2729062674e+00 3.9367891360e+00 
103000 4.5200403916e+00 6.8914162585e-05 2.2729062674e+00 -3.9367891360e+00 2.2729062674e+00 3.9367891360e+00 
103100 4.5200403931e+00 6.9466302165e-05 2.2729062674e+00 -3.9367891360e+00 2.2729062674e+00 3.9367891360e+00 
103200 4.5200403945e+00 6.9984008219e-05 2.2729062674e+00 -3.9367891360e+00 2.2729062674e+00 3.9367891360e+00 
103300 4.5200403960e+00 7.0467622795e-05 2.2729062674e+00 -3.9367891360e+00 2.2729062674e+00 3.9367891360e+00 
103400 4.5200403974e+00 7.0917531403e-05 2.2729062674e+00 -3.9367891360e+00 2.2729062674e+00 3.9367891360e+00 
103500 4.5200403987e+00 7.0582683500e-05 2.2729047073e+00 -3.9367864339e+00 2.2729047073e+00 3.9367864339e+00 
103600 4.5200404001e+00 7.0953679293e-05 2.2729047073e+00 -3.9367864339e+00 2.2729047073e+00 3.9367864339e+00 
103700 4.5200404014e+00 7.0539869837e-05 2.2729031465e+00 -3.9367837304e+00 2.2729031465e+00 3.9367837304e+00 
103800 4.5200404027e+00 7.0832781289e-05 2.2729031465e+00 -3.9367837304e+00 2.2729031465e+00 3.9367837304e+00 
103900 4.5200404040e+00 7.0342810166e-05 2.2729015883e+00 -3.9367810315e+00 2.2729015883e+00 3.9367810315e+00 
104000 4.5200404053e+00 7.0559094268e-05 2.2729015883e+00 -3.9367810315e+00 2.2729015883e+00 3.9367810315e+00 
104100 4.5200404065e+00 7.0744010924e-05 2.2729015883e+00 -3.9367810315e+00 2.2729015883e+00 3.9367810315e+00 
104200 4.5200404077e+00 7.0148804474e-05 2.2729000320e+00 -3.9367783360e+00 2.2729000320e+00 3.9367783360e+00 
104300 4.5200404089e+00 7.0260903758e-05 2.2729000320e+00 -3.9367783360e+00 2.2729000320e+00 3.9367783360e+00 
104400 4.5200404101e+00 7.0343744507e-05 2.2729000320e+00 -3.9367783360e+00 2.2729000320e+00 3.9367783360e+00 
104500 4.5200404113e+00 7.0398352862e-05 2.2729000320e+00 -3.9367783360e+00 2.2729000320e+00 3.9367783360e+00 
104600 4.5200404124e+00 7.0425763887e-05 2.2729000320e+00 -3.9367783360e+00 2.2729000320e+00 3.9367783360e+00 
104700 4.5200404136e+00 7.0427019906e-05 2.2729000320e+00 -3.9367783360e+00 2.2729000320e+00 3.9367783360e+00 
104800 4.5200404147e+00 7.0403168866e-05 2.2729000320e+00 -3.9367783360e+00 2.2729000320e+00 3.9367783360e+00 
104900 4.5200404157e+00 7.0355262739e-05 2.2729000320e+00 -3.9367783360e+00 2.2729000320e+00 3.9367783360e+00 
105000 4.5200404168e+00 7.0284355984e-05 2.2729000320e+00 -3.9367783360e+00 2.2729000320e+00 3.9367783360e+00 
105100 4.5200404178e+00 7.0191504034e-05 2.2729000320e+00 -3.9367783360e+00 2.2729000320e+00 3.9367783360e+00 
105200 4.5200404189e+00 7.0077761838e-05 2.2729000320e+00 -3.9367783360e+00 2.2729000320e+00 3.9367783360e+00 
105300 4.5200404198e+00 6.9944182434e-05 2.2729000320e+00 -3.9367783360e+00 2.2729000320e+00 3.9367783360e+00 
105400 4.5200404208e+00 6.9791815589e-05 2.2729000320e+00 -3.9367783360e+00 2.2729000320e+00 3.9367783360e+00 
105500 4.5200404218e+00 6.9621706462e-05 2.2729000320e+00 -3.9367783360e+00 2.2729000320e+00 3.9367783360e+00 
105600 4.5200404227e+00 6.9434894301e-05 2.2729000320e+00 -3.9367783360e+00 2.2729000320e+00 3.9367783360e+00 
105700 4.5200404236e+00 6.9232411216e-05 2.2729000320e+00 -3.9367783360e+00 2.2729000320e+00 3.9367783360e+00 
105800 4.5200404245e+00 6.9015280967e-05 2.2729000320e+00 -3.9367783360e+00 2.2729000320e+00 3.9367783360e+00 
105900 4.5200404254e+00 6.8784517799e-05 2.2729000320e+00 -3.9367783360e+00 2.2729000320e+00 3.9367783360e+00 
106000 4.5200404262e+00 6.8541125341e-05 2.2729000320e+00 -3.9367783360e+00 2.2729000320e+00 3.9367783360e+00 
106100 4.5200404271e+00 6.8286095512e-05 2.2729000320e+00 -3.9367783360e+00 2.2729000320e+00 3.9367783360e+00 
106200 4.5200404279e+00 6.8020407503e-05 2.2729000320e+00 -3.9367783360e+00 2.2729000320e+00 3.9367783360e+00 
106300 4.5200404287e+00 6.7745026788e-05 2.2729000320e+00 -3.9367783360e+00 2.2729000320e+00 3.9367783360e+00 
106400 4.5200404295e+00 6.7460904165e-05 2.2729000320e+00 -3.9367783360e+00 2.2729000320e+00 3.9367783360e+00 
106500 4.5200404303e+00 6.7168974867e-05 2.2729000320e+00 -3.9367783360e+00 2.2729000320e+00 3.9367783360e+00 
106600 4.5200404310e+00 6.6870157694e-05 2.2729000320e+00 -3.9367783360e+00 2.2729000320e+00 3.9367783360e+00 
106700 4.5200404318e+00 6.6565354195e-05 2.2729000320e+00 -3.9367783360e+00 2.2729000320e+00 3.9367783360e+00 
106800 4.5200404325e+00 6.6255447877e-05 2.2729000320e+00 -3.9367783360e+00 2.2729000320e+00 3.9367783360e+00 
106900 4.5200404333e+00 6.5941303493e-05 2.2729000320e+00 -3.9367783360e+00 2.2729000320e+00 3.9367783360e+00 
107000 4.5200404340e+00 6.5623766333e-05 2.2729000320e+00 -3.9367783360e+00 2.2729000320e+00 3.9367783360e+00 
107100 4.5200404347e+00 6.5303661577e-05 2.2729000320e+00 -3.9367783360e+00 2.2729000320e+00 3.9367783360e+00 
107200 4.5200404354e+00 6.4981793671e-05 2.2729000320e+00 -3.9367783360e+00 2.2729000320e+00 3.9367783360e+00 
107300 4.5200404361e+00 6.4658945771e-05 2.2729000320e+00 -3.9367783360e+00 2.2729000320e+00 3.9367783360e+00 
107400 4.5200404368e+00 6.4335879212e-05 2.2729000320e+00 -3.9367783360e+00 2.2729000320e+00 3.9367783360e+00 
107500 4.5200404374e+00 6.4013333003e-05 2.2729000320e+00 -3.9367783360e+00 2.2729000320e+00 3.9367783360e+00 
107600 4.5200404381e+00 6.3692023396e-05 2.2729000320e+00 -3.9367783360e+00 2.2729000320e+00 3.9367783360e+00 
107700 4.5200404387e+00 6.3372643467e-05 2.2729000320e+00 -3.9367783360e+00 2.2729000320e+00 3.9367783360e+00 
107800 4.5200404394e+00 6.3055862747e-05 2.2729000320e+00 -3.9367783360e+00 2.2729000320e+00 3.9367783360e+00 
107900 4.5200404400e+00 6.2742326886e-05 2.2729000320e+00 -3.9367783360e+00 2.2729000320e+00 3.9367783360e+00 
108000 4.5200404407e+00 6.2432657368e-05 2.2729000320e+00 -3.9367783360e+00 2.2729000320e+00 3.9367783360e+00 
108100 4.5200404413e+00 6.2127451252e-05 2.2729000320e+00 -3.9367783360e+00 2.2729000320e+00 3.9367783360e+00 
108200 4.5200404419e+00 6.1827280947e-05 2.2729000320e+00 -3.9367783360e+00 2.2729000320e+00 3.9367783360e+00 
108300 4.5200404425e+00 6.1532694057e-05 2.2729000320e+00 -3.9367783360e+00 2.2729000320e+00 3.9367783360e+00 
108400 4.5200404431e+00 6.1244213204e-05 2.2729000320e+00 -3.9367783360e+00 2.2729000320e+00 3.9367783360e+00 
108500 4.5200404438e+00 6.0962335954e-05 2.2729000320e+00 -3.9367783360e+00 2.2729000320e+00 3.9367783360e+00 
108600 4.5200404444e+00 6.0687534714e-05 2.2729000320e+00 -3.9367783360e+00 2.2729000320e+00 3.9367783360e+00 
108700 4.5200404450e+00 6.0420256725e-05 2.2729000320e+00 -3.9367783360e+00 2.2729000320e+00 3.9367783360e+00 
108800 4.5200404455e+00 6.0160924042e-05 2.2729000320e+00 -3.9367783360e+00 2.2729000320e+00 3.9367783360e+00 
108900 4.5200404461e+00 5.9909933566e-05 2.2729000320e+00 -3.9367783360e+00 2.2729000320e+00 3.9367783360e+00 
109000 4.5200404467e+00 5.9667657125e-05 2.2729000320e+00 -3.9367783360e+00 2.2729000320e+00 3.9367783360e+00 
109100 4.5200404473e+00 5.9434441552e-05 2.2729000320e+00 -3.9367783360e+00 2.2729000320e+00 3.9367783360e+00 
109200 4.5200404479e+00 5.9210608832e-05 2.2729000320e+00 -3.9367783360e+00 2.2729000320e+00 3.9367783360e+00 
109300 4.5200404484e+00 5.8996456239e-05 2.2729000320e+00 -3.9367783360e+00 2.2729000320e+00 3.9367783360e+00 
109400 4.5200404490e+00 5.8792256548e-05 2.2729000320e+00 -3.9367783360e+00 2.2729000320e+00 3.9367783360e+00 
109500 4.5200404495e+00 5.8598258253e-05 2.2729000320e+00 -3.9367783360e+00 2.2729000320e+00 3.9367783360e+00 
109600 4.5200404501e+00 5.8414685798e-05 2.2729000320e+00 -3.9367783360e+00 2.2729000320e+00 3.9367783360e+00 
109700 4.5200404506e+00 5.8241739873e-05 2.2729000320e+00 -3.9367783360e+00 2.2729000320e+00 3.9367783360e+00 
109800 4.5200404512e+00 5.8079597706e-05 2.2729000320e+00 -3.9367783360e+00 2.2729000320e+00 3.9367783360e+00 
109900 4.5200404517e+00 5.7928413387e-05 2.2729000320e+00 -3.9367783360e+00 2.2729000320e+00 3.9367783360e+00 
110000 4.5200404523e+00 5.7788318242e-05 2.2729000320e+00 -3.9367783360e+00 2.2729000320e+00 3.9367783360e+00 
110100 4.5200404528e+00 5.7659421188e-05 2.2729000320e+00 -3.9367783360e+00 2.2729000320e+00 3.9367783360e+00 
110200 4.5200404533e+00 5.7541809142e-05 2.2729000320e+00 -3.9367783360e+00 2.2729000320e+00 3.9367783360e+00 
110300 4.5200404538e+00 5.7435547455e-05 2.2729000320e+00 -3.9367783360e+00 2.2729000320e+00 3.9367783360e+00 
110400 4.5200404543e+00 5.7340680340e-05 2.2729000320e+00 -3.9367783360e+00 2.2729000320e+00 3.9367783360e+00 
110500 4.5200404548e+00 5.7257231350e-05 2.2729000320e+00 -3.9367783360e+00 2.2729000320e+00 3.9367783360e+00 
110600 4.5200404553e+00 5.7185203849e-05 2.2729000320e+00 -3.9367783360e+00 2.2729000320e+00 3.9367783360e+00 
110700 4.5200404558e+00 5.7124581529e-05 2.2729000320e+00 -3.9367783360e+00 2.2729000320e+00 3.9367783360e+00 
110800 4.5200404563e+00 5.7075328917e-05 2.2729000320e+00 -3.9367783360e+00 2.2729000320e+00 3.9367783360e+00 
110900 4.5200404568e+00 5.7037391920e-05 2.2729000320e+00 -3.9367783360e+00 2.2729000320e+00 3.9367783360e+00 
111000 4.5200404573e+00 5.7010698368e-05 2.2729000320e+00 -3.9367783360e+00 2.2729000320e+00 3.9367783360e+00 
111100 4.5200404578e+00 5.6995158579e-05 2.2729000320e+00 -3.9367783360e+00 2.2729000320e+00 3.9367783360e+00 
111200 4.5200404582e+00 5.6990665948e-05 2.2729000320e+00 -3.9367783360e+00 2.2729000320e+00 3.9367783360e+00 
111300 4.5200404587e+00 5.6997097514e-05 2.2729000320e+00 -3.9367783360e+00 2.2729000320e+00 3.9367783360e+00 
111400 4.5200404591e+00 5.7014314591e-05 2.2729000320e+00 -3.9367783360e+00 2.2729000320e+00 3.9367783360e+00 
111500 4.5200404596e+00 5.7042163350e-05 2.2729000320e+00 -3.9367783360e+00 2.2729000320e+00 3.9367783360e+00 
111600 4.5200404600e+00 5.7080475449e-05 2.2729000320e+00 -3.9367783360e+00 2.2729000320e+00 3.9367783360e+00 
111700 4.5200404605e+00 5.7129068664e-05 2.2729000320e+00 -3.9367783360e+00 2.2729000320e+00 3.9367783360e+00 
111800 4.5200404609e+00 5.7187747519e-05 2.2729000320e+00 -3.9367783360e+00 2.2729000320e+00 3.9367783360e+00 
111900 4.5200404613e+00 5.7256303923e-05 2.2729000320e+00 -3.9367783360e+00 2.2729000320e+00 3.9367783360e+00 
112000 4.5200404617e+00 5.7334517812e-05 2.2729000320e+00 -3.9367783360e+00 2.2729000320e+00 3.9367783360e+00 
112100 4.5200404621e+00 5.7422157799e-05 2.2729000320e+00 -3.9367783360e+00 2.2729000320e+00 3.9367783360e+00 
112200 4.5200404625e+00 5.7518981829e-05 2.2729000320e+00 -3.9367783360e+00 2.2729000320e+00 3.9367783360e+00 
112300 4.5200404629e+00 5.7624737816e-05 2.2729000320e+00 -3.9367783360e+00 2.2729000320e+00 3.9367783360e+00 
112400 4.5200404633e+00 5.7739164303e-05 2.2729000320e+00 -3.9367783360e+00 2.2729000320e+00 3.9367783360e+00 
112500 4.5200404637e+00 5.7861991114e-05 2.2729000320e+00 -3.9367783360e+00 2.2729000320e+00 3.9367783360e+00 
112600 4.5200404641e+00 5.7992940011e-05 2.2729000320e+00 -3.9367783360e+00 2.2729000320e+00 3.9367783360e+00 
112700 4.5200404644e+00 5.8131725315e-05 2.2729000320e+00 -3.9367783360e+00 2.2729000320e+00 3.9367783360e+00 
112800 4.5200404648e+00 5.8278054577e-05 2.2729000320e+00 -3.9367783360e+00 2.2729000320e+00 3.9367783360e+00 
112900 4.5200404652e+00 5.8431629211e-05 2.2729000320e+00 -3.9367783360e+00 2.2729000320e+00 3.9367783360e+00 
113000 4.5200404655e+00 5.8592145115e-05 2.2729000320e+00 -3.9367783360e+00 2.2729000320e+00 3.9367783360e+00 
113100 4.5200404658e+00 5.8759293319e-05 2.2729000320e+00 -3.9367783360e+00 2.2729000320e+00 3.9367783360e+00 
113200 4.5200404662e+00 5.8932760594e-05 2.2729000320e+00 -3.9367783360e+00 2.2729000320e+00 3.9367783360e+00 
113300 4.5200404665e+00 5.9112230077e-05 2.2729000320e+00 -3.9367783360e+00 2.2729000320e+00 3.9367783360e+00 
113400 4.5200404669e+00 5.9297381857e-05 2.2729000320e+00 -3.9367783360e+00 2.2729000320e+00 3.9367783360e+00 
113500 4.5200404672e+00 5.9487893598e-05 2.2729000320e+00 -3.9367783360e+00 2.2729000320e+00 3.9367783360e+00 
113600 4.5200404675e+00 5.9683441114e-05 2.2729000320e+00 -3.9367783360e+00 2.2729000320e+00 3.9367783360e+00 
113700 4.5200404678e+00 5.9883698936e-05 2.2729000320e+00 -3.9367783360e+00 2.2729000320e+00 3.9367783360e+00 
113800 4.5200404681e+00 6.0088340895e-05 2.2729000320e+00 -3.9367783360e+00 2.2729000320e+00 3.9367783360e+00 
113900 4.5200404684e+00 6.0297040670e-05 2.2729000320e+00 -3.9367783360e+00 2.2729000320e+00 3.9367783360e+00 
114000 4.5200404687e+00 6.0509472315e-05 2.2729000320e+00 -3.9367783360e+00 2.2729000320e+00 3.9367783360e+00 
114100 4.5200404690e+00 6.0725310805e-05 2.2729000320e+00 -3.9367783360e+00 2.2729000320e+00 3.9367783360e+00 
114200 4.5200404693e+00 6.0944232547e-05 2.2729000320e+00 -3.9367783360e+00 2.2729000320e+00 3.9367783360e+00 
114300 4.5200404696e+00 6.1165915871e-05 2.2729000320e+00 -3.9367783360e+00 2.2729000320e+00 3.9367783360e+00 
114400 4.5200404699e+00 6.1390041526e-05 2.2729000320e+00 -3.9367783360e+00 2.2729000320e+00 3.9367783360e+00 
114500 4.5200404702e+00 6.1616293142e-05 2.2729000320e+00 -3.9367783360e+00 2.2729000320e+00 3.9367783360e+00 
114600 4.5200404704e+00 6.1844357693e-05 2.2729000320e+00 -3.9367783360e+00 2.2729000320e+00 3.9367783360e+00 
114700 4.5200404707e+00 6.2073925928e-05 2.2729000320e+00 -3.9367783360e+00 2.2729000320e+00 3.9367783360e+00 
114800 4.5200404710e+00 6.2304692804e-05 2.2729000320e+00 -3.9367783360e+00 2.2729000320e+00 3.9367783360e+00 
114900 4.5200404712e+00 6.2536357882e-05 2.2729000320e+00 -3.9367783360e+00 2.2729000320e+00 3.9367783360e+00 
115000 4.5200404715e+00 6.2768625722e-05 2.2729000320e+00 -3.9367783360e+00 2.2729000320e+00 3.9367783360e+00 
115100 4.5200404717e+00 6.3001206254e-05 2.2729000320e+00 -3.9367783360e+00 2.2729000320e+00 3.9367783360e+00 
115200 4.5200404720e+00 6.3233815135e-05 2.2729000320e+00 -3.9367783360e+00 2.2729000320e+00 3.9367783360e+00 
115300 4.5200404722e+00 6.3466174088e-05 2.2729000320e+00 -3.9367783360e+00 2.2729000320e+00 3.9367783360e+00 
115400 4.5200404725e+00 6.3698011212e-05 2.2729000320e+00 -3.9367783360e+00 2.2729000320e+00 3.9367783360e+00 
115500 4.5200404727e+00 6.3929061292e-05 2.2729000320e+00 -3.9367783360e+00 2.2729000320e+00 3.9367783360e+00 
115600 4.5200404730e+00 6.4159066084e-05 2.2729000320e+00 -3.9367783360e+00 2.2729000320e+00 3.9367783360e+00 
115700 4.5200404732e+00 6.4387774579e-05 2.2729000320e+00 -3.9367783360e+00 2.2729000320e+00 3.9367783360e+00 
115800 4.5200404734e+00 6.4614943252e-05 2.2729000320e+00 -3.9367783360e+00 2.2729000320e+00 3.9367783360e+00 
115900 4.5200404737e+00 6.4840336278e-05 2.2729000320e+00 -3.9367783360e+00 2.2729000320e+00 3.9367783360e+00 
116000 4.5200404739e+00 6.5063725776e-05 2.2729000320e+00 -3.9367783360e+00 2.2729000320e+00 3.9367783360e+00 
116100 4.5200404741e+00 6.5284891966e-05 2.2729000320e+00 -3.9367783360e+00 2.2729000320e+00 3.9367783360e+00 
116200 4.5200404744e+00 6.5503623371e-05 2.2729000320e+00 -3.9367783360e+00 2.2729000320e+00 3.9367783360e+00 
116300 4.5200404746e+00 6.5719716965e-05 2.2729000320e+00 -3.9367783360e+00 2.2729000320e+00 3.9367783360e+00 
116400 4.5200404748e+00 6.5932978318e-05 2.2729000320e+00 -3.9367783360e+00 2.2729000320e+00 3.9367783360e+00 
116500 4.5200404750e+00 6.6143221708e-05 2.2729000320e+00 -3.9367783360e+00 2.2729000320e+00 3.9367783360e+00 
116600 4.5200404752e+00 6.6350270240e-05 2.2729000320e+00 -3.9367783360e+00 2.2729000320e+00 3.9367783360e+00 
116700 4.5200404754e+00 6.6553955929e-05 2.2729000320e+00 -3.9367783360e+00 2.2729000320e+00 3.9367783360e+00 
116800 4.5200404757e+00 6.6754119774e-05 2.2729000320e+00 -3.9367783360e+00 2.2729000320e+00 3.9367783360e+00 
116900 4.5200404759e+00 6.6950611811e-05 2.2729000320e+00 -3.9367783360e+00 2.2729000320e+00 3.9367783360e+00 
117000 4.5200404761e+00 6.7143291145e-05 2.2729000320e+00 -3.9367783360e+00 2.2729000320e+00 3.9367783360e+00 
117100 4.5200404763e+00 6.7332025998e-05 2.2729000320e+00 -3.9367783360e+00 2.2729000320e+00 3.9367783360e+00 
117200 4.5200404765e+00 6.7516693680e-05 2.2729000320e+00 -3.9367783360e+00 2.2729000320e+00 3.9367783360e+00 
117300 4.5200404767e+00 6.7697180610e-05 2.2729000320e+00 -3.9367783360e+00 2.2729000320e+00 3.9367783360e+00 
117400 4.5200404769e+00 6.7873382282e-05 2.2729000320e+00 -3.9367783360e+00 2.2729000320e+00 3.9367783360e+00 
117500 4.5200404771e+00 6.8045203227e-05 2.2729000320e+00 -3.9367783360e+00 2.2729000320e+00 3.9367783360e+00 
117600 4.5200404772e+00 6.8212556958e-05 2.2729000320e+00 -3.9367783360e+00 2.2729000320e+00 3.9367783360e+00 
117700 4.5200404774e+00 6.8375365920e-05 2.2729000320e+00 -3.9367783360e+00 2.2729000320e+00 3.9367783360e+00 
117800 4.5200404776e+00 6.8533561379e-05 2.2729000320e+00 -3.9367783360e+00 2.2729000320e+00 3.9367783360e+00 
117900 4.5200404778e+00 6.8687083373e-05 2.2729000320e+00 -3.9367783360e+00 2.2729000320e+00 3.9367783360e+00 
118000 4.5200404780e+00 6.8835880564e-05 2.2729000320e+00 -3.9367783360e+00 2.2729000320e+00 3.9367783360e+00 
118100 4.5200404782e+00 6.8979910163e-05 2.2729000320e+00 -3.9367783360e+00 2.2729000320e+00 3.9367783360e+00 
118200 4.5200404784e+00 6.9119137761e-05 2.2729000320e+00 -3.9367783360e+00 2.2729000320e+00 3.9367783360e+00 
118300 4.5200404785e+00 6.9253537223e-05 2.2729000320e+00 -3.9367783360e+00 2.2729000320e+00 3.9367783360e+00 
118400 4.5200404787e+00 6.9383090518e-05 2.2729000320e+00 -3.9367783360e+00 2.2729000320e+00 3.9367783360e+00 
118500 4.5200404789e+00 6.9507787570e-05 2.2729000320e+00 -3.9367783360e+00 2.2729000320e+00 3.9367783360e+00 
118600 4.5200404790e+00 6.9627626079e-05 2.2729000320e+00 -3.9367783360e+00 2.2729000320e+00 3.9367783360e+00 
118700 4.5200404792e+00 6.9742611356e-05 2.2729000320e+00 -3.9367783360e+00 2.2729000320e+00 3.9367783360e+00 
118800 4.5200404794e+00 6.9852756116e-05 2.2729000320e+00 -3.9367783360e+00 2.2729000320e+00 3.9367783360e+00 
118900 4.5200404795e+00 6.9958080306e-05 2.2729000320e+00 -3.9367783360e+00 2.2729000320e+00 3.9367783360e+00 
119000 4.5200404797e+00 7.0058610879e-05 2.2729000320e+00 -3.9367783360e+00 2.2729000320e+00 3.9367783360e+00 
119100 4.5200404799e+00 7.0154381601e-05 2.2729000320e+00 -3.9367783360e+00 2.2729000320e+00 3.9367783360e+00 
119200 4.5200404800e+00 7.0245432830e-05 2.2729000320e+00 -3.9367783360e+00 2.2729000320e+00 3.9367783360e+00 
119300 4.5200404802e+00 7.0331811285e-05 2.2729000320e+00 -3.9367783360e+00 2.2729000320e+00 3.9367783360e+00 
119400 4.5200404803e+00 7.0413569836e-05 2.2729000320e+00 -3.9367783360e+00 2.2729000320e+00 3.9367783360e+00 
119500 4.5200404805e+00 7.0490767242e-05 2.2729000320e+00 -3.9367783360e+00 2.2729000320e+00 3.9367783360e+00 
119600 4.5200404806e+00 7.0563467952e-05 2.2729000320e+00 -3.9367783360e+00 2.2729000320e+00 3.9367783360e+00 
119700 4.5200404808e+00 7.0631741834e-05 2.2729000320e+00 -3.9367783360e+00 2.2729000320e+00 3.9367783360e+00 
119800 4.5200404809e+00 7.0695663937e-05 2.2729000320e+00 -3.9367783360e+00 2.2729000320e+00 3.9367783360e+00 
119900 4.5200404811e+00 7.0755314249e-05 2.2729000320e+00 -3.9367783360e+00 2.2729000320e+00 3.9367783360e+00 
120000 4.5200404811e+00 7.0060991455e-05 2.2728984755e+00 -3.9367756401e+00 2.2728984755e+00 3.9367756401e+00 
120100 4.5200404813e+00 7.0099562835e-05 2.2728984755e+00 -3.9367756401e+00 2.2728984755e+00 3.9367756401e+00 
120200 4.5200404814e+00 7.0133496228e-05 2.2728984755e+00 -3.9367756401e+00 2.2728984755e+00 3.9367756401e+00 
120300 4.5200404815e+00 7.0162970341e-05 2.2728984755e+00 -3.9367756401e+00 2.2728984755e+00 3.9367756401e+00 
120400 4.5200404817e+00 7.0188164037e-05 2.2728984755e+00 -3.9367756401e+00 2.2728984755e+00 3.9367756401e+00 
120500 4.5200404818e+00 7.0209256065e-05 2.2728984755e+00 -3.9367756401e+00 2.2728984755e+00 3.9367756401e+00 
120600 4.5200404819e+00 7.0226424794e-05 2.2728984755e+00 -3.9367756401e+00 2.2728984755e+00 3.9367756401e+00 
120700 4.5200404821e+00 7.0239847973e-05 2.2728984755e+00 -3.9367756401e+00 2.2728984755e+00 3.9367756401e+00 
120800 4.5200404822e+00 7.0249702467e-05 2.2728984755e+00 -3.9367756401e+00 2.2728984755e+00 3.9367756401e+00 
120900 4.5200404823e+00 7.0256164065e-05 2.2728984755e+00 -3.9367756401e+00 2.2728984755e+00 3.9367756401e+00 
121000 4.5200404824e+00 7.0259407226e-05 2.2728984755e+00 -3.9367756401e+00 2.2728984755e+00 3.9367756401e+00 
121100 4.5200404826e+00 7.0259604889e-05 2.2728984755e+00 -3.9367756401e+00 2.2728984755e+00 3.9367756401e+00 
121200 4.5200404827e+00 7.0256928290e-05 2.2728984755e+00 -3.9367756401e+00 2.2728984755e+00 3.9367756401e+00 
121300 4.5200404828e+00 7.0251546754e-05 2.2728984755e+00 -3.9367756401e+00 2.2728984755e+00 3.9367756401e+00 
121400 4.5200404829e+00 7.0243627526e-05 2.2728984755e+00 -3.9367756401e+00 2.2728984755e+00 3.9367756401e+00 
121500 4.5200404830e+00 7.0233335616e-05 2.2728984755e+00 -3.9367756401e+00 2.2728984755e+00 3.9367756401e+00 
121600 4.5200404831e+00 7.0220833625e-05 2.2728984755e+00 -3.9367756401e+00 2.2728984755e+00 3.9367756401e+00 
121700 4.5200404833e+00 7.0206281608e-05 2.2728984755e+00 -3.9367756401e+00 2.2728984755e+00 3.9367756401e+00 
121800 4.5200404834e+00 7.0189836940e-05 2.2728984755e+00 -3.9367756401e+00 2.2728984755e+00 3.9367756401e+00 
121900 4.5200404835e+00 7.0171654180e-05 2.2728984755e+00 -3.9367756401e+00 2.2728984755e+00 3.9367756401e+00 
122000 4.5200404836e+00 7.0151884937e-05 2.2728984755e+00 -3.9367756401e+00 2.2728984755e+00 3.9367756401e+00 
122100 4.5200404837e+00 7.0130677792e-05 2.2728984755e+00 -3.9367756401e+00 2.2728984755e+00 3.9367756401e+00 
122200 4.5200404838e+00 7.0108178156e-05 2.2728984755e+00 -3.9367756401e+00 2.2728984755e+00 3.9367756401e+00 
122300 4.5200404839e+00 7.0084528204e-05 2.2728984755e+00 -3.9367756401e+00 2.2728984755e+00 3.9367756401e+00 
122400 4.5200404840e+00 7.0059866761e-05 2.2728984755e+00 -3.9367756401e+00 2.2728984755e+00 3.9367756401e+00 
122500 4.5200404841e+00 7.0034329235e-05 2.2728984755e+00 -3.9367756401e+00 2.2728984755e+00 3.9367756401e+00 
122600 4.5200404842e+00 7.0008047537e-05 2.2728984755e+00 -3.9367756401e+00 2.2728984755e+00 3.9367756401e+00 
122700 4.5200404843e+00 6.9981150019e-05 2.2728984755e+00 -3.9367756401e+00 2.2728984755e+00 3.9367756401e+00 
122800 4.5200404844e+00 6.9953761408e-05 2.2728984755e+00 -3.9367756401e+00 2.2728984755e+00 3.9367756401e+00 
122900 4.5200404845e+00 6.9926002755e-05 2.2728984755e+00 -3.9367756401e+00 2.2728984755e+00 3.9367756401e+00 
123000 4.5200404846e+00 6.9897991380e-05 2.2728984755e+00 -3.9367756401e+00 2.2728984755e+00 3.9367756401e+00 
123100 4.5200404847e+00 6.9869840840e-05 2.2728984755e+00 -3.9367756401e+00 2.2728984755e+00 3.9367756401e+00 
123200 4.5200404848e+00 6.9841660894e-05 2.2728984755e+00 -3.9367756401e+00 2.2728984755e+00 3.9367756401e+00 
123300 4.5200404849e+00 6.9813557453e-05 2.2728984755e+00 -3.9367756401e+00 2.2728984755e+00 3.9367756401e+00 
123400 4.5200404849e+00 6.9785632595e-05 2.2728984755e+00 -3.9367756401e+00 2.2728984755e+00 3.9367756401e+00 
123500 4.5200404850e+00 6.9757984498e-05 2.2728984755e+00 -3.9367756401e+00 2.2728984755e+00 3.9367756401e+00 
123600 4.5200404851e+00 6.9730707470e-05 2.2728984755e+00 -3.9367756401e+00 2.2728984755e+00 3.9367756401e+00 
123700 4.5200404852e+00 6.9703891919e-05 2.2728984755e+00 -3.9367756401e+00 2.2728984755e+00 3.9367756401e+00 
123800 4.5200404853e+00 6.9677624340e-05 2.2728984755e+00 -3.9367756401e+00 2.2728984755e+00 3.9367756401e+00 
123900 4.5200404854e+00 6.9651987344e-05 2.2728984755e+00 -3.9367756401e+00 2.2728984755e+00 3.9367756401e+00 
124000 4.5200404855e+00 6.9627059641e-05 2.2728984755e+00 -3.9367756401e+00 2.2728984755e+00 3.9367756401e+00 
124100 4.5200404855e+00 6.9602916064e-05 2.2728984755e+00 -3.9367756401e+00 2.2728984755e+00 3.9367756401e+00 
124200 4.5200404856e+00 6.9579627581e-05 2.2728984755e+00 -3.9367756401e+00 2.2728984755e+00 3.9367756401e+00 
124300 4.5200404857e+00 6.9557261306e-05 2.2728984755e+00 -3.9367756401e+00 2.2728984755e+00 3.9367756401e+00 
124400 4.5200404858e+00 6.9535880531e-05 2.2728984755e+00 -3.9367756401e+00 2.2728984755e+00 3.9367756401e+00 
124500 4.5200404859e+00 6.9515544756e-05 2.2728984755e+00 -3.9367756401e+00 2.2728984755e+00 3.9367756401e+00 
124600 4.5200404859e+00 6.9496309709e-05 2.2728984755e+00 -3.9367756401e+00 2.2728984755e+00 3.9367756401e+00 
124700 4.5200404860e+00 6.9478227393e-05 2.2728984755e+00 -3.9367756401e+00 2.2728984755e+00 3.9367756401e+00 
124800 4.5200404861e+00 6.9461346113e-05 2.2728984755e+00 -3.9367756401e+00 2.2728984755e+00 3.9367756401e+00 
124900 4.5200404862e+00 6.9445710527e-05 2.2728984755e+00 -3.9367756401e+00 2.2728984755e+00 3.9367756401e+00 
125000 4.5200404862e+00 6.9431361685e-05 2.2728984755e+00 -3.9367756401e+00 2.2728984755e+00 3.9367756401e+00 
125100 4.5200404863e+00 6.9418337082e-05 2.2728984755e+00 -3.9367756401e+00 2.2728984755e+00 3.9367756401e+00 
125200 4.5200404864e+00 6.9406670702e-05 2.2728984755e+00 -3.9367756401e+00 2.2728984755e+00 3.9367756401e+00 
125300 4.5200404864e+00 6.9396393081e-05 2.2728984755e+00 -3.9367756401e+00 2.2728984755e+00 3.9367756401e+00 
125400 4.5200404865e+00 6.9387531358e-05 2.2728984755e+00 -3.9367756401e+00 2.2728984755e+00 3.9367756401e+00 
125500 4.5200404866e+00 6.9380109335e-05 2.2728984755e+00 -3.9367756401e+00 2.2728984755e+00 3.9367756401e+00 
125600 4.5200404867e+00 6.9374147536e-05 2.2728984755e+00 -3.9367756401e+00 2.2728984755e+00 3.9367756401e+00 
125700 4.5200404867e+00 6.9369663293e-05 2.2728984755e+00 -3.9367756401e+00 2.2728984755e+00 3.9367756401e+00 
125800 4.5200404868e+00 6.9366670766e-05 2.2728984755e+00 -3.9367756401e+00 2.2728984755e+00 3.9367756401e+00 
125900 4.5200404869e+00 6.9365181069e-05 2.2728984755e+00 -3.9367756401e+00 2.2728984755e+00 3.9367756401e+00 
126000 4.5200404869e+00 6.9365202301e-05 2.2728984755e+00 -3.9367756401e+00 2.2728984755e+00 3.9367756401e+00 
126100 4.5200404870e+00 6.9366739632e-05 2.2728984755e+00 -3.9367756401e+00 2.2728984755e+00 3.9367756401e+00 
126200 4.5200404871e+00 6.9369795375e-05 2.2728984755e+00 -3.9367756401e+00 2.2728984755e+00 3.9367756401e+00 
126300 4.5200404871e+00 6.9374369069e-05 2.2728984755e+00 -3.9367756401e+00 2.2728984755e+00 3.9367756401e+00 
126400 4.5200404872e+00 6.9380457560e-05 2.2728984755e+00 -3.9367756401e+00 2.2728984755e+00 3.9367756401e+00 
126500 4.5200404872e+00 6.9388055055e-05 2.2728984755e+00 -3.9367756401e+00 2.2728984755e+00 3.9367756401e+00 
126600 4.5200404873e+00 6.9397153237e-05 2.2728984755e+00 -3.9367756401e+00 2.2728984755e+00 3.9367756401e+00 
126700 4.5200404874e+00 6.9407741331e-05 2.2728984755e+00 -3.9367756401e+00 2.2728984755e+00 3.9367756401e+00 
126800 4.5200404874e+00 6.9419806184e-05 2.2728984755e+00 -3.9367756401e+00 2.2728984755e+00 3.9367756401e+00 
126900 4.5200404875e+00 6.9433332351e-05 2.2728984755e+00 -3.9367756401e+00 2.2728984755e+00 3.9367756401e+00 
127000 4.5200404875e+00 6.9448302194e-05 2.2728984755e+00 -3.9367756401e+00 2.2728984755e+00 3.9367756401e+00 
127100 4.5200404876e+00 6.9464695950e-05 2.2728984755e+00 -3.9367756401e+00 2.2728984755e+00 3.9367756401e+00 
127200 4.5200404876e+00 6.9482491825e-05 2.2728984755e+00 -3.9367756401e+00 2.2728984755e+00 3.9367756401e+00 
127300 4.5200404877e+00 6.9501666093e-05 2.2728984755e+00 -3.9367756401e+00 2.2728984755e+00 3.9367756401e+00 
127400 4.5200404878e+00 6.9522193155e-05 2.2728984755e+00 -3.9367756401e+00 2.2728984755e+00 3.9367756401e+00 
127500 4.5200404878e+00 6.9544045658e-05 2.2728984755e+00 -3.9367756401e+00 2.2728984755e+00 3.9367756401e+00 
127600 4.5200404879e+00 6.9567194575e-05 2.2728984755e+00 -3.9367756401e+00 2.2728984755e+00 3.9367756401e+00 
127700 4.5200404879e+00 6.9591609277e-05 2.2728984755e+00 -3.9367756401e+00 2.2728984755e+00 3.9367756401e+00 
127800 4.5200404880e+00 6.9617257645e-05 2.2728984755e+00 -3.9367756401e+00 2.2728984755e+00 3.9367756401e+00 
127900 4.5200404880e+00 6.9644106145e-05 2.2728984755e+00 -3.9367756401e+00 2.2728984755e+00 3.9367756401e+00 
128000 4.5200404881e+00 6.9672119916e-05 2.2728984755e+00 -3.9367756401e+00 2.2728984755e+00 3.9367756401e+00 
128100 4.5200404881e+00 6.9701262868e-05 2.2728984755e+00 -3.9367756401e+00 2.2728984755e+00 3.9367756401e+00 
128200 4.5200404882e+00 6.9731497767e-05 2.2728984755e+00 -3.9367756401e+00 2.2728984755e+00 3.9367756401e+00 
128300 4.5200404882e+00 6.9745761985e-05 2.2728984755e+00 -3.9367756401e+00 2.2728984755e+00 3.9367756401e+00 
128300 4.5200404882e+00 6.9745761985e-05 2.2728984755e+00 -3.9367756401e+00 2.2728984755e+00 3.9367756401e+00 
