# step Hamiltonian StressXX CellTensor1 CellTensor2 CellTensor3 CellTensor4 
0 6.6449850395e+00 2.3353386699e-01 2.8237630504e+00 -4.8909010719e+00 2.8237630504e+00 4.8909010719e+00 
100 6.6822780436e+00 2.8889212960e-01 2.8237630504e+00 -4.8909010719e+00 2.8237630504e+00 4.8909010719e+00 
200 6.7147429959e+00 3.3888100641e-01 2.8186492228e+00 -4.8820436627e+00 2.8186492228e+00 4.8820436627e+00 
300 6.7436481544e+00 3.8404855854e-01 2.8126399562e+00 -4.8716353076e+00 2.8126399562e+00 4.8716353076e+00 
400 6.7695082233e+00 4.2496096929e-01 2.8058155347e+00 -4.8598150628e+00 2.8058155347e+00 4.8598150628e+00 
500 6.7927621843e+00 4.6214482568e-01 2.7982460904e+00 -4.8467044006e+00 2.7982460904e+00 4.8467044006e+00 
600 6.8137769660e+00 4.9608098290e-01 2.7899924051e+00 -4.8324085984e+00 2.7899924051e+00 4.8324085984e+00 
700 6.8328529692e+00 5.2720125464e-01 2.7811067774e+00 -4.8170182396e+00 2.7811067774e+00 4.8170182396e+00 
800 6.8502306645e+00 5.5588748824e-01 2.7716339161e+00 -4.8006107627e+00 2.7716339161e+00 4.8006107627e+00 
900 6.8660975341e+00 5.8247225044e-01 2.7616118303e+00 -4.7832520009e+00 2.7616118303e+00 4.7832520009e+00 
1000 6.8805947361e+00 6.0724012473e-01 2.7510726932e+00 -4.7649976800e+00 2.7510726932e+00 4.7649976800e+00 
1100 6.8938229789e+00 6.3042842104e-01 2.7400436775e+00 -4.7458948644e+00 2.7400436775e+00 4.7458948644e+00 
1200 6.9058471750e+00 6.5222583151e-01 2.7285477764e+00 -4.7259833796e+00 2.7285477764e+00 4.7259833796e+00 
1300 6.9166994787e+00 6.7276717518e-01 2.7166046544e+00 -4.7052972855e+00 2.7166046544e+00 4.7052972855e+00 
1400 6.9263803330e+00 6.9212189998e-01 2.7042316036e+00 -4.6838665329e+00 2.7042316036e+00 4.6838665329e+00 
1500 6.9348572437e+00 7.1027374012e-01 2.6914447287e+00 -4.6617190158e+00 2.6914447287e+00 4.6617190158e+00 
1600 6.9420613539e+00 7.2708969180e-01 2.6782605359e+00 -4.6388833242e+00 2.6782605359e+00 4.6388833242e+00 
1700 6.9478828709e+00 7.4228010155e-01 2.6646981438e+00 -4.6153925719e+00 2.6646981438e+00 4.6153925719e+00 
1800 6.9521685180e+00 7.5536125619e-01 2.6507823073e+00 -4.5912896361e+00 2.6507823073e+00 4.5912896361e+00 
1900 6.9547277010e+00 7.6565020589e-01 2.6365472469e+00 -4.5666337882e+00 2.6365472469e+00 4.5666337882e+00 
2000 6.9553577246e+00 7.7234404796e-01 2.6220407071e+00 -4.5415077241e+00 2.6220407071e+00 4.5415077241e+00 
2100 6.9538970731e+00 7.7473654202e-01 2.6073266539e+00 -4.5160222365e+00 2.6073266539e+00 4.5160222365e+00 
2200 6.9503011266e+00 7.7255501386e-01 2.5924839305e+00 -4.4903138854e+00 2.5924839305e+00 4.4903138854e+00 
2300 6.9447065669e+00 7.6625193931e-01 2.5775983857e+00 -4.4645313655e+00 2.5775983857e+00 4.4645313655e+00 
2400 6.9374349362e+00 7.5699892364e-01 2.5627490739e+00 -4.4388116030e+00 2.5627490739e+00 4.4388116030e+00 
2500 6.9289173571e+00 7.4630390995e-01 2.5479940670e+00 -4.4132551814e+00 2.5479940670e+00 4.4132551814e+00 
2600 6.9195836922e+00 7.3549829353e-01 2.5333632467e+00 -4.3879138573e+00 2.5333632467e+00 4.3879138573e+00 
2700 6.9097812450e+00 7.2542710260e-01 2.5188609473e+00 -4.3627951380e+00 2.5188609473e+00 4.3627951380e+00 
2800 6.8997503360e+00 7.1644069094e-01 2.5044748428e+00 -4.3378776740e+00 2.5044748428e+00 4.3378776740e+00 
2900 6.8896401187e+00 7.0855720999e-01 2.4901853234e+00 -4.3131275004e+00 2.4901853234e+00 4.3131275004e+00 
3000 6.8795369021e+00 7.0163910970e-01 2.4759719507e+00 -4.2885092167e+00 2.4759719507e+00 4.2885092167e+00 
3100 6.8694884904e+00 6.9551164502e-01 2.4618165790e+00 -4.2639913938e+00 2.4618165790e+00 4.2639913938e+00 
3200 6.8595202348e+00 6.9002084932e-01 2.4477041819e+00 -4.2395480050e+00 2.4477041819e+00 4.2395480050e+00 
3300 6.8496442008e+00 6.8505243359e-01 2.4336225220e+00 -4.2151578545e+00 2.4336225220e+00 4.2151578545e+00 
3400 6.8398639615e+00 6.8053151184e-01 2.4195614205e+00 -4.1908033123e+00 2.4195614205e+00 4.1908033123e+00 
3500 6.8301769566e+00 6.7641524346e-01 2.4055120060e+00 -4.1664690127e+00 2.4055120060e+00 4.1664690127e+00 
3600 6.8205755959e+00 6.7268419610e-01 2.3914660887e+00 -4.1421407702e+00 2.3914660887e+00 4.1421407702e+00 
3700 6.8110477465e+00 6.6933463874e-01 2.3774156919e+00 -4.1178047690e+00 2.3774156919e+00 4.1178047690e+00 
3800 6.8015769256e+00 6.6637228192e-01 2.3633527290e+00 -4.0934470028e+00 2.3633527290e+00 4.0934470028e+00 
3900 6.7921423651e+00 6.6380731787e-01 2.3492688010e+00 -4.0690529239e+00 2.3492688010e+00 4.0690529239e+00 
4000 6.7827190288e+00 6.6165042267e-01 2.3351550911e+00 -4.0446072614e+00 2.3351550911e+00 4.0446072614e+00 
4100 6.7732776351e+00 6.5990938384e-01 2.3210023414e+00 -4.0200939798e+00 2.3210023414e+00 4.0200939798e+00 
4200 6.7637847193e+00 6.5858608198e-01 2.3068008998e+00 -3.9954963615e+00 2.3068008998e+00 3.9954963615e+00 
4300 6.7542027751e+00 6.5767363656e-01 2.2925408349e+00 -3.9707972044e+00 2.2925408349e+00 3.9707972044e+00 
4400 6.7444905137e+00 6.5715360915e-01 2.2782121150e+00 -3.9459791336e+00 2.2782121150e+00 3.9459791336e+00 
4500 6.7346032936e+00 6.5699324455e-01 2.2638048563e+00 -3.9210250296e+00 2.2638048563e+00 3.9210250296e+00 
4600 6.7244937764e+00 6.5714282426e-01 2.2493096396e+00 -3.8959185778e+00 2.2493096396e+00 3.8959185778e+00 
4700 6.7141128768e+00 6.5753331190e-01 2.2347178981e+00 -3.8706449400e+00 2.2347178981e+00 3.8706449400e+00 
4800 6.7034110702e+00 6.5807458250e-01 2.2200223725e+00 -3.8451915431e+00 2.2200223725e+00 3.8451915431e+00 
4900 6.6923401143e+00 6.5865463387e-01 2.2052176248e+00 -3.8195489679e+00 2.2052176248e+00 3.8195489679e+00 
5000 6.6808552108e+00 6.5914025116e-01 2.1903005902e+00 -3.7937119061e+00 2.1903005902e+00 3.7937119061e+00 
5100 6.6689175846e+00 6.5937959256e-01 2.1752711383e+00 -3.7676801318e+00 2.1752711383e+00 3.7676801318e+00 
5200 6.6564973827e+00 6.5920703749e-01 2.1601325999e+00 -3.7414594140e+00 2.1601325999e+00 3.7414594140e+00 
5300 6.6435767026e+00 6.5845035004e-01 2.1448922056e+00 -3.7150622769e+00 2.1448922056e+00 3.7150622769e+00 
5400 6.6301524637e+00 6.5693976608e-01 2.1295613802e+00 -3.6885085083e+00 2.1295613802e+00 3.6885085083e+00 
5500 6.6162387660e+00 6.5451808721e-01 2.1141558380e+00 -3.6618253265e+00 2.1141558380e+00 3.6618253265e+00 
5600 6.6018683714e+00 6.5105041509e-01 2.0986954476e+00 -3.6350471448e+00 2.0986954476e+00 3.6350471448e+00 
5700 6.5870930154e+00 6.4643198108e-01 2.0832038598e+00 -3.6082149278e+00 2.0832038598e+00 3.6082149278e+00 
5800 6.5719824198e+00 6.4059276523e-01 2.0677079317e+00 -3.5813751929e+00 2.0677079317e+00 3.5813751929e+00 
5900 6.5566220923e+00 6.3349825393e-01 2.0522370115e+00 -3.5545787731e+00 2.0522370115e+00 3.5545787731e+00 
6000 6.5411102019e+00 6.2514656612e-01 2.0368221697e+00 -3.5278794838e+00 2.0368221697e+00 3.5278794838e+00 
6100 6.5255539568e+00 6.1556297024e-01 2.0214954610e+00 -3.5013328458e+00 2.0214954610e+00 3.5013328458e+00 
6200 6.5100659253e+00 6.0479323908e-01 2.0062892830e+00 -3.4749949729e+00 2.0062892830e+00 3.4749949729e+00 
6300 6.4947606581e+00 5.9289723915e-01 1.9912358644e+00 -3.4489216869e+00 1.9912358644e+00 3.4489216869e+00 
6400 6.4797518230e+00 5.7994372637e-01 1.9763668858e+00 -3.4231678606e+00 1.9763668858e+00 3.4231678606e+00 
6500 6.4651499073e+00 5.6600674935e-01 1.9617132096e+00 -3.3977869489e+00 1.9617132096e+00 3.3977869489e+00 
6600 6.4510604361e+00 5.5116356502e-01 1.9473046844e+00 -3.3728306513e+00 1.9473046844e+00 3.3728306513e+00 
6700 6.4375825947e+00 5.3549367623e-01 1.9331699912e+00 -3.3483486444e+00 1.9331699912e+00 3.3483486444e+00 
6800 6.4248081420e+00 5.1907851544e-01 1.9193365041e+00 -3.3243883419e+00 1.9193365041e+00 3.3243883419e+00 
6900 6.4128205242e+00 5.0200136238e-01 1.9058301523e+00 -3.3009946544e+00 1.9058301523e+00 3.3009946544e+00 
7000 6.4016941337e+00 4.8434721497e-01 1.8926752768e+00 -3.2782097417e+00 1.8926752768e+00 3.2782097417e+00 
7100 6.3914936909e+00 4.6620246761e-01 1.8798944851e+00 -3.2560727611e+00 1.8798944851e+00 3.2560727611e+00 
7200 6.3822737480e+00 4.4765435653e-01 1.8675085092e+00 -3.2346196214e+00 1.8675085092e+00 3.2346196214e+00 
7300 6.3740783248e+00 4.2879019864e-01 1.8555360754e+00 -3.2138827579e+00 1.8555360754e+00 3.2138827579e+00 
7400 6.3669406888e+00 4.0969648374e-01 1.8439937937e+00 -3.1938909396e+00 1.8439937937e+00 3.1938909396e+00 
7500 6.3608832901e+00 3.9045789045e-01 1.8328960712e+00 -3.1746691203e+00 1.8328960712e+00 3.1746691203e+00 
7600 6.3559178541e+00 3.7115629309e-01 1.8222550558e+00 -3.1562383409e+00 1.8222550558e+00 3.1562383409e+00 
7700 6.3520456292e+00 3.5186981679e-01 1.8120806118e+00 -3.1386156870e+00 1.8120806118e+00 3.1386156870e+00 
7800 6.3492577801e+00 3.3267198601e-01 1.8023803284e+00 -3.1218143034e+00 1.8023803284e+00 3.1218143034e+00 
7900 6.3475359115e+00 3.1363099915e-01 1.7931595600e+00 -3.1058434641e+00 1.7931595600e+00 3.1058434641e+00 
8000 6.3468527043e+00 2.9480915024e-01 1.7844214971e+00 -3.0907086951e+00 1.7844214971e+00 3.0907086951e+00 
8100 6.3471726434e+00 2.7626240838e-01 1.7761672637e+00 -3.0764119434e+00 1.7761672637e+00 3.0764119434e+00 
8200 6.3484528146e+00 2.5804015695e-01 1.7683960383e+00 -3.0629517863e+00 1.7683960383e+00 3.0629517863e+00 
8300 6.3506437499e+00 2.4018508707e-01 1.7611051944e+00 -3.0503236743e+00 1.7611051944e+00 3.0503236743e+00 
8400 6.3536903006e+00 2.2273323435e-01 1.7542904544e+00 -3.0385201983e+00 1.7542904544e+00 3.0385201983e+00 
8500 6.3575325194e+00 2.0571414357e-01 1.7479460542e+00 -3.0275313748e+00 1.7479460542e+00 3.0275313748e+00 
8600 6.3621065360e+00 1.8915114324e-01 1.7420649136e+00 -3.0173449405e+00 1.7420649136e+00 3.0173449405e+00 
8700 6.3673454121e+00 1.7306171044e-01 1.7366388072e+00 -3.0079466485e+00 1.7366388072e+00 3.0079466485e+00 
8800 6.3731799642e+00 1.5745790595e-01 1.7316585340e+00 -2.9993205622e+00 1.7316585340e+00 2.9993205622e+00 
8900 6.3795395472e+00 1.4234686015e-01 1.7271140807e+00 -2.9914493383e+00 1.7271140807e+00 2.9914493383e+00 
9000 6.3863527905e+00 1.2773129142e-01 1.7229947779e+00 -2.9843144966e+00 1.7229947779e+00 2.9843144966e+00 
9100 6.3935482834e+00 1.1361004039e-01 1.7192894447e+00 -2.9778966712e+00 1.7192894447e+00 2.9778966712e+00 
9200 6.4010552061e+00 9.9978605627e-02 1.7159865226e+00 -2.9721758423e+00 1.7159865226e+00 2.9721758423e+00 
9300 6.4088039063e+00 8.6829668472e-02 1.7130741959e+00 -2.9671315444e+00 1.7130741959e+00 2.9671315444e+00 
9400 6.4167264185e+00 7.4153596911e-02 1.7105404986e+00 -2.9627430520e+00 1.7105404986e+00 2.9627430520e+00 
9500 6.4247569296e+00 6.1938920786e-02 1.7083734083e+00 -2.9589895414e+00 1.7083734083e+00 2.9589895414e+00 
9600 6.4328321892e+00 5.0172772504e-02 1.7065609253e+00 -2.9558502288e+00 1.7065609253e+00 2.9558502288e+00 
9700 6.4408918679e+00 3.8841289372e-02 1.7050911400e+00 -2.9533044860e+00 1.7050911400e+00 2.9533044860e+00 
9800 6.4488788645e+00 2.7929975233e-02 1.7039522870e+00 -2.9513319348e+00 1.7039522870e+00 2.9513319348e+00 
9900 6.4567395641e+00 1.7424020492e-02 1.7031327883e+00 -2.9499125213e+00 1.7031327883e+00 2.9499125213e+00 
10000 6.4644240505e+00 7.3085807457e-03 1.7026212853e+00 -2.9490265723e+00 1.7026212853e+00 2.9490265723e+00 
10100 6.4718862735e+00 -2.4309848856e-03 1.7024066625e+00 -2.9486548347e+00 1.7024066625e+00 2.9486548347e+00 
10200 6.4790841745e+00 -1.1808913924e-02 1.7024780615e+00 -2.9487785013e+00 1.7024780615e+00 2.9487785013e+00 
10300 6.4859797727e+00 -2.0838876882e-02 1.7028248887e+00 -2.9493792237e+00 1.7028248887e+00 2.9493792237e+00 
10400 6.4925392136e+00 -2.9533847166e-02 1.7034368167e+00 -2.9504391141e+00 1.7034368167e+00 2.9504391141e+00 
10500 6.4987327833e+00 -3.7906001657e-02 1.7043037802e+00 -2.9519407389e+00 1.7043037802e+00 2.9519407389e+00 
10600 6.5045348897e+00 -4.5966649045e-02 1.7054159681e+00 -2.9538671049e+00 1.7054159681e+00 2.9538671049e+00 
10700 6.5099240146e+00 -5.3726182928e-02 1.7067638123e+00 -2.9562016394e+00 1.7067638123e+00 2.9562016394e+00 
10800 6.5148826378e+00 -6.1194056795e-02 1.7083379736e+00 -2.9589281668e+00 1.7083379736e+00 2.9589281668e+00 
10900 6.5193971360e+00 -6.8378778079e-02 1.7101293270e+00 -2.9620308818e+00 1.7101293270e+00 2.9620308818e+00 
11000 6.5234576599e+00 -7.5287918639e-02 1.7121289443e+00 -2.9654943207e+00 1.7121289443e+00 2.9654943207e+00 
11100 6.5270579905e+00 -8.1928139180e-02 1.7143280781e+00 -2.9693033321e+00 1.7143280781e+00 2.9693033321e+00 
11200 6.5301953780e+00 -8.8305225288e-02 1.7167181441e+00 -2.9734430479e+00 1.7167181441e+00 2.9734430479e+00 
11300 6.5328703657e+00 -9.4424132985e-02 1.7192907051e+00 -2.9778988541e+00 1.7192907051e+00 2.9778988541e+00 
11400 6.5350866005e+00 -1.0028904184e-01 1.7220374549e+00 -2.9826563644e+00 1.7220374549e+00 2.9826563644e+00 
11500 6.5368506334e+00 -1.0590341389e-01 1.7249502039e+00 -2.9877013937e+00 1.7249502039e+00 2.9877013937e+00 
11600 6.5381717111e+00 -1.1127005680e-01 1.7280208656e+00 -2.9930199357e+00 1.7280208656e+00 2.9930199357e+00 
11700 6.5390615615e+00 -1.1639118984e-01 1.7312414443e+00 -2.9985981417e+00 1.7312414443e+00 2.9985981417e+00 
11800 6.5395341755e+00 -1.2126851141e-01 1.7346040250e+00 -3.0044223024e+00 1.7346040250e+00 3.0044223024e+00 
11900 6.5396055857e+00 -1.2590326702e-01 1.7381007643e+00 -3.0104788324e+00 1.7381007643e+00 3.0104788324e+00 
12000 6.5392936457e+00 -1.3029631684e-01 1.7417238828e+00 -3.0167542578e+00 1.7417238828e+00 3.0167542578e+00 
12100 6.5386178097e+00 -1.3444820177e-01 1.7454656600e+00 -3.0232352060e+00 1.7454656600e+00 3.0232352060e+00 
12200 6.5375989156e+00 -1.3835920753e-01 1.7493184295e+00 -3.0299083984e+00 1.7493184295e+00 3.0299083984e+00 
12300 6.5362589717e+00 -1.4202942609e-01 1.7532745766e+00 -3.0367606462e+00 1.7532745766e+00 3.0367606462e+00 
12400 6.5346209502e+00 -1.4545881389e-01 1.7573265371e+00 -3.0437788477e+00 1.7573265371e+00 3.0437788477e+00 
12500 6.5327085855e+00 -1.4864724645e-01 1.7614667970e+00 -3.0509499883e+00 1.7614667970e+00 3.0509499883e+00 
12600 6.5305461820e+00 -1.5159456921e-01 1.7656878942e+00 -3.0582611430e+00 1.7656878942e+00 3.0582611430e+00 
12700 6.5281584291e+00 -1.5430064406e-01 1.7699824200e+00 -3.0656994800e+00 1.7699824200e+00 3.0656994800e+00 
12800 6.5255702262e+00 -1.5676539179e-01 1.7743430232e+00 -3.0732522663e+00 1.7743430232e+00 3.0732522663e+00 
12900 6.5228065171e+00 -1.5898882993e-01 1.7787624133e+00 -3.0809068745e+00 1.7787624133e+00 3.0809068745e+00 
13000 6.5198921349e+00 -1.6097110641e-01 1.7832333656e+00 -3.0886507910e+00 1.7832333656e+00 3.0886507910e+00 
13100 6.5168516574e+00 -1.6271252871e-01 1.7877487264e+00 -3.0964716253e+00 1.7877487264e+00 3.0964716253e+00 
13200 6.5137092735e+00 -1.6421358877e-01 1.7923014184e+00 -3.1043571191e+00 1.7923014184e+00 3.1043571191e+00 
13300 6.5104886599e+00 -1.6547498374e-01 1.7968844467e+00 -3.1122951571e+00 1.7968844467e+00 3.1122951571e+00 
13400 6.5072128698e+00 -1.6649763275e-01 1.8014909053e+00 -3.1202737773e+00 1.8014909053e+00 3.1202737773e+00 
13500 6.5039042310e+00 -1.6728268991e-01 1.8061139825e+00 -3.1282811820e+00 1.8061139825e+00 3.1282811820e+00 
13600 6.5005842564e+00 -1.6783155373e-01 1.8107469679e+00 -3.1363057481e+00 1.8107469679e+00 3.1363057481e+00 
13700 6.4972735631e+00 -1.6814587333e-01 1.8153832579e+00 -3.1443360379e+00 1.8153832579e+00 3.1443360379e+00 
13800 6.4939918031e+00 -1.6822755148e-01 1.8200163618e+00 -3.1523608092e+00 1.8200163618e+00 3.1523608092e+00 
13900 6.4907576031e+00 -1.6807874514e-01 1.8246399072e+00 -3.1603690249e+00 1.8246399072e+00 3.1603690249e+00 
14000 6.4875885136e+00 -1.6770186337e-01 1.8292476459e+00 -3.1683498624e+00 1.8292476459e+00 3.1683498624e+00 
14100 6.4845009672e+00 -1.6709956322e-01 1.8338334583e+00 -3.1762927224e+00 1.8338334583e+00 3.1762927224e+00 
14200 6.4815102452e+00 -1.6627474378e-01 1.8383913581e+00 -3.1841872364e+00 1.8383913581e+00 3.1841872364e+00 
14300 6.4786304524e+00 -1.6523053869e-01 1.8429154967e+00 -3.1920232743e+00 1.8429154967e+00 3.1920232743e+00 
14400 6.4758744991e+00 -1.6397030740e-01 1.8474001669e+00 -3.1997909509e+00 1.8474001669e+00 3.1997909509e+00 
14500 6.4732540904e+00 -1.6249762550e-01 1.8518398059e+00 -3.2074806313e+00 1.8518398059e+00 3.2074806313e+00 
14600 6.4707797215e+00 -1.6081627437e-01 1.8562289988e+00 -3.2150829363e+00 1.8562289988e+00 3.2150829363e+00 
14700 6.4684606798e+00 -1.5893023030e-01 1.8605624802e+00 -3.2225887463e+00 1.8605624802e+00 3.2225887463e+00 
14800 6.4663050513e+00 -1.5684365354e-01 1.8648351369e+00 -3.2299892049e+00 1.8648351369e+00 3.2299892049e+00 
14900 6.4643197337e+00 -1.5456087725e-01 1.8690420093e+00 -3.2372757216e+00 1.8690420093e+00 3.2372757216e+00 
15000 6.4625104521e+00 -1.5208639673e-01 1.8731782924e+00 -3.2444399741e+00 1.8731782924e+00 3.2444399741e+00 
15100 6.4608817806e+00 -1.4942485901e-01 1.8772393370e+00 -3.2514739097e+00 1.8772393370e+00 3.2514739097e+00 
15200 6.4594371668e+00 -1.4658105300e-01 1.8812206500e+00 -3.2583697461e+00 1.8812206500e+00 3.2583697461e+00 
15300 6.4581789597e+00 -1.4355990033e-01 1.8851178947e+00 -3.2651199718e+00 1.8851178947e+00 3.2651199718e+00 
15400 6.4571084405e+00 -1.4036644702e-01 1.8889268907e+00 -3.2717173465e+00 1.8889268907e+00 3.2717173465e+00 
15500 6.4562258567e+00 -1.3700585602e-01 1.8926436140e+00 -3.2781549001e+00 1.8926436140e+00 3.2781549001e+00 
15600 6.4555304581e+00 -1.3348340077e-01 1.8962641964e+00 -3.2844259327e+00 1.8962641964e+00 3.2844259327e+00 
15700 6.4550205351e+00 -1.2980445980e-01 1.8997849246e+00 -3.2905240128e+00 1.8997849246e+00 3.2905240128e+00 
15800 6.4546934583e+00 -1.2597451244e-01 1.9032022402e+00 -3.2964429771e+00 1.9032022402e+00 3.2964429771e+00 
15900 6.4545457211e+00 -1.2199913562e-01 1.9065127386e+00 -3.3021769285e+00 1.9065127386e+00 3.3021769285e+00 
16000 6.4545729825e+00 -1.1788400185e-01 1.9097131683e+00 -3.3077202354e+00 1.9097131683e+00 3.3077202354e+00 
16100 6.4547701115e+00 -1.1363487824e-01 1.9128004305e+00 -3.3130675304e+00 1.9128004305e+00 3.3130675304e+00 
16200 6.4551312335e+00 -1.0925762671e-01 1.9157715780e+00 -3.3182137087e+00 1.9157715780e+00 3.3182137087e+00 
16300 6.4556497766e+00 -1.0475820517e-01 1.9186238149e+00 -3.3231539281e+00 1.9186238149e+00 3.3231539281e+00 
16400 6.4563185192e+00 -1.0014266979e-01 1.9213544965e+00 -3.3278836073e+00 1.9213544965e+00 3.3278836073e+00 
16500 6.4571296394e+00 -9.5417178100e-02 1.9239611284e+00 -3.3323984261e+00 1.9239611284e+00 3.3323984261e+00 
16600 6.4580747634e+00 -9.0587993020e-02 1.9264413668e+00 -3.3366943252e+00 1.9264413668e+00 3.3366943252e+00 
16700 6.4591450162e+00 -8.5661487613e-02 1.9287930189e+00 -3.3407675061e+00 1.9287930189e+00 3.3407675061e+00 
16800 6.4603310724e+00 -8.0644150471e-02 1.9310140428e+00 -3.3446144322e+00 1.9310140428e+00 3.3446144322e+00 
16900 6.4616232071e+00 -7.5542591633e-02 1.9331025483e+00 -3.3482318298e+00 1.9331025483e+00 3.3482318298e+00 
17000 6.4630113479e+00 -7.0363548875e-02 1.9350567981e+00 -3.3516166898e+00 1.9350567981e+00 3.3516166898e+00 
17100 6.4644851278e+00 -6.5113894238e-02 1.9368752087e+00 -3.3547662694e+00 1.9368752087e+00 3.3547662694e+00 
17200 6.4660339373e+00 -5.9800640625e-02 1.9385563522e+00 -3.3576780954e+00 1.9385563522e+00 3.3576780954e+00 
17300 6.4676469781e+00 -5.4430948298e-02 1.9400989580e+00 -3.3603499669e+00 1.9400989580e+00 3.3603499669e+00 
17400 6.4693133167e+00 -4.9012131105e-02 1.9415019148e+00 -3.3627799595e+00 1.9415019148e+00 3.3627799595e+00 
17500 6.4710219382e+00 -4.3551662219e-02 1.9427642736e+00 -3.3649664290e+00 1.9427642736e+00 3.3649664290e+00 
17600 6.4727617999e+00 -3.8057179224e-02 1.9438852497e+00 -3.3669080166e+00 1.9438852497e+00 3.3669080166e+00 
17700 6.4745218863e+00 -3.2536488305e-02 1.9448642265e+00 -3.3686036542e+00 1.9448642265e+00 3.3686036542e+00 
17800 6.4762912623e+00 -2.6997567369e-02 1.9457007584e+00 -3.3700525699e+00 1.9457007584e+00 3.3700525699e+00 
17900 6.4780591276e+00 -2.1448567843e-02 1.9463945746e+00 -3.3712542947e+00 1.9463945746e+00 3.3712542947e+00 
18000 6.4798148703e+00 -1.5897814965e-02 1.9469455826e+00 -3.3722086686e+00 1.9469455826e+00 3.3722086686e+00 
18100 6.4815481197e+00 -1.0353806339e-02 1.9473538726e+00 -3.3729158477e+00 1.9473538726e+00 3.3729158477e+00 
18200 6.4832487991e+00 -4.8252085390e-03 1.9476197216e+00 -3.3733763117e+00 1.9476197216e+00 3.3733763117e+00 
18300 6.4849071770e+00 6.7914842436e-04 1.9477435974e+00 -3.3735908709e+00 1.9477435974e+00 3.3735908709e+00 
18400 6.4865139175e+00 6.1502789783e-03 1.9477261632e+00 -3.3735606740e+00 1.9477261632e+00 3.3735606740e+00 
18500 6.4880601294e+00 1.1579052373e-02 1.9475682818e+00 -3.3732872153e+00 1.9475682818e+00 3.3732872153e+00 
18600 6.4895374136e+00 1.6956205730e-02 1.9472710199e+00 -3.3727723425e+00 1.9472710199e+00 3.3727723425e+00 
18700 6.4909379077e+00 2.2272359900e-02 1.9468356523e+00 -3.3720182638e+00 1.9468356523e+00 3.3720182638e+00 
18800 6.4922543297e+00 2.7518038207e-02 1.9462636659e+00 -3.3710275543e+00 1.9462636659e+00 3.3710275543e+00 
18900 6.4934800178e+00 3.2683688180e-02 1.9455567635e+00 -3.3698031633e+00 1.9455567635e+00 3.3698031633e+00 
19000 6.4946089680e+00 3.7759706290e-02 1.9447168667e+00 -3.3683484195e+00 1.9447168667e+00 3.3683484195e+00 
19100 6.4956358678e+00 4.2736465684e-02 1.9437461197e+00 -3.3666670363e+00 1.9437461197e+00 3.3666670363e+00 
19200 6.4965561266e+00 4.7604346878e-02 1.9426468909e+00 -3.3647631162e+00 1.9426468909e+00 3.3647631162e+00 
19300 6.4973659018e+00 5.2353771302e-02 1.9414217753e+00 -3.3626411537e+00 1.9414217753e+00 3.3626411537e+00 
19400 6.4980621208e+00 5.6975237549e-02 1.9400735956e+00 -3.3603060380e+00 1.9400735956e+00 3.3603060380e+00 
19500 6.4986424979e+00 6.1459360143e-02 1.9386054027e+00 -3.3577630534e+00 1.9386054027e+00 3.3577630534e+00 
19600 6.4991055464e+00 6.5796910552e-02 1.9370204753e+00 -3.3550178785e+00 1.9370204753e+00 3.3550178785e+00 
19700 6.4994505857e+00 6.9978860167e-02 1.9353223186e+00 -3.3520765848e+00 1.9353223186e+00 3.3520765848e+00 
19800 6.4996777421e+00 7.3996424877e-02 1.9335146622e+00 -3.3489456321e+00 1.9335146622e+00 3.3489456321e+00 
19900 6.4997879450e+00 7.7841110844e-02 1.9316014570e+00 -3.3456318634e+00 1.9316014570e+00 3.3456318634e+00 
20000 6.4997829157e+00 8.1504761044e-02 1.9295868705e+00 -3.3421424973e+00 1.9295868705e+00 3.3421424973e+00 
20100 6.4996651522e+00 8.4979602064e-02 1.9274752818e+00 -3.3384851184e+00 1.9274752818e+00 3.3384851184e+00 
20200 6.4994379060e+00 8.8258290667e-02 1.9252712747e+00 -3.3346676661e+00 1.9252712747e+00 3.3346676661e+00 
20300 6.4991051545e+00 9.1333959558e-02 1.9229796299e+00 -3.3306984209e+00 1.9229796299e+00 3.3306984209e+00 
20400 6.4986715666e+00 9.4200261807e-02 1.9206053162e+00 -3.3265859889e+00 1.9206053162e+00 3.3265859889e+00 
20500 6.4981424632e+00 9.6851413351e-02 1.9181534801e+00 -3.3223392842e+00 1.9181534801e+00 3.3223392842e+00 
20600 6.4975237716e+00 9.9282233012e-02 1.9156294344e+00 -3.3179675089e+00 1.9156294344e+00 3.3179675089e+00 
20700 6.4968219756e+00 1.0148817948e-01 1.9130386458e+00 -3.3134801313e+00 1.9130386458e+00 3.3134801313e+00 
20800 6.4960440600e+00 1.0346538470e-01 1.9103867210e+00 -3.3088868628e+00 1.9103867210e+00 3.3088868628e+00 
20900 6.4951974514e+00 1.0521068327e-01 1.9076793920e+00 -3.3041976315e+00 1.9076793920e+00 3.3041976315e+00 
21000 6.4942899553e+00 1.0672163718e-01 1.9049225006e+00 -3.2994225554e+00 1.9049225006e+00 3.2994225554e+00 
21100 6.4933296892e+00 1.0799655580e-01 1.9021219813e+00 -3.2945719138e+00 1.9021219813e+00 3.2945719138e+00 
21200 6.4923250144e+00 1.0903451043e-01 1.8992838444e+00 -3.2896561165e+00 1.8992838444e+00 3.2896561165e+00 
21300 6.4912844646e+00 1.0983534351e-01 1.8964141573e+00 -3.2846856727e+00 1.8964141573e+00 3.2846856727e+00 
21400 6.4902166746e+00 1.1039967193e-01 1.8935190264e+00 -3.2796711588e+00 1.8935190264e+00 3.2796711588e+00 
21500 6.4891303075e+00 1.1072888469e-01 1.8906045772e+00 -3.2746231847e+00 1.8906045772e+00 3.2746231847e+00 
21600 6.4880339831e+00 1.1082513461e-01 1.8876769355e+00 -3.2695523605e+00 1.8876769355e+00 3.2695523605e+00 
21700 6.4869362065e+00 1.1069132428e-01 1.8847422075e+00 -3.2644692626e+00 1.8847422075e+00 3.2644692626e+00 
21800 6.4858452997e+00 1.1033108645e-01 1.8818064602e+00 -3.2593843992e+00 1.8818064602e+00 3.2593843992e+00 
21900 6.4847693347e+00 1.0974875891e-01 1.8788757020e+00 -3.2543081770e+00 1.8788757020e+00 3.2543081770e+00 
22000 6.4837160703e+00 1.0894935440e-01 1.8759558633e+00 -3.2492508679e+00 1.8759558633e+00 3.2492508679e+00 
22100 6.4826928929e+00 1.0793852577e-01 1.8730527778e+00 -3.2442225764e+00 1.8730527778e+00 3.2442225764e+00 
22200 6.4817067615e+00 1.0672252690e-01 1.8701721647e+00 -3.2392332081e+00 1.8701721647e+00 3.2392332081e+00 
22300 6.4807641582e+00 1.0530816990e-01 1.8673196105e+00 -3.2342924393e+00 1.8673196105e+00 3.2342924393e+00 
22400 6.4798710439e+00 1.0370277908e-01 1.8645005530e+00 -3.2294096886e+00 1.8645005530e+00 3.2294096886e+00 
22500 6.4790328195e+00 1.0191414232e-01 1.8617202653e+00 -3.2245940889e+00 1.8617202653e+00 3.2245940889e+00 
22600 6.4782542944e+00 9.9950460473e-02 1.8589838409e+00 -3.2198544629e+00 1.8589838409e+00 3.2198544629e+00 
22700 6.4775396600e+00 9.7820295312e-02 1.8562961808e+00 -3.2151992990e+00 1.8562961808e+00 3.2151992990e+00 
22800 6.4768924712e+00 9.5532516745e-02 1.8536619804e+00 -3.2106367301e+00 1.8536619804e+00 3.2106367301e+00 
22900 6.4763156330e+00 9.3096249824e-02 1.8510857191e+00 -3.2061745147e+00 1.8510857191e+00 3.2061745147e+00 
23000 6.4758113949e+00 9.0520822157e-02 1.8485716502e+00 -3.2018200195e+00 1.8485716502e+00 3.2018200195e+00 
23100 6.4753813512e+00 8.7815712245e-02 1.8461237923e+00 -3.1975802053e+00 1.8461237923e+00 3.1975802053e+00 
23200 6.4750264472e+00 8.4990499275e-02 1.8437459227e+00 -3.1934616144e+00 1.8437459227e+00 3.1934616144e+00 
23300 6.4747469920e+00 8.2054814784e-02 1.8414415713e+00 -3.1894703607e+00 1.8414415713e+00 3.1894703607e+00 
23400 6.4745426763e+00 7.9018296630e-02 1.8392140163e+00 -3.1856121222e+00 1.8392140163e+00 3.1856121222e+00 
23500 6.4744125961e+00 7.5890545582e-02 1.8370662810e+00 -3.1818921356e+00 1.8370662810e+00 3.1818921356e+00 
23600 6.4743552804e+00 7.2681084834e-02 1.8350011321e+00 -3.1783151928e+00 1.8350011321e+00 3.1783151928e+00 
23700 6.4743687237e+00 6.9399322654e-02 1.8330210789e+00 -3.1748856400e+00 1.8330210789e+00 3.1748856400e+00 
23800 6.4744504223e+00 6.6054518327e-02 1.8311283739e+00 -3.1716073787e+00 1.8311283739e+00 3.1716073787e+00 
23900 6.4745974134e+00 6.2655751504e-02 1.8293250141e+00 -3.1684838680e+00 1.8293250141e+00 3.1684838680e+00 
24000 6.4748063176e+00 5.9211894995e-02 1.8276127441e+00 -3.1655181294e+00 1.8276127441e+00 3.1655181294e+00 
24100 6.4750733828e+00 5.5731591006e-02 1.8259930591e+00 -3.1627127526e+00 1.8259930591e+00 3.1627127526e+00 
24200 6.4753945301e+00 5.2223230769e-02 1.8244672093e+00 -3.1600699033e+00 1.8244672093e+00 3.1600699033e+00 
24300 6.4757654011e+00 4.8694937462e-02 1.8230362053e+00 -3.1575913317e+00 1.8230362053e+00 3.1575913317e+00 
24400 6.4761814046e+00 4.5154552303e-02 1.8217008235e+00 -3.1552783825e+00 1.8217008235e+00 3.1552783825e+00 
24500 6.4766377648e+00 4.1609623634e-02 1.8204616127e+00 -3.1531320064e+00 1.8204616127e+00 3.1531320064e+00 
24600 6.4771295681e+00 3.8067398830e-02 1.8193189007e+00 -3.1511527711e+00 1.8193189007e+00 3.1511527711e+00 
24700 6.4776518090e+00 3.4534818810e-02 1.8182728018e+00 -3.1493408747e+00 1.8182728018e+00 3.1493408747e+00 
24800 6.4781994354e+00 3.1018514932e-02 1.8173232245e+00 -3.1476961586e+00 1.8173232245e+00 3.1476961586e+00 
24900 6.4787673917e+00 2.7524808053e-02 1.8164698792e+00 -3.1462181211e+00 1.8164698792e+00 3.1462181211e+00 
25000 6.4793506600e+00 2.4059709495e-02 1.8157122863e+00 -3.1449059317e+00 1.8157122863e+00 3.1449059317e+00 
25100 6.4799442992e+00 2.0628923716e-02 1.8150497847e+00 -3.1437584453e+00 1.8150497847e+00 3.1437584453e+00 
25200 6.4805434818e+00 1.7237852428e-02 1.8144815400e+00 -3.1427742167e+00 1.8144815400e+00 3.1427742167e+00 
25300 6.4811435272e+00 1.3891599951e-02 1.8140065531e+00 -3.1419515152e+00 1.8140065531e+00 3.1419515152e+00 
25400 6.4817399331e+00 1.0594979598e-02 1.8136236683e+00 -3.1412883393e+00 1.8136236683e+00 3.1412883393e+00 
25500 6.4823284032e+00 7.3525208747e-03 1.8133315819e+00 -3.1407824308e+00 1.8133315819e+00 3.1407824308e+00 
25600 6.4829048723e+00 4.1684773249e-03 1.8131288505e+00 -3.1404312898e+00 1.8131288505e+00 3.1404312898e+00 
25700 6.4834655282e+00 1.0468348379e-03 1.8130138992e+00 -3.1402321882e+00 1.8130138992e+00 3.1402321882e+00 
25800 6.4840068300e+00 -2.0086797270e-03 1.8129850292e+00 -3.1401821840e+00 1.8129850292e+00 3.1401821840e+00 
25900 6.4845255236e+00 -4.9945897404e-03 1.8130404265e+00 -3.1402781349e+00 1.8130404265e+00 3.1402781349e+00 
26000 6.4850186545e+00 -7.9076599475e-03 1.8131781690e+00 -3.1405167119e+00 1.8131781690e+00 3.1405167119e+00 
26100 6.4854835770e+00 -1.0744887662e-02 1.8133962341e+00 -3.1408944117e+00 1.8133962341e+00 3.1408944117e+00 
26200 6.4859179607e+00 -1.3503494097e-02 1.8136925064e+00 -3.1414075704e+00 1.8136925064e+00 3.1414075704e+00 
26300 6.4863197940e+00 -1.6180915908e-02 1.8140647844e+00 -3.1420523747e+00 1.8140647844e+00 3.1420523747e+00 
26400 6.4866873854e+00 -1.8774797003e-02 1.8145107877e+00 -3.1428248752e+00 1.8145107877e+00 3.1428248752e+00 
26500 6.4870193619e+00 -2.1282980674e-02 1.8150281638e+00 -3.1437209968e+00 1.8150281638e+00 3.1437209968e+00 
26600 6.4873146648e+00 -2.3703502073e-02 1.8156144942e+00 -3.1447365510e+00 1.8156144942e+00 3.1447365510e+00 
26700 6.4875725441e+00 -2.6034581065e-02 1.8162673014e+00 -3.1458672461e+00 1.8162673014e+00 3.1458672461e+00 
26800 6.4877925499e+00 -2.8274615465e-02 1.8169840541e+00 -3.1471086983e+00 1.8169840541e+00 3.1471086983e+00 
26900 6.4879745225e+00 -3.0422174664e-02 1.8177621741e+00 -3.1484564417e+00 1.8177621741e+00 3.1484564417e+00 
27000 6.4881185808e+00 -3.2475993650e-02 1.8185990412e+00 -3.1499059380e+00 1.8185990412e+00 3.1499059380e+00 
27100 6.4882251093e+00 -3.4434967400e-02 1.8194919992e+00 -3.1514525866e+00 1.8194919992e+00 3.1514525866e+00 
27200 6.4882947434e+00 -3.6298145642e-02 1.8204383609e+00 -3.1530917331e+00 1.8204383609e+00 3.1530917331e+00 
27300 6.4883283539e+00 -3.8064727962e-02 1.8214354135e+00 -3.1548186789e+00 1.8214354135e+00 3.1548186789e+00 
27400 6.4883270306e+00 -3.9734059241e-02 1.8224804236e+00 -3.1566286894e+00 1.8224804236e+00 3.1566286894e+00 
27500 6.4882920649e+00 -4.1305625386e-02 1.8235706415e+00 -3.1585170023e+00 1.8235706415e+00 3.1585170023e+00 
27600 6.4882249323e+00 -4.2779049349e-02 1.8247033067e+00 -3.1604788359e+00 1.8247033067e+00 3.1604788359e+00 
27700 6.4881272738e+00 -4.4154087386e-02 1.8258756514e+00 -3.1625093966e+00 1.8258756514e+00 3.1625093966e+00 
27800 6.4880008773e+00 -4.5430625552e-02 1.8270849057e+00 -3.1646038863e+00 1.8270849057e+00 3.1646038863e+00 
27900 6.4878476594e+00 -4.6608676383e-02 1.8283283009e+00 -3.1667575101e+00 1.8283283009e+00 3.1667575101e+00 
28000 6.4876696465e+00 -4.7688375766e-02 1.8296030744e+00 -3.1689654825e+00 1.8296030744e+00 3.1689654825e+00 
28100 6.4874689560e+00 -4.8669979944e-02 1.8309064728e+00 -3.1712230347e+00 1.8309064728e+00 3.1712230347e+00 
28200 6.4872477788e+00 -4.9553862660e-02 1.8322357560e+00 -3.1735254208e+00 1.8322357560e+00 3.1735254208e+00 
28300 6.4870083605e+00 -5.0340512398e-02 1.8335882007e+00 -3.1758679238e+00 1.8335882007e+00 3.1758679238e+00 
28400 6.4867529851e+00 -5.1030529715e-02 1.8349611041e+00 -3.1782458622e+00 1.8349611041e+00 3.1782458622e+00 
28500 6.4864839570e+00 -5.1624624641e-02 1.8363517867e+00 -3.1806545952e+00 1.8363517867e+00 3.1806545952e+00 
28600 6.4862035859e+00 -5.2123614131e-02 1.8377575959e+00 -3.1830895282e+00 1.8377575959e+00 3.1830895282e+00 
28700 6.4859141704e+00 -5.2528419550e-02 1.8391759090e+00 -3.1855461185e+00 1.8391759090e+00 3.1855461185e+00 
28800 6.4856179841e+00 -5.2840064196e-02 1.8406041360e+00 -3.1880198801e+00 1.8406041360e+00 3.1880198801e+00 
28900 6.4853172611e+00 -5.3059670829e-02 1.8420397224e+00 -3.1905063888e+00 1.8420397224e+00 3.1905063888e+00 
29000 6.4850141834e+00 -5.3188459213e-02 1.8434801523e+00 -3.1930012865e+00 1.8434801523e+00 3.1930012865e+00 
29100 6.4847108685e+00 -5.3227743653e-02 1.8449229503e+00 -3.1955002860e+00 1.8449229503e+00 3.1955002860e+00 
29200 6.4844093586e+00 -5.3178930534e-02 1.8463656847e+00 -3.1979991752e+00 1.8463656847e+00 3.1979991752e+00 
29300 6.4841116099e+00 -5.3043515842e-02 1.8478059692e+00 -3.2004938211e+00 1.8478059692e+00 3.2004938211e+00 
29400 6.4838194841e+00 -5.2823082679e-02 1.8492414656e+00 -3.2029801739e+00 1.8492414656e+00 3.2029801739e+00 
29500 6.4835347393e+00 -5.2519298753e-02 1.8506698858e+00 -3.2054542702e+00 1.8506698858e+00 3.2054542702e+00 
29600 6.4832590234e+00 -5.2133913866e-02 1.8520889937e+00 -3.2079122372e+00 1.8520889937e+00 3.2079122372e+00 
29700 6.4829938674e+00 -5.1668757364e-02 1.8534966072e+00 -3.2103502954e+00 1.8534966072e+00 3.2103502954e+00 
29800 6.4827406804e+00 -5.1125735587e-02 1.8548906003e+00 -3.2127647622e+00 1.8548906003e+00 3.2127647622e+00 
29900 6.4825007449e+00 -5.0506829287e-02 1.8562689043e+00 -3.2151520547e+00 1.8562689043e+00 3.2151520547e+00 
30000 6.4822752134e+00 -4.9814091035e-02 1.8576295098e+00 -3.2175086926e+00 1.8576295098e+00 3.2175086926e+00 
30100 6.4820651063e+00 -4.9049642605e-02 1.8589704682e+00 -3.2198313008e+00 1.8589704682e+00 3.2198313008e+00 
30200 6.4818713096e+00 -4.8215672343e-02 1.8602898932e+00 -3.2221166118e+00 1.8602898932e+00 3.2221166118e+00 
30300 6.4816945745e+00 -4.7314432513e-02 1.8615859618e+00 -3.2243614685e+00 1.8615859618e+00 3.2243614685e+00 
30400 6.4815355174e+00 -4.6348236631e-02 1.8628569160e+00 -3.2265628258e+00 1.8628569160e+00 3.2265628258e+00 
30500 6.4813946207e+00 -4.5319456769e-02 1.8641010640e+00 -3.2287177532e+00 1.8641010640e+00 3.2287177532e+00 
30600 6.4812722342e+00 -4.4230520850e-02 1.8653167808e+00 -3.2308234365e+00 1.8653167808e+00 3.2308234365e+00 
30700 6.4811685778e+00 -4.3083909911e-02 1.8665025097e+00 -3.2328771793e+00 1.8665025097e+00 3.2328771793e+00 
30800 6.4810837440e+00 -4.1882155352e-02 1.8676567634e+00 -3.2348764053e+00 1.8676567634e+00 3.2348764053e+00 
30900 6.4810177017e+00 -4.0627836145e-02 1.8687781243e+00 -3.2368186593e+00 1.8687781243e+00 3.2368186593e+00 
31000 6.4809703008e+00 -3.9323576026e-02 1.8698652456e+00 -3.2387016087e+00 1.8698652456e+00 3.2387016087e+00 
31100 6.4809412761e+00 -3.7972040652e-02 1.8709168524e+00 -3.2405230451e+00 1.8709168524e+00 3.2405230451e+00 
31200 6.4809302534e+00 -3.6575934713e-02 1.8719317417e+00 -3.2422808850e+00 1.8719317417e+00 3.2422808850e+00 
31300 6.4809367547e+00 -3.5137999014e-02 1.8729087836e+00 -3.2439731712e+00 1.8729087836e+00 3.2439731712e+00 
31400 6.4809602045e+00 -3.3661007505e-02 1.8738469214e+00 -3.2455980735e+00 1.8738469214e+00 3.2455980735e+00 
31500 6.4809999365e+00 -3.2147764264e-02 1.8747451724e+00 -3.2471538898e+00 1.8747451724e+00 3.2471538898e+00 
31600 6.4810552001e+00 -3.0601100423e-02 1.8756026279e+00 -3.2486390464e+00 1.8756026279e+00 3.2486390464e+00 
31700 6.4811251678e+00 -2.9023871036e-02 1.8764184542e+00 -3.2500520990e+00 1.8764184542e+00 3.2500520990e+00 
31800 6.4812089422e+00 -2.7418951880e-02 1.8771918921e+00 -3.2513917327e+00 1.8771918921e+00 3.2513917327e+00 
31900 6.4813055643e+00 -2.5789236185e-02 1.8779222578e+00 -3.2526567631e+00 1.8779222578e+00 3.2526567631e+00 
32000 6.4814140202e+00 -2.4137631289e-02 1.8786089424e+00 -3.2538461358e+00 1.8786089424e+00 3.2538461358e+00 
32100 6.4815332498e+00 -2.2467055215e-02 1.8792514126e+00 -3.2549589269e+00 1.8792514126e+00 3.2549589269e+00 
32200 6.4816621542e+00 -2.0780433162e-02 1.8798492104e+00 -3.2559943430e+00 1.8798492104e+00 3.2559943430e+00 
32300 6.4817996038e+00 -1.9080693907e-02 1.8804019529e+00 -3.2569517211e+00 1.8804019529e+00 3.2569517211e+00 
32400 6.4819444458e+00 -1.7370766120e-02 1.8809093325e+00 -3.2578305283e+00 1.8809093325e+00 3.2578305283e+00 
32500 6.4820955127e+00 -1.5653574580e-02 1.8813711165e+00 -3.2586303617e+00 1.8813711165e+00 3.2586303617e+00 
32600 6.4822516293e+00 -1.3932036303e-02 1.8817871469e+00 -3.2593509475e+00 1.8817871469e+00 3.2593509475e+00 
32700 6.4824116206e+00 -1.2209056572e-02 1.8821573400e+00 -3.2599921408e+00 1.8821573400e+00 3.2599921408e+00 
32800 6.4825743193e+00 -1.0487524870e-02 1.8824816861e+00 -3.2605539247e+00 1.8824816861e+00 3.2605539247e+00 
32900 6.4827385725e+00 -8.7703107259e-03 1.8827602488e+00 -3.2610364094e+00 1.8827602488e+00 3.2610364094e+00 
33000 6.4829032492e+00 -7.0602594708e-03 1.8829931646e+00 -3.2614398314e+00 1.8829931646e+00 3.2614398314e+00 
33100 6.4830672465e+00 -5.3601879050e-03 1.8831806421e+00 -3.2617645519e+00 1.8831806421e+00 3.2617645519e+00 
33200 6.4832294959e+00 -3.6728798913e-03 1.8833229613e+00 -3.2620110560e+00 1.8833229613e+00 3.2620110560e+00 
33300 6.4833889697e+00 -2.0010818752e-03 1.8834204727e+00 -3.2621799508e+00 1.8834204727e+00 3.2621799508e+00 
33400 6.4835446858e+00 -3.4749834322e-04 1.8834735966e+00 -3.2622719640e+00 1.8834735966e+00 3.2622719640e+00 
33500 6.4836957136e+00 1.2852127709e-03 1.8834828215e+00 -3.2622879421e+00 1.8834828215e+00 3.2622879421e+00 
33600 6.4838411785e+00 2.8944447194e-03 1.8834487037e+00 -3.2622288482e+00 1.8834487037e+00 3.2622288482e+00 
33700 6.4839802659e+00 4.4776466004e-03 1.8833718652e+00 -3.2620957601e+00 1.8833718652e+00 3.2620957601e+00 
33800 6.4841122255e+00 6.0323280296e-03 1.8832529933e+00 -3.2618898680e+00 1.8832529933e+00 3.2618898680e+00 
33900 6.4842363743e+00 7.5560638070e-03 1.8830928385e+00 -3.2616124716e+00 1.8830928385e+00 3.2616124716e+00 
34000 6.4843520996e+00 9.0464985610e-03 1.8828922129e+00 -3.2612649780e+00 1.8828922129e+00 3.2612649780e+00 
34100 6.4844588612e+00 1.0501351353e-02 1.8826519893e+00 -3.2608488984e+00 1.8826519893e+00 3.2608488984e+00 
34200 6.4845561934e+00 1.1918420218e-02 1.8823730983e+00 -3.2603658451e+00 1.8823730983e+00 3.2603658451e+00 
34300 6.4846437062e+00 1.3295586629e-02 1.8820565275e+00 -3.2598175284e+00 1.8820565275e+00 3.2598175284e+00 
34400 6.4847210861e+00 1.4630819852e-02 1.8817033189e+00 -3.2592057532e+00 1.8817033189e+00 3.2592057532e+00 
34500 6.4847880963e+00 1.5922181179e-02 1.8813145670e+00 -3.2585324151e+00 1.8813145670e+00 3.2585324151e+00 
34600 6.4848445766e+00 1.7167828015e-02 1.8808914165e+00 -3.2577994969e+00 1.8808914165e+00 3.2577994969e+00 
34700 6.4848904423e+00 1.8366017789e-02 1.8804350602e+00 -3.2570090646e+00 1.8804350602e+00 3.2570090646e+00 
34800 6.4849256836e+00 1.9515111675e-02 1.8799467364e+00 -3.2561632630e+00 1.8799467364e+00 3.2561632630e+00 
34900 6.4849503633e+00 2.0613578099e-02 1.8794277267e+00 -3.2552643118e+00 1.8794277267e+00 3.2552643118e+00 
35000 6.4849646146e+00 2.1659996002e-02 1.8788793530e+00 -3.2543145006e+00 1.8788793530e+00 3.2543145006e+00 
35100 6.4849686391e+00 2.2653057850e-02 1.8783029751e+00 -3.2533161850e+00 1.8783029751e+00 3.2533161850e+00 
35200 6.4849627030e+00 2.3591572361e-02 1.8776999881e+00 -3.2522717808e+00 1.8776999881e+00 3.2522717808e+00 
35300 6.4849471343e+00 2.4474466930e-02 1.8770718192e+00 -3.2511837603e+00 1.8770718192e+00 3.2511837603e+00 
35400 6.4849223186e+00 2.5300789745e-02 1.8764199249e+00 -3.2500546462e+00 1.8764199249e+00 3.2500546462e+00 
35500 6.4848886952e+00 2.6069711562e-02 1.8757457881e+00 -3.2488870070e+00 1.8757457881e+00 3.2488870070e+00 
35600 6.4848467528e+00 2.6780527136e-02 1.8750509151e+00 -3.2476834517e+00 1.8750509151e+00 3.2476834517e+00 
35700 6.4847970248e+00 2.7432656292e-02 1.8743368324e+00 -3.2464466243e+00 1.8743368324e+00 3.2464466243e+00 
35800 6.4847400841e+00 2.8025644620e-02 1.8736050837e+00 -3.2451791984e+00 1.8736050837e+00 3.2451791984e+00 
35900 6.4846765387e+00 2.8559163803e-02 1.8728572266e+00 -3.2438838718e+00 1.8728572266e+00 3.2438838718e+00 
36000 6.4846070259e+00 2.9033011545e-02 1.8720948293e+00 -3.2425633610e+00 1.8720948293e+00 3.2425633610e+00 
36100 6.4845322077e+00 2.9447111122e-02 1.8713194678e+00 -3.2412203954e+00 1.8713194678e+00 3.2412203954e+00 
36200 6.4844527647e+00 2.9801510543e-02 1.8705327222e+00 -3.2398577120e+00 1.8705327222e+00 3.2398577120e+00 
36300 6.4843693914e+00 3.0096381319e-02 1.8697361739e+00 -3.2384780499e+00 1.8697361739e+00 3.2384780499e+00 
36400 6.4842827906e+00 3.0332016853e-02 1.8689314020e+00 -3.2370841441e+00 1.8689314020e+00 3.2370841441e+00 
36500 6.4841936681e+00 3.0508830456e-02 1.8681199805e+00 -3.2356787209e+00 1.8681199805e+00 3.2356787209e+00 
36600 6.4841027278e+00 3.0627352994e-02 1.8673034750e+00 -3.2342644918e+00 1.8673034750e+00 3.2342644918e+00 
36700 6.4840106662e+00 3.0688230181e-02 1.8664834393e+00 -3.2328441483e+00 1.8664834393e+00 3.2328441483e+00 
36800 6.4839181682e+00 3.0692219531e-02 1.8656614128e+00 -3.2314203567e+00 1.8656614128e+00 3.2314203567e+00 
36900 6.4838259020e+00 3.0640186990e-02 1.8648389173e+00 -3.2299957526e+00 1.8648389173e+00 3.2299957526e+00 
37000 6.4837345149e+00 3.0533103255e-02 1.8640174539e+00 -3.2285729364e+00 1.8640174539e+00 3.2285729364e+00 
37100 6.4836446291e+00 3.0372039812e-02 1.8631985006e+00 -3.2271544676e+00 1.8631985006e+00 3.2271544676e+00 
37200 6.4835568378e+00 3.0158164710e-02 1.8623835089e+00 -3.2257428607e+00 1.8623835089e+00 3.2257428607e+00 
37300 6.4834717020e+00 2.9892738088e-02 1.8615739018e+00 -3.2243405800e+00 1.8615739018e+00 3.2243405800e+00 
37400 6.4833897468e+00 2.9577107495e-02 1.8607710707e+00 -3.2229500358e+00 1.8607710707e+00 3.2229500358e+00 
37500 6.4833114592e+00 2.9212703001e-02 1.8599763733e+00 -3.2215735794e+00 1.8599763733e+00 3.2215735794e+00 
37600 6.4832372850e+00 2.8801032162e-02 1.8591911309e+00 -3.2202134996e+00 1.8591911309e+00 3.2202134996e+00 
37700 6.4831676272e+00 2.8343674826e-02 1.8584166265e+00 -3.2188720188e+00 1.8584166265e+00 3.2188720188e+00 
37800 6.4831028441e+00 2.7842277840e-02 1.8576541028e+00 -3.2175512889e+00 1.8576541028e+00 3.2175512889e+00 
37900 6.4830432480e+00 2.7298549655e-02 1.8569047597e+00 -3.2162533886e+00 1.8569047597e+00 3.2162533886e+00 
38000 6.4829891043e+00 2.6714254882e-02 1.8561697530e+00 -3.2149803197e+00 1.8561697530e+00 3.2149803197e+00 
38100 6.4829406308e+00 2.6091208807e-02 1.8554501925e+00 -3.2137340044e+00 1.8554501925e+00 3.2137340044e+00 
38200 6.4828979976e+00 2.5431271889e-02 1.8547471405e+00 -3.2125162826e+00 1.8547471405e+00 3.2125162826e+00 
38300 6.4828613277e+00 2.4736344283e-02 1.8540616103e+00 -3.2113289094e+00 1.8540616103e+00 3.2113289094e+00 
38400 6.4828306969e+00 2.4008360389e-02 1.8533945650e+00 -3.2101735531e+00 1.8533945650e+00 3.2101735531e+00 
38500 6.4828061349e+00 2.3249283463e-02 1.8527469166e+00 -3.2090517931e+00 1.8527469166e+00 3.2090517931e+00 
38600 6.4827876268e+00 2.2461100304e-02 1.8521195246e+00 -3.2079651183e+00 1.8521195246e+00 3.2079651183e+00 
38700 6.4827751143e+00 2.1645816046e-02 1.8515131957e+00 -3.2069149258e+00 1.8515131957e+00 3.2069149258e+00 
38800 6.4827684976e+00 2.0805449050e-02 1.8509286825e+00 -3.2059025193e+00 1.8509286825e+00 3.2059025193e+00 
38900 6.4827676374e+00 1.9942025945e-02 1.8503666836e+00 -3.2049291087e+00 1.8503666836e+00 3.2049291087e+00 
39000 6.4827723573e+00 1.9057576798e-02 1.8498278429e+00 -3.2039958092e+00 1.8498278429e+00 3.2039958092e+00 
39100 6.4827824460e+00 1.8154130455e-02 1.8493127493e+00 -3.2031036408e+00 1.8493127493e+00 3.2031036408e+00 
39200 6.4827976605e+00 1.7233710044e-02 1.8488219365e+00 -3.2022535281e+00 1.8488219365e+00 3.2022535281e+00 
39300 6.4828177284e+00 1.6298328658e-02 1.8483558833e+00 -3.2014463004e+00 1.8483558833e+00 3.2014463004e+00 
39400 6.4828423512e+00 1.5349985223e-02 1.8479150137e+00 -3.2006826918e+00 1.8479150137e+00 3.2006826918e+00 
39500 6.4828712070e+00 1.4390660566e-02 1.8474996967e+00 -3.1999633416e+00 1.8474996967e+00 3.1999633416e+00 
39600 6.4829039541e+00 1.3422313670e-02 1.8471102472e+00 -3.1992887954e+00 1.8471102472e+00 3.1992887954e+00 
39700 6.4829402337e+00 1.2446878134e-02 1.8467469264e+00 -3.1986595052e+00 1.8467469264e+00 3.1986595052e+00 
39800 6.4829796736e+00 1.1466258842e-02 1.8464099419e+00 -3.1980758310e+00 1.8464099419e+00 3.1980758310e+00 
39900 6.4830218908e+00 1.0482328821e-02 1.8460994492e+00 -3.1975380418e+00 1.8460994492e+00 3.1975380418e+00 
40000 6.4830664950e+00 9.4969263173e-03 1.8458155517e+00 -3.1970463170e+00 1.8458155517e+00 3.1970463170e+00 
40100 6.4831130918e+00 8.5118520631e-03 1.8455583021e+00 -3.1966007476e+00 1.8455583021e+00 3.1966007476e+00 
40200 6.4831612855e+00 7.5288667446e-03 1.8453277032e+00 -3.1962013386e+00 1.8453277032e+00 3.1962013386e+00 
40300 6.4832106818e+00 6.5496886668e-03 1.8451237089e+00 -3.1958480100e+00 1.8451237089e+00 3.1958480100e+00 
40400 6.4832608914e+00 5.5759916072e-03 1.8449462253e+00 -3.1955405994e+00 1.8449462253e+00 3.1955405994e+00 
40500 6.4833115318e+00 4.6094028558e-03 1.8447951121e+00 -3.1952788636e+00 1.8447951121e+00 3.1952788636e+00 
40600 6.4833622302e+00 3.6515014360e-03 1.8446701835e+00 -3.1950624811e+00 1.8446701835e+00 3.1950624811e+00 
40700 6.4834126260e+00 2.7038164990e-03 1.8445712100e+00 -3.1948910540e+00 1.8445712100e+00 3.1948910540e+00 
40800 6.4834623729e+00 1.7678258876e-03 1.8444979193e+00 -3.1947641107e+00 1.8444979193e+00 3.1947641107e+00 
40900 6.4835111407e+00 8.4495486099e-04 1.8444499979e+00 -3.1946811085e+00 1.8444499979e+00 3.1946811085e+00 
41000 6.4835586173e+00 -6.3425025929e-05 1.8444270927e+00 -3.1946414353e+00 1.8444270927e+00 3.1946414353e+00 
41100 6.4836045137e+00 -9.5786373016e-04 1.8444270927e+00 -3.1946414353e+00 1.8444270927e+00 3.1946414353e+00 
41200 6.4836485551e+00 -1.8333233320e-03 1.8444530591e+00 -3.1946864106e+00 1.8444530591e+00 3.1946864106e+00 
41300 6.4836904924e+00 -2.6905108997e-03 1.8445027577e+00 -3.1947724910e+00 1.8445027577e+00 3.1947724910e+00 
41400 6.4837301001e+00 -3.5282778581e-03 1.8445756914e+00 -3.1948988159e+00 1.8445756914e+00 3.1948988159e+00 
41500 6.4837671766e+00 -4.3455328640e-03 1.8446713315e+00 -3.1950644694e+00 1.8446713315e+00 3.1950644694e+00 
41600 6.4838015449e+00 -5.1412421418e-03 1.8447891188e+00 -3.1952684831e+00 1.8447891188e+00 3.1952684831e+00 
41700 6.4838330534e+00 -5.9144297105e-03 1.8449284656e+00 -3.1955098387e+00 1.8449284656e+00 3.1955098387e+00 
41800 6.4838615756e+00 -6.6641775105e-03 1.8450887568e+00 -3.1957874712e+00 1.8450887568e+00 3.1957874712e+00 
41900 6.4838870102e+00 -7.3896254343e-03 1.8452693520e+00 -3.1961002714e+00 1.8452693520e+00 3.1961002714e+00 
42000 6.4839092814e+00 -8.0899712677e-03 1.8454695873e+00 -3.1964470890e+00 1.8454695873e+00 3.1964470890e+00 
42100 6.4839283378e+00 -8.7644705466e-03 1.8456887762e+00 -3.1968267354e+00 1.8456887762e+00 3.1968267354e+00 
42200 6.4839441525e+00 -9.4124363343e-03 1.8459262122e+00 -3.1972379866e+00 1.8459262122e+00 3.1972379866e+00 
42300 6.4839567222e+00 -1.0033238925e-02 1.8461811697e+00 -3.1976795858e+00 1.8461811697e+00 3.1976795858e+00 
42400 6.4839660664e+00 -1.0626305477e-02 1.8464529059e+00 -3.1981502467e+00 1.8464529059e+00 3.1981502467e+00 
42500 6.4839722264e+00 -1.1191119579e-02 1.8467406625e+00 -3.1986486558e+00 1.8467406625e+00 3.1986486558e+00 
42600 6.4839752646e+00 -1.1727220757e-02 1.8470436673e+00 -3.1991734755e+00 1.8470436673e+00 3.1991734755e+00 
42700 6.4839752627e+00 -1.2234203923e-02 1.8473611356e+00 -3.1997233468e+00 1.8473611356e+00 3.1997233468e+00 
42800 6.4839723212e+00 -1.2711718762e-02 1.8476922720e+00 -3.2002968918e+00 1.8476922720e+00 3.2002968918e+00 
42900 6.4839665572e+00 -1.3159469083e-02 1.8480362717e+00 -3.2008927168e+00 1.8480362717e+00 3.2008927168e+00 
43000 6.4839581039e+00 -1.3577212102e-02 1.8483923224e+00 -3.2015094147e+00 1.8483923224e+00 3.2015094147e+00 
43100 6.4839471084e+00 -1.3964757695e-02 1.8487596054e+00 -3.2021455675e+00 1.8487596054e+00 3.2021455675e+00 
43200 6.4839337308e+00 -1.4321967596e-02 1.8491372974e+00 -3.2027997492e+00 1.8491372974e+00 3.2027997492e+00 
43300 6.4839181419e+00 -1.4648754564e-02 1.8495245717e+00 -3.2034705280e+00 1.8495245717e+00 3.2034705280e+00 
43400 6.4839005225e+00 -1.4945081503e-02 1.8499205999e+00 -3.2041564689e+00 1.8499205999e+00 3.2041564689e+00 
43500 6.4838810611e+00 -1.5210960545e-02 1.8503245530e+00 -3.2048561363e+00 1.8503245530e+00 3.2048561363e+00 
43600 6.4838599527e+00 -1.5446452106e-02 1.8507356032e+00 -3.2055680961e+00 1.8507356032e+00 3.2055680961e+00 
43700 6.4838373973e+00 -1.5651663893e-02 1.8511529246e+00 -3.2062909180e+00 1.8511529246e+00 3.2062909180e+00 
43800 6.4838135982e+00 -1.5826749898e-02 1.8515756952e+00 -3.2070231781e+00 1.8515756952e+00 3.2070231781e+00 
43900 6.4837887602e+00 -1.5971909340e-02 1.8520030976e+00 -3.2077634608e+00 1.8520030976e+00 3.2077634608e+00 
44000 6.4837630889e+00 -1.6087385594e-02 1.8524343206e+00 -3.2085103610e+00 1.8524343206e+00 3.2085103610e+00 
44100 6.4837367885e+00 -1.6173465084e-02 1.8528685604e+00 -3.2092624864e+00 1.8528685604e+00 3.2092624864e+00 
44200 6.4837100611e+00 -1.6230476147e-02 1.8533050215e+00 -3.2100184592e+00 1.8533050215e+00 3.2100184592e+00 
44300 6.4836831048e+00 -1.6258787876e-02 1.8537429180e+00 -3.2107769181e+00 1.8537429180e+00 3.2107769181e+00 
44400 6.4836561128e+00 -1.6258808932e-02 1.8541814747e+00 -3.2115365207e+00 1.8541814747e+00 3.2115365207e+00 
44500 6.4836292725e+00 -1.6230986333e-02 1.8546199283e+00 -3.2122959445e+00 1.8546199283e+00 3.2122959445e+00 
44600 6.4836027639e+00 -1.6175804225e-02 1.8550575280e+00 -3.2130538895e+00 1.8550575280e+00 3.2130538895e+00 
44700 6.4835767588e+00 -1.6093782619e-02 1.8554935371e+00 -3.2138090794e+00 1.8554935371e+00 3.2138090794e+00 
44800 6.4835514201e+00 -1.5985476117e-02 1.8559272333e+00 -3.2145602632e+00 1.8559272333e+00 3.2145602632e+00 
44900 6.4835269010e+00 -1.5851472609e-02 1.8563579100e+00 -3.2153062172e+00 1.8563579100e+00 3.2153062172e+00 
45000 6.4835033439e+00 -1.5692391956e-02 1.8567848773e+00 -3.2160457462e+00 1.8567848773e+00 3.2160457462e+00 
45100 6.4834808802e+00 -1.5508884646e-02 1.8572074622e+00 -3.2167776848e+00 1.8572074622e+00 3.2167776848e+00 
45200 6.4834596295e+00 -1.5301630436e-02 1.8576250102e+00 -3.2175008991e+00 1.8576250102e+00 3.2175008991e+00 
45300 6.4834396995e+00 -1.5071336979e-02 1.8580368855e+00 -3.2182142880e+00 1.8580368855e+00 3.2182142880e+00 
45400 6.4834211852e+00 -1.4818738425e-02 1.8584424718e+00 -3.2189167841e+00 1.8584424718e+00 3.2189167841e+00 
45500 6.4834041692e+00 -1.4544594013e-02 1.8588411731e+00 -3.2196073549e+00 1.8588411731e+00 3.2196073549e+00 
45600 6.4833887209e+00 -1.4249686648e-02 1.8592324142e+00 -3.2202850045e+00 1.8592324142e+00 3.2202850045e+00 
45700 6.4833748973e+00 -1.3934821452e-02 1.8596156416e+00 -3.2209487739e+00 1.8596156416e+00 3.2209487739e+00 
45800 6.4833627422e+00 -1.3600824319e-02 1.8599903236e+00 -3.2215977421e+00 1.8599903236e+00 3.2215977421e+00 
45900 6.4833522867e+00 -1.3248540444e-02 1.8603559510e+00 -3.2222310274e+00 1.8603559510e+00 3.2222310274e+00 
46000 6.4833435495e+00 -1.2878832842e-02 1.8607120378e+00 -3.2228477878e+00 1.8607120378e+00 3.2228477878e+00 
46100 6.4833365370e+00 -1.2492580864e-02 1.8610581212e+00 -3.2234472218e+00 1.8610581212e+00 3.2234472218e+00 
46200 6.4833312436e+00 -1.2090678691e-02 1.8613937625e+00 -3.2240285695e+00 1.8613937625e+00 3.2240285695e+00 
46300 6.4833276522e+00 -1.1674033833e-02 1.8617185468e+00 -3.2245911124e+00 1.8617185468e+00 3.2245911124e+00 
46400 6.4833257348e+00 -1.1243565610e-02 1.8620320840e+00 -3.2251341748e+00 1.8620320840e+00 3.2251341748e+00 
46500 6.4833254527e+00 -1.0800203632e-02 1.8623340087e+00 -3.2256571238e+00 1.8623340087e+00 3.2256571238e+00 
46600 6.4833267574e+00 -1.0344886275e-02 1.8626239804e+00 -3.2261593695e+00 1.8626239804e+00 3.2261593695e+00 
46700 6.4833295911e+00 -9.8785591482e-03 1.8629016839e+00 -3.2266403660e+00 1.8629016839e+00 3.2266403660e+00 
46800 6.4833338875e+00 -9.4021735672e-03 1.8631668292e+00 -3.2270996112e+00 1.8631668292e+00 3.2270996112e+00 
46900 6.4833395721e+00 -8.9166850205e-03 1.8634191519e+00 -3.2275366470e+00 1.8634191519e+00 3.2275366470e+00 
47000 6.4833465636e+00 -8.4230516404e-03 1.8636584131e+00 -3.2279510594e+00 1.8636584131e+00 3.2279510594e+00 
47100 6.4833547740e+00 -7.9222326763e-03 1.8638843993e+00 -3.2283424790e+00 1.8638843993e+00 3.2283424790e+00 
47200 6.4833641101e+00 -7.4151869724e-03 1.8640969227e+00 -3.2287105804e+00 1.8640969227e+00 3.2287105804e+00 
47300 6.4833744735e+00 -6.9028714525e-03 1.8642958212e+00 -3.2290550826e+00 1.8642958212e+00 3.2290550826e+00 
47400 6.4833857619e+00 -6.3862396127e-03 1.8644809577e+00 -3.2293757485e+00 1.8644809577e+00 3.2293757485e+00 
47500 6.4833978701e+00 -5.8662400258e-03 1.8646522209e+00 -3.2296723850e+00 1.8646522209e+00 3.2296723850e+00 
47600 6.4834106901e+00 -5.3438148568e-03 1.8648095242e+00 -3.2299448424e+00 1.8648095242e+00 3.2299448424e+00 
47700 6.4834241127e+00 -4.8198983944e-03 1.8649528065e+00 -3.2301930146e+00 1.8649528065e+00 3.2301930146e+00 
47800 6.4834380276e+00 -4.2954155987e-03 1.8650820311e+00 -3.2304168381e+00 1.8650820311e+00 3.2304168381e+00 
47900 6.4834523248e+00 -3.7712806685e-03 1.8651971858e+00 -3.2306162919e+00 1.8651971858e+00 3.2306162919e+00 
48000 6.4834668947e+00 -3.2483956302e-03 1.8652982827e+00 -3.2307913970e+00 1.8652982827e+00 3.2307913970e+00 
48100 6.4834816293e+00 -2.7276489500e-03 1.8653853579e+00 -3.2309422155e+00 1.8653853579e+00 3.2309422155e+00 
48200 6.4834964227e+00 -2.2099141738e-03 1.8654584705e+00 -3.2310688504e+00 1.8654584705e+00 3.2310688504e+00 
48300 6.4835111720e+00 -1.6960485942e-03 1.8655177033e+00 -3.2311714446e+00 1.8655177033e+00 3.2311714446e+00 
48400 6.4835257773e+00 -1.1868919503e-03 1.8655631614e+00 -3.2312501802e+00 1.8655631614e+00 3.2312501802e+00 
48500 6.4835401430e+00 -6.8326516045e-04 1.8655949720e+00 -3.2313052779e+00 1.8655949720e+00 3.2313052779e+00 
48600 6.4835541780e+00 -1.8596909181e-04 1.8656132843e+00 -3.2313369957e+00 1.8656132843e+00 3.2313369957e+00 
48700 6.4835677960e+00 3.0421663155e-04 1.8656182684e+00 -3.2313456284e+00 1.8656182684e+00 3.2313456284e+00 
48800 6.4835809162e+00 7.8653477897e-04 1.8656101152e+00 -3.2313315066e+00 1.8656101152e+00 3.2313315066e+00 
48900 6.4835934639e+00 1.2602516197e-03 1.8655890354e+00 -3.2312949954e+00 1.8655890354e+00 3.2312949954e+00 
49000 6.4836053703e+00 1.7246579834e-03 1.8655552593e+00 -3.2312364934e+00 1.8655552593e+00 3.2312364934e+00 
49100 6.4836165731e+00 2.1790702713e-03 1.8655090357e+00 -3.2311564319e+00 1.8655090357e+00 3.2311564319e+00 
49200 6.4836270168e+00 2.6228314173e-03 1.8654506319e+00 -3.2310552734e+00 1.8654506319e+00 3.2310552734e+00 
49300 6.4836366527e+00 3.0553117948e-03 1.8653803321e+00 -3.2309335106e+00 1.8653803321e+00 3.2309335106e+00 
49400 6.4836454391e+00 3.4759100689e-03 1.8652984376e+00 -3.2307916651e+00 1.8652984376e+00 3.2307916651e+00 
49500 6.4836533415e+00 3.8840539912e-03 1.8652052653e+00 -3.2306302861e+00 1.8652052653e+00 3.2306302861e+00 
49600 6.4836603325e+00 4.2792011340e-03 1.8651011476e+00 -3.2304499489e+00 1.8651011476e+00 3.2304499489e+00 
49700 6.4836663918e+00 4.6608395649e-03 1.8649864311e+00 -3.2302512541e+00 1.8649864311e+00 3.2302512541e+00 
49800 6.4836715061e+00 5.0284884574e-03 1.8648614761e+00 -3.2300348257e+00 1.8648614761e+00 3.2300348257e+00 
49900 6.4836756690e+00 5.3816986376e-03 1.8647266557e+00 -3.2298013099e+00 1.8647266557e+00 3.2298013099e+00 
50000 6.4836788809e+00 5.7200530649e-03 1.8645823549e+00 -3.2295513737e+00 1.8645823549e+00 3.2295513737e+00 
50100 6.4836811489e+00 6.0431672456e-03 1.8644289701e+00 -3.2292857033e+00 1.8644289701e+00 3.2292857033e+00 
50200 6.4836824863e+00 6.3506895795e-03 1.8642669076e+00 -3.2290050028e+00 1.8642669076e+00 3.2290050028e+00 
50300 6.4836829124e+00 6.6423016362e-03 1.8640965835e+00 -3.2287099928e+00 1.8640965835e+00 3.2287099928e+00 
50400 6.4836824524e+00 6.9177183637e-03 1.8639184222e+00 -3.2284014084e+00 1.8639184222e+00 3.2284014084e+00 
50500 6.4836811367e+00 7.1766882262e-03 1.8637328560e+00 -3.2280799984e+00 1.8637328560e+00 3.2280799984e+00 
50600 6.4836790008e+00 7.4189932724e-03 1.8635403240e+00 -3.2277465232e+00 1.8635403240e+00 3.2277465232e+00 
50700 6.4836760850e+00 7.6444491337e-03 1.8633412712e+00 -3.2274017535e+00 1.8633412712e+00 3.2274017535e+00 
50800 6.4836724335e+00 7.8529049532e-03 1.8631361475e+00 -3.2270464688e+00 1.8631361475e+00 3.2270464688e+00 
50900 6.4836680946e+00 8.0442432452e-03 1.8629254072e+00 -3.2266814559e+00 1.8629254072e+00 3.2266814559e+00 
51000 6.4836631196e+00 8.2183796866e-03 1.8627095078e+00 -3.2263075073e+00 1.8627095078e+00 3.2263075073e+00 
51100 6.4836575630e+00 8.3752628400e-03 1.8624889094e+00 -3.2259254195e+00 1.8624889094e+00 3.2259254195e+00 
51200 6.4836514814e+00 8.5148738115e-03 1.8622640733e+00 -3.2255359920e+00 1.8622640733e+00 3.2255359920e+00 
51300 6.4836449337e+00 8.6372258427e-03 1.8620354618e+00 -3.2251400253e+00 1.8620354618e+00 3.2251400253e+00 
51400 6.4836379800e+00 8.7423638393e-03 1.8618035369e+00 -3.2247383196e+00 1.8618035369e+00 3.2247383196e+00 
51500 6.4836306815e+00 8.8303638383e-03 1.8615687597e+00 -3.2243316736e+00 1.8615687597e+00 3.2243316736e+00 
51600 6.4836230998e+00 8.9013324148e-03 1.8613315894e+00 -3.2239208826e+00 1.8613315894e+00 3.2239208826e+00 
51700 6.4836152969e+00 8.9554060313e-03 1.8610924826e+00 -3.2235067374e+00 1.8610924826e+00 3.2235067374e+00 
51800 6.4836073342e+00 8.9927503323e-03 1.8608518924e+00 -3.2230900229e+00 1.8608518924e+00 3.2230900229e+00 
51900 6.4835992725e+00 9.0135593845e-03 1.8606102677e+00 -3.2226715167e+00 1.8606102677e+00 3.2226715167e+00 
52000 6.4835911713e+00 9.0180548681e-03 1.8603680524e+00 -3.2222519876e+00 1.8603680524e+00 3.2222519876e+00 
52100 6.4835830886e+00 9.0064852194e-03 1.8601256848e+00 -3.2218321945e+00 1.8601256848e+00 3.2218321945e+00 
52200 6.4835750806e+00 8.9791247293e-03 1.8598835966e+00 -3.2214128855e+00 1.8598835966e+00 3.2214128855e+00 
52300 6.4835672011e+00 8.9362725996e-03 1.8596422124e+00 -3.2209947958e+00 1.8596422124e+00 3.2209947958e+00 
52400 6.4835595015e+00 8.8782519606e-03 1.8594019490e+00 -3.2205786473e+00 1.8594019490e+00 3.2205786473e+00 
52500 6.4835520301e+00 8.8054088532e-03 1.8591632146e+00 -3.2201651473e+00 1.8591632146e+00 3.2201651473e+00 
52600 6.4835448323e+00 8.7181111787e-03 1.8589264086e+00 -3.2197549872e+00 1.8589264086e+00 3.2197549872e+00 
52700 6.4835379503e+00 8.6167476189e-03 1.8586919203e+00 -3.2193488416e+00 1.8586919203e+00 3.2193488416e+00 
52800 6.4835314224e+00 8.5017265305e-03 1.8584601291e+00 -3.2189473675e+00 1.8584601291e+00 3.2189473675e+00 
52900 6.4835252836e+00 8.3734748175e-03 1.8582314034e+00 -3.2185512030e+00 1.8582314034e+00 3.2185512030e+00 
53000 6.4835195648e+00 8.2324367832e-03 1.8580061003e+00 -3.2181609666e+00 1.8580061003e+00 3.2181609666e+00 
53100 6.4835142932e+00 8.0790729668e-03 1.8577845652e+00 -3.2177772564e+00 1.8577845652e+00 3.2177772564e+00 
53200 6.4835094918e+00 7.9138589671e-03 1.8575671311e+00 -3.2174006495e+00 1.8575671311e+00 3.2174006495e+00 
53300 6.4835051798e+00 7.7372842566e-03 1.8573541184e+00 -3.2170317007e+00 1.8573541184e+00 3.2170317007e+00 
53400 6.4835013723e+00 7.5498509890e-03 1.8571458345e+00 -3.2166709423e+00 1.8571458345e+00 3.2166709423e+00 
53500 6.4834980801e+00 7.3520728035e-03 1.8569425733e+00 -3.2163188836e+00 1.8569425733e+00 3.2163188836e+00 
53600 6.4834953105e+00 7.1444736290e-03 1.8567446150e+00 -3.2159760099e+00 1.8567446150e+00 3.2159760099e+00 
53700 6.4834930665e+00 6.9275864905e-03 1.8565522259e+00 -3.2156427821e+00 1.8565522259e+00 3.2156427821e+00 
53800 6.4834913475e+00 6.7019523212e-03 1.8563656577e+00 -3.2153196366e+00 1.8563656577e+00 3.2153196366e+00 
53900 6.4834901492e+00 6.4681187828e-03 1.8561851479e+00 -3.2150069844e+00 1.8561851479e+00 3.2150069844e+00 
54000 6.4834894638e+00 6.2266390969e-03 1.8560109191e+00 -3.2147052113e+00 1.8560109191e+00 3.2147052113e+00 
54100 6.4834892800e+00 5.9780708890e-03 1.8558431791e+00 -3.2144146771e+00 1.8558431791e+00 3.2144146771e+00 
54200 6.4834895836e+00 5.7229750493e-03 1.8556821207e+00 -3.2141357157e+00 1.8556821207e+00 3.2141357157e+00 
54300 6.4834903570e+00 5.4619146105e-03 1.8555279214e+00 -3.2138686348e+00 1.8555279214e+00 3.2138686348e+00 
54400 6.4834915802e+00 5.1954536464e-03 1.8553807439e+00 -3.2136137157e+00 1.8553807439e+00 3.2136137157e+00 
54500 6.4834932306e+00 4.9241561924e-03 1.8552407352e+00 -3.2133712136e+00 1.8552407352e+00 3.2133712136e+00 
54600 6.4834952833e+00 4.6485851898e-03 1.8551080274e+00 -3.2131413570e+00 1.8551080274e+00 3.2131413570e+00 
54700 6.4834977112e+00 4.3693014564e-03 1.8549827373e+00 -3.2129243482e+00 1.8549827373e+00 3.2129243482e+00 
54800 6.4835004856e+00 4.0868626839e-03 1.8548649665e+00 -3.2127203632e+00 1.8548649665e+00 3.2127203632e+00 
54900 6.4835035763e+00 3.8018224639e-03 1.8547548016e+00 -3.2125295519e+00 1.8547548016e+00 3.2125295519e+00 
55000 6.4835069517e+00 3.5147293447e-03 1.8546523140e+00 -3.2123520382e+00 1.8546523140e+00 3.2123520382e+00 
55100 6.4835105792e+00 3.2261259188e-03 1.8545575604e+00 -3.2121879201e+00 1.8545575604e+00 3.2121879201e+00 
55200 6.4835144257e+00 2.9365479429e-03 1.8544705827e+00 -3.2120372705e+00 1.8544705827e+00 3.2120372705e+00 
55300 6.4835184573e+00 2.6465234908e-03 1.8543914085e+00 -3.2119001366e+00 1.8543914085e+00 3.2119001366e+00 
55400 6.4835226401e+00 2.3565721414e-03 1.8543200507e+00 -3.2117765412e+00 1.8543200507e+00 3.2117765412e+00 
55500 6.4835269402e+00 2.0672041997e-03 1.8542565083e+00 -3.2116664826e+00 1.8542565083e+00 3.2116664826e+00 
55600 6.4835313238e+00 1.7789199549e-03 1.8542007664e+00 -3.2115699349e+00 1.8542007664e+00 3.2115699349e+00 
55700 6.4835357578e+00 1.4922089731e-03 1.8541527966e+00 -3.2114868488e+00 1.8541527966e+00 3.2114868488e+00 
55800 6.4835402097e+00 1.2075494264e-03 1.8541125571e+00 -3.2114171519e+00 1.8541125571e+00 3.2114171519e+00 
55900 6.4835446479e+00 9.2540745840e-04 1.8540799931e+00 -3.2113607494e+00 1.8540799931e+00 3.2113607494e+00 
56000 6.4835490420e+00 6.4623658631e-04 1.8540550372e+00 -3.2113175245e+00 1.8540550372e+00 3.2113175245e+00 
56100 6.4835533627e+00 3.7047713944e-04 1.8540376096e+00 -3.2112873390e+00 1.8540376096e+00 3.2112873390e+00 
56200 6.4835575823e+00 9.8555734298e-05 1.8540276185e+00 -3.2112700339e+00 1.8540276185e+00 3.2112700339e+00 
56300 6.4835616747e+00 -1.6911521381e-04 1.8540249606e+00 -3.2112654303e+00 1.8540249606e+00 3.2112654303e+00 
56400 6.4835656155e+00 -4.3213794297e-04 1.8540295214e+00 -3.2112733298e+00 1.8540295214e+00 3.2112733298e+00 
56500 6.4835693821e+00 -6.9012976076e-04 1.8540411754e+00 -3.2112935152e+00 1.8540411754e+00 3.2112935152e+00 
56600 6.4835729539e+00 -9.4272342468e-04 1.8540597870e+00 -3.2113257513e+00 1.8540597870e+00 3.2113257513e+00 
56700 6.4835763123e+00 -1.1895674871e-03 1.8540852102e+00 -3.2113697857e+00 1.8540852102e+00 3.2113697857e+00 
56800 6.4835794407e+00 -1.4303266056e-03 1.8541172900e+00 -3.2114253494e+00 1.8541172900e+00 3.2114253494e+00 
56900 6.4835823248e+00 -1.6646818182e-03 1.8541558617e+00 -3.2114921577e+00 1.8541558617e+00 3.2114921577e+00 
57000 6.4835849525e+00 -1.8923307852e-03 1.8542007525e+00 -3.2115699107e+00 1.8542007525e+00 3.2115699107e+00 
57100 6.4835873135e+00 -2.1129879975e-03 1.8542517809e+00 -3.2116582946e+00 1.8542517809e+00 3.2116582946e+00 
57200 6.4835894002e+00 -2.3263849519e-03 1.8543087580e+00 -3.2117569818e+00 1.8543087580e+00 3.2117569818e+00 
57300 6.4835912068e+00 -2.5322702941e-03 1.8543714876e+00 -3.2118656326e+00 1.8543714876e+00 3.2118656326e+00 
57400 6.4835927297e+00 -2.7304099306e-03 1.8544397664e+00 -3.2119838949e+00 1.8544397664e+00 3.2119838949e+00 
57500 6.4835939675e+00 -2.9205871090e-03 1.8545133851e+00 -3.2121114062e+00 1.8545133851e+00 3.2121114062e+00 
57600 6.4835949208e+00 -3.1026024688e-03 1.8545921283e+00 -3.2122477935e+00 1.8545921283e+00 3.2122477935e+00 
57700 6.4835955921e+00 -3.2762740625e-03 1.8546757754e+00 -3.2123926746e+00 1.8546757754e+00 3.2123926746e+00 
57800 6.4835959858e+00 -3.4414373473e-03 1.8547641008e+00 -3.2125456587e+00 1.8547641008e+00 3.2125456587e+00 
57900 6.4835961081e+00 -3.5979451497e-03 1.8548568745e+00 -3.2127063474e+00 1.8548568745e+00 3.2127063474e+00 
58000 6.4835959669e+00 -3.7456676023e-03 1.8549538625e+00 -3.2128743355e+00 1.8549538625e+00 3.2128743355e+00 
58100 6.4835955717e+00 -3.8844920541e-03 1.8550548273e+00 -3.2130492117e+00 1.8550548273e+00 3.2130492117e+00 
58200 6.4835949334e+00 -4.0143229552e-03 1.8551595285e+00 -3.2132305595e+00 1.8551595285e+00 3.2132305595e+00 
58300 6.4835940642e+00 -4.1350817164e-03 1.8552677230e+00 -3.2134179579e+00 1.8552677230e+00 3.2134179579e+00 
58400 6.4835929776e+00 -4.2467065447e-03 1.8553791658e+00 -3.2136109824e+00 1.8553791658e+00 3.2136109824e+00 
58500 6.4835916882e+00 -4.3491522552e-03 1.8554936100e+00 -3.2138092057e+00 1.8554936100e+00 3.2138092057e+00 
58600 6.4835902114e+00 -4.4423900607e-03 1.8556108079e+00 -3.2140121984e+00 1.8556108079e+00 3.2140121984e+00 
58700 6.4835885636e+00 -4.5264073392e-03 1.8557305108e+00 -3.2142195298e+00 1.8557305108e+00 3.2142195298e+00 
58800 6.4835867617e+00 -4.6012073801e-03 1.8558524697e+00 -3.2144307688e+00 1.8558524697e+00 3.2144307688e+00 
58900 6.4835848232e+00 -4.6668091111e-03 1.8559764358e+00 -3.2146454845e+00 1.8559764358e+00 3.2146454845e+00 
59000 6.4835827660e+00 -4.7232468041e-03 1.8561021611e+00 -3.2148632470e+00 1.8561021611e+00 3.2148632470e+00 
59100 6.4835806081e+00 -4.7705697638e-03 1.8562293982e+00 -3.2150836281e+00 1.8562293982e+00 3.2150836281e+00 
59200 6.4835783679e+00 -4.8088419979e-03 1.8563579013e+00 -3.2153062020e+00 1.8563579013e+00 3.2153062020e+00 
59300 6.4835760635e+00 -4.8381418696e-03 1.8564874263e+00 -3.2155305460e+00 1.8564874263e+00 3.2155305460e+00 
59400 6.4835737130e+00 -4.8585617346e-03 1.8566177315e+00 -3.2157562412e+00 1.8566177315e+00 3.2157562412e+00 
59500 6.4835713343e+00 -4.8702075622e-03 1.8567485775e+00 -3.2159828731e+00 1.8567485775e+00 3.2159828731e+00 
59600 6.4835689448e+00 -4.8731985414e-03 1.8568797278e+00 -3.2162100322e+00 1.8568797278e+00 3.2162100322e+00 
59700 6.4835665615e+00 -4.8676666733e-03 1.8570109495e+00 -3.2164373147e+00 1.8570109495e+00 3.2164373147e+00 
59800 6.4835642008e+00 -4.8537563501e-03 1.8571420129e+00 -3.2166643232e+00 1.8571420129e+00 3.2166643232e+00 
59900 6.4835618784e+00 -4.8316239216e-03 1.8572726925e+00 -3.2168906670e+00 1.8572726925e+00 3.2168906670e+00 
60000 6.4835596093e+00 -4.8014372501e-03 1.8574027671e+00 -3.2171159628e+00 1.8574027671e+00 3.2171159628e+00 
60100 6.4835574076e+00 -4.7633752545e-03 1.8575320200e+00 -3.2173398354e+00 1.8575320200e+00 3.2173398354e+00 
60200 6.4835552864e+00 -4.7176274439e-03 1.8576602393e+00 -3.2175619178e+00 1.8576602393e+00 3.2175619178e+00 
60300 6.4835532580e+00 -4.6643934421e-03 1.8577872185e+00 -3.2177818520e+00 1.8577872185e+00 3.2177818520e+00 
60400 6.4835513335e+00 -4.6038825037e-03 1.8579127561e+00 -3.2179992897e+00 1.8579127561e+00 3.2179992897e+00 
60500 6.4835495232e+00 -4.5363130215e-03 1.8580366568e+00 -3.2182138920e+00 1.8580366568e+00 3.2182138920e+00 
60600 6.4835478359e+00 -4.4619120278e-03 1.8581587309e+00 -3.2184253305e+00 1.8581587309e+00 3.2184253305e+00 
60700 6.4835462797e+00 -4.3809146892e-03 1.8582787950e+00 -3.2186332875e+00 1.8582787950e+00 3.2186332875e+00 
60800 6.4835448612e+00 -4.2935637951e-03 1.8583966718e+00 -3.2188374562e+00 1.8583966718e+00 3.2188374562e+00 
60900 6.4835435859e+00 -4.2001092426e-03 1.8585121910e+00 -3.2190375412e+00 1.8585121910e+00 3.2190375412e+00 
61000 6.4835424582e+00 -4.1008075163e-03 1.8586251886e+00 -3.2192332590e+00 1.8586251886e+00 3.2192332590e+00 
61100 6.4835414815e+00 -3.9959211657e-03 1.8587355080e+00 -3.2194243378e+00 1.8587355080e+00 3.2194243378e+00 
61200 6.4835406578e+00 -3.8857182797e-03 1.8588429994e+00 -3.2196105182e+00 1.8588429994e+00 3.2196105182e+00 
61300 6.4835399880e+00 -3.7704719593e-03 1.8589475202e+00 -3.2197915536e+00 1.8589475202e+00 3.2197915536e+00 
61400 6.4835394720e+00 -3.6504597899e-03 1.8590489353e+00 -3.2199672096e+00 1.8590489353e+00 3.2199672096e+00 
61500 6.4835391087e+00 -3.5259633127e-03 1.8591471170e+00 -3.2201372653e+00 1.8591471170e+00 3.2201372653e+00 
61600 6.4835388959e+00 -3.3972674969e-03 1.8592419452e+00 -3.2203015127e+00 1.8592419452e+00 3.2203015127e+00 
61700 6.4835388303e+00 -3.2646602140e-03 1.8593333076e+00 -3.2204597570e+00 1.8593333076e+00 3.2204597570e+00 
61800 6.4835389079e+00 -3.1284317127e-03 1.8594210994e+00 -3.2206118169e+00 1.8594210994e+00 3.2206118169e+00 
61900 6.4835391237e+00 -2.9888740980e-03 1.8595052239e+00 -3.2207575247e+00 1.8595052239e+00 3.2207575247e+00 
62000 6.4835394721e+00 -2.8462808129e-03 1.8595855919e+00 -3.2208967262e+00 1.8595855919e+00 3.2208967262e+00 
62100 6.4835399464e+00 -2.7009461252e-03 1.8596621224e+00 -3.2210292809e+00 1.8596621224e+00 3.2210292809e+00 
62200 6.4835405396e+00 -2.5531646185e-03 1.8597347422e+00 -3.2211550620e+00 1.8597347422e+00 3.2211550620e+00 
62300 6.4835412439e+00 -2.4032306899e-03 1.8598033858e+00 -3.2212739563e+00 1.8598033858e+00 3.2212739563e+00 
62400 6.4835420510e+00 -2.2514380532e-03 1.8598679960e+00 -3.2213858644e+00 1.8598679960e+00 3.2213858644e+00 
62500 6.4835429522e+00 -2.0980792500e-03 1.8599285232e+00 -3.2214907006e+00 1.8599285232e+00 3.2214907006e+00 
62600 6.4835439383e+00 -1.9434451685e-03 1.8599849256e+00 -3.2215883924e+00 1.8599849256e+00 3.2215883924e+00 
62700 6.4835450001e+00 -1.7878245707e-03 1.8600371694e+00 -3.2216788814e+00 1.8600371694e+00 3.2216788814e+00 
62800 6.4835461277e+00 -1.6315036290e-03 1.8600852285e+00 -3.2217621221e+00 1.8600852285e+00 3.2217621221e+00 
62900 6.4835473115e+00 -1.4747654727e-03 1.8601290842e+00 -3.2218380825e+00 1.8601290842e+00 3.2218380825e+00 
63000 6.4835485416e+00 -1.3178897451e-03 1.8601687259e+00 -3.2219067438e+00 1.8601687259e+00 3.2219067438e+00 
63100 6.4835498079e+00 -1.1611521714e-03 1.8602041499e+00 -3.2219681001e+00 1.8602041499e+00 3.2219681001e+00 
63200 6.4835511008e+00 -1.0048241392e-03 1.8602353603e+00 -3.2220221581e+00 1.8602353603e+00 3.2220221581e+00 
63300 6.4835524105e+00 -8.4917229057e-04 1.8602623684e+00 -3.2220689374e+00 1.8602623684e+00 3.2220689374e+00 
63400 6.4835537274e+00 -6.9445812740e-04 1.8602851924e+00 -3.2221084698e+00 1.8602851924e+00 3.2221084698e+00 
63500 6.4835550422e+00 -5.4093763054e-04 1.8603038578e+00 -3.2221407993e+00 1.8603038578e+00 3.2221407993e+00 
63600 6.4835563460e+00 -3.8886089258e-04 1.8603183968e+00 -3.2221659815e+00 1.8603183968e+00 3.2221659815e+00 
63700 6.4835576302e+00 -2.3847176540e-04 1.8603288483e+00 -3.2221840840e+00 1.8603288483e+00 3.2221840840e+00 
63800 6.4835588865e+00 -9.0007522757e-05 1.8603352577e+00 -3.2221951854e+00 1.8603352577e+00 3.2221951854e+00 
63900 6.4835601071e+00 5.6301461681e-05 1.8603376768e+00 -3.2221993754e+00 1.8603376768e+00 3.2221993754e+00 
64000 6.4835612852e+00 2.0181827277e-04 1.8603376768e+00 -3.2221993754e+00 1.8603376768e+00 3.2221993754e+00 
64100 6.4835624135e+00 3.4312232689e-04 1.8603322526e+00 -3.2221899804e+00 1.8603322526e+00 3.2221899804e+00 
64200 6.4835634858e+00 4.8162642736e-04 1.8603230305e+00 -3.2221740073e+00 1.8603230305e+00 3.2221740073e+00 
64300 6.4835644965e+00 6.1713053528e-04 1.8603100858e+00 -3.2221515865e+00 1.8603100858e+00 3.2221515865e+00 
64400 6.4835654405e+00 7.4944288233e-04 1.8602934991e+00 -3.2221228574e+00 1.8602934991e+00 3.2221228574e+00 
64500 6.4835663134e+00 8.7838019157e-04 1.8602733560e+00 -3.2220879685e+00 1.8602733560e+00 3.2220879685e+00 
64600 6.4835671115e+00 1.0037678804e-03 1.8602497471e+00 -3.2220470768e+00 1.8602497471e+00 3.2220470768e+00 
64700 6.4835678314e+00 1.1254402455e-03 1.8602227678e+00 -3.2220003472e+00 1.8602227678e+00 3.2220003472e+00 
64800 6.4835684708e+00 1.2432406294e-03 1.8601925177e+00 -3.2219479526e+00 1.8601925177e+00 3.2219479526e+00 
64900 6.4835690277e+00 1.3570215690e-03 1.8601591008e+00 -3.2218900728e+00 1.8601591008e+00 3.2218900728e+00 
65000 6.4835695009e+00 1.4666449254e-03 1.8601226250e+00 -3.2218268948e+00 1.8601226250e+00 3.2218268948e+00 
65100 6.4835698898e+00 1.5719819953e-03 1.8600832018e+00 -3.2217586118e+00 1.8600832018e+00 3.2217586118e+00 
65200 6.4835701943e+00 1.6729136038e-03 1.8600409463e+00 -3.2216854231e+00 1.8600409463e+00 3.2216854231e+00 
65300 6.4835704149e+00 1.7693301790e-03 1.8599959767e+00 -3.2216075334e+00 1.8599959767e+00 3.2216075334e+00 
65400 6.4835705529e+00 1.8611318078e-03 1.8599484141e+00 -3.2215251527e+00 1.8599484141e+00 3.2215251527e+00 
65500 6.4835706098e+00 1.9482282735e-03 1.8598983825e+00 -3.2214384955e+00 1.8598983825e+00 3.2214384955e+00 
65600 6.4835705878e+00 2.0305390751e-03 1.8598460082e+00 -3.2213477804e+00 1.8598460082e+00 3.2213477804e+00 
65700 6.4835704896e+00 2.1079934289e-03 1.8597914195e+00 -3.2212532301e+00 1.8597914195e+00 3.2212532301e+00 
65800 6.4835703182e+00 2.1805302517e-03 1.8597347470e+00 -3.2211550704e+00 1.8597347470e+00 3.2211550704e+00 
65900 6.4835700773e+00 2.2480981265e-03 1.8596761225e+00 -3.2210535299e+00 1.8596761225e+00 3.2210535299e+00 
66000 6.4835697705e+00 2.3106552515e-03 1.8596156796e+00 -3.2209488396e+00 1.8596156796e+00 3.2209488396e+00 
66100 6.4835694023e+00 2.3681693713e-03 1.8595535527e+00 -3.2208412327e+00 1.8595535527e+00 3.2208412327e+00 
66200 6.4835689770e+00 2.4206176916e-03 1.8594898773e+00 -3.2207309437e+00 1.8594898773e+00 3.2207309437e+00 
66300 6.4835684996e+00 2.4679867780e-03 1.8594247895e+00 -3.2206182082e+00 1.8594247895e+00 3.2206182082e+00 
66400 6.4835679748e+00 2.5102724384e-03 1.8593584256e+00 -3.2205032627e+00 1.8593584256e+00 3.2205032627e+00 
66500 6.4835674080e+00 2.5474795901e-03 1.8592909223e+00 -3.2203863435e+00 1.8592909223e+00 3.2203863435e+00 
66600 6.4835668043e+00 2.5796221125e-03 1.8592224160e+00 -3.2202676870e+00 1.8592224160e+00 3.2202676870e+00 
66700 6.4835661693e+00 2.6067226840e-03 1.8591530427e+00 -3.2201475291e+00 1.8591530427e+00 3.2201475291e+00 
66800 6.4835655082e+00 2.6288126063e-03 1.8590829381e+00 -3.2200261042e+00 1.8590829381e+00 3.2200261042e+00 
66900 6.4835648267e+00 2.6459316143e-03 1.8590122366e+00 -3.2199036458e+00 1.8590122366e+00 3.2199036458e+00 
67000 6.4835641300e+00 2.6581276737e-03 1.8589410721e+00 -3.2197803852e+00 1.8589410721e+00 3.2197803852e+00 
67100 6.4835634235e+00 2.6654567664e-03 1.8588695768e+00 -3.2196565517e+00 1.8588695768e+00 3.2196565517e+00 
67200 6.4835627126e+00 2.6679826632e-03 1.8587978816e+00 -3.2195323720e+00 1.8587978816e+00 3.2195323720e+00 
67300 6.4835620022e+00 2.6657766871e-03 1.8587261158e+00 -3.2194080698e+00 1.8587261158e+00 3.2194080698e+00 
67400 6.4835612975e+00 2.6589174647e-03 1.8586544064e+00 -3.2192838657e+00 1.8586544064e+00 3.2192838657e+00 
67500 6.4835606031e+00 2.6474906687e-03 1.8585828789e+00 -3.2191599763e+00 1.8585828789e+00 3.2191599763e+00 
67600 6.4835599235e+00 2.6315887512e-03 1.8585116560e+00 -3.2190366146e+00 1.8585116560e+00 3.2190366146e+00 
67700 6.4835592632e+00 2.6113106683e-03 1.8584408581e+00 -3.2189139891e+00 1.8584408581e+00 3.2189139891e+00 
67800 6.4835586261e+00 2.5867615973e-03 1.8583706032e+00 -3.2187923040e+00 1.8583706032e+00 3.2187923040e+00 
67900 6.4835580159e+00 2.5580526464e-03 1.8583010060e+00 -3.2186717582e+00 1.8583010060e+00 3.2186717582e+00 
68000 6.4835574361e+00 2.5253005588e-03 1.8582321787e+00 -3.2185525458e+00 1.8582321787e+00 3.2185525458e+00 
68100 6.4835568899e+00 2.4886274103e-03 1.8581642301e+00 -3.2184348554e+00 1.8581642301e+00 3.2184348554e+00 
68200 6.4835563799e+00 2.4481603024e-03 1.8580972659e+00 -3.2183188699e+00 1.8580972659e+00 3.2183188699e+00 
68300 6.4835559087e+00 2.4040310515e-03 1.8580313881e+00 -3.2182047662e+00 1.8580313881e+00 3.2182047662e+00 
68400 6.4835554783e+00 2.3563758732e-03 1.8579666955e+00 -3.2180927154e+00 1.8579666955e+00 3.2180927154e+00 
68500 6.4835550906e+00 2.3053350655e-03 1.8579032831e+00 -3.2179828819e+00 1.8579032831e+00 3.2179828819e+00 
68600 6.4835547468e+00 2.2510526882e-03 1.8578412421e+00 -3.2178754238e+00 1.8578412421e+00 3.2178754238e+00 
68700 6.4835544480e+00 2.1936762415e-03 1.8577806600e+00 -3.2177704924e+00 1.8577806600e+00 3.2177704924e+00 
68800 6.4835541950e+00 2.1333563440e-03 1.8577216201e+00 -3.2176682323e+00 1.8577216201e+00 3.2176682323e+00 
68900 6.4835539881e+00 2.0702464092e-03 1.8576642017e+00 -3.2175687808e+00 1.8576642017e+00 3.2175687808e+00 
69000 6.4835538273e+00 2.0045023240e-03 1.8576084803e+00 -3.2174722684e+00 1.8576084803e+00 3.2174722684e+00 
69100 6.4835537123e+00 1.9362821271e-03 1.8575545267e+00 -3.2173788180e+00 1.8575545267e+00 3.2173788180e+00 
69200 6.4835536424e+00 1.8657456890e-03 1.8575024078e+00 -3.2172885455e+00 1.8575024078e+00 3.2172885455e+00 
69300 6.4835536169e+00 1.7930543950e-03 1.8574521861e+00 -3.2172015590e+00 1.8574521861e+00 3.2172015590e+00 
69400 6.4835536345e+00 1.7183708300e-03 1.8574039198e+00 -3.2171179593e+00 1.8574039198e+00 3.2171179593e+00 
69500 6.4835536938e+00 1.6418584674e-03 1.8573576627e+00 -3.2170378396e+00 1.8573576627e+00 3.2170378396e+00 
69600 6.4835537930e+00 1.5636813613e-03 1.8573134641e+00 -3.2169612854e+00 1.8573134641e+00 3.2169612854e+00 
69700 6.4835539303e+00 1.4840038432e-03 1.8572713690e+00 -3.2168883746e+00 1.8572713690e+00 3.2168883746e+00 
69800 6.4835541035e+00 1.4029902237e-03 1.8572314180e+00 -3.2168191773e+00 1.8572314180e+00 3.2168191773e+00 
69900 6.4835543103e+00 1.3208044997e-03 1.8571936471e+00 -3.2167537563e+00 1.8571936471e+00 3.2167537563e+00 
70000 6.4835545482e+00 1.2376100666e-03 1.8571580881e+00 -3.2166921662e+00 1.8571580881e+00 3.2166921662e+00 
70100 6.4835548147e+00 1.1535694375e-03 1.8571247682e+00 -3.2166344544e+00 1.8571247682e+00 3.2166344544e+00 
70200 6.4835551070e+00 1.0688439686e-03 1.8570937103e+00 -3.2165806607e+00 1.8570937103e+00 3.2165806607e+00 
70300 6.4835554222e+00 9.8359359178e-04 1.8570649330e+00 -3.2165308170e+00 1.8570649330e+00 3.2165308170e+00 
70400 6.4835557575e+00 8.9797655447e-04 1.8570384506e+00 -3.2164849481e+00 1.8570384506e+00 3.2164849481e+00 
70500 6.4835561099e+00 8.1214916694e-04 1.8570142730e+00 -3.2164430713e+00 1.8570142730e+00 3.2164430713e+00 
70600 6.4835564765e+00 7.2626555806e-04 1.8569924060e+00 -3.2164051965e+00 1.8569924060e+00 3.2164051965e+00 
70700 6.4835568543e+00 6.4047743897e-04 1.8569728512e+00 -3.2163713265e+00 1.8569728512e+00 3.2163713265e+00 
70800 6.4835572404e+00 5.5493387548e-04 1.8569556060e+00 -3.2163414570e+00 1.8569556060e+00 3.2163414570e+00 
70900 6.4835576317e+00 4.6978106922e-04 1.8569406640e+00 -3.2163155766e+00 1.8569406640e+00 3.2163155766e+00 
71000 6.4835580254e+00 3.8516214778e-04 1.8569280147e+00 -3.2162936674e+00 1.8569280147e+00 3.2162936674e+00 
71100 6.4835584188e+00 3.0121696416e-04 1.8569176437e+00 -3.2162757044e+00 1.8569176437e+00 3.2162757044e+00 
71200 6.4835588092e+00 2.1808190552e-04 1.8569095330e+00 -3.2162616563e+00 1.8569095330e+00 3.2162616563e+00 
71300 6.4835591939e+00 1.3588971151e-04 1.8569036609e+00 -3.2162514854e+00 1.8569036609e+00 3.2162514854e+00 
71400 6.4835595704e+00 5.4769302364e-05 1.8569000018e+00 -3.2162451478e+00 1.8569000018e+00 3.2162451478e+00 
71500 6.4835599363e+00 -2.3596873351e-05 1.8569000018e+00 -3.2162451478e+00 1.8569000018e+00 3.2162451478e+00 
71600 6.4835602895e+00 -1.0290666912e-04 1.8569000018e+00 -3.2162451478e+00 1.8569000018e+00 3.2162451478e+00 
71700 6.4835606280e+00 -1.8009532123e-04 1.8569027728e+00 -3.2162499471e+00 1.8569027728e+00 3.2162499471e+00 
71800 6.4835609500e+00 -2.5573679986e-04 1.8569076221e+00 -3.2162583465e+00 1.8569076221e+00 3.2162583465e+00 
71900 6.4835612536e+00 -3.2972359778e-04 1.8569145082e+00 -3.2162702735e+00 1.8569145082e+00 3.2162702735e+00 
72000 6.4835615375e+00 -4.0195284676e-04 1.8569233865e+00 -3.2162856512e+00 1.8569233865e+00 3.2162856512e+00 
72100 6.4835618002e+00 -4.7232641983e-04 1.8569342096e+00 -3.2163043973e+00 1.8569342096e+00 3.2163043973e+00 
72200 6.4835620407e+00 -5.4075102338e-04 1.8569469275e+00 -3.2163264254e+00 1.8569469275e+00 3.2163264254e+00 
72300 6.4835622579e+00 -6.0713827936e-04 1.8569614877e+00 -3.2163516445e+00 1.8569614877e+00 3.2163516445e+00 
72400 6.4835624512e+00 -6.7140479740e-04 1.8569778354e+00 -3.2163799594e+00 1.8569778354e+00 3.2163799594e+00 
72500 6.4835626199e+00 -7.3347223714e-04 1.8569959133e+00 -3.2164112713e+00 1.8569959133e+00 3.2164112713e+00 
72600 6.4835627636e+00 -7.9326736065e-04 1.8570156622e+00 -3.2164454774e+00 1.8570156622e+00 3.2164454774e+00 
72700 6.4835628823e+00 -8.5072207522e-04 1.8570370209e+00 -3.2164824718e+00 1.8570370209e+00 3.2164824718e+00 
72800 6.4835629758e+00 -9.0577346650e-04 1.8570599263e+00 -3.2165221451e+00 1.8570599263e+00 3.2165221451e+00 
72900 6.4835630443e+00 -9.5836382220e-04 1.8570843137e+00 -3.2165643853e+00 1.8570843137e+00 3.2165643853e+00 
73000 6.4835630882e+00 -1.0084406464e-03 1.8571101167e+00 -3.2166090773e+00 1.8571101167e+00 3.2166090773e+00 
73100 6.4835631079e+00 -1.0559566647e-03 1.8571372675e+00 -3.2166561040e+00 1.8571372675e+00 3.2166561040e+00 
73200 6.4835631041e+00 -1.1008698205e-03 1.8571656973e+00 -3.2167053458e+00 1.8571656973e+00 3.2167053458e+00 
73300 6.4835630776e+00 -1.1431432619e-03 1.8571953358e+00 -3.2167566812e+00 1.8571953358e+00 3.2167566812e+00 
73400 6.4835630292e+00 -1.1827453206e-03 1.8572261120e+00 -3.2168099871e+00 1.8572261120e+00 3.2168099871e+00 
73500 6.4835629601e+00 -1.2196494822e-03 1.8572579538e+00 -3.2168651387e+00 1.8572579538e+00 3.2168651387e+00 
73600 6.4835628713e+00 -1.2538343473e-03 1.8572907886e+00 -3.2169220102e+00 1.8572907886e+00 3.2169220102e+00 
73700 6.4835627642e+00 -1.2852835862e-03 1.8573245431e+00 -3.2169804747e+00 1.8573245431e+00 3.2169804747e+00 
73800 6.4835626400e+00 -1.3139858842e-03 1.8573591436e+00 -3.2170404046e+00 1.8573591436e+00 3.2170404046e+00 
73900 6.4835625002e+00 -1.3399348800e-03 1.8573945161e+00 -3.2171016716e+00 1.8573945161e+00 3.2171016716e+00 
74000 6.4835623463e+00 -1.3631290969e-03 1.8574305865e+00 -3.2171641473e+00 1.8574305865e+00 3.2171641473e+00 
74100 6.4835621797e+00 -1.3835718662e-03 1.8574672806e+00 -3.2172277033e+00 1.8574672806e+00 3.2172277033e+00 
74200 6.4835620021e+00 -1.4012712443e-03 1.8575045242e+00 -3.2172922112e+00 1.8575045242e+00 3.2172922112e+00 
74300 6.4835618151e+00 -1.4162399231e-03 1.8575422435e+00 -3.2173575430e+00 1.8575422435e+00 3.2173575430e+00 
74400 6.4835616202e+00 -1.4284951334e-03 1.8575803650e+00 -3.2174235713e+00 1.8575803650e+00 3.2174235713e+00 
74500 6.4835614191e+00 -1.4380585429e-03 1.8576188155e+00 -3.2174901696e+00 1.8576188155e+00 3.2174901696e+00 
74600 6.4835612134e+00 -1.4449561483e-03 1.8576575227e+00 -3.2175572124e+00 1.8576575227e+00 3.2175572124e+00 
74700 6.4835610047e+00 -1.4492181610e-03 1.8576964147e+00 -3.2176245754e+00 1.8576964147e+00 3.2176245754e+00 
74800 6.4835607945e+00 -1.4508788888e-03 1.8577354207e+00 -3.2176921356e+00 1.8577354207e+00 3.2176921356e+00 
74900 6.4835605844e+00 -1.4499766114e-03 1.8577744705e+00 -3.2177597718e+00 1.8577744705e+00 3.2177597718e+00 
75000 6.4835603758e+00 -1.4465534517e-03 1.8578134952e+00 -3.2178273646e+00 1.8578134952e+00 3.2178273646e+00 
75100 6.4835601701e+00 -1.4406552428e-03 1.8578524269e+00 -3.2178947964e+00 1.8578524269e+00 3.2178947964e+00 
75200 6.4835599687e+00 -1.4323313905e-03 1.8578911991e+00 -3.2179619518e+00 1.8578911991e+00 3.2179619518e+00 
75300 6.4835597729e+00 -1.4216347319e-03 1.8579297465e+00 -3.2180287178e+00 1.8579297465e+00 3.2180287178e+00 
75400 6.4835595839e+00 -1.4086213908e-03 1.8579680052e+00 -3.2180949838e+00 1.8579680052e+00 3.2180949838e+00 
75500 6.4835594027e+00 -1.3933506294e-03 1.8580059129e+00 -3.2181606419e+00 1.8580059129e+00 3.2181606419e+00 
75600 6.4835592305e+00 -1.3758846971e-03 1.8580434089e+00 -3.2182255868e+00 1.8580434089e+00 3.2182255868e+00 
75700 6.4835590680e+00 -1.3562886768e-03 1.8580804341e+00 -3.2182897164e+00 1.8580804341e+00 3.2182897164e+00 
75800 6.4835589162e+00 -1.3346303287e-03 1.8581169312e+00 -3.2183529313e+00 1.8581169312e+00 3.2183529313e+00 
75900 6.4835587759e+00 -1.3109799315e-03 1.8581528449e+00 -3.2184151355e+00 1.8581528449e+00 3.2184151355e+00 
76000 6.4835586475e+00 -1.2854101225e-03 1.8581881214e+00 -3.2184762363e+00 1.8581881214e+00 3.2184762363e+00 
76100 6.4835585317e+00 -1.2579957358e-03 1.8582227092e+00 -3.2185361442e+00 1.8582227092e+00 3.2185361442e+00 
76200 6.4835584289e+00 -1.2288136390e-03 1.8582565588e+00 -3.2185947733e+00 1.8582565588e+00 3.2185947733e+00 
76300 6.4835583393e+00 -1.1979425695e-03 1.8582896225e+00 -3.2186520413e+00 1.8582896225e+00 3.2186520413e+00 
76400 6.4835582633e+00 -1.1654629695e-03 1.8583218550e+00 -3.2187078697e+00 1.8583218550e+00 3.2187078697e+00 
76500 6.4835582009e+00 -1.1314568210e-03 1.8583532130e+00 -3.2187621834e+00 1.8583532130e+00 3.2187621834e+00 
76600 6.4835581521e+00 -1.0960074806e-03 1.8583836556e+00 -3.2188149114e+00 1.8583836556e+00 3.2188149114e+00 
76700 6.4835581169e+00 -1.0591995141e-03 1.8584131438e+00 -3.2188659866e+00 1.8584131438e+00 3.2188659866e+00 
76800 6.4835580950e+00 -1.0211185323e-03 1.8584416413e+00 -3.2189153457e+00 1.8584416413e+00 3.2189153457e+00 
76900 6.4835580864e+00 -9.8185102647e-04 1.8584691138e+00 -3.2189629294e+00 1.8584691138e+00 3.2189629294e+00 
77000 6.4835580905e+00 -9.4148420553e-04 1.8584955295e+00 -3.2190086827e+00 1.8584955295e+00 3.2190086827e+00 
77100 6.4835581070e+00 -9.0010583414e-04 1.8585208587e+00 -3.2190525543e+00 1.8585208587e+00 3.2190525543e+00 
77200 6.4835581354e+00 -8.5780407226e-04 1.8585450744e+00 -3.2190944971e+00 1.8585450744e+00 3.2190944971e+00 
77300 6.4835581751e+00 -8.1466731643e-04 1.8585681518e+00 -3.2191344682e+00 1.8585681518e+00 3.2191344682e+00 
77400 6.4835582255e+00 -7.7078404296e-04 1.8585900684e+00 -3.2191724288e+00 1.8585900684e+00 3.2191724288e+00 
77500 6.4835582859e+00 -7.2624265339e-04 1.8586108041e+00 -3.2192083442e+00 1.8586108041e+00 3.2192083442e+00 
77600 6.4835583557e+00 -6.8113132226e-04 1.8586303414e+00 -3.2192421838e+00 1.8586303414e+00 3.2192421838e+00 
77700 6.4835584340e+00 -6.3553784757e-04 1.8586486649e+00 -3.2192739210e+00 1.8586486649e+00 3.2192739210e+00 
77800 6.4835585201e+00 -5.8954950406e-04 1.8586657617e+00 -3.2193035336e+00 1.8586657617e+00 3.2193035336e+00 
77900 6.4835586130e+00 -5.4325289960e-04 1.8586816212e+00 -3.2193310030e+00 1.8586816212e+00 3.2193310030e+00 
78000 6.4835587121e+00 -4.9673383478e-04 1.8586962352e+00 -3.2193563151e+00 1.8586962352e+00 3.2193563151e+00 
78100 6.4835588163e+00 -4.5007716597e-04 1.8587095976e+00 -3.2193794596e+00 1.8587095976e+00 3.2193794596e+00 
78200 6.4835589248e+00 -4.0336667208e-04 1.8587217049e+00 -3.2194004299e+00 1.8587217049e+00 3.2194004299e+00 
78300 6.4835590368e+00 -3.5668492503e-04 1.8587325555e+00 -3.2194192238e+00 1.8587325555e+00 3.2194192238e+00 
78400 6.4835591514e+00 -3.1011316433e-04 1.8587421504e+00 -3.2194358426e+00 1.8587421504e+00 3.2194358426e+00 
78500 6.4835592677e+00 -2.6373117575e-04 1.8587504924e+00 -3.2194502914e+00 1.8587504924e+00 3.2194502914e+00 
78600 6.4835593848e+00 -2.1761717425e-04 1.8587575867e+00 -3.2194625791e+00 1.8587575867e+00 3.2194625791e+00 
78700 6.4835595019e+00 -1.7184769149e-04 1.8587634405e+00 -3.2194727183e+00 1.8587634405e+00 3.2194727183e+00 
78800 6.4835596183e+00 -1.2649746777e-04 1.8587680632e+00 -3.2194807249e+00 1.8587680632e+00 3.2194807249e+00 
78900 6.4835597330e+00 -8.1639348776e-05 1.8587714659e+00 -3.2194866186e+00 1.8587714659e+00 3.2194866186e+00 
79000 6.4835598455e+00 -3.7344187133e-05 1.8587736620e+00 -3.2194904223e+00 1.8587736620e+00 3.2194904223e+00 
79100 6.4835599550e+00 5.2627348082e-06 1.8587736620e+00 -3.2194904223e+00 1.8587736620e+00 3.2194904223e+00 
79200 6.4835600607e+00 4.8398593800e-05 1.8587736620e+00 -3.2194904223e+00 1.8587736620e+00 3.2194904223e+00 
79300 6.4835601624e+00 9.1987821660e-05 1.8587736620e+00 -3.2194904223e+00 1.8587736620e+00 3.2194904223e+00 
79400 6.4835602592e+00 1.3335367674e-04 1.8587711875e+00 -3.2194861365e+00 1.8587711875e+00 3.2194861365e+00 
79500 6.4835603506e+00 1.7383609473e-04 1.8587676004e+00 -3.2194799234e+00 1.8587676004e+00 3.2194799234e+00 
79600 6.4835604363e+00 2.1337791155e-04 1.8587629243e+00 -3.2194718241e+00 1.8587629243e+00 3.2194718241e+00 
79700 6.4835605157e+00 2.5192450512e-04 1.8587571845e+00 -3.2194618825e+00 1.8587571845e+00 3.2194618825e+00 
79800 6.4835605886e+00 2.8942385219e-04 1.8587504078e+00 -3.2194501449e+00 1.8587504078e+00 3.2194501449e+00 
79900 6.4835606546e+00 3.2582657975e-04 1.8587426224e+00 -3.2194366602e+00 1.8587426224e+00 3.2194366602e+00 
80000 6.4835607135e+00 3.6108601105e-04 1.8587338577e+00 -3.2194214793e+00 1.8587338577e+00 3.2194214793e+00 
80100 6.4835607652e+00 3.9515820615e-04 1.8587241445e+00 -3.2194046555e+00 1.8587241445e+00 3.2194046555e+00 
80200 6.4835608095e+00 4.2800199700e-04 1.8587135147e+00 -3.2193862441e+00 1.8587135147e+00 3.2193862441e+00 
80300 6.4835608463e+00 4.5957901721e-04 1.8587020013e+00 -3.2193663023e+00 1.8587020013e+00 3.2193663023e+00 
80400 6.4835608756e+00 4.8985372630e-04 1.8586896384e+00 -3.2193448892e+00 1.8586896384e+00 3.2193448892e+00 
80500 6.4835608975e+00 5.1879342870e-04 1.8586764610e+00 -3.2193220653e+00 1.8586764610e+00 3.2193220653e+00 
80600 6.4835609121e+00 5.4636828731e-04 1.8586625050e+00 -3.2192978928e+00 1.8586625050e+00 3.2192978928e+00 
80700 6.4835609195e+00 5.7255133190e-04 1.8586478072e+00 -3.2192724354e+00 1.8586478072e+00 3.2192724354e+00 
80800 6.4835609198e+00 5.9731846226e-04 1.8586324048e+00 -3.2192457577e+00 1.8586324048e+00 3.2192457577e+00 
80900 6.4835609133e+00 6.2064844619e-04 1.8586163361e+00 -3.2192179259e+00 1.8586163361e+00 3.2192179259e+00 
81000 6.4835609003e+00 6.4252291243e-04 1.8585996396e+00 -3.2191890067e+00 1.8585996396e+00 3.2191890067e+00 
81100 6.4835608810e+00 6.6292633868e-04 1.8585823545e+00 -3.2191590680e+00 1.8585823545e+00 3.2191590680e+00 
81200 6.4835608559e+00 6.8184603462e-04 1.8585645203e+00 -3.2191281783e+00 1.8585645203e+00 3.2191281783e+00 
81300 6.4835608252e+00 6.9927212031e-04 1.8585461770e+00 -3.2190964068e+00 1.8585461770e+00 3.2190964068e+00 
81400 6.4835607894e+00 7.1519749974e-04 1.8585273647e+00 -3.2190638229e+00 1.8585273647e+00 3.2190638229e+00 
81500 6.4835607488e+00 7.2961783000e-04 1.8585081237e+00 -3.2190304966e+00 1.8585081237e+00 3.2190304966e+00 
81600 6.4835607040e+00 7.4253148590e-04 1.8584884947e+00 -3.2189964980e+00 1.8584884947e+00 3.2189964980e+00 
81700 6.4835606553e+00 7.5393952034e-04 1.8584685179e+00 -3.2189618973e+00 1.8584685179e+00 3.2189618973e+00 
81800 6.4835606033e+00 7.6384562052e-04 1.8584482341e+00 -3.2189267647e+00 1.8584482341e+00 3.2189267647e+00 
81900 6.4835605483e+00 7.7225606011e-04 1.8584276835e+00 -3.2188911700e+00 1.8584276835e+00 3.2188911700e+00 
82000 6.4835604910e+00 7.7917964760e-04 1.8584069064e+00 -3.2188551830e+00 1.8584069064e+00 3.2188551830e+00 
82100 6.4835604317e+00 7.8462767085e-04 1.8583859428e+00 -3.2188188730e+00 1.8583859428e+00 3.2188188730e+00 
82200 6.4835603709e+00 7.8861383817e-04 1.8583648324e+00 -3.2187823087e+00 1.8583648324e+00 3.2187823087e+00 
82300 6.4835603092e+00 7.9115421591e-04 1.8583436145e+00 -3.2187455582e+00 1.8583436145e+00 3.2187455582e+00 
82400 6.4835602469e+00 7.9226716290e-04 1.8583223280e+00 -3.2187086889e+00 1.8583223280e+00 3.2187086889e+00 
82500 6.4835601846e+00 7.9197326180e-04 1.8583010113e+00 -3.2186717673e+00 1.8583010113e+00 3.2186717673e+00 
82600 6.4835601227e+00 7.9029524749e-04 1.8582797022e+00 -3.2186348589e+00 1.8582797022e+00 3.2186348589e+00 
82700 6.4835600615e+00 7.8725793289e-04 1.8582584381e+00 -3.2185980284e+00 1.8582584381e+00 3.2185980284e+00 
82800 6.4835600016e+00 7.8288813212e-04 1.8582372555e+00 -3.2185613390e+00 1.8582372555e+00 3.2185613390e+00 
82900 6.4835599433e+00 7.7721458133e-04 1.8582161902e+00 -3.2185248528e+00 1.8582161902e+00 3.2185248528e+00 
83000 6.4835598869e+00 7.7026785741e-04 1.8581952773e+00 -3.2184886306e+00 1.8581952773e+00 3.2184886306e+00 
83100 6.4835598328e+00 7.6208029465e-04 1.8581745511e+00 -3.2184527318e+00 1.8581745511e+00 3.2184527318e+00 
83200 6.4835597814e+00 7.5268589961e-04 1.8581540450e+00 -3.2184172142e+00 1.8581540450e+00 3.2184172142e+00 
83300 6.4835597328e+00 7.4212026434e-04 1.8581337914e+00 -3.2183821340e+00 1.8581337914e+00 3.2183821340e+00 
83400 6.4835596873e+00 7.3042047824e-04 1.8581138219e+00 -3.2183475459e+00 1.8581138219e+00 3.2183475459e+00 
83500 6.4835596452e+00 7.1762503857e-04 1.8580941671e+00 -3.2183135026e+00 1.8580941671e+00 3.2183135026e+00 
83600 6.4835596066e+00 7.0377375993e-04 1.8580748563e+00 -3.2182800554e+00 1.8580748563e+00 3.2182800554e+00 
83700 6.4835595718e+00 6.8890768284e-04 1.8580559181e+00 -3.2182472535e+00 1.8580559181e+00 3.2182472535e+00 
83800 6.4835595408e+00 6.7306898161e-04 1.8580373798e+00 -3.2182151441e+00 1.8580373798e+00 3.2182151441e+00 
83900 6.4835595138e+00 6.5630087169e-04 1.8580192674e+00 -3.2181837726e+00 1.8580192674e+00 3.2181837726e+00 
84000 6.4835594908e+00 6.3864751663e-04 1.8580016061e+00 -3.2181531824e+00 1.8580016061e+00 3.2181531824e+00 
84100 6.4835594718e+00 6.2015393488e-04 1.8579844198e+00 -3.2181234147e+00 1.8579844198e+00 3.2181234147e+00 
84200 6.4835594569e+00 6.0086590660e-04 1.8579677309e+00 -3.2180945087e+00 1.8579677309e+00 3.2180945087e+00 
84300 6.4835594460e+00 5.8082988058e-04 1.8579515609e+00 -3.2180665015e+00 1.8579515609e+00 3.2180665015e+00 
84400 6.4835594391e+00 5.6009288152e-04 1.8579359300e+00 -3.2180394280e+00 1.8579359300e+00 3.2180394280e+00 
84500 6.4835594362e+00 5.3870241779e-04 1.8579208571e+00 -3.2180133209e+00 1.8579208571e+00 3.2180133209e+00 
84600 6.4835594371e+00 5.1670638983e-04 1.8579063596e+00 -3.2179882106e+00 1.8579063596e+00 3.2179882106e+00 
84700 6.4835594417e+00 4.9415299935e-04 1.8578924540e+00 -3.2179641254e+00 1.8578924540e+00 3.2179641254e+00 
84800 6.4835594498e+00 4.7109065945e-04 1.8578791553e+00 -3.2179410913e+00 1.8578791553e+00 3.2179410913e+00 
84900 6.4835594614e+00 4.4756790591e-04 1.8578664771e+00 -3.2179191321e+00 1.8578664771e+00 3.2179191321e+00 
85000 6.4835594761e+00 4.2363330963e-04 1.8578544319e+00 -3.2178982692e+00 1.8578544319e+00 3.2178982692e+00 
85100 6.4835594939e+00 3.9933539048e-04 1.8578430308e+00 -3.2178785219e+00 1.8578430308e+00 3.2178785219e+00 
85200 6.4835595145e+00 3.7472253264e-04 1.8578322835e+00 -3.2178599070e+00 1.8578322835e+00 3.2178599070e+00 
85300 6.4835595377e+00 3.4984290162e-04 1.8578221986e+00 -3.2178424394e+00 1.8578221986e+00 3.2178424394e+00 
85400 6.4835595632e+00 3.2474436292e-04 1.8578127832e+00 -3.2178261315e+00 1.8578127832e+00 3.2178261315e+00 
85500 6.4835595908e+00 2.9947440269e-04 1.8578040433e+00 -3.2178109934e+00 1.8578040433e+00 3.2178109934e+00 
85600 6.4835596202e+00 2.7408005024e-04 1.8577959834e+00 -3.2177970333e+00 1.8577959834e+00 3.2177970333e+00 
85700 6.4835596512e+00 2.4860780269e-04 1.8577886069e+00 -3.2177842568e+00 1.8577886069e+00 3.2177842568e+00 
85800 6.4835596836e+00 2.2310355182e-04 1.8577819159e+00 -3.2177726678e+00 1.8577819159e+00 3.2177726678e+00 
85900 6.4835597169e+00 1.9761251314e-04 1.8577759114e+00 -3.2177622675e+00 1.8577759114e+00 3.2177622675e+00 
86000 6.4835597511e+00 1.7217915734e-04 1.8577705928e+00 -3.2177530556e+00 1.8577705928e+00 3.2177530556e+00 
86100 6.4835597858e+00 1.4684714417e-04 1.8577659588e+00 -3.2177450292e+00 1.8577659588e+00 3.2177450292e+00 
86200 6.4835598209e+00 1.2165925885e-04 1.8577620066e+00 -3.2177381837e+00 1.8577620066e+00 3.2177381837e+00 
86300 6.4835598559e+00 9.6657351077e-05 1.8577587322e+00 -3.2177325124e+00 1.8577587322e+00 3.2177325124e+00 
86400 6.4835598907e+00 7.1882276602e-05 1.8577561308e+00 -3.2177280066e+00 1.8577561308e+00 3.2177280066e+00 
86500 6.4835599251e+00 4.7373841622e-05 1.8577541961e+00 -3.2177246556e+00 1.8577541961e+00 3.2177246556e+00 
86600 6.4835599589e+00 2.4514826095e-05 1.8577541961e+00 -3.2177246556e+00 1.8577541961e+00 3.2177246556e+00 
86700 6.4835599917e+00 1.3221500825e-06 1.8577541961e+00 -3.2177246556e+00 1.8577541961e+00 3.2177246556e+00 
86800 6.4835600234e+00 -2.2162023592e-05 1.8577541961e+00 -3.2177246556e+00 1.8577541961e+00 3.2177246556e+00 
86900 6.4835600539e+00 -4.5896359944e-05 1.8577541961e+00 -3.2177246556e+00 1.8577541961e+00 3.2177246556e+00 
87000 6.4835600830e+00 -6.9840382720e-05 1.8577541961e+00 -3.2177246556e+00 1.8577541961e+00 3.2177246556e+00 
87100 6.4835601108e+00 -9.3954503446e-05 1.8577541961e+00 -3.2177246556e+00 1.8577541961e+00 3.2177246556e+00 
87200 6.4835601368e+00 -1.1553470839e-04 1.8577567248e+00 -3.2177290355e+00 1.8577567248e+00 3.2177290355e+00 
87300 6.4835601608e+00 -1.3657637993e-04 1.8577598343e+00 -3.2177344213e+00 1.8577598343e+00 3.2177344213e+00 
87400 6.4835601830e+00 -1.5705098012e-04 1.8577635102e+00 -3.2177407881e+00 1.8577635102e+00 3.2177407881e+00 
87500 6.4835602031e+00 -1.7693142909e-04 1.8577677371e+00 -3.2177481093e+00 1.8577677371e+00 3.2177481093e+00 
87600 6.4835602211e+00 -1.9619212847e-04 1.8577724990e+00 -3.2177563572e+00 1.8577724990e+00 3.2177563572e+00 
87700 6.4835602369e+00 -2.1480898197e-04 1.8577777793e+00 -3.2177655029e+00 1.8577777793e+00 3.2177655029e+00 
87800 6.4835602506e+00 -2.3275941289e-04 1.8577835607e+00 -3.2177755165e+00 1.8577835607e+00 3.2177755165e+00 
87900 6.4835602620e+00 -2.5002237884e-04 1.8577898251e+00 -3.2177863669e+00 1.8577898251e+00 3.2177863669e+00 
88000 6.4835602712e+00 -2.6657838344e-04 1.8577965541e+00 -3.2177980219e+00 1.8577965541e+00 3.2177980219e+00 
88100 6.4835602781e+00 -2.8240948528e-04 1.8578037287e+00 -3.2178104486e+00 1.8578037287e+00 3.2178104486e+00 
88200 6.4835602829e+00 -2.9749930395e-04 1.8578113294e+00 -3.2178236133e+00 1.8578113294e+00 3.2178236133e+00 
88300 6.4835602855e+00 -3.1183302331e-04 1.8578193361e+00 -3.2178374814e+00 1.8578193361e+00 3.2178374814e+00 
88400 6.4835602860e+00 -3.2539739201e-04 1.8578277285e+00 -3.2178520175e+00 1.8578277285e+00 3.2178520175e+00 
88500 6.4835602844e+00 -3.3818072124e-04 1.8578364860e+00 -3.2178671859e+00 1.8578364860e+00 3.2178671859e+00 
88600 6.4835602809e+00 -3.5017287989e-04 1.8578455875e+00 -3.2178829501e+00 1.8578455875e+00 3.2178829501e+00 
88700 6.4835602756e+00 -3.6136528705e-04 1.8578550116e+00 -3.2178992733e+00 1.8578550116e+00 3.2178992733e+00 
88800 6.4835602684e+00 -3.7175090197e-04 1.8578647370e+00 -3.2179161181e+00 1.8578647370e+00 3.2179161181e+00 
88900 6.4835602596e+00 -3.8132421146e-04 1.8578747418e+00 -3.2179334469e+00 1.8578747418e+00 3.2179334469e+00 
89000 6.4835602493e+00 -3.9008121496e-04 1.8578850042e+00 -3.2179512219e+00 1.8578850042e+00 3.2179512219e+00 
89100 6.4835602375e+00 -3.9801940714e-04 1.8578955022e+00 -3.2179694049e+00 1.8578955022e+00 3.2179694049e+00 
89200 6.4835602244e+00 -4.0513775822e-04 1.8579062138e+00 -3.2179879579e+00 1.8579062138e+00 3.2179879579e+00 
89300 6.4835602101e+00 -4.1143669209e-04 1.8579171168e+00 -3.2180068426e+00 1.8579171168e+00 3.2180068426e+00 
89400 6.4835601949e+00 -4.1691806226e-04 1.8579281894e+00 -3.2180260208e+00 1.8579281894e+00 3.2180260208e+00 
89500 6.4835601787e+00 -4.2158512564e-04 1.8579394094e+00 -3.2180454544e+00 1.8579394094e+00 3.2180454544e+00 
89600 6.4835601618e+00 -4.2544251446e-04 1.8579507549e+00 -3.2180651054e+00 1.8579507549e+00 3.2180651054e+00 
89700 6.4835601444e+00 -4.2849620613e-04 1.8579622041e+00 -3.2180849361e+00 1.8579622041e+00 3.2180849361e+00 
89800 6.4835601264e+00 -4.3075349133e-04 1.8579737355e+00 -3.2181049090e+00 1.8579737355e+00 3.2181049090e+00 
89900 6.4835601082e+00 -4.3222294034e-04 1.8579853275e+00 -3.2181249870e+00 1.8579853275e+00 3.2181249870e+00 
90000 6.4835600898e+00 -4.3291436761e-04 1.8579969590e+00 -3.2181451333e+00 1.8579969590e+00 3.2181451333e+00 
90100 6.4835600713e+00 -4.3283879489e-04 1.8580086091e+00 -3.2181653118e+00 1.8580086091e+00 3.2181653118e+00 
90200 6.4835600529e+00 -4.3200841270e-04 1.8580202570e+00 -3.2181854866e+00 1.8580202570e+00 3.2181854866e+00 
90300 6.4835600348e+00 -4.3043654051e-04 1.8580318825e+00 -3.2182056226e+00 1.8580318825e+00 3.2182056226e+00 
90400 6.4835600170e+00 -4.2813758555e-04 1.8580434657e+00 -3.2182256852e+00 1.8580434657e+00 3.2182256852e+00 
90500 6.4835599996e+00 -4.2512700038e-04 1.8580549869e+00 -3.2182456405e+00 1.8580549869e+00 3.2182456405e+00 
90600 6.4835599829e+00 -4.2142123936e-04 1.8580664270e+00 -3.2182654554e+00 1.8580664270e+00 3.2182654554e+00 
90700 6.4835599668e+00 -4.1703771402e-04 1.8580777673e+00 -3.2182850974e+00 1.8580777673e+00 3.2182850974e+00 
90800 6.4835599514e+00 -4.1199474758e-04 1.8580889896e+00 -3.2183045350e+00 1.8580889896e+00 3.2183045350e+00 
90900 6.4835599369e+00 -4.0631152846e-04 1.8581000761e+00 -3.2183237374e+00 1.8581000761e+00 3.2183237374e+00 
91000 6.4835599234e+00 -4.0000806317e-04 1.8581110097e+00 -3.2183426749e+00 1.8581110097e+00 3.2183426749e+00 
91100 6.4835599108e+00 -3.9310512845e-04 1.8581217735e+00 -3.2183613184e+00 1.8581217735e+00 3.2183613184e+00 
91200 6.4835598992e+00 -3.8562422279e-04 1.8581323516e+00 -3.2183796401e+00 1.8581323516e+00 3.2183796401e+00 
91300 6.4835598888e+00 -3.7758751761e-04 1.8581427282e+00 -3.2183976130e+00 1.8581427282e+00 3.2183976130e+00 
91400 6.4835598795e+00 -3.6901780787e-04 1.8581528886e+00 -3.2184152113e+00 1.8581528886e+00 3.2184152113e+00 
91500 6.4835598714e+00 -3.5993846244e-04 1.8581628183e+00 -3.2184324100e+00 1.8581628183e+00 3.2184324100e+00 
91600 6.4835598644e+00 -3.5037337433e-04 1.8581725036e+00 -3.2184491855e+00 1.8581725036e+00 3.2184491855e+00 
91700 6.4835598587e+00 -3.4034691065e-04 1.8581819315e+00 -3.2184655151e+00 1.8581819315e+00 3.2184655151e+00 
91800 6.4835598542e+00 -3.2988386264e-04 1.8581910896e+00 -3.2184813774e+00 1.8581910896e+00 3.2184813774e+00 
91900 6.4835598509e+00 -3.1900939569e-04 1.8581999661e+00 -3.2184967519e+00 1.8581999661e+00 3.2184967519e+00 
92000 6.4835598487e+00 -3.0774899950e-04 1.8582085499e+00 -3.2185116195e+00 1.8582085499e+00 3.2185116195e+00 
92100 6.4835598478e+00 -2.9612843850e-04 1.8582168307e+00 -3.2185259623e+00 1.8582168307e+00 3.2185259623e+00 
92200 6.4835598480e+00 -2.8417370248e-04 1.8582247988e+00 -3.2185397634e+00 1.8582247988e+00 3.2185397634e+00 
92300 6.4835598493e+00 -2.7191095767e-04 1.8582324452e+00 -3.2185530074e+00 1.8582324452e+00 3.2185530074e+00 
92400 6.4835598516e+00 -2.5936649825e-04 1.8582397616e+00 -3.2185656797e+00 1.8582397616e+00 3.2185656797e+00 
92500 6.4835598550e+00 -2.4656669840e-04 1.8582467404e+00 -3.2185777674e+00 1.8582467404e+00 3.2185777674e+00 
92600 6.4835598593e+00 -2.3353796492e-04 1.8582533748e+00 -3.2185892585e+00 1.8582533748e+00 3.2185892585e+00 
92700 6.4835598646e+00 -2.2030669060e-04 1.8582596586e+00 -3.2186001424e+00 1.8582596586e+00 3.2186001424e+00 
92800 6.4835598707e+00 -2.0689920828e-04 1.8582655864e+00 -3.2186104096e+00 1.8582655864e+00 3.2186104096e+00 
92900 6.4835598776e+00 -1.9334174575e-04 1.8582711534e+00 -3.2186200519e+00 1.8582711534e+00 3.2186200519e+00 
93000 6.4835598851e+00 -1.7966038152e-04 1.8582763556e+00 -3.2186290624e+00 1.8582763556e+00 3.2186290624e+00 
93100 6.4835598933e+00 -1.6588100159e-04 1.8582811897e+00 -3.2186374352e+00 1.8582811897e+00 3.2186374352e+00 
93200 6.4835599021e+00 -1.5202925712e-04 1.8582856529e+00 -3.2186451659e+00 1.8582856529e+00 3.2186451659e+00 
93300 6.4835599114e+00 -1.3813052329e-04 1.8582897435e+00 -3.2186522510e+00 1.8582897435e+00 3.2186522510e+00 
93400 6.4835599210e+00 -1.2420985918e-04 1.8582934601e+00 -3.2186586883e+00 1.8582934601e+00 3.2186586883e+00 
93500 6.4835599310e+00 -1.1029196890e-04 1.8582968022e+00 -3.2186644769e+00 1.8582968022e+00 3.2186644769e+00 
93600 6.4835599412e+00 -9.6401163865e-05 1.8582997697e+00 -3.2186696169e+00 1.8582997697e+00 3.2186696169e+00 
93700 6.4835599516e+00 -8.2561326434e-05 1.8583023635e+00 -3.2186741095e+00 1.8583023635e+00 3.2186741095e+00 
93800 6.4835599621e+00 -6.8795874774e-05 1.8583045850e+00 -3.2186779571e+00 1.8583045850e+00 3.2186779571e+00 
93900 6.4835599727e+00 -5.7076484936e-05 1.8583045850e+00 -3.2186779571e+00 1.8583045850e+00 3.2186779571e+00 
94000 6.4835599831e+00 -4.5104410852e-05 1.8583045850e+00 -3.2186779571e+00 1.8583045850e+00 3.2186779571e+00 
94100 6.4835599934e+00 -3.2903732066e-05 1.8583045850e+00 -3.2186779571e+00 1.8583045850e+00 3.2186779571e+00 
94200 6.4835600034e+00 -2.0498140234e-05 1.8583045850e+00 -3.2186779571e+00 1.8583045850e+00 3.2186779571e+00 
94300 6.4835600132e+00 -7.9109192544e-06 1.8583045850e+00 -3.2186779571e+00 1.8583045850e+00 3.2186779571e+00 
94400 6.4835600226e+00 4.8350736445e-06 1.8583045850e+00 -3.2186779571e+00 1.8583045850e+00 3.2186779571e+00 
94500 6.4835600317e+00 1.7717425756e-05 1.8583045850e+00 -3.2186779571e+00 1.8583045850e+00 3.2186779571e+00 
94600 6.4835600404e+00 3.0714185766e-05 1.8583045850e+00 -3.2186779571e+00 1.8583045850e+00 3.2186779571e+00 
94700 6.4835600487e+00 4.3803879605e-05 1.8583045850e+00 -3.2186779571e+00 1.8583045850e+00 3.2186779571e+00 
94800 6.4835600565e+00 5.6965525279e-05 1.8583045850e+00 -3.2186779571e+00 1.8583045850e+00 3.2186779571e+00 
94900 6.4835600639e+00 7.0178646741e-05 1.8583045850e+00 -3.2186779571e+00 1.8583045850e+00 3.2186779571e+00 
95000 6.4835600708e+00 8.3423286719e-05 1.8583045850e+00 -3.2186779571e+00 1.8583045850e+00 3.2186779571e+00 
95100 6.4835600770e+00 9.4316622773e-05 1.8583023403e+00 -3.2186740693e+00 1.8583023403e+00 3.2186740693e+00 
95200 6.4835600825e+00 1.0487659083e-04 1.8582998026e+00 -3.2186696739e+00 1.8582998026e+00 3.2186696739e+00 
95300 6.4835600874e+00 1.1508976686e-04 1.8582969808e+00 -3.2186647863e+00 1.8582969808e+00 3.2186647863e+00 
95400 6.4835600916e+00 1.2494355432e-04 1.8582938841e+00 -3.2186594227e+00 1.8582938841e+00 3.2186594227e+00 
95500 6.4835600952e+00 1.3442619285e-04 1.8582905224e+00 -3.2186536000e+00 1.8582905224e+00 3.2186536000e+00 
95600 6.4835600982e+00 1.4352676547e-04 1.8582869054e+00 -3.2186473353e+00 1.8582869054e+00 3.2186473353e+00 
95700 6.4835601004e+00 1.5223520416e-04 1.8582830436e+00 -3.2186406464e+00 1.8582830436e+00 3.2186406464e+00 
95800 6.4835601020e+00 1.6054229389e-04 1.8582789475e+00 -3.2186335517e+00 1.8582789475e+00 3.2186335517e+00 
95900 6.4835601030e+00 1.6843967508e-04 1.8582746279e+00 -3.2186260699e+00 1.8582746279e+00 3.2186260699e+00 
96000 6.4835601033e+00 1.7591984457e-04 1.8582700957e+00 -3.2186182200e+00 1.8582700957e+00 3.2186182200e+00 
96100 6.4835601031e+00 1.8297615503e-04 1.8582653623e+00 -3.2186100214e+00 1.8582653623e+00 3.2186100214e+00 
96200 6.4835601022e+00 1.8960281292e-04 1.8582604390e+00 -3.2186014940e+00 1.8582604390e+00 3.2186014940e+00 
96300 6.4835601008e+00 1.9579487500e-04 1.8582553374e+00 -3.2185926577e+00 1.8582553374e+00 3.2185926577e+00 
96400 6.4835600988e+00 2.0154824337e-04 1.8582500691e+00 -3.2185835329e+00 1.8582500691e+00 3.2185835329e+00 
96500 6.4835600964e+00 2.0685965913e-04 1.8582446461e+00 -3.2185741399e+00 1.8582446461e+00 3.2185741399e+00 
96600 6.4835600934e+00 2.1172669472e-04 1.8582390801e+00 -3.2185644993e+00 1.8582390801e+00 3.2185644993e+00 
96700 6.4835600901e+00 2.1614774481e-04 1.8582333831e+00 -3.2185546318e+00 1.8582333831e+00 3.2185546318e+00 
96800 6.4835600863e+00 2.2012201604e-04 1.8582275672e+00 -3.2185445583e+00 1.8582275672e+00 3.2185445583e+00 
96900 6.4835600822e+00 2.2364951537e-04 1.8582216443e+00 -3.2185342996e+00 1.8582216443e+00 3.2185342996e+00 
97000 6.4835600778e+00 2.2673103729e-04 1.8582156264e+00 -3.2185238764e+00 1.8582156264e+00 3.2185238764e+00 
97100 6.4835600731e+00 2.2936814984e-04 1.8582095256e+00 -3.2185133095e+00 1.8582095256e+00 3.2185133095e+00 
97200 6.4835600682e+00 2.3156317947e-04 1.8582033539e+00 -3.2185026197e+00 1.8582033539e+00 3.2185026197e+00 
97300 6.4835600631e+00 2.3331919482e-04 1.8581971231e+00 -3.2184918276e+00 1.8581971231e+00 3.2184918276e+00 
97400 6.4835600578e+00 2.3463998949e-04 1.8581908450e+00 -3.2184809536e+00 1.8581908450e+00 3.2184809536e+00 
97500 6.4835600525e+00 2.3553006373e-04 1.8581845313e+00 -3.2184700180e+00 1.8581845313e+00 3.2184700180e+00 
97600 6.4835600470e+00 2.3599460530e-04 1.8581781937e+00 -3.2184590409e+00 1.8581781937e+00 3.2184590409e+00 
97700 6.4835600416e+00 2.3603946929e-04 1.8581718435e+00 -3.2184480421e+00 1.8581718435e+00 3.2184480421e+00 
97800 6.4835600362e+00 2.3567115719e-04 1.8581654921e+00 -3.2184370412e+00 1.8581654921e+00 3.2184370412e+00 
97900 6.4835600308e+00 2.3489679513e-04 1.8581591506e+00 -3.2184260574e+00 1.8581591506e+00 3.2184260574e+00 
98000 6.4835600256e+00 2.3372411136e-04 1.8581528299e+00 -3.2184151097e+00 1.8581528299e+00 3.2184151097e+00 
98100 6.4835600204e+00 2.3216141301e-04 1.8581465408e+00 -3.2184042166e+00 1.8581465408e+00 3.2184042166e+00 
98200 6.4835600154e+00 2.3021756224e-04 1.8581402937e+00 -3.2183933962e+00 1.8581402937e+00 3.2183933962e+00 
98300 6.4835600107e+00 2.2790195183e-04 1.8581340988e+00 -3.2183826665e+00 1.8581340988e+00 3.2183826665e+00 
98400 6.4835600061e+00 2.2522448010e-04 1.8581279663e+00 -3.2183720446e+00 1.8581279663e+00 3.2183720446e+00 
98500 6.4835600018e+00 2.2219552545e-04 1.8581219058e+00 -3.2183615475e+00 1.8581219058e+00 3.2183615475e+00 
98600 6.4835599977e+00 2.1882592046e-04 1.8581159267e+00 -3.2183511915e+00 1.8581159267e+00 3.2183511915e+00 
98700 6.4835599940e+00 2.1512692553e-04 1.8581100384e+00 -3.2183409925e+00 1.8581100384e+00 3.2183409925e+00 
98800 6.4835599905e+00 2.1111020228e-04 1.8581042495e+00 -3.2183309659e+00 1.8581042495e+00 3.2183309659e+00 
98900 6.4835599874e+00 2.0678778661e-04 1.8580985687e+00 -3.2183211265e+00 1.8580985687e+00 3.2183211265e+00 
99000 6.4835599846e+00 2.0217206153e-04 1.8580930042e+00 -3.2183114885e+00 1.8580930042e+00 3.2183114885e+00 
99100 6.4835599821e+00 1.9727572985e-04 1.8580875639e+00 -3.2183020656e+00 1.8580875639e+00 3.2183020656e+00 
99200 6.4835599800e+00 1.9211178673e-04 1.8580822553e+00 -3.2182928709e+00 1.8580822553e+00 3.2182928709e+00 
99300 6.4835599783e+00 1.8669349218e-04 1.8580770857e+00 -3.2182839168e+00 1.8580770857e+00 3.2182839168e+00 
99400 6.4835599769e+00 1.8103434344e-04 1.8580720619e+00 -3.2182752153e+00 1.8580720619e+00 3.2182752153e+00 
99500 6.4835599759e+00 1.7514804751e-04 1.8580671903e+00 -3.2182667775e+00 1.8580671903e+00 3.2182667775e+00 
99600 6.4835599752e+00 1.6904849368e-04 1.8580624771e+00 -3.2182586141e+00 1.8580624771e+00 3.2182586141e+00 
99700 6.4835599749e+00 1.6274972619e-04 1.8580579281e+00 -3.2182507349e+00 1.8580579281e+00 3.2182507349e+00 
99800 6.4835599749e+00 1.5626591709e-04 1.8580535485e+00 -3.2182431492e+00 1.8580535485e+00 3.2182431492e+00 
99900 6.4835599753e+00 1.4961133924e-04 1.8580493434e+00 -3.2182358658e+00 1.8580493434e+00 3.2182358658e+00 
100000 6.4835599759e+00 1.4280033962e-04 1.8580453174e+00 -3.2182288925e+00 1.8580453174e+00 3.2182288925e+00 
100100 6.4835599769e+00 1.3584731294e-04 1.8580414746e+00 -3.2182222367e+00 1.8580414746e+00 3.2182222367e+00 
100200 6.4835599782e+00 1.2876667560e-04 1.8580378190e+00 -3.2182159049e+00 1.8580378190e+00 3.2182159049e+00 
100300 6.4835599797e+00 1.2157283993e-04 1.8580343539e+00 -3.2182099031e+00 1.8580343539e+00 3.2182099031e+00 
100400 6.4835599815e+00 1.1428018900e-04 1.8580310823e+00 -3.2182042366e+00 1.8580310823e+00 3.2182042366e+00 
100500 6.4835599835e+00 1.0690305180e-04 1.8580280070e+00 -3.2181989100e+00 1.8580280070e+00 3.2181989100e+00 
100600 6.4835599858e+00 9.9455678879e-05 1.8580251302e+00 -3.2181939273e+00 1.8580251302e+00 3.2181939273e+00 
100700 6.4835599882e+00 9.1952218616e-05 1.8580224539e+00 -3.2181892917e+00 1.8580224539e+00 3.2181892917e+00 
100800 6.4835599908e+00 8.4406693963e-05 1.8580199794e+00 -3.2181850058e+00 1.8580199794e+00 3.2181850058e+00 
100900 6.4835599936e+00 7.6832979836e-05 1.8580177080e+00 -3.2181810716e+00 1.8580177080e+00 3.2181810716e+00 
101000 6.4835599965e+00 6.9244781094e-05 1.8580156404e+00 -3.2181774904e+00 1.8580156404e+00 3.2181774904e+00 
101100 6.4835599995e+00 6.3618845906e-05 1.8580156404e+00 -3.2181774904e+00 1.8580156404e+00 3.2181774904e+00 
101200 6.4835600027e+00 5.7804917339e-05 1.8580156404e+00 -3.2181774904e+00 1.8580156404e+00 3.2181774904e+00 
101300 6.4835600058e+00 5.1816599621e-05 1.8580156404e+00 -3.2181774904e+00 1.8580156404e+00 3.2181774904e+00 
101400 6.4835600089e+00 4.5667337406e-05 1.8580156404e+00 -3.2181774904e+00 1.8580156404e+00 3.2181774904e+00 
101500 6.4835600120e+00 3.9370402867e-05 1.8580156404e+00 -3.2181774904e+00 1.8580156404e+00 3.2181774904e+00 
101600 6.4835600150e+00 3.2938883366e-05 1.8580156404e+00 -3.2181774904e+00 1.8580156404e+00 3.2181774904e+00 
101700 6.4835600180e+00 2.6385669638e-05 1.8580156404e+00 -3.2181774904e+00 1.8580156404e+00 3.2181774904e+00 
101800 6.4835600210e+00 1.9723444537e-05 1.8580156404e+00 -3.2181774904e+00 1.8580156404e+00 3.2181774904e+00 
101900 6.4835600238e+00 1.2964672338e-05 1.8580156404e+00 -3.2181774904e+00 1.8580156404e+00 3.2181774904e+00 
102000 6.4835600266e+00 6.1215885798e-06 1.8580156404e+00 -3.2181774904e+00 1.8580156404e+00 3.2181774904e+00 
102100 6.4835600292e+00 -7.9380954815e-07 1.8580156404e+00 -3.2181774904e+00 1.8580156404e+00 3.2181774904e+00 
102200 6.4835600317e+00 -7.7697722504e-06 1.8580156404e+00 -3.2181774904e+00 1.8580156404e+00 3.2181774904e+00 
102300 6.4835600342e+00 -1.4794805643e-05 1.8580156404e+00 -3.2181774904e+00 1.8580156404e+00 3.2181774904e+00 
102400 6.4835600364e+00 -2.1857679722e-05 1.8580156404e+00 -3.2181774904e+00 1.8580156404e+00 3.2181774904e+00 
102500 6.4835600386e+00 -2.8947435794e-05 1.8580156404e+00 -3.2181774904e+00 1.8580156404e+00 3.2181774904e+00 
102600 6.4835600406e+00 -3.6053393364e-05 1.8580156404e+00 -3.2181774904e+00 1.8580156404e+00 3.2181774904e+00 
102700 6.4835600425e+00 -4.3165156500e-05 1.8580156404e+00 -3.2181774904e+00 1.8580156404e+00 3.2181774904e+00 
102800 6.4835600442e+00 -5.0272619666e-05 1.8580156404e+00 -3.2181774904e+00 1.8580156404e+00 3.2181774904e+00 
102900 6.4835600458e+00 -5.7365973024e-05 1.8580156404e+00 -3.2181774904e+00 1.8580156404e+00 3.2181774904e+00 
103000 6.4835600473e+00 -6.4435707248e-05 1.8580156404e+00 -3.2181774904e+00 1.8580156404e+00 3.2181774904e+00 
103100 6.4835600486e+00 -7.1472617794e-05 1.8580156404e+00 -3.2181774904e+00 1.8580156404e+00 3.2181774904e+00 
103200 6.4835600495e+00 -7.6441641778e-05 1.8580175637e+00 -3.2181808217e+00 1.8580175637e+00 3.2181808217e+00 
103300 6.4835600503e+00 -8.1204190011e-05 1.8580196208e+00 -3.2181843847e+00 1.8580196208e+00 3.2181843847e+00 
103400 6.4835600509e+00 -8.5754912507e-05 1.8580218060e+00 -3.2181881696e+00 1.8580218060e+00 3.2181881696e+00 
103500 6.4835600513e+00 -9.0088927744e-05 1.8580241137e+00 -3.2181921667e+00 1.8580241137e+00 3.2181921667e+00 
103600 6.4835600515e+00 -9.4201823201e-05 1.8580265381e+00 -3.2181963657e+00 1.8580265381e+00 3.2181963657e+00 
103700 6.4835600516e+00 -9.8089655129e-05 1.8580290730e+00 -3.2182007565e+00 1.8580290730e+00 3.2182007565e+00 
103800 6.4835600514e+00 -1.0174894748e-04 1.8580317127e+00 -3.2182053284e+00 1.8580317127e+00 3.2182053284e+00 
103900 6.4835600511e+00 -1.0517669006e-04 1.8580344508e+00 -3.2182100709e+00 1.8580344508e+00 3.2182100709e+00 
104000 6.4835600506e+00 -1.0837033600e-04 1.8580372811e+00 -3.2182149732e+00 1.8580372811e+00 3.2182149732e+00 
104100 6.4835600500e+00 -1.1132779834e-04 1.8580401973e+00 -3.2182200243e+00 1.8580401973e+00 3.2182200243e+00 
104200 6.4835600492e+00 -1.1404744597e-04 1.8580431932e+00 -3.2182252132e+00 1.8580431932e+00 3.2182252132e+00 
104300 6.4835600483e+00 -1.1652809888e-04 1.8580462622e+00 -3.2182305289e+00 1.8580462622e+00 3.2182305289e+00 
104400 6.4835600473e+00 -1.1876902264e-04 1.8580493980e+00 -3.2182359602e+00 1.8580493980e+00 3.2182359602e+00 
104500 6.4835600462e+00 -1.2076992225e-04 1.8580525940e+00 -3.2182414960e+00 1.8580525940e+00 3.2182414960e+00 
104600 6.4835600450e+00 -1.2253093532e-04 1.8580558439e+00 -3.2182471250e+00 1.8580558439e+00 3.2182471250e+00 
104700 6.4835600437e+00 -1.2405262465e-04 1.8580591412e+00 -3.2182528361e+00 1.8580591412e+00 3.2182528361e+00 
104800 6.4835600423e+00 -1.2533597015e-04 1.8580624795e+00 -3.2182586181e+00 1.8580624795e+00 3.2182586181e+00 
104900 6.4835600408e+00 -1.2638236021e-04 1.8580658522e+00 -3.2182644599e+00 1.8580658522e+00 3.2182644599e+00 
105000 6.4835600393e+00 -1.2719358250e-04 1.8580692531e+00 -3.2182703504e+00 1.8580692531e+00 3.2182703504e+00 
105100 6.4835600378e+00 -1.2777181422e-04 1.8580726759e+00 -3.2182762788e+00 1.8580726759e+00 3.2182762788e+00 
105200 6.4835600362e+00 -1.2811961185e-04 1.8580761142e+00 -3.2182822341e+00 1.8580761142e+00 3.2182822341e+00 
105300 6.4835600347e+00 -1.2823990039e-04 1.8580795618e+00 -3.2182882056e+00 1.8580795618e+00 3.2182882056e+00 
105400 6.4835600331e+00 -1.2813596217e-04 1.8580830127e+00 -3.2182941826e+00 1.8580830127e+00 3.2182941826e+00 
105500 6.4835600315e+00 -1.2781142523e-04 1.8580864607e+00 -3.2183001549e+00 1.8580864607e+00 3.2183001549e+00 
105600 6.4835600300e+00 -1.2727025121e-04 1.8580899001e+00 -3.2183061120e+00 1.8580899001e+00 3.2183061120e+00 
105700 6.4835600285e+00 -1.2651672297e-04 1.8580933248e+00 -3.2183120438e+00 1.8580933248e+00 3.2183120438e+00 
105800 6.4835600270e+00 -1.2555543178e-04 1.8580967293e+00 -3.2183179406e+00 1.8580967293e+00 3.2183179406e+00 
105900 6.4835600256e+00 -1.2439126421e-04 1.8581001079e+00 -3.2183237925e+00 1.8581001079e+00 3.2183237925e+00 
106000 6.4835600243e+00 -1.2302938872e-04 1.8581034552e+00 -3.2183295901e+00 1.8581034552e+00 3.2183295901e+00 
106100 6.4835600230e+00 -1.2147524197e-04 1.8581067658e+00 -3.2183353243e+00 1.8581067658e+00 3.2183353243e+00 
106200 6.4835600218e+00 -1.1973451490e-04 1.8581100346e+00 -3.2183409860e+00 1.8581100346e+00 3.2183409860e+00 
106300 6.4835600207e+00 -1.1781313855e-04 1.8581132565e+00 -3.2183465666e+00 1.8581132565e+00 3.2183465666e+00 
106400 6.4835600196e+00 -1.1571726979e-04 1.8581164268e+00 -3.2183520576e+00 1.8581164268e+00 3.2183520576e+00 
106500 6.4835600187e+00 -1.1345327674e-04 1.8581195406e+00 -3.2183574509e+00 1.8581195406e+00 3.2183574509e+00 
106600 6.4835600178e+00 -1.1102772424e-04 1.8581225935e+00 -3.2183627387e+00 1.8581225935e+00 3.2183627387e+00 
106700 6.4835600171e+00 -1.0844735900e-04 1.8581255812e+00 -3.2183679134e+00 1.8581255812e+00 3.2183679134e+00 
106800 6.4835600164e+00 -1.0571909490e-04 1.8581284993e+00 -3.2183729679e+00 1.8581284993e+00 3.2183729679e+00 
106900 6.4835600159e+00 -1.0284999804e-04 1.8581313441e+00 -3.2183778952e+00 1.8581313441e+00 3.2183778952e+00 
107000 6.4835600154e+00 -9.9847271889e-05 1.8581341117e+00 -3.2183826887e+00 1.8581341117e+00 3.2183826887e+00 
107100 6.4835600151e+00 -9.6718242386e-05 1.8581367985e+00 -3.2183873423e+00 1.8581367985e+00 3.2183873423e+00 
107200 6.4835600149e+00 -9.3470343062e-05 1.8581394010e+00 -3.2183918501e+00 1.8581394010e+00 3.2183918501e+00 
107300 6.4835600147e+00 -9.0111100235e-05 1.8581419162e+00 -3.2183962065e+00 1.8581419162e+00 3.2183962065e+00 
107400 6.4835600147e+00 -8.6648118274e-05 1.8581443409e+00 -3.2184004063e+00 1.8581443409e+00 3.2184004063e+00 
107500 6.4835600148e+00 -8.3089064955e-05 1.8581466725e+00 -3.2184044447e+00 1.8581466725e+00 3.2184044447e+00 
107600 6.4835600149e+00 -7.9441656947e-05 1.8581489083e+00 -3.2184083172e+00 1.8581489083e+00 3.2184083172e+00 
107700 6.4835600152e+00 -7.5713645442e-05 1.8581510460e+00 -3.2184120198e+00 1.8581510460e+00 3.2184120198e+00 
107800 6.4835600155e+00 -7.1912801966e-05 1.8581530833e+00 -3.2184155485e+00 1.8581530833e+00 3.2184155485e+00 
107900 6.4835600160e+00 -6.8046904366e-05 1.8581550184e+00 -3.2184189002e+00 1.8581550184e+00 3.2184189002e+00 
108000 6.4835600166e+00 -6.6052048514e-05 1.8581550184e+00 -3.2184189002e+00 1.8581550184e+00 3.2184189002e+00 
108100 6.4835600173e+00 -6.3911085377e-05 1.8581550184e+00 -3.2184189002e+00 1.8581550184e+00 3.2184189002e+00 
108200 6.4835600180e+00 -6.1631266583e-05 1.8581550184e+00 -3.2184189002e+00 1.8581550184e+00 3.2184189002e+00 
108300 6.4835600187e+00 -5.9219819932e-05 1.8581550184e+00 -3.2184189002e+00 1.8581550184e+00 3.2184189002e+00 
108400 6.4835600195e+00 -5.6683940839e-05 1.8581550184e+00 -3.2184189002e+00 1.8581550184e+00 3.2184189002e+00 
108500 6.4835600203e+00 -5.4030784097e-05 1.8581550184e+00 -3.2184189002e+00 1.8581550184e+00 3.2184189002e+00 
108600 6.4835600211e+00 -5.1267455848e-05 1.8581550184e+00 -3.2184189002e+00 1.8581550184e+00 3.2184189002e+00 
108700 6.4835600220e+00 -4.8401005814e-05 1.8581550184e+00 -3.2184189002e+00 1.8581550184e+00 3.2184189002e+00 
108800 6.4835600228e+00 -4.5438419838e-05 1.8581550184e+00 -3.2184189002e+00 1.8581550184e+00 3.2184189002e+00 
108900 6.4835600237e+00 -4.2386612628e-05 1.8581550184e+00 -3.2184189002e+00 1.8581550184e+00 3.2184189002e+00 
109000 6.4835600245e+00 -3.9252420839e-05 1.8581550184e+00 -3.2184189002e+00 1.8581550184e+00 3.2184189002e+00 
109100 6.4835600253e+00 -3.6042596360e-05 1.8581550184e+00 -3.2184189002e+00 1.8581550184e+00 3.2184189002e+00 
109200 6.4835600262e+00 -3.2763799937e-05 1.8581550184e+00 -3.2184189002e+00 1.8581550184e+00 3.2184189002e+00 
109300 6.4835600270e+00 -2.9422595020e-05 1.8581550184e+00 -3.2184189002e+00 1.8581550184e+00 3.2184189002e+00 
109400 6.4835600278e+00 -2.6025441922e-05 1.8581550184e+00 -3.2184189002e+00 1.8581550184e+00 3.2184189002e+00 
109500 6.4835600285e+00 -2.2578692244e-05 1.8581550184e+00 -3.2184189002e+00 1.8581550184e+00 3.2184189002e+00 
109600 6.4835600293e+00 -1.9088583566e-05 1.8581550184e+00 -3.2184189002e+00 1.8581550184e+00 3.2184189002e+00 
109700 6.4835600300e+00 -1.5561234435e-05 1.8581550184e+00 -3.2184189002e+00 1.8581550184e+00 3.2184189002e+00 
109800 6.4835600307e+00 -1.2002639618e-05 1.8581550184e+00 -3.2184189002e+00 1.8581550184e+00 3.2184189002e+00 
109900 6.4835600313e+00 -8.4186656347e-06 1.8581550184e+00 -3.2184189002e+00 1.8581550184e+00 3.2184189002e+00 
110000 6.4835600319e+00 -4.8150465672e-06 1.8581550184e+00 -3.2184189002e+00 1.8581550184e+00 3.2184189002e+00 
110100 6.4835600325e+00 -1.1973801448e-06 1.8581550184e+00 -3.2184189002e+00 1.8581550184e+00 3.2184189002e+00 
110200 6.4835600331e+00 2.4288758977e-06 1.8581550184e+00 -3.2184189002e+00 1.8581550184e+00 3.2184189002e+00 
110300 6.4835600336e+00 6.0584071891e-06 1.8581550184e+00 -3.2184189002e+00 1.8581550184e+00 3.2184189002e+00 
110400 6.4835600341e+00 9.6860458287e-06 1.8581550184e+00 -3.2184189002e+00 1.8581550184e+00 3.2184189002e+00 
110500 6.4835600345e+00 1.3306773226e-05 1.8581550184e+00 -3.2184189002e+00 1.8581550184e+00 3.2184189002e+00 
110600 6.4835600349e+00 1.6915722659e-05 1.8581550184e+00 -3.2184189002e+00 1.8581550184e+00 3.2184189002e+00 
110700 6.4835600353e+00 2.0508181596e-05 1.8581550184e+00 -3.2184189002e+00 1.8581550184e+00 3.2184189002e+00 
110800 6.4835600356e+00 2.4079593747e-05 1.8581550184e+00 -3.2184189002e+00 1.8581550184e+00 3.2184189002e+00 
110900 6.4835600359e+00 2.7625560861e-05 1.8581550184e+00 -3.2184189002e+00 1.8581550184e+00 3.2184189002e+00 
111000 6.4835600361e+00 3.1141844269e-05 1.8581550184e+00 -3.2184189002e+00 1.8581550184e+00 3.2184189002e+00 
111100 6.4835600363e+00 3.4624366191e-05 1.8581550184e+00 -3.2184189002e+00 1.8581550184e+00 3.2184189002e+00 
111200 6.4835600365e+00 3.8069210803e-05 1.8581550184e+00 -3.2184189002e+00 1.8581550184e+00 3.2184189002e+00 
111300 6.4835600366e+00 4.1472625047e-05 1.8581550184e+00 -3.2184189002e+00 1.8581550184e+00 3.2184189002e+00 
111400 6.4835600367e+00 4.4831019225e-05 1.8581550184e+00 -3.2184189002e+00 1.8581550184e+00 3.2184189002e+00 
111500 6.4835600368e+00 4.8140967358e-05 1.8581550184e+00 -3.2184189002e+00 1.8581550184e+00 3.2184189002e+00 
111600 6.4835600368e+00 5.1399207326e-05 1.8581550184e+00 -3.2184189002e+00 1.8581550184e+00 3.2184189002e+00 
111700 6.4835600368e+00 5.4602640787e-05 1.8581550184e+00 -3.2184189002e+00 1.8581550184e+00 3.2184189002e+00 
111800 6.4835600368e+00 5.7748332876e-05 1.8581550184e+00 -3.2184189002e+00 1.8581550184e+00 3.2184189002e+00 
111900 6.4835600368e+00 6.0833511713e-05 1.8581550184e+00 -3.2184189002e+00 1.8581550184e+00 3.2184189002e+00 
112000 6.4835600367e+00 6.3855567704e-05 1.8581550184e+00 -3.2184189002e+00 1.8581550184e+00 3.2184189002e+00 
112100 6.4835600366e+00 6.6812052626e-05 1.8581550184e+00 -3.2184189002e+00 1.8581550184e+00 3.2184189002e+00 
112200 6.4835600365e+00 6.9700678553e-05 1.8581550184e+00 -3.2184189002e+00 1.8581550184e+00 3.2184189002e+00 
112300 6.4835600364e+00 7.2519316581e-05 1.8581550184e+00 -3.2184189002e+00 1.8581550184e+00 3.2184189002e+00 
112400 6.4835600361e+00 7.3210706628e-05 1.8581530670e+00 -3.2184155203e+00 1.8581530670e+00 3.2184155203e+00 
112500 6.4835600358e+00 7.3793149414e-05 1.8581510970e+00 -3.2184121082e+00 1.8581510970e+00 3.2184121082e+00 
112600 6.4835600354e+00 7.4266024471e-05 1.8581491114e+00 -3.2184086689e+00 1.8581491114e+00 3.2184086689e+00 
112700 6.4835600350e+00 7.4628973510e-05 1.8581471130e+00 -3.2184052076e+00 1.8581471130e+00 3.2184052076e+00 
112800 6.4835600346e+00 7.4881894212e-05 1.8581451048e+00 -3.2184017294e+00 1.8581451048e+00 3.2184017294e+00 
112900 6.4835600342e+00 7.5024933749e-05 1.8581430898e+00 -3.2183982393e+00 1.8581430898e+00 3.2183982393e+00 
113000 6.4835600338e+00 7.5058482082e-05 1.8581410710e+00 -3.2183947427e+00 1.8581410710e+00 3.2183947427e+00 
113100 6.4835600334e+00 7.4983165068e-05 1.8581390513e+00 -3.2183912444e+00 1.8581390513e+00 3.2183912444e+00 
113200 6.4835600330e+00 7.4799837323e-05 1.8581370336e+00 -3.2183877496e+00 1.8581370336e+00 3.2183877496e+00 
113300 6.4835600325e+00 7.4509574955e-05 1.8581350209e+00 -3.2183842634e+00 1.8581350209e+00 3.2183842634e+00 
113400 6.4835600321e+00 7.4113668077e-05 1.8581330159e+00 -3.2183807908e+00 1.8581330159e+00 3.2183807908e+00 
113500 6.4835600317e+00 7.3613613140e-05 1.8581310216e+00 -3.2183773365e+00 1.8581310216e+00 3.2183773365e+00 
113600 6.4835600313e+00 7.3011105179e-05 1.8581290407e+00 -3.2183739056e+00 1.8581290407e+00 3.2183739056e+00 
113700 6.4835600309e+00 7.2308029844e-05 1.8581270761e+00 -3.2183705027e+00 1.8581270761e+00 3.2183705027e+00 
113800 6.4835600305e+00 7.1506455323e-05 1.8581251304e+00 -3.2183671326e+00 1.8581251304e+00 3.2183671326e+00 
113900 6.4835600301e+00 7.0608624202e-05 1.8581232062e+00 -3.2183637999e+00 1.8581232062e+00 3.2183637999e+00 
114000 6.4835600299e+00 7.1618259546e-05 1.8581232062e+00 -3.2183637999e+00 1.8581232062e+00 3.2183637999e+00 
114100 6.4835600296e+00 7.0493734415e-05 1.8581212791e+00 -3.2183604620e+00 1.8581212791e+00 3.2183604620e+00 
114200 6.4835600294e+00 7.1281306986e-05 1.8581212791e+00 -3.2183604620e+00 1.8581212791e+00 3.2183604620e+00 
114300 6.4835600291e+00 6.9945999804e-05 1.8581193610e+00 -3.2183571397e+00 1.8581193610e+00 3.2183571397e+00 
114400 6.4835600290e+00 7.0515316625e-05 1.8581193610e+00 -3.2183571397e+00 1.8581193610e+00 3.2183571397e+00 
114500 6.4835600288e+00 7.0984393904e-05 1.8581193610e+00 -3.2183571397e+00 1.8581193610e+00 3.2183571397e+00 
114600 6.4835600286e+00 6.9343505007e-05 1.8581174508e+00 -3.2183538313e+00 1.8581174508e+00 3.2183538313e+00 
114700 6.4835600285e+00 6.9603705353e-05 1.8581174508e+00 -3.2183538313e+00 1.8581174508e+00 3.2183538313e+00 
114800 6.4835600285e+00 6.9768771749e-05 1.8581174508e+00 -3.2183538313e+00 1.8581174508e+00 3.2183538313e+00 
114900 6.4835600284e+00 6.9841233187e-05 1.8581174508e+00 -3.2183538313e+00 1.8581174508e+00 3.2183538313e+00 
115000 6.4835600284e+00 6.9823671499e-05 1.8581174508e+00 -3.2183538313e+00 1.8581174508e+00 3.2183538313e+00 
115100 6.4835600284e+00 6.9718716635e-05 1.8581174508e+00 -3.2183538313e+00 1.8581174508e+00 3.2183538313e+00 
115200 6.4835600285e+00 6.9529041988e-05 1.8581174508e+00 -3.2183538313e+00 1.8581174508e+00 3.2183538313e+00 
115300 6.4835600285e+00 6.9257359764e-05 1.8581174508e+00 -3.2183538313e+00 1.8581174508e+00 3.2183538313e+00 
115400 6.4835600285e+00 6.8906416463e-05 1.8581174508e+00 -3.2183538313e+00 1.8581174508e+00 3.2183538313e+00 
115500 6.4835600286e+00 6.8478988365e-05 1.8581174508e+00 -3.2183538313e+00 1.8581174508e+00 3.2183538313e+00 
115600 6.4835600287e+00 6.7977877148e-05 1.8581174508e+00 -3.2183538313e+00 1.8581174508e+00 3.2183538313e+00 
115700 6.4835600288e+00 6.7405905547e-05 1.8581174508e+00 -3.2183538313e+00 1.8581174508e+00 3.2183538313e+00 
115800 6.4835600289e+00 6.6765913096e-05 1.8581174508e+00 -3.2183538313e+00 1.8581174508e+00 3.2183538313e+00 
115900 6.4835600290e+00 6.6060751985e-05 1.8581174508e+00 -3.2183538313e+00 1.8581174508e+00 3.2183538313e+00 
116000 6.4835600291e+00 6.5293282954e-05 1.8581174508e+00 -3.2183538313e+00 1.8581174508e+00 3.2183538313e+00 
116100 6.4835600292e+00 6.4466371332e-05 1.8581174508e+00 -3.2183538313e+00 1.8581174508e+00 3.2183538313e+00 
116200 6.4835600294e+00 6.3582883111e-05 1.8581174508e+00 -3.2183538313e+00 1.8581174508e+00 3.2183538313e+00 
116300 6.4835600295e+00 6.2645681181e-05 1.8581174508e+00 -3.2183538313e+00 1.8581174508e+00 3.2183538313e+00 
116400 6.4835600297e+00 6.1657621607e-05 1.8581174508e+00 -3.2183538313e+00 1.8581174508e+00 3.2183538313e+00 
116500 6.4835600298e+00 6.0621550039e-05 1.8581174508e+00 -3.2183538313e+00 1.8581174508e+00 3.2183538313e+00 
116600 6.4835600300e+00 5.9540298216e-05 1.8581174508e+00 -3.2183538313e+00 1.8581174508e+00 3.2183538313e+00 
116700 6.4835600301e+00 5.8416680584e-05 1.8581174508e+00 -3.2183538313e+00 1.8581174508e+00 3.2183538313e+00 
116800 6.4835600303e+00 5.7253490995e-05 1.8581174508e+00 -3.2183538313e+00 1.8581174508e+00 3.2183538313e+00 
116900 6.4835600304e+00 5.6053499569e-05 1.8581174508e+00 -3.2183538313e+00 1.8581174508e+00 3.2183538313e+00 
117000 6.4835600306e+00 5.4819449598e-05 1.8581174508e+00 -3.2183538313e+00 1.8581174508e+00 3.2183538313e+00 
117100 6.4835600307e+00 5.3554054609e-05 1.8581174508e+00 -3.2183538313e+00 1.8581174508e+00 3.2183538313e+00 
117200 6.4835600309e+00 5.2259995543e-05 1.8581174508e+00 -3.2183538313e+00 1.8581174508e+00 3.2183538313e+00 
117300 6.4835600310e+00 5.0939918011e-05 1.8581174508e+00 -3.2183538313e+00 1.8581174508e+00 3.2183538313e+00 
117400 6.4835600312e+00 4.9596429705e-05 1.8581174508e+00 -3.2183538313e+00 1.8581174508e+00 3.2183538313e+00 
117500 6.4835600313e+00 4.8232097894e-05 1.8581174508e+00 -3.2183538313e+00 1.8581174508e+00 3.2183538313e+00 
117600 6.4835600315e+00 4.6849447065e-05 1.8581174508e+00 -3.2183538313e+00 1.8581174508e+00 3.2183538313e+00 
117700 6.4835600316e+00 4.5450956649e-05 1.8581174508e+00 -3.2183538313e+00 1.8581174508e+00 3.2183538313e+00 
117800 6.4835600317e+00 4.4039058899e-05 1.8581174508e+00 -3.2183538313e+00 1.8581174508e+00 3.2183538313e+00 
117900 6.4835600318e+00 4.2616136841e-05 1.8581174508e+00 -3.2183538313e+00 1.8581174508e+00 3.2183538313e+00 
118000 6.4835600319e+00 4.1184522395e-05 1.8581174508e+00 -3.2183538313e+00 1.8581174508e+00 3.2183538313e+00 
118100 6.4835600321e+00 3.9746494565e-05 1.8581174508e+00 -3.2183538313e+00 1.8581174508e+00 3.2183538313e+00 
118200 6.4835600322e+00 3.8304277773e-05 1.8581174508e+00 -3.2183538313e+00 1.8581174508e+00 3.2183538313e+00 
118300 6.4835600322e+00 3.6860040301e-05 1.8581174508e+00 -3.2183538313e+00 1.8581174508e+00 3.2183538313e+00 
118400 6.4835600323e+00 3.5415892840e-05 1.8581174508e+00 -3.2183538313e+00 1.8581174508e+00 3.2183538313e+00 
118500 6.4835600324e+00 3.3973887167e-05 1.8581174508e+00 -3.2183538313e+00 1.8581174508e+00 3.2183538313e+00 
118600 6.4835600325e+00 3.2536014921e-05 1.8581174508e+00 -3.2183538313e+00 1.8581174508e+00 3.2183538313e+00 
118700 6.4835600326e+00 3.1104206506e-05 1.8581174508e+00 -3.2183538313e+00 1.8581174508e+00 3.2183538313e+00 
118800 6.4835600326e+00 2.9680330082e-05 1.8581174508e+00 -3.2183538313e+00 1.8581174508e+00 3.2183538313e+00 
118900 6.4835600327e+00 2.8266190700e-05 1.8581174508e+00 -3.2183538313e+00 1.8581174508e+00 3.2183538313e+00 
119000 6.4835600327e+00 2.6863529501e-05 1.8581174508e+00 -3.2183538313e+00 1.8581174508e+00 3.2183538313e+00 
119100 6.4835600328e+00 2.5492221575e-05 1.8581174508e+00 -3.2183538313e+00 1.8581174508e+00 3.2183538313e+00 
119100 6.4835600328e+00 2.5492221574e-05 1.8581174508e+00 -3.2183538313e+00 1.8581174508e+00 3.2183538313e+00 
