# step Hamiltonian StressXX CellTensor1 CellTensor2 CellTensor3 CellTensor4 
0 5.3730397063e+00 -4.3128938364e-09 1.3731072612e+00 -2.3782915406e+00 1.3731072612e+00 2.3782915406e+00 
100 5.3724003151e+00 -3.9364684405e-09 1.3731072612e+00 -2.3782915406e+00 1.3731072612e+00 2.3782915406e+00 
200 5.3718087410e+00 -3.6518954312e-09 1.3731072612e+00 -2.3782915406e+00 1.3731072612e+00 2.3782915406e+00 
300 5.3712614082e+00 -3.4389002778e-09 1.3731072612e+00 -2.3782915406e+00 1.3731072612e+00 2.3782915406e+00 
400 5.3707550080e+00 -3.2816271819e-09 1.3731072612e+00 -2.3782915406e+00 1.3731072612e+00 2.3782915406e+00 
500 5.3702864792e+00 -3.1676833854e-09 1.3731072612e+00 -2.3782915406e+00 1.3731072612e+00 2.3782915406e+00 
600 5.3698529896e+00 -3.0873894036e-09 1.3731072612e+00 -2.3782915406e+00 1.3731072612e+00 2.3782915406e+00 
700 5.3694519188e+00 -3.0331908948e-09 1.3731072612e+00 -2.3782915406e+00 1.3731072612e+00 2.3782915406e+00 
800 5.3690808423e+00 -2.9991973936e-09 1.3731072612e+00 -2.3782915406e+00 1.3731072612e+00 2.3782915406e+00 
900 5.3687375170e+00 -2.9808206088e-09 1.3731072612e+00 -2.3782915406e+00 1.3731072612e+00 2.3782915406e+00 
1000 5.3684198675e+00 -2.9744908546e-09 1.3731072612e+00 -2.3782915406e+00 1.3731072612e+00 2.3782915406e+00 
1100 5.3681259736e+00 -2.9774347897e-09 1.3731072612e+00 -2.3782915406e+00 1.3731072612e+00 2.3782915406e+00 
1200 5.3678540588e+00 -2.9875012580e-09 1.3731072612e+00 -2.3782915406e+00 1.3731072612e+00 2.3782915406e+00 
1300 5.3676024793e+00 -3.0030248621e-09 1.3731072612e+00 -2.3782915406e+00 1.3731072612e+00 2.3782915406e+00 
1400 5.3673697143e+00 -3.0227191343e-09 1.3731072612e+00 -2.3782915406e+00 1.3731072612e+00 2.3782915406e+00 
1500 5.3671543568e+00 -3.0455929165e-09 1.3731072612e+00 -2.3782915406e+00 1.3731072612e+00 2.3782915406e+00 
1600 5.3669551049e+00 -3.0708849381e-09 1.3731072612e+00 -2.3782915406e+00 1.3731072612e+00 2.3782915406e+00 
1700 5.3667707542e+00 -3.0980126590e-09 1.3731072612e+00 -2.3782915406e+00 1.3731072612e+00 2.3782915406e+00 
1800 5.3666001903e+00 -3.1265322911e-09 1.3731072612e+00 -2.3782915406e+00 1.3731072612e+00 2.3782915406e+00 
1900 5.3664423822e+00 -3.1561075772e-09 1.3731072612e+00 -2.3782915406e+00 1.3731072612e+00 2.3782915406e+00 
2000 5.3662963758e+00 -3.1864854296e-09 1.3731072612e+00 -2.3782915406e+00 1.3731072612e+00 2.3782915406e+00 
2100 5.3661612886e+00 -3.2174769376e-09 1.3731072612e+00 -2.3782915406e+00 1.3731072612e+00 2.3782915406e+00 
2200 5.3660363040e+00 -3.2489425770e-09 1.3731072612e+00 -2.3782915406e+00 1.3731072612e+00 2.3782915406e+00 
2300 5.3659206664e+00 -3.2807807062e-09 1.3731072612e+00 -2.3782915406e+00 1.3731072612e+00 2.3782915406e+00 
2400 5.3658136768e+00 -3.3129186298e-09 1.3731072612e+00 -2.3782915406e+00 1.3731072612e+00 2.3782915406e+00 
2500 5.3657146886e+00 -3.3453056702e-09 1.3731072612e+00 -2.3782915406e+00 1.3731072612e+00 2.3782915406e+00 
2600 5.3656231032e+00 -3.3779078047e-09 1.3731072612e+00 -2.3782915406e+00 1.3731072612e+00 2.3782915406e+00 
2700 5.3655383671e+00 -3.4107035238e-09 1.3731072612e+00 -2.3782915406e+00 1.3731072612e+00 2.3782915406e+00 
2800 5.3654599681e+00 -3.4436806413e-09 1.3731072612e+00 -2.3782915406e+00 1.3731072612e+00 2.3782915406e+00 
2900 5.3653874321e+00 -3.4768338454e-09 1.3731072612e+00 -2.3782915406e+00 1.3731072612e+00 2.3782915406e+00 
3000 5.3653203208e+00 -3.5101628242e-09 1.3731072612e+00 -2.3782915406e+00 1.3731072612e+00 2.3782915406e+00 
3100 5.3652582285e+00 -3.5436708386e-09 1.3731072612e+00 -2.3782915406e+00 1.3731072612e+00 2.3782915406e+00 
3200 5.3652007798e+00 -3.5773636406e-09 1.3731072612e+00 -2.3782915406e+00 1.3731072612e+00 2.3782915406e+00 
3300 5.3651476274e+00 -3.6112486590e-09 1.3731072612e+00 -2.3782915406e+00 1.3731072612e+00 2.3782915406e+00 
3400 5.3650984501e+00 -3.6453343911e-09 1.3731072612e+00 -2.3782915406e+00 1.3731072612e+00 2.3782915406e+00 
3500 5.3650529505e+00 -3.6796299530e-09 1.3731072612e+00 -2.3782915406e+00 1.3731072612e+00 2.3782915406e+00 
3600 5.3650108536e+00 -3.7141447510e-09 1.3731072612e+00 -2.3782915406e+00 1.3731072612e+00 2.3782915406e+00 
3700 5.3649719050e+00 -3.7488882460e-09 1.3731072612e+00 -2.3782915406e+00 1.3731072612e+00 2.3782915406e+00 
3800 5.3649358691e+00 -3.7838697876e-09 1.3731072612e+00 -2.3782915406e+00 1.3731072612e+00 2.3782915406e+00 
3900 5.3649025283e+00 -3.8190985023e-09 1.3731072612e+00 -2.3782915406e+00 1.3731072612e+00 2.3782915406e+00 
4000 5.3648716808e+00 -3.8545832199e-09 1.3731072612e+00 -2.3782915406e+00 1.3731072612e+00 2.3782915406e+00 
4100 5.3648431403e+00 -3.8903324312e-09 1.3731072612e+00 -2.3782915406e+00 1.3731072612e+00 2.3782915406e+00 
4200 5.3648167342e+00 -3.9263542659e-09 1.3731072612e+00 -2.3782915406e+00 1.3731072612e+00 2.3782915406e+00 
4300 5.3647923029e+00 -3.9626564873e-09 1.3731072612e+00 -2.3782915406e+00 1.3731072612e+00 2.3782915406e+00 
4400 5.3647696987e+00 -3.9992464969e-09 1.3731072612e+00 -2.3782915406e+00 1.3731072612e+00 2.3782915406e+00 
4500 5.3647487849e+00 -4.0361313477e-09 1.3731072612e+00 -2.3782915406e+00 1.3731072612e+00 2.3782915406e+00 
4600 5.3647294352e+00 -4.0733177624e-09 1.3731072612e+00 -2.3782915406e+00 1.3731072612e+00 2.3782915406e+00 
4700 5.3647115326e+00 -4.1108121537e-09 1.3731072612e+00 -2.3782915406e+00 1.3731072612e+00 2.3782915406e+00 
4800 5.3646949689e+00 -4.1486206478e-09 1.3731072612e+00 -2.3782915406e+00 1.3731072612e+00 2.3782915406e+00 
4900 5.3646796438e+00 -4.1867491073e-09 1.3731072612e+00 -2.3782915406e+00 1.3731072612e+00 2.3782915406e+00 
5000 5.3646654649e+00 -4.2252031547e-09 1.3731072612e+00 -2.3782915406e+00 1.3731072612e+00 2.3782915406e+00 
5100 5.3646523463e+00 -4.2639881953e-09 1.3731072612e+00 -2.3782915406e+00 1.3731072612e+00 2.3782915406e+00 
5200 5.3646402089e+00 -4.3031094384e-09 1.3731072612e+00 -2.3782915406e+00 1.3731072612e+00 2.3782915406e+00 
5300 5.3646289791e+00 -4.3425719184e-09 1.3731072612e+00 -2.3782915406e+00 1.3731072612e+00 2.3782915406e+00 
5400 5.3646185891e+00 -4.3823805138e-09 1.3731072612e+00 -2.3782915406e+00 1.3731072612e+00 2.3782915406e+00 
5500 5.3646089762e+00 -4.4225399654e-09 1.3731072612e+00 -2.3782915406e+00 1.3731072612e+00 2.3782915406e+00 
5600 5.3646000821e+00 -4.4630548924e-09 1.3731072612e+00 -2.3782915406e+00 1.3731072612e+00 2.3782915406e+00 
5700 5.3645918532e+00 -4.5039298084e-09 1.3731072612e+00 -2.3782915406e+00 1.3731072612e+00 2.3782915406e+00 
5800 5.3645842398e+00 -4.5451691344e-09 1.3731072612e+00 -2.3782915406e+00 1.3731072612e+00 2.3782915406e+00 
5900 5.3645771956e+00 -4.5867772125e-09 1.3731072612e+00 -2.3782915406e+00 1.3731072612e+00 2.3782915406e+00 
6000 5.3645706783e+00 -4.6287583165e-09 1.3731072612e+00 -2.3782915406e+00 1.3731072612e+00 2.3782915406e+00 
6100 5.3645646484e+00 -4.6711166635e-09 1.3731072612e+00 -2.3782915406e+00 1.3731072612e+00 2.3782915406e+00 
6200 5.3645590694e+00 -4.7138564224e-09 1.3731072612e+00 -2.3782915406e+00 1.3731072612e+00 2.3782915406e+00 
6300 5.3645539077e+00 -4.7569817234e-09 1.3731072612e+00 -2.3782915406e+00 1.3731072612e+00 2.3782915406e+00 
6400 5.3645491319e+00 -4.8004966651e-09 1.3731072612e+00 -2.3782915406e+00 1.3731072612e+00 2.3782915406e+00 
6500 5.3645447134e+00 -4.8444053221e-09 1.3731072612e+00 -2.3782915406e+00 1.3731072612e+00 2.3782915406e+00 
6600 5.3645406252e+00 -4.8887117510e-09 1.3731072612e+00 -2.3782915406e+00 1.3731072612e+00 2.3782915406e+00 
6700 5.3645368428e+00 -4.9334199962e-09 1.3731072612e+00 -2.3782915406e+00 1.3731072612e+00 2.3782915406e+00 
6800 5.3645333433e+00 -4.9785340953e-09 1.3731072612e+00 -2.3782915406e+00 1.3731072612e+00 2.3782915406e+00 
6900 5.3645301054e+00 -5.0240580836e-09 1.3731072612e+00 -2.3782915406e+00 1.3731072612e+00 2.3782915406e+00 
7000 5.3645271097e+00 -5.0699959982e-09 1.3731072612e+00 -2.3782915406e+00 1.3731072612e+00 2.3782915406e+00 
7100 5.3645243381e+00 -5.1163518819e-09 1.3731072612e+00 -2.3782915406e+00 1.3731072612e+00 2.3782915406e+00 
7200 5.3645217737e+00 -5.1631297868e-09 1.3731072612e+00 -2.3782915406e+00 1.3731072612e+00 2.3782915406e+00 
7300 5.3645194011e+00 -5.2103337772e-09 1.3731072612e+00 -2.3782915406e+00 1.3731072612e+00 2.3782915406e+00 
7400 5.3645172059e+00 -5.2579679325e-09 1.3731072612e+00 -2.3782915406e+00 1.3731072612e+00 2.3782915406e+00 
7500 5.3645151749e+00 -5.3060363497e-09 1.3731072612e+00 -2.3782915406e+00 1.3731072612e+00 2.3782915406e+00 
7600 5.3645132958e+00 -5.3545431458e-09 1.3731072612e+00 -2.3782915406e+00 1.3731072612e+00 2.3782915406e+00 
7700 5.3645115572e+00 -5.4034924596e-09 1.3731072612e+00 -2.3782915406e+00 1.3731072612e+00 2.3782915406e+00 
7800 5.3645099486e+00 -5.4528884542e-09 1.3731072612e+00 -2.3782915406e+00 1.3731072612e+00 2.3782915406e+00 
7900 5.3645084603e+00 -5.5027353180e-09 1.3731072612e+00 -2.3782915406e+00 1.3731072612e+00 2.3782915406e+00 
8000 5.3645070833e+00 -5.5530372671e-09 1.3731072612e+00 -2.3782915406e+00 1.3731072612e+00 2.3782915406e+00 
8100 5.3645058093e+00 -5.6037985460e-09 1.3731072612e+00 -2.3782915406e+00 1.3731072612e+00 2.3782915406e+00 
8200 5.3645046306e+00 -5.6550234294e-09 1.3731072612e+00 -2.3782915406e+00 1.3731072612e+00 2.3782915406e+00 
8300 5.3645035400e+00 -5.7067162234e-09 1.3731072612e+00 -2.3782915406e+00 1.3731072612e+00 2.3782915406e+00 
8400 5.3645025309e+00 -5.7588812666e-09 1.3731072612e+00 -2.3782915406e+00 1.3731072612e+00 2.3782915406e+00 
8500 5.3645015973e+00 -5.8115229309e-09 1.3731072612e+00 -2.3782915406e+00 1.3731072612e+00 2.3782915406e+00 
8600 5.3645007336e+00 -5.8646456229e-09 1.3731072612e+00 -2.3782915406e+00 1.3731072612e+00 2.3782915406e+00 
8700 5.3644999344e+00 -5.9182537846e-09 1.3731072612e+00 -2.3782915406e+00 1.3731072612e+00 2.3782915406e+00 
8800 5.3644991950e+00 -5.9723518943e-09 1.3731072612e+00 -2.3782915406e+00 1.3731072612e+00 2.3782915406e+00 
8900 5.3644985109e+00 -6.0269444675e-09 1.3731072612e+00 -2.3782915406e+00 1.3731072612e+00 2.3782915406e+00 
9000 5.3644978779e+00 -6.0820360574e-09 1.3731072612e+00 -2.3782915406e+00 1.3731072612e+00 2.3782915406e+00 
9100 5.3644972923e+00 -6.1376312560e-09 1.3731072612e+00 -2.3782915406e+00 1.3731072612e+00 2.3782915406e+00 
9200 5.3644967504e+00 -6.1937346945e-09 1.3731072612e+00 -2.3782915406e+00 1.3731072612e+00 2.3782915406e+00 
9300 5.3644962491e+00 -6.2503510442e-09 1.3731072612e+00 -2.3782915406e+00 1.3731072612e+00 2.3782915406e+00 
9400 5.3644957853e+00 -6.3074850169e-09 1.3731072612e+00 -2.3782915406e+00 1.3731072612e+00 2.3782915406e+00 
9500 5.3644953561e+00 -6.3651413656e-09 1.3731072612e+00 -2.3782915406e+00 1.3731072612e+00 2.3782915406e+00 
9600 5.3644949590e+00 -6.4233248853e-09 1.3731072612e+00 -2.3782915406e+00 1.3731072612e+00 2.3782915406e+00 
9700 5.3644945917e+00 -6.4820404130e-09 1.3731072612e+00 -2.3782915406e+00 1.3731072612e+00 2.3782915406e+00 
9800 5.3644942518e+00 -6.5412928292e-09 1.3731072612e+00 -2.3782915406e+00 1.3731072612e+00 2.3782915406e+00 
9900 5.3644939373e+00 -6.6010870573e-09 1.3731072612e+00 -2.3782915406e+00 1.3731072612e+00 2.3782915406e+00 
10000 5.3644936463e+00 -6.6614280653e-09 1.3731072612e+00 -2.3782915406e+00 1.3731072612e+00 2.3782915406e+00 
10100 5.3644933771e+00 -6.7223208652e-09 1.3731072612e+00 -2.3782915406e+00 1.3731072612e+00 2.3782915406e+00 
10200 5.3644931280e+00 -6.7837705145e-09 1.3731072612e+00 -2.3782915406e+00 1.3731072612e+00 2.3782915406e+00 
10300 5.3644928975e+00 -6.8457821161e-09 1.3731072612e+00 -2.3782915406e+00 1.3731072612e+00 2.3782915406e+00 
10400 5.3644926843e+00 -6.9083608189e-09 1.3731072612e+00 -2.3782915406e+00 1.3731072612e+00 2.3782915406e+00 
10500 5.3644924870e+00 -6.9715118185e-09 1.3731072612e+00 -2.3782915406e+00 1.3731072612e+00 2.3782915406e+00 
10600 5.3644923044e+00 -7.0352403575e-09 1.3731072612e+00 -2.3782915406e+00 1.3731072612e+00 2.3782915406e+00 
10700 5.3644921355e+00 -7.0995517261e-09 1.3731072612e+00 -2.3782915406e+00 1.3731072612e+00 2.3782915406e+00 
10800 5.3644919792e+00 -7.1644512625e-09 1.3731072612e+00 -2.3782915406e+00 1.3731072612e+00 2.3782915406e+00 
10900 5.3644918346e+00 -7.2299443534e-09 1.3731072612e+00 -2.3782915406e+00 1.3731072612e+00 2.3782915406e+00 
11000 5.3644917008e+00 -7.2960364347e-09 1.3731072612e+00 -2.3782915406e+00 1.3731072612e+00 2.3782915406e+00 
11100 5.3644915771e+00 -7.3627329915e-09 1.3731072612e+00 -2.3782915406e+00 1.3731072612e+00 2.3782915406e+00 
11200 5.3644914625e+00 -7.4300395593e-09 1.3731072612e+00 -2.3782915406e+00 1.3731072612e+00 2.3782915406e+00 
11300 5.3644913565e+00 -7.4979617238e-09 1.3731072612e+00 -2.3782915406e+00 1.3731072612e+00 2.3782915406e+00 
11400 5.3644912585e+00 -7.5665051217e-09 1.3731072612e+00 -2.3782915406e+00 1.3731072612e+00 2.3782915406e+00 
11500 5.3644911677e+00 -7.6356754413e-09 1.3731072612e+00 -2.3782915406e+00 1.3731072612e+00 2.3782915406e+00 
11600 5.3644910838e+00 -7.7054784228e-09 1.3731072612e+00 -2.3782915406e+00 1.3731072612e+00 2.3782915406e+00 
11700 5.3644910061e+00 -7.7759198588e-09 1.3731072612e+00 -2.3782915406e+00 1.3731072612e+00 2.3782915406e+00 
11800 5.3644909342e+00 -7.8470055949e-09 1.3731072612e+00 -2.3782915406e+00 1.3731072612e+00 2.3782915406e+00 
11900 5.3644908677e+00 -7.9187415302e-09 1.3731072612e+00 -2.3782915406e+00 1.3731072612e+00 2.3782915406e+00 
12000 5.3644908062e+00 -7.9911336177e-09 1.3731072612e+00 -2.3782915406e+00 1.3731072612e+00 2.3782915406e+00 
12100 5.3644907492e+00 -8.0641878648e-09 1.3731072612e+00 -2.3782915406e+00 1.3731072612e+00 2.3782915406e+00 
12200 5.3644906965e+00 -8.1379103342e-09 1.3731072612e+00 -2.3782915406e+00 1.3731072612e+00 2.3782915406e+00 
12300 5.3644906478e+00 -8.2123071437e-09 1.3731072612e+00 -2.3782915406e+00 1.3731072612e+00 2.3782915406e+00 
12400 5.3644906027e+00 -8.2873844672e-09 1.3731072612e+00 -2.3782915406e+00 1.3731072612e+00 2.3782915406e+00 
12500 5.3644905609e+00 -8.3631485354e-09 1.3731072612e+00 -2.3782915406e+00 1.3731072612e+00 2.3782915406e+00 
12600 5.3644905223e+00 -8.4396056357e-09 1.3731072612e+00 -2.3782915406e+00 1.3731072612e+00 2.3782915406e+00 
12700 5.3644904865e+00 -8.5167621134e-09 1.3731072612e+00 -2.3782915406e+00 1.3731072612e+00 2.3782915406e+00 
12800 5.3644904534e+00 -8.5946243717e-09 1.3731072612e+00 -2.3782915406e+00 1.3731072612e+00 2.3782915406e+00 
12900 5.3644904228e+00 -8.6731988726e-09 1.3731072612e+00 -2.3782915406e+00 1.3731072612e+00 2.3782915406e+00 
13000 5.3644903945e+00 -8.7524921372e-09 1.3731072612e+00 -2.3782915406e+00 1.3731072612e+00 2.3782915406e+00 
13100 5.3644903682e+00 -8.8325107463e-09 1.3731072612e+00 -2.3782915406e+00 1.3731072612e+00 2.3782915406e+00 
13200 5.3644903440e+00 -8.9132613412e-09 1.3731072612e+00 -2.3782915406e+00 1.3731072612e+00 2.3782915406e+00 
13300 5.3644903215e+00 -8.9947506240e-09 1.3731072612e+00 -2.3782915406e+00 1.3731072612e+00 2.3782915406e+00 
13400 5.3644903007e+00 -9.0769853581e-09 1.3731072612e+00 -2.3782915406e+00 1.3731072612e+00 2.3782915406e+00 
13500 5.3644902815e+00 -9.1599723691e-09 1.3731072612e+00 -2.3782915406e+00 1.3731072612e+00 2.3782915406e+00 
13600 5.3644902636e+00 -9.2437185448e-09 1.3731072612e+00 -2.3782915406e+00 1.3731072612e+00 2.3782915406e+00 
13700 5.3644902472e+00 -9.3282308366e-09 1.3731072612e+00 -2.3782915406e+00 1.3731072612e+00 2.3782915406e+00 
13800 5.3644902319e+00 -9.4135162593e-09 1.3731072612e+00 -2.3782915406e+00 1.3731072612e+00 2.3782915406e+00 
13900 5.3644902178e+00 -9.4995818921e-09 1.3731072612e+00 -2.3782915406e+00 1.3731072612e+00 2.3782915406e+00 
14000 5.3644902047e+00 -9.5864348790e-09 1.3731072612e+00 -2.3782915406e+00 1.3731072612e+00 2.3782915406e+00 
14100 5.3644901926e+00 -9.6740824296e-09 1.3731072612e+00 -2.3782915406e+00 1.3731072612e+00 2.3782915406e+00 
14200 5.3644901814e+00 -9.7625318197e-09 1.3731072612e+00 -2.3782915406e+00 1.3731072612e+00 2.3782915406e+00 
14300 5.3644901710e+00 -9.8517903916e-09 1.3731072612e+00 -2.3782915406e+00 1.3731072612e+00 2.3782915406e+00 
14400 5.3644901614e+00 -9.9418655551e-09 1.3731072612e+00 -2.3782915406e+00 1.3731072612e+00 2.3782915406e+00 
14500 5.3644901525e+00 -1.0032764788e-08 1.3731072612e+00 -2.3782915406e+00 1.3731072612e+00 2.3782915406e+00 
14600 5.3644901442e+00 -1.0124495636e-08 1.3731072612e+00 -2.3782915406e+00 1.3731072612e+00 2.3782915406e+00 
14700 5.3644901366e+00 -1.0217065714e-08 1.3731072612e+00 -2.3782915406e+00 1.3731072612e+00 2.3782915406e+00 
14800 5.3644901295e+00 -1.0310482709e-08 1.3731072612e+00 -2.3782915406e+00 1.3731072612e+00 2.3782915406e+00 
14900 5.3644901229e+00 -1.0404754375e-08 1.3731072612e+00 -2.3782915406e+00 1.3731072612e+00 2.3782915406e+00 
15000 5.3644901169e+00 -1.0499888540e-08 1.3731072612e+00 -2.3782915406e+00 1.3731072612e+00 2.3782915406e+00 
15100 5.3644901112e+00 -1.0595893102e-08 1.3731072612e+00 -2.3782915406e+00 1.3731072612e+00 2.3782915406e+00 
15200 5.3644901060e+00 -1.0692776033e-08 1.3731072612e+00 -2.3782915406e+00 1.3731072612e+00 2.3782915406e+00 
15300 5.3644901012e+00 -1.0790545375e-08 1.3731072612e+00 -2.3782915406e+00 1.3731072612e+00 2.3782915406e+00 
15400 5.3644900967e+00 -1.0889209248e-08 1.3731072612e+00 -2.3782915406e+00 1.3731072612e+00 2.3782915406e+00 
15500 5.3644900925e+00 -1.0988775843e-08 1.3731072612e+00 -2.3782915406e+00 1.3731072612e+00 2.3782915406e+00 
15600 5.3644900887e+00 -1.1089253428e-08 1.3731072612e+00 -2.3782915406e+00 1.3731072612e+00 2.3782915406e+00 
15700 5.3644900851e+00 -1.1190650347e-08 1.3731072612e+00 -2.3782915406e+00 1.3731072612e+00 2.3782915406e+00 
15800 5.3644900818e+00 -1.1292975018e-08 1.3731072612e+00 -2.3782915406e+00 1.3731072612e+00 2.3782915406e+00 
15900 5.3644900787e+00 -1.1396235940e-08 1.3731072612e+00 -2.3782915406e+00 1.3731072612e+00 2.3782915406e+00 
16000 5.3644900758e+00 -1.1500441687e-08 1.3731072612e+00 -2.3782915406e+00 1.3731072612e+00 2.3782915406e+00 
16100 5.3644900732e+00 -1.1605600913e-08 1.3731072612e+00 -2.3782915406e+00 1.3731072612e+00 2.3782915406e+00 
16200 5.3644900707e+00 -1.1711722352e-08 1.3731072612e+00 -2.3782915406e+00 1.3731072612e+00 2.3782915406e+00 
16300 5.3644900684e+00 -1.1818814815e-08 1.3731072612e+00 -2.3782915406e+00 1.3731072612e+00 2.3782915406e+00 
16400 5.3644900663e+00 -1.1926887197e-08 1.3731072612e+00 -2.3782915406e+00 1.3731072612e+00 2.3782915406e+00 
16500 5.3644900643e+00 -1.2035948473e-08 1.3731072612e+00 -2.3782915406e+00 1.3731072612e+00 2.3782915406e+00 
16600 5.3644900625e+00 -1.2146007703e-08 1.3731072612e+00 -2.3782915406e+00 1.3731072612e+00 2.3782915406e+00 
16700 5.3644900608e+00 -1.2257074025e-08 1.3731072612e+00 -2.3782915406e+00 1.3731072612e+00 2.3782915406e+00 
16800 5.3644900592e+00 -1.2369156667e-08 1.3731072612e+00 -2.3782915406e+00 1.3731072612e+00 2.3782915406e+00 
16900 5.3644900577e+00 -1.2482264935e-08 1.3731072612e+00 -2.3782915406e+00 1.3731072612e+00 2.3782915406e+00 
17000 5.3644900563e+00 -1.2596408227e-08 1.3731072612e+00 -2.3782915406e+00 1.3731072612e+00 2.3782915406e+00 
17100 5.3644900550e+00 -1.2711596023e-08 1.3731072612e+00 -2.3782915406e+00 1.3731072612e+00 2.3782915406e+00 
17200 5.3644900538e+00 -1.2827837890e-08 1.3731072612e+00 -2.3782915406e+00 1.3731072612e+00 2.3782915406e+00 
17300 5.3644900527e+00 -1.2945143485e-08 1.3731072612e+00 -2.3782915406e+00 1.3731072612e+00 2.3782915406e+00 
17400 5.3644900516e+00 -1.3063522552e-08 1.3731072612e+00 -2.3782915406e+00 1.3731072612e+00 2.3782915406e+00 
17500 5.3644900506e+00 -1.3182984925e-08 1.3731072612e+00 -2.3782915406e+00 1.3731072612e+00 2.3782915406e+00 
17600 5.3644900497e+00 -1.3303540528e-08 1.3731072612e+00 -2.3782915406e+00 1.3731072612e+00 2.3782915406e+00 
17700 5.3644900488e+00 -1.3425199377e-08 1.3731072612e+00 -2.3782915406e+00 1.3731072612e+00 2.3782915406e+00 
17800 5.3644900480e+00 -1.3547971578e-08 1.3731072612e+00 -2.3782915406e+00 1.3731072612e+00 2.3782915406e+00 
17900 5.3644900472e+00 -1.3671867330e-08 1.3731072612e+00 -2.3782915406e+00 1.3731072612e+00 2.3782915406e+00 
18000 5.3644900465e+00 -1.3796896928e-08 1.3731072612e+00 -2.3782915406e+00 1.3731072612e+00 2.3782915406e+00 
18100 5.3644900459e+00 -1.3923070760e-08 1.3731072612e+00 -2.3782915406e+00 1.3731072612e+00 2.3782915406e+00 
18200 5.3644900452e+00 -1.4050399307e-08 1.3731072612e+00 -2.3782915406e+00 1.3731072612e+00 2.3782915406e+00 
18300 5.3644900446e+00 -1.4178893151e-08 1.3731072612e+00 -2.3782915406e+00 1.3731072612e+00 2.3782915406e+00 
18400 5.3644900440e+00 -1.4308562966e-08 1.3731072612e+00 -2.3782915406e+00 1.3731072612e+00 2.3782915406e+00 
18500 5.3644900435e+00 -1.4439419528e-08 1.3731072612e+00 -2.3782915406e+00 1.3731072612e+00 2.3782915406e+00 
18600 5.3644900430e+00 -1.4571473710e-08 1.3731072612e+00 -2.3782915406e+00 1.3731072612e+00 2.3782915406e+00 
18700 5.3644900425e+00 -1.4704736485e-08 1.3731072612e+00 -2.3782915406e+00 1.3731072612e+00 2.3782915406e+00 
18800 5.3644900421e+00 -1.4839218926e-08 1.3731072612e+00 -2.3782915406e+00 1.3731072612e+00 2.3782915406e+00 
18900 5.3644900416e+00 -1.4974932210e-08 1.3731072612e+00 -2.3782915406e+00 1.3731072612e+00 2.3782915406e+00 
19000 5.3644900412e+00 -1.5111887613e-08 1.3731072612e+00 -2.3782915406e+00 1.3731072612e+00 2.3782915406e+00 
19100 5.3644900408e+00 -1.5250096519e-08 1.3731072612e+00 -2.3782915406e+00 1.3731072612e+00 2.3782915406e+00 
19200 5.3644900404e+00 -1.5389570412e-08 1.3731072612e+00 -2.3782915406e+00 1.3731072612e+00 2.3782915406e+00 
19300 5.3644900400e+00 -1.5530320884e-08 1.3731072612e+00 -2.3782915406e+00 1.3731072612e+00 2.3782915406e+00 
19400 5.3644900397e+00 -1.5672359633e-08 1.3731072612e+00 -2.3782915406e+00 1.3731072612e+00 2.3782915406e+00 
19500 5.3644900394e+00 -1.5815698464e-08 1.3731072612e+00 -2.3782915406e+00 1.3731072612e+00 2.3782915406e+00 
19600 5.3644900390e+00 -1.5960349291e-08 1.3731072612e+00 -2.3782915406e+00 1.3731072612e+00 2.3782915406e+00 
19700 5.3644900387e+00 -1.6106324136e-08 1.3731072612e+00 -2.3782915406e+00 1.3731072612e+00 2.3782915406e+00 
19800 5.3644900384e+00 -1.6253635132e-08 1.3731072612e+00 -2.3782915406e+00 1.3731072612e+00 2.3782915406e+00 
19900 5.3644900381e+00 -1.6402294526e-08 1.3731072612e+00 -2.3782915406e+00 1.3731072612e+00 2.3782915406e+00 
20000 5.3644900378e+00 -1.6552314673e-08 1.3731072612e+00 -2.3782915406e+00 1.3731072612e+00 2.3782915406e+00 
20100 5.3644900375e+00 -1.6703708043e-08 1.3731072612e+00 -2.3782915406e+00 1.3731072612e+00 2.3782915406e+00 
20200 5.3644900373e+00 -1.6856487223e-08 1.3731072612e+00 -2.3782915406e+00 1.3731072612e+00 2.3782915406e+00 
20300 5.3644900370e+00 -1.7010664913e-08 1.3731072612e+00 -2.3782915406e+00 1.3731072612e+00 2.3782915406e+00 
20400 5.3644900367e+00 -1.7166253929e-08 1.3731072612e+00 -2.3782915406e+00 1.3731072612e+00 2.3782915406e+00 
20500 5.3644900365e+00 -1.7323267207e-08 1.3731072612e+00 -2.3782915406e+00 1.3731072612e+00 2.3782915406e+00 
20600 5.3644900362e+00 -1.7481717801e-08 1.3731072612e+00 -2.3782915406e+00 1.3731072612e+00 2.3782915406e+00 
20700 5.3644900360e+00 -1.7641618883e-08 1.3731072612e+00 -2.3782915406e+00 1.3731072612e+00 2.3782915406e+00 
20800 5.3644900357e+00 -1.7802983748e-08 1.3731072612e+00 -2.3782915406e+00 1.3731072612e+00 2.3782915406e+00 
20900 5.3644900355e+00 -1.7965825813e-08 1.3731072612e+00 -2.3782915406e+00 1.3731072612e+00 2.3782915406e+00 
21000 5.3644900352e+00 -1.8130158617e-08 1.3731072612e+00 -2.3782915406e+00 1.3731072612e+00 2.3782915406e+00 
21100 5.3644900350e+00 -1.8295995825e-08 1.3731072612e+00 -2.3782915406e+00 1.3731072612e+00 2.3782915406e+00 
21200 5.3644900348e+00 -1.8463351225e-08 1.3731072612e+00 -2.3782915406e+00 1.3731072612e+00 2.3782915406e+00 
21300 5.3644900345e+00 -1.8632238735e-08 1.3731072612e+00 -2.3782915406e+00 1.3731072612e+00 2.3782915406e+00 
21400 5.3644900343e+00 -1.8802672397e-08 1.3731072612e+00 -2.3782915406e+00 1.3731072612e+00 2.3782915406e+00 
21500 5.3644900341e+00 -1.8974666386e-08 1.3731072612e+00 -2.3782915406e+00 1.3731072612e+00 2.3782915406e+00 
21600 5.3644900339e+00 -1.9148235004e-08 1.3731072612e+00 -2.3782915406e+00 1.3731072612e+00 2.3782915406e+00 
21700 5.3644900336e+00 -1.9323392685e-08 1.3731072612e+00 -2.3782915406e+00 1.3731072612e+00 2.3782915406e+00 
21800 5.3644900334e+00 -1.9500153996e-08 1.3731072612e+00 -2.3782915406e+00 1.3731072612e+00 2.3782915406e+00 
21900 5.3644900332e+00 -1.9678533639e-08 1.3731072612e+00 -2.3782915406e+00 1.3731072612e+00 2.3782915406e+00 
22000 5.3644900330e+00 -1.9858546449e-08 1.3731072612e+00 -2.3782915406e+00 1.3731072612e+00 2.3782915406e+00 
22100 5.3644900327e+00 -2.0040207399e-08 1.3731072612e+00 -2.3782915406e+00 1.3731072612e+00 2.3782915406e+00 
22200 5.3644900325e+00 -2.0223531597e-08 1.3731072612e+00 -2.3782915406e+00 1.3731072612e+00 2.3782915406e+00 
22300 5.3644900323e+00 -2.0408534293e-08 1.3731072612e+00 -2.3782915406e+00 1.3731072612e+00 2.3782915406e+00 
22400 5.3644900320e+00 -2.0595230874e-08 1.3731072612e+00 -2.3782915406e+00 1.3731072612e+00 2.3782915406e+00 
22500 5.3644900318e+00 -2.0783636872e-08 1.3731072612e+00 -2.3782915406e+00 1.3731072612e+00 2.3782915406e+00 
22600 5.3644900316e+00 -2.0973767958e-08 1.3731072612e+00 -2.3782915406e+00 1.3731072612e+00 2.3782915406e+00 
22700 5.3644900314e+00 -2.1165639948e-08 1.3731072612e+00 -2.3782915406e+00 1.3731072612e+00 2.3782915406e+00 
22800 5.3644900311e+00 -2.1359268805e-08 1.3731072612e+00 -2.3782915406e+00 1.3731072612e+00 2.3782915406e+00 
22900 5.3644900309e+00 -2.1554670638e-08 1.3731072612e+00 -2.3782915406e+00 1.3731072612e+00 2.3782915406e+00 
23000 5.3644900307e+00 -2.1751861702e-08 1.3731072612e+00 -2.3782915406e+00 1.3731072612e+00 2.3782915406e+00 
23100 5.3644900304e+00 -2.1950858404e-08 1.3731072612e+00 -2.3782915406e+00 1.3731072612e+00 2.3782915406e+00 
23200 5.3644900302e+00 -2.2151677299e-08 1.3731072612e+00 -2.3782915406e+00 1.3731072612e+00 2.3782915406e+00 
23300 5.3644900300e+00 -2.2354335097e-08 1.3731072612e+00 -2.3782915406e+00 1.3731072612e+00 2.3782915406e+00 
23400 5.3644900297e+00 -2.2558848660e-08 1.3731072612e+00 -2.3782915406e+00 1.3731072612e+00 2.3782915406e+00 
23500 5.3644900295e+00 -2.2765235006e-08 1.3731072612e+00 -2.3782915406e+00 1.3731072612e+00 2.3782915406e+00 
23600 5.3644900293e+00 -2.2973511306e-08 1.3731072612e+00 -2.3782915406e+00 1.3731072612e+00 2.3782915406e+00 
23700 5.3644900290e+00 -2.3183694894e-08 1.3731072612e+00 -2.3782915406e+00 1.3731072612e+00 2.3782915406e+00 
23800 5.3644900288e+00 -2.3395803260e-08 1.3731072612e+00 -2.3782915406e+00 1.3731072612e+00 2.3782915406e+00 
23900 5.3644900285e+00 -2.3609854054e-08 1.3731072612e+00 -2.3782915406e+00 1.3731072612e+00 2.3782915406e+00 
24000 5.3644900283e+00 -2.3825865091e-08 1.3731072612e+00 -2.3782915406e+00 1.3731072612e+00 2.3782915406e+00 
24100 5.3644900280e+00 -2.4043854347e-08 1.3731072612e+00 -2.3782915406e+00 1.3731072612e+00 2.3782915406e+00 
24200 5.3644900278e+00 -2.4263839966e-08 1.3731072612e+00 -2.3782915406e+00 1.3731072612e+00 2.3782915406e+00 
24300 5.3644900275e+00 -2.4485840256e-08 1.3731072612e+00 -2.3782915406e+00 1.3731072612e+00 2.3782915406e+00 
24400 5.3644900273e+00 -2.4709873695e-08 1.3731072612e+00 -2.3782915406e+00 1.3731072612e+00 2.3782915406e+00 
24500 5.3644900270e+00 -2.4935958931e-08 1.3731072612e+00 -2.3782915406e+00 1.3731072612e+00 2.3782915406e+00 
24600 5.3644900268e+00 -2.5164114782e-08 1.3731072612e+00 -2.3782915406e+00 1.3731072612e+00 2.3782915406e+00 
24700 5.3644900265e+00 -2.5394360240e-08 1.3731072612e+00 -2.3782915406e+00 1.3731072612e+00 2.3782915406e+00 
24800 5.3644900263e+00 -2.5626714471e-08 1.3731072612e+00 -2.3782915406e+00 1.3731072612e+00 2.3782915406e+00 
24900 5.3644900260e+00 -2.5861196818e-08 1.3731072612e+00 -2.3782915406e+00 1.3731072612e+00 2.3782915406e+00 
25000 5.3644900257e+00 -2.6097826801e-08 1.3731072612e+00 -2.3782915406e+00 1.3731072612e+00 2.3782915406e+00 
25100 5.3644900255e+00 -2.6336624119e-08 1.3731072612e+00 -2.3782915406e+00 1.3731072612e+00 2.3782915406e+00 
25200 5.3644900252e+00 -2.6577608655e-08 1.3731072612e+00 -2.3782915406e+00 1.3731072612e+00 2.3782915406e+00 
25300 5.3644900249e+00 -2.6820800470e-08 1.3731072612e+00 -2.3782915406e+00 1.3731072612e+00 2.3782915406e+00 
25400 5.3644900247e+00 -2.7066219815e-08 1.3731072612e+00 -2.3782915406e+00 1.3731072612e+00 2.3782915406e+00 
25500 5.3644900244e+00 -2.7313887122e-08 1.3731072612e+00 -2.3782915406e+00 1.3731072612e+00 2.3782915406e+00 
25600 5.3644900241e+00 -2.7563823014e-08 1.3731072612e+00 -2.3782915406e+00 1.3731072612e+00 2.3782915406e+00 
25700 5.3644900238e+00 -2.7816048303e-08 1.3731072612e+00 -2.3782915406e+00 1.3731072612e+00 2.3782915406e+00 
25800 5.3644900235e+00 -2.8070583991e-08 1.3731072612e+00 -2.3782915406e+00 1.3731072612e+00 2.3782915406e+00 
25900 5.3644900232e+00 -2.8327451276e-08 1.3731072612e+00 -2.3782915406e+00 1.3731072612e+00 2.3782915406e+00 
26000 5.3644900230e+00 -2.8586671548e-08 1.3731072612e+00 -2.3782915406e+00 1.3731072612e+00 2.3782915406e+00 
26100 5.3644900227e+00 -2.8848266396e-08 1.3731072612e+00 -2.3782915406e+00 1.3731072612e+00 2.3782915406e+00 
26200 5.3644900224e+00 -2.9112257605e-08 1.3731072612e+00 -2.3782915406e+00 1.3731072612e+00 2.3782915406e+00 
26300 5.3644900221e+00 -2.9378667163e-08 1.3731072612e+00 -2.3782915406e+00 1.3731072612e+00 2.3782915406e+00 
26400 5.3644900218e+00 -2.9647517258e-08 1.3731072612e+00 -2.3782915406e+00 1.3731072612e+00 2.3782915406e+00 
26500 5.3644900215e+00 -2.9918830283e-08 1.3731072612e+00 -2.3782915406e+00 1.3731072612e+00 2.3782915406e+00 
26600 5.3644900212e+00 -3.0192628839e-08 1.3731072612e+00 -2.3782915406e+00 1.3731072612e+00 2.3782915406e+00 
26700 5.3644900209e+00 -3.0468935731e-08 1.3731072612e+00 -2.3782915406e+00 1.3731072612e+00 2.3782915406e+00 
26800 5.3644900206e+00 -3.0747773976e-08 1.3731072612e+00 -2.3782915406e+00 1.3731072612e+00 2.3782915406e+00 
26900 5.3644900202e+00 -3.1029166802e-08 1.3731072612e+00 -2.3782915406e+00 1.3731072612e+00 2.3782915406e+00 
27000 5.3644900199e+00 -3.1313137652e-08 1.3731072612e+00 -2.3782915406e+00 1.3731072612e+00 2.3782915406e+00 
27100 5.3644900196e+00 -3.1599710184e-08 1.3731072612e+00 -2.3782915406e+00 1.3731072612e+00 2.3782915406e+00 
27200 5.3644900193e+00 -3.1888908272e-08 1.3731072612e+00 -2.3782915406e+00 1.3731072612e+00 2.3782915406e+00 
27300 5.3644900190e+00 -3.2180756012e-08 1.3731072612e+00 -2.3782915406e+00 1.3731072612e+00 2.3782915406e+00 
27400 5.3644900186e+00 -3.2475277720e-08 1.3731072612e+00 -2.3782915406e+00 1.3731072612e+00 2.3782915406e+00 
27500 5.3644900183e+00 -3.2772497937e-08 1.3731072612e+00 -2.3782915406e+00 1.3731072612e+00 2.3782915406e+00 
27600 5.3644900180e+00 -3.3072441428e-08 1.3731072612e+00 -2.3782915406e+00 1.3731072612e+00 2.3782915406e+00 
27700 5.3644900176e+00 -3.3375133188e-08 1.3731072612e+00 -2.3782915406e+00 1.3731072612e+00 2.3782915406e+00 
27800 5.3644900173e+00 -3.3680598441e-08 1.3731072612e+00 -2.3782915406e+00 1.3731072612e+00 2.3782915406e+00 
27900 5.3644900169e+00 -3.3988862642e-08 1.3731072612e+00 -2.3782915406e+00 1.3731072612e+00 2.3782915406e+00 
28000 5.3644900166e+00 -3.4299951483e-08 1.3731072612e+00 -2.3782915406e+00 1.3731072612e+00 2.3782915406e+00 
28100 5.3644900163e+00 -3.4613890890e-08 1.3731072612e+00 -2.3782915406e+00 1.3731072612e+00 2.3782915406e+00 
28200 5.3644900159e+00 -3.4930707028e-08 1.3731072612e+00 -2.3782915406e+00 1.3731072612e+00 2.3782915406e+00 
28300 5.3644900155e+00 -3.5250426302e-08 1.3731072612e+00 -2.3782915406e+00 1.3731072612e+00 2.3782915406e+00 
28400 5.3644900152e+00 -3.5573075364e-08 1.3731072612e+00 -2.3782915406e+00 1.3731072612e+00 2.3782915406e+00 
28500 5.3644900148e+00 -3.5898681105e-08 1.3731072612e+00 -2.3782915406e+00 1.3731072612e+00 2.3782915406e+00 
28600 5.3644900145e+00 -3.6227270670e-08 1.3731072612e+00 -2.3782915406e+00 1.3731072612e+00 2.3782915406e+00 
28700 5.3644900141e+00 -3.6558871449e-08 1.3731072612e+00 -2.3782915406e+00 1.3731072612e+00 2.3782915406e+00 
28800 5.3644900137e+00 -3.6893511086e-08 1.3731072612e+00 -2.3782915406e+00 1.3731072612e+00 2.3782915406e+00 
28900 5.3644900133e+00 -3.7231217479e-08 1.3731072612e+00 -2.3782915406e+00 1.3731072612e+00 2.3782915406e+00 
29000 5.3644900130e+00 -3.7572018784e-08 1.3731072612e+00 -2.3782915406e+00 1.3731072612e+00 2.3782915406e+00 
29100 5.3644900126e+00 -3.7915943415e-08 1.3731072612e+00 -2.3782915406e+00 1.3731072612e+00 2.3782915406e+00 
29200 5.3644900122e+00 -3.8263020047e-08 1.3731072612e+00 -2.3782915406e+00 1.3731072612e+00 2.3782915406e+00 
29300 5.3644900118e+00 -3.8613277620e-08 1.3731072612e+00 -2.3782915406e+00 1.3731072612e+00 2.3782915406e+00 
29400 5.3644900114e+00 -3.8966745341e-08 1.3731072612e+00 -2.3782915406e+00 1.3731072612e+00 2.3782915406e+00 
29500 5.3644900110e+00 -3.9323452686e-08 1.3731072612e+00 -2.3782915406e+00 1.3731072612e+00 2.3782915406e+00 
29600 5.3644900106e+00 -3.9683429399e-08 1.3731072612e+00 -2.3782915406e+00 1.3731072612e+00 2.3782915406e+00 
29700 5.3644900102e+00 -4.0046705502e-08 1.3731072612e+00 -2.3782915406e+00 1.3731072612e+00 2.3782915406e+00 
29800 5.3644900098e+00 -4.0413311292e-08 1.3731072612e+00 -2.3782915406e+00 1.3731072612e+00 2.3782915406e+00 
29900 5.3644900094e+00 -4.0783277344e-08 1.3731072612e+00 -2.3782915406e+00 1.3731072612e+00 2.3782915406e+00 
30000 5.3644900090e+00 -4.1156634515e-08 1.3731072612e+00 -2.3782915406e+00 1.3731072612e+00 2.3782915406e+00 
30100 5.3644900086e+00 -4.1533413948e-08 1.3731072612e+00 -2.3782915406e+00 1.3731072612e+00 2.3782915406e+00 
30200 5.3644900081e+00 -4.1913647071e-08 1.3731072612e+00 -2.3782915406e+00 1.3731072612e+00 2.3782915406e+00 
30300 5.3644900077e+00 -4.2297365600e-08 1.3731072612e+00 -2.3782915406e+00 1.3731072612e+00 2.3782915406e+00 
30400 5.3644900073e+00 -4.2684601547e-08 1.3731072612e+00 -2.3782915406e+00 1.3731072612e+00 2.3782915406e+00 
30500 5.3644900069e+00 -4.3075387215e-08 1.3731072612e+00 -2.3782915406e+00 1.3731072612e+00 2.3782915406e+00 
30600 5.3644900064e+00 -4.3469755208e-08 1.3731072612e+00 -2.3782915406e+00 1.3731072612e+00 2.3782915406e+00 
30700 5.3644900060e+00 -4.3867738427e-08 1.3731072612e+00 -2.3782915406e+00 1.3731072612e+00 2.3782915406e+00 
30800 5.3644900055e+00 -4.4269370077e-08 1.3731072612e+00 -2.3782915406e+00 1.3731072612e+00 2.3782915406e+00 
30900 5.3644900051e+00 -4.4674683672e-08 1.3731072612e+00 -2.3782915406e+00 1.3731072612e+00 2.3782915406e+00 
31000 5.3644900046e+00 -4.5083713029e-08 1.3731072612e+00 -2.3782915406e+00 1.3731072612e+00 2.3782915406e+00 
31100 5.3644900042e+00 -4.5496492282e-08 1.3731072612e+00 -2.3782915406e+00 1.3731072612e+00 2.3782915406e+00 
31200 5.3644900037e+00 -4.5913055877e-08 1.3731072612e+00 -2.3782915406e+00 1.3731072612e+00 2.3782915406e+00 
31300 5.3644900032e+00 -4.6333438577e-08 1.3731072612e+00 -2.3782915406e+00 1.3731072612e+00 2.3782915406e+00 
31400 5.3644900028e+00 -4.6757675465e-08 1.3731072612e+00 -2.3782915406e+00 1.3731072612e+00 2.3782915406e+00 
31500 5.3644900023e+00 -4.7185801949e-08 1.3731072612e+00 -2.3782915406e+00 1.3731072612e+00 2.3782915406e+00 
31600 5.3644900018e+00 -4.7617853762e-08 1.3731072612e+00 -2.3782915406e+00 1.3731072612e+00 2.3782915406e+00 
31700 5.3644900013e+00 -4.8053866967e-08 1.3731072612e+00 -2.3782915406e+00 1.3731072612e+00 2.3782915406e+00 
31800 5.3644900008e+00 -4.8493877958e-08 1.3731072612e+00 -2.3782915406e+00 1.3731072612e+00 2.3782915406e+00 
31900 5.3644900003e+00 -4.8937923466e-08 1.3731072612e+00 -2.3782915406e+00 1.3731072612e+00 2.3782915406e+00 
32000 5.3644899998e+00 -4.9386040560e-08 1.3731072612e+00 -2.3782915406e+00 1.3731072612e+00 2.3782915406e+00 
32100 5.3644899993e+00 -4.9838266650e-08 1.3731072612e+00 -2.3782915406e+00 1.3731072612e+00 2.3782915406e+00 
32200 5.3644899988e+00 -5.0294639491e-08 1.3731072612e+00 -2.3782915406e+00 1.3731072612e+00 2.3782915406e+00 
32300 5.3644899983e+00 -5.0755197186e-08 1.3731072612e+00 -2.3782915406e+00 1.3731072612e+00 2.3782915406e+00 
32400 5.3644899978e+00 -5.1219978190e-08 1.3731072612e+00 -2.3782915406e+00 1.3731072612e+00 2.3782915406e+00 
32500 5.3644899973e+00 -5.1689021311e-08 1.3731072612e+00 -2.3782915406e+00 1.3731072612e+00 2.3782915406e+00 
32600 5.3644899968e+00 -5.2162365716e-08 1.3731072612e+00 -2.3782915406e+00 1.3731072612e+00 2.3782915406e+00 
32700 5.3644899962e+00 -5.2640050933e-08 1.3731072612e+00 -2.3782915406e+00 1.3731072612e+00 2.3782915406e+00 
32800 5.3644899957e+00 -5.3122116854e-08 1.3731072612e+00 -2.3782915406e+00 1.3731072612e+00 2.3782915406e+00 
32900 5.3644899952e+00 -5.3608603739e-08 1.3731072612e+00 -2.3782915406e+00 1.3731072612e+00 2.3782915406e+00 
33000 5.3644899946e+00 -5.4099552217e-08 1.3731072612e+00 -2.3782915406e+00 1.3731072612e+00 2.3782915406e+00 
33100 5.3644899941e+00 -5.4595003296e-08 1.3731072612e+00 -2.3782915406e+00 1.3731072612e+00 2.3782915406e+00 
33200 5.3644899935e+00 -5.5094998358e-08 1.3731072612e+00 -2.3782915406e+00 1.3731072612e+00 2.3782915406e+00 
33300 5.3644899929e+00 -5.5599579170e-08 1.3731072612e+00 -2.3782915406e+00 1.3731072612e+00 2.3782915406e+00 
33400 5.3644899924e+00 -5.6108787881e-08 1.3731072612e+00 -2.3782915406e+00 1.3731072612e+00 2.3782915406e+00 
33500 5.3644899918e+00 -5.6622667030e-08 1.3731072612e+00 -2.3782915406e+00 1.3731072612e+00 2.3782915406e+00 
33600 5.3644899912e+00 -5.7141259549e-08 1.3731072612e+00 -2.3782915406e+00 1.3731072612e+00 2.3782915406e+00 
33700 5.3644899907e+00 -5.7664608765e-08 1.3731072612e+00 -2.3782915406e+00 1.3731072612e+00 2.3782915406e+00 
33800 5.3644899901e+00 -5.8192758404e-08 1.3731072612e+00 -2.3782915406e+00 1.3731072612e+00 2.3782915406e+00 
33900 5.3644899895e+00 -5.8725752599e-08 1.3731072612e+00 -2.3782915406e+00 1.3731072612e+00 2.3782915406e+00 
34000 5.3644899889e+00 -5.9263635884e-08 1.3731072612e+00 -2.3782915406e+00 1.3731072612e+00 2.3782915406e+00 
34100 5.3644899883e+00 -5.9806453209e-08 1.3731072612e+00 -2.3782915406e+00 1.3731072612e+00 2.3782915406e+00 
34200 5.3644899877e+00 -6.0354249937e-08 1.3731072612e+00 -2.3782915406e+00 1.3731072612e+00 2.3782915406e+00 
34300 5.3644899870e+00 -6.0907071847e-08 1.3731072612e+00 -2.3782915406e+00 1.3731072612e+00 2.3782915406e+00 
34400 5.3644899864e+00 -6.1464965145e-08 1.3731072612e+00 -2.3782915406e+00 1.3731072612e+00 2.3782915406e+00 
34500 5.3644899858e+00 -6.2027976459e-08 1.3731072612e+00 -2.3782915406e+00 1.3731072612e+00 2.3782915406e+00 
34600 5.3644899852e+00 -6.2596152850e-08 1.3731072612e+00 -2.3782915406e+00 1.3731072612e+00 2.3782915406e+00 
34700 5.3644899845e+00 -6.3169541811e-08 1.3731072612e+00 -2.3782915406e+00 1.3731072612e+00 2.3782915406e+00 
34800 5.3644899839e+00 -6.3748191276e-08 1.3731072612e+00 -2.3782915406e+00 1.3731072612e+00 2.3782915406e+00 
34900 5.3644899832e+00 -6.4332149619e-08 1.3731072612e+00 -2.3782915406e+00 1.3731072612e+00 2.3782915406e+00 
35000 5.3644899826e+00 -6.4921465661e-08 1.3731072612e+00 -2.3782915406e+00 1.3731072612e+00 2.3782915406e+00 
35100 5.3644899819e+00 -6.5516188674e-08 1.3731072612e+00 -2.3782915406e+00 1.3731072612e+00 2.3782915406e+00 
35200 5.3644899813e+00 -6.6116368383e-08 1.3731072612e+00 -2.3782915406e+00 1.3731072612e+00 2.3782915406e+00 
35300 5.3644899806e+00 -6.6722054975e-08 1.3731072612e+00 -2.3782915406e+00 1.3731072612e+00 2.3782915406e+00 
35400 5.3644899799e+00 -6.7333299098e-08 1.3731072612e+00 -2.3782915406e+00 1.3731072612e+00 2.3782915406e+00 
35500 5.3644899792e+00 -6.7950151868e-08 1.3731072612e+00 -2.3782915406e+00 1.3731072612e+00 2.3782915406e+00 
35600 5.3644899785e+00 -6.8572664873e-08 1.3731072612e+00 -2.3782915406e+00 1.3731072612e+00 2.3782915406e+00 
35700 5.3644899778e+00 -6.9200890176e-08 1.3731072612e+00 -2.3782915406e+00 1.3731072612e+00 2.3782915406e+00 
35800 5.3644899771e+00 -6.9834880323e-08 1.3731072612e+00 -2.3782915406e+00 1.3731072612e+00 2.3782915406e+00 
35900 5.3644899764e+00 -7.0474688344e-08 1.3731072612e+00 -2.3782915406e+00 1.3731072612e+00 2.3782915406e+00 
36000 5.3644899757e+00 -7.1120367756e-08 1.3731072612e+00 -2.3782915406e+00 1.3731072612e+00 2.3782915406e+00 
36100 5.3644899750e+00 -7.1771972575e-08 1.3731072612e+00 -2.3782915406e+00 1.3731072612e+00 2.3782915406e+00 
36200 5.3644899742e+00 -7.2429557313e-08 1.3731072612e+00 -2.3782915406e+00 1.3731072612e+00 2.3782915406e+00 
36300 5.3644899735e+00 -7.3093176984e-08 1.3731072612e+00 -2.3782915406e+00 1.3731072612e+00 2.3782915406e+00 
36400 5.3644899728e+00 -7.3762887113e-08 1.3731072612e+00 -2.3782915406e+00 1.3731072612e+00 2.3782915406e+00 
36500 5.3644899720e+00 -7.4438743735e-08 1.3731072612e+00 -2.3782915406e+00 1.3731072612e+00 2.3782915406e+00 
36600 5.3644899713e+00 -7.5120803406e-08 1.3731072612e+00 -2.3782915406e+00 1.3731072612e+00 2.3782915406e+00 
36700 5.3644899705e+00 -7.5809123200e-08 1.3731072612e+00 -2.3782915406e+00 1.3731072612e+00 2.3782915406e+00 
36800 5.3644899697e+00 -7.6503760721e-08 1.3731072612e+00 -2.3782915406e+00 1.3731072612e+00 2.3782915406e+00 
36900 5.3644899689e+00 -7.7204774105e-08 1.3731072612e+00 -2.3782915406e+00 1.3731072612e+00 2.3782915406e+00 
37000 5.3644899682e+00 -7.7912222024e-08 1.3731072612e+00 -2.3782915406e+00 1.3731072612e+00 2.3782915406e+00 
37100 5.3644899674e+00 -7.8626163693e-08 1.3731072612e+00 -2.3782915406e+00 1.3731072612e+00 2.3782915406e+00 
37200 5.3644899666e+00 -7.9346658872e-08 1.3731072612e+00 -2.3782915406e+00 1.3731072612e+00 2.3782915406e+00 
37300 5.3644899658e+00 -8.0073767876e-08 1.3731072612e+00 -2.3782915406e+00 1.3731072612e+00 2.3782915406e+00 
37400 5.3644899649e+00 -8.0807551575e-08 1.3731072612e+00 -2.3782915406e+00 1.3731072612e+00 2.3782915406e+00 
37500 5.3644899641e+00 -8.1548071403e-08 1.3731072612e+00 -2.3782915406e+00 1.3731072612e+00 2.3782915406e+00 
37600 5.3644899633e+00 -8.2295389359e-08 1.3731072612e+00 -2.3782915406e+00 1.3731072612e+00 2.3782915406e+00 
37700 5.3644899624e+00 -8.3049568018e-08 1.3731072612e+00 -2.3782915406e+00 1.3731072612e+00 2.3782915406e+00 
37800 5.3644899616e+00 -8.3810670532e-08 1.3731072612e+00 -2.3782915406e+00 1.3731072612e+00 2.3782915406e+00 
37900 5.3644899607e+00 -8.4578760637e-08 1.3731072612e+00 -2.3782915406e+00 1.3731072612e+00 2.3782915406e+00 
38000 5.3644899599e+00 -8.5353902657e-08 1.3731072612e+00 -2.3782915406e+00 1.3731072612e+00 2.3782915406e+00 
38100 5.3644899590e+00 -8.6136161511e-08 1.3731072612e+00 -2.3782915406e+00 1.3731072612e+00 2.3782915406e+00 
38200 5.3644899581e+00 -8.6925602719e-08 1.3731072612e+00 -2.3782915406e+00 1.3731072612e+00 2.3782915406e+00 
38300 5.3644899573e+00 -8.7722292406e-08 1.3731072612e+00 -2.3782915406e+00 1.3731072612e+00 2.3782915406e+00 
38400 5.3644899564e+00 -8.8526297306e-08 1.3731072612e+00 -2.3782915406e+00 1.3731072612e+00 2.3782915406e+00 
38500 5.3644899555e+00 -8.9337684775e-08 1.3731072612e+00 -2.3782915406e+00 1.3731072612e+00 2.3782915406e+00 
38600 5.3644899545e+00 -9.0156522787e-08 1.3731072612e+00 -2.3782915406e+00 1.3731072612e+00 2.3782915406e+00 
38700 5.3644899536e+00 -9.0982879946e-08 1.3731072612e+00 -2.3782915406e+00 1.3731072612e+00 2.3782915406e+00 
38800 5.3644899527e+00 -9.1816825491e-08 1.3731072612e+00 -2.3782915406e+00 1.3731072612e+00 2.3782915406e+00 
38900 5.3644899518e+00 -9.2658429302e-08 1.3731072612e+00 -2.3782915406e+00 1.3731072612e+00 2.3782915406e+00 
39000 5.3644899508e+00 -9.3507761902e-08 1.3731072612e+00 -2.3782915406e+00 1.3731072612e+00 2.3782915406e+00 
39100 5.3644899499e+00 -9.4364894469e-08 1.3731072612e+00 -2.3782915406e+00 1.3731072612e+00 2.3782915406e+00 
39200 5.3644899489e+00 -9.5229898839e-08 1.3731072612e+00 -2.3782915406e+00 1.3731072612e+00 2.3782915406e+00 
39300 5.3644899479e+00 -9.6102847510e-08 1.3731072612e+00 -2.3782915406e+00 1.3731072612e+00 2.3782915406e+00 
39400 5.3644899470e+00 -9.6983813655e-08 1.3731072612e+00 -2.3782915406e+00 1.3731072612e+00 2.3782915406e+00 
39500 5.3644899460e+00 -9.7872871118e-08 1.3731072612e+00 -2.3782915406e+00 1.3731072612e+00 2.3782915406e+00 
39600 5.3644899450e+00 -9.8770094432e-08 1.3731072612e+00 -2.3782915406e+00 1.3731072612e+00 2.3782915406e+00 
39700 5.3644899440e+00 -9.9675558816e-08 1.3731072612e+00 -2.3782915406e+00 1.3731072612e+00 2.3782915406e+00 
39800 5.3644899429e+00 -1.0058934018e-07 1.3731072612e+00 -2.3782915406e+00 1.3731072612e+00 2.3782915406e+00 
39900 5.3644899419e+00 -1.0151151516e-07 1.3731072612e+00 -2.3782915406e+00 1.3731072612e+00 2.3782915406e+00 
40000 5.3644899409e+00 -1.0244216106e-07 1.3731072612e+00 -2.3782915406e+00 1.3731072612e+00 2.3782915406e+00 
40100 5.3644899398e+00 -1.0338135593e-07 1.3731072612e+00 -2.3782915406e+00 1.3731072612e+00 2.3782915406e+00 
40200 5.3644899388e+00 -1.0432917855e-07 1.3731072612e+00 -2.3782915406e+00 1.3731072612e+00 2.3782915406e+00 
40300 5.3644899377e+00 -1.0528570839e-07 1.3731072612e+00 -2.3782915406e+00 1.3731072612e+00 2.3782915406e+00 
40400 5.3644899367e+00 -1.0625102569e-07 1.3731072612e+00 -2.3782915406e+00 1.3731072612e+00 2.3782915406e+00 
40500 5.3644899356e+00 -1.0722521143e-07 1.3731072612e+00 -2.3782915406e+00 1.3731072612e+00 2.3782915406e+00 
40600 5.3644899345e+00 -1.0820834731e-07 1.3731072612e+00 -2.3782915406e+00 1.3731072612e+00 2.3782915406e+00 
40700 5.3644899334e+00 -1.0920051583e-07 1.3731072612e+00 -2.3782915406e+00 1.3731072612e+00 2.3782915406e+00 
40800 5.3644899323e+00 -1.1020180022e-07 1.3731072612e+00 -2.3782915406e+00 1.3731072612e+00 2.3782915406e+00 
40900 5.3644899311e+00 -1.1121228450e-07 1.3731072612e+00 -2.3782915406e+00 1.3731072612e+00 2.3782915406e+00 
41000 5.3644899300e+00 -1.1223205344e-07 1.3731072612e+00 -2.3782915406e+00 1.3731072612e+00 2.3782915406e+00 
41100 5.3644899289e+00 -1.1326119264e-07 1.3731072612e+00 -2.3782915406e+00 1.3731072612e+00 2.3782915406e+00 
41200 5.3644899277e+00 -1.1429978844e-07 1.3731072612e+00 -2.3782915406e+00 1.3731072612e+00 2.3782915406e+00 
41300 5.3644899265e+00 -1.1534792803e-07 1.3731072612e+00 -2.3782915406e+00 1.3731072612e+00 2.3782915406e+00 
41400 5.3644899254e+00 -1.1640569938e-07 1.3731072612e+00 -2.3782915406e+00 1.3731072612e+00 2.3782915406e+00 
41500 5.3644899242e+00 -1.1747319126e-07 1.3731072612e+00 -2.3782915406e+00 1.3731072612e+00 2.3782915406e+00 
41600 5.3644899230e+00 -1.1855049331e-07 1.3731072612e+00 -2.3782915406e+00 1.3731072612e+00 2.3782915406e+00 
41700 5.3644899218e+00 -1.1963769595e-07 1.3731072612e+00 -2.3782915406e+00 1.3731072612e+00 2.3782915406e+00 
41800 5.3644899206e+00 -1.2073489046e-07 1.3731072612e+00 -2.3782915406e+00 1.3731072612e+00 2.3782915406e+00 
41900 5.3644899193e+00 -1.2184216897e-07 1.3731072612e+00 -2.3782915406e+00 1.3731072612e+00 2.3782915406e+00 
42000 5.3644899181e+00 -1.2295962446e-07 1.3731072612e+00 -2.3782915406e+00 1.3731072612e+00 2.3782915406e+00 
42100 5.3644899168e+00 -1.2408735076e-07 1.3731072612e+00 -2.3782915406e+00 1.3731072612e+00 2.3782915406e+00 
42200 5.3644899156e+00 -1.2522544259e-07 1.3731072612e+00 -2.3782915406e+00 1.3731072612e+00 2.3782915406e+00 
42300 5.3644899143e+00 -1.2637399552e-07 1.3731072612e+00 -2.3782915406e+00 1.3731072612e+00 2.3782915406e+00 
42400 5.3644899130e+00 -1.2753310604e-07 1.3731072612e+00 -2.3782915406e+00 1.3731072612e+00 2.3782915406e+00 
42500 5.3644899117e+00 -1.2870287151e-07 1.3731072612e+00 -2.3782915406e+00 1.3731072612e+00 2.3782915406e+00 
42600 5.3644899104e+00 -1.2988339019e-07 1.3731072612e+00 -2.3782915406e+00 1.3731072612e+00 2.3782915406e+00 
42700 5.3644899091e+00 -1.3107476126e-07 1.3731072612e+00 -2.3782915406e+00 1.3731072612e+00 2.3782915406e+00 
42800 5.3644899077e+00 -1.3227708483e-07 1.3731072612e+00 -2.3782915406e+00 1.3731072612e+00 2.3782915406e+00 
42900 5.3644899064e+00 -1.3349046192e-07 1.3731072612e+00 -2.3782915406e+00 1.3731072612e+00 2.3782915406e+00 
43000 5.3644899050e+00 -1.3471499449e-07 1.3731072612e+00 -2.3782915406e+00 1.3731072612e+00 2.3782915406e+00 
43100 5.3644899036e+00 -1.3595078545e-07 1.3731072612e+00 -2.3782915406e+00 1.3731072612e+00 2.3782915406e+00 
43200 5.3644899022e+00 -1.3719793866e-07 1.3731072612e+00 -2.3782915406e+00 1.3731072612e+00 2.3782915406e+00 
43300 5.3644899008e+00 -1.3845655895e-07 1.3731072612e+00 -2.3782915406e+00 1.3731072612e+00 2.3782915406e+00 
43400 5.3644898994e+00 -1.3972675212e-07 1.3731072612e+00 -2.3782915406e+00 1.3731072612e+00 2.3782915406e+00 
43500 5.3644898980e+00 -1.4100862493e-07 1.3731072612e+00 -2.3782915406e+00 1.3731072612e+00 2.3782915406e+00 
43600 5.3644898966e+00 -1.4230228517e-07 1.3731072612e+00 -2.3782915406e+00 1.3731072612e+00 2.3782915406e+00 
43700 5.3644898951e+00 -1.4360784159e-07 1.3731072612e+00 -2.3782915406e+00 1.3731072612e+00 2.3782915406e+00 
43800 5.3644898936e+00 -1.4492540398e-07 1.3731072612e+00 -2.3782915406e+00 1.3731072612e+00 2.3782915406e+00 
43900 5.3644898922e+00 -1.4625508313e-07 1.3731072612e+00 -2.3782915406e+00 1.3731072612e+00 2.3782915406e+00 
44000 5.3644898907e+00 -1.4759699086e-07 1.3731072612e+00 -2.3782915406e+00 1.3731072612e+00 2.3782915406e+00 
44100 5.3644898892e+00 -1.4895124003e-07 1.3731072612e+00 -2.3782915406e+00 1.3731072612e+00 2.3782915406e+00 
44200 5.3644898876e+00 -1.5031794456e-07 1.3731072612e+00 -2.3782915406e+00 1.3731072612e+00 2.3782915406e+00 
44300 5.3644898861e+00 -1.5169721940e-07 1.3731072612e+00 -2.3782915406e+00 1.3731072612e+00 2.3782915406e+00 
44400 5.3644898846e+00 -1.5308918059e-07 1.3731072612e+00 -2.3782915406e+00 1.3731072612e+00 2.3782915406e+00 
44500 5.3644898830e+00 -1.5449394523e-07 1.3731072612e+00 -2.3782915406e+00 1.3731072612e+00 2.3782915406e+00 
44600 5.3644898814e+00 -1.5591163152e-07 1.3731072612e+00 -2.3782915406e+00 1.3731072612e+00 2.3782915406e+00 
44700 5.3644898798e+00 -1.5734235876e-07 1.3731072612e+00 -2.3782915406e+00 1.3731072612e+00 2.3782915406e+00 
44800 5.3644898782e+00 -1.5878624733e-07 1.3731072612e+00 -2.3782915406e+00 1.3731072612e+00 2.3782915406e+00 
44900 5.3644898766e+00 -1.6024341876e-07 1.3731072612e+00 -2.3782915406e+00 1.3731072612e+00 2.3782915406e+00 
45000 5.3644898750e+00 -1.6171399569e-07 1.3731072612e+00 -2.3782915406e+00 1.3731072612e+00 2.3782915406e+00 
45100 5.3644898733e+00 -1.6319810190e-07 1.3731072612e+00 -2.3782915406e+00 1.3731072612e+00 2.3782915406e+00 
45200 5.3644898717e+00 -1.6469586233e-07 1.3731072612e+00 -2.3782915406e+00 1.3731072612e+00 2.3782915406e+00 
45300 5.3644898700e+00 -1.6620740307e-07 1.3731072612e+00 -2.3782915406e+00 1.3731072612e+00 2.3782915406e+00 
45400 5.3644898683e+00 -1.6773285138e-07 1.3731072612e+00 -2.3782915406e+00 1.3731072612e+00 2.3782915406e+00 
45500 5.3644898666e+00 -1.6927233571e-07 1.3731072612e+00 -2.3782915406e+00 1.3731072612e+00 2.3782915406e+00 
45600 5.3644898648e+00 -1.7082598570e-07 1.3731072612e+00 -2.3782915406e+00 1.3731072612e+00 2.3782915406e+00 
45700 5.3644898631e+00 -1.7239393219e-07 1.3731072612e+00 -2.3782915406e+00 1.3731072612e+00 2.3782915406e+00 
45800 5.3644898613e+00 -1.7397630723e-07 1.3731072612e+00 -2.3782915406e+00 1.3731072612e+00 2.3782915406e+00 
45900 5.3644898596e+00 -1.7557324412e-07 1.3731072612e+00 -2.3782915406e+00 1.3731072612e+00 2.3782915406e+00 
46000 5.3644898578e+00 -1.7718487737e-07 1.3731072612e+00 -2.3782915406e+00 1.3731072612e+00 2.3782915406e+00 
46100 5.3644898559e+00 -1.7881134277e-07 1.3731072612e+00 -2.3782915406e+00 1.3731072612e+00 2.3782915406e+00 
46200 5.3644898541e+00 -1.8045277733e-07 1.3731072612e+00 -2.3782915406e+00 1.3731072612e+00 2.3782915406e+00 
46300 5.3644898523e+00 -1.8210931937e-07 1.3731072612e+00 -2.3782915406e+00 1.3731072612e+00 2.3782915406e+00 
46400 5.3644898504e+00 -1.8378110849e-07 1.3731072612e+00 -2.3782915406e+00 1.3731072612e+00 2.3782915406e+00 
46500 5.3644898485e+00 -1.8546828558e-07 1.3731072612e+00 -2.3782915406e+00 1.3731072612e+00 2.3782915406e+00 
46600 5.3644898466e+00 -1.8717099282e-07 1.3731072612e+00 -2.3782915406e+00 1.3731072612e+00 2.3782915406e+00 
46700 5.3644898447e+00 -1.8888937376e-07 1.3731072612e+00 -2.3782915406e+00 1.3731072612e+00 2.3782915406e+00 
46800 5.3644898428e+00 -1.9062357323e-07 1.3731072612e+00 -2.3782915406e+00 1.3731072612e+00 2.3782915406e+00 
46900 5.3644898409e+00 -1.9237373746e-07 1.3731072612e+00 -2.3782915406e+00 1.3731072612e+00 2.3782915406e+00 
47000 5.3644898389e+00 -1.9414001399e-07 1.3731072612e+00 -2.3782915406e+00 1.3731072612e+00 2.3782915406e+00 
47100 5.3644898369e+00 -1.9592255176e-07 1.3731072612e+00 -2.3782915406e+00 1.3731072612e+00 2.3782915406e+00 
47200 5.3644898349e+00 -1.9772150109e-07 1.3731072612e+00 -2.3782915406e+00 1.3731072612e+00 2.3782915406e+00 
47300 5.3644898329e+00 -1.9953701371e-07 1.3731072612e+00 -2.3782915406e+00 1.3731072612e+00 2.3782915406e+00 
47400 5.3644898308e+00 -2.0136924273e-07 1.3731072612e+00 -2.3782915406e+00 1.3731072612e+00 2.3782915406e+00 
47500 5.3644898288e+00 -2.0321834271e-07 1.3731072612e+00 -2.3782915406e+00 1.3731072612e+00 2.3782915406e+00 
47600 5.3644898267e+00 -2.0508446965e-07 1.3731072612e+00 -2.3782915406e+00 1.3731072612e+00 2.3782915406e+00 
47700 5.3644898246e+00 -2.0696778098e-07 1.3731072612e+00 -2.3782915406e+00 1.3731072612e+00 2.3782915406e+00 
47800 5.3644898225e+00 -2.0886843560e-07 1.3731072612e+00 -2.3782915406e+00 1.3731072612e+00 2.3782915406e+00 
47900 5.3644898204e+00 -2.1078659392e-07 1.3731072612e+00 -2.3782915406e+00 1.3731072612e+00 2.3782915406e+00 
48000 5.3644898182e+00 -2.1272241779e-07 1.3731072612e+00 -2.3782915406e+00 1.3731072612e+00 2.3782915406e+00 
48100 5.3644898160e+00 -2.1467607062e-07 1.3731072612e+00 -2.3782915406e+00 1.3731072612e+00 2.3782915406e+00 
48200 5.3644898138e+00 -2.1664771729e-07 1.3731072612e+00 -2.3782915406e+00 1.3731072612e+00 2.3782915406e+00 
48300 5.3644898116e+00 -2.1863752426e-07 1.3731072612e+00 -2.3782915406e+00 1.3731072612e+00 2.3782915406e+00 
48400 5.3644898094e+00 -2.2064565951e-07 1.3731072612e+00 -2.3782915406e+00 1.3731072612e+00 2.3782915406e+00 
48500 5.3644898071e+00 -2.2267229259e-07 1.3731072612e+00 -2.3782915406e+00 1.3731072612e+00 2.3782915406e+00 
48600 5.3644898049e+00 -2.2471759464e-07 1.3731072612e+00 -2.3782915406e+00 1.3731072612e+00 2.3782915406e+00 
48700 5.3644898026e+00 -2.2678173838e-07 1.3731072612e+00 -2.3782915406e+00 1.3731072612e+00 2.3782915406e+00 
48800 5.3644898002e+00 -2.2886489814e-07 1.3731072612e+00 -2.3782915406e+00 1.3731072612e+00 2.3782915406e+00 
48900 5.3644897979e+00 -2.3096724989e-07 1.3731072612e+00 -2.3782915406e+00 1.3731072612e+00 2.3782915406e+00 
49000 5.3644897955e+00 -2.3308897121e-07 1.3731072612e+00 -2.3782915406e+00 1.3731072612e+00 2.3782915406e+00 
49100 5.3644897932e+00 -2.3523024136e-07 1.3731072612e+00 -2.3782915406e+00 1.3731072612e+00 2.3782915406e+00 
49200 5.3644897907e+00 -2.3739124126e-07 1.3731072612e+00 -2.3782915406e+00 1.3731072612e+00 2.3782915406e+00 
49300 5.3644897883e+00 -2.3957215351e-07 1.3731072612e+00 -2.3782915406e+00 1.3731072612e+00 2.3782915406e+00 
49400 5.3644897859e+00 -2.4177316241e-07 1.3731072612e+00 -2.3782915406e+00 1.3731072612e+00 2.3782915406e+00 
49500 5.3644897834e+00 -2.4399445401e-07 1.3731072612e+00 -2.3782915406e+00 1.3731072612e+00 2.3782915406e+00 
49600 5.3644897809e+00 -2.4623621604e-07 1.3731072612e+00 -2.3782915406e+00 1.3731072612e+00 2.3782915406e+00 
49700 5.3644897784e+00 -2.4849863802e-07 1.3731072612e+00 -2.3782915406e+00 1.3731072612e+00 2.3782915406e+00 
49800 5.3644897758e+00 -2.5078191122e-07 1.3731072612e+00 -2.3782915406e+00 1.3731072612e+00 2.3782915406e+00 
49900 5.3644897733e+00 -2.5308622870e-07 1.3731072612e+00 -2.3782915406e+00 1.3731072612e+00 2.3782915406e+00 
50000 5.3644897707e+00 -2.5541178532e-07 1.3731072612e+00 -2.3782915406e+00 1.3731072612e+00 2.3782915406e+00 
50100 5.3644897681e+00 -2.5775877774e-07 1.3731072612e+00 -2.3782915406e+00 1.3731072612e+00 2.3782915406e+00 
50200 5.3644897654e+00 -2.6012740448e-07 1.3731072612e+00 -2.3782915406e+00 1.3731072612e+00 2.3782915406e+00 
50300 5.3644897628e+00 -2.6251786589e-07 1.3731072612e+00 -2.3782915406e+00 1.3731072612e+00 2.3782915406e+00 
50400 5.3644897601e+00 -2.6493036420e-07 1.3731072612e+00 -2.3782915406e+00 1.3731072612e+00 2.3782915406e+00 
50500 5.3644897574e+00 -2.6736510351e-07 1.3731072612e+00 -2.3782915406e+00 1.3731072612e+00 2.3782915406e+00 
50600 5.3644897546e+00 -2.6982228985e-07 1.3731072612e+00 -2.3782915406e+00 1.3731072612e+00 2.3782915406e+00 
50700 5.3644897519e+00 -2.7230213116e-07 1.3731072612e+00 -2.3782915406e+00 1.3731072612e+00 2.3782915406e+00 
50800 5.3644897491e+00 -2.7480483731e-07 1.3731072612e+00 -2.3782915406e+00 1.3731072612e+00 2.3782915406e+00 
50900 5.3644897463e+00 -2.7733062014e-07 1.3731072612e+00 -2.3782915406e+00 1.3731072612e+00 2.3782915406e+00 
51000 5.3644897434e+00 -2.7987969345e-07 1.3731072612e+00 -2.3782915406e+00 1.3731072612e+00 2.3782915406e+00 
51100 5.3644897406e+00 -2.8245227307e-07 1.3731072612e+00 -2.3782915406e+00 1.3731072612e+00 2.3782915406e+00 
51200 5.3644897377e+00 -2.8504857680e-07 1.3731072612e+00 -2.3782915406e+00 1.3731072612e+00 2.3782915406e+00 
51300 5.3644897348e+00 -2.8766882451e-07 1.3731072612e+00 -2.3782915406e+00 1.3731072612e+00 2.3782915406e+00 
51400 5.3644897318e+00 -2.9031323810e-07 1.3731072612e+00 -2.3782915406e+00 1.3731072612e+00 2.3782915406e+00 
51500 5.3644897288e+00 -2.9298204155e-07 1.3731072612e+00 -2.3782915406e+00 1.3731072612e+00 2.3782915406e+00 
51600 5.3644897258e+00 -2.9567546094e-07 1.3731072612e+00 -2.3782915406e+00 1.3731072612e+00 2.3782915406e+00 
51700 5.3644897228e+00 -2.9839372444e-07 1.3731072612e+00 -2.3782915406e+00 1.3731072612e+00 2.3782915406e+00 
51800 5.3644897198e+00 -3.0113706236e-07 1.3731072612e+00 -2.3782915406e+00 1.3731072612e+00 2.3782915406e+00 
51900 5.3644897167e+00 -3.0390570716e-07 1.3731072612e+00 -2.3782915406e+00 1.3731072612e+00 2.3782915406e+00 
52000 5.3644897136e+00 -3.0669989349e-07 1.3731072612e+00 -2.3782915406e+00 1.3731072612e+00 2.3782915406e+00 
52100 5.3644897104e+00 -3.0951985817e-07 1.3731072612e+00 -2.3782915406e+00 1.3731072612e+00 2.3782915406e+00 
52200 5.3644897072e+00 -3.1236584023e-07 1.3731072612e+00 -2.3782915406e+00 1.3731072612e+00 2.3782915406e+00 
52300 5.3644897040e+00 -3.1523808095e-07 1.3731072612e+00 -2.3782915406e+00 1.3731072612e+00 2.3782915406e+00 
52400 5.3644897008e+00 -3.1813682386e-07 1.3731072612e+00 -2.3782915406e+00 1.3731072612e+00 2.3782915406e+00 
52500 5.3644896976e+00 -3.2106231475e-07 1.3731072612e+00 -2.3782915406e+00 1.3731072612e+00 2.3782915406e+00 
52600 5.3644896943e+00 -3.2401480172e-07 1.3731072612e+00 -2.3782915406e+00 1.3731072612e+00 2.3782915406e+00 
52700 5.3644896909e+00 -3.2699453520e-07 1.3731072612e+00 -2.3782915406e+00 1.3731072612e+00 2.3782915406e+00 
52800 5.3644896876e+00 -3.3000176794e-07 1.3731072612e+00 -2.3782915406e+00 1.3731072612e+00 2.3782915406e+00 
52900 5.3644896842e+00 -3.3303675507e-07 1.3731072612e+00 -2.3782915406e+00 1.3731072612e+00 2.3782915406e+00 
53000 5.3644896808e+00 -3.3609975409e-07 1.3731072612e+00 -2.3782915406e+00 1.3731072612e+00 2.3782915406e+00 
53100 5.3644896774e+00 -3.3919102491e-07 1.3731072612e+00 -2.3782915406e+00 1.3731072612e+00 2.3782915406e+00 
53200 5.3644896739e+00 -3.4231082990e-07 1.3731072612e+00 -2.3782915406e+00 1.3731072612e+00 2.3782915406e+00 
53300 5.3644896704e+00 -3.4545943383e-07 1.3731072612e+00 -2.3782915406e+00 1.3731072612e+00 2.3782915406e+00 
53400 5.3644896668e+00 -3.4863710400e-07 1.3731072612e+00 -2.3782915406e+00 1.3731072612e+00 2.3782915406e+00 
53500 5.3644896633e+00 -3.5184411018e-07 1.3731072612e+00 -2.3782915406e+00 1.3731072612e+00 2.3782915406e+00 
53600 5.3644896596e+00 -3.5508072467e-07 1.3731072612e+00 -2.3782915406e+00 1.3731072612e+00 2.3782915406e+00 
53700 5.3644896560e+00 -3.5834722232e-07 1.3731072612e+00 -2.3782915406e+00 1.3731072612e+00 2.3782915406e+00 
53800 5.3644896523e+00 -3.6164388056e-07 1.3731072612e+00 -2.3782915406e+00 1.3731072612e+00 2.3782915406e+00 
53900 5.3644896486e+00 -3.6497097939e-07 1.3731072612e+00 -2.3782915406e+00 1.3731072612e+00 2.3782915406e+00 
54000 5.3644896449e+00 -3.6832880146e-07 1.3731072612e+00 -2.3782915406e+00 1.3731072612e+00 2.3782915406e+00 
54100 5.3644896411e+00 -3.7171763206e-07 1.3731072612e+00 -2.3782915406e+00 1.3731072612e+00 2.3782915406e+00 
54200 5.3644896373e+00 -3.7513775913e-07 1.3731072612e+00 -2.3782915406e+00 1.3731072612e+00 2.3782915406e+00 
54300 5.3644896334e+00 -3.7858947334e-07 1.3731072612e+00 -2.3782915406e+00 1.3731072612e+00 2.3782915406e+00 
54400 5.3644896296e+00 -3.8207306806e-07 1.3731072612e+00 -2.3782915406e+00 1.3731072612e+00 2.3782915406e+00 
54500 5.3644896256e+00 -3.8558883940e-07 1.3731072612e+00 -2.3782915406e+00 1.3731072612e+00 2.3782915406e+00 
54600 5.3644896217e+00 -3.8913708626e-07 1.3731072612e+00 -2.3782915406e+00 1.3731072612e+00 2.3782915406e+00 
54700 5.3644896177e+00 -3.9271811034e-07 1.3731072612e+00 -2.3782915406e+00 1.3731072612e+00 2.3782915406e+00 
54800 5.3644896137e+00 -3.9633221616e-07 1.3731072612e+00 -2.3782915406e+00 1.3731072612e+00 2.3782915406e+00 
54900 5.3644896096e+00 -3.9997971110e-07 1.3731072612e+00 -2.3782915406e+00 1.3731072612e+00 2.3782915406e+00 
55000 5.3644896055e+00 -4.0366090540e-07 1.3731072612e+00 -2.3782915406e+00 1.3731072612e+00 2.3782915406e+00 
55100 5.3644896014e+00 -4.0737611223e-07 1.3731072612e+00 -2.3782915406e+00 1.3731072612e+00 2.3782915406e+00 
55200 5.3644895972e+00 -4.1112564769e-07 1.3731072612e+00 -2.3782915406e+00 1.3731072612e+00 2.3782915406e+00 
55300 5.3644895930e+00 -4.1490983085e-07 1.3731072612e+00 -2.3782915406e+00 1.3731072612e+00 2.3782915406e+00 
55400 5.3644895887e+00 -4.1872898374e-07 1.3731072612e+00 -2.3782915406e+00 1.3731072612e+00 2.3782915406e+00 
55500 5.3644895844e+00 -4.2258343145e-07 1.3731072612e+00 -2.3782915406e+00 1.3731072612e+00 2.3782915406e+00 
55600 5.3644895801e+00 -4.2647350210e-07 1.3731072612e+00 -2.3782915406e+00 1.3731072612e+00 2.3782915406e+00 
55700 5.3644895757e+00 -4.3039952688e-07 1.3731072612e+00 -2.3782915406e+00 1.3731072612e+00 2.3782915406e+00 
55800 5.3644895713e+00 -4.3436184010e-07 1.3731072612e+00 -2.3782915406e+00 1.3731072612e+00 2.3782915406e+00 
55900 5.3644895668e+00 -4.3836077920e-07 1.3731072612e+00 -2.3782915406e+00 1.3731072612e+00 2.3782915406e+00 
56000 5.3644895623e+00 -4.4239668479e-07 1.3731072612e+00 -2.3782915406e+00 1.3731072612e+00 2.3782915406e+00 
56100 5.3644895578e+00 -4.4646990066e-07 1.3731072612e+00 -2.3782915406e+00 1.3731072612e+00 2.3782915406e+00 
56200 5.3644895532e+00 -4.5058077385e-07 1.3731072612e+00 -2.3782915406e+00 1.3731072612e+00 2.3782915406e+00 
56300 5.3644895486e+00 -4.5472965464e-07 1.3731072612e+00 -2.3782915406e+00 1.3731072612e+00 2.3782915406e+00 
56400 5.3644895439e+00 -4.5891689660e-07 1.3731072612e+00 -2.3782915406e+00 1.3731072612e+00 2.3782915406e+00 
56500 5.3644895392e+00 -4.6314285663e-07 1.3731072612e+00 -2.3782915406e+00 1.3731072612e+00 2.3782915406e+00 
56600 5.3644895344e+00 -4.6740789498e-07 1.3731072612e+00 -2.3782915406e+00 1.3731072612e+00 2.3782915406e+00 
56700 5.3644895296e+00 -4.7171237527e-07 1.3731072612e+00 -2.3782915406e+00 1.3731072612e+00 2.3782915406e+00 
56800 5.3644895248e+00 -4.7605666453e-07 1.3731072612e+00 -2.3782915406e+00 1.3731072612e+00 2.3782915406e+00 
56900 5.3644895199e+00 -4.8044113326e-07 1.3731072612e+00 -2.3782915406e+00 1.3731072612e+00 2.3782915406e+00 
57000 5.3644895149e+00 -4.8486615544e-07 1.3731072612e+00 -2.3782915406e+00 1.3731072612e+00 2.3782915406e+00 
57100 5.3644895100e+00 -4.8933210853e-07 1.3731072612e+00 -2.3782915406e+00 1.3731072612e+00 2.3782915406e+00 
57200 5.3644895049e+00 -4.9383937357e-07 1.3731072612e+00 -2.3782915406e+00 1.3731072612e+00 2.3782915406e+00 
57300 5.3644894999e+00 -4.9838833518e-07 1.3731072612e+00 -2.3782915406e+00 1.3731072612e+00 2.3782915406e+00 
57400 5.3644894947e+00 -5.0297938157e-07 1.3731072612e+00 -2.3782915406e+00 1.3731072612e+00 2.3782915406e+00 
57500 5.3644894896e+00 -5.0761290461e-07 1.3731072612e+00 -2.3782915406e+00 1.3731072612e+00 2.3782915406e+00 
57600 5.3644894844e+00 -5.1228929988e-07 1.3731072612e+00 -2.3782915406e+00 1.3731072612e+00 2.3782915406e+00 
57700 5.3644894791e+00 -5.1700896664e-07 1.3731072612e+00 -2.3782915406e+00 1.3731072612e+00 2.3782915406e+00 
57800 5.3644894738e+00 -5.2177230792e-07 1.3731072612e+00 -2.3782915406e+00 1.3731072612e+00 2.3782915406e+00 
57900 5.3644894684e+00 -5.2657973055e-07 1.3731072612e+00 -2.3782915406e+00 1.3731072612e+00 2.3782915406e+00 
58000 5.3644894630e+00 -5.3143164518e-07 1.3731072612e+00 -2.3782915406e+00 1.3731072612e+00 2.3782915406e+00 
58100 5.3644894575e+00 -5.3632846632e-07 1.3731072612e+00 -2.3782915406e+00 1.3731072612e+00 2.3782915406e+00 
58200 5.3644894520e+00 -5.4127061237e-07 1.3731072612e+00 -2.3782915406e+00 1.3731072612e+00 2.3782915406e+00 
58300 5.3644894464e+00 -5.4625850570e-07 1.3731072612e+00 -2.3782915406e+00 1.3731072612e+00 2.3782915406e+00 
58400 5.3644894408e+00 -5.5129257261e-07 1.3731072612e+00 -2.3782915406e+00 1.3731072612e+00 2.3782915406e+00 
58500 5.3644894352e+00 -5.5637324345e-07 1.3731072612e+00 -2.3782915406e+00 1.3731072612e+00 2.3782915406e+00 
58600 5.3644894294e+00 -5.6150095261e-07 1.3731072612e+00 -2.3782915406e+00 1.3731072612e+00 2.3782915406e+00 
58700 5.3644894237e+00 -5.6667613855e-07 1.3731072612e+00 -2.3782915406e+00 1.3731072612e+00 2.3782915406e+00 
58800 5.3644894178e+00 -5.7189924389e-07 1.3731072612e+00 -2.3782915406e+00 1.3731072612e+00 2.3782915406e+00 
58900 5.3644894120e+00 -5.7717071540e-07 1.3731072612e+00 -2.3782915406e+00 1.3731072612e+00 2.3782915406e+00 
59000 5.3644894060e+00 -5.8249100406e-07 1.3731072612e+00 -2.3782915406e+00 1.3731072612e+00 2.3782915406e+00 
59100 5.3644894000e+00 -5.8786056510e-07 1.3731072612e+00 -2.3782915406e+00 1.3731072612e+00 2.3782915406e+00 
59200 5.3644893940e+00 -5.9327985804e-07 1.3731072612e+00 -2.3782915406e+00 1.3731072612e+00 2.3782915406e+00 
59300 5.3644893879e+00 -5.9874934673e-07 1.3731072612e+00 -2.3782915406e+00 1.3731072612e+00 2.3782915406e+00 
59400 5.3644893817e+00 -6.0426949938e-07 1.3731072612e+00 -2.3782915406e+00 1.3731072612e+00 2.3782915406e+00 
59500 5.3644893755e+00 -6.0984078864e-07 1.3731072612e+00 -2.3782915406e+00 1.3731072612e+00 2.3782915406e+00 
59600 5.3644893692e+00 -6.1546369158e-07 1.3731072612e+00 -2.3782915406e+00 1.3731072612e+00 2.3782915406e+00 
59700 5.3644893629e+00 -6.2113868979e-07 1.3731072612e+00 -2.3782915406e+00 1.3731072612e+00 2.3782915406e+00 
59800 5.3644893565e+00 -6.2686626941e-07 1.3731072612e+00 -2.3782915406e+00 1.3731072612e+00 2.3782915406e+00 
59900 5.3644893500e+00 -6.3264692114e-07 1.3731072612e+00 -2.3782915406e+00 1.3731072612e+00 2.3782915406e+00 
60000 5.3644893435e+00 -6.3848114032e-07 1.3731072612e+00 -2.3782915406e+00 1.3731072612e+00 2.3782915406e+00 
60100 5.3644893369e+00 -6.4436942697e-07 1.3731072612e+00 -2.3782915406e+00 1.3731072612e+00 2.3782915406e+00 
60200 5.3644893303e+00 -6.5031228581e-07 1.3731072612e+00 -2.3782915406e+00 1.3731072612e+00 2.3782915406e+00 
60300 5.3644893236e+00 -6.5631022635e-07 1.3731072612e+00 -2.3782915406e+00 1.3731072612e+00 2.3782915406e+00 
60400 5.3644893168e+00 -6.6236376287e-07 1.3731072612e+00 -2.3782915406e+00 1.3731072612e+00 2.3782915406e+00 
60500 5.3644893100e+00 -6.6847341455e-07 1.3731072612e+00 -2.3782915406e+00 1.3731072612e+00 2.3782915406e+00 
60600 5.3644893031e+00 -6.7463970542e-07 1.3731072612e+00 -2.3782915406e+00 1.3731072612e+00 2.3782915406e+00 
60700 5.3644892962e+00 -6.8086316451e-07 1.3731072612e+00 -2.3782915406e+00 1.3731072612e+00 2.3782915406e+00 
60800 5.3644892892e+00 -6.8714432581e-07 1.3731072612e+00 -2.3782915406e+00 1.3731072612e+00 2.3782915406e+00 
60900 5.3644892821e+00 -6.9348372836e-07 1.3731072612e+00 -2.3782915406e+00 1.3731072612e+00 2.3782915406e+00 
61000 5.3644892749e+00 -6.9988191630e-07 1.3731072612e+00 -2.3782915406e+00 1.3731072612e+00 2.3782915406e+00 
61100 5.3644892677e+00 -7.0633943891e-07 1.3731072612e+00 -2.3782915406e+00 1.3731072612e+00 2.3782915406e+00 
61200 5.3644892605e+00 -7.1285685066e-07 1.3731072612e+00 -2.3782915406e+00 1.3731072612e+00 2.3782915406e+00 
61300 5.3644892531e+00 -7.1943471124e-07 1.3731072612e+00 -2.3782915406e+00 1.3731072612e+00 2.3782915406e+00 
61400 5.3644892457e+00 -7.2607358566e-07 1.3731072612e+00 -2.3782915406e+00 1.3731072612e+00 2.3782915406e+00 
61500 5.3644892382e+00 -7.3277404426e-07 1.3731072612e+00 -2.3782915406e+00 1.3731072612e+00 2.3782915406e+00 
61600 5.3644892307e+00 -7.3953666276e-07 1.3731072612e+00 -2.3782915406e+00 1.3731072612e+00 2.3782915406e+00 
61700 5.3644892230e+00 -7.4636202235e-07 1.3731072612e+00 -2.3782915406e+00 1.3731072612e+00 2.3782915406e+00 
61800 5.3644892153e+00 -7.5325070968e-07 1.3731072612e+00 -2.3782915406e+00 1.3731072612e+00 2.3782915406e+00 
61900 5.3644892076e+00 -7.6020331700e-07 1.3731072612e+00 -2.3782915406e+00 1.3731072612e+00 2.3782915406e+00 
62000 5.3644891997e+00 -7.6722044211e-07 1.3731072612e+00 -2.3782915406e+00 1.3731072612e+00 2.3782915406e+00 
62100 5.3644891918e+00 -7.7430268849e-07 1.3731072612e+00 -2.3782915406e+00 1.3731072612e+00 2.3782915406e+00 
62200 5.3644891838e+00 -7.8145066535e-07 1.3731072612e+00 -2.3782915406e+00 1.3731072612e+00 2.3782915406e+00 
62300 5.3644891758e+00 -7.8866498764e-07 1.3731072612e+00 -2.3782915406e+00 1.3731072612e+00 2.3782915406e+00 
62400 5.3644891676e+00 -7.9594627613e-07 1.3731072612e+00 -2.3782915406e+00 1.3731072612e+00 2.3782915406e+00 
62500 5.3644891594e+00 -8.0329515749e-07 1.3731072612e+00 -2.3782915406e+00 1.3731072612e+00 2.3782915406e+00 
62600 5.3644891511e+00 -8.1071226430e-07 1.3731072612e+00 -2.3782915406e+00 1.3731072612e+00 2.3782915406e+00 
62700 5.3644891428e+00 -8.1819823515e-07 1.3731072612e+00 -2.3782915406e+00 1.3731072612e+00 2.3782915406e+00 
62800 5.3644891343e+00 -8.2575371468e-07 1.3731072612e+00 -2.3782915406e+00 1.3731072612e+00 2.3782915406e+00 
62900 5.3644891258e+00 -8.3337935362e-07 1.3731072612e+00 -2.3782915406e+00 1.3731072612e+00 2.3782915406e+00 
63000 5.3644891172e+00 -8.4107580888e-07 1.3731072612e+00 -2.3782915406e+00 1.3731072612e+00 2.3782915406e+00 
63100 5.3644891085e+00 -8.4884374359e-07 1.3731072612e+00 -2.3782915406e+00 1.3731072612e+00 2.3782915406e+00 
63200 5.3644890998e+00 -8.5668382718e-07 1.3731072612e+00 -2.3782915406e+00 1.3731072612e+00 2.3782915406e+00 
63300 5.3644890909e+00 -8.6459673540e-07 1.3731072612e+00 -2.3782915406e+00 1.3731072612e+00 2.3782915406e+00 
63400 5.3644890820e+00 -8.7258315043e-07 1.3731072612e+00 -2.3782915406e+00 1.3731072612e+00 2.3782915406e+00 
63500 5.3644890730e+00 -8.8064376091e-07 1.3731072612e+00 -2.3782915406e+00 1.3731072612e+00 2.3782915406e+00 
63600 5.3644890639e+00 -8.8877926202e-07 1.3731072612e+00 -2.3782915406e+00 1.3731072612e+00 2.3782915406e+00 
63700 5.3644890547e+00 -8.9699035553e-07 1.3731072612e+00 -2.3782915406e+00 1.3731072612e+00 2.3782915406e+00 
63800 5.3644890454e+00 -9.0527774986e-07 1.3731072612e+00 -2.3782915406e+00 1.3731072612e+00 2.3782915406e+00 
63900 5.3644890361e+00 -9.1364216018e-07 1.3731072612e+00 -2.3782915406e+00 1.3731072612e+00 2.3782915406e+00 
64000 5.3644890266e+00 -9.2208430842e-07 1.3731072612e+00 -2.3782915406e+00 1.3731072612e+00 2.3782915406e+00 
64100 5.3644890171e+00 -9.3060492338e-07 1.3731072612e+00 -2.3782915406e+00 1.3731072612e+00 2.3782915406e+00 
64200 5.3644890075e+00 -9.3920474078e-07 1.3731072612e+00 -2.3782915406e+00 1.3731072612e+00 2.3782915406e+00 
64300 5.3644889978e+00 -9.4788450331e-07 1.3731072612e+00 -2.3782915406e+00 1.3731072612e+00 2.3782915406e+00 
64400 5.3644889880e+00 -9.5664496073e-07 1.3731072612e+00 -2.3782915406e+00 1.3731072612e+00 2.3782915406e+00 
64500 5.3644889781e+00 -9.6548686993e-07 1.3731072612e+00 -2.3782915406e+00 1.3731072612e+00 2.3782915406e+00 
64600 5.3644889681e+00 -9.7441099498e-07 1.3731072612e+00 -2.3782915406e+00 1.3731072612e+00 2.3782915406e+00 
64700 5.3644889581e+00 -9.8341810721e-07 1.3731072612e+00 -2.3782915406e+00 1.3731072612e+00 2.3782915406e+00 
64800 5.3644889479e+00 -9.9250898530e-07 1.3731072612e+00 -2.3782915406e+00 1.3731072612e+00 2.3782915406e+00 
64900 5.3644889376e+00 -1.0016844153e-06 1.3731072612e+00 -2.3782915406e+00 1.3731072612e+00 2.3782915406e+00 
65000 5.3644889273e+00 -1.0109451908e-06 1.3731072612e+00 -2.3782915406e+00 1.3731072612e+00 2.3782915406e+00 
65100 5.3644889168e+00 -1.0202921128e-06 1.3731072612e+00 -2.3782915406e+00 1.3731072612e+00 2.3782915406e+00 
65200 5.3644889063e+00 -1.0297259901e-06 1.3731072612e+00 -2.3782915406e+00 1.3731072612e+00 2.3782915406e+00 
65300 5.3644888956e+00 -1.0392476390e-06 1.3731072612e+00 -2.3782915406e+00 1.3731072612e+00 2.3782915406e+00 
65400 5.3644888849e+00 -1.0488578838e-06 1.3731072612e+00 -2.3782915406e+00 1.3731072612e+00 2.3782915406e+00 
65500 5.3644888740e+00 -1.0585575565e-06 1.3731072612e+00 -2.3782915406e+00 1.3731072612e+00 2.3782915406e+00 
65600 5.3644888631e+00 -1.0683474970e-06 1.3731072612e+00 -2.3782915406e+00 1.3731072612e+00 2.3782915406e+00 
65700 5.3644888520e+00 -1.0782285532e-06 1.3731072612e+00 -2.3782915406e+00 1.3731072612e+00 2.3782915406e+00 
65800 5.3644888408e+00 -1.0882015812e-06 1.3731072612e+00 -2.3782915406e+00 1.3731072612e+00 2.3782915406e+00 
65900 5.3644888296e+00 -1.0982674451e-06 1.3731072612e+00 -2.3782915406e+00 1.3731072612e+00 2.3782915406e+00 
66000 5.3644888182e+00 -1.1084270173e-06 1.3731072612e+00 -2.3782915406e+00 1.3731072612e+00 2.3782915406e+00 
66100 5.3644888067e+00 -1.1186811786e-06 1.3731072612e+00 -2.3782915406e+00 1.3731072612e+00 2.3782915406e+00 
66200 5.3644887952e+00 -1.1290308180e-06 1.3731072612e+00 -2.3782915406e+00 1.3731072612e+00 2.3782915406e+00 
66300 5.3644887835e+00 -1.1394768331e-06 1.3731072612e+00 -2.3782915406e+00 1.3731072612e+00 2.3782915406e+00 
66400 5.3644887717e+00 -1.1500201300e-06 1.3731072612e+00 -2.3782915406e+00 1.3731072612e+00 2.3782915406e+00 
66500 5.3644887598e+00 -1.1606616236e-06 1.3731072612e+00 -2.3782915406e+00 1.3731072612e+00 2.3782915406e+00 
66600 5.3644887477e+00 -1.1714022373e-06 1.3731072612e+00 -2.3782915406e+00 1.3731072612e+00 2.3782915406e+00 
66700 5.3644887356e+00 -1.1822429035e-06 1.3731072612e+00 -2.3782915406e+00 1.3731072612e+00 2.3782915406e+00 
66800 5.3644887234e+00 -1.1931845633e-06 1.3731072612e+00 -2.3782915406e+00 1.3731072612e+00 2.3782915406e+00 
66900 5.3644887110e+00 -1.2042281669e-06 1.3731072612e+00 -2.3782915406e+00 1.3731072612e+00 2.3782915406e+00 
67000 5.3644886985e+00 -1.2153746737e-06 1.3731072612e+00 -2.3782915406e+00 1.3731072612e+00 2.3782915406e+00 
67100 5.3644886859e+00 -1.2266250519e-06 1.3731072612e+00 -2.3782915406e+00 1.3731072612e+00 2.3782915406e+00 
67200 5.3644886732e+00 -1.2379802793e-06 1.3731072612e+00 -2.3782915406e+00 1.3731072612e+00 2.3782915406e+00 
67300 5.3644886604e+00 -1.2494413429e-06 1.3731072612e+00 -2.3782915406e+00 1.3731072612e+00 2.3782915406e+00 
67400 5.3644886474e+00 -1.2610092392e-06 1.3731072612e+00 -2.3782915406e+00 1.3731072612e+00 2.3782915406e+00 
67500 5.3644886344e+00 -1.2726849739e-06 1.3731072612e+00 -2.3782915406e+00 1.3731072612e+00 2.3782915406e+00 
67600 5.3644886212e+00 -1.2844695629e-06 1.3731072612e+00 -2.3782915406e+00 1.3731072612e+00 2.3782915406e+00 
67700 5.3644886078e+00 -1.2963640312e-06 1.3731072612e+00 -2.3782915406e+00 1.3731072612e+00 2.3782915406e+00 
67800 5.3644885944e+00 -1.3083694140e-06 1.3731072612e+00 -2.3782915406e+00 1.3731072612e+00 2.3782915406e+00 
67900 5.3644885808e+00 -1.3204867562e-06 1.3731072612e+00 -2.3782915406e+00 1.3731072612e+00 2.3782915406e+00 
68000 5.3644885671e+00 -1.3327171128e-06 1.3731072612e+00 -2.3782915406e+00 1.3731072612e+00 2.3782915406e+00 
68100 5.3644885533e+00 -1.3450615489e-06 1.3731072612e+00 -2.3782915406e+00 1.3731072612e+00 2.3782915406e+00 
68200 5.3644885393e+00 -1.3575211397e-06 1.3731072612e+00 -2.3782915406e+00 1.3731072612e+00 2.3782915406e+00 
68300 5.3644885253e+00 -1.3700969708e-06 1.3731072612e+00 -2.3782915406e+00 1.3731072612e+00 2.3782915406e+00 
68400 5.3644885110e+00 -1.3827901381e-06 1.3731072612e+00 -2.3782915406e+00 1.3731072612e+00 2.3782915406e+00 
68500 5.3644884967e+00 -1.3956017480e-06 1.3731072612e+00 -2.3782915406e+00 1.3731072612e+00 2.3782915406e+00 
68600 5.3644884822e+00 -1.4085329175e-06 1.3731072612e+00 -2.3782915406e+00 1.3731072612e+00 2.3782915406e+00 
68700 5.3644884676e+00 -1.4215847744e-06 1.3731072612e+00 -2.3782915406e+00 1.3731072612e+00 2.3782915406e+00 
68800 5.3644884528e+00 -1.4347584571e-06 1.3731072612e+00 -2.3782915406e+00 1.3731072612e+00 2.3782915406e+00 
68900 5.3644884379e+00 -1.4480551152e-06 1.3731072612e+00 -2.3782915406e+00 1.3731072612e+00 2.3782915406e+00 
69000 5.3644884229e+00 -1.4614759090e-06 1.3731072612e+00 -2.3782915406e+00 1.3731072612e+00 2.3782915406e+00 
69100 5.3644884077e+00 -1.4750220102e-06 1.3731072612e+00 -2.3782915406e+00 1.3731072612e+00 2.3782915406e+00 
69200 5.3644883924e+00 -1.4886946015e-06 1.3731072612e+00 -2.3782915406e+00 1.3731072612e+00 2.3782915406e+00 
69300 5.3644883769e+00 -1.5024948771e-06 1.3731072612e+00 -2.3782915406e+00 1.3731072612e+00 2.3782915406e+00 
69400 5.3644883613e+00 -1.5164240426e-06 1.3731072612e+00 -2.3782915406e+00 1.3731072612e+00 2.3782915406e+00 
69500 5.3644883456e+00 -1.5304833152e-06 1.3731072612e+00 -2.3782915406e+00 1.3731072612e+00 2.3782915406e+00 
69600 5.3644883296e+00 -1.5446739237e-06 1.3731072612e+00 -2.3782915406e+00 1.3731072612e+00 2.3782915406e+00 
69700 5.3644883136e+00 -1.5589971088e-06 1.3731072612e+00 -2.3782915406e+00 1.3731072612e+00 2.3782915406e+00 
69800 5.3644882974e+00 -1.5734541231e-06 1.3731072612e+00 -2.3782915406e+00 1.3731072612e+00 2.3782915406e+00 
69900 5.3644882810e+00 -1.5880462311e-06 1.3731072612e+00 -2.3782915406e+00 1.3731072612e+00 2.3782915406e+00 
70000 5.3644882645e+00 -1.6027747097e-06 1.3731072612e+00 -2.3782915406e+00 1.3731072612e+00 2.3782915406e+00 
70100 5.3644882479e+00 -1.6176408477e-06 1.3731072612e+00 -2.3782915406e+00 1.3731072612e+00 2.3782915406e+00 
70200 5.3644882310e+00 -1.6326459467e-06 1.3731072612e+00 -2.3782915406e+00 1.3731072612e+00 2.3782915406e+00 
70300 5.3644882140e+00 -1.6477913204e-06 1.3731072612e+00 -2.3782915406e+00 1.3731072612e+00 2.3782915406e+00 
70400 5.3644881969e+00 -1.6630782956e-06 1.3731072612e+00 -2.3782915406e+00 1.3731072612e+00 2.3782915406e+00 
70500 5.3644881796e+00 -1.6785082114e-06 1.3731072612e+00 -2.3782915406e+00 1.3731072612e+00 2.3782915406e+00 
70600 5.3644881621e+00 -1.6940824200e-06 1.3731072612e+00 -2.3782915406e+00 1.3731072612e+00 2.3782915406e+00 
70700 5.3644881445e+00 -1.7098022866e-06 1.3731072612e+00 -2.3782915406e+00 1.3731072612e+00 2.3782915406e+00 
70800 5.3644881267e+00 -1.7256691896e-06 1.3731072612e+00 -2.3782915406e+00 1.3731072612e+00 2.3782915406e+00 
70900 5.3644881088e+00 -1.7416845205e-06 1.3731072612e+00 -2.3782915406e+00 1.3731072612e+00 2.3782915406e+00 
71000 5.3644880906e+00 -1.7578496844e-06 1.3731072612e+00 -2.3782915406e+00 1.3731072612e+00 2.3782915406e+00 
71100 5.3644880723e+00 -1.7741660998e-06 1.3731072612e+00 -2.3782915406e+00 1.3731072612e+00 2.3782915406e+00 
71200 5.3644880538e+00 -1.7906351987e-06 1.3731072612e+00 -2.3782915406e+00 1.3731072612e+00 2.3782915406e+00 
71300 5.3644880352e+00 -1.8072584274e-06 1.3731072612e+00 -2.3782915406e+00 1.3731072612e+00 2.3782915406e+00 
71400 5.3644880164e+00 -1.8240372455e-06 1.3731072612e+00 -2.3782915406e+00 1.3731072612e+00 2.3782915406e+00 
71500 5.3644879974e+00 -1.8409731273e-06 1.3731072612e+00 -2.3782915406e+00 1.3731072612e+00 2.3782915406e+00 
71600 5.3644879782e+00 -1.8580675608e-06 1.3731072612e+00 -2.3782915406e+00 1.3731072612e+00 2.3782915406e+00 
71700 5.3644879588e+00 -1.8753220486e-06 1.3731072612e+00 -2.3782915406e+00 1.3731072612e+00 2.3782915406e+00 
71800 5.3644879393e+00 -1.8927381078e-06 1.3731072612e+00 -2.3782915406e+00 1.3731072612e+00 2.3782915406e+00 
71900 5.3644879196e+00 -1.9103172700e-06 1.3731072612e+00 -2.3782915406e+00 1.3731072612e+00 2.3782915406e+00 
72000 5.3644878997e+00 -1.9280610818e-06 1.3731072612e+00 -2.3782915406e+00 1.3731072612e+00 2.3782915406e+00 
72100 5.3644878796e+00 -1.9459711045e-06 1.3731072612e+00 -2.3782915406e+00 1.3731072612e+00 2.3782915406e+00 
72200 5.3644878593e+00 -1.9640489146e-06 1.3731072612e+00 -2.3782915406e+00 1.3731072612e+00 2.3782915406e+00 
72300 5.3644878388e+00 -1.9822961039e-06 1.3731072612e+00 -2.3782915406e+00 1.3731072612e+00 2.3782915406e+00 
72400 5.3644878181e+00 -2.0007142793e-06 1.3731072612e+00 -2.3782915406e+00 1.3731072612e+00 2.3782915406e+00 
72500 5.3644877972e+00 -2.0193050636e-06 1.3731072612e+00 -2.3782915406e+00 1.3731072612e+00 2.3782915406e+00 
72600 5.3644877762e+00 -2.0380700950e-06 1.3731072612e+00 -2.3782915406e+00 1.3731072612e+00 2.3782915406e+00 
72700 5.3644877549e+00 -2.0570110276e-06 1.3731072612e+00 -2.3782915406e+00 1.3731072612e+00 2.3782915406e+00 
72800 5.3644877334e+00 -2.0761295316e-06 1.3731072612e+00 -2.3782915406e+00 1.3731072612e+00 2.3782915406e+00 
72900 5.3644877118e+00 -2.0954272933e-06 1.3731072612e+00 -2.3782915406e+00 1.3731072612e+00 2.3782915406e+00 
73000 5.3644876899e+00 -2.1149060153e-06 1.3731072612e+00 -2.3782915406e+00 1.3731072612e+00 2.3782915406e+00 
73100 5.3644876678e+00 -2.1345674166e-06 1.3731072612e+00 -2.3782915406e+00 1.3731072612e+00 2.3782915406e+00 
73200 5.3644876455e+00 -2.1544132330e-06 1.3731072612e+00 -2.3782915406e+00 1.3731072612e+00 2.3782915406e+00 
73300 5.3644876230e+00 -2.1744452170e-06 1.3731072612e+00 -2.3782915406e+00 1.3731072612e+00 2.3782915406e+00 
73400 5.3644876003e+00 -2.1946651381e-06 1.3731072612e+00 -2.3782915406e+00 1.3731072612e+00 2.3782915406e+00 
73500 5.3644875774e+00 -2.2150747830e-06 1.3731072612e+00 -2.3782915406e+00 1.3731072612e+00 2.3782915406e+00 
73600 5.3644875543e+00 -2.2356759555e-06 1.3731072612e+00 -2.3782915406e+00 1.3731072612e+00 2.3782915406e+00 
73700 5.3644875309e+00 -2.2564704773e-06 1.3731072612e+00 -2.3782915406e+00 1.3731072612e+00 2.3782915406e+00 
73800 5.3644875073e+00 -2.2774601873e-06 1.3731072612e+00 -2.3782915406e+00 1.3731072612e+00 2.3782915406e+00 
73900 5.3644874835e+00 -2.2986469425e-06 1.3731072612e+00 -2.3782915406e+00 1.3731072612e+00 2.3782915406e+00 
74000 5.3644874595e+00 -2.3200326179e-06 1.3731072612e+00 -2.3782915406e+00 1.3731072612e+00 2.3782915406e+00 
74100 5.3644874352e+00 -2.3416191066e-06 1.3731072612e+00 -2.3782915406e+00 1.3731072612e+00 2.3782915406e+00 
74200 5.3644874108e+00 -2.3634083201e-06 1.3731072612e+00 -2.3782915406e+00 1.3731072612e+00 2.3782915406e+00 
74300 5.3644873860e+00 -2.3854021886e-06 1.3731072612e+00 -2.3782915406e+00 1.3731072612e+00 2.3782915406e+00 
74400 5.3644873611e+00 -2.4076026609e-06 1.3731072612e+00 -2.3782915406e+00 1.3731072612e+00 2.3782915406e+00 
74500 5.3644873359e+00 -2.4300117046e-06 1.3731072612e+00 -2.3782915406e+00 1.3731072612e+00 2.3782915406e+00 
74600 5.3644873105e+00 -2.4526313068e-06 1.3731072612e+00 -2.3782915406e+00 1.3731072612e+00 2.3782915406e+00 
74700 5.3644872848e+00 -2.4754634736e-06 1.3731072612e+00 -2.3782915406e+00 1.3731072612e+00 2.3782915406e+00 
74800 5.3644872589e+00 -2.4985102306e-06 1.3731072612e+00 -2.3782915406e+00 1.3731072612e+00 2.3782915406e+00 
74900 5.3644872328e+00 -2.5217736234e-06 1.3731072612e+00 -2.3782915406e+00 1.3731072612e+00 2.3782915406e+00 
75000 5.3644872064e+00 -2.5452557171e-06 1.3731072612e+00 -2.3782915406e+00 1.3731072612e+00 2.3782915406e+00 
75100 5.3644871797e+00 -2.5689585972e-06 1.3731072612e+00 -2.3782915406e+00 1.3731072612e+00 2.3782915406e+00 
75200 5.3644871528e+00 -2.5928843693e-06 1.3731072612e+00 -2.3782915406e+00 1.3731072612e+00 2.3782915406e+00 
75300 5.3644871257e+00 -2.6170351597e-06 1.3731072612e+00 -2.3782915406e+00 1.3731072612e+00 2.3782915406e+00 
75400 5.3644870982e+00 -2.6414131153e-06 1.3731072612e+00 -2.3782915406e+00 1.3731072612e+00 2.3782915406e+00 
75500 5.3644870706e+00 -2.6660204037e-06 1.3731072612e+00 -2.3782915406e+00 1.3731072612e+00 2.3782915406e+00 
75600 5.3644870426e+00 -2.6908592141e-06 1.3731072612e+00 -2.3782915406e+00 1.3731072612e+00 2.3782915406e+00 
75700 5.3644870144e+00 -2.7159317566e-06 1.3731072612e+00 -2.3782915406e+00 1.3731072612e+00 2.3782915406e+00 
75800 5.3644869860e+00 -2.7412402630e-06 1.3731072612e+00 -2.3782915406e+00 1.3731072612e+00 2.3782915406e+00 
75900 5.3644869572e+00 -2.7667869870e-06 1.3731072612e+00 -2.3782915406e+00 1.3731072612e+00 2.3782915406e+00 
76000 5.3644869282e+00 -2.7925742041e-06 1.3731072612e+00 -2.3782915406e+00 1.3731072612e+00 2.3782915406e+00 
76100 5.3644868989e+00 -2.8186042121e-06 1.3731072612e+00 -2.3782915406e+00 1.3731072612e+00 2.3782915406e+00 
76200 5.3644868694e+00 -2.8448793312e-06 1.3731072612e+00 -2.3782915406e+00 1.3731072612e+00 2.3782915406e+00 
76300 5.3644868395e+00 -2.8714019042e-06 1.3731072612e+00 -2.3782915406e+00 1.3731072612e+00 2.3782915406e+00 
76400 5.3644868094e+00 -2.8981742969e-06 1.3731072612e+00 -2.3782915406e+00 1.3731072612e+00 2.3782915406e+00 
76500 5.3644867790e+00 -2.9251988982e-06 1.3731072612e+00 -2.3782915406e+00 1.3731072612e+00 2.3782915406e+00 
76600 5.3644867483e+00 -2.9524781201e-06 1.3731072612e+00 -2.3782915406e+00 1.3731072612e+00 2.3782915406e+00 
76700 5.3644867173e+00 -2.9800143986e-06 1.3731072612e+00 -2.3782915406e+00 1.3731072612e+00 2.3782915406e+00 
76800 5.3644866860e+00 -3.0078101932e-06 1.3731072612e+00 -2.3782915406e+00 1.3731072612e+00 2.3782915406e+00 
76900 5.3644866544e+00 -3.0358679876e-06 1.3731072612e+00 -2.3782915406e+00 1.3731072612e+00 2.3782915406e+00 
77000 5.3644866225e+00 -3.0641902897e-06 1.3731072612e+00 -2.3782915406e+00 1.3731072612e+00 2.3782915406e+00 
77100 5.3644865904e+00 -3.0927796320e-06 1.3731072612e+00 -2.3782915406e+00 1.3731072612e+00 2.3782915406e+00 
77200 5.3644865579e+00 -3.1216385719e-06 1.3731072612e+00 -2.3782915406e+00 1.3731072612e+00 2.3782915406e+00 
77300 5.3644865251e+00 -3.1507696917e-06 1.3731072612e+00 -2.3782915406e+00 1.3731072612e+00 2.3782915406e+00 
77400 5.3644864919e+00 -3.1801755991e-06 1.3731072612e+00 -2.3782915406e+00 1.3731072612e+00 2.3782915406e+00 
77500 5.3644864585e+00 -3.2098589271e-06 1.3731072612e+00 -2.3782915406e+00 1.3731072612e+00 2.3782915406e+00 
77600 5.3644864248e+00 -3.2398223350e-06 1.3731072612e+00 -2.3782915406e+00 1.3731072612e+00 2.3782915406e+00 
77700 5.3644863907e+00 -3.2700685077e-06 1.3731072612e+00 -2.3782915406e+00 1.3731072612e+00 2.3782915406e+00 
77800 5.3644863563e+00 -3.3006001566e-06 1.3731072612e+00 -2.3782915406e+00 1.3731072612e+00 2.3782915406e+00 
77900 5.3644863216e+00 -3.3314200199e-06 1.3731072612e+00 -2.3782915406e+00 1.3731072612e+00 2.3782915406e+00 
78000 5.3644862866e+00 -3.3625308625e-06 1.3731072612e+00 -2.3782915406e+00 1.3731072612e+00 2.3782915406e+00 
78100 5.3644862512e+00 -3.3939354762e-06 1.3731072612e+00 -2.3782915406e+00 1.3731072612e+00 2.3782915406e+00 
78200 5.3644862155e+00 -3.4256366808e-06 1.3731072612e+00 -2.3782915406e+00 1.3731072612e+00 2.3782915406e+00 
78300 5.3644861794e+00 -3.4576373233e-06 1.3731072612e+00 -2.3782915406e+00 1.3731072612e+00 2.3782915406e+00 
78400 5.3644861430e+00 -3.4899402789e-06 1.3731072612e+00 -2.3782915406e+00 1.3731072612e+00 2.3782915406e+00 
78500 5.3644861062e+00 -3.5225484510e-06 1.3731072612e+00 -2.3782915406e+00 1.3731072612e+00 2.3782915406e+00 
78600 5.3644860691e+00 -3.5554647716e-06 1.3731072612e+00 -2.3782915406e+00 1.3731072612e+00 2.3782915406e+00 
78700 5.3644860317e+00 -3.5886922016e-06 1.3731072612e+00 -2.3782915406e+00 1.3731072612e+00 2.3782915406e+00 
78800 5.3644859939e+00 -3.6222337308e-06 1.3731072612e+00 -2.3782915406e+00 1.3731072612e+00 2.3782915406e+00 
78900 5.3644859557e+00 -3.6560923788e-06 1.3731072612e+00 -2.3782915406e+00 1.3731072612e+00 2.3782915406e+00 
79000 5.3644859172e+00 -3.6902711945e-06 1.3731072612e+00 -2.3782915406e+00 1.3731072612e+00 2.3782915406e+00 
79100 5.3644858783e+00 -3.7247732573e-06 1.3731072612e+00 -2.3782915406e+00 1.3731072612e+00 2.3782915406e+00 
79200 5.3644858390e+00 -3.7596016765e-06 1.3731072612e+00 -2.3782915406e+00 1.3731072612e+00 2.3782915406e+00 
79300 5.3644857994e+00 -3.7947595924e-06 1.3731072612e+00 -2.3782915406e+00 1.3731072612e+00 2.3782915406e+00 
79400 5.3644857593e+00 -3.8302501761e-06 1.3731072612e+00 -2.3782915406e+00 1.3731072612e+00 2.3782915406e+00 
79500 5.3644857189e+00 -3.8660766300e-06 1.3731072612e+00 -2.3782915406e+00 1.3731072612e+00 2.3782915406e+00 
79600 5.3644856781e+00 -3.9022421880e-06 1.3731072612e+00 -2.3782915406e+00 1.3731072612e+00 2.3782915406e+00 
79700 5.3644856370e+00 -3.9387501162e-06 1.3731072612e+00 -2.3782915406e+00 1.3731072612e+00 2.3782915406e+00 
79800 5.3644855954e+00 -3.9756037126e-06 1.3731072612e+00 -2.3782915406e+00 1.3731072612e+00 2.3782915406e+00 
79900 5.3644855534e+00 -4.0128063081e-06 1.3731072612e+00 -2.3782915406e+00 1.3731072612e+00 2.3782915406e+00 
80000 5.3644855111e+00 -4.0503612662e-06 1.3731072612e+00 -2.3782915406e+00 1.3731072612e+00 2.3782915406e+00 
80100 5.3644854683e+00 -4.0882719840e-06 1.3731072612e+00 -2.3782915406e+00 1.3731072612e+00 2.3782915406e+00 
80200 5.3644854251e+00 -4.1265418918e-06 1.3731072612e+00 -2.3782915406e+00 1.3731072612e+00 2.3782915406e+00 
80300 5.3644853815e+00 -4.1651744542e-06 1.3731072612e+00 -2.3782915406e+00 1.3731072612e+00 2.3782915406e+00 
80400 5.3644853375e+00 -4.2041731698e-06 1.3731072612e+00 -2.3782915406e+00 1.3731072612e+00 2.3782915406e+00 
80500 5.3644852930e+00 -4.2435415720e-06 1.3731072612e+00 -2.3782915406e+00 1.3731072612e+00 2.3782915406e+00 
80600 5.3644852482e+00 -4.2832832291e-06 1.3731072612e+00 -2.3782915406e+00 1.3731072612e+00 2.3782915406e+00 
80700 5.3644852029e+00 -4.3234017448e-06 1.3731072612e+00 -2.3782915406e+00 1.3731072612e+00 2.3782915406e+00 
80800 5.3644851572e+00 -4.3639007585e-06 1.3731072612e+00 -2.3782915406e+00 1.3731072612e+00 2.3782915406e+00 
80900 5.3644851110e+00 -4.4047839456e-06 1.3731072612e+00 -2.3782915406e+00 1.3731072612e+00 2.3782915406e+00 
81000 5.3644850644e+00 -4.4460550180e-06 1.3731072612e+00 -2.3782915406e+00 1.3731072612e+00 2.3782915406e+00 
81100 5.3644850174e+00 -4.4877177245e-06 1.3731072612e+00 -2.3782915406e+00 1.3731072612e+00 2.3782915406e+00 
81200 5.3644849699e+00 -4.5297758510e-06 1.3731072612e+00 -2.3782915406e+00 1.3731072612e+00 2.3782915406e+00 
81300 5.3644849219e+00 -4.5722332210e-06 1.3731072612e+00 -2.3782915406e+00 1.3731072612e+00 2.3782915406e+00 
81400 5.3644848735e+00 -4.6150936959e-06 1.3731072612e+00 -2.3782915406e+00 1.3731072612e+00 2.3782915406e+00 
81500 5.3644848246e+00 -4.6583611757e-06 1.3731072612e+00 -2.3782915406e+00 1.3731072612e+00 2.3782915406e+00 
81600 5.3644847753e+00 -4.7020395989e-06 1.3731072612e+00 -2.3782915406e+00 1.3731072612e+00 2.3782915406e+00 
81700 5.3644847254e+00 -4.7461329432e-06 1.3731072612e+00 -2.3782915406e+00 1.3731072612e+00 2.3782915406e+00 
81800 5.3644846751e+00 -4.7906452261e-06 1.3731072612e+00 -2.3782915406e+00 1.3731072612e+00 2.3782915406e+00 
81900 5.3644846244e+00 -4.8355805047e-06 1.3731072612e+00 -2.3782915406e+00 1.3731072612e+00 2.3782915406e+00 
82000 5.3644845731e+00 -4.8809428767e-06 1.3731072612e+00 -2.3782915406e+00 1.3731072612e+00 2.3782915406e+00 
82100 5.3644845213e+00 -4.9267364807e-06 1.3731072612e+00 -2.3782915406e+00 1.3731072612e+00 2.3782915406e+00 
82200 5.3644844691e+00 -4.9729654962e-06 1.3731072612e+00 -2.3782915406e+00 1.3731072612e+00 2.3782915406e+00 
82300 5.3644844163e+00 -5.0196341447e-06 1.3731072612e+00 -2.3782915406e+00 1.3731072612e+00 2.3782915406e+00 
82400 5.3644843631e+00 -5.0667466895e-06 1.3731072612e+00 -2.3782915406e+00 1.3731072612e+00 2.3782915406e+00 
82500 5.3644843093e+00 -5.1143074365e-06 1.3731072612e+00 -2.3782915406e+00 1.3731072612e+00 2.3782915406e+00 
82600 5.3644842550e+00 -5.1623207347e-06 1.3731072612e+00 -2.3782915406e+00 1.3731072612e+00 2.3782915406e+00 
82700 5.3644842002e+00 -5.2107909764e-06 1.3731072612e+00 -2.3782915406e+00 1.3731072612e+00 2.3782915406e+00 
82800 5.3644841449e+00 -5.2597225976e-06 1.3731072612e+00 -2.3782915406e+00 1.3731072612e+00 2.3782915406e+00 
82900 5.3644840890e+00 -5.3091200789e-06 1.3731072612e+00 -2.3782915406e+00 1.3731072612e+00 2.3782915406e+00 
83000 5.3644840326e+00 -5.3589879454e-06 1.3731072612e+00 -2.3782915406e+00 1.3731072612e+00 2.3782915406e+00 
83100 5.3644839756e+00 -5.4093307675e-06 1.3731072612e+00 -2.3782915406e+00 1.3731072612e+00 2.3782915406e+00 
83200 5.3644839181e+00 -5.4601531615e-06 1.3731072612e+00 -2.3782915406e+00 1.3731072612e+00 2.3782915406e+00 
83300 5.3644838601e+00 -5.5114597896e-06 1.3731072612e+00 -2.3782915406e+00 1.3731072612e+00 2.3782915406e+00 
83400 5.3644838015e+00 -5.5632553608e-06 1.3731072612e+00 -2.3782915406e+00 1.3731072612e+00 2.3782915406e+00 
83500 5.3644837423e+00 -5.6155446312e-06 1.3731072612e+00 -2.3782915406e+00 1.3731072612e+00 2.3782915406e+00 
83600 5.3644836826e+00 -5.6683324047e-06 1.3731072612e+00 -2.3782915406e+00 1.3731072612e+00 2.3782915406e+00 
83700 5.3644836222e+00 -5.7216235331e-06 1.3731072612e+00 -2.3782915406e+00 1.3731072612e+00 2.3782915406e+00 
83800 5.3644835613e+00 -5.7754229168e-06 1.3731072612e+00 -2.3782915406e+00 1.3731072612e+00 2.3782915406e+00 
83900 5.3644834998e+00 -5.8297355057e-06 1.3731072612e+00 -2.3782915406e+00 1.3731072612e+00 2.3782915406e+00 
84000 5.3644834378e+00 -5.8845662989e-06 1.3731072612e+00 -2.3782915406e+00 1.3731072612e+00 2.3782915406e+00 
84100 5.3644833751e+00 -5.9399203460e-06 1.3731072612e+00 -2.3782915406e+00 1.3731072612e+00 2.3782915406e+00 
84200 5.3644833118e+00 -5.9958027473e-06 1.3731072612e+00 -2.3782915406e+00 1.3731072612e+00 2.3782915406e+00 
84300 5.3644832479e+00 -6.0522186540e-06 1.3731072612e+00 -2.3782915406e+00 1.3731072612e+00 2.3782915406e+00 
84400 5.3644831834e+00 -6.1091732695e-06 1.3731072612e+00 -2.3782915406e+00 1.3731072612e+00 2.3782915406e+00 
84500 5.3644831183e+00 -6.1666718491e-06 1.3731072612e+00 -2.3782915406e+00 1.3731072612e+00 2.3782915406e+00 
84600 5.3644830525e+00 -6.2247197013e-06 1.3731072612e+00 -2.3782915406e+00 1.3731072612e+00 2.3782915406e+00 
84700 5.3644829861e+00 -6.2833221878e-06 1.3731072612e+00 -2.3782915406e+00 1.3731072612e+00 2.3782915406e+00 
84800 5.3644829191e+00 -6.3424847244e-06 1.3731072612e+00 -2.3782915406e+00 1.3731072612e+00 2.3782915406e+00 
84900 5.3644828514e+00 -6.4022127812e-06 1.3731072612e+00 -2.3782915406e+00 1.3731072612e+00 2.3782915406e+00 
85000 5.3644827831e+00 -6.4625118837e-06 1.3731072612e+00 -2.3782915406e+00 1.3731072612e+00 2.3782915406e+00 
85100 5.3644827141e+00 -6.5233876129e-06 1.3731072612e+00 -2.3782915406e+00 1.3731072612e+00 2.3782915406e+00 
85200 5.3644826444e+00 -6.5848456062e-06 1.3731072612e+00 -2.3782915406e+00 1.3731072612e+00 2.3782915406e+00 
85300 5.3644825741e+00 -6.6468915578e-06 1.3731072612e+00 -2.3782915406e+00 1.3731072612e+00 2.3782915406e+00 
85400 5.3644825030e+00 -6.7095312193e-06 1.3731072612e+00 -2.3782915406e+00 1.3731072612e+00 2.3782915406e+00 
85500 5.3644824313e+00 -6.7727704004e-06 1.3731072612e+00 -2.3782915406e+00 1.3731072612e+00 2.3782915406e+00 
85600 5.3644823589e+00 -6.8366149697e-06 1.3731072612e+00 -2.3782915406e+00 1.3731072612e+00 2.3782915406e+00 
85700 5.3644822858e+00 -6.9010708547e-06 1.3731072612e+00 -2.3782915406e+00 1.3731072612e+00 2.3782915406e+00 
85800 5.3644822120e+00 -6.9661440432e-06 1.3731072612e+00 -2.3782915406e+00 1.3731072612e+00 2.3782915406e+00 
85900 5.3644821375e+00 -7.0318405834e-06 1.3731072612e+00 -2.3782915406e+00 1.3731072612e+00 2.3782915406e+00 
86000 5.3644820623e+00 -7.0981665846e-06 1.3731072612e+00 -2.3782915406e+00 1.3731072612e+00 2.3782915406e+00 
86100 5.3644819863e+00 -7.1651282182e-06 1.3731072612e+00 -2.3782915406e+00 1.3731072612e+00 2.3782915406e+00 
86200 5.3644819096e+00 -7.2327317178e-06 1.3731072612e+00 -2.3782915406e+00 1.3731072612e+00 2.3782915406e+00 
86300 5.3644818321e+00 -7.3009833804e-06 1.3731072612e+00 -2.3782915406e+00 1.3731072612e+00 2.3782915406e+00 
86400 5.3644817539e+00 -7.3698895667e-06 1.3731072612e+00 -2.3782915406e+00 1.3731072612e+00 2.3782915406e+00 
86500 5.3644816750e+00 -7.4394567019e-06 1.3731072612e+00 -2.3782915406e+00 1.3731072612e+00 2.3782915406e+00 
86600 5.3644815952e+00 -7.5096912767e-06 1.3731072612e+00 -2.3782915406e+00 1.3731072612e+00 2.3782915406e+00 
86700 5.3644815147e+00 -7.5805998471e-06 1.3731072612e+00 -2.3782915406e+00 1.3731072612e+00 2.3782915406e+00 
86800 5.3644814335e+00 -7.6521890362e-06 1.3731072612e+00 -2.3782915406e+00 1.3731072612e+00 2.3782915406e+00 
86900 5.3644813514e+00 -7.7244655343e-06 1.3731072612e+00 -2.3782915406e+00 1.3731072612e+00 2.3782915406e+00 
87000 5.3644812685e+00 -7.7974360993e-06 1.3731072612e+00 -2.3782915406e+00 1.3731072612e+00 2.3782915406e+00 
87100 5.3644811848e+00 -7.8711075584e-06 1.3731072612e+00 -2.3782915406e+00 1.3731072612e+00 2.3782915406e+00 
87200 5.3644811003e+00 -7.9454868080e-06 1.3731072612e+00 -2.3782915406e+00 1.3731072612e+00 2.3782915406e+00 
87300 5.3644810150e+00 -8.0205808146e-06 1.3731072612e+00 -2.3782915406e+00 1.3731072612e+00 2.3782915406e+00 
87400 5.3644809289e+00 -8.0963966157e-06 1.3731072612e+00 -2.3782915406e+00 1.3731072612e+00 2.3782915406e+00 
87500 5.3644808419e+00 -8.1729413207e-06 1.3731072612e+00 -2.3782915406e+00 1.3731072612e+00 2.3782915406e+00 
87600 5.3644807541e+00 -8.2502221113e-06 1.3731072612e+00 -2.3782915406e+00 1.3731072612e+00 2.3782915406e+00 
87700 5.3644806654e+00 -8.3282462424e-06 1.3731072612e+00 -2.3782915406e+00 1.3731072612e+00 2.3782915406e+00 
87800 5.3644805759e+00 -8.4070210431e-06 1.3731072612e+00 -2.3782915406e+00 1.3731072612e+00 2.3782915406e+00 
87900 5.3644804855e+00 -8.4865539171e-06 1.3731072612e+00 -2.3782915406e+00 1.3731072612e+00 2.3782915406e+00 
88000 5.3644803942e+00 -8.5668523440e-06 1.3731072612e+00 -2.3782915406e+00 1.3731072612e+00 2.3782915406e+00 
88100 5.3644803020e+00 -8.6479238796e-06 1.3731072612e+00 -2.3782915406e+00 1.3731072612e+00 2.3782915406e+00 
88200 5.3644802089e+00 -8.7297761570e-06 1.3731072612e+00 -2.3782915406e+00 1.3731072612e+00 2.3782915406e+00 
88300 5.3644801149e+00 -8.8124168875e-06 1.3731072612e+00 -2.3782915406e+00 1.3731072612e+00 2.3782915406e+00 
88400 5.3644800200e+00 -8.8958538611e-06 1.3731072612e+00 -2.3782915406e+00 1.3731072612e+00 2.3782915406e+00 
88500 5.3644799242e+00 -8.9800949478e-06 1.3731072612e+00 -2.3782915406e+00 1.3731072612e+00 2.3782915406e+00 
88600 5.3644798274e+00 -9.0651480980e-06 1.3731072612e+00 -2.3782915406e+00 1.3731072612e+00 2.3782915406e+00 
88700 5.3644797297e+00 -9.1510213437e-06 1.3731072612e+00 -2.3782915406e+00 1.3731072612e+00 2.3782915406e+00 
88800 5.3644796311e+00 -9.2377227993e-06 1.3731072612e+00 -2.3782915406e+00 1.3731072612e+00 2.3782915406e+00 
88900 5.3644795314e+00 -9.3252606624e-06 1.3731072612e+00 -2.3782915406e+00 1.3731072612e+00 2.3782915406e+00 
89000 5.3644794308e+00 -9.4136432147e-06 1.3731072612e+00 -2.3782915406e+00 1.3731072612e+00 2.3782915406e+00 
89100 5.3644793292e+00 -9.5028788230e-06 1.3731072612e+00 -2.3782915406e+00 1.3731072612e+00 2.3782915406e+00 
89200 5.3644792267e+00 -9.5929759401e-06 1.3731072612e+00 -2.3782915406e+00 1.3731072612e+00 2.3782915406e+00 
89300 5.3644791231e+00 -9.6839431057e-06 1.3731072612e+00 -2.3782915406e+00 1.3731072612e+00 2.3782915406e+00 
89400 5.3644790185e+00 -9.7757889472e-06 1.3731072612e+00 -2.3782915406e+00 1.3731072612e+00 2.3782915406e+00 
89500 5.3644789129e+00 -9.8685221809e-06 1.3731072612e+00 -2.3782915406e+00 1.3731072612e+00 2.3782915406e+00 
89600 5.3644788062e+00 -9.9621516130e-06 1.3731072612e+00 -2.3782915406e+00 1.3731072612e+00 2.3782915406e+00 
89700 5.3644786985e+00 -1.0056686140e-05 1.3731072612e+00 -2.3782915406e+00 1.3731072612e+00 2.3782915406e+00 
89800 5.3644785898e+00 -1.0152134751e-05 1.3731072612e+00 -2.3782915406e+00 1.3731072612e+00 2.3782915406e+00 
89900 5.3644784800e+00 -1.0248506526e-05 1.3731072612e+00 -2.3782915406e+00 1.3731072612e+00 2.3782915406e+00 
90000 5.3644783691e+00 -1.0345810641e-05 1.3731072612e+00 -2.3782915406e+00 1.3731072612e+00 2.3782915406e+00 
90100 5.3644782571e+00 -1.0444056364e-05 1.3731072612e+00 -2.3782915406e+00 1.3731072612e+00 2.3782915406e+00 
90200 5.3644781440e+00 -1.0543253063e-05 1.3731072612e+00 -2.3782915406e+00 1.3731072612e+00 2.3782915406e+00 
90300 5.3644780298e+00 -1.0643410197e-05 1.3731072612e+00 -2.3782915406e+00 1.3731072612e+00 2.3782915406e+00 
90400 5.3644779145e+00 -1.0744537328e-05 1.3731072612e+00 -2.3782915406e+00 1.3731072612e+00 2.3782915406e+00 
90500 5.3644777981e+00 -1.0846644115e-05 1.3731072612e+00 -2.3782915406e+00 1.3731072612e+00 2.3782915406e+00 
90600 5.3644776805e+00 -1.0949740315e-05 1.3731072612e+00 -2.3782915406e+00 1.3731072612e+00 2.3782915406e+00 
90700 5.3644775618e+00 -1.1053835790e-05 1.3731072612e+00 -2.3782915406e+00 1.3731072612e+00 2.3782915406e+00 
90800 5.3644774419e+00 -1.1158940501e-05 1.3731072612e+00 -2.3782915406e+00 1.3731072612e+00 2.3782915406e+00 
90900 5.3644773208e+00 -1.1265064513e-05 1.3731072612e+00 -2.3782915406e+00 1.3731072612e+00 2.3782915406e+00 
91000 5.3644771985e+00 -1.1372217996e-05 1.3731072612e+00 -2.3782915406e+00 1.3731072612e+00 2.3782915406e+00 
91100 5.3644770751e+00 -1.1480411226e-05 1.3731072612e+00 -2.3782915406e+00 1.3731072612e+00 2.3782915406e+00 
91200 5.3644769504e+00 -1.1589654585e-05 1.3731072612e+00 -2.3782915406e+00 1.3731072612e+00 2.3782915406e+00 
91300 5.3644768245e+00 -1.1699958562e-05 1.3731072612e+00 -2.3782915406e+00 1.3731072612e+00 2.3782915406e+00 
91400 5.3644766973e+00 -1.1811333757e-05 1.3731072612e+00 -2.3782915406e+00 1.3731072612e+00 2.3782915406e+00 
91500 5.3644765689e+00 -1.1923790879e-05 1.3731072612e+00 -2.3782915406e+00 1.3731072612e+00 2.3782915406e+00 
91600 5.3644764393e+00 -1.2037340749e-05 1.3731072612e+00 -2.3782915406e+00 1.3731072612e+00 2.3782915406e+00 
91700 5.3644763083e+00 -1.2151994299e-05 1.3731072612e+00 -2.3782915406e+00 1.3731072612e+00 2.3782915406e+00 
91800 5.3644761761e+00 -1.2267762579e-05 1.3731072612e+00 -2.3782915406e+00 1.3731072612e+00 2.3782915406e+00 
91900 5.3644760425e+00 -1.2384656749e-05 1.3731072612e+00 -2.3782915406e+00 1.3731072612e+00 2.3782915406e+00 
92000 5.3644759077e+00 -1.2502688090e-05 1.3731072612e+00 -2.3782915406e+00 1.3731072612e+00 2.3782915406e+00 
92100 5.3644757715e+00 -1.2621867997e-05 1.3731072612e+00 -2.3782915406e+00 1.3731072612e+00 2.3782915406e+00 
92200 5.3644756339e+00 -1.2742207987e-05 1.3731072612e+00 -2.3782915406e+00 1.3731072612e+00 2.3782915406e+00 
92300 5.3644754951e+00 -1.2863719696e-05 1.3731072612e+00 -2.3782915406e+00 1.3731072612e+00 2.3782915406e+00 
92400 5.3644753548e+00 -1.2986414882e-05 1.3731072612e+00 -2.3782915406e+00 1.3731072612e+00 2.3782915406e+00 
92500 5.3644752131e+00 -1.3110305425e-05 1.3731072612e+00 -2.3782915406e+00 1.3731072612e+00 2.3782915406e+00 
92600 5.3644750701e+00 -1.3235403331e-05 1.3731072612e+00 -2.3782915406e+00 1.3731072612e+00 2.3782915406e+00 
92700 5.3644749256e+00 -1.3361720731e-05 1.3731072612e+00 -2.3782915406e+00 1.3731072612e+00 2.3782915406e+00 
92800 5.3644747797e+00 -1.3489269883e-05 1.3731072612e+00 -2.3782915406e+00 1.3731072612e+00 2.3782915406e+00 
92900 5.3644746324e+00 -1.3618063173e-05 1.3731072612e+00 -2.3782915406e+00 1.3731072612e+00 2.3782915406e+00 
93000 5.3644744836e+00 -1.3748113119e-05 1.3731072612e+00 -2.3782915406e+00 1.3731072612e+00 2.3782915406e+00 
93100 5.3644743333e+00 -1.3879432369e-05 1.3731072612e+00 -2.3782915406e+00 1.3731072612e+00 2.3782915406e+00 
93200 5.3644741816e+00 -1.4012033703e-05 1.3731072612e+00 -2.3782915406e+00 1.3731072612e+00 2.3782915406e+00 
93300 5.3644740283e+00 -1.4145930037e-05 1.3731072612e+00 -2.3782915406e+00 1.3731072612e+00 2.3782915406e+00 
93400 5.3644738735e+00 -1.4281134422e-05 1.3731072612e+00 -2.3782915406e+00 1.3731072612e+00 2.3782915406e+00 
93500 5.3644737172e+00 -1.4417660047e-05 1.3731072612e+00 -2.3782915406e+00 1.3731072612e+00 2.3782915406e+00 
93600 5.3644735593e+00 -1.4555520240e-05 1.3731072612e+00 -2.3782915406e+00 1.3731072612e+00 2.3782915406e+00 
93700 5.3644733999e+00 -1.4694728468e-05 1.3731072612e+00 -2.3782915406e+00 1.3731072612e+00 2.3782915406e+00 
93800 5.3644732389e+00 -1.4835298342e-05 1.3731072612e+00 -2.3782915406e+00 1.3731072612e+00 2.3782915406e+00 
93900 5.3644730763e+00 -1.4977243615e-05 1.3731072612e+00 -2.3782915406e+00 1.3731072612e+00 2.3782915406e+00 
94000 5.3644729120e+00 -1.5120578186e-05 1.3731072612e+00 -2.3782915406e+00 1.3731072612e+00 2.3782915406e+00 
94100 5.3644727462e+00 -1.5265316101e-05 1.3731072612e+00 -2.3782915406e+00 1.3731072612e+00 2.3782915406e+00 
94200 5.3644725786e+00 -1.5411471553e-05 1.3731072612e+00 -2.3782915406e+00 1.3731072612e+00 2.3782915406e+00 
94300 5.3644724095e+00 -1.5559058889e-05 1.3731072612e+00 -2.3782915406e+00 1.3731072612e+00 2.3782915406e+00 
94400 5.3644722386e+00 -1.5708092603e-05 1.3731072612e+00 -2.3782915406e+00 1.3731072612e+00 2.3782915406e+00 
94500 5.3644720660e+00 -1.5858587345e-05 1.3731072612e+00 -2.3782915406e+00 1.3731072612e+00 2.3782915406e+00 
94600 5.3644718918e+00 -1.6010557920e-05 1.3731072612e+00 -2.3782915406e+00 1.3731072612e+00 2.3782915406e+00 
94700 5.3644717157e+00 -1.6164019291e-05 1.3731072612e+00 -2.3782915406e+00 1.3731072612e+00 2.3782915406e+00 
94800 5.3644715380e+00 -1.6318986579e-05 1.3731072612e+00 -2.3782915406e+00 1.3731072612e+00 2.3782915406e+00 
94900 5.3644713584e+00 -1.6475475064e-05 1.3731072612e+00 -2.3782915406e+00 1.3731072612e+00 2.3782915406e+00 
95000 5.3644711771e+00 -1.6633500190e-05 1.3731072612e+00 -2.3782915406e+00 1.3731072612e+00 2.3782915406e+00 
95100 5.3644709939e+00 -1.6793077566e-05 1.3731072612e+00 -2.3782915406e+00 1.3731072612e+00 2.3782915406e+00 
95200 5.3644708089e+00 -1.6954222965e-05 1.3731072612e+00 -2.3782915406e+00 1.3731072612e+00 2.3782915406e+00 
95300 5.3644706221e+00 -1.7116952329e-05 1.3731072612e+00 -2.3782915406e+00 1.3731072612e+00 2.3782915406e+00 
95400 5.3644704334e+00 -1.7281281772e-05 1.3731072612e+00 -2.3782915406e+00 1.3731072612e+00 2.3782915406e+00 
95500 5.3644702429e+00 -1.7447227575e-05 1.3731072612e+00 -2.3782915406e+00 1.3731072612e+00 2.3782915406e+00 
95600 5.3644700504e+00 -1.7614806196e-05 1.3731072612e+00 -2.3782915406e+00 1.3731072612e+00 2.3782915406e+00 
95700 5.3644698560e+00 -1.7784034268e-05 1.3731072612e+00 -2.3782915406e+00 1.3731072612e+00 2.3782915406e+00 
95800 5.3644696596e+00 -1.7954928603e-05 1.3731072612e+00 -2.3782915406e+00 1.3731072612e+00 2.3782915406e+00 
95900 5.3644694613e+00 -1.8127506190e-05 1.3731072612e+00 -2.3782915406e+00 1.3731072612e+00 2.3782915406e+00 
96000 5.3644692610e+00 -1.8301784202e-05 1.3731072612e+00 -2.3782915406e+00 1.3731072612e+00 2.3782915406e+00 
96100 5.3644690587e+00 -1.8477779995e-05 1.3731072612e+00 -2.3782915406e+00 1.3731072612e+00 2.3782915406e+00 
96200 5.3644688543e+00 -1.8655511110e-05 1.3731072612e+00 -2.3782915406e+00 1.3731072612e+00 2.3782915406e+00 
96300 5.3644686480e+00 -1.8834995277e-05 1.3731072612e+00 -2.3782915406e+00 1.3731072612e+00 2.3782915406e+00 
96400 5.3644684395e+00 -1.9016250417e-05 1.3731072612e+00 -2.3782915406e+00 1.3731072612e+00 2.3782915406e+00 
96500 5.3644682289e+00 -1.9199294642e-05 1.3731072612e+00 -2.3782915406e+00 1.3731072612e+00 2.3782915406e+00 
96600 5.3644680163e+00 -1.9384146259e-05 1.3731072612e+00 -2.3782915406e+00 1.3731072612e+00 2.3782915406e+00 
96700 5.3644678015e+00 -1.9570823771e-05 1.3731072612e+00 -2.3782915406e+00 1.3731072612e+00 2.3782915406e+00 
96800 5.3644675845e+00 -1.9759345882e-05 1.3731072612e+00 -2.3782915406e+00 1.3731072612e+00 2.3782915406e+00 
96900 5.3644673654e+00 -1.9949731495e-05 1.3731072612e+00 -2.3782915406e+00 1.3731072612e+00 2.3782915406e+00 
97000 5.3644671440e+00 -2.0141999719e-05 1.3731072612e+00 -2.3782915406e+00 1.3731072612e+00 2.3782915406e+00 
97100 5.3644669205e+00 -2.0336169867e-05 1.3731072612e+00 -2.3782915406e+00 1.3731072612e+00 2.3782915406e+00 
97200 5.3644666947e+00 -2.0532261460e-05 1.3731072612e+00 -2.3782915406e+00 1.3731072612e+00 2.3782915406e+00 
97300 5.3644664666e+00 -2.0730294232e-05 1.3731072612e+00 -2.3782915406e+00 1.3731072612e+00 2.3782915406e+00 
97400 5.3644662362e+00 -2.0930288129e-05 1.3731072612e+00 -2.3782915406e+00 1.3731072612e+00 2.3782915406e+00 
97500 5.3644660034e+00 -2.1132263312e-05 1.3731072612e+00 -2.3782915406e+00 1.3731072612e+00 2.3782915406e+00 
97600 5.3644657684e+00 -2.1336240160e-05 1.3731072612e+00 -2.3782915406e+00 1.3731072612e+00 2.3782915406e+00 
97700 5.3644655309e+00 -2.1542239274e-05 1.3731072612e+00 -2.3782915406e+00 1.3731072612e+00 2.3782915406e+00 
97800 5.3644652911e+00 -2.1750281476e-05 1.3731072612e+00 -2.3782915406e+00 1.3731072612e+00 2.3782915406e+00 
97900 5.3644650489e+00 -2.1960387817e-05 1.3731072612e+00 -2.3782915406e+00 1.3731072612e+00 2.3782915406e+00 
98000 5.3644648042e+00 -2.2172579573e-05 1.3731072612e+00 -2.3782915406e+00 1.3731072612e+00 2.3782915406e+00 
98100 5.3644645570e+00 -2.2386878254e-05 1.3731072612e+00 -2.3782915406e+00 1.3731072612e+00 2.3782915406e+00 
98200 5.3644643073e+00 -2.2603305600e-05 1.3731072612e+00 -2.3782915406e+00 1.3731072612e+00 2.3782915406e+00 
98300 5.3644640551e+00 -2.2821883591e-05 1.3731072612e+00 -2.3782915406e+00 1.3731072612e+00 2.3782915406e+00 
98400 5.3644638004e+00 -2.3042634444e-05 1.3731072612e+00 -2.3782915406e+00 1.3731072612e+00 2.3782915406e+00 
98500 5.3644635430e+00 -2.3265580619e-05 1.3731072612e+00 -2.3782915406e+00 1.3731072612e+00 2.3782915406e+00 
98600 5.3644632831e+00 -2.3490744821e-05 1.3731072612e+00 -2.3782915406e+00 1.3731072612e+00 2.3782915406e+00 
98700 5.3644630205e+00 -2.3718150000e-05 1.3731072612e+00 -2.3782915406e+00 1.3731072612e+00 2.3782915406e+00 
98800 5.3644627553e+00 -2.3947819361e-05 1.3731072612e+00 -2.3782915406e+00 1.3731072612e+00 2.3782915406e+00 
98900 5.3644624874e+00 -2.4179776357e-05 1.3731072612e+00 -2.3782915406e+00 1.3731072612e+00 2.3782915406e+00 
99000 5.3644622167e+00 -2.4414044703e-05 1.3731072612e+00 -2.3782915406e+00 1.3731072612e+00 2.3782915406e+00 
99100 5.3644619434e+00 -2.4650648369e-05 1.3731072612e+00 -2.3782915406e+00 1.3731072612e+00 2.3782915406e+00 
99200 5.3644616672e+00 -2.4889611590e-05 1.3731072612e+00 -2.3782915406e+00 1.3731072612e+00 2.3782915406e+00 
99300 5.3644613882e+00 -2.5130958864e-05 1.3731072612e+00 -2.3782915406e+00 1.3731072612e+00 2.3782915406e+00 
99400 5.3644611064e+00 -2.5374714961e-05 1.3731072612e+00 -2.3782915406e+00 1.3731072612e+00 2.3782915406e+00 
99500 5.3644608217e+00 -2.5620904920e-05 1.3731072612e+00 -2.3782915406e+00 1.3731072612e+00 2.3782915406e+00 
99600 5.3644605342e+00 -2.5869554057e-05 1.3731072612e+00 -2.3782915406e+00 1.3731072612e+00 2.3782915406e+00 
99700 5.3644602437e+00 -2.6120687963e-05 1.3731072612e+00 -2.3782915406e+00 1.3731072612e+00 2.3782915406e+00 
99800 5.3644599502e+00 -2.6374332515e-05 1.3731072612e+00 -2.3782915406e+00 1.3731072612e+00 2.3782915406e+00 
99900 5.3644596537e+00 -2.6630513870e-05 1.3731072612e+00 -2.3782915406e+00 1.3731072612e+00 2.3782915406e+00 
100000 5.3644593543e+00 -2.6889258478e-05 1.3731072612e+00 -2.3782915406e+00 1.3731072612e+00 2.3782915406e+00 
100100 5.3644590517e+00 -2.7150593076e-05 1.3731072612e+00 -2.3782915406e+00 1.3731072612e+00 2.3782915406e+00 
100200 5.3644587461e+00 -2.7414544700e-05 1.3731072612e+00 -2.3782915406e+00 1.3731072612e+00 2.3782915406e+00 
100300 5.3644584374e+00 -2.7681140682e-05 1.3731072612e+00 -2.3782915406e+00 1.3731072612e+00 2.3782915406e+00 
100400 5.3644581255e+00 -2.7950408656e-05 1.3731072612e+00 -2.3782915406e+00 1.3731072612e+00 2.3782915406e+00 
100500 5.3644578104e+00 -2.8222376564e-05 1.3731072612e+00 -2.3782915406e+00 1.3731072612e+00 2.3782915406e+00 
100600 5.3644574921e+00 -2.8497072654e-05 1.3731072612e+00 -2.3782915406e+00 1.3731072612e+00 2.3782915406e+00 
100700 5.3644571705e+00 -2.8774525490e-05 1.3731072612e+00 -2.3782915406e+00 1.3731072612e+00 2.3782915406e+00 
100800 5.3644568457e+00 -2.9054763950e-05 1.3731072612e+00 -2.3782915406e+00 1.3731072612e+00 2.3782915406e+00 
100900 5.3644565175e+00 -2.9337817235e-05 1.3731072612e+00 -2.3782915406e+00 1.3731072612e+00 2.3782915406e+00 
101000 5.3644561859e+00 -2.9623714869e-05 1.3731072612e+00 -2.3782915406e+00 1.3731072612e+00 2.3782915406e+00 
101100 5.3644558510e+00 -2.9912486704e-05 1.3731072612e+00 -2.3782915406e+00 1.3731072612e+00 2.3782915406e+00 
101200 5.3644555126e+00 -3.0204162923e-05 1.3731072612e+00 -2.3782915406e+00 1.3731072612e+00 2.3782915406e+00 
101300 5.3644551707e+00 -3.0498774049e-05 1.3731072612e+00 -2.3782915406e+00 1.3731072612e+00 2.3782915406e+00 
101400 5.3644548254e+00 -3.0796350940e-05 1.3731072612e+00 -2.3782915406e+00 1.3731072612e+00 2.3782915406e+00 
101500 5.3644544764e+00 -3.1096924801e-05 1.3731072612e+00 -2.3782915406e+00 1.3731072612e+00 2.3782915406e+00 
101600 5.3644541239e+00 -3.1400527186e-05 1.3731072612e+00 -2.3782915406e+00 1.3731072612e+00 2.3782915406e+00 
101700 5.3644537678e+00 -3.1707190000e-05 1.3731072612e+00 -2.3782915406e+00 1.3731072612e+00 2.3782915406e+00 
101800 5.3644534080e+00 -3.2016945504e-05 1.3731072612e+00 -2.3782915406e+00 1.3731072612e+00 2.3782915406e+00 
101900 5.3644530445e+00 -3.2329826322e-05 1.3731072612e+00 -2.3782915406e+00 1.3731072612e+00 2.3782915406e+00 
102000 5.3644526773e+00 -3.2645865442e-05 1.3731072612e+00 -2.3782915406e+00 1.3731072612e+00 2.3782915406e+00 
102100 5.3644523062e+00 -3.2965096222e-05 1.3731072612e+00 -2.3782915406e+00 1.3731072612e+00 2.3782915406e+00 
102200 5.3644519314e+00 -3.3287552395e-05 1.3731072612e+00 -2.3782915406e+00 1.3731072612e+00 2.3782915406e+00 
102300 5.3644515526e+00 -3.3613268072e-05 1.3731072612e+00 -2.3782915406e+00 1.3731072612e+00 2.3782915406e+00 
102400 5.3644511700e+00 -3.3942277747e-05 1.3731072612e+00 -2.3782915406e+00 1.3731072612e+00 2.3782915406e+00 
102500 5.3644507834e+00 -3.4274616304e-05 1.3731072612e+00 -2.3782915406e+00 1.3731072612e+00 2.3782915406e+00 
102600 5.3644503928e+00 -3.4610319016e-05 1.3731072612e+00 -2.3782915406e+00 1.3731072612e+00 2.3782915406e+00 
102700 5.3644499982e+00 -3.4949421558e-05 1.3731072612e+00 -2.3782915406e+00 1.3731072612e+00 2.3782915406e+00 
102800 5.3644495995e+00 -3.5291960004e-05 1.3731072612e+00 -2.3782915406e+00 1.3731072612e+00 2.3782915406e+00 
102900 5.3644491966e+00 -3.5637970836e-05 1.3731072612e+00 -2.3782915406e+00 1.3731072612e+00 2.3782915406e+00 
103000 5.3644487896e+00 -3.5987490949e-05 1.3731072612e+00 -2.3782915406e+00 1.3731072612e+00 2.3782915406e+00 
103100 5.3644483784e+00 -3.6340557654e-05 1.3731072612e+00 -2.3782915406e+00 1.3731072612e+00 2.3782915406e+00 
103200 5.3644479629e+00 -3.6697208686e-05 1.3731072612e+00 -2.3782915406e+00 1.3731072612e+00 2.3782915406e+00 
103300 5.3644475431e+00 -3.7057482206e-05 1.3731072612e+00 -2.3782915406e+00 1.3731072612e+00 2.3782915406e+00 
103400 5.3644471189e+00 -3.7421416807e-05 1.3731072612e+00 -2.3782915406e+00 1.3731072612e+00 2.3782915406e+00 
103500 5.3644466903e+00 -3.7789051523e-05 1.3731072612e+00 -2.3782915406e+00 1.3731072612e+00 2.3782915406e+00 
103600 5.3644462573e+00 -3.8160425828e-05 1.3731072612e+00 -2.3782915406e+00 1.3731072612e+00 2.3782915406e+00 
103700 5.3644458197e+00 -3.8535579648e-05 1.3731072612e+00 -2.3782915406e+00 1.3731072612e+00 2.3782915406e+00 
103800 5.3644453776e+00 -3.8914553360e-05 1.3731072612e+00 -2.3782915406e+00 1.3731072612e+00 2.3782915406e+00 
103900 5.3644449310e+00 -3.9297387804e-05 1.3731072612e+00 -2.3782915406e+00 1.3731072612e+00 2.3782915406e+00 
104000 5.3644444796e+00 -3.9684124284e-05 1.3731072612e+00 -2.3782915406e+00 1.3731072612e+00 2.3782915406e+00 
104100 5.3644440235e+00 -4.0074804575e-05 1.3731072612e+00 -2.3782915406e+00 1.3731072612e+00 2.3782915406e+00 
104200 5.3644435627e+00 -4.0469470930e-05 1.3731072612e+00 -2.3782915406e+00 1.3731072612e+00 2.3782915406e+00 
104300 5.3644430971e+00 -4.0868166086e-05 1.3731072612e+00 -2.3782915406e+00 1.3731072612e+00 2.3782915406e+00 
104400 5.3644426266e+00 -4.1270933266e-05 1.3731072612e+00 -2.3782915406e+00 1.3731072612e+00 2.3782915406e+00 
104500 5.3644421512e+00 -4.1677816193e-05 1.3731072612e+00 -2.3782915406e+00 1.3731072612e+00 2.3782915406e+00 
104600 5.3644416708e+00 -4.2088859086e-05 1.3731072612e+00 -2.3782915406e+00 1.3731072612e+00 2.3782915406e+00 
104700 5.3644411854e+00 -4.2504106675e-05 1.3731072612e+00 -2.3782915406e+00 1.3731072612e+00 2.3782915406e+00 
104800 5.3644406950e+00 -4.2923604203e-05 1.3731072612e+00 -2.3782915406e+00 1.3731072612e+00 2.3782915406e+00 
104900 5.3644401993e+00 -4.3347397433e-05 1.3731072612e+00 -2.3782915406e+00 1.3731072612e+00 2.3782915406e+00 
105000 5.3644396985e+00 -4.3775532654e-05 1.3731072612e+00 -2.3782915406e+00 1.3731072612e+00 2.3782915406e+00 
105100 5.3644391925e+00 -4.4208056690e-05 1.3731072612e+00 -2.3782915406e+00 1.3731072612e+00 2.3782915406e+00 
105200 5.3644386811e+00 -4.4645016904e-05 1.3731072612e+00 -2.3782915406e+00 1.3731072612e+00 2.3782915406e+00 
105300 5.3644381643e+00 -4.5086461205e-05 1.3731072612e+00 -2.3782915406e+00 1.3731072612e+00 2.3782915406e+00 
105400 5.3644376421e+00 -4.5532438058e-05 1.3731072612e+00 -2.3782915406e+00 1.3731072612e+00 2.3782915406e+00 
105500 5.3644371145e+00 -4.5982996485e-05 1.3731072612e+00 -2.3782915406e+00 1.3731072612e+00 2.3782915406e+00 
105600 5.3644365812e+00 -4.6438186078e-05 1.3731072612e+00 -2.3782915406e+00 1.3731072612e+00 2.3782915406e+00 
105700 5.3644360424e+00 -4.6898057004e-05 1.3731072612e+00 -2.3782915406e+00 1.3731072612e+00 2.3782915406e+00 
105800 5.3644354979e+00 -4.7362660011e-05 1.3731072612e+00 -2.3782915406e+00 1.3731072612e+00 2.3782915406e+00 
105900 5.3644349476e+00 -4.7832046436e-05 1.3731072612e+00 -2.3782915406e+00 1.3731072612e+00 2.3782915406e+00 
106000 5.3644343916e+00 -4.8306268214e-05 1.3731072612e+00 -2.3782915406e+00 1.3731072612e+00 2.3782915406e+00 
106100 5.3644338297e+00 -4.8785377882e-05 1.3731072612e+00 -2.3782915406e+00 1.3731072612e+00 2.3782915406e+00 
106200 5.3644332618e+00 -4.9269428591e-05 1.3731072612e+00 -2.3782915406e+00 1.3731072612e+00 2.3782915406e+00 
106300 5.3644326879e+00 -4.9758474112e-05 1.3731072612e+00 -2.3782915406e+00 1.3731072612e+00 2.3782915406e+00 
106400 5.3644321080e+00 -5.0252568841e-05 1.3731072612e+00 -2.3782915406e+00 1.3731072612e+00 2.3782915406e+00 
106500 5.3644315219e+00 -5.0751767812e-05 1.3731072612e+00 -2.3782915406e+00 1.3731072612e+00 2.3782915406e+00 
106600 5.3644309296e+00 -5.1256126701e-05 1.3731072612e+00 -2.3782915406e+00 1.3731072612e+00 2.3782915406e+00 
106700 5.3644303311e+00 -5.1765701838e-05 1.3731072612e+00 -2.3782915406e+00 1.3731072612e+00 2.3782915406e+00 
106800 5.3644297262e+00 -5.2280550209e-05 1.3731072612e+00 -2.3782915406e+00 1.3731072612e+00 2.3782915406e+00 
106900 5.3644291149e+00 -5.2800729473e-05 1.3731072612e+00 -2.3782915406e+00 1.3731072612e+00 2.3782915406e+00 
107000 5.3644284971e+00 -5.3326297964e-05 1.3731072612e+00 -2.3782915406e+00 1.3731072612e+00 2.3782915406e+00 
107100 5.3644278727e+00 -5.3857314701e-05 1.3731072612e+00 -2.3782915406e+00 1.3731072612e+00 2.3782915406e+00 
107200 5.3644272417e+00 -5.4393839398e-05 1.3731072612e+00 -2.3782915406e+00 1.3731072612e+00 2.3782915406e+00 
107300 5.3644266040e+00 -5.4935932475e-05 1.3731072612e+00 -2.3782915406e+00 1.3731072612e+00 2.3782915406e+00 
107400 5.3644259595e+00 -5.5483655059e-05 1.3731072612e+00 -2.3782915406e+00 1.3731072612e+00 2.3782915406e+00 
107500 5.3644253081e+00 -5.6037069005e-05 1.3731072612e+00 -2.3782915406e+00 1.3731072612e+00 2.3782915406e+00 
107600 5.3644246498e+00 -5.6596236894e-05 1.3731072612e+00 -2.3782915406e+00 1.3731072612e+00 2.3782915406e+00 
107700 5.3644239844e+00 -5.7161222049e-05 1.3731072612e+00 -2.3782915406e+00 1.3731072612e+00 2.3782915406e+00 
107800 5.3644233120e+00 -5.7732088544e-05 1.3731072612e+00 -2.3782915406e+00 1.3731072612e+00 2.3782915406e+00 
107900 5.3644226323e+00 -5.8308901211e-05 1.3731072612e+00 -2.3782915406e+00 1.3731072612e+00 2.3782915406e+00 
108000 5.3644219454e+00 -5.8891725652e-05 1.3731072612e+00 -2.3782915406e+00 1.3731072612e+00 2.3782915406e+00 
108100 5.3644212512e+00 -5.9480628250e-05 1.3731072612e+00 -2.3782915406e+00 1.3731072612e+00 2.3782915406e+00 
108200 5.3644205495e+00 -6.0075676174e-05 1.3731072612e+00 -2.3782915406e+00 1.3731072612e+00 2.3782915406e+00 
108300 5.3644198403e+00 -6.0676937396e-05 1.3731072612e+00 -2.3782915406e+00 1.3731072612e+00 2.3782915406e+00 
108400 5.3644191235e+00 -6.1284480697e-05 1.3731072612e+00 -2.3782915406e+00 1.3731072612e+00 2.3782915406e+00 
108500 5.3644183990e+00 -6.1898375679e-05 1.3731072612e+00 -2.3782915406e+00 1.3731072612e+00 2.3782915406e+00 
108600 5.3644176668e+00 -6.2518692774e-05 1.3731072612e+00 -2.3782915406e+00 1.3731072612e+00 2.3782915406e+00 
108700 5.3644169266e+00 -6.3145503260e-05 1.3731072612e+00 -2.3782915406e+00 1.3731072612e+00 2.3782915406e+00 
108800 5.3644161785e+00 -6.3778879264e-05 1.3731072612e+00 -2.3782915406e+00 1.3731072612e+00 2.3782915406e+00 
108900 5.3644154224e+00 -6.4418893780e-05 1.3731072612e+00 -2.3782915406e+00 1.3731072612e+00 2.3782915406e+00 
109000 5.3644146581e+00 -6.5065620678e-05 1.3731072612e+00 -2.3782915406e+00 1.3731072612e+00 2.3782915406e+00 
109100 5.3644138856e+00 -6.5719134714e-05 1.3731072612e+00 -2.3782915406e+00 1.3731072612e+00 2.3782915406e+00 
109200 5.3644131048e+00 -6.6379511545e-05 1.3731072612e+00 -2.3782915406e+00 1.3731072612e+00 2.3782915406e+00 
109300 5.3644123155e+00 -6.7046827736e-05 1.3731072612e+00 -2.3782915406e+00 1.3731072612e+00 2.3782915406e+00 
109400 5.3644115177e+00 -6.7721160779e-05 1.3731072612e+00 -2.3782915406e+00 1.3731072612e+00 2.3782915406e+00 
109500 5.3644107113e+00 -6.8402589098e-05 1.3731072612e+00 -2.3782915406e+00 1.3731072612e+00 2.3782915406e+00 
109600 5.3644098962e+00 -6.9091192064e-05 1.3731072612e+00 -2.3782915406e+00 1.3731072612e+00 2.3782915406e+00 
109700 5.3644090722e+00 -6.9787050011e-05 1.3731072612e+00 -2.3782915406e+00 1.3731072612e+00 2.3782915406e+00 
109800 5.3644082393e+00 -7.0490244244e-05 1.3731072612e+00 -2.3782915406e+00 1.3731072612e+00 2.3782915406e+00 
109900 5.3644073974e+00 -7.1200857053e-05 1.3731072612e+00 -2.3782915406e+00 1.3731072612e+00 2.3782915406e+00 
110000 5.3644065461e+00 -7.1916587795e-05 1.3731098539e+00 -2.3782960313e+00 1.3731098539e+00 2.3782960313e+00 
110100 5.3644056856e+00 -7.2639834285e-05 1.3731124726e+00 -2.3783005671e+00 1.3731124726e+00 2.3783005671e+00 
110200 5.3644048156e+00 -7.3370680275e-05 1.3731151177e+00 -2.3783051485e+00 1.3731151177e+00 2.3783051485e+00 
110300 5.3644039363e+00 -7.4109210510e-05 1.3731177894e+00 -2.3783097760e+00 1.3731177894e+00 2.3783097760e+00 
110400 5.3644030473e+00 -7.4855510748e-05 1.3731204880e+00 -2.3783144501e+00 1.3731204880e+00 2.3783144501e+00 
110500 5.3644021487e+00 -7.5609667766e-05 1.3731232137e+00 -2.3783191712e+00 1.3731232137e+00 2.3783191712e+00 
110600 5.3644012402e+00 -7.6371769383e-05 1.3731259669e+00 -2.3783239399e+00 1.3731259669e+00 2.3783239399e+00 
110700 5.3644003218e+00 -7.7141904466e-05 1.3731287479e+00 -2.3783287566e+00 1.3731287479e+00 2.3783287566e+00 
110800 5.3643993934e+00 -7.7920162947e-05 1.3731315568e+00 -2.3783336219e+00 1.3731315568e+00 2.3783336219e+00 
110900 5.3643984549e+00 -7.8706635842e-05 1.3731343942e+00 -2.3783385363e+00 1.3731343942e+00 2.3783385363e+00 
111000 5.3643975061e+00 -7.9501415259e-05 1.3731372601e+00 -2.3783435003e+00 1.3731372601e+00 2.3783435003e+00 
111100 5.3643965469e+00 -8.0304594417e-05 1.3731401550e+00 -2.3783485144e+00 1.3731401550e+00 2.3783485144e+00 
111200 5.3643955771e+00 -8.1116267658e-05 1.3731430791e+00 -2.3783535791e+00 1.3731430791e+00 2.3783535791e+00 
111300 5.3643945968e+00 -8.1936530466e-05 1.3731460328e+00 -2.3783586950e+00 1.3731460328e+00 2.3783586950e+00 
111400 5.3643936057e+00 -8.2765479479e-05 1.3731490163e+00 -2.3783638626e+00 1.3731490163e+00 2.3783638626e+00 
111500 5.3643926037e+00 -8.3603212506e-05 1.3731520300e+00 -2.3783690825e+00 1.3731520300e+00 2.3783690825e+00 
111600 5.3643915906e+00 -8.4449828542e-05 1.3731550742e+00 -2.3783743553e+00 1.3731550742e+00 2.3783743553e+00 
111700 5.3643905665e+00 -8.5305427784e-05 1.3731581493e+00 -2.3783796814e+00 1.3731581493e+00 2.3783796814e+00 
111800 5.3643895310e+00 -8.6170111648e-05 1.3731612555e+00 -2.3783850614e+00 1.3731612555e+00 2.3783850614e+00 
111900 5.3643884841e+00 -8.7043982786e-05 1.3731643931e+00 -2.3783904960e+00 1.3731643931e+00 2.3783904960e+00 
112000 5.3643874257e+00 -8.7927145098e-05 1.3731675626e+00 -2.3783959857e+00 1.3731675626e+00 2.3783959857e+00 
112100 5.3643863556e+00 -8.8819703756e-05 1.3731707642e+00 -2.3784015311e+00 1.3731707642e+00 2.3784015311e+00 
112200 5.3643852737e+00 -8.9721765215e-05 1.3731739983e+00 -2.3784071327e+00 1.3731739983e+00 2.3784071327e+00 
112300 5.3643841798e+00 -9.0633437232e-05 1.3731772653e+00 -2.3784127912e+00 1.3731772653e+00 2.3784127912e+00 
112400 5.3643830738e+00 -9.1554828885e-05 1.3731805654e+00 -2.3784185072e+00 1.3731805654e+00 2.3784185072e+00 
112500 5.3643819555e+00 -9.2486050590e-05 1.3731838991e+00 -2.3784242813e+00 1.3731838991e+00 2.3784242813e+00 
112600 5.3643808249e+00 -9.3427214118e-05 1.3731872667e+00 -2.3784301141e+00 1.3731872667e+00 2.3784301141e+00 
112700 5.3643796816e+00 -9.4378432615e-05 1.3731906685e+00 -2.3784360063e+00 1.3731906685e+00 2.3784360063e+00 
112800 5.3643785257e+00 -9.5339820617e-05 1.3731941050e+00 -2.3784419584e+00 1.3731941050e+00 2.3784419584e+00 
112900 5.3643773570e+00 -9.6311494073e-05 1.3731975764e+00 -2.3784479712e+00 1.3731975764e+00 2.3784479712e+00 
113000 5.3643761752e+00 -9.7293570364e-05 1.3732010833e+00 -2.3784540452e+00 1.3732010833e+00 2.3784540452e+00 
113100 5.3643749803e+00 -9.8286168317e-05 1.3732046258e+00 -2.3784601811e+00 1.3732046258e+00 2.3784601811e+00 
113200 5.3643737721e+00 -9.9289408232e-05 1.3732082046e+00 -2.3784663797e+00 1.3732082046e+00 2.3784663797e+00 
113300 5.3643725503e+00 -1.0030341190e-04 1.3732118198e+00 -2.3784726414e+00 1.3732118198e+00 2.3784726414e+00 
113400 5.3643713150e+00 -1.0132830260e-04 1.3732154719e+00 -2.3784789671e+00 1.3732154719e+00 2.3784789671e+00 
113500 5.3643700658e+00 -1.0236420518e-04 1.3732191614e+00 -2.3784853575e+00 1.3732191614e+00 2.3784853575e+00 
113600 5.3643688027e+00 -1.0341124602e-04 1.3732228886e+00 -2.3784918131e+00 1.3732228886e+00 2.3784918131e+00 
113700 5.3643675254e+00 -1.0446955305e-04 1.3732266538e+00 -2.3784983348e+00 1.3732266538e+00 2.3784983348e+00 
113800 5.3643662338e+00 -1.0553925582e-04 1.3732304576e+00 -2.3785049231e+00 1.3732304576e+00 2.3785049231e+00 
113900 5.3643649277e+00 -1.0662048549e-04 1.3732343004e+00 -2.3785115789e+00 1.3732343004e+00 2.3785115789e+00 
114000 5.3643636069e+00 -1.0771337486e-04 1.3732381825e+00 -2.3785183029e+00 1.3732381825e+00 2.3785183029e+00 
114100 5.3643622713e+00 -1.0881805837e-04 1.3732421043e+00 -2.3785250958e+00 1.3732421043e+00 2.3785250958e+00 
114200 5.3643609207e+00 -1.0993467217e-04 1.3732460664e+00 -2.3785319584e+00 1.3732460664e+00 2.3785319584e+00 
114300 5.3643595549e+00 -1.1106335410e-04 1.3732500692e+00 -2.3785388913e+00 1.3732500692e+00 2.3785388913e+00 
114400 5.3643581737e+00 -1.1220424373e-04 1.3732541130e+00 -2.3785458954e+00 1.3732541130e+00 2.3785458954e+00 
114500 5.3643567769e+00 -1.1335748237e-04 1.3732581983e+00 -2.3785529714e+00 1.3732581983e+00 2.3785529714e+00 
114600 5.3643553643e+00 -1.1452321314e-04 1.3732623256e+00 -2.3785601201e+00 1.3732623256e+00 2.3785601201e+00 
114700 5.3643539358e+00 -1.1570158093e-04 1.3732664954e+00 -2.3785673424e+00 1.3732664954e+00 2.3785673424e+00 
114800 5.3643524911e+00 -1.1689273246e-04 1.3732707080e+00 -2.3785746389e+00 1.3732707080e+00 2.3785746389e+00 
114900 5.3643510301e+00 -1.1809681632e-04 1.3732749640e+00 -2.3785820105e+00 1.3732749640e+00 2.3785820105e+00 
115000 5.3643495525e+00 -1.1931398296e-04 1.3732792639e+00 -2.3785894580e+00 1.3732792639e+00 2.3785894580e+00 
115100 5.3643480581e+00 -1.2054438474e-04 1.3732836080e+00 -2.3785969823e+00 1.3732836080e+00 2.3785969823e+00 
115200 5.3643465468e+00 -1.2178817594e-04 1.3732879969e+00 -2.3786045841e+00 1.3732879969e+00 2.3786045841e+00 
115300 5.3643450183e+00 -1.2304551281e-04 1.3732924311e+00 -2.3786122643e+00 1.3732924311e+00 2.3786122643e+00 
115400 5.3643434724e+00 -1.2431655358e-04 1.3732969110e+00 -2.3786200238e+00 1.3732969110e+00 2.3786200238e+00 
115500 5.3643419089e+00 -1.2560145848e-04 1.3733014373e+00 -2.3786278634e+00 1.3733014373e+00 2.3786278634e+00 
115600 5.3643403276e+00 -1.2690038978e-04 1.3733060102e+00 -2.3786357841e+00 1.3733060102e+00 2.3786357841e+00 
115700 5.3643387282e+00 -1.2821351184e-04 1.3733106305e+00 -2.3786437866e+00 1.3733106305e+00 2.3786437866e+00 
115800 5.3643371106e+00 -1.2954099108e-04 1.3733152985e+00 -2.3786518719e+00 1.3733152985e+00 2.3786518719e+00 
115900 5.3643354745e+00 -1.3088299609e-04 1.3733200149e+00 -2.3786600409e+00 1.3733200149e+00 2.3786600409e+00 
116000 5.3643338196e+00 -1.3223969757e-04 1.3733247801e+00 -2.3786682944e+00 1.3733247801e+00 2.3786682944e+00 
116100 5.3643321458e+00 -1.3361126844e-04 1.3733295947e+00 -2.3786766335e+00 1.3733295947e+00 2.3786766335e+00 
116200 5.3643304528e+00 -1.3499788383e-04 1.3733344592e+00 -2.3786850591e+00 1.3733344592e+00 2.3786850591e+00 
116300 5.3643287404e+00 -1.3639972109e-04 1.3733393742e+00 -2.3786935721e+00 1.3733393742e+00 2.3786935721e+00 
116400 5.3643270083e+00 -1.3781695990e-04 1.3733443402e+00 -2.3787021734e+00 1.3733443402e+00 2.3787021734e+00 
116500 5.3643252563e+00 -1.3924978220e-04 1.3733493577e+00 -2.3787108641e+00 1.3733493577e+00 2.3787108641e+00 
116600 5.3643234841e+00 -1.4069837231e-04 1.3733544274e+00 -2.3787196451e+00 1.3733544274e+00 2.3787196451e+00 
116700 5.3643216915e+00 -1.4216291692e-04 1.3733595499e+00 -2.3787285175e+00 1.3733595499e+00 2.3787285175e+00 
116800 5.3643198782e+00 -1.4364360511e-04 1.3733647256e+00 -2.3787374821e+00 1.3733647256e+00 2.3787374821e+00 
116900 5.3643180440e+00 -1.4514062845e-04 1.3733699552e+00 -2.3787465401e+00 1.3733699552e+00 2.3787465401e+00 
117000 5.3643161886e+00 -1.4665418094e-04 1.3733752394e+00 -2.3787556924e+00 1.3733752394e+00 2.3787556924e+00 
117100 5.3643143117e+00 -1.4818445913e-04 1.3733805785e+00 -2.3787649402e+00 1.3733805785e+00 2.3787649402e+00 
117200 5.3643124130e+00 -1.4973166212e-04 1.3733859734e+00 -2.3787742844e+00 1.3733859734e+00 2.3787742844e+00 
117300 5.3643104923e+00 -1.5129599158e-04 1.3733914246e+00 -2.3787837261e+00 1.3733914246e+00 2.3787837261e+00 
117400 5.3643085494e+00 -1.5287765181e-04 1.3733969327e+00 -2.3787932665e+00 1.3733969327e+00 2.3787932665e+00 
117500 5.3643065838e+00 -1.5447684979e-04 1.3734024984e+00 -2.3788029065e+00 1.3734024984e+00 2.3788029065e+00 
117600 5.3643045954e+00 -1.5609379519e-04 1.3734081223e+00 -2.3788126473e+00 1.3734081223e+00 2.3788126473e+00 
117700 5.3643025839e+00 -1.5772870042e-04 1.3734138050e+00 -2.3788224901e+00 1.3734138050e+00 2.3788224901e+00 
117800 5.3643005489e+00 -1.5938178066e-04 1.3734195472e+00 -2.3788324359e+00 1.3734195472e+00 2.3788324359e+00 
117900 5.3642984901e+00 -1.6105325393e-04 1.3734253496e+00 -2.3788424859e+00 1.3734253496e+00 2.3788424859e+00 
118000 5.3642964073e+00 -1.6274334109e-04 1.3734312128e+00 -2.3788526413e+00 1.3734312128e+00 2.3788526413e+00 
118100 5.3642943001e+00 -1.6445226592e-04 1.3734371375e+00 -2.3788629032e+00 1.3734371375e+00 2.3788629032e+00 
118200 5.3642921682e+00 -1.6618025512e-04 1.3734431244e+00 -2.3788732728e+00 1.3734431244e+00 2.3788732728e+00 
118300 5.3642900114e+00 -1.6792753841e-04 1.3734491742e+00 -2.3788837513e+00 1.3734491742e+00 2.3788837513e+00 
118400 5.3642878292e+00 -1.6969434850e-04 1.3734552875e+00 -2.3788943399e+00 1.3734552875e+00 2.3788943399e+00 
118500 5.3642856215e+00 -1.7148092121e-04 1.3734614652e+00 -2.3789050399e+00 1.3734614652e+00 2.3789050399e+00 
118600 5.3642833877e+00 -1.7328749545e-04 1.3734677078e+00 -2.3789158525e+00 1.3734677078e+00 2.3789158525e+00 
118700 5.3642811277e+00 -1.7511431331e-04 1.3734740162e+00 -2.3789267790e+00 1.3734740162e+00 2.3789267790e+00 
118800 5.3642788410e+00 -1.7696162009e-04 1.3734803911e+00 -2.3789378206e+00 1.3734803911e+00 2.3789378206e+00 
118900 5.3642765273e+00 -1.7882966434e-04 1.3734868332e+00 -2.3789489786e+00 1.3734868332e+00 2.3789489786e+00 
119000 5.3642741863e+00 -1.8071869792e-04 1.3734933433e+00 -2.3789602544e+00 1.3734933433e+00 2.3789602544e+00 
119100 5.3642718176e+00 -1.8262897603e-04 1.3734999221e+00 -2.3789716492e+00 1.3734999221e+00 2.3789716492e+00 
119200 5.3642694209e+00 -1.8456075729e-04 1.3735065704e+00 -2.3789831644e+00 1.3735065704e+00 2.3789831644e+00 
119300 5.3642669957e+00 -1.8651430377e-04 1.3735132890e+00 -2.3789948014e+00 1.3735132890e+00 2.3789948014e+00 
119400 5.3642645418e+00 -1.8848988103e-04 1.3735200787e+00 -2.3790065615e+00 1.3735200787e+00 2.3790065615e+00 
119500 5.3642620588e+00 -1.9048775820e-04 1.3735269402e+00 -2.3790184461e+00 1.3735269402e+00 2.3790184461e+00 
119600 5.3642595461e+00 -1.9250820800e-04 1.3735338745e+00 -2.3790304566e+00 1.3735338745e+00 2.3790304566e+00 
119700 5.3642570036e+00 -1.9455150684e-04 1.3735408823e+00 -2.3790425944e+00 1.3735408823e+00 2.3790425944e+00 
119800 5.3642544308e+00 -1.9661793481e-04 1.3735479644e+00 -2.3790548610e+00 1.3735479644e+00 2.3790548610e+00 
119900 5.3642518272e+00 -1.9870777580e-04 1.3735551217e+00 -2.3790672578e+00 1.3735551217e+00 2.3790672578e+00 
120000 5.3642491926e+00 -2.0082131750e-04 1.3735623551e+00 -2.3790797863e+00 1.3735623551e+00 2.3790797863e+00 
120100 5.3642465264e+00 -2.0295885151e-04 1.3735696653e+00 -2.3790924480e+00 1.3735696653e+00 2.3790924480e+00 
120200 5.3642438283e+00 -2.0512067334e-04 1.3735770533e+00 -2.3791052445e+00 1.3735770533e+00 2.3791052445e+00 
120300 5.3642410978e+00 -2.0730708254e-04 1.3735845200e+00 -2.3791181771e+00 1.3735845200e+00 2.3791181771e+00 
120400 5.3642383345e+00 -2.0951838267e-04 1.3735920662e+00 -2.3791312475e+00 1.3735920662e+00 2.3791312475e+00 
120500 5.3642355380e+00 -2.1175488146e-04 1.3735996929e+00 -2.3791444573e+00 1.3735996929e+00 2.3791444573e+00 
120600 5.3642327079e+00 -2.1401689079e-04 1.3736074009e+00 -2.3791578080e+00 1.3736074009e+00 2.3791578080e+00 
120700 5.3642298437e+00 -2.1630472679e-04 1.3736151912e+00 -2.3791713013e+00 1.3736151912e+00 2.3791713013e+00 
120800 5.3642269449e+00 -2.1861870991e-04 1.3736230648e+00 -2.3791849387e+00 1.3736230648e+00 2.3791849387e+00 
120900 5.3642240111e+00 -2.2095916497e-04 1.3736310225e+00 -2.3791987219e+00 1.3736310225e+00 2.3791987219e+00 
121000 5.3642210418e+00 -2.2332642121e-04 1.3736390654e+00 -2.3792126526e+00 1.3736390654e+00 2.3792126526e+00 
121100 5.3642180365e+00 -2.2572081242e-04 1.3736471944e+00 -2.3792267325e+00 1.3736471944e+00 2.3792267325e+00 
121200 5.3642149949e+00 -2.2814267691e-04 1.3736554106e+00 -2.3792409632e+00 1.3736554106e+00 2.3792409632e+00 
121300 5.3642119163e+00 -2.3059235768e-04 1.3736637148e+00 -2.3792553465e+00 1.3736637148e+00 2.3792553465e+00 
121400 5.3642088002e+00 -2.3307020243e-04 1.3736721081e+00 -2.3792698842e+00 1.3736721081e+00 2.3792698842e+00 
121500 5.3642056463e+00 -2.3557656363e-04 1.3736805916e+00 -2.3792845781e+00 1.3736805916e+00 2.3792845781e+00 
121600 5.3642024539e+00 -2.3811179863e-04 1.3736891663e+00 -2.3792994298e+00 1.3736891663e+00 2.3792994298e+00 
121700 5.3641992226e+00 -2.4067626971e-04 1.3736978332e+00 -2.3793144413e+00 1.3736978332e+00 2.3793144413e+00 
121800 5.3641959518e+00 -2.4327034416e-04 1.3737065933e+00 -2.3793296143e+00 1.3737065933e+00 2.3793296143e+00 
121900 5.3641926411e+00 -2.4589439433e-04 1.3737154479e+00 -2.3793449508e+00 1.3737154479e+00 2.3793449508e+00 
122000 5.3641892897e+00 -2.4854879777e-04 1.3737243978e+00 -2.3793604527e+00 1.3737243978e+00 2.3793604527e+00 
122100 5.3641858973e+00 -2.5123393725e-04 1.3737334444e+00 -2.3793761217e+00 1.3737334444e+00 2.3793761217e+00 
122200 5.3641824632e+00 -2.5395020087e-04 1.3737425886e+00 -2.3793919600e+00 1.3737425886e+00 2.3793919600e+00 
122300 5.3641789869e+00 -2.5669798213e-04 1.3737518316e+00 -2.3794079694e+00 1.3737518316e+00 2.3794079694e+00 
122400 5.3641754678e+00 -2.5947768002e-04 1.3737611746e+00 -2.3794241518e+00 1.3737611746e+00 2.3794241518e+00 
122500 5.3641719054e+00 -2.6228969911e-04 1.3737706187e+00 -2.3794405095e+00 1.3737706187e+00 2.3794405095e+00 
122600 5.3641682990e+00 -2.6513444963e-04 1.3737801650e+00 -2.3794570442e+00 1.3737801650e+00 2.3794570442e+00 
122700 5.3641646480e+00 -2.6801234752e-04 1.3737898148e+00 -2.3794737582e+00 1.3737898148e+00 2.3794737582e+00 
122800 5.3641609518e+00 -2.7092381462e-04 1.3737995693e+00 -2.3794906535e+00 1.3737995693e+00 2.3794906535e+00 
122900 5.3641572099e+00 -2.7386927863e-04 1.3738094297e+00 -2.3795077322e+00 1.3738094297e+00 2.3795077322e+00 
123000 5.3641534215e+00 -2.7684917331e-04 1.3738193973e+00 -2.3795249965e+00 1.3738193973e+00 2.3795249965e+00 
123100 5.3641495860e+00 -2.7986393852e-04 1.3738294732e+00 -2.3795424484e+00 1.3738294732e+00 2.3795424484e+00 
123200 5.3641457029e+00 -2.8291402033e-04 1.3738396587e+00 -2.3795600903e+00 1.3738396587e+00 2.3795600903e+00 
123300 5.3641417714e+00 -2.8599987111e-04 1.3738499552e+00 -2.3795779244e+00 1.3738499552e+00 2.3795779244e+00 
123400 5.3641377908e+00 -2.8912194963e-04 1.3738603639e+00 -2.3795959528e+00 1.3738603639e+00 2.3795959528e+00 
123500 5.3641337605e+00 -2.9228072117e-04 1.3738708862e+00 -2.3796141779e+00 1.3738708862e+00 2.3796141779e+00 
123600 5.3641296798e+00 -2.9547665761e-04 1.3738815233e+00 -2.3796326020e+00 1.3738815233e+00 2.3796326020e+00 
123700 5.3641255480e+00 -2.9871023755e-04 1.3738922767e+00 -2.3796512273e+00 1.3738922767e+00 2.3796512273e+00 
123800 5.3641213644e+00 -3.0198194638e-04 1.3739031476e+00 -2.3796700564e+00 1.3739031476e+00 2.3796700564e+00 
123900 5.3641171283e+00 -3.0529227644e-04 1.3739141376e+00 -2.3796890915e+00 1.3739141376e+00 2.3796890915e+00 
124000 5.3641128389e+00 -3.0864172708e-04 1.3739252479e+00 -2.3797083352e+00 1.3739252479e+00 2.3797083352e+00 
124100 5.3641084954e+00 -3.1203080480e-04 1.3739364800e+00 -2.3797277898e+00 1.3739364800e+00 2.3797277898e+00 
124200 5.3641040972e+00 -3.1546002336e-04 1.3739478354e+00 -2.3797474579e+00 1.3739478354e+00 2.3797474579e+00 
124300 5.3640996435e+00 -3.1892990390e-04 1.3739593155e+00 -2.3797673420e+00 1.3739593155e+00 2.3797673420e+00 
124400 5.3640951334e+00 -3.2244097501e-04 1.3739709217e+00 -2.3797874446e+00 1.3739709217e+00 2.3797874446e+00 
124500 5.3640905662e+00 -3.2599377293e-04 1.3739826557e+00 -2.3798077683e+00 1.3739826557e+00 2.3798077683e+00 
124600 5.3640859411e+00 -3.2958884161e-04 1.3739945188e+00 -2.3798283158e+00 1.3739945188e+00 2.3798283158e+00 
124700 5.3640812573e+00 -3.3322673284e-04 1.3740065126e+00 -2.3798490898e+00 1.3740065126e+00 2.3798490898e+00 
124800 5.3640765139e+00 -3.3690800640e-04 1.3740186387e+00 -2.3798700928e+00 1.3740186387e+00 2.3798700928e+00 
124900 5.3640717101e+00 -3.4063323018e-04 1.3740308987e+00 -2.3798913277e+00 1.3740308987e+00 2.3798913277e+00 
125000 5.3640668450e+00 -3.4440298029e-04 1.3740432941e+00 -2.3799127972e+00 1.3740432941e+00 2.3799127972e+00 
125100 5.3640619178e+00 -3.4821784122e-04 1.3740558266e+00 -2.3799345041e+00 1.3740558266e+00 2.3799345041e+00 
125200 5.3640569275e+00 -3.5207840595e-04 1.3740684978e+00 -2.3799564512e+00 1.3740684978e+00 2.3799564512e+00 
125300 5.3640518734e+00 -3.5598527611e-04 1.3740813093e+00 -2.3799786415e+00 1.3740813093e+00 2.3799786415e+00 
125400 5.3640467544e+00 -3.5993906209e-04 1.3740942629e+00 -2.3800010778e+00 1.3740942629e+00 2.3800010778e+00 
125500 5.3640415696e+00 -3.6394038323e-04 1.3741073603e+00 -2.3800237630e+00 1.3741073603e+00 2.3800237630e+00 
125600 5.3640363182e+00 -3.6798986789e-04 1.3741206031e+00 -2.3800467003e+00 1.3741206031e+00 2.3800467003e+00 
125700 5.3640309990e+00 -3.7208815369e-04 1.3741339931e+00 -2.3800698925e+00 1.3741339931e+00 2.3800698925e+00 
125800 5.3640256113e+00 -3.7623588757e-04 1.3741475321e+00 -2.3800933428e+00 1.3741475321e+00 2.3800933428e+00 
125900 5.3640201539e+00 -3.8043372600e-04 1.3741612220e+00 -2.3801170542e+00 1.3741612220e+00 2.3801170542e+00 
126000 5.3640146259e+00 -3.8468233512e-04 1.3741750644e+00 -2.3801410300e+00 1.3741750644e+00 2.3801410300e+00 
126100 5.3640090262e+00 -3.8898239089e-04 1.3741890613e+00 -2.3801652733e+00 1.3741890613e+00 2.3801652733e+00 
126200 5.3640033539e+00 -3.9333457926e-04 1.3742032144e+00 -2.3801897873e+00 1.3742032144e+00 2.3801897873e+00 
126300 5.3639976078e+00 -3.9773959632e-04 1.3742175258e+00 -2.3802145754e+00 1.3742175258e+00 2.3802145754e+00 
126400 5.3639917869e+00 -4.0219814849e-04 1.3742319974e+00 -2.3802396408e+00 1.3742319974e+00 2.3802396408e+00 
126500 5.3639858900e+00 -4.0671095265e-04 1.3742466309e+00 -2.3802649869e+00 1.3742466309e+00 2.3802649869e+00 
126600 5.3639799162e+00 -4.1127873637e-04 1.3742614286e+00 -2.3802906172e+00 1.3742614286e+00 2.3802906172e+00 
126700 5.3639738643e+00 -4.1590223802e-04 1.3742763922e+00 -2.3803165350e+00 1.3742763922e+00 2.3803165350e+00 
126800 5.3639677330e+00 -4.2058220700e-04 1.3742915239e+00 -2.3803427439e+00 1.3742915239e+00 2.3803427439e+00 
126900 5.3639615213e+00 -4.2531940391e-04 1.3743068257e+00 -2.3803692474e+00 1.3743068257e+00 2.3803692474e+00 
127000 5.3639552280e+00 -4.3011460069e-04 1.3743222997e+00 -2.3803960491e+00 1.3743222997e+00 2.3803960491e+00 
127100 5.3639488519e+00 -4.3496858090e-04 1.3743379480e+00 -2.3804231527e+00 1.3743379480e+00 2.3804231527e+00 
127200 5.3639423917e+00 -4.3988213981e-04 1.3743537727e+00 -2.3804505619e+00 1.3743537727e+00 2.3804505619e+00 
127300 5.3639358463e+00 -4.4485608468e-04 1.3743697760e+00 -2.3804782803e+00 1.3743697760e+00 2.3804782803e+00 
127400 5.3639292143e+00 -4.4989123489e-04 1.3743859600e+00 -2.3805063119e+00 1.3743859600e+00 2.3805063119e+00 
127500 5.3639224944e+00 -4.5498842220e-04 1.3744023270e+00 -2.3805346604e+00 1.3744023270e+00 2.3805346604e+00 
127600 5.3639156855e+00 -4.6014849091e-04 1.3744188793e+00 -2.3805633298e+00 1.3744188793e+00 2.3805633298e+00 
127700 5.3639087860e+00 -4.6537229813e-04 1.3744356191e+00 -2.3805923239e+00 1.3744356191e+00 2.3805923239e+00 
127800 5.3639017948e+00 -4.7066071390e-04 1.3744525487e+00 -2.3806216469e+00 1.3744525487e+00 2.3806216469e+00 
127900 5.3638947104e+00 -4.7601462150e-04 1.3744696705e+00 -2.3806513027e+00 1.3744696705e+00 2.3806513027e+00 
128000 5.3638875314e+00 -4.8143491763e-04 1.3744869868e+00 -2.3806812955e+00 1.3744869868e+00 2.3806812955e+00 
128100 5.3638802564e+00 -4.8692251262e-04 1.3745045001e+00 -2.3807116294e+00 1.3745045001e+00 2.3807116294e+00 
128200 5.3638728839e+00 -4.9247833071e-04 1.3745222128e+00 -2.3807423087e+00 1.3745222128e+00 2.3807423087e+00 
128300 5.3638654126e+00 -4.9810331024e-04 1.3745401274e+00 -2.3807733376e+00 1.3745401274e+00 2.3807733376e+00 
128400 5.3638578409e+00 -5.0379840388e-04 1.3745582463e+00 -2.3808047206e+00 1.3745582463e+00 2.3808047206e+00 
128500 5.3638501673e+00 -5.0956457893e-04 1.3745765722e+00 -2.3808364619e+00 1.3745765722e+00 2.3808364619e+00 
128600 5.3638423902e+00 -5.1540281752e-04 1.3745951075e+00 -2.3808685661e+00 1.3745951075e+00 2.3808685661e+00 
128700 5.3638345082e+00 -5.2131411686e-04 1.3746138550e+00 -2.3809010377e+00 1.3746138550e+00 2.3809010377e+00 
128800 5.3638265195e+00 -5.2729948955e-04 1.3746328173e+00 -2.3809338813e+00 1.3746328173e+00 2.3809338813e+00 
128900 5.3638184226e+00 -5.3335996375e-04 1.3746519970e+00 -2.3809671015e+00 1.3746519970e+00 2.3809671015e+00 
129000 5.3638102158e+00 -5.3949658353e-04 1.3746713968e+00 -2.3810007030e+00 1.3746713968e+00 2.3810007030e+00 
129100 5.3638018975e+00 -5.4571040912e-04 1.3746910196e+00 -2.3810346907e+00 1.3746910196e+00 2.3810346907e+00 
129200 5.3637934659e+00 -5.5200251714e-04 1.3747108681e+00 -2.3810690693e+00 1.3747108681e+00 2.3810690693e+00 
129300 5.3637849193e+00 -5.5837400096e-04 1.3747309452e+00 -2.3811038439e+00 1.3747309452e+00 2.3811038439e+00 
129400 5.3637762560e+00 -5.6482597090e-04 1.3747512538e+00 -2.3811390193e+00 1.3747512538e+00 2.3811390193e+00 
129500 5.3637674741e+00 -5.7135955459e-04 1.3747717967e+00 -2.3811746006e+00 1.3747717967e+00 2.3811746006e+00 
129600 5.3637585718e+00 -5.7797589724e-04 1.3747925769e+00 -2.3812105930e+00 1.3747925769e+00 2.3812105930e+00 
129700 5.3637495473e+00 -5.8467616195e-04 1.3748135974e+00 -2.3812470016e+00 1.3748135974e+00 2.3812470016e+00 
129800 5.3637403986e+00 -5.9146153001e-04 1.3748348613e+00 -2.3812838318e+00 1.3748348613e+00 2.3812838318e+00 
129900 5.3637311239e+00 -5.9833320120e-04 1.3748563716e+00 -2.3813210888e+00 1.3748563716e+00 2.3813210888e+00 
130000 5.3637217211e+00 -6.0529239415e-04 1.3748781315e+00 -2.3813587780e+00 1.3748781315e+00 2.3813587780e+00 
130100 5.3637121884e+00 -6.1234034665e-04 1.3749001442e+00 -2.3813969050e+00 1.3749001442e+00 2.3813969050e+00 
130200 5.3637025236e+00 -6.1947831596e-04 1.3749224128e+00 -2.3814354754e+00 1.3749224128e+00 2.3814354754e+00 
130300 5.3636927247e+00 -6.2670757917e-04 1.3749449406e+00 -2.3814744947e+00 1.3749449406e+00 2.3814744947e+00 
130400 5.3636827897e+00 -6.3402943355e-04 1.3749677309e+00 -2.3815139687e+00 1.3749677309e+00 2.3815139687e+00 
130500 5.3636727163e+00 -6.4144519686e-04 1.3749907871e+00 -2.3815539033e+00 1.3749907871e+00 2.3815539033e+00 
130600 5.3636625023e+00 -6.4895620780e-04 1.3750141126e+00 -2.3815943042e+00 1.3750141126e+00 2.3815943042e+00 
130700 5.3636521457e+00 -6.5656382625e-04 1.3750377109e+00 -2.3816351776e+00 1.3750377109e+00 2.3816351776e+00 
130800 5.3636416441e+00 -6.6426943374e-04 1.3750615853e+00 -2.3816765293e+00 1.3750615853e+00 2.3816765293e+00 
130900 5.3636309953e+00 -6.7207443381e-04 1.3750857396e+00 -2.3817183657e+00 1.3750857396e+00 2.3817183657e+00 
131000 5.3636201968e+00 -6.7998025234e-04 1.3751101772e+00 -2.3817606929e+00 1.3751101772e+00 2.3817606929e+00 
131100 5.3636092464e+00 -6.8798833802e-04 1.3751349018e+00 -2.3818035173e+00 1.3751349018e+00 2.3818035173e+00 
131200 5.3635981416e+00 -6.9610016271e-04 1.3751599172e+00 -2.3818468452e+00 1.3751599172e+00 2.3818468452e+00 
131300 5.3635868800e+00 -7.0431722183e-04 1.3751852271e+00 -2.3818906831e+00 1.3751852271e+00 2.3818906831e+00 
131400 5.3635754590e+00 -7.1264103482e-04 1.3752108353e+00 -2.3819350378e+00 1.3752108353e+00 2.3819350378e+00 
131500 5.3635638761e+00 -7.2107314555e-04 1.3752367456e+00 -2.3819799158e+00 1.3752367456e+00 2.3819799158e+00 
131600 5.3635521288e+00 -7.2961512273e-04 1.3752629620e+00 -2.3820253240e+00 1.3752629620e+00 2.3820253240e+00 
131700 5.3635402143e+00 -7.3826856037e-04 1.3752894885e+00 -2.3820712691e+00 1.3752894885e+00 2.3820712691e+00 
131800 5.3635281300e+00 -7.4703507824e-04 1.3753163290e+00 -2.3821177584e+00 1.3753163290e+00 2.3821177584e+00 
131900 5.3635158731e+00 -7.5591632230e-04 1.3753434878e+00 -2.3821647987e+00 1.3753434878e+00 2.3821647987e+00 
132000 5.3635034409e+00 -7.6491396517e-04 1.3753709689e+00 -2.3822123974e+00 1.3753709689e+00 2.3822123974e+00 
132100 5.3634908305e+00 -7.7402970663e-04 1.3753987765e+00 -2.3822605616e+00 1.3753987765e+00 2.3822605616e+00 
132200 5.3634780391e+00 -7.8326527409e-04 1.3754269150e+00 -2.3823092989e+00 1.3754269150e+00 2.3823092989e+00 
132300 5.3634650636e+00 -7.9262242306e-04 1.3754553886e+00 -2.3823586166e+00 1.3754553886e+00 2.3823586166e+00 
132400 5.3634519011e+00 -8.0210293768e-04 1.3754842018e+00 -2.3824085226e+00 1.3754842018e+00 2.3824085226e+00 
132500 5.3634385486e+00 -8.1170863126e-04 1.3755133590e+00 -2.3824590243e+00 1.3755133590e+00 2.3824590243e+00 
132600 5.3634250029e+00 -8.2144134672e-04 1.3755428648e+00 -2.3825101298e+00 1.3755428648e+00 2.3825101298e+00 
132700 5.3634112608e+00 -8.3130295720e-04 1.3755727237e+00 -2.3825618470e+00 1.3755727237e+00 2.3825618470e+00 
132800 5.3633973192e+00 -8.4129536656e-04 1.3756029404e+00 -2.3826141839e+00 1.3756029404e+00 2.3826141839e+00 
132900 5.3633831748e+00 -8.5142050996e-04 1.3756335197e+00 -2.3826671487e+00 1.3756335197e+00 2.3826671487e+00 
133000 5.3633688241e+00 -8.6168035439e-04 1.3756644663e+00 -2.3827207498e+00 1.3756644663e+00 2.3827207498e+00 
133100 5.3633542639e+00 -8.7207689930e-04 1.3756957851e+00 -2.3827749956e+00 1.3756957851e+00 2.3827749956e+00 
133200 5.3633394906e+00 -8.8261217710e-04 1.3757274811e+00 -2.3828298946e+00 1.3757274811e+00 2.3828298946e+00 
133300 5.3633245007e+00 -8.9328825385e-04 1.3757595592e+00 -2.3828854556e+00 1.3757595592e+00 2.3828854556e+00 
133400 5.3633092906e+00 -9.0410722979e-04 1.3757920246e+00 -2.3829416873e+00 1.3757920246e+00 2.3829416873e+00 
133500 5.3632938567e+00 -9.1507124004e-04 1.3758248825e+00 -2.3829985987e+00 1.3758248825e+00 2.3829985987e+00 
133600 5.3632781952e+00 -9.2618245513e-04 1.3758581380e+00 -2.3830561990e+00 1.3758581380e+00 2.3830561990e+00 
133700 5.3632623022e+00 -9.3744308175e-04 1.3758917965e+00 -2.3831144972e+00 1.3758917965e+00 2.3831144972e+00 
133800 5.3632461740e+00 -9.4885536332e-04 1.3759258633e+00 -2.3831735028e+00 1.3759258633e+00 2.3831735028e+00 
133900 5.3632298065e+00 -9.6042158073e-04 1.3759603441e+00 -2.3832332252e+00 1.3759603441e+00 2.3832332252e+00 
134000 5.3632131958e+00 -9.7214405296e-04 1.3759952443e+00 -2.3832936741e+00 1.3759952443e+00 2.3832936741e+00 
134100 5.3631963377e+00 -9.8402513782e-04 1.3760305696e+00 -2.3833548593e+00 1.3760305696e+00 2.3833548593e+00 
134200 5.3631792280e+00 -9.9606723263e-04 1.3760663257e+00 -2.3834167906e+00 1.3760663257e+00 2.3834167906e+00 
134300 5.3631618626e+00 -1.0082727750e-03 1.3761025184e+00 -2.3834794783e+00 1.3761025184e+00 2.3834794783e+00 
134400 5.3631442370e+00 -1.0206442434e-03 1.3761391536e+00 -2.3835429324e+00 1.3761391536e+00 2.3835429324e+00 
134500 5.3631263468e+00 -1.0331841582e-03 1.3761762374e+00 -2.3836071634e+00 1.3761762374e+00 2.3836071634e+00 
134600 5.3631081876e+00 -1.0458950821e-03 1.3762137758e+00 -2.3836721818e+00 1.3762137758e+00 2.3836721818e+00 
134700 5.3630897547e+00 -1.0587796213e-03 1.3762517750e+00 -2.3837379983e+00 1.3762517750e+00 2.3837379983e+00 
134800 5.3630710434e+00 -1.0718404258e-03 1.3762902412e+00 -2.3838046238e+00 1.3762902412e+00 2.3838046238e+00 
134900 5.3630520490e+00 -1.0850801906e-03 1.3763291809e+00 -2.3838720692e+00 1.3763291809e+00 2.3838720692e+00 
135000 5.3630327666e+00 -1.0985016565e-03 1.3763686004e+00 -2.3839403459e+00 1.3763686004e+00 2.3839403459e+00 
135100 5.3630131912e+00 -1.1121076107e-03 1.3764085064e+00 -2.3840094651e+00 1.3764085064e+00 2.3840094651e+00 
135200 5.3629933179e+00 -1.1259008879e-03 1.3764489055e+00 -2.3840794383e+00 1.3764489055e+00 2.3840794383e+00 
135300 5.3629731414e+00 -1.1398843711e-03 1.3764898045e+00 -2.3841502774e+00 1.3764898045e+00 2.3841502774e+00 
135400 5.3629526564e+00 -1.1540609924e-03 1.3765312101e+00 -2.3842219942e+00 1.3765312101e+00 2.3842219942e+00 
135500 5.3629318577e+00 -1.1684337339e-03 1.3765731295e+00 -2.3842946007e+00 1.3765731295e+00 2.3842946007e+00 
135600 5.3629107397e+00 -1.1830056290e-03 1.3766155697e+00 -2.3843681092e+00 1.3766155697e+00 2.3843681092e+00 
135700 5.3628892970e+00 -1.1977797627e-03 1.3766585378e+00 -2.3844425322e+00 1.3766585378e+00 2.3844425322e+00 
135800 5.3628675237e+00 -1.2127592732e-03 1.3767020412e+00 -2.3845178822e+00 1.3767020412e+00 2.3845178822e+00 
135900 5.3628454142e+00 -1.2279473524e-03 1.3767460872e+00 -2.3845941722e+00 1.3767460872e+00 2.3845941722e+00 
136000 5.3628229626e+00 -1.2433472471e-03 1.3767906835e+00 -2.3846714152e+00 1.3767906835e+00 2.3846714152e+00 
136100 5.3628001627e+00 -1.2589622603e-03 1.3768358376e+00 -2.3847496243e+00 1.3768358376e+00 2.3847496243e+00 
136200 5.3627770085e+00 -1.2747957515e-03 1.3768815572e+00 -2.3848288131e+00 1.3768815572e+00 2.3848288131e+00 
136300 5.3627534937e+00 -1.2908511385e-03 1.3769278503e+00 -2.3849089951e+00 1.3769278503e+00 2.3849089951e+00 
136400 5.3627296120e+00 -1.3071318981e-03 1.3769747249e+00 -2.3849901843e+00 1.3769747249e+00 2.3849901843e+00 
136500 5.3627053568e+00 -1.3236415674e-03 1.3770221891e+00 -2.3850723947e+00 1.3770221891e+00 2.3850723947e+00 
136600 5.3626807215e+00 -1.3403837446e-03 1.3770702511e+00 -2.3851556405e+00 1.3770702511e+00 2.3851556405e+00 
136700 5.3626556993e+00 -1.3573620904e-03 1.3771189193e+00 -2.3852399364e+00 1.3771189193e+00 2.3852399364e+00 
136800 5.3626302833e+00 -1.3745803292e-03 1.3771682023e+00 -2.3853252970e+00 1.3771682023e+00 2.3853252970e+00 
136900 5.3626044665e+00 -1.3920422502e-03 1.3772181087e+00 -2.3854117373e+00 1.3772181087e+00 2.3854117373e+00 
137000 5.3625782416e+00 -1.4097517084e-03 1.3772686472e+00 -2.3854992726e+00 1.3772686472e+00 2.3854992726e+00 
137100 5.3625516014e+00 -1.4277126262e-03 1.3773198267e+00 -2.3855879182e+00 1.3773198267e+00 2.3855879182e+00 
137200 5.3625245384e+00 -1.4459289945e-03 1.3773716564e+00 -2.3856776899e+00 1.3773716564e+00 2.3856776899e+00 
137300 5.3624970449e+00 -1.4644048739e-03 1.3774241455e+00 -2.3857686035e+00 1.3774241455e+00 2.3857686035e+00 
137400 5.3624691132e+00 -1.4831443961e-03 1.3774773032e+00 -2.3858606754e+00 1.3774773032e+00 2.3858606754e+00 
137500 5.3624407353e+00 -1.5021517649e-03 1.3775311391e+00 -2.3859539219e+00 1.3775311391e+00 2.3859539219e+00 
137600 5.3624119031e+00 -1.5214312583e-03 1.3775856628e+00 -2.3860483597e+00 1.3775856628e+00 2.3860483597e+00 
137700 5.3623826084e+00 -1.5409872292e-03 1.3776408841e+00 -2.3861440058e+00 1.3776408841e+00 2.3861440058e+00 
137800 5.3623528427e+00 -1.5608241068e-03 1.3776968129e+00 -2.3862408774e+00 1.3776968129e+00 2.3862408774e+00 
137900 5.3623225974e+00 -1.5809463986e-03 1.3777534594e+00 -2.3863389921e+00 1.3777534594e+00 2.3863389921e+00 
138000 5.3622918637e+00 -1.6013586912e-03 1.3778108339e+00 -2.3864383676e+00 1.3778108339e+00 2.3864383676e+00 
138100 5.3622606327e+00 -1.6220656522e-03 1.3778689467e+00 -2.3865390219e+00 1.3778689467e+00 2.3865390219e+00 
138200 5.3622288953e+00 -1.6430720317e-03 1.3779278086e+00 -2.3866409736e+00 1.3779278086e+00 2.3866409736e+00 
138300 5.3621966420e+00 -1.6643826634e-03 1.3779874301e+00 -2.3867442411e+00 1.3779874301e+00 2.3867442411e+00 
138400 5.3621638635e+00 -1.6860024668e-03 1.3780478223e+00 -2.3868488436e+00 1.3780478223e+00 2.3868488436e+00 
138500 5.3621305498e+00 -1.7079364482e-03 1.3781089964e+00 -2.3869548001e+00 1.3781089964e+00 2.3869548001e+00 
138600 5.3620966912e+00 -1.7301897027e-03 1.3781709635e+00 -2.3870621303e+00 1.3781709635e+00 2.3870621303e+00 
138700 5.3620622776e+00 -1.7527674159e-03 1.3782337352e+00 -2.3871708541e+00 1.3782337352e+00 2.3871708541e+00 
138800 5.3620272984e+00 -1.7756748652e-03 1.3782973232e+00 -2.3872809917e+00 1.3782973232e+00 2.3872809917e+00 
138900 5.3619917433e+00 -1.7989174218e-03 1.3783617392e+00 -2.3873925635e+00 1.3783617392e+00 2.3873925635e+00 
139000 5.3619556015e+00 -1.8225005524e-03 1.3784269953e+00 -2.3875055904e+00 1.3784269953e+00 2.3875055904e+00 
139100 5.3619188619e+00 -1.8464298208e-03 1.3784931038e+00 -2.3876200937e+00 1.3784931038e+00 2.3876200937e+00 
139200 5.3618815133e+00 -1.8707108901e-03 1.3785600772e+00 -2.3877360949e+00 1.3785600772e+00 2.3877360949e+00 
139300 5.3618435443e+00 -1.8953495241e-03 1.3786279279e+00 -2.3878536158e+00 1.3786279279e+00 2.3878536158e+00 
139400 5.3618049432e+00 -1.9203515895e-03 1.3786966689e+00 -2.3879726787e+00 1.3786966689e+00 2.3879726787e+00 
139500 5.3617656980e+00 -1.9457230574e-03 1.3787663132e+00 -2.3880933062e+00 1.3787663132e+00 2.3880933062e+00 
139600 5.3617257966e+00 -1.9714700056e-03 1.3788368741e+00 -2.3882155213e+00 1.3788368741e+00 2.3882155213e+00 
139700 5.3616852265e+00 -1.9975986206e-03 1.3789083650e+00 -2.3883393472e+00 1.3789083650e+00 2.3883393472e+00 
139800 5.3616439749e+00 -2.0241151993e-03 1.3789807997e+00 -2.3884648078e+00 1.3789807997e+00 2.3884648078e+00 
139900 5.3616020289e+00 -2.0510261512e-03 1.3790541921e+00 -2.3885919271e+00 1.3790541921e+00 2.3885919271e+00 
140000 5.3615593753e+00 -2.0783380005e-03 1.3791285563e+00 -2.3887207296e+00 1.3791285563e+00 2.3887207296e+00 
140100 5.3615160005e+00 -2.1060573879e-03 1.3792039066e+00 -2.3888512403e+00 1.3792039066e+00 2.3888512403e+00 
140200 5.3614718908e+00 -2.1341910735e-03 1.3792802578e+00 -2.3889834844e+00 1.3792802578e+00 2.3889834844e+00 
140300 5.3614270318e+00 -2.1627459379e-03 1.3793576247e+00 -2.3891174877e+00 1.3793576247e+00 2.3891174877e+00 
140400 5.3613814094e+00 -2.1917289853e-03 1.3794360223e+00 -2.3892532763e+00 1.3794360223e+00 2.3892532763e+00 
140500 5.3613350087e+00 -2.2211473455e-03 1.3795154660e+00 -2.3893908769e+00 1.3795154660e+00 2.3893908769e+00 
140600 5.3612878147e+00 -2.2510082757e-03 1.3795959714e+00 -2.3895303163e+00 1.3795959714e+00 2.3895303163e+00 
140700 5.3612398121e+00 -2.2813191635e-03 1.3796775543e+00 -2.3896716221e+00 1.3796775543e+00 2.3896716221e+00 
140800 5.3611909852e+00 -2.3120875290e-03 1.3797602309e+00 -2.3898148223e+00 1.3797602309e+00 2.3898148223e+00 
140900 5.3611413179e+00 -2.3433210270e-03 1.3798440176e+00 -2.3899599451e+00 1.3798440176e+00 2.3899599451e+00 
141000 5.3610907939e+00 -2.3750274496e-03 1.3799289310e+00 -2.3901070194e+00 1.3799289310e+00 2.3901070194e+00 
141100 5.3610393965e+00 -2.4072147287e-03 1.3800149881e+00 -2.3902560746e+00 1.3800149881e+00 2.3902560746e+00 
141200 5.3609871086e+00 -2.4398909384e-03 1.3801022060e+00 -2.3904071404e+00 1.3801022060e+00 2.3904071404e+00 
141300 5.3609339128e+00 -2.4730642976e-03 1.3801906022e+00 -2.3905602472e+00 1.3801906022e+00 2.3905602472e+00 
141400 5.3608797913e+00 -2.5067431724e-03 1.3802801946e+00 -2.3907154257e+00 1.3802801946e+00 2.3907154257e+00 
141500 5.3608247258e+00 -2.5409360791e-03 1.3803710012e+00 -2.3908727074e+00 1.3803710012e+00 2.3908727074e+00 
141600 5.3607686978e+00 -2.5756516864e-03 1.3804630404e+00 -2.3910321239e+00 1.3804630404e+00 2.3910321239e+00 
141700 5.3607116883e+00 -2.6108988183e-03 1.3805563308e+00 -2.3911937077e+00 1.3805563308e+00 2.3911937077e+00 
141800 5.3606536779e+00 -2.6466864569e-03 1.3806508916e+00 -2.3913574917e+00 1.3806508916e+00 2.3913574917e+00 
141900 5.3605946467e+00 -2.6830237450e-03 1.3807467419e+00 -2.3915235094e+00 1.3807467419e+00 2.3915235094e+00 
142000 5.3605345746e+00 -2.7199199889e-03 1.3808439015e+00 -2.3916917947e+00 1.3808439015e+00 2.3916917947e+00 
142100 5.3604734407e+00 -2.7573846613e-03 1.3809423903e+00 -2.3918623822e+00 1.3809423903e+00 2.3918623822e+00 
142200 5.3604112241e+00 -2.7954274040e-03 1.3810422285e+00 -2.3920353072e+00 1.3810422285e+00 2.3920353072e+00 
142300 5.3603479030e+00 -2.8340580312e-03 1.3811434369e+00 -2.3922106053e+00 1.3811434369e+00 2.3922106053e+00 
142400 5.3602834554e+00 -2.8732865319e-03 1.3812460364e+00 -2.3923883129e+00 1.3812460364e+00 2.3923883129e+00 
142500 5.3602178588e+00 -2.9131230732e-03 1.3813500484e+00 -2.3925684669e+00 1.3813500484e+00 2.3925684669e+00 
142600 5.3601510900e+00 -2.9535780031e-03 1.3814554945e+00 -2.3927511049e+00 1.3814554945e+00 2.3927511049e+00 
142700 5.3600831257e+00 -2.9946618538e-03 1.3815623969e+00 -2.3929362652e+00 1.3815623969e+00 2.3929362652e+00 
142800 5.3600139416e+00 -3.0363853444e-03 1.3816707778e+00 -2.3931239865e+00 1.3816707778e+00 2.3931239865e+00 
142900 5.3599435133e+00 -3.0787593843e-03 1.3817806602e+00 -2.3933143084e+00 1.3817806602e+00 2.3933143084e+00 
143000 5.3598718156e+00 -3.1217950760e-03 1.3818920672e+00 -2.3935072710e+00 1.3818920672e+00 2.3935072710e+00 
143100 5.3597988228e+00 -3.1655037186e-03 1.3820050224e+00 -2.3937029151e+00 1.3820050224e+00 2.3937029151e+00 
143200 5.3597245087e+00 -3.2098968106e-03 1.3821195497e+00 -2.3939012823e+00 1.3821195497e+00 2.3939012823e+00 
143300 5.3596488464e+00 -3.2549860535e-03 1.3822356736e+00 -2.3941024148e+00 1.3822356736e+00 2.3941024148e+00 
143400 5.3595718087e+00 -3.3007833544e-03 1.3823534188e+00 -2.3943063554e+00 1.3823534188e+00 2.3943063554e+00 
143500 5.3594933675e+00 -3.3473008301e-03 1.3824728105e+00 -2.3945131479e+00 1.3824728105e+00 2.3945131479e+00 
143600 5.3594134941e+00 -3.3945508094e-03 1.3825938744e+00 -2.3947228367e+00 1.3825938744e+00 2.3947228367e+00 
143700 5.3593321594e+00 -3.4425458371e-03 1.3827166364e+00 -2.3949354668e+00 1.3827166364e+00 2.3949354668e+00 
143800 5.3592493335e+00 -3.4912986769e-03 1.3828411232e+00 -2.3951510841e+00 1.3828411232e+00 2.3951510841e+00 
143900 5.3591649858e+00 -3.5408223149e-03 1.3829673615e+00 -2.3953697354e+00 1.3829673615e+00 2.3953697354e+00 
144000 5.3590790852e+00 -3.5911299626e-03 1.3830953789e+00 -2.3955914680e+00 1.3830953789e+00 2.3955914680e+00 
144100 5.3589915997e+00 -3.6422350607e-03 1.3832252031e+00 -2.3958163301e+00 1.3832252031e+00 2.3958163301e+00 
144200 5.3589024967e+00 -3.6941512818e-03 1.3833568626e+00 -2.3960443710e+00 1.3833568626e+00 2.3960443710e+00 
144300 5.3588117430e+00 -3.7468925345e-03 1.3834903860e+00 -2.3962756403e+00 1.3834903860e+00 2.3962756403e+00 
144400 5.3587193046e+00 -3.8004729657e-03 1.3836258027e+00 -2.3965101889e+00 1.3836258027e+00 2.3965101889e+00 
144500 5.3586251466e+00 -3.8549069650e-03 1.3837631424e+00 -2.3967480683e+00 1.3837631424e+00 2.3967480683e+00 
144600 5.3585292335e+00 -3.9102091670e-03 1.3839024354e+00 -2.3969893309e+00 1.3839024354e+00 2.3969893309e+00 
144700 5.3584315289e+00 -3.9663944554e-03 1.3840437126e+00 -2.3972340301e+00 1.3840437126e+00 2.3972340301e+00 
144800 5.3583319958e+00 -4.0234779655e-03 1.3841870051e+00 -2.3974822201e+00 1.3841870051e+00 2.3974822201e+00 
144900 5.3582305963e+00 -4.0814750883e-03 1.3843323449e+00 -2.3977339559e+00 1.3843323449e+00 2.3977339559e+00 
145000 5.3581272915e+00 -4.1404014729e-03 1.3844797642e+00 -2.3979892937e+00 1.3844797642e+00 2.3979892937e+00 
145100 5.3580220419e+00 -4.2002730300e-03 1.3846292961e+00 -2.3982482905e+00 1.3846292961e+00 2.3982482905e+00 
145200 5.3579148070e+00 -4.2611059352e-03 1.3847809739e+00 -2.3985110041e+00 1.3847809739e+00 2.3985110041e+00 
145300 5.3578055454e+00 -4.3229166318e-03 1.3849348316e+00 -2.3987774935e+00 1.3849348316e+00 2.3987774935e+00 
145400 5.3576942148e+00 -4.3857218341e-03 1.3850909038e+00 -2.3990478185e+00 1.3850909038e+00 2.3990478185e+00 
145500 5.3575807721e+00 -4.4495385299e-03 1.3852492257e+00 -2.3993220401e+00 1.3852492257e+00 2.3993220401e+00 
145600 5.3574651732e+00 -4.5143839842e-03 1.3854098331e+00 -2.3996002203e+00 1.3854098331e+00 2.3996002203e+00 
145700 5.3573473729e+00 -4.5802757412e-03 1.3855727622e+00 -2.3998824218e+00 1.3855727622e+00 2.3998824218e+00 
145800 5.3572273253e+00 -4.6472316274e-03 1.3857380501e+00 -2.4001687087e+00 1.3857380501e+00 2.4001687087e+00 
145900 5.3571049832e+00 -4.7152697545e-03 1.3859057342e+00 -2.4004591462e+00 1.3859057342e+00 2.4004591462e+00 
146000 5.3569802985e+00 -4.7844085215e-03 1.3860758528e+00 -2.4007538002e+00 1.3860758528e+00 2.4007538002e+00 
146100 5.3568532222e+00 -4.8546666174e-03 1.3862484446e+00 -2.4010527380e+00 1.3862484446e+00 2.4010527380e+00 
146200 5.3567237041e+00 -4.9260630236e-03 1.3864235492e+00 -2.4013560280e+00 1.3864235492e+00 2.4013560280e+00 
146300 5.3565916928e+00 -4.9986170158e-03 1.3866012066e+00 -2.4016637397e+00 1.3866012066e+00 2.4016637397e+00 
146400 5.3564571361e+00 -5.0723481664e-03 1.3867814576e+00 -2.4019759436e+00 1.3867814576e+00 2.4019759436e+00 
146500 5.3563199804e+00 -5.1472763460e-03 1.3869643437e+00 -2.4022927115e+00 1.3869643437e+00 2.4022927115e+00 
146600 5.3561801711e+00 -5.2234217256e-03 1.3871499069e+00 -2.4026141164e+00 1.3871499069e+00 2.4026141164e+00 
146700 5.3560376525e+00 -5.3008047777e-03 1.3873381901e+00 -2.4029402325e+00 1.3873381901e+00 2.4029402325e+00 
146800 5.3558923675e+00 -5.3794462780e-03 1.3875292367e+00 -2.4032711350e+00 1.3875292367e+00 2.4032711350e+00 
146900 5.3557442579e+00 -5.4593673063e-03 1.3877230911e+00 -2.4036069006e+00 1.3877230911e+00 2.4036069006e+00 
147000 5.3555932643e+00 -5.5405892477e-03 1.3879197980e+00 -2.4039476070e+00 1.3879197980e+00 2.4039476070e+00 
147100 5.3554393260e+00 -5.6231337929e-03 1.3881194033e+00 -2.4042933335e+00 1.3881194033e+00 2.4042933335e+00 
147200 5.3552823811e+00 -5.7070229390e-03 1.3883219533e+00 -2.4046441603e+00 1.3883219533e+00 2.4046441603e+00 
147300 5.3551223663e+00 -5.7922789894e-03 1.3885274951e+00 -2.4050001691e+00 1.3885274951e+00 2.4050001691e+00 
147400 5.3549592170e+00 -5.8789245540e-03 1.3887360766e+00 -2.4053614430e+00 1.3887360766e+00 2.4053614430e+00 
147500 5.3547928674e+00 -5.9669825482e-03 1.3889477465e+00 -2.4057280661e+00 1.3889477465e+00 2.4057280661e+00 
147600 5.3546232500e+00 -6.0564761927e-03 1.3891625543e+00 -2.4061001241e+00 1.3891625543e+00 2.4061001241e+00 
147700 5.3544502963e+00 -6.1474290119e-03 1.3893805502e+00 -2.4064777041e+00 1.3893805502e+00 2.4064777041e+00 
147800 5.3542739362e+00 -6.2398648330e-03 1.3896017852e+00 -2.4068608943e+00 1.3896017852e+00 2.4068608943e+00 
147900 5.3540940981e+00 -6.3338077832e-03 1.3898263112e+00 -2.4072497847e+00 1.3898263112e+00 2.4072497847e+00 
148000 5.3539107091e+00 -6.4292822883e-03 1.3900541807e+00 -2.4076444662e+00 1.3900541807e+00 2.4076444662e+00 
148100 5.3537236947e+00 -6.5263130692e-03 1.3902854472e+00 -2.4080450316e+00 1.3902854472e+00 2.4080450316e+00 
148200 5.3535329791e+00 -6.6249251391e-03 1.3905201651e+00 -2.4084515749e+00 1.3905201651e+00 2.4084515749e+00 
148300 5.3533384846e+00 -6.7251437997e-03 1.3907583894e+00 -2.4088641915e+00 1.3907583894e+00 2.4088641915e+00 
148400 5.3531401325e+00 -6.8269946365e-03 1.3910001761e+00 -2.4092829784e+00 1.3910001761e+00 2.4092829784e+00 
148500 5.3529378420e+00 -6.9305035146e-03 1.3912455821e+00 -2.4097080341e+00 1.3912455821e+00 2.4097080341e+00 
148600 5.3527315310e+00 -7.0356965729e-03 1.3914946651e+00 -2.4101394583e+00 1.3914946651e+00 2.4101394583e+00 
148700 5.3525211159e+00 -7.1426002178e-03 1.3917474835e+00 -2.4105773527e+00 1.3917474835e+00 2.4105773527e+00 
148800 5.3523065112e+00 -7.2512411173e-03 1.3920040968e+00 -2.4110218200e+00 1.3920040968e+00 2.4110218200e+00 
148900 5.3520876300e+00 -7.3616461926e-03 1.3922645654e+00 -2.4114729649e+00 1.3922645654e+00 2.4114729649e+00 
149000 5.3518643837e+00 -7.4738426106e-03 1.3925289505e+00 -2.4119308932e+00 1.3925289505e+00 2.4119308932e+00 
149100 5.3516366819e+00 -7.5878577751e-03 1.3927973141e+00 -2.4123957127e+00 1.3927973141e+00 2.4123957127e+00 
149200 5.3514044326e+00 -7.7037193165e-03 1.3930697193e+00 -2.4128675324e+00 1.3930697193e+00 2.4128675324e+00 
149300 5.3511675422e+00 -7.8214550818e-03 1.3933462300e+00 -2.4133464630e+00 1.3933462300e+00 2.4133464630e+00 
149400 5.3509259153e+00 -7.9410931230e-03 1.3936269111e+00 -2.4138326168e+00 1.3936269111e+00 2.4138326168e+00 
149500 5.3506794547e+00 -8.0626616846e-03 1.3939118282e+00 -2.4143261078e+00 1.3939118282e+00 2.4143261078e+00 
149600 5.3504280616e+00 -8.1861891906e-03 1.3942010481e+00 -2.4148270513e+00 1.3942010481e+00 2.4148270513e+00 
149700 5.3501716354e+00 -8.3117042297e-03 1.3944946384e+00 -2.4153355645e+00 1.3944946384e+00 2.4153355645e+00 
149800 5.3499100736e+00 -8.4392355405e-03 1.3947926675e+00 -2.4158517661e+00 1.3947926675e+00 2.4158517661e+00 
149900 5.3496432722e+00 -8.5688119943e-03 1.3950952049e+00 -2.4163757763e+00 1.3950952049e+00 2.4163757763e+00 
150000 5.3493711253e+00 -8.7004625780e-03 1.3954023211e+00 -2.4169077172e+00 1.3954023211e+00 2.4169077172e+00 
150100 5.3490935252e+00 -8.8342163747e-03 1.3957140874e+00 -2.4174477121e+00 1.3957140874e+00 2.4174477121e+00 
150200 5.3488103625e+00 -8.9701025441e-03 1.3960305759e+00 -2.4179958864e+00 1.3960305759e+00 2.4179958864e+00 
150300 5.3485215260e+00 -9.1081503006e-03 1.3963518599e+00 -2.4185523666e+00 1.3963518599e+00 2.4185523666e+00 
150400 5.3482269028e+00 -9.2483888905e-03 1.3966780136e+00 -2.4191172813e+00 1.3966780136e+00 2.4191172813e+00 
150500 5.3479263780e+00 -9.3908475679e-03 1.3970091118e+00 -2.4196907604e+00 1.3970091118e+00 2.4196907604e+00 
150600 5.3476198352e+00 -9.5355555688e-03 1.3973452308e+00 -2.4202729354e+00 1.3973452308e+00 2.4202729354e+00 
150700 5.3473071562e+00 -9.6825420839e-03 1.3976864472e+00 -2.4208639396e+00 1.3976864472e+00 2.4208639396e+00 
150800 5.3469882210e+00 -9.8318362298e-03 1.3980328390e+00 -2.4214639078e+00 1.3980328390e+00 2.4214639078e+00 
150900 5.3466629080e+00 -9.9834670181e-03 1.3983844848e+00 -2.4220729762e+00 1.3983844848e+00 2.4220729762e+00 
151000 5.3463310939e+00 -1.0137463323e-02 1.3987414643e+00 -2.4226912829e+00 1.3987414643e+00 2.4226912829e+00 
151100 5.3459926535e+00 -1.0293853849e-02 1.3991038580e+00 -2.4233189671e+00 1.3991038580e+00 2.4233189671e+00 
151200 5.3456474603e+00 -1.0452667093e-02 1.3994717472e+00 -2.4239561699e+00 1.3994717472e+00 2.4239561699e+00 
151300 5.3452953859e+00 -1.0613931305e-02 1.3998452143e+00 -2.4246030339e+00 1.3998452143e+00 2.4246030339e+00 
151400 5.3449363005e+00 -1.0777674454e-02 1.4002243423e+00 -2.4252597028e+00 1.4002243423e+00 2.4252597028e+00 
151500 5.3445700728e+00 -1.0943924182e-02 1.4006092152e+00 -2.4259263222e+00 1.4006092152e+00 2.4259263222e+00 
151600 5.3441965698e+00 -1.1112707758e-02 1.4009999178e+00 -2.4266030389e+00 1.4009999178e+00 2.4266030389e+00 
151700 5.3438156572e+00 -1.1284052039e-02 1.4013965356e+00 -2.4272900012e+00 1.4013965356e+00 2.4272900012e+00 
151800 5.3434271994e+00 -1.1457983417e-02 1.4017991551e+00 -2.4279873587e+00 1.4017991551e+00 2.4279873587e+00 
151900 5.3430310593e+00 -1.1634527768e-02 1.4022078635e+00 -2.4286952623e+00 1.4022078635e+00 2.4286952623e+00 
152000 5.3426270986e+00 -1.1813710402e-02 1.4026227485e+00 -2.4294138643e+00 1.4026227485e+00 2.4294138643e+00 
152100 5.3422151778e+00 -1.1995556007e-02 1.4030438989e+00 -2.4301433181e+00 1.4030438989e+00 2.4301433181e+00 
152200 5.3417951562e+00 -1.2180088593e-02 1.4034714039e+00 -2.4308837784e+00 1.4034714039e+00 2.4308837784e+00 
152300 5.3413668923e+00 -1.2367331427e-02 1.4039053534e+00 -2.4316354011e+00 1.4039053534e+00 2.4316354011e+00 
152400 5.3409302434e+00 -1.2557306978e-02 1.4043458382e+00 -2.4323983431e+00 1.4043458382e+00 2.4323983431e+00 
152500 5.3404850660e+00 -1.2750036848e-02 1.4047929493e+00 -2.4331727623e+00 1.4047929493e+00 2.4331727623e+00 
152600 5.3400312159e+00 -1.2945541704e-02 1.4052467786e+00 -2.4339588176e+00 1.4052467786e+00 2.4339588176e+00 
152700 5.3395685483e+00 -1.3143841211e-02 1.4057074182e+00 -2.4347566690e+00 1.4057074182e+00 2.4347566690e+00 
152800 5.3390969178e+00 -1.3344953955e-02 1.4061749611e+00 -2.4355664770e+00 1.4061749611e+00 2.4355664770e+00 
152900 5.3386161785e+00 -1.3548897373e-02 1.4066495004e+00 -2.4363884031e+00 1.4066495004e+00 2.4363884031e+00 
153000 5.3381261844e+00 -1.3755687672e-02 1.4071311296e+00 -2.4372226094e+00 1.4071311296e+00 2.4372226094e+00 
153100 5.3376267893e+00 -1.3965339751e-02 1.4076199427e+00 -2.4380692586e+00 1.4076199427e+00 2.4380692586e+00 
153200 5.3371178470e+00 -1.4177867113e-02 1.4081160340e+00 -2.4389285139e+00 1.4081160340e+00 2.4389285139e+00 
153300 5.3365992114e+00 -1.4393281784e-02 1.4086194979e+00 -2.4398005389e+00 1.4086194979e+00 2.4398005389e+00 
153400 5.3360707370e+00 -1.4611594226e-02 1.4091304291e+00 -2.4406854976e+00 1.4091304291e+00 2.4406854976e+00 
153500 5.3355322785e+00 -1.4832813239e-02 1.4096489222e+00 -2.4415835541e+00 1.4096489222e+00 2.4415835541e+00 
153600 5.3349836914e+00 -1.5056945877e-02 1.4101750722e+00 -2.4424948727e+00 1.4101750722e+00 2.4424948727e+00 
153700 5.3344248323e+00 -1.5283997343e-02 1.4107089739e+00 -2.4434196174e+00 1.4107089739e+00 2.4434196174e+00 
153800 5.3338555586e+00 -1.5513970898e-02 1.4112507219e+00 -2.4443579525e+00 1.4112507219e+00 2.4443579525e+00 
153900 5.3332757292e+00 -1.5746867759e-02 1.4118004108e+00 -2.4453100416e+00 1.4118004108e+00 2.4453100416e+00 
154000 5.3326852044e+00 -1.5982686994e-02 1.4123581349e+00 -2.4462760482e+00 1.4123581349e+00 2.4462760482e+00 
154100 5.3320838464e+00 -1.6221425417e-02 1.4129239884e+00 -2.4472561351e+00 1.4129239884e+00 2.4472561351e+00 
154200 5.3314715193e+00 -1.6463077488e-02 1.4134980646e+00 -2.4482504644e+00 1.4134980646e+00 2.4482504644e+00 
154300 5.3308480896e+00 -1.6707635195e-02 1.4140804569e+00 -2.4492591974e+00 1.4140804569e+00 2.4492591974e+00 
154400 5.3302134262e+00 -1.6955087952e-02 1.4146712578e+00 -2.4502824945e+00 1.4146712578e+00 2.4502824945e+00 
154500 5.3295674009e+00 -1.7205422484e-02 1.4152705590e+00 -2.4513205146e+00 1.4152705590e+00 2.4513205146e+00 
154600 5.3289098885e+00 -1.7458622713e-02 1.4158784517e+00 -2.4523734157e+00 1.4158784517e+00 2.4523734157e+00 
154700 5.3282407672e+00 -1.7714669649e-02 1.4164950262e+00 -2.4534413540e+00 1.4164950262e+00 2.4534413540e+00 
154800 5.3275599189e+00 -1.7973541270e-02 1.4171203715e+00 -2.4545244839e+00 1.4171203715e+00 2.4545244839e+00 
154900 5.3268672296e+00 -1.8235212411e-02 1.4177545760e+00 -2.4556229583e+00 1.4177545760e+00 2.4556229583e+00 
155000 5.3261625895e+00 -1.8499654650e-02 1.4183977265e+00 -2.4567369276e+00 1.4183977265e+00 2.4567369276e+00 
155100 5.3254458935e+00 -1.8766836189e-02 1.4190499085e+00 -2.4578665401e+00 1.4190499085e+00 2.4578665401e+00 
155200 5.3247170416e+00 -1.9036721740e-02 1.4197112064e+00 -2.4590119415e+00 1.4197112064e+00 2.4590119415e+00 
155300 5.3239759389e+00 -1.9309272417e-02 1.4203817026e+00 -2.4601732750e+00 1.4203817026e+00 2.4601732750e+00 
155400 5.3232224965e+00 -1.9584445616e-02 1.4210614780e+00 -2.4613506806e+00 1.4210614780e+00 2.4613506806e+00 
155500 5.3224566314e+00 -1.9862194911e-02 1.4217506117e+00 -2.4625442952e+00 1.4217506117e+00 2.4625442952e+00 
155600 5.3216782671e+00 -2.0142469941e-02 1.4224491808e+00 -2.4637542524e+00 1.4224491808e+00 2.4637542524e+00 
155700 5.3208873341e+00 -2.0425216303e-02 1.4231572603e+00 -2.4649806819e+00 1.4231572603e+00 2.4649806819e+00 
155800 5.3200837699e+00 -2.0710375456e-02 1.4238749228e+00 -2.4662237098e+00 1.4238749228e+00 2.4662237098e+00 
155900 5.3192675196e+00 -2.0997884612e-02 1.4246022387e+00 -2.4674834579e+00 1.4246022387e+00 2.4674834579e+00 
156000 5.3184385366e+00 -2.1287676649e-02 1.4253392758e+00 -2.4687600436e+00 1.4253392758e+00 2.4687600436e+00 
156100 5.3175967825e+00 -2.1579680012e-02 1.4260860992e+00 -2.4700535797e+00 1.4260860992e+00 2.4700535797e+00 
156200 5.3167422277e+00 -2.1873818635e-02 1.4268427711e+00 -2.4713641740e+00 1.4268427711e+00 2.4713641740e+00 
156300 5.3158748519e+00 -2.2170011856e-02 1.4276093509e+00 -2.4726919291e+00 1.4276093509e+00 2.4726919291e+00 
156400 5.3149946444e+00 -2.2468174346e-02 1.4283858946e+00 -2.4740369422e+00 1.4283858946e+00 2.4740369422e+00 
156500 5.3141016046e+00 -2.2768216038e-02 1.4291724550e+00 -2.4753993048e+00 1.4291724550e+00 2.4753993048e+00 
156600 5.3131957422e+00 -2.3070042075e-02 1.4299690813e+00 -2.4767791021e+00 1.4299690813e+00 2.4767791021e+00 
156700 5.3122770779e+00 -2.3373552752e-02 1.4307758194e+00 -2.4781764135e+00 1.4307758194e+00 2.4781764135e+00 
156800 5.3113456436e+00 -2.3678643479e-02 1.4315927110e+00 -2.4795913112e+00 1.4315927110e+00 2.4795913112e+00 
156900 5.3104014826e+00 -2.3985204746e-02 1.4324197941e+00 -2.4810238611e+00 1.4324197941e+00 2.4810238611e+00 
157000 5.3094446505e+00 -2.4293122100e-02 1.4332571024e+00 -2.4824741217e+00 1.4332571024e+00 2.4824741217e+00 
157100 5.3084752150e+00 -2.4602276136e-02 1.4341046654e+00 -2.4839421439e+00 1.4341046654e+00 2.4839421439e+00 
157200 5.3074932567e+00 -2.4912542493e-02 1.4349625082e+00 -2.4854279712e+00 1.4349625082e+00 2.4854279712e+00 
157300 5.3064988693e+00 -2.5223791871e-02 1.4358306512e+00 -2.4869316390e+00 1.4358306512e+00 2.4869316390e+00 
157400 5.3054921597e+00 -2.5535890047e-02 1.4367091100e+00 -2.4884531743e+00 1.4367091100e+00 2.4884531743e+00 
157500 5.3044732488e+00 -2.5848697922e-02 1.4375978954e+00 -2.4899925957e+00 1.4375978954e+00 2.4899925957e+00 
157600 5.3034422711e+00 -2.6162071565e-02 1.4384970130e+00 -2.4915499130e+00 1.4384970130e+00 2.4915499130e+00 
157700 5.3023993759e+00 -2.6475862281e-02 1.4394064631e+00 -2.4931251269e+00 1.4394064631e+00 2.4931251269e+00 
157800 5.3013447266e+00 -2.6789916691e-02 1.4403262409e+00 -2.4947182286e+00 1.4403262409e+00 2.4947182286e+00 
157900 5.3002785017e+00 -2.7104076826e-02 1.4412563356e+00 -2.4963292000e+00 1.4412563356e+00 2.4963292000e+00 
158000 5.2992008945e+00 -2.7418180237e-02 1.4421967312e+00 -2.4979580130e+00 1.4421967312e+00 2.4979580130e+00 
158100 5.2981121135e+00 -2.7732060124e-02 1.4431474056e+00 -2.4996046293e+00 1.4431474056e+00 2.4996046293e+00 
158200 5.2970123825e+00 -2.8045545474e-02 1.4441083308e+00 -2.5012690006e+00 1.4441083308e+00 2.5012690006e+00 
158300 5.2959019407e+00 -2.8358461224e-02 1.4450794729e+00 -2.5029510680e+00 1.4450794729e+00 2.5029510680e+00 
158400 5.2947810430e+00 -2.8670628429e-02 1.4460607915e+00 -2.5046507617e+00 1.4460607915e+00 2.5046507617e+00 
158500 5.2936499597e+00 -2.8981864462e-02 1.4470522402e+00 -2.5063680013e+00 1.4470522402e+00 2.5063680013e+00 
158600 5.2925089765e+00 -2.9291983214e-02 1.4480537661e+00 -2.5081026950e+00 1.4480537661e+00 2.5081026950e+00 
158700 5.2913583950e+00 -2.9600795321e-02 1.4490653097e+00 -2.5098547399e+00 1.4490653097e+00 2.5098547399e+00 
158800 5.2901985320e+00 -2.9908108401e-02 1.4500868051e+00 -2.5116240218e+00 1.4500868051e+00 2.5116240218e+00 
158900 5.2890297199e+00 -3.0213727315e-02 1.4511181796e+00 -2.5134104148e+00 1.4511181796e+00 2.5134104148e+00 
159000 5.2878523062e+00 -3.0517454429e-02 1.4521593538e+00 -2.5152137815e+00 1.4521593538e+00 2.5152137815e+00 
159100 5.2866666535e+00 -3.0819089908e-02 1.4532102416e+00 -2.5170339726e+00 1.4532102416e+00 2.5170339726e+00 
159200 5.2854731392e+00 -3.1118432012e-02 1.4542707501e+00 -2.5188708272e+00 1.4542707501e+00 2.5188708272e+00 
159300 5.2842721552e+00 -3.1415277407e-02 1.4553407794e+00 -2.5207241722e+00 1.4553407794e+00 2.5207241722e+00 
159400 5.2830641077e+00 -3.1709421497e-02 1.4564202227e+00 -2.5225938228e+00 1.4564202227e+00 2.5225938228e+00 
159500 5.2818494166e+00 -3.2000658757e-02 1.4575089664e+00 -2.5244795824e+00 1.4575089664e+00 2.5244795824e+00 
159600 5.2806285156e+00 -3.2288783085e-02 1.4586068901e+00 -2.5263812420e+00 1.4586068901e+00 2.5263812420e+00 
159700 5.2794018509e+00 -3.2573588160e-02 1.4597138664e+00 -2.5282985811e+00 1.4597138664e+00 2.5282985811e+00 
159800 5.2781698817e+00 -3.2854867812e-02 1.4608297609e+00 -2.5302313671e+00 1.4608297609e+00 2.5302313671e+00 
159900 5.2769330787e+00 -3.3132416394e-02 1.4619544327e+00 -2.5321793558e+00 1.4619544327e+00 2.5321793558e+00 
160000 5.2756919242e+00 -3.3406029169e-02 1.4630877339e+00 -2.5341422910e+00 1.4630877339e+00 2.5341422910e+00 
160100 5.2744469113e+00 -3.3675502692e-02 1.4642295099e+00 -2.5361199051e+00 1.4642295099e+00 2.5361199051e+00 
160200 5.2731985430e+00 -3.3940635205e-02 1.4653795997e+00 -2.5381119190e+00 1.4653795997e+00 2.5381119190e+00 
160300 5.2719473317e+00 -3.4201227024e-02 1.4665378354e+00 -2.5401180422e+00 1.4665378354e+00 2.5401180422e+00 
160400 5.2706937984e+00 -3.4457080938e-02 1.4677040432e+00 -2.5421379733e+00 1.4677040432e+00 2.5421379733e+00 
160500 5.2694384720e+00 -3.4708002601e-02 1.4688780425e+00 -2.5441713997e+00 1.4688780425e+00 2.5441713997e+00 
160600 5.2681818883e+00 -3.4953800914e-02 1.4700596468e+00 -2.5462179984e+00 1.4700596468e+00 2.5462179984e+00 
160700 5.2669245894e+00 -3.5194288421e-02 1.4712486634e+00 -2.5482774356e+00 1.4712486634e+00 2.5482774356e+00 
160800 5.2656671225e+00 -3.5429281679e-02 1.4724448940e+00 -2.5503493678e+00 1.4724448940e+00 2.5503493678e+00 
160900 5.2644100392e+00 -3.5658601640e-02 1.4736481344e+00 -2.5524334412e+00 1.4736481344e+00 2.5524334412e+00 
161000 5.2631538947e+00 -3.5882074003e-02 1.4748581748e+00 -2.5545292928e+00 1.4748581748e+00 2.5545292928e+00 
161100 5.2618992466e+00 -3.6099529577e-02 1.4760748004e+00 -2.5566365500e+00 1.4760748004e+00 2.5566365500e+00 
161200 5.2606466540e+00 -3.6310804617e-02 1.4772977909e+00 -2.5587548317e+00 1.4772977909e+00 2.5587548317e+00 
161300 5.2593966765e+00 -3.6515741148e-02 1.4785269214e+00 -2.5608837482e+00 1.4785269214e+00 2.5608837482e+00 
161400 5.2581498734e+00 -3.6714187284e-02 1.4797619621e+00 -2.5630229015e+00 1.4797619621e+00 2.5630229015e+00 
161500 5.2569068025e+00 -3.6905997520e-02 1.4810026790e+00 -2.5651718862e+00 1.4810026790e+00 2.5651718862e+00 
161600 5.2556680192e+00 -3.7091033009e-02 1.4822488337e+00 -2.5673302894e+00 1.4822488337e+00 2.5673302894e+00 
161700 5.2544340754e+00 -3.7269161827e-02 1.4835001838e+00 -2.5694976915e+00 1.4835001838e+00 2.5694976915e+00 
161800 5.2532055186e+00 -3.7440259208e-02 1.4847564835e+00 -2.5716736664e+00 1.4847564835e+00 2.5716736664e+00 
161900 5.2519828908e+00 -3.7604207763e-02 1.4860174834e+00 -2.5738577822e+00 1.4860174834e+00 2.5738577822e+00 
162000 5.2507667277e+00 -3.7760897683e-02 1.4872829308e+00 -2.5760496014e+00 1.4872829308e+00 2.5760496014e+00 
162100 5.2495575576e+00 -3.7910226909e-02 1.4885525704e+00 -2.5782486816e+00 1.4885525704e+00 2.5782486816e+00 
162200 5.2483559006e+00 -3.8052101288e-02 1.4898261440e+00 -2.5804545759e+00 1.4898261440e+00 2.5804545759e+00 
162300 5.2471622673e+00 -3.8186434701e-02 1.4911033915e+00 -2.5826668334e+00 1.4911033915e+00 2.5826668334e+00 
162400 5.2459771585e+00 -3.8313149166e-02 1.4923840503e+00 -2.5848849996e+00 1.4923840503e+00 2.5848849996e+00 
162500 5.2448010638e+00 -3.8432174924e-02 1.4936678565e+00 -2.5871086171e+00 1.4936678565e+00 2.5871086171e+00 
162600 5.2436344610e+00 -3.8543450495e-02 1.4949545444e+00 -2.5893372259e+00 1.4949545444e+00 2.5893372259e+00 
162700 5.2424778153e+00 -3.8646922709e-02 1.4962438473e+00 -2.5915703641e+00 1.4962438473e+00 2.5915703641e+00 
162800 5.2413315786e+00 -3.8742546721e-02 1.4975354977e+00 -2.5938075681e+00 1.4975354977e+00 2.5938075681e+00 
162900 5.2401961886e+00 -3.8830285991e-02 1.4988292272e+00 -2.5960483734e+00 1.4988292272e+00 2.5960483734e+00 
163000 5.2390720680e+00 -3.8910112254e-02 1.5001247676e+00 -2.5982923151e+00 1.5001247676e+00 2.5982923151e+00 
163100 5.2379596245e+00 -3.8982005456e-02 1.5014218501e+00 -2.6005389280e+00 1.5014218501e+00 2.6005389280e+00 
163200 5.2368592493e+00 -3.9045953673e-02 1.5027202067e+00 -2.6027877476e+00 1.5027202067e+00 2.6027877476e+00 
163300 5.2357713174e+00 -3.9101953013e-02 1.5040195695e+00 -2.6050383100e+00 1.5040195695e+00 2.6050383100e+00 
163400 5.2346961865e+00 -3.9150007491e-02 1.5053196716e+00 -2.6072901529e+00 1.5053196716e+00 2.6072901529e+00 
163500 5.2336341969e+00 -3.9190128885e-02 1.5066202472e+00 -2.6095428158e+00 1.5066202472e+00 2.6095428158e+00 
163600 5.2325856709e+00 -3.9222336581e-02 1.5079210316e+00 -2.6117958405e+00 1.5079210316e+00 2.6117958405e+00 
163700 5.2315509127e+00 -3.9246657391e-02 1.5092217618e+00 -2.6140487714e+00 1.5092217618e+00 2.6140487714e+00 
163800 5.2305302078e+00 -3.9263125364e-02 1.5105221767e+00 -2.6163011560e+00 1.5105221767e+00 2.6163011560e+00 
163900 5.2295238231e+00 -3.9271781574e-02 1.5118220170e+00 -2.6185525454e+00 1.5118220170e+00 2.6185525454e+00 
164000 5.2285320064e+00 -3.9272673902e-02 1.5131210257e+00 -2.6208024945e+00 1.5131210257e+00 2.6208024945e+00 
164100 5.2275549864e+00 -3.9265856800e-02 1.5144189484e+00 -2.6230505626e+00 1.5144189484e+00 2.6230505626e+00 
164200 5.2265929727e+00 -3.9251391046e-02 1.5157155333e+00 -2.6252963134e+00 1.5157155333e+00 2.6252963134e+00 
164300 5.2256461558e+00 -3.9229343489e-02 1.5170105314e+00 -2.6275393160e+00 1.5170105314e+00 2.6275393160e+00 
164400 5.2247147069e+00 -3.9199786789e-02 1.5183036968e+00 -2.6297791442e+00 1.5183036968e+00 2.6297791442e+00 
164500 5.2237987780e+00 -3.9162799142e-02 1.5195947869e+00 -2.6320153778e+00 1.5195947869e+00 2.6320153778e+00 
164600 5.2228985023e+00 -3.9118464008e-02 1.5208835623e+00 -2.6342476024e+00 1.5208835623e+00 2.6342476024e+00 
164700 5.2220139941e+00 -3.9066869830e-02 1.5221697874e+00 -2.6364754096e+00 1.5221697874e+00 2.6364754096e+00 
164800 5.2211453491e+00 -3.9008109749e-02 1.5234532302e+00 -2.6386983976e+00 1.5234532302e+00 2.6386983976e+00 
164900 5.2202926445e+00 -3.8942281320e-02 1.5247336623e+00 -2.6409161711e+00 1.5247336623e+00 2.6409161711e+00 
165000 5.2194559396e+00 -3.8869486225e-02 1.5260108595e+00 -2.6431283416e+00 1.5260108595e+00 2.6431283416e+00 
165100 5.2186352759e+00 -3.8789829986e-02 1.5272846017e+00 -2.6453345278e+00 1.5272846017e+00 2.6453345278e+00 
165200 5.2178306773e+00 -3.8703421684e-02 1.5285546728e+00 -2.6475343555e+00 1.5285546728e+00 2.6475343555e+00 
165300 5.2170421510e+00 -3.8610373672e-02 1.5298208611e+00 -2.6497274579e+00 1.5298208611e+00 2.6497274579e+00 
165400 5.2162696874e+00 -3.8510801299e-02 1.5310829591e+00 -2.6519134758e+00 1.5310829591e+00 2.6519134758e+00 
165500 5.2155132608e+00 -3.8404822637e-02 1.5323407639e+00 -2.6540920575e+00 1.5323407639e+00 2.6540920575e+00 
165600 5.2147728301e+00 -3.8292558207e-02 1.5335940769e+00 -2.6562628594e+00 1.5335940769e+00 2.6562628594e+00 
165700 5.2140483389e+00 -3.8174130720e-02 1.5348427042e+00 -2.6584255453e+00 1.5348427042e+00 2.6584255453e+00 
165800 5.2133397160e+00 -3.8049664816e-02 1.5360864565e+00 -2.6605797874e+00 1.5360864565e+00 2.6605797874e+00 
165900 5.2126468765e+00 -3.7919286819e-02 1.5373251489e+00 -2.6627252657e+00 1.5373251489e+00 2.6627252657e+00 
166000 5.2119697218e+00 -3.7783124492e-02 1.5385586015e+00 -2.6648616682e+00 1.5385586015e+00 2.6648616682e+00 
166100 5.2113081405e+00 -3.7641306804e-02 1.5397866388e+00 -2.6669886911e+00 1.5397866388e+00 2.6669886911e+00 
166200 5.2106620088e+00 -3.7493963705e-02 1.5410090900e+00 -2.6691060389e+00 1.5410090900e+00 2.6691060389e+00 
166300 5.2100311911e+00 -3.7341225909e-02 1.5422257893e+00 -2.6712134238e+00 1.5422257893e+00 2.6712134238e+00 
166400 5.2094155410e+00 -3.7183224692e-02 1.5434365753e+00 -2.6733105667e+00 1.5434365753e+00 2.6733105667e+00 
166500 5.2088149012e+00 -3.7020091690e-02 1.5446412914e+00 -2.6753971962e+00 1.5446412914e+00 2.6753971962e+00 
166600 5.2082291049e+00 -3.6851958713e-02 1.5458397857e+00 -2.6774730491e+00 1.5458397857e+00 2.6774730491e+00 
166700 5.2076579756e+00 -3.6678957570e-02 1.5470319109e+00 -2.6795378705e+00 1.5470319109e+00 2.6795378705e+00 
166800 5.2071013284e+00 -3.6501219899e-02 1.5482175244e+00 -2.6815914133e+00 1.5482175244e+00 2.6815914133e+00 
166900 5.2065589705e+00 -3.6318877013e-02 1.5493964882e+00 -2.6836334386e+00 1.5493964882e+00 2.6836334386e+00 
167000 5.2060307013e+00 -3.6132059749e-02 1.5505686688e+00 -2.6856637150e+00 1.5505686688e+00 2.6856637150e+00 
167100 5.2055163136e+00 -3.5940898330e-02 1.5517339375e+00 -2.6876820196e+00 1.5517339375e+00 2.6876820196e+00 
167200 5.2050155939e+00 -3.5745522243e-02 1.5528921697e+00 -2.6896881366e+00 1.5528921697e+00 2.6896881366e+00 
167300 5.2045283229e+00 -3.5546060113e-02 1.5540432456e+00 -2.6916818586e+00 1.5540432456e+00 2.6916818586e+00 
167400 5.2040542765e+00 -3.5342639599e-02 1.5551870496e+00 -2.6936629852e+00 1.5551870496e+00 2.6936629852e+00 
167500 5.2035932259e+00 -3.5135387292e-02 1.5563234704e+00 -2.6956313238e+00 1.5563234704e+00 2.6956313238e+00 
167600 5.2031449381e+00 -3.4924428626e-02 1.5574524013e+00 -2.6975866894e+00 1.5574524013e+00 2.6975866894e+00 
167700 5.2027091770e+00 -3.4709887793e-02 1.5585737394e+00 -2.6995289041e+00 1.5585737394e+00 2.6995289041e+00 
167800 5.2022857034e+00 -3.4491887670e-02 1.5596873864e+00 -2.7014577972e+00 1.5596873864e+00 2.7014577972e+00 
167900 5.2018742757e+00 -3.4270549752e-02 1.5607932478e+00 -2.7033732052e+00 1.5607932478e+00 2.7033732052e+00 
168000 5.2014746502e+00 -3.4045994097e-02 1.5618912332e+00 -2.7052749718e+00 1.5618912332e+00 2.7052749718e+00 
168100 5.2010865818e+00 -3.3818339270e-02 1.5629812563e+00 -2.7071629472e+00 1.5629812563e+00 2.7071629472e+00 
168200 5.2007098246e+00 -3.3587702301e-02 1.5640632347e+00 -2.7090369887e+00 1.5640632347e+00 2.7090369887e+00 
168300 5.2003441317e+00 -3.3354198647e-02 1.5651370897e+00 -2.7108969601e+00 1.5651370897e+00 2.7108969601e+00 
168400 5.1999892562e+00 -3.3117942161e-02 1.5662027465e+00 -2.7127427319e+00 1.5662027465e+00 2.7127427319e+00 
168500 5.1996449515e+00 -3.2879045066e-02 1.5672601340e+00 -2.7145741808e+00 1.5672601340e+00 2.7145741808e+00 
168600 5.1993109713e+00 -3.2637617936e-02 1.5683091848e+00 -2.7163911901e+00 1.5683091848e+00 2.7163911901e+00 
168700 5.1989870704e+00 -3.2393769677e-02 1.5693498350e+00 -2.7181936491e+00 1.5693498350e+00 2.7181936491e+00 
168800 5.1986730049e+00 -3.2147607522e-02 1.5703820242e+00 -2.7199814532e+00 1.5703820242e+00 2.7199814532e+00 
168900 5.1983685323e+00 -3.1899237023e-02 1.5714056954e+00 -2.7217545037e+00 1.5714056954e+00 2.7217545037e+00 
169000 5.1980734121e+00 -3.1648762047e-02 1.5724207951e+00 -2.7235127080e+00 1.5724207951e+00 2.7235127080e+00 
169100 5.1977874059e+00 -3.1396284782e-02 1.5734272730e+00 -2.7252559789e+00 1.5734272730e+00 2.7252559789e+00 
169200 5.1975102777e+00 -3.1141905739e-02 1.5744250821e+00 -2.7269842349e+00 1.5744250821e+00 2.7269842349e+00 
169300 5.1972417942e+00 -3.0885723763e-02 1.5754141785e+00 -2.7286974001e+00 1.5754141785e+00 2.7286974001e+00 
169400 5.1969817249e+00 -3.0627836042e-02 1.5763945215e+00 -2.7303954040e+00 1.5763945215e+00 2.7303954040e+00 
169500 5.1967298424e+00 -3.0368338122e-02 1.5773660733e+00 -2.7320781811e+00 1.5773660733e+00 2.7320781811e+00 
169600 5.1964859226e+00 -3.0107323924e-02 1.5783287993e+00 -2.7337456714e+00 1.5783287993e+00 2.7337456714e+00 
169700 5.1962497446e+00 -2.9844885757e-02 1.5792826675e+00 -2.7353978197e+00 1.5792826675e+00 2.7353978197e+00 
169800 5.1960210915e+00 -2.9581114345e-02 1.5802276491e+00 -2.7370345757e+00 1.5802276491e+00 2.7370345757e+00 
169900 5.1957997496e+00 -2.9316098840e-02 1.5811637178e+00 -2.7386558943e+00 1.5811637178e+00 2.7386558943e+00 
170000 5.1955855096e+00 -2.9049926850e-02 1.5820908502e+00 -2.7402617347e+00 1.5820908502e+00 2.7402617347e+00 
170100 5.1953781656e+00 -2.8782684459e-02 1.5830090255e+00 -2.7418520610e+00 1.5830090255e+00 2.7418520610e+00 
170200 5.1951775161e+00 -2.8514456249e-02 1.5839182255e+00 -2.7434268416e+00 1.5839182255e+00 2.7434268416e+00 
170300 5.1949833635e+00 -2.8245325331e-02 1.5848184347e+00 -2.7449860497e+00 1.5848184347e+00 2.7449860497e+00 
170400 5.1947955146e+00 -2.7975373361e-02 1.5857096400e+00 -2.7465296625e+00 1.5857096400e+00 2.7465296625e+00 
170500 5.1946137803e+00 -2.7704680571e-02 1.5865918307e+00 -2.7480576616e+00 1.5865918307e+00 2.7480576616e+00 
170600 5.1944379757e+00 -2.7433325793e-02 1.5874649986e+00 -2.7495700327e+00 1.5874649986e+00 2.7495700327e+00 
170700 5.1942679203e+00 -2.7161386482e-02 1.5883291377e+00 -2.7510667657e+00 1.5883291377e+00 2.7510667657e+00 
170800 5.1941034379e+00 -2.6888938741e-02 1.5891842445e+00 -2.7525478541e+00 1.5891842445e+00 2.7525478541e+00 
170900 5.1939443567e+00 -2.6616057346e-02 1.5900303177e+00 -2.7540132959e+00 1.5900303177e+00 2.7540132959e+00 
171000 5.1937905090e+00 -2.6342815771e-02 1.5908673581e+00 -2.7554630923e+00 1.5908673581e+00 2.7554630923e+00 
171100 5.1936417318e+00 -2.6069286209e-02 1.5916953687e+00 -2.7568972487e+00 1.5916953687e+00 2.7568972487e+00 
171200 5.1934978660e+00 -2.5795539598e-02 1.5925143545e+00 -2.7583157738e+00 1.5925143545e+00 2.7583157738e+00 
171300 5.1933587570e+00 -2.5521645640e-02 1.5933243229e+00 -2.7597186802e+00 1.5933243229e+00 2.7597186802e+00 
171400 5.1932242544e+00 -2.5247672824e-02 1.5941252829e+00 -2.7611059837e+00 1.5941252829e+00 2.7611059837e+00 
171500 5.1930942120e+00 -2.4973688444e-02 1.5949172459e+00 -2.7624777037e+00 1.5949172459e+00 2.7624777037e+00 
171600 5.1929684876e+00 -2.4699758626e-02 1.5957002247e+00 -2.7638338629e+00 1.5957002247e+00 2.7638338629e+00 
171700 5.1928469434e+00 -2.4425948339e-02 1.5964742346e+00 -2.7651744873e+00 1.5964742346e+00 2.7651744873e+00 
171800 5.1927294453e+00 -2.4152321416e-02 1.5972392923e+00 -2.7664996061e+00 1.5972392923e+00 2.7664996061e+00 
171900 5.1926158635e+00 -2.3878940571e-02 1.5979954165e+00 -2.7678092517e+00 1.5979954165e+00 2.7678092517e+00 
172000 5.1925060718e+00 -2.3605867418e-02 1.5987426277e+00 -2.7691034594e+00 1.5987426277e+00 2.7691034594e+00 
172100 5.1923999482e+00 -2.3333162482e-02 1.5994809480e+00 -2.7703822677e+00 1.5994809480e+00 2.7703822677e+00 
172200 5.1922973740e+00 -2.3060885214e-02 1.6002104014e+00 -2.7716457180e+00 1.6002104014e+00 2.7716457180e+00 
172300 5.1921982347e+00 -2.2789094007e-02 1.6009310133e+00 -2.7728938545e+00 1.6009310133e+00 2.7728938545e+00 
172400 5.1921024190e+00 -2.2517846208e-02 1.6016428111e+00 -2.7741267244e+00 1.6016428111e+00 2.7741267244e+00 
172500 5.1920098194e+00 -2.2247198125e-02 1.6023458234e+00 -2.7753443774e+00 1.6023458234e+00 2.7753443774e+00 
172600 5.1919203318e+00 -2.1977205045e-02 1.6030400806e+00 -2.7765468663e+00 1.6030400806e+00 2.7765468663e+00 
172700 5.1918338552e+00 -2.1707921237e-02 1.6037256147e+00 -2.7777342460e+00 1.6037256147e+00 2.7777342460e+00 
172800 5.1917502923e+00 -2.1439399965e-02 1.6044024589e+00 -2.7789065746e+00 1.6044024589e+00 2.7789065746e+00 
172900 5.1916695488e+00 -2.1171693495e-02 1.6050706481e+00 -2.7800639122e+00 1.6050706481e+00 2.7800639122e+00 
173000 5.1915915333e+00 -2.0904853101e-02 1.6057302185e+00 -2.7812063217e+00 1.6057302185e+00 2.7812063217e+00 
173100 5.1915161577e+00 -2.0638929074e-02 1.6063812078e+00 -2.7823338683e+00 1.6063812078e+00 2.7823338683e+00 
173200 5.1914433368e+00 -2.0373970726e-02 1.6070236551e+00 -2.7834466196e+00 1.6070236551e+00 2.7834466196e+00 
173300 5.1913729882e+00 -2.0110026394e-02 1.6076576006e+00 -2.7845446455e+00 1.6076576006e+00 2.7845446455e+00 
173400 5.1913050321e+00 -1.9847143449e-02 1.6082830861e+00 -2.7856280181e+00 1.6082830861e+00 2.7856280181e+00 
173500 5.1912393917e+00 -1.9585368294e-02 1.6089001545e+00 -2.7866968119e+00 1.6089001545e+00 2.7866968119e+00 
173600 5.1911759925e+00 -1.9324746372e-02 1.6095088499e+00 -2.7877511032e+00 1.6095088499e+00 2.7877511032e+00 
173700 5.1911147627e+00 -1.9065322164e-02 1.6101092177e+00 -2.7887909708e+00 1.6101092177e+00 2.7887909708e+00 
173800 5.1910556328e+00 -1.8807139197e-02 1.6107013046e+00 -2.7898164954e+00 1.6107013046e+00 2.7898164954e+00 
173900 5.1909985357e+00 -1.8550240041e-02 1.6112851582e+00 -2.7908277594e+00 1.6112851582e+00 2.7908277594e+00 
174000 5.1909434066e+00 -1.8294666312e-02 1.6118608274e+00 -2.7918248477e+00 1.6118608274e+00 2.7918248477e+00 
174100 5.1908901827e+00 -1.8040458673e-02 1.6124283621e+00 -2.7928078467e+00 1.6124283621e+00 2.7928078467e+00 
174200 5.1908388036e+00 -1.7787656836e-02 1.6129878133e+00 -2.7937768447e+00 1.6129878133e+00 2.7937768447e+00 
174300 5.1907892107e+00 -1.7536299558e-02 1.6135392332e+00 -2.7947319319e+00 1.6135392332e+00 2.7947319319e+00 
174400 5.1907413475e+00 -1.7286424647e-02 1.6140826747e+00 -2.7956732002e+00 1.6140826747e+00 2.7956732002e+00 
174500 5.1906951592e+00 -1.7038068958e-02 1.6146181919e+00 -2.7966007431e+00 1.6146181919e+00 2.7966007431e+00 
174600 5.1906505931e+00 -1.6791268393e-02 1.6151458397e+00 -2.7975146560e+00 1.6151458397e+00 2.7975146560e+00 
174700 5.1906075980e+00 -1.6546057902e-02 1.6156656742e+00 -2.7984150357e+00 1.6156656742e+00 2.7984150357e+00 
174800 5.1905661245e+00 -1.6302471482e-02 1.6161777520e+00 -2.7993019805e+00 1.6161777520e+00 2.7993019805e+00 
174900 5.1905261249e+00 -1.6060542176e-02 1.6166821309e+00 -2.8001755904e+00 1.6166821309e+00 2.8001755904e+00 
175000 5.1904875529e+00 -1.5820302075e-02 1.6171788694e+00 -2.8010359667e+00 1.6171788694e+00 2.8010359667e+00 
175100 5.1904503638e+00 -1.5581782311e-02 1.6176680267e+00 -2.8018832121e+00 1.6176680267e+00 2.8018832121e+00 
175200 5.1904145143e+00 -1.5345013064e-02 1.6181496631e+00 -2.8027174308e+00 1.6181496631e+00 2.8027174308e+00 
175300 5.1903799626e+00 -1.5110023559e-02 1.6186238394e+00 -2.8035387281e+00 1.6186238394e+00 2.8035387281e+00 
175400 5.1903466680e+00 -1.4876842064e-02 1.6190906170e+00 -2.8043472108e+00 1.6190906170e+00 2.8043472108e+00 
175500 5.1903145915e+00 -1.4645495891e-02 1.6195500584e+00 -2.8051429866e+00 1.6195500584e+00 2.8051429866e+00 
175600 5.1902836948e+00 -1.4416011397e-02 1.6200022265e+00 -2.8059261647e+00 1.6200022265e+00 2.8059261647e+00 
175700 5.1902539413e+00 -1.4188413984e-02 1.6204471849e+00 -2.8066968552e+00 1.6204471849e+00 2.8066968552e+00 
175800 5.1902252951e+00 -1.3962728096e-02 1.6208849978e+00 -2.8074551694e+00 1.6208849978e+00 2.8074551694e+00 
175900 5.1901977218e+00 -1.3738977228e-02 1.6213157299e+00 -2.8082012194e+00 1.6213157299e+00 2.8082012194e+00 
176000 5.1901711878e+00 -1.3517183918e-02 1.6217394468e+00 -2.8089351185e+00 1.6217394468e+00 2.8089351185e+00 
176100 5.1901456605e+00 -1.3297369752e-02 1.6221562142e+00 -2.8096569808e+00 1.6221562142e+00 2.8096569808e+00 
176200 5.1901211086e+00 -1.3079555368e-02 1.6225660986e+00 -2.8103669213e+00 1.6225660986e+00 2.8103669213e+00 
176300 5.1900975012e+00 -1.2863760455e-02 1.6229691668e+00 -2.8110650560e+00 1.6229691668e+00 2.8110650560e+00 
176400 5.1900748089e+00 -1.2650003756e-02 1.6233654862e+00 -2.8117515013e+00 1.6233654862e+00 2.8117515013e+00 
176500 5.1900530028e+00 -1.2438303069e-02 1.6237551246e+00 -2.8124263748e+00 1.6237551246e+00 2.8124263748e+00 
176600 5.1900320549e+00 -1.2228675254e-02 1.6241381501e+00 -2.8130897944e+00 1.6241381501e+00 2.8130897944e+00 
176700 5.1900119380e+00 -1.2021136234e-02 1.6245146312e+00 -2.8137418789e+00 1.6245146312e+00 2.8137418789e+00 
176800 5.1899926259e+00 -1.1815700998e-02 1.6248846369e+00 -2.8143827475e+00 1.6248846369e+00 2.8143827475e+00 
176900 5.1899740929e+00 -1.1612383606e-02 1.6252482363e+00 -2.8150125201e+00 1.6252482363e+00 2.8150125201e+00 
177000 5.1899563140e+00 -1.1411197196e-02 1.6256054989e+00 -2.8156313171e+00 1.6256054989e+00 2.8156313171e+00 
177100 5.1899392653e+00 -1.1212153985e-02 1.6259564945e+00 -2.8162392593e+00 1.6259564945e+00 2.8162392593e+00 
177200 5.1899229231e+00 -1.1015265276e-02 1.6263012931e+00 -2.8168364680e+00 1.6263012931e+00 2.8168364680e+00 
177300 5.1899072646e+00 -1.0820541467e-02 1.6266399649e+00 -2.8174230648e+00 1.6266399649e+00 2.8174230648e+00 
177400 5.1898922676e+00 -1.0627992053e-02 1.6269725803e+00 -2.8179991716e+00 1.6269725803e+00 2.8179991716e+00 
177500 5.1898779105e+00 -1.0437625633e-02 1.6272992099e+00 -2.8185649106e+00 1.6272992099e+00 2.8185649106e+00 
177600 5.1898641724e+00 -1.0249449921e-02 1.6276199243e+00 -2.8191204044e+00 1.6276199243e+00 2.8191204044e+00 
177700 5.1898510329e+00 -1.0063471752e-02 1.6279347945e+00 -2.8196657756e+00 1.6279347945e+00 2.8196657756e+00 
177800 5.1898384720e+00 -9.8796970858e-03 1.6282438914e+00 -2.8202011470e+00 1.6282438914e+00 2.8202011470e+00 
177900 5.1898264705e+00 -9.6981310222e-03 1.6285472859e+00 -2.8207266416e+00 1.6285472859e+00 2.8207266416e+00 
178000 5.1898150096e+00 -9.5187778058e-03 1.6288450490e+00 -2.8212423825e+00 1.6288450490e+00 2.8212423825e+00 
178100 5.1898040710e+00 -9.3416408361e-03 1.6291372518e+00 -2.8217484926e+00 1.6291372518e+00 2.8217484926e+00 
178200 5.1897936370e+00 -9.1667226776e-03 1.6294239654e+00 -2.8222450951e+00 1.6294239654e+00 2.8222450951e+00 
178300 5.1897836902e+00 -8.9940250698e-03 1.6297052607e+00 -2.8227323128e+00 1.6297052607e+00 2.8227323128e+00 
178400 5.1897742140e+00 -8.8235489376e-03 1.6299812087e+00 -2.8232102688e+00 1.6299812087e+00 2.8232102688e+00 
178500 5.1897651919e+00 -8.6552944023e-03 1.6302518803e+00 -2.8236790858e+00 1.6302518803e+00 2.8236790858e+00 
178600 5.1897566080e+00 -8.4892607928e-03 1.6305173463e+00 -2.8241388864e+00 1.6305173463e+00 2.8241388864e+00 
178700 5.1897484468e+00 -8.3254466574e-03 1.6307776774e+00 -2.8245897931e+00 1.6307776774e+00 2.8245897931e+00 
178800 5.1897406933e+00 -8.1638497757e-03 1.6310329441e+00 -2.8250319279e+00 1.6310329441e+00 2.8250319279e+00 
178900 5.1897333329e+00 -8.0044671709e-03 1.6312832167e+00 -2.8254654129e+00 1.6312832167e+00 2.8254654129e+00 
179000 5.1897263514e+00 -7.8472951227e-03 1.6315285655e+00 -2.8258903695e+00 1.6315285655e+00 2.8258903695e+00 
179100 5.1897197348e+00 -7.6923291799e-03 1.6317690605e+00 -2.8263069190e+00 1.6317690605e+00 2.8263069190e+00 
179200 5.1897134698e+00 -7.5395641742e-03 1.6320047713e+00 -2.8267151822e+00 1.6320047713e+00 2.8267151822e+00 
179300 5.1897075434e+00 -7.3889942331e-03 1.6322357677e+00 -2.8271152795e+00 1.6322357677e+00 2.8271152795e+00 
179400 5.1897019426e+00 -7.2406127947e-03 1.6324621187e+00 -2.8275073310e+00 1.6324621187e+00 2.8275073310e+00 
179500 5.1896966554e+00 -7.0944126209e-03 1.6326838934e+00 -2.8278914561e+00 1.6326838934e+00 2.8278914561e+00 
179600 5.1896916696e+00 -6.9503858125e-03 1.6329011605e+00 -2.8282677738e+00 1.6329011605e+00 2.8282677738e+00 
179700 5.1896869735e+00 -6.8085238233e-03 1.6331139884e+00 -2.8286364024e+00 1.6331139884e+00 2.8286364024e+00 
179800 5.1896825560e+00 -6.6688174752e-03 1.6333224450e+00 -2.8289974599e+00 1.6333224450e+00 2.8289974599e+00 
179900 5.1896784060e+00 -6.5312569732e-03 1.6335265981e+00 -2.8293510634e+00 1.6335265981e+00 2.8293510634e+00 
180000 5.1896745128e+00 -6.3958319207e-03 1.6337265149e+00 -2.8296973296e+00 1.6337265149e+00 2.8296973296e+00 
180100 5.1896708662e+00 -6.2625313347e-03 1.6339222625e+00 -2.8300363743e+00 1.6339222625e+00 2.8300363743e+00 
180200 5.1896674560e+00 -6.1313436615e-03 1.6341139073e+00 -2.8303683128e+00 1.6341139073e+00 2.8303683128e+00 
180300 5.1896642725e+00 -6.0022567924e-03 1.6343015154e+00 -2.8306932596e+00 1.6343015154e+00 2.8306932596e+00 
180400 5.1896613063e+00 -5.8752580795e-03 1.6344851526e+00 -2.8310113285e+00 1.6344851526e+00 2.8310113285e+00 
180500 5.1896585483e+00 -5.7503343517e-03 1.6346648840e+00 -2.8313226324e+00 1.6346648840e+00 2.8313226324e+00 
180600 5.1896559895e+00 -5.6274719304e-03 1.6348407744e+00 -2.8316272835e+00 1.6348407744e+00 2.8316272835e+00 
180700 5.1896536214e+00 -5.5066566463e-03 1.6350128881e+00 -2.8319253932e+00 1.6350128881e+00 2.8319253932e+00 
180800 5.1896514356e+00 -5.3878738549e-03 1.6351812889e+00 -2.8322170720e+00 1.6351812889e+00 2.8322170720e+00 
180900 5.1896494242e+00 -5.2711084529e-03 1.6353460402e+00 -2.8325024296e+00 1.6353460402e+00 2.8325024296e+00 
181000 5.1896475792e+00 -5.1563448947e-03 1.6355072047e+00 -2.8327815747e+00 1.6355072047e+00 2.8327815747e+00 
181100 5.1896458932e+00 -5.0435672087e-03 1.6356648448e+00 -2.8330546153e+00 1.6356648448e+00 2.8330546153e+00 
181200 5.1896443589e+00 -4.9327590130e-03 1.6358190220e+00 -2.8333216581e+00 1.6358190220e+00 2.8333216581e+00 
181300 5.1896429692e+00 -4.8239035323e-03 1.6359697977e+00 -2.8335828093e+00 1.6359697977e+00 2.8335828093e+00 
181400 5.1896417172e+00 -4.7169836140e-03 1.6361172324e+00 -2.8338381737e+00 1.6361172324e+00 2.8338381737e+00 
181500 5.1896405965e+00 -4.6119817442e-03 1.6362613863e+00 -2.8340878556e+00 1.6362613863e+00 2.8340878556e+00 
181600 5.1896396007e+00 -4.5088800640e-03 1.6364023188e+00 -2.8343319578e+00 1.6364023188e+00 2.8343319578e+00 
181700 5.1896387235e+00 -4.4076603856e-03 1.6365400888e+00 -2.8345705825e+00 1.6365400888e+00 2.8345705825e+00 
181800 5.1896379592e+00 -4.3083042083e-03 1.6366747547e+00 -2.8348038306e+00 1.6366747547e+00 2.8348038306e+00 
181900 5.1896373019e+00 -4.2107927344e-03 1.6368063740e+00 -2.8350318020e+00 1.6368063740e+00 2.8350318020e+00 
182000 5.1896367462e+00 -4.1151068849e-03 1.6369350040e+00 -2.8352545957e+00 1.6369350040e+00 2.8352545957e+00 
182100 5.1896362867e+00 -4.0212273156e-03 1.6370607011e+00 -2.8354723094e+00 1.6370607011e+00 2.8354723094e+00 
182200 5.1896359184e+00 -3.9291344320e-03 1.6371835212e+00 -2.8356850400e+00 1.6371835212e+00 2.8356850400e+00 
182300 5.1896356364e+00 -3.8388084055e-03 1.6373035194e+00 -2.8358928830e+00 1.6373035194e+00 2.8358928830e+00 
182400 5.1896354358e+00 -3.7502291879e-03 1.6374207504e+00 -2.8360959331e+00 1.6374207504e+00 2.8360959331e+00 
182500 5.1896353122e+00 -3.6633765271e-03 1.6375352681e+00 -2.8362942835e+00 1.6375352681e+00 2.8362942835e+00 
182600 5.1896352612e+00 -3.5782299820e-03 1.6376471258e+00 -2.8364880267e+00 1.6376471258e+00 2.8364880267e+00 
182700 5.1896352785e+00 -3.4947689367e-03 1.6377563761e+00 -2.8366772538e+00 1.6377563761e+00 2.8366772538e+00 
182800 5.1896353601e+00 -3.4129726159e-03 1.6378630711e+00 -2.8368620549e+00 1.6378630711e+00 2.8368620549e+00 
182900 5.1896355022e+00 -3.3328200987e-03 1.6379672620e+00 -2.8370425189e+00 1.6379672620e+00 2.8370425189e+00 
183000 5.1896357010e+00 -3.2542903327e-03 1.6380689995e+00 -2.8372187334e+00 1.6380689995e+00 2.8372187334e+00 
183100 5.1896359529e+00 -3.1773621485e-03 1.6381683336e+00 -2.8373907852e+00 1.6381683336e+00 2.8373907852e+00 
183200 5.1896362546e+00 -3.1020142729e-03 1.6382653137e+00 -2.8375587596e+00 1.6382653137e+00 2.8375587596e+00 
183300 5.1896366027e+00 -3.0282253426e-03 1.6383599883e+00 -2.8377227409e+00 1.6383599883e+00 2.8377227409e+00 
183400 5.1896369942e+00 -2.9559739176e-03 1.6384524056e+00 -2.8378828122e+00 1.6384524056e+00 2.8378828122e+00 
183500 5.1896374259e+00 -2.8852384938e-03 1.6385426127e+00 -2.8380390555e+00 1.6385426127e+00 2.8380390555e+00 
183600 5.1896378951e+00 -2.8159975161e-03 1.6386306563e+00 -2.8381915516e+00 1.6386306563e+00 2.8381915516e+00 
183700 5.1896383990e+00 -2.7482293910e-03 1.6387165824e+00 -2.8383403799e+00 1.6387165824e+00 2.8383403799e+00 
183800 5.1896389350e+00 -2.6819124984e-03 1.6388004362e+00 -2.8384856190e+00 1.6388004362e+00 2.8384856190e+00 
183900 5.1896395006e+00 -2.6170252040e-03 1.6388822624e+00 -2.8386273460e+00 1.6388822624e+00 2.8386273460e+00 
184000 5.1896400934e+00 -2.5535458709e-03 1.6389621048e+00 -2.8387656371e+00 1.6389621048e+00 2.8387656371e+00 
184100 5.1896407111e+00 -2.4914528708e-03 1.6390400067e+00 -2.8389005672e+00 1.6390400067e+00 2.8389005672e+00 
184200 5.1896413515e+00 -2.4307245954e-03 1.6391160107e+00 -2.8390322100e+00 1.6391160107e+00 2.8390322100e+00 
184300 5.1896420127e+00 -2.3713394675e-03 1.6391901587e+00 -2.8391606381e+00 1.6391901587e+00 2.8391606381e+00 
184400 5.1896426926e+00 -2.3132759508e-03 1.6392624919e+00 -2.8392859229e+00 1.6392624919e+00 2.8392859229e+00 
184500 5.1896433894e+00 -2.2565125612e-03 1.6393330508e+00 -2.8394081345e+00 1.6393330508e+00 2.8394081345e+00 
184600 5.1896441014e+00 -2.2010278761e-03 1.6394018754e+00 -2.8395273422e+00 1.6394018754e+00 2.8395273422e+00 
184700 5.1896448267e+00 -2.1468005446e-03 1.6394690048e+00 -2.8396436138e+00 1.6394690048e+00 2.8396436138e+00 
184800 5.1896455639e+00 -2.0938092964e-03 1.6395344777e+00 -2.8397570162e+00 1.6395344777e+00 2.8397570162e+00 
184900 5.1896463114e+00 -2.0420329516e-03 1.6395983319e+00 -2.8398676149e+00 1.6395983319e+00 2.8398676149e+00 
185000 5.1896470678e+00 -1.9914504290e-03 1.6396606047e+00 -2.8399754744e+00 1.6396606047e+00 2.8399754744e+00 
185100 5.1896478318e+00 -1.9420407552e-03 1.6397213325e+00 -2.8400806582e+00 1.6397213325e+00 2.8400806582e+00 
185200 5.1896486021e+00 -1.8937830724e-03 1.6397805515e+00 -2.8401832285e+00 1.6397805515e+00 2.8401832285e+00 
185300 5.1896493774e+00 -1.8466566464e-03 1.6398382969e+00 -2.8402832464e+00 1.6398382969e+00 2.8402832464e+00 
185400 5.1896501567e+00 -1.8006408750e-03 1.6398946033e+00 -2.8403807719e+00 1.6398946033e+00 2.8403807719e+00 
185500 5.1896509388e+00 -1.7557152943e-03 1.6399495047e+00 -2.8404758640e+00 1.6399495047e+00 2.8404758640e+00 
185600 5.1896517228e+00 -1.7118595868e-03 1.6400030345e+00 -2.8405685804e+00 1.6400030345e+00 2.8405685804e+00 
185700 5.1896525077e+00 -1.6690535878e-03 1.6400552256e+00 -2.8406589779e+00 1.6400552256e+00 2.8406589779e+00 
185800 5.1896532926e+00 -1.6272772917e-03 1.6401061099e+00 -2.8407471121e+00 1.6401061099e+00 2.8407471121e+00 
185900 5.1896540768e+00 -1.5865108589e-03 1.6401557190e+00 -2.8408330377e+00 1.6401557190e+00 2.8408330377e+00 
186000 5.1896548593e+00 -1.5467346213e-03 1.6402040839e+00 -2.8409168081e+00 1.6402040839e+00 2.8409168081e+00 
186100 5.1896556396e+00 -1.5079290880e-03 1.6402512348e+00 -2.8409984759e+00 1.6402512348e+00 2.8409984759e+00 
186200 5.1896564168e+00 -1.4700749511e-03 1.6402972014e+00 -2.8410780924e+00 1.6402972014e+00 2.8410780924e+00 
186300 5.1896571904e+00 -1.4331530906e-03 1.6403420129e+00 -2.8411557081e+00 1.6403420129e+00 2.8411557081e+00 
186400 5.1896579598e+00 -1.3971445792e-03 1.6403856977e+00 -2.8412313723e+00 1.6403856977e+00 2.8412313723e+00 
186500 5.1896587244e+00 -1.3620306872e-03 1.6404282837e+00 -2.8413051335e+00 1.6404282837e+00 2.8413051335e+00 
186600 5.1896594838e+00 -1.3277928867e-03 1.6404697984e+00 -2.8413770390e+00 1.6404697984e+00 2.8413770390e+00 
186700 5.1896602374e+00 -1.2944128555e-03 1.6405102684e+00 -2.8414471352e+00 1.6405102684e+00 2.8414471352e+00 
186800 5.1896609848e+00 -1.2618724816e-03 1.6405497201e+00 -2.8415154676e+00 1.6405497201e+00 2.8415154676e+00 
186900 5.1896617257e+00 -1.2301538661e-03 1.6405881791e+00 -2.8415820805e+00 1.6405881791e+00 2.8415820805e+00 
187000 5.1896624596e+00 -1.1992393269e-03 1.6406256705e+00 -2.8416470175e+00 1.6406256705e+00 2.8416470175e+00 
187100 5.1896631863e+00 -1.1691114017e-03 1.6406622188e+00 -2.8417103211e+00 1.6406622188e+00 2.8417103211e+00 
187200 5.1896639054e+00 -1.1397528510e-03 1.6406978482e+00 -2.8417720330e+00 1.6406978482e+00 2.8417720330e+00 
187300 5.1896646166e+00 -1.1111466607e-03 1.6407325821e+00 -2.8418321939e+00 1.6407325821e+00 2.8418321939e+00 
187400 5.1896653198e+00 -1.0832760445e-03 1.6407664435e+00 -2.8418908436e+00 1.6407664435e+00 2.8418908436e+00 
187500 5.1896660146e+00 -1.0561244460e-03 1.6407994549e+00 -2.8419480210e+00 1.6407994549e+00 2.8419480210e+00 
187600 5.1896667009e+00 -1.0296755408e-03 1.6408316383e+00 -2.8420037641e+00 1.6408316383e+00 2.8420037641e+00 
187700 5.1896673785e+00 -1.0039132381e-03 1.6408630150e+00 -2.8420581102e+00 1.6408630150e+00 2.8420581102e+00 
187800 5.1896680473e+00 -9.7882168269e-04 1.6408936061e+00 -2.8421110956e+00 1.6408936061e+00 2.8421110956e+00 
187900 5.1896687070e+00 -9.5438525561e-04 1.6409234321e+00 -2.8421627557e+00 1.6409234321e+00 2.8421627557e+00 
188000 5.1896693577e+00 -9.3058857583e-04 1.6409525129e+00 -2.8422131251e+00 1.6409525129e+00 2.8422131251e+00 
188100 5.1896699991e+00 -9.0741650101e-04 1.6409808681e+00 -2.8422622378e+00 1.6409808681e+00 2.8422622378e+00 
188200 5.1896706313e+00 -8.8485412827e-04 1.6410085168e+00 -2.8423101267e+00 1.6410085168e+00 2.8423101267e+00 
188300 5.1896712541e+00 -8.6288679478e-04 1.6410354775e+00 -2.8423568241e+00 1.6410354775e+00 2.8423568241e+00 
188400 5.1896718675e+00 -8.4150007818e-04 1.6410617685e+00 -2.8424023615e+00 1.6410617685e+00 2.8424023615e+00 
188500 5.1896724715e+00 -8.2067979678e-04 1.6410874075e+00 -2.8424467694e+00 1.6410874075e+00 2.8424467694e+00 
188600 5.1896730660e+00 -8.0041200964e-04 1.6411124117e+00 -2.8424900780e+00 1.6411124117e+00 2.8424900780e+00 
188700 5.1896736510e+00 -7.8068301643e-04 1.6411367980e+00 -2.8425323164e+00 1.6411367980e+00 2.8425323164e+00 
188800 5.1896742266e+00 -7.6147935722e-04 1.6411605829e+00 -2.8425735130e+00 1.6411605829e+00 2.8425735130e+00 
188900 5.1896747926e+00 -7.4278781204e-04 1.6411837824e+00 -2.8426136957e+00 1.6411837824e+00 2.8426136957e+00 
189000 5.1896753493e+00 -7.2459540030e-04 1.6412064121e+00 -2.8426528914e+00 1.6412064121e+00 2.8426528914e+00 
189100 5.1896758965e+00 -7.0688938010e-04 1.6412284872e+00 -2.8426911267e+00 1.6412284872e+00 2.8426911267e+00 
189200 5.1896764343e+00 -6.8965724740e-04 1.6412500226e+00 -2.8427284271e+00 1.6412500226e+00 2.8427284271e+00 
189300 5.1896769628e+00 -6.7288673503e-04 1.6412710328e+00 -2.8427648178e+00 1.6412710328e+00 2.8427648178e+00 
189400 5.1896774820e+00 -6.5656581158e-04 1.6412915318e+00 -2.8428003231e+00 1.6412915318e+00 2.8428003231e+00 
189500 5.1896779919e+00 -6.4068268017e-04 1.6413115333e+00 -2.8428349668e+00 1.6413115333e+00 2.8428349668e+00 
189600 5.1896784927e+00 -6.2522577715e-04 1.6413310508e+00 -2.8428687720e+00 1.6413310508e+00 2.8428687720e+00 
189700 5.1896789845e+00 -6.1018377057e-04 1.6413500971e+00 -2.8429017612e+00 1.6413500971e+00 2.8429017612e+00 
189800 5.1896794672e+00 -5.9554555869e-04 1.6413686850e+00 -2.8429339564e+00 1.6413686850e+00 2.8429339564e+00 
189900 5.1896799410e+00 -5.8130026826e-04 1.6413868268e+00 -2.8429653788e+00 1.6413868268e+00 2.8429653788e+00 
190000 5.1896804059e+00 -5.6743725276e-04 1.6414045344e+00 -2.8429960494e+00 1.6414045344e+00 2.8429960494e+00 
190100 5.1896808621e+00 -5.5394609058e-04 1.6414218195e+00 -2.8430259881e+00 1.6414218195e+00 2.8430259881e+00 
190200 5.1896813096e+00 -5.4081658300e-04 1.6414386935e+00 -2.8430552147e+00 1.6414386935e+00 2.8430552147e+00 
190300 5.1896817486e+00 -5.2803875222e-04 1.6414551674e+00 -2.8430837483e+00 1.6414551674e+00 2.8430837483e+00 
190400 5.1896821791e+00 -5.1560283920e-04 1.6414712519e+00 -2.8431116075e+00 1.6414712519e+00 2.8431116075e+00 
190500 5.1896826012e+00 -5.0349930149e-04 1.6414869575e+00 -2.8431388103e+00 1.6414869575e+00 2.8431388103e+00 
190600 5.1896830151e+00 -4.9171881097e-04 1.6415022942e+00 -2.8431653742e+00 1.6415022942e+00 2.8431653742e+00 
190700 5.1896834208e+00 -4.8025225149e-04 1.6415172719e+00 -2.8431913164e+00 1.6415172719e+00 2.8431913164e+00 
190800 5.1896838185e+00 -4.6909071649e-04 1.6415319002e+00 -2.8432166534e+00 1.6415319002e+00 2.8432166534e+00 
190900 5.1896842082e+00 -4.5822550657e-04 1.6415461884e+00 -2.8432414014e+00 1.6415461884e+00 2.8432414014e+00 
191000 5.1896845902e+00 -4.4764812691e-04 1.6415601456e+00 -2.8432655759e+00 1.6415601456e+00 2.8432655759e+00 
191100 5.1896849644e+00 -4.3735028480e-04 1.6415737805e+00 -2.8432891921e+00 1.6415737805e+00 2.8432891921e+00 
191200 5.1896853310e+00 -4.2732388694e-04 1.6415871015e+00 -2.8433122649e+00 1.6415871015e+00 2.8433122649e+00 
191300 5.1896856902e+00 -4.1756103685e-04 1.6416001171e+00 -2.8433348086e+00 1.6416001171e+00 2.8433348086e+00 
191400 5.1896860420e+00 -4.0805403212e-04 1.6416128353e+00 -2.8433568370e+00 1.6416128353e+00 2.8433568370e+00 
191500 5.1896863865e+00 -3.9879536172e-04 1.6416252637e+00 -2.8433783637e+00 1.6416252637e+00 2.8433783637e+00 
191600 5.1896867239e+00 -3.8977770320e-04 1.6416374101e+00 -2.8433994019e+00 1.6416374101e+00 2.8433994019e+00 
191700 5.1896870542e+00 -3.8099391992e-04 1.6416492817e+00 -2.8434199641e+00 1.6416492817e+00 2.8434199641e+00 
191800 5.1896873777e+00 -3.7243705820e-04 1.6416608857e+00 -2.8434400629e+00 1.6416608857e+00 2.8434400629e+00 
191900 5.1896876943e+00 -3.6410034446e-04 1.6416722290e+00 -2.8434597101e+00 1.6416722290e+00 2.8434597101e+00 
192000 5.1896880043e+00 -3.5597718240e-04 1.6416833184e+00 -2.8434789174e+00 1.6416833184e+00 2.8434789174e+00 
192100 5.1896883077e+00 -3.4806115006e-04 1.6416941602e+00 -2.8434976960e+00 1.6416941602e+00 2.8434976960e+00 
192200 5.1896886046e+00 -3.4034599691e-04 1.6417047609e+00 -2.8435160569e+00 1.6417047609e+00 2.8435160569e+00 
192300 5.1896888952e+00 -3.3282564099e-04 1.6417151265e+00 -2.8435340107e+00 1.6417151265e+00 2.8435340107e+00 
192400 5.1896891796e+00 -3.2549416591e-04 1.6417252631e+00 -2.8435515677e+00 1.6417252631e+00 2.8435515677e+00 
192500 5.1896894579e+00 -3.1834581799e-04 1.6417351763e+00 -2.8435687378e+00 1.6417351763e+00 2.8435687378e+00 
192600 5.1896897301e+00 -3.1137500324e-04 1.6417448717e+00 -2.8435855308e+00 1.6417448717e+00 2.8435855308e+00 
192700 5.1896899964e+00 -3.0457628448e-04 1.6417543547e+00 -2.8436019559e+00 1.6417543547e+00 2.8436019559e+00 
192800 5.1896902570e+00 -2.9794437839e-04 1.6417636307e+00 -2.8436180224e+00 1.6417636307e+00 2.8436180224e+00 
192900 5.1896905119e+00 -2.9147415254e-04 1.6417727046e+00 -2.8436337388e+00 1.6417727046e+00 2.8436337388e+00 
193000 5.1896907611e+00 -2.8516062249e-04 1.6417815814e+00 -2.8436491139e+00 1.6417815814e+00 2.8436491139e+00 
193100 5.1896910049e+00 -2.7899894883e-04 1.6417902659e+00 -2.8436641559e+00 1.6417902659e+00 2.8436641559e+00 
193200 5.1896912434e+00 -2.7298443429e-04 1.6417987627e+00 -2.8436788728e+00 1.6417987627e+00 2.8436788728e+00 
193300 5.1896914765e+00 -2.6711252083e-04 1.6418070763e+00 -2.8436932724e+00 1.6418070763e+00 2.8436932724e+00 
193400 5.1896917045e+00 -2.6137878671e-04 1.6418152110e+00 -2.8437073621e+00 1.6418152110e+00 2.8437073621e+00 
193500 5.1896919274e+00 -2.5577894366e-04 1.6418231711e+00 -2.8437211493e+00 1.6418231711e+00 2.8437211493e+00 
193600 5.1896921454e+00 -2.5030883398e-04 1.6418309606e+00 -2.8437346411e+00 1.6418309606e+00 2.8437346411e+00 
193700 5.1896923585e+00 -2.4496442768e-04 1.6418385834e+00 -2.8437478443e+00 1.6418385834e+00 2.8437478443e+00 
193800 5.1896925668e+00 -2.3974181971e-04 1.6418460435e+00 -2.8437607655e+00 1.6418460435e+00 2.8437607655e+00 
193900 5.1896927704e+00 -2.3463722709e-04 1.6418533445e+00 -2.8437734112e+00 1.6418533445e+00 2.8437734112e+00 
194000 5.1896929694e+00 -2.2964698617e-04 1.6418604900e+00 -2.8437857876e+00 1.6418604900e+00 2.8437857876e+00 
194100 5.1896931640e+00 -2.2476754982e-04 1.6418674835e+00 -2.8437979007e+00 1.6418674835e+00 2.8437979007e+00 
194200 5.1896933541e+00 -2.1999548476e-04 1.6418743284e+00 -2.8438097564e+00 1.6418743284e+00 2.8438097564e+00 
194300 5.1896935399e+00 -2.1532746878e-04 1.6418810279e+00 -2.8438213603e+00 1.6418810279e+00 2.8438213603e+00 
194400 5.1896937215e+00 -2.1076028811e-04 1.6418875852e+00 -2.8438327180e+00 1.6418875852e+00 2.8438327180e+00 
194500 5.1896938990e+00 -2.0629083474e-04 1.6418940035e+00 -2.8438438347e+00 1.6418940035e+00 2.8438438347e+00 
194600 5.1896940724e+00 -2.0191610377e-04 1.6419002856e+00 -2.8438547156e+00 1.6419002856e+00 2.8438547156e+00 
194700 5.1896942418e+00 -1.9763319089e-04 1.6419064344e+00 -2.8438653657e+00 1.6419064344e+00 2.8438653657e+00 
194800 5.1896944074e+00 -1.9343928971e-04 1.6419124528e+00 -2.8438757899e+00 1.6419124528e+00 2.8438757899e+00 
194900 5.1896945691e+00 -1.8933168934e-04 1.6419183435e+00 -2.8438859929e+00 1.6419183435e+00 2.8438859929e+00 
195000 5.1896947271e+00 -1.8530777178e-04 1.6419241091e+00 -2.8438959791e+00 1.6419241091e+00 2.8438959791e+00 
195100 5.1896948815e+00 -1.8136500955e-04 1.6419297521e+00 -2.8439057531e+00 1.6419297521e+00 2.8439057531e+00 
195200 5.1896950323e+00 -1.7750096318e-04 1.6419352750e+00 -2.8439153191e+00 1.6419352750e+00 2.8439153191e+00 
195300 5.1896951796e+00 -1.7371327887e-04 1.6419406803e+00 -2.8439246812e+00 1.6419406803e+00 2.8439246812e+00 
195400 5.1896953235e+00 -1.6999968608e-04 1.6419459701e+00 -2.8439338436e+00 1.6419459701e+00 2.8439338436e+00 
195500 5.1896954640e+00 -1.6635799524e-04 1.6419511469e+00 -2.8439428100e+00 1.6419511469e+00 2.8439428100e+00 
195600 5.1896956013e+00 -1.6278609543e-04 1.6419562128e+00 -2.8439515843e+00 1.6419562128e+00 2.8439515843e+00 
195700 5.1896957353e+00 -1.5928195217e-04 1.6419611699e+00 -2.8439601703e+00 1.6419611699e+00 2.8439601703e+00 
195800 5.1896958663e+00 -1.5584360513e-04 1.6419660202e+00 -2.8439685713e+00 1.6419660202e+00 2.8439685713e+00 
195900 5.1896959941e+00 -1.5246916601e-04 1.6419707659e+00 -2.8439767910e+00 1.6419707659e+00 2.8439767910e+00 
196000 5.1896961190e+00 -1.4915681640e-04 1.6419754087e+00 -2.8439848327e+00 1.6419754087e+00 2.8439848327e+00 
196100 5.1896962410e+00 -1.4590480562e-04 1.6419799507e+00 -2.8439926997e+00 1.6419799507e+00 2.8439926997e+00 
196200 5.1896963600e+00 -1.4271144870e-04 1.6419843937e+00 -2.8440003951e+00 1.6419843937e+00 2.8440003951e+00 
196300 5.1896964763e+00 -1.3957512434e-04 1.6419887394e+00 -2.8440079221e+00 1.6419887394e+00 2.8440079221e+00 
196400 5.1896965899e+00 -1.3649427291e-04 1.6419929896e+00 -2.8440152836e+00 1.6419929896e+00 2.8440152836e+00 
196500 5.1896967007e+00 -1.3346739451e-04 1.6419971459e+00 -2.8440224827e+00 1.6419971459e+00 2.8440224827e+00 
196600 5.1896968090e+00 -1.3049304705e-04 1.6420012101e+00 -2.8440295220e+00 1.6420012101e+00 2.8440295220e+00 
196700 5.1896969146e+00 -1.2756984437e-04 1.6420051837e+00 -2.8440364045e+00 1.6420051837e+00 2.8440364045e+00 
196800 5.1896970178e+00 -1.2469645441e-04 1.6420090683e+00 -2.8440431328e+00 1.6420090683e+00 2.8440431328e+00 
196900 5.1896971185e+00 -1.2187159741e-04 1.6420128654e+00 -2.8440497095e+00 1.6420128654e+00 2.8440497095e+00 
197000 5.1896972169e+00 -1.1909404413e-04 1.6420165764e+00 -2.8440561372e+00 1.6420165764e+00 2.8440561372e+00 
197100 5.1896973129e+00 -1.1636261416e-04 1.6420202029e+00 -2.8440624184e+00 1.6420202029e+00 2.8440624184e+00 
197200 5.1896974066e+00 -1.1367617422e-04 1.6420237461e+00 -2.8440685556e+00 1.6420237461e+00 2.8440685556e+00 
197300 5.1896974981e+00 -1.1103363649e-04 1.6420272076e+00 -2.8440745510e+00 1.6420272076e+00 2.8440745510e+00 
197400 5.1896975874e+00 -1.0843395703e-04 1.6420305886e+00 -2.8440804071e+00 1.6420305886e+00 2.8440804071e+00 
197500 5.1896976746e+00 -1.0587613421e-04 1.6420338904e+00 -2.8440861260e+00 1.6420338904e+00 2.8440861260e+00 
197600 5.1896977597e+00 -1.0335920714e-04 1.6420371144e+00 -2.8440917100e+00 1.6420371144e+00 2.8440917100e+00 
197700 5.1896978428e+00 -1.0088225421e-04 1.6420402617e+00 -2.8440971613e+00 1.6420402617e+00 2.8440971613e+00 
197800 5.1896979239e+00 -9.8444391601e-05 1.6420433335e+00 -2.8441024819e+00 1.6420433335e+00 2.8441024819e+00 
197900 5.1896980031e+00 -9.6044771873e-05 1.6420463311e+00 -2.8441076739e+00 1.6420463311e+00 2.8441076739e+00 
198000 5.1896980804e+00 -9.3682582570e-05 1.6420492557e+00 -2.8441127394e+00 1.6420492557e+00 2.8441127394e+00 
198100 5.1896981558e+00 -9.1357044862e-05 1.6420521083e+00 -2.8441176802e+00 1.6420521083e+00 2.8441176802e+00 
198200 5.1896982294e+00 -8.9067412234e-05 1.6420548901e+00 -2.8441224984e+00 1.6420548901e+00 2.8441224984e+00 
198300 5.1896983013e+00 -8.6812969195e-05 1.6420576022e+00 -2.8441271959e+00 1.6420576022e+00 2.8441271959e+00 
198400 5.1896983714e+00 -8.4593030031e-05 1.6420602456e+00 -2.8441317744e+00 1.6420602456e+00 2.8441317744e+00 
198500 5.1896984398e+00 -8.2406937585e-05 1.6420628214e+00 -2.8441362359e+00 1.6420628214e+00 2.8441362359e+00 
198600 5.1896985067e+00 -8.0254062077e-05 1.6420653307e+00 -2.8441405820e+00 1.6420653307e+00 2.8441405820e+00 
198700 5.1896985719e+00 -7.8133799960e-05 1.6420677743e+00 -2.8441448146e+00 1.6420677743e+00 2.8441448146e+00 
198800 5.1896986355e+00 -7.6045572790e-05 1.6420701535e+00 -2.8441489354e+00 1.6420701535e+00 2.8441489354e+00 
198900 5.1896986977e+00 -7.3988826157e-05 1.6420724690e+00 -2.8441529460e+00 1.6420724690e+00 2.8441529460e+00 
199000 5.1896987583e+00 -7.1963028621e-05 1.6420747219e+00 -2.8441568482e+00 1.6420747219e+00 2.8441568482e+00 
199100 5.1896988175e+00 -6.9967670699e-05 1.6420769131e+00 -2.8441606435e+00 1.6420769131e+00 2.8441606435e+00 
199200 5.1896988754e+00 -6.9481618759e-05 1.6420769131e+00 -2.8441606435e+00 1.6420769131e+00 2.8441606435e+00 
199300 5.1896989320e+00 -6.8986549027e-05 1.6420769131e+00 -2.8441606435e+00 1.6420769131e+00 2.8441606435e+00 
199400 5.1896989872e+00 -6.8482590856e-05 1.6420769131e+00 -2.8441606435e+00 1.6420769131e+00 2.8441606435e+00 
199500 5.1896990410e+00 -6.7969876703e-05 1.6420769131e+00 -2.8441606435e+00 1.6420769131e+00 2.8441606435e+00 
199600 5.1896990936e+00 -6.7448541991e-05 1.6420769131e+00 -2.8441606435e+00 1.6420769131e+00 2.8441606435e+00 
199700 5.1896991449e+00 -6.6918724981e-05 1.6420769131e+00 -2.8441606435e+00 1.6420769131e+00 2.8441606435e+00 
199800 5.1896991950e+00 -6.6380566634e-05 1.6420769131e+00 -2.8441606435e+00 1.6420769131e+00 2.8441606435e+00 
199900 5.1896992438e+00 -6.5834210493e-05 1.6420769131e+00 -2.8441606435e+00 1.6420769131e+00 2.8441606435e+00 
200000 5.1896992915e+00 -6.5279802551e-05 1.6420769131e+00 -2.8441606435e+00 1.6420769131e+00 2.8441606435e+00 
200100 5.1896993380e+00 -6.4717491138e-05 1.6420769131e+00 -2.8441606435e+00 1.6420769131e+00 2.8441606435e+00 
200200 5.1896993834e+00 -6.4147426793e-05 1.6420769131e+00 -2.8441606435e+00 1.6420769131e+00 2.8441606435e+00 
200300 5.1896994278e+00 -6.3569762156e-05 1.6420769131e+00 -2.8441606435e+00 1.6420769131e+00 2.8441606435e+00 
200400 5.1896994710e+00 -6.2984651843e-05 1.6420769131e+00 -2.8441606435e+00 1.6420769131e+00 2.8441606435e+00 
200500 5.1896995132e+00 -6.2392252342e-05 1.6420769131e+00 -2.8441606435e+00 1.6420769131e+00 2.8441606435e+00 
200600 5.1896995544e+00 -6.1792721896e-05 1.6420769131e+00 -2.8441606435e+00 1.6420769131e+00 2.8441606435e+00 
200700 5.1896995947e+00 -6.1186220394e-05 1.6420769131e+00 -2.8441606435e+00 1.6420769131e+00 2.8441606435e+00 
200800 5.1896996339e+00 -6.0572909261e-05 1.6420769131e+00 -2.8441606435e+00 1.6420769131e+00 2.8441606435e+00 
200900 5.1896996722e+00 -5.9952951350e-05 1.6420769131e+00 -2.8441606435e+00 1.6420769131e+00 2.8441606435e+00 
201000 5.1896997096e+00 -5.9326510840e-05 1.6420769131e+00 -2.8441606435e+00 1.6420769131e+00 2.8441606435e+00 
201100 5.1896997461e+00 -5.8693753126e-05 1.6420769131e+00 -2.8441606435e+00 1.6420769131e+00 2.8441606435e+00 
201200 5.1896997818e+00 -5.8054844716e-05 1.6420769131e+00 -2.8441606435e+00 1.6420769131e+00 2.8441606435e+00 
201300 5.1896998166e+00 -5.7409953130e-05 1.6420769131e+00 -2.8441606435e+00 1.6420769131e+00 2.8441606435e+00 
201400 5.1896998505e+00 -5.6759246797e-05 1.6420769131e+00 -2.8441606435e+00 1.6420769131e+00 2.8441606435e+00 
201500 5.1896998837e+00 -5.6102894953e-05 1.6420769131e+00 -2.8441606435e+00 1.6420769131e+00 2.8441606435e+00 
201600 5.1896999161e+00 -5.5441067543e-05 1.6420769131e+00 -2.8441606435e+00 1.6420769131e+00 2.8441606435e+00 
201700 5.1896999477e+00 -5.4773935121e-05 1.6420769131e+00 -2.8441606435e+00 1.6420769131e+00 2.8441606435e+00 
201800 5.1896999785e+00 -5.4101668757e-05 1.6420769131e+00 -2.8441606435e+00 1.6420769131e+00 2.8441606435e+00 
201900 5.1897000086e+00 -5.3424439930e-05 1.6420769131e+00 -2.8441606435e+00 1.6420769131e+00 2.8441606435e+00 
202000 5.1897000380e+00 -5.2742420445e-05 1.6420769131e+00 -2.8441606435e+00 1.6420769131e+00 2.8441606435e+00 
202100 5.1897000667e+00 -5.2055782330e-05 1.6420769131e+00 -2.8441606435e+00 1.6420769131e+00 2.8441606435e+00 
202200 5.1897000948e+00 -5.1364697748e-05 1.6420769131e+00 -2.8441606435e+00 1.6420769131e+00 2.8441606435e+00 
202300 5.1897001222e+00 -5.0669338902e-05 1.6420769131e+00 -2.8441606435e+00 1.6420769131e+00 2.8441606435e+00 
202400 5.1897001489e+00 -4.9969877942e-05 1.6420769131e+00 -2.8441606435e+00 1.6420769131e+00 2.8441606435e+00 
202500 5.1897001750e+00 -4.9266486885e-05 1.6420769131e+00 -2.8441606435e+00 1.6420769131e+00 2.8441606435e+00 
202600 5.1897002005e+00 -4.8559337514e-05 1.6420769131e+00 -2.8441606435e+00 1.6420769131e+00 2.8441606435e+00 
202700 5.1897002254e+00 -4.7848601303e-05 1.6420769131e+00 -2.8441606435e+00 1.6420769131e+00 2.8441606435e+00 
202800 5.1897002497e+00 -4.7134449323e-05 1.6420769131e+00 -2.8441606435e+00 1.6420769131e+00 2.8441606435e+00 
202900 5.1897002735e+00 -4.6417052162e-05 1.6420769131e+00 -2.8441606435e+00 1.6420769131e+00 2.8441606435e+00 
203000 5.1897002967e+00 -4.5696579841e-05 1.6420769131e+00 -2.8441606435e+00 1.6420769131e+00 2.8441606435e+00 
203100 5.1897003194e+00 -4.4973201733e-05 1.6420769131e+00 -2.8441606435e+00 1.6420769131e+00 2.8441606435e+00 
203200 5.1897003415e+00 -4.4247086484e-05 1.6420769131e+00 -2.8441606435e+00 1.6420769131e+00 2.8441606435e+00 
203300 5.1897003632e+00 -4.3518401934e-05 1.6420769131e+00 -2.8441606435e+00 1.6420769131e+00 2.8441606435e+00 
203400 5.1897003843e+00 -4.2787315042e-05 1.6420769131e+00 -2.8441606435e+00 1.6420769131e+00 2.8441606435e+00 
203500 5.1897004049e+00 -4.2053991807e-05 1.6420769131e+00 -2.8441606435e+00 1.6420769131e+00 2.8441606435e+00 
203600 5.1897004251e+00 -4.1318597202e-05 1.6420769131e+00 -2.8441606435e+00 1.6420769131e+00 2.8441606435e+00 
203700 5.1897004448e+00 -4.0581295097e-05 1.6420769131e+00 -2.8441606435e+00 1.6420769131e+00 2.8441606435e+00 
203800 5.1897004641e+00 -3.9842248188e-05 1.6420769131e+00 -2.8441606435e+00 1.6420769131e+00 2.8441606435e+00 
203900 5.1897004829e+00 -3.9101617935e-05 1.6420769131e+00 -2.8441606435e+00 1.6420769131e+00 2.8441606435e+00 
204000 5.1897005013e+00 -3.8359564492e-05 1.6420769131e+00 -2.8441606435e+00 1.6420769131e+00 2.8441606435e+00 
204100 5.1897005193e+00 -3.7616246642e-05 1.6420769131e+00 -2.8441606435e+00 1.6420769131e+00 2.8441606435e+00 
204200 5.1897005369e+00 -3.6871821737e-05 1.6420769131e+00 -2.8441606435e+00 1.6420769131e+00 2.8441606435e+00 
204300 5.1897005541e+00 -3.6126445638e-05 1.6420769131e+00 -2.8441606435e+00 1.6420769131e+00 2.8441606435e+00 
204400 5.1897005709e+00 -3.5380272649e-05 1.6420769131e+00 -2.8441606435e+00 1.6420769131e+00 2.8441606435e+00 
204500 5.1897005873e+00 -3.4633455474e-05 1.6420769131e+00 -2.8441606435e+00 1.6420769131e+00 2.8441606435e+00 
204600 5.1897006033e+00 -3.3886145146e-05 1.6420769131e+00 -2.8441606435e+00 1.6420769131e+00 2.8441606435e+00 
204700 5.1897006190e+00 -3.3138490991e-05 1.6420769131e+00 -2.8441606435e+00 1.6420769131e+00 2.8441606435e+00 
204800 5.1897006344e+00 -3.2390640559e-05 1.6420769131e+00 -2.8441606435e+00 1.6420769131e+00 2.8441606435e+00 
204900 5.1897006494e+00 -3.1642739593e-05 1.6420769131e+00 -2.8441606435e+00 1.6420769131e+00 2.8441606435e+00 
205000 5.1897006640e+00 -3.0894931970e-05 1.6420769131e+00 -2.8441606435e+00 1.6420769131e+00 2.8441606435e+00 
205100 5.1897006784e+00 -3.0147359660e-05 1.6420769131e+00 -2.8441606435e+00 1.6420769131e+00 2.8441606435e+00 
205200 5.1897006924e+00 -2.9400162684e-05 1.6420769131e+00 -2.8441606435e+00 1.6420769131e+00 2.8441606435e+00 
205300 5.1897007062e+00 -2.8653479071e-05 1.6420769131e+00 -2.8441606435e+00 1.6420769131e+00 2.8441606435e+00 
205400 5.1897007196e+00 -2.7907444824e-05 1.6420769131e+00 -2.8441606435e+00 1.6420769131e+00 2.8441606435e+00 
205500 5.1897007327e+00 -2.7162193874e-05 1.6420769131e+00 -2.8441606435e+00 1.6420769131e+00 2.8441606435e+00 
205600 5.1897007456e+00 -2.6417858056e-05 1.6420769131e+00 -2.8441606435e+00 1.6420769131e+00 2.8441606435e+00 
205700 5.1897007581e+00 -2.5674567069e-05 1.6420769131e+00 -2.8441606435e+00 1.6420769131e+00 2.8441606435e+00 
205800 5.1897007704e+00 -2.4932448447e-05 1.6420769131e+00 -2.8441606435e+00 1.6420769131e+00 2.8441606435e+00 
205900 5.1897007824e+00 -2.4191627531e-05 1.6420769131e+00 -2.8441606435e+00 1.6420769131e+00 2.8441606435e+00 
206000 5.1897007942e+00 -2.3452227439e-05 1.6420769131e+00 -2.8441606435e+00 1.6420769131e+00 2.8441606435e+00 
206100 5.1897008057e+00 -2.2714369048e-05 1.6420769131e+00 -2.8441606435e+00 1.6420769131e+00 2.8441606435e+00 
206200 5.1897008170e+00 -2.1978170962e-05 1.6420769131e+00 -2.8441606435e+00 1.6420769131e+00 2.8441606435e+00 
206300 5.1897008280e+00 -2.1243749497e-05 1.6420769131e+00 -2.8441606435e+00 1.6420769131e+00 2.8441606435e+00 
206400 5.1897008388e+00 -2.0511218662e-05 1.6420769131e+00 -2.8441606435e+00 1.6420769131e+00 2.8441606435e+00 
206500 5.1897008494e+00 -1.9780690137e-05 1.6420769131e+00 -2.8441606435e+00 1.6420769131e+00 2.8441606435e+00 
206600 5.1897008598e+00 -1.9052273260e-05 1.6420769131e+00 -2.8441606435e+00 1.6420769131e+00 2.8441606435e+00 
206700 5.1897008699e+00 -1.8326075018e-05 1.6420769131e+00 -2.8441606435e+00 1.6420769131e+00 2.8441606435e+00 
206800 5.1897008798e+00 -1.7602200025e-05 1.6420769131e+00 -2.8441606435e+00 1.6420769131e+00 2.8441606435e+00 
206900 5.1897008895e+00 -1.6880750523e-05 1.6420769131e+00 -2.8441606435e+00 1.6420769131e+00 2.8441606435e+00 
207000 5.1897008990e+00 -1.6161826365e-05 1.6420769131e+00 -2.8441606435e+00 1.6420769131e+00 2.8441606435e+00 
207100 5.1897009083e+00 -1.5445525012e-05 1.6420769131e+00 -2.8441606435e+00 1.6420769131e+00 2.8441606435e+00 
207200 5.1897009175e+00 -1.4731941531e-05 1.6420769131e+00 -2.8441606435e+00 1.6420769131e+00 2.8441606435e+00 
207300 5.1897009264e+00 -1.4021168587e-05 1.6420769131e+00 -2.8441606435e+00 1.6420769131e+00 2.8441606435e+00 
207400 5.1897009351e+00 -1.3313296440e-05 1.6420769131e+00 -2.8441606435e+00 1.6420769131e+00 2.8441606435e+00 
207500 5.1897009437e+00 -1.2608412953e-05 1.6420769131e+00 -2.8441606435e+00 1.6420769131e+00 2.8441606435e+00 
207600 5.1897009521e+00 -1.1906603586e-05 1.6420769131e+00 -2.8441606435e+00 1.6420769131e+00 2.8441606435e+00 
207700 5.1897009603e+00 -1.1207951402e-05 1.6420769131e+00 -2.8441606435e+00 1.6420769131e+00 2.8441606435e+00 
207800 5.1897009684e+00 -1.0512537071e-05 1.6420769131e+00 -2.8441606435e+00 1.6420769131e+00 2.8441606435e+00 
207900 5.1897009763e+00 -9.8204388765e-06 1.6420769131e+00 -2.8441606435e+00 1.6420769131e+00 2.8441606435e+00 
208000 5.1897009840e+00 -9.1317327225e-06 1.6420769131e+00 -2.8441606435e+00 1.6420769131e+00 2.8441606435e+00 
208100 5.1897009916e+00 -8.4464921421e-06 1.6420769131e+00 -2.8441606435e+00 1.6420769131e+00 2.8441606435e+00 
208200 5.1897009990e+00 -7.7647883083e-06 1.6420769131e+00 -2.8441606435e+00 1.6420769131e+00 2.8441606435e+00 
208300 5.1897010063e+00 -7.0866900439e-06 1.6420769131e+00 -2.8441606435e+00 1.6420769131e+00 2.8441606435e+00 
208400 5.1897010134e+00 -6.4122638367e-06 1.6420769131e+00 -2.8441606435e+00 1.6420769131e+00 2.8441606435e+00 
208500 5.1897010204e+00 -5.7415738511e-06 1.6420769131e+00 -2.8441606435e+00 1.6420769131e+00 2.8441606435e+00 
208600 5.1897010273e+00 -5.0746819431e-06 1.6420769131e+00 -2.8441606435e+00 1.6420769131e+00 2.8441606435e+00 
208700 5.1897010340e+00 -4.4116476792e-06 1.6420769131e+00 -2.8441606435e+00 1.6420769131e+00 2.8441606435e+00 
208800 5.1897010406e+00 -3.7525283510e-06 1.6420769131e+00 -2.8441606435e+00 1.6420769131e+00 2.8441606435e+00 
208900 5.1897010470e+00 -3.0973789944e-06 1.6420769131e+00 -2.8441606435e+00 1.6420769131e+00 2.8441606435e+00 
209000 5.1897010533e+00 -2.4462524080e-06 1.6420769131e+00 -2.8441606435e+00 1.6420769131e+00 2.8441606435e+00 
209100 5.1897010595e+00 -1.7991991766e-06 1.6420769131e+00 -2.8441606435e+00 1.6420769131e+00 2.8441606435e+00 
209200 5.1897010656e+00 -1.1562676910e-06 1.6420769131e+00 -2.8441606435e+00 1.6420769131e+00 2.8441606435e+00 
209300 5.1897010716e+00 -5.1750416562e-07 1.6420769131e+00 -2.8441606435e+00 1.6420769131e+00 2.8441606435e+00 
209400 5.1897010775e+00 1.1704733114e-07 1.6420769131e+00 -2.8441606435e+00 1.6420769131e+00 2.8441606435e+00 
209500 5.1897010832e+00 7.4734485544e-07 1.6420769131e+00 -2.8441606435e+00 1.6420769131e+00 2.8441606435e+00 
209600 5.1897010888e+00 1.3733485664e-06 1.6420769131e+00 -2.8441606435e+00 1.6420769131e+00 2.8441606435e+00 
209700 5.1897010943e+00 1.9950206980e-06 1.6420769131e+00 -2.8441606435e+00 1.6420769131e+00 2.8441606435e+00 
209800 5.1897010998e+00 2.6123255316e-06 1.6420769131e+00 -2.8441606435e+00 1.6420769131e+00 2.8441606435e+00 
209900 5.1897011051e+00 3.2252293715e-06 1.6420769131e+00 -2.8441606435e+00 1.6420769131e+00 2.8441606435e+00 
210000 5.1897011103e+00 3.8337005165e-06 1.6420769131e+00 -2.8441606435e+00 1.6420769131e+00 2.8441606435e+00 
210100 5.1897011154e+00 4.4377092333e-06 1.6420769131e+00 -2.8441606435e+00 1.6420769131e+00 2.8441606435e+00 
210200 5.1897011204e+00 5.0372277254e-06 1.6420769131e+00 -2.8441606435e+00 1.6420769131e+00 2.8441606435e+00 
210300 5.1897011253e+00 5.6322301058e-06 1.6420769131e+00 -2.8441606435e+00 1.6420769131e+00 2.8441606435e+00 
210400 5.1897011302e+00 6.2226923667e-06 1.6420769131e+00 -2.8441606435e+00 1.6420769131e+00 2.8441606435e+00 
210500 5.1897011349e+00 6.8085923488e-06 1.6420769131e+00 -2.8441606435e+00 1.6420769131e+00 2.8441606435e+00 
210600 5.1897011396e+00 7.3899097140e-06 1.6420769131e+00 -2.8441606435e+00 1.6420769131e+00 2.8441606435e+00 
210700 5.1897011441e+00 7.9666259078e-06 1.6420769131e+00 -2.8441606435e+00 1.6420769131e+00 2.8441606435e+00 
210800 5.1897011486e+00 8.5387241375e-06 1.6420769131e+00 -2.8441606435e+00 1.6420769131e+00 2.8441606435e+00 
210900 5.1897011530e+00 9.1061893307e-06 1.6420769131e+00 -2.8441606435e+00 1.6420769131e+00 2.8441606435e+00 
211000 5.1897011573e+00 9.6690081117e-06 1.6420769131e+00 -2.8441606435e+00 1.6420769131e+00 2.8441606435e+00 
211100 5.1897011616e+00 1.0227168765e-05 1.6420769131e+00 -2.8441606435e+00 1.6420769131e+00 2.8441606435e+00 
211200 5.1897011657e+00 1.0780661203e-05 1.6420769131e+00 -2.8441606435e+00 1.6420769131e+00 2.8441606435e+00 
211300 5.1897011698e+00 1.1329476937e-05 1.6420769131e+00 -2.8441606435e+00 1.6420769131e+00 2.8441606435e+00 
211400 5.1897011738e+00 1.1873609040e-05 1.6420769131e+00 -2.8441606435e+00 1.6420769131e+00 2.8441606435e+00 
211500 5.1897011778e+00 1.2413052117e-05 1.6420769131e+00 -2.8441606435e+00 1.6420769131e+00 2.8441606435e+00 
211600 5.1897011816e+00 1.2947802269e-05 1.6420769131e+00 -2.8441606435e+00 1.6420769131e+00 2.8441606435e+00 
211700 5.1897011854e+00 1.3477857068e-05 1.6420769131e+00 -2.8441606435e+00 1.6420769131e+00 2.8441606435e+00 
211800 5.1897011892e+00 1.4003215511e-05 1.6420769131e+00 -2.8441606435e+00 1.6420769131e+00 2.8441606435e+00 
211900 5.1897011928e+00 1.4523878001e-05 1.6420769131e+00 -2.8441606435e+00 1.6420769131e+00 2.8441606435e+00 
212000 5.1897011964e+00 1.5039846300e-05 1.6420769131e+00 -2.8441606435e+00 1.6420769131e+00 2.8441606435e+00 
212100 5.1897012000e+00 1.5551123510e-05 1.6420769131e+00 -2.8441606435e+00 1.6420769131e+00 2.8441606435e+00 
212200 5.1897012034e+00 1.6057714030e-05 1.6420769131e+00 -2.8441606435e+00 1.6420769131e+00 2.8441606435e+00 
212300 5.1897012069e+00 1.6559623525e-05 1.6420769131e+00 -2.8441606435e+00 1.6420769131e+00 2.8441606435e+00 
212400 5.1897012102e+00 1.7056858900e-05 1.6420769131e+00 -2.8441606435e+00 1.6420769131e+00 2.8441606435e+00 
212500 5.1897012135e+00 1.7549428254e-05 1.6420769131e+00 -2.8441606435e+00 1.6420769131e+00 2.8441606435e+00 
212600 5.1897012167e+00 1.8037340862e-05 1.6420769131e+00 -2.8441606435e+00 1.6420769131e+00 2.8441606435e+00 
212700 5.1897012199e+00 1.8520607135e-05 1.6420769131e+00 -2.8441606435e+00 1.6420769131e+00 2.8441606435e+00 
212800 5.1897012230e+00 1.8999238585e-05 1.6420769131e+00 -2.8441606435e+00 1.6420769131e+00 2.8441606435e+00 
212900 5.1897012261e+00 1.9473247803e-05 1.6420769131e+00 -2.8441606435e+00 1.6420769131e+00 2.8441606435e+00 
213000 5.1897012291e+00 1.9942648415e-05 1.6420769131e+00 -2.8441606435e+00 1.6420769131e+00 2.8441606435e+00 
213100 5.1897012321e+00 2.0407455060e-05 1.6420769131e+00 -2.8441606435e+00 1.6420769131e+00 2.8441606435e+00 
213200 5.1897012350e+00 2.0867683356e-05 1.6420769131e+00 -2.8441606435e+00 1.6420769131e+00 2.8441606435e+00 
213300 5.1897012378e+00 2.1323349866e-05 1.6420769131e+00 -2.8441606435e+00 1.6420769131e+00 2.8441606435e+00 
213400 5.1897012406e+00 2.1774472072e-05 1.6420769131e+00 -2.8441606435e+00 1.6420769131e+00 2.8441606435e+00 
213500 5.1897012434e+00 2.2221068339e-05 1.6420769131e+00 -2.8441606435e+00 1.6420769131e+00 2.8441606435e+00 
213600 5.1897012461e+00 2.2663157891e-05 1.6420769131e+00 -2.8441606435e+00 1.6420769131e+00 2.8441606435e+00 
213700 5.1897012488e+00 2.3100760775e-05 1.6420769131e+00 -2.8441606435e+00 1.6420769131e+00 2.8441606435e+00 
213800 5.1897012514e+00 2.3533897837e-05 1.6420769131e+00 -2.8441606435e+00 1.6420769131e+00 2.8441606435e+00 
213900 5.1897012540e+00 2.3962590691e-05 1.6420769131e+00 -2.8441606435e+00 1.6420769131e+00 2.8441606435e+00 
214000 5.1897012565e+00 2.4386861688e-05 1.6420769131e+00 -2.8441606435e+00 1.6420769131e+00 2.8441606435e+00 
214100 5.1897012590e+00 2.4806733890e-05 1.6420769131e+00 -2.8441606435e+00 1.6420769131e+00 2.8441606435e+00 
214200 5.1897012614e+00 2.5222231039e-05 1.6420769131e+00 -2.8441606435e+00 1.6420769131e+00 2.8441606435e+00 
214300 5.1897012638e+00 2.5633377536e-05 1.6420769131e+00 -2.8441606435e+00 1.6420769131e+00 2.8441606435e+00 
214400 5.1897012662e+00 2.6040198407e-05 1.6420769131e+00 -2.8441606435e+00 1.6420769131e+00 2.8441606435e+00 
214500 5.1897012685e+00 2.6442719275e-05 1.6420769131e+00 -2.8441606435e+00 1.6420769131e+00 2.8441606435e+00 
214600 5.1897012708e+00 2.6840966343e-05 1.6420769131e+00 -2.8441606435e+00 1.6420769131e+00 2.8441606435e+00 
214700 5.1897012731e+00 2.7234966358e-05 1.6420769131e+00 -2.8441606435e+00 1.6420769131e+00 2.8441606435e+00 
214800 5.1897012753e+00 2.7624746590e-05 1.6420769131e+00 -2.8441606435e+00 1.6420769131e+00 2.8441606435e+00 
214900 5.1897012774e+00 2.8010334806e-05 1.6420769131e+00 -2.8441606435e+00 1.6420769131e+00 2.8441606435e+00 
215000 5.1897012796e+00 2.8391759245e-05 1.6420769131e+00 -2.8441606435e+00 1.6420769131e+00 2.8441606435e+00 
215100 5.1897012817e+00 2.8769048595e-05 1.6420769131e+00 -2.8441606435e+00 1.6420769131e+00 2.8441606435e+00 
215200 5.1897012837e+00 2.9142231968e-05 1.6420769131e+00 -2.8441606435e+00 1.6420769131e+00 2.8441606435e+00 
215300 5.1897012858e+00 2.9511338875e-05 1.6420769131e+00 -2.8441606435e+00 1.6420769131e+00 2.8441606435e+00 
215400 5.1897012878e+00 2.9876399206e-05 1.6420769131e+00 -2.8441606435e+00 1.6420769131e+00 2.8441606435e+00 
215500 5.1897012897e+00 3.0237443205e-05 1.6420769131e+00 -2.8441606435e+00 1.6420769131e+00 2.8441606435e+00 
215600 5.1897012917e+00 3.0594501450e-05 1.6420769131e+00 -2.8441606435e+00 1.6420769131e+00 2.8441606435e+00 
215700 5.1897012936e+00 3.0947604827e-05 1.6420769131e+00 -2.8441606435e+00 1.6420769131e+00 2.8441606435e+00 
215800 5.1897012954e+00 3.1296784519e-05 1.6420769131e+00 -2.8441606435e+00 1.6420769131e+00 2.8441606435e+00 
215900 5.1897012973e+00 3.1642071972e-05 1.6420769131e+00 -2.8441606435e+00 1.6420769131e+00 2.8441606435e+00 
216000 5.1897012991e+00 3.1983498883e-05 1.6420769131e+00 -2.8441606435e+00 1.6420769131e+00 2.8441606435e+00 
216100 5.1897013009e+00 3.2321097178e-05 1.6420769131e+00 -2.8441606435e+00 1.6420769131e+00 2.8441606435e+00 
216200 5.1897013026e+00 3.2654898995e-05 1.6420769131e+00 -2.8441606435e+00 1.6420769131e+00 2.8441606435e+00 
216300 5.1897013043e+00 3.2984936660e-05 1.6420769131e+00 -2.8441606435e+00 1.6420769131e+00 2.8441606435e+00 
216400 5.1897013060e+00 3.3311242672e-05 1.6420769131e+00 -2.8441606435e+00 1.6420769131e+00 2.8441606435e+00 
216500 5.1897013077e+00 3.3633849688e-05 1.6420769131e+00 -2.8441606435e+00 1.6420769131e+00 2.8441606435e+00 
216600 5.1897013093e+00 3.3952790497e-05 1.6420769131e+00 -2.8441606435e+00 1.6420769131e+00 2.8441606435e+00 
216700 5.1897013110e+00 3.4268098010e-05 1.6420769131e+00 -2.8441606435e+00 1.6420769131e+00 2.8441606435e+00 
216800 5.1897013126e+00 3.4579805242e-05 1.6420769131e+00 -2.8441606435e+00 1.6420769131e+00 2.8441606435e+00 
216900 5.1897013141e+00 3.4887945293e-05 1.6420769131e+00 -2.8441606435e+00 1.6420769131e+00 2.8441606435e+00 
217000 5.1897013156e+00 3.5192551338e-05 1.6420769131e+00 -2.8441606435e+00 1.6420769131e+00 2.8441606435e+00 
217100 5.1897013172e+00 3.5493656604e-05 1.6420769131e+00 -2.8441606435e+00 1.6420769131e+00 2.8441606435e+00 
217200 5.1897013187e+00 3.5791294361e-05 1.6420769131e+00 -2.8441606435e+00 1.6420769131e+00 2.8441606435e+00 
217300 5.1897013201e+00 3.6085497904e-05 1.6420769131e+00 -2.8441606435e+00 1.6420769131e+00 2.8441606435e+00 
217400 5.1897013216e+00 3.6376300542e-05 1.6420769131e+00 -2.8441606435e+00 1.6420769131e+00 2.8441606435e+00 
217500 5.1897013230e+00 3.6663735582e-05 1.6420769131e+00 -2.8441606435e+00 1.6420769131e+00 2.8441606435e+00 
217600 5.1897013244e+00 3.6947836317e-05 1.6420769131e+00 -2.8441606435e+00 1.6420769131e+00 2.8441606435e+00 
217700 5.1897013257e+00 3.7228636014e-05 1.6420769131e+00 -2.8441606435e+00 1.6420769131e+00 2.8441606435e+00 
217800 5.1897013271e+00 3.7506167898e-05 1.6420769131e+00 -2.8441606435e+00 1.6420769131e+00 2.8441606435e+00 
217900 5.1897013284e+00 3.7780465145e-05 1.6420769131e+00 -2.8441606435e+00 1.6420769131e+00 2.8441606435e+00 
218000 5.1897013297e+00 3.8051560868e-05 1.6420769131e+00 -2.8441606435e+00 1.6420769131e+00 2.8441606435e+00 
218100 5.1897013310e+00 3.8319488104e-05 1.6420769131e+00 -2.8441606435e+00 1.6420769131e+00 2.8441606435e+00 
218200 5.1897013323e+00 3.8584279807e-05 1.6420769131e+00 -2.8441606435e+00 1.6420769131e+00 2.8441606435e+00 
218300 5.1897013335e+00 3.8845968834e-05 1.6420769131e+00 -2.8441606435e+00 1.6420769131e+00 2.8441606435e+00 
218400 5.1897013348e+00 3.9104587940e-05 1.6420769131e+00 -2.8441606435e+00 1.6420769131e+00 2.8441606435e+00 
218500 5.1897013360e+00 3.9360169760e-05 1.6420769131e+00 -2.8441606435e+00 1.6420769131e+00 2.8441606435e+00 
218600 5.1897013372e+00 3.9612746811e-05 1.6420769131e+00 -2.8441606435e+00 1.6420769131e+00 2.8441606435e+00 
218700 5.1897013383e+00 3.9862351470e-05 1.6420769131e+00 -2.8441606435e+00 1.6420769131e+00 2.8441606435e+00 
218800 5.1897013395e+00 4.0109015979e-05 1.6420769131e+00 -2.8441606435e+00 1.6420769131e+00 2.8441606435e+00 
218900 5.1897013406e+00 4.0352772425e-05 1.6420769131e+00 -2.8441606435e+00 1.6420769131e+00 2.8441606435e+00 
219000 5.1897013417e+00 4.0593652741e-05 1.6420769131e+00 -2.8441606435e+00 1.6420769131e+00 2.8441606435e+00 
219100 5.1897013428e+00 4.0831688693e-05 1.6420769131e+00 -2.8441606435e+00 1.6420769131e+00 2.8441606435e+00 
219200 5.1897013439e+00 4.1066911875e-05 1.6420769131e+00 -2.8441606435e+00 1.6420769131e+00 2.8441606435e+00 
219300 5.1897013450e+00 4.1299353702e-05 1.6420769131e+00 -2.8441606435e+00 1.6420769131e+00 2.8441606435e+00 
219400 5.1897013460e+00 4.1529045402e-05 1.6420769131e+00 -2.8441606435e+00 1.6420769131e+00 2.8441606435e+00 
219500 5.1897013471e+00 4.1756018014e-05 1.6420769131e+00 -2.8441606435e+00 1.6420769131e+00 2.8441606435e+00 
219600 5.1897013481e+00 4.1980302375e-05 1.6420769131e+00 -2.8441606435e+00 1.6420769131e+00 2.8441606435e+00 
219700 5.1897013491e+00 4.2201929122e-05 1.6420769131e+00 -2.8441606435e+00 1.6420769131e+00 2.8441606435e+00 
219800 5.1897013501e+00 4.2420928682e-05 1.6420769131e+00 -2.8441606435e+00 1.6420769131e+00 2.8441606435e+00 
219900 5.1897013510e+00 4.2637331266e-05 1.6420769131e+00 -2.8441606435e+00 1.6420769131e+00 2.8441606435e+00 
220000 5.1897013520e+00 4.2851166870e-05 1.6420769131e+00 -2.8441606435e+00 1.6420769131e+00 2.8441606435e+00 
220100 5.1897013529e+00 4.3062465265e-05 1.6420769131e+00 -2.8441606435e+00 1.6420769131e+00 2.8441606435e+00 
220200 5.1897013539e+00 4.3271255994e-05 1.6420769131e+00 -2.8441606435e+00 1.6420769131e+00 2.8441606435e+00 
220300 5.1897013548e+00 4.3477568369e-05 1.6420769131e+00 -2.8441606435e+00 1.6420769131e+00 2.8441606435e+00 
220400 5.1897013557e+00 4.3681431469e-05 1.6420769131e+00 -2.8441606435e+00 1.6420769131e+00 2.8441606435e+00 
220500 5.1897013566e+00 4.3882874131e-05 1.6420769131e+00 -2.8441606435e+00 1.6420769131e+00 2.8441606435e+00 
220600 5.1897013574e+00 4.4081924954e-05 1.6420769131e+00 -2.8441606435e+00 1.6420769131e+00 2.8441606435e+00 
220700 5.1897013583e+00 4.4278612289e-05 1.6420769131e+00 -2.8441606435e+00 1.6420769131e+00 2.8441606435e+00 
220800 5.1897013591e+00 4.4472964245e-05 1.6420769131e+00 -2.8441606435e+00 1.6420769131e+00 2.8441606435e+00 
220900 5.1897013600e+00 4.4665008673e-05 1.6420769131e+00 -2.8441606435e+00 1.6420769131e+00 2.8441606435e+00 
221000 5.1897013608e+00 4.4854773178e-05 1.6420769131e+00 -2.8441606435e+00 1.6420769131e+00 2.8441606435e+00 
221100 5.1897013616e+00 4.5042285109e-05 1.6420769131e+00 -2.8441606435e+00 1.6420769131e+00 2.8441606435e+00 
221200 5.1897013624e+00 4.5227571559e-05 1.6420769131e+00 -2.8441606435e+00 1.6420769131e+00 2.8441606435e+00 
221300 5.1897013632e+00 4.5410659362e-05 1.6420769131e+00 -2.8441606435e+00 1.6420769131e+00 2.8441606435e+00 
221400 5.1897013639e+00 4.5591575096e-05 1.6420769131e+00 -2.8441606435e+00 1.6420769131e+00 2.8441606435e+00 
221500 5.1897013647e+00 4.5770345072e-05 1.6420769131e+00 -2.8441606435e+00 1.6420769131e+00 2.8441606435e+00 
221600 5.1897013654e+00 4.5946995346e-05 1.6420769131e+00 -2.8441606435e+00 1.6420769131e+00 2.8441606435e+00 
221700 5.1897013662e+00 4.6121551707e-05 1.6420769131e+00 -2.8441606435e+00 1.6420769131e+00 2.8441606435e+00 
221800 5.1897013669e+00 4.6294039682e-05 1.6420769131e+00 -2.8441606435e+00 1.6420769131e+00 2.8441606435e+00 
221900 5.1897013676e+00 4.6464484535e-05 1.6420769131e+00 -2.8441606435e+00 1.6420769131e+00 2.8441606435e+00 
222000 5.1897013683e+00 4.6632911264e-05 1.6420769131e+00 -2.8441606435e+00 1.6420769131e+00 2.8441606435e+00 
222100 5.1897013690e+00 4.6799344601e-05 1.6420769131e+00 -2.8441606435e+00 1.6420769131e+00 2.8441606435e+00 
222200 5.1897013697e+00 4.6963809015e-05 1.6420769131e+00 -2.8441606435e+00 1.6420769131e+00 2.8441606435e+00 
222300 5.1897013704e+00 4.7126328711e-05 1.6420769131e+00 -2.8441606435e+00 1.6420769131e+00 2.8441606435e+00 
222400 5.1897013710e+00 4.7286927625e-05 1.6420769131e+00 -2.8441606435e+00 1.6420769131e+00 2.8441606435e+00 
222500 5.1897013717e+00 4.7445629433e-05 1.6420769131e+00 -2.8441606435e+00 1.6420769131e+00 2.8441606435e+00 
222600 5.1897013723e+00 4.7602457545e-05 1.6420769131e+00 -2.8441606435e+00 1.6420769131e+00 2.8441606435e+00 
222700 5.1897013729e+00 4.7757435105e-05 1.6420769131e+00 -2.8441606435e+00 1.6420769131e+00 2.8441606435e+00 
222800 5.1897013736e+00 4.7910584997e-05 1.6420769131e+00 -2.8441606435e+00 1.6420769131e+00 2.8441606435e+00 
222900 5.1897013742e+00 4.8061929843e-05 1.6420769131e+00 -2.8441606435e+00 1.6420769131e+00 2.8441606435e+00 
223000 5.1897013748e+00 4.8211492000e-05 1.6420769131e+00 -2.8441606435e+00 1.6420769131e+00 2.8441606435e+00 
223100 5.1897013754e+00 4.8359293567e-05 1.6420769131e+00 -2.8441606435e+00 1.6420769131e+00 2.8441606435e+00 
223200 5.1897013760e+00 4.8505356386e-05 1.6420769131e+00 -2.8441606435e+00 1.6420769131e+00 2.8441606435e+00 
223300 5.1897013765e+00 4.8649702035e-05 1.6420769131e+00 -2.8441606435e+00 1.6420769131e+00 2.8441606435e+00 
223400 5.1897013771e+00 4.8792351839e-05 1.6420769131e+00 -2.8441606435e+00 1.6420769131e+00 2.8441606435e+00 
223500 5.1897013777e+00 4.8933326867e-05 1.6420769131e+00 -2.8441606435e+00 1.6420769131e+00 2.8441606435e+00 
223600 5.1897013782e+00 4.9072647933e-05 1.6420769131e+00 -2.8441606435e+00 1.6420769131e+00 2.8441606435e+00 
223700 5.1897013788e+00 4.9210335598e-05 1.6420769131e+00 -2.8441606435e+00 1.6420769131e+00 2.8441606435e+00 
223800 5.1897013793e+00 4.9346410172e-05 1.6420769131e+00 -2.8441606435e+00 1.6420769131e+00 2.8441606435e+00 
223900 5.1897013798e+00 4.9480891714e-05 1.6420769131e+00 -2.8441606435e+00 1.6420769131e+00 2.8441606435e+00 
224000 5.1897013803e+00 4.9613800040e-05 1.6420769131e+00 -2.8441606435e+00 1.6420769131e+00 2.8441606435e+00 
224100 5.1897013808e+00 4.9745154714e-05 1.6420769131e+00 -2.8441606435e+00 1.6420769131e+00 2.8441606435e+00 
224200 5.1897013814e+00 4.9874975058e-05 1.6420769131e+00 -2.8441606435e+00 1.6420769131e+00 2.8441606435e+00 
224300 5.1897013818e+00 5.0003280153e-05 1.6420769131e+00 -2.8441606435e+00 1.6420769131e+00 2.8441606435e+00 
224400 5.1897013823e+00 5.0130088838e-05 1.6420769131e+00 -2.8441606435e+00 1.6420769131e+00 2.8441606435e+00 
224500 5.1897013828e+00 5.0255419713e-05 1.6420769131e+00 -2.8441606435e+00 1.6420769131e+00 2.8441606435e+00 
224600 5.1897013833e+00 5.0379291144e-05 1.6420769131e+00 -2.8441606435e+00 1.6420769131e+00 2.8441606435e+00 
224700 5.1897013838e+00 5.0501721260e-05 1.6420769131e+00 -2.8441606435e+00 1.6420769131e+00 2.8441606435e+00 
224800 5.1897013842e+00 5.0622727959e-05 1.6420769131e+00 -2.8441606435e+00 1.6420769131e+00 2.8441606435e+00 
224900 5.1897013847e+00 5.0742328909e-05 1.6420769131e+00 -2.8441606435e+00 1.6420769131e+00 2.8441606435e+00 
225000 5.1897013851e+00 5.0860541550e-05 1.6420769131e+00 -2.8441606435e+00 1.6420769131e+00 2.8441606435e+00 
225100 5.1897013856e+00 5.0977383096e-05 1.6420769131e+00 -2.8441606435e+00 1.6420769131e+00 2.8441606435e+00 
225200 5.1897013860e+00 5.1092870538e-05 1.6420769131e+00 -2.8441606435e+00 1.6420769131e+00 2.8441606435e+00 
225300 5.1897013864e+00 5.1207020645e-05 1.6420769131e+00 -2.8441606435e+00 1.6420769131e+00 2.8441606435e+00 
225400 5.1897013868e+00 5.1319849968e-05 1.6420769131e+00 -2.8441606435e+00 1.6420769131e+00 2.8441606435e+00 
225500 5.1897013872e+00 5.1431374842e-05 1.6420769131e+00 -2.8441606435e+00 1.6420769131e+00 2.8441606435e+00 
225600 5.1897013877e+00 5.1541611386e-05 1.6420769131e+00 -2.8441606435e+00 1.6420769131e+00 2.8441606435e+00 
225700 5.1897013881e+00 5.1650575509e-05 1.6420769131e+00 -2.8441606435e+00 1.6420769131e+00 2.8441606435e+00 
225800 5.1897013885e+00 5.1758282907e-05 1.6420769131e+00 -2.8441606435e+00 1.6420769131e+00 2.8441606435e+00 
225900 5.1897013888e+00 5.1864749073e-05 1.6420769131e+00 -2.8441606435e+00 1.6420769131e+00 2.8441606435e+00 
226000 5.1897013892e+00 5.1969989294e-05 1.6420769131e+00 -2.8441606435e+00 1.6420769131e+00 2.8441606435e+00 
226100 5.1897013896e+00 5.2074018655e-05 1.6420769131e+00 -2.8441606435e+00 1.6420769131e+00 2.8441606435e+00 
226200 5.1897013900e+00 5.2176852040e-05 1.6420769131e+00 -2.8441606435e+00 1.6420769131e+00 2.8441606435e+00 
226300 5.1897013903e+00 5.2278504134e-05 1.6420769131e+00 -2.8441606435e+00 1.6420769131e+00 2.8441606435e+00 
226400 5.1897013907e+00 5.2378989431e-05 1.6420769131e+00 -2.8441606435e+00 1.6420769131e+00 2.8441606435e+00 
226500 5.1897013911e+00 5.2478322229e-05 1.6420769131e+00 -2.8441606435e+00 1.6420769131e+00 2.8441606435e+00 
226600 5.1897013914e+00 5.2576516635e-05 1.6420769131e+00 -2.8441606435e+00 1.6420769131e+00 2.8441606435e+00 
226700 5.1897013918e+00 5.2673586573e-05 1.6420769131e+00 -2.8441606435e+00 1.6420769131e+00 2.8441606435e+00 
226800 5.1897013921e+00 5.2769545777e-05 1.6420769131e+00 -2.8441606435e+00 1.6420769131e+00 2.8441606435e+00 
226900 5.1897013924e+00 5.2864407799e-05 1.6420769131e+00 -2.8441606435e+00 1.6420769131e+00 2.8441606435e+00 
227000 5.1897013928e+00 5.2958186010e-05 1.6420769131e+00 -2.8441606435e+00 1.6420769131e+00 2.8441606435e+00 
227100 5.1897013931e+00 5.3050893604e-05 1.6420769131e+00 -2.8441606435e+00 1.6420769131e+00 2.8441606435e+00 
227200 5.1897013934e+00 5.3142543596e-05 1.6420769131e+00 -2.8441606435e+00 1.6420769131e+00 2.8441606435e+00 
227300 5.1897013937e+00 5.3233148833e-05 1.6420769131e+00 -2.8441606435e+00 1.6420769131e+00 2.8441606435e+00 
227400 5.1897013941e+00 5.3322721984e-05 1.6420769131e+00 -2.8441606435e+00 1.6420769131e+00 2.8441606435e+00 
227500 5.1897013944e+00 5.3411275554e-05 1.6420769131e+00 -2.8441606435e+00 1.6420769131e+00 2.8441606435e+00 
227600 5.1897013947e+00 5.3498821880e-05 1.6420769131e+00 -2.8441606435e+00 1.6420769131e+00 2.8441606435e+00 
227700 5.1897013950e+00 5.3585373132e-05 1.6420769131e+00 -2.8441606435e+00 1.6420769131e+00 2.8441606435e+00 
227800 5.1897013953e+00 5.3670941323e-05 1.6420769131e+00 -2.8441606435e+00 1.6420769131e+00 2.8441606435e+00 
227900 5.1897013955e+00 5.3755538302e-05 1.6420769131e+00 -2.8441606435e+00 1.6420769131e+00 2.8441606435e+00 
228000 5.1897013958e+00 5.3839175762e-05 1.6420769131e+00 -2.8441606435e+00 1.6420769131e+00 2.8441606435e+00 
228100 5.1897013961e+00 5.3921865243e-05 1.6420769131e+00 -2.8441606435e+00 1.6420769131e+00 2.8441606435e+00 
228200 5.1897013964e+00 5.4003618127e-05 1.6420769131e+00 -2.8441606435e+00 1.6420769131e+00 2.8441606435e+00 
228300 5.1897013967e+00 5.4084445649e-05 1.6420769131e+00 -2.8441606435e+00 1.6420769131e+00 2.8441606435e+00 
228400 5.1897013969e+00 5.4164358895e-05 1.6420769131e+00 -2.8441606435e+00 1.6420769131e+00 2.8441606435e+00 
228500 5.1897013972e+00 5.4243368803e-05 1.6420769131e+00 -2.8441606435e+00 1.6420769131e+00 2.8441606435e+00 
228600 5.1897013975e+00 5.4321486167e-05 1.6420769131e+00 -2.8441606435e+00 1.6420769131e+00 2.8441606435e+00 
228700 5.1897013977e+00 5.4398721641e-05 1.6420769131e+00 -2.8441606435e+00 1.6420769131e+00 2.8441606435e+00 
228800 5.1897013980e+00 5.4475085735e-05 1.6420769131e+00 -2.8441606435e+00 1.6420769131e+00 2.8441606435e+00 
228900 5.1897013982e+00 5.4550588825e-05 1.6420769131e+00 -2.8441606435e+00 1.6420769131e+00 2.8441606435e+00 
229000 5.1897013985e+00 5.4625241147e-05 1.6420769131e+00 -2.8441606435e+00 1.6420769131e+00 2.8441606435e+00 
229100 5.1897013987e+00 5.4699052805e-05 1.6420769131e+00 -2.8441606435e+00 1.6420769131e+00 2.8441606435e+00 
229200 5.1897013989e+00 5.4772033773e-05 1.6420769131e+00 -2.8441606435e+00 1.6420769131e+00 2.8441606435e+00 
229300 5.1897013992e+00 5.4844193889e-05 1.6420769131e+00 -2.8441606435e+00 1.6420769131e+00 2.8441606435e+00 
229400 5.1897013994e+00 5.4915542870e-05 1.6420769131e+00 -2.8441606435e+00 1.6420769131e+00 2.8441606435e+00 
229500 5.1897013996e+00 5.4986090302e-05 1.6420769131e+00 -2.8441606435e+00 1.6420769131e+00 2.8441606435e+00 
229600 5.1897013999e+00 5.5055845649e-05 1.6420769131e+00 -2.8441606435e+00 1.6420769131e+00 2.8441606435e+00 
229700 5.1897014001e+00 5.5124818250e-05 1.6420769131e+00 -2.8441606435e+00 1.6420769131e+00 2.8441606435e+00 
229800 5.1897014003e+00 5.5193017327e-05 1.6420769131e+00 -2.8441606435e+00 1.6420769131e+00 2.8441606435e+00 
229900 5.1897014005e+00 5.5260451980e-05 1.6420769131e+00 -2.8441606435e+00 1.6420769131e+00 2.8441606435e+00 
230000 5.1897014007e+00 5.5327131195e-05 1.6420769131e+00 -2.8441606435e+00 1.6420769131e+00 2.8441606435e+00 
230100 5.1897014010e+00 5.5393063840e-05 1.6420769131e+00 -2.8441606435e+00 1.6420769131e+00 2.8441606435e+00 
230200 5.1897014012e+00 5.5458258672e-05 1.6420769131e+00 -2.8441606435e+00 1.6420769131e+00 2.8441606435e+00 
230300 5.1897014014e+00 5.5522724333e-05 1.6420769131e+00 -2.8441606435e+00 1.6420769131e+00 2.8441606435e+00 
230400 5.1897014016e+00 5.5586469360e-05 1.6420769131e+00 -2.8441606435e+00 1.6420769131e+00 2.8441606435e+00 
230500 5.1897014018e+00 5.5649502177e-05 1.6420769131e+00 -2.8441606435e+00 1.6420769131e+00 2.8441606435e+00 
230600 5.1897014020e+00 5.5711831103e-05 1.6420769131e+00 -2.8441606435e+00 1.6420769131e+00 2.8441606435e+00 
230700 5.1897014021e+00 5.5773464354e-05 1.6420769131e+00 -2.8441606435e+00 1.6420769131e+00 2.8441606435e+00 
230800 5.1897014023e+00 5.5834410038e-05 1.6420769131e+00 -2.8441606435e+00 1.6420769131e+00 2.8441606435e+00 
230900 5.1897014025e+00 5.5894676164e-05 1.6420769131e+00 -2.8441606435e+00 1.6420769131e+00 2.8441606435e+00 
231000 5.1897014027e+00 5.5954270641e-05 1.6420769131e+00 -2.8441606435e+00 1.6420769131e+00 2.8441606435e+00 
231100 5.1897014029e+00 5.6013201278e-05 1.6420769131e+00 -2.8441606435e+00 1.6420769131e+00 2.8441606435e+00 
231200 5.1897014031e+00 5.6071475787e-05 1.6420769131e+00 -2.8441606435e+00 1.6420769131e+00 2.8441606435e+00 
231300 5.1897014032e+00 5.6129101785e-05 1.6420769131e+00 -2.8441606435e+00 1.6420769131e+00 2.8441606435e+00 
231400 5.1897014034e+00 5.6186086791e-05 1.6420769131e+00 -2.8441606435e+00 1.6420769131e+00 2.8441606435e+00 
231500 5.1897014036e+00 5.6242438236e-05 1.6420769131e+00 -2.8441606435e+00 1.6420769131e+00 2.8441606435e+00 
231600 5.1897014038e+00 5.6298163456e-05 1.6420769131e+00 -2.8441606435e+00 1.6420769131e+00 2.8441606435e+00 
231700 5.1897014039e+00 5.6353269696e-05 1.6420769131e+00 -2.8441606435e+00 1.6420769131e+00 2.8441606435e+00 
231800 5.1897014041e+00 5.6407764117e-05 1.6420769131e+00 -2.8441606435e+00 1.6420769131e+00 2.8441606435e+00 
231900 5.1897014042e+00 5.6461653787e-05 1.6420769131e+00 -2.8441606435e+00 1.6420769131e+00 2.8441606435e+00 
232000 5.1897014044e+00 5.6514945690e-05 1.6420769131e+00 -2.8441606435e+00 1.6420769131e+00 2.8441606435e+00 
232100 5.1897014046e+00 5.6567646724e-05 1.6420769131e+00 -2.8441606435e+00 1.6420769131e+00 2.8441606435e+00 
232200 5.1897014047e+00 5.6619763704e-05 1.6420769131e+00 -2.8441606435e+00 1.6420769131e+00 2.8441606435e+00 
232300 5.1897014049e+00 5.6671303363e-05 1.6420769131e+00 -2.8441606435e+00 1.6420769131e+00 2.8441606435e+00 
232400 5.1897014050e+00 5.6722272353e-05 1.6420769131e+00 -2.8441606435e+00 1.6420769131e+00 2.8441606435e+00 
232500 5.1897014052e+00 5.6772677243e-05 1.6420769131e+00 -2.8441606435e+00 1.6420769131e+00 2.8441606435e+00 
232600 5.1897014053e+00 5.6822524526e-05 1.6420769131e+00 -2.8441606435e+00 1.6420769131e+00 2.8441606435e+00 
232700 5.1897014055e+00 5.6871820615e-05 1.6420769131e+00 -2.8441606435e+00 1.6420769131e+00 2.8441606435e+00 
232800 5.1897014056e+00 5.6920571849e-05 1.6420769131e+00 -2.8441606435e+00 1.6420769131e+00 2.8441606435e+00 
232900 5.1897014057e+00 5.6968784489e-05 1.6420769131e+00 -2.8441606435e+00 1.6420769131e+00 2.8441606435e+00 
233000 5.1897014059e+00 5.7016464722e-05 1.6420769131e+00 -2.8441606435e+00 1.6420769131e+00 2.8441606435e+00 
233100 5.1897014060e+00 5.7063618662e-05 1.6420769131e+00 -2.8441606435e+00 1.6420769131e+00 2.8441606435e+00 
233200 5.1897014061e+00 5.7110252350e-05 1.6420769131e+00 -2.8441606435e+00 1.6420769131e+00 2.8441606435e+00 
233300 5.1897014063e+00 5.7156371756e-05 1.6420769131e+00 -2.8441606435e+00 1.6420769131e+00 2.8441606435e+00 
233400 5.1897014064e+00 5.7201982781e-05 1.6420769131e+00 -2.8441606435e+00 1.6420769131e+00 2.8441606435e+00 
233500 5.1897014065e+00 5.7247091253e-05 1.6420769131e+00 -2.8441606435e+00 1.6420769131e+00 2.8441606435e+00 
233600 5.1897014067e+00 5.7291702934e-05 1.6420769131e+00 -2.8441606435e+00 1.6420769131e+00 2.8441606435e+00 
233700 5.1897014068e+00 5.7335823520e-05 1.6420769131e+00 -2.8441606435e+00 1.6420769131e+00 2.8441606435e+00 
233800 5.1897014069e+00 5.7379458637e-05 1.6420769131e+00 -2.8441606435e+00 1.6420769131e+00 2.8441606435e+00 
233900 5.1897014070e+00 5.7422613847e-05 1.6420769131e+00 -2.8441606435e+00 1.6420769131e+00 2.8441606435e+00 
234000 5.1897014071e+00 5.7465294649e-05 1.6420769131e+00 -2.8441606435e+00 1.6420769131e+00 2.8441606435e+00 
234100 5.1897014073e+00 5.7507506475e-05 1.6420769131e+00 -2.8441606435e+00 1.6420769131e+00 2.8441606435e+00 
234200 5.1897014074e+00 5.7549254695e-05 1.6420769131e+00 -2.8441606435e+00 1.6420769131e+00 2.8441606435e+00 
234300 5.1897014075e+00 5.7590544618e-05 1.6420769131e+00 -2.8441606435e+00 1.6420769131e+00 2.8441606435e+00 
234400 5.1897014076e+00 5.7631381491e-05 1.6420769131e+00 -2.8441606435e+00 1.6420769131e+00 2.8441606435e+00 
234500 5.1897014077e+00 5.7671770501e-05 1.6420769131e+00 -2.8441606435e+00 1.6420769131e+00 2.8441606435e+00 
234600 5.1897014078e+00 5.7711716773e-05 1.6420769131e+00 -2.8441606435e+00 1.6420769131e+00 2.8441606435e+00 
234700 5.1897014079e+00 5.7751225376e-05 1.6420769131e+00 -2.8441606435e+00 1.6420769131e+00 2.8441606435e+00 
234800 5.1897014080e+00 5.7790301319e-05 1.6420769131e+00 -2.8441606435e+00 1.6420769131e+00 2.8441606435e+00 
234900 5.1897014081e+00 5.7828949555e-05 1.6420769131e+00 -2.8441606435e+00 1.6420769131e+00 2.8441606435e+00 
235000 5.1897014082e+00 5.7867174979e-05 1.6420769131e+00 -2.8441606435e+00 1.6420769131e+00 2.8441606435e+00 
235100 5.1897014083e+00 5.7904982430e-05 1.6420769131e+00 -2.8441606435e+00 1.6420769131e+00 2.8441606435e+00 
235200 5.1897014084e+00 5.7942376693e-05 1.6420769131e+00 -2.8441606435e+00 1.6420769131e+00 2.8441606435e+00 
235300 5.1897014085e+00 5.7979362499e-05 1.6420769131e+00 -2.8441606435e+00 1.6420769131e+00 2.8441606435e+00 
235400 5.1897014086e+00 5.8015944522e-05 1.6420769131e+00 -2.8441606435e+00 1.6420769131e+00 2.8441606435e+00 
235500 5.1897014087e+00 5.8052127386e-05 1.6420769131e+00 -2.8441606435e+00 1.6420769131e+00 2.8441606435e+00 
235600 5.1897014088e+00 5.8087915660e-05 1.6420769131e+00 -2.8441606435e+00 1.6420769131e+00 2.8441606435e+00 
235700 5.1897014089e+00 5.8123313864e-05 1.6420769131e+00 -2.8441606435e+00 1.6420769131e+00 2.8441606435e+00 
235800 5.1897014090e+00 5.8158326465e-05 1.6420769131e+00 -2.8441606435e+00 1.6420769131e+00 2.8441606435e+00 
235900 5.1897014091e+00 5.8192957880e-05 1.6420769131e+00 -2.8441606435e+00 1.6420769131e+00 2.8441606435e+00 
236000 5.1897014092e+00 5.8227212475e-05 1.6420769131e+00 -2.8441606435e+00 1.6420769131e+00 2.8441606435e+00 
236100 5.1897014093e+00 5.8261094568e-05 1.6420769131e+00 -2.8441606435e+00 1.6420769131e+00 2.8441606435e+00 
236200 5.1897014094e+00 5.8294608427e-05 1.6420769131e+00 -2.8441606435e+00 1.6420769131e+00 2.8441606435e+00 
236300 5.1897014095e+00 5.8327758273e-05 1.6420769131e+00 -2.8441606435e+00 1.6420769131e+00 2.8441606435e+00 
236400 5.1897014095e+00 5.8360548277e-05 1.6420769131e+00 -2.8441606435e+00 1.6420769131e+00 2.8441606435e+00 
236500 5.1897014096e+00 5.8392982567e-05 1.6420769131e+00 -2.8441606435e+00 1.6420769131e+00 2.8441606435e+00 
236600 5.1897014097e+00 5.8425065222e-05 1.6420769131e+00 -2.8441606435e+00 1.6420769131e+00 2.8441606435e+00 
236700 5.1897014098e+00 5.8456800275e-05 1.6420769131e+00 -2.8441606435e+00 1.6420769131e+00 2.8441606435e+00 
236800 5.1897014099e+00 5.8488191713e-05 1.6420769131e+00 -2.8441606435e+00 1.6420769131e+00 2.8441606435e+00 
236900 5.1897014099e+00 5.8519243480e-05 1.6420769131e+00 -2.8441606435e+00 1.6420769131e+00 2.8441606435e+00 
237000 5.1897014100e+00 5.8549959474e-05 1.6420769131e+00 -2.8441606435e+00 1.6420769131e+00 2.8441606435e+00 
237100 5.1897014101e+00 5.8580343550e-05 1.6420769131e+00 -2.8441606435e+00 1.6420769131e+00 2.8441606435e+00 
237200 5.1897014102e+00 5.8610399520e-05 1.6420769131e+00 -2.8441606435e+00 1.6420769131e+00 2.8441606435e+00 
237300 5.1897014102e+00 5.8640131151e-05 1.6420769131e+00 -2.8441606435e+00 1.6420769131e+00 2.8441606435e+00 
237400 5.1897014103e+00 5.8669542171e-05 1.6420769131e+00 -2.8441606435e+00 1.6420769131e+00 2.8441606435e+00 
237500 5.1897014104e+00 5.8698636263e-05 1.6420769131e+00 -2.8441606435e+00 1.6420769131e+00 2.8441606435e+00 
237600 5.1897014105e+00 5.8727417070e-05 1.6420769131e+00 -2.8441606435e+00 1.6420769131e+00 2.8441606435e+00 
237700 5.1897014105e+00 5.8755888194e-05 1.6420769131e+00 -2.8441606435e+00 1.6420769131e+00 2.8441606435e+00 
237800 5.1897014106e+00 5.8784053195e-05 1.6420769131e+00 -2.8441606435e+00 1.6420769131e+00 2.8441606435e+00 
237900 5.1897014107e+00 5.8811915595e-05 1.6420769131e+00 -2.8441606435e+00 1.6420769131e+00 2.8441606435e+00 
238000 5.1897014107e+00 5.8839478877e-05 1.6420769131e+00 -2.8441606435e+00 1.6420769131e+00 2.8441606435e+00 
238100 5.1897014108e+00 5.8866746480e-05 1.6420769131e+00 -2.8441606435e+00 1.6420769131e+00 2.8441606435e+00 
238200 5.1897014109e+00 5.8893721810e-05 1.6420769131e+00 -2.8441606435e+00 1.6420769131e+00 2.8441606435e+00 
238300 5.1897014109e+00 5.8920408231e-05 1.6420769131e+00 -2.8441606435e+00 1.6420769131e+00 2.8441606435e+00 
238400 5.1897014110e+00 5.8946809071e-05 1.6420769131e+00 -2.8441606435e+00 1.6420769131e+00 2.8441606435e+00 
238500 5.1897014111e+00 5.8972927619e-05 1.6420769131e+00 -2.8441606435e+00 1.6420769131e+00 2.8441606435e+00 
238600 5.1897014111e+00 5.8998767127e-05 1.6420769131e+00 -2.8441606435e+00 1.6420769131e+00 2.8441606435e+00 
238700 5.1897014112e+00 5.9024330812e-05 1.6420769131e+00 -2.8441606435e+00 1.6420769131e+00 2.8441606435e+00 
238800 5.1897014112e+00 5.9049621852e-05 1.6420769131e+00 -2.8441606435e+00 1.6420769131e+00 2.8441606435e+00 
238900 5.1897014113e+00 5.9074643392e-05 1.6420769131e+00 -2.8441606435e+00 1.6420769131e+00 2.8441606435e+00 
239000 5.1897014114e+00 5.9099398538e-05 1.6420769131e+00 -2.8441606435e+00 1.6420769131e+00 2.8441606435e+00 
239100 5.1897014114e+00 5.9123890364e-05 1.6420769131e+00 -2.8441606435e+00 1.6420769131e+00 2.8441606435e+00 
239200 5.1897014115e+00 5.9148121907e-05 1.6420769131e+00 -2.8441606435e+00 1.6420769131e+00 2.8441606435e+00 
239300 5.1897014115e+00 5.9172096171e-05 1.6420769131e+00 -2.8441606435e+00 1.6420769131e+00 2.8441606435e+00 
239400 5.1897014116e+00 5.9195816124e-05 1.6420769131e+00 -2.8441606435e+00 1.6420769131e+00 2.8441606435e+00 
239500 5.1897014116e+00 5.9219284703e-05 1.6420769131e+00 -2.8441606435e+00 1.6420769131e+00 2.8441606435e+00 
239600 5.1897014117e+00 5.9242504808e-05 1.6420769131e+00 -2.8441606435e+00 1.6420769131e+00 2.8441606435e+00 
239700 5.1897014117e+00 5.9265479310e-05 1.6420769131e+00 -2.8441606435e+00 1.6420769131e+00 2.8441606435e+00 
239800 5.1897014118e+00 5.9288211044e-05 1.6420769131e+00 -2.8441606435e+00 1.6420769131e+00 2.8441606435e+00 
239900 5.1897014118e+00 5.9310702815e-05 1.6420769131e+00 -2.8441606435e+00 1.6420769131e+00 2.8441606435e+00 
240000 5.1897014119e+00 5.9332957393e-05 1.6420769131e+00 -2.8441606435e+00 1.6420769131e+00 2.8441606435e+00 
240100 5.1897014119e+00 5.9354977521e-05 1.6420769131e+00 -2.8441606435e+00 1.6420769131e+00 2.8441606435e+00 
240200 5.1897014120e+00 5.9376765905e-05 1.6420769131e+00 -2.8441606435e+00 1.6420769131e+00 2.8441606435e+00 
240300 5.1897014120e+00 5.9380230720e-05 1.6420769131e+00 -2.8441606435e+00 1.6420769131e+00 2.8441606435e+00 
240300 5.1897014120e+00 5.9380230720e-05 1.6420769131e+00 -2.8441606435e+00 1.6420769131e+00 2.8441606435e+00 
