# step Hamiltonian StressXX CellTensor1 CellTensor2 CellTensor3 CellTensor4 
0 5.0025892488e+00 2.0091970500e-02 1.5709373359e+00 -2.7209432813e+00 1.5709373359e+00 2.7209432813e+00 
100 4.9988838499e+00 1.9524921939e-02 1.5709373359e+00 -2.7209432813e+00 1.5709373359e+00 2.7209432813e+00 
200 4.9953514918e+00 1.8432702027e-02 1.5703159351e+00 -2.7198669835e+00 1.5703159351e+00 2.7198669835e+00 
300 4.9919983043e+00 1.7465199875e-02 1.5697290611e+00 -2.7188504879e+00 1.5697290611e+00 2.7188504879e+00 
400 4.9888140360e+00 1.6613258739e-02 1.5691727814e+00 -2.7178869832e+00 1.5691727814e+00 2.7178869832e+00 
500 4.9857891383e+00 1.5868288455e-02 1.5686434476e+00 -2.7169701501e+00 1.5686434476e+00 2.7169701501e+00 
600 4.9829147059e+00 1.5222230402e-02 1.5681376782e+00 -2.7160941319e+00 1.5681376782e+00 2.7160941319e+00 
700 4.9801824235e+00 1.4667524535e-02 1.5676523431e+00 -2.7152535069e+00 1.5676523431e+00 2.7152535069e+00 
800 4.9775845166e+00 1.4197078410e-02 1.5671845482e+00 -2.7144432624e+00 1.5671845482e+00 2.7144432624e+00 
900 4.9751137076e+00 1.3804238110e-02 1.5667316215e+00 -2.7136587703e+00 1.5667316215e+00 2.7136587703e+00 
1000 4.9727631747e+00 1.3482760969e-02 1.5662910997e+00 -2.7128957641e+00 1.5662910997e+00 2.7128957641e+00 
1100 4.9705265163e+00 1.3226790030e-02 1.5658607153e+00 -2.7121503165e+00 1.5658607153e+00 2.7121503165e+00 
1200 4.9683977170e+00 1.3030830125e-02 1.5654383855e+00 -2.7114188197e+00 1.5654383855e+00 2.7114188197e+00 
1300 4.9663711180e+00 1.2889725530e-02 1.5650222000e+00 -2.7106979654e+00 1.5650222000e+00 2.7106979654e+00 
1400 4.9644413899e+00 1.2798639074e-02 1.5646104116e+00 -2.7099847270e+00 1.5646104116e+00 2.7099847270e+00 
1500 4.9626035077e+00 1.2753032657e-02 1.5642014254e+00 -2.7092763421e+00 1.5642014254e+00 2.7092763421e+00 
1600 4.9608527289e+00 1.2748649075e-02 1.5637937900e+00 -2.7085702968e+00 1.5637937900e+00 2.7085702968e+00 
1700 4.9591845730e+00 1.2781495095e-02 1.5633861884e+00 -2.7078643102e+00 1.5633861884e+00 2.7078643102e+00 
1800 4.9575948035e+00 1.2847825692e-02 1.5629774303e+00 -2.7071563203e+00 1.5629774303e+00 2.7071563203e+00 
1900 4.9560794111e+00 1.2944129378e-02 1.5625664434e+00 -2.7064444703e+00 1.5625664434e+00 2.7064444703e+00 
2000 4.9546345988e+00 1.3067114561e-02 1.5621522672e+00 -2.7057270960e+00 1.5621522672e+00 2.7057270960e+00 
2100 4.9532567686e+00 1.3213696858e-02 1.5617340451e+00 -2.7050027141e+00 1.5617340451e+00 2.7050027141e+00 
2200 4.9519425086e+00 1.3380987298e-02 1.5613110186e+00 -2.7042700106e+00 1.5613110186e+00 2.7042700106e+00 
2300 4.9506885827e+00 1.3566281350e-02 1.5608825205e+00 -2.7035278302e+00 1.5608825205e+00 2.7035278302e+00 
2400 4.9494919194e+00 1.3767048721e-02 1.5604479698e+00 -2.7027751663e+00 1.5604479698e+00 2.7027751663e+00 
2500 4.9483496033e+00 1.3980923858e-02 1.5600068657e+00 -2.7020111516e+00 1.5600068657e+00 2.7020111516e+00 
2600 4.9472588662e+00 1.4205697104e-02 1.5595587826e+00 -2.7012350489e+00 1.5595587826e+00 2.7012350489e+00 
2700 4.9462170796e+00 1.4439306448e-02 1.5591033652e+00 -2.7004462427e+00 1.5591033652e+00 2.7004462427e+00 
2800 4.9452217473e+00 1.4679829835e-02 1.5586403237e+00 -2.6996442313e+00 1.5586403237e+00 2.6996442313e+00 
2900 4.9442704987e+00 1.4925477962e-02 1.5581694296e+00 -2.6988286188e+00 1.5581694296e+00 2.6988286188e+00 
3000 4.9433610829e+00 1.5174587550e-02 1.5576905114e+00 -2.6979991082e+00 1.5576905114e+00 2.6979991082e+00 
3100 4.9424913630e+00 1.5425615020e-02 1.5572034507e+00 -2.6971554943e+00 1.5572034507e+00 2.6971554943e+00 
3200 4.9416593104e+00 1.5677130553e-02 1.5567081783e+00 -2.6962976574e+00 1.5567081783e+00 2.6962976574e+00 
3300 4.9408630004e+00 1.5927812495e-02 1.5562046708e+00 -2.6954255568e+00 1.5562046708e+00 2.6954255568e+00 
3400 4.9401006066e+00 1.6176442072e-02 1.5556929470e+00 -2.6945392252e+00 1.5556929470e+00 2.6945392252e+00 
3500 4.9393703974e+00 1.6421898387e-02 1.5551730648e+00 -2.6936387629e+00 1.5551730648e+00 2.6936387629e+00 
3600 4.9386707310e+00 1.6663153677e-02 1.5546451182e+00 -2.6927243324e+00 1.5546451182e+00 2.6927243324e+00 
3700 4.9380000516e+00 1.6899268793e-02 1.5541092339e+00 -2.6917961537e+00 1.5541092339e+00 2.6917961537e+00 
3800 4.9373568857e+00 1.7129388897e-02 1.5535655694e+00 -2.6908544990e+00 1.5535655694e+00 2.6908544990e+00 
3900 4.9367398380e+00 1.7352739345e-02 1.5530143092e+00 -2.6898996884e+00 1.5530143092e+00 2.6898996884e+00 
4000 4.9361475883e+00 1.7568621744e-02 1.5524556634e+00 -2.6889320855e+00 1.5524556634e+00 2.6889320855e+00 
4100 4.9355788875e+00 1.7776410169e-02 1.5518898645e+00 -2.6879520931e+00 1.5518898645e+00 2.6879520931e+00 
4200 4.9350325549e+00 1.7975547518e-02 1.5513171655e+00 -2.6869601493e+00 1.5513171655e+00 2.6869601493e+00 
4300 4.9345074745e+00 1.8165542006e-02 1.5507378375e+00 -2.6859567238e+00 1.5507378375e+00 2.6859567238e+00 
4400 4.9340025920e+00 1.8345963778e-02 1.5501521680e+00 -2.6849423144e+00 1.5501521680e+00 2.6849423144e+00 
4500 4.9335169120e+00 1.8516441642e-02 1.5495604585e+00 -2.6839174435e+00 1.5495604585e+00 2.6839174435e+00 
4600 4.9330494950e+00 1.8676659897e-02 1.5489630229e+00 -2.6828826547e+00 1.5489630229e+00 2.6828826547e+00 
4700 4.9325994544e+00 1.8826355278e-02 1.5483601858e+00 -2.6818385102e+00 1.5483601858e+00 2.6818385102e+00 
4800 4.9321659541e+00 1.8965313986e-02 1.5477522806e+00 -2.6807855875e+00 1.5477522806e+00 2.6807855875e+00 
4900 4.9317482057e+00 1.9093368812e-02 1.5471396483e+00 -2.6797244772e+00 1.5471396483e+00 2.6797244772e+00 
5000 4.9313454660e+00 1.9210396356e-02 1.5465226355e+00 -2.6786557797e+00 1.5465226355e+00 2.6786557797e+00 
5100 4.9309570346e+00 1.9316314323e-02 1.5459015935e+00 -2.6775801034e+00 1.5459015935e+00 2.6775801034e+00 
5200 4.9305822516e+00 1.9411078915e-02 1.5452768767e+00 -2.6764980622e+00 1.5452768767e+00 2.6764980622e+00 
5300 4.9302204950e+00 1.9494682292e-02 1.5446488416e+00 -2.6754102735e+00 1.5446488416e+00 2.6754102735e+00 
5400 4.9298711792e+00 1.9567150130e-02 1.5440178453e+00 -2.6743173558e+00 1.5440178453e+00 2.6743173558e+00 
5500 4.9295337522e+00 1.9628539246e-02 1.5433842447e+00 -2.6732199274e+00 1.5433842447e+00 2.6732199274e+00 
5600 4.9292076941e+00 1.9678935315e-02 1.5427483956e+00 -2.6721186044e+00 1.5427483956e+00 2.6721186044e+00 
5700 4.9288925148e+00 1.9718450660e-02 1.5421106513e+00 -2.6710139990e+00 1.5421106513e+00 2.6710139990e+00 
5800 4.9285877527e+00 1.9747222124e-02 1.5414713623e+00 -2.6699067179e+00 1.5414713623e+00 2.6699067179e+00 
5900 4.9282929724e+00 1.9765409018e-02 1.5408308751e+00 -2.6687973615e+00 1.5408308751e+00 2.6687973615e+00 
6000 4.9280077636e+00 1.9773191158e-02 1.5401895316e+00 -2.6676865220e+00 1.5401895316e+00 2.6676865220e+00 
6100 4.9277317388e+00 1.9770766969e-02 1.5395476685e+00 -2.6665747825e+00 1.5395476685e+00 2.6665747825e+00 
6200 4.9274645327e+00 1.9758351675e-02 1.5389056165e+00 -2.6654627159e+00 1.5389056165e+00 2.6654627159e+00 
6300 4.9272058002e+00 1.9736175563e-02 1.5382637000e+00 -2.6643508839e+00 1.5382637000e+00 2.6643508839e+00 
6400 4.9269552150e+00 1.9704482331e-02 1.5376222364e+00 -2.6632398364e+00 1.5376222364e+00 2.6632398364e+00 
6500 4.9267124689e+00 1.9663527503e-02 1.5369815357e+00 -2.6621301102e+00 1.5369815357e+00 2.6621301102e+00 
6600 4.9264772700e+00 1.9613576931e-02 1.5363419001e+00 -2.6610222288e+00 1.5363419001e+00 2.6610222288e+00 
6700 4.9262493420e+00 1.9554905363e-02 1.5357036236e+00 -2.6599167015e+00 1.5357036236e+00 2.6599167015e+00 
6800 4.9260284230e+00 1.9487795095e-02 1.5350669919e+00 -2.6588140229e+00 1.5350669919e+00 2.6588140229e+00 
6900 4.9258142646e+00 1.9412534686e-02 1.5344322817e+00 -2.6577146727e+00 1.5344322817e+00 2.6577146727e+00 
7000 4.9256066307e+00 1.9329417751e-02 1.5337997611e+00 -2.6566191149e+00 1.5337997611e+00 2.6566191149e+00 
7100 4.9254052972e+00 1.9238741825e-02 1.5331696889e+00 -2.6555277978e+00 1.5331696889e+00 2.6555277978e+00 
7200 4.9252100505e+00 1.9140807295e-02 1.5325423145e+00 -2.6544411534e+00 1.5325423145e+00 2.6544411534e+00 
7300 4.9250206873e+00 1.9035916396e-02 1.5319178780e+00 -2.6533595977e+00 1.5319178780e+00 2.6533595977e+00 
7400 4.9248370139e+00 1.8924372275e-02 1.5312966100e+00 -2.6522835300e+00 1.5312966100e+00 2.6522835300e+00 
7500 4.9246588451e+00 1.8806478125e-02 1.5306787317e+00 -2.6512133334e+00 1.5306787317e+00 2.6512133334e+00 
7600 4.9244860040e+00 1.8682536368e-02 1.5300644546e+00 -2.6501493742e+00 1.5300644546e+00 2.6501493742e+00 
7700 4.9243183215e+00 1.8552847910e-02 1.5294539805e+00 -2.6490920021e+00 1.5294539805e+00 2.6490920021e+00 
7800 4.9241556352e+00 1.8417711445e-02 1.5288475019e+00 -2.6480415504e+00 1.5288475019e+00 2.6480415504e+00 
7900 4.9239977899e+00 1.8277422823e-02 1.5282452018e+00 -2.6469983359e+00 1.5282452018e+00 2.6469983359e+00 
8000 4.9238446363e+00 1.8132274462e-02 1.5276472535e+00 -2.6459626592e+00 1.5276472535e+00 2.6459626592e+00 
8100 4.9236960310e+00 1.7982554822e-02 1.5270538214e+00 -2.6449348045e+00 1.5270538214e+00 2.6449348045e+00 
8200 4.9235518359e+00 1.7828547918e-02 1.5264650603e+00 -2.6439150404e+00 1.5264650603e+00 2.6439150404e+00 
8300 4.9234119184e+00 1.7670532891e-02 1.5258811160e+00 -2.6429036192e+00 1.5258811160e+00 2.6429036192e+00 
8400 4.9232761503e+00 1.7508783610e-02 1.5253021254e+00 -2.6419007781e+00 1.5253021254e+00 2.6419007781e+00 
8500 4.9231444081e+00 1.7343568331e-02 1.5247282167e+00 -2.6409067390e+00 1.5247282167e+00 2.6409067390e+00 
8600 4.9230165726e+00 1.7175149390e-02 1.5241595091e+00 -2.6399217086e+00 1.5241595091e+00 2.6399217086e+00 
8700 4.9228925285e+00 1.7003782931e-02 1.5235961136e+00 -2.6389458790e+00 1.5235961136e+00 2.6389458790e+00 
8800 4.9227721645e+00 1.6829718677e-02 1.5230381329e+00 -2.6379794281e+00 1.5230381329e+00 2.6379794281e+00 
8900 4.9226553726e+00 1.6653199730e-02 1.5224856615e+00 -2.6370225195e+00 1.5224856615e+00 2.6370225195e+00 
9000 4.9225420484e+00 1.6474462410e-02 1.5219387860e+00 -2.6360753034e+00 1.5219387860e+00 2.6360753034e+00 
9100 4.9224320908e+00 1.6293736113e-02 1.5213975854e+00 -2.6351379163e+00 1.5213975854e+00 2.6351379163e+00 
9200 4.9223254016e+00 1.6111243211e-02 1.5208621310e+00 -2.6342104822e+00 1.5208621310e+00 2.6342104822e+00 
9300 4.9222218856e+00 1.5927198969e-02 1.5203324870e+00 -2.6332931120e+00 1.5203324870e+00 2.6332931120e+00 
9400 4.9221214506e+00 1.5741811487e-02 1.5198087107e+00 -2.6323859047e+00 1.5198087107e+00 2.6323859047e+00 
9500 4.9220240068e+00 1.5555281673e-02 1.5192908522e+00 -2.6314889475e+00 1.5192908522e+00 2.6314889475e+00 
9600 4.9219294672e+00 1.5367803227e-02 1.5187789552e+00 -2.6306023159e+00 1.5187789552e+00 2.6306023159e+00 
9700 4.9218377472e+00 1.5179562651e-02 1.5182730571e+00 -2.6297260746e+00 1.5182730571e+00 2.6297260746e+00 
9800 4.9217487646e+00 1.4990739275e-02 1.5177731888e+00 -2.6288602774e+00 1.5177731888e+00 2.6288602774e+00 
9900 4.9216624395e+00 1.4801505303e-02 1.5172793757e+00 -2.6280049680e+00 1.5172793757e+00 2.6280049680e+00 
10000 4.9215786943e+00 1.4612025867e-02 1.5167916372e+00 -2.6271601801e+00 1.5167916372e+00 2.6271601801e+00 
10100 4.9214974535e+00 1.4422459102e-02 1.5163099872e+00 -2.6263259379e+00 1.5163099872e+00 2.6263259379e+00 
10200 4.9214186436e+00 1.4232956232e-02 1.5158344346e+00 -2.6255022566e+00 1.5158344346e+00 2.6255022566e+00 
10300 4.9213421933e+00 1.4043661662e-02 1.5153649829e+00 -2.6246891423e+00 1.5153649829e+00 2.6246891423e+00 
10400 4.9212680330e+00 1.3854713088e-02 1.5149016309e+00 -2.6238865933e+00 1.5149016309e+00 2.6238865933e+00 
10500 4.9211960953e+00 1.3666241612e-02 1.5144443730e+00 -2.6230945993e+00 1.5144443730e+00 2.6230945993e+00 
10600 4.9211263145e+00 1.3478371865e-02 1.5139931989e+00 -2.6223131428e+00 1.5139931989e+00 2.6223131428e+00 
10700 4.9210586267e+00 1.3291222139e-02 1.5135480941e+00 -2.6215421987e+00 1.5135480941e+00 2.6215421987e+00 
10800 4.9209929698e+00 1.3104904519e-02 1.5131090404e+00 -2.6207817353e+00 1.5131090404e+00 2.6207817353e+00 
10900 4.9209292833e+00 1.2919525034e-02 1.5126760154e+00 -2.6200317141e+00 1.5126760154e+00 2.6200317141e+00 
11000 4.9208675085e+00 1.2735183796e-02 1.5122489935e+00 -2.6192920904e+00 1.5122489935e+00 2.6192920904e+00 
11100 4.9208075883e+00 1.2551975155e-02 1.5118279453e+00 -2.6185628136e+00 1.5118279453e+00 2.6185628136e+00 
11200 4.9207494672e+00 1.2369987851e-02 1.5114128386e+00 -2.6178438276e+00 1.5114128386e+00 2.6178438276e+00 
11300 4.9206930911e+00 1.2189305169e-02 1.5110036377e+00 -2.6171350709e+00 1.5110036377e+00 2.6171350709e+00 
11400 4.9206384075e+00 1.2010005099e-02 1.5106003043e+00 -2.6164364770e+00 1.5106003043e+00 2.6164364770e+00 
11500 4.9205853655e+00 1.1832160497e-02 1.5102027975e+00 -2.6157479750e+00 1.5102027975e+00 2.6157479750e+00 
11600 4.9205339156e+00 1.1655839239e-02 1.5098110737e+00 -2.6150694895e+00 1.5098110737e+00 2.6150694895e+00 
11700 4.9204840094e+00 1.1481104386e-02 1.5094250869e+00 -2.6144009407e+00 1.5094250869e+00 2.6144009407e+00 
11800 4.9204356003e+00 1.1308014344e-02 1.5090447891e+00 -2.6137422455e+00 1.5090447891e+00 2.6137422455e+00 
11900 4.9203886428e+00 1.1136623021e-02 1.5086701300e+00 -2.6130933170e+00 1.5086701300e+00 2.6130933170e+00 
12000 4.9203430928e+00 1.0966979988e-02 1.5083010576e+00 -2.6124540649e+00 1.5083010576e+00 2.6124540649e+00 
12100 4.9202989074e+00 1.0799130635e-02 1.5079375182e+00 -2.6118243961e+00 1.5079375182e+00 2.6118243961e+00 
12200 4.9202560450e+00 1.0633116326e-02 1.5075794561e+00 -2.6112042145e+00 1.5075794561e+00 2.6112042145e+00 
12300 4.9202144652e+00 1.0468974557e-02 1.5072268146e+00 -2.6105934215e+00 1.5072268146e+00 2.6105934215e+00 
12400 4.9201741287e+00 1.0306739103e-02 1.5068795354e+00 -2.6099919161e+00 1.5068795354e+00 2.6099919161e+00 
12500 4.9201349976e+00 1.0146440171e-02 1.5065375588e+00 -2.6093995954e+00 1.5065375588e+00 2.6093995954e+00 
12600 4.9200970349e+00 9.9881045435e-03 1.5062008244e+00 -2.6088163542e+00 1.5062008244e+00 2.6088163542e+00 
12700 4.9200602048e+00 9.8317557284e-03 1.5058692704e+00 -2.6082420858e+00 1.5058692704e+00 2.6082420858e+00 
12800 4.9200244725e+00 9.6774140960e-03 1.5055428343e+00 -2.6076766820e+00 1.5055428343e+00 2.6076766820e+00 
12900 4.9199898044e+00 9.5250970200e-03 1.5052214529e+00 -2.6071200331e+00 1.5052214529e+00 2.6071200331e+00 
13000 4.9199561676e+00 9.3748190125e-03 1.5049050621e+00 -2.6065720282e+00 1.5049050621e+00 2.6065720282e+00 
13100 4.9199235306e+00 9.2265918569e-03 1.5045935975e+00 -2.6060325555e+00 1.5045935975e+00 2.6060325555e+00 
13200 4.9198918626e+00 9.0804247372e-03 1.5042869938e+00 -2.6055015024e+00 1.5042869938e+00 2.6055015024e+00 
13300 4.9198611338e+00 8.9363243640e-03 1.5039851857e+00 -2.6049787554e+00 1.5039851857e+00 2.6049787554e+00 
13400 4.9198313154e+00 8.7942950975e-03 1.5036881073e+00 -2.6044642005e+00 1.5036881073e+00 2.6044642005e+00 
13500 4.9198023792e+00 8.6543390668e-03 1.5033956926e+00 -2.6039577234e+00 1.5033956926e+00 2.6039577234e+00 
13600 4.9197742983e+00 8.5164562860e-03 1.5031078754e+00 -2.6034592094e+00 1.5031078754e+00 2.6034592094e+00 
13700 4.9197470463e+00 8.3806447669e-03 1.5028245894e+00 -2.6029685436e+00 1.5028245894e+00 2.6029685436e+00 
13800 4.9197205978e+00 8.2469006281e-03 1.5025457682e+00 -2.6024856112e+00 1.5025457682e+00 2.6024856112e+00 
13900 4.9196949281e+00 8.1152182010e-03 1.5022713456e+00 -2.6020102974e+00 1.5022713456e+00 2.6020102974e+00 
14000 4.9196700132e+00 7.9855901322e-03 1.5020012554e+00 -2.6015424875e+00 1.5020012554e+00 2.6015424875e+00 
14100 4.9196458300e+00 7.8580074830e-03 1.5017354316e+00 -2.6010820671e+00 1.5017354316e+00 2.6010820671e+00 
14200 4.9196223561e+00 7.7324598244e-03 1.5014738083e+00 -2.6006289222e+00 1.5014738083e+00 2.6006289222e+00 
14300 4.9195995698e+00 7.6089353304e-03 1.5012163200e+00 -2.6001829394e+00 1.5012163200e+00 2.6001829394e+00 
14400 4.9195774500e+00 7.4874208669e-03 1.5009629015e+00 -2.5997440056e+00 1.5009629015e+00 2.5997440056e+00 
14500 4.9195559764e+00 7.3679020774e-03 1.5007134878e+00 -2.5993120085e+00 1.5007134878e+00 2.5993120085e+00 
14600 4.9195351291e+00 7.2503634664e-03 1.5004680145e+00 -2.5988868363e+00 1.5004680145e+00 2.5988868363e+00 
14700 4.9195148892e+00 7.1347884789e-03 1.5002264176e+00 -2.5984683781e+00 1.5002264176e+00 2.5984683781e+00 
14800 4.9194952380e+00 7.0211595768e-03 1.4999886335e+00 -2.5980565240e+00 1.4999886335e+00 2.5980565240e+00 
14900 4.9194761577e+00 6.9094583129e-03 1.4997545992e+00 -2.5976511646e+00 1.4997545992e+00 2.5976511646e+00 
15000 4.9194576310e+00 6.7996654016e-03 1.4995242521e+00 -2.5972521918e+00 1.4995242521e+00 2.5972521918e+00 
15100 4.9194396409e+00 6.6917607863e-03 1.4992975304e+00 -2.5968594983e+00 1.4992975304e+00 2.5968594983e+00 
15200 4.9194221713e+00 6.5857237051e-03 1.4990743727e+00 -2.5964729779e+00 1.4990743727e+00 2.5964729779e+00 
15300 4.9194052065e+00 6.4815327523e-03 1.4988547184e+00 -2.5960925255e+00 1.4988547184e+00 2.5960925255e+00 
15400 4.9193887310e+00 6.3791659387e-03 1.4986385074e+00 -2.5957180371e+00 1.4986385074e+00 2.5957180371e+00 
15500 4.9193727303e+00 6.2786007478e-03 1.4984256804e+00 -2.5953494099e+00 1.4984256804e+00 2.5953494099e+00 
15600 4.9193571899e+00 6.1798141911e-03 1.4982161787e+00 -2.5949865423e+00 1.4982161787e+00 2.5949865423e+00 
15700 4.9193420961e+00 6.0827828590e-03 1.4980099444e+00 -2.5946293339e+00 1.4980099444e+00 2.5946293339e+00 
15800 4.9193274354e+00 5.9874829711e-03 1.4978069202e+00 -2.5942776857e+00 1.4978069202e+00 2.5942776857e+00 
15900 4.9193131949e+00 5.8938904232e-03 1.4976070496e+00 -2.5939314998e+00 1.4976070496e+00 2.5939314998e+00 
16000 4.9192993619e+00 5.8019808318e-03 1.4974102770e+00 -2.5935906796e+00 1.4974102770e+00 2.5935906796e+00 
16100 4.9192859244e+00 5.7117295773e-03 1.4972165474e+00 -2.5932551300e+00 1.4972165474e+00 2.5932551300e+00 
16200 4.9192728705e+00 5.6231118444e-03 1.4970258065e+00 -2.5929247571e+00 1.4970258065e+00 2.5929247571e+00 
16300 4.9192601888e+00 5.5361026603e-03 1.4968380010e+00 -2.5925994684e+00 1.4968380010e+00 2.5925994684e+00 
16400 4.9192478683e+00 5.4506769316e-03 1.4966530782e+00 -2.5922791727e+00 1.4966530782e+00 2.5922791727e+00 
16500 4.9192358982e+00 5.3668094786e-03 1.4964709863e+00 -2.5919637804e+00 1.4964709863e+00 2.5919637804e+00 
16600 4.9192242682e+00 5.2844750682e-03 1.4962916744e+00 -2.5916532030e+00 1.4962916744e+00 2.5916532030e+00 
16700 4.9192129682e+00 5.2036484445e-03 1.4961150921e+00 -2.5913473536e+00 1.4961150921e+00 2.5913473536e+00 
16800 4.9192019885e+00 5.1243043581e-03 1.4959411902e+00 -2.5910461465e+00 1.4959411902e+00 2.5910461465e+00 
16900 4.9191913197e+00 5.0464175935e-03 1.4957699198e+00 -2.5907494976e+00 1.4957699198e+00 2.5907494976e+00 
17000 4.9191809526e+00 4.9699629950e-03 1.4956012334e+00 -2.5904573241e+00 1.4956012334e+00 2.5904573241e+00 
17100 4.9191708785e+00 4.8949154910e-03 1.4954350838e+00 -2.5901695445e+00 1.4954350838e+00 2.5901695445e+00 
17200 4.9191610886e+00 4.8212501166e-03 1.4952714248e+00 -2.5898860789e+00 1.4952714248e+00 2.5898860789e+00 
17300 4.9191515748e+00 4.7489420353e-03 1.4951102112e+00 -2.5896068487e+00 1.4951102112e+00 2.5896068487e+00 
17400 4.9191423289e+00 4.6779665586e-03 1.4949513982e+00 -2.5893317766e+00 1.4949513982e+00 2.5893317766e+00 
17500 4.9191333432e+00 4.6082991645e-03 1.4947949421e+00 -2.5890607867e+00 1.4947949421e+00 2.5890607867e+00 
17600 4.9191246101e+00 4.5399155155e-03 1.4946407999e+00 -2.5887938045e+00 1.4946407999e+00 2.5887938045e+00 
17700 4.9191161223e+00 4.4727914740e-03 1.4944889294e+00 -2.5885307570e+00 1.4944889294e+00 2.5885307570e+00 
17800 4.9191078727e+00 4.4069031176e-03 1.4943392890e+00 -2.5882715723e+00 1.4943392890e+00 2.5882715723e+00 
17900 4.9190998543e+00 4.3422267531e-03 1.4941918382e+00 -2.5880161800e+00 1.4941918382e+00 2.5880161800e+00 
18000 4.9190920606e+00 4.2787389286e-03 1.4940465370e+00 -2.5877645110e+00 1.4940465370e+00 2.5877645110e+00 
18100 4.9190844851e+00 4.2164164460e-03 1.4939033464e+00 -2.5875164975e+00 1.4939033464e+00 2.5875164975e+00 
18200 4.9190771214e+00 4.1552363710e-03 1.4937622278e+00 -2.5872720730e+00 1.4937622278e+00 2.5872720730e+00 
18300 4.9190699635e+00 4.0951760435e-03 1.4936231437e+00 -2.5870311722e+00 1.4936231437e+00 2.5870311722e+00 
18400 4.9190630055e+00 4.0362130860e-03 1.4934860571e+00 -2.5867937313e+00 1.4934860571e+00 2.5867937313e+00 
18500 4.9190562417e+00 3.9783254119e-03 1.4933509319e+00 -2.5865596876e+00 1.4933509319e+00 2.5865596876e+00 
18600 4.9190496666e+00 3.9214912327e-03 1.4932177326e+00 -2.5863289796e+00 1.4932177326e+00 2.5863289796e+00 
18700 4.9190432747e+00 3.8656890642e-03 1.4930864244e+00 -2.5861015472e+00 1.4930864244e+00 2.5861015472e+00 
18800 4.9190370608e+00 3.8108977327e-03 1.4929569733e+00 -2.5858773313e+00 1.4929569733e+00 2.5858773313e+00 
18900 4.9190310199e+00 3.7570963793e-03 1.4928293460e+00 -2.5856562743e+00 1.4928293460e+00 2.5856562743e+00 
19000 4.9190251470e+00 3.7042644648e-03 1.4927035096e+00 -2.5854383193e+00 1.4927035096e+00 2.5854383193e+00 
19100 4.9190194375e+00 3.6523817731e-03 1.4925794323e+00 -2.5852234111e+00 1.4925794323e+00 2.5852234111e+00 
19200 4.9190138866e+00 3.6014284144e-03 1.4924570826e+00 -2.5850114953e+00 1.4924570826e+00 2.5850114953e+00 
19300 4.9190084899e+00 3.5513848275e-03 1.4923364299e+00 -2.5848025186e+00 1.4923364299e+00 2.5848025186e+00 
19400 4.9190032430e+00 3.5022317823e-03 1.4922174441e+00 -2.5845964291e+00 1.4922174441e+00 2.5845964291e+00 
19500 4.9189981417e+00 3.4539503805e-03 1.4921000957e+00 -2.5843931758e+00 1.4921000957e+00 2.5843931758e+00 
19600 4.9189931819e+00 3.4065220572e-03 1.4919843560e+00 -2.5841927087e+00 1.4919843560e+00 2.5841927087e+00 
19700 4.9189883597e+00 3.3599285813e-03 1.4918701967e+00 -2.5839949789e+00 1.4918701967e+00 2.5839949789e+00 
19800 4.9189836710e+00 3.3141520554e-03 1.4917575901e+00 -2.5837999387e+00 1.4917575901e+00 2.5837999387e+00 
19900 4.9189791123e+00 3.2691749156e-03 1.4916465094e+00 -2.5836075412e+00 1.4916465094e+00 2.5836075412e+00 
20000 4.9189746799e+00 3.2249799309e-03 1.4915369280e+00 -2.5834177406e+00 1.4915369280e+00 2.5834177406e+00 
20100 4.9189703701e+00 3.1815502021e-03 1.4914288200e+00 -2.5832304921e+00 1.4914288200e+00 2.5832304921e+00 
20200 4.9189661797e+00 3.1388691604e-03 1.4913221601e+00 -2.5830457518e+00 1.4913221601e+00 2.5830457518e+00 
20300 4.9189621052e+00 3.0969205658e-03 1.4912169236e+00 -2.5828634767e+00 1.4912169236e+00 2.5828634767e+00 
20400 4.9189581434e+00 3.0556885049e-03 1.4911130861e+00 -2.5826836249e+00 1.4911130861e+00 2.5826836249e+00 
20500 4.9189542912e+00 3.0151573890e-03 1.4910106239e+00 -2.5825061552e+00 1.4910106239e+00 2.5825061552e+00 
20600 4.9189505455e+00 2.9753119514e-03 1.4909095138e+00 -2.5823310275e+00 1.4909095138e+00 2.5823310275e+00 
20700 4.9189469034e+00 2.9361372447e-03 1.4908097332e+00 -2.5821582023e+00 1.4908097332e+00 2.5821582023e+00 
20800 4.9189433620e+00 2.8976186378e-03 1.4907112597e+00 -2.5819876412e+00 1.4907112597e+00 2.5819876412e+00 
20900 4.9189399184e+00 2.8597418128e-03 1.4906140716e+00 -2.5818193065e+00 1.4906140716e+00 2.5818193065e+00 
21000 4.9189365700e+00 2.8224927617e-03 1.4905181477e+00 -2.5816531614e+00 1.4905181477e+00 2.5816531614e+00 
21100 4.9189333141e+00 2.7858577828e-03 1.4904234671e+00 -2.5814891698e+00 1.4904234671e+00 2.5814891698e+00 
21200 4.9189301481e+00 2.7498234772e-03 1.4903300095e+00 -2.5813272964e+00 1.4903300095e+00 2.5813272964e+00 
21300 4.9189270697e+00 2.7143767448e-03 1.4902377549e+00 -2.5811675068e+00 1.4902377549e+00 2.5811675068e+00 
21400 4.9189240762e+00 2.6795047805e-03 1.4901466839e+00 -2.5810097672e+00 1.4901466839e+00 2.5810097672e+00 
21500 4.9189211654e+00 2.6451950701e-03 1.4900567774e+00 -2.5808540446e+00 1.4900567774e+00 2.5808540446e+00 
21600 4.9189183351e+00 2.6114353863e-03 1.4899680167e+00 -2.5807003066e+00 1.4899680167e+00 2.5807003066e+00 
21700 4.9189155829e+00 2.5782137842e-03 1.4898803836e+00 -2.5805485216e+00 1.4898803836e+00 2.5805485216e+00 
21800 4.9189129068e+00 2.5455185971e-03 1.4897938603e+00 -2.5803986588e+00 1.4897938603e+00 2.5803986588e+00 
21900 4.9189103045e+00 2.5133384322e-03 1.4897084292e+00 -2.5802506878e+00 1.4897084292e+00 2.5802506878e+00 
22000 4.9189077742e+00 2.4816621661e-03 1.4896240732e+00 -2.5801045790e+00 1.4896240732e+00 2.5801045790e+00 
22100 4.9189053137e+00 2.4504789402e-03 1.4895407758e+00 -2.5799603036e+00 1.4895407758e+00 2.5799603036e+00 
22200 4.9189029212e+00 2.4197781561e-03 1.4894585203e+00 -2.5798178330e+00 1.4894585203e+00 2.5798178330e+00 
22300 4.9189005948e+00 2.3895494713e-03 1.4893772909e+00 -2.5796771395e+00 1.4893772909e+00 2.5796771395e+00 
22400 4.9188983328e+00 2.3597827944e-03 1.4892970719e+00 -2.5795381961e+00 1.4892970719e+00 2.5795381961e+00 
22500 4.9188961332e+00 2.3304682802e-03 1.4892178479e+00 -2.5794009761e+00 1.4892178479e+00 2.5794009761e+00 
22600 4.9188939944e+00 2.3015963256e-03 1.4891396039e+00 -2.5792654535e+00 1.4891396039e+00 2.5792654535e+00 
22700 4.9188919147e+00 2.2731575647e-03 1.4890623251e+00 -2.5791316028e+00 1.4890623251e+00 2.5791316028e+00 
22800 4.9188898926e+00 2.2451428637e-03 1.4889859973e+00 -2.5789993991e+00 1.4889859973e+00 2.5789993991e+00 
22900 4.9188879263e+00 2.2175433172e-03 1.4889106063e+00 -2.5788688180e+00 1.4889106063e+00 2.5788688180e+00 
23000 4.9188860145e+00 2.1903502425e-03 1.4888361382e+00 -2.5787398356e+00 1.4888361382e+00 2.5787398356e+00 
23100 4.9188841555e+00 2.1635551759e-03 1.4887625797e+00 -2.5786124284e+00 1.4887625797e+00 2.5786124284e+00 
23200 4.9188823480e+00 2.1371498675e-03 1.4886899174e+00 -2.5784865737e+00 1.4886899174e+00 2.5784865737e+00 
23300 4.9188805905e+00 2.1111262767e-03 1.4886181384e+00 -2.5783622488e+00 1.4886181384e+00 2.5783622488e+00 
23400 4.9188788816e+00 2.0854765679e-03 1.4885472301e+00 -2.5782394320e+00 1.4885472301e+00 2.5782394320e+00 
23500 4.9188772201e+00 2.0601931059e-03 1.4884771799e+00 -2.5781181015e+00 1.4884771799e+00 2.5781181015e+00 
23600 4.9188756046e+00 2.0352684511e-03 1.4884079757e+00 -2.5779982363e+00 1.4884079757e+00 2.5779982363e+00 
23700 4.9188740339e+00 2.0106953556e-03 1.4883396056e+00 -2.5778798158e+00 1.4883396056e+00 2.5778798158e+00 
23800 4.9188725067e+00 1.9864667583e-03 1.4882720578e+00 -2.5777628196e+00 1.4882720578e+00 2.5777628196e+00 
23900 4.9188710218e+00 1.9625757807e-03 1.4882053210e+00 -2.5776472280e+00 1.4882053210e+00 2.5776472280e+00 
24000 4.9188695781e+00 1.9390157231e-03 1.4881393838e+00 -2.5775330214e+00 1.4881393838e+00 2.5775330214e+00 
24100 4.9188681745e+00 1.9157800593e-03 1.4880742353e+00 -2.5774201809e+00 1.4880742353e+00 2.5774201809e+00 
24200 4.9188668098e+00 1.8928624334e-03 1.4880098646e+00 -2.5773086877e+00 1.4880098646e+00 2.5773086877e+00 
24300 4.9188654831e+00 1.8702566552e-03 1.4879462612e+00 -2.5771985234e+00 1.4879462612e+00 2.5771985234e+00 
24400 4.9188641931e+00 1.8479566960e-03 1.4878834148e+00 -2.5770896701e+00 1.4878834148e+00 2.5770896701e+00 
24500 4.9188629391e+00 1.8259566850e-03 1.4878213150e+00 -2.5769821102e+00 1.4878213150e+00 2.5769821102e+00 
24600 4.9188617198e+00 1.8042509049e-03 1.4877599520e+00 -2.5768758263e+00 1.4877599520e+00 2.5768758263e+00 
24700 4.9188605345e+00 1.7828337881e-03 1.4876993159e+00 -2.5767708015e+00 1.4876993159e+00 2.5767708015e+00 
24800 4.9188593822e+00 1.7616999131e-03 1.4876393971e+00 -2.5766670192e+00 1.4876393971e+00 2.5766670192e+00 
24900 4.9188582620e+00 1.7408440005e-03 1.4875801863e+00 -2.5765644630e+00 1.4875801863e+00 2.5765644630e+00 
25000 4.9188571729e+00 1.7202609092e-03 1.4875216741e+00 -2.5764631168e+00 1.4875216741e+00 2.5764631168e+00 
25100 4.9188561142e+00 1.6999456330e-03 1.4874638514e+00 -2.5763629650e+00 1.4874638514e+00 2.5763629650e+00 
25200 4.9188550850e+00 1.6798932967e-03 1.4874067093e+00 -2.5762639921e+00 1.4874067093e+00 2.5762639921e+00 
25300 4.9188540846e+00 1.6600991530e-03 1.4873502391e+00 -2.5761661828e+00 1.4873502391e+00 2.5761661828e+00 
25400 4.9188531120e+00 1.6405585787e-03 1.4872944322e+00 -2.5760695224e+00 1.4872944322e+00 2.5760695224e+00 
25500 4.9188521666e+00 1.6212670713e-03 1.4872392801e+00 -2.5759739962e+00 1.4872392801e+00 2.5759739962e+00 
25600 4.9188512477e+00 1.6022202459e-03 1.4871847745e+00 -2.5758795897e+00 1.4871847745e+00 2.5758795897e+00 
25700 4.9188503544e+00 1.5834138319e-03 1.4871309073e+00 -2.5757862889e+00 1.4871309073e+00 2.5757862889e+00 
25800 4.9188494861e+00 1.5648436697e-03 1.4870776704e+00 -2.5756940799e+00 1.4870776704e+00 2.5756940799e+00 
25900 4.9188486421e+00 1.5465057076e-03 1.4870250560e+00 -2.5756029491e+00 1.4870250560e+00 2.5756029491e+00 
26000 4.9188478218e+00 1.5283959988e-03 1.4869730563e+00 -2.5755128830e+00 1.4869730563e+00 2.5755128830e+00 
26100 4.9188470244e+00 1.5105106985e-03 1.4869216637e+00 -2.5754238685e+00 1.4869216637e+00 2.5754238685e+00 
26200 4.9188462494e+00 1.4928460607e-03 1.4868708708e+00 -2.5753358925e+00 1.4868708708e+00 2.5753358925e+00 
26300 4.9188454962e+00 1.4753984356e-03 1.4868206702e+00 -2.5752489425e+00 1.4868206702e+00 2.5752489425e+00 
26400 4.9188447641e+00 1.4581642667e-03 1.4867710546e+00 -2.5751630057e+00 1.4867710546e+00 2.5751630057e+00 
26500 4.9188440526e+00 1.4411400883e-03 1.4867220169e+00 -2.5750780699e+00 1.4867220169e+00 2.5750780699e+00 
26600 4.9188433611e+00 1.4243225224e-03 1.4866735501e+00 -2.5749941230e+00 1.4866735501e+00 2.5749941230e+00 
26700 4.9188426891e+00 1.4077082765e-03 1.4866256474e+00 -2.5749111530e+00 1.4866256474e+00 2.5749111530e+00 
26800 4.9188420360e+00 1.3912941408e-03 1.4865783018e+00 -2.5748291482e+00 1.4865783018e+00 2.5748291482e+00 
26900 4.9188414013e+00 1.3750769859e-03 1.4865315069e+00 -2.5747480970e+00 1.4865315069e+00 2.5747480970e+00 
27000 4.9188407845e+00 1.3590537603e-03 1.4864852560e+00 -2.5746679880e+00 1.4864852560e+00 2.5746679880e+00 
27100 4.9188401851e+00 1.3432214883e-03 1.4864395425e+00 -2.5745888100e+00 1.4864395425e+00 2.5745888100e+00 
27200 4.9188396027e+00 1.3275772672e-03 1.4863943602e+00 -2.5745105520e+00 1.4863943602e+00 2.5745105520e+00 
27300 4.9188390368e+00 1.3121182655e-03 1.4863497028e+00 -2.5744332031e+00 1.4863497028e+00 2.5744332031e+00 
27400 4.9188384868e+00 1.2968417205e-03 1.4863055641e+00 -2.5743567526e+00 1.4863055641e+00 2.5743567526e+00 
27500 4.9188379525e+00 1.2817449366e-03 1.4862619380e+00 -2.5742811899e+00 1.4862619380e+00 2.5742811899e+00 
27600 4.9188374333e+00 1.2668252824e-03 1.4862188184e+00 -2.5742065047e+00 1.4862188184e+00 2.5742065047e+00 
27700 4.9188369288e+00 1.2520801898e-03 1.4861761996e+00 -2.5741326866e+00 1.4861761996e+00 2.5741326866e+00 
27800 4.9188364387e+00 1.2375071510e-03 1.4861340755e+00 -2.5740597257e+00 1.4861340755e+00 2.5740597257e+00 
27900 4.9188359626e+00 1.2231037173e-03 1.4860924406e+00 -2.5739876119e+00 1.4860924406e+00 2.5739876119e+00 
28000 4.9188354999e+00 1.2088674970e-03 1.4860512891e+00 -2.5739163354e+00 1.4860512891e+00 2.5739163354e+00 
28100 4.9188350505e+00 1.1947961538e-03 1.4860106155e+00 -2.5738458866e+00 1.4860106155e+00 2.5738458866e+00 
28200 4.9188346139e+00 1.1808874047e-03 1.4859704142e+00 -2.5737762560e+00 1.4859704142e+00 2.5737762560e+00 
28300 4.9188341898e+00 1.1671390186e-03 1.4859306798e+00 -2.5737074340e+00 1.4859306798e+00 2.5737074340e+00 
28400 4.9188337777e+00 1.1535488147e-03 1.4858914070e+00 -2.5736394115e+00 1.4858914070e+00 2.5736394115e+00 
28500 4.9188333775e+00 1.1401146606e-03 1.4858525905e+00 -2.5735721792e+00 1.4858525905e+00 2.5735721792e+00 
28600 4.9188329888e+00 1.1268344712e-03 1.4858142250e+00 -2.5735057282e+00 1.4858142250e+00 2.5735057282e+00 
28700 4.9188326112e+00 1.1137062069e-03 1.4857763054e+00 -2.5734400496e+00 1.4857763054e+00 2.5734400496e+00 
28800 4.9188322444e+00 1.1007278721e-03 1.4857388266e+00 -2.5733751344e+00 1.4857388266e+00 2.5733751344e+00 
28900 4.9188318882e+00 1.0878975140e-03 1.4857017836e+00 -2.5733109741e+00 1.4857017836e+00 2.5733109741e+00 
29000 4.9188315423e+00 1.0752132211e-03 1.4856651715e+00 -2.5732475601e+00 1.4856651715e+00 2.5732475601e+00 
29100 4.9188312063e+00 1.0626731219e-03 1.4856289854e+00 -2.5731848839e+00 1.4856289854e+00 2.5731848839e+00 
29200 4.9188308800e+00 1.0502753839e-03 1.4855932205e+00 -2.5731229372e+00 1.4855932205e+00 2.5731229372e+00 
29300 4.9188305632e+00 1.0380182118e-03 1.4855578719e+00 -2.5730617118e+00 1.4855578719e+00 2.5730617118e+00 
29400 4.9188302555e+00 1.0258998466e-03 1.4855229351e+00 -2.5730011994e+00 1.4855229351e+00 2.5730011994e+00 
29500 4.9188299567e+00 1.0139185648e-03 1.4854884053e+00 -2.5729413920e+00 1.4854884053e+00 2.5729413920e+00 
29600 4.9188296666e+00 1.0020726765e-03 1.4854542780e+00 -2.5728822818e+00 1.4854542780e+00 2.5728822818e+00 
29700 4.9188293850e+00 9.9036052493e-04 1.4854205486e+00 -2.5728238608e+00 1.4854205486e+00 2.5728238608e+00 
29800 4.9188291115e+00 9.7878048524e-04 1.4853872127e+00 -2.5727661213e+00 1.4853872127e+00 2.5727661213e+00 
29900 4.9188288460e+00 9.6733096335e-04 1.4853542658e+00 -2.5727090557e+00 1.4853542658e+00 2.5727090557e+00 
30000 4.9188285883e+00 9.5601039512e-04 1.4853217036e+00 -2.5726526563e+00 1.4853217036e+00 2.5726526563e+00 
30100 4.9188283381e+00 9.4481724531e-04 1.4852895218e+00 -2.5725969158e+00 1.4852895218e+00 2.5725969158e+00 
30200 4.9188280952e+00 9.3375000669e-04 1.4852577161e+00 -2.5725418267e+00 1.4852577161e+00 2.5725418267e+00 
30300 4.9188278594e+00 9.2280719919e-04 1.4852262823e+00 -2.5724873817e+00 1.4852262823e+00 2.5724873817e+00 
30400 4.9188276306e+00 9.1198736896e-04 1.4851952162e+00 -2.5724335736e+00 1.4851952162e+00 2.5724335736e+00 
30500 4.9188274085e+00 9.0128908765e-04 1.4851645137e+00 -2.5723803953e+00 1.4851645137e+00 2.5723803953e+00 
30600 4.9188271929e+00 8.9071095150e-04 1.4851341707e+00 -2.5723278397e+00 1.4851341707e+00 2.5723278397e+00 
30700 4.9188269837e+00 8.8025158066e-04 1.4851041833e+00 -2.5722758999e+00 1.4851041833e+00 2.5722758999e+00 
30800 4.9188267807e+00 8.6990961840e-04 1.4850745473e+00 -2.5722245690e+00 1.4850745473e+00 2.5722245690e+00 
30900 4.9188265837e+00 8.5968373041e-04 1.4850452590e+00 -2.5721738402e+00 1.4850452590e+00 2.5721738402e+00 
31000 4.9188263925e+00 8.4957260410e-04 1.4850163144e+00 -2.5721237066e+00 1.4850163144e+00 2.5721237066e+00 
31100 4.9188262071e+00 8.3957494794e-04 1.4849877097e+00 -2.5720741618e+00 1.4849877097e+00 2.5720741618e+00 
31200 4.9188260271e+00 8.2968949082e-04 1.4849594410e+00 -2.5720251990e+00 1.4849594410e+00 2.5720251990e+00 
31300 4.9188258525e+00 8.1991498142e-04 1.4849315047e+00 -2.5719768118e+00 1.4849315047e+00 2.5719768118e+00 
31400 4.9188256832e+00 8.1025018763e-04 1.4849038969e+00 -2.5719289938e+00 1.4849038969e+00 2.5719289938e+00 
31500 4.9188255189e+00 8.0069389597e-04 1.4848766141e+00 -2.5718817386e+00 1.4848766141e+00 2.5718817386e+00 
31600 4.9188253595e+00 7.9124491103e-04 1.4848496525e+00 -2.5718350398e+00 1.4848496525e+00 2.5718350398e+00 
31700 4.9188252050e+00 7.8190205493e-04 1.4848230087e+00 -2.5717888913e+00 1.4848230087e+00 2.5717888913e+00 
31800 4.9188250551e+00 7.7266416686e-04 1.4847966789e+00 -2.5717432868e+00 1.4847966789e+00 2.5717432868e+00 
31900 4.9188249097e+00 7.6353010252e-04 1.4847706598e+00 -2.5716982204e+00 1.4847706598e+00 2.5716982204e+00 
32000 4.9188247687e+00 7.5449873367e-04 1.4847449478e+00 -2.5716536860e+00 1.4847449478e+00 2.5716536860e+00 
32100 4.9188246320e+00 7.4556894770e-04 1.4847195396e+00 -2.5716096775e+00 1.4847195396e+00 2.5716096775e+00 
32200 4.9188244995e+00 7.3673964717e-04 1.4846944316e+00 -2.5715661892e+00 1.4846944316e+00 2.5715661892e+00 
32300 4.9188243710e+00 7.2800974938e-04 1.4846696205e+00 -2.5715232151e+00 1.4846696205e+00 2.5715232151e+00 
32400 4.9188242464e+00 7.1937818596e-04 1.4846451030e+00 -2.5714807496e+00 1.4846451030e+00 2.5714807496e+00 
32500 4.9188241256e+00 7.1084390254e-04 1.4846208758e+00 -2.5714387868e+00 1.4846208758e+00 2.5714387868e+00 
32600 4.9188240086e+00 7.0240585829e-04 1.4845969356e+00 -2.5713973212e+00 1.4845969356e+00 2.5713973212e+00 
32700 4.9188238951e+00 6.9406302561e-04 1.4845732792e+00 -2.5713563471e+00 1.4845732792e+00 2.5713563471e+00 
32800 4.9188237852e+00 6.8581438980e-04 1.4845499034e+00 -2.5713158591e+00 1.4845499034e+00 2.5713158591e+00 
32900 4.9188236787e+00 6.7765894869e-04 1.4845268051e+00 -2.5712758516e+00 1.4845268051e+00 2.5712758516e+00 
33000 4.9188235754e+00 6.6959571233e-04 1.4845039811e+00 -2.5712363192e+00 1.4845039811e+00 2.5712363192e+00 
33100 4.9188234754e+00 6.6162370270e-04 1.4844814283e+00 -2.5711972567e+00 1.4844814283e+00 2.5711972567e+00 
33200 4.9188233785e+00 6.5374195342e-04 1.4844591437e+00 -2.5711586586e+00 1.4844591437e+00 2.5711586586e+00 
33300 4.9188232846e+00 6.4594950945e-04 1.4844371242e+00 -2.5711205197e+00 1.4844371242e+00 2.5711205197e+00 
33400 4.9188231937e+00 6.3824542682e-04 1.4844153668e+00 -2.5710828349e+00 1.4844153668e+00 2.5710828349e+00 
33500 4.9188231056e+00 6.3062877240e-04 1.4843938687e+00 -2.5710455990e+00 1.4843938687e+00 2.5710455990e+00 
33600 4.9188230203e+00 6.2309862361e-04 1.4843726268e+00 -2.5710088069e+00 1.4843726268e+00 2.5710088069e+00 
33700 4.9188229377e+00 6.1565406822e-04 1.4843516382e+00 -2.5709724537e+00 1.4843516382e+00 2.5709724537e+00 
33800 4.9188228577e+00 6.0829420410e-04 1.4843309001e+00 -2.5709365342e+00 1.4843309001e+00 2.5709365342e+00 
33900 4.9188227803e+00 6.0101813900e-04 1.4843104096e+00 -2.5709010437e+00 1.4843104096e+00 2.5709010437e+00 
34000 4.9188227054e+00 5.9382499036e-04 1.4842901640e+00 -2.5708659772e+00 1.4842901640e+00 2.5708659772e+00 
34100 4.9188226328e+00 5.8671388508e-04 1.4842701603e+00 -2.5708313299e+00 1.4842701603e+00 2.5708313299e+00 
34200 4.9188225626e+00 5.7968395935e-04 1.4842503960e+00 -2.5707970970e+00 1.4842503960e+00 2.5707970970e+00 
34300 4.9188224947e+00 5.7273435846e-04 1.4842308682e+00 -2.5707632739e+00 1.4842308682e+00 2.5707632739e+00 
34400 4.9188224289e+00 5.6586423662e-04 1.4842115743e+00 -2.5707298558e+00 1.4842115743e+00 2.5707298558e+00 
34500 4.9188223653e+00 5.5907275679e-04 1.4841925115e+00 -2.5706968382e+00 1.4841925115e+00 2.5706968382e+00 
34600 4.9188223038e+00 5.5235909051e-04 1.4841736773e+00 -2.5706642164e+00 1.4841736773e+00 2.5706642164e+00 
34700 4.9188222443e+00 5.4572241777e-04 1.4841550691e+00 -2.5706319859e+00 1.4841550691e+00 2.5706319859e+00 
34800 4.9188221868e+00 5.3916192681e-04 1.4841366841e+00 -2.5706001423e+00 1.4841366841e+00 2.5706001423e+00 
34900 4.9188221311e+00 5.3267681405e-04 1.4841185200e+00 -2.5705686811e+00 1.4841185200e+00 2.5705686811e+00 
35000 4.9188220773e+00 5.2626628387e-04 1.4841005742e+00 -2.5705375980e+00 1.4841005742e+00 2.5705375980e+00 
35100 4.9188220253e+00 5.1992954856e-04 1.4840828441e+00 -2.5705068885e+00 1.4840828441e+00 2.5705068885e+00 
35200 4.9188219750e+00 5.1366582813e-04 1.4840653272e+00 -2.5704765485e+00 1.4840653272e+00 2.5704765485e+00 
35300 4.9188219264e+00 5.0747435020e-04 1.4840480212e+00 -2.5704465736e+00 1.4840480212e+00 2.5704465736e+00 
35400 4.9188218795e+00 5.0135434993e-04 1.4840309236e+00 -2.5704169597e+00 1.4840309236e+00 2.5704169597e+00 
35500 4.9188218341e+00 4.9530506985e-04 1.4840140320e+00 -2.5703877026e+00 1.4840140320e+00 2.5703877026e+00 
35600 4.9188217903e+00 4.8932575978e-04 1.4839973440e+00 -2.5703587981e+00 1.4839973440e+00 2.5703587981e+00 
35700 4.9188217480e+00 4.8341567673e-04 1.4839808573e+00 -2.5703302423e+00 1.4839808573e+00 2.5703302423e+00 
35800 4.9188217071e+00 4.7757408480e-04 1.4839645695e+00 -2.5703020311e+00 1.4839645695e+00 2.5703020311e+00 
35900 4.9188216677e+00 4.7180025507e-04 1.4839484784e+00 -2.5702741604e+00 1.4839484784e+00 2.5702741604e+00 
36000 4.9188216296e+00 4.6609346554e-04 1.4839325816e+00 -2.5702466264e+00 1.4839325816e+00 2.5702466264e+00 
36100 4.9188215929e+00 4.6045300101e-04 1.4839168770e+00 -2.5702194252e+00 1.4839168770e+00 2.5702194252e+00 
36200 4.9188215574e+00 4.5487815300e-04 1.4839013622e+00 -2.5701925528e+00 1.4839013622e+00 2.5701925528e+00 
36300 4.9188215232e+00 4.4936821970e-04 1.4838860352e+00 -2.5701660056e+00 1.4838860352e+00 2.5701660056e+00 
36400 4.9188214902e+00 4.4392250586e-04 1.4838708936e+00 -2.5701397796e+00 1.4838708936e+00 2.5701397796e+00 
36500 4.9188214584e+00 4.3854032274e-04 1.4838559354e+00 -2.5701138712e+00 1.4838559354e+00 2.5701138712e+00 
36600 4.9188214277e+00 4.3322098800e-04 1.4838411583e+00 -2.5700882766e+00 1.4838411583e+00 2.5700882766e+00 
36700 4.9188213982e+00 4.2796382567e-04 1.4838265604e+00 -2.5700629922e+00 1.4838265604e+00 2.5700629922e+00 
36800 4.9188213697e+00 4.2276816607e-04 1.4838121395e+00 -2.5700380144e+00 1.4838121395e+00 2.5700380144e+00 
36900 4.9188213422e+00 4.1763334575e-04 1.4837978935e+00 -2.5700133397e+00 1.4837978935e+00 2.5700133397e+00 
37000 4.9188213158e+00 4.1255870740e-04 1.4837838204e+00 -2.5699889643e+00 1.4837838204e+00 2.5699889643e+00 
37100 4.9188212903e+00 4.0754359982e-04 1.4837699181e+00 -2.5699648850e+00 1.4837699181e+00 2.5699648850e+00 
37200 4.9188212658e+00 4.0258737787e-04 1.4837561848e+00 -2.5699410981e+00 1.4837561848e+00 2.5699410981e+00 
37300 4.9188212423e+00 3.9768940237e-04 1.4837426183e+00 -2.5699176003e+00 1.4837426183e+00 2.5699176003e+00 
37400 4.9188212196e+00 3.9284904010e-04 1.4837292168e+00 -2.5698943881e+00 1.4837292168e+00 2.5698943881e+00 
37500 4.9188211977e+00 3.8806566368e-04 1.4837159782e+00 -2.5698714583e+00 1.4837159782e+00 2.5698714583e+00 
37600 4.9188211768e+00 3.8333865159e-04 1.4837029008e+00 -2.5698488074e+00 1.4837029008e+00 2.5698488074e+00 
37700 4.9188211566e+00 3.7866738808e-04 1.4836899825e+00 -2.5698264323e+00 1.4836899825e+00 2.5698264323e+00 
37800 4.9188211372e+00 3.7405126313e-04 1.4836772215e+00 -2.5698043296e+00 1.4836772215e+00 2.5698043296e+00 
37900 4.9188211186e+00 3.6948967238e-04 1.4836646159e+00 -2.5697824962e+00 1.4836646159e+00 2.5697824962e+00 
38000 4.9188211007e+00 3.6498201713e-04 1.4836521640e+00 -2.5697609289e+00 1.4836521640e+00 2.5697609289e+00 
38100 4.9188210836e+00 3.6052770428e-04 1.4836398639e+00 -2.5697396245e+00 1.4836398639e+00 2.5697396245e+00 
38200 4.9188210671e+00 3.5612614624e-04 1.4836277138e+00 -2.5697185799e+00 1.4836277138e+00 2.5697185799e+00 
38300 4.9188210513e+00 3.5177676095e-04 1.4836157120e+00 -2.5696977921e+00 1.4836157120e+00 2.5696977921e+00 
38400 4.9188210362e+00 3.4747897182e-04 1.4836038566e+00 -2.5696772580e+00 1.4836038566e+00 2.5696772580e+00 
38500 4.9188210217e+00 3.4323220765e-04 1.4835921460e+00 -2.5696569746e+00 1.4835921460e+00 2.5696569746e+00 
38600 4.9188210078e+00 3.3903590265e-04 1.4835805784e+00 -2.5696369389e+00 1.4835805784e+00 2.5696369389e+00 
38700 4.9188209945e+00 3.3488949637e-04 1.4835691521e+00 -2.5696171481e+00 1.4835691521e+00 2.5696171481e+00 
38800 4.9188209818e+00 3.3079243364e-04 1.4835578655e+00 -2.5695975991e+00 1.4835578655e+00 2.5695975991e+00 
38900 4.9188209696e+00 3.2674416459e-04 1.4835467169e+00 -2.5695782891e+00 1.4835467169e+00 2.5695782891e+00 
39000 4.9188209580e+00 3.2274414454e-04 1.4835357047e+00 -2.5695592154e+00 1.4835357047e+00 2.5695592154e+00 
39100 4.9188209469e+00 3.1879183404e-04 1.4835248272e+00 -2.5695403749e+00 1.4835248272e+00 2.5695403749e+00 
39200 4.9188209363e+00 3.1488669878e-04 1.4835140828e+00 -2.5695217651e+00 1.4835140828e+00 2.5695217651e+00 
39300 4.9188209262e+00 3.1102820955e-04 1.4835034699e+00 -2.5695033831e+00 1.4835034699e+00 2.5695033831e+00 
39400 4.9188209165e+00 3.0721584225e-04 1.4834929870e+00 -2.5694852262e+00 1.4834929870e+00 2.5694852262e+00 
39500 4.9188209074e+00 3.0344907783e-04 1.4834826326e+00 -2.5694672918e+00 1.4834826326e+00 2.5694672918e+00 
39600 4.9188208986e+00 2.9972740223e-04 1.4834724050e+00 -2.5694495771e+00 1.4834724050e+00 2.5694495771e+00 
39700 4.9188208903e+00 2.9605030640e-04 1.4834623028e+00 -2.5694320795e+00 1.4834623028e+00 2.5694320795e+00 
39800 4.9188208824e+00 2.9241728622e-04 1.4834523244e+00 -2.5694147965e+00 1.4834523244e+00 2.5694147965e+00 
39900 4.9188208749e+00 2.8882784249e-04 1.4834424685e+00 -2.5693977255e+00 1.4834424685e+00 2.5693977255e+00 
40000 4.9188208678e+00 2.8528148088e-04 1.4834327334e+00 -2.5693808639e+00 1.4834327334e+00 2.5693808639e+00 
40100 4.9188208610e+00 2.8177771193e-04 1.4834231179e+00 -2.5693642093e+00 1.4834231179e+00 2.5693642093e+00 
40200 4.9188208547e+00 2.7831605098e-04 1.4834136203e+00 -2.5693477590e+00 1.4834136203e+00 2.5693477590e+00 
40300 4.9188208486e+00 2.7489601815e-04 1.4834042394e+00 -2.5693315108e+00 1.4834042394e+00 2.5693315108e+00 
40400 4.9188208429e+00 2.7151713830e-04 1.4833949737e+00 -2.5693154621e+00 1.4833949737e+00 2.5693154621e+00 
40500 4.9188208376e+00 2.6817894104e-04 1.4833858218e+00 -2.5692996106e+00 1.4833858218e+00 2.5692996106e+00 
40600 4.9188208325e+00 2.6488096063e-04 1.4833767824e+00 -2.5692839539e+00 1.4833767824e+00 2.5692839539e+00 
40700 4.9188208278e+00 2.6162273601e-04 1.4833678541e+00 -2.5692684896e+00 1.4833678541e+00 2.5692684896e+00 
40800 4.9188208233e+00 2.5840381073e-04 1.4833590356e+00 -2.5692532155e+00 1.4833590356e+00 2.5692532155e+00 
40900 4.9188208192e+00 2.5522373292e-04 1.4833503255e+00 -2.5692381292e+00 1.4833503255e+00 2.5692381292e+00 
41000 4.9188208153e+00 2.5208205528e-04 1.4833417226e+00 -2.5692232285e+00 1.4833417226e+00 2.5692232285e+00 
41100 4.9188208116e+00 2.4897833505e-04 1.4833332255e+00 -2.5692085111e+00 1.4833332255e+00 2.5692085111e+00 
41200 4.9188208082e+00 2.4591213392e-04 1.4833248329e+00 -2.5691939748e+00 1.4833248329e+00 2.5691939748e+00 
41300 4.9188208051e+00 2.4288301810e-04 1.4833165437e+00 -2.5691796175e+00 1.4833165437e+00 2.5691796175e+00 
41400 4.9188208022e+00 2.3989055819e-04 1.4833083566e+00 -2.5691654369e+00 1.4833083566e+00 2.5691654369e+00 
41500 4.9188207996e+00 2.3693432922e-04 1.4833002703e+00 -2.5691514310e+00 1.4833002703e+00 2.5691514310e+00 
41600 4.9188207971e+00 2.3401391055e-04 1.4832922835e+00 -2.5691375976e+00 1.4832922835e+00 2.5691375976e+00 
41700 4.9188207949e+00 2.3112888592e-04 1.4832843952e+00 -2.5691239346e+00 1.4832843952e+00 2.5691239346e+00 
41800 4.9188207929e+00 2.2827884335e-04 1.4832766041e+00 -2.5691104400e+00 1.4832766041e+00 2.5691104400e+00 
41900 4.9188207910e+00 2.2546337515e-04 1.4832689090e+00 -2.5690971117e+00 1.4832689090e+00 2.5690971117e+00 
42000 4.9188207894e+00 2.2268207786e-04 1.4832613088e+00 -2.5690839478e+00 1.4832613088e+00 2.5690839478e+00 
42100 4.9188207879e+00 2.1993455225e-04 1.4832538023e+00 -2.5690709461e+00 1.4832538023e+00 2.5690709461e+00 
42200 4.9188207866e+00 2.1722040325e-04 1.4832463884e+00 -2.5690581048e+00 1.4832463884e+00 2.5690581048e+00 
42300 4.9188207855e+00 2.1453923997e-04 1.4832390659e+00 -2.5690454220e+00 1.4832390659e+00 2.5690454220e+00 
42400 4.9188207846e+00 2.1189067560e-04 1.4832318338e+00 -2.5690328956e+00 1.4832318338e+00 2.5690328956e+00 
42500 4.9188207838e+00 2.0927432745e-04 1.4832246910e+00 -2.5690205238e+00 1.4832246910e+00 2.5690205238e+00 
42600 4.9188207832e+00 2.0668981688e-04 1.4832176363e+00 -2.5690083047e+00 1.4832176363e+00 2.5690083047e+00 
42700 4.9188207827e+00 2.0413676926e-04 1.4832106686e+00 -2.5689962364e+00 1.4832106686e+00 2.5689962364e+00 
42800 4.9188207823e+00 2.0161481397e-04 1.4832037871e+00 -2.5689843172e+00 1.4832037871e+00 2.5689843172e+00 
42900 4.9188207821e+00 1.9912358435e-04 1.4831969905e+00 -2.5689725451e+00 1.4831969905e+00 2.5689725451e+00 
43000 4.9188207820e+00 1.9666271767e-04 1.4831902778e+00 -2.5689609185e+00 1.4831902778e+00 2.5689609185e+00 
43100 4.9188207820e+00 1.9423185510e-04 1.4831836481e+00 -2.5689494355e+00 1.4831836481e+00 2.5689494355e+00 
43200 4.9188207822e+00 1.9183064168e-04 1.4831771003e+00 -2.5689380944e+00 1.4831771003e+00 2.5689380944e+00 
43300 4.9188207824e+00 1.8945872629e-04 1.4831706334e+00 -2.5689268934e+00 1.4831706334e+00 2.5689268934e+00 
43400 4.9188207828e+00 1.8711576162e-04 1.4831642465e+00 -2.5689158309e+00 1.4831642465e+00 2.5689158309e+00 
43500 4.9188207833e+00 1.8480140412e-04 1.4831579385e+00 -2.5689049051e+00 1.4831579385e+00 2.5689049051e+00 
43600 4.9188207839e+00 1.8251531400e-04 1.4831517085e+00 -2.5688941145e+00 1.4831517085e+00 2.5688941145e+00 
43700 4.9188207845e+00 1.8025715519e-04 1.4831455556e+00 -2.5688834573e+00 1.4831455556e+00 2.5688834573e+00 
43800 4.9188207853e+00 1.7802659530e-04 1.4831394787e+00 -2.5688729318e+00 1.4831394787e+00 2.5688729318e+00 
43900 4.9188207861e+00 1.7582330557e-04 1.4831334770e+00 -2.5688625366e+00 1.4831334770e+00 2.5688625366e+00 
44000 4.9188207871e+00 1.7364696088e-04 1.4831275496e+00 -2.5688522700e+00 1.4831275496e+00 2.5688522700e+00 
44100 4.9188207881e+00 1.7149723972e-04 1.4831216955e+00 -2.5688421305e+00 1.4831216955e+00 2.5688421305e+00 
44200 4.9188207892e+00 1.6937382409e-04 1.4831159139e+00 -2.5688321164e+00 1.4831159139e+00 2.5688321164e+00 
44300 4.9188207904e+00 1.6727639957e-04 1.4831102038e+00 -2.5688222263e+00 1.4831102038e+00 2.5688222263e+00 
44400 4.9188207916e+00 1.6520465520e-04 1.4831045645e+00 -2.5688124586e+00 1.4831045645e+00 2.5688124586e+00 
44500 4.9188207929e+00 1.6315828350e-04 1.4830989949e+00 -2.5688028119e+00 1.4830989949e+00 2.5688028119e+00 
44600 4.9188207942e+00 1.6113698044e-04 1.4830934943e+00 -2.5687932846e+00 1.4830934943e+00 2.5687932846e+00 
44700 4.9188207957e+00 1.5914044539e-04 1.4830880619e+00 -2.5687838753e+00 1.4830880619e+00 2.5687838753e+00 
44800 4.9188207972e+00 1.5716838107e-04 1.4830826967e+00 -2.5687745825e+00 1.4830826967e+00 2.5687745825e+00 
44900 4.9188207987e+00 1.5522049358e-04 1.4830773980e+00 -2.5687654049e+00 1.4830773980e+00 2.5687654049e+00 
45000 4.9188208003e+00 1.5329649231e-04 1.4830721650e+00 -2.5687563410e+00 1.4830721650e+00 2.5687563410e+00 
45100 4.9188208019e+00 1.5139608995e-04 1.4830669968e+00 -2.5687473894e+00 1.4830669968e+00 2.5687473894e+00 
45200 4.9188208036e+00 1.4951900244e-04 1.4830618926e+00 -2.5687385488e+00 1.4830618926e+00 2.5687385488e+00 
45300 4.9188208053e+00 1.4766494895e-04 1.4830568517e+00 -2.5687298177e+00 1.4830568517e+00 2.5687298177e+00 
45400 4.9188208071e+00 1.4583365182e-04 1.4830518733e+00 -2.5687211948e+00 1.4830518733e+00 2.5687211948e+00 
45500 4.9188208089e+00 1.4402483659e-04 1.4830469566e+00 -2.5687126789e+00 1.4830469566e+00 2.5687126789e+00 
45600 4.9188208107e+00 1.4223823190e-04 1.4830421009e+00 -2.5687042686e+00 1.4830421009e+00 2.5687042686e+00 
45700 4.9188208126e+00 1.4047356952e-04 1.4830373055e+00 -2.5686959626e+00 1.4830373055e+00 2.5686959626e+00 
45800 4.9188208145e+00 1.3873058428e-04 1.4830325695e+00 -2.5686877596e+00 1.4830325695e+00 2.5686877596e+00 
45900 4.9188208164e+00 1.3700901407e-04 1.4830278922e+00 -2.5686796583e+00 1.4830278922e+00 2.5686796583e+00 
46000 4.9188208184e+00 1.3530859979e-04 1.4830232730e+00 -2.5686716576e+00 1.4830232730e+00 2.5686716576e+00 
46100 4.9188208204e+00 1.3362908530e-04 1.4830187110e+00 -2.5686637561e+00 1.4830187110e+00 2.5686637561e+00 
46200 4.9188208224e+00 1.3197021748e-04 1.4830142057e+00 -2.5686559527e+00 1.4830142057e+00 2.5686559527e+00 
46300 4.9188208244e+00 1.3033174607e-04 1.4830097564e+00 -2.5686482461e+00 1.4830097564e+00 2.5686482461e+00 
46400 4.9188208265e+00 1.2871342376e-04 1.4830053622e+00 -2.5686406352e+00 1.4830053622e+00 2.5686406352e+00 
46500 4.9188208286e+00 1.2711500608e-04 1.4830010226e+00 -2.5686331188e+00 1.4830010226e+00 2.5686331188e+00 
46600 4.9188208307e+00 1.2553625143e-04 1.4829967368e+00 -2.5686256957e+00 1.4829967368e+00 2.5686256957e+00 
46700 4.9188208328e+00 1.2397692100e-04 1.4829925043e+00 -2.5686183647e+00 1.4829925043e+00 2.5686183647e+00 
46800 4.9188208349e+00 1.2243677878e-04 1.4829883244e+00 -2.5686111248e+00 1.4829883244e+00 2.5686111248e+00 
46900 4.9188208370e+00 1.2091559151e-04 1.4829841963e+00 -2.5686039749e+00 1.4829841963e+00 2.5686039749e+00 
47000 4.9188208392e+00 1.1941312866e-04 1.4829801196e+00 -2.5685969137e+00 1.4829801196e+00 2.5685969137e+00 
47100 4.9188208414e+00 1.1792916242e-04 1.4829760934e+00 -2.5685899403e+00 1.4829760934e+00 2.5685899403e+00 
47200 4.9188208435e+00 1.1646346762e-04 1.4829721174e+00 -2.5685830535e+00 1.4829721174e+00 2.5685830535e+00 
47300 4.9188208457e+00 1.1501582177e-04 1.4829681907e+00 -2.5685762522e+00 1.4829681907e+00 2.5685762522e+00 
47400 4.9188208479e+00 1.1358600497e-04 1.4829643128e+00 -2.5685695355e+00 1.4829643128e+00 2.5685695355e+00 
47500 4.9188208501e+00 1.1217379994e-04 1.4829604831e+00 -2.5685629023e+00 1.4829604831e+00 2.5685629023e+00 
47600 4.9188208523e+00 1.1077899194e-04 1.4829567010e+00 -2.5685563515e+00 1.4829567010e+00 2.5685563515e+00 
47700 4.9188208545e+00 1.0940136879e-04 1.4829529659e+00 -2.5685498822e+00 1.4829529659e+00 2.5685498822e+00 
47800 4.9188208567e+00 1.0804072080e-04 1.4829492773e+00 -2.5685434933e+00 1.4829492773e+00 2.5685434933e+00 
47900 4.9188208589e+00 1.0669684078e-04 1.4829456345e+00 -2.5685371839e+00 1.4829456345e+00 2.5685371839e+00 
48000 4.9188208611e+00 1.0536952399e-04 1.4829420371e+00 -2.5685309529e+00 1.4829420371e+00 2.5685309529e+00 
48100 4.9188208633e+00 1.0405856813e-04 1.4829384843e+00 -2.5685247994e+00 1.4829384843e+00 2.5685247994e+00 
48200 4.9188208655e+00 1.0276377330e-04 1.4829349758e+00 -2.5685187224e+00 1.4829349758e+00 2.5685187224e+00 
48300 4.9188208677e+00 1.0148494197e-04 1.4829315109e+00 -2.5685127211e+00 1.4829315109e+00 2.5685127211e+00 
48400 4.9188208699e+00 1.0022187899e-04 1.4829280892e+00 -2.5685067944e+00 1.4829280892e+00 2.5685067944e+00 
48500 4.9188208721e+00 9.8974391508e-05 1.4829247100e+00 -2.5685009415e+00 1.4829247100e+00 2.5685009415e+00 
48600 4.9188208743e+00 9.7742289004e-05 1.4829213729e+00 -2.5684951614e+00 1.4829213729e+00 2.5684951614e+00 
48700 4.9188208765e+00 9.6525383220e-05 1.4829180773e+00 -2.5684894533e+00 1.4829180773e+00 2.5684894533e+00 
48800 4.9188208787e+00 9.5323488157e-05 1.4829148227e+00 -2.5684838162e+00 1.4829148227e+00 2.5684838162e+00 
48900 4.9188208808e+00 9.4136420040e-05 1.4829116086e+00 -2.5684782493e+00 1.4829116086e+00 2.5684782493e+00 
49000 4.9188208830e+00 9.2963997303e-05 1.4829084346e+00 -2.5684727517e+00 1.4829084346e+00 2.5684727517e+00 
49100 4.9188208852e+00 9.1806040558e-05 1.4829053001e+00 -2.5684673225e+00 1.4829053001e+00 2.5684673225e+00 
49200 4.9188208873e+00 9.0662372574e-05 1.4829022046e+00 -2.5684619610e+00 1.4829022046e+00 2.5684619610e+00 
49300 4.9188208895e+00 8.9532818250e-05 1.4828991477e+00 -2.5684566663e+00 1.4828991477e+00 2.5684566663e+00 
49400 4.9188208916e+00 8.8417204592e-05 1.4828961288e+00 -2.5684514375e+00 1.4828961288e+00 2.5684514375e+00 
49500 4.9188208937e+00 8.7315360693e-05 1.4828931476e+00 -2.5684462738e+00 1.4828931476e+00 2.5684462738e+00 
49600 4.9188208959e+00 8.6227117706e-05 1.4828902035e+00 -2.5684411745e+00 1.4828902035e+00 2.5684411745e+00 
49700 4.9188208980e+00 8.5152308821e-05 1.4828872961e+00 -2.5684361388e+00 1.4828872961e+00 2.5684361388e+00 
49800 4.9188209001e+00 8.4090769244e-05 1.4828844249e+00 -2.5684311658e+00 1.4828844249e+00 2.5684311658e+00 
49900 4.9188209022e+00 8.3042336171e-05 1.4828815896e+00 -2.5684262547e+00 1.4828815896e+00 2.5684262547e+00 
50000 4.9188209042e+00 8.2006848768e-05 1.4828787895e+00 -2.5684214049e+00 1.4828787895e+00 2.5684214049e+00 
50100 4.9188209063e+00 8.0984148149e-05 1.4828760244e+00 -2.5684166156e+00 1.4828760244e+00 2.5684166156e+00 
50200 4.9188209083e+00 7.9974077350e-05 1.4828732938e+00 -2.5684118860e+00 1.4828732938e+00 2.5684118860e+00 
50300 4.9188209104e+00 7.8976481314e-05 1.4828705972e+00 -2.5684072154e+00 1.4828705972e+00 2.5684072154e+00 
50400 4.9188209124e+00 7.7991206861e-05 1.4828679342e+00 -2.5684026030e+00 1.4828679342e+00 2.5684026030e+00 
50500 4.9188209144e+00 7.7018102671e-05 1.4828653045e+00 -2.5683980481e+00 1.4828653045e+00 2.5683980481e+00 
50600 4.9188209164e+00 7.6057019263e-05 1.4828627075e+00 -2.5683935501e+00 1.4828627075e+00 2.5683935501e+00 
50700 4.9188209184e+00 7.5107808971e-05 1.4828601430e+00 -2.5683891082e+00 1.4828601430e+00 2.5683891082e+00 
50800 4.9188209204e+00 7.4170325927e-05 1.4828576105e+00 -2.5683847218e+00 1.4828576105e+00 2.5683847218e+00 
50900 4.9188209224e+00 7.3244426034e-05 1.4828551096e+00 -2.5683803900e+00 1.4828551096e+00 2.5683803900e+00 
51000 4.9188209243e+00 7.2329966952e-05 1.4828526399e+00 -2.5683761124e+00 1.4828526399e+00 2.5683761124e+00 
51100 4.9188209262e+00 7.1426808073e-05 1.4828502010e+00 -2.5683718881e+00 1.4828502010e+00 2.5683718881e+00 
51200 4.9188209282e+00 7.0534810504e-05 1.4828477925e+00 -2.5683677166e+00 1.4828477925e+00 2.5683677166e+00 
51300 4.9188209303e+00 7.1300296803e-05 1.4828477925e+00 -2.5683677166e+00 1.4828477925e+00 2.5683677166e+00 
51400 4.9188209322e+00 7.0402654721e-05 1.4828453884e+00 -2.5683635524e+00 1.4828453884e+00 2.5683635524e+00 
51500 4.9188209343e+00 7.1159088093e-05 1.4828453884e+00 -2.5683635524e+00 1.4828453884e+00 2.5683635524e+00 
51600 4.9188209361e+00 7.0255294052e-05 1.4828429890e+00 -2.5683593965e+00 1.4828429890e+00 2.5683593965e+00 
51700 4.9188209382e+00 7.1001880005e-05 1.4828429890e+00 -2.5683593965e+00 1.4828429890e+00 2.5683593965e+00 
51800 4.9188209400e+00 7.0091561928e-05 1.4828405949e+00 -2.5683552498e+00 1.4828405949e+00 2.5683552498e+00 
51900 4.9188209420e+00 7.0827605913e-05 1.4828405949e+00 -2.5683552498e+00 1.4828405949e+00 2.5683552498e+00 
52000 4.9188209438e+00 6.9910511648e-05 1.4828382066e+00 -2.5683511133e+00 1.4828382066e+00 2.5683511133e+00 
52100 4.9188209458e+00 7.0635409631e-05 1.4828382066e+00 -2.5683511133e+00 1.4828382066e+00 2.5683511133e+00 
52200 4.9188209477e+00 7.1360087046e-05 1.4828382066e+00 -2.5683511133e+00 1.4828382066e+00 2.5683511133e+00 
52300 4.9188209495e+00 7.0418607932e-05 1.4828358004e+00 -2.5683469456e+00 1.4828358004e+00 2.5683469456e+00 
52400 4.9188209514e+00 7.1130838831e-05 1.4828358004e+00 -2.5683469456e+00 1.4828358004e+00 2.5683469456e+00 
52500 4.9188209531e+00 7.0182075727e-05 1.4828334019e+00 -2.5683427913e+00 1.4828334019e+00 2.5683427913e+00 
52600 4.9188209550e+00 7.0881490746e-05 1.4828334019e+00 -2.5683427913e+00 1.4828334019e+00 2.5683427913e+00 
52700 4.9188209566e+00 6.9925572021e-05 1.4828310119e+00 -2.5683386516e+00 1.4828310119e+00 2.5683386516e+00 
52800 4.9188209585e+00 7.0611862568e-05 1.4828310119e+00 -2.5683386516e+00 1.4828310119e+00 2.5683386516e+00 
52900 4.9188209603e+00 7.1297045634e-05 1.4828310119e+00 -2.5683386516e+00 1.4828310119e+00 2.5683386516e+00 
53000 4.9188209619e+00 7.0316794478e-05 1.4828286078e+00 -2.5683344876e+00 1.4828286078e+00 2.5683344876e+00 
53100 4.9188209637e+00 7.0987946520e-05 1.4828286078e+00 -2.5683344876e+00 1.4828286078e+00 2.5683344876e+00 
53200 4.9188209653e+00 7.0000800796e-05 1.4828262141e+00 -2.5683303417e+00 1.4828262141e+00 2.5683303417e+00 
53300 4.9188209670e+00 7.0657786084e-05 1.4828262141e+00 -2.5683303417e+00 1.4828262141e+00 2.5683303417e+00 
53400 4.9188209688e+00 7.1313207752e-05 1.4828262141e+00 -2.5683303417e+00 1.4828262141e+00 2.5683303417e+00 
53500 4.9188209703e+00 7.0302446992e-05 1.4828238095e+00 -2.5683261767e+00 1.4828238095e+00 2.5683261767e+00 
53600 4.9188209720e+00 7.0943026102e-05 1.4828238095e+00 -2.5683261767e+00 1.4828238095e+00 2.5683261767e+00 
53700 4.9188209735e+00 6.9926048351e-05 1.4828214173e+00 -2.5683220334e+00 1.4828214173e+00 2.5683220334e+00 
53800 4.9188209752e+00 7.0551786726e-05 1.4828214173e+00 -2.5683220334e+00 1.4828214173e+00 2.5683220334e+00 
53900 4.9188209768e+00 7.1175665348e-05 1.4828214173e+00 -2.5683220334e+00 1.4828214173e+00 2.5683220334e+00 
54000 4.9188209782e+00 7.0136349018e-05 1.4828190173e+00 -2.5683178764e+00 1.4828190173e+00 2.5683178764e+00 
54100 4.9188209798e+00 7.0744896153e-05 1.4828190173e+00 -2.5683178764e+00 1.4828190173e+00 2.5683178764e+00 
54200 4.9188209812e+00 6.9700337316e-05 1.4828166318e+00 -2.5683137446e+00 1.4828166318e+00 2.5683137446e+00 
54300 4.9188209828e+00 7.0293664522e-05 1.4828166318e+00 -2.5683137446e+00 1.4828166318e+00 2.5683137446e+00 
54400 4.9188209844e+00 7.0884961576e-05 1.4828166318e+00 -2.5683137446e+00 1.4828166318e+00 2.5683137446e+00 
54500 4.9188209857e+00 6.9819741600e-05 1.4828142416e+00 -2.5683096047e+00 1.4828142416e+00 2.5683096047e+00 
54600 4.9188209872e+00 7.0395476985e-05 1.4828142416e+00 -2.5683096047e+00 1.4828142416e+00 2.5683096047e+00 
54700 4.9188209888e+00 7.0969046299e-05 1.4828142416e+00 -2.5683096047e+00 1.4828142416e+00 2.5683096047e+00 
54800 4.9188209900e+00 6.9884039287e-05 1.4828118486e+00 -2.5683054598e+00 1.4828118486e+00 2.5683054598e+00 
54900 4.9188209915e+00 7.0441804928e-05 1.4828118486e+00 -2.5683054598e+00 1.4828118486e+00 2.5683054598e+00 
55000 4.9188209930e+00 7.0997310732e-05 1.4828118486e+00 -2.5683054598e+00 1.4828118486e+00 2.5683054598e+00 
55100 4.9188209942e+00 6.9893522582e-05 1.4828094546e+00 -2.5683013132e+00 1.4828094546e+00 2.5683013132e+00 
55200 4.9188209956e+00 7.0433070014e-05 1.4828094546e+00 -2.5683013132e+00 1.4828094546e+00 2.5683013132e+00 
55300 4.9188209970e+00 7.0970300220e-05 1.4828094546e+00 -2.5683013132e+00 1.4828094546e+00 2.5683013132e+00 
55400 4.9188209982e+00 6.9848842292e-05 1.4828070615e+00 -2.5682971683e+00 1.4828070615e+00 2.5682971683e+00 
55500 4.9188209996e+00 7.0370035878e-05 1.4828070615e+00 -2.5682971683e+00 1.4828070615e+00 2.5682971683e+00 
55600 4.9188210010e+00 7.0888886209e-05 1.4828070615e+00 -2.5682971683e+00 1.4828070615e+00 2.5682971683e+00 
55700 4.9188210021e+00 6.9750952549e-05 1.4828046711e+00 -2.5682930280e+00 1.4828046711e+00 2.5682930280e+00 
55800 4.9188210034e+00 7.0253754944e-05 1.4828046711e+00 -2.5682930280e+00 1.4828046711e+00 2.5682930280e+00 
55900 4.9188210047e+00 7.0754215027e-05 1.4828046711e+00 -2.5682930280e+00 1.4828046711e+00 2.5682930280e+00 
56000 4.9188210058e+00 6.9601062654e-05 1.4828022853e+00 -2.5682888957e+00 1.4828022853e+00 2.5682888957e+00 
56100 4.9188210071e+00 7.0085522022e-05 1.4828022853e+00 -2.5682888957e+00 1.4828022853e+00 2.5682888957e+00 
56200 4.9188210084e+00 7.0567663147e-05 1.4828022853e+00 -2.5682888957e+00 1.4828022853e+00 2.5682888957e+00 
56300 4.9188210096e+00 7.1047353460e-05 1.4828022853e+00 -2.5682888957e+00 1.4828022853e+00 2.5682888957e+00 
56400 4.9188210106e+00 6.9866524098e-05 1.4827998896e+00 -2.5682847462e+00 1.4827998896e+00 2.5682847462e+00 
56500 4.9188210119e+00 7.0329996603e-05 1.4827998896e+00 -2.5682847462e+00 1.4827998896e+00 2.5682847462e+00 
56600 4.9188210131e+00 7.0791087901e-05 1.4827998896e+00 -2.5682847462e+00 1.4827998896e+00 2.5682847462e+00 
56700 4.9188210140e+00 6.9597731395e-05 1.4827975025e+00 -2.5682806116e+00 1.4827975025e+00 2.5682806116e+00 
56800 4.9188210152e+00 7.0042798604e-05 1.4827975025e+00 -2.5682806116e+00 1.4827975025e+00 2.5682806116e+00 
56900 4.9188210164e+00 7.0485567317e-05 1.4827975025e+00 -2.5682806116e+00 1.4827975025e+00 2.5682806116e+00 
57000 4.9188210175e+00 7.0925922596e-05 1.4827975025e+00 -2.5682806116e+00 1.4827975025e+00 2.5682806116e+00 
57100 4.9188210185e+00 6.9708686571e-05 1.4827951109e+00 -2.5682764692e+00 1.4827951109e+00 2.5682764692e+00 
57200 4.9188210196e+00 7.0132966875e-05 1.4827951109e+00 -2.5682764692e+00 1.4827951109e+00 2.5682764692e+00 
57300 4.9188210207e+00 7.0554950601e-05 1.4827951109e+00 -2.5682764692e+00 1.4827951109e+00 2.5682764692e+00 
57400 4.9188210218e+00 7.0974532808e-05 1.4827951109e+00 -2.5682764692e+00 1.4827951109e+00 2.5682764692e+00 
57500 4.9188210226e+00 6.9735432615e-05 1.4827927176e+00 -2.5682723240e+00 1.4827927176e+00 2.5682723240e+00 
57600 4.9188210237e+00 7.0138984113e-05 1.4827927176e+00 -2.5682723240e+00 1.4827927176e+00 2.5682723240e+00 
57700 4.9188210248e+00 7.0540278344e-05 1.4827927176e+00 -2.5682723240e+00 1.4827927176e+00 2.5682723240e+00 
57800 4.9188210258e+00 7.0939218493e-05 1.4827927176e+00 -2.5682723240e+00 1.4827927176e+00 2.5682723240e+00 
57900 4.9188210266e+00 6.9680375678e-05 1.4827903255e+00 -2.5682681808e+00 1.4827903255e+00 2.5682681808e+00 
58000 4.9188210276e+00 7.0063408105e-05 1.4827903255e+00 -2.5682681808e+00 1.4827903255e+00 2.5682681808e+00 
58100 4.9188210286e+00 7.0444252483e-05 1.4827903255e+00 -2.5682681808e+00 1.4827903255e+00 2.5682681808e+00 
58200 4.9188210296e+00 7.0822818589e-05 1.4827903255e+00 -2.5682681808e+00 1.4827903255e+00 2.5682681808e+00 
58300 4.9188210303e+00 6.9546418665e-05 1.4827879374e+00 -2.5682640444e+00 1.4827879374e+00 2.5682640444e+00 
58400 4.9188210313e+00 6.9909264954e-05 1.4827879374e+00 -2.5682640444e+00 1.4827879374e+00 2.5682640444e+00 
58500 4.9188210322e+00 7.0270016091e-05 1.4827879374e+00 -2.5682640444e+00 1.4827879374e+00 2.5682640444e+00 
58600 4.9188210332e+00 7.0628587179e-05 1.4827879374e+00 -2.5682640444e+00 1.4827879374e+00 2.5682640444e+00 
58700 4.9188210341e+00 7.0984898975e-05 1.4827879374e+00 -2.5682640444e+00 1.4827879374e+00 2.5682640444e+00 
58800 4.9188210348e+00 6.9682515274e-05 1.4827855437e+00 -2.5682598985e+00 1.4827855437e+00 2.5682598985e+00 
58900 4.9188210357e+00 7.0023150739e-05 1.4827855437e+00 -2.5682598985e+00 1.4827855437e+00 2.5682598985e+00 
59000 4.9188210366e+00 7.0361740527e-05 1.4827855437e+00 -2.5682598985e+00 1.4827855437e+00 2.5682598985e+00 
59100 4.9188210375e+00 7.0698208507e-05 1.4827855437e+00 -2.5682598985e+00 1.4827855437e+00 2.5682598985e+00 
59200 4.9188210383e+00 7.1032483721e-05 1.4827855437e+00 -2.5682598985e+00 1.4827855437e+00 2.5682598985e+00 
59300 4.9188210390e+00 6.9707048603e-05 1.4827831485e+00 -2.5682557498e+00 1.4827831485e+00 2.5682557498e+00 
59400 4.9188210398e+00 7.0025796191e-05 1.4827831485e+00 -2.5682557498e+00 1.4827831485e+00 2.5682557498e+00 
59500 4.9188210406e+00 7.0342587148e-05 1.4827831485e+00 -2.5682557498e+00 1.4827831485e+00 2.5682557498e+00 
59600 4.9188210414e+00 7.0657351929e-05 1.4827831485e+00 -2.5682557498e+00 1.4827831485e+00 2.5682557498e+00 
59700 4.9188210423e+00 7.0970025793e-05 1.4827831485e+00 -2.5682557498e+00 1.4827831485e+00 2.5682557498e+00 
59800 4.9188210428e+00 6.9624573627e-05 1.4827807554e+00 -2.5682516048e+00 1.4827807554e+00 2.5682516048e+00 
59900 4.9188210436e+00 6.9921950359e-05 1.4827807554e+00 -2.5682516048e+00 1.4827807554e+00 2.5682516048e+00 
60000 4.9188210444e+00 7.0217488523e-05 1.4827807554e+00 -2.5682516048e+00 1.4827807554e+00 2.5682516048e+00 
60100 4.9188210452e+00 7.0511123478e-05 1.4827807554e+00 -2.5682516048e+00 1.4827807554e+00 2.5682516048e+00 
60200 4.9188210459e+00 7.0802795089e-05 1.4827807554e+00 -2.5682516048e+00 1.4827807554e+00 2.5682516048e+00 
60300 4.9188210464e+00 6.9440392070e-05 1.4827783679e+00 -2.5682474695e+00 1.4827783679e+00 2.5682474695e+00 
60400 4.9188210472e+00 6.9717060128e-05 1.4827783679e+00 -2.5682474695e+00 1.4827783679e+00 2.5682474695e+00 
60500 4.9188210479e+00 6.9992028389e-05 1.4827783679e+00 -2.5682474695e+00 1.4827783679e+00 2.5682474695e+00 
60600 4.9188210486e+00 7.0265235802e-05 1.4827783679e+00 -2.5682474695e+00 1.4827783679e+00 2.5682474695e+00 
60700 4.9188210493e+00 7.0536625589e-05 1.4827783679e+00 -2.5682474695e+00 1.4827783679e+00 2.5682474695e+00 
60800 4.9188210500e+00 7.0806145006e-05 1.4827783679e+00 -2.5682474695e+00 1.4827783679e+00 2.5682474695e+00 
60900 4.9188210505e+00 6.9421631684e-05 1.4827759802e+00 -2.5682433340e+00 1.4827759802e+00 2.5682433340e+00 
61000 4.9188210512e+00 6.9676353332e-05 1.4827759802e+00 -2.5682433340e+00 1.4827759802e+00 2.5682433340e+00 
61100 4.9188210518e+00 6.9929487787e-05 1.4827759802e+00 -2.5682433340e+00 1.4827759802e+00 2.5682433340e+00 
61200 4.9188210525e+00 7.0180979747e-05 1.4827759802e+00 -2.5682433340e+00 1.4827759802e+00 2.5682433340e+00 
61300 4.9188210531e+00 7.0430777818e-05 1.4827759802e+00 -2.5682433340e+00 1.4827759802e+00 2.5682433340e+00 
61400 4.9188210538e+00 7.0678834303e-05 1.4827759802e+00 -2.5682433340e+00 1.4827759802e+00 2.5682433340e+00 
61500 4.9188210544e+00 7.0925105000e-05 1.4827759802e+00 -2.5682433340e+00 1.4827759802e+00 2.5682433340e+00 
61600 4.9188210548e+00 6.9514681764e-05 1.4827735886e+00 -2.5682391916e+00 1.4827735886e+00 2.5682391916e+00 
61700 4.9188210554e+00 6.9746329024e-05 1.4827735886e+00 -2.5682391916e+00 1.4827735886e+00 2.5682391916e+00 
61800 4.9188210560e+00 6.9976497030e-05 1.4827735886e+00 -2.5682391916e+00 1.4827735886e+00 2.5682391916e+00 
61900 4.9188210566e+00 7.0205137092e-05 1.4827735886e+00 -2.5682391916e+00 1.4827735886e+00 2.5682391916e+00 
62000 4.9188210572e+00 7.0432204017e-05 1.4827735886e+00 -2.5682391916e+00 1.4827735886e+00 2.5682391916e+00 
62100 4.9188210578e+00 7.0657655916e-05 1.4827735886e+00 -2.5682391916e+00 1.4827735886e+00 2.5682391916e+00 
62200 4.9188210584e+00 7.0881454028e-05 1.4827735886e+00 -2.5682391916e+00 1.4827735886e+00 2.5682391916e+00 
62300 4.9188210587e+00 6.9449732924e-05 1.4827711984e+00 -2.5682350517e+00 1.4827711984e+00 2.5682350517e+00 
62400 4.9188210593e+00 6.9659193183e-05 1.4827711984e+00 -2.5682350517e+00 1.4827711984e+00 2.5682350517e+00 
62500 4.9188210598e+00 6.9867320204e-05 1.4827711984e+00 -2.5682350517e+00 1.4827711984e+00 2.5682350517e+00 
62600 4.9188210604e+00 7.0074069437e-05 1.4827711984e+00 -2.5682350517e+00 1.4827711984e+00 2.5682350517e+00 
62700 4.9188210609e+00 7.0279399541e-05 1.4827711984e+00 -2.5682350517e+00 1.4827711984e+00 2.5682350517e+00 
62800 4.9188210614e+00 7.0483272208e-05 1.4827711984e+00 -2.5682350517e+00 1.4827711984e+00 2.5682350517e+00 
62900 4.9188210619e+00 7.0685651995e-05 1.4827711984e+00 -2.5682350517e+00 1.4827711984e+00 2.5682350517e+00 
63000 4.9188210625e+00 7.0886506169e-05 1.4827711984e+00 -2.5682350517e+00 1.4827711984e+00 2.5682350517e+00 
63100 4.9188210627e+00 6.9431876920e-05 1.4827688081e+00 -2.5682309115e+00 1.4827688081e+00 2.5682309115e+00 
63200 4.9188210632e+00 6.9618665271e-05 1.4827688081e+00 -2.5682309115e+00 1.4827688081e+00 2.5682309115e+00 
63300 4.9188210637e+00 6.9804264393e-05 1.4827688081e+00 -2.5682309115e+00 1.4827688081e+00 2.5682309115e+00 
63400 4.9188210642e+00 6.9988634306e-05 1.4827688081e+00 -2.5682309115e+00 1.4827688081e+00 2.5682309115e+00 
63500 4.9188210647e+00 7.0171737920e-05 1.4827688081e+00 -2.5682309115e+00 1.4827688081e+00 2.5682309115e+00 
63600 4.9188210652e+00 7.0353540876e-05 1.4827688081e+00 -2.5682309115e+00 1.4827688081e+00 2.5682309115e+00 
63700 4.9188210656e+00 7.0534011393e-05 1.4827688081e+00 -2.5682309115e+00 1.4827688081e+00 2.5682309115e+00 
63800 4.9188210661e+00 7.0713120127e-05 1.4827688081e+00 -2.5682309115e+00 1.4827688081e+00 2.5682309115e+00 
63900 4.9188210663e+00 6.9240974830e-05 1.4827664236e+00 -2.5682267815e+00 1.4827664236e+00 2.5682267815e+00 
64000 4.9188210668e+00 6.9406381242e-05 1.4827664236e+00 -2.5682267815e+00 1.4827664236e+00 2.5682267815e+00 
64100 4.9188210672e+00 6.9570769913e-05 1.4827664236e+00 -2.5682267815e+00 1.4827664236e+00 2.5682267815e+00 
64200 4.9188210676e+00 6.9734103336e-05 1.4827664236e+00 -2.5682267815e+00 1.4827664236e+00 2.5682267815e+00 
64300 4.9188210681e+00 6.9896346685e-05 1.4827664236e+00 -2.5682267815e+00 1.4827664236e+00 2.5682267815e+00 
64400 4.9188210685e+00 7.0057467662e-05 1.4827664236e+00 -2.5682267815e+00 1.4827664236e+00 2.5682267815e+00 
64500 4.9188210689e+00 7.0217436356e-05 1.4827664236e+00 -2.5682267815e+00 1.4827664236e+00 2.5682267815e+00 
64600 4.9188210693e+00 7.0376225110e-05 1.4827664236e+00 -2.5682267815e+00 1.4827664236e+00 2.5682267815e+00 
64700 4.9188210697e+00 7.0533808402e-05 1.4827664236e+00 -2.5682267815e+00 1.4827664236e+00 2.5682267815e+00 
64800 4.9188210701e+00 7.0690162718e-05 1.4827664236e+00 -2.5682267815e+00 1.4827664236e+00 2.5682267815e+00 
64900 4.9188210705e+00 7.0845266449e-05 1.4827664236e+00 -2.5682267815e+00 1.4827664236e+00 2.5682267815e+00 
65000 4.9188210706e+00 6.9346173150e-05 1.4827640347e+00 -2.5682226437e+00 1.4827640347e+00 2.5682226437e+00 
65100 4.9188210710e+00 6.9487797721e-05 1.4827640347e+00 -2.5682226437e+00 1.4827640347e+00 2.5682226437e+00 
65200 4.9188210714e+00 6.9628536828e-05 1.4827640347e+00 -2.5682226437e+00 1.4827640347e+00 2.5682226437e+00 
65300 4.9188210718e+00 6.9768358816e-05 1.4827640347e+00 -2.5682226437e+00 1.4827640347e+00 2.5682226437e+00 
65400 4.9188210721e+00 6.9907234307e-05 1.4827640347e+00 -2.5682226437e+00 1.4827640347e+00 2.5682226437e+00 
65500 4.9188210725e+00 7.0045136077e-05 1.4827640347e+00 -2.5682226437e+00 1.4827640347e+00 2.5682226437e+00 
65600 4.9188210729e+00 7.0182038934e-05 1.4827640347e+00 -2.5682226437e+00 1.4827640347e+00 2.5682226437e+00 
65700 4.9188210732e+00 7.0317919601e-05 1.4827640347e+00 -2.5682226437e+00 1.4827640347e+00 2.5682226437e+00 
65800 4.9188210735e+00 7.0452756616e-05 1.4827640347e+00 -2.5682226437e+00 1.4827640347e+00 2.5682226437e+00 
65900 4.9188210739e+00 7.0586530223e-05 1.4827640347e+00 -2.5682226437e+00 1.4827640347e+00 2.5682226437e+00 
66000 4.9188210742e+00 7.0719222289e-05 1.4827640347e+00 -2.5682226437e+00 1.4827640347e+00 2.5682226437e+00 
66100 4.9188210743e+00 6.9200847932e-05 1.4827616499e+00 -2.5682185132e+00 1.4827616499e+00 2.5682185132e+00 
66200 4.9188210746e+00 6.9320427654e-05 1.4827616499e+00 -2.5682185132e+00 1.4827616499e+00 2.5682185132e+00 
66300 4.9188210750e+00 6.9439299065e-05 1.4827616499e+00 -2.5682185132e+00 1.4827616499e+00 2.5682185132e+00 
66400 4.9188210753e+00 6.9557433010e-05 1.4827616499e+00 -2.5682185132e+00 1.4827616499e+00 2.5682185132e+00 
66500 4.9188210756e+00 6.9674802393e-05 1.4827616499e+00 -2.5682185132e+00 1.4827616499e+00 2.5682185132e+00 
66600 4.9188210759e+00 6.9791382065e-05 1.4827616499e+00 -2.5682185132e+00 1.4827616499e+00 2.5682185132e+00 
66700 4.9188210762e+00 6.9907148708e-05 1.4827616499e+00 -2.5682185132e+00 1.4827616499e+00 2.5682185132e+00 
66800 4.9188210765e+00 7.0022080736e-05 1.4827616499e+00 -2.5682185132e+00 1.4827616499e+00 2.5682185132e+00 
66900 4.9188210768e+00 7.0136158195e-05 1.4827616499e+00 -2.5682185132e+00 1.4827616499e+00 2.5682185132e+00 
67000 4.9188210771e+00 7.0249362674e-05 1.4827616499e+00 -2.5682185132e+00 1.4827616499e+00 2.5682185132e+00 
67100 4.9188210774e+00 7.0361677220e-05 1.4827616499e+00 -2.5682185132e+00 1.4827616499e+00 2.5682185132e+00 
67200 4.9188210777e+00 7.0473086257e-05 1.4827616499e+00 -2.5682185132e+00 1.4827616499e+00 2.5682185132e+00 
67300 4.9188210779e+00 7.0583575508e-05 1.4827616499e+00 -2.5682185132e+00 1.4827616499e+00 2.5682185132e+00 
67400 4.9188210782e+00 7.0693131930e-05 1.4827616499e+00 -2.5682185132e+00 1.4827616499e+00 2.5682185132e+00 
67500 4.9188210785e+00 7.0801743643e-05 1.4827616499e+00 -2.5682185132e+00 1.4827616499e+00 2.5682185132e+00 
67600 4.9188210785e+00 6.9257527020e-05 1.4827592625e+00 -2.5682143780e+00 1.4827592625e+00 2.5682143780e+00 
67700 4.9188210788e+00 6.9353304344e-05 1.4827592625e+00 -2.5682143780e+00 1.4827592625e+00 2.5682143780e+00 
67800 4.9188210790e+00 6.9448526977e-05 1.4827592625e+00 -2.5682143780e+00 1.4827592625e+00 2.5682143780e+00 
67900 4.9188210793e+00 6.9543170425e-05 1.4827592625e+00 -2.5682143780e+00 1.4827592625e+00 2.5682143780e+00 
68000 4.9188210795e+00 6.9637211919e-05 1.4827592625e+00 -2.5682143780e+00 1.4827592625e+00 2.5682143780e+00 
68100 4.9188210798e+00 6.9730630312e-05 1.4827592625e+00 -2.5682143780e+00 1.4827592625e+00 2.5682143780e+00 
68200 4.9188210800e+00 6.9823405986e-05 1.4827592625e+00 -2.5682143780e+00 1.4827592625e+00 2.5682143780e+00 
68300 4.9188210803e+00 6.9915520772e-05 1.4827592625e+00 -2.5682143780e+00 1.4827592625e+00 2.5682143780e+00 
68400 4.9188210805e+00 7.0006957859e-05 1.4827592625e+00 -2.5682143780e+00 1.4827592625e+00 2.5682143780e+00 
68500 4.9188210807e+00 7.0097701725e-05 1.4827592625e+00 -2.5682143780e+00 1.4827592625e+00 2.5682143780e+00 
68600 4.9188210810e+00 7.0187738061e-05 1.4827592625e+00 -2.5682143780e+00 1.4827592625e+00 2.5682143780e+00 
68700 4.9188210812e+00 7.0277053708e-05 1.4827592625e+00 -2.5682143780e+00 1.4827592625e+00 2.5682143780e+00 
68800 4.9188210814e+00 7.0365636589e-05 1.4827592625e+00 -2.5682143780e+00 1.4827592625e+00 2.5682143780e+00 
68900 4.9188210816e+00 7.0453475651e-05 1.4827592625e+00 -2.5682143780e+00 1.4827592625e+00 2.5682143780e+00 
69000 4.9188210819e+00 7.0540560812e-05 1.4827592625e+00 -2.5682143780e+00 1.4827592625e+00 2.5682143780e+00 
69100 4.9188210821e+00 7.0626882906e-05 1.4827592625e+00 -2.5682143780e+00 1.4827592625e+00 2.5682143780e+00 
69200 4.9188210823e+00 7.0712433632e-05 1.4827592625e+00 -2.5682143780e+00 1.4827592625e+00 2.5682143780e+00 
69300 4.9188210823e+00 6.9147434234e-05 1.4827568780e+00 -2.5682102479e+00 1.4827568780e+00 2.5682102479e+00 
69400 4.9188210825e+00 6.9220520612e-05 1.4827568780e+00 -2.5682102479e+00 1.4827568780e+00 2.5682102479e+00 
69500 4.9188210827e+00 6.9293234234e-05 1.4827568780e+00 -2.5682102479e+00 1.4827568780e+00 2.5682102479e+00 
69600 4.9188210829e+00 6.9365553170e-05 1.4827568780e+00 -2.5682102479e+00 1.4827568780e+00 2.5682102479e+00 
69700 4.9188210831e+00 6.9437456990e-05 1.4827568780e+00 -2.5682102479e+00 1.4827568780e+00 2.5682102479e+00 
69800 4.9188210833e+00 6.9508926671e-05 1.4827568780e+00 -2.5682102479e+00 1.4827568780e+00 2.5682102479e+00 
69900 4.9188210834e+00 6.9579944521e-05 1.4827568780e+00 -2.5682102479e+00 1.4827568780e+00 2.5682102479e+00 
70000 4.9188210836e+00 6.9650494096e-05 1.4827568780e+00 -2.5682102479e+00 1.4827568780e+00 2.5682102479e+00 
70100 4.9188210838e+00 6.9720560135e-05 1.4827568780e+00 -2.5682102479e+00 1.4827568780e+00 2.5682102479e+00 
70200 4.9188210840e+00 6.9790128493e-05 1.4827568780e+00 -2.5682102479e+00 1.4827568780e+00 2.5682102479e+00 
70300 4.9188210842e+00 6.9859186071e-05 1.4827568780e+00 -2.5682102479e+00 1.4827568780e+00 2.5682102479e+00 
70400 4.9188210844e+00 6.9927720767e-05 1.4827568780e+00 -2.5682102479e+00 1.4827568780e+00 2.5682102479e+00 
70500 4.9188210845e+00 6.9995721412e-05 1.4827568780e+00 -2.5682102479e+00 1.4827568780e+00 2.5682102479e+00 
70600 4.9188210847e+00 7.0063177725e-05 1.4827568780e+00 -2.5682102479e+00 1.4827568780e+00 2.5682102479e+00 
70700 4.9188210849e+00 7.0130080260e-05 1.4827568780e+00 -2.5682102479e+00 1.4827568780e+00 2.5682102479e+00 
70800 4.9188210850e+00 7.0196420362e-05 1.4827568780e+00 -2.5682102479e+00 1.4827568780e+00 2.5682102479e+00 
70900 4.9188210852e+00 7.0262190124e-05 1.4827568780e+00 -2.5682102479e+00 1.4827568780e+00 2.5682102479e+00 
71000 4.9188210854e+00 7.0327382345e-05 1.4827568780e+00 -2.5682102479e+00 1.4827568780e+00 2.5682102479e+00 
71100 4.9188210855e+00 7.0391990493e-05 1.4827568780e+00 -2.5682102479e+00 1.4827568780e+00 2.5682102479e+00 
71200 4.9188210857e+00 7.0456008670e-05 1.4827568780e+00 -2.5682102479e+00 1.4827568780e+00 2.5682102479e+00 
71300 4.9188210858e+00 7.0519431580e-05 1.4827568780e+00 -2.5682102479e+00 1.4827568780e+00 2.5682102479e+00 
71400 4.9188210860e+00 7.0582254490e-05 1.4827568780e+00 -2.5682102479e+00 1.4827568780e+00 2.5682102479e+00 
71500 4.9188210861e+00 7.0644473210e-05 1.4827568780e+00 -2.5682102479e+00 1.4827568780e+00 2.5682102479e+00 
71600 4.9188210863e+00 7.0706084056e-05 1.4827568780e+00 -2.5682102479e+00 1.4827568780e+00 2.5682102479e+00 
71700 4.9188210864e+00 7.0767083830e-05 1.4827568780e+00 -2.5682102479e+00 1.4827568780e+00 2.5682102479e+00 
71800 4.9188210864e+00 6.9176443285e-05 1.4827544916e+00 -2.5682061147e+00 1.4827544916e+00 2.5682061147e+00 
71900 4.9188210865e+00 6.9225304692e-05 1.4827544916e+00 -2.5682061147e+00 1.4827544916e+00 2.5682061147e+00 
72000 4.9188210866e+00 6.9273967171e-05 1.4827544916e+00 -2.5682061147e+00 1.4827544916e+00 2.5682061147e+00 
72100 4.9188210868e+00 6.9322412546e-05 1.4827544916e+00 -2.5682061147e+00 1.4827544916e+00 2.5682061147e+00 
72200 4.9188210869e+00 6.9370623850e-05 1.4827544916e+00 -2.5682061147e+00 1.4827544916e+00 2.5682061147e+00 
72300 4.9188210870e+00 6.9418585253e-05 1.4827544916e+00 -2.5682061147e+00 1.4827544916e+00 2.5682061147e+00 
72400 4.9188210872e+00 6.9466281996e-05 1.4827544916e+00 -2.5682061147e+00 1.4827544916e+00 2.5682061147e+00 
72500 4.9188210873e+00 6.9513700325e-05 1.4827544916e+00 -2.5682061147e+00 1.4827544916e+00 2.5682061147e+00 
72600 4.9188210874e+00 6.9560827439e-05 1.4827544916e+00 -2.5682061147e+00 1.4827544916e+00 2.5682061147e+00 
72700 4.9188210876e+00 6.9607651429e-05 1.4827544916e+00 -2.5682061147e+00 1.4827544916e+00 2.5682061147e+00 
72800 4.9188210877e+00 6.9654161230e-05 1.4827544916e+00 -2.5682061147e+00 1.4827544916e+00 2.5682061147e+00 
72900 4.9188210878e+00 6.9700346573e-05 1.4827544916e+00 -2.5682061147e+00 1.4827544916e+00 2.5682061147e+00 
73000 4.9188210879e+00 6.9746197939e-05 1.4827544916e+00 -2.5682061147e+00 1.4827544916e+00 2.5682061147e+00 
73100 4.9188210880e+00 6.9791706517e-05 1.4827544916e+00 -2.5682061147e+00 1.4827544916e+00 2.5682061147e+00 
73200 4.9188210882e+00 6.9836864164e-05 1.4827544916e+00 -2.5682061147e+00 1.4827544916e+00 2.5682061147e+00 
73300 4.9188210883e+00 6.9881663368e-05 1.4827544916e+00 -2.5682061147e+00 1.4827544916e+00 2.5682061147e+00 
73400 4.9188210884e+00 6.9926097215e-05 1.4827544916e+00 -2.5682061147e+00 1.4827544916e+00 2.5682061147e+00 
73500 4.9188210885e+00 6.9970159353e-05 1.4827544916e+00 -2.5682061147e+00 1.4827544916e+00 2.5682061147e+00 
73600 4.9188210886e+00 7.0013843962e-05 1.4827544916e+00 -2.5682061147e+00 1.4827544916e+00 2.5682061147e+00 
73700 4.9188210887e+00 7.0057145728e-05 1.4827544916e+00 -2.5682061147e+00 1.4827544916e+00 2.5682061147e+00 
73800 4.9188210888e+00 7.0100059812e-05 1.4827544916e+00 -2.5682061147e+00 1.4827544916e+00 2.5682061147e+00 
73900 4.9188210889e+00 7.0142581825e-05 1.4827544916e+00 -2.5682061147e+00 1.4827544916e+00 2.5682061147e+00 
74000 4.9188210890e+00 7.0184707808e-05 1.4827544916e+00 -2.5682061147e+00 1.4827544916e+00 2.5682061147e+00 
74100 4.9188210892e+00 7.0226434202e-05 1.4827544916e+00 -2.5682061147e+00 1.4827544916e+00 2.5682061147e+00 
74200 4.9188210893e+00 7.0267757835e-05 1.4827544916e+00 -2.5682061147e+00 1.4827544916e+00 2.5682061147e+00 
74300 4.9188210894e+00 7.0308675894e-05 1.4827544916e+00 -2.5682061147e+00 1.4827544916e+00 2.5682061147e+00 
74400 4.9188210895e+00 7.0349185913e-05 1.4827544916e+00 -2.5682061147e+00 1.4827544916e+00 2.5682061147e+00 
74500 4.9188210896e+00 7.0389285750e-05 1.4827544916e+00 -2.5682061147e+00 1.4827544916e+00 2.5682061147e+00 
74600 4.9188210896e+00 7.0428973572e-05 1.4827544916e+00 -2.5682061147e+00 1.4827544916e+00 2.5682061147e+00 
74700 4.9188210897e+00 7.0468247839e-05 1.4827544916e+00 -2.5682061147e+00 1.4827544916e+00 2.5682061147e+00 
74800 4.9188210898e+00 7.0507107291e-05 1.4827544916e+00 -2.5682061147e+00 1.4827544916e+00 2.5682061147e+00 
74900 4.9188210899e+00 7.0545550928e-05 1.4827544916e+00 -2.5682061147e+00 1.4827544916e+00 2.5682061147e+00 
75000 4.9188210900e+00 7.0583578004e-05 1.4827544916e+00 -2.5682061147e+00 1.4827544916e+00 2.5682061147e+00 
75100 4.9188210901e+00 7.0621188008e-05 1.4827544916e+00 -2.5682061147e+00 1.4827544916e+00 2.5682061147e+00 
75200 4.9188210902e+00 7.0658380656e-05 1.4827544916e+00 -2.5682061147e+00 1.4827544916e+00 2.5682061147e+00 
75300 4.9188210903e+00 7.0695155877e-05 1.4827544916e+00 -2.5682061147e+00 1.4827544916e+00 2.5682061147e+00 
75400 4.9188210904e+00 7.0731513805e-05 1.4827544916e+00 -2.5682061147e+00 1.4827544916e+00 2.5682061147e+00 
75500 4.9188210902e+00 6.9117275895e-05 1.4827521065e+00 -2.5682019835e+00 1.4827521065e+00 2.5682019835e+00 
75600 4.9188210903e+00 6.9141897407e-05 1.4827521065e+00 -2.5682019835e+00 1.4827521065e+00 2.5682019835e+00 
75700 4.9188210904e+00 6.9166522018e-05 1.4827521065e+00 -2.5682019835e+00 1.4827521065e+00 2.5682019835e+00 
75800 4.9188210905e+00 6.9191133913e-05 1.4827521065e+00 -2.5682019835e+00 1.4827521065e+00 2.5682019835e+00 
75900 4.9188210906e+00 6.9215718267e-05 1.4827521065e+00 -2.5682019835e+00 1.4827521065e+00 2.5682019835e+00 
76000 4.9188210906e+00 6.9240261190e-05 1.4827521065e+00 -2.5682019835e+00 1.4827521065e+00 2.5682019835e+00 
76100 4.9188210907e+00 6.9264749670e-05 1.4827521065e+00 -2.5682019835e+00 1.4827521065e+00 2.5682019835e+00 
76200 4.9188210908e+00 6.9289171517e-05 1.4827521065e+00 -2.5682019835e+00 1.4827521065e+00 2.5682019835e+00 
76300 4.9188210909e+00 6.9313515319e-05 1.4827521065e+00 -2.5682019835e+00 1.4827521065e+00 2.5682019835e+00 
76400 4.9188210909e+00 6.9337770390e-05 1.4827521065e+00 -2.5682019835e+00 1.4827521065e+00 2.5682019835e+00 
76500 4.9188210910e+00 6.9361926732e-05 1.4827521065e+00 -2.5682019835e+00 1.4827521065e+00 2.5682019835e+00 
76600 4.9188210911e+00 6.9385974992e-05 1.4827521065e+00 -2.5682019835e+00 1.4827521065e+00 2.5682019835e+00 
76700 4.9188210911e+00 6.9409906425e-05 1.4827521065e+00 -2.5682019835e+00 1.4827521065e+00 2.5682019835e+00 
76800 4.9188210912e+00 6.9433712862e-05 1.4827521065e+00 -2.5682019835e+00 1.4827521065e+00 2.5682019835e+00 
76900 4.9188210913e+00 6.9457386667e-05 1.4827521065e+00 -2.5682019835e+00 1.4827521065e+00 2.5682019835e+00 
77000 4.9188210914e+00 6.9480920719e-05 1.4827521065e+00 -2.5682019835e+00 1.4827521065e+00 2.5682019835e+00 
77100 4.9188210914e+00 6.9504308374e-05 1.4827521065e+00 -2.5682019835e+00 1.4827521065e+00 2.5682019835e+00 
77200 4.9188210915e+00 6.9527543442e-05 1.4827521065e+00 -2.5682019835e+00 1.4827521065e+00 2.5682019835e+00 
77300 4.9188210916e+00 6.9550620159e-05 1.4827521065e+00 -2.5682019835e+00 1.4827521065e+00 2.5682019835e+00 
77400 4.9188210916e+00 6.9573533165e-05 1.4827521065e+00 -2.5682019835e+00 1.4827521065e+00 2.5682019835e+00 
77500 4.9188210917e+00 6.9596277480e-05 1.4827521065e+00 -2.5682019835e+00 1.4827521065e+00 2.5682019835e+00 
77600 4.9188210917e+00 6.9618848485e-05 1.4827521065e+00 -2.5682019835e+00 1.4827521065e+00 2.5682019835e+00 
77700 4.9188210918e+00 6.9641241902e-05 1.4827521065e+00 -2.5682019835e+00 1.4827521065e+00 2.5682019835e+00 
77800 4.9188210919e+00 6.9663453773e-05 1.4827521065e+00 -2.5682019835e+00 1.4827521065e+00 2.5682019835e+00 
77900 4.9188210919e+00 6.9685480445e-05 1.4827521065e+00 -2.5682019835e+00 1.4827521065e+00 2.5682019835e+00 
78000 4.9188210920e+00 6.9707318554e-05 1.4827521065e+00 -2.5682019835e+00 1.4827521065e+00 2.5682019835e+00 
78100 4.9188210920e+00 6.9728965008e-05 1.4827521065e+00 -2.5682019835e+00 1.4827521065e+00 2.5682019835e+00 
78200 4.9188210921e+00 6.9750416974e-05 1.4827521065e+00 -2.5682019835e+00 1.4827521065e+00 2.5682019835e+00 
78300 4.9188210922e+00 6.9771671861e-05 1.4827521065e+00 -2.5682019835e+00 1.4827521065e+00 2.5682019835e+00 
78400 4.9188210922e+00 6.9792727315e-05 1.4827521065e+00 -2.5682019835e+00 1.4827521065e+00 2.5682019835e+00 
78500 4.9188210923e+00 6.9813581197e-05 1.4827521065e+00 -2.5682019835e+00 1.4827521065e+00 2.5682019835e+00 
78600 4.9188210923e+00 6.9834231579e-05 1.4827521065e+00 -2.5682019835e+00 1.4827521065e+00 2.5682019835e+00 
78700 4.9188210924e+00 6.9854676731e-05 1.4827521065e+00 -2.5682019835e+00 1.4827521065e+00 2.5682019835e+00 
78800 4.9188210924e+00 6.9874915111e-05 1.4827521065e+00 -2.5682019835e+00 1.4827521065e+00 2.5682019835e+00 
78900 4.9188210925e+00 6.9894945354e-05 1.4827521065e+00 -2.5682019835e+00 1.4827521065e+00 2.5682019835e+00 
79000 4.9188210925e+00 6.9914766265e-05 1.4827521065e+00 -2.5682019835e+00 1.4827521065e+00 2.5682019835e+00 
79100 4.9188210926e+00 6.9934376811e-05 1.4827521065e+00 -2.5682019835e+00 1.4827521065e+00 2.5682019835e+00 
79200 4.9188210926e+00 6.9953776110e-05 1.4827521065e+00 -2.5682019835e+00 1.4827521065e+00 2.5682019835e+00 
79300 4.9188210926e+00 6.9956475111e-05 1.4827521065e+00 -2.5682019835e+00 1.4827521065e+00 2.5682019835e+00 
79300 4.9188210926e+00 6.9956475111e-05 1.4827521065e+00 -2.5682019835e+00 1.4827521065e+00 2.5682019835e+00 
