# step Hamiltonian StressXX CellTensor1 CellTensor2 CellTensor3 CellTensor4 
0 5.3856927355e+00 1.4746544287e-01 2.2220832177e+00 -3.8487610317e+00 2.2220832177e+00 3.8487610317e+00 
100 5.3867732250e+00 1.5075864805e-01 2.2220832177e+00 -3.8487610317e+00 2.2220832177e+00 3.8487610317e+00 
200 5.3875795617e+00 1.5375605777e-01 2.2186918004e+00 -3.8428869246e+00 2.2186918004e+00 3.8428869246e+00 
300 5.3885171106e+00 1.5677480461e-01 2.2152276875e+00 -3.8368869052e+00 2.2152276875e+00 3.8368869052e+00 
400 5.3895536391e+00 1.5980519921e-01 2.2116900602e+00 -3.8307595549e+00 2.2116900602e+00 3.8307595549e+00 
500 5.3906594910e+00 1.6283775707e-01 2.2080783059e+00 -3.8245038130e+00 2.2080783059e+00 3.8245038130e+00 
600 5.3918075142e+00 1.6586322249e-01 2.2043920155e+00 -3.8181189706e+00 2.2043920155e+00 3.8181189706e+00 
700 5.3929729795e+00 1.6887258726e-01 2.2006309793e+00 -3.8116046648e+00 2.2006309793e+00 3.8116046648e+00 
800 5.3941334958e+00 1.7185710621e-01 2.1967951833e+00 -3.8049608713e+00 2.1967951833e+00 3.8049608713e+00 
900 5.3952689204e+00 1.7480831111e-01 2.1928848048e+00 -3.7981878970e+00 2.1928848048e+00 3.7981878970e+00 
1000 5.3963612676e+00 1.7771802397e-01 2.1889002074e+00 -3.7912863719e+00 2.1889002074e+00 3.7912863719e+00 
1100 5.3973946149e+00 1.8057837023e-01 2.1848419368e+00 -3.7842572410e+00 2.1848419368e+00 3.7842572410e+00 
1200 5.3983550079e+00 1.8338179222e-01 2.1807107149e+00 -3.7771017548e+00 2.1807107149e+00 3.7771017548e+00 
1300 5.3992303643e+00 1.8612106295e-01 2.1765074350e+00 -3.7698214605e+00 2.1765074350e+00 3.7698214605e+00 
1400 5.4000103776e+00 1.8878930007e-01 2.1722331559e+00 -3.7624181919e+00 2.1722331559e+00 3.7624181919e+00 
1500 5.4006864190e+00 1.9137998000e-01 2.1678890958e+00 -3.7548940591e+00 2.1678890958e+00 3.7548940591e+00 
1600 5.4012514410e+00 1.9388695182e-01 2.1634766260e+00 -3.7472514372e+00 2.1634766260e+00 3.7472514372e+00 
1700 5.4016998793e+00 1.9630445058e-01 2.1589972643e+00 -3.7394929552e+00 2.1589972643e+00 3.7394929552e+00 
1800 5.4020275556e+00 1.9862710997e-01 2.1544526682e+00 -3.7316214838e+00 2.1544526682e+00 3.7316214838e+00 
1900 5.4022315810e+00 2.0084997365e-01 2.1498446271e+00 -3.7236401226e+00 2.1498446271e+00 3.7236401226e+00 
2000 5.4023102594e+00 2.0296850522e-01 2.1451750553e+00 -3.7155521869e+00 2.1451750553e+00 3.7155521869e+00 
2100 5.4022629928e+00 2.0497859640e-01 2.1404459835e+00 -3.7073611942e+00 2.1404459835e+00 3.7073611942e+00 
2200 5.4020901874e+00 2.0687657319e-01 2.1356595510e+00 -3.6990708500e+00 2.1356595510e+00 3.6990708500e+00 
2300 5.4017931609e+00 2.0865919987e-01 2.1308179975e+00 -3.6906850333e+00 2.1308179975e+00 3.6906850333e+00 
2400 5.4013740535e+00 2.1032368052e-01 2.1259236540e+00 -3.6822077817e+00 2.1259236540e+00 3.6822077817e+00 
2500 5.4008357390e+00 2.1186765822e-01 2.1209789344e+00 -3.6736432761e+00 2.1209789344e+00 3.6736432761e+00 
2600 5.4001817407e+00 2.1328921156e-01 2.1159863268e+00 -3.6649958262e+00 2.1159863268e+00 3.6649958262e+00 
2700 5.3994161491e+00 2.1458684877e-01 2.1109483845e+00 -3.6562698542e+00 2.1109483845e+00 3.6562698542e+00 
2800 5.3985435433e+00 2.1575949937e-01 2.1058677173e+00 -3.6474698803e+00 2.1058677173e+00 3.6474698803e+00 
2900 5.3975689163e+00 2.1680650345e-01 2.1007469823e+00 -3.6386005072e+00 2.1007469823e+00 3.6386005072e+00 
3000 5.3964976044e+00 2.1772759875e-01 2.0955888760e+00 -3.6296664050e+00 2.0955888760e+00 3.6296664050e+00 
3100 5.3953352197e+00 2.1852290581e-01 2.0903961251e+00 -3.6206722967e+00 2.0903961251e+00 3.6206722967e+00 
3200 5.3940875880e+00 2.1919291128e-01 2.0851714787e+00 -3.6116229437e+00 2.0851714787e+00 3.6116229437e+00 
3300 5.3927606906e+00 2.1973844962e-01 2.0799177000e+00 -3.6025231319e+00 2.0799177000e+00 3.6025231319e+00 
3400 5.3913606104e+00 2.2016068365e-01 2.0746375583e+00 -3.5933776583e+00 2.0746375583e+00 3.5933776583e+00 
3500 5.3898934829e+00 2.2046108386e-01 2.0693338223e+00 -3.5841913181e+00 2.0693338223e+00 3.5841913181e+00 
3600 5.3883654509e+00 2.2064140710e-01 2.0640092524e+00 -3.5749688924e+00 2.0640092524e+00 3.5749688924e+00 
3700 5.3867826246e+00 2.2070367464e-01 2.0586665939e+00 -3.5657151364e+00 2.0586665939e+00 3.5657151364e+00 
3800 5.3851510446e+00 2.2065014990e-01 2.0533085712e+00 -3.5564347689e+00 2.0533085712e+00 3.5564347689e+00 
3900 5.3834766503e+00 2.2048331621e-01 2.0479378814e+00 -3.5471324614e+00 2.0479378814e+00 3.5471324614e+00 
4000 5.3817652511e+00 2.2020585459e-01 2.0425571892e+00 -3.5378128290e+00 2.0425571892e+00 3.5378128290e+00 
4100 5.3800225022e+00 2.1982062192e-01 2.0371691211e+00 -3.5284804214e+00 2.0371691211e+00 3.5284804214e+00 
4200 5.3782538834e+00 2.1933062955e-01 2.0317762617e+00 -3.5191397148e+00 2.0317762617e+00 3.5191397148e+00 
4300 5.3764646810e+00 2.1873902257e-01 2.0263811484e+00 -3.5097951046e+00 2.0263811484e+00 3.5097951046e+00 
4400 5.3746599735e+00 2.1804905977e-01 2.0209862685e+00 -3.5004508984e+00 2.0209862685e+00 3.5004508984e+00 
4500 5.3728446194e+00 2.1726409450e-01 2.0155940548e+00 -3.4911113104e+00 2.0155940548e+00 3.4911113104e+00 
4600 5.3710232480e+00 2.1638755640e-01 2.0102068835e+00 -3.4817804560e+00 2.0102068835e+00 3.4817804560e+00 
4700 5.3692002520e+00 2.1542293414e-01 2.0048270707e+00 -3.4724623468e+00 2.0048270707e+00 3.4724623468e+00 
4800 5.3673797834e+00 2.1437375916e-01 1.9994568703e+00 -3.4631608870e+00 1.9994568703e+00 3.4631608870e+00 
4900 5.3655657498e+00 2.1324359046e-01 1.9940984725e+00 -3.4538798697e+00 1.9940984725e+00 3.4538798697e+00 
5000 5.3637618137e+00 2.1203600043e-01 1.9887540013e+00 -3.4446229740e+00 1.9887540013e+00 3.4446229740e+00 
5100 5.3619713929e+00 2.1075456173e-01 1.9834255137e+00 -3.4353937628e+00 1.9834255137e+00 3.4353937628e+00 
5200 5.3601976619e+00 2.0940283524e-01 1.9781149987e+00 -3.4261956810e+00 1.9781149987e+00 3.4261956810e+00 
5300 5.3584435551e+00 2.0798435899e-01 1.9728243761e+00 -3.4170320538e+00 1.9728243761e+00 3.4170320538e+00 
5400 5.3567117706e+00 2.0650263810e-01 1.9675554963e+00 -3.4079060863e+00 1.9675554963e+00 3.4079060863e+00 
5500 5.3550047754e+00 2.0496113567e-01 1.9623101398e+00 -3.3988208624e+00 1.9623101398e+00 3.3988208624e+00 
5600 5.3533248109e+00 2.0336326460e-01 1.9570900175e+00 -3.3897793453e+00 1.9570900175e+00 3.3897793453e+00 
5700 5.3516738992e+00 2.0171238031e-01 1.9518967703e+00 -3.3807843772e+00 1.9518967703e+00 3.3807843772e+00 
5800 5.3500538504e+00 2.0001177424e-01 1.9467319698e+00 -3.3718386804e+00 1.9467319698e+00 3.3718386804e+00 
5900 5.3484662696e+00 1.9826466819e-01 1.9415971187e+00 -3.3629448574e+00 1.9415971187e+00 3.3629448574e+00 
6000 5.3469125648e+00 1.9647420941e-01 1.9364936515e+00 -3.3541053929e+00 1.9364936515e+00 3.3541053929e+00 
6100 5.3453939555e+00 1.9464346639e-01 1.9314229351e+00 -3.3453226545e+00 1.9314229351e+00 3.3453226545e+00 
6200 5.3439114801e+00 1.9277542526e-01 1.9263862699e+00 -3.3365988946e+00 1.9263862699e+00 3.3365988946e+00 
6300 5.3424660054e+00 1.9087298691e-01 1.9213848910e+00 -3.3279362520e+00 1.9213848910e+00 3.3279362520e+00 
6400 5.3410582347e+00 1.8893896459e-01 1.9164199686e+00 -3.3193367543e+00 1.9164199686e+00 3.3193367543e+00 
6500 5.3396887164e+00 1.8697608205e-01 1.9114926103e+00 -3.3108023194e+00 1.9114926103e+00 3.3108023194e+00 
6600 5.3383578531e+00 1.8498697228e-01 1.9066038616e+00 -3.3023347581e+00 1.9066038616e+00 3.3023347581e+00 
6700 5.3370659101e+00 1.8297417653e-01 1.9017547073e+00 -3.2939357766e+00 1.9017547073e+00 3.2939357766e+00 
6800 5.3358130239e+00 1.8094014389e-01 1.8969460735e+00 -3.2856069786e+00 1.8969460735e+00 3.2856069786e+00 
6900 5.3345992108e+00 1.7888723120e-01 1.8921788285e+00 -3.2773498680e+00 1.8921788285e+00 3.2773498680e+00 
7000 5.3334243754e+00 1.7681770327e-01 1.8874537846e+00 -3.2691658518e+00 1.8874537846e+00 3.2691658518e+00 
7100 5.3322883187e+00 1.7473373349e-01 1.8827716994e+00 -3.2610562424e+00 1.8827716994e+00 3.2610562424e+00 
7200 5.3311907460e+00 1.7263740467e-01 1.8781332777e+00 -3.2530222604e+00 1.8781332777e+00 3.2530222604e+00 
7300 5.3301312751e+00 1.7053071015e-01 1.8735391729e+00 -3.2450650375e+00 1.8735391729e+00 3.2450650375e+00 
7400 5.3291094437e+00 1.6841555515e-01 1.8689899886e+00 -3.2371856191e+00 1.8689899886e+00 3.2371856191e+00 
7500 5.3281247167e+00 1.6629375828e-01 1.8644862800e+00 -3.2293849669e+00 1.8644862800e+00 3.2293849669e+00 
7600 5.3271764933e+00 1.6416705331e-01 1.8600285559e+00 -3.2216639623e+00 1.8600285559e+00 3.2216639623e+00 
7700 5.3262641141e+00 1.6203709099e-01 1.8556172800e+00 -3.2140234083e+00 1.8556172800e+00 3.2140234083e+00 
7800 5.3253868676e+00 1.5990544112e-01 1.8512528725e+00 -3.2064640328e+00 1.8512528725e+00 3.2064640328e+00 
7900 5.3245439961e+00 1.5777359461e-01 1.8469357119e+00 -3.1989864913e+00 1.8469357119e+00 3.1989864913e+00 
8000 5.3237347022e+00 1.5564296572e-01 1.8426661360e+00 -3.1915913689e+00 1.8426661360e+00 3.1915913689e+00 
8100 5.3229581545e+00 1.5351489436e-01 1.8384444441e+00 -3.1842791841e+00 1.8384444441e+00 3.1842791841e+00 
8200 5.3222134925e+00 1.5139064844e-01 1.8342708979e+00 -3.1770503900e+00 1.8342708979e+00 3.1770503900e+00 
8300 5.3214998323e+00 1.4927142625e-01 1.8301457233e+00 -3.1699053780e+00 1.8301457233e+00 3.1699053780e+00 
8400 5.3208162709e+00 1.4715835890e-01 1.8260691117e+00 -3.1628444796e+00 1.8260691117e+00 3.1628444796e+00 
8500 5.3201618913e+00 1.4505251274e-01 1.8220412214e+00 -3.1558679690e+00 1.8220412214e+00 3.1558679690e+00 
8600 5.3195357662e+00 1.4295489185e-01 1.8180621791e+00 -3.1489760656e+00 1.8180621791e+00 3.1489760656e+00 
8700 5.3189369621e+00 1.4086644047e-01 1.8141320809e+00 -3.1421689358e+00 1.8141320809e+00 3.1421689358e+00 
8800 5.3183645433e+00 1.3878804539e-01 1.8102509940e+00 -3.1354466960e+00 1.8102509940e+00 3.1354466960e+00 
8900 5.3178175746e+00 1.3672053842e-01 1.8064189575e+00 -3.1288094141e+00 1.8064189575e+00 3.1288094141e+00 
9000 5.3172951252e+00 1.3466469871e-01 1.8026359839e+00 -3.1222571117e+00 1.8026359839e+00 3.1222571117e+00 
9100 5.3167962707e+00 1.3262125512e-01 1.7989020605e+00 -3.1157897666e+00 1.7989020605e+00 3.1157897666e+00 
9200 5.3163200965e+00 1.3059088847e-01 1.7952171498e+00 -3.1094073140e+00 1.7952171498e+00 3.1094073140e+00 
9300 5.3158656997e+00 1.2857423382e-01 1.7915811912e+00 -3.1031096491e+00 1.7915811912e+00 3.1031096491e+00 
9400 5.3154321912e+00 1.2657188260e-01 1.7879941021e+00 -3.0968966285e+00 1.7879941021e+00 3.0968966285e+00 
9500 5.3150186976e+00 1.2458438479e-01 1.7844557784e+00 -3.0907680720e+00 1.7844557784e+00 3.0907680720e+00 
9600 5.3146243633e+00 1.2261225091e-01 1.7809660958e+00 -3.0847237644e+00 1.7809660958e+00 3.0847237644e+00 
9700 5.3142483512e+00 1.2065595407e-01 1.7775249108e+00 -3.0787634571e+00 1.7775249108e+00 3.0787634571e+00 
9800 5.3138898446e+00 1.1871593184e-01 1.7741320614e+00 -3.0728868697e+00 1.7741320614e+00 3.0728868697e+00 
9900 5.3135480481e+00 1.1679258815e-01 1.7707873682e+00 -3.0670936912e+00 1.7707873682e+00 3.0670936912e+00 
10000 5.3132221884e+00 1.1488629501e-01 1.7674906350e+00 -3.0613835818e+00 1.7674906350e+00 3.0613835818e+00 
10100 5.3129115149e+00 1.1299739428e-01 1.7642416497e+00 -3.0557561742e+00 1.7642416497e+00 3.0557561742e+00 
10200 5.3126153009e+00 1.1112619924e-01 1.7610401850e+00 -3.0502110747e+00 1.7610401850e+00 3.0502110747e+00 
10300 5.3123328434e+00 1.0927299620e-01 1.7578859993e+00 -3.0447478647e+00 1.7578859993e+00 3.0447478647e+00 
10400 5.3120634638e+00 1.0743804598e-01 1.7547788371e+00 -3.0393661019e+00 1.7547788371e+00 3.0393661019e+00 
10500 5.3118065078e+00 1.0562158531e-01 1.7517184300e+00 -3.0340653213e+00 1.7517184300e+00 3.0340653213e+00 
10600 5.3115613458e+00 1.0382382817e-01 1.7487044971e+00 -3.0288450364e+00 1.7487044971e+00 3.0288450364e+00 
10700 5.3113273726e+00 1.0204496712e-01 1.7457367457e+00 -3.0237047402e+00 1.7457367457e+00 3.0237047402e+00 
10800 5.3111040075e+00 1.0028517446e-01 1.7428148720e+00 -3.0186439065e+00 1.7428148720e+00 3.0186439065e+00 
10900 5.3108906941e+00 9.8544603395e-02 1.7399385614e+00 -3.0136619905e+00 1.7399385614e+00 3.0136619905e+00 
11000 5.3106868997e+00 9.6823389118e-02 1.7371074894e+00 -3.0087584298e+00 1.7371074894e+00 3.0087584298e+00 
11100 5.3104921153e+00 9.5121649834e-02 1.7343213216e+00 -3.0039326457e+00 1.7343213216e+00 3.0039326457e+00 
11200 5.3103058550e+00 9.3439487718e-02 1.7315797148e+00 -2.9991840435e+00 1.7315797148e+00 2.9991840435e+00 
11300 5.3101276559e+00 9.1776989822e-02 1.7288823171e+00 -2.9945120135e+00 1.7288823171e+00 2.9945120135e+00 
11400 5.3099570769e+00 9.0134228925e-02 1.7262287683e+00 -2.9899159323e+00 1.7262287683e+00 2.9899159323e+00 
11500 5.3097936988e+00 8.8511264333e-02 1.7236187008e+00 -2.9853951626e+00 1.7236187008e+00 2.9853951626e+00 
11600 5.3096371233e+00 8.6908142626e-02 1.7210517393e+00 -2.9809490549e+00 1.7210517393e+00 2.9809490549e+00 
11700 5.3094869728e+00 8.5324898358e-02 1.7185275019e+00 -2.9765769475e+00 1.7185275019e+00 2.9765769475e+00 
11800 5.3093428894e+00 8.3761554719e-02 1.7160456002e+00 -2.9722781677e+00 1.7160456002e+00 2.9722781677e+00 
11900 5.3092045342e+00 8.2218124142e-02 1.7136056397e+00 -2.9680520320e+00 1.7136056397e+00 2.9680520320e+00 
12000 5.3090715871e+00 8.0694608883e-02 1.7112072199e+00 -2.9638978471e+00 1.7112072199e+00 2.9638978471e+00 
12100 5.3089437456e+00 7.9191001550e-02 1.7088499352e+00 -2.9598149102e+00 1.7088499352e+00 2.9598149102e+00 
12200 5.3088207245e+00 7.7707285613e-02 1.7065333748e+00 -2.9558025100e+00 1.7065333748e+00 2.9558025100e+00 
12300 5.3087022548e+00 7.6243435862e-02 1.7042571233e+00 -2.9518599267e+00 1.7042571233e+00 2.9518599267e+00 
12400 5.3085880837e+00 7.4799418848e-02 1.7020207607e+00 -2.9479864331e+00 1.7020207607e+00 2.9479864331e+00 
12500 5.3084779731e+00 7.3375193292e-02 1.6998238632e+00 -2.9441812950e+00 1.6998238632e+00 2.9441812950e+00 
12600 5.3083716994e+00 7.1970710460e-02 1.6976660030e+00 -2.9404437715e+00 1.6976660030e+00 2.9404437715e+00 
12700 5.3082690530e+00 7.0585914523e-02 1.6955467489e+00 -2.9367731156e+00 1.6955467489e+00 2.9367731156e+00 
12800 5.3081698372e+00 6.9220742888e-02 1.6934656663e+00 -2.9331685749e+00 1.6934656663e+00 2.9331685749e+00 
12900 5.3080738677e+00 6.7875126508e-02 1.6914223181e+00 -2.9296293919e+00 1.6914223181e+00 2.9296293919e+00 
13000 5.3079809721e+00 6.6548990174e-02 1.6894162640e+00 -2.9261548044e+00 1.6894162640e+00 2.9261548044e+00 
13100 5.3078909894e+00 6.5242252788e-02 1.6874470618e+00 -2.9227440462e+00 1.6874470618e+00 2.9227440462e+00 
13200 5.3078037690e+00 6.3954827618e-02 1.6855142669e+00 -2.9193963472e+00 1.6855142669e+00 2.9193963472e+00 
13300 5.3077191704e+00 6.2686622542e-02 1.6836174329e+00 -2.9161109343e+00 1.6836174329e+00 2.9161109343e+00 
13400 5.3076370627e+00 6.1437540275e-02 1.6817561117e+00 -2.9128870314e+00 1.6817561117e+00 2.9128870314e+00 
13500 5.3075573239e+00 6.0207478580e-02 1.6799298538e+00 -2.9097238600e+00 1.6799298538e+00 2.9097238600e+00 
13600 5.3074798404e+00 5.8996330478e-02 1.6781382087e+00 -2.9066206395e+00 1.6781382087e+00 2.9066206395e+00 
13700 5.3074045066e+00 5.7803984434e-02 1.6763807247e+00 -2.9035765880e+00 1.6763807247e+00 2.9035765880e+00 
13800 5.3073312242e+00 5.6630324546e-02 1.6746569496e+00 -2.9005909220e+00 1.6746569496e+00 2.9005909220e+00 
13900 5.3072599021e+00 5.5475230717e-02 1.6729664307e+00 -2.8976628573e+00 1.6729664307e+00 2.8976628573e+00 
14000 5.3071904556e+00 5.4338578825e-02 1.6713087149e+00 -2.8947916093e+00 1.6713087149e+00 2.8947916093e+00 
14100 5.3071228062e+00 5.3220240881e-02 1.6696833490e+00 -2.8919763931e+00 1.6696833490e+00 2.8919763931e+00 
14200 5.3070568810e+00 5.2120085185e-02 1.6680898802e+00 -2.8892164242e+00 1.6680898802e+00 2.8892164242e+00 
14300 5.3069926126e+00 5.1037976475e-02 1.6665278558e+00 -2.8865109185e+00 1.6665278558e+00 2.8865109185e+00 
14400 5.3069299385e+00 4.9973776072e-02 1.6649968237e+00 -2.8838590931e+00 1.6649968237e+00 2.8838590931e+00 
14500 5.3068688009e+00 4.8927342017e-02 1.6634963325e+00 -2.8812601661e+00 1.6634963325e+00 2.8812601661e+00 
14600 5.3068091460e+00 4.7898529209e-02 1.6620259317e+00 -2.8787133572e+00 1.6620259317e+00 2.8787133572e+00 
14700 5.3067509244e+00 4.6887189539e-02 1.6605851719e+00 -2.8762178881e+00 1.6605851719e+00 2.8762178881e+00 
14800 5.3066940900e+00 4.5893172016e-02 1.6591736051e+00 -2.8737729826e+00 1.6591736051e+00 2.8737729826e+00 
14900 5.3066386005e+00 4.4916322893e-02 1.6577907844e+00 -2.8713778669e+00 1.6577907844e+00 2.8713778669e+00 
15000 5.3065844163e+00 4.3956485795e-02 1.6564362649e+00 -2.8690317702e+00 1.6564362649e+00 2.8690317702e+00 
15100 5.3065315012e+00 4.3013501838e-02 1.6551096031e+00 -2.8667339247e+00 1.6551096031e+00 2.8667339247e+00 
15200 5.3064798212e+00 4.2087209750e-02 1.6538103578e+00 -2.8644835657e+00 1.6538103578e+00 2.8644835657e+00 
15300 5.3064293449e+00 4.1177445986e-02 1.6525380895e+00 -2.8622799325e+00 1.6525380895e+00 2.8622799325e+00 
15400 5.3063800434e+00 4.0284044849e-02 1.6512923612e+00 -2.8601222678e+00 1.6512923612e+00 2.8601222678e+00 
15500 5.3063318895e+00 3.9406838600e-02 1.6500727383e+00 -2.8580098189e+00 1.6500727383e+00 2.8580098189e+00 
15600 5.3062848579e+00 3.8545657576e-02 1.6488787884e+00 -2.8559418371e+00 1.6488787884e+00 2.8559418371e+00 
15700 5.3062389253e+00 3.7700330297e-02 1.6477100821e+00 -2.8539175784e+00 1.6477100821e+00 2.8539175784e+00 
15800 5.3061940695e+00 3.6870683581e-02 1.6465661926e+00 -2.8519363037e+00 1.6465661926e+00 2.8519363037e+00 
15900 5.3061502701e+00 3.6056542650e-02 1.6454466961e+00 -2.8499972788e+00 1.6454466961e+00 2.8499972788e+00 
16000 5.3061075078e+00 3.5257731242e-02 1.6443511718e+00 -2.8480997750e+00 1.6443511718e+00 2.8480997750e+00 
16100 5.3060657643e+00 3.4474071715e-02 1.6432792019e+00 -2.8462430688e+00 1.6432792019e+00 2.8462430688e+00 
16200 5.3060250225e+00 3.3705385154e-02 1.6422303722e+00 -2.8444264424e+00 1.6422303722e+00 2.8444264424e+00 
16300 5.3059852661e+00 3.2951491476e-02 1.6412042716e+00 -2.8426491839e+00 1.6412042716e+00 2.8426491839e+00 
16400 5.3059464797e+00 3.2212209533e-02 1.6402004925e+00 -2.8409105876e+00 1.6402004925e+00 2.8409105876e+00 
16500 5.3059086484e+00 3.1487357217e-02 1.6392186310e+00 -2.8392099536e+00 1.6392186310e+00 2.8392099536e+00 
16600 5.3058717583e+00 3.0776751555e-02 1.6382582868e+00 -2.8375465887e+00 1.6382582868e+00 2.8375465887e+00 
16700 5.3058357957e+00 3.0080208818e-02 1.6373190635e+00 -2.8359198062e+00 1.6373190635e+00 2.8359198062e+00 
16800 5.3058007476e+00 2.9397544611e-02 1.6364005683e+00 -2.8343289258e+00 1.6364005683e+00 2.8343289258e+00 
16900 5.3057666012e+00 2.8728573975e-02 1.6355024125e+00 -2.8327732743e+00 1.6355024125e+00 2.8327732743e+00 
17000 5.3057333442e+00 2.8073111484e-02 1.6346242113e+00 -2.8312521853e+00 1.6346242113e+00 2.8312521853e+00 
17100 5.3057009646e+00 2.7430971336e-02 1.6337655843e+00 -2.8297649996e+00 1.6337655843e+00 2.8297649996e+00 
17200 5.3056694506e+00 2.6801967447e-02 1.6329261547e+00 -2.8283110650e+00 1.6329261547e+00 2.8283110650e+00 
17300 5.3056387905e+00 2.6185913546e-02 1.6321055505e+00 -2.8268897368e+00 1.6321055505e+00 2.8268897368e+00 
17400 5.3056089730e+00 2.5582623259e-02 1.6313034037e+00 -2.8255003777e+00 1.6313034037e+00 2.8255003777e+00 
17500 5.3055799868e+00 2.4991910205e-02 1.6305193505e+00 -2.8241423577e+00 1.6305193505e+00 2.8241423577e+00 
17600 5.3055518206e+00 2.4413588077e-02 1.6297530317e+00 -2.8228150547e+00 1.6297530317e+00 2.8228150547e+00 
17700 5.3055244632e+00 2.3847470729e-02 1.6290040925e+00 -2.8215178540e+00 1.6290040925e+00 2.8215178540e+00 
17800 5.3054979036e+00 2.3293372260e-02 1.6282721827e+00 -2.8202501489e+00 1.6282721827e+00 2.8202501489e+00 
17900 5.3054721306e+00 2.2751107096e-02 1.6275569562e+00 -2.8190113404e+00 1.6275569562e+00 2.8190113404e+00 
18000 5.3054471332e+00 2.2220490069e-02 1.6268580720e+00 -2.8178008374e+00 1.6268580720e+00 2.8178008374e+00 
18100 5.3054229002e+00 2.1701336495e-02 1.6261751933e+00 -2.8166180568e+00 1.6261751933e+00 2.8166180568e+00 
18200 5.3053994203e+00 2.1193462252e-02 1.6255079881e+00 -2.8154624234e+00 1.6255079881e+00 2.8154624234e+00 
18300 5.3053766825e+00 2.0696683853e-02 1.6248561289e+00 -2.8143333703e+00 1.6248561289e+00 2.8143333703e+00 
18400 5.3053546754e+00 2.0210818519e-02 1.6242192931e+00 -2.8132303383e+00 1.6242192931e+00 2.8132303383e+00 
18500 5.3053333878e+00 1.9735684249e-02 1.6235971626e+00 -2.8121527766e+00 1.6235971626e+00 2.8121527766e+00 
18600 5.3053128081e+00 1.9271099890e-02 1.6229894240e+00 -2.8111001425e+00 1.6229894240e+00 2.8111001425e+00 
18700 5.3052929249e+00 1.8816885201e-02 1.6223957687e+00 -2.8100719014e+00 1.6223957687e+00 2.8100719014e+00 
18800 5.3052737266e+00 1.8372860922e-02 1.6218158928e+00 -2.8090675269e+00 1.6218158928e+00 2.8090675269e+00 
18900 5.3052552016e+00 1.7938848832e-02 1.6212494971e+00 -2.8080865008e+00 1.6212494971e+00 2.8080865008e+00 
19000 5.3052373382e+00 1.7514671812e-02 1.6206962872e+00 -2.8071283130e+00 1.6206962872e+00 2.8071283130e+00 
19100 5.3052201246e+00 1.7100153906e-02 1.6201559731e+00 -2.8061924617e+00 1.6201559731e+00 2.8061924617e+00 
19200 5.3052035490e+00 1.6695120371e-02 1.6196282701e+00 -2.8052784532e+00 1.6196282701e+00 2.8052784532e+00 
19300 5.3051875992e+00 1.6299397738e-02 1.6191128977e+00 -2.8043858020e+00 1.6191128977e+00 2.8043858020e+00 
19400 5.3051722635e+00 1.5912813861e-02 1.6186095803e+00 -2.8035140307e+00 1.6186095803e+00 2.8035140307e+00 
19500 5.3051575297e+00 1.5535197971e-02 1.6181180471e+00 -2.8026626702e+00 1.6181180471e+00 2.8026626702e+00 
19600 5.3051433856e+00 1.5166380718e-02 1.6176380317e+00 -2.8018312592e+00 1.6176380317e+00 2.8018312592e+00 
19700 5.3051298192e+00 1.4806194225e-02 1.6171692727e+00 -2.8010193448e+00 1.6171692727e+00 2.8010193448e+00 
19800 5.3051168182e+00 1.4454472126e-02 1.6167115131e+00 -2.8002264819e+00 1.6167115131e+00 2.8002264819e+00 
19900 5.3051043703e+00 1.4111049615e-02 1.6162645006e+00 -2.7994522335e+00 1.6162645006e+00 2.7994522335e+00 
20000 5.3050924633e+00 1.3775763478e-02 1.6158279874e+00 -2.7986961705e+00 1.6158279874e+00 2.7986961705e+00 
20100 5.3050810849e+00 1.3448452140e-02 1.6154017305e+00 -2.7979578719e+00 1.6154017305e+00 2.7979578719e+00 
20200 5.3050702228e+00 1.3128955696e-02 1.6149854912e+00 -2.7972369242e+00 1.6149854912e+00 2.7972369242e+00 
20300 5.3050598647e+00 1.2817115947e-02 1.6145790354e+00 -2.7965329221e+00 1.6145790354e+00 2.7965329221e+00 
20400 5.3050499984e+00 1.2512776433e-02 1.6141821334e+00 -2.7958454678e+00 1.6141821334e+00 2.7958454678e+00 
20500 5.3050406115e+00 1.2215782463e-02 1.6137945602e+00 -2.7951741713e+00 1.6137945602e+00 2.7951741713e+00 
20600 5.3050316917e+00 1.1925981144e-02 1.6134160949e+00 -2.7945186501e+00 1.6134160949e+00 2.7945186501e+00 
20700 5.3050232270e+00 1.1643221408e-02 1.6130465211e+00 -2.7938785296e+00 1.6130465211e+00 2.7938785296e+00 
20800 5.3050152051e+00 1.1367354039e-02 1.6126856268e+00 -2.7932534422e+00 1.6126856268e+00 2.7932534422e+00 
20900 5.3050076139e+00 1.1098231692e-02 1.6123332041e+00 -2.7926430282e+00 1.6123332041e+00 2.7926430282e+00 
21000 5.3050004414e+00 1.0835708917e-02 1.6119890495e+00 -2.7920469350e+00 1.6119890495e+00 2.7920469350e+00 
21100 5.3049936756e+00 1.0579642180e-02 1.6116529637e+00 -2.7914648174e+00 1.6116529637e+00 2.7914648174e+00 
21200 5.3049873045e+00 1.0329889877e-02 1.6113247516e+00 -2.7908963372e+00 1.6113247516e+00 2.7908963372e+00 
21300 5.3049813165e+00 1.0086312357e-02 1.6110042219e+00 -2.7903411635e+00 1.6110042219e+00 2.7903411635e+00 
21400 5.3049756998e+00 9.8487719269e-03 1.6106911878e+00 -2.7897989726e+00 1.6106911878e+00 2.7897989726e+00 
21500 5.3049704428e+00 9.6171328744e-03 1.6103854662e+00 -2.7892694473e+00 1.6103854662e+00 2.7892694473e+00 
21600 5.3049655340e+00 9.3912614730e-03 1.6100868782e+00 -2.7887522777e+00 1.6100868782e+00 2.7887522777e+00 
21700 5.3049609620e+00 9.1710259939e-03 1.6097952487e+00 -2.7882471605e+00 1.6097952487e+00 2.7882471605e+00 
21800 5.3049567157e+00 8.9562967144e-03 1.6095104064e+00 -2.7877537992e+00 1.6095104064e+00 2.7877537992e+00 
21900 5.3049527839e+00 8.7469459239e-03 1.6092321839e+00 -2.7872719038e+00 1.6092321839e+00 2.7872719038e+00 
22000 5.3049491557e+00 8.5428479299e-03 1.6089604177e+00 -2.7868011908e+00 1.6089604177e+00 2.7868011908e+00 
22100 5.3049458202e+00 8.3438790615e-03 1.6086949477e+00 -2.7863413834e+00 1.6086949477e+00 2.7863413834e+00 
22200 5.3049427668e+00 8.1499176719e-03 1.6084356178e+00 -2.7858922108e+00 1.6084356178e+00 2.7858922108e+00 
22300 5.3049399851e+00 7.9608441396e-03 1.6081822753e+00 -2.7854534086e+00 1.6081822753e+00 2.7854534086e+00 
22400 5.3049374647e+00 7.7765408678e-03 1.6079347710e+00 -2.7850247186e+00 1.6079347710e+00 2.7850247186e+00 
22500 5.3049351954e+00 7.5968922836e-03 1.6076929594e+00 -2.7846058886e+00 1.6076929594e+00 2.7846058886e+00 
22600 5.3049331673e+00 7.4217848346e-03 1.6074566983e+00 -2.7841966724e+00 1.6074566983e+00 2.7841966724e+00 
22700 5.3049313707e+00 7.2511069851e-03 1.6072258489e+00 -2.7837968296e+00 1.6072258489e+00 2.7837968296e+00 
22800 5.3049297958e+00 7.0847492111e-03 1.6070002758e+00 -2.7834061255e+00 1.6070002758e+00 2.7834061255e+00 
22900 5.3049284334e+00 6.9226039938e-03 1.6067798469e+00 -2.7830243314e+00 1.6067798469e+00 2.7830243314e+00 
23000 5.3049272741e+00 6.7645658123e-03 1.6065644332e+00 -2.7826512239e+00 1.6065644332e+00 2.7826512239e+00 
23100 5.3049263090e+00 6.6105311354e-03 1.6063539088e+00 -2.7822865850e+00 1.6063539088e+00 2.7822865850e+00 
23200 5.3049255292e+00 6.4603984116e-03 1.6061481512e+00 -2.7819302024e+00 1.6061481512e+00 2.7819302024e+00 
23300 5.3049249261e+00 6.3140680590e-03 1.6059470408e+00 -2.7815818689e+00 1.6059470408e+00 2.7815818689e+00 
23400 5.3049244913e+00 6.1714424537e-03 1.6057504609e+00 -2.7812413825e+00 1.6057504609e+00 2.7812413825e+00 
23500 5.3049242165e+00 6.0324259178e-03 1.6055582978e+00 -2.7809085463e+00 1.6055582978e+00 2.7809085463e+00 
23600 5.3049240938e+00 5.8969247055e-03 1.6053704407e+00 -2.7805831683e+00 1.6053704407e+00 2.7805831683e+00 
23700 5.3049241154e+00 5.7648469898e-03 1.6051867818e+00 -2.7802650617e+00 1.6051867818e+00 2.7802650617e+00 
23800 5.3049242736e+00 5.6361028473e-03 1.6050072158e+00 -2.7799540443e+00 1.6050072158e+00 2.7799540443e+00 
23900 5.3049245610e+00 5.5106042422e-03 1.6048316403e+00 -2.7796499386e+00 1.6048316403e+00 2.7796499386e+00 
24000 5.3049249706e+00 5.3882650105e-03 1.6046599554e+00 -2.7793525717e+00 1.6046599554e+00 2.7793525717e+00 
24100 5.3049254953e+00 5.2690008428e-03 1.6044920640e+00 -2.7790617753e+00 1.6044920640e+00 2.7790617753e+00 
24200 5.3049261284e+00 5.1527292661e-03 1.6043278716e+00 -2.7787773855e+00 1.6043278716e+00 2.7787773855e+00 
24300 5.3049268632e+00 5.0393696261e-03 1.6041672858e+00 -2.7784992429e+00 1.6041672858e+00 2.7784992429e+00 
24400 5.3049276935e+00 4.9288430675e-03 1.6040102172e+00 -2.7782271920e+00 1.6040102172e+00 2.7782271920e+00 
24500 5.3049286131e+00 4.8210725150e-03 1.6038565784e+00 -2.7779610818e+00 1.6038565784e+00 2.7779610818e+00 
24600 5.3049296160e+00 4.7159826531e-03 1.6037062845e+00 -2.7777007651e+00 1.6037062845e+00 2.7777007651e+00 
24700 5.3049306966e+00 4.6134999053e-03 1.6035592529e+00 -2.7774460989e+00 1.6035592529e+00 2.7774460989e+00 
24800 5.3049318493e+00 4.5135524133e-03 1.6034154031e+00 -2.7771969439e+00 1.6034154031e+00 2.7771969439e+00 
24900 5.3049330687e+00 4.4160700153e-03 1.6032746571e+00 -2.7769531646e+00 1.6032746571e+00 2.7769531646e+00 
25000 5.3049343496e+00 4.3209842241e-03 1.6031369388e+00 -2.7767146295e+00 1.6031369388e+00 2.7767146295e+00 
25100 5.3049356872e+00 4.2282282051e-03 1.6030021741e+00 -2.7764812103e+00 1.6030021741e+00 2.7764812103e+00 
25200 5.3049370767e+00 4.1377367534e-03 1.6028702913e+00 -2.7762527824e+00 1.6028702913e+00 2.7762527824e+00 
25300 5.3049385134e+00 4.0494462709e-03 1.6027412203e+00 -2.7760292249e+00 1.6027412203e+00 2.7760292249e+00 
25400 5.3049399930e+00 3.9632947429e-03 1.6026148932e+00 -2.7758104200e+00 1.6026148932e+00 2.7758104200e+00 
25500 5.3049415113e+00 3.8792217150e-03 1.6024912439e+00 -2.7755962531e+00 1.6024912439e+00 2.7755962531e+00 
25600 5.3049430642e+00 3.7971682691e-03 1.6023702082e+00 -2.7753866131e+00 1.6023702082e+00 2.7753866131e+00 
25700 5.3049446479e+00 3.7170769992e-03 1.6022517237e+00 -2.7751813919e+00 1.6022517237e+00 2.7751813919e+00 
25800 5.3049462587e+00 3.6388919877e-03 1.6021357297e+00 -2.7749804844e+00 1.6021357297e+00 2.7749804844e+00 
25900 5.3049478930e+00 3.5625587807e-03 1.6020221672e+00 -2.7747837885e+00 1.6020221672e+00 2.7747837885e+00 
26000 5.3049495475e+00 3.4880243640e-03 1.6019109791e+00 -2.7745912050e+00 1.6019109791e+00 2.7745912050e+00 
26100 5.3049512190e+00 3.4152371380e-03 1.6018021096e+00 -2.7744026375e+00 1.6018021096e+00 2.7744026375e+00 
26200 5.3049529045e+00 3.3441468935e-03 1.6016955047e+00 -2.7742179923e+00 1.6016955047e+00 2.7742179923e+00 
26300 5.3049546009e+00 3.2747047866e-03 1.6015911118e+00 -2.7740371787e+00 1.6015911118e+00 2.7740371787e+00 
26400 5.3049563058e+00 3.2068633142e-03 1.6014888801e+00 -2.7738601080e+00 1.6014888801e+00 2.7738601080e+00 
26500 5.3049580163e+00 3.1405762892e-03 1.6013887598e+00 -2.7736866946e+00 1.6013887598e+00 2.7736866946e+00 
26600 5.3049597300e+00 3.0757988155e-03 1.6012907029e+00 -2.7735168551e+00 1.6012907029e+00 2.7735168551e+00 
26700 5.3049614447e+00 3.0124872634e-03 1.6011946626e+00 -2.7733505085e+00 1.6011946626e+00 2.7733505085e+00 
26800 5.3049631581e+00 2.9505992446e-03 1.6011005936e+00 -2.7731875761e+00 1.6011005936e+00 2.7731875761e+00 
26900 5.3049648682e+00 2.8900935879e-03 1.6010084516e+00 -2.7730279815e+00 1.6010084516e+00 2.7730279815e+00 
27000 5.3049665730e+00 2.8309303141e-03 1.6009181939e+00 -2.7728716506e+00 1.6009181939e+00 2.7728716506e+00 
27100 5.3049682708e+00 2.7730706119e-03 1.6008297789e+00 -2.7727185113e+00 1.6008297789e+00 2.7727185113e+00 
27200 5.3049699598e+00 2.7164768128e-03 1.6007431661e+00 -2.7725684936e+00 1.6007431661e+00 2.7725684936e+00 
27300 5.3049716383e+00 2.6611123677e-03 1.6006583164e+00 -2.7724215296e+00 1.6006583164e+00 2.7724215296e+00 
27400 5.3049733051e+00 2.6069418217e-03 1.6005751916e+00 -2.7722775531e+00 1.6005751916e+00 2.7722775531e+00 
27500 5.3049749586e+00 2.5539307907e-03 1.6004937546e+00 -2.7721365001e+00 1.6004937546e+00 2.7721365001e+00 
27600 5.3049765977e+00 2.5020459373e-03 1.6004139695e+00 -2.7719983084e+00 1.6004139695e+00 2.7719983084e+00 
27700 5.3049782210e+00 2.4512549470e-03 1.6003358015e+00 -2.7718629173e+00 1.6003358015e+00 2.7718629173e+00 
27800 5.3049798276e+00 2.4015265049e-03 1.6002592164e+00 -2.7717302681e+00 1.6002592164e+00 2.7717302681e+00 
27900 5.3049814165e+00 2.3528302720e-03 1.6001841815e+00 -2.7716003038e+00 1.6001841815e+00 2.7716003038e+00 
28000 5.3049829867e+00 2.3051368624e-03 1.6001106645e+00 -2.7714729687e+00 1.6001106645e+00 2.7714729687e+00 
28100 5.3049845374e+00 2.2584178200e-03 1.6000386345e+00 -2.7713482091e+00 1.6000386345e+00 2.7713482091e+00 
28200 5.3049860679e+00 2.2126455963e-03 1.5999680612e+00 -2.7712259725e+00 1.5999680612e+00 2.7712259725e+00 
28300 5.3049875775e+00 2.1677935276e-03 1.5998989152e+00 -2.7711062080e+00 1.5998989152e+00 2.7711062080e+00 
28400 5.3049890655e+00 2.1238358128e-03 1.5998311678e+00 -2.7709888662e+00 1.5998311678e+00 2.7709888662e+00 
28500 5.3049905316e+00 2.0807474918e-03 1.5997647914e+00 -2.7708738988e+00 1.5997647914e+00 2.7708738988e+00 
28600 5.3049919752e+00 2.0385044234e-03 1.5996997589e+00 -2.7707612593e+00 1.5996997589e+00 2.7707612593e+00 
28700 5.3049933958e+00 1.9970832640e-03 1.5996360441e+00 -2.7706509020e+00 1.5996360441e+00 2.7706509020e+00 
28800 5.3049947933e+00 1.9564614466e-03 1.5995736215e+00 -2.7705427828e+00 1.5995736215e+00 2.7705427828e+00 
28900 5.3049961672e+00 1.9166171601e-03 1.5995124661e+00 -2.7704368587e+00 1.5995124661e+00 2.7704368587e+00 
29000 5.3049975173e+00 1.8775293283e-03 1.5994525540e+00 -2.7703330878e+00 1.5994525540e+00 2.7703330878e+00 
29100 5.3049988435e+00 1.8391775899e-03 1.5993938615e+00 -2.7702314294e+00 1.5993938615e+00 2.7702314294e+00 
29200 5.3050001456e+00 1.8015422787e-03 1.5993363657e+00 -2.7701318438e+00 1.5993363657e+00 2.7701318438e+00 
29300 5.3050014235e+00 1.7646044036e-03 1.5992800445e+00 -2.7700342926e+00 1.5992800445e+00 2.7700342926e+00 
29400 5.3050026772e+00 1.7283456296e-03 1.5992248761e+00 -2.7699387381e+00 1.5992248761e+00 2.7699387381e+00 
29500 5.3050039067e+00 1.6927482585e-03 1.5991708394e+00 -2.7698451439e+00 1.5991708394e+00 2.7698451439e+00 
29600 5.3050051119e+00 1.6577952106e-03 1.5991179139e+00 -2.7697534742e+00 1.5991179139e+00 2.7697534742e+00 
29700 5.3050062930e+00 1.6234700056e-03 1.5990660795e+00 -2.7696636944e+00 1.5990660795e+00 2.7696636944e+00 
29800 5.3050074500e+00 1.5897567455e-03 1.5990153167e+00 -2.7695757706e+00 1.5990153167e+00 2.7695757706e+00 
29900 5.3050085831e+00 1.5566400958e-03 1.5989656065e+00 -2.7694896700e+00 1.5989656065e+00 2.7694896700e+00 
30000 5.3050096924e+00 1.5241052692e-03 1.5989169303e+00 -2.7694053603e+00 1.5989169303e+00 2.7694053603e+00 
30100 5.3050107781e+00 1.4921380075e-03 1.5988692699e+00 -2.7693228102e+00 1.5988692699e+00 2.7693228102e+00 
30200 5.3050118404e+00 1.4607245655e-03 1.5988226079e+00 -2.7692419891e+00 1.5988226079e+00 2.7692419891e+00 
30300 5.3050128795e+00 1.4298516944e-03 1.5987769268e+00 -2.7691628672e+00 1.5987769268e+00 2.7691628672e+00 
30400 5.3050138957e+00 1.3995066257e-03 1.5987322100e+00 -2.7690854154e+00 1.5987322100e+00 2.7690854154e+00 
30500 5.3050148892e+00 1.3696770554e-03 1.5986884409e+00 -2.7690096052e+00 1.5986884409e+00 2.7690096052e+00 
30600 5.3050158603e+00 1.3403511285e-03 1.5986456036e+00 -2.7689354087e+00 1.5986456036e+00 2.7689354087e+00 
30700 5.3050168093e+00 1.3115174243e-03 1.5986036823e+00 -2.7688627989e+00 1.5986036823e+00 2.7688627989e+00 
30800 5.3050177365e+00 1.2831649409e-03 1.5985626618e+00 -2.7687917493e+00 1.5985626618e+00 2.7687917493e+00 
30900 5.3050186423e+00 1.2552830815e-03 1.5985225270e+00 -2.7687222338e+00 1.5985225270e+00 2.7687222338e+00 
31000 5.3050195269e+00 1.2278616400e-03 1.5984832633e+00 -2.7686542271e+00 1.5984832633e+00 2.7686542271e+00 
31100 5.3050203907e+00 1.2008907869e-03 1.5984448564e+00 -2.7685877043e+00 1.5984448564e+00 2.7685877043e+00 
31200 5.3050212341e+00 1.1743610564e-03 1.5984072922e+00 -2.7685226412e+00 1.5984072922e+00 2.7685226412e+00 
31300 5.3050220574e+00 1.1482633329e-03 1.5983705570e+00 -2.7684590140e+00 1.5983705570e+00 2.7684590140e+00 
31400 5.3050228610e+00 1.1225888380e-03 1.5983346373e+00 -2.7683967993e+00 1.5983346373e+00 2.7683967993e+00 
31500 5.3050236453e+00 1.0973291186e-03 1.5982995200e+00 -2.7683359743e+00 1.5982995200e+00 2.7683359743e+00 
31600 5.3050244106e+00 1.0724760341e-03 1.5982651921e+00 -2.7682765166e+00 1.5982651921e+00 2.7682765166e+00 
31700 5.3050251572e+00 1.0480217448e-03 1.5982316409e+00 -2.7682184043e+00 1.5982316409e+00 2.7682184043e+00 
31800 5.3050258857e+00 1.0239587002e-03 1.5981988541e+00 -2.7681616159e+00 1.5981988541e+00 2.7681616159e+00 
31900 5.3050265964e+00 1.0002796281e-03 1.5981668195e+00 -2.7681061303e+00 1.5981668195e+00 2.7681061303e+00 
32000 5.3050272896e+00 9.7697752307e-04 1.5981355250e+00 -2.7680519266e+00 1.5981355250e+00 2.7680519266e+00 
32100 5.3050279657e+00 9.5404563612e-04 1.5981049589e+00 -2.7679989846e+00 1.5981049589e+00 2.7679989846e+00 
32200 5.3050286252e+00 9.3147746431e-04 1.5980751097e+00 -2.7679472843e+00 1.5980751097e+00 2.7679472843e+00 
32300 5.3050292683e+00 9.0926674062e-04 1.5980459661e+00 -2.7678968060e+00 1.5980459661e+00 2.7678968060e+00 
32400 5.3050298956e+00 8.8740742420e-04 1.5980175168e+00 -2.7678475305e+00 1.5980175168e+00 2.7678475305e+00 
32500 5.3050305072e+00 8.6589369080e-04 1.5979897510e+00 -2.7677994387e+00 1.5979897510e+00 2.7677994387e+00 
32600 5.3050311037e+00 8.4471992361e-04 1.5979626579e+00 -2.7677525120e+00 1.5979626579e+00 2.7677525120e+00 
32700 5.3050316855e+00 8.2388070430e-04 1.5979362268e+00 -2.7677067321e+00 1.5979362268e+00 2.7677067321e+00 
32800 5.3050322527e+00 8.0337080430e-04 1.5979104473e+00 -2.7676620807e+00 1.5979104473e+00 2.7676620807e+00 
32900 5.3050328059e+00 7.8318517648e-04 1.5978853092e+00 -2.7676185403e+00 1.5978853092e+00 2.7676185403e+00 
33000 5.3050333454e+00 7.6331894693e-04 1.5978608024e+00 -2.7675760931e+00 1.5978608024e+00 2.7675760931e+00 
33100 5.3050338715e+00 7.4376740710e-04 1.5978369168e+00 -2.7675347221e+00 1.5978369168e+00 2.7675347221e+00 
33200 5.3050343847e+00 7.2452600620e-04 1.5978136426e+00 -2.7674944101e+00 1.5978136426e+00 2.7674944101e+00 
33300 5.3050348851e+00 7.0559034381e-04 1.5977909703e+00 -2.7674551404e+00 1.5977909703e+00 2.7674551404e+00 
33400 5.3050353732e+00 6.8695616272e-04 1.5977688901e+00 -2.7674168965e+00 1.5977688901e+00 2.7674168965e+00 
33500 5.3050358493e+00 6.6861934209e-04 1.5977473928e+00 -2.7673796620e+00 1.5977473928e+00 2.7673796620e+00 
33600 5.3050363137e+00 6.5057589079e-04 1.5977264691e+00 -2.7673434210e+00 1.5977264691e+00 2.7673434210e+00 
33700 5.3050367668e+00 6.3282194095e-04 1.5977061097e+00 -2.7673081575e+00 1.5977061097e+00 2.7673081575e+00 
33800 5.3050372089e+00 6.1535374182e-04 1.5976863056e+00 -2.7672738559e+00 1.5976863056e+00 2.7672738559e+00 
33900 5.3050376401e+00 5.9816765375e-04 1.5976670480e+00 -2.7672405008e+00 1.5976670480e+00 2.7672405008e+00 
34000 5.3050380610e+00 5.8126014252e-04 1.5976483280e+00 -2.7672080768e+00 1.5976483280e+00 2.7672080768e+00 
34100 5.3050384717e+00 5.6462777373e-04 1.5976301369e+00 -2.7671765689e+00 1.5976301369e+00 2.7671765689e+00 
34200 5.3050388726e+00 5.4826720752e-04 1.5976124662e+00 -2.7671459622e+00 1.5976124662e+00 2.7671459622e+00 
34300 5.3050392639e+00 5.3217519347e-04 1.5975953073e+00 -2.7671162421e+00 1.5975953073e+00 2.7671162421e+00 
34400 5.3050396458e+00 5.1634856563e-04 1.5975786518e+00 -2.7670873940e+00 1.5975786518e+00 2.7670873940e+00 
34500 5.3050400188e+00 5.0078423785e-04 1.5975624915e+00 -2.7670594035e+00 1.5975624915e+00 2.7670594035e+00 
34600 5.3050403830e+00 4.8547919923e-04 1.5975468181e+00 -2.7670322564e+00 1.5975468181e+00 2.7670322564e+00 
34700 5.3050407386e+00 4.7043050977e-04 1.5975316236e+00 -2.7670059388e+00 1.5975316236e+00 2.7670059388e+00 
34800 5.3050410860e+00 4.5563529624e-04 1.5975169000e+00 -2.7669804367e+00 1.5975169000e+00 2.7669804367e+00 
34900 5.3050414253e+00 4.4109074815e-04 1.5975026392e+00 -2.7669557364e+00 1.5975026392e+00 2.7669557364e+00 
35000 5.3050417569e+00 4.2679411399e-04 1.5974888336e+00 -2.7669318244e+00 1.5974888336e+00 2.7669318244e+00 
35100 5.3050420809e+00 4.1274269756e-04 1.5974754754e+00 -2.7669086872e+00 1.5974754754e+00 2.7669086872e+00 
35200 5.3050423975e+00 3.9893385449e-04 1.5974625568e+00 -2.7668863116e+00 1.5974625568e+00 2.7668863116e+00 
35300 5.3050427070e+00 3.8536498893e-04 1.5974500703e+00 -2.7668646844e+00 1.5974500703e+00 2.7668646844e+00 
35400 5.3050430096e+00 3.7203355041e-04 1.5974380085e+00 -2.7668437926e+00 1.5974380085e+00 2.7668437926e+00 
35500 5.3050433055e+00 3.5893703079e-04 1.5974263638e+00 -2.7668236234e+00 1.5974263638e+00 2.7668236234e+00 
35600 5.3050435948e+00 3.4607296141e-04 1.5974151289e+00 -2.7668041641e+00 1.5974151289e+00 2.7668041641e+00 
35700 5.3050438778e+00 3.3343891037e-04 1.5974042967e+00 -2.7667854021e+00 1.5974042967e+00 2.7667854021e+00 
35800 5.3050441547e+00 3.2103247997e-04 1.5973938598e+00 -2.7667673248e+00 1.5973938598e+00 2.7667673248e+00 
35900 5.3050444255e+00 3.0885130420e-04 1.5973838112e+00 -2.7667499201e+00 1.5973838112e+00 2.7667499201e+00 
36000 5.3050446906e+00 2.9689304649e-04 1.5973741438e+00 -2.7667331757e+00 1.5973741438e+00 2.7667331757e+00 
36100 5.3050449501e+00 2.8515539745e-04 1.5973648506e+00 -2.7667170795e+00 1.5973648506e+00 2.7667170795e+00 
36200 5.3050452041e+00 2.7363607285e-04 1.5973559248e+00 -2.7667016196e+00 1.5973559248e+00 2.7667016196e+00 
36300 5.3050454528e+00 2.6233281164e-04 1.5973473595e+00 -2.7666867841e+00 1.5973473595e+00 2.7666867841e+00 
36400 5.3050456964e+00 2.5124337413e-04 1.5973391480e+00 -2.7666725613e+00 1.5973391480e+00 2.7666725613e+00 
36500 5.3050459350e+00 2.4036554021e-04 1.5973312836e+00 -2.7666589397e+00 1.5973312836e+00 2.7666589397e+00 
36600 5.3050461686e+00 2.2969710781e-04 1.5973237596e+00 -2.7666459078e+00 1.5973237596e+00 2.7666459078e+00 
36700 5.3050463976e+00 2.1923589129e-04 1.5973165696e+00 -2.7666334543e+00 1.5973165696e+00 2.7666334543e+00 
36800 5.3050466220e+00 2.0897972011e-04 1.5973097070e+00 -2.7666215679e+00 1.5973097070e+00 2.7666215679e+00 
36900 5.3050468419e+00 1.9892643741e-04 1.5973031653e+00 -2.7666102375e+00 1.5973031653e+00 2.7666102375e+00 
37000 5.3050470575e+00 1.8907389886e-04 1.5972969384e+00 -2.7665994521e+00 1.5972969384e+00 2.7665994521e+00 
37100 5.3050472689e+00 1.7941997149e-04 1.5972910198e+00 -2.7665892009e+00 1.5972910198e+00 2.7665892009e+00 
37200 5.3050474762e+00 1.6996253258e-04 1.5972854035e+00 -2.7665794730e+00 1.5972854035e+00 2.7665794730e+00 
37300 5.3050476795e+00 1.6069946879e-04 1.5972800831e+00 -2.7665702579e+00 1.5972800831e+00 2.7665702579e+00 
37400 5.3050478789e+00 1.5162867517e-04 1.5972750527e+00 -2.7665615450e+00 1.5972750527e+00 2.7665615450e+00 
37500 5.3050480746e+00 1.4274805438e-04 1.5972703062e+00 -2.7665533238e+00 1.5972703062e+00 2.7665533238e+00 
37600 5.3050482666e+00 1.3405551594e-04 1.5972658377e+00 -2.7665455841e+00 1.5972658377e+00 2.7665455841e+00 
37700 5.3050484550e+00 1.2554897555e-04 1.5972616413e+00 -2.7665383158e+00 1.5972616413e+00 2.7665383158e+00 
37800 5.3050486400e+00 1.1722635448e-04 1.5972577112e+00 -2.7665315086e+00 1.5972577112e+00 2.7665315086e+00 
37900 5.3050488215e+00 1.0908557901e-04 1.5972540416e+00 -2.7665251526e+00 1.5972540416e+00 2.7665251526e+00 
38000 5.3050489998e+00 1.0112457998e-04 1.5972506268e+00 -2.7665192380e+00 1.5972506268e+00 2.7665192380e+00 
38100 5.3050491749e+00 9.3341292332e-05 1.5972474612e+00 -2.7665137551e+00 1.5972474612e+00 2.7665137551e+00 
38200 5.3050493468e+00 8.5733654728e-05 1.5972445393e+00 -2.7665086941e+00 1.5972445393e+00 2.7665086941e+00 
38300 5.3050495157e+00 7.8299609269e-05 1.5972418555e+00 -2.7665040457e+00 1.5972418555e+00 2.7665040457e+00 
38400 5.3050496816e+00 7.1037101205e-05 1.5972394044e+00 -2.7664998003e+00 1.5972394044e+00 2.7664998003e+00 
38500 5.3050498446e+00 6.3944078714e-05 1.5972371806e+00 -2.7664959486e+00 1.5972371806e+00 2.7664959486e+00 
38600 5.3050500049e+00 5.8391442901e-05 1.5972371806e+00 -2.7664959486e+00 1.5972371806e+00 2.7664959486e+00 
38700 5.3050501624e+00 5.2854753769e-05 1.5972371806e+00 -2.7664959486e+00 1.5972371806e+00 2.7664959486e+00 
38800 5.3050503171e+00 4.7335712249e-05 1.5972371806e+00 -2.7664959486e+00 1.5972371806e+00 2.7664959486e+00 
38900 5.3050504692e+00 4.1835961218e-05 1.5972371806e+00 -2.7664959486e+00 1.5972371806e+00 2.7664959486e+00 
39000 5.3050506187e+00 3.6357085990e-05 1.5972371806e+00 -2.7664959486e+00 1.5972371806e+00 2.7664959486e+00 
39100 5.3050507656e+00 3.0900614863e-05 1.5972371806e+00 -2.7664959486e+00 1.5972371806e+00 2.7664959486e+00 
39200 5.3050509101e+00 2.5468019718e-05 1.5972371806e+00 -2.7664959486e+00 1.5972371806e+00 2.7664959486e+00 
39300 5.3050510521e+00 2.0060716659e-05 1.5972371806e+00 -2.7664959486e+00 1.5972371806e+00 2.7664959486e+00 
39400 5.3050511918e+00 1.4680066708e-05 1.5972371806e+00 -2.7664959486e+00 1.5972371806e+00 2.7664959486e+00 
39500 5.3050513292e+00 9.3273765260e-06 1.5972371806e+00 -2.7664959486e+00 1.5972371806e+00 2.7664959486e+00 
39600 5.3050514644e+00 4.0038991810e-06 1.5972371806e+00 -2.7664959486e+00 1.5972371806e+00 2.7664959486e+00 
39700 5.3050515973e+00 -1.2891650537e-06 1.5972371806e+00 -2.7664959486e+00 1.5972371806e+00 2.7664959486e+00 
39800 5.3050517282e+00 -6.5506678794e-06 1.5972371806e+00 -2.7664959486e+00 1.5972371806e+00 2.7664959486e+00 
39900 5.3050518569e+00 -1.1779512111e-05 1.5972371806e+00 -2.7664959486e+00 1.5972371806e+00 2.7664959486e+00 
40000 5.3050519836e+00 -1.6974650803e-05 1.5972371806e+00 -2.7664959486e+00 1.5972371806e+00 2.7664959486e+00 
40100 5.3050521084e+00 -2.2135086351e-05 1.5972371806e+00 -2.7664959486e+00 1.5972371806e+00 2.7664959486e+00 
40200 5.3050522311e+00 -2.7259869573e-05 1.5972371806e+00 -2.7664959486e+00 1.5972371806e+00 2.7664959486e+00 
40300 5.3050523520e+00 -3.2348098780e-05 1.5972371806e+00 -2.7664959486e+00 1.5972371806e+00 2.7664959486e+00 
40400 5.3050524710e+00 -3.7398918822e-05 1.5972371806e+00 -2.7664959486e+00 1.5972371806e+00 2.7664959486e+00 
40500 5.3050525882e+00 -4.2411520137e-05 1.5972371806e+00 -2.7664959486e+00 1.5972371806e+00 2.7664959486e+00 
40600 5.3050527036e+00 -4.7385137776e-05 1.5972371806e+00 -2.7664959486e+00 1.5972371806e+00 2.7664959486e+00 
40700 5.3050528172e+00 -5.2319050430e-05 1.5972371806e+00 -2.7664959486e+00 1.5972371806e+00 2.7664959486e+00 
40800 5.3050529292e+00 -5.7212579446e-05 1.5972371806e+00 -2.7664959486e+00 1.5972371806e+00 2.7664959486e+00 
40900 5.3050530394e+00 -6.2065087845e-05 1.5972371806e+00 -2.7664959486e+00 1.5972371806e+00 2.7664959486e+00 
41000 5.3050531480e+00 -6.6875979328e-05 1.5972371806e+00 -2.7664959486e+00 1.5972371806e+00 2.7664959486e+00 
41100 5.3050532550e+00 -7.1644697293e-05 1.5972371806e+00 -2.7664959486e+00 1.5972371806e+00 2.7664959486e+00 
41200 5.3050533602e+00 -7.4832674594e-05 1.5972394234e+00 -2.7664998332e+00 1.5972394234e+00 2.7664998332e+00 
41300 5.3050534638e+00 -7.7909898540e-05 1.5972417660e+00 -2.7665038907e+00 1.5972417660e+00 2.7665038907e+00 
41400 5.3050535659e+00 -8.0878214548e-05 1.5972442049e+00 -2.7665081149e+00 1.5972442049e+00 2.7665081149e+00 
41500 5.3050536664e+00 -8.3739460183e-05 1.5972467367e+00 -2.7665125002e+00 1.5972467367e+00 2.7665125002e+00 
41600 5.3050537653e+00 -8.6495464858e-05 1.5972493580e+00 -2.7665170405e+00 1.5972493580e+00 2.7665170405e+00 
41700 5.3050538628e+00 -8.9148049518e-05 1.5972520657e+00 -2.7665217303e+00 1.5972520657e+00 2.7665217303e+00 
41800 5.3050539589e+00 -9.1699026331e-05 1.5972548564e+00 -2.7665265638e+00 1.5972548564e+00 2.7665265638e+00 
41900 5.3050540535e+00 -9.4150198364e-05 1.5972577269e+00 -2.7665315357e+00 1.5972577269e+00 2.7665315357e+00 
42000 5.3050541467e+00 -9.6503359257e-05 1.5972606741e+00 -2.7665366405e+00 1.5972606741e+00 2.7665366405e+00 
42100 5.3050542385e+00 -9.8760292909e-05 1.5972636950e+00 -2.7665418729e+00 1.5972636950e+00 2.7665418729e+00 
42200 5.3050543289e+00 -1.0092277314e-04 1.5972667866e+00 -2.7665472276e+00 1.5972667866e+00 2.7665472276e+00 
42300 5.3050544180e+00 -1.0299256338e-04 1.5972699458e+00 -2.7665526995e+00 1.5972699458e+00 2.7665526995e+00 
42400 5.3050545058e+00 -1.0497141632e-04 1.5972731698e+00 -2.7665582837e+00 1.5972731698e+00 2.7665582837e+00 
42500 5.3050545923e+00 -1.0686107361e-04 1.5972764558e+00 -2.7665639752e+00 1.5972764558e+00 2.7665639752e+00 
42600 5.3050546775e+00 -1.0866326554e-04 1.5972798009e+00 -2.7665697690e+00 1.5972798009e+00 2.7665697690e+00 
42700 5.3050547615e+00 -1.1037971071e-04 1.5972832024e+00 -2.7665756606e+00 1.5972832024e+00 2.7665756606e+00 
42800 5.3050548442e+00 -1.1201211570e-04 1.5972866576e+00 -2.7665816453e+00 1.5972866576e+00 2.7665816453e+00 
42900 5.3050549258e+00 -1.1356217480e-04 1.5972901640e+00 -2.7665877184e+00 1.5972901640e+00 2.7665877184e+00 
43000 5.3050550061e+00 -1.1503156965e-04 1.5972937188e+00 -2.7665938756e+00 1.5972937188e+00 2.7665938756e+00 
43100 5.3050550852e+00 -1.1642196899e-04 1.5972973196e+00 -2.7666001124e+00 1.5972973196e+00 2.7666001124e+00 
43200 5.3050551632e+00 -1.1773502832e-04 1.5973009640e+00 -2.7666064246e+00 1.5973009640e+00 2.7666064246e+00 
43300 5.3050552401e+00 -1.1897238966e-04 1.5973046494e+00 -2.7666128079e+00 1.5973046494e+00 2.7666128079e+00 
43400 5.3050553158e+00 -1.2013568122e-04 1.5973083736e+00 -2.7666192584e+00 1.5973083736e+00 2.7666192584e+00 
43500 5.3050553905e+00 -1.2122651712e-04 1.5973121341e+00 -2.7666257719e+00 1.5973121341e+00 2.7666257719e+00 
43600 5.3050554640e+00 -1.2224649719e-04 1.5973159288e+00 -2.7666323445e+00 1.5973159288e+00 2.7666323445e+00 
43700 5.3050555365e+00 -1.2319720661e-04 1.5973197555e+00 -2.7666389724e+00 1.5973197555e+00 2.7666389724e+00 
43800 5.3050556079e+00 -1.2408021574e-04 1.5973236118e+00 -2.7666456518e+00 1.5973236118e+00 2.7666456518e+00 
43900 5.3050556783e+00 -1.2489707983e-04 1.5973274959e+00 -2.7666523791e+00 1.5973274959e+00 2.7666523791e+00 
44000 5.3050557477e+00 -1.2564933878e-04 1.5973314054e+00 -2.7666591507e+00 1.5973314054e+00 2.7666591507e+00 
44100 5.3050558161e+00 -1.2633851695e-04 1.5973353385e+00 -2.7666659630e+00 1.5973353385e+00 2.7666659630e+00 
44200 5.3050558834e+00 -1.2696612288e-04 1.5973392932e+00 -2.7666728127e+00 1.5973392932e+00 2.7666728127e+00 
44300 5.3050559498e+00 -1.2753364914e-04 1.5973432675e+00 -2.7666796964e+00 1.5973432675e+00 2.7666796964e+00 
44400 5.3050560153e+00 -1.2804257209e-04 1.5973472595e+00 -2.7666866109e+00 1.5973472595e+00 2.7666866109e+00 
44500 5.3050560798e+00 -1.2849435170e-04 1.5973512675e+00 -2.7666935529e+00 1.5973512675e+00 2.7666935529e+00 
44600 5.3050561434e+00 -1.2889043138e-04 1.5973552896e+00 -2.7667005194e+00 1.5973552896e+00 2.7667005194e+00 
44700 5.3050562060e+00 -1.2923223775e-04 1.5973593241e+00 -2.7667075073e+00 1.5973593241e+00 2.7667075073e+00 
44800 5.3050562678e+00 -1.2952118057e-04 1.5973633693e+00 -2.7667145138e+00 1.5973633693e+00 2.7667145138e+00 
44900 5.3050563286e+00 -1.2975865250e-04 1.5973674235e+00 -2.7667215359e+00 1.5973674235e+00 2.7667215359e+00 
45000 5.3050563886e+00 -1.2994602899e-04 1.5973714852e+00 -2.7667285709e+00 1.5973714852e+00 2.7667285709e+00 
45100 5.3050564477e+00 -1.3008466814e-04 1.5973755527e+00 -2.7667356160e+00 1.5973755527e+00 2.7667356160e+00 
45200 5.3050565060e+00 -1.3017591059e-04 1.5973796245e+00 -2.7667426686e+00 1.5973796245e+00 2.7667426686e+00 
45300 5.3050565634e+00 -1.3022107939e-04 1.5973836992e+00 -2.7667497261e+00 1.5973836992e+00 2.7667497261e+00 
45400 5.3050566201e+00 -1.3022147988e-04 1.5973877752e+00 -2.7667567861e+00 1.5973877752e+00 2.7667567861e+00 
45500 5.3050566759e+00 -1.3017839960e-04 1.5973918513e+00 -2.7667638461e+00 1.5973918513e+00 2.7667638461e+00 
45600 5.3050567309e+00 -1.3009310823e-04 1.5973959260e+00 -2.7667709037e+00 1.5973959260e+00 2.7667709037e+00 
45700 5.3050567851e+00 -1.2996685749e-04 1.5973999981e+00 -2.7667779567e+00 1.5973999981e+00 2.7667779567e+00 
45800 5.3050568385e+00 -1.2980088105e-04 1.5974040662e+00 -2.7667850028e+00 1.5974040662e+00 2.7667850028e+00 
45900 5.3050568912e+00 -1.2959639451e-04 1.5974081290e+00 -2.7667920399e+00 1.5974081290e+00 2.7667920399e+00 
46000 5.3050569431e+00 -1.2935459533e-04 1.5974121855e+00 -2.7667990659e+00 1.5974121855e+00 2.7667990659e+00 
46100 5.3050569943e+00 -1.2907666278e-04 1.5974162344e+00 -2.7668060788e+00 1.5974162344e+00 2.7668060788e+00 
46200 5.3050570447e+00 -1.2876375793e-04 1.5974202745e+00 -2.7668130765e+00 1.5974202745e+00 2.7668130765e+00 
46300 5.3050570944e+00 -1.2841702361e-04 1.5974243049e+00 -2.7668200573e+00 1.5974243049e+00 2.7668200573e+00 
46400 5.3050571435e+00 -1.2803758441e-04 1.5974283244e+00 -2.7668270193e+00 1.5974283244e+00 2.7668270193e+00 
46500 5.3050571918e+00 -1.2762654665e-04 1.5974323320e+00 -2.7668339607e+00 1.5974323320e+00 2.7668339607e+00 
46600 5.3050572394e+00 -1.2718499840e-04 1.5974363268e+00 -2.7668408798e+00 1.5974363268e+00 2.7668408798e+00 
46700 5.3050572863e+00 -1.2671400950e-04 1.5974403077e+00 -2.7668477750e+00 1.5974403077e+00 2.7668477750e+00 
46800 5.3050573326e+00 -1.2621463153e-04 1.5974442738e+00 -2.7668546446e+00 1.5974442738e+00 2.7668546446e+00 
46900 5.3050573782e+00 -1.2568789792e-04 1.5974482244e+00 -2.7668614871e+00 1.5974482244e+00 2.7668614871e+00 
47000 5.3050574232e+00 -1.2513482391e-04 1.5974521584e+00 -2.7668683010e+00 1.5974521584e+00 2.7668683010e+00 
47100 5.3050574675e+00 -1.2455640662e-04 1.5974560751e+00 -2.7668750849e+00 1.5974560751e+00 2.7668750849e+00 
47200 5.3050575112e+00 -1.2395362509e-04 1.5974599737e+00 -2.7668818375e+00 1.5974599737e+00 2.7668818375e+00 
47300 5.3050575543e+00 -1.2332744037e-04 1.5974638534e+00 -2.7668885573e+00 1.5974638534e+00 2.7668885573e+00 
47400 5.3050575968e+00 -1.2267879554e-04 1.5974677135e+00 -2.7668952432e+00 1.5974677135e+00 2.7668952432e+00 
47500 5.3050576387e+00 -1.2200861579e-04 1.5974715533e+00 -2.7669018939e+00 1.5974715533e+00 2.7669018939e+00 
47600 5.3050576799e+00 -1.2131780854e-04 1.5974753721e+00 -2.7669085083e+00 1.5974753721e+00 2.7669085083e+00 
47700 5.3050577206e+00 -1.2060726347e-04 1.5974791693e+00 -2.7669150852e+00 1.5974791693e+00 2.7669150852e+00 
47800 5.3050577607e+00 -1.1987785263e-04 1.5974829442e+00 -2.7669216236e+00 1.5974829442e+00 2.7669216236e+00 
47900 5.3050578003e+00 -1.1913043053e-04 1.5974866963e+00 -2.7669281224e+00 1.5974866963e+00 2.7669281224e+00 
48000 5.3050578392e+00 -1.1836583428e-04 1.5974904250e+00 -2.7669345806e+00 1.5974904250e+00 2.7669345806e+00 
48100 5.3050578777e+00 -1.1758488364e-04 1.5974941297e+00 -2.7669409974e+00 1.5974941297e+00 2.7669409974e+00 
48200 5.3050579156e+00 -1.1678838119e-04 1.5974978100e+00 -2.7669473719e+00 1.5974978100e+00 2.7669473719e+00 
48300 5.3050579529e+00 -1.1597711239e-04 1.5975014654e+00 -2.7669537032e+00 1.5975014654e+00 2.7669537032e+00 
48400 5.3050579897e+00 -1.1515184576e-04 1.5975050953e+00 -2.7669599904e+00 1.5975050953e+00 2.7669599904e+00 
48500 5.3050580260e+00 -1.1431333299e-04 1.5975086994e+00 -2.7669662329e+00 1.5975086994e+00 2.7669662329e+00 
48600 5.3050580618e+00 -1.1346230906e-04 1.5975122773e+00 -2.7669724300e+00 1.5975122773e+00 2.7669724300e+00 
48700 5.3050580971e+00 -1.1259949238e-04 1.5975158285e+00 -2.7669785809e+00 1.5975158285e+00 2.7669785809e+00 
48800 5.3050581319e+00 -1.1172558496e-04 1.5975193527e+00 -2.7669846850e+00 1.5975193527e+00 2.7669846850e+00 
48900 5.3050581662e+00 -1.1084127254e-04 1.5975228496e+00 -2.7669907417e+00 1.5975228496e+00 2.7669907417e+00 
49000 5.3050582000e+00 -1.0994722474e-04 1.5975263187e+00 -2.7669967505e+00 1.5975263187e+00 2.7669967505e+00 
49100 5.3050582334e+00 -1.0904409521e-04 1.5975297599e+00 -2.7670027107e+00 1.5975297599e+00 2.7670027107e+00 
49200 5.3050582663e+00 -1.0813252182e-04 1.5975331728e+00 -2.7670086221e+00 1.5975331728e+00 2.7670086221e+00 
49300 5.3050582987e+00 -1.0721312678e-04 1.5975365572e+00 -2.7670144839e+00 1.5975365572e+00 2.7670144839e+00 
49400 5.3050583306e+00 -1.0628651683e-04 1.5975399127e+00 -2.7670202960e+00 1.5975399127e+00 2.7670202960e+00 
49500 5.3050583621e+00 -1.0535328341e-04 1.5975432393e+00 -2.7670260578e+00 1.5975432393e+00 2.7670260578e+00 
49600 5.3050583932e+00 -1.0441400283e-04 1.5975465367e+00 -2.7670317689e+00 1.5975465367e+00 2.7670317689e+00 
49700 5.3050584239e+00 -1.0346923644e-04 1.5975498046e+00 -2.7670374292e+00 1.5975498046e+00 2.7670374292e+00 
49800 5.3050584541e+00 -1.0251953082e-04 1.5975530430e+00 -2.7670430382e+00 1.5975530430e+00 2.7670430382e+00 
49900 5.3050584838e+00 -1.0156541794e-04 1.5975562516e+00 -2.7670485958e+00 1.5975562516e+00 2.7670485958e+00 
50000 5.3050585132e+00 -1.0060741536e-04 1.5975594304e+00 -2.7670541016e+00 1.5975594304e+00 2.7670541016e+00 
50100 5.3050585422e+00 -9.9646026415e-05 1.5975625792e+00 -2.7670595554e+00 1.5975625792e+00 2.7670595554e+00 
50200 5.3050585707e+00 -9.8681740380e-05 1.5975656979e+00 -2.7670649571e+00 1.5975656979e+00 2.7670649571e+00 
50300 5.3050585989e+00 -9.7715032689e-05 1.5975687864e+00 -2.7670703066e+00 1.5975687864e+00 2.7670703066e+00 
50400 5.3050586266e+00 -9.6746365103e-05 1.5975718446e+00 -2.7670756036e+00 1.5975718446e+00 2.7670756036e+00 
50500 5.3050586540e+00 -9.5776185907e-05 1.5975748725e+00 -2.7670808481e+00 1.5975748725e+00 2.7670808481e+00 
50600 5.3050586810e+00 -9.4804930108e-05 1.5975778701e+00 -2.7670860400e+00 1.5975778701e+00 2.7670860400e+00 
50700 5.3050587076e+00 -9.3833019626e-05 1.5975808372e+00 -2.7670911793e+00 1.5975808372e+00 2.7670911793e+00 
50800 5.3050587339e+00 -9.2860863481e-05 1.5975837740e+00 -2.7670962658e+00 1.5975837740e+00 2.7670962658e+00 
50900 5.3050587597e+00 -9.1888858008e-05 1.5975866803e+00 -2.7671012997e+00 1.5975866803e+00 2.7671012997e+00 
51000 5.3050587853e+00 -9.0917387036e-05 1.5975895561e+00 -2.7671062808e+00 1.5975895561e+00 2.7671062808e+00 
51100 5.3050588104e+00 -8.9946822092e-05 1.5975924016e+00 -2.7671112093e+00 1.5975924016e+00 2.7671112093e+00 
51200 5.3050588352e+00 -8.8977522603e-05 1.5975952166e+00 -2.7671160852e+00 1.5975952166e+00 2.7671160852e+00 
51300 5.3050588597e+00 -8.8009836085e-05 1.5975980014e+00 -2.7671209085e+00 1.5975980014e+00 2.7671209085e+00 
51400 5.3050588838e+00 -8.7044098353e-05 1.5976007558e+00 -2.7671256793e+00 1.5976007558e+00 2.7671256793e+00 
51500 5.3050589076e+00 -8.6080633708e-05 1.5976034800e+00 -2.7671303978e+00 1.5976034800e+00 2.7671303978e+00 
51600 5.3050589311e+00 -8.5119755149e-05 1.5976061741e+00 -2.7671350640e+00 1.5976061741e+00 2.7671350640e+00 
51700 5.3050589543e+00 -8.4161764560e-05 1.5976088381e+00 -2.7671396782e+00 1.5976088381e+00 2.7671396782e+00 
51800 5.3050589771e+00 -8.3206952914e-05 1.5976114721e+00 -2.7671442404e+00 1.5976114721e+00 2.7671442404e+00 
51900 5.3050589996e+00 -8.2255600472e-05 1.5976140762e+00 -2.7671487508e+00 1.5976140762e+00 2.7671487508e+00 
52000 5.3050590218e+00 -8.1307976978e-05 1.5976166505e+00 -2.7671532097e+00 1.5976166505e+00 2.7671532097e+00 
52100 5.3050590437e+00 -8.0364341858e-05 1.5976191952e+00 -2.7671576172e+00 1.5976191952e+00 2.7671576172e+00 
52200 5.3050590653e+00 -7.9424944419e-05 1.5976217103e+00 -2.7671619735e+00 1.5976217103e+00 2.7671619735e+00 
52300 5.3050590866e+00 -7.8490024042e-05 1.5976241960e+00 -2.7671662789e+00 1.5976241960e+00 2.7671662789e+00 
52400 5.3050591076e+00 -7.7559810373e-05 1.5976266525e+00 -2.7671705336e+00 1.5976266525e+00 2.7671705336e+00 
52500 5.3050591283e+00 -7.6634523529e-05 1.5976290798e+00 -2.7671747379e+00 1.5976290798e+00 2.7671747379e+00 
52600 5.3050591487e+00 -7.5714374280e-05 1.5976314782e+00 -2.7671788920e+00 1.5976314782e+00 2.7671788920e+00 
52700 5.3050591689e+00 -7.4799564250e-05 1.5976338478e+00 -2.7671829963e+00 1.5976338478e+00 2.7671829963e+00 
52800 5.3050591887e+00 -7.3890286101e-05 1.5976361887e+00 -2.7671870509e+00 1.5976361887e+00 2.7671870509e+00 
52900 5.3050592083e+00 -7.2986723728e-05 1.5976385012e+00 -2.7671910563e+00 1.5976385012e+00 2.7671910563e+00 
53000 5.3050592276e+00 -7.2089052446e-05 1.5976407854e+00 -2.7671950126e+00 1.5976407854e+00 2.7671950126e+00 
53100 5.3050592467e+00 -7.1197439178e-05 1.5976430415e+00 -2.7671989203e+00 1.5976430415e+00 2.7671989203e+00 
53200 5.3050592655e+00 -7.0312042637e-05 1.5976452697e+00 -2.7672027797e+00 1.5976452697e+00 2.7672027797e+00 
53300 5.3050592842e+00 -7.0940774951e-05 1.5976452697e+00 -2.7672027797e+00 1.5976452697e+00 2.7672027797e+00 
53400 5.3050593025e+00 -7.0035080863e-05 1.5976474899e+00 -2.7672066251e+00 1.5976474899e+00 2.7672066251e+00 
53500 5.3050593208e+00 -7.0638705482e-05 1.5976474899e+00 -2.7672066251e+00 1.5976474899e+00 2.7672066251e+00 
53600 5.3050593387e+00 -7.1229835473e-05 1.5976474899e+00 -2.7672066251e+00 1.5976474899e+00 2.7672066251e+00 
53700 5.3050593563e+00 -7.0281429979e-05 1.5976497191e+00 -2.7672104862e+00 1.5976497191e+00 2.7672104862e+00 
53800 5.3050593738e+00 -7.0849599479e-05 1.5976497191e+00 -2.7672104862e+00 1.5976497191e+00 2.7672104862e+00 
53900 5.3050593908e+00 -6.9887029850e-05 1.5976519364e+00 -2.7672143267e+00 1.5976519364e+00 2.7672143267e+00 
54000 5.3050594078e+00 -7.0433492852e-05 1.5976519364e+00 -2.7672143267e+00 1.5976519364e+00 2.7672143267e+00 
54100 5.3050594246e+00 -7.0969101559e-05 1.5976519364e+00 -2.7672143267e+00 1.5976519364e+00 2.7672143267e+00 
54200 5.3050594410e+00 -6.9972376358e-05 1.5976541575e+00 -2.7672181737e+00 1.5976541575e+00 2.7672181737e+00 
54300 5.3050594573e+00 -7.0488181413e-05 1.5976541575e+00 -2.7672181737e+00 1.5976541575e+00 2.7672181737e+00 
54400 5.3050594734e+00 -7.0994045823e-05 1.5976541575e+00 -2.7672181737e+00 1.5976541575e+00 2.7672181737e+00 
54500 5.3050594891e+00 -6.9967935528e-05 1.5976563793e+00 -2.7672220220e+00 1.5976563793e+00 2.7672220220e+00 
54600 5.3050595047e+00 -7.0455751410e-05 1.5976563793e+00 -2.7672220220e+00 1.5976563793e+00 2.7672220220e+00 
54700 5.3050595202e+00 -7.0934467999e-05 1.5976563793e+00 -2.7672220220e+00 1.5976563793e+00 2.7672220220e+00 
54800 5.3050595352e+00 -6.9883309779e-05 1.5976585993e+00 -2.7672258671e+00 1.5976585993e+00 2.7672258671e+00 
54900 5.3050595503e+00 -7.0345589422e-05 1.5976585993e+00 -2.7672258671e+00 1.5976585993e+00 2.7672258671e+00 
55000 5.3050595651e+00 -7.0799541191e-05 1.5976585993e+00 -2.7672258671e+00 1.5976585993e+00 2.7672258671e+00 
55100 5.3050595795e+00 -6.9727264600e-05 1.5976608150e+00 -2.7672297048e+00 1.5976608150e+00 2.7672297048e+00 
55200 5.3050595939e+00 -7.0166252902e-05 1.5976608150e+00 -2.7672297048e+00 1.5976608150e+00 2.7672297048e+00 
55300 5.3050596082e+00 -7.0597617728e-05 1.5976608150e+00 -2.7672297048e+00 1.5976608150e+00 2.7672297048e+00 
55400 5.3050596222e+00 -7.1021623106e-05 1.5976608150e+00 -2.7672297048e+00 1.5976608150e+00 2.7672297048e+00 
55500 5.3050596359e+00 -6.9915580253e-05 1.5976630377e+00 -2.7672335546e+00 1.5976630377e+00 2.7672335546e+00 
55600 5.3050596495e+00 -7.0326473247e-05 1.5976630377e+00 -2.7672335546e+00 1.5976630377e+00 2.7672335546e+00 
55700 5.3050596630e+00 -7.0730623051e-05 1.5976630377e+00 -2.7672335546e+00 1.5976630377e+00 2.7672335546e+00 
55800 5.3050596761e+00 -6.9611564921e-05 1.5976652512e+00 -2.7672373886e+00 1.5976652512e+00 2.7672373886e+00 
55900 5.3050596892e+00 -7.0003771046e-05 1.5976652512e+00 -2.7672373886e+00 1.5976652512e+00 2.7672373886e+00 
56000 5.3050597021e+00 -7.0389791106e-05 1.5976652512e+00 -2.7672373886e+00 1.5976652512e+00 2.7672373886e+00 
56100 5.3050597149e+00 -7.0769841815e-05 1.5976652512e+00 -2.7672373886e+00 1.5976652512e+00 2.7672373886e+00 
56200 5.3050597273e+00 -6.9626594825e-05 1.5976674660e+00 -2.7672412247e+00 1.5976674660e+00 2.7672412247e+00 
56300 5.3050597397e+00 -6.9996172593e-05 1.5976674660e+00 -2.7672412247e+00 1.5976674660e+00 2.7672412247e+00 
56400 5.3050597519e+00 -7.0360261499e-05 1.5976674660e+00 -2.7672412247e+00 1.5976674660e+00 2.7672412247e+00 
56500 5.3050597640e+00 -7.0719053833e-05 1.5976674660e+00 -2.7672412247e+00 1.5976674660e+00 2.7672412247e+00 
56600 5.3050597758e+00 -6.9556289828e-05 1.5976696792e+00 -2.7672450581e+00 1.5976696792e+00 2.7672450581e+00 
56700 5.3050597875e+00 -6.9905883323e-05 1.5976696792e+00 -2.7672450581e+00 1.5976696792e+00 2.7672450581e+00 
56800 5.3050597991e+00 -7.0250590887e-05 1.5976696792e+00 -2.7672450581e+00 1.5976696792e+00 2.7672450581e+00 
56900 5.3050598106e+00 -7.0590582623e-05 1.5976696792e+00 -2.7672450581e+00 1.5976696792e+00 2.7672450581e+00 
57000 5.3050598219e+00 -7.0926022731e-05 1.5976696792e+00 -2.7672450581e+00 1.5976696792e+00 2.7672450581e+00 
57100 5.3050598328e+00 -6.9736188493e-05 1.5976718989e+00 -2.7672489027e+00 1.5976718989e+00 2.7672489027e+00 
57200 5.3050598438e+00 -7.0063840780e-05 1.5976718989e+00 -2.7672489027e+00 1.5976718989e+00 2.7672489027e+00 
57300 5.3050598546e+00 -7.0387271436e-05 1.5976718989e+00 -2.7672489027e+00 1.5976718989e+00 2.7672489027e+00 
57400 5.3050598653e+00 -7.0706625168e-05 1.5976718989e+00 -2.7672489027e+00 1.5976718989e+00 2.7672489027e+00 
57500 5.3050598759e+00 -7.1022041454e-05 1.5976718989e+00 -2.7672489027e+00 1.5976718989e+00 2.7672489027e+00 
57600 5.3050598861e+00 -6.9810717185e-05 1.5976741216e+00 -2.7672527525e+00 1.5976741216e+00 2.7672527525e+00 
57700 5.3050598964e+00 -7.0119503924e-05 1.5976741216e+00 -2.7672527525e+00 1.5976741216e+00 2.7672527525e+00 
57800 5.3050599065e+00 -7.0424612889e-05 1.5976741216e+00 -2.7672527525e+00 1.5976741216e+00 2.7672527525e+00 
57900 5.3050599165e+00 -7.0726166747e-05 1.5976741216e+00 -2.7672527525e+00 1.5976741216e+00 2.7672527525e+00 
58000 5.3050599262e+00 -6.9507694104e-05 1.5976763350e+00 -2.7672565862e+00 1.5976763350e+00 2.7672565862e+00 
58100 5.3050599359e+00 -6.9803331555e-05 1.5976763350e+00 -2.7672565862e+00 1.5976763350e+00 2.7672565862e+00 
58200 5.3050599455e+00 -7.0095627003e-05 1.5976763350e+00 -2.7672565862e+00 1.5976763350e+00 2.7672565862e+00 
58300 5.3050599550e+00 -7.0384688488e-05 1.5976763350e+00 -2.7672565862e+00 1.5976763350e+00 2.7672565862e+00 
58400 5.3050599643e+00 -7.0670620004e-05 1.5976763350e+00 -2.7672565862e+00 1.5976763350e+00 2.7672565862e+00 
58500 5.3050599735e+00 -7.0953521580e-05 1.5976763350e+00 -2.7672565862e+00 1.5976763350e+00 2.7672565862e+00 
58600 5.3050599825e+00 -6.9712026591e-05 1.5976785555e+00 -2.7672604323e+00 1.5976785555e+00 2.7672604323e+00 
58700 5.3050599914e+00 -6.9989999911e-05 1.5976785555e+00 -2.7672604323e+00 1.5976785555e+00 2.7672604323e+00 
58800 5.3050600003e+00 -7.0265092165e-05 1.5976785555e+00 -2.7672604323e+00 1.5976785555e+00 2.7672604323e+00 
58900 5.3050600090e+00 -7.0537391479e-05 1.5976785555e+00 -2.7672604323e+00 1.5976785555e+00 2.7672604323e+00 
59000 5.3050600177e+00 -7.0806982595e-05 1.5976785555e+00 -2.7672604323e+00 1.5976785555e+00 2.7672604323e+00 
59100 5.3050600260e+00 -6.9555629245e-05 1.5976807714e+00 -2.7672642704e+00 1.5976807714e+00 2.7672642704e+00 
59200 5.3050600344e+00 -6.9820890441e-05 1.5976807714e+00 -2.7672642704e+00 1.5976807714e+00 2.7672642704e+00 
59300 5.3050600427e+00 -7.0083550064e-05 1.5976807714e+00 -2.7672642704e+00 1.5976807714e+00 2.7672642704e+00 
59400 5.3050600508e+00 -7.0343683147e-05 1.5976807714e+00 -2.7672642704e+00 1.5976807714e+00 2.7672642704e+00 
59500 5.3050600589e+00 -7.0601361861e-05 1.5976807714e+00 -2.7672642704e+00 1.5976807714e+00 2.7672642704e+00 
59600 5.3050600669e+00 -7.0856655576e-05 1.5976807714e+00 -2.7672642704e+00 1.5976807714e+00 2.7672642704e+00 
59700 5.3050600745e+00 -6.9590250247e-05 1.5976829889e+00 -2.7672681112e+00 1.5976829889e+00 2.7672681112e+00 
59800 5.3050600823e+00 -6.9841817400e-05 1.5976829889e+00 -2.7672681112e+00 1.5976829889e+00 2.7672681112e+00 
59900 5.3050600899e+00 -7.0091063315e-05 1.5976829889e+00 -2.7672681112e+00 1.5976829889e+00 2.7672681112e+00 
60000 5.3050600975e+00 -7.0338049868e-05 1.5976829889e+00 -2.7672681112e+00 1.5976829889e+00 2.7672681112e+00 
60100 5.3050601050e+00 -7.0582836592e-05 1.5976829889e+00 -2.7672681112e+00 1.5976829889e+00 2.7672681112e+00 
60200 5.3050601123e+00 -7.0825480727e-05 1.5976829889e+00 -2.7672681112e+00 1.5976829889e+00 2.7672681112e+00 
60300 5.3050601194e+00 -6.9547327420e-05 1.5976852054e+00 -2.7672719503e+00 1.5976852054e+00 2.7672719503e+00 
60400 5.3050601265e+00 -6.9786695284e-05 1.5976852054e+00 -2.7672719503e+00 1.5976852054e+00 2.7672719503e+00 
60500 5.3050601336e+00 -7.0023950945e-05 1.5976852054e+00 -2.7672719503e+00 1.5976852054e+00 2.7672719503e+00 
60600 5.3050601406e+00 -7.0259146080e-05 1.5976852054e+00 -2.7672719503e+00 1.5976852054e+00 2.7672719503e+00 
60700 5.3050601475e+00 -7.0492330475e-05 1.5976852054e+00 -2.7672719503e+00 1.5976852054e+00 2.7672719503e+00 
60800 5.3050601542e+00 -7.0723552064e-05 1.5976852054e+00 -2.7672719503e+00 1.5976852054e+00 2.7672719503e+00 
60900 5.3050601608e+00 -6.9436335236e-05 1.5976874187e+00 -2.7672757839e+00 1.5976874187e+00 2.7672757839e+00 
61000 5.3050601674e+00 -6.9664612874e-05 1.5976874187e+00 -2.7672757839e+00 1.5976874187e+00 2.7672757839e+00 
61100 5.3050601739e+00 -6.9890932846e-05 1.5976874187e+00 -2.7672757839e+00 1.5976874187e+00 2.7672757839e+00 
61200 5.3050601803e+00 -7.0115339147e-05 1.5976874187e+00 -2.7672757839e+00 1.5976874187e+00 2.7672757839e+00 
61300 5.3050601867e+00 -7.0337874262e-05 1.5976874187e+00 -2.7672757839e+00 1.5976874187e+00 2.7672757839e+00 
61400 5.3050601930e+00 -7.0558579186e-05 1.5976874187e+00 -2.7672757839e+00 1.5976874187e+00 2.7672757839e+00 
61500 5.3050601992e+00 -7.0777493448e-05 1.5976874187e+00 -2.7672757839e+00 1.5976874187e+00 2.7672757839e+00 
61600 5.3050602051e+00 -6.9476978697e-05 1.5976896337e+00 -2.7672796203e+00 1.5976896337e+00 2.7672796203e+00 
61700 5.3050602111e+00 -6.9693270474e-05 1.5976896337e+00 -2.7672796203e+00 1.5976896337e+00 2.7672796203e+00 
61800 5.3050602171e+00 -6.9907753650e-05 1.5976896337e+00 -2.7672796203e+00 1.5976896337e+00 2.7672796203e+00 
61900 5.3050602229e+00 -7.0120465276e-05 1.5976896337e+00 -2.7672796203e+00 1.5976896337e+00 2.7672796203e+00 
62000 5.3050602287e+00 -7.0331441231e-05 1.5976896337e+00 -2.7672796203e+00 1.5976896337e+00 2.7672796203e+00 
62100 5.3050602345e+00 -7.0540716229e-05 1.5976896337e+00 -2.7672796203e+00 1.5976896337e+00 2.7672796203e+00 
62200 5.3050602401e+00 -7.0748323841e-05 1.5976896337e+00 -2.7672796203e+00 1.5976896337e+00 2.7672796203e+00 
62300 5.3050602455e+00 -6.9437247674e-05 1.5976918478e+00 -2.7672834552e+00 1.5976918478e+00 2.7672834552e+00 
62400 5.3050602510e+00 -6.9642462543e-05 1.5976918478e+00 -2.7672834552e+00 1.5976918478e+00 2.7672834552e+00 
62500 5.3050602564e+00 -6.9845976038e-05 1.5976918478e+00 -2.7672834552e+00 1.5976918478e+00 2.7672834552e+00 
62600 5.3050602618e+00 -7.0047820411e-05 1.5976918478e+00 -2.7672834552e+00 1.5976918478e+00 2.7672834552e+00 
62700 5.3050602671e+00 -7.0248027010e-05 1.5976918478e+00 -2.7672834552e+00 1.5976918478e+00 2.7672834552e+00 
62800 5.3050602723e+00 -7.0446626275e-05 1.5976918478e+00 -2.7672834552e+00 1.5976918478e+00 2.7672834552e+00 
62900 5.3050602775e+00 -7.0643647749e-05 1.5976918478e+00 -2.7672834552e+00 1.5976918478e+00 2.7672834552e+00 
63000 5.3050602826e+00 -7.0839120081e-05 1.5976918478e+00 -2.7672834552e+00 1.5976918478e+00 2.7672834552e+00 
63100 5.3050602874e+00 -6.9514076968e-05 1.5976940647e+00 -2.7672872951e+00 1.5976940647e+00 2.7672872951e+00 
63200 5.3050602923e+00 -6.9707380574e-05 1.5976940647e+00 -2.7672872951e+00 1.5976940647e+00 2.7672872951e+00 
63300 5.3050602972e+00 -6.9899087553e-05 1.5976940647e+00 -2.7672872951e+00 1.5976940647e+00 2.7672872951e+00 
63400 5.3050603021e+00 -7.0089226180e-05 1.5976940647e+00 -2.7672872951e+00 1.5976940647e+00 2.7672872951e+00 
63500 5.3050603068e+00 -7.0277824037e-05 1.5976940647e+00 -2.7672872951e+00 1.5976940647e+00 2.7672872951e+00 
63600 5.3050603115e+00 -7.0464908008e-05 1.5976940647e+00 -2.7672872951e+00 1.5976940647e+00 2.7672872951e+00 
63700 5.3050603162e+00 -7.0650504278e-05 1.5976940647e+00 -2.7672872951e+00 1.5976940647e+00 2.7672872951e+00 
63800 5.3050603208e+00 -7.0834638331e-05 1.5976940647e+00 -2.7672872951e+00 1.5976940647e+00 2.7672872951e+00 
63900 5.3050603251e+00 -6.9498438909e-05 1.5976962815e+00 -2.7672911346e+00 1.5976962815e+00 2.7672911346e+00 
64000 5.3050603296e+00 -6.9680569483e-05 1.5976962815e+00 -2.7672911346e+00 1.5976962815e+00 2.7672911346e+00 
64100 5.3050603340e+00 -6.9861181937e-05 1.5976962815e+00 -2.7672911346e+00 1.5976962815e+00 2.7672911346e+00 
64200 5.3050603383e+00 -7.0040302078e-05 1.5976962815e+00 -2.7672911346e+00 1.5976962815e+00 2.7672911346e+00 
64300 5.3050603426e+00 -7.0217955179e-05 1.5976962815e+00 -2.7672911346e+00 1.5976962815e+00 2.7672911346e+00 
64400 5.3050603469e+00 -7.0394165965e-05 1.5976962815e+00 -2.7672911346e+00 1.5976962815e+00 2.7672911346e+00 
64500 5.3050603511e+00 -7.0568958605e-05 1.5976962815e+00 -2.7672911346e+00 1.5976962815e+00 2.7672911346e+00 
64600 5.3050603552e+00 -7.0742356707e-05 1.5976962815e+00 -2.7672911346e+00 1.5976962815e+00 2.7672911346e+00 
64700 5.3050603591e+00 -6.9397468166e-05 1.5976984954e+00 -2.7672949692e+00 1.5976984954e+00 2.7672949692e+00 
64800 5.3050603631e+00 -6.9568992122e-05 1.5976984954e+00 -2.7672949692e+00 1.5976984954e+00 2.7672949692e+00 
64900 5.3050603671e+00 -6.9739060920e-05 1.5976984954e+00 -2.7672949692e+00 1.5976984954e+00 2.7672949692e+00 
65000 5.3050603710e+00 -6.9907698977e-05 1.5976984954e+00 -2.7672949692e+00 1.5976984954e+00 2.7672949692e+00 
65100 5.3050603749e+00 -7.0074930281e-05 1.5976984954e+00 -2.7672949692e+00 1.5976984954e+00 2.7672949692e+00 
65200 5.3050603787e+00 -7.0240778374e-05 1.5976984954e+00 -2.7672949692e+00 1.5976984954e+00 2.7672949692e+00 
65300 5.3050603825e+00 -7.0405266343e-05 1.5976984954e+00 -2.7672949692e+00 1.5976984954e+00 2.7672949692e+00 
65400 5.3050603862e+00 -7.0568416801e-05 1.5976984954e+00 -2.7672949692e+00 1.5976984954e+00 2.7672949692e+00 
65500 5.3050603899e+00 -7.0730251881e-05 1.5976984954e+00 -2.7672949692e+00 1.5976984954e+00 2.7672949692e+00 
65600 5.3050603934e+00 -6.9374139403e-05 1.5977007089e+00 -2.7672988031e+00 1.5977007089e+00 2.7672988031e+00 
65700 5.3050603969e+00 -6.9534254619e-05 1.5977007089e+00 -2.7672988031e+00 1.5977007089e+00 2.7672988031e+00 
65800 5.3050604005e+00 -6.9692989886e-05 1.5977007089e+00 -2.7672988031e+00 1.5977007089e+00 2.7672988031e+00 
65900 5.3050604040e+00 -6.9850368444e-05 1.5977007089e+00 -2.7672988031e+00 1.5977007089e+00 2.7672988031e+00 
66000 5.3050604074e+00 -7.0006413171e-05 1.5977007089e+00 -2.7672988031e+00 1.5977007089e+00 2.7672988031e+00 
66100 5.3050604108e+00 -7.0161146563e-05 1.5977007089e+00 -2.7672988031e+00 1.5977007089e+00 2.7672988031e+00 
66200 5.3050604142e+00 -7.0314590715e-05 1.5977007089e+00 -2.7672988031e+00 1.5977007089e+00 2.7672988031e+00 
66300 5.3050604175e+00 -7.0466767314e-05 1.5977007089e+00 -2.7672988031e+00 1.5977007089e+00 2.7672988031e+00 
66400 5.3050604208e+00 -7.0617697617e-05 1.5977007089e+00 -2.7672988031e+00 1.5977007089e+00 2.7672988031e+00 
66500 5.3050604240e+00 -7.0767402447e-05 1.5977007089e+00 -2.7672988031e+00 1.5977007089e+00 2.7672988031e+00 
66600 5.3050604271e+00 -6.9398453208e-05 1.5977029236e+00 -2.7673026390e+00 1.5977029236e+00 2.7673026390e+00 
66700 5.3050604302e+00 -6.9546614878e-05 1.5977029236e+00 -2.7673026390e+00 1.5977029236e+00 2.7673026390e+00 
66800 5.3050604333e+00 -6.9693482742e-05 1.5977029236e+00 -2.7673026390e+00 1.5977029236e+00 2.7673026390e+00 
66900 5.3050604364e+00 -6.9839078895e-05 1.5977029236e+00 -2.7673026390e+00 1.5977029236e+00 2.7673026390e+00 
67000 5.3050604394e+00 -6.9983425107e-05 1.5977029236e+00 -2.7673026390e+00 1.5977029236e+00 2.7673026390e+00 
67100 5.3050604424e+00 -7.0126542809e-05 1.5977029236e+00 -2.7673026390e+00 1.5977029236e+00 2.7673026390e+00 
67200 5.3050604454e+00 -7.0268453066e-05 1.5977029236e+00 -2.7673026390e+00 1.5977029236e+00 2.7673026390e+00 
67300 5.3050604483e+00 -7.0409176569e-05 1.5977029236e+00 -2.7673026390e+00 1.5977029236e+00 2.7673026390e+00 
67400 5.3050604512e+00 -7.0548733615e-05 1.5977029236e+00 -2.7673026390e+00 1.5977029236e+00 2.7673026390e+00 
67500 5.3050604541e+00 -7.0687144101e-05 1.5977029236e+00 -2.7673026390e+00 1.5977029236e+00 2.7673026390e+00 
67600 5.3050604569e+00 -7.0824427504e-05 1.5977029236e+00 -2.7673026390e+00 1.5977029236e+00 2.7673026390e+00 
67700 5.3050604595e+00 -6.9441932389e-05 1.5977051400e+00 -2.7673064780e+00 1.5977051400e+00 2.7673064780e+00 
67800 5.3050604622e+00 -6.9577866393e-05 1.5977051400e+00 -2.7673064780e+00 1.5977051400e+00 2.7673064780e+00 
67900 5.3050604649e+00 -6.9712600985e-05 1.5977051400e+00 -2.7673064780e+00 1.5977051400e+00 2.7673064780e+00 
68000 5.3050604676e+00 -6.9846157015e-05 1.5977051400e+00 -2.7673064780e+00 1.5977051400e+00 2.7673064780e+00 
68100 5.3050604702e+00 -6.9978555039e-05 1.5977051400e+00 -2.7673064780e+00 1.5977051400e+00 2.7673064780e+00 
68200 5.3050604728e+00 -7.0109815294e-05 1.5977051400e+00 -2.7673064780e+00 1.5977051400e+00 2.7673064780e+00 
68300 5.3050604754e+00 -7.0239957678e-05 1.5977051400e+00 -2.7673064780e+00 1.5977051400e+00 2.7673064780e+00 
68400 5.3050604779e+00 -7.0369001738e-05 1.5977051400e+00 -2.7673064780e+00 1.5977051400e+00 2.7673064780e+00 
68500 5.3050604805e+00 -7.0496966655e-05 1.5977051400e+00 -2.7673064780e+00 1.5977051400e+00 2.7673064780e+00 
68600 5.3050604829e+00 -7.0623871230e-05 1.5977051400e+00 -2.7673064780e+00 1.5977051400e+00 2.7673064780e+00 
68700 5.3050604854e+00 -7.0749733875e-05 1.5977051400e+00 -2.7673064780e+00 1.5977051400e+00 2.7673064780e+00 
68800 5.3050604876e+00 -6.9357505323e-05 1.5977073541e+00 -2.7673103130e+00 1.5977073541e+00 2.7673103130e+00 
68900 5.3050604900e+00 -6.9482185077e-05 1.5977073541e+00 -2.7673103130e+00 1.5977073541e+00 2.7673103130e+00 
69000 5.3050604923e+00 -6.9605747633e-05 1.5977073541e+00 -2.7673103130e+00 1.5977073541e+00 2.7673103130e+00 
69100 5.3050604947e+00 -6.9728212868e-05 1.5977073541e+00 -2.7673103130e+00 1.5977073541e+00 2.7673103130e+00 
69200 5.3050604970e+00 -6.9849600386e-05 1.5977073541e+00 -2.7673103130e+00 1.5977073541e+00 2.7673103130e+00 
69300 5.3050604992e+00 -6.9969929495e-05 1.5977073541e+00 -2.7673103130e+00 1.5977073541e+00 2.7673103130e+00 
69400 5.3050605015e+00 -7.0089219187e-05 1.5977073541e+00 -2.7673103130e+00 1.5977073541e+00 2.7673103130e+00 
69500 5.3050605037e+00 -7.0207488126e-05 1.5977073541e+00 -2.7673103130e+00 1.5977073541e+00 2.7673103130e+00 
69600 5.3050605059e+00 -7.0324754630e-05 1.5977073541e+00 -2.7673103130e+00 1.5977073541e+00 2.7673103130e+00 
69700 5.3050605080e+00 -7.0441036659e-05 1.5977073541e+00 -2.7673103130e+00 1.5977073541e+00 2.7673103130e+00 
69800 5.3050605102e+00 -7.0556351808e-05 1.5977073541e+00 -2.7673103130e+00 1.5977073541e+00 2.7673103130e+00 
69900 5.3050605123e+00 -7.0670717287e-05 1.5977073541e+00 -2.7673103130e+00 1.5977073541e+00 2.7673103130e+00 
70000 5.3050605143e+00 -7.0784149928e-05 1.5977073541e+00 -2.7673103130e+00 1.5977073541e+00 2.7673103130e+00 
70100 5.3050605162e+00 -6.9378861938e-05 1.5977095693e+00 -2.7673141498e+00 1.5977095693e+00 2.7673141498e+00 
70200 5.3050605182e+00 -6.9491325777e-05 1.5977095693e+00 -2.7673141498e+00 1.5977095693e+00 2.7673141498e+00 
70300 5.3050605202e+00 -6.9602776724e-05 1.5977095693e+00 -2.7673141498e+00 1.5977095693e+00 2.7673141498e+00 
70400 5.3050605222e+00 -6.9713233112e-05 1.5977095693e+00 -2.7673141498e+00 1.5977095693e+00 2.7673141498e+00 
70500 5.3050605241e+00 -6.9822713013e-05 1.5977095693e+00 -2.7673141498e+00 1.5977095693e+00 2.7673141498e+00 
70600 5.3050605261e+00 -6.9931234218e-05 1.5977095693e+00 -2.7673141498e+00 1.5977095693e+00 2.7673141498e+00 
70700 5.3050605280e+00 -7.0038814223e-05 1.5977095693e+00 -2.7673141498e+00 1.5977095693e+00 2.7673141498e+00 
70800 5.3050605298e+00 -7.0145470211e-05 1.5977095693e+00 -2.7673141498e+00 1.5977095693e+00 2.7673141498e+00 
70900 5.3050605317e+00 -7.0251219040e-05 1.5977095693e+00 -2.7673141498e+00 1.5977095693e+00 2.7673141498e+00 
71000 5.3050605335e+00 -7.0356077232e-05 1.5977095693e+00 -2.7673141498e+00 1.5977095693e+00 2.7673141498e+00 
71100 5.3050605353e+00 -7.0460060961e-05 1.5977095693e+00 -2.7673141498e+00 1.5977095693e+00 2.7673141498e+00 
71200 5.3050605371e+00 -7.0563186046e-05 1.5977095693e+00 -2.7673141498e+00 1.5977095693e+00 2.7673141498e+00 
71300 5.3050605389e+00 -7.0665467946e-05 1.5977095693e+00 -2.7673141498e+00 1.5977095693e+00 2.7673141498e+00 
71400 5.3050605406e+00 -7.0766921746e-05 1.5977095693e+00 -2.7673141498e+00 1.5977095693e+00 2.7673141498e+00 
71500 5.3050605422e+00 -6.9350128438e-05 1.5977117839e+00 -2.7673179856e+00 1.5977117839e+00 2.7673179856e+00 
71600 5.3050605439e+00 -6.9450817794e-05 1.5977117839e+00 -2.7673179856e+00 1.5977117839e+00 2.7673179856e+00 
71700 5.3050605455e+00 -6.9550593923e-05 1.5977117839e+00 -2.7673179856e+00 1.5977117839e+00 2.7673179856e+00 
71800 5.3050605472e+00 -6.9649473504e-05 1.5977117839e+00 -2.7673179856e+00 1.5977117839e+00 2.7673179856e+00 
71900 5.3050605488e+00 -6.9747472981e-05 1.5977117839e+00 -2.7673179856e+00 1.5977117839e+00 2.7673179856e+00 
72000 5.3050605504e+00 -6.9844608546e-05 1.5977117839e+00 -2.7673179856e+00 1.5977117839e+00 2.7673179856e+00 
72100 5.3050605520e+00 -6.9940896124e-05 1.5977117839e+00 -2.7673179856e+00 1.5977117839e+00 2.7673179856e+00 
72200 5.3050605536e+00 -7.0036351351e-05 1.5977117839e+00 -2.7673179856e+00 1.5977117839e+00 2.7673179856e+00 
72300 5.3050605552e+00 -7.0130989572e-05 1.5977117839e+00 -2.7673179856e+00 1.5977117839e+00 2.7673179856e+00 
72400 5.3050605567e+00 -7.0224825823e-05 1.5977117839e+00 -2.7673179856e+00 1.5977117839e+00 2.7673179856e+00 
72500 5.3050605582e+00 -7.0317874825e-05 1.5977117839e+00 -2.7673179856e+00 1.5977117839e+00 2.7673179856e+00 
72600 5.3050605597e+00 -7.0410150975e-05 1.5977117839e+00 -2.7673179856e+00 1.5977117839e+00 2.7673179856e+00 
72700 5.3050605612e+00 -7.0501668337e-05 1.5977117839e+00 -2.7673179856e+00 1.5977117839e+00 2.7673179856e+00 
72800 5.3050605627e+00 -7.0592440639e-05 1.5977117839e+00 -2.7673179856e+00 1.5977117839e+00 2.7673179856e+00 
72900 5.3050605641e+00 -7.0682481270e-05 1.5977117839e+00 -2.7673179856e+00 1.5977117839e+00 2.7673179856e+00 
73000 5.3050605655e+00 -7.0771803270e-05 1.5977117839e+00 -2.7673179856e+00 1.5977117839e+00 2.7673179856e+00 
73100 5.3050605667e+00 -6.9342881811e-05 1.5977139987e+00 -2.7673218217e+00 1.5977139987e+00 2.7673218217e+00 
73200 5.3050605681e+00 -6.9431652558e-05 1.5977139987e+00 -2.7673218217e+00 1.5977139987e+00 2.7673218217e+00 
73300 5.3050605695e+00 -6.9519613550e-05 1.5977139987e+00 -2.7673218217e+00 1.5977139987e+00 2.7673218217e+00 
73400 5.3050605709e+00 -6.9606779539e-05 1.5977139987e+00 -2.7673218217e+00 1.5977139987e+00 2.7673218217e+00 
73500 5.3050605722e+00 -6.9693165073e-05 1.5977139987e+00 -2.7673218217e+00 1.5977139987e+00 2.7673218217e+00 
73600 5.3050605735e+00 -6.9778784483e-05 1.5977139987e+00 -2.7673218217e+00 1.5977139987e+00 2.7673218217e+00 
73700 5.3050605748e+00 -6.9863651869e-05 1.5977139987e+00 -2.7673218217e+00 1.5977139987e+00 2.7673218217e+00 
73800 5.3050605761e+00 -6.9947781080e-05 1.5977139987e+00 -2.7673218217e+00 1.5977139987e+00 2.7673218217e+00 
73900 5.3050605774e+00 -7.0031185709e-05 1.5977139987e+00 -2.7673218217e+00 1.5977139987e+00 2.7673218217e+00 
74000 5.3050605786e+00 -7.0113879083e-05 1.5977139987e+00 -2.7673218217e+00 1.5977139987e+00 2.7673218217e+00 
74100 5.3050605799e+00 -7.0195874250e-05 1.5977139987e+00 -2.7673218217e+00 1.5977139987e+00 2.7673218217e+00 
74200 5.3050605811e+00 -7.0277183974e-05 1.5977139987e+00 -2.7673218217e+00 1.5977139987e+00 2.7673218217e+00 
74300 5.3050605823e+00 -7.0357820726e-05 1.5977139987e+00 -2.7673218217e+00 1.5977139987e+00 2.7673218217e+00 
74400 5.3050605835e+00 -7.0437796684e-05 1.5977139987e+00 -2.7673218217e+00 1.5977139987e+00 2.7673218217e+00 
74500 5.3050605847e+00 -7.0517123726e-05 1.5977139987e+00 -2.7673218217e+00 1.5977139987e+00 2.7673218217e+00 
74600 5.3050605859e+00 -7.0595813420e-05 1.5977139987e+00 -2.7673218217e+00 1.5977139987e+00 2.7673218217e+00 
74700 5.3050605870e+00 -7.0673877034e-05 1.5977139987e+00 -2.7673218217e+00 1.5977139987e+00 2.7673218217e+00 
74800 5.3050605882e+00 -7.0751325525e-05 1.5977139987e+00 -2.7673218217e+00 1.5977139987e+00 2.7673218217e+00 
74900 5.3050605891e+00 -6.9311071999e-05 1.5977162129e+00 -2.7673256568e+00 1.5977162129e+00 2.7673256568e+00 
75000 5.3050605902e+00 -6.9388170129e-05 1.5977162129e+00 -2.7673256568e+00 1.5977162129e+00 2.7673256568e+00 
75100 5.3050605913e+00 -6.9464556016e-05 1.5977162129e+00 -2.7673256568e+00 1.5977162129e+00 2.7673256568e+00 
75200 5.3050605924e+00 -6.9540242490e-05 1.5977162129e+00 -2.7673256568e+00 1.5977162129e+00 2.7673256568e+00 
75300 5.3050605935e+00 -6.9615242219e-05 1.5977162129e+00 -2.7673256568e+00 1.5977162129e+00 2.7673256568e+00 
75400 5.3050605945e+00 -6.9689567698e-05 1.5977162129e+00 -2.7673256568e+00 1.5977162129e+00 2.7673256568e+00 
75500 5.3050605956e+00 -6.9763231235e-05 1.5977162129e+00 -2.7673256568e+00 1.5977162129e+00 2.7673256568e+00 
75600 5.3050605966e+00 -6.9836244935e-05 1.5977162129e+00 -2.7673256568e+00 1.5977162129e+00 2.7673256568e+00 
75700 5.3050605976e+00 -6.9908620690e-05 1.5977162129e+00 -2.7673256568e+00 1.5977162129e+00 2.7673256568e+00 
75800 5.3050605986e+00 -6.9980370173e-05 1.5977162129e+00 -2.7673256568e+00 1.5977162129e+00 2.7673256568e+00 
75900 5.3050605996e+00 -7.0051504824e-05 1.5977162129e+00 -2.7673256568e+00 1.5977162129e+00 2.7673256568e+00 
76000 5.3050606006e+00 -7.0122035846e-05 1.5977162129e+00 -2.7673256568e+00 1.5977162129e+00 2.7673256568e+00 
76100 5.3050606016e+00 -7.0191974194e-05 1.5977162129e+00 -2.7673256568e+00 1.5977162129e+00 2.7673256568e+00 
76200 5.3050606025e+00 -7.0261330578e-05 1.5977162129e+00 -2.7673256568e+00 1.5977162129e+00 2.7673256568e+00 
76300 5.3050606035e+00 -7.0330115446e-05 1.5977162129e+00 -2.7673256568e+00 1.5977162129e+00 2.7673256568e+00 
76400 5.3050606044e+00 -7.0398338996e-05 1.5977162129e+00 -2.7673256568e+00 1.5977162129e+00 2.7673256568e+00 
76500 5.3050606053e+00 -7.0466011158e-05 1.5977162129e+00 -2.7673256568e+00 1.5977162129e+00 2.7673256568e+00 
76600 5.3050606063e+00 -7.0533141601e-05 1.5977162129e+00 -2.7673256568e+00 1.5977162129e+00 2.7673256568e+00 
76700 5.3050606072e+00 -7.0599739732e-05 1.5977162129e+00 -2.7673256568e+00 1.5977162129e+00 2.7673256568e+00 
76800 5.3050606081e+00 -7.0665814686e-05 1.5977162129e+00 -2.7673256568e+00 1.5977162129e+00 2.7673256568e+00 
76900 5.3050606089e+00 -7.0731375341e-05 1.5977162129e+00 -2.7673256568e+00 1.5977162129e+00 2.7673256568e+00 
77000 5.3050606096e+00 -6.9279761387e-05 1.5977184264e+00 -2.7673294907e+00 1.5977184264e+00 2.7673294907e+00 
77100 5.3050606105e+00 -6.9345167241e-05 1.5977184264e+00 -2.7673294907e+00 1.5977184264e+00 2.7673294907e+00 
77200 5.3050606113e+00 -6.9409955720e-05 1.5977184264e+00 -2.7673294907e+00 1.5977184264e+00 2.7673294907e+00 
77300 5.3050606122e+00 -6.9474137752e-05 1.5977184264e+00 -2.7673294907e+00 1.5977184264e+00 2.7673294907e+00 
77400 5.3050606130e+00 -6.9537724155e-05 1.5977184264e+00 -2.7673294907e+00 1.5977184264e+00 2.7673294907e+00 
77500 5.3050606138e+00 -6.9600725623e-05 1.5977184264e+00 -2.7673294907e+00 1.5977184264e+00 2.7673294907e+00 
77600 5.3050606146e+00 -6.9663152709e-05 1.5977184264e+00 -2.7673294907e+00 1.5977184264e+00 2.7673294907e+00 
77700 5.3050606154e+00 -6.9725015812e-05 1.5977184264e+00 -2.7673294907e+00 1.5977184264e+00 2.7673294907e+00 
77800 5.3050606162e+00 -6.9786325172e-05 1.5977184264e+00 -2.7673294907e+00 1.5977184264e+00 2.7673294907e+00 
77900 5.3050606170e+00 -6.9847090857e-05 1.5977184264e+00 -2.7673294907e+00 1.5977184264e+00 2.7673294907e+00 
78000 5.3050606177e+00 -6.9907322751e-05 1.5977184264e+00 -2.7673294907e+00 1.5977184264e+00 2.7673294907e+00 
78100 5.3050606185e+00 -6.9967030549e-05 1.5977184264e+00 -2.7673294907e+00 1.5977184264e+00 2.7673294907e+00 
78200 5.3050606192e+00 -7.0026223754e-05 1.5977184264e+00 -2.7673294907e+00 1.5977184264e+00 2.7673294907e+00 
78300 5.3050606200e+00 -7.0084911663e-05 1.5977184264e+00 -2.7673294907e+00 1.5977184264e+00 2.7673294907e+00 
78400 5.3050606207e+00 -7.0143103371e-05 1.5977184264e+00 -2.7673294907e+00 1.5977184264e+00 2.7673294907e+00 
78500 5.3050606214e+00 -7.0200807756e-05 1.5977184264e+00 -2.7673294907e+00 1.5977184264e+00 2.7673294907e+00 
78600 5.3050606221e+00 -7.0258033489e-05 1.5977184264e+00 -2.7673294907e+00 1.5977184264e+00 2.7673294907e+00 
78700 5.3050606229e+00 -7.0314789021e-05 1.5977184264e+00 -2.7673294907e+00 1.5977184264e+00 2.7673294907e+00 
78800 5.3050606235e+00 -7.0371082584e-05 1.5977184264e+00 -2.7673294907e+00 1.5977184264e+00 2.7673294907e+00 
78900 5.3050606242e+00 -7.0426922190e-05 1.5977184264e+00 -2.7673294907e+00 1.5977184264e+00 2.7673294907e+00 
79000 5.3050606249e+00 -7.0482315632e-05 1.5977184264e+00 -2.7673294907e+00 1.5977184264e+00 2.7673294907e+00 
79100 5.3050606256e+00 -7.0537270480e-05 1.5977184264e+00 -2.7673294907e+00 1.5977184264e+00 2.7673294907e+00 
79200 5.3050606263e+00 -7.0591794087e-05 1.5977184264e+00 -2.7673294907e+00 1.5977184264e+00 2.7673294907e+00 
79300 5.3050606269e+00 -7.0645893583e-05 1.5977184264e+00 -2.7673294907e+00 1.5977184264e+00 2.7673294907e+00 
79400 5.3050606276e+00 -7.0699575880e-05 1.5977184264e+00 -2.7673294907e+00 1.5977184264e+00 2.7673294907e+00 
79500 5.3050606282e+00 -7.0752847673e-05 1.5977184264e+00 -2.7673294907e+00 1.5977184264e+00 2.7673294907e+00 
79600 5.3050606286e+00 -6.9288586759e-05 1.5977206406e+00 -2.7673333258e+00 1.5977206406e+00 2.7673333258e+00 
79700 5.3050606293e+00 -6.9341905495e-05 1.5977206406e+00 -2.7673333258e+00 1.5977206406e+00 2.7673333258e+00 
79800 5.3050606299e+00 -6.9394704364e-05 1.5977206406e+00 -2.7673333258e+00 1.5977206406e+00 2.7673333258e+00 
79900 5.3050606305e+00 -6.9446992324e-05 1.5977206406e+00 -2.7673333258e+00 1.5977206406e+00 2.7673333258e+00 
80000 5.3050606311e+00 -6.9498778274e-05 1.5977206406e+00 -2.7673333258e+00 1.5977206406e+00 2.7673333258e+00 
80100 5.3050606317e+00 -6.9550071040e-05 1.5977206406e+00 -2.7673333258e+00 1.5977206406e+00 2.7673333258e+00 
80200 5.3050606323e+00 -6.9600879365e-05 1.5977206406e+00 -2.7673333258e+00 1.5977206406e+00 2.7673333258e+00 
80300 5.3050606328e+00 -6.9651211892e-05 1.5977206406e+00 -2.7673333258e+00 1.5977206406e+00 2.7673333258e+00 
80400 5.3050606334e+00 -6.9701077156e-05 1.5977206406e+00 -2.7673333258e+00 1.5977206406e+00 2.7673333258e+00 
80500 5.3050606340e+00 -6.9750483575e-05 1.5977206406e+00 -2.7673333258e+00 1.5977206406e+00 2.7673333258e+00 
80600 5.3050606345e+00 -6.9799439439e-05 1.5977206406e+00 -2.7673333258e+00 1.5977206406e+00 2.7673333258e+00 
80700 5.3050606351e+00 -6.9847952904e-05 1.5977206406e+00 -2.7673333258e+00 1.5977206406e+00 2.7673333258e+00 
80800 5.3050606356e+00 -6.9896031981e-05 1.5977206406e+00 -2.7673333258e+00 1.5977206406e+00 2.7673333258e+00 
80900 5.3050606362e+00 -6.9943684532e-05 1.5977206406e+00 -2.7673333258e+00 1.5977206406e+00 2.7673333258e+00 
81000 5.3050606367e+00 -6.9990918268e-05 1.5977206406e+00 -2.7673333258e+00 1.5977206406e+00 2.7673333258e+00 
81100 5.3050606372e+00 -7.0037740737e-05 1.5977206406e+00 -2.7673333258e+00 1.5977206406e+00 2.7673333258e+00 
81200 5.3050606378e+00 -7.0084159327e-05 1.5977206406e+00 -2.7673333258e+00 1.5977206406e+00 2.7673333258e+00 
81300 5.3050606383e+00 -7.0130181257e-05 1.5977206406e+00 -2.7673333258e+00 1.5977206406e+00 2.7673333258e+00 
81400 5.3050606388e+00 -7.0175813577e-05 1.5977206406e+00 -2.7673333258e+00 1.5977206406e+00 2.7673333258e+00 
81500 5.3050606393e+00 -7.0221063167e-05 1.5977206406e+00 -2.7673333258e+00 1.5977206406e+00 2.7673333258e+00 
81600 5.3050606398e+00 -7.0265936730e-05 1.5977206406e+00 -2.7673333258e+00 1.5977206406e+00 2.7673333258e+00 
81700 5.3050606403e+00 -7.0310440797e-05 1.5977206406e+00 -2.7673333258e+00 1.5977206406e+00 2.7673333258e+00 
81800 5.3050606407e+00 -7.0354581724e-05 1.5977206406e+00 -2.7673333258e+00 1.5977206406e+00 2.7673333258e+00 
81900 5.3050606412e+00 -7.0398365689e-05 1.5977206406e+00 -2.7673333258e+00 1.5977206406e+00 2.7673333258e+00 
82000 5.3050606417e+00 -7.0441798697e-05 1.5977206406e+00 -2.7673333258e+00 1.5977206406e+00 2.7673333258e+00 
82100 5.3050606422e+00 -7.0484886577e-05 1.5977206406e+00 -2.7673333258e+00 1.5977206406e+00 2.7673333258e+00 
82200 5.3050606426e+00 -7.0527634985e-05 1.5977206406e+00 -2.7673333258e+00 1.5977206406e+00 2.7673333258e+00 
82300 5.3050606431e+00 -7.0570049401e-05 1.5977206406e+00 -2.7673333258e+00 1.5977206406e+00 2.7673333258e+00 
82400 5.3050606435e+00 -7.0612135139e-05 1.5977206406e+00 -2.7673333258e+00 1.5977206406e+00 2.7673333258e+00 
82500 5.3050606440e+00 -7.0653897338e-05 1.5977206406e+00 -2.7673333258e+00 1.5977206406e+00 2.7673333258e+00 
82600 5.3050606444e+00 -7.0695340974e-05 1.5977206406e+00 -2.7673333258e+00 1.5977206406e+00 2.7673333258e+00 
82700 5.3050606448e+00 -7.0736470856e-05 1.5977206406e+00 -2.7673333258e+00 1.5977206406e+00 2.7673333258e+00 
82800 5.3050606451e+00 -6.9260514941e-05 1.5977228542e+00 -2.7673371599e+00 1.5977228542e+00 2.7673371599e+00 
82900 5.3050606455e+00 -6.9301879835e-05 1.5977228542e+00 -2.7673371599e+00 1.5977228542e+00 2.7673371599e+00 
83000 5.3050606459e+00 -6.9342816284e-05 1.5977228542e+00 -2.7673371599e+00 1.5977228542e+00 2.7673371599e+00 
83100 5.3050606463e+00 -6.9383331567e-05 1.5977228542e+00 -2.7673371599e+00 1.5977228542e+00 2.7673371599e+00 
83200 5.3050606467e+00 -6.9423432960e-05 1.5977228542e+00 -2.7673371599e+00 1.5977228542e+00 2.7673371599e+00 
83300 5.3050606471e+00 -6.9463127718e-05 1.5977228542e+00 -2.7673371599e+00 1.5977228542e+00 2.7673371599e+00 
83400 5.3050606475e+00 -6.9502423064e-05 1.5977228542e+00 -2.7673371599e+00 1.5977228542e+00 2.7673371599e+00 
83500 5.3050606479e+00 -6.9541326175e-05 1.5977228542e+00 -2.7673371599e+00 1.5977228542e+00 2.7673371599e+00 
83600 5.3050606483e+00 -6.9579844171e-05 1.5977228542e+00 -2.7673371599e+00 1.5977228542e+00 2.7673371599e+00 
83700 5.3050606487e+00 -6.9617984106e-05 1.5977228542e+00 -2.7673371599e+00 1.5977228542e+00 2.7673371599e+00 
83800 5.3050606491e+00 -6.9655752953e-05 1.5977228542e+00 -2.7673371599e+00 1.5977228542e+00 2.7673371599e+00 
83900 5.3050606494e+00 -6.9693157602e-05 1.5977228542e+00 -2.7673371599e+00 1.5977228542e+00 2.7673371599e+00 
84000 5.3050606498e+00 -6.9730204849e-05 1.5977228542e+00 -2.7673371599e+00 1.5977228542e+00 2.7673371599e+00 
84100 5.3050606502e+00 -6.9766901386e-05 1.5977228542e+00 -2.7673371599e+00 1.5977228542e+00 2.7673371599e+00 
84200 5.3050606505e+00 -6.9803253803e-05 1.5977228542e+00 -2.7673371599e+00 1.5977228542e+00 2.7673371599e+00 
84300 5.3050606509e+00 -6.9839268571e-05 1.5977228542e+00 -2.7673371599e+00 1.5977228542e+00 2.7673371599e+00 
84400 5.3050606512e+00 -6.9874952047e-05 1.5977228542e+00 -2.7673371599e+00 1.5977228542e+00 2.7673371599e+00 
84500 5.3050606516e+00 -6.9910310462e-05 1.5977228542e+00 -2.7673371599e+00 1.5977228542e+00 2.7673371599e+00 
84600 5.3050606519e+00 -6.9945349923e-05 1.5977228542e+00 -2.7673371599e+00 1.5977228542e+00 2.7673371599e+00 
84700 5.3050606523e+00 -6.9980076405e-05 1.5977228542e+00 -2.7673371599e+00 1.5977228542e+00 2.7673371599e+00 
84800 5.3050606526e+00 -7.0014495753e-05 1.5977228542e+00 -2.7673371599e+00 1.5977228542e+00 2.7673371599e+00 
84900 5.3050606529e+00 -7.0048613673e-05 1.5977228542e+00 -2.7673371599e+00 1.5977228542e+00 2.7673371599e+00 
85000 5.3050606533e+00 -7.0082435736e-05 1.5977228542e+00 -2.7673371599e+00 1.5977228542e+00 2.7673371599e+00 
85100 5.3050606536e+00 -7.0115967376e-05 1.5977228542e+00 -2.7673371599e+00 1.5977228542e+00 2.7673371599e+00 
85200 5.3050606539e+00 -7.0149213888e-05 1.5977228542e+00 -2.7673371599e+00 1.5977228542e+00 2.7673371599e+00 
85300 5.3050606542e+00 -7.0182180421e-05 1.5977228542e+00 -2.7673371599e+00 1.5977228542e+00 2.7673371599e+00 
85400 5.3050606546e+00 -7.0214871992e-05 1.5977228542e+00 -2.7673371599e+00 1.5977228542e+00 2.7673371599e+00 
85500 5.3050606549e+00 -7.0247293473e-05 1.5977228542e+00 -2.7673371599e+00 1.5977228542e+00 2.7673371599e+00 
85600 5.3050606552e+00 -7.0279449598e-05 1.5977228542e+00 -2.7673371599e+00 1.5977228542e+00 2.7673371599e+00 
85700 5.3050606555e+00 -7.0311344961e-05 1.5977228542e+00 -2.7673371599e+00 1.5977228542e+00 2.7673371599e+00 
85800 5.3050606558e+00 -7.0342984016e-05 1.5977228542e+00 -2.7673371599e+00 1.5977228542e+00 2.7673371599e+00 
85900 5.3050606561e+00 -7.0374371083e-05 1.5977228542e+00 -2.7673371599e+00 1.5977228542e+00 2.7673371599e+00 
86000 5.3050606563e+00 -7.0405510344e-05 1.5977228542e+00 -2.7673371599e+00 1.5977228542e+00 2.7673371599e+00 
86100 5.3050606566e+00 -7.0436405848e-05 1.5977228542e+00 -2.7673371599e+00 1.5977228542e+00 2.7673371599e+00 
86200 5.3050606569e+00 -7.0467061511e-05 1.5977228542e+00 -2.7673371599e+00 1.5977228542e+00 2.7673371599e+00 
86300 5.3050606572e+00 -7.0497481118e-05 1.5977228542e+00 -2.7673371599e+00 1.5977228542e+00 2.7673371599e+00 
86400 5.3050606575e+00 -7.0527668327e-05 1.5977228542e+00 -2.7673371599e+00 1.5977228542e+00 2.7673371599e+00 
86500 5.3050606578e+00 -7.0557626666e-05 1.5977228542e+00 -2.7673371599e+00 1.5977228542e+00 2.7673371599e+00 
86600 5.3050606580e+00 -7.0587359546e-05 1.5977228542e+00 -2.7673371599e+00 1.5977228542e+00 2.7673371599e+00 
86700 5.3050606583e+00 -7.0616870250e-05 1.5977228542e+00 -2.7673371599e+00 1.5977228542e+00 2.7673371599e+00 
86800 5.3050606586e+00 -7.0646161946e-05 1.5977228542e+00 -2.7673371599e+00 1.5977228542e+00 2.7673371599e+00 
86900 5.3050606588e+00 -7.0675237683e-05 1.5977228542e+00 -2.7673371599e+00 1.5977228542e+00 2.7673371599e+00 
87000 5.3050606591e+00 -7.0704100400e-05 1.5977228542e+00 -2.7673371599e+00 1.5977228542e+00 2.7673371599e+00 
87100 5.3050606593e+00 -7.0732752923e-05 1.5977228542e+00 -2.7673371599e+00 1.5977228542e+00 2.7673371599e+00 
87200 5.3050606594e+00 -6.9244501781e-05 1.5977250678e+00 -2.7673409939e+00 1.5977250678e+00 2.7673409939e+00 
87300 5.3050606596e+00 -6.9273590878e-05 1.5977250678e+00 -2.7673409939e+00 1.5977250678e+00 2.7673409939e+00 
87400 5.3050606599e+00 -6.9302349463e-05 1.5977250678e+00 -2.7673409939e+00 1.5977250678e+00 2.7673409939e+00 
87500 5.3050606601e+00 -6.9330783055e-05 1.5977250678e+00 -2.7673409939e+00 1.5977250678e+00 2.7673409939e+00 
87600 5.3050606604e+00 -6.9358897218e-05 1.5977250678e+00 -2.7673409939e+00 1.5977250678e+00 2.7673409939e+00 
87700 5.3050606606e+00 -6.9386697555e-05 1.5977250678e+00 -2.7673409939e+00 1.5977250678e+00 2.7673409939e+00 
87800 5.3050606608e+00 -6.9414189690e-05 1.5977250678e+00 -2.7673409939e+00 1.5977250678e+00 2.7673409939e+00 
87900 5.3050606611e+00 -6.9441379256e-05 1.5977250678e+00 -2.7673409939e+00 1.5977250678e+00 2.7673409939e+00 
88000 5.3050606613e+00 -6.9468271877e-05 1.5977250678e+00 -2.7673409939e+00 1.5977250678e+00 2.7673409939e+00 
88100 5.3050606615e+00 -6.9494873166e-05 1.5977250678e+00 -2.7673409939e+00 1.5977250678e+00 2.7673409939e+00 
88200 5.3050606617e+00 -6.9521188710e-05 1.5977250678e+00 -2.7673409939e+00 1.5977250678e+00 2.7673409939e+00 
88300 5.3050606620e+00 -6.9547224058e-05 1.5977250678e+00 -2.7673409939e+00 1.5977250678e+00 2.7673409939e+00 
88400 5.3050606622e+00 -6.9572984717e-05 1.5977250678e+00 -2.7673409939e+00 1.5977250678e+00 2.7673409939e+00 
88500 5.3050606624e+00 -6.9598476142e-05 1.5977250678e+00 -2.7673409939e+00 1.5977250678e+00 2.7673409939e+00 
88600 5.3050606626e+00 -6.9623703730e-05 1.5977250678e+00 -2.7673409939e+00 1.5977250678e+00 2.7673409939e+00 
88700 5.3050606628e+00 -6.9648672806e-05 1.5977250678e+00 -2.7673409939e+00 1.5977250678e+00 2.7673409939e+00 
88800 5.3050606630e+00 -6.9673388630e-05 1.5977250678e+00 -2.7673409939e+00 1.5977250678e+00 2.7673409939e+00 
88900 5.3050606632e+00 -6.9697856376e-05 1.5977250678e+00 -2.7673409939e+00 1.5977250678e+00 2.7673409939e+00 
89000 5.3050606634e+00 -6.9722081145e-05 1.5977250678e+00 -2.7673409939e+00 1.5977250678e+00 2.7673409939e+00 
89100 5.3050606636e+00 -6.9746067942e-05 1.5977250678e+00 -2.7673409939e+00 1.5977250678e+00 2.7673409939e+00 
89200 5.3050606638e+00 -6.9769821683e-05 1.5977250678e+00 -2.7673409939e+00 1.5977250678e+00 2.7673409939e+00 
89300 5.3050606640e+00 -6.9793347192e-05 1.5977250678e+00 -2.7673409939e+00 1.5977250678e+00 2.7673409939e+00 
89400 5.3050606642e+00 -6.9816649191e-05 1.5977250678e+00 -2.7673409939e+00 1.5977250678e+00 2.7673409939e+00 
89500 5.3050606644e+00 -6.9839732305e-05 1.5977250678e+00 -2.7673409939e+00 1.5977250678e+00 2.7673409939e+00 
89600 5.3050606646e+00 -6.9862601051e-05 1.5977250678e+00 -2.7673409939e+00 1.5977250678e+00 2.7673409939e+00 
89700 5.3050606648e+00 -6.9885259850e-05 1.5977250678e+00 -2.7673409939e+00 1.5977250678e+00 2.7673409939e+00 
89800 5.3050606650e+00 -6.9907713010e-05 1.5977250678e+00 -2.7673409939e+00 1.5977250678e+00 2.7673409939e+00 
89900 5.3050606652e+00 -6.9929964733e-05 1.5977250678e+00 -2.7673409939e+00 1.5977250678e+00 2.7673409939e+00 
90000 5.3050606653e+00 -6.9952019115e-05 1.5977250678e+00 -2.7673409939e+00 1.5977250678e+00 2.7673409939e+00 
90100 5.3050606655e+00 -6.9973880140e-05 1.5977250678e+00 -2.7673409939e+00 1.5977250678e+00 2.7673409939e+00 
90200 5.3050606657e+00 -6.9995551688e-05 1.5977250678e+00 -2.7673409939e+00 1.5977250678e+00 2.7673409939e+00 
90300 5.3050606659e+00 -7.0017037524e-05 1.5977250678e+00 -2.7673409939e+00 1.5977250678e+00 2.7673409939e+00 
90400 5.3050606660e+00 -7.0038341310e-05 1.5977250678e+00 -2.7673409939e+00 1.5977250678e+00 2.7673409939e+00 
90500 5.3050606662e+00 -7.0059466593e-05 1.5977250678e+00 -2.7673409939e+00 1.5977250678e+00 2.7673409939e+00 
90600 5.3050606664e+00 -7.0080416820e-05 1.5977250678e+00 -2.7673409939e+00 1.5977250678e+00 2.7673409939e+00 
90700 5.3050606665e+00 -7.0101195325e-05 1.5977250678e+00 -2.7673409939e+00 1.5977250678e+00 2.7673409939e+00 
90800 5.3050606667e+00 -7.0121805339e-05 1.5977250678e+00 -2.7673409939e+00 1.5977250678e+00 2.7673409939e+00 
90900 5.3050606669e+00 -7.0142249986e-05 1.5977250678e+00 -2.7673409939e+00 1.5977250678e+00 2.7673409939e+00 
91000 5.3050606670e+00 -7.0162532289e-05 1.5977250678e+00 -2.7673409939e+00 1.5977250678e+00 2.7673409939e+00 
91100 5.3050606672e+00 -7.0182655167e-05 1.5977250678e+00 -2.7673409939e+00 1.5977250678e+00 2.7673409939e+00 
91200 5.3050606673e+00 -7.0202621440e-05 1.5977250678e+00 -2.7673409939e+00 1.5977250678e+00 2.7673409939e+00 
91300 5.3050606675e+00 -7.0222433825e-05 1.5977250678e+00 -2.7673409939e+00 1.5977250678e+00 2.7673409939e+00 
91400 5.3050606676e+00 -7.0242094947e-05 1.5977250678e+00 -2.7673409939e+00 1.5977250678e+00 2.7673409939e+00 
91500 5.3050606678e+00 -7.0261607333e-05 1.5977250678e+00 -2.7673409939e+00 1.5977250678e+00 2.7673409939e+00 
91600 5.3050606679e+00 -7.0280973418e-05 1.5977250678e+00 -2.7673409939e+00 1.5977250678e+00 2.7673409939e+00 
91700 5.3050606681e+00 -7.0300195543e-05 1.5977250678e+00 -2.7673409939e+00 1.5977250678e+00 2.7673409939e+00 
91800 5.3050606682e+00 -7.0319275963e-05 1.5977250678e+00 -2.7673409939e+00 1.5977250678e+00 2.7673409939e+00 
91900 5.3050606684e+00 -7.0338216842e-05 1.5977250678e+00 -2.7673409939e+00 1.5977250678e+00 2.7673409939e+00 
92000 5.3050606685e+00 -7.0357020262e-05 1.5977250678e+00 -2.7673409939e+00 1.5977250678e+00 2.7673409939e+00 
92100 5.3050606687e+00 -7.0375688221e-05 1.5977250678e+00 -2.7673409939e+00 1.5977250678e+00 2.7673409939e+00 
92200 5.3050606688e+00 -7.0394222636e-05 1.5977250678e+00 -2.7673409939e+00 1.5977250678e+00 2.7673409939e+00 
92300 5.3050606689e+00 -7.0412625347e-05 1.5977250678e+00 -2.7673409939e+00 1.5977250678e+00 2.7673409939e+00 
92400 5.3050606691e+00 -7.0430898116e-05 1.5977250678e+00 -2.7673409939e+00 1.5977250678e+00 2.7673409939e+00 
92500 5.3050606692e+00 -7.0449042632e-05 1.5977250678e+00 -2.7673409939e+00 1.5977250678e+00 2.7673409939e+00 
92600 5.3050606693e+00 -7.0467060513e-05 1.5977250678e+00 -2.7673409939e+00 1.5977250678e+00 2.7673409939e+00 
92700 5.3050606695e+00 -7.0484953307e-05 1.5977250678e+00 -2.7673409939e+00 1.5977250678e+00 2.7673409939e+00 
92800 5.3050606696e+00 -7.0502722496e-05 1.5977250678e+00 -2.7673409939e+00 1.5977250678e+00 2.7673409939e+00 
92900 5.3050606697e+00 -7.0520369495e-05 1.5977250678e+00 -2.7673409939e+00 1.5977250678e+00 2.7673409939e+00 
93000 5.3050606698e+00 -7.0537895659e-05 1.5977250678e+00 -2.7673409939e+00 1.5977250678e+00 2.7673409939e+00 
93100 5.3050606700e+00 -7.0555302282e-05 1.5977250678e+00 -2.7673409939e+00 1.5977250678e+00 2.7673409939e+00 
93200 5.3050606701e+00 -7.0572590601e-05 1.5977250678e+00 -2.7673409939e+00 1.5977250678e+00 2.7673409939e+00 
93300 5.3050606702e+00 -7.0589761796e-05 1.5977250678e+00 -2.7673409939e+00 1.5977250678e+00 2.7673409939e+00 
93400 5.3050606703e+00 -7.0606816993e-05 1.5977250678e+00 -2.7673409939e+00 1.5977250678e+00 2.7673409939e+00 
93500 5.3050606705e+00 -7.0623757270e-05 1.5977250678e+00 -2.7673409939e+00 1.5977250678e+00 2.7673409939e+00 
93600 5.3050606706e+00 -7.0640583653e-05 1.5977250678e+00 -2.7673409939e+00 1.5977250678e+00 2.7673409939e+00 
93700 5.3050606707e+00 -7.0657297120e-05 1.5977250678e+00 -2.7673409939e+00 1.5977250678e+00 2.7673409939e+00 
93800 5.3050606708e+00 -7.0673898608e-05 1.5977250678e+00 -2.7673409939e+00 1.5977250678e+00 2.7673409939e+00 
93900 5.3050606709e+00 -7.0690389008e-05 1.5977250678e+00 -2.7673409939e+00 1.5977250678e+00 2.7673409939e+00 
94000 5.3050606710e+00 -7.0706769171e-05 1.5977250678e+00 -2.7673409939e+00 1.5977250678e+00 2.7673409939e+00 
94100 5.3050606711e+00 -7.0723039908e-05 1.5977250678e+00 -2.7673409939e+00 1.5977250678e+00 2.7673409939e+00 
94200 5.3050606711e+00 -6.9222714782e-05 1.5977272810e+00 -2.7673448274e+00 1.5977272810e+00 2.7673448274e+00 
94300 5.3050606712e+00 -6.9239617969e-05 1.5977272810e+00 -2.7673448274e+00 1.5977272810e+00 2.7673448274e+00 
94400 5.3050606713e+00 -6.9256285790e-05 1.5977272810e+00 -2.7673448274e+00 1.5977272810e+00 2.7673448274e+00 
94500 5.3050606714e+00 -6.9272722028e-05 1.5977272810e+00 -2.7673448274e+00 1.5977272810e+00 2.7673448274e+00 
94600 5.3050606715e+00 -6.9288930577e-05 1.5977272810e+00 -2.7673448274e+00 1.5977272810e+00 2.7673448274e+00 
94700 5.3050606716e+00 -6.9304915432e-05 1.5977272810e+00 -2.7673448274e+00 1.5977272810e+00 2.7673448274e+00 
94800 5.3050606717e+00 -6.9320680673e-05 1.5977272810e+00 -2.7673448274e+00 1.5977272810e+00 2.7673448274e+00 
94900 5.3050606718e+00 -6.9336230448e-05 1.5977272810e+00 -2.7673448274e+00 1.5977272810e+00 2.7673448274e+00 
95000 5.3050606719e+00 -6.9351568964e-05 1.5977272810e+00 -2.7673448274e+00 1.5977272810e+00 2.7673448274e+00 
95100 5.3050606720e+00 -6.9366700472e-05 1.5977272810e+00 -2.7673448274e+00 1.5977272810e+00 2.7673448274e+00 
95200 5.3050606721e+00 -6.9381629253e-05 1.5977272810e+00 -2.7673448274e+00 1.5977272810e+00 2.7673448274e+00 
95300 5.3050606722e+00 -6.9396359610e-05 1.5977272810e+00 -2.7673448274e+00 1.5977272810e+00 2.7673448274e+00 
95400 5.3050606723e+00 -6.9410895853e-05 1.5977272810e+00 -2.7673448274e+00 1.5977272810e+00 2.7673448274e+00 
95500 5.3050606724e+00 -6.9425242299e-05 1.5977272810e+00 -2.7673448274e+00 1.5977272810e+00 2.7673448274e+00 
95600 5.3050606725e+00 -6.9439403253e-05 1.5977272810e+00 -2.7673448274e+00 1.5977272810e+00 2.7673448274e+00 
95700 5.3050606725e+00 -6.9453383002e-05 1.5977272810e+00 -2.7673448274e+00 1.5977272810e+00 2.7673448274e+00 
95800 5.3050606726e+00 -6.9467185814e-05 1.5977272810e+00 -2.7673448274e+00 1.5977272810e+00 2.7673448274e+00 
95900 5.3050606727e+00 -6.9480815920e-05 1.5977272810e+00 -2.7673448274e+00 1.5977272810e+00 2.7673448274e+00 
96000 5.3050606728e+00 -6.9494277516e-05 1.5977272810e+00 -2.7673448274e+00 1.5977272810e+00 2.7673448274e+00 
96100 5.3050606729e+00 -6.9507574753e-05 1.5977272810e+00 -2.7673448274e+00 1.5977272810e+00 2.7673448274e+00 
96200 5.3050606730e+00 -6.9520711735e-05 1.5977272810e+00 -2.7673448274e+00 1.5977272810e+00 2.7673448274e+00 
96300 5.3050606731e+00 -6.9533692507e-05 1.5977272810e+00 -2.7673448274e+00 1.5977272810e+00 2.7673448274e+00 
96400 5.3050606732e+00 -6.9546521058e-05 1.5977272810e+00 -2.7673448274e+00 1.5977272810e+00 2.7673448274e+00 
96500 5.3050606732e+00 -6.9559201312e-05 1.5977272810e+00 -2.7673448274e+00 1.5977272810e+00 2.7673448274e+00 
96600 5.3050606733e+00 -6.9571737128e-05 1.5977272810e+00 -2.7673448274e+00 1.5977272810e+00 2.7673448274e+00 
96700 5.3050606734e+00 -6.9584132293e-05 1.5977272810e+00 -2.7673448274e+00 1.5977272810e+00 2.7673448274e+00 
96800 5.3050606735e+00 -6.9596390519e-05 1.5977272810e+00 -2.7673448274e+00 1.5977272810e+00 2.7673448274e+00 
96900 5.3050606736e+00 -6.9608515445e-05 1.5977272810e+00 -2.7673448274e+00 1.5977272810e+00 2.7673448274e+00 
97000 5.3050606736e+00 -6.9620510631e-05 1.5977272810e+00 -2.7673448274e+00 1.5977272810e+00 2.7673448274e+00 
97100 5.3050606737e+00 -6.9632379555e-05 1.5977272810e+00 -2.7673448274e+00 1.5977272810e+00 2.7673448274e+00 
97200 5.3050606738e+00 -6.9644125614e-05 1.5977272810e+00 -2.7673448274e+00 1.5977272810e+00 2.7673448274e+00 
97300 5.3050606739e+00 -6.9655752122e-05 1.5977272810e+00 -2.7673448274e+00 1.5977272810e+00 2.7673448274e+00 
97400 5.3050606739e+00 -6.9667262310e-05 1.5977272810e+00 -2.7673448274e+00 1.5977272810e+00 2.7673448274e+00 
97500 5.3050606740e+00 -6.9678659319e-05 1.5977272810e+00 -2.7673448274e+00 1.5977272810e+00 2.7673448274e+00 
97600 5.3050606741e+00 -6.9689946209e-05 1.5977272810e+00 -2.7673448274e+00 1.5977272810e+00 2.7673448274e+00 
97700 5.3050606742e+00 -6.9701125950e-05 1.5977272810e+00 -2.7673448274e+00 1.5977272810e+00 2.7673448274e+00 
97800 5.3050606742e+00 -6.9712201429e-05 1.5977272810e+00 -2.7673448274e+00 1.5977272810e+00 2.7673448274e+00 
97900 5.3050606743e+00 -6.9723175442e-05 1.5977272810e+00 -2.7673448274e+00 1.5977272810e+00 2.7673448274e+00 
98000 5.3050606744e+00 -6.9734050701e-05 1.5977272810e+00 -2.7673448274e+00 1.5977272810e+00 2.7673448274e+00 
98100 5.3050606744e+00 -6.9744829832e-05 1.5977272810e+00 -2.7673448274e+00 1.5977272810e+00 2.7673448274e+00 
98200 5.3050606745e+00 -6.9755515375e-05 1.5977272810e+00 -2.7673448274e+00 1.5977272810e+00 2.7673448274e+00 
98300 5.3050606746e+00 -6.9766109784e-05 1.5977272810e+00 -2.7673448274e+00 1.5977272810e+00 2.7673448274e+00 
98400 5.3050606746e+00 -6.9776615429e-05 1.5977272810e+00 -2.7673448274e+00 1.5977272810e+00 2.7673448274e+00 
98500 5.3050606747e+00 -6.9787034597e-05 1.5977272810e+00 -2.7673448274e+00 1.5977272810e+00 2.7673448274e+00 
98600 5.3050606748e+00 -6.9797369493e-05 1.5977272810e+00 -2.7673448274e+00 1.5977272810e+00 2.7673448274e+00 
98700 5.3050606748e+00 -6.9807622240e-05 1.5977272810e+00 -2.7673448274e+00 1.5977272810e+00 2.7673448274e+00 
98800 5.3050606749e+00 -6.9817794879e-05 1.5977272810e+00 -2.7673448274e+00 1.5977272810e+00 2.7673448274e+00 
98900 5.3050606750e+00 -6.9827889375e-05 1.5977272810e+00 -2.7673448274e+00 1.5977272810e+00 2.7673448274e+00 
99000 5.3050606750e+00 -6.9837907615e-05 1.5977272810e+00 -2.7673448274e+00 1.5977272810e+00 2.7673448274e+00 
99100 5.3050606751e+00 -6.9847851408e-05 1.5977272810e+00 -2.7673448274e+00 1.5977272810e+00 2.7673448274e+00 
99200 5.3050606751e+00 -6.9857722489e-05 1.5977272810e+00 -2.7673448274e+00 1.5977272810e+00 2.7673448274e+00 
99300 5.3050606752e+00 -6.9867522521e-05 1.5977272810e+00 -2.7673448274e+00 1.5977272810e+00 2.7673448274e+00 
99400 5.3050606753e+00 -6.9877253096e-05 1.5977272810e+00 -2.7673448274e+00 1.5977272810e+00 2.7673448274e+00 
99500 5.3050606753e+00 -6.9886915733e-05 1.5977272810e+00 -2.7673448274e+00 1.5977272810e+00 2.7673448274e+00 
99600 5.3050606754e+00 -6.9896511886e-05 1.5977272810e+00 -2.7673448274e+00 1.5977272810e+00 2.7673448274e+00 
99700 5.3050606754e+00 -6.9906042941e-05 1.5977272810e+00 -2.7673448274e+00 1.5977272810e+00 2.7673448274e+00 
99800 5.3050606755e+00 -6.9915510219e-05 1.5977272810e+00 -2.7673448274e+00 1.5977272810e+00 2.7673448274e+00 
99900 5.3050606756e+00 -6.9924914978e-05 1.5977272810e+00 -2.7673448274e+00 1.5977272810e+00 2.7673448274e+00 
100000 5.3050606756e+00 -6.9934258417e-05 1.5977272810e+00 -2.7673448274e+00 1.5977272810e+00 2.7673448274e+00 
100100 5.3050606757e+00 -6.9943541672e-05 1.5977272810e+00 -2.7673448274e+00 1.5977272810e+00 2.7673448274e+00 
100200 5.3050606757e+00 -6.9952765824e-05 1.5977272810e+00 -2.7673448274e+00 1.5977272810e+00 2.7673448274e+00 
100300 5.3050606758e+00 -6.9961931895e-05 1.5977272810e+00 -2.7673448274e+00 1.5977272810e+00 2.7673448274e+00 
100400 5.3050606758e+00 -6.9971040860e-05 1.5977272810e+00 -2.7673448274e+00 1.5977272810e+00 2.7673448274e+00 
100500 5.3050606759e+00 -6.9980093633e-05 1.5977272810e+00 -2.7673448274e+00 1.5977272810e+00 2.7673448274e+00 
100600 5.3050606759e+00 -6.9989091081e-05 1.5977272810e+00 -2.7673448274e+00 1.5977272810e+00 2.7673448274e+00 
100700 5.3050606760e+00 -6.9998034024e-05 1.5977272810e+00 -2.7673448274e+00 1.5977272810e+00 2.7673448274e+00 
100800 5.3050606760e+00 -7.0006923234e-05 1.5977272810e+00 -2.7673448274e+00 1.5977272810e+00 2.7673448274e+00 
100900 5.3050606761e+00 -7.0015759437e-05 1.5977272810e+00 -2.7673448274e+00 1.5977272810e+00 2.7673448274e+00 
101000 5.3050606761e+00 -7.0017520377e-05 1.5977272810e+00 -2.7673448274e+00 1.5977272810e+00 2.7673448274e+00 
101000 5.3050606761e+00 -7.0017520377e-05 1.5977272810e+00 -2.7673448274e+00 1.5977272810e+00 2.7673448274e+00 
