# step Hamiltonian StressXX CellTensor1 CellTensor2 CellTensor3 CellTensor4 
0 5.8185936542e+00 -1.0763542575e-01 1.6185780433e+00 -2.8034594071e+00 1.6185780433e+00 2.8034594071e+00 
100 5.8168966968e+00 -1.0882134154e-01 1.6185780433e+00 -2.8034594071e+00 1.6185780433e+00 2.8034594071e+00 
200 5.8149731661e+00 -1.0672514116e-01 1.6219408386e+00 -2.8092839394e+00 1.6219408386e+00 2.8092839394e+00 
300 5.8132735669e+00 -1.0468092613e-01 1.6252319929e+00 -2.8149843857e+00 1.6252319929e+00 2.8149843857e+00 
400 5.8117841195e+00 -1.0268674471e-01 1.6284535462e+00 -2.8205642797e+00 1.6284535462e+00 2.8205642797e+00 
500 5.8104913587e+00 -1.0074081297e-01 1.6316074530e+00 -2.8260270066e+00 1.6316074530e+00 2.8260270066e+00 
600 5.8093821424e+00 -9.8841499238e-02 1.6346955892e+00 -2.8313758155e+00 1.6346955892e+00 2.8313758155e+00 
700 5.8084436612e+00 -9.6987309126e-02 1.6377197581e+00 -2.8366138296e+00 1.6377197581e+00 2.8366138296e+00 
800 5.8076634500e+00 -9.5176871234e-02 1.6406816959e+00 -2.8417440564e+00 1.6406816959e+00 2.8417440564e+00 
900 5.8070293993e+00 -9.3408923496e-02 1.6435830773e+00 -2.8467693963e+00 1.6435830773e+00 2.8467693963e+00 
1000 5.8065297680e+00 -9.1682300223e-02 1.6464255193e+00 -2.8516926504e+00 1.6464255193e+00 2.8516926504e+00 
1100 5.8061531955e+00 -8.9995919860e-02 1.6492105860e+00 -2.8565165274e+00 1.6492105860e+00 2.8565165274e+00 
1200 5.8058887133e+00 -8.8348773455e-02 1.6519397916e+00 -2.8612436500e+00 1.6519397916e+00 2.8612436500e+00 
1300 5.8057257568e+00 -8.6739913885e-02 1.6546146037e+00 -2.8658765605e+00 1.6546146037e+00 2.8658765605e+00 
1400 5.8056541757e+00 -8.5168445817e-02 1.6572364462e+00 -2.8704177250e+00 1.6572364462e+00 2.8704177250e+00 
1500 5.8056642435e+00 -8.3633516437e-02 1.6598067017e+00 -2.8748695381e+00 1.6598067017e+00 2.8748695381e+00 
1600 5.8057466657e+00 -8.2134306939e-02 1.6623267133e+00 -2.8792343261e+00 1.6623267133e+00 2.8792343261e+00 
1700 5.8058925870e+00 -8.0670024772e-02 1.6647977865e+00 -2.8835143505e+00 1.6647977865e+00 2.8835143505e+00 
1800 5.8060935964e+00 -7.9239896644e-02 1.6672211908e+00 -2.8877118099e+00 1.6672211908e+00 2.8877118099e+00 
1900 5.8063417313e+00 -7.7843162266e-02 1.6695981608e+00 -2.8918288427e+00 1.6695981608e+00 2.8918288427e+00 
2000 5.8066294798e+00 -7.6479068832e-02 1.6719298971e+00 -2.8958675284e+00 1.6719298971e+00 2.8958675284e+00 
2100 5.8069497813e+00 -7.5146866203e-02 1.6742175672e+00 -2.8998298893e+00 1.6742175672e+00 2.8998298893e+00 
2200 5.8072960254e+00 -7.3845802790e-02 1.6764623063e+00 -2.9037178915e+00 1.6764623063e+00 2.9037178915e+00 
2300 5.8076620492e+00 -7.2575122094e-02 1.6786652174e+00 -2.9075334455e+00 1.6786652174e+00 2.9075334455e+00 
2400 5.8080421333e+00 -7.1334059886e-02 1.6808273722e+00 -2.9112784073e+00 1.6808273722e+00 2.9112784073e+00 
2500 5.8084309955e+00 -7.0121841989e-02 1.6829498105e+00 -2.9149545785e+00 1.6829498105e+00 2.9149545785e+00 
2600 5.8088237838e+00 -6.8937682636e-02 1.6850335415e+00 -2.9185637063e+00 1.6850335415e+00 2.9185637063e+00 
2700 5.8092160672e+00 -6.7780783357e-02 1.6870795427e+00 -2.9221074844e+00 1.6870795427e+00 2.9221074844e+00 
2800 5.8096038261e+00 -6.6650332371e-02 1.6890887609e+00 -2.9255875524e+00 1.6890887609e+00 2.9255875524e+00 
2900 5.8099834407e+00 -6.5545504434e-02 1.6910621117e+00 -2.9290054962e+00 1.6910621117e+00 2.9290054962e+00 
3000 5.8103516782e+00 -6.4465461107e-02 1.6930004796e+00 -2.9323628478e+00 1.6930004796e+00 2.9323628478e+00 
3100 5.8107056799e+00 -6.3409351414e-02 1.6949047179e+00 -2.9356610855e+00 1.6949047179e+00 2.9356610855e+00 
3200 5.8110429463e+00 -6.2376312824e-02 1.6967756491e+00 -2.9389016334e+00 1.6967756491e+00 2.9389016334e+00 
3300 5.8113613222e+00 -6.1365472556e-02 1.6986140643e+00 -2.9420858619e+00 1.6986140643e+00 2.9420858619e+00 
3400 5.8116589807e+00 -6.0375949132e-02 1.7004207236e+00 -2.9452150875e+00 1.7004207236e+00 2.9452150875e+00 
3500 5.8119344068e+00 -5.9406854158e-02 1.7021963561e+00 -2.9482905731e+00 1.7021963561e+00 2.9482905731e+00 
3600 5.8121863808e+00 -5.8457294300e-02 1.7039416598e+00 -2.9513135279e+00 1.7039416598e+00 2.9513135279e+00 
3700 5.8124139607e+00 -5.7526373404e-02 1.7056573023e+00 -2.9542851078e+00 1.7056573023e+00 2.9542851078e+00 
3800 5.8126164653e+00 -5.6613194738e-02 1.7073439202e+00 -2.9572064157e+00 1.7073439202e+00 2.9572064157e+00 
3900 5.8127934565e+00 -5.5716863322e-02 1.7090021200e+00 -2.9600785021e+00 1.7090021200e+00 2.9600785021e+00 
4000 5.8129447220e+00 -5.4836488314e-02 1.7106324782e+00 -2.9629023653e+00 1.7106324782e+00 2.9629023653e+00 
4100 5.8130702579e+00 -5.3971185417e-02 1.7122355415e+00 -2.9656789524e+00 1.7122355415e+00 2.9656789524e+00 
4200 5.8131702513e+00 -5.3120079299e-02 1.7138118275e+00 -2.9684091598e+00 1.7138118275e+00 2.9684091598e+00 
4300 5.8132450636e+00 -5.2282305984e-02 1.7153618249e+00 -2.9710938341e+00 1.7153618249e+00 2.9710938341e+00 
4400 5.8132952142e+00 -5.1457015195e-02 1.7168859943e+00 -2.9737337730e+00 1.7168859943e+00 2.9737337730e+00 
4500 5.8133213636e+00 -5.0643372645e-02 1.7183847687e+00 -2.9763297263e+00 1.7183847687e+00 2.9763297263e+00 
4600 5.8133242986e+00 -4.9840562233e-02 1.7198585540e+00 -2.9788823974e+00 1.7198585540e+00 2.9788823974e+00 
4700 5.8133049162e+00 -4.9047788154e-02 1.7213077300e+00 -2.9813924438e+00 1.7213077300e+00 2.9813924438e+00 
4800 5.8132642098e+00 -4.8264276897e-02 1.7227326509e+00 -2.9838604793e+00 1.7227326509e+00 2.9838604793e+00 
4900 5.8132032547e+00 -4.7489279118e-02 1.7241336464e+00 -2.9862870746e+00 1.7241336464e+00 2.9862870746e+00 
5000 5.8131231947e+00 -4.6722071384e-02 1.7255110221e+00 -2.9886727593e+00 1.7255110221e+00 2.9886727593e+00 
5100 5.8130252298e+00 -4.5961957789e-02 1.7268650609e+00 -2.9910180233e+00 1.7268650609e+00 2.9910180233e+00 
5200 5.8129106036e+00 -4.5208271409e-02 1.7281960235e+00 -2.9933233181e+00 1.7281960235e+00 2.9933233181e+00 
5300 5.8127805926e+00 -4.4460375631e-02 1.7295041497e+00 -2.9955890592e+00 1.7295041497e+00 2.9955890592e+00 
5400 5.8126364952e+00 -4.3717665311e-02 1.7307896591e+00 -2.9978156268e+00 1.7307896591e+00 2.9978156268e+00 
5500 5.8124796215e+00 -4.2979567799e-02 1.7320527525e+00 -3.0000033687e+00 1.7320527525e+00 3.0000033687e+00 
5600 5.8123112850e+00 -4.2245543803e-02 1.7332936124e+00 -3.0021526010e+00 1.7332936124e+00 3.0021526010e+00 
5700 5.8121327932e+00 -4.1515088103e-02 1.7345124044e+00 -3.0042636109e+00 1.7345124044e+00 3.0042636109e+00 
5800 5.8119454403e+00 -4.0787730128e-02 1.7357092785e+00 -3.0063366576e+00 1.7357092785e+00 3.0063366576e+00 
5900 5.8117505001e+00 -4.0063034373e-02 1.7368843696e+00 -3.0083719750e+00 1.7368843696e+00 3.0083719750e+00 
6000 5.8115492193e+00 -3.9340600687e-02 1.7380377988e+00 -3.0103697731e+00 1.7380377988e+00 3.0103697731e+00 
6100 5.8113428119e+00 -3.8620064423e-02 1.7391696749e+00 -3.0123302399e+00 1.7391696749e+00 3.0123302399e+00 
6200 5.8111324543e+00 -3.7901096455e-02 1.7402800948e+00 -3.0142535435e+00 1.7402800948e+00 3.0142535435e+00 
6300 5.8109192803e+00 -3.7183403066e-02 1.7413691449e+00 -3.0161398337e+00 1.7413691449e+00 3.0161398337e+00 
6400 5.8107043776e+00 -3.6466725729e-02 1.7424369025e+00 -3.0179892440e+00 1.7424369025e+00 3.0179892440e+00 
6500 5.8104887842e+00 -3.5750840761e-02 1.7434834360e+00 -3.0198018933e+00 1.7434834360e+00 3.0198018933e+00 
6600 5.8102734857e+00 -3.5035558875e-02 1.7445088069e+00 -3.0215778878e+00 1.7445088069e+00 3.0215778878e+00 
6700 5.8100594128e+00 -3.4320724640e-02 1.7455130700e+00 -3.0233173226e+00 1.7455130700e+00 3.0233173226e+00 
6800 5.8098474398e+00 -3.3606215831e-02 1.7464962751e+00 -3.0250202836e+00 1.7464962751e+00 3.0250202836e+00 
6900 5.8096383830e+00 -3.2891942710e-02 1.7474584672e+00 -3.0266868493e+00 1.7474584672e+00 3.0266868493e+00 
7000 5.8094329998e+00 -3.2177847212e-02 1.7483996882e+00 -3.0283170920e+00 1.7483996882e+00 3.0283170920e+00 
7100 5.8092319880e+00 -3.1463902068e-02 1.7493199775e+00 -3.0299110797e+00 1.7493199775e+00 3.0299110797e+00 
7200 5.8090359862e+00 -3.0750109855e-02 1.7502193726e+00 -3.0314688777e+00 1.7502193726e+00 3.0314688777e+00 
7300 5.8088455733e+00 -3.0036501986e-02 1.7510979105e+00 -3.0329905500e+00 1.7510979105e+00 3.0329905500e+00 
7400 5.8086612693e+00 -2.9323137650e-02 1.7519556282e+00 -3.0344761606e+00 1.7519556282e+00 3.0344761606e+00 
7500 5.8084835363e+00 -2.8610102694e-02 1.7527925635e+00 -3.0359257751e+00 1.7527925635e+00 3.0359257751e+00 
7600 5.8083127791e+00 -2.7897508475e-02 1.7536087559e+00 -3.0373394619e+00 1.7536087559e+00 3.0373394619e+00 
7700 5.8081493469e+00 -2.7185490663e-02 1.7544042474e+00 -3.0387172936e+00 1.7544042474e+00 3.0387172936e+00 
7800 5.8079935346e+00 -2.6474208019e-02 1.7551790828e+00 -3.0400593479e+00 1.7551790828e+00 3.0400593479e+00 
7900 5.8078455844e+00 -2.5763841146e-02 1.7559333108e+00 -3.0413657090e+00 1.7559333108e+00 3.0413657090e+00 
8000 5.8077056879e+00 -2.5054591213e-02 1.7566669843e+00 -3.0426364688e+00 1.7566669843e+00 3.0426364688e+00 
8100 5.8075739883e+00 -2.4346678670e-02 1.7573801612e+00 -3.0438717274e+00 1.7573801612e+00 3.0438717274e+00 
8200 5.8074505817e+00 -2.3640341943e-02 1.7580729048e+00 -3.0450715945e+00 1.7580729048e+00 3.0450715945e+00 
8300 5.8073355203e+00 -2.2935836126e-02 1.7587452844e+00 -3.0462361902e+00 1.7587452844e+00 3.0462361902e+00 
8400 5.8072288142e+00 -2.2233431663e-02 1.7593973758e+00 -3.0473656456e+00 1.7593973758e+00 3.0473656456e+00 
8500 5.8071304341e+00 -2.1533413036e-02 1.7600292615e+00 -3.0484601038e+00 1.7600292615e+00 3.0484601038e+00 
8600 5.8070403132e+00 -2.0836077450e-02 1.7606410315e+00 -3.0495197204e+00 1.7606410315e+00 3.0495197204e+00 
8700 5.8069583505e+00 -2.0141733528e-02 1.7612327831e+00 -3.0505446643e+00 1.7612327831e+00 3.0505446643e+00 
8800 5.8068844127e+00 -1.9450700011e-02 1.7618046219e+00 -3.0515351181e+00 1.7618046219e+00 3.0515351181e+00 
8900 5.8068183367e+00 -1.8763304479e-02 1.7623566614e+00 -3.0524912786e+00 1.7623566614e+00 3.0524912786e+00 
9000 5.8067599326e+00 -1.8079882075e-02 1.7628890238e+00 -3.0534133573e+00 1.7628890238e+00 3.0534133573e+00 
9100 5.8067089858e+00 -1.7400774256e-02 1.7634018399e+00 -3.0543015809e+00 1.7634018399e+00 3.0543015809e+00 
9200 5.8066652595e+00 -1.6726327563e-02 1.7638952494e+00 -3.0551561913e+00 1.7638952494e+00 3.0551561913e+00 
9300 5.8066284971e+00 -1.6056892410e-02 1.7643694011e+00 -3.0559774460e+00 1.7643694011e+00 3.0559774460e+00 
9400 5.8065984248e+00 -1.5392821898e-02 1.7648244527e+00 -3.0567656185e+00 1.7648244527e+00 3.0567656185e+00 
9500 5.8065747537e+00 -1.4734470661e-02 1.7652605713e+00 -3.0575209981e+00 1.7652605713e+00 3.0575209981e+00 
9600 5.8065571822e+00 -1.4082193733e-02 1.7656779332e+00 -3.0582438901e+00 1.7656779332e+00 3.0582438901e+00 
9700 5.8065453980e+00 -1.3436345455e-02 1.7660767241e+00 -3.0589346161e+00 1.7660767241e+00 3.0589346161e+00 
9800 5.8065390804e+00 -1.2797278401e-02 1.7664571387e+00 -3.0595935136e+00 1.7664571387e+00 3.0595935136e+00 
9900 5.8065379020e+00 -1.2165342350e-02 1.7668193811e+00 -3.0602209359e+00 1.7668193811e+00 3.0602209359e+00 
10000 5.8065415311e+00 -1.1540883287e-02 1.7671636647e+00 -3.0608172525e+00 1.7671636647e+00 3.0608172525e+00 
10100 5.8065496333e+00 -1.0924242439e-02 1.7674902117e+00 -3.0613828485e+00 1.7674902117e+00 3.0613828485e+00 
10200 5.8065618731e+00 -1.0315755353e-02 1.7677992533e+00 -3.0619181243e+00 1.7677992533e+00 3.0619181243e+00 
10300 5.8065779158e+00 -9.7157510100e-03 1.7680910296e+00 -3.0624234957e+00 1.7680910296e+00 3.0624234957e+00 
10400 5.8065974291e+00 -9.1245509765e-03 1.7683657893e+00 -3.0628993934e+00 1.7683657893e+00 3.0628993934e+00 
10500 5.8066200840e+00 -8.5424686012e-03 1.7686237894e+00 -3.0633462628e+00 1.7686237894e+00 3.0633462628e+00 
10600 5.8066455571e+00 -7.9698082492e-03 1.7688652954e+00 -3.0637645633e+00 1.7688652954e+00 3.0637645633e+00 
10700 5.8066735308e+00 -7.4068645797e-03 1.7690905804e+00 -3.0641547684e+00 1.7690905804e+00 3.0641547684e+00 
10800 5.8067036952e+00 -6.8539218665e-03 1.7692999255e+00 -3.0645173649e+00 1.7692999255e+00 3.0645173649e+00 
10900 5.8067357491e+00 -6.3112533605e-03 1.7694936193e+00 -3.0648528523e+00 1.7694936193e+00 3.0648528523e+00 
11000 5.8067694003e+00 -5.7791206970e-03 1.7696719573e+00 -3.0651617428e+00 1.7696719573e+00 3.0651617428e+00 
11100 5.8068043673e+00 -5.2577733455e-03 1.7698352421e+00 -3.0654445603e+00 1.7698352421e+00 3.0654445603e+00 
11200 5.8068403793e+00 -4.7474481049e-03 1.7699837827e+00 -3.0657018401e+00 1.7699837827e+00 3.0657018401e+00 
11300 5.8068771774e+00 -4.2483686416e-03 1.7701178943e+00 -3.0659341283e+00 1.7701178943e+00 3.0659341283e+00 
11400 5.8069145150e+00 -3.7607450726e-03 1.7702378981e+00 -3.0661419809e+00 1.7702378981e+00 3.0661419809e+00 
11500 5.8069521581e+00 -3.2847735925e-03 1.7703441206e+00 -3.0663259637e+00 1.7703441206e+00 3.0663259637e+00 
11600 5.8069898857e+00 -2.8206361442e-03 1.7704368936e+00 -3.0664866512e+00 1.7704368936e+00 3.0664866512e+00 
11700 5.8070274905e+00 -2.3685001331e-03 1.7705165535e+00 -3.0666246263e+00 1.7705165535e+00 3.0666246263e+00 
11800 5.8070647784e+00 -1.9285181855e-03 1.7705834412e+00 -3.0667404791e+00 1.7705834412e+00 3.0667404791e+00 
11900 5.8071015695e+00 -1.5008279486e-03 1.7706379014e+00 -3.0668348071e+00 1.7706379014e+00 3.0668348071e+00 
12000 5.8071376973e+00 -1.0855519333e-03 1.7706802826e+00 -3.0669082134e+00 1.7706802826e+00 3.0669082134e+00 
12100 5.8071730095e+00 -6.8279739906e-04 1.7707109362e+00 -3.0669613070e+00 1.7707109362e+00 3.0669613070e+00 
12200 5.8072073671e+00 -2.9265627833e-04 1.7707302165e+00 -3.0669947016e+00 1.7707302165e+00 3.0669947016e+00 
12300 5.8072406450e+00 8.4794857669e-05 1.7707384803e+00 -3.0670090147e+00 1.7707384803e+00 3.0670090147e+00 
12400 5.8072727314e+00 4.4949479502e-04 1.7707360859e+00 -3.0670048676e+00 1.7707360859e+00 3.0670048676e+00 
12500 5.8073035277e+00 8.0139763475e-04 1.7707233936e+00 -3.0669828839e+00 1.7707233936e+00 3.0669828839e+00 
12600 5.8073329480e+00 1.1404727136e-03 1.7707007646e+00 -3.0669436893e+00 1.7707007646e+00 3.0669436893e+00 
12700 5.8073609191e+00 1.4667044889e-03 1.7706685607e+00 -3.0668879105e+00 1.7706685607e+00 3.0668879105e+00 
12800 5.8073873799e+00 1.7800923893e-03 1.7706271442e+00 -3.0668161749e+00 1.7706271442e+00 3.0668161749e+00 
12900 5.8074122808e+00 2.0806506317e-03 1.7705768771e+00 -3.0667291099e+00 1.7705768771e+00 3.0667291099e+00 
13000 5.8074355836e+00 2.3684080065e-03 1.7705181211e+00 -3.0666273415e+00 1.7705181211e+00 3.0666273415e+00 
13100 5.8074572609e+00 2.6434076328e-03 1.7704512370e+00 -3.0665114947e+00 1.7704512370e+00 3.0665114947e+00 
13200 5.8074772954e+00 2.9057066844e-03 1.7703765840e+00 -3.0663821920e+00 1.7703765840e+00 3.0663821920e+00 
13300 5.8074956797e+00 3.1553760881e-03 1.7702945200e+00 -3.0662400530e+00 1.7702945200e+00 3.0662400530e+00 
13400 5.8075124154e+00 3.3925001966e-03 1.7702054006e+00 -3.0660856937e+00 1.7702054006e+00 3.0660856937e+00 
13500 5.8075275128e+00 3.6171764370e-03 1.7701095793e+00 -3.0659197263e+00 1.7701095793e+00 3.0659197263e+00 
13600 5.8075409901e+00 3.8295149369e-03 1.7700074065e+00 -3.0657427578e+00 1.7700074065e+00 3.0657427578e+00 
13700 5.8075528732e+00 4.0296381295e-03 1.7698992296e+00 -3.0655553900e+00 1.7698992296e+00 3.0655553900e+00 
13800 5.8075631945e+00 4.2176803393e-03 1.7697853928e+00 -3.0653582188e+00 1.7697853928e+00 3.0653582188e+00 
13900 5.8075719932e+00 4.3937873502e-03 1.7696662362e+00 -3.0651518335e+00 1.7696662362e+00 3.0651518335e+00 
14000 5.8075793136e+00 4.5581159588e-03 1.7695420959e+00 -3.0649368163e+00 1.7695420959e+00 3.0649368163e+00 
14100 5.8075852056e+00 4.7108335119e-03 1.7694133038e+00 -3.0647137418e+00 1.7694133038e+00 3.0647137418e+00 
14200 5.8075897234e+00 4.8521174329e-03 1.7692801870e+00 -3.0644831767e+00 1.7692801870e+00 3.0644831767e+00 
14300 5.8075929253e+00 4.9821547369e-03 1.7691430675e+00 -3.0642456788e+00 1.7691430675e+00 3.0642456788e+00 
14400 5.8075948729e+00 5.1011415366e-03 1.7690022624e+00 -3.0640017971e+00 1.7690022624e+00 3.0640017971e+00 
14500 5.8075956310e+00 5.2092825411e-03 1.7688580830e+00 -3.0637520712e+00 1.7688580830e+00 3.0637520712e+00 
14600 5.8075952666e+00 5.3067905485e-03 1.7687108352e+00 -3.0634970304e+00 1.7687108352e+00 3.0634970304e+00 
14700 5.8075938485e+00 5.3938859342e-03 1.7685608187e+00 -3.0632371943e+00 1.7685608187e+00 3.0632371943e+00 
14800 5.8075914473e+00 5.4707961364e-03 1.7684083272e+00 -3.0629730713e+00 1.7684083272e+00 3.0629730713e+00 
14900 5.8075881341e+00 5.5377551406e-03 1.7682536481e+00 -3.0627051593e+00 1.7682536481e+00 3.0627051593e+00 
15000 5.8075839810e+00 5.5950029638e-03 1.7680970622e+00 -3.0624339444e+00 1.7680970622e+00 3.0624339444e+00 
15100 5.8075790599e+00 5.6427851403e-03 1.7679388435e+00 -3.0621599017e+00 1.7679388435e+00 3.0621599017e+00 
15200 5.8075734425e+00 5.6813522106e-03 1.7677792594e+00 -3.0618834938e+00 1.7677792594e+00 3.0618834938e+00 
15300 5.8075672000e+00 5.7109592137e-03 1.7676185700e+00 -3.0616051717e+00 1.7676185700e+00 3.0616051717e+00 
15400 5.8075604025e+00 5.7318651856e-03 1.7674570286e+00 -3.0613253737e+00 1.7674570286e+00 3.0613253737e+00 
15500 5.8075531188e+00 5.7443326632e-03 1.7672948810e+00 -3.0610445259e+00 1.7672948810e+00 3.0610445259e+00 
15600 5.8075454164e+00 5.7486271965e-03 1.7671323659e+00 -3.0607630414e+00 1.7671323659e+00 3.0607630414e+00 
15700 5.8075373607e+00 5.7450168686e-03 1.7669697142e+00 -3.0604813205e+00 1.7669697142e+00 3.0604813205e+00 
15800 5.8075290151e+00 5.7337718258e-03 1.7668071498e+00 -3.0601997506e+00 1.7668071498e+00 3.0601997506e+00 
15900 5.8075204407e+00 5.7151638171e-03 1.7666448886e+00 -3.0599187060e+00 1.7666448886e+00 3.0599187060e+00 
16000 5.8075116962e+00 5.6894657458e-03 1.7664831392e+00 -3.0596385478e+00 1.7664831392e+00 3.0596385478e+00 
16100 5.8075028377e+00 5.6569512317e-03 1.7663221023e+00 -3.0593596237e+00 1.7663221023e+00 3.0593596237e+00 
16200 5.8074939185e+00 5.6178941868e-03 1.7661619711e+00 -3.0590822683e+00 1.7661619711e+00 3.0590822683e+00 
16300 5.8074849890e+00 5.5725684033e-03 1.7660029310e+00 -3.0588068028e+00 1.7660029310e+00 3.0588068028e+00 
16400 5.8074760965e+00 5.5212471556e-03 1.7658451599e+00 -3.0585335352e+00 1.7658451599e+00 3.0585335352e+00 
16500 5.8074672855e+00 5.4642028158e-03 1.7656888278e+00 -3.0582627601e+00 1.7656888278e+00 3.0582627601e+00 
16600 5.8074585973e+00 5.4017064841e-03 1.7655340972e+00 -3.0579947588e+00 1.7655340972e+00 3.0579947588e+00 
16700 5.8074500699e+00 5.3340276335e-03 1.7653811228e+00 -3.0577297994e+00 1.7653811228e+00 3.0577297994e+00 
16800 5.8074417385e+00 5.2614337699e-03 1.7652300520e+00 -3.0574681371e+00 1.7652300520e+00 3.0574681371e+00 
16900 5.8074336348e+00 5.1841901065e-03 1.7650810244e+00 -3.0572100137e+00 1.7650810244e+00 3.0572100137e+00 
17000 5.8074257876e+00 5.1025592548e-03 1.7649341723e+00 -3.0569556584e+00 1.7649341723e+00 3.0569556584e+00 
17100 5.8074182226e+00 5.0168009296e-03 1.7647896204e+00 -3.0567052872e+00 1.7647896204e+00 3.0567052872e+00 
17200 5.8074109623e+00 4.9271716707e-03 1.7646474864e+00 -3.0564591039e+00 1.7646474864e+00 3.0564591039e+00 
17300 5.8074040264e+00 4.8339245789e-03 1.7645078804e+00 -3.0562172992e+00 1.7645078804e+00 3.0562172992e+00 
17400 5.8073974316e+00 4.7373090684e-03 1.7643709056e+00 -3.0559800519e+00 1.7643709056e+00 3.0559800519e+00 
17500 5.8073911920e+00 4.6375706338e-03 1.7642366581e+00 -3.0557475284e+00 1.7642366581e+00 3.0557475284e+00 
17600 5.8073853186e+00 4.5349506325e-03 1.7641052269e+00 -3.0555198829e+00 1.7641052269e+00 3.0555198829e+00 
17700 5.8073798201e+00 4.4296860820e-03 1.7639766945e+00 -3.0552972582e+00 1.7639766945e+00 3.0552972582e+00 
17800 5.8073747026e+00 4.3220094717e-03 1.7638511363e+00 -3.0550797851e+00 1.7638511363e+00 3.0550797851e+00 
17900 5.8073699699e+00 4.2121485899e-03 1.7637286214e+00 -3.0548675831e+00 1.7637286214e+00 3.0548675831e+00 
18000 5.8073656235e+00 4.1003263645e-03 1.7636092125e+00 -3.0546607607e+00 1.7636092125e+00 3.0546607607e+00 
18100 5.8073616626e+00 3.9867607174e-03 1.7634929656e+00 -3.0544594152e+00 1.7634929656e+00 3.0544594152e+00 
18200 5.8073580847e+00 3.8716644332e-03 1.7633799309e+00 -3.0542636333e+00 1.7633799309e+00 3.0542636333e+00 
18300 5.8073548852e+00 3.7552450408e-03 1.7632701524e+00 -3.0540734914e+00 1.7632701524e+00 3.0540734914e+00 
18400 5.8073520581e+00 3.6377047077e-03 1.7631636682e+00 -3.0538890554e+00 1.7631636682e+00 3.0538890554e+00 
18500 5.8073495953e+00 3.5192401473e-03 1.7630605108e+00 -3.0537103814e+00 1.7630605108e+00 3.0537103814e+00 
18600 5.8073474879e+00 3.4000425381e-03 1.7629607068e+00 -3.0535375160e+00 1.7629607068e+00 3.0535375160e+00 
18700 5.8073457251e+00 3.2802974545e-03 1.7628642778e+00 -3.0533704960e+00 1.7628642778e+00 3.0533704960e+00 
18800 5.8073442953e+00 3.1601848094e-03 1.7627712398e+00 -3.0532093494e+00 1.7627712398e+00 3.0532093494e+00 
18900 5.8073431857e+00 3.0398788072e-03 1.7626816037e+00 -3.0530540952e+00 1.7626816037e+00 3.0530540952e+00 
19000 5.8073423827e+00 2.9195479077e-03 1.7625953756e+00 -3.0529047437e+00 1.7625953756e+00 3.0529047437e+00 
19100 5.8073418719e+00 2.7993547996e-03 1.7625125567e+00 -3.0527612971e+00 1.7625125567e+00 3.0527612971e+00 
19200 5.8073416382e+00 2.6794563845e-03 1.7624331435e+00 -3.0526237495e+00 1.7624331435e+00 3.0526237495e+00 
19300 5.8073416658e+00 2.5600037694e-03 1.7623571282e+00 -3.0524920872e+00 1.7623571282e+00 3.0524920872e+00 
19400 5.8073419389e+00 2.4411422679e-03 1.7622844986e+00 -3.0523662890e+00 1.7622844986e+00 3.0523662890e+00 
19500 5.8073424411e+00 2.3230114108e-03 1.7622152383e+00 -3.0522463267e+00 1.7622152383e+00 3.0522463267e+00 
19600 5.8073431558e+00 2.2057449636e-03 1.7621493271e+00 -3.0521321650e+00 1.7621493271e+00 3.0521321650e+00 
19700 5.8073440664e+00 2.0894709521e-03 1.7620867407e+00 -3.0520237622e+00 1.7620867407e+00 3.0520237622e+00 
19800 5.8073451561e+00 1.9743116952e-03 1.7620274513e+00 -3.0519210700e+00 1.7620274513e+00 3.0519210700e+00 
19900 5.8073464086e+00 1.8603838443e-03 1.7619714277e+00 -3.0518240343e+00 1.7619714277e+00 3.0518240343e+00 
20000 5.8073478073e+00 1.7477984294e-03 1.7619186353e+00 -3.0517325952e+00 1.7619186353e+00 3.0517325952e+00 
20100 5.8073493361e+00 1.6366609109e-03 1.7618690363e+00 -3.0516466871e+00 1.7618690363e+00 3.0516466871e+00 
20200 5.8073509791e+00 1.5270712372e-03 1.7618225898e+00 -3.0515662394e+00 1.7618225898e+00 3.0515662394e+00 
20300 5.8073527209e+00 1.4191239077e-03 1.7617792521e+00 -3.0514911764e+00 1.7617792521e+00 3.0514911764e+00 
20400 5.8073545465e+00 1.3129080410e-03 1.7617389770e+00 -3.0514214178e+00 1.7617389770e+00 3.0514214178e+00 
20500 5.8073564412e+00 1.2085074469e-03 1.7617017154e+00 -3.0513568788e+00 1.7617017154e+00 3.0513568788e+00 
20600 5.8073583911e+00 1.1060007037e-03 1.7616674161e+00 -3.0512974706e+00 1.7616674161e+00 3.0512974706e+00 
20700 5.8073603828e+00 1.0054612392e-03 1.7616360254e+00 -3.0512431005e+00 1.7616360254e+00 3.0512431005e+00 
20800 5.8073624033e+00 9.0695741488e-04 1.7616074878e+00 -3.0511936718e+00 1.7616074878e+00 3.0511936718e+00 
20900 5.8073644406e+00 8.1055261423e-04 1.7615817455e+00 -3.0511490849e+00 1.7615817455e+00 3.0511490849e+00 
21000 5.8073664832e+00 7.1630533390e-04 1.7615587392e+00 -3.0511092368e+00 1.7615587392e+00 3.0511092368e+00 
21100 5.8073685201e+00 6.2426927772e-04 1.7615384076e+00 -3.0510740215e+00 1.7615384076e+00 3.0510740215e+00 
21200 5.8073705413e+00 5.3449345338e-04 1.7615206882e+00 -3.0510433306e+00 1.7615206882e+00 3.0510433306e+00 
21300 5.8073725374e+00 4.4702227152e-04 1.7615055169e+00 -3.0510170531e+00 1.7615055169e+00 3.0510170531e+00 
21400 5.8073744997e+00 3.6189564693e-04 1.7614928283e+00 -3.0509950757e+00 1.7614928283e+00 3.0509950757e+00 
21500 5.8073764202e+00 2.7914910170e-04 1.7614825559e+00 -3.0509772834e+00 1.7614825559e+00 3.0509772834e+00 
21600 5.8073782916e+00 1.9881387006e-04 1.7614746322e+00 -3.0509635592e+00 1.7614746322e+00 3.0509635592e+00 
21700 5.8073801074e+00 1.2091700476e-04 1.7614689888e+00 -3.0509537845e+00 1.7614689888e+00 3.0509537845e+00 
21800 5.8073818618e+00 4.5481484717e-05 1.7614655565e+00 -3.0509478396e+00 1.7614655565e+00 3.0509478396e+00 
21900 5.8073835494e+00 -2.6357191735e-05 1.7614655565e+00 -3.0509478396e+00 1.7614655565e+00 3.0509478396e+00 
22000 5.8073851660e+00 -9.7485936999e-05 1.7614655565e+00 -3.0509478396e+00 1.7614655565e+00 3.0509478396e+00 
22100 5.8073867076e+00 -1.6544744318e-04 1.7614683237e+00 -3.0509526326e+00 1.7614683237e+00 3.0509526326e+00 
22200 5.8073881711e+00 -2.3089404552e-04 1.7614730200e+00 -3.0509607668e+00 1.7614730200e+00 3.0509607668e+00 
22300 5.8073895539e+00 -2.9382149428e-04 1.7614795740e+00 -3.0509721186e+00 1.7614795740e+00 3.0509721186e+00 
22400 5.8073908540e+00 -3.5422894913e-04 1.7614879142e+00 -3.0509865643e+00 1.7614879142e+00 3.0509865643e+00 
22500 5.8073920700e+00 -4.1211886694e-04 1.7614979690e+00 -3.0510039798e+00 1.7614979690e+00 3.0510039798e+00 
22600 5.8073932008e+00 -4.6749688961e-04 1.7615096670e+00 -3.0510242413e+00 1.7615096670e+00 3.0510242413e+00 
22700 5.8073942462e+00 -5.2037173190e-04 1.7615229368e+00 -3.0510472252e+00 1.7615229368e+00 3.0510472252e+00 
22800 5.8073952063e+00 -5.7075506939e-04 1.7615377073e+00 -3.0510728085e+00 1.7615377073e+00 3.0510728085e+00 
22900 5.8073960814e+00 -6.1866142684e-04 1.7615539078e+00 -3.0511008686e+00 1.7615539078e+00 3.0511008686e+00 
23000 5.8073968726e+00 -6.6410806689e-04 1.7615714680e+00 -3.0511312837e+00 1.7615714680e+00 3.0511312837e+00 
23100 5.8073975812e+00 -7.0711487919e-04 1.7615903179e+00 -3.0511639327e+00 1.7615903179e+00 3.0511639327e+00 
23200 5.8073982089e+00 -7.4770427028e-04 1.7616103883e+00 -3.0511986956e+00 1.7616103883e+00 3.0511986956e+00 
23300 5.8073987576e+00 -7.8590105398e-04 1.7616316105e+00 -3.0512354536e+00 1.7616316105e+00 3.0512354536e+00 
23400 5.8073992296e+00 -8.2173234273e-04 1.7616539166e+00 -3.0512740889e+00 1.7616539166e+00 3.0512740889e+00 
23500 5.8073996275e+00 -8.5522743962e-04 1.7616772394e+00 -3.0513144852e+00 1.7616772394e+00 3.0513144852e+00 
23600 5.8073999540e+00 -8.8641773149e-04 1.7617015126e+00 -3.0513565275e+00 1.7617015126e+00 3.0513565275e+00 
23700 5.8074002122e+00 -9.1533658300e-04 1.7617266706e+00 -3.0514001025e+00 1.7617266706e+00 3.0514001025e+00 
23800 5.8074004052e+00 -9.4201923174e-04 1.7617526491e+00 -3.0514450986e+00 1.7617526491e+00 3.0514450986e+00 
23900 5.8074005362e+00 -9.6650268458e-04 1.7617793844e+00 -3.0514914055e+00 1.7617793844e+00 3.0514914055e+00 
24000 5.8074006087e+00 -9.8882561520e-04 1.7618068142e+00 -3.0515389154e+00 1.7618068142e+00 3.0515389154e+00 
24100 5.8074006262e+00 -1.0090282629e-03 1.7618348771e+00 -3.0515875217e+00 1.7618348771e+00 3.0515875217e+00 
24200 5.8074005923e+00 -1.0271523327e-03 1.7618635129e+00 -3.0516371204e+00 1.7618635129e+00 3.0516371204e+00 
24300 5.8074005106e+00 -1.0432408972e-03 1.7618926626e+00 -3.0516876091e+00 1.7618926626e+00 3.0516876091e+00 
24400 5.8074003847e+00 -1.0573382991e-03 1.7619222684e+00 -3.0517388878e+00 1.7619222684e+00 3.0517388878e+00 
24500 5.8074002184e+00 -1.0694900563e-03 1.7619522737e+00 -3.0517908586e+00 1.7619522737e+00 3.0517908586e+00 
24600 5.8074000152e+00 -1.0797427677e-03 1.7619826234e+00 -3.0518434257e+00 1.7619826234e+00 3.0518434257e+00 
24700 5.8073997787e+00 -1.0881440210e-03 1.7620132635e+00 -3.0518964959e+00 1.7620132635e+00 3.0518964959e+00 
24800 5.8073995126e+00 -1.0947423019e-03 1.7620441414e+00 -3.0519499781e+00 1.7620441414e+00 3.0519499781e+00 
24900 5.8073992202e+00 -1.0995869057e-03 1.7620752061e+00 -3.0520037836e+00 1.7620752061e+00 3.0520037836e+00 
25000 5.8073989051e+00 -1.1027278495e-03 1.7621064076e+00 -3.0520578263e+00 1.7621064076e+00 3.0520578263e+00 
25100 5.8073985704e+00 -1.1042157871e-03 1.7621376978e+00 -3.0521120225e+00 1.7621376978e+00 3.0521120225e+00 
25200 5.8073982194e+00 -1.1041019257e-03 1.7621690296e+00 -3.0521662907e+00 1.7621690296e+00 3.0521662907e+00 
25300 5.8073978551e+00 -1.1024379434e-03 1.7622003576e+00 -3.0522205524e+00 1.7622003576e+00 3.0522205524e+00 
25400 5.8073974807e+00 -1.0992759104e-03 1.7622316378e+00 -3.0522747314e+00 1.7622316378e+00 3.0522747314e+00 
25500 5.8073970987e+00 -1.0946682100e-03 1.7622628278e+00 -3.0523287540e+00 1.7622628278e+00 3.0523287540e+00 
25600 5.8073967121e+00 -1.0886674635e-03 1.7622938865e+00 -3.0523825493e+00 1.7622938865e+00 3.0523825493e+00 
25700 5.8073963232e+00 -1.0813264556e-03 1.7623247744e+00 -3.0524360486e+00 1.7623247744e+00 3.0524360486e+00 
25800 5.8073959345e+00 -1.0726980629e-03 1.7623554534e+00 -3.0524891864e+00 1.7623554534e+00 3.0524891864e+00 
25900 5.8073955483e+00 -1.0628351833e-03 1.7623858872e+00 -3.0525418991e+00 1.7623858872e+00 3.0525418991e+00 
26000 5.8073951665e+00 -1.0517906685e-03 1.7624160406e+00 -3.0525941263e+00 1.7624160406e+00 3.0525941263e+00 
26100 5.8073947912e+00 -1.0396172581e-03 1.7624458801e+00 -3.0526458099e+00 1.7624458801e+00 3.0526458099e+00 
26200 5.8073944241e+00 -1.0263675153e-03 1.7624753738e+00 -3.0526968945e+00 1.7624753738e+00 3.0526968945e+00 
26300 5.8073940668e+00 -1.0120937659e-03 1.7625044911e+00 -3.0527473271e+00 1.7625044911e+00 3.0527473271e+00 
26400 5.8073937209e+00 -9.9684803796e-04 1.7625332030e+00 -3.0527970576e+00 1.7625332030e+00 3.0527970576e+00 
26500 5.8073933874e+00 -9.8068200468e-04 1.7625614819e+00 -3.0528460381e+00 1.7625614819e+00 3.0528460381e+00 
26600 5.8073930678e+00 -9.6364692888e-04 1.7625893017e+00 -3.0528942235e+00 1.7625893017e+00 3.0528942235e+00 
26700 5.8073927629e+00 -9.4579360967e-04 1.7626166379e+00 -3.0529415712e+00 1.7626166379e+00 3.0529415712e+00 
26800 5.8073924736e+00 -9.2717233136e-04 1.7626434673e+00 -3.0529880409e+00 1.7626434673e+00 3.0529880409e+00 
26900 5.8073922006e+00 -9.0783281437e-04 1.7626697679e+00 -3.0530335950e+00 1.7626697679e+00 3.0530335950e+00 
27000 5.8073919446e+00 -8.8782416840e-04 1.7626955196e+00 -3.0530781983e+00 1.7626955196e+00 3.0530781983e+00 
27100 5.8073917059e+00 -8.6719484757e-04 1.7627207034e+00 -3.0531218179e+00 1.7627207034e+00 3.0531218179e+00 
27200 5.8073914850e+00 -8.4599260786e-04 1.7627453017e+00 -3.0531644233e+00 1.7627453017e+00 3.0531644233e+00 
27300 5.8073912820e+00 -8.2426446651e-04 1.7627692982e+00 -3.0532059864e+00 1.7627692982e+00 3.0532059864e+00 
27400 5.8073910971e+00 -8.0205666363e-04 1.7627926780e+00 -3.0532464816e+00 1.7627926780e+00 3.0532464816e+00 
27500 5.8073909302e+00 -7.7941462587e-04 1.7628154277e+00 -3.0532858851e+00 1.7628154277e+00 3.0532858851e+00 
27600 5.8073907814e+00 -7.5638293218e-04 1.7628375348e+00 -3.0533241758e+00 1.7628375348e+00 3.0533241758e+00 
27700 5.8073906503e+00 -7.3300528166e-04 1.7628589884e+00 -3.0533613345e+00 1.7628589884e+00 3.0533613345e+00 
27800 5.8073905367e+00 -7.0932446340e-04 1.7628797787e+00 -3.0533973444e+00 1.7628797787e+00 3.0533973444e+00 
27900 5.8073904402e+00 -6.8538232847e-04 1.7628998971e+00 -3.0534321904e+00 1.7628998971e+00 3.0534321904e+00 
28000 5.8073903605e+00 -6.6121976380e-04 1.7629193362e+00 -3.0534658599e+00 1.7629193362e+00 3.0534658599e+00 
28100 5.8073902971e+00 -6.3687666818e-04 1.7629380898e+00 -3.0534983421e+00 1.7629380898e+00 3.0534983421e+00 
28200 5.8073902494e+00 -6.1239193009e-04 1.7629561527e+00 -3.0535296281e+00 1.7629561527e+00 3.0535296281e+00 
28300 5.8073902168e+00 -5.8780340765e-04 1.7629735211e+00 -3.0535597109e+00 1.7629735211e+00 3.0535597109e+00 
28400 5.8073901986e+00 -5.6314791029e-04 1.7629901919e+00 -3.0535885856e+00 1.7629901919e+00 3.0535885856e+00 
28500 5.8073901943e+00 -5.3846118252e-04 1.7630061633e+00 -3.0536162489e+00 1.7630061633e+00 3.0536162489e+00 
28600 5.8073902030e+00 -5.1377788934e-04 1.7630214345e+00 -3.0536426993e+00 1.7630214345e+00 3.0536426993e+00 
28700 5.8073902241e+00 -4.8913160368e-04 1.7630360054e+00 -3.0536679370e+00 1.7630360054e+00 3.0536679370e+00 
28800 5.8073902568e+00 -4.6455479550e-04 1.7630498773e+00 -3.0536919638e+00 1.7630498773e+00 3.0536919638e+00 
28900 5.8073903002e+00 -4.4007882267e-04 1.7630630521e+00 -3.0537147831e+00 1.7630630521e+00 3.0537147831e+00 
29000 5.8073903537e+00 -4.1573392366e-04 1.7630755326e+00 -3.0537364000e+00 1.7630755326e+00 3.0537364000e+00 
29100 5.8073904164e+00 -3.9154921177e-04 1.7630873226e+00 -3.0537568210e+00 1.7630873226e+00 3.0537568210e+00 
29200 5.8073904875e+00 -3.6755267112e-04 1.7630984267e+00 -3.0537760538e+00 1.7630984267e+00 3.0537760538e+00 
29300 5.8073905663e+00 -3.4377115420e-04 1.7631088502e+00 -3.0537941078e+00 1.7631088502e+00 3.0537941078e+00 
29400 5.8073906518e+00 -3.2023038100e-04 1.7631185992e+00 -3.0538109936e+00 1.7631185992e+00 3.0538109936e+00 
29500 5.8073907435e+00 -2.9695493963e-04 1.7631276806e+00 -3.0538267230e+00 1.7631276806e+00 3.0538267230e+00 
29600 5.8073908404e+00 -2.7396828846e-04 1.7631361019e+00 -3.0538413091e+00 1.7631361019e+00 3.0538413091e+00 
29700 5.8073909419e+00 -2.5129275964e-04 1.7631438712e+00 -3.0538547660e+00 1.7631438712e+00 3.0538547660e+00 
29800 5.8073910472e+00 -2.2894956410e-04 1.7631509975e+00 -3.0538671091e+00 1.7631509975e+00 3.0538671091e+00 
29900 5.8073911557e+00 -2.0695879778e-04 1.7631574901e+00 -3.0538783546e+00 1.7631574901e+00 3.0538783546e+00 
30000 5.8073912665e+00 -1.8533944924e-04 1.7631633591e+00 -3.0538885200e+00 1.7631633591e+00 3.0538885200e+00 
30100 5.8073913792e+00 -1.6410940849e-04 1.7631686150e+00 -3.0538976235e+00 1.7631686150e+00 3.0538976235e+00 
30200 5.8073914931e+00 -1.4328547702e-04 1.7631732688e+00 -3.0539056841e+00 1.7631732688e+00 3.0539056841e+00 
30300 5.8073916076e+00 -1.2288337900e-04 1.7631773321e+00 -3.0539127219e+00 1.7631773321e+00 3.0539127219e+00 
30400 5.8073917221e+00 -1.0291777356e-04 1.7631808168e+00 -3.0539187576e+00 1.7631808168e+00 3.0539187576e+00 
30500 5.8073918360e+00 -8.3402268167e-05 1.7631837353e+00 -3.0539238127e+00 1.7631837353e+00 3.0539238127e+00 
30600 5.8073919490e+00 -6.4349432973e-05 1.7631861004e+00 -3.0539279092e+00 1.7631861004e+00 3.0539279092e+00 
30700 5.8073920607e+00 -4.7342239256e-05 1.7631861004e+00 -3.0539279092e+00 1.7631861004e+00 3.0539279092e+00 
30800 5.8073921703e+00 -3.0373799976e-05 1.7631861004e+00 -3.0539279092e+00 1.7631861004e+00 3.0539279092e+00 
30900 5.8073922776e+00 -1.3463424942e-05 1.7631861004e+00 -3.0539279092e+00 1.7631861004e+00 3.0539279092e+00 
31000 5.8073923822e+00 3.3703163331e-06 1.7631861004e+00 -3.0539279092e+00 1.7631861004e+00 3.0539279092e+00 
31100 5.8073924839e+00 2.0109591423e-05 1.7631861004e+00 -3.0539279092e+00 1.7631861004e+00 3.0539279092e+00 
31200 5.8073925825e+00 3.6737301034e-05 1.7631861004e+00 -3.0539279092e+00 1.7631861004e+00 3.0539279092e+00 
31300 5.8073926776e+00 5.3237074372e-05 1.7631861004e+00 -3.0539279092e+00 1.7631861004e+00 3.0539279092e+00 
31400 5.8073927691e+00 6.9593263802e-05 1.7631861004e+00 -3.0539279092e+00 1.7631861004e+00 3.0539279092e+00 
31500 5.8073928569e+00 8.5790938890e-05 1.7631861004e+00 -3.0539279092e+00 1.7631861004e+00 3.0539279092e+00 
31600 5.8073929405e+00 9.9720464790e-05 1.7631836676e+00 -3.0539236954e+00 1.7631836676e+00 3.0539236954e+00 
31700 5.8073930199e+00 1.1311323270e-04 1.7631808397e+00 -3.0539187974e+00 1.7631808397e+00 3.0539187974e+00 
31800 5.8073930950e+00 1.2596766053e-04 1.7631776321e+00 -3.0539132416e+00 1.7631776321e+00 3.0539132416e+00 
31900 5.8073931658e+00 1.3828294874e-04 1.7631740599e+00 -3.0539070544e+00 1.7631740599e+00 3.0539070544e+00 
32000 5.8073932321e+00 1.5005905680e-04 1.7631701385e+00 -3.0539002623e+00 1.7631701385e+00 3.0539002623e+00 
32100 5.8073932941e+00 1.6129667934e-04 1.7631658831e+00 -3.0538928918e+00 1.7631658831e+00 3.0538928918e+00 
32200 5.8073933516e+00 1.7199722210e-04 1.7631613091e+00 -3.0538849692e+00 1.7631613091e+00 3.0538849692e+00 
32300 5.8073934048e+00 1.8216277754e-04 1.7631564315e+00 -3.0538765211e+00 1.7631564315e+00 3.0538765211e+00 
32400 5.8073934536e+00 1.9179610042e-04 1.7631512657e+00 -3.0538675737e+00 1.7631512657e+00 3.0538675737e+00 
32500 5.8073934981e+00 2.0090058315e-04 1.7631458267e+00 -3.0538581530e+00 1.7631458267e+00 3.0538581530e+00 
32600 5.8073935384e+00 2.0948023101e-04 1.7631401295e+00 -3.0538482852e+00 1.7631401295e+00 3.0538482852e+00 
32700 5.8073935746e+00 2.1753963738e-04 1.7631341890e+00 -3.0538379959e+00 1.7631341890e+00 3.0538379959e+00 
32800 5.8073936069e+00 2.2508395892e-04 1.7631280199e+00 -3.0538273106e+00 1.7631280199e+00 3.0538273106e+00 
32900 5.8073936352e+00 2.3211889071e-04 1.7631216368e+00 -3.0538162548e+00 1.7631216368e+00 3.0538162548e+00 
33000 5.8073936598e+00 2.3865064154e-04 1.7631150542e+00 -3.0538048534e+00 1.7631150542e+00 3.0538048534e+00 
33100 5.8073936809e+00 2.4468590915e-04 1.7631082863e+00 -3.0537931311e+00 1.7631082863e+00 3.0537931311e+00 
33200 5.8073936985e+00 2.5023185564e-04 1.7631013473e+00 -3.0537811123e+00 1.7631013473e+00 3.0537811123e+00 
33300 5.8073937128e+00 2.5529608304e-04 1.7630942509e+00 -3.0537688211e+00 1.7630942509e+00 3.0537688211e+00 
33400 5.8073937241e+00 2.5988660902e-04 1.7630870109e+00 -3.0537562811e+00 1.7630870109e+00 3.0537562811e+00 
33500 5.8073937324e+00 2.6401184279e-04 1.7630796407e+00 -3.0537435155e+00 1.7630796407e+00 3.0537435155e+00 
33600 5.8073937380e+00 2.6768056123e-04 1.7630721535e+00 -3.0537305472e+00 1.7630721535e+00 3.0537305472e+00 
33700 5.8073937410e+00 2.7090188532e-04 1.7630645622e+00 -3.0537173987e+00 1.7630645622e+00 3.0537173987e+00 
33800 5.8073937417e+00 2.7368525673e-04 1.7630568795e+00 -3.0537040919e+00 1.7630568795e+00 3.0537040919e+00 
33900 5.8073937401e+00 2.7604041487e-04 1.7630491178e+00 -3.0536906483e+00 1.7630491178e+00 3.0536906483e+00 
34000 5.8073937366e+00 2.7797737411e-04 1.7630412893e+00 -3.0536770889e+00 1.7630412893e+00 3.0536770889e+00 
34100 5.8073937312e+00 2.7950640145e-04 1.7630334059e+00 -3.0536634344e+00 1.7630334059e+00 3.0536634344e+00 
34200 5.8073937241e+00 2.8063799449e-04 1.7630254790e+00 -3.0536497047e+00 1.7630254790e+00 3.0536497047e+00 
34300 5.8073937156e+00 2.8138285986e-04 1.7630175200e+00 -3.0536359193e+00 1.7630175200e+00 3.0536359193e+00 
34400 5.8073937058e+00 2.8175189194e-04 1.7630095399e+00 -3.0536220973e+00 1.7630095399e+00 3.0536220973e+00 
34500 5.8073936948e+00 2.8175615210e-04 1.7630015492e+00 -3.0536082571e+00 1.7630015492e+00 3.0536082571e+00 
34600 5.8073936828e+00 2.8140684834e-04 1.7629935584e+00 -3.0535944166e+00 1.7629935584e+00 3.0535944166e+00 
34700 5.8073936701e+00 2.8071531535e-04 1.7629855775e+00 -3.0535805932e+00 1.7629855775e+00 3.0535805932e+00 
34800 5.8073936566e+00 2.7969299508e-04 1.7629776161e+00 -3.0535668038e+00 1.7629776161e+00 3.0535668038e+00 
34900 5.8073936427e+00 2.7835141774e-04 1.7629696837e+00 -3.0535530645e+00 1.7629696837e+00 3.0535530645e+00 
35000 5.8073936283e+00 2.7670218335e-04 1.7629617894e+00 -3.0535393910e+00 1.7629617894e+00 3.0535393910e+00 
35100 5.8073936137e+00 2.7475694369e-04 1.7629539417e+00 -3.0535257985e+00 1.7629539417e+00 3.0535257985e+00 
35200 5.8073935989e+00 2.7252738484e-04 1.7629461492e+00 -3.0535123014e+00 1.7629461492e+00 3.0535123014e+00 
35300 5.8073935842e+00 2.7002521019e-04 1.7629384199e+00 -3.0534989139e+00 1.7629384199e+00 3.0534989139e+00 
35400 5.8073935695e+00 2.6726212401e-04 1.7629307615e+00 -3.0534856492e+00 1.7629307615e+00 3.0534856492e+00 
35500 5.8073935550e+00 2.6424981548e-04 1.7629231815e+00 -3.0534725202e+00 1.7629231815e+00 3.0534725202e+00 
35600 5.8073935408e+00 2.6099994329e-04 1.7629156868e+00 -3.0534595390e+00 1.7629156868e+00 3.0534595390e+00 
35700 5.8073935269e+00 2.5752412080e-04 1.7629082843e+00 -3.0534467175e+00 1.7629082843e+00 3.0534467175e+00 
35800 5.8073935135e+00 2.5383390172e-04 1.7629009804e+00 -3.0534340667e+00 1.7629009804e+00 3.0534340667e+00 
35900 5.8073935006e+00 2.4994076628e-04 1.7628937811e+00 -3.0534215971e+00 1.7628937811e+00 3.0534215971e+00 
36000 5.8073934883e+00 2.4585610800e-04 1.7628866921e+00 -3.0534093187e+00 1.7628866921e+00 3.0534093187e+00 
36100 5.8073934766e+00 2.4159122104e-04 1.7628797190e+00 -3.0533972410e+00 1.7628797190e+00 3.0533972410e+00 
36200 5.8073934656e+00 2.3715728795e-04 1.7628728668e+00 -3.0533853727e+00 1.7628728668e+00 3.0533853727e+00 
36300 5.8073934553e+00 2.3256536816e-04 1.7628661404e+00 -3.0533737221e+00 1.7628661404e+00 3.0533737221e+00 
36400 5.8073934457e+00 2.2782638681e-04 1.7628595442e+00 -3.0533622971e+00 1.7628595442e+00 3.0533622971e+00 
36500 5.8073934369e+00 2.2295112428e-04 1.7628530823e+00 -3.0533511049e+00 1.7628530823e+00 3.0533511049e+00 
36600 5.8073934289e+00 2.1795020614e-04 1.7628467588e+00 -3.0533401521e+00 1.7628467588e+00 3.0533401521e+00 
36700 5.8073934218e+00 2.1283409373e-04 1.7628405770e+00 -3.0533294450e+00 1.7628405770e+00 3.0533294450e+00 
36800 5.8073934154e+00 2.0761307516e-04 1.7628345403e+00 -3.0533189892e+00 1.7628345403e+00 3.0533189892e+00 
36900 5.8073934099e+00 2.0229725696e-04 1.7628286517e+00 -3.0533087898e+00 1.7628286517e+00 3.0533087898e+00 
37000 5.8073934052e+00 1.9689655610e-04 1.7628229139e+00 -3.0532988515e+00 1.7628229139e+00 3.0532988515e+00 
37100 5.8073934013e+00 1.9142069266e-04 1.7628173292e+00 -3.0532891786e+00 1.7628173292e+00 3.0532891786e+00 
37200 5.8073933982e+00 1.8587918290e-04 1.7628118998e+00 -3.0532797746e+00 1.7628118998e+00 3.0532797746e+00 
37300 5.8073933959e+00 1.8028133292e-04 1.7628066275e+00 -3.0532706428e+00 1.7628066275e+00 3.0532706428e+00 
37400 5.8073933944e+00 1.7463623269e-04 1.7628015141e+00 -3.0532617860e+00 1.7628015141e+00 3.0532617860e+00 
37500 5.8073933937e+00 1.6895275069e-04 1.7627965607e+00 -3.0532532065e+00 1.7627965607e+00 3.0532532065e+00 
37600 5.8073933936e+00 1.6323952895e-04 1.7627917685e+00 -3.0532449062e+00 1.7627917685e+00 3.0532449062e+00 
37700 5.8073933943e+00 1.5750497855e-04 1.7627871384e+00 -3.0532368866e+00 1.7627871384e+00 3.0532368866e+00 
37800 5.8073933957e+00 1.5175727563e-04 1.7627826709e+00 -3.0532291487e+00 1.7627826709e+00 3.0532291487e+00 
37900 5.8073933977e+00 1.4600435779e-04 1.7627783664e+00 -3.0532216931e+00 1.7627783664e+00 3.0532216931e+00 
38000 5.8073934003e+00 1.4025392096e-04 1.7627742251e+00 -3.0532145201e+00 1.7627742251e+00 3.0532145201e+00 
38100 5.8073934035e+00 1.3451341667e-04 1.7627702469e+00 -3.0532076297e+00 1.7627702469e+00 3.0532076297e+00 
38200 5.8073934072e+00 1.2879004981e-04 1.7627664315e+00 -3.0532010212e+00 1.7627664315e+00 3.0532010212e+00 
38300 5.8073934114e+00 1.2309077665e-04 1.7627627784e+00 -3.0531946939e+00 1.7627627784e+00 3.0531946939e+00 
38400 5.8073934161e+00 1.1742230345e-04 1.7627592870e+00 -3.0531886466e+00 1.7627592870e+00 3.0531886466e+00 
38500 5.8073934212e+00 1.1179108528e-04 1.7627559564e+00 -3.0531828778e+00 1.7627559564e+00 3.0531828778e+00 
38600 5.8073934267e+00 1.0620332529e-04 1.7627527854e+00 -3.0531773856e+00 1.7627527854e+00 3.0531773856e+00 
38700 5.8073934325e+00 1.0066497440e-04 1.7627497730e+00 -3.0531721679e+00 1.7627497730e+00 3.0531721679e+00 
38800 5.8073934387e+00 9.5181731188e-05 1.7627469177e+00 -3.0531672223e+00 1.7627469177e+00 3.0531672223e+00 
38900 5.8073934451e+00 8.9759042305e-05 1.7627442179e+00 -3.0531625461e+00 1.7627442179e+00 3.0531625461e+00 
39000 5.8073934518e+00 8.4402103064e-05 1.7627416719e+00 -3.0531581363e+00 1.7627416719e+00 3.0531581363e+00 
39100 5.8073934587e+00 7.9115858420e-05 1.7627392778e+00 -3.0531539897e+00 1.7627392778e+00 3.0531539897e+00 
39200 5.8073934657e+00 7.3905004263e-05 1.7627370337e+00 -3.0531501027e+00 1.7627370337e+00 3.0531501027e+00 
39300 5.8073934729e+00 6.8773988960e-05 1.7627349374e+00 -3.0531464718e+00 1.7627349374e+00 3.0531464718e+00 
39400 5.8073934803e+00 6.5409053440e-05 1.7627349374e+00 -3.0531464718e+00 1.7627349374e+00 3.0531464718e+00 
39500 5.8073934878e+00 6.2016841771e-05 1.7627349374e+00 -3.0531464718e+00 1.7627349374e+00 3.0531464718e+00 
39600 5.8073934952e+00 5.8602779035e-05 1.7627349374e+00 -3.0531464718e+00 1.7627349374e+00 3.0531464718e+00 
39700 5.8073935027e+00 5.5172123432e-05 1.7627349374e+00 -3.0531464718e+00 1.7627349374e+00 3.0531464718e+00 
39800 5.8073935101e+00 5.1729966016e-05 1.7627349374e+00 -3.0531464718e+00 1.7627349374e+00 3.0531464718e+00 
39900 5.8073935174e+00 4.8281230619e-05 1.7627349374e+00 -3.0531464718e+00 1.7627349374e+00 3.0531464718e+00 
40000 5.8073935246e+00 4.4830673954e-05 1.7627349374e+00 -3.0531464718e+00 1.7627349374e+00 3.0531464718e+00 
40100 5.8073935317e+00 4.1382885893e-05 1.7627349374e+00 -3.0531464718e+00 1.7627349374e+00 3.0531464718e+00 
40200 5.8073935387e+00 3.7942289914e-05 1.7627349374e+00 -3.0531464718e+00 1.7627349374e+00 3.0531464718e+00 
40300 5.8073935456e+00 3.4513143714e-05 1.7627349374e+00 -3.0531464718e+00 1.7627349374e+00 3.0531464718e+00 
40400 5.8073935523e+00 3.1099539976e-05 1.7627349374e+00 -3.0531464718e+00 1.7627349374e+00 3.0531464718e+00 
40500 5.8073935588e+00 2.7705407299e-05 1.7627349374e+00 -3.0531464718e+00 1.7627349374e+00 3.0531464718e+00 
40600 5.8073935652e+00 2.4334511264e-05 1.7627349374e+00 -3.0531464718e+00 1.7627349374e+00 3.0531464718e+00 
40700 5.8073935713e+00 2.0990455654e-05 1.7627349374e+00 -3.0531464718e+00 1.7627349374e+00 3.0531464718e+00 
40800 5.8073935773e+00 1.7676683804e-05 1.7627349374e+00 -3.0531464718e+00 1.7627349374e+00 3.0531464718e+00 
40900 5.8073935830e+00 1.4396480085e-05 1.7627349374e+00 -3.0531464718e+00 1.7627349374e+00 3.0531464718e+00 
41000 5.8073935885e+00 1.1152971515e-05 1.7627349374e+00 -3.0531464718e+00 1.7627349374e+00 3.0531464718e+00 
41100 5.8073935938e+00 7.9491294860e-06 1.7627349374e+00 -3.0531464718e+00 1.7627349374e+00 3.0531464718e+00 
41200 5.8073935989e+00 4.7877716151e-06 1.7627349374e+00 -3.0531464718e+00 1.7627349374e+00 3.0531464718e+00 
41300 5.8073936038e+00 1.6715637009e-06 1.7627349374e+00 -3.0531464718e+00 1.7627349374e+00 3.0531464718e+00 
41400 5.8073936084e+00 -1.3969782193e-06 1.7627349374e+00 -3.0531464718e+00 1.7627349374e+00 3.0531464718e+00 
41500 5.8073936128e+00 -4.4154857043e-06 1.7627349374e+00 -3.0531464718e+00 1.7627349374e+00 3.0531464718e+00 
41600 5.8073936170e+00 -7.3817356587e-06 1.7627349374e+00 -3.0531464718e+00 1.7627349374e+00 3.0531464718e+00 
41700 5.8073936210e+00 -1.0293647984e-05 1.7627349374e+00 -3.0531464718e+00 1.7627349374e+00 3.0531464718e+00 
41800 5.8073936247e+00 -1.3149283154e-05 1.7627349374e+00 -3.0531464718e+00 1.7627349374e+00 3.0531464718e+00 
41900 5.8073936282e+00 -1.5946839712e-05 1.7627349374e+00 -3.0531464718e+00 1.7627349374e+00 3.0531464718e+00 
42000 5.8073936315e+00 -1.8684651681e-05 1.7627349374e+00 -3.0531464718e+00 1.7627349374e+00 3.0531464718e+00 
42100 5.8073936346e+00 -2.1361185927e-05 1.7627349374e+00 -3.0531464718e+00 1.7627349374e+00 3.0531464718e+00 
42200 5.8073936375e+00 -2.3975039438e-05 1.7627349374e+00 -3.0531464718e+00 1.7627349374e+00 3.0531464718e+00 
42300 5.8073936402e+00 -2.6524936558e-05 1.7627349374e+00 -3.0531464718e+00 1.7627349374e+00 3.0531464718e+00 
42400 5.8073936427e+00 -2.9009726160e-05 1.7627349374e+00 -3.0531464718e+00 1.7627349374e+00 3.0531464718e+00 
42500 5.8073936450e+00 -3.1428378774e-05 1.7627349374e+00 -3.0531464718e+00 1.7627349374e+00 3.0531464718e+00 
42600 5.8073936471e+00 -3.3779983665e-05 1.7627349374e+00 -3.0531464718e+00 1.7627349374e+00 3.0531464718e+00 
42700 5.8073936491e+00 -3.6063745876e-05 1.7627349374e+00 -3.0531464718e+00 1.7627349374e+00 3.0531464718e+00 
42800 5.8073936509e+00 -3.8278983233e-05 1.7627349374e+00 -3.0531464718e+00 1.7627349374e+00 3.0531464718e+00 
42900 5.8073936525e+00 -4.0425123319e-05 1.7627349374e+00 -3.0531464718e+00 1.7627349374e+00 3.0531464718e+00 
43000 5.8073936540e+00 -4.2501700425e-05 1.7627349374e+00 -3.0531464718e+00 1.7627349374e+00 3.0531464718e+00 
43100 5.8073936554e+00 -4.4508352465e-05 1.7627349374e+00 -3.0531464718e+00 1.7627349374e+00 3.0531464718e+00 
43200 5.8073936566e+00 -4.6444817893e-05 1.7627349374e+00 -3.0531464718e+00 1.7627349374e+00 3.0531464718e+00 
43300 5.8073936577e+00 -4.8310932587e-05 1.7627349374e+00 -3.0531464718e+00 1.7627349374e+00 3.0531464718e+00 
43400 5.8073936587e+00 -5.0106626730e-05 1.7627349374e+00 -3.0531464718e+00 1.7627349374e+00 3.0531464718e+00 
43500 5.8073936596e+00 -5.1831921688e-05 1.7627349374e+00 -3.0531464718e+00 1.7627349374e+00 3.0531464718e+00 
43600 5.8073936604e+00 -5.3486926873e-05 1.7627349374e+00 -3.0531464718e+00 1.7627349374e+00 3.0531464718e+00 
43700 5.8073936611e+00 -5.5071836621e-05 1.7627349374e+00 -3.0531464718e+00 1.7627349374e+00 3.0531464718e+00 
43800 5.8073936617e+00 -5.6586927063e-05 1.7627349374e+00 -3.0531464718e+00 1.7627349374e+00 3.0531464718e+00 
43900 5.8073936623e+00 -5.8032553007e-05 1.7627349374e+00 -3.0531464718e+00 1.7627349374e+00 3.0531464718e+00 
44000 5.8073936628e+00 -5.9409144824e-05 1.7627349374e+00 -3.0531464718e+00 1.7627349374e+00 3.0531464718e+00 
44100 5.8073936632e+00 -6.0717205370e-05 1.7627349374e+00 -3.0531464718e+00 1.7627349374e+00 3.0531464718e+00 
44200 5.8073936636e+00 -6.1957306892e-05 1.7627349374e+00 -3.0531464718e+00 1.7627349374e+00 3.0531464718e+00 
44300 5.8073936639e+00 -6.3130087983e-05 1.7627349374e+00 -3.0531464718e+00 1.7627349374e+00 3.0531464718e+00 
44400 5.8073936642e+00 -6.4236250535e-05 1.7627349374e+00 -3.0531464718e+00 1.7627349374e+00 3.0531464718e+00 
44500 5.8073936645e+00 -6.5276556741e-05 1.7627349374e+00 -3.0531464718e+00 1.7627349374e+00 3.0531464718e+00 
44600 5.8073936647e+00 -6.6251826110e-05 1.7627349374e+00 -3.0531464718e+00 1.7627349374e+00 3.0531464718e+00 
44700 5.8073936649e+00 -6.7162932513e-05 1.7627349374e+00 -3.0531464718e+00 1.7627349374e+00 3.0531464718e+00 
44800 5.8073936651e+00 -6.8010801270e-05 1.7627349374e+00 -3.0531464718e+00 1.7627349374e+00 3.0531464718e+00 
44900 5.8073936653e+00 -6.8796406259e-05 1.7627349374e+00 -3.0531464718e+00 1.7627349374e+00 3.0531464718e+00 
45000 5.8073936655e+00 -6.9520767081e-05 1.7627349374e+00 -3.0531464718e+00 1.7627349374e+00 3.0531464718e+00 
45100 5.8073936656e+00 -7.0184946250e-05 1.7627349374e+00 -3.0531464718e+00 1.7627349374e+00 3.0531464718e+00 
45200 5.8073936658e+00 -7.0790046426e-05 1.7627349374e+00 -3.0531464718e+00 1.7627349374e+00 3.0531464718e+00 
45300 5.8073936658e+00 -6.9606165448e-05 1.7627369453e+00 -3.0531499497e+00 1.7627369453e+00 3.0531499497e+00 
45400 5.8073936660e+00 -7.0088157312e-05 1.7627369453e+00 -3.0531499497e+00 1.7627369453e+00 3.0531499497e+00 
45500 5.8073936662e+00 -7.0514433142e-05 1.7627369453e+00 -3.0531499497e+00 1.7627369453e+00 3.0531499497e+00 
45600 5.8073936664e+00 -7.0886248584e-05 1.7627369453e+00 -3.0531499497e+00 1.7627369453e+00 3.0531499497e+00 
45700 5.8073936665e+00 -6.9471502306e-05 1.7627389560e+00 -3.0531534323e+00 1.7627389560e+00 3.0531534323e+00 
45800 5.8073936667e+00 -6.9729849091e-05 1.7627389560e+00 -3.0531534323e+00 1.7627389560e+00 3.0531534323e+00 
45900 5.8073936670e+00 -6.9937491119e-05 1.7627389560e+00 -3.0531534323e+00 1.7627389560e+00 3.0531534323e+00 
46000 5.8073936673e+00 -7.0095793721e-05 1.7627389560e+00 -3.0531534323e+00 1.7627389560e+00 3.0531534323e+00 
46100 5.8073936676e+00 -7.0206138217e-05 1.7627389560e+00 -3.0531534323e+00 1.7627389560e+00 3.0531534323e+00 
46200 5.8073936679e+00 -7.0269919692e-05 1.7627389560e+00 -3.0531534323e+00 1.7627389560e+00 3.0531534323e+00 
46300 5.8073936682e+00 -7.0288544801e-05 1.7627389560e+00 -3.0531534323e+00 1.7627389560e+00 3.0531534323e+00 
46400 5.8073936686e+00 -7.0263429667e-05 1.7627389560e+00 -3.0531534323e+00 1.7627389560e+00 3.0531534323e+00 
46500 5.8073936690e+00 -7.0195997805e-05 1.7627389560e+00 -3.0531534323e+00 1.7627389560e+00 3.0531534323e+00 
46600 5.8073936694e+00 -7.0087678124e-05 1.7627389560e+00 -3.0531534323e+00 1.7627389560e+00 3.0531534323e+00 
46700 5.8073936699e+00 -6.9939902980e-05 1.7627389560e+00 -3.0531534323e+00 1.7627389560e+00 3.0531534323e+00 
46800 5.8073936703e+00 -6.9754106293e-05 1.7627389560e+00 -3.0531534323e+00 1.7627389560e+00 3.0531534323e+00 
46900 5.8073936708e+00 -6.9531721723e-05 1.7627389560e+00 -3.0531534323e+00 1.7627389560e+00 3.0531534323e+00 
47000 5.8073936713e+00 -6.9274180906e-05 1.7627389560e+00 -3.0531534323e+00 1.7627389560e+00 3.0531534323e+00 
47100 5.8073936719e+00 -6.8982911746e-05 1.7627389560e+00 -3.0531534323e+00 1.7627389560e+00 3.0531534323e+00 
47200 5.8073936724e+00 -6.8659336777e-05 1.7627389560e+00 -3.0531534323e+00 1.7627389560e+00 3.0531534323e+00 
47300 5.8073936730e+00 -6.8304871577e-05 1.7627389560e+00 -3.0531534323e+00 1.7627389560e+00 3.0531534323e+00 
47400 5.8073936736e+00 -6.7920923251e-05 1.7627389560e+00 -3.0531534323e+00 1.7627389560e+00 3.0531534323e+00 
47500 5.8073936742e+00 -6.7508888960e-05 1.7627389560e+00 -3.0531534323e+00 1.7627389560e+00 3.0531534323e+00 
47600 5.8073936748e+00 -6.7070154527e-05 1.7627389560e+00 -3.0531534323e+00 1.7627389560e+00 3.0531534323e+00 
47700 5.8073936755e+00 -6.6606093097e-05 1.7627389560e+00 -3.0531534323e+00 1.7627389560e+00 3.0531534323e+00 
47800 5.8073936761e+00 -6.6118063848e-05 1.7627389560e+00 -3.0531534323e+00 1.7627389560e+00 3.0531534323e+00 
47900 5.8073936768e+00 -6.5607410774e-05 1.7627389560e+00 -3.0531534323e+00 1.7627389560e+00 3.0531534323e+00 
48000 5.8073936775e+00 -6.5075461517e-05 1.7627389560e+00 -3.0531534323e+00 1.7627389560e+00 3.0531534323e+00 
48100 5.8073936782e+00 -6.4523526267e-05 1.7627389560e+00 -3.0531534323e+00 1.7627389560e+00 3.0531534323e+00 
48200 5.8073936789e+00 -6.3952896710e-05 1.7627389560e+00 -3.0531534323e+00 1.7627389560e+00 3.0531534323e+00 
48300 5.8073936796e+00 -6.3364845037e-05 1.7627389560e+00 -3.0531534323e+00 1.7627389560e+00 3.0531534323e+00 
48400 5.8073936803e+00 -6.2760623017e-05 1.7627389560e+00 -3.0531534323e+00 1.7627389560e+00 3.0531534323e+00 
48500 5.8073936811e+00 -6.2141461106e-05 1.7627389560e+00 -3.0531534323e+00 1.7627389560e+00 3.0531534323e+00 
48600 5.8073936818e+00 -6.1508567639e-05 1.7627389560e+00 -3.0531534323e+00 1.7627389560e+00 3.0531534323e+00 
48700 5.8073936825e+00 -6.0863128047e-05 1.7627389560e+00 -3.0531534323e+00 1.7627389560e+00 3.0531534323e+00 
48800 5.8073936833e+00 -6.0206304155e-05 1.7627389560e+00 -3.0531534323e+00 1.7627389560e+00 3.0531534323e+00 
48900 5.8073936840e+00 -5.9539233510e-05 1.7627389560e+00 -3.0531534323e+00 1.7627389560e+00 3.0531534323e+00 
49000 5.8073936847e+00 -5.8863028771e-05 1.7627389560e+00 -3.0531534323e+00 1.7627389560e+00 3.0531534323e+00 
49100 5.8073936854e+00 -5.8178777156e-05 1.7627389560e+00 -3.0531534323e+00 1.7627389560e+00 3.0531534323e+00 
49200 5.8073936862e+00 -5.7487539922e-05 1.7627389560e+00 -3.0531534323e+00 1.7627389560e+00 3.0531534323e+00 
49300 5.8073936869e+00 -5.6790351910e-05 1.7627389560e+00 -3.0531534323e+00 1.7627389560e+00 3.0531534323e+00 
49400 5.8073936876e+00 -5.6088221133e-05 1.7627389560e+00 -3.0531534323e+00 1.7627389560e+00 3.0531534323e+00 
49500 5.8073936883e+00 -5.5382128401e-05 1.7627389560e+00 -3.0531534323e+00 1.7627389560e+00 3.0531534323e+00 
49600 5.8073936890e+00 -5.4673027004e-05 1.7627389560e+00 -3.0531534323e+00 1.7627389560e+00 3.0531534323e+00 
49700 5.8073936897e+00 -5.3961842443e-05 1.7627389560e+00 -3.0531534323e+00 1.7627389560e+00 3.0531534323e+00 
49800 5.8073936904e+00 -5.3249472184e-05 1.7627389560e+00 -3.0531534323e+00 1.7627389560e+00 3.0531534323e+00 
49900 5.8073936910e+00 -5.2536785474e-05 1.7627389560e+00 -3.0531534323e+00 1.7627389560e+00 3.0531534323e+00 
50000 5.8073936917e+00 -5.1824623196e-05 1.7627389560e+00 -3.0531534323e+00 1.7627389560e+00 3.0531534323e+00 
50100 5.8073936923e+00 -5.1113797750e-05 1.7627389560e+00 -3.0531534323e+00 1.7627389560e+00 3.0531534323e+00 
50200 5.8073936930e+00 -5.0405092988e-05 1.7627389560e+00 -3.0531534323e+00 1.7627389560e+00 3.0531534323e+00 
50300 5.8073936936e+00 -4.9699264182e-05 1.7627389560e+00 -3.0531534323e+00 1.7627389560e+00 3.0531534323e+00 
50400 5.8073936942e+00 -4.8997038025e-05 1.7627389560e+00 -3.0531534323e+00 1.7627389560e+00 3.0531534323e+00 
50500 5.8073936948e+00 -4.8299112675e-05 1.7627389560e+00 -3.0531534323e+00 1.7627389560e+00 3.0531534323e+00 
50600 5.8073936954e+00 -4.7606157822e-05 1.7627389560e+00 -3.0531534323e+00 1.7627389560e+00 3.0531534323e+00 
50700 5.8073936960e+00 -4.6918814798e-05 1.7627389560e+00 -3.0531534323e+00 1.7627389560e+00 3.0531534323e+00 
50800 5.8073936965e+00 -4.6237696713e-05 1.7627389560e+00 -3.0531534323e+00 1.7627389560e+00 3.0531534323e+00 
50900 5.8073936971e+00 -4.5563388629e-05 1.7627389560e+00 -3.0531534323e+00 1.7627389560e+00 3.0531534323e+00 
51000 5.8073936976e+00 -4.4896447750e-05 1.7627389560e+00 -3.0531534323e+00 1.7627389560e+00 3.0531534323e+00 
51100 5.8073936981e+00 -4.4237403657e-05 1.7627389560e+00 -3.0531534323e+00 1.7627389560e+00 3.0531534323e+00 
51200 5.8073936986e+00 -4.3586758551e-05 1.7627389560e+00 -3.0531534323e+00 1.7627389560e+00 3.0531534323e+00 
51300 5.8073936991e+00 -4.2944987537e-05 1.7627389560e+00 -3.0531534323e+00 1.7627389560e+00 3.0531534323e+00 
51400 5.8073936996e+00 -4.2312538930e-05 1.7627389560e+00 -3.0531534323e+00 1.7627389560e+00 3.0531534323e+00 
51500 5.8073937001e+00 -4.1689834578e-05 1.7627389560e+00 -3.0531534323e+00 1.7627389560e+00 3.0531534323e+00 
51600 5.8073937005e+00 -4.1077270210e-05 1.7627389560e+00 -3.0531534323e+00 1.7627389560e+00 3.0531534323e+00 
51700 5.8073937009e+00 -4.0475215812e-05 1.7627389560e+00 -3.0531534323e+00 1.7627389560e+00 3.0531534323e+00 
51800 5.8073937014e+00 -3.9884016005e-05 1.7627389560e+00 -3.0531534323e+00 1.7627389560e+00 3.0531534323e+00 
51900 5.8073937018e+00 -3.9303990471e-05 1.7627389560e+00 -3.0531534323e+00 1.7627389560e+00 3.0531534323e+00 
52000 5.8073937022e+00 -3.8735434366e-05 1.7627389560e+00 -3.0531534323e+00 1.7627389560e+00 3.0531534323e+00 
52100 5.8073937026e+00 -3.8178618763e-05 1.7627389560e+00 -3.0531534323e+00 1.7627389560e+00 3.0531534323e+00 
52200 5.8073937029e+00 -3.7633791120e-05 1.7627389560e+00 -3.0531534323e+00 1.7627389560e+00 3.0531534323e+00 
52300 5.8073937033e+00 -3.7101175746e-05 1.7627389560e+00 -3.0531534323e+00 1.7627389560e+00 3.0531534323e+00 
52400 5.8073937037e+00 -3.6580974285e-05 1.7627389560e+00 -3.0531534323e+00 1.7627389560e+00 3.0531534323e+00 
52500 5.8073937040e+00 -3.6073366223e-05 1.7627389560e+00 -3.0531534323e+00 1.7627389560e+00 3.0531534323e+00 
52600 5.8073937043e+00 -3.5578509389e-05 1.7627389560e+00 -3.0531534323e+00 1.7627389560e+00 3.0531534323e+00 
52700 5.8073937047e+00 -3.5096540480e-05 1.7627389560e+00 -3.0531534323e+00 1.7627389560e+00 3.0531534323e+00 
52800 5.8073937050e+00 -3.4627575592e-05 1.7627389560e+00 -3.0531534323e+00 1.7627389560e+00 3.0531534323e+00 
52900 5.8073937053e+00 -3.4171710748e-05 1.7627389560e+00 -3.0531534323e+00 1.7627389560e+00 3.0531534323e+00 
53000 5.8073937056e+00 -3.3729022457e-05 1.7627389560e+00 -3.0531534323e+00 1.7627389560e+00 3.0531534323e+00 
53100 5.8073937059e+00 -3.3299568253e-05 1.7627389560e+00 -3.0531534323e+00 1.7627389560e+00 3.0531534323e+00 
53200 5.8073937061e+00 -3.2883387264e-05 1.7627389560e+00 -3.0531534323e+00 1.7627389560e+00 3.0531534323e+00 
53300 5.8073937064e+00 -3.2480500762e-05 1.7627389560e+00 -3.0531534323e+00 1.7627389560e+00 3.0531534323e+00 
53400 5.8073937067e+00 -3.2090912737e-05 1.7627389560e+00 -3.0531534323e+00 1.7627389560e+00 3.0531534323e+00 
53500 5.8073937069e+00 -3.1714610462e-05 1.7627389560e+00 -3.0531534323e+00 1.7627389560e+00 3.0531534323e+00 
53600 5.8073937072e+00 -3.1351565065e-05 1.7627389560e+00 -3.0531534323e+00 1.7627389560e+00 3.0531534323e+00 
53700 5.8073937074e+00 -3.1001732103e-05 1.7627389560e+00 -3.0531534323e+00 1.7627389560e+00 3.0531534323e+00 
53800 5.8073937077e+00 -3.0665052129e-05 1.7627389560e+00 -3.0531534323e+00 1.7627389560e+00 3.0531534323e+00 
53900 5.8073937079e+00 -3.0341451275e-05 1.7627389560e+00 -3.0531534323e+00 1.7627389560e+00 3.0531534323e+00 
54000 5.8073937081e+00 -3.0030841815e-05 1.7627389560e+00 -3.0531534323e+00 1.7627389560e+00 3.0531534323e+00 
54100 5.8073937084e+00 -2.9733122738e-05 1.7627389560e+00 -3.0531534323e+00 1.7627389560e+00 3.0531534323e+00 
54200 5.8073937086e+00 -2.9448180321e-05 1.7627389560e+00 -3.0531534323e+00 1.7627389560e+00 3.0531534323e+00 
54300 5.8073937088e+00 -2.9175888691e-05 1.7627389560e+00 -3.0531534323e+00 1.7627389560e+00 3.0531534323e+00 
54400 5.8073937090e+00 -2.8916110385e-05 1.7627389560e+00 -3.0531534323e+00 1.7627389560e+00 3.0531534323e+00 
54500 5.8073937092e+00 -2.8668696912e-05 1.7627389560e+00 -3.0531534323e+00 1.7627389560e+00 3.0531534323e+00 
54600 5.8073937094e+00 -2.8433489308e-05 1.7627389560e+00 -3.0531534323e+00 1.7627389560e+00 3.0531534323e+00 
54700 5.8073937096e+00 -2.8210318681e-05 1.7627389560e+00 -3.0531534323e+00 1.7627389560e+00 3.0531534323e+00 
54800 5.8073937098e+00 -2.7999006758e-05 1.7627389560e+00 -3.0531534323e+00 1.7627389560e+00 3.0531534323e+00 
54900 5.8073937100e+00 -2.7799366417e-05 1.7627389560e+00 -3.0531534323e+00 1.7627389560e+00 3.0531534323e+00 
55000 5.8073937102e+00 -2.7611202223e-05 1.7627389560e+00 -3.0531534323e+00 1.7627389560e+00 3.0531534323e+00 
55100 5.8073937104e+00 -2.7434310944e-05 1.7627389560e+00 -3.0531534323e+00 1.7627389560e+00 3.0531534323e+00 
55200 5.8073937106e+00 -2.7268482081e-05 1.7627389560e+00 -3.0531534323e+00 1.7627389560e+00 3.0531534323e+00 
55300 5.8073937108e+00 -2.7113498358e-05 1.7627389560e+00 -3.0531534323e+00 1.7627389560e+00 3.0531534323e+00 
55400 5.8073937109e+00 -2.6969136232e-05 1.7627389560e+00 -3.0531534323e+00 1.7627389560e+00 3.0531534323e+00 
55500 5.8073937111e+00 -2.6835166388e-05 1.7627389560e+00 -3.0531534323e+00 1.7627389560e+00 3.0531534323e+00 
55600 5.8073937113e+00 -2.6711354211e-05 1.7627389560e+00 -3.0531534323e+00 1.7627389560e+00 3.0531534323e+00 
55700 5.8073937115e+00 -2.6597460264e-05 1.7627389560e+00 -3.0531534323e+00 1.7627389560e+00 3.0531534323e+00 
55800 5.8073937116e+00 -2.6493240758e-05 1.7627389560e+00 -3.0531534323e+00 1.7627389560e+00 3.0531534323e+00 
55900 5.8073937118e+00 -2.6398447991e-05 1.7627389560e+00 -3.0531534323e+00 1.7627389560e+00 3.0531534323e+00 
56000 5.8073937120e+00 -2.6312830807e-05 1.7627389560e+00 -3.0531534323e+00 1.7627389560e+00 3.0531534323e+00 
56100 5.8073937122e+00 -2.6236135020e-05 1.7627389560e+00 -3.0531534323e+00 1.7627389560e+00 3.0531534323e+00 
56200 5.8073937123e+00 -2.6168103839e-05 1.7627389560e+00 -3.0531534323e+00 1.7627389560e+00 3.0531534323e+00 
56300 5.8073937125e+00 -2.6108478283e-05 1.7627389560e+00 -3.0531534323e+00 1.7627389560e+00 3.0531534323e+00 
56400 5.8073937127e+00 -2.6056997576e-05 1.7627389560e+00 -3.0531534323e+00 1.7627389560e+00 3.0531534323e+00 
56500 5.8073937128e+00 -2.6013399548e-05 1.7627389560e+00 -3.0531534323e+00 1.7627389560e+00 3.0531534323e+00 
56600 5.8073937130e+00 -2.5977421002e-05 1.7627389560e+00 -3.0531534323e+00 1.7627389560e+00 3.0531534323e+00 
56700 5.8073937132e+00 -2.5948798092e-05 1.7627389560e+00 -3.0531534323e+00 1.7627389560e+00 3.0531534323e+00 
56800 5.8073937133e+00 -2.5927266675e-05 1.7627389560e+00 -3.0531534323e+00 1.7627389560e+00 3.0531534323e+00 
56900 5.8073937135e+00 -2.5912562656e-05 1.7627389560e+00 -3.0531534323e+00 1.7627389560e+00 3.0531534323e+00 
57000 5.8073937136e+00 -2.5904422325e-05 1.7627389560e+00 -3.0531534323e+00 1.7627389560e+00 3.0531534323e+00 
57100 5.8073937138e+00 -2.5902582676e-05 1.7627389560e+00 -3.0531534323e+00 1.7627389560e+00 3.0531534323e+00 
57200 5.8073937139e+00 -2.5906781720e-05 1.7627389560e+00 -3.0531534323e+00 1.7627389560e+00 3.0531534323e+00 
57300 5.8073937141e+00 -2.5916758785e-05 1.7627389560e+00 -3.0531534323e+00 1.7627389560e+00 3.0531534323e+00 
57400 5.8073937143e+00 -2.5932254798e-05 1.7627389560e+00 -3.0531534323e+00 1.7627389560e+00 3.0531534323e+00 
57500 5.8073937144e+00 -2.5953012572e-05 1.7627389560e+00 -3.0531534323e+00 1.7627389560e+00 3.0531534323e+00 
57600 5.8073937146e+00 -2.5978777060e-05 1.7627389560e+00 -3.0531534323e+00 1.7627389560e+00 3.0531534323e+00 
57700 5.8073937147e+00 -2.6009295615e-05 1.7627389560e+00 -3.0531534323e+00 1.7627389560e+00 3.0531534323e+00 
57800 5.8073937149e+00 -2.6044318228e-05 1.7627389560e+00 -3.0531534323e+00 1.7627389560e+00 3.0531534323e+00 
57900 5.8073937150e+00 -2.6083597760e-05 1.7627389560e+00 -3.0531534323e+00 1.7627389560e+00 3.0531534323e+00 
58000 5.8073937152e+00 -2.6126890164e-05 1.7627389560e+00 -3.0531534323e+00 1.7627389560e+00 3.0531534323e+00 
58100 5.8073937153e+00 -2.6173954688e-05 1.7627389560e+00 -3.0531534323e+00 1.7627389560e+00 3.0531534323e+00 
58200 5.8073937155e+00 -2.6224554077e-05 1.7627389560e+00 -3.0531534323e+00 1.7627389560e+00 3.0531534323e+00 
58300 5.8073937156e+00 -2.6278454752e-05 1.7627389560e+00 -3.0531534323e+00 1.7627389560e+00 3.0531534323e+00 
58400 5.8073937157e+00 -2.6335426997e-05 1.7627389560e+00 -3.0531534323e+00 1.7627389560e+00 3.0531534323e+00 
58500 5.8073937159e+00 -2.6395245110e-05 1.7627389560e+00 -3.0531534323e+00 1.7627389560e+00 3.0531534323e+00 
58600 5.8073937160e+00 -2.6457687571e-05 1.7627389560e+00 -3.0531534323e+00 1.7627389560e+00 3.0531534323e+00 
58700 5.8073937161e+00 -2.6522537172e-05 1.7627389560e+00 -3.0531534323e+00 1.7627389560e+00 3.0531534323e+00 
58800 5.8073937163e+00 -2.6589581160e-05 1.7627389560e+00 -3.0531534323e+00 1.7627389560e+00 3.0531534323e+00 
58900 5.8073937164e+00 -2.6658611360e-05 1.7627389560e+00 -3.0531534323e+00 1.7627389560e+00 3.0531534323e+00 
59000 5.8073937165e+00 -2.6729424282e-05 1.7627389560e+00 -3.0531534323e+00 1.7627389560e+00 3.0531534323e+00 
59100 5.8073937167e+00 -2.6801821230e-05 1.7627389560e+00 -3.0531534323e+00 1.7627389560e+00 3.0531534323e+00 
59200 5.8073937168e+00 -2.6875608398e-05 1.7627389560e+00 -3.0531534323e+00 1.7627389560e+00 3.0531534323e+00 
59300 5.8073937169e+00 -2.6950596949e-05 1.7627389560e+00 -3.0531534323e+00 1.7627389560e+00 3.0531534323e+00 
59400 5.8073937171e+00 -2.7026603096e-05 1.7627389560e+00 -3.0531534323e+00 1.7627389560e+00 3.0531534323e+00 
59500 5.8073937172e+00 -2.7103448165e-05 1.7627389560e+00 -3.0531534323e+00 1.7627389560e+00 3.0531534323e+00 
59600 5.8073937173e+00 -2.7180958659e-05 1.7627389560e+00 -3.0531534323e+00 1.7627389560e+00 3.0531534323e+00 
59700 5.8073937174e+00 -2.7258966302e-05 1.7627389560e+00 -3.0531534323e+00 1.7627389560e+00 3.0531534323e+00 
59800 5.8073937175e+00 -2.7337308079e-05 1.7627389560e+00 -3.0531534323e+00 1.7627389560e+00 3.0531534323e+00 
59900 5.8073937177e+00 -2.7415826279e-05 1.7627389560e+00 -3.0531534323e+00 1.7627389560e+00 3.0531534323e+00 
60000 5.8073937178e+00 -2.7494368510e-05 1.7627389560e+00 -3.0531534323e+00 1.7627389560e+00 3.0531534323e+00 
60100 5.8073937179e+00 -2.7572787723e-05 1.7627389560e+00 -3.0531534323e+00 1.7627389560e+00 3.0531534323e+00 
60200 5.8073937180e+00 -2.7650942221e-05 1.7627389560e+00 -3.0531534323e+00 1.7627389560e+00 3.0531534323e+00 
60300 5.8073937181e+00 -2.7728695660e-05 1.7627389560e+00 -3.0531534323e+00 1.7627389560e+00 3.0531534323e+00 
60400 5.8073937182e+00 -2.7805917051e-05 1.7627389560e+00 -3.0531534323e+00 1.7627389560e+00 3.0531534323e+00 
60500 5.8073937183e+00 -2.7882480741e-05 1.7627389560e+00 -3.0531534323e+00 1.7627389560e+00 3.0531534323e+00 
60600 5.8073937184e+00 -2.7958266407e-05 1.7627389560e+00 -3.0531534323e+00 1.7627389560e+00 3.0531534323e+00 
60700 5.8073937185e+00 -2.8033159022e-05 1.7627389560e+00 -3.0531534323e+00 1.7627389560e+00 3.0531534323e+00 
60800 5.8073937186e+00 -2.8107048838e-05 1.7627389560e+00 -3.0531534323e+00 1.7627389560e+00 3.0531534323e+00 
60900 5.8073937187e+00 -2.8179831339e-05 1.7627389560e+00 -3.0531534323e+00 1.7627389560e+00 3.0531534323e+00 
61000 5.8073937188e+00 -2.8251407205e-05 1.7627389560e+00 -3.0531534323e+00 1.7627389560e+00 3.0531534323e+00 
61100 5.8073937189e+00 -2.8321682275e-05 1.7627389560e+00 -3.0531534323e+00 1.7627389560e+00 3.0531534323e+00 
61200 5.8073937190e+00 -2.8390567482e-05 1.7627389560e+00 -3.0531534323e+00 1.7627389560e+00 3.0531534323e+00 
61300 5.8073937191e+00 -2.8457978809e-05 1.7627389560e+00 -3.0531534323e+00 1.7627389560e+00 3.0531534323e+00 
61400 5.8073937192e+00 -2.8523837221e-05 1.7627389560e+00 -3.0531534323e+00 1.7627389560e+00 3.0531534323e+00 
61500 5.8073937193e+00 -2.8588068606e-05 1.7627389560e+00 -3.0531534323e+00 1.7627389560e+00 3.0531534323e+00 
61600 5.8073937194e+00 -2.8650603701e-05 1.7627389560e+00 -3.0531534323e+00 1.7627389560e+00 3.0531534323e+00 
61700 5.8073937195e+00 -2.8711378028e-05 1.7627389560e+00 -3.0531534323e+00 1.7627389560e+00 3.0531534323e+00 
61800 5.8073937195e+00 -2.8770331806e-05 1.7627389560e+00 -3.0531534323e+00 1.7627389560e+00 3.0531534323e+00 
61900 5.8073937196e+00 -2.8827409883e-05 1.7627389560e+00 -3.0531534323e+00 1.7627389560e+00 3.0531534323e+00 
62000 5.8073937197e+00 -2.8882561643e-05 1.7627389560e+00 -3.0531534323e+00 1.7627389560e+00 3.0531534323e+00 
62100 5.8073937198e+00 -2.8935740926e-05 1.7627389560e+00 -3.0531534323e+00 1.7627389560e+00 3.0531534323e+00 
62200 5.8073937199e+00 -2.8986905936e-05 1.7627389560e+00 -3.0531534323e+00 1.7627389560e+00 3.0531534323e+00 
62300 5.8073937200e+00 -2.9036019152e-05 1.7627389560e+00 -3.0531534323e+00 1.7627389560e+00 3.0531534323e+00 
62400 5.8073937200e+00 -2.9083047231e-05 1.7627389560e+00 -3.0531534323e+00 1.7627389560e+00 3.0531534323e+00 
62500 5.8073937201e+00 -2.9127960912e-05 1.7627389560e+00 -3.0531534323e+00 1.7627389560e+00 3.0531534323e+00 
62600 5.8073937202e+00 -2.9170734920e-05 1.7627389560e+00 -3.0531534323e+00 1.7627389560e+00 3.0531534323e+00 
62700 5.8073937203e+00 -2.9211347867e-05 1.7627389560e+00 -3.0531534323e+00 1.7627389560e+00 3.0531534323e+00 
62800 5.8073937203e+00 -2.9249782140e-05 1.7627389560e+00 -3.0531534323e+00 1.7627389560e+00 3.0531534323e+00 
62900 5.8073937204e+00 -2.9286023812e-05 1.7627389560e+00 -3.0531534323e+00 1.7627389560e+00 3.0531534323e+00 
63000 5.8073937205e+00 -2.9320062524e-05 1.7627389560e+00 -3.0531534323e+00 1.7627389560e+00 3.0531534323e+00 
63100 5.8073937205e+00 -2.9351891391e-05 1.7627389560e+00 -3.0531534323e+00 1.7627389560e+00 3.0531534323e+00 
63200 5.8073937206e+00 -2.9381506886e-05 1.7627389560e+00 -3.0531534323e+00 1.7627389560e+00 3.0531534323e+00 
63300 5.8073937207e+00 -2.9408908737e-05 1.7627389560e+00 -3.0531534323e+00 1.7627389560e+00 3.0531534323e+00 
63400 5.8073937207e+00 -2.9434099817e-05 1.7627389560e+00 -3.0531534323e+00 1.7627389560e+00 3.0531534323e+00 
63500 5.8073937208e+00 -2.9457086037e-05 1.7627389560e+00 -3.0531534323e+00 1.7627389560e+00 3.0531534323e+00 
63600 5.8073937209e+00 -2.9477876234e-05 1.7627389560e+00 -3.0531534323e+00 1.7627389560e+00 3.0531534323e+00 
63700 5.8073937209e+00 -2.9496482065e-05 1.7627389560e+00 -3.0531534323e+00 1.7627389560e+00 3.0531534323e+00 
63800 5.8073937210e+00 -2.9512917896e-05 1.7627389560e+00 -3.0531534323e+00 1.7627389560e+00 3.0531534323e+00 
63900 5.8073937210e+00 -2.9527200695e-05 1.7627389560e+00 -3.0531534323e+00 1.7627389560e+00 3.0531534323e+00 
64000 5.8073937211e+00 -2.9539349919e-05 1.7627389560e+00 -3.0531534323e+00 1.7627389560e+00 3.0531534323e+00 
64100 5.8073937212e+00 -2.9549387411e-05 1.7627389560e+00 -3.0531534323e+00 1.7627389560e+00 3.0531534323e+00 
64200 5.8073937212e+00 -2.9557337286e-05 1.7627389560e+00 -3.0531534323e+00 1.7627389560e+00 3.0531534323e+00 
64300 5.8073937213e+00 -2.9563225829e-05 1.7627389560e+00 -3.0531534323e+00 1.7627389560e+00 3.0531534323e+00 
64400 5.8073937213e+00 -2.9567081387e-05 1.7627389560e+00 -3.0531534323e+00 1.7627389560e+00 3.0531534323e+00 
64500 5.8073937214e+00 -2.9568934263e-05 1.7627389560e+00 -3.0531534323e+00 1.7627389560e+00 3.0531534323e+00 
64600 5.8073937214e+00 -2.9568816606e-05 1.7627389560e+00 -3.0531534323e+00 1.7627389560e+00 3.0531534323e+00 
64700 5.8073937215e+00 -2.9566762320e-05 1.7627389560e+00 -3.0531534323e+00 1.7627389560e+00 3.0531534323e+00 
64800 5.8073937216e+00 -2.9562806946e-05 1.7627389560e+00 -3.0531534323e+00 1.7627389560e+00 3.0531534323e+00 
64900 5.8073937216e+00 -2.9556987574e-05 1.7627389560e+00 -3.0531534323e+00 1.7627389560e+00 3.0531534323e+00 
65000 5.8073937217e+00 -2.9549342735e-05 1.7627389560e+00 -3.0531534323e+00 1.7627389560e+00 3.0531534323e+00 
65100 5.8073937217e+00 -2.9539912307e-05 1.7627389560e+00 -3.0531534323e+00 1.7627389560e+00 3.0531534323e+00 
65200 5.8073937218e+00 -2.9528737415e-05 1.7627389560e+00 -3.0531534323e+00 1.7627389560e+00 3.0531534323e+00 
65300 5.8073937218e+00 -2.9515860334e-05 1.7627389560e+00 -3.0531534323e+00 1.7627389560e+00 3.0531534323e+00 
65400 5.8073937219e+00 -2.9501324406e-05 1.7627389560e+00 -3.0531534323e+00 1.7627389560e+00 3.0531534323e+00 
65500 5.8073937219e+00 -2.9485173929e-05 1.7627389560e+00 -3.0531534323e+00 1.7627389560e+00 3.0531534323e+00 
65600 5.8073937219e+00 -2.9467454087e-05 1.7627389560e+00 -3.0531534323e+00 1.7627389560e+00 3.0531534323e+00 
65700 5.8073937220e+00 -2.9465597552e-05 1.7627389560e+00 -3.0531534323e+00 1.7627389560e+00 3.0531534323e+00 
65700 5.8073937220e+00 -2.9465597551e-05 1.7627389560e+00 -3.0531534323e+00 1.7627389560e+00 3.0531534323e+00 
