# step Hamiltonian StressXX CellTensor1 CellTensor2 CellTensor3 CellTensor4 
0 6.6685349778e+00 -1.0246138698e-01 1.6185780433e+00 -2.8034594071e+00 1.6185780433e+00 2.8034594071e+00 
100 6.6615069484e+00 -1.0246790431e-01 1.6185780433e+00 -2.8034594071e+00 1.6185780433e+00 2.8034594071e+00 
200 6.6543096741e+00 -9.9424823212e-02 1.6217444411e+00 -2.8089437689e+00 1.6217444411e+00 2.8089437689e+00 
300 6.6473687802e+00 -9.6485491963e-02 1.6248107715e+00 -2.8142548089e+00 1.6248107715e+00 2.8142548089e+00 
400 6.6406876580e+00 -9.3647743760e-02 1.6277808042e+00 -2.8193990565e+00 1.6277808042e+00 2.8193990565e+00 
500 6.6342683634e+00 -9.0909496259e-02 1.6306581965e+00 -2.8243828461e+00 1.6306581965e+00 2.8243828461e+00 
600 6.6281117055e+00 -8.8268736489e-02 1.6334464986e+00 -2.8292123269e+00 1.6334464986e+00 2.8292123269e+00 
700 6.6222173334e+00 -8.5723507601e-02 1.6361491592e+00 -2.8338934725e+00 1.6361491592e+00 2.8338934725e+00 
800 6.6165838216e+00 -8.3271897272e-02 1.6387695299e+00 -2.8384320877e+00 1.6387695299e+00 2.8384320877e+00 
900 6.6112087554e+00 -8.0912027588e-02 1.6413108690e+00 -2.8428338161e+00 1.6413108690e+00 2.8428338161e+00 
1000 6.6060888134e+00 -7.8642046280e-02 1.6437763449e+00 -2.8471041457e+00 1.6437763449e+00 2.8471041457e+00 
1100 6.6012198491e+00 -7.6460119157e-02 1.6461690394e+00 -2.8512484141e+00 1.6461690394e+00 2.8512484141e+00 
1200 6.5965969700e+00 -7.4364423620e-02 1.6484919501e+00 -2.8552718134e+00 1.6484919501e+00 2.8552718134e+00 
1300 6.5922146149e+00 -7.2353143162e-02 1.6507479926e+00 -2.8591793936e+00 1.6507479926e+00 2.8591793936e+00 
1400 6.5880666283e+00 -7.0424462732e-02 1.6529400028e+00 -2.8629760668e+00 1.6529400028e+00 2.8629760668e+00 
1500 6.5841463324e+00 -6.8576564894e-02 1.6550707387e+00 -2.8666666095e+00 1.6550707387e+00 2.8666666095e+00 
1600 6.5804465969e+00 -6.6807626683e-02 1.6571428814e+00 -2.8702556659e+00 1.6571428814e+00 2.8702556659e+00 
1700 6.5769599049e+00 -6.5115817104e-02 1.6591590368e+00 -2.8737477496e+00 1.6591590368e+00 2.8737477496e+00 
1800 6.5736784170e+00 -6.3499295193e-02 1.6611217371e+00 -2.8771472462e+00 1.6611217371e+00 2.8771472462e+00 
1900 6.5705940312e+00 -6.1956208594e-02 1.6630334410e+00 -2.8804584145e+00 1.6630334410e+00 2.8804584145e+00 
2000 6.5676984406e+00 -6.0484692587e-02 1.6648965353e+00 -2.8836853885e+00 1.6648965353e+00 2.8836853885e+00 
2100 6.5649831872e+00 -5.9082869533e-02 1.6667133353e+00 -2.8868321783e+00 1.6667133353e+00 2.8868321783e+00 
2200 6.5624397134e+00 -5.7748848688e-02 1.6684860855e+00 -2.8899026718e+00 1.6684860855e+00 2.8899026718e+00 
2300 6.5600594089e+00 -5.6480726347e-02 1.6702169606e+00 -2.8929006355e+00 1.6702169606e+00 2.8929006355e+00 
2400 6.5578336559e+00 -5.5276586281e-02 1.6719080657e+00 -2.8958297154e+00 1.6719080657e+00 2.8958297154e+00 
2500 6.5557538701e+00 -5.4134500449e-02 1.6735614367e+00 -2.8986934379e+00 1.6735614367e+00 2.8986934379e+00 
2600 6.5538115385e+00 -5.3052529940e-02 1.6751790412e+00 -2.9014952112e+00 1.6751790412e+00 2.9014952112e+00 
2700 6.5519982548e+00 -5.2028726128e-02 1.6767627788e+00 -2.9042383251e+00 1.6767627788e+00 2.9042383251e+00 
2800 6.5503057510e+00 -5.1061132027e-02 1.6783144814e+00 -2.9069259528e+00 1.6783144814e+00 2.9069259528e+00 
2900 6.5487259263e+00 -5.0147783797e-02 1.6798359137e+00 -2.9095611509e+00 1.6798359137e+00 2.9095611509e+00 
3000 6.5472508730e+00 -4.9286712410e-02 1.6813287739e+00 -2.9121468607e+00 1.6813287739e+00 2.9121468607e+00 
3100 6.5458728996e+00 -4.8475945443e-02 1.6827946939e+00 -2.9146859085e+00 1.6827946939e+00 2.9146859085e+00 
3200 6.5445845511e+00 -4.7713508980e-02 1.6842352396e+00 -2.9171810069e+00 1.6842352396e+00 2.9171810069e+00 
3300 6.5433786268e+00 -4.6997429612e-02 1.6856519120e+00 -2.9196347555e+00 1.6856519120e+00 2.9196347555e+00 
3400 6.5422481950e+00 -4.6325736514e-02 1.6870461471e+00 -2.9220496415e+00 1.6870461471e+00 2.9220496415e+00 
3500 6.5411866061e+00 -4.5696463596e-02 1.6884193169e+00 -2.9244280413e+00 1.6884193169e+00 2.9244280413e+00 
3600 6.5401875029e+00 -4.5107651695e-02 1.6897727296e+00 -2.9267722209e+00 1.6897727296e+00 2.9267722209e+00 
3700 6.5392448284e+00 -4.4557350814e-02 1.6911076306e+00 -2.9290843372e+00 1.6911076306e+00 2.9290843372e+00 
3800 6.5383528325e+00 -4.4043622379e-02 1.6924252029e+00 -2.9313664394e+00 1.6924252029e+00 2.9313664394e+00 
3900 6.5375060755e+00 -4.3564541515e-02 1.6937265680e+00 -2.9336204698e+00 1.6937265680e+00 2.9336204698e+00 
4000 6.5366994310e+00 -4.3118199324e-02 1.6950127865e+00 -2.9358482657e+00 1.6950127865e+00 2.9358482657e+00 
4100 6.5359280862e+00 -4.2702705146e-02 1.6962848591e+00 -2.9380515601e+00 1.6962848591e+00 2.9380515601e+00 
4200 6.5351875407e+00 -4.2316188808e-02 1.6975437274e+00 -2.9402319839e+00 1.6975437274e+00 2.9402319839e+00 
4300 6.5344736047e+00 -4.1956802841e-02 1.6987902744e+00 -2.9423910667e+00 1.6987902744e+00 2.9423910667e+00 
4400 6.5337823947e+00 -4.1622724648e-02 1.7000253263e+00 -2.9445302393e+00 1.7000253263e+00 2.9445302393e+00 
4500 6.5331103289e+00 -4.1312158638e-02 1.7012496527e+00 -2.9466508348e+00 1.7012496527e+00 2.9466508348e+00 
4600 6.5324541207e+00 -4.1023338288e-02 1.7024639680e+00 -2.9487540906e+00 1.7024639680e+00 2.9487540906e+00 
4700 6.5318107723e+00 -4.0754528148e-02 1.7036689325e+00 -2.9508411503e+00 1.7036689325e+00 2.9508411503e+00 
4800 6.5311775659e+00 -4.0504025769e-02 1.7048651536e+00 -2.9529130660e+00 1.7048651536e+00 2.9529130660e+00 
4900 6.5305520558e+00 -4.0270163554e-02 1.7060531867e+00 -2.9549707998e+00 1.7060531867e+00 2.9549707998e+00 
5000 6.5299320586e+00 -4.0051310520e-02 1.7072335369e+00 -2.9570152263e+00 1.7072335369e+00 2.9570152263e+00 
5100 6.5293156432e+00 -3.9845873971e-02 1.7084066597e+00 -2.9590471346e+00 1.7084066597e+00 2.9590471346e+00 
5200 6.5287011206e+00 -3.9652301073e-02 1.7095729630e+00 -2.9610672311e+00 1.7095729630e+00 2.9610672311e+00 
5300 6.5280870328e+00 -3.9469080334e-02 1.7107328076e+00 -2.9630761410e+00 1.7107328076e+00 2.9630761410e+00 
5400 6.5274721419e+00 -3.9294742972e-02 1.7118865095e+00 -2.9650744112e+00 1.7118865095e+00 2.9650744112e+00 
5500 6.5268554184e+00 -3.9127864182e-02 1.7130343406e+00 -2.9670625130e+00 1.7130343406e+00 2.9670625130e+00 
5600 6.5262360299e+00 -3.8967064296e-02 1.7141765304e+00 -2.9690408438e+00 1.7141765304e+00 2.9690408438e+00 
5700 6.5256133294e+00 -3.8811009823e-02 1.7153132677e+00 -2.9710097306e+00 1.7153132677e+00 2.9710097306e+00 
5800 6.5249868433e+00 -3.8658414393e-02 1.7164447017e+00 -2.9729694317e+00 1.7164447017e+00 2.9729694317e+00 
5900 6.5243562601e+00 -3.8508039571e-02 1.7175709436e+00 -2.9749201399e+00 1.7175709436e+00 2.9749201399e+00 
6000 6.5237214188e+00 -3.8358695576e-02 1.7186920683e+00 -2.9768619849e+00 1.7186920683e+00 2.9768619849e+00 
6100 6.5230822971e+00 -3.8209241877e-02 1.7198081159e+00 -2.9787950361e+00 1.7198081159e+00 2.9787950361e+00 
6200 6.5224390004e+00 -3.8058587683e-02 1.7209190931e+00 -2.9807193050e+00 1.7209190931e+00 2.9807193050e+00 
6300 6.5217917506e+00 -3.7905692327e-02 1.7220249749e+00 -2.9826347484e+00 1.7220249749e+00 2.9826347484e+00 
6400 6.5211408753e+00 -3.7749565539e-02 1.7231257060e+00 -2.9845412706e+00 1.7231257060e+00 2.9845412706e+00 
6500 6.5204867971e+00 -3.7589267619e-02 1.7242212024e+00 -2.9864387261e+00 1.7242212024e+00 2.9864387261e+00 
6600 6.5198300237e+00 -3.7423909504e-02 1.7253113533e+00 -2.9883269228e+00 1.7253113533e+00 2.9883269228e+00 
6700 6.5191711374e+00 -3.7252652740e-02 1.7263960221e+00 -2.9902056243e+00 1.7263960221e+00 2.9902056243e+00 
6800 6.5185107861e+00 -3.7074709358e-02 1.7274750483e+00 -2.9920745525e+00 1.7274750483e+00 2.9920745525e+00 
6900 6.5178496739e+00 -3.6889341658e-02 1.7285482489e+00 -2.9939333905e+00 1.7285482489e+00 2.9939333905e+00 
7000 6.5171885519e+00 -3.6695861907e-02 1.7296154200e+00 -2.9957817850e+00 1.7296154200e+00 2.9957817850e+00 
7100 6.5165282104e+00 -3.6493631948e-02 1.7306763383e+00 -2.9976193493e+00 1.7306763383e+00 2.9976193493e+00 
7200 6.5158694707e+00 -3.6282062738e-02 1.7317307623e+00 -2.9994456653e+00 1.7317307623e+00 2.9994456653e+00 
7300 6.5152131771e+00 -3.6060613799e-02 1.7327784344e+00 -3.0012602866e+00 1.7327784344e+00 3.0012602866e+00 
7400 6.5145601903e+00 -3.5828792611e-02 1.7338190816e+00 -3.0030627404e+00 1.7338190816e+00 3.0030627404e+00 
7500 6.5139113801e+00 -3.5586153923e-02 1.7348524174e+00 -3.0048525306e+00 1.7348524174e+00 3.0048525306e+00 
7600 6.5132676194e+00 -3.5332299014e-02 1.7358781433e+00 -3.0066291399e+00 1.7358781433e+00 3.0066291399e+00 
7700 6.5126297783e+00 -3.5066874889e-02 1.7368959494e+00 -3.0083920318e+00 1.7368959494e+00 3.0083920318e+00 
7800 6.5119987183e+00 -3.4789573420e-02 1.7379055168e+00 -3.0101406538e+00 1.7379055168e+00 3.0101406538e+00 
7900 6.5113752874e+00 -3.4500130443e-02 1.7389065180e+00 -3.0118744388e+00 1.7389065180e+00 3.0118744388e+00 
8000 6.5107603154e+00 -3.4198324801e-02 1.7398986187e+00 -3.0135928077e+00 1.7398986187e+00 3.0135928077e+00 
8100 6.5101546093e+00 -3.3883977349e-02 1.7408814790e+00 -3.0152951715e+00 1.7408814790e+00 3.0152951715e+00 
8200 6.5095589499e+00 -3.3556949926e-02 1.7418547541e+00 -3.0169809335e+00 1.7418547541e+00 3.0169809335e+00 
8300 6.5089740878e+00 -3.3217144281e-02 1.7428180962e+00 -3.0186494910e+00 1.7428180962e+00 3.0186494910e+00 
8400 6.5084007404e+00 -3.2864500980e-02 1.7437711552e+00 -3.0203002376e+00 1.7437711552e+00 3.0203002376e+00 
8500 6.5078395891e+00 -3.2498998279e-02 1.7447135799e+00 -3.0219325650e+00 1.7447135799e+00 3.0219325650e+00 
8600 6.5072912767e+00 -3.2120650978e-02 1.7456450190e+00 -3.0235458648e+00 1.7456450190e+00 3.0235458648e+00 
8700 6.5067564054e+00 -3.1729509249e-02 1.7465651222e+00 -3.0251395303e+00 1.7465651222e+00 3.0251395303e+00 
8800 6.5062355349e+00 -3.1325657454e-02 1.7474735411e+00 -3.0267129581e+00 1.7474735411e+00 3.0267129581e+00 
8900 6.5057291807e+00 -3.0909212940e-02 1.7483699305e+00 -3.0282655500e+00 1.7483699305e+00 3.0282655500e+00 
9000 6.5052378135e+00 -3.0480324830e-02 1.7492539487e+00 -3.0297967145e+00 1.7492539487e+00 3.0297967145e+00 
9100 6.5047618573e+00 -3.0039172803e-02 1.7501252588e+00 -3.0313058679e+00 1.7501252588e+00 3.0313058679e+00 
9200 6.5043016896e+00 -2.9585965859e-02 1.7509835296e+00 -3.0327924364e+00 1.7509835296e+00 3.0327924364e+00 
9300 6.5038576403e+00 -2.9120941094e-02 1.7518284360e+00 -3.0342558572e+00 1.7518284360e+00 3.0342558572e+00 
9400 6.5034299922e+00 -2.8644362462e-02 1.7526596601e+00 -3.0356955797e+00 1.7526596601e+00 3.0356955797e+00 
9500 6.5030189802e+00 -2.8156519538e-02 1.7534768920e+00 -3.0371110669e+00 1.7534768920e+00 3.0371110669e+00 
9600 6.5026247925e+00 -2.7657726286e-02 1.7542798301e+00 -3.0385017964e+00 1.7542798301e+00 3.0385017964e+00 
9700 6.5022475701e+00 -2.7148319824e-02 1.7550681820e+00 -3.0398672620e+00 1.7550681820e+00 3.0398672620e+00 
9800 6.5018874082e+00 -2.6628659201e-02 1.7558416651e+00 -3.0412069741e+00 1.7558416651e+00 3.0412069741e+00 
9900 6.5015443566e+00 -2.6099124171e-02 1.7566000073e+00 -3.0425204612e+00 1.7566000073e+00 3.0425204612e+00 
10000 6.5012184209e+00 -2.5560113984e-02 1.7573429472e+00 -3.0438072708e+00 1.7573429472e+00 3.0438072708e+00 
10100 6.5009095634e+00 -2.5012046172e-02 1.7580702348e+00 -3.0450669699e+00 1.7580702348e+00 3.0450669699e+00 
10200 6.5006177045e+00 -2.4455355358e-02 1.7587816322e+00 -3.0462991464e+00 1.7587816322e+00 3.0462991464e+00 
10300 6.5003427239e+00 -2.3890492066e-02 1.7594769137e+00 -3.0475034092e+00 1.7594769137e+00 3.0475034092e+00 
10400 6.5000844626e+00 -2.3317921541e-02 1.7601558663e+00 -3.0486793896e+00 1.7601558663e+00 3.0486793896e+00 
10500 6.4998427237e+00 -2.2738122591e-02 1.7608182901e+00 -3.0498267413e+00 1.7608182901e+00 3.0498267413e+00 
10600 6.4996172748e+00 -2.2151586425e-02 1.7614639987e+00 -3.0509451415e+00 1.7614639987e+00 3.0509451415e+00 
10700 6.4994078495e+00 -2.1558815522e-02 1.7620928195e+00 -3.0520342911e+00 1.7620928195e+00 3.0520342911e+00 
10800 6.4992141490e+00 -2.0960322495e-02 1.7627045938e+00 -3.0530939153e+00 1.7627045938e+00 3.0530939153e+00 
10900 6.4990358442e+00 -2.0356628986e-02 1.7632991773e+00 -3.0541237640e+00 1.7632991773e+00 3.0541237640e+00 
11000 6.4988725780e+00 -1.9748264564e-02 1.7638764401e+00 -3.0551236125e+00 1.7638764401e+00 3.0551236125e+00 
11100 6.4987239663e+00 -1.9135765641e-02 1.7644362670e+00 -3.0560932611e+00 1.7644362670e+00 3.0560932611e+00 
11200 6.4985896012e+00 -1.8519674403e-02 1.7649785576e+00 -3.0570325360e+00 1.7649785576e+00 3.0570325360e+00 
11300 6.4984690521e+00 -1.7900537763e-02 1.7655032266e+00 -3.0579412894e+00 1.7655032266e+00 3.0579412894e+00 
11400 6.4983618682e+00 -1.7278906317e-02 1.7660102037e+00 -3.0588193995e+00 1.7660102037e+00 3.0588193995e+00 
11500 6.4982675802e+00 -1.6655333330e-02 1.7664994337e+00 -3.0596667708e+00 1.7664994337e+00 3.0596667708e+00 
11600 6.4981857029e+00 -1.6030373729e-02 1.7669708767e+00 -3.0604833339e+00 1.7669708767e+00 3.0604833339e+00 
11700 6.4981157367e+00 -1.5404583123e-02 1.7674245078e+00 -3.0612690460e+00 1.7674245078e+00 3.0612690460e+00 
11800 6.4980571698e+00 -1.4778516829e-02 1.7678603175e+00 -3.0620238906e+00 1.7678603175e+00 3.0620238906e+00 
11900 6.4980094803e+00 -1.4152728929e-02 1.7682783115e+00 -3.0627478774e+00 1.7682783115e+00 3.0627478774e+00 
12000 6.4979721379e+00 -1.3527771336e-02 1.7686785105e+00 -3.0634410424e+00 1.7686785105e+00 3.0634410424e+00 
12100 6.4979446060e+00 -1.2904192885e-02 1.7690609502e+00 -3.0641034474e+00 1.7690609502e+00 3.0641034474e+00 
12200 6.4979263437e+00 -1.2282538439e-02 1.7694256814e+00 -3.0647351805e+00 1.7694256814e+00 3.0647351805e+00 
12300 6.4979168075e+00 -1.1663348023e-02 1.7697727698e+00 -3.0653363551e+00 1.7697727698e+00 3.0653363551e+00 
12400 6.4979154528e+00 -1.1047155973e-02 1.7701022954e+00 -3.0659071102e+00 1.7701022954e+00 3.0659071102e+00 
12500 6.4979217362e+00 -1.0434490106e-02 1.7704143531e+00 -3.0664476100e+00 1.7704143531e+00 3.0664476100e+00 
12600 6.4979351167e+00 -9.8258709152e-03 1.7707090519e+00 -3.0669580433e+00 1.7707090519e+00 3.0669580433e+00 
12700 6.4979550576e+00 -9.2218107911e-03 1.7709865149e+00 -3.0674386234e+00 1.7709865149e+00 3.0674386234e+00 
12800 6.4979810278e+00 -8.6228132584e-03 1.7712468793e+00 -3.0678895878e+00 1.7712468793e+00 3.0678895878e+00 
12900 6.4980125034e+00 -8.0293722433e-03 1.7714902957e+00 -3.0683111973e+00 1.7714902957e+00 3.0683111973e+00 
13000 6.4980489691e+00 -7.4419713647e-03 1.7717169282e+00 -3.0687037362e+00 1.7717169282e+00 3.0687037362e+00 
13100 6.4980899194e+00 -6.8610832500e-03 1.7719269538e+00 -3.0690675113e+00 1.7719269538e+00 3.0690675113e+00 
13200 6.4981348601e+00 -6.2871688787e-03 1.7721205625e+00 -3.0694028513e+00 1.7721205625e+00 3.0694028513e+00 
13300 6.4981833090e+00 -5.7206769527e-03 1.7722979565e+00 -3.0697101069e+00 1.7722979565e+00 3.0697101069e+00 
13400 6.4982347974e+00 -5.1620432954e-03 1.7724593505e+00 -3.0699896494e+00 1.7724593505e+00 3.0699896494e+00 
13500 6.4982888709e+00 -4.6116902790e-03 1.7726049706e+00 -3.0702418708e+00 1.7726049706e+00 3.0702418708e+00 
13600 6.4983450904e+00 -4.0700262817e-03 1.7727350545e+00 -3.0704671827e+00 1.7727350545e+00 3.0704671827e+00 
13700 6.4984030328e+00 -3.5374451751e-03 1.7728498508e+00 -3.0706660158e+00 1.7728498508e+00 3.0706660158e+00 
13800 6.4984622918e+00 -3.0143258429e-03 1.7729496189e+00 -3.0708388193e+00 1.7729496189e+00 3.0708388193e+00 
13900 6.4985224786e+00 -2.5010317310e-03 1.7730346284e+00 -3.0709860600e+00 1.7730346284e+00 3.0709860600e+00 
14000 6.4985832224e+00 -1.9979104299e-03 1.7731051586e+00 -3.0711082218e+00 1.7731051586e+00 3.0711082218e+00 
14100 6.4986441710e+00 -1.5052932900e-03 1.7731614982e+00 -3.0712058049e+00 1.7731614982e+00 3.0712058049e+00 
14200 6.4987049910e+00 -1.0234950706e-03 1.7732039449e+00 -3.0712793248e+00 1.7732039449e+00 3.0712793248e+00 
14300 6.4987653684e+00 -5.5281362220e-04 1.7732328051e+00 -3.0713293120e+00 1.7732328051e+00 3.0713293120e+00 
14400 6.4988250085e+00 -9.3529603822e-05 1.7732483928e+00 -3.0713563108e+00 1.7732483928e+00 3.0713563108e+00 
14500 6.4988836365e+00 3.5409376557e-04 1.7732510301e+00 -3.0713608786e+00 1.7732510301e+00 3.0713608786e+00 
14600 6.4989409973e+00 7.8981092040e-04 1.7732410458e+00 -3.0713435853e+00 1.7732410458e+00 3.0713435853e+00 
14700 6.4989968553e+00 1.2133941267e-03 1.7732187755e+00 -3.0713050122e+00 1.7732187755e+00 3.0713050122e+00 
14800 6.4990509951e+00 1.6246336250e-03 1.7731845612e+00 -3.0712457512e+00 1.7731845612e+00 3.0712457512e+00 
14900 6.4991032204e+00 2.0233377379e-03 1.7731387502e+00 -3.0711664042e+00 1.7731387502e+00 3.0711664042e+00 
15000 6.4991533547e+00 2.4093329426e-03 1.7730816953e+00 -3.0710675822e+00 1.7730816953e+00 3.0710675822e+00 
15100 6.4992012405e+00 2.7824639076e-03 1.7730137537e+00 -3.0709499040e+00 1.7730137537e+00 3.0709499040e+00 
15200 6.4992467392e+00 3.1425934949e-03 1.7729352872e+00 -3.0708139960e+00 1.7729352872e+00 3.0708139960e+00 
15300 6.4992897304e+00 3.4896027275e-03 1.7728466611e+00 -3.0706604911e+00 1.7728466611e+00 3.0706604911e+00 
15400 6.4993301122e+00 3.8233907228e-03 1.7727482440e+00 -3.0704900276e+00 1.7727482440e+00 3.0704900276e+00 
15500 6.4993677999e+00 4.1438745915e-03 1.7726404071e+00 -3.0703032487e+00 1.7726404071e+00 3.0703032487e+00 
15600 6.4994027261e+00 4.4509893043e-03 1.7725235242e+00 -3.0701008015e+00 1.7725235242e+00 3.0701008015e+00 
15700 6.4994348398e+00 4.7446875254e-03 1.7723979705e+00 -3.0698833361e+00 1.7723979705e+00 3.0698833361e+00 
15800 6.4994641058e+00 5.0249394149e-03 1.7722641228e+00 -3.0696515051e+00 1.7722641228e+00 3.0696515051e+00 
15900 6.4994905044e+00 5.2917323991e-03 1.7721223586e+00 -3.0694059623e+00 1.7721223586e+00 3.0694059623e+00 
16000 6.4995140302e+00 5.5450709128e-03 1.7719730557e+00 -3.0691473622e+00 1.7719730557e+00 3.0691473622e+00 
16100 6.4995346918e+00 5.7849761109e-03 1.7718165920e+00 -3.0688763591e+00 1.7718165920e+00 3.0688763591e+00 
16200 6.4995525111e+00 6.0114855531e-03 1.7716533447e+00 -3.0685936064e+00 1.7716533447e+00 3.0685936064e+00 
16300 6.4995675221e+00 6.2246528622e-03 1.7714836899e+00 -3.0682997557e+00 1.7714836899e+00 3.0682997557e+00 
16400 6.4995797709e+00 6.4245473563e-03 1.7713080024e+00 -3.0679954561e+00 1.7713080024e+00 3.0679954561e+00 
16500 6.4995893141e+00 6.6112536573e-03 1.7711266551e+00 -3.0676813534e+00 1.7711266551e+00 3.0676813534e+00 
16600 6.4995962185e+00 6.7848712771e-03 1.7709400186e+00 -3.0673580895e+00 1.7709400186e+00 3.0673580895e+00 
16700 6.4996005604e+00 6.9455141820e-03 1.7707484608e+00 -3.0670263015e+00 1.7707484608e+00 3.0670263015e+00 
16800 6.4996024244e+00 7.0933103376e-03 1.7705523464e+00 -3.0666866214e+00 1.7705523464e+00 3.0666866214e+00 
16900 6.4996019029e+00 7.2284012351e-03 1.7703520367e+00 -3.0663396748e+00 1.7703520367e+00 3.0663396748e+00 
17000 6.4995990953e+00 7.3509414014e-03 1.7701478891e+00 -3.0659860808e+00 1.7701478891e+00 3.0659860808e+00 
17100 6.4995941070e+00 7.4610978934e-03 1.7699402568e+00 -3.0656264511e+00 1.7699402568e+00 3.0656264511e+00 
17200 6.4995870491e+00 7.5590497794e-03 1.7697294884e+00 -3.0652613895e+00 1.7697294884e+00 3.0652613895e+00 
17300 6.4995780370e+00 7.6449876076e-03 1.7695159275e+00 -3.0648914913e+00 1.7695159275e+00 3.0648914913e+00 
17400 6.4995671902e+00 7.7191128651e-03 1.7692999128e+00 -3.0645173427e+00 1.7692999128e+00 3.0645173427e+00 
17500 6.4995546313e+00 7.7816374273e-03 1.7690817769e+00 -3.0641395204e+00 1.7690817769e+00 3.0641395204e+00 
17600 6.4995404853e+00 7.8327830011e-03 1.7688618471e+00 -3.0637585908e+00 1.7688618471e+00 3.0637585908e+00 
17700 6.4995248791e+00 7.8727805609e-03 1.7686404443e+00 -3.0633751099e+00 1.7686404443e+00 3.0633751099e+00 
17800 6.4995079406e+00 7.9018697821e-03 1.7684178831e+00 -3.0629896225e+00 1.7684178831e+00 3.0629896225e+00 
17900 6.4994897983e+00 7.9202984712e-03 1.7681944714e+00 -3.0626026622e+00 1.7681944714e+00 3.0626026622e+00 
18000 6.4994705804e+00 7.9283219949e-03 1.7679705105e+00 -3.0622147504e+00 1.7679705105e+00 3.0622147504e+00 
18100 6.4994504146e+00 7.9262027092e-03 1.7677462942e+00 -3.0618263965e+00 1.7677462942e+00 3.0618263965e+00 
18200 6.4994294272e+00 7.9142093915e-03 1.7675221095e+00 -3.0614380971e+00 1.7675221095e+00 3.0614380971e+00 
18300 6.4994077429e+00 7.8926166745e-03 1.7672982355e+00 -3.0610503361e+00 1.7672982355e+00 3.0610503361e+00 
18400 6.4993854839e+00 7.8617044850e-03 1.7670749441e+00 -3.0606635840e+00 1.7670749441e+00 3.0606635840e+00 
18500 6.4993627700e+00 7.8217574889e-03 1.7668524991e+00 -3.0602782980e+00 1.7668524991e+00 3.0602782980e+00 
18600 6.4993397175e+00 7.7730645420e-03 1.7666311565e+00 -3.0598949214e+00 1.7666311565e+00 3.0598949214e+00 
18700 6.4993164396e+00 7.7159181501e-03 1.7664111643e+00 -3.0595138836e+00 1.7664111643e+00 3.0595138836e+00 
18800 6.4992930454e+00 7.6506139372e-03 1.7661927622e+00 -3.0591356000e+00 1.7661927622e+00 3.0591356000e+00 
18900 6.4992696399e+00 7.5774501242e-03 1.7659761817e+00 -3.0587604716e+00 1.7659761817e+00 3.0587604716e+00 
19000 6.4992463237e+00 7.4967270183e-03 1.7657616460e+00 -3.0583888850e+00 1.7657616460e+00 3.0583888850e+00 
19100 6.4992231925e+00 7.4087465148e-03 1.7655493700e+00 -3.0580212122e+00 1.7655493700e+00 3.0580212122e+00 
19200 6.4992003373e+00 7.3138116108e-03 1.7653395600e+00 -3.0576578105e+00 1.7653395600e+00 3.0576578105e+00 
19300 6.4991778438e+00 7.2122259329e-03 1.7651324138e+00 -3.0572990227e+00 1.7651324138e+00 3.0572990227e+00 
19400 6.4991557925e+00 7.1042932785e-03 1.7649281207e+00 -3.0569451767e+00 1.7649281207e+00 3.0569451767e+00 
19500 6.4991342587e+00 6.9903171721e-03 1.7647268615e+00 -3.0565965857e+00 1.7647268615e+00 3.0565965857e+00 
19600 6.4991133120e+00 6.8706004358e-03 1.7645288086e+00 -3.0562535479e+00 1.7645288086e+00 3.0562535479e+00 
19700 6.4990930166e+00 6.7454447762e-03 1.7643341257e+00 -3.0559163472e+00 1.7643341257e+00 3.0559163472e+00 
19800 6.4990734308e+00 6.6151503870e-03 1.7641429679e+00 -3.0555852522e+00 1.7641429679e+00 3.0555852522e+00 
19900 6.4990546078e+00 6.4800155672e-03 1.7639554822e+00 -3.0552605174e+00 1.7639554822e+00 3.0552605174e+00 
20000 6.4990365950e+00 6.3403363562e-03 1.7637718068e+00 -3.0549423823e+00 1.7637718068e+00 3.0549423823e+00 
20100 6.4990194341e+00 6.1964061855e-03 1.7635920718e+00 -3.0546310723e+00 1.7635920718e+00 3.0546310723e+00 
20200 6.4990031617e+00 6.0485155468e-03 1.7634163990e+00 -3.0543267980e+00 1.7634163990e+00 3.0543267980e+00 
20300 6.4989878087e+00 5.8969516769e-03 1.7632449019e+00 -3.0540297563e+00 1.7632449019e+00 3.0540297563e+00 
20400 6.4989734010e+00 5.7419982592e-03 1.7630776858e+00 -3.0537401295e+00 1.7630776858e+00 3.0537401295e+00 
20500 6.4989599592e+00 5.5839351426e-03 1.7629148481e+00 -3.0534580864e+00 1.7629148481e+00 3.0534580864e+00 
20600 6.4989474989e+00 5.4230380759e-03 1.7627564783e+00 -3.0531837817e+00 1.7627564783e+00 3.0531837817e+00 
20700 6.4989360309e+00 5.2595784595e-03 1.7626026578e+00 -3.0529173569e+00 1.7626026578e+00 3.0529173569e+00 
20800 6.4989255614e+00 5.0938231130e-03 1.7624534607e+00 -3.0526589400e+00 1.7624534607e+00 3.0526589400e+00 
20900 6.4989160920e+00 4.9260340585e-03 1.7623089533e+00 -3.0524086457e+00 1.7623089533e+00 3.0524086457e+00 
21000 6.4989076200e+00 4.7564683208e-03 1.7621691943e+00 -3.0521665761e+00 1.7621691943e+00 3.0521665761e+00 
21100 6.4989001388e+00 4.5853777415e-03 1.7620342354e+00 -3.0519328205e+00 1.7620342354e+00 3.0519328205e+00 
21200 6.4988936378e+00 4.4130088095e-03 1.7619041210e+00 -3.0517074557e+00 1.7619041210e+00 3.0517074557e+00 
21300 6.4988881027e+00 4.2396025058e-03 1.7617788884e+00 -3.0514905464e+00 1.7617788884e+00 3.0514905464e+00 
21400 6.4988835160e+00 4.0653941627e-03 1.7616585681e+00 -3.0512821456e+00 1.7616585681e+00 3.0512821456e+00 
21500 6.4988798568e+00 3.8906133372e-03 1.7615431840e+00 -3.0510822944e+00 1.7615431840e+00 3.0510822944e+00 
21600 6.4988771015e+00 3.7154836977e-03 1.7614327532e+00 -3.0508910226e+00 1.7614327532e+00 3.0508910226e+00 
21700 6.4988752235e+00 3.5402229244e-03 1.7613272866e+00 -3.0507083491e+00 1.7613272866e+00 3.0507083491e+00 
21800 6.4988741939e+00 3.3650426221e-03 1.7612267888e+00 -3.0505342819e+00 1.7612267888e+00 3.0505342819e+00 
21900 6.4988739816e+00 3.1901482452e-03 1.7611312585e+00 -3.0503688185e+00 1.7611312585e+00 3.0503688185e+00 
22000 6.4988745535e+00 3.0157390351e-03 1.7610406882e+00 -3.0502119462e+00 1.7610406882e+00 3.0502119462e+00 
22100 6.4988758748e+00 2.8420079681e-03 1.7609550652e+00 -3.0500636427e+00 1.7609550652e+00 3.0500636427e+00 
22200 6.4988779089e+00 2.6691417151e-03 1.7608743707e+00 -3.0499238758e+00 1.7608743707e+00 3.0499238758e+00 
22300 6.4988806182e+00 2.4973206114e-03 1.7607985810e+00 -3.0497926042e+00 1.7607985810e+00 3.0497926042e+00 
22400 6.4988839639e+00 2.3267186360e-03 1.7607276671e+00 -3.0496697776e+00 1.7607276671e+00 3.0496697776e+00 
22500 6.4988879064e+00 2.1575034018e-03 1.7606615948e+00 -3.0495553372e+00 1.7606615948e+00 3.0495553372e+00 
22600 6.4988924054e+00 1.9898361531e-03 1.7606003255e+00 -3.0494492156e+00 1.7606003255e+00 3.0494492156e+00 
22700 6.4988974202e+00 1.8238717730e-03 1.7605438156e+00 -3.0493513376e+00 1.7605438156e+00 3.0493513376e+00 
22800 6.4989029098e+00 1.6597587989e-03 1.7604920174e+00 -3.0492616204e+00 1.7604920174e+00 3.0492616204e+00 
22900 6.4989088331e+00 1.4976394448e-03 1.7604448785e+00 -3.0491799735e+00 1.7604448785e+00 3.0491799735e+00 
23000 6.4989151492e+00 1.3376496321e-03 1.7604023429e+00 -3.0491062996e+00 1.7604023429e+00 3.0491062996e+00 
23100 6.4989218174e+00 1.1799190264e-03 1.7603643503e+00 -3.0490404945e+00 1.7603643503e+00 3.0490404945e+00 
23200 6.4989287975e+00 1.0245710815e-03 1.7603308369e+00 -3.0489824476e+00 1.7603308369e+00 3.0489824476e+00 
23300 6.4989360500e+00 8.7172308907e-04 1.7603017353e+00 -3.0489320422e+00 1.7603017353e+00 3.0489320422e+00 
23400 6.4989435358e+00 7.2148623386e-04 1.7602769748e+00 -3.0488891557e+00 1.7602769748e+00 3.0488891557e+00 
23500 6.4989512169e+00 5.7396565499e-04 1.7602564812e+00 -3.0488536599e+00 1.7602564812e+00 3.0488536599e+00 
23600 6.4989590564e+00 4.2926051156e-04 1.7602401778e+00 -3.0488254215e+00 1.7602401778e+00 3.0488254215e+00 
23700 6.4989670181e+00 2.8746405325e-04 1.7602279846e+00 -3.0488043022e+00 1.7602279846e+00 3.0488043022e+00 
23800 6.4989750674e+00 1.4866369514e-04 1.7602198191e+00 -3.0487901591e+00 1.7602198191e+00 3.0487901591e+00 
23900 6.4989831707e+00 1.2941096633e-05 1.7602155962e+00 -3.0487828449e+00 1.7602155962e+00 3.0487828449e+00 
24000 6.4989912958e+00 -1.1923144627e-04 1.7602155962e+00 -3.0487828449e+00 1.7602155962e+00 3.0487828449e+00 
24100 6.4989994120e+00 -2.4858645620e-04 1.7602189830e+00 -3.0487887111e+00 1.7602189830e+00 3.0487887111e+00 
24200 6.4990074902e+00 -3.7465210371e-04 1.7602260443e+00 -3.0488009415e+00 1.7602260443e+00 3.0488009415e+00 
24300 6.4990155026e+00 -4.9736890736e-04 1.7602366864e+00 -3.0488193743e+00 1.7602366864e+00 3.0488193743e+00 
24400 6.4990234232e+00 -6.1668269618e-04 1.7602508144e+00 -3.0488438445e+00 1.7602508144e+00 3.0488438445e+00 
24500 6.4990312275e+00 -7.3254451260e-04 1.7602683313e+00 -3.0488741847e+00 1.7602683313e+00 3.0488741847e+00 
24600 6.4990388926e+00 -8.4491051312e-04 1.7602891391e+00 -3.0489102249e+00 1.7602891391e+00 3.0489102249e+00 
24700 6.4990463974e+00 -9.5374186707e-04 1.7603131383e+00 -3.0489517928e+00 1.7603131383e+00 3.0489517928e+00 
24800 6.4990537223e+00 -1.0590046536e-03 1.7603402285e+00 -3.0489987144e+00 1.7603402285e+00 3.0489987144e+00 
24900 6.4990608496e+00 -1.1606697569e-03 1.7603703081e+00 -3.0490508138e+00 1.7603703081e+00 3.0490508138e+00 
25000 6.4990677629e+00 -1.2587127604e-03 1.7604032749e+00 -3.0491079139e+00 1.7604032749e+00 3.0491079139e+00 
25100 6.4990744478e+00 -1.3531138393e-03 1.7604390257e+00 -3.0491698361e+00 1.7604390257e+00 3.0491698361e+00 
25200 6.4990808914e+00 -1.4438576522e-03 1.7604774570e+00 -3.0492364011e+00 1.7604774570e+00 3.0492364011e+00 
25300 6.4990870823e+00 -1.5309332320e-03 1.7605184647e+00 -3.0493074285e+00 1.7605184647e+00 3.0493074285e+00 
25400 6.4990930109e+00 -1.6143338754e-03 1.7605619445e+00 -3.0493827377e+00 1.7605619445e+00 3.0493827377e+00 
25500 6.4990986690e+00 -1.6940570326e-03 1.7606077918e+00 -3.0494621476e+00 1.7606077918e+00 3.0494621476e+00 
25600 6.4991040497e+00 -1.7701041955e-03 1.7606559020e+00 -3.0495454770e+00 1.7606559020e+00 3.0495454770e+00 
25700 6.4991091480e+00 -1.8424807863e-03 1.7607061706e+00 -3.0496325447e+00 1.7607061706e+00 3.0496325447e+00 
25800 6.4991139599e+00 -1.9111960454e-03 1.7607584931e+00 -3.0497231699e+00 1.7607584931e+00 3.0497231699e+00 
25900 6.4991184830e+00 -1.9762629187e-03 1.7608127653e+00 -3.0498171721e+00 1.7608127653e+00 3.0498171721e+00 
26000 6.4991227161e+00 -2.0376979458e-03 1.7608688835e+00 -3.0499143717e+00 1.7608688835e+00 3.0499143717e+00 
26100 6.4991266591e+00 -2.0955211471e-03 1.7609267444e+00 -3.0500145897e+00 1.7609267444e+00 3.0500145897e+00 
26200 6.4991303133e+00 -2.1497559116e-03 1.7609862453e+00 -3.0501176482e+00 1.7609862453e+00 3.0501176482e+00 
26300 6.4991336810e+00 -2.2004288846e-03 1.7610472840e+00 -3.0502233705e+00 1.7610472840e+00 3.0502233705e+00 
26400 6.4991367656e+00 -2.2475698557e-03 1.7611097594e+00 -3.0503315810e+00 1.7611097594e+00 3.0503315810e+00 
26500 6.4991395714e+00 -2.2912116467e-03 1.7611735710e+00 -3.0504421059e+00 1.7611735710e+00 3.0504421059e+00 
26600 6.4991421036e+00 -2.3313900009e-03 1.7612386192e+00 -3.0505547728e+00 1.7612386192e+00 3.0505547728e+00 
26700 6.4991443684e+00 -2.3681434712e-03 1.7613048057e+00 -3.0506694112e+00 1.7613048057e+00 3.0506694112e+00 
26800 6.4991463726e+00 -2.4015133102e-03 1.7613720331e+00 -3.0507858524e+00 1.7613720331e+00 3.0507858524e+00 
26900 6.4991481239e+00 -2.4315433601e-03 1.7614402052e+00 -3.0509039300e+00 1.7614402052e+00 3.0509039300e+00 
27000 6.4991496304e+00 -2.4582799429e-03 1.7615092271e+00 -3.0510234794e+00 1.7615092271e+00 3.0510234794e+00 
27100 6.4991509010e+00 -2.4817717521e-03 1.7615790053e+00 -3.0511443387e+00 1.7615790053e+00 3.0511443387e+00 
27200 6.4991519450e+00 -2.5020697444e-03 1.7616494474e+00 -3.0512663481e+00 1.7616494474e+00 3.0512663481e+00 
27300 6.4991527722e+00 -2.5192270323e-03 1.7617204629e+00 -3.0513893504e+00 1.7617204629e+00 3.0513893504e+00 
27400 6.4991533927e+00 -2.5332987777e-03 1.7617919624e+00 -3.0515131913e+00 1.7617919624e+00 3.0515131913e+00 
27500 6.4991538170e+00 -2.5443420861e-03 1.7618638584e+00 -3.0516377188e+00 1.7618638584e+00 3.0516377188e+00 
27600 6.4991540559e+00 -2.5524159019e-03 1.7619360649e+00 -3.0517627841e+00 1.7619360649e+00 3.0517627841e+00 
27700 6.4991541204e+00 -2.5575809042e-03 1.7620084975e+00 -3.0518882411e+00 1.7620084975e+00 3.0518882411e+00 
27800 6.4991540214e+00 -2.5598994044e-03 1.7620810737e+00 -3.0520139468e+00 1.7620810737e+00 3.0520139468e+00 
27900 6.4991537703e+00 -2.5594352435e-03 1.7621537128e+00 -3.0521397613e+00 1.7621537128e+00 3.0521397613e+00 
28000 6.4991533782e+00 -2.5562536923e-03 1.7622263356e+00 -3.0522655477e+00 1.7622263356e+00 3.0522655477e+00 
28100 6.4991528564e+00 -2.5504213506e-03 1.7622988652e+00 -3.0523911727e+00 1.7622988652e+00 3.0523911727e+00 
28200 6.4991522161e+00 -2.5420060492e-03 1.7623712264e+00 -3.0525165058e+00 1.7623712264e+00 3.0525165058e+00 
28300 6.4991514684e+00 -2.5310767524e-03 1.7624433458e+00 -3.0526414203e+00 1.7624433458e+00 3.0526414203e+00 
28400 6.4991506242e+00 -2.5177034614e-03 1.7625151522e+00 -3.0527657926e+00 1.7625151522e+00 3.0527657926e+00 
28500 6.4991496943e+00 -2.5019571197e-03 1.7625865762e+00 -3.0528895028e+00 1.7625865762e+00 3.0528895028e+00 
28600 6.4991486892e+00 -2.4839095193e-03 1.7626575507e+00 -3.0530124342e+00 1.7626575507e+00 3.0530124342e+00 
28700 6.4991476193e+00 -2.4636332084e-03 1.7627280104e+00 -3.0531344740e+00 1.7627280104e+00 3.0531344740e+00 
28800 6.4991464945e+00 -2.4412014001e-03 1.7627978921e+00 -3.0532555127e+00 1.7627978921e+00 3.0532555127e+00 
28900 6.4991453247e+00 -2.4166878832e-03 1.7628671348e+00 -3.0533754445e+00 1.7628671348e+00 3.0533754445e+00 
29000 6.4991441192e+00 -2.3901669337e-03 1.7629356795e+00 -3.0534941674e+00 1.7629356795e+00 3.0534941674e+00 
29100 6.4991428871e+00 -2.3617132285e-03 1.7630034694e+00 -3.0536115828e+00 1.7630034694e+00 3.0536115828e+00 
29200 6.4991416370e+00 -2.3314017599e-03 1.7630704496e+00 -3.0537275960e+00 1.7630704496e+00 3.0537275960e+00 
29300 6.4991403773e+00 -2.2993077520e-03 1.7631365677e+00 -3.0538421159e+00 1.7631365677e+00 3.0538421159e+00 
29400 6.4991391157e+00 -2.2655065789e-03 1.7632017731e+00 -3.0539550550e+00 1.7632017731e+00 3.0539550550e+00 
29500 6.4991378597e+00 -2.2300736839e-03 1.7632660176e+00 -3.0540663298e+00 1.7632660176e+00 3.0540663298e+00 
29600 6.4991366164e+00 -2.1930845012e-03 1.7633292550e+00 -3.0541758601e+00 1.7633292550e+00 3.0541758601e+00 
29700 6.4991353924e+00 -2.1546143780e-03 1.7633914413e+00 -3.0542835699e+00 1.7633914413e+00 3.0542835699e+00 
29800 6.4991341937e+00 -2.1147385001e-03 1.7634525345e+00 -3.0543893866e+00 1.7634525345e+00 3.0543893866e+00 
29900 6.4991330260e+00 -2.0735318171e-03 1.7635124951e+00 -3.0544932412e+00 1.7635124951e+00 3.0544932412e+00 
30000 6.4991318947e+00 -2.0310689714e-03 1.7635712852e+00 -3.0545950688e+00 1.7635712852e+00 3.0545950688e+00 
30100 6.4991308045e+00 -1.9874242276e-03 1.7636288695e+00 -3.0546948077e+00 1.7636288695e+00 3.0546948077e+00 
30200 6.4991297598e+00 -1.9426714043e-03 1.7636852145e+00 -3.0547924001e+00 1.7636852145e+00 3.0547924001e+00 
30300 6.4991287644e+00 -1.8968838079e-03 1.7637402890e+00 -3.0548877920e+00 1.7637402890e+00 3.0548877920e+00 
30400 6.4991278218e+00 -1.8501341673e-03 1.7637940638e+00 -3.0549809326e+00 1.7637940638e+00 3.0549809326e+00 
30500 6.4991269352e+00 -1.8024945721e-03 1.7638465116e+00 -3.0550717749e+00 1.7638465116e+00 3.0550717749e+00 
30600 6.4991261070e+00 -1.7540364112e-03 1.7638976074e+00 -3.0551602754e+00 1.7638976074e+00 3.0551602754e+00 
30700 6.4991253396e+00 -1.7048303143e-03 1.7639473281e+00 -3.0552463942e+00 1.7639473281e+00 3.0552463942e+00 
30800 6.4991246346e+00 -1.6549460947e-03 1.7639956526e+00 -3.0553300947e+00 1.7639956526e+00 3.0553300947e+00 
30900 6.4991239937e+00 -1.6044526949e-03 1.7640425619e+00 -3.0554113439e+00 1.7640425619e+00 3.0554113439e+00 
31000 6.4991234177e+00 -1.5534181331e-03 1.7640880386e+00 -3.0554901120e+00 1.7640880386e+00 3.0554901120e+00 
31100 6.4991229075e+00 -1.5019094527e-03 1.7641320678e+00 -3.0555663726e+00 1.7641320678e+00 3.0555663726e+00 
31200 6.4991224633e+00 -1.4499926734e-03 1.7641746359e+00 -3.0556401028e+00 1.7641746359e+00 3.0556401028e+00 
31300 6.4991220852e+00 -1.3977327444e-03 1.7642157315e+00 -3.0557112825e+00 1.7642157315e+00 3.0557112825e+00 
31400 6.4991217730e+00 -1.3451934991e-03 1.7642553451e+00 -3.0557798953e+00 1.7642553451e+00 3.0557798953e+00 
31500 6.4991215259e+00 -1.2924376132e-03 1.7642934688e+00 -3.0558459274e+00 1.7642934688e+00 3.0558459274e+00 
31600 6.4991213432e+00 -1.2395265633e-03 1.7643300965e+00 -3.0559093685e+00 1.7643300965e+00 3.0559093685e+00 
31700 6.4991212238e+00 -1.1865205886e-03 1.7643652241e+00 -3.0559702112e+00 1.7643652241e+00 3.0559702112e+00 
31800 6.4991211663e+00 -1.1334786544e-03 1.7643988487e+00 -3.0560284508e+00 1.7643988487e+00 3.0560284508e+00 
31900 6.4991211691e+00 -1.0804584175e-03 1.7644309697e+00 -3.0560840859e+00 1.7644309697e+00 3.0560840859e+00 
32000 6.4991212305e+00 -1.0275161937e-03 1.7644615875e+00 -3.0561371176e+00 1.7644615875e+00 3.0561371176e+00 
32100 6.4991213484e+00 -9.7470692775e-04 1.7644907046e+00 -3.0561875498e+00 1.7644907046e+00 3.0561875498e+00 
32200 6.4991215208e+00 -9.2208416476e-04 1.7645183247e+00 -3.0562353893e+00 1.7645183247e+00 3.0562353893e+00 
32300 6.4991217453e+00 -8.6970002414e-04 1.7645444533e+00 -3.0562806453e+00 1.7645444533e+00 3.0562806453e+00 
32400 6.4991220195e+00 -8.1760517533e-04 1.7645690971e+00 -3.0563233296e+00 1.7645690971e+00 3.0563233296e+00 
32500 6.4991223408e+00 -7.6584881572e-04 1.7645922644e+00 -3.0563634566e+00 1.7645922644e+00 3.0563634566e+00 
32600 6.4991227067e+00 -7.1447865046e-04 1.7646139649e+00 -3.0564010430e+00 1.7646139649e+00 3.0564010430e+00 
32700 6.4991231144e+00 -6.6354087436e-04 1.7646342096e+00 -3.0564361077e+00 1.7646342096e+00 3.0564361077e+00 
32800 6.4991235612e+00 -6.1308015579e-04 1.7646530107e+00 -3.0564686722e+00 1.7646530107e+00 3.0564686722e+00 
32900 6.4991240440e+00 -5.6313962247e-04 1.7646703818e+00 -3.0564987599e+00 1.7646703818e+00 3.0564987599e+00 
33000 6.4991245602e+00 -5.1376084931e-04 1.7646863378e+00 -3.0565263965e+00 1.7646863378e+00 3.0565263965e+00 
33100 6.4991251068e+00 -4.6498384814e-04 1.7647008945e+00 -3.0565516095e+00 1.7647008945e+00 3.0565516095e+00 
33200 6.4991256808e+00 -4.1684705933e-04 1.7647140691e+00 -3.0565744286e+00 1.7647140691e+00 3.0565744286e+00 
33300 6.4991262794e+00 -3.6938734532e-04 1.7647258798e+00 -3.0565948852e+00 1.7647258798e+00 3.0565948852e+00 
33400 6.4991268997e+00 -3.2263998600e-04 1.7647363456e+00 -3.0566130126e+00 1.7647363456e+00 3.0566130126e+00 
33500 6.4991275389e+00 -2.7663867591e-04 1.7647454869e+00 -3.0566288458e+00 1.7647454869e+00 3.0566288458e+00 
33600 6.4991281940e+00 -2.3141552323e-04 1.7647533249e+00 -3.0566424215e+00 1.7647533249e+00 3.0566424215e+00 
33700 6.4991288624e+00 -1.8700105057e-04 1.7647598815e+00 -3.0566537779e+00 1.7647598815e+00 3.0566537779e+00 
33800 6.4991295413e+00 -1.4342419741e-04 1.7647651797e+00 -3.0566629546e+00 1.7647651797e+00 3.0566629546e+00 
33900 6.4991302281e+00 -1.0071232433e-04 1.7647692432e+00 -3.0566699929e+00 1.7647692432e+00 3.0566699929e+00 
34000 6.4991309202e+00 -5.8891218822e-05 1.7647720966e+00 -3.0566749352e+00 1.7647720966e+00 3.0566749352e+00 
34100 6.4991316151e+00 -1.9768509622e-05 1.7647720966e+00 -3.0566749352e+00 1.7647720966e+00 3.0566749352e+00 
34200 6.4991323104e+00 1.9646640914e-05 1.7647720966e+00 -3.0566749352e+00 1.7647720966e+00 3.0566749352e+00 
34300 6.4991330039e+00 5.9310551607e-05 1.7647720966e+00 -3.0566749352e+00 1.7647720966e+00 3.0566749352e+00 
34400 6.4991336936e+00 9.9180508027e-05 1.7647720966e+00 -3.0566749352e+00 1.7647720966e+00 3.0566749352e+00 
34500 6.4991343772e+00 1.3621077762e-04 1.7647692866e+00 -3.0566700681e+00 1.7647692866e+00 3.0566700681e+00 
34600 6.4991350527e+00 1.7222827008e-04 1.7647654275e+00 -3.0566633838e+00 1.7647654275e+00 3.0566633838e+00 
34700 6.4991357183e+00 2.0721790526e-04 1.7647605478e+00 -3.0566549320e+00 1.7647605478e+00 3.0566549320e+00 
34800 6.4991363723e+00 2.4116607501e-04 1.7647546768e+00 -3.0566447632e+00 1.7647546768e+00 3.0566447632e+00 
34900 6.4991370131e+00 2.7406062440e-04 1.7647478440e+00 -3.0566329283e+00 1.7647478440e+00 3.0566329283e+00 
35000 6.4991376391e+00 3.0589083154e-04 1.7647400791e+00 -3.0566194792e+00 1.7647400791e+00 3.0566194792e+00 
35100 6.4991382490e+00 3.3664738636e-04 1.7647314124e+00 -3.0566044680e+00 1.7647314124e+00 3.0566044680e+00 
35200 6.4991388416e+00 3.6632236821e-04 1.7647218742e+00 -3.0565879474e+00 1.7647218742e+00 3.0565879474e+00 
35300 6.4991394157e+00 3.9490922239e-04 1.7647114952e+00 -3.0565699703e+00 1.7647114952e+00 3.0565699703e+00 
35400 6.4991399703e+00 4.2240273569e-04 1.7647003061e+00 -3.0565505903e+00 1.7647003061e+00 3.0565505903e+00 
35500 6.4991405045e+00 4.4879901090e-04 1.7646883380e+00 -3.0565298610e+00 1.7646883380e+00 3.0565298610e+00 
35600 6.4991410176e+00 4.7409544049e-04 1.7646756219e+00 -3.0565078361e+00 1.7646756219e+00 3.0565078361e+00 
35700 6.4991415089e+00 4.9829067935e-04 1.7646621890e+00 -3.0564845696e+00 1.7646621890e+00 3.0564845696e+00 
35800 6.4991419778e+00 5.2138461675e-04 1.7646480705e+00 -3.0564601155e+00 1.7646480705e+00 3.0564601155e+00 
35900 6.4991424240e+00 5.4337834750e-04 1.7646332974e+00 -3.0564345279e+00 1.7646332974e+00 3.0564345279e+00 
36000 6.4991428471e+00 5.6427414245e-04 1.7646179011e+00 -3.0564078607e+00 1.7646179011e+00 3.0564078607e+00 
36100 6.4991432469e+00 5.8407541828e-04 1.7646019126e+00 -3.0563801677e+00 1.7646019126e+00 3.0563801677e+00 
36200 6.4991436233e+00 6.0278670670e-04 1.7645853628e+00 -3.0563515027e+00 1.7645853628e+00 3.0563515027e+00 
36300 6.4991439762e+00 6.2041362309e-04 1.7645682827e+00 -3.0563219191e+00 1.7645682827e+00 3.0563219191e+00 
36400 6.4991443058e+00 6.3696283462e-04 1.7645507030e+00 -3.0562914701e+00 1.7645507030e+00 3.0562914701e+00 
36500 6.4991446121e+00 6.5244202795e-04 1.7645326541e+00 -3.0562602086e+00 1.7645326541e+00 3.0562602086e+00 
36600 6.4991448954e+00 6.6685987640e-04 1.7645141665e+00 -3.0562281871e+00 1.7645141665e+00 3.0562281871e+00 
36700 6.4991451560e+00 6.8022600695e-04 1.7644952701e+00 -3.0561954576e+00 1.7644952701e+00 3.0561954576e+00 
36800 6.4991453944e+00 6.9255096677e-04 1.7644759948e+00 -3.0561620717e+00 1.7644759948e+00 3.0561620717e+00 
36900 6.4991456109e+00 7.0384618953e-04 1.7644563700e+00 -3.0561280806e+00 1.7644563700e+00 3.0561280806e+00 
37000 6.4991458061e+00 7.1412396150e-04 1.7644364249e+00 -3.0560935347e+00 1.7644364249e+00 3.0560935347e+00 
37100 6.4991459805e+00 7.2339738752e-04 1.7644161883e+00 -3.0560584839e+00 1.7644161883e+00 3.0560584839e+00 
37200 6.4991461348e+00 7.3168035674e-04 1.7643956888e+00 -3.0560229776e+00 1.7643956888e+00 3.0560229776e+00 
37300 6.4991462697e+00 7.3898750839e-04 1.7643749542e+00 -3.0559870643e+00 1.7643749542e+00 3.0559870643e+00 
37400 6.4991463858e+00 7.4533419740e-04 1.7643540123e+00 -3.0559507919e+00 1.7643540123e+00 3.0559507919e+00 
37500 6.4991464840e+00 7.5073646015e-04 1.7643328904e+00 -3.0559142076e+00 1.7643328904e+00 3.0559142076e+00 
37600 6.4991465650e+00 7.5521098018e-04 1.7643116150e+00 -3.0558773576e+00 1.7643116150e+00 3.0558773576e+00 
37700 6.4991466296e+00 7.5877505398e-04 1.7642902127e+00 -3.0558402876e+00 1.7642902127e+00 3.0558402876e+00 
37800 6.4991466787e+00 7.6144655695e-04 1.7642687090e+00 -3.0558030422e+00 1.7642687090e+00 3.0558030422e+00 
37900 6.4991467131e+00 7.6324390952e-04 1.7642471294e+00 -3.0557656652e+00 1.7642471294e+00 3.0557656652e+00 
38000 6.4991467337e+00 7.6418604344e-04 1.7642254986e+00 -3.0557281995e+00 1.7642254986e+00 3.0557281995e+00 
38100 6.4991467414e+00 7.6429236832e-04 1.7642038408e+00 -3.0556906871e+00 1.7642038408e+00 3.0556906871e+00 
38200 6.4991467371e+00 7.6358273849e-04 1.7641821797e+00 -3.0556531691e+00 1.7641821797e+00 3.0556531691e+00 
38300 6.4991467217e+00 7.6207742006e-04 1.7641605385e+00 -3.0556156854e+00 1.7641605385e+00 3.0556156854e+00 
38400 6.4991466960e+00 7.5979705842e-04 1.7641389397e+00 -3.0555782751e+00 1.7641389397e+00 3.0555782751e+00 
38500 6.4991466610e+00 7.5676264606e-04 1.7641174052e+00 -3.0555409763e+00 1.7641174052e+00 3.0555409763e+00 
38600 6.4991466175e+00 7.5299549079e-04 1.7640959565e+00 -3.0555038261e+00 1.7640959565e+00 3.0555038261e+00 
38700 6.4991465664e+00 7.4851718441e-04 1.7640746143e+00 -3.0554668603e+00 1.7640746143e+00 3.0554668603e+00 
38800 6.4991465085e+00 7.4334957179e-04 1.7640533988e+00 -3.0554301139e+00 1.7640533988e+00 3.0554301139e+00 
38900 6.4991464448e+00 7.3751472047e-04 1.7640323294e+00 -3.0553936208e+00 1.7640323294e+00 3.0553936208e+00 
39000 6.4991463759e+00 7.3103489077e-04 1.7640114252e+00 -3.0553574137e+00 1.7640114252e+00 3.0553574137e+00 
39100 6.4991463027e+00 7.2393250635e-04 1.7639907045e+00 -3.0553215242e+00 1.7639907045e+00 3.0553215242e+00 
39200 6.4991462259e+00 7.1623012543e-04 1.7639701848e+00 -3.0552859831e+00 1.7639701848e+00 3.0552859831e+00 
39300 6.4991461464e+00 7.0795041250e-04 1.7639498832e+00 -3.0552508197e+00 1.7639498832e+00 3.0552508197e+00 
39400 6.4991460647e+00 6.9911611064e-04 1.7639298160e+00 -3.0552160623e+00 1.7639298160e+00 3.0552160623e+00 
39500 6.4991459816e+00 6.8975001445e-04 1.7639099990e+00 -3.0551817383e+00 1.7639099990e+00 3.0551817383e+00 
39600 6.4991458978e+00 6.7987494358e-04 1.7638904474e+00 -3.0551478738e+00 1.7638904474e+00 3.0551478738e+00 
39700 6.4991458138e+00 6.6951371697e-04 1.7638711754e+00 -3.0551144937e+00 1.7638711754e+00 3.0551144937e+00 
39800 6.4991457303e+00 6.5868912763e-04 1.7638521969e+00 -3.0550816220e+00 1.7638521969e+00 3.0550816220e+00 
39900 6.4991456477e+00 6.4742391817e-04 1.7638335250e+00 -3.0550492814e+00 1.7638335250e+00 3.0550492814e+00 
40000 6.4991455667e+00 6.3574075698e-04 1.7638151723e+00 -3.0550174936e+00 1.7638151723e+00 3.0550174936e+00 
40100 6.4991454877e+00 6.2366221511e-04 1.7637971506e+00 -3.0549862790e+00 1.7637971506e+00 3.0549862790e+00 
40200 6.4991454111e+00 6.1121074381e-04 1.7637794711e+00 -3.0549556572e+00 1.7637794711e+00 3.0549556572e+00 
40300 6.4991453373e+00 5.9840865278e-04 1.7637621444e+00 -3.0549256465e+00 1.7637621444e+00 3.0549256465e+00 
40400 6.4991452668e+00 5.8527808921e-04 1.7637451804e+00 -3.0548962641e+00 1.7637451804e+00 3.0548962641e+00 
40500 6.4991451999e+00 5.7184101742e-04 1.7637285885e+00 -3.0548675261e+00 1.7637285885e+00 3.0548675261e+00 
40600 6.4991451368e+00 5.5811919930e-04 1.7637123774e+00 -3.0548394476e+00 1.7637123774e+00 3.0548394476e+00 
40700 6.4991450779e+00 5.4413417543e-04 1.7636965551e+00 -3.0548120426e+00 1.7636965551e+00 3.0548120426e+00 
40800 6.4991450233e+00 5.2990724697e-04 1.7636811292e+00 -3.0547853241e+00 1.7636811292e+00 3.0547853241e+00 
40900 6.4991449733e+00 5.1545945828e-04 1.7636661065e+00 -3.0547593040e+00 1.7636661065e+00 3.0547593040e+00 
41000 6.4991449281e+00 5.0081158020e-04 1.7636514932e+00 -3.0547339930e+00 1.7636514932e+00 3.0547339930e+00 
41100 6.4991448878e+00 4.8598409413e-04 1.7636372951e+00 -3.0547094012e+00 1.7636372951e+00 3.0547094012e+00 
41200 6.4991448525e+00 4.7099717685e-04 1.7636235172e+00 -3.0546855372e+00 1.7636235172e+00 3.0546855372e+00 
41300 6.4991448222e+00 4.5587068598e-04 1.7636101641e+00 -3.0546624089e+00 1.7636101641e+00 3.0546624089e+00 
41400 6.4991447971e+00 4.4062414629e-04 1.7635972397e+00 -3.0546400233e+00 1.7635972397e+00 3.0546400233e+00 
41500 6.4991447772e+00 4.2527673660e-04 1.7635847476e+00 -3.0546183862e+00 1.7635847476e+00 3.0546183862e+00 
41600 6.4991447624e+00 4.0984727750e-04 1.7635726904e+00 -3.0545975026e+00 1.7635726904e+00 3.0545975026e+00 
41700 6.4991447528e+00 3.9435421970e-04 1.7635610706e+00 -3.0545773766e+00 1.7635610706e+00 3.0545773766e+00 
41800 6.4991447482e+00 3.7881563320e-04 1.7635498900e+00 -3.0545580112e+00 1.7635498900e+00 3.0545580112e+00 
41900 6.4991447487e+00 3.6324919698e-04 1.7635391499e+00 -3.0545394087e+00 1.7635391499e+00 3.0545394087e+00 
42000 6.4991447540e+00 3.4767218959e-04 1.7635288510e+00 -3.0545215706e+00 1.7635288510e+00 3.0545215706e+00 
42100 6.4991447642e+00 3.3210148026e-04 1.7635189937e+00 -3.0545044973e+00 1.7635189937e+00 3.0545044973e+00 
42200 6.4991447791e+00 3.1655352075e-04 1.7635095779e+00 -3.0544881885e+00 1.7635095779e+00 3.0544881885e+00 
42300 6.4991447985e+00 3.0104433789e-04 1.7635006028e+00 -3.0544726432e+00 1.7635006028e+00 3.0544726432e+00 
42400 6.4991448223e+00 2.8558952674e-04 1.7634920674e+00 -3.0544578594e+00 1.7634920674e+00 3.0544578594e+00 
42500 6.4991448502e+00 2.7020424440e-04 1.7634839701e+00 -3.0544438345e+00 1.7634839701e+00 3.0544438345e+00 
42600 6.4991448823e+00 2.5490320447e-04 1.7634763090e+00 -3.0544305652e+00 1.7634763090e+00 3.0544305652e+00 
42700 6.4991449181e+00 2.3970067215e-04 1.7634690817e+00 -3.0544180471e+00 1.7634690817e+00 3.0544180471e+00 
42800 6.4991449576e+00 2.2461045988e-04 1.7634622854e+00 -3.0544062756e+00 1.7634622854e+00 3.0544062756e+00 
42900 6.4991450005e+00 2.0964592373e-04 1.7634559170e+00 -3.0543952451e+00 1.7634559170e+00 3.0543952451e+00 
43000 6.4991450466e+00 1.9481996020e-04 1.7634499728e+00 -3.0543849495e+00 1.7634499728e+00 3.0543849495e+00 
43100 6.4991450956e+00 1.8014500376e-04 1.7634444490e+00 -3.0543753820e+00 1.7634444490e+00 3.0543753820e+00 
43200 6.4991451475e+00 1.6563302484e-04 1.7634393412e+00 -3.0543665351e+00 1.7634393412e+00 3.0543665351e+00 
43300 6.4991452018e+00 1.5129552843e-04 1.7634346449e+00 -3.0543584009e+00 1.7634346449e+00 3.0543584009e+00 
43400 6.4991452584e+00 1.3714355323e-04 1.7634303551e+00 -3.0543509707e+00 1.7634303551e+00 3.0543509707e+00 
43500 6.4991453171e+00 1.2318767128e-04 1.7634264666e+00 -3.0543442356e+00 1.7634264666e+00 3.0543442356e+00 
43600 6.4991453776e+00 1.0943798814e-04 1.7634229737e+00 -3.0543381858e+00 1.7634229737e+00 3.0543381858e+00 
43700 6.4991454398e+00 9.5904143568e-05 1.7634198708e+00 -3.0543328112e+00 1.7634198708e+00 3.0543328112e+00 
43800 6.4991455032e+00 8.2595312647e-05 1.7634171515e+00 -3.0543281013e+00 1.7634171515e+00 3.0543281013e+00 
43900 6.4991455679e+00 6.9520207436e-05 1.7634148096e+00 -3.0543240450e+00 1.7634148096e+00 3.0543240450e+00 
44000 6.4991456335e+00 5.8799865864e-05 1.7634148096e+00 -3.0543240450e+00 1.7634148096e+00 3.0543240450e+00 
44100 6.4991456998e+00 4.7949450099e-05 1.7634148096e+00 -3.0543240450e+00 1.7634148096e+00 3.0543240450e+00 
44200 6.4991457666e+00 3.6982324069e-05 1.7634148096e+00 -3.0543240450e+00 1.7634148096e+00 3.0543240450e+00 
44300 6.4991458335e+00 2.5911579838e-05 1.7634148096e+00 -3.0543240450e+00 1.7634148096e+00 3.0543240450e+00 
44400 6.4991459006e+00 1.4750034576e-05 1.7634148096e+00 -3.0543240450e+00 1.7634148096e+00 3.0543240450e+00 
44500 6.4991459675e+00 3.5102278016e-06 1.7634148096e+00 -3.0543240450e+00 1.7634148096e+00 3.0543240450e+00 
44600 6.4991460342e+00 -7.7955811309e-06 1.7634148096e+00 -3.0543240450e+00 1.7634148096e+00 3.0543240450e+00 
44700 6.4991461004e+00 -1.9155415280e-05 1.7634148096e+00 -3.0543240450e+00 1.7634148096e+00 3.0543240450e+00 
44800 6.4991461661e+00 -3.0557582124e-05 1.7634148096e+00 -3.0543240450e+00 1.7634148096e+00 3.0543240450e+00 
44900 6.4991462311e+00 -4.1990675313e-05 1.7634148096e+00 -3.0543240450e+00 1.7634148096e+00 3.0543240450e+00 
45000 6.4991462952e+00 -5.3443576181e-05 1.7634148096e+00 -3.0543240450e+00 1.7634148096e+00 3.0543240450e+00 
45100 6.4991463584e+00 -6.4905455028e-05 1.7634148096e+00 -3.0543240450e+00 1.7634148096e+00 3.0543240450e+00 
45200 6.4991464205e+00 -7.6365772147e-05 1.7634148096e+00 -3.0543240450e+00 1.7634148096e+00 3.0543240450e+00 
45300 6.4991464812e+00 -8.5493842030e-05 1.7634169749e+00 -3.0543277954e+00 1.7634169749e+00 3.0543277954e+00 
45400 6.4991465405e+00 -9.4311632658e-05 1.7634193990e+00 -3.0543319940e+00 1.7634193990e+00 3.0543319940e+00 
45500 6.4991465983e+00 -1.0281723853e-04 1.7634220731e+00 -3.0543366257e+00 1.7634220731e+00 3.0543366257e+00 
45600 6.4991466545e+00 -1.1100913335e-04 1.7634249883e+00 -3.0543416751e+00 1.7634249883e+00 3.0543416751e+00 
45700 6.4991467091e+00 -1.1888616234e-04 1.7634281359e+00 -3.0543471269e+00 1.7634281359e+00 3.0543471269e+00 
45800 6.4991467620e+00 -1.2644753431e-04 1.7634315068e+00 -3.0543529654e+00 1.7634315068e+00 3.0543529654e+00 
45900 6.4991468130e+00 -1.3369281358e-04 1.7634350920e+00 -3.0543591753e+00 1.7634350920e+00 3.0543591753e+00 
46000 6.4991468623e+00 -1.4062191167e-04 1.7634388827e+00 -3.0543657409e+00 1.7634388827e+00 3.0543657409e+00 
46100 6.4991469096e+00 -1.4723507892e-04 1.7634428699e+00 -3.0543726469e+00 1.7634428699e+00 3.0543726469e+00 
46200 6.4991469551e+00 -1.5353289587e-04 1.7634470445e+00 -3.0543798776e+00 1.7634470445e+00 3.0543798776e+00 
46300 6.4991469986e+00 -1.5951626455e-04 1.7634513977e+00 -3.0543874176e+00 1.7634513977e+00 3.0543874176e+00 
46400 6.4991470401e+00 -1.6518639969e-04 1.7634559206e+00 -3.0543952514e+00 1.7634559206e+00 3.0543952514e+00 
46500 6.4991470797e+00 -1.7054481969e-04 1.7634606042e+00 -3.0544033636e+00 1.7634606042e+00 3.0544033636e+00 
46600 6.4991471174e+00 -1.7559333766e-04 1.7634654397e+00 -3.0544117390e+00 1.7634654397e+00 3.0544117390e+00 
46700 6.4991471530e+00 -1.8033405225e-04 1.7634704184e+00 -3.0544203622e+00 1.7634704184e+00 3.0544203622e+00 
46800 6.4991471868e+00 -1.8476933841e-04 1.7634755314e+00 -3.0544292183e+00 1.7634755314e+00 3.0544292183e+00 
46900 6.4991472186e+00 -1.8890183820e-04 1.7634807702e+00 -3.0544382921e+00 1.7634807702e+00 3.0544382921e+00 
47000 6.4991472485e+00 -1.9273445141e-04 1.7634861261e+00 -3.0544475689e+00 1.7634861261e+00 3.0544475689e+00 
47100 6.4991472765e+00 -1.9627032620e-04 1.7634915907e+00 -3.0544570338e+00 1.7634915907e+00 3.0544570338e+00 
47200 6.4991473027e+00 -1.9951284973e-04 1.7634971555e+00 -3.0544666724e+00 1.7634971555e+00 3.0544666724e+00 
47300 6.4991473271e+00 -2.0246563873e-04 1.7635028123e+00 -3.0544764702e+00 1.7635028123e+00 3.0544764702e+00 
47400 6.4991473498e+00 -2.0513253008e-04 1.7635085527e+00 -3.0544864129e+00 1.7635085527e+00 3.0544864129e+00 
47500 6.4991473707e+00 -2.0751757141e-04 1.7635143688e+00 -3.0544964866e+00 1.7635143688e+00 3.0544964866e+00 
47600 6.4991473901e+00 -2.0962501162e-04 1.7635202524e+00 -3.0545066773e+00 1.7635202524e+00 3.0545066773e+00 
47700 6.4991474078e+00 -2.1145929156e-04 1.7635261958e+00 -3.0545169716e+00 1.7635261958e+00 3.0545169716e+00 
47800 6.4991474240e+00 -2.1302503460e-04 1.7635321911e+00 -3.0545273558e+00 1.7635321911e+00 3.0545273558e+00 
47900 6.4991474388e+00 -2.1432703736e-04 1.7635382309e+00 -3.0545378169e+00 1.7635382309e+00 3.0545378169e+00 
48000 6.4991474522e+00 -2.1537026037e-04 1.7635443075e+00 -3.0545483420e+00 1.7635443075e+00 3.0545483420e+00 
48100 6.4991474642e+00 -2.1615981887e-04 1.7635504137e+00 -3.0545589182e+00 1.7635504137e+00 3.0545589182e+00 
48200 6.4991474750e+00 -2.1670097364e-04 1.7635565422e+00 -3.0545695331e+00 1.7635565422e+00 3.0545695331e+00 
48300 6.4991474845e+00 -2.1699912189e-04 1.7635626861e+00 -3.0545801746e+00 1.7635626861e+00 3.0545801746e+00 
48400 6.4991474930e+00 -2.1705978826e-04 1.7635688384e+00 -3.0545908307e+00 1.7635688384e+00 3.0545908307e+00 
48500 6.4991475004e+00 -2.1688861586e-04 1.7635749924e+00 -3.0546014897e+00 1.7635749924e+00 3.0546014897e+00 
48600 6.4991475068e+00 -2.1649135745e-04 1.7635811415e+00 -3.0546121403e+00 1.7635811415e+00 3.0546121403e+00 
48700 6.4991475123e+00 -2.1587386670e-04 1.7635872793e+00 -3.0546227714e+00 1.7635872793e+00 3.0546227714e+00 
48800 6.4991475170e+00 -2.1504208953e-04 1.7635933996e+00 -3.0546333721e+00 1.7635933996e+00 3.0546333721e+00 
48900 6.4991475209e+00 -2.1400205561e-04 1.7635994963e+00 -3.0546439319e+00 1.7635994963e+00 3.0546439319e+00 
49000 6.4991475241e+00 -2.1275986993e-04 1.7636055635e+00 -3.0546544406e+00 1.7636055635e+00 3.0546544406e+00 
49100 6.4991475267e+00 -2.1132170456e-04 1.7636115955e+00 -3.0546648882e+00 1.7636115955e+00 3.0546648882e+00 
49200 6.4991475287e+00 -2.0969379044e-04 1.7636175867e+00 -3.0546752652e+00 1.7636175867e+00 3.0546752652e+00 
49300 6.4991475302e+00 -2.0788240941e-04 1.7636235317e+00 -3.0546855623e+00 1.7636235317e+00 3.0546855623e+00 
49400 6.4991475313e+00 -2.0589388632e-04 1.7636294253e+00 -3.0546957703e+00 1.7636294253e+00 3.0546957703e+00 
49500 6.4991475320e+00 -2.0373458130e-04 1.7636352625e+00 -3.0547058807e+00 1.7636352625e+00 3.0547058807e+00 
49600 6.4991475324e+00 -2.0141088215e-04 1.7636410385e+00 -3.0547158850e+00 1.7636410385e+00 3.0547158850e+00 
49700 6.4991475325e+00 -1.9892919696e-04 1.7636467486e+00 -3.0547257752e+00 1.7636467486e+00 3.0547257752e+00 
49800 6.4991475324e+00 -1.9629594679e-04 1.7636523883e+00 -3.0547355434e+00 1.7636523883e+00 3.0547355434e+00 
49900 6.4991475321e+00 -1.9351755861e-04 1.7636579533e+00 -3.0547451824e+00 1.7636579533e+00 3.0547451824e+00 
50000 6.4991475318e+00 -1.9060045829e-04 1.7636634396e+00 -3.0547546848e+00 1.7636634396e+00 3.0547546848e+00 
50100 6.4991475314e+00 -1.8755106390e-04 1.7636688431e+00 -3.0547640440e+00 1.7636688431e+00 3.0547640440e+00 
50200 6.4991475310e+00 -1.8437577903e-04 1.7636741602e+00 -3.0547732535e+00 1.7636741602e+00 3.0547732535e+00 
50300 6.4991475306e+00 -1.8108098641e-04 1.7636793873e+00 -3.0547823070e+00 1.7636793873e+00 3.0547823070e+00 
50400 6.4991475302e+00 -1.7767304163e-04 1.7636845209e+00 -3.0547911987e+00 1.7636845209e+00 3.0547911987e+00 
50500 6.4991475300e+00 -1.7415826707e-04 1.7636895579e+00 -3.0547999230e+00 1.7636895579e+00 3.0547999230e+00 
50600 6.4991475299e+00 -1.7054294602e-04 1.7636944952e+00 -3.0548084747e+00 1.7636944952e+00 3.0548084747e+00 
50700 6.4991475300e+00 -1.6683331691e-04 1.7636993300e+00 -3.0548168489e+00 1.7636993300e+00 3.0548168489e+00 
50800 6.4991475302e+00 -1.6303556786e-04 1.7637040597e+00 -3.0548250408e+00 1.7637040597e+00 3.0548250408e+00 
50900 6.4991475307e+00 -1.5915583129e-04 1.7637086816e+00 -3.0548330463e+00 1.7637086816e+00 3.0548330463e+00 
51000 6.4991475315e+00 -1.5520017875e-04 1.7637131936e+00 -3.0548408613e+00 1.7637131936e+00 3.0548408613e+00 
51100 6.4991475324e+00 -1.5117461599e-04 1.7637175934e+00 -3.0548484820e+00 1.7637175934e+00 3.0548484820e+00 
51200 6.4991475337e+00 -1.4708507816e-04 1.7637218791e+00 -3.0548559050e+00 1.7637218791e+00 3.0548559050e+00 
51300 6.4991475353e+00 -1.4293742521e-04 1.7637260488e+00 -3.0548631272e+00 1.7637260488e+00 3.0548631272e+00 
51400 6.4991475371e+00 -1.3873743752e-04 1.7637301010e+00 -3.0548701457e+00 1.7637301010e+00 3.0548701457e+00 
51500 6.4991475393e+00 -1.3449081165e-04 1.7637340340e+00 -3.0548769580e+00 1.7637340340e+00 3.0548769580e+00 
51600 6.4991475418e+00 -1.3020315634e-04 1.7637378467e+00 -3.0548835617e+00 1.7637378467e+00 3.0548835617e+00 
51700 6.4991475446e+00 -1.2587998865e-04 1.7637415378e+00 -3.0548899549e+00 1.7637415378e+00 3.0548899549e+00 
51800 6.4991475478e+00 -1.2152673037e-04 1.7637451064e+00 -3.0548961359e+00 1.7637451064e+00 3.0548961359e+00 
51900 6.4991475512e+00 -1.1714870451e-04 1.7637485515e+00 -3.0549021030e+00 1.7637485515e+00 3.0549021030e+00 
52000 6.4991475551e+00 -1.1275113203e-04 1.7637518725e+00 -3.0549078552e+00 1.7637518725e+00 3.0549078552e+00 
52100 6.4991475592e+00 -1.0833912881e-04 1.7637550689e+00 -3.0549133914e+00 1.7637550689e+00 3.0549133914e+00 
52200 6.4991475637e+00 -1.0391770269e-04 1.7637581401e+00 -3.0549187110e+00 1.7637581401e+00 3.0549187110e+00 
52300 6.4991475684e+00 -9.9491750797e-05 1.7637610861e+00 -3.0549238135e+00 1.7637610861e+00 3.0549238135e+00 
52400 6.4991475735e+00 -9.5066056981e-05 1.7637639065e+00 -3.0549286986e+00 1.7637639065e+00 3.0549286986e+00 
52500 6.4991475789e+00 -9.0645289491e-05 1.7637666015e+00 -3.0549333665e+00 1.7637666015e+00 3.0549333665e+00 
52600 6.4991475846e+00 -8.6233998793e-05 1.7637691711e+00 -3.0549378172e+00 1.7637691711e+00 3.0549378172e+00 
52700 6.4991475905e+00 -8.1836615564e-05 1.7637716157e+00 -3.0549420514e+00 1.7637716157e+00 3.0549420514e+00 
52800 6.4991475967e+00 -7.7457448882e-05 1.7637739357e+00 -3.0549460696e+00 1.7637739357e+00 3.0549460696e+00 
52900 6.4991476032e+00 -7.3100684583e-05 1.7637761314e+00 -3.0549498728e+00 1.7637761314e+00 3.0549498728e+00 
53000 6.4991476099e+00 -6.8770383764e-05 1.7637782037e+00 -3.0549534621e+00 1.7637782037e+00 3.0549534621e+00 
53100 6.4991476170e+00 -6.6558053724e-05 1.7637782037e+00 -3.0549534621e+00 1.7637782037e+00 3.0549534621e+00 
53200 6.4991476242e+00 -6.4259505425e-05 1.7637782037e+00 -3.0549534621e+00 1.7637782037e+00 3.0549534621e+00 
53300 6.4991476317e+00 -6.1879132144e-05 1.7637782037e+00 -3.0549534621e+00 1.7637782037e+00 3.0549534621e+00 
53400 6.4991476392e+00 -5.9421273148e-05 1.7637782037e+00 -3.0549534621e+00 1.7637782037e+00 3.0549534621e+00 
53500 6.4991476469e+00 -5.6890211843e-05 1.7637782037e+00 -3.0549534621e+00 1.7637782037e+00 3.0549534621e+00 
53600 6.4991476547e+00 -5.4290174010e-05 1.7637782037e+00 -3.0549534621e+00 1.7637782037e+00 3.0549534621e+00 
53700 6.4991476626e+00 -5.1625326096e-05 1.7637782037e+00 -3.0549534621e+00 1.7637782037e+00 3.0549534621e+00 
53800 6.4991476706e+00 -4.8899773602e-05 1.7637782037e+00 -3.0549534621e+00 1.7637782037e+00 3.0549534621e+00 
53900 6.4991476787e+00 -4.6117559539e-05 1.7637782037e+00 -3.0549534621e+00 1.7637782037e+00 3.0549534621e+00 
54000 6.4991476869e+00 -4.3282662954e-05 1.7637782037e+00 -3.0549534621e+00 1.7637782037e+00 3.0549534621e+00 
54100 6.4991476950e+00 -4.0398997537e-05 1.7637782037e+00 -3.0549534621e+00 1.7637782037e+00 3.0549534621e+00 
54200 6.4991477032e+00 -3.7470410300e-05 1.7637782037e+00 -3.0549534621e+00 1.7637782037e+00 3.0549534621e+00 
54300 6.4991477114e+00 -3.4500680332e-05 1.7637782037e+00 -3.0549534621e+00 1.7637782037e+00 3.0549534621e+00 
54400 6.4991477196e+00 -3.1493517629e-05 1.7637782037e+00 -3.0549534621e+00 1.7637782037e+00 3.0549534621e+00 
54500 6.4991477278e+00 -2.8452561991e-05 1.7637782037e+00 -3.0549534621e+00 1.7637782037e+00 3.0549534621e+00 
54600 6.4991477360e+00 -2.5381381998e-05 1.7637782037e+00 -3.0549534621e+00 1.7637782037e+00 3.0549534621e+00 
54700 6.4991477441e+00 -2.2283474058e-05 1.7637782037e+00 -3.0549534621e+00 1.7637782037e+00 3.0549534621e+00 
54800 6.4991477522e+00 -1.9162261526e-05 1.7637782037e+00 -3.0549534621e+00 1.7637782037e+00 3.0549534621e+00 
54900 6.4991477602e+00 -1.6021093895e-05 1.7637782037e+00 -3.0549534621e+00 1.7637782037e+00 3.0549534621e+00 
55000 6.4991477682e+00 -1.2863246046e-05 1.7637782037e+00 -3.0549534621e+00 1.7637782037e+00 3.0549534621e+00 
55100 6.4991477760e+00 -9.6919175986e-06 1.7637782037e+00 -3.0549534621e+00 1.7637782037e+00 3.0549534621e+00 
55200 6.4991477838e+00 -6.5102322883e-06 1.7637782037e+00 -3.0549534621e+00 1.7637782037e+00 3.0549534621e+00 
55300 6.4991477914e+00 -3.3212374495e-06 1.7637782037e+00 -3.0549534621e+00 1.7637782037e+00 3.0549534621e+00 
55400 6.4991477989e+00 -1.2790353840e-07 1.7637782037e+00 -3.0549534621e+00 1.7637782037e+00 3.0549534621e+00 
55500 6.4991478064e+00 3.0668762510e-06 1.7637782037e+00 -3.0549534621e+00 1.7637782037e+00 3.0549534621e+00 
55600 6.4991478136e+00 6.2602863369e-06 1.7637782037e+00 -3.0549534621e+00 1.7637782037e+00 3.0549534621e+00 
55700 6.4991478208e+00 9.4495890043e-06 1.7637782037e+00 -3.0549534621e+00 1.7637782037e+00 3.0549534621e+00 
55800 6.4991478278e+00 1.2632124617e-05 1.7637782037e+00 -3.0549534621e+00 1.7637782037e+00 3.0549534621e+00 
55900 6.4991478347e+00 1.5805311759e-05 1.7637782037e+00 -3.0549534621e+00 1.7637782037e+00 3.0549534621e+00 
56000 6.4991478414e+00 1.8966647311e-05 1.7637782037e+00 -3.0549534621e+00 1.7637782037e+00 3.0549534621e+00 
56100 6.4991478479e+00 2.2113706475e-05 1.7637782037e+00 -3.0549534621e+00 1.7637782037e+00 3.0549534621e+00 
56200 6.4991478543e+00 2.5244142734e-05 1.7637782037e+00 -3.0549534621e+00 1.7637782037e+00 3.0549534621e+00 
56300 6.4991478605e+00 2.8355687751e-05 1.7637782037e+00 -3.0549534621e+00 1.7637782037e+00 3.0549534621e+00 
56400 6.4991478666e+00 3.1446151220e-05 1.7637782037e+00 -3.0549534621e+00 1.7637782037e+00 3.0549534621e+00 
56500 6.4991478725e+00 3.4513420651e-05 1.7637782037e+00 -3.0549534621e+00 1.7637782037e+00 3.0549534621e+00 
56600 6.4991478782e+00 3.7555461108e-05 1.7637782037e+00 -3.0549534621e+00 1.7637782037e+00 3.0549534621e+00 
56700 6.4991478838e+00 4.0570314883e-05 1.7637782037e+00 -3.0549534621e+00 1.7637782037e+00 3.0549534621e+00 
56800 6.4991478892e+00 4.3556101138e-05 1.7637782037e+00 -3.0549534621e+00 1.7637782037e+00 3.0549534621e+00 
56900 6.4991478944e+00 4.6511015473e-05 1.7637782037e+00 -3.0549534621e+00 1.7637782037e+00 3.0549534621e+00 
57000 6.4991478994e+00 4.9433329460e-05 1.7637782037e+00 -3.0549534621e+00 1.7637782037e+00 3.0549534621e+00 
57100 6.4991479043e+00 5.2321390121e-05 1.7637782037e+00 -3.0549534621e+00 1.7637782037e+00 3.0549534621e+00 
57200 6.4991479090e+00 5.5173619365e-05 1.7637782037e+00 -3.0549534621e+00 1.7637782037e+00 3.0549534621e+00 
57300 6.4991479135e+00 5.7988513372e-05 1.7637782037e+00 -3.0549534621e+00 1.7637782037e+00 3.0549534621e+00 
57400 6.4991479179e+00 6.0764641943e-05 1.7637782037e+00 -3.0549534621e+00 1.7637782037e+00 3.0549534621e+00 
57500 6.4991479221e+00 6.3500647792e-05 1.7637782037e+00 -3.0549534621e+00 1.7637782037e+00 3.0549534621e+00 
57600 6.4991479262e+00 6.6195245822e-05 1.7637782037e+00 -3.0549534621e+00 1.7637782037e+00 3.0549534621e+00 
57700 6.4991479301e+00 6.8847222329e-05 1.7637782037e+00 -3.0549534621e+00 1.7637782037e+00 3.0549534621e+00 
57800 6.4991479339e+00 7.1455434192e-05 1.7637782037e+00 -3.0549534621e+00 1.7637782037e+00 3.0549534621e+00 
57900 6.4991479373e+00 7.1849457010e-05 1.7637761781e+00 -3.0549499536e+00 1.7637761781e+00 3.0549499536e+00 
58000 6.4991479406e+00 7.2175161219e-05 1.7637741413e+00 -3.0549464258e+00 1.7637741413e+00 3.0549464258e+00 
58100 6.4991479437e+00 7.2433308838e-05 1.7637720952e+00 -3.0549428819e+00 1.7637720952e+00 3.0549428819e+00 
58200 6.4991479467e+00 7.2624737389e-05 1.7637700419e+00 -3.0549393254e+00 1.7637700419e+00 3.0549393254e+00 
58300 6.4991479495e+00 7.2750356276e-05 1.7637679831e+00 -3.0549357595e+00 1.7637679831e+00 3.0549357595e+00 
58400 6.4991479522e+00 7.2811143211e-05 1.7637659207e+00 -3.0549321874e+00 1.7637659207e+00 3.0549321874e+00 
58500 6.4991479548e+00 7.2808140699e-05 1.7637638566e+00 -3.0549286123e+00 1.7637638566e+00 3.0549286123e+00 
58600 6.4991479573e+00 7.2742452531e-05 1.7637617926e+00 -3.0549250373e+00 1.7637617926e+00 3.0549250373e+00 
58700 6.4991479596e+00 7.2615240387e-05 1.7637597305e+00 -3.0549214656e+00 1.7637597305e+00 3.0549214656e+00 
58800 6.4991479618e+00 7.2427720424e-05 1.7637576720e+00 -3.0549179001e+00 1.7637576720e+00 3.0549179001e+00 
58900 6.4991479640e+00 7.2181159965e-05 1.7637556188e+00 -3.0549143438e+00 1.7637556188e+00 3.0549143438e+00 
59000 6.4991479660e+00 7.1876874215e-05 1.7637535725e+00 -3.0549107996e+00 1.7637535725e+00 3.0549107996e+00 
59100 6.4991479679e+00 7.1516223056e-05 1.7637515349e+00 -3.0549072704e+00 1.7637515349e+00 3.0549072704e+00 
59200 6.4991479698e+00 7.1100607854e-05 1.7637495075e+00 -3.0549037588e+00 1.7637495075e+00 3.0549037588e+00 
59300 6.4991479715e+00 7.0631468376e-05 1.7637474919e+00 -3.0549002677e+00 1.7637474919e+00 3.0549002677e+00 
59400 6.4991479734e+00 7.2254784044e-05 1.7637474919e+00 -3.0549002677e+00 1.7637474919e+00 3.0549002677e+00 
59500 6.4991479750e+00 7.1628330837e-05 1.7637454436e+00 -3.0548967199e+00 1.7637454436e+00 3.0548967199e+00 
59600 6.4991479766e+00 7.0954532218e-05 1.7637434130e+00 -3.0548932028e+00 1.7637434130e+00 3.0548932028e+00 
59700 6.4991479781e+00 7.0234876710e-05 1.7637414015e+00 -3.0548897189e+00 1.7637414015e+00 3.0548897189e+00 
59800 6.4991479797e+00 7.1603373409e-05 1.7637414015e+00 -3.0548897189e+00 1.7637414015e+00 3.0548897189e+00 
59900 6.4991479810e+00 7.0742158552e-05 1.7637393717e+00 -3.0548862030e+00 1.7637393717e+00 3.0548862030e+00 
60000 6.4991479824e+00 6.9841355153e-05 1.7637373662e+00 -3.0548827295e+00 1.7637373662e+00 3.0548827295e+00 
60100 6.4991479839e+00 7.1023033501e-05 1.7637373662e+00 -3.0548827295e+00 1.7637373662e+00 3.0548827295e+00 
60200 6.4991479851e+00 6.9993477852e-05 1.7637353528e+00 -3.0548792421e+00 1.7637353528e+00 3.0548792421e+00 
60300 6.4991479865e+00 7.1055742169e-05 1.7637353528e+00 -3.0548792421e+00 1.7637353528e+00 3.0548792421e+00 
60400 6.4991479877e+00 6.9906693674e-05 1.7637333384e+00 -3.0548757531e+00 1.7637333384e+00 3.0548757531e+00 
60500 6.4991479891e+00 7.0851465538e-05 1.7637333384e+00 -3.0548757531e+00 1.7637333384e+00 3.0548757531e+00 
60600 6.4991479902e+00 6.9592197948e-05 1.7637313299e+00 -3.0548722742e+00 1.7637313299e+00 3.0548722742e+00 
60700 6.4991479915e+00 7.0421740290e-05 1.7637313299e+00 -3.0548722742e+00 1.7637313299e+00 3.0548722742e+00 
60800 6.4991479928e+00 7.1199719366e-05 1.7637313299e+00 -3.0548722742e+00 1.7637313299e+00 3.0548722742e+00 
60900 6.4991479940e+00 6.9765128448e-05 1.7637293114e+00 -3.0548687782e+00 1.7637293114e+00 3.0548687782e+00 
61000 6.4991479952e+00 7.0432016890e-05 1.7637293114e+00 -3.0548687782e+00 1.7637293114e+00 3.0548687782e+00 
61100 6.4991479965e+00 7.1049563074e-05 1.7637293114e+00 -3.0548687782e+00 1.7637293114e+00 3.0548687782e+00 
61200 6.4991479976e+00 6.9461392245e-05 1.7637272972e+00 -3.0548652895e+00 1.7637272972e+00 3.0548652895e+00 
61300 6.4991479988e+00 6.9972547280e-05 1.7637272972e+00 -3.0548652895e+00 1.7637272972e+00 3.0548652895e+00 
61400 6.4991480001e+00 7.0436809139e-05 1.7637272972e+00 -3.0548652895e+00 1.7637272972e+00 3.0548652895e+00 
61500 6.4991480013e+00 7.0855151623e-05 1.7637272972e+00 -3.0548652895e+00 1.7637272972e+00 3.0548652895e+00 
61600 6.4991480024e+00 6.9077177619e-05 1.7637252886e+00 -3.0548618104e+00 1.7637252886e+00 3.0548618104e+00 
61700 6.4991480037e+00 6.9396238306e-05 1.7637252886e+00 -3.0548618104e+00 1.7637252886e+00 3.0548618104e+00 
61800 6.4991480050e+00 6.9672054734e-05 1.7637252886e+00 -3.0548618104e+00 1.7637252886e+00 3.0548618104e+00 
61900 6.4991480062e+00 6.9905665979e-05 1.7637252886e+00 -3.0548618104e+00 1.7637252886e+00 3.0548618104e+00 
62000 6.4991480075e+00 7.0098118451e-05 1.7637252886e+00 -3.0548618104e+00 1.7637252886e+00 3.0548618104e+00 
62100 6.4991480088e+00 7.0250464913e-05 1.7637252886e+00 -3.0548618104e+00 1.7637252886e+00 3.0548618104e+00 
62200 6.4991480101e+00 7.0363763515e-05 1.7637252886e+00 -3.0548618104e+00 1.7637252886e+00 3.0548618104e+00 
62300 6.4991480114e+00 7.0439076824e-05 1.7637252886e+00 -3.0548618104e+00 1.7637252886e+00 3.0548618104e+00 
62400 6.4991480127e+00 7.0477470908e-05 1.7637252886e+00 -3.0548618104e+00 1.7637252886e+00 3.0548618104e+00 
62500 6.4991480140e+00 7.0480014399e-05 1.7637252886e+00 -3.0548618104e+00 1.7637252886e+00 3.0548618104e+00 
62600 6.4991480153e+00 7.0447777601e-05 1.7637252886e+00 -3.0548618104e+00 1.7637252886e+00 3.0548618104e+00 
62700 6.4991480166e+00 7.0381831599e-05 1.7637252886e+00 -3.0548618104e+00 1.7637252886e+00 3.0548618104e+00 
62800 6.4991480179e+00 7.0283247389e-05 1.7637252886e+00 -3.0548618104e+00 1.7637252886e+00 3.0548618104e+00 
62900 6.4991480192e+00 7.0153095036e-05 1.7637252886e+00 -3.0548618104e+00 1.7637252886e+00 3.0548618104e+00 
63000 6.4991480206e+00 6.9992442837e-05 1.7637252886e+00 -3.0548618104e+00 1.7637252886e+00 3.0548618104e+00 
63100 6.4991480219e+00 6.9802356515e-05 1.7637252886e+00 -3.0548618104e+00 1.7637252886e+00 3.0548618104e+00 
63200 6.4991480233e+00 6.9583898423e-05 1.7637252886e+00 -3.0548618104e+00 1.7637252886e+00 3.0548618104e+00 
63300 6.4991480246e+00 6.9338126771e-05 1.7637252886e+00 -3.0548618104e+00 1.7637252886e+00 3.0548618104e+00 
63400 6.4991480259e+00 6.9066094882e-05 1.7637252886e+00 -3.0548618104e+00 1.7637252886e+00 3.0548618104e+00 
63500 6.4991480273e+00 6.8768850441e-05 1.7637252886e+00 -3.0548618104e+00 1.7637252886e+00 3.0548618104e+00 
63600 6.4991480286e+00 6.8447434800e-05 1.7637252886e+00 -3.0548618104e+00 1.7637252886e+00 3.0548618104e+00 
63700 6.4991480300e+00 6.8102882279e-05 1.7637252886e+00 -3.0548618104e+00 1.7637252886e+00 3.0548618104e+00 
63800 6.4991480314e+00 6.7736219490e-05 1.7637252886e+00 -3.0548618104e+00 1.7637252886e+00 3.0548618104e+00 
63900 6.4991480327e+00 6.7348464696e-05 1.7637252886e+00 -3.0548618104e+00 1.7637252886e+00 3.0548618104e+00 
64000 6.4991480341e+00 6.6940627167e-05 1.7637252886e+00 -3.0548618104e+00 1.7637252886e+00 3.0548618104e+00 
64100 6.4991480354e+00 6.6513706576e-05 1.7637252886e+00 -3.0548618104e+00 1.7637252886e+00 3.0548618104e+00 
64200 6.4991480367e+00 6.6068692422e-05 1.7637252886e+00 -3.0548618104e+00 1.7637252886e+00 3.0548618104e+00 
64300 6.4991480381e+00 6.5606563444e-05 1.7637252886e+00 -3.0548618104e+00 1.7637252886e+00 3.0548618104e+00 
64400 6.4991480394e+00 6.5128287083e-05 1.7637252886e+00 -3.0548618104e+00 1.7637252886e+00 3.0548618104e+00 
64500 6.4991480407e+00 6.4634818957e-05 1.7637252886e+00 -3.0548618104e+00 1.7637252886e+00 3.0548618104e+00 
64600 6.4991480420e+00 6.4127102356e-05 1.7637252886e+00 -3.0548618104e+00 1.7637252886e+00 3.0548618104e+00 
64700 6.4991480434e+00 6.3606067762e-05 1.7637252886e+00 -3.0548618104e+00 1.7637252886e+00 3.0548618104e+00 
64800 6.4991480446e+00 6.3072632371e-05 1.7637252886e+00 -3.0548618104e+00 1.7637252886e+00 3.0548618104e+00 
64900 6.4991480459e+00 6.2527699677e-05 1.7637252886e+00 -3.0548618104e+00 1.7637252886e+00 3.0548618104e+00 
65000 6.4991480472e+00 6.1972159032e-05 1.7637252886e+00 -3.0548618104e+00 1.7637252886e+00 3.0548618104e+00 
65100 6.4991480485e+00 6.1406885253e-05 1.7637252886e+00 -3.0548618104e+00 1.7637252886e+00 3.0548618104e+00 
65200 6.4991480497e+00 6.0832738245e-05 1.7637252886e+00 -3.0548618104e+00 1.7637252886e+00 3.0548618104e+00 
65300 6.4991480510e+00 6.0250562641e-05 1.7637252886e+00 -3.0548618104e+00 1.7637252886e+00 3.0548618104e+00 
65400 6.4991480522e+00 5.9661187467e-05 1.7637252886e+00 -3.0548618104e+00 1.7637252886e+00 3.0548618104e+00 
65500 6.4991480534e+00 5.9065425819e-05 1.7637252886e+00 -3.0548618104e+00 1.7637252886e+00 3.0548618104e+00 
65600 6.4991480546e+00 5.8464074575e-05 1.7637252886e+00 -3.0548618104e+00 1.7637252886e+00 3.0548618104e+00 
65700 6.4991480558e+00 5.7857914114e-05 1.7637252886e+00 -3.0548618104e+00 1.7637252886e+00 3.0548618104e+00 
65800 6.4991480570e+00 5.7247708058e-05 1.7637252886e+00 -3.0548618104e+00 1.7637252886e+00 3.0548618104e+00 
65900 6.4991480581e+00 5.6634203040e-05 1.7637252886e+00 -3.0548618104e+00 1.7637252886e+00 3.0548618104e+00 
66000 6.4991480592e+00 5.6018128477e-05 1.7637252886e+00 -3.0548618104e+00 1.7637252886e+00 3.0548618104e+00 
66100 6.4991480604e+00 5.5400196386e-05 1.7637252886e+00 -3.0548618104e+00 1.7637252886e+00 3.0548618104e+00 
66200 6.4991480614e+00 5.4781101192e-05 1.7637252886e+00 -3.0548618104e+00 1.7637252886e+00 3.0548618104e+00 
66300 6.4991480625e+00 5.4161519579e-05 1.7637252886e+00 -3.0548618104e+00 1.7637252886e+00 3.0548618104e+00 
66400 6.4991480636e+00 5.3542110338e-05 1.7637252886e+00 -3.0548618104e+00 1.7637252886e+00 3.0548618104e+00 
66500 6.4991480646e+00 5.2923514252e-05 1.7637252886e+00 -3.0548618104e+00 1.7637252886e+00 3.0548618104e+00 
66600 6.4991480657e+00 5.2306353983e-05 1.7637252886e+00 -3.0548618104e+00 1.7637252886e+00 3.0548618104e+00 
66700 6.4991480667e+00 5.1691233994e-05 1.7637252886e+00 -3.0548618104e+00 1.7637252886e+00 3.0548618104e+00 
66800 6.4991480676e+00 5.1078740471e-05 1.7637252886e+00 -3.0548618104e+00 1.7637252886e+00 3.0548618104e+00 
66900 6.4991480686e+00 5.0469441272e-05 1.7637252886e+00 -3.0548618104e+00 1.7637252886e+00 3.0548618104e+00 
67000 6.4991480696e+00 4.9863885891e-05 1.7637252886e+00 -3.0548618104e+00 1.7637252886e+00 3.0548618104e+00 
67100 6.4991480705e+00 4.9262605442e-05 1.7637252886e+00 -3.0548618104e+00 1.7637252886e+00 3.0548618104e+00 
67200 6.4991480714e+00 4.8666112650e-05 1.7637252886e+00 -3.0548618104e+00 1.7637252886e+00 3.0548618104e+00 
67300 6.4991480723e+00 4.8074901865e-05 1.7637252886e+00 -3.0548618104e+00 1.7637252886e+00 3.0548618104e+00 
67400 6.4991480732e+00 4.7489449088e-05 1.7637252886e+00 -3.0548618104e+00 1.7637252886e+00 3.0548618104e+00 
67500 6.4991480740e+00 4.6910212021e-05 1.7637252886e+00 -3.0548618104e+00 1.7637252886e+00 3.0548618104e+00 
67600 6.4991480748e+00 4.6337630116e-05 1.7637252886e+00 -3.0548618104e+00 1.7637252886e+00 3.0548618104e+00 
67700 6.4991480757e+00 4.5772124647e-05 1.7637252886e+00 -3.0548618104e+00 1.7637252886e+00 3.0548618104e+00 
67800 6.4991480765e+00 4.5214098804e-05 1.7637252886e+00 -3.0548618104e+00 1.7637252886e+00 3.0548618104e+00 
67900 6.4991480772e+00 4.4663937787e-05 1.7637252886e+00 -3.0548618104e+00 1.7637252886e+00 3.0548618104e+00 
68000 6.4991480780e+00 4.4122008915e-05 1.7637252886e+00 -3.0548618104e+00 1.7637252886e+00 3.0548618104e+00 
68100 6.4991480788e+00 4.3588661756e-05 1.7637252886e+00 -3.0548618104e+00 1.7637252886e+00 3.0548618104e+00 
68200 6.4991480795e+00 4.3064228270e-05 1.7637252886e+00 -3.0548618104e+00 1.7637252886e+00 3.0548618104e+00 
68300 6.4991480802e+00 4.2549022947e-05 1.7637252886e+00 -3.0548618104e+00 1.7637252886e+00 3.0548618104e+00 
68400 6.4991480809e+00 4.2043342980e-05 1.7637252886e+00 -3.0548618104e+00 1.7637252886e+00 3.0548618104e+00 
68500 6.4991480816e+00 4.1547468430e-05 1.7637252886e+00 -3.0548618104e+00 1.7637252886e+00 3.0548618104e+00 
68600 6.4991480822e+00 4.1061662417e-05 1.7637252886e+00 -3.0548618104e+00 1.7637252886e+00 3.0548618104e+00 
68700 6.4991480829e+00 4.0586171306e-05 1.7637252886e+00 -3.0548618104e+00 1.7637252886e+00 3.0548618104e+00 
68800 6.4991480835e+00 4.0121224920e-05 1.7637252886e+00 -3.0548618104e+00 1.7637252886e+00 3.0548618104e+00 
68900 6.4991480841e+00 3.9667036748e-05 1.7637252886e+00 -3.0548618104e+00 1.7637252886e+00 3.0548618104e+00 
69000 6.4991480848e+00 3.9223804171e-05 1.7637252886e+00 -3.0548618104e+00 1.7637252886e+00 3.0548618104e+00 
69100 6.4991480853e+00 3.8791708695e-05 1.7637252886e+00 -3.0548618104e+00 1.7637252886e+00 3.0548618104e+00 
69200 6.4991480859e+00 3.8370916186e-05 1.7637252886e+00 -3.0548618104e+00 1.7637252886e+00 3.0548618104e+00 
69300 6.4991480865e+00 3.7961577129e-05 1.7637252886e+00 -3.0548618104e+00 1.7637252886e+00 3.0548618104e+00 
69400 6.4991480870e+00 3.7563826875e-05 1.7637252886e+00 -3.0548618104e+00 1.7637252886e+00 3.0548618104e+00 
69500 6.4991480876e+00 3.7177785912e-05 1.7637252886e+00 -3.0548618104e+00 1.7637252886e+00 3.0548618104e+00 
69600 6.4991480881e+00 3.6803560127e-05 1.7637252886e+00 -3.0548618104e+00 1.7637252886e+00 3.0548618104e+00 
69700 6.4991480886e+00 3.6441241095e-05 1.7637252886e+00 -3.0548618104e+00 1.7637252886e+00 3.0548618104e+00 
69800 6.4991480891e+00 3.6090906349e-05 1.7637252886e+00 -3.0548618104e+00 1.7637252886e+00 3.0548618104e+00 
69900 6.4991480896e+00 3.5752619678e-05 1.7637252886e+00 -3.0548618104e+00 1.7637252886e+00 3.0548618104e+00 
70000 6.4991480901e+00 3.5426431419e-05 1.7637252886e+00 -3.0548618104e+00 1.7637252886e+00 3.0548618104e+00 
70100 6.4991480906e+00 3.5112378753e-05 1.7637252886e+00 -3.0548618104e+00 1.7637252886e+00 3.0548618104e+00 
70200 6.4991480911e+00 3.4810486012e-05 1.7637252886e+00 -3.0548618104e+00 1.7637252886e+00 3.0548618104e+00 
70300 6.4991480915e+00 3.4520764989e-05 1.7637252886e+00 -3.0548618104e+00 1.7637252886e+00 3.0548618104e+00 
70400 6.4991480920e+00 3.4243215243e-05 1.7637252886e+00 -3.0548618104e+00 1.7637252886e+00 3.0548618104e+00 
70500 6.4991480924e+00 3.3977824419e-05 1.7637252886e+00 -3.0548618104e+00 1.7637252886e+00 3.0548618104e+00 
70600 6.4991480929e+00 3.3724568565e-05 1.7637252886e+00 -3.0548618104e+00 1.7637252886e+00 3.0548618104e+00 
70700 6.4991480933e+00 3.3483412449e-05 1.7637252886e+00 -3.0548618104e+00 1.7637252886e+00 3.0548618104e+00 
70800 6.4991480937e+00 3.3254309894e-05 1.7637252886e+00 -3.0548618104e+00 1.7637252886e+00 3.0548618104e+00 
70900 6.4991480942e+00 3.3037204087e-05 1.7637252886e+00 -3.0548618104e+00 1.7637252886e+00 3.0548618104e+00 
71000 6.4991480946e+00 3.2832027921e-05 1.7637252886e+00 -3.0548618104e+00 1.7637252886e+00 3.0548618104e+00 
71100 6.4991480950e+00 3.2638704309e-05 1.7637252886e+00 -3.0548618104e+00 1.7637252886e+00 3.0548618104e+00 
71200 6.4991480954e+00 3.2457146531e-05 1.7637252886e+00 -3.0548618104e+00 1.7637252886e+00 3.0548618104e+00 
71300 6.4991480958e+00 3.2287258542e-05 1.7637252886e+00 -3.0548618104e+00 1.7637252886e+00 3.0548618104e+00 
71400 6.4991480962e+00 3.2128935327e-05 1.7637252886e+00 -3.0548618104e+00 1.7637252886e+00 3.0548618104e+00 
71500 6.4991480965e+00 3.1982063207e-05 1.7637252886e+00 -3.0548618104e+00 1.7637252886e+00 3.0548618104e+00 
71600 6.4991480969e+00 3.1846520193e-05 1.7637252886e+00 -3.0548618104e+00 1.7637252886e+00 3.0548618104e+00 
71700 6.4991480973e+00 3.1722176294e-05 1.7637252886e+00 -3.0548618104e+00 1.7637252886e+00 3.0548618104e+00 
71800 6.4991480977e+00 3.1608893863e-05 1.7637252886e+00 -3.0548618104e+00 1.7637252886e+00 3.0548618104e+00 
71900 6.4991480980e+00 3.1506527916e-05 1.7637252886e+00 -3.0548618104e+00 1.7637252886e+00 3.0548618104e+00 
72000 6.4991480984e+00 3.1414926460e-05 1.7637252886e+00 -3.0548618104e+00 1.7637252886e+00 3.0548618104e+00 
72100 6.4991480987e+00 3.1333930822e-05 1.7637252886e+00 -3.0548618104e+00 1.7637252886e+00 3.0548618104e+00 
72200 6.4991480991e+00 3.1263375965e-05 1.7637252886e+00 -3.0548618104e+00 1.7637252886e+00 3.0548618104e+00 
72300 6.4991480994e+00 3.1203090816e-05 1.7637252886e+00 -3.0548618104e+00 1.7637252886e+00 3.0548618104e+00 
72400 6.4991480998e+00 3.1152898580e-05 1.7637252886e+00 -3.0548618104e+00 1.7637252886e+00 3.0548618104e+00 
72500 6.4991481001e+00 3.1112617058e-05 1.7637252886e+00 -3.0548618104e+00 1.7637252886e+00 3.0548618104e+00 
72600 6.4991481005e+00 3.1082058958e-05 1.7637252886e+00 -3.0548618104e+00 1.7637252886e+00 3.0548618104e+00 
72700 6.4991481008e+00 3.1061032210e-05 1.7637252886e+00 -3.0548618104e+00 1.7637252886e+00 3.0548618104e+00 
72800 6.4991481011e+00 3.1049340271e-05 1.7637252886e+00 -3.0548618104e+00 1.7637252886e+00 3.0548618104e+00 
72900 6.4991481015e+00 3.1046782421e-05 1.7637252886e+00 -3.0548618104e+00 1.7637252886e+00 3.0548618104e+00 
73000 6.4991481018e+00 3.1053154078e-05 1.7637252886e+00 -3.0548618104e+00 1.7637252886e+00 3.0548618104e+00 
73100 6.4991481021e+00 3.1068247075e-05 1.7637252886e+00 -3.0548618104e+00 1.7637252886e+00 3.0548618104e+00 
73200 6.4991481024e+00 3.1091849967e-05 1.7637252886e+00 -3.0548618104e+00 1.7637252886e+00 3.0548618104e+00 
73300 6.4991481028e+00 3.1123748316e-05 1.7637252886e+00 -3.0548618104e+00 1.7637252886e+00 3.0548618104e+00 
73400 6.4991481031e+00 3.1163724966e-05 1.7637252886e+00 -3.0548618104e+00 1.7637252886e+00 3.0548618104e+00 
73500 6.4991481034e+00 3.1211560332e-05 1.7637252886e+00 -3.0548618104e+00 1.7637252886e+00 3.0548618104e+00 
73600 6.4991481037e+00 3.1267032664e-05 1.7637252886e+00 -3.0548618104e+00 1.7637252886e+00 3.0548618104e+00 
73700 6.4991481040e+00 3.1329918330e-05 1.7637252886e+00 -3.0548618104e+00 1.7637252886e+00 3.0548618104e+00 
73800 6.4991481043e+00 3.1399992064e-05 1.7637252886e+00 -3.0548618104e+00 1.7637252886e+00 3.0548618104e+00 
73900 6.4991481046e+00 3.1477027235e-05 1.7637252886e+00 -3.0548618104e+00 1.7637252886e+00 3.0548618104e+00 
74000 6.4991481049e+00 3.1560796105e-05 1.7637252886e+00 -3.0548618104e+00 1.7637252886e+00 3.0548618104e+00 
74100 6.4991481052e+00 3.1651070065e-05 1.7637252886e+00 -3.0548618104e+00 1.7637252886e+00 3.0548618104e+00 
74200 6.4991481055e+00 3.1747619885e-05 1.7637252886e+00 -3.0548618104e+00 1.7637252886e+00 3.0548618104e+00 
74300 6.4991481058e+00 3.1850215959e-05 1.7637252886e+00 -3.0548618104e+00 1.7637252886e+00 3.0548618104e+00 
74400 6.4991481061e+00 3.1958628522e-05 1.7637252886e+00 -3.0548618104e+00 1.7637252886e+00 3.0548618104e+00 
74500 6.4991481064e+00 3.2072627890e-05 1.7637252886e+00 -3.0548618104e+00 1.7637252886e+00 3.0548618104e+00 
74600 6.4991481067e+00 3.2191984674e-05 1.7637252886e+00 -3.0548618104e+00 1.7637252886e+00 3.0548618104e+00 
74700 6.4991481069e+00 3.2316469994e-05 1.7637252886e+00 -3.0548618104e+00 1.7637252886e+00 3.0548618104e+00 
74800 6.4991481072e+00 3.2445855692e-05 1.7637252886e+00 -3.0548618104e+00 1.7637252886e+00 3.0548618104e+00 
74900 6.4991481075e+00 3.2579914532e-05 1.7637252886e+00 -3.0548618104e+00 1.7637252886e+00 3.0548618104e+00 
75000 6.4991481078e+00 3.2718420403e-05 1.7637252886e+00 -3.0548618104e+00 1.7637252886e+00 3.0548618104e+00 
75100 6.4991481080e+00 3.2861148498e-05 1.7637252886e+00 -3.0548618104e+00 1.7637252886e+00 3.0548618104e+00 
75200 6.4991481083e+00 3.3007875515e-05 1.7637252886e+00 -3.0548618104e+00 1.7637252886e+00 3.0548618104e+00 
75300 6.4991481086e+00 3.3158379819e-05 1.7637252886e+00 -3.0548618104e+00 1.7637252886e+00 3.0548618104e+00 
75400 6.4991481088e+00 3.3312441629e-05 1.7637252886e+00 -3.0548618104e+00 1.7637252886e+00 3.0548618104e+00 
75500 6.4991481091e+00 3.3469843180e-05 1.7637252886e+00 -3.0548618104e+00 1.7637252886e+00 3.0548618104e+00 
75600 6.4991481094e+00 3.3630368877e-05 1.7637252886e+00 -3.0548618104e+00 1.7637252886e+00 3.0548618104e+00 
75700 6.4991481096e+00 3.3793805460e-05 1.7637252886e+00 -3.0548618104e+00 1.7637252886e+00 3.0548618104e+00 
75800 6.4991481099e+00 3.3959942142e-05 1.7637252886e+00 -3.0548618104e+00 1.7637252886e+00 3.0548618104e+00 
75900 6.4991481101e+00 3.4128570766e-05 1.7637252886e+00 -3.0548618104e+00 1.7637252886e+00 3.0548618104e+00 
76000 6.4991481104e+00 3.4299485922e-05 1.7637252886e+00 -3.0548618104e+00 1.7637252886e+00 3.0548618104e+00 
76100 6.4991481106e+00 3.4472485091e-05 1.7637252886e+00 -3.0548618104e+00 1.7637252886e+00 3.0548618104e+00 
76200 6.4991481108e+00 3.4647368769e-05 1.7637252886e+00 -3.0548618104e+00 1.7637252886e+00 3.0548618104e+00 
76300 6.4991481111e+00 3.4823940575e-05 1.7637252886e+00 -3.0548618104e+00 1.7637252886e+00 3.0548618104e+00 
76400 6.4991481113e+00 3.5002007370e-05 1.7637252886e+00 -3.0548618104e+00 1.7637252886e+00 3.0548618104e+00 
76500 6.4991481115e+00 3.5181379366e-05 1.7637252886e+00 -3.0548618104e+00 1.7637252886e+00 3.0548618104e+00 
76600 6.4991481118e+00 3.5361870219e-05 1.7637252886e+00 -3.0548618104e+00 1.7637252886e+00 3.0548618104e+00 
76700 6.4991481120e+00 3.5543297126e-05 1.7637252886e+00 -3.0548618104e+00 1.7637252886e+00 3.0548618104e+00 
76800 6.4991481122e+00 3.5725480916e-05 1.7637252886e+00 -3.0548618104e+00 1.7637252886e+00 3.0548618104e+00 
76900 6.4991481124e+00 3.5908246133e-05 1.7637252886e+00 -3.0548618104e+00 1.7637252886e+00 3.0548618104e+00 
77000 6.4991481126e+00 3.6091421105e-05 1.7637252886e+00 -3.0548618104e+00 1.7637252886e+00 3.0548618104e+00 
77100 6.4991481128e+00 3.6274838027e-05 1.7637252886e+00 -3.0548618104e+00 1.7637252886e+00 3.0548618104e+00 
77200 6.4991481131e+00 3.6458333021e-05 1.7637252886e+00 -3.0548618104e+00 1.7637252886e+00 3.0548618104e+00 
77300 6.4991481133e+00 3.6641746191e-05 1.7637252886e+00 -3.0548618104e+00 1.7637252886e+00 3.0548618104e+00 
77400 6.4991481135e+00 3.6824921695e-05 1.7637252886e+00 -3.0548618104e+00 1.7637252886e+00 3.0548618104e+00 
77500 6.4991481137e+00 3.7007707775e-05 1.7637252886e+00 -3.0548618104e+00 1.7637252886e+00 3.0548618104e+00 
77600 6.4991481139e+00 3.7189956818e-05 1.7637252886e+00 -3.0548618104e+00 1.7637252886e+00 3.0548618104e+00 
77700 6.4991481141e+00 3.7371525381e-05 1.7637252886e+00 -3.0548618104e+00 1.7637252886e+00 3.0548618104e+00 
77800 6.4991481142e+00 3.7552274238e-05 1.7637252886e+00 -3.0548618104e+00 1.7637252886e+00 3.0548618104e+00 
77900 6.4991481144e+00 3.7732068401e-05 1.7637252886e+00 -3.0548618104e+00 1.7637252886e+00 3.0548618104e+00 
78000 6.4991481146e+00 3.7910777147e-05 1.7637252886e+00 -3.0548618104e+00 1.7637252886e+00 3.0548618104e+00 
78100 6.4991481148e+00 3.8088274044e-05 1.7637252886e+00 -3.0548618104e+00 1.7637252886e+00 3.0548618104e+00 
78200 6.4991481150e+00 3.8264436956e-05 1.7637252886e+00 -3.0548618104e+00 1.7637252886e+00 3.0548618104e+00 
78300 6.4991481152e+00 3.8439148062e-05 1.7637252886e+00 -3.0548618104e+00 1.7637252886e+00 3.0548618104e+00 
78400 6.4991481153e+00 3.8612293854e-05 1.7637252886e+00 -3.0548618104e+00 1.7637252886e+00 3.0548618104e+00 
78500 6.4991481155e+00 3.8783765150e-05 1.7637252886e+00 -3.0548618104e+00 1.7637252886e+00 3.0548618104e+00 
78600 6.4991481157e+00 3.8953457077e-05 1.7637252886e+00 -3.0548618104e+00 1.7637252886e+00 3.0548618104e+00 
78700 6.4991481158e+00 3.9121269083e-05 1.7637252886e+00 -3.0548618104e+00 1.7637252886e+00 3.0548618104e+00 
78800 6.4991481160e+00 3.9287104903e-05 1.7637252886e+00 -3.0548618104e+00 1.7637252886e+00 3.0548618104e+00 
78900 6.4991481162e+00 3.9450872567e-05 1.7637252886e+00 -3.0548618104e+00 1.7637252886e+00 3.0548618104e+00 
79000 6.4991481163e+00 3.9612484373e-05 1.7637252886e+00 -3.0548618104e+00 1.7637252886e+00 3.0548618104e+00 
79100 6.4991481165e+00 3.9771856856e-05 1.7637252886e+00 -3.0548618104e+00 1.7637252886e+00 3.0548618104e+00 
79200 6.4991481166e+00 3.9928910777e-05 1.7637252886e+00 -3.0548618104e+00 1.7637252886e+00 3.0548618104e+00 
79300 6.4991481168e+00 4.0083571087e-05 1.7637252886e+00 -3.0548618104e+00 1.7637252886e+00 3.0548618104e+00 
79400 6.4991481169e+00 4.0235766892e-05 1.7637252886e+00 -3.0548618104e+00 1.7637252886e+00 3.0548618104e+00 
79500 6.4991481171e+00 4.0385431421e-05 1.7637252886e+00 -3.0548618104e+00 1.7637252886e+00 3.0548618104e+00 
79600 6.4991481172e+00 4.0532501990e-05 1.7637252886e+00 -3.0548618104e+00 1.7637252886e+00 3.0548618104e+00 
79700 6.4991481174e+00 4.0676919953e-05 1.7637252886e+00 -3.0548618104e+00 1.7637252886e+00 3.0548618104e+00 
79800 6.4991481175e+00 4.0818630661e-05 1.7637252886e+00 -3.0548618104e+00 1.7637252886e+00 3.0548618104e+00 
79900 6.4991481176e+00 4.0957583420e-05 1.7637252886e+00 -3.0548618104e+00 1.7637252886e+00 3.0548618104e+00 
80000 6.4991481178e+00 4.1093731430e-05 1.7637252886e+00 -3.0548618104e+00 1.7637252886e+00 3.0548618104e+00 
80100 6.4991481179e+00 4.1227031740e-05 1.7637252886e+00 -3.0548618104e+00 1.7637252886e+00 3.0548618104e+00 
80200 6.4991481180e+00 4.1357445191e-05 1.7637252886e+00 -3.0548618104e+00 1.7637252886e+00 3.0548618104e+00 
80300 6.4991481182e+00 4.1484936360e-05 1.7637252886e+00 -3.0548618104e+00 1.7637252886e+00 3.0548618104e+00 
80400 6.4991481183e+00 4.1609473492e-05 1.7637252886e+00 -3.0548618104e+00 1.7637252886e+00 3.0548618104e+00 
80500 6.4991481184e+00 4.1731028456e-05 1.7637252886e+00 -3.0548618104e+00 1.7637252886e+00 3.0548618104e+00 
80600 6.4991481185e+00 4.1849576658e-05 1.7637252886e+00 -3.0548618104e+00 1.7637252886e+00 3.0548618104e+00 
80700 6.4991481187e+00 4.1965096999e-05 1.7637252886e+00 -3.0548618104e+00 1.7637252886e+00 3.0548618104e+00 
80800 6.4991481188e+00 4.2077571791e-05 1.7637252886e+00 -3.0548618104e+00 1.7637252886e+00 3.0548618104e+00 
80900 6.4991481189e+00 4.2186986694e-05 1.7637252886e+00 -3.0548618104e+00 1.7637252886e+00 3.0548618104e+00 
81000 6.4991481190e+00 4.2293330646e-05 1.7637252886e+00 -3.0548618104e+00 1.7637252886e+00 3.0548618104e+00 
81100 6.4991481191e+00 4.2396595790e-05 1.7637252886e+00 -3.0548618104e+00 1.7637252886e+00 3.0548618104e+00 
81200 6.4991481192e+00 4.2496777399e-05 1.7637252886e+00 -3.0548618104e+00 1.7637252886e+00 3.0548618104e+00 
81300 6.4991481194e+00 4.2593873806e-05 1.7637252886e+00 -3.0548618104e+00 1.7637252886e+00 3.0548618104e+00 
81400 6.4991481195e+00 4.2687886322e-05 1.7637252886e+00 -3.0548618104e+00 1.7637252886e+00 3.0548618104e+00 
81500 6.4991481196e+00 4.2778819173e-05 1.7637252886e+00 -3.0548618104e+00 1.7637252886e+00 3.0548618104e+00 
81600 6.4991481197e+00 4.2866679403e-05 1.7637252886e+00 -3.0548618104e+00 1.7637252886e+00 3.0548618104e+00 
81700 6.4991481198e+00 4.2951476807e-05 1.7637252886e+00 -3.0548618104e+00 1.7637252886e+00 3.0548618104e+00 
81800 6.4991481199e+00 4.3033223854e-05 1.7637252886e+00 -3.0548618104e+00 1.7637252886e+00 3.0548618104e+00 
81900 6.4991481200e+00 4.3111935599e-05 1.7637252886e+00 -3.0548618104e+00 1.7637252886e+00 3.0548618104e+00 
82000 6.4991481201e+00 4.3187629610e-05 1.7637252886e+00 -3.0548618104e+00 1.7637252886e+00 3.0548618104e+00 
82100 6.4991481202e+00 4.3260325888e-05 1.7637252886e+00 -3.0548618104e+00 1.7637252886e+00 3.0548618104e+00 
82200 6.4991481203e+00 4.3330046777e-05 1.7637252886e+00 -3.0548618104e+00 1.7637252886e+00 3.0548618104e+00 
82300 6.4991481204e+00 4.3396816893e-05 1.7637252886e+00 -3.0548618104e+00 1.7637252886e+00 3.0548618104e+00 
82400 6.4991481205e+00 4.3460663035e-05 1.7637252886e+00 -3.0548618104e+00 1.7637252886e+00 3.0548618104e+00 
82500 6.4991481206e+00 4.3521614109e-05 1.7637252886e+00 -3.0548618104e+00 1.7637252886e+00 3.0548618104e+00 
82600 6.4991481207e+00 4.3579701041e-05 1.7637252886e+00 -3.0548618104e+00 1.7637252886e+00 3.0548618104e+00 
82700 6.4991481208e+00 4.3634956704e-05 1.7637252886e+00 -3.0548618104e+00 1.7637252886e+00 3.0548618104e+00 
82800 6.4991481209e+00 4.3687415824e-05 1.7637252886e+00 -3.0548618104e+00 1.7637252886e+00 3.0548618104e+00 
82900 6.4991481209e+00 4.3737114912e-05 1.7637252886e+00 -3.0548618104e+00 1.7637252886e+00 3.0548618104e+00 
83000 6.4991481210e+00 4.3784092176e-05 1.7637252886e+00 -3.0548618104e+00 1.7637252886e+00 3.0548618104e+00 
83100 6.4991481211e+00 4.3828387440e-05 1.7637252886e+00 -3.0548618104e+00 1.7637252886e+00 3.0548618104e+00 
83200 6.4991481212e+00 4.3870042069e-05 1.7637252886e+00 -3.0548618104e+00 1.7637252886e+00 3.0548618104e+00 
83300 6.4991481213e+00 4.3909098885e-05 1.7637252886e+00 -3.0548618104e+00 1.7637252886e+00 3.0548618104e+00 
83400 6.4991481214e+00 4.3945602085e-05 1.7637252886e+00 -3.0548618104e+00 1.7637252886e+00 3.0548618104e+00 
83500 6.4991481215e+00 4.3979597176e-05 1.7637252886e+00 -3.0548618104e+00 1.7637252886e+00 3.0548618104e+00 
83600 6.4991481215e+00 4.4011130884e-05 1.7637252886e+00 -3.0548618104e+00 1.7637252886e+00 3.0548618104e+00 
83700 6.4991481216e+00 4.4040251084e-05 1.7637252886e+00 -3.0548618104e+00 1.7637252886e+00 3.0548618104e+00 
83800 6.4991481217e+00 4.4067006714e-05 1.7637252886e+00 -3.0548618104e+00 1.7637252886e+00 3.0548618104e+00 
83900 6.4991481218e+00 4.4091447721e-05 1.7637252886e+00 -3.0548618104e+00 1.7637252886e+00 3.0548618104e+00 
84000 6.4991481219e+00 4.4113624963e-05 1.7637252886e+00 -3.0548618104e+00 1.7637252886e+00 3.0548618104e+00 
84100 6.4991481219e+00 4.4133590151e-05 1.7637252886e+00 -3.0548618104e+00 1.7637252886e+00 3.0548618104e+00 
84200 6.4991481220e+00 4.4151395772e-05 1.7637252886e+00 -3.0548618104e+00 1.7637252886e+00 3.0548618104e+00 
84300 6.4991481221e+00 4.4167095013e-05 1.7637252886e+00 -3.0548618104e+00 1.7637252886e+00 3.0548618104e+00 
84400 6.4991481222e+00 4.4180741703e-05 1.7637252886e+00 -3.0548618104e+00 1.7637252886e+00 3.0548618104e+00 
84500 6.4991481222e+00 4.4192390235e-05 1.7637252886e+00 -3.0548618104e+00 1.7637252886e+00 3.0548618104e+00 
84600 6.4991481223e+00 4.4202095495e-05 1.7637252886e+00 -3.0548618104e+00 1.7637252886e+00 3.0548618104e+00 
84700 6.4991481224e+00 4.4209912803e-05 1.7637252886e+00 -3.0548618104e+00 1.7637252886e+00 3.0548618104e+00 
84800 6.4991481225e+00 4.4215897853e-05 1.7637252886e+00 -3.0548618104e+00 1.7637252886e+00 3.0548618104e+00 
84900 6.4991481225e+00 4.4220106628e-05 1.7637252886e+00 -3.0548618104e+00 1.7637252886e+00 3.0548618104e+00 
85000 6.4991481226e+00 4.4222595364e-05 1.7637252886e+00 -3.0548618104e+00 1.7637252886e+00 3.0548618104e+00 
85100 6.4991481227e+00 4.4223420464e-05 1.7637252886e+00 -3.0548618104e+00 1.7637252886e+00 3.0548618104e+00 
85200 6.4991481227e+00 4.4222638455e-05 1.7637252886e+00 -3.0548618104e+00 1.7637252886e+00 3.0548618104e+00 
85300 6.4991481228e+00 4.4220305923e-05 1.7637252886e+00 -3.0548618104e+00 1.7637252886e+00 3.0548618104e+00 
85400 6.4991481229e+00 4.4216479460e-05 1.7637252886e+00 -3.0548618104e+00 1.7637252886e+00 3.0548618104e+00 
85500 6.4991481229e+00 4.4211215599e-05 1.7637252886e+00 -3.0548618104e+00 1.7637252886e+00 3.0548618104e+00 
85600 6.4991481230e+00 4.4204570769e-05 1.7637252886e+00 -3.0548618104e+00 1.7637252886e+00 3.0548618104e+00 
85700 6.4991481231e+00 4.4196601240e-05 1.7637252886e+00 -3.0548618104e+00 1.7637252886e+00 3.0548618104e+00 
85800 6.4991481231e+00 4.4187363071e-05 1.7637252886e+00 -3.0548618104e+00 1.7637252886e+00 3.0548618104e+00 
85900 6.4991481232e+00 4.4176912056e-05 1.7637252886e+00 -3.0548618104e+00 1.7637252886e+00 3.0548618104e+00 
86000 6.4991481233e+00 4.4165303685e-05 1.7637252886e+00 -3.0548618104e+00 1.7637252886e+00 3.0548618104e+00 
86100 6.4991481233e+00 4.4152593091e-05 1.7637252886e+00 -3.0548618104e+00 1.7637252886e+00 3.0548618104e+00 
86200 6.4991481234e+00 4.4138835002e-05 1.7637252886e+00 -3.0548618104e+00 1.7637252886e+00 3.0548618104e+00 
86300 6.4991481235e+00 4.4124083708e-05 1.7637252886e+00 -3.0548618104e+00 1.7637252886e+00 3.0548618104e+00 
86400 6.4991481235e+00 4.4108393006e-05 1.7637252886e+00 -3.0548618104e+00 1.7637252886e+00 3.0548618104e+00 
86500 6.4991481236e+00 4.4091816168e-05 1.7637252886e+00 -3.0548618104e+00 1.7637252886e+00 3.0548618104e+00 
86600 6.4991481236e+00 4.4074405904e-05 1.7637252886e+00 -3.0548618104e+00 1.7637252886e+00 3.0548618104e+00 
86700 6.4991481237e+00 4.4056214312e-05 1.7637252886e+00 -3.0548618104e+00 1.7637252886e+00 3.0548618104e+00 
86800 6.4991481237e+00 4.4037292858e-05 1.7637252886e+00 -3.0548618104e+00 1.7637252886e+00 3.0548618104e+00 
86900 6.4991481238e+00 4.4017692328e-05 1.7637252886e+00 -3.0548618104e+00 1.7637252886e+00 3.0548618104e+00 
87000 6.4991481239e+00 4.3997462806e-05 1.7637252886e+00 -3.0548618104e+00 1.7637252886e+00 3.0548618104e+00 
87100 6.4991481239e+00 4.3976653636e-05 1.7637252886e+00 -3.0548618104e+00 1.7637252886e+00 3.0548618104e+00 
87200 6.4991481240e+00 4.3955313393e-05 1.7637252886e+00 -3.0548618104e+00 1.7637252886e+00 3.0548618104e+00 
87300 6.4991481240e+00 4.3933489859e-05 1.7637252886e+00 -3.0548618104e+00 1.7637252886e+00 3.0548618104e+00 
87400 6.4991481241e+00 4.3911229987e-05 1.7637252886e+00 -3.0548618104e+00 1.7637252886e+00 3.0548618104e+00 
87500 6.4991481241e+00 4.3888579889e-05 1.7637252886e+00 -3.0548618104e+00 1.7637252886e+00 3.0548618104e+00 
87600 6.4991481242e+00 4.3865584798e-05 1.7637252886e+00 -3.0548618104e+00 1.7637252886e+00 3.0548618104e+00 
87700 6.4991481242e+00 4.3842289061e-05 1.7637252886e+00 -3.0548618104e+00 1.7637252886e+00 3.0548618104e+00 
87800 6.4991481243e+00 4.3818736102e-05 1.7637252886e+00 -3.0548618104e+00 1.7637252886e+00 3.0548618104e+00 
87900 6.4991481243e+00 4.3794968416e-05 1.7637252886e+00 -3.0548618104e+00 1.7637252886e+00 3.0548618104e+00 
88000 6.4991481244e+00 4.3771027539e-05 1.7637252886e+00 -3.0548618104e+00 1.7637252886e+00 3.0548618104e+00 
88100 6.4991481244e+00 4.3758523346e-05 1.7637252886e+00 -3.0548618104e+00 1.7637252886e+00 3.0548618104e+00 
88100 6.4991481244e+00 4.3758523346e-05 1.7637252886e+00 -3.0548618104e+00 1.7637252886e+00 3.0548618104e+00 
