# step Hamiltonian StressXX CellTensor1 CellTensor2 CellTensor3 CellTensor4 
0 5.4851357400e+00 1.0364588327e-01 2.6408444507e+00 -4.5740767634e+00 2.6408444507e+00 4.5740767634e+00 
100 5.4945928481e+00 1.1674416104e-01 2.6408444507e+00 -4.5740767634e+00 2.6408444507e+00 4.5740767634e+00 
200 5.5040333278e+00 1.2949797884e-01 2.6386344026e+00 -4.5702488479e+00 2.6386344026e+00 4.5702488479e+00 
300 5.5135346396e+00 1.4182536378e-01 2.6361809008e+00 -4.5659992581e+00 2.6361809008e+00 4.5659992581e+00 
400 5.5230266316e+00 1.5375291081e-01 2.6334913809e+00 -4.5613408730e+00 2.6334913809e+00 4.5613408730e+00 
500 5.5324437434e+00 1.6530394511e-01 2.6305727369e+00 -4.5562856333e+00 2.6305727369e+00 4.5562856333e+00 
600 5.5417247836e+00 1.7649864179e-01 2.6274313868e+00 -4.5508446554e+00 2.6274313868e+00 4.5508446554e+00 
700 5.5508127585e+00 1.8735416023e-01 2.6240733355e+00 -4.5450283398e+00 2.6240733355e+00 4.5450283398e+00 
800 5.5596547447e+00 1.9788479071e-01 2.6205042351e+00 -4.5388464767e+00 2.6205042351e+00 4.5388464767e+00 
900 5.5682017980e+00 2.0810211150e-01 2.6167294425e+00 -4.5323083440e+00 2.6167294425e+00 4.5323083440e+00 
1000 5.5764088909e+00 2.1801515484e-01 2.6127540730e+00 -4.5254228022e+00 2.6127540730e+00 4.5254228022e+00 
1100 5.5842348737e+00 2.2763058069e-01 2.6085830521e+00 -4.5181983819e+00 2.6085830521e+00 4.5181983819e+00 
1200 5.5916424522e+00 2.3695285736e-01 2.6042211626e+00 -4.5106433678e+00 2.6042211626e+00 4.5106433678e+00 
1300 5.5985981773e+00 2.4598444812e-01 2.5996730898e+00 -4.5027658747e+00 2.5996730898e+00 4.5027658747e+00 
1400 5.6050724422e+00 2.5472600316e-01 2.5949434624e+00 -4.4945739197e+00 2.5949434624e+00 4.4945739197e+00 
1500 5.6110394802e+00 2.6317655610e-01 2.5900368902e+00 -4.4860754873e+00 2.5900368902e+00 4.4860754873e+00 
1600 5.6164773625e+00 2.7133372424e-01 2.5849579983e+00 -4.4772785885e+00 2.5849579983e+00 4.4772785885e+00 
1700 5.6213679887e+00 2.7919391144e-01 2.5797114581e+00 -4.4681913143e+00 2.5797114581e+00 4.4681913143e+00 
1800 5.6256970678e+00 2.8675251272e-01 2.5743020140e+00 -4.4588218823e+00 2.5743020140e+00 4.4588218823e+00 
1900 5.6294540876e+00 2.9400411892e-01 2.5687345070e+00 -4.4491786773e+00 2.5687345070e+00 4.4491786773e+00 
2000 5.6326322671e+00 3.0094272010e-01 2.5630138942e+00 -4.4392702853e+00 2.5630138942e+00 4.4392702853e+00 
2100 5.6352284922e+00 3.0756190570e-01 2.5571452650e+00 -4.4291055212e+00 2.5571452650e+00 4.4291055212e+00 
2200 5.6372432312e+00 3.1385505965e-01 2.5511338531e+00 -4.4186934504e+00 2.5511338531e+00 4.4186934504e+00 
2300 5.6386804304e+00 3.1981554823e-01 2.5449850454e+00 -4.4080434031e+00 2.5449850454e+00 4.4080434031e+00 
2400 5.6395473868e+00 3.2543689872e-01 2.5387043872e+00 -4.3971649840e+00 2.5387043872e+00 4.3971649840e+00 
2500 5.6398546013e+00 3.3071296661e-01 2.5322975835e+00 -4.3860680745e+00 2.5322975835e+00 4.3860680745e+00 
2600 5.6396156100e+00 3.3563808957e-01 2.5257704978e+00 -4.3747628304e+00 2.5257704978e+00 4.3747628304e+00 
2700 5.6388467960e+00 3.4020722630e-01 2.5191291472e+00 -4.3632596738e+00 2.5191291472e+00 4.3632596738e+00 
2800 5.6375671842e+00 3.4441607895e-01 2.5123796951e+00 -4.3515692798e+00 2.5123796951e+00 4.3515692798e+00 
2900 5.6357982200e+00 3.4826119797e-01 2.5055284408e+00 -4.3397025593e+00 2.5055284408e+00 4.3397025593e+00 
3000 5.6335635353e+00 3.5174006870e-01 2.4985818075e+00 -4.3276706374e+00 2.4985818075e+00 4.3276706374e+00 
3100 5.6308887046e+00 3.5485117953e-01 2.4915463273e+00 -4.3154848283e+00 2.4915463273e+00 4.3154848283e+00 
3200 5.6278009932e+00 3.5759407172e-01 2.4844286258e+00 -4.3031566077e+00 2.4844286258e+00 4.3031566077e+00 
3300 5.6243291025e+00 3.5996937154e-01 2.4772354039e+00 -4.2906975819e+00 2.4772354039e+00 4.2906975819e+00 
3400 5.6205029133e+00 3.6197880550e-01 2.4699734196e+00 -4.2781194560e+00 2.4699734196e+00 4.2781194560e+00 
3500 5.6163532309e+00 3.6362519997e-01 2.4626494684e+00 -4.2654340005e+00 2.4626494684e+00 4.2654340005e+00 
3600 5.6119115348e+00 3.6491246653e-01 2.4552703636e+00 -4.2526530161e+00 2.4552703636e+00 4.2526530161e+00 
3700 5.6072097347e+00 3.6584557452e-01 2.4478429162e+00 -4.2397882998e+00 2.4478429162e+00 4.2397882998e+00 
3800 5.6022799343e+00 3.6643051243e-01 2.4403739144e+00 -4.2268516093e+00 2.4403739144e+00 4.2268516093e+00 
3900 5.5971542069e+00 3.6667423972e-01 2.4328701043e+00 -4.2138546289e+00 2.4328701043e+00 4.2138546289e+00 
4000 5.5918643804e+00 3.6658463048e-01 2.4253381700e+00 -4.2008089360e+00 2.4253381700e+00 4.2008089360e+00 
4100 5.5864418371e+00 3.6617041065e-01 2.4177847150e+00 -4.1877259682e+00 2.4177847150e+00 4.1877259682e+00 
4200 5.5809173254e+00 3.6544108984e-01 2.4102162440e+00 -4.1746169918e+00 2.4102162440e+00 4.1746169918e+00 
4300 5.5753207861e+00 3.6440688936e-01 2.4026391457e+00 -4.1614930725e+00 2.4026391457e+00 4.1614930725e+00 
4400 5.5696811939e+00 3.6307866729e-01 2.3950596765e+00 -4.1483650469e+00 2.3950596765e+00 4.1483650469e+00 
4500 5.5640264132e+00 3.6146784181e-01 2.3874839456e+00 -4.1352434961e+00 2.3874839456e+00 4.1352434961e+00 
4600 5.5583830691e+00 3.5958631366e-01 2.3799179007e+00 -4.1221387219e+00 2.3799179007e+00 4.1221387219e+00 
4700 5.5527764340e+00 3.5744638856e-01 2.3723673153e+00 -4.1090607243e+00 2.3723673153e+00 4.1090607243e+00 
4800 5.5472303288e+00 3.5506070030e-01 2.3648377771e+00 -4.0960191816e+00 2.3648377771e+00 4.0960191816e+00 
4900 5.5417670401e+00 3.5244213523e-01 2.3573346779e+00 -4.0830234326e+00 2.3573346779e+00 4.0830234326e+00 
5000 5.5364072515e+00 3.4960375871e-01 2.3498632045e+00 -4.0700824610e+00 2.3498632045e+00 4.0700824610e+00 
5100 5.5311699902e+00 3.4655874394e-01 2.3424283308e+00 -4.0572048821e+00 2.3424283308e+00 4.0572048821e+00 
5200 5.5260725877e+00 3.4332030390e-01 2.3350348120e+00 -4.0443989318e+00 2.3350348120e+00 4.0443989318e+00 
5300 5.5211306548e+00 3.3990162652e-01 2.3276871788e+00 -4.0316724578e+00 2.3276871788e+00 4.0316724578e+00 
5400 5.5163580698e+00 3.3631581354e-01 2.3203897340e+00 -4.0190329127e+00 2.3203897340e+00 4.0190329127e+00 
5500 5.5117669797e+00 3.3257582345e-01 2.3131465499e+00 -4.0064873497e+00 2.3131465499e+00 4.0064873497e+00 
5600 5.5073678141e+00 3.2869441861e-01 2.3059614664e+00 -3.9940424200e+00 2.3059614664e+00 3.9940424200e+00 
5700 5.5031693102e+00 3.2468411672e-01 2.2988380911e+00 -3.9817043722e+00 2.2988380911e+00 3.9817043722e+00 
5800 5.4991785493e+00 3.2055714697e-01 2.2917798000e+00 -3.9694790534e+00 2.2917798000e+00 3.9694790534e+00 
5900 5.4954010024e+00 3.1632541067e-01 2.2847897390e+00 -3.9573719126e+00 2.2847897390e+00 3.9573719126e+00 
6000 5.4918405862e+00 3.1200044662e-01 2.2778708268e+00 -3.9453880051e+00 2.2778708268e+00 3.9453880051e+00 
6100 5.4884997258e+00 3.0759340103e-01 2.2710257583e+00 -3.9335319987e+00 2.2710257583e+00 3.9335319987e+00 
6200 5.4853794262e+00 3.0311500211e-01 2.2642570092e+00 -3.9218081814e+00 2.2642570092e+00 3.9218081814e+00 
6300 5.4824793493e+00 2.9857553899e-01 2.2575668407e+00 -3.9102204696e+00 2.2575668407e+00 3.9102204696e+00 
6400 5.4797978958e+00 2.9398484503e-01 2.2509573056e+00 -3.8987724189e+00 2.2509573056e+00 3.8987724189e+00 
6500 5.4773322928e+00 2.8935228528e-01 2.2444302541e+00 -3.8874672341e+00 2.2444302541e+00 3.8874672341e+00 
6600 5.4750786834e+00 2.8468674781e-01 2.2379873409e+00 -3.8763077812e+00 2.2379873409e+00 3.8763077812e+00 
6700 5.4730322197e+00 2.7999663883e-01 2.2316300325e+00 -3.8652965999e+00 2.2316300325e+00 3.8652965999e+00 
6800 5.4711871567e+00 2.7528988119e-01 2.2253596140e+00 -3.8544359165e+00 2.2253596140e+00 3.8544359165e+00 
6900 5.4695369477e+00 2.7057391619e-01 2.2191771975e+00 -3.8437276570e+00 2.2191771975e+00 3.8437276570e+00 
7000 5.4680743384e+00 2.6585570819e-01 2.2130837297e+00 -3.8331734613e+00 2.2130837297e+00 3.8331734613e+00 
7100 5.4667914614e+00 2.6114175200e-01 2.2070800002e+00 -3.8227746967e+00 2.2070800002e+00 3.8227746967e+00 
7200 5.4656799280e+00 2.5643808254e-01 2.2011666492e+00 -3.8125324723e+00 2.2011666492e+00 3.8125324723e+00 
7300 5.4647309186e+00 2.5175028670e-01 2.1953441759e+00 -3.8024476528e+00 2.1953441759e+00 3.8024476528e+00 
7400 5.4639352697e+00 2.4708351689e-01 2.1896129467e+00 -3.7925208726e+00 2.1896129467e+00 3.7925208726e+00 
7500 5.4632835576e+00 2.4244250625e-01 2.1839732027e+00 -3.7827525495e+00 2.1839732027e+00 3.7827525495e+00 
7600 5.4627661787e+00 2.3783158510e-01 2.1784250680e+00 -3.7731428982e+00 2.1784250680e+00 3.7731428982e+00 
7700 5.4623734252e+00 2.3325469839e-01 2.1729685570e+00 -3.7636919439e+00 2.1729685570e+00 3.7636919439e+00 
7800 5.4620955566e+00 2.2871542403e-01 2.1676035820e+00 -3.7543995347e+00 2.1676035820e+00 3.7543995347e+00 
7900 5.4619228659e+00 2.2421699171e-01 2.1623299605e+00 -3.7452653543e+00 2.1623299605e+00 3.7452653543e+00 
8000 5.4618457419e+00 2.1976230216e-01 2.1571474217e+00 -3.7362889338e+00 2.1571474217e+00 3.7362889338e+00 
8100 5.4618547252e+00 2.1535394653e-01 2.1520556138e+00 -3.7274696638e+00 2.1520556138e+00 3.7274696638e+00 
8200 5.4619405597e+00 2.1099422581e-01 2.1470541096e+00 -3.7188068044e+00 2.1470541096e+00 3.7188068044e+00 
8300 5.4620942392e+00 2.0668517010e-01 2.1421424131e+00 -3.7102994965e+00 2.1421424131e+00 3.7102994965e+00 
8400 5.4623070479e+00 2.0242855753e-01 2.1373199649e+00 -3.7019467712e+00 2.1373199649e+00 3.7019467712e+00 
8500 5.4625705967e+00 1.9822593279e-01 2.1325861477e+00 -3.6937475593e+00 2.1325861477e+00 3.6937475593e+00 
8600 5.4628768541e+00 1.9407862517e-01 2.1279402914e+00 -3.6857007001e+00 2.1279402914e+00 3.6857007001e+00 
8700 5.4632181719e+00 1.8998776594e-01 2.1233816776e+00 -3.6778049495e+00 2.1233816776e+00 3.6778049495e+00 
8800 5.4635873073e+00 1.8595430501e-01 2.1189095445e+00 -3.6700589877e+00 2.1189095445e+00 3.6700589877e+00 
8900 5.4639774392e+00 1.8197902689e-01 2.1145230903e+00 -3.6624614262e+00 2.1145230903e+00 3.6624614262e+00 
9000 5.4643821813e+00 1.7806256582e-01 2.1102214778e+00 -3.6550108148e+00 2.1102214778e+00 3.6550108148e+00 
9100 5.4647955902e+00 1.7420542006e-01 2.1060038373e+00 -3.6477056472e+00 2.1060038373e+00 3.6477056472e+00 
9200 5.4652121706e+00 1.7040796533e-01 2.1018692701e+00 -3.6405443667e+00 2.1018692701e+00 3.6405443667e+00 
9300 5.4656268769e+00 1.6667046735e-01 2.0978168515e+00 -3.6335253717e+00 2.0978168515e+00 3.6335253717e+00 
9400 5.4660351106e+00 1.6299309357e-01 2.0938456333e+00 -3.6266470202e+00 2.0938456333e+00 3.6266470202e+00 
9500 5.4664327159e+00 1.5937592394e-01 2.0899546468e+00 -3.6199076338e+00 2.0899546468e+00 3.6199076338e+00 
9600 5.4668159724e+00 1.5581896088e-01 2.0861429044e+00 -3.6133055023e+00 2.0861429044e+00 3.6133055023e+00 
9700 5.4671815845e+00 1.5232213844e-01 2.0824094021e+00 -3.6068388867e+00 2.0824094021e+00 3.6068388867e+00 
9800 5.4675266699e+00 1.4888533059e-01 2.0787531213e+00 -3.6005060225e+00 2.0787531213e+00 3.6005060225e+00 
9900 5.4678487456e+00 1.4550835877e-01 2.0751730302e+00 -3.5943051229e+00 2.0751730302e+00 3.5943051229e+00 
10000 5.4681457119e+00 1.4219099871e-01 2.0716680860e+00 -3.5882343813e+00 2.0716680860e+00 3.5882343813e+00 
10100 5.4684158362e+00 1.3893298648e-01 2.0682372353e+00 -3.5822919736e+00 2.0682372353e+00 3.5822919736e+00 
10200 5.4686577344e+00 1.3573402396e-01 2.0648794164e+00 -3.5764760607e+00 2.0648794164e+00 3.5764760607e+00 
10300 5.4688703526e+00 1.3259378364e-01 2.0615935597e+00 -3.5707847899e+00 2.0615935597e+00 3.5707847899e+00 
10400 5.4690529469e+00 1.2951191281e-01 2.0583785890e+00 -3.5652162973e+00 2.0583785890e+00 3.5652162973e+00 
10500 5.4692050636e+00 1.2648803728e-01 2.0552334224e+00 -3.5597687089e+00 2.0552334224e+00 3.5597687089e+00 
10600 5.4693265191e+00 1.2352176452e-01 2.0521569731e+00 -3.5544401426e+00 2.0521569731e+00 3.5544401426e+00 
10700 5.4694173788e+00 1.2061268642e-01 2.0491481505e+00 -3.5492287088e+00 2.0491481505e+00 3.5492287088e+00 
10800 5.4694779373e+00 1.1776038158e-01 2.0462058602e+00 -3.5441325125e+00 2.0462058602e+00 3.5441325125e+00 
10900 5.4695086976e+00 1.1496441722e-01 2.0433290054e+00 -3.5391496539e+00 2.0433290054e+00 3.5391496539e+00 
11000 5.4695103514e+00 1.1222435079e-01 2.0405164872e+00 -3.5342782294e+00 2.0405164872e+00 3.5342782294e+00 
11100 5.4694837593e+00 1.0953973125e-01 2.0377672050e+00 -3.5295163331e+00 2.0377672050e+00 3.5295163331e+00 
11200 5.4694299318e+00 1.0691010005e-01 2.0350800576e+00 -3.5248620572e+00 2.0350800576e+00 3.5248620572e+00 
11300 5.4693500108e+00 1.0433499194e-01 2.0324539429e+00 -3.5203134931e+00 2.0324539429e+00 3.5203134931e+00 
11400 5.4692452517e+00 1.0181393548e-01 2.0298877592e+00 -3.5158687326e+00 2.0298877592e+00 3.5158687326e+00 
11500 5.4691170063e+00 9.9346453470e-02 2.0273804052e+00 -3.5115258680e+00 2.0273804052e+00 3.5115258680e+00 
11600 5.4689667065e+00 9.6932063134e-02 2.0249307805e+00 -3.5072829937e+00 2.0249307805e+00 3.5072829937e+00 
11700 5.4687958488e+00 9.4570276227e-02 2.0225377865e+00 -3.5031382065e+00 2.0225377865e+00 3.5031382065e+00 
11800 5.4686059796e+00 9.2260599005e-02 2.0202003262e+00 -3.4990896065e+00 2.0202003262e+00 3.4990896065e+00 
11900 5.4683986811e+00 9.0002532122e-02 2.0179173051e+00 -3.4951352980e+00 2.0179173051e+00 3.4951352980e+00 
12000 5.4681755590e+00 8.7795570441e-02 2.0156876316e+00 -3.4912733901e+00 2.0156876316e+00 3.4912733901e+00 
12100 5.4679382300e+00 8.5639202795e-02 2.0135102172e+00 -3.4875019978e+00 2.0135102172e+00 3.4875019978e+00 
12200 5.4676883108e+00 8.3532911708e-02 2.0113839774e+00 -3.4838192424e+00 2.0113839774e+00 3.4838192424e+00 
12300 5.4674274076e+00 8.1476173086e-02 2.0093078317e+00 -3.4802232526e+00 2.0093078317e+00 3.4802232526e+00 
12400 5.4671571072e+00 7.9468455891e-02 2.0072807044e+00 -3.4767121650e+00 2.0072807044e+00 3.4767121650e+00 
12500 5.4668789681e+00 7.7509221806e-02 2.0053015247e+00 -3.4732841254e+00 2.0053015247e+00 3.4732841254e+00 
12600 5.4665945128e+00 7.5597924912e-02 2.0033692278e+00 -3.4699372889e+00 2.0033692278e+00 3.4699372889e+00 
12700 5.4663052213e+00 7.3734011361e-02 2.0014827546e+00 -3.4666698214e+00 2.0014827546e+00 3.4666698214e+00 
12800 5.4660125243e+00 7.1916919083e-02 1.9996410527e+00 -3.4634799002e+00 1.9996410527e+00 3.4634799002e+00 
12900 5.4657177986e+00 7.0146077499e-02 1.9978430768e+00 -3.4603657145e+00 1.9978430768e+00 3.4603657145e+00 
13000 5.4654223619e+00 6.8420907275e-02 1.9960877889e+00 -3.4573254667e+00 1.9960877889e+00 3.4573254667e+00 
13100 5.4651274693e+00 6.6740820100e-02 1.9943741591e+00 -3.4543573729e+00 1.9943741591e+00 3.4543573729e+00 
13200 5.4648343095e+00 6.5105218503e-02 1.9927011661e+00 -3.4514596641e+00 1.9927011661e+00 3.4514596641e+00 
13300 5.4645440028e+00 6.3513495706e-02 1.9910677974e+00 -3.4486305864e+00 1.9910677974e+00 3.4486305864e+00 
13400 5.4642575986e+00 6.1965035515e-02 1.9894730499e+00 -3.4458684027e+00 1.9894730499e+00 3.4458684027e+00 
13500 5.4639760737e+00 6.0459212257e-02 1.9879159304e+00 -3.4431713926e+00 1.9879159304e+00 3.4431713926e+00 
13600 5.4637003319e+00 5.8995390756e-02 1.9863954562e+00 -3.4405378540e+00 1.9863954562e+00 3.4405378540e+00 
13700 5.4634312030e+00 5.7572926352e-02 1.9849106553e+00 -3.4379661034e+00 1.9849106553e+00 3.4379661034e+00 
13800 5.4631694429e+00 5.6191164962e-02 1.9834605671e+00 -3.4354544770e+00 1.9834605671e+00 3.4354544770e+00 
13900 5.4629157336e+00 5.4849443189e-02 1.9820442427e+00 -3.4330013312e+00 1.9820442427e+00 3.4330013312e+00 
14000 5.4626706847e+00 5.3547088470e-02 1.9806607454e+00 -3.4306050436e+00 1.9806607454e+00 3.4306050436e+00 
14100 5.4624348334e+00 5.2283419263e-02 1.9793091511e+00 -3.4282640137e+00 1.9793091511e+00 3.4282640137e+00 
14200 5.4622086468e+00 5.1057745287e-02 1.9779885489e+00 -3.4259766635e+00 1.9779885489e+00 3.4259766635e+00 
14300 5.4619925230e+00 4.9869367785e-02 1.9766980412e+00 -3.4237414386e+00 1.9766980412e+00 3.4237414386e+00 
14400 5.4617867931e+00 4.8717579843e-02 1.9754367444e+00 -3.4215568084e+00 1.9754367444e+00 3.4215568084e+00 
14500 5.4615917235e+00 4.7601666738e-02 1.9742037890e+00 -3.4194212670e+00 1.9742037890e+00 3.4194212670e+00 
14600 5.4614075178e+00 4.6520906322e-02 1.9729983202e+00 -3.4173333339e+00 1.9729983202e+00 3.4173333339e+00 
14700 5.4612343200e+00 4.5474569446e-02 1.9718194984e+00 -3.4152915546e+00 1.9718194984e+00 3.4152915546e+00 
14800 5.4610722163e+00 4.4461920412e-02 1.9706664990e+00 -3.4132945010e+00 1.9706664990e+00 3.4132945010e+00 
14900 5.4609212387e+00 4.3482217461e-02 1.9695385132e+00 -3.4113407723e+00 1.9695385132e+00 3.4113407723e+00 
15000 5.4607813670e+00 4.2534713289e-02 1.9684347482e+00 -3.4094289952e+00 1.9684347482e+00 3.4094289952e+00 
15100 5.4606525326e+00 4.1618655589e-02 1.9673544274e+00 -3.4075578247e+00 1.9673544274e+00 3.4075578247e+00 
15200 5.4605346208e+00 4.0733287623e-02 1.9662967907e+00 -3.4057259442e+00 1.9662967907e+00 3.4057259442e+00 
15300 5.4604274742e+00 3.9877848819e-02 1.9652610948e+00 -3.4039320664e+00 1.9652610948e+00 3.4039320664e+00 
15400 5.4603308959e+00 3.9051575380e-02 1.9642466134e+00 -3.4021749331e+00 1.9642466134e+00 3.4021749331e+00 
15500 5.4602446522e+00 3.8253700932e-02 1.9632526374e+00 -3.4004533161e+00 1.9632526374e+00 3.4004533161e+00 
15600 5.4601684760e+00 3.7483457170e-02 1.9622784751e+00 -3.3987660175e+00 1.9622784751e+00 3.3987660175e+00 
15700 5.4601020696e+00 3.6740074538e-02 1.9613234523e+00 -3.3971118694e+00 1.9613234523e+00 3.3971118694e+00 
15800 5.4600451081e+00 3.6022782908e-02 1.9603869125e+00 -3.3954897349e+00 1.9603869125e+00 3.3954897349e+00 
15900 5.4599972419e+00 3.5330812284e-02 1.9594682171e+00 -3.3938985078e+00 1.9594682171e+00 3.3938985078e+00 
16000 5.4599581001e+00 3.4663393510e-02 1.9585667454e+00 -3.3923371131e+00 1.9585667454e+00 3.3923371131e+00 
16100 5.4599272931e+00 3.4019758985e-02 1.9576818948e+00 -3.3908045068e+00 1.9576818948e+00 3.3908045068e+00 
16200 5.4599044152e+00 3.3399143388e-02 1.9568130804e+00 -3.3892996762e+00 1.9568130804e+00 3.3892996762e+00 
16300 5.4598890479e+00 3.2800784405e-02 1.9559597359e+00 -3.3878216402e+00 1.9559597359e+00 3.3878216402e+00 
16400 5.4598807620e+00 3.2223923457e-02 1.9551213127e+00 -3.3863694486e+00 1.9551213127e+00 3.3863694486e+00 
16500 5.4598791204e+00 3.1667806431e-02 1.9542972805e+00 -3.3849421829e+00 1.9542972805e+00 3.3849421829e+00 
16600 5.4598836802e+00 3.1131684406e-02 1.9534871270e+00 -3.3835389558e+00 1.9534871270e+00 3.3835389558e+00 
16700 5.4598939956e+00 3.0614814373e-02 1.9526903578e+00 -3.3821589111e+00 1.9526903578e+00 3.3821589111e+00 
16800 5.4599096195e+00 3.0116459956e-02 1.9519064965e+00 -3.3808012236e+00 1.9519064965e+00 3.3808012236e+00 
16900 5.4599301059e+00 2.9635892118e-02 1.9511350847e+00 -3.3794650992e+00 1.9511350847e+00 3.3794650992e+00 
17000 5.4599550120e+00 2.9172389859e-02 1.9503756814e+00 -3.3781497740e+00 1.9503756814e+00 3.3781497740e+00 
17100 5.4599838998e+00 2.8725240902e-02 1.9496278633e+00 -3.3768545151e+00 1.9496278633e+00 3.3768545151e+00 
17200 5.4600163378e+00 2.8293742366e-02 1.9488912245e+00 -3.3755786192e+00 1.9488912245e+00 3.3755786192e+00 
17300 5.4600519031e+00 2.7877201419e-02 1.9481653763e+00 -3.3743214132e+00 1.9481653763e+00 3.3743214132e+00 
17400 5.4600901824e+00 2.7474935921e-02 1.9474499469e+00 -3.3730822532e+00 1.9474499469e+00 3.3730822532e+00 
17500 5.4601307735e+00 2.7086275038e-02 1.9467445815e+00 -3.3718605245e+00 1.9467445815e+00 3.3718605245e+00 
17600 5.4601732867e+00 2.6710559843e-02 1.9460489416e+00 -3.3706556409e+00 1.9460489416e+00 3.3706556409e+00 
17700 5.4602173459e+00 2.6347143891e-02 1.9453627053e+00 -3.3694670448e+00 1.9453627053e+00 3.3694670448e+00 
17800 5.4602625894e+00 2.5995393766e-02 1.9446855664e+00 -3.3682942058e+00 1.9446855664e+00 3.3682942058e+00 
17900 5.4603086711e+00 2.5654689611e-02 1.9440172346e+00 -3.3671366212e+00 1.9440172346e+00 3.3671366212e+00 
18000 5.4603552611e+00 2.5324425621e-02 1.9433574350e+00 -3.3659938147e+00 1.9433574350e+00 3.3659938147e+00 
18100 5.4604020465e+00 2.5004010515e-02 1.9427059076e+00 -3.3648653362e+00 1.9427059076e+00 3.3648653362e+00 
18200 5.4604487317e+00 2.4692867975e-02 1.9420624075e+00 -3.3637507613e+00 1.9420624075e+00 3.3637507613e+00 
18300 5.4604950392e+00 2.4390437054e-02 1.9414267039e+00 -3.3626496904e+00 1.9414267039e+00 3.3626496904e+00 
18400 5.4605407096e+00 2.4096172552e-02 1.9407985803e+00 -3.3615617483e+00 1.9407985803e+00 3.3615617483e+00 
18500 5.4605855021e+00 2.3809545362e-02 1.9401778335e+00 -3.3604865834e+00 1.9401778335e+00 3.3604865834e+00 
18600 5.4606291946e+00 2.3530042780e-02 1.9395642741e+00 -3.3594238672e+00 1.9395642741e+00 3.3594238672e+00 
18700 5.4606715837e+00 2.3257168783e-02 1.9389577251e+00 -3.3583732935e+00 1.9389577251e+00 3.3583732935e+00 
18800 5.4607124847e+00 2.2990444267e-02 1.9383580222e+00 -3.3573345777e+00 1.9383580222e+00 3.3573345777e+00 
18900 5.4607517312e+00 2.2729407258e-02 1.9377650133e+00 -3.3563074562e+00 1.9377650133e+00 3.3563074562e+00 
19000 5.4607891756e+00 2.2473613083e-02 1.9371785578e+00 -3.3552916854e+00 1.9371785578e+00 3.3552916854e+00 
19100 5.4608246879e+00 2.2222634503e-02 1.9365985263e+00 -3.3542870414e+00 1.9365985263e+00 3.3542870414e+00 
19200 5.4608581564e+00 2.1976061820e-02 1.9360248003e+00 -3.3532933189e+00 1.9360248003e+00 3.3532933189e+00 
19300 5.4608894862e+00 2.1733502935e-02 1.9354572717e+00 -3.3523103305e+00 1.9354572717e+00 3.3523103305e+00 
19400 5.4609185995e+00 2.1494583384e-02 1.9348958424e+00 -3.3513379063e+00 1.9348958424e+00 3.3513379063e+00 
19500 5.4609454350e+00 2.1258946329e-02 1.9343404234e+00 -3.3503758925e+00 1.9343404234e+00 3.3503758925e+00 
19600 5.4609699467e+00 2.1026252523e-02 1.9337909354e+00 -3.3494241513e+00 1.9337909354e+00 3.3494241513e+00 
19700 5.4609921043e+00 2.0796180234e-02 1.9332473071e+00 -3.3484825596e+00 1.9332473071e+00 3.3484825596e+00 
19800 5.4610118915e+00 2.0568425140e-02 1.9327094759e+00 -3.3475510086e+00 1.9327094759e+00 3.3475510086e+00 
19900 5.4610293059e+00 2.0342700193e-02 1.9321773866e+00 -3.3466294028e+00 1.9321773866e+00 3.3466294028e+00 
20000 5.4610443584e+00 2.0118735446e-02 1.9316509915e+00 -3.3457176597e+00 1.9316509915e+00 3.3457176597e+00 
20100 5.4610570718e+00 1.9896277858e-02 1.9311302496e+00 -3.3448157083e+00 1.9311302496e+00 3.3448157083e+00 
20200 5.4610674807e+00 1.9675091061e-02 1.9306151266e+00 -3.3439234890e+00 1.9306151266e+00 3.3439234890e+00 
20300 5.4610756303e+00 1.9454955105e-02 1.9301055940e+00 -3.3430409528e+00 1.9301055940e+00 3.3430409528e+00 
20400 5.4610815757e+00 1.9235666177e-02 1.9296016291e+00 -3.3421680600e+00 1.9296016291e+00 3.3421680600e+00 
20500 5.4610853812e+00 1.9017036288e-02 1.9291032144e+00 -3.3413047804e+00 1.9291032144e+00 3.3413047804e+00 
20600 5.4610871193e+00 1.8798892944e-02 1.9286103370e+00 -3.3404510917e+00 1.9286103370e+00 3.3404510917e+00 
20700 5.4610868700e+00 1.8581078791e-02 1.9281229887e+00 -3.3396069796e+00 1.9281229887e+00 3.3396069796e+00 
20800 5.4610847201e+00 1.8363451238e-02 1.9276411650e+00 -3.3387724366e+00 1.9276411650e+00 3.3387724366e+00 
20900 5.4610807621e+00 1.8145882063e-02 1.9271648654e+00 -3.3379474615e+00 1.9271648654e+00 3.3379474615e+00 
21000 5.4610750935e+00 1.7928257001e-02 1.9266940924e+00 -3.3371320588e+00 1.9266940924e+00 3.3371320588e+00 
21100 5.4610678165e+00 1.7710475316e-02 1.9262288516e+00 -3.3363262380e+00 1.9262288516e+00 3.3363262380e+00 
21200 5.4610590364e+00 1.7492449357e-02 1.9257691510e+00 -3.3355300132e+00 1.9257691510e+00 3.3355300132e+00 
21300 5.4610488615e+00 1.7274104104e-02 1.9253150010e+00 -3.3347434023e+00 1.9253150010e+00 3.3347434023e+00 
21400 5.4610374023e+00 1.7055376702e-02 1.9248664138e+00 -3.3339664265e+00 1.9248664138e+00 3.3339664265e+00 
21500 5.4610247707e+00 1.6836215985e-02 1.9244234033e+00 -3.3331991097e+00 1.9244234033e+00 3.3331991097e+00 
21600 5.4610110791e+00 1.6616581992e-02 1.9239859845e+00 -3.3324414782e+00 1.9239859845e+00 3.3324414782e+00 
21700 5.4609964404e+00 1.6396445482e-02 1.9235541737e+00 -3.3316935599e+00 1.9235541737e+00 3.3316935599e+00 
21800 5.4609809669e+00 1.6175787434e-02 1.9231279876e+00 -3.3309553840e+00 1.9231279876e+00 3.3309553840e+00 
21900 5.4609647697e+00 1.5954598556e-02 1.9227074436e+00 -3.3302269804e+00 1.9227074436e+00 3.3302269804e+00 
22000 5.4609479585e+00 1.5732878786e-02 1.9222925593e+00 -3.3295083797e+00 1.9222925593e+00 3.3295083797e+00 
22100 5.4609306411e+00 1.5510636793e-02 1.9218833520e+00 -3.3287996120e+00 1.9218833520e+00 3.3287996120e+00 
22200 5.4609129225e+00 1.5287889480e-02 1.9214798392e+00 -3.3281007071e+00 1.9214798392e+00 3.3281007071e+00 
22300 5.4608949051e+00 1.5064661496e-02 1.9210820374e+00 -3.3274116942e+00 1.9210820374e+00 3.3274116942e+00 
22400 5.4608766876e+00 1.4840984740e-02 1.9206899628e+00 -3.3267326011e+00 1.9206899628e+00 3.3267326011e+00 
22500 5.4608583655e+00 1.4616897883e-02 1.9203036306e+00 -3.3260634542e+00 1.9203036306e+00 3.3260634542e+00 
22600 5.4608400299e+00 1.4392445888e-02 1.9199230550e+00 -3.3254042779e+00 1.9199230550e+00 3.3254042779e+00 
22700 5.4608217680e+00 1.4167679541e-02 1.9195482489e+00 -3.3247550946e+00 1.9195482489e+00 3.3247550946e+00 
22800 5.4608036624e+00 1.3942654991e-02 1.9191792239e+00 -3.3241159246e+00 1.9191792239e+00 3.3241159246e+00 
22900 5.4607857909e+00 1.3717433296e-02 1.9188159901e+00 -3.3234867852e+00 1.9188159901e+00 3.3234867852e+00 
23000 5.4607682266e+00 1.3492079986e-02 1.9184585559e+00 -3.3228676911e+00 1.9184585559e+00 3.3228676911e+00 
23100 5.4607510377e+00 1.3266664633e-02 1.9181069281e+00 -3.3222586539e+00 1.9181069281e+00 3.3222586539e+00 
23200 5.4607342871e+00 1.3041260429e-02 1.9177611115e+00 -3.3216596819e+00 1.9177611115e+00 3.3216596819e+00 
23300 5.4607180326e+00 1.2815943785e-02 1.9174211089e+00 -3.3210707801e+00 1.9174211089e+00 3.3210707801e+00 
23400 5.4607023271e+00 1.2590793937e-02 1.9170869212e+00 -3.3204919500e+00 1.9170869212e+00 3.3204919500e+00 
23500 5.4606872178e+00 1.2365892569e-02 1.9167585471e+00 -3.3199231894e+00 1.9167585471e+00 3.3199231894e+00 
23600 5.4606727472e+00 1.2141323445e-02 1.9164359831e+00 -3.3193644921e+00 1.9164359831e+00 3.3193644921e+00 
23700 5.4606589525e+00 1.1917172063e-02 1.9161192235e+00 -3.3188158485e+00 1.9161192235e+00 3.3188158485e+00 
23800 5.4606458656e+00 1.1693525314e-02 1.9158082603e+00 -3.3182772445e+00 1.9158082603e+00 3.3182772445e+00 
23900 5.4606335139e+00 1.1470471165e-02 1.9155030833e+00 -3.3177486623e+00 1.9155030833e+00 3.3177486623e+00 
24000 5.4606219194e+00 1.1248098351e-02 1.9152036796e+00 -3.3172300800e+00 1.9152036796e+00 3.3172300800e+00 
24100 5.4606110999e+00 1.1026496081e-02 1.9149100343e+00 -3.3167214714e+00 1.9149100343e+00 3.3167214714e+00 
24200 5.4606010681e+00 1.0805753764e-02 1.9146221300e+00 -3.3162228064e+00 1.9146221300e+00 3.3162228064e+00 
24300 5.4605918328e+00 1.0585960748e-02 1.9143399466e+00 -3.3157340506e+00 1.9143399466e+00 3.3157340506e+00 
24400 5.4605833983e+00 1.0367206068e-02 1.9140634622e+00 -3.3152551654e+00 1.9140634622e+00 3.3152551654e+00 
24500 5.4605757648e+00 1.0149578216e-02 1.9137926519e+00 -3.3147861082e+00 1.9137926519e+00 3.3147861082e+00 
24600 5.4605689287e+00 9.9331649228e-03 1.9135274888e+00 -3.3143268322e+00 1.9135274888e+00 3.3143268322e+00 
24700 5.4605628831e+00 9.7180529523e-03 1.9132679435e+00 -3.3138772866e+00 1.9132679435e+00 3.3138772866e+00 
24800 5.4605576171e+00 9.5043279113e-03 1.9130139844e+00 -3.3134374165e+00 1.9130139844e+00 3.3134374165e+00 
24900 5.4605531173e+00 9.2920740719e-03 1.9127655773e+00 -3.3130071629e+00 1.9127655773e+00 3.3130071629e+00 
25000 5.4605493668e+00 9.0813742074e-03 1.9125226862e+00 -3.3125864631e+00 1.9125226862e+00 3.3125864631e+00 
25100 5.4605463464e+00 8.8723094411e-03 1.9122852723e+00 -3.3121752503e+00 1.9122852723e+00 3.3121752503e+00 
25200 5.4605440341e+00 8.6649591070e-03 1.9120532952e+00 -3.3117734540e+00 1.9120532952e+00 3.3117734540e+00 
25300 5.4605424059e+00 8.4594006226e-03 1.9118267119e+00 -3.3113810002e+00 1.9118267119e+00 3.3113810002e+00 
25400 5.4605414357e+00 8.2557093739e-03 1.9116054774e+00 -3.3109978110e+00 1.9116054774e+00 3.3109978110e+00 
25500 5.4605410958e+00 8.0539586103e-03 1.9113895450e+00 -3.3106238049e+00 1.9113895450e+00 3.3106238049e+00 
25600 5.4605413566e+00 7.8542193507e-03 1.9111788655e+00 -3.3102588974e+00 1.9111788655e+00 3.3102588974e+00 
25700 5.4605421877e+00 7.6565603006e-03 1.9109733882e+00 -3.3099030002e+00 1.9109733882e+00 3.3099030002e+00 
25800 5.4605435571e+00 7.4610477773e-03 1.9107730602e+00 -3.3095560221e+00 1.9107730602e+00 3.3095560221e+00 
25900 5.4605454324e+00 7.2677456457e-03 1.9105778272e+00 -3.3092178685e+00 1.9105778272e+00 3.3092178685e+00 
26000 5.4605477801e+00 7.0767152620e-03 1.9103876328e+00 -3.3088884421e+00 1.9103876328e+00 3.3088884421e+00 
26100 5.4605505666e+00 6.8880154267e-03 1.9102024190e+00 -3.3085676425e+00 1.9102024190e+00 3.3085676425e+00 
26200 5.4605537578e+00 6.7017023445e-03 1.9100221264e+00 -3.3082553666e+00 1.9100221264e+00 3.3082553666e+00 
26300 5.4605573196e+00 6.5178295922e-03 1.9098466939e+00 -3.3079515085e+00 1.9098466939e+00 3.3079515085e+00 
26400 5.4605612181e+00 6.3364480936e-03 1.9096760590e+00 -3.3076559601e+00 1.9096760590e+00 3.3076559601e+00 
26500 5.4605654193e+00 6.1576061007e-03 1.9095101576e+00 -3.3073686106e+00 1.9095101576e+00 3.3073686106e+00 
26600 5.4605698899e+00 5.9813491815e-03 1.9093489247e+00 -3.3070893469e+00 1.9093489247e+00 3.3070893469e+00 
26700 5.4605745971e+00 5.8077202129e-03 1.9091922936e+00 -3.3068180539e+00 1.9091922936e+00 3.3068180539e+00 
26800 5.4605795087e+00 5.6367593799e-03 1.9090401967e+00 -3.3065546144e+00 1.9090401967e+00 3.3065546144e+00 
26900 5.4605845933e+00 5.4685041791e-03 1.9088925653e+00 -3.3062989093e+00 1.9088925653e+00 3.3062989093e+00 
27000 5.4605898206e+00 5.3029894268e-03 1.9087493295e+00 -3.3060508176e+00 1.9087493295e+00 3.3060508176e+00 
27100 5.4605951610e+00 5.1402472721e-03 1.9086104185e+00 -3.3058102167e+00 1.9086104185e+00 3.3058102167e+00 
27200 5.4606005862e+00 4.9803072131e-03 1.9084757607e+00 -3.3055769825e+00 1.9084757607e+00 3.3055769825e+00 
27300 5.4606060690e+00 4.8231961178e-03 1.9083452835e+00 -3.3053509894e+00 1.9083452835e+00 3.3053509894e+00 
27400 5.4606115835e+00 4.6689382469e-03 1.9082189137e+00 -3.3051321105e+00 1.9082189137e+00 3.3051321105e+00 
27500 5.4606171051e+00 4.5175552814e-03 1.9080965774e+00 -3.3049202179e+00 1.9080965774e+00 3.3049202179e+00 
27600 5.4606226104e+00 4.3690663519e-03 1.9079782001e+00 -3.3047151823e+00 1.9079782001e+00 3.3047151823e+00 
27700 5.4606280778e+00 4.2234880704e-03 1.9078637066e+00 -3.3045168737e+00 1.9078637066e+00 3.3045168737e+00 
27800 5.4606334866e+00 4.0808345656e-03 1.9077530213e+00 -3.3043251612e+00 1.9077530213e+00 3.3043251612e+00 
27900 5.4606388179e+00 3.9411175187e-03 1.9076460684e+00 -3.3041399133e+00 1.9076460684e+00 3.3041399133e+00 
28000 5.4606440541e+00 3.8043462030e-03 1.9075427714e+00 -3.3039609976e+00 1.9075427714e+00 3.3039609976e+00 
28100 5.4606491792e+00 3.6705275231e-03 1.9074430537e+00 -3.3037882816e+00 1.9074430537e+00 3.3037882816e+00 
28200 5.4606541785e+00 3.5396660580e-03 1.9073468386e+00 -3.3036216322e+00 1.9073468386e+00 3.3036216322e+00 
28300 5.4606590388e+00 3.4117641035e-03 1.9072540491e+00 -3.3034609159e+00 1.9072540491e+00 3.3034609159e+00 
28400 5.4606637485e+00 3.2868217174e-03 1.9071646080e+00 -3.3033059994e+00 1.9071646080e+00 3.3033059994e+00 
28500 5.4606682970e+00 3.1648367653e-03 1.9070784383e+00 -3.3031567491e+00 1.9070784383e+00 3.3031567491e+00 
28600 5.4606726755e+00 3.0458049668e-03 1.9069954628e+00 -3.3030130314e+00 1.9069954628e+00 3.3030130314e+00 
28700 5.4606768764e+00 2.9297199439e-03 1.9069156046e+00 -3.3028747130e+00 1.9069156046e+00 3.3028747130e+00 
28800 5.4606808933e+00 2.8165732690e-03 1.9068387869e+00 -3.3027416607e+00 1.9068387869e+00 3.3027416607e+00 
28900 5.4606847212e+00 2.7063545145e-03 1.9067649328e+00 -3.3026137417e+00 1.9067649328e+00 3.3026137417e+00 
29000 5.4606883562e+00 2.5990513021e-03 1.9066939661e+00 -3.3024908237e+00 1.9066939661e+00 3.3024908237e+00 
29100 5.4606917956e+00 2.4946493537e-03 1.9066258105e+00 -3.3023727749e+00 1.9066258105e+00 3.3023727749e+00 
29200 5.4606950379e+00 2.3931325419e-03 1.9065603904e+00 -3.3022594638e+00 1.9065603904e+00 3.3022594638e+00 
29300 5.4606980826e+00 2.2944829417e-03 1.9064976302e+00 -3.3021507601e+00 1.9064976302e+00 3.3021507601e+00 
29400 5.4607009301e+00 2.1986808815e-03 1.9064374552e+00 -3.3020465339e+00 1.9064374552e+00 3.3020465339e+00 
29500 5.4607035818e+00 2.1057049956e-03 1.9063797909e+00 -3.3019466563e+00 1.9063797909e+00 3.3019466563e+00 
29600 5.4607060400e+00 2.0155322762e-03 1.9063245633e+00 -3.3018509993e+00 1.9063245633e+00 3.3018509993e+00 
29700 5.4607083078e+00 1.9281381259e-03 1.9062716992e+00 -3.3017594360e+00 1.9062716992e+00 3.3017594360e+00 
29800 5.4607103890e+00 1.8434964102e-03 1.9062211259e+00 -3.3016718404e+00 1.9062211259e+00 3.3016718404e+00 
29900 5.4607122881e+00 1.7615795105e-03 1.9061727713e+00 -3.3015880879e+00 1.9061727713e+00 3.3015880879e+00 
30000 5.4607140103e+00 1.6823583769e-03 1.9061265643e+00 -3.3015080550e+00 1.9061265643e+00 3.3015080550e+00 
30100 5.4607155612e+00 1.6058025810e-03 1.9060824342e+00 -3.3014316194e+00 1.9060824342e+00 3.3014316194e+00 
30200 5.4607169471e+00 1.5318803694e-03 1.9060403112e+00 -3.3013586603e+00 1.9060403112e+00 3.3013586603e+00 
30300 5.4607181745e+00 1.4605587162e-03 1.9060001264e+00 -3.3012890582e+00 1.9060001264e+00 3.3012890582e+00 
30400 5.4607192505e+00 1.3918033769e-03 1.9059618118e+00 -3.3012226954e+00 1.9059618118e+00 3.3012226954e+00 
30500 5.4607201825e+00 1.3255789406e-03 1.9059253001e+00 -3.3011594552e+00 1.9059253001e+00 3.3011594552e+00 
30600 5.4607209779e+00 1.2618488837e-03 1.9058905250e+00 -3.3010992230e+00 1.9058905250e+00 3.3010992230e+00 
30700 5.4607216446e+00 1.2005756229e-03 1.9058574212e+00 -3.3010418855e+00 1.9058574212e+00 3.3010418855e+00 
30800 5.4607221905e+00 1.1417205674e-03 1.9058259243e+00 -3.3009873312e+00 1.9058259243e+00 3.3009873312e+00 
30900 5.4607226237e+00 1.0852441729e-03 1.9057959709e+00 -3.3009354505e+00 1.9057959709e+00 3.3009354505e+00 
31000 5.4607229524e+00 1.0311059929e-03 1.9057674988e+00 -3.3008861353e+00 1.9057674988e+00 3.3008861353e+00 
31100 5.4607231847e+00 9.7926473260e-04 1.9057404466e+00 -3.3008392795e+00 1.9057404466e+00 3.3008392795e+00 
31200 5.4607233286e+00 9.2967830009e-04 1.9057147542e+00 -3.3007947789e+00 1.9057147542e+00 3.3007947789e+00 
31300 5.4607233923e+00 8.8230385922e-04 1.9056903623e+00 -3.3007525311e+00 1.9056903623e+00 3.3007525311e+00 
31400 5.4607233837e+00 8.3709788117e-04 1.9056672132e+00 -3.3007124356e+00 1.9056672132e+00 3.3007124356e+00 
31500 5.4607233106e+00 7.9401619624e-04 1.9056452499e+00 -3.3006743940e+00 1.9056452499e+00 3.3006743940e+00 
31600 5.4607231807e+00 7.5301404509e-04 1.9056244166e+00 -3.3006383098e+00 1.9056244166e+00 3.3006383098e+00 
31700 5.4607230013e+00 7.1404612989e-04 1.9056046590e+00 -3.3006040885e+00 1.9056046590e+00 3.3006040885e+00 
31800 5.4607227798e+00 6.7706666489e-04 1.9055859236e+00 -3.3005716379e+00 1.9055859236e+00 3.3005716379e+00 
31900 5.4607225231e+00 6.4202942683e-04 1.9055681583e+00 -3.3005408675e+00 1.9055681583e+00 3.3005408675e+00 
32000 5.4607222379e+00 6.0888780476e-04 1.9055513122e+00 -3.3005116892e+00 1.9055513122e+00 3.3005116892e+00 
32100 5.4607219306e+00 5.7759484952e-04 1.9055353355e+00 -3.3004840168e+00 1.9055353355e+00 3.3004840168e+00 
32200 5.4607216073e+00 5.4810332273e-04 1.9055201799e+00 -3.3004577664e+00 1.9055201799e+00 3.3004577664e+00 
32300 5.4607212739e+00 5.2036574520e-04 1.9055057979e+00 -3.3004328561e+00 1.9055057979e+00 3.3004328561e+00 
32400 5.4607209357e+00 4.9433444490e-04 1.9054921436e+00 -3.3004092062e+00 1.9054921436e+00 3.3004092062e+00 
32500 5.4607205981e+00 4.6996160424e-04 1.9054791723e+00 -3.3003867393e+00 1.9054791723e+00 3.3003867393e+00 
32600 5.4607202657e+00 4.4719930685e-04 1.9054668405e+00 -3.3003653799e+00 1.9054668405e+00 3.3003653799e+00 
32700 5.4607199429e+00 4.2599958356e-04 1.9054551059e+00 -3.3003450549e+00 1.9054551059e+00 3.3003450549e+00 
32800 5.4607196340e+00 4.0631445787e-04 1.9054439275e+00 -3.3003256934e+00 1.9054439275e+00 3.3003256934e+00 
32900 5.4607193426e+00 3.8809599052e-04 1.9054332655e+00 -3.3003072264e+00 1.9054332655e+00 3.3003072264e+00 
33000 5.4607190722e+00 3.7129632345e-04 1.9054230816e+00 -3.3002895873e+00 1.9054230816e+00 3.3002895873e+00 
33100 5.4607188258e+00 3.5586772285e-04 1.9054133385e+00 -3.3002727117e+00 1.9054133385e+00 3.3002727117e+00 
33200 5.4607186061e+00 3.4176262149e-04 1.9054040002e+00 -3.3002565372e+00 1.9054040002e+00 3.3002565372e+00 
33300 5.4607184156e+00 3.2893366004e-04 1.9053950319e+00 -3.3002410038e+00 1.9053950319e+00 3.3002410038e+00 
33400 5.4607182562e+00 3.1733372770e-04 1.9053864003e+00 -3.3002260533e+00 1.9053864003e+00 3.3002260533e+00 
33500 5.4607181298e+00 3.0691600165e-04 1.9053780730e+00 -3.3002116301e+00 1.9053780730e+00 3.3002116301e+00 
33600 5.4607180377e+00 2.9763398578e-04 1.9053700191e+00 -3.3001976803e+00 1.9053700191e+00 3.3001976803e+00 
33700 5.4607179810e+00 2.8944154825e-04 1.9053622087e+00 -3.3001841523e+00 1.9053622087e+00 3.3001841523e+00 
33800 5.4607179608e+00 2.8229295810e-04 1.9053546132e+00 -3.3001709966e+00 1.9053546132e+00 3.3001709966e+00 
33900 5.4607179774e+00 2.7614292079e-04 1.9053472054e+00 -3.3001581657e+00 1.9053472054e+00 3.3001581657e+00 
34000 5.4607180313e+00 2.7094661269e-04 1.9053399588e+00 -3.3001456144e+00 1.9053399588e+00 3.3001456144e+00 
34100 5.4607181225e+00 2.6665971439e-04 1.9053328487e+00 -3.3001332992e+00 1.9053328487e+00 3.3001332992e+00 
34200 5.4607182508e+00 2.6323844296e-04 1.9053258509e+00 -3.3001211788e+00 1.9053258509e+00 3.3001211788e+00 
34300 5.4607184159e+00 2.6063958297e-04 1.9053189430e+00 -3.3001092139e+00 1.9053189430e+00 3.3001092139e+00 
34400 5.4607186172e+00 2.5882051639e-04 1.9053121032e+00 -3.3000973670e+00 1.9053121032e+00 3.3000973670e+00 
34500 5.4607188538e+00 2.5773925130e-04 1.9053053111e+00 -3.3000856028e+00 1.9053053111e+00 3.3000856028e+00 
34600 5.4607191250e+00 2.5735444929e-04 1.9052985474e+00 -3.3000738877e+00 1.9052985474e+00 3.3000738877e+00 
34700 5.4607194296e+00 2.5762545171e-04 1.9052917938e+00 -3.3000621900e+00 1.9052917938e+00 3.3000621900e+00 
34800 5.4607197663e+00 2.5851230467e-04 1.9052850330e+00 -3.3000504800e+00 1.9052850330e+00 3.3000504800e+00 
34900 5.4607201337e+00 2.5997578270e-04 1.9052782489e+00 -3.3000387296e+00 1.9052782489e+00 3.3000387296e+00 
35000 5.4607205304e+00 2.6197741121e-04 1.9052714264e+00 -3.3000269127e+00 1.9052714264e+00 3.3000269127e+00 
35100 5.4607209549e+00 2.6447948761e-04 1.9052645513e+00 -3.3000150047e+00 1.9052645513e+00 3.3000150047e+00 
35200 5.4607214054e+00 2.6744510121e-04 1.9052576106e+00 -3.3000029830e+00 1.9052576106e+00 3.3000029830e+00 
35300 5.4607218802e+00 2.7083815170e-04 1.9052505920e+00 -3.2999908264e+00 1.9052505920e+00 3.2999908264e+00 
35400 5.4607223775e+00 2.7462336646e-04 1.9052434843e+00 -3.2999785156e+00 1.9052434843e+00 3.2999785156e+00 
35500 5.4607228955e+00 2.7876631647e-04 1.9052362773e+00 -3.2999660326e+00 1.9052362773e+00 3.2999660326e+00 
35600 5.4607234323e+00 2.8323343097e-04 1.9052289615e+00 -3.2999533613e+00 1.9052289615e+00 3.2999533613e+00 
35700 5.4607239860e+00 2.8799201079e-04 1.9052215284e+00 -3.2999404869e+00 1.9052215284e+00 3.2999404869e+00 
35800 5.4607245547e+00 2.9301024041e-04 1.9052139705e+00 -3.2999273961e+00 1.9052139705e+00 3.2999273961e+00 
35900 5.4607251365e+00 2.9825719868e-04 1.9052062808e+00 -3.2999140772e+00 1.9052062808e+00 3.2999140772e+00 
36000 5.4607257296e+00 3.0370286835e-04 1.9051984533e+00 -3.2999005197e+00 1.9051984533e+00 3.2999005197e+00 
36100 5.4607263320e+00 3.0931814420e-04 1.9051904830e+00 -3.2998867146e+00 1.9051904830e+00 3.2998867146e+00 
36200 5.4607269420e+00 3.1507484007e-04 1.9051823652e+00 -3.2998726542e+00 1.9051823652e+00 3.2998726542e+00 
36300 5.4607275577e+00 3.2094569444e-04 1.9051740963e+00 -3.2998583321e+00 1.9051740963e+00 3.2998583321e+00 
36400 5.4607281774e+00 3.2690437503e-04 1.9051656733e+00 -3.2998437430e+00 1.9051656733e+00 3.2998437430e+00 
36500 5.4607287994e+00 3.3292548194e-04 1.9051570939e+00 -3.2998288831e+00 1.9051570939e+00 3.2998288831e+00 
36600 5.4607294220e+00 3.3898454979e-04 1.9051483564e+00 -3.2998137493e+00 1.9051483564e+00 3.2998137493e+00 
36700 5.4607300436e+00 3.4505804857e-04 1.9051394599e+00 -3.2997983401e+00 1.9051394599e+00 3.2997983401e+00 
36800 5.4607306628e+00 3.5112338339e-04 1.9051304039e+00 -3.2997826547e+00 1.9051304039e+00 3.2997826547e+00 
36900 5.4607312781e+00 3.5715889308e-04 1.9051211887e+00 -3.2997666935e+00 1.9051211887e+00 3.2997666935e+00 
37000 5.4607318881e+00 3.6314384775e-04 1.9051118151e+00 -3.2997504578e+00 1.9051118151e+00 3.2997504578e+00 
37100 5.4607324915e+00 3.6905844513e-04 1.9051022843e+00 -3.2997339501e+00 1.9051022843e+00 3.2997339501e+00 
37200 5.4607330873e+00 3.7488380608e-04 1.9050925983e+00 -3.2997171733e+00 1.9050925983e+00 3.2997171733e+00 
37300 5.4607336741e+00 3.8060196886e-04 1.9050827593e+00 -3.2997001317e+00 1.9050827593e+00 3.2997001317e+00 
37400 5.4607342511e+00 3.8619588256e-04 1.9050727702e+00 -3.2996828301e+00 1.9050727702e+00 3.2996828301e+00 
37500 5.4607348171e+00 3.9164939952e-04 1.9050626342e+00 -3.2996652740e+00 1.9050626342e+00 3.2996652740e+00 
37600 5.4607353715e+00 3.9694726684e-04 1.9050523550e+00 -3.2996474700e+00 1.9050523550e+00 3.2996474700e+00 
37700 5.4607359134e+00 4.0207511692e-04 1.9050419368e+00 -3.2996294250e+00 1.9050419368e+00 3.2996294250e+00 
37800 5.4607364421e+00 4.0701945733e-04 1.9050313839e+00 -3.2996111469e+00 1.9050313839e+00 3.2996111469e+00 
37900 5.4607369570e+00 4.1176765960e-04 1.9050207011e+00 -3.2995926438e+00 1.9050207011e+00 3.2995926438e+00 
38000 5.4607374576e+00 4.1630794744e-04 1.9050098937e+00 -3.2995739248e+00 1.9050098937e+00 3.2995739248e+00 
38100 5.4607379435e+00 4.2062938411e-04 1.9049989671e+00 -3.2995549993e+00 1.9049989671e+00 3.2995549993e+00 
38200 5.4607384142e+00 4.2472185900e-04 1.9049879269e+00 -3.2995358772e+00 1.9049879269e+00 3.2995358772e+00 
38300 5.4607388696e+00 4.2857607372e-04 1.9049767793e+00 -3.2995165690e+00 1.9049767793e+00 3.2995165690e+00 
38400 5.4607393094e+00 4.3218352735e-04 1.9049655305e+00 -3.2994970854e+00 1.9049655305e+00 3.2994970854e+00 
38500 5.4607397334e+00 4.3553650118e-04 1.9049541869e+00 -3.2994774377e+00 1.9049541869e+00 3.2994774377e+00 
38600 5.4607401416e+00 4.3862804286e-04 1.9049427552e+00 -3.2994576375e+00 1.9049427552e+00 3.2994576375e+00 
38700 5.4607405340e+00 4.4145195001e-04 1.9049312423e+00 -3.2994376966e+00 1.9049312423e+00 3.2994376966e+00 
38800 5.4607409106e+00 4.4400275332e-04 1.9049196552e+00 -3.2994176272e+00 1.9049196552e+00 3.2994176272e+00 
38900 5.4607412716e+00 4.4627569922e-04 1.9049080011e+00 -3.2993974417e+00 1.9049080011e+00 3.2993974417e+00 
39000 5.4607416172e+00 4.4826673207e-04 1.9048962873e+00 -3.2993771528e+00 1.9048962873e+00 3.2993771528e+00 
39100 5.4607419475e+00 4.4997247602e-04 1.9048845212e+00 -3.2993567732e+00 1.9048845212e+00 3.2993567732e+00 
39200 5.4607422629e+00 4.5139021648e-04 1.9048727102e+00 -3.2993363159e+00 1.9048727102e+00 3.2993363159e+00 
39300 5.4607425636e+00 4.5251788127e-04 1.9048608619e+00 -3.2993157941e+00 1.9048608619e+00 3.2993157941e+00 
39400 5.4607428501e+00 4.5335402148e-04 1.9048489839e+00 -3.2992952209e+00 1.9048489839e+00 3.2992952209e+00 
39500 5.4607431227e+00 4.5389779215e-04 1.9048370839e+00 -3.2992746095e+00 1.9048370839e+00 3.2992746095e+00 
39600 5.4607433818e+00 4.5414893263e-04 1.9048251696e+00 -3.2992539732e+00 1.9048251696e+00 3.2992539732e+00 
39700 5.4607436279e+00 4.5410774683e-04 1.9048132486e+00 -3.2992333255e+00 1.9048132486e+00 3.2992333255e+00 
39800 5.4607438615e+00 4.5377508330e-04 1.9048013286e+00 -3.2992126794e+00 1.9048013286e+00 3.2992126794e+00 
39900 5.4607440832e+00 4.5315231522e-04 1.9047894172e+00 -3.2991920484e+00 1.9047894172e+00 3.2991920484e+00 
40000 5.4607442933e+00 4.5224132022e-04 1.9047775222e+00 -3.2991714455e+00 1.9047775222e+00 3.2991714455e+00 
40100 5.4607444925e+00 4.5104446029e-04 1.9047656510e+00 -3.2991508840e+00 1.9047656510e+00 3.2991508840e+00 
40200 5.4607446813e+00 4.4956456154e-04 1.9047538111e+00 -3.2991303767e+00 1.9047538111e+00 3.2991303767e+00 
40300 5.4607448602e+00 4.4780489399e-04 1.9047420100e+00 -3.2991099366e+00 1.9047420100e+00 3.2991099366e+00 
40400 5.4607450299e+00 4.4576915146e-04 1.9047302550e+00 -3.2990895763e+00 1.9047302550e+00 3.2990895763e+00 
40500 5.4607451909e+00 4.4346143145e-04 1.9047185534e+00 -3.2990693085e+00 1.9047185534e+00 3.2990693085e+00 
40600 5.4607453437e+00 4.4088621513e-04 1.9047069122e+00 -3.2990491455e+00 1.9047069122e+00 3.2990491455e+00 
40700 5.4607454889e+00 4.3804834744e-04 1.9046953387e+00 -3.2990290995e+00 1.9046953387e+00 3.2990290995e+00 
40800 5.4607456271e+00 4.3495301736e-04 1.9046838395e+00 -3.2990091824e+00 1.9046838395e+00 3.2990091824e+00 
40900 5.4607457589e+00 4.3160573829e-04 1.9046724215e+00 -3.2989894059e+00 1.9046724215e+00 3.2989894059e+00 
41000 5.4607458847e+00 4.2801232860e-04 1.9046610913e+00 -3.2989697814e+00 1.9046610913e+00 3.2989697814e+00 
41100 5.4607460050e+00 4.2417889250e-04 1.9046498554e+00 -3.2989503203e+00 1.9046498554e+00 3.2989503203e+00 
41200 5.4607461205e+00 4.2011180099e-04 1.9046387201e+00 -3.2989310333e+00 1.9046387201e+00 3.2989310333e+00 
41300 5.4607462316e+00 4.1581767315e-04 1.9046276915e+00 -3.2989119311e+00 1.9046276915e+00 3.2989119311e+00 
41400 5.4607463388e+00 4.1130335763e-04 1.9046167755e+00 -3.2988930241e+00 1.9046167755e+00 3.2988930241e+00 
41500 5.4607464425e+00 4.0657591453e-04 1.9046059780e+00 -3.2988743222e+00 1.9046059780e+00 3.2988743222e+00 
41600 5.4607465432e+00 4.0164259741e-04 1.9045953045e+00 -3.2988558352e+00 1.9045953045e+00 3.2988558352e+00 
41700 5.4607466414e+00 3.9651083577e-04 1.9045847605e+00 -3.2988375724e+00 1.9045847605e+00 3.2988375724e+00 
41800 5.4607467373e+00 3.9118821775e-04 1.9045743511e+00 -3.2988195429e+00 1.9045743511e+00 3.2988195429e+00 
41900 5.4607468314e+00 3.8568247327e-04 1.9045640814e+00 -3.2988017552e+00 1.9045640814e+00 3.2988017552e+00 
42000 5.4607469241e+00 3.8000145743e-04 1.9045539562e+00 -3.2987842179e+00 1.9045539562e+00 3.2987842179e+00 
42100 5.4607470157e+00 3.7415313429e-04 1.9045439801e+00 -3.2987669387e+00 1.9045439801e+00 3.2987669387e+00 
42200 5.4607471065e+00 3.6814556113e-04 1.9045341574e+00 -3.2987499254e+00 1.9045341574e+00 3.2987499254e+00 
42300 5.4607471968e+00 3.6198687295e-04 1.9045244925e+00 -3.2987331852e+00 1.9045244925e+00 3.2987331852e+00 
42400 5.4607472869e+00 3.5568526745e-04 1.9045149891e+00 -3.2987167250e+00 1.9045149891e+00 3.2987167250e+00 
42500 5.4607473769e+00 3.4924899043e-04 1.9045056512e+00 -3.2987005512e+00 1.9045056512e+00 3.2987005512e+00 
42600 5.4607474672e+00 3.4268632151e-04 1.9044964822e+00 -3.2986846700e+00 1.9044964822e+00 3.2986846700e+00 
42700 5.4607475579e+00 3.3600556036e-04 1.9044874854e+00 -3.2986690871e+00 1.9044874854e+00 3.2986690871e+00 
42800 5.4607476492e+00 3.2921501334e-04 1.9044786640e+00 -3.2986538080e+00 1.9044786640e+00 3.2986538080e+00 
42900 5.4607477412e+00 3.2232298049e-04 1.9044700208e+00 -3.2986388376e+00 1.9044700208e+00 3.2986388376e+00 
43000 5.4607478341e+00 3.1533774301e-04 1.9044615586e+00 -3.2986241805e+00 1.9044615586e+00 3.2986241805e+00 
43100 5.4607479281e+00 3.0826755124e-04 1.9044532796e+00 -3.2986098410e+00 1.9044532796e+00 3.2986098410e+00 
43200 5.4607480231e+00 3.0112061290e-04 1.9044451863e+00 -3.2985958229e+00 1.9044451863e+00 3.2985958229e+00 
43300 5.4607481193e+00 2.9390508195e-04 1.9044372806e+00 -3.2985821298e+00 1.9044372806e+00 3.2985821298e+00 
43400 5.4607482167e+00 2.8662904779e-04 1.9044295643e+00 -3.2985687648e+00 1.9044295643e+00 3.2985687648e+00 
43500 5.4607483153e+00 2.7930052489e-04 1.9044220390e+00 -3.2985557305e+00 1.9044220390e+00 3.2985557305e+00 
43600 5.4607484153e+00 2.7192744294e-04 1.9044147060e+00 -3.2985430295e+00 1.9044147060e+00 3.2985430295e+00 
43700 5.4607485165e+00 2.6451763735e-04 1.9044075666e+00 -3.2985306637e+00 1.9044075666e+00 3.2985306637e+00 
43800 5.4607486190e+00 2.5707884026e-04 1.9044006217e+00 -3.2985186348e+00 1.9044006217e+00 3.2985186348e+00 
43900 5.4607487227e+00 2.4961867190e-04 1.9043938722e+00 -3.2985069442e+00 1.9043938722e+00 3.2985069442e+00 
44000 5.4607488277e+00 2.4214463248e-04 1.9043873184e+00 -3.2984955928e+00 1.9043873184e+00 3.2984955928e+00 
44100 5.4607489338e+00 2.3466409442e-04 1.9043809609e+00 -3.2984845812e+00 1.9043809609e+00 3.2984845812e+00 
44200 5.4607490410e+00 2.2718429508e-04 1.9043747997e+00 -3.2984739097e+00 1.9043747997e+00 3.2984739097e+00 
44300 5.4607491493e+00 2.1971232985e-04 1.9043688349e+00 -3.2984635784e+00 1.9043688349e+00 3.2984635784e+00 
44400 5.4607492586e+00 2.1225514569e-04 1.9043630663e+00 -3.2984535868e+00 1.9043630663e+00 3.2984535868e+00 
44500 5.4607493687e+00 2.0481953510e-04 1.9043574934e+00 -3.2984439343e+00 1.9043574934e+00 3.2984439343e+00 
44600 5.4607494797e+00 1.9741213041e-04 1.9043521157e+00 -3.2984346200e+00 1.9043521157e+00 3.2984346200e+00 
44700 5.4607495913e+00 1.9003939860e-04 1.9043469326e+00 -3.2984256424e+00 1.9043469326e+00 3.2984256424e+00 
44800 5.4607497036e+00 1.8270763639e-04 1.9043419429e+00 -3.2984170002e+00 1.9043419429e+00 3.2984170002e+00 
44900 5.4607498163e+00 1.7542296583e-04 1.9043371458e+00 -3.2984086913e+00 1.9043371458e+00 3.2984086913e+00 
45000 5.4607499294e+00 1.6819133016e-04 1.9043325399e+00 -3.2984007137e+00 1.9043325399e+00 3.2984007137e+00 
45100 5.4607500428e+00 1.6101849014e-04 1.9043281239e+00 -3.2983930649e+00 1.9043281239e+00 3.2983930649e+00 
45200 5.4607501564e+00 1.5391002070e-04 1.9043238962e+00 -3.2983857423e+00 1.9043238962e+00 3.2983857423e+00 
45300 5.4607502700e+00 1.4687130794e-04 1.9043198552e+00 -3.2983787430e+00 1.9043198552e+00 3.2983787430e+00 
45400 5.4607503836e+00 1.3990754652e-04 1.9043159989e+00 -3.2983720637e+00 1.9043159989e+00 3.2983720637e+00 
45500 5.4607504970e+00 1.3302373741e-04 1.9043123255e+00 -3.2983657012e+00 1.9043123255e+00 3.2983657012e+00 
45600 5.4607506101e+00 1.2622468585e-04 1.9043088328e+00 -3.2983596516e+00 1.9043088328e+00 3.2983596516e+00 
45700 5.4607507228e+00 1.1951499982e-04 1.9043055186e+00 -3.2983539113e+00 1.9043055186e+00 3.2983539113e+00 
45800 5.4607508350e+00 1.1289908872e-04 1.9043023806e+00 -3.2983484761e+00 1.9043023806e+00 3.2983484761e+00 
45900 5.4607509466e+00 1.0638116236e-04 1.9042994162e+00 -3.2983433418e+00 1.9042994162e+00 3.2983433418e+00 
46000 5.4607510574e+00 9.9965230276e-05 1.9042966231e+00 -3.2983385038e+00 1.9042966231e+00 3.2983385038e+00 
46100 5.4607511675e+00 9.3655101391e-05 1.9042939983e+00 -3.2983339577e+00 1.9042939983e+00 3.2983339577e+00 
46200 5.4607512767e+00 8.7454383856e-05 1.9042915393e+00 -3.2983296985e+00 1.9042915393e+00 3.2983296985e+00 
46300 5.4607513849e+00 8.1366485255e-05 1.9042892430e+00 -3.2983257212e+00 1.9042892430e+00 3.2983257212e+00 
46400 5.4607514920e+00 7.5394613032e-05 1.9042871066e+00 -3.2983220209e+00 1.9042871066e+00 3.2983220209e+00 
46500 5.4607515979e+00 6.9541775210e-05 1.9042851270e+00 -3.2983185921e+00 1.9042851270e+00 3.2983185921e+00 
46600 5.4607517027e+00 6.4971354523e-05 1.9042851270e+00 -3.2983185921e+00 1.9042851270e+00 3.2983185921e+00 
46700 5.4607518062e+00 6.0433241829e-05 1.9042851270e+00 -3.2983185921e+00 1.9042851270e+00 3.2983185921e+00 
46800 5.4607519083e+00 5.5931920198e-05 1.9042851270e+00 -3.2983185921e+00 1.9042851270e+00 3.2983185921e+00 
46900 5.4607520090e+00 5.1471678283e-05 1.9042851270e+00 -3.2983185921e+00 1.9042851270e+00 3.2983185921e+00 
47000 5.4607521081e+00 4.7056612573e-05 1.9042851270e+00 -3.2983185921e+00 1.9042851270e+00 3.2983185921e+00 
47100 5.4607522057e+00 4.2690629718e-05 1.9042851270e+00 -3.2983185921e+00 1.9042851270e+00 3.2983185921e+00 
47200 5.4607523017e+00 3.8377448954e-05 1.9042851270e+00 -3.2983185921e+00 1.9042851270e+00 3.2983185921e+00 
47300 5.4607523961e+00 3.4120604573e-05 1.9042851270e+00 -3.2983185921e+00 1.9042851270e+00 3.2983185921e+00 
47400 5.4607524888e+00 2.9923448496e-05 1.9042851270e+00 -3.2983185921e+00 1.9042851270e+00 3.2983185921e+00 
47500 5.4607525798e+00 2.5789152898e-05 1.9042851270e+00 -3.2983185921e+00 1.9042851270e+00 3.2983185921e+00 
47600 5.4607526692e+00 2.1720712907e-05 1.9042851270e+00 -3.2983185921e+00 1.9042851270e+00 3.2983185921e+00 
47700 5.4607527569e+00 1.7720949358e-05 1.9042851270e+00 -3.2983185921e+00 1.9042851270e+00 3.2983185921e+00 
47800 5.4607528428e+00 1.3792511622e-05 1.9042851270e+00 -3.2983185921e+00 1.9042851270e+00 3.2983185921e+00 
47900 5.4607529270e+00 9.9378804787e-06 1.9042851270e+00 -3.2983185921e+00 1.9042851270e+00 3.2983185921e+00 
48000 5.4607530095e+00 6.1593710466e-06 1.9042851270e+00 -3.2983185921e+00 1.9042851270e+00 3.2983185921e+00 
48100 5.4607530903e+00 2.4591357796e-06 1.9042851270e+00 -3.2983185921e+00 1.9042851270e+00 3.2983185921e+00 
48200 5.4607531694e+00 -1.1608325161e-06 1.9042851270e+00 -3.2983185921e+00 1.9042851270e+00 3.2983185921e+00 
48300 5.4607532468e+00 -4.6986975861e-06 1.9042851270e+00 -3.2983185921e+00 1.9042851270e+00 3.2983185921e+00 
48400 5.4607533226e+00 -8.1527766141e-06 1.9042851270e+00 -3.2983185921e+00 1.9042851270e+00 3.2983185921e+00 
48500 5.4607533966e+00 -1.1521537060e-05 1.9042851270e+00 -3.2983185921e+00 1.9042851270e+00 3.2983185921e+00 
48600 5.4607534691e+00 -1.4803593458e-05 1.9042851270e+00 -3.2983185921e+00 1.9042851270e+00 3.2983185921e+00 
48700 5.4607535399e+00 -1.7997704173e-05 1.9042851270e+00 -3.2983185921e+00 1.9042851270e+00 3.2983185921e+00 
48800 5.4607536092e+00 -2.1102768152e-05 1.9042851270e+00 -3.2983185921e+00 1.9042851270e+00 3.2983185921e+00 
48900 5.4607536769e+00 -2.4117821607e-05 1.9042851270e+00 -3.2983185921e+00 1.9042851270e+00 3.2983185921e+00 
49000 5.4607537431e+00 -2.7042034714e-05 1.9042851270e+00 -3.2983185921e+00 1.9042851270e+00 3.2983185921e+00 
49100 5.4607538078e+00 -2.9874708254e-05 1.9042851270e+00 -3.2983185921e+00 1.9042851270e+00 3.2983185921e+00 
49200 5.4607538711e+00 -3.2615270247e-05 1.9042851270e+00 -3.2983185921e+00 1.9042851270e+00 3.2983185921e+00 
49300 5.4607539330e+00 -3.5263272583e-05 1.9042851270e+00 -3.2983185921e+00 1.9042851270e+00 3.2983185921e+00 
49400 5.4607539935e+00 -3.7818387606e-05 1.9042851270e+00 -3.2983185921e+00 1.9042851270e+00 3.2983185921e+00 
49500 5.4607540527e+00 -4.0280404713e-05 1.9042851270e+00 -3.2983185921e+00 1.9042851270e+00 3.2983185921e+00 
49600 5.4607541106e+00 -4.2649226929e-05 1.9042851270e+00 -3.2983185921e+00 1.9042851270e+00 3.2983185921e+00 
49700 5.4607541673e+00 -4.4924867481e-05 1.9042851270e+00 -3.2983185921e+00 1.9042851270e+00 3.2983185921e+00 
49800 5.4607542228e+00 -4.7107446365e-05 1.9042851270e+00 -3.2983185921e+00 1.9042851270e+00 3.2983185921e+00 
49900 5.4607542771e+00 -4.9197186912e-05 1.9042851270e+00 -3.2983185921e+00 1.9042851270e+00 3.2983185921e+00 
50000 5.4607543303e+00 -5.1194412353e-05 1.9042851270e+00 -3.2983185921e+00 1.9042851270e+00 3.2983185921e+00 
50100 5.4607543824e+00 -5.3099542394e-05 1.9042851270e+00 -3.2983185921e+00 1.9042851270e+00 3.2983185921e+00 
50200 5.4607544335e+00 -5.4913089784e-05 1.9042851270e+00 -3.2983185921e+00 1.9042851270e+00 3.2983185921e+00 
50300 5.4607544836e+00 -5.6635656909e-05 1.9042851270e+00 -3.2983185921e+00 1.9042851270e+00 3.2983185921e+00 
50400 5.4607545328e+00 -5.8267932375e-05 1.9042851270e+00 -3.2983185921e+00 1.9042851270e+00 3.2983185921e+00 
50500 5.4607545811e+00 -5.9810687631e-05 1.9042851270e+00 -3.2983185921e+00 1.9042851270e+00 3.2983185921e+00 
50600 5.4607546285e+00 -6.1264773583e-05 1.9042851270e+00 -3.2983185921e+00 1.9042851270e+00 3.2983185921e+00 
50700 5.4607546750e+00 -6.2631117239e-05 1.9042851270e+00 -3.2983185921e+00 1.9042851270e+00 3.2983185921e+00 
50800 5.4607547208e+00 -6.3910718373e-05 1.9042851270e+00 -3.2983185921e+00 1.9042851270e+00 3.2983185921e+00 
50900 5.4607547659e+00 -6.5104646210e-05 1.9042851270e+00 -3.2983185921e+00 1.9042851270e+00 3.2983185921e+00 
51000 5.4607548102e+00 -6.6214036137e-05 1.9042851270e+00 -3.2983185921e+00 1.9042851270e+00 3.2983185921e+00 
51100 5.4607548538e+00 -6.7240086441e-05 1.9042851270e+00 -3.2983185921e+00 1.9042851270e+00 3.2983185921e+00 
51200 5.4607548968e+00 -6.8184055077e-05 1.9042851270e+00 -3.2983185921e+00 1.9042851270e+00 3.2983185921e+00 
51300 5.4607549392e+00 -6.9047256464e-05 1.9042851270e+00 -3.2983185921e+00 1.9042851270e+00 3.2983185921e+00 
51400 5.4607549810e+00 -6.9831058319e-05 1.9042851270e+00 -3.2983185921e+00 1.9042851270e+00 3.2983185921e+00 
51500 5.4607550223e+00 -7.0536878524e-05 1.9042851270e+00 -3.2983185921e+00 1.9042851270e+00 3.2983185921e+00 
51600 5.4607550630e+00 -7.1166182035e-05 1.9042851270e+00 -3.2983185921e+00 1.9042851270e+00 3.2983185921e+00 
51700 5.4607551030e+00 -7.0532930685e-05 1.9042869956e+00 -3.2983218286e+00 1.9042869956e+00 3.2983218286e+00 
51800 5.4607551427e+00 -7.1010191683e-05 1.9042869956e+00 -3.2983218286e+00 1.9042869956e+00 3.2983218286e+00 
51900 5.4607551819e+00 -7.0230360626e-05 1.9042888601e+00 -3.2983250580e+00 1.9042888601e+00 3.2983250580e+00 
52000 5.4607552207e+00 -7.0561389407e-05 1.9042888601e+00 -3.2983250580e+00 1.9042888601e+00 3.2983250580e+00 
52100 5.4607552591e+00 -7.0823304688e-05 1.9042888601e+00 -3.2983250580e+00 1.9042888601e+00 3.2983250580e+00 
52200 5.4607552970e+00 -6.9836027712e-05 1.9042907197e+00 -3.2983282789e+00 1.9042907197e+00 3.2983282789e+00 
52300 5.4607553346e+00 -6.9961375161e-05 1.9042907197e+00 -3.2983282789e+00 1.9042907197e+00 3.2983282789e+00 
52400 5.4607553719e+00 -7.0022591080e-05 1.9042907197e+00 -3.2983282789e+00 1.9042907197e+00 3.2983282789e+00 
52500 5.4607554088e+00 -7.0021497242e-05 1.9042907197e+00 -3.2983282789e+00 1.9042907197e+00 3.2983282789e+00 
52600 5.4607554454e+00 -6.9959930989e-05 1.9042907197e+00 -3.2983282789e+00 1.9042907197e+00 3.2983282789e+00 
52700 5.4607554816e+00 -6.9839742742e-05 1.9042907197e+00 -3.2983282789e+00 1.9042907197e+00 3.2983282789e+00 
52800 5.4607555176e+00 -6.9662793555e-05 1.9042907197e+00 -3.2983282789e+00 1.9042907197e+00 3.2983282789e+00 
52900 5.4607555532e+00 -6.9430952737e-05 1.9042907197e+00 -3.2983282789e+00 1.9042907197e+00 3.2983282789e+00 
53000 5.4607555885e+00 -6.9146095525e-05 1.9042907197e+00 -3.2983282789e+00 1.9042907197e+00 3.2983282789e+00 
53100 5.4607556235e+00 -6.8810100828e-05 1.9042907197e+00 -3.2983282789e+00 1.9042907197e+00 3.2983282789e+00 
53200 5.4607556583e+00 -6.8424848999e-05 1.9042907197e+00 -3.2983282789e+00 1.9042907197e+00 3.2983282789e+00 
53300 5.4607556928e+00 -6.7992219709e-05 1.9042907197e+00 -3.2983282789e+00 1.9042907197e+00 3.2983282789e+00 
53400 5.4607557269e+00 -6.7514089850e-05 1.9042907197e+00 -3.2983282789e+00 1.9042907197e+00 3.2983282789e+00 
53500 5.4607557608e+00 -6.6992331520e-05 1.9042907197e+00 -3.2983282789e+00 1.9042907197e+00 3.2983282789e+00 
53600 5.4607557945e+00 -6.6428810041e-05 1.9042907197e+00 -3.2983282789e+00 1.9042907197e+00 3.2983282789e+00 
53700 5.4607558278e+00 -6.5825382077e-05 1.9042907197e+00 -3.2983282789e+00 1.9042907197e+00 3.2983282789e+00 
53800 5.4607558609e+00 -6.5183893787e-05 1.9042907197e+00 -3.2983282789e+00 1.9042907197e+00 3.2983282789e+00 
53900 5.4607558937e+00 -6.4506179046e-05 1.9042907197e+00 -3.2983282789e+00 1.9042907197e+00 3.2983282789e+00 
54000 5.4607559263e+00 -6.3794057740e-05 1.9042907197e+00 -3.2983282789e+00 1.9042907197e+00 3.2983282789e+00 
54100 5.4607559585e+00 -6.3049334107e-05 1.9042907197e+00 -3.2983282789e+00 1.9042907197e+00 3.2983282789e+00 
54200 5.4607559905e+00 -6.2273795157e-05 1.9042907197e+00 -3.2983282789e+00 1.9042907197e+00 3.2983282789e+00 
54300 5.4607560222e+00 -6.1469209148e-05 1.9042907197e+00 -3.2983282789e+00 1.9042907197e+00 3.2983282789e+00 
54400 5.4607560536e+00 -6.0637324120e-05 1.9042907197e+00 -3.2983282789e+00 1.9042907197e+00 3.2983282789e+00 
54500 5.4607560848e+00 -5.9779866505e-05 1.9042907197e+00 -3.2983282789e+00 1.9042907197e+00 3.2983282789e+00 
54600 5.4607561156e+00 -5.8898539791e-05 1.9042907197e+00 -3.2983282789e+00 1.9042907197e+00 3.2983282789e+00 
54700 5.4607561462e+00 -5.7995023248e-05 1.9042907197e+00 -3.2983282789e+00 1.9042907197e+00 3.2983282789e+00 
54800 5.4607561765e+00 -5.7070970722e-05 1.9042907197e+00 -3.2983282789e+00 1.9042907197e+00 3.2983282789e+00 
54900 5.4607562065e+00 -5.6128009491e-05 1.9042907197e+00 -3.2983282789e+00 1.9042907197e+00 3.2983282789e+00 
55000 5.4607562362e+00 -5.5167739174e-05 1.9042907197e+00 -3.2983282789e+00 1.9042907197e+00 3.2983282789e+00 
55100 5.4607562656e+00 -5.4191730714e-05 1.9042907197e+00 -3.2983282789e+00 1.9042907197e+00 3.2983282789e+00 
55200 5.4607562947e+00 -5.3201525418e-05 1.9042907197e+00 -3.2983282789e+00 1.9042907197e+00 3.2983282789e+00 
55300 5.4607563234e+00 -5.2198634044e-05 1.9042907197e+00 -3.2983282789e+00 1.9042907197e+00 3.2983282789e+00 
55400 5.4607563519e+00 -5.1184535971e-05 1.9042907197e+00 -3.2983282789e+00 1.9042907197e+00 3.2983282789e+00 
55500 5.4607563801e+00 -5.0160678412e-05 1.9042907197e+00 -3.2983282789e+00 1.9042907197e+00 3.2983282789e+00 
55600 5.4607564079e+00 -4.9128475687e-05 1.9042907197e+00 -3.2983282789e+00 1.9042907197e+00 3.2983282789e+00 
55700 5.4607564354e+00 -4.8089308562e-05 1.9042907197e+00 -3.2983282789e+00 1.9042907197e+00 3.2983282789e+00 
55800 5.4607564627e+00 -4.7044523634e-05 1.9042907197e+00 -3.2983282789e+00 1.9042907197e+00 3.2983282789e+00 
55900 5.4607564895e+00 -4.5995432784e-05 1.9042907197e+00 -3.2983282789e+00 1.9042907197e+00 3.2983282789e+00 
56000 5.4607565161e+00 -4.4943312673e-05 1.9042907197e+00 -3.2983282789e+00 1.9042907197e+00 3.2983282789e+00 
56100 5.4607565424e+00 -4.3889404296e-05 1.9042907197e+00 -3.2983282789e+00 1.9042907197e+00 3.2983282789e+00 
56200 5.4607565683e+00 -4.2834912603e-05 1.9042907197e+00 -3.2983282789e+00 1.9042907197e+00 3.2983282789e+00 
56300 5.4607565939e+00 -4.1781006147e-05 1.9042907197e+00 -3.2983282789e+00 1.9042907197e+00 3.2983282789e+00 
56400 5.4607566191e+00 -4.0728816808e-05 1.9042907197e+00 -3.2983282789e+00 1.9042907197e+00 3.2983282789e+00 
56500 5.4607566441e+00 -3.9679439550e-05 1.9042907197e+00 -3.2983282789e+00 1.9042907197e+00 3.2983282789e+00 
56600 5.4607566687e+00 -3.8633932237e-05 1.9042907197e+00 -3.2983282789e+00 1.9042907197e+00 3.2983282789e+00 
56700 5.4607566930e+00 -3.7593315493e-05 1.9042907197e+00 -3.2983282789e+00 1.9042907197e+00 3.2983282789e+00 
56800 5.4607567169e+00 -3.6558572610e-05 1.9042907197e+00 -3.2983282789e+00 1.9042907197e+00 3.2983282789e+00 
56900 5.4607567406e+00 -3.5530649502e-05 1.9042907197e+00 -3.2983282789e+00 1.9042907197e+00 3.2983282789e+00 
57000 5.4607567639e+00 -3.4510454702e-05 1.9042907197e+00 -3.2983282789e+00 1.9042907197e+00 3.2983282789e+00 
57100 5.4607567869e+00 -3.3498859408e-05 1.9042907197e+00 -3.2983282789e+00 1.9042907197e+00 3.2983282789e+00 
57200 5.4607568095e+00 -3.2496697558e-05 1.9042907197e+00 -3.2983282789e+00 1.9042907197e+00 3.2983282789e+00 
57300 5.4607568319e+00 -3.1504765963e-05 1.9042907197e+00 -3.2983282789e+00 1.9042907197e+00 3.2983282789e+00 
57400 5.4607568539e+00 -3.0523824476e-05 1.9042907197e+00 -3.2983282789e+00 1.9042907197e+00 3.2983282789e+00 
57500 5.4607568756e+00 -2.9554596182e-05 1.9042907197e+00 -3.2983282789e+00 1.9042907197e+00 3.2983282789e+00 
57600 5.4607568970e+00 -2.8597767644e-05 1.9042907197e+00 -3.2983282789e+00 1.9042907197e+00 3.2983282789e+00 
57700 5.4607569181e+00 -2.7653989184e-05 1.9042907197e+00 -3.2983282789e+00 1.9042907197e+00 3.2983282789e+00 
57800 5.4607569389e+00 -2.6723875189e-05 1.9042907197e+00 -3.2983282789e+00 1.9042907197e+00 3.2983282789e+00 
57900 5.4607569594e+00 -2.5808004453e-05 1.9042907197e+00 -3.2983282789e+00 1.9042907197e+00 3.2983282789e+00 
58000 5.4607569796e+00 -2.4906920556e-05 1.9042907197e+00 -3.2983282789e+00 1.9042907197e+00 3.2983282789e+00 
58100 5.4607569995e+00 -2.4021132270e-05 1.9042907197e+00 -3.2983282789e+00 1.9042907197e+00 3.2983282789e+00 
58200 5.4607570191e+00 -2.3151113993e-05 1.9042907197e+00 -3.2983282789e+00 1.9042907197e+00 3.2983282789e+00 
58300 5.4607570384e+00 -2.2297306213e-05 1.9042907197e+00 -3.2983282789e+00 1.9042907197e+00 3.2983282789e+00 
58400 5.4607570574e+00 -2.1460116002e-05 1.9042907197e+00 -3.2983282789e+00 1.9042907197e+00 3.2983282789e+00 
58500 5.4607570762e+00 -2.0639917526e-05 1.9042907197e+00 -3.2983282789e+00 1.9042907197e+00 3.2983282789e+00 
58600 5.4607570947e+00 -1.9837052589e-05 1.9042907197e+00 -3.2983282789e+00 1.9042907197e+00 3.2983282789e+00 
58700 5.4607571129e+00 -1.9051831187e-05 1.9042907197e+00 -3.2983282789e+00 1.9042907197e+00 3.2983282789e+00 
58800 5.4607571308e+00 -1.8284532109e-05 1.9042907197e+00 -3.2983282789e+00 1.9042907197e+00 3.2983282789e+00 
58900 5.4607571485e+00 -1.7535403517e-05 1.9042907197e+00 -3.2983282789e+00 1.9042907197e+00 3.2983282789e+00 
59000 5.4607571659e+00 -1.6804663591e-05 1.9042907197e+00 -3.2983282789e+00 1.9042907197e+00 3.2983282789e+00 
59100 5.4607571831e+00 -1.6092501156e-05 1.9042907197e+00 -3.2983282789e+00 1.9042907197e+00 3.2983282789e+00 
59200 5.4607572000e+00 -1.5399076343e-05 1.9042907197e+00 -3.2983282789e+00 1.9042907197e+00 3.2983282789e+00 
59300 5.4607572167e+00 -1.4724521259e-05 1.9042907197e+00 -3.2983282789e+00 1.9042907197e+00 3.2983282789e+00 
59400 5.4607572331e+00 -1.4068940679e-05 1.9042907197e+00 -3.2983282789e+00 1.9042907197e+00 3.2983282789e+00 
59500 5.4607572493e+00 -1.3432412733e-05 1.9042907197e+00 -3.2983282789e+00 1.9042907197e+00 3.2983282789e+00 
59600 5.4607572653e+00 -1.2814989626e-05 1.9042907197e+00 -3.2983282789e+00 1.9042907197e+00 3.2983282789e+00 
59700 5.4607572811e+00 -1.2216698353e-05 1.9042907197e+00 -3.2983282789e+00 1.9042907197e+00 3.2983282789e+00 
59800 5.4607572966e+00 -1.1637541432e-05 1.9042907197e+00 -3.2983282789e+00 1.9042907197e+00 3.2983282789e+00 
59900 5.4607573119e+00 -1.1077497639e-05 1.9042907197e+00 -3.2983282789e+00 1.9042907197e+00 3.2983282789e+00 
60000 5.4607573270e+00 -1.0536522751e-05 1.9042907197e+00 -3.2983282789e+00 1.9042907197e+00 3.2983282789e+00 
60100 5.4607573419e+00 -1.0014550301e-05 1.9042907197e+00 -3.2983282789e+00 1.9042907197e+00 3.2983282789e+00 
60200 5.4607573567e+00 -9.5114923305e-06 1.9042907197e+00 -3.2983282789e+00 1.9042907197e+00 3.2983282789e+00 
60300 5.4607573712e+00 -9.0272401456e-06 1.9042907197e+00 -3.2983282789e+00 1.9042907197e+00 3.2983282789e+00 
60400 5.4607573855e+00 -8.5616650855e-06 1.9042907197e+00 -3.2983282789e+00 1.9042907197e+00 3.2983282789e+00 
60500 5.4607573996e+00 -8.1146192824e-06 1.9042907197e+00 -3.2983282789e+00 1.9042907197e+00 3.2983282789e+00 
60600 5.4607574136e+00 -7.6859364220e-06 1.9042907197e+00 -3.2983282789e+00 1.9042907197e+00 3.2983282789e+00 
60700 5.4607574273e+00 -7.2754325158e-06 1.9042907197e+00 -3.2983282789e+00 1.9042907197e+00 3.2983282789e+00 
60800 5.4607574409e+00 -6.8829066584e-06 1.9042907197e+00 -3.2983282789e+00 1.9042907197e+00 3.2983282789e+00 
60900 5.4607574543e+00 -6.5081417878e-06 1.9042907197e+00 -3.2983282789e+00 1.9042907197e+00 3.2983282789e+00 
61000 5.4607574676e+00 -6.1509054500e-06 1.9042907197e+00 -3.2983282789e+00 1.9042907197e+00 3.2983282789e+00 
61100 5.4607574806e+00 -5.8109505497e-06 1.9042907197e+00 -3.2983282789e+00 1.9042907197e+00 3.2983282789e+00 
61200 5.4607574935e+00 -5.4880161006e-06 1.9042907197e+00 -3.2983282789e+00 1.9042907197e+00 3.2983282789e+00 
61300 5.4607575063e+00 -5.1818279712e-06 1.9042907197e+00 -3.2983282789e+00 1.9042907197e+00 3.2983282789e+00 
61400 5.4607575189e+00 -4.8920996271e-06 1.9042907197e+00 -3.2983282789e+00 1.9042907197e+00 3.2983282789e+00 
61500 5.4607575313e+00 -4.6185328558e-06 1.9042907197e+00 -3.2983282789e+00 1.9042907197e+00 3.2983282789e+00 
61600 5.4607575436e+00 -4.3608185033e-06 1.9042907197e+00 -3.2983282789e+00 1.9042907197e+00 3.2983282789e+00 
61700 5.4607575558e+00 -4.1186371827e-06 1.9042907197e+00 -3.2983282789e+00 1.9042907197e+00 3.2983282789e+00 
61800 5.4607575678e+00 -3.8916599857e-06 1.9042907197e+00 -3.2983282789e+00 1.9042907197e+00 3.2983282789e+00 
61900 5.4607575796e+00 -3.6795491800e-06 1.9042907197e+00 -3.2983282789e+00 1.9042907197e+00 3.2983282789e+00 
62000 5.4607575913e+00 -3.4819589048e-06 1.9042907197e+00 -3.2983282789e+00 1.9042907197e+00 3.2983282789e+00 
62100 5.4607576029e+00 -3.2985358420e-06 1.9042907197e+00 -3.2983282789e+00 1.9042907197e+00 3.2983282789e+00 
62200 5.4607576144e+00 -3.1289198908e-06 1.9042907197e+00 -3.2983282789e+00 1.9042907197e+00 3.2983282789e+00 
62300 5.4607576257e+00 -2.9727448235e-06 1.9042907197e+00 -3.2983282789e+00 1.9042907197e+00 3.2983282789e+00 
62400 5.4607576369e+00 -2.8296389253e-06 1.9042907197e+00 -3.2983282789e+00 1.9042907197e+00 3.2983282789e+00 
62500 5.4607576479e+00 -2.6992256345e-06 1.9042907197e+00 -3.2983282789e+00 1.9042907197e+00 3.2983282789e+00 
62600 5.4607576588e+00 -2.5811241551e-06 1.9042907197e+00 -3.2983282789e+00 1.9042907197e+00 3.2983282789e+00 
62700 5.4607576696e+00 -2.4749500727e-06 1.9042907197e+00 -3.2983282789e+00 1.9042907197e+00 3.2983282789e+00 
62800 5.4607576803e+00 -2.3803159410e-06 1.9042907197e+00 -3.2983282789e+00 1.9042907197e+00 3.2983282789e+00 
62900 5.4607576908e+00 -2.2968318567e-06 1.9042907197e+00 -3.2983282789e+00 1.9042907197e+00 3.2983282789e+00 
63000 5.4607577013e+00 -2.2241060396e-06 1.9042907197e+00 -3.2983282789e+00 1.9042907197e+00 3.2983282789e+00 
63100 5.4607577116e+00 -2.1617453718e-06 1.9042907197e+00 -3.2983282789e+00 1.9042907197e+00 3.2983282789e+00 
63200 5.4607577218e+00 -2.1093559381e-06 1.9042907197e+00 -3.2983282789e+00 1.9042907197e+00 3.2983282789e+00 
63300 5.4607577318e+00 -2.0665435487e-06 1.9042907197e+00 -3.2983282789e+00 1.9042907197e+00 3.2983282789e+00 
63400 5.4607577418e+00 -2.0329142423e-06 1.9042907197e+00 -3.2983282789e+00 1.9042907197e+00 3.2983282789e+00 
63500 5.4607577517e+00 -2.0080747780e-06 1.9042907197e+00 -3.2983282789e+00 1.9042907197e+00 3.2983282789e+00 
63600 5.4607577614e+00 -1.9916331171e-06 1.9042907197e+00 -3.2983282789e+00 1.9042907197e+00 3.2983282789e+00 
63700 5.4607577710e+00 -1.9831988744e-06 1.9042907197e+00 -3.2983282789e+00 1.9042907197e+00 3.2983282789e+00 
63800 5.4607577805e+00 -1.9823837689e-06 1.9042907197e+00 -3.2983282789e+00 1.9042907197e+00 3.2983282789e+00 
63900 5.4607577899e+00 -1.9888020490e-06 1.9042907197e+00 -3.2983282789e+00 1.9042907197e+00 3.2983282789e+00 
64000 5.4607577992e+00 -2.0020709118e-06 1.9042907197e+00 -3.2983282789e+00 1.9042907197e+00 3.2983282789e+00 
64100 5.4607578084e+00 -2.0218108883e-06 1.9042907197e+00 -3.2983282789e+00 1.9042907197e+00 3.2983282789e+00 
64200 5.4607578175e+00 -2.0476462404e-06 1.9042907197e+00 -3.2983282789e+00 1.9042907197e+00 3.2983282789e+00 
64300 5.4607578264e+00 -2.0792053119e-06 1.9042907197e+00 -3.2983282789e+00 1.9042907197e+00 3.2983282789e+00 
64400 5.4607578353e+00 -2.1161208853e-06 1.9042907197e+00 -3.2983282789e+00 1.9042907197e+00 3.2983282789e+00 
64500 5.4607578441e+00 -2.1580305157e-06 1.9042907197e+00 -3.2983282789e+00 1.9042907197e+00 3.2983282789e+00 
64600 5.4607578527e+00 -2.2045768461e-06 1.9042907197e+00 -3.2983282789e+00 1.9042907197e+00 3.2983282789e+00 
64700 5.4607578613e+00 -2.2554079083e-06 1.9042907197e+00 -3.2983282789e+00 1.9042907197e+00 3.2983282789e+00 
64800 5.4607578697e+00 -2.3101774161e-06 1.9042907197e+00 -3.2983282789e+00 1.9042907197e+00 3.2983282789e+00 
64900 5.4607578781e+00 -2.3685450255e-06 1.9042907197e+00 -3.2983282789e+00 1.9042907197e+00 3.2983282789e+00 
65000 5.4607578864e+00 -2.4301766004e-06 1.9042907197e+00 -3.2983282789e+00 1.9042907197e+00 3.2983282789e+00 
65100 5.4607578945e+00 -2.4947444452e-06 1.9042907197e+00 -3.2983282789e+00 1.9042907197e+00 3.2983282789e+00 
65200 5.4607579026e+00 -2.5619275359e-06 1.9042907197e+00 -3.2983282789e+00 1.9042907197e+00 3.2983282789e+00 
65300 5.4607579105e+00 -2.6314117229e-06 1.9042907197e+00 -3.2983282789e+00 1.9042907197e+00 3.2983282789e+00 
65400 5.4607579184e+00 -2.7028899314e-06 1.9042907197e+00 -3.2983282789e+00 1.9042907197e+00 3.2983282789e+00 
65500 5.4607579262e+00 -2.7760623430e-06 1.9042907197e+00 -3.2983282789e+00 1.9042907197e+00 3.2983282789e+00 
65600 5.4607579338e+00 -2.8506365576e-06 1.9042907197e+00 -3.2983282789e+00 1.9042907197e+00 3.2983282789e+00 
65700 5.4607579414e+00 -2.9263277438e-06 1.9042907197e+00 -3.2983282789e+00 1.9042907197e+00 3.2983282789e+00 
65800 5.4607579489e+00 -3.0028587858e-06 1.9042907197e+00 -3.2983282789e+00 1.9042907197e+00 3.2983282789e+00 
65900 5.4607579563e+00 -3.0799603987e-06 1.9042907197e+00 -3.2983282789e+00 1.9042907197e+00 3.2983282789e+00 
66000 5.4607579636e+00 -3.1573712399e-06 1.9042907197e+00 -3.2983282789e+00 1.9042907197e+00 3.2983282789e+00 
66100 5.4607579708e+00 -3.2348380146e-06 1.9042907197e+00 -3.2983282789e+00 1.9042907197e+00 3.2983282789e+00 
66200 5.4607579780e+00 -3.3121155485e-06 1.9042907197e+00 -3.2983282789e+00 1.9042907197e+00 3.2983282789e+00 
66300 5.4607579850e+00 -3.3889668670e-06 1.9042907197e+00 -3.2983282789e+00 1.9042907197e+00 3.2983282789e+00 
66400 5.4607579920e+00 -3.4651632539e-06 1.9042907197e+00 -3.2983282789e+00 1.9042907197e+00 3.2983282789e+00 
66500 5.4607579988e+00 -3.5404842984e-06 1.9042907197e+00 -3.2983282789e+00 1.9042907197e+00 3.2983282789e+00 
66600 5.4607580056e+00 -3.6147179222e-06 1.9042907197e+00 -3.2983282789e+00 1.9042907197e+00 3.2983282789e+00 
66700 5.4607580123e+00 -3.6876604186e-06 1.9042907197e+00 -3.2983282789e+00 1.9042907197e+00 3.2983282789e+00 
66800 5.4607580189e+00 -3.7591164512e-06 1.9042907197e+00 -3.2983282789e+00 1.9042907197e+00 3.2983282789e+00 
66900 5.4607580254e+00 -3.8288990648e-06 1.9042907197e+00 -3.2983282789e+00 1.9042907197e+00 3.2983282789e+00 
67000 5.4607580319e+00 -3.8968296649e-06 1.9042907197e+00 -3.2983282789e+00 1.9042907197e+00 3.2983282789e+00 
67100 5.4607580382e+00 -3.9627380143e-06 1.9042907197e+00 -3.2983282789e+00 1.9042907197e+00 3.2983282789e+00 
67200 5.4607580445e+00 -4.0264621868e-06 1.9042907197e+00 -3.2983282789e+00 1.9042907197e+00 3.2983282789e+00 
67300 5.4607580507e+00 -4.0878485422e-06 1.9042907197e+00 -3.2983282789e+00 1.9042907197e+00 3.2983282789e+00 
67400 5.4607580568e+00 -4.1467516703e-06 1.9042907197e+00 -3.2983282789e+00 1.9042907197e+00 3.2983282789e+00 
67500 5.4607580629e+00 -4.2030343318e-06 1.9042907197e+00 -3.2983282789e+00 1.9042907197e+00 3.2983282789e+00 
67600 5.4607580689e+00 -4.2565673997e-06 1.9042907197e+00 -3.2983282789e+00 1.9042907197e+00 3.2983282789e+00 
67700 5.4607580747e+00 -4.3072297771e-06 1.9042907197e+00 -3.2983282789e+00 1.9042907197e+00 3.2983282789e+00 
67800 5.4607580806e+00 -4.3549083218e-06 1.9042907197e+00 -3.2983282789e+00 1.9042907197e+00 3.2983282789e+00 
67900 5.4607580863e+00 -4.3994977524e-06 1.9042907197e+00 -3.2983282789e+00 1.9042907197e+00 3.2983282789e+00 
68000 5.4607580920e+00 -4.4409005499e-06 1.9042907197e+00 -3.2983282789e+00 1.9042907197e+00 3.2983282789e+00 
68100 5.4607580976e+00 -4.4790268542e-06 1.9042907197e+00 -3.2983282789e+00 1.9042907197e+00 3.2983282789e+00 
68200 5.4607581031e+00 -4.5137943561e-06 1.9042907197e+00 -3.2983282789e+00 1.9042907197e+00 3.2983282789e+00 
68300 5.4607581086e+00 -4.5451281764e-06 1.9042907197e+00 -3.2983282789e+00 1.9042907197e+00 3.2983282789e+00 
68400 5.4607581140e+00 -4.5729607437e-06 1.9042907197e+00 -3.2983282789e+00 1.9042907197e+00 3.2983282789e+00 
68500 5.4607581193e+00 -4.5972316681e-06 1.9042907197e+00 -3.2983282789e+00 1.9042907197e+00 3.2983282789e+00 
68600 5.4607581245e+00 -4.6178876002e-06 1.9042907197e+00 -3.2983282789e+00 1.9042907197e+00 3.2983282789e+00 
68700 5.4607581297e+00 -4.6348820982e-06 1.9042907197e+00 -3.2983282789e+00 1.9042907197e+00 3.2983282789e+00 
68800 5.4607581348e+00 -4.6481754810e-06 1.9042907197e+00 -3.2983282789e+00 1.9042907197e+00 3.2983282789e+00 
68900 5.4607581399e+00 -4.6577346813e-06 1.9042907197e+00 -3.2983282789e+00 1.9042907197e+00 3.2983282789e+00 
69000 5.4607581449e+00 -4.6635330877e-06 1.9042907197e+00 -3.2983282789e+00 1.9042907197e+00 3.2983282789e+00 
69100 5.4607581498e+00 -4.6655503983e-06 1.9042907197e+00 -3.2983282789e+00 1.9042907197e+00 3.2983282789e+00 
69200 5.4607581547e+00 -4.6637724536e-06 1.9042907197e+00 -3.2983282789e+00 1.9042907197e+00 3.2983282789e+00 
69300 5.4607581595e+00 -4.6581910732e-06 1.9042907197e+00 -3.2983282789e+00 1.9042907197e+00 3.2983282789e+00 
69400 5.4607581643e+00 -4.6488038953e-06 1.9042907197e+00 -3.2983282789e+00 1.9042907197e+00 3.2983282789e+00 
69500 5.4607581689e+00 -4.6356142024e-06 1.9042907197e+00 -3.2983282789e+00 1.9042907197e+00 3.2983282789e+00 
69600 5.4607581736e+00 -4.6186307559e-06 1.9042907197e+00 -3.2983282789e+00 1.9042907197e+00 3.2983282789e+00 
69700 5.4607581782e+00 -4.5978676201e-06 1.9042907197e+00 -3.2983282789e+00 1.9042907197e+00 3.2983282789e+00 
69800 5.4607581827e+00 -4.5733439873e-06 1.9042907197e+00 -3.2983282789e+00 1.9042907197e+00 3.2983282789e+00 
69900 5.4607581871e+00 -4.5450840077e-06 1.9042907197e+00 -3.2983282789e+00 1.9042907197e+00 3.2983282789e+00 
70000 5.4607581915e+00 -4.5131166050e-06 1.9042907197e+00 -3.2983282789e+00 1.9042907197e+00 3.2983282789e+00 
70100 5.4607581959e+00 -4.4774753022e-06 1.9042907197e+00 -3.2983282789e+00 1.9042907197e+00 3.2983282789e+00 
70200 5.4607582002e+00 -4.4381980431e-06 1.9042907197e+00 -3.2983282789e+00 1.9042907197e+00 3.2983282789e+00 
70300 5.4607582044e+00 -4.3953270149e-06 1.9042907197e+00 -3.2983282789e+00 1.9042907197e+00 3.2983282789e+00 
70400 5.4607582086e+00 -4.3489084642e-06 1.9042907197e+00 -3.2983282789e+00 1.9042907197e+00 3.2983282789e+00 
70500 5.4607582128e+00 -4.2989925200e-06 1.9042907197e+00 -3.2983282789e+00 1.9042907197e+00 3.2983282789e+00 
70600 5.4607582169e+00 -4.2456330157e-06 1.9042907197e+00 -3.2983282789e+00 1.9042907197e+00 3.2983282789e+00 
70700 5.4607582209e+00 -4.1888873108e-06 1.9042907197e+00 -3.2983282789e+00 1.9042907197e+00 3.2983282789e+00 
70800 5.4607582249e+00 -4.1288161114e-06 1.9042907197e+00 -3.2983282789e+00 1.9042907197e+00 3.2983282789e+00 
70900 5.4607582288e+00 -4.0654832939e-06 1.9042907197e+00 -3.2983282789e+00 1.9042907197e+00 3.2983282789e+00 
71000 5.4607582327e+00 -3.9989557286e-06 1.9042907197e+00 -3.2983282789e+00 1.9042907197e+00 3.2983282789e+00 
71100 5.4607582366e+00 -3.9293031091e-06 1.9042907197e+00 -3.2983282789e+00 1.9042907197e+00 3.2983282789e+00 
71200 5.4607582404e+00 -3.8565977715e-06 1.9042907197e+00 -3.2983282789e+00 1.9042907197e+00 3.2983282789e+00 
71300 5.4607582441e+00 -3.7809145307e-06 1.9042907197e+00 -3.2983282789e+00 1.9042907197e+00 3.2983282789e+00 
71400 5.4607582479e+00 -3.7023305042e-06 1.9042907197e+00 -3.2983282789e+00 1.9042907197e+00 3.2983282789e+00 
71500 5.4607582515e+00 -3.6209249512e-06 1.9042907197e+00 -3.2983282789e+00 1.9042907197e+00 3.2983282789e+00 
71600 5.4607582552e+00 -3.5367790992e-06 1.9042907197e+00 -3.2983282789e+00 1.9042907197e+00 3.2983282789e+00 
71700 5.4607582587e+00 -3.4499759888e-06 1.9042907197e+00 -3.2983282789e+00 1.9042907197e+00 3.2983282789e+00 
71800 5.4607582623e+00 -3.3606003039e-06 1.9042907197e+00 -3.2983282789e+00 1.9042907197e+00 3.2983282789e+00 
71900 5.4607582658e+00 -3.2687382244e-06 1.9042907197e+00 -3.2983282789e+00 1.9042907197e+00 3.2983282789e+00 
72000 5.4607582692e+00 -3.1744772604e-06 1.9042907197e+00 -3.2983282789e+00 1.9042907197e+00 3.2983282789e+00 
72100 5.4607582726e+00 -3.0779061032e-06 1.9042907197e+00 -3.2983282789e+00 1.9042907197e+00 3.2983282789e+00 
72200 5.4607582760e+00 -2.9791144747e-06 1.9042907197e+00 -3.2983282789e+00 1.9042907197e+00 3.2983282789e+00 
72300 5.4607582793e+00 -2.8781929835e-06 1.9042907197e+00 -3.2983282789e+00 1.9042907197e+00 3.2983282789e+00 
72400 5.4607582826e+00 -2.7752329764e-06 1.9042907197e+00 -3.2983282789e+00 1.9042907197e+00 3.2983282789e+00 
72500 5.4607582859e+00 -2.6703264018e-06 1.9042907197e+00 -3.2983282789e+00 1.9042907197e+00 3.2983282789e+00 
72600 5.4607582891e+00 -2.5635656672e-06 1.9042907197e+00 -3.2983282789e+00 1.9042907197e+00 3.2983282789e+00 
72700 5.4607582923e+00 -2.4550435126e-06 1.9042907197e+00 -3.2983282789e+00 1.9042907197e+00 3.2983282789e+00 
72800 5.4607582954e+00 -2.3448528724e-06 1.9042907197e+00 -3.2983282789e+00 1.9042907197e+00 3.2983282789e+00 
72900 5.4607582985e+00 -2.2330867517e-06 1.9042907197e+00 -3.2983282789e+00 1.9042907197e+00 3.2983282789e+00 
73000 5.4607583015e+00 -2.1198381046e-06 1.9042907197e+00 -3.2983282789e+00 1.9042907197e+00 3.2983282789e+00 
73100 5.4607583046e+00 -2.0051997112e-06 1.9042907197e+00 -3.2983282789e+00 1.9042907197e+00 3.2983282789e+00 
73200 5.4607583076e+00 -1.8892640622e-06 1.9042907197e+00 -3.2983282789e+00 1.9042907197e+00 3.2983282789e+00 
73300 5.4607583105e+00 -1.7721232475e-06 1.9042907197e+00 -3.2983282789e+00 1.9042907197e+00 3.2983282789e+00 
73400 5.4607583134e+00 -1.6538688466e-06 1.9042907197e+00 -3.2983282789e+00 1.9042907197e+00 3.2983282789e+00 
73500 5.4607583163e+00 -1.5345918235e-06 1.9042907197e+00 -3.2983282789e+00 1.9042907197e+00 3.2983282789e+00 
73600 5.4607583192e+00 -1.4143824284e-06 1.9042907197e+00 -3.2983282789e+00 1.9042907197e+00 3.2983282789e+00 
73700 5.4607583220e+00 -1.2933300919e-06 1.9042907197e+00 -3.2983282789e+00 1.9042907197e+00 3.2983282789e+00 
73800 5.4607583248e+00 -1.1715233431e-06 1.9042907197e+00 -3.2983282789e+00 1.9042907197e+00 3.2983282789e+00 
73900 5.4607583275e+00 -1.0490497088e-06 1.9042907197e+00 -3.2983282789e+00 1.9042907197e+00 3.2983282789e+00 
74000 5.4607583302e+00 -9.2599564090e-07 1.9042907197e+00 -3.2983282789e+00 1.9042907197e+00 3.2983282789e+00 
74100 5.4607583329e+00 -8.0244641672e-07 1.9042907197e+00 -3.2983282789e+00 1.9042907197e+00 3.2983282789e+00 
74200 5.4607583356e+00 -6.7848607779e-07 1.9042907197e+00 -3.2983282789e+00 1.9042907197e+00 3.2983282789e+00 
74300 5.4607583382e+00 -5.5419734348e-07 1.9042907197e+00 -3.2983282789e+00 1.9042907197e+00 3.2983282789e+00 
74400 5.4607583408e+00 -4.2966154874e-07 1.9042907197e+00 -3.2983282789e+00 1.9042907197e+00 3.2983282789e+00 
74500 5.4607583433e+00 -3.0495857470e-07 1.9042907197e+00 -3.2983282789e+00 1.9042907197e+00 3.2983282789e+00 
74600 5.4607583459e+00 -1.8016678216e-07 1.9042907197e+00 -3.2983282789e+00 1.9042907197e+00 3.2983282789e+00 
74700 5.4607583483e+00 -5.5362954627e-08 1.9042907197e+00 -3.2983282789e+00 1.9042907197e+00 3.2983282789e+00 
74800 5.4607583508e+00 6.9377754533e-08 1.9042907197e+00 -3.2983282789e+00 1.9042907197e+00 3.2983282789e+00 
74900 5.4607583533e+00 1.9398187578e-07 1.9042907197e+00 -3.2983282789e+00 1.9042907197e+00 3.2983282789e+00 
75000 5.4607583557e+00 3.1837767484e-07 1.9042907197e+00 -3.2983282789e+00 1.9042907197e+00 3.2983282789e+00 
75100 5.4607583580e+00 4.4249519147e-07 1.9042907197e+00 -3.2983282789e+00 1.9042907197e+00 3.2983282789e+00 
75200 5.4607583604e+00 5.6626628637e-07 1.9042907197e+00 -3.2983282789e+00 1.9042907197e+00 3.2983282789e+00 
75300 5.4607583627e+00 6.8962467282e-07 1.9042907197e+00 -3.2983282789e+00 1.9042907197e+00 3.2983282789e+00 
75400 5.4607583650e+00 8.1250595750e-07 1.9042907197e+00 -3.2983282789e+00 1.9042907197e+00 3.2983282789e+00 
75500 5.4607583673e+00 9.3484766578e-07 1.9042907197e+00 -3.2983282789e+00 1.9042907197e+00 3.2983282789e+00 
75600 5.4607583695e+00 1.0565892673e-06 1.9042907197e+00 -3.2983282789e+00 1.9042907197e+00 3.2983282789e+00 
75700 5.4607583717e+00 1.1776722128e-06 1.9042907197e+00 -3.2983282789e+00 1.9042907197e+00 3.2983282789e+00 
75800 5.4607583739e+00 1.2980399397e-06 1.9042907197e+00 -3.2983282789e+00 1.9042907197e+00 3.2983282789e+00 
75900 5.4607583761e+00 1.4176379006e-06 1.9042907197e+00 -3.2983282789e+00 1.9042907197e+00 3.2983282789e+00 
76000 5.4607583782e+00 1.5364135680e-06 1.9042907197e+00 -3.2983282789e+00 1.9042907197e+00 3.2983282789e+00 
76100 5.4607583803e+00 1.6543164590e-06 1.9042907197e+00 -3.2983282789e+00 1.9042907197e+00 3.2983282789e+00 
76200 5.4607583824e+00 1.7712981329e-06 1.9042907197e+00 -3.2983282789e+00 1.9042907197e+00 3.2983282789e+00 
76300 5.4607583844e+00 1.8873122048e-06 1.9042907197e+00 -3.2983282789e+00 1.9042907197e+00 3.2983282789e+00 
76400 5.4607583865e+00 2.0023143442e-06 1.9042907197e+00 -3.2983282789e+00 1.9042907197e+00 3.2983282789e+00 
76500 5.4607583885e+00 2.1162622739e-06 1.9042907197e+00 -3.2983282789e+00 1.9042907197e+00 3.2983282789e+00 
76600 5.4607583905e+00 2.2291157739e-06 1.9042907197e+00 -3.2983282789e+00 1.9042907197e+00 3.2983282789e+00 
76700 5.4607583924e+00 2.3408366774e-06 1.9042907197e+00 -3.2983282789e+00 1.9042907197e+00 3.2983282789e+00 
76800 5.4607583944e+00 2.4513888522e-06 1.9042907197e+00 -3.2983282789e+00 1.9042907197e+00 3.2983282789e+00 
76900 5.4607583963e+00 2.5607382044e-06 1.9042907197e+00 -3.2983282789e+00 1.9042907197e+00 3.2983282789e+00 
77000 5.4607583982e+00 2.6688526572e-06 1.9042907197e+00 -3.2983282789e+00 1.9042907197e+00 3.2983282789e+00 
77100 5.4607584000e+00 2.7757021458e-06 1.9042907197e+00 -3.2983282789e+00 1.9042907197e+00 3.2983282789e+00 
77200 5.4607584019e+00 2.8812585894e-06 1.9042907197e+00 -3.2983282789e+00 1.9042907197e+00 3.2983282789e+00 
77300 5.4607584037e+00 2.9854958875e-06 1.9042907197e+00 -3.2983282789e+00 1.9042907197e+00 3.2983282789e+00 
77400 5.4607584055e+00 3.0883898838e-06 1.9042907197e+00 -3.2983282789e+00 1.9042907197e+00 3.2983282789e+00 
77500 5.4607584073e+00 3.1899183569e-06 1.9042907197e+00 -3.2983282789e+00 1.9042907197e+00 3.2983282789e+00 
77600 5.4607584090e+00 3.2900609878e-06 1.9042907197e+00 -3.2983282789e+00 1.9042907197e+00 3.2983282789e+00 
77700 5.4607584108e+00 3.3887993405e-06 1.9042907197e+00 -3.2983282789e+00 1.9042907197e+00 3.2983282789e+00 
77800 5.4607584125e+00 3.4861168309e-06 1.9042907197e+00 -3.2983282789e+00 1.9042907197e+00 3.2983282789e+00 
77900 5.4607584142e+00 3.5819986956e-06 1.9042907197e+00 -3.2983282789e+00 1.9042907197e+00 3.2983282789e+00 
78000 5.4607584158e+00 3.6764319681e-06 1.9042907197e+00 -3.2983282789e+00 1.9042907197e+00 3.2983282789e+00 
78100 5.4607584175e+00 3.7694054428e-06 1.9042907197e+00 -3.2983282789e+00 1.9042907197e+00 3.2983282789e+00 
78200 5.4607584191e+00 3.8609096393e-06 1.9042907197e+00 -3.2983282789e+00 1.9042907197e+00 3.2983282789e+00 
78300 5.4607584207e+00 3.9509367730e-06 1.9042907197e+00 -3.2983282789e+00 1.9042907197e+00 3.2983282789e+00 
78400 5.4607584223e+00 4.0394807164e-06 1.9042907197e+00 -3.2983282789e+00 1.9042907197e+00 3.2983282789e+00 
78500 5.4607584239e+00 4.1265369634e-06 1.9042907197e+00 -3.2983282789e+00 1.9042907197e+00 3.2983282789e+00 
78600 5.4607584255e+00 4.2121025928e-06 1.9042907197e+00 -3.2983282789e+00 1.9042907197e+00 3.2983282789e+00 
78700 5.4607584270e+00 4.2961762259e-06 1.9042907197e+00 -3.2983282789e+00 1.9042907197e+00 3.2983282789e+00 
78800 5.4607584285e+00 4.3787579895e-06 1.9042907197e+00 -3.2983282789e+00 1.9042907197e+00 3.2983282789e+00 
78900 5.4607584300e+00 4.4598494759e-06 1.9042907197e+00 -3.2983282789e+00 1.9042907197e+00 3.2983282789e+00 
79000 5.4607584315e+00 4.5394537010e-06 1.9042907197e+00 -3.2983282789e+00 1.9042907197e+00 3.2983282789e+00 
79100 5.4607584330e+00 4.6175750642e-06 1.9042907197e+00 -3.2983282789e+00 1.9042907197e+00 3.2983282789e+00 
79200 5.4607584344e+00 4.6942193010e-06 1.9042907197e+00 -3.2983282789e+00 1.9042907197e+00 3.2983282789e+00 
79300 5.4607584358e+00 4.7693934485e-06 1.9042907197e+00 -3.2983282789e+00 1.9042907197e+00 3.2983282789e+00 
79400 5.4607584372e+00 4.8431057922e-06 1.9042907197e+00 -3.2983282789e+00 1.9042907197e+00 3.2983282789e+00 
79500 5.4607584386e+00 4.9153658334e-06 1.9042907197e+00 -3.2983282789e+00 1.9042907197e+00 3.2983282789e+00 
79600 5.4607584400e+00 4.9861842399e-06 1.9042907197e+00 -3.2983282789e+00 1.9042907197e+00 3.2983282789e+00 
79700 5.4607584414e+00 5.0555727962e-06 1.9042907197e+00 -3.2983282789e+00 1.9042907197e+00 3.2983282789e+00 
79800 5.4607584427e+00 5.1235443689e-06 1.9042907197e+00 -3.2983282789e+00 1.9042907197e+00 3.2983282789e+00 
79900 5.4607584440e+00 5.1901128550e-06 1.9042907197e+00 -3.2983282789e+00 1.9042907197e+00 3.2983282789e+00 
80000 5.4607584454e+00 5.2552931484e-06 1.9042907197e+00 -3.2983282789e+00 1.9042907197e+00 3.2983282789e+00 
80100 5.4607584467e+00 5.3191010777e-06 1.9042907197e+00 -3.2983282789e+00 1.9042907197e+00 3.2983282789e+00 
80200 5.4607584479e+00 5.3815533807e-06 1.9042907197e+00 -3.2983282789e+00 1.9042907197e+00 3.2983282789e+00 
80300 5.4607584492e+00 5.4426676430e-06 1.9042907197e+00 -3.2983282789e+00 1.9042907197e+00 3.2983282789e+00 
80400 5.4607584505e+00 5.5024622707e-06 1.9042907197e+00 -3.2983282789e+00 1.9042907197e+00 3.2983282789e+00 
80500 5.4607584517e+00 5.5609564322e-06 1.9042907197e+00 -3.2983282789e+00 1.9042907197e+00 3.2983282789e+00 
80600 5.4607584529e+00 5.6181700219e-06 1.9042907197e+00 -3.2983282789e+00 1.9042907197e+00 3.2983282789e+00 
80700 5.4607584541e+00 5.6741236169e-06 1.9042907197e+00 -3.2983282789e+00 1.9042907197e+00 3.2983282789e+00 
80800 5.4607584553e+00 5.7288384278e-06 1.9042907197e+00 -3.2983282789e+00 1.9042907197e+00 3.2983282789e+00 
80900 5.4607584565e+00 5.7823362699e-06 1.9042907197e+00 -3.2983282789e+00 1.9042907197e+00 3.2983282789e+00 
81000 5.4607584577e+00 5.8346395057e-06 1.9042907197e+00 -3.2983282789e+00 1.9042907197e+00 3.2983282789e+00 
81100 5.4607584588e+00 5.8857710073e-06 1.9042907197e+00 -3.2983282789e+00 1.9042907197e+00 3.2983282789e+00 
81200 5.4607584600e+00 5.9357541255e-06 1.9042907197e+00 -3.2983282789e+00 1.9042907197e+00 3.2983282789e+00 
81300 5.4607584611e+00 5.9846126367e-06 1.9042907197e+00 -3.2983282789e+00 1.9042907197e+00 3.2983282789e+00 
81400 5.4607584622e+00 6.0323707080e-06 1.9042907197e+00 -3.2983282789e+00 1.9042907197e+00 3.2983282789e+00 
81500 5.4607584633e+00 6.0790528614e-06 1.9042907197e+00 -3.2983282789e+00 1.9042907197e+00 3.2983282789e+00 
81600 5.4607584644e+00 6.1246839255e-06 1.9042907197e+00 -3.2983282789e+00 1.9042907197e+00 3.2983282789e+00 
81700 5.4607584654e+00 6.1692890096e-06 1.9042907197e+00 -3.2983282789e+00 1.9042907197e+00 3.2983282789e+00 
81800 5.4607584665e+00 6.2128934555e-06 1.9042907197e+00 -3.2983282789e+00 1.9042907197e+00 3.2983282789e+00 
81900 5.4607584675e+00 6.2555228123e-06 1.9042907197e+00 -3.2983282789e+00 1.9042907197e+00 3.2983282789e+00 
82000 5.4607584686e+00 6.2972027889e-06 1.9042907197e+00 -3.2983282789e+00 1.9042907197e+00 3.2983282789e+00 
82100 5.4607584696e+00 6.3379592277e-06 1.9042907197e+00 -3.2983282789e+00 1.9042907197e+00 3.2983282789e+00 
82200 5.4607584706e+00 6.3778180651e-06 1.9042907197e+00 -3.2983282789e+00 1.9042907197e+00 3.2983282789e+00 
82300 5.4607584716e+00 6.4168053041e-06 1.9042907197e+00 -3.2983282789e+00 1.9042907197e+00 3.2983282789e+00 
82400 5.4607584726e+00 6.4549469780e-06 1.9042907197e+00 -3.2983282789e+00 1.9042907197e+00 3.2983282789e+00 
82500 5.4607584736e+00 6.4922691153e-06 1.9042907197e+00 -3.2983282789e+00 1.9042907197e+00 3.2983282789e+00 
82600 5.4607584745e+00 6.5287977162e-06 1.9042907197e+00 -3.2983282789e+00 1.9042907197e+00 3.2983282789e+00 
82700 5.4607584755e+00 6.5645587231e-06 1.9042907197e+00 -3.2983282789e+00 1.9042907197e+00 3.2983282789e+00 
82800 5.4607584764e+00 6.5995779821e-06 1.9042907197e+00 -3.2983282789e+00 1.9042907197e+00 3.2983282789e+00 
82900 5.4607584774e+00 6.6338812255e-06 1.9042907197e+00 -3.2983282789e+00 1.9042907197e+00 3.2983282789e+00 
83000 5.4607584783e+00 6.6674940407e-06 1.9042907197e+00 -3.2983282789e+00 1.9042907197e+00 3.2983282789e+00 
83100 5.4607584792e+00 6.7004418442e-06 1.9042907197e+00 -3.2983282789e+00 1.9042907197e+00 3.2983282789e+00 
83200 5.4607584801e+00 6.7327498569e-06 1.9042907197e+00 -3.2983282789e+00 1.9042907197e+00 3.2983282789e+00 
83300 5.4607584810e+00 6.7644430772e-06 1.9042907197e+00 -3.2983282789e+00 1.9042907197e+00 3.2983282789e+00 
83400 5.4607584818e+00 6.7955462643e-06 1.9042907197e+00 -3.2983282789e+00 1.9042907197e+00 3.2983282789e+00 
83500 5.4607584827e+00 6.8260839079e-06 1.9042907197e+00 -3.2983282789e+00 1.9042907197e+00 3.2983282789e+00 
83600 5.4607584836e+00 6.8560802127e-06 1.9042907197e+00 -3.2983282789e+00 1.9042907197e+00 3.2983282789e+00 
83700 5.4607584844e+00 6.8855590787e-06 1.9042907197e+00 -3.2983282789e+00 1.9042907197e+00 3.2983282789e+00 
83800 5.4607584852e+00 6.9145440787e-06 1.9042907197e+00 -3.2983282789e+00 1.9042907197e+00 3.2983282789e+00 
83900 5.4607584861e+00 6.9430584356e-06 1.9042907197e+00 -3.2983282789e+00 1.9042907197e+00 3.2983282789e+00 
84000 5.4607584869e+00 6.9711250175e-06 1.9042907197e+00 -3.2983282789e+00 1.9042907197e+00 3.2983282789e+00 
84100 5.4607584877e+00 6.9987663094e-06 1.9042907197e+00 -3.2983282789e+00 1.9042907197e+00 3.2983282789e+00 
84200 5.4607584885e+00 7.0260044020e-06 1.9042907197e+00 -3.2983282789e+00 1.9042907197e+00 3.2983282789e+00 
84300 5.4607584893e+00 7.0528609794e-06 1.9042907197e+00 -3.2983282789e+00 1.9042907197e+00 3.2983282789e+00 
84400 5.4607584900e+00 7.0793573003e-06 1.9042907197e+00 -3.2983282789e+00 1.9042907197e+00 3.2983282789e+00 
84500 5.4607584908e+00 7.1055141892e-06 1.9042907197e+00 -3.2983282789e+00 1.9042907197e+00 3.2983282789e+00 
84600 5.4607584916e+00 7.1313520215e-06 1.9042907197e+00 -3.2983282789e+00 1.9042907197e+00 3.2983282789e+00 
84700 5.4607584923e+00 7.1568907157e-06 1.9042907197e+00 -3.2983282789e+00 1.9042907197e+00 3.2983282789e+00 
84800 5.4607584931e+00 7.1821497213e-06 1.9042907197e+00 -3.2983282789e+00 1.9042907197e+00 3.2983282789e+00 
84900 5.4607584938e+00 7.2071480080e-06 1.9042907197e+00 -3.2983282789e+00 1.9042907197e+00 3.2983282789e+00 
85000 5.4607584945e+00 7.2319040628e-06 1.9042907197e+00 -3.2983282789e+00 1.9042907197e+00 3.2983282789e+00 
85100 5.4607584952e+00 7.2564358739e-06 1.9042907197e+00 -3.2983282789e+00 1.9042907197e+00 3.2983282789e+00 
85200 5.4607584959e+00 7.2807609303e-06 1.9042907197e+00 -3.2983282789e+00 1.9042907197e+00 3.2983282789e+00 
85300 5.4607584966e+00 7.3048962173e-06 1.9042907197e+00 -3.2983282789e+00 1.9042907197e+00 3.2983282789e+00 
85400 5.4607584973e+00 7.3288582038e-06 1.9042907197e+00 -3.2983282789e+00 1.9042907197e+00 3.2983282789e+00 
85500 5.4607584980e+00 7.3526628450e-06 1.9042907197e+00 -3.2983282789e+00 1.9042907197e+00 3.2983282789e+00 
85600 5.4607584987e+00 7.3763255742e-06 1.9042907197e+00 -3.2983282789e+00 1.9042907197e+00 3.2983282789e+00 
85700 5.4607584993e+00 7.3998613040e-06 1.9042907197e+00 -3.2983282789e+00 1.9042907197e+00 3.2983282789e+00 
85800 5.4607585000e+00 7.4232844186e-06 1.9042907197e+00 -3.2983282789e+00 1.9042907197e+00 3.2983282789e+00 
85900 5.4607585007e+00 7.4466087814e-06 1.9042907197e+00 -3.2983282789e+00 1.9042907197e+00 3.2983282789e+00 
86000 5.4607585013e+00 7.4698477217e-06 1.9042907197e+00 -3.2983282789e+00 1.9042907197e+00 3.2983282789e+00 
86100 5.4607585019e+00 7.4930140457e-06 1.9042907197e+00 -3.2983282789e+00 1.9042907197e+00 3.2983282789e+00 
86200 5.4607585026e+00 7.5161200332e-06 1.9042907197e+00 -3.2983282789e+00 1.9042907197e+00 3.2983282789e+00 
86300 5.4607585032e+00 7.5391774363e-06 1.9042907197e+00 -3.2983282789e+00 1.9042907197e+00 3.2983282789e+00 
86400 5.4607585038e+00 7.5621974843e-06 1.9042907197e+00 -3.2983282789e+00 1.9042907197e+00 3.2983282789e+00 
86500 5.4607585044e+00 7.5851908874e-06 1.9042907197e+00 -3.2983282789e+00 1.9042907197e+00 3.2983282789e+00 
86600 5.4607585050e+00 7.6081678332e-06 1.9042907197e+00 -3.2983282789e+00 1.9042907197e+00 3.2983282789e+00 
86700 5.4607585056e+00 7.6311379992e-06 1.9042907197e+00 -3.2983282789e+00 1.9042907197e+00 3.2983282789e+00 
86800 5.4607585062e+00 7.6541105491e-06 1.9042907197e+00 -3.2983282789e+00 1.9042907197e+00 3.2983282789e+00 
86900 5.4607585067e+00 7.6770941432e-06 1.9042907197e+00 -3.2983282789e+00 1.9042907197e+00 3.2983282789e+00 
87000 5.4607585073e+00 7.7000969385e-06 1.9042907197e+00 -3.2983282789e+00 1.9042907197e+00 3.2983282789e+00 
87100 5.4607585079e+00 7.7231265968e-06 1.9042907197e+00 -3.2983282789e+00 1.9042907197e+00 3.2983282789e+00 
87200 5.4607585084e+00 7.7461902935e-06 1.9042907197e+00 -3.2983282789e+00 1.9042907197e+00 3.2983282789e+00 
87300 5.4607585090e+00 7.7692947201e-06 1.9042907197e+00 -3.2983282789e+00 1.9042907197e+00 3.2983282789e+00 
87400 5.4607585095e+00 7.7924460887e-06 1.9042907197e+00 -3.2983282789e+00 1.9042907197e+00 3.2983282789e+00 
87500 5.4607585101e+00 7.8156501488e-06 1.9042907197e+00 -3.2983282789e+00 1.9042907197e+00 3.2983282789e+00 
87600 5.4607585106e+00 7.8389121840e-06 1.9042907197e+00 -3.2983282789e+00 1.9042907197e+00 3.2983282789e+00 
87700 5.4607585111e+00 7.8622370283e-06 1.9042907197e+00 -3.2983282789e+00 1.9042907197e+00 3.2983282789e+00 
87800 5.4607585116e+00 7.8856290689e-06 1.9042907197e+00 -3.2983282789e+00 1.9042907197e+00 3.2983282789e+00 
87900 5.4607585122e+00 7.9090922569e-06 1.9042907197e+00 -3.2983282789e+00 1.9042907197e+00 3.2983282789e+00 
88000 5.4607585127e+00 7.9326301179e-06 1.9042907197e+00 -3.2983282789e+00 1.9042907197e+00 3.2983282789e+00 
88100 5.4607585132e+00 7.9562457598e-06 1.9042907197e+00 -3.2983282789e+00 1.9042907197e+00 3.2983282789e+00 
88200 5.4607585137e+00 7.9799418787e-06 1.9042907197e+00 -3.2983282789e+00 1.9042907197e+00 3.2983282789e+00 
88300 5.4607585142e+00 8.0037207763e-06 1.9042907197e+00 -3.2983282789e+00 1.9042907197e+00 3.2983282789e+00 
88400 5.4607585146e+00 8.0275843628e-06 1.9042907197e+00 -3.2983282789e+00 1.9042907197e+00 3.2983282789e+00 
88500 5.4607585151e+00 8.0515341699e-06 1.9042907197e+00 -3.2983282789e+00 1.9042907197e+00 3.2983282789e+00 
88600 5.4607585156e+00 8.0755713634e-06 1.9042907197e+00 -3.2983282789e+00 1.9042907197e+00 3.2983282789e+00 
88700 5.4607585161e+00 8.0996967477e-06 1.9042907197e+00 -3.2983282789e+00 1.9042907197e+00 3.2983282789e+00 
88800 5.4607585165e+00 8.1239107828e-06 1.9042907197e+00 -3.2983282789e+00 1.9042907197e+00 3.2983282789e+00 
88900 5.4607585170e+00 8.1482135880e-06 1.9042907197e+00 -3.2983282789e+00 1.9042907197e+00 3.2983282789e+00 
89000 5.4607585174e+00 8.1726049624e-06 1.9042907197e+00 -3.2983282789e+00 1.9042907197e+00 3.2983282789e+00 
89100 5.4607585179e+00 8.1970843859e-06 1.9042907197e+00 -3.2983282789e+00 1.9042907197e+00 3.2983282789e+00 
89200 5.4607585183e+00 8.2216510363e-06 1.9042907197e+00 -3.2983282789e+00 1.9042907197e+00 3.2983282789e+00 
89300 5.4607585187e+00 8.2463037966e-06 1.9042907197e+00 -3.2983282789e+00 1.9042907197e+00 3.2983282789e+00 
89400 5.4607585192e+00 8.2710412685e-06 1.9042907197e+00 -3.2983282789e+00 1.9042907197e+00 3.2983282789e+00 
89500 5.4607585196e+00 8.2958617885e-06 1.9042907197e+00 -3.2983282789e+00 1.9042907197e+00 3.2983282789e+00 
89600 5.4607585200e+00 8.3207634247e-06 1.9042907197e+00 -3.2983282789e+00 1.9042907197e+00 3.2983282789e+00 
89700 5.4607585204e+00 8.3457440011e-06 1.9042907197e+00 -3.2983282789e+00 1.9042907197e+00 3.2983282789e+00 
89800 5.4607585208e+00 8.3708011054e-06 1.9042907197e+00 -3.2983282789e+00 1.9042907197e+00 3.2983282789e+00 
89900 5.4607585212e+00 8.3959320983e-06 1.9042907197e+00 -3.2983282789e+00 1.9042907197e+00 3.2983282789e+00 
90000 5.4607585216e+00 8.4211341241e-06 1.9042907197e+00 -3.2983282789e+00 1.9042907197e+00 3.2983282789e+00 
90100 5.4607585220e+00 8.4464041262e-06 1.9042907197e+00 -3.2983282789e+00 1.9042907197e+00 3.2983282789e+00 
90200 5.4607585224e+00 8.4717388490e-06 1.9042907197e+00 -3.2983282789e+00 1.9042907197e+00 3.2983282789e+00 
90300 5.4607585228e+00 8.4971348626e-06 1.9042907197e+00 -3.2983282789e+00 1.9042907197e+00 3.2983282789e+00 
90400 5.4607585232e+00 8.5225885562e-06 1.9042907197e+00 -3.2983282789e+00 1.9042907197e+00 3.2983282789e+00 
90500 5.4607585236e+00 8.5480961669e-06 1.9042907197e+00 -3.2983282789e+00 1.9042907197e+00 3.2983282789e+00 
90600 5.4607585239e+00 8.5736537766e-06 1.9042907197e+00 -3.2983282789e+00 1.9042907197e+00 3.2983282789e+00 
90700 5.4607585243e+00 8.5992573273e-06 1.9042907197e+00 -3.2983282789e+00 1.9042907197e+00 3.2983282789e+00 
90800 5.4607585247e+00 8.6249026338e-06 1.9042907197e+00 -3.2983282789e+00 1.9042907197e+00 3.2983282789e+00 
90900 5.4607585250e+00 8.6505853910e-06 1.9042907197e+00 -3.2983282789e+00 1.9042907197e+00 3.2983282789e+00 
91000 5.4607585254e+00 8.6763011807e-06 1.9042907197e+00 -3.2983282789e+00 1.9042907197e+00 3.2983282789e+00 
91100 5.4607585257e+00 8.7020454893e-06 1.9042907197e+00 -3.2983282789e+00 1.9042907197e+00 3.2983282789e+00 
91200 5.4607585261e+00 8.7278137133e-06 1.9042907197e+00 -3.2983282789e+00 1.9042907197e+00 3.2983282789e+00 
91300 5.4607585264e+00 8.7536011674e-06 1.9042907197e+00 -3.2983282789e+00 1.9042907197e+00 3.2983282789e+00 
91400 5.4607585268e+00 8.7794030952e-06 1.9042907197e+00 -3.2983282789e+00 1.9042907197e+00 3.2983282789e+00 
91500 5.4607585271e+00 8.8052146791e-06 1.9042907197e+00 -3.2983282789e+00 1.9042907197e+00 3.2983282789e+00 
91600 5.4607585274e+00 8.8310310473e-06 1.9042907197e+00 -3.2983282789e+00 1.9042907197e+00 3.2983282789e+00 
91700 5.4607585278e+00 8.8568472860e-06 1.9042907197e+00 -3.2983282789e+00 1.9042907197e+00 3.2983282789e+00 
91800 5.4607585281e+00 8.8826584464e-06 1.9042907197e+00 -3.2983282789e+00 1.9042907197e+00 3.2983282789e+00 
91900 5.4607585284e+00 8.9084595516e-06 1.9042907197e+00 -3.2983282789e+00 1.9042907197e+00 3.2983282789e+00 
92000 5.4607585287e+00 8.9342456057e-06 1.9042907197e+00 -3.2983282789e+00 1.9042907197e+00 3.2983282789e+00 
92100 5.4607585290e+00 8.9600116008e-06 1.9042907197e+00 -3.2983282789e+00 1.9042907197e+00 3.2983282789e+00 
92200 5.4607585293e+00 8.9857525275e-06 1.9042907197e+00 -3.2983282789e+00 1.9042907197e+00 3.2983282789e+00 
92300 5.4607585297e+00 9.0114633787e-06 1.9042907197e+00 -3.2983282789e+00 1.9042907197e+00 3.2983282789e+00 
92400 5.4607585300e+00 9.0371391623e-06 1.9042907197e+00 -3.2983282789e+00 1.9042907197e+00 3.2983282789e+00 
92500 5.4607585303e+00 9.0627748994e-06 1.9042907197e+00 -3.2983282789e+00 1.9042907197e+00 3.2983282789e+00 
92600 5.4607585305e+00 9.0883656423e-06 1.9042907197e+00 -3.2983282789e+00 1.9042907197e+00 3.2983282789e+00 
92700 5.4607585308e+00 9.1139064699e-06 1.9042907197e+00 -3.2983282789e+00 1.9042907197e+00 3.2983282789e+00 
92800 5.4607585311e+00 9.1393925040e-06 1.9042907197e+00 -3.2983282789e+00 1.9042907197e+00 3.2983282789e+00 
92900 5.4607585314e+00 9.1648189071e-06 1.9042907197e+00 -3.2983282789e+00 1.9042907197e+00 3.2983282789e+00 
93000 5.4607585317e+00 9.1901808945e-06 1.9042907197e+00 -3.2983282789e+00 1.9042907197e+00 3.2983282789e+00 
93100 5.4607585320e+00 9.2154737368e-06 1.9042907197e+00 -3.2983282789e+00 1.9042907197e+00 3.2983282789e+00 
93200 5.4607585322e+00 9.2406927636e-06 1.9042907197e+00 -3.2983282789e+00 1.9042907197e+00 3.2983282789e+00 
93300 5.4607585325e+00 9.2658333727e-06 1.9042907197e+00 -3.2983282789e+00 1.9042907197e+00 3.2983282789e+00 
93400 5.4607585328e+00 9.2908910340e-06 1.9042907197e+00 -3.2983282789e+00 1.9042907197e+00 3.2983282789e+00 
93500 5.4607585330e+00 9.3158612921e-06 1.9042907197e+00 -3.2983282789e+00 1.9042907197e+00 3.2983282789e+00 
93600 5.4607585333e+00 9.3407397731e-06 1.9042907197e+00 -3.2983282789e+00 1.9042907197e+00 3.2983282789e+00 
93700 5.4607585336e+00 9.3655221866e-06 1.9042907197e+00 -3.2983282789e+00 1.9042907197e+00 3.2983282789e+00 
93800 5.4607585338e+00 9.3902043315e-06 1.9042907197e+00 -3.2983282789e+00 1.9042907197e+00 3.2983282789e+00 
93900 5.4607585341e+00 9.4147820993e-06 1.9042907197e+00 -3.2983282789e+00 1.9042907197e+00 3.2983282789e+00 
94000 5.4607585343e+00 9.4392514749e-06 1.9042907197e+00 -3.2983282789e+00 1.9042907197e+00 3.2983282789e+00 
94100 5.4607585346e+00 9.4636085472e-06 1.9042907197e+00 -3.2983282789e+00 1.9042907197e+00 3.2983282789e+00 
94200 5.4607585348e+00 9.4878495031e-06 1.9042907197e+00 -3.2983282789e+00 1.9042907197e+00 3.2983282789e+00 
94300 5.4607585351e+00 9.5119706365e-06 1.9042907197e+00 -3.2983282789e+00 1.9042907197e+00 3.2983282789e+00 
94400 5.4607585353e+00 9.5359683485e-06 1.9042907197e+00 -3.2983282789e+00 1.9042907197e+00 3.2983282789e+00 
94500 5.4607585355e+00 9.5598391515e-06 1.9042907197e+00 -3.2983282789e+00 1.9042907197e+00 3.2983282789e+00 
94600 5.4607585358e+00 9.5835796666e-06 1.9042907197e+00 -3.2983282789e+00 1.9042907197e+00 3.2983282789e+00 
94700 5.4607585360e+00 9.6071866337e-06 1.9042907197e+00 -3.2983282789e+00 1.9042907197e+00 3.2983282789e+00 
94800 5.4607585362e+00 9.6306569043e-06 1.9042907197e+00 -3.2983282789e+00 1.9042907197e+00 3.2983282789e+00 
94900 5.4607585365e+00 9.6539874520e-06 1.9042907197e+00 -3.2983282789e+00 1.9042907197e+00 3.2983282789e+00 
95000 5.4607585367e+00 9.6771753673e-06 1.9042907197e+00 -3.2983282789e+00 1.9042907197e+00 3.2983282789e+00 
95100 5.4607585369e+00 9.7002178578e-06 1.9042907197e+00 -3.2983282789e+00 1.9042907197e+00 3.2983282789e+00 
95200 5.4607585371e+00 9.7231122596e-06 1.9042907197e+00 -3.2983282789e+00 1.9042907197e+00 3.2983282789e+00 
95300 5.4607585373e+00 9.7458560229e-06 1.9042907197e+00 -3.2983282789e+00 1.9042907197e+00 3.2983282789e+00 
95400 5.4607585375e+00 9.7684467253e-06 1.9042907197e+00 -3.2983282789e+00 1.9042907197e+00 3.2983282789e+00 
95500 5.4607585377e+00 9.7908820665e-06 1.9042907197e+00 -3.2983282789e+00 1.9042907197e+00 3.2983282789e+00 
95600 5.4607585380e+00 9.8131598677e-06 1.9042907197e+00 -3.2983282789e+00 1.9042907197e+00 3.2983282789e+00 
95700 5.4607585382e+00 9.8352780746e-06 1.9042907197e+00 -3.2983282789e+00 1.9042907197e+00 3.2983282789e+00 
95800 5.4607585384e+00 9.8572347574e-06 1.9042907197e+00 -3.2983282789e+00 1.9042907197e+00 3.2983282789e+00 
95900 5.4607585386e+00 9.8790281076e-06 1.9042907197e+00 -3.2983282789e+00 1.9042907197e+00 3.2983282789e+00 
96000 5.4607585388e+00 9.9006564412e-06 1.9042907197e+00 -3.2983282789e+00 1.9042907197e+00 3.2983282789e+00 
96100 5.4607585390e+00 9.9221181944e-06 1.9042907197e+00 -3.2983282789e+00 1.9042907197e+00 3.2983282789e+00 
96200 5.4607585391e+00 9.9434119258e-06 1.9042907197e+00 -3.2983282789e+00 1.9042907197e+00 3.2983282789e+00 
96300 5.4607585393e+00 9.9645363151e-06 1.9042907197e+00 -3.2983282789e+00 1.9042907197e+00 3.2983282789e+00 
96400 5.4607585395e+00 9.9854901596e-06 1.9042907197e+00 -3.2983282789e+00 1.9042907197e+00 3.2983282789e+00 
96500 5.4607585397e+00 1.0006272381e-05 1.9042907197e+00 -3.2983282789e+00 1.9042907197e+00 3.2983282789e+00 
96600 5.4607585399e+00 1.0026882010e-05 1.9042907197e+00 -3.2983282789e+00 1.9042907197e+00 3.2983282789e+00 
96700 5.4607585401e+00 1.0047318201e-05 1.9042907197e+00 -3.2983282789e+00 1.9042907197e+00 3.2983282789e+00 
96800 5.4607585403e+00 1.0067580219e-05 1.9042907197e+00 -3.2983282789e+00 1.9042907197e+00 3.2983282789e+00 
96900 5.4607585404e+00 1.0087667443e-05 1.9042907197e+00 -3.2983282789e+00 1.9042907197e+00 3.2983282789e+00 
97000 5.4607585406e+00 1.0107579363e-05 1.9042907197e+00 -3.2983282789e+00 1.9042907197e+00 3.2983282789e+00 
97100 5.4607585408e+00 1.0127315582e-05 1.9042907197e+00 -3.2983282789e+00 1.9042907197e+00 3.2983282789e+00 
97200 5.4607585410e+00 1.0146875807e-05 1.9042907197e+00 -3.2983282789e+00 1.9042907197e+00 3.2983282789e+00 
97300 5.4607585411e+00 1.0166259853e-05 1.9042907197e+00 -3.2983282789e+00 1.9042907197e+00 3.2983282789e+00 
97400 5.4607585413e+00 1.0185467637e-05 1.9042907197e+00 -3.2983282789e+00 1.9042907197e+00 3.2983282789e+00 
97500 5.4607585415e+00 1.0204499184e-05 1.9042907197e+00 -3.2983282789e+00 1.9042907197e+00 3.2983282789e+00 
97600 5.4607585416e+00 1.0223354609e-05 1.9042907197e+00 -3.2983282789e+00 1.9042907197e+00 3.2983282789e+00 
97700 5.4607585418e+00 1.0242034132e-05 1.9042907197e+00 -3.2983282789e+00 1.9042907197e+00 3.2983282789e+00 
97800 5.4607585420e+00 1.0260538068e-05 1.9042907197e+00 -3.2983282789e+00 1.9042907197e+00 3.2983282789e+00 
97900 5.4607585421e+00 1.0278866819e-05 1.9042907197e+00 -3.2983282789e+00 1.9042907197e+00 3.2983282789e+00 
98000 5.4607585423e+00 1.0297020885e-05 1.9042907197e+00 -3.2983282789e+00 1.9042907197e+00 3.2983282789e+00 
98100 5.4607585424e+00 1.0315000851e-05 1.9042907197e+00 -3.2983282789e+00 1.9042907197e+00 3.2983282789e+00 
98200 5.4607585426e+00 1.0332807386e-05 1.9042907197e+00 -3.2983282789e+00 1.9042907197e+00 3.2983282789e+00 
98300 5.4607585427e+00 1.0350441244e-05 1.9042907197e+00 -3.2983282789e+00 1.9042907197e+00 3.2983282789e+00 
98400 5.4607585429e+00 1.0367903256e-05 1.9042907197e+00 -3.2983282789e+00 1.9042907197e+00 3.2983282789e+00 
98500 5.4607585430e+00 1.0385194337e-05 1.9042907197e+00 -3.2983282789e+00 1.9042907197e+00 3.2983282789e+00 
98600 5.4607585432e+00 1.0402315472e-05 1.9042907197e+00 -3.2983282789e+00 1.9042907197e+00 3.2983282789e+00 
98700 5.4607585433e+00 1.0419267720e-05 1.9042907197e+00 -3.2983282789e+00 1.9042907197e+00 3.2983282789e+00 
98800 5.4607585435e+00 1.0436052210e-05 1.9042907197e+00 -3.2983282789e+00 1.9042907197e+00 3.2983282789e+00 
98900 5.4607585436e+00 1.0452670138e-05 1.9042907197e+00 -3.2983282789e+00 1.9042907197e+00 3.2983282789e+00 
99000 5.4607585437e+00 1.0469122766e-05 1.9042907197e+00 -3.2983282789e+00 1.9042907197e+00 3.2983282789e+00 
99100 5.4607585439e+00 1.0485411415e-05 1.9042907197e+00 -3.2983282789e+00 1.9042907197e+00 3.2983282789e+00 
99200 5.4607585440e+00 1.0501537466e-05 1.9042907197e+00 -3.2983282789e+00 1.9042907197e+00 3.2983282789e+00 
99300 5.4607585441e+00 1.0517502358e-05 1.9042907197e+00 -3.2983282789e+00 1.9042907197e+00 3.2983282789e+00 
99400 5.4607585443e+00 1.0533307579e-05 1.9042907197e+00 -3.2983282789e+00 1.9042907197e+00 3.2983282789e+00 
99500 5.4607585444e+00 1.0548954673e-05 1.9042907197e+00 -3.2983282789e+00 1.9042907197e+00 3.2983282789e+00 
99600 5.4607585445e+00 1.0564445230e-05 1.9042907197e+00 -3.2983282789e+00 1.9042907197e+00 3.2983282789e+00 
99700 5.4607585447e+00 1.0579780886e-05 1.9042907197e+00 -3.2983282789e+00 1.9042907197e+00 3.2983282789e+00 
99800 5.4607585448e+00 1.0594963318e-05 1.9042907197e+00 -3.2983282789e+00 1.9042907197e+00 3.2983282789e+00 
99900 5.4607585449e+00 1.0609994243e-05 1.9042907197e+00 -3.2983282789e+00 1.9042907197e+00 3.2983282789e+00 
100000 5.4607585450e+00 1.0624875420e-05 1.9042907197e+00 -3.2983282789e+00 1.9042907197e+00 3.2983282789e+00 
100100 5.4607585452e+00 1.0639608635e-05 1.9042907197e+00 -3.2983282789e+00 1.9042907197e+00 3.2983282789e+00 
100200 5.4607585453e+00 1.0654195713e-05 1.9042907197e+00 -3.2983282789e+00 1.9042907197e+00 3.2983282789e+00 
100300 5.4607585454e+00 1.0668638506e-05 1.9042907197e+00 -3.2983282789e+00 1.9042907197e+00 3.2983282789e+00 
100400 5.4607585455e+00 1.0682938895e-05 1.9042907197e+00 -3.2983282789e+00 1.9042907197e+00 3.2983282789e+00 
100500 5.4607585456e+00 1.0697098780e-05 1.9042907197e+00 -3.2983282789e+00 1.9042907197e+00 3.2983282789e+00 
100600 5.4607585458e+00 1.0711120092e-05 1.9042907197e+00 -3.2983282789e+00 1.9042907197e+00 3.2983282789e+00 
100700 5.4607585459e+00 1.0725004774e-05 1.9042907197e+00 -3.2983282789e+00 1.9042907197e+00 3.2983282789e+00 
100800 5.4607585460e+00 1.0738754791e-05 1.9042907197e+00 -3.2983282789e+00 1.9042907197e+00 3.2983282789e+00 
100900 5.4607585461e+00 1.0752372120e-05 1.9042907197e+00 -3.2983282789e+00 1.9042907197e+00 3.2983282789e+00 
101000 5.4607585462e+00 1.0765858754e-05 1.9042907197e+00 -3.2983282789e+00 1.9042907197e+00 3.2983282789e+00 
101100 5.4607585463e+00 1.0779216693e-05 1.9042907197e+00 -3.2983282789e+00 1.9042907197e+00 3.2983282789e+00 
101200 5.4607585464e+00 1.0792447950e-05 1.9042907197e+00 -3.2983282789e+00 1.9042907197e+00 3.2983282789e+00 
101300 5.4607585465e+00 1.0805554537e-05 1.9042907197e+00 -3.2983282789e+00 1.9042907197e+00 3.2983282789e+00 
101400 5.4607585466e+00 1.0818538478e-05 1.9042907197e+00 -3.2983282789e+00 1.9042907197e+00 3.2983282789e+00 
101500 5.4607585467e+00 1.0831401792e-05 1.9042907197e+00 -3.2983282789e+00 1.9042907197e+00 3.2983282789e+00 
101600 5.4607585468e+00 1.0844146505e-05 1.9042907197e+00 -3.2983282789e+00 1.9042907197e+00 3.2983282789e+00 
101700 5.4607585470e+00 1.0856774636e-05 1.9042907197e+00 -3.2983282789e+00 1.9042907197e+00 3.2983282789e+00 
101800 5.4607585471e+00 1.0869288201e-05 1.9042907197e+00 -3.2983282789e+00 1.9042907197e+00 3.2983282789e+00 
101900 5.4607585472e+00 1.0881689210e-05 1.9042907197e+00 -3.2983282789e+00 1.9042907197e+00 3.2983282789e+00 
102000 5.4607585472e+00 1.0893979669e-05 1.9042907197e+00 -3.2983282789e+00 1.9042907197e+00 3.2983282789e+00 
102100 5.4607585473e+00 1.0906161570e-05 1.9042907197e+00 -3.2983282789e+00 1.9042907197e+00 3.2983282789e+00 
102200 5.4607585474e+00 1.0918236899e-05 1.9042907197e+00 -3.2983282789e+00 1.9042907197e+00 3.2983282789e+00 
102300 5.4607585475e+00 1.0930207624e-05 1.9042907197e+00 -3.2983282789e+00 1.9042907197e+00 3.2983282789e+00 
102400 5.4607585476e+00 1.0942075704e-05 1.9042907197e+00 -3.2983282789e+00 1.9042907197e+00 3.2983282789e+00 
102500 5.4607585477e+00 1.0953843083e-05 1.9042907197e+00 -3.2983282789e+00 1.9042907197e+00 3.2983282789e+00 
102600 5.4607585478e+00 1.0965511681e-05 1.9042907197e+00 -3.2983282789e+00 1.9042907197e+00 3.2983282789e+00 
102700 5.4607585479e+00 1.0977083406e-05 1.9042907197e+00 -3.2983282789e+00 1.9042907197e+00 3.2983282789e+00 
102800 5.4607585480e+00 1.0988560144e-05 1.9042907197e+00 -3.2983282789e+00 1.9042907197e+00 3.2983282789e+00 
102900 5.4607585481e+00 1.0999943762e-05 1.9042907197e+00 -3.2983282789e+00 1.9042907197e+00 3.2983282789e+00 
103000 5.4607585482e+00 1.1011236105e-05 1.9042907197e+00 -3.2983282789e+00 1.9042907197e+00 3.2983282789e+00 
103100 5.4607585483e+00 1.1022438991e-05 1.9042907197e+00 -3.2983282789e+00 1.9042907197e+00 3.2983282789e+00 
103200 5.4607585483e+00 1.1033554218e-05 1.9042907197e+00 -3.2983282789e+00 1.9042907197e+00 3.2983282789e+00 
103300 5.4607585484e+00 1.1044583557e-05 1.9042907197e+00 -3.2983282789e+00 1.9042907197e+00 3.2983282789e+00 
103400 5.4607585485e+00 1.1055528750e-05 1.9042907197e+00 -3.2983282789e+00 1.9042907197e+00 3.2983282789e+00 
103500 5.4607585486e+00 1.1066391517e-05 1.9042907197e+00 -3.2983282789e+00 1.9042907197e+00 3.2983282789e+00 
103600 5.4607585487e+00 1.1077173548e-05 1.9042907197e+00 -3.2983282789e+00 1.9042907197e+00 3.2983282789e+00 
103700 5.4607585488e+00 1.1087876502e-05 1.9042907197e+00 -3.2983282789e+00 1.9042907197e+00 3.2983282789e+00 
103800 5.4607585488e+00 1.1098502011e-05 1.9042907197e+00 -3.2983282789e+00 1.9042907197e+00 3.2983282789e+00 
103900 5.4607585489e+00 1.1109051676e-05 1.9042907197e+00 -3.2983282789e+00 1.9042907197e+00 3.2983282789e+00 
104000 5.4607585490e+00 1.1119527065e-05 1.9042907197e+00 -3.2983282789e+00 1.9042907197e+00 3.2983282789e+00 
104100 5.4607585491e+00 1.1129929718e-05 1.9042907197e+00 -3.2983282789e+00 1.9042907197e+00 3.2983282789e+00 
104200 5.4607585491e+00 1.1140261140e-05 1.9042907197e+00 -3.2983282789e+00 1.9042907197e+00 3.2983282789e+00 
104300 5.4607585492e+00 1.1150522808e-05 1.9042907197e+00 -3.2983282789e+00 1.9042907197e+00 3.2983282789e+00 
104400 5.4607585493e+00 1.1160716158e-05 1.9042907197e+00 -3.2983282789e+00 1.9042907197e+00 3.2983282789e+00 
104500 5.4607585494e+00 1.1170842602e-05 1.9042907197e+00 -3.2983282789e+00 1.9042907197e+00 3.2983282789e+00 
104600 5.4607585494e+00 1.1180903512e-05 1.9042907197e+00 -3.2983282789e+00 1.9042907197e+00 3.2983282789e+00 
104700 5.4607585495e+00 1.1190900228e-05 1.9042907197e+00 -3.2983282789e+00 1.9042907197e+00 3.2983282789e+00 
104800 5.4607585496e+00 1.1200834058e-05 1.9042907197e+00 -3.2983282789e+00 1.9042907197e+00 3.2983282789e+00 
104900 5.4607585497e+00 1.1210706271e-05 1.9042907197e+00 -3.2983282789e+00 1.9042907197e+00 3.2983282789e+00 
105000 5.4607585497e+00 1.1220518108e-05 1.9042907197e+00 -3.2983282789e+00 1.9042907197e+00 3.2983282789e+00 
105100 5.4607585498e+00 1.1230270770e-05 1.9042907197e+00 -3.2983282789e+00 1.9042907197e+00 3.2983282789e+00 
105200 5.4607585499e+00 1.1239965426e-05 1.9042907197e+00 -3.2983282789e+00 1.9042907197e+00 3.2983282789e+00 
105300 5.4607585499e+00 1.1249603210e-05 1.9042907197e+00 -3.2983282789e+00 1.9042907197e+00 3.2983282789e+00 
105400 5.4607585500e+00 1.1259185221e-05 1.9042907197e+00 -3.2983282789e+00 1.9042907197e+00 3.2983282789e+00 
105500 5.4607585501e+00 1.1268712523e-05 1.9042907197e+00 -3.2983282789e+00 1.9042907197e+00 3.2983282789e+00 
105600 5.4607585501e+00 1.1278186147e-05 1.9042907197e+00 -3.2983282789e+00 1.9042907197e+00 3.2983282789e+00 
105700 5.4607585502e+00 1.1287607092e-05 1.9042907197e+00 -3.2983282789e+00 1.9042907197e+00 3.2983282789e+00 
105800 5.4607585503e+00 1.1296976316e-05 1.9042907197e+00 -3.2983282789e+00 1.9042907197e+00 3.2983282789e+00 
105900 5.4607585503e+00 1.1306294751e-05 1.9042907197e+00 -3.2983282789e+00 1.9042907197e+00 3.2983282789e+00 
106000 5.4607585504e+00 1.1315563292e-05 1.9042907197e+00 -3.2983282789e+00 1.9042907197e+00 3.2983282789e+00 
106100 5.4607585504e+00 1.1324782799e-05 1.9042907197e+00 -3.2983282789e+00 1.9042907197e+00 3.2983282789e+00 
106200 5.4607585505e+00 1.1333954102e-05 1.9042907197e+00 -3.2983282789e+00 1.9042907197e+00 3.2983282789e+00 
106300 5.4607585506e+00 1.1343077998e-05 1.9042907197e+00 -3.2983282789e+00 1.9042907197e+00 3.2983282789e+00 
106400 5.4607585506e+00 1.1352155249e-05 1.9042907197e+00 -3.2983282789e+00 1.9042907197e+00 3.2983282789e+00 
106500 5.4607585507e+00 1.1361186590e-05 1.9042907197e+00 -3.2983282789e+00 1.9042907197e+00 3.2983282789e+00 
106600 5.4607585507e+00 1.1370172721e-05 1.9042907197e+00 -3.2983282789e+00 1.9042907197e+00 3.2983282789e+00 
106700 5.4607585508e+00 1.1379114313e-05 1.9042907197e+00 -3.2983282789e+00 1.9042907197e+00 3.2983282789e+00 
106800 5.4607585509e+00 1.1388012003e-05 1.9042907197e+00 -3.2983282789e+00 1.9042907197e+00 3.2983282789e+00 
106900 5.4607585509e+00 1.1396866403e-05 1.9042907197e+00 -3.2983282789e+00 1.9042907197e+00 3.2983282789e+00 
107000 5.4607585510e+00 1.1405678094e-05 1.9042907197e+00 -3.2983282789e+00 1.9042907197e+00 3.2983282789e+00 
107100 5.4607585510e+00 1.1414447625e-05 1.9042907197e+00 -3.2983282789e+00 1.9042907197e+00 3.2983282789e+00 
107200 5.4607585511e+00 1.1423175520e-05 1.9042907197e+00 -3.2983282789e+00 1.9042907197e+00 3.2983282789e+00 
107300 5.4607585511e+00 1.1431862273e-05 1.9042907197e+00 -3.2983282789e+00 1.9042907197e+00 3.2983282789e+00 
107400 5.4607585512e+00 1.1440508354e-05 1.9042907197e+00 -3.2983282789e+00 1.9042907197e+00 3.2983282789e+00 
107500 5.4607585512e+00 1.1449114205e-05 1.9042907197e+00 -3.2983282789e+00 1.9042907197e+00 3.2983282789e+00 
107600 5.4607585513e+00 1.1457680237e-05 1.9042907197e+00 -3.2983282789e+00 1.9042907197e+00 3.2983282789e+00 
107700 5.4607585513e+00 1.1466206847e-05 1.9042907197e+00 -3.2983282789e+00 1.9042907197e+00 3.2983282789e+00 
107800 5.4607585514e+00 1.1474694394e-05 1.9042907197e+00 -3.2983282789e+00 1.9042907197e+00 3.2983282789e+00 
107900 5.4607585514e+00 1.1483143223e-05 1.9042907197e+00 -3.2983282789e+00 1.9042907197e+00 3.2983282789e+00 
108000 5.4607585514e+00 1.1483480375e-05 1.9042907197e+00 -3.2983282789e+00 1.9042907197e+00 3.2983282789e+00 
108000 5.4607585514e+00 1.1483480376e-05 1.9042907197e+00 -3.2983282789e+00 1.9042907197e+00 3.2983282789e+00 
