# step Hamiltonian StressXX CellTensor1 CellTensor2 CellTensor3 CellTensor4 
0 5.5356993832e+00 -6.0718940395e-01 1.6122881582e+00 -2.7925650064e+00 1.6122881582e+00 2.7925650064e+00 
100 5.5147786897e+00 -6.1501713819e-01 1.6122881582e+00 -2.7925650064e+00 1.6122881582e+00 2.7925650064e+00 
200 5.4811968813e+00 -5.9970711788e-01 1.6313981268e+00 -2.8256644429e+00 1.6313981268e+00 2.8256644429e+00 
300 5.4501754412e+00 -5.8495607318e-01 1.6498124136e+00 -2.8575589233e+00 1.6498124136e+00 2.8575589233e+00 
400 5.4215924832e+00 -5.7080078273e-01 1.6675717820e+00 -2.8883190516e+00 1.6675717820e+00 2.8883190516e+00 
500 5.3953199679e+00 -5.5726834158e-01 1.6847154888e+00 -2.9180128229e+00 1.6847154888e+00 2.9180128229e+00 
600 5.3712254518e+00 -5.4437754038e-01 1.7012812313e+00 -2.9467055306e+00 1.7012812313e+00 2.9467055306e+00 
700 5.3491736700e+00 -5.3214007242e-01 1.7173051198e+00 -2.9744597197e+00 1.7173051198e+00 2.9744597197e+00 
800 5.3290279620e+00 -5.2056157948e-01 1.7328216715e+00 -3.0013351754e+00 1.7328216715e+00 3.0013351754e+00 
900 5.3106515514e+00 -5.0964255065e-01 1.7478638188e+00 -3.0273889388e+00 1.7478638188e+00 3.0273889388e+00 
1000 5.2939086879e+00 -4.9937908997e-01 1.7624629303e+00 -3.0526753418e+00 1.7624629303e+00 3.0526753418e+00 
1100 5.2786656617e+00 -4.8976356878e-01 1.7766488393e+00 -3.0772460568e+00 1.7766488393e+00 3.0772460568e+00 
1200 5.2647916982e+00 -4.8078517845e-01 1.7904498772e+00 -3.1011501557e+00 1.7904498772e+00 3.1011501557e+00 
1300 5.2521597400e+00 -4.7243039784e-01 1.8038929118e+00 -3.1244341747e+00 1.8038929118e+00 3.1244341747e+00 
1400 5.2406471242e+00 -4.6468338887e-01 1.8170033866e+00 -3.1471421832e+00 1.8170033866e+00 3.1471421832e+00 
1500 5.2301361592e+00 -4.5752633214e-01 1.8298053608e+00 -3.1693158529e+00 1.8298053608e+00 3.1693158529e+00 
1600 5.2205146082e+00 -4.5093971302e-01 1.8423215499e+00 -3.1909945284e+00 1.8423215499e+00 3.1909945284e+00 
1700 5.2116760839e+00 -4.4490256757e-01 1.8545733654e+00 -3.2122152953e+00 1.8545733654e+00 3.2122152953e+00 
1800 5.2035203591e+00 -4.3939269608e-01 1.8665809536e+00 -3.2330130481e+00 1.8665809536e+00 3.2330130481e+00 
1900 5.1959535990e+00 -4.3438685106e-01 1.8783632333e+00 -3.2534205551e+00 1.8783632333e+00 3.2534205551e+00 
2000 5.1888885193e+00 -4.2986090523e-01 1.8899379326e+00 -3.2734685224e+00 1.8899379326e+00 3.2734685224e+00 
2100 5.1822444755e+00 -4.2579000413e-01 1.9013216246e+00 -3.2931856553e+00 1.9013216246e+00 3.2931856553e+00 
2200 5.1759474878e+00 -4.2214870711e-01 1.9125297620e+00 -3.3125987188e+00 1.9125297620e+00 3.3125987188e+00 
2300 5.1699302078e+00 -4.1891111945e-01 1.9235767112e+00 -3.3317325961e+00 1.9235767112e+00 3.3317325961e+00 
2400 5.1641318306e+00 -4.1605101790e-01 1.9344757857e+00 -3.3506103469e+00 1.9344757857e+00 3.3506103469e+00 
2500 5.1584979595e+00 -4.1354197106e-01 1.9452392793e+00 -3.3692532645e+00 1.9452392793e+00 3.3692532645e+00 
2600 5.1529804270e+00 -4.1135745570e-01 1.9558784987e+00 -3.3876809331e+00 1.9558784987e+00 3.3876809331e+00 
2700 5.1475370780e+00 -4.0947096944e-01 1.9664037971e+00 -3.4059112849e+00 1.9664037971e+00 3.4059112849e+00 
2800 5.1421315216e+00 -4.0785614004e-01 1.9768246072e+00 -3.4239606573e+00 1.9768246072e+00 3.4239606573e+00 
2900 5.1367328542e+00 -4.0648683119e-01 1.9871494743e+00 -3.4418438517e+00 1.9871494743e+00 3.4418438517e+00 
3000 5.1313153623e+00 -4.0533724445e-01 1.9973860908e+00 -3.4595741916e+00 1.9973860908e+00 3.4595741916e+00 
3100 5.1258582066e+00 -4.0438201680e-01 2.0075413306e+00 -3.4771635829e+00 2.0075413306e+00 3.4771635829e+00 
3200 5.1203450949e+00 -4.0359631341e-01 2.0176212837e+00 -3.4946225738e+00 2.0176212837e+00 3.4946225738e+00 
3300 5.1147639459e+00 -4.0295591481e-01 2.0276312921e+00 -3.5119604170e+00 2.0276312921e+00 3.5119604170e+00 
3400 5.1091065496e+00 -4.0243729795e-01 2.0375759855e+00 -3.5291851312e+00 2.0375759855e+00 3.5291851312e+00 
3500 5.1033682271e+00 -4.0201771071e-01 2.0474593177e+00 -3.5463035647e+00 2.0474593177e+00 3.5463035647e+00 
3600 5.0975474940e+00 -4.0167523907e-01 2.0572846034e+00 -3.5633214587e+00 2.0572846034e+00 3.5633214587e+00 
3700 5.0916457291e+00 -4.0138886686e-01 2.0670545548e+00 -3.5802435109e+00 2.0670545548e+00 3.5802435109e+00 
3800 5.0856668522e+00 -4.0113852752e-01 2.0767713188e+00 -3.5970734398e+00 2.0767713188e+00 3.5970734398e+00 
3900 5.0796170129e+00 -4.0090514782e-01 2.0864365138e+00 -3.6138140486e+00 2.0864365138e+00 3.6138140486e+00 
4000 5.0735042922e+00 -4.0067068345e-01 2.0960512662e+00 -3.6304672883e+00 2.0960512662e+00 3.6304672883e+00 
4100 5.0673384179e+00 -4.0041814640e-01 2.1056162470e+00 -3.6470343211e+00 2.1056162470e+00 3.6470343211e+00 
4200 5.0611304959e+00 -4.0013162437e-01 2.1151317072e+00 -3.6635155816e+00 2.1151317072e+00 3.6635155816e+00 
4300 5.0548927580e+00 -3.9979629239e-01 2.1245975132e+00 -3.6799108384e+00 2.1245975132e+00 3.6799108384e+00 
4400 5.0486383258e+00 -3.9939841695e-01 2.1340131806e+00 -3.6962192528e+00 2.1340131806e+00 3.6962192528e+00 
4500 5.0423809923e+00 -3.9892535305e-01 2.1433779082e+00 -3.7124394369e+00 2.1433779082e+00 3.7124394369e+00 
4600 5.0361350208e+00 -3.9836553457e-01 2.1526906098e+00 -3.7285695092e+00 2.1526906098e+00 3.7285695092e+00 
4700 5.0299149604e+00 -3.9770845851e-01 2.1619499453e+00 -3.7446071486e+00 2.1619499453e+00 3.7446071486e+00 
4800 5.0237354784e+00 -3.9694466358e-01 2.1711543505e+00 -3.7605496462e+00 2.1711543505e+00 3.7605496462e+00 
4900 5.0176112094e+00 -3.9606570376e-01 2.1803020659e+00 -3.7763939540e+00 2.1803020659e+00 3.7763939540e+00 
5000 5.0115566191e+00 -3.9506411730e-01 2.1893911633e+00 -3.7921367324e+00 2.1893911633e+00 3.7921367324e+00 
5100 5.0055858841e+00 -3.9393339178e-01 2.1984195714e+00 -3.8077743940e+00 2.1984195714e+00 3.8077743940e+00 
5200 4.9997127846e+00 -3.9266792586e-01 2.2073851002e+00 -3.8233031454e+00 2.2073851002e+00 3.8233031454e+00 
5300 4.9939506117e+00 -3.9126298818e-01 2.2162854631e+00 -3.8387190261e+00 2.2162854631e+00 3.8387190261e+00 
5400 4.9883120865e+00 -3.8971467395e-01 2.2251182981e+00 -3.8540179452e+00 2.2251182981e+00 3.8540179452e+00 
5500 4.9828092902e+00 -3.8801985987e-01 2.2338811872e+00 -3.8691957143e+00 2.2338811872e+00 3.8691957143e+00 
5600 4.9774536060e+00 -3.8617615766e-01 2.2425716742e+00 -3.8842480794e+00 2.2425716742e+00 3.8842480794e+00 
5700 4.9722556698e+00 -3.8418186688e-01 2.2511872813e+00 -3.8991707485e+00 2.2511872813e+00 3.8991707485e+00 
5800 4.9672253302e+00 -3.8203592735e-01 2.2597255236e+00 -3.9139594180e+00 2.2597255236e+00 3.9139594180e+00 
5900 4.9623716168e+00 -3.7973787152e-01 2.2681839231e+00 -3.9286097957e+00 2.2681839231e+00 3.9286097957e+00 
6000 4.9577027153e+00 -3.7728777727e-01 2.2765600205e+00 -3.9431176220e+00 2.2765600205e+00 3.9431176220e+00 
6100 4.9532259491e+00 -3.7468622148e-01 2.2848513860e+00 -3.9574786884e+00 2.2848513860e+00 3.9574786884e+00 
6200 4.9489477676e+00 -3.7193423450e-01 2.2930556290e+00 -3.9716888540e+00 2.2930556290e+00 3.9716888540e+00 
6300 4.9448737386e+00 -3.6903325604e-01 2.3011704060e+00 -3.9857440601e+00 2.3011704060e+00 3.9857440601e+00 
6400 4.9410085460e+00 -3.6598509248e-01 2.3091934283e+00 -3.9996403423e+00 2.3091934283e+00 3.9996403423e+00 
6500 4.9373559914e+00 -3.6279187604e-01 2.3171224674e+00 -4.0133738410e+00 2.3171224674e+00 4.0133738410e+00 
6600 4.9339189996e+00 -3.5945602583e-01 2.3249553610e+00 -4.0269408106e+00 2.3249553610e+00 4.0269408106e+00 
6700 4.9306996267e+00 -3.5598021105e-01 2.3326900162e+00 -4.0403376264e+00 2.3326900162e+00 4.0403376264e+00 
6800 4.9276990716e+00 -3.5236731644e-01 2.3403244135e+00 -4.0535607904e+00 2.3403244135e+00 4.0535607904e+00 
6900 4.9249176897e+00 -3.4862041010e-01 2.3478566090e+00 -4.0666069357e+00 2.3478566090e+00 4.0666069357e+00 
7000 4.9223550093e+00 -3.4474271381e-01 2.3552847365e+00 -4.0794728298e+00 2.3552847365e+00 4.0794728298e+00 
7100 4.9200097496e+00 -3.4073757593e-01 2.3626070081e+00 -4.0921553764e+00 2.3626070081e+00 4.0921553764e+00 
7200 4.9178798409e+00 -3.3660844691e-01 2.3698217158e+00 -4.1046516167e+00 2.3698217158e+00 4.1046516167e+00 
7300 4.9159624461e+00 -3.3235885752e-01 2.3769272308e+00 -4.1169587296e+00 2.3769272308e+00 4.1169587296e+00 
7400 4.9142539847e+00 -3.2799239976e-01 2.3839220034e+00 -4.1290740311e+00 2.3839220034e+00 4.1290740311e+00 
7500 4.9127501576e+00 -3.2351271052e-01 2.3908045627e+00 -4.1409949736e+00 2.3908045627e+00 4.1409949736e+00 
7600 4.9114459738e+00 -3.1892345802e-01 2.3975735155e+00 -4.1527191438e+00 2.3975735155e+00 4.1527191438e+00 
7700 4.9103357787e+00 -3.1422833091e-01 2.4042275451e+00 -4.1642442611e+00 2.4042275451e+00 4.1642442611e+00 
7800 4.9094132841e+00 -3.0943103011e-01 2.4107654099e+00 -4.1755681752e+00 2.4107654099e+00 4.1755681752e+00 
7900 4.9086715992e+00 -3.0453526330e-01 2.4171859425e+00 -4.1866888637e+00 2.4171859425e+00 4.1866888637e+00 
8000 4.9081032643e+00 -2.9954474201e-01 2.4234880475e+00 -4.1976044298e+00 2.4234880475e+00 4.1976044298e+00 
8100 4.9077002850e+00 -2.9446318123e-01 2.4296707008e+00 -4.2083130994e+00 2.4296707008e+00 4.2083130994e+00 
8200 4.9074541692e+00 -2.8929430145e-01 2.4357329478e+00 -4.2188132192e+00 2.4357329478e+00 4.2188132192e+00 
8300 4.9073559657e+00 -2.8404183302e-01 2.4416739022e+00 -4.2291032542e+00 2.4416739022e+00 4.2291032542e+00 
8400 4.9073963040e+00 -2.7870952273e-01 2.4474927452e+00 -4.2391817858e+00 2.4474927452e+00 4.2391817858e+00 
8500 4.9075654373e+00 -2.7330114243e-01 2.4531887240e+00 -4.2490475105e+00 2.4531887240e+00 4.2490475105e+00 
8600 4.9078532867e+00 -2.6782049952e-01 2.4587611517e+00 -4.2586992384e+00 2.4587611517e+00 4.2586992384e+00 
8700 4.9082494877e+00 -2.6227144918e-01 2.4642094066e+00 -4.2681358928e+00 2.4642094066e+00 4.2681358928e+00 
8800 4.9087434389e+00 -2.5665790799e-01 2.4695329324e+00 -4.2773565099e+00 2.4695329324e+00 4.2773565099e+00 
8900 4.9093243528e+00 -2.5098386898e-01 2.4747312378e+00 -4.2863602390e+00 2.4747312378e+00 4.2863602390e+00 
9000 4.9099813086e+00 -2.4525341747e-01 2.4798038979e+00 -4.2951463440e+00 2.4798038979e+00 4.2951463440e+00 
9100 4.9107033071e+00 -2.3947074777e-01 2.4847505545e+00 -4.3037142046e+00 2.4847505545e+00 4.3037142046e+00 
9200 4.9114793276e+00 -2.3364018027e-01 2.4895709177e+00 -4.3120633185e+00 2.4895709177e+00 4.3120633185e+00 
9300 4.9122983867e+00 -2.2776617856e-01 2.4942647675e+00 -4.3201933048e+00 2.4942647675e+00 4.3201933048e+00 
9400 4.9131495980e+00 -2.2185336633e-01 2.4988319558e+00 -4.3281039070e+00 2.4988319558e+00 4.3281039070e+00 
9500 4.9140222345e+00 -2.1590654367e-01 2.5032724092e+00 -4.3357949979e+00 2.5032724092e+00 4.3357949979e+00 
9600 4.9149057906e+00 -2.0993070231e-01 2.5075861313e+00 -4.3432665837e+00 2.5075861313e+00 4.3432665837e+00 
9700 4.9157900462e+00 -2.0393103952e-01 2.5117732060e+00 -4.3505188099e+00 2.5117732060e+00 4.3505188099e+00 
9800 4.9166651295e+00 -1.9791297011e-01 2.5158338012e+00 -4.3575519670e+00 2.5158338012e+00 4.3575519670e+00 
9900 4.9175215815e+00 -1.9188213637e-01 2.5197681720e+00 -4.3643664971e+00 2.5197681720e+00 4.3643664971e+00 
10000 4.9183504180e+00 -1.8584441529e-01 2.5235766649e+00 -4.3709630005e+00 2.5235766649e+00 4.3709630005e+00 
10100 4.9191431912e+00 -1.7980592292e-01 2.5272597221e+00 -4.3773422427e+00 2.5272597221e+00 4.3773422427e+00 
10200 4.9198920491e+00 -1.7377301527e-01 2.5308178852e+00 -4.3835051619e+00 2.5308178852e+00 4.3835051619e+00 
10300 4.9205897918e+00 -1.6775228568e-01 2.5342517998e+00 -4.3894528765e+00 2.5342517998e+00 4.3894528765e+00 
10400 4.9212299245e+00 -1.6175055820e-01 2.5375622197e+00 -4.3951866920e+00 2.5375622197e+00 4.3951866920e+00 
10500 4.9218067065e+00 -1.5577487683e-01 2.5407500110e+00 -4.4007081085e+00 2.5407500110e+00 4.4007081085e+00 
10600 4.9223151938e+00 -1.4983249038e-01 2.5438161561e+00 -4.4060188275e+00 2.5438161561e+00 4.4060188275e+00 
10700 4.9227512773e+00 -1.4393083299e-01 2.5467617575e+00 -4.4111207588e+00 2.5467617575e+00 4.4111207588e+00 
10800 4.9231117129e+00 -1.3807750014e-01 2.5495880411e+00 -4.4160160256e+00 2.5495880411e+00 4.4160160256e+00 
10900 4.9233941443e+00 -1.3228022032e-01 2.5522963594e+00 -4.4207069704e+00 2.5522963594e+00 4.4207069704e+00 
11000 4.9235971182e+00 -1.2654682251e-01 2.5548881936e+00 -4.4251961590e+00 2.5548881936e+00 4.4251961590e+00 
11100 4.9237200895e+00 -1.2088519966e-01 2.5573651561e+00 -4.4294863840e+00 2.5573651561e+00 4.4294863840e+00 
11200 4.9237634175e+00 -1.1530326862e-01 2.5597289915e+00 -4.4335806669e+00 2.5597289915e+00 4.4335806669e+00 
11300 4.9237283526e+00 -1.0980892684e-01 2.5619815769e+00 -4.4374822592e+00 2.5619815769e+00 4.4374822592e+00 
11400 4.9236170120e+00 -1.0441000650e-01 2.5641249222e+00 -4.4411946421e+00 2.5641249222e+00 4.4411946421e+00 
11500 4.9234323462e+00 -9.9114226576e-02 2.5661611688e+00 -4.4447215247e+00 2.5661611688e+00 4.4447215247e+00 
11600 4.9231780944e+00 -9.3929143466e-02 2.5680925878e+00 -4.4480668405e+00 2.5680925878e+00 4.4480668405e+00 
11700 4.9228587310e+00 -8.8862101048e-02 2.5699215772e+00 -4.4512347431e+00 2.5699215772e+00 4.4512347431e+00 
11800 4.9224794020e+00 -8.3920180759e-02 2.5716506583e+00 -4.4542295995e+00 2.5716506583e+00 4.4542295995e+00 
11900 4.9220458535e+00 -7.9110152547e-02 2.5732824711e+00 -4.4570559822e+00 2.5732824711e+00 4.4570559822e+00 
12000 4.9215643521e+00 -7.4438427416e-02 2.5748197688e+00 -4.4597186599e+00 2.5748197688e+00 4.4597186599e+00 
12100 4.9210415985e+00 -6.9911012324e-02 2.5762654115e+00 -4.4622225865e+00 2.5762654115e+00 4.4622225865e+00 
12200 4.9204846361e+00 -6.5533468109e-02 2.5776223591e+00 -4.4645728888e+00 2.5776223591e+00 4.4645728888e+00 
12300 4.9199007554e+00 -6.1310871098e-02 2.5788936635e+00 -4.4667748525e+00 2.5788936635e+00 4.4667748525e+00 
12400 4.9192973960e+00 -5.7247778940e-02 2.5800824597e+00 -4.4688339079e+00 2.5800824597e+00 4.4688339079e+00 
12500 4.9186820471e+00 -5.3348201146e-02 2.5811919568e+00 -4.4707556133e+00 2.5811919568e+00 4.4707556133e+00 
12600 4.9180621494e+00 -4.9615574721e-02 2.5822254282e+00 -4.4725456382e+00 2.5822254282e+00 4.4725456382e+00 
12700 4.9174449989e+00 -4.6052745131e-02 2.5831862012e+00 -4.4742097459e+00 2.5831862012e+00 4.4742097459e+00 
12800 4.9168376544e+00 -4.2661952798e-02 2.5840776467e+00 -4.4757537747e+00 2.5840776467e+00 4.4757537747e+00 
12900 4.9162468503e+00 -3.9444825162e-02 2.5849031680e+00 -4.4771836196e+00 2.5849031680e+00 4.4771836196e+00 
13000 4.9156789166e+00 -3.6402374258e-02 2.5856661901e+00 -4.4785052126e+00 2.5856661901e+00 4.4785052126e+00 
13100 4.9151397061e+00 -3.3534999683e-02 2.5863701484e+00 -4.4797245042e+00 2.5863701484e+00 4.4797245042e+00 
13200 4.9146345313e+00 -3.0842496699e-02 2.5870184779e+00 -4.4808474438e+00 2.5870184779e+00 4.4808474438e+00 
13300 4.9141681104e+00 -2.8324069179e-02 2.5876146020e+00 -4.4818799611e+00 2.5876146020e+00 4.4818799611e+00 
13400 4.9137445243e+00 -2.5978347007e-02 2.5881619220e+00 -4.4828279472e+00 2.5881619220e+00 4.4828279472e+00 
13500 4.9133671846e+00 -2.3803407537e-02 2.5886638069e+00 -4.4836972373e+00 2.5886638069e+00 4.4836972373e+00 
13600 4.9130388125e+00 -2.1796800612e-02 2.5891235830e+00 -4.4844935928e+00 2.5891235830e+00 4.4844935928e+00 
13700 4.9127614284e+00 -1.9955576702e-02 2.5895445245e+00 -4.4852226848e+00 2.5895445245e+00 4.4852226848e+00 
13800 4.9125363530e+00 -1.8276317643e-02 2.5899298446e+00 -4.4858900788e+00 2.5899298446e+00 4.4858900788e+00 
13900 4.9123642184e+00 -1.6755169484e-02 2.5902826868e+00 -4.4865012195e+00 2.5902826868e+00 4.4865012195e+00 
14000 4.9122449891e+00 -1.5387876988e-02 2.5906061171e+00 -4.4870614172e+00 2.5906061171e+00 4.4870614172e+00 
14100 4.9121779916e+00 -1.4169819299e-02 2.5909031165e+00 -4.4875758353e+00 2.5909031165e+00 4.4875758353e+00 
14200 4.9121619523e+00 -1.3096046358e-02 2.5911765746e+00 -4.4880494786e+00 2.5911765746e+00 4.4880494786e+00 
14300 4.9121950423e+00 -1.2161315665e-02 2.5914292834e+00 -4.4884871830e+00 2.5914292834e+00 4.4884871830e+00 
14400 4.9122749280e+00 -1.1360129022e-02 2.5916639318e+00 -4.4888936061e+00 2.5916639318e+00 4.4888936061e+00 
14500 4.9123988264e+00 -1.0686768926e-02 2.5918831016e+00 -4.4892732193e+00 2.5918831016e+00 4.4892732193e+00 
14600 4.9125635641e+00 -1.0135334330e-02 2.5920892628e+00 -4.4896303009e+00 2.5920892628e+00 4.4896303009e+00 
14700 4.9127656379e+00 -9.6997755176e-03 2.5922847703e+00 -4.4899689299e+00 2.5922847703e+00 4.4899689299e+00 
14800 4.9130012780e+00 -9.3739278746e-03 2.5924718619e+00 -4.4902929820e+00 2.5924718619e+00 4.4902929820e+00 
14900 4.9132665097e+00 -9.1515443804e-03 2.5926526553e+00 -4.4906061254e+00 2.5926526553e+00 4.4906061254e+00 
15000 4.9135572156e+00 -9.0263266719e-03 2.5928291473e+00 -4.4909118185e+00 2.5928291473e+00 4.4909118185e+00 
15100 4.9138691951e+00 -8.9919545606e-03 2.5930032125e+00 -4.4912133083e+00 2.5930032125e+00 4.4912133083e+00 
15200 4.9141982220e+00 -9.0421139108e-03 2.5931766033e+00 -4.4915136299e+00 2.5931766033e+00 4.4915136299e+00 
15300 4.9145400977e+00 -9.1705228110e-03 2.5933509496e+00 -4.4918156065e+00 2.5933509496e+00 4.4918156065e+00 
15400 4.9148907023e+00 -9.3709559919e-03 2.5935277599e+00 -4.4921218511e+00 2.5935277599e+00 4.4921218511e+00 
15500 4.9152460391e+00 -9.6372674607e-03 2.5937084225e+00 -4.4924347677e+00 2.5937084225e+00 4.4924347677e+00 
15600 4.9156022765e+00 -9.9634113397e-03 2.5938942063e+00 -4.4927565548e+00 2.5938942063e+00 4.4927565548e+00 
15700 4.9159557833e+00 -1.0343460910e-02 2.5940862638e+00 -4.4930892080e+00 2.5940862638e+00 4.4930892080e+00 
15800 4.9163031598e+00 -1.0771625872e-02 2.5942856325e+00 -4.4934345248e+00 2.5942856325e+00 4.4934345248e+00 
15900 4.9166412633e+00 -1.1242267849e-02 2.5944932382e+00 -4.4937941084e+00 2.5944932382e+00 4.4937941084e+00 
16000 4.9169672288e+00 -1.1749914167e-02 2.5947098975e+00 -4.4941693734e+00 2.5947098975e+00 4.4941693734e+00 
16100 4.9172784844e+00 -1.2289269943e-02 2.5949363214e+00 -4.4945615511e+00 2.5949363214e+00 4.4945615511e+00 
16200 4.9175727621e+00 -1.2855228547e-02 2.5951731183e+00 -4.4949716953e+00 2.5951731183e+00 4.4949716953e+00 
16300 4.9178481037e+00 -1.3442880473e-02 2.5954207980e+00 -4.4954006891e+00 2.5954207980e+00 4.4954006891e+00 
16400 4.9181028634e+00 -1.4047520698e-02 2.5956797753e+00 -4.4958492510e+00 2.5956797753e+00 4.4958492510e+00 
16500 4.9183357047e+00 -1.4664654574e-02 2.5959503743e+00 -4.4963179422e+00 2.5959503743e+00 4.4963179422e+00 
16600 4.9185455958e+00 -1.5290002346e-02 2.5962328319e+00 -4.4968071731e+00 2.5962328319e+00 4.4968071731e+00 
16700 4.9187318004e+00 -1.5919502346e-02 2.5965273026e+00 -4.4973172114e+00 2.5965273026e+00 4.4973172114e+00 
16800 4.9188938660e+00 -1.6549312957e-02 2.5968338624e+00 -4.4978481885e+00 2.5968338624e+00 4.4978481885e+00 
16900 4.9190316104e+00 -1.7175813416e-02 2.5971525130e+00 -4.4984001074e+00 2.5971525130e+00 4.4984001074e+00 
17000 4.9191451053e+00 -1.7795603547e-02 2.5974831862e+00 -4.4989728503e+00 2.5974831862e+00 4.4989728503e+00 
17100 4.9192346587e+00 -1.8405502489e-02 2.5978257485e+00 -4.4995661856e+00 2.5978257485e+00 4.4995661856e+00 
17200 4.9193007964e+00 -1.9002546529e-02 2.5981800047e+00 -4.5001797754e+00 2.5981800047e+00 4.5001797754e+00 
17300 4.9193442415e+00 -1.9583986094e-02 2.5985457029e+00 -4.5008131832e+00 2.5985457029e+00 4.5008131832e+00 
17400 4.9193658945e+00 -2.0147282011e-02 2.5989225379e+00 -4.5014658806e+00 2.5989225379e+00 4.5014658806e+00 
17500 4.9193668123e+00 -2.0690101095e-02 2.5993101559e+00 -4.5021372546e+00 2.5993101559e+00 4.5021372546e+00 
17600 4.9193481870e+00 -2.1210311168e-02 2.5997081582e+00 -4.5028266148e+00 2.5997081582e+00 4.5028266148e+00 
17700 4.9193113256e+00 -2.1705975567e-02 2.6001161052e+00 -4.5035331999e+00 2.6001161052e+00 4.5035331999e+00 
17800 4.9192576296e+00 -2.2175347229e-02 2.6005335204e+00 -4.5042561841e+00 2.6005335204e+00 4.5042561841e+00 
17900 4.9191885750e+00 -2.2616862421e-02 2.6009598935e+00 -4.5049946840e+00 2.6009598935e+00 4.5049946840e+00 
18000 4.9191056935e+00 -2.3029134189e-02 2.6013946848e+00 -4.5057477646e+00 2.6013946848e+00 4.5057477646e+00 
18100 4.9190105542e+00 -2.3410945585e-02 2.6018373279e+00 -4.5065144449e+00 2.6018373279e+00 4.5065144449e+00 
18200 4.9189047466e+00 -2.3761242743e-02 2.6022872334e+00 -4.5072937041e+00 2.6022872334e+00 4.5072937041e+00 
18300 4.9187898642e+00 -2.4079127846e-02 2.6027437921e+00 -4.5080844870e+00 2.6027437921e+00 4.5080844870e+00 
18400 4.9186674898e+00 -2.4363852055e-02 2.6032063778e+00 -4.5088857089e+00 2.6032063778e+00 4.5088857089e+00 
18500 4.9185391817e+00 -2.4614808438e-02 2.6036743503e+00 -4.5096962611e+00 2.6036743503e+00 4.5096962611e+00 
18600 4.9184064608e+00 -2.4831524943e-02 2.6041470583e+00 -4.5105150154e+00 2.6041470583e+00 4.5105150154e+00 
18700 4.9182707996e+00 -2.5013657455e-02 2.6046238417e+00 -4.5113408285e+00 2.6046238417e+00 4.5113408285e+00 
18800 4.9181336120e+00 -2.5160982973e-02 2.6051040344e+00 -4.5121725466e+00 2.6051040344e+00 4.5121725466e+00 
18900 4.9179962443e+00 -2.5273392937e-02 2.6055869664e+00 -4.5130090093e+00 2.6055869664e+00 4.5130090093e+00 
19000 4.9178599679e+00 -2.5350886729e-02 2.6060719660e+00 -4.5138490534e+00 2.6060719660e+00 4.5138490534e+00 
19100 4.9177259721e+00 -2.5393565373e-02 2.6065583623e+00 -4.5146915165e+00 2.6065583623e+00 4.5146915165e+00 
19200 4.9175953595e+00 -2.5401625437e-02 2.6070454866e+00 -4.5155352404e+00 2.6070454866e+00 4.5155352404e+00 
19300 4.9174691414e+00 -2.5375353182e-02 2.6075326744e+00 -4.5163790745e+00 2.6075326744e+00 4.5163790745e+00 
19400 4.9173482346e+00 -2.5315118928e-02 2.6080192674e+00 -4.5172218783e+00 2.6080192674e+00 4.5172218783e+00 
19500 4.9172334591e+00 -2.5221371674e-02 2.6085046147e+00 -4.5180625245e+00 2.6085046147e+00 4.5180625245e+00 
19600 4.9171255372e+00 -2.5094633965e-02 2.6089880747e+00 -4.5188999017e+00 2.6089880747e+00 4.5188999017e+00 
19700 4.9170250926e+00 -2.4935497003e-02 2.6094690161e+00 -4.5197329166e+00 2.6094690161e+00 4.5197329166e+00 
19800 4.9169326515e+00 -2.4744616002e-02 2.6099468193e+00 -4.5205604962e+00 2.6099468193e+00 4.5205604962e+00 
19900 4.9168486429e+00 -2.4522705790e-02 2.6104208781e+00 -4.5213815901e+00 2.6104208781e+00 4.5213815901e+00 
20000 4.9167734014e+00 -2.4270536639e-02 2.6108906001e+00 -4.5221951724e+00 2.6108906001e+00 4.5221951724e+00 
20100 4.9167071692e+00 -2.3988930327e-02 2.6113554081e+00 -4.5230002435e+00 2.6113554081e+00 4.5230002435e+00 
20200 4.9166500993e+00 -2.3678756407e-02 2.6118147411e+00 -4.5237958315e+00 2.6118147411e+00 4.5237958315e+00 
20300 4.9166022594e+00 -2.3340928694e-02 2.6122680550e+00 -4.5245809943e+00 2.6122680550e+00 4.5245809943e+00 
20400 4.9165636354e+00 -2.2976401932e-02 2.6127148238e+00 -4.5253548205e+00 2.6127148238e+00 4.5253548205e+00 
20500 4.9165341366e+00 -2.2586168647e-02 2.6131545397e+00 -4.5261164308e+00 2.6131545397e+00 4.5261164308e+00 
20600 4.9165136000e+00 -2.2171256165e-02 2.6135867145e+00 -4.5268649795e+00 2.6135867145e+00 4.5268649795e+00 
20700 4.9165017958e+00 -2.1732723778e-02 2.6140108798e+00 -4.5275996554e+00 2.6140108798e+00 4.5275996554e+00 
20800 4.9164984324e+00 -2.1271660050e-02 2.6144265877e+00 -4.5283196826e+00 2.6144265877e+00 4.5283196826e+00 
20900 4.9165031621e+00 -2.0789180242e-02 2.6148334114e+00 -4.5290243218e+00 2.6148334114e+00 4.5290243218e+00 
21000 4.9165155871e+00 -2.0286423846e-02 2.6152309454e+00 -4.5297128710e+00 2.6152309454e+00 4.5297128710e+00 
21100 4.9165352648e+00 -1.9764552207e-02 2.6156188065e+00 -4.5303846661e+00 2.6156188065e+00 4.5303846661e+00 
21200 4.9165617139e+00 -1.9224746233e-02 2.6159966335e+00 -4.5310390816e+00 2.6159966335e+00 4.5310390816e+00 
21300 4.9165944200e+00 -1.8668204158e-02 2.6163640880e+00 -4.5316755316e+00 2.6163640880e+00 4.5316755316e+00 
21400 4.9166328418e+00 -1.8096139369e-02 2.6167208547e+00 -4.5322934695e+00 2.6167208547e+00 4.5322934695e+00 
21500 4.9166764166e+00 -1.7509778265e-02 2.6170666412e+00 -4.5328923894e+00 2.6170666412e+00 4.5328923894e+00 
21600 4.9167245657e+00 -1.6910358146e-02 2.6174011790e+00 -4.5334718257e+00 2.6174011790e+00 4.5334718257e+00 
21700 4.9167767005e+00 -1.6299125129e-02 2.6177242228e+00 -4.5340313541e+00 2.6177242228e+00 4.5340313541e+00 
21800 4.9168322270e+00 -1.5677332060e-02 2.6180355514e+00 -4.5345705910e+00 2.6180355514e+00 4.5345705910e+00 
21900 4.9168905516e+00 -1.5046236440e-02 2.6183349673e+00 -4.5350891946e+00 2.6183349673e+00 4.5350891946e+00 
22000 4.9169510856e+00 -1.4407098337e-02 2.6186222971e+00 -4.5355868644e+00 2.6186222971e+00 4.5355868644e+00 
22100 4.9170132499e+00 -1.3761178295e-02 2.6188973912e+00 -4.5360633413e+00 2.6188973912e+00 4.5360633413e+00 
22200 4.9170764794e+00 -1.3109735215e-02 2.6191601240e+00 -4.5365184080e+00 2.6191601240e+00 4.5365184080e+00 
22300 4.9171402270e+00 -1.2454024232e-02 2.6194103940e+00 -4.5369518883e+00 2.6194103940e+00 4.5369518883e+00 
22400 4.9172039673e+00 -1.1795294559e-02 2.6196481233e+00 -4.5373636476e+00 2.6196481233e+00 4.5373636476e+00 
22500 4.9172672000e+00 -1.1134787319e-02 2.6198732579e+00 -4.5377535920e+00 2.6198732579e+00 4.5377535920e+00 
22600 4.9173294532e+00 -1.0473733342e-02 2.6200857669e+00 -4.5381216685e+00 2.6200857669e+00 4.5381216685e+00 
22700 4.9173902856e+00 -9.8133509608e-03 2.6202856434e+00 -4.5384678646e+00 2.6202856434e+00 4.5384678646e+00 
22800 4.9174492893e+00 -9.1548437753e-03 2.6204729029e+00 -4.5387922076e+00 2.6204729029e+00 4.5387922076e+00 
22900 4.9175060916e+00 -8.4993984111e-03 2.6206475840e+00 -4.5390947643e+00 2.6206475840e+00 4.5390947643e+00 
23000 4.9175603568e+00 -7.8481822693e-03 2.6208097479e+00 -4.5393756403e+00 2.6208097479e+00 4.5393756403e+00 
23100 4.9176117870e+00 -7.2023412750e-03 2.6209594775e+00 -4.5396349796e+00 2.6209594775e+00 4.5396349796e+00 
23200 4.9176601233e+00 -6.5629976310e-03 2.6210968776e+00 -4.5398729636e+00 2.6210968776e+00 4.5398729636e+00 
23300 4.9177051465e+00 -5.9312475854e-03 2.6212220743e+00 -4.5400898106e+00 2.6212220743e+00 4.5400898106e+00 
23400 4.9177466768e+00 -5.3081592211e-03 2.6213352141e+00 -4.5402857744e+00 2.6213352141e+00 4.5402857744e+00 
23500 4.9177845738e+00 -4.6947702762e-03 2.6214364639e+00 -4.5404611442e+00 2.6214364639e+00 4.5404611442e+00 
23600 4.9178187364e+00 -4.0920860053e-03 2.6215260101e+00 -4.5406162429e+00 2.6215260101e+00 4.5406162429e+00 
23700 4.9178491011e+00 -3.5010770916e-03 2.6216040583e+00 -4.5407514263e+00 2.6216040583e+00 4.5407514263e+00 
23800 4.9178756419e+00 -2.9226776202e-03 2.6216708322e+00 -4.5408670820e+00 2.6216708322e+00 4.5408670820e+00 
23900 4.9178983680e+00 -2.3577831232e-03 2.6217265731e+00 -4.5409636281e+00 2.6217265731e+00 4.5409636281e+00 
24000 4.9179173228e+00 -1.8072487057e-03 2.6217715394e+00 -4.5410415122e+00 2.6217715394e+00 4.5410415122e+00 
24100 4.9179325815e+00 -1.2718872662e-03 2.6218060057e+00 -4.5411012095e+00 2.6218060057e+00 4.5411012095e+00 
24200 4.9179442494e+00 -7.5246781724e-04 2.6218302617e+00 -4.5411432220e+00 2.6218302617e+00 4.5411432220e+00 
24300 4.9179524592e+00 -2.4971392029e-04 2.6218446117e+00 -4.5411680771e+00 2.6218446117e+00 4.5411680771e+00 
24400 4.9179573690e+00 2.3569775919e-04 2.6218493739e+00 -4.5411763254e+00 2.6218493739e+00 4.5411763254e+00 
24500 4.9179591594e+00 7.0313876561e-04 2.6218448790e+00 -4.5411685401e+00 2.6218448790e+00 4.5411685401e+00 
24600 4.9179580307e+00 1.1520300290e-03 2.6218314698e+00 -4.5411453146e+00 2.6218314698e+00 4.5411453146e+00 
24700 4.9179542006e+00 1.5818428950e-03 2.6218094999e+00 -4.5411072616e+00 2.6218094999e+00 4.5411072616e+00 
24800 4.9179479008e+00 1.9921000026e-03 2.6217793330e+00 -4.5410550109e+00 2.6217793330e+00 4.5410550109e+00 
24900 4.9179393745e+00 2.3823760048e-03 2.6217413417e+00 -4.5409892081e+00 2.6217413417e+00 4.5409892081e+00 
25000 4.9179288737e+00 2.7522981256e-03 2.6216959068e+00 -4.5409105126e+00 2.6216959068e+00 4.5409105126e+00 
25100 4.9179166559e+00 3.1015465532e-03 2.6216434162e+00 -4.5408195962e+00 2.6216434162e+00 4.5408195962e+00 
25200 4.9179029818e+00 3.4298546629e-03 2.6215842637e+00 -4.5407171410e+00 2.6215842637e+00 4.5407171410e+00 
25300 4.9178881126e+00 3.7370090712e-03 2.6215188483e+00 -4.5406038382e+00 2.6215188483e+00 4.5406038382e+00 
25400 4.9178723072e+00 4.0228495203e-03 2.6214475730e+00 -4.5404803857e+00 2.6214475730e+00 4.5404803857e+00 
25500 4.9178558198e+00 4.2872685917e-03 2.6213708438e+00 -4.5403474869e+00 2.6213708438e+00 4.5403474869e+00 
25600 4.9178388979e+00 4.5302112536e-03 2.6212890689e+00 -4.5402058486e+00 2.6212890689e+00 4.5402058486e+00 
25700 4.9178217800e+00 4.7516742427e-03 2.6212026575e+00 -4.5400561797e+00 2.6212026575e+00 4.5400561797e+00 
25800 4.9178046935e+00 4.9517052855e-03 2.6211120188e+00 -4.5398991889e+00 2.6211120188e+00 4.5398991889e+00 
25900 4.9177878535e+00 5.1304021627e-03 2.6210175613e+00 -4.5397355836e+00 2.6210175613e+00 4.5397355836e+00 
26000 4.9177714604e+00 5.2879116236e-03 2.6209196914e+00 -4.5395660681e+00 2.6209196914e+00 4.5395660681e+00 
26100 4.9177556994e+00 5.4244281562e-03 2.6208188132e+00 -4.5393913418e+00 2.6208188132e+00 4.5393913418e+00 
26200 4.9177407389e+00 5.5401926200e-03 2.6207153266e+00 -4.5392120978e+00 2.6207153266e+00 4.5392120978e+00 
26300 4.9177267296e+00 5.6354907506e-03 2.6206096273e+00 -4.5390290212e+00 2.6206096273e+00 4.5390290212e+00 
26400 4.9177138042e+00 5.7106515428e-03 2.6205021055e+00 -4.5388427880e+00 2.6205021055e+00 4.5388427880e+00 
26500 4.9177020765e+00 5.7660455227e-03 2.6203931452e+00 -4.5386540633e+00 2.6203931452e+00 4.5386540633e+00 
26600 4.9176916414e+00 5.8020829176e-03 2.6202831235e+00 -4.5384635000e+00 2.6202831235e+00 4.5384635000e+00 
26700 4.9176825746e+00 5.8192117337e-03 2.6201724094e+00 -4.5382717377e+00 2.6201724094e+00 4.5382717377e+00 
26800 4.9176749332e+00 5.8179157511e-03 2.6200613639e+00 -4.5380794012e+00 2.6200613639e+00 4.5380794012e+00 
26900 4.9176687556e+00 5.7987124470e-03 2.6199503383e+00 -4.5378870993e+00 2.6199503383e+00 4.5378870993e+00 
27000 4.9176640621e+00 5.7621508568e-03 2.6198396746e+00 -4.5376954240e+00 2.6198396746e+00 4.5376954240e+00 
27100 4.9176608558e+00 5.7088093840e-03 2.6197297039e+00 -4.5375049492e+00 2.6197297039e+00 4.5375049492e+00 
27200 4.9176591232e+00 5.6392935683e-03 2.6196207467e+00 -4.5373162298e+00 2.6196207467e+00 4.5373162298e+00 
27300 4.9176588353e+00 5.5542338230e-03 2.6195131117e+00 -4.5371298006e+00 2.6195131117e+00 4.5371298006e+00 
27400 4.9176599485e+00 5.4542831504e-03 2.6194070959e+00 -4.5369461758e+00 2.6194070959e+00 4.5369461758e+00 
27500 4.9176624062e+00 5.3401148461e-03 2.6193029836e+00 -4.5367658481e+00 2.6193029836e+00 4.5367658481e+00 
27600 4.9176661393e+00 5.2124202007e-03 2.6192010466e+00 -4.5365892879e+00 2.6192010466e+00 4.5365892879e+00 
27700 4.9176710683e+00 5.0719062080e-03 2.6191015432e+00 -4.5364169430e+00 2.6191015432e+00 4.5364169430e+00 
27800 4.9176771044e+00 4.9192932882e-03 2.6190047185e+00 -4.5362492377e+00 2.6190047185e+00 4.5362492377e+00 
27900 4.9176841505e+00 4.7553130352e-03 2.6189108037e+00 -4.5360865726e+00 2.6189108037e+00 4.5360865726e+00 
28000 4.9176921034e+00 4.5807059935e-03 2.6188200163e+00 -4.5359293241e+00 2.6188200163e+00 4.5359293241e+00 
28100 4.9177008546e+00 4.3962194746e-03 2.6187325593e+00 -4.5357778442e+00 2.6187325593e+00 4.5357778442e+00 
28200 4.9177102918e+00 4.2026054174e-03 2.6186486218e+00 -4.5356324602e+00 2.6186486218e+00 4.5356324602e+00 
28300 4.9177203007e+00 4.0006182993e-03 2.6185683785e+00 -4.5354934746e+00 2.6185683785e+00 4.5354934746e+00 
28400 4.9177307656e+00 3.7910131048e-03 2.6184919894e+00 -4.5353611649e+00 2.6184919894e+00 4.5353611649e+00 
28500 4.9177415713e+00 3.5745433548e-03 2.6184196005e+00 -4.5352357836e+00 2.6184196005e+00 4.5352357836e+00 
28600 4.9177526042e+00 3.3519592023e-03 2.6183513432e+00 -4.5351175584e+00 2.6183513432e+00 4.5351175584e+00 
28700 4.9177637531e+00 3.1240055986e-03 2.6182873345e+00 -4.5350066921e+00 2.6182873345e+00 4.5350066921e+00 
28800 4.9177749106e+00 2.8914205331e-03 2.6182276773e+00 -4.5349033628e+00 2.6182276773e+00 4.5349033628e+00 
28900 4.9177859739e+00 2.6549333490e-03 2.6181724603e+00 -4.5348077243e+00 2.6181724603e+00 4.5348077243e+00 
29000 4.9177968456e+00 2.4152631395e-03 2.6181217585e+00 -4.5347199060e+00 2.6181217585e+00 4.5347199060e+00 
29100 4.9178074347e+00 2.1731172240e-03 2.6180756327e+00 -4.5346400139e+00 2.6180756327e+00 4.5346400139e+00 
29200 4.9178176568e+00 1.9291897082e-03 2.6180341306e+00 -4.5345681302e+00 2.6180341306e+00 4.5345681302e+00 
29300 4.9178274354e+00 1.6841601265e-03 2.6179972865e+00 -4.5345043143e+00 2.6179972865e+00 4.5345043143e+00 
29400 4.9178367015e+00 1.4386921714e-03 2.6179651215e+00 -4.5344486029e+00 2.6179651215e+00 4.5344486029e+00 
29500 4.9178453944e+00 1.1934325052e-03 2.6179376443e+00 -4.5344010109e+00 2.6179376443e+00 4.5344010109e+00 
29600 4.9178534622e+00 9.4900965920e-04 2.6179148509e+00 -4.5343615317e+00 2.6179148509e+00 4.5343615317e+00 
29700 4.9178608611e+00 7.0603301584e-04 2.6178967256e+00 -4.5343301378e+00 2.6178967256e+00 4.5343301378e+00 
29800 4.9178675563e+00 4.6509187547e-04 2.6178832409e+00 -4.5343067815e+00 2.6178832409e+00 4.5343067815e+00 
29900 4.9178735216e+00 2.2675460625e-04 2.6178743579e+00 -4.5342913958e+00 2.6178743579e+00 4.5342913958e+00 
30000 4.9178787390e+00 -8.4321242735e-06 2.6178700270e+00 -4.5342838945e+00 2.6178700270e+00 4.5342838945e+00 
30100 4.9178831991e+00 -2.4000219334e-04 2.6178700270e+00 -4.5342838945e+00 2.6178700270e+00 4.5342838945e+00 
30200 4.9178869002e+00 -4.6733985847e-04 2.6178746110e+00 -4.5342918340e+00 2.6178746110e+00 4.5342918340e+00 
30300 4.9178898483e+00 -6.9002370407e-04 2.6178835369e+00 -4.5343072942e+00 2.6178835369e+00 4.5343072942e+00 
30400 4.9178920564e+00 -9.0759995419e-04 2.6178967160e+00 -4.5343301210e+00 2.6178967160e+00 4.5343301210e+00 
30500 4.9178935446e+00 -1.1196392041e-03 2.6179140505e+00 -4.5343601453e+00 2.6179140505e+00 4.5343601453e+00 
30600 4.9178943389e+00 -1.3257367334e-03 2.6179354347e+00 -4.5343971839e+00 2.6179354347e+00 4.5343971839e+00 
30700 4.9178944711e+00 -1.5255127510e-03 2.6179607550e+00 -4.5344410399e+00 2.6179607550e+00 4.5344410399e+00 
30800 4.9178939778e+00 -1.7186125735e-03 2.6179898906e+00 -4.5344915042e+00 2.6179898906e+00 4.5344915042e+00 
30900 4.9178929004e+00 -1.9047067397e-03 2.6180227138e+00 -4.5345483557e+00 2.6180227138e+00 4.5345483557e+00 
31000 4.9178912841e+00 -2.0834910647e-03 2.6180590907e+00 -4.5346113623e+00 2.6180590907e+00 4.5346113623e+00 
31100 4.9178891771e+00 -2.2546866342e-03 2.6180988816e+00 -4.5346802821e+00 2.6180988816e+00 4.5346802821e+00 
31200 4.9178866303e+00 -2.4180397428e-03 2.6181419413e+00 -4.5347548638e+00 2.6181419413e+00 4.5347548638e+00 
31300 4.9178836967e+00 -2.5733217783e-03 2.6181881200e+00 -4.5348348476e+00 2.6181881200e+00 4.5348348476e+00 
31400 4.9178804304e+00 -2.7203290549e-03 2.6182372633e+00 -4.5349199663e+00 2.6182372633e+00 4.5349199663e+00 
31500 4.9178768866e+00 -2.8588825965e-03 2.6182892131e+00 -4.5350099460e+00 2.6182892131e+00 4.5350099460e+00 
31600 4.9178731204e+00 -2.9888278742e-03 2.6183438078e+00 -4.5351045068e+00 2.6183438078e+00 4.5351045068e+00 
31700 4.9178691866e+00 -3.1100344987e-03 2.6184008828e+00 -4.5352033635e+00 2.6184008828e+00 4.5352033635e+00 
31800 4.9178651391e+00 -3.2223958709e-03 2.6184602710e+00 -4.5353062271e+00 2.6184602710e+00 4.5353062271e+00 
31900 4.9178610306e+00 -3.3258287928e-03 2.6185218036e+00 -4.5354128045e+00 2.6185218036e+00 4.5354128045e+00 
32000 4.9178569118e+00 -3.4202730399e-03 2.6185853097e+00 -4.5355228003e+00 2.6185853097e+00 4.5355228003e+00 
32100 4.9178528312e+00 -3.5056908989e-03 2.6186506176e+00 -4.5356359169e+00 2.6186506176e+00 4.5356359169e+00 
32200 4.9178488348e+00 -3.5820666713e-03 2.6187175548e+00 -4.5357518556e+00 2.6187175548e+00 4.5357518556e+00 
32300 4.9178449655e+00 -3.6494061452e-03 2.6187859487e+00 -4.5358703172e+00 2.6187859487e+00 4.5358703172e+00 
32400 4.9178412632e+00 -3.7077360380e-03 2.6188556264e+00 -4.5359910026e+00 2.6188556264e+00 4.5359910026e+00 
32500 4.9178377641e+00 -3.7571034107e-03 2.6189264160e+00 -4.5361136137e+00 2.6189264160e+00 4.5361136137e+00 
32600 4.9178345012e+00 -3.7975750566e-03 2.6189981461e+00 -4.5362378540e+00 2.6189981461e+00 4.5362378540e+00 
32700 4.9178315032e+00 -3.8292368651e-03 2.6190706470e+00 -4.5363634292e+00 2.6190706470e+00 4.5363634292e+00 
32800 4.9178287952e+00 -3.8521931638e-03 2.6191437503e+00 -4.5364900479e+00 2.6191437503e+00 4.5364900479e+00 
32900 4.9178263983e+00 -3.8665660389e-03 2.6192172898e+00 -4.5366174220e+00 2.6192172898e+00 4.5366174220e+00 
33000 4.9178243296e+00 -3.8724946368e-03 2.6192911017e+00 -4.5367452679e+00 2.6192911017e+00 4.5367452679e+00 
33100 4.9178226022e+00 -3.8701344478e-03 2.6193650246e+00 -4.5368733061e+00 2.6193650246e+00 4.5368733061e+00 
33200 4.9178212253e+00 -3.8596565735e-03 2.6194389003e+00 -4.5370012627e+00 2.6194389003e+00 4.5370012627e+00 
33300 4.9178202042e+00 -3.8412469798e-03 2.6195125740e+00 -4.5371288693e+00 2.6195125740e+00 4.5371288693e+00 
33400 4.9178195408e+00 -3.8151057366e-03 2.6195858943e+00 -4.5372558637e+00 2.6195858943e+00 4.5372558637e+00 
33500 4.9178192329e+00 -3.7814462457e-03 2.6196587135e+00 -4.5373819902e+00 2.6196587135e+00 4.5373819902e+00 
33600 4.9178192755e+00 -3.7404944587e-03 2.6197308882e+00 -4.5375070005e+00 2.6197308882e+00 4.5375070005e+00 
33700 4.9178196599e+00 -3.6924880863e-03 2.6198022793e+00 -4.5376306536e+00 2.6198022793e+00 4.5376306536e+00 
33800 4.9178203748e+00 -3.6376757994e-03 2.6198727523e+00 -4.5377527164e+00 2.6198727523e+00 4.5377527164e+00 
33900 4.9178214060e+00 -3.5763164255e-03 2.6199421773e+00 -4.5378729639e+00 2.6199421773e+00 4.5378729639e+00 
34000 4.9178227368e+00 -3.5086781399e-03 2.6200104294e+00 -4.5379911801e+00 2.6200104294e+00 4.5379911801e+00 
34100 4.9178243484e+00 -3.4350376536e-03 2.6200773889e+00 -4.5381071574e+00 2.6200773889e+00 4.5381071574e+00 
34200 4.9178262199e+00 -3.3556794009e-03 2.6201429414e+00 -4.5382206976e+00 2.6201429414e+00 4.5382206976e+00 
34300 4.9178283291e+00 -3.2708947251e-03 2.6202069779e+00 -4.5383316120e+00 2.6202069779e+00 4.5383316120e+00 
34400 4.9178306520e+00 -3.1809810672e-03 2.6202693948e+00 -4.5384397214e+00 2.6202693948e+00 4.5384397214e+00 
34500 4.9178331636e+00 -3.0862411560e-03 2.6203300946e+00 -4.5385448564e+00 2.6203300946e+00 4.5385448564e+00 
34600 4.9178358385e+00 -2.9869822036e-03 2.6203889851e+00 -4.5386468578e+00 2.6203889851e+00 4.5386468578e+00 
34700 4.9178386501e+00 -2.8835151052e-03 2.6204459803e+00 -4.5387455764e+00 2.6204459803e+00 4.5387455764e+00 
34800 4.9178415722e+00 -2.7761536476e-03 2.6205010001e+00 -4.5388408734e+00 2.6205010001e+00 4.5388408734e+00 
34900 4.9178445780e+00 -2.6652137249e-03 2.6205539702e+00 -4.5389326203e+00 2.6205539702e+00 4.5389326203e+00 
35000 4.9178476415e+00 -2.5510125654e-03 2.6206048224e+00 -4.5390206990e+00 2.6206048224e+00 4.5390206990e+00 
35100 4.9178507367e+00 -2.4338679689e-03 2.6206534948e+00 -4.5391050020e+00 2.6206534948e+00 4.5391050020e+00 
35200 4.9178538387e+00 -2.3140975576e-03 2.6206999312e+00 -4.5391854322e+00 2.6206999312e+00 4.5391854322e+00 
35300 4.9178569231e+00 -2.1920180417e-03 2.6207440817e+00 -4.5392619031e+00 2.6207440817e+00 4.5392619031e+00 
35400 4.9178599670e+00 -2.0679444994e-03 2.6207859023e+00 -4.5393343386e+00 2.6207859023e+00 4.5393343386e+00 
35500 4.9178629485e+00 -1.9421896758e-03 2.6208253552e+00 -4.5394026730e+00 2.6208253552e+00 4.5394026730e+00 
35600 4.9178658472e+00 -1.8150632988e-03 2.6208624083e+00 -4.5394668508e+00 2.6208624083e+00 4.5394668508e+00 
35700 4.9178686442e+00 -1.6868714154e-03 2.6208970356e+00 -4.5395268270e+00 2.6208970356e+00 4.5395268270e+00 
35800 4.9178713222e+00 -1.5579157497e-03 2.6209292168e+00 -4.5395825666e+00 2.6209292168e+00 4.5395825666e+00 
35900 4.9178738658e+00 -1.4284930817e-03 2.6209589376e+00 -4.5396340444e+00 2.6209589376e+00 4.5396340444e+00 
36000 4.9178762613e+00 -1.2988946510e-03 2.6209861890e+00 -4.5396812452e+00 2.6209861890e+00 4.5396812452e+00 
36100 4.9178784969e+00 -1.1694055847e-03 2.6210109677e+00 -4.5397241633e+00 2.6210109677e+00 4.5397241633e+00 
36200 4.9178805625e+00 -1.0403043504e-03 2.6210332761e+00 -4.5397628025e+00 2.6210332761e+00 4.5397628025e+00 
36300 4.9178824503e+00 -9.1186223704e-04 2.6210531214e+00 -4.5397971756e+00 2.6210531214e+00 4.5397971756e+00 
36400 4.9178841540e+00 -7.8434286195e-04 2.6210705164e+00 -4.5398273046e+00 2.6210705164e+00 4.5398273046e+00 
36500 4.9178856693e+00 -6.5800170769e-04 2.6210854787e+00 -4.5398532200e+00 2.6210854787e+00 4.5398532200e+00 
36600 4.9178869938e+00 -5.3308568727e-04 2.6210980307e+00 -4.5398749609e+00 2.6210980307e+00 4.5398749609e+00 
36700 4.9178881269e+00 -4.0983273968e-04 2.6211081999e+00 -4.5398925743e+00 2.6211081999e+00 4.5398925743e+00 
36800 4.9178890696e+00 -2.8847145575e-04 2.6211160178e+00 -4.5399061154e+00 2.6211160178e+00 4.5399061154e+00 
36900 4.9178898244e+00 -1.6922073523e-04 2.6211215207e+00 -4.5399156466e+00 2.6211215207e+00 4.5399156466e+00 
37000 4.9178903956e+00 -5.2289475140e-05 2.6211247487e+00 -4.5399212377e+00 2.6211247487e+00 4.5399212377e+00 
37100 4.9178907887e+00 6.1763133729e-05 2.6211247487e+00 -4.5399212377e+00 2.6211247487e+00 4.5399212377e+00 
37200 4.9178910109e+00 1.7388468810e-04 2.6211247487e+00 -4.5399212377e+00 2.6211247487e+00 4.5399212377e+00 
37300 4.9178910701e+00 2.8271007690e-04 2.6211214317e+00 -4.5399154925e+00 2.6211214317e+00 4.5399154925e+00 
37400 4.9178909754e+00 3.8848566400e-04 2.6211160388e+00 -4.5399061517e+00 2.6211160388e+00 4.5399061517e+00 
37500 4.9178907370e+00 4.9105610649e-04 2.6211086281e+00 -4.5398933160e+00 2.6211086281e+00 4.5398933160e+00 
37600 4.9178903657e+00 5.9027726315e-04 2.6210992607e+00 -4.5398770913e+00 2.6210992607e+00 4.5398770913e+00 
37700 4.9178898731e+00 6.8601628249e-04 2.6210880006e+00 -4.5398575882e+00 2.6210880006e+00 4.5398575882e+00 
37800 4.9178892714e+00 7.7815165979e-04 2.6210749142e+00 -4.5398349218e+00 2.6210749142e+00 4.5398349218e+00 
37900 4.9178885730e+00 8.6657326315e-04 2.6210600701e+00 -4.5398092110e+00 2.6210600701e+00 4.5398092110e+00 
38000 4.9178877906e+00 9.5118232955e-04 2.6210435391e+00 -4.5397805786e+00 2.6210435391e+00 4.5397805786e+00 
38100 4.9178869372e+00 1.0318914313e-03 2.6210253940e+00 -4.5397491504e+00 2.6210253940e+00 4.5397491504e+00 
38200 4.9178860257e+00 1.1086244136e-03 2.6210057092e+00 -4.5397150552e+00 2.6210057092e+00 4.5397150552e+00 
38300 4.9178850689e+00 1.1813163044e-03 2.6209845604e+00 -4.5396784244e+00 2.6209845604e+00 4.5396784244e+00 
38400 4.9178840794e+00 1.2499131968e-03 2.6209620247e+00 -4.5396393914e+00 2.6209620247e+00 4.5396393914e+00 
38500 4.9178830695e+00 1.3143721058e-03 2.6209381801e+00 -4.5395980915e+00 2.6209381801e+00 4.5395980915e+00 
38600 4.9178820509e+00 1.3746607991e-03 2.6209131057e+00 -4.5395546613e+00 2.6209131057e+00 4.5395546613e+00 
38700 4.9178810352e+00 1.4307576051e-03 2.6208868809e+00 -4.5395092386e+00 2.6208868809e+00 4.5395092386e+00 
38800 4.9178800329e+00 1.4826511967e-03 2.6208595857e+00 -4.5394619619e+00 2.6208595857e+00 4.5394619619e+00 
38900 4.9178790543e+00 1.5303403549e-03 2.6208313001e+00 -4.5394129699e+00 2.6208313001e+00 4.5394129699e+00 
39000 4.9178781087e+00 1.5738337101e-03 2.6208021045e+00 -4.5393624016e+00 2.6208021045e+00 4.5393624016e+00 
39100 4.9178772047e+00 1.6131494660e-03 2.6207720787e+00 -4.5393103954e+00 2.6207720787e+00 4.5393103954e+00 
39200 4.9178763501e+00 1.6483151049e-03 2.6207413026e+00 -4.5392570896e+00 2.6207413026e+00 4.5392570896e+00 
39300 4.9178755519e+00 1.6793670759e-03 2.6207098551e+00 -4.5392026210e+00 2.6207098551e+00 4.5392026210e+00 
39400 4.9178748161e+00 1.7063504689e-03 2.6206778149e+00 -4.5391471257e+00 2.6206778149e+00 4.5391471257e+00 
39500 4.9178741479e+00 1.7293186741e-03 2.6206452594e+00 -4.5390907380e+00 2.6206452594e+00 4.5390907380e+00 
39600 4.9178735517e+00 1.7483330293e-03 2.6206122654e+00 -4.5390335906e+00 2.6206122654e+00 4.5390335906e+00 
39700 4.9178730309e+00 1.7634624559e-03 2.6205789081e+00 -4.5389758141e+00 2.6205789081e+00 4.5389758141e+00 
39800 4.9178725879e+00 1.7747830854e-03 2.6205452618e+00 -4.5389175369e+00 2.6205452618e+00 4.5389175369e+00 
39900 4.9178722246e+00 1.7823778773e-03 2.6205113990e+00 -4.5388588848e+00 2.6205113990e+00 4.5388588848e+00 
40000 4.9178719417e+00 1.7863362298e-03 2.6204773908e+00 -4.5387999810e+00 2.6204773908e+00 4.5387999810e+00 
40100 4.9178717392e+00 1.7867535855e-03 2.6204433067e+00 -4.5387409456e+00 2.6204433067e+00 4.5387409456e+00 
40200 4.9178716166e+00 1.7837310314e-03 2.6204092142e+00 -4.5386818957e+00 2.6204092142e+00 4.5386818957e+00 
40300 4.9178715723e+00 1.7773748969e-03 2.6203751789e+00 -4.5386229448e+00 2.6203751789e+00 4.5386229448e+00 
40400 4.9178716042e+00 1.7677963491e-03 2.6203412645e+00 -4.5385642033e+00 2.6203412645e+00 4.5385642033e+00 
40500 4.9178717098e+00 1.7551109878e-03 2.6203075324e+00 -4.5385057776e+00 2.6203075324e+00 4.5385057776e+00 
40600 4.9178718856e+00 1.7394384405e-03 2.6202740419e+00 -4.5384477704e+00 2.6202740419e+00 4.5384477704e+00 
40700 4.9178721280e+00 1.7209019590e-03 2.6202408501e+00 -4.5383902804e+00 2.6202408501e+00 4.5383902804e+00 
40800 4.9178724327e+00 1.6996280188e-03 2.6202080115e+00 -4.5383334023e+00 2.6202080115e+00 4.5383334023e+00 
40900 4.9178727952e+00 1.6757459218e-03 2.6201755785e+00 -4.5382772267e+00 2.6201755785e+00 4.5382772267e+00 
41000 4.9178732104e+00 1.6493874040e-03 2.6201436008e+00 -4.5382218398e+00 2.6201436008e+00 4.5382218398e+00 
41100 4.9178736733e+00 1.6206862477e-03 2.6201121258e+00 -4.5381673233e+00 2.6201121258e+00 4.5381673233e+00 
41200 4.9178741784e+00 1.5897779015e-03 2.6200811980e+00 -4.5381137549e+00 2.6200811980e+00 4.5381137549e+00 
41300 4.9178747204e+00 1.5567991061e-03 2.6200508597e+00 -4.5380612075e+00 2.6200508597e+00 4.5380612075e+00 
41400 4.9178752935e+00 1.5218875290e-03 2.6200211505e+00 -4.5380097495e+00 2.6200211505e+00 4.5380097495e+00 
41500 4.9178758921e+00 1.4851814069e-03 2.6199921071e+00 -4.5379594449e+00 2.6199921071e+00 4.5379594449e+00 
41600 4.9178765107e+00 1.4468191988e-03 2.6199637639e+00 -4.5379103531e+00 2.6199637639e+00 4.5379103531e+00 
41700 4.9178771438e+00 1.4069392474e-03 2.6199361525e+00 -4.5378625288e+00 2.6199361525e+00 4.5378625288e+00 
41800 4.9178777860e+00 1.3656794519e-03 2.6199093019e+00 -4.5378160222e+00 2.6199093019e+00 4.5378160222e+00 
41900 4.9178784322e+00 1.3231769518e-03 2.6198832385e+00 -4.5377708790e+00 2.6198832385e+00 4.5377708790e+00 
42000 4.9178790772e+00 1.2795678214e-03 2.6198579859e+00 -4.5377271403e+00 2.6198579859e+00 4.5377271403e+00 
42100 4.9178797164e+00 1.2349867769e-03 2.6198335654e+00 -4.5376848427e+00 2.6198335654e+00 4.5376848427e+00 
42200 4.9178803452e+00 1.1895668950e-03 2.6198099955e+00 -4.5376440184e+00 2.6198099955e+00 4.5376440184e+00 
42300 4.9178809597e+00 1.1434393443e-03 2.6197872922e+00 -4.5376046952e+00 2.6197872922e+00 4.5376046952e+00 
42400 4.9178815558e+00 1.0967331292e-03 2.6197654691e+00 -4.5375668964e+00 2.6197654691e+00 4.5375668964e+00 
42500 4.9178821302e+00 1.0495748467e-03 2.6197445373e+00 -4.5375306414e+00 2.6197445373e+00 4.5375306414e+00 
42600 4.9178826796e+00 1.0020884564e-03 2.6197245053e+00 -4.5374959450e+00 2.6197245053e+00 4.5374959450e+00 
42700 4.9178832015e+00 9.5439506381e-04 2.6197053795e+00 -4.5374628181e+00 2.6197053795e+00 4.5374628181e+00 
42800 4.9178836934e+00 9.0661271621e-04 2.6196871638e+00 -4.5374312676e+00 2.6196871638e+00 4.5374312676e+00 
42900 4.9178841534e+00 8.5885621274e-04 2.6196698600e+00 -4.5374012965e+00 2.6196698600e+00 4.5374012965e+00 
43000 4.9178845798e+00 8.1123692723e-04 2.6196534675e+00 -4.5373729040e+00 2.6196534675e+00 4.5373729040e+00 
43100 4.9178849714e+00 7.6386264454e-04 2.6196379839e+00 -4.5373460855e+00 2.6196379839e+00 4.5373460855e+00 
43200 4.9178853275e+00 7.1683741012e-04 2.6196234044e+00 -4.5373208330e+00 2.6196234044e+00 4.5373208330e+00 
43300 4.9178856475e+00 6.7026139273e-04 2.6196097223e+00 -4.5372971350e+00 2.6196097223e+00 4.5372971350e+00 
43400 4.9178859313e+00 6.2423076022e-04 2.6195969292e+00 -4.5372749766e+00 2.6195969292e+00 4.5372749766e+00 
43500 4.9178861791e+00 5.7883756826e-04 2.6195850145e+00 -4.5372543399e+00 2.6195850145e+00 4.5372543399e+00 
43600 4.9178863915e+00 5.3416966173e-04 2.6195739663e+00 -4.5372352038e+00 2.6195739663e+00 4.5372352038e+00 
43700 4.9178865691e+00 4.9031058883e-04 2.6195637705e+00 -4.5372175442e+00 2.6195637705e+00 4.5372175442e+00 
43800 4.9178867131e+00 4.4733952741e-04 2.6195544119e+00 -4.5372013346e+00 2.6195544119e+00 4.5372013346e+00 
43900 4.9178868249e+00 4.0533122359e-04 2.6195458735e+00 -4.5371865456e+00 2.6195458735e+00 4.5371865456e+00 
44000 4.9178869058e+00 3.6435594215e-04 2.6195381368e+00 -4.5371731453e+00 2.6195381368e+00 4.5371731453e+00 
44100 4.9178869577e+00 3.2447942865e-04 2.6195311822e+00 -4.5371610996e+00 2.6195311822e+00 4.5371610996e+00 
44200 4.9178869825e+00 2.8576288289e-04 2.6195249887e+00 -4.5371503722e+00 2.6195249887e+00 4.5371503722e+00 
44300 4.9178869822e+00 2.4826294349e-04 2.6195195343e+00 -4.5371409248e+00 2.6195195343e+00 4.5371409248e+00 
44400 4.9178869590e+00 2.1203168317e-04 2.6195147956e+00 -4.5371327171e+00 2.6195147956e+00 4.5371327171e+00 
44500 4.9178869150e+00 1.7711661463e-04 2.6195107484e+00 -4.5371257072e+00 2.6195107484e+00 4.5371257072e+00 
44600 4.9178868527e+00 1.4356070649e-04 2.6195073677e+00 -4.5371198516e+00 2.6195073677e+00 4.5371198516e+00 
44700 4.9178867744e+00 1.1140240911e-04 2.6195046275e+00 -4.5371151054e+00 2.6195046275e+00 4.5371151054e+00 
44800 4.9178866824e+00 8.0675689867e-05 2.6195025011e+00 -4.5371114224e+00 2.6195025011e+00 4.5371114224e+00 
44900 4.9178865791e+00 5.1410077632e-05 2.6195009612e+00 -4.5371087552e+00 2.6195009612e+00 4.5371087552e+00 
45000 4.9178864669e+00 2.3986387359e-05 2.6195009612e+00 -4.5371087552e+00 2.6195009612e+00 4.5371087552e+00 
45100 4.9178863479e+00 -2.1086809037e-06 2.6195009612e+00 -4.5371087552e+00 2.6195009612e+00 4.5371087552e+00 
45200 4.9178862244e+00 -2.6855207540e-05 2.6195009612e+00 -4.5371087552e+00 2.6195009612e+00 4.5371087552e+00 
45300 4.9178860986e+00 -5.0237181972e-05 2.6195009612e+00 -4.5371087552e+00 2.6195009612e+00 4.5371087552e+00 
45400 4.9178859726e+00 -7.2242397578e-05 2.6195009612e+00 -4.5371087552e+00 2.6195009612e+00 4.5371087552e+00 
45500 4.9178858480e+00 -9.2362462353e-05 2.6195023401e+00 -4.5371111436e+00 2.6195023401e+00 4.5371111436e+00 
45600 4.9178857269e+00 -1.1093380281e-04 2.6195041031e+00 -4.5371141972e+00 2.6195041031e+00 4.5371141972e+00 
45700 4.9178856107e+00 -1.2795979606e-04 2.6195062205e+00 -4.5371178647e+00 2.6195062205e+00 4.5371178647e+00 
45800 4.9178855010e+00 -1.4344750583e-04 2.6195086630e+00 -4.5371220951e+00 2.6195086630e+00 4.5371220951e+00 
45900 4.9178853991e+00 -1.5740756644e-04 2.6195114010e+00 -4.5371268376e+00 2.6195114010e+00 4.5371268376e+00 
46000 4.9178853063e+00 -1.6985406175e-04 2.6195144056e+00 -4.5371320416e+00 2.6195144056e+00 4.5371320416e+00 
46100 4.9178852235e+00 -1.8080439927e-04 2.6195176476e+00 -4.5371376570e+00 2.6195176476e+00 4.5371376570e+00 
46200 4.9178851516e+00 -1.9027918003e-04 2.6195210987e+00 -4.5371436345e+00 2.6195210987e+00 4.5371436345e+00 
46300 4.9178850914e+00 -1.9830206435e-04 2.6195247307e+00 -4.5371499252e+00 2.6195247307e+00 4.5371499252e+00 
46400 4.9178850432e+00 -2.0489963416e-04 2.6195285158e+00 -4.5371564812e+00 2.6195285158e+00 4.5371564812e+00 
46500 4.9178850077e+00 -2.1010125199e-04 2.6195324268e+00 -4.5371632552e+00 2.6195324268e+00 4.5371632552e+00 
46600 4.9178849848e+00 -2.1393891712e-04 2.6195364371e+00 -4.5371702013e+00 2.6195364371e+00 4.5371702013e+00 
46700 4.9178849749e+00 -2.1644711932e-04 2.6195405206e+00 -4.5371772741e+00 2.6195405206e+00 4.5371772741e+00 
46800 4.9178849777e+00 -2.1766269039e-04 2.6195446520e+00 -4.5371844299e+00 2.6195446520e+00 4.5371844299e+00 
46900 4.9178849932e+00 -2.1762465407e-04 2.6195488066e+00 -4.5371916259e+00 2.6195488066e+00 4.5371916259e+00 
47000 4.9178850209e+00 -2.1637407438e-04 2.6195529604e+00 -4.5371988206e+00 2.6195529604e+00 4.5371988206e+00 
47100 4.9178850605e+00 -2.1395390317e-04 2.6195570904e+00 -4.5372059739e+00 2.6195570904e+00 4.5372059739e+00 
47200 4.9178851115e+00 -2.1040882678e-04 2.6195611742e+00 -4.5372130472e+00 2.6195611742e+00 4.5372130472e+00 
47300 4.9178851732e+00 -2.0578511255e-04 2.6195651903e+00 -4.5372200033e+00 2.6195651903e+00 4.5372200033e+00 
47400 4.9178852449e+00 -2.0013045521e-04 2.6195691182e+00 -4.5372268066e+00 2.6195691182e+00 4.5372268066e+00 
47500 4.9178853259e+00 -1.9349382374e-04 2.6195729381e+00 -4.5372334229e+00 2.6195729381e+00 4.5372334229e+00 
47600 4.9178854153e+00 -1.8592530880e-04 2.6195766313e+00 -4.5372398197e+00 2.6195766313e+00 4.5372398197e+00 
47700 4.9178855123e+00 -1.7747597134e-04 2.6195801801e+00 -4.5372459664e+00 2.6195801801e+00 4.5372459664e+00 
47800 4.9178856158e+00 -1.6819769234e-04 2.6195835676e+00 -4.5372518337e+00 2.6195835676e+00 4.5372518337e+00 
47900 4.9178857251e+00 -1.5814302437e-04 2.6195867779e+00 -4.5372573942e+00 2.6195867779e+00 4.5372573942e+00 
48000 4.9178858390e+00 -1.4736504497e-04 2.6195897964e+00 -4.5372626224e+00 2.6195897964e+00 4.5372626224e+00 
48100 4.9178859568e+00 -1.3591721236e-04 2.6195926092e+00 -4.5372674942e+00 2.6195926092e+00 4.5372674942e+00 
48200 4.9178860772e+00 -1.2385322357e-04 2.6195952034e+00 -4.5372719876e+00 2.6195952034e+00 4.5372719876e+00 
48300 4.9178861996e+00 -1.1122687542e-04 2.6195975674e+00 -4.5372760821e+00 2.6195975674e+00 4.5372760821e+00 
48400 4.9178863228e+00 -9.8091928607e-05 2.6195996904e+00 -4.5372797592e+00 2.6195996904e+00 4.5372797592e+00 
48500 4.9178864461e+00 -8.4501974990e-05 2.6196015626e+00 -4.5372830021e+00 2.6196015626e+00 4.5372830021e+00 
48600 4.9178865685e+00 -7.0510308500e-05 2.6196031755e+00 -4.5372857957e+00 2.6196031755e+00 4.5372857957e+00 
48700 4.9178866894e+00 -5.6657946643e-05 2.6196031755e+00 -4.5372857957e+00 2.6196031755e+00 4.5372857957e+00 
48800 4.9178868078e+00 -4.2428572462e-05 2.6196031755e+00 -4.5372857957e+00 2.6196031755e+00 4.5372857957e+00 
48900 4.9178869230e+00 -2.7868474812e-05 2.6196031755e+00 -4.5372857957e+00 2.6196031755e+00 4.5372857957e+00 
49000 4.9178870344e+00 -1.3023266922e-05 2.6196031755e+00 -4.5372857957e+00 2.6196031755e+00 4.5372857957e+00 
49100 4.9178871415e+00 2.0621955126e-06 2.6196031755e+00 -4.5372857957e+00 2.6196031755e+00 4.5372857957e+00 
49200 4.9178872438e+00 1.7343892586e-05 2.6196031755e+00 -4.5372857957e+00 2.6196031755e+00 4.5372857957e+00 
49300 4.9178873408e+00 3.2778714786e-05 2.6196031755e+00 -4.5372857957e+00 2.6196031755e+00 4.5372857957e+00 
49400 4.9178874321e+00 4.8324533834e-05 2.6196031755e+00 -4.5372857957e+00 2.6196031755e+00 4.5372857957e+00 
49500 4.9178875175e+00 6.3940269676e-05 2.6196031755e+00 -4.5372857957e+00 2.6196031755e+00 4.5372857957e+00 
49600 4.9178875967e+00 7.9585953586e-05 2.6196031755e+00 -4.5372857957e+00 2.6196031755e+00 4.5372857957e+00 
49700 4.9178876695e+00 9.4671820148e-05 2.6196016565e+00 -4.5372831646e+00 2.6196016565e+00 4.5372831646e+00 
49800 4.9178877359e+00 1.0958562848e-04 2.6195998495e+00 -4.5372800348e+00 2.6195998495e+00 4.5372800348e+00 
49900 4.9178877957e+00 1.2428769264e-04 2.6195977578e+00 -4.5372764120e+00 2.6195977578e+00 4.5372764120e+00 
50000 4.9178878490e+00 1.3873995336e-04 2.6195953856e+00 -4.5372723031e+00 2.6195953856e+00 4.5372723031e+00 
50100 4.9178878959e+00 1.5290603393e-04 2.6195927374e+00 -4.5372677164e+00 2.6195927374e+00 4.5372677164e+00 
50200 4.9178879365e+00 1.6675129041e-04 2.6195898189e+00 -4.5372626614e+00 2.6195898189e+00 4.5372626614e+00 
50300 4.9178879711e+00 1.8024285635e-04 2.6195866362e+00 -4.5372571487e+00 2.6195866362e+00 4.5372571487e+00 
50400 4.9178879998e+00 1.9334968179e-04 2.6195831959e+00 -4.5372511899e+00 2.6195831959e+00 4.5372511899e+00 
50500 4.9178880230e+00 2.0604256681e-04 2.6195795054e+00 -4.5372447978e+00 2.6195795054e+00 4.5372447978e+00 
50600 4.9178880409e+00 2.1829418950e-04 2.6195755727e+00 -4.5372379861e+00 2.6195755727e+00 4.5372379861e+00 
50700 4.9178880540e+00 2.3007912845e-04 2.6195714061e+00 -4.5372307694e+00 2.6195714061e+00 4.5372307694e+00 
50800 4.9178880625e+00 2.4137387985e-04 2.6195670145e+00 -4.5372231630e+00 2.6195670145e+00 4.5372231630e+00 
50900 4.9178880669e+00 2.5215686925e-04 2.6195624074e+00 -4.5372151832e+00 2.6195624074e+00 4.5372151832e+00 
51000 4.9178880677e+00 2.6240845813e-04 2.6195575944e+00 -4.5372068469e+00 2.6195575944e+00 4.5372068469e+00 
51100 4.9178880652e+00 2.7211094527e-04 2.6195525858e+00 -4.5371981717e+00 2.6195525858e+00 4.5371981717e+00 
51200 4.9178880599e+00 2.8124856316e-04 2.6195473920e+00 -4.5371891757e+00 2.6195473920e+00 4.5371891757e+00 
51300 4.9178880523e+00 2.8980746948e-04 2.6195420237e+00 -4.5371798776e+00 2.6195420237e+00 4.5371798776e+00 
51400 4.9178880427e+00 2.9777573387e-04 2.6195364921e+00 -4.5371702965e+00 2.6195364921e+00 4.5371702965e+00 
51500 4.9178880317e+00 3.0514332006e-04 2.6195308083e+00 -4.5371604520e+00 2.6195308083e+00 4.5371604520e+00 
51600 4.9178880196e+00 3.1190206359e-04 2.6195249839e+00 -4.5371503639e+00 2.6195249839e+00 4.5371503639e+00 
51700 4.9178880069e+00 3.1804564518e-04 2.6195190305e+00 -4.5371400523e+00 2.6195190305e+00 4.5371400523e+00 
51800 4.9178879940e+00 3.2356956009e-04 2.6195129598e+00 -4.5371295375e+00 2.6195129598e+00 4.5371295375e+00 
51900 4.9178879812e+00 3.2847108343e-04 2.6195067837e+00 -4.5371188401e+00 2.6195067837e+00 4.5371188401e+00 
52000 4.9178879690e+00 3.3274923182e-04 2.6195005140e+00 -4.5371079807e+00 2.6195005140e+00 4.5371079807e+00 
52100 4.9178879576e+00 3.3640472147e-04 2.6194941626e+00 -4.5370969798e+00 2.6194941626e+00 4.5370969798e+00 
52200 4.9178879473e+00 3.3943992291e-04 2.6194877414e+00 -4.5370858580e+00 2.6194877414e+00 4.5370858580e+00 
52300 4.9178879385e+00 3.4185881250e-04 2.6194812623e+00 -4.5370746358e+00 2.6194812623e+00 4.5370746358e+00 
52400 4.9178879313e+00 3.4366692112e-04 2.6194747370e+00 -4.5370633336e+00 2.6194747370e+00 4.5370633336e+00 
52500 4.9178879261e+00 3.4487128002e-04 2.6194681771e+00 -4.5370519716e+00 2.6194681771e+00 4.5370519716e+00 
52600 4.9178879229e+00 3.4548036417e-04 2.6194615943e+00 -4.5370405698e+00 2.6194615943e+00 4.5370405698e+00 
52700 4.9178879220e+00 3.4550403335e-04 2.6194549998e+00 -4.5370291478e+00 2.6194549998e+00 4.5370291478e+00 
52800 4.9178879234e+00 3.4495347101e-04 2.6194484049e+00 -4.5370177250e+00 2.6194484049e+00 4.5370177250e+00 
52900 4.9178879273e+00 3.4384112143e-04 2.6194418204e+00 -4.5370063204e+00 2.6194418204e+00 4.5370063204e+00 
53000 4.9178879337e+00 3.4218062504e-04 2.6194352571e+00 -4.5369949525e+00 2.6194352571e+00 4.5369949525e+00 
53100 4.9178879426e+00 3.3998675237e-04 2.6194287256e+00 -4.5369836395e+00 2.6194287256e+00 4.5369836395e+00 
53200 4.9178879540e+00 3.3727533673e-04 2.6194222359e+00 -4.5369723990e+00 2.6194222359e+00 4.5369723990e+00 
53300 4.9178879680e+00 3.3406320585e-04 2.6194157979e+00 -4.5369612481e+00 2.6194157979e+00 4.5369612481e+00 
53400 4.9178879844e+00 3.3036811271e-04 2.6194094212e+00 -4.5369502034e+00 2.6194094212e+00 4.5369502034e+00 
53500 4.9178880031e+00 3.2620866569e-04 2.6194031151e+00 -4.5369392808e+00 2.6194031151e+00 4.5369392808e+00 
53600 4.9178880242e+00 3.2160425839e-04 2.6193968883e+00 -4.5369284957e+00 2.6193968883e+00 4.5369284957e+00 
53700 4.9178880473e+00 3.1657499907e-04 2.6193907494e+00 -4.5369178628e+00 2.6193907494e+00 4.5369178628e+00 
53800 4.9178880725e+00 3.1114164023e-04 2.6193847065e+00 -4.5369073962e+00 2.6193847065e+00 4.5369073962e+00 
53900 4.9178880995e+00 3.0532550815e-04 2.6193787673e+00 -4.5368971092e+00 2.6193787673e+00 4.5368971092e+00 
54000 4.9178881282e+00 2.9914843292e-04 2.6193729391e+00 -4.5368870145e+00 2.6193729391e+00 4.5368870145e+00 
54100 4.9178881584e+00 2.9263267883e-04 2.6193672288e+00 -4.5368771239e+00 2.6193672288e+00 4.5368771239e+00 
54200 4.9178881900e+00 2.8580087554e-04 2.6193616428e+00 -4.5368674488e+00 2.6193616428e+00 4.5368674488e+00 
54300 4.9178882226e+00 2.7867594996e-04 2.6193561873e+00 -4.5368579995e+00 2.6193561873e+00 4.5368579995e+00 
54400 4.9178882561e+00 2.7128105928e-04 2.6193508677e+00 -4.5368487858e+00 2.6193508677e+00 4.5368487858e+00 
54500 4.9178882904e+00 2.6363952494e-04 2.6193456893e+00 -4.5368398165e+00 2.6193456893e+00 4.5368398165e+00 
54600 4.9178883251e+00 2.5577476805e-04 2.6193406568e+00 -4.5368310999e+00 2.6193406568e+00 4.5368310999e+00 
54700 4.9178883602e+00 2.4771024606e-04 2.6193357744e+00 -4.5368226433e+00 2.6193357744e+00 4.5368226433e+00 
54800 4.9178883953e+00 2.3946939109e-04 2.6193310459e+00 -4.5368144533e+00 2.6193310459e+00 4.5368144533e+00 
54900 4.9178884304e+00 2.3107554988e-04 2.6193264747e+00 -4.5368065358e+00 2.6193264747e+00 4.5368065358e+00 
55000 4.9178884651e+00 2.2255192539e-04 2.6193220637e+00 -4.5367988957e+00 2.6193220637e+00 4.5367988957e+00 
55100 4.9178884994e+00 2.1392152046e-04 2.6193178154e+00 -4.5367915375e+00 2.6193178154e+00 4.5367915375e+00 
55200 4.9178885331e+00 2.0520708330e-04 2.6193137319e+00 -4.5367844646e+00 2.6193137319e+00 4.5367844646e+00 
55300 4.9178885660e+00 1.9643105500e-04 2.6193098147e+00 -4.5367776799e+00 2.6193098147e+00 4.5367776799e+00 
55400 4.9178885980e+00 1.8761551932e-04 2.6193060650e+00 -4.5367711852e+00 2.6193060650e+00 4.5367711852e+00 
55500 4.9178886289e+00 1.7878215450e-04 2.6193024837e+00 -4.5367649821e+00 2.6193024837e+00 4.5367649821e+00 
55600 4.9178886586e+00 1.6995218746e-04 2.6192990709e+00 -4.5367590710e+00 2.6192990709e+00 4.5367590710e+00 
55700 4.9178886871e+00 1.6114635029e-04 2.6192958266e+00 -4.5367534518e+00 2.6192958266e+00 4.5367534518e+00 
55800 4.9178887142e+00 1.5238483905e-04 2.6192927505e+00 -4.5367481238e+00 2.6192927505e+00 4.5367481238e+00 
55900 4.9178887398e+00 1.4368727508e-04 2.6192898416e+00 -4.5367430854e+00 2.6192898416e+00 4.5367430854e+00 
56000 4.9178887640e+00 1.3507266864e-04 2.6192870987e+00 -4.5367383346e+00 2.6192870987e+00 4.5367383346e+00 
56100 4.9178887866e+00 1.2655938512e-04 2.6192845203e+00 -4.5367338687e+00 2.6192845203e+00 4.5367338687e+00 
56200 4.9178888076e+00 1.1816511369e-04 2.6192821044e+00 -4.5367296842e+00 2.6192821044e+00 4.5367296842e+00 
56300 4.9178888270e+00 1.0990683850e-04 2.6192798487e+00 -4.5367257772e+00 2.6192798487e+00 4.5367257772e+00 
56400 4.9178888449e+00 1.0180081225e-04 2.6192777507e+00 -4.5367221433e+00 2.6192777507e+00 4.5367221433e+00 
56500 4.9178888611e+00 9.3862532517e-05 2.6192758074e+00 -4.5367187774e+00 2.6192758074e+00 4.5367187774e+00 
56600 4.9178888758e+00 8.6106720329e-05 2.6192740156e+00 -4.5367156740e+00 2.6192740156e+00 4.5367156740e+00 
56700 4.9178888890e+00 7.8547301383e-05 2.6192723719e+00 -4.5367128270e+00 2.6192723719e+00 4.5367128270e+00 
56800 4.9178889007e+00 7.1197389722e-05 2.6192708725e+00 -4.5367102300e+00 2.6192708725e+00 4.5367102300e+00 
56900 4.9178889110e+00 6.4069273795e-05 2.6192695134e+00 -4.5367078759e+00 2.6192695134e+00 4.5367078759e+00 
57000 4.9178889200e+00 5.7617896278e-05 2.6192695134e+00 -4.5367078759e+00 2.6192695134e+00 4.5367078759e+00 
57100 4.9178889277e+00 5.1379756710e-05 2.6192695134e+00 -4.5367078759e+00 2.6192695134e+00 4.5367078759e+00 
57200 4.9178889341e+00 4.5364904819e-05 2.6192695134e+00 -4.5367078759e+00 2.6192695134e+00 4.5367078759e+00 
57300 4.9178889395e+00 3.9582544876e-05 2.6192695134e+00 -4.5367078759e+00 2.6192695134e+00 4.5367078759e+00 
57400 4.9178889438e+00 3.4041043349e-05 2.6192695134e+00 -4.5367078759e+00 2.6192695134e+00 4.5367078759e+00 
57500 4.9178889472e+00 2.8747937838e-05 2.6192695134e+00 -4.5367078759e+00 2.6192695134e+00 4.5367078759e+00 
57600 4.9178889498e+00 2.3709947244e-05 2.6192695134e+00 -4.5367078759e+00 2.6192695134e+00 4.5367078759e+00 
57700 4.9178889517e+00 1.8932983169e-05 2.6192695134e+00 -4.5367078759e+00 2.6192695134e+00 4.5367078759e+00 
57800 4.9178889529e+00 1.4422162471e-05 2.6192695134e+00 -4.5367078759e+00 2.6192695134e+00 4.5367078759e+00 
57900 4.9178889537e+00 1.0181820873e-05 2.6192695134e+00 -4.5367078759e+00 2.6192695134e+00 4.5367078759e+00 
58000 4.9178889540e+00 6.2155277530e-06 2.6192695134e+00 -4.5367078759e+00 2.6192695134e+00 4.5367078759e+00 
58100 4.9178889540e+00 2.5261018083e-06 2.6192695134e+00 -4.5367078759e+00 2.6192695134e+00 4.5367078759e+00 
58200 4.9178889538e+00 -8.8437219290e-07 2.6192695134e+00 -4.5367078759e+00 2.6192695134e+00 4.5367078759e+00 
58300 4.9178889535e+00 -4.0145258054e-06 2.6192695134e+00 -4.5367078759e+00 2.6192695134e+00 4.5367078759e+00 
58400 4.9178889531e+00 -6.8636884280e-06 2.6192695134e+00 -4.5367078759e+00 2.6192695134e+00 4.5367078759e+00 
58500 4.9178889528e+00 -9.4318679771e-06 2.6192695134e+00 -4.5367078759e+00 2.6192695134e+00 4.5367078759e+00 
58600 4.9178889526e+00 -1.1719730824e-05 2.6192695134e+00 -4.5367078759e+00 2.6192695134e+00 4.5367078759e+00 
58700 4.9178889527e+00 -1.3728580977e-05 2.6192695134e+00 -4.5367078759e+00 2.6192695134e+00 4.5367078759e+00 
58800 4.9178889530e+00 -1.5460338650e-05 2.6192695134e+00 -4.5367078759e+00 2.6192695134e+00 4.5367078759e+00 
58900 4.9178889536e+00 -1.6917518165e-05 2.6192695134e+00 -4.5367078759e+00 2.6192695134e+00 4.5367078759e+00 
59000 4.9178889546e+00 -1.8103205321e-05 2.6192695134e+00 -4.5367078759e+00 2.6192695134e+00 4.5367078759e+00 
59100 4.9178889560e+00 -1.9021034235e-05 2.6192695134e+00 -4.5367078759e+00 2.6192695134e+00 4.5367078759e+00 
59200 4.9178889578e+00 -1.9675163746e-05 2.6192695134e+00 -4.5367078759e+00 2.6192695134e+00 4.5367078759e+00 
59300 4.9178889602e+00 -2.0070253383e-05 2.6192695134e+00 -4.5367078759e+00 2.6192695134e+00 4.5367078759e+00 
59400 4.9178889631e+00 -2.0211438973e-05 2.6192695134e+00 -4.5367078759e+00 2.6192695134e+00 4.5367078759e+00 
59500 4.9178889664e+00 -2.0104307993e-05 2.6192695134e+00 -4.5367078759e+00 2.6192695134e+00 4.5367078759e+00 
59600 4.9178889704e+00 -1.9754874595e-05 2.6192695134e+00 -4.5367078759e+00 2.6192695134e+00 4.5367078759e+00 
59700 4.9178889749e+00 -1.9169554486e-05 2.6192695134e+00 -4.5367078759e+00 2.6192695134e+00 4.5367078759e+00 
59800 4.9178889799e+00 -1.8355139632e-05 2.6192695134e+00 -4.5367078759e+00 2.6192695134e+00 4.5367078759e+00 
59900 4.9178889855e+00 -1.7318772826e-05 2.6192695134e+00 -4.5367078759e+00 2.6192695134e+00 4.5367078759e+00 
60000 4.9178889915e+00 -1.6067922257e-05 2.6192695134e+00 -4.5367078759e+00 2.6192695134e+00 4.5367078759e+00 
60100 4.9178889981e+00 -1.4610356036e-05 2.6192695134e+00 -4.5367078759e+00 2.6192695134e+00 4.5367078759e+00 
60200 4.9178890052e+00 -1.2954116782e-05 2.6192695134e+00 -4.5367078759e+00 2.6192695134e+00 4.5367078759e+00 
60300 4.9178890127e+00 -1.1107496264e-05 2.6192695134e+00 -4.5367078759e+00 2.6192695134e+00 4.5367078759e+00 
60400 4.9178890206e+00 -9.0790102144e-06 2.6192695134e+00 -4.5367078759e+00 2.6192695134e+00 4.5367078759e+00 
60500 4.9178890290e+00 -6.8773732990e-06 2.6192695134e+00 -4.5367078759e+00 2.6192695134e+00 4.5367078759e+00 
60600 4.9178890377e+00 -4.5114743069e-06 2.6192695134e+00 -4.5367078759e+00 2.6192695134e+00 4.5367078759e+00 
60700 4.9178890467e+00 -1.9903516395e-06 2.6192695134e+00 -4.5367078759e+00 2.6192695134e+00 4.5367078759e+00 
60800 4.9178890559e+00 6.7683095046e-07 2.6192695134e+00 -4.5367078759e+00 2.6192695134e+00 4.5367078759e+00 
60900 4.9178890654e+00 3.4808082116e-06 2.6192695134e+00 -4.5367078759e+00 2.6192695134e+00 4.5367078759e+00 
61000 4.9178890751e+00 6.4122369087e-06 2.6192695134e+00 -4.5367078759e+00 2.6192695134e+00 4.5367078759e+00 
61100 4.9178890849e+00 9.4617188615e-06 2.6192695134e+00 -4.5367078759e+00 2.6192695134e+00 4.5367078759e+00 
61200 4.9178890949e+00 1.2619823587e-05 2.6192695134e+00 -4.5367078759e+00 2.6192695134e+00 4.5367078759e+00 
61300 4.9178891049e+00 1.5877110362e-05 2.6192695134e+00 -4.5367078759e+00 2.6192695134e+00 4.5367078759e+00 
61400 4.9178891149e+00 1.9224149835e-05 2.6192695134e+00 -4.5367078759e+00 2.6192695134e+00 4.5367078759e+00 
61500 4.9178891249e+00 2.2651545017e-05 2.6192695134e+00 -4.5367078759e+00 2.6192695134e+00 4.5367078759e+00 
61600 4.9178891348e+00 2.6149951719e-05 2.6192695134e+00 -4.5367078759e+00 2.6192695134e+00 4.5367078759e+00 
61700 4.9178891446e+00 2.9710098330e-05 2.6192695134e+00 -4.5367078759e+00 2.6192695134e+00 4.5367078759e+00 
61800 4.9178891543e+00 3.3322804972e-05 2.6192695134e+00 -4.5367078759e+00 2.6192695134e+00 4.5367078759e+00 
61900 4.9178891639e+00 3.6979001990e-05 2.6192695134e+00 -4.5367078759e+00 2.6192695134e+00 4.5367078759e+00 
62000 4.9178891732e+00 4.0669747703e-05 2.6192695134e+00 -4.5367078759e+00 2.6192695134e+00 4.5367078759e+00 
62100 4.9178891823e+00 4.4386245470e-05 2.6192695134e+00 -4.5367078759e+00 2.6192695134e+00 4.5367078759e+00 
62200 4.9178891911e+00 4.8119860020e-05 2.6192695134e+00 -4.5367078759e+00 2.6192695134e+00 4.5367078759e+00 
62300 4.9178891997e+00 5.1862132999e-05 2.6192695134e+00 -4.5367078759e+00 2.6192695134e+00 4.5367078759e+00 
62400 4.9178892080e+00 5.5604797748e-05 2.6192695134e+00 -4.5367078759e+00 2.6192695134e+00 4.5367078759e+00 
62500 4.9178892160e+00 5.9339793333e-05 2.6192695134e+00 -4.5367078759e+00 2.6192695134e+00 4.5367078759e+00 
62600 4.9178892237e+00 6.3059277726e-05 2.6192695134e+00 -4.5367078759e+00 2.6192695134e+00 4.5367078759e+00 
62700 4.9178892310e+00 6.6755640177e-05 2.6192695134e+00 -4.5367078759e+00 2.6192695134e+00 4.5367078759e+00 
62800 4.9178892380e+00 7.0421512829e-05 2.6192695134e+00 -4.5367078759e+00 2.6192695134e+00 4.5367078759e+00 
62900 4.9178892446e+00 7.4049781434e-05 2.6192695134e+00 -4.5367078759e+00 2.6192695134e+00 4.5367078759e+00 
63000 4.9178892508e+00 7.7120743380e-05 2.6192680998e+00 -4.5367054276e+00 2.6192680998e+00 4.5367054276e+00 
63100 4.9178892567e+00 8.0099641565e-05 2.6192666277e+00 -4.5367028777e+00 2.6192666277e+00 4.5367028777e+00 
63200 4.9178892622e+00 8.2979474981e-05 2.6192650986e+00 -4.5367002293e+00 2.6192650986e+00 4.5367002293e+00 
63300 4.9178892673e+00 8.5753665538e-05 2.6192635146e+00 -4.5366974857e+00 2.6192635146e+00 4.5366974857e+00 
63400 4.9178892721e+00 8.8416063483e-05 2.6192618776e+00 -4.5366946503e+00 2.6192618776e+00 4.5366946503e+00 
63500 4.9178892766e+00 9.0960951641e-05 2.6192601898e+00 -4.5366917270e+00 2.6192601898e+00 4.5366917270e+00 
63600 4.9178892807e+00 9.3383048652e-05 2.6192584534e+00 -4.5366887195e+00 2.6192584534e+00 4.5366887195e+00 
63700 4.9178892846e+00 9.5677510967e-05 2.6192566708e+00 -4.5366856319e+00 2.6192566708e+00 4.5366856319e+00 
63800 4.9178892882e+00 9.7839933878e-05 2.6192548444e+00 -4.5366824684e+00 2.6192548444e+00 4.5366824684e+00 
63900 4.9178892915e+00 9.9866351438e-05 2.6192529767e+00 -4.5366792335e+00 2.6192529767e+00 4.5366792335e+00 
64000 4.9178892945e+00 1.0175323537e-04 2.6192510703e+00 -4.5366759315e+00 2.6192510703e+00 4.5366759315e+00 
64100 4.9178892973e+00 1.0349749297e-04 2.6192491279e+00 -4.5366725671e+00 2.6192491279e+00 4.5366725671e+00 
64200 4.9178893000e+00 1.0509646403e-04 2.6192471522e+00 -4.5366691451e+00 2.6192471522e+00 4.5366691451e+00 
64300 4.9178893024e+00 1.0654791682e-04 2.6192451459e+00 -4.5366656702e+00 2.6192451459e+00 4.5366656702e+00 
64400 4.9178893046e+00 1.0785004315e-04 2.6192431120e+00 -4.5366621473e+00 2.6192431120e+00 4.5366621473e+00 
64500 4.9178893067e+00 1.0900145257e-04 2.6192410532e+00 -4.5366585814e+00 2.6192410532e+00 4.5366585814e+00 
64600 4.9178893087e+00 1.1000116570e-04 2.6192389724e+00 -4.5366549774e+00 2.6192389724e+00 4.5366549774e+00 
64700 4.9178893106e+00 1.1084860677e-04 2.6192368725e+00 -4.5366513403e+00 2.6192368725e+00 4.5366513403e+00 
64800 4.9178893123e+00 1.1154359534e-04 2.6192347565e+00 -4.5366476752e+00 2.6192347565e+00 4.5366476752e+00 
64900 4.9178893140e+00 1.1208633734e-04 2.6192326272e+00 -4.5366439871e+00 2.6192326272e+00 4.5366439871e+00 
65000 4.9178893157e+00 1.1247741539e-04 2.6192304875e+00 -4.5366402811e+00 2.6192304875e+00 4.5366402811e+00 
65100 4.9178893173e+00 1.1271777841e-04 2.6192283403e+00 -4.5366365621e+00 2.6192283403e+00 4.5366365621e+00 
65200 4.9178893189e+00 1.1280873072e-04 2.6192261886e+00 -4.5366328352e+00 2.6192261886e+00 4.5366328352e+00 
65300 4.9178893205e+00 1.1275192044e-04 2.6192240351e+00 -4.5366291052e+00 2.6192240351e+00 4.5366291052e+00 
65400 4.9178893222e+00 1.1254932739e-04 2.6192218827e+00 -4.5366253772e+00 2.6192218827e+00 4.5366253772e+00 
65500 4.9178893238e+00 1.1220325053e-04 2.6192197342e+00 -4.5366216558e+00 2.6192197342e+00 4.5366216558e+00 
65600 4.9178893255e+00 1.1171629492e-04 2.6192175923e+00 -4.5366179459e+00 2.6192175923e+00 4.5366179459e+00 
65700 4.9178893272e+00 1.1109135822e-04 2.6192154597e+00 -4.5366142521e+00 2.6192154597e+00 4.5366142521e+00 
65800 4.9178893290e+00 1.1033161690e-04 2.6192133390e+00 -4.5366105789e+00 2.6192133390e+00 4.5366105789e+00 
65900 4.9178893309e+00 1.0944051199e-04 2.6192112328e+00 -4.5366069309e+00 2.6192112328e+00 4.5366069309e+00 
66000 4.9178893328e+00 1.0842173471e-04 2.6192091436e+00 -4.5366033123e+00 2.6192091436e+00 4.5366033123e+00 
66100 4.9178893348e+00 1.0727921167e-04 2.6192070738e+00 -4.5365997274e+00 2.6192070738e+00 4.5365997274e+00 
66200 4.9178893369e+00 1.0601708999e-04 2.6192050259e+00 -4.5365961803e+00 2.6192050259e+00 4.5365961803e+00 
66300 4.9178893390e+00 1.0463972217e-04 2.6192030021e+00 -4.5365926749e+00 2.6192030021e+00 4.5365926749e+00 
66400 4.9178893413e+00 1.0315165089e-04 2.6192010045e+00 -4.5365892151e+00 2.6192010045e+00 4.5365892151e+00 
66500 4.9178893436e+00 1.0155759367e-04 2.6191990354e+00 -4.5365858044e+00 2.6191990354e+00 4.5365858044e+00 
66600 4.9178893460e+00 9.9862427464e-05 2.6191970967e+00 -4.5365824464e+00 2.6191970967e+00 4.5365824464e+00 
66700 4.9178893485e+00 9.8071173325e-05 2.6191951903e+00 -4.5365791445e+00 2.6191951903e+00 4.5365791445e+00 
66800 4.9178893511e+00 9.6188980989e-05 2.6191933181e+00 -4.5365759019e+00 2.6191933181e+00 4.5365759019e+00 
66900 4.9178893537e+00 9.4221113563e-05 2.6191914819e+00 -4.5365727214e+00 2.6191914819e+00 4.5365727214e+00 
67000 4.9178893564e+00 9.2172932302e-05 2.6191896832e+00 -4.5365696060e+00 2.6191896832e+00 4.5365696060e+00 
67100 4.9178893592e+00 9.0049881538e-05 2.6191879237e+00 -4.5365665584e+00 2.6191879237e+00 4.5365665584e+00 
67200 4.9178893620e+00 8.7857473673e-05 2.6191862046e+00 -4.5365635809e+00 2.6191862046e+00 4.5365635809e+00 
67300 4.9178893648e+00 8.5601274477e-05 2.6191845274e+00 -4.5365606759e+00 2.6191845274e+00 4.5365606759e+00 
67400 4.9178893677e+00 8.3286888532e-05 2.6191828933e+00 -4.5365578455e+00 2.6191828933e+00 4.5365578455e+00 
67500 4.9178893706e+00 8.0919944967e-05 2.6191813034e+00 -4.5365550917e+00 2.6191813034e+00 4.5365550917e+00 
67600 4.9178893736e+00 7.8506083402e-05 2.6191797586e+00 -4.5365524161e+00 2.6191797586e+00 4.5365524161e+00 
67700 4.9178893765e+00 7.6050940293e-05 2.6191782599e+00 -4.5365498203e+00 2.6191782599e+00 4.5365498203e+00 
67800 4.9178893795e+00 7.3560135533e-05 2.6191768081e+00 -4.5365473057e+00 2.6191768081e+00 4.5365473057e+00 
67900 4.9178893825e+00 7.1039259425e-05 2.6191754039e+00 -4.5365448734e+00 2.6191754039e+00 4.5365448734e+00 
68000 4.9178893854e+00 6.8493860035e-05 2.6191740477e+00 -4.5365425245e+00 2.6191740477e+00 4.5365425245e+00 
68100 4.9178893884e+00 6.6403828871e-05 2.6191740477e+00 -4.5365425245e+00 2.6191740477e+00 4.5365425245e+00 
68200 4.9178893914e+00 6.4300714940e-05 2.6191740477e+00 -4.5365425245e+00 2.6191740477e+00 4.5365425245e+00 
68300 4.9178893943e+00 6.2189571739e-05 2.6191740477e+00 -4.5365425245e+00 2.6191740477e+00 4.5365425245e+00 
68400 4.9178893972e+00 6.0075302414e-05 2.6191740477e+00 -4.5365425245e+00 2.6191740477e+00 4.5365425245e+00 
68500 4.9178894001e+00 5.7962656759e-05 2.6191740477e+00 -4.5365425245e+00 2.6191740477e+00 4.5365425245e+00 
68600 4.9178894028e+00 5.5856228467e-05 2.6191740477e+00 -4.5365425245e+00 2.6191740477e+00 4.5365425245e+00 
68700 4.9178894055e+00 5.3760452580e-05 2.6191740477e+00 -4.5365425245e+00 2.6191740477e+00 4.5365425245e+00 
68800 4.9178894082e+00 5.1679603221e-05 2.6191740477e+00 -4.5365425245e+00 2.6191740477e+00 4.5365425245e+00 
68900 4.9178894108e+00 4.9617791469e-05 2.6191740477e+00 -4.5365425245e+00 2.6191740477e+00 4.5365425245e+00 
69000 4.9178894133e+00 4.7578963551e-05 2.6191740477e+00 -4.5365425245e+00 2.6191740477e+00 4.5365425245e+00 
69100 4.9178894157e+00 4.5566899212e-05 2.6191740477e+00 -4.5365425245e+00 2.6191740477e+00 4.5365425245e+00 
69200 4.9178894181e+00 4.3585210342e-05 2.6191740477e+00 -4.5365425245e+00 2.6191740477e+00 4.5365425245e+00 
69300 4.9178894203e+00 4.1637339824e-05 2.6191740477e+00 -4.5365425245e+00 2.6191740477e+00 4.5365425245e+00 
69400 4.9178894225e+00 3.9726560627e-05 2.6191740477e+00 -4.5365425245e+00 2.6191740477e+00 4.5365425245e+00 
69500 4.9178894246e+00 3.7855975142e-05 2.6191740477e+00 -4.5365425245e+00 2.6191740477e+00 4.5365425245e+00 
69600 4.9178894267e+00 3.6028514718e-05 2.6191740477e+00 -4.5365425245e+00 2.6191740477e+00 4.5365425245e+00 
69700 4.9178894286e+00 3.4246939490e-05 2.6191740477e+00 -4.5365425245e+00 2.6191740477e+00 4.5365425245e+00 
69800 4.9178894305e+00 3.2513838391e-05 2.6191740477e+00 -4.5365425245e+00 2.6191740477e+00 4.5365425245e+00 
69900 4.9178894323e+00 3.0831629416e-05 2.6191740477e+00 -4.5365425245e+00 2.6191740477e+00 4.5365425245e+00 
70000 4.9178894341e+00 2.9202560149e-05 2.6191740477e+00 -4.5365425245e+00 2.6191740477e+00 4.5365425245e+00 
70100 4.9178894358e+00 2.7628708453e-05 2.6191740477e+00 -4.5365425245e+00 2.6191740477e+00 4.5365425245e+00 
70200 4.9178894374e+00 2.6111983475e-05 2.6191740477e+00 -4.5365425245e+00 2.6191740477e+00 4.5365425245e+00 
70300 4.9178894389e+00 2.4654126799e-05 2.6191740477e+00 -4.5365425245e+00 2.6191740477e+00 4.5365425245e+00 
70400 4.9178894404e+00 2.3256713871e-05 2.6191740477e+00 -4.5365425245e+00 2.6191740477e+00 4.5365425245e+00 
70500 4.9178894418e+00 2.1921155650e-05 2.6191740477e+00 -4.5365425245e+00 2.6191740477e+00 4.5365425245e+00 
70600 4.9178894432e+00 2.0648700422e-05 2.6191740477e+00 -4.5365425245e+00 2.6191740477e+00 4.5365425245e+00 
70700 4.9178894445e+00 1.9440435894e-05 2.6191740477e+00 -4.5365425245e+00 2.6191740477e+00 4.5365425245e+00 
70800 4.9178894458e+00 1.8297291457e-05 2.6191740477e+00 -4.5365425245e+00 2.6191740477e+00 4.5365425245e+00 
70900 4.9178894471e+00 1.7220040652e-05 2.6191740477e+00 -4.5365425245e+00 2.6191740477e+00 4.5365425245e+00 
71000 4.9178894483e+00 1.6209303858e-05 2.6191740477e+00 -4.5365425245e+00 2.6191740477e+00 4.5365425245e+00 
71100 4.9178894494e+00 1.5265551156e-05 2.6191740477e+00 -4.5365425245e+00 2.6191740477e+00 4.5365425245e+00 
71200 4.9178894506e+00 1.4389105367e-05 2.6191740477e+00 -4.5365425245e+00 2.6191740477e+00 4.5365425245e+00 
71300 4.9178894517e+00 1.3580145293e-05 2.6191740477e+00 -4.5365425245e+00 2.6191740477e+00 4.5365425245e+00 
71400 4.9178894528e+00 1.2838709137e-05 2.6191740477e+00 -4.5365425245e+00 2.6191740477e+00 4.5365425245e+00 
71500 4.9178894539e+00 1.2164698043e-05 2.6191740477e+00 -4.5365425245e+00 2.6191740477e+00 4.5365425245e+00 
71600 4.9178894550e+00 1.1557879859e-05 2.6191740477e+00 -4.5365425245e+00 2.6191740477e+00 4.5365425245e+00 
71700 4.9178894560e+00 1.1017892976e-05 2.6191740477e+00 -4.5365425245e+00 2.6191740477e+00 4.5365425245e+00 
71800 4.9178894571e+00 1.0544250397e-05 2.6191740477e+00 -4.5365425245e+00 2.6191740477e+00 4.5365425245e+00 
71900 4.9178894581e+00 1.0136343839e-05 2.6191740477e+00 -4.5365425245e+00 2.6191740477e+00 4.5365425245e+00 
72000 4.9178894592e+00 9.7934480538e-06 2.6191740477e+00 -4.5365425245e+00 2.6191740477e+00 4.5365425245e+00 
72100 4.9178894602e+00 9.5147252089e-06 2.6191740477e+00 -4.5365425245e+00 2.6191740477e+00 4.5365425245e+00 
72200 4.9178894613e+00 9.2992293704e-06 2.6191740477e+00 -4.5365425245e+00 2.6191740477e+00 4.5365425245e+00 
72300 4.9178894623e+00 9.1459111482e-06 2.6191740477e+00 -4.5365425245e+00 2.6191740477e+00 4.5365425245e+00 
72400 4.9178894634e+00 9.0536223363e-06 2.6191740477e+00 -4.5365425245e+00 2.6191740477e+00 4.5365425245e+00 
72500 4.9178894644e+00 9.0211207116e-06 2.6191740477e+00 -4.5365425245e+00 2.6191740477e+00 4.5365425245e+00 
72600 4.9178894655e+00 9.0470748634e-06 2.6191740477e+00 -4.5365425245e+00 2.6191740477e+00 4.5365425245e+00 
72700 4.9178894665e+00 9.1300690791e-06 2.6191740477e+00 -4.5365425245e+00 2.6191740477e+00 4.5365425245e+00 
72800 4.9178894676e+00 9.2686083008e-06 2.6191740477e+00 -4.5365425245e+00 2.6191740477e+00 4.5365425245e+00 
72900 4.9178894687e+00 9.4611231129e-06 2.6191740477e+00 -4.5365425245e+00 2.6191740477e+00 4.5365425245e+00 
73000 4.9178894698e+00 9.7059747440e-06 2.6191740477e+00 -4.5365425245e+00 2.6191740477e+00 4.5365425245e+00 
73100 4.9178894709e+00 1.0001460117e-05 2.6191740477e+00 -4.5365425245e+00 2.6191740477e+00 4.5365425245e+00 
73200 4.9178894719e+00 1.0345816899e-05 2.6191740477e+00 -4.5365425245e+00 2.6191740477e+00 4.5365425245e+00 
73300 4.9178894730e+00 1.0737228530e-05 2.6191740477e+00 -4.5365425245e+00 2.6191740477e+00 4.5365425245e+00 
73400 4.9178894741e+00 1.1173829285e-05 2.6191740477e+00 -4.5365425245e+00 2.6191740477e+00 4.5365425245e+00 
73500 4.9178894753e+00 1.1653709276e-05 2.6191740477e+00 -4.5365425245e+00 2.6191740477e+00 4.5365425245e+00 
73600 4.9178894764e+00 1.2174919465e-05 2.6191740477e+00 -4.5365425245e+00 2.6191740477e+00 4.5365425245e+00 
73700 4.9178894775e+00 1.2735476610e-05 2.6191740477e+00 -4.5365425245e+00 2.6191740477e+00 4.5365425245e+00 
73800 4.9178894786e+00 1.3333368175e-05 2.6191740477e+00 -4.5365425245e+00 2.6191740477e+00 4.5365425245e+00 
73900 4.9178894797e+00 1.3966557203e-05 2.6191740477e+00 -4.5365425245e+00 2.6191740477e+00 4.5365425245e+00 
74000 4.9178894808e+00 1.4632987099e-05 2.6191740477e+00 -4.5365425245e+00 2.6191740477e+00 4.5365425245e+00 
74100 4.9178894819e+00 1.5330586369e-05 2.6191740477e+00 -4.5365425245e+00 2.6191740477e+00 4.5365425245e+00 
74200 4.9178894830e+00 1.6057273244e-05 2.6191740477e+00 -4.5365425245e+00 2.6191740477e+00 4.5365425245e+00 
74300 4.9178894841e+00 1.6810960266e-05 2.6191740477e+00 -4.5365425245e+00 2.6191740477e+00 4.5365425245e+00 
74400 4.9178894851e+00 1.7589558741e-05 2.6191740477e+00 -4.5365425245e+00 2.6191740477e+00 4.5365425245e+00 
74500 4.9178894862e+00 1.8390983094e-05 2.6191740477e+00 -4.5365425245e+00 2.6191740477e+00 4.5365425245e+00 
74600 4.9178894873e+00 1.9213155148e-05 2.6191740477e+00 -4.5365425245e+00 2.6191740477e+00 4.5365425245e+00 
74700 4.9178894883e+00 2.0054008254e-05 2.6191740477e+00 -4.5365425245e+00 2.6191740477e+00 4.5365425245e+00 
74800 4.9178894893e+00 2.0911491302e-05 2.6191740477e+00 -4.5365425245e+00 2.6191740477e+00 4.5365425245e+00 
74900 4.9178894904e+00 2.1783572641e-05 2.6191740477e+00 -4.5365425245e+00 2.6191740477e+00 4.5365425245e+00 
75000 4.9178894914e+00 2.2668243825e-05 2.6191740477e+00 -4.5365425245e+00 2.6191740477e+00 4.5365425245e+00 
75100 4.9178894923e+00 2.3563523231e-05 2.6191740477e+00 -4.5365425245e+00 2.6191740477e+00 4.5365425245e+00 
75200 4.9178894933e+00 2.4467459568e-05 2.6191740477e+00 -4.5365425245e+00 2.6191740477e+00 4.5365425245e+00 
75300 4.9178894943e+00 2.5378135203e-05 2.6191740477e+00 -4.5365425245e+00 2.6191740477e+00 4.5365425245e+00 
75400 4.9178894952e+00 2.6293669341e-05 2.6191740477e+00 -4.5365425245e+00 2.6191740477e+00 4.5365425245e+00 
75500 4.9178894961e+00 2.7212221072e-05 2.6191740477e+00 -4.5365425245e+00 2.6191740477e+00 4.5365425245e+00 
75600 4.9178894970e+00 2.8131992253e-05 2.6191740477e+00 -4.5365425245e+00 2.6191740477e+00 4.5365425245e+00 
75700 4.9178894978e+00 2.9051230218e-05 2.6191740477e+00 -4.5365425245e+00 2.6191740477e+00 4.5365425245e+00 
75800 4.9178894987e+00 2.9968230337e-05 2.6191740477e+00 -4.5365425245e+00 2.6191740477e+00 4.5365425245e+00 
75900 4.9178894995e+00 3.0881338411e-05 2.6191740477e+00 -4.5365425245e+00 2.6191740477e+00 4.5365425245e+00 
76000 4.9178895003e+00 3.1788952915e-05 2.6191740477e+00 -4.5365425245e+00 2.6191740477e+00 4.5365425245e+00 
76100 4.9178895011e+00 3.2689527045e-05 2.6191740477e+00 -4.5365425245e+00 2.6191740477e+00 4.5365425245e+00 
76200 4.9178895019e+00 3.3581570612e-05 2.6191740477e+00 -4.5365425245e+00 2.6191740477e+00 4.5365425245e+00 
76300 4.9178895026e+00 3.4463651796e-05 2.6191740477e+00 -4.5365425245e+00 2.6191740477e+00 4.5365425245e+00 
76400 4.9178895034e+00 3.5334398677e-05 2.6191740477e+00 -4.5365425245e+00 2.6191740477e+00 4.5365425245e+00 
76500 4.9178895041e+00 3.6192500655e-05 2.6191740477e+00 -4.5365425245e+00 2.6191740477e+00 4.5365425245e+00 
76600 4.9178895048e+00 3.7036709668e-05 2.6191740477e+00 -4.5365425245e+00 2.6191740477e+00 4.5365425245e+00 
76700 4.9178895054e+00 3.7865841250e-05 2.6191740477e+00 -4.5365425245e+00 2.6191740477e+00 4.5365425245e+00 
76800 4.9178895061e+00 3.8678775437e-05 2.6191740477e+00 -4.5365425245e+00 2.6191740477e+00 4.5365425245e+00 
76900 4.9178895067e+00 3.9474457507e-05 2.6191740477e+00 -4.5365425245e+00 2.6191740477e+00 4.5365425245e+00 
77000 4.9178895074e+00 4.0251898563e-05 2.6191740477e+00 -4.5365425245e+00 2.6191740477e+00 4.5365425245e+00 
77100 4.9178895080e+00 4.1010175943e-05 2.6191740477e+00 -4.5365425245e+00 2.6191740477e+00 4.5365425245e+00 
77200 4.9178895086e+00 4.1748433482e-05 2.6191740477e+00 -4.5365425245e+00 2.6191740477e+00 4.5365425245e+00 
77300 4.9178895092e+00 4.2465881648e-05 2.6191740477e+00 -4.5365425245e+00 2.6191740477e+00 4.5365425245e+00 
77400 4.9178895097e+00 4.3161797483e-05 2.6191740477e+00 -4.5365425245e+00 2.6191740477e+00 4.5365425245e+00 
77500 4.9178895103e+00 4.3835524443e-05 2.6191740477e+00 -4.5365425245e+00 2.6191740477e+00 4.5365425245e+00 
77600 4.9178895108e+00 4.4486472064e-05 2.6191740477e+00 -4.5365425245e+00 2.6191740477e+00 4.5365425245e+00 
77700 4.9178895114e+00 4.5114115509e-05 2.6191740477e+00 -4.5365425245e+00 2.6191740477e+00 4.5365425245e+00 
77800 4.9178895119e+00 4.5717994986e-05 2.6191740477e+00 -4.5365425245e+00 2.6191740477e+00 4.5365425245e+00 
77900 4.9178895124e+00 4.6297715016e-05 2.6191740477e+00 -4.5365425245e+00 2.6191740477e+00 4.5365425245e+00 
78000 4.9178895129e+00 4.6852943590e-05 2.6191740477e+00 -4.5365425245e+00 2.6191740477e+00 4.5365425245e+00 
78100 4.9178895135e+00 4.7383411222e-05 2.6191740477e+00 -4.5365425245e+00 2.6191740477e+00 4.5365425245e+00 
78200 4.9178895140e+00 4.7888909861e-05 2.6191740477e+00 -4.5365425245e+00 2.6191740477e+00 4.5365425245e+00 
78300 4.9178895145e+00 4.8369291708e-05 2.6191740477e+00 -4.5365425245e+00 2.6191740477e+00 4.5365425245e+00 
78400 4.9178895149e+00 4.8824467932e-05 2.6191740477e+00 -4.5365425245e+00 2.6191740477e+00 4.5365425245e+00 
78500 4.9178895154e+00 4.9254407278e-05 2.6191740477e+00 -4.5365425245e+00 2.6191740477e+00 4.5365425245e+00 
78600 4.9178895159e+00 4.9659134589e-05 2.6191740477e+00 -4.5365425245e+00 2.6191740477e+00 4.5365425245e+00 
78700 4.9178895164e+00 5.0038729247e-05 2.6191740477e+00 -4.5365425245e+00 2.6191740477e+00 4.5365425245e+00 
78800 4.9178895169e+00 5.0393323509e-05 2.6191740477e+00 -4.5365425245e+00 2.6191740477e+00 4.5365425245e+00 
78900 4.9178895174e+00 5.0723100795e-05 2.6191740477e+00 -4.5365425245e+00 2.6191740477e+00 4.5365425245e+00 
79000 4.9178895178e+00 5.1028293904e-05 2.6191740477e+00 -4.5365425245e+00 2.6191740477e+00 4.5365425245e+00 
79100 4.9178895183e+00 5.1309183124e-05 2.6191740477e+00 -4.5365425245e+00 2.6191740477e+00 4.5365425245e+00 
79200 4.9178895188e+00 5.1566094346e-05 2.6191740477e+00 -4.5365425245e+00 2.6191740477e+00 4.5365425245e+00 
79300 4.9178895192e+00 5.1799397069e-05 2.6191740477e+00 -4.5365425245e+00 2.6191740477e+00 4.5365425245e+00 
79400 4.9178895197e+00 5.2009502406e-05 2.6191740477e+00 -4.5365425245e+00 2.6191740477e+00 4.5365425245e+00 
79500 4.9178895202e+00 5.2196861020e-05 2.6191740477e+00 -4.5365425245e+00 2.6191740477e+00 4.5365425245e+00 
79600 4.9178895206e+00 5.2361961002e-05 2.6191740477e+00 -4.5365425245e+00 2.6191740477e+00 4.5365425245e+00 
79700 4.9178895211e+00 5.2505325790e-05 2.6191740477e+00 -4.5365425245e+00 2.6191740477e+00 4.5365425245e+00 
79800 4.9178895215e+00 5.2627512001e-05 2.6191740477e+00 -4.5365425245e+00 2.6191740477e+00 4.5365425245e+00 
79900 4.9178895220e+00 5.2729107244e-05 2.6191740477e+00 -4.5365425245e+00 2.6191740477e+00 4.5365425245e+00 
80000 4.9178895224e+00 5.2810727970e-05 2.6191740477e+00 -4.5365425245e+00 2.6191740477e+00 4.5365425245e+00 
80100 4.9178895229e+00 5.2873017272e-05 2.6191740477e+00 -4.5365425245e+00 2.6191740477e+00 4.5365425245e+00 
80200 4.9178895233e+00 5.2916642672e-05 2.6191740477e+00 -4.5365425245e+00 2.6191740477e+00 4.5365425245e+00 
80300 4.9178895238e+00 5.2942293973e-05 2.6191740477e+00 -4.5365425245e+00 2.6191740477e+00 4.5365425245e+00 
80400 4.9178895242e+00 5.2950681035e-05 2.6191740477e+00 -4.5365425245e+00 2.6191740477e+00 4.5365425245e+00 
80500 4.9178895247e+00 5.2942531621e-05 2.6191740477e+00 -4.5365425245e+00 2.6191740477e+00 4.5365425245e+00 
80600 4.9178895251e+00 5.2918589250e-05 2.6191740477e+00 -4.5365425245e+00 2.6191740477e+00 4.5365425245e+00 
80700 4.9178895255e+00 5.2879611034e-05 2.6191740477e+00 -4.5365425245e+00 2.6191740477e+00 4.5365425245e+00 
80800 4.9178895260e+00 5.2826365608e-05 2.6191740477e+00 -4.5365425245e+00 2.6191740477e+00 4.5365425245e+00 
80900 4.9178895264e+00 5.2759631018e-05 2.6191740477e+00 -4.5365425245e+00 2.6191740477e+00 4.5365425245e+00 
81000 4.9178895268e+00 5.2680192693e-05 2.6191740477e+00 -4.5365425245e+00 2.6191740477e+00 4.5365425245e+00 
81100 4.9178895272e+00 5.2588841430e-05 2.6191740477e+00 -4.5365425245e+00 2.6191740477e+00 4.5365425245e+00 
81200 4.9178895276e+00 5.2486371424e-05 2.6191740477e+00 -4.5365425245e+00 2.6191740477e+00 4.5365425245e+00 
81300 4.9178895280e+00 5.2373578355e-05 2.6191740477e+00 -4.5365425245e+00 2.6191740477e+00 4.5365425245e+00 
81400 4.9178895284e+00 5.2251257503e-05 2.6191740477e+00 -4.5365425245e+00 2.6191740477e+00 4.5365425245e+00 
81500 4.9178895288e+00 5.2120201929e-05 2.6191740477e+00 -4.5365425245e+00 2.6191740477e+00 4.5365425245e+00 
81600 4.9178895292e+00 5.1981200699e-05 2.6191740477e+00 -4.5365425245e+00 2.6191740477e+00 4.5365425245e+00 
81700 4.9178895296e+00 5.1835037191e-05 2.6191740477e+00 -4.5365425245e+00 2.6191740477e+00 4.5365425245e+00 
81800 4.9178895300e+00 5.1682487400e-05 2.6191740477e+00 -4.5365425245e+00 2.6191740477e+00 4.5365425245e+00 
81900 4.9178895304e+00 5.1524318391e-05 2.6191740477e+00 -4.5365425245e+00 2.6191740477e+00 4.5365425245e+00 
82000 4.9178895307e+00 5.1361286728e-05 2.6191740477e+00 -4.5365425245e+00 2.6191740477e+00 4.5365425245e+00 
82100 4.9178895311e+00 5.1194137044e-05 2.6191740477e+00 -4.5365425245e+00 2.6191740477e+00 4.5365425245e+00 
82200 4.9178895314e+00 5.1023600611e-05 2.6191740477e+00 -4.5365425245e+00 2.6191740477e+00 4.5365425245e+00 
82300 4.9178895318e+00 5.0850394043e-05 2.6191740477e+00 -4.5365425245e+00 2.6191740477e+00 4.5365425245e+00 
82400 4.9178895321e+00 5.0675218010e-05 2.6191740477e+00 -4.5365425245e+00 2.6191740477e+00 4.5365425245e+00 
82500 4.9178895325e+00 5.0498756070e-05 2.6191740477e+00 -4.5365425245e+00 2.6191740477e+00 4.5365425245e+00 
82600 4.9178895328e+00 5.0321673529e-05 2.6191740477e+00 -4.5365425245e+00 2.6191740477e+00 4.5365425245e+00 
82700 4.9178895331e+00 5.0144616431e-05 2.6191740477e+00 -4.5365425245e+00 2.6191740477e+00 4.5365425245e+00 
82800 4.9178895334e+00 4.9968210550e-05 2.6191740477e+00 -4.5365425245e+00 2.6191740477e+00 4.5365425245e+00 
82900 4.9178895337e+00 4.9793060519e-05 2.6191740477e+00 -4.5365425245e+00 2.6191740477e+00 4.5365425245e+00 
83000 4.9178895340e+00 4.9619748995e-05 2.6191740477e+00 -4.5365425245e+00 2.6191740477e+00 4.5365425245e+00 
83100 4.9178895343e+00 4.9448835921e-05 2.6191740477e+00 -4.5365425245e+00 2.6191740477e+00 4.5365425245e+00 
83200 4.9178895346e+00 4.9280857816e-05 2.6191740477e+00 -4.5365425245e+00 2.6191740477e+00 4.5365425245e+00 
83300 4.9178895349e+00 4.9116327232e-05 2.6191740477e+00 -4.5365425245e+00 2.6191740477e+00 4.5365425245e+00 
83400 4.9178895352e+00 4.8955732152e-05 2.6191740477e+00 -4.5365425245e+00 2.6191740477e+00 4.5365425245e+00 
83500 4.9178895355e+00 4.8799535594e-05 2.6191740477e+00 -4.5365425245e+00 2.6191740477e+00 4.5365425245e+00 
83600 4.9178895357e+00 4.8648175175e-05 2.6191740477e+00 -4.5365425245e+00 2.6191740477e+00 4.5365425245e+00 
83700 4.9178895360e+00 4.8502062835e-05 2.6191740477e+00 -4.5365425245e+00 2.6191740477e+00 4.5365425245e+00 
83800 4.9178895363e+00 4.8361584555e-05 2.6191740477e+00 -4.5365425245e+00 2.6191740477e+00 4.5365425245e+00 
83900 4.9178895365e+00 4.8227100189e-05 2.6191740477e+00 -4.5365425245e+00 2.6191740477e+00 4.5365425245e+00 
84000 4.9178895368e+00 4.8098943352e-05 2.6191740477e+00 -4.5365425245e+00 2.6191740477e+00 4.5365425245e+00 
84100 4.9178895370e+00 4.7977421378e-05 2.6191740477e+00 -4.5365425245e+00 2.6191740477e+00 4.5365425245e+00 
84200 4.9178895373e+00 4.7862815318e-05 2.6191740477e+00 -4.5365425245e+00 2.6191740477e+00 4.5365425245e+00 
84300 4.9178895375e+00 4.7755380020e-05 2.6191740477e+00 -4.5365425245e+00 2.6191740477e+00 4.5365425245e+00 
84400 4.9178895378e+00 4.7655344284e-05 2.6191740477e+00 -4.5365425245e+00 2.6191740477e+00 4.5365425245e+00 
84500 4.9178895380e+00 4.7562911024e-05 2.6191740477e+00 -4.5365425245e+00 2.6191740477e+00 4.5365425245e+00 
84600 4.9178895382e+00 4.7478257551e-05 2.6191740477e+00 -4.5365425245e+00 2.6191740477e+00 4.5365425245e+00 
84700 4.9178895384e+00 4.7401535841e-05 2.6191740477e+00 -4.5365425245e+00 2.6191740477e+00 4.5365425245e+00 
84800 4.9178895387e+00 4.7332872932e-05 2.6191740477e+00 -4.5365425245e+00 2.6191740477e+00 4.5365425245e+00 
84900 4.9178895389e+00 4.7272371288e-05 2.6191740477e+00 -4.5365425245e+00 2.6191740477e+00 4.5365425245e+00 
85000 4.9178895391e+00 4.7220109282e-05 2.6191740477e+00 -4.5365425245e+00 2.6191740477e+00 4.5365425245e+00 
85100 4.9178895393e+00 4.7176141681e-05 2.6191740477e+00 -4.5365425245e+00 2.6191740477e+00 4.5365425245e+00 
85200 4.9178895396e+00 4.7140500181e-05 2.6191740477e+00 -4.5365425245e+00 2.6191740477e+00 4.5365425245e+00 
85300 4.9178895398e+00 4.7113194004e-05 2.6191740477e+00 -4.5365425245e+00 2.6191740477e+00 4.5365425245e+00 
85400 4.9178895400e+00 4.7094210491e-05 2.6191740477e+00 -4.5365425245e+00 2.6191740477e+00 4.5365425245e+00 
85500 4.9178895402e+00 4.7083515784e-05 2.6191740477e+00 -4.5365425245e+00 2.6191740477e+00 4.5365425245e+00 
85600 4.9178895404e+00 4.7081055483e-05 2.6191740477e+00 -4.5365425245e+00 2.6191740477e+00 4.5365425245e+00 
85700 4.9178895406e+00 4.7086755391e-05 2.6191740477e+00 -4.5365425245e+00 2.6191740477e+00 4.5365425245e+00 
85800 4.9178895408e+00 4.7100522233e-05 2.6191740477e+00 -4.5365425245e+00 2.6191740477e+00 4.5365425245e+00 
85900 4.9178895410e+00 4.7122244450e-05 2.6191740477e+00 -4.5365425245e+00 2.6191740477e+00 4.5365425245e+00 
86000 4.9178895412e+00 4.7151792955e-05 2.6191740477e+00 -4.5365425245e+00 2.6191740477e+00 4.5365425245e+00 
86100 4.9178895414e+00 4.7189021992e-05 2.6191740477e+00 -4.5365425245e+00 2.6191740477e+00 4.5365425245e+00 
86200 4.9178895416e+00 4.7233769928e-05 2.6191740477e+00 -4.5365425245e+00 2.6191740477e+00 4.5365425245e+00 
86300 4.9178895418e+00 4.7285860110e-05 2.6191740477e+00 -4.5365425245e+00 2.6191740477e+00 4.5365425245e+00 
86400 4.9178895420e+00 4.7345101738e-05 2.6191740477e+00 -4.5365425245e+00 2.6191740477e+00 4.5365425245e+00 
86500 4.9178895422e+00 4.7411290717e-05 2.6191740477e+00 -4.5365425245e+00 2.6191740477e+00 4.5365425245e+00 
86600 4.9178895424e+00 4.7484210536e-05 2.6191740477e+00 -4.5365425245e+00 2.6191740477e+00 4.5365425245e+00 
86700 4.9178895425e+00 4.7563633165e-05 2.6191740477e+00 -4.5365425245e+00 2.6191740477e+00 4.5365425245e+00 
86800 4.9178895427e+00 4.7649319916e-05 2.6191740477e+00 -4.5365425245e+00 2.6191740477e+00 4.5365425245e+00 
86900 4.9178895429e+00 4.7741022363e-05 2.6191740477e+00 -4.5365425245e+00 2.6191740477e+00 4.5365425245e+00 
87000 4.9178895431e+00 4.7838483200e-05 2.6191740477e+00 -4.5365425245e+00 2.6191740477e+00 4.5365425245e+00 
87100 4.9178895433e+00 4.7941437149e-05 2.6191740477e+00 -4.5365425245e+00 2.6191740477e+00 4.5365425245e+00 
87200 4.9178895435e+00 4.8049611819e-05 2.6191740477e+00 -4.5365425245e+00 2.6191740477e+00 4.5365425245e+00 
87300 4.9178895436e+00 4.8162728601e-05 2.6191740477e+00 -4.5365425245e+00 2.6191740477e+00 4.5365425245e+00 
87400 4.9178895438e+00 4.8280503507e-05 2.6191740477e+00 -4.5365425245e+00 2.6191740477e+00 4.5365425245e+00 
87500 4.9178895440e+00 4.8402648033e-05 2.6191740477e+00 -4.5365425245e+00 2.6191740477e+00 4.5365425245e+00 
87600 4.9178895441e+00 4.8528870025e-05 2.6191740477e+00 -4.5365425245e+00 2.6191740477e+00 4.5365425245e+00 
87700 4.9178895443e+00 4.8658874452e-05 2.6191740477e+00 -4.5365425245e+00 2.6191740477e+00 4.5365425245e+00 
87800 4.9178895445e+00 4.8792364283e-05 2.6191740477e+00 -4.5365425245e+00 2.6191740477e+00 4.5365425245e+00 
87900 4.9178895446e+00 4.8929041216e-05 2.6191740477e+00 -4.5365425245e+00 2.6191740477e+00 4.5365425245e+00 
88000 4.9178895448e+00 4.9068606495e-05 2.6191740477e+00 -4.5365425245e+00 2.6191740477e+00 4.5365425245e+00 
88100 4.9178895450e+00 4.9210761655e-05 2.6191740477e+00 -4.5365425245e+00 2.6191740477e+00 4.5365425245e+00 
88200 4.9178895451e+00 4.9355209241e-05 2.6191740477e+00 -4.5365425245e+00 2.6191740477e+00 4.5365425245e+00 
88300 4.9178895453e+00 4.9501653550e-05 2.6191740477e+00 -4.5365425245e+00 2.6191740477e+00 4.5365425245e+00 
88400 4.9178895454e+00 4.9649801291e-05 2.6191740477e+00 -4.5365425245e+00 2.6191740477e+00 4.5365425245e+00 
88500 4.9178895456e+00 4.9799362251e-05 2.6191740477e+00 -4.5365425245e+00 2.6191740477e+00 4.5365425245e+00 
88600 4.9178895457e+00 4.9950049941e-05 2.6191740477e+00 -4.5365425245e+00 2.6191740477e+00 4.5365425245e+00 
88700 4.9178895459e+00 5.0101582209e-05 2.6191740477e+00 -4.5365425245e+00 2.6191740477e+00 4.5365425245e+00 
88800 4.9178895460e+00 5.0253681813e-05 2.6191740477e+00 -4.5365425245e+00 2.6191740477e+00 4.5365425245e+00 
88900 4.9178895462e+00 5.0406076981e-05 2.6191740477e+00 -4.5365425245e+00 2.6191740477e+00 4.5365425245e+00 
89000 4.9178895463e+00 5.0558501938e-05 2.6191740477e+00 -4.5365425245e+00 2.6191740477e+00 4.5365425245e+00 
89100 4.9178895465e+00 5.0710697408e-05 2.6191740477e+00 -4.5365425245e+00 2.6191740477e+00 4.5365425245e+00 
89200 4.9178895466e+00 5.0862411078e-05 2.6191740477e+00 -4.5365425245e+00 2.6191740477e+00 4.5365425245e+00 
89300 4.9178895467e+00 5.1013398031e-05 2.6191740477e+00 -4.5365425245e+00 2.6191740477e+00 4.5365425245e+00 
89400 4.9178895469e+00 5.1163421168e-05 2.6191740477e+00 -4.5365425245e+00 2.6191740477e+00 4.5365425245e+00 
89500 4.9178895470e+00 5.1312251576e-05 2.6191740477e+00 -4.5365425245e+00 2.6191740477e+00 4.5365425245e+00 
89600 4.9178895471e+00 5.1459668871e-05 2.6191740477e+00 -4.5365425245e+00 2.6191740477e+00 4.5365425245e+00 
89700 4.9178895472e+00 5.1605461543e-05 2.6191740477e+00 -4.5365425245e+00 2.6191740477e+00 4.5365425245e+00 
89800 4.9178895474e+00 5.1749427206e-05 2.6191740477e+00 -4.5365425245e+00 2.6191740477e+00 4.5365425245e+00 
89900 4.9178895475e+00 5.1891372880e-05 2.6191740477e+00 -4.5365425245e+00 2.6191740477e+00 4.5365425245e+00 
90000 4.9178895476e+00 5.2031115203e-05 2.6191740477e+00 -4.5365425245e+00 2.6191740477e+00 4.5365425245e+00 
90100 4.9178895477e+00 5.2168480651e-05 2.6191740477e+00 -4.5365425245e+00 2.6191740477e+00 4.5365425245e+00 
90200 4.9178895479e+00 5.2303305673e-05 2.6191740477e+00 -4.5365425245e+00 2.6191740477e+00 4.5365425245e+00 
90300 4.9178895480e+00 5.2435436857e-05 2.6191740477e+00 -4.5365425245e+00 2.6191740477e+00 4.5365425245e+00 
90400 4.9178895481e+00 5.2564731018e-05 2.6191740477e+00 -4.5365425245e+00 2.6191740477e+00 4.5365425245e+00 
90500 4.9178895482e+00 5.2691055301e-05 2.6191740477e+00 -4.5365425245e+00 2.6191740477e+00 4.5365425245e+00 
90600 4.9178895483e+00 5.2814287215e-05 2.6191740477e+00 -4.5365425245e+00 2.6191740477e+00 4.5365425245e+00 
90700 4.9178895484e+00 5.2934314675e-05 2.6191740477e+00 -4.5365425245e+00 2.6191740477e+00 4.5365425245e+00 
90800 4.9178895485e+00 5.3051035999e-05 2.6191740477e+00 -4.5365425245e+00 2.6191740477e+00 4.5365425245e+00 
90900 4.9178895486e+00 5.3164359873e-05 2.6191740477e+00 -4.5365425245e+00 2.6191740477e+00 4.5365425245e+00 
91000 4.9178895487e+00 5.3274205308e-05 2.6191740477e+00 -4.5365425245e+00 2.6191740477e+00 4.5365425245e+00 
91100 4.9178895488e+00 5.3380501572e-05 2.6191740477e+00 -4.5365425245e+00 2.6191740477e+00 4.5365425245e+00 
91200 4.9178895489e+00 5.3483188082e-05 2.6191740477e+00 -4.5365425245e+00 2.6191740477e+00 4.5365425245e+00 
91300 4.9178895490e+00 5.3582214293e-05 2.6191740477e+00 -4.5365425245e+00 2.6191740477e+00 4.5365425245e+00 
91400 4.9178895491e+00 5.3677539536e-05 2.6191740477e+00 -4.5365425245e+00 2.6191740477e+00 4.5365425245e+00 
91500 4.9178895492e+00 5.3769132893e-05 2.6191740477e+00 -4.5365425245e+00 2.6191740477e+00 4.5365425245e+00 
91600 4.9178895493e+00 5.3856972976e-05 2.6191740477e+00 -4.5365425245e+00 2.6191740477e+00 4.5365425245e+00 
91700 4.9178895494e+00 5.3941047757e-05 2.6191740477e+00 -4.5365425245e+00 2.6191740477e+00 4.5365425245e+00 
91800 4.9178895495e+00 5.4021354321e-05 2.6191740477e+00 -4.5365425245e+00 2.6191740477e+00 4.5365425245e+00 
91900 4.9178895496e+00 5.4097898663e-05 2.6191740477e+00 -4.5365425245e+00 2.6191740477e+00 4.5365425245e+00 
92000 4.9178895497e+00 5.4170695406e-05 2.6191740477e+00 -4.5365425245e+00 2.6191740477e+00 4.5365425245e+00 
92100 4.9178895498e+00 5.4239767558e-05 2.6191740477e+00 -4.5365425245e+00 2.6191740477e+00 4.5365425245e+00 
92200 4.9178895499e+00 5.4305146222e-05 2.6191740477e+00 -4.5365425245e+00 2.6191740477e+00 4.5365425245e+00 
92300 4.9178895500e+00 5.4366870304e-05 2.6191740477e+00 -4.5365425245e+00 2.6191740477e+00 4.5365425245e+00 
92400 4.9178895501e+00 5.4424986219e-05 2.6191740477e+00 -4.5365425245e+00 2.6191740477e+00 4.5365425245e+00 
92500 4.9178895502e+00 5.4479547560e-05 2.6191740477e+00 -4.5365425245e+00 2.6191740477e+00 4.5365425245e+00 
92600 4.9178895503e+00 5.4530614798e-05 2.6191740477e+00 -4.5365425245e+00 2.6191740477e+00 4.5365425245e+00 
92700 4.9178895503e+00 5.4578254932e-05 2.6191740477e+00 -4.5365425245e+00 2.6191740477e+00 4.5365425245e+00 
92800 4.9178895504e+00 5.4622541145e-05 2.6191740477e+00 -4.5365425245e+00 2.6191740477e+00 4.5365425245e+00 
92900 4.9178895505e+00 5.4663552494e-05 2.6191740477e+00 -4.5365425245e+00 2.6191740477e+00 4.5365425245e+00 
93000 4.9178895506e+00 5.4701373508e-05 2.6191740477e+00 -4.5365425245e+00 2.6191740477e+00 4.5365425245e+00 
93100 4.9178895507e+00 5.4736093877e-05 2.6191740477e+00 -4.5365425245e+00 2.6191740477e+00 4.5365425245e+00 
93200 4.9178895508e+00 5.4767808066e-05 2.6191740477e+00 -4.5365425245e+00 2.6191740477e+00 4.5365425245e+00 
93300 4.9178895508e+00 5.4796614973e-05 2.6191740477e+00 -4.5365425245e+00 2.6191740477e+00 4.5365425245e+00 
93400 4.9178895509e+00 5.4822617554e-05 2.6191740477e+00 -4.5365425245e+00 2.6191740477e+00 4.5365425245e+00 
93500 4.9178895510e+00 5.4845922464e-05 2.6191740477e+00 -4.5365425245e+00 2.6191740477e+00 4.5365425245e+00 
93600 4.9178895511e+00 5.4866639695e-05 2.6191740477e+00 -4.5365425245e+00 2.6191740477e+00 4.5365425245e+00 
93700 4.9178895512e+00 5.4884882216e-05 2.6191740477e+00 -4.5365425245e+00 2.6191740477e+00 4.5365425245e+00 
93800 4.9178895512e+00 5.4900765618e-05 2.6191740477e+00 -4.5365425245e+00 2.6191740477e+00 4.5365425245e+00 
93900 4.9178895513e+00 5.4914407749e-05 2.6191740477e+00 -4.5365425245e+00 2.6191740477e+00 4.5365425245e+00 
94000 4.9178895514e+00 5.4925928357e-05 2.6191740477e+00 -4.5365425245e+00 2.6191740477e+00 4.5365425245e+00 
94100 4.9178895514e+00 5.4935448776e-05 2.6191740477e+00 -4.5365425245e+00 2.6191740477e+00 4.5365425245e+00 
94200 4.9178895515e+00 5.4943091546e-05 2.6191740477e+00 -4.5365425245e+00 2.6191740477e+00 4.5365425245e+00 
94300 4.9178895516e+00 5.4948980078e-05 2.6191740477e+00 -4.5365425245e+00 2.6191740477e+00 4.5365425245e+00 
94400 4.9178895517e+00 5.4953238369e-05 2.6191740477e+00 -4.5365425245e+00 2.6191740477e+00 4.5365425245e+00 
94500 4.9178895517e+00 5.4955990616e-05 2.6191740477e+00 -4.5365425245e+00 2.6191740477e+00 4.5365425245e+00 
94600 4.9178895518e+00 5.4957360949e-05 2.6191740477e+00 -4.5365425245e+00 2.6191740477e+00 4.5365425245e+00 
94700 4.9178895519e+00 5.4957473112e-05 2.6191740477e+00 -4.5365425245e+00 2.6191740477e+00 4.5365425245e+00 
94800 4.9178895519e+00 5.4956450151e-05 2.6191740477e+00 -4.5365425245e+00 2.6191740477e+00 4.5365425245e+00 
94900 4.9178895520e+00 5.4954414140e-05 2.6191740477e+00 -4.5365425245e+00 2.6191740477e+00 4.5365425245e+00 
95000 4.9178895521e+00 5.4951485917e-05 2.6191740477e+00 -4.5365425245e+00 2.6191740477e+00 4.5365425245e+00 
95100 4.9178895521e+00 5.4947784782e-05 2.6191740477e+00 -4.5365425245e+00 2.6191740477e+00 4.5365425245e+00 
95200 4.9178895522e+00 5.4943428281e-05 2.6191740477e+00 -4.5365425245e+00 2.6191740477e+00 4.5365425245e+00 
95300 4.9178895523e+00 5.4938531916e-05 2.6191740477e+00 -4.5365425245e+00 2.6191740477e+00 4.5365425245e+00 
95400 4.9178895523e+00 5.4933208956e-05 2.6191740477e+00 -4.5365425245e+00 2.6191740477e+00 4.5365425245e+00 
95500 4.9178895524e+00 5.4927570177e-05 2.6191740477e+00 -4.5365425245e+00 2.6191740477e+00 4.5365425245e+00 
95600 4.9178895524e+00 5.4921723680e-05 2.6191740477e+00 -4.5365425245e+00 2.6191740477e+00 4.5365425245e+00 
95700 4.9178895525e+00 5.4915774675e-05 2.6191740477e+00 -4.5365425245e+00 2.6191740477e+00 4.5365425245e+00 
95800 4.9178895526e+00 5.4909825303e-05 2.6191740477e+00 -4.5365425245e+00 2.6191740477e+00 4.5365425245e+00 
95900 4.9178895526e+00 5.4903974462e-05 2.6191740477e+00 -4.5365425245e+00 2.6191740477e+00 4.5365425245e+00 
96000 4.9178895527e+00 5.4898317639e-05 2.6191740477e+00 -4.5365425245e+00 2.6191740477e+00 4.5365425245e+00 
96100 4.9178895527e+00 5.4892946777e-05 2.6191740477e+00 -4.5365425245e+00 2.6191740477e+00 4.5365425245e+00 
96200 4.9178895528e+00 5.4887950121e-05 2.6191740477e+00 -4.5365425245e+00 2.6191740477e+00 4.5365425245e+00 
96300 4.9178895528e+00 5.4883412104e-05 2.6191740477e+00 -4.5365425245e+00 2.6191740477e+00 4.5365425245e+00 
96400 4.9178895529e+00 5.4879413239e-05 2.6191740477e+00 -4.5365425245e+00 2.6191740477e+00 4.5365425245e+00 
96500 4.9178895529e+00 5.4876030029e-05 2.6191740477e+00 -4.5365425245e+00 2.6191740477e+00 4.5365425245e+00 
96600 4.9178895530e+00 5.4873334857e-05 2.6191740477e+00 -4.5365425245e+00 2.6191740477e+00 4.5365425245e+00 
96700 4.9178895531e+00 5.4871395937e-05 2.6191740477e+00 -4.5365425245e+00 2.6191740477e+00 4.5365425245e+00 
96800 4.9178895531e+00 5.4870277244e-05 2.6191740477e+00 -4.5365425245e+00 2.6191740477e+00 4.5365425245e+00 
96900 4.9178895532e+00 5.4870038460e-05 2.6191740477e+00 -4.5365425245e+00 2.6191740477e+00 4.5365425245e+00 
97000 4.9178895532e+00 5.4870734955e-05 2.6191740477e+00 -4.5365425245e+00 2.6191740477e+00 4.5365425245e+00 
97100 4.9178895533e+00 5.4872417742e-05 2.6191740477e+00 -4.5365425245e+00 2.6191740477e+00 4.5365425245e+00 
97200 4.9178895533e+00 5.4875133478e-05 2.6191740477e+00 -4.5365425245e+00 2.6191740477e+00 4.5365425245e+00 
97300 4.9178895533e+00 5.4876968096e-05 2.6191740477e+00 -4.5365425245e+00 2.6191740477e+00 4.5365425245e+00 
97300 4.9178895533e+00 5.4876968096e-05 2.6191740477e+00 -4.5365425245e+00 2.6191740477e+00 4.5365425245e+00 
