# step Hamiltonian StressXX CellTensor1 CellTensor2 CellTensor3 CellTensor4 
0 4.2211922683e+00 -4.5632430419e-01 1.6185780433e+00 -2.8034594071e+00 1.6185780433e+00 2.8034594071e+00 
100 4.1562860931e+00 -4.5280442937e-01 1.6185780433e+00 -2.8034594071e+00 1.6185780433e+00 2.8034594071e+00 
200 4.0892669875e+00 -4.3600157684e-01 1.6325857406e+00 -2.8277214505e+00 1.6325857406e+00 2.8277214505e+00 
300 4.0279757071e+00 -4.2144931666e-01 1.6459568945e+00 -2.8508809683e+00 1.6459568945e+00 2.8508809683e+00 
400 3.9718655395e+00 -4.0877697668e-01 1.6587759255e+00 -2.8730841813e+00 1.6587759255e+00 2.8730841813e+00 
500 3.9204772883e+00 -3.9765379530e-01 1.6711127129e+00 -2.8944521239e+00 1.6711127129e+00 2.8944521239e+00 
600 3.8734204888e+00 -3.8778592849e-01 1.6830246061e+00 -2.9150841281e+00 1.6830246061e+00 2.9150841281e+00 
700 3.8303582092e+00 -3.7891399739e-01 1.6945581667e+00 -2.9350608411e+00 1.6945581667e+00 2.9350608411e+00 
800 3.7909948516e+00 -3.7081094376e-01 1.7057506987e+00 -2.9544468752e+00 1.7057506987e+00 2.9544468752e+00 
900 3.7550664683e+00 -3.6328004336e-01 1.7166316048e+00 -2.9732931574e+00 1.7166316048e+00 2.9732931574e+00 
1000 3.7223331868e+00 -3.5615298573e-01 1.7272235967e+00 -2.9916390255e+00 1.7272235967e+00 2.9916390255e+00 
1100 3.6925733971e+00 -3.4928796848e-01 1.7375437777e+00 -3.0095141033e+00 1.7375437777e+00 3.0095141033e+00 
1200 3.6655794026e+00 -3.4256778086e-01 1.7476046115e+00 -3.0269399787e+00 1.7476046115e+00 3.0269399787e+00 
1300 3.6411542774e+00 -3.3589786841e-01 1.7574147881e+00 -3.0439317030e+00 1.7574147881e+00 3.0439317030e+00 
1400 3.6191097091e+00 -3.2920438069e-01 1.7669799930e+00 -3.0604991238e+00 1.7669799930e+00 3.0604991238e+00 
1500 3.5992646314e+00 -3.2243221010e-01 1.7763035882e+00 -3.0766480643e+00 1.7763035882e+00 3.0766480643e+00 
1600 3.5814444827e+00 -3.1554303270e-01 1.7853872096e+00 -3.0923813583e+00 1.7853872096e+00 3.0923813583e+00 
1700 3.5654809428e+00 -3.0851336378e-01 1.7942312869e+00 -3.1076997494e+00 1.7942312869e+00 3.1076997494e+00 
1800 3.5512120237e+00 -3.0133264103e-01 1.8028354890e+00 -3.1226026646e+00 1.8028354890e+00 3.1226026646e+00 
1900 3.5384824048e+00 -2.9400134917e-01 1.8111991022e+00 -3.1370888676e+00 1.8111991022e+00 3.1370888676e+00 
2000 3.5271439194e+00 -2.8652919989e-01 1.8193213441e+00 -3.1511570033e+00 1.8193213441e+00 3.1511570033e+00 
2100 3.5170561121e+00 -2.7893338158e-01 1.8272016179e+00 -3.1648060379e+00 1.8272016179e+00 3.1648060379e+00 
2200 3.5080868016e+00 -2.7123689396e-01 1.8348397124e+00 -3.1780356057e+00 1.8348397124e+00 3.1780356057e+00 
2300 3.5001125912e+00 -2.6346698293e-01 1.8422359516e+00 -3.1908462677e+00 1.8422359516e+00 3.1908462677e+00 
2400 3.4930192871e+00 -2.5565369120e-01 1.8493912991e+00 -3.2032396931e+00 1.8493912991e+00 3.2032396931e+00 
2500 3.4867021903e+00 -2.4782853958e-01 1.8563074218e+00 -3.2152187690e+00 1.8563074218e+00 3.2152187690e+00 
2600 3.4810662415e+00 -2.4002335270e-01 1.8629867179e+00 -3.2267876493e+00 1.8629867179e+00 3.2267876493e+00 
2700 3.4760260089e+00 -2.3226924031e-01 1.8694323141e+00 -3.2379517494e+00 1.8694323141e+00 3.2379517494e+00 
2800 3.4715055169e+00 -2.2459574274e-01 1.8756480368e+00 -3.2487176968e+00 1.8756480368e+00 3.2487176968e+00 
2900 3.4674379234e+00 -2.1703014434e-01 1.8816383624e+00 -3.2590932451e+00 1.8816383624e+00 3.2590932451e+00 
3000 3.4637650615e+00 -2.0959695485e-01 1.8874083518e+00 -3.2690871600e+00 1.8874083518e+00 3.2690871600e+00 
3100 3.4604368641e+00 -2.0231755329e-01 1.8929635731e+00 -3.2787090855e+00 1.8929635731e+00 3.2787090855e+00 
3200 3.4574106984e+00 -1.9520998428e-01 1.8983100172e+00 -3.2879693982e+00 1.8983100172e+00 3.2879693982e+00 
3300 3.4546506359e+00 -1.8828889252e-01 1.9034540102e+00 -3.2968790555e+00 1.9034540102e+00 3.2968790555e+00 
3400 3.4521266860e+00 -1.8156557742e-01 1.9084021261e+00 -3.3054494437e+00 1.9084021261e+00 3.3054494437e+00 
3500 3.4498140194e+00 -1.7504814766e-01 1.9131611027e+00 -3.3136922330e+00 1.9131611027e+00 3.3136922330e+00 
3600 3.4476922068e+00 -1.6874175400e-01 1.9177377624e+00 -3.3216192400e+00 1.9177377624e+00 3.3216192400e+00 
3700 3.4457444912e+00 -1.6264887884e-01 1.9221389409e+00 -3.3292423048e+00 1.9221389409e+00 3.3292423048e+00 
3800 3.4439571131e+00 -1.5676966176e-01 1.9263714241e+00 -3.3365731809e+00 1.9263714241e+00 3.3365731809e+00 
3900 3.4423186989e+00 -1.5110224245e-01 1.9304418940e+00 -3.3436234414e+00 1.9304418940e+00 3.3436234414e+00 
4000 3.4408197214e+00 -1.4564310510e-01 1.9343568835e+00 -3.3504044022e+00 1.9343568835e+00 3.3504044022e+00 
4100 3.4394520357e+00 -1.4038741080e-01 1.9381227412e+00 -3.3569270590e+00 1.9381227412e+00 3.3569270590e+00 
4200 3.4382084904e+00 -1.3532930837e-01 1.9417456039e+00 -3.3632020413e+00 1.9417456039e+00 3.3632020413e+00 
4300 3.4370826127e+00 -1.3046221616e-01 1.9452313776e+00 -3.3692395784e+00 1.9452313776e+00 3.3692395784e+00 
4400 3.4360683601e+00 -1.2577907086e-01 1.9485857249e+00 -3.3750494785e+00 1.9485857249e+00 3.3750494785e+00 
4500 3.4351599343e+00 -1.2127254119e-01 1.9518140596e+00 -3.3806411181e+00 1.9518140596e+00 3.3806411181e+00 
4600 3.4343516484e+00 -1.1693520646e-01 1.9549215446e+00 -3.3860234401e+00 1.9549215446e+00 3.3860234401e+00 
4700 3.4336378394e+00 -1.1275970151e-01 1.9579130963e+00 -3.3912049596e+00 1.9579130963e+00 3.3912049596e+00 
4800 3.4330128187e+00 -1.0873883036e-01 1.9607933902e+00 -3.3961937749e+00 1.9607933902e+00 3.3961937749e+00 
4900 3.4324708527e+00 -1.0486565185e-01 1.9635668701e+00 -3.4009975831e+00 1.9635668701e+00 3.4009975831e+00 
5000 3.4320061659e+00 -1.0113354066e-01 1.9662377592e+00 -3.4056236987e+00 1.9662377592e+00 3.4056236987e+00 
5100 3.4316129615e+00 -9.7536227335e-02 1.9688100717e+00 -3.4100790746e+00 1.9688100717e+00 3.4100790746e+00 
5200 3.4312854530e+00 -9.4067820771e-02 1.9712876254e+00 -3.4143703235e+00 1.9712876254e+00 3.4143703235e+00 
5300 3.4310179028e+00 -9.0722816509e-02 1.9736740548e+00 -3.4185037405e+00 1.9736740548e+00 3.4185037405e+00 
5400 3.4308046641e+00 -8.7496093727e-02 1.9759728235e+00 -3.4224853247e+00 1.9759728235e+00 3.4224853247e+00 
5500 3.4306402231e+00 -8.4382903619e-02 1.9781872369e+00 -3.4263208012e+00 1.9781872369e+00 3.4263208012e+00 
5600 3.4305192389e+00 -8.1378851420e-02 1.9803204539e+00 -3.4300156414e+00 1.9803204539e+00 3.4300156414e+00 
5700 3.4304365807e+00 -7.8479874000e-02 1.9823754978e+00 -3.4335750818e+00 1.9823754978e+00 3.4335750818e+00 
5800 3.4303873597e+00 -7.5682214632e-02 1.9843552670e+00 -3.4370041428e+00 1.9843552670e+00 3.4370041428e+00 
5900 3.4303669558e+00 -7.2982396224e-02 1.9862625446e+00 -3.4403076444e+00 1.9862625446e+00 3.4403076444e+00 
6000 3.4303710389e+00 -7.0377194054e-02 1.9881000065e+00 -3.4434902218e+00 1.9881000065e+00 3.4434902218e+00 
6100 3.4303955844e+00 -6.7863608808e-02 1.9898702300e+00 -3.4465563389e+00 1.9898702300e+00 3.4465563389e+00 
6200 3.4304368832e+00 -6.5438840545e-02 1.9915757004e+00 -3.4495103001e+00 1.9915757004e+00 3.4495103001e+00 
6300 3.4304915471e+00 -6.3100264004e-02 1.9932188172e+00 -3.4523562619e+00 1.9932188172e+00 3.4523562619e+00 
6400 3.4305565081e+00 -6.0845405587e-02 1.9948019000e+00 -3.4550982418e+00 1.9948019000e+00 3.4550982418e+00 
6500 3.4306290153e+00 -5.8671922209e-02 1.9963271931e+00 -3.4577401270e+00 1.9963271931e+00 3.4577401270e+00 
6600 3.4307066268e+00 -5.6577582110e-02 1.9977968699e+00 -3.4602856819e+00 1.9977968699e+00 3.4602856819e+00 
6700 3.4307871988e+00 -5.4560247686e-02 1.9992130364e+00 -3.4627385542e+00 1.9992130364e+00 3.4627385542e+00 
6800 3.4308688724e+00 -5.2617860309e-02 2.0005777347e+00 -3.4651022809e+00 2.0005777347e+00 3.4651022809e+00 
6900 3.4309500584e+00 -5.0748427079e-02 2.0018929453e+00 -3.4673802925e+00 2.0018929453e+00 3.4673802925e+00 
7000 3.4310294197e+00 -4.8950009426e-02 2.0031605899e+00 -3.4695759175e+00 2.0031605899e+00 3.4695759175e+00 
7100 3.4311058537e+00 -4.7220713436e-02 2.0043825335e+00 -3.4716923858e+00 2.0043825335e+00 3.4716923858e+00 
7200 3.4311784735e+00 -4.5558681795e-02 2.0055605855e+00 -3.4737328317e+00 2.0055605855e+00 3.4737328317e+00 
7300 3.4312465884e+00 -4.3962087190e-02 2.0066965018e+00 -3.4757002964e+00 2.0066965018e+00 3.4757002964e+00 
7400 3.4313096853e+00 -4.2429127055e-02 2.0077919859e+00 -3.4775977306e+00 2.0077919859e+00 3.4775977306e+00 
7500 3.4313674095e+00 -4.0958019499e-02 2.0088486902e+00 -3.4794279961e+00 2.0088486902e+00 3.4794279961e+00 
7600 3.4314195463e+00 -3.9547000293e-02 2.0098682165e+00 -3.4811938675e+00 2.0098682165e+00 3.4811938675e+00 
7700 3.4314660037e+00 -3.8194320779e-02 2.0108521174e+00 -3.4828980339e+00 2.0108521174e+00 3.4828980339e+00 
7800 3.4315067952e+00 -3.6898246578e-02 2.0118018970e+00 -3.4845431004e+00 2.0118018970e+00 3.4845431004e+00 
7900 3.4315420243e+00 -3.5657056967e-02 2.0127190114e+00 -3.4861315891e+00 2.0127190114e+00 3.4861315891e+00 
8000 3.4315718692e+00 -3.4469044838e-02 2.0136048696e+00 -3.4876659404e+00 2.0136048696e+00 3.4876659404e+00 
8100 3.4315965694e+00 -3.3332517111e-02 2.0144608341e+00 -3.4891485144e+00 2.0144608341e+00 3.4891485144e+00 
8200 3.4316164131e+00 -3.2245795534e-02 2.0152882216e+00 -3.4905815918e+00 2.0152882216e+00 3.4905815918e+00 
8300 3.4316317257e+00 -3.1207217769e-02 2.0160883039e+00 -3.4919673749e+00 2.0160883039e+00 3.4919673749e+00 
8400 3.4316428595e+00 -3.0215138702e-02 2.0168623081e+00 -3.4933079894e+00 2.0168623081e+00 3.4933079894e+00 
8500 3.4316501842e+00 -2.9267931903e-02 2.0176114174e+00 -3.4946054849e+00 2.0176114174e+00 3.4946054849e+00 
8600 3.4316540794e+00 -2.8363991194e-02 2.0183367723e+00 -3.4958618364e+00 2.0183367723e+00 3.4958618364e+00 
8700 3.4316549269e+00 -2.7501732251e-02 2.0190394706e+00 -3.4970789455e+00 2.0190394706e+00 3.4970789455e+00 
8800 3.4316531049e+00 -2.6679594233e-02 2.0197205686e+00 -3.4982586420e+00 2.0197205686e+00 3.4982586420e+00 
8900 3.4316489828e+00 -2.5896041365e-02 2.0203810820e+00 -3.4994026847e+00 2.0203810820e+00 3.4994026847e+00 
9000 3.4316429170e+00 -2.5149564480e-02 2.0210219861e+00 -3.5005127631e+00 2.0210219861e+00 3.5005127631e+00 
9100 3.4316352469e+00 -2.4438682476e-02 2.0216442172e+00 -3.5015904990e+00 2.0216442172e+00 3.5015904990e+00 
9200 3.4316262927e+00 -2.3761943670e-02 2.0222486732e+00 -3.5026374475e+00 2.0222486732e+00 3.5026374475e+00 
9300 3.4316163530e+00 -2.3117927055e-02 2.0228362145e+00 -3.5036550989e+00 2.0228362145e+00 3.5036550989e+00 
9400 3.4316057033e+00 -2.2505243420e-02 2.0234076650e+00 -3.5046448802e+00 2.0234076650e+00 3.5046448802e+00 
9500 3.4315945950e+00 -2.1922536352e-02 2.0239638128e+00 -3.5056081565e+00 2.0239638128e+00 3.5056081565e+00 
9600 3.4315832550e+00 -2.1368483104e-02 2.0245054113e+00 -3.5065462325e+00 2.0245054113e+00 3.5065462325e+00 
9700 3.4315718856e+00 -2.0841795330e-02 2.0250331800e+00 -3.5074603547e+00 2.0250331800e+00 3.5074603547e+00 
9800 3.4315606647e+00 -2.0341219684e-02 2.0255478055e+00 -3.5083517124e+00 2.0255478055e+00 3.5083517124e+00 
9900 3.4315497461e+00 -1.9865538299e-02 2.0260499428e+00 -3.5092214396e+00 2.0260499428e+00 3.5092214396e+00 
10000 3.4315392611e+00 -1.9413569128e-02 2.0265402155e+00 -3.5100706168e+00 2.0265402155e+00 3.5100706168e+00 
10100 3.4315293188e+00 -1.8984166182e-02 2.0270192174e+00 -3.5109002725e+00 2.0270192174e+00 3.5109002725e+00 
10200 3.4315200077e+00 -1.8576219634e-02 2.0274875134e+00 -3.5117113848e+00 2.0274875134e+00 3.5117113848e+00 
10300 3.4315113968e+00 -1.8188655835e-02 2.0279456399e+00 -3.5125048834e+00 2.0279456399e+00 3.5125048834e+00 
10400 3.4315035372e+00 -1.7820437213e-02 2.0283941068e+00 -3.5132816507e+00 2.0283941068e+00 3.5132816507e+00 
10500 3.4314964637e+00 -1.7470562098e-02 2.0288333971e+00 -3.5140425239e+00 2.0288333971e+00 3.5140425239e+00 
10600 3.4314901959e+00 -1.7138064444e-02 2.0292639692e+00 -3.5147882966e+00 2.0292639692e+00 3.5147882966e+00 
10700 3.4314847404e+00 -1.6822013487e-02 2.0296862568e+00 -3.5155197201e+00 2.0296862568e+00 3.5155197201e+00 
10800 3.4314800915e+00 -1.6521513327e-02 2.0301006702e+00 -3.5162375053e+00 2.0301006702e+00 3.5162375053e+00 
10900 3.4314762336e+00 -1.6235702449e-02 2.0305075975e+00 -3.5169423239e+00 2.0305075975e+00 3.5169423239e+00 
11000 3.4314731417e+00 -1.5963753194e-02 2.0309074047e+00 -3.5176348105e+00 2.0309074047e+00 3.5176348105e+00 
11100 3.4314707836e+00 -1.5704871173e-02 2.0313004376e+00 -3.5183155634e+00 2.0313004376e+00 3.5183155634e+00 
11200 3.4314691209e+00 -1.5458294645e-02 2.0316870217e+00 -3.5189851467e+00 2.0316870217e+00 3.5189851467e+00 
11300 3.4314681099e+00 -1.5223293858e-02 2.0320674636e+00 -3.5196440914e+00 2.0320674636e+00 3.5196440914e+00 
11400 3.4314677033e+00 -1.4999170358e-02 2.0324420516e+00 -3.5202928968e+00 2.0324420516e+00 3.5202928968e+00 
11500 3.4314678510e+00 -1.4785256279e-02 2.0328110566e+00 -3.5209320322e+00 2.0328110566e+00 3.5209320322e+00 
11600 3.4314685010e+00 -1.4580913602e-02 2.0331747327e+00 -3.5215619377e+00 2.0331747327e+00 3.5215619377e+00 
11700 3.4314696005e+00 -1.4385533408e-02 2.0335333183e+00 -3.5221830261e+00 2.0335333183e+00 3.5221830261e+00 
11800 3.4314710964e+00 -1.4198535117e-02 2.0338870364e+00 -3.5227956838e+00 2.0338870364e+00 3.5227956838e+00 
11900 3.4314729361e+00 -1.4019365711e-02 2.0342360956e+00 -3.5234002722e+00 2.0342360956e+00 3.5234002722e+00 
12000 3.4314750682e+00 -1.3847498965e-02 2.0345806908e+00 -3.5239971286e+00 2.0345806908e+00 3.5239971286e+00 
12100 3.4314774430e+00 -1.3682434663e-02 2.0349210038e+00 -3.5245865680e+00 2.0349210038e+00 3.5245865680e+00 
12200 3.4314800127e+00 -1.3523697820e-02 2.0352572039e+00 -3.5251688836e+00 2.0352572039e+00 3.5251688836e+00 
12300 3.4314827321e+00 -1.3370837909e-02 2.0355894485e+00 -3.5257443482e+00 2.0355894485e+00 3.5257443482e+00 
12400 3.4314855585e+00 -1.3223428085e-02 2.0359178840e+00 -3.5263132152e+00 2.0359178840e+00 3.5263132152e+00 
12500 3.4314884523e+00 -1.3081064417e-02 2.0362426462e+00 -3.5268757197e+00 2.0362426462e+00 3.5268757197e+00 
12600 3.4314913769e+00 -1.2943365133e-02 2.0365638605e+00 -3.5274320793e+00 2.0365638605e+00 3.5274320793e+00 
12700 3.4314942989e+00 -1.2809969864e-02 2.0368816434e+00 -3.5279824954e+00 2.0368816434e+00 3.5279824954e+00 
12800 3.4314971880e+00 -1.2680538904e-02 2.0371961020e+00 -3.5285271536e+00 2.0371961020e+00 3.5285271536e+00 
12900 3.4315000172e+00 -1.2554752477e-02 2.0375073352e+00 -3.5290662254e+00 2.0375073352e+00 3.5290662254e+00 
13000 3.4315027627e+00 -1.2432310014e-02 2.0378154339e+00 -3.5295998680e+00 2.0378154339e+00 3.5295998680e+00 
13100 3.4315054038e+00 -1.2312929442e-02 2.0381204817e+00 -3.5301282262e+00 2.0381204817e+00 3.5301282262e+00 
13200 3.4315079228e+00 -1.2196346490e-02 2.0384225549e+00 -3.5306514325e+00 2.0384225549e+00 3.5306514325e+00 
13300 3.4315103048e+00 -1.2082313992e-02 2.0387217237e+00 -3.5311696079e+00 2.0387217237e+00 3.5311696079e+00 
13400 3.4315125377e+00 -1.1970601223e-02 2.0390180517e+00 -3.5316828630e+00 2.0390180517e+00 3.5316828630e+00 
13500 3.4315146119e+00 -1.1860993228e-02 2.0393115971e+00 -3.5321912986e+00 2.0393115971e+00 3.5321912986e+00 
13600 3.4315165205e+00 -1.1753290178e-02 2.0396024127e+00 -3.5326950061e+00 2.0396024127e+00 3.5326950061e+00 
13700 3.4315182584e+00 -1.1647306728e-02 2.0398905465e+00 -3.5331940684e+00 2.0398905465e+00 3.5331940684e+00 
13800 3.4315198229e+00 -1.1542871397e-02 2.0401760417e+00 -3.5336885606e+00 2.0401760417e+00 3.5336885606e+00 
13900 3.4315212128e+00 -1.1439825953e-02 2.0404589373e+00 -3.5341785502e+00 2.0404589373e+00 3.5341785502e+00 
14000 3.4315224289e+00 -1.1338024818e-02 2.0407392686e+00 -3.5346640982e+00 2.0407392686e+00 3.5346640982e+00 
14100 3.4315234733e+00 -1.1237334479e-02 2.0410170670e+00 -3.5351452591e+00 2.0410170670e+00 3.5351452591e+00 
14200 3.4315243494e+00 -1.1137632917e-02 2.0412923608e+00 -3.5356220820e+00 2.0412923608e+00 3.5356220820e+00 
14300 3.4315250619e+00 -1.1038809050e-02 2.0415651752e+00 -3.5360946105e+00 2.0415651752e+00 3.5360946105e+00 
14400 3.4315256161e+00 -1.0940762185e-02 2.0418355328e+00 -3.5365628835e+00 2.0418355328e+00 3.5365628835e+00 
14500 3.4315260184e+00 -1.0843401483e-02 2.0421034535e+00 -3.5370269359e+00 2.0421034535e+00 3.5370269359e+00 
14600 3.4315262759e+00 -1.0746645443e-02 2.0423689552e+00 -3.5374867982e+00 2.0423689552e+00 3.5374867982e+00 
14700 3.4315263959e+00 -1.0650421395e-02 2.0426320535e+00 -3.5379424978e+00 2.0426320535e+00 3.5379424978e+00 
14800 3.4315263864e+00 -1.0554665007e-02 2.0428927624e+00 -3.5383940589e+00 2.0428927624e+00 3.5383940589e+00 
14900 3.4315262555e+00 -1.0459319802e-02 2.0431510943e+00 -3.5388415029e+00 2.0431510943e+00 3.5388415029e+00 
15000 3.4315260114e+00 -1.0364336699e-02 2.0434070602e+00 -3.5392848487e+00 2.0434070602e+00 3.5392848487e+00 
15100 3.4315256626e+00 -1.0269673552e-02 2.0436606697e+00 -3.5397241134e+00 2.0436606697e+00 3.5397241134e+00 
15200 3.4315252174e+00 -1.0175294720e-02 2.0439119317e+00 -3.5401593119e+00 2.0439119317e+00 3.5401593119e+00 
15300 3.4315246841e+00 -1.0081170633e-02 2.0441608539e+00 -3.5405904578e+00 2.0441608539e+00 3.5405904578e+00 
15400 3.4315240706e+00 -9.9872773876e-03 2.0444074434e+00 -3.5410175634e+00 2.0444074434e+00 3.5410175634e+00 
15500 3.4315233850e+00 -9.8935963421e-03 2.0446517068e+00 -3.5414406399e+00 2.0446517068e+00 3.5414406399e+00 
15600 3.4315226347e+00 -9.8001137373e-03 2.0448936500e+00 -3.5418596978e+00 2.0448936500e+00 3.5418596978e+00 
15700 3.4315218271e+00 -9.7068203226e-03 2.0451332787e+00 -3.5422747469e+00 2.0451332787e+00 3.5422747469e+00 
15800 3.4315209691e+00 -9.6137109998e-03 2.0453705984e+00 -3.5426857967e+00 2.0453705984e+00 3.5426857967e+00 
15900 3.4315200673e+00 -9.5207844791e-03 2.0456056144e+00 -3.5430928563e+00 2.0456056144e+00 3.5430928563e+00 
16000 3.4315191280e+00 -9.4280429488e-03 2.0458383319e+00 -3.5434959349e+00 2.0458383319e+00 3.5434959349e+00 
16100 3.4315181569e+00 -9.3354917588e-03 2.0460687562e+00 -3.5438950416e+00 2.0460687562e+00 3.5438950416e+00 
16200 3.4315171594e+00 -9.2431391173e-03 2.0462968929e+00 -3.5442901858e+00 2.0462968929e+00 3.5442901858e+00 
16300 3.4315161406e+00 -9.1509958007e-03 2.0465227474e+00 -3.5446813774e+00 2.0465227474e+00 3.5446813774e+00 
16400 3.4315151052e+00 -9.0590748773e-03 2.0467463257e+00 -3.5450686264e+00 2.0467463257e+00 3.5450686264e+00 
16500 3.4315140573e+00 -8.9673914428e-03 2.0469676340e+00 -3.5454519436e+00 2.0469676340e+00 3.5454519436e+00 
16600 3.4315130008e+00 -8.8759623704e-03 2.0471866788e+00 -3.5458313402e+00 2.0471866788e+00 3.5458313402e+00 
16700 3.4315119392e+00 -8.7848060724e-03 2.0474034670e+00 -3.5462068285e+00 2.0474034670e+00 3.5462068285e+00 
16800 3.4315108757e+00 -8.6939422749e-03 2.0476180061e+00 -3.5465784210e+00 2.0476180061e+00 3.5465784210e+00 
16900 3.4315098130e+00 -8.6033918047e-03 2.0478303038e+00 -3.5469461314e+00 2.0478303038e+00 3.5469461314e+00 
17000 3.4315087537e+00 -8.5131763887e-03 2.0480403685e+00 -3.5473099742e+00 2.0480403685e+00 3.5473099742e+00 
17100 3.4315076999e+00 -8.4233184648e-03 2.0482482091e+00 -3.5476699648e+00 2.0482482091e+00 3.5476699648e+00 
17200 3.4315066535e+00 -8.3338410047e-03 2.0484538351e+00 -3.5480261193e+00 2.0484538351e+00 3.5480261193e+00 
17300 3.4315056161e+00 -8.2447673484e-03 2.0486572563e+00 -3.5483784552e+00 2.0486572563e+00 3.5483784552e+00 
17400 3.4315045893e+00 -8.1561210490e-03 2.0488584833e+00 -3.5487269906e+00 2.0488584833e+00 3.5487269906e+00 
17500 3.4315035740e+00 -8.0679257295e-03 2.0490575271e+00 -3.5490717446e+00 2.0490575271e+00 3.5490717446e+00 
17600 3.4315025714e+00 -7.9802049495e-03 2.0492543994e+00 -3.5494127375e+00 2.0492543994e+00 3.5494127375e+00 
17700 3.4315015822e+00 -7.8929820820e-03 2.0494491125e+00 -3.5497499904e+00 2.0494491125e+00 3.5497499904e+00 
17800 3.4315006070e+00 -7.8062802006e-03 2.0496416790e+00 -3.5500835254e+00 2.0496416790e+00 3.5500835254e+00 
17900 3.4314996463e+00 -7.7201219760e-03 2.0498321123e+00 -3.5504133655e+00 2.0498321123e+00 3.5504133655e+00 
18000 3.4314987005e+00 -7.6345295820e-03 2.0500204263e+00 -3.5507395349e+00 2.0500204263e+00 3.5507395349e+00 
18100 3.4314977697e+00 -7.5495246103e-03 2.0502066353e+00 -3.5510620583e+00 2.0502066353e+00 3.5510620583e+00 
18200 3.4314968542e+00 -7.4651279938e-03 2.0503907542e+00 -3.5513809617e+00 2.0503907542e+00 3.5513809617e+00 
18300 3.4314959539e+00 -7.3813599385e-03 2.0505727985e+00 -3.5516962717e+00 2.0505727985e+00 3.5516962717e+00 
18400 3.4314950688e+00 -7.2982398626e-03 2.0507527840e+00 -3.5520080157e+00 2.0507527840e+00 3.5520080157e+00 
18500 3.4314941989e+00 -7.2157863440e-03 2.0509307271e+00 -3.5523162222e+00 2.0509307271e+00 3.5523162222e+00 
18600 3.4314933439e+00 -7.1340170747e-03 2.0511066446e+00 -3.5526209201e+00 2.0511066446e+00 3.5526209201e+00 
18700 3.4314925038e+00 -7.0529488211e-03 2.0512805535e+00 -3.5529221393e+00 2.0512805535e+00 3.5529221393e+00 
18800 3.4314916782e+00 -6.9725973926e-03 2.0514524717e+00 -3.5532199103e+00 2.0514524717e+00 3.5532199103e+00 
18900 3.4314908669e+00 -6.8929776147e-03 2.0516224170e+00 -3.5535142642e+00 2.0516224170e+00 3.5535142642e+00 
19000 3.4314900697e+00 -6.8141033087e-03 2.0517904077e+00 -3.5538052327e+00 2.0517904077e+00 3.5538052327e+00 
19100 3.4314892863e+00 -6.7359872768e-03 2.0519564626e+00 -3.5540928481e+00 2.0519564626e+00 3.5540928481e+00 
19200 3.4314885164e+00 -6.6586412922e-03 2.0521206005e+00 -3.5543771433e+00 2.0521206005e+00 3.5543771433e+00 
19300 3.4314877598e+00 -6.5820760937e-03 2.0522828407e+00 -3.5546581516e+00 2.0522828407e+00 3.5546581516e+00 
19400 3.4314870160e+00 -6.5063013855e-03 2.0524432027e+00 -3.5549359067e+00 2.0524432027e+00 3.5549359067e+00 
19500 3.4314862849e+00 -6.4313258405e-03 2.0526017061e+00 -3.5552104426e+00 2.0526017061e+00 3.5552104426e+00 
19600 3.4314855663e+00 -6.3571571078e-03 2.0527583708e+00 -3.5554817940e+00 2.0527583708e+00 3.5554817940e+00 
19700 3.4314848597e+00 -6.2838018234e-03 2.0529132171e+00 -3.5557499955e+00 2.0529132171e+00 3.5557499955e+00 
19800 3.4314841650e+00 -6.2112656250e-03 2.0530662649e+00 -3.5560150822e+00 2.0530662649e+00 3.5560150822e+00 
19900 3.4314834819e+00 -6.1395531684e-03 2.0532175348e+00 -3.5562770893e+00 2.0532175348e+00 3.5562770893e+00 
20000 3.4314828102e+00 -6.0686681480e-03 2.0533670472e+00 -3.5565360523e+00 2.0533670472e+00 3.5565360523e+00 
20100 3.4314821497e+00 -5.9986133188e-03 2.0535148225e+00 -3.5567920067e+00 2.0535148225e+00 3.5567920067e+00 
20200 3.4314815002e+00 -5.9293905213e-03 2.0536608815e+00 -3.5570449882e+00 2.0536608815e+00 3.5570449882e+00 
20300 3.4314808615e+00 -5.8610007074e-03 2.0538052446e+00 -3.5572950326e+00 2.0538052446e+00 3.5572950326e+00 
20400 3.4314802333e+00 -5.7934439694e-03 2.0539479327e+00 -3.5575421755e+00 2.0539479327e+00 3.5575421755e+00 
20500 3.4314796156e+00 -5.7267195689e-03 2.0540889662e+00 -3.5577864527e+00 2.0540889662e+00 3.5577864527e+00 
20600 3.4314790082e+00 -5.6608259684e-03 2.0542283658e+00 -3.5580278999e+00 2.0542283658e+00 3.5580278999e+00 
20700 3.4314784110e+00 -5.5957608631e-03 2.0543661521e+00 -3.5582665528e+00 2.0543661521e+00 3.5582665528e+00 
20800 3.4314778237e+00 -5.5315212139e-03 2.0545023455e+00 -3.5585024467e+00 2.0545023455e+00 3.5585024467e+00 
20900 3.4314772463e+00 -5.4681032811e-03 2.0546369665e+00 -3.5587356170e+00 2.0546369665e+00 3.5587356170e+00 
21000 3.4314766787e+00 -5.4055026588e-03 2.0547700353e+00 -3.5589660990e+00 2.0547700353e+00 3.5589660990e+00 
21100 3.4314761207e+00 -5.3437143091e-03 2.0549015721e+00 -3.5591939275e+00 2.0549015721e+00 3.5591939275e+00 
21200 3.4314755723e+00 -5.2827325973e-03 2.0550315971e+00 -3.5594191374e+00 2.0550315971e+00 3.5594191374e+00 
21300 3.4314750333e+00 -5.2225513268e-03 2.0551601301e+00 -3.5596417631e+00 2.0551601301e+00 3.5596417631e+00 
21400 3.4314745036e+00 -5.1631637738e-03 2.0552871909e+00 -3.5598618388e+00 2.0552871909e+00 3.5598618388e+00 
21500 3.4314739832e+00 -5.1045627221e-03 2.0554127991e+00 -3.5600793985e+00 2.0554127991e+00 3.5600793985e+00 
21600 3.4314734720e+00 -5.0467404976e-03 2.0555369740e+00 -3.5602944758e+00 2.0555369740e+00 3.5602944758e+00 
21700 3.4314729698e+00 -4.9896890022e-03 2.0556597349e+00 -3.5605071038e+00 2.0556597349e+00 3.5605071038e+00 
21800 3.4314724766e+00 -4.9333997478e-03 2.0557811007e+00 -3.5607173157e+00 2.0557811007e+00 3.5607173157e+00 
21900 3.4314719923e+00 -4.8778638885e-03 2.0559010903e+00 -3.5609251438e+00 2.0559010903e+00 3.5609251438e+00 
22000 3.4314715168e+00 -4.8230722541e-03 2.0560197223e+00 -3.5611306203e+00 2.0560197223e+00 3.5611306203e+00 
22100 3.4314710501e+00 -4.7690153805e-03 2.0561370149e+00 -3.5613337771e+00 2.0561370149e+00 3.5613337771e+00 
22200 3.4314705919e+00 -4.7156835416e-03 2.0562529862e+00 -3.5615346454e+00 2.0562529862e+00 3.5615346454e+00 
22300 3.4314701423e+00 -4.6630667787e-03 2.0563676542e+00 -3.5617332561e+00 2.0563676542e+00 3.5617332561e+00 
22400 3.4314697012e+00 -4.6111549300e-03 2.0564810364e+00 -3.5619296399e+00 2.0564810364e+00 3.5619296399e+00 
22500 3.4314692684e+00 -4.5599376586e-03 2.0565931502e+00 -3.5621238266e+00 2.0565931502e+00 3.5621238266e+00 
22600 3.4314688439e+00 -4.5094044797e-03 2.0567040126e+00 -3.5623158460e+00 2.0567040126e+00 3.5623158460e+00 
22700 3.4314684276e+00 -4.4595447869e-03 2.0568136406e+00 -3.5625057271e+00 2.0568136406e+00 3.5625057271e+00 
22800 3.4314680193e+00 -4.4103478776e-03 2.0569220506e+00 -3.5626934988e+00 2.0569220506e+00 3.5626934988e+00 
22900 3.4314676190e+00 -4.3618029767e-03 2.0570292590e+00 -3.5628791892e+00 2.0570292590e+00 3.5628791892e+00 
23000 3.4314672265e+00 -4.3138992601e-03 2.0571352818e+00 -3.5630628261e+00 2.0571352818e+00 3.5630628261e+00 
23100 3.4314668419e+00 -4.2666258765e-03 2.0572401348e+00 -3.5632444368e+00 2.0572401348e+00 3.5632444368e+00 
23200 3.4314664648e+00 -4.2199719683e-03 2.0573438335e+00 -3.5634240482e+00 2.0573438335e+00 3.5634240482e+00 
23300 3.4314660954e+00 -4.1739266916e-03 2.0574463930e+00 -3.5636016866e+00 2.0574463930e+00 3.5636016866e+00 
23400 3.4314657333e+00 -4.1284792347e-03 2.0575478285e+00 -3.5637773780e+00 2.0575478285e+00 3.5637773780e+00 
23500 3.4314653786e+00 -4.0836188359e-03 2.0576481546e+00 -3.5639511478e+00 2.0576481546e+00 3.5639511478e+00 
23600 3.4314650312e+00 -4.0393348002e-03 2.0577473856e+00 -3.5641230210e+00 2.0577473856e+00 3.5641230210e+00 
23700 3.4314646908e+00 -3.9956165146e-03 2.0578455358e+00 -3.5642930222e+00 2.0578455358e+00 3.5642930222e+00 
23800 3.4314643574e+00 -3.9524534628e-03 2.0579426191e+00 -3.5644611754e+00 2.0579426191e+00 3.5644611754e+00 
23900 3.4314640308e+00 -3.9098352384e-03 2.0580386491e+00 -3.5646275042e+00 2.0580386491e+00 3.5646275042e+00 
24000 3.4314637111e+00 -3.8677515578e-03 2.0581336392e+00 -3.5647920318e+00 2.0581336392e+00 3.5647920318e+00 
24100 3.4314633979e+00 -3.8261922710e-03 2.0582276025e+00 -3.5649547811e+00 2.0582276025e+00 3.5649547811e+00 
24200 3.4314630913e+00 -3.7851473726e-03 2.0583205519e+00 -3.5651157742e+00 2.0583205519e+00 3.5651157742e+00 
24300 3.4314627911e+00 -3.7446070113e-03 2.0584125001e+00 -3.5652750331e+00 2.0584125001e+00 3.5652750331e+00 
24400 3.4314624972e+00 -3.7045614981e-03 2.0585034594e+00 -3.5654325792e+00 2.0585034594e+00 3.5654325792e+00 
24500 3.4314622094e+00 -3.6650013148e-03 2.0585934419e+00 -3.5655884335e+00 2.0585934419e+00 3.5655884335e+00 
24600 3.4314619277e+00 -3.6259171199e-03 2.0586824597e+00 -3.5657426168e+00 2.0586824597e+00 3.5657426168e+00 
24700 3.4314616520e+00 -3.5872997556e-03 2.0587705243e+00 -3.5658951493e+00 2.0587705243e+00 3.5658951493e+00 
24800 3.4314613820e+00 -3.5491402524e-03 2.0588576473e+00 -3.5660460507e+00 2.0588576473e+00 3.5660460507e+00 
24900 3.4314611178e+00 -3.5114298340e-03 2.0589438399e+00 -3.5661953406e+00 2.0589438399e+00 3.5661953406e+00 
25000 3.4314608592e+00 -3.4741599207e-03 2.0590291131e+00 -3.5663430381e+00 2.0590291131e+00 3.5663430381e+00 
25100 3.4314606061e+00 -3.4373221327e-03 2.0591134777e+00 -3.5664891619e+00 2.0591134777e+00 3.5664891619e+00 
25200 3.4314603583e+00 -3.4009082924e-03 2.0591969443e+00 -3.5666337304e+00 2.0591969443e+00 3.5666337304e+00 
25300 3.4314601158e+00 -3.3649104261e-03 2.0592795234e+00 -3.5667767615e+00 2.0592795234e+00 3.5667767615e+00 
25400 3.4314598785e+00 -3.3293207650e-03 2.0593612251e+00 -3.5669182730e+00 2.0593612251e+00 3.5669182730e+00 
25500 3.4314596462e+00 -3.2941317462e-03 2.0594420594e+00 -3.5670582822e+00 2.0594420594e+00 3.5670582822e+00 
25600 3.4314594189e+00 -3.2593360123e-03 2.0595220363e+00 -3.5671968061e+00 2.0595220363e+00 3.5671968061e+00 
25700 3.4314591964e+00 -3.2249264109e-03 2.0596011652e+00 -3.5673338615e+00 2.0596011652e+00 3.5673338615e+00 
25800 3.4314589787e+00 -3.1908959939e-03 2.0596794558e+00 -3.5674694648e+00 2.0596794558e+00 3.5674694648e+00 
25900 3.4314587656e+00 -3.1572380158e-03 2.0597569173e+00 -3.5676036320e+00 2.0597569173e+00 3.5676036320e+00 
26000 3.4314585571e+00 -3.1239459323e-03 2.0598335588e+00 -3.5677363790e+00 2.0598335588e+00 3.5677363790e+00 
26100 3.4314583531e+00 -3.0910133973e-03 2.0599093893e+00 -3.5678677213e+00 2.0599093893e+00 3.5678677213e+00 
26200 3.4314581534e+00 -3.0584342612e-03 2.0599844177e+00 -3.5679976742e+00 2.0599844177e+00 3.5679976742e+00 
26300 3.4314579579e+00 -3.0262025673e-03 2.0600586525e+00 -3.5681262527e+00 2.0600586525e+00 3.5681262527e+00 
26400 3.4314577667e+00 -2.9943125490e-03 2.0601321024e+00 -3.5682534716e+00 2.0601321024e+00 3.5682534716e+00 
26500 3.4314575796e+00 -2.9627586262e-03 2.0602047756e+00 -3.5683793454e+00 2.0602047756e+00 3.5683793454e+00 
26600 3.4314573964e+00 -2.9315354014e-03 2.0602766805e+00 -3.5685038883e+00 2.0602766805e+00 3.5685038883e+00 
26700 3.4314572172e+00 -2.9006376560e-03 2.0603478251e+00 -3.5686271144e+00 2.0603478251e+00 3.5686271144e+00 
26800 3.4314570418e+00 -2.8700603461e-03 2.0604182175e+00 -3.5687490375e+00 2.0604182175e+00 3.5687490375e+00 
26900 3.4314568702e+00 -2.8397985979e-03 2.0604878654e+00 -3.5688696712e+00 2.0604878654e+00 3.5688696712e+00 
27000 3.4314567023e+00 -2.8098477038e-03 2.0605567766e+00 -3.5689890290e+00 2.0605567766e+00 3.5689890290e+00 
27100 3.4314565380e+00 -2.7802031170e-03 2.0606249587e+00 -3.5691071239e+00 2.0606249587e+00 3.5691071239e+00 
27200 3.4314563772e+00 -2.7508604475e-03 2.0606924193e+00 -3.5692239690e+00 2.0606924193e+00 3.5692239690e+00 
27300 3.4314562198e+00 -2.7218154571e-03 2.0607591657e+00 -3.5693395771e+00 2.0607591657e+00 3.5693395771e+00 
27400 3.4314560659e+00 -2.6930640541e-03 2.0608252052e+00 -3.5694539609e+00 2.0608252052e+00 3.5694539609e+00 
27500 3.4314559152e+00 -2.6646022891e-03 2.0608905450e+00 -3.5695671328e+00 2.0608905450e+00 3.5695671328e+00 
27600 3.4314557678e+00 -2.6364263494e-03 2.0609551922e+00 -3.5696791050e+00 2.0609551922e+00 3.5696791050e+00 
27700 3.4314556236e+00 -2.6085325545e-03 2.0610191538e+00 -3.5697898898e+00 2.0610191538e+00 3.5697898898e+00 
27800 3.4314554825e+00 -2.5809173507e-03 2.0610824367e+00 -3.5698994990e+00 2.0610824367e+00 3.5698994990e+00 
27900 3.4314553444e+00 -2.5535773064e-03 2.0611450478e+00 -3.5700079445e+00 2.0611450478e+00 3.5700079445e+00 
28000 3.4314552092e+00 -2.5265091073e-03 2.0612069937e+00 -3.5701152379e+00 2.0612069937e+00 3.5701152379e+00 
28100 3.4314550771e+00 -2.4997095512e-03 2.0612682811e+00 -3.5702213909e+00 2.0612682811e+00 3.5702213909e+00 
28200 3.4314549477e+00 -2.4731755431e-03 2.0613289166e+00 -3.5703264147e+00 2.0613289166e+00 3.5703264147e+00 
28300 3.4314548212e+00 -2.4469040906e-03 2.0613889067e+00 -3.5704303206e+00 2.0613889067e+00 3.5704303206e+00 
28400 3.4314546973e+00 -2.4208922993e-03 2.0614482579e+00 -3.5705331198e+00 2.0614482579e+00 3.5705331198e+00 
28500 3.4314545762e+00 -2.3951373677e-03 2.0615069764e+00 -3.5706348233e+00 2.0615069764e+00 3.5706348233e+00 
28600 3.4314544577e+00 -2.3696365831e-03 2.0615650686e+00 -3.5707354419e+00 2.0615650686e+00 3.5707354419e+00 
28700 3.4314543417e+00 -2.3443873169e-03 2.0616225406e+00 -3.5708349864e+00 2.0616225406e+00 3.5708349864e+00 
28800 3.4314542283e+00 -2.3193870202e-03 2.0616793987e+00 -3.5709334675e+00 2.0616793987e+00 3.5709334675e+00 
28900 3.4314541173e+00 -2.2946332195e-03 2.0617356489e+00 -3.5710308957e+00 2.0617356489e+00 3.5710308957e+00 
29000 3.4314540088e+00 -2.2701235130e-03 2.0617912973e+00 -3.5711272815e+00 2.0617912973e+00 3.5711272815e+00 
29100 3.4314539025e+00 -2.2458555658e-03 2.0618463497e+00 -3.5712226351e+00 2.0618463497e+00 3.5712226351e+00 
29200 3.4314537986e+00 -2.2218271068e-03 2.0619008122e+00 -3.5713169669e+00 2.0619008122e+00 3.5713169669e+00 
29300 3.4314536970e+00 -2.1980359242e-03 2.0619546906e+00 -3.5714102870e+00 2.0619546906e+00 3.5714102870e+00 
29400 3.4314535976e+00 -2.1744798622e-03 2.0620079906e+00 -3.5715026054e+00 2.0620079906e+00 3.5715026054e+00 
29500 3.4314535003e+00 -2.1511568177e-03 2.0620607181e+00 -3.5715939320e+00 2.0620607181e+00 3.5715939320e+00 
29600 3.4314534052e+00 -2.1280647363e-03 2.0621128787e+00 -3.5716842768e+00 2.0621128787e+00 3.5716842768e+00 
29700 3.4314533121e+00 -2.1052016096e-03 2.0621644780e+00 -3.5717736495e+00 2.0621644780e+00 3.5717736495e+00 
29800 3.4314532211e+00 -2.0825654716e-03 2.0622155217e+00 -3.5718620598e+00 2.0622155217e+00 3.5718620598e+00 
29900 3.4314531320e+00 -2.0601543962e-03 2.0622660153e+00 -3.5719495173e+00 2.0622660153e+00 3.5719495173e+00 
30000 3.4314530449e+00 -2.0379664939e-03 2.0623159643e+00 -3.5720360315e+00 2.0623159643e+00 3.5720360315e+00 
30100 3.4314529597e+00 -2.0159999092e-03 2.0623653742e+00 -3.5721216119e+00 2.0623653742e+00 3.5721216119e+00 
30200 3.4314528764e+00 -1.9942528181e-03 2.0624142503e+00 -3.5722062678e+00 2.0624142503e+00 3.5722062678e+00 
30300 3.4314527948e+00 -1.9727234256e-03 2.0624625980e+00 -3.5722900085e+00 2.0624625980e+00 3.5722900085e+00 
30400 3.4314527151e+00 -1.9514099632e-03 2.0625104227e+00 -3.5723728432e+00 2.0625104227e+00 3.5723728432e+00 
30500 3.4314526371e+00 -1.9303106869e-03 2.0625577295e+00 -3.5724547811e+00 2.0625577295e+00 3.5724547811e+00 
30600 3.4314525609e+00 -1.9094238750e-03 2.0626045238e+00 -3.5725358311e+00 2.0626045238e+00 3.5725358311e+00 
30700 3.4314524863e+00 -1.8887478261e-03 2.0626508107e+00 -3.5726160024e+00 2.0626508107e+00 3.5726160024e+00 
30800 3.4314524133e+00 -1.8682808575e-03 2.0626965953e+00 -3.5726953037e+00 2.0626965953e+00 3.5726953037e+00 
30900 3.4314523420e+00 -1.8480213031e-03 2.0627418828e+00 -3.5727737440e+00 2.0627418828e+00 3.5727737440e+00 
31000 3.4314522722e+00 -1.8279675121e-03 2.0627866783e+00 -3.5728513319e+00 2.0627866783e+00 3.5728513319e+00 
31100 3.4314522039e+00 -1.8081178474e-03 2.0628309866e+00 -3.5729280763e+00 2.0628309866e+00 3.5729280763e+00 
31200 3.4314521372e+00 -1.7884706840e-03 2.0628748129e+00 -3.5730039856e+00 2.0628748129e+00 3.5730039856e+00 
31300 3.4314520719e+00 -1.7690244083e-03 2.0629181621e+00 -3.5730790685e+00 2.0629181621e+00 3.5730790685e+00 
31400 3.4314520081e+00 -1.7497774162e-03 2.0629610389e+00 -3.5731533335e+00 2.0629610389e+00 3.5731533335e+00 
31500 3.4314519456e+00 -1.7307281126e-03 2.0630034485e+00 -3.5732267889e+00 2.0630034485e+00 3.5732267889e+00 
31600 3.4314518846e+00 -1.7118749101e-03 2.0630453954e+00 -3.5732994432e+00 2.0630453954e+00 3.5732994432e+00 
31700 3.4314518248e+00 -1.6932162281e-03 2.0630868846e+00 -3.5733713045e+00 2.0630868846e+00 3.5733713045e+00 
31800 3.4314517665e+00 -1.6747504923e-03 2.0631279207e+00 -3.5734423812e+00 2.0631279207e+00 3.5734423812e+00 
31900 3.4314517093e+00 -1.6564761337e-03 2.0631685085e+00 -3.5735126813e+00 2.0631685085e+00 3.5735126813e+00 
32000 3.4314516535e+00 -1.6383915878e-03 2.0632086526e+00 -3.5735822129e+00 2.0632086526e+00 3.5735822129e+00 
32100 3.4314515989e+00 -1.6204952946e-03 2.0632483577e+00 -3.5736509841e+00 2.0632483577e+00 3.5736509841e+00 
32200 3.4314515455e+00 -1.6027856977e-03 2.0632876283e+00 -3.5737190028e+00 2.0632876283e+00 3.5737190028e+00 
32300 3.4314514933e+00 -1.5852612437e-03 2.0633264690e+00 -3.5737862769e+00 2.0633264690e+00 3.5737862769e+00 
32400 3.4314514422e+00 -1.5679203825e-03 2.0633648843e+00 -3.5738528141e+00 2.0633648843e+00 3.5738528141e+00 
32500 3.4314513923e+00 -1.5507615663e-03 2.0634028787e+00 -3.5739186223e+00 2.0634028787e+00 3.5739186223e+00 
32600 3.4314513434e+00 -1.5337832497e-03 2.0634404565e+00 -3.5739837091e+00 2.0634404565e+00 3.5739837091e+00 
32700 3.4314512957e+00 -1.5169838898e-03 2.0634776223e+00 -3.5740480822e+00 2.0634776223e+00 3.5740480822e+00 
32800 3.4314512490e+00 -1.5003619454e-03 2.0635143804e+00 -3.5741117490e+00 2.0635143804e+00 3.5741117490e+00 
32900 3.4314512033e+00 -1.4839158775e-03 2.0635507350e+00 -3.5741747171e+00 2.0635507350e+00 3.5741747171e+00 
33000 3.4314511587e+00 -1.4676441490e-03 2.0635866905e+00 -3.5742369938e+00 2.0635866905e+00 3.5742369938e+00 
33100 3.4314511151e+00 -1.4515452248e-03 2.0636222511e+00 -3.5742985866e+00 2.0636222511e+00 3.5742985866e+00 
33200 3.4314510724e+00 -1.4356175717e-03 2.0636574211e+00 -3.5743595027e+00 2.0636574211e+00 3.5743595027e+00 
33300 3.4314510306e+00 -1.4198596587e-03 2.0636922045e+00 -3.5744197494e+00 2.0636922045e+00 3.5744197494e+00 
33400 3.4314509898e+00 -1.4042699569e-03 2.0637266056e+00 -3.5744793338e+00 2.0637266056e+00 3.5744793338e+00 
33500 3.4314509499e+00 -1.3888469399e-03 2.0637606283e+00 -3.5745382629e+00 2.0637606283e+00 3.5745382629e+00 
33600 3.4314509109e+00 -1.3735890838e-03 2.0637942769e+00 -3.5745965439e+00 2.0637942769e+00 3.5745965439e+00 
33700 3.4314508728e+00 -1.3584948671e-03 2.0638275552e+00 -3.5746541837e+00 2.0638275552e+00 3.5746541837e+00 
33800 3.4314508355e+00 -1.3435627717e-03 2.0638604673e+00 -3.5747111891e+00 2.0638604673e+00 3.5747111891e+00 
33900 3.4314507990e+00 -1.3287912822e-03 2.0638930172e+00 -3.5747675671e+00 2.0638930172e+00 3.5747675671e+00 
34000 3.4314507634e+00 -1.3141788870e-03 2.0639252086e+00 -3.5748233243e+00 2.0639252086e+00 3.5748233243e+00 
34100 3.4314507285e+00 -1.2997240778e-03 2.0639570456e+00 -3.5748784676e+00 2.0639570456e+00 3.5748784676e+00 
34200 3.4314506944e+00 -1.2854253507e-03 2.0639885319e+00 -3.5749330035e+00 2.0639885319e+00 3.5749330035e+00 
34300 3.4314506611e+00 -1.2712812056e-03 2.0640196713e+00 -3.5749869385e+00 2.0640196713e+00 3.5749869385e+00 
34400 3.4314506285e+00 -1.2572901471e-03 2.0640504676e+00 -3.5750402793e+00 2.0640504676e+00 3.5750402793e+00 
34500 3.4314505967e+00 -1.2434506848e-03 2.0640809246e+00 -3.5750930323e+00 2.0640809246e+00 3.5750930323e+00 
34600 3.4314505655e+00 -1.2297613332e-03 2.0641110458e+00 -3.5751452038e+00 2.0641110458e+00 3.5751452038e+00 
34700 3.4314505351e+00 -1.2162206123e-03 2.0641408350e+00 -3.5751968002e+00 2.0641408350e+00 3.5751968002e+00 
34800 3.4314505053e+00 -1.2028270481e-03 2.0641702958e+00 -3.5752478278e+00 2.0641702958e+00 3.5752478278e+00 
34900 3.4314504762e+00 -1.1895791725e-03 2.0641994317e+00 -3.5752982927e+00 2.0641994317e+00 3.5752982927e+00 
35000 3.4314504477e+00 -1.1764755236e-03 2.0642282463e+00 -3.5753482010e+00 2.0642282463e+00 3.5753482010e+00 
35100 3.4314504199e+00 -1.1635146466e-03 2.0642567431e+00 -3.5753975589e+00 2.0642567431e+00 3.5753975589e+00 
35200 3.4314503927e+00 -1.1506950935e-03 2.0642849256e+00 -3.5754463724e+00 2.0642849256e+00 3.5754463724e+00 
35300 3.4314503662e+00 -1.1380154235e-03 2.0643127972e+00 -3.5754946474e+00 2.0643127972e+00 3.5754946474e+00 
35400 3.4314503402e+00 -1.1254742037e-03 2.0643403613e+00 -3.5755423898e+00 2.0643403613e+00 3.5755423898e+00 
35500 3.4314503148e+00 -1.1130700088e-03 2.0643676212e+00 -3.5755896055e+00 2.0643676212e+00 3.5755896055e+00 
35600 3.4314502899e+00 -1.1008014218e-03 2.0643945804e+00 -3.5756363001e+00 2.0643945804e+00 3.5756363001e+00 
35700 3.4314502656e+00 -1.0886670342e-03 2.0644212420e+00 -3.5756824794e+00 2.0644212420e+00 3.5756824794e+00 
35800 3.4314502419e+00 -1.0766654462e-03 2.0644476095e+00 -3.5757281492e+00 2.0644476095e+00 3.5757281492e+00 
35900 3.4314502187e+00 -1.0647952669e-03 2.0644736859e+00 -3.5757733148e+00 2.0644736859e+00 3.5757733148e+00 
36000 3.4314501960e+00 -1.0530551146e-03 2.0644994745e+00 -3.5758179820e+00 2.0644994745e+00 3.5758179820e+00 
36100 3.4314501738e+00 -1.0414436172e-03 2.0645249784e+00 -3.5758621561e+00 2.0645249784e+00 3.5758621561e+00 
36200 3.4314501522e+00 -1.0299594121e-03 2.0645502008e+00 -3.5759058426e+00 2.0645502008e+00 3.5759058426e+00 
36300 3.4314501310e+00 -1.0186011468e-03 2.0645751448e+00 -3.5759490468e+00 2.0645751448e+00 3.5759490468e+00 
36400 3.4314501102e+00 -1.0073674787e-03 2.0645998134e+00 -3.5759917741e+00 2.0645998134e+00 3.5759917741e+00 
36500 3.4314500900e+00 -9.9625707560e-04 2.0646242096e+00 -3.5760340296e+00 2.0646242096e+00 3.5760340296e+00 
36600 3.4314500702e+00 -9.8526861575e-04 2.0646483365e+00 -3.5760758186e+00 2.0646483365e+00 3.5760758186e+00 
36700 3.4314500509e+00 -9.7440078804e-04 2.0646721970e+00 -3.5761171462e+00 2.0646721970e+00 3.5761171462e+00 
36800 3.4314500319e+00 -9.6365229217e-04 2.0646957940e+00 -3.5761580174e+00 2.0646957940e+00 3.5761580174e+00 
36900 3.4314500135e+00 -9.5302183876e-04 2.0647191305e+00 -3.5761984374e+00 2.0647191305e+00 3.5761984374e+00 
37000 3.4314499954e+00 -9.4250814953e-04 2.0647422093e+00 -3.5762384110e+00 2.0647422093e+00 3.5762384110e+00 
37100 3.4314499777e+00 -9.3210995739e-04 2.0647650332e+00 -3.5762779431e+00 2.0647650332e+00 3.5762779431e+00 
37200 3.4314499605e+00 -9.2182600658e-04 2.0647876050e+00 -3.5763170387e+00 2.0647876050e+00 3.5763170387e+00 
37300 3.4314499436e+00 -9.1165505275e-04 2.0648099276e+00 -3.5763557026e+00 2.0648099276e+00 3.5763557026e+00 
37400 3.4314499271e+00 -9.0159586303e-04 2.0648320037e+00 -3.5763939394e+00 2.0648320037e+00 3.5763939394e+00 
37500 3.4314499110e+00 -8.9164721616e-04 2.0648538359e+00 -3.5764317539e+00 2.0648538359e+00 3.5764317539e+00 
37600 3.4314498952e+00 -8.8180790251e-04 2.0648754270e+00 -3.5764691508e+00 2.0648754270e+00 3.5764691508e+00 
37700 3.4314498798e+00 -8.7207672415e-04 2.0648967796e+00 -3.5765061346e+00 2.0648967796e+00 3.5765061346e+00 
37800 3.4314498647e+00 -8.6245249491e-04 2.0649178963e+00 -3.5765427099e+00 2.0649178963e+00 3.5765427099e+00 
37900 3.4314498500e+00 -8.5293404041e-04 2.0649387798e+00 -3.5765788811e+00 2.0649387798e+00 3.5765788811e+00 
38000 3.4314498356e+00 -8.4352019805e-04 2.0649594326e+00 -3.5766146529e+00 2.0649594326e+00 3.5766146529e+00 
38100 3.4314498216e+00 -8.3420981709e-04 2.0649798573e+00 -3.5766500294e+00 2.0649798573e+00 3.5766500294e+00 
38200 3.4314498078e+00 -8.2500175860e-04 2.0650000563e+00 -3.5766850151e+00 2.0650000563e+00 3.5766850151e+00 
38300 3.4314497944e+00 -8.1589489551e-04 2.0650200321e+00 -3.5767196143e+00 2.0650200321e+00 3.5767196143e+00 
38400 3.4314497813e+00 -8.0688811253e-04 2.0650397873e+00 -3.5767538313e+00 2.0650397873e+00 3.5767538313e+00 
38500 3.4314497684e+00 -7.9798030622e-04 2.0650593242e+00 -3.5767876702e+00 2.0650593242e+00 3.5767876702e+00 
38600 3.4314497559e+00 -7.8917038488e-04 2.0650786452e+00 -3.5768211352e+00 2.0650786452e+00 3.5768211352e+00 
38700 3.4314497436e+00 -7.8045726858e-04 2.0650977528e+00 -3.5768542304e+00 2.0650977528e+00 3.5768542304e+00 
38800 3.4314497317e+00 -7.7183988906e-04 2.0651166492e+00 -3.5768869599e+00 2.0651166492e+00 3.5768869599e+00 
38900 3.4314497200e+00 -7.6331718976e-04 2.0651353368e+00 -3.5769193278e+00 2.0651353368e+00 3.5769193278e+00 
39000 3.4314497085e+00 -7.5488812568e-04 2.0651538178e+00 -3.5769513380e+00 2.0651538178e+00 3.5769513380e+00 
39100 3.4314496973e+00 -7.4655166338e-04 2.0651720947e+00 -3.5769829943e+00 2.0651720947e+00 3.5769829943e+00 
39200 3.4314496864e+00 -7.3830678088e-04 2.0651901695e+00 -3.5770143009e+00 2.0651901695e+00 3.5770143009e+00 
39300 3.4314496757e+00 -7.3015246762e-04 2.0652080446e+00 -3.5770452614e+00 2.0652080446e+00 3.5770452614e+00 
39400 3.4314496653e+00 -7.2208772436e-04 2.0652257220e+00 -3.5770758797e+00 2.0652257220e+00 3.5770758797e+00 
39500 3.4314496551e+00 -7.1411156308e-04 2.0652432041e+00 -3.5771061595e+00 2.0652432041e+00 3.5771061595e+00 
39600 3.4314496451e+00 -7.0622300696e-04 2.0652604929e+00 -3.5771361046e+00 2.0652604929e+00 3.5771361046e+00 
39700 3.4314496354e+00 -6.9842109020e-04 2.0652775906e+00 -3.5771657187e+00 2.0652775906e+00 3.5771657187e+00 
39800 3.4314496259e+00 -6.9070485802e-04 2.0652944993e+00 -3.5771950054e+00 2.0652944993e+00 3.5771950054e+00 
39900 3.4314496165e+00 -6.8307336648e-04 2.0653112210e+00 -3.5772239683e+00 2.0653112210e+00 3.5772239683e+00 
40000 3.4314496075e+00 -6.7552568245e-04 2.0653277579e+00 -3.5772526109e+00 2.0653277579e+00 3.5772526109e+00 
40100 3.4314495986e+00 -6.6806088343e-04 2.0653441119e+00 -3.5772809369e+00 2.0653441119e+00 3.5772809369e+00 
40200 3.4314495899e+00 -6.6067805753e-04 2.0653602850e+00 -3.5773089495e+00 2.0653602850e+00 3.5773089495e+00 
40300 3.4314495814e+00 -6.5337630330e-04 2.0653762793e+00 -3.5773366524e+00 2.0653762793e+00 3.5773366524e+00 
40400 3.4314495731e+00 -6.4615472964e-04 2.0653920967e+00 -3.5773640490e+00 2.0653920967e+00 3.5773640490e+00 
40500 3.4314495650e+00 -6.3901245568e-04 2.0654077391e+00 -3.5773911425e+00 2.0654077391e+00 3.5773911425e+00 
40600 3.4314495571e+00 -6.3194861068e-04 2.0654232085e+00 -3.5774179363e+00 2.0654232085e+00 3.5774179363e+00 
40700 3.4314495493e+00 -6.2496233393e-04 2.0654385068e+00 -3.5774444337e+00 2.0654385068e+00 3.5774444337e+00 
40800 3.4314495418e+00 -6.1805277456e-04 2.0654536359e+00 -3.5774706380e+00 2.0654536359e+00 3.5774706380e+00 
40900 3.4314495344e+00 -6.1121909153e-04 2.0654685976e+00 -3.5774965524e+00 2.0654685976e+00 3.5774965524e+00 
41000 3.4314495272e+00 -6.0446045343e-04 2.0654833937e+00 -3.5775221801e+00 2.0654833937e+00 3.5775221801e+00 
41100 3.4314495201e+00 -5.9777603840e-04 2.0654980262e+00 -3.5775475243e+00 2.0654980262e+00 3.5775475243e+00 
41200 3.4314495132e+00 -5.9116503401e-04 2.0655124967e+00 -3.5775725879e+00 2.0655124967e+00 3.5775725879e+00 
41300 3.4314495065e+00 -5.8462663710e-04 2.0655268071e+00 -3.5775973743e+00 2.0655268071e+00 3.5775973743e+00 
41400 3.4314494999e+00 -5.7816005375e-04 2.0655409591e+00 -3.5776218863e+00 2.0655409591e+00 3.5776218863e+00 
41500 3.4314494935e+00 -5.7176449906e-04 2.0655549545e+00 -3.5776461270e+00 2.0655549545e+00 3.5776461270e+00 
41600 3.4314494872e+00 -5.6543919712e-04 2.0655687950e+00 -3.5776700994e+00 2.0655687950e+00 3.5776700994e+00 
41700 3.4314494810e+00 -5.5918338082e-04 2.0655824822e+00 -3.5776938064e+00 2.0655824822e+00 3.5776938064e+00 
41800 3.4314494750e+00 -5.5299629180e-04 2.0655960180e+00 -3.5777172510e+00 2.0655960180e+00 3.5777172510e+00 
41900 3.4314494692e+00 -5.4687718029e-04 2.0656094039e+00 -3.5777404361e+00 2.0656094039e+00 3.5777404361e+00 
42000 3.4314494634e+00 -5.4082530501e-04 2.0656226415e+00 -3.5777633644e+00 2.0656226415e+00 3.5777633644e+00 
42100 3.4314494578e+00 -5.3483993304e-04 2.0656357327e+00 -3.5777860389e+00 2.0656357327e+00 3.5777860389e+00 
42200 3.4314494524e+00 -5.2892033975e-04 2.0656486788e+00 -3.5778084623e+00 2.0656486788e+00 3.5778084623e+00 
42300 3.4314494470e+00 -5.2306580864e-04 2.0656614816e+00 -3.5778306373e+00 2.0656614816e+00 3.5778306373e+00 
42400 3.4314494418e+00 -5.1727563127e-04 2.0656741426e+00 -3.5778525668e+00 2.0656741426e+00 3.5778525668e+00 
42500 3.4314494367e+00 -5.1154910712e-04 2.0656866633e+00 -3.5778742534e+00 2.0656866633e+00 3.5778742534e+00 
42600 3.4314494317e+00 -5.0588554351e-04 2.0656990454e+00 -3.5778956998e+00 2.0656990454e+00 3.5778956998e+00 
42700 3.4314494268e+00 -5.0028425545e-04 2.0657112903e+00 -3.5779169086e+00 2.0657112903e+00 3.5779169086e+00 
42800 3.4314494221e+00 -4.9474456561e-04 2.0657233996e+00 -3.5779378824e+00 2.0657233996e+00 3.5779378824e+00 
42900 3.4314494174e+00 -4.8926580414e-04 2.0657353747e+00 -3.5779586239e+00 2.0657353747e+00 3.5779586239e+00 
43000 3.4314494129e+00 -4.8384730862e-04 2.0657472171e+00 -3.5779791356e+00 2.0657472171e+00 3.5779791356e+00 
43100 3.4314494084e+00 -4.7848842394e-04 2.0657589283e+00 -3.5779994200e+00 2.0657589283e+00 3.5779994200e+00 
43200 3.4314494041e+00 -4.7318850219e-04 2.0657705097e+00 -3.5780194796e+00 2.0657705097e+00 3.5780194796e+00 
43300 3.4314493999e+00 -4.6794690260e-04 2.0657819628e+00 -3.5780393170e+00 2.0657819628e+00 3.5780393170e+00 
43400 3.4314493957e+00 -4.6276299143e-04 2.0657932890e+00 -3.5780589344e+00 2.0657932890e+00 3.5780589344e+00 
43500 3.4314493917e+00 -4.5763614184e-04 2.0658044896e+00 -3.5780783345e+00 2.0658044896e+00 3.5780783345e+00 
43600 3.4314493877e+00 -4.5256573385e-04 2.0658155661e+00 -3.5780975195e+00 2.0658155661e+00 3.5780975195e+00 
43700 3.4314493839e+00 -4.4755115425e-04 2.0658265198e+00 -3.5781164919e+00 2.0658265198e+00 3.5781164919e+00 
43800 3.4314493801e+00 -4.4259179646e-04 2.0658373520e+00 -3.5781352539e+00 2.0658373520e+00 3.5781352539e+00 
43900 3.4314493764e+00 -4.3768706050e-04 2.0658480642e+00 -3.5781538079e+00 2.0658480642e+00 3.5781538079e+00 
44000 3.4314493728e+00 -4.3283635287e-04 2.0658586576e+00 -3.5781721562e+00 2.0658586576e+00 3.5781721562e+00 
44100 3.4314493693e+00 -4.2803908650e-04 2.0658691336e+00 -3.5781903011e+00 2.0658691336e+00 3.5781903011e+00 
44200 3.4314493659e+00 -4.2329468063e-04 2.0658794934e+00 -3.5782082448e+00 2.0658794934e+00 3.5782082448e+00 
44300 3.4314493625e+00 -4.1860256075e-04 2.0658897383e+00 -3.5782259895e+00 2.0658897383e+00 3.5782259895e+00 
44400 3.4314493592e+00 -4.1396215855e-04 2.0658998696e+00 -3.5782435374e+00 2.0658998696e+00 3.5782435374e+00 
44500 3.4314493560e+00 -4.0937291178e-04 2.0659098885e+00 -3.5782608907e+00 2.0659098885e+00 3.5782608907e+00 
44600 3.4314493529e+00 -4.0483426423e-04 2.0659197963e+00 -3.5782780516e+00 2.0659197963e+00 3.5782780516e+00 
44700 3.4314493498e+00 -4.0034566564e-04 2.0659295942e+00 -3.5782950221e+00 2.0659295942e+00 3.5782950221e+00 
44800 3.4314493469e+00 -3.9590657163e-04 2.0659392835e+00 -3.5783118044e+00 2.0659392835e+00 3.5783118044e+00 
44900 3.4314493439e+00 -3.9151644360e-04 2.0659488653e+00 -3.5783284005e+00 2.0659488653e+00 3.5783284005e+00 
45000 3.4314493411e+00 -3.8717474873e-04 2.0659583407e+00 -3.5783448125e+00 2.0659583407e+00 3.5783448125e+00 
45100 3.4314493383e+00 -3.8288095983e-04 2.0659677111e+00 -3.5783610424e+00 2.0659677111e+00 3.5783610424e+00 
45200 3.4314493356e+00 -3.7863455534e-04 2.0659769775e+00 -3.5783770922e+00 2.0659769775e+00 3.5783770922e+00 
45300 3.4314493329e+00 -3.7443501923e-04 2.0659861410e+00 -3.5783929640e+00 2.0659861410e+00 3.5783929640e+00 
45400 3.4314493303e+00 -3.7028184094e-04 2.0659952029e+00 -3.5784086597e+00 2.0659952029e+00 3.5784086597e+00 
45500 3.4314493278e+00 -3.6617451535e-04 2.0660041643e+00 -3.5784241812e+00 2.0660041643e+00 3.5784241812e+00 
45600 3.4314493253e+00 -3.6211254265e-04 2.0660130262e+00 -3.5784395305e+00 2.0660130262e+00 3.5784395305e+00 
45700 3.4314493229e+00 -3.5809542838e-04 2.0660217898e+00 -3.5784547094e+00 2.0660217898e+00 3.5784547094e+00 
45800 3.4314493206e+00 -3.5412268325e-04 2.0660304561e+00 -3.5784697199e+00 2.0660304561e+00 3.5784697199e+00 
45900 3.4314493182e+00 -3.5019382321e-04 2.0660390262e+00 -3.5784845638e+00 2.0660390262e+00 3.5784845638e+00 
46000 3.4314493160e+00 -3.4630836929e-04 2.0660475012e+00 -3.5784992430e+00 2.0660475012e+00 3.5784992430e+00 
46100 3.4314493138e+00 -3.4246584759e-04 2.0660558822e+00 -3.5785137592e+00 2.0660558822e+00 3.5785137592e+00 
46200 3.4314493116e+00 -3.3866578925e-04 2.0660641701e+00 -3.5785281143e+00 2.0660641701e+00 3.5785281143e+00 
46300 3.4314493095e+00 -3.3490773033e-04 2.0660723660e+00 -3.5785423100e+00 2.0660723660e+00 3.5785423100e+00 
46400 3.4314493075e+00 -3.3119121182e-04 2.0660804709e+00 -3.5785563482e+00 2.0660804709e+00 3.5785563482e+00 
46500 3.4314493055e+00 -3.2751577957e-04 2.0660884859e+00 -3.5785702305e+00 2.0660884859e+00 3.5785702305e+00 
46600 3.4314493035e+00 -3.2388098421e-04 2.0660964119e+00 -3.5785839588e+00 2.0660964119e+00 3.5785839588e+00 
46700 3.4314493016e+00 -3.2028638114e-04 2.0661042499e+00 -3.5785975346e+00 2.0661042499e+00 3.5785975346e+00 
46800 3.4314492998e+00 -3.1673153046e-04 2.0661120009e+00 -3.5786109597e+00 2.0661120009e+00 3.5786109597e+00 
46900 3.4314492979e+00 -3.1321599694e-04 2.0661196658e+00 -3.5786242357e+00 2.0661196658e+00 3.5786242357e+00 
47000 3.4314492962e+00 -3.0973934994e-04 2.0661272456e+00 -3.5786373643e+00 2.0661272456e+00 3.5786373643e+00 
47100 3.4314492944e+00 -3.0630116340e-04 2.0661347413e+00 -3.5786503472e+00 2.0661347413e+00 3.5786503472e+00 
47200 3.4314492927e+00 -3.0290101576e-04 2.0661421537e+00 -3.5786631859e+00 2.0661421537e+00 3.5786631859e+00 
47300 3.4314492911e+00 -2.9953848995e-04 2.0661494838e+00 -3.5786758820e+00 2.0661494838e+00 3.5786758820e+00 
47400 3.4314492895e+00 -2.9621317331e-04 2.0661567325e+00 -3.5786884371e+00 2.0661567325e+00 3.5786884371e+00 
47500 3.4314492879e+00 -2.9292465757e-04 2.0661639008e+00 -3.5787008529e+00 2.0661639008e+00 3.5787008529e+00 
47600 3.4314492863e+00 -2.8967253881e-04 2.0661709894e+00 -3.5787131307e+00 2.0661709894e+00 3.5787131307e+00 
47700 3.4314492848e+00 -2.8645641740e-04 2.0661779993e+00 -3.5787252722e+00 2.0661779993e+00 3.5787252722e+00 
47800 3.4314492833e+00 -2.8327589794e-04 2.0661849313e+00 -3.5787372788e+00 2.0661849313e+00 3.5787372788e+00 
47900 3.4314492819e+00 -2.8013058928e-04 2.0661917863e+00 -3.5787491521e+00 2.0661917863e+00 3.5787491521e+00 
48000 3.4314492805e+00 -2.7702010442e-04 2.0661985653e+00 -3.5787608936e+00 2.0661985653e+00 3.5787608936e+00 
48100 3.4314492791e+00 -2.7394406050e-04 2.0662052689e+00 -3.5787725046e+00 2.0662052689e+00 3.5787725046e+00 
48200 3.4314492778e+00 -2.7090207874e-04 2.0662118980e+00 -3.5787839866e+00 2.0662118980e+00 3.5787839866e+00 
48300 3.4314492765e+00 -2.6789378440e-04 2.0662184536e+00 -3.5787953411e+00 2.0662184536e+00 3.5787953411e+00 
48400 3.4314492752e+00 -2.6491880678e-04 2.0662249363e+00 -3.5788065695e+00 2.0662249363e+00 3.5788065695e+00 
48500 3.4314492740e+00 -2.6197677913e-04 2.0662313470e+00 -3.5788176732e+00 2.0662313470e+00 3.5788176732e+00 
48600 3.4314492728e+00 -2.5906733864e-04 2.0662376865e+00 -3.5788286535e+00 2.0662376865e+00 3.5788286535e+00 
48700 3.4314492716e+00 -2.5619012638e-04 2.0662439555e+00 -3.5788395118e+00 2.0662439555e+00 3.5788395118e+00 
48800 3.4314492704e+00 -2.5334478729e-04 2.0662501550e+00 -3.5788502495e+00 2.0662501550e+00 3.5788502495e+00 
48900 3.4314492693e+00 -2.5053097013e-04 2.0662562855e+00 -3.5788608679e+00 2.0662562855e+00 3.5788608679e+00 
49000 3.4314492682e+00 -2.4774832742e-04 2.0662623479e+00 -3.5788713684e+00 2.0662623479e+00 3.5788713684e+00 
49100 3.4314492671e+00 -2.4499651545e-04 2.0662683430e+00 -3.5788817522e+00 2.0662683430e+00 3.5788817522e+00 
49200 3.4314492660e+00 -2.4227519420e-04 2.0662742715e+00 -3.5788920206e+00 2.0662742715e+00 3.5788920206e+00 
49300 3.4314492650e+00 -2.3958402733e-04 2.0662801341e+00 -3.5789021750e+00 2.0662801341e+00 3.5789021750e+00 
49400 3.4314492640e+00 -2.3692268212e-04 2.0662859316e+00 -3.5789122165e+00 2.0662859316e+00 3.5789122165e+00 
49500 3.4314492630e+00 -2.3429082947e-04 2.0662916647e+00 -3.5789221464e+00 2.0662916647e+00 3.5789221464e+00 
49600 3.4314492621e+00 -2.3168814383e-04 2.0662973340e+00 -3.5789319661e+00 2.0662973340e+00 3.5789319661e+00 
49700 3.4314492611e+00 -2.2911430317e-04 2.0663029404e+00 -3.5789416766e+00 2.0663029404e+00 3.5789416766e+00 
49800 3.4314492602e+00 -2.2656898897e-04 2.0663084844e+00 -3.5789512792e+00 2.0663084844e+00 3.5789512792e+00 
49900 3.4314492593e+00 -2.2405188617e-04 2.0663139669e+00 -3.5789607751e+00 2.0663139669e+00 3.5789607751e+00 
50000 3.4314492584e+00 -2.2156268311e-04 2.0663193884e+00 -3.5789701654e+00 2.0663193884e+00 3.5789701654e+00 
50100 3.4314492576e+00 -2.1910107154e-04 2.0663247497e+00 -3.5789794515e+00 2.0663247497e+00 3.5789794515e+00 
50200 3.4314492568e+00 -2.1666674657e-04 2.0663300514e+00 -3.5789886343e+00 2.0663300514e+00 3.5789886343e+00 
50300 3.4314492560e+00 -2.1425940661e-04 2.0663352942e+00 -3.5789977151e+00 2.0663352942e+00 3.5789977151e+00 
50400 3.4314492552e+00 -2.1187875339e-04 2.0663404788e+00 -3.5790066950e+00 2.0663404788e+00 3.5790066950e+00 
50500 3.4314492544e+00 -2.0952449186e-04 2.0663456057e+00 -3.5790155750e+00 2.0663456057e+00 3.5790155750e+00 
50600 3.4314492536e+00 -2.0719633023e-04 2.0663506756e+00 -3.5790243564e+00 2.0663506756e+00 3.5790243564e+00 
50700 3.4314492529e+00 -2.0489397986e-04 2.0663556892e+00 -3.5790330402e+00 2.0663556892e+00 3.5790330402e+00 
50800 3.4314492522e+00 -2.0261715530e-04 2.0663606471e+00 -3.5790416275e+00 2.0663606471e+00 3.5790416275e+00 
50900 3.4314492515e+00 -2.0036557422e-04 2.0663655498e+00 -3.5790501193e+00 2.0663655498e+00 3.5790501193e+00 
51000 3.4314492508e+00 -1.9813895737e-04 2.0663703981e+00 -3.5790585167e+00 2.0663703981e+00 3.5790585167e+00 
51100 3.4314492501e+00 -1.9593702857e-04 2.0663751924e+00 -3.5790668208e+00 2.0663751924e+00 3.5790668208e+00 
51200 3.4314492495e+00 -1.9375951466e-04 2.0663799335e+00 -3.5790750326e+00 2.0663799335e+00 3.5790750326e+00 
51300 3.4314492488e+00 -1.9160614551e-04 2.0663846219e+00 -3.5790831531e+00 2.0663846219e+00 3.5790831531e+00 
51400 3.4314492482e+00 -1.8947665392e-04 2.0663892582e+00 -3.5790911834e+00 2.0663892582e+00 3.5790911834e+00 
51500 3.4314492476e+00 -1.8737077564e-04 2.0663938429e+00 -3.5790991244e+00 2.0663938429e+00 3.5790991244e+00 
51600 3.4314492470e+00 -1.8528824934e-04 2.0663983767e+00 -3.5791069771e+00 2.0663983767e+00 3.5791069771e+00 
51700 3.4314492464e+00 -1.8322881655e-04 2.0664028600e+00 -3.5791147425e+00 2.0664028600e+00 3.5791147425e+00 
51800 3.4314492459e+00 -1.8119222165e-04 2.0664072936e+00 -3.5791224216e+00 2.0664072936e+00 3.5791224216e+00 
51900 3.4314492453e+00 -1.7917821184e-04 2.0664116778e+00 -3.5791300153e+00 2.0664116778e+00 3.5791300153e+00 
52000 3.4314492448e+00 -1.7718653710e-04 2.0664160133e+00 -3.5791375246e+00 2.0664160133e+00 3.5791375246e+00 
52100 3.4314492443e+00 -1.7521695016e-04 2.0664203006e+00 -3.5791449504e+00 2.0664203006e+00 3.5791449504e+00 
52200 3.4314492438e+00 -1.7326920650e-04 2.0664245402e+00 -3.5791522936e+00 2.0664245402e+00 3.5791522936e+00 
52300 3.4314492433e+00 -1.7134306429e-04 2.0664287327e+00 -3.5791595552e+00 2.0664287327e+00 3.5791595552e+00 
52400 3.4314492428e+00 -1.6943828435e-04 2.0664328786e+00 -3.5791667361e+00 2.0664328786e+00 3.5791667361e+00 
52500 3.4314492423e+00 -1.6755463017e-04 2.0664369783e+00 -3.5791738371e+00 2.0664369783e+00 3.5791738371e+00 
52600 3.4314492418e+00 -1.6569186782e-04 2.0664410325e+00 -3.5791808592e+00 2.0664410325e+00 3.5791808592e+00 
52700 3.4314492414e+00 -1.6384976600e-04 2.0664450417e+00 -3.5791878032e+00 2.0664450417e+00 3.5791878032e+00 
52800 3.4314492409e+00 -1.6202809592e-04 2.0664490062e+00 -3.5791946700e+00 2.0664490062e+00 3.5791946700e+00 
52900 3.4314492405e+00 -1.6022663136e-04 2.0664529266e+00 -3.5792014604e+00 2.0664529266e+00 3.5792014604e+00 
53000 3.4314492401e+00 -1.5844514856e-04 2.0664568035e+00 -3.5792081753e+00 2.0664568035e+00 3.5792081753e+00 
53100 3.4314492397e+00 -1.5668342627e-04 2.0664606372e+00 -3.5792148155e+00 2.0664606372e+00 3.5792148155e+00 
53200 3.4314492393e+00 -1.5494124569e-04 2.0664644283e+00 -3.5792213819e+00 2.0664644283e+00 3.5792213819e+00 
53300 3.4314492389e+00 -1.5321839040e-04 2.0664681773e+00 -3.5792278753e+00 2.0664681773e+00 3.5792278753e+00 
53400 3.4314492385e+00 -1.5151464643e-04 2.0664718845e+00 -3.5792342964e+00 2.0664718845e+00 3.5792342964e+00 
53500 3.4314492381e+00 -1.4982980213e-04 2.0664755506e+00 -3.5792406462e+00 2.0664755506e+00 3.5792406462e+00 
53600 3.4314492378e+00 -1.4816364823e-04 2.0664791758e+00 -3.5792469253e+00 2.0664791758e+00 3.5792469253e+00 
53700 3.4314492374e+00 -1.4651597776e-04 2.0664827607e+00 -3.5792531346e+00 2.0664827607e+00 3.5792531346e+00 
53800 3.4314492371e+00 -1.4488658605e-04 2.0664863058e+00 -3.5792592748e+00 2.0664863058e+00 3.5792592748e+00 
53900 3.4314492367e+00 -1.4327527067e-04 2.0664898114e+00 -3.5792653467e+00 2.0664898114e+00 3.5792653467e+00 
54000 3.4314492364e+00 -1.4168183148e-04 2.0664932781e+00 -3.5792713511e+00 2.0664932781e+00 3.5792713511e+00 
54100 3.4314492361e+00 -1.4010607052e-04 2.0664967061e+00 -3.5792772887e+00 2.0664967061e+00 3.5792772887e+00 
54200 3.4314492358e+00 -1.3854779203e-04 2.0665000961e+00 -3.5792831603e+00 2.0665000961e+00 3.5792831603e+00 
54300 3.4314492355e+00 -1.3700680243e-04 2.0665034483e+00 -3.5792889665e+00 2.0665034483e+00 3.5792889665e+00 
54400 3.4314492352e+00 -1.3548291027e-04 2.0665067633e+00 -3.5792947081e+00 2.0665067633e+00 3.5792947081e+00 
54500 3.4314492349e+00 -1.3397592624e-04 2.0665100413e+00 -3.5793003859e+00 2.0665100413e+00 3.5793003859e+00 
54600 3.4314492346e+00 -1.3248566311e-04 2.0665132829e+00 -3.5793060005e+00 2.0665132829e+00 3.5793060005e+00 
54700 3.4314492343e+00 -1.3101193573e-04 2.0665164885e+00 -3.5793115527e+00 2.0665164885e+00 3.5793115527e+00 
54800 3.4314492341e+00 -1.2955456099e-04 2.0665196583e+00 -3.5793170431e+00 2.0665196583e+00 3.5793170431e+00 
54900 3.4314492338e+00 -1.2811335784e-04 2.0665227929e+00 -3.5793224724e+00 2.0665227929e+00 3.5793224724e+00 
55000 3.4314492335e+00 -1.2668814720e-04 2.0665258927e+00 -3.5793278413e+00 2.0665258927e+00 3.5793278413e+00 
55100 3.4314492333e+00 -1.2527875200e-04 2.0665289579e+00 -3.5793331504e+00 2.0665289579e+00 3.5793331504e+00 
55200 3.4314492330e+00 -1.2388499711e-04 2.0665319891e+00 -3.5793384005e+00 2.0665319891e+00 3.5793384005e+00 
55300 3.4314492328e+00 -1.2250670935e-04 2.0665349865e+00 -3.5793435922e+00 2.0665349865e+00 3.5793435922e+00 
55400 3.4314492326e+00 -1.2114371747e-04 2.0665379505e+00 -3.5793487261e+00 2.0665379505e+00 3.5793487261e+00 
55500 3.4314492323e+00 -1.1979585210e-04 2.0665408816e+00 -3.5793538029e+00 2.0665408816e+00 3.5793538029e+00 
55600 3.4314492321e+00 -1.1846294574e-04 2.0665437801e+00 -3.5793588232e+00 2.0665437801e+00 3.5793588232e+00 
55700 3.4314492319e+00 -1.1714483276e-04 2.0665466463e+00 -3.5793637876e+00 2.0665466463e+00 3.5793637876e+00 
55800 3.4314492317e+00 -1.1584134937e-04 2.0665494806e+00 -3.5793686968e+00 2.0665494806e+00 3.5793686968e+00 
55900 3.4314492315e+00 -1.1455233357e-04 2.0665522834e+00 -3.5793735513e+00 2.0665522834e+00 3.5793735513e+00 
56000 3.4314492313e+00 -1.1327762517e-04 2.0665550550e+00 -3.5793783518e+00 2.0665550550e+00 3.5793783518e+00 
56100 3.4314492311e+00 -1.1201706575e-04 2.0665577957e+00 -3.5793830989e+00 2.0665577957e+00 3.5793830989e+00 
56200 3.4314492309e+00 -1.1077049864e-04 2.0665605059e+00 -3.5793877932e+00 2.0665605059e+00 3.5793877932e+00 
56300 3.4314492307e+00 -1.0953776891e-04 2.0665631860e+00 -3.5793924352e+00 2.0665631860e+00 3.5793924352e+00 
56400 3.4314492306e+00 -1.0831872334e-04 2.0665658362e+00 -3.5793970256e+00 2.0665658362e+00 3.5793970256e+00 
56500 3.4314492304e+00 -1.0711321040e-04 2.0665684570e+00 -3.5794015648e+00 2.0665684570e+00 3.5794015648e+00 
56600 3.4314492302e+00 -1.0592108024e-04 2.0665710486e+00 -3.5794060535e+00 2.0665710486e+00 3.5794060535e+00 
56700 3.4314492300e+00 -1.0474218469e-04 2.0665736113e+00 -3.5794104923e+00 2.0665736113e+00 3.5794104923e+00 
56800 3.4314492299e+00 -1.0357637718e-04 2.0665761455e+00 -3.5794148817e+00 2.0665761455e+00 3.5794148817e+00 
56900 3.4314492297e+00 -1.0242351279e-04 2.0665786515e+00 -3.5794192222e+00 2.0665786515e+00 3.5794192222e+00 
57000 3.4314492296e+00 -1.0128344819e-04 2.0665811296e+00 -3.5794235144e+00 2.0665811296e+00 3.5794235144e+00 
57100 3.4314492294e+00 -1.0015604165e-04 2.0665835801e+00 -3.5794277588e+00 2.0665835801e+00 3.5794277588e+00 
57200 3.4314492293e+00 -9.9041152981e-05 2.0665860033e+00 -3.5794319559e+00 2.0665860033e+00 3.5794319559e+00 
57300 3.4314492291e+00 -9.7938643566e-05 2.0665883996e+00 -3.5794361064e+00 2.0665883996e+00 3.5794361064e+00 
57400 3.4314492290e+00 -9.6848376317e-05 2.0665907691e+00 -3.5794402106e+00 2.0665907691e+00 3.5794402106e+00 
57500 3.4314492288e+00 -9.5770215653e-05 2.0665931123e+00 -3.5794442691e+00 2.0665931123e+00 3.5794442691e+00 
57600 3.4314492287e+00 -9.4704027503e-05 2.0665954294e+00 -3.5794482824e+00 2.0665954294e+00 3.5794482824e+00 
57700 3.4314492286e+00 -9.3649679270e-05 2.0665977207e+00 -3.5794522511e+00 2.0665977207e+00 3.5794522511e+00 
57800 3.4314492285e+00 -9.2607039825e-05 2.0665999865e+00 -3.5794561756e+00 2.0665999865e+00 3.5794561756e+00 
57900 3.4314492283e+00 -9.1575979488e-05 2.0666022271e+00 -3.5794600563e+00 2.0666022271e+00 3.5794600563e+00 
58000 3.4314492282e+00 -9.0556370015e-05 2.0666044427e+00 -3.5794638939e+00 2.0666044427e+00 3.5794638939e+00 
58100 3.4314492281e+00 -8.9548084574e-05 2.0666066336e+00 -3.5794676887e+00 2.0666066336e+00 3.5794676887e+00 
58200 3.4314492280e+00 -8.8550997741e-05 2.0666088002e+00 -3.5794714413e+00 2.0666088002e+00 3.5794714413e+00 
58300 3.4314492279e+00 -8.7564985471e-05 2.0666109426e+00 -3.5794751521e+00 2.0666109426e+00 3.5794751521e+00 
58400 3.4314492278e+00 -8.6589925097e-05 2.0666130612e+00 -3.5794788216e+00 2.0666130612e+00 3.5794788216e+00 
58500 3.4314492277e+00 -8.5625695298e-05 2.0666151562e+00 -3.5794824502e+00 2.0666151562e+00 3.5794824502e+00 
58600 3.4314492276e+00 -8.4672176105e-05 2.0666172278e+00 -3.5794860383e+00 2.0666172278e+00 3.5794860383e+00 
58700 3.4314492275e+00 -8.3729248863e-05 2.0666192764e+00 -3.5794895866e+00 2.0666192764e+00 3.5794895866e+00 
58800 3.4314492274e+00 -8.2796796236e-05 2.0666213021e+00 -3.5794930953e+00 2.0666213021e+00 3.5794930953e+00 
58900 3.4314492273e+00 -8.1874702182e-05 2.0666233053e+00 -3.5794965649e+00 2.0666233053e+00 3.5794965649e+00 
59000 3.4314492272e+00 -8.0962851937e-05 2.0666252862e+00 -3.5794999959e+00 2.0666252862e+00 3.5794999959e+00 
59100 3.4314492271e+00 -8.0061132012e-05 2.0666272450e+00 -3.5795033887e+00 2.0666272450e+00 3.5795033887e+00 
59200 3.4314492270e+00 -7.9169430165e-05 2.0666291820e+00 -3.5795067437e+00 2.0666291820e+00 3.5795067437e+00 
59300 3.4314492269e+00 -7.8287635397e-05 2.0666310974e+00 -3.5795100613e+00 2.0666310974e+00 3.5795100613e+00 
59400 3.4314492268e+00 -7.7415637937e-05 2.0666329915e+00 -3.5795133419e+00 2.0666329915e+00 3.5795133419e+00 
59500 3.4314492268e+00 -7.6553329222e-05 2.0666348645e+00 -3.5795165860e+00 2.0666348645e+00 3.5795165860e+00 
59600 3.4314492267e+00 -7.5700601890e-05 2.0666367166e+00 -3.5795197940e+00 2.0666367166e+00 3.5795197940e+00 
59700 3.4314492266e+00 -7.4857349765e-05 2.0666385481e+00 -3.5795229663e+00 2.0666385481e+00 3.5795229663e+00 
59800 3.4314492265e+00 -7.4023467847e-05 2.0666403592e+00 -3.5795261032e+00 2.0666403592e+00 3.5795261032e+00 
59900 3.4314492265e+00 -7.3198852291e-05 2.0666421501e+00 -3.5795292051e+00 2.0666421501e+00 3.5795292051e+00 
60000 3.4314492264e+00 -7.2383400404e-05 2.0666439211e+00 -3.5795322725e+00 2.0666439211e+00 3.5795322725e+00 
60100 3.4314492263e+00 -7.1577010622e-05 2.0666456723e+00 -3.5795353057e+00 2.0666456723e+00 3.5795353057e+00 
60200 3.4314492262e+00 -7.0779582506e-05 2.0666474041e+00 -3.5795383052e+00 2.0666474041e+00 3.5795383052e+00 
60300 3.4314492262e+00 -6.9991016725e-05 2.0666491165e+00 -3.5795412712e+00 2.0666491165e+00 3.5795412712e+00 
60400 3.4314492262e+00 -6.9860100140e-05 2.0666491165e+00 -3.5795412712e+00 2.0666491165e+00 3.5795412712e+00 
60500 3.4314492263e+00 -6.9738139059e-05 2.0666491165e+00 -3.5795412712e+00 2.0666491165e+00 3.5795412712e+00 
60600 3.4314492263e+00 -6.9624841898e-05 2.0666491165e+00 -3.5795412712e+00 2.0666491165e+00 3.5795412712e+00 
60700 3.4314492264e+00 -6.9519910844e-05 2.0666491165e+00 -3.5795412712e+00 2.0666491165e+00 3.5795412712e+00 
60800 3.4314492264e+00 -6.9423043462e-05 2.0666491165e+00 -3.5795412712e+00 2.0666491165e+00 3.5795412712e+00 
60900 3.4314492265e+00 -6.9333934165e-05 2.0666491165e+00 -3.5795412712e+00 2.0666491165e+00 3.5795412712e+00 
61000 3.4314492265e+00 -6.9313668206e-05 2.0666491165e+00 -3.5795412712e+00 2.0666491165e+00 3.5795412712e+00 
61000 3.4314492265e+00 -6.9313668206e-05 2.0666491165e+00 -3.5795412712e+00 2.0666491165e+00 3.5795412712e+00 
