# step Hamiltonian StressXX CellTensor1 CellTensor2 CellTensor3 CellTensor4 
0 5.9582105459e+00 4.6350735646e-02 1.6185780433e+00 -2.8034594071e+00 1.6185780433e+00 2.8034594071e+00 
100 5.9583871645e+00 4.8334744288e-02 1.6185780433e+00 -2.8034594071e+00 1.6185780433e+00 2.8034594071e+00 
200 5.9583595478e+00 4.8499436008e-02 1.6170851494e+00 -2.8008736390e+00 1.6170851494e+00 2.8008736390e+00 
300 5.9582278703e+00 4.8436741020e-02 1.6155857870e+00 -2.7982766671e+00 1.6155857870e+00 2.7982766671e+00 
400 5.9580050248e+00 4.8165067436e-02 1.6140869733e+00 -2.7956806456e+00 1.6140869733e+00 2.7956806456e+00 
500 5.9577027432e+00 4.7701948579e-02 1.6125951813e+00 -2.7930967861e+00 1.6125951813e+00 2.7930967861e+00 
600 5.9573316694e+00 4.7064056347e-02 1.6111163647e+00 -2.7905354006e+00 1.6111163647e+00 2.7905354006e+00 
700 5.9569014297e+00 4.6267217136e-02 1.6096559817e+00 -2.7880059431e+00 1.6096559817e+00 2.7880059431e+00 
800 5.9564207024e+00 4.5326429981e-02 1.6082190186e+00 -2.7855170499e+00 1.6082190186e+00 2.7855170499e+00 
900 5.9558972849e+00 4.4255886557e-02 1.6068100126e+00 -2.7830765800e+00 1.6068100126e+00 2.7830765800e+00 
1000 5.9553381590e+00 4.3068992769e-02 1.6054330745e+00 -2.7806916532e+00 1.6054330745e+00 2.7806916532e+00 
1100 5.9547495531e+00 4.1778391633e-02 1.6040919102e+00 -2.7783686885e+00 1.6040919102e+00 2.7783686885e+00 
1200 5.9541370024e+00 4.0395987222e-02 1.6027898422e+00 -2.7761134406e+00 1.6027898422e+00 2.7761134406e+00 
1300 5.9535054053e+00 3.8932969450e-02 1.6015298302e+00 -2.7739310357e+00 1.6015298302e+00 2.7739310357e+00 
1400 5.9528590784e+00 3.7399839489e-02 1.6003144909e+00 -2.7718260064e+00 1.6003144909e+00 2.7718260064e+00 
1500 5.9522018074e+00 3.5806435637e-02 1.5991461179e+00 -2.7698023250e+00 1.5991461179e+00 2.7698023250e+00 
1600 5.9515368953e+00 3.4161959483e-02 1.5980267001e+00 -2.7678634364e+00 1.5980267001e+00 2.7678634364e+00 
1700 5.9508672086e+00 3.2475002205e-02 1.5969579398e+00 -2.7660122893e+00 1.5969579398e+00 2.7660122893e+00 
1800 5.9501952194e+00 3.0753570882e-02 1.5959412708e+00 -2.7642513669e+00 1.5959412708e+00 2.7642513669e+00 
1900 5.9495230453e+00 2.9005114686e-02 1.5949778746e+00 -2.7625827158e+00 1.5949778746e+00 2.7625827158e+00 
2000 5.9488524872e+00 2.7236550847e-02 1.5940686972e+00 -2.7610079743e+00 1.5940686972e+00 2.7610079743e+00 
2100 5.9481850628e+00 2.5454290300e-02 1.5932144643e+00 -2.7595283996e+00 1.5932144643e+00 2.7595283996e+00 
2200 5.9475220397e+00 2.3664262920e-02 1.5924156967e+00 -2.7581448935e+00 1.5924156967e+00 2.7581448935e+00 
2300 5.9468644639e+00 2.1871942259e-02 1.5916727242e+00 -2.7568580274e+00 1.5916727242e+00 2.7568580274e+00 
2400 5.9462131874e+00 2.0082369734e-02 1.5909856996e+00 -2.7556680658e+00 1.5909856996e+00 2.7556680658e+00 
2500 5.9455688930e+00 1.8300178191e-02 1.5903546115e+00 -2.7545749892e+00 1.5903546115e+00 2.7545749892e+00 
2600 5.9449321170e+00 1.6529614801e-02 1.5897792972e+00 -2.7535785156e+00 1.5897792972e+00 2.7535785156e+00 
2700 5.9443032700e+00 1.4774563232e-02 1.5892594542e+00 -2.7526781211e+00 1.5892594542e+00 2.7526781211e+00 
2800 5.9436826553e+00 1.3038565085e-02 1.5887946515e+00 -2.7518730591e+00 1.5887946515e+00 2.7518730591e+00 
2900 5.9430704862e+00 1.1324840531e-02 1.5883843403e+00 -2.7511623794e+00 1.5883843403e+00 2.7511623794e+00 
3000 5.9424669009e+00 9.6363081590e-03 1.5880278643e+00 -2.7505449449e+00 1.5880278643e+00 2.7505449449e+00 
3100 5.9418719764e+00 7.9756039970e-03 1.5877244691e+00 -2.7500194489e+00 1.5877244691e+00 2.7500194489e+00 
3200 5.9412857405e+00 6.3450997036e-03 1.5874733111e+00 -2.7495844305e+00 1.5874733111e+00 2.7495844305e+00 
3300 5.9407081822e+00 4.7469199262e-03 1.5872734663e+00 -2.7492382891e+00 1.5872734663e+00 2.7492382891e+00 
3400 5.9401392618e+00 3.1829588230e-03 1.5871239380e+00 -2.7489792986e+00 1.5871239380e+00 2.7489792986e+00 
3500 5.9395789186e+00 1.6548957566e-03 1.5870236647e+00 -2.7488056200e+00 1.5870236647e+00 2.7488056200e+00 
3600 5.9390270780e+00 1.6421016544e-04 1.5869715266e+00 -2.7487153142e+00 1.5869715266e+00 2.7487153142e+00 
3700 5.9384836578e+00 -1.2878043713e-03 1.5869663529e+00 -2.7487063531e+00 1.5869663529e+00 2.7487063531e+00 
3800 5.9379485736e+00 -2.7000268607e-03 1.5870069275e+00 -2.7487766304e+00 1.5870069275e+00 2.7487766304e+00 
3900 5.9374217423e+00 -4.0714963955e-03 1.5870919949e+00 -2.7489239714e+00 1.5870919949e+00 2.7489239714e+00 
4000 5.9369030867e+00 -5.4014004038e-03 1.5872202657e+00 -2.7491461430e+00 1.5872202657e+00 2.7491461430e+00 
4100 5.9363925375e+00 -6.6890636250e-03 1.5873904216e+00 -2.7494408616e+00 1.5873904216e+00 2.7494408616e+00 
4200 5.9358900358e+00 -7.9339377870e-03 1.5876011199e+00 -2.7498058019e+00 1.5876011199e+00 2.7498058019e+00 
4300 5.9353955349e+00 -9.1355919572e-03 1.5878509984e+00 -2.7502386040e+00 1.5878509984e+00 2.7502386040e+00 
4400 5.9349090011e+00 -1.0293703538e-02 1.5881386786e+00 -2.7507368808e+00 1.5881386786e+00 2.7507368808e+00 
4500 5.9344304147e+00 -1.1408049882e-02 1.5884627704e+00 -2.7512982243e+00 1.5884627704e+00 2.7512982243e+00 
4600 5.9339597701e+00 -1.2478500488e-02 1.5888218748e+00 -2.7519202113e+00 1.5888218748e+00 2.7519202113e+00 
4700 5.9334970757e+00 -1.3505009761e-02 1.5892145876e+00 -2.7526004099e+00 1.5892145876e+00 2.7526004099e+00 
4800 5.9330423537e+00 -1.4487610298e-02 1.5896395023e+00 -2.7533363837e+00 1.5896395023e+00 2.7533363837e+00 
4900 5.9325956394e+00 -1.5426406667e-02 1.5900952126e+00 -2.7541256971e+00 1.5900952126e+00 2.7541256971e+00 
5000 5.9321569805e+00 -1.6321569658e-02 1.5905803153e+00 -2.7549659197e+00 1.5905803153e+00 2.7549659197e+00 
5100 5.9317264356e+00 -1.7173330981e-02 1.5910934126e+00 -2.7558546301e+00 1.5910934126e+00 2.7558546301e+00 
5200 5.9313040739e+00 -1.7981978359e-02 1.5916331138e+00 -2.7567894201e+00 1.5916331138e+00 2.7567894201e+00 
5300 5.9308899730e+00 -1.8747851025e-02 1.5921980380e+00 -2.7577678975e+00 1.5921980380e+00 2.7577678975e+00 
5400 5.9304842181e+00 -1.9471335561e-02 1.5927868154e+00 -2.7587876900e+00 1.5927868154e+00 2.7587876900e+00 
5500 5.9300869006e+00 -2.0152862080e-02 1.5933980894e+00 -2.7598464474e+00 1.5933980894e+00 2.7598464474e+00 
5600 5.9296981163e+00 -2.0792900717e-02 1.5940305175e+00 -2.7609418450e+00 1.5940305175e+00 2.7609418450e+00 
5700 5.9293179641e+00 -2.1391958392e-02 1.5946827734e+00 -2.7620715855e+00 1.5946827734e+00 2.7620715855e+00 
5800 5.9289465446e+00 -2.1950575856e-02 1.5953535481e+00 -2.7632334014e+00 1.5953535481e+00 2.7632334014e+00 
5900 5.9285839584e+00 -2.2469324961e-02 1.5960415509e+00 -2.7644250571e+00 1.5960415509e+00 2.7644250571e+00 
6000 5.9282303050e+00 -2.2948806159e-02 1.5967455105e+00 -2.7656443509e+00 1.5967455105e+00 2.7656443509e+00 
6100 5.9278856811e+00 -2.3389646208e-02 1.5974641763e+00 -2.7668891165e+00 1.5974641763e+00 2.7668891165e+00 
6200 5.9275501792e+00 -2.3792496054e-02 1.5981963189e+00 -2.7681572247e+00 1.5981963189e+00 2.7681572247e+00 
6300 5.9272238868e+00 -2.4158028885e-02 1.5989407312e+00 -2.7694465848e+00 1.5989407312e+00 2.7694465848e+00 
6400 5.9269068847e+00 -2.4486938341e-02 1.5996962292e+00 -2.7707551457e+00 1.5996962292e+00 2.7707551457e+00 
6500 5.9265992459e+00 -2.4779936857e-02 1.6004616524e+00 -2.7720808975e+00 1.6004616524e+00 2.7720808975e+00 
6600 5.9263010352e+00 -2.5037754131e-02 1.6012358644e+00 -2.7734218720e+00 1.6012358644e+00 2.7734218720e+00 
6700 5.9260123072e+00 -2.5261135705e-02 1.6020177539e+00 -2.7747761444e+00 1.6020177539e+00 2.7747761444e+00 
6800 5.9257331064e+00 -2.5450841647e-02 1.6028062348e+00 -2.7761418333e+00 1.6028062348e+00 2.7761418333e+00 
6900 5.9254634658e+00 -2.5607645315e-02 1.6036002466e+00 -2.7775171021e+00 1.6036002466e+00 2.7775171021e+00 
7000 5.9252034067e+00 -2.5732332213e-02 1.6043987551e+00 -2.7789001595e+00 1.6043987551e+00 2.7789001595e+00 
7100 5.9249529376e+00 -2.5825698902e-02 1.6052007526e+00 -2.7802892598e+00 1.6052007526e+00 2.7802892598e+00 
7200 5.9247120542e+00 -2.5888551984e-02 1.6060052580e+00 -2.7816827041e+00 1.6060052580e+00 2.7816827041e+00 
7300 5.9244807388e+00 -2.5921707132e-02 1.6068113175e+00 -2.7830788402e+00 1.6068113175e+00 2.7830788402e+00 
7400 5.9242589600e+00 -2.5925988174e-02 1.6076180045e+00 -2.7844760630e+00 1.6076180045e+00 2.7844760630e+00 
7500 5.9240466725e+00 -2.5902226210e-02 1.6084244198e+00 -2.7858728152e+00 1.6084244198e+00 2.7858728152e+00 
7600 5.9238438171e+00 -2.5851258770e-02 1.6092296919e+00 -2.7872675874e+00 1.6092296919e+00 2.7872675874e+00 
7700 5.9236503205e+00 -2.5773928996e-02 1.6100329771e+00 -2.7886589182e+00 1.6100329771e+00 2.7886589182e+00 
7800 5.9234660955e+00 -2.5671084857e-02 1.6108334596e+00 -2.7900453945e+00 1.6108334596e+00 2.7900453945e+00 
7900 5.9232910412e+00 -2.5543578378e-02 1.6116303514e+00 -2.7914256516e+00 1.6116303514e+00 2.7914256516e+00 
8000 5.9231250428e+00 -2.5392264887e-02 1.6124228926e+00 -2.7927983733e+00 1.6124228926e+00 2.7927983733e+00 
8100 5.9229679726e+00 -2.5218002280e-02 1.6132103514e+00 -2.7941622919e+00 1.6132103514e+00 2.7941622919e+00 
8200 5.9228196896e+00 -2.5021650298e-02 1.6139920237e+00 -2.7955161881e+00 1.6139920237e+00 2.7955161881e+00 
8300 5.9226800406e+00 -2.4804069807e-02 1.6147672336e+00 -2.7968588910e+00 1.6147672336e+00 2.7968588910e+00 
8400 5.9225488600e+00 -2.4566122091e-02 1.6155353330e+00 -2.7981892782e+00 1.6155353330e+00 2.7981892782e+00 
8500 5.9224259709e+00 -2.4308668152e-02 1.6162957017e+00 -2.7995062754e+00 1.6162957017e+00 2.7995062754e+00 
8600 5.9223111853e+00 -2.4032568006e-02 1.6170477470e+00 -2.8008088561e+00 1.6170477470e+00 2.8008088561e+00 
8700 5.9222043050e+00 -2.3738679991e-02 1.6177909040e+00 -2.8020960418e+00 1.6177909040e+00 2.8020960418e+00 
8800 5.9221051221e+00 -2.3427860076e-02 1.6185246352e+00 -2.8033669015e+00 1.6185246352e+00 2.8033669015e+00 
8900 5.9220134196e+00 -2.3100961167e-02 1.6192484304e+00 -2.8046205515e+00 1.6192484304e+00 2.8046205515e+00 
9000 5.9219289724e+00 -2.2758832420e-02 1.6199618063e+00 -2.8058561548e+00 1.6199618063e+00 2.8058561548e+00 
9100 5.9218515478e+00 -2.2402318552e-02 1.6206643067e+00 -2.8070729212e+00 1.6206643067e+00 2.8070729212e+00 
9200 5.9217809065e+00 -2.2032259160e-02 1.6213555020e+00 -2.8082701065e+00 1.6213555020e+00 2.8082701065e+00 
9300 5.9217168029e+00 -2.1649488034e-02 1.6220349889e+00 -2.8094470124e+00 1.6220349889e+00 2.8094470124e+00 
9400 5.9216589868e+00 -2.1254832476e-02 1.6227023904e+00 -2.8106029857e+00 1.6227023904e+00 2.8106029857e+00 
9500 5.9216072031e+00 -2.0849112627e-02 1.6233573553e+00 -2.8117374182e+00 1.6233573553e+00 2.8117374182e+00 
9600 5.9215611934e+00 -2.0433140790e-02 1.6239995579e+00 -2.8128497457e+00 1.6239995579e+00 2.8128497457e+00 
9700 5.9215206967e+00 -2.0007720762e-02 1.6246286978e+00 -2.8139394480e+00 1.6246286978e+00 2.8139394480e+00 
9800 5.9214854499e+00 -1.9573647173e-02 1.6252444996e+00 -2.8150060480e+00 1.6252444996e+00 2.8150060480e+00 
9900 5.9214551887e+00 -1.9131704828e-02 1.6258467122e+00 -2.8160491109e+00 1.6258467122e+00 2.8160491109e+00 
10000 5.9214296484e+00 -1.8682668061e-02 1.6264351090e+00 -2.8170682439e+00 1.6264351090e+00 2.8170682439e+00 
10100 5.9214085650e+00 -1.8227300095e-02 1.6270094868e+00 -2.8180630956e+00 1.6270094868e+00 2.8180630956e+00 
10200 5.9213916752e+00 -1.7766352415e-02 1.6275696663e+00 -2.8190333549e+00 1.6275696663e+00 2.8190333549e+00 
10300 5.9213787180e+00 -1.7300564150e-02 1.6281154907e+00 -2.8199787505e+00 1.6281154907e+00 2.8199787505e+00 
10400 5.9213694345e+00 -1.6830661469e-02 1.6286468260e+00 -2.8208990502e+00 1.6286468260e+00 2.8208990502e+00 
10500 5.9213635694e+00 -1.6357356998e-02 1.6291635602e+00 -2.8217940602e+00 1.6291635602e+00 2.8217940602e+00 
10600 5.9213608711e+00 -1.5881349237e-02 1.6296656030e+00 -2.8226636238e+00 1.6296656030e+00 2.8226636238e+00 
10700 5.9213610924e+00 -1.5403322012e-02 1.6301528852e+00 -2.8235076213e+00 1.6301528852e+00 2.8235076213e+00 
10800 5.9213639914e+00 -1.4923943934e-02 1.6306253583e+00 -2.8243259686e+00 1.6306253583e+00 2.8243259686e+00 
10900 5.9213693314e+00 -1.4443867884e-02 1.6310829938e+00 -2.8251186166e+00 1.6310829938e+00 2.8251186166e+00 
11000 5.9213768823e+00 -1.3963730511e-02 1.6315257831e+00 -2.8258855501e+00 1.6315257831e+00 2.8258855501e+00 
11100 5.9213864201e+00 -1.3484151765e-02 1.6319537365e+00 -2.8266267872e+00 1.6319537365e+00 2.8266267872e+00 
11200 5.9213977282e+00 -1.3005734441e-02 1.6323668830e+00 -2.8273423780e+00 1.6323668830e+00 2.8273423780e+00 
11300 5.9214105970e+00 -1.2529063760e-02 1.6327652697e+00 -2.8280324039e+00 1.6327652697e+00 2.8280324039e+00 
11400 5.9214248250e+00 -1.2054706961e-02 1.6331489609e+00 -2.8286969766e+00 1.6331489609e+00 2.8286969766e+00 
11500 5.9214402184e+00 -1.1583212936e-02 1.6335180381e+00 -2.8293362371e+00 1.6335180381e+00 2.8293362371e+00 
11600 5.9214565921e+00 -1.1115111883e-02 1.6338725990e+00 -2.8299503545e+00 1.6338725990e+00 2.8299503545e+00 
11700 5.9214737693e+00 -1.0650914990e-02 1.6342127570e+00 -2.8305395255e+00 1.6342127570e+00 2.8305395255e+00 
11800 5.9214915821e+00 -1.0191114152e-02 1.6345386408e+00 -2.8311039728e+00 1.6345386408e+00 2.8311039728e+00 
11900 5.9215098713e+00 -9.7361817126e-03 1.6348503935e+00 -2.8316439444e+00 1.6348503935e+00 2.8316439444e+00 
12000 5.9215284870e+00 -9.2865702428e-03 1.6351481724e+00 -2.8321597124e+00 1.6351481724e+00 2.8321597124e+00 
12100 5.9215472881e+00 -8.8427123482e-03 1.6354321478e+00 -2.8326515724e+00 1.6354321478e+00 2.8326515724e+00 
12200 5.9215661428e+00 -8.4050205092e-03 1.6357025032e+00 -2.8331198415e+00 1.6357025032e+00 2.8331198415e+00 
12300 5.9215849285e+00 -7.9738869538e-03 1.6359594338e+00 -2.8335648584e+00 1.6359594338e+00 2.8335648584e+00 
12400 5.9216035315e+00 -7.5496835626e-03 1.6362031465e+00 -2.8339869813e+00 1.6362031465e+00 2.8339869813e+00 
12500 5.9216218474e+00 -7.1327618082e-03 1.6364338594e+00 -2.8343865877e+00 1.6364338594e+00 2.8343865877e+00 
12600 5.9216397806e+00 -6.7234527260e-03 1.6366518004e+00 -2.8347640725e+00 1.6366518004e+00 2.8347640725e+00 
12700 5.9216572442e+00 -6.3220669186e-03 1.6368572073e+00 -2.8351198478e+00 1.6368572073e+00 2.8351198478e+00 
12800 5.9216741602e+00 -5.9288945933e-03 1.6370503271e+00 -2.8354543411e+00 1.6370503271e+00 2.8354543411e+00 
12900 5.9216904590e+00 -5.5442056316e-03 1.6372314151e+00 -2.8357679948e+00 1.6372314151e+00 2.8357679948e+00 
13000 5.9217060792e+00 -5.1682496908e-03 1.6374007346e+00 -2.8360612646e+00 1.6374007346e+00 2.8360612646e+00 
13100 5.9217209676e+00 -4.8012563378e-03 1.6375585558e+00 -2.8363346190e+00 1.6375585558e+00 2.8363346190e+00 
13200 5.9217350786e+00 -4.4434352134e-03 1.6377051560e+00 -2.8365885380e+00 1.6377051560e+00 2.8365885380e+00 
13300 5.9217483743e+00 -4.0949762269e-03 1.6378408183e+00 -2.8368235120e+00 1.6378408183e+00 2.8368235120e+00 
13400 5.9217608240e+00 -3.7560497813e-03 1.6379658313e+00 -2.8370400409e+00 1.6379658313e+00 2.8370400409e+00 
13500 5.9217724037e+00 -3.4268070264e-03 1.6380804886e+00 -2.8372386331e+00 1.6380804886e+00 2.8372386331e+00 
13600 5.9217830964e+00 -3.1073801400e-03 1.6381850879e+00 -2.8374198045e+00 1.6381850879e+00 2.8374198045e+00 
13700 5.9217928911e+00 -2.7978826363e-03 1.6382799310e+00 -2.8375840775e+00 1.6382799310e+00 2.8375840775e+00 
13800 5.9218017828e+00 -2.4984096999e-03 1.6383653226e+00 -2.8377319801e+00 1.6383653226e+00 2.8377319801e+00 
13900 5.9218097722e+00 -2.2090385445e-03 1.6384415702e+00 -2.8378640448e+00 1.6384415702e+00 2.8378640448e+00 
14000 5.9218168650e+00 -1.9298287950e-03 1.6385089835e+00 -2.8379808080e+00 1.6385089835e+00 2.8379808080e+00 
14100 5.9218230721e+00 -1.6608228923e-03 1.6385678736e+00 -2.8380828087e+00 1.6385678736e+00 2.8380828087e+00 
14200 5.9218284087e+00 -1.4020465183e-03 1.6386185530e+00 -2.8381705880e+00 1.6386185530e+00 2.8381705880e+00 
14300 5.9218328943e+00 -1.1535090410e-03 1.6386613345e+00 -2.8382446878e+00 1.6386613345e+00 2.8382446878e+00 
14400 5.9218365519e+00 -9.1520397813e-04 1.6386965313e+00 -2.8383056505e+00 1.6386965313e+00 2.8383056505e+00 
14500 5.9218394083e+00 -6.8710947637e-04 1.6387244562e+00 -2.8383540177e+00 1.6387244562e+00 2.8383540177e+00 
14600 5.9218414932e+00 -4.6918880730e-04 1.6387454210e+00 -2.8383903298e+00 1.6387454210e+00 2.8383903298e+00 
14700 5.9218428392e+00 -2.6139087634e-04 1.6387597365e+00 -2.8384151250e+00 1.6387597365e+00 2.8384151250e+00 
14800 5.9218434810e+00 -6.3650744558e-05 1.6387677118e+00 -2.8384289386e+00 1.6387677118e+00 2.8384289386e+00 
14900 5.9218434549e+00 1.2171474877e-04 1.6387677118e+00 -2.8384289386e+00 1.6387677118e+00 2.8384289386e+00 
15000 5.9218428002e+00 2.9965960444e-04 1.6387639982e+00 -2.8384225064e+00 1.6387639982e+00 2.8384225064e+00 
15100 5.9218415572e+00 4.6781678192e-04 1.6387548553e+00 -2.8384066705e+00 1.6387548553e+00 2.8384066705e+00 
15200 5.9218397672e+00 6.2630130192e-04 1.6387405818e+00 -2.8383819481e+00 1.6387405818e+00 2.8383819481e+00 
15300 5.9218374720e+00 7.7523927895e-04 1.6387214726e+00 -2.8383488500e+00 1.6387214726e+00 2.8383488500e+00 
15400 5.9218347144e+00 9.1476735608e-04 1.6386978189e+00 -2.8383078805e+00 1.6386978189e+00 2.8383078805e+00 
15500 5.9218315373e+00 1.0450321373e-03 1.6386699075e+00 -2.8382595367e+00 1.6386699075e+00 2.8382595367e+00 
15600 5.9218279834e+00 1.1661896187e-03 1.6386380210e+00 -2.8382043077e+00 1.6386380210e+00 2.8382043077e+00 
15700 5.9218240957e+00 1.2784046205e-03 1.6386024371e+00 -2.8381426744e+00 1.6386024371e+00 2.8381426744e+00 
15800 5.9218199163e+00 1.3818502199e-03 1.6385634282e+00 -2.8380751091e+00 1.6385634282e+00 2.8380751091e+00 
15900 5.9218154868e+00 1.4767071870e-03 1.6385212619e+00 -2.8380020749e+00 1.6385212619e+00 2.8380020749e+00 
16000 5.9218108482e+00 1.5631634254e-03 1.6384761999e+00 -2.8379240252e+00 1.6384761999e+00 2.8379240252e+00 
16100 5.9218060403e+00 1.6414134168e-03 1.6384284984e+00 -2.8378414038e+00 1.6384284984e+00 2.8378414038e+00 
16200 5.9218011017e+00 1.7116576725e-03 1.6383784076e+00 -2.8377546439e+00 1.6383784076e+00 2.8377546439e+00 
16300 5.9217960699e+00 1.7741021921e-03 1.6383261715e+00 -2.8376641684e+00 1.6383261715e+00 2.8376641684e+00 
16400 5.9217909807e+00 1.8289579300e-03 1.6382720280e+00 -2.8375703892e+00 1.6382720280e+00 2.8375703892e+00 
16500 5.9217858685e+00 1.8764402717e-03 1.6382162086e+00 -2.8374737071e+00 1.6382162086e+00 2.8374737071e+00 
16600 5.9217807661e+00 1.9167685191e-03 1.6381589381e+00 -2.8373745117e+00 1.6381589381e+00 2.8373745117e+00 
16700 5.9217757044e+00 1.9501653878e-03 1.6381004347e+00 -2.8372731809e+00 1.6381004347e+00 2.8372731809e+00 
16800 5.9217707128e+00 1.9768565143e-03 1.6380409099e+00 -2.8371700808e+00 1.6380409099e+00 2.8371700808e+00 
16900 5.9217658184e+00 1.9970699773e-03 1.6379805682e+00 -2.8370655659e+00 1.6379805682e+00 2.8370655659e+00 
17000 5.9217610468e+00 2.0110358299e-03 1.6379196072e+00 -2.8369599784e+00 1.6379196072e+00 2.8369599784e+00 
17100 5.9217564214e+00 2.0189856462e-03 1.6378582176e+00 -2.8368536485e+00 1.6378582176e+00 2.8368536485e+00 
17200 5.9217519637e+00 2.0211520814e-03 1.6377965831e+00 -2.8367468944e+00 1.6377965831e+00 2.8367468944e+00 
17300 5.9217476933e+00 2.0177684464e-03 1.6377348801e+00 -2.8366400216e+00 1.6377348801e+00 2.8366400216e+00 
17400 5.9217436279e+00 2.0090682966e-03 1.6376732781e+00 -2.8365333238e+00 1.6376732781e+00 2.8365333238e+00 
17500 5.9217397830e+00 1.9952850356e-03 1.6376119393e+00 -2.8364270820e+00 1.6376119393e+00 2.8364270820e+00 
17600 5.9217361723e+00 1.9766515347e-03 1.6375510191e+00 -2.8363215651e+00 1.6375510191e+00 2.8363215651e+00 
17700 5.9217328078e+00 1.9533997673e-03 1.6374906656e+00 -2.8362170298e+00 1.6374906656e+00 2.8362170298e+00 
17800 5.9217296993e+00 1.9257604586e-03 1.6374310199e+00 -2.8361137203e+00 1.6374310199e+00 2.8361137203e+00 
17900 5.9217268550e+00 1.8939627520e-03 1.6373722159e+00 -2.8360118688e+00 1.6373722159e+00 2.8360118688e+00 
18000 5.9217242813e+00 1.8582338898e-03 1.6373143808e+00 -2.8359116955e+00 1.6373143808e+00 2.8359116955e+00 
18100 5.9217219829e+00 1.8187989110e-03 1.6372576347e+00 -2.8358134084e+00 1.6372576347e+00 2.8358134084e+00 
18200 5.9217199630e+00 1.7758803639e-03 1.6372020910e+00 -2.8357172038e+00 1.6372020910e+00 2.8357172038e+00 
18300 5.9217182229e+00 1.7296980347e-03 1.6371478560e+00 -2.8356232662e+00 1.6371478560e+00 2.8356232662e+00 
18400 5.9217167629e+00 1.6804686917e-03 1.6370950298e+00 -2.8355317684e+00 1.6370950298e+00 2.8355317684e+00 
18500 5.9217155815e+00 1.6284058449e-03 1.6370437053e+00 -2.8354428718e+00 1.6370437053e+00 2.8354428718e+00 
18600 5.9217146761e+00 1.5737195205e-03 1.6369939694e+00 -2.8353567267e+00 1.6369939694e+00 2.8353567267e+00 
18700 5.9217140427e+00 1.5166160511e-03 1.6369459023e+00 -2.8352734720e+00 1.6369459023e+00 2.8352734720e+00 
18800 5.9217136763e+00 1.4572978797e-03 1.6368995779e+00 -2.8351932358e+00 1.6368995779e+00 2.8351932358e+00 
18900 5.9217135708e+00 1.3959633796e-03 1.6368550642e+00 -2.8351161357e+00 1.6368550642e+00 2.8351161357e+00 
19000 5.9217137191e+00 1.3328066873e-03 1.6368124227e+00 -2.8350422786e+00 1.6368124227e+00 2.8350422786e+00 
19100 5.9217141132e+00 1.2680175501e-03 1.6367717094e+00 -2.8349717611e+00 1.6367717094e+00 2.8349717611e+00 
19200 5.9217147444e+00 1.2017811868e-03 1.6367329742e+00 -2.8349046698e+00 1.6367329742e+00 2.8349046698e+00 
19300 5.9217156031e+00 1.1342781626e-03 1.6366962616e+00 -2.8348410816e+00 1.6366962616e+00 2.8348410816e+00 
19400 5.9217166792e+00 1.0656842759e-03 1.6366616102e+00 -2.8347810637e+00 1.6366616102e+00 2.8347810637e+00 
19500 5.9217179621e+00 9.9617045846e-04 1.6366290537e+00 -2.8347246741e+00 1.6366290537e+00 2.8347246741e+00 
19600 5.9217194407e+00 9.2590268732e-04 1.6365986202e+00 -2.8346719617e+00 1.6365986202e+00 2.8346719617e+00 
19700 5.9217211035e+00 8.5504190875e-04 1.6365703328e+00 -2.8346229667e+00 1.6365703328e+00 2.8346229667e+00 
19800 5.9217229386e+00 7.8374397365e-04 1.6365442099e+00 -2.8345777204e+00 1.6365442099e+00 2.8345777204e+00 
19900 5.9217249341e+00 7.1215958389e-04 1.6365202649e+00 -2.8345362464e+00 1.6365202649e+00 2.8345362464e+00 
20000 5.9217270778e+00 6.4043424940e-04 1.6364985066e+00 -2.8344985600e+00 1.6364985066e+00 2.8344985600e+00 
20100 5.9217293574e+00 5.6870825533e-04 1.6364789394e+00 -2.8344646686e+00 1.6364789394e+00 2.8344646686e+00 
20200 5.9217317606e+00 4.9711663923e-04 1.6364615635e+00 -2.8344345726e+00 1.6364615635e+00 2.8344345726e+00 
20300 5.9217342752e+00 4.2578917754e-04 1.6364463747e+00 -2.8344082649e+00 1.6364463747e+00 2.8344082649e+00 
20400 5.9217368890e+00 3.5485038109e-04 1.6364333652e+00 -2.8343857317e+00 1.6364333652e+00 2.8343857317e+00 
20500 5.9217395900e+00 2.8441949930e-04 1.6364225230e+00 -2.8343669525e+00 1.6364225230e+00 2.8343669525e+00 
20600 5.9217423665e+00 2.1461053251e-04 1.6364138327e+00 -2.8343519005e+00 1.6364138327e+00 2.8343519005e+00 
20700 5.9217452068e+00 1.4553225225e-04 1.6364072754e+00 -2.8343405429e+00 1.6364072754e+00 2.8343405429e+00 
20800 5.9217480996e+00 7.7288228829e-05 1.6364028287e+00 -2.8343328410e+00 1.6364028287e+00 2.8343328410e+00 
20900 5.9217510342e+00 9.9768660589e-06 1.6364004672e+00 -2.8343287507e+00 1.6364004672e+00 2.8343287507e+00 
21000 5.9217539998e+00 -5.5929657645e-05 1.6364004672e+00 -2.8343287507e+00 1.6364004672e+00 2.8343287507e+00 
21100 5.9217569866e+00 -1.2323659882e-04 1.6364004672e+00 -2.8343287507e+00 1.6364004672e+00 2.8343287507e+00 
21200 5.9217599845e+00 -1.8715619103e-04 1.6364042327e+00 -2.8343352727e+00 1.6364042327e+00 2.8343352727e+00 
21300 5.9217629841e+00 -2.4980205423e-04 1.6364099512e+00 -2.8343451775e+00 1.6364099512e+00 2.8343451775e+00 
21400 5.9217659767e+00 -3.1110078988e-04 1.6364175838e+00 -2.8343583976e+00 1.6364175838e+00 2.8343583976e+00 
21500 5.9217689539e+00 -3.7098383466e-04 1.6364270894e+00 -2.8343748617e+00 1.6364270894e+00 2.8343748617e+00 
21600 5.9217719079e+00 -4.2938738621e-04 1.6364384246e+00 -2.8343944948e+00 1.6364384246e+00 2.8343944948e+00 
21700 5.9217748311e+00 -4.8625232452e-04 1.6364515441e+00 -2.8344172186e+00 1.6364515441e+00 2.8344172186e+00 
21800 5.9217777168e+00 -5.4152412949e-04 1.6364664011e+00 -2.8344429516e+00 1.6364664011e+00 2.8344429516e+00 
21900 5.9217805586e+00 -5.9515279472e-04 1.6364829466e+00 -2.8344716093e+00 1.6364829466e+00 2.8344716093e+00 
22000 5.9217833507e+00 -6.4709273796e-04 1.6365011306e+00 -2.8345031048e+00 1.6365011306e+00 2.8345031048e+00 
22100 5.9217860878e+00 -6.9730270850e-04 1.6365209012e+00 -2.8345373486e+00 1.6365209012e+00 2.8345373486e+00 
22200 5.9217887650e+00 -7.4574569165e-04 1.6365422057e+00 -2.8345742490e+00 1.6365422057e+00 2.8345742490e+00 
22300 5.9217913781e+00 -7.9238881079e-04 1.6365649899e+00 -2.8346137125e+00 1.6365649899e+00 2.8346137125e+00 
22400 5.9217939232e+00 -8.3720322698e-04 1.6365891989e+00 -2.8346556436e+00 1.6365891989e+00 2.8346556436e+00 
22500 5.9217963970e+00 -8.8016403654e-04 1.6366147767e+00 -2.8346999456e+00 1.6366147767e+00 2.8346999456e+00 
22600 5.9217987967e+00 -9.2125016687e-04 1.6366416665e+00 -2.8347465202e+00 1.6366416665e+00 2.8347465202e+00 
22700 5.9218011199e+00 -9.6044427055e-04 1.6366698111e+00 -2.8347952681e+00 1.6366698111e+00 2.8347952681e+00 
22800 5.9218033647e+00 -9.9773261810e-04 1.6366991526e+00 -2.8348460890e+00 1.6366991526e+00 2.8348460890e+00 
22900 5.9218055294e+00 -1.0331049896e-03 1.6367296327e+00 -2.8348988822e+00 1.6367296327e+00 2.8348988822e+00 
23000 5.9218076130e+00 -1.0665545650e-03 1.6367611929e+00 -2.8349535459e+00 1.6367611929e+00 2.8349535459e+00 
23100 5.9218096148e+00 -1.0980778146e-03 1.6367937742e+00 -2.8350099785e+00 1.6367937742e+00 2.8350099785e+00 
23200 5.9218115345e+00 -1.1276743871e-03 1.6368273179e+00 -2.8350680778e+00 1.6368273179e+00 2.8350680778e+00 
23300 5.9218133720e+00 -1.1553469996e-03 1.6368617650e+00 -2.8351277419e+00 1.6368617650e+00 2.8351277419e+00 
23400 5.9218151277e+00 -1.1811013249e-03 1.6368970566e+00 -2.8351888689e+00 1.6368970566e+00 2.8351888689e+00 
23500 5.9218168023e+00 -1.2049458806e-03 1.6369331342e+00 -2.8352513571e+00 1.6369331342e+00 2.8352513571e+00 
23600 5.9218183965e+00 -1.2268919172e-03 1.6369699393e+00 -2.8353151054e+00 1.6369699393e+00 2.8353151054e+00 
23700 5.9218199118e+00 -1.2469533067e-03 1.6370074140e+00 -2.8353800133e+00 1.6370074140e+00 2.8353800133e+00 
23800 5.9218213495e+00 -1.2651464315e-03 1.6370455005e+00 -2.8354459811e+00 1.6370455005e+00 2.8354459811e+00 
23900 5.9218227113e+00 -1.2814900738e-03 1.6370841418e+00 -2.8355129098e+00 1.6370841418e+00 2.8355129098e+00 
24000 5.9218239990e+00 -1.2960053054e-03 1.6371232813e+00 -2.8355807015e+00 1.6371232813e+00 2.8355807015e+00 
24100 5.9218252148e+00 -1.3087153787e-03 1.6371628633e+00 -2.8356492595e+00 1.6371628633e+00 2.8356492595e+00 
24200 5.9218263608e+00 -1.3196456177e-03 1.6372028325e+00 -2.8357184881e+00 1.6372028325e+00 2.8357184881e+00 
24300 5.9218274394e+00 -1.3288233108e-03 1.6372431345e+00 -2.8357882932e+00 1.6372431345e+00 2.8357882932e+00 
24400 5.9218284531e+00 -1.3362776039e-03 1.6372837157e+00 -2.8358585821e+00 1.6372837157e+00 2.8358585821e+00 
24500 5.9218294044e+00 -1.3420393956e-03 1.6373245237e+00 -2.8359292635e+00 1.6373245237e+00 2.8359292635e+00 
24600 5.9218302961e+00 -1.3461412322e-03 1.6373655065e+00 -2.8360002479e+00 1.6373655065e+00 2.8360002479e+00 
24700 5.9218311309e+00 -1.3486172054e-03 1.6374066136e+00 -2.8360714475e+00 1.6374066136e+00 2.8360714475e+00 
24800 5.9218319115e+00 -1.3495028508e-03 1.6374477953e+00 -2.8361427762e+00 1.6374477953e+00 2.8361427762e+00 
24900 5.9218326408e+00 -1.3488350474e-03 1.6374890030e+00 -2.8362141500e+00 1.6374890030e+00 2.8362141500e+00 
25000 5.9218333216e+00 -1.3466519200e-03 1.6375301892e+00 -2.8362854867e+00 1.6375301892e+00 2.8362854867e+00 
25100 5.9218339568e+00 -1.3429927417e-03 1.6375713078e+00 -2.8363567061e+00 1.6375713078e+00 2.8363567061e+00 
25200 5.9218345491e+00 -1.3378978390e-03 1.6376123136e+00 -2.8364277303e+00 1.6376123136e+00 2.8364277303e+00 
25300 5.9218351015e+00 -1.3314084985e-03 1.6376531628e+00 -2.8364984832e+00 1.6376531628e+00 2.8364984832e+00 
25400 5.9218356166e+00 -1.3235668754e-03 1.6376938129e+00 -2.8365688911e+00 1.6376938129e+00 2.8365688911e+00 
25500 5.9218360972e+00 -1.3144159037e-03 1.6377342225e+00 -2.8366388827e+00 1.6377342225e+00 2.8366388827e+00 
25600 5.9218365459e+00 -1.3039992084e-03 1.6377743518e+00 -2.8367083886e+00 1.6377743518e+00 2.8367083886e+00 
25700 5.9218369654e+00 -1.2923610197e-03 1.6378141620e+00 -2.8367773420e+00 1.6378141620e+00 2.8367773420e+00 
25800 5.9218373582e+00 -1.2795460893e-03 1.6378536160e+00 -2.8368456783e+00 1.6378536160e+00 2.8368456783e+00 
25900 5.9218377268e+00 -1.2655996085e-03 1.6378926779e+00 -2.8369133354e+00 1.6378926779e+00 2.8369133354e+00 
26000 5.9218380735e+00 -1.2505671288e-03 1.6379313130e+00 -2.8369802534e+00 1.6379313130e+00 2.8369802534e+00 
26100 5.9218384005e+00 -1.2344944837e-03 1.6379694884e+00 -2.8370463751e+00 1.6379694884e+00 2.8370463751e+00 
26200 5.9218387102e+00 -1.2174277141e-03 1.6380071722e+00 -2.8371116454e+00 1.6380071722e+00 2.8371116454e+00 
26300 5.9218390045e+00 -1.1994129944e-03 1.6380443342e+00 -2.8371760118e+00 1.6380443342e+00 2.8371760118e+00 
26400 5.9218392854e+00 -1.1804965615e-03 1.6380809454e+00 -2.8372394244e+00 1.6380809454e+00 2.8372394244e+00 
26500 5.9218395548e+00 -1.1607246464e-03 1.6381169785e+00 -2.8373018355e+00 1.6381169785e+00 2.8373018355e+00 
26600 5.9218398145e+00 -1.1401434070e-03 1.6381524072e+00 -2.8373631999e+00 1.6381524072e+00 2.8373631999e+00 
26700 5.9218400660e+00 -1.1187988639e-03 1.6381872070e+00 -2.8374234749e+00 1.6381872070e+00 2.8374234749e+00 
26800 5.9218403109e+00 -1.0967368385e-03 1.6382213546e+00 -2.8374826202e+00 1.6382213546e+00 2.8374826202e+00 
26900 5.9218405507e+00 -1.0740028927e-03 1.6382548281e+00 -2.8375405981e+00 1.6382548281e+00 2.8375405981e+00 
27000 5.9218407866e+00 -1.0506422717e-03 1.6382876071e+00 -2.8375973729e+00 1.6382876071e+00 2.8375973729e+00 
27100 5.9218410199e+00 -1.0266998483e-03 1.6383196725e+00 -2.8376529118e+00 1.6383196725e+00 2.8376529118e+00 
27200 5.9218412516e+00 -1.0022200700e-03 1.6383510065e+00 -2.8377071839e+00 1.6383510065e+00 2.8377071839e+00 
27300 5.9218414827e+00 -9.7724690833e-04 1.6383815928e+00 -2.8377601610e+00 1.6383815928e+00 2.8377601610e+00 
27400 5.9218417141e+00 -9.5182380996e-04 1.6384114165e+00 -2.8378118170e+00 1.6384114165e+00 2.8378118170e+00 
27500 5.9218419466e+00 -9.2599365073e-04 1.6384404637e+00 -2.8378621283e+00 1.6384404637e+00 2.8378621283e+00 
27600 5.9218421809e+00 -8.9979869150e-04 1.6384687222e+00 -2.8379110734e+00 1.6384687222e+00 2.8379110734e+00 
27700 5.9218424176e+00 -8.7328053633e-04 1.6384961808e+00 -2.8379586331e+00 1.6384961808e+00 2.8379586331e+00 
27800 5.9218426571e+00 -8.4648009296e-04 1.6385228297e+00 -2.8380047904e+00 1.6385228297e+00 2.8380047904e+00 
27900 5.9218429000e+00 -8.1943753541e-04 1.6385486604e+00 -2.8380495304e+00 1.6385486604e+00 2.8380495304e+00 
28000 5.9218431464e+00 -7.9219226881e-04 1.6385736654e+00 -2.8380928404e+00 1.6385736654e+00 2.8380928404e+00 
28100 5.9218433967e+00 -7.6478289640e-04 1.6385978387e+00 -2.8381347098e+00 1.6385978387e+00 2.8381347098e+00 
28200 5.9218436510e+00 -7.3724718864e-04 1.6386211753e+00 -2.8381751299e+00 1.6386211753e+00 2.8381751299e+00 
28300 5.9218439095e+00 -7.0962205448e-04 1.6386436713e+00 -2.8382140941e+00 1.6386436713e+00 2.8382140941e+00 
28400 5.9218441722e+00 -6.8194351474e-04 1.6386653240e+00 -2.8382515978e+00 1.6386653240e+00 2.8382515978e+00 
28500 5.9218444390e+00 -6.5424667746e-04 1.6386861320e+00 -2.8382876382e+00 1.6386861320e+00 2.8382876382e+00 
28600 5.9218447100e+00 -6.2656571545e-04 1.6387060946e+00 -2.8383222144e+00 1.6387060946e+00 2.8383222144e+00 
28700 5.9218449849e+00 -5.9893384567e-04 1.6387252123e+00 -2.8383553273e+00 1.6387252123e+00 2.8383553273e+00 
28800 5.9218452636e+00 -5.7138331072e-04 1.6387434867e+00 -2.8383869795e+00 1.6387434867e+00 2.8383869795e+00 
28900 5.9218455459e+00 -5.4394536220e-04 1.6387609203e+00 -2.8384171754e+00 1.6387609203e+00 2.8384171754e+00 
29000 5.9218458316e+00 -5.1665024599e-04 1.6387775166e+00 -2.8384459210e+00 1.6387775166e+00 2.8384459210e+00 
29100 5.9218461202e+00 -4.8952718939e-04 1.6387932799e+00 -2.8384732239e+00 1.6387932799e+00 2.8384732239e+00 
29200 5.9218464117e+00 -4.6260439009e-04 1.6388082155e+00 -2.8384990931e+00 1.6388082155e+00 2.8384990931e+00 
29300 5.9218467055e+00 -4.3590900695e-04 1.6388223296e+00 -2.8385235394e+00 1.6388223296e+00 2.8385235394e+00 
29400 5.9218470013e+00 -4.0946715246e-04 1.6388356291e+00 -2.8385465748e+00 1.6388356291e+00 2.8385465748e+00 
29500 5.9218472988e+00 -3.8330388699e-04 1.6388481217e+00 -2.8385682127e+00 1.6388481217e+00 2.8385682127e+00 
29600 5.9218475976e+00 -3.5744321462e-04 1.6388598160e+00 -2.8385884678e+00 1.6388598160e+00 2.8385884678e+00 
29700 5.9218478971e+00 -3.3190808065e-04 1.6388707213e+00 -2.8386073563e+00 1.6388707213e+00 2.8386073563e+00 
29800 5.9218481972e+00 -3.0672037060e-04 1.6388808474e+00 -2.8386248953e+00 1.6388808474e+00 2.8386248953e+00 
29900 5.9218484972e+00 -2.8190091085e-04 1.6388902050e+00 -2.8386411031e+00 1.6388902050e+00 2.8386411031e+00 
30000 5.9218487969e+00 -2.5746947061e-04 1.6388988054e+00 -2.8386559994e+00 1.6388988054e+00 2.8386559994e+00 
30100 5.9218490958e+00 -2.3344476548e-04 1.6389066604e+00 -2.8386696046e+00 1.6389066604e+00 2.8386696046e+00 
30200 5.9218493934e+00 -2.0984446222e-04 1.6389137823e+00 -2.8386819402e+00 1.6389137823e+00 2.8386819402e+00 
30300 5.9218496895e+00 -1.8668518504e-04 1.6389201843e+00 -2.8386930287e+00 1.6389201843e+00 2.8386930287e+00 
30400 5.9218499835e+00 -1.6398252296e-04 1.6389258796e+00 -2.8387028934e+00 1.6389258796e+00 2.8387028934e+00 
30500 5.9218502751e+00 -1.4175103863e-04 1.6389308824e+00 -2.8387115584e+00 1.6389308824e+00 2.8387115584e+00 
30600 5.9218505640e+00 -1.2000427812e-04 1.6389352069e+00 -2.8387190486e+00 1.6389352069e+00 2.8387190486e+00 
30700 5.9218508497e+00 -9.8754782034e-05 1.6389388679e+00 -2.8387253898e+00 1.6389388679e+00 2.8387253898e+00 
30800 5.9218511320e+00 -7.8014097546e-05 1.6389418807e+00 -2.8387306080e+00 1.6389418807e+00 2.8387306080e+00 
30900 5.9218514105e+00 -5.7792791594e-05 1.6389442607e+00 -2.8387347303e+00 1.6389442607e+00 2.8387347303e+00 
31000 5.9218516850e+00 -4.0278474683e-05 1.6389442607e+00 -2.8387347303e+00 1.6389442607e+00 2.8387347303e+00 
31100 5.9218519550e+00 -2.2575464610e-05 1.6389442607e+00 -2.8387347303e+00 1.6389442607e+00 2.8387347303e+00 
31200 5.9218522203e+00 -4.7065840378e-06 1.6389442607e+00 -2.8387347303e+00 1.6389442607e+00 2.8387347303e+00 
31300 5.9218524807e+00 1.3305942505e-05 1.6389442607e+00 -2.8387347303e+00 1.6389442607e+00 2.8387347303e+00 
31400 5.9218527360e+00 3.1440489429e-05 1.6389442607e+00 -2.8387347303e+00 1.6389442607e+00 2.8387347303e+00 
31500 5.9218529861e+00 4.9676030377e-05 1.6389442607e+00 -2.8387347303e+00 1.6389442607e+00 2.8387347303e+00 
31600 5.9218532309e+00 6.7992138052e-05 1.6389442607e+00 -2.8387347303e+00 1.6389442607e+00 2.8387347303e+00 
31700 5.9218534701e+00 8.6368983572e-05 1.6389442607e+00 -2.8387347303e+00 1.6389442607e+00 2.8387347303e+00 
31800 5.9218537034e+00 1.0153184975e-04 1.6389416258e+00 -2.8387301666e+00 1.6389416258e+00 2.8387301666e+00 
31900 5.9218539309e+00 1.1612235577e-04 1.6389385283e+00 -2.8387248016e+00 1.6389385283e+00 2.8387248016e+00 
32000 5.9218541523e+00 1.3013948497e-04 1.6389349857e+00 -2.8387186656e+00 1.6389349857e+00 2.8387186656e+00 
32100 5.9218543676e+00 1.4358298710e-04 1.6389310155e+00 -2.8387117889e+00 1.6389310155e+00 2.8387117889e+00 
32200 5.9218545769e+00 1.5645335589e-04 1.6389266351e+00 -2.8387042019e+00 1.6389266351e+00 2.8387042019e+00 
32300 5.9218547799e+00 1.6875180632e-04 1.6389218621e+00 -2.8386959347e+00 1.6389218621e+00 2.8386959347e+00 
32400 5.9218549768e+00 1.8048025151e-04 1.6389167138e+00 -2.8386870177e+00 1.6389167138e+00 2.8386870177e+00 
32500 5.9218551676e+00 1.9164127936e-04 1.6389112077e+00 -2.8386774809e+00 1.6389112077e+00 2.8386774809e+00 
32600 5.9218553521e+00 2.0223812901e-04 1.6389053611e+00 -2.8386673543e+00 1.6389053611e+00 2.8386673543e+00 
32700 5.9218555306e+00 2.1227466706e-04 1.6388991912e+00 -2.8386566677e+00 1.6388991912e+00 2.8386566677e+00 
32800 5.9218557030e+00 2.2175536367e-04 1.6388927151e+00 -2.8386454507e+00 1.6388927151e+00 2.8386454507e+00 
32900 5.9218558693e+00 2.3068526860e-04 1.6388859497e+00 -2.8386337327e+00 1.6388859497e+00 2.8386337327e+00 
33000 5.9218560298e+00 2.3906998710e-04 1.6388789118e+00 -2.8386215427e+00 1.6388789118e+00 2.8386215427e+00 
33100 5.9218561844e+00 2.4691565578e-04 1.6388716181e+00 -2.8386089097e+00 1.6388716181e+00 2.8386089097e+00 
33200 5.9218563333e+00 2.5422891860e-04 1.6388640850e+00 -2.8385958620e+00 1.6388640850e+00 2.8385958620e+00 
33300 5.9218564766e+00 2.6101690271e-04 1.6388563288e+00 -2.8385824278e+00 1.6388563288e+00 2.8385824278e+00 
33400 5.9218566143e+00 2.6728719452e-04 1.6388483654e+00 -2.8385686348e+00 1.6388483654e+00 2.8385686348e+00 
33500 5.9218567468e+00 2.7304781579e-04 1.6388402107e+00 -2.8385545104e+00 1.6388402107e+00 2.8385545104e+00 
33600 5.9218568740e+00 2.7830719989e-04 1.6388318802e+00 -2.8385400815e+00 1.6388318802e+00 2.8385400815e+00 
33700 5.9218569962e+00 2.8307416816e-04 1.6388233892e+00 -2.8385253747e+00 1.6388233892e+00 2.8385253747e+00 
33800 5.9218571134e+00 2.8735790658e-04 1.6388147527e+00 -2.8385104158e+00 1.6388147527e+00 2.8385104158e+00 
33900 5.9218572259e+00 2.9116794253e-04 1.6388059854e+00 -2.8384952305e+00 1.6388059854e+00 2.8384952305e+00 
34000 5.9218573338e+00 2.9451412188e-04 1.6387971019e+00 -2.8384798438e+00 1.6387971019e+00 2.8384798438e+00 
34100 5.9218574373e+00 2.9740658629e-04 1.6387881162e+00 -2.8384642801e+00 1.6387881162e+00 2.8384642801e+00 
34200 5.9218575366e+00 2.9985575089e-04 1.6387790422e+00 -2.8384485635e+00 1.6387790422e+00 2.8384485635e+00 
34300 5.9218576318e+00 3.0187228217e-04 1.6387698935e+00 -2.8384327175e+00 1.6387698935e+00 2.8384327175e+00 
34400 5.9218577231e+00 3.0346707626e-04 1.6387606832e+00 -2.8384167647e+00 1.6387606832e+00 2.8384167647e+00 
34500 5.9218578107e+00 3.0465123759e-04 1.6387514241e+00 -2.8384007276e+00 1.6387514241e+00 2.8384007276e+00 
34600 5.9218578947e+00 3.0543605787e-04 1.6387421289e+00 -2.8383846278e+00 1.6387421289e+00 2.8383846278e+00 
34700 5.9218579754e+00 3.0583299554e-04 1.6387328097e+00 -2.8383684865e+00 1.6387328097e+00 2.8383684865e+00 
34800 5.9218580528e+00 3.0585365551e-04 1.6387234783e+00 -2.8383523240e+00 1.6387234783e+00 2.8383523240e+00 
34900 5.9218581272e+00 3.0550976946e-04 1.6387141463e+00 -2.8383361604e+00 1.6387141463e+00 2.8383361604e+00 
35000 5.9218581988e+00 3.0481317650e-04 1.6387048247e+00 -2.8383200149e+00 1.6387048247e+00 2.8383200149e+00 
35100 5.9218582676e+00 3.0377580429e-04 1.6386955242e+00 -2.8383039061e+00 1.6386955242e+00 2.8383039061e+00 
35200 5.9218583339e+00 3.0240965066e-04 1.6386862554e+00 -2.8382878520e+00 1.6386862554e+00 2.8382878520e+00 
35300 5.9218583978e+00 3.0072676566e-04 1.6386770282e+00 -2.8382718701e+00 1.6386770282e+00 2.8382718701e+00 
35400 5.9218584594e+00 2.9873923415e-04 1.6386678523e+00 -2.8382559770e+00 1.6386678523e+00 2.8382559770e+00 
35500 5.9218585190e+00 2.9645915882e-04 1.6386587370e+00 -2.8382401888e+00 1.6386587370e+00 2.8382401888e+00 
35600 5.9218585766e+00 2.9389864379e-04 1.6386496913e+00 -2.8382245211e+00 1.6386496913e+00 2.8382245211e+00 
35700 5.9218586324e+00 2.9106977865e-04 1.6386407236e+00 -2.8382089885e+00 1.6386407236e+00 2.8382089885e+00 
35800 5.9218586864e+00 2.8798462304e-04 1.6386318421e+00 -2.8381936055e+00 1.6386318421e+00 2.8381936055e+00 
35900 5.9218587389e+00 2.8465519181e-04 1.6386230548e+00 -2.8381783853e+00 1.6386230548e+00 2.8381783853e+00 
36000 5.9218587900e+00 2.8109344057e-04 1.6386143690e+00 -2.8381633411e+00 1.6386143690e+00 2.8381633411e+00 
36100 5.9218588397e+00 2.7731125194e-04 1.6386057918e+00 -2.8381484850e+00 1.6386057918e+00 2.8381484850e+00 
36200 5.9218588882e+00 2.7332042216e-04 1.6385973300e+00 -2.8381338287e+00 1.6385973300e+00 2.8381338287e+00 
36300 5.9218589355e+00 2.6913264839e-04 1.6385889900e+00 -2.8381193833e+00 1.6385889900e+00 2.8381193833e+00 
36400 5.9218589818e+00 2.6475951641e-04 1.6385807776e+00 -2.8381051592e+00 1.6385807776e+00 2.8381051592e+00 
36500 5.9218590271e+00 2.6021248892e-04 1.6385726987e+00 -2.8380911661e+00 1.6385726987e+00 2.8380911661e+00 
36600 5.9218590716e+00 2.5550289441e-04 1.6385647585e+00 -2.8380774132e+00 1.6385647585e+00 2.8380774132e+00 
36700 5.9218591153e+00 2.5064191644e-04 1.6385569620e+00 -2.8380639092e+00 1.6385569620e+00 2.8380639092e+00 
36800 5.9218591582e+00 2.4564058357e-04 1.6385493137e+00 -2.8380506621e+00 1.6385493137e+00 2.8380506621e+00 
36900 5.9218592005e+00 2.4050975977e-04 1.6385418180e+00 -2.8380376792e+00 1.6385418180e+00 2.8380376792e+00 
37000 5.9218592422e+00 2.3526013529e-04 1.6385344789e+00 -2.8380249674e+00 1.6385344789e+00 2.8380249674e+00 
37100 5.9218592833e+00 2.2990221816e-04 1.6385272999e+00 -2.8380125331e+00 1.6385272999e+00 2.8380125331e+00 
37200 5.9218593239e+00 2.2444632614e-04 1.6385202844e+00 -2.8380003819e+00 1.6385202844e+00 2.8380003819e+00 
37300 5.9218593641e+00 2.1890257916e-04 1.6385134354e+00 -2.8379885190e+00 1.6385134354e+00 2.8379885190e+00 
37400 5.9218594038e+00 2.1328089227e-04 1.6385067555e+00 -2.8379769490e+00 1.6385067555e+00 2.8379769490e+00 
37500 5.9218594432e+00 2.0759096915e-04 1.6385002471e+00 -2.8379656762e+00 1.6385002471e+00 2.8379656762e+00 
37600 5.9218594822e+00 2.0184229599e-04 1.6384939123e+00 -2.8379547040e+00 1.6384939123e+00 2.8379547040e+00 
37700 5.9218595208e+00 1.9604413598e-04 1.6384877529e+00 -2.8379440356e+00 1.6384877529e+00 2.8379440356e+00 
37800 5.9218595592e+00 1.9020552414e-04 1.6384817705e+00 -2.8379336737e+00 1.6384817705e+00 2.8379336737e+00 
37900 5.9218595972e+00 1.8433526272e-04 1.6384759661e+00 -2.8379236203e+00 1.6384759661e+00 2.8379236203e+00 
38000 5.9218596350e+00 1.7844191700e-04 1.6384703409e+00 -2.8379138772e+00 1.6384703409e+00 2.8379138772e+00 
38100 5.9218596725e+00 1.7253381155e-04 1.6384648956e+00 -2.8379044455e+00 1.6384648956e+00 2.8379044455e+00 
38200 5.9218597097e+00 1.6661902692e-04 1.6384596304e+00 -2.8378953261e+00 1.6384596304e+00 2.8378953261e+00 
38300 5.9218597467e+00 1.6070539678e-04 1.6384545458e+00 -2.8378865193e+00 1.6384545458e+00 2.8378865193e+00 
38400 5.9218597834e+00 1.5480050545e-04 1.6384496417e+00 -2.8378780250e+00 1.6384496417e+00 2.8378780250e+00 
38500 5.9218598198e+00 1.4891168584e-04 1.6384449177e+00 -2.8378698428e+00 1.6384449177e+00 2.8378698428e+00 
38600 5.9218598560e+00 1.4304601780e-04 1.6384403734e+00 -2.8378619718e+00 1.6384403734e+00 2.8378619718e+00 
38700 5.9218598919e+00 1.3721032684e-04 1.6384360081e+00 -2.8378544109e+00 1.6384360081e+00 2.8378544109e+00 
38800 5.9218599275e+00 1.3141118327e-04 1.6384318208e+00 -2.8378471584e+00 1.6384318208e+00 2.8378471584e+00 
38900 5.9218599629e+00 1.2565490162e-04 1.6384278106e+00 -2.8378402124e+00 1.6384278106e+00 2.8378402124e+00 
39000 5.9218599980e+00 1.1994754048e-04 1.6384239759e+00 -2.8378335707e+00 1.6384239759e+00 2.8378335707e+00 
39100 5.9218600327e+00 1.1429490271e-04 1.6384203155e+00 -2.8378272306e+00 1.6384203155e+00 2.8378272306e+00 
39200 5.9218600672e+00 1.0870253584e-04 1.6384168275e+00 -2.8378211892e+00 1.6384168275e+00 2.8378211892e+00 
39300 5.9218601013e+00 1.0317573300e-04 1.6384135102e+00 -2.8378154435e+00 1.6384135102e+00 2.8378154435e+00 
39400 5.9218601351e+00 9.7719533939e-05 1.6384103616e+00 -2.8378099899e+00 1.6384103616e+00 2.8378099899e+00 
39500 5.9218601686e+00 9.2338726527e-05 1.6384073794e+00 -2.8378048247e+00 1.6384073794e+00 2.8378048247e+00 
39600 5.9218602017e+00 8.7037848415e-05 1.6384045615e+00 -2.8377999439e+00 1.6384045615e+00 2.8377999439e+00 
39700 5.9218602344e+00 8.1821189027e-05 1.6384019053e+00 -2.8377953432e+00 1.6384019053e+00 2.8377953432e+00 
39800 5.9218602667e+00 7.6692791812e-05 1.6383994083e+00 -2.8377910183e+00 1.6383994083e+00 2.8377910183e+00 
39900 5.9218602987e+00 7.1656456728e-05 1.6383970679e+00 -2.8377869645e+00 1.6383970679e+00 2.8377869645e+00 
40000 5.9218603302e+00 6.6715742974e-05 1.6383948811e+00 -2.8377831769e+00 1.6383948811e+00 2.8377831769e+00 
40100 5.9218603614e+00 6.4392176362e-05 1.6383948811e+00 -2.8377831769e+00 1.6383948811e+00 2.8377831769e+00 
40200 5.9218603922e+00 6.2006102467e-05 1.6383948811e+00 -2.8377831769e+00 1.6383948811e+00 2.8377831769e+00 
40300 5.9218604225e+00 5.9563189266e-05 1.6383948811e+00 -2.8377831769e+00 1.6383948811e+00 2.8377831769e+00 
40400 5.9218604523e+00 5.7068957705e-05 1.6383948811e+00 -2.8377831769e+00 1.6383948811e+00 2.8377831769e+00 
40500 5.9218604816e+00 5.4528781845e-05 1.6383948811e+00 -2.8377831769e+00 1.6383948811e+00 2.8377831769e+00 
40600 5.9218605105e+00 5.1947889126e-05 1.6383948811e+00 -2.8377831769e+00 1.6383948811e+00 2.8377831769e+00 
40700 5.9218605388e+00 4.9331360708e-05 1.6383948811e+00 -2.8377831769e+00 1.6383948811e+00 2.8377831769e+00 
40800 5.9218605666e+00 4.6684131932e-05 1.6383948811e+00 -2.8377831769e+00 1.6383948811e+00 2.8377831769e+00 
40900 5.9218605939e+00 4.4010992845e-05 1.6383948811e+00 -2.8377831769e+00 1.6383948811e+00 2.8377831769e+00 
41000 5.9218606207e+00 4.1316588849e-05 1.6383948811e+00 -2.8377831769e+00 1.6383948811e+00 2.8377831769e+00 
41100 5.9218606469e+00 3.8605421411e-05 1.6383948811e+00 -2.8377831769e+00 1.6383948811e+00 2.8377831769e+00 
41200 5.9218606727e+00 3.5881848867e-05 1.6383948811e+00 -2.8377831769e+00 1.6383948811e+00 2.8377831769e+00 
41300 5.9218606979e+00 3.3150087313e-05 1.6383948811e+00 -2.8377831769e+00 1.6383948811e+00 2.8377831769e+00 
41400 5.9218607226e+00 3.0414211569e-05 1.6383948811e+00 -2.8377831769e+00 1.6383948811e+00 2.8377831769e+00 
41500 5.9218607468e+00 2.7678156227e-05 1.6383948811e+00 -2.8377831769e+00 1.6383948811e+00 2.8377831769e+00 
41600 5.9218607705e+00 2.4945716763e-05 1.6383948811e+00 -2.8377831769e+00 1.6383948811e+00 2.8377831769e+00 
41700 5.9218607936e+00 2.2220550730e-05 1.6383948811e+00 -2.8377831769e+00 1.6383948811e+00 2.8377831769e+00 
41800 5.9218608163e+00 1.9506179022e-05 1.6383948811e+00 -2.8377831769e+00 1.6383948811e+00 2.8377831769e+00 
41900 5.9218608384e+00 1.6805987197e-05 1.6383948811e+00 -2.8377831769e+00 1.6383948811e+00 2.8377831769e+00 
42000 5.9218608601e+00 1.4123226862e-05 1.6383948811e+00 -2.8377831769e+00 1.6383948811e+00 2.8377831769e+00 
42100 5.9218608812e+00 1.1461017146e-05 1.6383948811e+00 -2.8377831769e+00 1.6383948811e+00 2.8377831769e+00 
42200 5.9218609019e+00 8.8223461870e-06 1.6383948811e+00 -2.8377831769e+00 1.6383948811e+00 2.8377831769e+00 
42300 5.9218609221e+00 6.2100727227e-06 1.6383948811e+00 -2.8377831769e+00 1.6383948811e+00 2.8377831769e+00 
42400 5.9218609418e+00 3.6269277024e-06 1.6383948811e+00 -2.8377831769e+00 1.6383948811e+00 2.8377831769e+00 
42500 5.9218609610e+00 1.0755159721e-06 1.6383948811e+00 -2.8377831769e+00 1.6383948811e+00 2.8377831769e+00 
42600 5.9218609798e+00 -1.4416820073e-06 1.6383948811e+00 -2.8377831769e+00 1.6383948811e+00 2.8377831769e+00 
42700 5.9218609981e+00 -3.9223083808e-06 1.6383948811e+00 -2.8377831769e+00 1.6383948811e+00 2.8377831769e+00 
42800 5.9218610160e+00 -6.3641260786e-06 1.6383948811e+00 -2.8377831769e+00 1.6383948811e+00 2.8377831769e+00 
42900 5.9218610335e+00 -8.7650169598e-06 1.6383948811e+00 -2.8377831769e+00 1.6383948811e+00 2.8377831769e+00 
43000 5.9218610505e+00 -1.1122979908e-05 1.6383948811e+00 -2.8377831769e+00 1.6383948811e+00 2.8377831769e+00 
43100 5.9218610672e+00 -1.3436128892e-05 1.6383948811e+00 -2.8377831769e+00 1.6383948811e+00 2.8377831769e+00 
43200 5.9218610834e+00 -1.5702690983e-05 1.6383948811e+00 -2.8377831769e+00 1.6383948811e+00 2.8377831769e+00 
43300 5.9218610992e+00 -1.7921004355e-05 1.6383948811e+00 -2.8377831769e+00 1.6383948811e+00 2.8377831769e+00 
43400 5.9218611146e+00 -2.0089516237e-05 1.6383948811e+00 -2.8377831769e+00 1.6383948811e+00 2.8377831769e+00 
43500 5.9218611297e+00 -2.2206780839e-05 1.6383948811e+00 -2.8377831769e+00 1.6383948811e+00 2.8377831769e+00 
43600 5.9218611444e+00 -2.4271457265e-05 1.6383948811e+00 -2.8377831769e+00 1.6383948811e+00 2.8377831769e+00 
43700 5.9218611588e+00 -2.6282307379e-05 1.6383948811e+00 -2.8377831769e+00 1.6383948811e+00 2.8377831769e+00 
43800 5.9218611728e+00 -2.8238193669e-05 1.6383948811e+00 -2.8377831769e+00 1.6383948811e+00 2.8377831769e+00 
43900 5.9218611865e+00 -3.0138077072e-05 1.6383948811e+00 -2.8377831769e+00 1.6383948811e+00 2.8377831769e+00 
44000 5.9218611998e+00 -3.1981014797e-05 1.6383948811e+00 -2.8377831769e+00 1.6383948811e+00 2.8377831769e+00 
44100 5.9218612129e+00 -3.3766158116e-05 1.6383948811e+00 -2.8377831769e+00 1.6383948811e+00 2.8377831769e+00 
44200 5.9218612256e+00 -3.5492750156e-05 1.6383948811e+00 -2.8377831769e+00 1.6383948811e+00 2.8377831769e+00 
44300 5.9218612381e+00 -3.7160123664e-05 1.6383948811e+00 -2.8377831769e+00 1.6383948811e+00 2.8377831769e+00 
44400 5.9218612503e+00 -3.8767698771e-05 1.6383948811e+00 -2.8377831769e+00 1.6383948811e+00 2.8377831769e+00 
44500 5.9218612622e+00 -4.0314980741e-05 1.6383948811e+00 -2.8377831769e+00 1.6383948811e+00 2.8377831769e+00 
44600 5.9218612738e+00 -4.1801557722e-05 1.6383948811e+00 -2.8377831769e+00 1.6383948811e+00 2.8377831769e+00 
44700 5.9218612852e+00 -4.3227098481e-05 1.6383948811e+00 -2.8377831769e+00 1.6383948811e+00 2.8377831769e+00 
44800 5.9218612963e+00 -4.4591350139e-05 1.6383948811e+00 -2.8377831769e+00 1.6383948811e+00 2.8377831769e+00 
44900 5.9218613073e+00 -4.5894135918e-05 1.6383948811e+00 -2.8377831769e+00 1.6383948811e+00 2.8377831769e+00 
45000 5.9218613179e+00 -4.7135352862e-05 1.6383948811e+00 -2.8377831769e+00 1.6383948811e+00 2.8377831769e+00 
45100 5.9218613284e+00 -4.8314969590e-05 1.6383948811e+00 -2.8377831769e+00 1.6383948811e+00 2.8377831769e+00 
45200 5.9218613386e+00 -4.9433024028e-05 1.6383948811e+00 -2.8377831769e+00 1.6383948811e+00 2.8377831769e+00 
45300 5.9218613487e+00 -5.0489621162e-05 1.6383948811e+00 -2.8377831769e+00 1.6383948811e+00 2.8377831769e+00 
45400 5.9218613586e+00 -5.1484930792e-05 1.6383948811e+00 -2.8377831769e+00 1.6383948811e+00 2.8377831769e+00 
45500 5.9218613682e+00 -5.2419185296e-05 1.6383948811e+00 -2.8377831769e+00 1.6383948811e+00 2.8377831769e+00 
45600 5.9218613777e+00 -5.3292677402e-05 1.6383948811e+00 -2.8377831769e+00 1.6383948811e+00 2.8377831769e+00 
45700 5.9218613870e+00 -5.4105757976e-05 1.6383948811e+00 -2.8377831769e+00 1.6383948811e+00 2.8377831769e+00 
45800 5.9218613962e+00 -5.4858833824e-05 1.6383948811e+00 -2.8377831769e+00 1.6383948811e+00 2.8377831769e+00 
45900 5.9218614052e+00 -5.5552365498e-05 1.6383948811e+00 -2.8377831769e+00 1.6383948811e+00 2.8377831769e+00 
46000 5.9218614140e+00 -5.6186865138e-05 1.6383948811e+00 -2.8377831769e+00 1.6383948811e+00 2.8377831769e+00 
46100 5.9218614227e+00 -5.6762894307e-05 1.6383948811e+00 -2.8377831769e+00 1.6383948811e+00 2.8377831769e+00 
46200 5.9218614312e+00 -5.7281061866e-05 1.6383948811e+00 -2.8377831769e+00 1.6383948811e+00 2.8377831769e+00 
46300 5.9218614396e+00 -5.7742021855e-05 1.6383948811e+00 -2.8377831769e+00 1.6383948811e+00 2.8377831769e+00 
46400 5.9218614478e+00 -5.8146471406e-05 1.6383948811e+00 -2.8377831769e+00 1.6383948811e+00 2.8377831769e+00 
46500 5.9218614560e+00 -5.8495148669e-05 1.6383948811e+00 -2.8377831769e+00 1.6383948811e+00 2.8377831769e+00 
46600 5.9218614640e+00 -5.8788830769e-05 1.6383948811e+00 -2.8377831769e+00 1.6383948811e+00 2.8377831769e+00 
46700 5.9218614719e+00 -5.9028331780e-05 1.6383948811e+00 -2.8377831769e+00 1.6383948811e+00 2.8377831769e+00 
46800 5.9218614796e+00 -5.9214500731e-05 1.6383948811e+00 -2.8377831769e+00 1.6383948811e+00 2.8377831769e+00 
46900 5.9218614873e+00 -5.9348219642e-05 1.6383948811e+00 -2.8377831769e+00 1.6383948811e+00 2.8377831769e+00 
47000 5.9218614948e+00 -5.9430401574e-05 1.6383948811e+00 -2.8377831769e+00 1.6383948811e+00 2.8377831769e+00 
47100 5.9218615022e+00 -5.9461988726e-05 1.6383948811e+00 -2.8377831769e+00 1.6383948811e+00 2.8377831769e+00 
47200 5.9218615096e+00 -5.9443950543e-05 1.6383948811e+00 -2.8377831769e+00 1.6383948811e+00 2.8377831769e+00 
47300 5.9218615168e+00 -5.9377281869e-05 1.6383948811e+00 -2.8377831769e+00 1.6383948811e+00 2.8377831769e+00 
47400 5.9218615239e+00 -5.9263001124e-05 1.6383948811e+00 -2.8377831769e+00 1.6383948811e+00 2.8377831769e+00 
47500 5.9218615309e+00 -5.9102148516e-05 1.6383948811e+00 -2.8377831769e+00 1.6383948811e+00 2.8377831769e+00 
47600 5.9218615378e+00 -5.8895784283e-05 1.6383948811e+00 -2.8377831769e+00 1.6383948811e+00 2.8377831769e+00 
47700 5.9218615447e+00 -5.8644986969e-05 1.6383948811e+00 -2.8377831769e+00 1.6383948811e+00 2.8377831769e+00 
47800 5.9218615514e+00 -5.8350851738e-05 1.6383948811e+00 -2.8377831769e+00 1.6383948811e+00 2.8377831769e+00 
47900 5.9218615581e+00 -5.8014488713e-05 1.6383948811e+00 -2.8377831769e+00 1.6383948811e+00 2.8377831769e+00 
48000 5.9218615646e+00 -5.7637021364e-05 1.6383948811e+00 -2.8377831769e+00 1.6383948811e+00 2.8377831769e+00 
48100 5.9218615711e+00 -5.7219584919e-05 1.6383948811e+00 -2.8377831769e+00 1.6383948811e+00 2.8377831769e+00 
48200 5.9218615775e+00 -5.6763324816e-05 1.6383948811e+00 -2.8377831769e+00 1.6383948811e+00 2.8377831769e+00 
48300 5.9218615838e+00 -5.6269395196e-05 1.6383948811e+00 -2.8377831769e+00 1.6383948811e+00 2.8377831769e+00 
48400 5.9218615900e+00 -5.5738957423e-05 1.6383948811e+00 -2.8377831769e+00 1.6383948811e+00 2.8377831769e+00 
48500 5.9218615962e+00 -5.5173178649e-05 1.6383948811e+00 -2.8377831769e+00 1.6383948811e+00 2.8377831769e+00 
48600 5.9218616022e+00 -5.4573230414e-05 1.6383948811e+00 -2.8377831769e+00 1.6383948811e+00 2.8377831769e+00 
48700 5.9218616082e+00 -5.3940287285e-05 1.6383948811e+00 -2.8377831769e+00 1.6383948811e+00 2.8377831769e+00 
48800 5.9218616141e+00 -5.3275525528e-05 1.6383948811e+00 -2.8377831769e+00 1.6383948811e+00 2.8377831769e+00 
48900 5.9218616200e+00 -5.2580121828e-05 1.6383948811e+00 -2.8377831769e+00 1.6383948811e+00 2.8377831769e+00 
49000 5.9218616257e+00 -5.1855252034e-05 1.6383948811e+00 -2.8377831769e+00 1.6383948811e+00 2.8377831769e+00 
49100 5.9218616314e+00 -5.1102089956e-05 1.6383948811e+00 -2.8377831769e+00 1.6383948811e+00 2.8377831769e+00 
49200 5.9218616370e+00 -5.0321806191e-05 1.6383948811e+00 -2.8377831769e+00 1.6383948811e+00 2.8377831769e+00 
49300 5.9218616425e+00 -4.9515566989e-05 1.6383948811e+00 -2.8377831769e+00 1.6383948811e+00 2.8377831769e+00 
49400 5.9218616479e+00 -4.8684533166e-05 1.6383948811e+00 -2.8377831769e+00 1.6383948811e+00 2.8377831769e+00 
49500 5.9218616533e+00 -4.7829859036e-05 1.6383948811e+00 -2.8377831769e+00 1.6383948811e+00 2.8377831769e+00 
49600 5.9218616586e+00 -4.6952691405e-05 1.6383948811e+00 -2.8377831769e+00 1.6383948811e+00 2.8377831769e+00 
49700 5.9218616638e+00 -4.6054168592e-05 1.6383948811e+00 -2.8377831769e+00 1.6383948811e+00 2.8377831769e+00 
49800 5.9218616690e+00 -4.5135419476e-05 1.6383948811e+00 -2.8377831769e+00 1.6383948811e+00 2.8377831769e+00 
49900 5.9218616741e+00 -4.4197562607e-05 1.6383948811e+00 -2.8377831769e+00 1.6383948811e+00 2.8377831769e+00 
50000 5.9218616791e+00 -4.3241705334e-05 1.6383948811e+00 -2.8377831769e+00 1.6383948811e+00 2.8377831769e+00 
50100 5.9218616840e+00 -4.2268942981e-05 1.6383948811e+00 -2.8377831769e+00 1.6383948811e+00 2.8377831769e+00 
50200 5.9218616889e+00 -4.1280358046e-05 1.6383948811e+00 -2.8377831769e+00 1.6383948811e+00 2.8377831769e+00 
50300 5.9218616937e+00 -4.0277019464e-05 1.6383948811e+00 -2.8377831769e+00 1.6383948811e+00 2.8377831769e+00 
50400 5.9218616984e+00 -3.9259981881e-05 1.6383948811e+00 -2.8377831769e+00 1.6383948811e+00 2.8377831769e+00 
50500 5.9218617031e+00 -3.8230284968e-05 1.6383948811e+00 -2.8377831769e+00 1.6383948811e+00 2.8377831769e+00 
50600 5.9218617076e+00 -3.7188952788e-05 1.6383948811e+00 -2.8377831769e+00 1.6383948811e+00 2.8377831769e+00 
50700 5.9218617122e+00 -3.6136993179e-05 1.6383948811e+00 -2.8377831769e+00 1.6383948811e+00 2.8377831769e+00 
50800 5.9218617166e+00 -3.5075397184e-05 1.6383948811e+00 -2.8377831769e+00 1.6383948811e+00 2.8377831769e+00 
50900 5.9218617210e+00 -3.4005138507e-05 1.6383948811e+00 -2.8377831769e+00 1.6383948811e+00 2.8377831769e+00 
51000 5.9218617253e+00 -3.2927173014e-05 1.6383948811e+00 -2.8377831769e+00 1.6383948811e+00 2.8377831769e+00 
51100 5.9218617296e+00 -3.1842438259e-05 1.6383948811e+00 -2.8377831769e+00 1.6383948811e+00 2.8377831769e+00 
51200 5.9218617338e+00 -3.0751853043e-05 1.6383948811e+00 -2.8377831769e+00 1.6383948811e+00 2.8377831769e+00 
51300 5.9218617379e+00 -2.9656317009e-05 1.6383948811e+00 -2.8377831769e+00 1.6383948811e+00 2.8377831769e+00 
51400 5.9218617420e+00 -2.8556710277e-05 1.6383948811e+00 -2.8377831769e+00 1.6383948811e+00 2.8377831769e+00 
51500 5.9218617460e+00 -2.7453893091e-05 1.6383948811e+00 -2.8377831769e+00 1.6383948811e+00 2.8377831769e+00 
51600 5.9218617499e+00 -2.6348705515e-05 1.6383948811e+00 -2.8377831769e+00 1.6383948811e+00 2.8377831769e+00 
51700 5.9218617538e+00 -2.5241967150e-05 1.6383948811e+00 -2.8377831769e+00 1.6383948811e+00 2.8377831769e+00 
51800 5.9218617576e+00 -2.4134476888e-05 1.6383948811e+00 -2.8377831769e+00 1.6383948811e+00 2.8377831769e+00 
51900 5.9218617613e+00 -2.3027012686e-05 1.6383948811e+00 -2.8377831769e+00 1.6383948811e+00 2.8377831769e+00 
52000 5.9218617650e+00 -2.1920331371e-05 1.6383948811e+00 -2.8377831769e+00 1.6383948811e+00 2.8377831769e+00 
52100 5.9218617687e+00 -2.0815168489e-05 1.6383948811e+00 -2.8377831769e+00 1.6383948811e+00 2.8377831769e+00 
52200 5.9218617723e+00 -1.9712238153e-05 1.6383948811e+00 -2.8377831769e+00 1.6383948811e+00 2.8377831769e+00 
52300 5.9218617758e+00 -1.8612232937e-05 1.6383948811e+00 -2.8377831769e+00 1.6383948811e+00 2.8377831769e+00 
52400 5.9218617792e+00 -1.7515823801e-05 1.6383948811e+00 -2.8377831769e+00 1.6383948811e+00 2.8377831769e+00 
52500 5.9218617827e+00 -1.6423660014e-05 1.6383948811e+00 -2.8377831769e+00 1.6383948811e+00 2.8377831769e+00 
52600 5.9218617860e+00 -1.5336369135e-05 1.6383948811e+00 -2.8377831769e+00 1.6383948811e+00 2.8377831769e+00 
52700 5.9218617893e+00 -1.4254556994e-05 1.6383948811e+00 -2.8377831769e+00 1.6383948811e+00 2.8377831769e+00 
52800 5.9218617926e+00 -1.3178807709e-05 1.6383948811e+00 -2.8377831769e+00 1.6383948811e+00 2.8377831769e+00 
52900 5.9218617957e+00 -1.2109683721e-05 1.6383948811e+00 -2.8377831769e+00 1.6383948811e+00 2.8377831769e+00 
53000 5.9218617989e+00 -1.1047725847e-05 1.6383948811e+00 -2.8377831769e+00 1.6383948811e+00 2.8377831769e+00 
53100 5.9218618020e+00 -9.9934533630e-06 1.6383948811e+00 -2.8377831769e+00 1.6383948811e+00 2.8377831769e+00 
53200 5.9218618050e+00 -8.9473641020e-06 1.6383948811e+00 -2.8377831769e+00 1.6383948811e+00 2.8377831769e+00 
53300 5.9218618080e+00 -7.9099345689e-06 1.6383948811e+00 -2.8377831769e+00 1.6383948811e+00 2.8377831769e+00 
53400 5.9218618110e+00 -6.8816200830e-06 1.6383948811e+00 -2.8377831769e+00 1.6383948811e+00 2.8377831769e+00 
53500 5.9218618139e+00 -5.8628549313e-06 1.6383948811e+00 -2.8377831769e+00 1.6383948811e+00 2.8377831769e+00 
53600 5.9218618167e+00 -4.8540525436e-06 1.6383948811e+00 -2.8377831769e+00 1.6383948811e+00 2.8377831769e+00 
53700 5.9218618195e+00 -3.8556056791e-06 1.6383948811e+00 -2.8377831769e+00 1.6383948811e+00 2.8377831769e+00 
53800 5.9218618223e+00 -2.8678866399e-06 1.6383948811e+00 -2.8377831769e+00 1.6383948811e+00 2.8377831769e+00 
53900 5.9218618250e+00 -1.8912474846e-06 1.6383948811e+00 -2.8377831769e+00 1.6383948811e+00 2.8377831769e+00 
54000 5.9218618277e+00 -9.2602027226e-07 1.6383948811e+00 -2.8377831769e+00 1.6383948811e+00 2.8377831769e+00 
54100 5.9218618303e+00 2.7482687440e-08 1.6383948811e+00 -2.8377831769e+00 1.6383948811e+00 2.8377831769e+00 
54200 5.9218618329e+00 9.6896857376e-07 1.6383948811e+00 -2.8377831769e+00 1.6383948811e+00 2.8377831769e+00 
54300 5.9218618354e+00 1.8981637721e-06 1.6383948811e+00 -2.8377831769e+00 1.6383948811e+00 2.8377831769e+00 
54400 5.9218618379e+00 2.8148135884e-06 1.6383948811e+00 -2.8377831769e+00 1.6383948811e+00 2.8377831769e+00 
54500 5.9218618404e+00 3.7186819465e-06 1.6383948811e+00 -2.8377831769e+00 1.6383948811e+00 2.8377831769e+00 
54600 5.9218618428e+00 4.6095510769e-06 1.6383948811e+00 -2.8377831769e+00 1.6383948811e+00 2.8377831769e+00 
54700 5.9218618452e+00 5.4872211977e-06 1.6383948811e+00 -2.8377831769e+00 1.6383948811e+00 2.8377831769e+00 
54800 5.9218618476e+00 6.3515101728e-06 1.6383948811e+00 -2.8377831769e+00 1.6383948811e+00 2.8377831769e+00 
54900 5.9218618499e+00 7.2022531881e-06 1.6383948811e+00 -2.8377831769e+00 1.6383948811e+00 2.8377831769e+00 
55000 5.9218618522e+00 8.0393023909e-06 1.6383948811e+00 -2.8377831769e+00 1.6383948811e+00 2.8377831769e+00 
55100 5.9218618544e+00 8.8625265386e-06 1.6383948811e+00 -2.8377831769e+00 1.6383948811e+00 2.8377831769e+00 
55200 5.9218618566e+00 9.6718106350e-06 1.6383948811e+00 -2.8377831769e+00 1.6383948811e+00 2.8377831769e+00 
55300 5.9218618588e+00 1.0467055560e-05 1.6383948811e+00 -2.8377831769e+00 1.6383948811e+00 2.8377831769e+00 
55400 5.9218618610e+00 1.1248177700e-05 1.6383948811e+00 -2.8377831769e+00 1.6383948811e+00 2.8377831769e+00 
55500 5.9218618631e+00 1.2015108560e-05 1.6383948811e+00 -2.8377831769e+00 1.6383948811e+00 2.8377831769e+00 
55600 5.9218618652e+00 1.2767794384e-05 1.6383948811e+00 -2.8377831769e+00 1.6383948811e+00 2.8377831769e+00 
55700 5.9218618672e+00 1.3506195765e-05 1.6383948811e+00 -2.8377831769e+00 1.6383948811e+00 2.8377831769e+00 
55800 5.9218618692e+00 1.4230287251e-05 1.6383948811e+00 -2.8377831769e+00 1.6383948811e+00 2.8377831769e+00 
55900 5.9218618712e+00 1.4940056952e-05 1.6383948811e+00 -2.8377831769e+00 1.6383948811e+00 2.8377831769e+00 
56000 5.9218618732e+00 1.5635506142e-05 1.6383948811e+00 -2.8377831769e+00 1.6383948811e+00 2.8377831769e+00 
56100 5.9218618751e+00 1.6316648855e-05 1.6383948811e+00 -2.8377831769e+00 1.6383948811e+00 2.8377831769e+00 
56200 5.9218618770e+00 1.6983511488e-05 1.6383948811e+00 -2.8377831769e+00 1.6383948811e+00 2.8377831769e+00 
56300 5.9218618789e+00 1.7636132400e-05 1.6383948811e+00 -2.8377831769e+00 1.6383948811e+00 2.8377831769e+00 
56400 5.9218618807e+00 1.8274561500e-05 1.6383948811e+00 -2.8377831769e+00 1.6383948811e+00 2.8377831769e+00 
56500 5.9218618825e+00 1.8898859857e-05 1.6383948811e+00 -2.8377831769e+00 1.6383948811e+00 2.8377831769e+00 
56600 5.9218618843e+00 1.9509099287e-05 1.6383948811e+00 -2.8377831769e+00 1.6383948811e+00 2.8377831769e+00 
56700 5.9218618861e+00 2.0105361954e-05 1.6383948811e+00 -2.8377831769e+00 1.6383948811e+00 2.8377831769e+00 
56800 5.9218618878e+00 2.0687739973e-05 1.6383948811e+00 -2.8377831769e+00 1.6383948811e+00 2.8377831769e+00 
56900 5.9218618895e+00 2.1256335003e-05 1.6383948811e+00 -2.8377831769e+00 1.6383948811e+00 2.8377831769e+00 
57000 5.9218618912e+00 2.1811257859e-05 1.6383948811e+00 -2.8377831769e+00 1.6383948811e+00 2.8377831769e+00 
57100 5.9218618929e+00 2.2352628112e-05 1.6383948811e+00 -2.8377831769e+00 1.6383948811e+00 2.8377831769e+00 
57200 5.9218618945e+00 2.2880573695e-05 1.6383948811e+00 -2.8377831769e+00 1.6383948811e+00 2.8377831769e+00 
57300 5.9218618961e+00 2.3395230518e-05 1.6383948811e+00 -2.8377831769e+00 1.6383948811e+00 2.8377831769e+00 
57400 5.9218618977e+00 2.3896742084e-05 1.6383948811e+00 -2.8377831769e+00 1.6383948811e+00 2.8377831769e+00 
57500 5.9218618993e+00 2.4385259102e-05 1.6383948811e+00 -2.8377831769e+00 1.6383948811e+00 2.8377831769e+00 
57600 5.9218619008e+00 2.4860939109e-05 1.6383948811e+00 -2.8377831769e+00 1.6383948811e+00 2.8377831769e+00 
57700 5.9218619024e+00 2.5323946102e-05 1.6383948811e+00 -2.8377831769e+00 1.6383948811e+00 2.8377831769e+00 
57800 5.9218619039e+00 2.5774450165e-05 1.6383948811e+00 -2.8377831769e+00 1.6383948811e+00 2.8377831769e+00 
57900 5.9218619053e+00 2.6212627104e-05 1.6383948811e+00 -2.8377831769e+00 1.6383948811e+00 2.8377831769e+00 
58000 5.9218619068e+00 2.6638658091e-05 1.6383948811e+00 -2.8377831769e+00 1.6383948811e+00 2.8377831769e+00 
58100 5.9218619082e+00 2.7052729308e-05 1.6383948811e+00 -2.8377831769e+00 1.6383948811e+00 2.8377831769e+00 
58200 5.9218619097e+00 2.7455031598e-05 1.6383948811e+00 -2.8377831769e+00 1.6383948811e+00 2.8377831769e+00 
58300 5.9218619111e+00 2.7845760129e-05 1.6383948811e+00 -2.8377831769e+00 1.6383948811e+00 2.8377831769e+00 
58400 5.9218619124e+00 2.8225114048e-05 1.6383948811e+00 -2.8377831769e+00 1.6383948811e+00 2.8377831769e+00 
58500 5.9218619138e+00 2.8593296156e-05 1.6383948811e+00 -2.8377831769e+00 1.6383948811e+00 2.8377831769e+00 
58600 5.9218619151e+00 2.8950512588e-05 1.6383948811e+00 -2.8377831769e+00 1.6383948811e+00 2.8377831769e+00 
58700 5.9218619165e+00 2.9296972485e-05 1.6383948811e+00 -2.8377831769e+00 1.6383948811e+00 2.8377831769e+00 
58800 5.9218619178e+00 2.9632887695e-05 1.6383948811e+00 -2.8377831769e+00 1.6383948811e+00 2.8377831769e+00 
58900 5.9218619191e+00 2.9958472461e-05 1.6383948811e+00 -2.8377831769e+00 1.6383948811e+00 2.8377831769e+00 
59000 5.9218619203e+00 3.0273943126e-05 1.6383948811e+00 -2.8377831769e+00 1.6383948811e+00 2.8377831769e+00 
59100 5.9218619216e+00 3.0579517845e-05 1.6383948811e+00 -2.8377831769e+00 1.6383948811e+00 2.8377831769e+00 
59200 5.9218619228e+00 3.0875416301e-05 1.6383948811e+00 -2.8377831769e+00 1.6383948811e+00 2.8377831769e+00 
59300 5.9218619240e+00 3.1161859426e-05 1.6383948811e+00 -2.8377831769e+00 1.6383948811e+00 2.8377831769e+00 
59400 5.9218619252e+00 3.1439069141e-05 1.6383948811e+00 -2.8377831769e+00 1.6383948811e+00 2.8377831769e+00 
59500 5.9218619264e+00 3.1707268084e-05 1.6383948811e+00 -2.8377831769e+00 1.6383948811e+00 2.8377831769e+00 
59600 5.9218619276e+00 3.1966679365e-05 1.6383948811e+00 -2.8377831769e+00 1.6383948811e+00 2.8377831769e+00 
59700 5.9218619287e+00 3.2217526319e-05 1.6383948811e+00 -2.8377831769e+00 1.6383948811e+00 2.8377831769e+00 
59800 5.9218619298e+00 3.2460032262e-05 1.6383948811e+00 -2.8377831769e+00 1.6383948811e+00 2.8377831769e+00 
59900 5.9218619309e+00 3.2694420267e-05 1.6383948811e+00 -2.8377831769e+00 1.6383948811e+00 2.8377831769e+00 
60000 5.9218619320e+00 3.2920912936e-05 1.6383948811e+00 -2.8377831769e+00 1.6383948811e+00 2.8377831769e+00 
60100 5.9218619331e+00 3.3139732185e-05 1.6383948811e+00 -2.8377831769e+00 1.6383948811e+00 2.8377831769e+00 
60200 5.9218619342e+00 3.3351099039e-05 1.6383948811e+00 -2.8377831769e+00 1.6383948811e+00 2.8377831769e+00 
60300 5.9218619352e+00 3.3555233424e-05 1.6383948811e+00 -2.8377831769e+00 1.6383948811e+00 2.8377831769e+00 
60400 5.9218619363e+00 3.3752353986e-05 1.6383948811e+00 -2.8377831769e+00 1.6383948811e+00 2.8377831769e+00 
60500 5.9218619373e+00 3.3942677892e-05 1.6383948811e+00 -2.8377831769e+00 1.6383948811e+00 2.8377831769e+00 
60600 5.9218619383e+00 3.4126420663e-05 1.6383948811e+00 -2.8377831769e+00 1.6383948811e+00 2.8377831769e+00 
60700 5.9218619393e+00 3.4303795997e-05 1.6383948811e+00 -2.8377831769e+00 1.6383948811e+00 2.8377831769e+00 
60800 5.9218619403e+00 3.4475015611e-05 1.6383948811e+00 -2.8377831769e+00 1.6383948811e+00 2.8377831769e+00 
60900 5.9218619412e+00 3.4640289077e-05 1.6383948811e+00 -2.8377831769e+00 1.6383948811e+00 2.8377831769e+00 
61000 5.9218619422e+00 3.4799823687e-05 1.6383948811e+00 -2.8377831769e+00 1.6383948811e+00 2.8377831769e+00 
61100 5.9218619431e+00 3.4953824296e-05 1.6383948811e+00 -2.8377831769e+00 1.6383948811e+00 2.8377831769e+00 
61200 5.9218619441e+00 3.5102493206e-05 1.6383948811e+00 -2.8377831769e+00 1.6383948811e+00 2.8377831769e+00 
61300 5.9218619450e+00 3.5246030023e-05 1.6383948811e+00 -2.8377831769e+00 1.6383948811e+00 2.8377831769e+00 
61400 5.9218619459e+00 3.5384631547e-05 1.6383948811e+00 -2.8377831769e+00 1.6383948811e+00 2.8377831769e+00 
61500 5.9218619468e+00 3.5518491657e-05 1.6383948811e+00 -2.8377831769e+00 1.6383948811e+00 2.8377831769e+00 
61600 5.9218619476e+00 3.5647801206e-05 1.6383948811e+00 -2.8377831769e+00 1.6383948811e+00 2.8377831769e+00 
61700 5.9218619485e+00 3.5772747916e-05 1.6383948811e+00 -2.8377831769e+00 1.6383948811e+00 2.8377831769e+00 
61800 5.9218619493e+00 3.5893516298e-05 1.6383948811e+00 -2.8377831769e+00 1.6383948811e+00 2.8377831769e+00 
61900 5.9218619502e+00 3.6010287553e-05 1.6383948811e+00 -2.8377831769e+00 1.6383948811e+00 2.8377831769e+00 
62000 5.9218619510e+00 3.6123239502e-05 1.6383948811e+00 -2.8377831769e+00 1.6383948811e+00 2.8377831769e+00 
62100 5.9218619518e+00 3.6232546507e-05 1.6383948811e+00 -2.8377831769e+00 1.6383948811e+00 2.8377831769e+00 
62200 5.9218619526e+00 3.6338379405e-05 1.6383948811e+00 -2.8377831769e+00 1.6383948811e+00 2.8377831769e+00 
62300 5.9218619534e+00 3.6440905452e-05 1.6383948811e+00 -2.8377831769e+00 1.6383948811e+00 2.8377831769e+00 
62400 5.9218619542e+00 3.6540288265e-05 1.6383948811e+00 -2.8377831769e+00 1.6383948811e+00 2.8377831769e+00 
62500 5.9218619549e+00 3.6636687769e-05 1.6383948811e+00 -2.8377831769e+00 1.6383948811e+00 2.8377831769e+00 
62600 5.9218619557e+00 3.6730260162e-05 1.6383948811e+00 -2.8377831769e+00 1.6383948811e+00 2.8377831769e+00 
62700 5.9218619564e+00 3.6821157868e-05 1.6383948811e+00 -2.8377831769e+00 1.6383948811e+00 2.8377831769e+00 
62800 5.9218619572e+00 3.6909529514e-05 1.6383948811e+00 -2.8377831769e+00 1.6383948811e+00 2.8377831769e+00 
62900 5.9218619579e+00 3.6995519895e-05 1.6383948811e+00 -2.8377831769e+00 1.6383948811e+00 2.8377831769e+00 
63000 5.9218619586e+00 3.7079269958e-05 1.6383948811e+00 -2.8377831769e+00 1.6383948811e+00 2.8377831769e+00 
63100 5.9218619593e+00 3.7160916782e-05 1.6383948811e+00 -2.8377831769e+00 1.6383948811e+00 2.8377831769e+00 
63200 5.9218619600e+00 3.7240593565e-05 1.6383948811e+00 -2.8377831769e+00 1.6383948811e+00 2.8377831769e+00 
63300 5.9218619607e+00 3.7318429621e-05 1.6383948811e+00 -2.8377831769e+00 1.6383948811e+00 2.8377831769e+00 
63400 5.9218619614e+00 3.7394550373e-05 1.6383948811e+00 -2.8377831769e+00 1.6383948811e+00 2.8377831769e+00 
63500 5.9218619620e+00 3.7469077360e-05 1.6383948811e+00 -2.8377831769e+00 1.6383948811e+00 2.8377831769e+00 
63600 5.9218619627e+00 3.7542128233e-05 1.6383948811e+00 -2.8377831769e+00 1.6383948811e+00 2.8377831769e+00 
63700 5.9218619633e+00 3.7613816779e-05 1.6383948811e+00 -2.8377831769e+00 1.6383948811e+00 2.8377831769e+00 
63800 5.9218619640e+00 3.7684252924e-05 1.6383948811e+00 -2.8377831769e+00 1.6383948811e+00 2.8377831769e+00 
63900 5.9218619646e+00 3.7753542756e-05 1.6383948811e+00 -2.8377831769e+00 1.6383948811e+00 2.8377831769e+00 
64000 5.9218619652e+00 3.7821788547e-05 1.6383948811e+00 -2.8377831769e+00 1.6383948811e+00 2.8377831769e+00 
64100 5.9218619658e+00 3.7889088775e-05 1.6383948811e+00 -2.8377831769e+00 1.6383948811e+00 2.8377831769e+00 
64200 5.9218619664e+00 3.7955538159e-05 1.6383948811e+00 -2.8377831769e+00 1.6383948811e+00 2.8377831769e+00 
64300 5.9218619670e+00 3.8021227682e-05 1.6383948811e+00 -2.8377831769e+00 1.6383948811e+00 2.8377831769e+00 
64400 5.9218619676e+00 3.8086244637e-05 1.6383948811e+00 -2.8377831769e+00 1.6383948811e+00 2.8377831769e+00 
64500 5.9218619682e+00 3.8150672655e-05 1.6383948811e+00 -2.8377831769e+00 1.6383948811e+00 2.8377831769e+00 
64600 5.9218619687e+00 3.8214591753e-05 1.6383948811e+00 -2.8377831769e+00 1.6383948811e+00 2.8377831769e+00 
64700 5.9218619693e+00 3.8278078372e-05 1.6383948811e+00 -2.8377831769e+00 1.6383948811e+00 2.8377831769e+00 
64800 5.9218619699e+00 3.8341205432e-05 1.6383948811e+00 -2.8377831769e+00 1.6383948811e+00 2.8377831769e+00 
64900 5.9218619704e+00 3.8404042371e-05 1.6383948811e+00 -2.8377831769e+00 1.6383948811e+00 2.8377831769e+00 
65000 5.9218619709e+00 3.8466655202e-05 1.6383948811e+00 -2.8377831769e+00 1.6383948811e+00 2.8377831769e+00 
65100 5.9218619715e+00 3.8529106564e-05 1.6383948811e+00 -2.8377831769e+00 1.6383948811e+00 2.8377831769e+00 
65200 5.9218619720e+00 3.8591455780e-05 1.6383948811e+00 -2.8377831769e+00 1.6383948811e+00 2.8377831769e+00 
65300 5.9218619725e+00 3.8653758910e-05 1.6383948811e+00 -2.8377831769e+00 1.6383948811e+00 2.8377831769e+00 
65400 5.9218619730e+00 3.8716068811e-05 1.6383948811e+00 -2.8377831769e+00 1.6383948811e+00 2.8377831769e+00 
65500 5.9218619735e+00 3.8778435202e-05 1.6383948811e+00 -2.8377831769e+00 1.6383948811e+00 2.8377831769e+00 
65600 5.9218619740e+00 3.8840904719e-05 1.6383948811e+00 -2.8377831769e+00 1.6383948811e+00 2.8377831769e+00 
65700 5.9218619745e+00 3.8903520985e-05 1.6383948811e+00 -2.8377831769e+00 1.6383948811e+00 2.8377831769e+00 
65800 5.9218619750e+00 3.8966324671e-05 1.6383948811e+00 -2.8377831769e+00 1.6383948811e+00 2.8377831769e+00 
65900 5.9218619754e+00 3.9029353561e-05 1.6383948811e+00 -2.8377831769e+00 1.6383948811e+00 2.8377831769e+00 
66000 5.9218619759e+00 3.9092642626e-05 1.6383948811e+00 -2.8377831769e+00 1.6383948811e+00 2.8377831769e+00 
66100 5.9218619764e+00 3.9156224080e-05 1.6383948811e+00 -2.8377831769e+00 1.6383948811e+00 2.8377831769e+00 
66200 5.9218619768e+00 3.9220127463e-05 1.6383948811e+00 -2.8377831769e+00 1.6383948811e+00 2.8377831769e+00 
66300 5.9218619773e+00 3.9284379697e-05 1.6383948811e+00 -2.8377831769e+00 1.6383948811e+00 2.8377831769e+00 
66400 5.9218619777e+00 3.9349005166e-05 1.6383948811e+00 -2.8377831769e+00 1.6383948811e+00 2.8377831769e+00 
66500 5.9218619781e+00 3.9414025783e-05 1.6383948811e+00 -2.8377831769e+00 1.6383948811e+00 2.8377831769e+00 
66600 5.9218619786e+00 3.9479461057e-05 1.6383948811e+00 -2.8377831769e+00 1.6383948811e+00 2.8377831769e+00 
66700 5.9218619790e+00 3.9545328175e-05 1.6383948811e+00 -2.8377831769e+00 1.6383948811e+00 2.8377831769e+00 
66800 5.9218619794e+00 3.9611642063e-05 1.6383948811e+00 -2.8377831769e+00 1.6383948811e+00 2.8377831769e+00 
66900 5.9218619798e+00 3.9678415459e-05 1.6383948811e+00 -2.8377831769e+00 1.6383948811e+00 2.8377831769e+00 
67000 5.9218619802e+00 3.9745658994e-05 1.6383948811e+00 -2.8377831769e+00 1.6383948811e+00 2.8377831769e+00 
67100 5.9218619806e+00 3.9813381255e-05 1.6383948811e+00 -2.8377831769e+00 1.6383948811e+00 2.8377831769e+00 
67200 5.9218619810e+00 3.9881588855e-05 1.6383948811e+00 -2.8377831769e+00 1.6383948811e+00 2.8377831769e+00 
67300 5.9218619814e+00 3.9950286514e-05 1.6383948811e+00 -2.8377831769e+00 1.6383948811e+00 2.8377831769e+00 
67400 5.9218619818e+00 4.0019477120e-05 1.6383948811e+00 -2.8377831769e+00 1.6383948811e+00 2.8377831769e+00 
67500 5.9218619821e+00 4.0089161809e-05 1.6383948811e+00 -2.8377831769e+00 1.6383948811e+00 2.8377831769e+00 
67600 5.9218619825e+00 4.0159340025e-05 1.6383948811e+00 -2.8377831769e+00 1.6383948811e+00 2.8377831769e+00 
67700 5.9218619829e+00 4.0230009602e-05 1.6383948811e+00 -2.8377831769e+00 1.6383948811e+00 2.8377831769e+00 
67800 5.9218619832e+00 4.0301166822e-05 1.6383948811e+00 -2.8377831769e+00 1.6383948811e+00 2.8377831769e+00 
67900 5.9218619836e+00 4.0372806492e-05 1.6383948811e+00 -2.8377831769e+00 1.6383948811e+00 2.8377831769e+00 
68000 5.9218619840e+00 4.0444922006e-05 1.6383948811e+00 -2.8377831769e+00 1.6383948811e+00 2.8377831769e+00 
68100 5.9218619843e+00 4.0517505418e-05 1.6383948811e+00 -2.8377831769e+00 1.6383948811e+00 2.8377831769e+00 
68200 5.9218619846e+00 4.0590547501e-05 1.6383948811e+00 -2.8377831769e+00 1.6383948811e+00 2.8377831769e+00 
68300 5.9218619850e+00 4.0664037824e-05 1.6383948811e+00 -2.8377831769e+00 1.6383948811e+00 2.8377831769e+00 
68400 5.9218619853e+00 4.0737964804e-05 1.6383948811e+00 -2.8377831769e+00 1.6383948811e+00 2.8377831769e+00 
68500 5.9218619856e+00 4.0812315779e-05 1.6383948811e+00 -2.8377831769e+00 1.6383948811e+00 2.8377831769e+00 
68600 5.9218619860e+00 4.0887077065e-05 1.6383948811e+00 -2.8377831769e+00 1.6383948811e+00 2.8377831769e+00 
68700 5.9218619863e+00 4.0962234027e-05 1.6383948811e+00 -2.8377831769e+00 1.6383948811e+00 2.8377831769e+00 
68800 5.9218619866e+00 4.1037771125e-05 1.6383948811e+00 -2.8377831769e+00 1.6383948811e+00 2.8377831769e+00 
68900 5.9218619869e+00 4.1113671987e-05 1.6383948811e+00 -2.8377831769e+00 1.6383948811e+00 2.8377831769e+00 
69000 5.9218619872e+00 4.1189919464e-05 1.6383948811e+00 -2.8377831769e+00 1.6383948811e+00 2.8377831769e+00 
69100 5.9218619875e+00 4.1266495682e-05 1.6383948811e+00 -2.8377831769e+00 1.6383948811e+00 2.8377831769e+00 
69200 5.9218619878e+00 4.1343382104e-05 1.6383948811e+00 -2.8377831769e+00 1.6383948811e+00 2.8377831769e+00 
69300 5.9218619881e+00 4.1420559585e-05 1.6383948811e+00 -2.8377831769e+00 1.6383948811e+00 2.8377831769e+00 
69400 5.9218619884e+00 4.1498008421e-05 1.6383948811e+00 -2.8377831769e+00 1.6383948811e+00 2.8377831769e+00 
69500 5.9218619887e+00 4.1575708408e-05 1.6383948811e+00 -2.8377831769e+00 1.6383948811e+00 2.8377831769e+00 
69600 5.9218619890e+00 4.1653638886e-05 1.6383948811e+00 -2.8377831769e+00 1.6383948811e+00 2.8377831769e+00 
69700 5.9218619892e+00 4.1731778794e-05 1.6383948811e+00 -2.8377831769e+00 1.6383948811e+00 2.8377831769e+00 
69800 5.9218619895e+00 4.1810106719e-05 1.6383948811e+00 -2.8377831769e+00 1.6383948811e+00 2.8377831769e+00 
69900 5.9218619898e+00 4.1888600941e-05 1.6383948811e+00 -2.8377831769e+00 1.6383948811e+00 2.8377831769e+00 
70000 5.9218619901e+00 4.1967239477e-05 1.6383948811e+00 -2.8377831769e+00 1.6383948811e+00 2.8377831769e+00 
70100 5.9218619903e+00 4.2046000132e-05 1.6383948811e+00 -2.8377831769e+00 1.6383948811e+00 2.8377831769e+00 
70200 5.9218619906e+00 4.2124860533e-05 1.6383948811e+00 -2.8377831769e+00 1.6383948811e+00 2.8377831769e+00 
70300 5.9218619908e+00 4.2203798181e-05 1.6383948811e+00 -2.8377831769e+00 1.6383948811e+00 2.8377831769e+00 
70400 5.9218619911e+00 4.2282790486e-05 1.6383948811e+00 -2.8377831769e+00 1.6383948811e+00 2.8377831769e+00 
70500 5.9218619913e+00 4.2361814802e-05 1.6383948811e+00 -2.8377831769e+00 1.6383948811e+00 2.8377831769e+00 
70600 5.9218619916e+00 4.2440848478e-05 1.6383948811e+00 -2.8377831769e+00 1.6383948811e+00 2.8377831769e+00 
70700 5.9218619918e+00 4.2519868879e-05 1.6383948811e+00 -2.8377831769e+00 1.6383948811e+00 2.8377831769e+00 
70800 5.9218619921e+00 4.2598853429e-05 1.6383948811e+00 -2.8377831769e+00 1.6383948811e+00 2.8377831769e+00 
70900 5.9218619923e+00 4.2677779646e-05 1.6383948811e+00 -2.8377831769e+00 1.6383948811e+00 2.8377831769e+00 
71000 5.9218619925e+00 4.2756625172e-05 1.6383948811e+00 -2.8377831769e+00 1.6383948811e+00 2.8377831769e+00 
71100 5.9218619928e+00 4.2835367803e-05 1.6383948811e+00 -2.8377831769e+00 1.6383948811e+00 2.8377831769e+00 
71200 5.9218619930e+00 4.2913985521e-05 1.6383948811e+00 -2.8377831769e+00 1.6383948811e+00 2.8377831769e+00 
71300 5.9218619932e+00 4.2992456517e-05 1.6383948811e+00 -2.8377831769e+00 1.6383948811e+00 2.8377831769e+00 
71400 5.9218619934e+00 4.3070759228e-05 1.6383948811e+00 -2.8377831769e+00 1.6383948811e+00 2.8377831769e+00 
71500 5.9218619936e+00 4.3148872352e-05 1.6383948811e+00 -2.8377831769e+00 1.6383948811e+00 2.8377831769e+00 
71600 5.9218619939e+00 4.3226774881e-05 1.6383948811e+00 -2.8377831769e+00 1.6383948811e+00 2.8377831769e+00 
71700 5.9218619941e+00 4.3304446117e-05 1.6383948811e+00 -2.8377831769e+00 1.6383948811e+00 2.8377831769e+00 
71800 5.9218619943e+00 4.3381865701e-05 1.6383948811e+00 -2.8377831769e+00 1.6383948811e+00 2.8377831769e+00 
71900 5.9218619945e+00 4.3459013626e-05 1.6383948811e+00 -2.8377831769e+00 1.6383948811e+00 2.8377831769e+00 
72000 5.9218619947e+00 4.3535870262e-05 1.6383948811e+00 -2.8377831769e+00 1.6383948811e+00 2.8377831769e+00 
72100 5.9218619949e+00 4.3612416376e-05 1.6383948811e+00 -2.8377831769e+00 1.6383948811e+00 2.8377831769e+00 
72200 5.9218619951e+00 4.3688633142e-05 1.6383948811e+00 -2.8377831769e+00 1.6383948811e+00 2.8377831769e+00 
72300 5.9218619953e+00 4.3764502161e-05 1.6383948811e+00 -2.8377831769e+00 1.6383948811e+00 2.8377831769e+00 
72400 5.9218619955e+00 4.3840005476e-05 1.6383948811e+00 -2.8377831769e+00 1.6383948811e+00 2.8377831769e+00 
72500 5.9218619957e+00 4.3915125587e-05 1.6383948811e+00 -2.8377831769e+00 1.6383948811e+00 2.8377831769e+00 
72600 5.9218619959e+00 4.3989845458e-05 1.6383948811e+00 -2.8377831769e+00 1.6383948811e+00 2.8377831769e+00 
72700 5.9218619960e+00 4.4064148535e-05 1.6383948811e+00 -2.8377831769e+00 1.6383948811e+00 2.8377831769e+00 
72800 5.9218619962e+00 4.4138018752e-05 1.6383948811e+00 -2.8377831769e+00 1.6383948811e+00 2.8377831769e+00 
72900 5.9218619964e+00 4.4211440541e-05 1.6383948811e+00 -2.8377831769e+00 1.6383948811e+00 2.8377831769e+00 
73000 5.9218619966e+00 4.4284398844e-05 1.6383948811e+00 -2.8377831769e+00 1.6383948811e+00 2.8377831769e+00 
73100 5.9218619967e+00 4.4356879117e-05 1.6383948811e+00 -2.8377831769e+00 1.6383948811e+00 2.8377831769e+00 
73200 5.9218619969e+00 4.4428867335e-05 1.6383948811e+00 -2.8377831769e+00 1.6383948811e+00 2.8377831769e+00 
73300 5.9218619971e+00 4.4500350002e-05 1.6383948811e+00 -2.8377831769e+00 1.6383948811e+00 2.8377831769e+00 
73400 5.9218619973e+00 4.4571314150e-05 1.6383948811e+00 -2.8377831769e+00 1.6383948811e+00 2.8377831769e+00 
73500 5.9218619974e+00 4.4641747350e-05 1.6383948811e+00 -2.8377831769e+00 1.6383948811e+00 2.8377831769e+00 
73600 5.9218619976e+00 4.4711637707e-05 1.6383948811e+00 -2.8377831769e+00 1.6383948811e+00 2.8377831769e+00 
73700 5.9218619977e+00 4.4780973868e-05 1.6383948811e+00 -2.8377831769e+00 1.6383948811e+00 2.8377831769e+00 
73800 5.9218619979e+00 4.4849745022e-05 1.6383948811e+00 -2.8377831769e+00 1.6383948811e+00 2.8377831769e+00 
73900 5.9218619981e+00 4.4917940899e-05 1.6383948811e+00 -2.8377831769e+00 1.6383948811e+00 2.8377831769e+00 
74000 5.9218619982e+00 4.4985551768e-05 1.6383948811e+00 -2.8377831769e+00 1.6383948811e+00 2.8377831769e+00 
74100 5.9218619984e+00 4.5052568441e-05 1.6383948811e+00 -2.8377831769e+00 1.6383948811e+00 2.8377831769e+00 
74200 5.9218619985e+00 4.5118982268e-05 1.6383948811e+00 -2.8377831769e+00 1.6383948811e+00 2.8377831769e+00 
74300 5.9218619987e+00 4.5184785135e-05 1.6383948811e+00 -2.8377831769e+00 1.6383948811e+00 2.8377831769e+00 
74400 5.9218619988e+00 4.5249969460e-05 1.6383948811e+00 -2.8377831769e+00 1.6383948811e+00 2.8377831769e+00 
74500 5.9218619990e+00 4.5314528194e-05 1.6383948811e+00 -2.8377831769e+00 1.6383948811e+00 2.8377831769e+00 
74600 5.9218619991e+00 4.5378454810e-05 1.6383948811e+00 -2.8377831769e+00 1.6383948811e+00 2.8377831769e+00 
74700 5.9218619992e+00 4.5441743304e-05 1.6383948811e+00 -2.8377831769e+00 1.6383948811e+00 2.8377831769e+00 
74800 5.9218619994e+00 4.5504388188e-05 1.6383948811e+00 -2.8377831769e+00 1.6383948811e+00 2.8377831769e+00 
74900 5.9218619995e+00 4.5566384481e-05 1.6383948811e+00 -2.8377831769e+00 1.6383948811e+00 2.8377831769e+00 
75000 5.9218619997e+00 4.5627727708e-05 1.6383948811e+00 -2.8377831769e+00 1.6383948811e+00 2.8377831769e+00 
75100 5.9218619998e+00 4.5688413891e-05 1.6383948811e+00 -2.8377831769e+00 1.6383948811e+00 2.8377831769e+00 
75200 5.9218619999e+00 4.5748439538e-05 1.6383948811e+00 -2.8377831769e+00 1.6383948811e+00 2.8377831769e+00 
75300 5.9218620000e+00 4.5807801642e-05 1.6383948811e+00 -2.8377831769e+00 1.6383948811e+00 2.8377831769e+00 
75400 5.9218620002e+00 4.5866497669e-05 1.6383948811e+00 -2.8377831769e+00 1.6383948811e+00 2.8377831769e+00 
75500 5.9218620003e+00 4.5924525547e-05 1.6383948811e+00 -2.8377831769e+00 1.6383948811e+00 2.8377831769e+00 
75600 5.9218620004e+00 4.5981883668e-05 1.6383948811e+00 -2.8377831769e+00 1.6383948811e+00 2.8377831769e+00 
75700 5.9218620005e+00 4.6038570867e-05 1.6383948811e+00 -2.8377831769e+00 1.6383948811e+00 2.8377831769e+00 
75800 5.9218620007e+00 4.6094586416e-05 1.6383948811e+00 -2.8377831769e+00 1.6383948811e+00 2.8377831769e+00 
75900 5.9218620008e+00 4.6149930021e-05 1.6383948811e+00 -2.8377831769e+00 1.6383948811e+00 2.8377831769e+00 
76000 5.9218620009e+00 4.6204601801e-05 1.6383948811e+00 -2.8377831769e+00 1.6383948811e+00 2.8377831769e+00 
76100 5.9218620010e+00 4.6258602290e-05 1.6383948811e+00 -2.8377831769e+00 1.6383948811e+00 2.8377831769e+00 
76200 5.9218620011e+00 4.6311932414e-05 1.6383948811e+00 -2.8377831769e+00 1.6383948811e+00 2.8377831769e+00 
76300 5.9218620013e+00 4.6364593494e-05 1.6383948811e+00 -2.8377831769e+00 1.6383948811e+00 2.8377831769e+00 
76400 5.9218620014e+00 4.6416587224e-05 1.6383948811e+00 -2.8377831769e+00 1.6383948811e+00 2.8377831769e+00 
76500 5.9218620015e+00 4.6467915665e-05 1.6383948811e+00 -2.8377831769e+00 1.6383948811e+00 2.8377831769e+00 
76600 5.9218620016e+00 4.6518581238e-05 1.6383948811e+00 -2.8377831769e+00 1.6383948811e+00 2.8377831769e+00 
76700 5.9218620017e+00 4.6568586700e-05 1.6383948811e+00 -2.8377831769e+00 1.6383948811e+00 2.8377831769e+00 
76800 5.9218620018e+00 4.6617935152e-05 1.6383948811e+00 -2.8377831769e+00 1.6383948811e+00 2.8377831769e+00 
76900 5.9218620019e+00 4.6666630012e-05 1.6383948811e+00 -2.8377831769e+00 1.6383948811e+00 2.8377831769e+00 
77000 5.9218620020e+00 4.6714675006e-05 1.6383948811e+00 -2.8377831769e+00 1.6383948811e+00 2.8377831769e+00 
77100 5.9218620021e+00 4.6762074167e-05 1.6383948811e+00 -2.8377831769e+00 1.6383948811e+00 2.8377831769e+00 
77200 5.9218620022e+00 4.6808831811e-05 1.6383948811e+00 -2.8377831769e+00 1.6383948811e+00 2.8377831769e+00 
77300 5.9218620023e+00 4.6854952534e-05 1.6383948811e+00 -2.8377831769e+00 1.6383948811e+00 2.8377831769e+00 
77400 5.9218620024e+00 4.6900441197e-05 1.6383948811e+00 -2.8377831769e+00 1.6383948811e+00 2.8377831769e+00 
77500 5.9218620025e+00 4.6945302913e-05 1.6383948811e+00 -2.8377831769e+00 1.6383948811e+00 2.8377831769e+00 
77600 5.9218620026e+00 4.6989543042e-05 1.6383948811e+00 -2.8377831769e+00 1.6383948811e+00 2.8377831769e+00 
77700 5.9218620027e+00 4.7033167172e-05 1.6383948811e+00 -2.8377831769e+00 1.6383948811e+00 2.8377831769e+00 
77800 5.9218620028e+00 4.7076181115e-05 1.6383948811e+00 -2.8377831769e+00 1.6383948811e+00 2.8377831769e+00 
77900 5.9218620029e+00 4.7118590892e-05 1.6383948811e+00 -2.8377831769e+00 1.6383948811e+00 2.8377831769e+00 
78000 5.9218620030e+00 4.7160402717e-05 1.6383948811e+00 -2.8377831769e+00 1.6383948811e+00 2.8377831769e+00 
78100 5.9218620031e+00 4.7201623001e-05 1.6383948811e+00 -2.8377831769e+00 1.6383948811e+00 2.8377831769e+00 
78200 5.9218620031e+00 4.7242258324e-05 1.6383948811e+00 -2.8377831769e+00 1.6383948811e+00 2.8377831769e+00 
78300 5.9218620032e+00 4.7282315433e-05 1.6383948811e+00 -2.8377831769e+00 1.6383948811e+00 2.8377831769e+00 
78400 5.9218620033e+00 4.7321801234e-05 1.6383948811e+00 -2.8377831769e+00 1.6383948811e+00 2.8377831769e+00 
78500 5.9218620034e+00 4.7360722772e-05 1.6383948811e+00 -2.8377831769e+00 1.6383948811e+00 2.8377831769e+00 
78600 5.9218620035e+00 4.7399087232e-05 1.6383948811e+00 -2.8377831769e+00 1.6383948811e+00 2.8377831769e+00 
78700 5.9218620036e+00 4.7436901918e-05 1.6383948811e+00 -2.8377831769e+00 1.6383948811e+00 2.8377831769e+00 
78800 5.9218620036e+00 4.7474174252e-05 1.6383948811e+00 -2.8377831769e+00 1.6383948811e+00 2.8377831769e+00 
78900 5.9218620037e+00 4.7510911758e-05 1.6383948811e+00 -2.8377831769e+00 1.6383948811e+00 2.8377831769e+00 
79000 5.9218620038e+00 4.7547122056e-05 1.6383948811e+00 -2.8377831769e+00 1.6383948811e+00 2.8377831769e+00 
79100 5.9218620039e+00 4.7582812850e-05 1.6383948811e+00 -2.8377831769e+00 1.6383948811e+00 2.8377831769e+00 
79200 5.9218620040e+00 4.7617991920e-05 1.6383948811e+00 -2.8377831769e+00 1.6383948811e+00 2.8377831769e+00 
79300 5.9218620040e+00 4.7652667112e-05 1.6383948811e+00 -2.8377831769e+00 1.6383948811e+00 2.8377831769e+00 
79400 5.9218620041e+00 4.7686846329e-05 1.6383948811e+00 -2.8377831769e+00 1.6383948811e+00 2.8377831769e+00 
79500 5.9218620042e+00 4.7720537524e-05 1.6383948811e+00 -2.8377831769e+00 1.6383948811e+00 2.8377831769e+00 
79600 5.9218620043e+00 4.7753748690e-05 1.6383948811e+00 -2.8377831769e+00 1.6383948811e+00 2.8377831769e+00 
79700 5.9218620043e+00 4.7786487852e-05 1.6383948811e+00 -2.8377831769e+00 1.6383948811e+00 2.8377831769e+00 
79800 5.9218620044e+00 4.7818763058e-05 1.6383948811e+00 -2.8377831769e+00 1.6383948811e+00 2.8377831769e+00 
79900 5.9218620045e+00 4.7850582372e-05 1.6383948811e+00 -2.8377831769e+00 1.6383948811e+00 2.8377831769e+00 
80000 5.9218620045e+00 4.7881953866e-05 1.6383948811e+00 -2.8377831769e+00 1.6383948811e+00 2.8377831769e+00 
80100 5.9218620046e+00 4.7912885614e-05 1.6383948811e+00 -2.8377831769e+00 1.6383948811e+00 2.8377831769e+00 
80200 5.9218620047e+00 4.7943385680e-05 1.6383948811e+00 -2.8377831769e+00 1.6383948811e+00 2.8377831769e+00 
80300 5.9218620047e+00 4.7973462120e-05 1.6383948811e+00 -2.8377831769e+00 1.6383948811e+00 2.8377831769e+00 
80400 5.9218620048e+00 4.8003122964e-05 1.6383948811e+00 -2.8377831769e+00 1.6383948811e+00 2.8377831769e+00 
80500 5.9218620049e+00 4.8032376217e-05 1.6383948811e+00 -2.8377831769e+00 1.6383948811e+00 2.8377831769e+00 
80600 5.9218620049e+00 4.8061229852e-05 1.6383948811e+00 -2.8377831769e+00 1.6383948811e+00 2.8377831769e+00 
80700 5.9218620050e+00 4.8089691801e-05 1.6383948811e+00 -2.8377831769e+00 1.6383948811e+00 2.8377831769e+00 
80800 5.9218620051e+00 4.8117769953e-05 1.6383948811e+00 -2.8377831769e+00 1.6383948811e+00 2.8377831769e+00 
80900 5.9218620051e+00 4.8145472142e-05 1.6383948811e+00 -2.8377831769e+00 1.6383948811e+00 2.8377831769e+00 
81000 5.9218620052e+00 4.8172806147e-05 1.6383948811e+00 -2.8377831769e+00 1.6383948811e+00 2.8377831769e+00 
81100 5.9218620052e+00 4.8199779689e-05 1.6383948811e+00 -2.8377831769e+00 1.6383948811e+00 2.8377831769e+00 
81200 5.9218620053e+00 4.8226400416e-05 1.6383948811e+00 -2.8377831769e+00 1.6383948811e+00 2.8377831769e+00 
81300 5.9218620054e+00 4.8252675912e-05 1.6383948811e+00 -2.8377831769e+00 1.6383948811e+00 2.8377831769e+00 
81400 5.9218620054e+00 4.8278613677e-05 1.6383948811e+00 -2.8377831769e+00 1.6383948811e+00 2.8377831769e+00 
81500 5.9218620055e+00 4.8304221137e-05 1.6383948811e+00 -2.8377831769e+00 1.6383948811e+00 2.8377831769e+00 
81600 5.9218620055e+00 4.8329505632e-05 1.6383948811e+00 -2.8377831769e+00 1.6383948811e+00 2.8377831769e+00 
81700 5.9218620056e+00 4.8354474413e-05 1.6383948811e+00 -2.8377831769e+00 1.6383948811e+00 2.8377831769e+00 
81800 5.9218620056e+00 4.8379134639e-05 1.6383948811e+00 -2.8377831769e+00 1.6383948811e+00 2.8377831769e+00 
81900 5.9218620057e+00 4.8403493376e-05 1.6383948811e+00 -2.8377831769e+00 1.6383948811e+00 2.8377831769e+00 
82000 5.9218620057e+00 4.8427557588e-05 1.6383948811e+00 -2.8377831769e+00 1.6383948811e+00 2.8377831769e+00 
82100 5.9218620058e+00 4.8451334141e-05 1.6383948811e+00 -2.8377831769e+00 1.6383948811e+00 2.8377831769e+00 
82200 5.9218620059e+00 4.8474829795e-05 1.6383948811e+00 -2.8377831769e+00 1.6383948811e+00 2.8377831769e+00 
82300 5.9218620059e+00 4.8498051202e-05 1.6383948811e+00 -2.8377831769e+00 1.6383948811e+00 2.8377831769e+00 
82400 5.9218620060e+00 4.8521004905e-05 1.6383948811e+00 -2.8377831769e+00 1.6383948811e+00 2.8377831769e+00 
82500 5.9218620060e+00 4.8543697339e-05 1.6383948811e+00 -2.8377831769e+00 1.6383948811e+00 2.8377831769e+00 
82600 5.9218620061e+00 4.8566134820e-05 1.6383948811e+00 -2.8377831769e+00 1.6383948811e+00 2.8377831769e+00 
82700 5.9218620061e+00 4.8575039819e-05 1.6383948811e+00 -2.8377831769e+00 1.6383948811e+00 2.8377831769e+00 
82700 5.9218620061e+00 4.8575039819e-05 1.6383948811e+00 -2.8377831769e+00 1.6383948811e+00 2.8377831769e+00 
