# step Hamiltonian StressXX CellTensor1 CellTensor2 CellTensor3 CellTensor4 
0 5.0897677430e+00 -2.8783253392e-02 1.6185780433e+00 -2.8034594071e+00 1.6185780433e+00 2.8034594071e+00 
100 5.0779498666e+00 -3.0129193709e-02 1.6185780433e+00 -2.8034594071e+00 1.6185780433e+00 2.8034594071e+00 
200 5.0668070090e+00 -3.0456032447e-02 1.6195088628e+00 -2.8050716337e+00 1.6195088628e+00 2.8050716337e+00 
300 5.0563331041e+00 -3.0652314418e-02 1.6204492398e+00 -2.8067004145e+00 1.6204492398e+00 2.8067004145e+00 
400 5.0464909949e+00 -3.0725140581e-02 1.6213951286e+00 -2.8083387419e+00 1.6213951286e+00 2.8083387419e+00 
500 5.0372454249e+00 -3.0681589512e-02 1.6223427117e+00 -2.8099800039e+00 1.6223427117e+00 2.8099800039e+00 
600 5.0285629099e+00 -3.0528700654e-02 1.6232883987e+00 -2.8116179818e+00 1.6232883987e+00 2.8116179818e+00 
700 5.0204116257e+00 -3.0273456277e-02 1.6242288245e+00 -2.8132468471e+00 1.6242288245e+00 2.8132468471e+00 
800 5.0127613120e+00 -2.9922762657e-02 1.6251608468e+00 -2.8148611571e+00 1.6251608468e+00 2.8148611571e+00 
900 5.0055831870e+00 -2.9483430957e-02 1.6260815429e+00 -2.8164558496e+00 1.6260815429e+00 2.8164558496e+00 
1000 4.9988498742e+00 -2.8962158221e-02 1.6269882062e+00 -2.8180262365e+00 1.6269882062e+00 2.8180262365e+00 
1100 4.9925353365e+00 -2.8365508841e-02 1.6278783416e+00 -2.8195679963e+00 1.6278783416e+00 2.8195679963e+00 
1200 4.9866148178e+00 -2.7699896811e-02 1.6287496610e+00 -2.8210771656e+00 1.6287496610e+00 2.8210771656e+00 
1300 4.9810647903e+00 -2.6971569037e-02 1.6296000773e+00 -2.8225501299e+00 1.6296000773e+00 2.8225501299e+00 
1400 4.9758629061e+00 -2.6186589915e-02 1.6304276991e+00 -2.8239836129e+00 1.6304276991e+00 2.8239836129e+00 
1500 4.9709879532e+00 -2.5350827351e-02 1.6312308239e+00 -2.8253746659e+00 1.6312308239e+00 2.8253746659e+00 
1600 4.9664198133e+00 -2.4469940358e-02 1.6320079316e+00 -2.8267206558e+00 1.6320079316e+00 2.8267206558e+00 
1700 4.9621394219e+00 -2.3549368330e-02 1.6327576771e+00 -2.8280192531e+00 1.6327576771e+00 2.8280192531e+00 
1800 4.9581287309e+00 -2.2594322029e-02 1.6334788833e+00 -2.8292684190e+00 1.6334788833e+00 2.8292684190e+00 
1900 4.9543706711e+00 -2.1609776340e-02 1.6341705334e+00 -2.8304663921e+00 1.6341705334e+00 2.8304663921e+00 
2000 4.9508491159e+00 -2.0600464765e-02 1.6348317628e+00 -2.8316116751e+00 1.6348317628e+00 2.8316116751e+00 
2100 4.9475488466e+00 -1.9570875637e-02 1.6354618518e+00 -2.8327030211e+00 1.6354618518e+00 2.8327030211e+00 
2200 4.9444555161e+00 -1.8525249992e-02 1.6360602169e+00 -2.8337394200e+00 1.6360602169e+00 2.8337394200e+00 
2300 4.9415556150e+00 -1.7467581034e-02 1.6366264039e+00 -2.8347200845e+00 1.6366264039e+00 2.8347200845e+00 
2400 4.9388364364e+00 -1.6401615095e-02 1.6371600788e+00 -2.8356444366e+00 1.6371600788e+00 2.8356444366e+00 
2500 4.9362860415e+00 -1.5330853978e-02 1.6376610210e+00 -2.8365120939e+00 1.6376610210e+00 2.8365120939e+00 
2600 4.9338932259e+00 -1.4258558590e-02 1.6381291149e+00 -2.8373228564e+00 1.6381291149e+00 2.8373228564e+00 
2700 4.9316474853e+00 -1.3187753710e-02 1.6385643428e+00 -2.8380766933e+00 1.6385643428e+00 2.8380766933e+00 
2800 4.9295389820e+00 -1.2121233799e-02 1.6389667772e+00 -2.8387737301e+00 1.6389667772e+00 2.8387737301e+00 
2900 4.9275585123e+00 -1.1061569690e-02 1.6393365739e+00 -2.8394142367e+00 1.6393365739e+00 2.8394142367e+00 
3000 4.9256974736e+00 -1.0011116050e-02 1.6396739649e+00 -2.8399986151e+00 1.6396739649e+00 2.8399986151e+00 
3100 4.9239478324e+00 -8.9720194763e-03 1.6399792521e+00 -2.8405273879e+00 1.6399792521e+00 2.8405273879e+00 
3200 4.9223020936e+00 -7.9462271009e-03 1.6402528003e+00 -2.8410011874e+00 1.6402528003e+00 2.8410011874e+00 
3300 4.9207532697e+00 -6.9354955955e-03 1.6404950319e+00 -2.8414207449e+00 1.6404950319e+00 2.8414207449e+00 
3400 4.9192948514e+00 -5.9414004505e-03 1.6407064207e+00 -2.8417868810e+00 1.6407064207e+00 2.8417868810e+00 
3500 4.9179207789e+00 -4.9653454356e-03 1.6408874863e+00 -2.8421004958e+00 1.6408874863e+00 2.8421004958e+00 
3600 4.9166254147e+00 -4.0085721394e-03 1.6410387892e+00 -2.8423625602e+00 1.6410387892e+00 2.8423625602e+00 
3700 4.9154035166e+00 -3.0721695052e-03 1.6411609260e+00 -2.8425741072e+00 1.6411609260e+00 2.8425741072e+00 
3800 4.9142502128e+00 -2.1570832832e-03 1.6412545243e+00 -2.8427362242e+00 1.6412545243e+00 2.8427362242e+00 
3900 4.9131609771e+00 -1.2641253329e-03 1.6413202392e+00 -2.8428500458e+00 1.6413202392e+00 2.8428500458e+00 
4000 4.9121316061e+00 -3.9398271545e-04 1.6413587488e+00 -2.8429167463e+00 1.6413587488e+00 2.8429167463e+00 
4100 4.9111581970e+00 4.5277347209e-04 1.6413707505e+00 -2.8429375339e+00 1.6413707505e+00 2.8429375339e+00 
4200 4.9102371270e+00 1.2756795626e-03 1.6413569580e+00 -2.8429136446e+00 1.6413569580e+00 2.8429136446e+00 
4300 4.9093650334e+00 2.0743711170e-03 1.6413180976e+00 -2.8428463365e+00 1.6413180976e+00 2.8428463365e+00 
4400 4.9085387954e+00 2.8485750803e-03 1.6412549058e+00 -2.8427368850e+00 1.6412549058e+00 2.8427368850e+00 
4500 4.9077555159e+00 3.5981023127e-03 1.6411681262e+00 -2.8425865783e+00 1.6411681262e+00 2.8425865783e+00 
4600 4.9070125063e+00 4.3228405082e-03 1.6410585072e+00 -2.8423967127e+00 1.6410585072e+00 2.8423967127e+00 
4700 4.9063072699e+00 5.0227475069e-03 1.6409268001e+00 -2.8421685892e+00 1.6409268001e+00 2.8421685892e+00 
4800 4.9056374887e+00 5.6978450008e-03 1.6407737564e+00 -2.8419035098e+00 1.6407737564e+00 2.8419035098e+00 
4900 4.9050010094e+00 6.3482126323e-03 1.6406001266e+00 -2.8416027742e+00 1.6406001266e+00 2.8416027742e+00 
5000 4.9043958313e+00 6.9739824750e-03 1.6404066581e+00 -2.8412676769e+00 1.6404066581e+00 2.8412676769e+00 
5100 4.9038200945e+00 7.5753338903e-03 1.6401940940e+00 -2.8408995051e+00 1.6401940940e+00 2.8408995051e+00 
5200 4.9032720694e+00 8.1524887449e-03 1.6399631715e+00 -2.8404995355e+00 1.6399631715e+00 2.8404995355e+00 
5300 4.9027501470e+00 8.7057069765e-03 1.6397146207e+00 -2.8400690329e+00 1.6397146207e+00 2.8400690329e+00 
5400 4.9022528291e+00 9.2352824900e-03 1.6394491637e+00 -2.8396092480e+00 1.6394491637e+00 2.8396092480e+00 
5500 4.9017787204e+00 9.7415393696e-03 1.6391675137e+00 -2.8391214159e+00 1.6391675137e+00 2.8391214159e+00 
5600 4.9013265206e+00 1.0224828387e-02 1.6388703737e+00 -2.8386067543e+00 1.6388703737e+00 2.8386067543e+00 
5700 4.9008950167e+00 1.0685523790e-02 1.6385584362e+00 -2.8380664626e+00 1.6385584362e+00 2.8380664626e+00 
5800 4.9004830770e+00 1.1124020353e-02 1.6382323822e+00 -2.8375017206e+00 1.6382323822e+00 2.8375017206e+00 
5900 4.9000896446e+00 1.1540730667e-02 1.6378928810e+00 -2.8369136873e+00 1.6378928810e+00 2.8369136873e+00 
6000 4.8997137316e+00 1.1936082666e-02 1.6375405895e+00 -2.8363035004e+00 1.6375405895e+00 2.8363035004e+00 
6100 4.8993544144e+00 1.2310517352e-02 1.6371761515e+00 -2.8356722753e+00 1.6371761515e+00 2.8356722753e+00 
6200 4.8990108285e+00 1.2664486721e-02 1.6368001979e+00 -2.8350211045e+00 1.6368001979e+00 2.8350211045e+00 
6300 4.8986821642e+00 1.2998451868e-02 1.6364133459e+00 -2.8343510573e+00 1.6364133459e+00 2.8343510573e+00 
6400 4.8983676626e+00 1.3312881255e-02 1.6360161991e+00 -2.8336631789e+00 1.6360161991e+00 2.8336631789e+00 
6500 4.8980666119e+00 1.3608249126e-02 1.6356093471e+00 -2.8329584905e+00 1.6356093471e+00 2.8329584905e+00 
6600 4.8977783439e+00 1.3885034070e-02 1.6351933654e+00 -2.8322379890e+00 1.6351933654e+00 2.8322379890e+00 
6700 4.8975022309e+00 1.4143717702e-02 1.6347688152e+00 -2.8315026465e+00 1.6347688152e+00 2.8315026465e+00 
6800 4.8972376827e+00 1.4384783465e-02 1.6343362435e+00 -2.8307534104e+00 1.6343362435e+00 2.8307534104e+00 
6900 4.8969841441e+00 1.4608715534e-02 1.6338961830e+00 -2.8299912032e+00 1.6338961830e+00 2.8299912032e+00 
7000 4.8967410923e+00 1.4815997826e-02 1.6334491518e+00 -2.8292169226e+00 1.6334491518e+00 2.8292169226e+00 
7100 4.8965080348e+00 1.5007113084e-02 1.6329956540e+00 -2.8284314413e+00 1.6329956540e+00 2.8284314413e+00 
7200 4.8962845070e+00 1.5182542058e-02 1.6325361792e+00 -2.8276356075e+00 1.6325361792e+00 2.8276356075e+00 
7300 4.8960700706e+00 1.5342762748e-02 1.6320712026e+00 -2.8268302445e+00 1.6320712026e+00 2.8268302445e+00 
7400 4.8958643116e+00 1.5488249721e-02 1.6316011856e+00 -2.8260161511e+00 1.6316011856e+00 2.8260161511e+00 
7500 4.8956668389e+00 1.5619473493e-02 1.6311265751e+00 -2.8251941017e+00 1.6311265751e+00 2.8251941017e+00 
7600 4.8954772826e+00 1.5736899959e-02 1.6306478045e+00 -2.8243648467e+00 1.6306478045e+00 2.8243648467e+00 
7700 4.8952952925e+00 1.5840989884e-02 1.6301652931e+00 -2.8235291124e+00 1.6301652931e+00 2.8235291124e+00 
7800 4.8951205372e+00 1.5932198442e-02 1.6296794466e+00 -2.8226876016e+00 1.6296794466e+00 2.8226876016e+00 
7900 4.8949527023e+00 1.6010974792e-02 1.6291906572e+00 -2.8218409934e+00 1.6291906572e+00 2.8218409934e+00 
8000 4.8947914900e+00 1.6077761710e-02 1.6286993037e+00 -2.8209899442e+00 1.6286993037e+00 2.8209899442e+00 
8100 4.8946366176e+00 1.6132995241e-02 1.6282057519e+00 -2.8201350875e+00 1.6282057519e+00 2.8201350875e+00 
8200 4.8944878165e+00 1.6177104403e-02 1.6277103545e+00 -2.8192770340e+00 1.6277103545e+00 2.8192770340e+00 
8300 4.8943448317e+00 1.6210510917e-02 1.6272134516e+00 -2.8184163729e+00 1.6272134516e+00 2.8184163729e+00 
8400 4.8942074207e+00 1.6233628966e-02 1.6267153705e+00 -2.8175536712e+00 1.6267153705e+00 2.8175536712e+00 
8500 4.8940753527e+00 1.6246864987e-02 1.6262164265e+00 -2.8166894748e+00 1.6262164265e+00 2.8166894748e+00 
8600 4.8939484082e+00 1.6250617487e-02 1.6257169225e+00 -2.8158243085e+00 1.6257169225e+00 2.8158243085e+00 
8700 4.8938263779e+00 1.6245276888e-02 1.6252171496e+00 -2.8149586764e+00 1.6252171496e+00 2.8149586764e+00 
8800 4.8937090626e+00 1.6231225393e-02 1.6247173873e+00 -2.8140930628e+00 1.6247173873e+00 2.8140930628e+00 
8900 4.8935962721e+00 1.6208836872e-02 1.6242179037e+00 -2.8132279319e+00 1.6242179037e+00 2.8132279319e+00 
9000 4.8934878251e+00 1.6178476775e-02 1.6237189557e+00 -2.8123637285e+00 1.6237189557e+00 2.8123637285e+00 
9100 4.8933835486e+00 1.6140502059e-02 1.6232207892e+00 -2.8115008787e+00 1.6232207892e+00 2.8115008787e+00 
9200 4.8932832770e+00 1.6095261135e-02 1.6227236394e+00 -2.8106397900e+00 1.6227236394e+00 2.8106397900e+00 
9300 4.8931868526e+00 1.6043093835e-02 1.6222277311e+00 -2.8097808517e+00 1.6222277311e+00 2.8097808517e+00 
9400 4.8930941242e+00 1.5984331390e-02 1.6217332790e+00 -2.8089244355e+00 1.6217332790e+00 2.8089244355e+00 
9500 4.8930049474e+00 1.5919296430e-02 1.6212404877e+00 -2.8080708959e+00 1.6212404877e+00 2.8080708959e+00 
9600 4.8929191840e+00 1.5848302991e-02 1.6207495521e+00 -2.8072205706e+00 1.6207495521e+00 2.8072205706e+00 
9700 4.8928367017e+00 1.5771656541e-02 1.6202606578e+00 -2.8063737807e+00 1.6202606578e+00 2.8063737807e+00 
9800 4.8927573738e+00 1.5689654015e-02 1.6197739809e+00 -2.8055308317e+00 1.6197739809e+00 2.8055308317e+00 
9900 4.8926810788e+00 1.5602583864e-02 1.6192896889e+00 -2.8046920134e+00 1.6192896889e+00 2.8046920134e+00 
10000 4.8926077004e+00 1.5510726115e-02 1.6188079403e+00 -2.8038576003e+00 1.6188079403e+00 2.8038576003e+00 
10100 4.8925371270e+00 1.5414352436e-02 1.6183288853e+00 -2.8030278527e+00 1.6183288853e+00 2.8030278527e+00 
10200 4.8924692517e+00 1.5313726221e-02 1.6178526658e+00 -2.8022030163e+00 1.6178526658e+00 2.8022030163e+00 
10300 4.8924039717e+00 1.5209102672e-02 1.6173794157e+00 -2.8013833231e+00 1.6173794157e+00 2.8013833231e+00 
10400 4.8923411884e+00 1.5100728895e-02 1.6169092611e+00 -2.8005689915e+00 1.6169092611e+00 2.8005689915e+00 
10500 4.8922808074e+00 1.4988844006e-02 1.6164423208e+00 -2.7997602272e+00 1.6164423208e+00 2.7997602272e+00 
10600 4.8922227377e+00 1.4873679237e-02 1.6159787062e+00 -2.7989572231e+00 1.6159787062e+00 2.7989572231e+00 
10700 4.8921668921e+00 1.4755458053e-02 1.6155185215e+00 -2.7981601598e+00 1.6155185215e+00 2.7981601598e+00 
10800 4.8921131867e+00 1.4634396271e-02 1.6150618643e+00 -2.7973692064e+00 1.6150618643e+00 2.7973692064e+00 
10900 4.8920615409e+00 1.4510702191e-02 1.6146088256e+00 -2.7965845202e+00 1.6146088256e+00 2.7965845202e+00 
11000 4.8920118772e+00 1.4384576724e-02 1.6141594898e+00 -2.7958062479e+00 1.6141594898e+00 2.7958062479e+00 
11100 4.8919641211e+00 1.4256213523e-02 1.6137139355e+00 -2.7950345252e+00 1.6137139355e+00 2.7950345252e+00 
11200 4.8919182011e+00 1.4125799130e-02 1.6132722351e+00 -2.7942694776e+00 1.6132722351e+00 2.7942694776e+00 
11300 4.8918740482e+00 1.3993513108e-02 1.6128344553e+00 -2.7935112207e+00 1.6128344553e+00 2.7935112207e+00 
11400 4.8918315961e+00 1.3859528191e-02 1.6124006573e+00 -2.7927598606e+00 1.6124006573e+00 2.7927598606e+00 
11500 4.8917907810e+00 1.3724010429e-02 1.6119708971e+00 -2.7920154942e+00 1.6119708971e+00 2.7920154942e+00 
11600 4.8917515416e+00 1.3587119336e-02 1.6115452255e+00 -2.7912782092e+00 1.6115452255e+00 2.7912782092e+00 
11700 4.8917138188e+00 1.3449008036e-02 1.6111236882e+00 -2.7905480853e+00 1.6111236882e+00 2.7905480853e+00 
11800 4.8916775557e+00 1.3309823421e-02 1.6107063265e+00 -2.7898251936e+00 1.6107063265e+00 2.7898251936e+00 
11900 4.8916426977e+00 1.3169706293e-02 1.6102931769e+00 -2.7891095974e+00 1.6102931769e+00 2.7891095974e+00 
12000 4.8916091920e+00 1.3028791523e-02 1.6098842716e+00 -2.7884013527e+00 1.6098842716e+00 2.7884013527e+00 
12100 4.8915769879e+00 1.2887208202e-02 1.6094796386e+00 -2.7877005078e+00 1.6094796386e+00 2.7877005078e+00 
12200 4.8915460366e+00 1.2745079788e-02 1.6090793019e+00 -2.7870071044e+00 1.6090793019e+00 2.7870071044e+00 
12300 4.8915162910e+00 1.2602524262e-02 1.6086832818e+00 -2.7863211773e+00 1.6086832818e+00 2.7863211773e+00 
12400 4.8914877059e+00 1.2459654277e-02 1.6082915946e+00 -2.7856427552e+00 1.6082915946e+00 2.7856427552e+00 
12500 4.8914602375e+00 1.2316577309e-02 1.6079042533e+00 -2.7849718605e+00 1.6079042533e+00 2.7849718605e+00 
12600 4.8914338440e+00 1.2173395803e-02 1.6075212676e+00 -2.7843085097e+00 1.6075212676e+00 2.7843085097e+00 
12700 4.8914084848e+00 1.2030207324e-02 1.6071426437e+00 -2.7836527139e+00 1.6071426437e+00 2.7836527139e+00 
12800 4.8913841211e+00 1.1887104702e-02 1.6067683851e+00 -2.7830044790e+00 1.6067683851e+00 2.7830044790e+00 
12900 4.8913607151e+00 1.1744176173e-02 1.6063984921e+00 -2.7823638054e+00 1.6063984921e+00 2.7823638054e+00 
13000 4.8913382309e+00 1.1601505527e-02 1.6060329623e+00 -2.7817306892e+00 1.6060329623e+00 2.7817306892e+00 
13100 4.8913166336e+00 1.1459172246e-02 1.6056717906e+00 -2.7811051216e+00 1.6056717906e+00 2.7811051216e+00 
13200 4.8912958897e+00 1.1317251644e-02 1.6053149696e+00 -2.7804870896e+00 1.6053149696e+00 2.7804870896e+00 
13300 4.8912759668e+00 1.1175815001e-02 1.6049624894e+00 -2.7798765758e+00 1.6049624894e+00 2.7798765758e+00 
13400 4.8912568339e+00 1.1034929701e-02 1.6046143376e+00 -2.7792735593e+00 1.6046143376e+00 2.7792735593e+00 
13500 4.8912384609e+00 1.0894659363e-02 1.6042705000e+00 -2.7786780150e+00 1.6042705000e+00 2.7786780150e+00 
13600 4.8912208191e+00 1.0755063968e-02 1.6039309601e+00 -2.7780899148e+00 1.6039309601e+00 2.7780899148e+00 
13700 4.8912038807e+00 1.0616199992e-02 1.6035956998e+00 -2.7775092268e+00 1.6035956998e+00 2.7775092268e+00 
13800 4.8911876189e+00 1.0478120524e-02 1.6032646988e+00 -2.7769359163e+00 1.6032646988e+00 2.7769359163e+00 
13900 4.8911720078e+00 1.0340875393e-02 1.6029379354e+00 -2.7763699455e+00 1.6029379354e+00 2.7763699455e+00 
14000 4.8911570228e+00 1.0204511288e-02 1.6026153862e+00 -2.7758112738e+00 1.6026153862e+00 2.7758112738e+00 
14100 4.8911426399e+00 1.0069071870e-02 1.6022970261e+00 -2.7752598581e+00 1.6022970261e+00 2.7752598581e+00 
14200 4.8911288360e+00 9.9345978911e-03 1.6019828290e+00 -2.7747156527e+00 1.6019828290e+00 2.7747156527e+00 
14300 4.8911155890e+00 9.8011273047e-03 1.6016727671e+00 -2.7741786097e+00 1.6016727671e+00 2.7741786097e+00 
14400 4.8911028776e+00 9.6686953735e-03 1.6013668115e+00 -2.7736486790e+00 1.6013668115e+00 2.7736486790e+00 
14500 4.8910906812e+00 9.5373347765e-03 1.6010649321e+00 -2.7731258087e+00 1.6010649321e+00 2.7731258087e+00 
14600 4.8910789801e+00 9.4070757124e-03 1.6007670979e+00 -2.7726099446e+00 1.6007670979e+00 2.7726099446e+00 
14700 4.8910677551e+00 9.2779460003e-03 1.6004732766e+00 -2.7721010313e+00 1.6004732766e+00 2.7721010313e+00 
14800 4.8910569879e+00 9.1499711775e-03 1.6001834353e+00 -2.7715990114e+00 1.6001834353e+00 2.7715990114e+00 
14900 4.8910466610e+00 9.0231745956e-03 1.5998975400e+00 -2.7711038262e+00 1.5998975400e+00 2.7711038262e+00 
15000 4.8910367572e+00 8.8975775124e-03 1.5996155560e+00 -2.7706154156e+00 1.5996155560e+00 2.7706154156e+00 
15100 4.8910272603e+00 8.7731991828e-03 1.5993374480e+00 -2.7701337183e+00 1.5993374480e+00 2.7701337183e+00 
15200 4.8910181545e+00 8.6500569456e-03 1.5990631798e+00 -2.7696586719e+00 1.5990631798e+00 2.7696586719e+00 
15300 4.8910094246e+00 8.5281663087e-03 1.5987927147e+00 -2.7691902127e+00 1.5987927147e+00 2.7691902127e+00 
15400 4.8910010560e+00 8.4075410315e-03 1.5985260157e+00 -2.7687282764e+00 1.5985260157e+00 2.7687282764e+00 
15500 4.8909930348e+00 8.2881932044e-03 1.5982630450e+00 -2.7682727978e+00 1.5982630450e+00 2.7682727978e+00 
15600 4.8909853473e+00 8.1701333266e-03 1.5980037645e+00 -2.7678237108e+00 1.5980037645e+00 2.7678237108e+00 
15700 4.8909779807e+00 8.0533703803e-03 1.5977481357e+00 -2.7673809487e+00 1.5977481357e+00 2.7673809487e+00 
15800 4.8909709223e+00 7.9379119037e-03 1.5974961198e+00 -2.7669444444e+00 1.5974961198e+00 2.7669444444e+00 
15900 4.8909641601e+00 7.8237640607e-03 1.5972476777e+00 -2.7665141300e+00 1.5972476777e+00 2.7665141300e+00 
16000 4.8909576826e+00 7.7109317090e-03 1.5970027700e+00 -2.7660899375e+00 1.5970027700e+00 2.7660899375e+00 
16100 4.8909514786e+00 7.5994184651e-03 1.5967613573e+00 -2.7656717983e+00 1.5967613573e+00 2.7656717983e+00 
16200 4.8909455374e+00 7.4892267679e-03 1.5965233997e+00 -2.7652596437e+00 1.5965233997e+00 2.7652596437e+00 
16300 4.8909398486e+00 7.3803579394e-03 1.5962888574e+00 -2.7648534046e+00 1.5962888574e+00 2.7648534046e+00 
16400 4.8909344024e+00 7.2728122439e-03 1.5960576906e+00 -2.7644530120e+00 1.5960576906e+00 2.7644530120e+00 
16500 4.8909291891e+00 7.1665889444e-03 1.5958298593e+00 -2.7640583965e+00 1.5958298593e+00 2.7640583965e+00 
16600 4.8909241997e+00 7.0616863576e-03 1.5956053234e+00 -2.7636694890e+00 1.5956053234e+00 2.7636694890e+00 
16700 4.8909194252e+00 6.9581019063e-03 1.5953840430e+00 -2.7632862201e+00 1.5953840430e+00 2.7632862201e+00 
16800 4.8909148571e+00 6.8558321705e-03 1.5951659782e+00 -2.7629085207e+00 1.5951659782e+00 2.7629085207e+00 
16900 4.8909104873e+00 6.7548729359e-03 1.5949510890e+00 -2.7625363218e+00 1.5949510890e+00 2.7625363218e+00 
17000 4.8909063080e+00 6.6552192410e-03 1.5947393357e+00 -2.7621695543e+00 1.5947393357e+00 2.7621695543e+00 
17100 4.8909023115e+00 6.5568654223e-03 1.5945306786e+00 -2.7618081495e+00 1.5945306786e+00 2.7618081495e+00 
17200 4.8908984905e+00 6.4598051576e-03 1.5943250781e+00 -2.7614520391e+00 1.5943250781e+00 2.7614520391e+00 
17300 4.8908948382e+00 6.3640315076e-03 1.5941224950e+00 -2.7611011548e+00 1.5941224950e+00 2.7611011548e+00 
17400 4.8908913477e+00 6.2695369561e-03 1.5939228899e+00 -2.7607554287e+00 1.5939228899e+00 2.7607554287e+00 
17500 4.8908880125e+00 6.1763134479e-03 1.5937262239e+00 -2.7604147932e+00 1.5937262239e+00 2.7604147932e+00 
17600 4.8908848266e+00 6.0843524264e-03 1.5935324583e+00 -2.7600791812e+00 1.5935324583e+00 2.7600791812e+00 
17700 4.8908817838e+00 5.9936448678e-03 1.5933415544e+00 -2.7597485260e+00 1.5933415544e+00 2.7597485260e+00 
17800 4.8908788784e+00 5.9041813159e-03 1.5931534740e+00 -2.7594227612e+00 1.5931534740e+00 2.7594227612e+00 
17900 4.8908761049e+00 5.8159519135e-03 1.5929681790e+00 -2.7591018208e+00 1.5929681790e+00 2.7591018208e+00 
18000 4.8908734580e+00 5.7289464340e-03 1.5927856317e+00 -2.7587856396e+00 1.5927856317e+00 2.7587856396e+00 
18100 4.8908709325e+00 5.6431543105e-03 1.5926057946e+00 -2.7584741527e+00 1.5926057946e+00 2.7584741527e+00 
18200 4.8908685236e+00 5.5585646644e-03 1.5924286305e+00 -2.7581672955e+00 1.5924286305e+00 2.7581672955e+00 
18300 4.8908662265e+00 5.4751663321e-03 1.5922541027e+00 -2.7578650044e+00 1.5922541027e+00 2.7578650044e+00 
18400 4.8908640366e+00 5.3929478909e-03 1.5920821745e+00 -2.7575672160e+00 1.5920821745e+00 2.7575672160e+00 
18500 4.8908619497e+00 5.3118976833e-03 1.5919128097e+00 -2.7572738677e+00 1.5919128097e+00 2.7572738677e+00 
18600 4.8908599614e+00 5.2320038408e-03 1.5917459725e+00 -2.7569848972e+00 1.5917459725e+00 2.7569848972e+00 
18700 4.8908580679e+00 5.1532543060e-03 1.5915816274e+00 -2.7567002431e+00 1.5915816274e+00 2.7567002431e+00 
18800 4.8908562651e+00 5.0756368536e-03 1.5914197392e+00 -2.7564198444e+00 1.5914197392e+00 2.7564198444e+00 
18900 4.8908545494e+00 4.9991391108e-03 1.5912602730e+00 -2.7561436409e+00 1.5912602730e+00 2.7561436409e+00 
19000 4.8908529171e+00 4.9237485765e-03 1.5911031945e+00 -2.7558715729e+00 1.5911031945e+00 2.7558715729e+00 
19100 4.8908513649e+00 4.8494526396e-03 1.5909484695e+00 -2.7556035814e+00 1.5909484695e+00 2.7556035814e+00 
19200 4.8908498893e+00 4.7762385959e-03 1.5907960643e+00 -2.7553396079e+00 1.5907960643e+00 2.7553396079e+00 
19300 4.8908484873e+00 4.7040936648e-03 1.5906459457e+00 -2.7550795947e+00 1.5906459457e+00 2.7550795947e+00 
19400 4.8908471558e+00 4.6330050047e-03 1.5904980805e+00 -2.7548234848e+00 1.5904980805e+00 2.7548234848e+00 
19500 4.8908458918e+00 4.5629597278e-03 1.5903524364e+00 -2.7545712218e+00 1.5903524364e+00 2.7545712218e+00 
19600 4.8908446926e+00 4.4939449138e-03 1.5902089811e+00 -2.7543227499e+00 1.5902089811e+00 2.7543227499e+00 
19700 4.8908435553e+00 4.4259476234e-03 1.5900676827e+00 -2.7540780139e+00 1.5900676827e+00 2.7540780139e+00 
19800 4.8908424774e+00 4.3589549101e-03 1.5899285099e+00 -2.7538369596e+00 1.5899285099e+00 2.7538369596e+00 
19900 4.8908414564e+00 4.2929538324e-03 1.5897914317e+00 -2.7535995331e+00 1.5897914317e+00 2.7535995331e+00 
20000 4.8908404899e+00 4.2279314644e-03 1.5896564173e+00 -2.7533656814e+00 1.5896564173e+00 2.7533656814e+00 
20100 4.8908395755e+00 4.1638749065e-03 1.5895234366e+00 -2.7531353521e+00 1.5895234366e+00 2.7531353521e+00 
20200 4.8908387111e+00 4.1007712948e-03 1.5893924597e+00 -2.7529084934e+00 1.5893924597e+00 2.7529084934e+00 
20300 4.8908378945e+00 4.0386078102e-03 1.5892634571e+00 -2.7526850543e+00 1.5892634571e+00 2.7526850543e+00 
20400 4.8908371236e+00 3.9773716872e-03 1.5891363997e+00 -2.7524649844e+00 1.5891363997e+00 2.7524649844e+00 
20500 4.8908363965e+00 3.9170502217e-03 1.5890112588e+00 -2.7522482340e+00 1.5890112588e+00 2.7522482340e+00 
20600 4.8908357113e+00 3.8576307782e-03 1.5888880060e+00 -2.7520347540e+00 1.5888880060e+00 2.7520347540e+00 
20700 4.8908350662e+00 3.7991007972e-03 1.5887666135e+00 -2.7518244960e+00 1.5887666135e+00 2.7518244960e+00 
20800 4.8908344594e+00 3.7414478013e-03 1.5886470537e+00 -2.7516174123e+00 1.5886470537e+00 2.7516174123e+00 
20900 4.8908338893e+00 3.6846594011e-03 1.5885292994e+00 -2.7514134558e+00 1.5885292994e+00 2.7514134558e+00 
21000 4.8908333542e+00 3.6287233012e-03 1.5884133237e+00 -2.7512125801e+00 1.5884133237e+00 2.7512125801e+00 
21100 4.8908328526e+00 3.5736273048e-03 1.5882991003e+00 -2.7510147393e+00 1.5882991003e+00 2.7510147393e+00 
21200 4.8908323831e+00 3.5193593187e-03 1.5881866031e+00 -2.7508198884e+00 1.5881866031e+00 2.7508198884e+00 
21300 4.8908319441e+00 3.4659073574e-03 1.5880758063e+00 -2.7506279828e+00 1.5880758063e+00 2.7506279828e+00 
21400 4.8908315343e+00 3.4132595473e-03 1.5879666847e+00 -2.7504389786e+00 1.5879666847e+00 2.7504389786e+00 
21500 4.8908311525e+00 3.3614041300e-03 1.5878592133e+00 -2.7502528327e+00 1.5878592133e+00 2.7502528327e+00 
21600 4.8908307973e+00 3.3103294661e-03 1.5877533674e+00 -2.7500695022e+00 1.5877533674e+00 2.7500695022e+00 
21700 4.8908304675e+00 3.2600240373e-03 1.5876491228e+00 -2.7498889454e+00 1.5876491228e+00 2.7498889454e+00 
21800 4.8908301620e+00 3.2104764498e-03 1.5875464557e+00 -2.7497111206e+00 1.5875464557e+00 2.7497111206e+00 
21900 4.8908298797e+00 3.1616754363e-03 1.5874453423e+00 -2.7495359872e+00 1.5874453423e+00 2.7495359872e+00 
22000 4.8908296194e+00 3.1136098583e-03 1.5873457596e+00 -2.7493635048e+00 1.5873457596e+00 2.7493635048e+00 
22100 4.8908293802e+00 3.0662687075e-03 1.5872476846e+00 -2.7491936340e+00 1.5872476846e+00 2.7491936340e+00 
22200 4.8908291611e+00 3.0196411079e-03 1.5871510949e+00 -2.7490263356e+00 1.5871510949e+00 2.7490263356e+00 
22300 4.8908289611e+00 2.9737163168e-03 1.5870559681e+00 -2.7488615712e+00 1.5870559681e+00 2.7488615712e+00 
22400 4.8908287794e+00 2.9284837261e-03 1.5869622825e+00 -2.7486993030e+00 1.5869622825e+00 2.7486993030e+00 
22500 4.8908286150e+00 2.8839328630e-03 1.5868700164e+00 -2.7485394934e+00 1.5868700164e+00 2.7485394934e+00 
22600 4.8908284671e+00 2.8400533912e-03 1.5867791487e+00 -2.7483821059e+00 1.5867791487e+00 2.7483821059e+00 
22700 4.8908283349e+00 2.7968351108e-03 1.5866896584e+00 -2.7482271042e+00 1.5866896584e+00 2.7482271042e+00 
22800 4.8908282177e+00 2.7542679591e-03 1.5866015249e+00 -2.7480744525e+00 1.5866015249e+00 2.7480744525e+00 
22900 4.8908281147e+00 2.7123420107e-03 1.5865147280e+00 -2.7479241158e+00 1.5865147280e+00 2.7479241158e+00 
23000 4.8908280253e+00 2.6710474776e-03 1.5864292476e+00 -2.7477760595e+00 1.5864292476e+00 2.7477760595e+00 
23100 4.8908279486e+00 2.6303747088e-03 1.5863450641e+00 -2.7476302494e+00 1.5863450641e+00 2.7476302494e+00 
23200 4.8908278842e+00 2.5903141906e-03 1.5862621581e+00 -2.7474866519e+00 1.5862621581e+00 2.7474866519e+00 
23300 4.8908278313e+00 2.5508565457e-03 1.5861805104e+00 -2.7473452340e+00 1.5861805104e+00 2.7473452340e+00 
23400 4.8908277893e+00 2.5119925330e-03 1.5861001023e+00 -2.7472059631e+00 1.5861001023e+00 2.7472059631e+00 
23500 4.8908277578e+00 2.4737130470e-03 1.5860209153e+00 -2.7470688071e+00 1.5860209153e+00 2.7470688071e+00 
23600 4.8908277361e+00 2.4360091171e-03 1.5859429310e+00 -2.7469337344e+00 1.5859429310e+00 2.7469337344e+00 
23700 4.8908277238e+00 2.3988719066e-03 1.5858661316e+00 -2.7468007140e+00 1.5858661316e+00 2.7468007140e+00 
23800 4.8908277203e+00 2.3622927123e-03 1.5857904994e+00 -2.7466697150e+00 1.5857904994e+00 2.7466697150e+00 
23900 4.8908277251e+00 2.3262629628e-03 1.5857160168e+00 -2.7465407075e+00 1.5857160168e+00 2.7465407075e+00 
24000 4.8908277378e+00 2.2907742183e-03 1.5856426668e+00 -2.7464136616e+00 1.5856426668e+00 2.7464136616e+00 
24100 4.8908277580e+00 2.2558181687e-03 1.5855704325e+00 -2.7462885480e+00 1.5855704325e+00 2.7462885480e+00 
24200 4.8908277852e+00 2.2213866330e-03 1.5854992972e+00 -2.7461653380e+00 1.5854992972e+00 2.7461653380e+00 
24300 4.8908278190e+00 2.1874715579e-03 1.5854292445e+00 -2.7460440032e+00 1.5854292445e+00 2.7460440032e+00 
24400 4.8908278591e+00 2.1540650163e-03 1.5853602582e+00 -2.7459245156e+00 1.5853602582e+00 2.7459245156e+00 
24500 4.8908279050e+00 2.1211592061e-03 1.5852923226e+00 -2.7458068476e+00 1.5852923226e+00 2.7458068476e+00 
24600 4.8908279564e+00 2.0887464491e-03 1.5852254218e+00 -2.7456909721e+00 1.5852254218e+00 2.7456909721e+00 
24700 4.8908280131e+00 2.0568191891e-03 1.5851595406e+00 -2.7455768625e+00 1.5851595406e+00 2.7455768625e+00 
24800 4.8908280745e+00 2.0253699906e-03 1.5850946637e+00 -2.7454644923e+00 1.5850946637e+00 2.7454644923e+00 
24900 4.8908281405e+00 1.9943915376e-03 1.5850307762e+00 -2.7453538359e+00 1.5850307762e+00 2.7453538359e+00 
25000 4.8908282108e+00 1.9638766316e-03 1.5849678632e+00 -2.7452448675e+00 1.5849678632e+00 2.7452448675e+00 
25100 4.8908282851e+00 1.9338181904e-03 1.5849059104e+00 -2.7451375621e+00 1.5849059104e+00 2.7451375621e+00 
25200 4.8908283630e+00 1.9042092465e-03 1.5848449035e+00 -2.7450318949e+00 1.5848449035e+00 2.7450318949e+00 
25300 4.8908284444e+00 1.8750429454e-03 1.5847848283e+00 -2.7449278416e+00 1.5847848283e+00 2.7449278416e+00 
25400 4.8908285290e+00 1.8463125440e-03 1.5847256710e+00 -2.7448253782e+00 1.5847256710e+00 2.7448253782e+00 
25500 4.8908286165e+00 1.8180114092e-03 1.5846674180e+00 -2.7447244810e+00 1.5846674180e+00 2.7447244810e+00 
25600 4.8908287068e+00 1.7901330158e-03 1.5846100558e+00 -2.7446251268e+00 1.5846100558e+00 2.7446251268e+00 
25700 4.8908287996e+00 1.7626709456e-03 1.5845535711e+00 -2.7445272925e+00 1.5845535711e+00 2.7445272925e+00 
25800 4.8908288948e+00 1.7356188851e-03 1.5844979510e+00 -2.7444309557e+00 1.5844979510e+00 2.7444309557e+00 
25900 4.8908289920e+00 1.7089706244e-03 1.5844431826e+00 -2.7443360940e+00 1.5844431826e+00 2.7443360940e+00 
26000 4.8908290913e+00 1.6827200549e-03 1.5843892532e+00 -2.7442426856e+00 1.5843892532e+00 2.7442426856e+00 
26100 4.8908291923e+00 1.6568611686e-03 1.5843361504e+00 -2.7441507088e+00 1.5843361504e+00 2.7441507088e+00 
26200 4.8908292949e+00 1.6313880557e-03 1.5842838619e+00 -2.7440601424e+00 1.5842838619e+00 2.7440601424e+00 
26300 4.8908293989e+00 1.6062949031e-03 1.5842323756e+00 -2.7439709655e+00 1.5842323756e+00 2.7439709655e+00 
26400 4.8908295042e+00 1.5815759932e-03 1.5841816795e+00 -2.7438831573e+00 1.5841816795e+00 2.7438831573e+00 
26500 4.8908296107e+00 1.5572257020e-03 1.5841317620e+00 -2.7437966977e+00 1.5841317620e+00 2.7437966977e+00 
26600 4.8908297182e+00 1.5332384975e-03 1.5840826115e+00 -2.7437115665e+00 1.5840826115e+00 2.7437115665e+00 
26700 4.8908298266e+00 1.5096089381e-03 1.5840342166e+00 -2.7436277441e+00 1.5840342166e+00 2.7436277441e+00 
26800 4.8908299357e+00 1.4863316712e-03 1.5839865661e+00 -2.7435452109e+00 1.5839865661e+00 2.7435452109e+00 
26900 4.8908300455e+00 1.4634014316e-03 1.5839396489e+00 -2.7434639480e+00 1.5839396489e+00 2.7434639480e+00 
27000 4.8908301558e+00 1.4408130398e-03 1.5838934541e+00 -2.7433839363e+00 1.5838934541e+00 2.7433839363e+00 
27100 4.8908302665e+00 1.4185614006e-03 1.5838479711e+00 -2.7433051573e+00 1.5838479711e+00 2.7433051573e+00 
27200 4.8908303775e+00 1.3966415018e-03 1.5838031891e+00 -2.7432275928e+00 1.5838031891e+00 2.7432275928e+00 
27300 4.8908304888e+00 1.3750484123e-03 1.5837590980e+00 -2.7431512246e+00 1.5837590980e+00 2.7431512246e+00 
27400 4.8908306002e+00 1.3537772809e-03 1.5837156873e+00 -2.7430760351e+00 1.5837156873e+00 2.7430760351e+00 
27500 4.8908307116e+00 1.3328233348e-03 1.5836729469e+00 -2.7430020066e+00 1.5836729469e+00 2.7430020066e+00 
27600 4.8908308230e+00 1.3121818782e-03 1.5836308670e+00 -2.7429291220e+00 1.5836308670e+00 2.7429291220e+00 
27700 4.8908309344e+00 1.2918482908e-03 1.5835894376e+00 -2.7428573643e+00 1.5835894376e+00 2.7428573643e+00 
27800 4.8908310455e+00 1.2718180264e-03 1.5835486492e+00 -2.7427867166e+00 1.5835486492e+00 2.7427867166e+00 
27900 4.8908311564e+00 1.2520866119e-03 1.5835084921e+00 -2.7427171626e+00 1.5835084921e+00 2.7427171626e+00 
28000 4.8908312669e+00 1.2326496452e-03 1.5834689571e+00 -2.7426486859e+00 1.5834689571e+00 2.7426486859e+00 
28100 4.8908313771e+00 1.2135027948e-03 1.5834300348e+00 -2.7425812705e+00 1.5834300348e+00 2.7425812705e+00 
28200 4.8908314869e+00 1.1946417976e-03 1.5833917162e+00 -2.7425149007e+00 1.5833917162e+00 2.7425149007e+00 
28300 4.8908315962e+00 1.1760624584e-03 1.5833539922e+00 -2.7424495608e+00 1.5833539922e+00 2.7424495608e+00 
28400 4.8908317050e+00 1.1577606480e-03 1.5833168540e+00 -2.7423852356e+00 1.5833168540e+00 2.7423852356e+00 
28500 4.8908318131e+00 1.1397323023e-03 1.5832802929e+00 -2.7423219099e+00 1.5832802929e+00 2.7423219099e+00 
28600 4.8908319207e+00 1.1219734213e-03 1.5832443003e+00 -2.7422595688e+00 1.5832443003e+00 2.7422595688e+00 
28700 4.8908320276e+00 1.1044800672e-03 1.5832088677e+00 -2.7421981978e+00 1.5832088677e+00 2.7421981978e+00 
28800 4.8908321338e+00 1.0872483639e-03 1.5831739867e+00 -2.7421377822e+00 1.5831739867e+00 2.7421377822e+00 
28900 4.8908322393e+00 1.0702744956e-03 1.5831396492e+00 -2.7420783080e+00 1.5831396492e+00 2.7420783080e+00 
29000 4.8908323439e+00 1.0535547057e-03 1.5831058471e+00 -2.7420197609e+00 1.5831058471e+00 2.7420197609e+00 
29100 4.8908324478e+00 1.0370852955e-03 1.5830725723e+00 -2.7419621272e+00 1.5830725723e+00 2.7419621272e+00 
29200 4.8908325509e+00 1.0208626236e-03 1.5830398169e+00 -2.7419053933e+00 1.5830398169e+00 2.7419053933e+00 
29300 4.8908326531e+00 1.0048831042e-03 1.5830075733e+00 -2.7418495457e+00 1.5830075733e+00 2.7418495457e+00 
29400 4.8908327544e+00 9.8914320651e-04 1.5829758337e+00 -2.7417945711e+00 1.5829758337e+00 2.7417945711e+00 
29500 4.8908328548e+00 9.7363945367e-04 1.5829445907e+00 -2.7417404566e+00 1.5829445907e+00 2.7417404566e+00 
29600 4.8908329543e+00 9.5836842163e-04 1.5829138367e+00 -2.7416871892e+00 1.5829138367e+00 2.7416871892e+00 
29700 4.8908330529e+00 9.4332673821e-04 1.5828835645e+00 -2.7416347562e+00 1.5828835645e+00 2.7416347562e+00 
29800 4.8908331505e+00 9.2851108218e-04 1.5828537669e+00 -2.7415831452e+00 1.5828537669e+00 2.7415831452e+00 
29900 4.8908332471e+00 9.1391818229e-04 1.5828244367e+00 -2.7415323438e+00 1.5828244367e+00 2.7415323438e+00 
30000 4.8908333427e+00 8.9954481637e-04 1.5827955669e+00 -2.7414823399e+00 1.5827955669e+00 2.7414823399e+00 
30100 4.8908334373e+00 8.8538781042e-04 1.5827671507e+00 -2.7414331215e+00 1.5827671507e+00 2.7414331215e+00 
30200 4.8908335309e+00 8.7144403775e-04 1.5827391811e+00 -2.7413846769e+00 1.5827391811e+00 2.7413846769e+00 
30300 4.8908336235e+00 8.5771041810e-04 1.5827116516e+00 -2.7413369943e+00 1.5827116516e+00 2.7413369943e+00 
30400 4.8908337151e+00 8.4418391681e-04 1.5826845554e+00 -2.7412900624e+00 1.5826845554e+00 2.7412900624e+00 
30500 4.8908338056e+00 8.3086154400e-04 1.5826578862e+00 -2.7412438698e+00 1.5826578862e+00 2.7412438698e+00 
30600 4.8908338950e+00 8.1774035378e-04 1.5826316373e+00 -2.7411984055e+00 1.5826316373e+00 2.7411984055e+00 
30700 4.8908339835e+00 8.0481744342e-04 1.5826058025e+00 -2.7411536583e+00 1.5826058025e+00 2.7411536583e+00 
30800 4.8908340708e+00 7.9208995265e-04 1.5825803756e+00 -2.7411096177e+00 1.5825803756e+00 2.7411096177e+00 
30900 4.8908341572e+00 7.7955506285e-04 1.5825553504e+00 -2.7410662727e+00 1.5825553504e+00 2.7410662727e+00 
31000 4.8908342424e+00 7.6720999637e-04 1.5825307209e+00 -2.7410236131e+00 1.5825307209e+00 2.7410236131e+00 
31100 4.8908343266e+00 7.5505201576e-04 1.5825064810e+00 -2.7409816283e+00 1.5825064810e+00 2.7409816283e+00 
31200 4.8908344097e+00 7.4307842311e-04 1.5824826248e+00 -2.7409403083e+00 1.5824826248e+00 2.7409403083e+00 
31300 4.8908344918e+00 7.3128655936e-04 1.5824591466e+00 -2.7408996428e+00 1.5824591466e+00 2.7408996428e+00 
31400 4.8908345728e+00 7.1967380361e-04 1.5824360407e+00 -2.7408596221e+00 1.5824360407e+00 2.7408596221e+00 
31500 4.8908346528e+00 7.0823757252e-04 1.5824133013e+00 -2.7408202364e+00 1.5824133013e+00 2.7408202364e+00 
31600 4.8908347317e+00 6.9697531960e-04 1.5823909229e+00 -2.7407814760e+00 1.5823909229e+00 2.7407814760e+00 
31700 4.8908348095e+00 6.8588453464e-04 1.5823689001e+00 -2.7407433313e+00 1.5823689001e+00 2.7407433313e+00 
31800 4.8908348863e+00 6.7496274309e-04 1.5823472275e+00 -2.7407057932e+00 1.5823472275e+00 2.7407057932e+00 
31900 4.8908349621e+00 6.6420750547e-04 1.5823258996e+00 -2.7406688523e+00 1.5823258996e+00 2.7406688523e+00 
32000 4.8908350368e+00 6.5361641677e-04 1.5823049113e+00 -2.7406324995e+00 1.5823049113e+00 2.7406324995e+00 
32100 4.8908351104e+00 6.4318710590e-04 1.5822842575e+00 -2.7405967259e+00 1.5822842575e+00 2.7405967259e+00 
32200 4.8908351831e+00 6.3291723512e-04 1.5822639329e+00 -2.7405615227e+00 1.5822639329e+00 2.7405615227e+00 
32300 4.8908352547e+00 6.2280449955e-04 1.5822439325e+00 -2.7405268811e+00 1.5822439325e+00 2.7405268811e+00 
32400 4.8908353253e+00 6.1284662655e-04 1.5822242515e+00 -2.7404927926e+00 1.5822242515e+00 2.7404927926e+00 
32500 4.8908353949e+00 6.0304137529e-04 1.5822048849e+00 -2.7404592487e+00 1.5822048849e+00 2.7404592487e+00 
32600 4.8908354635e+00 5.9338653621e-04 1.5821858280e+00 -2.7404262411e+00 1.5821858280e+00 2.7404262411e+00 
32700 4.8908355311e+00 5.8387993050e-04 1.5821670759e+00 -2.7403937615e+00 1.5821670759e+00 2.7403937615e+00 
32800 4.8908355977e+00 5.7451940967e-04 1.5821486240e+00 -2.7403618020e+00 1.5821486240e+00 2.7403618020e+00 
32900 4.8908356633e+00 5.6530285504e-04 1.5821304678e+00 -2.7403303544e+00 1.5821304678e+00 2.7403303544e+00 
33000 4.8908357280e+00 5.5622817730e-04 1.5821126026e+00 -2.7402994109e+00 1.5821126026e+00 2.7402994109e+00 
33100 4.8908357917e+00 5.4729331605e-04 1.5820950239e+00 -2.7402689639e+00 1.5820950239e+00 2.7402689639e+00 
33200 4.8908358544e+00 5.3849623936e-04 1.5820777275e+00 -2.7402390056e+00 1.5820777275e+00 2.7402390056e+00 
33300 4.8908359162e+00 5.2983494334e-04 1.5820607089e+00 -2.7402095285e+00 1.5820607089e+00 2.7402095285e+00 
33400 4.8908359771e+00 5.2130745171e-04 1.5820439638e+00 -2.7401805252e+00 1.5820439638e+00 2.7401805252e+00 
33500 4.8908360370e+00 5.1291181542e-04 1.5820274881e+00 -2.7401519884e+00 1.5820274881e+00 2.7401519884e+00 
33600 4.8908360960e+00 5.0464611220e-04 1.5820112775e+00 -2.7401239109e+00 1.5820112775e+00 2.7401239109e+00 
33700 4.8908361541e+00 4.9650844621e-04 1.5819953281e+00 -2.7400962855e+00 1.5819953281e+00 2.7400962855e+00 
33800 4.8908362113e+00 4.8849694761e-04 1.5819796356e+00 -2.7400691054e+00 1.5819796356e+00 2.7400691054e+00 
33900 4.8908362677e+00 4.8060977223e-04 1.5819641962e+00 -2.7400423636e+00 1.5819641962e+00 2.7400423636e+00 
34000 4.8908363231e+00 4.7284510116e-04 1.5819490060e+00 -2.7400160533e+00 1.5819490060e+00 2.7400160533e+00 
34100 4.8908363777e+00 4.6520114041e-04 1.5819340610e+00 -2.7399901678e+00 1.5819340610e+00 2.7399901678e+00 
34200 4.8908364314e+00 4.5767612055e-04 1.5819193574e+00 -2.7399647005e+00 1.5819193574e+00 2.7399647005e+00 
34300 4.8908364842e+00 4.5026829635e-04 1.5819048916e+00 -2.7399396450e+00 1.5819048916e+00 2.7399396450e+00 
34400 4.8908365363e+00 4.4297594648e-04 1.5818906598e+00 -2.7399149948e+00 1.5818906598e+00 2.7399149948e+00 
34500 4.8908365874e+00 4.3579737313e-04 1.5818766583e+00 -2.7398907435e+00 1.5818766583e+00 2.7398907435e+00 
34600 4.8908366378e+00 4.2873090168e-04 1.5818628837e+00 -2.7398668851e+00 1.5818628837e+00 2.7398668851e+00 
34700 4.8908366874e+00 4.2177488044e-04 1.5818493322e+00 -2.7398434133e+00 1.5818493322e+00 2.7398434133e+00 
34800 4.8908367362e+00 4.1492768027e-04 1.5818360005e+00 -2.7398203222e+00 1.5818360005e+00 2.7398203222e+00 
34900 4.8908367841e+00 4.0818769432e-04 1.5818228852e+00 -2.7397976057e+00 1.5818228852e+00 2.7397976057e+00 
35000 4.8908368313e+00 4.0155333769e-04 1.5818099827e+00 -2.7397752580e+00 1.5818099827e+00 2.7397752580e+00 
35100 4.8908368778e+00 3.9502304716e-04 1.5817972899e+00 -2.7397532734e+00 1.5817972899e+00 2.7397532734e+00 
35200 4.8908369234e+00 3.8859528088e-04 1.5817848034e+00 -2.7397316461e+00 1.5817848034e+00 2.7397316461e+00 
35300 4.8908369684e+00 3.8226851810e-04 1.5817725200e+00 -2.7397103706e+00 1.5817725200e+00 2.7397103706e+00 
35400 4.8908370125e+00 3.7604125889e-04 1.5817604364e+00 -2.7396894413e+00 1.5817604364e+00 2.7396894413e+00 
35500 4.8908370560e+00 3.6991202384e-04 1.5817485497e+00 -2.7396688528e+00 1.5817485497e+00 2.7396688528e+00 
35600 4.8908370988e+00 3.6387935383e-04 1.5817368565e+00 -2.7396485997e+00 1.5817368565e+00 2.7396485997e+00 
35700 4.8908371408e+00 3.5794180972e-04 1.5817253540e+00 -2.7396286768e+00 1.5817253540e+00 2.7396286768e+00 
35800 4.8908371821e+00 3.5209797214e-04 1.5817140391e+00 -2.7396090788e+00 1.5817140391e+00 2.7396090788e+00 
35900 4.8908372228e+00 3.4634644117e-04 1.5817029089e+00 -2.7395898007e+00 1.5817029089e+00 2.7395898007e+00 
36000 4.8908372628e+00 3.4068583614e-04 1.5816919604e+00 -2.7395708373e+00 1.5816919604e+00 2.7395708373e+00 
36100 4.8908373021e+00 3.3511479536e-04 1.5816811907e+00 -2.7395521837e+00 1.5816811907e+00 2.7395521837e+00 
36200 4.8908373407e+00 3.2963197590e-04 1.5816705971e+00 -2.7395338350e+00 1.5816705971e+00 2.7395338350e+00 
36300 4.8908373787e+00 3.2423605328e-04 1.5816601767e+00 -2.7395157864e+00 1.5816601767e+00 2.7395157864e+00 
36400 4.8908374161e+00 3.1892572134e-04 1.5816499269e+00 -2.7394980331e+00 1.5816499269e+00 2.7394980331e+00 
36500 4.8908374528e+00 3.1369969191e-04 1.5816398448e+00 -2.7394805705e+00 1.5816398448e+00 2.7394805705e+00 
36600 4.8908374889e+00 3.0855669463e-04 1.5816299279e+00 -2.7394633939e+00 1.5816299279e+00 2.7394633939e+00 
36700 4.8908375244e+00 3.0349547673e-04 1.5816201735e+00 -2.7394464989e+00 1.5816201735e+00 2.7394464989e+00 
36800 4.8908375593e+00 2.9851480278e-04 1.5816105791e+00 -2.7394298808e+00 1.5816105791e+00 2.7394298808e+00 
36900 4.8908375936e+00 2.9361345448e-04 1.5816011421e+00 -2.7394135354e+00 1.5816011421e+00 2.7394135354e+00 
37000 4.8908376273e+00 2.8879023046e-04 1.5815918599e+00 -2.7393974582e+00 1.5815918599e+00 2.7393974582e+00 
37100 4.8908376605e+00 2.8404394606e-04 1.5815827302e+00 -2.7393816451e+00 1.5815827302e+00 2.7393816451e+00 
37200 4.8908376931e+00 2.7937343310e-04 1.5815737505e+00 -2.7393660917e+00 1.5815737505e+00 2.7393660917e+00 
37300 4.8908377251e+00 2.7477753970e-04 1.5815649183e+00 -2.7393507940e+00 1.5815649183e+00 2.7393507940e+00 
37400 4.8908377566e+00 2.7025513006e-04 1.5815562315e+00 -2.7393357479e+00 1.5815562315e+00 2.7393357479e+00 
37500 4.8908377875e+00 2.6580508427e-04 1.5815476875e+00 -2.7393209494e+00 1.5815476875e+00 2.7393209494e+00 
37600 4.8908378179e+00 2.6142629810e-04 1.5815392842e+00 -2.7393063944e+00 1.5815392842e+00 2.7393063944e+00 
37700 4.8908378478e+00 2.5711768283e-04 1.5815310193e+00 -2.7392920791e+00 1.5815310193e+00 2.7392920791e+00 
37800 4.8908378772e+00 2.5287816501e-04 1.5815228905e+00 -2.7392779997e+00 1.5815228905e+00 2.7392779997e+00 
37900 4.8908379060e+00 2.4870668632e-04 1.5815148958e+00 -2.7392641524e+00 1.5815148958e+00 2.7392641524e+00 
38000 4.8908379344e+00 2.4460220334e-04 1.5815070328e+00 -2.7392505334e+00 1.5815070328e+00 2.7392505334e+00 
38100 4.8908379623e+00 2.4056368740e-04 1.5814992996e+00 -2.7392371391e+00 1.5814992996e+00 2.7392371391e+00 
38200 4.8908379897e+00 2.3659012437e-04 1.5814916941e+00 -2.7392239659e+00 1.5814916941e+00 2.7392239659e+00 
38300 4.8908380166e+00 2.3268051448e-04 1.5814842141e+00 -2.7392110102e+00 1.5814842141e+00 2.7392110102e+00 
38400 4.8908380430e+00 2.2883387216e-04 1.5814768577e+00 -2.7391982686e+00 1.5814768577e+00 2.7391982686e+00 
38500 4.8908380690e+00 2.2504922587e-04 1.5814696229e+00 -2.7391857375e+00 1.5814696229e+00 2.7391857375e+00 
38600 4.8908380946e+00 2.2132561786e-04 1.5814625077e+00 -2.7391734137e+00 1.5814625077e+00 2.7391734137e+00 
38700 4.8908381197e+00 2.1766210409e-04 1.5814555102e+00 -2.7391612937e+00 1.5814555102e+00 2.7391612937e+00 
38800 4.8908381443e+00 2.1405775399e-04 1.5814486285e+00 -2.7391493742e+00 1.5814486285e+00 2.7391493742e+00 
38900 4.8908381686e+00 2.1051165032e-04 1.5814418608e+00 -2.7391376521e+00 1.5814418608e+00 2.7391376521e+00 
39000 4.8908381924e+00 2.0702288900e-04 1.5814352051e+00 -2.7391261241e+00 1.5814352051e+00 2.7391261241e+00 
39100 4.8908382158e+00 2.0359057895e-04 1.5814286597e+00 -2.7391147871e+00 1.5814286597e+00 2.7391147871e+00 
39200 4.8908382388e+00 2.0021384189e-04 1.5814222228e+00 -2.7391036381e+00 1.5814222228e+00 2.7391036381e+00 
39300 4.8908382613e+00 1.9689181225e-04 1.5814158926e+00 -2.7390926739e+00 1.5814158926e+00 2.7390926739e+00 
39400 4.8908382835e+00 1.9362363694e-04 1.5814096674e+00 -2.7390818916e+00 1.5814096674e+00 2.7390818916e+00 
39500 4.8908383053e+00 1.9040847523e-04 1.5814035456e+00 -2.7390712882e+00 1.5814035456e+00 2.7390712882e+00 
39600 4.8908383268e+00 1.8724549859e-04 1.5813975253e+00 -2.7390608608e+00 1.5813975253e+00 2.7390608608e+00 
39700 4.8908383478e+00 1.8413389053e-04 1.5813916051e+00 -2.7390506067e+00 1.5813916051e+00 2.7390506067e+00 
39800 4.8908383685e+00 1.8107284644e-04 1.5813857832e+00 -2.7390405228e+00 1.5813857832e+00 2.7390405228e+00 
39900 4.8908383888e+00 1.7806157345e-04 1.5813800581e+00 -2.7390306066e+00 1.5813800581e+00 2.7390306066e+00 
40000 4.8908384088e+00 1.7509929028e-04 1.5813744281e+00 -2.7390208553e+00 1.5813744281e+00 2.7390208553e+00 
40100 4.8908384284e+00 1.7218522710e-04 1.5813688918e+00 -2.7390112661e+00 1.5813688918e+00 2.7390112661e+00 
40200 4.8908384476e+00 1.6931862535e-04 1.5813634476e+00 -2.7390018365e+00 1.5813634476e+00 2.7390018365e+00 
40300 4.8908384666e+00 1.6649873763e-04 1.5813580941e+00 -2.7389925639e+00 1.5813580941e+00 2.7389925639e+00 
40400 4.8908384852e+00 1.6372482756e-04 1.5813528297e+00 -2.7389834457e+00 1.5813528297e+00 2.7389834457e+00 
40500 4.8908385034e+00 1.6099616961e-04 1.5813476529e+00 -2.7389744793e+00 1.5813476529e+00 2.7389744793e+00 
40600 4.8908385214e+00 1.5831204897e-04 1.5813425625e+00 -2.7389656623e+00 1.5813425625e+00 2.7389656623e+00 
40700 4.8908385390e+00 1.5567176141e-04 1.5813375568e+00 -2.7389569924e+00 1.5813375568e+00 2.7389569924e+00 
40800 4.8908385563e+00 1.5307461317e-04 1.5813326347e+00 -2.7389484669e+00 1.5813326347e+00 2.7389484669e+00 
40900 4.8908385734e+00 1.5051992078e-04 1.5813277946e+00 -2.7389400837e+00 1.5813277946e+00 2.7389400837e+00 
41000 4.8908385901e+00 1.4800701095e-04 1.5813230354e+00 -2.7389318404e+00 1.5813230354e+00 2.7389318404e+00 
41100 4.8908386065e+00 1.4553522045e-04 1.5813183555e+00 -2.7389237347e+00 1.5813183555e+00 2.7389237347e+00 
41200 4.8908386226e+00 1.4310389594e-04 1.5813137538e+00 -2.7389157643e+00 1.5813137538e+00 2.7389157643e+00 
41300 4.8908386385e+00 1.4071239387e-04 1.5813092290e+00 -2.7389079270e+00 1.5813092290e+00 2.7389079270e+00 
41400 4.8908386541e+00 1.3836008035e-04 1.5813047797e+00 -2.7389002207e+00 1.5813047797e+00 2.7389002207e+00 
41500 4.8908386694e+00 1.3604633099e-04 1.5813004049e+00 -2.7388926432e+00 1.5813004049e+00 2.7388926432e+00 
41600 4.8908386844e+00 1.3377053083e-04 1.5812961031e+00 -2.7388851924e+00 1.5812961031e+00 2.7388851924e+00 
41700 4.8908386992e+00 1.3153207417e-04 1.5812918734e+00 -2.7388778663e+00 1.5812918734e+00 2.7388778663e+00 
41800 4.8908387137e+00 1.2933036444e-04 1.5812877144e+00 -2.7388706627e+00 1.5812877144e+00 2.7388706627e+00 
41900 4.8908387279e+00 1.2716481413e-04 1.5812836250e+00 -2.7388635796e+00 1.5812836250e+00 2.7388635796e+00 
42000 4.8908387419e+00 1.2503484461e-04 1.5812796040e+00 -2.7388566151e+00 1.5812796040e+00 2.7388566151e+00 
42100 4.8908387557e+00 1.2293988605e-04 1.5812756504e+00 -2.7388497673e+00 1.5812756504e+00 2.7388497673e+00 
42200 4.8908387692e+00 1.2087937728e-04 1.5812717631e+00 -2.7388430342e+00 1.5812717631e+00 2.7388430342e+00 
42300 4.8908387825e+00 1.1885276567e-04 1.5812679409e+00 -2.7388364139e+00 1.5812679409e+00 2.7388364139e+00 
42400 4.8908387955e+00 1.1685950705e-04 1.5812641827e+00 -2.7388299046e+00 1.5812641827e+00 2.7388299046e+00 
42500 4.8908388083e+00 1.1489906555e-04 1.5812604876e+00 -2.7388235045e+00 1.5812604876e+00 2.7388235045e+00 
42600 4.8908388209e+00 1.1297091349e-04 1.5812568544e+00 -2.7388172117e+00 1.5812568544e+00 2.7388172117e+00 
42700 4.8908388333e+00 1.1107453132e-04 1.5812532822e+00 -2.7388110245e+00 1.5812532822e+00 2.7388110245e+00 
42800 4.8908388454e+00 1.0920940743e-04 1.5812497700e+00 -2.7388049411e+00 1.5812497700e+00 2.7388049411e+00 
42900 4.8908388574e+00 1.0737503811e-04 1.5812463168e+00 -2.7387989599e+00 1.5812463168e+00 2.7387989599e+00 
43000 4.8908388691e+00 1.0557092740e-04 1.5812429215e+00 -2.7387930791e+00 1.5812429215e+00 2.7387930791e+00 
43100 4.8908388806e+00 1.0379658699e-04 1.5812395833e+00 -2.7387872972e+00 1.5812395833e+00 2.7387872972e+00 
43200 4.8908388919e+00 1.0205153613e-04 1.5812363011e+00 -2.7387816123e+00 1.5812363011e+00 2.7387816123e+00 
43300 4.8908389030e+00 1.0033530149e-04 1.5812330742e+00 -2.7387760231e+00 1.5812330742e+00 2.7387760231e+00 
43400 4.8908389139e+00 9.8647417099e-05 1.5812299015e+00 -2.7387705278e+00 1.5812299015e+00 2.7387705278e+00 
43500 4.8908389247e+00 9.6987424210e-05 1.5812267822e+00 -2.7387651250e+00 1.5812267822e+00 2.7387651250e+00 
43600 4.8908389352e+00 9.5354871211e-05 1.5812237153e+00 -2.7387598131e+00 1.5812237153e+00 2.7387598131e+00 
43700 4.8908389456e+00 9.3749313521e-05 1.5812207001e+00 -2.7387545906e+00 1.5812207001e+00 2.7387545906e+00 
43800 4.8908389557e+00 9.2170313493e-05 1.5812177356e+00 -2.7387494560e+00 1.5812177356e+00 2.7387494560e+00 
43900 4.8908389657e+00 9.0617440308e-05 1.5812148211e+00 -2.7387444079e+00 1.5812148211e+00 2.7387444079e+00 
44000 4.8908389756e+00 8.9090269890e-05 1.5812119557e+00 -2.7387394448e+00 1.5812119557e+00 2.7387394448e+00 
44100 4.8908389852e+00 8.7588384796e-05 1.5812091385e+00 -2.7387345653e+00 1.5812091385e+00 2.7387345653e+00 
44200 4.8908389947e+00 8.6111374133e-05 1.5812063689e+00 -2.7387297681e+00 1.5812063689e+00 2.7387297681e+00 
44300 4.8908390040e+00 8.4658833454e-05 1.5812036459e+00 -2.7387250518e+00 1.5812036459e+00 2.7387250518e+00 
44400 4.8908390132e+00 8.3230364673e-05 1.5812009689e+00 -2.7387204150e+00 1.5812009689e+00 2.7387204150e+00 
44500 4.8908390221e+00 8.1825575965e-05 1.5811983370e+00 -2.7387158565e+00 1.5811983370e+00 2.7387158565e+00 
44600 4.8908390310e+00 8.0444081684e-05 1.5811957495e+00 -2.7387113749e+00 1.5811957495e+00 2.7387113749e+00 
44700 4.8908390397e+00 7.9085502266e-05 1.5811932058e+00 -2.7387069690e+00 1.5811932058e+00 2.7387069690e+00 
44800 4.8908390482e+00 7.7749464143e-05 1.5811907049e+00 -2.7387026374e+00 1.5811907049e+00 2.7387026374e+00 
44900 4.8908390566e+00 7.6435599657e-05 1.5811882464e+00 -2.7386983791e+00 1.5811882464e+00 2.7386983791e+00 
45000 4.8908390648e+00 7.5143546969e-05 1.5811858293e+00 -2.7386941926e+00 1.5811858293e+00 2.7386941926e+00 
45100 4.8908390729e+00 7.3872949978e-05 1.5811834532e+00 -2.7386900770e+00 1.5811834532e+00 2.7386900770e+00 
45200 4.8908390808e+00 7.2623458234e-05 1.5811811172e+00 -2.7386860309e+00 1.5811811172e+00 2.7386860309e+00 
45300 4.8908390886e+00 7.1394726854e-05 1.5811788207e+00 -2.7386820533e+00 1.5811788207e+00 2.7386820533e+00 
45400 4.8908390963e+00 7.0186416444e-05 1.5811765630e+00 -2.7386781429e+00 1.5811765630e+00 2.7386781429e+00 
45500 4.8908391040e+00 7.0365796053e-05 1.5811765630e+00 -2.7386781429e+00 1.5811765630e+00 2.7386781429e+00 
45600 4.8908391116e+00 7.0549159598e-05 1.5811765630e+00 -2.7386781429e+00 1.5811765630e+00 2.7386781429e+00 
45700 4.8908391191e+00 7.0736186613e-05 1.5811765630e+00 -2.7386781429e+00 1.5811765630e+00 2.7386781429e+00 
45800 4.8908391262e+00 6.9548264661e-05 1.5811743262e+00 -2.7386742686e+00 1.5811743262e+00 2.7386742686e+00 
45900 4.8908391334e+00 6.9734271591e-05 1.5811743262e+00 -2.7386742686e+00 1.5811743262e+00 2.7386742686e+00 
46000 4.8908391405e+00 6.9923312712e-05 1.5811743262e+00 -2.7386742686e+00 1.5811743262e+00 2.7386742686e+00 
46100 4.8908391474e+00 7.0115107643e-05 1.5811743262e+00 -2.7386742686e+00 1.5811743262e+00 2.7386742686e+00 
46200 4.8908391543e+00 7.0309387078e-05 1.5811743262e+00 -2.7386742686e+00 1.5811743262e+00 2.7386742686e+00 
46300 4.8908391610e+00 7.0505892418e-05 1.5811743262e+00 -2.7386742686e+00 1.5811743262e+00 2.7386742686e+00 
46400 4.8908391676e+00 7.0704375421e-05 1.5811743262e+00 -2.7386742686e+00 1.5811743262e+00 2.7386742686e+00 
46500 4.8908391740e+00 7.0904597863e-05 1.5811743262e+00 -2.7386742686e+00 1.5811743262e+00 2.7386742686e+00 
46600 4.8908391802e+00 6.9724765054e-05 1.5811720841e+00 -2.7386703851e+00 1.5811720841e+00 2.7386703851e+00 
46700 4.8908391865e+00 6.9920337010e-05 1.5811720841e+00 -2.7386703851e+00 1.5811720841e+00 2.7386703851e+00 
46800 4.8908391926e+00 7.0117250448e-05 1.5811720841e+00 -2.7386703851e+00 1.5811720841e+00 2.7386703851e+00 
46900 4.8908391986e+00 7.0315296911e-05 1.5811720841e+00 -2.7386703851e+00 1.5811720841e+00 2.7386703851e+00 
47000 4.8908392045e+00 7.0514276702e-05 1.5811720841e+00 -2.7386703851e+00 1.5811720841e+00 2.7386703851e+00 
47100 4.8908392104e+00 7.0713998614e-05 1.5811720841e+00 -2.7386703851e+00 1.5811720841e+00 2.7386703851e+00 
47200 4.8908392159e+00 6.9536437035e-05 1.5811698479e+00 -2.7386665120e+00 1.5811698479e+00 2.7386665120e+00 
47300 4.8908392215e+00 6.9729668788e-05 1.5811698479e+00 -2.7386665120e+00 1.5811698479e+00 2.7386665120e+00 
47400 4.8908392270e+00 6.9923376397e-05 1.5811698479e+00 -2.7386665120e+00 1.5811698479e+00 2.7386665120e+00 
47500 4.8908392325e+00 7.0117392819e-05 1.5811698479e+00 -2.7386665120e+00 1.5811698479e+00 2.7386665120e+00 
47600 4.8908392378e+00 7.0311558486e-05 1.5811698479e+00 -2.7386665120e+00 1.5811698479e+00 2.7386665120e+00 
47700 4.8908392430e+00 7.0505721064e-05 1.5811698479e+00 -2.7386665120e+00 1.5811698479e+00 2.7386665120e+00 
47800 4.8908392482e+00 7.0699735223e-05 1.5811698479e+00 -2.7386665120e+00 1.5811698479e+00 2.7386665120e+00 
47900 4.8908392532e+00 7.0893462419e-05 1.5811698479e+00 -2.7386665120e+00 1.5811698479e+00 2.7386665120e+00 
48000 4.8908392580e+00 6.9705441957e-05 1.5811676061e+00 -2.7386626291e+00 1.5811676061e+00 2.7386626291e+00 
48100 4.8908392629e+00 6.9890753120e-05 1.5811676061e+00 -2.7386626291e+00 1.5811676061e+00 2.7386626291e+00 
48200 4.8908392677e+00 7.0075659992e-05 1.5811676061e+00 -2.7386626291e+00 1.5811676061e+00 2.7386626291e+00 
48300 4.8908392724e+00 7.0260041856e-05 1.5811676061e+00 -2.7386626291e+00 1.5811676061e+00 2.7386626291e+00 
48400 4.8908392770e+00 7.0443784001e-05 1.5811676061e+00 -2.7386626291e+00 1.5811676061e+00 2.7386626291e+00 
48500 4.8908392816e+00 7.0626777523e-05 1.5811676061e+00 -2.7386626291e+00 1.5811676061e+00 2.7386626291e+00 
48600 4.8908392861e+00 7.0808919133e-05 1.5811676061e+00 -2.7386626291e+00 1.5811676061e+00 2.7386626291e+00 
48700 4.8908392903e+00 6.9610434937e-05 1.5811653670e+00 -2.7386587508e+00 1.5811653670e+00 2.7386587508e+00 
48800 4.8908392946e+00 6.9783140596e-05 1.5811653670e+00 -2.7386587508e+00 1.5811653670e+00 2.7386587508e+00 
48900 4.8908392988e+00 6.9954975759e-05 1.5811653670e+00 -2.7386587508e+00 1.5811653670e+00 2.7386587508e+00 
49000 4.8908393030e+00 7.0125850586e-05 1.5811653670e+00 -2.7386587508e+00 1.5811653670e+00 2.7386587508e+00 
49100 4.8908393071e+00 7.0295680208e-05 1.5811653670e+00 -2.7386587508e+00 1.5811653670e+00 2.7386587508e+00 
49200 4.8908393111e+00 7.0464384554e-05 1.5811653670e+00 -2.7386587508e+00 1.5811653670e+00 2.7386587508e+00 
49300 4.8908393151e+00 7.0631888188e-05 1.5811653670e+00 -2.7386587508e+00 1.5811653670e+00 2.7386587508e+00 
49400 4.8908393190e+00 7.0798120140e-05 1.5811653670e+00 -2.7386587508e+00 1.5811653670e+00 2.7386587508e+00 
49500 4.8908393226e+00 6.9583552015e-05 1.5811631282e+00 -2.7386548731e+00 1.5811631282e+00 2.7386548731e+00 
49600 4.8908393264e+00 6.9739601996e-05 1.5811631282e+00 -2.7386548731e+00 1.5811631282e+00 2.7386548731e+00 
49700 4.8908393301e+00 6.9894452024e-05 1.5811631282e+00 -2.7386548731e+00 1.5811631282e+00 2.7386548731e+00 
49800 4.8908393337e+00 7.0048040263e-05 1.5811631282e+00 -2.7386548731e+00 1.5811631282e+00 2.7386548731e+00 
49900 4.8908393373e+00 7.0200308837e-05 1.5811631282e+00 -2.7386548731e+00 1.5811631282e+00 2.7386548731e+00 
50000 4.8908393408e+00 7.0351203678e-05 1.5811631282e+00 -2.7386548731e+00 1.5811631282e+00 2.7386548731e+00 
50100 4.8908393443e+00 7.0500674386e-05 1.5811631282e+00 -2.7386548731e+00 1.5811631282e+00 2.7386548731e+00 
50200 4.8908393477e+00 7.0648674088e-05 1.5811631282e+00 -2.7386548731e+00 1.5811631282e+00 2.7386548731e+00 
50300 4.8908393510e+00 7.0795159302e-05 1.5811631282e+00 -2.7386548731e+00 1.5811631282e+00 2.7386548731e+00 
50400 4.8908393541e+00 6.9560687670e-05 1.5811608895e+00 -2.7386509956e+00 1.5811608895e+00 2.7386509956e+00 
50500 4.8908393573e+00 6.9696583836e-05 1.5811608895e+00 -2.7386509956e+00 1.5811608895e+00 2.7386509956e+00 
50600 4.8908393604e+00 6.9831113512e-05 1.5811608895e+00 -2.7386509956e+00 1.5811608895e+00 2.7386509956e+00 
50700 4.8908393636e+00 6.9964238316e-05 1.5811608895e+00 -2.7386509956e+00 1.5811608895e+00 2.7386509956e+00 
50800 4.8908393666e+00 7.0095922877e-05 1.5811608895e+00 -2.7386509956e+00 1.5811608895e+00 2.7386509956e+00 
50900 4.8908393696e+00 7.0226134716e-05 1.5811608895e+00 -2.7386509956e+00 1.5811608895e+00 2.7386509956e+00 
51000 4.8908393726e+00 7.0354844121e-05 1.5811608895e+00 -2.7386509956e+00 1.5811608895e+00 2.7386509956e+00 
51100 4.8908393755e+00 7.0482024038e-05 1.5811608895e+00 -2.7386509956e+00 1.5811608895e+00 2.7386509956e+00 
51200 4.8908393783e+00 7.0607649951e-05 1.5811608895e+00 -2.7386509956e+00 1.5811608895e+00 2.7386509956e+00 
51300 4.8908393812e+00 7.0731699784e-05 1.5811608895e+00 -2.7386509956e+00 1.5811608895e+00 2.7386509956e+00 
51400 4.8908393837e+00 6.9475987805e-05 1.5811586528e+00 -2.7386471215e+00 1.5811586528e+00 2.7386471215e+00 
51500 4.8908393864e+00 6.9589392552e-05 1.5811586528e+00 -2.7386471215e+00 1.5811586528e+00 2.7386471215e+00 
51600 4.8908393891e+00 6.9701427705e-05 1.5811586528e+00 -2.7386471215e+00 1.5811586528e+00 2.7386471215e+00 
51700 4.8908393917e+00 6.9812072720e-05 1.5811586528e+00 -2.7386471215e+00 1.5811586528e+00 2.7386471215e+00 
51800 4.8908393943e+00 6.9921309234e-05 1.5811586528e+00 -2.7386471215e+00 1.5811586528e+00 2.7386471215e+00 
51900 4.8908393968e+00 7.0029120969e-05 1.5811586528e+00 -2.7386471215e+00 1.5811586528e+00 2.7386471215e+00 
52000 4.8908393993e+00 7.0135493632e-05 1.5811586528e+00 -2.7386471215e+00 1.5811586528e+00 2.7386471215e+00 
52100 4.8908394018e+00 7.0240414821e-05 1.5811586528e+00 -2.7386471215e+00 1.5811586528e+00 2.7386471215e+00 
52200 4.8908394042e+00 7.0343873941e-05 1.5811586528e+00 -2.7386471215e+00 1.5811586528e+00 2.7386471215e+00 
52300 4.8908394066e+00 7.0445862117e-05 1.5811586528e+00 -2.7386471215e+00 1.5811586528e+00 2.7386471215e+00 
52400 4.8908394089e+00 7.0546372108e-05 1.5811586528e+00 -2.7386471215e+00 1.5811586528e+00 2.7386471215e+00 
52500 4.8908394112e+00 7.0645398236e-05 1.5811586528e+00 -2.7386471215e+00 1.5811586528e+00 2.7386471215e+00 
52600 4.8908394134e+00 7.0742936302e-05 1.5811586528e+00 -2.7386471215e+00 1.5811586528e+00 2.7386471215e+00 
52700 4.8908394155e+00 6.9460596324e-05 1.5811564157e+00 -2.7386432468e+00 1.5811564157e+00 2.7386432468e+00 
52800 4.8908394176e+00 6.9547714157e-05 1.5811564157e+00 -2.7386432468e+00 1.5811564157e+00 2.7386432468e+00 
52900 4.8908394198e+00 6.9633598682e-05 1.5811564157e+00 -2.7386432468e+00 1.5811564157e+00 2.7386432468e+00 
53000 4.8908394219e+00 6.9718243727e-05 1.5811564157e+00 -2.7386432468e+00 1.5811564157e+00 2.7386432468e+00 
53100 4.8908394240e+00 6.9801644492e-05 1.5811564157e+00 -2.7386432468e+00 1.5811564157e+00 2.7386432468e+00 
53200 4.8908394260e+00 6.9883797485e-05 1.5811564157e+00 -2.7386432468e+00 1.5811564157e+00 2.7386432468e+00 
53300 4.8908394280e+00 6.9964700442e-05 1.5811564157e+00 -2.7386432468e+00 1.5811564157e+00 2.7386432468e+00 
53400 4.8908394300e+00 7.0044352266e-05 1.5811564157e+00 -2.7386432468e+00 1.5811564157e+00 2.7386432468e+00 
53500 4.8908394319e+00 7.0122752963e-05 1.5811564157e+00 -2.7386432468e+00 1.5811564157e+00 2.7386432468e+00 
53600 4.8908394338e+00 7.0199903578e-05 1.5811564157e+00 -2.7386432468e+00 1.5811564157e+00 2.7386432468e+00 
53700 4.8908394357e+00 7.0275806139e-05 1.5811564157e+00 -2.7386432468e+00 1.5811564157e+00 2.7386432468e+00 
53800 4.8908394375e+00 7.0350463600e-05 1.5811564157e+00 -2.7386432468e+00 1.5811564157e+00 2.7386432468e+00 
53900 4.8908394393e+00 7.0423879789e-05 1.5811564157e+00 -2.7386432468e+00 1.5811564157e+00 2.7386432468e+00 
54000 4.8908394411e+00 7.0496059358e-05 1.5811564157e+00 -2.7386432468e+00 1.5811564157e+00 2.7386432468e+00 
54100 4.8908394429e+00 7.0567007734e-05 1.5811564157e+00 -2.7386432468e+00 1.5811564157e+00 2.7386432468e+00 
54200 4.8908394446e+00 7.0636731071e-05 1.5811564157e+00 -2.7386432468e+00 1.5811564157e+00 2.7386432468e+00 
54300 4.8908394463e+00 7.0705236210e-05 1.5811564157e+00 -2.7386432468e+00 1.5811564157e+00 2.7386432468e+00 
54400 4.8908394479e+00 7.0772530633e-05 1.5811564157e+00 -2.7386432468e+00 1.5811564157e+00 2.7386432468e+00 
54500 4.8908394494e+00 6.9459653208e-05 1.5811541777e+00 -2.7386393704e+00 1.5811541777e+00 2.7386393704e+00 
54600 4.8908394510e+00 6.9517110869e-05 1.5811541777e+00 -2.7386393704e+00 1.5811541777e+00 2.7386393704e+00 
54700 4.8908394526e+00 6.9573642975e-05 1.5811541777e+00 -2.7386393704e+00 1.5811541777e+00 2.7386393704e+00 
54800 4.8908394541e+00 6.9629251975e-05 1.5811541777e+00 -2.7386393704e+00 1.5811541777e+00 2.7386393704e+00 
54900 4.8908394557e+00 6.9683941006e-05 1.5811541777e+00 -2.7386393704e+00 1.5811541777e+00 2.7386393704e+00 
55000 4.8908394572e+00 6.9737713845e-05 1.5811541777e+00 -2.7386393704e+00 1.5811541777e+00 2.7386393704e+00 
55100 4.8908394587e+00 6.9790574866e-05 1.5811541777e+00 -2.7386393704e+00 1.5811541777e+00 2.7386393704e+00 
55200 4.8908394601e+00 6.9842528996e-05 1.5811541777e+00 -2.7386393704e+00 1.5811541777e+00 2.7386393704e+00 
55300 4.8908394616e+00 6.9893581681e-05 1.5811541777e+00 -2.7386393704e+00 1.5811541777e+00 2.7386393704e+00 
55400 4.8908394630e+00 6.9943738842e-05 1.5811541777e+00 -2.7386393704e+00 1.5811541777e+00 2.7386393704e+00 
55500 4.8908394644e+00 6.9993006848e-05 1.5811541777e+00 -2.7386393704e+00 1.5811541777e+00 2.7386393704e+00 
55600 4.8908394657e+00 7.0041392476e-05 1.5811541777e+00 -2.7386393704e+00 1.5811541777e+00 2.7386393704e+00 
55700 4.8908394671e+00 7.0088902884e-05 1.5811541777e+00 -2.7386393704e+00 1.5811541777e+00 2.7386393704e+00 
55800 4.8908394684e+00 7.0135545582e-05 1.5811541777e+00 -2.7386393704e+00 1.5811541777e+00 2.7386393704e+00 
55900 4.8908394697e+00 7.0181328401e-05 1.5811541777e+00 -2.7386393704e+00 1.5811541777e+00 2.7386393704e+00 
56000 4.8908394710e+00 7.0226259470e-05 1.5811541777e+00 -2.7386393704e+00 1.5811541777e+00 2.7386393704e+00 
56100 4.8908394722e+00 7.0270347190e-05 1.5811541777e+00 -2.7386393704e+00 1.5811541777e+00 2.7386393704e+00 
56200 4.8908394735e+00 7.0313600212e-05 1.5811541777e+00 -2.7386393704e+00 1.5811541777e+00 2.7386393704e+00 
56300 4.8908394747e+00 7.0356027412e-05 1.5811541777e+00 -2.7386393704e+00 1.5811541777e+00 2.7386393704e+00 
56400 4.8908394759e+00 7.0397637872e-05 1.5811541777e+00 -2.7386393704e+00 1.5811541777e+00 2.7386393704e+00 
56500 4.8908394771e+00 7.0438440861e-05 1.5811541777e+00 -2.7386393704e+00 1.5811541777e+00 2.7386393704e+00 
56600 4.8908394782e+00 7.0478445815e-05 1.5811541777e+00 -2.7386393704e+00 1.5811541777e+00 2.7386393704e+00 
56700 4.8908394794e+00 7.0517662320e-05 1.5811541777e+00 -2.7386393704e+00 1.5811541777e+00 2.7386393704e+00 
56800 4.8908394805e+00 7.0556100094e-05 1.5811541777e+00 -2.7386393704e+00 1.5811541777e+00 2.7386393704e+00 
56900 4.8908394816e+00 7.0593768974e-05 1.5811541777e+00 -2.7386393704e+00 1.5811541777e+00 2.7386393704e+00 
57000 4.8908394827e+00 7.0630678898e-05 1.5811541777e+00 -2.7386393704e+00 1.5811541777e+00 2.7386393704e+00 
57100 4.8908394838e+00 7.0666839894e-05 1.5811541777e+00 -2.7386393704e+00 1.5811541777e+00 2.7386393704e+00 
57200 4.8908394848e+00 7.0702262063e-05 1.5811541777e+00 -2.7386393704e+00 1.5811541777e+00 2.7386393704e+00 
57300 4.8908394859e+00 7.0736955568e-05 1.5811541777e+00 -2.7386393704e+00 1.5811541777e+00 2.7386393704e+00 
57400 4.8908394867e+00 6.9392643702e-05 1.5811519409e+00 -2.7386354961e+00 1.5811519409e+00 2.7386354961e+00 
57500 4.8908394877e+00 6.9418474283e-05 1.5811519409e+00 -2.7386354961e+00 1.5811519409e+00 2.7386354961e+00 
57600 4.8908394887e+00 6.9443866056e-05 1.5811519409e+00 -2.7386354961e+00 1.5811519409e+00 2.7386354961e+00 
57700 4.8908394897e+00 6.9468822105e-05 1.5811519409e+00 -2.7386354961e+00 1.5811519409e+00 2.7386354961e+00 
57800 4.8908394906e+00 6.9493345757e-05 1.5811519409e+00 -2.7386354961e+00 1.5811519409e+00 2.7386354961e+00 
57900 4.8908394916e+00 6.9517440549e-05 1.5811519409e+00 -2.7386354961e+00 1.5811519409e+00 2.7386354961e+00 
58000 4.8908394925e+00 6.9541110213e-05 1.5811519409e+00 -2.7386354961e+00 1.5811519409e+00 2.7386354961e+00 
58100 4.8908394934e+00 6.9564358654e-05 1.5811519409e+00 -2.7386354961e+00 1.5811519409e+00 2.7386354961e+00 
58200 4.8908394943e+00 6.9587189930e-05 1.5811519409e+00 -2.7386354961e+00 1.5811519409e+00 2.7386354961e+00 
58300 4.8908394952e+00 6.9609608236e-05 1.5811519409e+00 -2.7386354961e+00 1.5811519409e+00 2.7386354961e+00 
58400 4.8908394960e+00 6.9631617889e-05 1.5811519409e+00 -2.7386354961e+00 1.5811519409e+00 2.7386354961e+00 
58500 4.8908394969e+00 6.9653223314e-05 1.5811519409e+00 -2.7386354961e+00 1.5811519409e+00 2.7386354961e+00 
58600 4.8908394977e+00 6.9674429027e-05 1.5811519409e+00 -2.7386354961e+00 1.5811519409e+00 2.7386354961e+00 
58700 4.8908394986e+00 6.9695239627e-05 1.5811519409e+00 -2.7386354961e+00 1.5811519409e+00 2.7386354961e+00 
58800 4.8908394994e+00 6.9715659782e-05 1.5811519409e+00 -2.7386354961e+00 1.5811519409e+00 2.7386354961e+00 
58900 4.8908395002e+00 6.9735694221e-05 1.5811519409e+00 -2.7386354961e+00 1.5811519409e+00 2.7386354961e+00 
59000 4.8908395010e+00 6.9755347719e-05 1.5811519409e+00 -2.7386354961e+00 1.5811519409e+00 2.7386354961e+00 
59100 4.8908395017e+00 6.9774625096e-05 1.5811519409e+00 -2.7386354961e+00 1.5811519409e+00 2.7386354961e+00 
59200 4.8908395025e+00 6.9793531201e-05 1.5811519409e+00 -2.7386354961e+00 1.5811519409e+00 2.7386354961e+00 
59300 4.8908395033e+00 6.9812070911e-05 1.5811519409e+00 -2.7386354961e+00 1.5811519409e+00 2.7386354961e+00 
59400 4.8908395040e+00 6.9830249121e-05 1.5811519409e+00 -2.7386354961e+00 1.5811519409e+00 2.7386354961e+00 
59500 4.8908395047e+00 6.9848070735e-05 1.5811519409e+00 -2.7386354961e+00 1.5811519409e+00 2.7386354961e+00 
59600 4.8908395054e+00 6.9865540667e-05 1.5811519409e+00 -2.7386354961e+00 1.5811519409e+00 2.7386354961e+00 
59700 4.8908395062e+00 6.9882663830e-05 1.5811519409e+00 -2.7386354961e+00 1.5811519409e+00 2.7386354961e+00 
59800 4.8908395069e+00 6.9899445132e-05 1.5811519409e+00 -2.7386354961e+00 1.5811519409e+00 2.7386354961e+00 
59900 4.8908395075e+00 6.9915889476e-05 1.5811519409e+00 -2.7386354961e+00 1.5811519409e+00 2.7386354961e+00 
60000 4.8908395082e+00 6.9932001749e-05 1.5811519409e+00 -2.7386354961e+00 1.5811519409e+00 2.7386354961e+00 
60100 4.8908395089e+00 6.9947786824e-05 1.5811519409e+00 -2.7386354961e+00 1.5811519409e+00 2.7386354961e+00 
60200 4.8908395095e+00 6.9963249551e-05 1.5811519409e+00 -2.7386354961e+00 1.5811519409e+00 2.7386354961e+00 
60300 4.8908395102e+00 6.9978394763e-05 1.5811519409e+00 -2.7386354961e+00 1.5811519409e+00 2.7386354961e+00 
60400 4.8908395108e+00 6.9993227262e-05 1.5811519409e+00 -2.7386354961e+00 1.5811519409e+00 2.7386354961e+00 
60500 4.8908395114e+00 7.0007751825e-05 1.5811519409e+00 -2.7386354961e+00 1.5811519409e+00 2.7386354961e+00 
60600 4.8908395120e+00 7.0021973198e-05 1.5811519409e+00 -2.7386354961e+00 1.5811519409e+00 2.7386354961e+00 
60700 4.8908395126e+00 7.0035896094e-05 1.5811519409e+00 -2.7386354961e+00 1.5811519409e+00 2.7386354961e+00 
60800 4.8908395132e+00 7.0049525191e-05 1.5811519409e+00 -2.7386354961e+00 1.5811519409e+00 2.7386354961e+00 
60900 4.8908395138e+00 7.0062865134e-05 1.5811519409e+00 -2.7386354961e+00 1.5811519409e+00 2.7386354961e+00 
61000 4.8908395144e+00 7.0075920527e-05 1.5811519409e+00 -2.7386354961e+00 1.5811519409e+00 2.7386354961e+00 
61100 4.8908395150e+00 7.0088695935e-05 1.5811519409e+00 -2.7386354961e+00 1.5811519409e+00 2.7386354961e+00 
61200 4.8908395155e+00 7.0101195885e-05 1.5811519409e+00 -2.7386354961e+00 1.5811519409e+00 2.7386354961e+00 
61300 4.8908395161e+00 7.0113424863e-05 1.5811519409e+00 -2.7386354961e+00 1.5811519409e+00 2.7386354961e+00 
61400 4.8908395166e+00 7.0125387308e-05 1.5811519409e+00 -2.7386354961e+00 1.5811519409e+00 2.7386354961e+00 
61500 4.8908395171e+00 7.0137087621e-05 1.5811519409e+00 -2.7386354961e+00 1.5811519409e+00 2.7386354961e+00 
61600 4.8908395177e+00 7.0148530155e-05 1.5811519409e+00 -2.7386354961e+00 1.5811519409e+00 2.7386354961e+00 
61700 4.8908395182e+00 7.0159719221e-05 1.5811519409e+00 -2.7386354961e+00 1.5811519409e+00 2.7386354961e+00 
61800 4.8908395187e+00 7.0170659084e-05 1.5811519409e+00 -2.7386354961e+00 1.5811519409e+00 2.7386354961e+00 
61900 4.8908395192e+00 7.0181353963e-05 1.5811519409e+00 -2.7386354961e+00 1.5811519409e+00 2.7386354961e+00 
62000 4.8908395197e+00 7.0191808031e-05 1.5811519409e+00 -2.7386354961e+00 1.5811519409e+00 2.7386354961e+00 
62100 4.8908395202e+00 7.0202025413e-05 1.5811519409e+00 -2.7386354961e+00 1.5811519409e+00 2.7386354961e+00 
62200 4.8908395206e+00 7.0212010189e-05 1.5811519409e+00 -2.7386354961e+00 1.5811519409e+00 2.7386354961e+00 
62300 4.8908395211e+00 7.0221766392e-05 1.5811519409e+00 -2.7386354961e+00 1.5811519409e+00 2.7386354961e+00 
62400 4.8908395216e+00 7.0231298006e-05 1.5811519409e+00 -2.7386354961e+00 1.5811519409e+00 2.7386354961e+00 
62500 4.8908395220e+00 7.0240608968e-05 1.5811519409e+00 -2.7386354961e+00 1.5811519409e+00 2.7386354961e+00 
62600 4.8908395225e+00 7.0249703170e-05 1.5811519409e+00 -2.7386354961e+00 1.5811519409e+00 2.7386354961e+00 
62700 4.8908395229e+00 7.0258584452e-05 1.5811519409e+00 -2.7386354961e+00 1.5811519409e+00 2.7386354961e+00 
62800 4.8908395234e+00 7.0267256610e-05 1.5811519409e+00 -2.7386354961e+00 1.5811519409e+00 2.7386354961e+00 
62900 4.8908395238e+00 7.0275723390e-05 1.5811519409e+00 -2.7386354961e+00 1.5811519409e+00 2.7386354961e+00 
63000 4.8908395242e+00 7.0283988494e-05 1.5811519409e+00 -2.7386354961e+00 1.5811519409e+00 2.7386354961e+00 
63100 4.8908395246e+00 7.0292055572e-05 1.5811519409e+00 -2.7386354961e+00 1.5811519409e+00 2.7386354961e+00 
63200 4.8908395250e+00 7.0299928229e-05 1.5811519409e+00 -2.7386354961e+00 1.5811519409e+00 2.7386354961e+00 
63300 4.8908395254e+00 7.0307610024e-05 1.5811519409e+00 -2.7386354961e+00 1.5811519409e+00 2.7386354961e+00 
63400 4.8908395258e+00 7.0315104467e-05 1.5811519409e+00 -2.7386354961e+00 1.5811519409e+00 2.7386354961e+00 
63500 4.8908395262e+00 7.0322415022e-05 1.5811519409e+00 -2.7386354961e+00 1.5811519409e+00 2.7386354961e+00 
63600 4.8908395266e+00 7.0329545107e-05 1.5811519409e+00 -2.7386354961e+00 1.5811519409e+00 2.7386354961e+00 
63700 4.8908395270e+00 7.0336498090e-05 1.5811519409e+00 -2.7386354961e+00 1.5811519409e+00 2.7386354961e+00 
63800 4.8908395274e+00 7.0343277298e-05 1.5811519409e+00 -2.7386354961e+00 1.5811519409e+00 2.7386354961e+00 
63900 4.8908395277e+00 7.0349886009e-05 1.5811519409e+00 -2.7386354961e+00 1.5811519409e+00 2.7386354961e+00 
64000 4.8908395281e+00 7.0356327456e-05 1.5811519409e+00 -2.7386354961e+00 1.5811519409e+00 2.7386354961e+00 
64100 4.8908395285e+00 7.0362604826e-05 1.5811519409e+00 -2.7386354961e+00 1.5811519409e+00 2.7386354961e+00 
64200 4.8908395288e+00 7.0368721262e-05 1.5811519409e+00 -2.7386354961e+00 1.5811519409e+00 2.7386354961e+00 
64300 4.8908395291e+00 7.0374679861e-05 1.5811519409e+00 -2.7386354961e+00 1.5811519409e+00 2.7386354961e+00 
64400 4.8908395295e+00 7.0380483677e-05 1.5811519409e+00 -2.7386354961e+00 1.5811519409e+00 2.7386354961e+00 
64500 4.8908395298e+00 7.0386135718e-05 1.5811519409e+00 -2.7386354961e+00 1.5811519409e+00 2.7386354961e+00 
64600 4.8908395302e+00 7.0391638948e-05 1.5811519409e+00 -2.7386354961e+00 1.5811519409e+00 2.7386354961e+00 
64700 4.8908395305e+00 7.0396996291e-05 1.5811519409e+00 -2.7386354961e+00 1.5811519409e+00 2.7386354961e+00 
64800 4.8908395308e+00 7.0402210623e-05 1.5811519409e+00 -2.7386354961e+00 1.5811519409e+00 2.7386354961e+00 
64900 4.8908395311e+00 7.0407284780e-05 1.5811519409e+00 -2.7386354961e+00 1.5811519409e+00 2.7386354961e+00 
65000 4.8908395314e+00 7.0412221555e-05 1.5811519409e+00 -2.7386354961e+00 1.5811519409e+00 2.7386354961e+00 
65100 4.8908395317e+00 7.0417023699e-05 1.5811519409e+00 -2.7386354961e+00 1.5811519409e+00 2.7386354961e+00 
65200 4.8908395320e+00 7.0421693920e-05 1.5811519409e+00 -2.7386354961e+00 1.5811519409e+00 2.7386354961e+00 
65300 4.8908395323e+00 7.0426234886e-05 1.5811519409e+00 -2.7386354961e+00 1.5811519409e+00 2.7386354961e+00 
65400 4.8908395326e+00 7.0430649223e-05 1.5811519409e+00 -2.7386354961e+00 1.5811519409e+00 2.7386354961e+00 
65500 4.8908395329e+00 7.0434939518e-05 1.5811519409e+00 -2.7386354961e+00 1.5811519409e+00 2.7386354961e+00 
65600 4.8908395332e+00 7.0439108314e-05 1.5811519409e+00 -2.7386354961e+00 1.5811519409e+00 2.7386354961e+00 
65700 4.8908395335e+00 7.0443158119e-05 1.5811519409e+00 -2.7386354961e+00 1.5811519409e+00 2.7386354961e+00 
65800 4.8908395338e+00 7.0447091398e-05 1.5811519409e+00 -2.7386354961e+00 1.5811519409e+00 2.7386354961e+00 
65900 4.8908395340e+00 7.0450910578e-05 1.5811519409e+00 -2.7386354961e+00 1.5811519409e+00 2.7386354961e+00 
66000 4.8908395343e+00 7.0454618046e-05 1.5811519409e+00 -2.7386354961e+00 1.5811519409e+00 2.7386354961e+00 
66100 4.8908395346e+00 7.0458216153e-05 1.5811519409e+00 -2.7386354961e+00 1.5811519409e+00 2.7386354961e+00 
66200 4.8908395348e+00 7.0461707211e-05 1.5811519409e+00 -2.7386354961e+00 1.5811519409e+00 2.7386354961e+00 
66300 4.8908395351e+00 7.0465093492e-05 1.5811519409e+00 -2.7386354961e+00 1.5811519409e+00 2.7386354961e+00 
66400 4.8908395353e+00 7.0468377235e-05 1.5811519409e+00 -2.7386354961e+00 1.5811519409e+00 2.7386354961e+00 
66500 4.8908395356e+00 7.0471560639e-05 1.5811519409e+00 -2.7386354961e+00 1.5811519409e+00 2.7386354961e+00 
66600 4.8908395358e+00 7.0474645868e-05 1.5811519409e+00 -2.7386354961e+00 1.5811519409e+00 2.7386354961e+00 
66700 4.8908395361e+00 7.0477635050e-05 1.5811519409e+00 -2.7386354961e+00 1.5811519409e+00 2.7386354961e+00 
66800 4.8908395363e+00 7.0480530277e-05 1.5811519409e+00 -2.7386354961e+00 1.5811519409e+00 2.7386354961e+00 
66900 4.8908395365e+00 7.0483333606e-05 1.5811519409e+00 -2.7386354961e+00 1.5811519409e+00 2.7386354961e+00 
67000 4.8908395368e+00 7.0486047058e-05 1.5811519409e+00 -2.7386354961e+00 1.5811519409e+00 2.7386354961e+00 
67100 4.8908395370e+00 7.0488672622e-05 1.5811519409e+00 -2.7386354961e+00 1.5811519409e+00 2.7386354961e+00 
67200 4.8908395372e+00 7.0491212251e-05 1.5811519409e+00 -2.7386354961e+00 1.5811519409e+00 2.7386354961e+00 
67300 4.8908395374e+00 7.0493667866e-05 1.5811519409e+00 -2.7386354961e+00 1.5811519409e+00 2.7386354961e+00 
67400 4.8908395376e+00 7.0496041352e-05 1.5811519409e+00 -2.7386354961e+00 1.5811519409e+00 2.7386354961e+00 
67500 4.8908395379e+00 7.0498334565e-05 1.5811519409e+00 -2.7386354961e+00 1.5811519409e+00 2.7386354961e+00 
67600 4.8908395381e+00 7.0500549324e-05 1.5811519409e+00 -2.7386354961e+00 1.5811519409e+00 2.7386354961e+00 
67700 4.8908395383e+00 7.0502687422e-05 1.5811519409e+00 -2.7386354961e+00 1.5811519409e+00 2.7386354961e+00 
67800 4.8908395385e+00 7.0504750614e-05 1.5811519409e+00 -2.7386354961e+00 1.5811519409e+00 2.7386354961e+00 
67900 4.8908395387e+00 7.0506740627e-05 1.5811519409e+00 -2.7386354961e+00 1.5811519409e+00 2.7386354961e+00 
68000 4.8908395389e+00 7.0508659158e-05 1.5811519409e+00 -2.7386354961e+00 1.5811519409e+00 2.7386354961e+00 
68100 4.8908395391e+00 7.0510507872e-05 1.5811519409e+00 -2.7386354961e+00 1.5811519409e+00 2.7386354961e+00 
68200 4.8908395393e+00 7.0512288404e-05 1.5811519409e+00 -2.7386354961e+00 1.5811519409e+00 2.7386354961e+00 
68300 4.8908395395e+00 7.0514002360e-05 1.5811519409e+00 -2.7386354961e+00 1.5811519409e+00 2.7386354961e+00 
68400 4.8908395396e+00 7.0515651316e-05 1.5811519409e+00 -2.7386354961e+00 1.5811519409e+00 2.7386354961e+00 
68500 4.8908395398e+00 7.0517236820e-05 1.5811519409e+00 -2.7386354961e+00 1.5811519409e+00 2.7386354961e+00 
68600 4.8908395400e+00 7.0518760389e-05 1.5811519409e+00 -2.7386354961e+00 1.5811519409e+00 2.7386354961e+00 
68700 4.8908395402e+00 7.0520223517e-05 1.5811519409e+00 -2.7386354961e+00 1.5811519409e+00 2.7386354961e+00 
68800 4.8908395404e+00 7.0521627664e-05 1.5811519409e+00 -2.7386354961e+00 1.5811519409e+00 2.7386354961e+00 
68900 4.8908395405e+00 7.0522974268e-05 1.5811519409e+00 -2.7386354961e+00 1.5811519409e+00 2.7386354961e+00 
69000 4.8908395407e+00 7.0524264736e-05 1.5811519409e+00 -2.7386354961e+00 1.5811519409e+00 2.7386354961e+00 
69100 4.8908395409e+00 7.0525500452e-05 1.5811519409e+00 -2.7386354961e+00 1.5811519409e+00 2.7386354961e+00 
69200 4.8908395410e+00 7.0526682769e-05 1.5811519409e+00 -2.7386354961e+00 1.5811519409e+00 2.7386354961e+00 
69300 4.8908395412e+00 7.0527813019e-05 1.5811519409e+00 -2.7386354961e+00 1.5811519409e+00 2.7386354961e+00 
69400 4.8908395414e+00 7.0528892506e-05 1.5811519409e+00 -2.7386354961e+00 1.5811519409e+00 2.7386354961e+00 
69500 4.8908395415e+00 7.0529922510e-05 1.5811519409e+00 -2.7386354961e+00 1.5811519409e+00 2.7386354961e+00 
69600 4.8908395417e+00 7.0530904284e-05 1.5811519409e+00 -2.7386354961e+00 1.5811519409e+00 2.7386354961e+00 
69700 4.8908395418e+00 7.0531839060e-05 1.5811519409e+00 -2.7386354961e+00 1.5811519409e+00 2.7386354961e+00 
69800 4.8908395420e+00 7.0532728042e-05 1.5811519409e+00 -2.7386354961e+00 1.5811519409e+00 2.7386354961e+00 
69900 4.8908395421e+00 7.0533572414e-05 1.5811519409e+00 -2.7386354961e+00 1.5811519409e+00 2.7386354961e+00 
70000 4.8908395423e+00 7.0534373334e-05 1.5811519409e+00 -2.7386354961e+00 1.5811519409e+00 2.7386354961e+00 
70100 4.8908395424e+00 7.0535131940e-05 1.5811519409e+00 -2.7386354961e+00 1.5811519409e+00 2.7386354961e+00 
70200 4.8908395426e+00 7.0535849343e-05 1.5811519409e+00 -2.7386354961e+00 1.5811519409e+00 2.7386354961e+00 
70300 4.8908395427e+00 7.0536526635e-05 1.5811519409e+00 -2.7386354961e+00 1.5811519409e+00 2.7386354961e+00 
70400 4.8908395429e+00 7.0537164886e-05 1.5811519409e+00 -2.7386354961e+00 1.5811519409e+00 2.7386354961e+00 
70500 4.8908395430e+00 7.0537765143e-05 1.5811519409e+00 -2.7386354961e+00 1.5811519409e+00 2.7386354961e+00 
70600 4.8908395431e+00 7.0538328431e-05 1.5811519409e+00 -2.7386354961e+00 1.5811519409e+00 2.7386354961e+00 
70700 4.8908395433e+00 7.0538855758e-05 1.5811519409e+00 -2.7386354961e+00 1.5811519409e+00 2.7386354961e+00 
70800 4.8908395434e+00 7.0539348107e-05 1.5811519409e+00 -2.7386354961e+00 1.5811519409e+00 2.7386354961e+00 
70900 4.8908395435e+00 7.0539806442e-05 1.5811519409e+00 -2.7386354961e+00 1.5811519409e+00 2.7386354961e+00 
71000 4.8908395436e+00 7.0540231710e-05 1.5811519409e+00 -2.7386354961e+00 1.5811519409e+00 2.7386354961e+00 
71100 4.8908395438e+00 7.0540624833e-05 1.5811519409e+00 -2.7386354961e+00 1.5811519409e+00 2.7386354961e+00 
71200 4.8908395439e+00 7.0540986718e-05 1.5811519409e+00 -2.7386354961e+00 1.5811519409e+00 2.7386354961e+00 
71300 4.8908395440e+00 7.0541318251e-05 1.5811519409e+00 -2.7386354961e+00 1.5811519409e+00 2.7386354961e+00 
71400 4.8908395441e+00 7.0541620301e-05 1.5811519409e+00 -2.7386354961e+00 1.5811519409e+00 2.7386354961e+00 
71500 4.8908395443e+00 7.0541893717e-05 1.5811519409e+00 -2.7386354961e+00 1.5811519409e+00 2.7386354961e+00 
71600 4.8908395444e+00 7.0542139330e-05 1.5811519409e+00 -2.7386354961e+00 1.5811519409e+00 2.7386354961e+00 
71700 4.8908395445e+00 7.0542357954e-05 1.5811519409e+00 -2.7386354961e+00 1.5811519409e+00 2.7386354961e+00 
71800 4.8908395446e+00 7.0542550385e-05 1.5811519409e+00 -2.7386354961e+00 1.5811519409e+00 2.7386354961e+00 
71900 4.8908395447e+00 7.0542717402e-05 1.5811519409e+00 -2.7386354961e+00 1.5811519409e+00 2.7386354961e+00 
72000 4.8908395448e+00 7.0542859769e-05 1.5811519409e+00 -2.7386354961e+00 1.5811519409e+00 2.7386354961e+00 
72100 4.8908395449e+00 7.0542978228e-05 1.5811519409e+00 -2.7386354961e+00 1.5811519409e+00 2.7386354961e+00 
72200 4.8908395450e+00 7.0543073512e-05 1.5811519409e+00 -2.7386354961e+00 1.5811519409e+00 2.7386354961e+00 
72300 4.8908395451e+00 7.0543146331e-05 1.5811519409e+00 -2.7386354961e+00 1.5811519409e+00 2.7386354961e+00 
72400 4.8908395452e+00 7.0543197385e-05 1.5811519409e+00 -2.7386354961e+00 1.5811519409e+00 2.7386354961e+00 
72500 4.8908395453e+00 7.0543227356e-05 1.5811519409e+00 -2.7386354961e+00 1.5811519409e+00 2.7386354961e+00 
72600 4.8908395454e+00 7.0543236909e-05 1.5811519409e+00 -2.7386354961e+00 1.5811519409e+00 2.7386354961e+00 
72700 4.8908395455e+00 7.0543226697e-05 1.5811519409e+00 -2.7386354961e+00 1.5811519409e+00 2.7386354961e+00 
72800 4.8908395456e+00 7.0543197357e-05 1.5811519409e+00 -2.7386354961e+00 1.5811519409e+00 2.7386354961e+00 
72900 4.8908395457e+00 7.0543149513e-05 1.5811519409e+00 -2.7386354961e+00 1.5811519409e+00 2.7386354961e+00 
73000 4.8908395458e+00 7.0543083773e-05 1.5811519409e+00 -2.7386354961e+00 1.5811519409e+00 2.7386354961e+00 
73100 4.8908395459e+00 7.0543000732e-05 1.5811519409e+00 -2.7386354961e+00 1.5811519409e+00 2.7386354961e+00 
73200 4.8908395460e+00 7.0542900972e-05 1.5811519409e+00 -2.7386354961e+00 1.5811519409e+00 2.7386354961e+00 
73300 4.8908395461e+00 7.0542785059e-05 1.5811519409e+00 -2.7386354961e+00 1.5811519409e+00 2.7386354961e+00 
73400 4.8908395462e+00 7.0542653550e-05 1.5811519409e+00 -2.7386354961e+00 1.5811519409e+00 2.7386354961e+00 
73500 4.8908395463e+00 7.0542506985e-05 1.5811519409e+00 -2.7386354961e+00 1.5811519409e+00 2.7386354961e+00 
73600 4.8908395464e+00 7.0542345895e-05 1.5811519409e+00 -2.7386354961e+00 1.5811519409e+00 2.7386354961e+00 
73700 4.8908395465e+00 7.0542170796e-05 1.5811519409e+00 -2.7386354961e+00 1.5811519409e+00 2.7386354961e+00 
73800 4.8908395466e+00 7.0541982193e-05 1.5811519409e+00 -2.7386354961e+00 1.5811519409e+00 2.7386354961e+00 
73900 4.8908395466e+00 7.0541780578e-05 1.5811519409e+00 -2.7386354961e+00 1.5811519409e+00 2.7386354961e+00 
74000 4.8908395467e+00 7.0541566433e-05 1.5811519409e+00 -2.7386354961e+00 1.5811519409e+00 2.7386354961e+00 
74100 4.8908395468e+00 7.0541340226e-05 1.5811519409e+00 -2.7386354961e+00 1.5811519409e+00 2.7386354961e+00 
74200 4.8908395469e+00 7.0541102417e-05 1.5811519409e+00 -2.7386354961e+00 1.5811519409e+00 2.7386354961e+00 
74300 4.8908395470e+00 7.0540853453e-05 1.5811519409e+00 -2.7386354961e+00 1.5811519409e+00 2.7386354961e+00 
74400 4.8908395470e+00 7.0540593770e-05 1.5811519409e+00 -2.7386354961e+00 1.5811519409e+00 2.7386354961e+00 
74500 4.8908395471e+00 7.0540323794e-05 1.5811519409e+00 -2.7386354961e+00 1.5811519409e+00 2.7386354961e+00 
74600 4.8908395472e+00 7.0540043939e-05 1.5811519409e+00 -2.7386354961e+00 1.5811519409e+00 2.7386354961e+00 
74700 4.8908395473e+00 7.0539754611e-05 1.5811519409e+00 -2.7386354961e+00 1.5811519409e+00 2.7386354961e+00 
74800 4.8908395473e+00 7.0539456205e-05 1.5811519409e+00 -2.7386354961e+00 1.5811519409e+00 2.7386354961e+00 
74900 4.8908395474e+00 7.0539149108e-05 1.5811519409e+00 -2.7386354961e+00 1.5811519409e+00 2.7386354961e+00 
75000 4.8908395475e+00 7.0538833692e-05 1.5811519409e+00 -2.7386354961e+00 1.5811519409e+00 2.7386354961e+00 
75100 4.8908395476e+00 7.0538510326e-05 1.5811519409e+00 -2.7386354961e+00 1.5811519409e+00 2.7386354961e+00 
75200 4.8908395476e+00 7.0538179366e-05 1.5811519409e+00 -2.7386354961e+00 1.5811519409e+00 2.7386354961e+00 
75300 4.8908395477e+00 7.0537841160e-05 1.5811519409e+00 -2.7386354961e+00 1.5811519409e+00 2.7386354961e+00 
75400 4.8908395478e+00 7.0537496046e-05 1.5811519409e+00 -2.7386354961e+00 1.5811519409e+00 2.7386354961e+00 
75500 4.8908395478e+00 7.0537144356e-05 1.5811519409e+00 -2.7386354961e+00 1.5811519409e+00 2.7386354961e+00 
75600 4.8908395479e+00 7.0536786410e-05 1.5811519409e+00 -2.7386354961e+00 1.5811519409e+00 2.7386354961e+00 
75700 4.8908395480e+00 7.0536422523e-05 1.5811519409e+00 -2.7386354961e+00 1.5811519409e+00 2.7386354961e+00 
75800 4.8908395480e+00 7.0536052999e-05 1.5811519409e+00 -2.7386354961e+00 1.5811519409e+00 2.7386354961e+00 
75900 4.8908395481e+00 7.0535678136e-05 1.5811519409e+00 -2.7386354961e+00 1.5811519409e+00 2.7386354961e+00 
76000 4.8908395481e+00 7.0535298222e-05 1.5811519409e+00 -2.7386354961e+00 1.5811519409e+00 2.7386354961e+00 
76100 4.8908395482e+00 7.0534913541e-05 1.5811519409e+00 -2.7386354961e+00 1.5811519409e+00 2.7386354961e+00 
76200 4.8908395483e+00 7.0534524365e-05 1.5811519409e+00 -2.7386354961e+00 1.5811519409e+00 2.7386354961e+00 
76300 4.8908395483e+00 7.0534130961e-05 1.5811519409e+00 -2.7386354961e+00 1.5811519409e+00 2.7386354961e+00 
76400 4.8908395484e+00 7.0533733590e-05 1.5811519409e+00 -2.7386354961e+00 1.5811519409e+00 2.7386354961e+00 
76500 4.8908395484e+00 7.0533332504e-05 1.5811519409e+00 -2.7386354961e+00 1.5811519409e+00 2.7386354961e+00 
76600 4.8908395485e+00 7.0532927947e-05 1.5811519409e+00 -2.7386354961e+00 1.5811519409e+00 2.7386354961e+00 
76700 4.8908395486e+00 7.0532520160e-05 1.5811519409e+00 -2.7386354961e+00 1.5811519409e+00 2.7386354961e+00 
76800 4.8908395486e+00 7.0532109375e-05 1.5811519409e+00 -2.7386354961e+00 1.5811519409e+00 2.7386354961e+00 
76900 4.8908395487e+00 7.0531695816e-05 1.5811519409e+00 -2.7386354961e+00 1.5811519409e+00 2.7386354961e+00 
77000 4.8908395487e+00 7.0531279704e-05 1.5811519409e+00 -2.7386354961e+00 1.5811519409e+00 2.7386354961e+00 
77100 4.8908395488e+00 7.0530861251e-05 1.5811519409e+00 -2.7386354961e+00 1.5811519409e+00 2.7386354961e+00 
77200 4.8908395488e+00 7.0530440666e-05 1.5811519409e+00 -2.7386354961e+00 1.5811519409e+00 2.7386354961e+00 
77300 4.8908395489e+00 7.0530018148e-05 1.5811519409e+00 -2.7386354961e+00 1.5811519409e+00 2.7386354961e+00 
77400 4.8908395489e+00 7.0529593894e-05 1.5811519409e+00 -2.7386354961e+00 1.5811519409e+00 2.7386354961e+00 
77500 4.8908395490e+00 7.0529168093e-05 1.5811519409e+00 -2.7386354961e+00 1.5811519409e+00 2.7386354961e+00 
77600 4.8908395490e+00 7.0528954671e-05 1.5811519409e+00 -2.7386354961e+00 1.5811519409e+00 2.7386354961e+00 
77600 4.8908395490e+00 7.0528954671e-05 1.5811519409e+00 -2.7386354961e+00 1.5811519409e+00 2.7386354961e+00 
