# step Hamiltonian StressXX CellTensor1 CellTensor2 CellTensor3 CellTensor4 
0 6.0068863526e+00 1.8000424948e-01 2.2220832177e+00 -3.8487610317e+00 2.2220832177e+00 3.8487610317e+00 
100 6.0098277804e+00 1.8564798643e-01 2.2220832177e+00 -3.8487610317e+00 2.2220832177e+00 3.8487610317e+00 
200 6.0121705927e+00 1.9119044460e-01 2.2179071880e+00 -3.8415279361e+00 2.2179071880e+00 3.8415279361e+00 
300 6.0145373784e+00 1.9666222103e-01 2.2135984324e+00 -3.8340649525e+00 2.2135984324e+00 3.8340649525e+00 
400 6.0168994240e+00 2.0206198294e-01 2.2091577825e+00 -3.8263735213e+00 2.2091577825e+00 3.8263735213e+00 
500 6.0192302266e+00 2.0738770331e-01 2.2045860828e+00 -3.8184551050e+00 2.2045860828e+00 3.8184551050e+00 
600 6.0215054548e+00 2.1263671995e-01 2.1998842069e+00 -3.8103112172e+00 2.1998842069e+00 3.8103112172e+00 
700 6.0237029053e+00 2.1780579652e-01 2.1950530733e+00 -3.8019434482e+00 2.1950530733e+00 3.8019434482e+00 
800 6.0258024549e+00 2.2289118518e-01 2.1900936587e+00 -3.7933534903e+00 2.1900936587e+00 3.7933534903e+00 
900 6.0277860099e+00 2.2788869064e-01 2.1850070117e+00 -3.7845431591e+00 2.1850070117e+00 3.7845431591e+00 
1000 6.0296374511e+00 2.3279373506e-01 2.1797942635e+00 -3.7755144144e+00 2.1797942635e+00 3.7755144144e+00 
1100 6.0313425748e+00 2.3760142356e-01 2.1744566392e+00 -3.7662693779e+00 2.1744566392e+00 3.7662693779e+00 
1200 6.0328890313e+00 2.4230660976e-01 2.1689954663e+00 -3.7568103490e+00 2.1689954663e+00 3.7568103490e+00 
1300 6.0342662584e+00 2.4690396100e-01 2.1634121825e+00 -3.7471398179e+00 2.1634121825e+00 3.7471398179e+00 
1400 6.0354654119e+00 2.5138802260e-01 2.1577083427e+00 -3.7372604775e+00 2.1577083427e+00 3.7372604775e+00 
1500 6.0364792919e+00 2.5575328083e-01 2.1518856234e+00 -3.7271752318e+00 2.1518856234e+00 3.7271752318e+00 
1600 6.0373022659e+00 2.5999422380e-01 2.1459458271e+00 -3.7168872029e+00 2.1459458271e+00 3.7168872029e+00 
1700 6.0379301880e+00 2.6410539993e-01 2.1398908850e+00 -3.7063997356e+00 2.1398908850e+00 3.7063997356e+00 
1800 6.0383603150e+00 2.6808147330e-01 2.1337228580e+00 -3.6957163994e+00 2.1337228580e+00 3.6957163994e+00 
1900 6.0385912199e+00 2.7191727537e-01 2.1274439372e+00 -3.6848409894e+00 2.1274439372e+00 3.6848409894e+00 
2000 6.0386227024e+00 2.7560785256e-01 2.1210564427e+00 -3.6737775245e+00 2.1210564427e+00 3.6737775245e+00 
2100 6.0384556984e+00 2.7914850925e-01 2.1145628220e+00 -3.6625302435e+00 2.1145628220e+00 3.6625302435e+00 
2200 6.0380921869e+00 2.8253484565e-01 2.1079656468e+00 -3.6511036009e+00 2.1079656468e+00 3.6511036009e+00 
2300 6.0375350976e+00 2.8576279050e-01 2.1012676092e+00 -3.6395022595e+00 2.1012676092e+00 3.6395022595e+00 
2400 6.0367882177e+00 2.8882862799e-01 2.0944715171e+00 -3.6277310825e+00 2.0944715171e+00 3.6277310825e+00 
2500 6.0358560995e+00 2.9172901911e-01 2.0875802886e+00 -3.6157951248e+00 2.0875802886e+00 3.6157951248e+00 
2600 6.0347439699e+00 2.9446101718e-01 2.0805969468e+00 -3.6036996220e+00 2.0805969468e+00 3.6036996220e+00 
2700 6.0334576418e+00 2.9702207779e-01 2.0735246128e+00 -3.5914499801e+00 2.0735246128e+00 3.5914499801e+00 
2800 6.0320034285e+00 2.9941006324e-01 2.0663664992e+00 -3.5790517638e+00 2.0663664992e+00 3.5790517638e+00 
2900 6.0303880616e+00 3.0162324179e-01 2.0591259035e+00 -3.5665106841e+00 2.0591259035e+00 3.5665106841e+00 
3000 6.0286186133e+00 3.0366028224e-01 2.0518062006e+00 -3.5538325868e+00 2.0518062006e+00 3.5538325868e+00 
3100 6.0267024226e+00 3.0552024402e-01 2.0444108361e+00 -3.5410234396e+00 2.0444108361e+00 3.5410234396e+00 
3200 6.0246470274e+00 3.0720256365e-01 2.0369433190e+00 -3.5280893207e+00 2.0369433190e+00 3.5280893207e+00 
3300 6.0224601010e+00 3.0870703784e-01 2.0294072155e+00 -3.5150364065e+00 2.0294072155e+00 3.5150364065e+00 
3400 6.0201493947e+00 3.1003380405e-01 2.0218061416e+00 -3.5018709603e+00 2.0218061416e+00 3.5018709603e+00 
3500 6.0177226861e+00 3.1118331890e-01 2.0141437576e+00 -3.4885993219e+00 2.0141437576e+00 3.4885993219e+00 
3600 6.0151877320e+00 3.1215633525e-01 2.0064237615e+00 -3.4752278965e+00 2.0064237615e+00 3.4752278965e+00 
3700 6.0125522283e+00 3.1295387831e-01 1.9986498842e+00 -3.4617631459e+00 1.9986498842e+00 3.4617631459e+00 
3800 6.0098237742e+00 3.1357722146e-01 1.9908258836e+00 -3.4482115794e+00 1.9908258836e+00 3.4482115794e+00 
3900 6.0070098415e+00 3.1402786219e-01 1.9829555405e+00 -3.4345797454e+00 1.9829555405e+00 3.4345797454e+00 
4000 6.0041177499e+00 3.1430749869e-01 1.9750426543e+00 -3.4208742243e+00 1.9750426543e+00 3.4208742243e+00 
4100 6.0011546455e+00 3.1441800731e-01 1.9670910387e+00 -3.4071016221e+00 1.9670910387e+00 3.4071016221e+00 
4200 5.9981274843e+00 3.1436142139e-01 1.9591045188e+00 -3.3932685638e+00 1.9591045188e+00 3.3932685638e+00 
4300 5.9950430191e+00 3.1413991156e-01 1.9510869278e+00 -3.3793816890e+00 1.9510869278e+00 3.3793816890e+00 
4400 5.9919077905e+00 3.1375576786e-01 1.9430421046e+00 -3.3654476464e+00 1.9430421046e+00 3.3654476464e+00 
4500 5.9887281196e+00 3.1321138365e-01 1.9349738911e+00 -3.3514730906e+00 1.9349738911e+00 3.3514730906e+00 
4600 5.9855101053e+00 3.1250924154e-01 1.9268861302e+00 -3.3374646779e+00 1.9268861302e+00 3.3374646779e+00 
4700 5.9822596217e+00 3.1165190129e-01 1.9187826644e+00 -3.3234290633e+00 1.9187826644e+00 3.3234290633e+00 
4800 5.9789823194e+00 3.1064198967e-01 1.9106673334e+00 -3.3093728978e+00 1.9106673334e+00 3.3093728978e+00 
4900 5.9756836271e+00 3.0948219232e-01 1.9025439734e+00 -3.2953028255e+00 1.9025439734e+00 3.2953028255e+00 
5000 5.9723687548e+00 3.0817524739e-01 1.8944164151e+00 -3.2812254817e+00 1.8944164151e+00 3.2812254817e+00 
5100 5.9690426988e+00 3.0672394102e-01 1.8862884828e+00 -3.2671474899e+00 1.8862884828e+00 3.2671474899e+00 
5200 5.9657102460e+00 3.0513110439e-01 1.8781639926e+00 -3.2530754601e+00 1.8781639926e+00 3.2530754601e+00 
5300 5.9623759805e+00 3.0339961223e-01 1.8700467515e+00 -3.2390159861e+00 1.8700467515e+00 3.2390159861e+00 
5400 5.9590442889e+00 3.0153238270e-01 1.8619405557e+00 -3.2249756431e+00 1.8619405557e+00 3.2249756431e+00 
5500 5.9557193670e+00 2.9953237839e-01 1.8538491890e+00 -3.2109609849e+00 1.8538491890e+00 3.2109609849e+00 
5600 5.9524052262e+00 2.9740260830e-01 1.8457764213e+00 -3.1969785410e+00 1.8457764213e+00 3.1969785410e+00 
5700 5.9491056992e+00 2.9514613064e-01 1.8377260065e+00 -3.1830348137e+00 1.8377260065e+00 3.1830348137e+00 
5800 5.9458244469e+00 2.9276605622e-01 1.8297016808e+00 -3.1691362739e+00 1.8297016808e+00 3.1691362739e+00 
5900 5.9425649633e+00 2.9026555231e-01 1.8217071599e+00 -3.1552893575e+00 1.8217071599e+00 3.1552893575e+00 
6000 5.9393305819e+00 2.8764784680e-01 1.8137461369e+00 -3.1415004611e+00 1.8137461369e+00 3.1415004611e+00 
6100 5.9361244801e+00 2.8491623243e-01 1.8058222791e+00 -3.1277759369e+00 1.8058222791e+00 3.1277759369e+00 
6200 5.9329496844e+00 2.8207407103e-01 1.7979392255e+00 -3.1141220875e+00 1.7979392255e+00 3.1141220875e+00 
6300 5.9298090747e+00 2.7912479751e-01 1.7901005829e+00 -3.1005451603e+00 1.7901005829e+00 3.1005451603e+00 
6400 5.9267053877e+00 2.7607192358e-01 1.7823099229e+00 -3.0870513413e+00 1.7823099229e+00 3.0870513413e+00 
6500 5.9236412211e+00 2.7291904096e-01 1.7745707775e+00 -3.0736467482e+00 1.7745707775e+00 3.0736467482e+00 
6600 5.9206190358e+00 2.6966982411e-01 1.7668866355e+00 -3.0603374239e+00 1.7668866355e+00 3.0603374239e+00 
6700 5.9176411592e+00 2.6632803211e-01 1.7592609379e+00 -3.0471293281e+00 1.7592609379e+00 3.0471293281e+00 
6800 5.9147097870e+00 2.6289751002e-01 1.7516970734e+00 -3.0340283306e+00 1.7516970734e+00 3.0340283306e+00 
6900 5.9118269852e+00 2.5938218913e-01 1.7441983739e+00 -3.0210402021e+00 1.7441983739e+00 3.0210402021e+00 
7000 5.9089946913e+00 2.5578608654e-01 1.7367681093e+00 -3.0081706063e+00 1.7367681093e+00 3.0081706063e+00 
7100 5.9062147160e+00 2.5211330362e-01 1.7294094827e+00 -2.9954250911e+00 1.7294094827e+00 2.9954250911e+00 
7200 5.9034887440e+00 2.4836802361e-01 1.7221256248e+00 -2.9828090792e+00 1.7221256248e+00 2.9828090792e+00 
7300 5.9008183343e+00 2.4455450810e-01 1.7149195895e+00 -2.9703278599e+00 1.7149195895e+00 2.9703278599e+00 
7400 5.8982049215e+00 2.4067709265e-01 1.7077943477e+00 -2.9579865791e+00 1.7077943477e+00 2.9579865791e+00 
7500 5.8956498158e+00 2.3674018126e-01 1.7007527826e+00 -2.9457902307e+00 1.7007527826e+00 2.9457902307e+00 
7600 5.8931542033e+00 2.3274824004e-01 1.6937976844e+00 -2.9337436472e+00 1.6937976844e+00 2.9337436472e+00 
7700 5.8907191467e+00 2.2870578984e-01 1.6869317449e+00 -2.9218514911e+00 1.6869317449e+00 2.9218514911e+00 
7800 5.8883455858e+00 2.2461739804e-01 1.6801575526e+00 -2.9101182459e+00 1.6801575526e+00 2.9101182459e+00 
7900 5.8860343372e+00 2.2048766963e-01 1.6734775879e+00 -2.8985482075e+00 1.6734775879e+00 2.8985482075e+00 
8000 5.8837860956e+00 2.1632123742e-01 1.6668942180e+00 -2.8871454764e+00 1.6668942180e+00 2.8871454764e+00 
8100 5.8816014344e+00 2.1212275170e-01 1.6604096931e+00 -2.8759139498e+00 1.6604096931e+00 2.8759139498e+00 
8200 5.8794808062e+00 2.0789686939e-01 1.6540261415e+00 -2.8648573141e+00 1.6540261415e+00 2.8648573141e+00 
8300 5.8774245443e+00 2.0364824264e-01 1.6477455662e+00 -2.8539790385e+00 1.6477455662e+00 2.8539790385e+00 
8400 5.8754328640e+00 1.9938150719e-01 1.6415698411e+00 -2.8432823689e+00 1.6415698411e+00 2.8432823689e+00 
8500 5.8735058639e+00 1.9510127050e-01 1.6355007080e+00 -2.8327703220e+00 1.6355007080e+00 2.8327703220e+00 
8600 5.8716435285e+00 1.9081209964e-01 1.6295397736e+00 -2.8224456807e+00 1.6295397736e+00 2.8224456807e+00 
8700 5.8698457296e+00 1.8651850940e-01 1.6236885072e+00 -2.8123109901e+00 1.6236885072e+00 2.8123109901e+00 
8800 5.8681122296e+00 1.8222495026e-01 1.6179482389e+00 -2.8023685537e+00 1.6179482389e+00 2.8023685537e+00 
8900 5.8664426837e+00 1.7793579676e-01 1.6123201579e+00 -2.7926204315e+00 1.6123201579e+00 2.7926204315e+00 
9000 5.8648366436e+00 1.7365533612e-01 1.6068053117e+00 -2.7830684377e+00 1.6068053117e+00 2.7830684377e+00 
9100 5.8632935607e+00 1.6938775723e-01 1.6014046054e+00 -2.7737141399e+00 1.6014046054e+00 2.7737141399e+00 
9200 5.8618127899e+00 1.6513714018e-01 1.5961188015e+00 -2.7645588591e+00 1.5961188015e+00 2.7645588591e+00 
9300 5.8603935937e+00 1.6090744642e-01 1.5909485207e+00 -2.7556036701e+00 1.5909485207e+00 2.7556036701e+00 
9400 5.8590351466e+00 1.5670250949e-01 1.5858942424e+00 -2.7468494033e+00 1.5858942424e+00 2.7468494033e+00 
9500 5.8577365394e+00 1.5252602648e-01 1.5809563062e+00 -2.7382966468e+00 1.5809563062e+00 2.7382966468e+00 
9600 5.8564967845e+00 1.4838155036e-01 1.5761349135e+00 -2.7299457497e+00 1.5761349135e+00 2.7299457497e+00 
9700 5.8553148202e+00 1.4427248301e-01 1.5714301299e+00 -2.7217968255e+00 1.5714301299e+00 2.7217968255e+00 
9800 5.8541895161e+00 1.4020206915e-01 1.5668418879e+00 -2.7138497572e+00 1.5668418879e+00 2.7138497572e+00 
9900 5.8531196787e+00 1.3617339116e-01 1.5623699895e+00 -2.7061042020e+00 1.5623699895e+00 2.7061042020e+00 
10000 5.8521040563e+00 1.3218936474e-01 1.5580141099e+00 -2.6985595973e+00 1.5580141099e+00 2.6985595973e+00 
10100 5.8511413443e+00 1.2825273552e-01 1.5537738013e+00 -2.6912151674e+00 1.5537738013e+00 2.6912151674e+00 
10200 5.8502301910e+00 1.2436607652e-01 1.5496484966e+00 -2.6840699301e+00 1.5496484966e+00 2.6840699301e+00 
10300 5.8493692031e+00 1.2053178644e-01 1.5456375140e+00 -2.6771227044e+00 1.5456375140e+00 2.6771227044e+00 
10400 5.8485569503e+00 1.1675208893e-01 1.5417400613e+00 -2.6703721183e+00 1.5417400613e+00 2.6703721183e+00 
10500 5.8477919717e+00 1.1302903253e-01 1.5379552410e+00 -2.6638166172e+00 1.5379552410e+00 2.6638166172e+00 
10600 5.8470727802e+00 1.0936449149e-01 1.5342820549e+00 -2.6574544723e+00 1.5342820549e+00 2.6574544723e+00 
10700 5.8463978679e+00 1.0576016731e-01 1.5307194097e+00 -2.6512837898e+00 1.5307194097e+00 2.6512837898e+00 
10800 5.8457657112e+00 1.0221759099e-01 1.5272661218e+00 -2.6453025197e+00 1.5272661218e+00 2.6453025197e+00 
10900 5.8451747755e+00 9.8738125892e-02 1.5239209229e+00 -2.6395084652e+00 1.5239209229e+00 2.6395084652e+00 
11000 5.8446235196e+00 9.5322971292e-02 1.5206824652e+00 -2.6338992919e+00 1.5206824652e+00 2.6338992919e+00 
11100 5.8441104006e+00 9.1973166367e-02 1.5175493273e+00 -2.6284725378e+00 1.5175493273e+00 2.6284725378e+00 
11200 5.8436338778e+00 8.8689594757e-02 1.5145200190e+00 -2.6232256219e+00 1.5145200190e+00 2.6232256219e+00 
11300 5.8431924167e+00 8.5472989518e-02 1.5115929872e+00 -2.6181558543e+00 1.5115929872e+00 2.6181558543e+00 
11400 5.8427844929e+00 8.2323938479e-02 1.5087666214e+00 -2.6132604450e+00 1.5087666214e+00 2.6132604450e+00 
11500 5.8424085957e+00 7.9242889904e-02 1.5060392585e+00 -2.6085365139e+00 1.5060392585e+00 2.6085365139e+00 
11600 5.8420632313e+00 7.6230158436e-02 1.5034091883e+00 -2.6039810987e+00 1.5034091883e+00 2.6039810987e+00 
11700 5.8417469259e+00 7.3285931252e-02 1.5008746588e+00 -2.5995911649e+00 1.5008746588e+00 2.5995911649e+00 
11800 5.8414582283e+00 7.0410274385e-02 1.4984338811e+00 -2.5953636138e+00 1.4984338811e+00 2.5953636138e+00 
11900 5.8411957129e+00 6.7603139164e-02 1.4960850338e+00 -2.5912952910e+00 1.4960850338e+00 2.5912952910e+00 
12000 5.8409579820e+00 6.4864368732e-02 1.4938262686e+00 -2.5873829948e+00 1.4938262686e+00 2.5873829948e+00 
12100 5.8407436675e+00 6.2193704585e-02 1.4916557138e+00 -2.5836234838e+00 1.4916557138e+00 2.5836234838e+00 
12200 5.8405514333e+00 5.9590793108e-02 1.4895714796e+00 -2.5800134842e+00 1.4895714796e+00 2.5800134842e+00 
12300 5.8403799767e+00 5.7055192064e-02 1.4875716616e+00 -2.5765496978e+00 1.4875716616e+00 2.5765496978e+00 
12400 5.8402280299e+00 5.4586377004e-02 1.4856543450e+00 -2.5732288080e+00 1.4856543450e+00 2.5732288080e+00 
12500 5.8400943615e+00 5.2183747571e-02 1.4838176084e+00 -2.5700474869e+00 1.4838176084e+00 2.5700474869e+00 
12600 5.8399777773e+00 4.9846633662e-02 1.4820595275e+00 -2.5670024014e+00 1.4820595275e+00 2.5670024014e+00 
12700 5.8398771213e+00 4.7574301440e-02 1.4803781781e+00 -2.5640902190e+00 1.4803781781e+00 2.5640902190e+00 
12800 5.8397912765e+00 4.5365959162e-02 1.4787716398e+00 -2.5613076129e+00 1.4787716398e+00 2.5613076129e+00 
12900 5.8397191653e+00 4.3220762813e-02 1.4772379984e+00 -2.5586512681e+00 1.4772379984e+00 2.5586512681e+00 
13000 5.8396597503e+00 4.1137821532e-02 1.4757753491e+00 -2.5561178852e+00 1.4757753491e+00 2.5561178852e+00 
13100 5.8396120338e+00 3.9116202809e-02 1.4743817989e+00 -2.5537041855e+00 1.4743817989e+00 2.5537041855e+00 
13200 5.8395750589e+00 3.7154937460e-02 1.4730554691e+00 -2.5514069148e+00 1.4730554691e+00 2.5514069148e+00 
13300 5.8395479086e+00 3.5253024355e-02 1.4717944972e+00 -2.5492228474e+00 1.4717944972e+00 2.5492228474e+00 
13400 5.8395297063e+00 3.3409434912e-02 1.4705970393e+00 -2.5471487895e+00 1.4705970393e+00 2.5471487895e+00 
13500 5.8395196153e+00 3.1623117339e-02 1.4694612716e+00 -2.5451815822e+00 1.4694612716e+00 2.5451815822e+00 
13600 5.8395168386e+00 2.9893000634e-02 1.4683853925e+00 -2.5433181048e+00 1.4683853925e+00 2.5433181048e+00 
13700 5.8395206181e+00 2.8217998336e-02 1.4673676234e+00 -2.5415552771e+00 1.4673676234e+00 2.5415552771e+00 
13800 5.8395302349e+00 2.6597012041e-02 1.4664062108e+00 -2.5398900616e+00 1.4664062108e+00 2.5398900616e+00 
13900 5.8395450079e+00 2.5028934671e-02 1.4654994270e+00 -2.5383194659e+00 1.4654994270e+00 2.5383194659e+00 
14000 5.8395642936e+00 2.3512653512e-02 1.4646455712e+00 -2.5368405444e+00 1.4646455712e+00 2.5368405444e+00 
14100 5.8395874851e+00 2.2047053026e-02 1.4638429707e+00 -2.5354503996e+00 1.4638429707e+00 2.5354503996e+00 
14200 5.8396140118e+00 2.0631017435e-02 1.4630899814e+00 -2.5341461839e+00 1.4630899814e+00 2.5341461839e+00 
14300 5.8396433380e+00 1.9263433100e-02 1.4623849886e+00 -2.5329251004e+00 1.4623849886e+00 2.5329251004e+00 
14400 5.8396749624e+00 1.7943190687e-02 1.4617264073e+00 -2.5317844042e+00 1.4617264073e+00 2.5317844042e+00 
14500 5.8397084173e+00 1.6669187136e-02 1.4611126832e+00 -2.5307214029e+00 1.4611126832e+00 2.5307214029e+00 
14600 5.8397432673e+00 1.5440327439e-02 1.4605422925e+00 -2.5297334572e+00 1.4605422925e+00 2.5297334572e+00 
14700 5.8397791084e+00 1.4255526249e-02 1.4600137424e+00 -2.5288179816e+00 1.4600137424e+00 2.5288179816e+00 
14800 5.8398155674e+00 1.3113709301e-02 1.4595255713e+00 -2.5279724444e+00 1.4595255713e+00 2.5279724444e+00 
14900 5.8398523003e+00 1.2013814685e-02 1.4590763487e+00 -2.5271943681e+00 1.4590763487e+00 2.5271943681e+00 
15000 5.8398889918e+00 1.0954793963e-02 1.4586646756e+00 -2.5264813293e+00 1.4586646756e+00 2.5264813293e+00 
15100 5.8399253539e+00 9.9356131358e-03 1.4582891841e+00 -2.5258309590e+00 1.4582891841e+00 2.5258309590e+00 
15200 5.8399611250e+00 8.9552534894e-03 1.4579485375e+00 -2.5252409417e+00 1.4579485375e+00 2.5252409417e+00 
15300 5.8399960688e+00 8.0127123033e-03 1.4576414299e+00 -2.5247090159e+00 1.4576414299e+00 2.5247090159e+00 
15400 5.8400299732e+00 7.1070034504e-03 1.4573665866e+00 -2.5242329733e+00 1.4573665866e+00 2.5242329733e+00 
15500 5.8400626492e+00 6.2371578860e-03 1.4571227631e+00 -2.5238106585e+00 1.4571227631e+00 2.5238106585e+00 
15600 5.8400939301e+00 5.4022240388e-03 1.4569087452e+00 -2.5234399688e+00 1.4569087452e+00 2.5234399688e+00 
15700 5.8401236702e+00 4.6012681088e-03 1.4567233490e+00 -2.5231188530e+00 1.4567233490e+00 2.5231188530e+00 
15800 5.8401517435e+00 3.8333742830e-03 1.4565654197e+00 -2.5228453115e+00 1.4565654197e+00 2.5228453115e+00 
15900 5.8401780434e+00 3.0976448734e-03 1.4564338322e+00 -2.5226173952e+00 1.4564338322e+00 2.5226173952e+00 
16000 5.8402024809e+00 2.3932003862e-03 1.4563274900e+00 -2.5224332051e+00 1.4563274900e+00 2.5224332051e+00 
16100 5.8402249839e+00 1.7191795279e-03 1.4562453252e+00 -2.5222908915e+00 1.4562453252e+00 2.5222908915e+00 
16200 5.8402454964e+00 1.0747391547e-03 1.4561862978e+00 -2.5221886530e+00 1.4561862978e+00 2.5221886530e+00 
16300 5.8402639772e+00 4.5905417232e-04 1.4561493954e+00 -2.5221247362e+00 1.4561493954e+00 2.5221247362e+00 
16400 5.8402803989e+00 -1.2868261013e-04 1.4561336328e+00 -2.5220974346e+00 1.4561336328e+00 2.5220974346e+00 
16500 5.8402947474e+00 -6.8926066504e-04 1.4561380514e+00 -2.5221050879e+00 1.4561380514e+00 2.5221050879e+00 
16600 5.8403070203e+00 -1.2234519661e-03 1.4561617189e+00 -2.5221460812e+00 1.4561617189e+00 2.5221460812e+00 
16700 5.8403172268e+00 -1.7320112378e-03 1.4562037286e+00 -2.5222188441e+00 1.4562037286e+00 2.5222188441e+00 
16800 5.8403253859e+00 -2.2156762305e-03 1.4562631991e+00 -2.5223218500e+00 1.4562631991e+00 2.5223218500e+00 
16900 5.8403315265e+00 -2.6751680175e-03 1.4563392738e+00 -2.5224536153e+00 1.4563392738e+00 2.5224536153e+00 
17000 5.8403356859e+00 -3.1111913090e-03 1.4564311204e+00 -2.5226126982e+00 1.4564311204e+00 2.5226126982e+00 
17100 5.8403379091e+00 -3.5244347817e-03 1.4565379304e+00 -2.5227976987e+00 1.4565379304e+00 2.5227976987e+00 
17200 5.8403382484e+00 -3.9155714182e-03 1.4566589188e+00 -2.5230072567e+00 1.4566589188e+00 2.5230072567e+00 
17300 5.8403367622e+00 -4.2852588564e-03 1.4567933234e+00 -2.5232400522e+00 1.4567933234e+00 2.5232400522e+00 
17400 5.8403335145e+00 -4.6341397430e-03 1.4569404043e+00 -2.5234948039e+00 1.4569404043e+00 2.5234948039e+00 
17500 5.8403285744e+00 -4.9628420916e-03 1.4570994439e+00 -2.5237702685e+00 1.4570994439e+00 2.5237702685e+00 
17600 5.8403220150e+00 -5.2719796415e-03 1.4572697459e+00 -2.5240652402e+00 1.4572697459e+00 2.5240652402e+00 
17700 5.8403139130e+00 -5.5621522152e-03 1.4574506352e+00 -2.5243785496e+00 1.4574506352e+00 2.5243785496e+00 
17800 5.8403043484e+00 -5.8339460747e-03 1.4576414572e+00 -2.5247090631e+00 1.4576414572e+00 2.5247090631e+00 
17900 5.8402934034e+00 -6.0879342725e-03 1.4578415777e+00 -2.5250556820e+00 1.4578415777e+00 2.5250556820e+00 
18000 5.8402811622e+00 -6.3246769980e-03 1.4580503823e+00 -2.5254173421e+00 1.4580503823e+00 2.5254173421e+00 
18100 5.8402677103e+00 -6.5447219167e-03 1.4582672758e+00 -2.5257930127e+00 1.4582672758e+00 2.5257930127e+00 
18200 5.8402531343e+00 -6.7486045028e-03 1.4584916822e+00 -2.5261816960e+00 1.4584916822e+00 2.5261816960e+00 
18300 5.8402375212e+00 -6.9368483620e-03 1.4587230439e+00 -2.5265824262e+00 1.4587230439e+00 2.5265824262e+00 
18400 5.8402209581e+00 -7.1099655461e-03 1.4589608216e+00 -2.5269942693e+00 1.4589608216e+00 2.5269942693e+00 
18500 5.8402035316e+00 -7.2684568576e-03 1.4592044938e+00 -2.5274163219e+00 1.4592044938e+00 2.5274163219e+00 
18600 5.8401853279e+00 -7.4128121436e-03 1.4594535563e+00 -2.5278477109e+00 1.4594535563e+00 2.5278477109e+00 
18700 5.8401664319e+00 -7.5435105798e-03 1.4597075222e+00 -2.5282875926e+00 1.4597075222e+00 2.5282875926e+00 
18800 5.8401469274e+00 -7.6610209423e-03 1.4599659210e+00 -2.5287351525e+00 1.4599659210e+00 2.5287351525e+00 
18900 5.8401268963e+00 -7.7658018697e-03 1.4602282987e+00 -2.5291896040e+00 1.4602282987e+00 2.5291896040e+00 
19000 5.8401064189e+00 -7.8583021132e-03 1.4604942173e+00 -2.5296501885e+00 1.4604942173e+00 2.5296501885e+00 
19100 5.8400855732e+00 -7.9389607755e-03 1.4607632544e+00 -2.5301161745e+00 1.4607632544e+00 2.5301161745e+00 
19200 5.8400644351e+00 -8.0082075384e-03 1.4610350030e+00 -2.5305868568e+00 1.4610350030e+00 2.5305868568e+00 
19300 5.8400430779e+00 -8.0664628802e-03 1.4613090710e+00 -2.5310615565e+00 1.4613090710e+00 2.5310615565e+00 
19400 5.8400215721e+00 -8.1141382809e-03 1.4615850809e+00 -2.5315396197e+00 1.4615850809e+00 2.5315396197e+00 
19500 5.8399999856e+00 -8.1516364178e-03 1.4618626698e+00 -2.5320204178e+00 1.4618626698e+00 2.5320204178e+00 
19600 5.8399783833e+00 -8.1793513499e-03 1.4621414886e+00 -2.5325033461e+00 1.4621414886e+00 2.5325033461e+00 
19700 5.8399568271e+00 -8.1976686932e-03 1.4624212020e+00 -2.5329878239e+00 1.4624212020e+00 2.5329878239e+00 
19800 5.8399353759e+00 -8.2069657851e-03 1.4627014882e+00 -2.5334732939e+00 1.4627014882e+00 2.5334732939e+00 
19900 5.8399140854e+00 -8.2076118401e-03 1.4629820386e+00 -2.5339592214e+00 1.4629820386e+00 2.5339592214e+00 
20000 5.8398930079e+00 -8.1999680963e-03 1.4632625572e+00 -2.5344450939e+00 1.4632625572e+00 2.5344450939e+00 
20100 5.8398721929e+00 -8.1843879536e-03 1.4635427608e+00 -2.5349304208e+00 1.4635427608e+00 2.5349304208e+00 
20200 5.8398516862e+00 -8.1612171029e-03 1.4638223785e+00 -2.5354147328e+00 1.4638223785e+00 2.5354147328e+00 
20300 5.8398315308e+00 -8.1307936489e-03 1.4641011513e+00 -2.5358975814e+00 1.4641011513e+00 2.5358975814e+00 
20400 5.8398117660e+00 -8.0934482242e-03 1.4643788319e+00 -2.5363785384e+00 1.4643788319e+00 2.5363785384e+00 
20500 5.8397924284e+00 -8.0495040979e-03 1.4646551847e+00 -2.5368571954e+00 1.4646551847e+00 2.5368571954e+00 
20600 5.8397735512e+00 -7.9992772763e-03 1.4649299850e+00 -2.5373331636e+00 1.4649299850e+00 2.5373331636e+00 
20700 5.8397551644e+00 -7.9430765996e-03 1.4652030194e+00 -2.5378060731e+00 1.4652030194e+00 2.5378060731e+00 
20800 5.8397372951e+00 -7.8812038311e-03 1.4654740850e+00 -2.5382755724e+00 1.4654740850e+00 2.5382755724e+00 
20900 5.8397199674e+00 -7.8139537433e-03 1.4657429893e+00 -2.5387413282e+00 1.4657429893e+00 2.5387413282e+00 
21000 5.8397032024e+00 -7.7416141975e-03 1.4660095500e+00 -2.5392030250e+00 1.4660095500e+00 2.5392030250e+00 
21100 5.8396870187e+00 -7.6644662212e-03 1.4662735949e+00 -2.5396603641e+00 1.4662735949e+00 2.5396603641e+00 
21200 5.8396714316e+00 -7.5827840802e-03 1.4665349613e+00 -2.5401130641e+00 1.4665349613e+00 2.5401130641e+00 
21300 5.8396564543e+00 -7.4968353483e-03 1.4667934961e+00 -2.5405608595e+00 1.4667934961e+00 2.5405608595e+00 
21400 5.8396420972e+00 -7.4068809735e-03 1.4670490554e+00 -2.5410035011e+00 1.4670490554e+00 2.5410035011e+00 
21500 5.8396283683e+00 -7.3131753422e-03 1.4673015041e+00 -2.5414407551e+00 1.4673015041e+00 2.5414407551e+00 
21600 5.8396152733e+00 -7.2159663411e-03 1.4675507161e+00 -2.5418724030e+00 1.4675507161e+00 2.5418724030e+00 
21700 5.8396028156e+00 -7.1154954167e-03 1.4677965736e+00 -2.5422982407e+00 1.4677965736e+00 2.5422982407e+00 
21800 5.8395909966e+00 -7.0119976342e-03 1.4680389673e+00 -2.5427180788e+00 1.4680389673e+00 2.5427180788e+00 
21900 5.8395798157e+00 -6.9057017344e-03 1.4682777957e+00 -2.5431317417e+00 1.4682777957e+00 2.5431317417e+00 
22000 5.8395692703e+00 -6.7968301906e-03 1.4685129653e+00 -2.5435390674e+00 1.4685129653e+00 2.5435390674e+00 
22100 5.8395593561e+00 -6.6855992640e-03 1.4687443901e+00 -2.5439399070e+00 1.4687443901e+00 2.5439399070e+00 
22200 5.8395500672e+00 -6.5722190596e-03 1.4689719917e+00 -2.5443341246e+00 1.4689719917e+00 2.5443341246e+00 
22300 5.8395413961e+00 -6.4568935816e-03 1.4691956987e+00 -2.5447215965e+00 1.4691956987e+00 2.5447215965e+00 
22400 5.8395333340e+00 -6.3398207884e-03 1.4694154467e+00 -2.5451022111e+00 1.4694154467e+00 2.5451022111e+00 
22500 5.8395258705e+00 -6.2211926497e-03 1.4696311779e+00 -2.5454758685e+00 1.4696311779e+00 2.5454758685e+00 
22600 5.8395189942e+00 -6.1011952020e-03 1.4698428413e+00 -2.5458424802e+00 1.4698428413e+00 2.5458424802e+00 
22700 5.8395126927e+00 -5.9800086063e-03 1.4700503920e+00 -2.5462019686e+00 1.4700503920e+00 2.5462019686e+00 
22800 5.8395069524e+00 -5.8578072063e-03 1.4702537914e+00 -2.5465542667e+00 1.4702537914e+00 2.5465542667e+00 
22900 5.8395017589e+00 -5.7347595874e-03 1.4704530066e+00 -2.5468993176e+00 1.4704530066e+00 2.5468993176e+00 
23000 5.8394970970e+00 -5.6110286373e-03 1.4706480107e+00 -2.5472370745e+00 1.4706480107e+00 2.5472370745e+00 
23100 5.8394929508e+00 -5.4867716071e-03 1.4708387820e+00 -2.5475675002e+00 1.4708387820e+00 2.5475675002e+00 
23200 5.8394893038e+00 -5.3621401749e-03 1.4710253044e+00 -2.5478905665e+00 1.4710253044e+00 2.5478905665e+00 
23300 5.8394861392e+00 -5.2372805096e-03 1.4712075668e+00 -2.5482062541e+00 1.4712075668e+00 2.5482062541e+00 
23400 5.8394834393e+00 -5.1123333372e-03 1.4713855629e+00 -2.5485145525e+00 1.4713855629e+00 2.5485145525e+00 
23500 5.8394811865e+00 -4.9874340078e-03 1.4715592915e+00 -2.5488154592e+00 1.4715592915e+00 2.5488154592e+00 
23600 5.8394793627e+00 -4.8627125652e-03 1.4717287556e+00 -2.5491089797e+00 1.4717287556e+00 2.5491089797e+00 
23700 5.8394779498e+00 -4.7382938170e-03 1.4718939628e+00 -2.5493951269e+00 1.4718939628e+00 2.5493951269e+00 
23800 5.8394769294e+00 -4.6142974069e-03 1.4720549248e+00 -2.5496739213e+00 1.4720549248e+00 2.5496739213e+00 
23900 5.8394762832e+00 -4.4908378889e-03 1.4722116574e+00 -2.5499453901e+00 1.4722116574e+00 2.5499453901e+00 
24000 5.8394759927e+00 -4.3680248023e-03 1.4723641801e+00 -2.5502095673e+00 1.4723641801e+00 2.5502095673e+00 
24100 5.8394760398e+00 -4.2459627492e-03 1.4725125163e+00 -2.5504664931e+00 1.4725125163e+00 2.5504664931e+00 
24200 5.8394764061e+00 -4.1247514725e-03 1.4726566928e+00 -2.5507162140e+00 1.4726566928e+00 2.5507162140e+00 
24300 5.8394770739e+00 -4.0044859367e-03 1.4727967396e+00 -2.5509587821e+00 1.4727967396e+00 2.5509587821e+00 
24400 5.8394780252e+00 -3.8852564090e-03 1.4729326900e+00 -2.5511942552e+00 1.4729326900e+00 2.5511942552e+00 
24500 5.8394792427e+00 -3.7671485426e-03 1.4730645804e+00 -2.5514226961e+00 1.4730645804e+00 2.5514226961e+00 
24600 5.8394807091e+00 -3.6502434609e-03 1.4731924500e+00 -2.5516441728e+00 1.4731924500e+00 2.5516441728e+00 
24700 5.8394824076e+00 -3.5346178433e-03 1.4733163406e+00 -2.5518587576e+00 1.4733163406e+00 2.5518587576e+00 
24800 5.8394843219e+00 -3.4203440119e-03 1.4734362967e+00 -2.5520665277e+00 1.4734362967e+00 2.5520665277e+00 
24900 5.8394864357e+00 -3.3074900198e-03 1.4735523652e+00 -2.5522675641e+00 1.4735523652e+00 2.5522675641e+00 
25000 5.8394887336e+00 -3.1961197401e-03 1.4736645951e+00 -2.5524619520e+00 1.4736645951e+00 2.5524619520e+00 
25100 5.8394912003e+00 -3.0862929558e-03 1.4737730376e+00 -2.5526497800e+00 1.4737730376e+00 2.5526497800e+00 
25200 5.8394938212e+00 -2.9780654510e-03 1.4738777461e+00 -2.5528311403e+00 1.4738777461e+00 2.5528311403e+00 
25300 5.8394965822e+00 -2.8714891026e-03 1.4739787754e+00 -2.5530061283e+00 1.4739787754e+00 2.5530061283e+00 
25400 5.8394994694e+00 -2.7666119728e-03 1.4740761826e+00 -2.5531748424e+00 1.4740761826e+00 2.5531748424e+00 
25500 5.8395024699e+00 -2.6634784023e-03 1.4741700258e+00 -2.5533373837e+00 1.4741700258e+00 2.5533373837e+00 
25600 5.8395055708e+00 -2.5621291035e-03 1.4742603650e+00 -2.5534938557e+00 1.4742603650e+00 2.5534938557e+00 
25700 5.8395087602e+00 -2.4626012551e-03 1.4743472612e+00 -2.5536443644e+00 1.4743472612e+00 2.5536443644e+00 
25800 5.8395120264e+00 -2.3649285962e-03 1.4744307770e+00 -2.5537890180e+00 1.4744307770e+00 2.5537890180e+00 
25900 5.8395153584e+00 -2.2691415210e-03 1.4745109757e+00 -2.5539279263e+00 1.4745109757e+00 2.5539279263e+00 
26000 5.8395187458e+00 -2.1752671730e-03 1.4745879220e+00 -2.5540612010e+00 1.4745879220e+00 2.5540612010e+00 
26100 5.8395221785e+00 -2.0833295409e-03 1.4746616810e+00 -2.5541889555e+00 1.4746616810e+00 2.5541889555e+00 
26200 5.8395256471e+00 -1.9933495519e-03 1.4747323191e+00 -2.5543113043e+00 1.4747323191e+00 2.5543113043e+00 
26300 5.8395291427e+00 -1.9053451675e-03 1.4747999031e+00 -2.5544283632e+00 1.4747999031e+00 2.5544283632e+00 
26400 5.8395326570e+00 -1.8193314769e-03 1.4748645003e+00 -2.5545402488e+00 1.4748645003e+00 2.5545402488e+00 
26500 5.8395361820e+00 -1.7353207916e-03 1.4749261787e+00 -2.5546470788e+00 1.4749261787e+00 2.5546470788e+00 
26600 5.8395397104e+00 -1.6533227386e-03 1.4749850064e+00 -2.5547489715e+00 1.4749850064e+00 2.5547489715e+00 
26700 5.8395432352e+00 -1.5733443534e-03 1.4750410522e+00 -2.5548460456e+00 1.4750410522e+00 2.5548460456e+00 
26800 5.8395467501e+00 -1.4953901727e-03 1.4750943847e+00 -2.5549384203e+00 1.4750943847e+00 2.5549384203e+00 
26900 5.8395502491e+00 -1.4194623259e-03 1.4751450730e+00 -2.5550262149e+00 1.4751450730e+00 2.5550262149e+00 
27000 5.8395537267e+00 -1.3455606263e-03 1.4751931859e+00 -2.5551095489e+00 1.4751931859e+00 2.5551095489e+00 
27100 5.8395571779e+00 -1.2736826612e-03 1.4752387924e+00 -2.5551885417e+00 1.4752387924e+00 2.5551885417e+00 
27200 5.8395605980e+00 -1.2038238812e-03 1.4752819613e+00 -2.5552633124e+00 1.4752819613e+00 2.5552633124e+00 
27300 5.8395639827e+00 -1.1359776884e-03 1.4753227612e+00 -2.5553339800e+00 1.4753227612e+00 2.5553339800e+00 
27400 5.8395673283e+00 -1.0701355239e-03 1.4753612607e+00 -2.5554006630e+00 1.4753612607e+00 2.5554006630e+00 
27500 5.8395706313e+00 -1.0062869536e-03 1.4753975277e+00 -2.5554634794e+00 1.4753975277e+00 2.5554634794e+00 
27600 5.8395738886e+00 -9.4441975359e-04 1.4754316301e+00 -2.5555225464e+00 1.4754316301e+00 2.5555225464e+00 
27700 5.8395770974e+00 -8.8451999363e-04 1.4754636351e+00 -2.5555779807e+00 1.4754636351e+00 2.5555779807e+00 
27800 5.8395802553e+00 -8.2657211981e-04 1.4754936095e+00 -2.5556298979e+00 1.4754936095e+00 2.5556298979e+00 
27900 5.8395833602e+00 -7.7055903566e-04 1.4755216196e+00 -2.5556784128e+00 1.4755216196e+00 2.5556784128e+00 
28000 5.8395864102e+00 -7.1646218201e-04 1.4755477311e+00 -2.5557236392e+00 1.4755477311e+00 2.5557236392e+00 
28100 5.8395894039e+00 -6.6426161530e-04 1.4755720090e+00 -2.5557656898e+00 1.4755720090e+00 2.5557656898e+00 
28200 5.8395923399e+00 -6.1393608462e-04 1.4755945177e+00 -2.5558046760e+00 1.4755945177e+00 2.5558046760e+00 
28300 5.8395952173e+00 -5.6546310709e-04 1.4756153207e+00 -2.5558407079e+00 1.4756153207e+00 2.5558407079e+00 
28400 5.8395980351e+00 -5.1881904179e-04 1.4756344810e+00 -2.5558738945e+00 1.4756344810e+00 2.5558738945e+00 
28500 5.8396007930e+00 -4.7397916217e-04 1.4756520606e+00 -2.5559043432e+00 1.4756520606e+00 2.5559043432e+00 
28600 5.8396034904e+00 -4.3091772675e-04 1.4756681206e+00 -2.5559321600e+00 1.4756681206e+00 2.5559321600e+00 
28700 5.8396061272e+00 -3.8960804837e-04 1.4756827214e+00 -2.5559574493e+00 1.4756827214e+00 2.5559574493e+00 
28800 5.8396087035e+00 -3.5002256171e-04 1.4756959223e+00 -2.5559803140e+00 1.4756959223e+00 2.5559803140e+00 
28900 5.8396112192e+00 -3.1213288916e-04 1.4757077819e+00 -2.5560008554e+00 1.4757077819e+00 2.5560008554e+00 
29000 5.8396136749e+00 -2.7590990509e-04 1.4757183577e+00 -2.5560191731e+00 1.4757183577e+00 2.5560191731e+00 
29100 5.8396160708e+00 -2.4132379840e-04 1.4757277060e+00 -2.5560353649e+00 1.4757277060e+00 2.5560353649e+00 
29200 5.8396184076e+00 -2.0834413338e-04 1.4757358824e+00 -2.5560495269e+00 1.4757358824e+00 2.5560495269e+00 
29300 5.8396206859e+00 -1.7693990889e-04 1.4757429414e+00 -2.5560617535e+00 1.4757429414e+00 2.5560617535e+00 
29400 5.8396229065e+00 -1.4707961585e-04 1.4757489364e+00 -2.5560721370e+00 1.4757489364e+00 2.5560721370e+00 
29500 5.8396250703e+00 -1.1873129302e-04 1.4757539196e+00 -2.5560807682e+00 1.4757539196e+00 2.5560807682e+00 
29600 5.8396271783e+00 -9.1862581063e-05 1.4757579423e+00 -2.5560877358e+00 1.4757579423e+00 2.5560877358e+00 
29700 5.8396292313e+00 -6.6440774964e-05 1.4757610547e+00 -2.5560931266e+00 1.4757610547e+00 2.5560931266e+00 
29800 5.8396312307e+00 -4.4859957868e-05 1.4757610547e+00 -2.5560931266e+00 1.4757610547e+00 2.5560931266e+00 
29900 5.8396331772e+00 -2.3792122580e-05 1.4757610547e+00 -2.5560931266e+00 1.4757610547e+00 2.5560931266e+00 
30000 5.8396350722e+00 -3.2507006723e-06 1.4757610547e+00 -2.5560931266e+00 1.4757610547e+00 2.5560931266e+00 
30100 5.8396369169e+00 1.6752039773e-05 1.4757610547e+00 -2.5560931266e+00 1.4757610547e+00 2.5560931266e+00 
30200 5.8396387127e+00 3.6204958693e-05 1.4757610547e+00 -2.5560931266e+00 1.4757610547e+00 2.5560931266e+00 
30300 5.8396404608e+00 5.5098008920e-05 1.4757610547e+00 -2.5560931266e+00 1.4757610547e+00 2.5560931266e+00 
30400 5.8396421627e+00 7.3422201421e-05 1.4757610547e+00 -2.5560931266e+00 1.4757610547e+00 2.5560931266e+00 
30500 5.8396438192e+00 8.8484279285e-05 1.4757585671e+00 -2.5560888179e+00 1.4757585671e+00 2.5560888179e+00 
30600 5.8396454319e+00 1.0240118635e-04 1.4757555692e+00 -2.5560836254e+00 1.4757555692e+00 2.5560836254e+00 
30700 5.8396470020e+00 1.1520658177e-04 1.4757520997e+00 -2.5560776161e+00 1.4757520997e+00 2.5560776161e+00 
30800 5.8396485308e+00 1.2693400331e-04 1.4757481964e+00 -2.5560708554e+00 1.4757481964e+00 2.5560708554e+00 
30900 5.8396500196e+00 1.3761683443e-04 1.4757438958e+00 -2.5560634064e+00 1.4757438958e+00 2.5560634064e+00 
31000 5.8396514697e+00 1.4728827295e-04 1.4757392331e+00 -2.5560553305e+00 1.4757392331e+00 2.5560553305e+00 
31100 5.8396528823e+00 1.5598130120e-04 1.4757342428e+00 -2.5560466870e+00 1.4757342428e+00 2.5560466870e+00 
31200 5.8396542587e+00 1.6372865756e-04 1.4757289580e+00 -2.5560375334e+00 1.4757289580e+00 2.5560375334e+00 
31300 5.8396556000e+00 1.7056280948e-04 1.4757234106e+00 -2.5560279250e+00 1.4757234106e+00 2.5560279250e+00 
31400 5.8396569076e+00 1.7651592790e-04 1.4757176316e+00 -2.5560179156e+00 1.4757176316e+00 2.5560179156e+00 
31500 5.8396581826e+00 1.8161986307e-04 1.4757116509e+00 -2.5560075568e+00 1.4757116509e+00 2.5560075568e+00 
31600 5.8396594260e+00 1.8590612160e-04 1.4757054973e+00 -2.5559968984e+00 1.4757054973e+00 2.5559968984e+00 
31700 5.8396606390e+00 1.8940584500e-04 1.4756991984e+00 -2.5559859884e+00 1.4756991984e+00 2.5559859884e+00 
31800 5.8396618228e+00 1.9214978938e-04 1.4756927809e+00 -2.5559748729e+00 1.4756927809e+00 2.5559748729e+00 
31900 5.8396629783e+00 1.9416830647e-04 1.4756862704e+00 -2.5559635964e+00 1.4756862704e+00 2.5559635964e+00 
32000 5.8396641065e+00 1.9549132586e-04 1.4756796915e+00 -2.5559522014e+00 1.4756796915e+00 2.5559522014e+00 
32100 5.8396652085e+00 1.9614833842e-04 1.4756730678e+00 -2.5559407287e+00 1.4756730678e+00 2.5559407287e+00 
32200 5.8396662852e+00 1.9616838092e-04 1.4756664217e+00 -2.5559292174e+00 1.4756664217e+00 2.5559292174e+00 
32300 5.8396673376e+00 1.9558002179e-04 1.4756597749e+00 -2.5559177049e+00 1.4756597749e+00 2.5559177049e+00 
32400 5.8396683664e+00 1.9441134794e-04 1.4756531481e+00 -2.5559062268e+00 1.4756531481e+00 2.5559062268e+00 
32500 5.8396693726e+00 1.9268995276e-04 1.4756465608e+00 -2.5558948173e+00 1.4756465608e+00 2.5558948173e+00 
32600 5.8396703570e+00 1.9044292505e-04 1.4756400318e+00 -2.5558835087e+00 1.4756400318e+00 2.5558835087e+00 
32700 5.8396713204e+00 1.8769683907e-04 1.4756335789e+00 -2.5558723320e+00 1.4756335789e+00 2.5558723320e+00 
32800 5.8396722635e+00 1.8447774548e-04 1.4756272190e+00 -2.5558613164e+00 1.4756272190e+00 2.5558613164e+00 
32900 5.8396731870e+00 1.8081116336e-04 1.4756209682e+00 -2.5558504897e+00 1.4756209682e+00 2.5558504897e+00 
33000 5.8396740917e+00 1.7672207302e-04 1.4756148416e+00 -2.5558398781e+00 1.4756148416e+00 2.5558398781e+00 
33100 5.8396749781e+00 1.7223490984e-04 1.4756088535e+00 -2.5558295064e+00 1.4756088535e+00 2.5558295064e+00 
33200 5.8396758470e+00 1.6737355883e-04 1.4756030175e+00 -2.5558193981e+00 1.4756030175e+00 2.5558193981e+00 
33300 5.8396766988e+00 1.6216135020e-04 1.4755973461e+00 -2.5558095750e+00 1.4755973461e+00 2.5558095750e+00 
33400 5.8396775343e+00 1.5662105559e-04 1.4755918513e+00 -2.5558000578e+00 1.4755918513e+00 2.5558000578e+00 
33500 5.8396783539e+00 1.5077488513e-04 1.4755865443e+00 -2.5557908657e+00 1.4755865443e+00 2.5557908657e+00 
33600 5.8396791581e+00 1.4464448529e-04 1.4755814353e+00 -2.5557820167e+00 1.4755814353e+00 2.5557820167e+00 
33700 5.8396799475e+00 1.3825093740e-04 1.4755765340e+00 -2.5557735274e+00 1.4755765340e+00 2.5557735274e+00 
33800 5.8396807225e+00 1.3161475689e-04 1.4755718494e+00 -2.5557654134e+00 1.4755718494e+00 2.5557654134e+00 
33900 5.8396814835e+00 1.2475589315e-04 1.4755673896e+00 -2.5557576888e+00 1.4755673896e+00 2.5557576888e+00 
34000 5.8396822310e+00 1.1769373013e-04 1.4755631622e+00 -2.5557503668e+00 1.4755631622e+00 2.5557503668e+00 
34100 5.8396829654e+00 1.1044708743e-04 1.4755591741e+00 -2.5557434592e+00 1.4755591741e+00 2.5557434592e+00 
34200 5.8396836870e+00 1.0303422204e-04 1.4755554316e+00 -2.5557369769e+00 1.4755554316e+00 2.5557369769e+00 
34300 5.8396843962e+00 9.5472830645e-05 1.4755519402e+00 -2.5557309297e+00 1.4755519402e+00 2.5557309297e+00 
34400 5.8396850933e+00 8.7780052465e-05 1.4755487051e+00 -2.5557253262e+00 1.4755487051e+00 2.5557253262e+00 
34500 5.8396857788e+00 7.9972472543e-05 1.4755457306e+00 -2.5557201743e+00 1.4755457306e+00 2.5557201743e+00 
34600 5.8396864528e+00 7.2066125592e-05 1.4755430207e+00 -2.5557154805e+00 1.4755430207e+00 2.5557154805e+00 
34700 5.8396871156e+00 6.4076500265e-05 1.4755405786e+00 -2.5557112508e+00 1.4755405786e+00 2.5557112508e+00 
34800 5.8396877677e+00 5.8373836245e-05 1.4755405786e+00 -2.5557112508e+00 1.4755405786e+00 2.5557112508e+00 
34900 5.8396884092e+00 5.2329682351e-05 1.4755405786e+00 -2.5557112508e+00 1.4755405786e+00 2.5557112508e+00 
35000 5.8396890402e+00 4.5954832163e-05 1.4755405786e+00 -2.5557112508e+00 1.4755405786e+00 2.5557112508e+00 
35100 5.8396896610e+00 3.9260053265e-05 1.4755405786e+00 -2.5557112508e+00 1.4755405786e+00 2.5557112508e+00 
35200 5.8396902719e+00 3.2256077027e-05 1.4755405786e+00 -2.5557112508e+00 1.4755405786e+00 2.5557112508e+00 
35300 5.8396908731e+00 2.4953588829e-05 1.4755405786e+00 -2.5557112508e+00 1.4755405786e+00 2.5557112508e+00 
35400 5.8396914647e+00 1.7363218732e-05 1.4755405786e+00 -2.5557112508e+00 1.4755405786e+00 2.5557112508e+00 
35500 5.8396920470e+00 9.4955325715e-06 1.4755405786e+00 -2.5557112508e+00 1.4755405786e+00 2.5557112508e+00 
35600 5.8396926202e+00 1.3610234808e-06 1.4755405786e+00 -2.5557112508e+00 1.4755405786e+00 2.5557112508e+00 
35700 5.8396931845e+00 -7.0298961750e-06 1.4755405786e+00 -2.5557112508e+00 1.4755405786e+00 2.5557112508e+00 
35800 5.8396937400e+00 -1.5666902453e-05 1.4755405786e+00 -2.5557112508e+00 1.4755405786e+00 2.5557112508e+00 
35900 5.8396942870e+00 -2.4539767094e-05 1.4755405786e+00 -2.5557112508e+00 1.4755405786e+00 2.5557112508e+00 
36000 5.8396948256e+00 -3.3638364389e-05 1.4755405786e+00 -2.5557112508e+00 1.4755405786e+00 2.5557112508e+00 
36100 5.8396953560e+00 -4.2952677669e-05 1.4755405786e+00 -2.5557112508e+00 1.4755405786e+00 2.5557112508e+00 
36200 5.8396958782e+00 -5.2472805414e-05 1.4755405786e+00 -2.5557112508e+00 1.4755405786e+00 2.5557112508e+00 
36300 5.8396963926e+00 -6.2188967006e-05 1.4755405786e+00 -2.5557112508e+00 1.4755405786e+00 2.5557112508e+00 
36400 5.8396968992e+00 -7.2091508118e-05 1.4755405786e+00 -2.5557112508e+00 1.4755405786e+00 2.5557112508e+00 
36500 5.8396973979e+00 -7.9518977376e-05 1.4755430215e+00 -2.5557154820e+00 1.4755430215e+00 2.5557154820e+00 
36600 5.8396978890e+00 -8.6831107452e-05 1.4755457161e+00 -2.5557201491e+00 1.4755457161e+00 2.5557201491e+00 
36700 5.8396983726e+00 -9.4021899246e-05 1.4755486584e+00 -2.5557252454e+00 1.4755486584e+00 2.5557252454e+00 
36800 5.8396988488e+00 -1.0108574186e-04 1.4755518444e+00 -2.5557307637e+00 1.4755518444e+00 2.5557307637e+00 
36900 5.8396993178e+00 -1.0801740328e-04 1.4755552698e+00 -2.5557366966e+00 1.4755552698e+00 2.5557366966e+00 
37000 5.8396997797e+00 -1.1481202097e-04 1.4755589300e+00 -2.5557430363e+00 1.4755589300e+00 2.5557430363e+00 
37100 5.8397002345e+00 -1.2146509250e-04 1.4755628205e+00 -2.5557497748e+00 1.4755628205e+00 2.5557497748e+00 
37200 5.8397006824e+00 -1.2797246609e-04 1.4755669364e+00 -2.5557569037e+00 1.4755669364e+00 2.5557569037e+00 
37300 5.8397011235e+00 -1.3433033116e-04 1.4755712727e+00 -2.5557644146e+00 1.4755712727e+00 2.5557644146e+00 
37400 5.8397015580e+00 -1.4053520891e-04 1.4755758246e+00 -2.5557722986e+00 1.4755758246e+00 2.5557722986e+00 
37500 5.8397019858e+00 -1.4658394288e-04 1.4755805866e+00 -2.5557805467e+00 1.4755805866e+00 2.5557805467e+00 
37600 5.8397024071e+00 -1.5247368954e-04 1.4755855536e+00 -2.5557891497e+00 1.4755855536e+00 2.5557891497e+00 
37700 5.8397028220e+00 -1.5820190892e-04 1.4755907202e+00 -2.5557980985e+00 1.4755907202e+00 2.5557980985e+00 
37800 5.8397032307e+00 -1.6376635528e-04 1.4755960808e+00 -2.5558073834e+00 1.4755960808e+00 2.5558073834e+00 
37900 5.8397036331e+00 -1.6916506779e-04 1.4756016299e+00 -2.5558169948e+00 1.4756016299e+00 2.5558169948e+00 
38000 5.8397040294e+00 -1.7439636132e-04 1.4756073620e+00 -2.5558269230e+00 1.4756073620e+00 2.5558269230e+00 
38100 5.8397044197e+00 -1.7945881727e-04 1.4756132713e+00 -2.5558371583e+00 1.4756132713e+00 2.5558371583e+00 
38200 5.8397048041e+00 -1.8435127449e-04 1.4756193522e+00 -2.5558476906e+00 1.4756193522e+00 2.5558476906e+00 
38300 5.8397051827e+00 -1.8907282021e-04 1.4756255987e+00 -2.5558585100e+00 1.4756255987e+00 2.5558585100e+00 
38400 5.8397055555e+00 -1.9362278118e-04 1.4756320053e+00 -2.5558696064e+00 1.4756320053e+00 2.5558696064e+00 
38500 5.8397059227e+00 -1.9800071475e-04 1.4756385659e+00 -2.5558809698e+00 1.4756385659e+00 2.5558809698e+00 
38600 5.8397062843e+00 -2.0220640022e-04 1.4756452749e+00 -2.5558925901e+00 1.4756452749e+00 2.5558925901e+00 
38700 5.8397066404e+00 -2.0623983012e-04 1.4756521264e+00 -2.5559044572e+00 1.4756521264e+00 2.5559044572e+00 
38800 5.8397069912e+00 -2.1010120173e-04 1.4756591145e+00 -2.5559165610e+00 1.4756591145e+00 2.5559165610e+00 
38900 5.8397073366e+00 -2.1379090864e-04 1.4756662334e+00 -2.5559288913e+00 1.4756662334e+00 2.5559288913e+00 
39000 5.8397076769e+00 -2.1730953249e-04 1.4756734773e+00 -2.5559414380e+00 1.4756734773e+00 2.5559414380e+00 
39100 5.8397080120e+00 -2.2065783474e-04 1.4756808403e+00 -2.5559541912e+00 1.4756808403e+00 2.5559541912e+00 
39200 5.8397083420e+00 -2.2383674868e-04 1.4756883168e+00 -2.5559671409e+00 1.4756883168e+00 2.5559671409e+00 
39300 5.8397086670e+00 -2.2684737149e-04 1.4756959010e+00 -2.5559802770e+00 1.4756959010e+00 2.5559802770e+00 
39400 5.8397089872e+00 -2.2969095646e-04 1.4757035871e+00 -2.5559935898e+00 1.4757035871e+00 2.5559935898e+00 
39500 5.8397093025e+00 -2.3236890535e-04 1.4757113695e+00 -2.5560070693e+00 1.4757113695e+00 2.5560070693e+00 
39600 5.8397096131e+00 -2.3488276089e-04 1.4757192427e+00 -2.5560207060e+00 1.4757192427e+00 2.5560207060e+00 
39700 5.8397099191e+00 -2.3723419944e-04 1.4757272009e+00 -2.5560344901e+00 1.4757272009e+00 2.5560344901e+00 
39800 5.8397102204e+00 -2.3942502371e-04 1.4757352388e+00 -2.5560484121e+00 1.4757352388e+00 2.5560484121e+00 
39900 5.8397105173e+00 -2.4145715580e-04 1.4757433509e+00 -2.5560624626e+00 1.4757433509e+00 2.5560624626e+00 
40000 5.8397108096e+00 -2.4333263019e-04 1.4757515317e+00 -2.5560766323e+00 1.4757515317e+00 2.5560766323e+00 
40100 5.8397110976e+00 -2.4505358702e-04 1.4757597761e+00 -2.5560909120e+00 1.4757597761e+00 2.5560909120e+00 
40200 5.8397113813e+00 -2.4662226547e-04 1.4757680787e+00 -2.5561052926e+00 1.4757680787e+00 2.5561052926e+00 
40300 5.8397116608e+00 -2.4804099732e-04 1.4757764345e+00 -2.5561197651e+00 1.4757764345e+00 2.5561197651e+00 
40400 5.8397119361e+00 -2.4931220061e-04 1.4757848382e+00 -2.5561343208e+00 1.4757848382e+00 2.5561343208e+00 
40500 5.8397122073e+00 -2.5043837351e-04 1.4757932850e+00 -2.5561489511e+00 1.4757932850e+00 2.5561489511e+00 
40600 5.8397124745e+00 -2.5142208836e-04 1.4758017699e+00 -2.5561636473e+00 1.4758017699e+00 2.5561636473e+00 
40700 5.8397127377e+00 -2.5226598577e-04 1.4758102880e+00 -2.5561784012e+00 1.4758102880e+00 2.5561784012e+00 
40800 5.8397129970e+00 -2.5297276901e-04 1.4758188347e+00 -2.5561932045e+00 1.4758188347e+00 2.5561932045e+00 
40900 5.8397132524e+00 -2.5354519845e-04 1.4758274053e+00 -2.5562080493e+00 1.4758274053e+00 2.5562080493e+00 
41000 5.8397135041e+00 -2.5398608620e-04 1.4758359953e+00 -2.5562229275e+00 1.4758359953e+00 2.5562229275e+00 
41100 5.8397137520e+00 -2.5429829092e-04 1.4758446001e+00 -2.5562378315e+00 1.4758446001e+00 2.5562378315e+00 
41200 5.8397139963e+00 -2.5448471275e-04 1.4758532155e+00 -2.5562527537e+00 1.4758532155e+00 2.5562527537e+00 
41300 5.8397142369e+00 -2.5454828842e-04 1.4758618371e+00 -2.5562676868e+00 1.4758618371e+00 2.5562676868e+00 
41400 5.8397144740e+00 -2.5449198651e-04 1.4758704608e+00 -2.5562826235e+00 1.4758704608e+00 2.5562826235e+00 
41500 5.8397147076e+00 -2.5431880286e-04 1.4758790826e+00 -2.5562975569e+00 1.4758790826e+00 2.5562975569e+00 
41600 5.8397149378e+00 -2.5403175616e-04 1.4758876984e+00 -2.5563124799e+00 1.4758876984e+00 2.5563124799e+00 
41700 5.8397151646e+00 -2.5363388361e-04 1.4758963045e+00 -2.5563273861e+00 1.4758963045e+00 2.5563273861e+00 
41800 5.8397153880e+00 -2.5312823684e-04 1.4759048971e+00 -2.5563422688e+00 1.4759048971e+00 2.5563422688e+00 
41900 5.8397156081e+00 -2.5251787790e-04 1.4759134724e+00 -2.5563571218e+00 1.4759134724e+00 2.5563571218e+00 
42000 5.8397158251e+00 -2.5180587543e-04 1.4759220271e+00 -2.5563719389e+00 1.4759220271e+00 2.5563719389e+00 
42100 5.8397160388e+00 -2.5099530096e-04 1.4759305575e+00 -2.5563867141e+00 1.4759305575e+00 2.5563867141e+00 
42200 5.8397162494e+00 -2.5008922539e-04 1.4759390605e+00 -2.5564014416e+00 1.4759390605e+00 2.5564014416e+00 
42300 5.8397164568e+00 -2.4909071554e-04 1.4759475327e+00 -2.5564161159e+00 1.4759475327e+00 2.5564161159e+00 
42400 5.8397166613e+00 -2.4800283092e-04 1.4759559710e+00 -2.5564307316e+00 1.4759559710e+00 2.5564307316e+00 
42500 5.8397168627e+00 -2.4682862058e-04 1.4759643725e+00 -2.5564452833e+00 1.4759643725e+00 2.5564452833e+00 
42600 5.8397170612e+00 -2.4557112016e-04 1.4759727341e+00 -2.5564597660e+00 1.4759727341e+00 2.5564597660e+00 
42700 5.8397172568e+00 -2.4423334897e-04 1.4759810531e+00 -2.5564741749e+00 1.4759810531e+00 2.5564741749e+00 
42800 5.8397174494e+00 -2.4281830733e-04 1.4759893267e+00 -2.5564885052e+00 1.4759893267e+00 2.5564885052e+00 
42900 5.8397176393e+00 -2.4132897394e-04 1.4759975523e+00 -2.5565027524e+00 1.4759975523e+00 2.5565027524e+00 
43000 5.8397178264e+00 -2.3976830340e-04 1.4760057274e+00 -2.5565169121e+00 1.4760057274e+00 2.5565169121e+00 
43100 5.8397180107e+00 -2.3813922391e-04 1.4760138496e+00 -2.5565309802e+00 1.4760138496e+00 2.5565309802e+00 
43200 5.8397181923e+00 -2.3644463503e-04 1.4760219166e+00 -2.5565449526e+00 1.4760219166e+00 2.5565449526e+00 
43300 5.8397183713e+00 -2.3468740557e-04 1.4760299261e+00 -2.5565588255e+00 1.4760299261e+00 2.5565588255e+00 
43400 5.8397185476e+00 -2.3287037162e-04 1.4760378761e+00 -2.5565725953e+00 1.4760378761e+00 2.5565725953e+00 
43500 5.8397187213e+00 -2.3099633469e-04 1.4760457644e+00 -2.5565862583e+00 1.4760457644e+00 2.5565862583e+00 
43600 5.8397188925e+00 -2.2906805996e-04 1.4760535893e+00 -2.5565998113e+00 1.4760535893e+00 2.5565998113e+00 
43700 5.8397190611e+00 -2.2708827462e-04 1.4760613488e+00 -2.5566132512e+00 1.4760613488e+00 2.5566132512e+00 
43800 5.8397192273e+00 -2.2505966634e-04 1.4760690412e+00 -2.5566265748e+00 1.4760690412e+00 2.5566265748e+00 
43900 5.8397193910e+00 -2.2298488187e-04 1.4760766648e+00 -2.5566397793e+00 1.4760766648e+00 2.5566397793e+00 
44000 5.8397195523e+00 -2.2086652566e-04 1.4760842181e+00 -2.5566528620e+00 1.4760842181e+00 2.5566528620e+00 
44100 5.8397197112e+00 -2.1870715868e-04 1.4760916996e+00 -2.5566658203e+00 1.4760916996e+00 2.5566658203e+00 
44200 5.8397198678e+00 -2.1650929727e-04 1.4760991079e+00 -2.5566786519e+00 1.4760991079e+00 2.5566786519e+00 
44300 5.8397200220e+00 -2.1427541213e-04 1.4761064417e+00 -2.5566913545e+00 1.4761064417e+00 2.5566913545e+00 
44400 5.8397201740e+00 -2.1200792732e-04 1.4761136999e+00 -2.5567039259e+00 1.4761136999e+00 2.5567039259e+00 
44500 5.8397203237e+00 -2.0970921945e-04 1.4761208812e+00 -2.5567163643e+00 1.4761208812e+00 2.5567163643e+00 
44600 5.8397204712e+00 -2.0738161694e-04 1.4761279846e+00 -2.5567286678e+00 1.4761279846e+00 2.5567286678e+00 
44700 5.8397206166e+00 -2.0502739926e-04 1.4761350091e+00 -2.5567408346e+00 1.4761350091e+00 2.5567408346e+00 
44800 5.8397207597e+00 -2.0264879639e-04 1.4761419538e+00 -2.5567528632e+00 1.4761419538e+00 2.5567528632e+00 
44900 5.8397209007e+00 -2.0024798830e-04 1.4761488180e+00 -2.5567647523e+00 1.4761488180e+00 2.5567647523e+00 
45000 5.8397210397e+00 -1.9782710444e-04 1.4761556008e+00 -2.5567765004e+00 1.4761556008e+00 2.5567765004e+00 
45100 5.8397211766e+00 -1.9538822346e-04 1.4761623015e+00 -2.5567881065e+00 1.4761623015e+00 2.5567881065e+00 
45200 5.8397213114e+00 -1.9293337283e-04 1.4761689196e+00 -2.5567995694e+00 1.4761689196e+00 2.5567995694e+00 
45300 5.8397214442e+00 -1.9046452865e-04 1.4761754546e+00 -2.5568108882e+00 1.4761754546e+00 2.5568108882e+00 
45400 5.8397215751e+00 -1.8798361548e-04 1.4761819059e+00 -2.5568220622e+00 1.4761819059e+00 2.5568220622e+00 
45500 5.8397217040e+00 -1.8549250623e-04 1.4761882731e+00 -2.5568330905e+00 1.4761882731e+00 2.5568330905e+00 
45600 5.8397218309e+00 -1.8299302212e-04 1.4761945559e+00 -2.5568439727e+00 1.4761945559e+00 2.5568439727e+00 
45700 5.8397219560e+00 -1.8048693271e-04 1.4762007541e+00 -2.5568547082e+00 1.4762007541e+00 2.5568547082e+00 
45800 5.8397220792e+00 -1.7797595594e-04 1.4762068673e+00 -2.5568652966e+00 1.4762068673e+00 2.5568652966e+00 
45900 5.8397222006e+00 -1.7546175831e-04 1.4762128954e+00 -2.5568757377e+00 1.4762128954e+00 2.5568757377e+00 
46000 5.8397223201e+00 -1.7294595503e-04 1.4762188384e+00 -2.5568860312e+00 1.4762188384e+00 2.5568860312e+00 
46100 5.8397224379e+00 -1.7043011026e-04 1.4762246962e+00 -2.5568961771e+00 1.4762246962e+00 2.5568961771e+00 
46200 5.8397225539e+00 -1.6791573737e-04 1.4762304687e+00 -2.5569061754e+00 1.4762304687e+00 2.5569061754e+00 
46300 5.8397226681e+00 -1.6540429928e-04 1.4762361560e+00 -2.5569160261e+00 1.4762361560e+00 2.5569160261e+00 
46400 5.8397227806e+00 -1.6289720884e-04 1.4762417582e+00 -2.5569257295e+00 1.4762417582e+00 2.5569257295e+00 
46500 5.8397228915e+00 -1.6039582919e-04 1.4762472755e+00 -2.5569352857e+00 1.4762472755e+00 2.5569352857e+00 
46600 5.8397230007e+00 -1.5790147426e-04 1.4762527081e+00 -2.5569446952e+00 1.4762527081e+00 2.5569446952e+00 
46700 5.8397231082e+00 -1.5541540921e-04 1.4762580561e+00 -2.5569539583e+00 1.4762580561e+00 2.5569539583e+00 
46800 5.8397232142e+00 -1.5293885097e-04 1.4762633200e+00 -2.5569630755e+00 1.4762633200e+00 2.5569630755e+00 
46900 5.8397233185e+00 -1.5047296878e-04 1.4762684999e+00 -2.5569720474e+00 1.4762684999e+00 2.5569720474e+00 
47000 5.8397234213e+00 -1.4801888476e-04 1.4762735963e+00 -2.5569808746e+00 1.4762735963e+00 2.5569808746e+00 
47100 5.8397235225e+00 -1.4557767455e-04 1.4762786095e+00 -2.5569895579e+00 1.4762786095e+00 2.5569895579e+00 
47200 5.8397236223e+00 -1.4315036790e-04 1.4762835401e+00 -2.5569980979e+00 1.4762835401e+00 2.5569980979e+00 
47300 5.8397237205e+00 -1.4073794938e-04 1.4762883885e+00 -2.5570064954e+00 1.4762883885e+00 2.5570064954e+00 
47400 5.8397238172e+00 -1.3834135902e-04 1.4762931551e+00 -2.5570147514e+00 1.4762931551e+00 2.5570147514e+00 
47500 5.8397239125e+00 -1.3596149305e-04 1.4762978405e+00 -2.5570228669e+00 1.4762978405e+00 2.5570228669e+00 
47600 5.8397240064e+00 -1.3359920460e-04 1.4763024453e+00 -2.5570308426e+00 1.4763024453e+00 2.5570308426e+00 
47700 5.8397240988e+00 -1.3125530446e-04 1.4763069701e+00 -2.5570386798e+00 1.4763069701e+00 2.5570386798e+00 
47800 5.8397241899e+00 -1.2893056183e-04 1.4763114155e+00 -2.5570463794e+00 1.4763114155e+00 2.5570463794e+00 
47900 5.8397242796e+00 -1.2662570511e-04 1.4763157822e+00 -2.5570539427e+00 1.4763157822e+00 2.5570539427e+00 
48000 5.8397243680e+00 -1.2434142268e-04 1.4763200707e+00 -2.5570613707e+00 1.4763200707e+00 2.5570613707e+00 
48100 5.8397244550e+00 -1.2207836370e-04 1.4763242819e+00 -2.5570686647e+00 1.4763242819e+00 2.5570686647e+00 
48200 5.8397245408e+00 -1.1983713893e-04 1.4763284165e+00 -2.5570758260e+00 1.4763284165e+00 2.5570758260e+00 
48300 5.8397246252e+00 -1.1761832156e-04 1.4763324751e+00 -2.5570828557e+00 1.4763324751e+00 2.5570828557e+00 
48400 5.8397247084e+00 -1.1542244802e-04 1.4763364585e+00 -2.5570897553e+00 1.4763364585e+00 2.5570897553e+00 
48500 5.8397247904e+00 -1.1325001883e-04 1.4763403676e+00 -2.5570965260e+00 1.4763403676e+00 2.5570965260e+00 
48600 5.8397248711e+00 -1.1110149945e-04 1.4763442031e+00 -2.5571031693e+00 1.4763442031e+00 2.5571031693e+00 
48700 5.8397249506e+00 -1.0897732112e-04 1.4763479659e+00 -2.5571096865e+00 1.4763479659e+00 2.5571096865e+00 
48800 5.8397250289e+00 -1.0687788172e-04 1.4763516566e+00 -2.5571160791e+00 1.4763516566e+00 2.5571160791e+00 
48900 5.8397251061e+00 -1.0480354662e-04 1.4763552763e+00 -2.5571223486e+00 1.4763552763e+00 2.5571223486e+00 
49000 5.8397251821e+00 -1.0275464951e-04 1.4763588257e+00 -2.5571284963e+00 1.4763588257e+00 2.5571284963e+00 
49100 5.8397252570e+00 -1.0073149330e-04 1.4763623057e+00 -2.5571345239e+00 1.4763623057e+00 2.5571345239e+00 
49200 5.8397253308e+00 -9.8734350975e-05 1.4763657172e+00 -2.5571404327e+00 1.4763657172e+00 2.5571404327e+00 
49300 5.8397254035e+00 -9.6763466398e-05 1.4763690610e+00 -2.5571462244e+00 1.4763690610e+00 2.5571462244e+00 
49400 5.8397254751e+00 -9.4819055204e-05 1.4763723381e+00 -2.5571519005e+00 1.4763723381e+00 2.5571519005e+00 
49500 5.8397255456e+00 -9.2901305641e-05 1.4763755493e+00 -2.5571574625e+00 1.4763755493e+00 2.5571574625e+00 
49600 5.8397256151e+00 -9.1010379403e-05 1.4763786956e+00 -2.5571629119e+00 1.4763786956e+00 2.5571629119e+00 
49700 5.8397256836e+00 -8.9146412481e-05 1.4763817778e+00 -2.5571682505e+00 1.4763817778e+00 2.5571682505e+00 
49800 5.8397257511e+00 -8.7309515985e-05 1.4763847969e+00 -2.5571734797e+00 1.4763847969e+00 2.5571734797e+00 
49900 5.8397258176e+00 -8.5499776977e-05 1.4763877537e+00 -2.5571786012e+00 1.4763877537e+00 2.5571786012e+00 
50000 5.8397258831e+00 -8.3717259290e-05 1.4763906493e+00 -2.5571836164e+00 1.4763906493e+00 2.5571836164e+00 
50100 5.8397259476e+00 -8.1962004338e-05 1.4763934845e+00 -2.5571885272e+00 1.4763934845e+00 2.5571885272e+00 
50200 5.8397260112e+00 -8.0234031919e-05 1.4763962603e+00 -2.5571933349e+00 1.4763962603e+00 2.5571933349e+00 
50300 5.8397260738e+00 -7.8533341014e-05 1.4763989775e+00 -2.5571980413e+00 1.4763989775e+00 2.5571980413e+00 
50400 5.8397261356e+00 -7.6859910566e-05 1.4764016371e+00 -2.5572026479e+00 1.4764016371e+00 2.5572026479e+00 
50500 5.8397261964e+00 -7.5213700258e-05 1.4764042401e+00 -2.5572071563e+00 1.4764042401e+00 2.5572071563e+00 
50600 5.8397262564e+00 -7.3594651284e-05 1.4764067873e+00 -2.5572115682e+00 1.4764067873e+00 2.5572115682e+00 
50700 5.8397263154e+00 -7.2002687092e-05 1.4764092796e+00 -2.5572158851e+00 1.4764092796e+00 2.5572158851e+00 
50800 5.8397263736e+00 -7.0437714134e-05 1.4764117181e+00 -2.5572201086e+00 1.4764117181e+00 2.5572201086e+00 
50900 5.8397264312e+00 -7.1487560894e-05 1.4764117181e+00 -2.5572201086e+00 1.4764117181e+00 2.5572201086e+00 
51000 5.8397264878e+00 -6.9890409722e-05 1.4764141391e+00 -2.5572243019e+00 1.4764141391e+00 2.5572243019e+00 
51100 5.8397265437e+00 -7.0890509093e-05 1.4764141391e+00 -2.5572243019e+00 1.4764141391e+00 2.5572243019e+00 
51200 5.8397265986e+00 -6.9266836544e-05 1.4764165398e+00 -2.5572284601e+00 1.4764165398e+00 2.5572284601e+00 
51300 5.8397266529e+00 -7.0219768995e-05 1.4764165398e+00 -2.5572284601e+00 1.4764165398e+00 2.5572284601e+00 
51400 5.8397267064e+00 -7.1154674499e-05 1.4764165398e+00 -2.5572284601e+00 1.4764165398e+00 2.5572284601e+00 
51500 5.8397267589e+00 -6.9457897128e-05 1.4764189495e+00 -2.5572326338e+00 1.4764189495e+00 2.5572326338e+00 
51600 5.8397268109e+00 -7.0349084435e-05 1.4764189495e+00 -2.5572326338e+00 1.4764189495e+00 2.5572326338e+00 
51700 5.8397268621e+00 -7.1223900616e-05 1.4764189495e+00 -2.5572326338e+00 1.4764189495e+00 2.5572326338e+00 
51800 5.8397269124e+00 -6.9466114531e-05 1.4764213616e+00 -2.5572368116e+00 1.4764213616e+00 2.5572368116e+00 
51900 5.8397269621e+00 -7.0300349533e-05 1.4764213616e+00 -2.5572368116e+00 1.4764213616e+00 2.5572368116e+00 
52000 5.8397270112e+00 -7.1119706652e-05 1.4764213616e+00 -2.5572368116e+00 1.4764213616e+00 2.5572368116e+00 
52100 5.8397270593e+00 -6.9311755022e-05 1.4764237701e+00 -2.5572409833e+00 1.4764237701e+00 2.5572409833e+00 
52200 5.8397271069e+00 -7.0093377744e-05 1.4764237701e+00 -2.5572409833e+00 1.4764237701e+00 2.5572409833e+00 
52300 5.8397271539e+00 -7.0861465327e-05 1.4764237701e+00 -2.5572409833e+00 1.4764237701e+00 2.5572409833e+00 
52400 5.8397272000e+00 -6.9013050665e-05 1.4764261699e+00 -2.5572451398e+00 1.4764261699e+00 2.5572451398e+00 
52500 5.8397272456e+00 -6.9745981814e-05 1.4764261699e+00 -2.5572451398e+00 1.4764261699e+00 2.5572451398e+00 
52600 5.8397272906e+00 -7.0466581923e-05 1.4764261699e+00 -2.5572451398e+00 1.4764261699e+00 2.5572451398e+00 
52700 5.8397273349e+00 -7.1175229504e-05 1.4764261699e+00 -2.5572451398e+00 1.4764261699e+00 2.5572451398e+00 
52800 5.8397273783e+00 -6.9257398072e-05 1.4764285803e+00 -2.5572493147e+00 1.4764285803e+00 2.5572493147e+00 
52900 5.8397274214e+00 -6.9933835295e-05 1.4764285803e+00 -2.5572493147e+00 1.4764285803e+00 2.5572493147e+00 
53000 5.8397274639e+00 -7.0599350046e-05 1.4764285803e+00 -2.5572493147e+00 1.4764285803e+00 2.5572493147e+00 
53100 5.8397275057e+00 -7.1254266346e-05 1.4764285803e+00 -2.5572493147e+00 1.4764285803e+00 2.5572493147e+00 
53200 5.8397275467e+00 -6.9281129215e-05 1.4764309933e+00 -2.5572534943e+00 1.4764309933e+00 2.5572534943e+00 
53300 5.8397275874e+00 -6.9906375983e-05 1.4764309933e+00 -2.5572534943e+00 1.4764309933e+00 2.5572534943e+00 
53400 5.8397276275e+00 -7.0521901071e-05 1.4764309933e+00 -2.5572534943e+00 1.4764309933e+00 2.5572534943e+00 
53500 5.8397276670e+00 -7.1127980732e-05 1.4764309933e+00 -2.5572534943e+00 1.4764309933e+00 2.5572534943e+00 
53600 5.8397277058e+00 -6.9111781389e-05 1.4764334021e+00 -2.5572576664e+00 1.4764334021e+00 2.5572576664e+00 
53700 5.8397277442e+00 -6.9690377044e-05 1.4764334021e+00 -2.5572576664e+00 1.4764334021e+00 2.5572576664e+00 
53800 5.8397277820e+00 -7.0260270362e-05 1.4764334021e+00 -2.5572576664e+00 1.4764334021e+00 2.5572576664e+00 
53900 5.8397278194e+00 -7.0821696122e-05 1.4764334021e+00 -2.5572576664e+00 1.4764334021e+00 2.5572576664e+00 
54000 5.8397278559e+00 -6.8773061005e-05 1.4764358005e+00 -2.5572618206e+00 1.4764358005e+00 2.5572618206e+00 
54100 5.8397278922e+00 -6.9308880191e-05 1.4764358005e+00 -2.5572618206e+00 1.4764358005e+00 2.5572618206e+00 
54200 5.8397279280e+00 -6.9836859526e-05 1.4764358005e+00 -2.5572618206e+00 1.4764358005e+00 2.5572618206e+00 
54300 5.8397279633e+00 -7.0357198171e-05 1.4764358005e+00 -2.5572618206e+00 1.4764358005e+00 2.5572618206e+00 
54400 5.8397279980e+00 -7.0870085417e-05 1.4764358005e+00 -2.5572618206e+00 1.4764358005e+00 2.5572618206e+00 
54500 5.8397280321e+00 -6.8772138558e-05 1.4764382005e+00 -2.5572659776e+00 1.4764382005e+00 2.5572659776e+00 
54600 5.8397280659e+00 -6.9261315508e-05 1.4764382005e+00 -2.5572659776e+00 1.4764382005e+00 2.5572659776e+00 
54700 5.8397280992e+00 -6.9743542886e-05 1.4764382005e+00 -2.5572659776e+00 1.4764382005e+00 2.5572659776e+00 
54800 5.8397281321e+00 -7.0218981285e-05 1.4764382005e+00 -2.5572659776e+00 1.4764382005e+00 2.5572659776e+00 
54900 5.8397281645e+00 -7.0687783063e-05 1.4764382005e+00 -2.5572659776e+00 1.4764382005e+00 2.5572659776e+00 
55000 5.8397281964e+00 -7.1150092692e-05 1.4764382005e+00 -2.5572659776e+00 1.4764382005e+00 2.5572659776e+00 
55100 5.8397282277e+00 -6.8992234159e-05 1.4764406101e+00 -2.5572701510e+00 1.4764406101e+00 2.5572701510e+00 
55200 5.8397282587e+00 -6.9432587959e-05 1.4764406101e+00 -2.5572701510e+00 1.4764406101e+00 2.5572701510e+00 
55300 5.8397282893e+00 -6.9866828363e-05 1.4764406101e+00 -2.5572701510e+00 1.4764406101e+00 2.5572701510e+00 
55400 5.8397283195e+00 -7.0295078622e-05 1.4764406101e+00 -2.5572701510e+00 1.4764406101e+00 2.5572701510e+00 
55500 5.8397283493e+00 -7.0717455495e-05 1.4764406101e+00 -2.5572701510e+00 1.4764406101e+00 2.5572701510e+00 
55600 5.8397283784e+00 -6.8536182134e-05 1.4764430049e+00 -2.5572742990e+00 1.4764430049e+00 2.5572742990e+00 
55700 5.8397284073e+00 -6.8937819645e-05 1.4764430049e+00 -2.5572742990e+00 1.4764430049e+00 2.5572742990e+00 
55800 5.8397284359e+00 -6.9333887464e-05 1.4764430049e+00 -2.5572742990e+00 1.4764430049e+00 2.5572742990e+00 
55900 5.8397284640e+00 -6.9724486285e-05 1.4764430049e+00 -2.5572742990e+00 1.4764430049e+00 2.5572742990e+00 
56000 5.8397284917e+00 -7.0109711517e-05 1.4764430049e+00 -2.5572742990e+00 1.4764430049e+00 2.5572742990e+00 
56100 5.8397285191e+00 -7.0489653548e-05 1.4764430049e+00 -2.5572742990e+00 1.4764430049e+00 2.5572742990e+00 
56200 5.8397285461e+00 -7.0864398002e-05 1.4764430049e+00 -2.5572742990e+00 1.4764430049e+00 2.5572742990e+00 
56300 5.8397285724e+00 -6.8630780165e-05 1.4764454048e+00 -2.5572784557e+00 1.4764454048e+00 2.5572784557e+00 
56400 5.8397285987e+00 -6.8986030319e-05 1.4764454048e+00 -2.5572784557e+00 1.4764454048e+00 2.5572784557e+00 
56500 5.8397286245e+00 -6.9336302976e-05 1.4764454048e+00 -2.5572784557e+00 1.4764454048e+00 2.5572784557e+00 
56600 5.8397286500e+00 -6.9681674065e-05 1.4764454048e+00 -2.5572784557e+00 1.4764454048e+00 2.5572784557e+00 
56700 5.8397286752e+00 -7.0022215688e-05 1.4764454048e+00 -2.5572784557e+00 1.4764454048e+00 2.5572784557e+00 
56800 5.8397287000e+00 -7.0357996339e-05 1.4764454048e+00 -2.5572784557e+00 1.4764454048e+00 2.5572784557e+00 
56900 5.8397287244e+00 -7.0689081101e-05 1.4764454048e+00 -2.5572784557e+00 1.4764454048e+00 2.5572784557e+00 
57000 5.8397287485e+00 -7.1015531847e-05 1.4764454048e+00 -2.5572784557e+00 1.4764454048e+00 2.5572784557e+00 
57100 5.8397287721e+00 -6.8728652848e-05 1.4764478097e+00 -2.5572826211e+00 1.4764478097e+00 2.5572826211e+00 
57200 5.8397287955e+00 -6.9036650765e-05 1.4764478097e+00 -2.5572826211e+00 1.4764478097e+00 2.5572826211e+00 
57300 5.8397288187e+00 -6.9340172290e-05 1.4764478097e+00 -2.5572826211e+00 1.4764478097e+00 2.5572826211e+00 
57400 5.8397288415e+00 -6.9639275286e-05 1.4764478097e+00 -2.5572826211e+00 1.4764478097e+00 2.5572826211e+00 
57500 5.8397288640e+00 -6.9934015078e-05 1.4764478097e+00 -2.5572826211e+00 1.4764478097e+00 2.5572826211e+00 
57600 5.8397288861e+00 -7.0224444608e-05 1.4764478097e+00 -2.5572826211e+00 1.4764478097e+00 2.5572826211e+00 
57700 5.8397289080e+00 -7.0510614593e-05 1.4764478097e+00 -2.5572826211e+00 1.4764478097e+00 2.5572826211e+00 
57800 5.8397289296e+00 -7.0792573667e-05 1.4764478097e+00 -2.5572826211e+00 1.4764478097e+00 2.5572826211e+00 
57900 5.8397289506e+00 -6.8469846487e-05 1.4764502071e+00 -2.5572867736e+00 1.4764502071e+00 2.5572867736e+00 
58000 5.8397289716e+00 -6.8734192454e-05 1.4764502071e+00 -2.5572867736e+00 1.4764502071e+00 2.5572867736e+00 
58100 5.8397289923e+00 -6.8994451765e-05 1.4764502071e+00 -2.5572867736e+00 1.4764502071e+00 2.5572867736e+00 
58200 5.8397290126e+00 -6.9250673062e-05 1.4764502071e+00 -2.5572867736e+00 1.4764502071e+00 2.5572867736e+00 
58300 5.8397290328e+00 -6.9502903336e-05 1.4764502071e+00 -2.5572867736e+00 1.4764502071e+00 2.5572867736e+00 
58400 5.8397290526e+00 -6.9751188049e-05 1.4764502071e+00 -2.5572867736e+00 1.4764502071e+00 2.5572867736e+00 
58500 5.8397290722e+00 -6.9995571243e-05 1.4764502071e+00 -2.5572867736e+00 1.4764502071e+00 2.5572867736e+00 
58600 5.8397290915e+00 -7.0236095641e-05 1.4764502071e+00 -2.5572867736e+00 1.4764502071e+00 2.5572867736e+00 
58700 5.8397291105e+00 -7.0472802752e-05 1.4764502071e+00 -2.5572867736e+00 1.4764502071e+00 2.5572867736e+00 
58800 5.8397291293e+00 -7.0705732961e-05 1.4764502071e+00 -2.5572867736e+00 1.4764502071e+00 2.5572867736e+00 
58900 5.8397291478e+00 -7.0934925626e-05 1.4764502071e+00 -2.5572867736e+00 1.4764502071e+00 2.5572867736e+00 
59000 5.8397291658e+00 -6.8554719678e-05 1.4764526093e+00 -2.5572909343e+00 1.4764526093e+00 2.5572909343e+00 
59100 5.8397291838e+00 -6.8767202776e-05 1.4764526093e+00 -2.5572909343e+00 1.4764526093e+00 2.5572909343e+00 
59200 5.8397292016e+00 -6.8976050524e-05 1.4764526093e+00 -2.5572909343e+00 1.4764526093e+00 2.5572909343e+00 
59300 5.8397292191e+00 -6.9181305964e-05 1.4764526093e+00 -2.5572909343e+00 1.4764526093e+00 2.5572909343e+00 
59400 5.8397292363e+00 -6.9383011277e-05 1.4764526093e+00 -2.5572909343e+00 1.4764526093e+00 2.5572909343e+00 
59500 5.8397292534e+00 -6.9581207860e-05 1.4764526093e+00 -2.5572909343e+00 1.4764526093e+00 2.5572909343e+00 
59600 5.8397292702e+00 -6.9775936384e-05 1.4764526093e+00 -2.5572909343e+00 1.4764526093e+00 2.5572909343e+00 
59700 5.8397292868e+00 -6.9967236849e-05 1.4764526093e+00 -2.5572909343e+00 1.4764526093e+00 2.5572909343e+00 
59800 5.8397293031e+00 -7.0155148650e-05 1.4764526093e+00 -2.5572909343e+00 1.4764526093e+00 2.5572909343e+00 
59900 5.8397293192e+00 -7.0339710622e-05 1.4764526093e+00 -2.5572909343e+00 1.4764526093e+00 2.5572909343e+00 
60000 5.8397293351e+00 -7.0520961093e-05 1.4764526093e+00 -2.5572909343e+00 1.4764526093e+00 2.5572909343e+00 
60100 5.8397293508e+00 -7.0698937933e-05 1.4764526093e+00 -2.5572909343e+00 1.4764526093e+00 2.5572909343e+00 
60200 5.8397293663e+00 -7.0873678592e-05 1.4764526093e+00 -2.5572909343e+00 1.4764526093e+00 2.5572909343e+00 
60300 5.8397293813e+00 -6.8441826179e-05 1.4764550095e+00 -2.5572950915e+00 1.4764550095e+00 2.5572950915e+00 
60400 5.8397293964e+00 -6.8600864023e-05 1.4764550095e+00 -2.5572950915e+00 1.4764550095e+00 2.5572950915e+00 
60500 5.8397294112e+00 -6.8756765443e-05 1.4764550095e+00 -2.5572950915e+00 1.4764550095e+00 2.5572950915e+00 
60600 5.8397294259e+00 -6.8909573581e-05 1.4764550095e+00 -2.5572950915e+00 1.4764550095e+00 2.5572950915e+00 
60700 5.8397294403e+00 -6.9059331123e-05 1.4764550095e+00 -2.5572950915e+00 1.4764550095e+00 2.5572950915e+00 
60800 5.8397294546e+00 -6.9206080328e-05 1.4764550095e+00 -2.5572950915e+00 1.4764550095e+00 2.5572950915e+00 
60900 5.8397294686e+00 -6.9349863061e-05 1.4764550095e+00 -2.5572950915e+00 1.4764550095e+00 2.5572950915e+00 
61000 5.8397294825e+00 -6.9490720807e-05 1.4764550095e+00 -2.5572950915e+00 1.4764550095e+00 2.5572950915e+00 
61100 5.8397294962e+00 -6.9628694702e-05 1.4764550095e+00 -2.5572950915e+00 1.4764550095e+00 2.5572950915e+00 
61200 5.8397295096e+00 -6.9763825551e-05 1.4764550095e+00 -2.5572950915e+00 1.4764550095e+00 2.5572950915e+00 
61300 5.8397295230e+00 -6.9896153846e-05 1.4764550095e+00 -2.5572950915e+00 1.4764550095e+00 2.5572950915e+00 
61400 5.8397295361e+00 -7.0025719785e-05 1.4764550095e+00 -2.5572950915e+00 1.4764550095e+00 2.5572950915e+00 
61500 5.8397295490e+00 -7.0152563285e-05 1.4764550095e+00 -2.5572950915e+00 1.4764550095e+00 2.5572950915e+00 
61600 5.8397295618e+00 -7.0276724000e-05 1.4764550095e+00 -2.5572950915e+00 1.4764550095e+00 2.5572950915e+00 
61700 5.8397295744e+00 -7.0398241331e-05 1.4764550095e+00 -2.5572950915e+00 1.4764550095e+00 2.5572950915e+00 
61800 5.8397295869e+00 -7.0517154434e-05 1.4764550095e+00 -2.5572950915e+00 1.4764550095e+00 2.5572950915e+00 
61900 5.8397295991e+00 -7.0633502236e-05 1.4764550095e+00 -2.5572950915e+00 1.4764550095e+00 2.5572950915e+00 
62000 5.8397296112e+00 -7.0747323436e-05 1.4764550095e+00 -2.5572950915e+00 1.4764550095e+00 2.5572950915e+00 
62100 5.8397296229e+00 -6.8259969868e-05 1.4764574053e+00 -2.5572992412e+00 1.4764574053e+00 2.5572992412e+00 
62200 5.8397296347e+00 -6.8359527790e-05 1.4764574053e+00 -2.5572992412e+00 1.4764574053e+00 2.5572992412e+00 
62300 5.8397296463e+00 -6.8456663511e-05 1.4764574053e+00 -2.5572992412e+00 1.4764574053e+00 2.5572992412e+00 
62400 5.8397296578e+00 -6.8551421859e-05 1.4764574053e+00 -2.5572992412e+00 1.4764574053e+00 2.5572992412e+00 
62500 5.8397296691e+00 -6.8643847247e-05 1.4764574053e+00 -2.5572992412e+00 1.4764574053e+00 2.5572992412e+00 
62600 5.8397296803e+00 -6.8733983679e-05 1.4764574053e+00 -2.5572992412e+00 1.4764574053e+00 2.5572992412e+00 
62700 5.8397296913e+00 -6.8821874749e-05 1.4764574053e+00 -2.5572992412e+00 1.4764574053e+00 2.5572992412e+00 
62800 5.8397297021e+00 -6.8907563646e-05 1.4764574053e+00 -2.5572992412e+00 1.4764574053e+00 2.5572992412e+00 
62900 5.8397297128e+00 -6.8991093152e-05 1.4764574053e+00 -2.5572992412e+00 1.4764574053e+00 2.5572992412e+00 
63000 5.8397297234e+00 -6.9072505644e-05 1.4764574053e+00 -2.5572992412e+00 1.4764574053e+00 2.5572992412e+00 
63100 5.8397297339e+00 -6.9151843094e-05 1.4764574053e+00 -2.5572992412e+00 1.4764574053e+00 2.5572992412e+00 
63200 5.8397297441e+00 -6.9229147069e-05 1.4764574053e+00 -2.5572992412e+00 1.4764574053e+00 2.5572992412e+00 
63300 5.8397297543e+00 -6.9304458729e-05 1.4764574053e+00 -2.5572992412e+00 1.4764574053e+00 2.5572992412e+00 
63400 5.8397297643e+00 -6.9377818826e-05 1.4764574053e+00 -2.5572992412e+00 1.4764574053e+00 2.5572992412e+00 
63500 5.8397297742e+00 -6.9449267703e-05 1.4764574053e+00 -2.5572992412e+00 1.4764574053e+00 2.5572992412e+00 
63600 5.8397297840e+00 -6.9518845294e-05 1.4764574053e+00 -2.5572992412e+00 1.4764574053e+00 2.5572992412e+00 
63700 5.8397297936e+00 -6.9586591116e-05 1.4764574053e+00 -2.5572992412e+00 1.4764574053e+00 2.5572992412e+00 
63800 5.8397298031e+00 -6.9652544273e-05 1.4764574053e+00 -2.5572992412e+00 1.4764574053e+00 2.5572992412e+00 
63900 5.8397298125e+00 -6.9716743450e-05 1.4764574053e+00 -2.5572992412e+00 1.4764574053e+00 2.5572992412e+00 
64000 5.8397298217e+00 -6.9779226912e-05 1.4764574053e+00 -2.5572992412e+00 1.4764574053e+00 2.5572992412e+00 
64100 5.8397298308e+00 -6.9840032497e-05 1.4764574053e+00 -2.5572992412e+00 1.4764574053e+00 2.5572992412e+00 
64200 5.8397298398e+00 -6.9899197620e-05 1.4764574053e+00 -2.5572992412e+00 1.4764574053e+00 2.5572992412e+00 
64300 5.8397298487e+00 -6.9956759263e-05 1.4764574053e+00 -2.5572992412e+00 1.4764574053e+00 2.5572992412e+00 
64400 5.8397298575e+00 -7.0012753975e-05 1.4764574053e+00 -2.5572992412e+00 1.4764574053e+00 2.5572992412e+00 
64500 5.8397298661e+00 -7.0067217870e-05 1.4764574053e+00 -2.5572992412e+00 1.4764574053e+00 2.5572992412e+00 
64600 5.8397298747e+00 -7.0120186621e-05 1.4764574053e+00 -2.5572992412e+00 1.4764574053e+00 2.5572992412e+00 
64700 5.8397298831e+00 -7.0171695458e-05 1.4764574053e+00 -2.5572992412e+00 1.4764574053e+00 2.5572992412e+00 
64800 5.8397298914e+00 -7.0221779166e-05 1.4764574053e+00 -2.5572992412e+00 1.4764574053e+00 2.5572992412e+00 
64900 5.8397298996e+00 -7.0270472078e-05 1.4764574053e+00 -2.5572992412e+00 1.4764574053e+00 2.5572992412e+00 
65000 5.8397299077e+00 -7.0317808078e-05 1.4764574053e+00 -2.5572992412e+00 1.4764574053e+00 2.5572992412e+00 
65100 5.8397299157e+00 -7.0363820592e-05 1.4764574053e+00 -2.5572992412e+00 1.4764574053e+00 2.5572992412e+00 
65200 5.8397299236e+00 -7.0408542590e-05 1.4764574053e+00 -2.5572992412e+00 1.4764574053e+00 2.5572992412e+00 
65300 5.8397299313e+00 -7.0452006578e-05 1.4764574053e+00 -2.5572992412e+00 1.4764574053e+00 2.5572992412e+00 
65400 5.8397299390e+00 -7.0494244599e-05 1.4764574053e+00 -2.5572992412e+00 1.4764574053e+00 2.5572992412e+00 
65500 5.8397299466e+00 -7.0535288231e-05 1.4764574053e+00 -2.5572992412e+00 1.4764574053e+00 2.5572992412e+00 
65600 5.8397299541e+00 -7.0575168585e-05 1.4764574053e+00 -2.5572992412e+00 1.4764574053e+00 2.5572992412e+00 
65700 5.8397299614e+00 -7.0613916296e-05 1.4764574053e+00 -2.5572992412e+00 1.4764574053e+00 2.5572992412e+00 
65800 5.8397299687e+00 -7.0651561530e-05 1.4764574053e+00 -2.5572992412e+00 1.4764574053e+00 2.5572992412e+00 
65900 5.8397299759e+00 -7.0688133976e-05 1.4764574053e+00 -2.5572992412e+00 1.4764574053e+00 2.5572992412e+00 
66000 5.8397299830e+00 -7.0723662849e-05 1.4764574053e+00 -2.5572992412e+00 1.4764574053e+00 2.5572992412e+00 
66100 5.8397299898e+00 -6.8160466029e-05 1.4764598004e+00 -2.5573033895e+00 1.4764598004e+00 2.5573033895e+00 
66200 5.8397299967e+00 -6.8184670388e-05 1.4764598004e+00 -2.5573033895e+00 1.4764598004e+00 2.5573033895e+00 
66300 5.8397300035e+00 -6.8207905596e-05 1.4764598004e+00 -2.5573033895e+00 1.4764598004e+00 2.5573033895e+00 
66400 5.8397300102e+00 -6.8230205908e-05 1.4764598004e+00 -2.5573033895e+00 1.4764598004e+00 2.5573033895e+00 
66500 5.8397300169e+00 -6.8251604879e-05 1.4764598004e+00 -2.5573033895e+00 1.4764598004e+00 2.5573033895e+00 
66600 5.8397300234e+00 -6.8272135373e-05 1.4764598004e+00 -2.5573033895e+00 1.4764598004e+00 2.5573033895e+00 
66700 5.8397300299e+00 -6.8291829558e-05 1.4764598004e+00 -2.5573033895e+00 1.4764598004e+00 2.5573033895e+00 
66800 5.8397300363e+00 -6.8310718911e-05 1.4764598004e+00 -2.5573033895e+00 1.4764598004e+00 2.5573033895e+00 
66900 5.8397300426e+00 -6.8328834219e-05 1.4764598004e+00 -2.5573033895e+00 1.4764598004e+00 2.5573033895e+00 
67000 5.8397300488e+00 -6.8346205580e-05 1.4764598004e+00 -2.5573033895e+00 1.4764598004e+00 2.5573033895e+00 
67100 5.8397300549e+00 -6.8362862407e-05 1.4764598004e+00 -2.5573033895e+00 1.4764598004e+00 2.5573033895e+00 
67200 5.8397300610e+00 -6.8378833432e-05 1.4764598004e+00 -2.5573033895e+00 1.4764598004e+00 2.5573033895e+00 
67300 5.8397300670e+00 -6.8394146706e-05 1.4764598004e+00 -2.5573033895e+00 1.4764598004e+00 2.5573033895e+00 
67400 5.8397300729e+00 -6.8408829606e-05 1.4764598004e+00 -2.5573033895e+00 1.4764598004e+00 2.5573033895e+00 
67500 5.8397300787e+00 -6.8422908839e-05 1.4764598004e+00 -2.5573033895e+00 1.4764598004e+00 2.5573033895e+00 
67600 5.8397300845e+00 -6.8436410441e-05 1.4764598004e+00 -2.5573033895e+00 1.4764598004e+00 2.5573033895e+00 
67700 5.8397300901e+00 -6.8449359789e-05 1.4764598004e+00 -2.5573033895e+00 1.4764598004e+00 2.5573033895e+00 
67800 5.8397300957e+00 -6.8461781602e-05 1.4764598004e+00 -2.5573033895e+00 1.4764598004e+00 2.5573033895e+00 
67900 5.8397301013e+00 -6.8473699947e-05 1.4764598004e+00 -2.5573033895e+00 1.4764598004e+00 2.5573033895e+00 
68000 5.8397301067e+00 -6.8485138245e-05 1.4764598004e+00 -2.5573033895e+00 1.4764598004e+00 2.5573033895e+00 
68100 5.8397301121e+00 -6.8496119274e-05 1.4764598004e+00 -2.5573033895e+00 1.4764598004e+00 2.5573033895e+00 
68200 5.8397301174e+00 -6.8506665181e-05 1.4764598004e+00 -2.5573033895e+00 1.4764598004e+00 2.5573033895e+00 
68300 5.8397301227e+00 -6.8516797480e-05 1.4764598004e+00 -2.5573033895e+00 1.4764598004e+00 2.5573033895e+00 
68400 5.8397301279e+00 -6.8526537069e-05 1.4764598004e+00 -2.5573033895e+00 1.4764598004e+00 2.5573033895e+00 
68500 5.8397301330e+00 -6.8535904226e-05 1.4764598004e+00 -2.5573033895e+00 1.4764598004e+00 2.5573033895e+00 
68600 5.8397301380e+00 -6.8544918623e-05 1.4764598004e+00 -2.5573033895e+00 1.4764598004e+00 2.5573033895e+00 
68700 5.8397301430e+00 -6.8553599334e-05 1.4764598004e+00 -2.5573033895e+00 1.4764598004e+00 2.5573033895e+00 
68800 5.8397301479e+00 -6.8561964837e-05 1.4764598004e+00 -2.5573033895e+00 1.4764598004e+00 2.5573033895e+00 
68900 5.8397301528e+00 -6.8570033026e-05 1.4764598004e+00 -2.5573033895e+00 1.4764598004e+00 2.5573033895e+00 
69000 5.8397301576e+00 -6.8577821218e-05 1.4764598004e+00 -2.5573033895e+00 1.4764598004e+00 2.5573033895e+00 
69100 5.8397301623e+00 -6.8585346160e-05 1.4764598004e+00 -2.5573033895e+00 1.4764598004e+00 2.5573033895e+00 
69200 5.8397301670e+00 -6.8592624038e-05 1.4764598004e+00 -2.5573033895e+00 1.4764598004e+00 2.5573033895e+00 
69300 5.8397301716e+00 -6.8599670487e-05 1.4764598004e+00 -2.5573033895e+00 1.4764598004e+00 2.5573033895e+00 
69400 5.8397301762e+00 -6.8606500596e-05 1.4764598004e+00 -2.5573033895e+00 1.4764598004e+00 2.5573033895e+00 
69500 5.8397301807e+00 -6.8613128919e-05 1.4764598004e+00 -2.5573033895e+00 1.4764598004e+00 2.5573033895e+00 
69600 5.8397301851e+00 -6.8619569484e-05 1.4764598004e+00 -2.5573033895e+00 1.4764598004e+00 2.5573033895e+00 
69700 5.8397301895e+00 -6.8625835802e-05 1.4764598004e+00 -2.5573033895e+00 1.4764598004e+00 2.5573033895e+00 
69800 5.8397301938e+00 -6.8631940875e-05 1.4764598004e+00 -2.5573033895e+00 1.4764598004e+00 2.5573033895e+00 
69900 5.8397301981e+00 -6.8637897204e-05 1.4764598004e+00 -2.5573033895e+00 1.4764598004e+00 2.5573033895e+00 
70000 5.8397302023e+00 -6.8643716804e-05 1.4764598004e+00 -2.5573033895e+00 1.4764598004e+00 2.5573033895e+00 
70100 5.8397302064e+00 -6.8649411204e-05 1.4764598004e+00 -2.5573033895e+00 1.4764598004e+00 2.5573033895e+00 
70200 5.8397302106e+00 -6.8654991467e-05 1.4764598004e+00 -2.5573033895e+00 1.4764598004e+00 2.5573033895e+00 
70300 5.8397302146e+00 -6.8660468190e-05 1.4764598004e+00 -2.5573033895e+00 1.4764598004e+00 2.5573033895e+00 
70400 5.8397302186e+00 -6.8665851520e-05 1.4764598004e+00 -2.5573033895e+00 1.4764598004e+00 2.5573033895e+00 
70500 5.8397302226e+00 -6.8671151159e-05 1.4764598004e+00 -2.5573033895e+00 1.4764598004e+00 2.5573033895e+00 
70600 5.8397302265e+00 -6.8676376377e-05 1.4764598004e+00 -2.5573033895e+00 1.4764598004e+00 2.5573033895e+00 
70700 5.8397302303e+00 -6.8681536021e-05 1.4764598004e+00 -2.5573033895e+00 1.4764598004e+00 2.5573033895e+00 
70800 5.8397302341e+00 -6.8686638524e-05 1.4764598004e+00 -2.5573033895e+00 1.4764598004e+00 2.5573033895e+00 
70900 5.8397302379e+00 -6.8691691913e-05 1.4764598004e+00 -2.5573033895e+00 1.4764598004e+00 2.5573033895e+00 
71000 5.8397302416e+00 -6.8696703823e-05 1.4764598004e+00 -2.5573033895e+00 1.4764598004e+00 2.5573033895e+00 
71100 5.8397302453e+00 -6.8701681501e-05 1.4764598004e+00 -2.5573033895e+00 1.4764598004e+00 2.5573033895e+00 
71200 5.8397302489e+00 -6.8706631821e-05 1.4764598004e+00 -2.5573033895e+00 1.4764598004e+00 2.5573033895e+00 
71300 5.8397302524e+00 -6.8711561289e-05 1.4764598004e+00 -2.5573033895e+00 1.4764598004e+00 2.5573033895e+00 
71400 5.8397302560e+00 -6.8716476057e-05 1.4764598004e+00 -2.5573033895e+00 1.4764598004e+00 2.5573033895e+00 
71500 5.8397302594e+00 -6.8721381928e-05 1.4764598004e+00 -2.5573033895e+00 1.4764598004e+00 2.5573033895e+00 
71600 5.8397302629e+00 -6.8726284370e-05 1.4764598004e+00 -2.5573033895e+00 1.4764598004e+00 2.5573033895e+00 
71700 5.8397302663e+00 -6.8731188522e-05 1.4764598004e+00 -2.5573033895e+00 1.4764598004e+00 2.5573033895e+00 
71800 5.8397302696e+00 -6.8736099205e-05 1.4764598004e+00 -2.5573033895e+00 1.4764598004e+00 2.5573033895e+00 
71900 5.8397302729e+00 -6.8741020931e-05 1.4764598004e+00 -2.5573033895e+00 1.4764598004e+00 2.5573033895e+00 
72000 5.8397302762e+00 -6.8745957912e-05 1.4764598004e+00 -2.5573033895e+00 1.4764598004e+00 2.5573033895e+00 
72100 5.8397302794e+00 -6.8750914071e-05 1.4764598004e+00 -2.5573033895e+00 1.4764598004e+00 2.5573033895e+00 
72200 5.8397302826e+00 -6.8755893046e-05 1.4764598004e+00 -2.5573033895e+00 1.4764598004e+00 2.5573033895e+00 
72300 5.8397302857e+00 -6.8760898206e-05 1.4764598004e+00 -2.5573033895e+00 1.4764598004e+00 2.5573033895e+00 
72400 5.8397302888e+00 -6.8765932656e-05 1.4764598004e+00 -2.5573033895e+00 1.4764598004e+00 2.5573033895e+00 
72500 5.8397302919e+00 -6.8770999244e-05 1.4764598004e+00 -2.5573033895e+00 1.4764598004e+00 2.5573033895e+00 
72600 5.8397302949e+00 -6.8776100574e-05 1.4764598004e+00 -2.5573033895e+00 1.4764598004e+00 2.5573033895e+00 
72700 5.8397302979e+00 -6.8781239013e-05 1.4764598004e+00 -2.5573033895e+00 1.4764598004e+00 2.5573033895e+00 
72800 5.8397303009e+00 -6.8786416699e-05 1.4764598004e+00 -2.5573033895e+00 1.4764598004e+00 2.5573033895e+00 
72900 5.8397303038e+00 -6.8791635548e-05 1.4764598004e+00 -2.5573033895e+00 1.4764598004e+00 2.5573033895e+00 
73000 5.8397303067e+00 -6.8796897267e-05 1.4764598004e+00 -2.5573033895e+00 1.4764598004e+00 2.5573033895e+00 
73100 5.8397303095e+00 -6.8802203357e-05 1.4764598004e+00 -2.5573033895e+00 1.4764598004e+00 2.5573033895e+00 
73200 5.8397303123e+00 -6.8807555123e-05 1.4764598004e+00 -2.5573033895e+00 1.4764598004e+00 2.5573033895e+00 
73300 5.8397303151e+00 -6.8812953683e-05 1.4764598004e+00 -2.5573033895e+00 1.4764598004e+00 2.5573033895e+00 
73400 5.8397303178e+00 -6.8818399976e-05 1.4764598004e+00 -2.5573033895e+00 1.4764598004e+00 2.5573033895e+00 
73500 5.8397303205e+00 -6.8823894767e-05 1.4764598004e+00 -2.5573033895e+00 1.4764598004e+00 2.5573033895e+00 
73600 5.8397303232e+00 -6.8829438657e-05 1.4764598004e+00 -2.5573033895e+00 1.4764598004e+00 2.5573033895e+00 
73700 5.8397303258e+00 -6.8835032089e-05 1.4764598004e+00 -2.5573033895e+00 1.4764598004e+00 2.5573033895e+00 
73800 5.8397303284e+00 -6.8840675355e-05 1.4764598004e+00 -2.5573033895e+00 1.4764598004e+00 2.5573033895e+00 
73900 5.8397303310e+00 -6.8846368607e-05 1.4764598004e+00 -2.5573033895e+00 1.4764598004e+00 2.5573033895e+00 
74000 5.8397303335e+00 -6.8852111859e-05 1.4764598004e+00 -2.5573033895e+00 1.4764598004e+00 2.5573033895e+00 
74100 5.8397303360e+00 -6.8857904994e-05 1.4764598004e+00 -2.5573033895e+00 1.4764598004e+00 2.5573033895e+00 
74200 5.8397303385e+00 -6.8863747775e-05 1.4764598004e+00 -2.5573033895e+00 1.4764598004e+00 2.5573033895e+00 
74300 5.8397303409e+00 -6.8869639850e-05 1.4764598004e+00 -2.5573033895e+00 1.4764598004e+00 2.5573033895e+00 
74400 5.8397303433e+00 -6.8875580754e-05 1.4764598004e+00 -2.5573033895e+00 1.4764598004e+00 2.5573033895e+00 
74500 5.8397303457e+00 -6.8881569921e-05 1.4764598004e+00 -2.5573033895e+00 1.4764598004e+00 2.5573033895e+00 
74600 5.8397303481e+00 -6.8887606688e-05 1.4764598004e+00 -2.5573033895e+00 1.4764598004e+00 2.5573033895e+00 
74700 5.8397303504e+00 -6.8893690299e-05 1.4764598004e+00 -2.5573033895e+00 1.4764598004e+00 2.5573033895e+00 
74800 5.8397303527e+00 -6.8899819914e-05 1.4764598004e+00 -2.5573033895e+00 1.4764598004e+00 2.5573033895e+00 
74900 5.8397303550e+00 -6.8905994613e-05 1.4764598004e+00 -2.5573033895e+00 1.4764598004e+00 2.5573033895e+00 
75000 5.8397303572e+00 -6.8912213402e-05 1.4764598004e+00 -2.5573033895e+00 1.4764598004e+00 2.5573033895e+00 
75100 5.8397303594e+00 -6.8918475217e-05 1.4764598004e+00 -2.5573033895e+00 1.4764598004e+00 2.5573033895e+00 
75200 5.8397303616e+00 -6.8924778929e-05 1.4764598004e+00 -2.5573033895e+00 1.4764598004e+00 2.5573033895e+00 
75300 5.8397303637e+00 -6.8931123355e-05 1.4764598004e+00 -2.5573033895e+00 1.4764598004e+00 2.5573033895e+00 
75400 5.8397303659e+00 -6.8937507253e-05 1.4764598004e+00 -2.5573033895e+00 1.4764598004e+00 2.5573033895e+00 
75500 5.8397303680e+00 -6.8943929335e-05 1.4764598004e+00 -2.5573033895e+00 1.4764598004e+00 2.5573033895e+00 
75600 5.8397303700e+00 -6.8950388268e-05 1.4764598004e+00 -2.5573033895e+00 1.4764598004e+00 2.5573033895e+00 
75700 5.8397303721e+00 -6.8956882678e-05 1.4764598004e+00 -2.5573033895e+00 1.4764598004e+00 2.5573033895e+00 
75800 5.8397303741e+00 -6.8963411158e-05 1.4764598004e+00 -2.5573033895e+00 1.4764598004e+00 2.5573033895e+00 
75900 5.8397303761e+00 -6.8969972265e-05 1.4764598004e+00 -2.5573033895e+00 1.4764598004e+00 2.5573033895e+00 
76000 5.8397303781e+00 -6.8976564533e-05 1.4764598004e+00 -2.5573033895e+00 1.4764598004e+00 2.5573033895e+00 
76100 5.8397303800e+00 -6.8983186469e-05 1.4764598004e+00 -2.5573033895e+00 1.4764598004e+00 2.5573033895e+00 
76200 5.8397303820e+00 -6.8989836564e-05 1.4764598004e+00 -2.5573033895e+00 1.4764598004e+00 2.5573033895e+00 
76300 5.8397303839e+00 -6.8996513288e-05 1.4764598004e+00 -2.5573033895e+00 1.4764598004e+00 2.5573033895e+00 
76400 5.8397303857e+00 -6.9003215102e-05 1.4764598004e+00 -2.5573033895e+00 1.4764598004e+00 2.5573033895e+00 
76500 5.8397303876e+00 -6.9009940457e-05 1.4764598004e+00 -2.5573033895e+00 1.4764598004e+00 2.5573033895e+00 
76600 5.8397303894e+00 -6.9016687795e-05 1.4764598004e+00 -2.5573033895e+00 1.4764598004e+00 2.5573033895e+00 
76700 5.8397303912e+00 -6.9023455557e-05 1.4764598004e+00 -2.5573033895e+00 1.4764598004e+00 2.5573033895e+00 
76800 5.8397303930e+00 -6.9030242184e-05 1.4764598004e+00 -2.5573033895e+00 1.4764598004e+00 2.5573033895e+00 
76900 5.8397303948e+00 -6.9037046120e-05 1.4764598004e+00 -2.5573033895e+00 1.4764598004e+00 2.5573033895e+00 
77000 5.8397303965e+00 -6.9043865811e-05 1.4764598004e+00 -2.5573033895e+00 1.4764598004e+00 2.5573033895e+00 
77100 5.8397303983e+00 -6.9050699714e-05 1.4764598004e+00 -2.5573033895e+00 1.4764598004e+00 2.5573033895e+00 
77200 5.8397304000e+00 -6.9057546294e-05 1.4764598004e+00 -2.5573033895e+00 1.4764598004e+00 2.5573033895e+00 
77300 5.8397304016e+00 -6.9064404032e-05 1.4764598004e+00 -2.5573033895e+00 1.4764598004e+00 2.5573033895e+00 
77400 5.8397304033e+00 -6.9071271419e-05 1.4764598004e+00 -2.5573033895e+00 1.4764598004e+00 2.5573033895e+00 
77500 5.8397304049e+00 -6.9078146965e-05 1.4764598004e+00 -2.5573033895e+00 1.4764598004e+00 2.5573033895e+00 
77600 5.8397304066e+00 -6.9085029198e-05 1.4764598004e+00 -2.5573033895e+00 1.4764598004e+00 2.5573033895e+00 
77700 5.8397304082e+00 -6.9091916668e-05 1.4764598004e+00 -2.5573033895e+00 1.4764598004e+00 2.5573033895e+00 
77800 5.8397304097e+00 -6.9098807945e-05 1.4764598004e+00 -2.5573033895e+00 1.4764598004e+00 2.5573033895e+00 
77900 5.8397304113e+00 -6.9105701626e-05 1.4764598004e+00 -2.5573033895e+00 1.4764598004e+00 2.5573033895e+00 
78000 5.8397304128e+00 -6.9112596330e-05 1.4764598004e+00 -2.5573033895e+00 1.4764598004e+00 2.5573033895e+00 
78100 5.8397304144e+00 -6.9119490704e-05 1.4764598004e+00 -2.5573033895e+00 1.4764598004e+00 2.5573033895e+00 
78200 5.8397304159e+00 -6.9126383423e-05 1.4764598004e+00 -2.5573033895e+00 1.4764598004e+00 2.5573033895e+00 
78300 5.8397304173e+00 -6.9133273192e-05 1.4764598004e+00 -2.5573033895e+00 1.4764598004e+00 2.5573033895e+00 
78400 5.8397304188e+00 -6.9140158748e-05 1.4764598004e+00 -2.5573033895e+00 1.4764598004e+00 2.5573033895e+00 
78500 5.8397304203e+00 -6.9147038855e-05 1.4764598004e+00 -2.5573033895e+00 1.4764598004e+00 2.5573033895e+00 
78600 5.8397304217e+00 -6.9153912312e-05 1.4764598004e+00 -2.5573033895e+00 1.4764598004e+00 2.5573033895e+00 
78700 5.8397304231e+00 -6.9160777954e-05 1.4764598004e+00 -2.5573033895e+00 1.4764598004e+00 2.5573033895e+00 
78800 5.8397304245e+00 -6.9167634644e-05 1.4764598004e+00 -2.5573033895e+00 1.4764598004e+00 2.5573033895e+00 
78900 5.8397304259e+00 -6.9174481284e-05 1.4764598004e+00 -2.5573033895e+00 1.4764598004e+00 2.5573033895e+00 
79000 5.8397304272e+00 -6.9181316812e-05 1.4764598004e+00 -2.5573033895e+00 1.4764598004e+00 2.5573033895e+00 
79100 5.8397304286e+00 -6.9188140197e-05 1.4764598004e+00 -2.5573033895e+00 1.4764598004e+00 2.5573033895e+00 
79200 5.8397304299e+00 -6.9194950450e-05 1.4764598004e+00 -2.5573033895e+00 1.4764598004e+00 2.5573033895e+00 
79300 5.8397304312e+00 -6.9201746616e-05 1.4764598004e+00 -2.5573033895e+00 1.4764598004e+00 2.5573033895e+00 
79400 5.8397304325e+00 -6.9208527778e-05 1.4764598004e+00 -2.5573033895e+00 1.4764598004e+00 2.5573033895e+00 
79500 5.8397304338e+00 -6.9215293053e-05 1.4764598004e+00 -2.5573033895e+00 1.4764598004e+00 2.5573033895e+00 
79600 5.8397304351e+00 -6.9222041601e-05 1.4764598004e+00 -2.5573033895e+00 1.4764598004e+00 2.5573033895e+00 
79700 5.8397304363e+00 -6.9228772613e-05 1.4764598004e+00 -2.5573033895e+00 1.4764598004e+00 2.5573033895e+00 
79800 5.8397304376e+00 -6.9235485325e-05 1.4764598004e+00 -2.5573033895e+00 1.4764598004e+00 2.5573033895e+00 
79900 5.8397304388e+00 -6.9242179005e-05 1.4764598004e+00 -2.5573033895e+00 1.4764598004e+00 2.5573033895e+00 
80000 5.8397304400e+00 -6.9248852960e-05 1.4764598004e+00 -2.5573033895e+00 1.4764598004e+00 2.5573033895e+00 
80100 5.8397304412e+00 -6.9255506534e-05 1.4764598004e+00 -2.5573033895e+00 1.4764598004e+00 2.5573033895e+00 
80200 5.8397304423e+00 -6.9262139111e-05 1.4764598004e+00 -2.5573033895e+00 1.4764598004e+00 2.5573033895e+00 
80300 5.8397304435e+00 -6.9268750109e-05 1.4764598004e+00 -2.5573033895e+00 1.4764598004e+00 2.5573033895e+00 
80400 5.8397304446e+00 -6.9275338984e-05 1.4764598004e+00 -2.5573033895e+00 1.4764598004e+00 2.5573033895e+00 
80500 5.8397304458e+00 -6.9281905229e-05 1.4764598004e+00 -2.5573033895e+00 1.4764598004e+00 2.5573033895e+00 
80600 5.8397304469e+00 -6.9288448372e-05 1.4764598004e+00 -2.5573033895e+00 1.4764598004e+00 2.5573033895e+00 
80700 5.8397304480e+00 -6.9294967977e-05 1.4764598004e+00 -2.5573033895e+00 1.4764598004e+00 2.5573033895e+00 
80800 5.8397304491e+00 -6.9301463644e-05 1.4764598004e+00 -2.5573033895e+00 1.4764598004e+00 2.5573033895e+00 
80900 5.8397304502e+00 -6.9307935008e-05 1.4764598004e+00 -2.5573033895e+00 1.4764598004e+00 2.5573033895e+00 
81000 5.8397304512e+00 -6.9314381738e-05 1.4764598004e+00 -2.5573033895e+00 1.4764598004e+00 2.5573033895e+00 
81100 5.8397304523e+00 -6.9320803537e-05 1.4764598004e+00 -2.5573033895e+00 1.4764598004e+00 2.5573033895e+00 
81200 5.8397304533e+00 -6.9327200141e-05 1.4764598004e+00 -2.5573033895e+00 1.4764598004e+00 2.5573033895e+00 
81300 5.8397304544e+00 -6.9333571318e-05 1.4764598004e+00 -2.5573033895e+00 1.4764598004e+00 2.5573033895e+00 
81400 5.8397304554e+00 -6.9339916869e-05 1.4764598004e+00 -2.5573033895e+00 1.4764598004e+00 2.5573033895e+00 
81500 5.8397304564e+00 -6.9346236628e-05 1.4764598004e+00 -2.5573033895e+00 1.4764598004e+00 2.5573033895e+00 
81600 5.8397304574e+00 -6.9352530458e-05 1.4764598004e+00 -2.5573033895e+00 1.4764598004e+00 2.5573033895e+00 
81700 5.8397304583e+00 -6.9358798251e-05 1.4764598004e+00 -2.5573033895e+00 1.4764598004e+00 2.5573033895e+00 
81800 5.8397304593e+00 -6.9365039932e-05 1.4764598004e+00 -2.5573033895e+00 1.4764598004e+00 2.5573033895e+00 
81900 5.8397304603e+00 -6.9371255451e-05 1.4764598004e+00 -2.5573033895e+00 1.4764598004e+00 2.5573033895e+00 
82000 5.8397304612e+00 -6.9377444789e-05 1.4764598004e+00 -2.5573033895e+00 1.4764598004e+00 2.5573033895e+00 
82100 5.8397304621e+00 -6.9383607951e-05 1.4764598004e+00 -2.5573033895e+00 1.4764598004e+00 2.5573033895e+00 
82200 5.8397304631e+00 -6.9389744973e-05 1.4764598004e+00 -2.5573033895e+00 1.4764598004e+00 2.5573033895e+00 
82300 5.8397304640e+00 -6.9395855912e-05 1.4764598004e+00 -2.5573033895e+00 1.4764598004e+00 2.5573033895e+00 
82400 5.8397304649e+00 -6.9401940853e-05 1.4764598004e+00 -2.5573033895e+00 1.4764598004e+00 2.5573033895e+00 
82500 5.8397304658e+00 -6.9407999905e-05 1.4764598004e+00 -2.5573033895e+00 1.4764598004e+00 2.5573033895e+00 
82600 5.8397304666e+00 -6.9414033198e-05 1.4764598004e+00 -2.5573033895e+00 1.4764598004e+00 2.5573033895e+00 
82700 5.8397304675e+00 -6.9420040886e-05 1.4764598004e+00 -2.5573033895e+00 1.4764598004e+00 2.5573033895e+00 
82800 5.8397304684e+00 -6.9426023146e-05 1.4764598004e+00 -2.5573033895e+00 1.4764598004e+00 2.5573033895e+00 
82900 5.8397304692e+00 -6.9431980174e-05 1.4764598004e+00 -2.5573033895e+00 1.4764598004e+00 2.5573033895e+00 
83000 5.8397304700e+00 -6.9437912187e-05 1.4764598004e+00 -2.5573033895e+00 1.4764598004e+00 2.5573033895e+00 
83100 5.8397304709e+00 -6.9443819422e-05 1.4764598004e+00 -2.5573033895e+00 1.4764598004e+00 2.5573033895e+00 
83200 5.8397304717e+00 -6.9449702132e-05 1.4764598004e+00 -2.5573033895e+00 1.4764598004e+00 2.5573033895e+00 
83300 5.8397304725e+00 -6.9455560592e-05 1.4764598004e+00 -2.5573033895e+00 1.4764598004e+00 2.5573033895e+00 
83400 5.8397304733e+00 -6.9461395089e-05 1.4764598004e+00 -2.5573033895e+00 1.4764598004e+00 2.5573033895e+00 
83500 5.8397304741e+00 -6.9467205928e-05 1.4764598004e+00 -2.5573033895e+00 1.4764598004e+00 2.5573033895e+00 
83600 5.8397304748e+00 -6.9472993431e-05 1.4764598004e+00 -2.5573033895e+00 1.4764598004e+00 2.5573033895e+00 
83700 5.8397304756e+00 -6.9478757932e-05 1.4764598004e+00 -2.5573033895e+00 1.4764598004e+00 2.5573033895e+00 
83800 5.8397304764e+00 -6.9484499779e-05 1.4764598004e+00 -2.5573033895e+00 1.4764598004e+00 2.5573033895e+00 
83900 5.8397304771e+00 -6.9490219334e-05 1.4764598004e+00 -2.5573033895e+00 1.4764598004e+00 2.5573033895e+00 
84000 5.8397304779e+00 -6.9495916971e-05 1.4764598004e+00 -2.5573033895e+00 1.4764598004e+00 2.5573033895e+00 
84100 5.8397304786e+00 -6.9501593074e-05 1.4764598004e+00 -2.5573033895e+00 1.4764598004e+00 2.5573033895e+00 
84200 5.8397304793e+00 -6.9507248039e-05 1.4764598004e+00 -2.5573033895e+00 1.4764598004e+00 2.5573033895e+00 
84300 5.8397304800e+00 -6.9512882270e-05 1.4764598004e+00 -2.5573033895e+00 1.4764598004e+00 2.5573033895e+00 
84400 5.8397304807e+00 -6.9518496181e-05 1.4764598004e+00 -2.5573033895e+00 1.4764598004e+00 2.5573033895e+00 
84500 5.8397304814e+00 -6.9524090197e-05 1.4764598004e+00 -2.5573033895e+00 1.4764598004e+00 2.5573033895e+00 
84600 5.8397304821e+00 -6.9529664746e-05 1.4764598004e+00 -2.5573033895e+00 1.4764598004e+00 2.5573033895e+00 
84700 5.8397304828e+00 -6.9535220264e-05 1.4764598004e+00 -2.5573033895e+00 1.4764598004e+00 2.5573033895e+00 
84800 5.8397304835e+00 -6.9540757195e-05 1.4764598004e+00 -2.5573033895e+00 1.4764598004e+00 2.5573033895e+00 
84900 5.8397304841e+00 -6.9546275988e-05 1.4764598004e+00 -2.5573033895e+00 1.4764598004e+00 2.5573033895e+00 
85000 5.8397304848e+00 -6.9551777096e-05 1.4764598004e+00 -2.5573033895e+00 1.4764598004e+00 2.5573033895e+00 
85100 5.8397304854e+00 -6.9557260977e-05 1.4764598004e+00 -2.5573033895e+00 1.4764598004e+00 2.5573033895e+00 
85200 5.8397304861e+00 -6.9562728090e-05 1.4764598004e+00 -2.5573033895e+00 1.4764598004e+00 2.5573033895e+00 
85300 5.8397304867e+00 -6.9568178901e-05 1.4764598004e+00 -2.5573033895e+00 1.4764598004e+00 2.5573033895e+00 
85400 5.8397304873e+00 -6.9573613875e-05 1.4764598004e+00 -2.5573033895e+00 1.4764598004e+00 2.5573033895e+00 
85500 5.8397304880e+00 -6.9579033479e-05 1.4764598004e+00 -2.5573033895e+00 1.4764598004e+00 2.5573033895e+00 
85600 5.8397304886e+00 -6.9584438184e-05 1.4764598004e+00 -2.5573033895e+00 1.4764598004e+00 2.5573033895e+00 
85700 5.8397304892e+00 -6.9589828458e-05 1.4764598004e+00 -2.5573033895e+00 1.4764598004e+00 2.5573033895e+00 
85800 5.8397304898e+00 -6.9595204770e-05 1.4764598004e+00 -2.5573033895e+00 1.4764598004e+00 2.5573033895e+00 
85900 5.8397304904e+00 -6.9600567588e-05 1.4764598004e+00 -2.5573033895e+00 1.4764598004e+00 2.5573033895e+00 
86000 5.8397304909e+00 -6.9605917381e-05 1.4764598004e+00 -2.5573033895e+00 1.4764598004e+00 2.5573033895e+00 
86100 5.8397304915e+00 -6.9611254614e-05 1.4764598004e+00 -2.5573033895e+00 1.4764598004e+00 2.5573033895e+00 
86200 5.8397304921e+00 -6.9616579751e-05 1.4764598004e+00 -2.5573033895e+00 1.4764598004e+00 2.5573033895e+00 
86300 5.8397304926e+00 -6.9621893252e-05 1.4764598004e+00 -2.5573033895e+00 1.4764598004e+00 2.5573033895e+00 
86400 5.8397304932e+00 -6.9627195577e-05 1.4764598004e+00 -2.5573033895e+00 1.4764598004e+00 2.5573033895e+00 
86500 5.8397304937e+00 -6.9632487177e-05 1.4764598004e+00 -2.5573033895e+00 1.4764598004e+00 2.5573033895e+00 
86600 5.8397304943e+00 -6.9637768507e-05 1.4764598004e+00 -2.5573033895e+00 1.4764598004e+00 2.5573033895e+00 
86700 5.8397304948e+00 -6.9643040009e-05 1.4764598004e+00 -2.5573033895e+00 1.4764598004e+00 2.5573033895e+00 
86800 5.8397304953e+00 -6.9648302127e-05 1.4764598004e+00 -2.5573033895e+00 1.4764598004e+00 2.5573033895e+00 
86900 5.8397304959e+00 -6.9653555296e-05 1.4764598004e+00 -2.5573033895e+00 1.4764598004e+00 2.5573033895e+00 
87000 5.8397304964e+00 -6.9658799947e-05 1.4764598004e+00 -2.5573033895e+00 1.4764598004e+00 2.5573033895e+00 
87100 5.8397304969e+00 -6.9664036506e-05 1.4764598004e+00 -2.5573033895e+00 1.4764598004e+00 2.5573033895e+00 
87200 5.8397304974e+00 -6.9669265390e-05 1.4764598004e+00 -2.5573033895e+00 1.4764598004e+00 2.5573033895e+00 
87300 5.8397304979e+00 -6.9674487012e-05 1.4764598004e+00 -2.5573033895e+00 1.4764598004e+00 2.5573033895e+00 
87400 5.8397304984e+00 -6.9679701777e-05 1.4764598004e+00 -2.5573033895e+00 1.4764598004e+00 2.5573033895e+00 
87500 5.8397304989e+00 -6.9684910083e-05 1.4764598004e+00 -2.5573033895e+00 1.4764598004e+00 2.5573033895e+00 
87600 5.8397304993e+00 -6.9690112322e-05 1.4764598004e+00 -2.5573033895e+00 1.4764598004e+00 2.5573033895e+00 
87700 5.8397304998e+00 -6.9695308876e-05 1.4764598004e+00 -2.5573033895e+00 1.4764598004e+00 2.5573033895e+00 
87800 5.8397305003e+00 -6.9700500121e-05 1.4764598004e+00 -2.5573033895e+00 1.4764598004e+00 2.5573033895e+00 
87900 5.8397305008e+00 -6.9705686424e-05 1.4764598004e+00 -2.5573033895e+00 1.4764598004e+00 2.5573033895e+00 
88000 5.8397305012e+00 -6.9710868145e-05 1.4764598004e+00 -2.5573033895e+00 1.4764598004e+00 2.5573033895e+00 
88100 5.8397305017e+00 -6.9716045634e-05 1.4764598004e+00 -2.5573033895e+00 1.4764598004e+00 2.5573033895e+00 
88200 5.8397305021e+00 -6.9721219232e-05 1.4764598004e+00 -2.5573033895e+00 1.4764598004e+00 2.5573033895e+00 
88300 5.8397305026e+00 -6.9726389273e-05 1.4764598004e+00 -2.5573033895e+00 1.4764598004e+00 2.5573033895e+00 
88400 5.8397305030e+00 -6.9731556082e-05 1.4764598004e+00 -2.5573033895e+00 1.4764598004e+00 2.5573033895e+00 
88500 5.8397305034e+00 -6.9736719971e-05 1.4764598004e+00 -2.5573033895e+00 1.4764598004e+00 2.5573033895e+00 
88600 5.8397305038e+00 -6.9741881248e-05 1.4764598004e+00 -2.5573033895e+00 1.4764598004e+00 2.5573033895e+00 
88700 5.8397305043e+00 -6.9747040208e-05 1.4764598004e+00 -2.5573033895e+00 1.4764598004e+00 2.5573033895e+00 
88800 5.8397305047e+00 -6.9752197138e-05 1.4764598004e+00 -2.5573033895e+00 1.4764598004e+00 2.5573033895e+00 
88900 5.8397305051e+00 -6.9757352316e-05 1.4764598004e+00 -2.5573033895e+00 1.4764598004e+00 2.5573033895e+00 
89000 5.8397305055e+00 -6.9762506009e-05 1.4764598004e+00 -2.5573033895e+00 1.4764598004e+00 2.5573033895e+00 
89100 5.8397305059e+00 -6.9767658474e-05 1.4764598004e+00 -2.5573033895e+00 1.4764598004e+00 2.5573033895e+00 
89200 5.8397305063e+00 -6.9772809960e-05 1.4764598004e+00 -2.5573033895e+00 1.4764598004e+00 2.5573033895e+00 
89300 5.8397305067e+00 -6.9777960705e-05 1.4764598004e+00 -2.5573033895e+00 1.4764598004e+00 2.5573033895e+00 
89400 5.8397305071e+00 -6.9783110937e-05 1.4764598004e+00 -2.5573033895e+00 1.4764598004e+00 2.5573033895e+00 
89500 5.8397305075e+00 -6.9788260874e-05 1.4764598004e+00 -2.5573033895e+00 1.4764598004e+00 2.5573033895e+00 
89600 5.8397305078e+00 -6.9793410725e-05 1.4764598004e+00 -2.5573033895e+00 1.4764598004e+00 2.5573033895e+00 
89700 5.8397305082e+00 -6.9798560690e-05 1.4764598004e+00 -2.5573033895e+00 1.4764598004e+00 2.5573033895e+00 
89800 5.8397305086e+00 -6.9803710956e-05 1.4764598004e+00 -2.5573033895e+00 1.4764598004e+00 2.5573033895e+00 
89900 5.8397305089e+00 -6.9808861702e-05 1.4764598004e+00 -2.5573033895e+00 1.4764598004e+00 2.5573033895e+00 
90000 5.8397305093e+00 -6.9814013099e-05 1.4764598004e+00 -2.5573033895e+00 1.4764598004e+00 2.5573033895e+00 
90100 5.8397305097e+00 -6.9819165303e-05 1.4764598004e+00 -2.5573033895e+00 1.4764598004e+00 2.5573033895e+00 
90200 5.8397305100e+00 -6.9824318467e-05 1.4764598004e+00 -2.5573033895e+00 1.4764598004e+00 2.5573033895e+00 
90300 5.8397305104e+00 -6.9829472729e-05 1.4764598004e+00 -2.5573033895e+00 1.4764598004e+00 2.5573033895e+00 
90400 5.8397305107e+00 -6.9834628219e-05 1.4764598004e+00 -2.5573033895e+00 1.4764598004e+00 2.5573033895e+00 
90500 5.8397305110e+00 -6.9839785058e-05 1.4764598004e+00 -2.5573033895e+00 1.4764598004e+00 2.5573033895e+00 
90600 5.8397305114e+00 -6.9844943358e-05 1.4764598004e+00 -2.5573033895e+00 1.4764598004e+00 2.5573033895e+00 
90700 5.8397305117e+00 -6.9850103220e-05 1.4764598004e+00 -2.5573033895e+00 1.4764598004e+00 2.5573033895e+00 
90800 5.8397305120e+00 -6.9855264736e-05 1.4764598004e+00 -2.5573033895e+00 1.4764598004e+00 2.5573033895e+00 
90900 5.8397305124e+00 -6.9860427990e-05 1.4764598004e+00 -2.5573033895e+00 1.4764598004e+00 2.5573033895e+00 
91000 5.8397305127e+00 -6.9865593057e-05 1.4764598004e+00 -2.5573033895e+00 1.4764598004e+00 2.5573033895e+00 
91100 5.8397305130e+00 -6.9870760000e-05 1.4764598004e+00 -2.5573033895e+00 1.4764598004e+00 2.5573033895e+00 
91200 5.8397305133e+00 -6.9875928875e-05 1.4764598004e+00 -2.5573033895e+00 1.4764598004e+00 2.5573033895e+00 
91300 5.8397305136e+00 -6.9881099732e-05 1.4764598004e+00 -2.5573033895e+00 1.4764598004e+00 2.5573033895e+00 
91400 5.8397305139e+00 -6.9886272607e-05 1.4764598004e+00 -2.5573033895e+00 1.4764598004e+00 2.5573033895e+00 
91500 5.8397305142e+00 -6.9891447532e-05 1.4764598004e+00 -2.5573033895e+00 1.4764598004e+00 2.5573033895e+00 
91600 5.8397305145e+00 -6.9896624529e-05 1.4764598004e+00 -2.5573033895e+00 1.4764598004e+00 2.5573033895e+00 
91700 5.8397305148e+00 -6.9901803610e-05 1.4764598004e+00 -2.5573033895e+00 1.4764598004e+00 2.5573033895e+00 
91800 5.8397305151e+00 -6.9906984782e-05 1.4764598004e+00 -2.5573033895e+00 1.4764598004e+00 2.5573033895e+00 
91900 5.8397305154e+00 -6.9912168041e-05 1.4764598004e+00 -2.5573033895e+00 1.4764598004e+00 2.5573033895e+00 
92000 5.8397305157e+00 -6.9917353379e-05 1.4764598004e+00 -2.5573033895e+00 1.4764598004e+00 2.5573033895e+00 
92100 5.8397305160e+00 -6.9922540775e-05 1.4764598004e+00 -2.5573033895e+00 1.4764598004e+00 2.5573033895e+00 
92200 5.8397305162e+00 -6.9927730207e-05 1.4764598004e+00 -2.5573033895e+00 1.4764598004e+00 2.5573033895e+00 
92300 5.8397305165e+00 -6.9932921639e-05 1.4764598004e+00 -2.5573033895e+00 1.4764598004e+00 2.5573033895e+00 
92400 5.8397305168e+00 -6.9938115031e-05 1.4764598004e+00 -2.5573033895e+00 1.4764598004e+00 2.5573033895e+00 
92500 5.8397305171e+00 -6.9943310339e-05 1.4764598004e+00 -2.5573033895e+00 1.4764598004e+00 2.5573033895e+00 
92600 5.8397305173e+00 -6.9948507508e-05 1.4764598004e+00 -2.5573033895e+00 1.4764598004e+00 2.5573033895e+00 
92700 5.8397305176e+00 -6.9953706477e-05 1.4764598004e+00 -2.5573033895e+00 1.4764598004e+00 2.5573033895e+00 
92800 5.8397305178e+00 -6.9958907178e-05 1.4764598004e+00 -2.5573033895e+00 1.4764598004e+00 2.5573033895e+00 
92900 5.8397305181e+00 -6.9964109540e-05 1.4764598004e+00 -2.5573033895e+00 1.4764598004e+00 2.5573033895e+00 
93000 5.8397305183e+00 -6.9969313480e-05 1.4764598004e+00 -2.5573033895e+00 1.4764598004e+00 2.5573033895e+00 
93100 5.8397305186e+00 -6.9974518916e-05 1.4764598004e+00 -2.5573033895e+00 1.4764598004e+00 2.5573033895e+00 
93200 5.8397305188e+00 -6.9979725754e-05 1.4764598004e+00 -2.5573033895e+00 1.4764598004e+00 2.5573033895e+00 
93300 5.8397305191e+00 -6.9984933898e-05 1.4764598004e+00 -2.5573033895e+00 1.4764598004e+00 2.5573033895e+00 
93400 5.8397305193e+00 -6.9990143245e-05 1.4764598004e+00 -2.5573033895e+00 1.4764598004e+00 2.5573033895e+00 
93500 5.8397305196e+00 -6.9995353689e-05 1.4764598004e+00 -2.5573033895e+00 1.4764598004e+00 2.5573033895e+00 
93600 5.8397305198e+00 -7.0000565115e-05 1.4764598004e+00 -2.5573033895e+00 1.4764598004e+00 2.5573033895e+00 
93700 5.8397305200e+00 -7.0005777405e-05 1.4764598004e+00 -2.5573033895e+00 1.4764598004e+00 2.5573033895e+00 
93800 5.8397305203e+00 -7.0010990438e-05 1.4764598004e+00 -2.5573033895e+00 1.4764598004e+00 2.5573033895e+00 
93900 5.8397305205e+00 -7.0016204085e-05 1.4764598004e+00 -2.5573033895e+00 1.4764598004e+00 2.5573033895e+00 
94000 5.8397305207e+00 -7.0021418215e-05 1.4764598004e+00 -2.5573033895e+00 1.4764598004e+00 2.5573033895e+00 
94100 5.8397305209e+00 -7.0026632693e-05 1.4764598004e+00 -2.5573033895e+00 1.4764598004e+00 2.5573033895e+00 
94200 5.8397305212e+00 -7.0031847376e-05 1.4764598004e+00 -2.5573033895e+00 1.4764598004e+00 2.5573033895e+00 
94300 5.8397305214e+00 -7.0037062122e-05 1.4764598004e+00 -2.5573033895e+00 1.4764598004e+00 2.5573033895e+00 
94400 5.8397305216e+00 -7.0042276784e-05 1.4764598004e+00 -2.5573033895e+00 1.4764598004e+00 2.5573033895e+00 
94500 5.8397305218e+00 -7.0047491209e-05 1.4764598004e+00 -2.5573033895e+00 1.4764598004e+00 2.5573033895e+00 
94600 5.8397305220e+00 -7.0052705243e-05 1.4764598004e+00 -2.5573033895e+00 1.4764598004e+00 2.5573033895e+00 
94700 5.8397305222e+00 -7.0057918729e-05 1.4764598004e+00 -2.5573033895e+00 1.4764598004e+00 2.5573033895e+00 
94800 5.8397305224e+00 -7.0063131504e-05 1.4764598004e+00 -2.5573033895e+00 1.4764598004e+00 2.5573033895e+00 
94900 5.8397305226e+00 -7.0068343405e-05 1.4764598004e+00 -2.5573033895e+00 1.4764598004e+00 2.5573033895e+00 
95000 5.8397305228e+00 -7.0073554265e-05 1.4764598004e+00 -2.5573033895e+00 1.4764598004e+00 2.5573033895e+00 
95100 5.8397305230e+00 -7.0078763917e-05 1.4764598004e+00 -2.5573033895e+00 1.4764598004e+00 2.5573033895e+00 
95200 5.8397305232e+00 -7.0083972185e-05 1.4764598004e+00 -2.5573033895e+00 1.4764598004e+00 2.5573033895e+00 
95300 5.8397305234e+00 -7.0089178898e-05 1.4764598004e+00 -2.5573033895e+00 1.4764598004e+00 2.5573033895e+00 
95400 5.8397305236e+00 -7.0094383879e-05 1.4764598004e+00 -2.5573033895e+00 1.4764598004e+00 2.5573033895e+00 
95500 5.8397305238e+00 -7.0099586951e-05 1.4764598004e+00 -2.5573033895e+00 1.4764598004e+00 2.5573033895e+00 
95600 5.8397305240e+00 -7.0104787932e-05 1.4764598004e+00 -2.5573033895e+00 1.4764598004e+00 2.5573033895e+00 
95700 5.8397305242e+00 -7.0109986641e-05 1.4764598004e+00 -2.5573033895e+00 1.4764598004e+00 2.5573033895e+00 
95800 5.8397305243e+00 -7.0115182896e-05 1.4764598004e+00 -2.5573033895e+00 1.4764598004e+00 2.5573033895e+00 
95900 5.8397305245e+00 -7.0120376510e-05 1.4764598004e+00 -2.5573033895e+00 1.4764598004e+00 2.5573033895e+00 
96000 5.8397305247e+00 -7.0125567300e-05 1.4764598004e+00 -2.5573033895e+00 1.4764598004e+00 2.5573033895e+00 
96100 5.8397305249e+00 -7.0130755078e-05 1.4764598004e+00 -2.5573033895e+00 1.4764598004e+00 2.5573033895e+00 
96200 5.8397305250e+00 -7.0135939655e-05 1.4764598004e+00 -2.5573033895e+00 1.4764598004e+00 2.5573033895e+00 
96300 5.8397305252e+00 -7.0141120843e-05 1.4764598004e+00 -2.5573033895e+00 1.4764598004e+00 2.5573033895e+00 
96400 5.8397305254e+00 -7.0146298453e-05 1.4764598004e+00 -2.5573033895e+00 1.4764598004e+00 2.5573033895e+00 
96500 5.8397305255e+00 -7.0151472296e-05 1.4764598004e+00 -2.5573033895e+00 1.4764598004e+00 2.5573033895e+00 
96600 5.8397305257e+00 -7.0156642178e-05 1.4764598004e+00 -2.5573033895e+00 1.4764598004e+00 2.5573033895e+00 
96700 5.8397305259e+00 -7.0161807910e-05 1.4764598004e+00 -2.5573033895e+00 1.4764598004e+00 2.5573033895e+00 
96800 5.8397305260e+00 -7.0166969302e-05 1.4764598004e+00 -2.5573033895e+00 1.4764598004e+00 2.5573033895e+00 
96900 5.8397305262e+00 -7.0172126159e-05 1.4764598004e+00 -2.5573033895e+00 1.4764598004e+00 2.5573033895e+00 
97000 5.8397305264e+00 -7.0177278294e-05 1.4764598004e+00 -2.5573033895e+00 1.4764598004e+00 2.5573033895e+00 
97100 5.8397305265e+00 -7.0182425513e-05 1.4764598004e+00 -2.5573033895e+00 1.4764598004e+00 2.5573033895e+00 
97200 5.8397305267e+00 -7.0187567626e-05 1.4764598004e+00 -2.5573033895e+00 1.4764598004e+00 2.5573033895e+00 
97300 5.8397305268e+00 -7.0192704443e-05 1.4764598004e+00 -2.5573033895e+00 1.4764598004e+00 2.5573033895e+00 
97400 5.8397305270e+00 -7.0197835772e-05 1.4764598004e+00 -2.5573033895e+00 1.4764598004e+00 2.5573033895e+00 
97500 5.8397305271e+00 -7.0202961424e-05 1.4764598004e+00 -2.5573033895e+00 1.4764598004e+00 2.5573033895e+00 
97600 5.8397305273e+00 -7.0208081210e-05 1.4764598004e+00 -2.5573033895e+00 1.4764598004e+00 2.5573033895e+00 
97700 5.8397305274e+00 -7.0213194942e-05 1.4764598004e+00 -2.5573033895e+00 1.4764598004e+00 2.5573033895e+00 
97800 5.8397305276e+00 -7.0218302431e-05 1.4764598004e+00 -2.5573033895e+00 1.4764598004e+00 2.5573033895e+00 
97900 5.8397305277e+00 -7.0223403491e-05 1.4764598004e+00 -2.5573033895e+00 1.4764598004e+00 2.5573033895e+00 
98000 5.8397305278e+00 -7.0228497936e-05 1.4764598004e+00 -2.5573033895e+00 1.4764598004e+00 2.5573033895e+00 
98100 5.8397305280e+00 -7.0233585580e-05 1.4764598004e+00 -2.5573033895e+00 1.4764598004e+00 2.5573033895e+00 
98200 5.8397305281e+00 -7.0238666241e-05 1.4764598004e+00 -2.5573033895e+00 1.4764598004e+00 2.5573033895e+00 
98300 5.8397305282e+00 -7.0243739736e-05 1.4764598004e+00 -2.5573033895e+00 1.4764598004e+00 2.5573033895e+00 
98400 5.8397305284e+00 -7.0248805883e-05 1.4764598004e+00 -2.5573033895e+00 1.4764598004e+00 2.5573033895e+00 
98500 5.8397305285e+00 -7.0253864503e-05 1.4764598004e+00 -2.5573033895e+00 1.4764598004e+00 2.5573033895e+00 
98600 5.8397305286e+00 -7.0258915417e-05 1.4764598004e+00 -2.5573033895e+00 1.4764598004e+00 2.5573033895e+00 
98700 5.8397305288e+00 -7.0263958448e-05 1.4764598004e+00 -2.5573033895e+00 1.4764598004e+00 2.5573033895e+00 
98800 5.8397305289e+00 -7.0268993420e-05 1.4764598004e+00 -2.5573033895e+00 1.4764598004e+00 2.5573033895e+00 
98900 5.8397305290e+00 -7.0274020159e-05 1.4764598004e+00 -2.5573033895e+00 1.4764598004e+00 2.5573033895e+00 
99000 5.8397305291e+00 -7.0279038494e-05 1.4764598004e+00 -2.5573033895e+00 1.4764598004e+00 2.5573033895e+00 
99100 5.8397305293e+00 -7.0284048253e-05 1.4764598004e+00 -2.5573033895e+00 1.4764598004e+00 2.5573033895e+00 
99200 5.8397305294e+00 -7.0289049267e-05 1.4764598004e+00 -2.5573033895e+00 1.4764598004e+00 2.5573033895e+00 
99300 5.8397305295e+00 -7.0294041370e-05 1.4764598004e+00 -2.5573033895e+00 1.4764598004e+00 2.5573033895e+00 
99400 5.8397305296e+00 -7.0299024396e-05 1.4764598004e+00 -2.5573033895e+00 1.4764598004e+00 2.5573033895e+00 
99500 5.8397305298e+00 -7.0303998181e-05 1.4764598004e+00 -2.5573033895e+00 1.4764598004e+00 2.5573033895e+00 
99600 5.8397305299e+00 -7.0308962566e-05 1.4764598004e+00 -2.5573033895e+00 1.4764598004e+00 2.5573033895e+00 
99700 5.8397305300e+00 -7.0313917389e-05 1.4764598004e+00 -2.5573033895e+00 1.4764598004e+00 2.5573033895e+00 
99800 5.8397305301e+00 -7.0318862493e-05 1.4764598004e+00 -2.5573033895e+00 1.4764598004e+00 2.5573033895e+00 
99900 5.8397305302e+00 -7.0323797722e-05 1.4764598004e+00 -2.5573033895e+00 1.4764598004e+00 2.5573033895e+00 
100000 5.8397305303e+00 -7.0328722926e-05 1.4764598004e+00 -2.5573033895e+00 1.4764598004e+00 2.5573033895e+00 
100100 5.8397305304e+00 -7.0333637950e-05 1.4764598004e+00 -2.5573033895e+00 1.4764598004e+00 2.5573033895e+00 
100200 5.8397305305e+00 -7.0338542646e-05 1.4764598004e+00 -2.5573033895e+00 1.4764598004e+00 2.5573033895e+00 
100300 5.8397305306e+00 -7.0343436868e-05 1.4764598004e+00 -2.5573033895e+00 1.4764598004e+00 2.5573033895e+00 
100400 5.8397305308e+00 -7.0348320471e-05 1.4764598004e+00 -2.5573033895e+00 1.4764598004e+00 2.5573033895e+00 
100500 5.8397305309e+00 -7.0353193311e-05 1.4764598004e+00 -2.5573033895e+00 1.4764598004e+00 2.5573033895e+00 
100600 5.8397305310e+00 -7.0358055250e-05 1.4764598004e+00 -2.5573033895e+00 1.4764598004e+00 2.5573033895e+00 
100700 5.8397305311e+00 -7.0362906148e-05 1.4764598004e+00 -2.5573033895e+00 1.4764598004e+00 2.5573033895e+00 
100800 5.8397305312e+00 -7.0367745870e-05 1.4764598004e+00 -2.5573033895e+00 1.4764598004e+00 2.5573033895e+00 
100900 5.8397305313e+00 -7.0372574282e-05 1.4764598004e+00 -2.5573033895e+00 1.4764598004e+00 2.5573033895e+00 
101000 5.8397305314e+00 -7.0377391253e-05 1.4764598004e+00 -2.5573033895e+00 1.4764598004e+00 2.5573033895e+00 
101100 5.8397305315e+00 -7.0382196655e-05 1.4764598004e+00 -2.5573033895e+00 1.4764598004e+00 2.5573033895e+00 
101200 5.8397305316e+00 -7.0386990359e-05 1.4764598004e+00 -2.5573033895e+00 1.4764598004e+00 2.5573033895e+00 
101300 5.8397305317e+00 -7.0391772243e-05 1.4764598004e+00 -2.5573033895e+00 1.4764598004e+00 2.5573033895e+00 
101400 5.8397305317e+00 -7.0396542184e-05 1.4764598004e+00 -2.5573033895e+00 1.4764598004e+00 2.5573033895e+00 
101500 5.8397305318e+00 -7.0401300063e-05 1.4764598004e+00 -2.5573033895e+00 1.4764598004e+00 2.5573033895e+00 
101600 5.8397305319e+00 -7.0406045762e-05 1.4764598004e+00 -2.5573033895e+00 1.4764598004e+00 2.5573033895e+00 
101700 5.8397305320e+00 -7.0410779167e-05 1.4764598004e+00 -2.5573033895e+00 1.4764598004e+00 2.5573033895e+00 
101800 5.8397305321e+00 -7.0415500165e-05 1.4764598004e+00 -2.5573033895e+00 1.4764598004e+00 2.5573033895e+00 
101900 5.8397305322e+00 -7.0420208645e-05 1.4764598004e+00 -2.5573033895e+00 1.4764598004e+00 2.5573033895e+00 
102000 5.8397305323e+00 -7.0424904499e-05 1.4764598004e+00 -2.5573033895e+00 1.4764598004e+00 2.5573033895e+00 
102100 5.8397305324e+00 -7.0429587623e-05 1.4764598004e+00 -2.5573033895e+00 1.4764598004e+00 2.5573033895e+00 
102200 5.8397305325e+00 -7.0434257913e-05 1.4764598004e+00 -2.5573033895e+00 1.4764598004e+00 2.5573033895e+00 
102300 5.8397305325e+00 -7.0438915267e-05 1.4764598004e+00 -2.5573033895e+00 1.4764598004e+00 2.5573033895e+00 
102400 5.8397305326e+00 -7.0443559587e-05 1.4764598004e+00 -2.5573033895e+00 1.4764598004e+00 2.5573033895e+00 
102500 5.8397305327e+00 -7.0448190777e-05 1.4764598004e+00 -2.5573033895e+00 1.4764598004e+00 2.5573033895e+00 
102600 5.8397305328e+00 -7.0452808743e-05 1.4764598004e+00 -2.5573033895e+00 1.4764598004e+00 2.5573033895e+00 
102700 5.8397305329e+00 -7.0457413393e-05 1.4764598004e+00 -2.5573033895e+00 1.4764598004e+00 2.5573033895e+00 
102800 5.8397305330e+00 -7.0462004637e-05 1.4764598004e+00 -2.5573033895e+00 1.4764598004e+00 2.5573033895e+00 
102900 5.8397305330e+00 -7.0466582389e-05 1.4764598004e+00 -2.5573033895e+00 1.4764598004e+00 2.5573033895e+00 
103000 5.8397305331e+00 -7.0471146564e-05 1.4764598004e+00 -2.5573033895e+00 1.4764598004e+00 2.5573033895e+00 
103100 5.8397305332e+00 -7.0475697077e-05 1.4764598004e+00 -2.5573033895e+00 1.4764598004e+00 2.5573033895e+00 
103200 5.8397305333e+00 -7.0480233850e-05 1.4764598004e+00 -2.5573033895e+00 1.4764598004e+00 2.5573033895e+00 
103300 5.8397305333e+00 -7.0484756804e-05 1.4764598004e+00 -2.5573033895e+00 1.4764598004e+00 2.5573033895e+00 
103400 5.8397305334e+00 -7.0489265864e-05 1.4764598004e+00 -2.5573033895e+00 1.4764598004e+00 2.5573033895e+00 
103500 5.8397305335e+00 -7.0493760953e-05 1.4764598004e+00 -2.5573033895e+00 1.4764598004e+00 2.5573033895e+00 
103600 5.8397305336e+00 -7.0498242003e-05 1.4764598004e+00 -2.5573033895e+00 1.4764598004e+00 2.5573033895e+00 
103700 5.8397305336e+00 -7.0502708942e-05 1.4764598004e+00 -2.5573033895e+00 1.4764598004e+00 2.5573033895e+00 
103800 5.8397305337e+00 -7.0507161703e-05 1.4764598004e+00 -2.5573033895e+00 1.4764598004e+00 2.5573033895e+00 
103900 5.8397305338e+00 -7.0511600222e-05 1.4764598004e+00 -2.5573033895e+00 1.4764598004e+00 2.5573033895e+00 
104000 5.8397305339e+00 -7.0516024434e-05 1.4764598004e+00 -2.5573033895e+00 1.4764598004e+00 2.5573033895e+00 
104100 5.8397305339e+00 -7.0520434278e-05 1.4764598004e+00 -2.5573033895e+00 1.4764598004e+00 2.5573033895e+00 
104200 5.8397305340e+00 -7.0524829696e-05 1.4764598004e+00 -2.5573033895e+00 1.4764598004e+00 2.5573033895e+00 
104300 5.8397305341e+00 -7.0529210630e-05 1.4764598004e+00 -2.5573033895e+00 1.4764598004e+00 2.5573033895e+00 
104400 5.8397305341e+00 -7.0533577024e-05 1.4764598004e+00 -2.5573033895e+00 1.4764598004e+00 2.5573033895e+00 
104500 5.8397305342e+00 -7.0537928827e-05 1.4764598004e+00 -2.5573033895e+00 1.4764598004e+00 2.5573033895e+00 
104600 5.8397305343e+00 -7.0542265987e-05 1.4764598004e+00 -2.5573033895e+00 1.4764598004e+00 2.5573033895e+00 
104700 5.8397305343e+00 -7.0546588453e-05 1.4764598004e+00 -2.5573033895e+00 1.4764598004e+00 2.5573033895e+00 
104800 5.8397305344e+00 -7.0550896178e-05 1.4764598004e+00 -2.5573033895e+00 1.4764598004e+00 2.5573033895e+00 
104900 5.8397305344e+00 -7.0555189119e-05 1.4764598004e+00 -2.5573033895e+00 1.4764598004e+00 2.5573033895e+00 
105000 5.8397305345e+00 -7.0559467231e-05 1.4764598004e+00 -2.5573033895e+00 1.4764598004e+00 2.5573033895e+00 
105100 5.8397305346e+00 -7.0563730472e-05 1.4764598004e+00 -2.5573033895e+00 1.4764598004e+00 2.5573033895e+00 
105200 5.8397305346e+00 -7.0567978801e-05 1.4764598004e+00 -2.5573033895e+00 1.4764598004e+00 2.5573033895e+00 
105300 5.8397305347e+00 -7.0572212182e-05 1.4764598004e+00 -2.5573033895e+00 1.4764598004e+00 2.5573033895e+00 
105400 5.8397305348e+00 -7.0576430577e-05 1.4764598004e+00 -2.5573033895e+00 1.4764598004e+00 2.5573033895e+00 
105500 5.8397305348e+00 -7.0580633952e-05 1.4764598004e+00 -2.5573033895e+00 1.4764598004e+00 2.5573033895e+00 
105600 5.8397305349e+00 -7.0584822273e-05 1.4764598004e+00 -2.5573033895e+00 1.4764598004e+00 2.5573033895e+00 
105700 5.8397305349e+00 -7.0588995510e-05 1.4764598004e+00 -2.5573033895e+00 1.4764598004e+00 2.5573033895e+00 
105800 5.8397305350e+00 -7.0593153633e-05 1.4764598004e+00 -2.5573033895e+00 1.4764598004e+00 2.5573033895e+00 
105900 5.8397305350e+00 -7.0597296615e-05 1.4764598004e+00 -2.5573033895e+00 1.4764598004e+00 2.5573033895e+00 
106000 5.8397305351e+00 -7.0601424428e-05 1.4764598004e+00 -2.5573033895e+00 1.4764598004e+00 2.5573033895e+00 
106100 5.8397305351e+00 -7.0605537047e-05 1.4764598004e+00 -2.5573033895e+00 1.4764598004e+00 2.5573033895e+00 
106200 5.8397305352e+00 -7.0609634451e-05 1.4764598004e+00 -2.5573033895e+00 1.4764598004e+00 2.5573033895e+00 
106300 5.8397305353e+00 -7.0613716617e-05 1.4764598004e+00 -2.5573033895e+00 1.4764598004e+00 2.5573033895e+00 
106400 5.8397305353e+00 -7.0617783525e-05 1.4764598004e+00 -2.5573033895e+00 1.4764598004e+00 2.5573033895e+00 
106500 5.8397305354e+00 -7.0621835157e-05 1.4764598004e+00 -2.5573033895e+00 1.4764598004e+00 2.5573033895e+00 
106600 5.8397305354e+00 -7.0625871495e-05 1.4764598004e+00 -2.5573033895e+00 1.4764598004e+00 2.5573033895e+00 
106700 5.8397305355e+00 -7.0629892523e-05 1.4764598004e+00 -2.5573033895e+00 1.4764598004e+00 2.5573033895e+00 
106800 5.8397305355e+00 -7.0633898228e-05 1.4764598004e+00 -2.5573033895e+00 1.4764598004e+00 2.5573033895e+00 
106900 5.8397305356e+00 -7.0637888597e-05 1.4764598004e+00 -2.5573033895e+00 1.4764598004e+00 2.5573033895e+00 
107000 5.8397305356e+00 -7.0641387425e-05 1.4764598004e+00 -2.5573033895e+00 1.4764598004e+00 2.5573033895e+00 
107000 5.8397305356e+00 -7.0641387425e-05 1.4764598004e+00 -2.5573033895e+00 1.4764598004e+00 2.5573033895e+00 
