# step Hamiltonian StressXX CellTensor1 CellTensor2 CellTensor3 CellTensor4 
0 6.9975912946e+00 1.4629462687e-01 2.8237630504e+00 -4.8909010719e+00 2.8237630504e+00 4.8909010719e+00 
100 7.0263687827e+00 1.8188461218e-01 2.8237630504e+00 -4.8909010719e+00 2.8237630504e+00 4.8909010719e+00 
200 7.0526008463e+00 2.1489506219e-01 2.8205430565e+00 -4.8853238788e+00 2.8205430565e+00 4.8853238788e+00 
300 7.0767950757e+00 2.4547350638e-01 2.8167344526e+00 -4.8787271834e+00 2.8167344526e+00 4.8787271834e+00 
400 7.0991455246e+00 2.7392965848e-01 2.8123781648e+00 -4.8711818716e+00 2.8123781648e+00 4.8711818716e+00 
500 7.1198057018e+00 3.0052980101e-01 2.8075095013e+00 -4.8627490989e+00 2.8075095013e+00 4.8627490989e+00 
600 7.1388955326e+00 3.2550101432e-01 2.8021589561e+00 -4.8534816828e+00 2.8021589561e+00 4.8534816828e+00 
700 7.1565075474e+00 3.4903532836e-01 2.7963529268e+00 -4.8434253451e+00 2.7963529268e+00 4.8434253451e+00 
800 7.1727122879e+00 3.7129368351e-01 2.7901143508e+00 -4.8326198144e+00 2.7901143508e+00 4.8326198144e+00 
900 7.1875629670e+00 3.9240962654e-01 2.7834632657e+00 -4.8210997972e+00 2.7834632657e+00 4.8210997972e+00 
1000 7.2010994467e+00 4.1249270556e-01 2.7764173028e+00 -4.8088958314e+00 2.7764173028e+00 4.8088958314e+00 
1100 7.2133516112e+00 4.3163155955e-01 2.7689921173e+00 -4.7960350329e+00 2.7689921173e+00 4.7960350329e+00 
1200 7.2243422153e+00 4.4989672021e-01 2.7612017647e+00 -4.7825417463e+00 2.7612017647e+00 4.7825417463e+00 
1300 7.2340892855e+00 4.6734315778e-01 2.7530590270e+00 -4.7684381110e+00 2.7530590270e+00 4.7684381110e+00 
1400 7.2426081390e+00 4.8401260704e-01 2.7445756949e+00 -4.7537445488e+00 2.7445756949e+00 4.7537445488e+00 
1500 7.2499130746e+00 4.9993570678e-01 2.7357628098e+00 -4.7384801841e+00 2.7357628098e+00 4.7384801841e+00 
1600 7.2560187762e+00 5.1513397652e-01 2.7266308689e+00 -4.7226631984e+00 2.7266308689e+00 4.7226631984e+00 
1700 7.2609414569e+00 5.2962164046e-01 2.7171899962e+00 -4.7063111272e+00 2.7171899962e+00 4.7063111272e+00 
1800 7.2646997609e+00 5.4340729295e-01 2.7074500828e+00 -4.6894411025e+00 2.7074500828e+00 4.6894411025e+00 
1900 7.2673154349e+00 5.5649538624e-01 2.6974208980e+00 -4.6720700448e+00 2.6974208980e+00 4.6720700448e+00 
2000 7.2688137772e+00 5.6888751309e-01 2.6871121742e+00 -4.6542148114e+00 2.6871121742e+00 4.6542148114e+00 
2100 7.2692238772e+00 5.8058345638e-01 2.6765336704e+00 -4.6358923053e+00 2.6765336704e+00 4.6358923053e+00 
2200 7.2685786613e+00 5.9158198785e-01 2.6656952161e+00 -4.6171195518e+00 2.6656952161e+00 4.6171195518e+00 
2300 7.2669147734e+00 6.0188141500e-01 2.6546067419e+00 -4.5979137511e+00 2.6546067419e+00 4.5979137511e+00 
2400 7.2642723234e+00 6.1147989827e-01 2.6432782996e+00 -4.5782923134e+00 2.6432782996e+00 4.5782923134e+00 
2500 7.2606945458e+00 6.2037558200e-01 2.6317200770e+00 -4.5582728847e+00 2.6317200770e+00 4.5582728847e+00 
2600 7.2562274084e+00 6.2856659984e-01 2.6199424105e+00 -4.5378733680e+00 2.6199424105e+00 4.5378733680e+00 
2700 7.2509192134e+00 6.3605102196e-01 2.6079557973e+00 -4.5171119447e+00 2.6079557973e+00 4.5171119447e+00 
2800 7.2448202182e+00 6.4282680756e-01 2.5957709087e+00 -4.4960070987e+00 2.5957709087e+00 4.4960070987e+00 
2900 7.2379822985e+00 6.4889181242e-01 2.5833986055e+00 -4.4745776409e+00 2.5833986055e+00 4.4745776409e+00 
3000 7.2304586593e+00 6.5424388099e-01 2.5708499517e+00 -4.4528427350e+00 2.5708499517e+00 4.4528427350e+00 
3100 7.2223035909e+00 6.5888103013e-01 2.5581362282e+00 -4.4308219200e+00 2.5581362282e+00 4.4308219200e+00 
3200 7.2135722595e+00 6.6280171201e-01 2.5452689422e+00 -4.4085351268e+00 2.5452689422e+00 4.4085351268e+00 
3300 7.2043205144e+00 6.6600512891e-01 2.5322598313e+00 -4.3860026858e+00 2.5322598313e+00 4.3860026858e+00 
3400 7.1946046975e+00 6.6849156592e-01 2.5191208622e+00 -4.3632453237e+00 2.5191208622e+00 4.3632453237e+00 
3500 7.1844814396e+00 6.7026270664e-01 2.5058642209e+00 -4.3402841476e+00 2.5058642209e+00 4.3402841476e+00 
3600 7.1740074358e+00 6.7132190282e-01 2.4925022977e+00 -4.3171406176e+00 2.4925022977e+00 4.3171406176e+00 
3700 7.1632391938e+00 6.7167437715e-01 2.4790476641e+00 -4.2938365087e+00 2.4790476641e+00 4.2938365087e+00 
3800 7.1522327593e+00 6.7132734895e-01 2.4655130458e+00 -4.2703938621e+00 2.4655130458e+00 4.2703938621e+00 
3900 7.1410434217e+00 6.7029008184e-01 2.4519112909e+00 -4.2468349315e+00 2.4519112909e+00 4.2468349315e+00 
4000 7.1297254092e+00 6.6857386005e-01 2.4382553358e+00 -4.2231821234e+00 2.4382553358e+00 4.2231821234e+00 
4100 7.1183315828e+00 6.6619190528e-01 2.4245581697e+00 -4.1994579359e+00 2.4245581697e+00 4.1994579359e+00 
4200 7.1069131398e+00 6.6315924853e-01 2.4108327994e+00 -4.1756848971e+00 2.4108327994e+00 4.1756848971e+00 
4300 7.0955193330e+00 6.5949257138e-01 2.3970922140e+00 -4.1518855050e+00 2.3970922140e+00 4.1518855050e+00 
4400 7.0841972151e+00 6.5521003025e-01 2.3833493516e+00 -4.1280821692e+00 2.3833493516e+00 4.1280821692e+00 
4500 7.0729914118e+00 6.5033107462e-01 2.3696170682e+00 -4.1042971566e+00 2.3696170682e+00 4.1042971566e+00 
4600 7.0619439275e+00 6.4487626765e-01 2.3559081074e+00 -4.0805525400e+00 2.3559081074e+00 4.0805525400e+00 
4700 7.0510939845e+00 6.3886711506e-01 2.3422350734e+00 -4.0568701504e+00 2.3422350734e+00 4.0568701504e+00 
4800 7.0404778971e+00 6.3232590607e-01 2.3286104054e+00 -4.0332715333e+00 2.3286104054e+00 4.0332715333e+00 
4900 7.0301289782e+00 6.2527556800e-01 2.3150463540e+00 -4.0097779071e+00 2.3150463540e+00 4.0097779071e+00 
5000 7.0200774778e+00 6.1773953534e-01 2.3015549592e+00 -3.9864101257e+00 2.3015549592e+00 3.9864101257e+00 
5100 7.0103505512e+00 6.0974163289e-01 2.2881480299e+00 -3.9631886431e+00 2.2881480299e+00 3.9631886431e+00 
5200 7.0009722543e+00 6.0130597200e-01 2.2748371251e+00 -3.9401334796e+00 2.2748371251e+00 3.9401334796e+00 
5300 6.9919635634e+00 5.9245685901e-01 2.2616335354e+00 -3.9172641914e+00 2.2616335354e+00 3.9172641914e+00 
5400 6.9833424174e+00 5.8321871427e-01 2.2485482662e+00 -3.8945998403e+00 2.2485482662e+00 3.8945998403e+00 
5500 6.9751237797e+00 5.7361600068e-01 2.2355920215e+00 -3.8721589662e+00 2.2355920215e+00 3.8721589662e+00 
5600 6.9673197176e+00 5.6367316037e-01 2.2227751881e+00 -3.8499595596e+00 2.2227751881e+00 3.8499595596e+00 
5700 6.9599394959e+00 5.5341455827e-01 2.2101078209e+00 -3.8280190360e+00 2.2101078209e+00 3.8280190360e+00 
5800 6.9529896851e+00 5.4286443147e-01 2.1975996286e+00 -3.8063542113e+00 2.1975996286e+00 3.8063542113e+00 
5900 6.9464742788e+00 5.3204684344e-01 2.1852599595e+00 -3.7849812776e+00 2.1852599595e+00 3.7849812776e+00 
6000 6.9403948212e+00 5.2098564198e-01 2.1730977888e+00 -3.7639157800e+00 2.1730977888e+00 3.7639157800e+00 
6100 6.9347505419e+00 5.0970442021e-01 2.1611217052e+00 -3.7431725948e+00 2.1611217052e+00 3.7431725948e+00 
6200 6.9295384961e+00 4.9822647991e-01 2.1493398994e+00 -3.7227659084e+00 2.1493398994e+00 3.7227659084e+00 
6300 6.9247537098e+00 4.8657479646e-01 2.1377601517e+00 -3.7027091971e+00 2.1377601517e+00 3.7027091971e+00 
6400 6.9203893271e+00 4.7477198491e-01 2.1263898216e+00 -3.6830152077e+00 2.1263898216e+00 3.6830152077e+00 
6500 6.9164367603e+00 4.6284026693e-01 2.1152358377e+00 -3.6636959409e+00 2.1152358377e+00 3.6636959409e+00 
6600 6.9128858402e+00 4.5080143811e-01 2.1043046877e+00 -3.6447626338e+00 2.1043046877e+00 3.6447626338e+00 
6700 6.9097249660e+00 4.3867683559e-01 2.0936024107e+00 -3.6262257462e+00 2.0936024107e+00 3.6262257462e+00 
6800 6.9069412552e+00 4.2648730598e-01 2.0831345891e+00 -3.6080949473e+00 2.0831345891e+00 3.6080949473e+00 
6900 6.9045206900e+00 4.1425317336e-01 2.0729063425e+00 -3.5903791046e+00 2.0729063425e+00 3.5903791046e+00 
7000 6.9024482627e+00 4.0199420779e-01 2.0629223228e+00 -3.5730862752e+00 2.0629223228e+00 3.5730862752e+00 
7100 6.9007081166e+00 3.8972959413e-01 2.0531867098e+00 -3.5562236989e+00 2.0531867098e+00 3.5562236989e+00 
7200 6.8992836844e+00 3.7747790182e-01 2.0437032093e+00 -3.5397977941e+00 2.0437032093e+00 3.5397977941e+00 
7300 6.8981578213e+00 3.6525705552e-01 2.0344750514e+00 -3.5238141557e+00 2.0344750514e+00 3.5238141557e+00 
7400 6.8973129337e+00 3.5308430724e-01 2.0255049915e+00 -3.5082775562e+00 2.0255049915e+00 3.5082775562e+00 
7500 6.8967311034e+00 3.4097621015e-01 2.0167953119e+00 -3.4931919487e+00 2.0167953119e+00 3.4931919487e+00 
7600 6.8963942053e+00 3.2894859438e-01 2.0083478258e+00 -3.4785604736e+00 2.0083478258e+00 3.4785604736e+00 
7700 6.8962840204e+00 3.1701654533e-01 2.0001638820e+00 -3.4643854670e+00 2.0001638820e+00 3.4643854670e+00 
7800 6.8963823416e+00 3.0519438466e-01 1.9922443716e+00 -3.4506684726e+00 1.9922443716e+00 3.4506684726e+00 
7900 6.8966710745e+00 2.9349565428e-01 1.9845897366e+00 -3.4374102560e+00 1.9845897366e+00 3.4374102560e+00 
8000 6.8971323304e+00 2.8193310364e-01 1.9771999796e+00 -3.4246108215e+00 1.9771999796e+00 3.4246108215e+00 
8100 6.8977485135e+00 2.7051868046e-01 1.9700746748e+00 -3.4122694314e+00 1.9700746748e+00 3.4122694314e+00 
8200 6.8985024011e+00 2.5926352512e-01 1.9632129804e+00 -3.4003846282e+00 1.9632129804e+00 3.4003846282e+00 
8300 6.8993772169e+00 2.4817796869e-01 1.9566136531e+00 -3.3889542580e+00 1.9566136531e+00 3.3889542580e+00 
8400 6.9003566968e+00 2.3727153477e-01 1.9502750624e+00 -3.3779754968e+00 1.9502750624e+00 3.3779754968e+00 
8500 6.9014251488e+00 2.2655294501e-01 1.9441952071e+00 -3.3674448785e+00 1.9441952071e+00 3.3674448785e+00 
8600 6.9025675051e+00 2.1603012823e-01 1.9383717320e+00 -3.3573583237e+00 1.9383717320e+00 3.3573583237e+00 
8700 6.9037693678e+00 2.0571023306e-01 1.9328019458e+00 -3.3477111710e+00 1.9328019458e+00 3.3477111710e+00 
8800 6.9050170474e+00 1.9559964391e-01 1.9274828396e+00 -3.3384982088e+00 1.9274828396e+00 3.3384982088e+00 
8900 6.9062975956e+00 1.8570399997e-01 1.9224111057e+00 -3.3297137081e+00 1.9224111057e+00 3.3297137081e+00 
9000 6.9075988302e+00 1.7602821705e-01 1.9175831570e+00 -3.3213514557e+00 1.9175831570e+00 3.3213514557e+00 
9100 6.9089093555e+00 1.6657651197e-01 1.9129951467e+00 -3.3134047888e+00 1.9129951467e+00 3.3134047888e+00 
9200 6.9102185755e+00 1.5735242914e-01 1.9086429877e+00 -3.3058666282e+00 1.9086429877e+00 3.3058666282e+00 
9300 6.9115167016e+00 1.4835886906e-01 1.9045223725e+00 -3.2987295132e+00 1.9045223725e+00 3.2987295132e+00 
9400 6.9127947560e+00 1.3959811837e-01 1.9006287926e+00 -3.2919856352e+00 1.9006287926e+00 3.2919856352e+00 
9500 6.9140445684e+00 1.3107188112e-01 1.8969575582e+00 -3.2856268707e+00 1.8969575582e+00 3.2856268707e+00 
9600 6.9152587692e+00 1.2278131097e-01 1.8935038167e+00 -3.2796448148e+00 1.8935038167e+00 3.2796448148e+00 
9700 6.9164307783e+00 1.1472704397e-01 1.8902625712e+00 -3.2740308130e+00 1.8902625712e+00 3.2740308130e+00 
9800 6.9175547889e+00 1.0690923164e-01 1.8872286992e+00 -3.2687759924e+00 1.8872286992e+00 3.2687759924e+00 
9900 6.9186257492e+00 9.9327573985e-02 1.8843969690e+00 -3.2638712919e+00 1.8843969690e+00 3.2638712919e+00 
10000 6.9196393393e+00 9.1981352395e-02 1.8817620574e+00 -3.2593074912e+00 1.8817620574e+00 3.2593074912e+00 
10100 6.9205919469e+00 8.4869461916e-02 1.8793185653e+00 -3.2550752386e+00 1.8793185653e+00 3.2550752386e+00 
10200 6.9214806387e+00 7.7990442895e-02 1.8770610330e+00 -3.2511650780e+00 1.8770610330e+00 3.2511650780e+00 
10300 6.9223031312e+00 7.1342511725e-02 1.8749839551e+00 -3.2475674735e+00 1.8749839551e+00 3.2475674735e+00 
10400 6.9230577586e+00 6.4923590542e-02 1.8730817939e+00 -3.2442728337e+00 1.8730817939e+00 3.2442728337e+00 
10500 6.9237434400e+00 5.8731335747e-02 1.8713489926e+00 -3.2412715339e+00 1.8713489926e+00 3.2412715339e+00 
10600 6.9243596448e+00 5.2763165245e-02 1.8697799875e+00 -3.2385539374e+00 1.8697799875e+00 3.2385539374e+00 
10700 6.9249063577e+00 4.7016284322e-02 1.8683692193e+00 -3.2361104151e+00 1.8683692193e+00 3.2361104151e+00 
10800 6.9253840429e+00 4.1487710092e-02 1.8671111435e+00 -3.2339313639e+00 1.8671111435e+00 3.2339313639e+00 
10900 6.9257936080e+00 3.6174294479e-02 1.8660002403e+00 -3.2320072231e+00 1.8660002403e+00 3.2320072231e+00 
11000 6.9261363676e+00 3.1072745716e-02 1.8650310239e+00 -3.2303284911e+00 1.8650310239e+00 3.2303284911e+00 
11100 6.9264140078e+00 2.6179648344e-02 1.8641980503e+00 -3.2288857385e+00 1.8641980503e+00 3.2288857385e+00 
11200 6.9266285500e+00 2.1491481749e-02 1.8634959252e+00 -3.2276696222e+00 1.8634959252e+00 3.2276696222e+00 
11300 6.9267823158e+00 1.7004637227e-02 1.8629193108e+00 -3.2266708967e+00 1.8629193108e+00 3.2266708967e+00 
11400 6.9268778928e+00 1.2715433645e-02 1.8624629319e+00 -3.2258804252e+00 1.8624629319e+00 3.2258804252e+00 
11500 6.9269181007e+00 8.6201317192e-03 1.8621215816e+00 -3.2252891891e+00 1.8621215816e+00 3.2252891891e+00 
11600 6.9269059586e+00 4.7149469762e-03 1.8618901264e+00 -3.2248882970e+00 1.8618901264e+00 3.2248882970e+00 
11700 6.9268446536e+00 9.9606145296e-04 1.8617635106e+00 -3.2246689921e+00 1.8617635106e+00 3.2246689921e+00 
11800 6.9267375103e+00 -2.5403658051e-03 1.8617367602e+00 -3.2246226590e+00 1.8617367602e+00 3.2246226590e+00 
11900 6.9265879615e+00 -5.8981893783e-03 1.8618049863e+00 -3.2247408301e+00 1.8618049863e+00 3.2247408301e+00 
12000 6.9263995206e+00 -9.0812691716e-03 1.8619633883e+00 -3.2250151904e+00 1.8619633883e+00 3.2250151904e+00 
12100 6.9261757548e+00 -1.2093463110e-02 1.8622072564e+00 -3.2254375823e+00 1.8622072564e+00 3.2254375823e+00 
12200 6.9259202603e+00 -1.4938620759e-02 1.8625319736e+00 -3.2260000089e+00 1.8625319736e+00 3.2260000089e+00 
12300 6.9256366388e+00 -1.7620577809e-02 1.8629330179e+00 -3.2266946381e+00 1.8629330179e+00 3.2266946381e+00 
12400 6.9253284750e+00 -2.0143151341e-02 1.8634059636e+00 -3.2275138040e+00 1.8634059636e+00 3.2275138040e+00 
12500 6.9249993164e+00 -2.2510135829e-02 1.8639464825e+00 -3.2284500103e+00 1.8639464825e+00 3.2284500103e+00 
12600 6.9246526538e+00 -2.4725299801e-02 1.8645503451e+00 -3.2294959310e+00 1.8645503451e+00 3.2294959310e+00 
12700 6.9242919035e+00 -2.6792383099e-02 1.8652134209e+00 -3.2306444120e+00 1.8652134209e+00 3.2306444120e+00 
12800 6.9239203917e+00 -2.8715094694e-02 1.8659316793e+00 -3.2318884719e+00 1.8659316793e+00 3.2318884719e+00 
12900 6.9235413391e+00 -3.0497110981e-02 1.8667011894e+00 -3.2332213026e+00 1.8667011894e+00 3.2332213026e+00 
13000 6.9231578479e+00 -3.2142074524e-02 1.8675181208e+00 -3.2346362692e+00 1.8675181208e+00 3.2346362692e+00 
13100 6.9227728897e+00 -3.3653593181e-02 1.8683787427e+00 -3.2361269102e+00 1.8683787427e+00 3.2361269102e+00 
13200 6.9223892949e+00 -3.5035239583e-02 1.8692794245e+00 -3.2376869368e+00 1.8692794245e+00 3.2376869368e+00 
13300 6.9220097439e+00 -3.6290550916e-02 1.8702166350e+00 -3.2393102330e+00 1.8702166350e+00 3.2393102330e+00 
13400 6.9216367583e+00 -3.7423028956e-02 1.8711869421e+00 -3.2409908541e+00 1.8711869421e+00 3.2409908541e+00 
13500 6.9212726952e+00 -3.8436140346e-02 1.8721870121e+00 -3.2427230262e+00 1.8721870121e+00 3.2427230262e+00 
13600 6.9209197409e+00 -3.9333317056e-02 1.8732136096e+00 -3.2445011453e+00 1.8732136096e+00 3.2445011453e+00 
13700 6.9205799072e+00 -4.0117957005e-02 1.8742635964e+00 -3.2463197757e+00 1.8742635964e+00 3.2463197757e+00 
13800 6.9202550277e+00 -4.0793424820e-02 1.8753339307e+00 -3.2481736491e+00 1.8753339307e+00 3.2481736491e+00 
13900 6.9199467561e+00 -4.1363052693e-02 1.8764216667e+00 -3.2500576632e+00 1.8764216667e+00 3.2500576632e+00 
14000 6.9196565648e+00 -4.1830141327e-02 1.8775239536e+00 -3.2519668800e+00 1.8775239536e+00 3.2519668800e+00 
14100 6.9193857450e+00 -4.2197960929e-02 1.8786380346e+00 -3.2538965249e+00 1.8786380346e+00 3.2538965249e+00 
14200 6.9191354076e+00 -4.2469752248e-02 1.8797612463e+00 -3.2558419846e+00 1.8797612463e+00 3.2558419846e+00 
14300 6.9189064845e+00 -4.2648727620e-02 1.8808910175e+00 -3.2577988058e+00 1.8808910175e+00 3.2577988058e+00 
14400 6.9186997317e+00 -4.2738072020e-02 1.8820248686e+00 -3.2597626936e+00 1.8820248686e+00 3.2597626936e+00 
14500 6.9185157321e+00 -4.2740944089e-02 1.8831604107e+00 -3.2617295101e+00 1.8831604107e+00 3.2617295101e+00 
14600 6.9183548999e+00 -4.2660477125e-02 1.8842953441e+00 -3.2636952725e+00 1.8842953441e+00 3.2636952725e+00 
14700 6.9182174853e+00 -4.2499780031e-02 1.8854274582e+00 -3.2656561516e+00 1.8854274582e+00 3.2656561516e+00 
14800 6.9181035797e+00 -4.2261938193e-02 1.8865546300e+00 -3.2676084703e+00 1.8865546300e+00 3.2676084703e+00 
14900 6.9180131220e+00 -4.1950014288e-02 1.8876748233e+00 -3.2695487021e+00 1.8876748233e+00 3.2695487021e+00 
15000 6.9179459048e+00 -4.1567049005e-02 1.8887860880e+00 -3.2714734690e+00 1.8887860880e+00 3.2714734690e+00 
15100 6.9179015815e+00 -4.1116061664e-02 1.8898865589e+00 -3.2733795405e+00 1.8898865589e+00 3.2733795405e+00 
15200 6.9178796739e+00 -4.0600050736e-02 1.8909744549e+00 -3.2752638318e+00 1.8909744549e+00 3.2752638318e+00 
15300 6.9178795800e+00 -4.0021994240e-02 1.8920480784e+00 -3.2771234021e+00 1.8920480784e+00 3.2771234021e+00 
15400 6.9179005821e+00 -3.9384850022e-02 1.8931058137e+00 -3.2789554534e+00 1.8931058137e+00 3.2789554534e+00 
15500 6.9179418553e+00 -3.8691555898e-02 1.8941461268e+00 -3.2807573285e+00 1.8941461268e+00 3.2807573285e+00 
15600 6.9180024767e+00 -3.7945029664e-02 1.8951675641e+00 -3.2825265099e+00 1.8951675641e+00 3.2825265099e+00 
15700 6.9180814338e+00 -3.7148168964e-02 1.8961687518e+00 -3.2842606178e+00 1.8961687518e+00 3.2842606178e+00 
15800 6.9181776338e+00 -3.6303851006e-02 1.8971483947e+00 -3.2859574091e+00 1.8971483947e+00 3.2859574091e+00 
15900 6.9182899134e+00 -3.5414932134e-02 1.8981052756e+00 -3.2876147754e+00 1.8981052756e+00 3.2876147754e+00 
16000 6.9184170475e+00 -3.4484247240e-02 1.8990382542e+00 -3.2892307418e+00 1.8990382542e+00 3.2892307418e+00 
16100 6.9185577588e+00 -3.3514609028e-02 1.8999462663e+00 -3.2908034648e+00 1.8999462663e+00 3.2908034648e+00 
16200 6.9187107275e+00 -3.2508807119e-02 1.9008283228e+00 -3.2923312316e+00 1.9008283228e+00 3.2923312316e+00 
16300 6.9188746000e+00 -3.1469606999e-02 1.9016835090e+00 -3.2938124576e+00 1.9016835090e+00 3.2938124576e+00 
16400 6.9190479987e+00 -3.0399748821e-02 1.9025109834e+00 -3.2952456852e+00 1.9025109834e+00 3.2952456852e+00 
16500 6.9192295309e+00 -2.9301946047e-02 1.9033099769e+00 -3.2966295825e+00 1.9033099769e+00 3.2966295825e+00 
16600 6.9194177976e+00 -2.8178883954e-02 1.9040797916e+00 -3.2979629407e+00 1.9040797916e+00 3.2979629407e+00 
16700 6.9196114022e+00 -2.7033217987e-02 1.9048198002e+00 -3.2992446731e+00 1.9048198002e+00 3.2992446731e+00 
16800 6.9198089590e+00 -2.5867571987e-02 1.9055294446e+00 -3.3004738134e+00 1.9055294446e+00 3.3004738134e+00 
16900 6.9200091014e+00 -2.4684536285e-02 1.9062082351e+00 -3.3016495131e+00 1.9062082351e+00 3.3016495131e+00 
17000 6.9202104895e+00 -2.3486665681e-02 1.9068557492e+00 -3.3027710404e+00 1.9068557492e+00 3.3027710404e+00 
17100 6.9204118175e+00 -2.2276477310e-02 1.9074716304e+00 -3.3038377778e+00 1.9074716304e+00 3.3038377778e+00 
17200 6.9206118212e+00 -2.1056448413e-02 1.9080555870e+00 -3.3048492203e+00 1.9080555870e+00 3.3048492203e+00 
17300 6.9208092839e+00 -1.9829014020e-02 1.9086073912e+00 -3.3058049733e+00 1.9086073912e+00 3.3058049733e+00 
17400 6.9210030430e+00 -1.8596564560e-02 1.9091268776e+00 -3.3067047502e+00 1.9091268776e+00 3.3067047502e+00 
17500 6.9211919954e+00 -1.7361443414e-02 1.9096139420e+00 -3.3075483705e+00 1.9096139420e+00 3.3075483705e+00 
17600 6.9213751028e+00 -1.6125944419e-02 1.9100685400e+00 -3.3083357572e+00 1.9100685400e+00 3.3083357572e+00 
17700 6.9215513965e+00 -1.4892309353e-02 1.9104906855e+00 -3.3090669348e+00 1.9104906855e+00 3.3090669348e+00 
17800 6.9217199808e+00 -1.3662725392e-02 1.9108804497e+00 -3.3097420261e+00 1.9108804497e+00 3.3097420261e+00 
17900 6.9218800372e+00 -1.2439322588e-02 1.9112379590e+00 -3.3103612504e+00 1.9112379590e+00 3.3103612504e+00 
18000 6.9220308271e+00 -1.1224171360e-02 1.9115633940e+00 -3.3109249204e+00 1.9115633940e+00 3.3109249204e+00 
18100 6.9221716939e+00 -1.0019280020e-02 1.9118569877e+00 -3.3114334395e+00 1.9118569877e+00 3.3114334395e+00 
18200 6.9223020651e+00 -8.8265923683e-03 1.9121190238e+00 -3.3118872993e+00 1.9121190238e+00 3.3118872993e+00 
18300 6.9224214535e+00 -7.6479853458e-03 1.9123498350e+00 -3.3122870760e+00 1.9123498350e+00 3.3122870760e+00 
18400 6.9225294576e+00 -6.4852667910e-03 1.9125498015e+00 -3.3126334282e+00 1.9125498015e+00 3.3126334282e+00 
18500 6.9226257617e+00 -5.3401732958e-03 1.9127193490e+00 -3.3129270931e+00 1.9127193490e+00 3.3129270931e+00 
18600 6.9227101356e+00 -4.2143681876e-03 1.9128589471e+00 -3.3131688841e+00 1.9128589471e+00 3.3131688841e+00 
18700 6.9227824331e+00 -3.1094396485e-03 1.9129691070e+00 -3.3133596867e+00 1.9129691070e+00 3.3133596867e+00 
18800 6.9228425911e+00 -2.0268989876e-03 1.9130503802e+00 -3.3135004560e+00 1.9130503802e+00 3.3135004560e+00 
18900 6.9228906267e+00 -9.6817907924e-04 1.9131033560e+00 -3.3135922128e+00 1.9131033560e+00 3.3135922128e+00 
19000 6.9229266352e+00 6.5367021348e-05 1.9131286600e+00 -3.3136360405e+00 1.9131286600e+00 3.3136360405e+00 
19100 6.9229507907e+00 1.0741565028e-03 1.9131286600e+00 -3.3136360405e+00 1.9131286600e+00 3.3136360405e+00 
19200 6.9229633310e+00 2.0535875332e-03 1.9131005868e+00 -3.3135874163e+00 1.9131005868e+00 3.3135874163e+00 
19300 6.9229645657e+00 3.0042765602e-03 1.9130469153e+00 -3.3134944546e+00 1.9130469153e+00 3.3134944546e+00 
19400 6.9229548680e+00 3.9251996736e-03 1.9129683951e+00 -3.3133584536e+00 1.9129683951e+00 3.3133584536e+00 
19500 6.9229346700e+00 4.8154167139e-03 1.9128658016e+00 -3.3131807564e+00 1.9128658016e+00 3.3131807564e+00 
19600 6.9229044582e+00 5.6740714163e-03 1.9127399338e+00 -3.3129627470e+00 1.9127399338e+00 3.3129627470e+00 
19700 6.9228647682e+00 6.5003913338e-03 1.9125916126e+00 -3.3127058471e+00 1.9125916126e+00 3.3127058471e+00 
19800 6.9228161798e+00 7.2936875404e-03 1.9124216783e+00 -3.3124115124e+00 1.9124216783e+00 3.3124115124e+00 
19900 6.9227593115e+00 8.0533541156e-03 1.9122309891e+00 -3.3120812289e+00 1.9122309891e+00 3.3120812289e+00 
20000 6.9226948150e+00 8.7788674152e-03 1.9120204181e+00 -3.3117165093e+00 1.9120204181e+00 3.3117165093e+00 
20100 6.9226233698e+00 9.4697851315e-03 1.9117908523e+00 -3.3113188896e+00 1.9117908523e+00 3.3113188896e+00 
20200 6.9225456778e+00 1.0125745151e-02 1.9115431897e+00 -3.3108899254e+00 1.9115431897e+00 3.3108899254e+00 
20300 6.9224624572e+00 1.0746464218e-02 1.9112783379e+00 -3.3104311887e+00 1.9112783379e+00 3.3104311887e+00 
20400 6.9223744380e+00 1.1331736410e-02 1.9109972119e+00 -3.3099442642e+00 1.9109972119e+00 3.3099442642e+00 
20500 6.9222823556e+00 1.1881431441e-02 1.9107007321e+00 -3.3094307460e+00 1.9107007321e+00 3.3094307460e+00 
20600 6.9221869466e+00 1.2395492795e-02 1.9103898223e+00 -3.3088922346e+00 1.9103898223e+00 3.3088922346e+00 
20700 6.9220889428e+00 1.2873935711e-02 1.9100654084e+00 -3.3083303331e+00 1.9100654084e+00 3.3083303331e+00 
20800 6.9219890672e+00 1.3316845028e-02 1.9097284158e+00 -3.3077466449e+00 1.9097284158e+00 3.3077466449e+00 
20900 6.9218880290e+00 1.3724372897e-02 1.9093797684e+00 -3.3071427697e+00 1.9093797684e+00 3.3071427697e+00 
21000 6.9217865190e+00 1.4096736391e-02 1.9090203862e+00 -3.3065203015e+00 1.9090203862e+00 3.3065203015e+00 
21100 6.9216852062e+00 1.4434215000e-02 1.9086511842e+00 -3.3058808249e+00 1.9086511842e+00 3.3058808249e+00 
21200 6.9215847335e+00 1.4737148051e-02 1.9082730706e+00 -3.3052259130e+00 1.9082730706e+00 3.3052259130e+00 
21300 6.9214857148e+00 1.5005932056e-02 1.9078869453e+00 -3.3045571243e+00 1.9078869453e+00 3.3045571243e+00 
21400 6.9213887311e+00 1.5241017991e-02 1.9074936983e+00 -3.3038760006e+00 1.9074936983e+00 3.3038760006e+00 
21500 6.9212943288e+00 1.5442908539e-02 1.9070942085e+00 -3.3031840639e+00 1.9070942085e+00 3.3031840639e+00 
21600 6.9212030165e+00 1.5612155298e-02 1.9066893422e+00 -3.3024828150e+00 1.9066893422e+00 3.3024828150e+00 
21700 6.9211152633e+00 1.5749355964e-02 1.9062799521e+00 -3.3017737304e+00 1.9062799521e+00 3.3017737304e+00 
21800 6.9210314973e+00 1.5855151511e-02 1.9058668756e+00 -3.3010582610e+00 1.9058668756e+00 3.3010582610e+00 
21900 6.9209521041e+00 1.5930223370e-02 1.9054509343e+00 -3.3003378296e+00 1.9054509343e+00 3.3003378296e+00 
22000 6.9208774257e+00 1.5975290623e-02 1.9050329325e+00 -3.2996138291e+00 1.9050329325e+00 3.2996138291e+00 
22100 6.9208077605e+00 1.5991107216e-02 1.9046136561e+00 -3.2988876212e+00 1.9046136561e+00 3.2988876212e+00 
22200 6.9207433624e+00 1.5978459206e-02 1.9041938723e+00 -3.2981605343e+00 1.9041938723e+00 3.2981605343e+00 
22300 6.9206844411e+00 1.5938162045e-02 1.9037743281e+00 -3.2974338623e+00 1.9037743281e+00 3.2974338623e+00 
22400 6.9206311630e+00 1.5871057917e-02 1.9033557496e+00 -3.2967088632e+00 1.9033557496e+00 3.2967088632e+00 
22500 6.9205836509e+00 1.5778013117e-02 1.9029388418e+00 -3.2959867577e+00 1.9029388418e+00 3.2959867577e+00 
22600 6.9205419858e+00 1.5659915498e-02 1.9025242872e+00 -3.2952687281e+00 1.9025242872e+00 3.2952687281e+00 
22700 6.9205062079e+00 1.5517671976e-02 1.9021127458e+00 -3.2945559174e+00 1.9021127458e+00 3.2945559174e+00 
22800 6.9204763177e+00 1.5352206107e-02 1.9017048542e+00 -3.2938494284e+00 1.9017048542e+00 3.2938494284e+00 
22900 6.9204522781e+00 1.5164455733e-02 1.9013012252e+00 -3.2931503226e+00 1.9013012252e+00 3.2931503226e+00 
23000 6.9204340162e+00 1.4955370697e-02 1.9009024476e+00 -3.2924596196e+00 1.9009024476e+00 3.2924596196e+00 
23100 6.9204214252e+00 1.4725910643e-02 1.9005090857e+00 -3.2917782966e+00 1.9005090857e+00 3.2917782966e+00 
23200 6.9204143665e+00 1.4477042887e-02 1.9001216787e+00 -3.2911072880e+00 1.9001216787e+00 3.2911072880e+00 
23300 6.9204126724e+00 1.4209740365e-02 1.8997407410e+00 -3.2904474846e+00 1.8997407410e+00 3.2904474846e+00 
23400 6.9204161479e+00 1.3924979667e-02 1.8993667617e+00 -3.2897997335e+00 1.8993667617e+00 3.2897997335e+00 
23500 6.9204245739e+00 1.3623739142e-02 1.8990002045e+00 -3.2891648378e+00 1.8990002045e+00 3.2891648378e+00 
23600 6.9204377091e+00 1.3306997086e-02 1.8986415076e+00 -3.2885435565e+00 1.8986415076e+00 3.2885435565e+00 
23700 6.9204552928e+00 1.2975730008e-02 1.8982910837e+00 -3.2879366045e+00 1.8982910837e+00 3.2879366045e+00 
23800 6.9204770477e+00 1.2630910969e-02 1.8979493199e+00 -3.2873446523e+00 1.8979493199e+00 3.2873446523e+00 
23900 6.9205026822e+00 1.2273508001e-02 1.8976165781e+00 -3.2867683266e+00 1.8976165781e+00 3.2867683266e+00 
24000 6.9205318929e+00 1.1904482598e-02 1.8972931946e+00 -3.2862082099e+00 1.8972931946e+00 3.2862082099e+00 
24100 6.9205643675e+00 1.1524788283e-02 1.8969794804e+00 -3.2856648410e+00 1.8969794804e+00 3.2856648410e+00 
24200 6.9205997868e+00 1.1135369240e-02 1.8966757217e+00 -3.2851387155e+00 1.8966757217e+00 3.2851387155e+00 
24300 6.9206378273e+00 1.0737159022e-02 1.8963821797e+00 -3.2846302858e+00 1.8963821797e+00 3.2846302858e+00 
24400 6.9206781636e+00 1.0331079325e-02 1.8960990909e+00 -3.2841399616e+00 1.8960990909e+00 3.2841399616e+00 
24500 6.9207204702e+00 9.9180388261e-03 1.8958266675e+00 -3.2836681105e+00 1.8958266675e+00 3.2836681105e+00 
24600 6.9207644241e+00 9.4989320871e-03 1.8955650980e+00 -3.2832150588e+00 1.8955650980e+00 3.2832150588e+00 
24700 6.9208097064e+00 9.0746385209e-03 1.8953145468e+00 -3.2827810913e+00 1.8953145468e+00 3.2827810913e+00 
24800 6.9208560041e+00 8.6460214187e-03 1.8950751552e+00 -3.2823664529e+00 1.8950751552e+00 3.2823664529e+00 
24900 6.9209030123e+00 8.2139270355e-03 1.8948470416e+00 -3.2819713486e+00 1.8948470416e+00 3.2819713486e+00 
25000 6.9209504350e+00 7.7791837339e-03 1.8946303019e+00 -3.2815959445e+00 1.8946303019e+00 3.2815959445e+00 
25100 6.9209979872e+00 7.3426011834e-03 1.8944250101e+00 -3.2812403686e+00 1.8944250101e+00 3.2812403686e+00 
25200 6.9210453960e+00 6.9049696143e-03 1.8942312184e+00 -3.2809047115e+00 1.8942312184e+00 3.2809047115e+00 
25300 6.9210924016e+00 6.4670591242e-03 1.8940489582e+00 -3.2805890276e+00 1.8940489582e+00 3.2805890276e+00 
25400 6.9211387584e+00 6.0296190371e-03 1.8938782403e+00 -3.2802933355e+00 1.8938782403e+00 3.2802933355e+00 
25500 6.9211842357e+00 5.5933773116e-03 1.8937190554e+00 -3.2800176193e+00 1.8937190554e+00 3.2800176193e+00 
25600 6.9212286187e+00 5.1590399993e-03 1.8935713750e+00 -3.2797618293e+00 1.8935713750e+00 3.2797618293e+00 
25700 6.9212717091e+00 4.7272907507e-03 1.8934351515e+00 -3.2795258833e+00 1.8934351515e+00 3.2795258833e+00 
25800 6.9213133249e+00 4.2987903684e-03 1.8933103192e+00 -3.2793096673e+00 1.8933103192e+00 3.2793096673e+00 
25900 6.9213533018e+00 3.8741764059e-03 1.8931967945e+00 -3.2791130369e+00 1.8931967945e+00 3.2791130369e+00 
26000 6.9213914921e+00 3.4540628110e-03 1.8930944771e+00 -3.2789358178e+00 1.8930944771e+00 3.2789358178e+00 
26100 6.9214277661e+00 3.0390396142e-03 1.8930032499e+00 -3.2787778076e+00 1.8930032499e+00 3.2787778076e+00 
26200 6.9214620109e+00 2.6296726588e-03 1.8929229801e+00 -3.2786387764e+00 1.8929229801e+00 3.2786387764e+00 
26300 6.9214941309e+00 2.2265033743e-03 1.8928535199e+00 -3.2785184677e+00 1.8928535199e+00 3.2785184677e+00 
26400 6.9215240474e+00 1.8300485900e-03 1.8927947068e+00 -3.2784166005e+00 1.8927947068e+00 3.2784166005e+00 
26500 6.9215516983e+00 1.4408003898e-03 1.8927463645e+00 -3.2783328691e+00 1.8927463645e+00 3.2783328691e+00 
26600 6.9215770375e+00 1.0592260061e-03 1.8927083035e+00 -3.2782669456e+00 1.8927083035e+00 3.2782669456e+00 
26700 6.9216000344e+00 6.8576775252e-04 1.8926803218e+00 -3.2782184799e+00 1.8926803218e+00 3.2782184799e+00 
26800 6.9216206735e+00 3.2084299417e-04 1.8926622055e+00 -3.2781871016e+00 1.8926622055e+00 3.2781871016e+00 
26900 6.9216389538e+00 -3.5155844710e-05 1.8926537296e+00 -3.2781724208e+00 1.8926537296e+00 3.2781724208e+00 
27000 6.9216548885e+00 -3.8280883107e-04 1.8926537296e+00 -3.2781724208e+00 1.8926537296e+00 3.2781724208e+00 
27100 6.9216685021e+00 -7.1985739018e-04 1.8926638426e+00 -3.2781899370e+00 1.8926638426e+00 3.2781899370e+00 
27200 6.9216798324e+00 -1.0469524233e-03 1.8926828597e+00 -3.2782228756e+00 1.8926828597e+00 3.2782228756e+00 
27300 6.9216889281e+00 -1.3638004599e-03 1.8927105176e+00 -3.2782707806e+00 1.8927105176e+00 3.2782707806e+00 
27400 6.9216958485e+00 -1.6701324116e-03 1.8927465455e+00 -3.2783331826e+00 1.8927465455e+00 3.2783331826e+00 
27500 6.9217006626e+00 -1.9657033626e-03 1.8927906649e+00 -3.2784095997e+00 1.8927906649e+00 3.2784095997e+00 
27600 6.9217034480e+00 -2.2502923293e-03 1.8928425912e+00 -3.2784995387e+00 1.8928425912e+00 3.2784995387e+00 
27700 6.9217042900e+00 -2.5237019901e-03 1.8929020337e+00 -3.2786024961e+00 1.8929020337e+00 3.2786024961e+00 
27800 6.9217032810e+00 -2.7857583879e-03 1.8929686963e+00 -3.2787179591e+00 1.8929686963e+00 3.2787179591e+00 
27900 6.9217005194e+00 -3.0363106045e-03 1.8930422785e+00 -3.2788454073e+00 1.8930422785e+00 3.2788454073e+00 
28000 6.9216961087e+00 -3.2752304090e-03 1.8931224757e+00 -3.2789843128e+00 1.8931224757e+00 3.2789843128e+00 
28100 6.9216901568e+00 -3.5024118811e-03 1.8932089797e+00 -3.2791341422e+00 1.8932089797e+00 3.2791341422e+00 
28200 6.9216827751e+00 -3.7177710105e-03 1.8933014798e+00 -3.2792943571e+00 1.8933014798e+00 3.2792943571e+00 
28300 6.9216740774e+00 -3.9212452733e-03 1.8933996629e+00 -3.2794644152e+00 1.8933996629e+00 3.2794644152e+00 
28400 6.9216641797e+00 -4.1127931868e-03 1.8935032142e+00 -3.2796437713e+00 1.8935032142e+00 3.2796437713e+00 
28500 6.9216531988e+00 -4.2923938436e-03 1.8936118180e+00 -3.2798318786e+00 1.8936118180e+00 3.2798318786e+00 
28600 6.9216412520e+00 -4.4600464260e-03 1.8937251580e+00 -3.2800281891e+00 1.8937251580e+00 3.2800281891e+00 
28700 6.9216284562e+00 -4.6157697031e-03 1.8938429177e+00 -3.2802321550e+00 1.8938429177e+00 3.2802321550e+00 
28800 6.9216149275e+00 -4.7596015094e-03 1.8939647816e+00 -3.2804432294e+00 1.8939647816e+00 3.2804432294e+00 
28900 6.9216007800e+00 -4.8915982084e-03 1.8940904347e+00 -3.2806608671e+00 1.8940904347e+00 3.2806608671e+00 
29000 6.9215861260e+00 -5.0118341411e-03 1.8942195641e+00 -3.2808845257e+00 1.8942195641e+00 3.2808845257e+00 
29100 6.9215710749e+00 -5.1204010611e-03 1.8943518585e+00 -3.2811136663e+00 1.8943518585e+00 3.2811136663e+00 
29200 6.9215557329e+00 -5.2174075565e-03 1.8944870093e+00 -3.2813477543e+00 1.8944870093e+00 3.2813477543e+00 
29300 6.9215402025e+00 -5.3029784614e-03 1.8946247107e+00 -3.2815862601e+00 1.8946247107e+00 3.2815862601e+00 
29400 6.9215245823e+00 -5.3772542562e-03 1.8947646604e+00 -3.2818286602e+00 1.8947646604e+00 3.2818286602e+00 
29500 6.9215089661e+00 -5.4403904596e-03 1.8949065598e+00 -3.2820744372e+00 1.8949065598e+00 3.2820744372e+00 
29600 6.9214934433e+00 -5.4925570118e-03 1.8950501146e+00 -3.2823230815e+00 1.8950501146e+00 3.2823230815e+00 
29700 6.9214780982e+00 -5.5339376515e-03 1.8951950350e+00 -3.2825740909e+00 1.8951950350e+00 3.2825740909e+00 
29800 6.9214630098e+00 -5.5647292862e-03 1.8953410360e+00 -3.2828269721e+00 1.8953410360e+00 3.2828269721e+00 
29900 6.9214482516e+00 -5.5851413584e-03 1.8954878381e+00 -3.2830812408e+00 1.8954878381e+00 3.2830812408e+00 
30000 6.9214338916e+00 -5.5953952077e-03 1.8956351673e+00 -3.2833364224e+00 1.8956351673e+00 3.2833364224e+00 
30100 6.9214199921e+00 -5.5957234296e-03 1.8957827555e+00 -3.2835920527e+00 1.8957827555e+00 3.2835920527e+00 
30200 6.9214066096e+00 -5.5863692333e-03 1.8959303409e+00 -3.2838476781e+00 1.8959303409e+00 3.2838476781e+00 
30300 6.9213937947e+00 -5.5675857979e-03 1.8960776681e+00 -3.2841028562e+00 1.8960776681e+00 3.2841028562e+00 
30400 6.9213815924e+00 -5.5396356294e-03 1.8962244885e+00 -3.2843571566e+00 1.8962244885e+00 3.2843571566e+00 
30500 6.9213700416e+00 -5.5027899176e-03 1.8963705605e+00 -3.2846101608e+00 1.8963705605e+00 3.2846101608e+00 
30600 6.9213591759e+00 -5.4573278962e-03 1.8965156498e+00 -3.2848614628e+00 1.8965156498e+00 3.2848614628e+00 
30700 6.9213490229e+00 -5.4035362046e-03 1.8966595293e+00 -3.2851106695e+00 1.8966595293e+00 3.2851106695e+00 
30800 6.9213396049e+00 -5.3417082536e-03 1.8968019799e+00 -3.2853574011e+00 1.8968019799e+00 3.2853574011e+00 
30900 6.9213309389e+00 -5.2721435956e-03 1.8969427899e+00 -3.2856012912e+00 1.8969427899e+00 3.2856012912e+00 
31000 6.9213230365e+00 -5.1951473001e-03 1.8970817558e+00 -3.2858419872e+00 1.8970817558e+00 3.2858419872e+00 
31100 6.9213159045e+00 -5.1110293348e-03 1.8972186822e+00 -3.2860791506e+00 1.8972186822e+00 3.2860791506e+00 
31200 6.9213095449e+00 -5.0201039536e-03 1.8973533817e+00 -3.2863124571e+00 1.8973533817e+00 3.2863124571e+00 
31300 6.9213039551e+00 -4.9226890922e-03 1.8974856755e+00 -3.2865415967e+00 1.8974856755e+00 3.2865415967e+00 
31400 6.9212991281e+00 -4.8191057717e-03 1.8976153931e+00 -3.2867662741e+00 1.8976153931e+00 3.2867662741e+00 
31500 6.9212950529e+00 -4.7096775110e-03 1.8977423725e+00 -3.2869862088e+00 1.8977423725e+00 3.2869862088e+00 
31600 6.9212917149e+00 -4.5947297484e-03 1.8978664602e+00 -3.2872011350e+00 1.8978664602e+00 3.2872011350e+00 
31700 6.9212890956e+00 -4.4745892741e-03 1.8979875113e+00 -3.2874108017e+00 1.8979875113e+00 3.2874108017e+00 
31800 6.9212871735e+00 -4.3495836725e-03 1.8981053897e+00 -3.2876149731e+00 1.8981053897e+00 3.2876149731e+00 
31900 6.9212859242e+00 -4.2200407763e-03 1.8982199679e+00 -3.2878134283e+00 1.8982199679e+00 3.2878134283e+00 
32000 6.9212853205e+00 -4.0862881325e-03 1.8983311268e+00 -3.2880059612e+00 1.8983311268e+00 3.2880059612e+00 
32100 6.9212853328e+00 -3.9486524800e-03 1.8984387562e+00 -3.2881923809e+00 1.8984387562e+00 3.2881923809e+00 
32200 6.9212859295e+00 -3.8074592413e-03 1.8985427546e+00 -3.2883725112e+00 1.8985427546e+00 3.2883725112e+00 
32300 6.9212870771e+00 -3.6630320266e-03 1.8986430286e+00 -3.2885461910e+00 1.8986430286e+00 3.2885461910e+00 
32400 6.9212887406e+00 -3.5156921522e-03 1.8987394939e+00 -3.2887132738e+00 1.8987394939e+00 3.2887132738e+00 
32500 6.9212908840e+00 -3.3657581727e-03 1.8988320743e+00 -3.2888736278e+00 1.8988320743e+00 3.2888736278e+00 
32600 6.9212934699e+00 -3.2135454287e-03 1.8989207021e+00 -3.2890271355e+00 1.8989207021e+00 3.2890271355e+00 
32700 6.9212964605e+00 -3.0593656086e-03 1.8990053178e+00 -3.2891736942e+00 1.8990053178e+00 3.2891736942e+00 
32800 6.9212998174e+00 -2.9035263265e-03 1.8990858701e+00 -3.2893132150e+00 1.8990858701e+00 3.2893132150e+00 
32900 6.9213035022e+00 -2.7463307155e-03 1.8991623160e+00 -3.2894456231e+00 1.8991623160e+00 3.2894456231e+00 
33000 6.9213074762e+00 -2.5880770373e-03 1.8992346202e+00 -3.2895708577e+00 1.8992346202e+00 3.2895708577e+00 
33100 6.9213117013e+00 -2.4290583082e-03 1.8993027553e+00 -3.2896888712e+00 1.8993027553e+00 3.2896888712e+00 
33200 6.9213161397e+00 -2.2695619409e-03 1.8993667017e+00 -3.2897996296e+00 1.8993667017e+00 3.2897996296e+00 
33300 6.9213207542e+00 -2.1098694049e-03 1.8994264473e+00 -3.2899031119e+00 1.8994264473e+00 3.2899031119e+00 
33400 6.9213255086e+00 -1.9502559017e-03 1.8994819872e+00 -3.2899993099e+00 1.8994819872e+00 3.2899993099e+00 
33500 6.9213303677e+00 -1.7909900592e-03 1.8995333240e+00 -3.2900882278e+00 1.8995333240e+00 3.2900882278e+00 
33600 6.9213352973e+00 -1.6323336423e-03 1.8995804670e+00 -3.2901698820e+00 1.8995804670e+00 3.2901698820e+00 
33700 6.9213402648e+00 -1.4745412812e-03 1.8996234328e+00 -3.2902443009e+00 1.8996234328e+00 3.2902443009e+00 
33800 6.9213452388e+00 -1.3178602177e-03 1.8996622444e+00 -3.2903115245e+00 1.8996622444e+00 3.2903115245e+00 
33900 6.9213501898e+00 -1.1625300689e-03 1.8996969312e+00 -3.2903716038e+00 1.8996969312e+00 3.2903716038e+00 
34000 6.9213550895e+00 -1.0087826083e-03 1.8997275290e+00 -3.2904246008e+00 1.8997275290e+00 3.2904246008e+00 
34100 6.9213599118e+00 -8.5684156481e-04 1.8997540798e+00 -3.2904705881e+00 1.8997540798e+00 3.2904705881e+00 
34200 6.9213646322e+00 -7.0692243989e-04 1.8997766313e+00 -3.2905096484e+00 1.8997766313e+00 3.2905096484e+00 
34300 6.9213692280e+00 -5.5923234153e-04 1.8997952367e+00 -3.2905418739e+00 1.8997952367e+00 3.2905418739e+00 
34400 6.9213736787e+00 -4.1396983631e-04 1.8998099549e+00 -3.2905673667e+00 1.8998099549e+00 3.2905673667e+00 
34500 6.9213779655e+00 -2.7132481865e-04 1.8998208500e+00 -3.2905862374e+00 1.8998208500e+00 3.2905862374e+00 
34600 6.9213820717e+00 -1.3147839759e-04 1.8998279908e+00 -3.2905986057e+00 1.8998279908e+00 3.2905986057e+00 
34700 6.9213859825e+00 5.3971995594e-06 1.8998314511e+00 -3.2906045991e+00 1.8998314511e+00 3.2906045991e+00 
34800 6.9213896852e+00 1.3928137655e-04 1.8998314511e+00 -3.2906045991e+00 1.8998314511e+00 3.2906045991e+00 
34900 6.9213931688e+00 2.6973159078e-04 1.8998277854e+00 -3.2905982500e+00 1.8998277854e+00 3.2905982500e+00 
35000 6.9213964245e+00 3.9674838753e-04 1.8998206866e+00 -3.2905859545e+00 1.8998206866e+00 3.2905859545e+00 
35100 6.9213994451e+00 5.2019568778e-04 1.8998102449e+00 -3.2905678689e+00 1.8998102449e+00 3.2905678689e+00 
35200 6.9214022253e+00 6.3994652568e-04 1.8997965542e+00 -3.2905441559e+00 1.8997965542e+00 3.2905441559e+00 
35300 6.9214047619e+00 7.5588304674e-04 1.8997797117e+00 -3.2905149838e+00 1.8997797117e+00 3.2905149838e+00 
35400 6.9214070528e+00 8.6789649077e-04 1.8997598178e+00 -3.2904805265e+00 1.8997598178e+00 3.2904805265e+00 
35500 6.9214090981e+00 9.7588715988e-04 1.8997369755e+00 -3.2904409626e+00 1.8997369755e+00 3.2904409626e+00 
35600 6.9214108992e+00 1.0797643718e-03 1.8997112908e+00 -3.2903964754e+00 1.8997112908e+00 3.2903964754e+00 
35700 6.9214124588e+00 1.1794463995e-03 1.8996828717e+00 -3.2903472520e+00 1.8996828717e+00 3.2903472520e+00 
35800 6.9214137813e+00 1.2748603963e-03 1.8996518285e+00 -3.2902934837e+00 1.8996518285e+00 3.2902934837e+00 
35900 6.9214148721e+00 1.3659423087e-03 1.8996182735e+00 -3.2902353647e+00 1.8996182735e+00 3.2902353647e+00 
36000 6.9214157380e+00 1.4526367754e-03 1.8995823206e+00 -3.2901730924e+00 1.8995823206e+00 3.2901730924e+00 
36100 6.9214163868e+00 1.5348970148e-03 1.8995440850e+00 -3.2901068664e+00 1.8995440850e+00 3.2901068664e+00 
36200 6.9214168272e+00 1.6126847003e-03 1.8995036834e+00 -3.2900368889e+00 1.8995036834e+00 3.2900368889e+00 
36300 6.9214170690e+00 1.6859698238e-03 1.8994612334e+00 -3.2899633633e+00 1.8994612334e+00 3.2899633633e+00 
36400 6.9214171224e+00 1.7547305495e-03 1.8994168534e+00 -3.2898864948e+00 1.8994168534e+00 3.2898864948e+00 
36500 6.9214169988e+00 1.8189530559e-03 1.8993706623e+00 -3.2898064895e+00 1.8993706623e+00 3.2898064895e+00 
36600 6.9214167096e+00 1.8786313693e-03 1.8993227794e+00 -3.2897235540e+00 1.8993227794e+00 3.2897235540e+00 
36700 6.9214162671e+00 1.9337671870e-03 1.8992733244e+00 -3.2896378952e+00 1.8992733244e+00 3.2896378952e+00 
36800 6.9214156837e+00 1.9843696928e-03 1.8992224165e+00 -3.2895497203e+00 1.8992224165e+00 3.2895497203e+00 
36900 6.9214149723e+00 2.0304553634e-03 1.8991701751e+00 -3.2894592355e+00 1.8991701751e+00 3.2894592355e+00 
37000 6.9214141458e+00 2.0720477674e-03 1.8991167190e+00 -3.2893666468e+00 1.8991167190e+00 3.2893666468e+00 
37100 6.9214132173e+00 2.1091773579e-03 1.8990621663e+00 -3.2892721588e+00 1.8990621663e+00 3.2892721588e+00 
37200 6.9214121998e+00 2.1418812572e-03 1.8990066345e+00 -3.2891759749e+00 1.8990066345e+00 3.2891759749e+00 
37300 6.9214111063e+00 2.1702030371e-03 1.8989502400e+00 -3.2890782967e+00 1.8989502400e+00 3.2890782967e+00 
37400 6.9214099496e+00 2.1941924926e-03 1.8988930981e+00 -3.2889793240e+00 1.8988930981e+00 3.2889793240e+00 
37500 6.9214087422e+00 2.2139054110e-03 1.8988353228e+00 -3.2888792543e+00 1.8988353228e+00 3.2888792543e+00 
37600 6.9214074965e+00 2.2294033368e-03 1.8987770267e+00 -3.2887782825e+00 1.8987770267e+00 3.2887782825e+00 
37700 6.9214062244e+00 2.2407533326e-03 1.8987183207e+00 -3.2886766008e+00 1.8987183207e+00 3.2886766008e+00 
37800 6.9214049373e+00 2.2480277368e-03 1.8986593140e+00 -3.2885743982e+00 1.8986593140e+00 3.2885743982e+00 
37900 6.9214036462e+00 2.2513039186e-03 1.8986001139e+00 -3.2884718606e+00 1.8986001139e+00 3.2884718606e+00 
38000 6.9214023617e+00 2.2506640301e-03 1.8985408257e+00 -3.2883691704e+00 1.8985408257e+00 3.2883691704e+00 
38100 6.9214010936e+00 2.2461947575e-03 1.8984815525e+00 -3.2882665062e+00 1.8984815525e+00 3.2882665062e+00 
38200 6.9213998513e+00 2.2379870703e-03 1.8984223952e+00 -3.2881640426e+00 1.8984223952e+00 3.2881640426e+00 
38300 6.9213986434e+00 2.2261359698e-03 1.8983634521e+00 -3.2880619503e+00 1.8983634521e+00 3.2880619503e+00 
38400 6.9213974781e+00 2.2107402375e-03 1.8983048194e+00 -3.2879603955e+00 1.8983048194e+00 3.2879603955e+00 
38500 6.9213963625e+00 2.1919021835e-03 1.8982465904e+00 -3.2878595398e+00 1.8982465904e+00 3.2878595398e+00 
38600 6.9213953034e+00 2.1697273945e-03 1.8981888557e+00 -3.2877595405e+00 1.8981888557e+00 3.2877595405e+00 
38700 6.9213943067e+00 2.1443244846e-03 1.8981317035e+00 -3.2876605499e+00 1.8981317035e+00 3.2876605499e+00 
38800 6.9213933778e+00 2.1158048453e-03 1.8980752186e+00 -3.2875627152e+00 1.8980752186e+00 3.2875627152e+00 
38900 6.9213925210e+00 2.0842823987e-03 1.8980194833e+00 -3.2874661789e+00 1.8980194833e+00 3.2874661789e+00 
39000 6.9213917402e+00 2.0498733522e-03 1.8979645768e+00 -3.2873710780e+00 1.8979645768e+00 3.2873710780e+00 
39100 6.9213910386e+00 2.0126959557e-03 1.8979105752e+00 -3.2872775445e+00 1.8979105752e+00 3.2872775445e+00 
39200 6.9213904187e+00 1.9728702616e-03 1.8978575515e+00 -3.2871857047e+00 1.8978575515e+00 3.2871857047e+00 
39300 6.9213898821e+00 1.9305178880e-03 1.8978055755e+00 -3.2870956796e+00 1.8978055755e+00 3.2870956796e+00 
39400 6.9213894302e+00 1.8857617850e-03 1.8977547138e+00 -3.2870075847e+00 1.8977547138e+00 3.2870075847e+00 
39500 6.9213890633e+00 1.8387260053e-03 1.8977050300e+00 -3.2869215298e+00 1.8977050300e+00 3.2869215298e+00 
39600 6.9213887814e+00 1.7895354782e-03 1.8976565842e+00 -3.2868376191e+00 1.8976565842e+00 3.2868376191e+00 
39700 6.9213885838e+00 1.7383157882e-03 1.8976094332e+00 -3.2867559512e+00 1.8976094332e+00 3.2867559512e+00 
39800 6.9213884694e+00 1.6851929581e-03 1.8975636306e+00 -3.2866766188e+00 1.8975636306e+00 3.2866766188e+00 
39900 6.9213884366e+00 1.6302932366e-03 1.8975192266e+00 -3.2865997089e+00 1.8975192266e+00 3.2865997089e+00 
40000 6.9213884830e+00 1.5737428912e-03 1.8974762683e+00 -3.2865253028e+00 1.8974762683e+00 3.2865253028e+00 
40100 6.9213886061e+00 1.5156680060e-03 1.8974347990e+00 -3.2864534760e+00 1.8974347990e+00 3.2864534760e+00 
40200 6.9213888030e+00 1.4561942848e-03 1.8973948593e+00 -3.2863842983e+00 1.8973948593e+00 3.2863842983e+00 
40300 6.9213890702e+00 1.3954468599e-03 1.8973564859e+00 -3.2863178336e+00 1.8973564859e+00 3.2863178336e+00 
40400 6.9213894042e+00 1.3335501067e-03 1.8973197125e+00 -3.2862541403e+00 1.8973197125e+00 3.2862541403e+00 
40500 6.9213898008e+00 1.2706274636e-03 1.8972845697e+00 -3.2861932711e+00 1.8972845697e+00 3.2861932711e+00 
40600 6.9213902560e+00 1.2068012583e-03 1.8972510843e+00 -3.2861352728e+00 1.8972510843e+00 3.2861352728e+00 
40700 6.9213907653e+00 1.1421925399e-03 1.8972192805e+00 -3.2860801869e+00 1.8972192805e+00 3.2860801869e+00 
40800 6.9213913241e+00 1.0769209173e-03 1.8971891788e+00 -3.2860280493e+00 1.8971891788e+00 3.2860280493e+00 
40900 6.9213919277e+00 1.0111044041e-03 1.8971607969e+00 -3.2859788903e+00 1.8971607969e+00 3.2859788903e+00 
41000 6.9213925713e+00 9.4485926875e-04 1.8971341491e+00 -3.2859327350e+00 1.8971341491e+00 3.2859327350e+00 
41100 6.9213932499e+00 8.7829989269e-04 1.8971092469e+00 -3.2858896031e+00 1.8971092469e+00 3.2858896031e+00 
41200 6.9213939588e+00 8.1153863351e-04 1.8970860985e+00 -3.2858495090e+00 1.8970860985e+00 3.2858495090e+00 
41300 6.9213946930e+00 7.4468569536e-04 1.8970647095e+00 -3.2858124621e+00 1.8970647095e+00 3.2858124621e+00 
41400 6.9213954476e+00 6.7784900564e-04 1.8970450822e+00 -3.2857784667e+00 1.8970450822e+00 3.2857784667e+00 
41500 6.9213962179e+00 6.1113409816e-04 1.8970272163e+00 -3.2857475220e+00 1.8970272163e+00 3.2857475220e+00 
41600 6.9213969990e+00 5.4464400298e-04 1.8970111087e+00 -3.2857196227e+00 1.8970111087e+00 3.2857196227e+00 
41700 6.9213977866e+00 4.7847914261e-04 1.8969967534e+00 -3.2856947586e+00 1.8969967534e+00 3.2856947586e+00 
41800 6.9213985760e+00 4.1273723486e-04 1.8969841419e+00 -3.2856729149e+00 1.8969841419e+00 3.2856729149e+00 
41900 6.9213993631e+00 3.4751320210e-04 1.8969732631e+00 -3.2856540723e+00 1.8969732631e+00 3.2856540723e+00 
42000 6.9214001438e+00 2.8289908704e-04 1.8969641035e+00 -3.2856382073e+00 1.8969641035e+00 3.2856382073e+00 
42100 6.9214009141e+00 2.1898397493e-04 1.8969566468e+00 -3.2856252921e+00 1.8969566468e+00 3.2856252921e+00 
42200 6.9214016703e+00 1.5585392212e-04 1.8969508749e+00 -3.2856152947e+00 1.8969508749e+00 3.2856152947e+00 
42300 6.9214024091e+00 9.3591890946e-05 1.8969467669e+00 -3.2856081794e+00 1.8969467669e+00 3.2856081794e+00 
42400 6.9214031273e+00 3.2277690968e-05 1.8969442999e+00 -3.2856039066e+00 1.8969442999e+00 3.2856039066e+00 
42500 6.9214038218e+00 -2.7152993901e-05 1.8969442999e+00 -3.2856039066e+00 1.8969442999e+00 3.2856039066e+00 
42600 6.9214044900e+00 -8.7085766329e-05 1.8969442999e+00 -3.2856039066e+00 1.8969442999e+00 3.2856039066e+00 
42700 6.9214051296e+00 -1.4511223032e-04 1.8969465954e+00 -3.2856078824e+00 1.8969465954e+00 3.2856078824e+00 
42800 6.9214057382e+00 -2.0190405413e-04 1.8969504203e+00 -3.2856145073e+00 1.8969504203e+00 3.2856145073e+00 
42900 6.9214063142e+00 -2.5739786349e-04 1.8969557421e+00 -3.2856237250e+00 1.8969557421e+00 3.2856237250e+00 
43000 6.9214068558e+00 -3.1153366235e-04 1.8969625266e+00 -3.2856354761e+00 1.8969625266e+00 3.2856354761e+00 
43100 6.9214073617e+00 -3.6425485013e-04 1.8969707380e+00 -3.2856496986e+00 1.8969707380e+00 3.2856496986e+00 
43200 6.9214078309e+00 -4.1550823334e-04 1.8969803389e+00 -3.2856663280e+00 1.8969803389e+00 3.2856663280e+00 
43300 6.9214082625e+00 -4.6524403179e-04 1.8969912908e+00 -3.2856852971e+00 1.8969912908e+00 3.2856852971e+00 
43400 6.9214086560e+00 -5.1341587956e-04 1.8970035535e+00 -3.2857065367e+00 1.8970035535e+00 3.2857065367e+00 
43500 6.9214090110e+00 -5.5998082068e-04 1.8970170858e+00 -3.2857299754e+00 1.8970170858e+00 3.2857299754e+00 
43600 6.9214093275e+00 -6.0489929977e-04 1.8970318453e+00 -3.2857555396e+00 1.8970318453e+00 3.2857555396e+00 
43700 6.9214096056e+00 -6.4813514779e-04 1.8970477886e+00 -3.2857831543e+00 1.8970477886e+00 3.2857831543e+00 
43800 6.9214098458e+00 -6.8965556293e-04 1.8970648714e+00 -3.2858127425e+00 1.8970648714e+00 3.2858127425e+00 
43900 6.9214100486e+00 -7.2943108692e-04 1.8970830483e+00 -3.2858442259e+00 1.8970830483e+00 3.2858442259e+00 
44000 6.9214102147e+00 -7.6743557670e-04 1.8971022734e+00 -3.2858775247e+00 1.8971022734e+00 3.2858775247e+00 
44100 6.9214103452e+00 -8.0364617186e-04 1.8971225000e+00 -3.2859125582e+00 1.8971225000e+00 3.2859125582e+00 
44200 6.9214104410e+00 -8.3804325769e-04 1.8971436807e+00 -3.2859492442e+00 1.8971436807e+00 3.2859492442e+00 
44300 6.9214105037e+00 -8.7061042433e-04 1.8971657677e+00 -3.2859875000e+00 1.8971657677e+00 3.2859875000e+00 
44400 6.9214105344e+00 -9.0133442184e-04 1.8971887128e+00 -3.2860272421e+00 1.8971887128e+00 3.2860272421e+00 
44500 6.9214105348e+00 -9.3020511158e-04 1.8972124673e+00 -3.2860683861e+00 1.8972124673e+00 3.2860683861e+00 
44600 6.9214105066e+00 -9.5721541393e-04 1.8972369824e+00 -3.2861108475e+00 1.8972369824e+00 3.2861108475e+00 
44700 6.9214104514e+00 -9.8236125256e-04 1.8972622090e+00 -3.2861545413e+00 1.8972622090e+00 3.2861545413e+00 
44800 6.9214103711e+00 -1.0056414954e-03 1.8972880980e+00 -3.2861993823e+00 1.8972880980e+00 3.2861993823e+00 
44900 6.9214102675e+00 -1.0270578926e-03 1.8973146001e+00 -3.2862452854e+00 1.8973146001e+00 3.2862452854e+00 
45000 6.9214101427e+00 -1.0466150110e-03 1.8973416663e+00 -3.2862921653e+00 1.8973416663e+00 3.2862921653e+00 
45100 6.9214099986e+00 -1.0643201665e-03 1.8973692474e+00 -3.2863399373e+00 1.8973692474e+00 3.2863399373e+00 
45200 6.9214098372e+00 -1.0801833533e-03 1.8973972948e+00 -3.2863885167e+00 1.8973972948e+00 3.2863885167e+00 
45300 6.9214096605e+00 -1.0942171707e-03 1.8974257597e+00 -3.2864378194e+00 1.8974257597e+00 3.2864378194e+00 
45400 6.9214094706e+00 -1.1064367475e-03 1.8974545940e+00 -3.2864877619e+00 1.8974545940e+00 3.2864877619e+00 
45500 6.9214092694e+00 -1.1168596647e-03 1.8974837499e+00 -3.2865382614e+00 1.8974837499e+00 3.2865382614e+00 
45600 6.9214090589e+00 -1.1255058753e-03 1.8975131800e+00 -3.2865892358e+00 1.8975131800e+00 3.2865892358e+00 
45700 6.9214088411e+00 -1.1323976231e-03 1.8975428375e+00 -3.2866406041e+00 1.8975428375e+00 3.2866406041e+00 
45800 6.9214086179e+00 -1.1375593592e-03 1.8975726761e+00 -3.2866922861e+00 1.8975726761e+00 3.2866922861e+00 
45900 6.9214083911e+00 -1.1410176575e-03 1.8976026503e+00 -3.2867442028e+00 1.8976026503e+00 3.2867442028e+00 
46000 6.9214081624e+00 -1.1428011281e-03 1.8976327150e+00 -3.2867962766e+00 1.8976327150e+00 3.2867962766e+00 
46100 6.9214079337e+00 -1.1429403305e-03 1.8976628264e+00 -3.2868484309e+00 1.8976628264e+00 3.2868484309e+00 
46200 6.9214077065e+00 -1.1414676845e-03 1.8976929409e+00 -3.2869005907e+00 1.8976929409e+00 3.2869005907e+00 
46300 6.9214074824e+00 -1.1384173812e-03 1.8977230161e+00 -3.2869526825e+00 1.8977230161e+00 3.2869526825e+00 
46400 6.9214072629e+00 -1.1338252927e-03 1.8977530105e+00 -3.2870046343e+00 1.8977530105e+00 3.2870046343e+00 
46500 6.9214070493e+00 -1.1277288815e-03 1.8977828834e+00 -3.2870563757e+00 1.8977828834e+00 3.2870563757e+00 
46600 6.9214068428e+00 -1.1201671090e-03 1.8978125952e+00 -3.2871078381e+00 1.8978125952e+00 3.2871078381e+00 
46700 6.9214066448e+00 -1.1111803442e-03 1.8978421073e+00 -3.2871589546e+00 1.8978421073e+00 3.2871589546e+00 
46800 6.9214064561e+00 -1.1008102720e-03 1.8978713822e+00 -3.2872096603e+00 1.8978713822e+00 3.2872096603e+00 
46900 6.9214062778e+00 -1.0890998012e-03 1.8979003835e+00 -3.2872598919e+00 1.8979003835e+00 3.2872598919e+00 
47000 6.9214061108e+00 -1.0760929731e-03 1.8979290758e+00 -3.2873095884e+00 1.8979290758e+00 3.2873095884e+00 
47100 6.9214059558e+00 -1.0618348699e-03 1.8979574250e+00 -3.2873586907e+00 1.8979574250e+00 3.2873586907e+00 
47200 6.9214058133e+00 -1.0463715240e-03 1.8979853982e+00 -3.2874071416e+00 1.8979853982e+00 3.2874071416e+00 
47300 6.9214056841e+00 -1.0297498270e-03 1.8980129636e+00 -3.2874548863e+00 1.8980129636e+00 3.2874548863e+00 
47400 6.9214055684e+00 -1.0120174401e-03 1.8980400907e+00 -3.2875018718e+00 1.8980400907e+00 3.2875018718e+00 
47500 6.9214054666e+00 -9.9322270502e-04 1.8980667503e+00 -3.2875480476e+00 1.8980667503e+00 3.2875480476e+00 
47600 6.9214053790e+00 -9.7341455537e-04 1.8980929144e+00 -3.2875933652e+00 1.8980929144e+00 3.2875933652e+00 
47700 6.9214053057e+00 -9.5264242969e-04 1.8981185564e+00 -3.2876377784e+00 1.8981185564e+00 3.2876377784e+00 
47800 6.9214052467e+00 -9.3095618510e-04 1.8981436508e+00 -3.2876812432e+00 1.8981436508e+00 3.2876812432e+00 
47900 6.9214052021e+00 -9.0840601234e-04 1.8981681737e+00 -3.2877237181e+00 1.8981681737e+00 3.2877237181e+00 
48000 6.9214051716e+00 -8.8504235207e-04 1.8981921022e+00 -3.2877651635e+00 1.8981921022e+00 3.2877651635e+00 
48100 6.9214051550e+00 -8.6091581261e-04 1.8982154150e+00 -3.2878055425e+00 1.8982154150e+00 3.2878055425e+00 
48200 6.9214051521e+00 -8.3607708917e-04 1.8982380920e+00 -3.2878448203e+00 1.8982380920e+00 3.2878448203e+00 
48300 6.9214051626e+00 -8.1057688467e-04 1.8982601145e+00 -3.2878829644e+00 1.8982601145e+00 3.2878829644e+00 
48400 6.9214051859e+00 -7.8446583230e-04 1.8982814651e+00 -3.2879199446e+00 1.8982814651e+00 3.2879199446e+00 
48500 6.9214052217e+00 -7.5779441973e-04 1.8983021277e+00 -3.2879557332e+00 1.8983021277e+00 3.2879557332e+00 
48600 6.9214052694e+00 -7.3061291535e-04 1.8983220875e+00 -3.2879903047e+00 1.8983220875e+00 3.2879903047e+00 
48700 6.9214053284e+00 -7.0297129623e-04 1.8983413312e+00 -3.2880236357e+00 1.8983413312e+00 3.2880236357e+00 
48800 6.9214053981e+00 -6.7491917823e-04 1.8983598466e+00 -3.2880557054e+00 1.8983598466e+00 3.2880557054e+00 
48900 6.9214054779e+00 -6.4650574811e-04 1.8983776230e+00 -3.2880864950e+00 1.8983776230e+00 3.2880864950e+00 
49000 6.9214055670e+00 -6.1777969776e-04 1.8983946509e+00 -3.2881159882e+00 1.8983946509e+00 3.2881159882e+00 
49100 6.9214056648e+00 -5.8878916060e-04 1.8984109220e+00 -3.2881441706e+00 1.8984109220e+00 3.2881441706e+00 
49200 6.9214057705e+00 -5.5958165022e-04 1.8984264295e+00 -3.2881710303e+00 1.8984264295e+00 3.2881710303e+00 
49300 6.9214058834e+00 -5.3020400134e-04 1.8984411675e+00 -3.2881965573e+00 1.8984411675e+00 3.2881965573e+00 
49400 6.9214060027e+00 -5.0070231303e-04 1.8984551317e+00 -3.2882207440e+00 1.8984551317e+00 3.2882207440e+00 
49500 6.9214061277e+00 -4.7112189431e-04 1.8984683188e+00 -3.2882435848e+00 1.8984683188e+00 3.2882435848e+00 
49600 6.9214062575e+00 -4.4150721212e-04 1.8984807268e+00 -3.2882650760e+00 1.8984807268e+00 3.2882650760e+00 
49700 6.9214063915e+00 -4.1190184185e-04 1.8984923547e+00 -3.2882852162e+00 1.8984923547e+00 3.2882852162e+00 
49800 6.9214065289e+00 -3.8234842007e-04 1.8985032029e+00 -3.2883040057e+00 1.8985032029e+00 3.2883040057e+00 
49900 6.9214066689e+00 -3.5288860000e-04 1.8985132726e+00 -3.2883214470e+00 1.8985132726e+00 3.2883214470e+00 
50000 6.9214068108e+00 -3.2356300929e-04 1.8985225664e+00 -3.2883375444e+00 1.8985225664e+00 3.2883375444e+00 
50100 6.9214069540e+00 -2.9441121034e-04 1.8985310879e+00 -3.2883523040e+00 1.8985310879e+00 3.2883523040e+00 
50200 6.9214070977e+00 -2.6547166319e-04 1.8985388415e+00 -3.2883657337e+00 1.8985388415e+00 3.2883657337e+00 
50300 6.9214072414e+00 -2.3678169085e-04 1.8985458330e+00 -3.2883778433e+00 1.8985458330e+00 3.2883778433e+00 
50400 6.9214073843e+00 -2.0837744717e-04 1.8985520689e+00 -3.2883886441e+00 1.8985520689e+00 3.2883886441e+00 
50500 6.9214075259e+00 -1.8029388725e-04 1.8985575567e+00 -3.2883981493e+00 1.8985575567e+00 3.2883981493e+00 
50600 6.9214076656e+00 -1.5256474028e-04 1.8985623049e+00 -3.2884063734e+00 1.8985623049e+00 3.2884063734e+00 
50700 6.9214078030e+00 -1.2522248496e-04 1.8985663228e+00 -3.2884133326e+00 1.8985663228e+00 3.2884133326e+00 
50800 6.9214079374e+00 -9.8298327277e-05 1.8985696206e+00 -3.2884190446e+00 1.8985696206e+00 3.2884190446e+00 
50900 6.9214080686e+00 -7.1822180898e-05 1.8985722093e+00 -3.2884235284e+00 1.8985722093e+00 3.2884235284e+00 
51000 6.9214081960e+00 -4.5822649830e-05 1.8985741008e+00 -3.2884268046e+00 1.8985741008e+00 3.2884268046e+00 
51100 6.9214083193e+00 -2.1541955640e-05 1.8985741008e+00 -3.2884268046e+00 1.8985741008e+00 3.2884268046e+00 
51200 6.9214084381e+00 2.8781151510e-06 1.8985741008e+00 -3.2884268046e+00 1.8985741008e+00 3.2884268046e+00 
51300 6.9214085522e+00 2.7402438496e-05 1.8985741008e+00 -3.2884268046e+00 1.8985741008e+00 3.2884268046e+00 
51400 6.9214086614e+00 5.1996682793e-05 1.8985741008e+00 -3.2884268046e+00 1.8985741008e+00 3.2884268046e+00 
51500 6.9214087655e+00 7.6627335118e-05 1.8985741008e+00 -3.2884268046e+00 1.8985741008e+00 3.2884268046e+00 
51600 6.9214088642e+00 9.9229785524e-05 1.8985720828e+00 -3.2884233092e+00 1.8985720828e+00 3.2884233092e+00 
51700 6.9214089573e+00 1.2119343431e-04 1.8985694695e+00 -3.2884187829e+00 1.8985694695e+00 3.2884187829e+00 
51800 6.9214090450e+00 1.4250047496e-04 1.8985662778e+00 -3.2884132547e+00 1.8985662778e+00 3.2884132547e+00 
51900 6.9214091269e+00 1.6313446256e-04 1.8985625250e+00 -3.2884067546e+00 1.8985625250e+00 3.2884067546e+00 
52000 6.9214092032e+00 1.8308030871e-04 1.8985582287e+00 -3.2883993133e+00 1.8985582287e+00 3.2883993133e+00 
52100 6.9214092738e+00 2.0232427444e-04 1.8985534072e+00 -3.2883909621e+00 1.8985534072e+00 3.2883909621e+00 
52200 6.9214093387e+00 2.2085396107e-04 1.8985480788e+00 -3.2883817331e+00 1.8985480788e+00 3.2883817331e+00 
52300 6.9214093982e+00 2.3865829945e-04 1.8985422624e+00 -3.2883716588e+00 1.8985422624e+00 3.2883716588e+00 
52400 6.9214094521e+00 2.5572753710e-04 1.8985359771e+00 -3.2883607723e+00 1.8985359771e+00 3.2883607723e+00 
52500 6.9214095007e+00 2.7205322386e-04 1.8985292422e+00 -3.2883491072e+00 1.8985292422e+00 3.2883491072e+00 
52600 6.9214095440e+00 2.8762819569e-04 1.8985220774e+00 -3.2883366974e+00 1.8985220774e+00 3.2883366974e+00 
52700 6.9214095824e+00 3.0244655689e-04 1.8985145024e+00 -3.2883235770e+00 1.8985145024e+00 3.2883235770e+00 
52800 6.9214096159e+00 3.1650366080e-04 1.8985065370e+00 -3.2883097806e+00 1.8985065370e+00 3.2883097806e+00 
52900 6.9214096447e+00 3.2979608897e-04 1.8984982014e+00 -3.2882953429e+00 1.8984982014e+00 3.2882953429e+00 
53000 6.9214096691e+00 3.4232162890e-04 1.8984895157e+00 -3.2882802989e+00 1.8984895157e+00 3.2882802989e+00 
53100 6.9214096894e+00 3.5407925045e-04 1.8984805001e+00 -3.2882646833e+00 1.8984805001e+00 3.2882646833e+00 
53200 6.9214097056e+00 3.6506908098e-04 1.8984711748e+00 -3.2882485314e+00 1.8984711748e+00 3.2882485314e+00 
53300 6.9214097183e+00 3.7529237916e-04 1.8984615600e+00 -3.2882318781e+00 1.8984615600e+00 3.2882318781e+00 
53400 6.9214097275e+00 3.8475150779e-04 1.8984516758e+00 -3.2882147583e+00 1.8984516758e+00 3.2882147583e+00 
53500 6.9214097335e+00 3.9344990541e-04 1.8984415426e+00 -3.2881972069e+00 1.8984415426e+00 3.2881972069e+00 
53600 6.9214097367e+00 4.0139205698e-04 1.8984311801e+00 -3.2881792587e+00 1.8984311801e+00 3.2881792587e+00 
53700 6.9214097373e+00 4.0858346352e-04 1.8984206085e+00 -3.2881609480e+00 1.8984206085e+00 3.2881609480e+00 
53800 6.9214097355e+00 4.1503061102e-04 1.8984098473e+00 -3.2881423092e+00 1.8984098473e+00 3.2881423092e+00 
53900 6.9214097317e+00 4.2074093841e-04 1.8983989163e+00 -3.2881233761e+00 1.8983989163e+00 3.2881233761e+00 
54000 6.9214097262e+00 4.2572280487e-04 1.8983878349e+00 -3.2881041825e+00 1.8983878349e+00 3.2881041825e+00 
54100 6.9214097191e+00 4.2998545645e-04 1.8983766221e+00 -3.2880847614e+00 1.8983766221e+00 3.2880847614e+00 
54200 6.9214097109e+00 4.3353899211e-04 1.8983652971e+00 -3.2880651458e+00 1.8983652971e+00 3.2880651458e+00 
54300 6.9214097016e+00 4.3639432917e-04 1.8983538783e+00 -3.2880453680e+00 1.8983538783e+00 3.2880453680e+00 
54400 6.9214096916e+00 4.3856316841e-04 1.8983423843e+00 -3.2880254598e+00 1.8983423843e+00 3.2880254598e+00 
54500 6.9214096811e+00 4.4005795865e-04 1.8983308331e+00 -3.2880054525e+00 1.8983308331e+00 3.2880054525e+00 
54600 6.9214096703e+00 4.4089186105e-04 1.8983192425e+00 -3.2879853770e+00 1.8983192425e+00 3.2879853770e+00 
54700 6.9214096595e+00 4.4107871316e-04 1.8983076298e+00 -3.2879652632e+00 1.8983076298e+00 3.2879652632e+00 
54800 6.9214096488e+00 4.4063299270e-04 1.8982960121e+00 -3.2879451408e+00 1.8982960121e+00 3.2879451408e+00 
54900 6.9214096385e+00 4.3956978126e-04 1.8982844061e+00 -3.2879250386e+00 1.8982844061e+00 3.2879250386e+00 
55000 6.9214096286e+00 4.3790472788e-04 1.8982728281e+00 -3.2879049848e+00 1.8982728281e+00 3.2879049848e+00 
55100 6.9214096195e+00 4.3565401257e-04 1.8982612938e+00 -3.2878850069e+00 1.8982612938e+00 3.2878850069e+00 
55200 6.9214096112e+00 4.3283430995e-04 1.8982498187e+00 -3.2878651315e+00 1.8982498187e+00 3.2878651315e+00 
55300 6.9214096039e+00 4.2946275287e-04 1.8982384178e+00 -3.2878453846e+00 1.8982384178e+00 3.2878453846e+00 
55400 6.9214095976e+00 4.2555689625e-04 1.8982271057e+00 -3.2878257914e+00 1.8982271057e+00 3.2878257914e+00 
55500 6.9214095926e+00 4.2113468104e-04 1.8982158964e+00 -3.2878063763e+00 1.8982158964e+00 3.2878063763e+00 
55600 6.9214095888e+00 4.1621439855e-04 1.8982048035e+00 -3.2877871628e+00 1.8982048035e+00 3.2877871628e+00 
55700 6.9214095865e+00 4.1081465489e-04 1.8981938401e+00 -3.2877681737e+00 1.8981938401e+00 3.2877681737e+00 
55800 6.9214095855e+00 4.0495433591e-04 1.8981830190e+00 -3.2877494309e+00 1.8981830190e+00 3.2877494309e+00 
55900 6.9214095861e+00 3.9865257247e-04 1.8981723521e+00 -3.2877309553e+00 1.8981723521e+00 3.2877309553e+00 
56000 6.9214095882e+00 3.9192870611e-04 1.8981618511e+00 -3.2877127671e+00 1.8981618511e+00 3.2877127671e+00 
56100 6.9214095918e+00 3.8480225526e-04 1.8981515272e+00 -3.2876948856e+00 1.8981515272e+00 3.2876948856e+00 
56200 6.9214095970e+00 3.7729288193e-04 1.8981413910e+00 -3.2876773292e+00 1.8981413910e+00 3.2876773292e+00 
56300 6.9214096038e+00 3.6942035895e-04 1.8981314525e+00 -3.2876601152e+00 1.8981314525e+00 3.2876601152e+00 
56400 6.9214096122e+00 3.6120453781e-04 1.8981217214e+00 -3.2876432604e+00 1.8981217214e+00 3.2876432604e+00 
56500 6.9214096220e+00 3.5266531715e-04 1.8981122066e+00 -3.2876267803e+00 1.8981122066e+00 3.2876267803e+00 
56600 6.9214096334e+00 3.4382261188e-04 1.8981029167e+00 -3.2876106897e+00 1.8981029167e+00 3.2876106897e+00 
56700 6.9214096463e+00 3.3469632302e-04 1.8980938597e+00 -3.2875950026e+00 1.8980938597e+00 3.2875950026e+00 
56800 6.9214096606e+00 3.2530630824e-04 1.8980850431e+00 -3.2875797317e+00 1.8980850431e+00 3.2875797317e+00 
56900 6.9214096762e+00 3.1567235317e-04 1.8980764738e+00 -3.2875648892e+00 1.8980764738e+00 3.2875648892e+00 
57000 6.9214096932e+00 3.0581414350e-04 1.8980681582e+00 -3.2875504862e+00 1.8980681582e+00 3.2875504862e+00 
57100 6.9214097114e+00 2.9575123784e-04 1.8980601022e+00 -3.2875365329e+00 1.8980601022e+00 3.2875365329e+00 
57200 6.9214097307e+00 2.8550304144e-04 1.8980523114e+00 -3.2875230387e+00 1.8980523114e+00 3.2875230387e+00 
57300 6.9214097511e+00 2.7508878073e-04 1.8980447904e+00 -3.2875100121e+00 1.8980447904e+00 3.2875100121e+00 
57400 6.9214097725e+00 2.6452747879e-04 1.8980375438e+00 -3.2874974605e+00 1.8980375438e+00 3.2874974605e+00 
57500 6.9214097948e+00 2.5383793161e-04 1.8980305754e+00 -3.2874853908e+00 1.8980305754e+00 3.2874853908e+00 
57600 6.9214098179e+00 2.4303868529e-04 1.8980238885e+00 -3.2874738088e+00 1.8980238885e+00 3.2874738088e+00 
57700 6.9214098418e+00 2.3214801418e-04 1.8980174861e+00 -3.2874627195e+00 1.8980174861e+00 3.2874627195e+00 
57800 6.9214098662e+00 2.2118389986e-04 1.8980113705e+00 -3.2874521271e+00 1.8980113705e+00 3.2874521271e+00 
57900 6.9214098912e+00 2.1016401119e-04 1.8980055438e+00 -3.2874420349e+00 1.8980055438e+00 3.2874420349e+00 
58000 6.9214099167e+00 1.9910568511e-04 1.8980000074e+00 -3.2874324455e+00 1.8980000074e+00 3.2874324455e+00 
58100 6.9214099425e+00 1.8802590860e-04 1.8979947622e+00 -3.2874233607e+00 1.8979947622e+00 3.2874233607e+00 
58200 6.9214099685e+00 1.7694130139e-04 1.8979898090e+00 -3.2874147814e+00 1.8979898090e+00 3.2874147814e+00 
58300 6.9214099947e+00 1.6586809980e-04 1.8979851477e+00 -3.2874067078e+00 1.8979851477e+00 3.2874067078e+00 
58400 6.9214100210e+00 1.5482214140e-04 1.8979807781e+00 -3.2873991394e+00 1.8979807781e+00 3.2873991394e+00 
58500 6.9214100473e+00 1.4381885076e-04 1.8979766995e+00 -3.2873920751e+00 1.8979766995e+00 3.2873920751e+00 
58600 6.9214100735e+00 1.3287322599e-04 1.8979729108e+00 -3.2873855128e+00 1.8979729108e+00 3.2873855128e+00 
58700 6.9214100995e+00 1.2199982645e-04 1.8979694104e+00 -3.2873794499e+00 1.8979694104e+00 3.2873794499e+00 
58800 6.9214101253e+00 1.1121276119e-04 1.8979661964e+00 -3.2873738832e+00 1.8979661964e+00 3.2873738832e+00 
58900 6.9214101507e+00 1.0052567849e-04 1.8979632666e+00 -3.2873688087e+00 1.8979632666e+00 3.2873688087e+00 
59000 6.9214101758e+00 8.9951756325e-05 1.8979606184e+00 -3.2873642218e+00 1.8979606184e+00 3.2873642218e+00 
59100 6.9214102004e+00 7.9503693650e-05 1.8979582487e+00 -3.2873601173e+00 1.8979582487e+00 3.2873601173e+00 
59200 6.9214102245e+00 6.9193702750e-05 1.8979561542e+00 -3.2873564896e+00 1.8979561542e+00 3.2873564896e+00 
59300 6.9214102482e+00 6.0871081724e-05 1.8979561542e+00 -3.2873564896e+00 1.8979561542e+00 3.2873564896e+00 
59400 6.9214102712e+00 5.2449801289e-05 1.8979561542e+00 -3.2873564896e+00 1.8979561542e+00 3.2873564896e+00 
59500 6.9214102935e+00 4.3943775500e-05 1.8979561542e+00 -3.2873564896e+00 1.8979561542e+00 3.2873564896e+00 
59600 6.9214103150e+00 3.5366636212e-05 1.8979561542e+00 -3.2873564896e+00 1.8979561542e+00 3.2873564896e+00 
59700 6.9214103359e+00 2.6731722148e-05 1.8979561542e+00 -3.2873564896e+00 1.8979561542e+00 3.2873564896e+00 
59800 6.9214103559e+00 1.8052068619e-05 1.8979561542e+00 -3.2873564896e+00 1.8979561542e+00 3.2873564896e+00 
59900 6.9214103752e+00 9.3403979503e-06 1.8979561542e+00 -3.2873564896e+00 1.8979561542e+00 3.2873564896e+00 
60000 6.9214103937e+00 6.0911057413e-07 1.8979561542e+00 -3.2873564896e+00 1.8979561542e+00 3.2873564896e+00 
60100 6.9214104114e+00 -8.1297231862e-06 1.8979561542e+00 -3.2873564896e+00 1.8979561542e+00 3.2873564896e+00 
60200 6.9214104284e+00 -1.6864370661e-05 1.8979561542e+00 -3.2873564896e+00 1.8979561542e+00 3.2873564896e+00 
60300 6.9214104445e+00 -2.5583443723e-05 1.8979561542e+00 -3.2873564896e+00 1.8979561542e+00 3.2873564896e+00 
60400 6.9214104599e+00 -3.4275905006e-05 1.8979561542e+00 -3.2873564896e+00 1.8979561542e+00 3.2873564896e+00 
60500 6.9214104746e+00 -4.2931073465e-05 1.8979561542e+00 -3.2873564896e+00 1.8979561542e+00 3.2873564896e+00 
60600 6.9214104884e+00 -5.1538629307e-05 1.8979561542e+00 -3.2873564896e+00 1.8979561542e+00 3.2873564896e+00 
60700 6.9214105016e+00 -6.0088618278e-05 1.8979561542e+00 -3.2873564896e+00 1.8979561542e+00 3.2873564896e+00 
60800 6.9214105141e+00 -6.8571455329e-05 1.8979561542e+00 -3.2873564896e+00 1.8979561542e+00 3.2873564896e+00 
60900 6.9214105259e+00 -7.6977927653e-05 1.8979561542e+00 -3.2873564896e+00 1.8979561542e+00 3.2873564896e+00 
61000 6.9214105368e+00 -8.3255176854e-05 1.8979581821e+00 -3.2873600021e+00 1.8979581821e+00 3.2873600021e+00 
61100 6.9214105471e+00 -8.9260794739e-05 1.8979603754e+00 -3.2873638010e+00 1.8979603754e+00 3.2873638010e+00 
61200 6.9214105567e+00 -9.4992531536e-05 1.8979627269e+00 -3.2873678739e+00 1.8979627269e+00 3.2873678739e+00 
61300 6.9214105657e+00 -1.0044860180e-04 1.8979652294e+00 -3.2873722083e+00 1.8979652294e+00 3.2873722083e+00 
61400 6.9214105741e+00 -1.0562767592e-04 1.8979678756e+00 -3.2873767917e+00 1.8979678756e+00 3.2873767917e+00 
61500 6.9214105819e+00 -1.1052887120e-04 1.8979706583e+00 -3.2873816114e+00 1.8979706583e+00 3.2873816114e+00 
61600 6.9214105892e+00 -1.1515174241e-04 1.8979735700e+00 -3.2873866547e+00 1.8979735700e+00 3.2873866547e+00 
61700 6.9214105960e+00 -1.1949627194e-04 1.8979766036e+00 -3.2873919090e+00 1.8979766036e+00 3.2873919090e+00 
61800 6.9214106023e+00 -1.2356285958e-04 1.8979797516e+00 -3.2873973614e+00 1.8979797516e+00 3.2873973614e+00 
61900 6.9214106083e+00 -1.2735231186e-04 1.8979830067e+00 -3.2874029995e+00 1.8979830067e+00 3.2874029995e+00 
62000 6.9214106138e+00 -1.3086583103e-04 1.8979863616e+00 -3.2874088104e+00 1.8979863616e+00 3.2874088104e+00 
62100 6.9214106190e+00 -1.3410500381e-04 1.8979898091e+00 -3.2874147816e+00 1.8979898091e+00 3.2874147816e+00 
62200 6.9214106239e+00 -1.3707178968e-04 1.8979933419e+00 -3.2874209007e+00 1.8979933419e+00 3.2874209007e+00 
62300 6.9214106285e+00 -1.3976850901e-04 1.8979969529e+00 -3.2874271550e+00 1.8979969529e+00 3.2874271550e+00 
62400 6.9214106329e+00 -1.4219783085e-04 1.8980006349e+00 -3.2874335324e+00 1.8980006349e+00 3.2874335324e+00 
62500 6.9214106370e+00 -1.4436276054e-04 1.8980043809e+00 -3.2874400207e+00 1.8980043809e+00 3.2874400207e+00 
62600 6.9214106410e+00 -1.4626662711e-04 1.8980081839e+00 -3.2874466077e+00 1.8980081839e+00 3.2874466077e+00 
62700 6.9214106449e+00 -1.4791307042e-04 1.8980120371e+00 -3.2874532816e+00 1.8980120371e+00 3.2874532816e+00 
62800 6.9214106487e+00 -1.4930602822e-04 1.8980159336e+00 -3.2874600306e+00 1.8980159336e+00 3.2874600306e+00 
62900 6.9214106524e+00 -1.5044972303e-04 1.8980198668e+00 -3.2874668431e+00 1.8980198668e+00 3.2874668431e+00 
63000 6.9214106561e+00 -1.5134864892e-04 1.8980238301e+00 -3.2874737078e+00 1.8980238301e+00 3.2874737078e+00 
63100 6.9214106597e+00 -1.5200755819e-04 1.8980278172e+00 -3.2874806135e+00 1.8980278172e+00 3.2874806135e+00 
63200 6.9214106634e+00 -1.5243144794e-04 1.8980318215e+00 -3.2874875492e+00 1.8980318215e+00 3.2874875492e+00 
63300 6.9214106671e+00 -1.5262554668e-04 1.8980358370e+00 -3.2874945043e+00 1.8980358370e+00 3.2874945043e+00 
63400 6.9214106708e+00 -1.5259530080e-04 1.8980398576e+00 -3.2875014682e+00 1.8980398576e+00 3.2875014682e+00 
63500 6.9214106746e+00 -1.5234636112e-04 1.8980438775e+00 -3.2875084308e+00 1.8980438775e+00 3.2875084308e+00 
63600 6.9214106786e+00 -1.5188456942e-04 1.8980478907e+00 -3.2875153819e+00 1.8980478907e+00 3.2875153819e+00 
63700 6.9214106826e+00 -1.5121594498e-04 1.8980518918e+00 -3.2875223120e+00 1.8980518918e+00 3.2875223120e+00 
63800 6.9214106868e+00 -1.5034667121e-04 1.8980558752e+00 -3.2875292115e+00 1.8980558752e+00 3.2875292115e+00 
63900 6.9214106911e+00 -1.4928308234e-04 1.8980598358e+00 -3.2875360714e+00 1.8980598358e+00 3.2875360714e+00 
64000 6.9214106955e+00 -1.4803165018e-04 1.8980637683e+00 -3.2875428827e+00 1.8980637683e+00 3.2875428827e+00 
64100 6.9214107001e+00 -1.4659897099e-04 1.8980676678e+00 -3.2875496369e+00 1.8980676678e+00 3.2875496369e+00 
64200 6.9214107049e+00 -1.4499175251e-04 1.8980715296e+00 -3.2875563257e+00 1.8980715296e+00 3.2875563257e+00 
64300 6.9214107099e+00 -1.4321680112e-04 1.8980753491e+00 -3.2875629412e+00 1.8980753491e+00 3.2875629412e+00 
64400 6.9214107150e+00 -1.4128100907e-04 1.8980791218e+00 -3.2875694757e+00 1.8980791218e+00 3.2875694757e+00 
64500 6.9214107203e+00 -1.3919134206e-04 1.8980828435e+00 -3.2875759219e+00 1.8980828435e+00 3.2875759219e+00 
64600 6.9214107257e+00 -1.3695482680e-04 1.8980865101e+00 -3.2875822726e+00 1.8980865101e+00 3.2875822726e+00 
64700 6.9214107314e+00 -1.3457853896e-04 1.8980901178e+00 -3.2875885214e+00 1.8980901178e+00 3.2875885214e+00 
64800 6.9214107372e+00 -1.3206959120e-04 1.8980936629e+00 -3.2875946617e+00 1.8980936629e+00 3.2875946617e+00 
64900 6.9214107432e+00 -1.2943512148e-04 1.8980971419e+00 -3.2876006875e+00 1.8980971419e+00 3.2876006875e+00 
65000 6.9214107493e+00 -1.2668228165e-04 1.8981005515e+00 -3.2876065931e+00 1.8981005515e+00 3.2876065931e+00 
65100 6.9214107556e+00 -1.2381822620e-04 1.8981038886e+00 -3.2876123731e+00 1.8981038886e+00 3.2876123731e+00 
65200 6.9214107620e+00 -1.2085010138e-04 1.8981071502e+00 -3.2876180224e+00 1.8981071502e+00 3.2876180224e+00 
65300 6.9214107686e+00 -1.1778503447e-04 1.8981103337e+00 -3.2876235363e+00 1.8981103337e+00 3.2876235363e+00 
65400 6.9214107753e+00 -1.1463012349e-04 1.8981134364e+00 -3.2876289103e+00 1.8981134364e+00 3.2876289103e+00 
65500 6.9214107821e+00 -1.1139242704e-04 1.8981164559e+00 -3.2876341404e+00 1.8981164559e+00 3.2876341404e+00 
65600 6.9214107890e+00 -1.0807895455e-04 1.8981193902e+00 -3.2876392227e+00 1.8981193902e+00 3.2876392227e+00 
65700 6.9214107960e+00 -1.0469665680e-04 1.8981222372e+00 -3.2876441539e+00 1.8981222372e+00 3.2876441539e+00 
65800 6.9214108031e+00 -1.0125241678e-04 1.8981249951e+00 -3.2876489307e+00 1.8981249951e+00 3.2876489307e+00 
65900 6.9214108103e+00 -9.7753040825e-05 1.8981276623e+00 -3.2876535504e+00 1.8981276623e+00 3.2876535504e+00 
66000 6.9214108175e+00 -9.4205250118e-05 1.8981302373e+00 -3.2876580104e+00 1.8981302373e+00 3.2876580104e+00 
66100 6.9214108247e+00 -9.0615672531e-05 1.8981327188e+00 -3.2876623085e+00 1.8981327188e+00 3.2876623085e+00 
66200 6.9214108320e+00 -8.6990834766e-05 1.8981351058e+00 -3.2876664429e+00 1.8981351058e+00 3.2876664429e+00 
66300 6.9214108393e+00 -8.3337154880e-05 1.8981373973e+00 -3.2876704118e+00 1.8981373973e+00 3.2876704118e+00 
66400 6.9214108466e+00 -7.9660935130e-05 1.8981395925e+00 -3.2876742141e+00 1.8981395925e+00 3.2876742141e+00 
66500 6.9214108539e+00 -7.5968355159e-05 1.8981416909e+00 -3.2876778486e+00 1.8981416909e+00 3.2876778486e+00 
66600 6.9214108612e+00 -7.2265465573e-05 1.8981436920e+00 -3.2876813147e+00 1.8981436920e+00 3.2876813147e+00 
66700 6.9214108685e+00 -6.8558181828e-05 1.8981455956e+00 -3.2876846118e+00 1.8981455956e+00 3.2876846118e+00 
66800 6.9214108758e+00 -6.6671886862e-05 1.8981455956e+00 -3.2876846118e+00 1.8981455956e+00 3.2876846118e+00 
66900 6.9214108830e+00 -6.4704326729e-05 1.8981455956e+00 -3.2876846118e+00 1.8981455956e+00 3.2876846118e+00 
67000 6.9214108902e+00 -6.2661029733e-05 1.8981455956e+00 -3.2876846118e+00 1.8981455956e+00 3.2876846118e+00 
67100 6.9214108972e+00 -6.0547470948e-05 1.8981455956e+00 -3.2876846118e+00 1.8981455956e+00 3.2876846118e+00 
67200 6.9214109042e+00 -5.8369065907e-05 1.8981455956e+00 -3.2876846118e+00 1.8981455956e+00 3.2876846118e+00 
67300 6.9214109110e+00 -5.6131164555e-05 1.8981455956e+00 -3.2876846118e+00 1.8981455956e+00 3.2876846118e+00 
67400 6.9214109177e+00 -5.3839045452e-05 1.8981455956e+00 -3.2876846118e+00 1.8981455956e+00 3.2876846118e+00 
67500 6.9214109243e+00 -5.1497910217e-05 1.8981455956e+00 -3.2876846118e+00 1.8981455956e+00 3.2876846118e+00 
67600 6.9214109308e+00 -4.9112878244e-05 1.8981455956e+00 -3.2876846118e+00 1.8981455956e+00 3.2876846118e+00 
67700 6.9214109371e+00 -4.6688981655e-05 1.8981455956e+00 -3.2876846118e+00 1.8981455956e+00 3.2876846118e+00 
67800 6.9214109433e+00 -4.4231160530e-05 1.8981455956e+00 -3.2876846118e+00 1.8981455956e+00 3.2876846118e+00 
67900 6.9214109493e+00 -4.1744258373e-05 1.8981455956e+00 -3.2876846118e+00 1.8981455956e+00 3.2876846118e+00 
68000 6.9214109552e+00 -3.9233017858e-05 1.8981455956e+00 -3.2876846118e+00 1.8981455956e+00 3.2876846118e+00 
68100 6.9214109609e+00 -3.6702076823e-05 1.8981455956e+00 -3.2876846118e+00 1.8981455956e+00 3.2876846118e+00 
68200 6.9214109664e+00 -3.4155964513e-05 1.8981455956e+00 -3.2876846118e+00 1.8981455956e+00 3.2876846118e+00 
68300 6.9214109719e+00 -3.1599098085e-05 1.8981455956e+00 -3.2876846118e+00 1.8981455956e+00 3.2876846118e+00 
68400 6.9214109771e+00 -2.9035779389e-05 1.8981455956e+00 -3.2876846118e+00 1.8981455956e+00 3.2876846118e+00 
68500 6.9214109822e+00 -2.6470191957e-05 1.8981455956e+00 -3.2876846118e+00 1.8981455956e+00 3.2876846118e+00 
68600 6.9214109872e+00 -2.3906398286e-05 1.8981455956e+00 -3.2876846118e+00 1.8981455956e+00 3.2876846118e+00 
68700 6.9214109920e+00 -2.1348337339e-05 1.8981455956e+00 -3.2876846118e+00 1.8981455956e+00 3.2876846118e+00 
68800 6.9214109967e+00 -1.8799822311e-05 1.8981455956e+00 -3.2876846118e+00 1.8981455956e+00 3.2876846118e+00 
68900 6.9214110012e+00 -1.6264538631e-05 1.8981455956e+00 -3.2876846118e+00 1.8981455956e+00 3.2876846118e+00 
69000 6.9214110056e+00 -1.3746042193e-05 1.8981455956e+00 -3.2876846118e+00 1.8981455956e+00 3.2876846118e+00 
69100 6.9214110098e+00 -1.1247757844e-05 1.8981455956e+00 -3.2876846118e+00 1.8981455956e+00 3.2876846118e+00 
69200 6.9214110139e+00 -8.7729780801e-06 1.8981455956e+00 -3.2876846118e+00 1.8981455956e+00 3.2876846118e+00 
69300 6.9214110179e+00 -6.3248619862e-06 1.8981455956e+00 -3.2876846118e+00 1.8981455956e+00 3.2876846118e+00 
69400 6.9214110218e+00 -3.9064344036e-06 1.8981455956e+00 -3.2876846118e+00 1.8981455956e+00 3.2876846118e+00 
69500 6.9214110255e+00 -1.5205852858e-06 1.8981455956e+00 -3.2876846118e+00 1.8981455956e+00 3.2876846118e+00 
69600 6.9214110291e+00 8.2993069812e-07 1.8981455956e+00 -3.2876846118e+00 1.8981455956e+00 3.2876846118e+00 
69700 6.9214110327e+00 3.1424943637e-06 1.8981455956e+00 -3.2876846118e+00 1.8981455956e+00 3.2876846118e+00 
69800 6.9214110361e+00 5.4146220159e-06 1.8981455956e+00 -3.2876846118e+00 1.8981455956e+00 3.2876846118e+00 
69900 6.9214110394e+00 7.6439652452e-06 1.8981455956e+00 -3.2876846118e+00 1.8981455956e+00 3.2876846118e+00 
70000 6.9214110426e+00 9.8283105390e-06 1.8981455956e+00 -3.2876846118e+00 1.8981455956e+00 3.2876846118e+00 
70100 6.9214110457e+00 1.1965578697e-05 1.8981455956e+00 -3.2876846118e+00 1.8981455956e+00 3.2876846118e+00 
70200 6.9214110488e+00 1.4053824074e-05 1.8981455956e+00 -3.2876846118e+00 1.8981455956e+00 3.2876846118e+00 
70300 6.9214110518e+00 1.6091233646e-05 1.8981455956e+00 -3.2876846118e+00 1.8981455956e+00 3.2876846118e+00 
70400 6.9214110547e+00 1.8076125898e-05 1.8981455956e+00 -3.2876846118e+00 1.8981455956e+00 3.2876846118e+00 
70500 6.9214110575e+00 2.0006949570e-05 1.8981455956e+00 -3.2876846118e+00 1.8981455956e+00 3.2876846118e+00 
70600 6.9214110603e+00 2.1882282222e-05 1.8981455956e+00 -3.2876846118e+00 1.8981455956e+00 3.2876846118e+00 
70700 6.9214110630e+00 2.3700828665e-05 1.8981455956e+00 -3.2876846118e+00 1.8981455956e+00 3.2876846118e+00 
70800 6.9214110657e+00 2.5461419241e-05 1.8981455956e+00 -3.2876846118e+00 1.8981455956e+00 3.2876846118e+00 
70900 6.9214110683e+00 2.7163007964e-05 1.8981455956e+00 -3.2876846118e+00 1.8981455956e+00 3.2876846118e+00 
71000 6.9214110709e+00 2.8804670539e-05 1.8981455956e+00 -3.2876846118e+00 1.8981455956e+00 3.2876846118e+00 
71100 6.9214110735e+00 3.0385602249e-05 1.8981455956e+00 -3.2876846118e+00 1.8981455956e+00 3.2876846118e+00 
71200 6.9214110760e+00 3.1905115714e-05 1.8981455956e+00 -3.2876846118e+00 1.8981455956e+00 3.2876846118e+00 
71300 6.9214110785e+00 3.3362638567e-05 1.8981455956e+00 -3.2876846118e+00 1.8981455956e+00 3.2876846118e+00 
71400 6.9214110809e+00 3.4757710999e-05 1.8981455956e+00 -3.2876846118e+00 1.8981455956e+00 3.2876846118e+00 
71500 6.9214110834e+00 3.6089983208e-05 1.8981455956e+00 -3.2876846118e+00 1.8981455956e+00 3.2876846118e+00 
71600 6.9214110858e+00 3.7359212759e-05 1.8981455956e+00 -3.2876846118e+00 1.8981455956e+00 3.2876846118e+00 
71700 6.9214110882e+00 3.8565261879e-05 1.8981455956e+00 -3.2876846118e+00 1.8981455956e+00 3.2876846118e+00 
71800 6.9214110906e+00 3.9708094629e-05 1.8981455956e+00 -3.2876846118e+00 1.8981455956e+00 3.2876846118e+00 
71900 6.9214110929e+00 4.0787774041e-05 1.8981455956e+00 -3.2876846118e+00 1.8981455956e+00 3.2876846118e+00 
72000 6.9214110953e+00 4.1804459171e-05 1.8981455956e+00 -3.2876846118e+00 1.8981455956e+00 3.2876846118e+00 
72100 6.9214110977e+00 4.2758402095e-05 1.8981455956e+00 -3.2876846118e+00 1.8981455956e+00 3.2876846118e+00 
72200 6.9214111000e+00 4.3649944844e-05 1.8981455956e+00 -3.2876846118e+00 1.8981455956e+00 3.2876846118e+00 
72300 6.9214111024e+00 4.4479516306e-05 1.8981455956e+00 -3.2876846118e+00 1.8981455956e+00 3.2876846118e+00 
72400 6.9214111047e+00 4.5247629060e-05 1.8981455956e+00 -3.2876846118e+00 1.8981455956e+00 3.2876846118e+00 
72500 6.9214111070e+00 4.5954876209e-05 1.8981455956e+00 -3.2876846118e+00 1.8981455956e+00 3.2876846118e+00 
72600 6.9214111094e+00 4.6601928144e-05 1.8981455956e+00 -3.2876846118e+00 1.8981455956e+00 3.2876846118e+00 
72700 6.9214111117e+00 4.7189529301e-05 1.8981455956e+00 -3.2876846118e+00 1.8981455956e+00 3.2876846118e+00 
72800 6.9214111141e+00 4.7718494910e-05 1.8981455956e+00 -3.2876846118e+00 1.8981455956e+00 3.2876846118e+00 
72900 6.9214111164e+00 4.8189707703e-05 1.8981455956e+00 -3.2876846118e+00 1.8981455956e+00 3.2876846118e+00 
73000 6.9214111187e+00 4.8604114624e-05 1.8981455956e+00 -3.2876846118e+00 1.8981455956e+00 3.2876846118e+00 
73100 6.9214111211e+00 4.8962723555e-05 1.8981455956e+00 -3.2876846118e+00 1.8981455956e+00 3.2876846118e+00 
73200 6.9214111234e+00 4.9266600005e-05 1.8981455956e+00 -3.2876846118e+00 1.8981455956e+00 3.2876846118e+00 
73300 6.9214111257e+00 4.9516863836e-05 1.8981455956e+00 -3.2876846118e+00 1.8981455956e+00 3.2876846118e+00 
73400 6.9214111281e+00 4.9714685988e-05 1.8981455956e+00 -3.2876846118e+00 1.8981455956e+00 3.2876846118e+00 
73500 6.9214111304e+00 4.9861285213e-05 1.8981455956e+00 -3.2876846118e+00 1.8981455956e+00 3.2876846118e+00 
73600 6.9214111327e+00 4.9957924840e-05 1.8981455956e+00 -3.2876846118e+00 1.8981455956e+00 3.2876846118e+00 
73700 6.9214111350e+00 5.0005909560e-05 1.8981455956e+00 -3.2876846118e+00 1.8981455956e+00 3.2876846118e+00 
73800 6.9214111373e+00 5.0006582235e-05 1.8981455956e+00 -3.2876846118e+00 1.8981455956e+00 3.2876846118e+00 
73900 6.9214111396e+00 4.9961320742e-05 1.8981455956e+00 -3.2876846118e+00 1.8981455956e+00 3.2876846118e+00 
74000 6.9214111419e+00 4.9871534858e-05 1.8981455956e+00 -3.2876846118e+00 1.8981455956e+00 3.2876846118e+00 
74100 6.9214111442e+00 4.9738663180e-05 1.8981455956e+00 -3.2876846118e+00 1.8981455956e+00 3.2876846118e+00 
74200 6.9214111465e+00 4.9564170077e-05 1.8981455956e+00 -3.2876846118e+00 1.8981455956e+00 3.2876846118e+00 
74300 6.9214111488e+00 4.9349542716e-05 1.8981455956e+00 -3.2876846118e+00 1.8981455956e+00 3.2876846118e+00 
74400 6.9214111511e+00 4.9096288102e-05 1.8981455956e+00 -3.2876846118e+00 1.8981455956e+00 3.2876846118e+00 
74500 6.9214111533e+00 4.8805930217e-05 1.8981455956e+00 -3.2876846118e+00 1.8981455956e+00 3.2876846118e+00 
74600 6.9214111555e+00 4.8480007155e-05 1.8981455956e+00 -3.2876846118e+00 1.8981455956e+00 3.2876846118e+00 
74700 6.9214111577e+00 4.8120068378e-05 1.8981455956e+00 -3.2876846118e+00 1.8981455956e+00 3.2876846118e+00 
74800 6.9214111599e+00 4.7727671983e-05 1.8981455956e+00 -3.2876846118e+00 1.8981455956e+00 3.2876846118e+00 
74900 6.9214111621e+00 4.7304382057e-05 1.8981455956e+00 -3.2876846118e+00 1.8981455956e+00 3.2876846118e+00 
75000 6.9214111643e+00 4.6851766100e-05 1.8981455956e+00 -3.2876846118e+00 1.8981455956e+00 3.2876846118e+00 
75100 6.9214111664e+00 4.6371392501e-05 1.8981455956e+00 -3.2876846118e+00 1.8981455956e+00 3.2876846118e+00 
75200 6.9214111686e+00 4.5864828090e-05 1.8981455956e+00 -3.2876846118e+00 1.8981455956e+00 3.2876846118e+00 
75300 6.9214111707e+00 4.5333635770e-05 1.8981455956e+00 -3.2876846118e+00 1.8981455956e+00 3.2876846118e+00 
75400 6.9214111727e+00 4.4779372211e-05 1.8981455956e+00 -3.2876846118e+00 1.8981455956e+00 3.2876846118e+00 
75500 6.9214111748e+00 4.4203585609e-05 1.8981455956e+00 -3.2876846118e+00 1.8981455956e+00 3.2876846118e+00 
75600 6.9214111768e+00 4.3607813557e-05 1.8981455956e+00 -3.2876846118e+00 1.8981455956e+00 3.2876846118e+00 
75700 6.9214111788e+00 4.2993580948e-05 1.8981455956e+00 -3.2876846118e+00 1.8981455956e+00 3.2876846118e+00 
75800 6.9214111808e+00 4.2362397987e-05 1.8981455956e+00 -3.2876846118e+00 1.8981455956e+00 3.2876846118e+00 
75900 6.9214111828e+00 4.1715758271e-05 1.8981455956e+00 -3.2876846118e+00 1.8981455956e+00 3.2876846118e+00 
76000 6.9214111847e+00 4.1055136938e-05 1.8981455956e+00 -3.2876846118e+00 1.8981455956e+00 3.2876846118e+00 
76100 6.9214111866e+00 4.0381988927e-05 1.8981455956e+00 -3.2876846118e+00 1.8981455956e+00 3.2876846118e+00 
76200 6.9214111885e+00 3.9697747276e-05 1.8981455956e+00 -3.2876846118e+00 1.8981455956e+00 3.2876846118e+00 
76300 6.9214111903e+00 3.9003821541e-05 1.8981455956e+00 -3.2876846118e+00 1.8981455956e+00 3.2876846118e+00 
76400 6.9214111922e+00 3.8301596264e-05 1.8981455956e+00 -3.2876846118e+00 1.8981455956e+00 3.2876846118e+00 
76500 6.9214111939e+00 3.7592429545e-05 1.8981455956e+00 -3.2876846118e+00 1.8981455956e+00 3.2876846118e+00 
76600 6.9214111957e+00 3.6877651680e-05 1.8981455956e+00 -3.2876846118e+00 1.8981455956e+00 3.2876846118e+00 
76700 6.9214111974e+00 3.6158563888e-05 1.8981455956e+00 -3.2876846118e+00 1.8981455956e+00 3.2876846118e+00 
76800 6.9214111992e+00 3.5436437110e-05 1.8981455956e+00 -3.2876846118e+00 1.8981455956e+00 3.2876846118e+00 
76900 6.9214112008e+00 3.4712510903e-05 1.8981455956e+00 -3.2876846118e+00 1.8981455956e+00 3.2876846118e+00 
77000 6.9214112025e+00 3.3987992395e-05 1.8981455956e+00 -3.2876846118e+00 1.8981455956e+00 3.2876846118e+00 
77100 6.9214112041e+00 3.3264055327e-05 1.8981455956e+00 -3.2876846118e+00 1.8981455956e+00 3.2876846118e+00 
77200 6.9214112057e+00 3.2541839183e-05 1.8981455956e+00 -3.2876846118e+00 1.8981455956e+00 3.2876846118e+00 
77300 6.9214112073e+00 3.1822448386e-05 1.8981455956e+00 -3.2876846118e+00 1.8981455956e+00 3.2876846118e+00 
77400 6.9214112088e+00 3.1106951561e-05 1.8981455956e+00 -3.2876846118e+00 1.8981455956e+00 3.2876846118e+00 
77500 6.9214112104e+00 3.0396380892e-05 1.8981455956e+00 -3.2876846118e+00 1.8981455956e+00 3.2876846118e+00 
77600 6.9214112119e+00 2.9691731544e-05 1.8981455956e+00 -3.2876846118e+00 1.8981455956e+00 3.2876846118e+00 
77700 6.9214112133e+00 2.8993961165e-05 1.8981455956e+00 -3.2876846118e+00 1.8981455956e+00 3.2876846118e+00 
77800 6.9214112148e+00 2.8303989440e-05 1.8981455956e+00 -3.2876846118e+00 1.8981455956e+00 3.2876846118e+00 
77900 6.9214112162e+00 2.7622697751e-05 1.8981455956e+00 -3.2876846118e+00 1.8981455956e+00 3.2876846118e+00 
78000 6.9214112176e+00 2.6950928863e-05 1.8981455956e+00 -3.2876846118e+00 1.8981455956e+00 3.2876846118e+00 
78100 6.9214112190e+00 2.6289486708e-05 1.8981455956e+00 -3.2876846118e+00 1.8981455956e+00 3.2876846118e+00 
78200 6.9214112203e+00 2.5639136230e-05 1.8981455956e+00 -3.2876846118e+00 1.8981455956e+00 3.2876846118e+00 
78300 6.9214112217e+00 2.5000603283e-05 1.8981455956e+00 -3.2876846118e+00 1.8981455956e+00 3.2876846118e+00 
78400 6.9214112230e+00 2.4374574601e-05 1.8981455956e+00 -3.2876846118e+00 1.8981455956e+00 3.2876846118e+00 
78500 6.9214112243e+00 2.3761697826e-05 1.8981455956e+00 -3.2876846118e+00 1.8981455956e+00 3.2876846118e+00 
78600 6.9214112255e+00 2.3162581603e-05 1.8981455956e+00 -3.2876846118e+00 1.8981455956e+00 3.2876846118e+00 
78700 6.9214112268e+00 2.2577795711e-05 1.8981455956e+00 -3.2876846118e+00 1.8981455956e+00 3.2876846118e+00 
78800 6.9214112280e+00 2.2007871287e-05 1.8981455956e+00 -3.2876846118e+00 1.8981455956e+00 3.2876846118e+00 
78900 6.9214112292e+00 2.1453301054e-05 1.8981455956e+00 -3.2876846118e+00 1.8981455956e+00 3.2876846118e+00 
79000 6.9214112304e+00 2.0914539646e-05 1.8981455956e+00 -3.2876846118e+00 1.8981455956e+00 3.2876846118e+00 
79100 6.9214112316e+00 2.0392003966e-05 1.8981455956e+00 -3.2876846118e+00 1.8981455956e+00 3.2876846118e+00 
79200 6.9214112328e+00 1.9886073576e-05 1.8981455956e+00 -3.2876846118e+00 1.8981455956e+00 3.2876846118e+00 
79300 6.9214112339e+00 1.9397091168e-05 1.8981455956e+00 -3.2876846118e+00 1.8981455956e+00 3.2876846118e+00 
79400 6.9214112351e+00 1.8925363043e-05 1.8981455956e+00 -3.2876846118e+00 1.8981455956e+00 3.2876846118e+00 
79500 6.9214112362e+00 1.8471159657e-05 1.8981455956e+00 -3.2876846118e+00 1.8981455956e+00 3.2876846118e+00 
79600 6.9214112373e+00 1.8034716199e-05 1.8981455956e+00 -3.2876846118e+00 1.8981455956e+00 3.2876846118e+00 
79700 6.9214112384e+00 1.7616233204e-05 1.8981455956e+00 -3.2876846118e+00 1.8981455956e+00 3.2876846118e+00 
79800 6.9214112395e+00 1.7215877206e-05 1.8981455956e+00 -3.2876846118e+00 1.8981455956e+00 3.2876846118e+00 
79900 6.9214112405e+00 1.6833781425e-05 1.8981455956e+00 -3.2876846118e+00 1.8981455956e+00 3.2876846118e+00 
80000 6.9214112416e+00 1.6470046482e-05 1.8981455956e+00 -3.2876846118e+00 1.8981455956e+00 3.2876846118e+00 
80100 6.9214112426e+00 1.6124741159e-05 1.8981455956e+00 -3.2876846118e+00 1.8981455956e+00 3.2876846118e+00 
80200 6.9214112437e+00 1.5797903161e-05 1.8981455956e+00 -3.2876846118e+00 1.8981455956e+00 3.2876846118e+00 
80300 6.9214112447e+00 1.5489539933e-05 1.8981455956e+00 -3.2876846118e+00 1.8981455956e+00 3.2876846118e+00 
80400 6.9214112457e+00 1.5199629472e-05 1.8981455956e+00 -3.2876846118e+00 1.8981455956e+00 3.2876846118e+00 
80500 6.9214112467e+00 1.4928121198e-05 1.8981455956e+00 -3.2876846118e+00 1.8981455956e+00 3.2876846118e+00 
80600 6.9214112477e+00 1.4674936800e-05 1.8981455956e+00 -3.2876846118e+00 1.8981455956e+00 3.2876846118e+00 
80700 6.9214112487e+00 1.4439971150e-05 1.8981455956e+00 -3.2876846118e+00 1.8981455956e+00 3.2876846118e+00 
80800 6.9214112496e+00 1.4223093187e-05 1.8981455956e+00 -3.2876846118e+00 1.8981455956e+00 3.2876846118e+00 
80900 6.9214112506e+00 1.4024146851e-05 1.8981455956e+00 -3.2876846118e+00 1.8981455956e+00 3.2876846118e+00 
81000 6.9214112515e+00 1.3842952007e-05 1.8981455956e+00 -3.2876846118e+00 1.8981455956e+00 3.2876846118e+00 
81100 6.9214112525e+00 1.3679305402e-05 1.8981455956e+00 -3.2876846118e+00 1.8981455956e+00 3.2876846118e+00 
81200 6.9214112534e+00 1.3532981609e-05 1.8981455956e+00 -3.2876846118e+00 1.8981455956e+00 3.2876846118e+00 
81300 6.9214112543e+00 1.3403733987e-05 1.8981455956e+00 -3.2876846118e+00 1.8981455956e+00 3.2876846118e+00 
81400 6.9214112553e+00 1.3291295659e-05 1.8981455956e+00 -3.2876846118e+00 1.8981455956e+00 3.2876846118e+00 
81500 6.9214112562e+00 1.3195380477e-05 1.8981455956e+00 -3.2876846118e+00 1.8981455956e+00 3.2876846118e+00 
81600 6.9214112571e+00 1.3115684000e-05 1.8981455956e+00 -3.2876846118e+00 1.8981455956e+00 3.2876846118e+00 
81700 6.9214112580e+00 1.3051884466e-05 1.8981455956e+00 -3.2876846118e+00 1.8981455956e+00 3.2876846118e+00 
81800 6.9214112589e+00 1.3003643777e-05 1.8981455956e+00 -3.2876846118e+00 1.8981455956e+00 3.2876846118e+00 
81900 6.9214112597e+00 1.2970608468e-05 1.8981455956e+00 -3.2876846118e+00 1.8981455956e+00 3.2876846118e+00 
82000 6.9214112606e+00 1.2952410669e-05 1.8981455956e+00 -3.2876846118e+00 1.8981455956e+00 3.2876846118e+00 
82100 6.9214112615e+00 1.2948669092e-05 1.8981455956e+00 -3.2876846118e+00 1.8981455956e+00 3.2876846118e+00 
82200 6.9214112623e+00 1.2958989969e-05 1.8981455956e+00 -3.2876846118e+00 1.8981455956e+00 3.2876846118e+00 
82300 6.9214112632e+00 1.2982968027e-05 1.8981455956e+00 -3.2876846118e+00 1.8981455956e+00 3.2876846118e+00 
82400 6.9214112640e+00 1.3020187416e-05 1.8981455956e+00 -3.2876846118e+00 1.8981455956e+00 3.2876846118e+00 
82500 6.9214112648e+00 1.3070222648e-05 1.8981455956e+00 -3.2876846118e+00 1.8981455956e+00 3.2876846118e+00 
82600 6.9214112656e+00 1.3132639528e-05 1.8981455956e+00 -3.2876846118e+00 1.8981455956e+00 3.2876846118e+00 
82700 6.9214112665e+00 1.3206996058e-05 1.8981455956e+00 -3.2876846118e+00 1.8981455956e+00 3.2876846118e+00 
82800 6.9214112673e+00 1.3292843336e-05 1.8981455956e+00 -3.2876846118e+00 1.8981455956e+00 3.2876846118e+00 
82900 6.9214112681e+00 1.3389726451e-05 1.8981455956e+00 -3.2876846118e+00 1.8981455956e+00 3.2876846118e+00 
83000 6.9214112688e+00 1.3497185338e-05 1.8981455956e+00 -3.2876846118e+00 1.8981455956e+00 3.2876846118e+00 
83100 6.9214112696e+00 1.3614755646e-05 1.8981455956e+00 -3.2876846118e+00 1.8981455956e+00 3.2876846118e+00 
83200 6.9214112704e+00 1.3741969562e-05 1.8981455956e+00 -3.2876846118e+00 1.8981455956e+00 3.2876846118e+00 
83300 6.9214112712e+00 1.3878356643e-05 1.8981455956e+00 -3.2876846118e+00 1.8981455956e+00 3.2876846118e+00 
83400 6.9214112719e+00 1.4023444610e-05 1.8981455956e+00 -3.2876846118e+00 1.8981455956e+00 3.2876846118e+00 
83500 6.9214112727e+00 1.4176760126e-05 1.8981455956e+00 -3.2876846118e+00 1.8981455956e+00 3.2876846118e+00 
83600 6.9214112734e+00 1.4337829566e-05 1.8981455956e+00 -3.2876846118e+00 1.8981455956e+00 3.2876846118e+00 
83700 6.9214112741e+00 1.4506179754e-05 1.8981455956e+00 -3.2876846118e+00 1.8981455956e+00 3.2876846118e+00 
83800 6.9214112749e+00 1.4681338685e-05 1.8981455956e+00 -3.2876846118e+00 1.8981455956e+00 3.2876846118e+00 
83900 6.9214112756e+00 1.4862836222e-05 1.8981455956e+00 -3.2876846118e+00 1.8981455956e+00 3.2876846118e+00 
84000 6.9214112763e+00 1.5050204777e-05 1.8981455956e+00 -3.2876846118e+00 1.8981455956e+00 3.2876846118e+00 
84100 6.9214112770e+00 1.5242979969e-05 1.8981455956e+00 -3.2876846118e+00 1.8981455956e+00 3.2876846118e+00 
84200 6.9214112777e+00 1.5440701236e-05 1.8981455956e+00 -3.2876846118e+00 1.8981455956e+00 3.2876846118e+00 
84300 6.9214112784e+00 1.5642912469e-05 1.8981455956e+00 -3.2876846118e+00 1.8981455956e+00 3.2876846118e+00 
84400 6.9214112790e+00 1.5849162583e-05 1.8981455956e+00 -3.2876846118e+00 1.8981455956e+00 3.2876846118e+00 
84500 6.9214112797e+00 1.6059006079e-05 1.8981455956e+00 -3.2876846118e+00 1.8981455956e+00 3.2876846118e+00 
84600 6.9214112804e+00 1.6272003586e-05 1.8981455956e+00 -3.2876846118e+00 1.8981455956e+00 3.2876846118e+00 
84700 6.9214112810e+00 1.6487722377e-05 1.8981455956e+00 -3.2876846118e+00 1.8981455956e+00 3.2876846118e+00 
84800 6.9214112817e+00 1.6705736844e-05 1.8981455956e+00 -3.2876846118e+00 1.8981455956e+00 3.2876846118e+00 
84900 6.9214112823e+00 1.6925628981e-05 1.8981455956e+00 -3.2876846118e+00 1.8981455956e+00 3.2876846118e+00 
85000 6.9214112829e+00 1.7146988814e-05 1.8981455956e+00 -3.2876846118e+00 1.8981455956e+00 3.2876846118e+00 
85100 6.9214112835e+00 1.7369414819e-05 1.8981455956e+00 -3.2876846118e+00 1.8981455956e+00 3.2876846118e+00 
85200 6.9214112842e+00 1.7592514320e-05 1.8981455956e+00 -3.2876846118e+00 1.8981455956e+00 3.2876846118e+00 
85300 6.9214112848e+00 1.7815903841e-05 1.8981455956e+00 -3.2876846118e+00 1.8981455956e+00 3.2876846118e+00 
85400 6.9214112853e+00 1.8039209471e-05 1.8981455956e+00 -3.2876846118e+00 1.8981455956e+00 3.2876846118e+00 
85500 6.9214112859e+00 1.8262067166e-05 1.8981455956e+00 -3.2876846118e+00 1.8981455956e+00 3.2876846118e+00 
85600 6.9214112865e+00 1.8484123062e-05 1.8981455956e+00 -3.2876846118e+00 1.8981455956e+00 3.2876846118e+00 
85700 6.9214112871e+00 1.8705033729e-05 1.8981455956e+00 -3.2876846118e+00 1.8981455956e+00 3.2876846118e+00 
85800 6.9214112877e+00 1.8924466429e-05 1.8981455956e+00 -3.2876846118e+00 1.8981455956e+00 3.2876846118e+00 
85900 6.9214112882e+00 1.9142099344e-05 1.8981455956e+00 -3.2876846118e+00 1.8981455956e+00 3.2876846118e+00 
86000 6.9214112888e+00 1.9357621776e-05 1.8981455956e+00 -3.2876846118e+00 1.8981455956e+00 3.2876846118e+00 
86100 6.9214112893e+00 1.9570734323e-05 1.8981455956e+00 -3.2876846118e+00 1.8981455956e+00 3.2876846118e+00 
86200 6.9214112898e+00 1.9781149049e-05 1.8981455956e+00 -3.2876846118e+00 1.8981455956e+00 3.2876846118e+00 
86300 6.9214112904e+00 1.9988589606e-05 1.8981455956e+00 -3.2876846118e+00 1.8981455956e+00 3.2876846118e+00 
86400 6.9214112909e+00 2.0192791360e-05 1.8981455956e+00 -3.2876846118e+00 1.8981455956e+00 3.2876846118e+00 
86500 6.9214112914e+00 2.0393501478e-05 1.8981455956e+00 -3.2876846118e+00 1.8981455956e+00 3.2876846118e+00 
86600 6.9214112919e+00 2.0590479009e-05 1.8981455956e+00 -3.2876846118e+00 1.8981455956e+00 3.2876846118e+00 
86700 6.9214112924e+00 2.0783494925e-05 1.8981455956e+00 -3.2876846118e+00 1.8981455956e+00 3.2876846118e+00 
86800 6.9214112929e+00 2.0972332167e-05 1.8981455956e+00 -3.2876846118e+00 1.8981455956e+00 3.2876846118e+00 
86900 6.9214112934e+00 2.1156785654e-05 1.8981455956e+00 -3.2876846118e+00 1.8981455956e+00 3.2876846118e+00 
87000 6.9214112939e+00 2.1336662275e-05 1.8981455956e+00 -3.2876846118e+00 1.8981455956e+00 3.2876846118e+00 
87100 6.9214112944e+00 2.1511780874e-05 1.8981455956e+00 -3.2876846118e+00 1.8981455956e+00 3.2876846118e+00 
87200 6.9214112949e+00 2.1681972204e-05 1.8981455956e+00 -3.2876846118e+00 1.8981455956e+00 3.2876846118e+00 
87300 6.9214112953e+00 2.1847078872e-05 1.8981455956e+00 -3.2876846118e+00 1.8981455956e+00 3.2876846118e+00 
87400 6.9214112958e+00 2.2006955271e-05 1.8981455956e+00 -3.2876846118e+00 1.8981455956e+00 3.2876846118e+00 
87500 6.9214112962e+00 2.2161467471e-05 1.8981455956e+00 -3.2876846118e+00 1.8981455956e+00 3.2876846118e+00 
87600 6.9214112967e+00 2.2310493139e-05 1.8981455956e+00 -3.2876846118e+00 1.8981455956e+00 3.2876846118e+00 
87700 6.9214112971e+00 2.2453921401e-05 1.8981455956e+00 -3.2876846118e+00 1.8981455956e+00 3.2876846118e+00 
87800 6.9214112976e+00 2.2591652715e-05 1.8981455956e+00 -3.2876846118e+00 1.8981455956e+00 3.2876846118e+00 
87900 6.9214112980e+00 2.2723598723e-05 1.8981455956e+00 -3.2876846118e+00 1.8981455956e+00 3.2876846118e+00 
88000 6.9214112984e+00 2.2849682087e-05 1.8981455956e+00 -3.2876846118e+00 1.8981455956e+00 3.2876846118e+00 
88100 6.9214112989e+00 2.2969836320e-05 1.8981455956e+00 -3.2876846118e+00 1.8981455956e+00 3.2876846118e+00 
88200 6.9214112993e+00 2.3084005595e-05 1.8981455956e+00 -3.2876846118e+00 1.8981455956e+00 3.2876846118e+00 
88300 6.9214112997e+00 2.3192144555e-05 1.8981455956e+00 -3.2876846118e+00 1.8981455956e+00 3.2876846118e+00 
88400 6.9214113001e+00 2.3294218103e-05 1.8981455956e+00 -3.2876846118e+00 1.8981455956e+00 3.2876846118e+00 
88500 6.9214113005e+00 2.3390201179e-05 1.8981455956e+00 -3.2876846118e+00 1.8981455956e+00 3.2876846118e+00 
88600 6.9214113009e+00 2.3480078547e-05 1.8981455956e+00 -3.2876846118e+00 1.8981455956e+00 3.2876846118e+00 
88700 6.9214113013e+00 2.3563844544e-05 1.8981455956e+00 -3.2876846118e+00 1.8981455956e+00 3.2876846118e+00 
88800 6.9214113017e+00 2.3641502851e-05 1.8981455956e+00 -3.2876846118e+00 1.8981455956e+00 3.2876846118e+00 
88900 6.9214113021e+00 2.3713066230e-05 1.8981455956e+00 -3.2876846118e+00 1.8981455956e+00 3.2876846118e+00 
89000 6.9214113025e+00 2.3778556269e-05 1.8981455956e+00 -3.2876846118e+00 1.8981455956e+00 3.2876846118e+00 
89100 6.9214113029e+00 2.3838003126e-05 1.8981455956e+00 -3.2876846118e+00 1.8981455956e+00 3.2876846118e+00 
89200 6.9214113032e+00 2.3891445244e-05 1.8981455956e+00 -3.2876846118e+00 1.8981455956e+00 3.2876846118e+00 
89300 6.9214113036e+00 2.3938929083e-05 1.8981455956e+00 -3.2876846118e+00 1.8981455956e+00 3.2876846118e+00 
89400 6.9214113040e+00 2.3980508840e-05 1.8981455956e+00 -3.2876846118e+00 1.8981455956e+00 3.2876846118e+00 
89500 6.9214113043e+00 2.4016246164e-05 1.8981455956e+00 -3.2876846118e+00 1.8981455956e+00 3.2876846118e+00 
89600 6.9214113047e+00 2.4046209864e-05 1.8981455956e+00 -3.2876846118e+00 1.8981455956e+00 3.2876846118e+00 
89700 6.9214113050e+00 2.4070475617e-05 1.8981455956e+00 -3.2876846118e+00 1.8981455956e+00 3.2876846118e+00 
89800 6.9214113054e+00 2.4089125683e-05 1.8981455956e+00 -3.2876846118e+00 1.8981455956e+00 3.2876846118e+00 
89900 6.9214113057e+00 2.4102248592e-05 1.8981455956e+00 -3.2876846118e+00 1.8981455956e+00 3.2876846118e+00 
90000 6.9214113061e+00 2.4109938863e-05 1.8981455956e+00 -3.2876846118e+00 1.8981455956e+00 3.2876846118e+00 
90100 6.9214113064e+00 2.4112296695e-05 1.8981455956e+00 -3.2876846118e+00 1.8981455956e+00 3.2876846118e+00 
90200 6.9214113068e+00 2.4109427674e-05 1.8981455956e+00 -3.2876846118e+00 1.8981455956e+00 3.2876846118e+00 
90300 6.9214113071e+00 2.4101442465e-05 1.8981455956e+00 -3.2876846118e+00 1.8981455956e+00 3.2876846118e+00 
90400 6.9214113074e+00 2.4088456520e-05 1.8981455956e+00 -3.2876846118e+00 1.8981455956e+00 3.2876846118e+00 
90500 6.9214113077e+00 2.4070589778e-05 1.8981455956e+00 -3.2876846118e+00 1.8981455956e+00 3.2876846118e+00 
90600 6.9214113081e+00 2.4047966367e-05 1.8981455956e+00 -3.2876846118e+00 1.8981455956e+00 3.2876846118e+00 
90700 6.9214113084e+00 2.4020714302e-05 1.8981455956e+00 -3.2876846118e+00 1.8981455956e+00 3.2876846118e+00 
90800 6.9214113087e+00 2.3988965205e-05 1.8981455956e+00 -3.2876846118e+00 1.8981455956e+00 3.2876846118e+00 
90900 6.9214113090e+00 2.3952854006e-05 1.8981455956e+00 -3.2876846118e+00 1.8981455956e+00 3.2876846118e+00 
91000 6.9214113093e+00 2.3912518647e-05 1.8981455956e+00 -3.2876846118e+00 1.8981455956e+00 3.2876846118e+00 
91100 6.9214113096e+00 2.3868099815e-05 1.8981455956e+00 -3.2876846118e+00 1.8981455956e+00 3.2876846118e+00 
91200 6.9214113099e+00 2.3819740644e-05 1.8981455956e+00 -3.2876846118e+00 1.8981455956e+00 3.2876846118e+00 
91300 6.9214113102e+00 2.3767586446e-05 1.8981455956e+00 -3.2876846118e+00 1.8981455956e+00 3.2876846118e+00 
91400 6.9214113105e+00 2.3711784434e-05 1.8981455956e+00 -3.2876846118e+00 1.8981455956e+00 3.2876846118e+00 
91500 6.9214113108e+00 2.3652483451e-05 1.8981455956e+00 -3.2876846118e+00 1.8981455956e+00 3.2876846118e+00 
91600 6.9214113111e+00 2.3589833714e-05 1.8981455956e+00 -3.2876846118e+00 1.8981455956e+00 3.2876846118e+00 
91700 6.9214113114e+00 2.3523986541e-05 1.8981455956e+00 -3.2876846118e+00 1.8981455956e+00 3.2876846118e+00 
91800 6.9214113117e+00 2.3455094112e-05 1.8981455956e+00 -3.2876846118e+00 1.8981455956e+00 3.2876846118e+00 
91900 6.9214113119e+00 2.3383309205e-05 1.8981455956e+00 -3.2876846118e+00 1.8981455956e+00 3.2876846118e+00 
92000 6.9214113122e+00 2.3308784967e-05 1.8981455956e+00 -3.2876846118e+00 1.8981455956e+00 3.2876846118e+00 
92100 6.9214113125e+00 2.3231674668e-05 1.8981455956e+00 -3.2876846118e+00 1.8981455956e+00 3.2876846118e+00 
92200 6.9214113127e+00 2.3152131476e-05 1.8981455956e+00 -3.2876846118e+00 1.8981455956e+00 3.2876846118e+00 
92300 6.9214113130e+00 2.3070308223e-05 1.8981455956e+00 -3.2876846118e+00 1.8981455956e+00 3.2876846118e+00 
92400 6.9214113133e+00 2.2986357200e-05 1.8981455956e+00 -3.2876846118e+00 1.8981455956e+00 3.2876846118e+00 
92500 6.9214113135e+00 2.2900429937e-05 1.8981455956e+00 -3.2876846118e+00 1.8981455956e+00 3.2876846118e+00 
92600 6.9214113138e+00 2.2812676998e-05 1.8981455956e+00 -3.2876846118e+00 1.8981455956e+00 3.2876846118e+00 
92700 6.9214113140e+00 2.2723247794e-05 1.8981455956e+00 -3.2876846118e+00 1.8981455956e+00 3.2876846118e+00 
92800 6.9214113143e+00 2.2632290374e-05 1.8981455956e+00 -3.2876846118e+00 1.8981455956e+00 3.2876846118e+00 
92900 6.9214113145e+00 2.2539951257e-05 1.8981455956e+00 -3.2876846118e+00 1.8981455956e+00 3.2876846118e+00 
93000 6.9214113148e+00 2.2446375256e-05 1.8981455956e+00 -3.2876846118e+00 1.8981455956e+00 3.2876846118e+00 
93100 6.9214113150e+00 2.2351705298e-05 1.8981455956e+00 -3.2876846118e+00 1.8981455956e+00 3.2876846118e+00 
93200 6.9214113153e+00 2.2256082266e-05 1.8981455956e+00 -3.2876846118e+00 1.8981455956e+00 3.2876846118e+00 
93300 6.9214113155e+00 2.2159644851e-05 1.8981455956e+00 -3.2876846118e+00 1.8981455956e+00 3.2876846118e+00 
93400 6.9214113157e+00 2.2062529404e-05 1.8981455956e+00 -3.2876846118e+00 1.8981455956e+00 3.2876846118e+00 
93500 6.9214113160e+00 2.1964869788e-05 1.8981455956e+00 -3.2876846118e+00 1.8981455956e+00 3.2876846118e+00 
93600 6.9214113162e+00 2.1866797252e-05 1.8981455956e+00 -3.2876846118e+00 1.8981455956e+00 3.2876846118e+00 
93700 6.9214113164e+00 2.1768440310e-05 1.8981455956e+00 -3.2876846118e+00 1.8981455956e+00 3.2876846118e+00 
93800 6.9214113166e+00 2.1669924622e-05 1.8981455956e+00 -3.2876846118e+00 1.8981455956e+00 3.2876846118e+00 
93900 6.9214113169e+00 2.1571372874e-05 1.8981455956e+00 -3.2876846118e+00 1.8981455956e+00 3.2876846118e+00 
94000 6.9214113171e+00 2.1472904691e-05 1.8981455956e+00 -3.2876846118e+00 1.8981455956e+00 3.2876846118e+00 
94100 6.9214113173e+00 2.1374636533e-05 1.8981455956e+00 -3.2876846118e+00 1.8981455956e+00 3.2876846118e+00 
94200 6.9214113175e+00 2.1276681612e-05 1.8981455956e+00 -3.2876846118e+00 1.8981455956e+00 3.2876846118e+00 
94300 6.9214113177e+00 2.1179149806e-05 1.8981455956e+00 -3.2876846118e+00 1.8981455956e+00 3.2876846118e+00 
94400 6.9214113179e+00 2.1082147588e-05 1.8981455956e+00 -3.2876846118e+00 1.8981455956e+00 3.2876846118e+00 
94500 6.9214113181e+00 2.0985777964e-05 1.8981455956e+00 -3.2876846118e+00 1.8981455956e+00 3.2876846118e+00 
94600 6.9214113183e+00 2.0890140407e-05 1.8981455956e+00 -3.2876846118e+00 1.8981455956e+00 3.2876846118e+00 
94700 6.9214113185e+00 2.0795330809e-05 1.8981455956e+00 -3.2876846118e+00 1.8981455956e+00 3.2876846118e+00 
94800 6.9214113187e+00 2.0701441434e-05 1.8981455956e+00 -3.2876846118e+00 1.8981455956e+00 3.2876846118e+00 
94900 6.9214113189e+00 2.0608560872e-05 1.8981455956e+00 -3.2876846118e+00 1.8981455956e+00 3.2876846118e+00 
95000 6.9214113191e+00 2.0516774025e-05 1.8981455956e+00 -3.2876846118e+00 1.8981455956e+00 3.2876846118e+00 
95100 6.9214113193e+00 2.0426162060e-05 1.8981455956e+00 -3.2876846118e+00 1.8981455956e+00 3.2876846118e+00 
95200 6.9214113195e+00 2.0336802397e-05 1.8981455956e+00 -3.2876846118e+00 1.8981455956e+00 3.2876846118e+00 
95300 6.9214113197e+00 2.0248768699e-05 1.8981455956e+00 -3.2876846118e+00 1.8981455956e+00 3.2876846118e+00 
95400 6.9214113199e+00 2.0162130863e-05 1.8981455956e+00 -3.2876846118e+00 1.8981455956e+00 3.2876846118e+00 
95500 6.9214113201e+00 2.0076955009e-05 1.8981455956e+00 -3.2876846118e+00 1.8981455956e+00 3.2876846118e+00 
95600 6.9214113202e+00 1.9993303494e-05 1.8981455956e+00 -3.2876846118e+00 1.8981455956e+00 3.2876846118e+00 
95700 6.9214113204e+00 1.9911234919e-05 1.8981455956e+00 -3.2876846118e+00 1.8981455956e+00 3.2876846118e+00 
95800 6.9214113206e+00 1.9830804143e-05 1.8981455956e+00 -3.2876846118e+00 1.8981455956e+00 3.2876846118e+00 
95900 6.9214113208e+00 1.9752062295e-05 1.8981455956e+00 -3.2876846118e+00 1.8981455956e+00 3.2876846118e+00 
96000 6.9214113209e+00 1.9675056805e-05 1.8981455956e+00 -3.2876846118e+00 1.8981455956e+00 3.2876846118e+00 
96100 6.9214113211e+00 1.9599831446e-05 1.8981455956e+00 -3.2876846118e+00 1.8981455956e+00 3.2876846118e+00 
96200 6.9214113213e+00 1.9526426342e-05 1.8981455956e+00 -3.2876846118e+00 1.8981455956e+00 3.2876846118e+00 
96300 6.9214113215e+00 1.9454878025e-05 1.8981455956e+00 -3.2876846118e+00 1.8981455956e+00 3.2876846118e+00 
96400 6.9214113216e+00 1.9385219474e-05 1.8981455956e+00 -3.2876846118e+00 1.8981455956e+00 3.2876846118e+00 
96500 6.9214113218e+00 1.9317480159e-05 1.8981455956e+00 -3.2876846118e+00 1.8981455956e+00 3.2876846118e+00 
96600 6.9214113219e+00 1.9251686096e-05 1.8981455956e+00 -3.2876846118e+00 1.8981455956e+00 3.2876846118e+00 
96700 6.9214113221e+00 1.9187859897e-05 1.8981455956e+00 -3.2876846118e+00 1.8981455956e+00 3.2876846118e+00 
96800 6.9214113223e+00 1.9126020831e-05 1.8981455956e+00 -3.2876846118e+00 1.8981455956e+00 3.2876846118e+00 
96900 6.9214113224e+00 1.9066184893e-05 1.8981455956e+00 -3.2876846118e+00 1.8981455956e+00 3.2876846118e+00 
97000 6.9214113226e+00 1.9008364854e-05 1.8981455956e+00 -3.2876846118e+00 1.8981455956e+00 3.2876846118e+00 
97100 6.9214113227e+00 1.8952570334e-05 1.8981455956e+00 -3.2876846118e+00 1.8981455956e+00 3.2876846118e+00 
97200 6.9214113229e+00 1.8898807881e-05 1.8981455956e+00 -3.2876846118e+00 1.8981455956e+00 3.2876846118e+00 
97300 6.9214113230e+00 1.8847081037e-05 1.8981455956e+00 -3.2876846118e+00 1.8981455956e+00 3.2876846118e+00 
97400 6.9214113232e+00 1.8797390416e-05 1.8981455956e+00 -3.2876846118e+00 1.8981455956e+00 3.2876846118e+00 
97500 6.9214113233e+00 1.8749733779e-05 1.8981455956e+00 -3.2876846118e+00 1.8981455956e+00 3.2876846118e+00 
97600 6.9214113235e+00 1.8704106117e-05 1.8981455956e+00 -3.2876846118e+00 1.8981455956e+00 3.2876846118e+00 
97700 6.9214113236e+00 1.8660499735e-05 1.8981455956e+00 -3.2876846118e+00 1.8981455956e+00 3.2876846118e+00 
97800 6.9214113237e+00 1.8618904332e-05 1.8981455956e+00 -3.2876846118e+00 1.8981455956e+00 3.2876846118e+00 
97900 6.9214113239e+00 1.8579307091e-05 1.8981455956e+00 -3.2876846118e+00 1.8981455956e+00 3.2876846118e+00 
98000 6.9214113240e+00 1.8541692754e-05 1.8981455956e+00 -3.2876846118e+00 1.8981455956e+00 3.2876846118e+00 
98100 6.9214113241e+00 1.8506043731e-05 1.8981455956e+00 -3.2876846118e+00 1.8981455956e+00 3.2876846118e+00 
98200 6.9214113243e+00 1.8472340170e-05 1.8981455956e+00 -3.2876846118e+00 1.8981455956e+00 3.2876846118e+00 
98300 6.9214113244e+00 1.8440560058e-05 1.8981455956e+00 -3.2876846118e+00 1.8981455956e+00 3.2876846118e+00 
98400 6.9214113245e+00 1.8410679309e-05 1.8981455956e+00 -3.2876846118e+00 1.8981455956e+00 3.2876846118e+00 
98500 6.9214113247e+00 1.8382671851e-05 1.8981455956e+00 -3.2876846118e+00 1.8981455956e+00 3.2876846118e+00 
98600 6.9214113248e+00 1.8356509726e-05 1.8981455956e+00 -3.2876846118e+00 1.8981455956e+00 3.2876846118e+00 
98700 6.9214113249e+00 1.8332163179e-05 1.8981455956e+00 -3.2876846118e+00 1.8981455956e+00 3.2876846118e+00 
98800 6.9214113251e+00 1.8309600743e-05 1.8981455956e+00 -3.2876846118e+00 1.8981455956e+00 3.2876846118e+00 
98900 6.9214113252e+00 1.8288789346e-05 1.8981455956e+00 -3.2876846118e+00 1.8981455956e+00 3.2876846118e+00 
99000 6.9214113253e+00 1.8269694390e-05 1.8981455956e+00 -3.2876846118e+00 1.8981455956e+00 3.2876846118e+00 
99100 6.9214113254e+00 1.8252279853e-05 1.8981455956e+00 -3.2876846118e+00 1.8981455956e+00 3.2876846118e+00 
99200 6.9214113255e+00 1.8236508371e-05 1.8981455956e+00 -3.2876846118e+00 1.8981455956e+00 3.2876846118e+00 
99300 6.9214113257e+00 1.8222341336e-05 1.8981455956e+00 -3.2876846118e+00 1.8981455956e+00 3.2876846118e+00 
99400 6.9214113258e+00 1.8209738988e-05 1.8981455956e+00 -3.2876846118e+00 1.8981455956e+00 3.2876846118e+00 
99500 6.9214113259e+00 1.8198660496e-05 1.8981455956e+00 -3.2876846118e+00 1.8981455956e+00 3.2876846118e+00 
99600 6.9214113260e+00 1.8189064055e-05 1.8981455956e+00 -3.2876846118e+00 1.8981455956e+00 3.2876846118e+00 
99700 6.9214113261e+00 1.8180906971e-05 1.8981455956e+00 -3.2876846118e+00 1.8981455956e+00 3.2876846118e+00 
99800 6.9214113262e+00 1.8174145746e-05 1.8981455956e+00 -3.2876846118e+00 1.8981455956e+00 3.2876846118e+00 
99900 6.9214113263e+00 1.8168736164e-05 1.8981455956e+00 -3.2876846118e+00 1.8981455956e+00 3.2876846118e+00 
100000 6.9214113264e+00 1.8164633378e-05 1.8981455956e+00 -3.2876846118e+00 1.8981455956e+00 3.2876846118e+00 
100100 6.9214113266e+00 1.8161791996e-05 1.8981455956e+00 -3.2876846118e+00 1.8981455956e+00 3.2876846118e+00 
100200 6.9214113267e+00 1.8160166151e-05 1.8981455956e+00 -3.2876846118e+00 1.8981455956e+00 3.2876846118e+00 
100300 6.9214113268e+00 1.8159709590e-05 1.8981455956e+00 -3.2876846118e+00 1.8981455956e+00 3.2876846118e+00 
100400 6.9214113269e+00 1.8160375750e-05 1.8981455956e+00 -3.2876846118e+00 1.8981455956e+00 3.2876846118e+00 
100500 6.9214113270e+00 1.8162117835e-05 1.8981455956e+00 -3.2876846118e+00 1.8981455956e+00 3.2876846118e+00 
100600 6.9214113271e+00 1.8164888890e-05 1.8981455956e+00 -3.2876846118e+00 1.8981455956e+00 3.2876846118e+00 
100700 6.9214113272e+00 1.8168641874e-05 1.8981455956e+00 -3.2876846118e+00 1.8981455956e+00 3.2876846118e+00 
100800 6.9214113273e+00 1.8173329732e-05 1.8981455956e+00 -3.2876846118e+00 1.8981455956e+00 3.2876846118e+00 
100900 6.9214113274e+00 1.8178905464e-05 1.8981455956e+00 -3.2876846118e+00 1.8981455956e+00 3.2876846118e+00 
101000 6.9214113275e+00 1.8185322191e-05 1.8981455956e+00 -3.2876846118e+00 1.8981455956e+00 3.2876846118e+00 
101100 6.9214113276e+00 1.8192533218e-05 1.8981455956e+00 -3.2876846118e+00 1.8981455956e+00 3.2876846118e+00 
101200 6.9214113277e+00 1.8200492108e-05 1.8981455956e+00 -3.2876846118e+00 1.8981455956e+00 3.2876846118e+00 
101300 6.9214113278e+00 1.8209152727e-05 1.8981455956e+00 -3.2876846118e+00 1.8981455956e+00 3.2876846118e+00 
101400 6.9214113279e+00 1.8218469319e-05 1.8981455956e+00 -3.2876846118e+00 1.8981455956e+00 3.2876846118e+00 
101500 6.9214113279e+00 1.8228396547e-05 1.8981455956e+00 -3.2876846118e+00 1.8981455956e+00 3.2876846118e+00 
101600 6.9214113280e+00 1.8238889560e-05 1.8981455956e+00 -3.2876846118e+00 1.8981455956e+00 3.2876846118e+00 
101700 6.9214113281e+00 1.8249904036e-05 1.8981455956e+00 -3.2876846118e+00 1.8981455956e+00 3.2876846118e+00 
101800 6.9214113282e+00 1.8261396238e-05 1.8981455956e+00 -3.2876846118e+00 1.8981455956e+00 3.2876846118e+00 
101900 6.9214113283e+00 1.8273323064e-05 1.8981455956e+00 -3.2876846118e+00 1.8981455956e+00 3.2876846118e+00 
102000 6.9214113284e+00 1.8285642083e-05 1.8981455956e+00 -3.2876846118e+00 1.8981455956e+00 3.2876846118e+00 
102100 6.9214113285e+00 1.8298311585e-05 1.8981455956e+00 -3.2876846118e+00 1.8981455956e+00 3.2876846118e+00 
102200 6.9214113286e+00 1.8311290624e-05 1.8981455956e+00 -3.2876846118e+00 1.8981455956e+00 3.2876846118e+00 
102300 6.9214113286e+00 1.8324539054e-05 1.8981455956e+00 -3.2876846118e+00 1.8981455956e+00 3.2876846118e+00 
102400 6.9214113287e+00 1.8338017556e-05 1.8981455956e+00 -3.2876846118e+00 1.8981455956e+00 3.2876846118e+00 
102500 6.9214113288e+00 1.8351687687e-05 1.8981455956e+00 -3.2876846118e+00 1.8981455956e+00 3.2876846118e+00 
102600 6.9214113289e+00 1.8365511911e-05 1.8981455956e+00 -3.2876846118e+00 1.8981455956e+00 3.2876846118e+00 
102700 6.9214113290e+00 1.8379453612e-05 1.8981455956e+00 -3.2876846118e+00 1.8981455956e+00 3.2876846118e+00 
102800 6.9214113291e+00 1.8393477147e-05 1.8981455956e+00 -3.2876846118e+00 1.8981455956e+00 3.2876846118e+00 
102900 6.9214113291e+00 1.8407547846e-05 1.8981455956e+00 -3.2876846118e+00 1.8981455956e+00 3.2876846118e+00 
103000 6.9214113292e+00 1.8421632048e-05 1.8981455956e+00 -3.2876846118e+00 1.8981455956e+00 3.2876846118e+00 
103100 6.9214113293e+00 1.8435697129e-05 1.8981455956e+00 -3.2876846118e+00 1.8981455956e+00 3.2876846118e+00 
103200 6.9214113294e+00 1.8449711503e-05 1.8981455956e+00 -3.2876846118e+00 1.8981455956e+00 3.2876846118e+00 
103300 6.9214113294e+00 1.8463644651e-05 1.8981455956e+00 -3.2876846118e+00 1.8981455956e+00 3.2876846118e+00 
103400 6.9214113295e+00 1.8477467137e-05 1.8981455956e+00 -3.2876846118e+00 1.8981455956e+00 3.2876846118e+00 
103500 6.9214113296e+00 1.8491150614e-05 1.8981455956e+00 -3.2876846118e+00 1.8981455956e+00 3.2876846118e+00 
103600 6.9214113297e+00 1.8504667835e-05 1.8981455956e+00 -3.2876846118e+00 1.8981455956e+00 3.2876846118e+00 
103700 6.9214113297e+00 1.8517992666e-05 1.8981455956e+00 -3.2876846118e+00 1.8981455956e+00 3.2876846118e+00 
103800 6.9214113298e+00 1.8531100093e-05 1.8981455956e+00 -3.2876846118e+00 1.8981455956e+00 3.2876846118e+00 
103900 6.9214113299e+00 1.8543966221e-05 1.8981455956e+00 -3.2876846118e+00 1.8981455956e+00 3.2876846118e+00 
104000 6.9214113299e+00 1.8556568285e-05 1.8981455956e+00 -3.2876846118e+00 1.8981455956e+00 3.2876846118e+00 
104100 6.9214113300e+00 1.8568884648e-05 1.8981455956e+00 -3.2876846118e+00 1.8981455956e+00 3.2876846118e+00 
104200 6.9214113301e+00 1.8580894800e-05 1.8981455956e+00 -3.2876846118e+00 1.8981455956e+00 3.2876846118e+00 
104300 6.9214113301e+00 1.8592579353e-05 1.8981455956e+00 -3.2876846118e+00 1.8981455956e+00 3.2876846118e+00 
104400 6.9214113302e+00 1.8603920047e-05 1.8981455956e+00 -3.2876846118e+00 1.8981455956e+00 3.2876846118e+00 
104500 6.9214113303e+00 1.8614899733e-05 1.8981455956e+00 -3.2876846118e+00 1.8981455956e+00 3.2876846118e+00 
104600 6.9214113303e+00 1.8625502374e-05 1.8981455956e+00 -3.2876846118e+00 1.8981455956e+00 3.2876846118e+00 
104700 6.9214113304e+00 1.8635713043e-05 1.8981455956e+00 -3.2876846118e+00 1.8981455956e+00 3.2876846118e+00 
104800 6.9214113305e+00 1.8645517891e-05 1.8981455956e+00 -3.2876846118e+00 1.8981455956e+00 3.2876846118e+00 
104900 6.9214113305e+00 1.8654904161e-05 1.8981455956e+00 -3.2876846118e+00 1.8981455956e+00 3.2876846118e+00 
105000 6.9214113306e+00 1.8663860162e-05 1.8981455956e+00 -3.2876846118e+00 1.8981455956e+00 3.2876846118e+00 
105100 6.9214113306e+00 1.8672375258e-05 1.8981455956e+00 -3.2876846118e+00 1.8981455956e+00 3.2876846118e+00 
105200 6.9214113307e+00 1.8680439857e-05 1.8981455956e+00 -3.2876846118e+00 1.8981455956e+00 3.2876846118e+00 
105300 6.9214113308e+00 1.8688045389e-05 1.8981455956e+00 -3.2876846118e+00 1.8981455956e+00 3.2876846118e+00 
105400 6.9214113308e+00 1.8695184295e-05 1.8981455956e+00 -3.2876846118e+00 1.8981455956e+00 3.2876846118e+00 
105500 6.9214113309e+00 1.8701850006e-05 1.8981455956e+00 -3.2876846118e+00 1.8981455956e+00 3.2876846118e+00 
105600 6.9214113309e+00 1.8708036923e-05 1.8981455956e+00 -3.2876846118e+00 1.8981455956e+00 3.2876846118e+00 
105700 6.9214113310e+00 1.8713740400e-05 1.8981455956e+00 -3.2876846118e+00 1.8981455956e+00 3.2876846118e+00 
105800 6.9214113311e+00 1.8718956724e-05 1.8981455956e+00 -3.2876846118e+00 1.8981455956e+00 3.2876846118e+00 
105900 6.9214113311e+00 1.8723683082e-05 1.8981455956e+00 -3.2876846118e+00 1.8981455956e+00 3.2876846118e+00 
106000 6.9214113312e+00 1.8727917558e-05 1.8981455956e+00 -3.2876846118e+00 1.8981455956e+00 3.2876846118e+00 
106100 6.9214113312e+00 1.8731659100e-05 1.8981455956e+00 -3.2876846118e+00 1.8981455956e+00 3.2876846118e+00 
106200 6.9214113313e+00 1.8734907490e-05 1.8981455956e+00 -3.2876846118e+00 1.8981455956e+00 3.2876846118e+00 
106300 6.9214113313e+00 1.8737663330e-05 1.8981455956e+00 -3.2876846118e+00 1.8981455956e+00 3.2876846118e+00 
106400 6.9214113314e+00 1.8739928013e-05 1.8981455956e+00 -3.2876846118e+00 1.8981455956e+00 3.2876846118e+00 
106500 6.9214113314e+00 1.8741703701e-05 1.8981455956e+00 -3.2876846118e+00 1.8981455956e+00 3.2876846118e+00 
106600 6.9214113315e+00 1.8742993288e-05 1.8981455956e+00 -3.2876846118e+00 1.8981455956e+00 3.2876846118e+00 
106700 6.9214113315e+00 1.8743800391e-05 1.8981455956e+00 -3.2876846118e+00 1.8981455956e+00 3.2876846118e+00 
106800 6.9214113316e+00 1.8744129312e-05 1.8981455956e+00 -3.2876846118e+00 1.8981455956e+00 3.2876846118e+00 
106900 6.9214113316e+00 1.8743985013e-05 1.8981455956e+00 -3.2876846118e+00 1.8981455956e+00 3.2876846118e+00 
107000 6.9214113317e+00 1.8743686673e-05 1.8981455956e+00 -3.2876846118e+00 1.8981455956e+00 3.2876846118e+00 
107000 6.9214113317e+00 1.8743686672e-05 1.8981455956e+00 -3.2876846118e+00 1.8981455956e+00 3.2876846118e+00 
