# step Hamiltonian StressXX CellTensor1 CellTensor2 CellTensor3 CellTensor4 
0 6.5899803861e+00 2.6285909262e-01 2.6408444507e+00 -4.5740767634e+00 2.6408444507e+00 4.5740767634e+00 
100 6.6232501166e+00 3.0528163560e-01 2.6408444507e+00 -4.5740767634e+00 2.6408444507e+00 4.5740767634e+00 
200 6.6524246873e+00 3.4404364927e-01 2.6350665634e+00 -4.5640691691e+00 2.6350665634e+00 4.5640691691e+00 
300 6.6789679138e+00 3.7898632991e-01 2.6285410880e+00 -4.5527667142e+00 2.6285410880e+00 4.5527667142e+00 
400 6.7032684687e+00 4.1076235429e-01 2.6213353300e+00 -4.5402859753e+00 2.6213353300e+00 4.5402859753e+00 
500 6.7256290471e+00 4.3992324845e-01 2.6135042618e+00 -4.5267221672e+00 2.6135042618e+00 4.5267221672e+00 
600 6.7462795121e+00 4.6692630116e-01 2.6050924452e+00 -4.5121524735e+00 2.6050924452e+00 4.5121524735e+00 
700 6.7653897618e+00 4.9214476627e-01 2.5961358021e+00 -4.4966391126e+00 2.5961358021e+00 4.4966391126e+00 
800 6.7830814372e+00 5.1587921849e-01 2.5866631813e+00 -4.4802320521e+00 2.5866631813e+00 4.4802320521e+00 
900 6.7994380734e+00 5.3836869339e-01 2.5766977077e+00 -4.4629713455e+00 2.5766977077e+00 4.4629713455e+00 
1000 6.8145136139e+00 5.5980084876e-01 2.5662579223e+00 -4.4448891067e+00 2.5662579223e+00 4.4448891067e+00 
1100 6.8283393931e+00 5.8032080996e-01 2.5553587330e+00 -4.4260111571e+00 2.5553587330e+00 4.4260111571e+00 
1200 6.8409297786e+00 6.0003863033e-01 2.5440122026e+00 -4.4063583901e+00 2.5440122026e+00 4.4063583901e+00 
1300 6.8522866954e+00 6.1903544875e-01 2.5322282010e+00 -4.3859479006e+00 2.5322282010e+00 4.3859479006e+00 
1400 6.8624032455e+00 6.3736849926e-01 2.5200149452e+00 -4.3647939209e+00 2.5200149452e+00 4.3647939209e+00 
1500 6.8712666126e+00 6.5507515176e-01 2.5073794501e+00 -4.3429086014e+00 2.5073794501e+00 4.3429086014e+00 
1600 6.8788604119e+00 6.7217616034e-01 2.4943279079e+00 -4.3203026673e+00 2.4943279079e+00 4.3203026673e+00 
1700 6.8851666140e+00 6.8867827989e-01 2.4808660110e+00 -4.2969859778e+00 2.4808660110e+00 4.2969859778e+00 
1800 6.8901671419e+00 7.0457639115e-01 2.4669992301e+00 -4.2729680088e+00 2.4669992301e+00 4.2729680088e+00 
1900 6.8938452204e+00 7.1985525268e-01 2.4527330582e+00 -4.2482582742e+00 2.4527330582e+00 4.2482582742e+00 
2000 6.8961865306e+00 7.3449097834e-01 2.4380732255e+00 -4.2228666991e+00 2.4380732255e+00 4.2228666991e+00 
2100 6.8971802100e+00 7.4845232089e-01 2.4230258929e+00 -4.1968039546e+00 2.4230258929e+00 4.1968039546e+00 
2200 6.8968197231e+00 7.6170182589e-01 2.4075978261e+00 -4.1700817591e+00 2.4075978261e+00 4.1700817591e+00 
2300 6.8951036154e+00 7.7419690567e-01 2.3917965532e+00 -4.1427131515e+00 2.3917965532e+00 4.1427131515e+00 
2400 6.8920361583e+00 7.8589086897e-01 2.3756305076e+00 -4.1147127392e+00 2.3756305076e+00 4.1147127392e+00 
2500 6.8876278811e+00 7.9673392924e-01 2.3591091569e+00 -4.0860969203e+00 2.3591091569e+00 4.0860969203e+00 
2600 6.8818959899e+00 8.0667420153e-01 2.3422431169e+00 -4.0568840821e+00 2.3422431169e+00 4.0568840821e+00 
2700 6.8748646636e+00 8.1565868757e-01 2.3250442523e+00 -4.0270947748e+00 2.3250442523e+00 4.0270947748e+00 
2800 6.8665652255e+00 8.2363423893e-01 2.3075257619e+00 -3.9967518594e+00 2.3075257619e+00 3.9967518594e+00 
2900 6.8570361862e+00 8.3054848305e-01 2.2897022494e+00 -3.9658806301e+00 2.2897022494e+00 3.9658806301e+00 
3000 6.8463231629e+00 8.3635069502e-01 2.2715897791e+00 -3.9345089113e+00 2.2715897791e+00 3.9345089113e+00 
3100 6.8344786817e+00 8.4099260114e-01 2.2532059175e+00 -3.9026671289e+00 2.2532059175e+00 3.9026671289e+00 
3200 6.8215618780e+00 8.4442910703e-01 2.2345697602e+00 -3.8703883578e+00 2.2345697602e+00 3.8703883578e+00 
3300 6.8076381126e+00 8.4661895180e-01 2.2157019461e+00 -3.8377083451e+00 2.2157019461e+00 3.8377083451e+00 
3400 6.7927785242e+00 8.4752529882e-01 2.1966246575e+00 -3.8046655119e+00 2.1966246575e+00 3.8046655119e+00 
3500 6.7770595364e+00 8.4711627948e-01 2.1773616084e+00 -3.7713009323e+00 2.1773616084e+00 3.7713009323e+00 
3600 6.7605623378e+00 8.4536550882e-01 2.1579380193e+00 -3.7376582891e+00 2.1579380193e+00 3.7376582891e+00 
3700 6.7433723434e+00 8.4225258924e-01 2.1383805780e+00 -3.7037838071e+00 2.1383805780e+00 3.7037838071e+00 
3800 6.7255786439e+00 8.3776361217e-01 2.1187173856e+00 -3.6697261588e+00 2.1187173856e+00 3.6697261588e+00 
3900 6.7072734404e+00 8.3189165890e-01 2.0989778856e+00 -3.6355363419e+00 2.0989778856e+00 3.6355363419e+00 
4000 6.6885514576e+00 8.2463729225e-01 2.0791927748e+00 -3.6012675247e+00 2.0791927748e+00 3.6012675247e+00 
4100 6.6695093276e+00 8.1600902279e-01 2.0593938934e+00 -3.5669748562e+00 2.0593938934e+00 3.5669748562e+00 
4200 6.6502449325e+00 8.0602372700e-01 2.0396140942e+00 -3.5327152389e+00 2.0396140942e+00 3.5327152389e+00 
4300 6.6308567007e+00 7.9470699122e-01 2.0198870883e+00 -3.4985470625e+00 2.0198870883e+00 3.4985470625e+00 
4400 6.6114428501e+00 7.8209335466e-01 2.0002472690e+00 -3.4645298976e+00 2.0002472690e+00 3.4645298976e+00 
4500 6.5921005809e+00 7.6822642586e-01 1.9807295123e+00 -3.4307241513e+00 1.9807295123e+00 3.4307241513e+00 
4600 6.5729252241e+00 7.5315885097e-01 1.9613689567e+00 -3.3971906853e+00 1.9613689567e+00 3.3971906853e+00 
4700 6.5540093589e+00 7.3695211722e-01 1.9422007646e+00 -3.3639904029e+00 1.9422007646e+00 3.3639904029e+00 
4800 6.5354419152e+00 7.1967618141e-01 1.9232598677e+00 -3.3311838070e+00 1.9232598677e+00 3.3311838070e+00 
4900 6.5173072840e+00 7.0140892036e-01 1.9045807000e+00 -3.2988305395e+00 1.9045807000e+00 3.2988305395e+00 
5000 6.4996844596e+00 6.8223540819e-01 1.8861969246e+00 -3.2669889064e+00 1.8861969246e+00 3.2669889064e+00 
5100 6.4826462398e+00 6.6224703223e-01 1.8681411575e+00 -3.2357154006e+00 1.8681411575e+00 3.2357154006e+00 
5200 6.4662585080e+00 6.4154046661e-01 1.8504446954e+00 -3.2050642290e+00 1.8504446954e+00 3.2050642290e+00 
5300 6.4505796212e+00 6.2021652847e-01 1.8331372515e+00 -3.1750868568e+00 1.8331372515e+00 3.1750868568e+00 
5400 6.4356599237e+00 5.9837894633e-01 1.8162467071e+00 -3.1458315758e+00 1.8162467071e+00 3.1458315758e+00 
5500 6.4215414004e+00 5.7613307362e-01 1.7997988825e+00 -3.1173431078e+00 1.7997988825e+00 3.1173431078e+00 
5600 6.4082574817e+00 5.5358458172e-01 1.7838173330e+00 -3.0896622521e+00 1.7838173330e+00 3.0896622521e+00 
5700 6.3958330011e+00 5.3083816735e-01 1.7683231745e+00 -3.0628255824e+00 1.7683231745e+00 3.0628255824e+00 
5800 6.3842843063e+00 5.0799630746e-01 1.7533349420e+00 -3.0368652022e+00 1.7533349420e+00 3.0368652022e+00 
5900 6.3736195151e+00 4.8515809220e-01 1.7388684833e+00 -3.0118085608e+00 1.7388684833e+00 3.0118085608e+00 
6000 6.3638389034e+00 4.6241816245e-01 1.7249368910e+00 -2.9876783351e+00 1.7249368910e+00 2.9876783351e+00 
6100 6.3549354098e+00 4.3986577402e-01 1.7115504710e+00 -2.9644923756e+00 1.7115504710e+00 2.9644923756e+00 
6200 6.3468952361e+00 4.1758400499e-01 1.6987167504e+00 -2.9422637194e+00 1.6987167504e+00 2.9422637194e+00 
6300 6.3396985221e+00 3.9564911709e-01 1.6864405201e+00 -2.9210006648e+00 1.6864405201e+00 2.9210006648e+00 
6400 6.3333200730e+00 3.7413007662e-01 1.6747239124e+00 -2.9007069049e+00 1.6747239124e+00 2.9007069049e+00 
6500 6.3277301149e+00 3.5308823471e-01 1.6635665093e+00 -2.8813817158e+00 1.6635665093e+00 2.8813817158e+00 
6600 6.3228950596e+00 3.3257716207e-01 1.6529654778e+00 -2.8630201908e+00 1.6529654778e+00 2.8630201908e+00 
6700 6.3187782569e+00 3.1264262906e-01 1.6429157292e+00 -2.8456135155e+00 1.6429157292e+00 2.8456135155e+00 
6800 6.3153407198e+00 2.9332271829e-01 1.6334100957e+00 -2.8291492754e+00 1.6334100957e+00 2.8291492754e+00 
6900 6.3125418067e+00 2.7464805457e-01 1.6244395224e+00 -2.8136117865e+00 1.6244395224e+00 2.8136117865e+00 
7000 6.3103398511e+00 2.5664213510e-01 1.6159932677e+00 -2.7989824444e+00 1.6159932677e+00 2.7989824444e+00 
7100 6.3086927308e+00 2.3932174176e-01 1.6080591098e+00 -2.7852400798e+00 1.6080591098e+00 2.7852400798e+00 
7200 6.3075583721e+00 2.2269741758e-01 1.6006235527e+00 -2.7723613171e+00 1.6006235527e+00 2.7723613171e+00 
7300 6.3068951868e+00 2.0677398935e-01 1.5936720306e+00 -2.7603209276e+00 1.5936720306e+00 2.7603209276e+00 
7400 6.3066624425e+00 1.9155111995e-01 1.5871891054e+00 -2.7490921718e+00 1.5871891054e+00 2.7490921718e+00 
7500 6.3068205688e+00 1.7702387507e-01 1.5811586557e+00 -2.7386471266e+00 1.5811586557e+00 2.7386471266e+00 
7600 6.3073314026e+00 1.6318329085e-01 1.5755640543e+00 -2.7289569927e+00 1.5755640543e+00 2.7289569927e+00 
7700 6.3081583782e+00 1.5001693095e-01 1.5703883332e+00 -2.7199923807e+00 1.5703883332e+00 2.7199923807e+00 
7800 6.3092666668e+00 1.3750942348e-01 1.5656143340e+00 -2.7117235716e+00 1.5656143340e+00 2.7117235716e+00 
7900 6.3106232721e+00 1.2564297007e-01 1.5612248444e+00 -2.7041207526e+00 1.5612248444e+00 2.7041207526e+00 
8000 6.3121970878e+00 1.1439782168e-01 1.5572027185e+00 -2.6971542261e+00 1.5572027185e+00 2.6971542261e+00 
8100 6.3139589225e+00 1.0375271683e-01 1.5535309826e+00 -2.6907945930e+00 1.5535309826e+00 2.6907945930e+00 
8200 6.3158814975e+00 9.3685280070e-02 1.5501929266e+00 -2.6850129104e+00 1.5501929266e+00 2.6850129104e+00 
8300 6.3179394236e+00 8.4172379389e-02 1.5471721805e+00 -2.6797808247e+00 1.5471721805e+00 2.6797808247e+00 
8400 6.3201091593e+00 7.5190442785e-02 1.5444527783e+00 -2.6750706818e+00 1.5444527783e+00 2.6750706818e+00 
8500 6.3223689566e+00 6.6715734766e-02 1.5420192089e+00 -2.6708556160e+00 1.5420192089e+00 2.6708556160e+00 
8600 6.3246987966e+00 5.8724594534e-02 1.5398564565e+00 -2.6671096190e+00 1.5398564565e+00 2.6671096190e+00 
8700 6.3270803181e+00 5.1193637998e-02 1.5379500301e+00 -2.6638075916e+00 1.5379500301e+00 2.6638075916e+00 
8800 6.3294967413e+00 4.4099926195e-02 1.5362859840e+00 -2.6609253793e+00 1.5362859840e+00 2.6609253793e+00 
8900 6.3319327895e+00 3.7421102899e-02 1.5348509305e+00 -2.6584397936e+00 1.5348509305e+00 2.6584397936e+00 
9000 6.3343746088e+00 3.1135504343e-02 1.5336320452e+00 -2.6563286223e+00 1.5336320452e+00 2.6563286223e+00 
9100 6.3368096890e+00 2.5222243965e-02 1.5326170668e+00 -2.6545706282e+00 1.5326170668e+00 2.6545706282e+00 
9200 6.3392267846e+00 1.9661275072e-02 1.5317942916e+00 -2.6531455398e+00 1.5317942916e+00 2.6531455398e+00 
9300 6.3416158386e+00 1.4433434170e-02 1.5311525637e+00 -2.6520340345e+00 1.5311525637e+00 2.6520340345e+00 
9400 6.3439679072e+00 9.5204675859e-03 1.5306812621e+00 -2.6512177162e+00 1.5306812621e+00 2.6512177162e+00 
9500 6.3462750885e+00 4.9050437947e-03 1.5303702847e+00 -2.6506790875e+00 1.5303702847e+00 2.6506790875e+00 
9600 6.3485304533e+00 5.7075369206e-04 1.5302100308e+00 -2.6504015195e+00 1.5302100308e+00 2.6504015195e+00 
9700 6.3507279785e+00 -3.4978991654e-03 1.5301913813e+00 -2.6503692177e+00 1.5301913813e+00 2.6503692177e+00 
9800 6.3528624845e+00 -7.3155165349e-03 1.5303056788e+00 -2.6505671868e+00 1.5303056788e+00 2.6505671868e+00 
9900 6.3549295742e+00 -1.0895830061e-02 1.5305447065e+00 -2.6509811949e+00 1.5305447065e+00 2.6509811949e+00 
10000 6.3569255763e+00 -1.4251731027e-02 1.5309006664e+00 -2.6515977356e+00 1.5309006664e+00 2.6515977356e+00 
10100 6.3588474899e+00 -1.7395304034e-02 1.5313661588e+00 -2.6524039921e+00 1.5313661588e+00 2.6524039921e+00 
10200 6.3606929336e+00 -2.0337863555e-02 1.5319341608e+00 -2.6533878003e+00 1.5319341608e+00 2.6533878003e+00 
10300 6.3624600952e+00 -2.3089992414e-02 1.5325980056e+00 -2.6545376133e+00 1.5325980056e+00 2.6545376133e+00 
10400 6.3641476859e+00 -2.5661581441e-02 1.5333513631e+00 -2.6558424667e+00 1.5333513631e+00 2.6558424667e+00 
10500 6.3657548954e+00 -2.8061869631e-02 1.5341882200e+00 -2.6572919454e+00 1.5341882200e+00 2.6572919454e+00 
10600 6.3672813500e+00 -3.0299484260e-02 1.5351028619e+00 -2.6588761516e+00 1.5351028619e+00 2.6588761516e+00 
10700 6.3687270732e+00 -3.2382480534e-02 1.5360898553e+00 -2.6605856744e+00 1.5360898553e+00 2.6605856744e+00 
10800 6.3700924476e+00 -3.4318380382e-02 1.5371440313e+00 -2.6624115608e+00 1.5371440313e+00 2.6624115608e+00 
10900 6.3713781799e+00 -3.6114210127e-02 1.5382604697e+00 -2.6643452887e+00 1.5382604697e+00 2.6643452887e+00 
11000 6.3725852669e+00 -3.7776536813e-02 1.5394344841e+00 -2.6663787414e+00 1.5394344841e+00 2.6663787414e+00 
11100 6.3737149639e+00 -3.9311503005e-02 1.5406616085e+00 -2.6685041831e+00 1.5406616085e+00 2.6685041831e+00 
11200 6.3747687553e+00 -4.0724859962e-02 1.5419375838e+00 -2.6707142372e+00 1.5419375838e+00 2.6707142372e+00 
11300 6.3757483263e+00 -4.2021999086e-02 1.5432583463e+00 -2.6730018650e+00 1.5432583463e+00 2.6730018650e+00 
11400 6.3766555366e+00 -4.3207981612e-02 1.5446200163e+00 -2.6753603467e+00 1.5446200163e+00 2.6753603467e+00 
11500 6.3774923960e+00 -4.4287566505e-02 1.5460188878e+00 -2.6777832631e+00 1.5460188878e+00 2.6777832631e+00 
11600 6.3782610414e+00 -4.5265236572e-02 1.5474514187e+00 -2.6802644795e+00 1.5474514187e+00 2.6802644795e+00 
11700 6.3789637153e+00 -4.6145222820e-02 1.5489142227e+00 -2.6827981302e+00 1.5489142227e+00 2.6827981302e+00 
11800 6.3796027462e+00 -4.6931527067e-02 1.5504040602e+00 -2.6853786046e+00 1.5504040602e+00 2.6853786046e+00 
11900 6.3801805297e+00 -4.7627942883e-02 1.5519178319e+00 -2.6880005341e+00 1.5519178319e+00 2.6880005341e+00 
12000 6.3806995121e+00 -4.8238074893e-02 1.5534525712e+00 -2.6906587804e+00 1.5534525712e+00 2.6906587804e+00 
12100 6.3811621743e+00 -4.8765356520e-02 1.5550054381e+00 -2.6933484248e+00 1.5550054381e+00 2.6933484248e+00 
12200 6.3815710179e+00 -4.9213066224e-02 1.5565737138e+00 -2.6960647580e+00 1.5565737138e+00 2.6960647580e+00 
12300 6.3819285517e+00 -4.9584342315e-02 1.5581547949e+00 -2.6988032709e+00 1.5581547949e+00 2.6988032709e+00 
12400 6.3822372804e+00 -4.9882196407e-02 1.5597461892e+00 -2.7015596466e+00 1.5597461892e+00 2.7015596466e+00 
12500 6.3824996932e+00 -5.0109525596e-02 1.5613455107e+00 -2.7043297526e+00 1.5613455107e+00 2.7043297526e+00 
12600 6.3827182552e+00 -5.0269123428e-02 1.5629504757e+00 -2.7071096337e+00 1.5629504757e+00 2.7071096337e+00 
12700 6.3828953978e+00 -5.0363689732e-02 1.5645588995e+00 -2.7098955054e+00 1.5645588995e+00 2.7098955054e+00 
12800 6.3830335120e+00 -5.0395839401e-02 1.5661686924e+00 -2.7126837485e+00 1.5661686924e+00 2.7126837485e+00 
12900 6.3831349415e+00 -5.0368110181e-02 1.5677778569e+00 -2.7154709031e+00 1.5677778569e+00 2.7154709031e+00 
13000 6.3832019769e+00 -5.0282969543e-02 1.5693844844e+00 -2.7182536637e+00 1.5693844844e+00 2.7182536637e+00 
13100 6.3832368510e+00 -5.0142820710e-02 1.5709867532e+00 -2.7210288746e+00 1.5709867532e+00 2.7210288746e+00 
13200 6.3832417345e+00 -4.9950007900e-02 1.5725829252e+00 -2.7237935256e+00 1.5725829252e+00 2.7237935256e+00 
13300 6.3832187329e+00 -4.9706820852e-02 1.5741713441e+00 -2.7265447478e+00 1.5741713441e+00 2.7265447478e+00 
13400 6.3831698836e+00 -4.9415498691e-02 1.5757504327e+00 -2.7292798095e+00 1.5757504327e+00 2.7292798095e+00 
13500 6.3830971540e+00 -4.9078233204e-02 1.5773186914e+00 -2.7319961132e+00 1.5773186914e+00 2.7319961132e+00 
13600 6.3830024398e+00 -4.8697171562e-02 1.5788746957e+00 -2.7346911917e+00 1.5788746957e+00 2.7346911917e+00 
13700 6.3828875640e+00 -4.8274418560e-02 1.5804170946e+00 -2.7373627049e+00 1.5804170946e+00 2.7373627049e+00 
13800 6.3827542767e+00 -4.7812038419e-02 1.5819446086e+00 -2.7400084369e+00 1.5819446086e+00 2.7400084369e+00 
13900 6.3826042547e+00 -4.7312056193e-02 1.5834560283e+00 -2.7426262925e+00 1.5834560283e+00 2.7426262925e+00 
14000 6.3824391016e+00 -4.6776458835e-02 1.5849502121e+00 -2.7452142949e+00 1.5849502121e+00 2.7452142949e+00 
14100 6.3822603492e+00 -4.6207195955e-02 1.5864260853e+00 -2.7477705822e+00 1.5864260853e+00 2.7477705822e+00 
14200 6.3820694574e+00 -4.5606180320e-02 1.5878826379e+00 -2.7502934052e+00 1.5878826379e+00 2.7502934052e+00 
14300 6.3818678163e+00 -4.4975288122e-02 1.5893189231e+00 -2.7527811243e+00 1.5893189231e+00 2.7527811243e+00 
14400 6.3816567469e+00 -4.4316359058e-02 1.5907340562e+00 -2.7552322067e+00 1.5907340562e+00 2.7552322067e+00 
14500 6.3814375032e+00 -4.3631196250e-02 1.5921272124e+00 -2.7576452240e+00 1.5921272124e+00 2.7576452240e+00 
14600 6.3812112734e+00 -4.2921566031e-02 1.5934976258e+00 -2.7600188496e+00 1.5934976258e+00 2.7600188496e+00 
14700 6.3809791823e+00 -4.2189197628e-02 1.5948445876e+00 -2.7623518558e+00 1.5948445876e+00 2.7623518558e+00 
14800 6.3807422929e+00 -4.1435782773e-02 1.5961674445e+00 -2.7646431112e+00 1.5961674445e+00 2.7646431112e+00 
14900 6.3805016085e+00 -4.0662975245e-02 1.5974655976e+00 -2.7668915784e+00 1.5974655976e+00 2.7668915784e+00 
15000 6.3802580749e+00 -3.9872390391e-02 1.5987385004e+00 -2.7690963108e+00 1.5987385004e+00 2.7690963108e+00 
15100 6.3800125823e+00 -3.9065604614e-02 1.5999856578e+00 -2.7712564507e+00 1.5999856578e+00 2.7712564507e+00 
15200 6.3797659674e+00 -3.8244154869e-02 1.6012066240e+00 -2.7733712262e+00 1.6012066240e+00 2.7733712262e+00 
15300 6.3795190158e+00 -3.7409538170e-02 1.6024010016e+00 -2.7754399488e+00 1.6024010016e+00 2.7754399488e+00 
15400 6.3792724637e+00 -3.6563211116e-02 1.6035684396e+00 -2.7774620108e+00 1.6035684396e+00 2.7774620108e+00 
15500 6.3790270000e+00 -3.5706589462e-02 1.6047086323e+00 -2.7794368825e+00 1.6047086323e+00 2.7794368825e+00 
15600 6.3787832686e+00 -3.4841047726e-02 1.6058213175e+00 -2.7813641098e+00 1.6058213175e+00 2.7813641098e+00 
15700 6.3785418699e+00 -3.3967918850e-02 1.6069062754e+00 -2.7832433119e+00 1.6069062754e+00 2.7832433119e+00 
15800 6.3783033629e+00 -3.3088493925e-02 1.6079633264e+00 -2.7850741781e+00 1.6079633264e+00 2.7850741781e+00 
15900 6.3780682670e+00 -3.2204021972e-02 1.6089923306e+00 -2.7868564656e+00 1.6089923306e+00 2.7868564656e+00 
16000 6.3778370636e+00 -3.1315709795e-02 1.6099931856e+00 -2.7885899972e+00 1.6099931856e+00 2.7885899972e+00 
16100 6.3776101980e+00 -3.0424721898e-02 1.6109658251e+00 -2.7902746583e+00 1.6109658251e+00 2.7902746583e+00 
16200 6.3773880807e+00 -2.9532180478e-02 1.6119102180e+00 -2.7919103948e+00 1.6119102180e+00 2.7919103948e+00 
16300 6.3771710890e+00 -2.8639165489e-02 1.6128263663e+00 -2.7934972102e+00 1.6128263663e+00 2.7934972102e+00 
16400 6.3769595683e+00 -2.7746714771e-02 1.6137143041e+00 -2.7950351636e+00 1.6137143041e+00 2.7950351636e+00 
16500 6.3767538338e+00 -2.6855824261e-02 1.6145740963e+00 -2.7965243673e+00 1.6145740963e+00 2.7965243673e+00 
16600 6.3765541714e+00 -2.5967448259e-02 1.6154058366e+00 -2.7979649839e+00 1.6154058366e+00 2.7979649839e+00 
16700 6.3763608389e+00 -2.5082499772e-02 1.6162096470e+00 -2.7993572243e+00 1.6162096470e+00 2.7993572243e+00 
16800 6.3761740675e+00 -2.4201850916e-02 1.6169856759e+00 -2.8007013457e+00 1.6169856759e+00 2.8007013457e+00 
16900 6.3759940624e+00 -2.3326333381e-02 1.6177340967e+00 -2.8019976487e+00 1.6177340967e+00 2.8019976487e+00 
17000 6.3758210040e+00 -2.2456738953e-02 1.6184551072e+00 -2.8032464755e+00 1.6184551072e+00 2.8032464755e+00 
17100 6.3756550489e+00 -2.1593820091e-02 1.6191489276e+00 -2.8044482076e+00 1.6191489276e+00 2.8044482076e+00 
17200 6.3754963309e+00 -2.0738290555e-02 1.6198157996e+00 -2.8056032638e+00 1.6198157996e+00 2.8056032638e+00 
17300 6.3753449614e+00 -1.9890826077e-02 1.6204559852e+00 -2.8067120979e+00 1.6204559852e+00 2.8067120979e+00 
17400 6.3752010306e+00 -1.9052065077e-02 1.6210697656e+00 -2.8077751966e+00 1.6210697656e+00 2.8077751966e+00 
17500 6.3750646081e+00 -1.8222609420e-02 1.6216574397e+00 -2.8087930781e+00 1.6216574397e+00 2.8087930781e+00 
17600 6.3749357439e+00 -1.7403025199e-02 1.6222193236e+00 -2.8097662894e+00 1.6222193236e+00 2.8097662894e+00 
17700 6.3748144686e+00 -1.6593843559e-02 1.6227557487e+00 -2.8106954050e+00 1.6227557487e+00 2.8106954050e+00 
17800 6.3747007944e+00 -1.5795561536e-02 1.6232670614e+00 -2.8115810247e+00 1.6232670614e+00 2.8115810247e+00 
17900 6.3745947158e+00 -1.5008642928e-02 1.6237536219e+00 -2.8124237721e+00 1.6237536219e+00 2.8124237721e+00 
18000 6.3744962100e+00 -1.4233519175e-02 1.6242158027e+00 -2.8132242927e+00 1.6242158027e+00 2.8132242927e+00 
18100 6.3744052379e+00 -1.3470590265e-02 1.6246539883e+00 -2.8139832524e+00 1.6246539883e+00 2.8139832524e+00 
18200 6.3743217442e+00 -1.2720225641e-02 1.6250685739e+00 -2.8147013357e+00 1.6250685739e+00 2.8147013357e+00 
18300 6.3742456584e+00 -1.1982765120e-02 1.6254599646e+00 -2.8153792444e+00 1.6254599646e+00 2.8153792444e+00 
18400 6.3741768954e+00 -1.1258519819e-02 1.6258285747e+00 -2.8160176957e+00 1.6258285747e+00 2.8160176957e+00 
18500 6.3741153559e+00 -1.0547773076e-02 1.6261748264e+00 -2.8166174213e+00 1.6261748264e+00 2.8166174213e+00 
18600 6.3740609269e+00 -9.8507813825e-03 1.6264991496e+00 -2.8171791655e+00 1.6264991496e+00 2.8171791655e+00 
18700 6.3740134829e+00 -9.1677752962e-03 1.6268019806e+00 -2.8177036842e+00 1.6268019806e+00 2.8177036842e+00 
18800 6.3739728859e+00 -8.4989603615e-03 1.6270837616e+00 -2.8181917433e+00 1.6270837616e+00 2.8181917433e+00 
18900 6.3739389861e+00 -7.8445180146e-03 1.6273449402e+00 -2.8186441178e+00 1.6273449402e+00 2.8186441178e+00 
19000 6.3739116229e+00 -7.2046064809e-03 1.6275859681e+00 -2.8190615905e+00 1.6275859681e+00 2.8190615905e+00 
19100 6.3738906250e+00 -6.5793616598e-03 1.6278073011e+00 -2.8194449505e+00 1.6278073011e+00 2.8194449505e+00 
19200 6.3738758117e+00 -5.9688979965e-03 1.6280093981e+00 -2.8197949926e+00 1.6280093981e+00 2.8197949926e+00 
19300 6.3738669929e+00 -5.3733093385e-03 1.6281927204e+00 -2.8201125163e+00 1.6281927204e+00 2.8201125163e+00 
19400 6.3738639699e+00 -4.7926697762e-03 1.6283577316e+00 -2.8203983240e+00 1.6283577316e+00 2.8203983240e+00 
19500 6.3738665365e+00 -4.2270344659e-03 1.6285048965e+00 -2.8206532211e+00 1.6285048965e+00 2.8206532211e+00 
19600 6.3738744791e+00 -3.6764404346e-03 1.6286346809e+00 -2.8208780143e+00 1.6286346809e+00 2.8208780143e+00 
19700 6.3738875777e+00 -3.1409073663e-03 1.6287475510e+00 -2.8210735110e+00 1.6287475510e+00 2.8210735110e+00 
19800 6.3739056065e+00 -2.6204383680e-03 1.6288439729e+00 -2.8212405186e+00 1.6288439729e+00 2.8212405186e+00 
19900 6.3739283344e+00 -2.1150207161e-03 1.6289244121e+00 -2.8213798435e+00 1.6289244121e+00 2.8213798435e+00 
20000 6.3739555261e+00 -1.6246265825e-03 1.6289893333e+00 -2.8214922903e+00 1.6289893333e+00 2.8214922903e+00 
20100 6.3739869424e+00 -1.1492137388e-03 1.6290391997e+00 -2.8215786614e+00 1.6290391997e+00 2.8215786614e+00 
20200 6.3740223409e+00 -6.8872624151e-04 1.6290744725e+00 -2.8216397558e+00 1.6290744725e+00 2.8216397558e+00 
20300 6.3740614771e+00 -2.4309509465e-04 1.6290956112e+00 -2.8216763689e+00 1.6290956112e+00 2.8216763689e+00 
20400 6.3741041043e+00 1.8776110739e-04 1.6291030722e+00 -2.8216892918e+00 1.6291030722e+00 2.8216892918e+00 
20500 6.3741499752e+00 6.0393555807e-04 1.6290973095e+00 -2.8216793105e+00 1.6290973095e+00 2.8216793105e+00 
20600 6.3741988418e+00 1.0055326374e-03 1.6290787736e+00 -2.8216472055e+00 1.6290787736e+00 2.8216472055e+00 
20700 6.3742504565e+00 1.3926673304e-03 1.6290479117e+00 -2.8215937511e+00 1.6290479117e+00 2.8215937511e+00 
20800 6.3743045724e+00 1.7654646661e-03 1.6290051671e+00 -2.8215197152e+00 1.6290051671e+00 2.8215197152e+00 
20900 6.3743609444e+00 2.1240591752e-03 1.6289509790e+00 -2.8214258586e+00 1.6289509790e+00 2.8214258586e+00 
21000 6.3744193292e+00 2.4685943668e-03 1.6288857823e+00 -2.8213129346e+00 1.6288857823e+00 2.8213129346e+00 
21100 6.3744794865e+00 2.7992222238e-03 1.6288100073e+00 -2.8211816885e+00 1.6288100073e+00 2.8211816885e+00 
21200 6.3745411790e+00 3.1161027163e-03 1.6287240796e+00 -2.8210328574e+00 1.6287240796e+00 2.8210328574e+00 
21300 6.3746041736e+00 3.4194033316e-03 1.6286284197e+00 -2.8208671696e+00 1.6286284197e+00 2.8208671696e+00 
21400 6.3746682413e+00 3.7092986216e-03 1.6285234428e+00 -2.8206853443e+00 1.6285234428e+00 2.8206853443e+00 
21500 6.3747331581e+00 3.9859697663e-03 1.6284095588e+00 -2.8204880914e+00 1.6284095588e+00 2.8204880914e+00 
21600 6.3747987054e+00 4.2496041525e-03 1.6282871719e+00 -2.8202761111e+00 1.6282871719e+00 2.8202761111e+00 
21700 6.3748646704e+00 4.5003949673e-03 1.6281566806e+00 -2.8200500934e+00 1.6281566806e+00 2.8200500934e+00 
21800 6.3749308467e+00 4.7385408065e-03 1.6280184773e+00 -2.8198107184e+00 1.6280184773e+00 2.8198107184e+00 
21900 6.3749970344e+00 4.9642452963e-03 1.6278729486e+00 -2.8195586552e+00 1.6278729486e+00 2.8195586552e+00 
22000 6.3750630408e+00 5.1777167272e-03 1.6277204745e+00 -2.8192945623e+00 1.6277204745e+00 2.8192945623e+00 
22100 6.3751286804e+00 5.3791677022e-03 1.6275614290e+00 -2.8190190875e+00 1.6275614290e+00 2.8190190875e+00 
22200 6.3751937758e+00 5.5688147950e-03 1.6273961794e+00 -2.8187328668e+00 1.6273961794e+00 2.8187328668e+00 
22300 6.3752581573e+00 5.7468782204e-03 1.6272250866e+00 -2.8184365253e+00 1.6272250866e+00 2.8184365253e+00 
22400 6.3753216634e+00 5.9135815153e-03 1.6270485045e+00 -2.8181306762e+00 1.6270485045e+00 2.8181306762e+00 
22500 6.3753841414e+00 6.0691512297e-03 1.6268667806e+00 -2.8178159212e+00 1.6268667806e+00 2.8178159212e+00 
22600 6.3754454470e+00 6.2138166274e-03 1.6266802554e+00 -2.8174928500e+00 1.6266802554e+00 2.8174928500e+00 
22700 6.3755054448e+00 6.3478093963e-03 1.6264892623e+00 -2.8171620402e+00 1.6264892623e+00 2.8171620402e+00 
22800 6.3755640084e+00 6.4713633664e-03 1.6262941278e+00 -2.8168240574e+00 1.6262941278e+00 2.8168240574e+00 
22900 6.3756210204e+00 6.5847142372e-03 1.6260951714e+00 -2.8164794548e+00 1.6260951714e+00 2.8164794548e+00 
23000 6.3756763724e+00 6.6880993125e-03 1.6258927055e+00 -2.8161287735e+00 1.6258927055e+00 2.8161287735e+00 
23100 6.3757299655e+00 6.7817572425e-03 1.6256870351e+00 -2.8157725421e+00 1.6256870351e+00 2.8157725421e+00 
23200 6.3757817094e+00 6.8659277736e-03 1.6254784583e+00 -2.8154112764e+00 1.6254784583e+00 2.8154112764e+00 
23300 6.3758315234e+00 6.9408515046e-03 1.6252672658e+00 -2.8150454802e+00 1.6252672658e+00 2.8150454802e+00 
23400 6.3758793357e+00 7.0067696497e-03 1.6250537409e+00 -2.8146756443e+00 1.6250537409e+00 2.8146756443e+00 
23500 6.3759250832e+00 7.0639238076e-03 1.6248381599e+00 -2.8143022470e+00 1.6248381599e+00 2.8143022470e+00 
23600 6.3759687121e+00 7.1125557375e-03 1.6246207916e+00 -2.8139257541e+00 1.6246207916e+00 2.8139257541e+00 
23700 6.3760101770e+00 7.1529071397e-03 1.6244018976e+00 -2.8135466185e+00 1.6244018976e+00 2.8135466185e+00 
23800 6.3760494412e+00 7.1852194432e-03 1.6241817320e+00 -2.8131652806e+00 1.6241817320e+00 2.8131652806e+00 
23900 6.3760864763e+00 7.2097335980e-03 1.6239605420e+00 -2.8127821682e+00 1.6239605420e+00 2.8127821682e+00 
24000 6.3761212623e+00 7.2266898737e-03 1.6237385671e+00 -2.8123976964e+00 1.6237385671e+00 2.8123976964e+00 
24100 6.3761537867e+00 7.2363276627e-03 1.6235160398e+00 -2.8120122678e+00 1.6235160398e+00 2.8120122678e+00 
24200 6.3761840452e+00 7.2388852894e-03 1.6232931851e+00 -2.8116262722e+00 1.6232931851e+00 2.8116262722e+00 
24300 6.3762120405e+00 7.2345998244e-03 1.6230702211e+00 -2.8112400872e+00 1.6230702211e+00 2.8112400872e+00 
24400 6.3762377828e+00 7.2237069036e-03 1.6228473584e+00 -2.8108540778e+00 1.6228473584e+00 2.8108540778e+00 
24500 6.3762612889e+00 7.2064405537e-03 1.6226248008e+00 -2.8104685966e+00 1.6226248008e+00 2.8104685966e+00 
24600 6.3762825822e+00 7.1830330214e-03 1.6224027447e+00 -2.8100839841e+00 1.6224027447e+00 2.8100839841e+00 
24700 6.3763016925e+00 7.1537146095e-03 1.6221813795e+00 -2.8097005683e+00 1.6221813795e+00 2.8097005683e+00 
24800 6.3763186554e+00 7.1187135166e-03 1.6219608877e+00 -2.8093186654e+00 1.6219608877e+00 2.8093186654e+00 
24900 6.3763335119e+00 7.0782556841e-03 1.6217414449e+00 -2.8089385793e+00 1.6217414449e+00 2.8089385793e+00 
25000 6.3763463084e+00 7.0325646468e-03 1.6215232197e+00 -2.8085606022e+00 1.6215232197e+00 2.8085606022e+00 
25100 6.3763570962e+00 6.9818613900e-03 1.6213063740e+00 -2.8081850144e+00 1.6213063740e+00 2.8081850144e+00 
25200 6.3763659309e+00 6.9263642122e-03 1.6210910628e+00 -2.8078120845e+00 1.6210910628e+00 2.8078120845e+00 
25300 6.3763728724e+00 6.8662885926e-03 1.6208774347e+00 -2.8074420698e+00 1.6208774347e+00 2.8074420698e+00 
25400 6.3763779844e+00 6.8018470655e-03 1.6206656316e+00 -2.8070752160e+00 1.6206656316e+00 2.8070752160e+00 
25500 6.3763813340e+00 6.7332490990e-03 1.6204557888e+00 -2.8067117576e+00 1.6204557888e+00 2.8067117576e+00 
25600 6.3763829912e+00 6.6607009808e-03 1.6202480353e+00 -2.8063519181e+00 1.6202480353e+00 2.8063519181e+00 
25700 6.3763830290e+00 6.5844057091e-03 1.6200424940e+00 -2.8059959100e+00 1.6200424940e+00 2.8059959100e+00 
25800 6.3763815225e+00 6.5045628901e-03 1.6198392811e+00 -2.8056439350e+00 1.6198392811e+00 2.8056439350e+00 
25900 6.3763785490e+00 6.4213686408e-03 1.6196385073e+00 -2.8052961845e+00 1.6196385073e+00 2.8052961845e+00 
26000 6.3763741874e+00 6.3350154982e-03 1.6194402767e+00 -2.8049528390e+00 1.6194402767e+00 2.8049528390e+00 
26100 6.3763685178e+00 6.2456923350e-03 1.6192446879e+00 -2.8046140693e+00 1.6192446879e+00 2.8046140693e+00 
26200 6.3763616216e+00 6.1535842807e-03 1.6190518335e+00 -2.8042800357e+00 1.6190518335e+00 2.8042800357e+00 
26300 6.3763535806e+00 6.0588726498e-03 1.6188618005e+00 -2.8039508890e+00 1.6188618005e+00 2.8039508890e+00 
26400 6.3763444772e+00 5.9617348752e-03 1.6186746704e+00 -2.8036267701e+00 1.6186746704e+00 2.8036267701e+00 
26500 6.3763343936e+00 5.8623444486e-03 1.6184905191e+00 -2.8033078107e+00 1.6184905191e+00 2.8033078107e+00 
26600 6.3763234121e+00 5.7608708667e-03 1.6183094172e+00 -2.8029941329e+00 1.6183094172e+00 2.8029941329e+00 
26700 6.3763116144e+00 5.6574795840e-03 1.6181314300e+00 -2.8026858501e+00 1.6181314300e+00 2.8026858501e+00 
26800 6.3762990815e+00 5.5523319713e-03 1.6179566180e+00 -2.8023830668e+00 1.6179566180e+00 2.8023830668e+00 
26900 6.3762858932e+00 5.4455852806e-03 1.6177850363e+00 -2.8020858786e+00 1.6177850363e+00 2.8020858786e+00 
27000 6.3762721283e+00 5.3373926163e-03 1.6176167355e+00 -2.8017943730e+00 1.6176167355e+00 2.8017943730e+00 
27100 6.3762578641e+00 5.2279029119e-03 1.6174517613e+00 -2.8015086293e+00 1.6174517613e+00 2.8015086293e+00 
27200 6.3762431762e+00 5.1172609133e-03 1.6172901547e+00 -2.8012287185e+00 1.6172901547e+00 2.8012287185e+00 
27300 6.3762281385e+00 5.0056071675e-03 1.6171319525e+00 -2.8009547043e+00 1.6171319525e+00 2.8009547043e+00 
27400 6.3762128226e+00 4.8930780174e-03 1.6169771869e+00 -2.8006866424e+00 1.6169771869e+00 2.8006866424e+00 
27500 6.3761972981e+00 4.7798056018e-03 1.6168258860e+00 -2.8004245816e+00 1.6168258860e+00 2.8004245816e+00 
27600 6.3761816322e+00 4.6659178619e-03 1.6166780738e+00 -2.8001685633e+00 1.6166780738e+00 2.8001685633e+00 
27700 6.3761658897e+00 4.5515385519e-03 1.6165337702e+00 -2.7999186222e+00 1.6165337702e+00 2.7999186222e+00 
27800 6.3761501325e+00 4.4367872564e-03 1.6163929915e+00 -2.7996747862e+00 1.6163929915e+00 2.7996747862e+00 
27900 6.3761344203e+00 4.3217794115e-03 1.6162557499e+00 -2.7994370769e+00 1.6162557499e+00 2.7994370769e+00 
28000 6.3761188095e+00 4.2066263321e-03 1.6161220545e+00 -2.7992055097e+00 1.6161220545e+00 2.7992055097e+00 
28100 6.3761033538e+00 4.0914352430e-03 1.6159919106e+00 -2.7989800938e+00 1.6159919106e+00 2.7989800938e+00 
28200 6.3760881041e+00 3.9763093154e-03 1.6158653202e+00 -2.7987608327e+00 1.6158653202e+00 2.7987608327e+00 
28300 6.3760731080e+00 3.8613477073e-03 1.6157422821e+00 -2.7985477245e+00 1.6157422821e+00 2.7985477245e+00 
28400 6.3760584104e+00 3.7466456088e-03 1.6156227921e+00 -2.7983407618e+00 1.6156227921e+00 2.7983407618e+00 
28500 6.3760440529e+00 3.6322942905e-03 1.6155068430e+00 -2.7981399321e+00 1.6155068430e+00 2.7981399321e+00 
28600 6.3760300739e+00 3.5183811570e-03 1.6153944247e+00 -2.7979452178e+00 1.6153944247e+00 2.7979452178e+00 
28700 6.3760165092e+00 3.4049898026e-03 1.6152855243e+00 -2.7977565968e+00 1.6152855243e+00 2.7977565968e+00 
28800 6.3760033909e+00 3.2922000719e-03 1.6151801264e+00 -2.7975740423e+00 1.6151801264e+00 2.7975740423e+00 
28900 6.3759907485e+00 3.1800881225e-03 1.6150782132e+00 -2.7973975234e+00 1.6150782132e+00 2.7973975234e+00 
29000 6.3759786084e+00 3.0687264911e-03 1.6149797642e+00 -2.7972270048e+00 1.6149797642e+00 2.7972270048e+00 
29100 6.3759669937e+00 2.9581841628e-03 1.6148847569e+00 -2.7970624473e+00 1.6148847569e+00 2.7970624473e+00 
29200 6.3759559250e+00 2.8485266421e-03 1.6147931666e+00 -2.7969038083e+00 1.6147931666e+00 2.7969038083e+00 
29300 6.3759454197e+00 2.7398160269e-03 1.6147049664e+00 -2.7967510411e+00 1.6147049664e+00 2.7967510411e+00 
29400 6.3759354926e+00 2.6321110844e-03 1.6146201276e+00 -2.7966040960e+00 1.6146201276e+00 2.7966040960e+00 
29500 6.3759261555e+00 2.5254673288e-03 1.6145386196e+00 -2.7964629200e+00 1.6145386196e+00 2.7964629200e+00 
29600 6.3759174177e+00 2.4199371010e-03 1.6144604101e+00 -2.7963274571e+00 1.6144604101e+00 2.7963274571e+00 
29700 6.3759092859e+00 2.3155696492e-03 1.6143854650e+00 -2.7961976483e+00 1.6143854650e+00 2.7961976483e+00 
29800 6.3759017644e+00 2.2124112111e-03 1.6143137488e+00 -2.7960734322e+00 1.6143137488e+00 2.7960734322e+00 
29900 6.3758948548e+00 2.1105050974e-03 1.6142452244e+00 -2.7959547446e+00 1.6142452244e+00 2.7959547446e+00 
30000 6.3758885568e+00 2.0098917754e-03 1.6141798536e+00 -2.7958415190e+00 1.6141798536e+00 2.7958415190e+00 
30100 6.3758828676e+00 1.9106089537e-03 1.6141175966e+00 -2.7957336867e+00 1.6141175966e+00 2.7957336867e+00 
30200 6.3758777825e+00 1.8126916676e-03 1.6140584127e+00 -2.7956311771e+00 1.6140584127e+00 2.7956311771e+00 
30300 6.3758732946e+00 1.7161723638e-03 1.6140022598e+00 -2.7955339175e+00 1.6140022598e+00 2.7955339175e+00 
30400 6.3758693955e+00 1.6210809860e-03 1.6139490949e+00 -2.7954418333e+00 1.6139490949e+00 2.7954418333e+00 
30500 6.3758660748e+00 1.5274450602e-03 1.6138988743e+00 -2.7953548485e+00 1.6138988743e+00 2.7953548485e+00 
30600 6.3758633204e+00 1.4352897790e-03 1.6138515529e+00 -2.7952728855e+00 1.6138515529e+00 2.7952728855e+00 
30700 6.3758611190e+00 1.3446380865e-03 1.6138070853e+00 -2.7951958653e+00 1.6138070853e+00 2.7951958653e+00 
30800 6.3758594556e+00 1.2555107619e-03 1.6137654250e+00 -2.7951237076e+00 1.6137654250e+00 2.7951237076e+00 
30900 6.3758583141e+00 1.1679265021e-03 1.6137265251e+00 -2.7950563311e+00 1.6137265251e+00 2.7950563311e+00 
31000 6.3758576771e+00 1.0819020040e-03 1.6136903380e+00 -2.7949936531e+00 1.6136903380e+00 2.7949936531e+00 
31100 6.3758575264e+00 9.9745204518e-04 1.6136568155e+00 -2.7949355905e+00 1.6136568155e+00 2.7949355905e+00 
31200 6.3758578425e+00 9.1458956387e-04 1.6136259091e+00 -2.7948820589e+00 1.6136259091e+00 2.7948820589e+00 
31300 6.3758586055e+00 8.3332573703e-04 1.6135975696e+00 -2.7948329735e+00 1.6135975696e+00 2.7948329735e+00 
31400 6.3758597945e+00 7.5367005744e-04 1.6135717477e+00 -2.7947882486e+00 1.6135717477e+00 2.7947882486e+00 
31500 6.3758613880e+00 6.7563040907e-04 1.6135483936e+00 -2.7947477982e+00 1.6135483936e+00 2.7947477982e+00 
31600 6.3758633642e+00 5.9921314081e-04 1.6135274575e+00 -2.7947115358e+00 1.6135274575e+00 2.7947115358e+00 
31700 6.3758657007e+00 5.2442313855e-04 1.6135088891e+00 -2.7946793744e+00 1.6135088891e+00 2.7946793744e+00 
31800 6.3758683750e+00 4.5126389542e-04 1.6134926381e+00 -2.7946512269e+00 1.6134926381e+00 2.7946512269e+00 
31900 6.3758713642e+00 3.7973758012e-04 1.6134786541e+00 -2.7946270058e+00 1.6134786541e+00 2.7946270058e+00 
32000 6.3758746454e+00 3.0984510340e-04 1.6134668864e+00 -2.7946066236e+00 1.6134668864e+00 2.7946066236e+00 
32100 6.3758781957e+00 2.4158618250e-04 1.6134572846e+00 -2.7945899927e+00 1.6134572846e+00 2.7945899927e+00 
32200 6.3758819923e+00 1.7495940358e-04 1.6134497980e+00 -2.7945770256e+00 1.6134497980e+00 2.7945770256e+00 
32300 6.3758860125e+00 1.0996228203e-04 1.6134443761e+00 -2.7945676346e+00 1.6134443761e+00 2.7945676346e+00 
32400 6.3758902336e+00 4.6591320816e-05 1.6134409684e+00 -2.7945617323e+00 1.6134409684e+00 2.7945617323e+00 
32500 6.3758946335e+00 -1.3181224963e-05 1.6134409684e+00 -2.7945617323e+00 1.6134409684e+00 2.7945617323e+00 
32600 6.3758991904e+00 -7.3943786441e-05 1.6134409684e+00 -2.7945617323e+00 1.6134409684e+00 2.7945617323e+00 
32700 6.3759038828e+00 -1.3251447019e-04 1.6134432599e+00 -2.7945657013e+00 1.6134432599e+00 2.7945657013e+00 
32800 6.3759086899e+00 -1.8948026428e-04 1.6134473665e+00 -2.7945728141e+00 1.6134473665e+00 2.7945728141e+00 
32900 6.3759135913e+00 -2.4484900880e-04 1.6134532384e+00 -2.7945829845e+00 1.6134532384e+00 2.7945829845e+00 
33000 6.3759185671e+00 -2.9862924759e-04 1.6134608261e+00 -2.7945961269e+00 1.6134608261e+00 2.7945961269e+00 
33100 6.3759235982e+00 -3.5083018515e-04 1.6134700804e+00 -2.7946121558e+00 1.6134700804e+00 2.7946121558e+00 
33200 6.3759286659e+00 -4.0146164566e-04 1.6134809524e+00 -2.7946309865e+00 1.6134809524e+00 2.7946309865e+00 
33300 6.3759337527e+00 -4.5053403404e-04 1.6134933932e+00 -2.7946525348e+00 1.6134933932e+00 2.7946525348e+00 
33400 6.3759388412e+00 -4.9805829912e-04 1.6135073547e+00 -2.7946767167e+00 1.6135073547e+00 2.7946767167e+00 
33500 6.3759439153e+00 -5.4404589869e-04 1.6135227888e+00 -2.7947034493e+00 1.6135227888e+00 2.7947034493e+00 
33600 6.3759489594e+00 -5.8850876665e-04 1.6135396477e+00 -2.7947326499e+00 1.6135396477e+00 2.7947326499e+00 
33700 6.3759539588e+00 -6.3145928193e-04 1.6135578843e+00 -2.7947642366e+00 1.6135578843e+00 2.7947642366e+00 
33800 6.3759588996e+00 -6.7291023939e-04 1.6135774517e+00 -2.7947981283e+00 1.6135774517e+00 2.7947981283e+00 
33900 6.3759637688e+00 -7.1287482250e-04 1.6135983032e+00 -2.7948342442e+00 1.6135983032e+00 2.7948342442e+00 
34000 6.3759685542e+00 -7.5136657774e-04 1.6136203929e+00 -2.7948725046e+00 1.6136203929e+00 2.7948725046e+00 
34100 6.3759732443e+00 -7.8839939078e-04 1.6136436749e+00 -2.7949128303e+00 1.6136436749e+00 2.7949128303e+00 
34200 6.3759778288e+00 -8.2398746424e-04 1.6136681042e+00 -2.7949551430e+00 1.6136681042e+00 2.7949551430e+00 
34300 6.3759822979e+00 -8.5814529710e-04 1.6136936357e+00 -2.7949993650e+00 1.6136936357e+00 2.7949993650e+00 
34400 6.3759866428e+00 -8.9088766555e-04 1.6137202253e+00 -2.7950454194e+00 1.6137202253e+00 2.7950454194e+00 
34500 6.3759908556e+00 -9.2222960540e-04 1.6137478289e+00 -2.7950932303e+00 1.6137478289e+00 2.7950932303e+00 
34600 6.3759949291e+00 -9.5218639578e-04 1.6137764031e+00 -2.7951427223e+00 1.6137764031e+00 2.7951427223e+00 
34700 6.3759988569e+00 -9.8077354425e-04 1.6138059050e+00 -2.7951938211e+00 1.6138059050e+00 2.7951938211e+00 
34800 6.3760026336e+00 -1.0080067731e-03 1.6138362921e+00 -2.7952464530e+00 1.6138362921e+00 2.7952464530e+00 
34900 6.3760062544e+00 -1.0339020069e-03 1.6138675223e+00 -2.7953005454e+00 1.6138675223e+00 2.7953005454e+00 
35000 6.3760097152e+00 -1.0584753612e-03 1.6138995543e+00 -2.7953560263e+00 1.6138995543e+00 2.7953560263e+00 
35100 6.3760130129e+00 -1.0817431320e-03 1.6139323469e+00 -2.7954128247e+00 1.6139323469e+00 2.7954128247e+00 
35200 6.3760161449e+00 -1.1037217868e-03 1.6139658596e+00 -2.7954708706e+00 1.6139658596e+00 2.7954708706e+00 
35300 6.3760191094e+00 -1.1244279558e-03 1.6140000526e+00 -2.7955300945e+00 1.6140000526e+00 2.7955300945e+00 
35400 6.3760219051e+00 -1.1438784248e-03 1.6140348863e+00 -2.7955904283e+00 1.6140348863e+00 2.7955904283e+00 
35500 6.3760245317e+00 -1.1620901280e-03 1.6140703218e+00 -2.7956518043e+00 1.6140703218e+00 2.7956518043e+00 
35600 6.3760269890e+00 -1.1790801422e-03 1.6141063207e+00 -2.7957141562e+00 1.6141063207e+00 2.7957141562e+00 
35700 6.3760292778e+00 -1.1948656817e-03 1.6141428451e+00 -2.7957774183e+00 1.6141428451e+00 2.7957774183e+00 
35800 6.3760313994e+00 -1.2094640927e-03 1.6141798576e+00 -2.7958415259e+00 1.6141798576e+00 2.7958415259e+00 
35900 6.3760333554e+00 -1.2228928501e-03 1.6142173215e+00 -2.7959064152e+00 1.6142173215e+00 2.7959064152e+00 
36000 6.3760351481e+00 -1.2351695529e-03 1.6142552004e+00 -2.7959720235e+00 1.6142552004e+00 2.7959720235e+00 
36100 6.3760367801e+00 -1.2463119213e-03 1.6142934588e+00 -2.7960382889e+00 1.6142934588e+00 2.7960382889e+00 
36200 6.3760382547e+00 -1.2563377937e-03 1.6143320613e+00 -2.7961051505e+00 1.6143320613e+00 2.7961051505e+00 
36300 6.3760395753e+00 -1.2652651236e-03 1.6143709735e+00 -2.7961725483e+00 1.6143709735e+00 2.7961725483e+00 
36400 6.3760407458e+00 -1.2731119779e-03 1.6144101612e+00 -2.7962404234e+00 1.6144101612e+00 2.7962404234e+00 
36500 6.3760417704e+00 -1.2798965342e-03 1.6144495910e+00 -2.7963087178e+00 1.6144495910e+00 2.7963087178e+00 
36600 6.3760426537e+00 -1.2856370786e-03 1.6144892299e+00 -2.7963773745e+00 1.6144892299e+00 2.7963773745e+00 
36700 6.3760434005e+00 -1.2903520046e-03 1.6145290457e+00 -2.7964463374e+00 1.6145290457e+00 2.7964463374e+00 
36800 6.3760440158e+00 -1.2940598103e-03 1.6145690065e+00 -2.7965155516e+00 1.6145690065e+00 2.7965155516e+00 
36900 6.3760445048e+00 -1.2967790971e-03 1.6146090811e+00 -2.7965849629e+00 1.6146090811e+00 2.7965849629e+00 
37000 6.3760448731e+00 -1.2985285679e-03 1.6146492390e+00 -2.7966545183e+00 1.6146492390e+00 2.7966545183e+00 
37100 6.3760451263e+00 -1.2993270251e-03 1.6146894500e+00 -2.7967241658e+00 1.6146894500e+00 2.7967241658e+00 
37200 6.3760452700e+00 -1.2991933687e-03 1.6147296847e+00 -2.7967938545e+00 1.6147296847e+00 2.7967938545e+00 
37300 6.3760453102e+00 -1.2981465943e-03 1.6147699143e+00 -2.7968635342e+00 1.6147699143e+00 2.7968635342e+00 
37400 6.3760452528e+00 -1.2962057910e-03 1.6148101105e+00 -2.7969331560e+00 1.6148101105e+00 2.7969331560e+00 
37500 6.3760451036e+00 -1.2933901389e-03 1.6148502456e+00 -2.7970026721e+00 1.6148502456e+00 2.7970026721e+00 
37600 6.3760448688e+00 -1.2897189067e-03 1.6148902926e+00 -2.7970720353e+00 1.6148902926e+00 2.7970720353e+00 
37700 6.3760445544e+00 -1.2852114492e-03 1.6149302248e+00 -2.7971412000e+00 1.6149302248e+00 2.7971412000e+00 
37800 6.3760441664e+00 -1.2798872039e-03 1.6149700165e+00 -2.7972101213e+00 1.6149700165e+00 2.7972101213e+00 
37900 6.3760437106e+00 -1.2737656883e-03 1.6150096424e+00 -2.7972787554e+00 1.6150096424e+00 2.7972787554e+00 
38000 6.3760431931e+00 -1.2668664962e-03 1.6150490778e+00 -2.7973470595e+00 1.6150490778e+00 2.7973470595e+00 
38100 6.3760426197e+00 -1.2592092940e-03 1.6150882986e+00 -2.7974149920e+00 1.6150882986e+00 2.7974149920e+00 
38200 6.3760419962e+00 -1.2508138168e-03 1.6151272815e+00 -2.7974825122e+00 1.6151272815e+00 2.7974825122e+00 
38300 6.3760413281e+00 -1.2416998642e-03 1.6151660035e+00 -2.7975495807e+00 1.6151660035e+00 2.7975495807e+00 
38400 6.3760406210e+00 -1.2318872957e-03 1.6152044424e+00 -2.7976161588e+00 1.6152044424e+00 2.7976161588e+00 
38500 6.3760398803e+00 -1.2213960254e-03 1.6152425766e+00 -2.7976822093e+00 1.6152425766e+00 2.7976822093e+00 
38600 6.3760391113e+00 -1.2102460175e-03 1.6152803852e+00 -2.7977476957e+00 1.6152803852e+00 2.7977476957e+00 
38700 6.3760383190e+00 -1.1984572805e-03 1.6153178478e+00 -2.7978125827e+00 1.6153178478e+00 2.7978125827e+00 
38800 6.3760375083e+00 -1.1860498612e-03 1.6153549446e+00 -2.7978768362e+00 1.6153549446e+00 2.7978768362e+00 
38900 6.3760366840e+00 -1.1730438390e-03 1.6153916564e+00 -2.7979404231e+00 1.6153916564e+00 2.7979404231e+00 
39000 6.3760358507e+00 -1.1594593192e-03 1.6154279649e+00 -2.7980033112e+00 1.6154279649e+00 2.7980033112e+00 
39100 6.3760350126e+00 -1.1453164264e-03 1.6154638521e+00 -2.7980654697e+00 1.6154638521e+00 2.7980654697e+00 
39200 6.3760341740e+00 -1.1306352975e-03 1.6154993008e+00 -2.7981268685e+00 1.6154993008e+00 2.7981268685e+00 
39300 6.3760333388e+00 -1.1154360745e-03 1.6155342943e+00 -2.7981874790e+00 1.6155342943e+00 2.7981874790e+00 
39400 6.3760325108e+00 -1.0997388968e-03 1.6155688166e+00 -2.7982472735e+00 1.6155688166e+00 2.7982472735e+00 
39500 6.3760316935e+00 -1.0835638934e-03 1.6156028524e+00 -2.7983062252e+00 1.6156028524e+00 2.7983062252e+00 
39600 6.3760308902e+00 -1.0669311750e-03 1.6156363868e+00 -2.7983643086e+00 1.6156363868e+00 2.7983643086e+00 
39700 6.3760301039e+00 -1.0498608254e-03 1.6156694059e+00 -2.7984214992e+00 1.6156694059e+00 2.7984214992e+00 
39800 6.3760293377e+00 -1.0323728933e-03 1.6157018959e+00 -2.7984777737e+00 1.6157018959e+00 2.7984777737e+00 
39900 6.3760285942e+00 -1.0144873831e-03 1.6157338442e+00 -2.7985331096e+00 1.6157338442e+00 2.7985331096e+00 
40000 6.3760278758e+00 -9.9622424629e-04 1.6157652383e+00 -2.7985874858e+00 1.6157652383e+00 2.7985874858e+00 
40100 6.3760271847e+00 -9.7760337212e-04 1.6157960666e+00 -2.7986408821e+00 1.6157960666e+00 2.7986408821e+00 
40200 6.3760265231e+00 -9.5864457831e-04 1.6158263182e+00 -2.7986932793e+00 1.6158263182e+00 2.7986932793e+00 
40300 6.3760258926e+00 -9.3936760154e-04 1.6158559825e+00 -2.7987446594e+00 1.6158559825e+00 2.7987446594e+00 
40400 6.3760252950e+00 -9.1979208787e-04 1.6158850498e+00 -2.7987950054e+00 1.6158850498e+00 2.7987950054e+00 
40500 6.3760247317e+00 -8.9993758292e-04 1.6159135108e+00 -2.7988443013e+00 1.6159135108e+00 2.7988443013e+00 
40600 6.3760242038e+00 -8.7982352207e-04 1.6159413569e+00 -2.7988925323e+00 1.6159413569e+00 2.7988925323e+00 
40700 6.3760237123e+00 -8.5946922053e-04 1.6159685803e+00 -2.7989396845e+00 1.6159685803e+00 2.7989396845e+00 
40800 6.3760232583e+00 -8.3889386328e-04 1.6159951734e+00 -2.7989857450e+00 1.6159951734e+00 2.7989857450e+00 
40900 6.3760228422e+00 -8.1811649508e-04 1.6160211294e+00 -2.7990307022e+00 1.6160211294e+00 2.7990307022e+00 
41000 6.3760224646e+00 -7.9715601033e-04 1.6160464421e+00 -2.7990745451e+00 1.6160464421e+00 2.7990745451e+00 
41100 6.3760221258e+00 -7.7603114300e-04 1.6160711060e+00 -2.7991172642e+00 1.6160711060e+00 2.7991172642e+00 
41200 6.3760218259e+00 -7.5476045654e-04 1.6160951158e+00 -2.7991588505e+00 1.6160951158e+00 2.7991588505e+00 
41300 6.3760215650e+00 -7.3336233382e-04 1.6161184672e+00 -2.7991992963e+00 1.6161184672e+00 2.7991992963e+00 
41400 6.3760213430e+00 -7.1185496707e-04 1.6161411563e+00 -2.7992385949e+00 1.6161411563e+00 2.7992385949e+00 
41500 6.3760211595e+00 -6.9025634797e-04 1.6161631796e+00 -2.7992767405e+00 1.6161631796e+00 2.7992767405e+00 
41600 6.3760210141e+00 -6.6858425773e-04 1.6161845345e+00 -2.7993137281e+00 1.6161845345e+00 2.7993137281e+00 
41700 6.3760209063e+00 -6.4685625733e-04 1.6162052185e+00 -2.7993495540e+00 1.6162052185e+00 2.7993495540e+00 
41800 6.3760208355e+00 -6.2508967787e-04 1.6162252302e+00 -2.7993842151e+00 1.6162252302e+00 2.7993842151e+00 
41900 6.3760208009e+00 -6.0330161096e-04 1.6162445682e+00 -2.7994177095e+00 1.6162445682e+00 2.7994177095e+00 
42000 6.3760208016e+00 -5.8150889944e-04 1.6162632319e+00 -2.7994500360e+00 1.6162632319e+00 2.7994500360e+00 
42100 6.3760208368e+00 -5.5972812809e-04 1.6162812212e+00 -2.7994811945e+00 1.6162812212e+00 2.7994811945e+00 
42200 6.3760209053e+00 -5.3797561460e-04 1.6162985365e+00 -2.7995111855e+00 1.6162985365e+00 2.7995111855e+00 
42300 6.3760210060e+00 -5.1626740078e-04 1.6163151788e+00 -2.7995400107e+00 1.6163151788e+00 2.7995400107e+00 
42400 6.3760211378e+00 -4.9461924387e-04 1.6163311493e+00 -2.7995676725e+00 1.6163311493e+00 2.7995676725e+00 
42500 6.3760212995e+00 -4.7304660818e-04 1.6163464500e+00 -2.7995941741e+00 1.6163464500e+00 2.7995941741e+00 
42600 6.3760214896e+00 -4.5156465695e-04 1.6163610832e+00 -2.7996195196e+00 1.6163610832e+00 2.7996195196e+00 
42700 6.3760217070e+00 -4.3018824439e-04 1.6163750518e+00 -2.7996437138e+00 1.6163750518e+00 2.7996437138e+00 
42800 6.3760219502e+00 -4.0893190812e-04 1.6163883590e+00 -2.7996667626e+00 1.6163883590e+00 2.7996667626e+00 
42900 6.3760222177e+00 -3.8780986175e-04 1.6164010086e+00 -2.7996886723e+00 1.6164010086e+00 2.7996886723e+00 
43000 6.3760225082e+00 -3.6683598788e-04 1.6164130047e+00 -2.7997094502e+00 1.6164130047e+00 2.7997094502e+00 
43100 6.3760228202e+00 -3.4602383128e-04 1.6164243520e+00 -2.7997291042e+00 1.6164243520e+00 2.7997291042e+00 
43200 6.3760231522e+00 -3.2538659250e-04 1.6164350553e+00 -2.7997476430e+00 1.6164350553e+00 2.7997476430e+00 
43300 6.3760235026e+00 -3.0493712171e-04 1.6164451203e+00 -2.7997650760e+00 1.6164451203e+00 2.7997650760e+00 
43400 6.3760238701e+00 -2.8468791293e-04 1.6164545526e+00 -2.7997814133e+00 1.6164545526e+00 2.7997814133e+00 
43500 6.3760242531e+00 -2.6465109856e-04 1.6164633586e+00 -2.7997966656e+00 1.6164633586e+00 2.7997966656e+00 
43600 6.3760246502e+00 -2.4483844429e-04 1.6164715447e+00 -2.7998108444e+00 1.6164715447e+00 2.7998108444e+00 
43700 6.3760250598e+00 -2.2526134434e-04 1.6164791179e+00 -2.7998239617e+00 1.6164791179e+00 2.7998239617e+00 
43800 6.3760254805e+00 -2.0593081706e-04 1.6164860856e+00 -2.7998360300e+00 1.6164860856e+00 2.7998360300e+00 
43900 6.3760259109e+00 -1.8685750093e-04 1.6164924553e+00 -2.7998470627e+00 1.6164924553e+00 2.7998470627e+00 
44000 6.3760263496e+00 -1.6805165089e-04 1.6164982350e+00 -2.7998570734e+00 1.6164982350e+00 2.7998570734e+00 
44100 6.3760267952e+00 -1.4952313505e-04 1.6165034331e+00 -2.7998660767e+00 1.6165034331e+00 2.7998660767e+00 
44200 6.3760272464e+00 -1.3128143179e-04 1.6165080580e+00 -2.7998740872e+00 1.6165080580e+00 2.7998740872e+00 
44300 6.3760277018e+00 -1.1333562722e-04 1.6165121186e+00 -2.7998811205e+00 1.6165121186e+00 2.7998811205e+00 
44400 6.3760281601e+00 -9.5694413094e-05 1.6165156242e+00 -2.7998871923e+00 1.6165156242e+00 2.7998871923e+00 
44500 6.3760286202e+00 -7.8366084959e-05 1.6165185841e+00 -2.7998923190e+00 1.6165185841e+00 2.7998923190e+00 
44600 6.3760290809e+00 -6.1358540837e-05 1.6165210080e+00 -2.7998965173e+00 1.6165210080e+00 2.7998965173e+00 
44700 6.3760295411e+00 -4.7260557264e-05 1.6165210080e+00 -2.7998965173e+00 1.6165210080e+00 2.7998965173e+00 
44800 6.3760299995e+00 -3.2813942790e-05 1.6165210080e+00 -2.7998965173e+00 1.6165210080e+00 2.7998965173e+00 
44900 6.3760304551e+00 -1.8034953621e-05 1.6165210080e+00 -2.7998965173e+00 1.6165210080e+00 2.7998965173e+00 
45000 6.3760309070e+00 -2.9397254809e-06 1.6165210080e+00 -2.7998965173e+00 1.6165210080e+00 2.7998965173e+00 
45100 6.3760313543e+00 1.2455730571e-05 1.6165210080e+00 -2.7998965173e+00 1.6165210080e+00 2.7998965173e+00 
45200 6.3760317960e+00 2.8135532416e-05 1.6165210080e+00 -2.7998965173e+00 1.6165210080e+00 2.7998965173e+00 
45300 6.3760322315e+00 4.4083931248e-05 1.6165210080e+00 -2.7998965173e+00 1.6165210080e+00 2.7998965173e+00 
45400 6.3760326599e+00 6.0285316035e-05 1.6165210080e+00 -2.7998965173e+00 1.6165210080e+00 2.7998965173e+00 
45500 6.3760330807e+00 7.6724218027e-05 1.6165210080e+00 -2.7998965173e+00 1.6165210080e+00 2.7998965173e+00 
45600 6.3760334928e+00 9.0157187358e-05 1.6165186349e+00 -2.7998924069e+00 1.6165186349e+00 2.7998924069e+00 
45700 6.3760338958e+00 1.0320985665e-04 1.6165158462e+00 -2.7998875769e+00 1.6165158462e+00 2.7998875769e+00 
45800 6.3760342891e+00 1.1587900425e-04 1.6165126539e+00 -2.7998820476e+00 1.6165126539e+00 2.7998820476e+00 
45900 6.3760346722e+00 1.2816179325e-04 1.6165090697e+00 -2.7998758395e+00 1.6165090697e+00 2.7998758395e+00 
46000 6.3760350447e+00 1.4005576776e-04 1.6165051055e+00 -2.7998689734e+00 1.6165051055e+00 2.7998689734e+00 
46100 6.3760354062e+00 1.5155884872e-04 1.6165007734e+00 -2.7998614701e+00 1.6165007734e+00 2.7998614701e+00 
46200 6.3760357563e+00 1.6266932949e-04 1.6164960856e+00 -2.7998533505e+00 1.6164960856e+00 2.7998533505e+00 
46300 6.3760360947e+00 1.7338587114e-04 1.6164910540e+00 -2.7998446356e+00 1.6164910540e+00 2.7998446356e+00 
46400 6.3760364211e+00 1.8370749739e-04 1.6164856910e+00 -2.7998353465e+00 1.6164856910e+00 2.7998353465e+00 
46500 6.3760367355e+00 1.9363358938e-04 1.6164800087e+00 -2.7998255045e+00 1.6164800087e+00 2.7998255045e+00 
46600 6.3760370375e+00 2.0316388008e-04 1.6164740193e+00 -2.7998151306e+00 1.6164740193e+00 2.7998151306e+00 
46700 6.3760373272e+00 2.1229844844e-04 1.6164677352e+00 -2.7998042461e+00 1.6164677352e+00 2.7998042461e+00 
46800 6.3760376044e+00 2.2103771340e-04 1.6164611685e+00 -2.7997928722e+00 1.6164611685e+00 2.7997928722e+00 
46900 6.3760378692e+00 2.2938242750e-04 1.6164543314e+00 -2.7997810300e+00 1.6164543314e+00 2.7997810300e+00 
47000 6.3760381214e+00 2.3733367043e-04 1.6164472361e+00 -2.7997687407e+00 1.6164472361e+00 2.7997687407e+00 
47100 6.3760383613e+00 2.4489284220e-04 1.6164398949e+00 -2.7997560254e+00 1.6164398949e+00 2.7997560254e+00 
47200 6.3760385888e+00 2.5206165625e-04 1.6164323199e+00 -2.7997429050e+00 1.6164323199e+00 2.7997429050e+00 
47300 6.3760388041e+00 2.5884213224e-04 1.6164245230e+00 -2.7997294005e+00 1.6164245230e+00 2.7997294005e+00 
47400 6.3760390073e+00 2.6523658875e-04 1.6164165164e+00 -2.7997155326e+00 1.6164165164e+00 2.7997155326e+00 
47500 6.3760391987e+00 2.7124763577e-04 1.6164083119e+00 -2.7997013221e+00 1.6164083119e+00 2.7997013221e+00 
47600 6.3760393784e+00 2.7687816699e-04 1.6163999215e+00 -2.7996867894e+00 1.6163999215e+00 2.7996867894e+00 
47700 6.3760395468e+00 2.8213135202e-04 1.6163913569e+00 -2.7996719550e+00 1.6163913569e+00 2.7996719550e+00 
47800 6.3760397039e+00 2.8701062839e-04 1.6163826297e+00 -2.7996568391e+00 1.6163826297e+00 2.7996568391e+00 
47900 6.3760398502e+00 2.9151969347e-04 1.6163737515e+00 -2.7996414616e+00 1.6163737515e+00 2.7996414616e+00 
48000 6.3760399860e+00 2.9566249627e-04 1.6163647338e+00 -2.7996258425e+00 1.6163647338e+00 2.7996258425e+00 
48100 6.3760401115e+00 2.9944322910e-04 1.6163555879e+00 -2.7996100014e+00 1.6163555879e+00 2.7996100014e+00 
48200 6.3760402271e+00 3.0286631919e-04 1.6163463250e+00 -2.7995939575e+00 1.6163463250e+00 2.7995939575e+00 
48300 6.3760403332e+00 3.0593642014e-04 1.6163369562e+00 -2.7995777302e+00 1.6163369562e+00 2.7995777302e+00 
48400 6.3760404301e+00 3.0865840343e-04 1.6163274923e+00 -2.7995613383e+00 1.6163274923e+00 2.7995613383e+00 
48500 6.3760405182e+00 3.1103734973e-04 1.6163179442e+00 -2.7995448005e+00 1.6163179442e+00 2.7995448005e+00 
48600 6.3760405979e+00 3.1307854022e-04 1.6163083224e+00 -2.7995281351e+00 1.6163083224e+00 2.7995281351e+00 
48700 6.3760406697e+00 3.1478744792e-04 1.6162986374e+00 -2.7995113602e+00 1.6162986374e+00 2.7995113602e+00 
48800 6.3760407338e+00 3.1616972888e-04 1.6162888995e+00 -2.7994944936e+00 1.6162888995e+00 2.7994944936e+00 
48900 6.3760407908e+00 3.1723121346e-04 1.6162791188e+00 -2.7994775529e+00 1.6162791188e+00 2.7994775529e+00 
49000 6.3760408410e+00 3.1797789750e-04 1.6162693052e+00 -2.7994605552e+00 1.6162693052e+00 2.7994605552e+00 
49100 6.3760408848e+00 3.1841593361e-04 1.6162594684e+00 -2.7994435175e+00 1.6162594684e+00 2.7994435175e+00 
49200 6.3760409227e+00 3.1855162233e-04 1.6162496180e+00 -2.7994264561e+00 1.6162496180e+00 2.7994264561e+00 
49300 6.3760409550e+00 3.1839140344e-04 1.6162397634e+00 -2.7994093873e+00 1.6162397634e+00 2.7994093873e+00 
49400 6.3760409822e+00 3.1794184721e-04 1.6162299136e+00 -2.7993923271e+00 1.6162299136e+00 2.7993923271e+00 
49500 6.3760410047e+00 3.1720964573e-04 1.6162200777e+00 -2.7993752908e+00 1.6162200777e+00 2.7993752908e+00 
49600 6.3760410229e+00 3.1620160431e-04 1.6162102644e+00 -2.7993582936e+00 1.6162102644e+00 2.7993582936e+00 
49700 6.3760410370e+00 3.1492463284e-04 1.6162004822e+00 -2.7993413504e+00 1.6162004822e+00 2.7993413504e+00 
49800 6.3760410477e+00 3.1338573735e-04 1.6161907395e+00 -2.7993244755e+00 1.6161907395e+00 2.7993244755e+00 
49900 6.3760410551e+00 3.1159201154e-04 1.6161810443e+00 -2.7993076829e+00 1.6161810443e+00 2.7993076829e+00 
50000 6.3760410598e+00 3.0955062841e-04 1.6161714045e+00 -2.7992909864e+00 1.6161714045e+00 2.7992909864e+00 
50100 6.3760410620e+00 3.0726883206e-04 1.6161618279e+00 -2.7992743991e+00 1.6161618279e+00 2.7992743991e+00 
50200 6.3760410620e+00 3.0475392941e-04 1.6161523218e+00 -2.7992579341e+00 1.6161523218e+00 2.7992579341e+00 
50300 6.3760410603e+00 3.0201328225e-04 1.6161428934e+00 -2.7992416036e+00 1.6161428934e+00 2.7992416036e+00 
50400 6.3760410571e+00 2.9905429918e-04 1.6161335498e+00 -2.7992254200e+00 1.6161335498e+00 2.7992254200e+00 
50500 6.3760410528e+00 2.9588442783e-04 1.6161242976e+00 -2.7992093948e+00 1.6161242976e+00 2.7992093948e+00 
50600 6.3760410477e+00 2.9251114712e-04 1.6161151435e+00 -2.7991935394e+00 1.6161151435e+00 2.7991935394e+00 
50700 6.3760410419e+00 2.8894195965e-04 1.6161060937e+00 -2.7991778647e+00 1.6161060937e+00 2.7991778647e+00 
50800 6.3760410359e+00 2.8518438428e-04 1.6160971542e+00 -2.7991623811e+00 1.6160971542e+00 2.7991623811e+00 
50900 6.3760410298e+00 2.8124594874e-04 1.6160883310e+00 -2.7991470988e+00 1.6160883310e+00 2.7991470988e+00 
51000 6.3760410240e+00 2.7713418254e-04 1.6160796296e+00 -2.7991320275e+00 1.6160796296e+00 2.7991320275e+00 
51100 6.3760410185e+00 2.7285660984e-04 1.6160710553e+00 -2.7991171764e+00 1.6160710553e+00 2.7991171764e+00 
51200 6.3760410137e+00 2.6842074267e-04 1.6160626133e+00 -2.7991025545e+00 1.6160626133e+00 2.7991025545e+00 
51300 6.3760410098e+00 2.6383407414e-04 1.6160543086e+00 -2.7990881702e+00 1.6160543086e+00 2.7990881702e+00 
51400 6.3760410068e+00 2.5910407189e-04 1.6160461457e+00 -2.7990740317e+00 1.6160461457e+00 2.7990740317e+00 
51500 6.3760410051e+00 2.5423817173e-04 1.6160381291e+00 -2.7990601465e+00 1.6160381291e+00 2.7990601465e+00 
51600 6.3760410047e+00 2.4924377135e-04 1.6160302630e+00 -2.7990465220e+00 1.6160302630e+00 2.7990465220e+00 
51700 6.3760410058e+00 2.4412822432e-04 1.6160225514e+00 -2.7990331652e+00 1.6160225514e+00 2.7990331652e+00 
51800 6.3760410085e+00 2.3889883415e-04 1.6160149980e+00 -2.7990200823e+00 1.6160149980e+00 2.7990200823e+00 
51900 6.3760410130e+00 2.3356284863e-04 1.6160076064e+00 -2.7990072797e+00 1.6160076064e+00 2.7990072797e+00 
52000 6.3760410193e+00 2.2812745424e-04 1.6160003799e+00 -2.7989947630e+00 1.6160003799e+00 2.7989947630e+00 
52100 6.3760410275e+00 2.2259977083e-04 1.6159933215e+00 -2.7989825375e+00 1.6159933215e+00 2.7989825375e+00 
52200 6.3760410376e+00 2.1698684642e-04 1.6159864341e+00 -2.7989706082e+00 1.6159864341e+00 2.7989706082e+00 
52300 6.3760410499e+00 2.1129565224e-04 1.6159797203e+00 -2.7989589796e+00 1.6159797203e+00 2.7989589796e+00 
52400 6.3760410642e+00 2.0553307788e-04 1.6159731826e+00 -2.7989476560e+00 1.6159731826e+00 2.7989476560e+00 
52500 6.3760410807e+00 1.9970592669e-04 1.6159668232e+00 -2.7989366412e+00 1.6159668232e+00 2.7989366412e+00 
52600 6.3760410993e+00 1.9382091131e-04 1.6159606441e+00 -2.7989259386e+00 1.6159606441e+00 2.7989259386e+00 
52700 6.3760411201e+00 1.8788464947e-04 1.6159546470e+00 -2.7989155514e+00 1.6159546470e+00 2.7989155514e+00 
52800 6.3760411431e+00 1.8190365984e-04 1.6159488336e+00 -2.7989054822e+00 1.6159488336e+00 2.7989054822e+00 
52900 6.3760411683e+00 1.7588435818e-04 1.6159432052e+00 -2.7988957336e+00 1.6159432052e+00 2.7988957336e+00 
53000 6.3760411956e+00 1.6983305368e-04 1.6159377631e+00 -2.7988863075e+00 1.6159377631e+00 2.7988863075e+00 
53100 6.3760412251e+00 1.6375594535e-04 1.6159325081e+00 -2.7988772057e+00 1.6159325081e+00 2.7988772057e+00 
53200 6.3760412566e+00 1.5765911876e-04 1.6159274412e+00 -2.7988684295e+00 1.6159274412e+00 2.7988684295e+00 
53300 6.3760412903e+00 1.5154854286e-04 1.6159225629e+00 -2.7988599801e+00 1.6159225629e+00 2.7988599801e+00 
53400 6.3760413259e+00 1.4543006702e-04 1.6159178737e+00 -2.7988518581e+00 1.6159178737e+00 2.7988518581e+00 
53500 6.3760413636e+00 1.3930941823e-04 1.6159133738e+00 -2.7988440640e+00 1.6159133738e+00 2.7988440640e+00 
53600 6.3760414031e+00 1.3319219850e-04 1.6159090632e+00 -2.7988365979e+00 1.6159090632e+00 2.7988365979e+00 
53700 6.3760414445e+00 1.2708388242e-04 1.6159049420e+00 -2.7988294597e+00 1.6159049420e+00 2.7988294597e+00 
53800 6.3760414876e+00 1.2098981491e-04 1.6159010097e+00 -2.7988226488e+00 1.6159010097e+00 2.7988226488e+00 
53900 6.3760415325e+00 1.1491520915e-04 1.6158972660e+00 -2.7988161644e+00 1.6158972660e+00 2.7988161644e+00 
54000 6.3760415789e+00 1.0886514463e-04 1.6158937102e+00 -2.7988100057e+00 1.6158937102e+00 2.7988100057e+00 
54100 6.3760416269e+00 1.0284456547e-04 1.6158903416e+00 -2.7988041711e+00 1.6158903416e+00 2.7988041711e+00 
54200 6.3760416763e+00 9.6858278798e-05 1.6158871593e+00 -2.7987986592e+00 1.6158871593e+00 2.7987986592e+00 
54300 6.3760417271e+00 9.0910953387e-05 1.6158841623e+00 -2.7987934682e+00 1.6158841623e+00 2.7987934682e+00 
54400 6.3760417791e+00 8.5007118375e-05 1.6158813492e+00 -2.7987885959e+00 1.6158813492e+00 2.7987885959e+00 
54500 6.3760418323e+00 7.9151162210e-05 1.6158787189e+00 -2.7987840399e+00 1.6158787189e+00 2.7987840399e+00 
54600 6.3760418866e+00 7.3347331716e-05 1.6158762697e+00 -2.7987797978e+00 1.6158762697e+00 2.7987797978e+00 
54700 6.3760419418e+00 6.7599731320e-05 1.6158740001e+00 -2.7987758668e+00 1.6158740001e+00 2.7987758668e+00 
54800 6.3760419981e+00 6.4761582084e-05 1.6158740001e+00 -2.7987758668e+00 1.6158740001e+00 2.7987758668e+00 
54900 6.3760420551e+00 6.1767149799e-05 1.6158740001e+00 -2.7987758668e+00 1.6158740001e+00 2.7987758668e+00 
55000 6.3760421128e+00 5.8621449967e-05 1.6158740001e+00 -2.7987758668e+00 1.6158740001e+00 2.7987758668e+00 
55100 6.3760421710e+00 5.5329472933e-05 1.6158740001e+00 -2.7987758668e+00 1.6158740001e+00 2.7987758668e+00 
55200 6.3760422296e+00 5.1896182775e-05 1.6158740001e+00 -2.7987758668e+00 1.6158740001e+00 2.7987758668e+00 
55300 6.3760422886e+00 4.8326516148e-05 1.6158740001e+00 -2.7987758668e+00 1.6158740001e+00 2.7987758668e+00 
55400 6.3760423478e+00 4.4625381135e-05 1.6158740001e+00 -2.7987758668e+00 1.6158740001e+00 2.7987758668e+00 
55500 6.3760424073e+00 4.0797656050e-05 1.6158740001e+00 -2.7987758668e+00 1.6158740001e+00 2.7987758668e+00 
55600 6.3760424668e+00 3.6848188258e-05 1.6158740001e+00 -2.7987758668e+00 1.6158740001e+00 2.7987758668e+00 
55700 6.3760425263e+00 3.2781792951e-05 1.6158740001e+00 -2.7987758668e+00 1.6158740001e+00 2.7987758668e+00 
55800 6.3760425858e+00 2.8603251937e-05 1.6158740001e+00 -2.7987758668e+00 1.6158740001e+00 2.7987758668e+00 
55900 6.3760426451e+00 2.4317312392e-05 1.6158740001e+00 -2.7987758668e+00 1.6158740001e+00 2.7987758668e+00 
56000 6.3760427042e+00 1.9928685631e-05 1.6158740001e+00 -2.7987758668e+00 1.6158740001e+00 2.7987758668e+00 
56100 6.3760427629e+00 1.5442045846e-05 1.6158740001e+00 -2.7987758668e+00 1.6158740001e+00 2.7987758668e+00 
56200 6.3760428213e+00 1.0862028860e-05 1.6158740001e+00 -2.7987758668e+00 1.6158740001e+00 2.7987758668e+00 
56300 6.3760428793e+00 6.1932308562e-06 1.6158740001e+00 -2.7987758668e+00 1.6158740001e+00 2.7987758668e+00 
56400 6.3760429367e+00 1.4402071312e-06 1.6158740001e+00 -2.7987758668e+00 1.6158740001e+00 2.7987758668e+00 
56500 6.3760429936e+00 -3.3925291718e-06 1.6158740001e+00 -2.7987758668e+00 1.6158740001e+00 2.7987758668e+00 
56600 6.3760430499e+00 -8.3005083255e-06 1.6158740001e+00 -2.7987758668e+00 1.6158740001e+00 2.7987758668e+00 
56700 6.3760431055e+00 -1.3279305267e-05 1.6158740001e+00 -2.7987758668e+00 1.6158740001e+00 2.7987758668e+00 
56800 6.3760431603e+00 -1.8324540847e-05 1.6158740001e+00 -2.7987758668e+00 1.6158740001e+00 2.7987758668e+00 
56900 6.3760432144e+00 -2.3431883068e-05 1.6158740001e+00 -2.7987758668e+00 1.6158740001e+00 2.7987758668e+00 
57000 6.3760432677e+00 -2.8597048324e-05 1.6158740001e+00 -2.7987758668e+00 1.6158740001e+00 2.7987758668e+00 
57100 6.3760433201e+00 -3.3815802609e-05 1.6158740001e+00 -2.7987758668e+00 1.6158740001e+00 2.7987758668e+00 
57200 6.3760433717e+00 -3.9083962736e-05 1.6158740001e+00 -2.7987758668e+00 1.6158740001e+00 2.7987758668e+00 
57300 6.3760434223e+00 -4.4397397516e-05 1.6158740001e+00 -2.7987758668e+00 1.6158740001e+00 2.7987758668e+00 
57400 6.3760434720e+00 -4.9752028943e-05 1.6158740001e+00 -2.7987758668e+00 1.6158740001e+00 2.7987758668e+00 
57500 6.3760435207e+00 -5.5143833347e-05 1.6158740001e+00 -2.7987758668e+00 1.6158740001e+00 2.7987758668e+00 
57600 6.3760435684e+00 -6.0568842531e-05 1.6158740001e+00 -2.7987758668e+00 1.6158740001e+00 2.7987758668e+00 
57700 6.3760436150e+00 -6.6023144891e-05 1.6158740001e+00 -2.7987758668e+00 1.6158740001e+00 2.7987758668e+00 
57800 6.3760436607e+00 -7.1502886499e-05 1.6158740001e+00 -2.7987758668e+00 1.6158740001e+00 2.7987758668e+00 
57900 6.3760437051e+00 -7.3990845860e-05 1.6158762126e+00 -2.7987796990e+00 1.6158762126e+00 2.7987796990e+00 
58000 6.3760437484e+00 -7.6371354782e-05 1.6158785021e+00 -2.7987836645e+00 1.6158785021e+00 2.7987836645e+00 
58100 6.3760437906e+00 -7.8644259289e-05 1.6158808653e+00 -2.7987877576e+00 1.6158808653e+00 2.7987877576e+00 
58200 6.3760438316e+00 -8.0809527226e-05 1.6158832988e+00 -2.7987919725e+00 1.6158832988e+00 2.7987919725e+00 
58300 6.3760438716e+00 -8.2867244623e-05 1.6158857992e+00 -2.7987963035e+00 1.6158857992e+00 2.7987963035e+00 
58400 6.3760439105e+00 -8.4817612039e-05 1.6158883634e+00 -2.7988007447e+00 1.6158883634e+00 2.7988007447e+00 
58500 6.3760439482e+00 -8.6660940950e-05 1.6158909879e+00 -2.7988052905e+00 1.6158909879e+00 2.7988052905e+00 
58600 6.3760439849e+00 -8.8397650135e-05 1.6158936694e+00 -2.7988099350e+00 1.6158936694e+00 2.7988099350e+00 
58700 6.3760440204e+00 -9.0028262086e-05 1.6158964046e+00 -2.7988146726e+00 1.6158964046e+00 2.7988146726e+00 
58800 6.3760440549e+00 -9.1553399434e-05 1.6158991903e+00 -2.7988194976e+00 1.6158991903e+00 2.7988194976e+00 
58900 6.3760440883e+00 -9.2973781395e-05 1.6159020232e+00 -2.7988244043e+00 1.6159020232e+00 2.7988244043e+00 
59000 6.3760441207e+00 -9.4290220242e-05 1.6159049001e+00 -2.7988293871e+00 1.6159049001e+00 2.7988293871e+00 
59100 6.3760441521e+00 -9.5503617791e-05 1.6159078176e+00 -2.7988344405e+00 1.6159078176e+00 2.7988344405e+00 
59200 6.3760441824e+00 -9.6614961923e-05 1.6159107728e+00 -2.7988395589e+00 1.6159107728e+00 2.7988395589e+00 
59300 6.3760442117e+00 -9.7625323120e-05 1.6159137622e+00 -2.7988447369e+00 1.6159137622e+00 2.7988447369e+00 
59400 6.3760442401e+00 -9.8535851046e-05 1.6159167830e+00 -2.7988499690e+00 1.6159167830e+00 2.7988499690e+00 
59500 6.3760442676e+00 -9.9347771135e-05 1.6159198319e+00 -2.7988552498e+00 1.6159198319e+00 2.7988552498e+00 
59600 6.3760442941e+00 -1.0006238123e-04 1.6159229059e+00 -2.7988605742e+00 1.6159229059e+00 2.7988605742e+00 
59700 6.3760443197e+00 -1.0068104823e-04 1.6159260021e+00 -2.7988659369e+00 1.6159260021e+00 2.7988659369e+00 
59800 6.3760443445e+00 -1.0120520481e-04 1.6159291174e+00 -2.7988713327e+00 1.6159291174e+00 2.7988713327e+00 
59900 6.3760443684e+00 -1.0163634612e-04 1.6159322488e+00 -2.7988767566e+00 1.6159322488e+00 2.7988767566e+00 
60000 6.3760443915e+00 -1.0197602658e-04 1.6159353937e+00 -2.7988822036e+00 1.6159353937e+00 2.7988822036e+00 
60100 6.3760444138e+00 -1.0222585668e-04 1.6159385490e+00 -2.7988876688e+00 1.6159385490e+00 2.7988876688e+00 
60200 6.3760444354e+00 -1.0238749979e-04 1.6159417120e+00 -2.7988931473e+00 1.6159417120e+00 2.7988931473e+00 
60300 6.3760444563e+00 -1.0246266909e-04 1.6159448801e+00 -2.7988986345e+00 1.6159448801e+00 2.7988986345e+00 
60400 6.3760444765e+00 -1.0245312446e-04 1.6159480505e+00 -2.7989041258e+00 1.6159480505e+00 2.7989041258e+00 
60500 6.3760444960e+00 -1.0236066947e-04 1.6159512205e+00 -2.7989096165e+00 1.6159512205e+00 2.7989096165e+00 
60600 6.3760445149e+00 -1.0218714838e-04 1.6159543877e+00 -2.7989151022e+00 1.6159543877e+00 2.7989151022e+00 
60700 6.3760445332e+00 -1.0193444319e-04 1.6159575495e+00 -2.7989205787e+00 1.6159575495e+00 2.7989205787e+00 
60800 6.3760445510e+00 -1.0160447076e-04 1.6159607035e+00 -2.7989260415e+00 1.6159607035e+00 2.7989260415e+00 
60900 6.3760445682e+00 -1.0119917994e-04 1.6159638473e+00 -2.7989314867e+00 1.6159638473e+00 2.7989314867e+00 
61000 6.3760445849e+00 -1.0072054879e-04 1.6159669785e+00 -2.7989369102e+00 1.6159669785e+00 2.7989369102e+00 
61100 6.3760446012e+00 -1.0017058181e-04 1.6159700950e+00 -2.7989423080e+00 1.6159700950e+00 2.7989423080e+00 
61200 6.3760446170e+00 -9.9551307233e-05 1.6159731944e+00 -2.7989476763e+00 1.6159731944e+00 2.7989476763e+00 
61300 6.3760446323e+00 -9.8864774407e-05 1.6159762746e+00 -2.7989530114e+00 1.6159762746e+00 2.7989530114e+00 
61400 6.3760446473e+00 -9.8113051151e-05 1.6159793336e+00 -2.7989583097e+00 1.6159793336e+00 2.7989583097e+00 
61500 6.3760446620e+00 -9.7298221233e-05 1.6159823693e+00 -2.7989635677e+00 1.6159823693e+00 2.7989635677e+00 
61600 6.3760446763e+00 -9.6422381876e-05 1.6159853798e+00 -2.7989687821e+00 1.6159853798e+00 2.7989687821e+00 
61700 6.3760446903e+00 -9.5487641313e-05 1.6159883632e+00 -2.7989739495e+00 1.6159883632e+00 2.7989739495e+00 
61800 6.3760447040e+00 -9.4496116404e-05 1.6159913176e+00 -2.7989790667e+00 1.6159913176e+00 2.7989790667e+00 
61900 6.3760447174e+00 -9.3449930307e-05 1.6159942414e+00 -2.7989841309e+00 1.6159942414e+00 2.7989841309e+00 
62000 6.3760447306e+00 -9.2351210201e-05 1.6159971328e+00 -2.7989891389e+00 1.6159971328e+00 2.7989891389e+00 
62100 6.3760447437e+00 -9.1202085083e-05 1.6159999902e+00 -2.7989940881e+00 1.6159999902e+00 2.7989940881e+00 
62200 6.3760447565e+00 -9.0004683586e-05 1.6160028121e+00 -2.7989989757e+00 1.6160028121e+00 2.7989989757e+00 
62300 6.3760447691e+00 -8.8761131887e-05 1.6160055969e+00 -2.7990037991e+00 1.6160055969e+00 2.7990037991e+00 
62400 6.3760447816e+00 -8.7473551681e-05 1.6160083432e+00 -2.7990085559e+00 1.6160083432e+00 2.7990085559e+00 
62500 6.3760447940e+00 -8.6144058156e-05 1.6160110497e+00 -2.7990132436e+00 1.6160110497e+00 2.7990132436e+00 
62600 6.3760448062e+00 -8.4774758098e-05 1.6160137150e+00 -2.7990178601e+00 1.6160137150e+00 2.7990178601e+00 
62700 6.3760448184e+00 -8.3367747998e-05 1.6160163380e+00 -2.7990224032e+00 1.6160163380e+00 2.7990224032e+00 
62800 6.3760448304e+00 -8.1925112251e-05 1.6160189174e+00 -2.7990268709e+00 1.6160189174e+00 2.7990268709e+00 
62900 6.3760448424e+00 -8.0448921409e-05 1.6160214522e+00 -2.7990312613e+00 1.6160214522e+00 2.7990312613e+00 
63000 6.3760448544e+00 -7.8941230467e-05 1.6160239413e+00 -2.7990355725e+00 1.6160239413e+00 2.7990355725e+00 
63100 6.3760448662e+00 -7.7404077247e-05 1.6160263837e+00 -2.7990398030e+00 1.6160263837e+00 2.7990398030e+00 
63200 6.3760448781e+00 -7.5839480810e-05 1.6160287786e+00 -2.7990439510e+00 1.6160287786e+00 2.7990439510e+00 
63300 6.3760448899e+00 -7.4249439945e-05 1.6160311251e+00 -2.7990480153e+00 1.6160311251e+00 2.7990480153e+00 
63400 6.3760449018e+00 -7.2635931704e-05 1.6160334224e+00 -2.7990519943e+00 1.6160334224e+00 2.7990519943e+00 
63500 6.3760449136e+00 -7.1000909997e-05 1.6160356697e+00 -2.7990558868e+00 1.6160356697e+00 2.7990558868e+00 
63600 6.3760449254e+00 -6.9346304270e-05 1.6160378665e+00 -2.7990596917e+00 1.6160378665e+00 2.7990596917e+00 
63700 6.3760449374e+00 -7.0595310199e-05 1.6160378665e+00 -2.7990596917e+00 1.6160378665e+00 2.7990596917e+00 
63800 6.3760449495e+00 -7.1777964299e-05 1.6160378665e+00 -2.7990596917e+00 1.6160378665e+00 2.7990596917e+00 
63900 6.3760449613e+00 -6.9871527990e-05 1.6160400873e+00 -2.7990635382e+00 1.6160400873e+00 2.7990635382e+00 
64000 6.3760449734e+00 -7.0903849489e-05 1.6160400873e+00 -2.7990635382e+00 1.6160400873e+00 2.7990635382e+00 
64100 6.3760449852e+00 -6.8885614883e-05 1.6160422810e+00 -2.7990673379e+00 1.6160422810e+00 2.7990673379e+00 
64200 6.3760449973e+00 -6.9771298033e-05 1.6160422810e+00 -2.7990673379e+00 1.6160422810e+00 2.7990673379e+00 
64300 6.3760450094e+00 -7.0595109790e-05 1.6160422810e+00 -2.7990673379e+00 1.6160422810e+00 2.7990673379e+00 
64400 6.3760450216e+00 -7.1358130367e-05 1.6160422810e+00 -2.7990673379e+00 1.6160422810e+00 2.7990673379e+00 
64500 6.3760450336e+00 -6.9055417954e-05 1.6160444888e+00 -2.7990711620e+00 1.6160444888e+00 2.7990711620e+00 
64600 6.3760450457e+00 -6.9679620011e-05 1.6160444888e+00 -2.7990711620e+00 1.6160444888e+00 2.7990711620e+00 
64700 6.3760450579e+00 -7.0245991399e-05 1.6160444888e+00 -2.7990711620e+00 1.6160444888e+00 2.7990711620e+00 
64800 6.3760450702e+00 -7.0755655785e-05 1.6160444888e+00 -2.7990711620e+00 1.6160444888e+00 2.7990711620e+00 
64900 6.3760450822e+00 -6.8229099998e-05 1.6160466780e+00 -2.7990749537e+00 1.6160466780e+00 2.7990749537e+00 
65000 6.3760450945e+00 -6.8608411761e-05 1.6160466780e+00 -2.7990749537e+00 1.6160466780e+00 2.7990749537e+00 
65100 6.3760451067e+00 -6.8934101039e-05 1.6160466780e+00 -2.7990749537e+00 1.6160466780e+00 2.7990749537e+00 
65200 6.3760451190e+00 -6.9207328627e-05 1.6160466780e+00 -2.7990749537e+00 1.6160466780e+00 2.7990749537e+00 
65300 6.3760451313e+00 -6.9429254962e-05 1.6160466780e+00 -2.7990749537e+00 1.6160466780e+00 2.7990749537e+00 
65400 6.3760451436e+00 -6.9601039968e-05 1.6160466780e+00 -2.7990749537e+00 1.6160466780e+00 2.7990749537e+00 
65500 6.3760451558e+00 -6.9723842872e-05 1.6160466780e+00 -2.7990749537e+00 1.6160466780e+00 2.7990749537e+00 
65600 6.3760451681e+00 -6.9798822017e-05 1.6160466780e+00 -2.7990749537e+00 1.6160466780e+00 2.7990749537e+00 
65700 6.3760451804e+00 -6.9827134660e-05 1.6160466780e+00 -2.7990749537e+00 1.6160466780e+00 2.7990749537e+00 
65800 6.3760451926e+00 -6.9809936760e-05 1.6160466780e+00 -2.7990749537e+00 1.6160466780e+00 2.7990749537e+00 
65900 6.3760452048e+00 -6.9748382740e-05 1.6160466780e+00 -2.7990749537e+00 1.6160466780e+00 2.7990749537e+00 
66000 6.3760452170e+00 -6.9643625264e-05 1.6160466780e+00 -2.7990749537e+00 1.6160466780e+00 2.7990749537e+00 
66100 6.3760452291e+00 -6.9496814972e-05 1.6160466780e+00 -2.7990749537e+00 1.6160466780e+00 2.7990749537e+00 
66200 6.3760452412e+00 -6.9309100227e-05 1.6160466780e+00 -2.7990749537e+00 1.6160466780e+00 2.7990749537e+00 
66300 6.3760452533e+00 -6.9081626848e-05 1.6160466780e+00 -2.7990749537e+00 1.6160466780e+00 2.7990749537e+00 
66400 6.3760452653e+00 -6.8815537818e-05 1.6160466780e+00 -2.7990749537e+00 1.6160466780e+00 2.7990749537e+00 
66500 6.3760452773e+00 -6.8511973006e-05 1.6160466780e+00 -2.7990749537e+00 1.6160466780e+00 2.7990749537e+00 
66600 6.3760452892e+00 -6.8172068863e-05 1.6160466780e+00 -2.7990749537e+00 1.6160466780e+00 2.7990749537e+00 
66700 6.3760453010e+00 -6.7796958117e-05 1.6160466780e+00 -2.7990749537e+00 1.6160466780e+00 2.7990749537e+00 
66800 6.3760453127e+00 -6.7387769459e-05 1.6160466780e+00 -2.7990749537e+00 1.6160466780e+00 2.7990749537e+00 
66900 6.3760453244e+00 -6.6945627229e-05 1.6160466780e+00 -2.7990749537e+00 1.6160466780e+00 2.7990749537e+00 
67000 6.3760453360e+00 -6.6471651081e-05 1.6160466780e+00 -2.7990749537e+00 1.6160466780e+00 2.7990749537e+00 
67100 6.3760453476e+00 -6.5966955661e-05 1.6160466780e+00 -2.7990749537e+00 1.6160466780e+00 2.7990749537e+00 
67200 6.3760453590e+00 -6.5432650260e-05 1.6160466780e+00 -2.7990749537e+00 1.6160466780e+00 2.7990749537e+00 
67300 6.3760453703e+00 -6.4869838480e-05 1.6160466780e+00 -2.7990749537e+00 1.6160466780e+00 2.7990749537e+00 
67400 6.3760453816e+00 -6.4279617885e-05 1.6160466780e+00 -2.7990749537e+00 1.6160466780e+00 2.7990749537e+00 
67500 6.3760453927e+00 -6.3663079660e-05 1.6160466780e+00 -2.7990749537e+00 1.6160466780e+00 2.7990749537e+00 
67600 6.3760454037e+00 -6.3021308247e-05 1.6160466780e+00 -2.7990749537e+00 1.6160466780e+00 2.7990749537e+00 
67700 6.3760454146e+00 -6.2355381006e-05 1.6160466780e+00 -2.7990749537e+00 1.6160466780e+00 2.7990749537e+00 
67800 6.3760454254e+00 -6.1666367852e-05 1.6160466780e+00 -2.7990749537e+00 1.6160466780e+00 2.7990749537e+00 
67900 6.3760454361e+00 -6.0955330904e-05 1.6160466780e+00 -2.7990749537e+00 1.6160466780e+00 2.7990749537e+00 
68000 6.3760454467e+00 -6.0223324125e-05 1.6160466780e+00 -2.7990749537e+00 1.6160466780e+00 2.7990749537e+00 
68100 6.3760454571e+00 -5.9471392972e-05 1.6160466780e+00 -2.7990749537e+00 1.6160466780e+00 2.7990749537e+00 
68200 6.3760454675e+00 -5.8700574035e-05 1.6160466780e+00 -2.7990749537e+00 1.6160466780e+00 2.7990749537e+00 
68300 6.3760454777e+00 -5.7911894691e-05 1.6160466780e+00 -2.7990749537e+00 1.6160466780e+00 2.7990749537e+00 
68400 6.3760454877e+00 -5.7106372749e-05 1.6160466780e+00 -2.7990749537e+00 1.6160466780e+00 2.7990749537e+00 
68500 6.3760454977e+00 -5.6285016095e-05 1.6160466780e+00 -2.7990749537e+00 1.6160466780e+00 2.7990749537e+00 
68600 6.3760455075e+00 -5.5448822357e-05 1.6160466780e+00 -2.7990749537e+00 1.6160466780e+00 2.7990749537e+00 
68700 6.3760455171e+00 -5.4598778556e-05 1.6160466780e+00 -2.7990749537e+00 1.6160466780e+00 2.7990749537e+00 
68800 6.3760455267e+00 -5.3735860768e-05 1.6160466780e+00 -2.7990749537e+00 1.6160466780e+00 2.7990749537e+00 
68900 6.3760455361e+00 -5.2861033791e-05 1.6160466780e+00 -2.7990749537e+00 1.6160466780e+00 2.7990749537e+00 
69000 6.3760455453e+00 -5.1975250813e-05 1.6160466780e+00 -2.7990749537e+00 1.6160466780e+00 2.7990749537e+00 
69100 6.3760455544e+00 -5.1079453091e-05 1.6160466780e+00 -2.7990749537e+00 1.6160466780e+00 2.7990749537e+00 
69200 6.3760455634e+00 -5.0174569631e-05 1.6160466780e+00 -2.7990749537e+00 1.6160466780e+00 2.7990749537e+00 
69300 6.3760455723e+00 -4.9261516877e-05 1.6160466780e+00 -2.7990749537e+00 1.6160466780e+00 2.7990749537e+00 
69400 6.3760455810e+00 -4.8341198402e-05 1.6160466780e+00 -2.7990749537e+00 1.6160466780e+00 2.7990749537e+00 
69500 6.3760455895e+00 -4.7414504615e-05 1.6160466780e+00 -2.7990749537e+00 1.6160466780e+00 2.7990749537e+00 
69600 6.3760455980e+00 -4.6482312468e-05 1.6160466780e+00 -2.7990749537e+00 1.6160466780e+00 2.7990749537e+00 
69700 6.3760456063e+00 -4.5545485166e-05 1.6160466780e+00 -2.7990749537e+00 1.6160466780e+00 2.7990749537e+00 
69800 6.3760456144e+00 -4.4604871909e-05 1.6160466780e+00 -2.7990749537e+00 1.6160466780e+00 2.7990749537e+00 
69900 6.3760456224e+00 -4.3661307603e-05 1.6160466780e+00 -2.7990749537e+00 1.6160466780e+00 2.7990749537e+00 
70000 6.3760456303e+00 -4.2715612621e-05 1.6160466780e+00 -2.7990749537e+00 1.6160466780e+00 2.7990749537e+00 
70100 6.3760456381e+00 -4.1768592544e-05 1.6160466780e+00 -2.7990749537e+00 1.6160466780e+00 2.7990749537e+00 
70200 6.3760456457e+00 -4.0821037921e-05 1.6160466780e+00 -2.7990749537e+00 1.6160466780e+00 2.7990749537e+00 
70300 6.3760456532e+00 -3.9873724051e-05 1.6160466780e+00 -2.7990749537e+00 1.6160466780e+00 2.7990749537e+00 
70400 6.3760456606e+00 -3.8927410749e-05 1.6160466780e+00 -2.7990749537e+00 1.6160466780e+00 2.7990749537e+00 
70500 6.3760456678e+00 -3.7982842142e-05 1.6160466780e+00 -2.7990749537e+00 1.6160466780e+00 2.7990749537e+00 
70600 6.3760456749e+00 -3.7040746472e-05 1.6160466780e+00 -2.7990749537e+00 1.6160466780e+00 2.7990749537e+00 
70700 6.3760456819e+00 -3.6101835904e-05 1.6160466780e+00 -2.7990749537e+00 1.6160466780e+00 2.7990749537e+00 
70800 6.3760456888e+00 -3.5166806348e-05 1.6160466780e+00 -2.7990749537e+00 1.6160466780e+00 2.7990749537e+00 
70900 6.3760456956e+00 -3.4236337295e-05 1.6160466780e+00 -2.7990749537e+00 1.6160466780e+00 2.7990749537e+00 
71000 6.3760457022e+00 -3.3311091660e-05 1.6160466780e+00 -2.7990749537e+00 1.6160466780e+00 2.7990749537e+00 
71100 6.3760457087e+00 -3.2391715636e-05 1.6160466780e+00 -2.7990749537e+00 1.6160466780e+00 2.7990749537e+00 
71200 6.3760457151e+00 -3.1478838554e-05 1.6160466780e+00 -2.7990749537e+00 1.6160466780e+00 2.7990749537e+00 
71300 6.3760457214e+00 -3.0573072778e-05 1.6160466780e+00 -2.7990749537e+00 1.6160466780e+00 2.7990749537e+00 
71400 6.3760457276e+00 -2.9675013580e-05 1.6160466780e+00 -2.7990749537e+00 1.6160466780e+00 2.7990749537e+00 
71500 6.3760457337e+00 -2.8785239044e-05 1.6160466780e+00 -2.7990749537e+00 1.6160466780e+00 2.7990749537e+00 
71600 6.3760457397e+00 -2.7904309981e-05 1.6160466780e+00 -2.7990749537e+00 1.6160466780e+00 2.7990749537e+00 
71700 6.3760457456e+00 -2.7032769855e-05 1.6160466780e+00 -2.7990749537e+00 1.6160466780e+00 2.7990749537e+00 
71800 6.3760457514e+00 -2.6171144713e-05 1.6160466780e+00 -2.7990749537e+00 1.6160466780e+00 2.7990749537e+00 
71900 6.3760457571e+00 -2.5319943142e-05 1.6160466780e+00 -2.7990749537e+00 1.6160466780e+00 2.7990749537e+00 
72000 6.3760457627e+00 -2.4479656218e-05 1.6160466780e+00 -2.7990749537e+00 1.6160466780e+00 2.7990749537e+00 
72100 6.3760457682e+00 -2.3650757483e-05 1.6160466780e+00 -2.7990749537e+00 1.6160466780e+00 2.7990749537e+00 
72200 6.3760457736e+00 -2.2833702933e-05 1.6160466780e+00 -2.7990749537e+00 1.6160466780e+00 2.7990749537e+00 
72300 6.3760457790e+00 -2.2028931006e-05 1.6160466780e+00 -2.7990749537e+00 1.6160466780e+00 2.7990749537e+00 
72400 6.3760457843e+00 -2.1236862584e-05 1.6160466780e+00 -2.7990749537e+00 1.6160466780e+00 2.7990749537e+00 
72500 6.3760457894e+00 -2.0457901026e-05 1.6160466780e+00 -2.7990749537e+00 1.6160466780e+00 2.7990749537e+00 
72600 6.3760457945e+00 -1.9692432178e-05 1.6160466780e+00 -2.7990749537e+00 1.6160466780e+00 2.7990749537e+00 
72700 6.3760457996e+00 -1.8940824427e-05 1.6160466780e+00 -2.7990749537e+00 1.6160466780e+00 2.7990749537e+00 
72800 6.3760458045e+00 -1.8203428752e-05 1.6160466780e+00 -2.7990749537e+00 1.6160466780e+00 2.7990749537e+00 
72900 6.3760458094e+00 -1.7480578776e-05 1.6160466780e+00 -2.7990749537e+00 1.6160466780e+00 2.7990749537e+00 
73000 6.3760458142e+00 -1.6772590853e-05 1.6160466780e+00 -2.7990749537e+00 1.6160466780e+00 2.7990749537e+00 
73100 6.3760458190e+00 -1.6079764146e-05 1.6160466780e+00 -2.7990749537e+00 1.6160466780e+00 2.7990749537e+00 
73200 6.3760458237e+00 -1.5402380718e-05 1.6160466780e+00 -2.7990749537e+00 1.6160466780e+00 2.7990749537e+00 
73300 6.3760458283e+00 -1.4740705645e-05 1.6160466780e+00 -2.7990749537e+00 1.6160466780e+00 2.7990749537e+00 
73400 6.3760458329e+00 -1.4094987129e-05 1.6160466780e+00 -2.7990749537e+00 1.6160466780e+00 2.7990749537e+00 
73500 6.3760458374e+00 -1.3465456627e-05 1.6160466780e+00 -2.7990749537e+00 1.6160466780e+00 2.7990749537e+00 
73600 6.3760458418e+00 -1.2852328973e-05 1.6160466780e+00 -2.7990749537e+00 1.6160466780e+00 2.7990749537e+00 
73700 6.3760458462e+00 -1.2255802547e-05 1.6160466780e+00 -2.7990749537e+00 1.6160466780e+00 2.7990749537e+00 
73800 6.3760458506e+00 -1.1676059407e-05 1.6160466780e+00 -2.7990749537e+00 1.6160466780e+00 2.7990749537e+00 
73900 6.3760458549e+00 -1.1113265471e-05 1.6160466780e+00 -2.7990749537e+00 1.6160466780e+00 2.7990749537e+00 
74000 6.3760458591e+00 -1.0567570678e-05 1.6160466780e+00 -2.7990749537e+00 1.6160466780e+00 2.7990749537e+00 
74100 6.3760458633e+00 -1.0039109181e-05 1.6160466780e+00 -2.7990749537e+00 1.6160466780e+00 2.7990749537e+00 
74200 6.3760458675e+00 -9.5279995236e-06 1.6160466780e+00 -2.7990749537e+00 1.6160466780e+00 2.7990749537e+00 
74300 6.3760458716e+00 -9.0343448529e-06 1.6160466780e+00 -2.7990749537e+00 1.6160466780e+00 2.7990749537e+00 
74400 6.3760458756e+00 -8.5582331222e-06 1.6160466780e+00 -2.7990749537e+00 1.6160466780e+00 2.7990749537e+00 
74500 6.3760458796e+00 -8.0997372995e-06 1.6160466780e+00 -2.7990749537e+00 1.6160466780e+00 2.7990749537e+00 
74600 6.3760458836e+00 -7.6589156043e-06 1.6160466780e+00 -2.7990749537e+00 1.6160466780e+00 2.7990749537e+00 
74700 6.3760458875e+00 -7.2358117173e-06 1.6160466780e+00 -2.7990749537e+00 1.6160466780e+00 2.7990749537e+00 
74800 6.3760458914e+00 -6.8304550384e-06 1.6160466780e+00 -2.7990749537e+00 1.6160466780e+00 2.7990749537e+00 
74900 6.3760458953e+00 -6.4428609147e-06 1.6160466780e+00 -2.7990749537e+00 1.6160466780e+00 2.7990749537e+00 
75000 6.3760458991e+00 -6.0730308988e-06 1.6160466780e+00 -2.7990749537e+00 1.6160466780e+00 2.7990749537e+00 
75100 6.3760459029e+00 -5.7209530030e-06 1.6160466780e+00 -2.7990749537e+00 1.6160466780e+00 2.7990749537e+00 
75200 6.3760459066e+00 -5.3866019586e-06 1.6160466780e+00 -2.7990749537e+00 1.6160466780e+00 2.7990749537e+00 
75300 6.3760459104e+00 -5.0699394829e-06 1.6160466780e+00 -2.7990749537e+00 1.6160466780e+00 2.7990749537e+00 
75400 6.3760459140e+00 -4.7709145624e-06 1.6160466780e+00 -2.7990749537e+00 1.6160466780e+00 2.7990749537e+00 
75500 6.3760459177e+00 -4.4894637163e-06 1.6160466780e+00 -2.7990749537e+00 1.6160466780e+00 2.7990749537e+00 
75600 6.3760459213e+00 -4.2255112948e-06 1.6160466780e+00 -2.7990749537e+00 1.6160466780e+00 2.7990749537e+00 
75700 6.3760459249e+00 -3.9789697461e-06 1.6160466780e+00 -2.7990749537e+00 1.6160466780e+00 2.7990749537e+00 
75800 6.3760459284e+00 -3.7497399275e-06 1.6160466780e+00 -2.7990749537e+00 1.6160466780e+00 2.7990749537e+00 
75900 6.3760459320e+00 -3.5377113890e-06 1.6160466780e+00 -2.7990749537e+00 1.6160466780e+00 2.7990749537e+00 
76000 6.3760459354e+00 -3.3427626755e-06 1.6160466780e+00 -2.7990749537e+00 1.6160466780e+00 2.7990749537e+00 
76100 6.3760459389e+00 -3.1647616272e-06 1.6160466780e+00 -2.7990749537e+00 1.6160466780e+00 2.7990749537e+00 
76200 6.3760459423e+00 -3.0035656886e-06 1.6160466780e+00 -2.7990749537e+00 1.6160466780e+00 2.7990749537e+00 
76300 6.3760459457e+00 -2.8590222094e-06 1.6160466780e+00 -2.7990749537e+00 1.6160466780e+00 2.7990749537e+00 
76400 6.3760459491e+00 -2.7309687599e-06 1.6160466780e+00 -2.7990749537e+00 1.6160466780e+00 2.7990749537e+00 
76500 6.3760459524e+00 -2.6192334419e-06 1.6160466780e+00 -2.7990749537e+00 1.6160466780e+00 2.7990749537e+00 
76600 6.3760459557e+00 -2.5236352005e-06 1.6160466780e+00 -2.7990749537e+00 1.6160466780e+00 2.7990749537e+00 
76700 6.3760459590e+00 -2.4439841385e-06 1.6160466780e+00 -2.7990749537e+00 1.6160466780e+00 2.7990749537e+00 
76800 6.3760459623e+00 -2.3800818379e-06 1.6160466780e+00 -2.7990749537e+00 1.6160466780e+00 2.7990749537e+00 
76900 6.3760459655e+00 -2.3317216754e-06 1.6160466780e+00 -2.7990749537e+00 1.6160466780e+00 2.7990749537e+00 
77000 6.3760459687e+00 -2.2986891381e-06 1.6160466780e+00 -2.7990749537e+00 1.6160466780e+00 2.7990749537e+00 
77100 6.3760459719e+00 -2.2807621431e-06 1.6160466780e+00 -2.7990749537e+00 1.6160466780e+00 2.7990749537e+00 
77200 6.3760459750e+00 -2.2777113577e-06 1.6160466780e+00 -2.7990749537e+00 1.6160466780e+00 2.7990749537e+00 
77300 6.3760459781e+00 -2.2893005191e-06 1.6160466780e+00 -2.7990749537e+00 1.6160466780e+00 2.7990749537e+00 
77400 6.3760459812e+00 -2.3152867498e-06 1.6160466780e+00 -2.7990749537e+00 1.6160466780e+00 2.7990749537e+00 
77500 6.3760459842e+00 -2.3554208760e-06 1.6160466780e+00 -2.7990749537e+00 1.6160466780e+00 2.7990749537e+00 
77600 6.3760459873e+00 -2.4094477461e-06 1.6160466780e+00 -2.7990749537e+00 1.6160466780e+00 2.7990749537e+00 
77700 6.3760459903e+00 -2.4771065488e-06 1.6160466780e+00 -2.7990749537e+00 1.6160466780e+00 2.7990749537e+00 
77800 6.3760459932e+00 -2.5581311180e-06 1.6160466780e+00 -2.7990749537e+00 1.6160466780e+00 2.7990749537e+00 
77900 6.3760459962e+00 -2.6522502523e-06 1.6160466780e+00 -2.7990749537e+00 1.6160466780e+00 2.7990749537e+00 
78000 6.3760459991e+00 -2.7591880326e-06 1.6160466780e+00 -2.7990749537e+00 1.6160466780e+00 2.7990749537e+00 
78100 6.3760460020e+00 -2.8786641161e-06 1.6160466780e+00 -2.7990749537e+00 1.6160466780e+00 2.7990749537e+00 
78200 6.3760460048e+00 -3.0103940530e-06 1.6160466780e+00 -2.7990749537e+00 1.6160466780e+00 2.7990749537e+00 
78300 6.3760460077e+00 -3.1540895859e-06 1.6160466780e+00 -2.7990749537e+00 1.6160466780e+00 2.7990749537e+00 
78400 6.3760460105e+00 -3.3094589589e-06 1.6160466780e+00 -2.7990749537e+00 1.6160466780e+00 2.7990749537e+00 
78500 6.3760460132e+00 -3.4762072049e-06 1.6160466780e+00 -2.7990749537e+00 1.6160466780e+00 2.7990749537e+00 
78600 6.3760460160e+00 -3.6540364512e-06 1.6160466780e+00 -2.7990749537e+00 1.6160466780e+00 2.7990749537e+00 
78700 6.3760460187e+00 -3.8426462015e-06 1.6160466780e+00 -2.7990749537e+00 1.6160466780e+00 2.7990749537e+00 
78800 6.3760460214e+00 -4.0417336335e-06 1.6160466780e+00 -2.7990749537e+00 1.6160466780e+00 2.7990749537e+00 
78900 6.3760460240e+00 -4.2509938837e-06 1.6160466780e+00 -2.7990749537e+00 1.6160466780e+00 2.7990749537e+00 
79000 6.3760460267e+00 -4.4701203206e-06 1.6160466780e+00 -2.7990749537e+00 1.6160466780e+00 2.7990749537e+00 
79100 6.3760460293e+00 -4.6988048262e-06 1.6160466780e+00 -2.7990749537e+00 1.6160466780e+00 2.7990749537e+00 
79200 6.3760460318e+00 -4.9367380739e-06 1.6160466780e+00 -2.7990749537e+00 1.6160466780e+00 2.7990749537e+00 
79300 6.3760460344e+00 -5.1836097907e-06 1.6160466780e+00 -2.7990749537e+00 1.6160466780e+00 2.7990749537e+00 
79400 6.3760460369e+00 -5.4391090228e-06 1.6160466780e+00 -2.7990749537e+00 1.6160466780e+00 2.7990749537e+00 
79500 6.3760460394e+00 -5.7029243934e-06 1.6160466780e+00 -2.7990749537e+00 1.6160466780e+00 2.7990749537e+00 
79600 6.3760460419e+00 -5.9747443678e-06 1.6160466780e+00 -2.7990749537e+00 1.6160466780e+00 2.7990749537e+00 
79700 6.3760460443e+00 -6.2542574886e-06 1.6160466780e+00 -2.7990749537e+00 1.6160466780e+00 2.7990749537e+00 
79800 6.3760460467e+00 -6.5411526322e-06 1.6160466780e+00 -2.7990749537e+00 1.6160466780e+00 2.7990749537e+00 
79900 6.3760460491e+00 -6.8351192442e-06 1.6160466780e+00 -2.7990749537e+00 1.6160466780e+00 2.7990749537e+00 
80000 6.3760460514e+00 -7.1358475731e-06 1.6160466780e+00 -2.7990749537e+00 1.6160466780e+00 2.7990749537e+00 
80100 6.3760460538e+00 -7.4430289066e-06 1.6160466780e+00 -2.7990749537e+00 1.6160466780e+00 2.7990749537e+00 
80200 6.3760460561e+00 -7.7563557857e-06 1.6160466780e+00 -2.7990749537e+00 1.6160466780e+00 2.7990749537e+00 
80300 6.3760460583e+00 -8.0755222301e-06 1.6160466780e+00 -2.7990749537e+00 1.6160466780e+00 2.7990749537e+00 
80400 6.3760460606e+00 -8.4002239530e-06 1.6160466780e+00 -2.7990749537e+00 1.6160466780e+00 2.7990749537e+00 
80500 6.3760460628e+00 -8.7301585618e-06 1.6160466780e+00 -2.7990749537e+00 1.6160466780e+00 2.7990749537e+00 
80600 6.3760460650e+00 -9.0650257644e-06 1.6160466780e+00 -2.7990749537e+00 1.6160466780e+00 2.7990749537e+00 
80700 6.3760460671e+00 -9.4045275674e-06 1.6160466780e+00 -2.7990749537e+00 1.6160466780e+00 2.7990749537e+00 
80800 6.3760460693e+00 -9.7483684586e-06 1.6160466780e+00 -2.7990749537e+00 1.6160466780e+00 2.7990749537e+00 
80900 6.3760460714e+00 -1.0096255604e-05 1.6160466780e+00 -2.7990749537e+00 1.6160466780e+00 2.7990749537e+00 
81000 6.3760460735e+00 -1.0447899008e-05 1.6160466780e+00 -2.7990749537e+00 1.6160466780e+00 2.7990749537e+00 
81100 6.3760460755e+00 -1.0803011709e-05 1.6160466780e+00 -2.7990749537e+00 1.6160466780e+00 2.7990749537e+00 
81200 6.3760460776e+00 -1.1161309924e-05 1.6160466780e+00 -2.7990749537e+00 1.6160466780e+00 2.7990749537e+00 
81300 6.3760460796e+00 -1.1522513225e-05 1.6160466780e+00 -2.7990749537e+00 1.6160466780e+00 2.7990749537e+00 
81400 6.3760460815e+00 -1.1886344685e-05 1.6160466780e+00 -2.7990749537e+00 1.6160466780e+00 2.7990749537e+00 
81500 6.3760460835e+00 -1.2252531033e-05 1.6160466780e+00 -2.7990749537e+00 1.6160466780e+00 2.7990749537e+00 
81600 6.3760460854e+00 -1.2620802787e-05 1.6160466780e+00 -2.7990749537e+00 1.6160466780e+00 2.7990749537e+00 
81700 6.3760460873e+00 -1.2990894398e-05 1.6160466780e+00 -2.7990749537e+00 1.6160466780e+00 2.7990749537e+00 
81800 6.3760460892e+00 -1.3362544384e-05 1.6160466780e+00 -2.7990749537e+00 1.6160466780e+00 2.7990749537e+00 
81900 6.3760460911e+00 -1.3735495442e-05 1.6160466780e+00 -2.7990749537e+00 1.6160466780e+00 2.7990749537e+00 
82000 6.3760460929e+00 -1.4109494580e-05 1.6160466780e+00 -2.7990749537e+00 1.6160466780e+00 2.7990749537e+00 
82100 6.3760460947e+00 -1.4484293217e-05 1.6160466780e+00 -2.7990749537e+00 1.6160466780e+00 2.7990749537e+00 
82200 6.3760460965e+00 -1.4859647301e-05 1.6160466780e+00 -2.7990749537e+00 1.6160466780e+00 2.7990749537e+00 
82300 6.3760460983e+00 -1.5235317405e-05 1.6160466780e+00 -2.7990749537e+00 1.6160466780e+00 2.7990749537e+00 
82400 6.3760461000e+00 -1.5611068816e-05 1.6160466780e+00 -2.7990749537e+00 1.6160466780e+00 2.7990749537e+00 
82500 6.3760461018e+00 -1.5986671633e-05 1.6160466780e+00 -2.7990749537e+00 1.6160466780e+00 2.7990749537e+00 
82600 6.3760461035e+00 -1.6361900844e-05 1.6160466780e+00 -2.7990749537e+00 1.6160466780e+00 2.7990749537e+00 
82700 6.3760461051e+00 -1.6736536404e-05 1.6160466780e+00 -2.7990749537e+00 1.6160466780e+00 2.7990749537e+00 
82800 6.3760461068e+00 -1.7110363312e-05 1.6160466780e+00 -2.7990749537e+00 1.6160466780e+00 2.7990749537e+00 
82900 6.3760461084e+00 -1.7483171666e-05 1.6160466780e+00 -2.7990749537e+00 1.6160466780e+00 2.7990749537e+00 
83000 6.3760461101e+00 -1.7854756736e-05 1.6160466780e+00 -2.7990749537e+00 1.6160466780e+00 2.7990749537e+00 
83100 6.3760461116e+00 -1.8224919007e-05 1.6160466780e+00 -2.7990749537e+00 1.6160466780e+00 2.7990749537e+00 
83200 6.3760461132e+00 -1.8593464238e-05 1.6160466780e+00 -2.7990749537e+00 1.6160466780e+00 2.7990749537e+00 
83300 6.3760461148e+00 -1.8960203498e-05 1.6160466780e+00 -2.7990749537e+00 1.6160466780e+00 2.7990749537e+00 
83400 6.3760461163e+00 -1.9324953210e-05 1.6160466780e+00 -2.7990749537e+00 1.6160466780e+00 2.7990749537e+00 
83500 6.3760461178e+00 -1.9687535178e-05 1.6160466780e+00 -2.7990749537e+00 1.6160466780e+00 2.7990749537e+00 
83600 6.3760461193e+00 -2.0047776627e-05 1.6160466780e+00 -2.7990749537e+00 1.6160466780e+00 2.7990749537e+00 
83700 6.3760461208e+00 -2.0405510206e-05 1.6160466780e+00 -2.7990749537e+00 1.6160466780e+00 2.7990749537e+00 
83800 6.3760461223e+00 -2.0760574027e-05 1.6160466780e+00 -2.7990749537e+00 1.6160466780e+00 2.7990749537e+00 
83900 6.3760461237e+00 -2.1112811668e-05 1.6160466780e+00 -2.7990749537e+00 1.6160466780e+00 2.7990749537e+00 
84000 6.3760461251e+00 -2.1462072182e-05 1.6160466780e+00 -2.7990749537e+00 1.6160466780e+00 2.7990749537e+00 
84100 6.3760461266e+00 -2.1808210097e-05 1.6160466780e+00 -2.7990749537e+00 1.6160466780e+00 2.7990749537e+00 
84200 6.3760461279e+00 -2.2151085420e-05 1.6160466780e+00 -2.7990749537e+00 1.6160466780e+00 2.7990749537e+00 
84300 6.3760461293e+00 -2.2490563631e-05 1.6160466780e+00 -2.7990749537e+00 1.6160466780e+00 2.7990749537e+00 
84400 6.3760461307e+00 -2.2826515670e-05 1.6160466780e+00 -2.7990749537e+00 1.6160466780e+00 2.7990749537e+00 
84500 6.3760461320e+00 -2.3158817927e-05 1.6160466780e+00 -2.7990749537e+00 1.6160466780e+00 2.7990749537e+00 
84600 6.3760461334e+00 -2.3487352216e-05 1.6160466780e+00 -2.7990749537e+00 1.6160466780e+00 2.7990749537e+00 
84700 6.3760461347e+00 -2.3812005760e-05 1.6160466780e+00 -2.7990749537e+00 1.6160466780e+00 2.7990749537e+00 
84800 6.3760461360e+00 -2.4132671160e-05 1.6160466780e+00 -2.7990749537e+00 1.6160466780e+00 2.7990749537e+00 
84900 6.3760461372e+00 -2.4449246364e-05 1.6160466780e+00 -2.7990749537e+00 1.6160466780e+00 2.7990749537e+00 
85000 6.3760461385e+00 -2.4761634636e-05 1.6160466780e+00 -2.7990749537e+00 1.6160466780e+00 2.7990749537e+00 
85100 6.3760461398e+00 -2.5069744510e-05 1.6160466780e+00 -2.7990749537e+00 1.6160466780e+00 2.7990749537e+00 
85200 6.3760461410e+00 -2.5373489762e-05 1.6160466780e+00 -2.7990749537e+00 1.6160466780e+00 2.7990749537e+00 
85300 6.3760461422e+00 -2.5672789347e-05 1.6160466780e+00 -2.7990749537e+00 1.6160466780e+00 2.7990749537e+00 
85400 6.3760461434e+00 -2.5967567364e-05 1.6160466780e+00 -2.7990749537e+00 1.6160466780e+00 2.7990749537e+00 
85500 6.3760461446e+00 -2.6257753003e-05 1.6160466780e+00 -2.7990749537e+00 1.6160466780e+00 2.7990749537e+00 
85600 6.3760461458e+00 -2.6543280479e-05 1.6160466780e+00 -2.7990749537e+00 1.6160466780e+00 2.7990749537e+00 
85700 6.3760461470e+00 -2.6824088989e-05 1.6160466780e+00 -2.7990749537e+00 1.6160466780e+00 2.7990749537e+00 
85800 6.3760461481e+00 -2.7100122641e-05 1.6160466780e+00 -2.7990749537e+00 1.6160466780e+00 2.7990749537e+00 
85900 6.3760461492e+00 -2.7371330391e-05 1.6160466780e+00 -2.7990749537e+00 1.6160466780e+00 2.7990749537e+00 
86000 6.3760461504e+00 -2.7637665983e-05 1.6160466780e+00 -2.7990749537e+00 1.6160466780e+00 2.7990749537e+00 
86100 6.3760461515e+00 -2.7899087874e-05 1.6160466780e+00 -2.7990749537e+00 1.6160466780e+00 2.7990749537e+00 
86200 6.3760461526e+00 -2.8155559165e-05 1.6160466780e+00 -2.7990749537e+00 1.6160466780e+00 2.7990749537e+00 
86300 6.3760461537e+00 -2.8407047527e-05 1.6160466780e+00 -2.7990749537e+00 1.6160466780e+00 2.7990749537e+00 
86400 6.3760461548e+00 -2.8653525126e-05 1.6160466780e+00 -2.7990749537e+00 1.6160466780e+00 2.7990749537e+00 
86500 6.3760461558e+00 -2.8894968548e-05 1.6160466780e+00 -2.7990749537e+00 1.6160466780e+00 2.7990749537e+00 
86600 6.3760461569e+00 -2.9131358707e-05 1.6160466780e+00 -2.7990749537e+00 1.6160466780e+00 2.7990749537e+00 
86700 6.3760461579e+00 -2.9362680778e-05 1.6160466780e+00 -2.7990749537e+00 1.6160466780e+00 2.7990749537e+00 
86800 6.3760461590e+00 -2.9588924108e-05 1.6160466780e+00 -2.7990749537e+00 1.6160466780e+00 2.7990749537e+00 
86900 6.3760461600e+00 -2.9810082127e-05 1.6160466780e+00 -2.7990749537e+00 1.6160466780e+00 2.7990749537e+00 
87000 6.3760461610e+00 -3.0026152270e-05 1.6160466780e+00 -2.7990749537e+00 1.6160466780e+00 2.7990749537e+00 
87100 6.3760461620e+00 -3.0237135878e-05 1.6160466780e+00 -2.7990749537e+00 1.6160466780e+00 2.7990749537e+00 
87200 6.3760461630e+00 -3.0443038115e-05 1.6160466780e+00 -2.7990749537e+00 1.6160466780e+00 2.7990749537e+00 
87300 6.3760461639e+00 -3.0643867876e-05 1.6160466780e+00 -2.7990749537e+00 1.6160466780e+00 2.7990749537e+00 
87400 6.3760461649e+00 -3.0839637702e-05 1.6160466780e+00 -2.7990749537e+00 1.6160466780e+00 2.7990749537e+00 
87500 6.3760461659e+00 -3.1030363675e-05 1.6160466780e+00 -2.7990749537e+00 1.6160466780e+00 2.7990749537e+00 
87600 6.3760461668e+00 -3.1216065331e-05 1.6160466780e+00 -2.7990749537e+00 1.6160466780e+00 2.7990749537e+00 
87700 6.3760461677e+00 -3.1396765566e-05 1.6160466780e+00 -2.7990749537e+00 1.6160466780e+00 2.7990749537e+00 
87800 6.3760461687e+00 -3.1572490541e-05 1.6160466780e+00 -2.7990749537e+00 1.6160466780e+00 2.7990749537e+00 
87900 6.3760461696e+00 -3.1743269583e-05 1.6160466780e+00 -2.7990749537e+00 1.6160466780e+00 2.7990749537e+00 
88000 6.3760461705e+00 -3.1909135092e-05 1.6160466780e+00 -2.7990749537e+00 1.6160466780e+00 2.7990749537e+00 
88100 6.3760461714e+00 -3.2070122444e-05 1.6160466780e+00 -2.7990749537e+00 1.6160466780e+00 2.7990749537e+00 
88200 6.3760461723e+00 -3.2226269893e-05 1.6160466780e+00 -2.7990749537e+00 1.6160466780e+00 2.7990749537e+00 
88300 6.3760461731e+00 -3.2377618473e-05 1.6160466780e+00 -2.7990749537e+00 1.6160466780e+00 2.7990749537e+00 
88400 6.3760461740e+00 -3.2524211902e-05 1.6160466780e+00 -2.7990749537e+00 1.6160466780e+00 2.7990749537e+00 
88500 6.3760461749e+00 -3.2666096486e-05 1.6160466780e+00 -2.7990749537e+00 1.6160466780e+00 2.7990749537e+00 
88600 6.3760461757e+00 -3.2803321017e-05 1.6160466780e+00 -2.7990749537e+00 1.6160466780e+00 2.7990749537e+00 
88700 6.3760461766e+00 -3.2935936684e-05 1.6160466780e+00 -2.7990749537e+00 1.6160466780e+00 2.7990749537e+00 
88800 6.3760461774e+00 -3.3063996967e-05 1.6160466780e+00 -2.7990749537e+00 1.6160466780e+00 2.7990749537e+00 
88900 6.3760461782e+00 -3.3187557546e-05 1.6160466780e+00 -2.7990749537e+00 1.6160466780e+00 2.7990749537e+00 
89000 6.3760461790e+00 -3.3306676200e-05 1.6160466780e+00 -2.7990749537e+00 1.6160466780e+00 2.7990749537e+00 
89100 6.3760461798e+00 -3.3421412716e-05 1.6160466780e+00 -2.7990749537e+00 1.6160466780e+00 2.7990749537e+00 
89200 6.3760461806e+00 -3.3531828790e-05 1.6160466780e+00 -2.7990749537e+00 1.6160466780e+00 2.7990749537e+00 
89300 6.3760461814e+00 -3.3637987936e-05 1.6160466780e+00 -2.7990749537e+00 1.6160466780e+00 2.7990749537e+00 
89400 6.3760461822e+00 -3.3739955385e-05 1.6160466780e+00 -2.7990749537e+00 1.6160466780e+00 2.7990749537e+00 
89500 6.3760461830e+00 -3.3837797999e-05 1.6160466780e+00 -2.7990749537e+00 1.6160466780e+00 2.7990749537e+00 
89600 6.3760461837e+00 -3.3931584176e-05 1.6160466780e+00 -2.7990749537e+00 1.6160466780e+00 2.7990749537e+00 
89700 6.3760461845e+00 -3.4021383751e-05 1.6160466780e+00 -2.7990749537e+00 1.6160466780e+00 2.7990749537e+00 
89800 6.3760461852e+00 -3.4107267915e-05 1.6160466780e+00 -2.7990749537e+00 1.6160466780e+00 2.7990749537e+00 
89900 6.3760461859e+00 -3.4189309123e-05 1.6160466780e+00 -2.7990749537e+00 1.6160466780e+00 2.7990749537e+00 
90000 6.3760461867e+00 -3.4267580999e-05 1.6160466780e+00 -2.7990749537e+00 1.6160466780e+00 2.7990749537e+00 
90100 6.3760461874e+00 -3.4342158253e-05 1.6160466780e+00 -2.7990749537e+00 1.6160466780e+00 2.7990749537e+00 
90200 6.3760461881e+00 -3.4413116593e-05 1.6160466780e+00 -2.7990749537e+00 1.6160466780e+00 2.7990749537e+00 
90300 6.3760461888e+00 -3.4480532640e-05 1.6160466780e+00 -2.7990749537e+00 1.6160466780e+00 2.7990749537e+00 
90400 6.3760461895e+00 -3.4544483843e-05 1.6160466780e+00 -2.7990749537e+00 1.6160466780e+00 2.7990749537e+00 
90500 6.3760461902e+00 -3.4605048395e-05 1.6160466780e+00 -2.7990749537e+00 1.6160466780e+00 2.7990749537e+00 
90600 6.3760461909e+00 -3.4662305152e-05 1.6160466780e+00 -2.7990749537e+00 1.6160466780e+00 2.7990749537e+00 
90700 6.3760461916e+00 -3.4716333548e-05 1.6160466780e+00 -2.7990749537e+00 1.6160466780e+00 2.7990749537e+00 
90800 6.3760461922e+00 -3.4767213529e-05 1.6160466780e+00 -2.7990749537e+00 1.6160466780e+00 2.7990749537e+00 
90900 6.3760461929e+00 -3.4815025458e-05 1.6160466780e+00 -2.7990749537e+00 1.6160466780e+00 2.7990749537e+00 
91000 6.3760461935e+00 -3.4859850050e-05 1.6160466780e+00 -2.7990749537e+00 1.6160466780e+00 2.7990749537e+00 
91100 6.3760461942e+00 -3.4901768294e-05 1.6160466780e+00 -2.7990749537e+00 1.6160466780e+00 2.7990749537e+00 
91200 6.3760461948e+00 -3.4940861379e-05 1.6160466780e+00 -2.7990749537e+00 1.6160466780e+00 2.7990749537e+00 
91300 6.3760461954e+00 -3.4977210625e-05 1.6160466780e+00 -2.7990749537e+00 1.6160466780e+00 2.7990749537e+00 
91400 6.3760461961e+00 -3.5010897407e-05 1.6160466780e+00 -2.7990749537e+00 1.6160466780e+00 2.7990749537e+00 
91500 6.3760461967e+00 -3.5042003094e-05 1.6160466780e+00 -2.7990749537e+00 1.6160466780e+00 2.7990749537e+00 
91600 6.3760461973e+00 -3.5070608974e-05 1.6160466780e+00 -2.7990749537e+00 1.6160466780e+00 2.7990749537e+00 
91700 6.3760461979e+00 -3.5096796199e-05 1.6160466780e+00 -2.7990749537e+00 1.6160466780e+00 2.7990749537e+00 
91800 6.3760461985e+00 -3.5120645711e-05 1.6160466780e+00 -2.7990749537e+00 1.6160466780e+00 2.7990749537e+00 
91900 6.3760461991e+00 -3.5142238178e-05 1.6160466780e+00 -2.7990749537e+00 1.6160466780e+00 2.7990749537e+00 
92000 6.3760461997e+00 -3.5161653952e-05 1.6160466780e+00 -2.7990749537e+00 1.6160466780e+00 2.7990749537e+00 
92100 6.3760462002e+00 -3.5178972991e-05 1.6160466780e+00 -2.7990749537e+00 1.6160466780e+00 2.7990749537e+00 
92200 6.3760462008e+00 -3.5194274810e-05 1.6160466780e+00 -2.7990749537e+00 1.6160466780e+00 2.7990749537e+00 
92300 6.3760462014e+00 -3.5207638425e-05 1.6160466780e+00 -2.7990749537e+00 1.6160466780e+00 2.7990749537e+00 
92400 6.3760462019e+00 -3.5219142302e-05 1.6160466780e+00 -2.7990749537e+00 1.6160466780e+00 2.7990749537e+00 
92500 6.3760462025e+00 -3.5228864299e-05 1.6160466780e+00 -2.7990749537e+00 1.6160466780e+00 2.7990749537e+00 
92600 6.3760462030e+00 -3.5236881621e-05 1.6160466780e+00 -2.7990749537e+00 1.6160466780e+00 2.7990749537e+00 
92700 6.3760462035e+00 -3.5243270773e-05 1.6160466780e+00 -2.7990749537e+00 1.6160466780e+00 2.7990749537e+00 
92800 6.3760462041e+00 -3.5248107508e-05 1.6160466780e+00 -2.7990749537e+00 1.6160466780e+00 2.7990749537e+00 
92900 6.3760462046e+00 -3.5251466787e-05 1.6160466780e+00 -2.7990749537e+00 1.6160466780e+00 2.7990749537e+00 
93000 6.3760462051e+00 -3.5253422733e-05 1.6160466780e+00 -2.7990749537e+00 1.6160466780e+00 2.7990749537e+00 
93100 6.3760462056e+00 -3.5254048593e-05 1.6160466780e+00 -2.7990749537e+00 1.6160466780e+00 2.7990749537e+00 
93200 6.3760462061e+00 -3.5253416692e-05 1.6160466780e+00 -2.7990749537e+00 1.6160466780e+00 2.7990749537e+00 
93300 6.3760462066e+00 -3.5251598403e-05 1.6160466780e+00 -2.7990749537e+00 1.6160466780e+00 2.7990749537e+00 
93400 6.3760462071e+00 -3.5248664110e-05 1.6160466780e+00 -2.7990749537e+00 1.6160466780e+00 2.7990749537e+00 
93500 6.3760462076e+00 -3.5244683162e-05 1.6160466780e+00 -2.7990749537e+00 1.6160466780e+00 2.7990749537e+00 
93600 6.3760462081e+00 -3.5239723859e-05 1.6160466780e+00 -2.7990749537e+00 1.6160466780e+00 2.7990749537e+00 
93700 6.3760462086e+00 -3.5233853405e-05 1.6160466780e+00 -2.7990749537e+00 1.6160466780e+00 2.7990749537e+00 
93800 6.3760462090e+00 -3.5227137885e-05 1.6160466780e+00 -2.7990749537e+00 1.6160466780e+00 2.7990749537e+00 
93900 6.3760462095e+00 -3.5219642240e-05 1.6160466780e+00 -2.7990749537e+00 1.6160466780e+00 2.7990749537e+00 
94000 6.3760462100e+00 -3.5211430237e-05 1.6160466780e+00 -2.7990749537e+00 1.6160466780e+00 2.7990749537e+00 
94100 6.3760462104e+00 -3.5202564441e-05 1.6160466780e+00 -2.7990749537e+00 1.6160466780e+00 2.7990749537e+00 
94200 6.3760462109e+00 -3.5193106204e-05 1.6160466780e+00 -2.7990749537e+00 1.6160466780e+00 2.7990749537e+00 
94300 6.3760462113e+00 -3.5183115631e-05 1.6160466780e+00 -2.7990749537e+00 1.6160466780e+00 2.7990749537e+00 
94400 6.3760462118e+00 -3.5172651566e-05 1.6160466780e+00 -2.7990749537e+00 1.6160466780e+00 2.7990749537e+00 
94500 6.3760462122e+00 -3.5161771576e-05 1.6160466780e+00 -2.7990749537e+00 1.6160466780e+00 2.7990749537e+00 
94600 6.3760462126e+00 -3.5150531929e-05 1.6160466780e+00 -2.7990749537e+00 1.6160466780e+00 2.7990749537e+00 
94700 6.3760462131e+00 -3.5138987586e-05 1.6160466780e+00 -2.7990749537e+00 1.6160466780e+00 2.7990749537e+00 
94800 6.3760462135e+00 -3.5127192177e-05 1.6160466780e+00 -2.7990749537e+00 1.6160466780e+00 2.7990749537e+00 
94900 6.3760462139e+00 -3.5115197999e-05 1.6160466780e+00 -2.7990749537e+00 1.6160466780e+00 2.7990749537e+00 
95000 6.3760462143e+00 -3.5103055999e-05 1.6160466780e+00 -2.7990749537e+00 1.6160466780e+00 2.7990749537e+00 
95100 6.3760462147e+00 -3.5090815769e-05 1.6160466780e+00 -2.7990749537e+00 1.6160466780e+00 2.7990749537e+00 
95200 6.3760462151e+00 -3.5078525534e-05 1.6160466780e+00 -2.7990749537e+00 1.6160466780e+00 2.7990749537e+00 
95300 6.3760462155e+00 -3.5066232149e-05 1.6160466780e+00 -2.7990749537e+00 1.6160466780e+00 2.7990749537e+00 
95400 6.3760462159e+00 -3.5053981089e-05 1.6160466780e+00 -2.7990749537e+00 1.6160466780e+00 2.7990749537e+00 
95500 6.3760462163e+00 -3.5041816452e-05 1.6160466780e+00 -2.7990749537e+00 1.6160466780e+00 2.7990749537e+00 
95600 6.3760462167e+00 -3.5029780951e-05 1.6160466780e+00 -2.7990749537e+00 1.6160466780e+00 2.7990749537e+00 
95700 6.3760462171e+00 -3.5017915912e-05 1.6160466780e+00 -2.7990749537e+00 1.6160466780e+00 2.7990749537e+00 
95800 6.3760462174e+00 -3.5006261276e-05 1.6160466780e+00 -2.7990749537e+00 1.6160466780e+00 2.7990749537e+00 
95900 6.3760462178e+00 -3.4994855604e-05 1.6160466780e+00 -2.7990749537e+00 1.6160466780e+00 2.7990749537e+00 
96000 6.3760462182e+00 -3.4983736069e-05 1.6160466780e+00 -2.7990749537e+00 1.6160466780e+00 2.7990749537e+00 
96100 6.3760462185e+00 -3.4972938468e-05 1.6160466780e+00 -2.7990749537e+00 1.6160466780e+00 2.7990749537e+00 
96200 6.3760462189e+00 -3.4962497224e-05 1.6160466780e+00 -2.7990749537e+00 1.6160466780e+00 2.7990749537e+00 
96300 6.3760462192e+00 -3.4952445392e-05 1.6160466780e+00 -2.7990749537e+00 1.6160466780e+00 2.7990749537e+00 
96400 6.3760462196e+00 -3.4942814657e-05 1.6160466780e+00 -2.7990749537e+00 1.6160466780e+00 2.7990749537e+00 
96500 6.3760462199e+00 -3.4933635359e-05 1.6160466780e+00 -2.7990749537e+00 1.6160466780e+00 2.7990749537e+00 
96600 6.3760462203e+00 -3.4924936486e-05 1.6160466780e+00 -2.7990749537e+00 1.6160466780e+00 2.7990749537e+00 
96700 6.3760462206e+00 -3.4916745689e-05 1.6160466780e+00 -2.7990749537e+00 1.6160466780e+00 2.7990749537e+00 
96800 6.3760462210e+00 -3.4909089291e-05 1.6160466780e+00 -2.7990749537e+00 1.6160466780e+00 2.7990749537e+00 
96900 6.3760462213e+00 -3.4901992303e-05 1.6160466780e+00 -2.7990749537e+00 1.6160466780e+00 2.7990749537e+00 
97000 6.3760462216e+00 -3.4895478428e-05 1.6160466780e+00 -2.7990749537e+00 1.6160466780e+00 2.7990749537e+00 
97100 6.3760462219e+00 -3.4889570083e-05 1.6160466780e+00 -2.7990749537e+00 1.6160466780e+00 2.7990749537e+00 
97200 6.3760462223e+00 -3.4884288403e-05 1.6160466780e+00 -2.7990749537e+00 1.6160466780e+00 2.7990749537e+00 
97300 6.3760462226e+00 -3.4879653263e-05 1.6160466780e+00 -2.7990749537e+00 1.6160466780e+00 2.7990749537e+00 
97400 6.3760462229e+00 -3.4875683290e-05 1.6160466780e+00 -2.7990749537e+00 1.6160466780e+00 2.7990749537e+00 
97500 6.3760462232e+00 -3.4872395883e-05 1.6160466780e+00 -2.7990749537e+00 1.6160466780e+00 2.7990749537e+00 
97600 6.3760462235e+00 -3.4869807217e-05 1.6160466780e+00 -2.7990749537e+00 1.6160466780e+00 2.7990749537e+00 
97700 6.3760462238e+00 -3.4867932277e-05 1.6160466780e+00 -2.7990749537e+00 1.6160466780e+00 2.7990749537e+00 
97800 6.3760462241e+00 -3.4866784864e-05 1.6160466780e+00 -2.7990749537e+00 1.6160466780e+00 2.7990749537e+00 
97900 6.3760462244e+00 -3.4866377622e-05 1.6160466780e+00 -2.7990749537e+00 1.6160466780e+00 2.7990749537e+00 
98000 6.3760462247e+00 -3.4866722045e-05 1.6160466780e+00 -2.7990749537e+00 1.6160466780e+00 2.7990749537e+00 
98100 6.3760462250e+00 -3.4867828511e-05 1.6160466780e+00 -2.7990749537e+00 1.6160466780e+00 2.7990749537e+00 
98200 6.3760462253e+00 -3.4869706287e-05 1.6160466780e+00 -2.7990749537e+00 1.6160466780e+00 2.7990749537e+00 
98300 6.3760462255e+00 -3.4872363562e-05 1.6160466780e+00 -2.7990749537e+00 1.6160466780e+00 2.7990749537e+00 
98400 6.3760462258e+00 -3.4875807462e-05 1.6160466780e+00 -2.7990749537e+00 1.6160466780e+00 2.7990749537e+00 
98500 6.3760462261e+00 -3.4880044070e-05 1.6160466780e+00 -2.7990749537e+00 1.6160466780e+00 2.7990749537e+00 
98600 6.3760462264e+00 -3.4885078451e-05 1.6160466780e+00 -2.7990749537e+00 1.6160466780e+00 2.7990749537e+00 
98700 6.3760462266e+00 -3.4890914671e-05 1.6160466780e+00 -2.7990749537e+00 1.6160466780e+00 2.7990749537e+00 
98800 6.3760462269e+00 -3.4897555823e-05 1.6160466780e+00 -2.7990749537e+00 1.6160466780e+00 2.7990749537e+00 
98900 6.3760462272e+00 -3.4905004041e-05 1.6160466780e+00 -2.7990749537e+00 1.6160466780e+00 2.7990749537e+00 
99000 6.3760462274e+00 -3.4913260538e-05 1.6160466780e+00 -2.7990749537e+00 1.6160466780e+00 2.7990749537e+00 
99100 6.3760462277e+00 -3.4922325614e-05 1.6160466780e+00 -2.7990749537e+00 1.6160466780e+00 2.7990749537e+00 
99200 6.3760462279e+00 -3.4932198684e-05 1.6160466780e+00 -2.7990749537e+00 1.6160466780e+00 2.7990749537e+00 
99300 6.3760462282e+00 -3.4942878307e-05 1.6160466780e+00 -2.7990749537e+00 1.6160466780e+00 2.7990749537e+00 
99400 6.3760462284e+00 -3.4954362201e-05 1.6160466780e+00 -2.7990749537e+00 1.6160466780e+00 2.7990749537e+00 
99500 6.3760462287e+00 -3.4966647275e-05 1.6160466780e+00 -2.7990749537e+00 1.6160466780e+00 2.7990749537e+00 
99600 6.3760462289e+00 -3.4979729645e-05 1.6160466780e+00 -2.7990749537e+00 1.6160466780e+00 2.7990749537e+00 
99700 6.3760462292e+00 -3.4993604666e-05 1.6160466780e+00 -2.7990749537e+00 1.6160466780e+00 2.7990749537e+00 
99800 6.3760462294e+00 -3.5008266943e-05 1.6160466780e+00 -2.7990749537e+00 1.6160466780e+00 2.7990749537e+00 
99900 6.3760462297e+00 -3.5023710374e-05 1.6160466780e+00 -2.7990749537e+00 1.6160466780e+00 2.7990749537e+00 
100000 6.3760462299e+00 -3.5039928159e-05 1.6160466780e+00 -2.7990749537e+00 1.6160466780e+00 2.7990749537e+00 
100100 6.3760462301e+00 -3.5056912828e-05 1.6160466780e+00 -2.7990749537e+00 1.6160466780e+00 2.7990749537e+00 
100200 6.3760462303e+00 -3.5074656267e-05 1.6160466780e+00 -2.7990749537e+00 1.6160466780e+00 2.7990749537e+00 
100300 6.3760462306e+00 -3.5093149741e-05 1.6160466780e+00 -2.7990749537e+00 1.6160466780e+00 2.7990749537e+00 
100400 6.3760462308e+00 -3.5112383920e-05 1.6160466780e+00 -2.7990749537e+00 1.6160466780e+00 2.7990749537e+00 
100500 6.3760462310e+00 -3.5132348895e-05 1.6160466780e+00 -2.7990749537e+00 1.6160466780e+00 2.7990749537e+00 
100600 6.3760462312e+00 -3.5153034212e-05 1.6160466780e+00 -2.7990749537e+00 1.6160466780e+00 2.7990749537e+00 
100700 6.3760462315e+00 -3.5174428891e-05 1.6160466780e+00 -2.7990749537e+00 1.6160466780e+00 2.7990749537e+00 
100800 6.3760462317e+00 -3.5196521449e-05 1.6160466780e+00 -2.7990749537e+00 1.6160466780e+00 2.7990749537e+00 
100900 6.3760462319e+00 -3.5219299920e-05 1.6160466780e+00 -2.7990749537e+00 1.6160466780e+00 2.7990749537e+00 
101000 6.3760462321e+00 -3.5242751893e-05 1.6160466780e+00 -2.7990749537e+00 1.6160466780e+00 2.7990749537e+00 
101100 6.3760462323e+00 -3.5266864510e-05 1.6160466780e+00 -2.7990749537e+00 1.6160466780e+00 2.7990749537e+00 
101200 6.3760462325e+00 -3.5291624513e-05 1.6160466780e+00 -2.7990749537e+00 1.6160466780e+00 2.7990749537e+00 
101300 6.3760462327e+00 -3.5317018256e-05 1.6160466780e+00 -2.7990749537e+00 1.6160466780e+00 2.7990749537e+00 
101400 6.3760462329e+00 -3.5343031724e-05 1.6160466780e+00 -2.7990749537e+00 1.6160466780e+00 2.7990749537e+00 
101500 6.3760462331e+00 -3.5369650561e-05 1.6160466780e+00 -2.7990749537e+00 1.6160466780e+00 2.7990749537e+00 
101600 6.3760462333e+00 -3.5396860092e-05 1.6160466780e+00 -2.7990749537e+00 1.6160466780e+00 2.7990749537e+00 
101700 6.3760462335e+00 -3.5424645341e-05 1.6160466780e+00 -2.7990749537e+00 1.6160466780e+00 2.7990749537e+00 
101800 6.3760462337e+00 -3.5452991053e-05 1.6160466780e+00 -2.7990749537e+00 1.6160466780e+00 2.7990749537e+00 
101900 6.3760462339e+00 -3.5481881718e-05 1.6160466780e+00 -2.7990749537e+00 1.6160466780e+00 2.7990749537e+00 
102000 6.3760462341e+00 -3.5511301588e-05 1.6160466780e+00 -2.7990749537e+00 1.6160466780e+00 2.7990749537e+00 
102100 6.3760462342e+00 -3.5541234701e-05 1.6160466780e+00 -2.7990749537e+00 1.6160466780e+00 2.7990749537e+00 
102200 6.3760462344e+00 -3.5571664898e-05 1.6160466780e+00 -2.7990749537e+00 1.6160466780e+00 2.7990749537e+00 
102300 6.3760462346e+00 -3.5602575845e-05 1.6160466780e+00 -2.7990749537e+00 1.6160466780e+00 2.7990749537e+00 
102400 6.3760462348e+00 -3.5633951054e-05 1.6160466780e+00 -2.7990749537e+00 1.6160466780e+00 2.7990749537e+00 
102500 6.3760462350e+00 -3.5665773894e-05 1.6160466780e+00 -2.7990749537e+00 1.6160466780e+00 2.7990749537e+00 
102600 6.3760462351e+00 -3.5698027620e-05 1.6160466780e+00 -2.7990749537e+00 1.6160466780e+00 2.7990749537e+00 
102700 6.3760462353e+00 -3.5730695383e-05 1.6160466780e+00 -2.7990749537e+00 1.6160466780e+00 2.7990749537e+00 
102800 6.3760462355e+00 -3.5763760257e-05 1.6160466780e+00 -2.7990749537e+00 1.6160466780e+00 2.7990749537e+00 
102900 6.3760462356e+00 -3.5797205248e-05 1.6160466780e+00 -2.7990749537e+00 1.6160466780e+00 2.7990749537e+00 
103000 6.3760462358e+00 -3.5831013311e-05 1.6160466780e+00 -2.7990749537e+00 1.6160466780e+00 2.7990749537e+00 
103100 6.3760462360e+00 -3.5865167378e-05 1.6160466780e+00 -2.7990749537e+00 1.6160466780e+00 2.7990749537e+00 
103200 6.3760462361e+00 -3.5899650363e-05 1.6160466780e+00 -2.7990749537e+00 1.6160466780e+00 2.7990749537e+00 
103300 6.3760462363e+00 -3.5934445181e-05 1.6160466780e+00 -2.7990749537e+00 1.6160466780e+00 2.7990749537e+00 
103400 6.3760462365e+00 -3.5969534764e-05 1.6160466780e+00 -2.7990749537e+00 1.6160466780e+00 2.7990749537e+00 
103500 6.3760462366e+00 -3.6004902080e-05 1.6160466780e+00 -2.7990749537e+00 1.6160466780e+00 2.7990749537e+00 
103600 6.3760462368e+00 -3.6040530142e-05 1.6160466780e+00 -2.7990749537e+00 1.6160466780e+00 2.7990749537e+00 
103700 6.3760462369e+00 -3.6076402024e-05 1.6160466780e+00 -2.7990749537e+00 1.6160466780e+00 2.7990749537e+00 
103800 6.3760462371e+00 -3.6112500880e-05 1.6160466780e+00 -2.7990749537e+00 1.6160466780e+00 2.7990749537e+00 
103900 6.3760462372e+00 -3.6148809952e-05 1.6160466780e+00 -2.7990749537e+00 1.6160466780e+00 2.7990749537e+00 
104000 6.3760462374e+00 -3.6185312580e-05 1.6160466780e+00 -2.7990749537e+00 1.6160466780e+00 2.7990749537e+00 
104100 6.3760462375e+00 -3.6221992226e-05 1.6160466780e+00 -2.7990749537e+00 1.6160466780e+00 2.7990749537e+00 
104200 6.3760462377e+00 -3.6258832478e-05 1.6160466780e+00 -2.7990749537e+00 1.6160466780e+00 2.7990749537e+00 
104300 6.3760462378e+00 -3.6295817060e-05 1.6160466780e+00 -2.7990749537e+00 1.6160466780e+00 2.7990749537e+00 
104400 6.3760462380e+00 -3.6332929852e-05 1.6160466780e+00 -2.7990749537e+00 1.6160466780e+00 2.7990749537e+00 
104500 6.3760462381e+00 -3.6370154889e-05 1.6160466780e+00 -2.7990749537e+00 1.6160466780e+00 2.7990749537e+00 
104600 6.3760462382e+00 -3.6407476389e-05 1.6160466780e+00 -2.7990749537e+00 1.6160466780e+00 2.7990749537e+00 
104700 6.3760462384e+00 -3.6444878746e-05 1.6160466780e+00 -2.7990749537e+00 1.6160466780e+00 2.7990749537e+00 
104800 6.3760462385e+00 -3.6482346548e-05 1.6160466780e+00 -2.7990749537e+00 1.6160466780e+00 2.7990749537e+00 
104900 6.3760462387e+00 -3.6519864587e-05 1.6160466780e+00 -2.7990749537e+00 1.6160466780e+00 2.7990749537e+00 
105000 6.3760462388e+00 -3.6557417862e-05 1.6160466780e+00 -2.7990749537e+00 1.6160466780e+00 2.7990749537e+00 
105100 6.3760462389e+00 -3.6594991597e-05 1.6160466780e+00 -2.7990749537e+00 1.6160466780e+00 2.7990749537e+00 
105200 6.3760462390e+00 -3.6632571241e-05 1.6160466780e+00 -2.7990749537e+00 1.6160466780e+00 2.7990749537e+00 
105300 6.3760462392e+00 -3.6670142478e-05 1.6160466780e+00 -2.7990749537e+00 1.6160466780e+00 2.7990749537e+00 
105400 6.3760462393e+00 -3.6707691236e-05 1.6160466780e+00 -2.7990749537e+00 1.6160466780e+00 2.7990749537e+00 
105500 6.3760462394e+00 -3.6745203695e-05 1.6160466780e+00 -2.7990749537e+00 1.6160466780e+00 2.7990749537e+00 
105600 6.3760462396e+00 -3.6782666288e-05 1.6160466780e+00 -2.7990749537e+00 1.6160466780e+00 2.7990749537e+00 
105700 6.3760462397e+00 -3.6820065711e-05 1.6160466780e+00 -2.7990749537e+00 1.6160466780e+00 2.7990749537e+00 
105800 6.3760462398e+00 -3.6857388933e-05 1.6160466780e+00 -2.7990749537e+00 1.6160466780e+00 2.7990749537e+00 
105900 6.3760462399e+00 -3.6894623191e-05 1.6160466780e+00 -2.7990749537e+00 1.6160466780e+00 2.7990749537e+00 
106000 6.3760462400e+00 -3.6931756005e-05 1.6160466780e+00 -2.7990749537e+00 1.6160466780e+00 2.7990749537e+00 
106100 6.3760462402e+00 -3.6968775177e-05 1.6160466780e+00 -2.7990749537e+00 1.6160466780e+00 2.7990749537e+00 
106200 6.3760462403e+00 -3.7005668795e-05 1.6160466780e+00 -2.7990749537e+00 1.6160466780e+00 2.7990749537e+00 
106300 6.3760462404e+00 -3.7042425243e-05 1.6160466780e+00 -2.7990749537e+00 1.6160466780e+00 2.7990749537e+00 
106400 6.3760462405e+00 -3.7079033198e-05 1.6160466780e+00 -2.7990749537e+00 1.6160466780e+00 2.7990749537e+00 
106500 6.3760462406e+00 -3.7115481635e-05 1.6160466780e+00 -2.7990749537e+00 1.6160466780e+00 2.7990749537e+00 
106600 6.3760462407e+00 -3.7151759831e-05 1.6160466780e+00 -2.7990749537e+00 1.6160466780e+00 2.7990749537e+00 
106700 6.3760462408e+00 -3.7187857368e-05 1.6160466780e+00 -2.7990749537e+00 1.6160466780e+00 2.7990749537e+00 
106800 6.3760462409e+00 -3.7223764132e-05 1.6160466780e+00 -2.7990749537e+00 1.6160466780e+00 2.7990749537e+00 
106900 6.3760462411e+00 -3.7259470320e-05 1.6160466780e+00 -2.7990749537e+00 1.6160466780e+00 2.7990749537e+00 
107000 6.3760462412e+00 -3.7294966438e-05 1.6160466780e+00 -2.7990749537e+00 1.6160466780e+00 2.7990749537e+00 
107100 6.3760462413e+00 -3.7330243301e-05 1.6160466780e+00 -2.7990749537e+00 1.6160466780e+00 2.7990749537e+00 
107200 6.3760462414e+00 -3.7365292038e-05 1.6160466780e+00 -2.7990749537e+00 1.6160466780e+00 2.7990749537e+00 
107300 6.3760462415e+00 -3.7400104089e-05 1.6160466780e+00 -2.7990749537e+00 1.6160466780e+00 2.7990749537e+00 
107400 6.3760462416e+00 -3.7434671211e-05 1.6160466780e+00 -2.7990749537e+00 1.6160466780e+00 2.7990749537e+00 
107500 6.3760462417e+00 -3.7468985468e-05 1.6160466780e+00 -2.7990749537e+00 1.6160466780e+00 2.7990749537e+00 
107600 6.3760462418e+00 -3.7503039241e-05 1.6160466780e+00 -2.7990749537e+00 1.6160466780e+00 2.7990749537e+00 
107700 6.3760462419e+00 -3.7536825222e-05 1.6160466780e+00 -2.7990749537e+00 1.6160466780e+00 2.7990749537e+00 
107800 6.3760462420e+00 -3.7570336416e-05 1.6160466780e+00 -2.7990749537e+00 1.6160466780e+00 2.7990749537e+00 
107900 6.3760462421e+00 -3.7603566136e-05 1.6160466780e+00 -2.7990749537e+00 1.6160466780e+00 2.7990749537e+00 
108000 6.3760462422e+00 -3.7636508008e-05 1.6160466780e+00 -2.7990749537e+00 1.6160466780e+00 2.7990749537e+00 
108100 6.3760462423e+00 -3.7669155962e-05 1.6160466780e+00 -2.7990749537e+00 1.6160466780e+00 2.7990749537e+00 
108200 6.3760462424e+00 -3.7701504238e-05 1.6160466780e+00 -2.7990749537e+00 1.6160466780e+00 2.7990749537e+00 
108300 6.3760462424e+00 -3.7733547377e-05 1.6160466780e+00 -2.7990749537e+00 1.6160466780e+00 2.7990749537e+00 
108400 6.3760462425e+00 -3.7765280225e-05 1.6160466780e+00 -2.7990749537e+00 1.6160466780e+00 2.7990749537e+00 
108500 6.3760462426e+00 -3.7796697928e-05 1.6160466780e+00 -2.7990749537e+00 1.6160466780e+00 2.7990749537e+00 
108600 6.3760462427e+00 -3.7827795926e-05 1.6160466780e+00 -2.7990749537e+00 1.6160466780e+00 2.7990749537e+00 
108700 6.3760462428e+00 -3.7858569955e-05 1.6160466780e+00 -2.7990749537e+00 1.6160466780e+00 2.7990749537e+00 
108800 6.3760462429e+00 -3.7889016046e-05 1.6160466780e+00 -2.7990749537e+00 1.6160466780e+00 2.7990749537e+00 
108900 6.3760462430e+00 -3.7919130512e-05 1.6160466780e+00 -2.7990749537e+00 1.6160466780e+00 2.7990749537e+00 
109000 6.3760462431e+00 -3.7948909957e-05 1.6160466780e+00 -2.7990749537e+00 1.6160466780e+00 2.7990749537e+00 
109100 6.3760462431e+00 -3.7978351263e-05 1.6160466780e+00 -2.7990749537e+00 1.6160466780e+00 2.7990749537e+00 
109200 6.3760462432e+00 -3.8007451589e-05 1.6160466780e+00 -2.7990749537e+00 1.6160466780e+00 2.7990749537e+00 
109300 6.3760462433e+00 -3.8036208373e-05 1.6160466780e+00 -2.7990749537e+00 1.6160466780e+00 2.7990749537e+00 
109400 6.3760462434e+00 -3.8064619319e-05 1.6160466780e+00 -2.7990749537e+00 1.6160466780e+00 2.7990749537e+00 
109500 6.3760462435e+00 -3.8092682397e-05 1.6160466780e+00 -2.7990749537e+00 1.6160466780e+00 2.7990749537e+00 
109600 6.3760462436e+00 -3.8120395840e-05 1.6160466780e+00 -2.7990749537e+00 1.6160466780e+00 2.7990749537e+00 
109700 6.3760462436e+00 -3.8147758140e-05 1.6160466780e+00 -2.7990749537e+00 1.6160466780e+00 2.7990749537e+00 
109800 6.3760462437e+00 -3.8174768038e-05 1.6160466780e+00 -2.7990749537e+00 1.6160466780e+00 2.7990749537e+00 
109900 6.3760462438e+00 -3.8201424530e-05 1.6160466780e+00 -2.7990749537e+00 1.6160466780e+00 2.7990749537e+00 
110000 6.3760462439e+00 -3.8227726849e-05 1.6160466780e+00 -2.7990749537e+00 1.6160466780e+00 2.7990749537e+00 
110100 6.3760462439e+00 -3.8253674469e-05 1.6160466780e+00 -2.7990749537e+00 1.6160466780e+00 2.7990749537e+00 
110200 6.3760462440e+00 -3.8279267100e-05 1.6160466780e+00 -2.7990749537e+00 1.6160466780e+00 2.7990749537e+00 
110300 6.3760462441e+00 -3.8304504679e-05 1.6160466780e+00 -2.7990749537e+00 1.6160466780e+00 2.7990749537e+00 
110400 6.3760462442e+00 -3.8329387368e-05 1.6160466780e+00 -2.7990749537e+00 1.6160466780e+00 2.7990749537e+00 
110500 6.3760462442e+00 -3.8353915549e-05 1.6160466780e+00 -2.7990749537e+00 1.6160466780e+00 2.7990749537e+00 
110600 6.3760462443e+00 -3.8378089814e-05 1.6160466780e+00 -2.7990749537e+00 1.6160466780e+00 2.7990749537e+00 
110700 6.3760462444e+00 -3.8401910970e-05 1.6160466780e+00 -2.7990749537e+00 1.6160466780e+00 2.7990749537e+00 
110800 6.3760462444e+00 -3.8425380020e-05 1.6160466780e+00 -2.7990749537e+00 1.6160466780e+00 2.7990749537e+00 
110900 6.3760462445e+00 -3.8448498169e-05 1.6160466780e+00 -2.7990749537e+00 1.6160466780e+00 2.7990749537e+00 
111000 6.3760462446e+00 -3.8471266816e-05 1.6160466780e+00 -2.7990749537e+00 1.6160466780e+00 2.7990749537e+00 
111100 6.3760462446e+00 -3.8493687542e-05 1.6160466780e+00 -2.7990749537e+00 1.6160466780e+00 2.7990749537e+00 
111200 6.3760462447e+00 -3.8515762113e-05 1.6160466780e+00 -2.7990749537e+00 1.6160466780e+00 2.7990749537e+00 
111300 6.3760462448e+00 -3.8537492471e-05 1.6160466780e+00 -2.7990749537e+00 1.6160466780e+00 2.7990749537e+00 
111400 6.3760462448e+00 -3.8558880730e-05 1.6160466780e+00 -2.7990749537e+00 1.6160466780e+00 2.7990749537e+00 
111500 6.3760462449e+00 -3.8579929163e-05 1.6160466780e+00 -2.7990749537e+00 1.6160466780e+00 2.7990749537e+00 
111600 6.3760462450e+00 -3.8600640213e-05 1.6160466780e+00 -2.7990749537e+00 1.6160466780e+00 2.7990749537e+00 
111700 6.3760462450e+00 -3.8621016466e-05 1.6160466780e+00 -2.7990749537e+00 1.6160466780e+00 2.7990749537e+00 
111800 6.3760462451e+00 -3.8641060664e-05 1.6160466780e+00 -2.7990749537e+00 1.6160466780e+00 2.7990749537e+00 
111900 6.3760462452e+00 -3.8660775688e-05 1.6160466780e+00 -2.7990749537e+00 1.6160466780e+00 2.7990749537e+00 
112000 6.3760462452e+00 -3.8680164558e-05 1.6160466780e+00 -2.7990749537e+00 1.6160466780e+00 2.7990749537e+00 
112100 6.3760462453e+00 -3.8699230426e-05 1.6160466780e+00 -2.7990749537e+00 1.6160466780e+00 2.7990749537e+00 
112200 6.3760462453e+00 -3.8717976573e-05 1.6160466780e+00 -2.7990749537e+00 1.6160466780e+00 2.7990749537e+00 
112300 6.3760462454e+00 -3.8736406395e-05 1.6160466780e+00 -2.7990749537e+00 1.6160466780e+00 2.7990749537e+00 
112400 6.3760462455e+00 -3.8754523409e-05 1.6160466780e+00 -2.7990749537e+00 1.6160466780e+00 2.7990749537e+00 
112500 6.3760462455e+00 -3.8772331240e-05 1.6160466780e+00 -2.7990749537e+00 1.6160466780e+00 2.7990749537e+00 
112600 6.3760462456e+00 -3.8789833619e-05 1.6160466780e+00 -2.7990749537e+00 1.6160466780e+00 2.7990749537e+00 
112700 6.3760462456e+00 -3.8807034375e-05 1.6160466780e+00 -2.7990749537e+00 1.6160466780e+00 2.7990749537e+00 
112800 6.3760462457e+00 -3.8823937432e-05 1.6160466780e+00 -2.7990749537e+00 1.6160466780e+00 2.7990749537e+00 
112900 6.3760462457e+00 -3.8840546804e-05 1.6160466780e+00 -2.7990749537e+00 1.6160466780e+00 2.7990749537e+00 
113000 6.3760462458e+00 -3.8856866583e-05 1.6160466780e+00 -2.7990749537e+00 1.6160466780e+00 2.7990749537e+00 
113100 6.3760462458e+00 -3.8872900947e-05 1.6160466780e+00 -2.7990749537e+00 1.6160466780e+00 2.7990749537e+00 
113200 6.3760462459e+00 -3.8888654145e-05 1.6160466780e+00 -2.7990749537e+00 1.6160466780e+00 2.7990749537e+00 
113300 6.3760462460e+00 -3.8904130494e-05 1.6160466780e+00 -2.7990749537e+00 1.6160466780e+00 2.7990749537e+00 
113400 6.3760462460e+00 -3.8919334375e-05 1.6160466780e+00 -2.7990749537e+00 1.6160466780e+00 2.7990749537e+00 
113500 6.3760462461e+00 -3.8934270228e-05 1.6160466780e+00 -2.7990749537e+00 1.6160466780e+00 2.7990749537e+00 
113600 6.3760462461e+00 -3.8948942545e-05 1.6160466780e+00 -2.7990749537e+00 1.6160466780e+00 2.7990749537e+00 
113700 6.3760462462e+00 -3.8963355869e-05 1.6160466780e+00 -2.7990749537e+00 1.6160466780e+00 2.7990749537e+00 
113800 6.3760462462e+00 -3.8977514785e-05 1.6160466780e+00 -2.7990749537e+00 1.6160466780e+00 2.7990749537e+00 
113900 6.3760462462e+00 -3.8988661854e-05 1.6160466780e+00 -2.7990749537e+00 1.6160466780e+00 2.7990749537e+00 
113900 6.3760462462e+00 -3.8988661854e-05 1.6160466780e+00 -2.7990749537e+00 1.6160466780e+00 2.7990749537e+00 
