# step Hamiltonian StressXX CellTensor1 CellTensor2 CellTensor3 CellTensor4 
0 3.7746177185e+00 -2.9604862362e-08 1.3731072612e+00 -2.3782915406e+00 1.3731072612e+00 2.3782915406e+00 
100 3.7469379925e+00 -2.8404541205e-08 1.3731072612e+00 -2.3782915406e+00 1.3731072612e+00 2.3782915406e+00 
200 3.7223022808e+00 -2.7536106210e-08 1.3731072612e+00 -2.3782915406e+00 1.3731072612e+00 2.3782915406e+00 
300 3.7003758251e+00 -2.6928955182e-08 1.3731072612e+00 -2.3782915406e+00 1.3731072612e+00 2.3782915406e+00 
400 3.6808606810e+00 -2.6528299647e-08 1.3731072612e+00 -2.3782915406e+00 1.3731072612e+00 2.3782915406e+00 
500 3.6634916701e+00 -2.6291575253e-08 1.3731072612e+00 -2.3782915406e+00 1.3731072612e+00 2.3782915406e+00 
600 3.6480327764e+00 -2.6185673602e-08 1.3731072612e+00 -2.3782915406e+00 1.3731072612e+00 2.3782915406e+00 
700 3.6342739391e+00 -2.6184806765e-08 1.3731072612e+00 -2.3782915406e+00 1.3731072612e+00 2.3782915406e+00 
800 3.6220281984e+00 -2.6268859186e-08 1.3731072612e+00 -2.3782915406e+00 1.3731072612e+00 2.3782915406e+00 
900 3.6111291549e+00 -2.6422115153e-08 1.3731072612e+00 -2.3782915406e+00 1.3731072612e+00 2.3782915406e+00 
1000 3.6014287088e+00 -2.6632275729e-08 1.3731072612e+00 -2.3782915406e+00 1.3731072612e+00 2.3782915406e+00 
1100 3.5927950470e+00 -2.6889698842e-08 1.3731072612e+00 -2.3782915406e+00 1.3731072612e+00 2.3782915406e+00 
1200 3.5851108524e+00 -2.7186811463e-08 1.3731072612e+00 -2.3782915406e+00 1.3731072612e+00 2.3782915406e+00 
1300 3.5782717095e+00 -2.7517654571e-08 1.3731072612e+00 -2.3782915406e+00 1.3731072612e+00 2.3782915406e+00 
1400 3.5721846856e+00 -2.7877530578e-08 1.3731072612e+00 -2.3782915406e+00 1.3731072612e+00 2.3782915406e+00 
1500 3.5667670683e+00 -2.8262729880e-08 1.3731072612e+00 -2.3782915406e+00 1.3731072612e+00 2.3782915406e+00 
1600 3.5619452409e+00 -2.8670318543e-08 1.3731072612e+00 -2.3782915406e+00 1.3731072612e+00 2.3782915406e+00 
1700 3.5576536830e+00 -2.9097973236e-08 1.3731072612e+00 -2.3782915406e+00 1.3731072612e+00 2.3782915406e+00 
1800 3.5538340794e+00 -2.9543852723e-08 1.3731072612e+00 -2.3782915406e+00 1.3731072612e+00 2.3782915406e+00 
1900 3.5504345278e+00 -3.0006497659e-08 1.3731072612e+00 -2.3782915406e+00 1.3731072612e+00 2.3782915406e+00 
2000 3.5474088342e+00 -3.0484752306e-08 1.3731072612e+00 -2.3782915406e+00 1.3731072612e+00 2.3782915406e+00 
2100 3.5447158843e+00 -3.0977703268e-08 1.3731072612e+00 -2.3782915406e+00 1.3731072612e+00 2.3782915406e+00 
2200 3.5423190853e+00 -3.1484631427e-08 1.3731072612e+00 -2.3782915406e+00 1.3731072612e+00 2.3782915406e+00 
2300 3.5401858688e+00 -3.2004974152e-08 1.3731072612e+00 -2.3782915406e+00 1.3731072612e+00 2.3782915406e+00 
2400 3.5382872479e+00 -3.2538295508e-08 1.3731072612e+00 -2.3782915406e+00 1.3731072612e+00 2.3782915406e+00 
2500 3.5365974235e+00 -3.3084262694e-08 1.3731072612e+00 -2.3782915406e+00 1.3731072612e+00 2.3782915406e+00 
2600 3.5350934336e+00 -3.3642627363e-08 1.3731072612e+00 -2.3782915406e+00 1.3731072612e+00 2.3782915406e+00 
2700 3.5337548416e+00 -3.4213210749e-08 1.3731072612e+00 -2.3782915406e+00 1.3731072612e+00 2.3782915406e+00 
2800 3.5325634581e+00 -3.4795891798e-08 1.3731072612e+00 -2.3782915406e+00 1.3731072612e+00 2.3782915406e+00 
2900 3.5315030942e+00 -3.5390597645e-08 1.3731072612e+00 -2.3782915406e+00 1.3731072612e+00 2.3782915406e+00 
3000 3.5305593415e+00 -3.5997295956e-08 1.3731072612e+00 -2.3782915406e+00 1.3731072612e+00 2.3782915406e+00 
3100 3.5297193757e+00 -3.6615988736e-08 1.3731072612e+00 -2.3782915406e+00 1.3731072612e+00 2.3782915406e+00 
3200 3.5289717833e+00 -3.7246707303e-08 1.3731072612e+00 -2.3782915406e+00 1.3731072612e+00 2.3782915406e+00 
3300 3.5283064056e+00 -3.7889508202e-08 1.3731072612e+00 -2.3782915406e+00 1.3731072612e+00 2.3782915406e+00 
3400 3.5277142013e+00 -3.8544469843e-08 1.3731072612e+00 -2.3782915406e+00 1.3731072612e+00 2.3782915406e+00 
3500 3.5271871232e+00 -3.9211689760e-08 1.3731072612e+00 -2.3782915406e+00 1.3731072612e+00 2.3782915406e+00 
3600 3.5267180093e+00 -3.9891282330e-08 1.3731072612e+00 -2.3782915406e+00 1.3731072612e+00 2.3782915406e+00 
3700 3.5263004852e+00 -4.0583376898e-08 1.3731072612e+00 -2.3782915406e+00 1.3731072612e+00 2.3782915406e+00 
3800 3.5259288773e+00 -4.1288116208e-08 1.3731072612e+00 -2.3782915406e+00 1.3731072612e+00 2.3782915406e+00 
3900 3.5255981360e+00 -4.2005655101e-08 1.3731072612e+00 -2.3782915406e+00 1.3731072612e+00 2.3782915406e+00 
4000 3.5253037673e+00 -4.2736159424e-08 1.3731072612e+00 -2.3782915406e+00 1.3731072612e+00 2.3782915406e+00 
4100 3.5250417711e+00 -4.3479805117e-08 1.3731072612e+00 -2.3782915406e+00 1.3731072612e+00 2.3782915406e+00 
4200 3.5248085872e+00 -4.4236777440e-08 1.3731072612e+00 -2.3782915406e+00 1.3731072612e+00 2.3782915406e+00 
4300 3.5246010473e+00 -4.5007270334e-08 1.3731072612e+00 -2.3782915406e+00 1.3731072612e+00 2.3782915406e+00 
4400 3.5244163310e+00 -4.5791485872e-08 1.3731072612e+00 -2.3782915406e+00 1.3731072612e+00 2.3782915406e+00 
4500 3.5242519284e+00 -4.6589633808e-08 1.3731072612e+00 -2.3782915406e+00 1.3731072612e+00 2.3782915406e+00 
4600 3.5241056056e+00 -4.7401931187e-08 1.3731072612e+00 -2.3782915406e+00 1.3731072612e+00 2.3782915406e+00 
4700 3.5239753743e+00 -4.8228602031e-08 1.3731072612e+00 -2.3782915406e+00 1.3731072612e+00 2.3782915406e+00 
4800 3.5238594649e+00 -4.9069877067e-08 1.3731072612e+00 -2.3782915406e+00 1.3731072612e+00 2.3782915406e+00 
4900 3.5237563023e+00 -4.9925993506e-08 1.3731072612e+00 -2.3782915406e+00 1.3731072612e+00 2.3782915406e+00 
5000 3.5236644847e+00 -5.0797194861e-08 1.3731072612e+00 -2.3782915406e+00 1.3731072612e+00 2.3782915406e+00 
5100 3.5235827645e+00 -5.1683730801e-08 1.3731072612e+00 -2.3782915406e+00 1.3731072612e+00 2.3782915406e+00 
5200 3.5235100313e+00 -5.2585857029e-08 1.3731072612e+00 -2.3782915406e+00 1.3731072612e+00 2.3782915406e+00 
5300 3.5234452968e+00 -5.3503835191e-08 1.3731072612e+00 -2.3782915406e+00 1.3731072612e+00 2.3782915406e+00 
5400 3.5233876812e+00 -5.4437932808e-08 1.3731072612e+00 -2.3782915406e+00 1.3731072612e+00 2.3782915406e+00 
5500 3.5233364017e+00 -5.5388423226e-08 1.3731072612e+00 -2.3782915406e+00 1.3731072612e+00 2.3782915406e+00 
5600 3.5232907616e+00 -5.6355585581e-08 1.3731072612e+00 -2.3782915406e+00 1.3731072612e+00 2.3782915406e+00 
5700 3.5232501406e+00 -5.7339704786e-08 1.3731072612e+00 -2.3782915406e+00 1.3731072612e+00 2.3782915406e+00 
5800 3.5232139867e+00 -5.8341071526e-08 1.3731072612e+00 -2.3782915406e+00 1.3731072612e+00 2.3782915406e+00 
5900 3.5231818088e+00 -5.9359982271e-08 1.3731072612e+00 -2.3782915406e+00 1.3731072612e+00 2.3782915406e+00 
6000 3.5231531695e+00 -6.0396739293e-08 1.3731072612e+00 -2.3782915406e+00 1.3731072612e+00 2.3782915406e+00 
6100 3.5231276797e+00 -6.1451650697e-08 1.3731072612e+00 -2.3782915406e+00 1.3731072612e+00 2.3782915406e+00 
6200 3.5231049931e+00 -6.2525030466e-08 1.3731072612e+00 -2.3782915406e+00 1.3731072612e+00 2.3782915406e+00 
6300 3.5230848013e+00 -6.3617198500e-08 1.3731072612e+00 -2.3782915406e+00 1.3731072612e+00 2.3782915406e+00 
6400 3.5230668301e+00 -6.4728480680e-08 1.3731072612e+00 -2.3782915406e+00 1.3731072612e+00 2.3782915406e+00 
6500 3.5230508351e+00 -6.5859208921e-08 1.3731072612e+00 -2.3782915406e+00 1.3731072612e+00 2.3782915406e+00 
6600 3.5230365991e+00 -6.7009721249e-08 1.3731072612e+00 -2.3782915406e+00 1.3731072612e+00 2.3782915406e+00 
6700 3.5230239287e+00 -6.8180361866e-08 1.3731072612e+00 -2.3782915406e+00 1.3731072612e+00 2.3782915406e+00 
6800 3.5230126516e+00 -6.9371481233e-08 1.3731072612e+00 -2.3782915406e+00 1.3731072612e+00 2.3782915406e+00 
6900 3.5230026146e+00 -7.0583436156e-08 1.3731072612e+00 -2.3782915406e+00 1.3731072612e+00 2.3782915406e+00 
7000 3.5229936814e+00 -7.1816589868e-08 1.3731072612e+00 -2.3782915406e+00 1.3731072612e+00 2.3782915406e+00 
7100 3.5229857306e+00 -7.3071312125e-08 1.3731072612e+00 -2.3782915406e+00 1.3731072612e+00 2.3782915406e+00 
7200 3.5229786541e+00 -7.4347979303e-08 1.3731072612e+00 -2.3782915406e+00 1.3731072612e+00 2.3782915406e+00 
7300 3.5229723557e+00 -7.5646974496e-08 1.3731072612e+00 -2.3782915406e+00 1.3731072612e+00 2.3782915406e+00 
7400 3.5229667500e+00 -7.6968687621e-08 1.3731072612e+00 -2.3782915406e+00 1.3731072612e+00 2.3782915406e+00 
7500 3.5229617607e+00 -7.8313515525e-08 1.3731072612e+00 -2.3782915406e+00 1.3731072612e+00 2.3782915406e+00 
7600 3.5229573200e+00 -7.9681862096e-08 1.3731072612e+00 -2.3782915406e+00 1.3731072612e+00 2.3782915406e+00 
7700 3.5229533677e+00 -8.1074138375e-08 1.3731072612e+00 -2.3782915406e+00 1.3731072612e+00 2.3782915406e+00 
7800 3.5229498499e+00 -8.2490762678e-08 1.3731072612e+00 -2.3782915406e+00 1.3731072612e+00 2.3782915406e+00 
7900 3.5229467190e+00 -8.3932160708e-08 1.3731072612e+00 -2.3782915406e+00 1.3731072612e+00 2.3782915406e+00 
8000 3.5229439323e+00 -8.5398765685e-08 1.3731072612e+00 -2.3782915406e+00 1.3731072612e+00 2.3782915406e+00 
8100 3.5229414520e+00 -8.6891018470e-08 1.3731072612e+00 -2.3782915406e+00 1.3731072612e+00 2.3782915406e+00 
8200 3.5229392445e+00 -8.8409367691e-08 1.3731072612e+00 -2.3782915406e+00 1.3731072612e+00 2.3782915406e+00 
8300 3.5229372796e+00 -8.9954269880e-08 1.3731072612e+00 -2.3782915406e+00 1.3731072612e+00 2.3782915406e+00 
8400 3.5229355308e+00 -9.1526189603e-08 1.3731072612e+00 -2.3782915406e+00 1.3731072612e+00 2.3782915406e+00 
8500 3.5229339743e+00 -9.3125599601e-08 1.3731072612e+00 -2.3782915406e+00 1.3731072612e+00 2.3782915406e+00 
8600 3.5229325888e+00 -9.4752980927e-08 1.3731072612e+00 -2.3782915406e+00 1.3731072612e+00 2.3782915406e+00 
8700 3.5229313557e+00 -9.6408823093e-08 1.3731072612e+00 -2.3782915406e+00 1.3731072612e+00 2.3782915406e+00 
8800 3.5229302581e+00 -9.8093624213e-08 1.3731072612e+00 -2.3782915406e+00 1.3731072612e+00 2.3782915406e+00 
8900 3.5229292812e+00 -9.9807891153e-08 1.3731072612e+00 -2.3782915406e+00 1.3731072612e+00 2.3782915406e+00 
9000 3.5229284117e+00 -1.0155213968e-07 1.3731072612e+00 -2.3782915406e+00 1.3731072612e+00 2.3782915406e+00 
9100 3.5229276377e+00 -1.0332689464e-07 1.3731072612e+00 -2.3782915406e+00 1.3731072612e+00 2.3782915406e+00 
9200 3.5229269487e+00 -1.0513269005e-07 1.3731072612e+00 -2.3782915406e+00 1.3731072612e+00 2.3782915406e+00 
9300 3.5229263355e+00 -1.0697006936e-07 1.3731072612e+00 -2.3782915406e+00 1.3731072612e+00 2.3782915406e+00 
9400 3.5229257897e+00 -1.0883958551e-07 1.3731072612e+00 -2.3782915406e+00 1.3731072612e+00 2.3782915406e+00 
9500 3.5229253038e+00 -1.1074180119e-07 1.3731072612e+00 -2.3782915406e+00 1.3731072612e+00 2.3782915406e+00 
9600 3.5229248712e+00 -1.1267728894e-07 1.3731072612e+00 -2.3782915406e+00 1.3731072612e+00 2.3782915406e+00 
9700 3.5229244862e+00 -1.1464663136e-07 1.3731072612e+00 -2.3782915406e+00 1.3731072612e+00 2.3782915406e+00 
9800 3.5229241435e+00 -1.1665042127e-07 1.3731072612e+00 -2.3782915406e+00 1.3731072612e+00 2.3782915406e+00 
9900 3.5229238383e+00 -1.1868926191e-07 1.3731072612e+00 -2.3782915406e+00 1.3731072612e+00 2.3782915406e+00 
10000 3.5229235667e+00 -1.2076376708e-07 1.3731072612e+00 -2.3782915406e+00 1.3731072612e+00 2.3782915406e+00 
10100 3.5229233248e+00 -1.2287456138e-07 1.3731072612e+00 -2.3782915406e+00 1.3731072612e+00 2.3782915406e+00 
10200 3.5229231095e+00 -1.2502228037e-07 1.3731072612e+00 -2.3782915406e+00 1.3731072612e+00 2.3782915406e+00 
10300 3.5229229178e+00 -1.2720757075e-07 1.3731072612e+00 -2.3782915406e+00 1.3731072612e+00 2.3782915406e+00 
10400 3.5229227471e+00 -1.2943109059e-07 1.3731072612e+00 -2.3782915406e+00 1.3731072612e+00 2.3782915406e+00 
10500 3.5229225951e+00 -1.3169350948e-07 1.3731072612e+00 -2.3782915406e+00 1.3731072612e+00 2.3782915406e+00 
10600 3.5229224597e+00 -1.3399550880e-07 1.3731072612e+00 -2.3782915406e+00 1.3731072612e+00 2.3782915406e+00 
10700 3.5229223391e+00 -1.3633778186e-07 1.3731072612e+00 -2.3782915406e+00 1.3731072612e+00 2.3782915406e+00 
10800 3.5229222317e+00 -1.3872103416e-07 1.3731072612e+00 -2.3782915406e+00 1.3731072612e+00 2.3782915406e+00 
10900 3.5229221361e+00 -1.4114598358e-07 1.3731072612e+00 -2.3782915406e+00 1.3731072612e+00 2.3782915406e+00 
11000 3.5229220509e+00 -1.4361336060e-07 1.3731072612e+00 -2.3782915406e+00 1.3731072612e+00 2.3782915406e+00 
11100 3.5229219749e+00 -1.4612390852e-07 1.3731072612e+00 -2.3782915406e+00 1.3731072612e+00 2.3782915406e+00 
11200 3.5229219072e+00 -1.4867838368e-07 1.3731072612e+00 -2.3782915406e+00 1.3731072612e+00 2.3782915406e+00 
11300 3.5229218469e+00 -1.5127755573e-07 1.3731072612e+00 -2.3782915406e+00 1.3731072612e+00 2.3782915406e+00 
11400 3.5229217931e+00 -1.5392220781e-07 1.3731072612e+00 -2.3782915406e+00 1.3731072612e+00 2.3782915406e+00 
11500 3.5229217452e+00 -1.5661313681e-07 1.3731072612e+00 -2.3782915406e+00 1.3731072612e+00 2.3782915406e+00 
11600 3.5229217024e+00 -1.5935115361e-07 1.3731072612e+00 -2.3782915406e+00 1.3731072612e+00 2.3782915406e+00 
11700 3.5229216642e+00 -1.6213708335e-07 1.3731072612e+00 -2.3782915406e+00 1.3731072612e+00 2.3782915406e+00 
11800 3.5229216302e+00 -1.6497176565e-07 1.3731072612e+00 -2.3782915406e+00 1.3731072612e+00 2.3782915406e+00 
11900 3.5229215997e+00 -1.6785605486e-07 1.3731072612e+00 -2.3782915406e+00 1.3731072612e+00 2.3782915406e+00 
12000 3.5229215726e+00 -1.7079082034e-07 1.3731072612e+00 -2.3782915406e+00 1.3731072612e+00 2.3782915406e+00 
12100 3.5229215483e+00 -1.7377694674e-07 1.3731072612e+00 -2.3782915406e+00 1.3731072612e+00 2.3782915406e+00 
12200 3.5229215265e+00 -1.7681533423e-07 1.3731072612e+00 -2.3782915406e+00 1.3731072612e+00 2.3782915406e+00 
12300 3.5229215071e+00 -1.7990689878e-07 1.3731072612e+00 -2.3782915406e+00 1.3731072612e+00 2.3782915406e+00 
12400 3.5229214897e+00 -1.8305257249e-07 1.3731072612e+00 -2.3782915406e+00 1.3731072612e+00 2.3782915406e+00 
12500 3.5229214741e+00 -1.8625330379e-07 1.3731072612e+00 -2.3782915406e+00 1.3731072612e+00 2.3782915406e+00 
12600 3.5229214601e+00 -1.8951005779e-07 1.3731072612e+00 -2.3782915406e+00 1.3731072612e+00 2.3782915406e+00 
12700 3.5229214475e+00 -1.9282381658e-07 1.3731072612e+00 -2.3782915406e+00 1.3731072612e+00 2.3782915406e+00 
12800 3.5229214362e+00 -1.9619557945e-07 1.3731072612e+00 -2.3782915406e+00 1.3731072612e+00 2.3782915406e+00 
12900 3.5229214260e+00 -1.9962636331e-07 1.3731072612e+00 -2.3782915406e+00 1.3731072612e+00 2.3782915406e+00 
13000 3.5229214168e+00 -2.0311720290e-07 1.3731072612e+00 -2.3782915406e+00 1.3731072612e+00 2.3782915406e+00 
13100 3.5229214085e+00 -2.0666915115e-07 1.3731072612e+00 -2.3782915406e+00 1.3731072612e+00 2.3782915406e+00 
13200 3.5229214010e+00 -2.1028327951e-07 1.3731072612e+00 -2.3782915406e+00 1.3731072612e+00 2.3782915406e+00 
13300 3.5229213942e+00 -2.1396067824e-07 1.3731072612e+00 -2.3782915406e+00 1.3731072612e+00 2.3782915406e+00 
13400 3.5229213880e+00 -2.1770245679e-07 1.3731072612e+00 -2.3782915406e+00 1.3731072612e+00 2.3782915406e+00 
13500 3.5229213824e+00 -2.2150974407e-07 1.3731072612e+00 -2.3782915406e+00 1.3731072612e+00 2.3782915406e+00 
13600 3.5229213773e+00 -2.2538368888e-07 1.3731072612e+00 -2.3782915406e+00 1.3731072612e+00 2.3782915406e+00 
13700 3.5229213725e+00 -2.2932546018e-07 1.3731072612e+00 -2.3782915406e+00 1.3731072612e+00 2.3782915406e+00 
13800 3.5229213682e+00 -2.3333624751e-07 1.3731072612e+00 -2.3782915406e+00 1.3731072612e+00 2.3782915406e+00 
13900 3.5229213642e+00 -2.3741726131e-07 1.3731072612e+00 -2.3782915406e+00 1.3731072612e+00 2.3782915406e+00 
14000 3.5229213605e+00 -2.4156973329e-07 1.3731072612e+00 -2.3782915406e+00 1.3731072612e+00 2.3782915406e+00 
14100 3.5229213570e+00 -2.4579491685e-07 1.3731072612e+00 -2.3782915406e+00 1.3731072612e+00 2.3782915406e+00 
14200 3.5229213538e+00 -2.5009408740e-07 1.3731072612e+00 -2.3782915406e+00 1.3731072612e+00 2.3782915406e+00 
14300 3.5229213508e+00 -2.5446854280e-07 1.3731072612e+00 -2.3782915406e+00 1.3731072612e+00 2.3782915406e+00 
14400 3.5229213480e+00 -2.5891960374e-07 1.3731072612e+00 -2.3782915406e+00 1.3731072612e+00 2.3782915406e+00 
14500 3.5229213453e+00 -2.6344861412e-07 1.3731072612e+00 -2.3782915406e+00 1.3731072612e+00 2.3782915406e+00 
14600 3.5229213428e+00 -2.6805694150e-07 1.3731072612e+00 -2.3782915406e+00 1.3731072612e+00 2.3782915406e+00 
14700 3.5229213404e+00 -2.7274597747e-07 1.3731072612e+00 -2.3782915406e+00 1.3731072612e+00 2.3782915406e+00 
14800 3.5229213380e+00 -2.7751713814e-07 1.3731072612e+00 -2.3782915406e+00 1.3731072612e+00 2.3782915406e+00 
14900 3.5229213358e+00 -2.8237186450e-07 1.3731072612e+00 -2.3782915406e+00 1.3731072612e+00 2.3782915406e+00 
15000 3.5229213337e+00 -2.8731162291e-07 1.3731072612e+00 -2.3782915406e+00 1.3731072612e+00 2.3782915406e+00 
15100 3.5229213316e+00 -2.9233790554e-07 1.3731072612e+00 -2.3782915406e+00 1.3731072612e+00 2.3782915406e+00 
15200 3.5229213295e+00 -2.9745223080e-07 1.3731072612e+00 -2.3782915406e+00 1.3731072612e+00 2.3782915406e+00 
15300 3.5229213275e+00 -3.0265614383e-07 1.3731072612e+00 -2.3782915406e+00 1.3731072612e+00 2.3782915406e+00 
15400 3.5229213256e+00 -3.0795121698e-07 1.3731072612e+00 -2.3782915406e+00 1.3731072612e+00 2.3782915406e+00 
15500 3.5229213237e+00 -3.1333905025e-07 1.3731072612e+00 -2.3782915406e+00 1.3731072612e+00 2.3782915406e+00 
15600 3.5229213218e+00 -3.1882127182e-07 1.3731072612e+00 -2.3782915406e+00 1.3731072612e+00 2.3782915406e+00 
15700 3.5229213199e+00 -3.2439953854e-07 1.3731072612e+00 -2.3782915406e+00 1.3731072612e+00 2.3782915406e+00 
15800 3.5229213180e+00 -3.3007553640e-07 1.3731072612e+00 -2.3782915406e+00 1.3731072612e+00 2.3782915406e+00 
15900 3.5229213161e+00 -3.3585098111e-07 1.3731072612e+00 -2.3782915406e+00 1.3731072612e+00 2.3782915406e+00 
16000 3.5229213143e+00 -3.4172761856e-07 1.3731072612e+00 -2.3782915406e+00 1.3731072612e+00 2.3782915406e+00 
16100 3.5229213124e+00 -3.4770722542e-07 1.3731072612e+00 -2.3782915406e+00 1.3731072612e+00 2.3782915406e+00 
16200 3.5229213106e+00 -3.5379160961e-07 1.3731072612e+00 -2.3782915406e+00 1.3731072612e+00 2.3782915406e+00 
16300 3.5229213087e+00 -3.5998261091e-07 1.3731072612e+00 -2.3782915406e+00 1.3731072612e+00 2.3782915406e+00 
16400 3.5229213068e+00 -3.6628210151e-07 1.3731072612e+00 -2.3782915406e+00 1.3731072612e+00 2.3782915406e+00 
16500 3.5229213049e+00 -3.7269198658e-07 1.3731072612e+00 -2.3782915406e+00 1.3731072612e+00 2.3782915406e+00 
16600 3.5229213030e+00 -3.7921420483e-07 1.3731072612e+00 -2.3782915406e+00 1.3731072612e+00 2.3782915406e+00 
16700 3.5229213011e+00 -3.8585072916e-07 1.3731072612e+00 -2.3782915406e+00 1.3731072612e+00 2.3782915406e+00 
16800 3.5229212991e+00 -3.9260356720e-07 1.3731072612e+00 -2.3782915406e+00 1.3731072612e+00 2.3782915406e+00 
16900 3.5229212971e+00 -3.9947476197e-07 1.3731072612e+00 -2.3782915406e+00 1.3731072612e+00 2.3782915406e+00 
17000 3.5229212951e+00 -4.0646639250e-07 1.3731072612e+00 -2.3782915406e+00 1.3731072612e+00 2.3782915406e+00 
17100 3.5229212931e+00 -4.1358057446e-07 1.3731072612e+00 -2.3782915406e+00 1.3731072612e+00 2.3782915406e+00 
17200 3.5229212911e+00 -4.2081946078e-07 1.3731072612e+00 -2.3782915406e+00 1.3731072612e+00 2.3782915406e+00 
17300 3.5229212890e+00 -4.2818524239e-07 1.3731072612e+00 -2.3782915406e+00 1.3731072612e+00 2.3782915406e+00 
17400 3.5229212869e+00 -4.3568014880e-07 1.3731072612e+00 -2.3782915406e+00 1.3731072612e+00 2.3782915406e+00 
17500 3.5229212848e+00 -4.4330644884e-07 1.3731072612e+00 -2.3782915406e+00 1.3731072612e+00 2.3782915406e+00 
17600 3.5229212826e+00 -4.5106645135e-07 1.3731072612e+00 -2.3782915406e+00 1.3731072612e+00 2.3782915406e+00 
17700 3.5229212804e+00 -4.5896250588e-07 1.3731072612e+00 -2.3782915406e+00 1.3731072612e+00 2.3782915406e+00 
17800 3.5229212782e+00 -4.6699700340e-07 1.3731072612e+00 -2.3782915406e+00 1.3731072612e+00 2.3782915406e+00 
17900 3.5229212759e+00 -4.7517237706e-07 1.3731072612e+00 -2.3782915406e+00 1.3731072612e+00 2.3782915406e+00 
18000 3.5229212736e+00 -4.8349110294e-07 1.3731072612e+00 -2.3782915406e+00 1.3731072612e+00 2.3782915406e+00 
18100 3.5229212712e+00 -4.9195570076e-07 1.3731072612e+00 -2.3782915406e+00 1.3731072612e+00 2.3782915406e+00 
18200 3.5229212689e+00 -5.0056873473e-07 1.3731072612e+00 -2.3782915406e+00 1.3731072612e+00 2.3782915406e+00 
18300 3.5229212664e+00 -5.0933281427e-07 1.3731072612e+00 -2.3782915406e+00 1.3731072612e+00 2.3782915406e+00 
18400 3.5229212640e+00 -5.1825059486e-07 1.3731072612e+00 -2.3782915406e+00 1.3731072612e+00 2.3782915406e+00 
18500 3.5229212615e+00 -5.2732477883e-07 1.3731072612e+00 -2.3782915406e+00 1.3731072612e+00 2.3782915406e+00 
18600 3.5229212589e+00 -5.3655811620e-07 1.3731072612e+00 -2.3782915406e+00 1.3731072612e+00 2.3782915406e+00 
18700 3.5229212563e+00 -5.4595340554e-07 1.3731072612e+00 -2.3782915406e+00 1.3731072612e+00 2.3782915406e+00 
18800 3.5229212537e+00 -5.5551349480e-07 1.3731072612e+00 -2.3782915406e+00 1.3731072612e+00 2.3782915406e+00 
18900 3.5229212510e+00 -5.6524128222e-07 1.3731072612e+00 -2.3782915406e+00 1.3731072612e+00 2.3782915406e+00 
19000 3.5229212483e+00 -5.7513971720e-07 1.3731072612e+00 -2.3782915406e+00 1.3731072612e+00 2.3782915406e+00 
19100 3.5229212455e+00 -5.8521180122e-07 1.3731072612e+00 -2.3782915406e+00 1.3731072612e+00 2.3782915406e+00 
19200 3.5229212427e+00 -5.9546058876e-07 1.3731072612e+00 -2.3782915406e+00 1.3731072612e+00 2.3782915406e+00 
19300 3.5229212398e+00 -6.0588918824e-07 1.3731072612e+00 -2.3782915406e+00 1.3731072612e+00 2.3782915406e+00 
19400 3.5229212369e+00 -6.1650076299e-07 1.3731072612e+00 -2.3782915406e+00 1.3731072612e+00 2.3782915406e+00 
19500 3.5229212340e+00 -6.2729853220e-07 1.3731072612e+00 -2.3782915406e+00 1.3731072612e+00 2.3782915406e+00 
19600 3.5229212309e+00 -6.3828577195e-07 1.3731072612e+00 -2.3782915406e+00 1.3731072612e+00 2.3782915406e+00 
19700 3.5229212279e+00 -6.4946581620e-07 1.3731072612e+00 -2.3782915406e+00 1.3731072612e+00 2.3782915406e+00 
19800 3.5229212247e+00 -6.6084205779e-07 1.3731072612e+00 -2.3782915406e+00 1.3731072612e+00 2.3782915406e+00 
19900 3.5229212216e+00 -6.7241794954e-07 1.3731072612e+00 -2.3782915406e+00 1.3731072612e+00 2.3782915406e+00 
20000 3.5229212183e+00 -6.8419700530e-07 1.3731072612e+00 -2.3782915406e+00 1.3731072612e+00 2.3782915406e+00 
20100 3.5229212150e+00 -6.9618280101e-07 1.3731072612e+00 -2.3782915406e+00 1.3731072612e+00 2.3782915406e+00 
20200 3.5229212117e+00 -7.0837897583e-07 1.3731072612e+00 -2.3782915406e+00 1.3731072612e+00 2.3782915406e+00 
20300 3.5229212083e+00 -7.2078923326e-07 1.3731072612e+00 -2.3782915406e+00 1.3731072612e+00 2.3782915406e+00 
20400 3.5229212048e+00 -7.3341734228e-07 1.3731072612e+00 -2.3782915406e+00 1.3731072612e+00 2.3782915406e+00 
20500 3.5229212013e+00 -7.4626713851e-07 1.3731072612e+00 -2.3782915406e+00 1.3731072612e+00 2.3782915406e+00 
20600 3.5229211977e+00 -7.5934252542e-07 1.3731072612e+00 -2.3782915406e+00 1.3731072612e+00 2.3782915406e+00 
20700 3.5229211940e+00 -7.7264747550e-07 1.3731072612e+00 -2.3782915406e+00 1.3731072612e+00 2.3782915406e+00 
20800 3.5229211903e+00 -7.8618603153e-07 1.3731072612e+00 -2.3782915406e+00 1.3731072612e+00 2.3782915406e+00 
20900 3.5229211865e+00 -7.9996230780e-07 1.3731072612e+00 -2.3782915406e+00 1.3731072612e+00 2.3782915406e+00 
21000 3.5229211827e+00 -8.1398049141e-07 1.3731072612e+00 -2.3782915406e+00 1.3731072612e+00 2.3782915406e+00 
21100 3.5229211788e+00 -8.2824484353e-07 1.3731072612e+00 -2.3782915406e+00 1.3731072612e+00 2.3782915406e+00 
21200 3.5229211748e+00 -8.4275970076e-07 1.3731072612e+00 -2.3782915406e+00 1.3731072612e+00 2.3782915406e+00 
21300 3.5229211707e+00 -8.5752947646e-07 1.3731072612e+00 -2.3782915406e+00 1.3731072612e+00 2.3782915406e+00 
21400 3.5229211666e+00 -8.7255866211e-07 1.3731072612e+00 -2.3782915406e+00 1.3731072612e+00 2.3782915406e+00 
21500 3.5229211624e+00 -8.8785182869e-07 1.3731072612e+00 -2.3782915406e+00 1.3731072612e+00 2.3782915406e+00 
21600 3.5229211581e+00 -9.0341362814e-07 1.3731072612e+00 -2.3782915406e+00 1.3731072612e+00 2.3782915406e+00 
21700 3.5229211538e+00 -9.1924879477e-07 1.3731072612e+00 -2.3782915406e+00 1.3731072612e+00 2.3782915406e+00 
21800 3.5229211494e+00 -9.3536214675e-07 1.3731072612e+00 -2.3782915406e+00 1.3731072612e+00 2.3782915406e+00 
21900 3.5229211449e+00 -9.5175858756e-07 1.3731072612e+00 -2.3782915406e+00 1.3731072612e+00 2.3782915406e+00 
22000 3.5229211403e+00 -9.6844310759e-07 1.3731072612e+00 -2.3782915406e+00 1.3731072612e+00 2.3782915406e+00 
22100 3.5229211356e+00 -9.8542078561e-07 1.3731072612e+00 -2.3782915406e+00 1.3731072612e+00 2.3782915406e+00 
22200 3.5229211309e+00 -1.0026967904e-06 1.3731072612e+00 -2.3782915406e+00 1.3731072612e+00 2.3782915406e+00 
22300 3.5229211260e+00 -1.0202763824e-06 1.3731072612e+00 -2.3782915406e+00 1.3731072612e+00 2.3782915406e+00 
22400 3.5229211211e+00 -1.0381649152e-06 1.3731072612e+00 -2.3782915406e+00 1.3731072612e+00 2.3782915406e+00 
22500 3.5229211161e+00 -1.0563678373e-06 1.3731072612e+00 -2.3782915406e+00 1.3731072612e+00 2.3782915406e+00 
22600 3.5229211110e+00 -1.0748906938e-06 1.3731072612e+00 -2.3782915406e+00 1.3731072612e+00 2.3782915406e+00 
22700 3.5229211059e+00 -1.0937391283e-06 1.3731072612e+00 -2.3782915406e+00 1.3731072612e+00 2.3782915406e+00 
22800 3.5229211006e+00 -1.1129188842e-06 1.3731072612e+00 -2.3782915406e+00 1.3731072612e+00 2.3782915406e+00 
22900 3.5229210952e+00 -1.1324358069e-06 1.3731072612e+00 -2.3782915406e+00 1.3731072612e+00 2.3782915406e+00 
23000 3.5229210898e+00 -1.1522958456e-06 1.3731072612e+00 -2.3782915406e+00 1.3731072612e+00 2.3782915406e+00 
23100 3.5229210842e+00 -1.1725050549e-06 1.3731072612e+00 -2.3782915406e+00 1.3731072612e+00 2.3782915406e+00 
23200 3.5229210786e+00 -1.1930695968e-06 1.3731072612e+00 -2.3782915406e+00 1.3731072612e+00 2.3782915406e+00 
23300 3.5229210728e+00 -1.2139957429e-06 1.3731072612e+00 -2.3782915406e+00 1.3731072612e+00 2.3782915406e+00 
23400 3.5229210670e+00 -1.2352898759e-06 1.3731072612e+00 -2.3782915406e+00 1.3731072612e+00 2.3782915406e+00 
23500 3.5229210610e+00 -1.2569584918e-06 1.3731072612e+00 -2.3782915406e+00 1.3731072612e+00 2.3782915406e+00 
23600 3.5229210549e+00 -1.2790082020e-06 1.3731072612e+00 -2.3782915406e+00 1.3731072612e+00 2.3782915406e+00 
23700 3.5229210488e+00 -1.3014457353e-06 1.3731072612e+00 -2.3782915406e+00 1.3731072612e+00 2.3782915406e+00 
23800 3.5229210425e+00 -1.3242779401e-06 1.3731072612e+00 -2.3782915406e+00 1.3731072612e+00 2.3782915406e+00 
23900 3.5229210361e+00 -1.3475117862e-06 1.3731072612e+00 -2.3782915406e+00 1.3731072612e+00 2.3782915406e+00 
24000 3.5229210296e+00 -1.3711543674e-06 1.3731072612e+00 -2.3782915406e+00 1.3731072612e+00 2.3782915406e+00 
24100 3.5229210230e+00 -1.3952129036e-06 1.3731072612e+00 -2.3782915406e+00 1.3731072612e+00 2.3782915406e+00 
24200 3.5229210163e+00 -1.4196947428e-06 1.3731072612e+00 -2.3782915406e+00 1.3731072612e+00 2.3782915406e+00 
24300 3.5229210094e+00 -1.4446073637e-06 1.3731072612e+00 -2.3782915406e+00 1.3731072612e+00 2.3782915406e+00 
24400 3.5229210025e+00 -1.4699583780e-06 1.3731072612e+00 -2.3782915406e+00 1.3731072612e+00 2.3782915406e+00 
24500 3.5229209954e+00 -1.4957555327e-06 1.3731072612e+00 -2.3782915406e+00 1.3731072612e+00 2.3782915406e+00 
24600 3.5229209882e+00 -1.5220067125e-06 1.3731072612e+00 -2.3782915406e+00 1.3731072612e+00 2.3782915406e+00 
24700 3.5229209808e+00 -1.5487199424e-06 1.3731072612e+00 -2.3782915406e+00 1.3731072612e+00 2.3782915406e+00 
24800 3.5229209733e+00 -1.5759033901e-06 1.3731072612e+00 -2.3782915406e+00 1.3731072612e+00 2.3782915406e+00 
24900 3.5229209657e+00 -1.6035653686e-06 1.3731072612e+00 -2.3782915406e+00 1.3731072612e+00 2.3782915406e+00 
25000 3.5229209580e+00 -1.6317143388e-06 1.3731072612e+00 -2.3782915406e+00 1.3731072612e+00 2.3782915406e+00 
25100 3.5229209501e+00 -1.6603589123e-06 1.3731072612e+00 -2.3782915406e+00 1.3731072612e+00 2.3782915406e+00 
25200 3.5229209421e+00 -1.6895078538e-06 1.3731072612e+00 -2.3782915406e+00 1.3731072612e+00 2.3782915406e+00 
25300 3.5229209339e+00 -1.7191700842e-06 1.3731072612e+00 -2.3782915406e+00 1.3731072612e+00 2.3782915406e+00 
25400 3.5229209256e+00 -1.7493546832e-06 1.3731072612e+00 -2.3782915406e+00 1.3731072612e+00 2.3782915406e+00 
25500 3.5229209172e+00 -1.7800708921e-06 1.3731072612e+00 -2.3782915406e+00 1.3731072612e+00 2.3782915406e+00 
25600 3.5229209086e+00 -1.8113281169e-06 1.3731072612e+00 -2.3782915406e+00 1.3731072612e+00 2.3782915406e+00 
25700 3.5229208998e+00 -1.8431359312e-06 1.3731072612e+00 -2.3782915406e+00 1.3731072612e+00 2.3782915406e+00 
25800 3.5229208909e+00 -1.8755040790e-06 1.3731072612e+00 -2.3782915406e+00 1.3731072612e+00 2.3782915406e+00 
25900 3.5229208819e+00 -1.9084424782e-06 1.3731072612e+00 -2.3782915406e+00 1.3731072612e+00 2.3782915406e+00 
26000 3.5229208727e+00 -1.9419612234e-06 1.3731072612e+00 -2.3782915406e+00 1.3731072612e+00 2.3782915406e+00 
26100 3.5229208633e+00 -1.9760705889e-06 1.3731072612e+00 -2.3782915406e+00 1.3731072612e+00 2.3782915406e+00 
26200 3.5229208537e+00 -2.0107810326e-06 1.3731072612e+00 -2.3782915406e+00 1.3731072612e+00 2.3782915406e+00 
26300 3.5229208440e+00 -2.0461031987e-06 1.3731072612e+00 -2.3782915406e+00 1.3731072612e+00 2.3782915406e+00 
26400 3.5229208341e+00 -2.0820479213e-06 1.3731072612e+00 -2.3782915406e+00 1.3731072612e+00 2.3782915406e+00 
26500 3.5229208240e+00 -2.1186262278e-06 1.3731072612e+00 -2.3782915406e+00 1.3731072612e+00 2.3782915406e+00 
26600 3.5229208138e+00 -2.1558493424e-06 1.3731072612e+00 -2.3782915406e+00 1.3731072612e+00 2.3782915406e+00 
26700 3.5229208034e+00 -2.1937286895e-06 1.3731072612e+00 -2.3782915406e+00 1.3731072612e+00 2.3782915406e+00 
26800 3.5229207928e+00 -2.2322758976e-06 1.3731072612e+00 -2.3782915406e+00 1.3731072612e+00 2.3782915406e+00 
26900 3.5229207820e+00 -2.2715028027e-06 1.3731072612e+00 -2.3782915406e+00 1.3731072612e+00 2.3782915406e+00 
27000 3.5229207710e+00 -2.3114214524e-06 1.3731072612e+00 -2.3782915406e+00 1.3731072612e+00 2.3782915406e+00 
27100 3.5229207598e+00 -2.3520441091e-06 1.3731072612e+00 -2.3782915406e+00 1.3731072612e+00 2.3782915406e+00 
27200 3.5229207484e+00 -2.3933832546e-06 1.3731072612e+00 -2.3782915406e+00 1.3731072612e+00 2.3782915406e+00 
27300 3.5229207368e+00 -2.4354515936e-06 1.3731072612e+00 -2.3782915406e+00 1.3731072612e+00 2.3782915406e+00 
27400 3.5229207251e+00 -2.4782620580e-06 1.3731072612e+00 -2.3782915406e+00 1.3731072612e+00 2.3782915406e+00 
27500 3.5229207131e+00 -2.5218278106e-06 1.3731072612e+00 -2.3782915406e+00 1.3731072612e+00 2.3782915406e+00 
27600 3.5229207009e+00 -2.5661622497e-06 1.3731072612e+00 -2.3782915406e+00 1.3731072612e+00 2.3782915406e+00 
27700 3.5229206884e+00 -2.6112790134e-06 1.3731072612e+00 -2.3782915406e+00 1.3731072612e+00 2.3782915406e+00 
27800 3.5229206758e+00 -2.6571919835e-06 1.3731072612e+00 -2.3782915406e+00 1.3731072612e+00 2.3782915406e+00 
27900 3.5229206629e+00 -2.7039152901e-06 1.3731072612e+00 -2.3782915406e+00 1.3731072612e+00 2.3782915406e+00 
28000 3.5229206498e+00 -2.7514633164e-06 1.3731072612e+00 -2.3782915406e+00 1.3731072612e+00 2.3782915406e+00 
28100 3.5229206365e+00 -2.7998507029e-06 1.3731072612e+00 -2.3782915406e+00 1.3731072612e+00 2.3782915406e+00 
28200 3.5229206229e+00 -2.8490923523e-06 1.3731072612e+00 -2.3782915406e+00 1.3731072612e+00 2.3782915406e+00 
28300 3.5229206091e+00 -2.8992034340e-06 1.3731072612e+00 -2.3782915406e+00 1.3731072612e+00 2.3782915406e+00 
28400 3.5229205951e+00 -2.9501993892e-06 1.3731072612e+00 -2.3782915406e+00 1.3731072612e+00 2.3782915406e+00 
28500 3.5229205808e+00 -3.0020959356e-06 1.3731072612e+00 -2.3782915406e+00 1.3731072612e+00 2.3782915406e+00 
28600 3.5229205662e+00 -3.0549090728e-06 1.3731072612e+00 -2.3782915406e+00 1.3731072612e+00 2.3782915406e+00 
28700 3.5229205514e+00 -3.1086550869e-06 1.3731072612e+00 -2.3782915406e+00 1.3731072612e+00 2.3782915406e+00 
28800 3.5229205364e+00 -3.1633505561e-06 1.3731072612e+00 -2.3782915406e+00 1.3731072612e+00 2.3782915406e+00 
28900 3.5229205210e+00 -3.2190123556e-06 1.3731072612e+00 -2.3782915406e+00 1.3731072612e+00 2.3782915406e+00 
29000 3.5229205054e+00 -3.2756576637e-06 1.3731072612e+00 -2.3782915406e+00 1.3731072612e+00 2.3782915406e+00 
29100 3.5229204895e+00 -3.3333039665e-06 1.3731072612e+00 -2.3782915406e+00 1.3731072612e+00 2.3782915406e+00 
29200 3.5229204734e+00 -3.3919690640e-06 1.3731072612e+00 -2.3782915406e+00 1.3731072612e+00 2.3782915406e+00 
29300 3.5229204569e+00 -3.4516710756e-06 1.3731072612e+00 -2.3782915406e+00 1.3731072612e+00 2.3782915406e+00 
29400 3.5229204402e+00 -3.5124284460e-06 1.3731072612e+00 -2.3782915406e+00 1.3731072612e+00 2.3782915406e+00 
29500 3.5229204231e+00 -3.5742599511e-06 1.3731072612e+00 -2.3782915406e+00 1.3731072612e+00 2.3782915406e+00 
29600 3.5229204058e+00 -3.6371847041e-06 1.3731072612e+00 -2.3782915406e+00 1.3731072612e+00 2.3782915406e+00 
29700 3.5229203881e+00 -3.7012221615e-06 1.3731072612e+00 -2.3782915406e+00 1.3731072612e+00 2.3782915406e+00 
29800 3.5229203701e+00 -3.7663921293e-06 1.3731072612e+00 -2.3782915406e+00 1.3731072612e+00 2.3782915406e+00 
29900 3.5229203519e+00 -3.8327147698e-06 1.3731072612e+00 -2.3782915406e+00 1.3731072612e+00 2.3782915406e+00 
30000 3.5229203332e+00 -3.9002106075e-06 1.3731072612e+00 -2.3782915406e+00 1.3731072612e+00 2.3782915406e+00 
30100 3.5229203143e+00 -3.9689005360e-06 1.3731072612e+00 -2.3782915406e+00 1.3731072612e+00 2.3782915406e+00 
30200 3.5229202950e+00 -4.0388058250e-06 1.3731072612e+00 -2.3782915406e+00 1.3731072612e+00 2.3782915406e+00 
30300 3.5229202754e+00 -4.1099481265e-06 1.3731072612e+00 -2.3782915406e+00 1.3731072612e+00 2.3782915406e+00 
30400 3.5229202554e+00 -4.1823494825e-06 1.3731072612e+00 -2.3782915406e+00 1.3731072612e+00 2.3782915406e+00 
30500 3.5229202351e+00 -4.2560323317e-06 1.3731072612e+00 -2.3782915406e+00 1.3731072612e+00 2.3782915406e+00 
30600 3.5229202144e+00 -4.3310195167e-06 1.3731072612e+00 -2.3782915406e+00 1.3731072612e+00 2.3782915406e+00 
30700 3.5229201934e+00 -4.4073342916e-06 1.3731072612e+00 -2.3782915406e+00 1.3731072612e+00 2.3782915406e+00 
30800 3.5229201719e+00 -4.4850003296e-06 1.3731072612e+00 -2.3782915406e+00 1.3731072612e+00 2.3782915406e+00 
30900 3.5229201501e+00 -4.5640417302e-06 1.3731072612e+00 -2.3782915406e+00 1.3731072612e+00 2.3782915406e+00 
31000 3.5229201279e+00 -4.6444830277e-06 1.3731072612e+00 -2.3782915406e+00 1.3731072612e+00 2.3782915406e+00 
31100 3.5229201053e+00 -4.7263491984e-06 1.3731072612e+00 -2.3782915406e+00 1.3731072612e+00 2.3782915406e+00 
31200 3.5229200823e+00 -4.8096656692e-06 1.3731072612e+00 -2.3782915406e+00 1.3731072612e+00 2.3782915406e+00 
31300 3.5229200589e+00 -4.8944583260e-06 1.3731072612e+00 -2.3782915406e+00 1.3731072612e+00 2.3782915406e+00 
31400 3.5229200351e+00 -4.9807535213e-06 1.3731072612e+00 -2.3782915406e+00 1.3731072612e+00 2.3782915406e+00 
31500 3.5229200109e+00 -5.0685780838e-06 1.3731072612e+00 -2.3782915406e+00 1.3731072612e+00 2.3782915406e+00 
31600 3.5229199862e+00 -5.1579593263e-06 1.3731072612e+00 -2.3782915406e+00 1.3731072612e+00 2.3782915406e+00 
31700 3.5229199611e+00 -5.2489250550e-06 1.3731072612e+00 -2.3782915406e+00 1.3731072612e+00 2.3782915406e+00 
31800 3.5229199355e+00 -5.3415035786e-06 1.3731072612e+00 -2.3782915406e+00 1.3731072612e+00 2.3782915406e+00 
31900 3.5229199095e+00 -5.4357237172e-06 1.3731072612e+00 -2.3782915406e+00 1.3731072612e+00 2.3782915406e+00 
32000 3.5229198830e+00 -5.5316148119e-06 1.3731072612e+00 -2.3782915406e+00 1.3731072612e+00 2.3782915406e+00 
32100 3.5229198560e+00 -5.6292067346e-06 1.3731072612e+00 -2.3782915406e+00 1.3731072612e+00 2.3782915406e+00 
32200 3.5229198286e+00 -5.7285298974e-06 1.3731072612e+00 -2.3782915406e+00 1.3731072612e+00 2.3782915406e+00 
32300 3.5229198007e+00 -5.8296152625e-06 1.3731072612e+00 -2.3782915406e+00 1.3731072612e+00 2.3782915406e+00 
32400 3.5229197722e+00 -5.9324943527e-06 1.3731072612e+00 -2.3782915406e+00 1.3731072612e+00 2.3782915406e+00 
32500 3.5229197433e+00 -6.0371992616e-06 1.3731072612e+00 -2.3782915406e+00 1.3731072612e+00 2.3782915406e+00 
32600 3.5229197139e+00 -6.1437626638e-06 1.3731072612e+00 -2.3782915406e+00 1.3731072612e+00 2.3782915406e+00 
32700 3.5229196839e+00 -6.2522178260e-06 1.3731072612e+00 -2.3782915406e+00 1.3731072612e+00 2.3782915406e+00 
32800 3.5229196534e+00 -6.3625986176e-06 1.3731072612e+00 -2.3782915406e+00 1.3731072612e+00 2.3782915406e+00 
32900 3.5229196223e+00 -6.4749395222e-06 1.3731072612e+00 -2.3782915406e+00 1.3731072612e+00 2.3782915406e+00 
33000 3.5229195907e+00 -6.5892756487e-06 1.3731072612e+00 -2.3782915406e+00 1.3731072612e+00 2.3782915406e+00 
33100 3.5229195586e+00 -6.7056427426e-06 1.3731072612e+00 -2.3782915406e+00 1.3731072612e+00 2.3782915406e+00 
33200 3.5229195258e+00 -6.8240771982e-06 1.3731072612e+00 -2.3782915406e+00 1.3731072612e+00 2.3782915406e+00 
33300 3.5229194925e+00 -6.9446160706e-06 1.3731072612e+00 -2.3782915406e+00 1.3731072612e+00 2.3782915406e+00 
33400 3.5229194586e+00 -7.0672970874e-06 1.3731072612e+00 -2.3782915406e+00 1.3731072612e+00 2.3782915406e+00 
33500 3.5229194240e+00 -7.1921586616e-06 1.3731072612e+00 -2.3782915406e+00 1.3731072612e+00 2.3782915406e+00 
33600 3.5229193889e+00 -7.3192399042e-06 1.3731072612e+00 -2.3782915406e+00 1.3731072612e+00 2.3782915406e+00 
33700 3.5229193531e+00 -7.4485806371e-06 1.3731072612e+00 -2.3782915406e+00 1.3731072612e+00 2.3782915406e+00 
33800 3.5229193167e+00 -7.5802214062e-06 1.3731072612e+00 -2.3782915406e+00 1.3731072612e+00 2.3782915406e+00 
33900 3.5229192796e+00 -7.7142034949e-06 1.3731072612e+00 -2.3782915406e+00 1.3731072612e+00 2.3782915406e+00 
34000 3.5229192419e+00 -7.8505689377e-06 1.3731072612e+00 -2.3782915406e+00 1.3731072612e+00 2.3782915406e+00 
34100 3.5229192035e+00 -7.9893605342e-06 1.3731072612e+00 -2.3782915406e+00 1.3731072612e+00 2.3782915406e+00 
34200 3.5229191644e+00 -8.1306218634e-06 1.3731072612e+00 -2.3782915406e+00 1.3731072612e+00 2.3782915406e+00 
34300 3.5229191246e+00 -8.2743972980e-06 1.3731072612e+00 -2.3782915406e+00 1.3731072612e+00 2.3782915406e+00 
34400 3.5229190841e+00 -8.4207320190e-06 1.3731072612e+00 -2.3782915406e+00 1.3731072612e+00 2.3782915406e+00 
34500 3.5229190429e+00 -8.5696720314e-06 1.3731072612e+00 -2.3782915406e+00 1.3731072612e+00 2.3782915406e+00 
34600 3.5229190009e+00 -8.7212641786e-06 1.3731072612e+00 -2.3782915406e+00 1.3731072612e+00 2.3782915406e+00 
34700 3.5229189582e+00 -8.8755561589e-06 1.3731072612e+00 -2.3782915406e+00 1.3731072612e+00 2.3782915406e+00 
34800 3.5229189147e+00 -9.0325965405e-06 1.3731072612e+00 -2.3782915406e+00 1.3731072612e+00 2.3782915406e+00 
34900 3.5229188704e+00 -9.1924347788e-06 1.3731072612e+00 -2.3782915406e+00 1.3731072612e+00 2.3782915406e+00 
35000 3.5229188254e+00 -9.3551212317e-06 1.3731072612e+00 -2.3782915406e+00 1.3731072612e+00 2.3782915406e+00 
35100 3.5229187795e+00 -9.5207071777e-06 1.3731072612e+00 -2.3782915406e+00 1.3731072612e+00 2.3782915406e+00 
35200 3.5229187328e+00 -9.6892448319e-06 1.3731072612e+00 -2.3782915406e+00 1.3731072612e+00 2.3782915406e+00 
35300 3.5229186853e+00 -9.8607873644e-06 1.3731072612e+00 -2.3782915406e+00 1.3731072612e+00 2.3782915406e+00 
35400 3.5229186369e+00 -1.0035388918e-05 1.3731072612e+00 -2.3782915406e+00 1.3731072612e+00 2.3782915406e+00 
35500 3.5229185876e+00 -1.0213104625e-05 1.3731072612e+00 -2.3782915406e+00 1.3731072612e+00 2.3782915406e+00 
35600 3.5229185375e+00 -1.0393990628e-05 1.3731072612e+00 -2.3782915406e+00 1.3731072612e+00 2.3782915406e+00 
35700 3.5229184865e+00 -1.0578104098e-05 1.3731072612e+00 -2.3782915406e+00 1.3731072612e+00 2.3782915406e+00 
35800 3.5229184345e+00 -1.0765503252e-05 1.3731072612e+00 -2.3782915406e+00 1.3731072612e+00 2.3782915406e+00 
35900 3.5229183816e+00 -1.0956247375e-05 1.3731072612e+00 -2.3782915406e+00 1.3731072612e+00 2.3782915406e+00 
36000 3.5229183278e+00 -1.1150396839e-05 1.3731072612e+00 -2.3782915406e+00 1.3731072612e+00 2.3782915406e+00 
36100 3.5229182730e+00 -1.1348013122e-05 1.3731072612e+00 -2.3782915406e+00 1.3731072612e+00 2.3782915406e+00 
36200 3.5229182172e+00 -1.1549158832e-05 1.3731072612e+00 -2.3782915406e+00 1.3731072612e+00 2.3782915406e+00 
36300 3.5229181604e+00 -1.1753897724e-05 1.3731072612e+00 -2.3782915406e+00 1.3731072612e+00 2.3782915406e+00 
36400 3.5229181026e+00 -1.1962294727e-05 1.3731072612e+00 -2.3782915406e+00 1.3731072612e+00 2.3782915406e+00 
36500 3.5229180437e+00 -1.2174415959e-05 1.3731072612e+00 -2.3782915406e+00 1.3731072612e+00 2.3782915406e+00 
36600 3.5229179838e+00 -1.2390328758e-05 1.3731072612e+00 -2.3782915406e+00 1.3731072612e+00 2.3782915406e+00 
36700 3.5229179228e+00 -1.2610101695e-05 1.3731072612e+00 -2.3782915406e+00 1.3731072612e+00 2.3782915406e+00 
36800 3.5229178607e+00 -1.2833804608e-05 1.3731072612e+00 -2.3782915406e+00 1.3731072612e+00 2.3782915406e+00 
36900 3.5229177975e+00 -1.3061508615e-05 1.3731072612e+00 -2.3782915406e+00 1.3731072612e+00 2.3782915406e+00 
37000 3.5229177332e+00 -1.3293286148e-05 1.3731072612e+00 -2.3782915406e+00 1.3731072612e+00 2.3782915406e+00 
37100 3.5229176677e+00 -1.3529210971e-05 1.3731072612e+00 -2.3782915406e+00 1.3731072612e+00 2.3782915406e+00 
37200 3.5229176010e+00 -1.3769358208e-05 1.3731072612e+00 -2.3782915406e+00 1.3731072612e+00 2.3782915406e+00 
37300 3.5229175331e+00 -1.4013804368e-05 1.3731072612e+00 -2.3782915406e+00 1.3731072612e+00 2.3782915406e+00 
37400 3.5229174640e+00 -1.4262627371e-05 1.3731072612e+00 -2.3782915406e+00 1.3731072612e+00 2.3782915406e+00 
37500 3.5229173936e+00 -1.4515906576e-05 1.3731072612e+00 -2.3782915406e+00 1.3731072612e+00 2.3782915406e+00 
37600 3.5229173220e+00 -1.4773722807e-05 1.3731072612e+00 -2.3782915406e+00 1.3731072612e+00 2.3782915406e+00 
37700 3.5229172490e+00 -1.5036158381e-05 1.3731072612e+00 -2.3782915406e+00 1.3731072612e+00 2.3782915406e+00 
37800 3.5229171748e+00 -1.5303297135e-05 1.3731072612e+00 -2.3782915406e+00 1.3731072612e+00 2.3782915406e+00 
37900 3.5229170992e+00 -1.5575224458e-05 1.3731072612e+00 -2.3782915406e+00 1.3731072612e+00 2.3782915406e+00 
38000 3.5229170223e+00 -1.5852027319e-05 1.3731072612e+00 -2.3782915406e+00 1.3731072612e+00 2.3782915406e+00 
38100 3.5229169439e+00 -1.6133794295e-05 1.3731072612e+00 -2.3782915406e+00 1.3731072612e+00 2.3782915406e+00 
38200 3.5229168642e+00 -1.6420615603e-05 1.3731072612e+00 -2.3782915406e+00 1.3731072612e+00 2.3782915406e+00 
38300 3.5229167829e+00 -1.6712583134e-05 1.3731072612e+00 -2.3782915406e+00 1.3731072612e+00 2.3782915406e+00 
38400 3.5229167003e+00 -1.7009790479e-05 1.3731072612e+00 -2.3782915406e+00 1.3731072612e+00 2.3782915406e+00 
38500 3.5229166161e+00 -1.7312332968e-05 1.3731072612e+00 -2.3782915406e+00 1.3731072612e+00 2.3782915406e+00 
38600 3.5229165304e+00 -1.7620307697e-05 1.3731072612e+00 -2.3782915406e+00 1.3731072612e+00 2.3782915406e+00 
38700 3.5229164432e+00 -1.7933813565e-05 1.3731072612e+00 -2.3782915406e+00 1.3731072612e+00 2.3782915406e+00 
38800 3.5229163543e+00 -1.8252951310e-05 1.3731072612e+00 -2.3782915406e+00 1.3731072612e+00 2.3782915406e+00 
38900 3.5229162639e+00 -1.8577823540e-05 1.3731072612e+00 -2.3782915406e+00 1.3731072612e+00 2.3782915406e+00 
39000 3.5229161718e+00 -1.8908534772e-05 1.3731072612e+00 -2.3782915406e+00 1.3731072612e+00 2.3782915406e+00 
39100 3.5229160781e+00 -1.9245191465e-05 1.3731072612e+00 -2.3782915406e+00 1.3731072612e+00 2.3782915406e+00 
39200 3.5229159826e+00 -1.9587902063e-05 1.3731072612e+00 -2.3782915406e+00 1.3731072612e+00 2.3782915406e+00 
39300 3.5229158855e+00 -1.9936777026e-05 1.3731072612e+00 -2.3782915406e+00 1.3731072612e+00 2.3782915406e+00 
39400 3.5229157865e+00 -2.0291928876e-05 1.3731072612e+00 -2.3782915406e+00 1.3731072612e+00 2.3782915406e+00 
39500 3.5229156858e+00 -2.0653472229e-05 1.3731072612e+00 -2.3782915406e+00 1.3731072612e+00 2.3782915406e+00 
39600 3.5229155832e+00 -2.1021523840e-05 1.3731072612e+00 -2.3782915406e+00 1.3731072612e+00 2.3782915406e+00 
39700 3.5229154788e+00 -2.1396202646e-05 1.3731072612e+00 -2.3782915406e+00 1.3731072612e+00 2.3782915406e+00 
39800 3.5229153724e+00 -2.1777629800e-05 1.3731072612e+00 -2.3782915406e+00 1.3731072612e+00 2.3782915406e+00 
39900 3.5229152642e+00 -2.2165928723e-05 1.3731072612e+00 -2.3782915406e+00 1.3731072612e+00 2.3782915406e+00 
40000 3.5229151539e+00 -2.2561225141e-05 1.3731072612e+00 -2.3782915406e+00 1.3731072612e+00 2.3782915406e+00 
40100 3.5229150417e+00 -2.2963647133e-05 1.3731072612e+00 -2.3782915406e+00 1.3731072612e+00 2.3782915406e+00 
40200 3.5229149274e+00 -2.3373325174e-05 1.3731072612e+00 -2.3782915406e+00 1.3731072612e+00 2.3782915406e+00 
40300 3.5229148111e+00 -2.3790392183e-05 1.3731072612e+00 -2.3782915406e+00 1.3731072612e+00 2.3782915406e+00 
40400 3.5229146926e+00 -2.4214983569e-05 1.3731072612e+00 -2.3782915406e+00 1.3731072612e+00 2.3782915406e+00 
40500 3.5229145719e+00 -2.4647237282e-05 1.3731072612e+00 -2.3782915406e+00 1.3731072612e+00 2.3782915406e+00 
40600 3.5229144491e+00 -2.5087293857e-05 1.3731072612e+00 -2.3782915406e+00 1.3731072612e+00 2.3782915406e+00 
40700 3.5229143240e+00 -2.5535296470e-05 1.3731072612e+00 -2.3782915406e+00 1.3731072612e+00 2.3782915406e+00 
40800 3.5229141966e+00 -2.5991390983e-05 1.3731072612e+00 -2.3782915406e+00 1.3731072612e+00 2.3782915406e+00 
40900 3.5229140670e+00 -2.6455726002e-05 1.3731072612e+00 -2.3782915406e+00 1.3731072612e+00 2.3782915406e+00 
41000 3.5229139349e+00 -2.6928452927e-05 1.3731072612e+00 -2.3782915406e+00 1.3731072612e+00 2.3782915406e+00 
41100 3.5229138004e+00 -2.7409726006e-05 1.3731072612e+00 -2.3782915406e+00 1.3731072612e+00 2.3782915406e+00 
41200 3.5229136635e+00 -2.7899702393e-05 1.3731072612e+00 -2.3782915406e+00 1.3731072612e+00 2.3782915406e+00 
41300 3.5229135241e+00 -2.8398542201e-05 1.3731072612e+00 -2.3782915406e+00 1.3731072612e+00 2.3782915406e+00 
41400 3.5229133821e+00 -2.8906408563e-05 1.3731072612e+00 -2.3782915406e+00 1.3731072612e+00 2.3782915406e+00 
41500 3.5229132375e+00 -2.9423467688e-05 1.3731072612e+00 -2.3782915406e+00 1.3731072612e+00 2.3782915406e+00 
41600 3.5229130903e+00 -2.9949888924e-05 1.3731072612e+00 -2.3782915406e+00 1.3731072612e+00 2.3782915406e+00 
41700 3.5229129404e+00 -3.0485844818e-05 1.3731072612e+00 -2.3782915406e+00 1.3731072612e+00 2.3782915406e+00 
41800 3.5229127877e+00 -3.1031511177e-05 1.3731072612e+00 -2.3782915406e+00 1.3731072612e+00 2.3782915406e+00 
41900 3.5229126323e+00 -3.1587067133e-05 1.3731072612e+00 -2.3782915406e+00 1.3731072612e+00 2.3782915406e+00 
42000 3.5229124740e+00 -3.2152695211e-05 1.3731072612e+00 -2.3782915406e+00 1.3731072612e+00 2.3782915406e+00 
42100 3.5229123127e+00 -3.2728581388e-05 1.3731072612e+00 -2.3782915406e+00 1.3731072612e+00 2.3782915406e+00 
42200 3.5229121486e+00 -3.3314915171e-05 1.3731072612e+00 -2.3782915406e+00 1.3731072612e+00 2.3782915406e+00 
42300 3.5229119814e+00 -3.3911889658e-05 1.3731072612e+00 -2.3782915406e+00 1.3731072612e+00 2.3782915406e+00 
42400 3.5229118111e+00 -3.4519701610e-05 1.3731072612e+00 -2.3782915406e+00 1.3731072612e+00 2.3782915406e+00 
42500 3.5229116378e+00 -3.5138551528e-05 1.3731072612e+00 -2.3782915406e+00 1.3731072612e+00 2.3782915406e+00 
42600 3.5229114612e+00 -3.5768643721e-05 1.3731072612e+00 -2.3782915406e+00 1.3731072612e+00 2.3782915406e+00 
42700 3.5229112814e+00 -3.6410186384e-05 1.3731072612e+00 -2.3782915406e+00 1.3731072612e+00 2.3782915406e+00 
42800 3.5229110982e+00 -3.7063391673e-05 1.3731072612e+00 -2.3782915406e+00 1.3731072612e+00 2.3782915406e+00 
42900 3.5229109118e+00 -3.7728475787e-05 1.3731072612e+00 -2.3782915406e+00 1.3731072612e+00 2.3782915406e+00 
43000 3.5229107218e+00 -3.8405659041e-05 1.3731072612e+00 -2.3782915406e+00 1.3731072612e+00 2.3782915406e+00 
43100 3.5229105284e+00 -3.9095165955e-05 1.3731072612e+00 -2.3782915406e+00 1.3731072612e+00 2.3782915406e+00 
43200 3.5229103314e+00 -3.9797225332e-05 1.3731072612e+00 -2.3782915406e+00 1.3731072612e+00 2.3782915406e+00 
43300 3.5229101308e+00 -4.0512070347e-05 1.3731072612e+00 -2.3782915406e+00 1.3731072612e+00 2.3782915406e+00 
43400 3.5229099265e+00 -4.1239938629e-05 1.3731072612e+00 -2.3782915406e+00 1.3731072612e+00 2.3782915406e+00 
43500 3.5229097184e+00 -4.1981072354e-05 1.3731072612e+00 -2.3782915406e+00 1.3731072612e+00 2.3782915406e+00 
43600 3.5229095065e+00 -4.2735718331e-05 1.3731072612e+00 -2.3782915406e+00 1.3731072612e+00 2.3782915406e+00 
43700 3.5229092906e+00 -4.3504128102e-05 1.3731072612e+00 -2.3782915406e+00 1.3731072612e+00 2.3782915406e+00 
43800 3.5229090708e+00 -4.4286558025e-05 1.3731072612e+00 -2.3782915406e+00 1.3731072612e+00 2.3782915406e+00 
43900 3.5229088469e+00 -4.5083269379e-05 1.3731072612e+00 -2.3782915406e+00 1.3731072612e+00 2.3782915406e+00 
44000 3.5229086188e+00 -4.5894528461e-05 1.3731072612e+00 -2.3782915406e+00 1.3731072612e+00 2.3782915406e+00 
44100 3.5229083866e+00 -4.6720606683e-05 1.3731072612e+00 -2.3782915406e+00 1.3731072612e+00 2.3782915406e+00 
44200 3.5229081500e+00 -4.7561780675e-05 1.3731072612e+00 -2.3782915406e+00 1.3731072612e+00 2.3782915406e+00 
44300 3.5229079090e+00 -4.8418332393e-05 1.3731072612e+00 -2.3782915406e+00 1.3731072612e+00 2.3782915406e+00 
44400 3.5229076636e+00 -4.9290549221e-05 1.3731072612e+00 -2.3782915406e+00 1.3731072612e+00 2.3782915406e+00 
44500 3.5229074137e+00 -5.0178724086e-05 1.3731072612e+00 -2.3782915406e+00 1.3731072612e+00 2.3782915406e+00 
44600 3.5229071590e+00 -5.1083155563e-05 1.3731072612e+00 -2.3782915406e+00 1.3731072612e+00 2.3782915406e+00 
44700 3.5229068997e+00 -5.2004147992e-05 1.3731072612e+00 -2.3782915406e+00 1.3731072612e+00 2.3782915406e+00 
44800 3.5229066356e+00 -5.2942011593e-05 1.3731072612e+00 -2.3782915406e+00 1.3731072612e+00 2.3782915406e+00 
44900 3.5229063665e+00 -5.3897062587e-05 1.3731072612e+00 -2.3782915406e+00 1.3731072612e+00 2.3782915406e+00 
45000 3.5229060924e+00 -5.4869623313e-05 1.3731072612e+00 -2.3782915406e+00 1.3731072612e+00 2.3782915406e+00 
45100 3.5229058133e+00 -5.5860022357e-05 1.3731072612e+00 -2.3782915406e+00 1.3731072612e+00 2.3782915406e+00 
45200 3.5229055289e+00 -5.6868594671e-05 1.3731072612e+00 -2.3782915406e+00 1.3731072612e+00 2.3782915406e+00 
45300 3.5229052393e+00 -5.7895681710e-05 1.3731072612e+00 -2.3782915406e+00 1.3731072612e+00 2.3782915406e+00 
45400 3.5229049442e+00 -5.8941631559e-05 1.3731072612e+00 -2.3782915406e+00 1.3731072612e+00 2.3782915406e+00 
45500 3.5229046437e+00 -6.0006799066e-05 1.3731072612e+00 -2.3782915406e+00 1.3731072612e+00 2.3782915406e+00 
45600 3.5229043375e+00 -6.1091545986e-05 1.3731072612e+00 -2.3782915406e+00 1.3731072612e+00 2.3782915406e+00 
45700 3.5229040256e+00 -6.2196241115e-05 1.3731072612e+00 -2.3782915406e+00 1.3731072612e+00 2.3782915406e+00 
45800 3.5229037079e+00 -6.3321260437e-05 1.3731072612e+00 -2.3782915406e+00 1.3731072612e+00 2.3782915406e+00 
45900 3.5229033843e+00 -6.4466987269e-05 1.3731072612e+00 -2.3782915406e+00 1.3731072612e+00 2.3782915406e+00 
46000 3.5229030546e+00 -6.5633812413e-05 1.3731072612e+00 -2.3782915406e+00 1.3731072612e+00 2.3782915406e+00 
46100 3.5229027188e+00 -6.6822134304e-05 1.3731072612e+00 -2.3782915406e+00 1.3731072612e+00 2.3782915406e+00 
46200 3.5229023766e+00 -6.8032359172e-05 1.3731072612e+00 -2.3782915406e+00 1.3731072612e+00 2.3782915406e+00 
46300 3.5229020281e+00 -6.9264901200e-05 1.3731072612e+00 -2.3782915406e+00 1.3731072612e+00 2.3782915406e+00 
46400 3.5229016730e+00 -7.0520182683e-05 1.3731072612e+00 -2.3782915406e+00 1.3731072612e+00 2.3782915406e+00 
46500 3.5229013112e+00 -7.1798634201e-05 1.3731072612e+00 -2.3782915406e+00 1.3731072612e+00 2.3782915406e+00 
46600 3.5229009424e+00 -7.3100405729e-05 1.3731098756e+00 -2.3782960690e+00 1.3731098756e+00 2.3782960690e+00 
46700 3.5229005666e+00 -7.4426235089e-05 1.3731125375e+00 -2.3783006795e+00 1.3731125375e+00 2.3783006795e+00 
46800 3.5229001838e+00 -7.5776579444e-05 1.3731152476e+00 -2.3783053735e+00 1.3731152476e+00 2.3783053735e+00 
46900 3.5228997938e+00 -7.7151904978e-05 1.3731180069e+00 -2.3783101528e+00 1.3731180069e+00 2.3783101528e+00 
47000 3.5228993963e+00 -7.8552687075e-05 1.3731208163e+00 -2.3783150188e+00 1.3731208163e+00 2.3783150188e+00 
47100 3.5228989914e+00 -7.9979410520e-05 1.3731236767e+00 -2.3783199731e+00 1.3731236767e+00 2.3783199731e+00 
47200 3.5228985789e+00 -8.1432569690e-05 1.3731265890e+00 -2.3783250173e+00 1.3731265890e+00 2.3783250173e+00 
47300 3.5228981585e+00 -8.2912668759e-05 1.3731295542e+00 -2.3783301533e+00 1.3731295542e+00 2.3783301533e+00 
47400 3.5228977302e+00 -8.4420221901e-05 1.3731325733e+00 -2.3783353825e+00 1.3731325733e+00 2.3783353825e+00 
47500 3.5228972938e+00 -8.5955753503e-05 1.3731356473e+00 -2.3783407069e+00 1.3731356473e+00 2.3783407069e+00 
47600 3.5228968492e+00 -8.7519798376e-05 1.3731387772e+00 -2.3783461280e+00 1.3731387772e+00 2.3783461280e+00 
47700 3.5228963961e+00 -8.9112901976e-05 1.3731419641e+00 -2.3783516478e+00 1.3731419641e+00 2.3783516478e+00 
47800 3.5228959344e+00 -9.0735620630e-05 1.3731452089e+00 -2.3783572681e+00 1.3731452089e+00 2.3783572681e+00 
47900 3.5228954639e+00 -9.2388521763e-05 1.3731485129e+00 -2.3783629906e+00 1.3731485129e+00 2.3783629906e+00 
48000 3.5228949845e+00 -9.4072184132e-05 1.3731518770e+00 -2.3783688175e+00 1.3731518770e+00 2.3783688175e+00 
48100 3.5228944960e+00 -9.5787198070e-05 1.3731553024e+00 -2.3783747504e+00 1.3731553024e+00 2.3783747504e+00 
48200 3.5228939983e+00 -9.7534165724e-05 1.3731587903e+00 -2.3783807916e+00 1.3731587903e+00 2.3783807916e+00 
48300 3.5228934910e+00 -9.9313701312e-05 1.3731623417e+00 -2.3783869429e+00 1.3731623417e+00 2.3783869429e+00 
48400 3.5228929741e+00 -1.0112643137e-04 1.3731659580e+00 -2.3783932064e+00 1.3731659580e+00 2.3783932064e+00 
48500 3.5228924473e+00 -1.0297299504e-04 1.3731696402e+00 -2.3783995842e+00 1.3731696402e+00 2.3783995842e+00 
48600 3.5228919104e+00 -1.0485404429e-04 1.3731733897e+00 -2.3784060785e+00 1.3731733897e+00 2.3784060785e+00 
48700 3.5228913633e+00 -1.0677024423e-04 1.3731772076e+00 -2.3784126914e+00 1.3731772076e+00 2.3784126914e+00 
48800 3.5228908058e+00 -1.0872227339e-04 1.3731810953e+00 -2.3784194251e+00 1.3731810953e+00 2.3784194251e+00 
48900 3.5228902376e+00 -1.1071082398e-04 1.3731850541e+00 -2.3784262819e+00 1.3731850541e+00 2.3784262819e+00 
49000 3.5228896585e+00 -1.1273660219e-04 1.3731890853e+00 -2.3784332641e+00 1.3731890853e+00 2.3784332641e+00 
49100 3.5228890683e+00 -1.1480032853e-04 1.3731931902e+00 -2.3784403740e+00 1.3731931902e+00 2.3784403740e+00 
49200 3.5228884668e+00 -1.1690273807e-04 1.3731973702e+00 -2.3784476141e+00 1.3731973702e+00 2.3784476141e+00 
49300 3.5228878537e+00 -1.1904458082e-04 1.3732016268e+00 -2.3784549867e+00 1.3732016268e+00 2.3784549867e+00 
49400 3.5228872289e+00 -1.2122662199e-04 1.3732059614e+00 -2.3784624944e+00 1.3732059614e+00 2.3784624944e+00 
49500 3.5228865921e+00 -1.2344964238e-04 1.3732103754e+00 -2.3784701397e+00 1.3732103754e+00 2.3784701397e+00 
49600 3.5228859430e+00 -1.2571443865e-04 1.3732148703e+00 -2.3784779251e+00 1.3732148703e+00 2.3784779251e+00 
49700 3.5228852814e+00 -1.2802182374e-04 1.3732194477e+00 -2.3784858534e+00 1.3732194477e+00 2.3784858534e+00 
49800 3.5228846071e+00 -1.3037262715e-04 1.3732241091e+00 -2.3784939271e+00 1.3732241091e+00 2.3784939271e+00 
49900 3.5228839197e+00 -1.3276769534e-04 1.3732288560e+00 -2.3785021491e+00 1.3732288560e+00 2.3785021491e+00 
50000 3.5228832191e+00 -1.3520789209e-04 1.3732336902e+00 -2.3785105221e+00 1.3732336902e+00 2.3785105221e+00 
50100 3.5228825050e+00 -1.3769409888e-04 1.3732386132e+00 -2.3785190489e+00 1.3732386132e+00 2.3785190489e+00 
50200 3.5228817770e+00 -1.4022721528e-04 1.3732436266e+00 -2.3785277325e+00 1.3732436266e+00 2.3785277325e+00 
50300 3.5228810349e+00 -1.4280815932e-04 1.3732487323e+00 -2.3785365758e+00 1.3732487323e+00 2.3785365758e+00 
50400 3.5228802785e+00 -1.4543786793e-04 1.3732539320e+00 -2.3785455819e+00 1.3732539320e+00 2.3785455819e+00 
50500 3.5228795074e+00 -1.4811729734e-04 1.3732592274e+00 -2.3785547538e+00 1.3732592274e+00 2.3785547538e+00 
50600 3.5228787213e+00 -1.5084742349e-04 1.3732646203e+00 -2.3785640946e+00 1.3732646203e+00 2.3785640946e+00 
50700 3.5228779199e+00 -1.5362924248e-04 1.3732701126e+00 -2.3785736075e+00 1.3732701126e+00 2.3785736075e+00 
50800 3.5228771029e+00 -1.5646377102e-04 1.3732757061e+00 -2.3785832958e+00 1.3732757061e+00 2.3785832958e+00 
50900 3.5228762701e+00 -1.5935204684e-04 1.3732814029e+00 -2.3785931629e+00 1.3732814029e+00 2.3785931629e+00 
51000 3.5228754210e+00 -1.6229512925e-04 1.3732872048e+00 -2.3786032120e+00 1.3732872048e+00 2.3786032120e+00 
51100 3.5228745553e+00 -1.6529409950e-04 1.3732931138e+00 -2.3786134467e+00 1.3732931138e+00 2.3786134467e+00 
51200 3.5228736728e+00 -1.6835006137e-04 1.3732991319e+00 -2.3786238705e+00 1.3732991319e+00 2.3786238705e+00 
51300 3.5228727729e+00 -1.7146414159e-04 1.3733052613e+00 -2.3786344869e+00 1.3733052613e+00 2.3786344869e+00 
51400 3.5228718555e+00 -1.7463749042e-04 1.3733115041e+00 -2.3786452997e+00 1.3733115041e+00 2.3786452997e+00 
51500 3.5228709201e+00 -1.7787128213e-04 1.3733178624e+00 -2.3786563126e+00 1.3733178624e+00 2.3786563126e+00 
51600 3.5228699664e+00 -1.8116671555e-04 1.3733243383e+00 -2.3786675293e+00 1.3733243383e+00 2.3786675293e+00 
51700 3.5228689939e+00 -1.8452501461e-04 1.3733309343e+00 -2.3786789537e+00 1.3733309343e+00 2.3786789537e+00 
51800 3.5228680024e+00 -1.8794742894e-04 1.3733376524e+00 -2.3786905899e+00 1.3733376524e+00 2.3786905899e+00 
51900 3.5228669913e+00 -1.9143523440e-04 1.3733444952e+00 -2.3787024419e+00 1.3733444952e+00 2.3787024419e+00 
52000 3.5228659603e+00 -1.9498973370e-04 1.3733514648e+00 -2.3787145137e+00 1.3733514648e+00 2.3787145137e+00 
52100 3.5228649090e+00 -1.9861225701e-04 1.3733585639e+00 -2.3787268097e+00 1.3733585639e+00 2.3787268097e+00 
52200 3.5228638370e+00 -2.0230416255e-04 1.3733657948e+00 -2.3787393339e+00 1.3733657948e+00 2.3787393339e+00 
52300 3.5228627438e+00 -2.0606683727e-04 1.3733731601e+00 -2.3787520910e+00 1.3733731601e+00 2.3787520910e+00 
52400 3.5228616289e+00 -2.0990169745e-04 1.3733806623e+00 -2.3787650852e+00 1.3733806623e+00 2.3787650852e+00 
52500 3.5228604920e+00 -2.1381018942e-04 1.3733883041e+00 -2.3787783212e+00 1.3733883041e+00 2.3787783212e+00 
52600 3.5228593325e+00 -2.1779379021e-04 1.3733960881e+00 -2.3787918036e+00 1.3733960881e+00 2.3787918036e+00 
52700 3.5228581501e+00 -2.2185400826e-04 1.3734040172e+00 -2.3788055370e+00 1.3734040172e+00 2.3788055370e+00 
52800 3.5228569441e+00 -2.2599238413e-04 1.3734120940e+00 -2.3788195265e+00 1.3734120940e+00 2.3788195265e+00 
52900 3.5228557142e+00 -2.3021049128e-04 1.3734203214e+00 -2.3788337768e+00 1.3734203214e+00 2.3788337768e+00 
53000 3.5228544598e+00 -2.3450993675e-04 1.3734287023e+00 -2.3788482930e+00 1.3734287023e+00 2.3788482930e+00 
53100 3.5228531803e+00 -2.3889236201e-04 1.3734372397e+00 -2.3788630802e+00 1.3734372397e+00 2.3788630802e+00 
53200 3.5228518754e+00 -2.4335944369e-04 1.3734459366e+00 -2.3788781436e+00 1.3734459366e+00 2.3788781436e+00 
53300 3.5228505443e+00 -2.4791289445e-04 1.3734547960e+00 -2.3788934887e+00 1.3734547960e+00 2.3788934887e+00 
53400 3.5228491866e+00 -2.5255446376e-04 1.3734638212e+00 -2.3789091207e+00 1.3734638212e+00 2.3789091207e+00 
53500 3.5228478018e+00 -2.5728593880e-04 1.3734730153e+00 -2.3789250453e+00 1.3734730153e+00 2.3789250453e+00 
53600 3.5228463891e+00 -2.6210914531e-04 1.3734823816e+00 -2.3789412682e+00 1.3734823816e+00 2.3789412682e+00 
53700 3.5228449481e+00 -2.6702594848e-04 1.3734919233e+00 -2.3789577950e+00 1.3734919233e+00 2.3789577950e+00 
53800 3.5228434781e+00 -2.7203825392e-04 1.3735016440e+00 -2.3789746318e+00 1.3735016440e+00 2.3789746318e+00 
53900 3.5228419785e+00 -2.7714800855e-04 1.3735115472e+00 -2.3789917845e+00 1.3735115472e+00 2.3789917845e+00 
54000 3.5228404487e+00 -2.8235720158e-04 1.3735216362e+00 -2.3790092592e+00 1.3735216362e+00 2.3790092592e+00 
54100 3.5228388880e+00 -2.8766786555e-04 1.3735319148e+00 -2.3790270622e+00 1.3735319148e+00 2.3790270622e+00 
54200 3.5228372958e+00 -2.9308207728e-04 1.3735423866e+00 -2.3790452000e+00 1.3735423866e+00 2.3790452000e+00 
54300 3.5228356713e+00 -2.9860195898e-04 1.3735530555e+00 -2.3790636790e+00 1.3735530555e+00 2.3790636790e+00 
54400 3.5228340139e+00 -3.0422967927e-04 1.3735639252e+00 -2.3790825059e+00 1.3735639252e+00 2.3790825059e+00 
54500 3.5228323229e+00 -3.0996745432e-04 1.3735749997e+00 -2.3791016874e+00 1.3735749997e+00 2.3791016874e+00 
54600 3.5228305976e+00 -3.1581754896e-04 1.3735862829e+00 -2.3791212306e+00 1.3735862829e+00 2.3791212306e+00 
54700 3.5228288371e+00 -3.2178227783e-04 1.3735977790e+00 -2.3791411425e+00 1.3735977790e+00 2.3791411425e+00 
54800 3.5228270408e+00 -3.2786400660e-04 1.3736094922e+00 -2.3791614302e+00 1.3736094922e+00 2.3791614302e+00 
54900 3.5228252078e+00 -3.3406515315e-04 1.3736214266e+00 -2.3791821012e+00 1.3736214266e+00 2.3791821012e+00 
55000 3.5228233374e+00 -3.4038818886e-04 1.3736335866e+00 -2.3792031630e+00 1.3736335866e+00 2.3792031630e+00 
55100 3.5228214287e+00 -3.4683563986e-04 1.3736459767e+00 -2.3792246233e+00 1.3736459767e+00 2.3792246233e+00 
55200 3.5228194809e+00 -3.5341008839e-04 1.3736586014e+00 -2.3792464898e+00 1.3736586014e+00 2.3792464898e+00 
55300 3.5228174932e+00 -3.6011417409e-04 1.3736714652e+00 -2.3792687706e+00 1.3736714652e+00 2.3792687706e+00 
55400 3.5228154646e+00 -3.6695059547e-04 1.3736845730e+00 -2.3792914739e+00 1.3736845730e+00 2.3792914739e+00 
55500 3.5228133942e+00 -3.7392211125e-04 1.3736979294e+00 -2.3793146080e+00 1.3736979294e+00 2.3793146080e+00 
55600 3.5228112813e+00 -3.8103154191e-04 1.3737115395e+00 -2.3793381813e+00 1.3737115395e+00 2.3793381813e+00 
55700 3.5228091247e+00 -3.8828177113e-04 1.3737254082e+00 -2.3793622027e+00 1.3737254082e+00 2.3793622027e+00 
55800 3.5228069235e+00 -3.9567574733e-04 1.3737395407e+00 -2.3793866808e+00 1.3737395407e+00 2.3793866808e+00 
55900 3.5228046768e+00 -4.0321648533e-04 1.3737539421e+00 -2.3794116248e+00 1.3737539421e+00 2.3794116248e+00 
56000 3.5228023835e+00 -4.1090706787e-04 1.3737686178e+00 -2.3794370439e+00 1.3737686178e+00 2.3794370439e+00 
56100 3.5228000425e+00 -4.1875064737e-04 1.3737835733e+00 -2.3794629476e+00 1.3737835733e+00 2.3794629476e+00 
56200 3.5227976529e+00 -4.2675044761e-04 1.3737988141e+00 -2.3794893455e+00 1.3737988141e+00 2.3794893455e+00 
56300 3.5227952136e+00 -4.3490976549e-04 1.3738143459e+00 -2.3795162473e+00 1.3738143459e+00 2.3795162473e+00 
56400 3.5227927233e+00 -4.4323197283e-04 1.3738301745e+00 -2.3795436632e+00 1.3738301745e+00 2.3795436632e+00 
56500 3.5227901810e+00 -4.5172051826e-04 1.3738463058e+00 -2.3795716034e+00 1.3738463058e+00 2.3795716034e+00 
56600 3.5227875856e+00 -4.6037892912e-04 1.3738627458e+00 -2.3796000784e+00 1.3738627458e+00 2.3796000784e+00 
56700 3.5227849357e+00 -4.6921081341e-04 1.3738795008e+00 -2.3796290988e+00 1.3738795008e+00 2.3796290988e+00 
56800 3.5227822302e+00 -4.7821986181e-04 1.3738965769e+00 -2.3796586756e+00 1.3738965769e+00 2.3796586756e+00 
56900 3.5227794678e+00 -4.8740984978e-04 1.3739139808e+00 -2.3796888199e+00 1.3739139808e+00 2.3796888199e+00 
57000 3.5227766472e+00 -4.9678463965e-04 1.3739317188e+00 -2.3797195431e+00 1.3739317188e+00 2.3797195431e+00 
57100 3.5227737670e+00 -5.0634818282e-04 1.3739497978e+00 -2.3797508568e+00 1.3739497978e+00 2.3797508568e+00 
57200 3.5227708260e+00 -5.1610452204e-04 1.3739682246e+00 -2.3797827729e+00 1.3739682246e+00 2.3797827729e+00 
57300 3.5227678228e+00 -5.2605779368e-04 1.3739870061e+00 -2.3798153036e+00 1.3739870061e+00 2.3798153036e+00 
57400 3.5227647558e+00 -5.3621223013e-04 1.3740061496e+00 -2.3798484611e+00 1.3740061496e+00 2.3798484611e+00 
57500 3.5227616237e+00 -5.4657216223e-04 1.3740256624e+00 -2.3798822582e+00 1.3740256624e+00 2.3798822582e+00 
57600 3.5227584250e+00 -5.5714202182e-04 1.3740455519e+00 -2.3799167078e+00 1.3740455519e+00 2.3799167078e+00 
57700 3.5227551580e+00 -5.6792634425e-04 1.3740658258e+00 -2.3799518231e+00 1.3740658258e+00 2.3799518231e+00 
57800 3.5227518212e+00 -5.7892977111e-04 1.3740864917e+00 -2.3799876176e+00 1.3740864917e+00 2.3799876176e+00 
57900 3.5227484131e+00 -5.9015705291e-04 1.3741075578e+00 -2.3800241051e+00 1.3741075578e+00 2.3800241051e+00 
58000 3.5227449319e+00 -6.0161305193e-04 1.3741290320e+00 -2.3800612996e+00 1.3741290320e+00 2.3800612996e+00 
58100 3.5227413759e+00 -6.1330274506e-04 1.3741509228e+00 -2.3800992155e+00 1.3741509228e+00 2.3800992155e+00 
58200 3.5227377435e+00 -6.2523122680e-04 1.3741732385e+00 -2.3801378675e+00 1.3741732385e+00 2.3801378675e+00 
58300 3.5227340327e+00 -6.3740371233e-04 1.3741959879e+00 -2.3801772707e+00 1.3741959879e+00 2.3801772707e+00 
58400 3.5227302418e+00 -6.4982554061e-04 1.3742191799e+00 -2.3802174403e+00 1.3742191799e+00 2.3802174403e+00 
58500 3.5227263688e+00 -6.6250217767e-04 1.3742428234e+00 -2.3802583921e+00 1.3742428234e+00 2.3802583921e+00 
58600 3.5227224120e+00 -6.7543921988e-04 1.3742669277e+00 -2.3803001420e+00 1.3742669277e+00 2.3803001420e+00 
58700 3.5227183691e+00 -6.8864239740e-04 1.3742915023e+00 -2.3803427065e+00 1.3742915023e+00 2.3803427065e+00 
58800 3.5227142383e+00 -7.0211757773e-04 1.3743165569e+00 -2.3803861022e+00 1.3743165569e+00 2.3803861022e+00 
58900 3.5227100174e+00 -7.1587076929e-04 1.3743421012e+00 -2.3804303462e+00 1.3743421012e+00 2.3804303462e+00 
59000 3.5227057042e+00 -7.2990812516e-04 1.3743681454e+00 -2.3804754561e+00 1.3743681454e+00 2.3804754561e+00 
59100 3.5227012967e+00 -7.4423594697e-04 1.3743946998e+00 -2.3805214497e+00 1.3743946998e+00 2.3805214497e+00 
59200 3.5226967924e+00 -7.5886068878e-04 1.3744217749e+00 -2.3805683452e+00 1.3744217749e+00 2.3805683452e+00 
59300 3.5226921892e+00 -7.7378896121e-04 1.3744493816e+00 -2.3806161613e+00 1.3744493816e+00 2.3806161613e+00 
59400 3.5226874845e+00 -7.8902753559e-04 1.3744775307e+00 -2.3806649171e+00 1.3744775307e+00 2.3806649171e+00 
59500 3.5226826760e+00 -8.0458334833e-04 1.3745062336e+00 -2.3807146320e+00 1.3745062336e+00 2.3807146320e+00 
59600 3.5226777611e+00 -8.2046350528e-04 1.3745355018e+00 -2.3807653260e+00 1.3745355018e+00 2.3807653260e+00 
59700 3.5226727373e+00 -8.3667528640e-04 1.3745653471e+00 -2.3808170194e+00 1.3745653471e+00 2.3808170194e+00 
59800 3.5226676018e+00 -8.5322615040e-04 1.3745957813e+00 -2.3808697331e+00 1.3745957813e+00 2.3808697331e+00 
59900 3.5226623521e+00 -8.7012373962e-04 1.3746268170e+00 -2.3809234885e+00 1.3746268170e+00 2.3809234885e+00 
60000 3.5226569852e+00 -8.8737588505e-04 1.3746584666e+00 -2.3809783071e+00 1.3746584666e+00 2.3809783071e+00 
60100 3.5226514983e+00 -9.0499061146e-04 1.3746907429e+00 -2.3810342114e+00 1.3746907429e+00 2.3810342114e+00 
60200 3.5226458885e+00 -9.2297614271e-04 1.3747236592e+00 -2.3810912241e+00 1.3747236592e+00 2.3810912241e+00 
60300 3.5226401526e+00 -9.4134090721e-04 1.3747572289e+00 -2.3811493684e+00 1.3747572289e+00 2.3811493684e+00 
60400 3.5226342877e+00 -9.6009354359e-04 1.3747914656e+00 -2.3812086683e+00 1.3747914656e+00 2.3812086683e+00 
60500 3.5226282904e+00 -9.7924290646e-04 1.3748263836e+00 -2.3812691479e+00 1.3748263836e+00 2.3812691479e+00 
60600 3.5226221576e+00 -9.9879807243e-04 1.3748619970e+00 -2.3813308323e+00 1.3748619970e+00 2.3813308323e+00 
60700 3.5226158857e+00 -1.0187683463e-03 1.3748983208e+00 -2.3813937468e+00 1.3748983208e+00 2.3813937468e+00 
60800 3.5226094713e+00 -1.0391632673e-03 1.3749353698e+00 -2.3814579176e+00 1.3749353698e+00 2.3814579176e+00 
60900 3.5226029109e+00 -1.0599926158e-03 1.3749731595e+00 -2.3815233713e+00 1.3749731595e+00 2.3815233713e+00 
61000 3.5225962008e+00 -1.0812664200e-03 1.3750117056e+00 -2.3815901351e+00 1.3750117056e+00 2.3815901351e+00 
61100 3.5225893371e+00 -1.1029949630e-03 1.3750510243e+00 -2.3816582370e+00 1.3750510243e+00 2.3816582370e+00 
61200 3.5225823160e+00 -1.1251887896e-03 1.3750911319e+00 -2.3817277054e+00 1.3750911319e+00 2.3817277054e+00 
61300 3.5225751335e+00 -1.1478587143e-03 1.3751320453e+00 -2.3817985696e+00 1.3751320453e+00 2.3817985696e+00 
61400 3.5225677854e+00 -1.1710158286e-03 1.3751737818e+00 -2.3818708594e+00 1.3751737818e+00 2.3818708594e+00 
61500 3.5225602676e+00 -1.1946715088e-03 1.3752163591e+00 -2.3819446053e+00 1.3752163591e+00 2.3819446053e+00 
61600 3.5225525756e+00 -1.2188374243e-03 1.3752597951e+00 -2.3820198387e+00 1.3752597951e+00 2.3820198387e+00 
61700 3.5225447051e+00 -1.2435255461e-03 1.3753041083e+00 -2.3820965914e+00 1.3753041083e+00 2.3820965914e+00 
61800 3.5225366513e+00 -1.2687481552e-03 1.3753493176e+00 -2.3821748963e+00 1.3753493176e+00 2.3821748963e+00 
61900 3.5225284095e+00 -1.2945178517e-03 1.3753954425e+00 -2.3822547869e+00 1.3753954425e+00 2.3822547869e+00 
62000 3.5225199749e+00 -1.3208475639e-03 1.3754425026e+00 -2.3823362974e+00 1.3754425026e+00 2.3823362974e+00 
62100 3.5225113423e+00 -1.3477505580e-03 1.3754905182e+00 -2.3824194629e+00 1.3754905182e+00 2.3824194629e+00 
62200 3.5225025068e+00 -1.3752404478e-03 1.3755395102e+00 -2.3825043194e+00 1.3755395102e+00 2.3825043194e+00 
62300 3.5224934628e+00 -1.4033312048e-03 1.3755894996e+00 -2.3825909037e+00 1.3755894996e+00 2.3825909037e+00 
62400 3.5224842049e+00 -1.4320371688e-03 1.3756405083e+00 -2.3826792533e+00 1.3756405083e+00 2.3826792533e+00 
62500 3.5224747276e+00 -1.4613730585e-03 1.3756925584e+00 -2.3827694068e+00 1.3756925584e+00 2.3827694068e+00 
62600 3.5224650248e+00 -1.4913539830e-03 1.3757456729e+00 -2.3828614037e+00 1.3757456729e+00 2.3828614037e+00 
62700 3.5224550908e+00 -1.5219954529e-03 1.3757998749e+00 -2.3829552843e+00 1.3757998749e+00 2.3829552843e+00 
62800 3.5224449192e+00 -1.5533133925e-03 1.3758551884e+00 -2.3830510901e+00 1.3758551884e+00 2.3830510901e+00 
62900 3.5224345037e+00 -1.5853241522e-03 1.3759116378e+00 -2.3831488633e+00 1.3759116378e+00 2.3831488633e+00 
63000 3.5224238378e+00 -1.6180445208e-03 1.3759692481e+00 -2.3832486474e+00 1.3759692481e+00 2.3832486474e+00 
63100 3.5224129148e+00 -1.6514917389e-03 1.3760280451e+00 -2.3833504867e+00 1.3760280451e+00 2.3833504867e+00 
63200 3.5224017276e+00 -1.6856835123e-03 1.3760880549e+00 -2.3834544268e+00 1.3760880549e+00 2.3834544268e+00 
63300 3.5223902691e+00 -1.7206380262e-03 1.3761493045e+00 -2.3835605141e+00 1.3761493045e+00 2.3835605141e+00 
63400 3.5223785319e+00 -1.7563739597e-03 1.3762118213e+00 -2.3836687965e+00 1.3762118213e+00 2.3836687965e+00 
63500 3.5223665084e+00 -1.7929105002e-03 1.3762756337e+00 -2.3837793228e+00 1.3762756337e+00 2.3837793228e+00 
63600 3.5223541907e+00 -1.8302673598e-03 1.3763407706e+00 -2.3838921431e+00 1.3763407706e+00 2.3838921431e+00 
63700 3.5223415707e+00 -1.8684647905e-03 1.3764072614e+00 -2.3840073087e+00 1.3764072614e+00 2.3840073087e+00 
63800 3.5223286402e+00 -1.9075236008e-03 1.3764751367e+00 -2.3841248721e+00 1.3764751367e+00 2.3841248721e+00 
63900 3.5223153903e+00 -1.9474651734e-03 1.3765444274e+00 -2.3842448872e+00 1.3765444274e+00 2.3842448872e+00 
64000 3.5223018124e+00 -1.9883114820e-03 1.3766151655e+00 -2.3843674091e+00 1.3766151655e+00 2.3843674091e+00 
64100 3.5222878971e+00 -2.0300851104e-03 1.3766873835e+00 -2.3844924944e+00 1.3766873835e+00 2.3844924944e+00 
64200 3.5222736351e+00 -2.0728092707e-03 1.3767611150e+00 -2.3846202011e+00 1.3767611150e+00 2.3846202011e+00 
64300 3.5222590165e+00 -2.1165078231e-03 1.3768363941e+00 -2.3847505884e+00 1.3768363941e+00 2.3847505884e+00 
64400 3.5222440314e+00 -2.1612052963e-03 1.3769132561e+00 -2.3848837172e+00 1.3769132561e+00 2.3848837172e+00 
64500 3.5222286693e+00 -2.2069269081e-03 1.3769917370e+00 -2.3850196500e+00 1.3769917370e+00 2.3850196500e+00 
64600 3.5222129194e+00 -2.2536985872e-03 1.3770718735e+00 -2.3851584507e+00 1.3770718735e+00 2.3851584507e+00 
64700 3.5221967707e+00 -2.3015469956e-03 1.3771537037e+00 -2.3853001847e+00 1.3771537037e+00 2.3853001847e+00 
64800 3.5221802118e+00 -2.3504995514e-03 1.3772372663e+00 -2.3854449193e+00 1.3772372663e+00 2.3854449193e+00 
64900 3.5221632308e+00 -2.4005844534e-03 1.3773226011e+00 -2.3855927234e+00 1.3773226011e+00 2.3855927234e+00 
65000 3.5221458156e+00 -2.4518307053e-03 1.3774097487e+00 -2.3857436677e+00 1.3774097487e+00 2.3857436677e+00 
65100 3.5221279534e+00 -2.5042681419e-03 1.3774987512e+00 -2.3858978244e+00 1.3774987512e+00 2.3858978244e+00 
65200 3.5221096314e+00 -2.5579274552e-03 1.3775896513e+00 -2.3860552681e+00 1.3775896513e+00 2.3860552681e+00 
65300 3.5220908360e+00 -2.6128402222e-03 1.3776824930e+00 -2.3862160746e+00 1.3776824930e+00 2.3862160746e+00 
65400 3.5220715533e+00 -2.6690389332e-03 1.3777773215e+00 -2.3863803224e+00 1.3777773215e+00 2.3863803224e+00 
65500 3.5220517690e+00 -2.7265570217e-03 1.3778741830e+00 -2.3865480913e+00 1.3778741830e+00 2.3865480913e+00 
65600 3.5220314681e+00 -2.7854288944e-03 1.3779731248e+00 -2.3867194637e+00 1.3779731248e+00 2.3867194637e+00 
65700 3.5220106355e+00 -2.8456899632e-03 1.3780741959e+00 -2.3868945238e+00 1.3780741959e+00 2.3868945238e+00 
65800 3.5219892550e+00 -2.9073766779e-03 1.3781774460e+00 -2.3870733582e+00 1.3781774460e+00 2.3870733582e+00 
65900 3.5219673105e+00 -2.9705265602e-03 1.3782829263e+00 -2.3872560556e+00 1.3782829263e+00 2.3872560556e+00 
66000 3.5219447847e+00 -3.0351782387e-03 1.3783906896e+00 -2.3874427071e+00 1.3783906896e+00 2.3874427071e+00 
66100 3.5219216603e+00 -3.1013714856e-03 1.3785007897e+00 -2.3876334060e+00 1.3785007897e+00 2.3876334060e+00 
66200 3.5218979190e+00 -3.1691472542e-03 1.3786132820e+00 -2.3878282483e+00 1.3786132820e+00 2.3878282483e+00 
66300 3.5218735419e+00 -3.2385477182e-03 1.3787282232e+00 -2.3880273325e+00 1.3787282232e+00 2.3880273325e+00 
66400 3.5218485097e+00 -3.3096163120e-03 1.3788456718e+00 -2.3882307594e+00 1.3788456718e+00 2.3882307594e+00 
66500 3.5218228022e+00 -3.3823977733e-03 1.3789656876e+00 -2.3884386328e+00 1.3789656876e+00 2.3884386328e+00 
66600 3.5217963985e+00 -3.4569381860e-03 1.3790883320e+00 -2.3886510591e+00 1.3790883320e+00 2.3886510591e+00 
66700 3.5217692771e+00 -3.5332850256e-03 1.3792136680e+00 -2.3888681475e+00 1.3792136680e+00 2.3888681475e+00 
66800 3.5217414155e+00 -3.6114872062e-03 1.3793417606e+00 -2.3890900103e+00 1.3793417606e+00 2.3890900103e+00 
66900 3.5217127907e+00 -3.6915951288e-03 1.3794726761e+00 -2.3893167626e+00 1.3794726761e+00 2.3893167626e+00 
67000 3.5216833786e+00 -3.7736607317e-03 1.3796064828e+00 -2.3895485227e+00 1.3796064828e+00 2.3895485227e+00 
67100 3.5216531544e+00 -3.8577375427e-03 1.3797432509e+00 -2.3897854120e+00 1.3797432509e+00 2.3897854120e+00 
67200 3.5216220924e+00 -3.9438807331e-03 1.3798830524e+00 -2.3900275552e+00 1.3798830524e+00 2.3900275552e+00 
67300 3.5215901659e+00 -4.0321471740e-03 1.3800259612e+00 -2.3902750806e+00 1.3800259612e+00 2.3902750806e+00 
67400 3.5215573471e+00 -4.1225954943e-03 1.3801720533e+00 -2.3905281195e+00 1.3801720533e+00 2.3905281195e+00 
67500 3.5215236075e+00 -4.2152861413e-03 1.3803214068e+00 -2.3907868073e+00 1.3803214068e+00 2.3907868073e+00 
67600 3.5214889174e+00 -4.3102814429e-03 1.3804741018e+00 -2.3910512828e+00 1.3804741018e+00 2.3910512828e+00 
67700 3.5214532459e+00 -4.4076456730e-03 1.3806302207e+00 -2.3913216888e+00 1.3806302207e+00 2.3913216888e+00 
67800 3.5214165610e+00 -4.5074451187e-03 1.3807898482e+00 -2.3915981717e+00 1.3807898482e+00 2.3915981717e+00 
67900 3.5213788296e+00 -4.6097481500e-03 1.3809530712e+00 -2.3918808822e+00 1.3809530712e+00 2.3918808822e+00 
68000 3.5213400173e+00 -4.7146252928e-03 1.3811199792e+00 -2.3921699753e+00 1.3811199792e+00 2.3921699753e+00 
68100 3.5213000884e+00 -4.8221493035e-03 1.3812906639e+00 -2.3924656100e+00 1.3812906639e+00 2.3924656100e+00 
68200 3.5212590059e+00 -4.9323952478e-03 1.3814652199e+00 -2.3927679498e+00 1.3814652199e+00 2.3927679498e+00 
68300 3.5212167313e+00 -5.0454405809e-03 1.3816437442e+00 -2.3930771629e+00 1.3816437442e+00 2.3930771629e+00 
68400 3.5211732246e+00 -5.1613652324e-03 1.3818263365e+00 -2.3933934221e+00 1.3818263365e+00 2.3933934221e+00 
68500 3.5211284445e+00 -5.2802516928e-03 1.3820130996e+00 -2.3937169052e+00 1.3820130996e+00 2.3937169052e+00 
68600 3.5210823479e+00 -5.4021851043e-03 1.3822041388e+00 -2.3940477948e+00 1.3822041388e+00 2.3940477948e+00 
68700 3.5210348900e+00 -5.5272533551e-03 1.3823995626e+00 -2.3943862788e+00 1.3823995626e+00 2.3943862788e+00 
68800 3.5209860245e+00 -5.6555471761e-03 1.3825994826e+00 -2.3947325504e+00 1.3825994826e+00 2.3947325504e+00 
68900 3.5209357030e+00 -5.7871602428e-03 1.3828040135e+00 -2.3950868083e+00 1.3828040135e+00 2.3950868083e+00 
69000 3.5208838754e+00 -5.9221892797e-03 1.3830132733e+00 -2.3954492569e+00 1.3830132733e+00 2.3954492569e+00 
69100 3.5208304895e+00 -6.0607341697e-03 1.3832273834e+00 -2.3958201065e+00 1.3832273834e+00 2.3958201065e+00 
69200 3.5207754911e+00 -6.2028980667e-03 1.3834464687e+00 -2.3961995733e+00 1.3834464687e+00 2.3961995733e+00 
69300 3.5207188239e+00 -6.3487875134e-03 1.3836706575e+00 -2.3965878797e+00 1.3836706575e+00 2.3965878797e+00 
69400 3.5206604292e+00 -6.4985125624e-03 1.3839000822e+00 -2.3969852549e+00 1.3839000822e+00 2.3969852549e+00 
69500 3.5206002461e+00 -6.6521869033e-03 1.3841348786e+00 -2.3973919343e+00 1.3841348786e+00 2.3973919343e+00 
69600 3.5205382112e+00 -6.8099279928e-03 1.3843751868e+00 -2.3978081603e+00 1.3843751868e+00 2.3978081603e+00 
69700 3.5204742583e+00 -6.9718571918e-03 1.3846211508e+00 -2.3982341824e+00 1.3846211508e+00 2.3982341824e+00 
69800 3.5204083189e+00 -7.1380999052e-03 1.3848729189e+00 -2.3986702576e+00 1.3848729189e+00 2.3986702576e+00 
69900 3.5203403214e+00 -7.3087857294e-03 1.3851306437e+00 -2.3991166500e+00 1.3851306437e+00 2.3991166500e+00 
70000 3.5202701913e+00 -7.4840486032e-03 1.3853944822e+00 -2.3995736318e+00 1.3853944822e+00 2.3995736318e+00 
70100 3.5201978512e+00 -7.6640269660e-03 1.3856645963e+00 -2.4000414831e+00 1.3856645963e+00 2.4000414831e+00 
70200 3.5201232203e+00 -7.8488639202e-03 1.3859411525e+00 -2.4005204925e+00 1.3859411525e+00 2.4005204925e+00 
70300 3.5200462145e+00 -8.0387074014e-03 1.3862243222e+00 -2.4010109568e+00 1.3862243222e+00 2.4010109568e+00 
70400 3.5199667462e+00 -8.2337103532e-03 1.3865142821e+00 -2.4015131820e+00 1.3865142821e+00 2.4015131820e+00 
70500 3.5198847241e+00 -8.4340309096e-03 1.3868112139e+00 -2.4020274830e+00 1.3868112139e+00 2.4020274830e+00 
70600 3.5198000530e+00 -8.6398325831e-03 1.3871153050e+00 -2.4025541842e+00 1.3871153050e+00 2.4025541842e+00 
70700 3.5197126336e+00 -8.8512844607e-03 1.3874267483e+00 -2.4030936198e+00 1.3874267483e+00 2.4030936198e+00 
70800 3.5196223627e+00 -9.0685614058e-03 1.3877457426e+00 -2.4036461341e+00 1.3877457426e+00 2.4036461341e+00 
70900 3.5195291323e+00 -9.2918442681e-03 1.3880724925e+00 -2.4042120816e+00 1.3880724925e+00 2.4042120816e+00 
71000 3.5194328299e+00 -9.5213201005e-03 1.3884072091e+00 -2.4047918278e+00 1.3884072091e+00 2.4047918278e+00 
71100 3.5193333382e+00 -9.7571823841e-03 1.3887501097e+00 -2.4053857489e+00 1.3887501097e+00 2.4053857489e+00 
71200 3.5192305347e+00 -9.9996312603e-03 1.3891014181e+00 -2.4059942331e+00 1.3891014181e+00 2.4059942331e+00 
71300 3.5191242917e+00 -1.0248873772e-02 1.3894613653e+00 -2.4066176799e+00 1.3894613653e+00 2.4066176799e+00 
71400 3.5190144759e+00 -1.0505124111e-02 1.3898301891e+00 -2.4072565014e+00 1.3898301891e+00 2.4072565014e+00 
71500 3.5189009479e+00 -1.0768603878e-02 1.3902081345e+00 -2.4079111221e+00 1.3902081345e+00 2.4079111221e+00 
71600 3.5187835625e+00 -1.1039542344e-02 1.3905954544e+00 -2.4085819797e+00 1.3905954544e+00 2.4085819797e+00 
71700 3.5186621678e+00 -1.1318176729e-02 1.3909924090e+00 -2.4092695254e+00 1.3909924090e+00 2.4092695254e+00 
71800 3.5185366054e+00 -1.1604752481e-02 1.3913992671e+00 -2.4099742242e+00 1.3913992671e+00 2.4099742242e+00 
71900 3.5184067096e+00 -1.1899523572e-02 1.3918163052e+00 -2.4106965555e+00 1.3918163052e+00 2.4106965555e+00 
72000 3.5182723074e+00 -1.2202752797e-02 1.3922438089e+00 -2.4114370136e+00 1.3922438089e+00 2.4114370136e+00 
72100 3.5181332180e+00 -1.2514712084e-02 1.3926820724e+00 -2.4121961082e+00 1.3926820724e+00 2.4121961082e+00 
72200 3.5179892524e+00 -1.2835682813e-02 1.3931313991e+00 -2.4129743649e+00 1.3931313991e+00 2.4129743649e+00 
72300 3.5178402130e+00 -1.3165956149e-02 1.3935921019e+00 -2.4137723255e+00 1.3935921019e+00 2.4137723255e+00 
72400 3.5176858934e+00 -1.3505833371e-02 1.3940645034e+00 -2.4145905489e+00 1.3940645034e+00 2.4145905489e+00 
72500 3.5175260776e+00 -1.3855626227e-02 1.3945489363e+00 -2.4154296114e+00 1.3945489363e+00 2.4154296114e+00 
72600 3.5173605397e+00 -1.4215657286e-02 1.3950457439e+00 -2.4162901073e+00 1.3950457439e+00 2.4162901073e+00 
72700 3.5171890437e+00 -1.4586260299e-02 1.3955552799e+00 -2.4171726496e+00 1.3955552799e+00 2.4171726496e+00 
72800 3.5170113423e+00 -1.4967780579e-02 1.3960779095e+00 -2.4180778707e+00 1.3960779095e+00 2.4180778707e+00 
72900 3.5168271770e+00 -1.5360575375e-02 1.3966140092e+00 -2.4190064225e+00 1.3966140092e+00 2.4190064225e+00 
73000 3.5166362774e+00 -1.5765014263e-02 1.3971639673e+00 -2.4199589778e+00 1.3971639673e+00 2.4199589778e+00 
73100 3.5164383603e+00 -1.6181479541e-02 1.3977281843e+00 -2.4209362305e+00 1.3977281843e+00 2.4209362305e+00 
73200 3.5162331295e+00 -1.6610366635e-02 1.3983070736e+00 -2.4219388960e+00 1.3983070736e+00 2.4219388960e+00 
73300 3.5160202748e+00 -1.7052084497e-02 1.3989010612e+00 -2.4229677128e+00 1.3989010612e+00 2.4229677128e+00 
73400 3.5157994715e+00 -1.7507056031e-02 1.3995105869e+00 -2.4240234422e+00 1.3995105869e+00 2.4240234422e+00 
73500 3.5155703797e+00 -1.7975718497e-02 1.4001361041e+00 -2.4251068698e+00 1.4001361041e+00 2.4251068698e+00 
73600 3.5153326435e+00 -1.8458523939e-02 1.4007780807e+00 -2.4262188058e+00 1.4007780807e+00 2.4262188058e+00 
73700 3.5150858902e+00 -1.8955939604e-02 1.4014369991e+00 -2.4273600861e+00 1.4014369991e+00 2.4273600861e+00 
73800 3.5148297294e+00 -1.9468448359e-02 1.4021133571e+00 -2.4285315725e+00 1.4021133571e+00 2.4285315725e+00 
73900 3.5145637523e+00 -1.9996549113e-02 1.4028076681e+00 -2.4297341545e+00 1.4028076681e+00 2.4297341545e+00 
74000 3.5142875307e+00 -2.0540757231e-02 1.4035204616e+00 -2.4309687489e+00 1.4035204616e+00 2.4309687489e+00 
74100 3.5140006162e+00 -2.1101604942e-02 1.4042522835e+00 -2.4322363016e+00 1.4042522835e+00 2.4322363016e+00 
74200 3.5137025390e+00 -2.1679641736e-02 1.4050036971e+00 -2.4335377882e+00 1.4050036971e+00 2.4335377882e+00 
74300 3.5133928071e+00 -2.2275434753e-02 1.4057752831e+00 -2.4348742144e+00 1.4057752831e+00 2.4348742144e+00 
74400 3.5130709049e+00 -2.2889569157e-02 1.4065676404e+00 -2.4362466175e+00 1.4065676404e+00 2.4362466175e+00 
74500 3.5127362926e+00 -2.3522648483e-02 1.4073813864e+00 -2.4376560669e+00 1.4073813864e+00 2.4376560669e+00 
74600 3.5123884046e+00 -2.4175294974e-02 1.4082171575e+00 -2.4391036650e+00 1.4082171575e+00 2.4391036650e+00 
74700 3.5120266485e+00 -2.4848149878e-02 1.4090756100e+00 -2.4405905482e+00 1.4090756100e+00 2.4405905482e+00 
74800 3.5116504037e+00 -2.5541873719e-02 1.4099574200e+00 -2.4421178880e+00 1.4099574200e+00 2.4421178880e+00 
74900 3.5112590205e+00 -2.6257146529e-02 1.4108632845e+00 -2.4436868913e+00 1.4108632845e+00 2.4436868913e+00 
75000 3.5108518183e+00 -2.6994668034e-02 1.4117939215e+00 -2.4452988018e+00 1.4117939215e+00 2.4452988018e+00 
75100 3.5104280845e+00 -2.7755157788e-02 1.4127500707e+00 -2.4469549008e+00 1.4127500707e+00 2.4469549008e+00 
75200 3.5099870731e+00 -2.8539355247e-02 1.4137324940e+00 -2.4486565079e+00 1.4137324940e+00 2.4486565079e+00 
75300 3.5095280030e+00 -2.9348019780e-02 1.4147419759e+00 -2.4504049819e+00 1.4147419759e+00 2.4504049819e+00 
75400 3.5090500568e+00 -3.0181930600e-02 1.4157793242e+00 -2.4522017218e+00 1.4157793242e+00 2.4522017218e+00 
75500 3.5085523791e+00 -3.1041886605e-02 1.4168453701e+00 -2.4540481675e+00 1.4168453701e+00 2.4540481675e+00 
75600 3.5080340752e+00 -3.1928706128e-02 1.4179409690e+00 -2.4559458004e+00 1.4179409690e+00 2.4559458004e+00 
75700 3.5074942092e+00 -3.2843226572e-02 1.4190670006e+00 -2.4578961444e+00 1.4190670006e+00 2.4578961444e+00 
75800 3.5069318025e+00 -3.3786303927e-02 1.4202243698e+00 -2.4599007666e+00 1.4202243698e+00 2.4599007666e+00 
75900 3.5063458323e+00 -3.4758812148e-02 1.4214140063e+00 -2.4619612775e+00 1.4214140063e+00 2.4619612775e+00 
76000 3.5057352302e+00 -3.5761642378e-02 1.4226368658e+00 -2.4640793322e+00 1.4226368658e+00 2.4640793322e+00 
76100 3.5050988800e+00 -3.6795702015e-02 1.4238939295e+00 -2.4662566304e+00 1.4238939295e+00 2.4662566304e+00 
76200 3.5044356168e+00 -3.7861913579e-02 1.4251862049e+00 -2.4684949171e+00 1.4251862049e+00 2.4684949171e+00 
76300 3.5037442252e+00 -3.8961213388e-02 1.4265147256e+00 -2.4707959825e+00 1.4265147256e+00 2.4707959825e+00 
76400 3.5030234375e+00 -4.0094550004e-02 1.4278805518e+00 -2.4731616629e+00 1.4278805518e+00 2.4731616629e+00 
76500 3.5022719329e+00 -4.1262882437e-02 1.4292847699e+00 -2.4755938400e+00 1.4292847699e+00 2.4755938400e+00 
76600 3.5014883357e+00 -4.2467178083e-02 1.4307284928e+00 -2.4780944413e+00 1.4307284928e+00 2.4780944413e+00 
76700 3.5006712145e+00 -4.3708410371e-02 1.4322128594e+00 -2.4806654397e+00 1.4322128594e+00 2.4806654397e+00 
76800 3.4998190807e+00 -4.4987556103e-02 1.4337390349e+00 -2.4833088532e+00 1.4337390349e+00 2.4833088532e+00 
76900 3.4989303879e+00 -4.6305592444e-02 1.4353082100e+00 -2.4860267442e+00 1.4353082100e+00 2.4860267442e+00 
77000 3.4980035310e+00 -4.7663493559e-02 1.4369216006e+00 -2.4888212187e+00 1.4369216006e+00 2.4888212187e+00 
77100 3.4970368458e+00 -4.9062226857e-02 1.4385804473e+00 -2.4916944254e+00 1.4385804473e+00 2.4916944254e+00 
77200 3.4960286092e+00 -5.0502748808e-02 1.4402860143e+00 -2.4946485542e+00 1.4402860143e+00 2.4946485542e+00 
77300 3.4949770384e+00 -5.1986000336e-02 1.4420395890e+00 -2.4976858347e+00 1.4420395890e+00 2.4976858347e+00 
77400 3.4938802925e+00 -5.3512901720e-02 1.4438424805e+00 -2.5008085343e+00 1.4438424805e+00 2.5008085343e+00 
77500 3.4927364724e+00 -5.5084347020e-02 1.4456960183e+00 -2.5040189560e+00 1.4456960183e+00 2.5040189560e+00 
77600 3.4915436230e+00 -5.6701197970e-02 1.4476015513e+00 -2.5073194360e+00 1.4476015513e+00 2.5073194360e+00 
77700 3.4902997344e+00 -5.8364277336e-02 1.4495604455e+00 -2.5107123403e+00 1.4495604455e+00 2.5107123403e+00 
77800 3.4890027449e+00 -6.0074361718e-02 1.4515740824e+00 -2.5142000617e+00 1.4515740824e+00 2.5142000617e+00 
77900 3.4876505439e+00 -6.1832173766e-02 1.4536438567e+00 -2.5177850160e+00 1.4536438567e+00 2.5177850160e+00 
78000 3.4862409760e+00 -6.3638373822e-02 1.4557711738e+00 -2.5214696373e+00 1.4557711738e+00 2.5214696373e+00 
78100 3.4847718453e+00 -6.5493550958e-02 1.4579574472e+00 -2.5252563738e+00 1.4579574472e+00 2.5252563738e+00 
78200 3.4832409213e+00 -6.7398213433e-02 1.4602040951e+00 -2.5291476822e+00 1.4602040951e+00 2.5291476822e+00 
78300 3.4816459453e+00 -6.9352778558e-02 1.4625125375e+00 -2.5331460216e+00 1.4625125375e+00 2.5331460216e+00 
78400 3.4799846379e+00 -7.1357562000e-02 1.4648841919e+00 -2.5372538476e+00 1.4648841919e+00 2.5372538476e+00 
78500 3.4782547075e+00 -7.3412766553e-02 1.4673204699e+00 -2.5414736049e+00 1.4673204699e+00 2.5414736049e+00 
78600 3.4764538605e+00 -7.5518470402e-02 1.4698227723e+00 -2.5458077198e+00 1.4698227723e+00 2.5458077198e+00 
78700 3.4745798121e+00 -7.7674614950e-02 1.4723924845e+00 -2.5502585919e+00 1.4723924845e+00 2.5502585919e+00 
78800 3.4726302984e+00 -7.9880992275e-02 1.4750309714e+00 -2.5548285852e+00 1.4750309714e+00 2.5548285852e+00 
78900 3.4706030906e+00 -8.2137232281e-02 1.4777395718e+00 -2.5595200186e+00 1.4777395718e+00 2.5595200186e+00 
79000 3.4684960097e+00 -8.4442789679e-02 1.4805195924e+00 -2.5643351556e+00 1.4805195924e+00 2.5643351556e+00 
79100 3.4663069434e+00 -8.6796930885e-02 1.4833723019e+00 -2.5692761934e+00 1.4833723019e+00 2.5692761934e+00 
79200 3.4640338636e+00 -8.9198721003e-02 1.4862989241e+00 -2.5743452518e+00 1.4862989241e+00 2.5743452518e+00 
79300 3.4616748459e+00 -9.1647011039e-02 1.4893006310e+00 -2.5795443606e+00 1.4893006310e+00 2.5795443606e+00 
79400 3.4592280905e+00 -9.4140425527e-02 1.4923785355e+00 -2.5848754476e+00 1.4923785355e+00 2.5848754476e+00 
79500 3.4566919440e+00 -9.6677350785e-02 1.4955336839e+00 -2.5903403250e+00 1.4955336839e+00 2.5903403250e+00 
79600 3.4540649223e+00 -9.9255923997e-02 1.4987670480e+00 -2.5959406759e+00 1.4987670480e+00 2.5959406759e+00 
79700 3.4513457355e+00 -1.0187402339e-01 1.5020795172e+00 -2.6016780408e+00 1.5020795172e+00 2.6016780408e+00 
79800 3.4485333124e+00 -1.0452925974e-01 1.5054718898e+00 -2.6075538025e+00 1.5054718898e+00 2.6075538025e+00 
79900 3.4456268264e+00 -1.0721896947e-01 1.5089448654e+00 -2.6135691726e+00 1.5089448654e+00 2.6135691726e+00 
80000 3.4426257218e+00 -1.0994020965e-01 1.5124990358e+00 -2.6197251764e+00 1.5124990358e+00 2.6197251764e+00 
80100 3.4395297394e+00 -1.1268975516e-01 1.5161348772e+00 -2.6260226385e+00 1.5161348772e+00 2.6260226385e+00 
80200 3.4363389433e+00 -1.1546409822e-01 1.5198527417e+00 -2.6324621687e+00 1.5198527417e+00 2.6324621687e+00 
80300 3.4330537453e+00 -1.1825945075e-01 1.5236528492e+00 -2.6390441479e+00 1.5236528492e+00 2.6390441479e+00 
80400 3.4296749292e+00 -1.2107174954e-01 1.5275352796e+00 -2.6457687147e+00 1.5275352796e+00 2.6457687147e+00 
80500 3.4262036735e+00 -1.2389666468e-01 1.5314999660e+00 -2.6526357528e+00 1.5314999660e+00 2.6526357528e+00 
80600 3.4226415716e+00 -1.2672961138e-01 1.5355466869e+00 -2.6596448791e+00 1.5355466869e+00 2.6596448791e+00 
80700 3.4189906495e+00 -1.2956576515e-01 1.5396750609e+00 -2.6667954326e+00 1.5396750609e+00 2.6667954326e+00 
80800 3.4152533809e+00 -1.3240008075e-01 1.5438845405e+00 -2.6740864652e+00 1.5438845405e+00 2.6740864652e+00 
80900 3.4114326976e+00 -1.3522731464e-01 1.5481744079e+00 -2.6815167334e+00 1.5481744079e+00 2.6815167334e+00 
81000 3.4075319968e+00 -1.3804205103e-01 1.5525437707e+00 -2.6890846918e+00 1.5525437707e+00 2.6890846918e+00 
81100 3.4035551432e+00 -1.4083873141e-01 1.5569915597e+00 -2.6967884884e+00 1.5569915597e+00 2.6967884884e+00 
81200 3.3995064662e+00 -1.4361168731e-01 1.5615165271e+00 -2.7046259617e+00 1.5615165271e+00 2.7046259617e+00 
81300 3.3953907518e+00 -1.4635517599e-01 1.5661172458e+00 -2.7125946403e+00 1.5661172458e+00 2.7125946403e+00 
81400 3.3912132286e+00 -1.4906341880e-01 1.5707921108e+00 -2.7206917441e+00 1.5707921108e+00 2.7206917441e+00 
81500 3.3869795487e+00 -1.5173064156e-01 1.5755393411e+00 -2.7289141882e+00 1.5755393411e+00 2.7289141882e+00 
81600 3.3826957617e+00 -1.5435111666e-01 1.5803569832e+00 -2.7372585890e+00 1.5803569832e+00 2.7372585890e+00 
81700 3.3783682834e+00 -1.5691920608e-01 1.5852429162e+00 -2.7457212731e+00 1.5852429162e+00 2.7457212731e+00 
81800 3.3740038596e+00 -1.5942940485e-01 1.5901948577e+00 -2.7542982875e+00 1.5901948577e+00 2.7542982875e+00 
81900 3.3696095230e+00 -1.6187638407e-01 1.5952103722e+00 -2.7629854134e+00 1.5952103722e+00 2.7629854134e+00 
82000 3.3651925470e+00 -1.6425503304e-01 1.6002868789e+00 -2.7717781810e+00 1.6002868789e+00 2.7717781810e+00 
82100 3.3607603941e+00 -1.6656049948e-01 1.6054216628e+00 -2.7806718875e+00 1.6054216628e+00 2.7806718875e+00 
82200 3.3563206612e+00 -1.6878822742e-01 1.6106118852e+00 -2.7896616164e+00 1.6106118852e+00 2.7896616164e+00 
82300 3.3518810219e+00 -1.7093399192e-01 1.6158545961e+00 -2.7987422581e+00 1.6158545961e+00 2.7987422581e+00 
82400 3.3474491674e+00 -1.7299393006e-01 1.6211467475e+00 -2.8079085332e+00 1.6211467475e+00 2.8079085332e+00 
82500 3.3430327461e+00 -1.7496456772e-01 1.6264852066e+00 -2.8171550156e+00 1.6264852066e+00 2.8171550156e+00 
82600 3.3386393031e+00 -1.7684284165e-01 1.6318667705e+00 -2.8264761577e+00 1.6318667705e+00 2.8264761577e+00 
82700 3.3342762211e+00 -1.7862611649e-01 1.6372881807e+00 -2.8358663155e+00 1.6372881807e+00 2.8358663155e+00 
82800 3.3299506630e+00 -1.8031219656e-01 1.6427461378e+00 -2.8453197746e+00 1.6427461378e+00 2.8453197746e+00 
82900 3.3256695179e+00 -1.8189933223e-01 1.6482373168e+00 -2.8548307756e+00 1.6482373168e+00 2.8548307756e+00 
83000 3.3214393500e+00 -1.8338622100e-01 1.6537583812e+00 -2.8643935397e+00 1.6537583812e+00 2.8643935397e+00 
83100 3.3172663531e+00 -1.8477200322e-01 1.6593059979e+00 -2.8740022936e+00 1.6593059979e+00 2.8740022936e+00 
83200 3.3131563093e+00 -1.8605625285e-01 1.6648768507e+00 -2.8836512937e+00 1.6648768507e+00 2.8836512937e+00 
83300 3.3091145543e+00 -1.8723896350e-01 1.6704676540e+00 -2.8933348491e+00 1.6704676540e+00 2.8933348491e+00 
83400 3.3051459485e+00 -1.8832053022e-01 1.6760751648e+00 -2.9030473428e+00 1.6760751648e+00 2.9030473428e+00 
83500 3.3012548543e+00 -1.8930172733e-01 1.6816961950e+00 -2.9127832526e+00 1.6816961950e+00 2.9127832526e+00 
83600 3.2974451203e+00 -1.9018368319e-01 1.6873276214e+00 -2.9225371693e+00 1.6873276214e+00 2.9225371693e+00 
83700 3.2937200719e+00 -1.9096785205e-01 1.6929663959e+00 -2.9323038132e+00 1.6929663959e+00 2.9323038132e+00 
83800 3.2900825084e+00 -1.9165598394e-01 1.6986095538e+00 -2.9420780494e+00 1.6986095538e+00 2.9420780494e+00 
83900 3.2865347058e+00 -1.9225009292e-01 1.7042542213e+00 -2.9518549003e+00 1.7042542213e+00 2.9518549003e+00 
84000 3.2830784264e+00 -1.9275242451e-01 1.7098976219e+00 -2.9616295569e+00 1.7098976219e+00 2.9616295569e+00 
84100 3.2797149324e+00 -1.9316542267e-01 1.7155370815e+00 -2.9713973875e+00 1.7155370815e+00 2.9713973875e+00 
84200 3.2764450051e+00 -1.9349169694e-01 1.7211700326e+00 -2.9811539450e+00 1.7211700326e+00 2.9811539450e+00 
84300 3.2732689687e+00 -1.9373399029e-01 1.7267940171e+00 -2.9908949718e+00 1.7267940171e+00 2.9908949718e+00 
84400 3.2701867164e+00 -1.9389514798e-01 1.7324066884e+00 -3.0006164036e+00 1.7324066884e+00 3.0006164036e+00 
84500 3.2671977407e+00 -1.9397808785e-01 1.7380058125e+00 -3.0103143710e+00 1.7380058125e+00 3.0103143710e+00 
84600 3.2643011655e+00 -1.9398577244e-01 1.7435892679e+00 -3.0199851996e+00 1.7435892679e+00 3.0199851996e+00 
84700 3.2614957798e+00 -1.9392118305e-01 1.7491550453e+00 -3.0296254088e+00 1.7491550453e+00 3.0296254088e+00 
84800 3.2587800727e+00 -1.9378729605e-01 1.7547012457e+00 -3.0392317096e+00 1.7547012457e+00 3.0392317096e+00 
84900 3.2561522688e+00 -1.9358706149e-01 1.7602260784e+00 -3.0488010005e+00 1.7602260784e+00 3.0488010005e+00 
85000 3.2536103633e+00 -1.9332338418e-01 1.7657278586e+00 -3.0583303635e+00 1.7657278586e+00 3.0583303635e+00 
85100 3.2511521573e+00 -1.9299910717e-01 1.7712050042e+00 -3.0678170578e+00 1.7712050042e+00 3.0678170578e+00 
85200 3.2487752914e+00 -1.9261699772e-01 1.7766560318e+00 -3.0772585146e+00 1.7766560318e+00 3.0772585146e+00 
85300 3.2464772782e+00 -1.9217973556e-01 1.7820795534e+00 -3.0866523297e+00 1.7820795534e+00 3.0866523297e+00 
85400 3.2442555337e+00 -1.9168990356e-01 1.7874742721e+00 -3.0959962565e+00 1.7874742721e+00 3.0959962565e+00 
85500 3.2421074059e+00 -1.9114998052e-01 1.7928389774e+00 -3.1052881986e+00 1.7928389774e+00 3.1052881986e+00 
85600 3.2400302021e+00 -1.9056233596e-01 1.7981725414e+00 -3.1145262025e+00 1.7981725414e+00 3.1145262025e+00 
85700 3.2380212135e+00 -1.8992922686e-01 1.8034739140e+00 -3.1237084491e+00 1.8034739140e+00 3.1237084491e+00 
85800 3.2360777380e+00 -1.8925279609e-01 1.8087421183e+00 -3.1328332467e+00 1.8087421183e+00 3.1328332467e+00 
85900 3.2341971000e+00 -1.8853507238e-01 1.8139762466e+00 -3.1418990228e+00 1.8139762466e+00 3.1418990228e+00 
86000 3.2323766684e+00 -1.8777797163e-01 1.8191754556e+00 -3.1509043171e+00 1.8191754556e+00 3.1509043171e+00 
86100 3.2306138722e+00 -1.8698329942e-01 1.8243389628e+00 -3.1598477738e+00 1.8243389628e+00 3.1598477738e+00 
86200 3.2289062131e+00 -1.8615275455e-01 1.8294660417e+00 -3.1687281349e+00 1.8294660417e+00 3.1687281349e+00 
86300 3.2272512774e+00 -1.8528793333e-01 1.8345560185e+00 -3.1775442334e+00 1.8345560185e+00 3.1775442334e+00 
86400 3.2256467443e+00 -1.8439033464e-01 1.8396082683e+00 -3.1862949867e+00 1.8396082683e+00 3.1862949867e+00 
86500 3.2240903932e+00 -1.8346136543e-01 1.8446222116e+00 -3.1949793912e+00 1.8446222116e+00 3.1949793912e+00 
86600 3.2225801087e+00 -1.8250234666e-01 1.8495973109e+00 -3.2035965161e+00 1.8495973109e+00 3.2035965161e+00 
86700 3.2211138847e+00 -1.8151451943e-01 1.8545330681e+00 -3.2121454983e+00 1.8545330681e+00 3.2121454983e+00 
86800 3.2196898257e+00 -1.8049905127e-01 1.8594290213e+00 -3.2206255379e+00 1.8594290213e+00 3.2206255379e+00 
86900 3.2183061483e+00 -1.7945704246e-01 1.8642847423e+00 -3.2290358934e+00 1.8642847423e+00 3.2290358934e+00 
87000 3.2169611802e+00 -1.7838953227e-01 1.8690998346e+00 -3.2373758779e+00 1.8690998346e+00 3.2373758779e+00 
87100 3.2156533587e+00 -1.7729750506e-01 1.8738739308e+00 -3.2456448551e+00 1.8738739308e+00 3.2456448551e+00 
87200 3.2143812285e+00 -1.7618189614e-01 1.8786066909e+00 -3.2538422361e+00 1.8786066909e+00 3.2538422361e+00 
87300 3.2131434384e+00 -1.7504359745e-01 1.8832978008e+00 -3.2619674768e+00 1.8832978008e+00 3.2619674768e+00 
87400 3.2119387372e+00 -1.7388346280e-01 1.8879469702e+00 -3.2700200744e+00 1.8879469702e+00 3.2700200744e+00 
87500 3.2107659696e+00 -1.7270231288e-01 1.8925539317e+00 -3.2779995658e+00 1.8925539317e+00 3.2779995658e+00 
87600 3.2096240711e+00 -1.7150093984e-01 1.8971184394e+00 -3.2859055250e+00 1.8971184394e+00 3.2859055250e+00 
87700 3.2085120631e+00 -1.7028011149e-01 1.9016402678e+00 -3.2937375615e+00 1.9016402678e+00 3.2937375615e+00 
87800 3.2074290474e+00 -1.6904057512e-01 1.9061192109e+00 -3.3014953186e+00 1.9061192109e+00 3.3014953186e+00 
87900 3.2063742007e+00 -1.6778306091e-01 1.9105550815e+00 -3.3091784718e+00 1.9105550815e+00 3.3091784718e+00 
88000 3.2053467689e+00 -1.6650828496e-01 1.9149477102e+00 -3.3167867279e+00 1.9149477102e+00 3.3167867279e+00 
88100 3.2043460617e+00 -1.6521695195e-01 1.9192969451e+00 -3.3243198236e+00 1.9192969451e+00 3.3243198236e+00 
88200 3.2033714467e+00 -1.6390975739e-01 1.9236026510e+00 -3.3317775251e+00 1.9236026510e+00 3.3317775251e+00 
88300 3.2024223445e+00 -1.6258738957e-01 1.9278647092e+00 -3.3391596265e+00 1.9278647092e+00 3.3391596265e+00 
88400 3.2014982226e+00 -1.6125053113e-01 1.9320830169e+00 -3.3464659497e+00 1.9320830169e+00 3.3464659497e+00 
88500 3.2005985908e+00 -1.5989986036e-01 1.9362574869e+00 -3.3536963438e+00 1.9362574869e+00 3.3536963438e+00 
88600 3.1997229960e+00 -1.5853605220e-01 1.9403880473e+00 -3.3608506843e+00 1.9403880473e+00 3.3608506843e+00 
88700 3.1988710175e+00 -1.5715977897e-01 1.9444746413e+00 -3.3679288728e+00 1.9444746413e+00 3.3679288728e+00 
88800 3.1980422624e+00 -1.5577171088e-01 1.9485172269e+00 -3.3749308365e+00 1.9485172269e+00 3.3749308365e+00 
88900 3.1972363615e+00 -1.5437251629e-01 1.9525157766e+00 -3.3818565277e+00 1.9525157766e+00 3.3818565277e+00 
89000 3.1964529648e+00 -1.5296286187e-01 1.9564702774e+00 -3.3887059240e+00 1.9564702774e+00 3.3887059240e+00 
89100 3.1956917386e+00 -1.5154341246e-01 1.9603807303e+00 -3.3954790271e+00 1.9603807303e+00 3.3954790271e+00 
89200 3.1949523611e+00 -1.5011483095e-01 1.9642471505e+00 -3.4021758633e+00 1.9642471505e+00 3.4021758633e+00 
89300 3.1942345201e+00 -1.4867777789e-01 1.9680695669e+00 -3.4087964826e+00 1.9680695669e+00 3.4087964826e+00 
89400 3.1935379093e+00 -1.4723291111e-01 1.9718480218e+00 -3.4153409586e+00 1.9718480218e+00 3.4153409586e+00 
89500 3.1928622263e+00 -1.4578088521e-01 1.9755825714e+00 -3.4218093882e+00 1.9755825714e+00 3.4218093882e+00 
89600 3.1922071697e+00 -1.4432235099e-01 1.9792732847e+00 -3.4282018912e+00 1.9792732847e+00 3.4282018912e+00 
89700 3.1915724376e+00 -1.4285795486e-01 1.9829202439e+00 -3.4345186097e+00 1.9829202439e+00 3.4345186097e+00 
89800 3.1909577249e+00 -1.4138833822e-01 1.9865235438e+00 -3.4407597084e+00 1.9865235438e+00 3.4407597084e+00 
89900 3.1903627229e+00 -1.3991413675e-01 1.9900832922e+00 -3.4469253733e+00 1.9900832922e+00 3.4469253733e+00 
90000 3.1897871167e+00 -1.3843597984e-01 1.9935996087e+00 -3.4530158122e+00 1.9935996087e+00 3.4530158122e+00 
90100 3.1892305850e+00 -1.3695448986e-01 1.9970726253e+00 -3.4590312535e+00 1.9970726253e+00 3.4590312535e+00 
90200 3.1886927987e+00 -1.3547028154e-01 2.0005024859e+00 -3.4649719463e+00 2.0005024859e+00 3.4649719463e+00 
90300 3.1881734207e+00 -1.3398396138e-01 2.0038893458e+00 -3.4708381596e+00 2.0038893458e+00 3.4708381596e+00 
90400 3.1876721050e+00 -1.3249612703e-01 2.0072333716e+00 -3.4766301822e+00 2.0072333716e+00 3.4766301822e+00 
90500 3.1871884963e+00 -1.3100736674e-01 2.0105347410e+00 -3.4823483218e+00 2.0105347410e+00 3.4823483218e+00 
90600 3.1867222306e+00 -1.2951825886e-01 2.0137936425e+00 -3.4879929047e+00 2.0137936425e+00 3.4879929047e+00 
90700 3.1862729346e+00 -1.2802937128e-01 2.0170102748e+00 -3.4935642753e+00 2.0170102748e+00 3.4935642753e+00 
90800 3.1858402262e+00 -1.2654126110e-01 2.0201848470e+00 -3.4990627956e+00 2.0201848470e+00 3.4990627956e+00 
90900 3.1854237148e+00 -1.2505447414e-01 2.0233175778e+00 -3.5044888446e+00 2.0233175778e+00 3.5044888446e+00 
91000 3.1850230018e+00 -1.2356954461e-01 2.0264086956e+00 -3.5098428177e+00 2.0264086956e+00 3.5098428177e+00 
91100 3.1846376811e+00 -1.2208699484e-01 2.0294584379e+00 -3.5151251262e+00 2.0294584379e+00 3.5151251262e+00 
91200 3.1842673400e+00 -1.2060733492e-01 2.0324670510e+00 -3.5203361971e+00 2.0324670510e+00 3.5203361971e+00 
91300 3.1839115599e+00 -1.1913106258e-01 2.0354347901e+00 -3.5254764719e+00 2.0354347901e+00 3.5254764719e+00 
91400 3.1835699170e+00 -1.1765866293e-01 2.0383619182e+00 -3.5305464065e+00 2.0383619182e+00 3.5305464065e+00 
91500 3.1832419836e+00 -1.1619060832e-01 2.0412487066e+00 -3.5355464706e+00 2.0412487066e+00 3.5355464706e+00 
91600 3.1829273285e+00 -1.1472735826e-01 2.0440954339e+00 -3.5404771471e+00 2.0440954339e+00 3.5404771471e+00 
91700 3.1826255186e+00 -1.1326935934e-01 2.0469023864e+00 -3.5453389313e+00 2.0469023864e+00 3.5453389313e+00 
91800 3.1823361198e+00 -1.1181704515e-01 2.0496698570e+00 -3.5501323310e+00 2.0496698570e+00 3.5501323310e+00 
91900 3.1820586977e+00 -1.1037083633e-01 2.0523981454e+00 -3.5548578653e+00 2.0523981454e+00 3.5548578653e+00 
92000 3.1817928190e+00 -1.0893114051e-01 2.0550875579e+00 -3.5595160643e+00 2.0550875579e+00 3.5595160643e+00 
92100 3.1815380526e+00 -1.0749835243e-01 2.0577384066e+00 -3.5641074690e+00 2.0577384066e+00 3.5641074690e+00 
92200 3.1812939703e+00 -1.0607285395e-01 2.0603510095e+00 -3.5686326299e+00 2.0603510095e+00 3.5686326299e+00 
92300 3.1810601484e+00 -1.0465501417e-01 2.0629256901e+00 -3.5730921074e+00 2.0629256901e+00 3.5730921074e+00 
92400 3.1808361679e+00 -1.0324518949e-01 2.0654627770e+00 -3.5774864709e+00 2.0654627770e+00 3.5774864709e+00 
92500 3.1806216161e+00 -1.0184372379e-01 2.0679626038e+00 -3.5818162980e+00 2.0679626038e+00 3.5818162980e+00 
92600 3.1804160872e+00 -1.0045094851e-01 2.0704255089e+00 -3.5860821747e+00 2.0704255089e+00 3.5860821747e+00 
92700 3.1802191835e+00 -9.9067182805e-02 2.0728518348e+00 -3.5902846945e+00 2.0728518348e+00 3.5902846945e+00 
92800 3.1800305154e+00 -9.7692733728e-02 2.0752419284e+00 -3.5944244579e+00 2.0752419284e+00 3.5944244579e+00 
92900 3.1798497032e+00 -9.6327896356e-02 2.0775961401e+00 -3.5985020723e+00 2.0775961401e+00 3.5985020723e+00 
93000 3.1796763769e+00 -9.4972953972e-02 2.0799148244e+00 -3.6025181513e+00 2.0799148244e+00 3.6025181513e+00 
93100 3.1795101772e+00 -9.3628178236e-02 2.0821983389e+00 -3.6064733143e+00 2.0821983389e+00 3.6064733143e+00 
93200 3.1793507561e+00 -9.2293829356e-02 2.0844470442e+00 -3.6103681862e+00 2.0844470442e+00 3.6103681862e+00 
93300 3.1791977771e+00 -9.0970156264e-02 2.0866613041e+00 -3.6142033968e+00 2.0866613041e+00 3.6142033968e+00 
93400 3.1790509157e+00 -8.9657396789e-02 2.0888414849e+00 -3.6179795807e+00 2.0888414849e+00 3.6179795807e+00 
93500 3.1789098601e+00 -8.8355777836e-02 2.0909879554e+00 -3.6216973767e+00 2.0909879554e+00 3.6216973767e+00 
93600 3.1787743105e+00 -8.7065515556e-02 2.0931010867e+00 -3.6253574275e+00 2.0931010867e+00 3.6253574275e+00 
93700 3.1786439805e+00 -8.5786815517e-02 2.0951812519e+00 -3.6289603793e+00 2.0951812519e+00 3.6289603793e+00 
93800 3.1785185962e+00 -8.4519872871e-02 2.0972288259e+00 -3.6325068815e+00 2.0972288259e+00 3.6325068815e+00 
93900 3.1783978967e+00 -8.3264872521e-02 2.0992441852e+00 -3.6359975863e+00 2.0992441852e+00 3.6359975863e+00 
94000 3.1782816342e+00 -8.2021989279e-02 2.1012277079e+00 -3.6394331484e+00 2.1012277079e+00 3.6394331484e+00 
94100 3.1781695735e+00 -8.0791388023e-02 2.1031797733e+00 -3.6428142247e+00 2.1031797733e+00 3.6428142247e+00 
94200 3.1780614924e+00 -7.9573223849e-02 2.1051007615e+00 -3.6461414740e+00 2.1051007615e+00 3.6461414740e+00 
94300 3.1779571809e+00 -7.8367642221e-02 2.1069910540e+00 -3.6494155565e+00 2.1069910540e+00 3.6494155565e+00 
94400 3.1778564416e+00 -7.7174779112e-02 2.1088510324e+00 -3.6526371338e+00 2.1088510324e+00 3.6526371338e+00 
94500 3.1777590889e+00 -7.5994761146e-02 2.1106810794e+00 -3.6558068681e+00 2.1106810794e+00 3.6558068681e+00 
94600 3.1776649489e+00 -7.4827705732e-02 2.1124815778e+00 -3.6589254227e+00 2.1124815778e+00 3.6589254227e+00 
94700 3.1775738590e+00 -7.3673721199e-02 2.1142529104e+00 -3.6619934609e+00 2.1142529104e+00 3.6619934609e+00 
94800 3.1774856676e+00 -7.2532906920e-02 2.1159954605e+00 -3.6650116462e+00 2.1159954605e+00 3.6650116462e+00 
94900 3.1774002334e+00 -7.1405353441e-02 2.1177096109e+00 -3.6679806418e+00 2.1177096109e+00 3.6679806418e+00 
95000 3.1773174253e+00 -7.0291142601e-02 2.1193957444e+00 -3.6709011106e+00 2.1193957444e+00 3.6709011106e+00 
95100 3.1772371217e+00 -6.9190347657e-02 2.1210542431e+00 -3.6737737146e+00 2.1210542431e+00 3.6737737146e+00 
95200 3.1771592100e+00 -6.8103033393e-02 2.1226854887e+00 -3.6765991149e+00 2.1226854887e+00 3.6765991149e+00 
95300 3.1770835864e+00 -6.7029256247e-02 2.1242898622e+00 -3.6793779712e+00 2.1242898622e+00 3.6793779712e+00 
95400 3.1770101549e+00 -6.5969064416e-02 2.1258677435e+00 -3.6821109419e+00 2.1258677435e+00 3.6821109419e+00 
95500 3.1769388271e+00 -6.4922497978e-02 2.1274195118e+00 -3.6847986834e+00 2.1274195118e+00 3.6847986834e+00 
95600 3.1768695219e+00 -6.3889589002e-02 2.1289455449e+00 -3.6874418504e+00 2.1289455449e+00 3.6874418504e+00 
95700 3.1768021645e+00 -6.2870361660e-02 2.1304462195e+00 -3.6900410950e+00 2.1304462195e+00 3.6900410950e+00 
95800 3.1767366862e+00 -6.1864832344e-02 2.1319219107e+00 -3.6925970670e+00 2.1319219107e+00 3.6925970670e+00 
95900 3.1766730239e+00 -6.0873009781e-02 2.1333729921e+00 -3.6951104138e+00 2.1333729921e+00 3.6951104138e+00 
96000 3.1766111194e+00 -5.9894895143e-02 2.1347998356e+00 -3.6975817793e+00 2.1347998356e+00 3.6975817793e+00 
96100 3.1765509195e+00 -5.8930482172e-02 2.1362028114e+00 -3.7000118047e+00 2.1362028114e+00 3.7000118047e+00 
96200 3.1764923748e+00 -5.7979757291e-02 2.1375822877e+00 -3.7024011276e+00 2.1375822877e+00 3.7024011276e+00 
96300 3.1764354398e+00 -5.7042699730e-02 2.1389386304e+00 -3.7047503821e+00 2.1389386304e+00 3.7047503821e+00 
96400 3.1763800724e+00 -5.6119281646e-02 2.1402722036e+00 -3.7070601986e+00 2.1402722036e+00 3.7070601986e+00 
96500 3.1763262332e+00 -5.5209468248e-02 2.1415833687e+00 -3.7093312033e+00 2.1415833687e+00 3.7093312033e+00 
96600 3.1762738856e+00 -5.4313217928e-02 2.1428724851e+00 -3.7115640183e+00 2.1428724851e+00 3.7115640183e+00 
96700 3.1762229954e+00 -5.3430482389e-02 2.1441399093e+00 -3.7137592614e+00 2.1441399093e+00 3.7137592614e+00 
96800 3.1761735299e+00 -5.2561206782e-02 2.1453859953e+00 -3.7159175457e+00 2.1453859953e+00 3.7159175457e+00 
96900 3.1761254584e+00 -5.1705329842e-02 2.1466110943e+00 -3.7180394794e+00 2.1466110943e+00 3.7180394794e+00 
97000 3.1760787515e+00 -5.0862784029e-02 2.1478155547e+00 -3.7201256661e+00 2.1478155547e+00 3.7201256661e+00 
97100 3.1760333809e+00 -5.0033495672e-02 2.1489997219e+00 -3.7221767038e+00 2.1489997219e+00 3.7221767038e+00 
97200 3.1759893193e+00 -4.9217385121e-02 2.1501639382e+00 -3.7241931856e+00 2.1501639382e+00 3.7241931856e+00 
97300 3.1759465400e+00 -4.8414366898e-02 2.1513085428e+00 -3.7261756989e+00 2.1513085428e+00 3.7261756989e+00 
97400 3.1759050169e+00 -4.7624349848e-02 2.1524338715e+00 -3.7281248254e+00 2.1524338715e+00 3.7281248254e+00 
97500 3.1758647245e+00 -4.6847237309e-02 2.1535402569e+00 -3.7300411411e+00 2.1535402569e+00 3.7300411411e+00 
97600 3.1758256374e+00 -4.6082927266e-02 2.1546280280e+00 -3.7319252159e+00 2.1546280280e+00 3.7319252159e+00 
97700 3.1757877304e+00 -4.5331312528e-02 2.1556975105e+00 -3.7337776139e+00 2.1556975105e+00 3.7337776139e+00 
97800 3.1757509785e+00 -4.4592280894e-02 2.1567490262e+00 -3.7355988925e+00 2.1567490262e+00 3.7355988925e+00 
97900 3.1757153566e+00 -4.3865715331e-02 2.1577828934e+00 -3.7373896030e+00 2.1577828934e+00 3.7373896030e+00 
98000 3.1756808398e+00 -4.3151494153e-02 2.1587994265e+00 -3.7391502901e+00 2.1587994265e+00 3.7391502901e+00 
98100 3.1756474030e+00 -4.2449491208e-02 2.1597989363e+00 -3.7408814918e+00 2.1597989363e+00 3.7408814918e+00 
98200 3.1756150209e+00 -4.1759576061e-02 2.1607817294e+00 -3.7425837394e+00 2.1607817294e+00 3.7425837394e+00 
98300 3.1755836683e+00 -4.1081614185e-02 2.1617481085e+00 -3.7442575571e+00 2.1617481085e+00 3.7442575571e+00 
98400 3.1755533199e+00 -4.0415467158e-02 2.1626983724e+00 -3.7459034624e+00 2.1626983724e+00 3.7459034624e+00 
98500 3.1755239502e+00 -3.9760992859e-02 2.1636328156e+00 -3.7475219655e+00 2.1636328156e+00 3.7475219655e+00 
98600 3.1754955339e+00 -3.9118045667e-02 2.1645517286e+00 -3.7491135695e+00 2.1645517286e+00 3.7491135695e+00 
98700 3.1754680453e+00 -3.8486476665e-02 2.1654553976e+00 -3.7506787701e+00 2.1654553976e+00 3.7506787701e+00 
98800 3.1754414592e+00 -3.7866133845e-02 2.1663441046e+00 -3.7522180558e+00 2.1663441046e+00 3.7522180558e+00 
98900 3.1754157499e+00 -3.7256862317e-02 2.1672181273e+00 -3.7537319076e+00 2.1672181273e+00 3.7537319076e+00 
99000 3.1753908921e+00 -3.6658504518e-02 2.1680777391e+00 -3.7552207988e+00 2.1680777391e+00 3.7552207988e+00 
99100 3.1753668607e+00 -3.6070900422e-02 2.1689232089e+00 -3.7566851955e+00 2.1689232089e+00 3.7566851955e+00 
99200 3.1753436306e+00 -3.5493887756e-02 2.1697548014e+00 -3.7581255559e+00 2.1697548014e+00 3.7581255559e+00 
99300 3.1753211771e+00 -3.4927302211e-02 2.1705727767e+00 -3.7595423307e+00 2.1705727767e+00 3.7595423307e+00 
99400 3.1752994754e+00 -3.4370977658e-02 2.1713773905e+00 -3.7609359628e+00 2.1713773905e+00 3.7609359628e+00 
99500 3.1752785015e+00 -3.3824746362e-02 2.1721688942e+00 -3.7623068875e+00 2.1721688942e+00 3.7623068875e+00 
99600 3.1752582315e+00 -3.3288439197e-02 2.1729475346e+00 -3.7636555321e+00 2.1729475346e+00 3.7636555321e+00 
99700 3.1752386419e+00 -3.2761885862e-02 2.1737135539e+00 -3.7649823164e+00 2.1737135539e+00 3.7649823164e+00 
99800 3.1752197097e+00 -3.2244915090e-02 2.1744671899e+00 -3.7662876523e+00 2.1744671899e+00 3.7662876523e+00 
99900 3.1752014123e+00 -3.1737354864e-02 2.1752086761e+00 -3.7675719441e+00 2.1752086761e+00 3.7675719441e+00 
100000 3.1751837278e+00 -3.1239032627e-02 2.1759382412e+00 -3.7688355879e+00 2.1759382412e+00 3.7688355879e+00 
100100 3.1751666346e+00 -3.0749775489e-02 2.1766561097e+00 -3.7700789726e+00 2.1766561097e+00 3.7700789726e+00 
100200 3.1751501119e+00 -3.0269410432e-02 2.1773625015e+00 -3.7713024790e+00 2.1773625015e+00 3.7713024790e+00 
100300 3.1751341393e+00 -2.9797764516e-02 2.1780576319e+00 -3.7725064803e+00 2.1780576319e+00 3.7725064803e+00 
100400 3.1751186972e+00 -2.9334665075e-02 2.1787417122e+00 -3.7736913420e+00 2.1787417122e+00 3.7736913420e+00 
100500 3.1751037663e+00 -2.8879939915e-02 2.1794149488e+00 -3.7748574221e+00 2.1794149488e+00 3.7748574221e+00 
100600 3.1750893283e+00 -2.8433417504e-02 2.1800775441e+00 -3.7760050709e+00 2.1800775441e+00 3.7760050709e+00 
100700 3.1750753654e+00 -2.7994927159e-02 2.1807296960e+00 -3.7771346311e+00 2.1807296960e+00 3.7771346311e+00 
100800 3.1750618603e+00 -2.7564299230e-02 2.1813715982e+00 -3.7782464382e+00 2.1813715982e+00 3.7782464382e+00 
100900 3.1750487966e+00 -2.7141365273e-02 2.1820034398e+00 -3.7793408201e+00 2.1820034398e+00 3.7793408201e+00 
101000 3.1750361584e+00 -2.6725958224e-02 2.1826254062e+00 -3.7804180974e+00 2.1826254062e+00 3.7804180974e+00 
101100 3.1750239304e+00 -2.6317912564e-02 2.1832376781e+00 -3.7814785835e+00 2.1832376781e+00 3.7814785835e+00 
101200 3.1750120979e+00 -2.5917064475e-02 2.1838404326e+00 -3.7825225848e+00 2.1838404326e+00 3.7825225848e+00 
101300 3.1750006470e+00 -2.5523251995e-02 2.1844338422e+00 -3.7835504004e+00 2.1844338422e+00 3.7835504004e+00 
101400 3.1749895642e+00 -2.5136315161e-02 2.1850180757e+00 -3.7845623225e+00 2.1850180757e+00 3.7845623225e+00 
101500 3.1749788366e+00 -2.4756096149e-02 2.1855932979e+00 -3.7855586366e+00 2.1855932979e+00 3.7855586366e+00 
101600 3.1749684521e+00 -2.4382439402e-02 2.1861596696e+00 -3.7865396212e+00 2.1861596696e+00 3.7865396212e+00 
101700 3.1749583988e+00 -2.4015191757e-02 2.1867173479e+00 -3.7875055483e+00 2.1867173479e+00 3.7875055483e+00 
101800 3.1749486655e+00 -2.3654202557e-02 2.1872664860e+00 -3.7884566835e+00 2.1872664860e+00 3.7884566835e+00 
101900 3.1749392416e+00 -2.3299323762e-02 2.1878072335e+00 -3.7893932856e+00 2.1878072335e+00 3.7893932856e+00 
102000 3.1749301166e+00 -2.2950410044e-02 2.1883397363e+00 -3.7903156074e+00 2.1883397363e+00 3.7903156074e+00 
102100 3.1749212810e+00 -2.2607318884e-02 2.1888641367e+00 -3.7912238956e+00 2.1888641367e+00 3.7912238956e+00 
102200 3.1749127252e+00 -2.2269910652e-02 2.1893805737e+00 -3.7921183907e+00 2.1893805737e+00 3.7921183907e+00 
102300 3.1749044404e+00 -2.1938048684e-02 2.1898891827e+00 -3.7929993273e+00 2.1898891827e+00 3.7929993273e+00 
102400 3.1748964180e+00 -2.1611599347e-02 2.1903900958e+00 -3.7938669343e+00 2.1903900958e+00 3.7938669343e+00 
102500 3.1748886497e+00 -2.1290432103e-02 2.1908834419e+00 -3.7947214349e+00 2.1908834419e+00 3.7947214349e+00 
102600 3.1748811278e+00 -2.0974419554e-02 2.1913693468e+00 -3.7955630468e+00 2.1913693468e+00 3.7955630468e+00 
102700 3.1748738447e+00 -2.0663437490e-02 2.1918479330e+00 -3.7963919825e+00 2.1918479330e+00 3.7963919825e+00 
102800 3.1748667931e+00 -2.0357364921e-02 2.1923193202e+00 -3.7972084489e+00 2.1923193202e+00 3.7972084489e+00 
102900 3.1748599660e+00 -2.0056084106e-02 2.1927836249e+00 -3.7980126483e+00 2.1927836249e+00 3.7980126483e+00 
103000 3.1748533568e+00 -1.9759480574e-02 2.1932409609e+00 -3.7988047776e+00 2.1932409609e+00 3.7988047776e+00 
103100 3.1748469590e+00 -1.9467443131e-02 2.1936914394e+00 -3.7995850292e+00 2.1936914394e+00 3.7995850292e+00 
103200 3.1748407664e+00 -1.9179863873e-02 2.1941351686e+00 -3.8003535907e+00 2.1941351686e+00 3.8003535907e+00 
103300 3.1748347729e+00 -1.8896638175e-02 2.1945722543e+00 -3.8011106453e+00 2.1945722543e+00 3.8011106453e+00 
103400 3.1748289726e+00 -1.8617664691e-02 2.1950027996e+00 -3.8018563716e+00 2.1950027996e+00 3.8018563716e+00 
103500 3.1748233600e+00 -1.8342845330e-02 2.1954269053e+00 -3.8025909443e+00 2.1954269053e+00 3.8025909443e+00 
103600 3.1748179295e+00 -1.8072085242e-02 2.1958446698e+00 -3.8033145335e+00 2.1958446698e+00 3.8033145335e+00 
103700 3.1748126759e+00 -1.7805292782e-02 2.1962561891e+00 -3.8040273059e+00 2.1962561891e+00 3.8040273059e+00 
103800 3.1748075939e+00 -1.7542379483e-02 2.1966615571e+00 -3.8047294239e+00 2.1966615571e+00 3.8047294239e+00 
103900 3.1748026784e+00 -1.7283260013e-02 2.1970608655e+00 -3.8054210464e+00 2.1970608655e+00 3.8054210464e+00 
104000 3.1747979247e+00 -1.7027852130e-02 2.1974542041e+00 -3.8061023288e+00 2.1974542041e+00 3.8061023288e+00 
104100 3.1747933279e+00 -1.6776076636e-02 2.1978416605e+00 -3.8067734229e+00 2.1978416605e+00 3.8067734229e+00 
104200 3.1747888833e+00 -1.6527857317e-02 2.1982233204e+00 -3.8074344773e+00 2.1982233204e+00 3.8074344773e+00 
104300 3.1747845864e+00 -1.6283120890e-02 2.1985992678e+00 -3.8080856374e+00 2.1985992678e+00 3.8080856374e+00 
104400 3.1747804327e+00 -1.6041796939e-02 2.1989695849e+00 -3.8087270454e+00 2.1989695849e+00 3.8087270454e+00 
104500 3.1747764178e+00 -1.5803817845e-02 2.1993343522e+00 -3.8093588408e+00 2.1993343522e+00 3.8093588408e+00 
104600 3.1747725377e+00 -1.5569118722e-02 2.1996936483e+00 -3.8099811600e+00 2.1996936483e+00 3.8099811600e+00 
104700 3.1747687880e+00 -1.5337637342e-02 2.2000475507e+00 -3.8105941369e+00 2.2000475507e+00 3.8105941369e+00 
104800 3.1747651647e+00 -1.5109314059e-02 2.2003961350e+00 -3.8111979027e+00 2.2003961350e+00 3.8111979027e+00 
104900 3.1747616639e+00 -1.4884091731e-02 2.2007394756e+00 -3.8117925860e+00 2.2007394756e+00 3.8117925860e+00 
105000 3.1747582816e+00 -1.4661915645e-02 2.2010776455e+00 -3.8123783133e+00 2.2010776455e+00 3.8123783133e+00 
105100 3.1747550142e+00 -1.4442733427e-02 2.2014107161e+00 -3.8129552085e+00 2.2014107161e+00 3.8129552085e+00 
105200 3.1747518580e+00 -1.4226494968e-02 2.2017387578e+00 -3.8135233935e+00 2.2017387578e+00 3.8135233935e+00 
105300 3.1747488092e+00 -1.4013152333e-02 2.2020618398e+00 -3.8140829879e+00 2.2020618398e+00 3.8140829879e+00 
105400 3.1747458645e+00 -1.3802659680e-02 2.2023800300e+00 -3.8146341095e+00 2.2023800300e+00 3.8146341095e+00 
105500 3.1747430203e+00 -1.3594973170e-02 2.2026933952e+00 -3.8151768740e+00 2.2026933952e+00 3.8151768740e+00 
105600 3.1747402734e+00 -1.3390050886e-02 2.2030020013e+00 -3.8157113954e+00 2.2030020013e+00 3.8157113954e+00 
105700 3.1747376205e+00 -1.3187852744e-02 2.2033059129e+00 -3.8162377858e+00 2.2033059129e+00 3.8162377858e+00 
105800 3.1747350584e+00 -1.2988340407e-02 2.2036051939e+00 -3.8167561557e+00 2.2036051939e+00 3.8167561557e+00 
105900 3.1747325841e+00 -1.2791477198e-02 2.2038999071e+00 -3.8172666139e+00 2.2038999071e+00 3.8172666139e+00 
106000 3.1747301946e+00 -1.2597228019e-02 2.2041901144e+00 -3.8177692677e+00 2.2041901144e+00 3.8177692677e+00 
106100 3.1747278870e+00 -1.2405559261e-02 2.2044758770e+00 -3.8182642230e+00 2.2044758770e+00 3.8182642230e+00 
106200 3.1747256584e+00 -1.2216438726e-02 2.2047572550e+00 -3.8187515841e+00 2.2047572550e+00 3.8187515841e+00 
106300 3.1747235062e+00 -1.2029835541e-02 2.2050343081e+00 -3.8192314540e+00 2.2050343081e+00 3.8192314540e+00 
106400 3.1747214277e+00 -1.1845720079e-02 2.2053070949e+00 -3.8197039346e+00 2.2053070949e+00 3.8197039346e+00 
106500 3.1747194203e+00 -1.1664063881e-02 2.2055756733e+00 -3.8201691261e+00 2.2055756733e+00 3.8201691261e+00 
106600 3.1747174815e+00 -1.1484839574e-02 2.2058401008e+00 -3.8206271280e+00 2.2058401008e+00 3.8206271280e+00 
106700 3.1747156091e+00 -1.1308020801e-02 2.2061004340e+00 -3.8210780382e+00 2.2061004340e+00 3.8210780382e+00 
106800 3.1747138006e+00 -1.1133582144e-02 2.2063567287e+00 -3.8215219538e+00 2.2063567287e+00 3.8215219538e+00 
106900 3.1747120538e+00 -1.0961499050e-02 2.2066090405e+00 -3.8219589705e+00 2.2066090405e+00 3.8219589705e+00 
107000 3.1747103666e+00 -1.0791747770e-02 2.2068574239e+00 -3.8223891833e+00 2.2068574239e+00 3.8223891833e+00 
107100 3.1747087368e+00 -1.0624305281e-02 2.2071019333e+00 -3.8228126860e+00 2.2071019333e+00 3.8228126860e+00 
107200 3.1747071626e+00 -1.0459149228e-02 2.2073426222e+00 -3.8232295714e+00 2.2073426222e+00 3.8232295714e+00 
107300 3.1747056418e+00 -1.0296257862e-02 2.2075795437e+00 -3.8236399314e+00 2.2075795437e+00 3.8236399314e+00 
107400 3.1747041728e+00 -1.0135609976e-02 2.2078127502e+00 -3.8240438569e+00 2.2078127502e+00 3.8240438569e+00 
107500 3.1747027536e+00 -9.9771848505e-03 2.2080422938e+00 -3.8244414381e+00 2.2080422938e+00 3.8244414381e+00 
107600 3.1747013827e+00 -9.8209621973e-03 2.2082682259e+00 -3.8248327641e+00 2.2082682259e+00 3.8248327641e+00 
107700 3.1747000582e+00 -9.6669221087e-03 2.2084905976e+00 -3.8252179232e+00 2.2084905976e+00 3.8252179232e+00 
107800 3.1746987786e+00 -9.5150450071e-03 2.2087094594e+00 -3.8255970028e+00 2.2087094594e+00 3.8255970028e+00 
107900 3.1746975424e+00 -9.3653115983e-03 2.2089248612e+00 -3.8259700897e+00 2.2089248612e+00 3.8259700897e+00 
108000 3.1746963480e+00 -9.2177028272e-03 2.2091368526e+00 -3.8263372695e+00 2.2091368526e+00 3.8263372695e+00 
108100 3.1746951942e+00 -9.0721998362e-03 2.2093454827e+00 -3.8266986274e+00 2.2093454827e+00 3.8266986274e+00 
108200 3.1746940794e+00 -8.9287839265e-03 2.2095508000e+00 -3.8270542476e+00 2.2095508000e+00 3.8270542476e+00 
108300 3.1746930024e+00 -8.7874365213e-03 2.2097528529e+00 -3.8274042133e+00 2.2097528529e+00 3.8274042133e+00 
108400 3.1746919619e+00 -8.6481391325e-03 2.2099516889e+00 -3.8277486074e+00 2.2099516889e+00 3.8277486074e+00 
108500 3.1746909566e+00 -8.5108733291e-03 2.2101473553e+00 -3.8280875116e+00 2.2101473553e+00 3.8280875116e+00 
108600 3.1746899855e+00 -8.3756207086e-03 2.2103398989e+00 -3.8284210069e+00 2.2103398989e+00 3.8284210069e+00 
108700 3.1746890474e+00 -8.2423628708e-03 2.2105293662e+00 -3.8287491738e+00 2.2105293662e+00 3.8287491738e+00 
108800 3.1746881412e+00 -8.1110813939e-03 2.2107158029e+00 -3.8290720918e+00 2.2107158029e+00 3.8290720918e+00 
108900 3.1746872658e+00 -7.9817578129e-03 2.2108992547e+00 -3.8293898395e+00 2.2108992547e+00 3.8293898395e+00 
109000 3.1746864202e+00 -7.8543736009e-03 2.2110797665e+00 -3.8297024951e+00 2.2110797665e+00 3.8297024951e+00 
109100 3.1746856034e+00 -7.7289101512e-03 2.2112573828e+00 -3.8300101356e+00 2.2112573828e+00 3.8300101356e+00 
109200 3.1746848146e+00 -7.6053487633e-03 2.2114321479e+00 -3.8303128377e+00 2.2114321479e+00 3.8303128377e+00 
109300 3.1746840528e+00 -7.4836706300e-03 2.2116041054e+00 -3.8306106768e+00 2.2116041054e+00 3.8306106768e+00 
109400 3.1746833171e+00 -7.3638568262e-03 2.2117732986e+00 -3.8309037280e+00 2.2117732986e+00 3.8309037280e+00 
109500 3.1746826067e+00 -7.2458883008e-03 2.2119397702e+00 -3.8311920652e+00 2.2119397702e+00 3.8311920652e+00 
109600 3.1746819207e+00 -7.1297458694e-03 2.2121035626e+00 -3.8314757620e+00 2.2121035626e+00 3.8314757620e+00 
109700 3.1746812584e+00 -7.0154102091e-03 2.2122647176e+00 -3.8317548907e+00 2.2122647176e+00 3.8317548907e+00 
109800 3.1746806190e+00 -6.9028618553e-03 2.2124232767e+00 -3.8320295231e+00 2.2124232767e+00 3.8320295231e+00 
109900 3.1746800017e+00 -6.7920811997e-03 2.2125792808e+00 -3.8322997302e+00 2.2125792808e+00 3.8322997302e+00 
110000 3.1746794059e+00 -6.6830484900e-03 2.2127327705e+00 -3.8325655820e+00 2.2127327705e+00 3.8325655820e+00 
110100 3.1746788308e+00 -6.5757438311e-03 2.2128837856e+00 -3.8328271480e+00 2.2128837856e+00 3.8328271480e+00 
110200 3.1746782758e+00 -6.4701471875e-03 2.2130323659e+00 -3.8330844965e+00 2.2130323659e+00 3.8330844965e+00 
110300 3.1746777402e+00 -6.3662383870e-03 2.2131785504e+00 -3.8333376954e+00 2.2131785504e+00 3.8333376954e+00 
110400 3.1746772234e+00 -6.2639971257e-03 2.2133223776e+00 -3.8335868115e+00 2.2133223776e+00 3.8335868115e+00 
110500 3.1746767247e+00 -6.1634029743e-03 2.2134638858e+00 -3.8338319109e+00 2.2134638858e+00 3.8338319109e+00 
110600 3.1746762436e+00 -6.0644353846e-03 2.2136031125e+00 -3.8340730587e+00 2.2136031125e+00 3.8340730587e+00 
110700 3.1746757796e+00 -5.9670736981e-03 2.2137400950e+00 -3.8343103193e+00 2.2137400950e+00 3.8343103193e+00 
110800 3.1746753319e+00 -5.8712971544e-03 2.2138748700e+00 -3.8345437564e+00 2.2138748700e+00 3.8345437564e+00 
110900 3.1746749002e+00 -5.7770849011e-03 2.2140074736e+00 -3.8347734326e+00 2.2140074736e+00 3.8347734326e+00 
111000 3.1746744838e+00 -5.6844160037e-03 2.2141379415e+00 -3.8349994097e+00 2.2141379415e+00 3.8349994097e+00 
111100 3.1746740823e+00 -5.5932694573e-03 2.2142663091e+00 -3.8352217489e+00 2.2142663091e+00 3.8352217489e+00 
111200 3.1746736952e+00 -5.5036241973e-03 2.2143926111e+00 -3.8354405103e+00 2.2143926111e+00 3.8354405103e+00 
111300 3.1746733220e+00 -5.4154591118e-03 2.2145168816e+00 -3.8356557532e+00 2.2145168816e+00 3.8356557532e+00 
111400 3.1746729621e+00 -5.3287530538e-03 2.2146391545e+00 -3.8358675361e+00 2.2146391545e+00 3.8358675361e+00 
111500 3.1746726153e+00 -5.2434848541e-03 2.2147594631e+00 -3.8360759167e+00 2.2147594631e+00 3.8360759167e+00 
111600 3.1746722810e+00 -5.1596333337e-03 2.2148778401e+00 -3.8362809516e+00 2.2148778401e+00 3.8362809516e+00 
111700 3.1746719587e+00 -5.0771773178e-03 2.2149943178e+00 -3.8364826970e+00 2.2149943178e+00 3.8364826970e+00 
111800 3.1746716482e+00 -4.9960956484e-03 2.2151089281e+00 -3.8366812077e+00 2.2151089281e+00 3.8366812077e+00 
111900 3.1746713490e+00 -4.9163671980e-03 2.2152217022e+00 -3.8368765382e+00 2.2152217022e+00 3.8368765382e+00 
112000 3.1746710607e+00 -4.8379708828e-03 2.2153326709e+00 -3.8370687417e+00 2.2153326709e+00 3.8370687417e+00 
112100 3.1746707829e+00 -4.7608856765e-03 2.2154418647e+00 -3.8372578709e+00 2.2154418647e+00 3.8372578709e+00 
112200 3.1746705153e+00 -4.6850906231e-03 2.2155493134e+00 -3.8374439774e+00 2.2155493134e+00 3.8374439774e+00 
112300 3.1746702575e+00 -4.6105648504e-03 2.2156550462e+00 -3.8376271121e+00 2.2156550462e+00 3.8376271121e+00 
112400 3.1746700092e+00 -4.5372875832e-03 2.2157590922e+00 -3.8378073251e+00 2.2157590922e+00 3.8378073251e+00 
112500 3.1746697701e+00 -4.4652381555e-03 2.2158614798e+00 -3.8379846655e+00 2.2158614798e+00 3.8379846655e+00 
112600 3.1746695398e+00 -4.3943960237e-03 2.2159622368e+00 -3.8381591818e+00 2.2159622368e+00 3.8381591818e+00 
112700 3.1746693180e+00 -4.3247407785e-03 2.2160613908e+00 -3.8383309215e+00 2.2160613908e+00 3.8383309215e+00 
112800 3.1746691045e+00 -4.2562521569e-03 2.2161589687e+00 -3.8384999314e+00 2.2161589687e+00 3.8384999314e+00 
112900 3.1746688989e+00 -4.1889100540e-03 2.2162549970e+00 -3.8386662574e+00 2.2162549970e+00 3.8386662574e+00 
113000 3.1746687009e+00 -4.1226945340e-03 2.2163495019e+00 -3.8388299447e+00 2.2163495019e+00 3.8388299447e+00 
113100 3.1746685104e+00 -4.0575858412e-03 2.2164425090e+00 -3.8389910377e+00 2.2164425090e+00 3.8389910377e+00 
113200 3.1746683270e+00 -3.9935644103e-03 2.2165340434e+00 -3.8391495799e+00 2.2165340434e+00 3.8391495799e+00 
113300 3.1746681505e+00 -3.9306108762e-03 2.2166241298e+00 -3.8393056141e+00 2.2166241298e+00 3.8393056141e+00 
113400 3.1746679807e+00 -3.8687060837e-03 2.2167127925e+00 -3.8394591824e+00 2.2167127925e+00 3.8394591824e+00 
113500 3.1746678173e+00 -3.8078310964e-03 2.2168000553e+00 -3.8396103260e+00 2.2168000553e+00 3.8396103260e+00 
113600 3.1746676600e+00 -3.7479672054e-03 2.2168859416e+00 -3.8397590854e+00 2.2168859416e+00 3.8397590854e+00 
113700 3.1746675087e+00 -3.6890959368e-03 2.2169704744e+00 -3.8399055005e+00 2.2169704744e+00 3.8399055005e+00 
113800 3.1746673632e+00 -3.6311990596e-03 2.2170536762e+00 -3.8400496103e+00 2.2170536762e+00 3.8400496103e+00 
113900 3.1746672233e+00 -3.5742585925e-03 2.2171355691e+00 -3.8401914530e+00 2.2171355691e+00 3.8401914530e+00 
114000 3.1746670887e+00 -3.5182568102e-03 2.2172161750e+00 -3.8403310664e+00 2.2172161750e+00 3.8403310664e+00 
114100 3.1746669593e+00 -3.4631762496e-03 2.2172955149e+00 -3.8404684873e+00 2.2172955149e+00 3.8404684873e+00 
114200 3.1746668349e+00 -3.4089997149e-03 2.2173736100e+00 -3.8406037519e+00 2.2173736100e+00 3.8406037519e+00 
114300 3.1746667153e+00 -3.3557102824e-03 2.2174504807e+00 -3.8407368958e+00 2.2174504807e+00 3.8407368958e+00 
114400 3.1746666004e+00 -3.3032913049e-03 2.2175261470e+00 -3.8408679538e+00 2.2175261470e+00 3.8408679538e+00 
114500 3.1746664899e+00 -3.2517264154e-03 2.2176006289e+00 -3.8409969602e+00 2.2176006289e+00 3.8409969602e+00 
114600 3.1746663838e+00 -3.2009995306e-03 2.2176739456e+00 -3.8411239485e+00 2.2176739456e+00 3.8411239485e+00 
114700 3.1746662818e+00 -3.1510948532e-03 2.2177461162e+00 -3.8412489516e+00 2.2177461162e+00 3.8412489516e+00 
114800 3.1746661839e+00 -3.1019968745e-03 2.2178171593e+00 -3.8413720019e+00 2.2178171593e+00 3.8413720019e+00 
114900 3.1746660899e+00 -3.0536903759e-03 2.2178870933e+00 -3.8414931310e+00 2.2178870933e+00 3.8414931310e+00 
115000 3.1746659996e+00 -3.0061604303e-03 2.2179559360e+00 -3.8416123700e+00 2.2179559360e+00 3.8416123700e+00 
115100 3.1746659129e+00 -2.9593924029e-03 2.2180237050e+00 -3.8417297495e+00 2.2180237050e+00 3.8417297495e+00 
115200 3.1746658298e+00 -2.9133719515e-03 2.2180904177e+00 -3.8418452993e+00 2.2180904177e+00 3.8418452993e+00 
115300 3.1746657500e+00 -2.8680850261e-03 2.2181560910e+00 -3.8419590488e+00 2.2181560910e+00 3.8419590488e+00 
115400 3.1746656734e+00 -2.8235178691e-03 2.2182207415e+00 -3.8420710268e+00 2.2182207415e+00 3.8420710268e+00 
115500 3.1746656000e+00 -2.7796570134e-03 2.2182843856e+00 -3.8421812615e+00 2.2182843856e+00 3.8421812615e+00 
115600 3.1746655296e+00 -2.7364892818e-03 2.2183470392e+00 -3.8422897807e+00 2.2183470392e+00 3.8422897807e+00 
115700 3.1746654621e+00 -2.6940017849e-03 2.2184087181e+00 -3.8423966116e+00 2.2184087181e+00 3.8423966116e+00 
115800 3.1746653974e+00 -2.6521819189e-03 2.2184694376e+00 -3.8425017809e+00 2.2184694376e+00 3.8425017809e+00 
115900 3.1746653354e+00 -2.6110173636e-03 2.2185292129e+00 -3.8426053148e+00 2.2185292129e+00 3.8426053148e+00 
116000 3.1746652761e+00 -2.5704960792e-03 2.2185880588e+00 -3.8427072389e+00 2.2185880588e+00 3.8427072389e+00 
116100 3.1746652193e+00 -2.5306063033e-03 2.2186459900e+00 -3.8428075786e+00 2.2186459900e+00 3.8428075786e+00 
116200 3.1746651649e+00 -2.4913365477e-03 2.2187030206e+00 -3.8429063587e+00 2.2187030206e+00 3.8429063587e+00 
116300 3.1746651128e+00 -2.4526755946e-03 2.2187591649e+00 -3.8430036033e+00 2.2187591649e+00 3.8430036033e+00 
116400 3.1746650630e+00 -2.4146124927e-03 2.2188144364e+00 -3.8430993365e+00 2.2188144364e+00 3.8430993365e+00 
116500 3.1746650154e+00 -2.3771365529e-03 2.2188688489e+00 -3.8431935816e+00 2.2188688489e+00 3.8431935816e+00 
116600 3.1746649699e+00 -2.3402373445e-03 2.2189224155e+00 -3.8432863617e+00 2.2189224155e+00 3.8432863617e+00 
116700 3.1746649264e+00 -2.3039046897e-03 2.2189751493e+00 -3.8433776994e+00 2.2189751493e+00 3.8433776994e+00 
116800 3.1746648849e+00 -2.2681286597e-03 2.2190270633e+00 -3.8434676169e+00 2.2190270633e+00 3.8434676169e+00 
116900 3.1746648452e+00 -2.2328995695e-03 2.2190781698e+00 -3.8435561361e+00 2.2190781698e+00 3.8435561361e+00 
117000 3.1746648073e+00 -2.1982079725e-03 2.2191284814e+00 -3.8436432784e+00 2.2191284814e+00 3.8436432784e+00 
117100 3.1746647712e+00 -2.1640446558e-03 2.2191780103e+00 -3.8437290648e+00 2.2191780103e+00 3.8437290648e+00 
117200 3.1746647368e+00 -2.1304006347e-03 2.2192267682e+00 -3.8438135161e+00 2.2192267682e+00 3.8438135161e+00 
117300 3.1746647040e+00 -2.0972671471e-03 2.2192747671e+00 -3.8438966526e+00 2.2192747671e+00 3.8438966526e+00 
117400 3.1746646727e+00 -2.0646356483e-03 2.2193220185e+00 -3.8439784944e+00 2.2193220185e+00 3.8439784944e+00 
117500 3.1746646429e+00 -2.0324978052e-03 2.2193685336e+00 -3.8440590610e+00 2.2193685336e+00 3.8440590610e+00 
117600 3.1746646146e+00 -2.0008454910e-03 2.2194143238e+00 -3.8441383719e+00 2.2194143238e+00 3.8441383719e+00 
117700 3.1746645876e+00 -1.9696707793e-03 2.2194593999e+00 -3.8442164460e+00 2.2194593999e+00 3.8442164460e+00 
117800 3.1746645620e+00 -1.9389659384e-03 2.2195037728e+00 -3.8442933022e+00 2.2195037728e+00 3.8442933022e+00 
117900 3.1746645377e+00 -1.9087234258e-03 2.2195474532e+00 -3.8443689587e+00 2.2195474532e+00 3.8443689587e+00 
118000 3.1746645146e+00 -1.8789358825e-03 2.2195904513e+00 -3.8444434337e+00 2.2195904513e+00 3.8444434337e+00 
118100 3.1746644927e+00 -1.8495961274e-03 2.2196327776e+00 -3.8445167450e+00 2.2196327776e+00 3.8445167450e+00 
118200 3.1746644719e+00 -1.8206971514e-03 2.2196744422e+00 -3.8445889102e+00 2.2196744422e+00 3.8445889102e+00 
118300 3.1746644522e+00 -1.7922321122e-03 2.2197154551e+00 -3.8446599465e+00 2.2197154551e+00 3.8446599465e+00 
118400 3.1746644336e+00 -1.7641943286e-03 2.2197558260e+00 -3.8447298709e+00 2.2197558260e+00 3.8447298709e+00 
118500 3.1746644160e+00 -1.7365772749e-03 2.2197955645e+00 -3.8447987002e+00 2.2197955645e+00 3.8447987002e+00 
118600 3.1746643994e+00 -1.7093745757e-03 2.2198346804e+00 -3.8448664508e+00 2.2198346804e+00 3.8448664508e+00 
118700 3.1746643837e+00 -1.6825800005e-03 2.2198731828e+00 -3.8449331389e+00 2.2198731828e+00 3.8449331389e+00 
118800 3.1746643689e+00 -1.6561874586e-03 2.2199110810e+00 -3.8449987806e+00 2.2199110810e+00 3.8449987806e+00 
118900 3.1746643549e+00 -1.6301909936e-03 2.2199483841e+00 -3.8450633915e+00 2.2199483841e+00 3.8450633915e+00 
119000 3.1746643418e+00 -1.6045847790e-03 2.2199851011e+00 -3.8451269871e+00 2.2199851011e+00 3.8451269871e+00 
119100 3.1746643295e+00 -1.5793631126e-03 2.2200212407e+00 -3.8451895828e+00 2.2200212407e+00 3.8451895828e+00 
119200 3.1746643179e+00 -1.5545204121e-03 2.2200568117e+00 -3.8452511936e+00 2.2200568117e+00 3.8452511936e+00 
119300 3.1746643071e+00 -1.5300512103e-03 2.2200918226e+00 -3.8453118343e+00 2.2200918226e+00 3.8453118343e+00 
119400 3.1746642970e+00 -1.5059501505e-03 2.2201262819e+00 -3.8453715195e+00 2.2201262819e+00 3.8453715195e+00 
119500 3.1746642875e+00 -1.4822119822e-03 2.2201601979e+00 -3.8454302636e+00 2.2201601979e+00 3.8454302636e+00 
119600 3.1746642787e+00 -1.4588315568e-03 2.2201935787e+00 -3.8454880809e+00 2.2201935787e+00 3.8454880809e+00 
119700 3.1746642705e+00 -1.4358038230e-03 2.2202264325e+00 -3.8455449853e+00 2.2202264325e+00 3.8455449853e+00 
119800 3.1746642629e+00 -1.4131238236e-03 2.2202587672e+00 -3.8456009907e+00 2.2202587672e+00 3.8456009907e+00 
119900 3.1746642559e+00 -1.3907866907e-03 2.2202905907e+00 -3.8456561106e+00 2.2202905907e+00 3.8456561106e+00 
120000 3.1746642494e+00 -1.3687876426e-03 2.2203219107e+00 -3.8457103584e+00 2.2203219107e+00 3.8457103584e+00 
120100 3.1746642434e+00 -1.3471219799e-03 2.2203527348e+00 -3.8457637474e+00 2.2203527348e+00 3.8457637474e+00 
120200 3.1746642380e+00 -1.3257850823e-03 2.2203830706e+00 -3.8458162906e+00 2.2203830706e+00 3.8458162906e+00 
120300 3.1746642330e+00 -1.3047724049e-03 2.2204129256e+00 -3.8458680009e+00 2.2204129256e+00 3.8458680009e+00 
120400 3.1746642284e+00 -1.2840794753e-03 2.2204423069e+00 -3.8459188909e+00 2.2204423069e+00 3.8459188909e+00 
120500 3.1746642243e+00 -1.2637018905e-03 2.2204712220e+00 -3.8459689732e+00 2.2204712220e+00 3.8459689732e+00 
120600 3.1746642207e+00 -1.2436353141e-03 2.2204996777e+00 -3.8460182600e+00 2.2204996777e+00 3.8460182600e+00 
120700 3.1746642174e+00 -1.2238754733e-03 2.2205276813e+00 -3.8460667636e+00 2.2205276813e+00 3.8460667636e+00 
120800 3.1746642145e+00 -1.2044181567e-03 2.2205552396e+00 -3.8461144959e+00 2.2205552396e+00 3.8461144959e+00 
120900 3.1746642119e+00 -1.1852592114e-03 2.2205823594e+00 -3.8461614688e+00 2.2205823594e+00 3.8461614688e+00 
121000 3.1746642098e+00 -1.1663945410e-03 2.2206090474e+00 -3.8462076939e+00 2.2206090474e+00 3.8462076939e+00 
121100 3.1746642079e+00 -1.1478201030e-03 2.2206353104e+00 -3.8462531828e+00 2.2206353104e+00 3.8462531828e+00 
121200 3.1746642064e+00 -1.1295319073e-03 2.2206611549e+00 -3.8462979467e+00 2.2206611549e+00 3.8462979467e+00 
121300 3.1746642051e+00 -1.1115260139e-03 2.2206865873e+00 -3.8463419969e+00 2.2206865873e+00 3.8463419969e+00 
121400 3.1746642042e+00 -1.0937985309e-03 2.2207116140e+00 -3.8463853443e+00 2.2207116140e+00 3.8463853443e+00 
121500 3.1746642035e+00 -1.0763456132e-03 2.2207362412e+00 -3.8464280000e+00 2.2207362412e+00 3.8464280000e+00 
121600 3.1746642031e+00 -1.0591634607e-03 2.2207604752e+00 -3.8464699745e+00 2.2207604752e+00 3.8464699745e+00 
121700 3.1746642029e+00 -1.0422483169e-03 2.2207843221e+00 -3.8465112786e+00 2.2207843221e+00 3.8465112786e+00 
121800 3.1746642030e+00 -1.0255964675e-03 2.2208077880e+00 -3.8465519226e+00 2.2208077880e+00 3.8465519226e+00 
121900 3.1746642033e+00 -1.0092042392e-03 2.2208308786e+00 -3.8465919168e+00 2.2208308786e+00 3.8465919168e+00 
122000 3.1746642038e+00 -9.9306799840e-04 2.2208536000e+00 -3.8466312713e+00 2.2208536000e+00 3.8466312713e+00 
122100 3.1746642045e+00 -9.7718415036e-04 2.2208759578e+00 -3.8466699962e+00 2.2208759578e+00 3.8466699962e+00 
122200 3.1746642055e+00 -9.6154913812e-04 2.2208979578e+00 -3.8467081014e+00 2.2208979578e+00 3.8467081014e+00 
122300 3.1746642066e+00 -9.4615944166e-04 2.2209196056e+00 -3.8467455964e+00 2.2209196056e+00 3.8467455964e+00 
122400 3.1746642078e+00 -9.3101157710e-04 2.2209409067e+00 -3.8467824910e+00 2.2209409067e+00 3.8467824910e+00 
122500 3.1746642093e+00 -9.1610209601e-04 2.2209618666e+00 -3.8468187946e+00 2.2209618666e+00 3.8468187946e+00 
122600 3.1746642109e+00 -9.0142758478e-04 2.2209824906e+00 -3.8468545165e+00 2.2209824906e+00 3.8468545165e+00 
122700 3.1746642126e+00 -8.8698466409e-04 2.2210027841e+00 -3.8468896658e+00 2.2210027841e+00 3.8468896658e+00 
122800 3.1746642145e+00 -8.7276998841e-04 2.2210227522e+00 -3.8469242516e+00 2.2210227522e+00 3.8469242516e+00 
122900 3.1746642165e+00 -8.5878024556e-04 2.2210424002e+00 -3.8469582829e+00 2.2210424002e+00 3.8469582829e+00 
123000 3.1746642186e+00 -8.4501215638e-04 2.2210617330e+00 -3.8469917684e+00 2.2210617330e+00 3.8469917684e+00 
123100 3.1746642209e+00 -8.3146247443e-04 2.2210807558e+00 -3.8470247167e+00 2.2210807558e+00 3.8470247167e+00 
123200 3.1746642233e+00 -8.1812798572e-04 2.2210994733e+00 -3.8470571365e+00 2.2210994733e+00 3.8470571365e+00 
123300 3.1746642257e+00 -8.0500550853e-04 2.2211178905e+00 -3.8470890360e+00 2.2211178905e+00 3.8470890360e+00 
123400 3.1746642283e+00 -7.9209189322e-04 2.2211360122e+00 -3.8471204236e+00 2.2211360122e+00 3.8471204236e+00 
123500 3.1746642309e+00 -7.7938402214e-04 2.2211538430e+00 -3.8471513075e+00 2.2211538430e+00 3.8471513075e+00 
123600 3.1746642337e+00 -7.6687880953e-04 2.2211713876e+00 -3.8471816956e+00 2.2211713876e+00 3.8471816956e+00 
123700 3.1746642365e+00 -7.5457320152e-04 2.2211886506e+00 -3.8472115960e+00 2.2211886506e+00 3.8472115960e+00 
123800 3.1746642394e+00 -7.4246417603e-04 2.2212056364e+00 -3.8472410163e+00 2.2212056364e+00 3.8472410163e+00 
123900 3.1746642424e+00 -7.3054874285e-04 2.2212223495e+00 -3.8472699642e+00 2.2212223495e+00 3.8472699642e+00 
124000 3.1746642454e+00 -7.1882394361e-04 2.2212387942e+00 -3.8472984474e+00 2.2212387942e+00 3.8472984474e+00 
124100 3.1746642485e+00 -7.0728685193e-04 2.2212549750e+00 -3.8473264732e+00 2.2212549750e+00 3.8473264732e+00 
124200 3.1746642516e+00 -6.9593457334e-04 2.2212708959e+00 -3.8473540490e+00 2.2212708959e+00 3.8473540490e+00 
124300 3.1746642548e+00 -6.8476424551e-04 2.2212865611e+00 -3.8473811820e+00 2.2212865611e+00 3.8473811820e+00 
124400 3.1746642580e+00 -6.7377303825e-04 2.2213019748e+00 -3.8474078794e+00 2.2213019748e+00 3.8474078794e+00 
124500 3.1746642613e+00 -6.6295815362e-04 2.2213171410e+00 -3.8474341480e+00 2.2213171410e+00 3.8474341480e+00 
124600 3.1746642646e+00 -6.5231682608e-04 2.2213320637e+00 -3.8474599948e+00 2.2213320637e+00 3.8474599948e+00 
124700 3.1746642680e+00 -6.4184632256e-04 2.2213467467e+00 -3.8474854265e+00 2.2213467467e+00 3.8474854265e+00 
124800 3.1746642714e+00 -6.3154394258e-04 2.2213611939e+00 -3.8475104499e+00 2.2213611939e+00 3.8475104499e+00 
124900 3.1746642748e+00 -6.2140701837e-04 2.2213754092e+00 -3.8475350714e+00 2.2213754092e+00 3.8475350714e+00 
125000 3.1746642782e+00 -6.1143291498e-04 2.2213893962e+00 -3.8475592976e+00 2.2213893962e+00 3.8475592976e+00 
125100 3.1746642816e+00 -6.0161903036e-04 2.2214031586e+00 -3.8475831348e+00 2.2214031586e+00 3.8475831348e+00 
125200 3.1746642851e+00 -5.9196279548e-04 2.2214167001e+00 -3.8476065893e+00 2.2214167001e+00 3.8476065893e+00 
125300 3.1746642886e+00 -5.8246167440e-04 2.2214300241e+00 -3.8476296671e+00 2.2214300241e+00 3.8476296671e+00 
125400 3.1746642921e+00 -5.7311316438e-04 2.2214431341e+00 -3.8476523744e+00 2.2214431341e+00 3.8476523744e+00 
125500 3.1746642956e+00 -5.6391479590e-04 2.2214560337e+00 -3.8476747172e+00 2.2214560337e+00 3.8476747172e+00 
125600 3.1746642991e+00 -5.5486413274e-04 2.2214687262e+00 -3.8476967012e+00 2.2214687262e+00 3.8476967012e+00 
125700 3.1746643026e+00 -5.4595877205e-04 2.2214812149e+00 -3.8477183322e+00 2.2214812149e+00 3.8477183322e+00 
125800 3.1746643061e+00 -5.3719634434e-04 2.2214935031e+00 -3.8477396160e+00 2.2214935031e+00 3.8477396160e+00 
125900 3.1746643097e+00 -5.2857451349e-04 2.2215055940e+00 -3.8477605580e+00 2.2215055940e+00 3.8477605580e+00 
126000 3.1746643132e+00 -5.2009097679e-04 2.2215174907e+00 -3.8477811638e+00 2.2215174907e+00 3.8477811638e+00 
126100 3.1746643167e+00 -5.1174346488e-04 2.2215291965e+00 -3.8478014388e+00 2.2215291965e+00 3.8478014388e+00 
126200 3.1746643202e+00 -5.0352974173e-04 2.2215407143e+00 -3.8478213883e+00 2.2215407143e+00 3.8478213883e+00 
126300 3.1746643237e+00 -4.9544760460e-04 2.2215520472e+00 -3.8478410175e+00 2.2215520472e+00 3.8478410175e+00 
126400 3.1746643272e+00 -4.8749488394e-04 2.2215631982e+00 -3.8478603315e+00 2.2215631982e+00 3.8478603315e+00 
126500 3.1746643307e+00 -4.7966944332e-04 2.2215741701e+00 -3.8478793353e+00 2.2215741701e+00 3.8478793353e+00 
126600 3.1746643342e+00 -4.7196917934e-04 2.2215849658e+00 -3.8478980341e+00 2.2215849658e+00 3.8478980341e+00 
126700 3.1746643376e+00 -4.6439202147e-04 2.2215955882e+00 -3.8479164325e+00 2.2215955882e+00 3.8479164325e+00 
126800 3.1746643411e+00 -4.5693593194e-04 2.2216060399e+00 -3.8479345356e+00 2.2216060399e+00 3.8479345356e+00 
126900 3.1746643445e+00 -4.4959890555e-04 2.2216163238e+00 -3.8479523478e+00 2.2216163238e+00 3.8479523478e+00 
127000 3.1746643479e+00 -4.4237896952e-04 2.2216264426e+00 -3.8479698740e+00 2.2216264426e+00 3.8479698740e+00 
127100 3.1746643513e+00 -4.3527418327e-04 2.2216363988e+00 -3.8479871187e+00 2.2216363988e+00 3.8479871187e+00 
127200 3.1746643547e+00 -4.2828263823e-04 2.2216461950e+00 -3.8480040863e+00 2.2216461950e+00 3.8480040863e+00 
127300 3.1746643581e+00 -4.2140245759e-04 2.2216558339e+00 -3.8480207813e+00 2.2216558339e+00 3.8480207813e+00 
127400 3.1746643614e+00 -4.1463179607e-04 2.2216653179e+00 -3.8480372080e+00 2.2216653179e+00 3.8480372080e+00 
127500 3.1746643648e+00 -4.0796883964e-04 2.2216746495e+00 -3.8480533707e+00 2.2216746495e+00 3.8480533707e+00 
127600 3.1746643681e+00 -4.0141180524e-04 2.2216838310e+00 -3.8480692737e+00 2.2216838310e+00 3.8480692737e+00 
127700 3.1746643713e+00 -3.9495894054e-04 2.2216928650e+00 -3.8480849210e+00 2.2216928650e+00 3.8480849210e+00 
127800 3.1746643746e+00 -3.8860852355e-04 2.2217017537e+00 -3.8481003166e+00 2.2217017537e+00 3.8481003166e+00 
127900 3.1746643778e+00 -3.8235886235e-04 2.2217104994e+00 -3.8481154647e+00 2.2217104994e+00 3.8481154647e+00 
128000 3.1746643810e+00 -3.7620829476e-04 2.2217191045e+00 -3.8481303691e+00 2.2217191045e+00 3.8481303691e+00 
128100 3.1746643842e+00 -3.7015518795e-04 2.2217275711e+00 -3.8481450337e+00 2.2217275711e+00 3.8481450337e+00 
128200 3.1746643873e+00 -3.6419793812e-04 2.2217359014e+00 -3.8481594623e+00 2.2217359014e+00 3.8481594623e+00 
128300 3.1746643905e+00 -3.5833497015e-04 2.2217440977e+00 -3.8481736586e+00 2.2217440977e+00 3.8481736586e+00 
128400 3.1746643936e+00 -3.5256473714e-04 2.2217521620e+00 -3.8481876264e+00 2.2217521620e+00 3.8481876264e+00 
128500 3.1746643966e+00 -3.4688572010e-04 2.2217600964e+00 -3.8482013691e+00 2.2217600964e+00 3.8482013691e+00 
128600 3.1746643997e+00 -3.4129642752e-04 2.2217679029e+00 -3.8482148905e+00 2.2217679029e+00 3.8482148905e+00 
128700 3.1746644027e+00 -3.3579539495e-04 2.2217755837e+00 -3.8482281939e+00 2.2217755837e+00 3.8482281939e+00 
128800 3.1746644057e+00 -3.3038118462e-04 2.2217831406e+00 -3.8482412829e+00 2.2217831406e+00 3.8482412829e+00 
128900 3.1746644087e+00 -3.2505238499e-04 2.2217905756e+00 -3.8482541608e+00 2.2217905756e+00 3.8482541608e+00 
129000 3.1746644116e+00 -3.1980761033e-04 2.2217978907e+00 -3.8482668309e+00 2.2217978907e+00 3.8482668309e+00 
129100 3.1746644145e+00 -3.1464550031e-04 2.2218050878e+00 -3.8482792966e+00 2.2218050878e+00 3.8482792966e+00 
129200 3.1746644174e+00 -3.0956471953e-04 2.2218121686e+00 -3.8482915610e+00 2.2218121686e+00 3.8482915610e+00 
129300 3.1746644202e+00 -3.0456395712e-04 2.2218191351e+00 -3.8483036273e+00 2.2218191351e+00 3.8483036273e+00 
129400 3.1746644230e+00 -2.9964192626e-04 2.2218259891e+00 -3.8483154987e+00 2.2218259891e+00 3.8483154987e+00 
129500 3.1746644258e+00 -2.9479736377e-04 2.2218327322e+00 -3.8483271781e+00 2.2218327322e+00 3.8483271781e+00 
129600 3.1746644286e+00 -2.9002902964e-04 2.2218393663e+00 -3.8483386687e+00 2.2218393663e+00 3.8483386687e+00 
129700 3.1746644313e+00 -2.8533570660e-04 2.2218458931e+00 -3.8483499735e+00 2.2218458931e+00 3.8483499735e+00 
129800 3.1746644340e+00 -2.8071619965e-04 2.2218523143e+00 -3.8483610952e+00 2.2218523143e+00 3.8483610952e+00 
129900 3.1746644367e+00 -2.7616933566e-04 2.2218586314e+00 -3.8483720369e+00 2.2218586314e+00 3.8483720369e+00 
130000 3.1746644393e+00 -2.7169396288e-04 2.2218648463e+00 -3.8483828013e+00 2.2218648463e+00 3.8483828013e+00 
130100 3.1746644419e+00 -2.6728895054e-04 2.2218709604e+00 -3.8483933912e+00 2.2218709604e+00 3.8483933912e+00 
130200 3.1746644445e+00 -2.6295318835e-04 2.2218769753e+00 -3.8484038094e+00 2.2218769753e+00 3.8484038094e+00 
130300 3.1746644470e+00 -2.5868558614e-04 2.2218828927e+00 -3.8484140586e+00 2.2218828927e+00 3.8484140586e+00 
130400 3.1746644496e+00 -2.5448507335e-04 2.2218887140e+00 -3.8484241414e+00 2.2218887140e+00 3.8484241414e+00 
130500 3.1746644521e+00 -2.5035059868e-04 2.2218944408e+00 -3.8484340605e+00 2.2218944408e+00 3.8484340605e+00 
130600 3.1746644545e+00 -2.4628112959e-04 2.2219000745e+00 -3.8484438184e+00 2.2219000745e+00 3.8484438184e+00 
130700 3.1746644569e+00 -2.4227565193e-04 2.2219056166e+00 -3.8484534176e+00 2.2219056166e+00 3.8484534176e+00 
130800 3.1746644594e+00 -2.3833316950e-04 2.2219110686e+00 -3.8484628607e+00 2.2219110686e+00 3.8484628607e+00 
130900 3.1746644617e+00 -2.3445270367e-04 2.2219164319e+00 -3.8484721502e+00 2.2219164319e+00 3.8484721502e+00 
131000 3.1746644641e+00 -2.3063329292e-04 2.2219217078e+00 -3.8484812883e+00 2.2219217078e+00 3.8484812883e+00 
131100 3.1746644664e+00 -2.2687399251e-04 2.2219268977e+00 -3.8484902776e+00 2.2219268977e+00 3.8484902776e+00 
131200 3.1746644687e+00 -2.2317387407e-04 2.2219320031e+00 -3.8484991203e+00 2.2219320031e+00 3.8484991203e+00 
131300 3.1746644709e+00 -2.1953202519e-04 2.2219370251e+00 -3.8485078188e+00 2.2219370251e+00 3.8485078188e+00 
131400 3.1746644732e+00 -2.1594754906e-04 2.2219419652e+00 -3.8485163753e+00 2.2219419652e+00 3.8485163753e+00 
131500 3.1746644754e+00 -2.1241956413e-04 2.2219468247e+00 -3.8485247921e+00 2.2219468247e+00 3.8485247921e+00 
131600 3.1746644775e+00 -2.0894720369e-04 2.2219516047e+00 -3.8485330713e+00 2.2219516047e+00 3.8485330713e+00 
131700 3.1746644797e+00 -2.0552961559e-04 2.2219563066e+00 -3.8485412152e+00 2.2219563066e+00 3.8485412152e+00 
131800 3.1746644818e+00 -2.0216596185e-04 2.2219609316e+00 -3.8485492259e+00 2.2219609316e+00 3.8485492259e+00 
131900 3.1746644839e+00 -1.9885541832e-04 2.2219654808e+00 -3.8485571055e+00 2.2219654808e+00 3.8485571055e+00 
132000 3.1746644859e+00 -1.9559717438e-04 2.2219699556e+00 -3.8485648560e+00 2.2219699556e+00 3.8485648560e+00 
132100 3.1746644880e+00 -1.9239043259e-04 2.2219743570e+00 -3.8485724795e+00 2.2219743570e+00 3.8485724795e+00 
132200 3.1746644900e+00 -1.8923440843e-04 2.2219786863e+00 -3.8485799780e+00 2.2219786863e+00 3.8485799780e+00 
132300 3.1746644920e+00 -1.8612832993e-04 2.2219829446e+00 -3.8485873535e+00 2.2219829446e+00 3.8485873535e+00 
132400 3.1746644939e+00 -1.8307143742e-04 2.2219871329e+00 -3.8485946079e+00 2.2219871329e+00 3.8485946079e+00 
132500 3.1746644958e+00 -1.8006298324e-04 2.2219912524e+00 -3.8486017432e+00 2.2219912524e+00 3.8486017432e+00 
132600 3.1746644978e+00 -1.7710223145e-04 2.2219953043e+00 -3.8486087612e+00 2.2219953043e+00 3.8486087612e+00 
132700 3.1746644996e+00 -1.7418845759e-04 2.2219992895e+00 -3.8486156638e+00 2.2219992895e+00 3.8486156638e+00 
132800 3.1746645015e+00 -1.7132094836e-04 2.2220032091e+00 -3.8486224528e+00 2.2220032091e+00 3.8486224528e+00 
132900 3.1746645033e+00 -1.6849900145e-04 2.2220070642e+00 -3.8486291300e+00 2.2220070642e+00 3.8486291300e+00 
133000 3.1746645051e+00 -1.6572192523e-04 2.2220108558e+00 -3.8486356973e+00 2.2220108558e+00 3.8486356973e+00 
133100 3.1746645069e+00 -1.6298903854e-04 2.2220145849e+00 -3.8486421562e+00 2.2220145849e+00 3.8486421562e+00 
133200 3.1746645086e+00 -1.6029967046e-04 2.2220182525e+00 -3.8486485087e+00 2.2220182525e+00 3.8486485087e+00 
133300 3.1746645104e+00 -1.5765316011e-04 2.2220218596e+00 -3.8486547563e+00 2.2220218596e+00 3.8486547563e+00 
133400 3.1746645121e+00 -1.5504885639e-04 2.2220254071e+00 -3.8486609008e+00 2.2220254071e+00 3.8486609008e+00 
133500 3.1746645137e+00 -1.5248611783e-04 2.2220288960e+00 -3.8486669438e+00 2.2220288960e+00 3.8486669438e+00 
133600 3.1746645154e+00 -1.4996431236e-04 2.2220323273e+00 -3.8486728869e+00 2.2220323273e+00 3.8486728869e+00 
133700 3.1746645170e+00 -1.4748281713e-04 2.2220357017e+00 -3.8486787317e+00 2.2220357017e+00 3.8486787317e+00 
133800 3.1746645186e+00 -1.4504101832e-04 2.2220390204e+00 -3.8486844797e+00 2.2220390204e+00 3.8486844797e+00 
133900 3.1746645202e+00 -1.4263831098e-04 2.2220422841e+00 -3.8486901326e+00 2.2220422841e+00 3.8486901326e+00 
134000 3.1746645218e+00 -1.4027409886e-04 2.2220454937e+00 -3.8486956918e+00 2.2220454937e+00 3.8486956918e+00 
134100 3.1746645233e+00 -1.3794779422e-04 2.2220486501e+00 -3.8487011589e+00 2.2220486501e+00 3.8487011589e+00 
134200 3.1746645248e+00 -1.3565881771e-04 2.2220517542e+00 -3.8487065353e+00 2.2220517542e+00 3.8487065353e+00 
134300 3.1746645263e+00 -1.3340659820e-04 2.2220548067e+00 -3.8487118225e+00 2.2220548067e+00 3.8487118225e+00 
134400 3.1746645278e+00 -1.3119057264e-04 2.2220578086e+00 -3.8487170219e+00 2.2220578086e+00 3.8487170219e+00 
134500 3.1746645293e+00 -1.2901018591e-04 2.2220607606e+00 -3.8487221349e+00 2.2220607606e+00 3.8487221349e+00 
134600 3.1746645307e+00 -1.2686489073e-04 2.2220636636e+00 -3.8487271630e+00 2.2220636636e+00 3.8487271630e+00 
134700 3.1746645321e+00 -1.2475414747e-04 2.2220665182e+00 -3.8487321074e+00 2.2220665182e+00 3.8487321074e+00 
134800 3.1746645335e+00 -1.2267742407e-04 2.2220693254e+00 -3.8487369695e+00 2.2220693254e+00 3.8487369695e+00 
134900 3.1746645349e+00 -1.2063419592e-04 2.2220720858e+00 -3.8487417507e+00 2.2220720858e+00 3.8487417507e+00 
135000 3.1746645362e+00 -1.1862394572e-04 2.2220748003e+00 -3.8487464523e+00 2.2220748003e+00 3.8487464523e+00 
135100 3.1746645376e+00 -1.1664616341e-04 2.2220774695e+00 -3.8487510755e+00 2.2220774695e+00 3.8487510755e+00 
135200 3.1746645389e+00 -1.1470034603e-04 2.2220800942e+00 -3.8487556217e+00 2.2220800942e+00 3.8487556217e+00 
135300 3.1746645402e+00 -1.1278599763e-04 2.2220826751e+00 -3.8487600920e+00 2.2220826751e+00 3.8487600920e+00 
135400 3.1746645414e+00 -1.1090262919e-04 2.2220852130e+00 -3.8487644876e+00 2.2220852130e+00 3.8487644876e+00 
135500 3.1746645427e+00 -1.0904975851e-04 2.2220877084e+00 -3.8487688099e+00 2.2220877084e+00 3.8487688099e+00 
135600 3.1746645439e+00 -1.0722691010e-04 2.2220901622e+00 -3.8487730600e+00 2.2220901622e+00 3.8487730600e+00 
135700 3.1746645451e+00 -1.0543361517e-04 2.2220925750e+00 -3.8487772390e+00 2.2220925750e+00 3.8487772390e+00 
135800 3.1746645463e+00 -1.0366941144e-04 2.2220949474e+00 -3.8487813481e+00 2.2220949474e+00 3.8487813481e+00 
135900 3.1746645475e+00 -1.0193384313e-04 2.2220972801e+00 -3.8487853884e+00 2.2220972801e+00 3.8487853884e+00 
136000 3.1746645487e+00 -1.0022646087e-04 2.2220995737e+00 -3.8487893611e+00 2.2220995737e+00 3.8487893611e+00 
136100 3.1746645498e+00 -9.8546821611e-05 2.2221018289e+00 -3.8487932673e+00 2.2221018289e+00 3.8487932673e+00 
136200 3.1746645510e+00 -9.6894488559e-05 2.2221040463e+00 -3.8487971080e+00 2.2221040463e+00 3.8487971080e+00 
136300 3.1746645521e+00 -9.5269031098e-05 2.2221062266e+00 -3.8488008843e+00 2.2221062266e+00 3.8488008843e+00 
136400 3.1746645532e+00 -9.3670024734e-05 2.2221083702e+00 -3.8488045972e+00 2.2221083702e+00 3.8488045972e+00 
136500 3.1746645543e+00 -9.2097050998e-05 2.2221104779e+00 -3.8488082478e+00 2.2221104779e+00 3.8488082478e+00 
136600 3.1746645553e+00 -9.0549697420e-05 2.2221125502e+00 -3.8488118371e+00 2.2221125502e+00 3.8488118371e+00 
136700 3.1746645564e+00 -8.9027557423e-05 2.2221145877e+00 -3.8488153661e+00 2.2221145877e+00 3.8488153661e+00 
136800 3.1746645574e+00 -8.7530230290e-05 2.2221165909e+00 -3.8488188358e+00 2.2221165909e+00 3.8488188358e+00 
136900 3.1746645584e+00 -8.6057321091e-05 2.2221185604e+00 -3.8488222471e+00 2.2221185604e+00 3.8488222471e+00 
137000 3.1746645594e+00 -8.4608440618e-05 2.2221204968e+00 -3.8488256010e+00 2.2221204968e+00 3.8488256010e+00 
137100 3.1746645604e+00 -8.3183205325e-05 2.2221224006e+00 -3.8488288985e+00 2.2221224006e+00 3.8488288985e+00 
137200 3.1746645614e+00 -8.1781237277e-05 2.2221242723e+00 -3.8488321403e+00 2.2221242723e+00 3.8488321403e+00 
137300 3.1746645623e+00 -8.0402164089e-05 2.2221261125e+00 -3.8488353276e+00 2.2221261125e+00 3.8488353276e+00 
137400 3.1746645633e+00 -7.9045618851e-05 2.2221279216e+00 -3.8488384611e+00 2.2221279216e+00 3.8488384611e+00 
137500 3.1746645642e+00 -7.7711240103e-05 2.2221297002e+00 -3.8488415417e+00 2.2221297002e+00 3.8488415417e+00 
137600 3.1746645651e+00 -7.6398671750e-05 2.2221314488e+00 -3.8488445703e+00 2.2221314488e+00 3.8488445703e+00 
137700 3.1746645660e+00 -7.5107563020e-05 2.2221331678e+00 -3.8488475478e+00 2.2221331678e+00 3.8488475478e+00 
137800 3.1746645669e+00 -7.3837568392e-05 2.2221348578e+00 -3.8488504750e+00 2.2221348578e+00 3.8488504750e+00 
137900 3.1746645677e+00 -7.2588347574e-05 2.2221365192e+00 -3.8488533526e+00 2.2221365192e+00 3.8488533526e+00 
138000 3.1746645686e+00 -7.1359565403e-05 2.2221381525e+00 -3.8488561816e+00 2.2221381525e+00 3.8488561816e+00 
138100 3.1746645694e+00 -7.0150891828e-05 2.2221397581e+00 -3.8488589626e+00 2.2221397581e+00 3.8488589626e+00 
138200 3.1746645704e+00 -6.9694356773e-05 2.2221397581e+00 -3.8488589626e+00 2.2221397581e+00 3.8488589626e+00 
138300 3.1746645713e+00 -6.9255707420e-05 2.2221397581e+00 -3.8488589626e+00 2.2221397581e+00 3.8488589626e+00 
138400 3.1746645722e+00 -6.8834877671e-05 2.2221397581e+00 -3.8488589626e+00 2.2221397581e+00 3.8488589626e+00 
138500 3.1746645731e+00 -6.8431731094e-05 2.2221397581e+00 -3.8488589626e+00 2.2221397581e+00 3.8488589626e+00 
138600 3.1746645739e+00 -6.8046067604e-05 2.2221397581e+00 -3.8488589626e+00 2.2221397581e+00 3.8488589626e+00 
138700 3.1746645748e+00 -6.7677629866e-05 2.2221397581e+00 -3.8488589626e+00 2.2221397581e+00 3.8488589626e+00 
138800 3.1746645756e+00 -6.7326109428e-05 2.2221397581e+00 -3.8488589626e+00 2.2221397581e+00 3.8488589626e+00 
138900 3.1746645764e+00 -6.6991152570e-05 2.2221397581e+00 -3.8488589626e+00 2.2221397581e+00 3.8488589626e+00 
139000 3.1746645772e+00 -6.6672365856e-05 2.2221397581e+00 -3.8488589626e+00 2.2221397581e+00 3.8488589626e+00 
139100 3.1746645780e+00 -6.6369321411e-05 2.2221397581e+00 -3.8488589626e+00 2.2221397581e+00 3.8488589626e+00 
139200 3.1746645788e+00 -6.6081561900e-05 2.2221397581e+00 -3.8488589626e+00 2.2221397581e+00 3.8488589626e+00 
139300 3.1746645795e+00 -6.5808605216e-05 2.2221397581e+00 -3.8488589626e+00 2.2221397581e+00 3.8488589626e+00 
139400 3.1746645803e+00 -6.5549948892e-05 2.2221397581e+00 -3.8488589626e+00 2.2221397581e+00 3.8488589626e+00 
139500 3.1746645810e+00 -6.5305074210e-05 2.2221397581e+00 -3.8488589626e+00 2.2221397581e+00 3.8488589626e+00 
139600 3.1746645817e+00 -6.5073450054e-05 2.2221397581e+00 -3.8488589626e+00 2.2221397581e+00 3.8488589626e+00 
139700 3.1746645824e+00 -6.4854536463e-05 2.2221397581e+00 -3.8488589626e+00 2.2221397581e+00 3.8488589626e+00 
139800 3.1746645831e+00 -6.4647787943e-05 2.2221397581e+00 -3.8488589626e+00 2.2221397581e+00 3.8488589626e+00 
139900 3.1746645838e+00 -6.4452656487e-05 2.2221397581e+00 -3.8488589626e+00 2.2221397581e+00 3.8488589626e+00 
140000 3.1746645845e+00 -6.4268594370e-05 2.2221397581e+00 -3.8488589626e+00 2.2221397581e+00 3.8488589626e+00 
140100 3.1746645852e+00 -6.4095056685e-05 2.2221397581e+00 -3.8488589626e+00 2.2221397581e+00 3.8488589626e+00 
140200 3.1746645858e+00 -6.3931503632e-05 2.2221397581e+00 -3.8488589626e+00 2.2221397581e+00 3.8488589626e+00 
140300 3.1746645864e+00 -6.3777402601e-05 2.2221397581e+00 -3.8488589626e+00 2.2221397581e+00 3.8488589626e+00 
140400 3.1746645871e+00 -6.3632230024e-05 2.2221397581e+00 -3.8488589626e+00 2.2221397581e+00 3.8488589626e+00 
140500 3.1746645877e+00 -6.3495473017e-05 2.2221397581e+00 -3.8488589626e+00 2.2221397581e+00 3.8488589626e+00 
140600 3.1746645883e+00 -6.3366630829e-05 2.2221397581e+00 -3.8488589626e+00 2.2221397581e+00 3.8488589626e+00 
140700 3.1746645889e+00 -6.3245216098e-05 2.2221397581e+00 -3.8488589626e+00 2.2221397581e+00 3.8488589626e+00 
140800 3.1746645895e+00 -6.3130755932e-05 2.2221397581e+00 -3.8488589626e+00 2.2221397581e+00 3.8488589626e+00 
140900 3.1746645901e+00 -6.3022792820e-05 2.2221397581e+00 -3.8488589626e+00 2.2221397581e+00 3.8488589626e+00 
141000 3.1746645906e+00 -6.2920885386e-05 2.2221397581e+00 -3.8488589626e+00 2.2221397581e+00 3.8488589626e+00 
141100 3.1746645912e+00 -6.2824608996e-05 2.2221397581e+00 -3.8488589626e+00 2.2221397581e+00 3.8488589626e+00 
141200 3.1746645917e+00 -6.2733556218e-05 2.2221397581e+00 -3.8488589626e+00 2.2221397581e+00 3.8488589626e+00 
141300 3.1746645923e+00 -6.2647337170e-05 2.2221397581e+00 -3.8488589626e+00 2.2221397581e+00 3.8488589626e+00 
141400 3.1746645928e+00 -6.2565579737e-05 2.2221397581e+00 -3.8488589626e+00 2.2221397581e+00 3.8488589626e+00 
141500 3.1746645933e+00 -6.2487929682e-05 2.2221397581e+00 -3.8488589626e+00 2.2221397581e+00 3.8488589626e+00 
141600 3.1746645938e+00 -6.2414050656e-05 2.2221397581e+00 -3.8488589626e+00 2.2221397581e+00 3.8488589626e+00 
141700 3.1746645943e+00 -6.2343624120e-05 2.2221397581e+00 -3.8488589626e+00 2.2221397581e+00 3.8488589626e+00 
141800 3.1746645948e+00 -6.2276349183e-05 2.2221397581e+00 -3.8488589626e+00 2.2221397581e+00 3.8488589626e+00 
141900 3.1746645953e+00 -6.2211942357e-05 2.2221397581e+00 -3.8488589626e+00 2.2221397581e+00 3.8488589626e+00 
142000 3.1746645958e+00 -6.2150137268e-05 2.2221397581e+00 -3.8488589626e+00 2.2221397581e+00 3.8488589626e+00 
142100 3.1746645962e+00 -6.2090684278e-05 2.2221397581e+00 -3.8488589626e+00 2.2221397581e+00 3.8488589626e+00 
142200 3.1746645967e+00 -6.2033350084e-05 2.2221397581e+00 -3.8488589626e+00 2.2221397581e+00 3.8488589626e+00 
142300 3.1746645972e+00 -6.1977917242e-05 2.2221397581e+00 -3.8488589626e+00 2.2221397581e+00 3.8488589626e+00 
142400 3.1746645976e+00 -6.1924183688e-05 2.2221397581e+00 -3.8488589626e+00 2.2221397581e+00 3.8488589626e+00 
142500 3.1746645980e+00 -6.1871962189e-05 2.2221397581e+00 -3.8488589626e+00 2.2221397581e+00 3.8488589626e+00 
142600 3.1746645985e+00 -6.1821079806e-05 2.2221397581e+00 -3.8488589626e+00 2.2221397581e+00 3.8488589626e+00 
142700 3.1746645989e+00 -6.1771377294e-05 2.2221397581e+00 -3.8488589626e+00 2.2221397581e+00 3.8488589626e+00 
142800 3.1746645993e+00 -6.1722708528e-05 2.2221397581e+00 -3.8488589626e+00 2.2221397581e+00 3.8488589626e+00 
142900 3.1746645997e+00 -6.1674939880e-05 2.2221397581e+00 -3.8488589626e+00 2.2221397581e+00 3.8488589626e+00 
143000 3.1746646001e+00 -6.1627949620e-05 2.2221397581e+00 -3.8488589626e+00 2.2221397581e+00 3.8488589626e+00 
143100 3.1746646005e+00 -6.1581627292e-05 2.2221397581e+00 -3.8488589626e+00 2.2221397581e+00 3.8488589626e+00 
143200 3.1746646009e+00 -6.1535873096e-05 2.2221397581e+00 -3.8488589626e+00 2.2221397581e+00 3.8488589626e+00 
143300 3.1746646013e+00 -6.1490597285e-05 2.2221397581e+00 -3.8488589626e+00 2.2221397581e+00 3.8488589626e+00 
143400 3.1746646017e+00 -6.1445719549e-05 2.2221397581e+00 -3.8488589626e+00 2.2221397581e+00 3.8488589626e+00 
143500 3.1746646020e+00 -6.1401168424e-05 2.2221397581e+00 -3.8488589626e+00 2.2221397581e+00 3.8488589626e+00 
143600 3.1746646024e+00 -6.1356880710e-05 2.2221397581e+00 -3.8488589626e+00 2.2221397581e+00 3.8488589626e+00 
143700 3.1746646028e+00 -6.1312800893e-05 2.2221397581e+00 -3.8488589626e+00 2.2221397581e+00 3.8488589626e+00 
143800 3.1746646031e+00 -6.1268880596e-05 2.2221397581e+00 -3.8488589626e+00 2.2221397581e+00 3.8488589626e+00 
143900 3.1746646035e+00 -6.1225078042e-05 2.2221397581e+00 -3.8488589626e+00 2.2221397581e+00 3.8488589626e+00 
144000 3.1746646038e+00 -6.1181357528e-05 2.2221397581e+00 -3.8488589626e+00 2.2221397581e+00 3.8488589626e+00 
144100 3.1746646041e+00 -6.1137688937e-05 2.2221397581e+00 -3.8488589626e+00 2.2221397581e+00 3.8488589626e+00 
144200 3.1746646045e+00 -6.1094047249e-05 2.2221397581e+00 -3.8488589626e+00 2.2221397581e+00 3.8488589626e+00 
144300 3.1746646048e+00 -6.1050412086e-05 2.2221397581e+00 -3.8488589626e+00 2.2221397581e+00 3.8488589626e+00 
144400 3.1746646051e+00 -6.1006767287e-05 2.2221397581e+00 -3.8488589626e+00 2.2221397581e+00 3.8488589626e+00 
144500 3.1746646054e+00 -6.0963100478e-05 2.2221397581e+00 -3.8488589626e+00 2.2221397581e+00 3.8488589626e+00 
144600 3.1746646057e+00 -6.0919402699e-05 2.2221397581e+00 -3.8488589626e+00 2.2221397581e+00 3.8488589626e+00 
144700 3.1746646060e+00 -6.0875668024e-05 2.2221397581e+00 -3.8488589626e+00 2.2221397581e+00 3.8488589626e+00 
144800 3.1746646063e+00 -6.0831893223e-05 2.2221397581e+00 -3.8488589626e+00 2.2221397581e+00 3.8488589626e+00 
144900 3.1746646066e+00 -6.0788077435e-05 2.2221397581e+00 -3.8488589626e+00 2.2221397581e+00 3.8488589626e+00 
145000 3.1746646069e+00 -6.0744221869e-05 2.2221397581e+00 -3.8488589626e+00 2.2221397581e+00 3.8488589626e+00 
145100 3.1746646072e+00 -6.0700329526e-05 2.2221397581e+00 -3.8488589626e+00 2.2221397581e+00 3.8488589626e+00 
145200 3.1746646075e+00 -6.0656404932e-05 2.2221397581e+00 -3.8488589626e+00 2.2221397581e+00 3.8488589626e+00 
145300 3.1746646077e+00 -6.0612453916e-05 2.2221397581e+00 -3.8488589626e+00 2.2221397581e+00 3.8488589626e+00 
145400 3.1746646080e+00 -6.0568483377e-05 2.2221397581e+00 -3.8488589626e+00 2.2221397581e+00 3.8488589626e+00 
145500 3.1746646083e+00 -6.0524501094e-05 2.2221397581e+00 -3.8488589626e+00 2.2221397581e+00 3.8488589626e+00 
145600 3.1746646085e+00 -6.0480515537e-05 2.2221397581e+00 -3.8488589626e+00 2.2221397581e+00 3.8488589626e+00 
145700 3.1746646088e+00 -6.0436535715e-05 2.2221397581e+00 -3.8488589626e+00 2.2221397581e+00 3.8488589626e+00 
145800 3.1746646090e+00 -6.0392571022e-05 2.2221397581e+00 -3.8488589626e+00 2.2221397581e+00 3.8488589626e+00 
145900 3.1746646093e+00 -6.0348631109e-05 2.2221397581e+00 -3.8488589626e+00 2.2221397581e+00 3.8488589626e+00 
146000 3.1746646095e+00 -6.0304725767e-05 2.2221397581e+00 -3.8488589626e+00 2.2221397581e+00 3.8488589626e+00 
146100 3.1746646098e+00 -6.0260864829e-05 2.2221397581e+00 -3.8488589626e+00 2.2221397581e+00 3.8488589626e+00 
146200 3.1746646100e+00 -6.0217058080e-05 2.2221397581e+00 -3.8488589626e+00 2.2221397581e+00 3.8488589626e+00 
146300 3.1746646102e+00 -6.0173315184e-05 2.2221397581e+00 -3.8488589626e+00 2.2221397581e+00 3.8488589626e+00 
146400 3.1746646105e+00 -6.0129645617e-05 2.2221397581e+00 -3.8488589626e+00 2.2221397581e+00 3.8488589626e+00 
146500 3.1746646107e+00 -6.0086058616e-05 2.2221397581e+00 -3.8488589626e+00 2.2221397581e+00 3.8488589626e+00 
146600 3.1746646109e+00 -6.0042563134e-05 2.2221397581e+00 -3.8488589626e+00 2.2221397581e+00 3.8488589626e+00 
146700 3.1746646111e+00 -5.9999167809e-05 2.2221397581e+00 -3.8488589626e+00 2.2221397581e+00 3.8488589626e+00 
146800 3.1746646114e+00 -5.9955880939e-05 2.2221397581e+00 -3.8488589626e+00 2.2221397581e+00 3.8488589626e+00 
146900 3.1746646116e+00 -5.9912710458e-05 2.2221397581e+00 -3.8488589626e+00 2.2221397581e+00 3.8488589626e+00 
147000 3.1746646118e+00 -5.9869663927e-05 2.2221397581e+00 -3.8488589626e+00 2.2221397581e+00 3.8488589626e+00 
147100 3.1746646120e+00 -5.9826748530e-05 2.2221397581e+00 -3.8488589626e+00 2.2221397581e+00 3.8488589626e+00 
147200 3.1746646122e+00 -5.9783971077e-05 2.2221397581e+00 -3.8488589626e+00 2.2221397581e+00 3.8488589626e+00 
147300 3.1746646124e+00 -5.9741337996e-05 2.2221397581e+00 -3.8488589626e+00 2.2221397581e+00 3.8488589626e+00 
147400 3.1746646126e+00 -5.9698855354e-05 2.2221397581e+00 -3.8488589626e+00 2.2221397581e+00 3.8488589626e+00 
147500 3.1746646128e+00 -5.9656528865e-05 2.2221397581e+00 -3.8488589626e+00 2.2221397581e+00 3.8488589626e+00 
147600 3.1746646129e+00 -5.9614363903e-05 2.2221397581e+00 -3.8488589626e+00 2.2221397581e+00 3.8488589626e+00 
147700 3.1746646131e+00 -5.9572365517e-05 2.2221397581e+00 -3.8488589626e+00 2.2221397581e+00 3.8488589626e+00 
147800 3.1746646133e+00 -5.9530538458e-05 2.2221397581e+00 -3.8488589626e+00 2.2221397581e+00 3.8488589626e+00 
147900 3.1746646135e+00 -5.9488887193e-05 2.2221397581e+00 -3.8488589626e+00 2.2221397581e+00 3.8488589626e+00 
148000 3.1746646137e+00 -5.9447415925e-05 2.2221397581e+00 -3.8488589626e+00 2.2221397581e+00 3.8488589626e+00 
148100 3.1746646138e+00 -5.9406128624e-05 2.2221397581e+00 -3.8488589626e+00 2.2221397581e+00 3.8488589626e+00 
148200 3.1746646140e+00 -5.9365029040e-05 2.2221397581e+00 -3.8488589626e+00 2.2221397581e+00 3.8488589626e+00 
148300 3.1746646142e+00 -5.9324120729e-05 2.2221397581e+00 -3.8488589626e+00 2.2221397581e+00 3.8488589626e+00 
148400 3.1746646143e+00 -5.9283407078e-05 2.2221397581e+00 -3.8488589626e+00 2.2221397581e+00 3.8488589626e+00 
148500 3.1746646145e+00 -5.9242891325e-05 2.2221397581e+00 -3.8488589626e+00 2.2221397581e+00 3.8488589626e+00 
148600 3.1746646147e+00 -5.9202576578e-05 2.2221397581e+00 -3.8488589626e+00 2.2221397581e+00 3.8488589626e+00 
148700 3.1746646148e+00 -5.9162465837e-05 2.2221397581e+00 -3.8488589626e+00 2.2221397581e+00 3.8488589626e+00 
148800 3.1746646150e+00 -5.9122562013e-05 2.2221397581e+00 -3.8488589626e+00 2.2221397581e+00 3.8488589626e+00 
148900 3.1746646151e+00 -5.9082867946e-05 2.2221397581e+00 -3.8488589626e+00 2.2221397581e+00 3.8488589626e+00 
149000 3.1746646153e+00 -5.9043386424e-05 2.2221397581e+00 -3.8488589626e+00 2.2221397581e+00 3.8488589626e+00 
149100 3.1746646154e+00 -5.9004120188e-05 2.2221397581e+00 -3.8488589626e+00 2.2221397581e+00 3.8488589626e+00 
149200 3.1746646156e+00 -5.8965071964e-05 2.2221397581e+00 -3.8488589626e+00 2.2221397581e+00 3.8488589626e+00 
149300 3.1746646157e+00 -5.8926244457e-05 2.2221397581e+00 -3.8488589626e+00 2.2221397581e+00 3.8488589626e+00 
149400 3.1746646159e+00 -5.8887640367e-05 2.2221397581e+00 -3.8488589626e+00 2.2221397581e+00 3.8488589626e+00 
149500 3.1746646160e+00 -5.8849262409e-05 2.2221397581e+00 -3.8488589626e+00 2.2221397581e+00 3.8488589626e+00 
149600 3.1746646161e+00 -5.8811113305e-05 2.2221397581e+00 -3.8488589626e+00 2.2221397581e+00 3.8488589626e+00 
149700 3.1746646163e+00 -5.8773195798e-05 2.2221397581e+00 -3.8488589626e+00 2.2221397581e+00 3.8488589626e+00 
149800 3.1746646164e+00 -5.8735512655e-05 2.2221397581e+00 -3.8488589626e+00 2.2221397581e+00 3.8488589626e+00 
149900 3.1746646165e+00 -5.8698066671e-05 2.2221397581e+00 -3.8488589626e+00 2.2221397581e+00 3.8488589626e+00 
150000 3.1746646167e+00 -5.8660860669e-05 2.2221397581e+00 -3.8488589626e+00 2.2221397581e+00 3.8488589626e+00 
150100 3.1746646168e+00 -5.8623897501e-05 2.2221397581e+00 -3.8488589626e+00 2.2221397581e+00 3.8488589626e+00 
150200 3.1746646169e+00 -5.8587180046e-05 2.2221397581e+00 -3.8488589626e+00 2.2221397581e+00 3.8488589626e+00 
150300 3.1746646170e+00 -5.8550711209e-05 2.2221397581e+00 -3.8488589626e+00 2.2221397581e+00 3.8488589626e+00 
150400 3.1746646172e+00 -5.8514493920e-05 2.2221397581e+00 -3.8488589626e+00 2.2221397581e+00 3.8488589626e+00 
150500 3.1746646173e+00 -5.8478531124e-05 2.2221397581e+00 -3.8488589626e+00 2.2221397581e+00 3.8488589626e+00 
150600 3.1746646174e+00 -5.8442825779e-05 2.2221397581e+00 -3.8488589626e+00 2.2221397581e+00 3.8488589626e+00 
150700 3.1746646175e+00 -5.8407380852e-05 2.2221397581e+00 -3.8488589626e+00 2.2221397581e+00 3.8488589626e+00 
150800 3.1746646176e+00 -5.8372199303e-05 2.2221397581e+00 -3.8488589626e+00 2.2221397581e+00 3.8488589626e+00 
150900 3.1746646177e+00 -5.8337284092e-05 2.2221397581e+00 -3.8488589626e+00 2.2221397581e+00 3.8488589626e+00 
151000 3.1746646178e+00 -5.8302638158e-05 2.2221397581e+00 -3.8488589626e+00 2.2221397581e+00 3.8488589626e+00 
151100 3.1746646179e+00 -5.8268264417e-05 2.2221397581e+00 -3.8488589626e+00 2.2221397581e+00 3.8488589626e+00 
151200 3.1746646180e+00 -5.8234165751e-05 2.2221397581e+00 -3.8488589626e+00 2.2221397581e+00 3.8488589626e+00 
151300 3.1746646182e+00 -5.8200344995e-05 2.2221397581e+00 -3.8488589626e+00 2.2221397581e+00 3.8488589626e+00 
151400 3.1746646183e+00 -5.8166804937e-05 2.2221397581e+00 -3.8488589626e+00 2.2221397581e+00 3.8488589626e+00 
151500 3.1746646184e+00 -5.8133548301e-05 2.2221397581e+00 -3.8488589626e+00 2.2221397581e+00 3.8488589626e+00 
151600 3.1746646185e+00 -5.8100577735e-05 2.2221397581e+00 -3.8488589626e+00 2.2221397581e+00 3.8488589626e+00 
151700 3.1746646186e+00 -5.8067895810e-05 2.2221397581e+00 -3.8488589626e+00 2.2221397581e+00 3.8488589626e+00 
151800 3.1746646186e+00 -5.8035505005e-05 2.2221397581e+00 -3.8488589626e+00 2.2221397581e+00 3.8488589626e+00 
151900 3.1746646187e+00 -5.8003407695e-05 2.2221397581e+00 -3.8488589626e+00 2.2221397581e+00 3.8488589626e+00 
152000 3.1746646188e+00 -5.7971606147e-05 2.2221397581e+00 -3.8488589626e+00 2.2221397581e+00 3.8488589626e+00 
152100 3.1746646189e+00 -5.7940102512e-05 2.2221397581e+00 -3.8488589626e+00 2.2221397581e+00 3.8488589626e+00 
152200 3.1746646190e+00 -5.7908898811e-05 2.2221397581e+00 -3.8488589626e+00 2.2221397581e+00 3.8488589626e+00 
152300 3.1746646191e+00 -5.7877996931e-05 2.2221397581e+00 -3.8488589626e+00 2.2221397581e+00 3.8488589626e+00 
152400 3.1746646192e+00 -5.7847398613e-05 2.2221397581e+00 -3.8488589626e+00 2.2221397581e+00 3.8488589626e+00 
152500 3.1746646193e+00 -5.7817105453e-05 2.2221397581e+00 -3.8488589626e+00 2.2221397581e+00 3.8488589626e+00 
152600 3.1746646194e+00 -5.7787118887e-05 2.2221397581e+00 -3.8488589626e+00 2.2221397581e+00 3.8488589626e+00 
152700 3.1746646194e+00 -5.7757440191e-05 2.2221397581e+00 -3.8488589626e+00 2.2221397581e+00 3.8488589626e+00 
152800 3.1746646195e+00 -5.7728070471e-05 2.2221397581e+00 -3.8488589626e+00 2.2221397581e+00 3.8488589626e+00 
152900 3.1746646196e+00 -5.7699010659e-05 2.2221397581e+00 -3.8488589626e+00 2.2221397581e+00 3.8488589626e+00 
153000 3.1746646197e+00 -5.7670261514e-05 2.2221397581e+00 -3.8488589626e+00 2.2221397581e+00 3.8488589626e+00 
153100 3.1746646198e+00 -5.7641823611e-05 2.2221397581e+00 -3.8488589626e+00 2.2221397581e+00 3.8488589626e+00 
153200 3.1746646198e+00 -5.7613697342e-05 2.2221397581e+00 -3.8488589626e+00 2.2221397581e+00 3.8488589626e+00 
153300 3.1746646199e+00 -5.7585882914e-05 2.2221397581e+00 -3.8488589626e+00 2.2221397581e+00 3.8488589626e+00 
153400 3.1746646200e+00 -5.7558380344e-05 2.2221397581e+00 -3.8488589626e+00 2.2221397581e+00 3.8488589626e+00 
153500 3.1746646201e+00 -5.7531189465e-05 2.2221397581e+00 -3.8488589626e+00 2.2221397581e+00 3.8488589626e+00 
153600 3.1746646201e+00 -5.7504309918e-05 2.2221397581e+00 -3.8488589626e+00 2.2221397581e+00 3.8488589626e+00 
153700 3.1746646202e+00 -5.7477741155e-05 2.2221397581e+00 -3.8488589626e+00 2.2221397581e+00 3.8488589626e+00 
153800 3.1746646203e+00 -5.7451482439e-05 2.2221397581e+00 -3.8488589626e+00 2.2221397581e+00 3.8488589626e+00 
153900 3.1746646204e+00 -5.7425532852e-05 2.2221397581e+00 -3.8488589626e+00 2.2221397581e+00 3.8488589626e+00 
154000 3.1746646204e+00 -5.7399891286e-05 2.2221397581e+00 -3.8488589626e+00 2.2221397581e+00 3.8488589626e+00 
154100 3.1746646205e+00 -5.7374556457e-05 2.2221397581e+00 -3.8488589626e+00 2.2221397581e+00 3.8488589626e+00 
154200 3.1746646206e+00 -5.7349526895e-05 2.2221397581e+00 -3.8488589626e+00 2.2221397581e+00 3.8488589626e+00 
154300 3.1746646206e+00 -5.7324800961e-05 2.2221397581e+00 -3.8488589626e+00 2.2221397581e+00 3.8488589626e+00 
154400 3.1746646207e+00 -5.7300376843e-05 2.2221397581e+00 -3.8488589626e+00 2.2221397581e+00 3.8488589626e+00 
154500 3.1746646208e+00 -5.7276252566e-05 2.2221397581e+00 -3.8488589626e+00 2.2221397581e+00 3.8488589626e+00 
154600 3.1746646208e+00 -5.7252425988e-05 2.2221397581e+00 -3.8488589626e+00 2.2221397581e+00 3.8488589626e+00 
154700 3.1746646209e+00 -5.7228894819e-05 2.2221397581e+00 -3.8488589626e+00 2.2221397581e+00 3.8488589626e+00 
154800 3.1746646209e+00 -5.7205656610e-05 2.2221397581e+00 -3.8488589626e+00 2.2221397581e+00 3.8488589626e+00 
154900 3.1746646210e+00 -5.7182708777e-05 2.2221397581e+00 -3.8488589626e+00 2.2221397581e+00 3.8488589626e+00 
155000 3.1746646211e+00 -5.7160048593e-05 2.2221397581e+00 -3.8488589626e+00 2.2221397581e+00 3.8488589626e+00 
155100 3.1746646211e+00 -5.7137673202e-05 2.2221397581e+00 -3.8488589626e+00 2.2221397581e+00 3.8488589626e+00 
155200 3.1746646212e+00 -5.7115579624e-05 2.2221397581e+00 -3.8488589626e+00 2.2221397581e+00 3.8488589626e+00 
155300 3.1746646212e+00 -5.7093764764e-05 2.2221397581e+00 -3.8488589626e+00 2.2221397581e+00 3.8488589626e+00 
155400 3.1746646213e+00 -5.7072225415e-05 2.2221397581e+00 -3.8488589626e+00 2.2221397581e+00 3.8488589626e+00 
155500 3.1746646213e+00 -5.7050958273e-05 2.2221397581e+00 -3.8488589626e+00 2.2221397581e+00 3.8488589626e+00 
155600 3.1746646214e+00 -5.7029959931e-05 2.2221397581e+00 -3.8488589626e+00 2.2221397581e+00 3.8488589626e+00 
155700 3.1746646214e+00 -5.7009226903e-05 2.2221397581e+00 -3.8488589626e+00 2.2221397581e+00 3.8488589626e+00 
155800 3.1746646215e+00 -5.6988755622e-05 2.2221397581e+00 -3.8488589626e+00 2.2221397581e+00 3.8488589626e+00 
155900 3.1746646215e+00 -5.6968542452e-05 2.2221397581e+00 -3.8488589626e+00 2.2221397581e+00 3.8488589626e+00 
156000 3.1746646216e+00 -5.6948583686e-05 2.2221397581e+00 -3.8488589626e+00 2.2221397581e+00 3.8488589626e+00 
156100 3.1746646216e+00 -5.6935548441e-05 2.2221397581e+00 -3.8488589626e+00 2.2221397581e+00 3.8488589626e+00 
156100 3.1746646216e+00 -5.6935548441e-05 2.2221397581e+00 -3.8488589626e+00 2.2221397581e+00 3.8488589626e+00 
