# step Hamiltonian StressXX CellTensor1 CellTensor2 CellTensor3 CellTensor4 
0 5.7821991086e+00 8.2962361039e-02 2.8237630504e+00 -4.8909010719e+00 2.8237630504e+00 4.8909010719e+00 
100 5.7952743822e+00 9.6073887049e-02 2.8237630504e+00 -4.8909010719e+00 2.8237630504e+00 4.8909010719e+00 
200 5.8082857612e+00 1.0894885470e-01 2.8220620537e+00 -4.8879548591e+00 2.8220620537e+00 4.8879548591e+00 
300 5.8212294323e+00 1.2170243068e-01 2.8201319681e+00 -4.8846118528e+00 2.8201319681e+00 4.8846118528e+00 
400 5.8340186751e+00 1.3434318390e-01 2.8179744999e+00 -4.8808750083e+00 2.8179744999e+00 4.8808750083e+00 
500 5.8465701289e+00 1.4687487243e-01 2.8155911528e+00 -4.8767469300e+00 2.8155911528e+00 4.8767469300e+00 
600 5.8588042630e+00 1.5929682149e-01 2.8129833137e+00 -4.8722300202e+00 2.8129833137e+00 4.8722300202e+00 
700 5.8706458193e+00 1.7160427972e-01 2.8101523323e+00 -4.8673266165e+00 2.8101523323e+00 4.8673266165e+00 
800 5.8820242284e+00 1.8378876121e-01 2.8070995944e+00 -4.8620391193e+00 2.8070995944e+00 4.8620391193e+00 
900 5.8928739986e+00 1.9583837999e-01 2.8038265898e+00 -4.8563701091e+00 2.8038265898e+00 4.8563701091e+00 
1000 5.9031350768e+00 2.0773818315e-01 2.8003349745e+00 -4.8503224541e+00 2.8003349745e+00 4.8503224541e+00 
1100 5.9127531786e+00 2.1947048841e-01 2.7966266277e+00 -4.8438994091e+00 2.7966266277e+00 4.8438994091e+00 
1200 5.9216800866e+00 2.3101523091e-01 2.7927037034e+00 -4.8371047048e+00 2.7927037034e+00 4.8371047048e+00 
1300 5.9298739104e+00 2.4235032268e-01 2.7885686760e+00 -4.8299426273e+00 2.7885686760e+00 4.8299426273e+00 
1400 5.9372993053e+00 2.5345202686e-01 2.7842243814e+00 -4.8224180882e+00 2.7842243814e+00 4.8224180882e+00 
1500 5.9439276432e+00 2.6429534659e-01 2.7796740502e+00 -4.8145366835e+00 2.7796740502e+00 4.8145366835e+00 
1600 5.9497371298e+00 2.7485442607e-01 2.7749213369e+00 -4.8063047424e+00 2.7749213369e+00 4.8063047424e+00 
1700 5.9547128623e+00 2.8510295900e-01 2.7699703402e+00 -4.7977293647e+00 2.7699703402e+00 4.7977293647e+00 
1800 5.9588468203e+00 2.9501459720e-01 2.7648256188e+00 -4.7888184459e+00 2.7648256188e+00 4.7888184459e+00 
1900 5.9621377876e+00 3.0456335061e-01 2.7594921987e+00 -4.7795806912e+00 2.7594921987e+00 4.7795806912e+00 
2000 5.9645911996e+00 3.1372396867e-01 2.7539755744e+00 -4.7700256176e+00 2.7539755744e+00 4.7700256176e+00 
2100 5.9662189168e+00 3.2247229388e-01 2.7482817039e+00 -4.7601635447e+00 2.7482817039e+00 4.7601635447e+00 
2200 5.9670389268e+00 3.3078557895e-01 2.7424169973e+00 -4.7500055749e+00 2.7424169973e+00 4.7500055749e+00 
2300 5.9670749790e+00 3.3864276196e-01 2.7363882994e+00 -4.7395635638e+00 2.7363882994e+00 4.7395635638e+00 
2400 5.9663561600e+00 3.4602469629e-01 2.7302028679e+00 -4.7288500823e+00 2.7302028679e+00 4.7288500823e+00 
2500 5.9649164195e+00 3.5291433542e-01 2.7238683473e+00 -4.7178783707e+00 2.7238683473e+00 4.7178783707e+00 
2600 5.9627940567e+00 3.5929687500e-01 2.7173927386e+00 -4.7066622874e+00 2.7173927386e+00 4.7066622874e+00 
2700 5.9600311801e+00 3.6515985648e-01 2.7107843668e+00 -4.6952162516e+00 2.7107843668e+00 4.6952162516e+00 
2800 5.9566731492e+00 3.7049323696e-01 2.7040518456e+00 -4.6835551828e+00 2.7040518456e+00 4.6835551828e+00 
2900 5.9527680098e+00 3.7528943010e-01 2.6972040405e+00 -4.6716944365e+00 2.6972040405e+00 4.6716944365e+00 
3000 5.9483659298e+00 3.7954332149e-01 2.6902500304e+00 -4.6596497378e+00 2.6902500304e+00 4.6596497378e+00 
3100 5.9435186427e+00 3.8325226098e-01 2.6831990683e+00 -4.6474371132e+00 2.6831990683e+00 4.6474371132e+00 
3200 5.9382789046e+00 3.8641603296e-01 2.6760605411e+00 -4.6350728213e+00 2.6760605411e+00 4.6350728213e+00 
3300 5.9326999674e+00 3.8903680493e-01 2.6688439292e+00 -4.6225732828e+00 2.6688439292e+00 4.6225732828e+00 
3400 5.9268350746e+00 3.9111905421e-01 2.6615587664e+00 -4.6099550108e+00 2.6615587664e+00 4.6099550108e+00 
3500 5.9207369809e+00 3.9266947297e-01 2.6542146002e+00 -4.5972345417e+00 2.6542146002e+00 4.5972345417e+00 
3600 5.9144574995e+00 3.9369685218e-01 2.6468209521e+00 -4.5844283676e+00 2.6468209521e+00 4.5844283676e+00 
3700 5.9080470813e+00 3.9421194622e-01 2.6393872804e+00 -4.5715528705e+00 2.6393872804e+00 4.5715528705e+00 
3800 5.9015544277e+00 3.9422732035e-01 2.6319229434e+00 -4.5586242596e+00 2.6319229434e+00 4.5586242596e+00 
3900 5.8950261413e+00 3.9375718431e-01 2.6244371654e+00 -4.5456585117e+00 2.6244371654e+00 4.5456585117e+00 
4000 5.8885064156e+00 3.9281721573e-01 2.6169390041e+00 -4.5326713155e+00 2.6169390041e+00 4.5326713155e+00 
4100 5.8820367675e+00 3.9142437717e-01 2.6094373216e+00 -4.5196780202e+00 2.6094373216e+00 4.5196780202e+00 
4200 5.8756558122e+00 3.8959673066e-01 2.6019407566e+00 -4.5066935888e+00 2.6019407566e+00 4.5066935888e+00 
4300 5.8693990827e+00 3.8735325338e-01 2.5944577008e+00 -4.4937325559e+00 2.5944577008e+00 4.4937325559e+00 
4400 5.8632988927e+00 3.8471365746e-01 2.5869962771e+00 -4.4808089910e+00 2.5869962771e+00 4.4808089910e+00 
4500 5.8573842428e+00 3.8169821687e-01 2.5795643214e+00 -4.4679364661e+00 2.5795643214e+00 4.4679364661e+00 
4600 5.8516807678e+00 3.7832760320e-01 2.5721693666e+00 -4.4551280286e+00 2.5721693666e+00 4.4551280286e+00 
4700 5.8462107236e+00 3.7462273212e-01 2.5648186297e+00 -4.4423961789e+00 2.5648186297e+00 4.4423961789e+00 
4800 5.8409930115e+00 3.7060462152e-01 2.5575190017e+00 -4.4297528522e+00 2.5575190017e+00 4.4297528522e+00 
4900 5.8360432358e+00 3.6629426212e-01 2.5502770391e+00 -4.4172094051e+00 2.5502770391e+00 4.4172094051e+00 
5000 5.8313737917e+00 3.6171250077e-01 2.5430989588e+00 -4.4047766054e+00 2.5430989588e+00 4.4047766054e+00 
5100 5.8269939821e+00 3.5687993647e-01 2.5359906345e+00 -4.3924646265e+00 2.5359906345e+00 4.3924646265e+00 
5200 5.8229101561e+00 3.5181682903e-01 2.5289575950e+00 -4.3802830448e+00 2.5289575950e+00 4.3802830448e+00 
5300 5.8191258691e+00 3.4654301969e-01 2.5220050247e+00 -4.3682408398e+00 2.5220050247e+00 4.3682408398e+00 
5400 5.8156420594e+00 3.4107786350e-01 2.5151377654e+00 -4.3563463978e+00 2.5151377654e+00 4.3563463978e+00 
5500 5.8124572369e+00 3.3544017252e-01 2.5083603196e+00 -4.3446075173e+00 2.5083603196e+00 4.3446075173e+00 
5600 5.8095676832e+00 3.2964816921e-01 2.5016768551e+00 -4.3330314171e+00 2.5016768551e+00 4.3330314171e+00 
5700 5.8069676574e+00 3.2371944937e-01 2.4950912105e+00 -4.3216247461e+00 2.4950912105e+00 4.3216247461e+00 
5800 5.8046496063e+00 3.1767095356e-01 2.4886069023e+00 -4.3103935949e+00 2.4886069023e+00 4.3103935949e+00 
5900 5.8026043750e+00 3.1151894647e-01 2.4822271319e+00 -4.2993435083e+00 2.4822271319e+00 4.2993435083e+00 
6000 5.8008214167e+00 3.0527900322e-01 2.4759547936e+00 -4.2884794998e+00 2.4759547936e+00 4.2884794998e+00 
6100 5.7992889988e+00 2.9896600199e-01 2.4697924840e+00 -4.2778060664e+00 2.4697924840e+00 4.2778060664e+00 
6200 5.7979944028e+00 2.9259412205e-01 2.4637425102e+00 -4.2673272045e+00 2.4637425102e+00 4.2673272045e+00 
6300 5.7969241176e+00 2.8617684667e-01 2.4578069000e+00 -4.2570464260e+00 2.4578069000e+00 4.2570464260e+00 
6400 5.7960640237e+00 2.7972697007e-01 2.4519874111e+00 -4.2469667755e+00 2.4519874111e+00 4.2469667755e+00 
6500 5.7953995669e+00 2.7325660781e-01 2.4462855412e+00 -4.2370908472e+00 2.4462855412e+00 4.2370908472e+00 
6600 5.7949159223e+00 2.6677721022e-01 2.4407025382e+00 -4.2274208023e+00 2.4407025382e+00 4.2274208023e+00 
6700 5.7945981447e+00 2.6029957807e-01 2.4352394098e+00 -4.2179583864e+00 2.4352394098e+00 4.2179583864e+00 
6800 5.7944313087e+00 2.5383388018e-01 2.4298969339e+00 -4.2087049466e+00 2.4298969339e+00 4.2087049466e+00 
6900 5.7944006349e+00 2.4738967253e-01 2.4246756682e+00 -4.1996614493e+00 2.4246756682e+00 4.1996614493e+00 
7000 5.7944916040e+00 2.4097591844e-01 2.4195759606e+00 -4.1908284966e+00 2.4195759606e+00 4.1908284966e+00 
7100 5.7946900578e+00 2.3460100955e-01 2.4145979584e+00 -4.1822063439e+00 2.4145979584e+00 4.1822063439e+00 
7200 5.7949822885e+00 2.2827278719e-01 2.4097416182e+00 -4.1737949158e+00 2.4097416182e+00 4.1737949158e+00 
7300 5.7953551145e+00 2.2199856412e-01 2.4050067151e+00 -4.1655938231e+00 2.4050067151e+00 4.1655938231e+00 
7400 5.7957959456e+00 2.1578514618e-01 2.4003928523e+00 -4.1576023783e+00 2.4003928523e+00 4.1576023783e+00 
7500 5.7962928362e+00 2.0963885387e-01 2.3958994695e+00 -4.1498196111e+00 2.3958994695e+00 4.1498196111e+00 
7600 5.7968345282e+00 2.0356554357e-01 2.3915258525e+00 -4.1422442841e+00 2.3915258525e+00 4.1422442841e+00 
7700 5.7974104831e+00 1.9757062845e-01 2.3872711408e+00 -4.1348749073e+00 2.3872711408e+00 4.1348749073e+00 
7800 5.7980109053e+00 1.9165909883e-01 2.3831343369e+00 -4.1277097527e+00 2.3831343369e+00 4.1277097527e+00 
7900 5.7986267568e+00 1.8583554195e-01 2.3791143136e+00 -4.1207468682e+00 2.3791143136e+00 4.1207468682e+00 
8000 5.7992497628e+00 1.8010416122e-01 2.3752098225e+00 -4.1139840913e+00 2.3752098225e+00 4.1139840913e+00 
8100 5.7998724117e+00 1.7446879473e-01 2.3714195012e+00 -4.1074190621e+00 2.3714195012e+00 4.1074190621e+00 
8200 5.8004879469e+00 1.6893293313e-01 2.3677418807e+00 -4.1010492366e+00 2.3677418807e+00 4.1010492366e+00 
8300 5.8010903538e+00 1.6349973682e-01 2.3641753929e+00 -4.0948718986e+00 2.3641753929e+00 4.0948718986e+00 
8400 5.8016743414e+00 1.5817205247e-01 2.3607183774e+00 -4.0888841720e+00 2.3607183774e+00 4.0888841720e+00 
8500 5.8022353191e+00 1.5295242878e-01 2.3573690878e+00 -4.0830830323e+00 2.3573690878e+00 4.0830830323e+00 
8600 5.8027693705e+00 1.4784313166e-01 2.3541256988e+00 -4.0774653177e+00 2.3541256988e+00 4.0774653177e+00 
8700 5.8032732230e+00 1.4284615869e-01 2.3509863120e+00 -4.0720277404e+00 2.3509863120e+00 4.0720277404e+00 
8800 5.8037442154e+00 1.3796325290e-01 2.3479489623e+00 -4.0667668963e+00 2.3479489623e+00 4.0667668963e+00 
8900 5.8041802636e+00 1.3319591597e-01 2.3450116232e+00 -4.0616792757e+00 2.3450116232e+00 4.0616792757e+00 
9000 5.8045798237e+00 1.2854542076e-01 2.3421722130e+00 -4.0567612730e+00 2.3421722130e+00 4.0567612730e+00 
9100 5.8049418552e+00 1.2401282329e-01 2.3394285999e+00 -4.0520091956e+00 2.3394285999e+00 4.0520091956e+00 
9200 5.8052657828e+00 1.1959897411e-01 2.3367786070e+00 -4.0474192734e+00 2.3367786070e+00 4.0474192734e+00 
9300 5.8055514580e+00 1.1530452909e-01 2.3342200180e+00 -4.0429876673e+00 2.3342200180e+00 4.0429876673e+00 
9400 5.8057991207e+00 1.1112995970e-01 2.3317505813e+00 -4.0387104774e+00 2.3317505813e+00 4.0387104774e+00 
9500 5.8060093611e+00 1.0707556279e-01 2.3293680149e+00 -4.0345837513e+00 2.3293680149e+00 4.0345837513e+00 
9600 5.8061830826e+00 1.0314146976e-01 2.3270700110e+00 -4.0306034918e+00 2.3270700110e+00 4.0306034918e+00 
9700 5.8063214647e+00 9.9327655389e-02 2.3248542400e+00 -4.0267656639e+00 2.3248542400e+00 4.0267656639e+00 
9800 5.8064259280e+00 9.5633946054e-02 2.3227183549e+00 -4.0230662024e+00 2.3227183549e+00 4.0230662024e+00 
9900 5.8064980994e+00 9.2060027605e-02 2.3206599950e+00 -4.0195010185e+00 2.3206599950e+00 4.0195010185e+00 
10000 5.8065397794e+00 8.8605452737e-02 2.3186767897e+00 -4.0160660062e+00 2.3186767897e+00 4.0160660062e+00 
10100 5.8065529107e+00 8.5269647972e-02 2.3167663623e+00 -4.0127570488e+00 2.3167663623e+00 4.0127570488e+00 
10200 5.8065395480e+00 8.2051920227e-02 2.3149263332e+00 -4.0095700250e+00 2.3149263332e+00 4.0095700250e+00 
10300 5.8065018301e+00 7.8951462998e-02 2.3131543235e+00 -4.0065008140e+00 2.3131543235e+00 4.0065008140e+00 
10400 5.8064419535e+00 7.5967362174e-02 2.3114479577e+00 -4.0035453017e+00 2.3114479577e+00 4.0035453017e+00 
10500 5.8063621474e+00 7.3098601486e-02 2.3098048674e+00 -4.0006993858e+00 2.3098048674e+00 4.0006993858e+00 
10600 5.8062646509e+00 7.0344067633e-02 2.3082226937e+00 -3.9979589806e+00 2.3082226937e+00 3.9979589806e+00 
10700 5.8061516922e+00 6.7702555064e-02 2.3066990902e+00 -3.9953200220e+00 2.3066990902e+00 3.9953200220e+00 
10800 5.8060254689e+00 6.5172770470e-02 2.3052317256e+00 -3.9927784719e+00 2.3052317256e+00 3.9927784719e+00 
10900 5.8058881307e+00 6.2753336975e-02 2.3038182862e+00 -3.9903303231e+00 2.3038182862e+00 3.9903303231e+00 
11000 5.8057417639e+00 6.0442798054e-02 2.3024564785e+00 -3.9879716030e+00 2.3024564785e+00 3.9879716030e+00 
11100 5.8055883768e+00 5.8239621196e-02 2.3011440313e+00 -3.9856983777e+00 2.3011440313e+00 3.9856983777e+00 
11200 5.8054298880e+00 5.6142201325e-02 2.2998786981e+00 -3.9835067563e+00 2.2998786981e+00 3.9835067563e+00 
11300 5.8052681154e+00 5.4148863996e-02 2.2986582591e+00 -3.9813928939e+00 2.2986582591e+00 3.9813928939e+00 
11400 5.8051047673e+00 5.2257868391e-02 2.2974805234e+00 -3.9793529959e+00 2.2974805234e+00 3.9793529959e+00 
11500 5.8049414350e+00 5.0467410124e-02 2.2963433308e+00 -3.9773833206e+00 2.2963433308e+00 3.9773833206e+00 
11600 5.8047795861e+00 4.8775623877e-02 2.2952445539e+00 -3.9754801831e+00 2.2952445539e+00 3.9754801831e+00 
11700 5.8046205609e+00 4.7180585888e-02 2.2941820993e+00 -3.9736399579e+00 2.2941820993e+00 3.9736399579e+00 
11800 5.8044655683e+00 4.5680316305e-02 2.2931539102e+00 -3.9718590821e+00 2.2931539102e+00 3.9718590821e+00 
11900 5.8043156842e+00 4.4272781433e-02 2.2921579673e+00 -3.9701340584e+00 2.2921579673e+00 3.9701340584e+00 
12000 5.8041718504e+00 4.2955895876e-02 2.2911922906e+00 -3.9684614573e+00 2.2911922906e+00 3.9684614573e+00 
12100 5.8040348753e+00 4.1727524616e-02 2.2902549410e+00 -3.9668379201e+00 2.2902549410e+00 3.9668379201e+00 
12200 5.8039054352e+00 4.0585485028e-02 2.2893440215e+00 -3.9652601612e+00 2.2893440215e+00 3.9652601612e+00 
12300 5.8037840765e+00 3.9527548863e-02 2.2884576788e+00 -3.9637249707e+00 2.2884576788e+00 3.9637249707e+00 
12400 5.8036712192e+00 3.8551444206e-02 2.2875941046e+00 -3.9622292163e+00 2.2875941046e+00 3.9622292163e+00 
12500 5.8035671611e+00 3.7654857439e-02 2.2867515365e+00 -3.9607698455e+00 2.2867515365e+00 3.9607698455e+00 
12600 5.8034720825e+00 3.6835435214e-02 2.2859282595e+00 -3.9593438880e+00 2.2859282595e+00 3.9593438880e+00 
12700 5.8033860520e+00 3.6090786467e-02 2.2851226072e+00 -3.9579484571e+00 2.2851226072e+00 3.9579484571e+00 
12800 5.8033090328e+00 3.5418484478e-02 2.2843329623e+00 -3.9565807521e+00 2.2843329623e+00 3.9565807521e+00 
12900 5.8032408890e+00 3.4816068992e-02 2.2835577583e+00 -3.9552380594e+00 2.2835577583e+00 3.9552380594e+00 
13000 5.8031813936e+00 3.4281048430e-02 2.2827954800e+00 -3.9539177546e+00 2.2827954800e+00 3.9539177546e+00 
13100 5.8031302352e+00 3.3810902179e-02 2.2820446644e+00 -3.9526173039e+00 2.2820446644e+00 3.9526173039e+00 
13200 5.8030870270e+00 3.3403083004e-02 2.2813039017e+00 -3.9513342652e+00 2.2813039017e+00 3.9513342652e+00 
13300 5.8030513138e+00 3.3055019560e-02 2.2805718358e+00 -3.9500662899e+00 2.2805718358e+00 3.9500662899e+00 
13400 5.8030225816e+00 3.2764119039e-02 2.2798471652e+00 -3.9488111235e+00 2.2798471652e+00 3.9488111235e+00 
13500 5.8030002650e+00 3.2527769946e-02 2.2791286434e+00 -3.9475666073e+00 2.2791286434e+00 3.9475666073e+00 
13600 5.8029837566e+00 3.2343345014e-02 2.2784150796e+00 -3.9463306786e+00 2.2784150796e+00 3.9463306786e+00 
13700 5.8029724148e+00 3.2208204263e-02 2.2777053392e+00 -3.9451013721e+00 2.2777053392e+00 3.9451013721e+00 
13800 5.8029655728e+00 3.2119698199e-02 2.2769983439e+00 -3.9438768204e+00 2.2769983439e+00 3.9438768204e+00 
13900 5.8029625464e+00 3.2075171167e-02 2.2762930725e+00 -3.9426552544e+00 2.2762930725e+00 3.9426552544e+00 
14000 5.8029626422e+00 3.2071964835e-02 2.2755885605e+00 -3.9414350038e+00 2.2755885605e+00 3.9414350038e+00 
14100 5.8029651654e+00 3.2107421827e-02 2.2748839008e+00 -3.9402144975e+00 2.2748839008e+00 3.9402144975e+00 
14200 5.8029694274e+00 3.2178889483e-02 2.2741782437e+00 -3.9389922635e+00 2.2741782437e+00 3.9389922635e+00 
14300 5.8029747526e+00 3.2283723742e-02 2.2734707965e+00 -3.9377669290e+00 2.2734707965e+00 3.9377669290e+00 
14400 5.8029804852e+00 3.2419293145e-02 2.2727608238e+00 -3.9365372203e+00 2.2727608238e+00 3.9365372203e+00 
14500 5.8029859955e+00 3.2582982932e-02 2.2720476472e+00 -3.9353019621e+00 2.2720476472e+00 3.9353019621e+00 
14600 5.8029906853e+00 3.2772199230e-02 2.2713306449e+00 -3.9340600777e+00 2.2713306449e+00 3.9340600777e+00 
14700 5.8029939936e+00 3.2984373311e-02 2.2706092514e+00 -3.9328105875e+00 2.2706092514e+00 3.9328105875e+00 
14800 5.8029954005e+00 3.3216965901e-02 2.2698829570e+00 -3.9315526087e+00 2.2698829570e+00 3.9315526087e+00 
14900 5.8029944320e+00 3.3467471522e-02 2.2691513073e+00 -3.9302853544e+00 2.2691513073e+00 3.9302853544e+00 
15000 5.8029906627e+00 3.3733422847e-02 2.2684139026e+00 -3.9290081319e+00 2.2684139026e+00 3.9290081319e+00 
15100 5.8029837191e+00 3.4012395049e-02 2.2676703968e+00 -3.9277203421e+00 2.2676703968e+00 3.9277203421e+00 
15200 5.8029732816e+00 3.4302010105e-02 2.2669204968e+00 -3.9264214772e+00 2.2669204968e+00 3.9264214772e+00 
15300 5.8029590860e+00 3.4599941061e-02 2.2661639616e+00 -3.9251111198e+00 2.2661639616e+00 3.9251111198e+00 
15400 5.8029409246e+00 3.4903916199e-02 2.2654006012e+00 -3.9237889408e+00 2.2654006012e+00 3.9237889408e+00 
15500 5.8029186463e+00 3.5211723116e-02 2.2646302753e+00 -3.9224546971e+00 2.2646302753e+00 3.9224546971e+00 
15600 5.8028921566e+00 3.5521212660e-02 2.2638528921e+00 -3.9211082300e+00 2.2638528921e+00 3.9211082300e+00 
15700 5.8028614164e+00 3.5830302723e-02 2.2630684074e+00 -3.9197494626e+00 2.2630684074e+00 3.9197494626e+00 
15800 5.8028264409e+00 3.6136981857e-02 2.2622768226e+00 -3.9183783975e+00 2.2622768226e+00 3.9183783975e+00 
15900 5.8027872977e+00 3.6439312695e-02 2.2614781835e+00 -3.9169951139e+00 2.2614781835e+00 3.9169951139e+00 
16000 5.8027441041e+00 3.6735435152e-02 2.2606725788e+00 -3.9155997657e+00 2.2606725788e+00 3.9155997657e+00 
16100 5.8026970246e+00 3.7023569389e-02 2.2598601384e+00 -3.9141925777e+00 2.2598601384e+00 3.9141925777e+00 
16200 5.8026462674e+00 3.7302018529e-02 2.2590410317e+00 -3.9127738433e+00 2.2590410317e+00 3.9127738433e+00 
16300 5.8025920808e+00 3.7569171099e-02 2.2582154658e+00 -3.9113439211e+00 2.2582154658e+00 3.9113439211e+00 
16400 5.8025347498e+00 3.7823503191e-02 2.2573836837e+00 -3.9099032323e+00 2.2573836837e+00 3.9099032323e+00 
16500 5.8024745910e+00 3.8063580326e-02 2.2565459625e+00 -3.9084522566e+00 2.2565459625e+00 3.9084522566e+00 
16600 5.8024119494e+00 3.8288059021e-02 2.2557026114e+00 -3.9069915298e+00 2.2557026114e+00 3.9069915298e+00 
16700 5.8023471927e+00 3.8495688041e-02 2.2548539699e+00 -3.9055216396e+00 2.2548539699e+00 3.9055216396e+00 
16800 5.8022807077e+00 3.8685309339e-02 2.2540004056e+00 -3.9040432228e+00 2.2540004056e+00 3.9040432228e+00 
16900 5.8022128951e+00 3.8855858679e-02 2.2531423123e+00 -3.9025569616e+00 2.2531423123e+00 3.9025569616e+00 
17000 5.8021441651e+00 3.9006365944e-02 2.2522801080e+00 -3.9010635799e+00 2.2522801080e+00 3.9010635799e+00 
17100 5.8020749326e+00 3.9135955133e-02 2.2514142329e+00 -3.8995638402e+00 2.2514142329e+00 3.8995638402e+00 
17200 5.8020056131e+00 3.9243844048e-02 2.2505451472e+00 -3.8980585397e+00 2.2505451472e+00 3.8980585397e+00 
17300 5.8019366180e+00 3.9329343680e-02 2.2496733294e+00 -3.8965485069e+00 2.2496733294e+00 3.8965485069e+00 
17400 5.8018683507e+00 3.9391857304e-02 2.2487992737e+00 -3.8950345980e+00 2.2487992737e+00 3.8950345980e+00 
17500 5.8018012026e+00 3.9430879296e-02 2.2479234885e+00 -3.8935176937e+00 2.2479234885e+00 3.8935176937e+00 
17600 5.8017355498e+00 3.9445993675e-02 2.2470464944e+00 -3.8919986953e+00 2.2470464944e+00 3.8919986953e+00 
17700 5.8016717493e+00 3.9436872399e-02 2.2461688218e+00 -3.8904785217e+00 2.2461688218e+00 3.8904785217e+00 
17800 5.8016101363e+00 3.9403273415e-02 2.2452910092e+00 -3.8889581058e+00 2.2452910092e+00 3.8889581058e+00 
17900 5.8015510213e+00 3.9345038485e-02 2.2444136017e+00 -3.8874383913e+00 2.2444136017e+00 3.8874383913e+00 
18000 5.8014946883e+00 3.9262090812e-02 2.2435371483e+00 -3.8859203296e+00 2.2435371483e+00 3.8859203296e+00 
18100 5.8014413923e+00 3.9154432473e-02 2.2426622010e+00 -3.8844048763e+00 2.2426622010e+00 3.8844048763e+00 
18200 5.8013913580e+00 3.9022141681e-02 2.2417893122e+00 -3.8828929887e+00 2.2417893122e+00 3.8828929887e+00 
18300 5.8013447785e+00 3.8865369894e-02 2.2409190339e+00 -3.8813856223e+00 2.2409190339e+00 3.8813856223e+00 
18400 5.8013018147e+00 3.8684338791e-02 2.2400519150e+00 -3.8798837284e+00 2.2400519150e+00 3.8798837284e+00 
18500 5.8012625948e+00 3.8479337134e-02 2.2391885008e+00 -3.8783882511e+00 2.2391885008e+00 3.8783882511e+00 
18600 5.8012272138e+00 3.8250717526e-02 2.2383293307e+00 -3.8769001249e+00 2.2383293307e+00 3.8769001249e+00 
18700 5.8011957344e+00 3.7998893092e-02 2.2374749372e+00 -3.8754202719e+00 2.2374749372e+00 3.8754202719e+00 
18800 5.8011681871e+00 3.7724334098e-02 2.2366258441e+00 -3.8739495996e+00 2.2366258441e+00 3.8739495996e+00 
18900 5.8011445712e+00 3.7427564516e-02 2.2357825658e+00 -3.8724889986e+00 2.2357825658e+00 3.8724889986e+00 
19000 5.8011248561e+00 3.7109158563e-02 2.2349456054e+00 -3.8710393407e+00 2.2349456054e+00 3.8710393407e+00 
19100 5.8011089824e+00 3.6769737224e-02 2.2341154541e+00 -3.8696014765e+00 2.2341154541e+00 3.8696014765e+00 
19200 5.8010968636e+00 3.6409964762e-02 2.2332925898e+00 -3.8681762336e+00 2.2332925898e+00 3.8681762336e+00 
19300 5.8010883883e+00 3.6030545254e-02 2.2324774760e+00 -3.8667644152e+00 2.2324774760e+00 3.8667644152e+00 
19400 5.8010834216e+00 3.5632219131e-02 2.2316705614e+00 -3.8653667981e+00 2.2316705614e+00 3.8653667981e+00 
19500 5.8010818077e+00 3.5215759771e-02 2.2308722784e+00 -3.8639841314e+00 2.2308722784e+00 3.8639841314e+00 
19600 5.8010833718e+00 3.4781970121e-02 2.2300830427e+00 -3.8626171350e+00 2.2300830427e+00 3.8626171350e+00 
19700 5.8010879227e+00 3.4331679378e-02 2.2293032524e+00 -3.8612664986e+00 2.2293032524e+00 3.8612664986e+00 
19800 5.8010952547e+00 3.3865739737e-02 2.2285332875e+00 -3.8599328804e+00 2.2285332875e+00 3.8599328804e+00 
19900 5.8011051508e+00 3.3385023199e-02 2.2277735095e+00 -3.8586169062e+00 2.2277735095e+00 3.8586169062e+00 
20000 5.8011173841e+00 3.2890418469e-02 2.2270242603e+00 -3.8573191684e+00 2.2270242603e+00 3.8573191684e+00 
20100 5.8011317209e+00 3.2382827925e-02 2.2262858624e+00 -3.8560402258e+00 2.2262858624e+00 3.8560402258e+00 
20200 5.8011479228e+00 3.1863164682e-02 2.2255586183e+00 -3.8547806021e+00 2.2255586183e+00 3.8547806021e+00 
20300 5.8011657487e+00 3.1332349752e-02 2.2248428102e+00 -3.8535407862e+00 2.2248428102e+00 3.8535407862e+00 
20400 5.8011849573e+00 3.0791309295e-02 2.2241386999e+00 -3.8523212313e+00 2.2241386999e+00 3.8523212313e+00 
20500 5.8012053089e+00 3.0240971973e-02 2.2234465283e+00 -3.8511223549e+00 2.2234465283e+00 3.8511223549e+00 
20600 5.8012265674e+00 2.9682266412e-02 2.2227665158e+00 -3.8499445387e+00 2.2227665158e+00 3.8499445387e+00 
20700 5.8012485022e+00 2.9116118764e-02 2.2220988618e+00 -3.8487881280e+00 2.2220988618e+00 3.8487881280e+00 
20800 5.8012708896e+00 2.8543450381e-02 2.2214437449e+00 -3.8476534324e+00 2.2214437449e+00 3.8476534324e+00 
20900 5.8012935146e+00 2.7965175595e-02 2.2208013232e+00 -3.8465407253e+00 2.2208013232e+00 3.8465407253e+00 
21000 5.8013161720e+00 2.7382199609e-02 2.2201717339e+00 -3.8454502447e+00 2.2201717339e+00 3.8454502447e+00 
21100 5.8013386678e+00 2.6795416502e-02 2.2195550940e+00 -3.8443821930e+00 2.2195550940e+00 3.8443821930e+00 
21200 5.8013608197e+00 2.6205707336e-02 2.2189515000e+00 -3.8433367375e+00 2.2189515000e+00 3.8433367375e+00 
21300 5.8013824588e+00 2.5613938385e-02 2.2183610287e+00 -3.8423140112e+00 2.2183610287e+00 3.8423140112e+00 
21400 5.8014034295e+00 2.5020959461e-02 2.2177837370e+00 -3.8413141127e+00 2.2177837370e+00 3.8413141127e+00 
21500 5.8014235907e+00 2.4427602360e-02 2.2172196627e+00 -3.8403371073e+00 2.2172196627e+00 3.8403371073e+00 
21600 5.8014428154e+00 2.3834679407e-02 2.2166688243e+00 -3.8393830273e+00 2.2166688243e+00 3.8393830273e+00 
21700 5.8014609917e+00 2.3242982118e-02 2.2161312223e+00 -3.8384518732e+00 2.2161312223e+00 3.8384518732e+00 
21800 5.8014780225e+00 2.2653279956e-02 2.2156068385e+00 -3.8375436138e+00 2.2156068385e+00 3.8375436138e+00 
21900 5.8014938254e+00 2.2066319198e-02 2.2150956375e+00 -3.8366581877e+00 2.2150956375e+00 3.8366581877e+00 
22000 5.8015083329e+00 2.1482821902e-02 2.2145975666e+00 -3.8357955037e+00 2.2145975666e+00 3.8357955037e+00 
22100 5.8015214916e+00 2.0903484973e-02 2.2141125567e+00 -3.8349554418e+00 2.2141125567e+00 3.8349554418e+00 
22200 5.8015332623e+00 2.0328979324e-02 2.2136405223e+00 -3.8341378544e+00 2.2136405223e+00 3.8341378544e+00 
22300 5.8015436191e+00 1.9759949140e-02 2.2131813630e+00 -3.8333425670e+00 2.2131813630e+00 3.8333425670e+00 
22400 5.8015525492e+00 1.9197011224e-02 2.2127349629e+00 -3.8325693795e+00 2.2127349629e+00 3.8325693795e+00 
22500 5.8015600520e+00 1.8640754445e-02 2.2123011924e+00 -3.8318180669e+00 2.2123011924e+00 3.8318180669e+00 
22600 5.8015661384e+00 1.8091739262e-02 2.2118799079e+00 -3.8310883808e+00 2.2118799079e+00 3.8310883808e+00 
22700 5.8015708303e+00 1.7550497343e-02 2.2114709531e+00 -3.8303800502e+00 2.2114709531e+00 3.8303800502e+00 
22800 5.8015741594e+00 1.7017531262e-02 2.2110741590e+00 -3.8296927826e+00 2.2110741590e+00 3.8296927826e+00 
22900 5.8015761665e+00 1.6493314272e-02 2.2106893451e+00 -3.8290262655e+00 2.2106893451e+00 3.8290262655e+00 
23000 5.8015769011e+00 1.5978290162e-02 2.2103163201e+00 -3.8283801672e+00 2.2103163201e+00 3.8283801672e+00 
23100 5.8015764194e+00 1.5472873184e-02 2.2099548819e+00 -3.8277541379e+00 2.2099548819e+00 3.8277541379e+00 
23200 5.8015747848e+00 1.4977448046e-02 2.2096048190e+00 -3.8271478111e+00 2.2096048190e+00 3.8271478111e+00 
23300 5.8015720659e+00 1.4492369986e-02 2.2092659108e+00 -3.8265608049e+00 2.2092659108e+00 3.8265608049e+00 
23400 5.8015683360e+00 1.4017964893e-02 2.2089379283e+00 -3.8259927225e+00 2.2089379283e+00 3.8259927225e+00 
23500 5.8015636724e+00 1.3554529508e-02 2.2086206348e+00 -3.8254431542e+00 2.2086206348e+00 3.8254431542e+00 
23600 5.8015581554e+00 1.3102331669e-02 2.2083137869e+00 -3.8249116779e+00 2.2083137869e+00 3.8249116779e+00 
23700 5.8015518675e+00 1.2661610622e-02 2.2080171343e+00 -3.8243978606e+00 2.2080171343e+00 3.8243978606e+00 
23800 5.8015448924e+00 1.2232577381e-02 2.2077304215e+00 -3.8239012594e+00 2.2077304215e+00 3.8239012594e+00 
23900 5.8015373147e+00 1.1815415139e-02 2.2074533876e+00 -3.8234214227e+00 2.2074533876e+00 3.8234214227e+00 
24000 5.8015292189e+00 1.1410279722e-02 2.2071857676e+00 -3.8229578912e+00 2.2071857676e+00 3.8229578912e+00 
24100 5.8015206885e+00 1.1017300098e-02 2.2069272923e+00 -3.8225101989e+00 2.2069272923e+00 3.8225101989e+00 
24200 5.8015118059e+00 1.0636578915e-02 2.2066776898e+00 -3.8220778747e+00 2.2066776898e+00 3.8220778747e+00 
24300 5.8015026515e+00 1.0268193088e-02 2.2064366853e+00 -3.8216604426e+00 2.2064366853e+00 3.8216604426e+00 
24400 5.8014933034e+00 9.9121944145e-03 2.2062040022e+00 -3.8212574236e+00 2.2062040022e+00 3.8212574236e+00 
24500 5.8014838364e+00 9.5686102291e-03 2.2059793623e+00 -3.8208683360e+00 2.2059793623e+00 3.8208683360e+00 
24600 5.8014743225e+00 9.2374440853e-03 2.2057624869e+00 -3.8204926968e+00 2.2057624869e+00 3.8204926968e+00 
24700 5.8014648295e+00 8.9186764678e-03 2.2055530968e+00 -3.8201300224e+00 2.2055530968e+00 3.8201300224e+00 
24800 5.8014554214e+00 8.6122655289e-03 2.2053509130e+00 -3.8197798299e+00 2.2053509130e+00 3.8197798299e+00 
24900 5.8014461580e+00 8.3181478495e-03 2.2051556575e+00 -3.8194416374e+00 2.2051556575e+00 3.8194416374e+00 
25000 5.8014370945e+00 8.0362392204e-03 2.2049670534e+00 -3.8191149655e+00 2.2049670534e+00 3.8191149655e+00 
25100 5.8014282815e+00 7.7664354421e-03 2.2047848255e+00 -3.8187993376e+00 2.2047848255e+00 3.8187993376e+00 
25200 5.8014197648e+00 7.5086131417e-03 2.2046087010e+00 -3.8184942810e+00 2.2046087010e+00 3.8184942810e+00 
25300 5.8014115852e+00 7.2626306032e-03 2.2044384097e+00 -3.8181993277e+00 2.2044384097e+00 3.8181993277e+00 
25400 5.8014037789e+00 7.0283286104e-03 2.2042736843e+00 -3.8179140149e+00 2.2042736843e+00 3.8179140149e+00 
25500 5.8013963771e+00 6.8055312996e-03 2.2041142612e+00 -3.8176378860e+00 2.2041142612e+00 3.8176378860e+00 
25600 5.8013894061e+00 6.5940470208e-03 2.2039598805e+00 -3.8173704909e+00 2.2039598805e+00 3.8173704909e+00 
25700 5.8013828876e+00 6.3936692039e-03 2.2038102868e+00 -3.8171113869e+00 2.2038102868e+00 3.8171113869e+00 
25800 5.8013768386e+00 6.2041772304e-03 2.2036652289e+00 -3.8168601394e+00 2.2036652289e+00 3.8168601394e+00 
25900 5.8013712716e+00 6.0253373068e-03 2.2035244609e+00 -3.8166163220e+00 2.2035244609e+00 3.8166163220e+00 
26000 5.8013661948e+00 5.8569033390e-03 2.2033877419e+00 -3.8163795177e+00 2.2033877419e+00 3.8163795177e+00 
26100 5.8013616124e+00 5.6986178052e-03 2.2032548364e+00 -3.8161493187e+00 2.2032548364e+00 3.8161493187e+00 
26200 5.8013575245e+00 5.5502126269e-03 2.2031255150e+00 -3.8159253274e+00 2.2031255150e+00 3.8159253274e+00 
26300 5.8013539278e+00 5.4114100348e-03 2.2029995539e+00 -3.8157071565e+00 2.2029995539e+00 3.8157071565e+00 
26400 5.8013508152e+00 5.2819234301e-03 2.2028767359e+00 -3.8154944295e+00 2.2028767359e+00 3.8154944295e+00 
26500 5.8013481768e+00 5.1614582375e-03 2.2027568501e+00 -3.8152867811e+00 2.2027568501e+00 3.8152867811e+00 
26600 5.8013459996e+00 5.0497127501e-03 2.2026396921e+00 -3.8150838574e+00 2.2026396921e+00 3.8150838574e+00 
26700 5.8013442681e+00 4.9463789645e-03 2.2025250644e+00 -3.8148853165e+00 2.2025250644e+00 3.8148853165e+00 
26800 5.8013429644e+00 4.8511434045e-03 2.2024127765e+00 -3.8146908282e+00 2.2024127765e+00 3.8146908282e+00 
26900 5.8013420686e+00 4.7636879319e-03 2.2023026450e+00 -3.8145000747e+00 2.2023026450e+00 3.8145000747e+00 
27000 5.8013415590e+00 4.6836905445e-03 2.2021944934e+00 -3.8143127508e+00 2.2021944934e+00 3.8143127508e+00 
27100 5.8013414123e+00 4.6108261584e-03 2.2020881528e+00 -3.8141285635e+00 2.2020881528e+00 3.8141285635e+00 
27200 5.8013416041e+00 4.5447673747e-03 2.2019834615e+00 -3.8139472328e+00 2.2019834615e+00 3.8139472328e+00 
27300 5.8013421091e+00 4.4851852295e-03 2.2018802652e+00 -3.8137684915e+00 2.2018802652e+00 3.8137684915e+00 
27400 5.8013429011e+00 4.4317499252e-03 2.2017784170e+00 -3.8135920853e+00 2.2017784170e+00 3.8135920853e+00 
27500 5.8013439537e+00 4.3841315440e-03 2.2016777775e+00 -3.8134177726e+00 2.2016777775e+00 3.8134177726e+00 
27600 5.8013452401e+00 4.3420007403e-03 2.2015782149e+00 -3.8132453250e+00 2.2015782149e+00 3.8132453250e+00 
27700 5.8013467336e+00 4.3050294134e-03 2.2014796045e+00 -3.8130745269e+00 2.2014796045e+00 3.8130745269e+00 
27800 5.8013484076e+00 4.2728913589e-03 2.2013818294e+00 -3.8129051754e+00 2.2013818294e+00 3.8129051754e+00 
27900 5.8013502362e+00 4.2452628967e-03 2.2012847799e+00 -3.8127370808e+00 2.2012847799e+00 3.8127370808e+00 
28000 5.8013521938e+00 4.2218234778e-03 2.2011883537e+00 -3.8125700656e+00 2.2011883537e+00 3.8125700656e+00 
28100 5.8013542558e+00 4.2022562664e-03 2.2010924557e+00 -3.8124039654e+00 2.2010924557e+00 3.8124039654e+00 
28200 5.8013563983e+00 4.1862486986e-03 2.2009969979e+00 -3.8122386277e+00 2.2009969979e+00 3.8122386277e+00 
28300 5.8013585986e+00 4.1734930163e-03 2.2009018997e+00 -3.8120739127e+00 2.2009018997e+00 3.8120739127e+00 
28400 5.8013608352e+00 4.1636867763e-03 2.2008070871e+00 -3.8119096926e+00 2.2008070871e+00 3.8119096926e+00 
28500 5.8013630877e+00 4.1565333333e-03 2.2007124933e+00 -3.8117458512e+00 2.2007124933e+00 3.8117458512e+00 
28600 5.8013653373e+00 4.1517422982e-03 2.2006180579e+00 -3.8115822843e+00 2.2006180579e+00 3.8115822843e+00 
28700 5.8013675664e+00 4.1490299694e-03 2.2005237273e+00 -3.8114188989e+00 2.2005237273e+00 3.8114188989e+00 
28800 5.8013697589e+00 4.1481197384e-03 2.2004294542e+00 -3.8112556132e+00 2.2004294542e+00 3.8112556132e+00 
28900 5.8013719004e+00 4.1487424679e-03 2.2003351979e+00 -3.8110923564e+00 2.2003351979e+00 3.8110923564e+00 
29000 5.8013739779e+00 4.1506368446e-03 2.2002409233e+00 -3.8109290680e+00 2.2002409233e+00 3.8109290680e+00 
29100 5.8013759797e+00 4.1535497043e-03 2.2001466016e+00 -3.8107656981e+00 2.2001466016e+00 3.8107656981e+00 
29200 5.8013778962e+00 4.1572363306e-03 2.2000522097e+00 -3.8106022066e+00 2.2000522097e+00 3.8106022066e+00 
29300 5.8013797188e+00 4.1614607268e-03 2.1999577300e+00 -3.8104385629e+00 2.1999577300e+00 3.8104385629e+00 
29400 5.8013814406e+00 4.1659958612e-03 2.1998631502e+00 -3.8102747459e+00 2.1998631502e+00 3.8102747459e+00 
29500 5.8013830563e+00 4.1706238858e-03 2.1997684633e+00 -3.8101107433e+00 2.1997684633e+00 3.8101107433e+00 
29600 5.8013845616e+00 4.1751363292e-03 2.1996736671e+00 -3.8099465515e+00 2.1996736671e+00 3.8099465515e+00 
29700 5.8013859538e+00 4.1793342629e-03 2.1995787642e+00 -3.8097821749e+00 2.1995787642e+00 3.8097821749e+00 
29800 5.8013872317e+00 4.1830284421e-03 2.1994837619e+00 -3.8096176260e+00 2.1994837619e+00 3.8096176260e+00 
29900 5.8013883948e+00 4.1860394213e-03 2.1993886714e+00 -3.8094529245e+00 2.1993886714e+00 3.8094529245e+00 
30000 5.8013894440e+00 4.1881976446e-03 2.1992935084e+00 -3.8092880973e+00 2.1992935084e+00 3.8092880973e+00 
30100 5.8013903813e+00 4.1893435118e-03 2.1991982922e+00 -3.8091231780e+00 2.1991982922e+00 3.8091231780e+00 
30200 5.8013912095e+00 4.1893274202e-03 2.1991030458e+00 -3.8089582064e+00 2.1991030458e+00 3.8089582064e+00 
30300 5.8013919324e+00 4.1880097834e-03 2.1990077957e+00 -3.8087932284e+00 2.1990077957e+00 3.8087932284e+00 
30400 5.8013925543e+00 4.1852610262e-03 2.1989125714e+00 -3.8086282950e+00 2.1989125714e+00 3.8086282950e+00 
30500 5.8013930806e+00 4.1809615585e-03 2.1988174055e+00 -3.8084634628e+00 2.1988174055e+00 3.8084634628e+00 
30600 5.8013935169e+00 4.1750017269e-03 2.1987223332e+00 -3.8082987928e+00 2.1987223332e+00 3.8082987928e+00 
30700 5.8013938695e+00 4.1672817448e-03 2.1986273923e+00 -3.8081343504e+00 2.1986273923e+00 3.8081343504e+00 
30800 5.8013941449e+00 4.1577116035e-03 2.1985326229e+00 -3.8079702050e+00 2.1985326229e+00 3.8079702050e+00 
30900 5.8013943502e+00 4.1462109629e-03 2.1984380671e+00 -3.8078064295e+00 2.1984380671e+00 3.8078064295e+00 
31000 5.8013944924e+00 4.1327090241e-03 2.1983437688e+00 -3.8076431000e+00 2.1983437688e+00 3.8076431000e+00 
31100 5.8013945789e+00 4.1171443832e-03 2.1982497735e+00 -3.8074802953e+00 2.1982497735e+00 3.8074802953e+00 
31200 5.8013946169e+00 4.0994648697e-03 2.1981561282e+00 -3.8073180969e+00 2.1981561282e+00 3.8073180969e+00 
31300 5.8013946139e+00 4.0796273667e-03 2.1980628810e+00 -3.8071565881e+00 2.1980628810e+00 3.8071565881e+00 
31400 5.8013945770e+00 4.0575976173e-03 2.1979700811e+00 -3.8069958541e+00 2.1979700811e+00 3.8069958541e+00 
31500 5.8013945133e+00 4.0333500158e-03 2.1978777785e+00 -3.8068359812e+00 2.1978777785e+00 3.8068359812e+00 
31600 5.8013944297e+00 4.0068673853e-03 2.1977860236e+00 -3.8066770570e+00 2.1977860236e+00 3.8066770570e+00 
31700 5.8013943328e+00 3.9781407431e-03 2.1976948673e+00 -3.8065191697e+00 2.1976948673e+00 3.8065191697e+00 
31800 5.8013942288e+00 3.9471690536e-03 2.1976043608e+00 -3.8063624078e+00 2.1976043608e+00 3.8063624078e+00 
31900 5.8013941236e+00 3.9139589711e-03 2.1975145552e+00 -3.8062068600e+00 2.1975145552e+00 3.8062068600e+00 
32000 5.8013940229e+00 3.8785245716e-03 2.1974255016e+00 -3.8060526146e+00 2.1974255016e+00 3.8060526146e+00 
32100 5.8013939316e+00 3.8408870767e-03 2.1973372506e+00 -3.8058997595e+00 2.1973372506e+00 3.8058997595e+00 
32200 5.8013938544e+00 3.8010745685e-03 2.1972498525e+00 -3.8057483815e+00 2.1972498525e+00 3.8057483815e+00 
32300 5.8013937954e+00 3.7591216973e-03 2.1971633569e+00 -3.8055985667e+00 2.1971633569e+00 3.8055985667e+00 
32400 5.8013937585e+00 3.7150693829e-03 2.1970778126e+00 -3.8054503996e+00 2.1970778126e+00 3.8054503996e+00 
32500 5.8013937466e+00 3.6689645110e-03 2.1969932675e+00 -3.8053039631e+00 2.1969932675e+00 3.8053039631e+00 
32600 5.8013937626e+00 3.6208596237e-03 2.1969097683e+00 -3.8051593383e+00 2.1969097683e+00 3.8051593383e+00 
32700 5.8013938087e+00 3.5708126074e-03 2.1968273608e+00 -3.8050166044e+00 2.1968273608e+00 3.8050166044e+00 
32800 5.8013938864e+00 3.5188863768e-03 2.1967460893e+00 -3.8048758379e+00 2.1967460893e+00 3.8048758379e+00 
32900 5.8013939972e+00 3.4651485572e-03 2.1966659966e+00 -3.8047371134e+00 2.1966659966e+00 3.8047371134e+00 
33000 5.8013941417e+00 3.4096711651e-03 2.1965871242e+00 -3.8046005023e+00 2.1965871242e+00 3.8046005023e+00 
33100 5.8013943203e+00 3.3525302885e-03 2.1965095117e+00 -3.8044660736e+00 2.1965095117e+00 3.8044660736e+00 
33200 5.8013945330e+00 3.2938057669e-03 2.1964331972e+00 -3.8043338930e+00 2.1964331972e+00 3.8043338930e+00 
33300 5.8013947791e+00 3.2335808724e-03 2.1963582168e+00 -3.8042040232e+00 2.1963582168e+00 3.8042040232e+00 
33400 5.8013950579e+00 3.1719419925e-03 2.1962846049e+00 -3.8040765236e+00 2.1962846049e+00 3.8040765236e+00 
33500 5.8013953681e+00 3.1089783147e-03 2.1962123938e+00 -3.8039514502e+00 2.1962123938e+00 3.8039514502e+00 
33600 5.8013957083e+00 3.0447815143e-03 2.1961416137e+00 -3.8038288555e+00 2.1961416137e+00 3.8038288555e+00 
33700 5.8013960766e+00 2.9794454457e-03 2.1960722929e+00 -3.8037087884e+00 2.1960722929e+00 3.8037087884e+00 
33800 5.8013964710e+00 2.9130658374e-03 2.1960044575e+00 -3.8035912940e+00 2.1960044575e+00 3.8035912940e+00 
33900 5.8013968894e+00 2.8457399922e-03 2.1959381313e+00 -3.8034764137e+00 2.1959381313e+00 3.8034764137e+00 
34000 5.8013973291e+00 2.7775664923e-03 2.1958733361e+00 -3.8033641851e+00 2.1958733361e+00 3.8033641851e+00 
34100 5.8013977877e+00 2.7086449101e-03 2.1958100912e+00 -3.8032546418e+00 2.1958100912e+00 3.8032546418e+00 
34200 5.8013982625e+00 2.6390755253e-03 2.1957484140e+00 -3.8031478136e+00 2.1957484140e+00 3.8031478136e+00 
34300 5.8013987506e+00 2.5689590487e-03 2.1956883191e+00 -3.8030437263e+00 2.1956883191e+00 3.8030437263e+00 
34400 5.8013992494e+00 2.4983963531e-03 2.1956298193e+00 -3.8029424016e+00 2.1956298193e+00 3.8029424016e+00 
34500 5.8013997558e+00 2.4274882114e-03 2.1955729248e+00 -3.8028438574e+00 2.1955729248e+00 3.8028438574e+00 
34600 5.8014002672e+00 2.3563350427e-03 2.1955176436e+00 -3.8027481076e+00 2.1955176436e+00 3.8027481076e+00 
34700 5.8014007807e+00 2.2850366668e-03 2.1954639814e+00 -3.8026551619e+00 2.1954639814e+00 3.8026551619e+00 
34800 5.8014012936e+00 2.2136920672e-03 2.1954119416e+00 -3.8025650265e+00 2.1954119416e+00 3.8025650265e+00 
34900 5.8014018033e+00 2.1423991621e-03 2.1953615255e+00 -3.8024777032e+00 2.1953615255e+00 3.8024777032e+00 
35000 5.8014023071e+00 2.0712545859e-03 2.1953127319e+00 -3.8023931902e+00 2.1953127319e+00 3.8023931902e+00 
35100 5.8014028027e+00 2.0003534785e-03 2.1952655576e+00 -3.8023114819e+00 2.1952655576e+00 3.8023114819e+00 
35200 5.8014032879e+00 1.9297892846e-03 2.1952199971e+00 -3.8022325688e+00 2.1952199971e+00 3.8022325688e+00 
35300 5.8014037605e+00 1.8596535634e-03 2.1951760429e+00 -3.8021564379e+00 2.1951760429e+00 3.8021564379e+00 
35400 5.8014042186e+00 1.7900358069e-03 2.1951336853e+00 -3.8020830724e+00 2.1951336853e+00 3.8020830724e+00 
35500 5.8014046604e+00 1.7210232686e-03 2.1950929127e+00 -3.8020124521e+00 2.1950929127e+00 3.8020124521e+00 
35600 5.8014050844e+00 1.6527008025e-03 2.1950537112e+00 -3.8019445531e+00 2.1950537112e+00 3.8019445531e+00 
35700 5.8014054893e+00 1.5851507117e-03 2.1950160653e+00 -3.8018793484e+00 2.1950160653e+00 3.8018793484e+00 
35800 5.8014058738e+00 1.5184526075e-03 2.1949799574e+00 -3.8018168078e+00 2.1949799574e+00 3.8018168078e+00 
35900 5.8014062369e+00 1.4526832784e-03 2.1949453683e+00 -3.8017568977e+00 2.1949453683e+00 3.8017568977e+00 
36000 5.8014065781e+00 1.3879165695e-03 2.1949122768e+00 -3.8016995816e+00 2.1949122768e+00 3.8016995816e+00 
36100 5.8014068966e+00 1.3242232715e-03 2.1948806602e+00 -3.8016448200e+00 2.1948806602e+00 3.8016448200e+00 
36200 5.8014071922e+00 1.2616710207e-03 2.1948504941e+00 -3.8015925708e+00 2.1948504941e+00 3.8015925708e+00 
36300 5.8014074647e+00 1.2003242082e-03 2.1948217525e+00 -3.8015427890e+00 2.1948217525e+00 3.8015427890e+00 
36400 5.8014077140e+00 1.1402438995e-03 2.1947944081e+00 -3.8014954271e+00 2.1947944081e+00 3.8014954271e+00 
36500 5.8014079405e+00 1.0814877638e-03 2.1947684321e+00 -3.8014504352e+00 2.1947684321e+00 3.8014504352e+00 
36600 5.8014081445e+00 1.0241100130e-03 2.1947437943e+00 -3.8014077613e+00 2.1947437943e+00 3.8014077613e+00 
36700 5.8014083264e+00 9.6816135071e-04 2.1947204634e+00 -3.8013673509e+00 2.1947204634e+00 3.8013673509e+00 
36800 5.8014084870e+00 9.1368892996e-04 2.1946984068e+00 -3.8013291479e+00 2.1946984068e+00 3.8013291479e+00 
36900 5.8014086272e+00 8.6073632098e-04 2.1946775910e+00 -3.8012930939e+00 2.1946775910e+00 3.8012930939e+00 
37000 5.8014087477e+00 8.0934348757e-04 2.1946579814e+00 -3.8012591290e+00 2.1946579814e+00 3.8012591290e+00 
37100 5.8014088497e+00 7.5954677259e-04 2.1946395425e+00 -3.8012271919e+00 2.1946395425e+00 3.8012271919e+00 
37200 5.8014089343e+00 7.1137889212e-04 2.1946222379e+00 -3.8011972195e+00 2.1946222379e+00 3.8011972195e+00 
37300 5.8014090028e+00 6.6486893807e-04 2.1946060306e+00 -3.8011691476e+00 2.1946060306e+00 3.8011691476e+00 
37400 5.8014090563e+00 6.2004238906e-04 2.1945908828e+00 -3.8011429109e+00 2.1945908828e+00 3.8011429109e+00 
37500 5.8014090963e+00 5.7692112926e-04 2.1945767562e+00 -3.8011184429e+00 2.1945767562e+00 3.8011184429e+00 
37600 5.8014091242e+00 5.3552347506e-04 2.1945636120e+00 -3.8010956765e+00 2.1945636120e+00 3.8010956765e+00 
37700 5.8014091413e+00 4.9586420909e-04 2.1945514109e+00 -3.8010745435e+00 2.1945514109e+00 3.8010745435e+00 
37800 5.8014091490e+00 4.5795462151e-04 2.1945401133e+00 -3.8010549754e+00 2.1945401133e+00 3.8010549754e+00 
37900 5.8014091489e+00 4.2180255826e-04 2.1945296793e+00 -3.8010369033e+00 2.1945296793e+00 3.8010369033e+00 
38000 5.8014091423e+00 3.8741247586e-04 2.1945200690e+00 -3.8010202578e+00 2.1945200690e+00 3.8010202578e+00 
38100 5.8014091306e+00 3.5478550255e-04 2.1945112422e+00 -3.8010049693e+00 2.1945112422e+00 3.8010049693e+00 
38200 5.8014091152e+00 3.2391950557e-04 2.1945031587e+00 -3.8009909683e+00 2.1945031587e+00 3.8009909683e+00 
38300 5.8014090974e+00 2.9480916397e-04 2.1944957785e+00 -3.8009781854e+00 2.1944957785e+00 3.8009781854e+00 
38400 5.8014090785e+00 2.6744604710e-04 2.1944890615e+00 -3.8009665512e+00 2.1944890615e+00 3.8009665512e+00 
38500 5.8014090597e+00 2.4181869790e-04 2.1944829679e+00 -3.8009559968e+00 2.1944829679e+00 3.8009559968e+00 
38600 5.8014090421e+00 2.1791272124e-04 2.1944774582e+00 -3.8009464537e+00 2.1944774582e+00 3.8009464537e+00 
38700 5.8014090269e+00 1.9571087655e-04 2.1944724932e+00 -3.8009378540e+00 2.1944724932e+00 3.8009378540e+00 
38800 5.8014090150e+00 1.7519317470e-04 2.1944680340e+00 -3.8009301305e+00 2.1944680340e+00 3.8009301305e+00 
38900 5.8014090073e+00 1.5633697862e-04 2.1944640423e+00 -3.8009232167e+00 2.1944640423e+00 3.8009232167e+00 
39000 5.8014090048e+00 1.3911710750e-04 2.1944604802e+00 -3.8009170470e+00 2.1944604802e+00 3.8009170470e+00 
39100 5.8014090081e+00 1.2350594414e-04 2.1944573105e+00 -3.8009115568e+00 2.1944573105e+00 3.8009115568e+00 
39200 5.8014090178e+00 1.0947354512e-04 2.1944544965e+00 -3.8009066828e+00 2.1944544965e+00 3.8009066828e+00 
39300 5.8014090347e+00 9.6987753627e-05 2.1944520021e+00 -3.8009023625e+00 2.1944520021e+00 3.8009023625e+00 
39400 5.8014090590e+00 8.6014314393e-05 2.1944497923e+00 -3.8008985349e+00 2.1944497923e+00 3.8008985349e+00 
39500 5.8014090913e+00 7.6516990639e-05 2.1944478325e+00 -3.8008951404e+00 2.1944478325e+00 3.8008951404e+00 
39600 5.8014091318e+00 6.8457682599e-05 2.1944460891e+00 -3.8008921207e+00 2.1944460891e+00 3.8008921207e+00 
39700 5.8014091808e+00 6.2595154051e-05 2.1944460891e+00 -3.8008921207e+00 2.1944460891e+00 3.8008921207e+00 
39800 5.8014092383e+00 5.8020686515e-05 2.1944460891e+00 -3.8008921207e+00 2.1944460891e+00 3.8008921207e+00 
39900 5.8014093044e+00 5.4706466694e-05 2.1944460891e+00 -3.8008921207e+00 2.1944460891e+00 3.8008921207e+00 
40000 5.8014093791e+00 5.2622942253e-05 2.1944460891e+00 -3.8008921207e+00 2.1944460891e+00 3.8008921207e+00 
40100 5.8014094622e+00 5.1738928367e-05 2.1944460891e+00 -3.8008921207e+00 2.1944460891e+00 3.8008921207e+00 
40200 5.8014095536e+00 5.2021714900e-05 2.1944460891e+00 -3.8008921207e+00 2.1944460891e+00 3.8008921207e+00 
40300 5.8014096530e+00 5.3437173951e-05 2.1944460891e+00 -3.8008921207e+00 2.1944460891e+00 3.8008921207e+00 
40400 5.8014097602e+00 5.5949867523e-05 2.1944460891e+00 -3.8008921207e+00 2.1944460891e+00 3.8008921207e+00 
40500 5.8014098748e+00 5.9523155098e-05 2.1944460891e+00 -3.8008921207e+00 2.1944460891e+00 3.8008921207e+00 
40600 5.8014099963e+00 6.4119300878e-05 2.1944460891e+00 -3.8008921207e+00 2.1944460891e+00 3.8008921207e+00 
40700 5.8014101244e+00 6.9699580457e-05 2.1944460891e+00 -3.8008921207e+00 2.1944460891e+00 3.8008921207e+00 
40800 5.8014102586e+00 7.6224386771e-05 2.1944460891e+00 -3.8008921207e+00 2.1944460891e+00 3.8008921207e+00 
40900 5.8014103982e+00 8.2764054444e-05 2.1944443523e+00 -3.8008891126e+00 2.1944443523e+00 3.8008891126e+00 
41000 5.8014105427e+00 9.0080393199e-05 2.1944424665e+00 -3.8008858463e+00 2.1944424665e+00 3.8008858463e+00 
41100 5.8014106917e+00 9.8121610798e-05 2.1944404141e+00 -3.8008822914e+00 2.1944404141e+00 3.8008822914e+00 
41200 5.8014108445e+00 1.0683594558e-04 2.1944381784e+00 -3.8008784190e+00 2.1944381784e+00 3.8008784190e+00 
41300 5.8014110004e+00 1.1617177136e-04 2.1944357442e+00 -3.8008742028e+00 2.1944357442e+00 3.8008742028e+00 
41400 5.8014111590e+00 1.2607769946e-04 2.1944330972e+00 -3.8008696181e+00 2.1944330972e+00 3.8008696181e+00 
41500 5.8014113197e+00 1.3650267792e-04 2.1944302245e+00 -3.8008646425e+00 2.1944302245e+00 3.8008646425e+00 
41600 5.8014114817e+00 1.4739608753e-04 2.1944271143e+00 -3.8008592555e+00 2.1944271143e+00 3.8008592555e+00 
41700 5.8014116447e+00 1.5870783472e-04 2.1944237559e+00 -3.8008534385e+00 2.1944237559e+00 3.8008534385e+00 
41800 5.8014118080e+00 1.7038844099e-04 2.1944201397e+00 -3.8008471752e+00 2.1944201397e+00 3.8008471752e+00 
41900 5.8014119710e+00 1.8238912899e-04 2.1944162574e+00 -3.8008404508e+00 2.1944162574e+00 3.8008404508e+00 
42000 5.8014121332e+00 1.9466190493e-04 2.1944121017e+00 -3.8008332528e+00 2.1944121017e+00 3.8008332528e+00 
42100 5.8014122942e+00 2.0715963739e-04 2.1944076663e+00 -3.8008255705e+00 2.1944076663e+00 3.8008255705e+00 
42200 5.8014124535e+00 2.1983613232e-04 2.1944029461e+00 -3.8008173949e+00 2.1944029461e+00 3.8008173949e+00 
42300 5.8014126106e+00 2.3264620428e-04 2.1943979371e+00 -3.8008087191e+00 2.1943979371e+00 3.8008087191e+00 
42400 5.8014127652e+00 2.4554574370e-04 2.1943926362e+00 -3.8007995376e+00 2.1943926362e+00 3.8007995376e+00 
42500 5.8014129168e+00 2.5849178027e-04 2.1943870413e+00 -3.8007898471e+00 2.1943870413e+00 3.8007898471e+00 
42600 5.8014130652e+00 2.7144254235e-04 2.1943811515e+00 -3.8007796456e+00 2.1943811515e+00 3.8007796456e+00 
42700 5.8014132099e+00 2.8435751224e-04 2.1943749665e+00 -3.8007689329e+00 2.1943749665e+00 3.8007689329e+00 
42800 5.8014133508e+00 2.9719747760e-04 2.1943684873e+00 -3.8007577106e+00 2.1943684873e+00 3.8007577106e+00 
42900 5.8014134877e+00 3.0992457864e-04 2.1943617155e+00 -3.8007459814e+00 2.1943617155e+00 3.8007459814e+00 
43000 5.8014136203e+00 3.2250235134e-04 2.1943546537e+00 -3.8007337500e+00 2.1943546537e+00 3.8007337500e+00 
43100 5.8014137484e+00 3.3489576664e-04 2.1943473052e+00 -3.8007210221e+00 2.1943473052e+00 3.8007210221e+00 
43200 5.8014138721e+00 3.4707126548e-04 2.1943396743e+00 -3.8007078050e+00 2.1943396743e+00 3.8007078050e+00 
43300 5.8014139911e+00 3.5899678996e-04 2.1943317660e+00 -3.8006941074e+00 2.1943317660e+00 3.8006941074e+00 
43400 5.8014141054e+00 3.7064181043e-04 2.1943235859e+00 -3.8006799391e+00 2.1943235859e+00 3.8006799391e+00 
43500 5.8014142150e+00 3.8197734867e-04 2.1943151405e+00 -3.8006653111e+00 2.1943151405e+00 3.8006653111e+00 
43600 5.8014143200e+00 3.9297599715e-04 2.1943064367e+00 -3.8006502357e+00 2.1943064367e+00 3.8006502357e+00 
43700 5.8014144203e+00 4.0361193454e-04 2.1942974822e+00 -3.8006347262e+00 2.1942974822e+00 3.8006347262e+00 
43800 5.8014145160e+00 4.1386093728e-04 2.1942882854e+00 -3.8006187968e+00 2.1942882854e+00 3.8006187968e+00 
43900 5.8014146073e+00 4.2370038762e-04 2.1942788550e+00 -3.8006024628e+00 2.1942788550e+00 3.8006024628e+00 
44000 5.8014146941e+00 4.3310927795e-04 2.1942692003e+00 -3.8005857405e+00 2.1942692003e+00 3.8005857405e+00 
44100 5.8014147768e+00 4.4206821156e-04 2.1942593312e+00 -3.8005686467e+00 2.1942593312e+00 3.8005686467e+00 
44200 5.8014148554e+00 4.5055940000e-04 2.1942492580e+00 -3.8005511993e+00 2.1942492580e+00 3.8005511993e+00 
44300 5.8014149300e+00 4.5856665706e-04 2.1942389912e+00 -3.8005334166e+00 2.1942389912e+00 3.8005334166e+00 
44400 5.8014150010e+00 4.6607538946e-04 2.1942285418e+00 -3.8005153179e+00 2.1942285418e+00 3.8005153179e+00 
44500 5.8014150685e+00 4.7307258444e-04 2.1942179214e+00 -3.8004969227e+00 2.1942179214e+00 3.8004969227e+00 
44600 5.8014151326e+00 4.7954679424e-04 2.1942071414e+00 -3.8004782512e+00 2.1942071414e+00 3.8004782512e+00 
44700 5.8014151936e+00 4.8548811768e-04 2.1941962138e+00 -3.8004593241e+00 2.1941962138e+00 3.8004593241e+00 
44800 5.8014152518e+00 4.9088817892e-04 2.1941851508e+00 -3.8004401624e+00 2.1941851508e+00 3.8004401624e+00 
44900 5.8014153073e+00 4.9574010348e-04 2.1941739647e+00 -3.8004207875e+00 2.1941739647e+00 3.8004207875e+00 
45000 5.8014153604e+00 5.0003849176e-04 2.1941626680e+00 -3.8004012210e+00 2.1941626680e+00 3.8004012210e+00 
45100 5.8014154113e+00 5.0377939002e-04 2.1941512733e+00 -3.8003814848e+00 2.1941512733e+00 3.8003814848e+00 
45200 5.8014154602e+00 5.0696025910e-04 2.1941397932e+00 -3.8003616008e+00 2.1941397932e+00 3.8003616008e+00 
45300 5.8014155073e+00 5.0957994089e-04 2.1941282406e+00 -3.8003415911e+00 2.1941282406e+00 3.8003415911e+00 
45400 5.8014155529e+00 5.1163862284e-04 2.1941166283e+00 -3.8003214779e+00 2.1941166283e+00 3.8003214779e+00 
45500 5.8014155972e+00 5.1313780033e-04 2.1941049690e+00 -3.8003012834e+00 2.1941049690e+00 3.8003012834e+00 
45600 5.8014156404e+00 5.1408023750e-04 2.1940932754e+00 -3.8002810296e+00 2.1940932754e+00 3.8002810296e+00 
45700 5.8014156825e+00 5.1446992622e-04 2.1940815603e+00 -3.8002607384e+00 2.1940815603e+00 3.8002607384e+00 
45800 5.8014157240e+00 5.1431204359e-04 2.1940698363e+00 -3.8002404318e+00 2.1940698363e+00 3.8002404318e+00 
45900 5.8014157648e+00 5.1361290805e-04 2.1940581158e+00 -3.8002201313e+00 2.1940581158e+00 3.8002201313e+00 
46000 5.8014158051e+00 5.1237993422e-04 2.1940464112e+00 -3.8001998583e+00 2.1940464112e+00 3.8001998583e+00 
46100 5.8014158452e+00 5.1062158656e-04 2.1940347346e+00 -3.8001796339e+00 2.1940347346e+00 3.8001796339e+00 
46200 5.8014158851e+00 5.0834733208e-04 2.1940230980e+00 -3.8001594788e+00 2.1940230980e+00 3.8001594788e+00 
46300 5.8014159250e+00 5.0556759217e-04 2.1940115132e+00 -3.8001394133e+00 2.1940115132e+00 3.8001394133e+00 
46400 5.8014159649e+00 5.0229369361e-04 2.1939999917e+00 -3.8001194574e+00 2.1939999917e+00 3.8001194574e+00 
46500 5.8014160050e+00 4.9853781904e-04 2.1939885447e+00 -3.8000996307e+00 2.1939885447e+00 3.8000996307e+00 
46600 5.8014160453e+00 4.9431295695e-04 2.1939771833e+00 -3.8000799521e+00 2.1939771833e+00 3.8000799521e+00 
46700 5.8014160859e+00 4.8963285116e-04 2.1939659181e+00 -3.8000604401e+00 2.1939659181e+00 3.8000604401e+00 
46800 5.8014161269e+00 4.8451195017e-04 2.1939547594e+00 -3.8000411129e+00 2.1939547594e+00 3.8000411129e+00 
46900 5.8014161682e+00 4.7896535637e-04 2.1939437175e+00 -3.8000219876e+00 2.1939437175e+00 3.8000219876e+00 
47000 5.8014162100e+00 4.7300877510e-04 2.1939328019e+00 -3.8000030812e+00 2.1939328019e+00 3.8000030812e+00 
47100 5.8014162523e+00 4.6665846397e-04 2.1939220219e+00 -3.7999844098e+00 2.1939220219e+00 3.7999844098e+00 
47200 5.8014162949e+00 4.5993118220e-04 2.1939113867e+00 -3.7999659891e+00 2.1939113867e+00 3.7999659891e+00 
47300 5.8014163381e+00 4.5284414040e-04 2.1939009047e+00 -3.7999478337e+00 2.1939009047e+00 3.7999478337e+00 
47400 5.8014163817e+00 4.4541495063e-04 2.1938905842e+00 -3.7999299581e+00 2.1938905842e+00 3.7999299581e+00 
47500 5.8014164257e+00 4.3766157705e-04 2.1938804329e+00 -3.7999123756e+00 2.1938804329e+00 3.7999123756e+00 
47600 5.8014164701e+00 4.2960228709e-04 2.1938704584e+00 -3.7998950991e+00 2.1938704584e+00 3.7998950991e+00 
47700 5.8014165148e+00 4.2125560331e-04 2.1938606674e+00 -3.7998781406e+00 2.1938606674e+00 3.7998781406e+00 
47800 5.8014165599e+00 4.1264025605e-04 2.1938510666e+00 -3.7998615116e+00 2.1938510666e+00 3.7998615116e+00 
47900 5.8014166052e+00 4.0377513689e-04 2.1938416621e+00 -3.7998452226e+00 2.1938416621e+00 3.7998452226e+00 
48000 5.8014166508e+00 3.9467925307e-04 2.1938324597e+00 -3.7998292835e+00 2.1938324597e+00 3.7998292835e+00 
48100 5.8014166965e+00 3.8537168281e-04 2.1938234645e+00 -3.7998137033e+00 2.1938234645e+00 3.7998137033e+00 
48200 5.8014167424e+00 3.7587153185e-04 2.1938146814e+00 -3.7997984906e+00 2.1938146814e+00 3.7997984906e+00 
48300 5.8014167883e+00 3.6619789092e-04 2.1938061148e+00 -3.7997836528e+00 2.1938061148e+00 3.7997836528e+00 
48400 5.8014168341e+00 3.5636979460e-04 2.1937977686e+00 -3.7997691968e+00 2.1937977686e+00 3.7997691968e+00 
48500 5.8014168799e+00 3.4640618127e-04 2.1937896464e+00 -3.7997551287e+00 2.1937896464e+00 3.7997551287e+00 
48600 5.8014169256e+00 3.3632585442e-04 2.1937817512e+00 -3.7997414539e+00 2.1937817512e+00 3.7997414539e+00 
48700 5.8014169710e+00 3.2614744530e-04 2.1937740858e+00 -3.7997281770e+00 2.1937740858e+00 3.7997281770e+00 
48800 5.8014170162e+00 3.1588937695e-04 2.1937666523e+00 -3.7997153018e+00 2.1937666523e+00 3.7997153018e+00 
48900 5.8014170610e+00 3.0556982966e-04 2.1937594526e+00 -3.7997028316e+00 2.1937594526e+00 3.7997028316e+00 
49000 5.8014171055e+00 2.9520670788e-04 2.1937524881e+00 -3.7996907687e+00 2.1937524881e+00 3.7996907687e+00 
49100 5.8014171495e+00 2.8481760865e-04 2.1937457598e+00 -3.7996791148e+00 2.1937457598e+00 3.7996791148e+00 
49200 5.8014171931e+00 2.7441979152e-04 2.1937392682e+00 -3.7996678711e+00 2.1937392682e+00 3.7996678711e+00 
49300 5.8014172360e+00 2.6403015002e-04 2.1937330136e+00 -3.7996570378e+00 2.1937330136e+00 3.7996570378e+00 
49400 5.8014172784e+00 2.5366518470e-04 2.1937269958e+00 -3.7996466146e+00 2.1937269958e+00 3.7996466146e+00 
49500 5.8014173202e+00 2.4334097776e-04 2.1937212142e+00 -3.7996366006e+00 2.1937212142e+00 3.7996366006e+00 
49600 5.8014173613e+00 2.3307316922e-04 2.1937156679e+00 -3.7996269941e+00 2.1937156679e+00 3.7996269941e+00 
49700 5.8014174017e+00 2.2287693474e-04 2.1937103556e+00 -3.7996177929e+00 2.1937103556e+00 3.7996177929e+00 
49800 5.8014174414e+00 2.1276696500e-04 2.1937052757e+00 -3.7996089943e+00 2.1937052757e+00 3.7996089943e+00 
49900 5.8014174804e+00 2.0275744672e-04 2.1937004262e+00 -3.7996005947e+00 2.1937004262e+00 3.7996005947e+00 
50000 5.8014175185e+00 1.9286204521e-04 2.1936958048e+00 -3.7995925903e+00 2.1936958048e+00 3.7995925903e+00 
50100 5.8014175559e+00 1.8309388863e-04 2.1936914090e+00 -3.7995849765e+00 2.1936914090e+00 3.7995849765e+00 
50200 5.8014175925e+00 1.7346555366e-04 2.1936872358e+00 -3.7995777483e+00 2.1936872358e+00 3.7995777483e+00 
50300 5.8014176282e+00 1.6398905291e-04 2.1936832821e+00 -3.7995709003e+00 2.1936832821e+00 3.7995709003e+00 
50400 5.8014176632e+00 1.5467582378e-04 2.1936795443e+00 -3.7995644263e+00 2.1936795443e+00 3.7995644263e+00 
50500 5.8014176974e+00 1.4553671888e-04 2.1936760188e+00 -3.7995583199e+00 2.1936760188e+00 3.7995583199e+00 
50600 5.8014177307e+00 1.3658199797e-04 2.1936727016e+00 -3.7995525744e+00 2.1936727016e+00 3.7995525744e+00 
50700 5.8014177633e+00 1.2782132138e-04 2.1936695885e+00 -3.7995471824e+00 2.1936695885e+00 3.7995471824e+00 
50800 5.8014177950e+00 1.1926374491e-04 2.1936666751e+00 -3.7995421362e+00 2.1936666751e+00 3.7995421362e+00 
50900 5.8014178260e+00 1.1091771613e-04 2.1936639568e+00 -3.7995374279e+00 2.1936639568e+00 3.7995374279e+00 
51000 5.8014178563e+00 1.0279107213e-04 2.1936614286e+00 -3.7995330490e+00 2.1936614286e+00 3.7995330490e+00 
51100 5.8014178858e+00 9.4891038589e-05 2.1936590857e+00 -3.7995289910e+00 2.1936590857e+00 3.7995289910e+00 
51200 5.8014179147e+00 8.7224230214e-05 2.1936569229e+00 -3.7995252448e+00 2.1936569229e+00 3.7995252448e+00 
51300 5.8014179428e+00 7.9796652469e-05 2.1936549348e+00 -3.7995218013e+00 2.1936549348e+00 3.7995218013e+00 
51400 5.8014179703e+00 7.2613704550e-05 2.1936531160e+00 -3.7995186510e+00 2.1936531160e+00 3.7995186510e+00 
51500 5.8014179972e+00 6.5680183585e-05 2.1936514609e+00 -3.7995157843e+00 2.1936514609e+00 3.7995157843e+00 
51600 5.8014180235e+00 5.9768126140e-05 2.1936514609e+00 -3.7995157843e+00 2.1936514609e+00 3.7995157843e+00 
51700 5.8014180492e+00 5.4043897704e-05 2.1936514609e+00 -3.7995157843e+00 2.1936514609e+00 3.7995157843e+00 
51800 5.8014180744e+00 4.8512847220e-05 2.1936514609e+00 -3.7995157843e+00 2.1936514609e+00 3.7995157843e+00 
51900 5.8014180991e+00 4.3179781323e-05 2.1936514609e+00 -3.7995157843e+00 2.1936514609e+00 3.7995157843e+00 
52000 5.8014181232e+00 3.8048970405e-05 2.1936514609e+00 -3.7995157843e+00 2.1936514609e+00 3.7995157843e+00 
52100 5.8014181469e+00 3.3124155590e-05 2.1936514609e+00 -3.7995157843e+00 2.1936514609e+00 3.7995157843e+00 
52200 5.8014181702e+00 2.8408556613e-05 2.1936514609e+00 -3.7995157843e+00 2.1936514609e+00 3.7995157843e+00 
52300 5.8014181931e+00 2.3904880522e-05 2.1936514609e+00 -3.7995157843e+00 2.1936514609e+00 3.7995157843e+00 
52400 5.8014182156e+00 1.9615331205e-05 2.1936514609e+00 -3.7995157843e+00 2.1936514609e+00 3.7995157843e+00 
52500 5.8014182378e+00 1.5541619662e-05 2.1936514609e+00 -3.7995157843e+00 2.1936514609e+00 3.7995157843e+00 
52600 5.8014182597e+00 1.1684975015e-05 2.1936514609e+00 -3.7995157843e+00 2.1936514609e+00 3.7995157843e+00 
52700 5.8014182813e+00 8.0461561755e-06 2.1936514609e+00 -3.7995157843e+00 2.1936514609e+00 3.7995157843e+00 
52800 5.8014183027e+00 4.6254641661e-06 2.1936514609e+00 -3.7995157843e+00 2.1936514609e+00 3.7995157843e+00 
52900 5.8014183238e+00 1.4227550265e-06 2.1936514609e+00 -3.7995157843e+00 2.1936514609e+00 3.7995157843e+00 
53000 5.8014183447e+00 -1.5625467423e-06 2.1936514609e+00 -3.7995157843e+00 2.1936514609e+00 3.7995157843e+00 
53100 5.8014183654e+00 -4.3314342033e-06 2.1936514609e+00 -3.7995157843e+00 2.1936514609e+00 3.7995157843e+00 
53200 5.8014183860e+00 -6.8853035793e-06 2.1936514609e+00 -3.7995157843e+00 2.1936514609e+00 3.7995157843e+00 
53300 5.8014184064e+00 -9.2259394036e-06 2.1936514609e+00 -3.7995157843e+00 2.1936514609e+00 3.7995157843e+00 
53400 5.8014184267e+00 -1.1355499312e-05 2.1936514609e+00 -3.7995157843e+00 2.1936514609e+00 3.7995157843e+00 
53500 5.8014184468e+00 -1.3276498484e-05 2.1936514609e+00 -3.7995157843e+00 2.1936514609e+00 3.7995157843e+00 
53600 5.8014184668e+00 -1.4991793815e-05 2.1936514609e+00 -3.7995157843e+00 2.1936514609e+00 3.7995157843e+00 
53700 5.8014184867e+00 -1.6504567826e-05 2.1936514609e+00 -3.7995157843e+00 2.1936514609e+00 3.7995157843e+00 
53800 5.8014185064e+00 -1.7818312363e-05 2.1936514609e+00 -3.7995157843e+00 2.1936514609e+00 3.7995157843e+00 
53900 5.8014185261e+00 -1.8936812140e-05 2.1936514609e+00 -3.7995157843e+00 2.1936514609e+00 3.7995157843e+00 
54000 5.8014185457e+00 -1.9864128131e-05 2.1936514609e+00 -3.7995157843e+00 2.1936514609e+00 3.7995157843e+00 
54100 5.8014185651e+00 -2.0604580907e-05 2.1936514609e+00 -3.7995157843e+00 2.1936514609e+00 3.7995157843e+00 
54200 5.8014185845e+00 -2.1162733888e-05 2.1936514609e+00 -3.7995157843e+00 2.1936514609e+00 3.7995157843e+00 
54300 5.8014186037e+00 -2.1543376593e-05 2.1936514609e+00 -3.7995157843e+00 2.1936514609e+00 3.7995157843e+00 
54400 5.8014186228e+00 -2.1751507919e-05 2.1936514609e+00 -3.7995157843e+00 2.1936514609e+00 3.7995157843e+00 
54500 5.8014186419e+00 -2.1792319460e-05 2.1936514609e+00 -3.7995157843e+00 2.1936514609e+00 3.7995157843e+00 
54600 5.8014186608e+00 -2.1671178929e-05 2.1936514609e+00 -3.7995157843e+00 2.1936514609e+00 3.7995157843e+00 
54700 5.8014186795e+00 -2.1393613691e-05 2.1936514609e+00 -3.7995157843e+00 2.1936514609e+00 3.7995157843e+00 
54800 5.8014186982e+00 -2.0965294459e-05 2.1936514609e+00 -3.7995157843e+00 2.1936514609e+00 3.7995157843e+00 
54900 5.8014187167e+00 -2.0392019163e-05 2.1936514609e+00 -3.7995157843e+00 2.1936514609e+00 3.7995157843e+00 
55000 5.8014187351e+00 -1.9679697050e-05 2.1936514609e+00 -3.7995157843e+00 2.1936514609e+00 3.7995157843e+00 
55100 5.8014187533e+00 -1.8834332994e-05 2.1936514609e+00 -3.7995157843e+00 2.1936514609e+00 3.7995157843e+00 
55200 5.8014187714e+00 -1.7862012104e-05 2.1936514609e+00 -3.7995157843e+00 2.1936514609e+00 3.7995157843e+00 
55300 5.8014187892e+00 -1.6768884608e-05 2.1936514609e+00 -3.7995157843e+00 2.1936514609e+00 3.7995157843e+00 
55400 5.8014188070e+00 -1.5561151044e-05 2.1936514609e+00 -3.7995157843e+00 2.1936514609e+00 3.7995157843e+00 
55500 5.8014188245e+00 -1.4245047814e-05 2.1936514609e+00 -3.7995157843e+00 2.1936514609e+00 3.7995157843e+00 
55600 5.8014188419e+00 -1.2826833061e-05 2.1936514609e+00 -3.7995157843e+00 2.1936514609e+00 3.7995157843e+00 
55700 5.8014188590e+00 -1.1312772965e-05 2.1936514609e+00 -3.7995157843e+00 2.1936514609e+00 3.7995157843e+00 
55800 5.8014188760e+00 -9.7091283933e-06 2.1936514609e+00 -3.7995157843e+00 2.1936514609e+00 3.7995157843e+00 
55900 5.8014188927e+00 -8.0221419958e-06 2.1936514609e+00 -3.7995157843e+00 2.1936514609e+00 3.7995157843e+00 
56000 5.8014189092e+00 -6.2580257165e-06 2.1936514609e+00 -3.7995157843e+00 2.1936514609e+00 3.7995157843e+00 
56100 5.8014189255e+00 -4.4229487340e-06 2.1936514609e+00 -3.7995157843e+00 2.1936514609e+00 3.7995157843e+00 
56200 5.8014189416e+00 -2.5230258821e-06 2.1936514609e+00 -3.7995157843e+00 2.1936514609e+00 3.7995157843e+00 
56300 5.8014189575e+00 -5.6430652426e-07 2.1936514609e+00 -3.7995157843e+00 2.1936514609e+00 3.7995157843e+00 
56400 5.8014189731e+00 1.4472361077e-06 2.1936514609e+00 -3.7995157843e+00 2.1936514609e+00 3.7995157843e+00 
56500 5.8014189885e+00 3.5057150687e-06 2.1936514609e+00 -3.7995157843e+00 2.1936514609e+00 3.7995157843e+00 
56600 5.8014190036e+00 5.6053393761e-06 2.1936514609e+00 -3.7995157843e+00 2.1936514609e+00 3.7995157843e+00 
56700 5.8014190185e+00 7.7404231840e-06 2.1936514609e+00 -3.7995157843e+00 2.1936514609e+00 3.7995157843e+00 
56800 5.8014190332e+00 9.9053944617e-06 2.1936514609e+00 -3.7995157843e+00 2.1936514609e+00 3.7995157843e+00 
56900 5.8014190476e+00 1.2094803152e-05 2.1936514609e+00 -3.7995157843e+00 2.1936514609e+00 3.7995157843e+00 
57000 5.8014190618e+00 1.4303328830e-05 2.1936514609e+00 -3.7995157843e+00 2.1936514609e+00 3.7995157843e+00 
57100 5.8014190757e+00 1.6525787852e-05 2.1936514609e+00 -3.7995157843e+00 2.1936514609e+00 3.7995157843e+00 
57200 5.8014190894e+00 1.8757139995e-05 2.1936514609e+00 -3.7995157843e+00 2.1936514609e+00 3.7995157843e+00 
57300 5.8014191029e+00 2.0992494580e-05 2.1936514609e+00 -3.7995157843e+00 2.1936514609e+00 3.7995157843e+00 
57400 5.8014191161e+00 2.3227116092e-05 2.1936514609e+00 -3.7995157843e+00 2.1936514609e+00 3.7995157843e+00 
57500 5.8014191291e+00 2.5456429303e-05 2.1936514609e+00 -3.7995157843e+00 2.1936514609e+00 3.7995157843e+00 
57600 5.8014191419e+00 2.7676023896e-05 2.1936514609e+00 -3.7995157843e+00 2.1936514609e+00 3.7995157843e+00 
57700 5.8014191544e+00 2.9881658565e-05 2.1936514609e+00 -3.7995157843e+00 2.1936514609e+00 3.7995157843e+00 
57800 5.8014191667e+00 3.2069264681e-05 2.1936514609e+00 -3.7995157843e+00 2.1936514609e+00 3.7995157843e+00 
57900 5.8014191788e+00 3.4234949426e-05 2.1936514609e+00 -3.7995157843e+00 2.1936514609e+00 3.7995157843e+00 
58000 5.8014191907e+00 3.6374998473e-05 2.1936514609e+00 -3.7995157843e+00 2.1936514609e+00 3.7995157843e+00 
58100 5.8014192024e+00 3.8485878217e-05 2.1936514609e+00 -3.7995157843e+00 2.1936514609e+00 3.7995157843e+00 
58200 5.8014192139e+00 4.0564237525e-05 2.1936514609e+00 -3.7995157843e+00 2.1936514609e+00 3.7995157843e+00 
58300 5.8014192252e+00 4.2606909037e-05 2.1936514609e+00 -3.7995157843e+00 2.1936514609e+00 3.7995157843e+00 
58400 5.8014192363e+00 4.4610910074e-05 2.1936514609e+00 -3.7995157843e+00 2.1936514609e+00 3.7995157843e+00 
58500 5.8014192472e+00 4.6573443067e-05 2.1936514609e+00 -3.7995157843e+00 2.1936514609e+00 3.7995157843e+00 
58600 5.8014192579e+00 4.8491895613e-05 2.1936514609e+00 -3.7995157843e+00 2.1936514609e+00 3.7995157843e+00 
58700 5.8014192685e+00 5.0363840117e-05 2.1936514609e+00 -3.7995157843e+00 2.1936514609e+00 3.7995157843e+00 
58800 5.8014192789e+00 5.2187033046e-05 2.1936514609e+00 -3.7995157843e+00 2.1936514609e+00 3.7995157843e+00 
58900 5.8014192892e+00 5.3959413822e-05 2.1936514609e+00 -3.7995157843e+00 2.1936514609e+00 3.7995157843e+00 
59000 5.8014192993e+00 5.5679103334e-05 2.1936514609e+00 -3.7995157843e+00 2.1936514609e+00 3.7995157843e+00 
59100 5.8014193092e+00 5.7344402133e-05 2.1936514609e+00 -3.7995157843e+00 2.1936514609e+00 3.7995157843e+00 
59200 5.8014193190e+00 5.8953788269e-05 2.1936514609e+00 -3.7995157843e+00 2.1936514609e+00 3.7995157843e+00 
59300 5.8014193287e+00 6.0505914833e-05 2.1936514609e+00 -3.7995157843e+00 2.1936514609e+00 3.7995157843e+00 
59400 5.8014193382e+00 6.1999607184e-05 2.1936514609e+00 -3.7995157843e+00 2.1936514609e+00 3.7995157843e+00 
59500 5.8014193476e+00 6.3433859901e-05 2.1936514609e+00 -3.7995157843e+00 2.1936514609e+00 3.7995157843e+00 
59600 5.8014193569e+00 6.4807833462e-05 2.1936514609e+00 -3.7995157843e+00 2.1936514609e+00 3.7995157843e+00 
59700 5.8014193661e+00 6.6120850653e-05 2.1936514609e+00 -3.7995157843e+00 2.1936514609e+00 3.7995157843e+00 
59800 5.8014193752e+00 6.7372392767e-05 2.1936514609e+00 -3.7995157843e+00 2.1936514609e+00 3.7995157843e+00 
59900 5.8014193841e+00 6.8562095554e-05 2.1936514609e+00 -3.7995157843e+00 2.1936514609e+00 3.7995157843e+00 
60000 5.8014193929e+00 6.9689744978e-05 2.1936514609e+00 -3.7995157843e+00 2.1936514609e+00 3.7995157843e+00 
60100 5.8014194017e+00 7.0755272772e-05 2.1936514609e+00 -3.7995157843e+00 2.1936514609e+00 3.7995157843e+00 
60200 5.8014194102e+00 7.0931522741e-05 2.1936498482e+00 -3.7995129910e+00 2.1936498482e+00 3.7995129910e+00 
60300 5.8014194187e+00 7.1034507044e-05 2.1936482314e+00 -3.7995101907e+00 2.1936482314e+00 3.7995101907e+00 
60400 5.8014194270e+00 7.1065187888e-05 2.1936466123e+00 -3.7995073864e+00 2.1936466123e+00 3.7995073864e+00 
60500 5.8014194353e+00 7.1024670902e-05 2.1936449925e+00 -3.7995045808e+00 2.1936449925e+00 3.7995045808e+00 
60600 5.8014194434e+00 7.0914198278e-05 2.1936433736e+00 -3.7995017768e+00 2.1936433736e+00 3.7995017768e+00 
60700 5.8014194515e+00 7.0735141772e-05 2.1936417573e+00 -3.7994989772e+00 2.1936417573e+00 3.7994989772e+00 
60800 5.8014194595e+00 7.0488995681e-05 2.1936401450e+00 -3.7994961847e+00 2.1936401450e+00 3.7994961847e+00 
60900 5.8014194675e+00 7.1001509247e-05 2.1936401450e+00 -3.7994961847e+00 2.1936401450e+00 3.7994961847e+00 
61000 5.8014194753e+00 7.0625814949e-05 2.1936385267e+00 -3.7994933816e+00 2.1936385267e+00 3.7994933816e+00 
61100 5.8014194832e+00 7.1014025897e-05 2.1936385267e+00 -3.7994933816e+00 2.1936385267e+00 3.7994933816e+00 
61200 5.8014194909e+00 7.0516241061e-05 2.1936369080e+00 -3.7994905781e+00 2.1936369080e+00 3.7994905781e+00 
61300 5.8014194986e+00 7.0785057782e-05 2.1936369080e+00 -3.7994905781e+00 2.1936369080e+00 3.7994905781e+00 
61400 5.8014195061e+00 7.0173277429e-05 2.1936352946e+00 -3.7994877835e+00 2.1936352946e+00 3.7994877835e+00 
61500 5.8014195137e+00 7.0328343024e-05 2.1936352946e+00 -3.7994877835e+00 2.1936352946e+00 3.7994877835e+00 
61600 5.8014195211e+00 7.0433459617e-05 2.1936352946e+00 -3.7994877835e+00 2.1936352946e+00 3.7994877835e+00 
61700 5.8014195285e+00 7.0490362999e-05 2.1936352946e+00 -3.7994877835e+00 2.1936352946e+00 3.7994877835e+00 
61800 5.8014195358e+00 7.0500841139e-05 2.1936352946e+00 -3.7994877835e+00 2.1936352946e+00 3.7994877835e+00 
61900 5.8014195431e+00 7.0466728583e-05 2.1936352946e+00 -3.7994877835e+00 2.1936352946e+00 3.7994877835e+00 
62000 5.8014195503e+00 7.0389900895e-05 2.1936352946e+00 -3.7994877835e+00 2.1936352946e+00 3.7994877835e+00 
62100 5.8014195574e+00 7.0272269204e-05 2.1936352946e+00 -3.7994877835e+00 2.1936352946e+00 3.7994877835e+00 
62200 5.8014195644e+00 7.0115774810e-05 2.1936352946e+00 -3.7994877835e+00 2.1936352946e+00 3.7994877835e+00 
62300 5.8014195713e+00 6.9922383904e-05 2.1936352946e+00 -3.7994877835e+00 2.1936352946e+00 3.7994877835e+00 
62400 5.8014195782e+00 6.9694082394e-05 2.1936352946e+00 -3.7994877835e+00 2.1936352946e+00 3.7994877835e+00 
62500 5.8014195850e+00 6.9432870820e-05 2.1936352946e+00 -3.7994877835e+00 2.1936352946e+00 3.7994877835e+00 
62600 5.8014195917e+00 6.9140759438e-05 2.1936352946e+00 -3.7994877835e+00 2.1936352946e+00 3.7994877835e+00 
62700 5.8014195983e+00 6.8819763381e-05 2.1936352946e+00 -3.7994877835e+00 2.1936352946e+00 3.7994877835e+00 
62800 5.8014196048e+00 6.8471897994e-05 2.1936352946e+00 -3.7994877835e+00 2.1936352946e+00 3.7994877835e+00 
62900 5.8014196113e+00 6.8099174295e-05 2.1936352946e+00 -3.7994877835e+00 2.1936352946e+00 3.7994877835e+00 
63000 5.8014196177e+00 6.7703594596e-05 2.1936352946e+00 -3.7994877835e+00 2.1936352946e+00 3.7994877835e+00 
63100 5.8014196240e+00 6.7287148254e-05 2.1936352946e+00 -3.7994877835e+00 2.1936352946e+00 3.7994877835e+00 
63200 5.8014196302e+00 6.6851807618e-05 2.1936352946e+00 -3.7994877835e+00 2.1936352946e+00 3.7994877835e+00 
63300 5.8014196364e+00 6.6399524105e-05 2.1936352946e+00 -3.7994877835e+00 2.1936352946e+00 3.7994877835e+00 
63400 5.8014196424e+00 6.5932224461e-05 2.1936352946e+00 -3.7994877835e+00 2.1936352946e+00 3.7994877835e+00 
63500 5.8014196484e+00 6.5451807193e-05 2.1936352946e+00 -3.7994877835e+00 2.1936352946e+00 3.7994877835e+00 
63600 5.8014196543e+00 6.4960139165e-05 2.1936352946e+00 -3.7994877835e+00 2.1936352946e+00 3.7994877835e+00 
63700 5.8014196601e+00 6.4459052378e-05 2.1936352946e+00 -3.7994877835e+00 2.1936352946e+00 3.7994877835e+00 
63800 5.8014196659e+00 6.3950340913e-05 2.1936352946e+00 -3.7994877835e+00 2.1936352946e+00 3.7994877835e+00 
63900 5.8014196716e+00 6.3435758083e-05 2.1936352946e+00 -3.7994877835e+00 2.1936352946e+00 3.7994877835e+00 
64000 5.8014196771e+00 6.2917013729e-05 2.1936352946e+00 -3.7994877835e+00 2.1936352946e+00 3.7994877835e+00 
64100 5.8014196827e+00 6.2395771724e-05 2.1936352946e+00 -3.7994877835e+00 2.1936352946e+00 3.7994877835e+00 
64200 5.8014196881e+00 6.1873647631e-05 2.1936352946e+00 -3.7994877835e+00 2.1936352946e+00 3.7994877835e+00 
64300 5.8014196934e+00 6.1352206579e-05 2.1936352946e+00 -3.7994877835e+00 2.1936352946e+00 3.7994877835e+00 
64400 5.8014196987e+00 6.0832961268e-05 2.1936352946e+00 -3.7994877835e+00 2.1936352946e+00 3.7994877835e+00 
64500 5.8014197039e+00 6.0317370209e-05 2.1936352946e+00 -3.7994877835e+00 2.1936352946e+00 3.7994877835e+00 
64600 5.8014197091e+00 5.9806836091e-05 2.1936352946e+00 -3.7994877835e+00 2.1936352946e+00 3.7994877835e+00 
64700 5.8014197141e+00 5.9302704350e-05 2.1936352946e+00 -3.7994877835e+00 2.1936352946e+00 3.7994877835e+00 
64800 5.8014197191e+00 5.8806261906e-05 2.1936352946e+00 -3.7994877835e+00 2.1936352946e+00 3.7994877835e+00 
64900 5.8014197240e+00 5.8318736071e-05 2.1936352946e+00 -3.7994877835e+00 2.1936352946e+00 3.7994877835e+00 
65000 5.8014197289e+00 5.7841293615e-05 2.1936352946e+00 -3.7994877835e+00 2.1936352946e+00 3.7994877835e+00 
65100 5.8014197337e+00 5.7375040014e-05 2.1936352946e+00 -3.7994877835e+00 2.1936352946e+00 3.7994877835e+00 
65200 5.8014197384e+00 5.6921018843e-05 2.1936352946e+00 -3.7994877835e+00 2.1936352946e+00 3.7994877835e+00 
65300 5.8014197430e+00 5.6480211334e-05 2.1936352946e+00 -3.7994877835e+00 2.1936352946e+00 3.7994877835e+00 
65400 5.8014197476e+00 5.6053536089e-05 2.1936352946e+00 -3.7994877835e+00 2.1936352946e+00 3.7994877835e+00 
65500 5.8014197521e+00 5.5641848939e-05 2.1936352946e+00 -3.7994877835e+00 2.1936352946e+00 3.7994877835e+00 
65600 5.8014197566e+00 5.5245942948e-05 2.1936352946e+00 -3.7994877835e+00 2.1936352946e+00 3.7994877835e+00 
65700 5.8014197610e+00 5.4866548566e-05 2.1936352946e+00 -3.7994877835e+00 2.1936352946e+00 3.7994877835e+00 
65800 5.8014197653e+00 5.4504333905e-05 2.1936352946e+00 -3.7994877835e+00 2.1936352946e+00 3.7994877835e+00 
65900 5.8014197696e+00 5.4159905155e-05 2.1936352946e+00 -3.7994877835e+00 2.1936352946e+00 3.7994877835e+00 
66000 5.8014197738e+00 5.3833807131e-05 2.1936352946e+00 -3.7994877835e+00 2.1936352946e+00 3.7994877835e+00 
66100 5.8014197780e+00 5.3526523927e-05 2.1936352946e+00 -3.7994877835e+00 2.1936352946e+00 3.7994877835e+00 
66200 5.8014197821e+00 5.3238479701e-05 2.1936352946e+00 -3.7994877835e+00 2.1936352946e+00 3.7994877835e+00 
66300 5.8014197861e+00 5.2970039561e-05 2.1936352946e+00 -3.7994877835e+00 2.1936352946e+00 3.7994877835e+00 
66400 5.8014197901e+00 5.2721510564e-05 2.1936352946e+00 -3.7994877835e+00 2.1936352946e+00 3.7994877835e+00 
66500 5.8014197941e+00 5.2493142804e-05 2.1936352946e+00 -3.7994877835e+00 2.1936352946e+00 3.7994877835e+00 
66600 5.8014197980e+00 5.2285130609e-05 2.1936352946e+00 -3.7994877835e+00 2.1936352946e+00 3.7994877835e+00 
66700 5.8014198019e+00 5.2097613814e-05 2.1936352946e+00 -3.7994877835e+00 2.1936352946e+00 3.7994877835e+00 
66800 5.8014198057e+00 5.1930679129e-05 2.1936352946e+00 -3.7994877835e+00 2.1936352946e+00 3.7994877835e+00 
66900 5.8014198094e+00 5.1784361570e-05 2.1936352946e+00 -3.7994877835e+00 2.1936352946e+00 3.7994877835e+00 
67000 5.8014198131e+00 5.1658645984e-05 2.1936352946e+00 -3.7994877835e+00 2.1936352946e+00 3.7994877835e+00 
67100 5.8014198168e+00 5.1553468612e-05 2.1936352946e+00 -3.7994877835e+00 2.1936352946e+00 3.7994877835e+00 
67200 5.8014198204e+00 5.1468718740e-05 2.1936352946e+00 -3.7994877835e+00 2.1936352946e+00 3.7994877835e+00 
67300 5.8014198240e+00 5.1404240390e-05 2.1936352946e+00 -3.7994877835e+00 2.1936352946e+00 3.7994877835e+00 
67400 5.8014198275e+00 5.1359834064e-05 2.1936352946e+00 -3.7994877835e+00 2.1936352946e+00 3.7994877835e+00 
67500 5.8014198310e+00 5.1335258537e-05 2.1936352946e+00 -3.7994877835e+00 2.1936352946e+00 3.7994877835e+00 
67600 5.8014198345e+00 5.1330232682e-05 2.1936352946e+00 -3.7994877835e+00 2.1936352946e+00 3.7994877835e+00 
67700 5.8014198379e+00 5.1344437334e-05 2.1936352946e+00 -3.7994877835e+00 2.1936352946e+00 3.7994877835e+00 
67800 5.8014198412e+00 5.1377517183e-05 2.1936352946e+00 -3.7994877835e+00 2.1936352946e+00 3.7994877835e+00 
67900 5.8014198446e+00 5.1429082685e-05 2.1936352946e+00 -3.7994877835e+00 2.1936352946e+00 3.7994877835e+00 
68000 5.8014198478e+00 5.1498712004e-05 2.1936352946e+00 -3.7994877835e+00 2.1936352946e+00 3.7994877835e+00 
68100 5.8014198511e+00 5.1585952945e-05 2.1936352946e+00 -3.7994877835e+00 2.1936352946e+00 3.7994877835e+00 
68200 5.8014198543e+00 5.1690324927e-05 2.1936352946e+00 -3.7994877835e+00 2.1936352946e+00 3.7994877835e+00 
68300 5.8014198575e+00 5.1811320931e-05 2.1936352946e+00 -3.7994877835e+00 2.1936352946e+00 3.7994877835e+00 
68400 5.8014198606e+00 5.1948409465e-05 2.1936352946e+00 -3.7994877835e+00 2.1936352946e+00 3.7994877835e+00 
68500 5.8014198637e+00 5.2101036518e-05 2.1936352946e+00 -3.7994877835e+00 2.1936352946e+00 3.7994877835e+00 
68600 5.8014198668e+00 5.2268627510e-05 2.1936352946e+00 -3.7994877835e+00 2.1936352946e+00 3.7994877835e+00 
68700 5.8014198698e+00 5.2450589224e-05 2.1936352946e+00 -3.7994877835e+00 2.1936352946e+00 3.7994877835e+00 
68800 5.8014198728e+00 5.2646311724e-05 2.1936352946e+00 -3.7994877835e+00 2.1936352946e+00 3.7994877835e+00 
68900 5.8014198757e+00 5.2855170243e-05 2.1936352946e+00 -3.7994877835e+00 2.1936352946e+00 3.7994877835e+00 
69000 5.8014198786e+00 5.3076527070e-05 2.1936352946e+00 -3.7994877835e+00 2.1936352946e+00 3.7994877835e+00 
69100 5.8014198815e+00 5.3309733385e-05 2.1936352946e+00 -3.7994877835e+00 2.1936352946e+00 3.7994877835e+00 
69200 5.8014198844e+00 5.3554131074e-05 2.1936352946e+00 -3.7994877835e+00 2.1936352946e+00 3.7994877835e+00 
69300 5.8014198872e+00 5.3809054505e-05 2.1936352946e+00 -3.7994877835e+00 2.1936352946e+00 3.7994877835e+00 
69400 5.8014198900e+00 5.4073832280e-05 2.1936352946e+00 -3.7994877835e+00 2.1936352946e+00 3.7994877835e+00 
69500 5.8014198927e+00 5.4347788929e-05 2.1936352946e+00 -3.7994877835e+00 2.1936352946e+00 3.7994877835e+00 
69600 5.8014198954e+00 5.4630246571e-05 2.1936352946e+00 -3.7994877835e+00 2.1936352946e+00 3.7994877835e+00 
69700 5.8014198981e+00 5.4920526532e-05 2.1936352946e+00 -3.7994877835e+00 2.1936352946e+00 3.7994877835e+00 
69800 5.8014199007e+00 5.5217950916e-05 2.1936352946e+00 -3.7994877835e+00 2.1936352946e+00 3.7994877835e+00 
69900 5.8014199033e+00 5.5521844117e-05 2.1936352946e+00 -3.7994877835e+00 2.1936352946e+00 3.7994877835e+00 
70000 5.8014199059e+00 5.5831534292e-05 2.1936352946e+00 -3.7994877835e+00 2.1936352946e+00 3.7994877835e+00 
70100 5.8014199085e+00 5.6146354773e-05 2.1936352946e+00 -3.7994877835e+00 2.1936352946e+00 3.7994877835e+00 
70200 5.8014199110e+00 5.6465645433e-05 2.1936352946e+00 -3.7994877835e+00 2.1936352946e+00 3.7994877835e+00 
70300 5.8014199135e+00 5.6788753986e-05 2.1936352946e+00 -3.7994877835e+00 2.1936352946e+00 3.7994877835e+00 
70400 5.8014199159e+00 5.7115037238e-05 2.1936352946e+00 -3.7994877835e+00 2.1936352946e+00 3.7994877835e+00 
70500 5.8014199183e+00 5.7443862280e-05 2.1936352946e+00 -3.7994877835e+00 2.1936352946e+00 3.7994877835e+00 
70600 5.8014199207e+00 5.7774607612e-05 2.1936352946e+00 -3.7994877835e+00 2.1936352946e+00 3.7994877835e+00 
70700 5.8014199231e+00 5.8106664221e-05 2.1936352946e+00 -3.7994877835e+00 2.1936352946e+00 3.7994877835e+00 
70800 5.8014199254e+00 5.8439436591e-05 2.1936352946e+00 -3.7994877835e+00 2.1936352946e+00 3.7994877835e+00 
70900 5.8014199277e+00 5.8772343648e-05 2.1936352946e+00 -3.7994877835e+00 2.1936352946e+00 3.7994877835e+00 
71000 5.8014199300e+00 5.9104819662e-05 2.1936352946e+00 -3.7994877835e+00 2.1936352946e+00 3.7994877835e+00 
71100 5.8014199322e+00 5.9436315065e-05 2.1936352946e+00 -3.7994877835e+00 2.1936352946e+00 3.7994877835e+00 
71200 5.8014199344e+00 5.9766297221e-05 2.1936352946e+00 -3.7994877835e+00 2.1936352946e+00 3.7994877835e+00 
71300 5.8014199366e+00 6.0094251135e-05 2.1936352946e+00 -3.7994877835e+00 2.1936352946e+00 3.7994877835e+00 
71400 5.8014199388e+00 6.0419680093e-05 2.1936352946e+00 -3.7994877835e+00 2.1936352946e+00 3.7994877835e+00 
71500 5.8014199409e+00 6.0742106260e-05 2.1936352946e+00 -3.7994877835e+00 2.1936352946e+00 3.7994877835e+00 
71600 5.8014199430e+00 6.1061071186e-05 2.1936352946e+00 -3.7994877835e+00 2.1936352946e+00 3.7994877835e+00 
71700 5.8014199451e+00 6.1376136295e-05 2.1936352946e+00 -3.7994877835e+00 2.1936352946e+00 3.7994877835e+00 
71800 5.8014199471e+00 6.1686883272e-05 2.1936352946e+00 -3.7994877835e+00 2.1936352946e+00 3.7994877835e+00 
71900 5.8014199492e+00 6.1992914427e-05 2.1936352946e+00 -3.7994877835e+00 2.1936352946e+00 3.7994877835e+00 
72000 5.8014199512e+00 6.2293852983e-05 2.1936352946e+00 -3.7994877835e+00 2.1936352946e+00 3.7994877835e+00 
72100 5.8014199531e+00 6.2589343317e-05 2.1936352946e+00 -3.7994877835e+00 2.1936352946e+00 3.7994877835e+00 
72200 5.8014199551e+00 6.2879051142e-05 2.1936352946e+00 -3.7994877835e+00 2.1936352946e+00 3.7994877835e+00 
72300 5.8014199570e+00 6.3162663634e-05 2.1936352946e+00 -3.7994877835e+00 2.1936352946e+00 3.7994877835e+00 
72400 5.8014199589e+00 6.3439889521e-05 2.1936352946e+00 -3.7994877835e+00 2.1936352946e+00 3.7994877835e+00 
72500 5.8014199608e+00 6.3710459096e-05 2.1936352946e+00 -3.7994877835e+00 2.1936352946e+00 3.7994877835e+00 
72600 5.8014199626e+00 6.3974124208e-05 2.1936352946e+00 -3.7994877835e+00 2.1936352946e+00 3.7994877835e+00 
72700 5.8014199644e+00 6.4230658192e-05 2.1936352946e+00 -3.7994877835e+00 2.1936352946e+00 3.7994877835e+00 
72800 5.8014199662e+00 6.4479855744e-05 2.1936352946e+00 -3.7994877835e+00 2.1936352946e+00 3.7994877835e+00 
72900 5.8014199680e+00 6.4721532772e-05 2.1936352946e+00 -3.7994877835e+00 2.1936352946e+00 3.7994877835e+00 
73000 5.8014199698e+00 6.4955526198e-05 2.1936352946e+00 -3.7994877835e+00 2.1936352946e+00 3.7994877835e+00 
73100 5.8014199715e+00 6.5181693700e-05 2.1936352946e+00 -3.7994877835e+00 2.1936352946e+00 3.7994877835e+00 
73200 5.8014199732e+00 6.5399913446e-05 2.1936352946e+00 -3.7994877835e+00 2.1936352946e+00 3.7994877835e+00 
73300 5.8014199749e+00 6.5610083768e-05 2.1936352946e+00 -3.7994877835e+00 2.1936352946e+00 3.7994877835e+00 
73400 5.8014199766e+00 6.5812122802e-05 2.1936352946e+00 -3.7994877835e+00 2.1936352946e+00 3.7994877835e+00 
73500 5.8014199782e+00 6.6005968112e-05 2.1936352946e+00 -3.7994877835e+00 2.1936352946e+00 3.7994877835e+00 
73600 5.8014199799e+00 6.6191576262e-05 2.1936352946e+00 -3.7994877835e+00 2.1936352946e+00 3.7994877835e+00 
73700 5.8014199815e+00 6.6368922365e-05 2.1936352946e+00 -3.7994877835e+00 2.1936352946e+00 3.7994877835e+00 
73800 5.8014199831e+00 6.6537999607e-05 2.1936352946e+00 -3.7994877835e+00 2.1936352946e+00 3.7994877835e+00 
73900 5.8014199846e+00 6.6698818747e-05 2.1936352946e+00 -3.7994877835e+00 2.1936352946e+00 3.7994877835e+00 
74000 5.8014199862e+00 6.6851407581e-05 2.1936352946e+00 -3.7994877835e+00 2.1936352946e+00 3.7994877835e+00 
74100 5.8014199877e+00 6.6995810396e-05 2.1936352946e+00 -3.7994877835e+00 2.1936352946e+00 3.7994877835e+00 
74200 5.8014199892e+00 6.7132087400e-05 2.1936352946e+00 -3.7994877835e+00 2.1936352946e+00 3.7994877835e+00 
74300 5.8014199907e+00 6.7260314125e-05 2.1936352946e+00 -3.7994877835e+00 2.1936352946e+00 3.7994877835e+00 
74400 5.8014199922e+00 6.7380580832e-05 2.1936352946e+00 -3.7994877835e+00 2.1936352946e+00 3.7994877835e+00 
74500 5.8014199937e+00 6.7492991879e-05 2.1936352946e+00 -3.7994877835e+00 2.1936352946e+00 3.7994877835e+00 
74600 5.8014199951e+00 6.7597665092e-05 2.1936352946e+00 -3.7994877835e+00 2.1936352946e+00 3.7994877835e+00 
74700 5.8014199965e+00 6.7694731120e-05 2.1936352946e+00 -3.7994877835e+00 2.1936352946e+00 3.7994877835e+00 
74800 5.8014199979e+00 6.7784332779e-05 2.1936352946e+00 -3.7994877835e+00 2.1936352946e+00 3.7994877835e+00 
74900 5.8014199993e+00 6.7866624386e-05 2.1936352946e+00 -3.7994877835e+00 2.1936352946e+00 3.7994877835e+00 
75000 5.8014200007e+00 6.7941771097e-05 2.1936352946e+00 -3.7994877835e+00 2.1936352946e+00 3.7994877835e+00 
75100 5.8014200021e+00 6.8009948227e-05 2.1936352946e+00 -3.7994877835e+00 2.1936352946e+00 3.7994877835e+00 
75200 5.8014200034e+00 6.8071340580e-05 2.1936352946e+00 -3.7994877835e+00 2.1936352946e+00 3.7994877835e+00 
75300 5.8014200047e+00 6.8126141767e-05 2.1936352946e+00 -3.7994877835e+00 2.1936352946e+00 3.7994877835e+00 
75400 5.8014200060e+00 6.8174553531e-05 2.1936352946e+00 -3.7994877835e+00 2.1936352946e+00 3.7994877835e+00 
75500 5.8014200073e+00 6.8216785077e-05 2.1936352946e+00 -3.7994877835e+00 2.1936352946e+00 3.7994877835e+00 
75600 5.8014200086e+00 6.8253052393e-05 2.1936352946e+00 -3.7994877835e+00 2.1936352946e+00 3.7994877835e+00 
75700 5.8014200099e+00 6.8283577585e-05 2.1936352946e+00 -3.7994877835e+00 2.1936352946e+00 3.7994877835e+00 
75800 5.8014200111e+00 6.8308588224e-05 2.1936352946e+00 -3.7994877835e+00 2.1936352946e+00 3.7994877835e+00 
75900 5.8014200123e+00 6.8328316681e-05 2.1936352946e+00 -3.7994877835e+00 2.1936352946e+00 3.7994877835e+00 
76000 5.8014200135e+00 6.8342999487e-05 2.1936352946e+00 -3.7994877835e+00 2.1936352946e+00 3.7994877835e+00 
76100 5.8014200147e+00 6.8352876703e-05 2.1936352946e+00 -3.7994877835e+00 2.1936352946e+00 3.7994877835e+00 
76200 5.8014200159e+00 6.8358191284e-05 2.1936352946e+00 -3.7994877835e+00 2.1936352946e+00 3.7994877835e+00 
76300 5.8014200171e+00 6.8359188480e-05 2.1936352946e+00 -3.7994877835e+00 2.1936352946e+00 3.7994877835e+00 
76400 5.8014200183e+00 6.8356115222e-05 2.1936352946e+00 -3.7994877835e+00 2.1936352946e+00 3.7994877835e+00 
76500 5.8014200194e+00 6.8349219548e-05 2.1936352946e+00 -3.7994877835e+00 2.1936352946e+00 3.7994877835e+00 
76600 5.8014200205e+00 6.8338750026e-05 2.1936352946e+00 -3.7994877835e+00 2.1936352946e+00 3.7994877835e+00 
76700 5.8014200216e+00 6.8324955203e-05 2.1936352946e+00 -3.7994877835e+00 2.1936352946e+00 3.7994877835e+00 
76800 5.8014200227e+00 6.8308083057e-05 2.1936352946e+00 -3.7994877835e+00 2.1936352946e+00 3.7994877835e+00 
76900 5.8014200238e+00 6.8288380485e-05 2.1936352946e+00 -3.7994877835e+00 2.1936352946e+00 3.7994877835e+00 
77000 5.8014200249e+00 6.8266092787e-05 2.1936352946e+00 -3.7994877835e+00 2.1936352946e+00 3.7994877835e+00 
77100 5.8014200260e+00 6.8241463194e-05 2.1936352946e+00 -3.7994877835e+00 2.1936352946e+00 3.7994877835e+00 
77200 5.8014200270e+00 6.8214732385e-05 2.1936352946e+00 -3.7994877835e+00 2.1936352946e+00 3.7994877835e+00 
77300 5.8014200280e+00 6.8186138053e-05 2.1936352946e+00 -3.7994877835e+00 2.1936352946e+00 3.7994877835e+00 
77400 5.8014200291e+00 6.8155914461e-05 2.1936352946e+00 -3.7994877835e+00 2.1936352946e+00 3.7994877835e+00 
77500 5.8014200301e+00 6.8124292046e-05 2.1936352946e+00 -3.7994877835e+00 2.1936352946e+00 3.7994877835e+00 
77600 5.8014200311e+00 6.8091497031e-05 2.1936352946e+00 -3.7994877835e+00 2.1936352946e+00 3.7994877835e+00 
77700 5.8014200321e+00 6.8057751043e-05 2.1936352946e+00 -3.7994877835e+00 2.1936352946e+00 3.7994877835e+00 
77800 5.8014200330e+00 6.8023270778e-05 2.1936352946e+00 -3.7994877835e+00 2.1936352946e+00 3.7994877835e+00 
77900 5.8014200340e+00 6.7988267679e-05 2.1936352946e+00 -3.7994877835e+00 2.1936352946e+00 3.7994877835e+00 
78000 5.8014200349e+00 6.7952947613e-05 2.1936352946e+00 -3.7994877835e+00 2.1936352946e+00 3.7994877835e+00 
78100 5.8014200359e+00 6.7917510607e-05 2.1936352946e+00 -3.7994877835e+00 2.1936352946e+00 3.7994877835e+00 
78200 5.8014200368e+00 6.7882150574e-05 2.1936352946e+00 -3.7994877835e+00 2.1936352946e+00 3.7994877835e+00 
78300 5.8014200377e+00 6.7847055073e-05 2.1936352946e+00 -3.7994877835e+00 2.1936352946e+00 3.7994877835e+00 
78400 5.8014200386e+00 6.7812405090e-05 2.1936352946e+00 -3.7994877835e+00 2.1936352946e+00 3.7994877835e+00 
78500 5.8014200395e+00 6.7778374833e-05 2.1936352946e+00 -3.7994877835e+00 2.1936352946e+00 3.7994877835e+00 
78600 5.8014200404e+00 6.7745131560e-05 2.1936352946e+00 -3.7994877835e+00 2.1936352946e+00 3.7994877835e+00 
78700 5.8014200413e+00 6.7712835415e-05 2.1936352946e+00 -3.7994877835e+00 2.1936352946e+00 3.7994877835e+00 
78800 5.8014200421e+00 6.7681639293e-05 2.1936352946e+00 -3.7994877835e+00 2.1936352946e+00 3.7994877835e+00 
78900 5.8014200430e+00 6.7651688717e-05 2.1936352946e+00 -3.7994877835e+00 2.1936352946e+00 3.7994877835e+00 
79000 5.8014200438e+00 6.7623121737e-05 2.1936352946e+00 -3.7994877835e+00 2.1936352946e+00 3.7994877835e+00 
79100 5.8014200446e+00 6.7596068858e-05 2.1936352946e+00 -3.7994877835e+00 2.1936352946e+00 3.7994877835e+00 
79200 5.8014200455e+00 6.7570652975e-05 2.1936352946e+00 -3.7994877835e+00 2.1936352946e+00 3.7994877835e+00 
79300 5.8014200463e+00 6.7546989320e-05 2.1936352946e+00 -3.7994877835e+00 2.1936352946e+00 3.7994877835e+00 
79400 5.8014200471e+00 6.7525185454e-05 2.1936352946e+00 -3.7994877835e+00 2.1936352946e+00 3.7994877835e+00 
79500 5.8014200479e+00 6.7505341250e-05 2.1936352946e+00 -3.7994877835e+00 2.1936352946e+00 3.7994877835e+00 
79600 5.8014200486e+00 6.7487548897e-05 2.1936352946e+00 -3.7994877835e+00 2.1936352946e+00 3.7994877835e+00 
79700 5.8014200494e+00 6.7471892941e-05 2.1936352946e+00 -3.7994877835e+00 2.1936352946e+00 3.7994877835e+00 
79800 5.8014200502e+00 6.7458450312e-05 2.1936352946e+00 -3.7994877835e+00 2.1936352946e+00 3.7994877835e+00 
79900 5.8014200509e+00 6.7447290392e-05 2.1936352946e+00 -3.7994877835e+00 2.1936352946e+00 3.7994877835e+00 
80000 5.8014200517e+00 6.7438475074e-05 2.1936352946e+00 -3.7994877835e+00 2.1936352946e+00 3.7994877835e+00 
80100 5.8014200524e+00 6.7432058863e-05 2.1936352946e+00 -3.7994877835e+00 2.1936352946e+00 3.7994877835e+00 
80200 5.8014200531e+00 6.7428088963e-05 2.1936352946e+00 -3.7994877835e+00 2.1936352946e+00 3.7994877835e+00 
80300 5.8014200538e+00 6.7426605398e-05 2.1936352946e+00 -3.7994877835e+00 2.1936352946e+00 3.7994877835e+00 
80400 5.8014200545e+00 6.7427641131e-05 2.1936352946e+00 -3.7994877835e+00 2.1936352946e+00 3.7994877835e+00 
80500 5.8014200552e+00 6.7431222203e-05 2.1936352946e+00 -3.7994877835e+00 2.1936352946e+00 3.7994877835e+00 
80600 5.8014200559e+00 6.7437367883e-05 2.1936352946e+00 -3.7994877835e+00 2.1936352946e+00 3.7994877835e+00 
80700 5.8014200566e+00 6.7446090818e-05 2.1936352946e+00 -3.7994877835e+00 2.1936352946e+00 3.7994877835e+00 
80800 5.8014200573e+00 6.7457397212e-05 2.1936352946e+00 -3.7994877835e+00 2.1936352946e+00 3.7994877835e+00 
80900 5.8014200579e+00 6.7471286987e-05 2.1936352946e+00 -3.7994877835e+00 2.1936352946e+00 3.7994877835e+00 
81000 5.8014200586e+00 6.7487753989e-05 2.1936352946e+00 -3.7994877835e+00 2.1936352946e+00 3.7994877835e+00 
81100 5.8014200592e+00 6.7506786158e-05 2.1936352946e+00 -3.7994877835e+00 2.1936352946e+00 3.7994877835e+00 
81200 5.8014200599e+00 6.7528365748e-05 2.1936352946e+00 -3.7994877835e+00 2.1936352946e+00 3.7994877835e+00 
81300 5.8014200605e+00 6.7552469519e-05 2.1936352946e+00 -3.7994877835e+00 2.1936352946e+00 3.7994877835e+00 
81400 5.8014200611e+00 6.7579068955e-05 2.1936352946e+00 -3.7994877835e+00 2.1936352946e+00 3.7994877835e+00 
81500 5.8014200617e+00 6.7608130486e-05 2.1936352946e+00 -3.7994877835e+00 2.1936352946e+00 3.7994877835e+00 
81600 5.8014200624e+00 6.7639615703e-05 2.1936352946e+00 -3.7994877835e+00 2.1936352946e+00 3.7994877835e+00 
81700 5.8014200630e+00 6.7673481583e-05 2.1936352946e+00 -3.7994877835e+00 2.1936352946e+00 3.7994877835e+00 
81800 5.8014200636e+00 6.7709680725e-05 2.1936352946e+00 -3.7994877835e+00 2.1936352946e+00 3.7994877835e+00 
81900 5.8014200641e+00 6.7748161579e-05 2.1936352946e+00 -3.7994877835e+00 2.1936352946e+00 3.7994877835e+00 
82000 5.8014200647e+00 6.7788868682e-05 2.1936352946e+00 -3.7994877835e+00 2.1936352946e+00 3.7994877835e+00 
82100 5.8014200653e+00 6.7831742886e-05 2.1936352946e+00 -3.7994877835e+00 2.1936352946e+00 3.7994877835e+00 
82200 5.8014200659e+00 6.7876721609e-05 2.1936352946e+00 -3.7994877835e+00 2.1936352946e+00 3.7994877835e+00 
82300 5.8014200664e+00 6.7923739057e-05 2.1936352946e+00 -3.7994877835e+00 2.1936352946e+00 3.7994877835e+00 
82400 5.8014200670e+00 6.7972726468e-05 2.1936352946e+00 -3.7994877835e+00 2.1936352946e+00 3.7994877835e+00 
82500 5.8014200675e+00 6.8023612358e-05 2.1936352946e+00 -3.7994877835e+00 2.1936352946e+00 3.7994877835e+00 
82600 5.8014200681e+00 6.8076322738e-05 2.1936352946e+00 -3.7994877835e+00 2.1936352946e+00 3.7994877835e+00 
82700 5.8014200686e+00 6.8130781365e-05 2.1936352946e+00 -3.7994877835e+00 2.1936352946e+00 3.7994877835e+00 
82800 5.8014200691e+00 6.8186909963e-05 2.1936352946e+00 -3.7994877835e+00 2.1936352946e+00 3.7994877835e+00 
82900 5.8014200696e+00 6.8244628457e-05 2.1936352946e+00 -3.7994877835e+00 2.1936352946e+00 3.7994877835e+00 
83000 5.8014200702e+00 6.8303855201e-05 2.1936352946e+00 -3.7994877835e+00 2.1936352946e+00 3.7994877835e+00 
83100 5.8014200707e+00 6.8364507200e-05 2.1936352946e+00 -3.7994877835e+00 2.1936352946e+00 3.7994877835e+00 
83200 5.8014200712e+00 6.8426500330e-05 2.1936352946e+00 -3.7994877835e+00 2.1936352946e+00 3.7994877835e+00 
83300 5.8014200717e+00 6.8489749550e-05 2.1936352946e+00 -3.7994877835e+00 2.1936352946e+00 3.7994877835e+00 
83400 5.8014200721e+00 6.8554169121e-05 2.1936352946e+00 -3.7994877835e+00 2.1936352946e+00 3.7994877835e+00 
83500 5.8014200726e+00 6.8619672806e-05 2.1936352946e+00 -3.7994877835e+00 2.1936352946e+00 3.7994877835e+00 
83600 5.8014200731e+00 6.8686174076e-05 2.1936352946e+00 -3.7994877835e+00 2.1936352946e+00 3.7994877835e+00 
83700 5.8014200736e+00 6.8753586303e-05 2.1936352946e+00 -3.7994877835e+00 2.1936352946e+00 3.7994877835e+00 
83800 5.8014200740e+00 6.8821822948e-05 2.1936352946e+00 -3.7994877835e+00 2.1936352946e+00 3.7994877835e+00 
83900 5.8014200745e+00 6.8890797758e-05 2.1936352946e+00 -3.7994877835e+00 2.1936352946e+00 3.7994877835e+00 
84000 5.8014200750e+00 6.8960424931e-05 2.1936352946e+00 -3.7994877835e+00 2.1936352946e+00 3.7994877835e+00 
84100 5.8014200754e+00 6.9030619296e-05 2.1936352946e+00 -3.7994877835e+00 2.1936352946e+00 3.7994877835e+00 
84200 5.8014200759e+00 6.9101296476e-05 2.1936352946e+00 -3.7994877835e+00 2.1936352946e+00 3.7994877835e+00 
84300 5.8014200763e+00 6.9172373050e-05 2.1936352946e+00 -3.7994877835e+00 2.1936352946e+00 3.7994877835e+00 
84400 5.8014200767e+00 6.9243766702e-05 2.1936352946e+00 -3.7994877835e+00 2.1936352946e+00 3.7994877835e+00 
84500 5.8014200772e+00 6.9315396371e-05 2.1936352946e+00 -3.7994877835e+00 2.1936352946e+00 3.7994877835e+00 
84600 5.8014200776e+00 6.9387182386e-05 2.1936352946e+00 -3.7994877835e+00 2.1936352946e+00 3.7994877835e+00 
84700 5.8014200780e+00 6.9459046604e-05 2.1936352946e+00 -3.7994877835e+00 2.1936352946e+00 3.7994877835e+00 
84800 5.8014200784e+00 6.9530912520e-05 2.1936352946e+00 -3.7994877835e+00 2.1936352946e+00 3.7994877835e+00 
84900 5.8014200788e+00 6.9602705405e-05 2.1936352946e+00 -3.7994877835e+00 2.1936352946e+00 3.7994877835e+00 
85000 5.8014200792e+00 6.9674352395e-05 2.1936352946e+00 -3.7994877835e+00 2.1936352946e+00 3.7994877835e+00 
85100 5.8014200796e+00 6.9745782608e-05 2.1936352946e+00 -3.7994877835e+00 2.1936352946e+00 3.7994877835e+00 
85200 5.8014200800e+00 6.9816927237e-05 2.1936352946e+00 -3.7994877835e+00 2.1936352946e+00 3.7994877835e+00 
85300 5.8014200804e+00 6.9887719628e-05 2.1936352946e+00 -3.7994877835e+00 2.1936352946e+00 3.7994877835e+00 
85400 5.8014200808e+00 6.9958095375e-05 2.1936352946e+00 -3.7994877835e+00 2.1936352946e+00 3.7994877835e+00 
85500 5.8014200812e+00 7.0027992383e-05 2.1936352946e+00 -3.7994877835e+00 2.1936352946e+00 3.7994877835e+00 
85600 5.8014200815e+00 7.0097350941e-05 2.1936352946e+00 -3.7994877835e+00 2.1936352946e+00 3.7994877835e+00 
85700 5.8014200819e+00 7.0166113774e-05 2.1936352946e+00 -3.7994877835e+00 2.1936352946e+00 3.7994877835e+00 
85800 5.8014200823e+00 7.0234226104e-05 2.1936352946e+00 -3.7994877835e+00 2.1936352946e+00 3.7994877835e+00 
85900 5.8014200826e+00 7.0301635687e-05 2.1936352946e+00 -3.7994877835e+00 2.1936352946e+00 3.7994877835e+00 
86000 5.8014200830e+00 7.0368292856e-05 2.1936352946e+00 -3.7994877835e+00 2.1936352946e+00 3.7994877835e+00 
86100 5.8014200833e+00 7.0434150554e-05 2.1936352946e+00 -3.7994877835e+00 2.1936352946e+00 3.7994877835e+00 
86200 5.8014200837e+00 7.0499164353e-05 2.1936352946e+00 -3.7994877835e+00 2.1936352946e+00 3.7994877835e+00 
86300 5.8014200840e+00 7.0563292482e-05 2.1936352946e+00 -3.7994877835e+00 2.1936352946e+00 3.7994877835e+00 
86400 5.8014200844e+00 7.0626495831e-05 2.1936352946e+00 -3.7994877835e+00 2.1936352946e+00 3.7994877835e+00 
86500 5.8014200847e+00 7.0688737959e-05 2.1936352946e+00 -3.7994877835e+00 2.1936352946e+00 3.7994877835e+00 
86600 5.8014200850e+00 7.0749985104e-05 2.1936352946e+00 -3.7994877835e+00 2.1936352946e+00 3.7994877835e+00 
86700 5.8014200853e+00 6.9982990782e-05 2.1936336820e+00 -3.7994849904e+00 2.1936336820e+00 3.7994849904e+00 
86800 5.8014200856e+00 7.0032797400e-05 2.1936336820e+00 -3.7994849904e+00 2.1936336820e+00 3.7994849904e+00 
86900 5.8014200859e+00 7.0081311647e-05 2.1936336820e+00 -3.7994849904e+00 2.1936336820e+00 3.7994849904e+00 
87000 5.8014200862e+00 7.0128529435e-05 2.1936336820e+00 -3.7994849904e+00 2.1936336820e+00 3.7994849904e+00 
87100 5.8014200865e+00 7.0174449103e-05 2.1936336820e+00 -3.7994849904e+00 2.1936336820e+00 3.7994849904e+00 
87200 5.8014200869e+00 7.0219071338e-05 2.1936336820e+00 -3.7994849904e+00 2.1936336820e+00 3.7994849904e+00 
87300 5.8014200872e+00 7.0262399142e-05 2.1936336820e+00 -3.7994849904e+00 2.1936336820e+00 3.7994849904e+00 
87400 5.8014200875e+00 7.0304437760e-05 2.1936336820e+00 -3.7994849904e+00 2.1936336820e+00 3.7994849904e+00 
87500 5.8014200878e+00 7.0345194623e-05 2.1936336820e+00 -3.7994849904e+00 2.1936336820e+00 3.7994849904e+00 
87600 5.8014200881e+00 7.0384679283e-05 2.1936336820e+00 -3.7994849904e+00 2.1936336820e+00 3.7994849904e+00 
87700 5.8014200883e+00 7.0422903333e-05 2.1936336820e+00 -3.7994849904e+00 2.1936336820e+00 3.7994849904e+00 
87800 5.8014200886e+00 7.0459880349e-05 2.1936336820e+00 -3.7994849904e+00 2.1936336820e+00 3.7994849904e+00 
87900 5.8014200889e+00 7.0495625790e-05 2.1936336820e+00 -3.7994849904e+00 2.1936336820e+00 3.7994849904e+00 
88000 5.8014200892e+00 7.0530156942e-05 2.1936336820e+00 -3.7994849904e+00 2.1936336820e+00 3.7994849904e+00 
88100 5.8014200895e+00 7.0563492816e-05 2.1936336820e+00 -3.7994849904e+00 2.1936336820e+00 3.7994849904e+00 
88200 5.8014200897e+00 7.0595654080e-05 2.1936336820e+00 -3.7994849904e+00 2.1936336820e+00 3.7994849904e+00 
88300 5.8014200900e+00 7.0626662961e-05 2.1936336820e+00 -3.7994849904e+00 2.1936336820e+00 3.7994849904e+00 
88400 5.8014200903e+00 7.0656543162e-05 2.1936336820e+00 -3.7994849904e+00 2.1936336820e+00 3.7994849904e+00 
88500 5.8014200905e+00 7.0685319772e-05 2.1936336820e+00 -3.7994849904e+00 2.1936336820e+00 3.7994849904e+00 
88600 5.8014200908e+00 7.0713019181e-05 2.1936336820e+00 -3.7994849904e+00 2.1936336820e+00 3.7994849904e+00 
88700 5.8014200910e+00 6.9912881745e-05 2.1936320702e+00 -3.7994821987e+00 2.1936320702e+00 3.7994821987e+00 
88800 5.8014200912e+00 6.9929155703e-05 2.1936320702e+00 -3.7994821987e+00 2.1936320702e+00 3.7994821987e+00 
88900 5.8014200915e+00 6.9944226579e-05 2.1936320702e+00 -3.7994821987e+00 2.1936320702e+00 3.7994821987e+00 
89000 5.8014200917e+00 6.9958144140e-05 2.1936320702e+00 -3.7994821987e+00 2.1936320702e+00 3.7994821987e+00 
89100 5.8014200920e+00 6.9970958824e-05 2.1936320702e+00 -3.7994821987e+00 2.1936320702e+00 3.7994821987e+00 
89200 5.8014200922e+00 6.9982721619e-05 2.1936320702e+00 -3.7994821987e+00 2.1936320702e+00 3.7994821987e+00 
89300 5.8014200924e+00 6.9993483962e-05 2.1936320702e+00 -3.7994821987e+00 2.1936320702e+00 3.7994821987e+00 
89400 5.8014200927e+00 7.0003297633e-05 2.1936320702e+00 -3.7994821987e+00 2.1936320702e+00 3.7994821987e+00 
89500 5.8014200929e+00 7.0012214645e-05 2.1936320702e+00 -3.7994821987e+00 2.1936320702e+00 3.7994821987e+00 
89600 5.8014200931e+00 7.0020287139e-05 2.1936320702e+00 -3.7994821987e+00 2.1936320702e+00 3.7994821987e+00 
89700 5.8014200934e+00 7.0027567288e-05 2.1936320702e+00 -3.7994821987e+00 2.1936320702e+00 3.7994821987e+00 
89800 5.8014200936e+00 7.0034107179e-05 2.1936320702e+00 -3.7994821987e+00 2.1936320702e+00 3.7994821987e+00 
89900 5.8014200938e+00 7.0039958742e-05 2.1936320702e+00 -3.7994821987e+00 2.1936320702e+00 3.7994821987e+00 
90000 5.8014200940e+00 7.0045173615e-05 2.1936320702e+00 -3.7994821987e+00 2.1936320702e+00 3.7994821987e+00 
90100 5.8014200943e+00 7.0049803085e-05 2.1936320702e+00 -3.7994821987e+00 2.1936320702e+00 3.7994821987e+00 
90200 5.8014200945e+00 7.0053897971e-05 2.1936320702e+00 -3.7994821987e+00 2.1936320702e+00 3.7994821987e+00 
90300 5.8014200947e+00 7.0057508551e-05 2.1936320702e+00 -3.7994821987e+00 2.1936320702e+00 3.7994821987e+00 
90400 5.8014200949e+00 7.0060684464e-05 2.1936320702e+00 -3.7994821987e+00 2.1936320702e+00 3.7994821987e+00 
90500 5.8014200951e+00 7.0063474633e-05 2.1936320702e+00 -3.7994821987e+00 2.1936320702e+00 3.7994821987e+00 
90600 5.8014200953e+00 7.0065927185e-05 2.1936320702e+00 -3.7994821987e+00 2.1936320702e+00 3.7994821987e+00 
90700 5.8014200955e+00 7.0068089375e-05 2.1936320702e+00 -3.7994821987e+00 2.1936320702e+00 3.7994821987e+00 
90800 5.8014200957e+00 7.0070007512e-05 2.1936320702e+00 -3.7994821987e+00 2.1936320702e+00 3.7994821987e+00 
90900 5.8014200959e+00 7.0071726888e-05 2.1936320702e+00 -3.7994821987e+00 2.1936320702e+00 3.7994821987e+00 
91000 5.8014200961e+00 7.0073291721e-05 2.1936320702e+00 -3.7994821987e+00 2.1936320702e+00 3.7994821987e+00 
91100 5.8014200963e+00 7.0074745083e-05 2.1936320702e+00 -3.7994821987e+00 2.1936320702e+00 3.7994821987e+00 
91200 5.8014200965e+00 7.0076128853e-05 2.1936320702e+00 -3.7994821987e+00 2.1936320702e+00 3.7994821987e+00 
91300 5.8014200967e+00 7.0077483653e-05 2.1936320702e+00 -3.7994821987e+00 2.1936320702e+00 3.7994821987e+00 
91400 5.8014200969e+00 7.0078848811e-05 2.1936320702e+00 -3.7994821987e+00 2.1936320702e+00 3.7994821987e+00 
91500 5.8014200971e+00 7.0080262302e-05 2.1936320702e+00 -3.7994821987e+00 2.1936320702e+00 3.7994821987e+00 
91600 5.8014200972e+00 7.0081760716e-05 2.1936320702e+00 -3.7994821987e+00 2.1936320702e+00 3.7994821987e+00 
91700 5.8014200974e+00 7.0083379218e-05 2.1936320702e+00 -3.7994821987e+00 2.1936320702e+00 3.7994821987e+00 
91800 5.8014200976e+00 7.0085151515e-05 2.1936320702e+00 -3.7994821987e+00 2.1936320702e+00 3.7994821987e+00 
91900 5.8014200978e+00 7.0087109823e-05 2.1936320702e+00 -3.7994821987e+00 2.1936320702e+00 3.7994821987e+00 
92000 5.8014200979e+00 7.0089284846e-05 2.1936320702e+00 -3.7994821987e+00 2.1936320702e+00 3.7994821987e+00 
92100 5.8014200981e+00 7.0091705753e-05 2.1936320702e+00 -3.7994821987e+00 2.1936320702e+00 3.7994821987e+00 
92200 5.8014200983e+00 7.0094400157e-05 2.1936320702e+00 -3.7994821987e+00 2.1936320702e+00 3.7994821987e+00 
92300 5.8014200984e+00 7.0097394106e-05 2.1936320702e+00 -3.7994821987e+00 2.1936320702e+00 3.7994821987e+00 
92400 5.8014200986e+00 7.0100712070e-05 2.1936320702e+00 -3.7994821987e+00 2.1936320702e+00 3.7994821987e+00 
92500 5.8014200988e+00 7.0104376936e-05 2.1936320702e+00 -3.7994821987e+00 2.1936320702e+00 3.7994821987e+00 
92600 5.8014200989e+00 7.0108409998e-05 2.1936320702e+00 -3.7994821987e+00 2.1936320702e+00 3.7994821987e+00 
92700 5.8014200991e+00 7.0112830967e-05 2.1936320702e+00 -3.7994821987e+00 2.1936320702e+00 3.7994821987e+00 
92800 5.8014200993e+00 7.0117657973e-05 2.1936320702e+00 -3.7994821987e+00 2.1936320702e+00 3.7994821987e+00 
92900 5.8014200994e+00 7.0122907564e-05 2.1936320702e+00 -3.7994821987e+00 2.1936320702e+00 3.7994821987e+00 
93000 5.8014200996e+00 7.0128594728e-05 2.1936320702e+00 -3.7994821987e+00 2.1936320702e+00 3.7994821987e+00 
93100 5.8014200997e+00 7.0134732893e-05 2.1936320702e+00 -3.7994821987e+00 2.1936320702e+00 3.7994821987e+00 
93200 5.8014200999e+00 7.0141333957e-05 2.1936320702e+00 -3.7994821987e+00 2.1936320702e+00 3.7994821987e+00 
93300 5.8014201000e+00 7.0148408299e-05 2.1936320702e+00 -3.7994821987e+00 2.1936320702e+00 3.7994821987e+00 
93400 5.8014201002e+00 7.0155964800e-05 2.1936320702e+00 -3.7994821987e+00 2.1936320702e+00 3.7994821987e+00 
93500 5.8014201003e+00 7.0164010874e-05 2.1936320702e+00 -3.7994821987e+00 2.1936320702e+00 3.7994821987e+00 
93600 5.8014201004e+00 7.0172552488e-05 2.1936320702e+00 -3.7994821987e+00 2.1936320702e+00 3.7994821987e+00 
93700 5.8014201006e+00 7.0181594190e-05 2.1936320702e+00 -3.7994821987e+00 2.1936320702e+00 3.7994821987e+00 
93800 5.8014201007e+00 7.0191139157e-05 2.1936320702e+00 -3.7994821987e+00 2.1936320702e+00 3.7994821987e+00 
93900 5.8014201009e+00 7.0201189207e-05 2.1936320702e+00 -3.7994821987e+00 2.1936320702e+00 3.7994821987e+00 
94000 5.8014201010e+00 7.0211744843e-05 2.1936320702e+00 -3.7994821987e+00 2.1936320702e+00 3.7994821987e+00 
94100 5.8014201011e+00 7.0222805296e-05 2.1936320702e+00 -3.7994821987e+00 2.1936320702e+00 3.7994821987e+00 
94200 5.8014201013e+00 7.0234368559e-05 2.1936320702e+00 -3.7994821987e+00 2.1936320702e+00 3.7994821987e+00 
94300 5.8014201014e+00 7.0246431427e-05 2.1936320702e+00 -3.7994821987e+00 2.1936320702e+00 3.7994821987e+00 
94400 5.8014201015e+00 7.0258989539e-05 2.1936320702e+00 -3.7994821987e+00 2.1936320702e+00 3.7994821987e+00 
94500 5.8014201017e+00 7.0272037421e-05 2.1936320702e+00 -3.7994821987e+00 2.1936320702e+00 3.7994821987e+00 
94600 5.8014201018e+00 7.0285568537e-05 2.1936320702e+00 -3.7994821987e+00 2.1936320702e+00 3.7994821987e+00 
94700 5.8014201019e+00 7.0299575325e-05 2.1936320702e+00 -3.7994821987e+00 2.1936320702e+00 3.7994821987e+00 
94800 5.8014201020e+00 7.0314049252e-05 2.1936320702e+00 -3.7994821987e+00 2.1936320702e+00 3.7994821987e+00 
94900 5.8014201022e+00 7.0328980853e-05 2.1936320702e+00 -3.7994821987e+00 2.1936320702e+00 3.7994821987e+00 
95000 5.8014201023e+00 7.0344359785e-05 2.1936320702e+00 -3.7994821987e+00 2.1936320702e+00 3.7994821987e+00 
95100 5.8014201024e+00 7.0360174876e-05 2.1936320702e+00 -3.7994821987e+00 2.1936320702e+00 3.7994821987e+00 
95200 5.8014201025e+00 7.0376414166e-05 2.1936320702e+00 -3.7994821987e+00 2.1936320702e+00 3.7994821987e+00 
95300 5.8014201026e+00 7.0393064965e-05 2.1936320702e+00 -3.7994821987e+00 2.1936320702e+00 3.7994821987e+00 
95400 5.8014201028e+00 7.0410113895e-05 2.1936320702e+00 -3.7994821987e+00 2.1936320702e+00 3.7994821987e+00 
95500 5.8014201029e+00 7.0427546950e-05 2.1936320702e+00 -3.7994821987e+00 2.1936320702e+00 3.7994821987e+00 
95600 5.8014201030e+00 7.0445349532e-05 2.1936320702e+00 -3.7994821987e+00 2.1936320702e+00 3.7994821987e+00 
95700 5.8014201031e+00 7.0463506507e-05 2.1936320702e+00 -3.7994821987e+00 2.1936320702e+00 3.7994821987e+00 
95800 5.8014201032e+00 7.0482002255e-05 2.1936320702e+00 -3.7994821987e+00 2.1936320702e+00 3.7994821987e+00 
95900 5.8014201033e+00 7.0500820712e-05 2.1936320702e+00 -3.7994821987e+00 2.1936320702e+00 3.7994821987e+00 
96000 5.8014201034e+00 7.0519945431e-05 2.1936320702e+00 -3.7994821987e+00 2.1936320702e+00 3.7994821987e+00 
96100 5.8014201035e+00 7.0539359611e-05 2.1936320702e+00 -3.7994821987e+00 2.1936320702e+00 3.7994821987e+00 
96200 5.8014201036e+00 7.0559046160e-05 2.1936320702e+00 -3.7994821987e+00 2.1936320702e+00 3.7994821987e+00 
96300 5.8014201037e+00 7.0578987733e-05 2.1936320702e+00 -3.7994821987e+00 2.1936320702e+00 3.7994821987e+00 
96400 5.8014201038e+00 7.0599166781e-05 2.1936320702e+00 -3.7994821987e+00 2.1936320702e+00 3.7994821987e+00 
96500 5.8014201039e+00 7.0619565590e-05 2.1936320702e+00 -3.7994821987e+00 2.1936320702e+00 3.7994821987e+00 
96600 5.8014201040e+00 7.0640166328e-05 2.1936320702e+00 -3.7994821987e+00 2.1936320702e+00 3.7994821987e+00 
96700 5.8014201041e+00 7.0660951095e-05 2.1936320702e+00 -3.7994821987e+00 2.1936320702e+00 3.7994821987e+00 
96800 5.8014201042e+00 7.0681901944e-05 2.1936320702e+00 -3.7994821987e+00 2.1936320702e+00 3.7994821987e+00 
96900 5.8014201043e+00 7.0703000947e-05 2.1936320702e+00 -3.7994821987e+00 2.1936320702e+00 3.7994821987e+00 
97000 5.8014201044e+00 7.0724230211e-05 2.1936320702e+00 -3.7994821987e+00 2.1936320702e+00 3.7994821987e+00 
97100 5.8014201044e+00 6.9918648371e-05 2.1936304582e+00 -3.7994794066e+00 2.1936304582e+00 3.7994794066e+00 
97200 5.8014201045e+00 6.9930728459e-05 2.1936304582e+00 -3.7994794066e+00 2.1936304582e+00 3.7994794066e+00 
97300 5.8014201046e+00 6.9942673825e-05 2.1936304582e+00 -3.7994794066e+00 2.1936304582e+00 3.7994794066e+00 
97400 5.8014201047e+00 6.9954486225e-05 2.1936304582e+00 -3.7994794066e+00 2.1936304582e+00 3.7994794066e+00 
97500 5.8014201048e+00 6.9966167463e-05 2.1936304582e+00 -3.7994794066e+00 2.1936304582e+00 3.7994794066e+00 
97600 5.8014201049e+00 6.9977719394e-05 2.1936304582e+00 -3.7994794066e+00 2.1936304582e+00 3.7994794066e+00 
97700 5.8014201050e+00 6.9989143934e-05 2.1936304582e+00 -3.7994794066e+00 2.1936304582e+00 3.7994794066e+00 
97800 5.8014201051e+00 7.0000443075e-05 2.1936304582e+00 -3.7994794066e+00 2.1936304582e+00 3.7994794066e+00 
97900 5.8014201051e+00 7.0011618891e-05 2.1936304582e+00 -3.7994794066e+00 2.1936304582e+00 3.7994794066e+00 
98000 5.8014201052e+00 7.0022673543e-05 2.1936304582e+00 -3.7994794066e+00 2.1936304582e+00 3.7994794066e+00 
98100 5.8014201053e+00 7.0033609286e-05 2.1936304582e+00 -3.7994794066e+00 2.1936304582e+00 3.7994794066e+00 
98200 5.8014201054e+00 7.0044428467e-05 2.1936304582e+00 -3.7994794066e+00 2.1936304582e+00 3.7994794066e+00 
98300 5.8014201055e+00 7.0055133535e-05 2.1936304582e+00 -3.7994794066e+00 2.1936304582e+00 3.7994794066e+00 
98400 5.8014201056e+00 7.0065727036e-05 2.1936304582e+00 -3.7994794066e+00 2.1936304582e+00 3.7994794066e+00 
98500 5.8014201056e+00 7.0076211609e-05 2.1936304582e+00 -3.7994794066e+00 2.1936304582e+00 3.7994794066e+00 
98600 5.8014201057e+00 7.0086589999e-05 2.1936304582e+00 -3.7994794066e+00 2.1936304582e+00 3.7994794066e+00 
98700 5.8014201058e+00 7.0096865039e-05 2.1936304582e+00 -3.7994794066e+00 2.1936304582e+00 3.7994794066e+00 
98800 5.8014201059e+00 7.0107039652e-05 2.1936304582e+00 -3.7994794066e+00 2.1936304582e+00 3.7994794066e+00 
98900 5.8014201059e+00 7.0117116853e-05 2.1936304582e+00 -3.7994794066e+00 2.1936304582e+00 3.7994794066e+00 
99000 5.8014201060e+00 7.0127099738e-05 2.1936304582e+00 -3.7994794066e+00 2.1936304582e+00 3.7994794066e+00 
99100 5.8014201061e+00 7.0136991481e-05 2.1936304582e+00 -3.7994794066e+00 2.1936304582e+00 3.7994794066e+00 
99200 5.8014201062e+00 7.0146795329e-05 2.1936304582e+00 -3.7994794066e+00 2.1936304582e+00 3.7994794066e+00 
99300 5.8014201062e+00 7.0156514588e-05 2.1936304582e+00 -3.7994794066e+00 2.1936304582e+00 3.7994794066e+00 
99400 5.8014201063e+00 7.0166152631e-05 2.1936304582e+00 -3.7994794066e+00 2.1936304582e+00 3.7994794066e+00 
99500 5.8014201064e+00 7.0175712879e-05 2.1936304582e+00 -3.7994794066e+00 2.1936304582e+00 3.7994794066e+00 
99600 5.8014201065e+00 7.0185198800e-05 2.1936304582e+00 -3.7994794066e+00 2.1936304582e+00 3.7994794066e+00 
99700 5.8014201065e+00 7.0194613896e-05 2.1936304582e+00 -3.7994794066e+00 2.1936304582e+00 3.7994794066e+00 
99800 5.8014201066e+00 7.0203961702e-05 2.1936304582e+00 -3.7994794066e+00 2.1936304582e+00 3.7994794066e+00 
99900 5.8014201067e+00 7.0213245773e-05 2.1936304582e+00 -3.7994794066e+00 2.1936304582e+00 3.7994794066e+00 
100000 5.8014201067e+00 7.0222469673e-05 2.1936304582e+00 -3.7994794066e+00 2.1936304582e+00 3.7994794066e+00 
100100 5.8014201068e+00 7.0231636977e-05 2.1936304582e+00 -3.7994794066e+00 2.1936304582e+00 3.7994794066e+00 
100200 5.8014201069e+00 7.0240751258e-05 2.1936304582e+00 -3.7994794066e+00 2.1936304582e+00 3.7994794066e+00 
100300 5.8014201069e+00 7.0249816073e-05 2.1936304582e+00 -3.7994794066e+00 2.1936304582e+00 3.7994794066e+00 
100400 5.8014201070e+00 7.0258834965e-05 2.1936304582e+00 -3.7994794066e+00 2.1936304582e+00 3.7994794066e+00 
100500 5.8014201071e+00 7.0267811451e-05 2.1936304582e+00 -3.7994794066e+00 2.1936304582e+00 3.7994794066e+00 
100600 5.8014201071e+00 7.0276749006e-05 2.1936304582e+00 -3.7994794066e+00 2.1936304582e+00 3.7994794066e+00 
100700 5.8014201072e+00 7.0285651075e-05 2.1936304582e+00 -3.7994794066e+00 2.1936304582e+00 3.7994794066e+00 
100800 5.8014201072e+00 7.0294521044e-05 2.1936304582e+00 -3.7994794066e+00 2.1936304582e+00 3.7994794066e+00 
100900 5.8014201073e+00 7.0303362248e-05 2.1936304582e+00 -3.7994794066e+00 2.1936304582e+00 3.7994794066e+00 
101000 5.8014201074e+00 7.0312177956e-05 2.1936304582e+00 -3.7994794066e+00 2.1936304582e+00 3.7994794066e+00 
101100 5.8014201074e+00 7.0320971369e-05 2.1936304582e+00 -3.7994794066e+00 2.1936304582e+00 3.7994794066e+00 
101200 5.8014201075e+00 7.0329745611e-05 2.1936304582e+00 -3.7994794066e+00 2.1936304582e+00 3.7994794066e+00 
101300 5.8014201075e+00 7.0338503721e-05 2.1936304582e+00 -3.7994794066e+00 2.1936304582e+00 3.7994794066e+00 
101400 5.8014201076e+00 7.0347248653e-05 2.1936304582e+00 -3.7994794066e+00 2.1936304582e+00 3.7994794066e+00 
101500 5.8014201076e+00 7.0355983266e-05 2.1936304582e+00 -3.7994794066e+00 2.1936304582e+00 3.7994794066e+00 
101600 5.8014201077e+00 7.0364710317e-05 2.1936304582e+00 -3.7994794066e+00 2.1936304582e+00 3.7994794066e+00 
101700 5.8014201078e+00 7.0373432466e-05 2.1936304582e+00 -3.7994794066e+00 2.1936304582e+00 3.7994794066e+00 
101800 5.8014201078e+00 7.0382152256e-05 2.1936304582e+00 -3.7994794066e+00 2.1936304582e+00 3.7994794066e+00 
101900 5.8014201079e+00 7.0390872123e-05 2.1936304582e+00 -3.7994794066e+00 2.1936304582e+00 3.7994794066e+00 
102000 5.8014201079e+00 7.0399594385e-05 2.1936304582e+00 -3.7994794066e+00 2.1936304582e+00 3.7994794066e+00 
102100 5.8014201080e+00 7.0408321241e-05 2.1936304582e+00 -3.7994794066e+00 2.1936304582e+00 3.7994794066e+00 
102200 5.8014201080e+00 7.0417054766e-05 2.1936304582e+00 -3.7994794066e+00 2.1936304582e+00 3.7994794066e+00 
102300 5.8014201081e+00 7.0425796907e-05 2.1936304582e+00 -3.7994794066e+00 2.1936304582e+00 3.7994794066e+00 
102400 5.8014201081e+00 7.0434549487e-05 2.1936304582e+00 -3.7994794066e+00 2.1936304582e+00 3.7994794066e+00 
102500 5.8014201082e+00 7.0443314199e-05 2.1936304582e+00 -3.7994794066e+00 2.1936304582e+00 3.7994794066e+00 
102600 5.8014201082e+00 7.0445946214e-05 2.1936304582e+00 -3.7994794066e+00 2.1936304582e+00 3.7994794066e+00 
102600 5.8014201082e+00 7.0445946214e-05 2.1936304582e+00 -3.7994794066e+00 2.1936304582e+00 3.7994794066e+00 
