# step Hamiltonian StressXX CellTensor1 CellTensor2 CellTensor3 CellTensor4 
0 6.4759702098e+00 -2.3355053468e-01 1.6122881582e+00 -2.7925650064e+00 1.6122881582e+00 2.7925650064e+00 
100 6.4663587625e+00 -2.3397954144e-01 1.6122881582e+00 -2.7925650064e+00 1.6122881582e+00 2.7925650064e+00 
200 6.4550464568e+00 -2.2714689843e-01 1.6195497094e+00 -2.8051423820e+00 1.6195497094e+00 2.8051423820e+00 
300 6.4442334934e+00 -2.2057825064e-01 1.6265674043e+00 -2.8172973862e+00 1.6265674043e+00 2.8172973862e+00 
400 6.4339026414e+00 -2.1426764640e-01 1.6333525785e+00 -2.8290496527e+00 1.6333525785e+00 2.8290496527e+00 
500 6.4240371965e+00 -2.0820880803e-01 1.6399160873e+00 -2.8404179834e+00 1.6399160873e+00 2.8404179834e+00 
600 6.4146209475e+00 -2.0239518927e-01 1.6462683215e+00 -2.8514203757e+00 1.6462683215e+00 2.8514203757e+00 
700 6.4056381456e+00 -1.9682002794e-01 1.6524192227e+00 -2.8620740491e+00 1.6524192227e+00 2.8620740491e+00 
800 6.3970734758e+00 -1.9147639402e-01 1.6583782986e+00 -2.8723954713e+00 1.6583782986e+00 2.8723954713e+00 
900 6.3889120310e+00 -1.8635723327e-01 1.6641546374e+00 -2.8824003837e+00 1.6641546374e+00 2.8824003837e+00 
1000 6.3811392883e+00 -1.8145540683e-01 1.6697569228e+00 -2.8921038266e+00 1.6697569228e+00 2.8921038266e+00 
1100 6.3737410875e+00 -1.7676372689e-01 1.6751934477e+00 -2.9015201639e+00 1.6751934477e+00 2.9015201639e+00 
1200 6.3667036124e+00 -1.7227498869e-01 1.6804721282e+00 -2.9106631067e+00 1.6804721282e+00 2.9106631067e+00 
1300 6.3600133738e+00 -1.6798199912e-01 1.6856005174e+00 -2.9195457373e+00 1.6856005174e+00 2.9195457373e+00 
1400 6.3536571949e+00 -1.6387760216e-01 1.6905858183e+00 -2.9281805319e+00 1.6905858183e+00 2.9281805319e+00 
1500 6.3476221986e+00 -1.5995470132e-01 1.6954348973e+00 -2.9365793830e+00 1.6954348973e+00 2.9365793830e+00 
1600 6.3418957971e+00 -1.5620627930e-01 1.7001542961e+00 -2.9447536216e+00 1.7001542961e+00 2.9447536216e+00 
1700 6.3364656831e+00 -1.5262541513e-01 1.7047502447e+00 -2.9527140381e+00 1.7047502447e+00 2.9527140381e+00 
1800 6.3313198224e+00 -1.4920529902e-01 1.7092286731e+00 -2.9604709035e+00 1.7092286731e+00 2.9604709035e+00 
1900 6.3264464486e+00 -1.4593924493e-01 1.7135952228e+00 -2.9680339894e+00 1.7135952228e+00 2.9680339894e+00 
2000 6.3218340592e+00 -1.4282070127e-01 1.7178552585e+00 -2.9754125878e+00 1.7178552585e+00 2.9754125878e+00 
2100 6.3174714124e+00 -1.3984325979e-01 1.7220138790e+00 -2.9826155299e+00 1.7220138790e+00 2.9826155299e+00 
2200 6.3133475256e+00 -1.3700066280e-01 1.7260759278e+00 -2.9896512048e+00 1.7260759278e+00 2.9896512048e+00 
2300 6.3094516748e+00 -1.3428680894e-01 1.7300460035e+00 -2.9965275775e+00 1.7300460035e+00 2.9965275775e+00 
2400 6.3057733946e+00 -1.3169575764e-01 1.7339284698e+00 -3.0032522063e+00 1.7339284698e+00 3.0032522063e+00 
2500 6.3023024791e+00 -1.2922173237e-01 1.7377274651e+00 -3.0098322593e+00 1.7377274651e+00 3.0098322593e+00 
2600 6.2990289833e+00 -1.2685912283e-01 1.7414469125e+00 -3.0162745311e+00 1.7414469125e+00 3.0162745311e+00 
2700 6.2959432249e+00 -1.2460248623e-01 1.7450905278e+00 -3.0225854579e+00 1.7450905278e+00 3.0225854579e+00 
2800 6.2930357865e+00 -1.2244654769e-01 1.7486618292e+00 -3.0287711334e+00 1.7486618292e+00 3.0287711334e+00 
2900 6.2902975181e+00 -1.2038619998e-01 1.7521641452e+00 -3.0348373227e+00 1.7521641452e+00 3.0348373227e+00 
3000 6.2877195390e+00 -1.1841650257e-01 1.7556006229e+00 -3.0407894767e+00 1.7556006229e+00 3.0407894767e+00 
3100 6.2852932407e+00 -1.1653268020e-01 1.7589742360e+00 -3.0466327459e+00 1.7589742360e+00 3.0466327459e+00 
3200 6.2830102888e+00 -1.1473012093e-01 1.7622877918e+00 -3.0523719930e+00 1.7622877918e+00 3.0523719930e+00 
3300 6.2808626252e+00 -1.1300437381e-01 1.7655439392e+00 -3.0580118057e+00 1.7655439392e+00 3.0580118057e+00 
3400 6.2788424701e+00 -1.1135114627e-01 1.7687451751e+00 -3.0635565088e+00 1.7687451751e+00 3.0635565088e+00 
3500 6.2769423230e+00 -1.0976630121e-01 1.7718938512e+00 -3.0690101759e+00 1.7718938512e+00 3.0690101759e+00 
3600 6.2751549640e+00 -1.0824585381e-01 1.7749921809e+00 -3.0743766403e+00 1.7749921809e+00 3.0743766403e+00 
3700 6.2734734546e+00 -1.0678596832e-01 1.7780422448e+00 -3.0796595060e+00 1.7780422448e+00 3.0796595060e+00 
3800 6.2718911374e+00 -1.0538295460e-01 1.7810459973e+00 -3.0848621579e+00 1.7810459973e+00 3.0848621579e+00 
3900 6.2704016362e+00 -1.0403326460e-01 1.7840052718e+00 -3.0899877718e+00 1.7840052718e+00 3.0899877718e+00 
4000 6.2689988545e+00 -1.0273348880e-01 1.7869217866e+00 -3.0950393236e+00 1.7869217866e+00 3.0950393236e+00 
4100 6.2676769747e+00 -1.0148035265e-01 1.7897971500e+00 -3.1000195991e+00 1.7897971500e+00 3.1000195991e+00 
4200 6.2664304557e+00 -1.0027071291e-01 1.7926328652e+00 -3.1049312019e+00 1.7926328652e+00 3.1049312019e+00 
4300 6.2652540305e+00 -9.9101554090e-02 1.7954303356e+00 -3.1097765626e+00 1.7954303356e+00 3.1097765626e+00 
4400 6.2641427028e+00 -9.7969984915e-02 1.7981908688e+00 -3.1145579465e+00 1.7981908688e+00 3.1145579465e+00 
4500 6.2630917436e+00 -9.6873234776e-02 1.8009156820e+00 -3.1192774614e+00 1.8009156820e+00 3.1192774614e+00 
4600 6.2620966870e+00 -9.5808650303e-02 1.8036059054e+00 -3.1239370651e+00 1.8036059054e+00 3.1239370651e+00 
4700 6.2611533254e+00 -9.4773691977e-02 1.8062625870e+00 -3.1285385725e+00 1.8062625870e+00 3.1285385725e+00 
4800 6.2602577043e+00 -9.3765930823e-02 1.8088866961e+00 -3.1330836627e+00 1.8088866961e+00 3.1330836627e+00 
4900 6.2594061166e+00 -9.2783045184e-02 1.8114791274e+00 -3.1375738855e+00 1.8114791274e+00 3.1375738855e+00 
5000 6.2585950968e+00 -9.1822817578e-02 1.8140407047e+00 -3.1420106675e+00 1.8140407047e+00 3.1420106675e+00 
5100 6.2578214139e+00 -9.0883131645e-02 1.8165721842e+00 -3.1463953187e+00 1.8165721842e+00 3.1463953187e+00 
5200 6.2570820652e+00 -8.9961969185e-02 1.8190742583e+00 -3.1507290381e+00 1.8190742583e+00 3.1507290381e+00 
5300 6.2563742684e+00 -8.9057407282e-02 1.8215475581e+00 -3.1550129191e+00 1.8215475581e+00 3.1550129191e+00 
5400 6.2556954548e+00 -8.8167615520e-02 1.8239926576e+00 -3.1592479557e+00 1.8239926576e+00 3.1592479557e+00 
5500 6.2550432609e+00 -8.7290853286e-02 1.8264100758e+00 -3.1634350468e+00 1.8264100758e+00 3.1634350468e+00 
5600 6.2544155206e+00 -8.6425467161e-02 1.8288002801e+00 -3.1675750021e+00 1.8288002801e+00 3.1675750021e+00 
5700 6.2538102570e+00 -8.5569888395e-02 1.8311636889e+00 -3.1716685462e+00 1.8311636889e+00 3.1716685462e+00 
5800 6.2532256742e+00 -8.4722630464e-02 1.8335006745e+00 -3.1757163240e+00 1.8335006745e+00 3.1757163240e+00 
5900 6.2526601484e+00 -8.3882286704e-02 1.8358115654e+00 -3.1797189044e+00 1.8358115654e+00 3.1797189044e+00 
6000 6.2521122194e+00 -8.3047528026e-02 1.8380966492e+00 -3.1836767856e+00 1.8380966492e+00 3.1836767856e+00 
6100 6.2515805824e+00 -8.2217100696e-02 1.8403561745e+00 -3.1875903982e+00 1.8403561745e+00 3.1875903982e+00 
6200 6.2510640788e+00 -8.1389824195e-02 1.8425903538e+00 -3.1914601103e+00 1.8425903538e+00 3.1914601103e+00 
6300 6.2505616878e+00 -8.0564589132e-02 1.8447993652e+00 -3.1952862303e+00 1.8447993652e+00 3.1952862303e+00 
6400 6.2500725176e+00 -7.9740355232e-02 1.8469833551e+00 -3.1990690118e+00 1.8469833551e+00 3.1990690118e+00 
6500 6.2495957972e+00 -7.8916149375e-02 1.8491424398e+00 -3.2028086562e+00 1.8491424398e+00 3.2028086562e+00 
6600 6.2491308678e+00 -7.8091063694e-02 1.8512767078e+00 -3.2065053167e+00 1.8512767078e+00 3.2065053167e+00 
6700 6.2486771743e+00 -7.7264253728e-02 1.8533862216e+00 -3.2101591018e+00 1.8533862216e+00 3.2101591018e+00 
6800 6.2482342573e+00 -7.6434936619e-02 1.8554710196e+00 -3.2137700780e+00 1.8554710196e+00 3.2137700780e+00 
6900 6.2478017454e+00 -7.5602389362e-02 1.8575311182e+00 -3.2173382733e+00 1.8575311182e+00 3.2173382733e+00 
7000 6.2473793467e+00 -7.4765947093e-02 1.8595665128e+00 -3.2208636803e+00 1.8595665128e+00 3.2208636803e+00 
7100 6.2469668421e+00 -7.3925001425e-02 1.8615771804e+00 -3.2243462587e+00 1.8615771804e+00 3.2243462587e+00 
7200 6.2465640772e+00 -7.3078998817e-02 1.8635630806e+00 -3.2277859387e+00 1.8635630806e+00 3.2277859387e+00 
7300 6.2461709558e+00 -7.2227438981e-02 1.8655241572e+00 -3.2311826231e+00 1.8655241572e+00 3.2311826231e+00 
7400 6.2457874325e+00 -7.1369873324e-02 1.8674603401e+00 -3.2345361902e+00 1.8674603401e+00 3.2345361902e+00 
7500 6.2454135067e+00 -7.0505903422e-02 1.8693715462e+00 -3.2378464963e+00 1.8693715462e+00 3.2378464963e+00 
7600 6.2450492158e+00 -6.9635179521e-02 1.8712576813e+00 -3.2411133781e+00 1.8712576813e+00 3.2411133781e+00 
7700 6.2446946297e+00 -6.8757399069e-02 1.8731186412e+00 -3.2443366551e+00 1.8731186412e+00 3.2443366551e+00 
7800 6.2443498447e+00 -6.7872305274e-02 1.8749543128e+00 -3.2475161317e+00 1.8749543128e+00 3.2475161317e+00 
7900 6.2440149785e+00 -6.6979685687e-02 1.8767645760e+00 -3.2506515995e+00 1.8767645760e+00 3.2506515995e+00 
8000 6.2436901647e+00 -6.6079370806e-02 1.8785493041e+00 -3.2537428393e+00 1.8785493041e+00 3.2537428393e+00 
8100 6.2433755483e+00 -6.5171232701e-02 1.8803083655e+00 -3.2567896230e+00 1.8803083655e+00 3.2567896230e+00 
8200 6.2430712814e+00 -6.4255183670e-02 1.8820416247e+00 -3.2597917160e+00 1.8820416247e+00 3.2597917160e+00 
8300 6.2427775186e+00 -6.3331174898e-02 1.8837489432e+00 -3.2627488783e+00 1.8837489432e+00 3.2627488783e+00 
8400 6.2424944137e+00 -6.2399195146e-02 1.8854301806e+00 -3.2656608670e+00 1.8854301806e+00 3.2656608670e+00 
8500 6.2422221158e+00 -6.1459269456e-02 1.8870851959e+00 -3.2685274375e+00 1.8870851959e+00 3.2685274375e+00 
8600 6.2419607660e+00 -6.0511457870e-02 1.8887138479e+00 -3.2713483455e+00 1.8887138479e+00 3.2713483455e+00 
8700 6.2417104950e+00 -5.9555854163e-02 1.8903159965e+00 -3.2741233483e+00 1.8903159965e+00 3.2741233483e+00 
8800 6.2414714199e+00 -5.8592584597e-02 1.8918915034e+00 -3.2768522063e+00 1.8918915034e+00 3.2768522063e+00 
8900 6.2412436424e+00 -5.7621806681e-02 1.8934402331e+00 -3.2795346848e+00 1.8934402331e+00 3.2795346848e+00 
9000 6.2410272462e+00 -5.6643707953e-02 1.8949620535e+00 -3.2821705550e+00 1.8949620535e+00 3.2821705550e+00 
9100 6.2408222956e+00 -5.5658504766e-02 1.8964568366e+00 -3.2847595954e+00 1.8964568366e+00 3.2847595954e+00 
9200 6.2406288339e+00 -5.4666441095e-02 1.8979244597e+00 -3.2873015932e+00 1.8979244597e+00 3.2873015932e+00 
9300 6.2404468818e+00 -5.3667787345e-02 1.8993648055e+00 -3.2897963453e+00 1.8993648055e+00 3.2897963453e+00 
9400 6.2402764371e+00 -5.2662839182e-02 1.9007777630e+00 -3.2922436595e+00 1.9007777630e+00 3.2922436595e+00 
9500 6.2401174732e+00 -5.1651916363e-02 1.9021632283e+00 -3.2946433557e+00 1.9021632283e+00 3.2946433557e+00 
9600 6.2399699390e+00 -5.0635361584e-02 1.9035211048e+00 -3.2969952669e+00 1.9035211048e+00 3.2969952669e+00 
9700 6.2398337581e+00 -4.9613539334e-02 1.9048513043e+00 -3.2992992399e+00 1.9048513043e+00 3.2992992399e+00 
9800 6.2397088293e+00 -4.8586834757e-02 1.9061537469e+00 -3.3015551366e+00 1.9061537469e+00 3.3015551366e+00 
9900 6.2395950260e+00 -4.7555652524e-02 1.9074283619e+00 -3.3037628346e+00 1.9074283619e+00 3.3037628346e+00 
10000 6.2394921969e+00 -4.6520415716e-02 1.9086750884e+00 -3.3059222282e+00 1.9086750884e+00 3.3059222282e+00 
10100 6.2394001661e+00 -4.5481564707e-02 1.9098938753e+00 -3.3080332290e+00 1.9098938753e+00 3.3080332290e+00 
10200 6.2393187338e+00 -4.4439556064e-02 1.9110846820e+00 -3.3100957667e+00 1.9110846820e+00 3.3100957667e+00 
10300 6.2392476770e+00 -4.3394861446e-02 1.9122474787e+00 -3.3121097897e+00 1.9122474787e+00 3.3121097897e+00 
10400 6.2391867503e+00 -4.2347966512e-02 1.9133822468e+00 -3.3140752658e+00 1.9133822468e+00 3.3140752658e+00 
10500 6.2391356868e+00 -4.1299369843e-02 1.9144889793e+00 -3.3159921827e+00 1.9144889793e+00 3.3159921827e+00 
10600 6.2390941993e+00 -4.0249581857e-02 1.9155676809e+00 -3.3178605486e+00 1.9155676809e+00 3.3178605486e+00 
10700 6.2390619815e+00 -3.9199123740e-02 1.9166183683e+00 -3.3196803927e+00 1.9166183683e+00 3.3196803927e+00 
10800 6.2390387090e+00 -3.8148526383e-02 1.9176410708e+00 -3.3214517654e+00 1.9176410708e+00 3.3214517654e+00 
10900 6.2390240408e+00 -3.7098329320e-02 1.9186358300e+00 -3.3231747389e+00 1.9186358300e+00 3.3231747389e+00 
11000 6.2390176208e+00 -3.6049079673e-02 1.9196027004e+00 -3.3248494075e+00 1.9196027004e+00 3.3248494075e+00 
11100 6.2390190793e+00 -3.5001331109e-02 1.9205417494e+00 -3.3264758879e+00 1.9205417494e+00 3.3264758879e+00 
11200 6.2390280342e+00 -3.3955642799e-02 1.9214530573e+00 -3.3280543195e+00 1.9214530573e+00 3.3280543195e+00 
11300 6.2390440926e+00 -3.2912578382e-02 1.9223367178e+00 -3.3295848645e+00 1.9223367178e+00 3.3295848645e+00 
11400 6.2390668529e+00 -3.1872704937e-02 1.9231928378e+00 -3.3310677079e+00 1.9231928378e+00 3.3310677079e+00 
11500 6.2390959057e+00 -3.0836591967e-02 1.9240215377e+00 -3.3325030581e+00 1.9240215377e+00 3.3325030581e+00 
11600 6.2391308358e+00 -2.9804810384e-02 1.9248229511e+00 -3.3338911468e+00 1.9248229511e+00 3.3338911468e+00 
11700 6.2391712235e+00 -2.8777931507e-02 1.9255972251e+00 -3.3352322287e+00 1.9255972251e+00 3.3352322287e+00 
11800 6.2392166468e+00 -2.7756526066e-02 1.9263445203e+00 -3.3365265820e+00 1.9263445203e+00 3.3365265820e+00 
11900 6.2392666821e+00 -2.6741163217e-02 1.9270650107e+00 -3.3377745080e+00 1.9270650107e+00 3.3377745080e+00 
12000 6.2393209064e+00 -2.5732409568e-02 1.9277588837e+00 -3.3389763313e+00 1.9277588837e+00 3.3389763313e+00 
12100 6.2393788988e+00 -2.4730828213e-02 1.9284263399e+00 -3.3401323994e+00 1.9284263399e+00 3.3401323994e+00 
12200 6.2394402415e+00 -2.3736977785e-02 1.9290675933e+00 -3.3412430829e+00 1.9290675933e+00 3.3412430829e+00 
12300 6.2395045216e+00 -2.2751411512e-02 1.9296828709e+00 -3.3423087748e+00 1.9296828709e+00 3.3423087748e+00 
12400 6.2395713326e+00 -2.1774676301e-02 1.9302724125e+00 -3.3433298910e+00 1.9302724125e+00 3.3433298910e+00 
12500 6.2396402753e+00 -2.0807311821e-02 1.9308364712e+00 -3.3443068692e+00 1.9308364712e+00 3.3443068692e+00 
12600 6.2397109596e+00 -1.9849849618e-02 1.9313753122e+00 -3.3452401693e+00 1.9313753122e+00 3.3452401693e+00 
12700 6.2397830052e+00 -1.8902812241e-02 1.9318892136e+00 -3.3461302726e+00 1.9318892136e+00 3.3461302726e+00 
12800 6.2398560429e+00 -1.7966712385e-02 1.9323784655e+00 -3.3469776818e+00 1.9323784655e+00 3.3469776818e+00 
12900 6.2399297158e+00 -1.7042052062e-02 1.9328433701e+00 -3.3477829202e+00 1.9328433701e+00 3.3477829202e+00 
13000 6.2400036803e+00 -1.6129321787e-02 1.9332842414e+00 -3.3485465315e+00 1.9332842414e+00 3.3485465315e+00 
13100 6.2400776066e+00 -1.5228999792e-02 1.9337014046e+00 -3.3492690794e+00 1.9337014046e+00 3.3492690794e+00 
13200 6.2401511800e+00 -1.4341551268e-02 1.9340951964e+00 -3.3499511469e+00 1.9340951964e+00 3.3499511469e+00 
13300 6.2402241013e+00 -1.3467427625e-02 1.9344659643e+00 -3.3505933357e+00 1.9344659643e+00 3.3505933357e+00 
13400 6.2402960877e+00 -1.2607065790e-02 1.9348140664e+00 -3.3511962662e+00 1.9348140664e+00 3.3511962662e+00 
13500 6.2403668732e+00 -1.1760887525e-02 1.9351398708e+00 -3.3517605760e+00 1.9351398708e+00 3.3517605760e+00 
13600 6.2404362089e+00 -1.0929298789e-02 1.9354437557e+00 -3.3522869201e+00 1.9354437557e+00 3.3522869201e+00 
13700 6.2405038638e+00 -1.0112689118e-02 1.9357261086e+00 -3.3527759697e+00 1.9357261086e+00 3.3527759697e+00 
13800 6.2405696248e+00 -9.3114310511e-03 1.9359873263e+00 -3.3532284119e+00 1.9359873263e+00 3.3532284119e+00 
13900 6.2406332971e+00 -8.5258795858e-03 1.9362278140e+00 -3.3536449489e+00 1.9362278140e+00 3.3536449489e+00 
14000 6.2406947040e+00 -7.7563716709e-03 1.9364479854e+00 -3.3540262970e+00 1.9364479854e+00 3.3540262970e+00 
14100 6.2407536873e+00 -7.0032257386e-03 1.9366482621e+00 -3.3543731863e+00 1.9366482621e+00 3.3543731863e+00 
14200 6.2408101072e+00 -6.2667412748e-03 1.9368290728e+00 -3.3546863596e+00 1.9368290728e+00 3.3546863596e+00 
14300 6.2408638419e+00 -5.5471984292e-03 1.9369908534e+00 -3.3549665719e+00 1.9369908534e+00 3.3549665719e+00 
14400 6.2409147878e+00 -4.8448576667e-03 1.9371340463e+00 -3.3552145893e+00 1.9371340463e+00 3.3552145893e+00 
14500 6.2409628587e+00 -4.1599594604e-03 1.9372590999e+00 -3.3554311884e+00 1.9372590999e+00 3.3554311884e+00 
14600 6.2410079863e+00 -3.4927240271e-03 1.9373664680e+00 -3.3556171554e+00 1.9373664680e+00 3.3556171554e+00 
14700 6.2410501188e+00 -2.8433511049e-03 1.9374566097e+00 -3.3557732855e+00 1.9374566097e+00 3.3557732855e+00 
14800 6.2410892213e+00 -2.2120197757e-03 1.9375299886e+00 -3.3559003815e+00 1.9375299886e+00 3.3559003815e+00 
14900 6.2411252745e+00 -1.5988883294e-03 1.9375870724e+00 -3.3559992535e+00 1.9375870724e+00 3.3559992535e+00 
15000 6.2411582749e+00 -1.0040941733e-03 1.9376283323e+00 -3.3560707178e+00 1.9376283323e+00 3.3560707178e+00 
15100 6.2411882334e+00 -4.2775378435e-04 1.9376542428e+00 -3.3561155960e+00 1.9376542428e+00 3.3561155960e+00 
15200 6.2412151752e+00 1.3003729480e-04 1.9376652807e+00 -3.3561347143e+00 1.9376652807e+00 3.3561347143e+00 
15300 6.2412391388e+00 6.6920441679e-04 1.9376619252e+00 -3.3561289023e+00 1.9376619252e+00 3.3561289023e+00 
15400 6.2412601753e+00 1.1896937476e-03 1.9376446569e+00 -3.3560989927e+00 1.9376446569e+00 3.3560989927e+00 
15500 6.2412783476e+00 1.6914721428e-03 1.9376139575e+00 -3.3560458198e+00 1.9376139575e+00 3.3560458198e+00 
15600 6.2412937295e+00 2.1745269820e-03 1.9375703093e+00 -3.3559702190e+00 1.9375703093e+00 3.3559702190e+00 
15700 6.2413064052e+00 2.6388659635e-03 1.9375141948e+00 -3.3558730258e+00 1.9375141948e+00 3.3558730258e+00 
15800 6.2413164680e+00 3.0845168593e-03 1.9374460959e+00 -3.3557550751e+00 1.9374460959e+00 3.3557550751e+00 
15900 6.2413240196e+00 3.5115272316e-03 1.9373664938e+00 -3.3556172002e+00 1.9373664938e+00 3.3556172002e+00 
16000 6.2413291693e+00 3.9199641130e-03 1.9372758682e+00 -3.3554602321e+00 1.9372758682e+00 3.3554602321e+00 
16100 6.2413320332e+00 4.3099136505e-03 1.9371746970e+00 -3.3552849984e+00 1.9371746970e+00 3.3552849984e+00 
16200 6.2413327330e+00 4.6814807162e-03 1.9370634559e+00 -3.3550923230e+00 1.9370634559e+00 3.3550923230e+00 
16300 6.2413313955e+00 5.0347884852e-03 1.9369426175e+00 -3.3548830248e+00 1.9369426175e+00 3.3548830248e+00 
16400 6.2413281515e+00 5.3699779828e-03 1.9368126515e+00 -3.3546579172e+00 1.9368126515e+00 3.3546579172e+00 
16500 6.2413231349e+00 5.6872076034e-03 1.9366740239e+00 -3.3544178071e+00 1.9366740239e+00 3.3544178071e+00 
16600 6.2413164823e+00 5.9866526013e-03 1.9365271965e+00 -3.3541634946e+00 1.9365271965e+00 3.3541634946e+00 
16700 6.2413083315e+00 6.2685045577e-03 1.9363726267e+00 -3.3538957718e+00 1.9363726267e+00 3.3538957718e+00 
16800 6.2412988216e+00 6.5329708235e-03 1.9362107669e+00 -3.3536154225e+00 1.9362107669e+00 3.3536154225e+00 
16900 6.2412880913e+00 6.7802739414e-03 1.9360420643e+00 -3.3533232210e+00 1.9360420643e+00 3.3533232210e+00 
17000 6.2412762790e+00 7.0106510491e-03 1.9358669604e+00 -3.3530199321e+00 1.9358669604e+00 3.3530199321e+00 
17100 6.2412635215e+00 7.2243532653e-03 1.9356858906e+00 -3.3527063099e+00 1.9356858906e+00 3.3527063099e+00 
17200 6.2412499539e+00 7.4216450600e-03 1.9354992839e+00 -3.3523830977e+00 1.9354992839e+00 3.3523830977e+00 
17300 6.2412357086e+00 7.6028036133e-03 1.9353075628e+00 -3.3520510270e+00 1.9353075628e+00 3.3520510270e+00 
17400 6.2412209146e+00 7.7681181617e-03 1.9351111424e+00 -3.3517108170e+00 1.9351111424e+00 3.3517108170e+00 
17500 6.2412056977e+00 7.9178893370e-03 1.9349104309e+00 -3.3513631744e+00 1.9349104309e+00 3.3513631744e+00 
17600 6.2411901791e+00 8.0524284967e-03 1.9347058284e+00 -3.3510087925e+00 1.9347058284e+00 3.3510087925e+00 
17700 6.2411744757e+00 8.1720570509e-03 1.9344977274e+00 -3.3506483510e+00 1.9344977274e+00 3.3506483510e+00 
17800 6.2411586991e+00 8.2771057853e-03 1.9342865121e+00 -3.3502825154e+00 1.9342865121e+00 3.3502825154e+00 
17900 6.2411429559e+00 8.3679141827e-03 1.9340725585e+00 -3.3499119368e+00 1.9340725585e+00 3.3499119368e+00 
18000 6.2411273467e+00 8.4448297459e-03 1.9338562337e+00 -3.3495372513e+00 1.9338562337e+00 3.3495372513e+00 
18100 6.2411119664e+00 8.5082073223e-03 1.9336378961e+00 -3.3491590794e+00 1.9336378961e+00 3.3491590794e+00 
18200 6.2410969036e+00 8.5584084318e-03 1.9334178950e+00 -3.3487780265e+00 1.9334178950e+00 3.3487780265e+00 
18300 6.2410822407e+00 8.5958006015e-03 1.9331965708e+00 -3.3483946817e+00 1.9331965708e+00 3.3483946817e+00 
18400 6.2410680536e+00 8.6207567058e-03 1.9329742542e+00 -3.3480096179e+00 1.9329742542e+00 3.3480096179e+00 
18500 6.2410544116e+00 8.6336543158e-03 1.9327512664e+00 -3.3476233918e+00 1.9327512664e+00 3.3476233918e+00 
18600 6.2410413775e+00 8.6348750578e-03 1.9325279193e+00 -3.3472365433e+00 1.9325279193e+00 3.3472365433e+00 
18700 6.2410290074e+00 8.6248039824e-03 1.9323045148e+00 -3.3468495954e+00 1.9323045148e+00 3.3468495954e+00 
18800 6.2410173508e+00 8.6038289463e-03 1.9320813451e+00 -3.3464630540e+00 1.9320813451e+00 3.3464630540e+00 
18900 6.2410064508e+00 8.5723400060e-03 1.9318586923e+00 -3.3460774082e+00 1.9318586923e+00 3.3460774082e+00 
19000 6.2409963438e+00 8.5307288261e-03 1.9316368289e+00 -3.3456931295e+00 1.9316368289e+00 3.3456931295e+00 
19100 6.2409870601e+00 8.4793881018e-03 1.9314160171e+00 -3.3453106721e+00 1.9314160171e+00 3.3453106721e+00 
19200 6.2409786237e+00 8.4187109978e-03 1.9311965090e+00 -3.3449304730e+00 1.9311965090e+00 3.3449304730e+00 
19300 6.2409710527e+00 8.3490906016e-03 1.9309785469e+00 -3.3445529516e+00 1.9309785469e+00 3.3445529516e+00 
19400 6.2409643592e+00 8.2709193960e-03 1.9307623629e+00 -3.3441785098e+00 1.9307623629e+00 3.3441785098e+00 
19500 6.2409585500e+00 8.1845887463e-03 1.9305481789e+00 -3.3438075323e+00 1.9305481789e+00 3.3438075323e+00 
19600 6.2409536263e+00 8.0904884071e-03 1.9303362070e+00 -3.3434403863e+00 1.9303362070e+00 3.3434403863e+00 
19700 6.2409495844e+00 7.9890060462e-03 1.9301266492e+00 -3.3430774214e+00 1.9301266492e+00 3.3430774214e+00 
19800 6.2409464158e+00 7.8805267872e-03 1.9299196974e+00 -3.3427189704e+00 1.9299196974e+00 3.3427189704e+00 
19900 6.2409441073e+00 7.7654327703e-03 1.9297155338e+00 -3.3423653486e+00 1.9297155338e+00 3.3423653486e+00 
20000 6.2409426416e+00 7.6441027319e-03 1.9295143306e+00 -3.3420168545e+00 1.9295143306e+00 3.3420168545e+00 
20100 6.2409419976e+00 7.5169116033e-03 1.9293162504e+00 -3.3416737695e+00 1.9293162504e+00 3.3416737695e+00 
20200 6.2409421505e+00 7.3842301277e-03 1.9291214460e+00 -3.3413363585e+00 1.9291214460e+00 3.3413363585e+00 
20300 6.2409430722e+00 7.2464244962e-03 1.9289300608e+00 -3.3410048695e+00 1.9289300608e+00 3.3410048695e+00 
20400 6.2409447317e+00 7.1038560021e-03 1.9287422285e+00 -3.3406795344e+00 1.9287422285e+00 3.3406795344e+00 
20500 6.2409470953e+00 6.9568807148e-03 1.9285580737e+00 -3.3403605689e+00 1.9285580737e+00 3.3403605689e+00 
20600 6.2409501271e+00 6.8058491707e-03 1.9283777117e+00 -3.3400481728e+00 1.9283777117e+00 3.3400481728e+00 
20700 6.2409537891e+00 6.6511060831e-03 1.9282012487e+00 -3.3397425299e+00 1.9282012487e+00 3.3397425299e+00 
20800 6.2409580416e+00 6.4929900701e-03 1.9280287821e+00 -3.3394438090e+00 1.9280287821e+00 3.3394438090e+00 
20900 6.2409628436e+00 6.3318333997e-03 1.9278604004e+00 -3.3391521633e+00 1.9278604004e+00 3.3391521633e+00 
21000 6.2409681530e+00 6.1679617524e-03 1.9276961835e+00 -3.3388677314e+00 1.9276961835e+00 3.3388677314e+00 
21100 6.2409739269e+00 6.0016940015e-03 1.9275362030e+00 -3.3385906370e+00 1.9275362030e+00 3.3385906370e+00 
21200 6.2409801218e+00 5.8333420088e-03 1.9273805220e+00 -3.3383209897e+00 1.9273805220e+00 3.3383209897e+00 
21300 6.2409866940e+00 5.6632104380e-03 1.9272291958e+00 -3.3380588849e+00 1.9272291958e+00 3.3380588849e+00 
21400 6.2409935997e+00 5.4915965833e-03 1.9270822714e+00 -3.3378044045e+00 1.9270822714e+00 3.3378044045e+00 
21500 6.2410007956e+00 5.3187902135e-03 1.9269397884e+00 -3.3375576167e+00 1.9269397884e+00 3.3375576167e+00 
21600 6.2410082386e+00 5.1450734318e-03 1.9268017787e+00 -3.3373185769e+00 1.9268017787e+00 3.3373185769e+00 
21700 6.2410158864e+00 4.9707205500e-03 1.9266682670e+00 -3.3370873278e+00 1.9266682670e+00 3.3370873278e+00 
21800 6.2410236976e+00 4.7959979769e-03 1.9265392706e+00 -3.3368638994e+00 1.9265392706e+00 3.3368638994e+00 
21900 6.2410316317e+00 4.6211641215e-03 1.9264148001e+00 -3.3366483102e+00 1.9264148001e+00 3.3366483102e+00 
22000 6.2410396497e+00 4.4464693084e-03 1.9262948593e+00 -3.3364405666e+00 1.9262948593e+00 3.3364405666e+00 
22100 6.2410477137e+00 4.2721557074e-03 1.9261794453e+00 -3.3362406638e+00 1.9261794453e+00 3.3362406638e+00 
22200 6.2410557875e+00 4.0984572752e-03 1.9260685493e+00 -3.3360485862e+00 1.9260685493e+00 3.3360485862e+00 
22300 6.2410638365e+00 3.9255997097e-03 1.9259621559e+00 -3.3358643074e+00 1.9259621559e+00 3.3358643074e+00 
22400 6.2410718278e+00 3.7538004161e-03 1.9258602441e+00 -3.3356877910e+00 1.9258602441e+00 3.3356877910e+00 
22500 6.2410797304e+00 3.5832684839e-03 1.9257627871e+00 -3.3355189906e+00 1.9257627871e+00 3.3355189906e+00 
22600 6.2410875152e+00 3.4142046762e-03 1.9256697528e+00 -3.3353578505e+00 1.9256697528e+00 3.3353578505e+00 
22700 6.2410951551e+00 3.2468014278e-03 1.9255811037e+00 -3.3352043057e+00 1.9255811037e+00 3.3352043057e+00 
22800 6.2411026249e+00 3.0812428557e-03 1.9254967973e+00 -3.3350582827e+00 1.9254967973e+00 3.3350582827e+00 
22900 6.2411099015e+00 2.9177047775e-03 1.9254167862e+00 -3.3349196994e+00 1.9254167862e+00 3.3349196994e+00 
23000 6.2411169641e+00 2.7563547408e-03 1.9253410186e+00 -3.3347884660e+00 1.9253410186e+00 3.3347884660e+00 
23100 6.2411237938e+00 2.5973520607e-03 1.9252694381e+00 -3.3346644850e+00 1.9252694381e+00 3.3346644850e+00 
23200 6.2411303736e+00 2.4408478664e-03 1.9252019842e+00 -3.3345476515e+00 1.9252019842e+00 3.3345476515e+00 
23300 6.2411366890e+00 2.2869851567e-03 1.9251385926e+00 -3.3344378539e+00 1.9251385926e+00 3.3344378539e+00 
23400 6.2411427271e+00 2.1358988627e-03 1.9250791949e+00 -3.3343349742e+00 1.9250791949e+00 3.3343349742e+00 
23500 6.2411484774e+00 1.9877159187e-03 1.9250237196e+00 -3.3342388881e+00 1.9250237196e+00 3.3342388881e+00 
23600 6.2411539312e+00 1.8425553404e-03 1.9249720915e+00 -3.3341494656e+00 1.9249720915e+00 3.3341494656e+00 
23700 6.2411590815e+00 1.7005283102e-03 1.9249242324e+00 -3.3340665712e+00 1.9249242324e+00 3.3340665712e+00 
23800 6.2411639236e+00 1.5617382692e-03 1.9248800613e+00 -3.3339900646e+00 1.9248800613e+00 3.3339900646e+00 
23900 6.2411684542e+00 1.4262810155e-03 1.9248394942e+00 -3.3339198004e+00 1.9248394942e+00 3.3339198004e+00 
24000 6.2411726719e+00 1.2942448087e-03 1.9248024450e+00 -3.3338556293e+00 1.9248024450e+00 3.3338556293e+00 
24100 6.2411765768e+00 1.1657104805e-03 1.9247688249e+00 -3.3337973976e+00 1.9247688249e+00 3.3337973976e+00 
24200 6.2411801708e+00 1.0407515503e-03 1.9247385432e+00 -3.3337449480e+00 1.9247385432e+00 3.3337449480e+00 
24300 6.2411834571e+00 9.1943434652e-04 1.9247115070e+00 -3.3336981201e+00 1.9247115070e+00 3.3336981201e+00 
24400 6.2411864401e+00 8.0181813245e-04 1.9246876221e+00 -3.3336567502e+00 1.9246876221e+00 3.3336567502e+00 
24500 6.2411891258e+00 6.8795523730e-04 1.9246667923e+00 -3.3336206719e+00 1.9246667923e+00 3.3336206719e+00 
24600 6.2411915212e+00 5.7789119125e-04 1.9246489203e+00 -3.3335897167e+00 1.9246489203e+00 3.3335897167e+00 
24700 6.2411936344e+00 4.7166486488e-04 1.9246339074e+00 -3.3335637136e+00 1.9246339074e+00 3.3335637136e+00 
24800 6.2411954745e+00 3.6930861243e-04 1.9246216540e+00 -3.3335424902e+00 1.9246216540e+00 3.3335424902e+00 
24900 6.2411970516e+00 2.7084841874e-04 1.9246120597e+00 -3.3335258723e+00 1.9246120597e+00 3.3335258723e+00 
25000 6.2411983764e+00 1.7630404960e-04 1.9246050233e+00 -3.3335136849e+00 1.9246050233e+00 3.3335136849e+00 
25100 6.2411994604e+00 8.5689205255e-05 1.9246004430e+00 -3.3335057516e+00 1.9246004430e+00 3.3335057516e+00 
25200 6.2412003157e+00 -9.8832316125e-07 1.9245982169e+00 -3.3335018958e+00 1.9245982169e+00 3.3335018958e+00 
25300 6.2412009548e+00 -8.3746294361e-05 1.9245982169e+00 -3.3335018958e+00 1.9245982169e+00 3.3335018958e+00 
25400 6.2412013908e+00 -1.6254833731e-04 1.9246003926e+00 -3.3335056642e+00 1.9246003926e+00 3.3335056642e+00 
25500 6.2412016370e+00 -2.3742355159e-04 1.9246046155e+00 -3.3335129785e+00 1.9246046155e+00 3.3335129785e+00 
25600 6.2412017070e+00 -3.0838616715e-04 1.9246107836e+00 -3.3335236620e+00 1.9246107836e+00 3.3335236620e+00 
25700 6.2412016143e+00 -3.7545550505e-04 1.9246187952e+00 -3.3335375386e+00 1.9246187952e+00 3.3335375386e+00 
25800 6.2412013729e+00 -4.3865580824e-04 1.9246285493e+00 -3.3335544330e+00 1.9246285493e+00 3.3335544330e+00 
25900 6.2412009965e+00 -4.9801607095e-04 1.9246399451e+00 -3.3335741713e+00 1.9246399451e+00 3.3335741713e+00 
26000 6.2412004988e+00 -5.5356986698e-04 1.9246528831e+00 -3.3335965804e+00 1.9246528831e+00 3.3335965804e+00 
26100 6.2411998934e+00 -6.0535517697e-04 1.9246672641e+00 -3.3336214891e+00 1.9246672641e+00 3.3336214891e+00 
26200 6.2411991936e+00 -6.5341421493e-04 1.9246829904e+00 -3.3336487278e+00 1.9246829904e+00 3.3336487278e+00 
26300 6.2411984125e+00 -6.9779325425e-04 1.9246999650e+00 -3.3336781287e+00 1.9246999650e+00 3.3336781287e+00 
26400 6.2411975628e+00 -7.3854245324e-04 1.9247180923e+00 -3.3337095262e+00 1.9247180923e+00 3.3337095262e+00 
26500 6.2411966570e+00 -7.7571568069e-04 1.9247372781e+00 -3.3337427569e+00 1.9247372781e+00 3.3337427569e+00 
26600 6.2411957070e+00 -8.0937034121e-04 1.9247574293e+00 -3.3337776599e+00 1.9247574293e+00 3.3337776599e+00 
26700 6.2411947244e+00 -8.3956720094e-04 1.9247784546e+00 -3.3338140767e+00 1.9247784546e+00 3.3338140767e+00 
26800 6.2411937201e+00 -8.6637021363e-04 1.9248002641e+00 -3.3338518519e+00 1.9248002641e+00 3.3338518519e+00 
26900 6.2411927046e+00 -8.8984634714e-04 1.9248227696e+00 -3.3338908326e+00 1.9248227696e+00 3.3338908326e+00 
27000 6.2411916880e+00 -9.1006541084e-04 1.9248458847e+00 -3.3339308690e+00 1.9248458847e+00 3.3339308690e+00 
27100 6.2411906794e+00 -9.2709988382e-04 1.9248695247e+00 -3.3339718147e+00 1.9248695247e+00 3.3339718147e+00 
27200 6.2411896877e+00 -9.4102474419e-04 1.9248936069e+00 -3.3340135263e+00 1.9248936069e+00 3.3340135263e+00 
27300 6.2411887211e+00 -9.5191729959e-04 1.9249180505e+00 -3.3340558639e+00 1.9249180505e+00 3.3340558639e+00 
27400 6.2411877869e+00 -9.5985701917e-04 1.9249427767e+00 -3.3340986910e+00 1.9249427767e+00 3.3340986910e+00 
27500 6.2411868922e+00 -9.6492536702e-04 1.9249677089e+00 -3.3341418747e+00 1.9249677089e+00 3.3341418747e+00 
27600 6.2411860432e+00 -9.6720563734e-04 1.9249927723e+00 -3.3341852859e+00 1.9249927723e+00 3.3341852859e+00 
27700 6.2411852454e+00 -9.6678279150e-04 1.9250178947e+00 -3.3342287991e+00 1.9250178947e+00 3.3342287991e+00 
27800 6.2411845038e+00 -9.6374329702e-04 1.9250430058e+00 -3.3342722928e+00 1.9250430058e+00 3.3342722928e+00 
27900 6.2411838229e+00 -9.5817496876e-04 1.9250680376e+00 -3.3343156491e+00 1.9250680376e+00 3.3343156491e+00 
28000 6.2411832063e+00 -9.5016681227e-04 1.9250929244e+00 -3.3343587544e+00 1.9250929244e+00 3.3343587544e+00 
28100 6.2411826571e+00 -9.3980886968e-04 1.9251176029e+00 -3.3344014988e+00 1.9251176029e+00 3.3344014988e+00 
28200 6.2411821780e+00 -9.2719206800e-04 1.9251420121e+00 -3.3344437768e+00 1.9251420121e+00 3.3344437768e+00 
28300 6.2411817709e+00 -9.1240807011e-04 1.9251660933e+00 -3.3344854866e+00 1.9251660933e+00 3.3344854866e+00 
28400 6.2411814371e+00 -8.9554912853e-04 1.9251897902e+00 -3.3345265309e+00 1.9251897902e+00 3.3345265309e+00 
28500 6.2411811776e+00 -8.7670794208e-04 1.9252130490e+00 -3.3345668162e+00 1.9252130490e+00 3.3345668162e+00 
28600 6.2411809928e+00 -8.5597751545e-04 1.9252358181e+00 -3.3346062536e+00 1.9252358181e+00 3.3346062536e+00 
28700 6.2411808826e+00 -8.3345102199e-04 1.9252580486e+00 -3.3346447579e+00 1.9252580486e+00 3.3346447579e+00 
28800 6.2411808464e+00 -8.0922166957e-04 1.9252796939e+00 -3.3346822485e+00 1.9252796939e+00 3.3346822485e+00 
28900 6.2411808832e+00 -7.8338256982e-04 1.9253007096e+00 -3.3347186488e+00 1.9253007096e+00 3.3347186488e+00 
29000 6.2411809916e+00 -7.5602661065e-04 1.9253210540e+00 -3.3347538865e+00 1.9253210540e+00 3.3347538865e+00 
29100 6.2411811698e+00 -7.2724633235e-04 1.9253406879e+00 -3.3347878932e+00 1.9253406879e+00 3.3347878932e+00 
29200 6.2411814159e+00 -6.9713380711e-04 1.9253595741e+00 -3.3348206051e+00 1.9253595741e+00 3.3348206051e+00 
29300 6.2411817272e+00 -6.6578052222e-04 1.9253776781e+00 -3.3348519622e+00 1.9253776781e+00 3.3348519622e+00 
29400 6.2411821011e+00 -6.3327726691e-04 1.9253949677e+00 -3.3348819087e+00 1.9253949677e+00 3.3348819087e+00 
29500 6.2411825347e+00 -5.9971402298e-04 1.9254114131e+00 -3.3349103930e+00 1.9254114131e+00 3.3349103930e+00 
29600 6.2411830247e+00 -5.6517985916e-04 1.9254269868e+00 -3.3349373674e+00 1.9254269868e+00 3.3349373674e+00 
29700 6.2411835678e+00 -5.2976282940e-04 1.9254416636e+00 -3.3349627883e+00 1.9254416636e+00 3.3349627883e+00 
29800 6.2411841603e+00 -4.9354987498e-04 1.9254554205e+00 -3.3349866160e+00 1.9254554205e+00 3.3349866160e+00 
29900 6.2411847987e+00 -4.5662673059e-04 1.9254682370e+00 -3.3350088148e+00 1.9254682370e+00 3.3350088148e+00 
30000 6.2411854790e+00 -4.1907783441e-04 1.9254800945e+00 -3.3350293527e+00 1.9254800945e+00 3.3350293527e+00 
30100 6.2411861975e+00 -3.8098624217e-04 1.9254909770e+00 -3.3350482016e+00 1.9254909770e+00 3.3350482016e+00 
30200 6.2411869501e+00 -3.4243354519e-04 1.9255008702e+00 -3.3350653372e+00 1.9255008702e+00 3.3350653372e+00 
30300 6.2411877328e+00 -3.0349979255e-04 1.9255097623e+00 -3.3350807387e+00 1.9255097623e+00 3.3350807387e+00 
30400 6.2411885418e+00 -2.6426341725e-04 1.9255176433e+00 -3.3350943890e+00 1.9255176433e+00 3.3350943890e+00 
30500 6.2411893729e+00 -2.2480116651e-04 1.9255245054e+00 -3.3351062746e+00 1.9255245054e+00 3.3351062746e+00 
30600 6.2411902222e+00 -1.8518803603e-04 1.9255303428e+00 -3.3351163853e+00 1.9255303428e+00 3.3351163853e+00 
30700 6.2411910859e+00 -1.4549720845e-04 1.9255351516e+00 -3.3351247143e+00 1.9255351516e+00 3.3351247143e+00 
30800 6.2411919600e+00 -1.0579999572e-04 1.9255389297e+00 -3.3351312582e+00 1.9255389297e+00 3.3351312582e+00 
30900 6.2411928410e+00 -6.6165785663e-05 1.9255416770e+00 -3.3351360166e+00 1.9255416770e+00 3.3351360166e+00 
31000 6.2411937252e+00 -2.7984858415e-05 1.9255416770e+00 -3.3351360166e+00 1.9255416770e+00 3.3351360166e+00 
31100 6.2411946088e+00 1.0784557017e-05 1.9255416770e+00 -3.3351360166e+00 1.9255416770e+00 3.3351360166e+00 
31200 6.2411954888e+00 5.0078243886e-05 1.9255416770e+00 -3.3351360166e+00 1.9255416770e+00 3.3351360166e+00 
31300 6.2411963621e+00 8.9833011611e-05 1.9255416770e+00 -3.3351360166e+00 1.9255416770e+00 3.3351360166e+00 
31400 6.2411972254e+00 1.2819038978e-04 1.9255393443e+00 -3.3351319763e+00 1.9255393443e+00 3.3351319763e+00 
31500 6.2411980758e+00 1.6611116368e-04 1.9255360156e+00 -3.3351262108e+00 1.9255360156e+00 3.3351262108e+00 
31600 6.2411989107e+00 2.0354059095e-04 1.9255317022e+00 -3.3351187399e+00 1.9255317022e+00 3.3351187399e+00 
31700 6.2411997276e+00 2.4042613843e-04 1.9255264169e+00 -3.3351095854e+00 1.9255264169e+00 3.3351095854e+00 
31800 6.2412005241e+00 2.7671750073e-04 1.9255201738e+00 -3.3350987720e+00 1.9255201738e+00 3.3350987720e+00 
31900 6.2412012981e+00 3.1236661515e-04 1.9255129883e+00 -3.3350863264e+00 1.9255129883e+00 3.3350863264e+00 
32000 6.2412020476e+00 3.4732767306e-04 1.9255048770e+00 -3.3350722773e+00 1.9255048770e+00 3.3350722773e+00 
32100 6.2412027709e+00 3.8155712773e-04 1.9254958579e+00 -3.3350566557e+00 1.9254958579e+00 3.3350566557e+00 
32200 6.2412034665e+00 4.1501369878e-04 1.9254859499e+00 -3.3350394945e+00 1.9254859499e+00 3.3350394945e+00 
32300 6.2412041330e+00 4.4765837321e-04 1.9254751731e+00 -3.3350208284e+00 1.9254751731e+00 3.3350208284e+00 
32400 6.2412047692e+00 4.7945440322e-04 1.9254635484e+00 -3.3350006940e+00 1.9254635484e+00 3.3350006940e+00 
32500 6.2412053742e+00 5.1036730080e-04 1.9254510981e+00 -3.3349791294e+00 1.9254510981e+00 3.3349791294e+00 
32600 6.2412059472e+00 5.4036482915e-04 1.9254378449e+00 -3.3349561742e+00 1.9254378449e+00 3.3349561742e+00 
32700 6.2412064877e+00 5.6941699123e-04 1.9254238127e+00 -3.3349318697e+00 1.9254238127e+00 3.3349318697e+00 
32800 6.2412069952e+00 5.9749601521e-04 1.9254090259e+00 -3.3349062582e+00 1.9254090259e+00 3.3349062582e+00 
32900 6.2412074695e+00 6.2457633722e-04 1.9253935098e+00 -3.3348793836e+00 1.9253935098e+00 3.3348793836e+00 
33000 6.2412079105e+00 6.5063458124e-04 1.9253772904e+00 -3.3348512907e+00 1.9253772904e+00 3.3348512907e+00 
33100 6.2412083183e+00 6.7564953645e-04 1.9253603942e+00 -3.3348220256e+00 1.9253603942e+00 3.3348220256e+00 
33200 6.2412086933e+00 6.9960213196e-04 1.9253428481e+00 -3.3347916349e+00 1.9253428481e+00 3.3347916349e+00 
33300 6.2412090357e+00 7.2247540913e-04 1.9253246799e+00 -3.3347601667e+00 1.9253246799e+00 3.3347601667e+00 
33400 6.2412093461e+00 7.4425449153e-04 1.9253059175e+00 -3.3347276692e+00 1.9253059175e+00 3.3347276692e+00 
33500 6.2412096252e+00 7.6492655267e-04 1.9252865893e+00 -3.3346941918e+00 1.9252865893e+00 3.3346941918e+00 
33600 6.2412098738e+00 7.8448078159e-04 1.9252667241e+00 -3.3346597843e+00 1.9252667241e+00 3.3346597843e+00 
33700 6.2412100927e+00 8.0290834642e-04 1.9252463508e+00 -3.3346244967e+00 1.9252463508e+00 3.3346244967e+00 
33800 6.2412102829e+00 8.2020235601e-04 1.9252254988e+00 -3.3345883799e+00 1.9252254988e+00 3.3345883799e+00 
33900 6.2412104456e+00 8.3635781974e-04 1.9252041974e+00 -3.3345514848e+00 1.9252041974e+00 3.3345514848e+00 
34000 6.2412105818e+00 8.5137160564e-04 1.9251824761e+00 -3.3345138625e+00 1.9251824761e+00 3.3345138625e+00 
34100 6.2412106928e+00 8.6524239686e-04 1.9251603647e+00 -3.3344755644e+00 1.9251603647e+00 3.3344755644e+00 
34200 6.2412107798e+00 8.7797064665e-04 1.9251378928e+00 -3.3344366419e+00 1.9251378928e+00 3.3344366419e+00 
34300 6.2412108444e+00 8.8955853200e-04 1.9251150900e+00 -3.3343971464e+00 1.9251150900e+00 3.3343971464e+00 
34400 6.2412108877e+00 9.0000990589e-04 1.9250919861e+00 -3.3343571291e+00 1.9250919861e+00 3.3343571291e+00 
34500 6.2412109113e+00 9.0933024842e-04 1.9250686103e+00 -3.3343166412e+00 1.9250686103e+00 3.3343166412e+00 
34600 6.2412109165e+00 9.1752661688e-04 1.9250449923e+00 -3.3342757334e+00 1.9250449923e+00 3.3342757334e+00 
34700 6.2412109049e+00 9.2460759474e-04 1.9250211610e+00 -3.3342344565e+00 1.9250211610e+00 3.3342344565e+00 
34800 6.2412108779e+00 9.3058323984e-04 1.9249971455e+00 -3.3341928605e+00 1.9249971455e+00 3.3341928605e+00 
34900 6.2412108370e+00 9.3546503183e-04 1.9249729746e+00 -3.3341509951e+00 1.9249729746e+00 3.3341509951e+00 
35000 6.2412107837e+00 9.3926581878e-04 1.9249486765e+00 -3.3341089096e+00 1.9249486765e+00 3.3341089096e+00 
35100 6.2412107193e+00 9.4199976340e-04 1.9249242794e+00 -3.3340666526e+00 1.9249242794e+00 3.3340666526e+00 
35200 6.2412106454e+00 9.4368228860e-04 1.9248998109e+00 -3.3340242720e+00 1.9248998109e+00 3.3340242720e+00 
35300 6.2412105633e+00 9.4433002277e-04 1.9248752985e+00 -3.3339818152e+00 1.9248752985e+00 3.3339818152e+00 
35400 6.2412104744e+00 9.4396074467e-04 1.9248507689e+00 -3.3339393287e+00 1.9248507689e+00 3.3339393287e+00 
35500 6.2412103800e+00 9.4259332819e-04 1.9248262486e+00 -3.3338968583e+00 1.9248262486e+00 3.3338968583e+00 
35600 6.2412102814e+00 9.4024768689e-04 1.9248017635e+00 -3.3338544488e+00 1.9248017635e+00 3.3338544488e+00 
35700 6.2412101799e+00 9.3694471857e-04 1.9247773390e+00 -3.3338121444e+00 1.9247773390e+00 3.3338121444e+00 
35800 6.2412100766e+00 9.3270624984e-04 1.9247530000e+00 -3.3337699880e+00 1.9247530000e+00 3.3337699880e+00 
35900 6.2412099727e+00 9.2755498081e-04 1.9247287708e+00 -3.3337280218e+00 1.9247287708e+00 3.3337280218e+00 
36000 6.2412098692e+00 9.2151442998e-04 1.9247046751e+00 -3.3336862869e+00 1.9247046751e+00 3.3336862869e+00 
36100 6.2412097671e+00 9.1460887942e-04 1.9246807361e+00 -3.3336448232e+00 1.9246807361e+00 3.3336448232e+00 
36200 6.2412096675e+00 9.0686332027e-04 1.9246569761e+00 -3.3336036697e+00 1.9246569761e+00 3.3336036697e+00 
36300 6.2412095711e+00 8.9830339864e-04 1.9246334171e+00 -3.3335628643e+00 1.9246334171e+00 3.3335628643e+00 
36400 6.2412094788e+00 8.8895536207e-04 1.9246100801e+00 -3.3335224435e+00 1.9246100801e+00 3.3335224435e+00 
36500 6.2412093914e+00 8.7884600643e-04 1.9245869857e+00 -3.3334824429e+00 1.9245869857e+00 3.3334824429e+00 
36600 6.2412093095e+00 8.6800262347e-04 1.9245641537e+00 -3.3334428966e+00 1.9245641537e+00 3.3334428966e+00 
36700 6.2412092337e+00 8.5645294909e-04 1.9245416031e+00 -3.3334038379e+00 1.9245416031e+00 3.3334038379e+00 
36800 6.2412091645e+00 8.4422511229e-04 1.9245193523e+00 -3.3333652984e+00 1.9245193523e+00 3.3333652984e+00 
36900 6.2412091025e+00 8.3134758484e-04 1.9244974190e+00 -3.3333273087e+00 1.9244974190e+00 3.3333273087e+00 
37000 6.2412090481e+00 8.1784913190e-04 1.9244758199e+00 -3.3332898980e+00 1.9244758199e+00 3.3332898980e+00 
37100 6.2412090016e+00 8.0375876341e-04 1.9244545713e+00 -3.3332530944e+00 1.9244545713e+00 3.3332530944e+00 
37200 6.2412089632e+00 7.8910568649e-04 1.9244336886e+00 -3.3332169245e+00 1.9244336886e+00 3.3332169245e+00 
37300 6.2412089332e+00 7.7391925873e-04 1.9244131864e+00 -3.3331814135e+00 1.9244131864e+00 3.3331814135e+00 
37400 6.2412089117e+00 7.5822894252e-04 1.9243930785e+00 -3.3331465856e+00 1.9243930785e+00 3.3331465856e+00 
37500 6.2412088989e+00 7.4206426046e-04 1.9243733780e+00 -3.3331124635e+00 1.9243733780e+00 3.3331124635e+00 
37600 6.2412088948e+00 7.2545475177e-04 1.9243540974e+00 -3.3330790684e+00 1.9243540974e+00 3.3330790684e+00 
37700 6.2412088993e+00 7.0842992989e-04 1.9243352481e+00 -3.3330464205e+00 1.9243352481e+00 3.3330464205e+00 
37800 6.2412089124e+00 6.9101924113e-04 1.9243168410e+00 -3.3330145385e+00 1.9243168410e+00 3.3330145385e+00 
37900 6.2412089340e+00 6.7325202464e-04 1.9242988861e+00 -3.3329834397e+00 1.9242988861e+00 3.3329834397e+00 
38000 6.2412089639e+00 6.5515747336e-04 1.9242813927e+00 -3.3329531402e+00 1.9242813927e+00 3.3329531402e+00 
38100 6.2412090019e+00 6.3676459638e-04 1.9242643693e+00 -3.3329236548e+00 1.9242643693e+00 3.3329236548e+00 
38200 6.2412090479e+00 6.1810218245e-04 1.9242478237e+00 -3.3328949969e+00 1.9242478237e+00 3.3328949969e+00 
38300 6.2412091014e+00 5.9919876470e-04 1.9242317628e+00 -3.3328671787e+00 1.9242317628e+00 3.3328671787e+00 
38400 6.2412091623e+00 5.8008258672e-04 1.9242161930e+00 -3.3328402110e+00 1.9242161930e+00 3.3328402110e+00 
38500 6.2412092301e+00 5.6078156987e-04 1.9242011198e+00 -3.3328141035e+00 1.9242011198e+00 3.3328141035e+00 
38600 6.2412093046e+00 5.4132328185e-04 1.9241865480e+00 -3.3327888644e+00 1.9241865480e+00 3.3327888644e+00 
38700 6.2412093853e+00 5.2173490668e-04 1.9241724818e+00 -3.3327645009e+00 1.9241724818e+00 3.3327645009e+00 
38800 6.2412094718e+00 5.0204321583e-04 1.9241589244e+00 -3.3327410189e+00 1.9241589244e+00 3.3327410189e+00 
38900 6.2412095637e+00 4.8227454082e-04 1.9241458786e+00 -3.3327184229e+00 1.9241458786e+00 3.3327184229e+00 
39000 6.2412096606e+00 4.6245474700e-04 1.9241333465e+00 -3.3326967166e+00 1.9241333465e+00 3.3326967166e+00 
39100 6.2412097621e+00 4.4260920874e-04 1.9241213293e+00 -3.3326759022e+00 1.9241213293e+00 3.3326759022e+00 
39200 6.2412098676e+00 4.2276278589e-04 1.9241098277e+00 -3.3326559809e+00 1.9241098277e+00 3.3326559809e+00 
39300 6.2412099767e+00 4.0293980153e-04 1.9240988418e+00 -3.3326369527e+00 1.9240988418e+00 3.3326369527e+00 
39400 6.2412100891e+00 3.8316402110e-04 1.9240883709e+00 -3.3326188166e+00 1.9240883709e+00 3.3326188166e+00 
39500 6.2412102041e+00 3.6345863273e-04 1.9240784139e+00 -3.3326015706e+00 1.9240784139e+00 3.3326015706e+00 
39600 6.2412103215e+00 3.4384622894e-04 1.9240689689e+00 -3.3325852114e+00 1.9240689689e+00 3.3325852114e+00 
39700 6.2412104406e+00 3.2434878962e-04 1.9240600335e+00 -3.3325697348e+00 1.9240600335e+00 3.3325697348e+00 
39800 6.2412105611e+00 3.0498766618e-04 1.9240516047e+00 -3.3325551358e+00 1.9240516047e+00 3.3325551358e+00 
39900 6.2412106826e+00 2.8578356712e-04 1.9240436791e+00 -3.3325414081e+00 1.9240436791e+00 3.3325414081e+00 
40000 6.2412108046e+00 2.6675654471e-04 1.9240362524e+00 -3.3325285448e+00 1.9240362524e+00 3.3325285448e+00 
40100 6.2412109267e+00 2.4792598297e-04 1.9240293202e+00 -3.3325165379e+00 1.9240293202e+00 3.3325165379e+00 
40200 6.2412110485e+00 2.2931058681e-04 1.9240228774e+00 -3.3325053785e+00 1.9240228774e+00 3.3325053785e+00 
40300 6.2412111697e+00 2.1092837248e-04 1.9240169182e+00 -3.3324950570e+00 1.9240169182e+00 3.3324950570e+00 
40400 6.2412112899e+00 1.9279665902e-04 1.9240114368e+00 -3.3324855628e+00 1.9240114368e+00 3.3324855628e+00 
40500 6.2412114088e+00 1.7493206106e-04 1.9240064265e+00 -3.3324768848e+00 1.9240064265e+00 3.3324768848e+00 
40600 6.2412115259e+00 1.5735048262e-04 1.9240018804e+00 -3.3324690108e+00 1.9240018804e+00 3.3324690108e+00 
40700 6.2412116412e+00 1.4006711207e-04 1.9239977913e+00 -3.3324619282e+00 1.9239977913e+00 3.3324619282e+00 
40800 6.2412117541e+00 1.2309641822e-04 1.9239941513e+00 -3.3324556235e+00 1.9239941513e+00 3.3324556235e+00 
40900 6.2412118646e+00 1.0645214746e-04 1.9239909523e+00 -3.3324500827e+00 1.9239909523e+00 3.3324500827e+00 
41000 6.2412119723e+00 9.0147321902e-05 1.9239881859e+00 -3.3324452911e+00 1.9239881859e+00 3.3324452911e+00 
41100 6.2412120771e+00 7.4194238626e-05 1.9239858432e+00 -3.3324412334e+00 1.9239858432e+00 3.3324412334e+00 
41200 6.2412121787e+00 5.8604469868e-05 1.9239839150e+00 -3.3324378938e+00 1.9239839150e+00 3.3324378938e+00 
41300 6.2412122771e+00 4.4565414419e-05 1.9239839150e+00 -3.3324378938e+00 1.9239839150e+00 3.3324378938e+00 
41400 6.2412123719e+00 3.0610016944e-05 1.9239839150e+00 -3.3324378938e+00 1.9239839150e+00 3.3324378938e+00 
41500 6.2412124631e+00 1.6754412714e-05 1.9239839150e+00 -3.3324378938e+00 1.9239839150e+00 3.3324378938e+00 
41600 6.2412125506e+00 3.0141556429e-06 1.9239839150e+00 -3.3324378938e+00 1.9239839150e+00 3.3324378938e+00 
41700 6.2412126342e+00 -1.0595783280e-05 1.9239839150e+00 -3.3324378938e+00 1.9239839150e+00 3.3324378938e+00 
41800 6.2412127141e+00 -2.4061016927e-05 1.9239839150e+00 -3.3324378938e+00 1.9239839150e+00 3.3324378938e+00 
41900 6.2412127901e+00 -3.7367742347e-05 1.9239839150e+00 -3.3324378938e+00 1.9239839150e+00 3.3324378938e+00 
42000 6.2412128622e+00 -5.0502740463e-05 1.9239839150e+00 -3.3324378938e+00 1.9239839150e+00 3.3324378938e+00 
42100 6.2412129305e+00 -6.3453375187e-05 1.9239839150e+00 -3.3324378938e+00 1.9239839150e+00 3.3324378938e+00 
42200 6.2412129949e+00 -7.6207591923e-05 1.9239839150e+00 -3.3324378938e+00 1.9239839150e+00 3.3324378938e+00 
42300 6.2412130554e+00 -8.7224159989e-05 1.9239858955e+00 -3.3324413240e+00 1.9239858955e+00 3.3324413240e+00 
42400 6.2412131120e+00 -9.7794512838e-05 1.9239881622e+00 -3.3324452502e+00 1.9239881622e+00 3.3324452502e+00 
42500 6.2412131649e+00 -1.0791603407e-04 1.9239907037e+00 -3.3324496521e+00 1.9239907037e+00 3.3324496521e+00 
42600 6.2412132140e+00 -1.1758674143e-04 1.9239935082e+00 -3.3324545096e+00 1.9239935082e+00 3.3324545096e+00 
42700 6.2412132595e+00 -1.2680527479e-04 1.9239965640e+00 -3.3324598024e+00 1.9239965640e+00 3.3324598024e+00 
42800 6.2412133015e+00 -1.3557088379e-04 1.9239998593e+00 -3.3324655101e+00 1.9239998593e+00 3.3324655101e+00 
42900 6.2412133401e+00 -1.4388341477e-04 1.9240033825e+00 -3.3324716124e+00 1.9240033825e+00 3.3324716124e+00 
43000 6.2412133753e+00 -1.5174329734e-04 1.9240071217e+00 -3.3324780888e+00 1.9240071217e+00 3.3324780888e+00 
43100 6.2412134074e+00 -1.5915153048e-04 1.9240110651e+00 -3.3324849191e+00 1.9240110651e+00 3.3324849191e+00 
43200 6.2412134365e+00 -1.6610966813e-04 1.9240152010e+00 -3.3324920827e+00 1.9240152010e+00 3.3324920827e+00 
43300 6.2412134627e+00 -1.7261980452e-04 1.9240195178e+00 -3.3324995595e+00 1.9240195178e+00 3.3324995595e+00 
43400 6.2412134861e+00 -1.7868455901e-04 1.9240240037e+00 -3.3325073294e+00 1.9240240037e+00 3.3325073294e+00 
43500 6.2412135069e+00 -1.8430706066e-04 1.9240286472e+00 -3.3325153722e+00 1.9240286472e+00 3.3325153722e+00 
43600 6.2412135253e+00 -1.8949093246e-04 1.9240334368e+00 -3.3325236680e+00 1.9240334368e+00 3.3325236680e+00 
43700 6.2412135414e+00 -1.9424027531e-04 1.9240383611e+00 -3.3325321972e+00 1.9240383611e+00 3.3325321972e+00 
43800 6.2412135554e+00 -1.9855965167e-04 1.9240434089e+00 -3.3325409401e+00 1.9240434089e+00 3.3325409401e+00 
43900 6.2412135675e+00 -2.0245406910e-04 1.9240485688e+00 -3.3325498774e+00 1.9240485688e+00 3.3325498774e+00 
44000 6.2412135777e+00 -2.0592896348e-04 1.9240538300e+00 -3.3325589900e+00 1.9240538300e+00 3.3325589900e+00 
44100 6.2412135863e+00 -2.0899018213e-04 1.9240591814e+00 -3.3325682590e+00 1.9240591814e+00 3.3325682590e+00 
44200 6.2412135934e+00 -2.1164396676e-04 1.9240646124e+00 -3.3325776657e+00 1.9240646124e+00 3.3325776657e+00 
44300 6.2412135992e+00 -2.1389693629e-04 1.9240701123e+00 -3.3325871918e+00 1.9240701123e+00 3.3325871918e+00 
44400 6.2412136039e+00 -2.1575606958e-04 1.9240756707e+00 -3.3325968193e+00 1.9240756707e+00 3.3325968193e+00 
44500 6.2412136075e+00 -2.1722868808e-04 1.9240812775e+00 -3.3326065305e+00 1.9240812775e+00 3.3326065305e+00 
44600 6.2412136102e+00 -2.1832243847e-04 1.9240869225e+00 -3.3326163079e+00 1.9240869225e+00 3.3326163079e+00 
44700 6.2412136123e+00 -2.1904527522e-04 1.9240925959e+00 -3.3326261346e+00 1.9240925959e+00 3.3326261346e+00 
44800 6.2412136137e+00 -2.1940544316e-04 1.9240982881e+00 -3.3326359937e+00 1.9240982881e+00 3.3326359937e+00 
44900 6.2412136147e+00 -2.1941146013e-04 1.9241039896e+00 -3.3326458690e+00 1.9241039896e+00 3.3326458690e+00 
45000 6.2412136153e+00 -2.1907209961e-04 1.9241096912e+00 -3.3326557446e+00 1.9241096912e+00 3.3326557446e+00 
45100 6.2412136157e+00 -2.1839637339e-04 1.9241153841e+00 -3.3326656048e+00 1.9241153841e+00 3.3326656048e+00 
45200 6.2412136161e+00 -2.1739351446e-04 1.9241210593e+00 -3.3326754346e+00 1.9241210593e+00 3.3326754346e+00 
45300 6.2412136164e+00 -2.1607295985e-04 1.9241267085e+00 -3.3326852193e+00 1.9241267085e+00 3.3326852193e+00 
45400 6.2412136168e+00 -2.1444433370e-04 1.9241323233e+00 -3.3326949445e+00 1.9241323233e+00 3.3326949445e+00 
45500 6.2412136174e+00 -2.1251743045e-04 1.9241378958e+00 -3.3327045963e+00 1.9241378958e+00 3.3327045963e+00 
45600 6.2412136183e+00 -2.1030219815e-04 1.9241434182e+00 -3.3327141614e+00 1.9241434182e+00 3.3327141614e+00 
45700 6.2412136196e+00 -2.0780872204e-04 1.9241488830e+00 -3.3327236268e+00 1.9241488830e+00 3.3327236268e+00 
45800 6.2412136213e+00 -2.0504720823e-04 1.9241542831e+00 -3.3327329799e+00 1.9241542831e+00 3.3327329799e+00 
45900 6.2412136235e+00 -2.0202796771e-04 1.9241596113e+00 -3.3327422087e+00 1.9241596113e+00 3.3327422087e+00 
46000 6.2412136262e+00 -1.9876140049e-04 1.9241648611e+00 -3.3327513015e+00 1.9241648611e+00 3.3327513015e+00 
46100 6.2412136295e+00 -1.9525798003e-04 1.9241700260e+00 -3.3327602474e+00 1.9241700260e+00 3.3327602474e+00 
46200 6.2412136334e+00 -1.9152823795e-04 1.9241750998e+00 -3.3327690355e+00 1.9241750998e+00 3.3327690355e+00 
46300 6.2412136380e+00 -1.8758274900e-04 1.9241800767e+00 -3.3327776557e+00 1.9241800767e+00 3.3327776557e+00 
46400 6.2412136433e+00 -1.8343211633e-04 1.9241849510e+00 -3.3327860984e+00 1.9241849510e+00 3.3327860984e+00 
46500 6.2412136494e+00 -1.7908695702e-04 1.9241897175e+00 -3.3327943542e+00 1.9241897175e+00 3.3327943542e+00 
46600 6.2412136561e+00 -1.7455788799e-04 1.9241943711e+00 -3.3328024144e+00 1.9241943711e+00 3.3328024144e+00 
46700 6.2412136636e+00 -1.6985551219e-04 1.9241989070e+00 -3.3328102707e+00 1.9241989070e+00 3.3328102707e+00 
46800 6.2412136718e+00 -1.6499040518e-04 1.9242033206e+00 -3.3328179154e+00 1.9242033206e+00 3.3328179154e+00 
46900 6.2412136808e+00 -1.5997310197e-04 1.9242076079e+00 -3.3328253412e+00 1.9242076079e+00 3.3328253412e+00 
47000 6.2412136905e+00 -1.5481408429e-04 1.9242117647e+00 -3.3328325411e+00 1.9242117647e+00 3.3328325411e+00 
47100 6.2412137010e+00 -1.4952376820e-04 1.9242157875e+00 -3.3328395087e+00 1.9242157875e+00 3.3328395087e+00 
47200 6.2412137121e+00 -1.4411249210e-04 1.9242196729e+00 -3.3328462383e+00 1.9242196729e+00 3.3328462383e+00 
47300 6.2412137239e+00 -1.3859050503e-04 1.9242234176e+00 -3.3328527243e+00 1.9242234176e+00 3.3328527243e+00 
47400 6.2412137364e+00 -1.3296795551e-04 1.9242270188e+00 -3.3328589618e+00 1.9242270188e+00 3.3328589618e+00 
47500 6.2412137496e+00 -1.2725488060e-04 1.9242304739e+00 -3.3328649462e+00 1.9242304739e+00 3.3328649462e+00 
47600 6.2412137633e+00 -1.2146119551e-04 1.9242337805e+00 -3.3328706735e+00 1.9242337805e+00 3.3328706735e+00 
47700 6.2412137776e+00 -1.1559668349e-04 1.9242369366e+00 -3.3328761400e+00 1.9242369366e+00 3.3328761400e+00 
47800 6.2412137924e+00 -1.0967098622e-04 1.9242399403e+00 -3.3328813426e+00 1.9242399403e+00 3.3328813426e+00 
47900 6.2412138077e+00 -1.0369359456e-04 1.9242427900e+00 -3.3328862784e+00 1.9242427900e+00 3.3328862784e+00 
48000 6.2412138235e+00 -9.7673839723e-05 1.9242454844e+00 -3.3328909453e+00 1.9242454844e+00 3.3328909453e+00 
48100 6.2412138397e+00 -9.1620884870e-05 1.9242480224e+00 -3.3328953412e+00 1.9242480224e+00 3.3328953412e+00 
48200 6.2412138562e+00 -8.5543717101e-05 1.9242504031e+00 -3.3328994647e+00 1.9242504031e+00 3.3328994647e+00 
48300 6.2412138731e+00 -7.9451139901e-05 1.9242526259e+00 -3.3329033146e+00 1.9242526259e+00 3.3329033146e+00 
48400 6.2412138902e+00 -7.3351765968e-05 1.9242546903e+00 -3.3329068904e+00 1.9242546903e+00 3.3329068904e+00 
48500 6.2412139076e+00 -6.7254010471e-05 1.9242565963e+00 -3.3329101916e+00 1.9242565963e+00 3.3329101916e+00 
48600 6.2412139253e+00 -6.2515298339e-05 1.9242565963e+00 -3.3329101916e+00 1.9242565963e+00 3.3329101916e+00 
48700 6.2412139430e+00 -5.7677885849e-05 1.9242565963e+00 -3.3329101916e+00 1.9242565963e+00 3.3329101916e+00 
48800 6.2412139609e+00 -5.2749712907e-05 1.9242565963e+00 -3.3329101916e+00 1.9242565963e+00 3.3329101916e+00 
48900 6.2412139787e+00 -4.7738607290e-05 1.9242565963e+00 -3.3329101916e+00 1.9242565963e+00 3.3329101916e+00 
49000 6.2412139966e+00 -4.2652278939e-05 1.9242565963e+00 -3.3329101916e+00 1.9242565963e+00 3.3329101916e+00 
49100 6.2412140144e+00 -3.7498314519e-05 1.9242565963e+00 -3.3329101916e+00 1.9242565963e+00 3.3329101916e+00 
49200 6.2412140321e+00 -3.2284172222e-05 1.9242565963e+00 -3.3329101916e+00 1.9242565963e+00 3.3329101916e+00 
49300 6.2412140497e+00 -2.7017176837e-05 1.9242565963e+00 -3.3329101916e+00 1.9242565963e+00 3.3329101916e+00 
49400 6.2412140671e+00 -2.1704515068e-05 1.9242565963e+00 -3.3329101916e+00 1.9242565963e+00 3.3329101916e+00 
49500 6.2412140843e+00 -1.6353231113e-05 1.9242565963e+00 -3.3329101916e+00 1.9242565963e+00 3.3329101916e+00 
49600 6.2412141013e+00 -1.0970222503e-05 1.9242565963e+00 -3.3329101916e+00 1.9242565963e+00 3.3329101916e+00 
49700 6.2412141181e+00 -5.5622361867e-06 1.9242565963e+00 -3.3329101916e+00 1.9242565963e+00 3.3329101916e+00 
49800 6.2412141346e+00 -1.3586488547e-07 1.9242565963e+00 -3.3329101916e+00 1.9242565963e+00 3.3329101916e+00 
49900 6.2412141508e+00 5.3024563153e-06 1.9242565963e+00 -3.3329101916e+00 1.9242565963e+00 3.3329101916e+00 
50000 6.2412141666e+00 1.0746453103e-05 1.9242565963e+00 -3.3329101916e+00 1.9242565963e+00 3.3329101916e+00 
50100 6.2412141822e+00 1.6190014841e-05 1.9242565963e+00 -3.3329101916e+00 1.9242565963e+00 3.3329101916e+00 
50200 6.2412141974e+00 2.1627197206e-05 1.9242565963e+00 -3.3329101916e+00 1.9242565963e+00 3.3329101916e+00 
50300 6.2412142122e+00 2.7052224589e-05 1.9242565963e+00 -3.3329101916e+00 1.9242565963e+00 3.3329101916e+00 
50400 6.2412142266e+00 3.2459492255e-05 1.9242565963e+00 -3.3329101916e+00 1.9242565963e+00 3.3329101916e+00 
50500 6.2412142406e+00 3.7843568247e-05 1.9242565963e+00 -3.3329101916e+00 1.9242565963e+00 3.3329101916e+00 
50600 6.2412142542e+00 4.3199195060e-05 1.9242565963e+00 -3.3329101916e+00 1.9242565963e+00 3.3329101916e+00 
50700 6.2412142674e+00 4.8521291081e-05 1.9242565963e+00 -3.3329101916e+00 1.9242565963e+00 3.3329101916e+00 
50800 6.2412142802e+00 5.3804951796e-05 1.9242565963e+00 -3.3329101916e+00 1.9242565963e+00 3.3329101916e+00 
50900 6.2412142926e+00 5.9045450763e-05 1.9242565963e+00 -3.3329101916e+00 1.9242565963e+00 3.3329101916e+00 
51000 6.2412143045e+00 6.4238240363e-05 1.9242565963e+00 -3.3329101916e+00 1.9242565963e+00 3.3329101916e+00 
51100 6.2412143160e+00 6.9378952337e-05 1.9242565963e+00 -3.3329101916e+00 1.9242565963e+00 3.3329101916e+00 
51200 6.2412143271e+00 7.4463398100e-05 1.9242565963e+00 -3.3329101916e+00 1.9242565963e+00 3.3329101916e+00 
51300 6.2412143375e+00 7.7993480753e-05 1.9242546615e+00 -3.3329068404e+00 1.9242546615e+00 3.3329068404e+00 
51400 6.2412143476e+00 8.1382415449e-05 1.9242526349e+00 -3.3329033302e+00 1.9242526349e+00 3.3329033302e+00 
51500 6.2412143571e+00 8.4628754564e-05 1.9242505202e+00 -3.3328996675e+00 1.9242505202e+00 3.3328996675e+00 
51600 6.2412143663e+00 8.7731278620e-05 1.9242483212e+00 -3.3328958587e+00 1.9242483212e+00 3.3328958587e+00 
51700 6.2412143750e+00 9.0688992202e-05 1.9242460416e+00 -3.3328919103e+00 1.9242460416e+00 3.3328919103e+00 
51800 6.2412143832e+00 9.3501119640e-05 1.9242436851e+00 -3.3328878288e+00 1.9242436851e+00 3.3328878288e+00 
51900 6.2412143911e+00 9.6167100567e-05 1.9242412556e+00 -3.3328836207e+00 1.9242412556e+00 3.3328836207e+00 
52000 6.2412143985e+00 9.8686585235e-05 1.9242387567e+00 -3.3328792926e+00 1.9242387567e+00 3.3328792926e+00 
52100 6.2412144056e+00 1.0105942974e-04 1.9242361924e+00 -3.3328748511e+00 1.9242361924e+00 3.3328748511e+00 
52200 6.2412144123e+00 1.0328569107e-04 1.9242335665e+00 -3.3328703028e+00 1.9242335665e+00 3.3328703028e+00 
52300 6.2412144186e+00 1.0536562198e-04 1.9242308827e+00 -3.3328656543e+00 1.9242308827e+00 3.3328656543e+00 
52400 6.2412144246e+00 1.0729966580e-04 1.9242281448e+00 -3.3328609121e+00 1.9242281448e+00 3.3328609121e+00 
52500 6.2412144302e+00 1.0908845111e-04 1.9242253567e+00 -3.3328560830e+00 1.9242253567e+00 3.3328560830e+00 
52600 6.2412144356e+00 1.1073278623e-04 1.9242225221e+00 -3.3328511733e+00 1.9242225221e+00 3.3328511733e+00 
52700 6.2412144406e+00 1.1223365372e-04 1.9242196447e+00 -3.3328461896e+00 1.9242196447e+00 3.3328461896e+00 
52800 6.2412144454e+00 1.1359220472e-04 1.9242167284e+00 -3.3328411383e+00 1.9242167284e+00 3.3328411383e+00 
52900 6.2412144499e+00 1.1480975321e-04 1.9242137767e+00 -3.3328360259e+00 1.9242137767e+00 3.3328360259e+00 
53000 6.2412144542e+00 1.1588777025e-04 1.9242107934e+00 -3.3328308587e+00 1.9242107934e+00 3.3328308587e+00 
53100 6.2412144582e+00 1.1682787809e-04 1.9242077821e+00 -3.3328256430e+00 1.9242077821e+00 3.3328256430e+00 
53200 6.2412144620e+00 1.1763184426e-04 1.9242047464e+00 -3.3328203849e+00 1.9242047464e+00 3.3328203849e+00 
53300 6.2412144656e+00 1.1830157566e-04 1.9242016898e+00 -3.3328150907e+00 1.9242016898e+00 3.3328150907e+00 
53400 6.2412144691e+00 1.1883911250e-04 1.9241986157e+00 -3.3328097663e+00 1.9241986157e+00 3.3328097663e+00 
53500 6.2412144724e+00 1.1924662232e-04 1.9241955277e+00 -3.3328044177e+00 1.9241955277e+00 3.3328044177e+00 
53600 6.2412144756e+00 1.1952639395e-04 1.9241924291e+00 -3.3327990507e+00 1.9241924291e+00 3.3327990507e+00 
53700 6.2412144786e+00 1.1968083147e-04 1.9241893232e+00 -3.3327936712e+00 1.9241893232e+00 3.3327936712e+00 
53800 6.2412144815e+00 1.1971244815e-04 1.9241862133e+00 -3.3327882847e+00 1.9241862133e+00 3.3327882847e+00 
53900 6.2412144843e+00 1.1962386040e-04 1.9241831026e+00 -3.3327828968e+00 1.9241831026e+00 3.3327828968e+00 
54000 6.2412144871e+00 1.1941778177e-04 1.9241799942e+00 -3.3327775128e+00 1.9241799942e+00 3.3327775128e+00 
54100 6.2412144898e+00 1.1909701692e-04 1.9241768911e+00 -3.3327721381e+00 1.9241768911e+00 3.3327721381e+00 
54200 6.2412144924e+00 1.1866445564e-04 1.9241737963e+00 -3.3327667778e+00 1.9241737963e+00 3.3327667778e+00 
54300 6.2412144950e+00 1.1812306691e-04 1.9241707128e+00 -3.3327614370e+00 1.9241707128e+00 3.3327614370e+00 
54400 6.2412144975e+00 1.1747589303e-04 1.9241676434e+00 -3.3327561206e+00 1.9241676434e+00 3.3327561206e+00 
54500 6.2412145000e+00 1.1672604372e-04 1.9241645907e+00 -3.3327508332e+00 1.9241645907e+00 3.3327508332e+00 
54600 6.2412145025e+00 1.1587669037e-04 1.9241615576e+00 -3.3327455797e+00 1.9241615576e+00 3.3327455797e+00 
54700 6.2412145051e+00 1.1493106028e-04 1.9241585465e+00 -3.3327403643e+00 1.9241585465e+00 3.3327403643e+00 
54800 6.2412145076e+00 1.1389243100e-04 1.9241555599e+00 -3.3327351915e+00 1.9241555599e+00 3.3327351915e+00 
54900 6.2412145101e+00 1.1276412474e-04 1.9241526004e+00 -3.3327300654e+00 1.9241526004e+00 3.3327300654e+00 
55000 6.2412145127e+00 1.1154950289e-04 1.9241496702e+00 -3.3327249901e+00 1.9241496702e+00 3.3327249901e+00 
55100 6.2412145152e+00 1.1025196056e-04 1.9241467715e+00 -3.3327199694e+00 1.9241467715e+00 3.3327199694e+00 
55200 6.2412145179e+00 1.0887492123e-04 1.9241439065e+00 -3.3327150072e+00 1.9241439065e+00 3.3327150072e+00 
55300 6.2412145205e+00 1.0742183156e-04 1.9241410774e+00 -3.3327101069e+00 1.9241410774e+00 3.3327101069e+00 
55400 6.2412145232e+00 1.0589615622e-04 1.9241382859e+00 -3.3327052720e+00 1.9241382859e+00 3.3327052720e+00 
55500 6.2412145259e+00 1.0430137282e-04 1.9241355342e+00 -3.3327005058e+00 1.9241355342e+00 3.3327005058e+00 
55600 6.2412145287e+00 1.0264096705e-04 1.9241328238e+00 -3.3326958114e+00 1.9241328238e+00 3.3326958114e+00 
55700 6.2412145316e+00 1.0091842780e-04 1.9241301566e+00 -3.3326911916e+00 1.9241301566e+00 3.3326911916e+00 
55800 6.2412145345e+00 9.9137242475e-05 1.9241275342e+00 -3.3326866494e+00 1.9241275342e+00 3.3326866494e+00 
55900 6.2412145374e+00 9.7300892418e-05 1.9241249580e+00 -3.3326821874e+00 1.9241249580e+00 3.3326821874e+00 
56000 6.2412145404e+00 9.5412848430e-05 1.9241224296e+00 -3.3326778080e+00 1.9241224296e+00 3.3326778080e+00 
56100 6.2412145434e+00 9.3476566445e-05 1.9241199502e+00 -3.3326735136e+00 1.9241199502e+00 3.3326735136e+00 
56200 6.2412145465e+00 9.1495483302e-05 1.9241175211e+00 -3.3326693063e+00 1.9241175211e+00 3.3326693063e+00 
56300 6.2412145497e+00 8.9473012673e-05 1.9241151435e+00 -3.3326651882e+00 1.9241151435e+00 3.3326651882e+00 
56400 6.2412145528e+00 8.7412541099e-05 1.9241128185e+00 -3.3326611611e+00 1.9241128185e+00 3.3326611611e+00 
56500 6.2412145561e+00 8.5317424179e-05 1.9241105470e+00 -3.3326572267e+00 1.9241105470e+00 3.3326572267e+00 
56600 6.2412145593e+00 8.3190982894e-05 1.9241083299e+00 -3.3326533867e+00 1.9241083299e+00 3.3326533867e+00 
56700 6.2412145626e+00 8.1036500035e-05 1.9241061681e+00 -3.3326496423e+00 1.9241061681e+00 3.3326496423e+00 
56800 6.2412145660e+00 7.8857216829e-05 1.9241040623e+00 -3.3326459949e+00 1.9241040623e+00 3.3326459949e+00 
56900 6.2412145694e+00 7.6656329636e-05 1.9241020131e+00 -3.3326424456e+00 1.9241020131e+00 3.3326424456e+00 
57000 6.2412145728e+00 7.4436986843e-05 1.9241000211e+00 -3.3326389954e+00 1.9241000211e+00 3.3326389954e+00 
57100 6.2412145762e+00 7.2202285866e-05 1.9240980868e+00 -3.3326356450e+00 1.9240980868e+00 3.3326356450e+00 
57200 6.2412145796e+00 6.9955270300e-05 1.9240962105e+00 -3.3326323952e+00 1.9240962105e+00 3.3326323952e+00 
57300 6.2412145832e+00 6.9103145198e-05 1.9240962105e+00 -3.3326323952e+00 1.9240962105e+00 3.3326323952e+00 
57400 6.2412145868e+00 6.8205151611e-05 1.9240962105e+00 -3.3326323952e+00 1.9240962105e+00 3.3326323952e+00 
57500 6.2412145904e+00 6.7264153501e-05 1.9240962105e+00 -3.3326323952e+00 1.9240962105e+00 3.3326323952e+00 
57600 6.2412145939e+00 6.6282975181e-05 1.9240962105e+00 -3.3326323952e+00 1.9240962105e+00 3.3326323952e+00 
57700 6.2412145975e+00 6.5264399530e-05 1.9240962105e+00 -3.3326323952e+00 1.9240962105e+00 3.3326323952e+00 
57800 6.2412146010e+00 6.4211166293e-05 1.9240962105e+00 -3.3326323952e+00 1.9240962105e+00 3.3326323952e+00 
57900 6.2412146045e+00 6.3125970456e-05 1.9240962105e+00 -3.3326323952e+00 1.9240962105e+00 3.3326323952e+00 
58000 6.2412146080e+00 6.2011460683e-05 1.9240962105e+00 -3.3326323952e+00 1.9240962105e+00 3.3326323952e+00 
58100 6.2412146115e+00 6.0870237853e-05 1.9240962105e+00 -3.3326323952e+00 1.9240962105e+00 3.3326323952e+00 
58200 6.2412146149e+00 5.9704853647e-05 1.9240962105e+00 -3.3326323952e+00 1.9240962105e+00 3.3326323952e+00 
58300 6.2412146183e+00 5.8517809243e-05 1.9240962105e+00 -3.3326323952e+00 1.9240962105e+00 3.3326323952e+00 
58400 6.2412146216e+00 5.7311554051e-05 1.9240962105e+00 -3.3326323952e+00 1.9240962105e+00 3.3326323952e+00 
58500 6.2412146249e+00 5.6088484553e-05 1.9240962105e+00 -3.3326323952e+00 1.9240962105e+00 3.3326323952e+00 
58600 6.2412146282e+00 5.4850943216e-05 1.9240962105e+00 -3.3326323952e+00 1.9240962105e+00 3.3326323952e+00 
58700 6.2412146314e+00 5.3601217477e-05 1.9240962105e+00 -3.3326323952e+00 1.9240962105e+00 3.3326323952e+00 
58800 6.2412146345e+00 5.2341538798e-05 1.9240962105e+00 -3.3326323952e+00 1.9240962105e+00 3.3326323952e+00 
58900 6.2412146376e+00 5.1074081815e-05 1.9240962105e+00 -3.3326323952e+00 1.9240962105e+00 3.3326323952e+00 
59000 6.2412146406e+00 4.9800963548e-05 1.9240962105e+00 -3.3326323952e+00 1.9240962105e+00 3.3326323952e+00 
59100 6.2412146436e+00 4.8524242694e-05 1.9240962105e+00 -3.3326323952e+00 1.9240962105e+00 3.3326323952e+00 
59200 6.2412146465e+00 4.7245918996e-05 1.9240962105e+00 -3.3326323952e+00 1.9240962105e+00 3.3326323952e+00 
59300 6.2412146494e+00 4.5967932676e-05 1.9240962105e+00 -3.3326323952e+00 1.9240962105e+00 3.3326323952e+00 
59400 6.2412146522e+00 4.4692163958e-05 1.9240962105e+00 -3.3326323952e+00 1.9240962105e+00 3.3326323952e+00 
59500 6.2412146549e+00 4.3420432648e-05 1.9240962105e+00 -3.3326323952e+00 1.9240962105e+00 3.3326323952e+00 
59600 6.2412146576e+00 4.2154497799e-05 1.9240962105e+00 -3.3326323952e+00 1.9240962105e+00 3.3326323952e+00 
59700 6.2412146602e+00 4.0896057430e-05 1.9240962105e+00 -3.3326323952e+00 1.9240962105e+00 3.3326323952e+00 
59800 6.2412146627e+00 3.9646748340e-05 1.9240962105e+00 -3.3326323952e+00 1.9240962105e+00 3.3326323952e+00 
59900 6.2412146652e+00 3.8408145965e-05 1.9240962105e+00 -3.3326323952e+00 1.9240962105e+00 3.3326323952e+00 
60000 6.2412146676e+00 3.7181764319e-05 1.9240962105e+00 -3.3326323952e+00 1.9240962105e+00 3.3326323952e+00 
60100 6.2412146699e+00 3.5969055992e-05 1.9240962105e+00 -3.3326323952e+00 1.9240962105e+00 3.3326323952e+00 
60200 6.2412146722e+00 3.4771412215e-05 1.9240962105e+00 -3.3326323952e+00 1.9240962105e+00 3.3326323952e+00 
60300 6.2412146744e+00 3.3590163000e-05 1.9240962105e+00 -3.3326323952e+00 1.9240962105e+00 3.3326323952e+00 
60400 6.2412146766e+00 3.2426577321e-05 1.9240962105e+00 -3.3326323952e+00 1.9240962105e+00 3.3326323952e+00 
60500 6.2412146787e+00 3.1281863371e-05 1.9240962105e+00 -3.3326323952e+00 1.9240962105e+00 3.3326323952e+00 
60600 6.2412146807e+00 3.0157168883e-05 1.9240962105e+00 -3.3326323952e+00 1.9240962105e+00 3.3326323952e+00 
60700 6.2412146827e+00 2.9053581476e-05 1.9240962105e+00 -3.3326323952e+00 1.9240962105e+00 3.3326323952e+00 
60800 6.2412146847e+00 2.7972129109e-05 1.9240962105e+00 -3.3326323952e+00 1.9240962105e+00 3.3326323952e+00 
60900 6.2412146865e+00 2.6913780545e-05 1.9240962105e+00 -3.3326323952e+00 1.9240962105e+00 3.3326323952e+00 
61000 6.2412146883e+00 2.5879445878e-05 1.9240962105e+00 -3.3326323952e+00 1.9240962105e+00 3.3326323952e+00 
61100 6.2412146901e+00 2.4869977134e-05 1.9240962105e+00 -3.3326323952e+00 1.9240962105e+00 3.3326323952e+00 
61200 6.2412146918e+00 2.3886168886e-05 1.9240962105e+00 -3.3326323952e+00 1.9240962105e+00 3.3326323952e+00 
61300 6.2412146935e+00 2.2928758949e-05 1.9240962105e+00 -3.3326323952e+00 1.9240962105e+00 3.3326323952e+00 
61400 6.2412146951e+00 2.1998429096e-05 1.9240962105e+00 -3.3326323952e+00 1.9240962105e+00 3.3326323952e+00 
61500 6.2412146967e+00 2.1095805830e-05 1.9240962105e+00 -3.3326323952e+00 1.9240962105e+00 3.3326323952e+00 
61600 6.2412146982e+00 2.0221461199e-05 1.9240962105e+00 -3.3326323952e+00 1.9240962105e+00 3.3326323952e+00 
61700 6.2412146997e+00 1.9375913641e-05 1.9240962105e+00 -3.3326323952e+00 1.9240962105e+00 3.3326323952e+00 
61800 6.2412147011e+00 1.8559628885e-05 1.9240962105e+00 -3.3326323952e+00 1.9240962105e+00 3.3326323952e+00 
61900 6.2412147025e+00 1.7773020865e-05 1.9240962105e+00 -3.3326323952e+00 1.9240962105e+00 3.3326323952e+00 
62000 6.2412147039e+00 1.7016452692e-05 1.9240962105e+00 -3.3326323952e+00 1.9240962105e+00 3.3326323952e+00 
62100 6.2412147052e+00 1.6290237643e-05 1.9240962105e+00 -3.3326323952e+00 1.9240962105e+00 3.3326323952e+00 
62200 6.2412147065e+00 1.5594640193e-05 1.9240962105e+00 -3.3326323952e+00 1.9240962105e+00 3.3326323952e+00 
62300 6.2412147078e+00 1.4929877056e-05 1.9240962105e+00 -3.3326323952e+00 1.9240962105e+00 3.3326323952e+00 
62400 6.2412147090e+00 1.4296118283e-05 1.9240962105e+00 -3.3326323952e+00 1.9240962105e+00 3.3326323952e+00 
62500 6.2412147103e+00 1.3693488356e-05 1.9240962105e+00 -3.3326323952e+00 1.9240962105e+00 3.3326323952e+00 
62600 6.2412147114e+00 1.3122067328e-05 1.9240962105e+00 -3.3326323952e+00 1.9240962105e+00 3.3326323952e+00 
62700 6.2412147126e+00 1.2581891969e-05 1.9240962105e+00 -3.3326323952e+00 1.9240962105e+00 3.3326323952e+00 
62800 6.2412147138e+00 1.2072956941e-05 1.9240962105e+00 -3.3326323952e+00 1.9240962105e+00 3.3326323952e+00 
62900 6.2412147149e+00 1.1595215991e-05 1.9240962105e+00 -3.3326323952e+00 1.9240962105e+00 3.3326323952e+00 
63000 6.2412147160e+00 1.1148583152e-05 1.9240962105e+00 -3.3326323952e+00 1.9240962105e+00 3.3326323952e+00 
63100 6.2412147171e+00 1.0732933970e-05 1.9240962105e+00 -3.3326323952e+00 1.9240962105e+00 3.3326323952e+00 
63200 6.2412147181e+00 1.0348106735e-05 1.9240962105e+00 -3.3326323952e+00 1.9240962105e+00 3.3326323952e+00 
63300 6.2412147192e+00 9.9939037246e-06 1.9240962105e+00 -3.3326323952e+00 1.9240962105e+00 3.3326323952e+00 
63400 6.2412147202e+00 9.6700924668e-06 1.9240962105e+00 -3.3326323952e+00 1.9240962105e+00 3.3326323952e+00 
63500 6.2412147212e+00 9.3764069930e-06 1.9240962105e+00 -3.3326323952e+00 1.9240962105e+00 3.3326323952e+00 
63600 6.2412147222e+00 9.1125491117e-06 1.9240962105e+00 -3.3326323952e+00 1.9240962105e+00 3.3326323952e+00 
63700 6.2412147232e+00 8.8781896786e-06 1.9240962105e+00 -3.3326323952e+00 1.9240962105e+00 3.3326323952e+00 
63800 6.2412147242e+00 8.6729698809e-06 1.9240962105e+00 -3.3326323952e+00 1.9240962105e+00 3.3326323952e+00 
63900 6.2412147252e+00 8.4965025005e-06 1.9240962105e+00 -3.3326323952e+00 1.9240962105e+00 3.3326323952e+00 
64000 6.2412147262e+00 8.3483732023e-06 1.9240962105e+00 -3.3326323952e+00 1.9240962105e+00 3.3326323952e+00 
64100 6.2412147272e+00 8.2281418085e-06 1.9240962105e+00 -3.3326323952e+00 1.9240962105e+00 3.3326323952e+00 
64200 6.2412147281e+00 8.1353435642e-06 1.9240962105e+00 -3.3326323952e+00 1.9240962105e+00 3.3326323952e+00 
64300 6.2412147291e+00 8.0694904166e-06 1.9240962105e+00 -3.3326323952e+00 1.9240962105e+00 3.3326323952e+00 
64400 6.2412147300e+00 8.0300722640e-06 1.9240962105e+00 -3.3326323952e+00 1.9240962105e+00 3.3326323952e+00 
64500 6.2412147309e+00 8.0165582218e-06 1.9240962105e+00 -3.3326323952e+00 1.9240962105e+00 3.3326323952e+00 
64600 6.2412147319e+00 8.0283978652e-06 1.9240962105e+00 -3.3326323952e+00 1.9240962105e+00 3.3326323952e+00 
64700 6.2412147328e+00 8.0650224634e-06 1.9240962105e+00 -3.3326323952e+00 1.9240962105e+00 3.3326323952e+00 
64800 6.2412147337e+00 8.1258462079e-06 1.9240962105e+00 -3.3326323952e+00 1.9240962105e+00 3.3326323952e+00 
64900 6.2412147346e+00 8.2102674225e-06 1.9240962105e+00 -3.3326323952e+00 1.9240962105e+00 3.3326323952e+00 
65000 6.2412147355e+00 8.3176697704e-06 1.9240962105e+00 -3.3326323952e+00 1.9240962105e+00 3.3326323952e+00 
65100 6.2412147365e+00 8.4474234382e-06 1.9240962105e+00 -3.3326323952e+00 1.9240962105e+00 3.3326323952e+00 
65200 6.2412147374e+00 8.5988862974e-06 1.9240962105e+00 -3.3326323952e+00 1.9240962105e+00 3.3326323952e+00 
65300 6.2412147383e+00 8.7714050678e-06 1.9240962105e+00 -3.3326323952e+00 1.9240962105e+00 3.3326323952e+00 
65400 6.2412147392e+00 8.9643164577e-06 1.9240962105e+00 -3.3326323952e+00 1.9240962105e+00 3.3326323952e+00 
65500 6.2412147400e+00 9.1769482698e-06 1.9240962105e+00 -3.3326323952e+00 1.9240962105e+00 3.3326323952e+00 
65600 6.2412147409e+00 9.4086205094e-06 1.9240962105e+00 -3.3326323952e+00 1.9240962105e+00 3.3326323952e+00 
65700 6.2412147418e+00 9.6586464622e-06 1.9240962105e+00 -3.3326323952e+00 1.9240962105e+00 3.3326323952e+00 
65800 6.2412147427e+00 9.9263337569e-06 1.9240962105e+00 -3.3326323952e+00 1.9240962105e+00 3.3326323952e+00 
65900 6.2412147436e+00 1.0210985389e-05 1.9240962105e+00 -3.3326323952e+00 1.9240962105e+00 3.3326323952e+00 
66000 6.2412147444e+00 1.0511900753e-05 1.9240962105e+00 -3.3326323952e+00 1.9240962105e+00 3.3326323952e+00 
66100 6.2412147453e+00 1.0828376620e-05 1.9240962105e+00 -3.3326323952e+00 1.9240962105e+00 3.3326323952e+00 
66200 6.2412147461e+00 1.1159708117e-05 1.9240962105e+00 -3.3326323952e+00 1.9240962105e+00 3.3326323952e+00 
66300 6.2412147470e+00 1.1505189664e-05 1.9240962105e+00 -3.3326323952e+00 1.9240962105e+00 3.3326323952e+00 
66400 6.2412147478e+00 1.1864115898e-05 1.9240962105e+00 -3.3326323952e+00 1.9240962105e+00 3.3326323952e+00 
66500 6.2412147487e+00 1.2235782565e-05 1.9240962105e+00 -3.3326323952e+00 1.9240962105e+00 3.3326323952e+00 
66600 6.2412147495e+00 1.2619487396e-05 1.9240962105e+00 -3.3326323952e+00 1.9240962105e+00 3.3326323952e+00 
66700 6.2412147503e+00 1.3014530939e-05 1.9240962105e+00 -3.3326323952e+00 1.9240962105e+00 3.3326323952e+00 
66800 6.2412147512e+00 1.3420217390e-05 1.9240962105e+00 -3.3326323952e+00 1.9240962105e+00 3.3326323952e+00 
66900 6.2412147520e+00 1.3835855374e-05 1.9240962105e+00 -3.3326323952e+00 1.9240962105e+00 3.3326323952e+00 
67000 6.2412147528e+00 1.4260758710e-05 1.9240962105e+00 -3.3326323952e+00 1.9240962105e+00 3.3326323952e+00 
67100 6.2412147536e+00 1.4694247157e-05 1.9240962105e+00 -3.3326323952e+00 1.9240962105e+00 3.3326323952e+00 
67200 6.2412147543e+00 1.5135647109e-05 1.9240962105e+00 -3.3326323952e+00 1.9240962105e+00 3.3326323952e+00 
67300 6.2412147551e+00 1.5584292293e-05 1.9240962105e+00 -3.3326323952e+00 1.9240962105e+00 3.3326323952e+00 
67400 6.2412147559e+00 1.6039524411e-05 1.9240962105e+00 -3.3326323952e+00 1.9240962105e+00 3.3326323952e+00 
67500 6.2412147566e+00 1.6500693778e-05 1.9240962105e+00 -3.3326323952e+00 1.9240962105e+00 3.3326323952e+00 
67600 6.2412147574e+00 1.6967159907e-05 1.9240962105e+00 -3.3326323952e+00 1.9240962105e+00 3.3326323952e+00 
67700 6.2412147581e+00 1.7438292101e-05 1.9240962105e+00 -3.3326323952e+00 1.9240962105e+00 3.3326323952e+00 
67800 6.2412147589e+00 1.7913469975e-05 1.9240962105e+00 -3.3326323952e+00 1.9240962105e+00 3.3326323952e+00 
67900 6.2412147596e+00 1.8392083995e-05 1.9240962105e+00 -3.3326323952e+00 1.9240962105e+00 3.3326323952e+00 
68000 6.2412147603e+00 1.8873535945e-05 1.9240962105e+00 -3.3326323952e+00 1.9240962105e+00 3.3326323952e+00 
68100 6.2412147610e+00 1.9357239409e-05 1.9240962105e+00 -3.3326323952e+00 1.9240962105e+00 3.3326323952e+00 
68200 6.2412147617e+00 1.9842620190e-05 1.9240962105e+00 -3.3326323952e+00 1.9240962105e+00 3.3326323952e+00 
68300 6.2412147624e+00 2.0329116724e-05 1.9240962105e+00 -3.3326323952e+00 1.9240962105e+00 3.3326323952e+00 
68400 6.2412147630e+00 2.0816180461e-05 1.9240962105e+00 -3.3326323952e+00 1.9240962105e+00 3.3326323952e+00 
68500 6.2412147637e+00 2.1303276220e-05 1.9240962105e+00 -3.3326323952e+00 1.9240962105e+00 3.3326323952e+00 
68600 6.2412147644e+00 2.1789882509e-05 1.9240962105e+00 -3.3326323952e+00 1.9240962105e+00 3.3326323952e+00 
68700 6.2412147650e+00 2.2275491836e-05 1.9240962105e+00 -3.3326323952e+00 1.9240962105e+00 3.3326323952e+00 
68800 6.2412147656e+00 2.2759610977e-05 1.9240962105e+00 -3.3326323952e+00 1.9240962105e+00 3.3326323952e+00 
68900 6.2412147662e+00 2.3241761231e-05 1.9240962105e+00 -3.3326323952e+00 1.9240962105e+00 3.3326323952e+00 
69000 6.2412147669e+00 2.3721478642e-05 1.9240962105e+00 -3.3326323952e+00 1.9240962105e+00 3.3326323952e+00 
69100 6.2412147675e+00 2.4198314204e-05 1.9240962105e+00 -3.3326323952e+00 1.9240962105e+00 3.3326323952e+00 
69200 6.2412147680e+00 2.4671834032e-05 1.9240962105e+00 -3.3326323952e+00 1.9240962105e+00 3.3326323952e+00 
69300 6.2412147686e+00 2.5141619512e-05 1.9240962105e+00 -3.3326323952e+00 1.9240962105e+00 3.3326323952e+00 
69400 6.2412147692e+00 2.5607267441e-05 1.9240962105e+00 -3.3326323952e+00 1.9240962105e+00 3.3326323952e+00 
69500 6.2412147697e+00 2.6068390123e-05 1.9240962105e+00 -3.3326323952e+00 1.9240962105e+00 3.3326323952e+00 
69600 6.2412147703e+00 2.6524615451e-05 1.9240962105e+00 -3.3326323952e+00 1.9240962105e+00 3.3326323952e+00 
69700 6.2412147708e+00 2.6975586978e-05 1.9240962105e+00 -3.3326323952e+00 1.9240962105e+00 3.3326323952e+00 
69800 6.2412147714e+00 2.7420963948e-05 1.9240962105e+00 -3.3326323952e+00 1.9240962105e+00 3.3326323952e+00 
69900 6.2412147719e+00 2.7860421318e-05 1.9240962105e+00 -3.3326323952e+00 1.9240962105e+00 3.3326323952e+00 
70000 6.2412147724e+00 2.8293649756e-05 1.9240962105e+00 -3.3326323952e+00 1.9240962105e+00 3.3326323952e+00 
70100 6.2412147729e+00 2.8720355618e-05 1.9240962105e+00 -3.3326323952e+00 1.9240962105e+00 3.3326323952e+00 
70200 6.2412147734e+00 2.9140260911e-05 1.9240962105e+00 -3.3326323952e+00 1.9240962105e+00 3.3326323952e+00 
70300 6.2412147739e+00 2.9553103231e-05 1.9240962105e+00 -3.3326323952e+00 1.9240962105e+00 3.3326323952e+00 
70400 6.2412147743e+00 2.9958635678e-05 1.9240962105e+00 -3.3326323952e+00 1.9240962105e+00 3.3326323952e+00 
70500 6.2412147748e+00 3.0356626779e-05 1.9240962105e+00 -3.3326323952e+00 1.9240962105e+00 3.3326323952e+00 
70600 6.2412147753e+00 3.0746860350e-05 1.9240962105e+00 -3.3326323952e+00 1.9240962105e+00 3.3326323952e+00 
70700 6.2412147757e+00 3.1129135388e-05 1.9240962105e+00 -3.3326323952e+00 1.9240962105e+00 3.3326323952e+00 
70800 6.2412147761e+00 3.1503265912e-05 1.9240962105e+00 -3.3326323952e+00 1.9240962105e+00 3.3326323952e+00 
70900 6.2412147766e+00 3.1869080817e-05 1.9240962105e+00 -3.3326323952e+00 1.9240962105e+00 3.3326323952e+00 
71000 6.2412147770e+00 3.2226423682e-05 1.9240962105e+00 -3.3326323952e+00 1.9240962105e+00 3.3326323952e+00 
71100 6.2412147774e+00 3.2575152594e-05 1.9240962105e+00 -3.3326323952e+00 1.9240962105e+00 3.3326323952e+00 
71200 6.2412147778e+00 3.2915139938e-05 1.9240962105e+00 -3.3326323952e+00 1.9240962105e+00 3.3326323952e+00 
71300 6.2412147782e+00 3.3246272186e-05 1.9240962105e+00 -3.3326323952e+00 1.9240962105e+00 3.3326323952e+00 
71400 6.2412147786e+00 3.3568449668e-05 1.9240962105e+00 -3.3326323952e+00 1.9240962105e+00 3.3326323952e+00 
71500 6.2412147790e+00 3.3881586333e-05 1.9240962105e+00 -3.3326323952e+00 1.9240962105e+00 3.3326323952e+00 
71600 6.2412147794e+00 3.4185609497e-05 1.9240962105e+00 -3.3326323952e+00 1.9240962105e+00 3.3326323952e+00 
71700 6.2412147798e+00 3.4480459582e-05 1.9240962105e+00 -3.3326323952e+00 1.9240962105e+00 3.3326323952e+00 
71800 6.2412147801e+00 3.4766089855e-05 1.9240962105e+00 -3.3326323952e+00 1.9240962105e+00 3.3326323952e+00 
71900 6.2412147805e+00 3.5042466134e-05 1.9240962105e+00 -3.3326323952e+00 1.9240962105e+00 3.3326323952e+00 
72000 6.2412147809e+00 3.5309566508e-05 1.9240962105e+00 -3.3326323952e+00 1.9240962105e+00 3.3326323952e+00 
72100 6.2412147812e+00 3.5567381041e-05 1.9240962105e+00 -3.3326323952e+00 1.9240962105e+00 3.3326323952e+00 
72200 6.2412147816e+00 3.5815911465e-05 1.9240962105e+00 -3.3326323952e+00 1.9240962105e+00 3.3326323952e+00 
72300 6.2412147819e+00 3.6055170878e-05 1.9240962105e+00 -3.3326323952e+00 1.9240962105e+00 3.3326323952e+00 
72400 6.2412147823e+00 3.6285183412e-05 1.9240962105e+00 -3.3326323952e+00 1.9240962105e+00 3.3326323952e+00 
72500 6.2412147826e+00 3.6505983927e-05 1.9240962105e+00 -3.3326323952e+00 1.9240962105e+00 3.3326323952e+00 
72600 6.2412147829e+00 3.6717617672e-05 1.9240962105e+00 -3.3326323952e+00 1.9240962105e+00 3.3326323952e+00 
72700 6.2412147832e+00 3.6920139960e-05 1.9240962105e+00 -3.3326323952e+00 1.9240962105e+00 3.3326323952e+00 
72800 6.2412147836e+00 3.7113615827e-05 1.9240962105e+00 -3.3326323952e+00 1.9240962105e+00 3.3326323952e+00 
72900 6.2412147839e+00 3.7298119697e-05 1.9240962105e+00 -3.3326323952e+00 1.9240962105e+00 3.3326323952e+00 
73000 6.2412147842e+00 3.7473735035e-05 1.9240962105e+00 -3.3326323952e+00 1.9240962105e+00 3.3326323952e+00 
73100 6.2412147845e+00 3.7640554005e-05 1.9240962105e+00 -3.3326323952e+00 1.9240962105e+00 3.3326323952e+00 
73200 6.2412147848e+00 3.7798677122e-05 1.9240962105e+00 -3.3326323952e+00 1.9240962105e+00 3.3326323952e+00 
73300 6.2412147851e+00 3.7948212902e-05 1.9240962105e+00 -3.3326323952e+00 1.9240962105e+00 3.3326323952e+00 
73400 6.2412147854e+00 3.8089277520e-05 1.9240962105e+00 -3.3326323952e+00 1.9240962105e+00 3.3326323952e+00 
73500 6.2412147857e+00 3.8221994448e-05 1.9240962105e+00 -3.3326323952e+00 1.9240962105e+00 3.3326323952e+00 
73600 6.2412147860e+00 3.8346494112e-05 1.9240962105e+00 -3.3326323952e+00 1.9240962105e+00 3.3326323952e+00 
73700 6.2412147863e+00 3.8462913544e-05 1.9240962105e+00 -3.3326323952e+00 1.9240962105e+00 3.3326323952e+00 
73800 6.2412147866e+00 3.8571396029e-05 1.9240962105e+00 -3.3326323952e+00 1.9240962105e+00 3.3326323952e+00 
73900 6.2412147868e+00 3.8672090763e-05 1.9240962105e+00 -3.3326323952e+00 1.9240962105e+00 3.3326323952e+00 
74000 6.2412147871e+00 3.8765152498e-05 1.9240962105e+00 -3.3326323952e+00 1.9240962105e+00 3.3326323952e+00 
74100 6.2412147874e+00 3.8850741207e-05 1.9240962105e+00 -3.3326323952e+00 1.9240962105e+00 3.3326323952e+00 
74200 6.2412147877e+00 3.8929021738e-05 1.9240962105e+00 -3.3326323952e+00 1.9240962105e+00 3.3326323952e+00 
74300 6.2412147879e+00 3.9000163478e-05 1.9240962105e+00 -3.3326323952e+00 1.9240962105e+00 3.3326323952e+00 
74400 6.2412147882e+00 3.9064340014e-05 1.9240962105e+00 -3.3326323952e+00 1.9240962105e+00 3.3326323952e+00 
74500 6.2412147885e+00 3.9121728806e-05 1.9240962105e+00 -3.3326323952e+00 1.9240962105e+00 3.3326323952e+00 
74600 6.2412147887e+00 3.9172510853e-05 1.9240962105e+00 -3.3326323952e+00 1.9240962105e+00 3.3326323952e+00 
74700 6.2412147890e+00 3.9216870372e-05 1.9240962105e+00 -3.3326323952e+00 1.9240962105e+00 3.3326323952e+00 
74800 6.2412147892e+00 3.9254994482e-05 1.9240962105e+00 -3.3326323952e+00 1.9240962105e+00 3.3326323952e+00 
74900 6.2412147895e+00 3.9287072886e-05 1.9240962105e+00 -3.3326323952e+00 1.9240962105e+00 3.3326323952e+00 
75000 6.2412147897e+00 3.9313297557e-05 1.9240962105e+00 -3.3326323952e+00 1.9240962105e+00 3.3326323952e+00 
75100 6.2412147900e+00 3.9333862440e-05 1.9240962105e+00 -3.3326323952e+00 1.9240962105e+00 3.3326323952e+00 
75200 6.2412147902e+00 3.9348963153e-05 1.9240962105e+00 -3.3326323952e+00 1.9240962105e+00 3.3326323952e+00 
75300 6.2412147905e+00 3.9358796691e-05 1.9240962105e+00 -3.3326323952e+00 1.9240962105e+00 3.3326323952e+00 
75400 6.2412147907e+00 3.9363561134e-05 1.9240962105e+00 -3.3326323952e+00 1.9240962105e+00 3.3326323952e+00 
75500 6.2412147910e+00 3.9363455380e-05 1.9240962105e+00 -3.3326323952e+00 1.9240962105e+00 3.3326323952e+00 
75600 6.2412147912e+00 3.9358678858e-05 1.9240962105e+00 -3.3326323952e+00 1.9240962105e+00 3.3326323952e+00 
75700 6.2412147914e+00 3.9349431263e-05 1.9240962105e+00 -3.3326323952e+00 1.9240962105e+00 3.3326323952e+00 
75800 6.2412147916e+00 3.9335912296e-05 1.9240962105e+00 -3.3326323952e+00 1.9240962105e+00 3.3326323952e+00 
75900 6.2412147919e+00 3.9318321415e-05 1.9240962105e+00 -3.3326323952e+00 1.9240962105e+00 3.3326323952e+00 
76000 6.2412147921e+00 3.9296857574e-05 1.9240962105e+00 -3.3326323952e+00 1.9240962105e+00 3.3326323952e+00 
76100 6.2412147923e+00 3.9271718996e-05 1.9240962105e+00 -3.3326323952e+00 1.9240962105e+00 3.3326323952e+00 
76200 6.2412147925e+00 3.9243102933e-05 1.9240962105e+00 -3.3326323952e+00 1.9240962105e+00 3.3326323952e+00 
76300 6.2412147927e+00 3.9211205444e-05 1.9240962105e+00 -3.3326323952e+00 1.9240962105e+00 3.3326323952e+00 
76400 6.2412147930e+00 3.9176221179e-05 1.9240962105e+00 -3.3326323952e+00 1.9240962105e+00 3.3326323952e+00 
76500 6.2412147932e+00 3.9138343155e-05 1.9240962105e+00 -3.3326323952e+00 1.9240962105e+00 3.3326323952e+00 
76600 6.2412147934e+00 3.9097762576e-05 1.9240962105e+00 -3.3326323952e+00 1.9240962105e+00 3.3326323952e+00 
76700 6.2412147936e+00 3.9054668618e-05 1.9240962105e+00 -3.3326323952e+00 1.9240962105e+00 3.3326323952e+00 
76800 6.2412147938e+00 3.9009248249e-05 1.9240962105e+00 -3.3326323952e+00 1.9240962105e+00 3.3326323952e+00 
76900 6.2412147940e+00 3.8961686052e-05 1.9240962105e+00 -3.3326323952e+00 1.9240962105e+00 3.3326323952e+00 
77000 6.2412147942e+00 3.8912164053e-05 1.9240962105e+00 -3.3326323952e+00 1.9240962105e+00 3.3326323952e+00 
77100 6.2412147944e+00 3.8860861547e-05 1.9240962105e+00 -3.3326323952e+00 1.9240962105e+00 3.3326323952e+00 
77200 6.2412147946e+00 3.8807954955e-05 1.9240962105e+00 -3.3326323952e+00 1.9240962105e+00 3.3326323952e+00 
77300 6.2412147948e+00 3.8753617673e-05 1.9240962105e+00 -3.3326323952e+00 1.9240962105e+00 3.3326323952e+00 
77400 6.2412147949e+00 3.8698019920e-05 1.9240962105e+00 -3.3326323952e+00 1.9240962105e+00 3.3326323952e+00 
77500 6.2412147951e+00 3.8641328623e-05 1.9240962105e+00 -3.3326323952e+00 1.9240962105e+00 3.3326323952e+00 
77600 6.2412147953e+00 3.8583707275e-05 1.9240962105e+00 -3.3326323952e+00 1.9240962105e+00 3.3326323952e+00 
77700 6.2412147955e+00 3.8525315830e-05 1.9240962105e+00 -3.3326323952e+00 1.9240962105e+00 3.3326323952e+00 
77800 6.2412147957e+00 3.8466310587e-05 1.9240962105e+00 -3.3326323952e+00 1.9240962105e+00 3.3326323952e+00 
77900 6.2412147958e+00 3.8406844092e-05 1.9240962105e+00 -3.3326323952e+00 1.9240962105e+00 3.3326323952e+00 
78000 6.2412147960e+00 3.8347065037e-05 1.9240962105e+00 -3.3326323952e+00 1.9240962105e+00 3.3326323952e+00 
78100 6.2412147962e+00 3.8287118178e-05 1.9240962105e+00 -3.3326323952e+00 1.9240962105e+00 3.3326323952e+00 
78200 6.2412147964e+00 3.8227144255e-05 1.9240962105e+00 -3.3326323952e+00 1.9240962105e+00 3.3326323952e+00 
78300 6.2412147965e+00 3.8167279916e-05 1.9240962105e+00 -3.3326323952e+00 1.9240962105e+00 3.3326323952e+00 
78400 6.2412147967e+00 3.8107657653e-05 1.9240962105e+00 -3.3326323952e+00 1.9240962105e+00 3.3326323952e+00 
78500 6.2412147968e+00 3.8048405748e-05 1.9240962105e+00 -3.3326323952e+00 1.9240962105e+00 3.3326323952e+00 
78600 6.2412147970e+00 3.7989648214e-05 1.9240962105e+00 -3.3326323952e+00 1.9240962105e+00 3.3326323952e+00 
78700 6.2412147972e+00 3.7931504753e-05 1.9240962105e+00 -3.3326323952e+00 1.9240962105e+00 3.3326323952e+00 
78800 6.2412147973e+00 3.7874090725e-05 1.9240962105e+00 -3.3326323952e+00 1.9240962105e+00 3.3326323952e+00 
78900 6.2412147975e+00 3.7817517101e-05 1.9240962105e+00 -3.3326323952e+00 1.9240962105e+00 3.3326323952e+00 
79000 6.2412147976e+00 3.7761890455e-05 1.9240962105e+00 -3.3326323952e+00 1.9240962105e+00 3.3326323952e+00 
79100 6.2412147978e+00 3.7707312933e-05 1.9240962105e+00 -3.3326323952e+00 1.9240962105e+00 3.3326323952e+00 
79200 6.2412147979e+00 3.7653882252e-05 1.9240962105e+00 -3.3326323952e+00 1.9240962105e+00 3.3326323952e+00 
79300 6.2412147981e+00 3.7601691680e-05 1.9240962105e+00 -3.3326323952e+00 1.9240962105e+00 3.3326323952e+00 
79400 6.2412147982e+00 3.7550830044e-05 1.9240962105e+00 -3.3326323952e+00 1.9240962105e+00 3.3326323952e+00 
79500 6.2412147983e+00 3.7501381734e-05 1.9240962105e+00 -3.3326323952e+00 1.9240962105e+00 3.3326323952e+00 
79600 6.2412147985e+00 3.7453426714e-05 1.9240962105e+00 -3.3326323952e+00 1.9240962105e+00 3.3326323952e+00 
79700 6.2412147986e+00 3.7407040532e-05 1.9240962105e+00 -3.3326323952e+00 1.9240962105e+00 3.3326323952e+00 
79800 6.2412147987e+00 3.7362294353e-05 1.9240962105e+00 -3.3326323952e+00 1.9240962105e+00 3.3326323952e+00 
79900 6.2412147989e+00 3.7319254972e-05 1.9240962105e+00 -3.3326323952e+00 1.9240962105e+00 3.3326323952e+00 
80000 6.2412147990e+00 3.7277984856e-05 1.9240962105e+00 -3.3326323952e+00 1.9240962105e+00 3.3326323952e+00 
80100 6.2412147991e+00 3.7238542173e-05 1.9240962105e+00 -3.3326323952e+00 1.9240962105e+00 3.3326323952e+00 
80200 6.2412147993e+00 3.7200980835e-05 1.9240962105e+00 -3.3326323952e+00 1.9240962105e+00 3.3326323952e+00 
80300 6.2412147994e+00 3.7165350545e-05 1.9240962105e+00 -3.3326323952e+00 1.9240962105e+00 3.3326323952e+00 
80400 6.2412147995e+00 3.7131696842e-05 1.9240962105e+00 -3.3326323952e+00 1.9240962105e+00 3.3326323952e+00 
80500 6.2412147996e+00 3.7100061155e-05 1.9240962105e+00 -3.3326323952e+00 1.9240962105e+00 3.3326323952e+00 
80600 6.2412147997e+00 3.7070480863e-05 1.9240962105e+00 -3.3326323952e+00 1.9240962105e+00 3.3326323952e+00 
80700 6.2412147999e+00 3.7042989356e-05 1.9240962105e+00 -3.3326323952e+00 1.9240962105e+00 3.3326323952e+00 
80800 6.2412148000e+00 3.7017616091e-05 1.9240962105e+00 -3.3326323952e+00 1.9240962105e+00 3.3326323952e+00 
80900 6.2412148001e+00 3.6994386667e-05 1.9240962105e+00 -3.3326323952e+00 1.9240962105e+00 3.3326323952e+00 
81000 6.2412148002e+00 3.6973322900e-05 1.9240962105e+00 -3.3326323952e+00 1.9240962105e+00 3.3326323952e+00 
81100 6.2412148003e+00 3.6954442886e-05 1.9240962105e+00 -3.3326323952e+00 1.9240962105e+00 3.3326323952e+00 
81200 6.2412148004e+00 3.6937761083e-05 1.9240962105e+00 -3.3326323952e+00 1.9240962105e+00 3.3326323952e+00 
81300 6.2412148005e+00 3.6923288388e-05 1.9240962105e+00 -3.3326323952e+00 1.9240962105e+00 3.3326323952e+00 
81400 6.2412148006e+00 3.6911032224e-05 1.9240962105e+00 -3.3326323952e+00 1.9240962105e+00 3.3326323952e+00 
81500 6.2412148007e+00 3.6900996618e-05 1.9240962105e+00 -3.3326323952e+00 1.9240962105e+00 3.3326323952e+00 
81600 6.2412148008e+00 3.6893182291e-05 1.9240962105e+00 -3.3326323952e+00 1.9240962105e+00 3.3326323952e+00 
81700 6.2412148009e+00 3.6887586737e-05 1.9240962105e+00 -3.3326323952e+00 1.9240962105e+00 3.3326323952e+00 
81800 6.2412148010e+00 3.6884204334e-05 1.9240962105e+00 -3.3326323952e+00 1.9240962105e+00 3.3326323952e+00 
81900 6.2412148011e+00 3.6883026410e-05 1.9240962105e+00 -3.3326323952e+00 1.9240962105e+00 3.3326323952e+00 
82000 6.2412148012e+00 3.6884041352e-05 1.9240962105e+00 -3.3326323952e+00 1.9240962105e+00 3.3326323952e+00 
82100 6.2412148013e+00 3.6887234697e-05 1.9240962105e+00 -3.3326323952e+00 1.9240962105e+00 3.3326323952e+00 
82200 6.2412148014e+00 3.6892589227e-05 1.9240962105e+00 -3.3326323952e+00 1.9240962105e+00 3.3326323952e+00 
82300 6.2412148015e+00 3.6900085062e-05 1.9240962105e+00 -3.3326323952e+00 1.9240962105e+00 3.3326323952e+00 
82400 6.2412148016e+00 3.6909699763e-05 1.9240962105e+00 -3.3326323952e+00 1.9240962105e+00 3.3326323952e+00 
82500 6.2412148017e+00 3.6921408426e-05 1.9240962105e+00 -3.3326323952e+00 1.9240962105e+00 3.3326323952e+00 
82600 6.2412148018e+00 3.6935183788e-05 1.9240962105e+00 -3.3326323952e+00 1.9240962105e+00 3.3326323952e+00 
82700 6.2412148019e+00 3.6950996314e-05 1.9240962105e+00 -3.3326323952e+00 1.9240962105e+00 3.3326323952e+00 
82800 6.2412148020e+00 3.6968814305e-05 1.9240962105e+00 -3.3326323952e+00 1.9240962105e+00 3.3326323952e+00 
82900 6.2412148021e+00 3.6988603994e-05 1.9240962105e+00 -3.3326323952e+00 1.9240962105e+00 3.3326323952e+00 
83000 6.2412148022e+00 3.7010329653e-05 1.9240962105e+00 -3.3326323952e+00 1.9240962105e+00 3.3326323952e+00 
83100 6.2412148022e+00 3.7033953679e-05 1.9240962105e+00 -3.3326323952e+00 1.9240962105e+00 3.3326323952e+00 
83200 6.2412148023e+00 3.7059436710e-05 1.9240962105e+00 -3.3326323952e+00 1.9240962105e+00 3.3326323952e+00 
83300 6.2412148024e+00 3.7086737704e-05 1.9240962105e+00 -3.3326323952e+00 1.9240962105e+00 3.3326323952e+00 
83400 6.2412148025e+00 3.7115814057e-05 1.9240962105e+00 -3.3326323952e+00 1.9240962105e+00 3.3326323952e+00 
83500 6.2412148026e+00 3.7146621690e-05 1.9240962105e+00 -3.3326323952e+00 1.9240962105e+00 3.3326323952e+00 
83600 6.2412148027e+00 3.7179115148e-05 1.9240962105e+00 -3.3326323952e+00 1.9240962105e+00 3.3326323952e+00 
83700 6.2412148027e+00 3.7213247695e-05 1.9240962105e+00 -3.3326323952e+00 1.9240962105e+00 3.3326323952e+00 
83800 6.2412148028e+00 3.7248971414e-05 1.9240962105e+00 -3.3326323952e+00 1.9240962105e+00 3.3326323952e+00 
83900 6.2412148029e+00 3.7286237300e-05 1.9240962105e+00 -3.3326323952e+00 1.9240962105e+00 3.3326323952e+00 
84000 6.2412148030e+00 3.7324995351e-05 1.9240962105e+00 -3.3326323952e+00 1.9240962105e+00 3.3326323952e+00 
84100 6.2412148030e+00 3.7365194659e-05 1.9240962105e+00 -3.3326323952e+00 1.9240962105e+00 3.3326323952e+00 
84200 6.2412148031e+00 3.7406783509e-05 1.9240962105e+00 -3.3326323952e+00 1.9240962105e+00 3.3326323952e+00 
84300 6.2412148032e+00 3.7449709460e-05 1.9240962105e+00 -3.3326323952e+00 1.9240962105e+00 3.3326323952e+00 
84400 6.2412148033e+00 3.7493919438e-05 1.9240962105e+00 -3.3326323952e+00 1.9240962105e+00 3.3326323952e+00 
84500 6.2412148033e+00 3.7539359819e-05 1.9240962105e+00 -3.3326323952e+00 1.9240962105e+00 3.3326323952e+00 
84600 6.2412148034e+00 3.7585976521e-05 1.9240962105e+00 -3.3326323952e+00 1.9240962105e+00 3.3326323952e+00 
84700 6.2412148035e+00 3.7633715077e-05 1.9240962105e+00 -3.3326323952e+00 1.9240962105e+00 3.3326323952e+00 
84800 6.2412148035e+00 3.7682520726e-05 1.9240962105e+00 -3.3326323952e+00 1.9240962105e+00 3.3326323952e+00 
84900 6.2412148036e+00 3.7732338490e-05 1.9240962105e+00 -3.3326323952e+00 1.9240962105e+00 3.3326323952e+00 
85000 6.2412148037e+00 3.7783113250e-05 1.9240962105e+00 -3.3326323952e+00 1.9240962105e+00 3.3326323952e+00 
85100 6.2412148037e+00 3.7834789827e-05 1.9240962105e+00 -3.3326323952e+00 1.9240962105e+00 3.3326323952e+00 
85200 6.2412148038e+00 3.7887313050e-05 1.9240962105e+00 -3.3326323952e+00 1.9240962105e+00 3.3326323952e+00 
85300 6.2412148039e+00 3.7940627831e-05 1.9240962105e+00 -3.3326323952e+00 1.9240962105e+00 3.3326323952e+00 
85400 6.2412148039e+00 3.7994679242e-05 1.9240962105e+00 -3.3326323952e+00 1.9240962105e+00 3.3326323952e+00 
85500 6.2412148040e+00 3.8049412572e-05 1.9240962105e+00 -3.3326323952e+00 1.9240962105e+00 3.3326323952e+00 
85600 6.2412148041e+00 3.8104773402e-05 1.9240962105e+00 -3.3326323952e+00 1.9240962105e+00 3.3326323952e+00 
85700 6.2412148041e+00 3.8160707664e-05 1.9240962105e+00 -3.3326323952e+00 1.9240962105e+00 3.3326323952e+00 
85800 6.2412148042e+00 3.8217161706e-05 1.9240962105e+00 -3.3326323952e+00 1.9240962105e+00 3.3326323952e+00 
85900 6.2412148043e+00 3.8274082349e-05 1.9240962105e+00 -3.3326323952e+00 1.9240962105e+00 3.3326323952e+00 
86000 6.2412148043e+00 3.8331416949e-05 1.9240962105e+00 -3.3326323952e+00 1.9240962105e+00 3.3326323952e+00 
86100 6.2412148044e+00 3.8389113451e-05 1.9240962105e+00 -3.3326323952e+00 1.9240962105e+00 3.3326323952e+00 
86200 6.2412148044e+00 3.8447120435e-05 1.9240962105e+00 -3.3326323952e+00 1.9240962105e+00 3.3326323952e+00 
86300 6.2412148045e+00 3.8505387177e-05 1.9240962105e+00 -3.3326323952e+00 1.9240962105e+00 3.3326323952e+00 
86400 6.2412148045e+00 3.8563863697e-05 1.9240962105e+00 -3.3326323952e+00 1.9240962105e+00 3.3326323952e+00 
86500 6.2412148046e+00 3.8622500795e-05 1.9240962105e+00 -3.3326323952e+00 1.9240962105e+00 3.3326323952e+00 
86600 6.2412148047e+00 3.8681250109e-05 1.9240962105e+00 -3.3326323952e+00 1.9240962105e+00 3.3326323952e+00 
86700 6.2412148047e+00 3.8740064148e-05 1.9240962105e+00 -3.3326323952e+00 1.9240962105e+00 3.3326323952e+00 
86800 6.2412148048e+00 3.8798896336e-05 1.9240962105e+00 -3.3326323952e+00 1.9240962105e+00 3.3326323952e+00 
86900 6.2412148048e+00 3.8857701045e-05 1.9240962105e+00 -3.3326323952e+00 1.9240962105e+00 3.3326323952e+00 
87000 6.2412148049e+00 3.8916433637e-05 1.9240962105e+00 -3.3326323952e+00 1.9240962105e+00 3.3326323952e+00 
87100 6.2412148049e+00 3.8975050495e-05 1.9240962105e+00 -3.3326323952e+00 1.9240962105e+00 3.3326323952e+00 
87200 6.2412148050e+00 3.9033509046e-05 1.9240962105e+00 -3.3326323952e+00 1.9240962105e+00 3.3326323952e+00 
87300 6.2412148050e+00 3.9091767803e-05 1.9240962105e+00 -3.3326323952e+00 1.9240962105e+00 3.3326323952e+00 
87400 6.2412148051e+00 3.9149786385e-05 1.9240962105e+00 -3.3326323952e+00 1.9240962105e+00 3.3326323952e+00 
87500 6.2412148051e+00 3.9207525541e-05 1.9240962105e+00 -3.3326323952e+00 1.9240962105e+00 3.3326323952e+00 
87600 6.2412148052e+00 3.9245461761e-05 1.9240962105e+00 -3.3326323952e+00 1.9240962105e+00 3.3326323952e+00 
87600 6.2412148052e+00 3.9245461761e-05 1.9240962105e+00 -3.3326323952e+00 1.9240962105e+00 3.3326323952e+00 
