# step Hamiltonian StressXX CellTensor1 CellTensor2 CellTensor3 CellTensor4 
0 5.9877123975e+00 2.2276069159e-01 2.6408444507e+00 -4.5740767634e+00 2.6408444507e+00 4.5740767634e+00 
100 6.0114432858e+00 2.4908945700e-01 2.6408444507e+00 -4.5740767634e+00 2.6408444507e+00 4.5740767634e+00 
200 6.0337436533e+00 2.7397871216e-01 2.6361297620e+00 -4.5659106832e+00 2.6361297620e+00 4.5659106832e+00 
300 6.0553926798e+00 2.9706915703e-01 2.6309348638e+00 -4.5569128554e+00 2.6309348638e+00 4.5569128554e+00 
400 6.0764408749e+00 3.1862572908e-01 2.6252911915e+00 -4.5471377283e+00 2.6252911915e+00 4.5471377283e+00 
500 6.0969161707e+00 3.3887844679e-01 2.6192251464e+00 -4.5366310301e+00 2.6192251464e+00 4.5366310301e+00 
600 6.1168271838e+00 3.5802482052e-01 2.6127587568e+00 -4.5254309147e+00 2.6127587568e+00 4.5254309147e+00 
700 6.1361664102e+00 3.7623268812e-01 2.6059102881e+00 -4.5135690189e+00 2.6059102881e+00 4.5135690189e+00 
800 6.1549132172e+00 3.9364319483e-01 2.5986947960e+00 -4.5010714200e+00 2.5986947960e+00 4.5010714200e+00 
900 6.1730365598e+00 4.1037372025e-01 2.5911246222e+00 -4.4879594944e+00 2.5911246222e+00 4.4879594944e+00 
1000 6.1904973944e+00 4.2652062602e-01 2.5832098340e+00 -4.4742506791e+00 2.5832098340e+00 4.4742506791e+00 
1100 6.2072507962e+00 4.4216175302e-01 2.5749586128e+00 -4.4599591448e+00 2.5749586128e+00 4.4599591448e+00 
1200 6.2232478039e+00 4.5735863784e-01 2.5663775970e+00 -4.4450963894e+00 2.5663775970e+00 4.4450963894e+00 
1300 6.2384370247e+00 4.7215844684e-01 2.5574721839e+00 -4.4296717615e+00 2.5574721839e+00 4.4296717615e+00 
1400 6.2527660392e+00 4.8659564466e-01 2.5482467975e+00 -4.4136929235e+00 2.5482467975e+00 4.4136929235e+00 
1500 6.2661826408e+00 5.0069342605e-01 2.5387051266e+00 -4.3971662648e+00 2.5387051266e+00 4.3971662648e+00 
1600 6.2786359457e+00 5.1446494593e-01 2.5288503386e+00 -4.3800972712e+00 2.5288503386e+00 4.3800972712e+00 
1700 6.2900773990e+00 5.2791438610e-01 2.5186852716e+00 -4.3624908588e+00 2.5186852716e+00 4.3624908588e+00 
1800 6.3004617022e+00 5.4103789795e-01 2.5082126103e+00 -4.3443516772e+00 2.5082126103e+00 4.3443516772e+00 
1900 6.3097476752e+00 5.5382446005e-01 2.4974350455e+00 -4.3256843873e+00 2.4974350455e+00 4.3256843873e+00 
2000 6.3178990647e+00 5.6625668892e-01 2.4863554214e+00 -4.3064939155e+00 2.4863554214e+00 4.3064939155e+00 
2100 6.3248852986e+00 5.7831163856e-01 2.4749768698e+00 -4.2867856860e+00 2.4749768698e+00 4.2867856860e+00 
2200 6.3306821848e+00 5.8996162196e-01 2.4633029326e+00 -4.2665658336e+00 2.4633029326e+00 4.2665658336e+00 
2300 6.3352725407e+00 6.0117508229e-01 2.4513376709e+00 -4.2458413924e+00 2.4513376709e+00 4.2458413924e+00 
2400 6.3386467378e+00 6.1191753424e-01 2.4390857611e+00 -4.2246204622e+00 2.4390857611e+00 4.2246204622e+00 
2500 6.3408031386e+00 6.2215258442e-01 2.4265525749e+00 -4.2029123470e+00 2.4265525749e+00 4.2029123470e+00 
2600 6.3417483979e+00 6.3184302461e-01 2.4137442420e+00 -4.1807276637e+00 2.4137442420e+00 4.1807276637e+00 
2700 6.3414976009e+00 6.4095197287e-01 2.4006676932e+00 -4.1580784168e+00 2.4006676932e+00 4.1580784168e+00 
2800 6.3400742092e+00 6.4944401736e-01 2.3873306823e+00 -4.1349780362e+00 2.3873306823e+00 4.1349780362e+00 
2900 6.3375097958e+00 6.5728629969e-01 2.3737417860e+00 -4.1114413774e+00 2.3737417860e+00 4.1114413774e+00 
3000 6.3338435555e+00 6.6444946355e-01 2.3599103824e+00 -4.0874846837e+00 2.3599103824e+00 4.0874846837e+00 
3100 6.3291215970e+00 6.7090839414e-01 2.3458466094e+00 -4.0631255142e+00 2.3458466094e+00 4.0631255142e+00 
3200 6.3233960406e+00 6.7664268790e-01 2.3315613064e+00 -4.0383826437e+00 2.3315613064e+00 4.0383826437e+00 
3300 6.3167239615e+00 6.8163681813e-01 2.3170659456e+00 -4.0132759423e+00 2.3170659456e+00 4.0132759423e+00 
3400 6.3091662392e+00 6.8587999794e-01 2.3023725566e+00 -3.9878262461e+00 2.3023725566e+00 3.9878262461e+00 
3500 6.3007863809e+00 6.8936577789e-01 2.2874936518e+00 -3.9620552270e+00 2.2874936518e+00 3.9620552270e+00 
3600 6.2916493886e+00 6.9209144676e-01 2.2724421580e+00 -3.9359852749e+00 2.2724421580e+00 3.9359852749e+00 
3700 6.2818207335e+00 6.9405732097e-01 2.2572313579e+00 -3.9096393963e+00 2.2572313579e+00 3.9096393963e+00 
3800 6.2713654866e+00 6.9526601178e-01 2.2418748450e+00 -3.8830411358e+00 2.2418748450e+00 3.8830411358e+00 
3900 6.2603476347e+00 6.9572174784e-01 2.2263864929e+00 -3.8562145229e+00 2.2263864929e+00 3.8562145229e+00 
4000 6.2488295899e+00 6.9542981097e-01 2.2107804367e+00 -3.8291840407e+00 2.2107804367e+00 3.8291840407e+00 
4100 6.2368718852e+00 6.9439611837e-01 2.1950710674e+00 -3.8019746150e+00 2.1950710674e+00 3.8019746150e+00 
4200 6.2245330304e+00 6.9262696171e-01 2.1792730339e+00 -3.7746116183e+00 2.1792730339e+00 3.7746116183e+00 
4300 6.2118694976e+00 6.9012889526e-01 2.1634012501e+00 -3.7471208823e+00 2.1634012501e+00 3.7471208823e+00 
4400 6.1989357990e+00 6.8690875276e-01 2.1474709047e+00 -3.7195287147e+00 2.1474709047e+00 3.7195287147e+00 
4500 6.1857846214e+00 6.8297376672e-01 2.1314974700e+00 -3.6918619142e+00 2.1314974700e+00 3.6918619142e+00 
4600 6.1724669865e+00 6.7833176208e-01 2.1154967069e+00 -3.6641477796e+00 2.1154967069e+00 3.6641477796e+00 
4700 6.1590324092e+00 6.7299139782e-01 2.0994846653e+00 -3.6364141101e+00 2.0994846653e+00 3.6364141101e+00 
4800 6.1455290351e+00 6.6696243344e-01 2.0834776767e+00 -3.6086891925e+00 2.0834776767e+00 3.6086891925e+00 
4900 6.1320037428e+00 6.6025600080e-01 2.0674923398e+00 -3.5810017767e+00 2.0674923398e+00 3.5810017767e+00 
5000 6.1185022024e+00 6.5288486582e-01 2.0515454968e+00 -3.5533810345e+00 2.0515454968e+00 3.5533810345e+00 
5100 6.1050688870e+00 6.4486366753e-01 2.0356542017e+00 -3.5258565040e+00 2.0356542017e+00 3.5258565040e+00 
5200 6.0917470370e+00 6.3620912497e-01 2.0198356790e+00 -3.4984580190e+00 2.0198356790e+00 3.4984580190e+00 
5300 6.0785785807e+00 6.2694020460e-01 2.0041072743e+00 -3.4712156229e+00 2.0041072743e+00 3.4712156229e+00 
5400 6.0656040165e+00 6.1707824296e-01 1.9884863968e+00 -3.4441594695e+00 1.9884863968e+00 3.4441594695e+00 
5500 6.0528622625e+00 6.0664702093e-01 1.9729904543e+00 -3.4173197097e+00 1.9729904543e+00 3.4173197097e+00 
5600 6.0403904827e+00 5.9567278777e-01 1.9576367816e+00 -3.3907263685e+00 1.9576367816e+00 3.3907263685e+00 
5700 6.0282238963e+00 5.8418423411e-01 1.9424425639e+00 -3.3644092115e+00 1.9424425639e+00 3.3644092115e+00 
5800 6.0163955798e+00 5.7221241480e-01 1.9274247552e+00 -3.3383976038e+00 1.9274247552e+00 3.3383976038e+00 
5900 6.0049362688e+00 5.5979062348e-01 1.9125999939e+00 -3.3127203639e+00 1.9125999939e+00 3.3127203639e+00 
6000 5.9938741670e+00 5.4695422197e-01 1.8979845162e+00 -3.2874056141e+00 1.8979845162e+00 3.2874056141e+00 
6100 5.9832347706e+00 5.3374042836e-01 1.8835940700e+00 -3.2624806300e+00 1.8835940700e+00 3.2624806300e+00 
6200 5.9730407126e+00 5.2018806881e-01 1.8694438279e+00 -3.2379716918e+00 1.8694438279e+00 3.2379716918e+00 
6300 5.9633116329e+00 5.0633729840e-01 1.8555483047e+00 -3.2139039396e+00 1.8555483047e+00 3.2139039396e+00 
6400 5.9540640788e+00 4.9222929731e-01 1.8419212763e+00 -3.1903012341e+00 1.8419212763e+00 3.1903012341e+00 
6500 5.9453114377e+00 4.7790594862e-01 1.8285757054e+00 -3.1671860272e+00 1.8285757054e+00 3.1671860272e+00 
6600 5.9370639060e+00 4.6340950448e-01 1.8155236716e+00 -3.1445792415e+00 1.8155236716e+00 3.1445792415e+00 
6700 5.9293284931e+00 4.4878224735e-01 1.8027763101e+00 -3.1225001637e+00 1.8027763101e+00 3.1225001637e+00 
6800 5.9221090621e+00 4.3406615294e-01 1.7903437572e+00 -3.1009663505e+00 1.7903437572e+00 3.1009663505e+00 
6900 5.9154064054e+00 4.1930256117e-01 1.7782351057e+00 -3.0799935509e+00 1.7782351057e+00 3.0799935509e+00 
7000 5.9092183532e+00 4.0453186097e-01 1.7664583690e+00 -3.0595956445e+00 1.7664583690e+00 3.0595956445e+00 
7100 5.9035399133e+00 3.8979319448e-01 1.7550204551e+00 -3.0397845965e+00 1.7550204551e+00 3.0397845965e+00 
7200 5.8983634373e+00 3.7512418499e-01 1.7439271513e+00 -3.0205704307e+00 1.7439271513e+00 3.0205704307e+00 
7300 5.8936788109e+00 3.6056069290e-01 1.7331831183e+00 -3.0019612197e+00 1.7331831183e+00 3.0019612197e+00 
7400 5.8894736631e+00 3.4613660238e-01 1.7227918947e+00 -2.9839630925e+00 1.7227918947e+00 2.9839630925e+00 
7500 5.8857335908e+00 3.3188364125e-01 1.7127559108e+00 -2.9665802584e+00 1.7127559108e+00 2.9665802584e+00 
7600 5.8824423932e+00 3.1783123518e-01 1.7030765115e+00 -2.9498150471e+00 1.7030765115e+00 2.9498150471e+00 
7700 5.8795823125e+00 3.0400639688e-01 1.6937539883e+00 -2.9336679632e+00 1.6937539883e+00 2.9336679632e+00 
7800 5.8771342772e+00 2.9043364976e-01 1.6847876181e+00 -2.9181377545e+00 1.6847876181e+00 2.9181377545e+00 
7900 5.8750781417e+00 2.7713498522e-01 1.6761757096e+00 -2.9032214914e+00 1.6761757096e+00 2.9032214914e+00 
8000 5.8733929220e+00 2.6412985170e-01 1.6679156552e+00 -2.8889146575e+00 1.6679156552e+00 2.8889146575e+00 
8100 5.8720570209e+00 2.5143517346e-01 1.6600039879e+00 -2.8752112478e+00 1.6600039879e+00 2.8752112478e+00 
8200 5.8710484432e+00 2.3906539624e-01 1.6524364424e+00 -2.8621038745e+00 1.6524364424e+00 2.8621038745e+00 
8300 5.8703449962e+00 2.2703255699e-01 1.6452080189e+00 -2.8495838778e+00 1.6452080189e+00 2.8495838778e+00 
8400 5.8699244754e+00 2.1534637444e-01 1.6383130490e+00 -2.8376414395e+00 1.6383130490e+00 2.8376414395e+00 
8500 5.8697648332e+00 2.0401435720e-01 1.6317452622e+00 -2.8262656991e+00 1.6317452622e+00 2.8262656991e+00 
8600 5.8698443311e+00 1.9304192623e-01 1.6254978536e+00 -2.8154448700e+00 1.6254978536e+00 2.8154448700e+00 
8700 5.8701416736e+00 1.8243254826e-01 1.6195635497e+00 -2.8051663541e+00 1.6195635497e+00 2.8051663541e+00 
8800 5.8706361250e+00 1.7218787735e-01 1.6139346738e+00 -2.7954168552e+00 1.6139346738e+00 2.7954168552e+00 
8900 5.8713076088e+00 1.6230790150e-01 1.6086032093e+00 -2.7861824877e+00 1.6086032093e+00 2.7861824877e+00 
9000 5.8721367910e+00 1.5279109179e-01 1.6035608597e+00 -2.7774488820e+00 1.6035608597e+00 2.7774488820e+00 
9100 5.8731051474e+00 1.4363455176e-01 1.5987991068e+00 -2.7692012841e+00 1.5987991068e+00 2.7692012841e+00 
9200 5.8741950161e+00 1.3483416479e-01 1.5943092650e+00 -2.7614246499e+00 1.5943092650e+00 2.7614246499e+00 
9300 5.8753896373e+00 1.2638473790e-01 1.5900825316e+00 -2.7541037330e+00 1.5900825316e+00 2.7541037330e+00 
9400 5.8766731798e+00 1.1828014037e-01 1.5861100347e+00 -2.7472231665e+00 1.5861100347e+00 2.7472231665e+00 
9500 5.8780307574e+00 1.1051343606e-01 1.5823828756e+00 -2.7407675375e+00 1.5823828756e+00 2.7407675375e+00 
9600 5.8794484344e+00 1.0307700845e-01 1.5788921686e+00 -2.7347214557e+00 1.5788921686e+00 2.7347214557e+00 
9700 5.8809132235e+00 9.5962677799e-02 1.5756290763e+00 -2.7290696140e+00 1.5756290763e+00 2.7290696140e+00 
9800 5.8824130757e+00 8.9161809886e-02 1.5725848412e+00 -2.7237968441e+00 1.5725848412e+00 2.7237968441e+00 
9900 5.8839368634e+00 8.2665416135e-02 1.5697508137e+00 -2.7188881645e+00 1.5697508137e+00 2.7188881645e+00 
10000 5.8854743591e+00 7.6464245017e-02 1.5671184766e+00 -2.7143288229e+00 1.5671184766e+00 2.7143288229e+00 
10100 5.8870162090e+00 7.0548864798e-02 1.5646794659e+00 -2.7101043324e+00 1.5646794659e+00 2.7101043324e+00 
10200 5.8885539028e+00 6.4909737815e-02 1.5624255889e+00 -2.7062005031e+00 1.5624255889e+00 2.7062005031e+00 
10300 5.8900797417e+00 5.9537286569e-02 1.5603488393e+00 -2.7026034672e+00 1.5603488393e+00 2.7026034672e+00 
10400 5.8915868030e+00 5.4421951988e-02 1.5584414088e+00 -2.6992997007e+00 1.5584414088e+00 2.6992997007e+00 
10500 5.8930689040e+00 4.9554244285e-02 1.5566956974e+00 -2.6962760398e+00 1.5566956974e+00 2.6962760398e+00 
10600 5.8945205648e+00 4.4924786878e-02 1.5551043205e+00 -2.6935196942e+00 1.5551043205e+00 2.6935196942e+00 
10700 5.8959369703e+00 4.0524353838e-02 1.5536601143e+00 -2.6910182557e+00 1.5536601143e+00 2.6910182557e+00 
10800 5.8973139320e+00 3.6343901398e-02 1.5523561393e+00 -2.6887597047e+00 1.5523561393e+00 2.6887597047e+00 
10900 5.8986478505e+00 3.2374593989e-02 1.5511856820e+00 -2.6867324133e+00 1.5511856820e+00 2.6867324133e+00 
11000 5.8999356777e+00 2.8607825334e-02 1.5501422556e+00 -2.6849251457e+00 1.5501422556e+00 2.6849251457e+00 
11100 5.9011748803e+00 2.5035235068e-02 1.5492195989e+00 -2.6833270573e+00 1.5492195989e+00 2.6833270573e+00 
11200 5.9023634036e+00 2.1648721345e-02 1.5484116741e+00 -2.6819276906e+00 1.5484116741e+00 2.6819276906e+00 
11300 5.9034996370e+00 1.8440449897e-02 1.5477126645e+00 -2.6807169705e+00 1.5477126645e+00 2.6807169705e+00 
11400 5.9045823798e+00 1.5402859939e-02 1.5471169704e+00 -2.6796851980e+00 1.5471169704e+00 2.6796851980e+00 
11500 5.9056108089e+00 1.2528667331e-02 1.5466192048e+00 -2.6788230426e+00 1.5466192048e+00 2.6788230426e+00 
11600 5.9065844475e+00 9.8108653488e-03 1.5462141884e+00 -2.6781215338e+00 1.5462141884e+00 2.6781215338e+00 
11700 5.9075031350e+00 7.2427233981e-03 1.5458969449e+00 -2.6775720518e+00 1.5458969449e+00 2.6775720518e+00 
11800 5.9083669982e+00 4.8177839851e-03 1.5456626944e+00 -2.6771663181e+00 1.5456626944e+00 2.6771663181e+00 
11900 5.9091764247e+00 2.5298582121e-03 1.5455068486e+00 -2.6768963852e+00 1.5455068486e+00 2.6768963852e+00 
12000 5.9099320361e+00 3.7302005351e-04 1.5454250037e+00 -2.6767546257e+00 1.5454250037e+00 2.6767546257e+00 
12100 5.9106346641e+00 -1.6584003634e-03 1.5454129352e+00 -2.6767337224e+00 1.5454129352e+00 2.6767337224e+00 
12200 5.9112853272e+00 -3.5698242726e-03 1.5454665911e+00 -2.6768266572e+00 1.5454665911e+00 2.6768266572e+00 
12300 5.9118852088e+00 -5.3664324006e-03 1.5455820859e+00 -2.6770267001e+00 1.5455820859e+00 2.6770267001e+00 
12400 5.9124356362e+00 -7.0531735578e-03 1.5457556947e+00 -2.6773273994e+00 1.5457556947e+00 2.6773273994e+00 
12500 5.9129380621e+00 -8.6347735520e-03 1.5459838468e+00 -2.6777225703e+00 1.5459838468e+00 2.6777225703e+00 
12600 5.9133940458e+00 -1.0115744305e-02 1.5462631199e+00 -2.6782062855e+00 1.5462631199e+00 2.6782062855e+00 
12700 5.9138052367e+00 -1.1500393072e-02 1.5465902344e+00 -2.6787728644e+00 1.5465902344e+00 2.6787728644e+00 
12800 5.9141733581e+00 -1.2792831666e-02 1.5469620476e+00 -2.6794168638e+00 1.5469620476e+00 2.6794168638e+00 
12900 5.9145001934e+00 -1.3996985625e-02 1.5473755484e+00 -2.6801330682e+00 1.5473755484e+00 2.6801330682e+00 
13000 5.9147875716e+00 -1.5116603253e-02 1.5478278519e+00 -2.6809164808e+00 1.5478278519e+00 2.6809164808e+00 
13100 5.9150373552e+00 -1.6155264474e-02 1.5483161942e+00 -2.6817623146e+00 1.5483161942e+00 2.6817623146e+00 
13200 5.9152514289e+00 -1.7116389473e-02 1.5488379278e+00 -2.6826659837e+00 1.5488379278e+00 2.6826659837e+00 
13300 5.9154316884e+00 -1.8003247079e-02 1.5493905165e+00 -2.6836230954e+00 1.5493905165e+00 2.6836230954e+00 
13400 5.9155800311e+00 -1.8818962858e-02 1.5499715312e+00 -2.6846294423e+00 1.5499715312e+00 2.6846294423e+00 
13500 5.9156983472e+00 -1.9566526910e-02 1.5505786453e+00 -2.6856809947e+00 1.5505786453e+00 2.6856809947e+00 
13600 5.9157885116e+00 -2.0248801344e-02 1.5512096308e+00 -2.6867738937e+00 1.5512096308e+00 2.6867738937e+00 
13700 5.9158523766e+00 -2.0868527423e-02 1.5518623543e+00 -2.6879044440e+00 1.5518623543e+00 2.6879044440e+00 
13800 5.9158917654e+00 -2.1428332378e-02 1.5525347733e+00 -2.6890691078e+00 1.5525347733e+00 2.6890691078e+00 
13900 5.9159084664e+00 -2.1930735878e-02 1.5532249324e+00 -2.6902644984e+00 1.5532249324e+00 2.6902644984e+00 
14000 5.9159042278e+00 -2.2378156171e-02 1.5539309600e+00 -2.6914873743e+00 1.5539309600e+00 2.6914873743e+00 
14100 5.9158807535e+00 -2.2772915889e-02 1.5546510655e+00 -2.6927346335e+00 1.5546510655e+00 2.6927346335e+00 
14200 5.9158396985e+00 -2.3117247527e-02 1.5553835354e+00 -2.6940033086e+00 1.5553835354e+00 2.6940033086e+00 
14300 5.9157826660e+00 -2.3413298601e-02 1.5561267312e+00 -2.6952905614e+00 1.5561267312e+00 2.6952905614e+00 
14400 5.9157112045e+00 -2.3663136493e-02 1.5568790858e+00 -2.6965936779e+00 1.5568790858e+00 2.6965936779e+00 
14500 5.9156268051e+00 -2.3868753001e-02 1.5576391018e+00 -2.6979100642e+00 1.5576391018e+00 2.6979100642e+00 
14600 5.9155308997e+00 -2.4032068592e-02 1.5584053483e+00 -2.6992372420e+00 1.5584053483e+00 2.6992372420e+00 
14700 5.9154248595e+00 -2.4154936375e-02 1.5591764586e+00 -2.7005728443e+00 1.5591764586e+00 2.7005728443e+00 
14800 5.9153099939e+00 -2.4239145817e-02 1.5599511283e+00 -2.7019146116e+00 1.5599511283e+00 2.7019146116e+00 
14900 5.9151875496e+00 -2.4286426191e-02 1.5607281128e+00 -2.7032603882e+00 1.5607281128e+00 2.7032603882e+00 
15000 5.9150587101e+00 -2.4298449786e-02 1.5615062254e+00 -2.7046081187e+00 1.5615062254e+00 2.7046081187e+00 
15100 5.9149245957e+00 -2.4276834892e-02 1.5622843352e+00 -2.7059558445e+00 1.5622843352e+00 2.7059558445e+00 
15200 5.9147862638e+00 -2.4223148556e-02 1.5630613655e+00 -2.7073017005e+00 1.5630613655e+00 2.7073017005e+00 
15300 5.9146447089e+00 -2.4138909141e-02 1.5638362919e+00 -2.7086439123e+00 1.5638362919e+00 2.7086439123e+00 
15400 5.9145008634e+00 -2.4025588685e-02 1.5646081404e+00 -2.7099807931e+00 1.5646081404e+00 2.7099807931e+00 
15500 5.9143555984e+00 -2.3884615082e-02 1.5653759861e+00 -2.7113107409e+00 1.5653759861e+00 2.7113107409e+00 
15600 5.9142097251e+00 -2.3717374085e-02 1.5661389515e+00 -2.7126322357e+00 1.5661389515e+00 2.7126322357e+00 
15700 5.9140639955e+00 -2.3525211157e-02 1.5668962050e+00 -2.7139438372e+00 1.5668962050e+00 2.7139438372e+00 
15800 5.9139191038e+00 -2.3309433162e-02 1.5676469595e+00 -2.7152441822e+00 1.5676469595e+00 2.7152441822e+00 
15900 5.9137756883e+00 -2.3071309929e-02 1.5683904712e+00 -2.7165319821e+00 1.5683904712e+00 2.7165319821e+00 
16000 5.9136343327e+00 -2.2812075674e-02 1.5691260377e+00 -2.7178060208e+00 1.5691260377e+00 2.7178060208e+00 
16100 5.9134955676e+00 -2.2532930306e-02 1.5698529977e+00 -2.7190651524e+00 1.5698529977e+00 2.7190651524e+00 
16200 5.9133598729e+00 -2.2235040624e-02 1.5705707288e+00 -2.7203082992e+00 1.5705707288e+00 2.7203082992e+00 
16300 5.9132276790e+00 -2.1919541408e-02 1.5712786469e+00 -2.7215344493e+00 1.5712786469e+00 2.7215344493e+00 
16400 5.9130993692e+00 -2.1587536413e-02 1.5719762050e+00 -2.7227426554e+00 1.5719762050e+00 2.7227426554e+00 
16500 5.9129752813e+00 -2.1240099279e-02 1.5726628919e+00 -2.7239320319e+00 1.5726628919e+00 2.7239320319e+00 
16600 5.9128557100e+00 -2.0878274358e-02 1.5733382311e+00 -2.7251017537e+00 1.5733382311e+00 2.7251017537e+00 
16700 5.9127409085e+00 -2.0503077469e-02 1.5740017801e+00 -2.7262510544e+00 1.5740017801e+00 2.7262510544e+00 
16800 5.9126310909e+00 -2.0115496583e-02 1.5746531291e+00 -2.7273792240e+00 1.5746531291e+00 2.7273792240e+00 
16900 5.9125264339e+00 -1.9716492452e-02 1.5752919002e+00 -2.7284856079e+00 1.5752919002e+00 2.7284856079e+00 
17000 5.9124270792e+00 -1.9306999177e-02 1.5759177460e+00 -2.7295696046e+00 1.5759177460e+00 2.7295696046e+00 
17100 5.9123331353e+00 -1.8887924728e-02 1.5765303493e+00 -2.7306306647e+00 1.5765303493e+00 2.7306306647e+00 
17200 5.9122446794e+00 -1.8460151419e-02 1.5771294219e+00 -2.7316682888e+00 1.5771294219e+00 2.7316682888e+00 
17300 5.9121617596e+00 -1.8024536345e-02 1.5777147033e+00 -2.7326820260e+00 1.5777147033e+00 2.7326820260e+00 
17400 5.9120843969e+00 -1.7581911775e-02 1.5782859607e+00 -2.7336714729e+00 1.5782859607e+00 2.7336714729e+00 
17500 5.9120125868e+00 -1.7133085525e-02 1.5788429873e+00 -2.7346362713e+00 1.5788429873e+00 2.7346362713e+00 
17600 5.9119463014e+00 -1.6678841290e-02 1.5793856020e+00 -2.7355761074e+00 1.5793856020e+00 2.7355761074e+00 
17700 5.9118854913e+00 -1.6219938958e-02 1.5799136482e+00 -2.7364907102e+00 1.5799136482e+00 2.7364907102e+00 
17800 5.9118300872e+00 -1.5757114906e-02 1.5804269932e+00 -2.7373798499e+00 1.5804269932e+00 2.7373798499e+00 
17900 5.9117800016e+00 -1.5291082266e-02 1.5809255276e+00 -2.7382433367e+00 1.5809255276e+00 2.7382433367e+00 
18000 5.9117351308e+00 -1.4822531191e-02 1.5814091639e+00 -2.7390810195e+00 1.5814091639e+00 2.7390810195e+00 
18100 5.9116953559e+00 -1.4352129091e-02 1.5818778365e+00 -2.7398927842e+00 1.5818778365e+00 2.7398927842e+00 
18200 5.9116605450e+00 -1.3880520873e-02 1.5823315004e+00 -2.7406785530e+00 1.5823315004e+00 2.7406785530e+00 
18300 5.9116305544e+00 -1.3408329164e-02 1.5827701304e+00 -2.7414382825e+00 1.5827701304e+00 2.7414382825e+00 
18400 5.9116052301e+00 -1.2936154529e-02 1.5831937209e+00 -2.7421719627e+00 1.5831937209e+00 2.7421719627e+00 
18500 5.9115844088e+00 -1.2464575689e-02 1.5836022846e+00 -2.7428796159e+00 1.5836022846e+00 2.7428796159e+00 
18600 5.9115679199e+00 -1.1994149728e-02 1.5839958522e+00 -2.7435612950e+00 1.5839958522e+00 2.7435612950e+00 
18700 5.9115555863e+00 -1.1525412307e-02 1.5843744715e+00 -2.7442170828e+00 1.5843744715e+00 2.7442170828e+00 
18800 5.9115472253e+00 -1.1058877873e-02 1.5847382066e+00 -2.7448470906e+00 1.5847382066e+00 2.7448470906e+00 
18900 5.9115426506e+00 -1.0595039872e-02 1.5850871376e+00 -2.7454514567e+00 1.5850871376e+00 2.7454514567e+00 
19000 5.9115416724e+00 -1.0134370961e-02 1.5854213593e+00 -2.7460303457e+00 1.5854213593e+00 2.7460303457e+00 
19100 5.9115440989e+00 -9.6773232285e-03 1.5857409813e+00 -2.7465839473e+00 1.5857409813e+00 2.7465839473e+00 
19200 5.9115497372e+00 -9.2243284145e-03 1.5860461268e+00 -2.7471124748e+00 1.5860461268e+00 2.7471124748e+00 
19300 5.9115583939e+00 -8.7757981404e-03 1.5863369320e+00 -2.7476161642e+00 1.5863369320e+00 2.7476161642e+00 
19400 5.9115698763e+00 -8.3321241412e-03 1.5866135458e+00 -2.7480952733e+00 1.5866135458e+00 2.7480952733e+00 
19500 5.9115839927e+00 -7.8936785057e-03 1.5868761288e+00 -2.7485500804e+00 1.5868761288e+00 2.7485500804e+00 
19600 5.9116005535e+00 -7.4608139241e-03 1.5871248528e+00 -2.7489808830e+00 1.5871248528e+00 2.7489808830e+00 
19700 5.9116193717e+00 -7.0338639420e-03 1.5873599004e+00 -2.7493879974e+00 1.5873599004e+00 2.7493879974e+00 
19800 5.9116402630e+00 -6.6131432238e-03 1.5875814642e+00 -2.7497717571e+00 1.5875814642e+00 2.7497717571e+00 
19900 5.9116630473e+00 -6.1989478223e-03 1.5877897460e+00 -2.7501325118e+00 1.5877897460e+00 2.7501325118e+00 
20000 5.9116875482e+00 -5.7915554584e-03 1.5879849568e+00 -2.7504706269e+00 1.5879849568e+00 2.7504706269e+00 
20100 5.9117135941e+00 -5.3912258077e-03 1.5881673158e+00 -2.7507864819e+00 1.5881673158e+00 2.7507864819e+00 
20200 5.9117410180e+00 -4.9982007970e-03 1.5883370499e+00 -2.7510804699e+00 1.5883370499e+00 2.7510804699e+00 
20300 5.9117696586e+00 -4.6127049082e-03 1.5884943931e+00 -2.7513529965e+00 1.5884943931e+00 2.7513529965e+00 
20400 5.9117993597e+00 -4.2349454912e-03 1.5886395864e+00 -2.7516044786e+00 1.5886395864e+00 2.7516044786e+00 
20500 5.9118299710e+00 -3.8651130850e-03 1.5887728767e+00 -2.7518353442e+00 1.5887728767e+00 2.7518353442e+00 
20600 5.9118613484e+00 -3.5033817471e-03 1.5888945166e+00 -2.7520460306e+00 1.5888945166e+00 2.7520460306e+00 
20700 5.9118933537e+00 -3.1499093907e-03 1.5890047638e+00 -2.7522369843e+00 1.5890047638e+00 2.7522369843e+00 
20800 5.9119258551e+00 -2.8048381299e-03 1.5891038806e+00 -2.7524086597e+00 1.5891038806e+00 2.7524086597e+00 
20900 5.9119587271e+00 -2.4682946322e-03 1.5891921336e+00 -2.7525615184e+00 1.5891921336e+00 2.7525615184e+00 
21000 5.9119918506e+00 -2.1403904781e-03 1.5892697930e+00 -2.7526960285e+00 1.5892697930e+00 2.7526960285e+00 
21100 5.9120251132e+00 -1.8212225279e-03 1.5893371323e+00 -2.7528126635e+00 1.5893371323e+00 2.7528126635e+00 
21200 5.9120584087e+00 -1.5108732939e-03 1.5893944277e+00 -2.7529119020e+00 1.5893944277e+00 2.7529119020e+00 
21300 5.9120916377e+00 -1.2094113203e-03 1.5894419578e+00 -2.7529942265e+00 1.5894419578e+00 2.7529942265e+00 
21400 5.9121247069e+00 -9.1689156676e-04 1.5894800031e+00 -2.7530601229e+00 1.5894800031e+00 2.7530601229e+00 
21500 5.9121575297e+00 -6.3335579832e-04 1.5895088457e+00 -2.7531100798e+00 1.5895088457e+00 2.7531100798e+00 
21600 5.9121900254e+00 -3.5883297949e-04 1.5895287687e+00 -2.7531445875e+00 1.5895287687e+00 2.7531445875e+00 
21700 5.9122221198e+00 -9.3339672417e-05 1.5895400561e+00 -2.7531641379e+00 1.5895400561e+00 2.7531641379e+00 
21800 5.9122537447e+00 1.6311956129e-04 1.5895429922e+00 -2.7531692233e+00 1.5895429922e+00 2.7531692233e+00 
21900 5.9122848377e+00 4.1055175569e-04 1.5895378612e+00 -2.7531603361e+00 1.5895378612e+00 2.7531603361e+00 
22000 5.9123153422e+00 6.4897513322e-04 1.5895249470e+00 -2.7531379681e+00 1.5895249470e+00 2.7531379681e+00 
22100 5.9123452073e+00 8.7841869527e-04 1.5895045329e+00 -2.7531026099e+00 1.5895045329e+00 2.7531026099e+00 
22200 5.9123743875e+00 1.0989218115e-03 1.5894769012e+00 -2.7530547502e+00 1.5894769012e+00 2.7530547502e+00 
22300 5.9124028426e+00 1.3105338085e-03 1.5894423326e+00 -2.7529948758e+00 1.5894423326e+00 2.7529948758e+00 
22400 5.9124305374e+00 1.5133135573e-03 1.5894011066e+00 -2.7529234702e+00 1.5894011066e+00 2.7529234702e+00 
22500 5.9124574415e+00 1.7073290625e-03 1.5893535004e+00 -2.7528410139e+00 1.5893535004e+00 2.7528410139e+00 
22600 5.9124835293e+00 1.8926570511e-03 1.5892997893e+00 -2.7527479835e+00 1.5892997893e+00 2.7527479835e+00 
22700 5.9125087796e+00 2.0693825631e-03 1.5892402459e+00 -2.7526448513e+00 1.5892402459e+00 2.7526448513e+00 
22800 5.9125331755e+00 2.2375985443e-03 1.5891751403e+00 -2.7525320852e+00 1.5891751403e+00 2.7525320852e+00 
22900 5.9125567041e+00 2.3974054409e-03 1.5891047396e+00 -2.7524101475e+00 1.5891047396e+00 2.7524101475e+00 
23000 5.9125793563e+00 2.5489107975e-03 1.5890293076e+00 -2.7522794955e+00 1.5890293076e+00 2.7522794955e+00 
23100 5.9126011265e+00 2.6922288589e-03 1.5889491049e+00 -2.7521405803e+00 1.5889491049e+00 2.7521405803e+00 
23200 5.9126220127e+00 2.8274801747e-03 1.5888643884e+00 -2.7519938470e+00 1.5888643884e+00 2.7519938470e+00 
23300 5.9126420159e+00 2.9547912101e-03 1.5887754112e+00 -2.7518397340e+00 1.5887754112e+00 2.7518397340e+00 
23400 5.9126611403e+00 3.0742939599e-03 1.5886824225e+00 -2.7516786728e+00 1.5886824225e+00 2.7516786728e+00 
23500 5.9126793925e+00 3.1861255689e-03 1.5885856674e+00 -2.7515110881e+00 1.5885856674e+00 2.7515110881e+00 
23600 5.9126967820e+00 3.2904279580e-03 1.5884853866e+00 -2.7513373967e+00 1.5884853866e+00 2.7513373967e+00 
23700 5.9127133204e+00 3.3873474559e-03 1.5883818165e+00 -2.7511580080e+00 1.5883818165e+00 2.7511580080e+00 
23800 5.9127290216e+00 3.4770344383e-03 1.5882751888e+00 -2.7509733234e+00 1.5882751888e+00 2.7509733234e+00 
23900 5.9127439013e+00 3.5596429732e-03 1.5881657306e+00 -2.7507837363e+00 1.5881657306e+00 2.7507837363e+00 
24000 5.9127579772e+00 3.6353304741e-03 1.5880536642e+00 -2.7505896315e+00 1.5880536642e+00 2.7505896315e+00 
24100 5.9127712684e+00 3.7042573607e-03 1.5879392069e+00 -2.7503913857e+00 1.5879392069e+00 2.7503913857e+00 
24200 5.9127837955e+00 3.7665867269e-03 1.5878225711e+00 -2.7501893665e+00 1.5878225711e+00 2.7501893665e+00 
24300 5.9127955803e+00 3.8224840184e-03 1.5877039640e+00 -2.7499839330e+00 1.5877039640e+00 2.7499839330e+00 
24400 5.9128066458e+00 3.8721167168e-03 1.5875835878e+00 -2.7497754353e+00 1.5875835878e+00 2.7497754353e+00 
24500 5.9128170158e+00 3.9156540346e-03 1.5874616393e+00 -2.7495642144e+00 1.5874616393e+00 2.7495642144e+00 
24600 5.9128267148e+00 3.9532666171e-03 1.5873383103e+00 -2.7493506022e+00 1.5873383103e+00 2.7493506022e+00 
24700 5.9128357683e+00 3.9851262543e-03 1.5872137869e+00 -2.7491349213e+00 1.5872137869e+00 2.7491349213e+00 
24800 5.9128442018e+00 4.0114056025e-03 1.5870882501e+00 -2.7489174853e+00 1.5870882501e+00 2.7489174853e+00 
24900 5.9128520416e+00 4.0322779138e-03 1.5869618755e+00 -2.7486985981e+00 1.5869618755e+00 2.7486985981e+00 
25000 5.9128593141e+00 4.0479167768e-03 1.5868348333e+00 -2.7484785545e+00 1.5868348333e+00 2.7484785545e+00 
25100 5.9128660457e+00 4.0584958652e-03 1.5867072881e+00 -2.7482576397e+00 1.5867072881e+00 2.7482576397e+00 
25200 5.9128722631e+00 4.0641886974e-03 1.5865793993e+00 -2.7480361299e+00 1.5865793993e+00 2.7480361299e+00 
25300 5.9128779927e+00 4.0651684045e-03 1.5864513208e+00 -2.7478142914e+00 1.5864513208e+00 2.7478142914e+00 
25400 5.9128832609e+00 4.0616075095e-03 1.5863232011e+00 -2.7475923816e+00 1.5863232011e+00 2.7475923816e+00 
25500 5.9128880936e+00 4.0536777145e-03 1.5861951833e+00 -2.7473706482e+00 1.5861951833e+00 2.7473706482e+00 
25600 5.9128925168e+00 4.0415496985e-03 1.5860674051e+00 -2.7471493298e+00 1.5860674051e+00 2.7471493298e+00 
25700 5.9128965558e+00 4.0253929254e-03 1.5859399989e+00 -2.7469286559e+00 1.5859399989e+00 2.7469286559e+00 
25800 5.9129002354e+00 4.0053754599e-03 1.5858130919e+00 -2.7467088464e+00 1.5858130919e+00 2.7467088464e+00 
25900 5.9129035801e+00 3.9816637944e-03 1.5856868058e+00 -2.7464901125e+00 1.5856868058e+00 2.7464901125e+00 
26000 5.9129066136e+00 3.9544226848e-03 1.5855612573e+00 -2.7462726562e+00 1.5855612573e+00 2.7462726562e+00 
26100 5.9129093591e+00 3.9238149955e-03 1.5854365579e+00 -2.7460566705e+00 1.5854365579e+00 2.7460566705e+00 
26200 5.9129118391e+00 3.8900015535e-03 1.5853128140e+00 -2.7458423397e+00 1.5853128140e+00 2.7458423397e+00 
26300 5.9129140754e+00 3.8531410121e-03 1.5851901268e+00 -2.7456298392e+00 1.5851901268e+00 2.7456298392e+00 
26400 5.9129160890e+00 3.8133897227e-03 1.5850685927e+00 -2.7454193361e+00 1.5850685927e+00 2.7454193361e+00 
26500 5.9129179003e+00 3.7709016164e-03 1.5849483032e+00 -2.7452109886e+00 1.5849483032e+00 2.7452109886e+00 
26600 5.9129195286e+00 3.7258280928e-03 1.5848293450e+00 -2.7450049468e+00 1.5848293450e+00 2.7450049468e+00 
26700 5.9129209927e+00 3.6783179188e-03 1.5847117997e+00 -2.7448013525e+00 1.5847117997e+00 2.7448013525e+00 
26800 5.9129223105e+00 3.6285171340e-03 1.5845957448e+00 -2.7446003394e+00 1.5845957448e+00 2.7446003394e+00 
26900 5.9129234990e+00 3.5765689656e-03 1.5844812527e+00 -2.7444020333e+00 1.5844812527e+00 2.7444020333e+00 
27000 5.9129245743e+00 3.5226137500e-03 1.5843683916e+00 -2.7442065521e+00 1.5843683916e+00 2.7442065521e+00 
27100 5.9129255519e+00 3.4667888625e-03 1.5842572251e+00 -2.7440140062e+00 1.5842572251e+00 2.7440140062e+00 
27200 5.9129264462e+00 3.4092286544e-03 1.5841478127e+00 -2.7438244983e+00 1.5841478127e+00 2.7438244983e+00 
27300 5.9129272709e+00 3.3500643970e-03 1.5840402094e+00 -2.7436381239e+00 1.5840402094e+00 2.7436381239e+00 
27400 5.9129280389e+00 3.2894242331e-03 1.5839344663e+00 -2.7434549715e+00 1.5839344663e+00 2.7434549715e+00 
27500 5.9129287622e+00 3.2274331341e-03 1.5838306303e+00 -2.7432751222e+00 1.5838306303e+00 2.7432751222e+00 
27600 5.9129294521e+00 3.1642128649e-03 1.5837287444e+00 -2.7430986508e+00 1.5837287444e+00 2.7430986508e+00 
27700 5.9129301189e+00 3.0998819542e-03 1.5836288479e+00 -2.7429256249e+00 1.5836288479e+00 2.7429256249e+00 
27800 5.9129307724e+00 3.0345556709e-03 1.5835309762e+00 -2.7427561061e+00 1.5835309762e+00 2.7427561061e+00 
27900 5.9129314214e+00 2.9683460065e-03 1.5834351610e+00 -2.7425901494e+00 1.5834351610e+00 2.7425901494e+00 
28000 5.9129320740e+00 2.9013616627e-03 1.5833414308e+00 -2.7424278038e+00 1.5833414308e+00 2.7424278038e+00 
28100 5.9129327379e+00 2.8337080449e-03 1.5832498102e+00 -2.7422691123e+00 1.5832498102e+00 2.7422691123e+00 
28200 5.9129334196e+00 2.7654872599e-03 1.5831603208e+00 -2.7421141121e+00 1.5831603208e+00 2.7421141121e+00 
28300 5.9129341253e+00 2.6967981192e-03 1.5830729808e+00 -2.7419628349e+00 1.5830729808e+00 2.7419628349e+00 
28400 5.9129348604e+00 2.6277361461e-03 1.5829878056e+00 -2.7418153070e+00 1.5829878056e+00 2.7418153070e+00 
28500 5.9129356297e+00 2.5583935883e-03 1.5829048070e+00 -2.7416715493e+00 1.5829048070e+00 2.7416715493e+00 
28600 5.9129364375e+00 2.4888594334e-03 1.5828239945e+00 -2.7415315779e+00 1.5828239945e+00 2.7415315779e+00 
28700 5.9129372874e+00 2.4192194289e-03 1.5827453743e+00 -2.7413954037e+00 1.5827453743e+00 2.7413954037e+00 
28800 5.9129381824e+00 2.3495561064e-03 1.5826689501e+00 -2.7412630331e+00 1.5826689501e+00 2.7412630331e+00 
28900 5.9129391252e+00 2.2799488079e-03 1.5825947230e+00 -2.7411344681e+00 1.5825947230e+00 2.7411344681e+00 
29000 5.9129401179e+00 2.2104737170e-03 1.5825226916e+00 -2.7410097060e+00 1.5825226916e+00 2.7410097060e+00 
29100 5.9129411622e+00 2.1412038920e-03 1.5824528519e+00 -2.7408887401e+00 1.5824528519e+00 2.7408887401e+00 
29200 5.9129422591e+00 2.0722093022e-03 1.5823851978e+00 -2.7407715597e+00 1.5823851978e+00 2.7407715597e+00 
29300 5.9129434096e+00 2.0035568672e-03 1.5823197209e+00 -2.7406581503e+00 1.5823197209e+00 2.7406581503e+00 
29400 5.9129446140e+00 1.9353104980e-03 1.5822564105e+00 -2.7405484936e+00 1.5822564105e+00 2.7405484936e+00 
29500 5.9129458724e+00 1.8675311411e-03 1.5821952543e+00 -2.7404425679e+00 1.5821952543e+00 2.7404425679e+00 
29600 5.9129471846e+00 1.8002768246e-03 1.5821362375e+00 -2.7403403479e+00 1.5821362375e+00 2.7403403479e+00 
29700 5.9129485498e+00 1.7336027054e-03 1.5820793440e+00 -2.7402418054e+00 1.5820793440e+00 2.7402418054e+00 
29800 5.9129499674e+00 1.6675611193e-03 1.5820245556e+00 -2.7401469091e+00 1.5820245556e+00 2.7401469091e+00 
29900 5.9129514362e+00 1.6022016322e-03 1.5819718525e+00 -2.7400556247e+00 1.5819718525e+00 2.7400556247e+00 
30000 5.9129529548e+00 1.5375710928e-03 1.5819212134e+00 -2.7399679151e+00 1.5819212134e+00 2.7399679151e+00 
30100 5.9129545217e+00 1.4737136861e-03 1.5818726154e+00 -2.7398837410e+00 1.5818726154e+00 2.7398837410e+00 
30200 5.9129561352e+00 1.4106709895e-03 1.5818260343e+00 -2.7398030602e+00 1.5818260343e+00 2.7398030602e+00 
30300 5.9129577933e+00 1.3484820280e-03 1.5817814446e+00 -2.7397258285e+00 1.5817814446e+00 2.7397258285e+00 
30400 5.9129594940e+00 1.2871833317e-03 1.5817388194e+00 -2.7396519994e+00 1.5817388194e+00 2.7396519994e+00 
30500 5.9129612351e+00 1.2268089937e-03 1.5816981307e+00 -2.7395815246e+00 1.5816981307e+00 2.7395815246e+00 
30600 5.9129630143e+00 1.1673907284e-03 1.5816593494e+00 -2.7395143535e+00 1.5816593494e+00 2.7395143535e+00 
30700 5.9129648292e+00 1.1089579302e-03 1.5816224456e+00 -2.7394504342e+00 1.5816224456e+00 2.7394504342e+00 
30800 5.9129666773e+00 1.0515377334e-03 1.5815873881e+00 -2.7393897128e+00 1.5815873881e+00 2.7393897128e+00 
30900 5.9129685562e+00 9.9515507144e-04 1.5815541451e+00 -2.7393321343e+00 1.5815541451e+00 2.7393321343e+00 
31000 5.9129704633e+00 9.3983273695e-04 1.5815226839e+00 -2.7392776419e+00 1.5815226839e+00 2.7392776419e+00 
31100 5.9129723960e+00 8.8559144162e-04 1.5814929711e+00 -2.7392261778e+00 1.5814929711e+00 2.7392261778e+00 
31200 5.9129743516e+00 8.3244987626e-04 1.5814649726e+00 -2.7391776829e+00 1.5814649726e+00 2.7391776829e+00 
31300 5.9129763276e+00 7.8042477069e-04 1.5814386537e+00 -2.7391320973e+00 1.5814386537e+00 2.7391320973e+00 
31400 5.9129783213e+00 7.2953095347e-04 1.5814139793e+00 -2.7390893599e+00 1.5814139793e+00 2.7390893599e+00 
31500 5.9129803302e+00 6.7978141146e-04 1.5813909135e+00 -2.7390494089e+00 1.5813909135e+00 2.7390494089e+00 
31600 5.9129823517e+00 6.3118734904e-04 1.5813694204e+00 -2.7390121818e+00 1.5813694204e+00 2.7390121818e+00 
31700 5.9129843833e+00 5.8375824701e-04 1.5813494635e+00 -2.7389776153e+00 1.5813494635e+00 2.7389776153e+00 
31800 5.9129864225e+00 5.3750192096e-04 1.5813310059e+00 -2.7389456459e+00 1.5813310059e+00 2.7389456459e+00 
31900 5.9129884669e+00 4.9242457929e-04 1.5813140107e+00 -2.7389162093e+00 1.5813140107e+00 2.7389162093e+00 
32000 5.9129905141e+00 4.4853088058e-04 1.5812984407e+00 -2.7388892411e+00 1.5812984407e+00 2.7388892411e+00 
32100 5.9129925618e+00 4.0582399040e-04 1.5812842583e+00 -2.7388646766e+00 1.5812842583e+00 2.7388646766e+00 
32200 5.9129946078e+00 3.6430563755e-04 1.5812714262e+00 -2.7388424508e+00 1.5812714262e+00 2.7388424508e+00 
32300 5.9129966499e+00 3.2397616945e-04 1.5812599069e+00 -2.7388224986e+00 1.5812599069e+00 2.7388224986e+00 
32400 5.9129986862e+00 2.8483460701e-04 1.5812496626e+00 -2.7388047551e+00 1.5812496626e+00 2.7388047551e+00 
32500 5.9130007146e+00 2.4687869859e-04 1.5812406560e+00 -2.7387891552e+00 1.5812406560e+00 2.7387891552e+00 
32600 5.9130027331e+00 2.1010497322e-04 1.5812328495e+00 -2.7387756340e+00 1.5812328495e+00 2.7387756340e+00 
32700 5.9130047401e+00 1.7450879301e-04 1.5812262058e+00 -2.7387641267e+00 1.5812262058e+00 2.7387641267e+00 
32800 5.9130067338e+00 1.4008440468e-04 1.5812206877e+00 -2.7387545690e+00 1.5812206877e+00 2.7387545690e+00 
32900 5.9130087125e+00 1.0682499022e-04 1.5812162580e+00 -2.7387468967e+00 1.5812162580e+00 2.7387468967e+00 
33000 5.9130106748e+00 7.4722716694e-05 1.5812128801e+00 -2.7387410459e+00 1.5812128801e+00 2.7387410459e+00 
33100 5.9130126192e+00 4.3768785020e-05 1.5812105173e+00 -2.7387369534e+00 1.5812105173e+00 2.7387369534e+00 
33200 5.9130145444e+00 1.5492069193e-05 1.5812105173e+00 -2.7387369534e+00 1.5812105173e+00 2.7387369534e+00 
33300 5.9130164490e+00 -1.2696869026e-05 1.5812105173e+00 -2.7387369534e+00 1.5812105173e+00 2.7387369534e+00 
33400 5.9130183320e+00 -4.0775034028e-05 1.5812105173e+00 -2.7387369534e+00 1.5812105173e+00 2.7387369534e+00 
33500 5.9130201926e+00 -6.8720441562e-05 1.5812105173e+00 -2.7387369534e+00 1.5812105173e+00 2.7387369534e+00 
33600 5.9130220297e+00 -9.6512097600e-05 1.5812105173e+00 -2.7387369534e+00 1.5812105173e+00 2.7387369534e+00 
33700 5.9130238422e+00 -1.2073788440e-04 1.5812135691e+00 -2.7387422393e+00 1.5812135691e+00 2.7387422393e+00 
33800 5.9130256294e+00 -1.4390223218e-04 1.5812173870e+00 -2.7387488521e+00 1.5812173870e+00 2.7387488521e+00 
33900 5.9130273907e+00 -1.6601994481e-04 1.5812219374e+00 -2.7387567336e+00 1.5812219374e+00 2.7387567336e+00 
34000 5.9130291253e+00 -1.8710639980e-04 1.5812271871e+00 -2.7387658264e+00 1.5812271871e+00 2.7387658264e+00 
34100 5.9130308328e+00 -2.0717750917e-04 1.5812331036e+00 -2.7387760741e+00 1.5812331036e+00 2.7387760741e+00 
34200 5.9130325127e+00 -2.2624968118e-04 1.5812396548e+00 -2.7387874210e+00 1.5812396548e+00 2.7387874210e+00 
34300 5.9130341647e+00 -2.4433978329e-04 1.5812468089e+00 -2.7387998124e+00 1.5812468089e+00 2.7387998124e+00 
34400 5.9130357885e+00 -2.6146510595e-04 1.5812545351e+00 -2.7388131945e+00 1.5812545351e+00 2.7388131945e+00 
34500 5.9130373837e+00 -2.7764332745e-04 1.5812628028e+00 -2.7388275145e+00 1.5812628028e+00 2.7388275145e+00 
34600 5.9130389503e+00 -2.9289247985e-04 1.5812715820e+00 -2.7388427205e+00 1.5812715820e+00 2.7388427205e+00 
34700 5.9130404882e+00 -3.0723091574e-04 1.5812808433e+00 -2.7388587616e+00 1.5812808433e+00 2.7388587616e+00 
34800 5.9130419973e+00 -3.2067727618e-04 1.5812905579e+00 -2.7388755878e+00 1.5812905579e+00 2.7388755878e+00 
34900 5.9130434776e+00 -3.3325045944e-04 1.5813006976e+00 -2.7388931504e+00 1.5813006976e+00 2.7388931504e+00 
35000 5.9130449292e+00 -3.4496959084e-04 1.5813112349e+00 -2.7389114014e+00 1.5813112349e+00 2.7389114014e+00 
35100 5.9130463523e+00 -3.5585399350e-04 1.5813221426e+00 -2.7389302941e+00 1.5813221426e+00 2.7389302941e+00 
35200 5.9130477470e+00 -3.6592316004e-04 1.5813333944e+00 -2.7389497828e+00 1.5813333944e+00 2.7389497828e+00 
35300 5.9130491136e+00 -3.7519672525e-04 1.5813449645e+00 -2.7389698228e+00 1.5813449645e+00 2.7389698228e+00 
35400 5.9130504522e+00 -3.8369443966e-04 1.5813568277e+00 -2.7389903705e+00 1.5813568277e+00 2.7389903705e+00 
35500 5.9130517633e+00 -3.9143614405e-04 1.5813689595e+00 -2.7390113835e+00 1.5813689595e+00 2.7390113835e+00 
35600 5.9130530472e+00 -3.9844174489e-04 1.5813813361e+00 -2.7390328202e+00 1.5813813361e+00 2.7390328202e+00 
35700 5.9130543041e+00 -4.0473119062e-04 1.5813939340e+00 -2.7390546404e+00 1.5813939340e+00 2.7390546404e+00 
35800 5.9130555346e+00 -4.1032444888e-04 1.5814067307e+00 -2.7390768049e+00 1.5814067307e+00 2.7390768049e+00 
35900 5.9130567391e+00 -4.1524148454e-04 1.5814197041e+00 -2.7390992755e+00 1.5814197041e+00 2.7390992755e+00 
36000 5.9130579180e+00 -4.1950223868e-04 1.5814328328e+00 -2.7391220153e+00 1.5814328328e+00 2.7391220153e+00 
36100 5.9130590718e+00 -4.2312660834e-04 1.5814460962e+00 -2.7391449881e+00 1.5814460962e+00 2.7391449881e+00 
36200 5.9130602009e+00 -4.2613442713e-04 1.5814594741e+00 -2.7391681592e+00 1.5814594741e+00 2.7391681592e+00 
36300 5.9130613060e+00 -4.2854544664e-04 1.5814729469e+00 -2.7391914949e+00 1.5814729469e+00 2.7391914949e+00 
36400 5.9130623875e+00 -4.3037931870e-04 1.5814864959e+00 -2.7392149623e+00 1.5814864959e+00 2.7392149623e+00 
36500 5.9130634460e+00 -4.3165557836e-04 1.5815001027e+00 -2.7392385300e+00 1.5815001027e+00 2.7392385300e+00 
36600 5.9130644820e+00 -4.3239362773e-04 1.5815137497e+00 -2.7392621674e+00 1.5815137497e+00 2.7392621674e+00 
36700 5.9130654961e+00 -4.3261272048e-04 1.5815274200e+00 -2.7392858450e+00 1.5815274200e+00 2.7392858450e+00 
36800 5.9130664889e+00 -4.3233194717e-04 1.5815410971e+00 -2.7393095344e+00 1.5815410971e+00 2.7393095344e+00 
36900 5.9130674608e+00 -4.3157022127e-04 1.5815547652e+00 -2.7393332082e+00 1.5815547652e+00 2.7393332082e+00 
37000 5.9130684126e+00 -4.3034626591e-04 1.5815684090e+00 -2.7393568401e+00 1.5815684090e+00 2.7393568401e+00 
37100 5.9130693446e+00 -4.2867860133e-04 1.5815820141e+00 -2.7393804048e+00 1.5815820141e+00 2.7393804048e+00 
37200 5.9130702576e+00 -4.2658553298e-04 1.5815955663e+00 -2.7394038779e+00 1.5815955663e+00 2.7394038779e+00 
37300 5.9130711521e+00 -4.2408514037e-04 1.5816090523e+00 -2.7394272363e+00 1.5816090523e+00 2.7394272363e+00 
37400 5.9130720286e+00 -4.2119526651e-04 1.5816224591e+00 -2.7394504575e+00 1.5816224591e+00 2.7394504575e+00 
37500 5.9130728877e+00 -4.1793350797e-04 1.5816357744e+00 -2.7394735203e+00 1.5816357744e+00 2.7394735203e+00 
37600 5.9130737300e+00 -4.1431720568e-04 1.5816489865e+00 -2.7394964043e+00 1.5816489865e+00 2.7394964043e+00 
37700 5.9130745559e+00 -4.1036343622e-04 1.5816620841e+00 -2.7395190901e+00 1.5816620841e+00 2.7395190901e+00 
37800 5.9130753660e+00 -4.0608900378e-04 1.5816750567e+00 -2.7395415592e+00 1.5816750567e+00 2.7395415592e+00 
37900 5.9130761608e+00 -4.0151043262e-04 1.5816878940e+00 -2.7395637941e+00 1.5816878940e+00 2.7395637941e+00 
38000 5.9130769409e+00 -3.9664396023e-04 1.5817005865e+00 -2.7395857781e+00 1.5817005865e+00 2.7395857781e+00 
38100 5.9130777068e+00 -3.9150553093e-04 1.5817131250e+00 -2.7396074955e+00 1.5817131250e+00 2.7396074955e+00 
38200 5.9130784588e+00 -3.8611079003e-04 1.5817255010e+00 -2.7396289314e+00 1.5817255010e+00 2.7396289314e+00 
38300 5.9130791975e+00 -3.8047507854e-04 1.5817377064e+00 -2.7396500718e+00 1.5817377064e+00 2.7396500718e+00 
38400 5.9130799234e+00 -3.7461342837e-04 1.5817497336e+00 -2.7396709034e+00 1.5817497336e+00 2.7396709034e+00 
38500 5.9130806369e+00 -3.6854055803e-04 1.5817615753e+00 -2.7396914139e+00 1.5817615753e+00 2.7396914139e+00 
38600 5.9130813384e+00 -3.6227086883e-04 1.5817732250e+00 -2.7397115918e+00 1.5817732250e+00 2.7397115918e+00 
38700 5.9130820284e+00 -3.5581844146e-04 1.5817846764e+00 -2.7397314262e+00 1.5817846764e+00 2.7397314262e+00 
38800 5.9130827072e+00 -3.4919703316e-04 1.5817959238e+00 -2.7397509073e+00 1.5817959238e+00 2.7397509073e+00 
38900 5.9130833753e+00 -3.4242007522e-04 1.5818069618e+00 -2.7397700257e+00 1.5818069618e+00 2.7397700257e+00 
39000 5.9130840330e+00 -3.3550067092e-04 1.5818177855e+00 -2.7397887729e+00 1.5818177855e+00 2.7397887729e+00 
39100 5.9130846807e+00 -3.2845159392e-04 1.5818283905e+00 -2.7398071411e+00 1.5818283905e+00 2.7398071411e+00 
39200 5.9130853187e+00 -3.2128528703e-04 1.5818387725e+00 -2.7398251234e+00 1.5818387725e+00 2.7398251234e+00 
39300 5.9130859473e+00 -3.1401386134e-04 1.5818489279e+00 -2.7398427131e+00 1.5818489279e+00 2.7398427131e+00 
39400 5.9130865669e+00 -3.0664909576e-04 1.5818588535e+00 -2.7398599046e+00 1.5818588535e+00 2.7398599046e+00 
39500 5.9130871778e+00 -2.9920243686e-04 1.5818685462e+00 -2.7398766929e+00 1.5818685462e+00 2.7398766929e+00 
39600 5.9130877803e+00 -2.9168499912e-04 1.5818780034e+00 -2.7398930733e+00 1.5818780034e+00 2.7398930733e+00 
39700 5.9130883746e+00 -2.8410756548e-04 1.5818872230e+00 -2.7399090421e+00 1.5818872230e+00 2.7399090421e+00 
39800 5.9130889610e+00 -2.7648058820e-04 1.5818962031e+00 -2.7399245960e+00 1.5818962031e+00 2.7399245960e+00 
39900 5.9130895397e+00 -2.6881419002e-04 1.5819049420e+00 -2.7399397322e+00 1.5819049420e+00 2.7399397322e+00 
40000 5.9130901111e+00 -2.6111816567e-04 1.5819134385e+00 -2.7399544487e+00 1.5819134385e+00 2.7399544487e+00 
40100 5.9130906752e+00 -2.5340198359e-04 1.5819216917e+00 -2.7399687437e+00 1.5819216917e+00 2.7399687437e+00 
40200 5.9130912323e+00 -2.4567478797e-04 1.5819297011e+00 -2.7399826162e+00 1.5819297011e+00 2.7399826162e+00 
40300 5.9130917826e+00 -2.3794540102e-04 1.5819374661e+00 -2.7399960657e+00 1.5819374661e+00 2.7399960657e+00 
40400 5.9130923264e+00 -2.3022232551e-04 1.5819449868e+00 -2.7400090919e+00 1.5819449868e+00 2.7400090919e+00 
40500 5.9130928637e+00 -2.2251374750e-04 1.5819522634e+00 -2.7400216953e+00 1.5819522634e+00 2.7400216953e+00 
40600 5.9130933947e+00 -2.1482753937e-04 1.5819592963e+00 -2.7400338766e+00 1.5819592963e+00 2.7400338766e+00 
40700 5.9130939196e+00 -2.0717126302e-04 1.5819660862e+00 -2.7400456371e+00 1.5819660862e+00 2.7400456371e+00 
40800 5.9130944385e+00 -1.9955217321e-04 1.5819726341e+00 -2.7400569784e+00 1.5819726341e+00 2.7400569784e+00 
40900 5.9130949516e+00 -1.9197722123e-04 1.5819789412e+00 -2.7400679026e+00 1.5819789412e+00 2.7400679026e+00 
41000 5.9130954589e+00 -1.8445305865e-04 1.5819850088e+00 -2.7400784121e+00 1.5819850088e+00 2.7400784121e+00 
41100 5.9130959607e+00 -1.7698604122e-04 1.5819908386e+00 -2.7400885096e+00 1.5819908386e+00 2.7400885096e+00 
41200 5.9130964570e+00 -1.6958223306e-04 1.5819964324e+00 -2.7400981983e+00 1.5819964324e+00 2.7400981983e+00 
41300 5.9130969479e+00 -1.6224741086e-04 1.5820017921e+00 -2.7401074816e+00 1.5820017921e+00 2.7401074816e+00 
41400 5.9130974334e+00 -1.5498706828e-04 1.5820069201e+00 -2.7401163635e+00 1.5820069201e+00 2.7401163635e+00 
41500 5.9130979138e+00 -1.4780642051e-04 1.5820118185e+00 -2.7401248478e+00 1.5820118185e+00 2.7401248478e+00 
41600 5.9130983890e+00 -1.4071040893e-04 1.5820164900e+00 -2.7401329390e+00 1.5820164900e+00 2.7401329390e+00 
41700 5.9130988592e+00 -1.3370370582e-04 1.5820209371e+00 -2.7401406418e+00 1.5820209371e+00 2.7401406418e+00 
41800 5.9130993243e+00 -1.2679071929e-04 1.5820251629e+00 -2.7401479610e+00 1.5820251629e+00 2.7401479610e+00 
41900 5.9130997845e+00 -1.1997559824e-04 1.5820291701e+00 -2.7401549017e+00 1.5820291701e+00 2.7401549017e+00 
42000 5.9131002399e+00 -1.1326223738e-04 1.5820329619e+00 -2.7401614693e+00 1.5820329619e+00 2.7401614693e+00 
42100 5.9131006904e+00 -1.0665428243e-04 1.5820365416e+00 -2.7401676694e+00 1.5820365416e+00 2.7401676694e+00 
42200 5.9131011361e+00 -1.0015513526e-04 1.5820399124e+00 -2.7401735078e+00 1.5820399124e+00 2.7401735078e+00 
42300 5.9131015771e+00 -9.3767959202e-05 1.5820430777e+00 -2.7401789904e+00 1.5820430777e+00 2.7401789904e+00 
42400 5.9131020135e+00 -8.7495684369e-05 1.5820460413e+00 -2.7401841234e+00 1.5820460413e+00 2.7401841234e+00 
42500 5.9131024451e+00 -8.1341013022e-05 1.5820488065e+00 -2.7401889130e+00 1.5820488065e+00 2.7401889130e+00 
42600 5.9131028722e+00 -7.5306425004e-05 1.5820513773e+00 -2.7401933656e+00 1.5820513773e+00 2.7401933656e+00 
42700 5.9131032946e+00 -6.9394183175e-05 1.5820537573e+00 -2.7401974880e+00 1.5820537573e+00 2.7401974880e+00 
42800 5.9131037127e+00 -6.6038923469e-05 1.5820537573e+00 -2.7401974880e+00 1.5820537573e+00 2.7401974880e+00 
42900 5.9131041262e+00 -6.2619533710e-05 1.5820537573e+00 -2.7401974880e+00 1.5820537573e+00 2.7401974880e+00 
43000 5.9131045351e+00 -5.9141105304e-05 1.5820537573e+00 -2.7401974880e+00 1.5820537573e+00 2.7401974880e+00 
43100 5.9131049395e+00 -5.5608594219e-05 1.5820537573e+00 -2.7401974880e+00 1.5820537573e+00 2.7401974880e+00 
43200 5.9131053395e+00 -5.2026821995e-05 1.5820537573e+00 -2.7401974880e+00 1.5820537573e+00 2.7401974880e+00 
43300 5.9131057349e+00 -4.8400476826e-05 1.5820537573e+00 -2.7401974880e+00 1.5820537573e+00 2.7401974880e+00 
43400 5.9131061260e+00 -4.4734114699e-05 1.5820537573e+00 -2.7401974880e+00 1.5820537573e+00 2.7401974880e+00 
43500 5.9131065126e+00 -4.1032160598e-05 1.5820537573e+00 -2.7401974880e+00 1.5820537573e+00 2.7401974880e+00 
43600 5.9131068948e+00 -3.7298909766e-05 1.5820537573e+00 -2.7401974880e+00 1.5820537573e+00 2.7401974880e+00 
43700 5.9131072727e+00 -3.3538529012e-05 1.5820537573e+00 -2.7401974880e+00 1.5820537573e+00 2.7401974880e+00 
43800 5.9131076462e+00 -2.9755058086e-05 1.5820537573e+00 -2.7401974880e+00 1.5820537573e+00 2.7401974880e+00 
43900 5.9131080154e+00 -2.5952411074e-05 1.5820537573e+00 -2.7401974880e+00 1.5820537573e+00 2.7401974880e+00 
44000 5.9131083803e+00 -2.2134377874e-05 1.5820537573e+00 -2.7401974880e+00 1.5820537573e+00 2.7401974880e+00 
44100 5.9131087409e+00 -1.8304625683e-05 1.5820537573e+00 -2.7401974880e+00 1.5820537573e+00 2.7401974880e+00 
44200 5.9131090973e+00 -1.4466700536e-05 1.5820537573e+00 -2.7401974880e+00 1.5820537573e+00 2.7401974880e+00 
44300 5.9131094495e+00 -1.0624028893e-05 1.5820537573e+00 -2.7401974880e+00 1.5820537573e+00 2.7401974880e+00 
44400 5.9131097974e+00 -6.7799192336e-06 1.5820537573e+00 -2.7401974880e+00 1.5820537573e+00 2.7401974880e+00 
44500 5.9131101412e+00 -2.9375637171e-06 1.5820537573e+00 -2.7401974880e+00 1.5820537573e+00 2.7401974880e+00 
44600 5.9131104809e+00 8.9996016277e-07 1.5820537573e+00 -2.7401974880e+00 1.5820537573e+00 2.7401974880e+00 
44700 5.9131108164e+00 4.7296878670e-06 1.5820537573e+00 -2.7401974880e+00 1.5820537573e+00 2.7401974880e+00 
44800 5.9131111478e+00 8.5487660866e-06 1.5820537573e+00 -2.7401974880e+00 1.5820537573e+00 2.7401974880e+00 
44900 5.9131114751e+00 1.2354451005e-05 1.5820537573e+00 -2.7401974880e+00 1.5820537573e+00 2.7401974880e+00 
45000 5.9131117984e+00 1.6144106518e-05 1.5820537573e+00 -2.7401974880e+00 1.5820537573e+00 2.7401974880e+00 
45100 5.9131121177e+00 1.9915202456e-05 1.5820537573e+00 -2.7401974880e+00 1.5820537573e+00 2.7401974880e+00 
45200 5.9131124330e+00 2.3665312779e-05 1.5820537573e+00 -2.7401974880e+00 1.5820537573e+00 2.7401974880e+00 
45300 5.9131127443e+00 2.7392113755e-05 1.5820537573e+00 -2.7401974880e+00 1.5820537573e+00 2.7401974880e+00 
45400 5.9131130517e+00 3.1093382137e-05 1.5820537573e+00 -2.7401974880e+00 1.5820537573e+00 2.7401974880e+00 
45500 5.9131133552e+00 3.4766993314e-05 1.5820537573e+00 -2.7401974880e+00 1.5820537573e+00 2.7401974880e+00 
45600 5.9131136548e+00 3.8410919467e-05 1.5820537573e+00 -2.7401974880e+00 1.5820537573e+00 2.7401974880e+00 
45700 5.9131139506e+00 4.2023227707e-05 1.5820537573e+00 -2.7401974880e+00 1.5820537573e+00 2.7401974880e+00 
45800 5.9131142426e+00 4.5602078212e-05 1.5820537573e+00 -2.7401974880e+00 1.5820537573e+00 2.7401974880e+00 
45900 5.9131145308e+00 4.9145722363e-05 1.5820537573e+00 -2.7401974880e+00 1.5820537573e+00 2.7401974880e+00 
46000 5.9131148153e+00 5.2652500868e-05 1.5820537573e+00 -2.7401974880e+00 1.5820537573e+00 2.7401974880e+00 
46100 5.9131150960e+00 5.6120841897e-05 1.5820537573e+00 -2.7401974880e+00 1.5820537573e+00 2.7401974880e+00 
46200 5.9131153731e+00 5.9549259204e-05 1.5820537573e+00 -2.7401974880e+00 1.5820537573e+00 2.7401974880e+00 
46300 5.9131156466e+00 6.2936350265e-05 1.5820537573e+00 -2.7401974880e+00 1.5820537573e+00 2.7401974880e+00 
46400 5.9131159165e+00 6.6280794402e-05 1.5820537573e+00 -2.7401974880e+00 1.5820537573e+00 2.7401974880e+00 
46500 5.9131161828e+00 6.9581350931e-05 1.5820537573e+00 -2.7401974880e+00 1.5820537573e+00 2.7401974880e+00 
46600 5.9131164456e+00 7.2836857301e-05 1.5820537573e+00 -2.7401974880e+00 1.5820537573e+00 2.7401974880e+00 
46700 5.9131167046e+00 7.3492228602e-05 1.5820514553e+00 -2.7401935008e+00 1.5820514553e+00 2.7401935008e+00 
46800 5.9131169602e+00 7.4064308795e-05 1.5820491326e+00 -2.7401894778e+00 1.5820491326e+00 2.7401894778e+00 
46900 5.9131172124e+00 7.4554893335e-05 1.5820467919e+00 -2.7401854235e+00 1.5820467919e+00 2.7401854235e+00 
47000 5.9131174612e+00 7.4965816003e-05 1.5820444356e+00 -2.7401813423e+00 1.5820444356e+00 2.7401813423e+00 
47100 5.9131177066e+00 7.5298945017e-05 1.5820420663e+00 -2.7401772386e+00 1.5820420663e+00 2.7401772386e+00 
47200 5.9131179487e+00 7.5556179259e-05 1.5820396865e+00 -2.7401731167e+00 1.5820396865e+00 2.7401731167e+00 
47300 5.9131181876e+00 7.5739444613e-05 1.5820372986e+00 -2.7401689806e+00 1.5820372986e+00 2.7401689806e+00 
47400 5.9131184232e+00 7.5850690459e-05 1.5820349049e+00 -2.7401648346e+00 1.5820349049e+00 2.7401648346e+00 
47500 5.9131186556e+00 7.5891886267e-05 1.5820325076e+00 -2.7401606824e+00 1.5820325076e+00 2.7401606824e+00 
47600 5.9131188849e+00 7.5865018319e-05 1.5820301091e+00 -2.7401565280e+00 1.5820301091e+00 2.7401565280e+00 
47700 5.9131191111e+00 7.5772086559e-05 1.5820277113e+00 -2.7401523750e+00 1.5820277113e+00 2.7401523750e+00 
47800 5.9131193342e+00 7.5615101533e-05 1.5820253166e+00 -2.7401482272e+00 1.5820253166e+00 2.7401482272e+00 
47900 5.9131195543e+00 7.5396081502e-05 1.5820229267e+00 -2.7401440879e+00 1.5820229267e+00 2.7401440879e+00 
48000 5.9131197714e+00 7.5117049596e-05 1.5820205438e+00 -2.7401399606e+00 1.5820205438e+00 2.7401399606e+00 
48100 5.9131199856e+00 7.4780031145e-05 1.5820181698e+00 -2.7401358485e+00 1.5820181698e+00 2.7401358485e+00 
48200 5.9131201969e+00 7.4387051082e-05 1.5820158063e+00 -2.7401317549e+00 1.5820158063e+00 2.7401317549e+00 
48300 5.9131204053e+00 7.3940131472e-05 1.5820134553e+00 -2.7401276828e+00 1.5820134553e+00 2.7401276828e+00 
48400 5.9131206110e+00 7.3441289138e-05 1.5820111184e+00 -2.7401236352e+00 1.5820111184e+00 2.7401236352e+00 
48500 5.9131208138e+00 7.2892533403e-05 1.5820087973e+00 -2.7401196149e+00 1.5820087973e+00 2.7401196149e+00 
48600 5.9131210139e+00 7.2295863929e-05 1.5820064935e+00 -2.7401156246e+00 1.5820064935e+00 2.7401156246e+00 
48700 5.9131212113e+00 7.1653268644e-05 1.5820042085e+00 -2.7401116670e+00 1.5820042085e+00 2.7401116670e+00 
48800 5.9131214061e+00 7.0966721805e-05 1.5820019439e+00 -2.7401077445e+00 1.5820019439e+00 2.7401077445e+00 
48900 5.9131215983e+00 7.0238182114e-05 1.5819997010e+00 -2.7401038596e+00 1.5819997010e+00 2.7401038596e+00 
49000 5.9131217880e+00 7.1933048947e-05 1.5819997010e+00 -2.7401038596e+00 1.5819997010e+00 2.7401038596e+00 
49100 5.9131219751e+00 7.1052596216e-05 1.5819974275e+00 -2.7400999218e+00 1.5819974275e+00 2.7400999218e+00 
49200 5.9131221596e+00 7.0138122279e-05 1.5819951818e+00 -2.7400960322e+00 1.5819951818e+00 2.7400960322e+00 
49300 5.9131223419e+00 7.1651428511e-05 1.5819951818e+00 -2.7400960322e+00 1.5819951818e+00 2.7400960322e+00 
49400 5.9131225216e+00 7.0600654289e-05 1.5819929172e+00 -2.7400921098e+00 1.5819929172e+00 2.7400921098e+00 
49500 5.9131226990e+00 7.1999653435e-05 1.5819929172e+00 -2.7400921098e+00 1.5819929172e+00 2.7400921098e+00 
49600 5.9131228740e+00 7.0823441805e-05 1.5819906416e+00 -2.7400881684e+00 1.5819906416e+00 2.7400881684e+00 
49700 5.9131230466e+00 6.9626248322e-05 1.5819884032e+00 -2.7400842913e+00 1.5819884032e+00 2.7400842913e+00 
49800 5.9131232171e+00 7.0851734259e-05 1.5819884032e+00 -2.7400842913e+00 1.5819884032e+00 2.7400842913e+00 
49900 5.9131233852e+00 6.9544041103e-05 1.5819861639e+00 -2.7400804127e+00 1.5819861639e+00 2.7400804127e+00 
50000 5.9131235513e+00 7.0661358587e-05 1.5819861639e+00 -2.7400804127e+00 1.5819861639e+00 2.7400804127e+00 
50100 5.9131237152e+00 7.1731974528e-05 1.5819861639e+00 -2.7400804127e+00 1.5819861639e+00 2.7400804127e+00 
50200 5.9131238767e+00 7.0240588114e-05 1.5819838967e+00 -2.7400764859e+00 1.5819838967e+00 2.7400764859e+00 
50300 5.9131240364e+00 7.1207102864e-05 1.5819838967e+00 -2.7400764859e+00 1.5819838967e+00 2.7400764859e+00 
50400 5.9131241937e+00 6.9631432459e-05 1.5819816462e+00 -2.7400725878e+00 1.5819816462e+00 2.7400725878e+00 
50500 5.9131243492e+00 7.0496842512e-05 1.5819816462e+00 -2.7400725878e+00 1.5819816462e+00 2.7400725878e+00 
50600 5.9131245028e+00 7.1319219855e-05 1.5819816462e+00 -2.7400725878e+00 1.5819816462e+00 2.7400725878e+00 
50700 5.9131246541e+00 6.9597740361e-05 1.5819793920e+00 -2.7400686836e+00 1.5819793920e+00 2.7400686836e+00 
50800 5.9131248036e+00 7.0323616726e-05 1.5819793920e+00 -2.7400686836e+00 1.5819793920e+00 2.7400686836e+00 
50900 5.9131249513e+00 7.1008812504e-05 1.5819793920e+00 -2.7400686836e+00 1.5819793920e+00 2.7400686836e+00 
51000 5.9131250968e+00 6.9163380832e-05 1.5819771477e+00 -2.7400647963e+00 1.5819771477e+00 2.7400647963e+00 
51100 5.9131252407e+00 6.9756904991e-05 1.5819771477e+00 -2.7400647963e+00 1.5819771477e+00 2.7400647963e+00 
51200 5.9131253827e+00 7.0312164274e-05 1.5819771477e+00 -2.7400647963e+00 1.5819771477e+00 2.7400647963e+00 
51300 5.9131255230e+00 7.0830001550e-05 1.5819771477e+00 -2.7400647963e+00 1.5819771477e+00 2.7400647963e+00 
51400 5.9131256612e+00 6.8826716923e-05 1.5819749091e+00 -2.7400609188e+00 1.5819749091e+00 2.7400609188e+00 
51500 5.9131257979e+00 6.9259473799e-05 1.5819749091e+00 -2.7400609188e+00 1.5819749091e+00 2.7400609188e+00 
51600 5.9131259328e+00 6.9657259672e-05 1.5819749091e+00 -2.7400609188e+00 1.5819749091e+00 2.7400609188e+00 
51700 5.9131260661e+00 7.0020923607e-05 1.5819749091e+00 -2.7400609188e+00 1.5819749091e+00 2.7400609188e+00 
51800 5.9131261976e+00 7.0351310500e-05 1.5819749091e+00 -2.7400609188e+00 1.5819749091e+00 2.7400609188e+00 
51900 5.9131263275e+00 7.0649260646e-05 1.5819749091e+00 -2.7400609188e+00 1.5819749091e+00 2.7400609188e+00 
52000 5.9131264558e+00 7.0915609314e-05 1.5819749091e+00 -2.7400609188e+00 1.5819749091e+00 2.7400609188e+00 
52100 5.9131265822e+00 6.8663586551e-05 1.5819726677e+00 -2.7400570367e+00 1.5819726677e+00 2.7400570367e+00 
52200 5.9131267073e+00 6.8856444127e-05 1.5819726677e+00 -2.7400570367e+00 1.5819726677e+00 2.7400570367e+00 
52300 5.9131268308e+00 6.9020105706e-05 1.5819726677e+00 -2.7400570367e+00 1.5819726677e+00 2.7400570367e+00 
52400 5.9131269527e+00 6.9155398173e-05 1.5819726677e+00 -2.7400570367e+00 1.5819726677e+00 2.7400570367e+00 
52500 5.9131270731e+00 6.9263140920e-05 1.5819726677e+00 -2.7400570367e+00 1.5819726677e+00 2.7400570367e+00 
52600 5.9131271921e+00 6.9344145547e-05 1.5819726677e+00 -2.7400570367e+00 1.5819726677e+00 2.7400570367e+00 
52700 5.9131273095e+00 6.9399215553e-05 1.5819726677e+00 -2.7400570367e+00 1.5819726677e+00 2.7400570367e+00 
52800 5.9131274255e+00 6.9429146067e-05 1.5819726677e+00 -2.7400570367e+00 1.5819726677e+00 2.7400570367e+00 
52900 5.9131275400e+00 6.9434723586e-05 1.5819726677e+00 -2.7400570367e+00 1.5819726677e+00 2.7400570367e+00 
53000 5.9131276532e+00 6.9416725715e-05 1.5819726677e+00 -2.7400570367e+00 1.5819726677e+00 2.7400570367e+00 
53100 5.9131277649e+00 6.9375920938e-05 1.5819726677e+00 -2.7400570367e+00 1.5819726677e+00 2.7400570367e+00 
53200 5.9131278752e+00 6.9313068395e-05 1.5819726677e+00 -2.7400570367e+00 1.5819726677e+00 2.7400570367e+00 
53300 5.9131279842e+00 6.9228917674e-05 1.5819726677e+00 -2.7400570367e+00 1.5819726677e+00 2.7400570367e+00 
53400 5.9131280918e+00 6.9124208608e-05 1.5819726677e+00 -2.7400570367e+00 1.5819726677e+00 2.7400570367e+00 
53500 5.9131281981e+00 6.8999671100e-05 1.5819726677e+00 -2.7400570367e+00 1.5819726677e+00 2.7400570367e+00 
53600 5.9131283031e+00 6.8856024947e-05 1.5819726677e+00 -2.7400570367e+00 1.5819726677e+00 2.7400570367e+00 
53700 5.9131284068e+00 6.8693979681e-05 1.5819726677e+00 -2.7400570367e+00 1.5819726677e+00 2.7400570367e+00 
53800 5.9131285093e+00 6.8514234426e-05 1.5819726677e+00 -2.7400570367e+00 1.5819726677e+00 2.7400570367e+00 
53900 5.9131286104e+00 6.8317477757e-05 1.5819726677e+00 -2.7400570367e+00 1.5819726677e+00 2.7400570367e+00 
54000 5.9131287103e+00 6.8104387578e-05 1.5819726677e+00 -2.7400570367e+00 1.5819726677e+00 2.7400570367e+00 
54100 5.9131288090e+00 6.7875631010e-05 1.5819726677e+00 -2.7400570367e+00 1.5819726677e+00 2.7400570367e+00 
54200 5.9131289065e+00 6.7631864283e-05 1.5819726677e+00 -2.7400570367e+00 1.5819726677e+00 2.7400570367e+00 
54300 5.9131290028e+00 6.7373732650e-05 1.5819726677e+00 -2.7400570367e+00 1.5819726677e+00 2.7400570367e+00 
54400 5.9131290979e+00 6.7101870296e-05 1.5819726677e+00 -2.7400570367e+00 1.5819726677e+00 2.7400570367e+00 
54500 5.9131291918e+00 6.6816900273e-05 1.5819726677e+00 -2.7400570367e+00 1.5819726677e+00 2.7400570367e+00 
54600 5.9131292846e+00 6.6519434434e-05 1.5819726677e+00 -2.7400570367e+00 1.5819726677e+00 2.7400570367e+00 
54700 5.9131293763e+00 6.6210073377e-05 1.5819726677e+00 -2.7400570367e+00 1.5819726677e+00 2.7400570367e+00 
54800 5.9131294668e+00 6.5889406399e-05 1.5819726677e+00 -2.7400570367e+00 1.5819726677e+00 2.7400570367e+00 
54900 5.9131295562e+00 6.5558011468e-05 1.5819726677e+00 -2.7400570367e+00 1.5819726677e+00 2.7400570367e+00 
55000 5.9131296445e+00 6.5216455183e-05 1.5819726677e+00 -2.7400570367e+00 1.5819726677e+00 2.7400570367e+00 
55100 5.9131297318e+00 6.4865292763e-05 1.5819726677e+00 -2.7400570367e+00 1.5819726677e+00 2.7400570367e+00 
55200 5.9131298179e+00 6.4505068031e-05 1.5819726677e+00 -2.7400570367e+00 1.5819726677e+00 2.7400570367e+00 
55300 5.9131299030e+00 6.4136313414e-05 1.5819726677e+00 -2.7400570367e+00 1.5819726677e+00 2.7400570367e+00 
55400 5.9131299871e+00 6.3759549942e-05 1.5819726677e+00 -2.7400570367e+00 1.5819726677e+00 2.7400570367e+00 
55500 5.9131300702e+00 6.3375287264e-05 1.5819726677e+00 -2.7400570367e+00 1.5819726677e+00 2.7400570367e+00 
55600 5.9131301522e+00 6.2984023659e-05 1.5819726677e+00 -2.7400570367e+00 1.5819726677e+00 2.7400570367e+00 
55700 5.9131302332e+00 6.2586246065e-05 1.5819726677e+00 -2.7400570367e+00 1.5819726677e+00 2.7400570367e+00 
55800 5.9131303132e+00 6.2182430112e-05 1.5819726677e+00 -2.7400570367e+00 1.5819726677e+00 2.7400570367e+00 
55900 5.9131303923e+00 6.1773040157e-05 1.5819726677e+00 -2.7400570367e+00 1.5819726677e+00 2.7400570367e+00 
56000 5.9131304704e+00 6.1358529325e-05 1.5819726677e+00 -2.7400570367e+00 1.5819726677e+00 2.7400570367e+00 
56100 5.9131305475e+00 6.0939339565e-05 1.5819726677e+00 -2.7400570367e+00 1.5819726677e+00 2.7400570367e+00 
56200 5.9131306237e+00 6.0515901698e-05 1.5819726677e+00 -2.7400570367e+00 1.5819726677e+00 2.7400570367e+00 
56300 5.9131306989e+00 6.0088635486e-05 1.5819726677e+00 -2.7400570367e+00 1.5819726677e+00 2.7400570367e+00 
56400 5.9131307733e+00 5.9657949690e-05 1.5819726677e+00 -2.7400570367e+00 1.5819726677e+00 2.7400570367e+00 
56500 5.9131308467e+00 5.9224242149e-05 1.5819726677e+00 -2.7400570367e+00 1.5819726677e+00 2.7400570367e+00 
56600 5.9131309192e+00 5.8787899848e-05 1.5819726677e+00 -2.7400570367e+00 1.5819726677e+00 2.7400570367e+00 
56700 5.9131309908e+00 5.8349299005e-05 1.5819726677e+00 -2.7400570367e+00 1.5819726677e+00 2.7400570367e+00 
56800 5.9131310616e+00 5.7908805155e-05 1.5819726677e+00 -2.7400570367e+00 1.5819726677e+00 2.7400570367e+00 
56900 5.9131311315e+00 5.7466773237e-05 1.5819726677e+00 -2.7400570367e+00 1.5819726677e+00 2.7400570367e+00 
57000 5.9131312005e+00 5.7023547693e-05 1.5819726677e+00 -2.7400570367e+00 1.5819726677e+00 2.7400570367e+00 
57100 5.9131312687e+00 5.6579462559e-05 1.5819726677e+00 -2.7400570367e+00 1.5819726677e+00 2.7400570367e+00 
57200 5.9131313360e+00 5.6134841574e-05 1.5819726677e+00 -2.7400570367e+00 1.5819726677e+00 2.7400570367e+00 
57300 5.9131314025e+00 5.5689998277e-05 1.5819726677e+00 -2.7400570367e+00 1.5819726677e+00 2.7400570367e+00 
57400 5.9131314683e+00 5.5245236125e-05 1.5819726677e+00 -2.7400570367e+00 1.5819726677e+00 2.7400570367e+00 
57500 5.9131315331e+00 5.4800848596e-05 1.5819726677e+00 -2.7400570367e+00 1.5819726677e+00 2.7400570367e+00 
57600 5.9131315973e+00 5.4357119309e-05 1.5819726677e+00 -2.7400570367e+00 1.5819726677e+00 2.7400570367e+00 
57700 5.9131316606e+00 5.3914322142e-05 1.5819726677e+00 -2.7400570367e+00 1.5819726677e+00 2.7400570367e+00 
57800 5.9131317231e+00 5.3472721349e-05 1.5819726677e+00 -2.7400570367e+00 1.5819726677e+00 2.7400570367e+00 
57900 5.9131317849e+00 5.3032571691e-05 1.5819726677e+00 -2.7400570367e+00 1.5819726677e+00 2.7400570367e+00 
58000 5.9131318459e+00 5.2594118550e-05 1.5819726677e+00 -2.7400570367e+00 1.5819726677e+00 2.7400570367e+00 
58100 5.9131319062e+00 5.2157598070e-05 1.5819726677e+00 -2.7400570367e+00 1.5819726677e+00 2.7400570367e+00 
58200 5.9131319657e+00 5.1723237275e-05 1.5819726677e+00 -2.7400570367e+00 1.5819726677e+00 2.7400570367e+00 
58300 5.9131320245e+00 5.1291254216e-05 1.5819726677e+00 -2.7400570367e+00 1.5819726677e+00 2.7400570367e+00 
58400 5.9131320826e+00 5.0861858087e-05 1.5819726677e+00 -2.7400570367e+00 1.5819726677e+00 2.7400570367e+00 
58500 5.9131321399e+00 5.0435249379e-05 1.5819726677e+00 -2.7400570367e+00 1.5819726677e+00 2.7400570367e+00 
58600 5.9131321966e+00 5.0011620006e-05 1.5819726677e+00 -2.7400570367e+00 1.5819726677e+00 2.7400570367e+00 
58700 5.9131322525e+00 4.9591153447e-05 1.5819726677e+00 -2.7400570367e+00 1.5819726677e+00 2.7400570367e+00 
58800 5.9131323078e+00 4.9174024889e-05 1.5819726677e+00 -2.7400570367e+00 1.5819726677e+00 2.7400570367e+00 
58900 5.9131323624e+00 4.8760401366e-05 1.5819726677e+00 -2.7400570367e+00 1.5819726677e+00 2.7400570367e+00 
59000 5.9131324163e+00 4.8350441900e-05 1.5819726677e+00 -2.7400570367e+00 1.5819726677e+00 2.7400570367e+00 
59100 5.9131324696e+00 4.7944297654e-05 1.5819726677e+00 -2.7400570367e+00 1.5819726677e+00 2.7400570367e+00 
59200 5.9131325222e+00 4.7542112064e-05 1.5819726677e+00 -2.7400570367e+00 1.5819726677e+00 2.7400570367e+00 
59300 5.9131325742e+00 4.7144020991e-05 1.5819726677e+00 -2.7400570367e+00 1.5819726677e+00 2.7400570367e+00 
59400 5.9131326255e+00 4.6750152871e-05 1.5819726677e+00 -2.7400570367e+00 1.5819726677e+00 2.7400570367e+00 
59500 5.9131326762e+00 4.6360628854e-05 1.5819726677e+00 -2.7400570367e+00 1.5819726677e+00 2.7400570367e+00 
59600 5.9131327263e+00 4.5975562951e-05 1.5819726677e+00 -2.7400570367e+00 1.5819726677e+00 2.7400570367e+00 
59700 5.9131327758e+00 4.5595062193e-05 1.5819726677e+00 -2.7400570367e+00 1.5819726677e+00 2.7400570367e+00 
59800 5.9131328246e+00 4.5219226762e-05 1.5819726677e+00 -2.7400570367e+00 1.5819726677e+00 2.7400570367e+00 
59900 5.9131328729e+00 4.4848150151e-05 1.5819726677e+00 -2.7400570367e+00 1.5819726677e+00 2.7400570367e+00 
60000 5.9131329205e+00 4.4481919306e-05 1.5819726677e+00 -2.7400570367e+00 1.5819726677e+00 2.7400570367e+00 
60100 5.9131329676e+00 4.4120614776e-05 1.5819726677e+00 -2.7400570367e+00 1.5819726677e+00 2.7400570367e+00 
60200 5.9131330141e+00 4.3764310859e-05 1.5819726677e+00 -2.7400570367e+00 1.5819726677e+00 2.7400570367e+00 
60300 5.9131330601e+00 4.3413075748e-05 1.5819726677e+00 -2.7400570367e+00 1.5819726677e+00 2.7400570367e+00 
60400 5.9131331055e+00 4.3066971683e-05 1.5819726677e+00 -2.7400570367e+00 1.5819726677e+00 2.7400570367e+00 
60500 5.9131331503e+00 4.2726055091e-05 1.5819726677e+00 -2.7400570367e+00 1.5819726677e+00 2.7400570367e+00 
60600 5.9131331946e+00 4.2390376738e-05 1.5819726677e+00 -2.7400570367e+00 1.5819726677e+00 2.7400570367e+00 
60700 5.9131332383e+00 4.2059981867e-05 1.5819726677e+00 -2.7400570367e+00 1.5819726677e+00 2.7400570367e+00 
60800 5.9131332815e+00 4.1734910351e-05 1.5819726677e+00 -2.7400570367e+00 1.5819726677e+00 2.7400570367e+00 
60900 5.9131333242e+00 4.1415196831e-05 1.5819726677e+00 -2.7400570367e+00 1.5819726677e+00 2.7400570367e+00 
61000 5.9131333663e+00 4.1100870860e-05 1.5819726677e+00 -2.7400570367e+00 1.5819726677e+00 2.7400570367e+00 
61100 5.9131334079e+00 4.0791957049e-05 1.5819726677e+00 -2.7400570367e+00 1.5819726677e+00 2.7400570367e+00 
61200 5.9131334491e+00 4.0488475203e-05 1.5819726677e+00 -2.7400570367e+00 1.5819726677e+00 2.7400570367e+00 
61300 5.9131334897e+00 4.0190440466e-05 1.5819726677e+00 -2.7400570367e+00 1.5819726677e+00 2.7400570367e+00 
61400 5.9131335298e+00 3.9897863456e-05 1.5819726677e+00 -2.7400570367e+00 1.5819726677e+00 2.7400570367e+00 
61500 5.9131335695e+00 3.9610750407e-05 1.5819726677e+00 -2.7400570367e+00 1.5819726677e+00 2.7400570367e+00 
61600 5.9131336086e+00 3.9329103306e-05 1.5819726677e+00 -2.7400570367e+00 1.5819726677e+00 2.7400570367e+00 
61700 5.9131336473e+00 3.9052920019e-05 1.5819726677e+00 -2.7400570367e+00 1.5819726677e+00 2.7400570367e+00 
61800 5.9131336855e+00 3.8782194443e-05 1.5819726677e+00 -2.7400570367e+00 1.5819726677e+00 2.7400570367e+00 
61900 5.9131337233e+00 3.8516916624e-05 1.5819726677e+00 -2.7400570367e+00 1.5819726677e+00 2.7400570367e+00 
62000 5.9131337606e+00 3.8257072894e-05 1.5819726677e+00 -2.7400570367e+00 1.5819726677e+00 2.7400570367e+00 
62100 5.9131337974e+00 3.8002646003e-05 1.5819726677e+00 -2.7400570367e+00 1.5819726677e+00 2.7400570367e+00 
62200 5.9131338338e+00 3.7753615244e-05 1.5819726677e+00 -2.7400570367e+00 1.5819726677e+00 2.7400570367e+00 
62300 5.9131338697e+00 3.7509956586e-05 1.5819726677e+00 -2.7400570367e+00 1.5819726677e+00 2.7400570367e+00 
62400 5.9131339052e+00 3.7271642789e-05 1.5819726677e+00 -2.7400570367e+00 1.5819726677e+00 2.7400570367e+00 
62500 5.9131339403e+00 3.7038643541e-05 1.5819726677e+00 -2.7400570367e+00 1.5819726677e+00 2.7400570367e+00 
62600 5.9131339749e+00 3.6810925571e-05 1.5819726677e+00 -2.7400570367e+00 1.5819726677e+00 2.7400570367e+00 
62700 5.9131340092e+00 3.6588452772e-05 1.5819726677e+00 -2.7400570367e+00 1.5819726677e+00 2.7400570367e+00 
62800 5.9131340430e+00 3.6371186323e-05 1.5819726677e+00 -2.7400570367e+00 1.5819726677e+00 2.7400570367e+00 
62900 5.9131340764e+00 3.6159084804e-05 1.5819726677e+00 -2.7400570367e+00 1.5819726677e+00 2.7400570367e+00 
63000 5.9131341094e+00 3.5952104309e-05 1.5819726677e+00 -2.7400570367e+00 1.5819726677e+00 2.7400570367e+00 
63100 5.9131341420e+00 3.5750198563e-05 1.5819726677e+00 -2.7400570367e+00 1.5819726677e+00 2.7400570367e+00 
63200 5.9131341742e+00 3.5553319036e-05 1.5819726677e+00 -2.7400570367e+00 1.5819726677e+00 2.7400570367e+00 
63300 5.9131342060e+00 3.5361415046e-05 1.5819726677e+00 -2.7400570367e+00 1.5819726677e+00 2.7400570367e+00 
63400 5.9131342374e+00 3.5174433873e-05 1.5819726677e+00 -2.7400570367e+00 1.5819726677e+00 2.7400570367e+00 
63500 5.9131342685e+00 3.4992320863e-05 1.5819726677e+00 -2.7400570367e+00 1.5819726677e+00 2.7400570367e+00 
63600 5.9131342992e+00 3.4815019534e-05 1.5819726677e+00 -2.7400570367e+00 1.5819726677e+00 2.7400570367e+00 
63700 5.9131343295e+00 3.4642471676e-05 1.5819726677e+00 -2.7400570367e+00 1.5819726677e+00 2.7400570367e+00 
63800 5.9131343594e+00 3.4474617453e-05 1.5819726677e+00 -2.7400570367e+00 1.5819726677e+00 2.7400570367e+00 
63900 5.9131343890e+00 3.4311395502e-05 1.5819726677e+00 -2.7400570367e+00 1.5819726677e+00 2.7400570367e+00 
64000 5.9131344182e+00 3.4152743028e-05 1.5819726677e+00 -2.7400570367e+00 1.5819726677e+00 2.7400570367e+00 
64100 5.9131344471e+00 3.3998595900e-05 1.5819726677e+00 -2.7400570367e+00 1.5819726677e+00 2.7400570367e+00 
64200 5.9131344756e+00 3.3848888743e-05 1.5819726677e+00 -2.7400570367e+00 1.5819726677e+00 2.7400570367e+00 
64300 5.9131345038e+00 3.3703555031e-05 1.5819726677e+00 -2.7400570367e+00 1.5819726677e+00 2.7400570367e+00 
64400 5.9131345316e+00 3.3562527171e-05 1.5819726677e+00 -2.7400570367e+00 1.5819726677e+00 2.7400570367e+00 
64500 5.9131345591e+00 3.3425736593e-05 1.5819726677e+00 -2.7400570367e+00 1.5819726677e+00 2.7400570367e+00 
64600 5.9131345863e+00 3.3293113837e-05 1.5819726677e+00 -2.7400570367e+00 1.5819726677e+00 2.7400570367e+00 
64700 5.9131346131e+00 3.3164588629e-05 1.5819726677e+00 -2.7400570367e+00 1.5819726677e+00 2.7400570367e+00 
64800 5.9131346397e+00 3.3040089969e-05 1.5819726677e+00 -2.7400570367e+00 1.5819726677e+00 2.7400570367e+00 
64900 5.9131346659e+00 3.2919546204e-05 1.5819726677e+00 -2.7400570367e+00 1.5819726677e+00 2.7400570367e+00 
65000 5.9131346917e+00 3.2802885109e-05 1.5819726677e+00 -2.7400570367e+00 1.5819726677e+00 2.7400570367e+00 
65100 5.9131347173e+00 3.2690033958e-05 1.5819726677e+00 -2.7400570367e+00 1.5819726677e+00 2.7400570367e+00 
65200 5.9131347426e+00 3.2580919603e-05 1.5819726677e+00 -2.7400570367e+00 1.5819726677e+00 2.7400570367e+00 
65300 5.9131347676e+00 3.2475468537e-05 1.5819726677e+00 -2.7400570367e+00 1.5819726677e+00 2.7400570367e+00 
65400 5.9131347922e+00 3.2373606965e-05 1.5819726677e+00 -2.7400570367e+00 1.5819726677e+00 2.7400570367e+00 
65500 5.9131348166e+00 3.2275260879e-05 1.5819726677e+00 -2.7400570367e+00 1.5819726677e+00 2.7400570367e+00 
65600 5.9131348407e+00 3.2180356113e-05 1.5819726677e+00 -2.7400570367e+00 1.5819726677e+00 2.7400570367e+00 
65700 5.9131348645e+00 3.2088818407e-05 1.5819726677e+00 -2.7400570367e+00 1.5819726677e+00 2.7400570367e+00 
65800 5.9131348880e+00 3.2000573475e-05 1.5819726677e+00 -2.7400570367e+00 1.5819726677e+00 2.7400570367e+00 
65900 5.9131349112e+00 3.1915547060e-05 1.5819726677e+00 -2.7400570367e+00 1.5819726677e+00 2.7400570367e+00 
66000 5.9131349341e+00 3.1833664989e-05 1.5819726677e+00 -2.7400570367e+00 1.5819726677e+00 2.7400570367e+00 
66100 5.9131349568e+00 3.1754853232e-05 1.5819726677e+00 -2.7400570367e+00 1.5819726677e+00 2.7400570367e+00 
66200 5.9131349792e+00 3.1679037953e-05 1.5819726677e+00 -2.7400570367e+00 1.5819726677e+00 2.7400570367e+00 
66300 5.9131350013e+00 3.1606145568e-05 1.5819726677e+00 -2.7400570367e+00 1.5819726677e+00 2.7400570367e+00 
66400 5.9131350232e+00 3.1536102785e-05 1.5819726677e+00 -2.7400570367e+00 1.5819726677e+00 2.7400570367e+00 
66500 5.9131350448e+00 3.1468836662e-05 1.5819726677e+00 -2.7400570367e+00 1.5819726677e+00 2.7400570367e+00 
66600 5.9131350661e+00 3.1404274644e-05 1.5819726677e+00 -2.7400570367e+00 1.5819726677e+00 2.7400570367e+00 
66700 5.9131350872e+00 3.1342344616e-05 1.5819726677e+00 -2.7400570367e+00 1.5819726677e+00 2.7400570367e+00 
66800 5.9131351081e+00 3.1282974941e-05 1.5819726677e+00 -2.7400570367e+00 1.5819726677e+00 2.7400570367e+00 
66900 5.9131351287e+00 3.1226094503e-05 1.5819726677e+00 -2.7400570367e+00 1.5819726677e+00 2.7400570367e+00 
67000 5.9131351490e+00 3.1171632744e-05 1.5819726677e+00 -2.7400570367e+00 1.5819726677e+00 2.7400570367e+00 
67100 5.9131351691e+00 3.1119519704e-05 1.5819726677e+00 -2.7400570367e+00 1.5819726677e+00 2.7400570367e+00 
67200 5.9131351890e+00 3.1069686058e-05 1.5819726677e+00 -2.7400570367e+00 1.5819726677e+00 2.7400570367e+00 
67300 5.9131352086e+00 3.1022063149e-05 1.5819726677e+00 -2.7400570367e+00 1.5819726677e+00 2.7400570367e+00 
67400 5.9131352280e+00 3.0976583016e-05 1.5819726677e+00 -2.7400570367e+00 1.5819726677e+00 2.7400570367e+00 
67500 5.9131352471e+00 3.0933178435e-05 1.5819726677e+00 -2.7400570367e+00 1.5819726677e+00 2.7400570367e+00 
67600 5.9131352661e+00 3.0891782943e-05 1.5819726677e+00 -2.7400570367e+00 1.5819726677e+00 2.7400570367e+00 
67700 5.9131352848e+00 3.0852330864e-05 1.5819726677e+00 -2.7400570367e+00 1.5819726677e+00 2.7400570367e+00 
67800 5.9131353032e+00 3.0814757341e-05 1.5819726677e+00 -2.7400570367e+00 1.5819726677e+00 2.7400570367e+00 
67900 5.9131353215e+00 3.0778998355e-05 1.5819726677e+00 -2.7400570367e+00 1.5819726677e+00 2.7400570367e+00 
68000 5.9131353395e+00 3.0744990754e-05 1.5819726677e+00 -2.7400570367e+00 1.5819726677e+00 2.7400570367e+00 
68100 5.9131353574e+00 3.0712672275e-05 1.5819726677e+00 -2.7400570367e+00 1.5819726677e+00 2.7400570367e+00 
68200 5.9131353750e+00 3.0681981559e-05 1.5819726677e+00 -2.7400570367e+00 1.5819726677e+00 2.7400570367e+00 
68300 5.9131353924e+00 3.0652858177e-05 1.5819726677e+00 -2.7400570367e+00 1.5819726677e+00 2.7400570367e+00 
68400 5.9131354096e+00 3.0625242644e-05 1.5819726677e+00 -2.7400570367e+00 1.5819726677e+00 2.7400570367e+00 
68500 5.9131354266e+00 3.0599076439e-05 1.5819726677e+00 -2.7400570367e+00 1.5819726677e+00 2.7400570367e+00 
68600 5.9131354434e+00 3.0574302016e-05 1.5819726677e+00 -2.7400570367e+00 1.5819726677e+00 2.7400570367e+00 
68700 5.9131354600e+00 3.0550862824e-05 1.5819726677e+00 -2.7400570367e+00 1.5819726677e+00 2.7400570367e+00 
68800 5.9131354764e+00 3.0528703311e-05 1.5819726677e+00 -2.7400570367e+00 1.5819726677e+00 2.7400570367e+00 
68900 5.9131354926e+00 3.0507768948e-05 1.5819726677e+00 -2.7400570367e+00 1.5819726677e+00 2.7400570367e+00 
69000 5.9131355086e+00 3.0488006228e-05 1.5819726677e+00 -2.7400570367e+00 1.5819726677e+00 2.7400570367e+00 
69100 5.9131355244e+00 3.0469362684e-05 1.5819726677e+00 -2.7400570367e+00 1.5819726677e+00 2.7400570367e+00 
69200 5.9131355400e+00 3.0451786890e-05 1.5819726677e+00 -2.7400570367e+00 1.5819726677e+00 2.7400570367e+00 
69300 5.9131355555e+00 3.0435228473e-05 1.5819726677e+00 -2.7400570367e+00 1.5819726677e+00 2.7400570367e+00 
69400 5.9131355707e+00 3.0419638118e-05 1.5819726677e+00 -2.7400570367e+00 1.5819726677e+00 2.7400570367e+00 
69500 5.9131355858e+00 3.0404967573e-05 1.5819726677e+00 -2.7400570367e+00 1.5819726677e+00 2.7400570367e+00 
69600 5.9131356007e+00 3.0391169650e-05 1.5819726677e+00 -2.7400570367e+00 1.5819726677e+00 2.7400570367e+00 
69700 5.9131356154e+00 3.0378198234e-05 1.5819726677e+00 -2.7400570367e+00 1.5819726677e+00 2.7400570367e+00 
69800 5.9131356300e+00 3.0366008278e-05 1.5819726677e+00 -2.7400570367e+00 1.5819726677e+00 2.7400570367e+00 
69900 5.9131356443e+00 3.0354555811e-05 1.5819726677e+00 -2.7400570367e+00 1.5819726677e+00 2.7400570367e+00 
70000 5.9131356585e+00 3.0343797932e-05 1.5819726677e+00 -2.7400570367e+00 1.5819726677e+00 2.7400570367e+00 
70100 5.9131356726e+00 3.0333692817e-05 1.5819726677e+00 -2.7400570367e+00 1.5819726677e+00 2.7400570367e+00 
70200 5.9131356864e+00 3.0324199707e-05 1.5819726677e+00 -2.7400570367e+00 1.5819726677e+00 2.7400570367e+00 
70300 5.9131357001e+00 3.0315278913e-05 1.5819726677e+00 -2.7400570367e+00 1.5819726677e+00 2.7400570367e+00 
70400 5.9131357137e+00 3.0306891816e-05 1.5819726677e+00 -2.7400570367e+00 1.5819726677e+00 2.7400570367e+00 
70500 5.9131357271e+00 3.0299000852e-05 1.5819726677e+00 -2.7400570367e+00 1.5819726677e+00 2.7400570367e+00 
70600 5.9131357403e+00 3.0291569515e-05 1.5819726677e+00 -2.7400570367e+00 1.5819726677e+00 2.7400570367e+00 
70700 5.9131357534e+00 3.0284562355e-05 1.5819726677e+00 -2.7400570367e+00 1.5819726677e+00 2.7400570367e+00 
70800 5.9131357663e+00 3.0277944961e-05 1.5819726677e+00 -2.7400570367e+00 1.5819726677e+00 2.7400570367e+00 
70900 5.9131357790e+00 3.0271683965e-05 1.5819726677e+00 -2.7400570367e+00 1.5819726677e+00 2.7400570367e+00 
71000 5.9131357916e+00 3.0265747029e-05 1.5819726677e+00 -2.7400570367e+00 1.5819726677e+00 2.7400570367e+00 
71100 5.9131358041e+00 3.0260102836e-05 1.5819726677e+00 -2.7400570367e+00 1.5819726677e+00 2.7400570367e+00 
71200 5.9131358164e+00 3.0254721087e-05 1.5819726677e+00 -2.7400570367e+00 1.5819726677e+00 2.7400570367e+00 
71300 5.9131358286e+00 3.0249572488e-05 1.5819726677e+00 -2.7400570367e+00 1.5819726677e+00 2.7400570367e+00 
71400 5.9131358406e+00 3.0244628738e-05 1.5819726677e+00 -2.7400570367e+00 1.5819726677e+00 2.7400570367e+00 
71500 5.9131358525e+00 3.0239862526e-05 1.5819726677e+00 -2.7400570367e+00 1.5819726677e+00 2.7400570367e+00 
71600 5.9131358642e+00 3.0235247513e-05 1.5819726677e+00 -2.7400570367e+00 1.5819726677e+00 2.7400570367e+00 
71700 5.9131358758e+00 3.0230758328e-05 1.5819726677e+00 -2.7400570367e+00 1.5819726677e+00 2.7400570367e+00 
71800 5.9131358873e+00 3.0226370547e-05 1.5819726677e+00 -2.7400570367e+00 1.5819726677e+00 2.7400570367e+00 
71900 5.9131358986e+00 3.0222060693e-05 1.5819726677e+00 -2.7400570367e+00 1.5819726677e+00 2.7400570367e+00 
72000 5.9131359098e+00 3.0217806211e-05 1.5819726677e+00 -2.7400570367e+00 1.5819726677e+00 2.7400570367e+00 
72100 5.9131359208e+00 3.0213585466e-05 1.5819726677e+00 -2.7400570367e+00 1.5819726677e+00 2.7400570367e+00 
72200 5.9131359318e+00 3.0209377724e-05 1.5819726677e+00 -2.7400570367e+00 1.5819726677e+00 2.7400570367e+00 
72300 5.9131359426e+00 3.0205163141e-05 1.5819726677e+00 -2.7400570367e+00 1.5819726677e+00 2.7400570367e+00 
72400 5.9131359533e+00 3.0200922747e-05 1.5819726677e+00 -2.7400570367e+00 1.5819726677e+00 2.7400570367e+00 
72500 5.9131359638e+00 3.0196638434e-05 1.5819726677e+00 -2.7400570367e+00 1.5819726677e+00 2.7400570367e+00 
72600 5.9131359742e+00 3.0192292943e-05 1.5819726677e+00 -2.7400570367e+00 1.5819726677e+00 2.7400570367e+00 
72700 5.9131359845e+00 3.0187869844e-05 1.5819726677e+00 -2.7400570367e+00 1.5819726677e+00 2.7400570367e+00 
72800 5.9131359947e+00 3.0183353529e-05 1.5819726677e+00 -2.7400570367e+00 1.5819726677e+00 2.7400570367e+00 
72900 5.9131360048e+00 3.0178729192e-05 1.5819726677e+00 -2.7400570367e+00 1.5819726677e+00 2.7400570367e+00 
73000 5.9131360147e+00 3.0173982813e-05 1.5819726677e+00 -2.7400570367e+00 1.5819726677e+00 2.7400570367e+00 
73100 5.9131360245e+00 3.0169101146e-05 1.5819726677e+00 -2.7400570367e+00 1.5819726677e+00 2.7400570367e+00 
73200 5.9131360342e+00 3.0164071703e-05 1.5819726677e+00 -2.7400570367e+00 1.5819726677e+00 2.7400570367e+00 
73300 5.9131360438e+00 3.0158882735e-05 1.5819726677e+00 -2.7400570367e+00 1.5819726677e+00 2.7400570367e+00 
73400 5.9131360533e+00 3.0153523225e-05 1.5819726677e+00 -2.7400570367e+00 1.5819726677e+00 2.7400570367e+00 
73500 5.9131360627e+00 3.0147982859e-05 1.5819726677e+00 -2.7400570367e+00 1.5819726677e+00 2.7400570367e+00 
73600 5.9131360719e+00 3.0142252020e-05 1.5819726677e+00 -2.7400570367e+00 1.5819726677e+00 2.7400570367e+00 
73700 5.9131360811e+00 3.0136321773e-05 1.5819726677e+00 -2.7400570367e+00 1.5819726677e+00 2.7400570367e+00 
73800 5.9131360901e+00 3.0130183840e-05 1.5819726677e+00 -2.7400570367e+00 1.5819726677e+00 2.7400570367e+00 
73900 5.9131360991e+00 3.0123830593e-05 1.5819726677e+00 -2.7400570367e+00 1.5819726677e+00 2.7400570367e+00 
74000 5.9131361079e+00 3.0117255032e-05 1.5819726677e+00 -2.7400570367e+00 1.5819726677e+00 2.7400570367e+00 
74100 5.9131361166e+00 3.0110450775e-05 1.5819726677e+00 -2.7400570367e+00 1.5819726677e+00 2.7400570367e+00 
74200 5.9131361252e+00 3.0103412032e-05 1.5819726677e+00 -2.7400570367e+00 1.5819726677e+00 2.7400570367e+00 
74300 5.9131361338e+00 3.0096133600e-05 1.5819726677e+00 -2.7400570367e+00 1.5819726677e+00 2.7400570367e+00 
74400 5.9131361422e+00 3.0088610843e-05 1.5819726677e+00 -2.7400570367e+00 1.5819726677e+00 2.7400570367e+00 
74500 5.9131361505e+00 3.0080839670e-05 1.5819726677e+00 -2.7400570367e+00 1.5819726677e+00 2.7400570367e+00 
74600 5.9131361587e+00 3.0072816529e-05 1.5819726677e+00 -2.7400570367e+00 1.5819726677e+00 2.7400570367e+00 
74700 5.9131361669e+00 3.0064538384e-05 1.5819726677e+00 -2.7400570367e+00 1.5819726677e+00 2.7400570367e+00 
74800 5.9131361749e+00 3.0056002704e-05 1.5819726677e+00 -2.7400570367e+00 1.5819726677e+00 2.7400570367e+00 
74900 5.9131361828e+00 3.0047207441e-05 1.5819726677e+00 -2.7400570367e+00 1.5819726677e+00 2.7400570367e+00 
75000 5.9131361907e+00 3.0038151021e-05 1.5819726677e+00 -2.7400570367e+00 1.5819726677e+00 2.7400570367e+00 
75100 5.9131361984e+00 3.0028832326e-05 1.5819726677e+00 -2.7400570367e+00 1.5819726677e+00 2.7400570367e+00 
75200 5.9131362061e+00 3.0019250677e-05 1.5819726677e+00 -2.7400570367e+00 1.5819726677e+00 2.7400570367e+00 
75300 5.9131362137e+00 3.0009405824e-05 1.5819726677e+00 -2.7400570367e+00 1.5819726677e+00 2.7400570367e+00 
75400 5.9131362211e+00 2.9999297921e-05 1.5819726677e+00 -2.7400570367e+00 1.5819726677e+00 2.7400570367e+00 
75500 5.9131362285e+00 2.9988927522e-05 1.5819726677e+00 -2.7400570367e+00 1.5819726677e+00 2.7400570367e+00 
75600 5.9131362358e+00 2.9978295559e-05 1.5819726677e+00 -2.7400570367e+00 1.5819726677e+00 2.7400570367e+00 
75700 5.9131362431e+00 2.9967403333e-05 1.5819726677e+00 -2.7400570367e+00 1.5819726677e+00 2.7400570367e+00 
75800 5.9131362502e+00 2.9956252492e-05 1.5819726677e+00 -2.7400570367e+00 1.5819726677e+00 2.7400570367e+00 
75900 5.9131362573e+00 2.9944845023e-05 1.5819726677e+00 -2.7400570367e+00 1.5819726677e+00 2.7400570367e+00 
76000 5.9131362642e+00 2.9933183235e-05 1.5819726677e+00 -2.7400570367e+00 1.5819726677e+00 2.7400570367e+00 
76100 5.9131362711e+00 2.9921269748e-05 1.5819726677e+00 -2.7400570367e+00 1.5819726677e+00 2.7400570367e+00 
76200 5.9131362779e+00 2.9909107475e-05 1.5819726677e+00 -2.7400570367e+00 1.5819726677e+00 2.7400570367e+00 
76300 5.9131362847e+00 2.9896699611e-05 1.5819726677e+00 -2.7400570367e+00 1.5819726677e+00 2.7400570367e+00 
76400 5.9131362913e+00 2.9884049619e-05 1.5819726677e+00 -2.7400570367e+00 1.5819726677e+00 2.7400570367e+00 
76500 5.9131362979e+00 2.9871161221e-05 1.5819726677e+00 -2.7400570367e+00 1.5819726677e+00 2.7400570367e+00 
76600 5.9131363044e+00 2.9858038374e-05 1.5819726677e+00 -2.7400570367e+00 1.5819726677e+00 2.7400570367e+00 
76700 5.9131363108e+00 2.9844685270e-05 1.5819726677e+00 -2.7400570367e+00 1.5819726677e+00 2.7400570367e+00 
76800 5.9131363172e+00 2.9831106316e-05 1.5819726677e+00 -2.7400570367e+00 1.5819726677e+00 2.7400570367e+00 
76900 5.9131363234e+00 2.9817306124e-05 1.5819726677e+00 -2.7400570367e+00 1.5819726677e+00 2.7400570367e+00 
77000 5.9131363296e+00 2.9803289498e-05 1.5819726677e+00 -2.7400570367e+00 1.5819726677e+00 2.7400570367e+00 
77100 5.9131363358e+00 2.9789061424e-05 1.5819726677e+00 -2.7400570367e+00 1.5819726677e+00 2.7400570367e+00 
77200 5.9131363418e+00 2.9774627058e-05 1.5819726677e+00 -2.7400570367e+00 1.5819726677e+00 2.7400570367e+00 
77300 5.9131363478e+00 2.9759991711e-05 1.5819726677e+00 -2.7400570367e+00 1.5819726677e+00 2.7400570367e+00 
77400 5.9131363537e+00 2.9745160844e-05 1.5819726677e+00 -2.7400570367e+00 1.5819726677e+00 2.7400570367e+00 
77500 5.9131363595e+00 2.9730140053e-05 1.5819726677e+00 -2.7400570367e+00 1.5819726677e+00 2.7400570367e+00 
77600 5.9131363653e+00 2.9714935058e-05 1.5819726677e+00 -2.7400570367e+00 1.5819726677e+00 2.7400570367e+00 
77700 5.9131363710e+00 2.9699551695e-05 1.5819726677e+00 -2.7400570367e+00 1.5819726677e+00 2.7400570367e+00 
77800 5.9131363767e+00 2.9683995907e-05 1.5819726677e+00 -2.7400570367e+00 1.5819726677e+00 2.7400570367e+00 
77900 5.9131363823e+00 2.9668273728e-05 1.5819726677e+00 -2.7400570367e+00 1.5819726677e+00 2.7400570367e+00 
78000 5.9131363878e+00 2.9652391281e-05 1.5819726677e+00 -2.7400570367e+00 1.5819726677e+00 2.7400570367e+00 
78100 5.9131363932e+00 2.9636354763e-05 1.5819726677e+00 -2.7400570367e+00 1.5819726677e+00 2.7400570367e+00 
78200 5.9131363986e+00 2.9620170438e-05 1.5819726677e+00 -2.7400570367e+00 1.5819726677e+00 2.7400570367e+00 
78300 5.9131364039e+00 2.9603844628e-05 1.5819726677e+00 -2.7400570367e+00 1.5819726677e+00 2.7400570367e+00 
78400 5.9131364092e+00 2.9587383705e-05 1.5819726677e+00 -2.7400570367e+00 1.5819726677e+00 2.7400570367e+00 
78500 5.9131364144e+00 2.9570794080e-05 1.5819726677e+00 -2.7400570367e+00 1.5819726677e+00 2.7400570367e+00 
78600 5.9131364195e+00 2.9554082200e-05 1.5819726677e+00 -2.7400570367e+00 1.5819726677e+00 2.7400570367e+00 
78700 5.9131364246e+00 2.9537254533e-05 1.5819726677e+00 -2.7400570367e+00 1.5819726677e+00 2.7400570367e+00 
78800 5.9131364296e+00 2.9520317568e-05 1.5819726677e+00 -2.7400570367e+00 1.5819726677e+00 2.7400570367e+00 
78900 5.9131364346e+00 2.9503277799e-05 1.5819726677e+00 -2.7400570367e+00 1.5819726677e+00 2.7400570367e+00 
79000 5.9131364395e+00 2.9486141727e-05 1.5819726677e+00 -2.7400570367e+00 1.5819726677e+00 2.7400570367e+00 
79100 5.9131364443e+00 2.9468915846e-05 1.5819726677e+00 -2.7400570367e+00 1.5819726677e+00 2.7400570367e+00 
79200 5.9131364491e+00 2.9451606638e-05 1.5819726677e+00 -2.7400570367e+00 1.5819726677e+00 2.7400570367e+00 
79300 5.9131364538e+00 2.9434220571e-05 1.5819726677e+00 -2.7400570367e+00 1.5819726677e+00 2.7400570367e+00 
79400 5.9131364585e+00 2.9416764084e-05 1.5819726677e+00 -2.7400570367e+00 1.5819726677e+00 2.7400570367e+00 
79500 5.9131364631e+00 2.9399243591e-05 1.5819726677e+00 -2.7400570367e+00 1.5819726677e+00 2.7400570367e+00 
79600 5.9131364677e+00 2.9381665466e-05 1.5819726677e+00 -2.7400570367e+00 1.5819726677e+00 2.7400570367e+00 
79700 5.9131364722e+00 2.9364036046e-05 1.5819726677e+00 -2.7400570367e+00 1.5819726677e+00 2.7400570367e+00 
79800 5.9131364767e+00 2.9346361615e-05 1.5819726677e+00 -2.7400570367e+00 1.5819726677e+00 2.7400570367e+00 
79900 5.9131364811e+00 2.9328648414e-05 1.5819726677e+00 -2.7400570367e+00 1.5819726677e+00 2.7400570367e+00 
80000 5.9131364855e+00 2.9310902620e-05 1.5819726677e+00 -2.7400570367e+00 1.5819726677e+00 2.7400570367e+00 
80100 5.9131364898e+00 2.9293130351e-05 1.5819726677e+00 -2.7400570367e+00 1.5819726677e+00 2.7400570367e+00 
80200 5.9131364940e+00 2.9275337661e-05 1.5819726677e+00 -2.7400570367e+00 1.5819726677e+00 2.7400570367e+00 
80300 5.9131364982e+00 2.9257530528e-05 1.5819726677e+00 -2.7400570367e+00 1.5819726677e+00 2.7400570367e+00 
80400 5.9131365024e+00 2.9239714864e-05 1.5819726677e+00 -2.7400570367e+00 1.5819726677e+00 2.7400570367e+00 
80500 5.9131365065e+00 2.9221896499e-05 1.5819726677e+00 -2.7400570367e+00 1.5819726677e+00 2.7400570367e+00 
80600 5.9131365106e+00 2.9204081179e-05 1.5819726677e+00 -2.7400570367e+00 1.5819726677e+00 2.7400570367e+00 
80700 5.9131365146e+00 2.9186274572e-05 1.5819726677e+00 -2.7400570367e+00 1.5819726677e+00 2.7400570367e+00 
80800 5.9131365186e+00 2.9168482248e-05 1.5819726677e+00 -2.7400570367e+00 1.5819726677e+00 2.7400570367e+00 
80900 5.9131365225e+00 2.9150709694e-05 1.5819726677e+00 -2.7400570367e+00 1.5819726677e+00 2.7400570367e+00 
81000 5.9131365264e+00 2.9132962298e-05 1.5819726677e+00 -2.7400570367e+00 1.5819726677e+00 2.7400570367e+00 
81100 5.9131365302e+00 2.9115245353e-05 1.5819726677e+00 -2.7400570367e+00 1.5819726677e+00 2.7400570367e+00 
81200 5.9131365340e+00 2.9097564052e-05 1.5819726677e+00 -2.7400570367e+00 1.5819726677e+00 2.7400570367e+00 
81300 5.9131365378e+00 2.9079923488e-05 1.5819726677e+00 -2.7400570367e+00 1.5819726677e+00 2.7400570367e+00 
81400 5.9131365415e+00 2.9062328647e-05 1.5819726677e+00 -2.7400570367e+00 1.5819726677e+00 2.7400570367e+00 
81500 5.9131365451e+00 2.9044784410e-05 1.5819726677e+00 -2.7400570367e+00 1.5819726677e+00 2.7400570367e+00 
81600 5.9131365487e+00 2.9027295552e-05 1.5819726677e+00 -2.7400570367e+00 1.5819726677e+00 2.7400570367e+00 
81700 5.9131365523e+00 2.9009866737e-05 1.5819726677e+00 -2.7400570367e+00 1.5819726677e+00 2.7400570367e+00 
81800 5.9131365558e+00 2.8992502517e-05 1.5819726677e+00 -2.7400570367e+00 1.5819726677e+00 2.7400570367e+00 
81900 5.9131365593e+00 2.8975207335e-05 1.5819726677e+00 -2.7400570367e+00 1.5819726677e+00 2.7400570367e+00 
82000 5.9131365628e+00 2.8957985517e-05 1.5819726677e+00 -2.7400570367e+00 1.5819726677e+00 2.7400570367e+00 
82100 5.9131365662e+00 2.8940841276e-05 1.5819726677e+00 -2.7400570367e+00 1.5819726677e+00 2.7400570367e+00 
82200 5.9131365696e+00 2.8923778712e-05 1.5819726677e+00 -2.7400570367e+00 1.5819726677e+00 2.7400570367e+00 
82300 5.9131365729e+00 2.8906801805e-05 1.5819726677e+00 -2.7400570367e+00 1.5819726677e+00 2.7400570367e+00 
82400 5.9131365762e+00 2.8889914420e-05 1.5819726677e+00 -2.7400570367e+00 1.5819726677e+00 2.7400570367e+00 
82500 5.9131365795e+00 2.8873120303e-05 1.5819726677e+00 -2.7400570367e+00 1.5819726677e+00 2.7400570367e+00 
82600 5.9131365827e+00 2.8856423085e-05 1.5819726677e+00 -2.7400570367e+00 1.5819726677e+00 2.7400570367e+00 
82700 5.9131365859e+00 2.8839826277e-05 1.5819726677e+00 -2.7400570367e+00 1.5819726677e+00 2.7400570367e+00 
82800 5.9131365890e+00 2.8823333273e-05 1.5819726677e+00 -2.7400570367e+00 1.5819726677e+00 2.7400570367e+00 
82900 5.9131365921e+00 2.8806947346e-05 1.5819726677e+00 -2.7400570367e+00 1.5819726677e+00 2.7400570367e+00 
83000 5.9131365952e+00 2.8790671656e-05 1.5819726677e+00 -2.7400570367e+00 1.5819726677e+00 2.7400570367e+00 
83100 5.9131365982e+00 2.8774509241e-05 1.5819726677e+00 -2.7400570367e+00 1.5819726677e+00 2.7400570367e+00 
83200 5.9131366012e+00 2.8758463024e-05 1.5819726677e+00 -2.7400570367e+00 1.5819726677e+00 2.7400570367e+00 
83300 5.9131366042e+00 2.8742535807e-05 1.5819726677e+00 -2.7400570367e+00 1.5819726677e+00 2.7400570367e+00 
83400 5.9131366071e+00 2.8726730281e-05 1.5819726677e+00 -2.7400570367e+00 1.5819726677e+00 2.7400570367e+00 
83500 5.9131366100e+00 2.8711049016e-05 1.5819726677e+00 -2.7400570367e+00 1.5819726677e+00 2.7400570367e+00 
83600 5.9131366129e+00 2.8695494470e-05 1.5819726677e+00 -2.7400570367e+00 1.5819726677e+00 2.7400570367e+00 
83700 5.9131366158e+00 2.8680068985e-05 1.5819726677e+00 -2.7400570367e+00 1.5819726677e+00 2.7400570367e+00 
83800 5.9131366186e+00 2.8664774790e-05 1.5819726677e+00 -2.7400570367e+00 1.5819726677e+00 2.7400570367e+00 
83900 5.9131366213e+00 2.8649614000e-05 1.5819726677e+00 -2.7400570367e+00 1.5819726677e+00 2.7400570367e+00 
84000 5.9131366241e+00 2.8634588618e-05 1.5819726677e+00 -2.7400570367e+00 1.5819726677e+00 2.7400570367e+00 
84100 5.9131366268e+00 2.8619700540e-05 1.5819726677e+00 -2.7400570367e+00 1.5819726677e+00 2.7400570367e+00 
84200 5.9131366294e+00 2.8604951545e-05 1.5819726677e+00 -2.7400570367e+00 1.5819726677e+00 2.7400570367e+00 
84300 5.9131366321e+00 2.8590343316e-05 1.5819726677e+00 -2.7400570367e+00 1.5819726677e+00 2.7400570367e+00 
84400 5.9131366347e+00 2.8575877414e-05 1.5819726677e+00 -2.7400570367e+00 1.5819726677e+00 2.7400570367e+00 
84500 5.9131366373e+00 2.8561555308e-05 1.5819726677e+00 -2.7400570367e+00 1.5819726677e+00 2.7400570367e+00 
84600 5.9131366398e+00 2.8547378353e-05 1.5819726677e+00 -2.7400570367e+00 1.5819726677e+00 2.7400570367e+00 
84700 5.9131366424e+00 2.8533347805e-05 1.5819726677e+00 -2.7400570367e+00 1.5819726677e+00 2.7400570367e+00 
84800 5.9131366448e+00 2.8519464820e-05 1.5819726677e+00 -2.7400570367e+00 1.5819726677e+00 2.7400570367e+00 
84900 5.9131366473e+00 2.8505730454e-05 1.5819726677e+00 -2.7400570367e+00 1.5819726677e+00 2.7400570367e+00 
85000 5.9131366498e+00 2.8492145662e-05 1.5819726677e+00 -2.7400570367e+00 1.5819726677e+00 2.7400570367e+00 
85100 5.9131366522e+00 2.8478711305e-05 1.5819726677e+00 -2.7400570367e+00 1.5819726677e+00 2.7400570367e+00 
85200 5.9131366545e+00 2.8465428149e-05 1.5819726677e+00 -2.7400570367e+00 1.5819726677e+00 2.7400570367e+00 
85300 5.9131366569e+00 2.8452296865e-05 1.5819726677e+00 -2.7400570367e+00 1.5819726677e+00 2.7400570367e+00 
85400 5.9131366592e+00 2.8439318037e-05 1.5819726677e+00 -2.7400570367e+00 1.5819726677e+00 2.7400570367e+00 
85500 5.9131366615e+00 2.8426492155e-05 1.5819726677e+00 -2.7400570367e+00 1.5819726677e+00 2.7400570367e+00 
85600 5.9131366638e+00 2.8413819623e-05 1.5819726677e+00 -2.7400570367e+00 1.5819726677e+00 2.7400570367e+00 
85700 5.9131366660e+00 2.8401300759e-05 1.5819726677e+00 -2.7400570367e+00 1.5819726677e+00 2.7400570367e+00 
85800 5.9131366683e+00 2.8388935798e-05 1.5819726677e+00 -2.7400570367e+00 1.5819726677e+00 2.7400570367e+00 
85900 5.9131366705e+00 2.8376724892e-05 1.5819726677e+00 -2.7400570367e+00 1.5819726677e+00 2.7400570367e+00 
86000 5.9131366726e+00 2.8364668111e-05 1.5819726677e+00 -2.7400570367e+00 1.5819726677e+00 2.7400570367e+00 
86100 5.9131366748e+00 2.8352765449e-05 1.5819726677e+00 -2.7400570367e+00 1.5819726677e+00 2.7400570367e+00 
86200 5.9131366769e+00 2.8341016824e-05 1.5819726677e+00 -2.7400570367e+00 1.5819726677e+00 2.7400570367e+00 
86300 5.9131366790e+00 2.8329422077e-05 1.5819726677e+00 -2.7400570367e+00 1.5819726677e+00 2.7400570367e+00 
86400 5.9131366811e+00 2.8317980978e-05 1.5819726677e+00 -2.7400570367e+00 1.5819726677e+00 2.7400570367e+00 
86500 5.9131366831e+00 2.8306693227e-05 1.5819726677e+00 -2.7400570367e+00 1.5819726677e+00 2.7400570367e+00 
86600 5.9131366852e+00 2.8295558454e-05 1.5819726677e+00 -2.7400570367e+00 1.5819726677e+00 2.7400570367e+00 
86700 5.9131366872e+00 2.8284576222e-05 1.5819726677e+00 -2.7400570367e+00 1.5819726677e+00 2.7400570367e+00 
86800 5.9131366891e+00 2.8273746032e-05 1.5819726677e+00 -2.7400570367e+00 1.5819726677e+00 2.7400570367e+00 
86900 5.9131366911e+00 2.8263067320e-05 1.5819726677e+00 -2.7400570367e+00 1.5819726677e+00 2.7400570367e+00 
87000 5.9131366930e+00 2.8252539462e-05 1.5819726677e+00 -2.7400570367e+00 1.5819726677e+00 2.7400570367e+00 
87100 5.9131366949e+00 2.8242161773e-05 1.5819726677e+00 -2.7400570367e+00 1.5819726677e+00 2.7400570367e+00 
87200 5.9131366968e+00 2.8231933516e-05 1.5819726677e+00 -2.7400570367e+00 1.5819726677e+00 2.7400570367e+00 
87300 5.9131366987e+00 2.8221853892e-05 1.5819726677e+00 -2.7400570367e+00 1.5819726677e+00 2.7400570367e+00 
87400 5.9131367005e+00 2.8211922056e-05 1.5819726677e+00 -2.7400570367e+00 1.5819726677e+00 2.7400570367e+00 
87500 5.9131367024e+00 2.8202137107e-05 1.5819726677e+00 -2.7400570367e+00 1.5819726677e+00 2.7400570367e+00 
87600 5.9131367042e+00 2.8192498098e-05 1.5819726677e+00 -2.7400570367e+00 1.5819726677e+00 2.7400570367e+00 
87700 5.9131367060e+00 2.8183004034e-05 1.5819726677e+00 -2.7400570367e+00 1.5819726677e+00 2.7400570367e+00 
87800 5.9131367077e+00 2.8173653873e-05 1.5819726677e+00 -2.7400570367e+00 1.5819726677e+00 2.7400570367e+00 
87900 5.9131367095e+00 2.8164446530e-05 1.5819726677e+00 -2.7400570367e+00 1.5819726677e+00 2.7400570367e+00 
88000 5.9131367112e+00 2.8155380879e-05 1.5819726677e+00 -2.7400570367e+00 1.5819726677e+00 2.7400570367e+00 
88100 5.9131367129e+00 2.8146455756e-05 1.5819726677e+00 -2.7400570367e+00 1.5819726677e+00 2.7400570367e+00 
88200 5.9131367146e+00 2.8137669955e-05 1.5819726677e+00 -2.7400570367e+00 1.5819726677e+00 2.7400570367e+00 
88300 5.9131367162e+00 2.8129022236e-05 1.5819726677e+00 -2.7400570367e+00 1.5819726677e+00 2.7400570367e+00 
88400 5.9131367179e+00 2.8120511326e-05 1.5819726677e+00 -2.7400570367e+00 1.5819726677e+00 2.7400570367e+00 
88500 5.9131367195e+00 2.8112135917e-05 1.5819726677e+00 -2.7400570367e+00 1.5819726677e+00 2.7400570367e+00 
88600 5.9131367211e+00 2.8103894670e-05 1.5819726677e+00 -2.7400570367e+00 1.5819726677e+00 2.7400570367e+00 
88700 5.9131367227e+00 2.8095786218e-05 1.5819726677e+00 -2.7400570367e+00 1.5819726677e+00 2.7400570367e+00 
88800 5.9131367243e+00 2.8087809164e-05 1.5819726677e+00 -2.7400570367e+00 1.5819726677e+00 2.7400570367e+00 
88900 5.9131367258e+00 2.8079962091e-05 1.5819726677e+00 -2.7400570367e+00 1.5819726677e+00 2.7400570367e+00 
89000 5.9131367274e+00 2.8072243549e-05 1.5819726677e+00 -2.7400570367e+00 1.5819726677e+00 2.7400570367e+00 
89100 5.9131367289e+00 2.8064652074e-05 1.5819726677e+00 -2.7400570367e+00 1.5819726677e+00 2.7400570367e+00 
89200 5.9131367304e+00 2.8057186176e-05 1.5819726677e+00 -2.7400570367e+00 1.5819726677e+00 2.7400570367e+00 
89300 5.9131367319e+00 2.8049844344e-05 1.5819726677e+00 -2.7400570367e+00 1.5819726677e+00 2.7400570367e+00 
89400 5.9131367333e+00 2.8042625055e-05 1.5819726677e+00 -2.7400570367e+00 1.5819726677e+00 2.7400570367e+00 
89500 5.9131367348e+00 2.8035526762e-05 1.5819726677e+00 -2.7400570367e+00 1.5819726677e+00 2.7400570367e+00 
89600 5.9131367362e+00 2.8028547909e-05 1.5819726677e+00 -2.7400570367e+00 1.5819726677e+00 2.7400570367e+00 
89700 5.9131367376e+00 2.8021686924e-05 1.5819726677e+00 -2.7400570367e+00 1.5819726677e+00 2.7400570367e+00 
89800 5.9131367390e+00 2.8014942223e-05 1.5819726677e+00 -2.7400570367e+00 1.5819726677e+00 2.7400570367e+00 
89900 5.9131367404e+00 2.8008312210e-05 1.5819726677e+00 -2.7400570367e+00 1.5819726677e+00 2.7400570367e+00 
90000 5.9131367418e+00 2.8001795281e-05 1.5819726677e+00 -2.7400570367e+00 1.5819726677e+00 2.7400570367e+00 
90100 5.9131367432e+00 2.7995389822e-05 1.5819726677e+00 -2.7400570367e+00 1.5819726677e+00 2.7400570367e+00 
90200 5.9131367445e+00 2.7989094216e-05 1.5819726677e+00 -2.7400570367e+00 1.5819726677e+00 2.7400570367e+00 
90300 5.9131367458e+00 2.7982906836e-05 1.5819726677e+00 -2.7400570367e+00 1.5819726677e+00 2.7400570367e+00 
90400 5.9131367471e+00 2.7976826051e-05 1.5819726677e+00 -2.7400570367e+00 1.5819726677e+00 2.7400570367e+00 
90500 5.9131367484e+00 2.7970850229e-05 1.5819726677e+00 -2.7400570367e+00 1.5819726677e+00 2.7400570367e+00 
90600 5.9131367497e+00 2.7964977736e-05 1.5819726677e+00 -2.7400570367e+00 1.5819726677e+00 2.7400570367e+00 
90700 5.9131367510e+00 2.7959206934e-05 1.5819726677e+00 -2.7400570367e+00 1.5819726677e+00 2.7400570367e+00 
90800 5.9131367522e+00 2.7953536187e-05 1.5819726677e+00 -2.7400570367e+00 1.5819726677e+00 2.7400570367e+00 
90900 5.9131367534e+00 2.7947963860e-05 1.5819726677e+00 -2.7400570367e+00 1.5819726677e+00 2.7400570367e+00 
91000 5.9131367547e+00 2.7942488321e-05 1.5819726677e+00 -2.7400570367e+00 1.5819726677e+00 2.7400570367e+00 
91100 5.9131367559e+00 2.7937107941e-05 1.5819726677e+00 -2.7400570367e+00 1.5819726677e+00 2.7400570367e+00 
91200 5.9131367571e+00 2.7931821092e-05 1.5819726677e+00 -2.7400570367e+00 1.5819726677e+00 2.7400570367e+00 
91300 5.9131367582e+00 2.7926626155e-05 1.5819726677e+00 -2.7400570367e+00 1.5819726677e+00 2.7400570367e+00 
91400 5.9131367594e+00 2.7921521516e-05 1.5819726677e+00 -2.7400570367e+00 1.5819726677e+00 2.7400570367e+00 
91500 5.9131367606e+00 2.7916505567e-05 1.5819726677e+00 -2.7400570367e+00 1.5819726677e+00 2.7400570367e+00 
91600 5.9131367617e+00 2.7911576708e-05 1.5819726677e+00 -2.7400570367e+00 1.5819726677e+00 2.7400570367e+00 
91700 5.9131367628e+00 2.7906733347e-05 1.5819726677e+00 -2.7400570367e+00 1.5819726677e+00 2.7400570367e+00 
91800 5.9131367639e+00 2.7901973904e-05 1.5819726677e+00 -2.7400570367e+00 1.5819726677e+00 2.7400570367e+00 
91900 5.9131367650e+00 2.7897296804e-05 1.5819726677e+00 -2.7400570367e+00 1.5819726677e+00 2.7400570367e+00 
92000 5.9131367661e+00 2.7892700488e-05 1.5819726677e+00 -2.7400570367e+00 1.5819726677e+00 2.7400570367e+00 
92100 5.9131367672e+00 2.7888183405e-05 1.5819726677e+00 -2.7400570367e+00 1.5819726677e+00 2.7400570367e+00 
92200 5.9131367683e+00 2.7883744019e-05 1.5819726677e+00 -2.7400570367e+00 1.5819726677e+00 2.7400570367e+00 
92300 5.9131367693e+00 2.7879380805e-05 1.5819726677e+00 -2.7400570367e+00 1.5819726677e+00 2.7400570367e+00 
92400 5.9131367704e+00 2.7875092249e-05 1.5819726677e+00 -2.7400570367e+00 1.5819726677e+00 2.7400570367e+00 
92500 5.9131367714e+00 2.7870876855e-05 1.5819726677e+00 -2.7400570367e+00 1.5819726677e+00 2.7400570367e+00 
92600 5.9131367724e+00 2.7866733141e-05 1.5819726677e+00 -2.7400570367e+00 1.5819726677e+00 2.7400570367e+00 
92700 5.9131367734e+00 2.7862659637e-05 1.5819726677e+00 -2.7400570367e+00 1.5819726677e+00 2.7400570367e+00 
92800 5.9131367744e+00 2.7858654892e-05 1.5819726677e+00 -2.7400570367e+00 1.5819726677e+00 2.7400570367e+00 
92900 5.9131367754e+00 2.7854717469e-05 1.5819726677e+00 -2.7400570367e+00 1.5819726677e+00 2.7400570367e+00 
93000 5.9131367763e+00 2.7850845946e-05 1.5819726677e+00 -2.7400570367e+00 1.5819726677e+00 2.7400570367e+00 
93100 5.9131367773e+00 2.7847038922e-05 1.5819726677e+00 -2.7400570367e+00 1.5819726677e+00 2.7400570367e+00 
93200 5.9131367783e+00 2.7843295011e-05 1.5819726677e+00 -2.7400570367e+00 1.5819726677e+00 2.7400570367e+00 
93300 5.9131367792e+00 2.7839612843e-05 1.5819726677e+00 -2.7400570367e+00 1.5819726677e+00 2.7400570367e+00 
93400 5.9131367801e+00 2.7835991069e-05 1.5819726677e+00 -2.7400570367e+00 1.5819726677e+00 2.7400570367e+00 
93500 5.9131367810e+00 2.7832428355e-05 1.5819726677e+00 -2.7400570367e+00 1.5819726677e+00 2.7400570367e+00 
93600 5.9131367819e+00 2.7828923389e-05 1.5819726677e+00 -2.7400570367e+00 1.5819726677e+00 2.7400570367e+00 
93700 5.9131367828e+00 2.7825474874e-05 1.5819726677e+00 -2.7400570367e+00 1.5819726677e+00 2.7400570367e+00 
93800 5.9131367837e+00 2.7822081538e-05 1.5819726677e+00 -2.7400570367e+00 1.5819726677e+00 2.7400570367e+00 
93900 5.9131367846e+00 2.7818742121e-05 1.5819726677e+00 -2.7400570367e+00 1.5819726677e+00 2.7400570367e+00 
94000 5.9131367855e+00 2.7815455388e-05 1.5819726677e+00 -2.7400570367e+00 1.5819726677e+00 2.7400570367e+00 
94100 5.9131367863e+00 2.7812220119e-05 1.5819726677e+00 -2.7400570367e+00 1.5819726677e+00 2.7400570367e+00 
94200 5.9131367872e+00 2.7809035121e-05 1.5819726677e+00 -2.7400570367e+00 1.5819726677e+00 2.7400570367e+00 
94300 5.9131367880e+00 2.7805899213e-05 1.5819726677e+00 -2.7400570367e+00 1.5819726677e+00 2.7400570367e+00 
94400 5.9131367888e+00 2.7802811238e-05 1.5819726677e+00 -2.7400570367e+00 1.5819726677e+00 2.7400570367e+00 
94500 5.9131367897e+00 2.7799770061e-05 1.5819726677e+00 -2.7400570367e+00 1.5819726677e+00 2.7400570367e+00 
94600 5.9131367905e+00 2.7796774562e-05 1.5819726677e+00 -2.7400570367e+00 1.5819726677e+00 2.7400570367e+00 
94700 5.9131367913e+00 2.7793823649e-05 1.5819726677e+00 -2.7400570367e+00 1.5819726677e+00 2.7400570367e+00 
94800 5.9131367920e+00 2.7790916242e-05 1.5819726677e+00 -2.7400570367e+00 1.5819726677e+00 2.7400570367e+00 
94900 5.9131367928e+00 2.7788051286e-05 1.5819726677e+00 -2.7400570367e+00 1.5819726677e+00 2.7400570367e+00 
95000 5.9131367936e+00 2.7785227750e-05 1.5819726677e+00 -2.7400570367e+00 1.5819726677e+00 2.7400570367e+00 
95100 5.9131367944e+00 2.7782444615e-05 1.5819726677e+00 -2.7400570367e+00 1.5819726677e+00 2.7400570367e+00 
95200 5.9131367951e+00 2.7779700890e-05 1.5819726677e+00 -2.7400570367e+00 1.5819726677e+00 2.7400570367e+00 
95300 5.9131367959e+00 2.7776995600e-05 1.5819726677e+00 -2.7400570367e+00 1.5819726677e+00 2.7400570367e+00 
95400 5.9131367966e+00 2.7774327791e-05 1.5819726677e+00 -2.7400570367e+00 1.5819726677e+00 2.7400570367e+00 
95500 5.9131367973e+00 2.7771696533e-05 1.5819726677e+00 -2.7400570367e+00 1.5819726677e+00 2.7400570367e+00 
95600 5.9131367981e+00 2.7769100911e-05 1.5819726677e+00 -2.7400570367e+00 1.5819726677e+00 2.7400570367e+00 
95700 5.9131367988e+00 2.7766540034e-05 1.5819726677e+00 -2.7400570367e+00 1.5819726677e+00 2.7400570367e+00 
95800 5.9131367995e+00 2.7764013028e-05 1.5819726677e+00 -2.7400570367e+00 1.5819726677e+00 2.7400570367e+00 
95900 5.9131368002e+00 2.7761519043e-05 1.5819726677e+00 -2.7400570367e+00 1.5819726677e+00 2.7400570367e+00 
96000 5.9131368009e+00 2.7759057245e-05 1.5819726677e+00 -2.7400570367e+00 1.5819726677e+00 2.7400570367e+00 
96100 5.9131368015e+00 2.7756626822e-05 1.5819726677e+00 -2.7400570367e+00 1.5819726677e+00 2.7400570367e+00 
96200 5.9131368022e+00 2.7754226979e-05 1.5819726677e+00 -2.7400570367e+00 1.5819726677e+00 2.7400570367e+00 
96300 5.9131368029e+00 2.7751856944e-05 1.5819726677e+00 -2.7400570367e+00 1.5819726677e+00 2.7400570367e+00 
96400 5.9131368035e+00 2.7749515963e-05 1.5819726677e+00 -2.7400570367e+00 1.5819726677e+00 2.7400570367e+00 
96500 5.9131368042e+00 2.7747203301e-05 1.5819726677e+00 -2.7400570367e+00 1.5819726677e+00 2.7400570367e+00 
96600 5.9131368048e+00 2.7744918238e-05 1.5819726677e+00 -2.7400570367e+00 1.5819726677e+00 2.7400570367e+00 
96700 5.9131368055e+00 2.7742660079e-05 1.5819726677e+00 -2.7400570367e+00 1.5819726677e+00 2.7400570367e+00 
96800 5.9131368061e+00 2.7740428146e-05 1.5819726677e+00 -2.7400570367e+00 1.5819726677e+00 2.7400570367e+00 
96900 5.9131368067e+00 2.7738221775e-05 1.5819726677e+00 -2.7400570367e+00 1.5819726677e+00 2.7400570367e+00 
97000 5.9131368073e+00 2.7736040324e-05 1.5819726677e+00 -2.7400570367e+00 1.5819726677e+00 2.7400570367e+00 
97100 5.9131368079e+00 2.7733883170e-05 1.5819726677e+00 -2.7400570367e+00 1.5819726677e+00 2.7400570367e+00 
97200 5.9131368085e+00 2.7731749703e-05 1.5819726677e+00 -2.7400570367e+00 1.5819726677e+00 2.7400570367e+00 
97300 5.9131368091e+00 2.7729639333e-05 1.5819726677e+00 -2.7400570367e+00 1.5819726677e+00 2.7400570367e+00 
97400 5.9131368097e+00 2.7727551489e-05 1.5819726677e+00 -2.7400570367e+00 1.5819726677e+00 2.7400570367e+00 
97500 5.9131368103e+00 2.7725485613e-05 1.5819726677e+00 -2.7400570367e+00 1.5819726677e+00 2.7400570367e+00 
97600 5.9131368109e+00 2.7723441168e-05 1.5819726677e+00 -2.7400570367e+00 1.5819726677e+00 2.7400570367e+00 
97700 5.9131368114e+00 2.7721417629e-05 1.5819726677e+00 -2.7400570367e+00 1.5819726677e+00 2.7400570367e+00 
97800 5.9131368120e+00 2.7719414490e-05 1.5819726677e+00 -2.7400570367e+00 1.5819726677e+00 2.7400570367e+00 
97900 5.9131368126e+00 2.7717431261e-05 1.5819726677e+00 -2.7400570367e+00 1.5819726677e+00 2.7400570367e+00 
98000 5.9131368131e+00 2.7715467466e-05 1.5819726677e+00 -2.7400570367e+00 1.5819726677e+00 2.7400570367e+00 
98100 5.9131368137e+00 2.7713522644e-05 1.5819726677e+00 -2.7400570367e+00 1.5819726677e+00 2.7400570367e+00 
98200 5.9131368142e+00 2.7711596352e-05 1.5819726677e+00 -2.7400570367e+00 1.5819726677e+00 2.7400570367e+00 
98300 5.9131368147e+00 2.7709688159e-05 1.5819726677e+00 -2.7400570367e+00 1.5819726677e+00 2.7400570367e+00 
98400 5.9131368152e+00 2.7707797650e-05 1.5819726677e+00 -2.7400570367e+00 1.5819726677e+00 2.7400570367e+00 
98500 5.9131368158e+00 2.7705924424e-05 1.5819726677e+00 -2.7400570367e+00 1.5819726677e+00 2.7400570367e+00 
98600 5.9131368163e+00 2.7704068093e-05 1.5819726677e+00 -2.7400570367e+00 1.5819726677e+00 2.7400570367e+00 
98700 5.9131368168e+00 2.7702228284e-05 1.5819726677e+00 -2.7400570367e+00 1.5819726677e+00 2.7400570367e+00 
98800 5.9131368173e+00 2.7700404636e-05 1.5819726677e+00 -2.7400570367e+00 1.5819726677e+00 2.7400570367e+00 
98900 5.9131368178e+00 2.7698596803e-05 1.5819726677e+00 -2.7400570367e+00 1.5819726677e+00 2.7400570367e+00 
99000 5.9131368183e+00 2.7696804450e-05 1.5819726677e+00 -2.7400570367e+00 1.5819726677e+00 2.7400570367e+00 
99100 5.9131368188e+00 2.7695027256e-05 1.5819726677e+00 -2.7400570367e+00 1.5819726677e+00 2.7400570367e+00 
99200 5.9131368192e+00 2.7693264910e-05 1.5819726677e+00 -2.7400570367e+00 1.5819726677e+00 2.7400570367e+00 
99300 5.9131368197e+00 2.7691517115e-05 1.5819726677e+00 -2.7400570367e+00 1.5819726677e+00 2.7400570367e+00 
99400 5.9131368202e+00 2.7689783585e-05 1.5819726677e+00 -2.7400570367e+00 1.5819726677e+00 2.7400570367e+00 
99500 5.9131368206e+00 2.7688064046e-05 1.5819726677e+00 -2.7400570367e+00 1.5819726677e+00 2.7400570367e+00 
99600 5.9131368211e+00 2.7686358235e-05 1.5819726677e+00 -2.7400570367e+00 1.5819726677e+00 2.7400570367e+00 
99700 5.9131368216e+00 2.7684665899e-05 1.5819726677e+00 -2.7400570367e+00 1.5819726677e+00 2.7400570367e+00 
99800 5.9131368220e+00 2.7682986797e-05 1.5819726677e+00 -2.7400570367e+00 1.5819726677e+00 2.7400570367e+00 
99900 5.9131368224e+00 2.7681320695e-05 1.5819726677e+00 -2.7400570367e+00 1.5819726677e+00 2.7400570367e+00 
100000 5.9131368229e+00 2.7679667373e-05 1.5819726677e+00 -2.7400570367e+00 1.5819726677e+00 2.7400570367e+00 
100100 5.9131368233e+00 2.7678026619e-05 1.5819726677e+00 -2.7400570367e+00 1.5819726677e+00 2.7400570367e+00 
100200 5.9131368237e+00 2.7676398229e-05 1.5819726677e+00 -2.7400570367e+00 1.5819726677e+00 2.7400570367e+00 
100300 5.9131368242e+00 2.7674782011e-05 1.5819726677e+00 -2.7400570367e+00 1.5819726677e+00 2.7400570367e+00 
100400 5.9131368246e+00 2.7673177780e-05 1.5819726677e+00 -2.7400570367e+00 1.5819726677e+00 2.7400570367e+00 
100500 5.9131368250e+00 2.7671585360e-05 1.5819726677e+00 -2.7400570367e+00 1.5819726677e+00 2.7400570367e+00 
100600 5.9131368254e+00 2.7670004584e-05 1.5819726677e+00 -2.7400570367e+00 1.5819726677e+00 2.7400570367e+00 
100700 5.9131368258e+00 2.7668435291e-05 1.5819726677e+00 -2.7400570367e+00 1.5819726677e+00 2.7400570367e+00 
100800 5.9131368262e+00 2.7666877333e-05 1.5819726677e+00 -2.7400570367e+00 1.5819726677e+00 2.7400570367e+00 
100900 5.9131368266e+00 2.7665330562e-05 1.5819726677e+00 -2.7400570367e+00 1.5819726677e+00 2.7400570367e+00 
101000 5.9131368270e+00 2.7663794843e-05 1.5819726677e+00 -2.7400570367e+00 1.5819726677e+00 2.7400570367e+00 
101100 5.9131368274e+00 2.7662270046e-05 1.5819726677e+00 -2.7400570367e+00 1.5819726677e+00 2.7400570367e+00 
101200 5.9131368278e+00 2.7660756048e-05 1.5819726677e+00 -2.7400570367e+00 1.5819726677e+00 2.7400570367e+00 
101300 5.9131368281e+00 2.7659252733e-05 1.5819726677e+00 -2.7400570367e+00 1.5819726677e+00 2.7400570367e+00 
101400 5.9131368285e+00 2.7657759992e-05 1.5819726677e+00 -2.7400570367e+00 1.5819726677e+00 2.7400570367e+00 
101500 5.9131368289e+00 2.7656277719e-05 1.5819726677e+00 -2.7400570367e+00 1.5819726677e+00 2.7400570367e+00 
101600 5.9131368292e+00 2.7654805819e-05 1.5819726677e+00 -2.7400570367e+00 1.5819726677e+00 2.7400570367e+00 
101700 5.9131368296e+00 2.7653344197e-05 1.5819726677e+00 -2.7400570367e+00 1.5819726677e+00 2.7400570367e+00 
101800 5.9131368300e+00 2.7651892768e-05 1.5819726677e+00 -2.7400570367e+00 1.5819726677e+00 2.7400570367e+00 
101900 5.9131368303e+00 2.7650451451e-05 1.5819726677e+00 -2.7400570367e+00 1.5819726677e+00 2.7400570367e+00 
102000 5.9131368307e+00 2.7649020168e-05 1.5819726677e+00 -2.7400570367e+00 1.5819726677e+00 2.7400570367e+00 
102100 5.9131368310e+00 2.7647598847e-05 1.5819726677e+00 -2.7400570367e+00 1.5819726677e+00 2.7400570367e+00 
102200 5.9131368313e+00 2.7646187421e-05 1.5819726677e+00 -2.7400570367e+00 1.5819726677e+00 2.7400570367e+00 
102300 5.9131368317e+00 2.7644785826e-05 1.5819726677e+00 -2.7400570367e+00 1.5819726677e+00 2.7400570367e+00 
102400 5.9131368320e+00 2.7643394006e-05 1.5819726677e+00 -2.7400570367e+00 1.5819726677e+00 2.7400570367e+00 
102500 5.9131368323e+00 2.7642011904e-05 1.5819726677e+00 -2.7400570367e+00 1.5819726677e+00 2.7400570367e+00 
102600 5.9131368327e+00 2.7640639469e-05 1.5819726677e+00 -2.7400570367e+00 1.5819726677e+00 2.7400570367e+00 
102700 5.9131368330e+00 2.7639276653e-05 1.5819726677e+00 -2.7400570367e+00 1.5819726677e+00 2.7400570367e+00 
102800 5.9131368333e+00 2.7637923413e-05 1.5819726677e+00 -2.7400570367e+00 1.5819726677e+00 2.7400570367e+00 
102900 5.9131368336e+00 2.7636579707e-05 1.5819726677e+00 -2.7400570367e+00 1.5819726677e+00 2.7400570367e+00 
103000 5.9131368339e+00 2.7635245499e-05 1.5819726677e+00 -2.7400570367e+00 1.5819726677e+00 2.7400570367e+00 
103100 5.9131368342e+00 2.7633920752e-05 1.5819726677e+00 -2.7400570367e+00 1.5819726677e+00 2.7400570367e+00 
103200 5.9131368346e+00 2.7632605434e-05 1.5819726677e+00 -2.7400570367e+00 1.5819726677e+00 2.7400570367e+00 
103300 5.9131368349e+00 2.7631299515e-05 1.5819726677e+00 -2.7400570367e+00 1.5819726677e+00 2.7400570367e+00 
103400 5.9131368352e+00 2.7630002969e-05 1.5819726677e+00 -2.7400570367e+00 1.5819726677e+00 2.7400570367e+00 
103500 5.9131368354e+00 2.7628715768e-05 1.5819726677e+00 -2.7400570367e+00 1.5819726677e+00 2.7400570367e+00 
103600 5.9131368357e+00 2.7627437891e-05 1.5819726677e+00 -2.7400570367e+00 1.5819726677e+00 2.7400570367e+00 
103700 5.9131368360e+00 2.7626169316e-05 1.5819726677e+00 -2.7400570367e+00 1.5819726677e+00 2.7400570367e+00 
103800 5.9131368363e+00 2.7624910024e-05 1.5819726677e+00 -2.7400570367e+00 1.5819726677e+00 2.7400570367e+00 
103900 5.9131368366e+00 2.7623659996e-05 1.5819726677e+00 -2.7400570367e+00 1.5819726677e+00 2.7400570367e+00 
104000 5.9131368369e+00 2.7622419217e-05 1.5819726677e+00 -2.7400570367e+00 1.5819726677e+00 2.7400570367e+00 
104100 5.9131368371e+00 2.7621187670e-05 1.5819726677e+00 -2.7400570367e+00 1.5819726677e+00 2.7400570367e+00 
104200 5.9131368374e+00 2.7619965342e-05 1.5819726677e+00 -2.7400570367e+00 1.5819726677e+00 2.7400570367e+00 
104300 5.9131368377e+00 2.7618752221e-05 1.5819726677e+00 -2.7400570367e+00 1.5819726677e+00 2.7400570367e+00 
104400 5.9131368380e+00 2.7617548294e-05 1.5819726677e+00 -2.7400570367e+00 1.5819726677e+00 2.7400570367e+00 
104500 5.9131368382e+00 2.7616353551e-05 1.5819726677e+00 -2.7400570367e+00 1.5819726677e+00 2.7400570367e+00 
104600 5.9131368385e+00 2.7615167984e-05 1.5819726677e+00 -2.7400570367e+00 1.5819726677e+00 2.7400570367e+00 
104700 5.9131368387e+00 2.7613991579e-05 1.5819726677e+00 -2.7400570367e+00 1.5819726677e+00 2.7400570367e+00 
104800 5.9131368390e+00 2.7612824331e-05 1.5819726677e+00 -2.7400570367e+00 1.5819726677e+00 2.7400570367e+00 
104900 5.9131368392e+00 2.7611666229e-05 1.5819726677e+00 -2.7400570367e+00 1.5819726677e+00 2.7400570367e+00 
105000 5.9131368395e+00 2.7610517267e-05 1.5819726677e+00 -2.7400570367e+00 1.5819726677e+00 2.7400570367e+00 
105100 5.9131368397e+00 2.7609377436e-05 1.5819726677e+00 -2.7400570367e+00 1.5819726677e+00 2.7400570367e+00 
105200 5.9131368400e+00 2.7608246730e-05 1.5819726677e+00 -2.7400570367e+00 1.5819726677e+00 2.7400570367e+00 
105300 5.9131368402e+00 2.7607125141e-05 1.5819726677e+00 -2.7400570367e+00 1.5819726677e+00 2.7400570367e+00 
105400 5.9131368405e+00 2.7606012660e-05 1.5819726677e+00 -2.7400570367e+00 1.5819726677e+00 2.7400570367e+00 
105500 5.9131368407e+00 2.7604909280e-05 1.5819726677e+00 -2.7400570367e+00 1.5819726677e+00 2.7400570367e+00 
105600 5.9131368409e+00 2.7603814996e-05 1.5819726677e+00 -2.7400570367e+00 1.5819726677e+00 2.7400570367e+00 
105700 5.9131368412e+00 2.7602729797e-05 1.5819726677e+00 -2.7400570367e+00 1.5819726677e+00 2.7400570367e+00 
105800 5.9131368414e+00 2.7601653677e-05 1.5819726677e+00 -2.7400570367e+00 1.5819726677e+00 2.7400570367e+00 
105900 5.9131368416e+00 2.7600586628e-05 1.5819726677e+00 -2.7400570367e+00 1.5819726677e+00 2.7400570367e+00 
106000 5.9131368418e+00 2.7599528639e-05 1.5819726677e+00 -2.7400570367e+00 1.5819726677e+00 2.7400570367e+00 
106100 5.9131368420e+00 2.7598479702e-05 1.5819726677e+00 -2.7400570367e+00 1.5819726677e+00 2.7400570367e+00 
106200 5.9131368423e+00 2.7597439808e-05 1.5819726677e+00 -2.7400570367e+00 1.5819726677e+00 2.7400570367e+00 
106300 5.9131368425e+00 2.7596408946e-05 1.5819726677e+00 -2.7400570367e+00 1.5819726677e+00 2.7400570367e+00 
106400 5.9131368427e+00 2.7595387105e-05 1.5819726677e+00 -2.7400570367e+00 1.5819726677e+00 2.7400570367e+00 
106500 5.9131368429e+00 2.7594374275e-05 1.5819726677e+00 -2.7400570367e+00 1.5819726677e+00 2.7400570367e+00 
106600 5.9131368431e+00 2.7593370442e-05 1.5819726677e+00 -2.7400570367e+00 1.5819726677e+00 2.7400570367e+00 
106700 5.9131368433e+00 2.7592375594e-05 1.5819726677e+00 -2.7400570367e+00 1.5819726677e+00 2.7400570367e+00 
106800 5.9131368435e+00 2.7591389716e-05 1.5819726677e+00 -2.7400570367e+00 1.5819726677e+00 2.7400570367e+00 
106900 5.9131368437e+00 2.7590412797e-05 1.5819726677e+00 -2.7400570367e+00 1.5819726677e+00 2.7400570367e+00 
107000 5.9131368439e+00 2.7589444818e-05 1.5819726677e+00 -2.7400570367e+00 1.5819726677e+00 2.7400570367e+00 
107100 5.9131368441e+00 2.7588485765e-05 1.5819726677e+00 -2.7400570367e+00 1.5819726677e+00 2.7400570367e+00 
107200 5.9131368443e+00 2.7587535620e-05 1.5819726677e+00 -2.7400570367e+00 1.5819726677e+00 2.7400570367e+00 
107300 5.9131368445e+00 2.7586594365e-05 1.5819726677e+00 -2.7400570367e+00 1.5819726677e+00 2.7400570367e+00 
107400 5.9131368447e+00 2.7585661983e-05 1.5819726677e+00 -2.7400570367e+00 1.5819726677e+00 2.7400570367e+00 
107500 5.9131368449e+00 2.7584738453e-05 1.5819726677e+00 -2.7400570367e+00 1.5819726677e+00 2.7400570367e+00 
107600 5.9131368451e+00 2.7583823753e-05 1.5819726677e+00 -2.7400570367e+00 1.5819726677e+00 2.7400570367e+00 
107700 5.9131368452e+00 2.7582917864e-05 1.5819726677e+00 -2.7400570367e+00 1.5819726677e+00 2.7400570367e+00 
107800 5.9131368454e+00 2.7582020761e-05 1.5819726677e+00 -2.7400570367e+00 1.5819726677e+00 2.7400570367e+00 
107900 5.9131368456e+00 2.7581132422e-05 1.5819726677e+00 -2.7400570367e+00 1.5819726677e+00 2.7400570367e+00 
108000 5.9131368458e+00 2.7580252820e-05 1.5819726677e+00 -2.7400570367e+00 1.5819726677e+00 2.7400570367e+00 
108100 5.9131368460e+00 2.7579381931e-05 1.5819726677e+00 -2.7400570367e+00 1.5819726677e+00 2.7400570367e+00 
108200 5.9131368461e+00 2.7578519729e-05 1.5819726677e+00 -2.7400570367e+00 1.5819726677e+00 2.7400570367e+00 
108300 5.9131368463e+00 2.7577666182e-05 1.5819726677e+00 -2.7400570367e+00 1.5819726677e+00 2.7400570367e+00 
108400 5.9131368465e+00 2.7576821267e-05 1.5819726677e+00 -2.7400570367e+00 1.5819726677e+00 2.7400570367e+00 
108500 5.9131368466e+00 2.7575984949e-05 1.5819726677e+00 -2.7400570367e+00 1.5819726677e+00 2.7400570367e+00 
108600 5.9131368468e+00 2.7575157201e-05 1.5819726677e+00 -2.7400570367e+00 1.5819726677e+00 2.7400570367e+00 
108700 5.9131368470e+00 2.7574337988e-05 1.5819726677e+00 -2.7400570367e+00 1.5819726677e+00 2.7400570367e+00 
108800 5.9131368471e+00 2.7573527279e-05 1.5819726677e+00 -2.7400570367e+00 1.5819726677e+00 2.7400570367e+00 
108900 5.9131368473e+00 2.7572725039e-05 1.5819726677e+00 -2.7400570367e+00 1.5819726677e+00 2.7400570367e+00 
109000 5.9131368474e+00 2.7571931233e-05 1.5819726677e+00 -2.7400570367e+00 1.5819726677e+00 2.7400570367e+00 
109100 5.9131368476e+00 2.7571145824e-05 1.5819726677e+00 -2.7400570367e+00 1.5819726677e+00 2.7400570367e+00 
109200 5.9131368478e+00 2.7570368778e-05 1.5819726677e+00 -2.7400570367e+00 1.5819726677e+00 2.7400570367e+00 
109300 5.9131368479e+00 2.7569600055e-05 1.5819726677e+00 -2.7400570367e+00 1.5819726677e+00 2.7400570367e+00 
109400 5.9131368481e+00 2.7568839617e-05 1.5819726677e+00 -2.7400570367e+00 1.5819726677e+00 2.7400570367e+00 
109500 5.9131368482e+00 2.7568087423e-05 1.5819726677e+00 -2.7400570367e+00 1.5819726677e+00 2.7400570367e+00 
109600 5.9131368484e+00 2.7567343430e-05 1.5819726677e+00 -2.7400570367e+00 1.5819726677e+00 2.7400570367e+00 
109700 5.9131368485e+00 2.7566607599e-05 1.5819726677e+00 -2.7400570367e+00 1.5819726677e+00 2.7400570367e+00 
109800 5.9131368487e+00 2.7565879887e-05 1.5819726677e+00 -2.7400570367e+00 1.5819726677e+00 2.7400570367e+00 
109900 5.9131368488e+00 2.7565160250e-05 1.5819726677e+00 -2.7400570367e+00 1.5819726677e+00 2.7400570367e+00 
110000 5.9131368489e+00 2.7564448643e-05 1.5819726677e+00 -2.7400570367e+00 1.5819726677e+00 2.7400570367e+00 
110100 5.9131368491e+00 2.7563745021e-05 1.5819726677e+00 -2.7400570367e+00 1.5819726677e+00 2.7400570367e+00 
110200 5.9131368492e+00 2.7563049338e-05 1.5819726677e+00 -2.7400570367e+00 1.5819726677e+00 2.7400570367e+00 
110300 5.9131368494e+00 2.7562361546e-05 1.5819726677e+00 -2.7400570367e+00 1.5819726677e+00 2.7400570367e+00 
110400 5.9131368495e+00 2.7561681597e-05 1.5819726677e+00 -2.7400570367e+00 1.5819726677e+00 2.7400570367e+00 
110500 5.9131368496e+00 2.7561009442e-05 1.5819726677e+00 -2.7400570367e+00 1.5819726677e+00 2.7400570367e+00 
110600 5.9131368498e+00 2.7560345034e-05 1.5819726677e+00 -2.7400570367e+00 1.5819726677e+00 2.7400570367e+00 
110700 5.9131368499e+00 2.7559688320e-05 1.5819726677e+00 -2.7400570367e+00 1.5819726677e+00 2.7400570367e+00 
110800 5.9131368500e+00 2.7559039250e-05 1.5819726677e+00 -2.7400570367e+00 1.5819726677e+00 2.7400570367e+00 
110900 5.9131368501e+00 2.7558397772e-05 1.5819726677e+00 -2.7400570367e+00 1.5819726677e+00 2.7400570367e+00 
111000 5.9131368503e+00 2.7557763834e-05 1.5819726677e+00 -2.7400570367e+00 1.5819726677e+00 2.7400570367e+00 
111100 5.9131368504e+00 2.7557137382e-05 1.5819726677e+00 -2.7400570367e+00 1.5819726677e+00 2.7400570367e+00 
111200 5.9131368505e+00 2.7556518363e-05 1.5819726677e+00 -2.7400570367e+00 1.5819726677e+00 2.7400570367e+00 
111300 5.9131368506e+00 2.7555906724e-05 1.5819726677e+00 -2.7400570367e+00 1.5819726677e+00 2.7400570367e+00 
111400 5.9131368508e+00 2.7555302408e-05 1.5819726677e+00 -2.7400570367e+00 1.5819726677e+00 2.7400570367e+00 
111500 5.9131368509e+00 2.7554705359e-05 1.5819726677e+00 -2.7400570367e+00 1.5819726677e+00 2.7400570367e+00 
111600 5.9131368510e+00 2.7554115525e-05 1.5819726677e+00 -2.7400570367e+00 1.5819726677e+00 2.7400570367e+00 
111700 5.9131368511e+00 2.7553532846e-05 1.5819726677e+00 -2.7400570367e+00 1.5819726677e+00 2.7400570367e+00 
111800 5.9131368512e+00 2.7552957265e-05 1.5819726677e+00 -2.7400570367e+00 1.5819726677e+00 2.7400570367e+00 
111900 5.9131368513e+00 2.7552388727e-05 1.5819726677e+00 -2.7400570367e+00 1.5819726677e+00 2.7400570367e+00 
112000 5.9131368515e+00 2.7551827171e-05 1.5819726677e+00 -2.7400570367e+00 1.5819726677e+00 2.7400570367e+00 
112100 5.9131368516e+00 2.7551272542e-05 1.5819726677e+00 -2.7400570367e+00 1.5819726677e+00 2.7400570367e+00 
112200 5.9131368517e+00 2.7550724777e-05 1.5819726677e+00 -2.7400570367e+00 1.5819726677e+00 2.7400570367e+00 
112300 5.9131368518e+00 2.7550183822e-05 1.5819726677e+00 -2.7400570367e+00 1.5819726677e+00 2.7400570367e+00 
112400 5.9131368519e+00 2.7549649612e-05 1.5819726677e+00 -2.7400570367e+00 1.5819726677e+00 2.7400570367e+00 
112500 5.9131368520e+00 2.7549122092e-05 1.5819726677e+00 -2.7400570367e+00 1.5819726677e+00 2.7400570367e+00 
112600 5.9131368521e+00 2.7548601198e-05 1.5819726677e+00 -2.7400570367e+00 1.5819726677e+00 2.7400570367e+00 
112700 5.9131368522e+00 2.7548086873e-05 1.5819726677e+00 -2.7400570367e+00 1.5819726677e+00 2.7400570367e+00 
112800 5.9131368523e+00 2.7547579055e-05 1.5819726677e+00 -2.7400570367e+00 1.5819726677e+00 2.7400570367e+00 
112900 5.9131368524e+00 2.7547077683e-05 1.5819726677e+00 -2.7400570367e+00 1.5819726677e+00 2.7400570367e+00 
113000 5.9131368525e+00 2.7546582696e-05 1.5819726677e+00 -2.7400570367e+00 1.5819726677e+00 2.7400570367e+00 
113100 5.9131368526e+00 2.7546094033e-05 1.5819726677e+00 -2.7400570367e+00 1.5819726677e+00 2.7400570367e+00 
113200 5.9131368527e+00 2.7545611634e-05 1.5819726677e+00 -2.7400570367e+00 1.5819726677e+00 2.7400570367e+00 
113300 5.9131368528e+00 2.7545135433e-05 1.5819726677e+00 -2.7400570367e+00 1.5819726677e+00 2.7400570367e+00 
113400 5.9131368529e+00 2.7544665374e-05 1.5819726677e+00 -2.7400570367e+00 1.5819726677e+00 2.7400570367e+00 
113500 5.9131368530e+00 2.7544201393e-05 1.5819726677e+00 -2.7400570367e+00 1.5819726677e+00 2.7400570367e+00 
113600 5.9131368531e+00 2.7543743427e-05 1.5819726677e+00 -2.7400570367e+00 1.5819726677e+00 2.7400570367e+00 
113700 5.9131368532e+00 2.7543291417e-05 1.5819726677e+00 -2.7400570367e+00 1.5819726677e+00 2.7400570367e+00 
113800 5.9131368533e+00 2.7542845299e-05 1.5819726677e+00 -2.7400570367e+00 1.5819726677e+00 2.7400570367e+00 
113900 5.9131368534e+00 2.7542405011e-05 1.5819726677e+00 -2.7400570367e+00 1.5819726677e+00 2.7400570367e+00 
114000 5.9131368535e+00 2.7541970493e-05 1.5819726677e+00 -2.7400570367e+00 1.5819726677e+00 2.7400570367e+00 
114100 5.9131368536e+00 2.7541541682e-05 1.5819726677e+00 -2.7400570367e+00 1.5819726677e+00 2.7400570367e+00 
114200 5.9131368537e+00 2.7541118517e-05 1.5819726677e+00 -2.7400570367e+00 1.5819726677e+00 2.7400570367e+00 
114300 5.9131368537e+00 2.7540700935e-05 1.5819726677e+00 -2.7400570367e+00 1.5819726677e+00 2.7400570367e+00 
114400 5.9131368538e+00 2.7540288875e-05 1.5819726677e+00 -2.7400570367e+00 1.5819726677e+00 2.7400570367e+00 
114500 5.9131368539e+00 2.7539882277e-05 1.5819726677e+00 -2.7400570367e+00 1.5819726677e+00 2.7400570367e+00 
114600 5.9131368540e+00 2.7539481080e-05 1.5819726677e+00 -2.7400570367e+00 1.5819726677e+00 2.7400570367e+00 
114700 5.9131368541e+00 2.7539085220e-05 1.5819726677e+00 -2.7400570367e+00 1.5819726677e+00 2.7400570367e+00 
114800 5.9131368542e+00 2.7538694638e-05 1.5819726677e+00 -2.7400570367e+00 1.5819726677e+00 2.7400570367e+00 
114900 5.9131368543e+00 2.7538309274e-05 1.5819726677e+00 -2.7400570367e+00 1.5819726677e+00 2.7400570367e+00 
115000 5.9131368543e+00 2.7537929067e-05 1.5819726677e+00 -2.7400570367e+00 1.5819726677e+00 2.7400570367e+00 
115100 5.9131368544e+00 2.7537553957e-05 1.5819726677e+00 -2.7400570367e+00 1.5819726677e+00 2.7400570367e+00 
115200 5.9131368545e+00 2.7537183881e-05 1.5819726677e+00 -2.7400570367e+00 1.5819726677e+00 2.7400570367e+00 
115300 5.9131368546e+00 2.7536818785e-05 1.5819726677e+00 -2.7400570367e+00 1.5819726677e+00 2.7400570367e+00 
115400 5.9131368546e+00 2.7536458603e-05 1.5819726677e+00 -2.7400570367e+00 1.5819726677e+00 2.7400570367e+00 
115500 5.9131368547e+00 2.7536103281e-05 1.5819726677e+00 -2.7400570367e+00 1.5819726677e+00 2.7400570367e+00 
115600 5.9131368548e+00 2.7535752757e-05 1.5819726677e+00 -2.7400570367e+00 1.5819726677e+00 2.7400570367e+00 
115700 5.9131368549e+00 2.7535406973e-05 1.5819726677e+00 -2.7400570367e+00 1.5819726677e+00 2.7400570367e+00 
115800 5.9131368549e+00 2.7535065872e-05 1.5819726677e+00 -2.7400570367e+00 1.5819726677e+00 2.7400570367e+00 
115900 5.9131368550e+00 2.7534729394e-05 1.5819726677e+00 -2.7400570367e+00 1.5819726677e+00 2.7400570367e+00 
116000 5.9131368551e+00 2.7534397483e-05 1.5819726677e+00 -2.7400570367e+00 1.5819726677e+00 2.7400570367e+00 
116100 5.9131368552e+00 2.7534070082e-05 1.5819726677e+00 -2.7400570367e+00 1.5819726677e+00 2.7400570367e+00 
116200 5.9131368552e+00 2.7533747133e-05 1.5819726677e+00 -2.7400570367e+00 1.5819726677e+00 2.7400570367e+00 
116300 5.9131368553e+00 2.7533428580e-05 1.5819726677e+00 -2.7400570367e+00 1.5819726677e+00 2.7400570367e+00 
116400 5.9131368554e+00 2.7533114367e-05 1.5819726677e+00 -2.7400570367e+00 1.5819726677e+00 2.7400570367e+00 
116500 5.9131368554e+00 2.7532804438e-05 1.5819726677e+00 -2.7400570367e+00 1.5819726677e+00 2.7400570367e+00 
116600 5.9131368555e+00 2.7532498739e-05 1.5819726677e+00 -2.7400570367e+00 1.5819726677e+00 2.7400570367e+00 
116700 5.9131368556e+00 2.7532197215e-05 1.5819726677e+00 -2.7400570367e+00 1.5819726677e+00 2.7400570367e+00 
116800 5.9131368556e+00 2.7531899809e-05 1.5819726677e+00 -2.7400570367e+00 1.5819726677e+00 2.7400570367e+00 
116900 5.9131368557e+00 2.7531606472e-05 1.5819726677e+00 -2.7400570367e+00 1.5819726677e+00 2.7400570367e+00 
117000 5.9131368558e+00 2.7531317146e-05 1.5819726677e+00 -2.7400570367e+00 1.5819726677e+00 2.7400570367e+00 
117100 5.9131368558e+00 2.7531031780e-05 1.5819726677e+00 -2.7400570367e+00 1.5819726677e+00 2.7400570367e+00 
117200 5.9131368559e+00 2.7530750321e-05 1.5819726677e+00 -2.7400570367e+00 1.5819726677e+00 2.7400570367e+00 
117300 5.9131368560e+00 2.7530472718e-05 1.5819726677e+00 -2.7400570367e+00 1.5819726677e+00 2.7400570367e+00 
117400 5.9131368560e+00 2.7530198917e-05 1.5819726677e+00 -2.7400570367e+00 1.5819726677e+00 2.7400570367e+00 
117500 5.9131368561e+00 2.7529928870e-05 1.5819726677e+00 -2.7400570367e+00 1.5819726677e+00 2.7400570367e+00 
117600 5.9131368562e+00 2.7529662524e-05 1.5819726677e+00 -2.7400570367e+00 1.5819726677e+00 2.7400570367e+00 
117700 5.9131368562e+00 2.7529399830e-05 1.5819726677e+00 -2.7400570367e+00 1.5819726677e+00 2.7400570367e+00 
117800 5.9131368563e+00 2.7529140740e-05 1.5819726677e+00 -2.7400570367e+00 1.5819726677e+00 2.7400570367e+00 
117900 5.9131368563e+00 2.7528885202e-05 1.5819726677e+00 -2.7400570367e+00 1.5819726677e+00 2.7400570367e+00 
118000 5.9131368564e+00 2.7528633169e-05 1.5819726677e+00 -2.7400570367e+00 1.5819726677e+00 2.7400570367e+00 
118100 5.9131368564e+00 2.7528384592e-05 1.5819726677e+00 -2.7400570367e+00 1.5819726677e+00 2.7400570367e+00 
118200 5.9131368565e+00 2.7528139426e-05 1.5819726677e+00 -2.7400570367e+00 1.5819726677e+00 2.7400570367e+00 
118300 5.9131368566e+00 2.7527897621e-05 1.5819726677e+00 -2.7400570367e+00 1.5819726677e+00 2.7400570367e+00 
118400 5.9131368566e+00 2.7527659132e-05 1.5819726677e+00 -2.7400570367e+00 1.5819726677e+00 2.7400570367e+00 
118500 5.9131368567e+00 2.7527423914e-05 1.5819726677e+00 -2.7400570367e+00 1.5819726677e+00 2.7400570367e+00 
118600 5.9131368567e+00 2.7527191920e-05 1.5819726677e+00 -2.7400570367e+00 1.5819726677e+00 2.7400570367e+00 
118700 5.9131368568e+00 2.7526963106e-05 1.5819726677e+00 -2.7400570367e+00 1.5819726677e+00 2.7400570367e+00 
118800 5.9131368568e+00 2.7526737426e-05 1.5819726677e+00 -2.7400570367e+00 1.5819726677e+00 2.7400570367e+00 
118900 5.9131368569e+00 2.7526514840e-05 1.5819726677e+00 -2.7400570367e+00 1.5819726677e+00 2.7400570367e+00 
119000 5.9131368569e+00 2.7526295302e-05 1.5819726677e+00 -2.7400570367e+00 1.5819726677e+00 2.7400570367e+00 
119100 5.9131368570e+00 2.7526078770e-05 1.5819726677e+00 -2.7400570367e+00 1.5819726677e+00 2.7400570367e+00 
119200 5.9131368570e+00 2.7525865202e-05 1.5819726677e+00 -2.7400570367e+00 1.5819726677e+00 2.7400570367e+00 
119300 5.9131368571e+00 2.7525654554e-05 1.5819726677e+00 -2.7400570367e+00 1.5819726677e+00 2.7400570367e+00 
119400 5.9131368571e+00 2.7525512963e-05 1.5819726677e+00 -2.7400570367e+00 1.5819726677e+00 2.7400570367e+00 
119400 5.9131368571e+00 2.7525512963e-05 1.5819726677e+00 -2.7400570367e+00 1.5819726677e+00 2.7400570367e+00 
