# step Hamiltonian StressXX CellTensor1 CellTensor2 CellTensor3 CellTensor4 
0 6.8423535797e+00 3.7831051773e-10 1.3731072612e+00 -2.3782915406e+00 1.3731072612e+00 2.3782915406e+00 
100 6.8410936951e+00 6.2145288633e-10 1.3731072612e+00 -2.3782915406e+00 1.3731072612e+00 2.3782915406e+00 
200 6.8399089084e+00 7.8616887428e-10 1.3731072612e+00 -2.3782915406e+00 1.3731072612e+00 2.3782915406e+00 
300 6.8387947431e+00 8.9195694859e-10 1.3731072612e+00 -2.3782915406e+00 1.3731072612e+00 2.3782915406e+00 
400 6.8377469897e+00 9.5389408088e-10 1.3731072612e+00 -2.3782915406e+00 1.3731072612e+00 2.3782915406e+00 
500 6.8367616897e+00 9.8360250382e-10 1.3731072612e+00 -2.3782915406e+00 1.3731072612e+00 2.3782915406e+00 
600 6.8358351204e+00 9.9000849850e-10 1.3731072612e+00 -2.3782915406e+00 1.3731072612e+00 2.3782915406e+00 
700 6.8349637810e+00 9.7993761864e-10 1.3731072612e+00 -2.3782915406e+00 1.3731072612e+00 2.3782915406e+00 
800 6.8341443795e+00 9.5858130955e-10 1.3731072612e+00 -2.3782915406e+00 1.3731072612e+00 2.3782915406e+00 
900 6.8333738200e+00 9.2986243605e-10 1.3731072612e+00 -2.3782915406e+00 1.3731072612e+00 2.3782915406e+00 
1000 6.8326491912e+00 8.9672137529e-10 1.3731072612e+00 -2.3782915406e+00 1.3731072612e+00 2.3782915406e+00 
1100 6.8319677553e+00 8.6133971454e-10 1.3731072612e+00 -2.3782915406e+00 1.3731072612e+00 2.3782915406e+00 
1200 6.8313269377e+00 8.2531496018e-10 1.3731072612e+00 -2.3782915406e+00 1.3731072612e+00 2.3782915406e+00 
1300 6.8307243172e+00 7.8979680427e-10 1.3731072612e+00 -2.3782915406e+00 1.3731072612e+00 2.3782915406e+00 
1400 6.8301576171e+00 7.5559324184e-10 1.3731072612e+00 -2.3782915406e+00 1.3731072612e+00 2.3782915406e+00 
1500 6.8296246963e+00 7.2325305874e-10 1.3731072612e+00 -2.3782915406e+00 1.3731072612e+00 2.3782915406e+00 
1600 6.8291235412e+00 6.9312981596e-10 1.3731072612e+00 -2.3782915406e+00 1.3731072612e+00 2.3782915406e+00 
1700 6.8286522584e+00 6.6543135528e-10 1.3731072612e+00 -2.3782915406e+00 1.3731072612e+00 2.3782915406e+00 
1800 6.8282090673e+00 6.4025799000e-10 1.3731072612e+00 -2.3782915406e+00 1.3731072612e+00 2.3782915406e+00 
1900 6.8277922935e+00 6.1763186213e-10 1.3731072612e+00 -2.3782915406e+00 1.3731072612e+00 2.3782915406e+00 
2000 6.8274003623e+00 5.9751941408e-10 1.3731072612e+00 -2.3782915406e+00 1.3731072612e+00 2.3782915406e+00 
2100 6.8270317929e+00 5.7984850139e-10 1.3731072612e+00 -2.3782915406e+00 1.3731072612e+00 2.3782915406e+00 
2200 6.8266851927e+00 5.6452134368e-10 1.3731072612e+00 -2.3782915406e+00 1.3731072612e+00 2.3782915406e+00 
2300 6.8263592523e+00 5.5142424989e-10 1.3731072612e+00 -2.3782915406e+00 1.3731072612e+00 2.3782915406e+00 
2400 6.8260527402e+00 5.4043485035e-10 1.3731072612e+00 -2.3782915406e+00 1.3731072612e+00 2.3782915406e+00 
2500 6.8257644984e+00 5.3142740883e-10 1.3731072612e+00 -2.3782915406e+00 1.3731072612e+00 2.3782915406e+00 
2600 6.8254934377e+00 5.2427665992e-10 1.3731072612e+00 -2.3782915406e+00 1.3731072612e+00 2.3782915406e+00 
2700 6.8252385341e+00 5.1886052050e-10 1.3731072612e+00 -2.3782915406e+00 1.3731072612e+00 2.3782915406e+00 
2800 6.8249988245e+00 5.1506194552e-10 1.3731072612e+00 -2.3782915406e+00 1.3731072612e+00 2.3782915406e+00 
2900 6.8247734032e+00 5.1277013794e-10 1.3731072612e+00 -2.3782915406e+00 1.3731072612e+00 2.3782915406e+00 
3000 6.8245614186e+00 5.1188127571e-10 1.3731072612e+00 -2.3782915406e+00 1.3731072612e+00 2.3782915406e+00 
3100 6.8243620696e+00 5.1229888110e-10 1.3731072612e+00 -2.3782915406e+00 1.3731072612e+00 2.3782915406e+00 
3200 6.8241746033e+00 5.1393392868e-10 1.3731072612e+00 -2.3782915406e+00 1.3731072612e+00 2.3782915406e+00 
3300 6.8239983112e+00 5.1670476646e-10 1.3731072612e+00 -2.3782915406e+00 1.3731072612e+00 2.3782915406e+00 
3400 6.8238325273e+00 5.2053690619e-10 1.3731072612e+00 -2.3782915406e+00 1.3731072612e+00 2.3782915406e+00 
3500 6.8236766252e+00 5.2536272591e-10 1.3731072612e+00 -2.3782915406e+00 1.3731072612e+00 2.3782915406e+00 
3600 6.8235300160e+00 5.3112111636e-10 1.3731072612e+00 -2.3782915406e+00 1.3731072612e+00 2.3782915406e+00 
3700 6.8233921456e+00 5.3775709622e-10 1.3731072612e+00 -2.3782915406e+00 1.3731072612e+00 2.3782915406e+00 
3800 6.8232624933e+00 5.4522141228e-10 1.3731072612e+00 -2.3782915406e+00 1.3731072612e+00 2.3782915406e+00 
3900 6.8231405690e+00 5.5347013962e-10 1.3731072612e+00 -2.3782915406e+00 1.3731072612e+00 2.3782915406e+00 
4000 6.8230259123e+00 5.6246428830e-10 1.3731072612e+00 -2.3782915406e+00 1.3731072612e+00 2.3782915406e+00 
4100 6.8229180899e+00 5.7216942508e-10 1.3731072612e+00 -2.3782915406e+00 1.3731072612e+00 2.3782915406e+00 
4200 6.8228166943e+00 5.8255531299e-10 1.3731072612e+00 -2.3782915406e+00 1.3731072612e+00 2.3782915406e+00 
4300 6.8227213426e+00 5.9359557177e-10 1.3731072612e+00 -2.3782915406e+00 1.3731072612e+00 2.3782915406e+00 
4400 6.8226316745e+00 6.0526736046e-10 1.3731072612e+00 -2.3782915406e+00 1.3731072612e+00 2.3782915406e+00 
4500 6.8225473512e+00 6.1755108286e-10 1.3731072612e+00 -2.3782915406e+00 1.3731072612e+00 2.3782915406e+00 
4600 6.8224680541e+00 6.3043011506e-10 1.3731072612e+00 -2.3782915406e+00 1.3731072612e+00 2.3782915406e+00 
4700 6.8223934836e+00 6.4389055542e-10 1.3731072612e+00 -2.3782915406e+00 1.3731072612e+00 2.3782915406e+00 
4800 6.8223233580e+00 6.5792099550e-10 1.3731072612e+00 -2.3782915406e+00 1.3731072612e+00 2.3782915406e+00 
4900 6.8222574123e+00 6.7251231075e-10 1.3731072612e+00 -2.3782915406e+00 1.3731072612e+00 2.3782915406e+00 
5000 6.8221953973e+00 6.8765747032e-10 1.3731072612e+00 -2.3782915406e+00 1.3731072612e+00 2.3782915406e+00 
5100 6.8221370789e+00 7.0335136433e-10 1.3731072612e+00 -2.3782915406e+00 1.3731072612e+00 2.3782915406e+00 
5200 6.8220822365e+00 7.1959064760e-10 1.3731072612e+00 -2.3782915406e+00 1.3731072612e+00 2.3782915406e+00 
5300 6.8220306631e+00 7.3637359815e-10 1.3731072612e+00 -2.3782915406e+00 1.3731072612e+00 2.3782915406e+00 
5400 6.8219821637e+00 7.5369999025e-10 1.3731072612e+00 -2.3782915406e+00 1.3731072612e+00 2.3782915406e+00 
5500 6.8219365552e+00 7.7157097965e-10 1.3731072612e+00 -2.3782915406e+00 1.3731072612e+00 2.3782915406e+00 
5600 6.8218936652e+00 7.8998900074e-10 1.3731072612e+00 -2.3782915406e+00 1.3731072612e+00 2.3782915406e+00 
5700 6.8218533317e+00 8.0895767443e-10 1.3731072612e+00 -2.3782915406e+00 1.3731072612e+00 2.3782915406e+00 
5800 6.8218154023e+00 8.2848172593e-10 1.3731072612e+00 -2.3782915406e+00 1.3731072612e+00 2.3782915406e+00 
5900 6.8217797336e+00 8.4856691094e-10 1.3731072612e+00 -2.3782915406e+00 1.3731072612e+00 2.3782915406e+00 
6000 6.8217461910e+00 8.6921995066e-10 1.3731072612e+00 -2.3782915406e+00 1.3731072612e+00 2.3782915406e+00 
6100 6.8217146477e+00 8.9044847342e-10 1.3731072612e+00 -2.3782915406e+00 1.3731072612e+00 2.3782915406e+00 
6200 6.8216849845e+00 9.1226096330e-10 1.3731072612e+00 -2.3782915406e+00 1.3731072612e+00 2.3782915406e+00 
6300 6.8216570894e+00 9.3466671523e-10 1.3731072612e+00 -2.3782915406e+00 1.3731072612e+00 2.3782915406e+00 
6400 6.8216308569e+00 9.5767579463e-10 1.3731072612e+00 -2.3782915406e+00 1.3731072612e+00 2.3782915406e+00 
6500 6.8216061880e+00 9.8129900286e-10 1.3731072612e+00 -2.3782915406e+00 1.3731072612e+00 2.3782915406e+00 
6600 6.8215829894e+00 1.0055478472e-09 1.3731072612e+00 -2.3782915406e+00 1.3731072612e+00 2.3782915406e+00 
6700 6.8215611736e+00 1.0304345144e-09 1.3731072612e+00 -2.3782915406e+00 1.3731072612e+00 2.3782915406e+00 
6800 6.8215406580e+00 1.0559718480e-09 1.3731072612e+00 -2.3782915406e+00 1.3731072612e+00 2.3782915406e+00 
6900 6.8215213653e+00 1.0821733300e-09 1.3731072612e+00 -2.3782915406e+00 1.3731072612e+00 2.3782915406e+00 
7000 6.8215032224e+00 1.1090530644e-09 1.3731072612e+00 -2.3782915406e+00 1.3731072612e+00 2.3782915406e+00 
7100 6.8214861608e+00 1.1366257643e-09 1.3731072612e+00 -2.3782915406e+00 1.3731072612e+00 2.3782915406e+00 
7200 6.8214701162e+00 1.1649067413e-09 1.3731072612e+00 -2.3782915406e+00 1.3731072612e+00 2.3782915406e+00 
7300 6.8214550278e+00 1.1939118972e-09 1.3731072612e+00 -2.3782915406e+00 1.3731072612e+00 2.3782915406e+00 
7400 6.8214408387e+00 1.2236577181e-09 1.3731072612e+00 -2.3782915406e+00 1.3731072612e+00 2.3782915406e+00 
7500 6.8214274953e+00 1.2541612701e-09 1.3731072612e+00 -2.3782915406e+00 1.3731072612e+00 2.3782915406e+00 
7600 6.8214149471e+00 1.2854401970e-09 1.3731072612e+00 -2.3782915406e+00 1.3731072612e+00 2.3782915406e+00 
7700 6.8214031468e+00 1.3175127197e-09 1.3731072612e+00 -2.3782915406e+00 1.3731072612e+00 2.3782915406e+00 
7800 6.8213920497e+00 1.3503976371e-09 1.3731072612e+00 -2.3782915406e+00 1.3731072612e+00 2.3782915406e+00 
7900 6.8213816140e+00 1.3841143280e-09 1.3731072612e+00 -2.3782915406e+00 1.3731072612e+00 2.3782915406e+00 
8000 6.8213718002e+00 1.4186827548e-09 1.3731072612e+00 -2.3782915406e+00 1.3731072612e+00 2.3782915406e+00 
8100 6.8213625712e+00 1.4541234686e-09 1.3731072612e+00 -2.3782915406e+00 1.3731072612e+00 2.3782915406e+00 
8200 6.8213538923e+00 1.4904576143e-09 1.3731072612e+00 -2.3782915406e+00 1.3731072612e+00 2.3782915406e+00 
8300 6.8213457305e+00 1.5277069383e-09 1.3731072612e+00 -2.3782915406e+00 1.3731072612e+00 2.3782915406e+00 
8400 6.8213380551e+00 1.5658937957e-09 1.3731072612e+00 -2.3782915406e+00 1.3731072612e+00 2.3782915406e+00 
8500 6.8213308371e+00 1.6050411595e-09 1.3731072612e+00 -2.3782915406e+00 1.3731072612e+00 2.3782915406e+00 
8600 6.8213240492e+00 1.6451726302e-09 1.3731072612e+00 -2.3782915406e+00 1.3731072612e+00 2.3782915406e+00 
8700 6.8213176658e+00 1.6863124465e-09 1.3731072612e+00 -2.3782915406e+00 1.3731072612e+00 2.3782915406e+00 
8800 6.8213116627e+00 1.7284854960e-09 1.3731072612e+00 -2.3782915406e+00 1.3731072612e+00 2.3782915406e+00 
8900 6.8213060173e+00 1.7717173282e-09 1.3731072612e+00 -2.3782915406e+00 1.3731072612e+00 2.3782915406e+00 
9000 6.8213007082e+00 1.8160341663e-09 1.3731072612e+00 -2.3782915406e+00 1.3731072612e+00 2.3782915406e+00 
9100 6.8212957154e+00 1.8614629218e-09 1.3731072612e+00 -2.3782915406e+00 1.3731072612e+00 2.3782915406e+00 
9200 6.8212910201e+00 1.9080312076e-09 1.3731072612e+00 -2.3782915406e+00 1.3731072612e+00 2.3782915406e+00 
9300 6.8212866045e+00 1.9557673537e-09 1.3731072612e+00 -2.3782915406e+00 1.3731072612e+00 2.3782915406e+00 
9400 6.8212824520e+00 2.0047004222e-09 1.3731072612e+00 -2.3782915406e+00 1.3731072612e+00 2.3782915406e+00 
9500 6.8212785468e+00 2.0548602239e-09 1.3731072612e+00 -2.3782915406e+00 1.3731072612e+00 2.3782915406e+00 
9600 6.8212748741e+00 2.1062773346e-09 1.3731072612e+00 -2.3782915406e+00 1.3731072612e+00 2.3782915406e+00 
9700 6.8212714203e+00 2.1589831130e-09 1.3731072612e+00 -2.3782915406e+00 1.3731072612e+00 2.3782915406e+00 
9800 6.8212681721e+00 2.2130097182e-09 1.3731072612e+00 -2.3782915406e+00 1.3731072612e+00 2.3782915406e+00 
9900 6.8212651173e+00 2.2683901288e-09 1.3731072612e+00 -2.3782915406e+00 1.3731072612e+00 2.3782915406e+00 
10000 6.8212622444e+00 2.3251581625e-09 1.3731072612e+00 -2.3782915406e+00 1.3731072612e+00 2.3782915406e+00 
10100 6.8212595426e+00 2.3833484946e-09 1.3731072612e+00 -2.3782915406e+00 1.3731072612e+00 2.3782915406e+00 
10200 6.8212570016e+00 2.4429966802e-09 1.3731072612e+00 -2.3782915406e+00 1.3731072612e+00 2.3782915406e+00 
10300 6.8212546119e+00 2.5041391741e-09 1.3731072612e+00 -2.3782915406e+00 1.3731072612e+00 2.3782915406e+00 
10400 6.8212523644e+00 2.5668133532e-09 1.3731072612e+00 -2.3782915406e+00 1.3731072612e+00 2.3782915406e+00 
10500 6.8212502507e+00 2.6310575388e-09 1.3731072612e+00 -2.3782915406e+00 1.3731072612e+00 2.3782915406e+00 
10600 6.8212482627e+00 2.6969110194e-09 1.3731072612e+00 -2.3782915406e+00 1.3731072612e+00 2.3782915406e+00 
10700 6.8212463930e+00 2.7644140744e-09 1.3731072612e+00 -2.3782915406e+00 1.3731072612e+00 2.3782915406e+00 
10800 6.8212446345e+00 2.8336079988e-09 1.3731072612e+00 -2.3782915406e+00 1.3731072612e+00 2.3782915406e+00 
10900 6.8212429805e+00 2.9045351278e-09 1.3731072612e+00 -2.3782915406e+00 1.3731072612e+00 2.3782915406e+00 
11000 6.8212414250e+00 2.9772388628e-09 1.3731072612e+00 -2.3782915406e+00 1.3731072612e+00 2.3782915406e+00 
11100 6.8212399618e+00 3.0517636976e-09 1.3731072612e+00 -2.3782915406e+00 1.3731072612e+00 2.3782915406e+00 
11200 6.8212385857e+00 3.1281552455e-09 1.3731072612e+00 -2.3782915406e+00 1.3731072612e+00 2.3782915406e+00 
11300 6.8212372913e+00 3.2064602670e-09 1.3731072612e+00 -2.3782915406e+00 1.3731072612e+00 2.3782915406e+00 
11400 6.8212360738e+00 3.2867266988e-09 1.3731072612e+00 -2.3782915406e+00 1.3731072612e+00 2.3782915406e+00 
11500 6.8212349285e+00 3.3690036826e-09 1.3731072612e+00 -2.3782915406e+00 1.3731072612e+00 2.3782915406e+00 
11600 6.8212338513e+00 3.4533415954e-09 1.3731072612e+00 -2.3782915406e+00 1.3731072612e+00 2.3782915406e+00 
11700 6.8212328379e+00 3.5397920801e-09 1.3731072612e+00 -2.3782915406e+00 1.3731072612e+00 2.3782915406e+00 
11800 6.8212318847e+00 3.6284080775e-09 1.3731072612e+00 -2.3782915406e+00 1.3731072612e+00 2.3782915406e+00 
11900 6.8212309880e+00 3.7192438583e-09 1.3731072612e+00 -2.3782915406e+00 1.3731072612e+00 2.3782915406e+00 
12000 6.8212301444e+00 3.8123550571e-09 1.3731072612e+00 -2.3782915406e+00 1.3731072612e+00 2.3782915406e+00 
12100 6.8212293508e+00 3.9077987057e-09 1.3731072612e+00 -2.3782915406e+00 1.3731072612e+00 2.3782915406e+00 
12200 6.8212286041e+00 4.0056332685e-09 1.3731072612e+00 -2.3782915406e+00 1.3731072612e+00 2.3782915406e+00 
12300 6.8212279016e+00 4.1059186786e-09 1.3731072612e+00 -2.3782915406e+00 1.3731072612e+00 2.3782915406e+00 
12400 6.8212272406e+00 4.2087163740e-09 1.3731072612e+00 -2.3782915406e+00 1.3731072612e+00 2.3782915406e+00 
12500 6.8212266187e+00 4.3140893367e-09 1.3731072612e+00 -2.3782915406e+00 1.3731072612e+00 2.3782915406e+00 
12600 6.8212260335e+00 4.4221021295e-09 1.3731072612e+00 -2.3782915406e+00 1.3731072612e+00 2.3782915406e+00 
12700 6.8212254828e+00 4.5328209375e-09 1.3731072612e+00 -2.3782915406e+00 1.3731072612e+00 2.3782915406e+00 
12800 6.8212249645e+00 4.6463136075e-09 1.3731072612e+00 -2.3782915406e+00 1.3731072612e+00 2.3782915406e+00 
12900 6.8212244767e+00 4.7626496909e-09 1.3731072612e+00 -2.3782915406e+00 1.3731072612e+00 2.3782915406e+00 
13000 6.8212240176e+00 4.8819004856e-09 1.3731072612e+00 -2.3782915406e+00 1.3731072612e+00 2.3782915406e+00 
13100 6.8212235854e+00 5.0041390801e-09 1.3731072612e+00 -2.3782915406e+00 1.3731072612e+00 2.3782915406e+00 
13200 6.8212231786e+00 5.1294403992e-09 1.3731072612e+00 -2.3782915406e+00 1.3731072612e+00 2.3782915406e+00 
13300 6.8212227956e+00 5.2578812487e-09 1.3731072612e+00 -2.3782915406e+00 1.3731072612e+00 2.3782915406e+00 
13400 6.8212224349e+00 5.3895403647e-09 1.3731072612e+00 -2.3782915406e+00 1.3731072612e+00 2.3782915406e+00 
13500 6.8212220953e+00 5.5244984603e-09 1.3731072612e+00 -2.3782915406e+00 1.3731072612e+00 2.3782915406e+00 
13600 6.8212217755e+00 5.6628382765e-09 1.3731072612e+00 -2.3782915406e+00 1.3731072612e+00 2.3782915406e+00 
13700 6.8212214743e+00 5.8046446326e-09 1.3731072612e+00 -2.3782915406e+00 1.3731072612e+00 2.3782915406e+00 
13800 6.8212211905e+00 5.9500044787e-09 1.3731072612e+00 -2.3782915406e+00 1.3731072612e+00 2.3782915406e+00 
13900 6.8212209231e+00 6.0990069495e-09 1.3731072612e+00 -2.3782915406e+00 1.3731072612e+00 2.3782915406e+00 
14000 6.8212206711e+00 6.2517434192e-09 1.3731072612e+00 -2.3782915406e+00 1.3731072612e+00 2.3782915406e+00 
14100 6.8212204337e+00 6.4083075572e-09 1.3731072612e+00 -2.3782915406e+00 1.3731072612e+00 2.3782915406e+00 
14200 6.8212202098e+00 6.5687953873e-09 1.3731072612e+00 -2.3782915406e+00 1.3731072612e+00 2.3782915406e+00 
14300 6.8212199987e+00 6.7333053454e-09 1.3731072612e+00 -2.3782915406e+00 1.3731072612e+00 2.3782915406e+00 
14400 6.8212197996e+00 6.9019383414e-09 1.3731072612e+00 -2.3782915406e+00 1.3731072612e+00 2.3782915406e+00 
14500 6.8212196118e+00 7.0747978210e-09 1.3731072612e+00 -2.3782915406e+00 1.3731072612e+00 2.3782915406e+00 
14600 6.8212194346e+00 7.2519898295e-09 1.3731072612e+00 -2.3782915406e+00 1.3731072612e+00 2.3782915406e+00 
14700 6.8212192674e+00 7.4336230776e-09 1.3731072612e+00 -2.3782915406e+00 1.3731072612e+00 2.3782915406e+00 
14800 6.8212191095e+00 7.6198090084e-09 1.3731072612e+00 -2.3782915406e+00 1.3731072612e+00 2.3782915406e+00 
14900 6.8212189603e+00 7.8106618658e-09 1.3731072612e+00 -2.3782915406e+00 1.3731072612e+00 2.3782915406e+00 
15000 6.8212188194e+00 8.0062987662e-09 1.3731072612e+00 -2.3782915406e+00 1.3731072612e+00 2.3782915406e+00 
15100 6.8212186861e+00 8.2068397692e-09 1.3731072612e+00 -2.3782915406e+00 1.3731072612e+00 2.3782915406e+00 
15200 6.8212185602e+00 8.4124079537e-09 1.3731072612e+00 -2.3782915406e+00 1.3731072612e+00 2.3782915406e+00 
15300 6.8212184410e+00 8.6231294921e-09 1.3731072612e+00 -2.3782915406e+00 1.3731072612e+00 2.3782915406e+00 
15400 6.8212183282e+00 8.8391337300e-09 1.3731072612e+00 -2.3782915406e+00 1.3731072612e+00 2.3782915406e+00 
15500 6.8212182213e+00 9.0605532646e-09 1.3731072612e+00 -2.3782915406e+00 1.3731072612e+00 2.3782915406e+00 
15600 6.8212181201e+00 9.2875240282e-09 1.3731072612e+00 -2.3782915406e+00 1.3731072612e+00 2.3782915406e+00 
15700 6.8212180241e+00 9.5201853710e-09 1.3731072612e+00 -2.3782915406e+00 1.3731072612e+00 2.3782915406e+00 
15800 6.8212179330e+00 9.7586801480e-09 1.3731072612e+00 -2.3782915406e+00 1.3731072612e+00 2.3782915406e+00 
15900 6.8212178465e+00 1.0003154807e-08 1.3731072612e+00 -2.3782915406e+00 1.3731072612e+00 2.3782915406e+00 
16000 6.8212177643e+00 1.0253759480e-08 1.3731072612e+00 -2.3782915406e+00 1.3731072612e+00 2.3782915406e+00 
16100 6.8212176861e+00 1.0510648075e-08 1.3731072612e+00 -2.3782915406e+00 1.3731072612e+00 2.3782915406e+00 
16200 6.8212176117e+00 1.0773978372e-08 1.3731072612e+00 -2.3782915406e+00 1.3731072612e+00 2.3782915406e+00 
16300 6.8212175408e+00 1.1043912120e-08 1.3731072612e+00 -2.3782915406e+00 1.3731072612e+00 2.3782915406e+00 
16400 6.8212174732e+00 1.1320615139e-08 1.3731072612e+00 -2.3782915406e+00 1.3731072612e+00 2.3782915406e+00 
16500 6.8212174087e+00 1.1604257419e-08 1.3731072612e+00 -2.3782915406e+00 1.3731072612e+00 2.3782915406e+00 
16600 6.8212173470e+00 1.1895013230e-08 1.3731072612e+00 -2.3782915406e+00 1.3731072612e+00 2.3782915406e+00 
16700 6.8212172880e+00 1.2193061227e-08 1.3731072612e+00 -2.3782915406e+00 1.3731072612e+00 2.3782915406e+00 
16800 6.8212172314e+00 1.2498584560e-08 1.3731072612e+00 -2.3782915406e+00 1.3731072612e+00 2.3782915406e+00 
16900 6.8212171772e+00 1.2811770991e-08 1.3731072612e+00 -2.3782915406e+00 1.3731072612e+00 2.3782915406e+00 
17000 6.8212171251e+00 1.3132813005e-08 1.3731072612e+00 -2.3782915406e+00 1.3731072612e+00 2.3782915406e+00 
17100 6.8212170750e+00 1.3461907935e-08 1.3731072612e+00 -2.3782915406e+00 1.3731072612e+00 2.3782915406e+00 
17200 6.8212170267e+00 1.3799258082e-08 1.3731072612e+00 -2.3782915406e+00 1.3731072612e+00 2.3782915406e+00 
17300 6.8212169801e+00 1.4145070839e-08 1.3731072612e+00 -2.3782915406e+00 1.3731072612e+00 2.3782915406e+00 
17400 6.8212169351e+00 1.4499558822e-08 1.3731072612e+00 -2.3782915406e+00 1.3731072612e+00 2.3782915406e+00 
17500 6.8212168916e+00 1.4862940000e-08 1.3731072612e+00 -2.3782915406e+00 1.3731072612e+00 2.3782915406e+00 
17600 6.8212168494e+00 1.5235437833e-08 1.3731072612e+00 -2.3782915406e+00 1.3731072612e+00 2.3782915406e+00 
17700 6.8212168084e+00 1.5617281406e-08 1.3731072612e+00 -2.3782915406e+00 1.3731072612e+00 2.3782915406e+00 
17800 6.8212167685e+00 1.6008705576e-08 1.3731072612e+00 -2.3782915406e+00 1.3731072612e+00 2.3782915406e+00 
17900 6.8212167296e+00 1.6409951117e-08 1.3731072612e+00 -2.3782915406e+00 1.3731072612e+00 2.3782915406e+00 
18000 6.8212166916e+00 1.6821264866e-08 1.3731072612e+00 -2.3782915406e+00 1.3731072612e+00 2.3782915406e+00 
18100 6.8212166545e+00 1.7242899881e-08 1.3731072612e+00 -2.3782915406e+00 1.3731072612e+00 2.3782915406e+00 
18200 6.8212166181e+00 1.7675115594e-08 1.3731072612e+00 -2.3782915406e+00 1.3731072612e+00 2.3782915406e+00 
18300 6.8212165824e+00 1.8118177975e-08 1.3731072612e+00 -2.3782915406e+00 1.3731072612e+00 2.3782915406e+00 
18400 6.8212165472e+00 1.8572359698e-08 1.3731072612e+00 -2.3782915406e+00 1.3731072612e+00 2.3782915406e+00 
18500 6.8212165126e+00 1.9037940308e-08 1.3731072612e+00 -2.3782915406e+00 1.3731072612e+00 2.3782915406e+00 
18600 6.8212164784e+00 1.9515206396e-08 1.3731072612e+00 -2.3782915406e+00 1.3731072612e+00 2.3782915406e+00 
18700 6.8212164446e+00 2.0004451777e-08 1.3731072612e+00 -2.3782915406e+00 1.3731072612e+00 2.3782915406e+00 
18800 6.8212164111e+00 2.0505977673e-08 1.3731072612e+00 -2.3782915406e+00 1.3731072612e+00 2.3782915406e+00 
18900 6.8212163778e+00 2.1020092901e-08 1.3731072612e+00 -2.3782915406e+00 1.3731072612e+00 2.3782915406e+00 
19000 6.8212163448e+00 2.1547114065e-08 1.3731072612e+00 -2.3782915406e+00 1.3731072612e+00 2.3782915406e+00 
19100 6.8212163118e+00 2.2087365752e-08 1.3731072612e+00 -2.3782915406e+00 1.3731072612e+00 2.3782915406e+00 
19200 6.8212162790e+00 2.2641180735e-08 1.3731072612e+00 -2.3782915406e+00 1.3731072612e+00 2.3782915406e+00 
19300 6.8212162461e+00 2.3208900181e-08 1.3731072612e+00 -2.3782915406e+00 1.3731072612e+00 2.3782915406e+00 
19400 6.8212162133e+00 2.3790873862e-08 1.3731072612e+00 -2.3782915406e+00 1.3731072612e+00 2.3782915406e+00 
19500 6.8212161804e+00 2.4387460373e-08 1.3731072612e+00 -2.3782915406e+00 1.3731072612e+00 2.3782915406e+00 
19600 6.8212161474e+00 2.4999027358e-08 1.3731072612e+00 -2.3782915406e+00 1.3731072612e+00 2.3782915406e+00 
19700 6.8212161142e+00 2.5625951737e-08 1.3731072612e+00 -2.3782915406e+00 1.3731072612e+00 2.3782915406e+00 
19800 6.8212160808e+00 2.6268619939e-08 1.3731072612e+00 -2.3782915406e+00 1.3731072612e+00 2.3782915406e+00 
19900 6.8212160471e+00 2.6927428150e-08 1.3731072612e+00 -2.3782915406e+00 1.3731072612e+00 2.3782915406e+00 
20000 6.8212160132e+00 2.7602782552e-08 1.3731072612e+00 -2.3782915406e+00 1.3731072612e+00 2.3782915406e+00 
20100 6.8212159789e+00 2.8295099583e-08 1.3731072612e+00 -2.3782915406e+00 1.3731072612e+00 2.3782915406e+00 
20200 6.8212159443e+00 2.9004806190e-08 1.3731072612e+00 -2.3782915406e+00 1.3731072612e+00 2.3782915406e+00 
20300 6.8212159092e+00 2.9732340104e-08 1.3731072612e+00 -2.3782915406e+00 1.3731072612e+00 2.3782915406e+00 
20400 6.8212158737e+00 3.0478150108e-08 1.3731072612e+00 -2.3782915406e+00 1.3731072612e+00 2.3782915406e+00 
20500 6.8212158377e+00 3.1242696318e-08 1.3731072612e+00 -2.3782915406e+00 1.3731072612e+00 2.3782915406e+00 
20600 6.8212158013e+00 3.2026450470e-08 1.3731072612e+00 -2.3782915406e+00 1.3731072612e+00 2.3782915406e+00 
20700 6.8212157642e+00 3.2829896219e-08 1.3731072612e+00 -2.3782915406e+00 1.3731072612e+00 2.3782915406e+00 
20800 6.8212157266e+00 3.3653529435e-08 1.3731072612e+00 -2.3782915406e+00 1.3731072612e+00 2.3782915406e+00 
20900 6.8212156883e+00 3.4497858519e-08 1.3731072612e+00 -2.3782915406e+00 1.3731072612e+00 2.3782915406e+00 
21000 6.8212156494e+00 3.5363404717e-08 1.3731072612e+00 -2.3782915406e+00 1.3731072612e+00 2.3782915406e+00 
21100 6.8212156098e+00 3.6250702448e-08 1.3731072612e+00 -2.3782915406e+00 1.3731072612e+00 2.3782915406e+00 
21200 6.8212155694e+00 3.7160299639e-08 1.3731072612e+00 -2.3782915406e+00 1.3731072612e+00 2.3782915406e+00 
21300 6.8212155283e+00 3.8092758066e-08 1.3731072612e+00 -2.3782915406e+00 1.3731072612e+00 2.3782915406e+00 
21400 6.8212154864e+00 3.9048653709e-08 1.3731072612e+00 -2.3782915406e+00 1.3731072612e+00 2.3782915406e+00 
21500 6.8212154437e+00 4.0028577110e-08 1.3731072612e+00 -2.3782915406e+00 1.3731072612e+00 2.3782915406e+00 
21600 6.8212154001e+00 4.1033133741e-08 1.3731072612e+00 -2.3782915406e+00 1.3731072612e+00 2.3782915406e+00 
21700 6.8212153556e+00 4.2062944393e-08 1.3731072612e+00 -2.3782915406e+00 1.3731072612e+00 2.3782915406e+00 
21800 6.8212153101e+00 4.3118645554e-08 1.3731072612e+00 -2.3782915406e+00 1.3731072612e+00 2.3782915406e+00 
21900 6.8212152637e+00 4.4200889815e-08 1.3731072612e+00 -2.3782915406e+00 1.3731072612e+00 2.3782915406e+00 
22000 6.8212152163e+00 4.5310346277e-08 1.3731072612e+00 -2.3782915406e+00 1.3731072612e+00 2.3782915406e+00 
22100 6.8212151679e+00 4.6447700972e-08 1.3731072612e+00 -2.3782915406e+00 1.3731072612e+00 2.3782915406e+00 
22200 6.8212151184e+00 4.7613657293e-08 1.3731072612e+00 -2.3782915406e+00 1.3731072612e+00 2.3782915406e+00 
22300 6.8212150678e+00 4.8808936436e-08 1.3731072612e+00 -2.3782915406e+00 1.3731072612e+00 2.3782915406e+00 
22400 6.8212150160e+00 5.0034277853e-08 1.3731072612e+00 -2.3782915406e+00 1.3731072612e+00 2.3782915406e+00 
22500 6.8212149631e+00 5.1290439718e-08 1.3731072612e+00 -2.3782915406e+00 1.3731072612e+00 2.3782915406e+00 
22600 6.8212149089e+00 5.2578199400e-08 1.3731072612e+00 -2.3782915406e+00 1.3731072612e+00 2.3782915406e+00 
22700 6.8212148535e+00 5.3898353957e-08 1.3731072612e+00 -2.3782915406e+00 1.3731072612e+00 2.3782915406e+00 
22800 6.8212147968e+00 5.5251720632e-08 1.3731072612e+00 -2.3782915406e+00 1.3731072612e+00 2.3782915406e+00 
22900 6.8212147388e+00 5.6639137373e-08 1.3731072612e+00 -2.3782915406e+00 1.3731072612e+00 2.3782915406e+00 
23000 6.8212146794e+00 5.8061463355e-08 1.3731072612e+00 -2.3782915406e+00 1.3731072612e+00 2.3782915406e+00 
23100 6.8212146186e+00 5.9519579524e-08 1.3731072612e+00 -2.3782915406e+00 1.3731072612e+00 2.3782915406e+00 
23200 6.8212145563e+00 6.1014389151e-08 1.3731072612e+00 -2.3782915406e+00 1.3731072612e+00 2.3782915406e+00 
23300 6.8212144926e+00 6.2546818404e-08 1.3731072612e+00 -2.3782915406e+00 1.3731072612e+00 2.3782915406e+00 
23400 6.8212144273e+00 6.4117816926e-08 1.3731072612e+00 -2.3782915406e+00 1.3731072612e+00 2.3782915406e+00 
23500 6.8212143604e+00 6.5728358439e-08 1.3731072612e+00 -2.3782915406e+00 1.3731072612e+00 2.3782915406e+00 
23600 6.8212142920e+00 6.7379441355e-08 1.3731072612e+00 -2.3782915406e+00 1.3731072612e+00 2.3782915406e+00 
23700 6.8212142218e+00 6.9072089411e-08 1.3731072612e+00 -2.3782915406e+00 1.3731072612e+00 2.3782915406e+00 
23800 6.8212141500e+00 7.0807352306e-08 1.3731072612e+00 -2.3782915406e+00 1.3731072612e+00 2.3782915406e+00 
23900 6.8212140764e+00 7.2586306375e-08 1.3731072612e+00 -2.3782915406e+00 1.3731072612e+00 2.3782915406e+00 
24000 6.8212140010e+00 7.4410055260e-08 1.3731072612e+00 -2.3782915406e+00 1.3731072612e+00 2.3782915406e+00 
24100 6.8212139238e+00 7.6279730612e-08 1.3731072612e+00 -2.3782915406e+00 1.3731072612e+00 2.3782915406e+00 
24200 6.8212138447e+00 7.8196492806e-08 1.3731072612e+00 -2.3782915406e+00 1.3731072612e+00 2.3782915406e+00 
24300 6.8212137636e+00 8.0161531674e-08 1.3731072612e+00 -2.3782915406e+00 1.3731072612e+00 2.3782915406e+00 
24400 6.8212136805e+00 8.2176067258e-08 1.3731072612e+00 -2.3782915406e+00 1.3731072612e+00 2.3782915406e+00 
24500 6.8212135954e+00 8.4241350580e-08 1.3731072612e+00 -2.3782915406e+00 1.3731072612e+00 2.3782915406e+00 
24600 6.8212135081e+00 8.6358664440e-08 1.3731072612e+00 -2.3782915406e+00 1.3731072612e+00 2.3782915406e+00 
24700 6.8212134187e+00 8.8529324224e-08 1.3731072612e+00 -2.3782915406e+00 1.3731072612e+00 2.3782915406e+00 
24800 6.8212133271e+00 9.0754678735e-08 1.3731072612e+00 -2.3782915406e+00 1.3731072612e+00 2.3782915406e+00 
24900 6.8212132332e+00 9.3036111058e-08 1.3731072612e+00 -2.3782915406e+00 1.3731072612e+00 2.3782915406e+00 
25000 6.8212131370e+00 9.5375039422e-08 1.3731072612e+00 -2.3782915406e+00 1.3731072612e+00 2.3782915406e+00 
25100 6.8212130384e+00 9.7772918115e-08 1.3731072612e+00 -2.3782915406e+00 1.3731072612e+00 2.3782915406e+00 
25200 6.8212129373e+00 1.0023123840e-07 1.3731072612e+00 -2.3782915406e+00 1.3731072612e+00 2.3782915406e+00 
25300 6.8212128337e+00 1.0275152946e-07 1.3731072612e+00 -2.3782915406e+00 1.3731072612e+00 2.3782915406e+00 
25400 6.8212127276e+00 1.0533535937e-07 1.3731072612e+00 -2.3782915406e+00 1.3731072612e+00 2.3782915406e+00 
25500 6.8212126188e+00 1.0798433609e-07 1.3731072612e+00 -2.3782915406e+00 1.3731072612e+00 2.3782915406e+00 
25600 6.8212125072e+00 1.1070010852e-07 1.3731072612e+00 -2.3782915406e+00 1.3731072612e+00 2.3782915406e+00 
25700 6.8212123929e+00 1.1348436748e-07 1.3731072612e+00 -2.3782915406e+00 1.3731072612e+00 2.3782915406e+00 
25800 6.8212122757e+00 1.1633884686e-07 1.3731072612e+00 -2.3782915406e+00 1.3731072612e+00 2.3782915406e+00 
25900 6.8212121556e+00 1.1926532468e-07 1.3731072612e+00 -2.3782915406e+00 1.3731072612e+00 2.3782915406e+00 
26000 6.8212120325e+00 1.2226562422e-07 1.3731072612e+00 -2.3782915406e+00 1.3731072612e+00 2.3782915406e+00 
26100 6.8212119063e+00 1.2534161521e-07 1.3731072612e+00 -2.3782915406e+00 1.3731072612e+00 2.3782915406e+00 
26200 6.8212117770e+00 1.2849521501e-07 1.3731072612e+00 -2.3782915406e+00 1.3731072612e+00 2.3782915406e+00 
26300 6.8212116444e+00 1.3172838982e-07 1.3731072612e+00 -2.3782915406e+00 1.3731072612e+00 2.3782915406e+00 
26400 6.8212115085e+00 1.3504315594e-07 1.3731072612e+00 -2.3782915406e+00 1.3731072612e+00 2.3782915406e+00 
26500 6.8212113691e+00 1.3844158107e-07 1.3731072612e+00 -2.3782915406e+00 1.3731072612e+00 2.3782915406e+00 
26600 6.8212112263e+00 1.4192578561e-07 1.3731072612e+00 -2.3782915406e+00 1.3731072612e+00 2.3782915406e+00 
26700 6.8212110799e+00 1.4549794404e-07 1.3731072612e+00 -2.3782915406e+00 1.3731072612e+00 2.3782915406e+00 
26800 6.8212109299e+00 1.4916028628e-07 1.3731072612e+00 -2.3782915406e+00 1.3731072612e+00 2.3782915406e+00 
26900 6.8212107760e+00 1.5291509915e-07 1.3731072612e+00 -2.3782915406e+00 1.3731072612e+00 2.3782915406e+00 
27000 6.8212106183e+00 1.5676472779e-07 1.3731072612e+00 -2.3782915406e+00 1.3731072612e+00 2.3782915406e+00 
27100 6.8212104567e+00 1.6071157721e-07 1.3731072612e+00 -2.3782915406e+00 1.3731072612e+00 2.3782915406e+00 
27200 6.8212102910e+00 1.6475811379e-07 1.3731072612e+00 -2.3782915406e+00 1.3731072612e+00 2.3782915406e+00 
27300 6.8212101211e+00 1.6890686687e-07 1.3731072612e+00 -2.3782915406e+00 1.3731072612e+00 2.3782915406e+00 
27400 6.8212099470e+00 1.7316043038e-07 1.3731072612e+00 -2.3782915406e+00 1.3731072612e+00 2.3782915406e+00 
27500 6.8212097684e+00 1.7752146452e-07 1.3731072612e+00 -2.3782915406e+00 1.3731072612e+00 2.3782915406e+00 
27600 6.8212095854e+00 1.8199269743e-07 1.3731072612e+00 -2.3782915406e+00 1.3731072612e+00 2.3782915406e+00 
27700 6.8212093978e+00 1.8657692695e-07 1.3731072612e+00 -2.3782915406e+00 1.3731072612e+00 2.3782915406e+00 
27800 6.8212092055e+00 1.9127702243e-07 1.3731072612e+00 -2.3782915406e+00 1.3731072612e+00 2.3782915406e+00 
27900 6.8212090084e+00 1.9609592657e-07 1.3731072612e+00 -2.3782915406e+00 1.3731072612e+00 2.3782915406e+00 
28000 6.8212088063e+00 2.0103665732e-07 1.3731072612e+00 -2.3782915406e+00 1.3731072612e+00 2.3782915406e+00 
28100 6.8212085991e+00 2.0610230979e-07 1.3731072612e+00 -2.3782915406e+00 1.3731072612e+00 2.3782915406e+00 
28200 6.8212083867e+00 2.1129605828e-07 1.3731072612e+00 -2.3782915406e+00 1.3731072612e+00 2.3782915406e+00 
28300 6.8212081689e+00 2.1662115830e-07 1.3731072612e+00 -2.3782915406e+00 1.3731072612e+00 2.3782915406e+00 
28400 6.8212079457e+00 2.2208094867e-07 1.3731072612e+00 -2.3782915406e+00 1.3731072612e+00 2.3782915406e+00 
28500 6.8212077168e+00 2.2767885366e-07 1.3731072612e+00 -2.3782915406e+00 1.3731072612e+00 2.3782915406e+00 
28600 6.8212074822e+00 2.3341838525e-07 1.3731072612e+00 -2.3782915406e+00 1.3731072612e+00 2.3782915406e+00 
28700 6.8212072417e+00 2.3930314532e-07 1.3731072612e+00 -2.3782915406e+00 1.3731072612e+00 2.3782915406e+00 
28800 6.8212069952e+00 2.4533682804e-07 1.3731072612e+00 -2.3782915406e+00 1.3731072612e+00 2.3782915406e+00 
28900 6.8212067424e+00 2.5152322222e-07 1.3731072612e+00 -2.3782915406e+00 1.3731072612e+00 2.3782915406e+00 
29000 6.8212064832e+00 2.5786621375e-07 1.3731072612e+00 -2.3782915406e+00 1.3731072612e+00 2.3782915406e+00 
29100 6.8212062176e+00 2.6436978815e-07 1.3731072612e+00 -2.3782915406e+00 1.3731072612e+00 2.3782915406e+00 
29200 6.8212059452e+00 2.7103803312e-07 1.3731072612e+00 -2.3782915406e+00 1.3731072612e+00 2.3782915406e+00 
29300 6.8212056660e+00 2.7787514118e-07 1.3731072612e+00 -2.3782915406e+00 1.3731072612e+00 2.3782915406e+00 
29400 6.8212053798e+00 2.8488541243e-07 1.3731072612e+00 -2.3782915406e+00 1.3731072612e+00 2.3782915406e+00 
29500 6.8212050863e+00 2.9207325726e-07 1.3731072612e+00 -2.3782915406e+00 1.3731072612e+00 2.3782915406e+00 
29600 6.8212047855e+00 2.9944319927e-07 1.3731072612e+00 -2.3782915406e+00 1.3731072612e+00 2.3782915406e+00 
29700 6.8212044770e+00 3.0699987819e-07 1.3731072612e+00 -2.3782915406e+00 1.3731072612e+00 2.3782915406e+00 
29800 6.8212041608e+00 3.1474805287e-07 1.3731072612e+00 -2.3782915406e+00 1.3731072612e+00 2.3782915406e+00 
29900 6.8212038366e+00 3.2269260440e-07 1.3731072612e+00 -2.3782915406e+00 1.3731072612e+00 2.3782915406e+00 
30000 6.8212035043e+00 3.3083853926e-07 1.3731072612e+00 -2.3782915406e+00 1.3731072612e+00 2.3782915406e+00 
30100 6.8212031636e+00 3.3919099256e-07 1.3731072612e+00 -2.3782915406e+00 1.3731072612e+00 2.3782915406e+00 
30200 6.8212028143e+00 3.4775523144e-07 1.3731072612e+00 -2.3782915406e+00 1.3731072612e+00 2.3782915406e+00 
30300 6.8212024561e+00 3.5653665840e-07 1.3731072612e+00 -2.3782915406e+00 1.3731072612e+00 2.3782915406e+00 
30400 6.8212020890e+00 3.6554081492e-07 1.3731072612e+00 -2.3782915406e+00 1.3731072612e+00 2.3782915406e+00 
30500 6.8212017126e+00 3.7477338500e-07 1.3731072612e+00 -2.3782915406e+00 1.3731072612e+00 2.3782915406e+00 
30600 6.8212013266e+00 3.8424019888e-07 1.3731072612e+00 -2.3782915406e+00 1.3731072612e+00 2.3782915406e+00 
30700 6.8212009310e+00 3.9394723684e-07 1.3731072612e+00 -2.3782915406e+00 1.3731072612e+00 2.3782915406e+00 
30800 6.8212005254e+00 4.0390063315e-07 1.3731072612e+00 -2.3782915406e+00 1.3731072612e+00 2.3782915406e+00 
30900 6.8212001095e+00 4.1410667998e-07 1.3731072612e+00 -2.3782915406e+00 1.3731072612e+00 2.3782915406e+00 
31000 6.8211996831e+00 4.2457183159e-07 1.3731072612e+00 -2.3782915406e+00 1.3731072612e+00 2.3782915406e+00 
31100 6.8211992460e+00 4.3530270852e-07 1.3731072612e+00 -2.3782915406e+00 1.3731072612e+00 2.3782915406e+00 
31200 6.8211987979e+00 4.4630610191e-07 1.3731072612e+00 -2.3782915406e+00 1.3731072612e+00 2.3782915406e+00 
31300 6.8211983384e+00 4.5758897795e-07 1.3731072612e+00 -2.3782915406e+00 1.3731072612e+00 2.3782915406e+00 
31400 6.8211978673e+00 4.6915848245e-07 1.3731072612e+00 -2.3782915406e+00 1.3731072612e+00 2.3782915406e+00 
31500 6.8211973844e+00 4.8102194549e-07 1.3731072612e+00 -2.3782915406e+00 1.3731072612e+00 2.3782915406e+00 
31600 6.8211968892e+00 4.9318688627e-07 1.3731072612e+00 -2.3782915406e+00 1.3731072612e+00 2.3782915406e+00 
31700 6.8211963816e+00 5.0566101800e-07 1.3731072612e+00 -2.3782915406e+00 1.3731072612e+00 2.3782915406e+00 
31800 6.8211958611e+00 5.1845225296e-07 1.3731072612e+00 -2.3782915406e+00 1.3731072612e+00 2.3782915406e+00 
31900 6.8211953274e+00 5.3156870773e-07 1.3731072612e+00 -2.3782915406e+00 1.3731072612e+00 2.3782915406e+00 
32000 6.8211947803e+00 5.4501870848e-07 1.3731072612e+00 -2.3782915406e+00 1.3731072612e+00 2.3782915406e+00 
32100 6.8211942194e+00 5.5881079646e-07 1.3731072612e+00 -2.3782915406e+00 1.3731072612e+00 2.3782915406e+00 
32200 6.8211936442e+00 5.7295373360e-07 1.3731072612e+00 -2.3782915406e+00 1.3731072612e+00 2.3782915406e+00 
32300 6.8211930546e+00 5.8745650831e-07 1.3731072612e+00 -2.3782915406e+00 1.3731072612e+00 2.3782915406e+00 
32400 6.8211924500e+00 6.0232834134e-07 1.3731072612e+00 -2.3782915406e+00 1.3731072612e+00 2.3782915406e+00 
32500 6.8211918301e+00 6.1757869191e-07 1.3731072612e+00 -2.3782915406e+00 1.3731072612e+00 2.3782915406e+00 
32600 6.8211911946e+00 6.3321726389e-07 1.3731072612e+00 -2.3782915406e+00 1.3731072612e+00 2.3782915406e+00 
32700 6.8211905430e+00 6.4925401222e-07 1.3731072612e+00 -2.3782915406e+00 1.3731072612e+00 2.3782915406e+00 
32800 6.8211898749e+00 6.6569914949e-07 1.3731072612e+00 -2.3782915406e+00 1.3731072612e+00 2.3782915406e+00 
32900 6.8211891899e+00 6.8256315264e-07 1.3731072612e+00 -2.3782915406e+00 1.3731072612e+00 2.3782915406e+00 
33000 6.8211884876e+00 6.9985676991e-07 1.3731072612e+00 -2.3782915406e+00 1.3731072612e+00 2.3782915406e+00 
33100 6.8211877675e+00 7.1759102794e-07 1.3731072612e+00 -2.3782915406e+00 1.3731072612e+00 2.3782915406e+00 
33200 6.8211870292e+00 7.3577723902e-07 1.3731072612e+00 -2.3782915406e+00 1.3731072612e+00 2.3782915406e+00 
33300 6.8211862722e+00 7.5442700860e-07 1.3731072612e+00 -2.3782915406e+00 1.3731072612e+00 2.3782915406e+00 
33400 6.8211854961e+00 7.7355224298e-07 1.3731072612e+00 -2.3782915406e+00 1.3731072612e+00 2.3782915406e+00 
33500 6.8211847003e+00 7.9316515714e-07 1.3731072612e+00 -2.3782915406e+00 1.3731072612e+00 2.3782915406e+00 
33600 6.8211838843e+00 8.1327828288e-07 1.3731072612e+00 -2.3782915406e+00 1.3731072612e+00 2.3782915406e+00 
33700 6.8211830477e+00 8.3390447710e-07 1.3731072612e+00 -2.3782915406e+00 1.3731072612e+00 2.3782915406e+00 
33800 6.8211821898e+00 8.5505693030e-07 1.3731072612e+00 -2.3782915406e+00 1.3731072612e+00 2.3782915406e+00 
33900 6.8211813103e+00 8.7674917538e-07 1.3731072612e+00 -2.3782915406e+00 1.3731072612e+00 2.3782915406e+00 
34000 6.8211804084e+00 8.9899509654e-07 1.3731072612e+00 -2.3782915406e+00 1.3731072612e+00 2.3782915406e+00 
34100 6.8211794837e+00 9.2180893860e-07 1.3731072612e+00 -2.3782915406e+00 1.3731072612e+00 2.3782915406e+00 
34200 6.8211785356e+00 9.4520531633e-07 1.3731072612e+00 -2.3782915406e+00 1.3731072612e+00 2.3782915406e+00 
34300 6.8211775634e+00 9.6919922428e-07 1.3731072612e+00 -2.3782915406e+00 1.3731072612e+00 2.3782915406e+00 
34400 6.8211765666e+00 9.9380604666e-07 1.3731072612e+00 -2.3782915406e+00 1.3731072612e+00 2.3782915406e+00 
34500 6.8211755445e+00 1.0190415676e-06 1.3731072612e+00 -2.3782915406e+00 1.3731072612e+00 2.3782915406e+00 
34600 6.8211744964e+00 1.0449219817e-06 1.3731072612e+00 -2.3782915406e+00 1.3731072612e+00 2.3782915406e+00 
34700 6.8211734218e+00 1.0714639046e-06 1.3731072612e+00 -2.3782915406e+00 1.3731072612e+00 2.3782915406e+00 
34800 6.8211723199e+00 1.0986843845e-06 1.3731072612e+00 -2.3782915406e+00 1.3731072612e+00 2.3782915406e+00 
34900 6.8211711901e+00 1.1266009127e-06 1.3731072612e+00 -2.3782915406e+00 1.3731072612e+00 2.3782915406e+00 
35000 6.8211700315e+00 1.1552314363e-06 1.3731072612e+00 -2.3782915406e+00 1.3731072612e+00 2.3782915406e+00 
35100 6.8211688436e+00 1.1845943693e-06 1.3731072612e+00 -2.3782915406e+00 1.3731072612e+00 2.3782915406e+00 
35200 6.8211676255e+00 1.2147086052e-06 1.3731072612e+00 -2.3782915406e+00 1.3731072612e+00 2.3782915406e+00 
35300 6.8211663765e+00 1.2455935297e-06 1.3731072612e+00 -2.3782915406e+00 1.3731072612e+00 2.3782915406e+00 
35400 6.8211650957e+00 1.2772690335e-06 1.3731072612e+00 -2.3782915406e+00 1.3731072612e+00 2.3782915406e+00 
35500 6.8211637824e+00 1.3097555254e-06 1.3731072612e+00 -2.3782915406e+00 1.3731072612e+00 2.3782915406e+00 
35600 6.8211624357e+00 1.3430739463e-06 1.3731072612e+00 -2.3782915406e+00 1.3731072612e+00 2.3782915406e+00 
35700 6.8211610548e+00 1.3772457831e-06 1.3731072612e+00 -2.3782915406e+00 1.3731072612e+00 2.3782915406e+00 
35800 6.8211596388e+00 1.4122930825e-06 1.3731072612e+00 -2.3782915406e+00 1.3731072612e+00 2.3782915406e+00 
35900 6.8211581868e+00 1.4482384667e-06 1.3731072612e+00 -2.3782915406e+00 1.3731072612e+00 2.3782915406e+00 
36000 6.8211566979e+00 1.4851051476e-06 1.3731072612e+00 -2.3782915406e+00 1.3731072612e+00 2.3782915406e+00 
36100 6.8211551711e+00 1.5229169428e-06 1.3731072612e+00 -2.3782915406e+00 1.3731072612e+00 2.3782915406e+00 
36200 6.8211536054e+00 1.5616982914e-06 1.3731072612e+00 -2.3782915406e+00 1.3731072612e+00 2.3782915406e+00 
36300 6.8211520000e+00 1.6014742703e-06 1.3731072612e+00 -2.3782915406e+00 1.3731072612e+00 2.3782915406e+00 
36400 6.8211503536e+00 1.6422706111e-06 1.3731072612e+00 -2.3782915406e+00 1.3731072612e+00 2.3782915406e+00 
36500 6.8211486654e+00 1.6841137171e-06 1.3731072612e+00 -2.3782915406e+00 1.3731072612e+00 2.3782915406e+00 
36600 6.8211469341e+00 1.7270306811e-06 1.3731072612e+00 -2.3782915406e+00 1.3731072612e+00 2.3782915406e+00 
36700 6.8211451588e+00 1.7710493035e-06 1.3731072612e+00 -2.3782915406e+00 1.3731072612e+00 2.3782915406e+00 
36800 6.8211433382e+00 1.8161981109e-06 1.3731072612e+00 -2.3782915406e+00 1.3731072612e+00 2.3782915406e+00 
36900 6.8211414713e+00 1.8625063750e-06 1.3731072612e+00 -2.3782915406e+00 1.3731072612e+00 2.3782915406e+00 
37000 6.8211395567e+00 1.9100041325e-06 1.3731072612e+00 -2.3782915406e+00 1.3731072612e+00 2.3782915406e+00 
37100 6.8211375934e+00 1.9587222049e-06 1.3731072612e+00 -2.3782915406e+00 1.3731072612e+00 2.3782915406e+00 
37200 6.8211355800e+00 2.0086922192e-06 1.3731072612e+00 -2.3782915406e+00 1.3731072612e+00 2.3782915406e+00 
37300 6.8211335153e+00 2.0599466292e-06 1.3731072612e+00 -2.3782915406e+00 1.3731072612e+00 2.3782915406e+00 
37400 6.8211313979e+00 2.1125187370e-06 1.3731072612e+00 -2.3782915406e+00 1.3731072612e+00 2.3782915406e+00 
37500 6.8211292265e+00 2.1664427152e-06 1.3731072612e+00 -2.3782915406e+00 1.3731072612e+00 2.3782915406e+00 
37600 6.8211269996e+00 2.2217536300e-06 1.3731072612e+00 -2.3782915406e+00 1.3731072612e+00 2.3782915406e+00 
37700 6.8211247159e+00 2.2784874646e-06 1.3731072612e+00 -2.3782915406e+00 1.3731072612e+00 2.3782915406e+00 
37800 6.8211223739e+00 2.3366811429e-06 1.3731072612e+00 -2.3782915406e+00 1.3731072612e+00 2.3782915406e+00 
37900 6.8211199721e+00 2.3963725547e-06 1.3731072612e+00 -2.3782915406e+00 1.3731072612e+00 2.3782915406e+00 
38000 6.8211175089e+00 2.4576005803e-06 1.3731072612e+00 -2.3782915406e+00 1.3731072612e+00 2.3782915406e+00 
38100 6.8211149828e+00 2.5204051172e-06 1.3731072612e+00 -2.3782915406e+00 1.3731072612e+00 2.3782915406e+00 
38200 6.8211123922e+00 2.5848271063e-06 1.3731072612e+00 -2.3782915406e+00 1.3731072612e+00 2.3782915406e+00 
38300 6.8211097352e+00 2.6509085591e-06 1.3731072612e+00 -2.3782915406e+00 1.3731072612e+00 2.3782915406e+00 
38400 6.8211070104e+00 2.7186925860e-06 1.3731072612e+00 -2.3782915406e+00 1.3731072612e+00 2.3782915406e+00 
38500 6.8211042158e+00 2.7882234249e-06 1.3731072612e+00 -2.3782915406e+00 1.3731072612e+00 2.3782915406e+00 
38600 6.8211013498e+00 2.8595464707e-06 1.3731072612e+00 -2.3782915406e+00 1.3731072612e+00 2.3782915406e+00 
38700 6.8210984104e+00 2.9327083054e-06 1.3731072612e+00 -2.3782915406e+00 1.3731072612e+00 2.3782915406e+00 
38800 6.8210953957e+00 3.0077567290e-06 1.3731072612e+00 -2.3782915406e+00 1.3731072612e+00 2.3782915406e+00 
38900 6.8210923038e+00 3.0847407917e-06 1.3731072612e+00 -2.3782915406e+00 1.3731072612e+00 2.3782915406e+00 
39000 6.8210891328e+00 3.1637108258e-06 1.3731072612e+00 -2.3782915406e+00 1.3731072612e+00 2.3782915406e+00 
39100 6.8210858805e+00 3.2447184797e-06 1.3731072612e+00 -2.3782915406e+00 1.3731072612e+00 2.3782915406e+00 
39200 6.8210825448e+00 3.3278167519e-06 1.3731072612e+00 -2.3782915406e+00 1.3731072612e+00 2.3782915406e+00 
39300 6.8210791236e+00 3.4130600260e-06 1.3731072612e+00 -2.3782915406e+00 1.3731072612e+00 2.3782915406e+00 
39400 6.8210756147e+00 3.5005041067e-06 1.3731072612e+00 -2.3782915406e+00 1.3731072612e+00 2.3782915406e+00 
39500 6.8210720157e+00 3.5902062569e-06 1.3731072612e+00 -2.3782915406e+00 1.3731072612e+00 2.3782915406e+00 
39600 6.8210683244e+00 3.6822252353e-06 1.3731072612e+00 -2.3782915406e+00 1.3731072612e+00 2.3782915406e+00 
39700 6.8210645384e+00 3.7766213352e-06 1.3731072612e+00 -2.3782915406e+00 1.3731072612e+00 2.3782915406e+00 
39800 6.8210606551e+00 3.8734564240e-06 1.3731072612e+00 -2.3782915406e+00 1.3731072612e+00 2.3782915406e+00 
39900 6.8210566721e+00 3.9727939843e-06 1.3731072612e+00 -2.3782915406e+00 1.3731072612e+00 2.3782915406e+00 
40000 6.8210525868e+00 4.0746991551e-06 1.3731072612e+00 -2.3782915406e+00 1.3731072612e+00 2.3782915406e+00 
40100 6.8210483965e+00 4.1792387751e-06 1.3731072612e+00 -2.3782915406e+00 1.3731072612e+00 2.3782915406e+00 
40200 6.8210440984e+00 4.2864814258e-06 1.3731072612e+00 -2.3782915406e+00 1.3731072612e+00 2.3782915406e+00 
40300 6.8210396899e+00 4.3964974767e-06 1.3731072612e+00 -2.3782915406e+00 1.3731072612e+00 2.3782915406e+00 
40400 6.8210351678e+00 4.5093591312e-06 1.3731072612e+00 -2.3782915406e+00 1.3731072612e+00 2.3782915406e+00 
40500 6.8210305295e+00 4.6251404734e-06 1.3731072612e+00 -2.3782915406e+00 1.3731072612e+00 2.3782915406e+00 
40600 6.8210257717e+00 4.7439175165e-06 1.3731072612e+00 -2.3782915406e+00 1.3731072612e+00 2.3782915406e+00 
40700 6.8210208914e+00 4.8657682520e-06 1.3731072612e+00 -2.3782915406e+00 1.3731072612e+00 2.3782915406e+00 
40800 6.8210158853e+00 4.9907726999e-06 1.3731072612e+00 -2.3782915406e+00 1.3731072612e+00 2.3782915406e+00 
40900 6.8210107503e+00 5.1190129608e-06 1.3731072612e+00 -2.3782915406e+00 1.3731072612e+00 2.3782915406e+00 
41000 6.8210054829e+00 5.2505732687e-06 1.3731072612e+00 -2.3782915406e+00 1.3731072612e+00 2.3782915406e+00 
41100 6.8210000796e+00 5.3855400446e-06 1.3731072612e+00 -2.3782915406e+00 1.3731072612e+00 2.3782915406e+00 
41200 6.8209945369e+00 5.5240019527e-06 1.3731072612e+00 -2.3782915406e+00 1.3731072612e+00 2.3782915406e+00 
41300 6.8209888512e+00 5.6660499563e-06 1.3731072612e+00 -2.3782915406e+00 1.3731072612e+00 2.3782915406e+00 
41400 6.8209830187e+00 5.8117773763e-06 1.3731072612e+00 -2.3782915406e+00 1.3731072612e+00 2.3782915406e+00 
41500 6.8209770356e+00 5.9612799501e-06 1.3731072612e+00 -2.3782915406e+00 1.3731072612e+00 2.3782915406e+00 
41600 6.8209708979e+00 6.1146558925e-06 1.3731072612e+00 -2.3782915406e+00 1.3731072612e+00 2.3782915406e+00 
41700 6.8209646015e+00 6.2720059576e-06 1.3731072612e+00 -2.3782915406e+00 1.3731072612e+00 2.3782915406e+00 
41800 6.8209581424e+00 6.4334335021e-06 1.3731072612e+00 -2.3782915406e+00 1.3731072612e+00 2.3782915406e+00 
41900 6.8209515162e+00 6.5990445500e-06 1.3731072612e+00 -2.3782915406e+00 1.3731072612e+00 2.3782915406e+00 
42000 6.8209447185e+00 6.7689478591e-06 1.3731072612e+00 -2.3782915406e+00 1.3731072612e+00 2.3782915406e+00 
42100 6.8209377448e+00 6.9432549882e-06 1.3731072612e+00 -2.3782915406e+00 1.3731072612e+00 2.3782915406e+00 
42200 6.8209305905e+00 7.1220803667e-06 1.3731072612e+00 -2.3782915406e+00 1.3731072612e+00 2.3782915406e+00 
42300 6.8209232509e+00 7.3055413646e-06 1.3731072612e+00 -2.3782915406e+00 1.3731072612e+00 2.3782915406e+00 
42400 6.8209157210e+00 7.4937583647e-06 1.3731072612e+00 -2.3782915406e+00 1.3731072612e+00 2.3782915406e+00 
42500 6.8209079959e+00 7.6868548366e-06 1.3731072612e+00 -2.3782915406e+00 1.3731072612e+00 2.3782915406e+00 
42600 6.8209000704e+00 7.8849574108e-06 1.3731072612e+00 -2.3782915406e+00 1.3731072612e+00 2.3782915406e+00 
42700 6.8208919392e+00 8.0881959563e-06 1.3731072612e+00 -2.3782915406e+00 1.3731072612e+00 2.3782915406e+00 
42800 6.8208835969e+00 8.2967036578e-06 1.3731072612e+00 -2.3782915406e+00 1.3731072612e+00 2.3782915406e+00 
42900 6.8208750379e+00 8.5106170957e-06 1.3731072612e+00 -2.3782915406e+00 1.3731072612e+00 2.3782915406e+00 
43000 6.8208662565e+00 8.7300763276e-06 1.3731072612e+00 -2.3782915406e+00 1.3731072612e+00 2.3782915406e+00 
43100 6.8208572468e+00 8.9552249702e-06 1.3731072612e+00 -2.3782915406e+00 1.3731072612e+00 2.3782915406e+00 
43200 6.8208480027e+00 9.1862102843e-06 1.3731072612e+00 -2.3782915406e+00 1.3731072612e+00 2.3782915406e+00 
43300 6.8208385181e+00 9.4231832601e-06 1.3731072612e+00 -2.3782915406e+00 1.3731072612e+00 2.3782915406e+00 
43400 6.8208287866e+00 9.6662987049e-06 1.3731072612e+00 -2.3782915406e+00 1.3731072612e+00 2.3782915406e+00 
43500 6.8208188017e+00 9.9157153317e-06 1.3731072612e+00 -2.3782915406e+00 1.3731072612e+00 2.3782915406e+00 
43600 6.8208085565e+00 1.0171595850e-05 1.3731072612e+00 -2.3782915406e+00 1.3731072612e+00 2.3782915406e+00 
43700 6.8207980443e+00 1.0434107057e-05 1.3731072612e+00 -2.3782915406e+00 1.3731072612e+00 2.3782915406e+00 
43800 6.8207872579e+00 1.0703419931e-05 1.3731072612e+00 -2.3782915406e+00 1.3731072612e+00 2.3782915406e+00 
43900 6.8207761900e+00 1.0979709728e-05 1.3731072612e+00 -2.3782915406e+00 1.3731072612e+00 2.3782915406e+00 
44000 6.8207648332e+00 1.1263156076e-05 1.3731072612e+00 -2.3782915406e+00 1.3731072612e+00 2.3782915406e+00 
44100 6.8207531797e+00 1.1553943073e-05 1.3731072612e+00 -2.3782915406e+00 1.3731072612e+00 2.3782915406e+00 
44200 6.8207412217e+00 1.1852259387e-05 1.3731072612e+00 -2.3782915406e+00 1.3731072612e+00 2.3782915406e+00 
44300 6.8207289510e+00 1.2158298357e-05 1.3731072612e+00 -2.3782915406e+00 1.3731072612e+00 2.3782915406e+00 
44400 6.8207163593e+00 1.2472258091e-05 1.3731072612e+00 -2.3782915406e+00 1.3731072612e+00 2.3782915406e+00 
44500 6.8207034380e+00 1.2794341576e-05 1.3731072612e+00 -2.3782915406e+00 1.3731072612e+00 2.3782915406e+00 
44600 6.8206901783e+00 1.3124756774e-05 1.3731072612e+00 -2.3782915406e+00 1.3731072612e+00 2.3782915406e+00 
44700 6.8206765713e+00 1.3463716733e-05 1.3731072612e+00 -2.3782915406e+00 1.3731072612e+00 2.3782915406e+00 
44800 6.8206626075e+00 1.3811439692e-05 1.3731072612e+00 -2.3782915406e+00 1.3731072612e+00 2.3782915406e+00 
44900 6.8206482774e+00 1.4168149188e-05 1.3731072612e+00 -2.3782915406e+00 1.3731072612e+00 2.3782915406e+00 
45000 6.8206335713e+00 1.4534074162e-05 1.3731072612e+00 -2.3782915406e+00 1.3731072612e+00 2.3782915406e+00 
45100 6.8206184791e+00 1.4909449073e-05 1.3731072612e+00 -2.3782915406e+00 1.3731072612e+00 2.3782915406e+00 
45200 6.8206029903e+00 1.5294514003e-05 1.3731072612e+00 -2.3782915406e+00 1.3731072612e+00 2.3782915406e+00 
45300 6.8205870944e+00 1.5689514768e-05 1.3731072612e+00 -2.3782915406e+00 1.3731072612e+00 2.3782915406e+00 
45400 6.8205707804e+00 1.6094703031e-05 1.3731072612e+00 -2.3782915406e+00 1.3731072612e+00 2.3782915406e+00 
45500 6.8205540371e+00 1.6510336409e-05 1.3731072612e+00 -2.3782915406e+00 1.3731072612e+00 2.3782915406e+00 
45600 6.8205368529e+00 1.6936678588e-05 1.3731072612e+00 -2.3782915406e+00 1.3731072612e+00 2.3782915406e+00 
45700 6.8205192159e+00 1.7373999429e-05 1.3731072612e+00 -2.3782915406e+00 1.3731072612e+00 2.3782915406e+00 
45800 6.8205011140e+00 1.7822575084e-05 1.3731072612e+00 -2.3782915406e+00 1.3731072612e+00 2.3782915406e+00 
45900 6.8204825346e+00 1.8282688101e-05 1.3731072612e+00 -2.3782915406e+00 1.3731072612e+00 2.3782915406e+00 
46000 6.8204634648e+00 1.8754627536e-05 1.3731072612e+00 -2.3782915406e+00 1.3731072612e+00 2.3782915406e+00 
46100 6.8204438914e+00 1.9238689059e-05 1.3731072612e+00 -2.3782915406e+00 1.3731072612e+00 2.3782915406e+00 
46200 6.8204238007e+00 1.9735175066e-05 1.3731072612e+00 -2.3782915406e+00 1.3731072612e+00 2.3782915406e+00 
46300 6.8204031788e+00 2.0244394778e-05 1.3731072612e+00 -2.3782915406e+00 1.3731072612e+00 2.3782915406e+00 
46400 6.8203820112e+00 2.0766664350e-05 1.3731072612e+00 -2.3782915406e+00 1.3731072612e+00 2.3782915406e+00 
46500 6.8203602833e+00 2.1302306969e-05 1.3731072612e+00 -2.3782915406e+00 1.3731072612e+00 2.3782915406e+00 
46600 6.8203379797e+00 2.1851652958e-05 1.3731072612e+00 -2.3782915406e+00 1.3731072612e+00 2.3782915406e+00 
46700 6.8203150849e+00 2.2415039864e-05 1.3731072612e+00 -2.3782915406e+00 1.3731072612e+00 2.3782915406e+00 
46800 6.8202915827e+00 2.2992812562e-05 1.3731072612e+00 -2.3782915406e+00 1.3731072612e+00 2.3782915406e+00 
46900 6.8202674568e+00 2.3585323332e-05 1.3731072612e+00 -2.3782915406e+00 1.3731072612e+00 2.3782915406e+00 
47000 6.8202426900e+00 2.4192931955e-05 1.3731072612e+00 -2.3782915406e+00 1.3731072612e+00 2.3782915406e+00 
47100 6.8202172650e+00 2.4816005784e-05 1.3731072612e+00 -2.3782915406e+00 1.3731072612e+00 2.3782915406e+00 
47200 6.8201911638e+00 2.5454919827e-05 1.3731072612e+00 -2.3782915406e+00 1.3731072612e+00 2.3782915406e+00 
47300 6.8201643680e+00 2.6110056809e-05 1.3731072612e+00 -2.3782915406e+00 1.3731072612e+00 2.3782915406e+00 
47400 6.8201368585e+00 2.6781807238e-05 1.3731072612e+00 -2.3782915406e+00 1.3731072612e+00 2.3782915406e+00 
47500 6.8201086158e+00 2.7470569461e-05 1.3731072612e+00 -2.3782915406e+00 1.3731072612e+00 2.3782915406e+00 
47600 6.8200796200e+00 2.8176749708e-05 1.3731072612e+00 -2.3782915406e+00 1.3731072612e+00 2.3782915406e+00 
47700 6.8200498503e+00 2.8900762132e-05 1.3731072612e+00 -2.3782915406e+00 1.3731072612e+00 2.3782915406e+00 
47800 6.8200192857e+00 2.9643028840e-05 1.3731072612e+00 -2.3782915406e+00 1.3731072612e+00 2.3782915406e+00 
47900 6.8199879041e+00 3.0403979908e-05 1.3731072612e+00 -2.3782915406e+00 1.3731072612e+00 2.3782915406e+00 
48000 6.8199556833e+00 3.1184053389e-05 1.3731072612e+00 -2.3782915406e+00 1.3731072612e+00 2.3782915406e+00 
48100 6.8199226002e+00 3.1983695308e-05 1.3731072612e+00 -2.3782915406e+00 1.3731072612e+00 2.3782915406e+00 
48200 6.8198886309e+00 3.2803359645e-05 1.3731072612e+00 -2.3782915406e+00 1.3731072612e+00 2.3782915406e+00 
48300 6.8198537512e+00 3.3643508295e-05 1.3731072612e+00 -2.3782915406e+00 1.3731072612e+00 2.3782915406e+00 
48400 6.8198179359e+00 3.4504611025e-05 1.3731072612e+00 -2.3782915406e+00 1.3731072612e+00 2.3782915406e+00 
48500 6.8197811593e+00 3.5387145402e-05 1.3731072612e+00 -2.3782915406e+00 1.3731072612e+00 2.3782915406e+00 
48600 6.8197433947e+00 3.6291596710e-05 1.3731072612e+00 -2.3782915406e+00 1.3731072612e+00 2.3782915406e+00 
48700 6.8197046149e+00 3.7218457841e-05 1.3731072612e+00 -2.3782915406e+00 1.3731072612e+00 2.3782915406e+00 
48800 6.8196647917e+00 3.8168229171e-05 1.3731072612e+00 -2.3782915406e+00 1.3731072612e+00 2.3782915406e+00 
48900 6.8196238964e+00 3.9141418403e-05 1.3731072612e+00 -2.3782915406e+00 1.3731072612e+00 2.3782915406e+00 
49000 6.8195818990e+00 4.0138540394e-05 1.3731072612e+00 -2.3782915406e+00 1.3731072612e+00 2.3782915406e+00 
49100 6.8195387692e+00 4.1160116947e-05 1.3731072612e+00 -2.3782915406e+00 1.3731072612e+00 2.3782915406e+00 
49200 6.8194944753e+00 4.2206676581e-05 1.3731072612e+00 -2.3782915406e+00 1.3731072612e+00 2.3782915406e+00 
49300 6.8194489851e+00 4.3278754260e-05 1.3731072612e+00 -2.3782915406e+00 1.3731072612e+00 2.3782915406e+00 
49400 6.8194022653e+00 4.4376891095e-05 1.3731072612e+00 -2.3782915406e+00 1.3731072612e+00 2.3782915406e+00 
49500 6.8193542815e+00 4.5501634010e-05 1.3731072612e+00 -2.3782915406e+00 1.3731072612e+00 2.3782915406e+00 
49600 6.8193049986e+00 4.6653535361e-05 1.3731072612e+00 -2.3782915406e+00 1.3731072612e+00 2.3782915406e+00 
49700 6.8192543803e+00 4.7833152519e-05 1.3731072612e+00 -2.3782915406e+00 1.3731072612e+00 2.3782915406e+00 
49800 6.8192023892e+00 4.9041047411e-05 1.3731072612e+00 -2.3782915406e+00 1.3731072612e+00 2.3782915406e+00 
49900 6.8191489870e+00 5.0277786000e-05 1.3731072612e+00 -2.3782915406e+00 1.3731072612e+00 2.3782915406e+00 
50000 6.8190941342e+00 5.1543937726e-05 1.3731072612e+00 -2.3782915406e+00 1.3731072612e+00 2.3782915406e+00 
50100 6.8190377901e+00 5.2840074886e-05 1.3731072612e+00 -2.3782915406e+00 1.3731072612e+00 2.3782915406e+00 
50200 6.8189799128e+00 5.4166771953e-05 1.3731072612e+00 -2.3782915406e+00 1.3731072612e+00 2.3782915406e+00 
50300 6.8189204593e+00 5.5524604836e-05 1.3731072612e+00 -2.3782915406e+00 1.3731072612e+00 2.3782915406e+00 
50400 6.8188593853e+00 5.6914150064e-05 1.3731072612e+00 -2.3782915406e+00 1.3731072612e+00 2.3782915406e+00 
50500 6.8187966451e+00 5.8335983910e-05 1.3731072612e+00 -2.3782915406e+00 1.3731072612e+00 2.3782915406e+00 
50600 6.8187321919e+00 5.9790681421e-05 1.3731072612e+00 -2.3782915406e+00 1.3731072612e+00 2.3782915406e+00 
50700 6.8186659773e+00 6.1278815383e-05 1.3731072612e+00 -2.3782915406e+00 1.3731072612e+00 2.3782915406e+00 
50800 6.8185979517e+00 6.2800955181e-05 1.3731072612e+00 -2.3782915406e+00 1.3731072612e+00 2.3782915406e+00 
50900 6.8185280637e+00 6.4357665576e-05 1.3731072612e+00 -2.3782915406e+00 1.3731072612e+00 2.3782915406e+00 
51000 6.8184562608e+00 6.5949505378e-05 1.3731072612e+00 -2.3782915406e+00 1.3731072612e+00 2.3782915406e+00 
51100 6.8183824888e+00 6.7577026007e-05 1.3731072612e+00 -2.3782915406e+00 1.3731072612e+00 2.3782915406e+00 
51200 6.8183066917e+00 6.9240769946e-05 1.3731072612e+00 -2.3782915406e+00 1.3731072612e+00 2.3782915406e+00 
51300 6.8182288122e+00 7.0941269070e-05 1.3731072612e+00 -2.3782915406e+00 1.3731072612e+00 2.3782915406e+00 
51400 6.8181487907e+00 7.2647884424e-05 1.3731046779e+00 -2.3782870663e+00 1.3731046779e+00 2.3782870663e+00 
51500 6.8180665668e+00 7.4389667279e-05 1.3731020326e+00 -2.3782824844e+00 1.3731020326e+00 2.3782824844e+00 
51600 6.8179820776e+00 7.6166968499e-05 1.3730993237e+00 -2.3782777926e+00 1.3730993237e+00 2.3782777926e+00 
51700 6.8178952586e+00 7.7980111298e-05 1.3730965502e+00 -2.3782729886e+00 1.3730965502e+00 2.3782729886e+00 
51800 6.8178060434e+00 7.9829388578e-05 1.3730937106e+00 -2.3782680704e+00 1.3730937106e+00 2.3782680704e+00 
51900 6.8177143636e+00 8.1715060053e-05 1.3730908037e+00 -2.3782630354e+00 1.3730908037e+00 2.3782630354e+00 
52000 6.8176201487e+00 8.3637349164e-05 1.3730878281e+00 -2.3782578816e+00 1.3730878281e+00 2.3782578816e+00 
52100 6.8175233261e+00 8.5596439765e-05 1.3730847825e+00 -2.3782526065e+00 1.3730847825e+00 2.3782526065e+00 
52200 6.8174238213e+00 8.7592472579e-05 1.3730816656e+00 -2.3782472078e+00 1.3730816656e+00 2.3782472078e+00 
52300 6.8173215573e+00 8.9625541397e-05 1.3730784760e+00 -2.3782416832e+00 1.3730784760e+00 2.3782416832e+00 
52400 6.8172164550e+00 9.1695689022e-05 1.3730752123e+00 -2.3782360303e+00 1.3730752123e+00 2.3782360303e+00 
52500 6.8171084327e+00 9.3802902928e-05 1.3730718732e+00 -2.3782302469e+00 1.3730718732e+00 2.3782302469e+00 
52600 6.8169974066e+00 9.5947110635e-05 1.3730684574e+00 -2.3782243305e+00 1.3730684574e+00 2.3782243305e+00 
52700 6.8168832902e+00 9.8128174767e-05 1.3730649635e+00 -2.3782182789e+00 1.3730649635e+00 2.3782182789e+00 
52800 6.8167659944e+00 1.0034588779e-04 1.3730613902e+00 -2.3782120898e+00 1.3730613902e+00 2.3782120898e+00 
52900 6.8166454276e+00 1.0259996641e-04 1.3730577361e+00 -2.3782057607e+00 1.3730577361e+00 2.3782057607e+00 
53000 6.8165214954e+00 1.0489004560e-04 1.3730539999e+00 -2.3781992894e+00 1.3730539999e+00 2.3781992894e+00 
53100 6.8163941005e+00 1.0721567223e-04 1.3730501804e+00 -2.3781926737e+00 1.3730501804e+00 2.3781926737e+00 
53200 6.8162631427e+00 1.0957629837e-04 1.3730462761e+00 -2.3781859113e+00 1.3730462761e+00 2.3781859113e+00 
53300 6.8161285189e+00 1.1197127403e-04 1.3730422858e+00 -2.3781790000e+00 1.3730422858e+00 2.3781790000e+00 
53400 6.8159901230e+00 1.1439983961e-04 1.3730382083e+00 -2.3781719375e+00 1.3730382083e+00 2.3781719375e+00 
53500 6.8158478454e+00 1.1686111772e-04 1.3730340424e+00 -2.3781647219e+00 1.3730340424e+00 2.3781647219e+00 
53600 6.8157015736e+00 1.1935410465e-04 1.3730297868e+00 -2.3781573511e+00 1.3730297868e+00 2.3781573511e+00 
53700 6.8155511915e+00 1.2187766120e-04 1.3730254404e+00 -2.3781498229e+00 1.3730254404e+00 2.3781498229e+00 
53800 6.8153965795e+00 1.2443050299e-04 1.3730210021e+00 -2.3781421356e+00 1.3730210021e+00 2.3781421356e+00 
53900 6.8152376146e+00 1.2701119024e-04 1.3730164709e+00 -2.3781342872e+00 1.3730164709e+00 2.3781342872e+00 
54000 6.8150741700e+00 1.2961811683e-04 1.3730118456e+00 -2.3781262760e+00 1.3730118456e+00 2.3781262760e+00 
54100 6.8149061150e+00 1.3224949881e-04 1.3730071254e+00 -2.3781181004e+00 1.3730071254e+00 2.3781181004e+00 
54200 6.8147333152e+00 1.3490336217e-04 1.3730023094e+00 -2.3781097587e+00 1.3730023094e+00 2.3781097587e+00 
54300 6.8145556320e+00 1.3757752994e-04 1.3729973967e+00 -2.3781012497e+00 1.3729973967e+00 2.3781012497e+00 
54400 6.8143729228e+00 1.4026960844e-04 1.3729923865e+00 -2.3780925719e+00 1.3729923865e+00 2.3780925719e+00 
54500 6.8141850405e+00 1.4297697286e-04 1.3729872784e+00 -2.3780837243e+00 1.3729872784e+00 2.3780837243e+00 
54600 6.8139918337e+00 1.4569675195e-04 1.3729820716e+00 -2.3780747059e+00 1.3729820716e+00 2.3780747059e+00 
54700 6.8137931466e+00 1.4842581178e-04 1.3729767657e+00 -2.3780655159e+00 1.3729767657e+00 2.3780655159e+00 
54800 6.8135888186e+00 1.5116073867e-04 1.3729713605e+00 -2.3780561537e+00 1.3729713605e+00 2.3780561537e+00 
54900 6.8133786842e+00 1.5389782112e-04 1.3729658556e+00 -2.3780466190e+00 1.3729658556e+00 2.3780466190e+00 
55000 6.8131625730e+00 1.5663303071e-04 1.3729602510e+00 -2.3780369116e+00 1.3729602510e+00 2.3780369116e+00 
55100 6.8129403097e+00 1.5936200193e-04 1.3729545468e+00 -2.3780270316e+00 1.3729545468e+00 2.3780270316e+00 
55200 6.8127117134e+00 1.6208001097e-04 1.3729487432e+00 -2.3780169795e+00 1.3729487432e+00 2.3780169795e+00 
55300 6.8124765981e+00 1.6478195324e-04 1.3729428406e+00 -2.3780067558e+00 1.3729428406e+00 2.3780067558e+00 
55400 6.8122347720e+00 1.6746231974e-04 1.3729368396e+00 -2.3779963617e+00 1.3729368396e+00 2.3779963617e+00 
55500 6.8119860377e+00 1.7011517215e-04 1.3729307409e+00 -2.3779857985e+00 1.3729307409e+00 2.3779857985e+00 
55600 6.8117301920e+00 1.7273411656e-04 1.3729245456e+00 -2.3779750679e+00 1.3729245456e+00 2.3779750679e+00 
55700 6.8114670253e+00 1.7531227580e-04 1.3729182548e+00 -2.3779641720e+00 1.3729182548e+00 2.3779641720e+00 
55800 6.8111963222e+00 1.7784226036e-04 1.3729118702e+00 -2.3779531135e+00 1.3729118702e+00 2.3779531135e+00 
55900 6.8109178605e+00 1.8031613772e-04 1.3729053934e+00 -2.3779418953e+00 1.3729053934e+00 2.3779418953e+00 
56000 6.8106314115e+00 1.8272540018e-04 1.3728988264e+00 -2.3779305210e+00 1.3728988264e+00 2.3779305210e+00 
56100 6.8103367400e+00 1.8506093099e-04 1.3728921717e+00 -2.3779189947e+00 1.3728921717e+00 2.3779189947e+00 
56200 6.8100336033e+00 1.8731296876e-04 1.3728854319e+00 -2.3779073210e+00 1.3728854319e+00 2.3779073210e+00 
56300 6.8097217520e+00 1.8947107009e-04 1.3728786100e+00 -2.3778955051e+00 1.3728786100e+00 2.3778955051e+00 
56400 6.8094009291e+00 1.9152407037e-04 1.3728717095e+00 -2.3778835531e+00 1.3728717095e+00 2.3778835531e+00 
56500 6.8090708700e+00 1.9346004266e-04 1.3728647342e+00 -2.3778714715e+00 1.3728647342e+00 2.3778714715e+00 
56600 6.8087313024e+00 1.9526625452e-04 1.3728576884e+00 -2.3778592678e+00 1.3728576884e+00 2.3778592678e+00 
56700 6.8083819458e+00 1.9692912280e-04 1.3728505767e+00 -2.3778469500e+00 1.3728505767e+00 2.3778469500e+00 
56800 6.8080225119e+00 1.9843416638e-04 1.3728434044e+00 -2.3778345273e+00 1.3728434044e+00 2.3778345273e+00 
56900 6.8076527035e+00 1.9976595654e-04 1.3728361773e+00 -2.3778220096e+00 1.3728361773e+00 2.3778220096e+00 
57000 6.8072722151e+00 2.0090806519e-04 1.3728289016e+00 -2.3778094077e+00 1.3728289016e+00 2.3778094077e+00 
57100 6.8068807320e+00 2.0184301073e-04 1.3728215843e+00 -2.3777967338e+00 1.3728215843e+00 2.3777967338e+00 
57200 6.8064779306e+00 2.0255220142e-04 1.3728142330e+00 -2.3777840008e+00 1.3728142330e+00 2.3777840008e+00 
57300 6.8060634779e+00 2.0301587639e-04 1.3728068557e+00 -2.3777712231e+00 1.3728068557e+00 2.3777712231e+00 
57400 6.8056370312e+00 2.0321304403e-04 1.3727994615e+00 -2.3777584160e+00 1.3727994615e+00 2.3777584160e+00 
57500 6.8051982382e+00 2.0312141785e-04 1.3727920601e+00 -2.3777455964e+00 1.3727920601e+00 2.3777455964e+00 
57600 6.8047467363e+00 2.0271734961e-04 1.3727846620e+00 -2.3777327825e+00 1.3727846620e+00 2.3777327825e+00 
57700 6.8042821526e+00 2.0197575985e-04 1.3727772786e+00 -2.3777199940e+00 1.3727772786e+00 2.3777199940e+00 
57800 6.8038041037e+00 2.0087006564e-04 1.3727699221e+00 -2.3777072522e+00 1.3727699221e+00 2.3777072522e+00 
57900 6.8033121954e+00 1.9937210551e-04 1.3727626059e+00 -2.3776945802e+00 1.3727626059e+00 2.3776945802e+00 
58000 6.8028060225e+00 1.9745206167e-04 1.3727553442e+00 -2.3776820025e+00 1.3727553442e+00 2.3776820025e+00 
58100 6.8022851682e+00 1.9507837939e-04 1.3727481524e+00 -2.3776695459e+00 1.3727481524e+00 2.3776695459e+00 
58200 6.8017492045e+00 1.9221768348e-04 1.3727410470e+00 -2.3776572390e+00 1.3727410470e+00 2.3776572390e+00 
58300 6.8011976912e+00 1.8883469203e-04 1.3727340458e+00 -2.3776451125e+00 1.3727340458e+00 2.3776451125e+00 
58400 6.8006301764e+00 1.8489212738e-04 1.3727271677e+00 -2.3776331994e+00 1.3727271677e+00 2.3776331994e+00 
58500 6.8000461955e+00 1.8035062417e-04 1.3727204332e+00 -2.3776215350e+00 1.3727204332e+00 2.3776215350e+00 
58600 6.7994452716e+00 1.7516863488e-04 1.3727138642e+00 -2.3776101570e+00 1.3727138642e+00 2.3776101570e+00 
58700 6.7988269149e+00 1.6930233254e-04 1.3727074838e+00 -2.3775991058e+00 1.3727074838e+00 2.3775991058e+00 
58800 6.7981906225e+00 1.6270551097e-04 1.3727013171e+00 -2.3775884248e+00 1.3727013171e+00 2.3775884248e+00 
58900 6.7975358782e+00 1.5532948258e-04 1.3726953906e+00 -2.3775781598e+00 1.3726953906e+00 2.3775781598e+00 
59000 6.7968621524e+00 1.4712297381e-04 1.3726897328e+00 -2.3775683602e+00 1.3726897328e+00 2.3775683602e+00 
59100 6.7961689017e+00 1.3803201846e-04 1.3726843738e+00 -2.3775590782e+00 1.3726843738e+00 2.3775590782e+00 
59200 6.7954555685e+00 1.2799984907e-04 1.3726793460e+00 -2.3775503698e+00 1.3726793460e+00 2.3775503698e+00 
59300 6.7947215813e+00 1.1696678654e-04 1.3726746836e+00 -2.3775422943e+00 1.3726746836e+00 2.3775422943e+00 
59400 6.7939663540e+00 1.0487012830e-04 1.3726704231e+00 -2.3775349148e+00 1.3726704231e+00 2.3775349148e+00 
59500 6.7931892862e+00 9.1644035354e-05 1.3726666032e+00 -2.3775282985e+00 1.3726666032e+00 2.3775282985e+00 
59600 6.7923897626e+00 7.7219418427e-05 1.3726632650e+00 -2.3775225166e+00 1.3726632650e+00 2.3775225166e+00 
59700 6.7915671528e+00 6.1523823741e-05 1.3726604522e+00 -2.3775176448e+00 1.3726604522e+00 2.3775176448e+00 
59800 6.7907208118e+00 4.4727125043e-05 1.3726604522e+00 -2.3775176448e+00 1.3726604522e+00 2.3775176448e+00 
59900 6.7898500788e+00 2.6449079974e-05 1.3726604522e+00 -2.3775176448e+00 1.3726604522e+00 2.3775176448e+00 
60000 6.7889542781e+00 6.5947593141e-06 1.3726604522e+00 -2.3775176448e+00 1.3726604522e+00 2.3775176448e+00 
60100 6.7880327187e+00 -1.4935884930e-05 1.3726604522e+00 -2.3775176448e+00 1.3726604522e+00 2.3775176448e+00 
60200 6.7870846941e+00 -3.8248253203e-05 1.3726604522e+00 -2.3775176448e+00 1.3726604522e+00 2.3775176448e+00 
60300 6.7861094824e+00 -6.3453338306e-05 1.3726604522e+00 -2.3775176448e+00 1.3726604522e+00 2.3775176448e+00 
60400 6.7851063463e+00 -9.0667971342e-05 1.3726604522e+00 -2.3775176448e+00 1.3726604522e+00 2.3775176448e+00 
60500 6.7840745322e+00 -1.1957961696e-04 1.3726637549e+00 -2.3775233651e+00 1.3726637549e+00 2.3775233651e+00 
60600 6.7830132719e+00 -1.5058401967e-04 1.3726681106e+00 -2.3775309095e+00 1.3726681106e+00 2.3775309095e+00 
60700 6.7819217819e+00 -1.8379329061e-04 1.3726735957e+00 -2.3775404100e+00 1.3726735957e+00 2.3775404100e+00 
60800 6.7807992631e+00 -2.1932402674e-04 1.3726802904e+00 -2.3775520056e+00 1.3726802904e+00 2.3775520056e+00 
60900 6.7796449016e+00 -2.5729738009e-04 1.3726882793e+00 -2.3775658428e+00 1.3726882793e+00 2.3775658428e+00 
61000 6.7784578687e+00 -2.9783911708e-04 1.3726976514e+00 -2.3775820756e+00 1.3726976514e+00 2.3775820756e+00 
61100 6.7772373211e+00 -3.4107966639e-04 1.3727085001e+00 -2.3776008661e+00 1.3727085001e+00 2.3776008661e+00 
61200 6.7759824013e+00 -3.8715415421e-04 1.3727209237e+00 -2.3776223844e+00 1.3727209237e+00 2.3776223844e+00 
61300 6.7746922378e+00 -4.3620242527e-04 1.3727350254e+00 -2.3776468093e+00 1.3727350254e+00 2.3776468093e+00 
61400 6.7733659460e+00 -4.8836904810e-04 1.3727509135e+00 -2.3776743284e+00 1.3727509135e+00 2.3776743284e+00 
61500 6.7720026279e+00 -5.4380330289e-04 1.3727687015e+00 -2.3777051381e+00 1.3727687015e+00 2.3777051381e+00 
61600 6.7706013734e+00 -6.0265915027e-04 1.3727885084e+00 -2.3777394446e+00 1.3727885084e+00 2.3777394446e+00 
61700 6.7691612606e+00 -6.6509517925e-04 1.3728104586e+00 -2.3777774635e+00 1.3728104586e+00 2.3777774635e+00 
61800 6.7676813564e+00 -7.3127453231e-04 1.3728346825e+00 -2.3778194206e+00 1.3728346825e+00 2.3778194206e+00 
61900 6.7661607175e+00 -8.0136480605e-04 1.3728613164e+00 -2.3778655517e+00 1.3728613164e+00 2.3778655517e+00 
62000 6.7645983911e+00 -8.7553792512e-04 1.3728905024e+00 -2.3779161034e+00 1.3728905024e+00 2.3779161034e+00 
62100 6.7629934158e+00 -9.5396998771e-04 1.3729223892e+00 -2.3779713329e+00 1.3729223892e+00 2.3779713329e+00 
62200 6.7613448228e+00 -1.0368410804e-03 1.3729571317e+00 -2.3780315086e+00 1.3729571317e+00 2.3780315086e+00 
62300 6.7596516369e+00 -1.1243350607e-03 1.3729948912e+00 -2.3780969102e+00 1.3729948912e+00 2.3780969102e+00 
62400 6.7579128776e+00 -1.2166393044e-03 1.3730358361e+00 -2.3781678287e+00 1.3730358361e+00 2.3781678287e+00 
62500 6.7561275608e+00 -1.3139444173e-03 1.3730801410e+00 -2.3782445671e+00 1.3730801410e+00 2.3782445671e+00 
62600 6.7542946997e+00 -1.4164439078e-03 1.3731279879e+00 -2.3783274403e+00 1.3731279879e+00 2.3783274403e+00 
62700 6.7524133066e+00 -1.5243338190e-03 1.3731795655e+00 -2.3784167754e+00 1.3731795655e+00 2.3784167754e+00 
62800 6.7504823946e+00 -1.6378123195e-03 1.3732350697e+00 -2.3785129114e+00 1.3732350697e+00 2.3785129114e+00 
62900 6.7485009792e+00 -1.7570792497e-03 1.3732947035e+00 -2.3786162002e+00 1.3732947035e+00 2.3786162002e+00 
63000 6.7464680802e+00 -1.8823356231e-03 1.3733586771e+00 -2.3787270057e+00 1.3733586771e+00 2.3787270057e+00 
63100 6.7443827236e+00 -2.0137830812e-03 1.3734272080e+00 -2.3788457048e+00 1.3734272080e+00 2.3788457048e+00 
63200 6.7422439439e+00 -2.1516233008e-03 1.3735005210e+00 -2.3789726866e+00 1.3735005210e+00 2.3789726866e+00 
63300 6.7400507859e+00 -2.2960573526e-03 1.3735788480e+00 -2.3791083530e+00 1.3735788480e+00 2.3791083530e+00 
63400 6.7378023076e+00 -2.4472850110e-03 1.3736624283e+00 -2.3792531182e+00 1.3736624283e+00 2.3792531182e+00 
63500 6.7354975821e+00 -2.6055040147e-03 1.3737515081e+00 -2.3794074089e+00 1.3737515081e+00 2.3794074089e+00 
63600 6.7331357005e+00 -2.7709092787e-03 1.3738463409e+00 -2.3795716642e+00 1.3738463409e+00 2.3795716642e+00 
63700 6.7307157747e+00 -2.9436920573e-03 1.3739471870e+00 -2.3797463349e+00 1.3739471870e+00 2.3797463349e+00 
63800 6.7282369397e+00 -3.1240390599e-03 1.3740543138e+00 -2.3799318839e+00 1.3740543138e+00 2.3799318839e+00 
63900 6.7256983570e+00 -3.3121315218e-03 1.3741679950e+00 -2.3801287854e+00 1.3741679950e+00 2.3801287854e+00 
64000 6.7230992176e+00 -3.5081442298e-03 1.3742885108e+00 -2.3803375250e+00 1.3742885108e+00 2.3803375250e+00 
64100 6.7204387447e+00 -3.7122445082e-03 1.3744161477e+00 -2.3805585986e+00 1.3744161477e+00 2.3805585986e+00 
64200 6.7177161975e+00 -3.9245911662e-03 1.3745511980e+00 -2.3807925125e+00 1.3745511980e+00 2.3807925125e+00 
64300 6.7149308742e+00 -4.1453334109e-03 1.3746939594e+00 -2.3810397826e+00 1.3746939594e+00 2.3810397826e+00 
64400 6.7120821156e+00 -4.3746097322e-03 1.3748447352e+00 -2.3813009338e+00 1.3748447352e+00 2.3813009338e+00 
64500 6.7091693085e+00 -4.6125467617e-03 1.3750038329e+00 -2.3815764992e+00 1.3750038329e+00 2.3815764992e+00 
64600 6.7061918892e+00 -4.8592581143e-03 1.3751715648e+00 -2.3818670194e+00 1.3751715648e+00 2.3818670194e+00 
64700 6.7031493474e+00 -5.1148432180e-03 1.3753482469e+00 -2.3821730417e+00 1.3753482469e+00 2.3821730417e+00 
64800 6.7000412296e+00 -5.3793861379e-03 1.3755341982e+00 -2.3824951189e+00 1.3755341982e+00 2.3824951189e+00 
64900 6.6968671429e+00 -5.6529544046e-03 1.3757297410e+00 -2.3828338088e+00 1.3757297410e+00 2.3828338088e+00 
65000 6.6936267587e+00 -5.9355978538e-03 1.3759351990e+00 -2.3831896726e+00 1.3759351990e+00 2.3831896726e+00 
65100 6.6903198167e+00 -6.2273474866e-03 1.3761508979e+00 -2.3835632740e+00 1.3761508979e+00 2.3835632740e+00 
65200 6.6869461283e+00 -6.5282143607e-03 1.3763771637e+00 -2.3839551779e+00 1.3763771637e+00 2.3839551779e+00 
65300 6.6835055801e+00 -6.8381885219e-03 1.3766143226e+00 -2.3843659491e+00 1.3766143226e+00 2.3843659491e+00 
65400 6.6799981383e+00 -7.1572379868e-03 1.3768626998e+00 -2.3847961512e+00 1.3768626998e+00 2.3847961512e+00 
65500 6.6764238513e+00 -7.4853077881e-03 1.3771226191e+00 -2.3852463446e+00 1.3771226191e+00 2.3852463446e+00 
65600 6.6727828539e+00 -7.8223190921e-03 1.3773944015e+00 -2.3857170855e+00 1.3773944015e+00 2.3857170855e+00 
65700 6.6690753704e+00 -8.1681684016e-03 1.3776783648e+00 -2.3862089243e+00 1.3776783648e+00 2.3862089243e+00 
65800 6.6653017176e+00 -8.5227268538e-03 1.3779748223e+00 -2.3867224037e+00 1.3779748223e+00 2.3867224037e+00 
65900 6.6614623081e+00 -8.8858396247e-03 1.3782840821e+00 -2.3872580575e+00 1.3782840821e+00 2.3872580575e+00 
66000 6.6575576533e+00 -9.2573254514e-03 1.3786064462e+00 -2.3878164084e+00 1.3786064462e+00 2.3878164084e+00 
66100 6.6535883657e+00 -9.6369762815e-03 1.3789422092e+00 -2.3883979670e+00 1.3789422092e+00 2.3883979670e+00 
66200 6.6495551615e+00 -1.0024557060e-02 1.3792916576e+00 -2.3890032294e+00 1.3792916576e+00 2.3890032294e+00 
66300 6.6454588627e+00 -1.0419805663e-02 1.3796550687e+00 -2.3896326759e+00 1.3796550687e+00 2.3896326759e+00 
66400 6.6413003993e+00 -1.0822432984e-02 1.3800327095e+00 -2.3902867689e+00 1.3800327095e+00 2.3902867689e+00 
66500 6.6370808104e+00 -1.1232123184e-02 1.3804248359e+00 -2.3909659518e+00 1.3804248359e+00 2.3909659518e+00 
66600 6.6328012459e+00 -1.1648534105e-02 1.3808316916e+00 -2.3916706466e+00 1.3808316916e+00 2.3916706466e+00 
66700 6.6284629670e+00 -1.2071297860e-02 1.3812535072e+00 -2.3924012526e+00 1.3812535072e+00 2.3924012526e+00 
66800 6.6240673472e+00 -1.2500021589e-02 1.3816904992e+00 -2.3931581449e+00 1.3816904992e+00 2.3931581449e+00 
66900 6.6196158723e+00 -1.2934288397e-02 1.3821428691e+00 -2.3939416725e+00 1.3821428691e+00 2.3939416725e+00 
67000 6.6151101397e+00 -1.3373658466e-02 1.3826108025e+00 -2.3947521571e+00 1.3826108025e+00 2.3947521571e+00 
67100 6.6105518588e+00 -1.3817670331e-02 1.3830944686e+00 -2.3955898912e+00 1.3830944686e+00 2.3955898912e+00 
67200 6.6059428488e+00 -1.4265842338e-02 1.3835940188e+00 -2.3964551375e+00 1.3835940188e+00 2.3964551375e+00 
67300 6.6012850380e+00 -1.4717674247e-02 1.3841095865e+00 -2.3973481270e+00 1.3841095865e+00 2.3973481270e+00 
67400 6.5965804614e+00 -1.5172649003e-02 1.3846412863e+00 -2.3982690581e+00 1.3846412863e+00 2.3982690581e+00 
67500 6.5918312585e+00 -1.5630234644e-02 1.3851892134e+00 -2.3992180956e+00 1.3851892134e+00 2.3992180956e+00 
67600 6.5870396705e+00 -1.6089886339e-02 1.3857534430e+00 -2.4001953700e+00 1.3857534430e+00 2.4001953700e+00 
67700 6.5822080368e+00 -1.6551048548e-02 1.3863340300e+00 -2.4012009762e+00 1.3863340300e+00 2.4012009762e+00 
67800 6.5773387915e+00 -1.7013157285e-02 1.3869310086e+00 -2.4022349735e+00 1.3869310086e+00 2.4022349735e+00 
67900 6.5724344588e+00 -1.7475642468e-02 1.3875443921e+00 -2.4032973848e+00 1.3875443921e+00 2.4032973848e+00 
68000 6.5674976491e+00 -1.7937930334e-02 1.3881741724e+00 -2.4043881964e+00 1.3881741724e+00 2.4043881964e+00 
68100 6.5625310531e+00 -1.8399445911e-02 1.3888203205e+00 -2.4055073577e+00 1.3888203205e+00 2.4055073577e+00 
68200 6.5575374372e+00 -1.8859615512e-02 1.3894827859e+00 -2.4066547814e+00 1.3894827859e+00 2.4066547814e+00 
68300 6.5525196373e+00 -1.9317869248e-02 1.3901614970e+00 -2.4078303436e+00 1.3901614970e+00 2.4078303436e+00 
68400 6.5474805525e+00 -1.9773643522e-02 1.3908563616e+00 -2.4090338842e+00 1.3908563616e+00 2.4090338842e+00 
68500 6.5424231391e+00 -2.0226383494e-02 1.3915672663e+00 -2.4102652073e+00 1.3915672663e+00 2.4102652073e+00 
68600 6.5373504034e+00 -2.0675545496e-02 1.3922940778e+00 -2.4115240819e+00 1.3922940778e+00 2.4115240819e+00 
68700 6.5322653950e+00 -2.1120599374e-02 1.3930366430e+00 -2.4128102425e+00 1.3930366430e+00 2.4128102425e+00 
68800 6.5271711994e+00 -2.1561030727e-02 1.3937947894e+00 -2.4141233905e+00 1.3937947894e+00 2.4141233905e+00 
68900 6.5220709304e+00 -2.1996343053e-02 1.3945683259e+00 -2.4154631951e+00 1.3945683259e+00 2.4154631951e+00 
69000 6.5169677227e+00 -2.2426059751e-02 1.3953570436e+00 -2.4168292943e+00 1.3953570436e+00 2.4168292943e+00 
69100 6.5118647241e+00 -2.2849725981e-02 1.3961607165e+00 -2.4182212965e+00 1.3961607165e+00 2.4182212965e+00 
69200 6.5067650876e+00 -2.3266910374e-02 1.3969791021e+00 -2.4196387819e+00 1.3969791021e+00 2.4196387819e+00 
69300 6.5016719638e+00 -2.3677206557e-02 1.3978119428e+00 -2.4210813043e+00 1.3978119428e+00 2.4210813043e+00 
69400 6.4965884925e+00 -2.4080234499e-02 1.3986589664e+00 -2.4225483923e+00 1.3986589664e+00 2.4225483923e+00 
69500 6.4915177955e+00 -2.4475641674e-02 1.3995198876e+00 -2.4240395516e+00 1.3995198876e+00 2.4240395516e+00 
69600 6.4864629685e+00 -2.4863104012e-02 1.4003944086e+00 -2.4255542663e+00 1.4003944086e+00 2.4255542663e+00 
69700 6.4814270735e+00 -2.5242326651e-02 1.4012822202e+00 -2.4270920012e+00 1.4012822202e+00 2.4270920012e+00 
69800 6.4764131312e+00 -2.5613044493e-02 1.4021830034e+00 -2.4286522034e+00 1.4021830034e+00 2.4286522034e+00 
69900 6.4714241144e+00 -2.5975022539e-02 1.4030964299e+00 -2.4302343046e+00 1.4030964299e+00 2.4302343046e+00 
70000 6.4664629398e+00 -2.6328056029e-02 1.4040221638e+00 -2.4318377226e+00 1.4040221638e+00 2.4318377226e+00 
70100 6.4615324623e+00 -2.6671970383e-02 1.4049598621e+00 -2.4334618637e+00 1.4049598621e+00 2.4334618637e+00 
70200 6.4566354680e+00 -2.7006620941e-02 1.4059091764e+00 -2.4351061244e+00 1.4059091764e+00 2.4351061244e+00 
70300 6.4517746680e+00 -2.7331892522e-02 1.4068697539e+00 -2.4367698934e+00 1.4068697539e+00 2.4367698934e+00 
70400 6.4469526926e+00 -2.7647698805e-02 1.4078412382e+00 -2.4384525535e+00 1.4078412382e+00 2.4384525535e+00 
70500 6.4421720860e+00 -2.7953981536e-02 1.4088232704e+00 -2.4401534833e+00 1.4088232704e+00 2.4401534833e+00 
70600 6.4374353013e+00 -2.8250709592e-02 1.4098154907e+00 -2.4418720592e+00 1.4098154907e+00 2.4418720592e+00 
70700 6.4327446956e+00 -2.8537877892e-02 1.4108175386e+00 -2.4436076571e+00 1.4108175386e+00 2.4436076571e+00 
70800 6.4281025257e+00 -2.8815506186e-02 1.4118290544e+00 -2.4453596539e+00 1.4118290544e+00 2.4453596539e+00 
70900 6.4235109448e+00 -2.9083637728e-02 1.4128496799e+00 -2.4471274291e+00 1.4128496799e+00 2.4471274291e+00 
71000 6.4189719986e+00 -2.9342337851e-02 1.4138790593e+00 -2.4489103665e+00 1.4138790593e+00 2.4489103665e+00 
71100 6.4144876229e+00 -2.9591692459e-02 1.4149168399e+00 -2.4507078552e+00 1.4149168399e+00 2.4507078552e+00 
71200 6.4100596408e+00 -2.9831806452e-02 1.4159626729e+00 -2.4525192911e+00 1.4159626729e+00 2.4525192911e+00 
71300 6.4056897608e+00 -3.0062802095e-02 1.4170162142e+00 -2.4543440781e+00 1.4170162142e+00 2.4543440781e+00 
71400 6.4013795753e+00 -3.0284817355e-02 1.4180771248e+00 -2.4561816291e+00 1.4180771248e+00 2.4561816291e+00 
71500 6.3971305594e+00 -3.0498004208e-02 1.4191450715e+00 -2.4580313671e+00 1.4191450715e+00 2.4580313671e+00 
71600 6.3929440707e+00 -3.0702526948e-02 1.4202197273e+00 -2.4598927255e+00 1.4202197273e+00 2.4598927255e+00 
71700 6.3888213482e+00 -3.0898560487e-02 1.4213007719e+00 -2.4617651498e+00 1.4213007719e+00 2.4617651498e+00 
71800 6.3847635134e+00 -3.1086288682e-02 1.4223878921e+00 -2.4636480972e+00 1.4223878921e+00 2.4636480972e+00 
71900 6.3807715701e+00 -3.1265902693e-02 1.4234807820e+00 -2.4655410380e+00 1.4234807820e+00 2.4655410380e+00 
72000 6.3768464060e+00 -3.1437599366e-02 1.4245791431e+00 -2.4674434553e+00 1.4245791431e+00 2.4674434553e+00 
72100 6.3729887935e+00 -3.1601579689e-02 1.4256826850e+00 -2.4693548459e+00 1.4256826850e+00 2.4693548459e+00 
72200 6.3691993916e+00 -3.1758047282e-02 1.4267911249e+00 -2.4712747201e+00 1.4267911249e+00 2.4712747201e+00 
72300 6.3654787481e+00 -3.1907206972e-02 1.4279041880e+00 -2.4732026020e+00 1.4279041880e+00 2.4732026020e+00 
72400 6.3618273013e+00 -3.2049263432e-02 1.4290216077e+00 -2.4751380297e+00 1.4290216077e+00 2.4751380297e+00 
72500 6.3582453832e+00 -3.2184419900e-02 1.4301431251e+00 -2.4770805548e+00 1.4301431251e+00 2.4770805548e+00 
72600 6.3547332218e+00 -3.2312876983e-02 1.4312684893e+00 -2.4790297427e+00 1.4312684893e+00 2.4790297427e+00 
72700 6.3512909447e+00 -3.2434831547e-02 1.4323974571e+00 -2.4809851723e+00 1.4323974571e+00 2.4809851723e+00 
72800 6.3479185817e+00 -3.2550475696e-02 1.4335297930e+00 -2.4829464356e+00 1.4335297930e+00 2.4829464356e+00 
72900 6.3446160689e+00 -3.2659995843e-02 1.4346652688e+00 -2.4849131374e+00 1.4346652688e+00 2.4849131374e+00 
73000 6.3413832520e+00 -3.2763571876e-02 1.4358036637e+00 -2.4868848952e+00 1.4358036637e+00 2.4868848952e+00 
73100 6.3382198901e+00 -3.2861376408e-02 1.4369447635e+00 -2.4888613381e+00 1.4369447635e+00 2.4888613381e+00 
73200 6.3351256594e+00 -3.2953574132e-02 1.4380883611e+00 -2.4908421072e+00 1.4380883611e+00 2.4908421072e+00 
73300 6.3321001579e+00 -3.3040321256e-02 1.4392342555e+00 -2.4928268545e+00 1.4392342555e+00 2.4928268545e+00 
73400 6.3291429083e+00 -3.3121765027e-02 1.4403822517e+00 -2.4948152422e+00 1.4403822517e+00 2.4948152422e+00 
73500 6.3262533632e+00 -3.3198043351e-02 1.4415321606e+00 -2.4968069429e+00 1.4415321606e+00 2.4968069429e+00 
73600 6.3234309087e+00 -3.3269284484e-02 1.4426837984e+00 -2.4988016382e+00 1.4426837984e+00 2.4988016382e+00 
73700 6.3206748686e+00 -3.3335606811e-02 1.4438369864e+00 -2.5007990183e+00 1.4438369864e+00 2.5007990183e+00 
73800 6.3179845089e+00 -3.3397118701e-02 1.4449915505e+00 -2.5027987819e+00 1.4449915505e+00 2.5027987819e+00 
73900 6.3153590413e+00 -3.3453918429e-02 1.4461473208e+00 -2.5048006348e+00 1.4461473208e+00 2.5048006348e+00 
74000 6.3127976282e+00 -3.3506094174e-02 1.4473041315e+00 -2.5068042898e+00 1.4473041315e+00 2.5068042898e+00 
74100 6.3102993861e+00 -3.3553724075e-02 1.4484618203e+00 -2.5088094657e+00 1.4484618203e+00 2.5088094657e+00 
74200 6.3078633897e+00 -3.3596876349e-02 1.4496202282e+00 -2.5108158870e+00 1.4496202282e+00 2.5108158870e+00 
74300 6.3054886762e+00 -3.3635609467e-02 1.4507791990e+00 -2.5128232832e+00 1.4507791990e+00 2.5128232832e+00 
74400 6.3031742488e+00 -3.3669972374e-02 1.4519385789e+00 -2.5148313882e+00 1.4519385789e+00 2.5148313882e+00 
74500 6.3009190807e+00 -3.3700004762e-02 1.4530982165e+00 -2.5168399393e+00 1.4530982165e+00 2.5168399393e+00 
74600 6.2987221186e+00 -3.3725737381e-02 1.4542579620e+00 -2.5188486775e+00 1.4542579620e+00 2.5188486775e+00 
74700 6.2965822864e+00 -3.3747192388e-02 1.4554176674e+00 -2.5208573461e+00 1.4554176674e+00 2.5208573461e+00 
74800 6.2944984884e+00 -3.3764383730e-02 1.4565771857e+00 -2.5228656908e+00 1.4565771857e+00 2.5228656908e+00 
74900 6.2924696127e+00 -3.3777317553e-02 1.4577363710e+00 -2.5248734587e+00 1.4577363710e+00 2.5248734587e+00 
75000 6.2904945348e+00 -3.3785992640e-02 1.4588950781e+00 -2.5268803982e+00 1.4588950781e+00 2.5268803982e+00 
75100 6.2885721197e+00 -3.3790400867e-02 1.4600531620e+00 -2.5288862583e+00 1.4600531620e+00 2.5288862583e+00 
75200 6.2867012259e+00 -3.3790527679e-02 1.4612104781e+00 -2.5308907886e+00 1.4612104781e+00 2.5308907886e+00 
75300 6.2848807071e+00 -3.3786352573e-02 1.4623668817e+00 -2.5328937384e+00 1.4623668817e+00 2.5328937384e+00 
75400 6.2831094157e+00 -3.3777849603e-02 1.4635222278e+00 -2.5348948565e+00 1.4635222278e+00 2.5348948565e+00 
75500 6.2813862048e+00 -3.3764987879e-02 1.4646763710e+00 -2.5368938912e+00 1.4646763710e+00 2.5368938912e+00 
75600 6.2797099305e+00 -3.3747732084e-02 1.4658291654e+00 -2.5388905896e+00 1.4658291654e+00 2.5388905896e+00 
75700 6.2780794543e+00 -3.3726042979e-02 1.4669804641e+00 -2.5408846975e+00 1.4669804641e+00 2.5408846975e+00 
75800 6.2764936451e+00 -3.3699877918e-02 1.4681301196e+00 -2.5428759593e+00 1.4681301196e+00 2.5428759593e+00 
75900 6.2749513809e+00 -3.3669191354e-02 1.4692779833e+00 -2.5448641176e+00 1.4692779833e+00 2.5448641176e+00 
76000 6.2734515507e+00 -3.3633935343e-02 1.4704239055e+00 -2.5468489130e+00 1.4704239055e+00 2.5468489130e+00 
76100 6.2719930563e+00 -3.3594060034e-02 1.4715677352e+00 -2.5488300842e+00 1.4715677352e+00 2.5488300842e+00 
76200 6.2705748132e+00 -3.3549514160e-02 1.4727093205e+00 -2.5508073678e+00 1.4727093205e+00 2.5508073678e+00 
76300 6.2691957528e+00 -3.3500245509e-02 1.4738485078e+00 -2.5527804981e+00 1.4738485078e+00 2.5527804981e+00 
76400 6.2678548229e+00 -3.3446201387e-02 1.4749851425e+00 -2.5547492072e+00 1.4749851425e+00 2.5547492072e+00 
76500 6.2665509890e+00 -3.3387329068e-02 1.4761190686e+00 -2.5567132248e+00 1.4761190686e+00 2.5567132248e+00 
76600 6.2652832355e+00 -3.3323576228e-02 1.4772501287e+00 -2.5586722785e+00 1.4772501287e+00 2.5586722785e+00 
76700 6.2640505663e+00 -3.3254891359e-02 1.4783781643e+00 -2.5606260934e+00 1.4783781643e+00 2.5606260934e+00 
76800 6.2628520057e+00 -3.3181224178e-02 1.4795030153e+00 -2.5625743925e+00 1.4795030153e+00 2.5625743925e+00 
76900 6.2616865990e+00 -3.3102526004e-02 1.4806245207e+00 -2.5645168969e+00 1.4806245207e+00 2.5645168969e+00 
77000 6.2605534131e+00 -3.3018750130e-02 1.4817425182e+00 -2.5664533252e+00 1.4817425182e+00 2.5664533252e+00 
77100 6.2594515366e+00 -3.2929852168e-02 1.4828568442e+00 -2.5683833945e+00 1.4828568442e+00 2.5683833945e+00 
77200 6.2583800806e+00 -3.2835790377e-02 1.4839673344e+00 -2.5703068199e+00 1.4839673344e+00 2.5703068199e+00 
77300 6.2573381791e+00 -3.2736525977e-02 1.4850738233e+00 -2.5722233149e+00 1.4850738233e+00 2.5722233149e+00 
77400 6.2563249883e+00 -3.2632023433e-02 1.4861761446e+00 -2.5741325915e+00 1.4861761446e+00 2.5741325915e+00 
77500 6.2553396876e+00 -3.2522250734e-02 1.4872741315e+00 -2.5760343606e+00 1.4872741315e+00 2.5760343606e+00 
77600 6.2543814794e+00 -3.2407179636e-02 1.4883676163e+00 -2.5779283318e+00 1.4883676163e+00 2.5779283318e+00 
77700 6.2534495888e+00 -3.2286785900e-02 1.4894564309e+00 -2.5798142139e+00 1.4894564309e+00 2.5798142139e+00 
77800 6.2525432637e+00 -3.2161049500e-02 1.4905404068e+00 -2.5816917153e+00 1.4905404068e+00 2.5816917153e+00 
77900 6.2516617747e+00 -3.2029954822e-02 1.4916193754e+00 -2.5835605438e+00 1.4916193754e+00 2.5835605438e+00 
78000 6.2508044146e+00 -3.1893490828e-02 1.4926931680e+00 -2.5854204070e+00 1.4926931680e+00 2.5854204070e+00 
78100 6.2499704986e+00 -3.1751651223e-02 1.4937616157e+00 -2.5872710128e+00 1.4937616157e+00 2.5872710128e+00 
78200 6.2491593636e+00 -3.1604434581e-02 1.4948245501e+00 -2.5891120692e+00 1.4948245501e+00 2.5891120692e+00 
78300 6.2483703680e+00 -3.1451844469e-02 1.4958818032e+00 -2.5909432853e+00 1.4958818032e+00 2.5909432853e+00 
78400 6.2476028913e+00 -3.1293889546e-02 1.4969332073e+00 -2.5927643706e+00 1.4969332073e+00 2.5927643706e+00 
78500 6.2468563336e+00 -3.1130583646e-02 1.4979785956e+00 -2.5945750363e+00 1.4979785956e+00 2.5945750363e+00 
78600 6.2461301154e+00 -3.0961945843e-02 1.4990178021e+00 -2.5963749946e+00 1.4990178021e+00 2.5963749946e+00 
78700 6.2454236769e+00 -3.0788000502e-02 1.5000506617e+00 -2.5981639599e+00 1.5000506617e+00 2.5981639599e+00 
78800 6.2447364775e+00 -3.0608777309e-02 1.5010770106e+00 -2.5999416485e+00 1.5010770106e+00 2.5999416485e+00 
78900 6.2440679954e+00 -3.0424311294e-02 1.5020966865e+00 -2.6017077789e+00 1.5020966865e+00 2.6017077789e+00 
79000 6.2434177270e+00 -3.0234642826e-02 1.5031095283e+00 -2.6034620724e+00 1.5031095283e+00 2.6034620724e+00 
79100 6.2427851865e+00 -3.0039817608e-02 1.5041153769e+00 -2.6052042533e+00 1.5041153769e+00 2.6052042533e+00 
79200 6.2421699051e+00 -2.9839886649e-02 1.5051140749e+00 -2.6069340489e+00 1.5051140749e+00 2.6069340489e+00 
79300 6.2415714305e+00 -2.9634906219e-02 1.5061054669e+00 -2.6086511902e+00 1.5061054669e+00 2.6086511902e+00 
79400 6.2409893266e+00 -2.9424937807e-02 1.5070893996e+00 -2.6103554117e+00 1.5070893996e+00 2.6103554117e+00 
79500 6.2404231727e+00 -2.9210048046e-02 1.5080657224e+00 -2.6120464523e+00 1.5080657224e+00 2.6120464523e+00 
79600 6.2398725628e+00 -2.8990308643e-02 1.5090342867e+00 -2.6137240548e+00 1.5090342867e+00 2.6137240548e+00 
79700 6.2393371053e+00 -2.8765796289e-02 1.5099949468e+00 -2.6153879670e+00 1.5099949468e+00 2.6153879670e+00 
79800 6.2388164224e+00 -2.8536592561e-02 1.5109475599e+00 -2.6170379413e+00 1.5109475599e+00 2.6170379413e+00 
79900 6.2383101493e+00 -2.8302783816e-02 1.5118919859e+00 -2.6186737351e+00 1.5118919859e+00 2.6186737351e+00 
80000 6.2378179342e+00 -2.8064461067e-02 1.5128280879e+00 -2.6202951113e+00 1.5128280879e+00 2.6202951113e+00 
80100 6.2373394369e+00 -2.7821719864e-02 1.5137557322e+00 -2.6219018384e+00 1.5137557322e+00 2.6219018384e+00 
80200 6.2368743290e+00 -2.7574660155e-02 1.5146747884e+00 -2.6234936905e+00 1.5146747884e+00 2.6234936905e+00 
80300 6.2364222932e+00 -2.7323386143e-02 1.5155851297e+00 -2.6250704479e+00 1.5155851297e+00 2.6250704479e+00 
80400 6.2359830226e+00 -2.7068006138e-02 1.5164866328e+00 -2.6266318970e+00 1.5164866328e+00 2.6266318970e+00 
80500 6.2355562202e+00 -2.6808632399e-02 1.5173791781e+00 -2.6281778308e+00 1.5173791781e+00 2.6281778308e+00 
80600 6.2351415988e+00 -2.6545380974e-02 1.5182626498e+00 -2.6297080487e+00 1.5182626498e+00 2.6297080487e+00 
80700 6.2347388801e+00 -2.6278371527e-02 1.5191369362e+00 -2.6312223571e+00 1.5191369362e+00 2.6312223571e+00 
80800 6.2343477942e+00 -2.6007727171e-02 1.5200019294e+00 -2.6327205694e+00 1.5200019294e+00 2.6327205694e+00 
80900 6.2339680798e+00 -2.5733574285e-02 1.5208575259e+00 -2.6342025059e+00 1.5208575259e+00 2.6342025059e+00 
81000 6.2335994828e+00 -2.5456042336e-02 1.5217036261e+00 -2.6356679946e+00 1.5217036261e+00 2.6356679946e+00 
81100 6.2332417569e+00 -2.5175263693e-02 1.5225401351e+00 -2.6371168705e+00 1.5225401351e+00 2.6371168705e+00 
81200 6.2328946624e+00 -2.4891373437e-02 1.5233669619e+00 -2.6385489766e+00 1.5233669619e+00 2.6385489766e+00 
81300 6.2325579662e+00 -2.4604509172e-02 1.5241840204e+00 -2.6399641633e+00 1.5241840204e+00 2.6399641633e+00 
81400 6.2322314415e+00 -2.4314810835e-02 1.5249912287e+00 -2.6413622891e+00 1.5249912287e+00 2.6413622891e+00 
81500 6.2319148671e+00 -2.4022420496e-02 1.5257885096e+00 -2.6427432202e+00 1.5257885096e+00 2.6427432202e+00 
81600 6.2316080274e+00 -2.3727482167e-02 1.5265757905e+00 -2.6441068308e+00 1.5265757905e+00 2.6441068308e+00 
81700 6.2313107121e+00 -2.3430141604e-02 1.5273530036e+00 -2.6454530034e+00 1.5273530036e+00 2.6454530034e+00 
81800 6.2310227156e+00 -2.3130546112e-02 1.5281200857e+00 -2.6467816285e+00 1.5281200857e+00 2.6467816285e+00 
81900 6.2307438370e+00 -2.2828844347e-02 1.5288769783e+00 -2.6480926049e+00 1.5288769783e+00 2.6480926049e+00 
82000 6.2304738797e+00 -2.2525186120e-02 1.5296236277e+00 -2.6493858396e+00 1.5296236277e+00 2.6493858396e+00 
82100 6.2302126511e+00 -2.2219722207e-02 1.5303599850e+00 -2.6506612479e+00 1.5303599850e+00 2.6506612479e+00 
82200 6.2299599626e+00 -2.1912604146e-02 1.5310860063e+00 -2.6519187537e+00 1.5310860063e+00 2.6519187537e+00 
82300 6.2297156291e+00 -2.1603984053e-02 1.5318016523e+00 -2.6531582888e+00 1.5318016523e+00 2.6531582888e+00 
82400 6.2294794689e+00 -2.1294014430e-02 1.5325068885e+00 -2.6543797938e+00 1.5325068885e+00 2.6543797938e+00 
82500 6.2292513037e+00 -2.0982847974e-02 1.5332016855e+00 -2.6555832175e+00 1.5332016855e+00 2.6555832175e+00 
82600 6.2290309581e+00 -2.0670637392e-02 1.5338860184e+00 -2.6567685169e+00 1.5338860184e+00 2.6567685169e+00 
82700 6.2288182595e+00 -2.0357535224e-02 1.5345598674e+00 -2.6579356575e+00 1.5345598674e+00 2.6579356575e+00 
82800 6.2286130381e+00 -2.0043693655e-02 1.5352232172e+00 -2.6590846132e+00 1.5352232172e+00 2.6590846132e+00 
82900 6.2284151269e+00 -1.9729264345e-02 1.5358760576e+00 -2.6602153658e+00 1.5358760576e+00 2.6602153658e+00 
83000 6.2282243609e+00 -1.9414398254e-02 1.5365183828e+00 -2.6613279058e+00 1.5365183828e+00 2.6613279058e+00 
83100 6.2280405778e+00 -1.9099245473e-02 1.5371501920e+00 -2.6624222314e+00 1.5371501920e+00 2.6624222314e+00 
83200 6.2278636174e+00 -1.8783955060e-02 1.5377714888e+00 -2.6634983491e+00 1.5377714888e+00 2.6634983491e+00 
83300 6.2276933217e+00 -1.8468674879e-02 1.5383822817e+00 -2.6645562734e+00 1.5383822817e+00 2.6645562734e+00 
83400 6.2275295346e+00 -1.8153551445e-02 1.5389825836e+00 -2.6655960267e+00 1.5389825836e+00 2.6655960267e+00 
83500 6.2273721021e+00 -1.7838729771e-02 1.5395724119e+00 -2.6666176394e+00 1.5395724119e+00 2.6666176394e+00 
83600 6.2272208720e+00 -1.7524353222e-02 1.5401517886e+00 -2.6676211493e+00 1.5401517886e+00 2.6676211493e+00 
83700 6.2270756941e+00 -1.7210563376e-02 1.5407207401e+00 -2.6686066021e+00 1.5407207401e+00 2.6686066021e+00 
83800 6.2269364198e+00 -1.6897499881e-02 1.5412792969e+00 -2.6695740510e+00 1.5412792969e+00 2.6695740510e+00 
83900 6.2268029024e+00 -1.6585300329e-02 1.5418274942e+00 -2.6705235564e+00 1.5418274942e+00 2.6705235564e+00 
84000 6.2266749967e+00 -1.6274100130e-02 1.5423653710e+00 -2.6714551863e+00 1.5423653710e+00 2.6714551863e+00 
84100 6.2265525595e+00 -1.5964032386e-02 1.5428929706e+00 -2.6723690157e+00 1.5428929706e+00 2.6723690157e+00 
84200 6.2264354490e+00 -1.5655227781e-02 1.5434103404e+00 -2.6732651265e+00 1.5434103404e+00 2.6732651265e+00 
84300 6.2263235251e+00 -1.5347814469e-02 1.5439175316e+00 -2.6741436075e+00 1.5439175316e+00 2.6741436075e+00 
84400 6.2262166493e+00 -1.5041917968e-02 1.5444145996e+00 -2.6750045544e+00 1.5444145996e+00 2.6750045544e+00 
84500 6.2261146848e+00 -1.4737661067e-02 1.5449016031e+00 -2.6758480693e+00 1.5449016031e+00 2.6758480693e+00 
84600 6.2260174964e+00 -1.4435163725e-02 1.5453786050e+00 -2.6766742608e+00 1.5453786050e+00 2.6766742608e+00 
84700 6.2259249503e+00 -1.4134542989e-02 1.5458456715e+00 -2.6774832436e+00 1.5458456715e+00 2.6774832436e+00 
84800 6.2258369147e+00 -1.3835912915e-02 1.5463028723e+00 -2.6782751388e+00 1.5463028723e+00 2.6782751388e+00 
84900 6.2257532590e+00 -1.3539384482e-02 1.5467502808e+00 -2.6790500730e+00 1.5467502808e+00 2.6790500730e+00 
85000 6.2256738545e+00 -1.3245065534e-02 1.5471879734e+00 -2.6798081788e+00 1.5471879734e+00 2.6798081788e+00 
85100 6.2255985742e+00 -1.2953060706e-02 1.5476160298e+00 -2.6805495943e+00 1.5476160298e+00 2.6805495943e+00 
85200 6.2255272925e+00 -1.2663471370e-02 1.5480345330e+00 -2.6812744631e+00 1.5480345330e+00 2.6812744631e+00 
85300 6.2254598857e+00 -1.2376395580e-02 1.5484435688e+00 -2.6819829337e+00 1.5484435688e+00 2.6819829337e+00 
85400 6.2253962317e+00 -1.2091928024e-02 1.5488432258e+00 -2.6826751601e+00 1.5488432258e+00 2.6826751601e+00 
85500 6.2253362102e+00 -1.1810159982e-02 1.5492335957e+00 -2.6833513006e+00 1.5492335957e+00 2.6833513006e+00 
85600 6.2252797024e+00 -1.1531179291e-02 1.5496147727e+00 -2.6840115185e+00 1.5496147727e+00 2.6840115185e+00 
85700 6.2252265915e+00 -1.1255070310e-02 1.5499868536e+00 -2.6846559815e+00 1.5499868536e+00 2.6846559815e+00 
85800 6.2251767625e+00 -1.0981913895e-02 1.5503499376e+00 -2.6852848615e+00 1.5503499376e+00 2.6852848615e+00 
85900 6.2251301021e+00 -1.0711787379e-02 1.5507041264e+00 -2.6858983345e+00 1.5507041264e+00 2.6858983345e+00 
86000 6.2250864988e+00 -1.0444764555e-02 1.5510495239e+00 -2.6864965804e+00 1.5510495239e+00 2.6864965804e+00 
86100 6.2250458430e+00 -1.0180915665e-02 1.5513862360e+00 -2.6870797829e+00 1.5513862360e+00 2.6870797829e+00 
86200 6.2250080270e+00 -9.9203073939e-03 1.5517143707e+00 -2.6876481289e+00 1.5517143707e+00 2.6876481289e+00 
86300 6.2249729449e+00 -9.6630028686e-03 1.5520340380e+00 -2.6882018090e+00 1.5520340380e+00 2.6882018090e+00 
86400 6.2249404929e+00 -9.4090616606e-03 1.5523453497e+00 -2.6887410166e+00 1.5523453497e+00 2.6887410166e+00 
86500 6.2249105689e+00 -9.1585397940e-03 1.5526484191e+00 -2.6892659482e+00 1.5526484191e+00 2.6892659482e+00 
86600 6.2248830730e+00 -8.9114897580e-03 1.5529433613e+00 -2.6897768030e+00 1.5529433613e+00 2.6897768030e+00 
86700 6.2248579071e+00 -8.6679605231e-03 1.5532302927e+00 -2.6902737828e+00 1.5532302927e+00 2.6902737828e+00 
86800 6.2248349752e+00 -8.4279975618e-03 1.5535093311e+00 -2.6907570916e+00 1.5535093311e+00 2.6907570916e+00 
86900 6.2248141832e+00 -8.1916428735e-03 1.5537805958e+00 -2.6912269357e+00 1.5537805958e+00 2.6912269357e+00 
87000 6.2247954391e+00 -7.9589350125e-03 1.5540442068e+00 -2.6916835234e+00 1.5540442068e+00 2.6916835234e+00 
87100 6.2247786530e+00 -7.7299091210e-03 1.5543002856e+00 -2.6921270648e+00 1.5543002856e+00 2.6921270648e+00 
87200 6.2247637368e+00 -7.5045969641e-03 1.5545489542e+00 -2.6925577715e+00 1.5545489542e+00 2.6925577715e+00 
87300 6.2247506049e+00 -7.2830269700e-03 1.5547903358e+00 -2.6929758568e+00 1.5547903358e+00 2.6929758568e+00 
87400 6.2247391733e+00 -7.0652242717e-03 1.5550245542e+00 -2.6933815349e+00 1.5550245542e+00 2.6933815349e+00 
87500 6.2247293604e+00 -6.8512107532e-03 1.5552517338e+00 -2.6937750215e+00 1.5552517338e+00 2.6937750215e+00 
87600 6.2247210865e+00 -6.6410050983e-03 1.5554719995e+00 -2.6941565329e+00 1.5554719995e+00 2.6941565329e+00 
87700 6.2247142740e+00 -6.4346228417e-03 1.5556854767e+00 -2.6945262863e+00 1.5556854767e+00 2.6945262863e+00 
87800 6.2247088475e+00 -6.2320764237e-03 1.5558922912e+00 -2.6948844995e+00 1.5558922912e+00 2.6948844995e+00 
87900 6.2247047336e+00 -6.0333752468e-03 1.5560925689e+00 -2.6952313906e+00 1.5560925689e+00 2.6952313906e+00 
88000 6.2247018610e+00 -5.8385257346e-03 1.5562864359e+00 -2.6955671781e+00 1.5562864359e+00 2.6955671781e+00 
88100 6.2247001604e+00 -5.6475313937e-03 1.5564740184e+00 -2.6958920806e+00 1.5564740184e+00 2.6958920806e+00 
88200 6.2246995646e+00 -5.4603928766e-03 1.5566554426e+00 -2.6962063165e+00 1.5566554426e+00 2.6962063165e+00 
88300 6.2247000087e+00 -5.2771080477e-03 1.5568308345e+00 -2.6965101042e+00 1.5568308345e+00 2.6965101042e+00 
88400 6.2247014294e+00 -5.0976720500e-03 1.5570003200e+00 -2.6968036616e+00 1.5570003200e+00 2.6968036616e+00 
88500 6.2247037658e+00 -4.9220773743e-03 1.5571640246e+00 -2.6970872063e+00 1.5571640246e+00 2.6970872063e+00 
88600 6.2247069588e+00 -4.7503139294e-03 1.5573220735e+00 -2.6973609550e+00 1.5573220735e+00 2.6973609550e+00 
88700 6.2247109515e+00 -4.5823691134e-03 1.5574745914e+00 -2.6976251238e+00 1.5574745914e+00 2.6976251238e+00 
88800 6.2247156889e+00 -4.4182278874e-03 1.5576217027e+00 -2.6978799280e+00 1.5576217027e+00 2.6978799280e+00 
88900 6.2247211179e+00 -4.2578728488e-03 1.5577635309e+00 -2.6981255817e+00 1.5577635309e+00 2.6981255817e+00 
89000 6.2247271874e+00 -4.1012843063e-03 1.5579001991e+00 -2.6983622980e+00 1.5579001991e+00 2.6983622980e+00 
89100 6.2247338483e+00 -3.9484403558e-03 1.5580318296e+00 -2.6985902886e+00 1.5580318296e+00 2.6985902886e+00 
89200 6.2247410533e+00 -3.7993169565e-03 1.5581585437e+00 -2.6988097640e+00 1.5581585437e+00 2.6988097640e+00 
89300 6.2247487570e+00 -3.6538880079e-03 1.5582804622e+00 -2.6990209330e+00 1.5582804622e+00 2.6990209330e+00 
89400 6.2247569159e+00 -3.5121254273e-03 1.5583977047e+00 -2.6992240030e+00 1.5583977047e+00 2.6992240030e+00 
89500 6.2247654884e+00 -3.3739992270e-03 1.5585103899e+00 -2.6994191795e+00 1.5585103899e+00 2.6994191795e+00 
89600 6.2247744343e+00 -3.2394775922e-03 1.5586186355e+00 -2.6996066664e+00 1.5586186355e+00 2.6996066664e+00 
89700 6.2247837157e+00 -3.1085269590e-03 1.5587225581e+00 -2.6997866656e+00 1.5587225581e+00 2.6997866656e+00 
89800 6.2247932961e+00 -2.9811120918e-03 1.5588222731e+00 -2.6999593770e+00 1.5588222731e+00 2.6999593770e+00 
89900 6.2248031407e+00 -2.8571961610e-03 1.5589178948e+00 -2.7001249985e+00 1.5589178948e+00 2.7001249985e+00 
90000 6.2248132165e+00 -2.7367408207e-03 1.5590095360e+00 -2.7002837259e+00 1.5590095360e+00 2.7002837259e+00 
90100 6.2248234920e+00 -2.6197062849e-03 1.5590973086e+00 -2.7004357525e+00 1.5590973086e+00 2.7004357525e+00 
90200 6.2248339374e+00 -2.5060514045e-03 1.5591813229e+00 -2.7005812695e+00 1.5591813229e+00 2.7005812695e+00 
90300 6.2248445244e+00 -2.3957337428e-03 1.5592616880e+00 -2.7007204658e+00 1.5592616880e+00 2.7007204658e+00 
90400 6.2248552261e+00 -2.2887096512e-03 1.5593385113e+00 -2.7008535278e+00 1.5593385113e+00 2.7008535278e+00 
90500 6.2248660174e+00 -2.1849343430e-03 1.5594118991e+00 -2.7009806391e+00 1.5594118991e+00 2.7009806391e+00 
90600 6.2248768742e+00 -2.0843619677e-03 1.5594819559e+00 -2.7011019812e+00 1.5594819559e+00 2.7011019812e+00 
90700 6.2248877742e+00 -1.9869456834e-03 1.5595487851e+00 -2.7012177327e+00 1.5595487851e+00 2.7012177327e+00 
90800 6.2248986963e+00 -1.8926377284e-03 1.5596124881e+00 -2.7013280695e+00 1.5596124881e+00 2.7013280695e+00 
90900 6.2249096206e+00 -1.8013894923e-03 1.5596731650e+00 -2.7014331650e+00 1.5596731650e+00 2.7014331650e+00 
91000 6.2249205287e+00 -1.7131515854e-03 1.5597309143e+00 -2.7015331898e+00 1.5597309143e+00 2.7015331898e+00 
91100 6.2249314033e+00 -1.6278739070e-03 1.5597858328e+00 -2.7016283114e+00 1.5597858328e+00 2.7016283114e+00 
91200 6.2249422283e+00 -1.5455057125e-03 1.5598380157e+00 -2.7017186948e+00 1.5598380157e+00 2.7017186948e+00 
91300 6.2249529889e+00 -1.4659956799e-03 1.5598875566e+00 -2.7018045021e+00 1.5598875566e+00 2.7018045021e+00 
91400 6.2249636712e+00 -1.3892919733e-03 1.5599345472e+00 -2.7018858923e+00 1.5599345472e+00 2.7018858923e+00 
91500 6.2249742626e+00 -1.3153423071e-03 1.5599790779e+00 -2.7019630217e+00 1.5599790779e+00 2.7019630217e+00 
91600 6.2249847514e+00 -1.2440940067e-03 1.5600212371e+00 -2.7020360435e+00 1.5600212371e+00 2.7020360435e+00 
91700 6.2249951269e+00 -1.1754940697e-03 1.5600611115e+00 -2.7021051080e+00 1.5600611115e+00 2.7021051080e+00 
91800 6.2250053794e+00 -1.1094892239e-03 1.5600987863e+00 -2.7021703627e+00 1.5600987863e+00 2.7021703627e+00 
91900 6.2250155002e+00 -1.0460259848e-03 1.5601343447e+00 -2.7022319517e+00 1.5601343447e+00 2.7022319517e+00 
92000 6.2250254813e+00 -9.8505071095e-04 1.5601678684e+00 -2.7022900164e+00 1.5601678684e+00 2.7022900164e+00 
92100 6.2250353157e+00 -9.2650965850e-04 1.5601994373e+00 -2.7023446953e+00 1.5601994373e+00 2.7023446953e+00 
92200 6.2250449971e+00 -8.7034903304e-04 1.5602291294e+00 -2.7023961235e+00 1.5602291294e+00 2.7023961235e+00 
92300 6.2250545200e+00 -8.1651504066e-04 1.5602570212e+00 -2.7024444335e+00 1.5602570212e+00 2.7024444335e+00 
92400 6.2250638796e+00 -7.6495393697e-04 1.5602831873e+00 -2.7024897546e+00 1.5602831873e+00 2.7024897546e+00 
92500 6.2250730719e+00 -7.1561207463e-04 1.5603077007e+00 -2.7025322130e+00 1.5603077007e+00 2.7025322130e+00 
92600 6.2250820934e+00 -6.6843594907e-04 1.5603306325e+00 -2.7025719321e+00 1.5603306325e+00 2.7025719321e+00 
92700 6.2250909414e+00 -6.2337224268e-04 1.5603520522e+00 -2.7026090321e+00 1.5603520522e+00 2.7026090321e+00 
92800 6.2250996136e+00 -5.8036786718e-04 1.5603720276e+00 -2.7026436306e+00 1.5603720276e+00 2.7026436306e+00 
92900 6.2251081083e+00 -5.3937000443e-04 1.5603906248e+00 -2.7026758418e+00 1.5603906248e+00 2.7026758418e+00 
93000 6.2251164244e+00 -5.0032614549e-04 1.5604079080e+00 -2.7027057771e+00 1.5604079080e+00 2.7027057771e+00 
93100 6.2251245613e+00 -4.6318412806e-04 1.5604239399e+00 -2.7027335453e+00 1.5604239399e+00 2.7027335453e+00 
93200 6.2251325187e+00 -4.2789217224e-04 1.5604387815e+00 -2.7027592517e+00 1.5604387815e+00 2.7027592517e+00 
93300 6.2251402969e+00 -3.9439891460e-04 1.5604524922e+00 -2.7027829993e+00 1.5604524922e+00 2.7027829993e+00 
93400 6.2251478964e+00 -3.6265344069e-04 1.5604651295e+00 -2.7028048878e+00 1.5604651295e+00 2.7028048878e+00 
93500 6.2251553183e+00 -3.3260531587e-04 1.5604767496e+00 -2.7028250143e+00 1.5604767496e+00 2.7028250143e+00 
93600 6.2251625639e+00 -3.0420461455e-04 1.5604874068e+00 -2.7028434731e+00 1.5604874068e+00 2.7028434731e+00 
93700 6.2251696348e+00 -2.7740194781e-04 1.5604971539e+00 -2.7028603556e+00 1.5604971539e+00 2.7028603556e+00 
93800 6.2251765329e+00 -2.5214848953e-04 1.5605060422e+00 -2.7028757505e+00 1.5605060422e+00 2.7028757505e+00 
93900 6.2251832604e+00 -2.2839600086e-04 1.5605141212e+00 -2.7028897439e+00 1.5605141212e+00 2.7028897439e+00 
94000 6.2251898198e+00 -2.0609685330e-04 1.5605214392e+00 -2.7029024190e+00 1.5605214392e+00 2.7029024190e+00 
94100 6.2251962136e+00 -1.8520405017e-04 1.5605280427e+00 -2.7029138565e+00 1.5605280427e+00 2.7029138565e+00 
94200 6.2252024447e+00 -1.6567124663e-04 1.5605339767e+00 -2.7029241346e+00 1.5605339767e+00 2.7029241346e+00 
94300 6.2252085160e+00 -1.4745276836e-04 1.5605392848e+00 -2.7029333286e+00 1.5605392848e+00 2.7029333286e+00 
94400 6.2252144308e+00 -1.3050362865e-04 1.5605440093e+00 -2.7029415115e+00 1.5605440093e+00 2.7029415115e+00 
94500 6.2252201922e+00 -1.1477954429e-04 1.5605481906e+00 -2.7029487538e+00 1.5605481906e+00 2.7029487538e+00 
94600 6.2252258036e+00 -1.0023694997e-04 1.5605518682e+00 -2.7029551235e+00 1.5605518682e+00 2.7029551235e+00 
94700 6.2252312686e+00 -8.6833011440e-05 1.5605550797e+00 -2.7029606861e+00 1.5605550797e+00 2.7029606861e+00 
94800 6.2252365907e+00 -7.4525637342e-05 1.5605578619e+00 -2.7029655049e+00 1.5605578619e+00 2.7029655049e+00 
94900 6.2252417734e+00 -6.3273489811e-05 1.5605602497e+00 -2.7029696407e+00 1.5605602497e+00 2.7029696407e+00 
95000 6.2252468207e+00 -5.5713907281e-05 1.5605602497e+00 -2.7029696407e+00 1.5605602497e+00 2.7029696407e+00 
95100 6.2252517358e+00 -4.8710950911e-05 1.5605602497e+00 -2.7029696407e+00 1.5605602497e+00 2.7029696407e+00 
95200 6.2252565228e+00 -4.2264550698e-05 1.5605602497e+00 -2.7029696407e+00 1.5605602497e+00 2.7029696407e+00 
95300 6.2252611851e+00 -3.6373961102e-05 1.5605602497e+00 -2.7029696407e+00 1.5605602497e+00 2.7029696407e+00 
95400 6.2252657266e+00 -3.1037795690e-05 1.5605602497e+00 -2.7029696407e+00 1.5605602497e+00 2.7029696407e+00 
95500 6.2252701511e+00 -2.6254060621e-05 1.5605602497e+00 -2.7029696407e+00 1.5605602497e+00 2.7029696407e+00 
95600 6.2252744621e+00 -2.2020186995e-05 1.5605602497e+00 -2.7029696407e+00 1.5605602497e+00 2.7029696407e+00 
95700 6.2252786633e+00 -1.8333062087e-05 1.5605602497e+00 -2.7029696407e+00 1.5605602497e+00 2.7029696407e+00 
95800 6.2252827583e+00 -1.5189059487e-05 1.5605602497e+00 -2.7029696407e+00 1.5605602497e+00 2.7029696407e+00 
95900 6.2252867508e+00 -1.2584068173e-05 1.5605602497e+00 -2.7029696407e+00 1.5605602497e+00 2.7029696407e+00 
96000 6.2252906441e+00 -1.0513520521e-05 1.5605602497e+00 -2.7029696407e+00 1.5605602497e+00 2.7029696407e+00 
96100 6.2252944417e+00 -8.9724193036e-06 1.5605602497e+00 -2.7029696407e+00 1.5605602497e+00 2.7029696407e+00 
96200 6.2252981469e+00 -7.9553636690e-06 1.5605602497e+00 -2.7029696407e+00 1.5605602497e+00 2.7029696407e+00 
96300 6.2253017631e+00 -7.4565741433e-06 1.5605602497e+00 -2.7029696407e+00 1.5605602497e+00 2.7029696407e+00 
96400 6.2253052935e+00 -7.4699166738e-06 1.5605602497e+00 -2.7029696407e+00 1.5605602497e+00 2.7029696407e+00 
96500 6.2253087411e+00 -7.9889257376e-06 1.5605602497e+00 -2.7029696407e+00 1.5605602497e+00 2.7029696407e+00 
96600 6.2253121090e+00 -9.0068265333e-06 1.5605602497e+00 -2.7029696407e+00 1.5605602497e+00 2.7029696407e+00 
96700 6.2253154002e+00 -1.0516556288e-05 1.5605602497e+00 -2.7029696407e+00 1.5605602497e+00 2.7029696407e+00 
96800 6.2253186174e+00 -1.2510784694e-05 1.5605602497e+00 -2.7029696407e+00 1.5605602497e+00 2.7029696407e+00 
96900 6.2253217636e+00 -1.4981933511e-05 1.5605602497e+00 -2.7029696407e+00 1.5605602497e+00 2.7029696407e+00 
97000 6.2253248413e+00 -1.7922195349e-05 1.5605602497e+00 -2.7029696407e+00 1.5605602497e+00 2.7029696407e+00 
97100 6.2253278530e+00 -2.1323551649e-05 1.5605602497e+00 -2.7029696407e+00 1.5605602497e+00 2.7029696407e+00 
97200 6.2253308014e+00 -2.5177789904e-05 1.5605602497e+00 -2.7029696407e+00 1.5605602497e+00 2.7029696407e+00 
97300 6.2253336887e+00 -2.9476520131e-05 1.5605602497e+00 -2.7029696407e+00 1.5605602497e+00 2.7029696407e+00 
97400 6.2253365173e+00 -3.4211190612e-05 1.5605602497e+00 -2.7029696407e+00 1.5605602497e+00 2.7029696407e+00 
97500 6.2253392894e+00 -3.9373102939e-05 1.5605602497e+00 -2.7029696407e+00 1.5605602497e+00 2.7029696407e+00 
97600 6.2253420069e+00 -4.4953426386e-05 1.5605602497e+00 -2.7029696407e+00 1.5605602497e+00 2.7029696407e+00 
97700 6.2253446720e+00 -5.0943211623e-05 1.5605602497e+00 -2.7029696407e+00 1.5605602497e+00 2.7029696407e+00 
97800 6.2253472865e+00 -5.7333403792e-05 1.5605602497e+00 -2.7029696407e+00 1.5605602497e+00 2.7029696407e+00 
97900 6.2253498523e+00 -6.4114854977e-05 1.5605602497e+00 -2.7029696407e+00 1.5605602497e+00 2.7029696407e+00 
98000 6.2253523711e+00 -7.1278336088e-05 1.5605602497e+00 -2.7029696407e+00 1.5605602497e+00 2.7029696407e+00 
98100 6.2253548443e+00 -7.5793163311e-05 1.5605625334e+00 -2.7029735962e+00 1.5605625334e+00 2.7029735962e+00 
98200 6.2253572736e+00 -8.0463133231e-05 1.5605649618e+00 -2.7029778023e+00 1.5605649618e+00 2.7029778023e+00 
98300 6.2253596604e+00 -8.5271008558e-05 1.5605675398e+00 -2.7029822676e+00 1.5605675398e+00 2.7029822676e+00 
98400 6.2253620062e+00 -9.0200219520e-05 1.5605702719e+00 -2.7029869996e+00 1.5605702719e+00 2.7029869996e+00 
98500 6.2253643122e+00 -9.5234849257e-05 1.5605731618e+00 -2.7029920052e+00 1.5605731618e+00 2.7029920052e+00 
98600 6.2253665797e+00 -1.0035961928e-04 1.5605762131e+00 -2.7029972902e+00 1.5605762131e+00 2.7029972902e+00 
98700 6.2253688098e+00 -1.0555987494e-04 1.5605794286e+00 -2.7030028596e+00 1.5605794286e+00 2.7030028596e+00 
98800 6.2253710036e+00 -1.1082157104e-04 1.5605828107e+00 -2.7030087175e+00 1.5605828107e+00 2.7030087175e+00 
98900 6.2253731621e+00 -1.1613125743e-04 1.5605863613e+00 -2.7030148674e+00 1.5605863613e+00 2.7030148674e+00 
99000 6.2253752862e+00 -1.2147606476e-04 1.5605900821e+00 -2.7030213119e+00 1.5605900821e+00 2.7030213119e+00 
99100 6.2253773769e+00 -1.2684369030e-04 1.5605939741e+00 -2.7030280531e+00 1.5605939741e+00 2.7030280531e+00 
99200 6.2253794349e+00 -1.3222238385e-04 1.5605980380e+00 -2.7030350920e+00 1.5605980380e+00 2.7030350920e+00 
99300 6.2253814610e+00 -1.3760093385e-04 1.5606022743e+00 -2.7030424295e+00 1.5606022743e+00 2.7030424295e+00 
99400 6.2253834559e+00 -1.4296865352e-04 1.5606066829e+00 -2.7030500654e+00 1.5606066829e+00 2.7030500654e+00 
99500 6.2253854204e+00 -1.4831536723e-04 1.5606112634e+00 -2.7030579991e+00 1.5606112634e+00 2.7030579991e+00 
99600 6.2253873549e+00 -1.5363139690e-04 1.5606160153e+00 -2.7030662295e+00 1.5606160153e+00 2.7030662295e+00 
99700 6.2253892602e+00 -1.5890754872e-04 1.5606209374e+00 -2.7030747549e+00 1.5606209374e+00 2.7030747549e+00 
99800 6.2253911366e+00 -1.6413509986e-04 1.5606260286e+00 -2.7030835731e+00 1.5606260286e+00 2.7030835731e+00 
99900 6.2253929847e+00 -1.6930578545e-04 1.5606312872e+00 -2.7030926813e+00 1.5606312872e+00 2.7030926813e+00 
100000 6.2253948050e+00 -1.7441178574e-04 1.5606367115e+00 -2.7031020764e+00 1.5606367115e+00 2.7031020764e+00 
100100 6.2253965978e+00 -1.7944571337e-04 1.5606422993e+00 -2.7031117549e+00 1.5606422993e+00 2.7031117549e+00 
100200 6.2253983636e+00 -1.8440060088e-04 1.5606480484e+00 -2.7031217126e+00 1.5606480484e+00 2.7031217126e+00 
100300 6.2254001027e+00 -1.8926988840e-04 1.5606539563e+00 -2.7031319453e+00 1.5606539563e+00 2.7031319453e+00 
100400 6.2254018154e+00 -1.9404741151e-04 1.5606600201e+00 -2.7031424481e+00 1.5606600201e+00 2.7031424481e+00 
100500 6.2254035020e+00 -1.9872738936e-04 1.5606662369e+00 -2.7031532160e+00 1.5606662369e+00 2.7031532160e+00 
100600 6.2254051629e+00 -2.0330441287e-04 1.5606726037e+00 -2.7031642435e+00 1.5606726037e+00 2.7031642435e+00 
100700 6.2254067983e+00 -2.0777343329e-04 1.5606791170e+00 -2.7031755250e+00 1.5606791170e+00 2.7031755250e+00 
100800 6.2254084084e+00 -2.1212975084e-04 1.5606857735e+00 -2.7031870544e+00 1.5606857735e+00 2.7031870544e+00 
100900 6.2254099934e+00 -2.1636900360e-04 1.5606925696e+00 -2.7031988255e+00 1.5606925696e+00 2.7031988255e+00 
101000 6.2254115537e+00 -2.2048715665e-04 1.5606995014e+00 -2.7032108318e+00 1.5606995014e+00 2.7032108318e+00 
101100 6.2254130893e+00 -2.2448049135e-04 1.5607065651e+00 -2.7032230665e+00 1.5607065651e+00 2.7032230665e+00 
101200 6.2254146006e+00 -2.2834559485e-04 1.5607137568e+00 -2.7032355228e+00 1.5607137568e+00 2.7032355228e+00 
101300 6.2254160876e+00 -2.3207934987e-04 1.5607210722e+00 -2.7032481935e+00 1.5607210722e+00 2.7032481935e+00 
101400 6.2254175506e+00 -2.3567892462e-04 1.5607285072e+00 -2.7032610713e+00 1.5607285072e+00 2.7032610713e+00 
101500 6.2254189897e+00 -2.3914176295e-04 1.5607360575e+00 -2.7032741488e+00 1.5607360575e+00 2.7032741488e+00 
101600 6.2254204051e+00 -2.4246557476e-04 1.5607437187e+00 -2.7032874184e+00 1.5607437187e+00 2.7032874184e+00 
101700 6.2254217970e+00 -2.4564832653e-04 1.5607514863e+00 -2.7033008723e+00 1.5607514863e+00 2.7033008723e+00 
101800 6.2254231655e+00 -2.4868823215e-04 1.5607593559e+00 -2.7033145028e+00 1.5607593559e+00 2.7033145028e+00 
101900 6.2254245108e+00 -2.5158374392e-04 1.5607673228e+00 -2.7033283019e+00 1.5607673228e+00 2.7033283019e+00 
102000 6.2254258330e+00 -2.5433354372e-04 1.5607753824e+00 -2.7033422616e+00 1.5607753824e+00 2.7033422616e+00 
102100 6.2254271324e+00 -2.5693653447e-04 1.5607835301e+00 -2.7033563737e+00 1.5607835301e+00 2.7033563737e+00 
102200 6.2254284091e+00 -2.5939183171e-04 1.5607917611e+00 -2.7033706303e+00 1.5607917611e+00 2.7033706303e+00 
102300 6.2254296633e+00 -2.6169875543e-04 1.5608000707e+00 -2.7033850230e+00 1.5608000707e+00 2.7033850230e+00 
102400 6.2254308951e+00 -2.6385682211e-04 1.5608084542e+00 -2.7033995436e+00 1.5608084542e+00 2.7033995436e+00 
102500 6.2254321048e+00 -2.6586573689e-04 1.5608169068e+00 -2.7034141839e+00 1.5608169068e+00 2.7034141839e+00 
102600 6.2254332924e+00 -2.6772538603e-04 1.5608254237e+00 -2.7034289356e+00 1.5608254237e+00 2.7034289356e+00 
102700 6.2254344582e+00 -2.6943582947e-04 1.5608340001e+00 -2.7034437904e+00 1.5608340001e+00 2.7034437904e+00 
102800 6.2254356024e+00 -2.7099729365e-04 1.5608426313e+00 -2.7034587400e+00 1.5608426313e+00 2.7034587400e+00 
102900 6.2254367252e+00 -2.7241016447e-04 1.5608513124e+00 -2.7034737761e+00 1.5608513124e+00 2.7034737761e+00 
103000 6.2254378268e+00 -2.7367498046e-04 1.5608600387e+00 -2.7034888906e+00 1.5608600387e+00 2.7034888906e+00 
103100 6.2254389074e+00 -2.7479242612e-04 1.5608688055e+00 -2.7035040752e+00 1.5608688055e+00 2.7035040752e+00 
103200 6.2254399672e+00 -2.7576332545e-04 1.5608776081e+00 -2.7035193216e+00 1.5608776081e+00 2.7035193216e+00 
103300 6.2254410064e+00 -2.7658863561e-04 1.5608864417e+00 -2.7035346219e+00 1.5608864417e+00 2.7035346219e+00 
103400 6.2254420253e+00 -2.7726944083e-04 1.5608953017e+00 -2.7035499678e+00 1.5608953017e+00 2.7035499678e+00 
103500 6.2254430240e+00 -2.7780694643e-04 1.5609041835e+00 -2.7035653515e+00 1.5609041835e+00 2.7035653515e+00 
103600 6.2254440029e+00 -2.7820247299e-04 1.5609130824e+00 -2.7035807649e+00 1.5609130824e+00 2.7035807649e+00 
103700 6.2254449622e+00 -2.7845745073e-04 1.5609219939e+00 -2.7035962001e+00 1.5609219939e+00 2.7035962001e+00 
103800 6.2254459021e+00 -2.7857341404e-04 1.5609309136e+00 -2.7036116494e+00 1.5609309136e+00 2.7036116494e+00 
103900 6.2254468228e+00 -2.7855199613e-04 1.5609398369e+00 -2.7036271050e+00 1.5609398369e+00 2.7036271050e+00 
104000 6.2254477248e+00 -2.7839492387e-04 1.5609487595e+00 -2.7036425594e+00 1.5609487595e+00 2.7036425594e+00 
104100 6.2254486081e+00 -2.7810401273e-04 1.5609576770e+00 -2.7036580050e+00 1.5609576770e+00 2.7036580050e+00 
104200 6.2254494731e+00 -2.7768116194e-04 1.5609665851e+00 -2.7036734343e+00 1.5609665851e+00 2.7036734343e+00 
104300 6.2254503201e+00 -2.7712834971e-04 1.5609754796e+00 -2.7036888401e+00 1.5609754796e+00 2.7036888401e+00 
104400 6.2254511493e+00 -2.7644762864e-04 1.5609843564e+00 -2.7037042151e+00 1.5609843564e+00 2.7037042151e+00 
104500 6.2254519611e+00 -2.7564112125e-04 1.5609932113e+00 -2.7037195523e+00 1.5609932113e+00 2.7037195523e+00 
104600 6.2254527556e+00 -2.7471101563e-04 1.5610020404e+00 -2.7037348446e+00 1.5610020404e+00 2.7037348446e+00 
104700 6.2254535333e+00 -2.7365956125e-04 1.5610108396e+00 -2.7037500853e+00 1.5610108396e+00 2.7037500853e+00 
104800 6.2254542943e+00 -2.7248906485e-04 1.5610196050e+00 -2.7037652675e+00 1.5610196050e+00 2.7037652675e+00 
104900 6.2254550391e+00 -2.7120188650e-04 1.5610283330e+00 -2.7037803847e+00 1.5610283330e+00 2.7037803847e+00 
105000 6.2254557678e+00 -2.6980043571e-04 1.5610370196e+00 -2.7037954305e+00 1.5610370196e+00 2.7037954305e+00 
105100 6.2254564808e+00 -2.6828716779e-04 1.5610456613e+00 -2.7038103983e+00 1.5610456613e+00 2.7038103983e+00 
105200 6.2254571785e+00 -2.6666458012e-04 1.5610542545e+00 -2.7038252822e+00 1.5610542545e+00 2.7038252822e+00 
105300 6.2254578610e+00 -2.6493520874e-04 1.5610627957e+00 -2.7038400760e+00 1.5610627957e+00 2.7038400760e+00 
105400 6.2254585287e+00 -2.6310162491e-04 1.5610712814e+00 -2.7038547737e+00 1.5610712814e+00 2.7038547737e+00 
105500 6.2254591820e+00 -2.6116643179e-04 1.5610797084e+00 -2.7038693696e+00 1.5610797084e+00 2.7038693696e+00 
105600 6.2254598210e+00 -2.5913226130e-04 1.5610880733e+00 -2.7038838581e+00 1.5610880733e+00 2.7038838581e+00 
105700 6.2254604461e+00 -2.5700177101e-04 1.5610963731e+00 -2.7038982337e+00 1.5610963731e+00 2.7038982337e+00 
105800 6.2254610577e+00 -2.5477764112e-04 1.5611046045e+00 -2.7039124910e+00 1.5611046045e+00 2.7039124910e+00 
105900 6.2254616560e+00 -2.5246257158e-04 1.5611127647e+00 -2.7039266248e+00 1.5611127647e+00 2.7039266248e+00 
106000 6.2254622413e+00 -2.5005927927e-04 1.5611208507e+00 -2.7039406302e+00 1.5611208507e+00 2.7039406302e+00 
106100 6.2254628139e+00 -2.4757049529e-04 1.5611288597e+00 -2.7039545021e+00 1.5611288597e+00 2.7039545021e+00 
106200 6.2254633741e+00 -2.4499896230e-04 1.5611367889e+00 -2.7039682359e+00 1.5611367889e+00 2.7039682359e+00 
106300 6.2254639222e+00 -2.4234743198e-04 1.5611446357e+00 -2.7039818270e+00 1.5611446357e+00 2.7039818270e+00 
106400 6.2254644584e+00 -2.3961866257e-04 1.5611523976e+00 -2.7039952710e+00 1.5611523976e+00 2.7039952710e+00 
106500 6.2254649832e+00 -2.3681541649e-04 1.5611600720e+00 -2.7040085634e+00 1.5611600720e+00 2.7040085634e+00 
106600 6.2254654967e+00 -2.3394045798e-04 1.5611676566e+00 -2.7040217004e+00 1.5611676566e+00 2.7040217004e+00 
106700 6.2254659993e+00 -2.3099655093e-04 1.5611751491e+00 -2.7040346777e+00 1.5611751491e+00 2.7040346777e+00 
106800 6.2254664911e+00 -2.2798645668e-04 1.5611825473e+00 -2.7040474917e+00 1.5611825473e+00 2.7040474917e+00 
106900 6.2254669726e+00 -2.2491293193e-04 1.5611898490e+00 -2.7040601387e+00 1.5611898490e+00 2.7040601387e+00 
107000 6.2254674439e+00 -2.2177872675e-04 1.5611970522e+00 -2.7040726151e+00 1.5611970522e+00 2.7040726151e+00 
107100 6.2254679053e+00 -2.1858658259e-04 1.5612041551e+00 -2.7040849176e+00 1.5612041551e+00 2.7040849176e+00 
107200 6.2254683571e+00 -2.1533923046e-04 1.5612111557e+00 -2.7040970430e+00 1.5612111557e+00 2.7040970430e+00 
107300 6.2254687995e+00 -2.1203938904e-04 1.5612180522e+00 -2.7041089881e+00 1.5612180522e+00 2.7041089881e+00 
107400 6.2254692328e+00 -2.0868976299e-04 1.5612248431e+00 -2.7041207502e+00 1.5612248431e+00 2.7041207502e+00 
107500 6.2254696573e+00 -2.0529304121e-04 1.5612315266e+00 -2.7041323264e+00 1.5612315266e+00 2.7041323264e+00 
107600 6.2254700730e+00 -2.0185189524e-04 1.5612381013e+00 -2.7041437142e+00 1.5612381013e+00 2.7041437142e+00 
107700 6.2254704804e+00 -1.9836897771e-04 1.5612445658e+00 -2.7041549110e+00 1.5612445658e+00 2.7041549110e+00 
107800 6.2254708796e+00 -1.9484692077e-04 1.5612509187e+00 -2.7041659146e+00 1.5612509187e+00 2.7041659146e+00 
107900 6.2254712709e+00 -1.9128833468e-04 1.5612571588e+00 -2.7041767227e+00 1.5612571588e+00 2.7041767227e+00 
108000 6.2254716544e+00 -1.8769580639e-04 1.5612632849e+00 -2.7041873335e+00 1.5612632849e+00 2.7041873335e+00 
108100 6.2254720304e+00 -1.8407189823e-04 1.5612692959e+00 -2.7041977449e+00 1.5612692959e+00 2.7041977449e+00 
108200 6.2254723990e+00 -1.8041914655e-04 1.5612751909e+00 -2.7042079552e+00 1.5612751909e+00 2.7042079552e+00 
108300 6.2254727606e+00 -1.7674006055e-04 1.5612809688e+00 -2.7042179629e+00 1.5612809688e+00 2.7042179629e+00 
108400 6.2254731152e+00 -1.7303712107e-04 1.5612866289e+00 -2.7042277665e+00 1.5612866289e+00 2.7042277665e+00 
108500 6.2254734631e+00 -1.6931277941e-04 1.5612921704e+00 -2.7042373646e+00 1.5612921704e+00 2.7042373646e+00 
108600 6.2254738044e+00 -1.6556945630e-04 1.5612975926e+00 -2.7042467562e+00 1.5612975926e+00 2.7042467562e+00 
108700 6.2254741394e+00 -1.6180954084e-04 1.5613028949e+00 -2.7042559400e+00 1.5613028949e+00 2.7042559400e+00 
108800 6.2254744681e+00 -1.5803538948e-04 1.5613080768e+00 -2.7042649153e+00 1.5613080768e+00 2.7042649153e+00 
108900 6.2254747909e+00 -1.5424932509e-04 1.5613131378e+00 -2.7042736812e+00 1.5613131378e+00 2.7042736812e+00 
109000 6.2254751077e+00 -1.5045363606e-04 1.5613180775e+00 -2.7042822371e+00 1.5613180775e+00 2.7042822371e+00 
109100 6.2254754189e+00 -1.4665057544e-04 1.5613228957e+00 -2.7042905824e+00 1.5613228957e+00 2.7042905824e+00 
109200 6.2254757244e+00 -1.4284236013e-04 1.5613275921e+00 -2.7042987167e+00 1.5613275921e+00 2.7042987167e+00 
109300 6.2254760246e+00 -1.3903117008e-04 1.5613321665e+00 -2.7043066398e+00 1.5613321665e+00 2.7043066398e+00 
109400 6.2254763195e+00 -1.3521914760e-04 1.5613366188e+00 -2.7043143515e+00 1.5613366188e+00 2.7043143515e+00 
109500 6.2254766092e+00 -1.3140839663e-04 1.5613409490e+00 -2.7043218516e+00 1.5613409490e+00 2.7043218516e+00 
109600 6.2254768939e+00 -1.2760098212e-04 1.5613451572e+00 -2.7043291404e+00 1.5613451572e+00 2.7043291404e+00 
109700 6.2254771737e+00 -1.2379892944e-04 1.5613492435e+00 -2.7043362180e+00 1.5613492435e+00 2.7043362180e+00 
109800 6.2254774488e+00 -1.2000422374e-04 1.5613532080e+00 -2.7043430847e+00 1.5613532080e+00 2.7043430847e+00 
109900 6.2254777192e+00 -1.1621880949e-04 1.5613570509e+00 -2.7043497409e+00 1.5613570509e+00 2.7043497409e+00 
110000 6.2254779851e+00 -1.1244458996e-04 1.5613607726e+00 -2.7043561872e+00 1.5613607726e+00 2.7043561872e+00 
110100 6.2254782466e+00 -1.0868342677e-04 1.5613643735e+00 -2.7043624240e+00 1.5613643735e+00 2.7043624240e+00 
110200 6.2254785037e+00 -1.0493713946e-04 1.5613678539e+00 -2.7043684522e+00 1.5613678539e+00 2.7043684522e+00 
110300 6.2254787566e+00 -1.0120750512e-04 1.5613712143e+00 -2.7043742727e+00 1.5613712143e+00 2.7043742727e+00 
110400 6.2254790053e+00 -9.7496258033e-05 1.5613744553e+00 -2.7043798862e+00 1.5613744553e+00 2.7043798862e+00 
110500 6.2254792500e+00 -9.3805089376e-05 1.5613775774e+00 -2.7043852939e+00 1.5613775774e+00 2.7043852939e+00 
110600 6.2254794908e+00 -9.0135646926e-05 1.5613805814e+00 -2.7043904969e+00 1.5613805814e+00 2.7043904969e+00 
110700 6.2254797277e+00 -8.6489534831e-05 1.5613834678e+00 -2.7043954963e+00 1.5613834678e+00 2.7043954963e+00 
110800 6.2254799608e+00 -8.2868313389e-05 1.5613862374e+00 -2.7044002934e+00 1.5613862374e+00 2.7044002934e+00 
110900 6.2254801902e+00 -7.9273498870e-05 1.5613888911e+00 -2.7044048897e+00 1.5613888911e+00 2.7044048897e+00 
111000 6.2254804160e+00 -7.5706563375e-05 1.5613914296e+00 -2.7044092866e+00 1.5613914296e+00 2.7044092866e+00 
111100 6.2254806381e+00 -7.2168934715e-05 1.5613938540e+00 -2.7044134857e+00 1.5613938540e+00 2.7044134857e+00 
111200 6.2254808568e+00 -6.8661996335e-05 1.5613961650e+00 -2.7044174886e+00 1.5613961650e+00 2.7044174886e+00 
111300 6.2254810723e+00 -6.8088786853e-05 1.5613961650e+00 -2.7044174886e+00 1.5613961650e+00 2.7044174886e+00 
111400 6.2254812843e+00 -6.7418518324e-05 1.5613961650e+00 -2.7044174886e+00 1.5613961650e+00 2.7044174886e+00 
111500 6.2254814930e+00 -6.6653183651e-05 1.5613961650e+00 -2.7044174886e+00 1.5613961650e+00 2.7044174886e+00 
111600 6.2254816984e+00 -6.5794760979e-05 1.5613961650e+00 -2.7044174886e+00 1.5613961650e+00 2.7044174886e+00 
111700 6.2254819006e+00 -6.4845214196e-05 1.5613961650e+00 -2.7044174886e+00 1.5613961650e+00 2.7044174886e+00 
111800 6.2254820996e+00 -6.3806493374e-05 1.5613961650e+00 -2.7044174886e+00 1.5613961650e+00 2.7044174886e+00 
111900 6.2254822956e+00 -6.2680535184e-05 1.5613961650e+00 -2.7044174886e+00 1.5613961650e+00 2.7044174886e+00 
112000 6.2254824884e+00 -6.1469263278e-05 1.5613961650e+00 -2.7044174886e+00 1.5613961650e+00 2.7044174886e+00 
112100 6.2254826782e+00 -6.0174588625e-05 1.5613961650e+00 -2.7044174886e+00 1.5613961650e+00 2.7044174886e+00 
112200 6.2254828650e+00 -5.8798409817e-05 1.5613961650e+00 -2.7044174886e+00 1.5613961650e+00 2.7044174886e+00 
112300 6.2254830489e+00 -5.7342613348e-05 1.5613961650e+00 -2.7044174886e+00 1.5613961650e+00 2.7044174886e+00 
112400 6.2254832299e+00 -5.5809073852e-05 1.5613961650e+00 -2.7044174886e+00 1.5613961650e+00 2.7044174886e+00 
112500 6.2254834081e+00 -5.4199654307e-05 1.5613961650e+00 -2.7044174886e+00 1.5613961650e+00 2.7044174886e+00 
112600 6.2254835834e+00 -5.2516206212e-05 1.5613961650e+00 -2.7044174886e+00 1.5613961650e+00 2.7044174886e+00 
112700 6.2254837560e+00 -5.0760569745e-05 1.5613961650e+00 -2.7044174886e+00 1.5613961650e+00 2.7044174886e+00 
112800 6.2254839258e+00 -4.8934573862e-05 1.5613961650e+00 -2.7044174886e+00 1.5613961650e+00 2.7044174886e+00 
112900 6.2254840930e+00 -4.7040036403e-05 1.5613961650e+00 -2.7044174886e+00 1.5613961650e+00 2.7044174886e+00 
113000 6.2254842575e+00 -4.5078764138e-05 1.5613961650e+00 -2.7044174886e+00 1.5613961650e+00 2.7044174886e+00 
113100 6.2254844193e+00 -4.3052552815e-05 1.5613961650e+00 -2.7044174886e+00 1.5613961650e+00 2.7044174886e+00 
113200 6.2254845786e+00 -4.0963187160e-05 1.5613961650e+00 -2.7044174886e+00 1.5613961650e+00 2.7044174886e+00 
113300 6.2254847353e+00 -3.8812440867e-05 1.5613961650e+00 -2.7044174886e+00 1.5613961650e+00 2.7044174886e+00 
113400 6.2254848895e+00 -3.6602076565e-05 1.5613961650e+00 -2.7044174886e+00 1.5613961650e+00 2.7044174886e+00 
113500 6.2254850412e+00 -3.4333845746e-05 1.5613961650e+00 -2.7044174886e+00 1.5613961650e+00 2.7044174886e+00 
113600 6.2254851904e+00 -3.2009488695e-05 1.5613961650e+00 -2.7044174886e+00 1.5613961650e+00 2.7044174886e+00 
113700 6.2254853372e+00 -2.9630734378e-05 1.5613961650e+00 -2.7044174886e+00 1.5613961650e+00 2.7044174886e+00 
113800 6.2254854817e+00 -2.7199300331e-05 1.5613961650e+00 -2.7044174886e+00 1.5613961650e+00 2.7044174886e+00 
113900 6.2254856237e+00 -2.4716892516e-05 1.5613961650e+00 -2.7044174886e+00 1.5613961650e+00 2.7044174886e+00 
114000 6.2254857634e+00 -2.2185205166e-05 1.5613961650e+00 -2.7044174886e+00 1.5613961650e+00 2.7044174886e+00 
114100 6.2254859008e+00 -1.9605920612e-05 1.5613961650e+00 -2.7044174886e+00 1.5613961650e+00 2.7044174886e+00 
114200 6.2254860359e+00 -1.6980709097e-05 1.5613961650e+00 -2.7044174886e+00 1.5613961650e+00 2.7044174886e+00 
114300 6.2254861688e+00 -1.4311228580e-05 1.5613961650e+00 -2.7044174886e+00 1.5613961650e+00 2.7044174886e+00 
114400 6.2254862994e+00 -1.1599124513e-05 1.5613961650e+00 -2.7044174886e+00 1.5613961650e+00 2.7044174886e+00 
114500 6.2254864278e+00 -8.8460296210e-06 1.5613961650e+00 -2.7044174886e+00 1.5613961650e+00 2.7044174886e+00 
114600 6.2254865541e+00 -6.0535636670e-06 1.5613961650e+00 -2.7044174886e+00 1.5613961650e+00 2.7044174886e+00 
114700 6.2254866782e+00 -3.2233331974e-06 1.5613961650e+00 -2.7044174886e+00 1.5613961650e+00 2.7044174886e+00 
114800 6.2254868002e+00 -3.5693129773e-07 1.5613961650e+00 -2.7044174886e+00 1.5613961650e+00 2.7044174886e+00 
114900 6.2254869202e+00 2.5440626823e-06 1.5613961650e+00 -2.7044174886e+00 1.5613961650e+00 2.7044174886e+00 
115000 6.2254870380e+00 5.4780833946e-06 1.5613961650e+00 -2.7044174886e+00 1.5613961650e+00 2.7044174886e+00 
115100 6.2254871539e+00 8.4435797653e-06 1.5613961650e+00 -2.7044174886e+00 1.5613961650e+00 2.7044174886e+00 
115200 6.2254872677e+00 1.1439015287e-05 1.5613961650e+00 -2.7044174886e+00 1.5613961650e+00 2.7044174886e+00 
115300 6.2254873796e+00 1.4462868298e-05 1.5613961650e+00 -2.7044174886e+00 1.5613961650e+00 2.7044174886e+00 
115400 6.2254874895e+00 1.7513632272e-05 1.5613961650e+00 -2.7044174886e+00 1.5613961650e+00 2.7044174886e+00 
115500 6.2254875975e+00 2.0589816123e-05 1.5613961650e+00 -2.7044174886e+00 1.5613961650e+00 2.7044174886e+00 
115600 6.2254877036e+00 2.3689944483e-05 1.5613961650e+00 -2.7044174886e+00 1.5613961650e+00 2.7044174886e+00 
115700 6.2254878078e+00 2.6812558010e-05 1.5613961650e+00 -2.7044174886e+00 1.5613961650e+00 2.7044174886e+00 
115800 6.2254879102e+00 2.9956213682e-05 1.5613961650e+00 -2.7044174886e+00 1.5613961650e+00 2.7044174886e+00 
115900 6.2254880108e+00 3.3119485091e-05 1.5613961650e+00 -2.7044174886e+00 1.5613961650e+00 2.7044174886e+00 
116000 6.2254881096e+00 3.6300962738e-05 1.5613961650e+00 -2.7044174886e+00 1.5613961650e+00 2.7044174886e+00 
116100 6.2254882066e+00 3.9499254327e-05 1.5613961650e+00 -2.7044174886e+00 1.5613961650e+00 2.7044174886e+00 
116200 6.2254883018e+00 4.2712985057e-05 1.5613961650e+00 -2.7044174886e+00 1.5613961650e+00 2.7044174886e+00 
116300 6.2254883954e+00 4.5940797901e-05 1.5613961650e+00 -2.7044174886e+00 1.5613961650e+00 2.7044174886e+00 
116400 6.2254884873e+00 4.9181353900e-05 1.5613961650e+00 -2.7044174886e+00 1.5613961650e+00 2.7044174886e+00 
116500 6.2254885775e+00 5.2433332436e-05 1.5613961650e+00 -2.7044174886e+00 1.5613961650e+00 2.7044174886e+00 
116600 6.2254886661e+00 5.5695431502e-05 1.5613961650e+00 -2.7044174886e+00 1.5613961650e+00 2.7044174886e+00 
116700 6.2254887531e+00 5.8966367977e-05 1.5613961650e+00 -2.7044174886e+00 1.5613961650e+00 2.7044174886e+00 
116800 6.2254888384e+00 6.2244877883e-05 1.5613961650e+00 -2.7044174886e+00 1.5613961650e+00 2.7044174886e+00 
116900 6.2254889223e+00 6.5529716638e-05 1.5613961650e+00 -2.7044174886e+00 1.5613961650e+00 2.7044174886e+00 
117000 6.2254890046e+00 6.8819659307e-05 1.5613961650e+00 -2.7044174886e+00 1.5613961650e+00 2.7044174886e+00 
117100 6.2254890854e+00 7.2113500844e-05 1.5613961650e+00 -2.7044174886e+00 1.5613961650e+00 2.7044174886e+00 
117200 6.2254891645e+00 7.2363186108e-05 1.5613938558e+00 -2.7044134888e+00 1.5613938558e+00 2.7044134888e+00 
117300 6.2254892421e+00 7.2586469581e-05 1.5613915385e+00 -2.7044094752e+00 1.5613915385e+00 2.7044094752e+00 
117400 6.2254893182e+00 7.2783093126e-05 1.5613892141e+00 -2.7044054492e+00 1.5613892141e+00 2.7044054492e+00 
117500 6.2254893929e+00 7.2952859567e-05 1.5613868834e+00 -2.7044014123e+00 1.5613868834e+00 2.7044014123e+00 
117600 6.2254894662e+00 7.3095629719e-05 1.5613845472e+00 -2.7043973659e+00 1.5613845472e+00 2.7043973659e+00 
117700 6.2254895382e+00 7.3211319482e-05 1.5613822065e+00 -2.7043933116e+00 1.5613822065e+00 2.7043933116e+00 
117800 6.2254896088e+00 7.3299897079e-05 1.5613798620e+00 -2.7043892510e+00 1.5613798620e+00 2.7043892510e+00 
117900 6.2254896780e+00 7.3361380360e-05 1.5613775148e+00 -2.7043851854e+00 1.5613775148e+00 2.7043851854e+00 
118000 6.2254897460e+00 7.3395834196e-05 1.5613751655e+00 -2.7043811163e+00 1.5613751655e+00 2.7043811163e+00 
118100 6.2254898126e+00 7.3403367982e-05 1.5613728151e+00 -2.7043770454e+00 1.5613728151e+00 2.7043770454e+00 
118200 6.2254898780e+00 7.3384133199e-05 1.5613704645e+00 -2.7043729740e+00 1.5613704645e+00 2.7043729740e+00 
118300 6.2254899422e+00 7.3338321080e-05 1.5613681146e+00 -2.7043689037e+00 1.5613681146e+00 2.7043689037e+00 
118400 6.2254900051e+00 7.3266160345e-05 1.5613657660e+00 -2.7043648360e+00 1.5613657660e+00 2.7043648360e+00 
118500 6.2254900669e+00 7.3167915013e-05 1.5613634198e+00 -2.7043607722e+00 1.5613634198e+00 2.7043607722e+00 
118600 6.2254901275e+00 7.3043882298e-05 1.5613610767e+00 -2.7043567139e+00 1.5613610767e+00 2.7043567139e+00 
118700 6.2254901869e+00 7.2894390564e-05 1.5613587376e+00 -2.7043526624e+00 1.5613587376e+00 2.7043526624e+00 
118800 6.2254902453e+00 7.2719797363e-05 1.5613564033e+00 -2.7043486192e+00 1.5613564033e+00 2.7043486192e+00 
118900 6.2254903025e+00 7.2520487534e-05 1.5613540746e+00 -2.7043445857e+00 1.5613540746e+00 2.7043445857e+00 
119000 6.2254903586e+00 7.2296871372e-05 1.5613517522e+00 -2.7043405633e+00 1.5613517522e+00 2.7043405633e+00 
119100 6.2254904137e+00 7.2049382861e-05 1.5613494370e+00 -2.7043365533e+00 1.5613494370e+00 2.7043365533e+00 
119200 6.2254904678e+00 7.1778477958e-05 1.5613471297e+00 -2.7043325569e+00 1.5613471297e+00 2.7043325569e+00 
119300 6.2254905208e+00 7.1484632961e-05 1.5613448311e+00 -2.7043285756e+00 1.5613448311e+00 2.7043285756e+00 
119400 6.2254905729e+00 7.1168342922e-05 1.5613425419e+00 -2.7043246106e+00 1.5613425419e+00 2.7043246106e+00 
119500 6.2254906239e+00 7.0830120105e-05 1.5613402628e+00 -2.7043206631e+00 1.5613402628e+00 2.7043206631e+00 
119600 6.2254906740e+00 7.0470492526e-05 1.5613379946e+00 -2.7043167344e+00 1.5613379946e+00 2.7043167344e+00 
119700 6.2254907234e+00 7.3067707953e-05 1.5613379946e+00 -2.7043167344e+00 1.5613379946e+00 2.7043167344e+00 
119800 6.2254907717e+00 7.2558106183e-05 1.5613356547e+00 -2.7043126816e+00 1.5613356547e+00 2.7043126816e+00 
119900 6.2254908190e+00 7.2032805888e-05 1.5613333311e+00 -2.7043086570e+00 1.5613333311e+00 2.7043086570e+00 
120000 6.2254908655e+00 7.1492210125e-05 1.5613310243e+00 -2.7043046616e+00 1.5613310243e+00 2.7043046616e+00 
120100 6.2254909111e+00 7.0936739514e-05 1.5613287349e+00 -2.7043006961e+00 1.5613287349e+00 2.7043006961e+00 
120200 6.2254909559e+00 7.0366830646e-05 1.5613264632e+00 -2.7042967614e+00 1.5613264632e+00 2.7042967614e+00 
120300 6.2254910000e+00 7.2756309183e-05 1.5613264632e+00 -2.7042967614e+00 1.5613264632e+00 2.7042967614e+00 
120400 6.2254910432e+00 7.2050242579e-05 1.5613241332e+00 -2.7042927258e+00 1.5613241332e+00 2.7042927258e+00 
120500 6.2254910855e+00 7.1335164239e-05 1.5613218259e+00 -2.7042887294e+00 1.5613218259e+00 2.7042887294e+00 
120600 6.2254911271e+00 7.0611386222e-05 1.5613195414e+00 -2.7042847726e+00 1.5613195414e+00 2.7042847726e+00 
120700 6.2254911681e+00 7.2862975046e-05 1.5613195414e+00 -2.7042847726e+00 1.5613195414e+00 2.7042847726e+00 
120800 6.2254912082e+00 7.2013775276e-05 1.5613172081e+00 -2.7042807311e+00 1.5613172081e+00 2.7042807311e+00 
120900 6.2254912475e+00 7.1160959688e-05 1.5613149019e+00 -2.7042767367e+00 1.5613149019e+00 2.7042767367e+00 
121000 6.2254912861e+00 7.0304726007e-05 1.5613126230e+00 -2.7042727895e+00 1.5613126230e+00 2.7042727895e+00 
121100 6.2254913243e+00 7.2416099054e-05 1.5613126230e+00 -2.7042727895e+00 1.5613126230e+00 2.7042727895e+00 
121200 6.2254913615e+00 7.1445144735e-05 1.5613103039e+00 -2.7042687728e+00 1.5613103039e+00 2.7042687728e+00 
121300 6.2254913981e+00 7.0475509085e-05 1.5613080159e+00 -2.7042648099e+00 1.5613080159e+00 2.7042648099e+00 
121400 6.2254914342e+00 7.2485326854e-05 1.5613080159e+00 -2.7042648099e+00 1.5613080159e+00 2.7042648099e+00 
121500 6.2254914695e+00 7.1409808853e-05 1.5613056946e+00 -2.7042607893e+00 1.5613056946e+00 2.7042607893e+00 
121600 6.2254915041e+00 7.0339992467e-05 1.5613034078e+00 -2.7042568283e+00 1.5613034078e+00 2.7042568283e+00 
121700 6.2254915384e+00 7.2248188996e-05 1.5613034078e+00 -2.7042568283e+00 1.5613034078e+00 2.7042568283e+00 
121800 6.2254915718e+00 7.1081122696e-05 1.5613010941e+00 -2.7042528208e+00 1.5613010941e+00 2.7042528208e+00 
121900 6.2254916046e+00 6.9923797571e-05 1.5612988177e+00 -2.7042488781e+00 1.5612988177e+00 2.7042488781e+00 
122000 6.2254916371e+00 7.1730849806e-05 1.5612988177e+00 -2.7042488781e+00 1.5612988177e+00 2.7042488781e+00 
122100 6.2254916688e+00 7.0484680908e-05 1.5612965206e+00 -2.7042448993e+00 1.5612965206e+00 2.7042448993e+00 
122200 6.2254917002e+00 7.2230432213e-05 1.5612965206e+00 -2.7042448993e+00 1.5612965206e+00 2.7042448993e+00 
122300 6.2254917307e+00 7.0902097293e-05 1.5612942074e+00 -2.7042408928e+00 1.5612942074e+00 2.7042408928e+00 
122400 6.2254917608e+00 6.9590831824e-05 1.5612919368e+00 -2.7042369600e+00 1.5612919368e+00 2.7042369600e+00 
122500 6.2254917906e+00 7.1237012240e-05 1.5612919368e+00 -2.7042369600e+00 1.5612919368e+00 2.7042369600e+00 
122600 6.2254918196e+00 6.9851435553e-05 1.5612896554e+00 -2.7042330086e+00 1.5612896554e+00 2.7042330086e+00 
122700 6.2254918483e+00 7.1437729382e-05 1.5612896554e+00 -2.7042330086e+00 1.5612896554e+00 2.7042330086e+00 
122800 6.2254918763e+00 6.9984137112e-05 1.5612873677e+00 -2.7042290460e+00 1.5612873677e+00 2.7042290460e+00 
122900 6.2254919041e+00 7.1511230316e-05 1.5612873677e+00 -2.7042290460e+00 1.5612873677e+00 2.7042290460e+00 
123000 6.2254919312e+00 6.9995712533e-05 1.5612850775e+00 -2.7042250794e+00 1.5612850775e+00 2.7042250794e+00 
123100 6.2254919580e+00 7.1464377764e-05 1.5612850775e+00 -2.7042250794e+00 1.5612850775e+00 2.7042250794e+00 
123200 6.2254919842e+00 6.9892820206e-05 1.5612827889e+00 -2.7042211153e+00 1.5612827889e+00 2.7042211153e+00 
123300 6.2254920101e+00 7.1303912915e-05 1.5612827889e+00 -2.7042211153e+00 1.5612827889e+00 2.7042211153e+00 
123400 6.2254920354e+00 6.9681998092e-05 1.5612805054e+00 -2.7042171602e+00 1.5612805054e+00 2.7042171602e+00 
123500 6.2254920604e+00 7.1036452430e-05 1.5612805054e+00 -2.7042171602e+00 1.5612805054e+00 2.7042171602e+00 
123600 6.2254920848e+00 6.9369660682e-05 1.5612782304e+00 -2.7042132199e+00 1.5612782304e+00 2.7042132199e+00 
123700 6.2254921091e+00 7.0668485201e-05 1.5612782304e+00 -2.7042132199e+00 1.5612782304e+00 2.7042132199e+00 
123800 6.2254921329e+00 7.1948393041e-05 1.5612782304e+00 -2.7042132199e+00 1.5612782304e+00 2.7042132199e+00 
123900 6.2254921561e+00 7.0169344508e-05 1.5612759263e+00 -2.7042092290e+00 1.5612759263e+00 2.7042092290e+00 
124000 6.2254921791e+00 7.1395066736e-05 1.5612759263e+00 -2.7042092290e+00 1.5612759263e+00 2.7042092290e+00 
124100 6.2254922015e+00 6.9585702948e-05 1.5612736399e+00 -2.7042052688e+00 1.5612736399e+00 2.7042052688e+00 
124200 6.2254922238e+00 7.0758374073e-05 1.5612736399e+00 -2.7042052688e+00 1.5612736399e+00 2.7042052688e+00 
124300 6.2254922455e+00 6.8923374686e-05 1.5612713738e+00 -2.7042013439e+00 1.5612713738e+00 2.7042013439e+00 
124400 6.2254922670e+00 7.0044192340e-05 1.5612713738e+00 -2.7042013439e+00 1.5612713738e+00 2.7042013439e+00 
124500 6.2254922882e+00 7.1147984102e-05 1.5612713738e+00 -2.7042013439e+00 1.5612713738e+00 2.7042013439e+00 
124600 6.2254923088e+00 6.9228537433e-05 1.5612690953e+00 -2.7041973973e+00 1.5612690953e+00 2.7041973973e+00 
124700 6.2254923293e+00 7.0282182467e-05 1.5612690953e+00 -2.7041973973e+00 1.5612690953e+00 2.7041973973e+00 
124800 6.2254923494e+00 7.1319702344e-05 1.5612690953e+00 -2.7041973973e+00 1.5612690953e+00 2.7041973973e+00 
124900 6.2254923690e+00 6.9327624570e-05 1.5612668113e+00 -2.7041934413e+00 1.5612668113e+00 2.7041934413e+00 
125000 6.2254923885e+00 7.0316758851e-05 1.5612668113e+00 -2.7041934413e+00 1.5612668113e+00 2.7041934413e+00 
125100 6.2254924077e+00 7.1290669341e-05 1.5612668113e+00 -2.7041934413e+00 1.5612668113e+00 2.7041934413e+00 
125200 6.2254924263e+00 6.9237106296e-05 1.5612645282e+00 -2.7041894868e+00 1.5612645282e+00 2.7041894868e+00 
125300 6.2254924449e+00 7.0164440246e-05 1.5612645282e+00 -2.7041894868e+00 1.5612645282e+00 2.7041894868e+00 
125400 6.2254924631e+00 7.1077451022e-05 1.5612645282e+00 -2.7041894868e+00 1.5612645282e+00 2.7041894868e+00 
125500 6.2254924808e+00 6.8972894275e-05 1.5612622519e+00 -2.7041855442e+00 1.5612622519e+00 2.7041855442e+00 
125600 6.2254924985e+00 6.9841178453e-05 1.5612622519e+00 -2.7041855442e+00 1.5612622519e+00 2.7041855442e+00 
125700 6.2254925158e+00 7.0696037635e-05 1.5612622519e+00 -2.7041855442e+00 1.5612622519e+00 2.7041855442e+00 
125800 6.2254925329e+00 7.1537832689e-05 1.5612622519e+00 -2.7041855442e+00 1.5612622519e+00 2.7041855442e+00 
125900 6.2254925494e+00 6.9343853141e-05 1.5612599609e+00 -2.7041815760e+00 1.5612599609e+00 2.7041815760e+00 
126000 6.2254925660e+00 7.0143297697e-05 1.5612599609e+00 -2.7041815760e+00 1.5612599609e+00 2.7041815760e+00 
126100 6.2254925822e+00 7.0930544709e-05 1.5612599609e+00 -2.7041815760e+00 1.5612599609e+00 2.7041815760e+00 
126200 6.2254925980e+00 6.8708540841e-05 1.5612576893e+00 -2.7041776415e+00 1.5612576893e+00 2.7041776415e+00 
126300 6.2254926137e+00 6.9455311985e-05 1.5612576893e+00 -2.7041776415e+00 1.5612576893e+00 2.7041776415e+00 
126400 6.2254926291e+00 7.0190748174e-05 1.5612576893e+00 -2.7041776415e+00 1.5612576893e+00 2.7041776415e+00 
126500 6.2254926443e+00 7.0915197592e-05 1.5612576893e+00 -2.7041776415e+00 1.5612576893e+00 2.7041776415e+00 
126600 6.2254926591e+00 6.8632242779e-05 1.5612554182e+00 -2.7041737079e+00 1.5612554182e+00 2.7041737079e+00 
126700 6.2254926738e+00 6.9318606819e-05 1.5612554182e+00 -2.7041737079e+00 1.5612554182e+00 2.7041737079e+00 
126800 6.2254926882e+00 6.9994812199e-05 1.5612554182e+00 -2.7041737079e+00 1.5612554182e+00 2.7041737079e+00 
126900 6.2254927025e+00 7.0661195432e-05 1.5612554182e+00 -2.7041737079e+00 1.5612554182e+00 2.7041737079e+00 
127000 6.2254927165e+00 7.1318084034e-05 1.5612554182e+00 -2.7041737079e+00 1.5612554182e+00 2.7041737079e+00 
127100 6.2254927300e+00 6.8952016187e-05 1.5612531342e+00 -2.7041697519e+00 1.5612531342e+00 2.7041697519e+00 
127200 6.2254927436e+00 6.9573644400e-05 1.5612531342e+00 -2.7041697519e+00 1.5612531342e+00 2.7041697519e+00 
127300 6.2254927569e+00 7.0186543827e-05 1.5612531342e+00 -2.7041697519e+00 1.5612531342e+00 2.7041697519e+00 
127400 6.2254927700e+00 7.0791030839e-05 1.5612531342e+00 -2.7041697519e+00 1.5612531342e+00 2.7041697519e+00 
127500 6.2254927827e+00 6.8395903035e-05 1.5612508671e+00 -2.7041658251e+00 1.5612508671e+00 2.7041658251e+00 
127600 6.2254927953e+00 6.8967387217e-05 1.5612508671e+00 -2.7041658251e+00 1.5612508671e+00 2.7041658251e+00 
127700 6.2254928078e+00 6.9531192069e-05 1.5612508671e+00 -2.7041658251e+00 1.5612508671e+00 2.7041658251e+00 
127800 6.2254928201e+00 7.0087622254e-05 1.5612508671e+00 -2.7041658251e+00 1.5612508671e+00 2.7041658251e+00 
127900 6.2254928321e+00 7.0636973424e-05 1.5612508671e+00 -2.7041658251e+00 1.5612508671e+00 2.7041658251e+00 
128000 6.2254928440e+00 7.1179532397e-05 1.5612508671e+00 -2.7041658251e+00 1.5612508671e+00 2.7041658251e+00 
128100 6.2254928555e+00 6.8707653749e-05 1.5612485875e+00 -2.7041618768e+00 1.5612485875e+00 2.7041618768e+00 
128200 6.2254928669e+00 6.9220268408e-05 1.5612485875e+00 -2.7041618768e+00 1.5612485875e+00 2.7041618768e+00 
128300 6.2254928782e+00 6.9726736015e-05 1.5612485875e+00 -2.7041618768e+00 1.5612485875e+00 2.7041618768e+00 
128400 6.2254928893e+00 7.0227332818e-05 1.5612485875e+00 -2.7041618768e+00 1.5612485875e+00 2.7041618768e+00 
128500 6.2254929003e+00 7.0722326299e-05 1.5612485875e+00 -2.7041618768e+00 1.5612485875e+00 2.7041618768e+00 
128600 6.2254929108e+00 6.8223372855e-05 1.5612463226e+00 -2.7041579538e+00 1.5612463226e+00 2.7041579538e+00 
128700 6.2254929214e+00 6.8690852014e-05 1.5612463226e+00 -2.7041579538e+00 1.5612463226e+00 2.7041579538e+00 
128800 6.2254929318e+00 6.9153316440e-05 1.5612463226e+00 -2.7041579538e+00 1.5612463226e+00 2.7041579538e+00 
128900 6.2254929420e+00 6.9611023139e-05 1.5612463226e+00 -2.7041579538e+00 1.5612463226e+00 2.7041579538e+00 
129000 6.2254929521e+00 7.0064220406e-05 1.5612463226e+00 -2.7041579538e+00 1.5612463226e+00 2.7041579538e+00 
129100 6.2254929620e+00 7.0513148012e-05 1.5612463226e+00 -2.7041579538e+00 1.5612463226e+00 2.7041579538e+00 
129200 6.2254929717e+00 7.0958037367e-05 1.5612463226e+00 -2.7041579538e+00 1.5612463226e+00 2.7041579538e+00 
129300 6.2254929811e+00 6.8400553564e-05 1.5612440501e+00 -2.7041540178e+00 1.5612440501e+00 2.7041540178e+00 
129400 6.2254929905e+00 6.8820894692e-05 1.5612440501e+00 -2.7041540178e+00 1.5612440501e+00 2.7041540178e+00 
129500 6.2254929998e+00 6.9237679915e-05 1.5612440501e+00 -2.7041540178e+00 1.5612440501e+00 2.7041540178e+00 
129600 6.2254930089e+00 6.9651131859e-05 1.5612440501e+00 -2.7041540178e+00 1.5612440501e+00 2.7041540178e+00 
129700 6.2254930179e+00 7.0061464839e-05 1.5612440501e+00 -2.7041540178e+00 1.5612440501e+00 2.7041540178e+00 
129800 6.2254930267e+00 7.0468885034e-05 1.5612440501e+00 -2.7041540178e+00 1.5612440501e+00 2.7041540178e+00 
129900 6.2254930354e+00 7.0873590656e-05 1.5612440501e+00 -2.7041540178e+00 1.5612440501e+00 2.7041540178e+00 
130000 6.2254930437e+00 6.8280786611e-05 1.5612417803e+00 -2.7041500864e+00 1.5612417803e+00 2.7041500864e+00 
130100 6.2254930521e+00 6.8663513160e-05 1.5612417803e+00 -2.7041500864e+00 1.5612417803e+00 2.7041500864e+00 
130200 6.2254930604e+00 6.9043910455e-05 1.5612417803e+00 -2.7041500864e+00 1.5612417803e+00 2.7041500864e+00 
130300 6.2254930685e+00 6.9422169430e-05 1.5612417803e+00 -2.7041500864e+00 1.5612417803e+00 2.7041500864e+00 
130400 6.2254930765e+00 6.9798473097e-05 1.5612417803e+00 -2.7041500864e+00 1.5612417803e+00 2.7041500864e+00 
130500 6.2254930844e+00 7.0172996708e-05 1.5612417803e+00 -2.7041500864e+00 1.5612417803e+00 2.7041500864e+00 
130600 6.2254930922e+00 7.0545907933e-05 1.5612417803e+00 -2.7041500864e+00 1.5612417803e+00 2.7041500864e+00 
130700 6.2254930998e+00 7.0917367018e-05 1.5612417803e+00 -2.7041500864e+00 1.5612417803e+00 2.7041500864e+00 
130800 6.2254931071e+00 6.8290696808e-05 1.5612395091e+00 -2.7041461526e+00 1.5612395091e+00 2.7041461526e+00 
130900 6.2254931145e+00 6.8642578785e-05 1.5612395091e+00 -2.7041461526e+00 1.5612395091e+00 2.7041461526e+00 
131000 6.2254931217e+00 6.8993283271e-05 1.5612395091e+00 -2.7041461526e+00 1.5612395091e+00 2.7041461526e+00 
131100 6.2254931289e+00 6.9342965419e-05 1.5612395091e+00 -2.7041461526e+00 1.5612395091e+00 2.7041461526e+00 
131200 6.2254931359e+00 6.9691772985e-05 1.5612395091e+00 -2.7041461526e+00 1.5612395091e+00 2.7041461526e+00 
131300 6.2254931428e+00 7.0039846509e-05 1.5612395091e+00 -2.7041461526e+00 1.5612395091e+00 2.7041461526e+00 
131400 6.2254931497e+00 7.0387319473e-05 1.5612395091e+00 -2.7041461526e+00 1.5612395091e+00 2.7041461526e+00 
131500 6.2254931564e+00 7.0734318472e-05 1.5612395091e+00 -2.7041461526e+00 1.5612395091e+00 2.7041461526e+00 
131600 6.2254931628e+00 6.8091872360e-05 1.5612372438e+00 -2.7041422289e+00 1.5612372438e+00 2.7041422289e+00 
131700 6.2254931692e+00 6.8421195344e-05 1.5612372438e+00 -2.7041422289e+00 1.5612372438e+00 2.7041422289e+00 
131800 6.2254931756e+00 6.8750221680e-05 1.5612372438e+00 -2.7041422289e+00 1.5612372438e+00 2.7041422289e+00 
131900 6.2254931819e+00 6.9079074907e-05 1.5612372438e+00 -2.7041422289e+00 1.5612372438e+00 2.7041422289e+00 
132000 6.2254931881e+00 6.9407871683e-05 1.5612372438e+00 -2.7041422289e+00 1.5612372438e+00 2.7041422289e+00 
132100 6.2254931942e+00 6.9736721980e-05 1.5612372438e+00 -2.7041422289e+00 1.5612372438e+00 2.7041422289e+00 
132200 6.2254932002e+00 7.0065729223e-05 1.5612372438e+00 -2.7041422289e+00 1.5612372438e+00 2.7041422289e+00 
132300 6.2254932061e+00 7.0394990474e-05 1.5612372438e+00 -2.7041422289e+00 1.5612372438e+00 2.7041422289e+00 
132400 6.2254932119e+00 7.0724596584e-05 1.5612372438e+00 -2.7041422289e+00 1.5612372438e+00 2.7041422289e+00 
132500 6.2254932175e+00 6.8065956533e-05 1.5612349788e+00 -2.7041383058e+00 1.5612349788e+00 2.7041383058e+00 
132600 6.2254932231e+00 6.8379421428e-05 1.5612349788e+00 -2.7041383058e+00 1.5612349788e+00 2.7041383058e+00 
132700 6.2254932286e+00 6.8693305405e-05 1.5612349788e+00 -2.7041383058e+00 1.5612349788e+00 2.7041383058e+00 
132800 6.2254932341e+00 6.9007698937e-05 1.5612349788e+00 -2.7041383058e+00 1.5612349788e+00 2.7041383058e+00 
132900 6.2254932395e+00 6.9322686300e-05 1.5612349788e+00 -2.7041383058e+00 1.5612349788e+00 2.7041383058e+00 
133000 6.2254932448e+00 6.9638345727e-05 1.5612349788e+00 -2.7041383058e+00 1.5612349788e+00 2.7041383058e+00 
133100 6.2254932500e+00 6.9954749575e-05 1.5612349788e+00 -2.7041383058e+00 1.5612349788e+00 2.7041383058e+00 
133200 6.2254932551e+00 7.0271964486e-05 1.5612349788e+00 -2.7041383058e+00 1.5612349788e+00 2.7041383058e+00 
133300 6.2254932602e+00 7.0590051545e-05 1.5612349788e+00 -2.7041383058e+00 1.5612349788e+00 2.7041383058e+00 
133400 6.2254932651e+00 7.0909066439e-05 1.5612349788e+00 -2.7041383058e+00 1.5612349788e+00 2.7041383058e+00 
133500 6.2254932698e+00 6.8232592740e-05 1.5612327079e+00 -2.7041343724e+00 1.5612327079e+00 2.7041343724e+00 
133600 6.2254932747e+00 6.8536484812e-05 1.5612327079e+00 -2.7041343724e+00 1.5612327079e+00 2.7041343724e+00 
133700 6.2254932794e+00 6.8841277890e-05 1.5612327079e+00 -2.7041343724e+00 1.5612327079e+00 2.7041343724e+00 
133800 6.2254932841e+00 6.9147030524e-05 1.5612327079e+00 -2.7041343724e+00 1.5612327079e+00 2.7041343724e+00 
133900 6.2254932887e+00 6.9453795848e-05 1.5612327079e+00 -2.7041343724e+00 1.5612327079e+00 2.7041343724e+00 
134000 6.2254932932e+00 6.9761621729e-05 1.5612327079e+00 -2.7041343724e+00 1.5612327079e+00 2.7041343724e+00 
134100 6.2254932977e+00 7.0070550927e-05 1.5612327079e+00 -2.7041343724e+00 1.5612327079e+00 2.7041343724e+00 
134200 6.2254933021e+00 7.0380621250e-05 1.5612327079e+00 -2.7041343724e+00 1.5612327079e+00 2.7041343724e+00 
134300 6.2254933065e+00 7.0691865707e-05 1.5612327079e+00 -2.7041343724e+00 1.5612327079e+00 2.7041343724e+00 
134400 6.2254933107e+00 7.1004312658e-05 1.5612327079e+00 -2.7041343724e+00 1.5612327079e+00 2.7041343724e+00 
134500 6.2254933147e+00 6.8317496370e-05 1.5612304339e+00 -2.7041304338e+00 1.5612304339e+00 2.7041304338e+00 
134600 6.2254933189e+00 6.8615267118e-05 1.5612304339e+00 -2.7041304338e+00 1.5612304339e+00 2.7041304338e+00 
134700 6.2254933230e+00 6.8914135836e-05 1.5612304339e+00 -2.7041304338e+00 1.5612304339e+00 2.7041304338e+00 
134800 6.2254933270e+00 6.9214136724e-05 1.5612304339e+00 -2.7041304338e+00 1.5612304339e+00 2.7041304338e+00 
134900 6.2254933309e+00 6.9515299275e-05 1.5612304339e+00 -2.7041304338e+00 1.5612304339e+00 2.7041304338e+00 
135000 6.2254933348e+00 6.9817648433e-05 1.5612304339e+00 -2.7041304338e+00 1.5612304339e+00 2.7041304338e+00 
135100 6.2254933387e+00 7.0121204737e-05 1.5612304339e+00 -2.7041304338e+00 1.5612304339e+00 2.7041304338e+00 
135200 6.2254933425e+00 7.0425984471e-05 1.5612304339e+00 -2.7041304338e+00 1.5612304339e+00 2.7041304338e+00 
135300 6.2254933462e+00 7.0731999811e-05 1.5612304339e+00 -2.7041304338e+00 1.5612304339e+00 2.7041304338e+00 
135400 6.2254933497e+00 6.8050275779e-05 1.5612281686e+00 -2.7041265102e+00 1.5612281686e+00 2.7041265102e+00 
135500 6.2254933533e+00 6.8341699897e-05 1.5612281686e+00 -2.7041265102e+00 1.5612281686e+00 2.7041265102e+00 
135600 6.2254933569e+00 6.8634210392e-05 1.5612281686e+00 -2.7041265102e+00 1.5612281686e+00 2.7041265102e+00 
135700 6.2254933604e+00 6.8927827282e-05 1.5612281686e+00 -2.7041265102e+00 1.5612281686e+00 2.7041265102e+00 
135800 6.2254933639e+00 6.9222566401e-05 1.5612281686e+00 -2.7041265102e+00 1.5612281686e+00 2.7041265102e+00 
135900 6.2254933673e+00 6.9518439536e-05 1.5612281686e+00 -2.7041265102e+00 1.5612281686e+00 2.7041265102e+00 
136000 6.2254933706e+00 6.9815454571e-05 1.5612281686e+00 -2.7041265102e+00 1.5612281686e+00 2.7041265102e+00 
136100 6.2254933740e+00 7.0113615636e-05 1.5612281686e+00 -2.7041265102e+00 1.5612281686e+00 2.7041265102e+00 
136200 6.2254933772e+00 7.0412923238e-05 1.5612281686e+00 -2.7041265102e+00 1.5612281686e+00 2.7041265102e+00 
136300 6.2254933804e+00 7.0713374405e-05 1.5612281686e+00 -2.7041265102e+00 1.5612281686e+00 2.7041265102e+00 
136400 6.2254933834e+00 6.8026765589e-05 1.5612259039e+00 -2.7041225877e+00 1.5612259039e+00 2.7041225877e+00 
136500 6.2254933865e+00 6.8312402361e-05 1.5612259039e+00 -2.7041225877e+00 1.5612259039e+00 2.7041225877e+00 
136600 6.2254933896e+00 6.8598991805e-05 1.5612259039e+00 -2.7041225877e+00 1.5612259039e+00 2.7041225877e+00 
136700 6.2254933927e+00 6.8886541217e-05 1.5612259039e+00 -2.7041225877e+00 1.5612259039e+00 2.7041225877e+00 
136800 6.2254933957e+00 6.9175054291e-05 1.5612259039e+00 -2.7041225877e+00 1.5612259039e+00 2.7041225877e+00 
136900 6.2254933986e+00 6.9464531258e-05 1.5612259039e+00 -2.7041225877e+00 1.5612259039e+00 2.7041225877e+00 
137000 6.2254934015e+00 6.9754969015e-05 1.5612259039e+00 -2.7041225877e+00 1.5612259039e+00 2.7041225877e+00 
137100 6.2254934044e+00 7.0046361263e-05 1.5612259039e+00 -2.7041225877e+00 1.5612259039e+00 2.7041225877e+00 
137200 6.2254934072e+00 7.0338698638e-05 1.5612259039e+00 -2.7041225877e+00 1.5612259039e+00 2.7041225877e+00 
137300 6.2254934100e+00 7.0631968839e-05 1.5612259039e+00 -2.7041225877e+00 1.5612259039e+00 2.7041225877e+00 
137400 6.2254934127e+00 7.0926156755e-05 1.5612259039e+00 -2.7041225877e+00 1.5612259039e+00 2.7041225877e+00 
137500 6.2254934152e+00 6.8224053974e-05 1.5612236325e+00 -2.7041186534e+00 1.5612236325e+00 2.7041186534e+00 
137600 6.2254934179e+00 6.8502889981e-05 1.5612236325e+00 -2.7041186534e+00 1.5612236325e+00 2.7041186534e+00 
137700 6.2254934205e+00 6.8782419875e-05 1.5612236325e+00 -2.7041186534e+00 1.5612236325e+00 2.7041186534e+00 
137800 6.2254934231e+00 6.9062641459e-05 1.5612236325e+00 -2.7041186534e+00 1.5612236325e+00 2.7041186534e+00 
137900 6.2254934256e+00 6.9343549546e-05 1.5612236325e+00 -2.7041186534e+00 1.5612236325e+00 2.7041186534e+00 
138000 6.2254934282e+00 6.9625136088e-05 1.5612236325e+00 -2.7041186534e+00 1.5612236325e+00 2.7041186534e+00 
138100 6.2254934306e+00 6.9907390291e-05 1.5612236325e+00 -2.7041186534e+00 1.5612236325e+00 2.7041186534e+00 
138200 6.2254934331e+00 7.0190298748e-05 1.5612236325e+00 -2.7041186534e+00 1.5612236325e+00 2.7041186534e+00 
138300 6.2254934355e+00 7.0473845554e-05 1.5612236325e+00 -2.7041186534e+00 1.5612236325e+00 2.7041186534e+00 
138400 6.2254934379e+00 7.0758012421e-05 1.5612236325e+00 -2.7041186534e+00 1.5612236325e+00 2.7041186534e+00 
138500 6.2254934400e+00 6.8052689527e-05 1.5612213663e+00 -2.7041147284e+00 1.5612213663e+00 2.7041147284e+00 
138600 6.2254934423e+00 6.8320941412e-05 1.5612213663e+00 -2.7041147284e+00 1.5612213663e+00 2.7041147284e+00 
138700 6.2254934446e+00 6.8589582905e-05 1.5612213663e+00 -2.7041147284e+00 1.5612213663e+00 2.7041147284e+00 
138800 6.2254934468e+00 6.8858610193e-05 1.5612213663e+00 -2.7041147284e+00 1.5612213663e+00 2.7041147284e+00 
138900 6.2254934490e+00 6.9128016856e-05 1.5612213663e+00 -2.7041147284e+00 1.5612213663e+00 2.7041147284e+00 
139000 6.2254934512e+00 6.9397793985e-05 1.5612213663e+00 -2.7041147284e+00 1.5612213663e+00 2.7041147284e+00 
139100 6.2254934534e+00 6.9667930291e-05 1.5612213663e+00 -2.7041147284e+00 1.5612213663e+00 2.7041147284e+00 
139200 6.2254934555e+00 6.9938412223e-05 1.5612213663e+00 -2.7041147284e+00 1.5612213663e+00 2.7041147284e+00 
139300 6.2254934576e+00 7.0209224072e-05 1.5612213663e+00 -2.7041147284e+00 1.5612213663e+00 2.7041147284e+00 
139400 6.2254934596e+00 7.0480348089e-05 1.5612213663e+00 -2.7041147284e+00 1.5612213663e+00 2.7041147284e+00 
139500 6.2254934616e+00 7.0751764580e-05 1.5612213663e+00 -2.7041147284e+00 1.5612213663e+00 2.7041147284e+00 
139600 6.2254934634e+00 6.8033622396e-05 1.5612191004e+00 -2.7041108037e+00 1.5612191004e+00 2.7041108037e+00 
139700 6.2254934654e+00 6.8288467209e-05 1.5612191004e+00 -2.7041108037e+00 1.5612191004e+00 2.7041108037e+00 
139800 6.2254934673e+00 6.8543372411e-05 1.5612191004e+00 -2.7041108037e+00 1.5612191004e+00 2.7041108037e+00 
139900 6.2254934693e+00 6.8798334427e-05 1.5612191004e+00 -2.7041108037e+00 1.5612191004e+00 2.7041108037e+00 
140000 6.2254934711e+00 6.9053347458e-05 1.5612191004e+00 -2.7041108037e+00 1.5612191004e+00 2.7041108037e+00 
140100 6.2254934730e+00 6.9308403586e-05 1.5612191004e+00 -2.7041108037e+00 1.5612191004e+00 2.7041108037e+00 
140200 6.2254934748e+00 6.9563492877e-05 1.5612191004e+00 -2.7041108037e+00 1.5612191004e+00 2.7041108037e+00 
140300 6.2254934766e+00 6.9818603479e-05 1.5612191004e+00 -2.7041108037e+00 1.5612191004e+00 2.7041108037e+00 
140400 6.2254934784e+00 7.0073721725e-05 1.5612191004e+00 -2.7041108037e+00 1.5612191004e+00 2.7041108037e+00 
140500 6.2254934802e+00 7.0328832228e-05 1.5612191004e+00 -2.7041108037e+00 1.5612191004e+00 2.7041108037e+00 
140600 6.2254934819e+00 7.0583917980e-05 1.5612191004e+00 -2.7041108037e+00 1.5612191004e+00 2.7041108037e+00 
140700 6.2254934836e+00 7.0838960436e-05 1.5612191004e+00 -2.7041108037e+00 1.5612191004e+00 2.7041108037e+00 
140800 6.2254934851e+00 6.8100420436e-05 1.5612168317e+00 -2.7041068742e+00 1.5612168317e+00 2.7041068742e+00 
140900 6.2254934868e+00 6.8338203125e-05 1.5612168317e+00 -2.7041068742e+00 1.5612168317e+00 2.7041068742e+00 
141000 6.2254934884e+00 6.8575716048e-05 1.5612168317e+00 -2.7041068742e+00 1.5612168317e+00 2.7041068742e+00 
141100 6.2254934900e+00 6.8812958313e-05 1.5612168317e+00 -2.7041068742e+00 1.5612168317e+00 2.7041068742e+00 
141200 6.2254934916e+00 6.9049927145e-05 1.5612168317e+00 -2.7041068742e+00 1.5612168317e+00 2.7041068742e+00 
141300 6.2254934932e+00 6.9286617983e-05 1.5612168317e+00 -2.7041068742e+00 1.5612168317e+00 2.7041068742e+00 
141400 6.2254934947e+00 6.9523024562e-05 1.5612168317e+00 -2.7041068742e+00 1.5612168317e+00 2.7041068742e+00 
141500 6.2254934963e+00 6.9759139012e-05 1.5612168317e+00 -2.7041068742e+00 1.5612168317e+00 2.7041068742e+00 
141600 6.2254934978e+00 6.9994951935e-05 1.5612168317e+00 -2.7041068742e+00 1.5612168317e+00 2.7041068742e+00 
141700 6.2254934992e+00 7.0230452501e-05 1.5612168317e+00 -2.7041068742e+00 1.5612168317e+00 2.7041068742e+00 
141800 6.2254935007e+00 7.0465628517e-05 1.5612168317e+00 -2.7041068742e+00 1.5612168317e+00 2.7041068742e+00 
141900 6.2254935021e+00 7.0700466521e-05 1.5612168317e+00 -2.7041068742e+00 1.5612168317e+00 2.7041068742e+00 
142000 6.2254935036e+00 7.0934951855e-05 1.5612168317e+00 -2.7041068742e+00 1.5612168317e+00 2.7041068742e+00 
142100 6.2254935048e+00 6.8171487776e-05 1.5612145599e+00 -2.7041029393e+00 1.5612145599e+00 2.7041029393e+00 
142200 6.2254935061e+00 6.8388083850e-05 1.5612145599e+00 -2.7041029393e+00 1.5612145599e+00 2.7041029393e+00 
142300 6.2254935075e+00 6.8604114139e-05 1.5612145599e+00 -2.7041029393e+00 1.5612145599e+00 2.7041029393e+00 
142400 6.2254935088e+00 6.8819582869e-05 1.5612145599e+00 -2.7041029393e+00 1.5612145599e+00 2.7041029393e+00 
142500 6.2254935102e+00 6.9034492654e-05 1.5612145599e+00 -2.7041029393e+00 1.5612145599e+00 2.7041029393e+00 
142600 6.2254935115e+00 6.9248844579e-05 1.5612145599e+00 -2.7041029393e+00 1.5612145599e+00 2.7041029393e+00 
142700 6.2254935128e+00 6.9462638267e-05 1.5612145599e+00 -2.7041029393e+00 1.5612145599e+00 2.7041029393e+00 
142800 6.2254935140e+00 6.9675871964e-05 1.5612145599e+00 -2.7041029393e+00 1.5612145599e+00 2.7041029393e+00 
142900 6.2254935153e+00 6.9888542608e-05 1.5612145599e+00 -2.7041029393e+00 1.5612145599e+00 2.7041029393e+00 
143000 6.2254935165e+00 7.0100645902e-05 1.5612145599e+00 -2.7041029393e+00 1.5612145599e+00 2.7041029393e+00 
143100 6.2254935177e+00 7.0312176389e-05 1.5612145599e+00 -2.7041029393e+00 1.5612145599e+00 2.7041029393e+00 
143200 6.2254935189e+00 7.0523127515e-05 1.5612145599e+00 -2.7041029393e+00 1.5612145599e+00 2.7041029393e+00 
143300 6.2254935201e+00 7.0733491703e-05 1.5612145599e+00 -2.7041029393e+00 1.5612145599e+00 2.7041029393e+00 
143400 6.2254935211e+00 6.7954186453e-05 1.5612122946e+00 -2.7040990157e+00 1.5612122946e+00 2.7040990157e+00 
143500 6.2254935222e+00 6.8146262971e-05 1.5612122946e+00 -2.7040990157e+00 1.5612122946e+00 2.7040990157e+00 
143600 6.2254935234e+00 6.8337562071e-05 1.5612122946e+00 -2.7040990157e+00 1.5612122946e+00 2.7040990157e+00 
143700 6.2254935245e+00 6.8528095555e-05 1.5612122946e+00 -2.7040990157e+00 1.5612122946e+00 2.7040990157e+00 
143800 6.2254935256e+00 6.8717873728e-05 1.5612122946e+00 -2.7040990157e+00 1.5612122946e+00 2.7040990157e+00 
143900 6.2254935267e+00 6.8906905463e-05 1.5612122946e+00 -2.7040990157e+00 1.5612122946e+00 2.7040990157e+00 
144000 6.2254935278e+00 6.9095198273e-05 1.5612122946e+00 -2.7040990157e+00 1.5612122946e+00 2.7040990157e+00 
144100 6.2254935288e+00 6.9282758375e-05 1.5612122946e+00 -2.7040990157e+00 1.5612122946e+00 2.7040990157e+00 
144200 6.2254935299e+00 6.9469590752e-05 1.5612122946e+00 -2.7040990157e+00 1.5612122946e+00 2.7040990157e+00 
144300 6.2254935309e+00 6.9655699215e-05 1.5612122946e+00 -2.7040990157e+00 1.5612122946e+00 2.7040990157e+00 
144400 6.2254935319e+00 6.9841086471e-05 1.5612122946e+00 -2.7040990157e+00 1.5612122946e+00 2.7040990157e+00 
144500 6.2254935329e+00 7.0025754176e-05 1.5612122946e+00 -2.7040990157e+00 1.5612122946e+00 2.7040990157e+00 
144600 6.2254935339e+00 7.0209702996e-05 1.5612122946e+00 -2.7040990157e+00 1.5612122946e+00 2.7040990157e+00 
144700 6.2254935349e+00 7.0392932665e-05 1.5612122946e+00 -2.7040990157e+00 1.5612122946e+00 2.7040990157e+00 
144800 6.2254935359e+00 7.0575442042e-05 1.5612122946e+00 -2.7040990157e+00 1.5612122946e+00 2.7040990157e+00 
144900 6.2254935368e+00 7.0757229161e-05 1.5612122946e+00 -2.7040990157e+00 1.5612122946e+00 2.7040990157e+00 
145000 6.2254935375e+00 6.7948208496e-05 1.5612100285e+00 -2.7040950907e+00 1.5612100285e+00 2.7040950907e+00 
145100 6.2254935385e+00 6.8111448740e-05 1.5612100285e+00 -2.7040950907e+00 1.5612100285e+00 2.7040950907e+00 
145200 6.2254935394e+00 6.8273794165e-05 1.5612100285e+00 -2.7040950907e+00 1.5612100285e+00 2.7040950907e+00 
145300 6.2254935403e+00 6.8435262879e-05 1.5612100285e+00 -2.7040950907e+00 1.5612100285e+00 2.7040950907e+00 
145400 6.2254935412e+00 6.8595871631e-05 1.5612100285e+00 -2.7040950907e+00 1.5612100285e+00 2.7040950907e+00 
145500 6.2254935420e+00 6.8755635867e-05 1.5612100285e+00 -2.7040950907e+00 1.5612100285e+00 2.7040950907e+00 
145600 6.2254935429e+00 6.8914569790e-05 1.5612100285e+00 -2.7040950907e+00 1.5612100285e+00 2.7040950907e+00 
145700 6.2254935437e+00 6.9072686412e-05 1.5612100285e+00 -2.7040950907e+00 1.5612100285e+00 2.7040950907e+00 
145800 6.2254935446e+00 6.9229997602e-05 1.5612100285e+00 -2.7040950907e+00 1.5612100285e+00 2.7040950907e+00 
145900 6.2254935454e+00 6.9386514145e-05 1.5612100285e+00 -2.7040950907e+00 1.5612100285e+00 2.7040950907e+00 
146000 6.2254935462e+00 6.9542245790e-05 1.5612100285e+00 -2.7040950907e+00 1.5612100285e+00 2.7040950907e+00 
146100 6.2254935470e+00 6.9697201295e-05 1.5612100285e+00 -2.7040950907e+00 1.5612100285e+00 2.7040950907e+00 
146200 6.2254935478e+00 6.9851388485e-05 1.5612100285e+00 -2.7040950907e+00 1.5612100285e+00 2.7040950907e+00 
146300 6.2254935486e+00 7.0004814294e-05 1.5612100285e+00 -2.7040950907e+00 1.5612100285e+00 2.7040950907e+00 
146400 6.2254935494e+00 7.0157484806e-05 1.5612100285e+00 -2.7040950907e+00 1.5612100285e+00 2.7040950907e+00 
146500 6.2254935501e+00 7.0309405312e-05 1.5612100285e+00 -2.7040950907e+00 1.5612100285e+00 2.7040950907e+00 
146600 6.2254935509e+00 7.0460580341e-05 1.5612100285e+00 -2.7040950907e+00 1.5612100285e+00 2.7040950907e+00 
146700 6.2254935516e+00 7.0611013713e-05 1.5612100285e+00 -2.7040950907e+00 1.5612100285e+00 2.7040950907e+00 
146800 6.2254935524e+00 7.0760708574e-05 1.5612100285e+00 -2.7040950907e+00 1.5612100285e+00 2.7040950907e+00 
146900 6.2254935529e+00 6.7919432077e-05 1.5612077623e+00 -2.7040911655e+00 1.5612077623e+00 2.7040911655e+00 
147000 6.2254935536e+00 6.8050562188e-05 1.5612077623e+00 -2.7040911655e+00 1.5612077623e+00 2.7040911655e+00 
147100 6.2254935543e+00 6.8180797374e-05 1.5612077623e+00 -2.7040911655e+00 1.5612077623e+00 2.7040911655e+00 
147200 6.2254935550e+00 6.8310161334e-05 1.5612077623e+00 -2.7040911655e+00 1.5612077623e+00 2.7040911655e+00 
147300 6.2254935557e+00 6.8438676500e-05 1.5612077623e+00 -2.7040911655e+00 1.5612077623e+00 2.7040911655e+00 
147400 6.2254935564e+00 6.8566364077e-05 1.5612077623e+00 -2.7040911655e+00 1.5612077623e+00 2.7040911655e+00 
147500 6.2254935570e+00 6.8693244100e-05 1.5612077623e+00 -2.7040911655e+00 1.5612077623e+00 2.7040911655e+00 
147600 6.2254935577e+00 6.8819335463e-05 1.5612077623e+00 -2.7040911655e+00 1.5612077623e+00 2.7040911655e+00 
147700 6.2254935583e+00 6.8944655973e-05 1.5612077623e+00 -2.7040911655e+00 1.5612077623e+00 2.7040911655e+00 
147800 6.2254935590e+00 6.9069222387e-05 1.5612077623e+00 -2.7040911655e+00 1.5612077623e+00 2.7040911655e+00 
147900 6.2254935596e+00 6.9193050452e-05 1.5612077623e+00 -2.7040911655e+00 1.5612077623e+00 2.7040911655e+00 
148000 6.2254935602e+00 6.9316154948e-05 1.5612077623e+00 -2.7040911655e+00 1.5612077623e+00 2.7040911655e+00 
148100 6.2254935608e+00 6.9438549727e-05 1.5612077623e+00 -2.7040911655e+00 1.5612077623e+00 2.7040911655e+00 
148200 6.2254935614e+00 6.9560247749e-05 1.5612077623e+00 -2.7040911655e+00 1.5612077623e+00 2.7040911655e+00 
148300 6.2254935620e+00 6.9681261123e-05 1.5612077623e+00 -2.7040911655e+00 1.5612077623e+00 2.7040911655e+00 
148400 6.2254935626e+00 6.9801601140e-05 1.5612077623e+00 -2.7040911655e+00 1.5612077623e+00 2.7040911655e+00 
148500 6.2254935632e+00 6.9921278311e-05 1.5612077623e+00 -2.7040911655e+00 1.5612077623e+00 2.7040911655e+00 
148600 6.2254935638e+00 7.0040302404e-05 1.5612077623e+00 -2.7040911655e+00 1.5612077623e+00 2.7040911655e+00 
148700 6.2254935644e+00 7.0158682476e-05 1.5612077623e+00 -2.7040911655e+00 1.5612077623e+00 2.7040911655e+00 
148800 6.2254935649e+00 7.0276426904e-05 1.5612077623e+00 -2.7040911655e+00 1.5612077623e+00 2.7040911655e+00 
148900 6.2254935655e+00 7.0393543422e-05 1.5612077623e+00 -2.7040911655e+00 1.5612077623e+00 2.7040911655e+00 
149000 6.2254935660e+00 7.0510039149e-05 1.5612077623e+00 -2.7040911655e+00 1.5612077623e+00 2.7040911655e+00 
149100 6.2254935666e+00 7.0625920624e-05 1.5612077623e+00 -2.7040911655e+00 1.5612077623e+00 2.7040911655e+00 
149200 6.2254935671e+00 7.0741193828e-05 1.5612077623e+00 -2.7040911655e+00 1.5612077623e+00 2.7040911655e+00 
149300 6.2254935674e+00 6.7866448499e-05 1.5612054967e+00 -2.7040872414e+00 1.5612054967e+00 2.7040872414e+00 
149400 6.2254935679e+00 6.7963430675e-05 1.5612054967e+00 -2.7040872414e+00 1.5612054967e+00 2.7040872414e+00 
149500 6.2254935684e+00 6.8059657364e-05 1.5612054967e+00 -2.7040872414e+00 1.5612054967e+00 2.7040872414e+00 
149600 6.2254935689e+00 6.8155155463e-05 1.5612054967e+00 -2.7040872414e+00 1.5612054967e+00 2.7040872414e+00 
149700 6.2254935694e+00 6.8249950658e-05 1.5612054967e+00 -2.7040872414e+00 1.5612054967e+00 2.7040872414e+00 
149800 6.2254935699e+00 6.8344067472e-05 1.5612054967e+00 -2.7040872414e+00 1.5612054967e+00 2.7040872414e+00 
149900 6.2254935704e+00 6.8437529296e-05 1.5612054967e+00 -2.7040872414e+00 1.5612054967e+00 2.7040872414e+00 
150000 6.2254935709e+00 6.8530358425e-05 1.5612054967e+00 -2.7040872414e+00 1.5612054967e+00 2.7040872414e+00 
150100 6.2254935713e+00 6.8622576091e-05 1.5612054967e+00 -2.7040872414e+00 1.5612054967e+00 2.7040872414e+00 
150200 6.2254935718e+00 6.8714202494e-05 1.5612054967e+00 -2.7040872414e+00 1.5612054967e+00 2.7040872414e+00 
150300 6.2254935723e+00 6.8805256839e-05 1.5612054967e+00 -2.7040872414e+00 1.5612054967e+00 2.7040872414e+00 
150400 6.2254935727e+00 6.8895757363e-05 1.5612054967e+00 -2.7040872414e+00 1.5612054967e+00 2.7040872414e+00 
150500 6.2254935732e+00 6.8985721372e-05 1.5612054967e+00 -2.7040872414e+00 1.5612054967e+00 2.7040872414e+00 
150600 6.2254935736e+00 6.9075165270e-05 1.5612054967e+00 -2.7040872414e+00 1.5612054967e+00 2.7040872414e+00 
150700 6.2254935740e+00 6.9164104588e-05 1.5612054967e+00 -2.7040872414e+00 1.5612054967e+00 2.7040872414e+00 
150800 6.2254935745e+00 6.9252554013e-05 1.5612054967e+00 -2.7040872414e+00 1.5612054967e+00 2.7040872414e+00 
150900 6.2254935749e+00 6.9340527426e-05 1.5612054967e+00 -2.7040872414e+00 1.5612054967e+00 2.7040872414e+00 
151000 6.2254935753e+00 6.9428037919e-05 1.5612054967e+00 -2.7040872414e+00 1.5612054967e+00 2.7040872414e+00 
151100 6.2254935757e+00 6.9515097830e-05 1.5612054967e+00 -2.7040872414e+00 1.5612054967e+00 2.7040872414e+00 
151200 6.2254935761e+00 6.9601718770e-05 1.5612054967e+00 -2.7040872414e+00 1.5612054967e+00 2.7040872414e+00 
151300 6.2254935765e+00 6.9687911653e-05 1.5612054967e+00 -2.7040872414e+00 1.5612054967e+00 2.7040872414e+00 
151400 6.2254935769e+00 6.9773686712e-05 1.5612054967e+00 -2.7040872414e+00 1.5612054967e+00 2.7040872414e+00 
151500 6.2254935773e+00 6.9859053540e-05 1.5612054967e+00 -2.7040872414e+00 1.5612054967e+00 2.7040872414e+00 
151600 6.2254935777e+00 6.9944021099e-05 1.5612054967e+00 -2.7040872414e+00 1.5612054967e+00 2.7040872414e+00 
151700 6.2254935781e+00 7.0028597758e-05 1.5612054967e+00 -2.7040872414e+00 1.5612054967e+00 2.7040872414e+00 
151800 6.2254935785e+00 7.0112791318e-05 1.5612054967e+00 -2.7040872414e+00 1.5612054967e+00 2.7040872414e+00 
151900 6.2254935788e+00 7.0196609019e-05 1.5612054967e+00 -2.7040872414e+00 1.5612054967e+00 2.7040872414e+00 
152000 6.2254935792e+00 7.0280057580e-05 1.5612054967e+00 -2.7040872414e+00 1.5612054967e+00 2.7040872414e+00 
152100 6.2254935796e+00 7.0363143219e-05 1.5612054967e+00 -2.7040872414e+00 1.5612054967e+00 2.7040872414e+00 
152200 6.2254935799e+00 7.0445871663e-05 1.5612054967e+00 -2.7040872414e+00 1.5612054967e+00 2.7040872414e+00 
152300 6.2254935803e+00 7.0528248187e-05 1.5612054967e+00 -2.7040872414e+00 1.5612054967e+00 2.7040872414e+00 
152400 6.2254935806e+00 7.0610277618e-05 1.5612054967e+00 -2.7040872414e+00 1.5612054967e+00 2.7040872414e+00 
152500 6.2254935810e+00 7.0691964373e-05 1.5612054967e+00 -2.7040872414e+00 1.5612054967e+00 2.7040872414e+00 
152600 6.2254935813e+00 7.0773312457e-05 1.5612054967e+00 -2.7040872414e+00 1.5612054967e+00 2.7040872414e+00 
152700 6.2254935814e+00 6.7863548459e-05 1.5612032301e+00 -2.7040833154e+00 1.5612032301e+00 2.7040833154e+00 
152800 6.2254935818e+00 6.7927131154e-05 1.5612032301e+00 -2.7040833154e+00 1.5612032301e+00 2.7040833154e+00 
152900 6.2254935821e+00 6.7990222830e-05 1.5612032301e+00 -2.7040833154e+00 1.5612032301e+00 2.7040833154e+00 
153000 6.2254935824e+00 6.8052848929e-05 1.5612032301e+00 -2.7040833154e+00 1.5612032301e+00 2.7040833154e+00 
153100 6.2254935827e+00 6.8115033793e-05 1.5612032301e+00 -2.7040833154e+00 1.5612032301e+00 2.7040833154e+00 
153200 6.2254935830e+00 6.8176800696e-05 1.5612032301e+00 -2.7040833154e+00 1.5612032301e+00 2.7040833154e+00 
153300 6.2254935833e+00 6.8238171871e-05 1.5612032301e+00 -2.7040833154e+00 1.5612032301e+00 2.7040833154e+00 
153400 6.2254935836e+00 6.8299168531e-05 1.5612032301e+00 -2.7040833154e+00 1.5612032301e+00 2.7040833154e+00 
153500 6.2254935839e+00 6.8359810907e-05 1.5612032301e+00 -2.7040833154e+00 1.5612032301e+00 2.7040833154e+00 
153600 6.2254935842e+00 6.8420118257e-05 1.5612032301e+00 -2.7040833154e+00 1.5612032301e+00 2.7040833154e+00 
153700 6.2254935845e+00 6.8480108909e-05 1.5612032301e+00 -2.7040833154e+00 1.5612032301e+00 2.7040833154e+00 
153800 6.2254935848e+00 6.8539800274e-05 1.5612032301e+00 -2.7040833154e+00 1.5612032301e+00 2.7040833154e+00 
153900 6.2254935851e+00 6.8599208875e-05 1.5612032301e+00 -2.7040833154e+00 1.5612032301e+00 2.7040833154e+00 
154000 6.2254935854e+00 6.8658350376e-05 1.5612032301e+00 -2.7040833154e+00 1.5612032301e+00 2.7040833154e+00 
154100 6.2254935857e+00 6.8717239601e-05 1.5612032301e+00 -2.7040833154e+00 1.5612032301e+00 2.7040833154e+00 
154200 6.2254935859e+00 6.8775890564e-05 1.5612032301e+00 -2.7040833154e+00 1.5612032301e+00 2.7040833154e+00 
154300 6.2254935862e+00 6.8834316484e-05 1.5612032301e+00 -2.7040833154e+00 1.5612032301e+00 2.7040833154e+00 
154400 6.2254935865e+00 6.8892529819e-05 1.5612032301e+00 -2.7040833154e+00 1.5612032301e+00 2.7040833154e+00 
154500 6.2254935867e+00 6.8950542282e-05 1.5612032301e+00 -2.7040833154e+00 1.5612032301e+00 2.7040833154e+00 
154600 6.2254935870e+00 6.9008364867e-05 1.5612032301e+00 -2.7040833154e+00 1.5612032301e+00 2.7040833154e+00 
154700 6.2254935873e+00 6.9066007875e-05 1.5612032301e+00 -2.7040833154e+00 1.5612032301e+00 2.7040833154e+00 
154800 6.2254935875e+00 6.9123480928e-05 1.5612032301e+00 -2.7040833154e+00 1.5612032301e+00 2.7040833154e+00 
154900 6.2254935878e+00 6.9180792999e-05 1.5612032301e+00 -2.7040833154e+00 1.5612032301e+00 2.7040833154e+00 
155000 6.2254935880e+00 6.9237952431e-05 1.5612032301e+00 -2.7040833154e+00 1.5612032301e+00 2.7040833154e+00 
155100 6.2254935883e+00 6.9294966955e-05 1.5612032301e+00 -2.7040833154e+00 1.5612032301e+00 2.7040833154e+00 
155200 6.2254935885e+00 6.9351843716e-05 1.5612032301e+00 -2.7040833154e+00 1.5612032301e+00 2.7040833154e+00 
155300 6.2254935887e+00 6.9408589292e-05 1.5612032301e+00 -2.7040833154e+00 1.5612032301e+00 2.7040833154e+00 
155400 6.2254935890e+00 6.9465209711e-05 1.5612032301e+00 -2.7040833154e+00 1.5612032301e+00 2.7040833154e+00 
155500 6.2254935892e+00 6.9521710476e-05 1.5612032301e+00 -2.7040833154e+00 1.5612032301e+00 2.7040833154e+00 
155600 6.2254935894e+00 6.9578096583e-05 1.5612032301e+00 -2.7040833154e+00 1.5612032301e+00 2.7040833154e+00 
155700 6.2254935897e+00 6.9634372537e-05 1.5612032301e+00 -2.7040833154e+00 1.5612032301e+00 2.7040833154e+00 
155800 6.2254935899e+00 6.9690542373e-05 1.5612032301e+00 -2.7040833154e+00 1.5612032301e+00 2.7040833154e+00 
155900 6.2254935901e+00 6.9746609677e-05 1.5612032301e+00 -2.7040833154e+00 1.5612032301e+00 2.7040833154e+00 
156000 6.2254935903e+00 6.9802577597e-05 1.5612032301e+00 -2.7040833154e+00 1.5612032301e+00 2.7040833154e+00 
156100 6.2254935905e+00 6.9858448868e-05 1.5612032301e+00 -2.7040833154e+00 1.5612032301e+00 2.7040833154e+00 
156200 6.2254935907e+00 6.9914225827e-05 1.5612032301e+00 -2.7040833154e+00 1.5612032301e+00 2.7040833154e+00 
156300 6.2254935910e+00 6.9969910427e-05 1.5612032301e+00 -2.7040833154e+00 1.5612032301e+00 2.7040833154e+00 
156400 6.2254935912e+00 7.0025504257e-05 1.5612032301e+00 -2.7040833154e+00 1.5612032301e+00 2.7040833154e+00 
156500 6.2254935914e+00 7.0081008557e-05 1.5612032301e+00 -2.7040833154e+00 1.5612032301e+00 2.7040833154e+00 
156600 6.2254935916e+00 7.0136424234e-05 1.5612032301e+00 -2.7040833154e+00 1.5612032301e+00 2.7040833154e+00 
156700 6.2254935918e+00 7.0191751875e-05 1.5612032301e+00 -2.7040833154e+00 1.5612032301e+00 2.7040833154e+00 
156800 6.2254935920e+00 7.0246991765e-05 1.5612032301e+00 -2.7040833154e+00 1.5612032301e+00 2.7040833154e+00 
156900 6.2254935921e+00 7.0302143902e-05 1.5612032301e+00 -2.7040833154e+00 1.5612032301e+00 2.7040833154e+00 
157000 6.2254935923e+00 7.0357208007e-05 1.5612032301e+00 -2.7040833154e+00 1.5612032301e+00 2.7040833154e+00 
157100 6.2254935925e+00 7.0412183544e-05 1.5612032301e+00 -2.7040833154e+00 1.5612032301e+00 2.7040833154e+00 
157200 6.2254935927e+00 7.0467069731e-05 1.5612032301e+00 -2.7040833154e+00 1.5612032301e+00 2.7040833154e+00 
157300 6.2254935929e+00 7.0521865547e-05 1.5612032301e+00 -2.7040833154e+00 1.5612032301e+00 2.7040833154e+00 
157400 6.2254935931e+00 7.0576569759e-05 1.5612032301e+00 -2.7040833154e+00 1.5612032301e+00 2.7040833154e+00 
157500 6.2254935933e+00 7.0631180918e-05 1.5612032301e+00 -2.7040833154e+00 1.5612032301e+00 2.7040833154e+00 
157600 6.2254935934e+00 7.0685697387e-05 1.5612032301e+00 -2.7040833154e+00 1.5612032301e+00 2.7040833154e+00 
157700 6.2254935936e+00 7.0740117339e-05 1.5612032301e+00 -2.7040833154e+00 1.5612032301e+00 2.7040833154e+00 
157800 6.2254935936e+00 6.7805060656e-05 1.5612009645e+00 -2.7040793914e+00 1.5612009645e+00 2.7040793914e+00 
157900 6.2254935937e+00 6.7842190392e-05 1.5612009645e+00 -2.7040793914e+00 1.5612009645e+00 2.7040793914e+00 
158000 6.2254935939e+00 6.7879055103e-05 1.5612009645e+00 -2.7040793914e+00 1.5612009645e+00 2.7040793914e+00 
158100 6.2254935941e+00 6.7915675169e-05 1.5612009645e+00 -2.7040793914e+00 1.5612009645e+00 2.7040793914e+00 
158200 6.2254935942e+00 6.7952070059e-05 1.5612009645e+00 -2.7040793914e+00 1.5612009645e+00 2.7040793914e+00 
158300 6.2254935944e+00 6.7988258347e-05 1.5612009645e+00 -2.7040793914e+00 1.5612009645e+00 2.7040793914e+00 
158400 6.2254935946e+00 6.8024257727e-05 1.5612009645e+00 -2.7040793914e+00 1.5612009645e+00 2.7040793914e+00 
158500 6.2254935947e+00 6.8060085043e-05 1.5612009645e+00 -2.7040793914e+00 1.5612009645e+00 2.7040793914e+00 
158600 6.2254935949e+00 6.8095756304e-05 1.5612009645e+00 -2.7040793914e+00 1.5612009645e+00 2.7040793914e+00 
158700 6.2254935950e+00 6.8131286703e-05 1.5612009645e+00 -2.7040793914e+00 1.5612009645e+00 2.7040793914e+00 
158800 6.2254935952e+00 6.8166690641e-05 1.5612009645e+00 -2.7040793914e+00 1.5612009645e+00 2.7040793914e+00 
158900 6.2254935953e+00 6.8201981741e-05 1.5612009645e+00 -2.7040793914e+00 1.5612009645e+00 2.7040793914e+00 
159000 6.2254935955e+00 6.8237172876e-05 1.5612009645e+00 -2.7040793914e+00 1.5612009645e+00 2.7040793914e+00 
159100 6.2254935956e+00 6.8272276182e-05 1.5612009645e+00 -2.7040793914e+00 1.5612009645e+00 2.7040793914e+00 
159200 6.2254935958e+00 6.8307303080e-05 1.5612009645e+00 -2.7040793914e+00 1.5612009645e+00 2.7040793914e+00 
159300 6.2254935959e+00 6.8342264294e-05 1.5612009645e+00 -2.7040793914e+00 1.5612009645e+00 2.7040793914e+00 
159400 6.2254935961e+00 6.8377169877e-05 1.5612009645e+00 -2.7040793914e+00 1.5612009645e+00 2.7040793914e+00 
159500 6.2254935962e+00 6.8412029220e-05 1.5612009645e+00 -2.7040793914e+00 1.5612009645e+00 2.7040793914e+00 
159600 6.2254935963e+00 6.8446851078e-05 1.5612009645e+00 -2.7040793914e+00 1.5612009645e+00 2.7040793914e+00 
159700 6.2254935965e+00 6.8481643589e-05 1.5612009645e+00 -2.7040793914e+00 1.5612009645e+00 2.7040793914e+00 
159800 6.2254935966e+00 6.8516414287e-05 1.5612009645e+00 -2.7040793914e+00 1.5612009645e+00 2.7040793914e+00 
159900 6.2254935967e+00 6.8551170128e-05 1.5612009645e+00 -2.7040793914e+00 1.5612009645e+00 2.7040793914e+00 
160000 6.2254935969e+00 6.8585917502e-05 1.5612009645e+00 -2.7040793914e+00 1.5612009645e+00 2.7040793914e+00 
160100 6.2254935970e+00 6.8620662258e-05 1.5612009645e+00 -2.7040793914e+00 1.5612009645e+00 2.7040793914e+00 
160200 6.2254935971e+00 6.8655409709e-05 1.5612009645e+00 -2.7040793914e+00 1.5612009645e+00 2.7040793914e+00 
160300 6.2254935972e+00 6.8690164670e-05 1.5612009645e+00 -2.7040793914e+00 1.5612009645e+00 2.7040793914e+00 
160400 6.2254935974e+00 6.8724931455e-05 1.5612009645e+00 -2.7040793914e+00 1.5612009645e+00 2.7040793914e+00 
160500 6.2254935975e+00 6.8759713908e-05 1.5612009645e+00 -2.7040793914e+00 1.5612009645e+00 2.7040793914e+00 
160600 6.2254935976e+00 6.8794515412e-05 1.5612009645e+00 -2.7040793914e+00 1.5612009645e+00 2.7040793914e+00 
160700 6.2254935977e+00 6.8829338910e-05 1.5612009645e+00 -2.7040793914e+00 1.5612009645e+00 2.7040793914e+00 
160800 6.2254935978e+00 6.8864186922e-05 1.5612009645e+00 -2.7040793914e+00 1.5612009645e+00 2.7040793914e+00 
160900 6.2254935980e+00 6.8899061556e-05 1.5612009645e+00 -2.7040793914e+00 1.5612009645e+00 2.7040793914e+00 
161000 6.2254935981e+00 6.8933964532e-05 1.5612009645e+00 -2.7040793914e+00 1.5612009645e+00 2.7040793914e+00 
161100 6.2254935982e+00 6.8968897188e-05 1.5612009645e+00 -2.7040793914e+00 1.5612009645e+00 2.7040793914e+00 
161200 6.2254935983e+00 6.9003860506e-05 1.5612009645e+00 -2.7040793914e+00 1.5612009645e+00 2.7040793914e+00 
161300 6.2254935984e+00 6.9038855117e-05 1.5612009645e+00 -2.7040793914e+00 1.5612009645e+00 2.7040793914e+00 
161400 6.2254935985e+00 6.9073881324e-05 1.5612009645e+00 -2.7040793914e+00 1.5612009645e+00 2.7040793914e+00 
161500 6.2254935986e+00 6.9108939110e-05 1.5612009645e+00 -2.7040793914e+00 1.5612009645e+00 2.7040793914e+00 
161600 6.2254935987e+00 6.9144028160e-05 1.5612009645e+00 -2.7040793914e+00 1.5612009645e+00 2.7040793914e+00 
161700 6.2254935988e+00 6.9179147868e-05 1.5612009645e+00 -2.7040793914e+00 1.5612009645e+00 2.7040793914e+00 
161800 6.2254935989e+00 6.9214297352e-05 1.5612009645e+00 -2.7040793914e+00 1.5612009645e+00 2.7040793914e+00 
161900 6.2254935990e+00 6.9249475472e-05 1.5612009645e+00 -2.7040793914e+00 1.5612009645e+00 2.7040793914e+00 
162000 6.2254935991e+00 6.9284680839e-05 1.5612009645e+00 -2.7040793914e+00 1.5612009645e+00 2.7040793914e+00 
162100 6.2254935992e+00 6.9319911826e-05 1.5612009645e+00 -2.7040793914e+00 1.5612009645e+00 2.7040793914e+00 
162200 6.2254935993e+00 6.9355166588e-05 1.5612009645e+00 -2.7040793914e+00 1.5612009645e+00 2.7040793914e+00 
162300 6.2254935994e+00 6.9390443069e-05 1.5612009645e+00 -2.7040793914e+00 1.5612009645e+00 2.7040793914e+00 
162400 6.2254935995e+00 6.9425739011e-05 1.5612009645e+00 -2.7040793914e+00 1.5612009645e+00 2.7040793914e+00 
162500 6.2254935996e+00 6.9461051974e-05 1.5612009645e+00 -2.7040793914e+00 1.5612009645e+00 2.7040793914e+00 
162600 6.2254935997e+00 6.9496379342e-05 1.5612009645e+00 -2.7040793914e+00 1.5612009645e+00 2.7040793914e+00 
162700 6.2254935998e+00 6.9531718334e-05 1.5612009645e+00 -2.7040793914e+00 1.5612009645e+00 2.7040793914e+00 
162800 6.2254935999e+00 6.9567066014e-05 1.5612009645e+00 -2.7040793914e+00 1.5612009645e+00 2.7040793914e+00 
162900 6.2254936000e+00 6.9602419311e-05 1.5612009645e+00 -2.7040793914e+00 1.5612009645e+00 2.7040793914e+00 
163000 6.2254936001e+00 6.9637775014e-05 1.5612009645e+00 -2.7040793914e+00 1.5612009645e+00 2.7040793914e+00 
163100 6.2254936002e+00 6.9673129797e-05 1.5612009645e+00 -2.7040793914e+00 1.5612009645e+00 2.7040793914e+00 
163200 6.2254936002e+00 6.9708480215e-05 1.5612009645e+00 -2.7040793914e+00 1.5612009645e+00 2.7040793914e+00 
163300 6.2254936003e+00 6.9743822724e-05 1.5612009645e+00 -2.7040793914e+00 1.5612009645e+00 2.7040793914e+00 
163400 6.2254936004e+00 6.9779153686e-05 1.5612009645e+00 -2.7040793914e+00 1.5612009645e+00 2.7040793914e+00 
163500 6.2254936005e+00 6.9814469378e-05 1.5612009645e+00 -2.7040793914e+00 1.5612009645e+00 2.7040793914e+00 
163600 6.2254936006e+00 6.9849766000e-05 1.5612009645e+00 -2.7040793914e+00 1.5612009645e+00 2.7040793914e+00 
163700 6.2254936007e+00 6.9885039686e-05 1.5612009645e+00 -2.7040793914e+00 1.5612009645e+00 2.7040793914e+00 
163800 6.2254936007e+00 6.9920286507e-05 1.5612009645e+00 -2.7040793914e+00 1.5612009645e+00 2.7040793914e+00 
163900 6.2254936008e+00 6.9955502489e-05 1.5612009645e+00 -2.7040793914e+00 1.5612009645e+00 2.7040793914e+00 
164000 6.2254936009e+00 6.9990683604e-05 1.5612009645e+00 -2.7040793914e+00 1.5612009645e+00 2.7040793914e+00 
164100 6.2254936010e+00 7.0025825795e-05 1.5612009645e+00 -2.7040793914e+00 1.5612009645e+00 2.7040793914e+00 
164200 6.2254936011e+00 7.0060924971e-05 1.5612009645e+00 -2.7040793914e+00 1.5612009645e+00 2.7040793914e+00 
164300 6.2254936011e+00 7.0095977018e-05 1.5612009645e+00 -2.7040793914e+00 1.5612009645e+00 2.7040793914e+00 
164400 6.2254936012e+00 7.0130977808e-05 1.5612009645e+00 -2.7040793914e+00 1.5612009645e+00 2.7040793914e+00 
164500 6.2254936013e+00 7.0165923199e-05 1.5612009645e+00 -2.7040793914e+00 1.5612009645e+00 2.7040793914e+00 
164600 6.2254936014e+00 7.0200809047e-05 1.5612009645e+00 -2.7040793914e+00 1.5612009645e+00 2.7040793914e+00 
164700 6.2254936014e+00 7.0235631210e-05 1.5612009645e+00 -2.7040793914e+00 1.5612009645e+00 2.7040793914e+00 
164800 6.2254936015e+00 7.0270385551e-05 1.5612009645e+00 -2.7040793914e+00 1.5612009645e+00 2.7040793914e+00 
164900 6.2254936016e+00 7.0305067944e-05 1.5612009645e+00 -2.7040793914e+00 1.5612009645e+00 2.7040793914e+00 
165000 6.2254936016e+00 7.0339674285e-05 1.5612009645e+00 -2.7040793914e+00 1.5612009645e+00 2.7040793914e+00 
165100 6.2254936017e+00 7.0374200490e-05 1.5612009645e+00 -2.7040793914e+00 1.5612009645e+00 2.7040793914e+00 
165200 6.2254936018e+00 7.0408642500e-05 1.5612009645e+00 -2.7040793914e+00 1.5612009645e+00 2.7040793914e+00 
165300 6.2254936018e+00 7.0442996290e-05 1.5612009645e+00 -2.7040793914e+00 1.5612009645e+00 2.7040793914e+00 
165400 6.2254936019e+00 7.0477257871e-05 1.5612009645e+00 -2.7040793914e+00 1.5612009645e+00 2.7040793914e+00 
165500 6.2254936020e+00 7.0511423292e-05 1.5612009645e+00 -2.7040793914e+00 1.5612009645e+00 2.7040793914e+00 
165600 6.2254936020e+00 7.0545488645e-05 1.5612009645e+00 -2.7040793914e+00 1.5612009645e+00 2.7040793914e+00 
165700 6.2254936021e+00 7.0579450073e-05 1.5612009645e+00 -2.7040793914e+00 1.5612009645e+00 2.7040793914e+00 
165800 6.2254936022e+00 7.0613303763e-05 1.5612009645e+00 -2.7040793914e+00 1.5612009645e+00 2.7040793914e+00 
165900 6.2254936022e+00 7.0647045961e-05 1.5612009645e+00 -2.7040793914e+00 1.5612009645e+00 2.7040793914e+00 
166000 6.2254936023e+00 7.0680672970e-05 1.5612009645e+00 -2.7040793914e+00 1.5612009645e+00 2.7040793914e+00 
166100 6.2254936023e+00 7.0714181150e-05 1.5612009645e+00 -2.7040793914e+00 1.5612009645e+00 2.7040793914e+00 
166200 6.2254936022e+00 6.7759279151e-05 1.5611986998e+00 -2.7040754687e+00 1.5611986998e+00 2.7040754687e+00 
166300 6.2254936023e+00 6.7775453767e-05 1.5611986998e+00 -2.7040754687e+00 1.5611986998e+00 2.7040754687e+00 
166400 6.2254936023e+00 6.7791337076e-05 1.5611986998e+00 -2.7040754687e+00 1.5611986998e+00 2.7040754687e+00 
166500 6.2254936024e+00 6.7806948525e-05 1.5611986998e+00 -2.7040754687e+00 1.5611986998e+00 2.7040754687e+00 
166600 6.2254936024e+00 6.7822306845e-05 1.5611986998e+00 -2.7040754687e+00 1.5611986998e+00 2.7040754687e+00 
166700 6.2254936025e+00 6.7837430066e-05 1.5611986998e+00 -2.7040754687e+00 1.5611986998e+00 2.7040754687e+00 
166800 6.2254936025e+00 6.7852335528e-05 1.5611986998e+00 -2.7040754687e+00 1.5611986998e+00 2.7040754687e+00 
166900 6.2254936026e+00 6.7867039897e-05 1.5611986998e+00 -2.7040754687e+00 1.5611986998e+00 2.7040754687e+00 
167000 6.2254936026e+00 6.7881559171e-05 1.5611986998e+00 -2.7040754687e+00 1.5611986998e+00 2.7040754687e+00 
167100 6.2254936027e+00 6.7895908699e-05 1.5611986998e+00 -2.7040754687e+00 1.5611986998e+00 2.7040754687e+00 
167200 6.2254936028e+00 6.7910103193e-05 1.5611986998e+00 -2.7040754687e+00 1.5611986998e+00 2.7040754687e+00 
167300 6.2254936028e+00 6.7924156736e-05 1.5611986998e+00 -2.7040754687e+00 1.5611986998e+00 2.7040754687e+00 
167400 6.2254936029e+00 6.7938082803e-05 1.5611986998e+00 -2.7040754687e+00 1.5611986998e+00 2.7040754687e+00 
167500 6.2254936029e+00 6.7951894266e-05 1.5611986998e+00 -2.7040754687e+00 1.5611986998e+00 2.7040754687e+00 
167600 6.2254936030e+00 6.7965603410e-05 1.5611986998e+00 -2.7040754687e+00 1.5611986998e+00 2.7040754687e+00 
167700 6.2254936030e+00 6.7979221951e-05 1.5611986998e+00 -2.7040754687e+00 1.5611986998e+00 2.7040754687e+00 
167800 6.2254936031e+00 6.7992761041e-05 1.5611986998e+00 -2.7040754687e+00 1.5611986998e+00 2.7040754687e+00 
167900 6.2254936031e+00 6.8000312203e-05 1.5611986998e+00 -2.7040754687e+00 1.5611986998e+00 2.7040754687e+00 
167900 6.2254936031e+00 6.8000312203e-05 1.5611986998e+00 -2.7040754687e+00 1.5611986998e+00 2.7040754687e+00 
