# step Hamiltonian StressXX CellTensor1 CellTensor2 CellTensor3 CellTensor4 
0 6.4881862571e+00 2.6304228077e-01 2.6408444507e+00 -4.5740767634e+00 2.6408444507e+00 4.5740767634e+00 
100 6.5227944220e+00 3.0766346885e-01 2.6408444507e+00 -4.5740767634e+00 2.6408444507e+00 4.5740767634e+00 
200 6.5528462673e+00 3.4809580273e-01 2.6350215005e+00 -4.5639911179e+00 2.6350215005e+00 4.5639911179e+00 
300 6.5798970829e+00 3.8422479458e-01 2.6284190874e+00 -4.5525554029e+00 2.6284190874e+00 4.5525554029e+00 
400 6.6044152234e+00 4.1679058247e-01 2.6211134369e+00 -4.5399016451e+00 2.6211134369e+00 4.5399016451e+00 
500 6.6267707096e+00 4.4642380025e-01 2.6131668286e+00 -4.5261377159e+00 2.6131668286e+00 4.5261377159e+00 
600 6.6472486454e+00 4.7364981000e-01 2.6046296815e+00 -4.5113509433e+00 2.6046296815e+00 4.5113509433e+00 
700 6.6660632709e+00 4.9889834915e-01 2.5955425304e+00 -4.4956115359e+00 2.5955425304e+00 4.4956115359e+00 
800 6.6833712548e+00 5.2251560531e-01 2.5859378078e+00 -4.4789756683e+00 2.5859378078e+00 4.4789756683e+00 
900 6.6992834914e+00 5.4477670283e-01 2.5758413926e+00 -4.4614881643e+00 2.5758413926e+00 4.4614881643e+00 
1000 6.7138751376e+00 5.6589741064e-01 2.5652739249e+00 -4.4431847732e+00 2.5652739249e+00 4.4431847732e+00 
1100 6.7271939095e+00 5.8604448618e-01 2.5542519026e+00 -4.4240940706e+00 2.5542519026e+00 4.4240940706e+00 
1200 6.7392668112e+00 6.0534446515e-01 2.5427885888e+00 -4.4042390287e+00 2.5427885888e+00 4.4042390287e+00 
1300 6.7501055312e+00 6.2389093719e-01 2.5308947577e+00 -4.3836383089e+00 2.5308947577e+00 4.3836383089e+00 
1400 6.7597107482e+00 6.4175046416e-01 2.5185793094e+00 -4.3623073268e+00 2.5185793094e+00 4.3623073268e+00 
1500 6.7680755701e+00 6.5896734318e-01 2.5058497786e+00 -4.3402591326e+00 2.5058497786e+00 4.3402591326e+00 
1600 6.7751882952e+00 6.7556742125e-01 2.4927127576e+00 -4.3175051449e+00 2.4927127576e+00 4.3175051449e+00 
1700 6.7810346508e+00 6.9156115268e-01 2.4791742544e+00 -4.2940557695e+00 2.4791742544e+00 4.2940557695e+00 
1800 6.7855996328e+00 7.0694606658e-01 2.4652399969e+00 -4.2699209274e+00 2.4652399969e+00 4.2699209274e+00 
1900 6.7888690371e+00 7.2170878545e-01 2.4509156963e+00 -4.2451105111e+00 2.4509156963e+00 4.2451105111e+00 
2000 6.7908307540e+00 7.3582671167e-01 2.4362072786e+00 -4.2196347842e+00 2.4362072786e+00 4.2196347842e+00 
2100 6.7914758719e+00 7.4926947634e-01 2.4211210879e+00 -4.1935047356e+00 2.4211210879e+00 4.1935047356e+00 
2200 6.7907996237e+00 7.6200022539e-01 2.4056640701e+00 -4.1667323953e+00 2.4056640701e+00 4.1667323953e+00 
2300 6.7888021959e+00 7.7397680026e-01 2.3898439355e+00 -4.1393311185e+00 2.3898439355e+00 4.1393311185e+00 
2400 6.7854894089e+00 7.8515285467e-01 2.3736693063e+00 -4.1113158388e+00 2.3736693063e+00 4.1113158388e+00 
2500 6.7808732723e+00 7.9547893388e-01 2.3571498466e+00 -4.0827032953e+00 2.3571498466e+00 4.0827032953e+00 
2600 6.7749724131e+00 8.0490352975e-01 2.3402963780e+00 -4.0535122315e+00 2.3402963780e+00 4.0535122315e+00 
2700 6.7678123741e+00 8.1337411253e-01 2.3231209788e+00 -4.0237635674e+00 2.3231209788e+00 4.0237635674e+00 
2800 6.7594257795e+00 8.2083813140e-01 2.3056370675e+00 -3.9934805448e+00 2.3056370675e+00 3.9934805448e+00 
2900 6.7498523674e+00 8.2724396962e-01 2.2878594711e+00 -3.9626888446e+00 2.2878594711e+00 3.9626888446e+00 
3000 6.7391388951e+00 8.3254183886e-01 2.2698044768e+00 -3.9314166770e+00 2.2698044768e+00 3.9314166770e+00 
3100 6.7273389258e+00 8.3668460006e-01 2.2514898687e+00 -3.8996948453e+00 2.2514898687e+00 3.8996948453e+00 
3200 6.7145125121e+00 8.3962850465e-01 2.2329349501e+00 -3.8675567836e+00 2.2329349501e+00 3.8675567836e+00 
3300 6.7007257949e+00 8.4133385856e-01 2.2141605508e+00 -3.8350385701e+00 2.2141605508e+00 3.8350385701e+00 
3400 6.6860505367e+00 8.4176561913e-01 2.1951890211e+00 -3.8021789167e+00 2.1951890211e+00 3.8021789167e+00 
3500 6.6705636106e+00 8.4089394056e-01 2.1760442121e+00 -3.7690191349e+00 2.1760442121e+00 3.7690191349e+00 
3600 6.6543464579e+00 8.3869468493e-01 2.1567514427e+00 -3.7356030781e+00 2.1567514427e+00 3.7356030781e+00 
3700 6.6374845275e+00 8.3514991292e-01 2.1373374516e+00 -3.7019770591e+00 2.1373374516e+00 3.7019770591e+00 
3800 6.6200666992e+00 8.3024836201e-01 2.1178303342e+00 -3.6681897407e+00 2.1178303342e+00 3.6681897407e+00 
3900 6.6021846916e+00 8.2398591184e-01 2.0982594631e+00 -3.6342919975e+00 2.0982594631e+00 3.6342919975e+00 
4000 6.5839324477e+00 8.1636602793e-01 2.0786553891e+00 -3.6003367454e+00 2.0786553891e+00 3.6003367454e+00 
4100 6.5654054919e+00 8.0740016801e-01 2.0590497242e+00 -3.5663787376e+00 2.0590497242e+00 3.5663787376e+00 
4200 6.5467002503e+00 7.9710813008e-01 2.0394750020e+00 -3.5324743243e+00 2.0394750020e+00 3.5324743243e+00 
4300 6.5279133276e+00 7.8551831885e-01 2.0199645187e+00 -3.4986811759e+00 2.0199645187e+00 3.4986811759e+00 
4400 6.5091407414e+00 7.7266790712e-01 2.0005521513e+00 -3.4650579693e+00 2.0005521513e+00 3.4650579693e+00 
4500 6.4904771135e+00 7.5860287036e-01 1.9812721564e+00 -3.4316640386e+00 1.9812721564e+00 3.4316640386e+00 
4600 6.4720148290e+00 7.4337787678e-01 1.9621589500e+00 -3.3985589939e+00 1.9621589500e+00 3.3985589939e+00 
4700 6.4538431754e+00 7.2705601991e-01 1.9432468705e+00 -3.3658023114e+00 1.9432468705e+00 3.3658023114e+00 
4800 6.4360474786e+00 7.0970838669e-01 1.9245699293e+00 -3.3334529002e+00 1.9245699293e+00 3.3334529002e+00 
4900 6.4187082585e+00 6.9141346111e-01 1.9061615511e+00 -3.3015686539e+00 1.9061615511e+00 3.3015686539e+00 
5000 6.4019004251e+00 6.7225636969e-01 1.8880543103e+00 -3.2702059929e+00 1.8880543103e+00 3.2702059929e+00 
5100 6.3856925409e+00 6.5232798227e-01 1.8702796668e+00 -3.2394194073e+00 1.8702796668e+00 3.2394194073e+00 
5200 6.3701461704e+00 6.3172388730e-01 1.8528677072e+00 -3.2092610085e+00 1.8528677072e+00 3.2092610085e+00 
5300 6.3553153390e+00 6.1054326635e-01 1.8358468965e+00 -3.1797800996e+00 1.8358468965e+00 3.1797800996e+00 
5400 6.3412461159e+00 5.8888769611e-01 1.8192438461e+00 -3.1510227728e+00 1.8192438461e+00 3.1510227728e+00 
5500 6.3279763360e+00 5.6685990933e-01 1.8030831019e+00 -3.1230315427e+00 1.8030831019e+00 3.1230315427e+00 
5600 6.3155354660e+00 5.4456254694e-01 1.7873869582e+00 -3.0958450244e+00 1.7873869582e+00 3.0958450244e+00 
5700 6.3039446178e+00 5.2209693351e-01 1.7721753005e+00 -3.0694976604e+00 1.7721753005e+00 3.0694976604e+00 
5800 6.2932167053e+00 4.9956190666e-01 1.7574654805e+00 -3.0440195048e+00 1.7574654805e+00 3.0440195048e+00 
5900 6.2833567357e+00 4.7705272808e-01 1.7432722260e+00 -3.0194360668e+00 1.7432722260e+00 3.0194360668e+00 
6000 6.2743622227e+00 4.5466010017e-01 1.7296075861e+00 -2.9957682164e+00 1.7296075861e+00 2.9957682164e+00 
6100 6.2662237052e+00 4.3246930760e-01 1.7164809133e+00 -2.9730321520e+00 1.7164809133e+00 2.9730321520e+00 
6200 6.2589253511e+00 4.1055949807e-01 1.7038988799e+00 -2.9512394309e+00 1.7038988799e+00 2.9512394309e+00 
6300 6.2524456263e+00 3.8900311139e-01 1.6918655297e+00 -2.9303970571e+00 1.6918655297e+00 2.9303970571e+00 
6400 6.2467580078e+00 3.6786546047e-01 1.6803823609e+00 -2.9105076252e+00 1.6803823609e+00 2.9105076252e+00 
6500 6.2418317179e+00 3.4720446318e-01 1.6694484367e+00 -2.8915695129e+00 1.6694484367e+00 2.8915695129e+00 
6600 6.2376324624e+00 3.2707051933e-01 1.6590605220e+00 -2.8735771170e+00 1.6590605220e+00 2.8735771170e+00 
6700 6.2341231531e+00 3.0750652322e-01 1.6492132408e+00 -2.8565211256e+00 1.6492132408e+00 2.8565211256e+00 
6800 6.2312645997e+00 2.8854799920e-01 1.6398992494e+00 -2.8403888192e+00 1.6398992494e+00 2.8403888192e+00 
6900 6.2290161601e+00 2.7022334518e-01 1.6311094226e+00 -2.8251643926e+00 1.6311094226e+00 2.8251643926e+00 
7000 6.2273363370e+00 2.5255416785e-01 1.6228330477e+00 -2.8108292908e+00 1.6228330477e+00 2.8108292908e+00 
7100 6.2261833168e+00 2.3555569225e-01 1.6150580221e+00 -2.7973625515e+00 1.6150580221e+00 2.7973625515e+00 
7200 6.2255154449e+00 2.1923722867e-01 1.6077710511e+00 -2.7847411474e+00 1.6077710511e+00 2.7847411474e+00 
7300 6.2252916379e+00 2.0360268019e-01 1.6009578417e+00 -2.7729403226e+00 1.6009578417e+00 2.7729403226e+00 
7400 6.2254717313e+00 1.8865107536e-01 1.5946032908e+00 -2.7619339175e+00 1.5946032908e+00 2.7619339175e+00 
7500 6.2260167675e+00 1.7437711189e-01 1.5886916635e+00 -2.7516946788e+00 1.5886916635e+00 2.7516946788e+00 
7600 6.2268892254e+00 1.6077169904e-01 1.5832067613e+00 -2.7421945495e+00 1.5832067613e+00 2.7421945495e+00 
7700 6.2280531981e+00 1.4782248795e-01 1.5781320771e+00 -2.7334049385e+00 1.5781320771e+00 2.7334049385e+00 
7800 6.2294745238e+00 1.3551438142e-01 1.5734509367e+00 -2.7252969656e+00 1.5734509367e+00 2.7252969656e+00 
7900 6.2311208744e+00 1.2383001617e-01 1.5691466272e+00 -2.7178416828e+00 1.5691466272e+00 2.7178416828e+00 
8000 6.2329618084e+00 1.1275021252e-01 1.5652025092e+00 -2.7110102701e+00 1.5652025092e+00 2.7110102701e+00 
8100 6.2349687928e+00 1.0225438791e-01 1.5616021166e+00 -2.7047742072e+00 1.5616021166e+00 2.7047742072e+00 
8200 6.2371152007e+00 9.2320932310e-02 1.5583292412e+00 -2.6991054208e+00 1.5583292412e+00 2.6991054208e+00 
8300 6.2393762864e+00 8.2927544565e-02 1.5553680048e+00 -2.6939764087e+00 1.5553680048e+00 2.6939764087e+00 
8400 6.2417291453e+00 7.4051529809e-02 1.5527029180e+00 -2.6893603430e+00 1.5527029180e+00 2.6893603430e+00 
8500 6.2441526608e+00 6.5670059065e-02 1.5503189285e+00 -2.6852311522e+00 1.5503189285e+00 2.6852311522e+00 
8600 6.2466274404e+00 5.7760392576e-02 1.5482014582e+00 -2.6815635860e+00 1.5482014582e+00 2.6815635860e+00 
8700 6.2491357469e+00 5.0300069029e-02 1.5463364303e+00 -2.6783332629e+00 1.5463364303e+00 2.6783332629e+00 
8800 6.2516614226e+00 4.3267063135e-02 1.5447102886e+00 -2.6755167029e+00 1.5447102886e+00 2.6755167029e+00 
8900 6.2541898131e+00 3.6639914213e-02 1.5433100092e+00 -2.6730913478e+00 1.5433100092e+00 2.6730913478e+00 
9000 6.2567076878e+00 3.0397828537e-02 1.5421231053e+00 -2.6710355700e+00 1.5421231053e+00 2.6710355700e+00 
9100 6.2592031613e+00 2.4520758230e-02 1.5411376267e+00 -2.6693286708e+00 1.5411376267e+00 2.6693286708e+00 
9200 6.2616656159e+00 1.8989459393e-02 1.5403421543e+00 -2.6679508723e+00 1.5403421543e+00 2.6679508723e+00 
9300 6.2640856243e+00 1.3785532094e-02 1.5397257915e+00 -2.6668833006e+00 1.5397257915e+00 2.6668833006e+00 
9400 6.2664548758e+00 8.8914446508e-03 1.5392781513e+00 -2.6661079650e+00 1.5392781513e+00 2.6661079650e+00 
9500 6.2687661036e+00 4.2905445083e-03 1.5389893417e+00 -2.6656077321e+00 1.5389893417e+00 2.6656077321e+00 
9600 6.2710130156e+00 -3.2942208539e-05 1.5388499489e+00 -2.6653662967e+00 1.5388499489e+00 2.6653662967e+00 
9700 6.2731902383e+00 -4.0957882889e-03 1.5388499489e+00 -2.6653662967e+00 1.5388499489e+00 2.6653662967e+00 
9800 6.2752932178e+00 -7.9082035315e-03 1.5389830303e+00 -2.6655968005e+00 1.5389830303e+00 2.6655968005e+00 
9900 6.2773181951e+00 -1.1485397270e-02 1.5392399670e+00 -2.6660418279e+00 1.5392399670e+00 2.6660418279e+00 
10000 6.2792621345e+00 -1.4839796577e-02 1.5396130687e+00 -2.6666880590e+00 1.5396130687e+00 2.6666880590e+00 
10100 6.2811226682e+00 -1.7983061966e-02 1.5400950265e+00 -2.6675228344e+00 1.5400950265e+00 2.6675228344e+00 
10200 6.2828980427e+00 -2.0926122376e-02 1.5406788930e+00 -2.6685341208e+00 1.5406788930e+00 2.6685341208e+00 
10300 6.2845870685e+00 -2.3679211951e-02 1.5413580631e+00 -2.6697104779e+00 1.5413580631e+00 2.6697104779e+00 
10400 6.2861890719e+00 -2.6251907903e-02 1.5421262550e+00 -2.6710410254e+00 1.5421262550e+00 2.6710410254e+00 
10500 6.2877038494e+00 -2.8653168826e-02 1.5429774928e+00 -2.6725154124e+00 1.5429774928e+00 2.6725154124e+00 
10600 6.2891316247e+00 -3.0891372948e-02 1.5439060883e+00 -2.6741237871e+00 1.5439060883e+00 2.6741237871e+00 
10700 6.2904730072e+00 -3.2974355915e-02 1.5449066254e+00 -2.6758567682e+00 1.5449066254e+00 2.6758567682e+00 
10800 6.2917289538e+00 -3.4909447739e-02 1.5459739440e+00 -2.6777054181e+00 1.5459739440e+00 2.6777054181e+00 
10900 6.2929007319e+00 -3.6703508662e-02 1.5471031252e+00 -2.6796612173e+00 1.5471031252e+00 2.6796612173e+00 
11000 6.2939898852e+00 -3.8362963718e-02 1.5482894777e+00 -2.6817160403e+00 1.5482894777e+00 2.6817160403e+00 
11100 6.2949982007e+00 -3.9893835831e-02 1.5495285250e+00 -2.6838621330e+00 1.5495285250e+00 2.6838621330e+00 
11200 6.2959276786e+00 -4.1301777334e-02 1.5508159925e+00 -2.6860920923e+00 1.5508159925e+00 2.6860920923e+00 
11300 6.2967805031e+00 -4.2592099841e-02 1.5521477973e+00 -2.6883988458e+00 1.5521477973e+00 2.6883988458e+00 
11400 6.2975590160e+00 -4.3769802413e-02 1.5535200368e+00 -2.6907756343e+00 1.5535200368e+00 2.6907756343e+00 
11500 6.2982656911e+00 -4.4839598014e-02 1.5549289794e+00 -2.6932159945e+00 1.5549289794e+00 2.6932159945e+00 
11600 6.2989031113e+00 -4.5805938243e-02 1.5563710556e+00 -2.6957137437e+00 1.5563710556e+00 2.6957137437e+00 
11700 6.2994739464e+00 -4.6673036367e-02 1.5578428495e+00 -2.6982629656e+00 1.5578428495e+00 2.6982629656e+00 
11800 6.2999809333e+00 -4.7444888701e-02 1.5593410914e+00 -2.7008579967e+00 1.5593410914e+00 2.7008579967e+00 
11900 6.3004268572e+00 -4.8125294354e-02 1.5608626507e+00 -2.7034934146e+00 1.5608626507e+00 2.7034934146e+00 
12000 6.3008145346e+00 -4.8717873424e-02 1.5624045291e+00 -2.7061640263e+00 1.5624045291e+00 2.7061640263e+00 
12100 6.3011467977e+00 -4.9226083676e-02 1.5639638553e+00 -2.7088648586e+00 1.5639638553e+00 2.7088648586e+00 
12200 6.3014264801e+00 -4.9653235792e-02 1.5655378793e+00 -2.7115911480e+00 1.5655378793e+00 2.7115911480e+00 
12300 6.3016564037e+00 -5.0002507240e-02 1.5671239670e+00 -2.7143383327e+00 1.5671239670e+00 2.7143383327e+00 
12400 6.3018393673e+00 -5.0276954854e-02 1.5687195965e+00 -2.7171020439e+00 1.5687195965e+00 2.7171020439e+00 
12500 6.3019781358e+00 -5.0479526182e-02 1.5703223528e+00 -2.7198780993e+00 1.5703223528e+00 2.7198780993e+00 
12600 6.3020754312e+00 -5.0613069679e-02 1.5719299249e+00 -2.7226624959e+00 1.5719299249e+00 2.7226624959e+00 
12700 6.3021339243e+00 -5.0680343829e-02 1.5735401017e+00 -2.7254514039e+00 1.5735401017e+00 2.7254514039e+00 
12800 6.3021562271e+00 -5.0684025246e-02 1.5751507686e+00 -2.7282411608e+00 1.5751507686e+00 2.7282411608e+00 
12900 6.3021448873e+00 -5.0626715847e-02 1.5767599049e+00 -2.7310282666e+00 1.5767599049e+00 2.7310282666e+00 
13000 6.3021023824e+00 -5.0510949152e-02 1.5783655805e+00 -2.7338093783e+00 1.5783655805e+00 2.7338093783e+00 
13100 6.3020311152e+00 -5.0339195782e-02 1.5799659535e+00 -2.7365813057e+00 1.5799659535e+00 2.7365813057e+00 
13200 6.3019334107e+00 -5.0113868221e-02 1.5815592678e+00 -2.7393410070e+00 1.5815592678e+00 2.7393410070e+00 
13300 6.3018115127e+00 -4.9837324904e-02 1.5831438504e+00 -2.7420855846e+00 1.5831438504e+00 2.7420855846e+00 
13400 6.3016675816e+00 -4.9511873685e-02 1.5847181096e+00 -2.7448122815e+00 1.5847181096e+00 2.7448122815e+00 
13500 6.3015036929e+00 -4.9139774756e-02 1.5862805326e+00 -2.7475184775e+00 1.5862805326e+00 2.7475184775e+00 
13600 6.3013218360e+00 -4.8723243059e-02 1.5878296837e+00 -2.7502016859e+00 1.5878296837e+00 2.7502016859e+00 
13700 6.3011239141e+00 -4.8264450241e-02 1.5893642022e+00 -2.7528595500e+00 1.5893642022e+00 2.7528595500e+00 
13800 6.3009117434e+00 -4.7765526216e-02 1.5908828009e+00 -2.7554898401e+00 1.5908828009e+00 2.7554898401e+00 
13900 6.3006870542e+00 -4.7228560364e-02 1.5923842639e+00 -2.7580904502e+00 1.5923842639e+00 2.7580904502e+00 
14000 6.3004514912e+00 -4.6655602423e-02 1.5938674449e+00 -2.7606593952e+00 1.5938674449e+00 2.7606593952e+00 
14100 6.3002066147e+00 -4.6048663102e-02 1.5953312660e+00 -2.7631948077e+00 1.5953312660e+00 2.7631948077e+00 
14200 6.2999539020e+00 -4.5409714469e-02 1.5967747155e+00 -2.7656949354e+00 1.5967747155e+00 2.7656949354e+00 
14300 6.2996947490e+00 -4.4740690126e-02 1.5981968462e+00 -2.7681581381e+00 1.5981968462e+00 2.7681581381e+00 
14400 6.2994304720e+00 -4.4043485235e-02 1.5995967744e+00 -2.7705828848e+00 1.5995967744e+00 2.7705828848e+00 
14500 6.2991623098e+00 -4.3319956391e-02 1.6009736775e+00 -2.7729677511e+00 1.6009736775e+00 2.7729677511e+00 
14600 6.2988914257e+00 -4.2571921400e-02 1.6023267932e+00 -2.7753114162e+00 1.6023267932e+00 2.7753114162e+00 
14700 6.2986189098e+00 -4.1801158959e-02 1.6036554173e+00 -2.7776126606e+00 1.6036554173e+00 2.7776126606e+00 
14800 6.2983457815e+00 -4.1009408290e-02 1.6049589023e+00 -2.7798703629e+00 1.6049589023e+00 2.7798703629e+00 
14900 6.2980729920e+00 -4.0198368720e-02 1.6062366561e+00 -2.7820834973e+00 1.6062366561e+00 2.7820834973e+00 
15000 6.2978014263e+00 -3.9369699244e-02 1.6074881399e+00 -2.7842511309e+00 1.6074881399e+00 2.7842511309e+00 
15100 6.2975319061e+00 -3.8525018084e-02 1.6087128673e+00 -2.7863724209e+00 1.6087128673e+00 2.7863724209e+00 
15200 6.2972651924e+00 -3.7665902255e-02 1.6099104021e+00 -2.7884466120e+00 1.6099104021e+00 2.7884466120e+00 
15300 6.2970019875e+00 -3.6793887143e-02 1.6110803573e+00 -2.7904730339e+00 1.6110803573e+00 2.7904730339e+00 
15400 6.2967429380e+00 -3.5910466129e-02 1.6122223931e+00 -2.7924510980e+00 1.6122223931e+00 2.7924510980e+00 
15500 6.2964886367e+00 -3.5017090241e-02 1.6133362158e+00 -2.7943802955e+00 1.6133362158e+00 2.7943802955e+00 
15600 6.2962396252e+00 -3.4115167859e-02 1.6144215759e+00 -2.7962601942e+00 1.6144215759e+00 2.7962601942e+00 
15700 6.2959963965e+00 -3.3206064470e-02 1.6154782666e+00 -2.7980904363e+00 1.6154782666e+00 2.7980904363e+00 
15800 6.2957593967e+00 -3.2291102491e-02 1.6165061227e+00 -2.7998707352e+00 1.6165061227e+00 2.7998707352e+00 
15900 6.2955290275e+00 -3.1371561138e-02 1.6175050185e+00 -2.8016008736e+00 1.6175050185e+00 2.8016008736e+00 
16000 6.2953056484e+00 -3.0448676378e-02 1.6184748670e+00 -2.8032807004e+00 1.6184748670e+00 2.8032807004e+00 
16100 6.2950895784e+00 -2.9523640930e-02 1.6194156176e+00 -2.8049101282e+00 1.6194156176e+00 2.8049101282e+00 
16200 6.2948810981e+00 -2.8597604347e-02 1.6203272554e+00 -2.8064891312e+00 1.6203272554e+00 2.8064891312e+00 
16300 6.2946804517e+00 -2.7671673152e-02 1.6212097993e+00 -2.8080177420e+00 1.6212097993e+00 2.8080177420e+00 
16400 6.2944878487e+00 -2.6746911050e-02 1.6220633007e+00 -2.8094960500e+00 1.6220633007e+00 2.8094960500e+00 
16500 6.2943034655e+00 -2.5824339199e-02 1.6228878424e+00 -2.8109241981e+00 1.6228878424e+00 2.8109241981e+00 
16600 6.2941274473e+00 -2.4904936541e-02 1.6236835366e+00 -2.8123023808e+00 1.6236835366e+00 2.8123023808e+00 
16700 6.2939599093e+00 -2.3989640197e-02 1.6244505240e+00 -2.8136308419e+00 1.6244505240e+00 2.8136308419e+00 
16800 6.2938009386e+00 -2.3079345917e-02 1.6251889724e+00 -2.8149098720e+00 1.6251889724e+00 2.8149098720e+00 
16900 6.2936505953e+00 -2.2174908581e-02 1.6258990752e+00 -2.8161398062e+00 1.6258990752e+00 2.8161398062e+00 
17000 6.2935089142e+00 -2.1277142754e-02 1.6265810504e+00 -2.8173210220e+00 1.6265810504e+00 2.8173210220e+00 
17100 6.2933759057e+00 -2.0386823286e-02 1.6272351392e+00 -2.8184539370e+00 1.6272351392e+00 2.8184539370e+00 
17200 6.2932515575e+00 -1.9504685953e-02 1.6278616046e+00 -2.8195390069e+00 1.6278616046e+00 2.8195390069e+00 
17300 6.2931358353e+00 -1.8631428141e-02 1.6284607305e+00 -2.8205767234e+00 1.6284607305e+00 2.8205767234e+00 
17400 6.2930286845e+00 -1.7767709557e-02 1.6290328204e+00 -2.8215676122e+00 1.6290328204e+00 2.8215676122e+00 
17500 6.2929300309e+00 -1.6914152986e-02 1.6295781962e+00 -2.8225122307e+00 1.6295781962e+00 2.8225122307e+00 
17600 6.2928397819e+00 -1.6071345057e-02 1.6300971971e+00 -2.8234111666e+00 1.6300971971e+00 2.8234111666e+00 
17700 6.2927578276e+00 -1.5239837052e-02 1.6305901786e+00 -2.8242650356e+00 1.6305901786e+00 2.8242650356e+00 
17800 6.2926840415e+00 -1.4420145718e-02 1.6310575114e+00 -2.8250744797e+00 1.6310575114e+00 2.8250744797e+00 
17900 6.2926182821e+00 -1.3612754110e-02 1.6314995803e+00 -2.8258401656e+00 1.6314995803e+00 2.8258401656e+00 
18000 6.2925603931e+00 -1.2818112439e-02 1.6319167834e+00 -2.8265627826e+00 1.6319167834e+00 2.8265627826e+00 
18100 6.2925102047e+00 -1.2036638933e-02 1.6323095310e+00 -2.8272430413e+00 1.6323095310e+00 2.8272430413e+00 
18200 6.2924675346e+00 -1.1268720707e-02 1.6326782445e+00 -2.8278816719e+00 1.6326782445e+00 2.8278816719e+00 
18300 6.2924321886e+00 -1.0514714638e-02 1.6330233559e+00 -2.8284794223e+00 1.6330233559e+00 2.8284794223e+00 
18400 6.2924039615e+00 -9.7749482337e-03 1.6333453066e+00 -2.8290370573e+00 1.6333453066e+00 2.8290370573e+00 
18500 6.2923826382e+00 -9.0497205164e-03 1.6336445466e+00 -2.8295553563e+00 1.6336445466e+00 2.8295553563e+00 
18600 6.2923679943e+00 -8.3393028894e-03 1.6339215339e+00 -2.8300351124e+00 1.6339215339e+00 2.8300351124e+00 
18700 6.2923597969e+00 -7.6439400067e-03 1.6341767335e+00 -2.8304771309e+00 1.6341767335e+00 2.8304771309e+00 
18800 6.2923578054e+00 -6.9638506343e-03 1.6344106164e+00 -2.8308822281e+00 1.6344106164e+00 2.8308822281e+00 
18900 6.2923617726e+00 -6.2992285024e-03 1.6346236597e+00 -2.8312512298e+00 1.6346236597e+00 2.8312512298e+00 
19000 6.2923714451e+00 -5.6502431491e-03 1.6348163447e+00 -2.8315849701e+00 1.6348163447e+00 2.8315849701e+00 
19100 6.2923865643e+00 -5.0170407518e-03 1.6349891575e+00 -2.8318842906e+00 1.6349891575e+00 2.8318842906e+00 
19200 6.2924068669e+00 -4.3997449470e-03 1.6351425873e+00 -2.8321500387e+00 1.6351425873e+00 2.8321500387e+00 
19300 6.2924320861e+00 -3.7984576366e-03 1.6352771261e+00 -2.8323830669e+00 1.6352771261e+00 2.8323830669e+00 
19400 6.2924619519e+00 -3.2132597796e-03 1.6353932686e+00 -2.8325842316e+00 1.6353932686e+00 2.8325842316e+00 
19500 6.2924961922e+00 -2.6442121698e-03 1.6354915108e+00 -2.8327543920e+00 1.6354915108e+00 2.8327543920e+00 
19600 6.2925345332e+00 -2.0913561968e-03 1.6355723499e+00 -2.8328944095e+00 1.6355723499e+00 2.8328944095e+00 
19700 6.2925767004e+00 -1.5547145917e-03 1.6356362838e+00 -2.8330051462e+00 1.6356362838e+00 2.8330051462e+00 
19800 6.2926224191e+00 -1.0342921570e-03 1.6356838103e+00 -2.8330874646e+00 1.6356838103e+00 2.8330874646e+00 
19900 6.2926714150e+00 -5.3007647845e-04 1.6357154269e+00 -2.8331422262e+00 1.6357154269e+00 2.8331422262e+00 
20000 6.2927234153e+00 -4.2038621820e-05 1.6357316302e+00 -2.8331702910e+00 1.6357316302e+00 2.8331702910e+00 
20100 6.2927781474e+00 4.2819621663e-04 1.6357316302e+00 -2.8331702910e+00 1.6357316302e+00 2.8331702910e+00 
20200 6.2928353442e+00 8.8408137166e-04 1.6357185413e+00 -2.8331476205e+00 1.6357185413e+00 2.8331476205e+00 
20300 6.2928947404e+00 1.3239661529e-03 1.6356915172e+00 -2.8331008132e+00 1.6356915172e+00 2.8331008132e+00 
20400 6.2929560741e+00 1.7479390292e-03 1.6356510462e+00 -2.8330307155e+00 1.6356510462e+00 2.8330307155e+00 
20500 6.2930190880e+00 2.1561017531e-03 1.6355976140e+00 -2.8329381681e+00 1.6355976140e+00 2.8329381681e+00 
20600 6.2930835294e+00 2.5485687633e-03 1.6355317027e+00 -2.8328240064e+00 1.6355317027e+00 2.8328240064e+00 
20700 6.2931491511e+00 2.9254666024e-03 1.6354537907e+00 -2.8326890590e+00 1.6354537907e+00 2.8326890590e+00 
20800 6.2932157116e+00 3.2869333499e-03 1.6353643526e+00 -2.8325341475e+00 1.6353643526e+00 2.8325341475e+00 
20900 6.2932829760e+00 3.6331180697e-03 1.6352638582e+00 -2.8323600861e+00 1.6352638582e+00 2.8323600861e+00 
21000 6.2933507161e+00 3.9641802718e-03 1.6351527728e+00 -2.8321676806e+00 1.6351527728e+00 2.8321676806e+00 
21100 6.2934187108e+00 4.2802893880e-03 1.6350315569e+00 -2.8319577285e+00 1.6350315569e+00 2.8319577285e+00 
21200 6.2934867467e+00 4.5816242606e-03 1.6349006655e+00 -2.8317310179e+00 1.6349006655e+00 2.8317310179e+00 
21300 6.2935546184e+00 4.8683726443e-03 1.6347605481e+00 -2.8314883275e+00 1.6347605481e+00 2.8314883275e+00 
21400 6.2936221287e+00 5.1407307202e-03 1.6346116487e+00 -2.8312304261e+00 1.6346116487e+00 2.8312304261e+00 
21500 6.2936890892e+00 5.3989026216e-03 1.6344544049e+00 -2.8309580720e+00 1.6344544049e+00 2.8309580720e+00 
21600 6.2937553201e+00 5.6430999718e-03 1.6342892486e+00 -2.8306720128e+00 1.6342892486e+00 2.8306720128e+00 
21700 6.2938206508e+00 5.8735414326e-03 1.6341166047e+00 -2.8303729848e+00 1.6341166047e+00 2.8303729848e+00 
21800 6.2938849202e+00 6.0904522630e-03 1.6339368919e+00 -2.8300617131e+00 1.6339368919e+00 2.8300617131e+00 
21900 6.2939479764e+00 6.2940638883e-03 1.6337505219e+00 -2.8297389108e+00 1.6337505219e+00 2.8297389108e+00 
22000 6.2940096771e+00 6.4846134796e-03 1.6335578994e+00 -2.8294052789e+00 1.6335578994e+00 2.8294052789e+00 
22100 6.2940698901e+00 6.6623435416e-03 1.6333594222e+00 -2.8290615062e+00 1.6333594222e+00 2.8290615062e+00 
22200 6.2941284924e+00 6.8275015101e-03 1.6331554804e+00 -2.8287082687e+00 1.6331554804e+00 2.8287082687e+00 
22300 6.2941853713e+00 6.9803393582e-03 1.6329464569e+00 -2.8283462294e+00 1.6329464569e+00 2.8283462294e+00 
22400 6.2942404238e+00 7.1211132107e-03 1.6327327271e+00 -2.8279760385e+00 1.6327327271e+00 2.8279760385e+00 
22500 6.2942935565e+00 7.2500829664e-03 1.6325146585e+00 -2.8275983326e+00 1.6325146585e+00 2.8275983326e+00 
22600 6.2943446861e+00 7.3675119294e-03 1.6322926109e+00 -2.8272137349e+00 1.6322926109e+00 2.8272137349e+00 
22700 6.2943937386e+00 7.4736664467e-03 1.6320669362e+00 -2.8268228549e+00 1.6320669362e+00 2.8268228549e+00 
22800 6.2944406500e+00 7.5688155542e-03 1.6318379784e+00 -2.8264262883e+00 1.6318379784e+00 2.8264262883e+00 
22900 6.2944853654e+00 7.6532306300e-03 1.6316060731e+00 -2.8260246166e+00 1.6316060731e+00 2.8260246166e+00 
23000 6.2945278391e+00 7.7271850547e-03 1.6313715481e+00 -2.8256184074e+00 1.6313715481e+00 2.8256184074e+00 
23100 6.2945680349e+00 7.7909538794e-03 1.6311347229e+00 -2.8252082141e+00 1.6311347229e+00 2.8252082141e+00 
23200 6.2946059250e+00 7.8448134996e-03 1.6308959087e+00 -2.8247945757e+00 1.6308959087e+00 2.8247945757e+00 
23300 6.2946414905e+00 7.8890413379e-03 1.6306554084e+00 -2.8243780169e+00 1.6306554084e+00 2.8243780169e+00 
23400 6.2946747207e+00 7.9239155325e-03 1.6304135165e+00 -2.8239590479e+00 1.6304135165e+00 2.8239590479e+00 
23500 6.2947056132e+00 7.9497146328e-03 1.6301705193e+00 -2.8235381644e+00 1.6301705193e+00 2.8235381644e+00 
23600 6.2947341732e+00 7.9667173031e-03 1.6299266946e+00 -2.8231158476e+00 1.6299266946e+00 2.8231158476e+00 
23700 6.2947604135e+00 7.9752020321e-03 1.6296823119e+00 -2.8226925643e+00 1.6296823119e+00 2.8226925643e+00 
23800 6.2947843541e+00 7.9754468505e-03 1.6294376322e+00 -2.8222687667e+00 1.6294376322e+00 2.8222687667e+00 
23900 6.2948060217e+00 7.9677290559e-03 1.6291929083e+00 -2.8218448925e+00 1.6291929083e+00 2.8218448925e+00 
24000 6.2948254495e+00 7.9523249443e-03 1.6289483844e+00 -2.8214213648e+00 1.6289483844e+00 2.8214213648e+00 
24100 6.2948426770e+00 7.9295095500e-03 1.6287042967e+00 -2.8209985924e+00 1.6287042967e+00 2.8209985924e+00 
24200 6.2948577493e+00 7.8995563925e-03 1.6284608728e+00 -2.8205769698e+00 1.6284608728e+00 2.8205769698e+00 
24300 6.2948707168e+00 7.8627372315e-03 1.6282183321e+00 -2.8201568770e+00 1.6282183321e+00 2.8201568770e+00 
24400 6.2948816350e+00 7.8193218292e-03 1.6279768859e+00 -2.8197386799e+00 1.6279768859e+00 2.8197386799e+00 
24500 6.2948905640e+00 7.7695777215e-03 1.6277367372e+00 -2.8193227302e+00 1.6277367372e+00 2.8193227302e+00 
24600 6.2948975682e+00 7.7137699960e-03 1.6274980811e+00 -2.8189093656e+00 1.6274980811e+00 2.8189093656e+00 
24700 6.2949027156e+00 7.6521610798e-03 1.6272611044e+00 -2.8184989099e+00 1.6272611044e+00 2.8184989099e+00 
24800 6.2949060780e+00 7.5850105340e-03 1.6270259861e+00 -2.8180916731e+00 1.6270259861e+00 2.8180916731e+00 
24900 6.2949077298e+00 7.5125748582e-03 1.6267928973e+00 -2.8176879515e+00 1.6267928973e+00 2.8176879515e+00 
25000 6.2949077486e+00 7.4351073024e-03 1.6265620014e+00 -2.8172880281e+00 1.6265620014e+00 2.8172880281e+00 
25100 6.2949062139e+00 7.3528576883e-03 1.6263334539e+00 -2.8168921722e+00 1.6263334539e+00 2.8168921722e+00 
25200 6.2949032072e+00 7.2660722393e-03 1.6261074029e+00 -2.8165006403e+00 1.6261074029e+00 2.8165006403e+00 
25300 6.2948988119e+00 7.1749934189e-03 1.6258839888e+00 -2.8161136758e+00 1.6258839888e+00 2.8161136758e+00 
25400 6.2948931121e+00 7.0798597789e-03 1.6256633448e+00 -2.8157315092e+00 1.6256633448e+00 2.8157315092e+00 
25500 6.2948861931e+00 6.9809058156e-03 1.6254455967e+00 -2.8153543584e+00 1.6254455967e+00 2.8153543584e+00 
25600 6.2948781408e+00 6.8783618362e-03 1.6252308632e+00 -2.8149824291e+00 1.6252308632e+00 2.8149824291e+00 
25700 6.2948690410e+00 6.7724538330e-03 1.6250192560e+00 -2.8146159146e+00 1.6250192560e+00 2.8146159146e+00 
25800 6.2948589796e+00 6.6634033682e-03 1.6248108797e+00 -2.8142549963e+00 1.6248108797e+00 2.8142549963e+00 
25900 6.2948480421e+00 6.5514274661e-03 1.6246058323e+00 -2.8138998439e+00 1.6246058323e+00 2.8138998439e+00 
26000 6.2948363132e+00 6.4367385161e-03 1.6244042052e+00 -2.8135506155e+00 1.6244042052e+00 2.8135506155e+00 
26100 6.2948238767e+00 6.3195441834e-03 1.6242060831e+00 -2.8132074579e+00 1.6242060831e+00 2.8132074579e+00 
26200 6.2948108152e+00 6.2000473296e-03 1.6240115444e+00 -2.8128705070e+00 1.6240115444e+00 2.8128705070e+00 
26300 6.2947972098e+00 6.0784459417e-03 1.6238206614e+00 -2.8125398879e+00 1.6238206614e+00 2.8125398879e+00 
26400 6.2947831399e+00 5.9549330701e-03 1.6236335000e+00 -2.8122157149e+00 1.6236335000e+00 2.8122157149e+00 
26500 6.2947686829e+00 5.8296967756e-03 1.6234501206e+00 -2.8118980924e+00 1.6234501206e+00 2.8118980924e+00 
26600 6.2947539143e+00 5.7029200844e-03 1.6232705773e+00 -2.8115871144e+00 1.6232705773e+00 2.8115871144e+00 
26700 6.2947389071e+00 5.5747809525e-03 1.6230949191e+00 -2.8112828654e+00 1.6230949191e+00 2.8112828654e+00 
26800 6.2947237320e+00 5.4454522376e-03 1.6229231891e+00 -2.8109854202e+00 1.6229231891e+00 2.8109854202e+00 
26900 6.2947084569e+00 5.3151016794e-03 1.6227554252e+00 -2.8106948447e+00 1.6227554252e+00 2.8106948447e+00 
27000 6.2946931473e+00 5.1838918882e-03 1.6225916601e+00 -2.8104111953e+00 1.6225916601e+00 2.8104111953e+00 
27100 6.2946778653e+00 5.0519803411e-03 1.6224319216e+00 -2.8101345201e+00 1.6224319216e+00 2.8101345201e+00 
27200 6.2946626706e+00 4.9195193852e-03 1.6222762325e+00 -2.8098648587e+00 1.6222762325e+00 2.8098648587e+00 
27300 6.2946476196e+00 4.7866562494e-03 1.6221246109e+00 -2.8096022423e+00 1.6221246109e+00 2.8096022423e+00 
27400 6.2946327654e+00 4.6535330620e-03 1.6219770704e+00 -2.8093466946e+00 1.6219770704e+00 2.8093466946e+00 
27500 6.2946181582e+00 4.5202868761e-03 1.6218336200e+00 -2.8090982312e+00 1.6218336200e+00 2.8090982312e+00 
27600 6.2946038449e+00 4.3870497008e-03 1.6216942647e+00 -2.8088568608e+00 1.6216942647e+00 2.8088568608e+00 
27700 6.2945898690e+00 4.2539485397e-03 1.6215590053e+00 -2.8086225846e+00 1.6215590053e+00 2.8086225846e+00 
27800 6.2945762710e+00 4.1211054346e-03 1.6214278385e+00 -2.8083953972e+00 1.6214278385e+00 2.8083953972e+00 
27900 6.2945630879e+00 3.9886375156e-03 1.6213007576e+00 -2.8081752865e+00 1.6213007576e+00 2.8081752865e+00 
28000 6.2945503534e+00 3.8566570560e-03 1.6211777518e+00 -2.8079622343e+00 1.6211777518e+00 2.8079622343e+00 
28100 6.2945380981e+00 3.7252715331e-03 1.6210588071e+00 -2.8077562160e+00 1.6210588071e+00 2.8077562160e+00 
28200 6.2945263494e+00 3.5945836939e-03 1.6209439061e+00 -2.8075572015e+00 1.6209439061e+00 2.8075572015e+00 
28300 6.2945151314e+00 3.4646916243e-03 1.6208330280e+00 -2.8073651551e+00 1.6208330280e+00 2.8073651551e+00 
28400 6.2945044651e+00 3.3356888246e-03 1.6207261492e+00 -2.8071800356e+00 1.6207261492e+00 2.8071800356e+00 
28500 6.2944943685e+00 3.2076642866e-03 1.6206232431e+00 -2.8070017969e+00 1.6206232431e+00 2.8070017969e+00 
28600 6.2944848567e+00 3.0807025766e-03 1.6205242802e+00 -2.8068303881e+00 1.6205242802e+00 2.8068303881e+00 
28700 6.2944759416e+00 2.9548839203e-03 1.6204292284e+00 -2.8066657537e+00 1.6204292284e+00 2.8066657537e+00 
28800 6.2944676326e+00 2.8302842914e-03 1.6203380533e+00 -2.8065078338e+00 1.6203380533e+00 2.8065078338e+00 
28900 6.2944599362e+00 2.7069755032e-03 1.6202507179e+00 -2.8063565644e+00 1.6202507179e+00 2.8063565644e+00 
29000 6.2944528564e+00 2.5850253017e-03 1.6201671829e+00 -2.8062118775e+00 1.6201671829e+00 2.8062118775e+00 
29100 6.2944463944e+00 2.4644974626e-03 1.6200874071e+00 -2.8060737017e+00 1.6200874071e+00 2.8060737017e+00 
29200 6.2944405492e+00 2.3454518881e-03 1.6200113470e+00 -2.8059419619e+00 1.6200113470e+00 2.8059419619e+00 
29300 6.2944353176e+00 2.2279447076e-03 1.6199389576e+00 -2.8058165797e+00 1.6199389576e+00 2.8058165797e+00 
29400 6.2944306941e+00 2.1120283775e-03 1.6198701917e+00 -2.8056974738e+00 1.6198701917e+00 2.8056974738e+00 
29500 6.2944266709e+00 1.9977517842e-03 1.6198050009e+00 -2.8055845599e+00 1.6198050009e+00 2.8055845599e+00 
29600 6.2944232387e+00 1.8851603464e-03 1.6197433349e+00 -2.8054777512e+00 1.6197433349e+00 2.8054777512e+00 
29700 6.2944203862e+00 1.7742961185e-03 1.6196851420e+00 -2.8053769583e+00 1.6196851420e+00 2.8053769583e+00 
29800 6.2944181002e+00 1.6651978947e-03 1.6196303695e+00 -2.8052820894e+00 1.6196303695e+00 2.8052820894e+00 
29900 6.2944163663e+00 1.5579013127e-03 1.6195789630e+00 -2.8051930508e+00 1.6195789630e+00 2.8051930508e+00 
30000 6.2944151684e+00 1.4524389575e-03 1.6195308674e+00 -2.8051097467e+00 1.6195308674e+00 2.8051097467e+00 
30100 6.2944144892e+00 1.3488404648e-03 1.6194860262e+00 -2.8050320796e+00 1.6194860262e+00 2.8050320796e+00 
30200 6.2944143103e+00 1.2471326239e-03 1.6194443823e+00 -2.8049599502e+00 1.6194443823e+00 2.8049599502e+00 
30300 6.2944146121e+00 1.1473394796e-03 1.6194058775e+00 -2.8048932579e+00 1.6194058775e+00 2.8048932579e+00 
30400 6.2944153742e+00 1.0494824340e-03 1.6193704529e+00 -2.8048319008e+00 1.6193704529e+00 2.8048319008e+00 
30500 6.2944165752e+00 9.5358034618e-04 1.6193380490e+00 -2.8047757755e+00 1.6193380490e+00 2.8047757755e+00 
30600 6.2944181932e+00 8.5964963099e-04 1.6193086056e+00 -2.8047247780e+00 1.6193086056e+00 2.8047247780e+00 
30700 6.2944202056e+00 7.6770435682e-04 1.6192820619e+00 -2.8046788031e+00 1.6192820619e+00 2.8046788031e+00 
30800 6.2944225895e+00 6.7775634129e-04 1.6192583569e+00 -2.8046377448e+00 1.6192583569e+00 2.8046377448e+00 
30900 6.2944253214e+00 5.8981524550e-04 1.6192374290e+00 -2.8046014965e+00 1.6192374290e+00 2.8046014965e+00 
31000 6.2944283777e+00 5.0388866643e-04 1.6192192163e+00 -2.8045699512e+00 1.6192192163e+00 2.8045699512e+00 
31100 6.2944317347e+00 4.1998222738e-04 1.6192036567e+00 -2.8045430012e+00 1.6192036567e+00 2.8045430012e+00 
31200 6.2944353686e+00 3.3809966646e-04 1.6191906879e+00 -2.8045205386e+00 1.6191906879e+00 2.8045205386e+00 
31300 6.2944392556e+00 2.5824292293e-04 1.6191802475e+00 -2.8045024553e+00 1.6191802475e+00 2.8045024553e+00 
31400 6.2944433720e+00 1.8041222133e-04 1.6191722730e+00 -2.8044886431e+00 1.6191722730e+00 2.8044886431e+00 
31500 6.2944476944e+00 1.0460615345e-04 1.6191667019e+00 -2.8044789936e+00 1.6191667019e+00 2.8044789936e+00 
31600 6.2944521998e+00 3.0821757857e-05 1.6191634717e+00 -2.8044733987e+00 1.6191634717e+00 2.8044733987e+00 
31700 6.2944568651e+00 -3.9660264583e-05 1.6191634717e+00 -2.8044733987e+00 1.6191634717e+00 2.8044733987e+00 
31800 6.2944616685e+00 -1.1111421103e-04 1.6191634717e+00 -2.8044733987e+00 1.6191634717e+00 2.8044733987e+00 
31900 6.2944665878e+00 -1.7885132399e-04 1.6191669029e+00 -2.8044793417e+00 1.6191669029e+00 2.8044793417e+00 
32000 6.2944716019e+00 -2.4459317209e-04 1.6191724258e+00 -2.8044889078e+00 1.6191724258e+00 2.8044889078e+00 
32100 6.2944766900e+00 -3.0834934756e-04 1.6191799789e+00 -2.8045019900e+00 1.6191799789e+00 2.8045019900e+00 
32200 6.2944818323e+00 -3.7013057030e-04 1.6191895007e+00 -2.8045184822e+00 1.6191895007e+00 2.8045184822e+00 
32300 6.2944870094e+00 -4.2994862531e-04 1.6192009302e+00 -2.8045382787e+00 1.6192009302e+00 2.8045382787e+00 
32400 6.2944922029e+00 -4.8781630261e-04 1.6192142068e+00 -2.8045612744e+00 1.6192142068e+00 2.8045612744e+00 
32500 6.2944973950e+00 -5.4374733955e-04 1.6192292701e+00 -2.8045873650e+00 1.6192292701e+00 2.8045873650e+00 
32600 6.2945025688e+00 -5.9775636561e-04 1.6192460605e+00 -2.8046164467e+00 1.6192460605e+00 2.8046164467e+00 
32700 6.2945077082e+00 -6.4985884954e-04 1.6192645184e+00 -2.8046484167e+00 1.6192645184e+00 2.8046484167e+00 
32800 6.2945127981e+00 -7.0007104897e-04 1.6192845849e+00 -2.8046831730e+00 1.6192845849e+00 2.8046831730e+00 
32900 6.2945178241e+00 -7.4840996220e-04 1.6193062016e+00 -2.8047206142e+00 1.6193062016e+00 2.8047206142e+00 
33000 6.2945227728e+00 -7.9489328243e-04 1.6193293107e+00 -2.8047606402e+00 1.6193293107e+00 2.8047606402e+00 
33100 6.2945276317e+00 -8.3953935409e-04 1.6193538546e+00 -2.8048031516e+00 1.6193538546e+00 2.8048031516e+00 
33200 6.2945323891e+00 -8.8236713145e-04 1.6193797767e+00 -2.8048480501e+00 1.6193797767e+00 2.8048480501e+00 
33300 6.2945370343e+00 -9.2339613931e-04 1.6194070208e+00 -2.8048952382e+00 1.6194070208e+00 2.8048952382e+00 
33400 6.2945415576e+00 -9.6264643576e-04 1.6194355312e+00 -2.8049446196e+00 1.6194355312e+00 2.8049446196e+00 
33500 6.2945459500e+00 -1.0001385769e-03 1.6194652530e+00 -2.8049960992e+00 1.6194652530e+00 2.8049960992e+00 
33600 6.2945502036e+00 -1.0358935837e-03 1.6194961317e+00 -2.8050495828e+00 1.6194961317e+00 2.8050495828e+00 
33700 6.2945543111e+00 -1.0699329102e-03 1.6195281138e+00 -2.8051049774e+00 1.6195281138e+00 2.8051049774e+00 
33800 6.2945582663e+00 -1.1022784143e-03 1.6195611462e+00 -2.8051621911e+00 1.6195611462e+00 2.8051621911e+00 
33900 6.2945620638e+00 -1.1329523296e-03 1.6195951764e+00 -2.8052211333e+00 1.6195951764e+00 2.8052211333e+00 
34000 6.2945656990e+00 -1.1619772393e-03 1.6196301530e+00 -2.8052817144e+00 1.6196301530e+00 2.8052817144e+00 
34100 6.2945691681e+00 -1.1893760512e-03 1.6196660248e+00 -2.8053438462e+00 1.6196660248e+00 2.8053438462e+00 
34200 6.2945724681e+00 -1.2151719749e-03 1.6197027416e+00 -2.8054074416e+00 1.6197027416e+00 2.8054074416e+00 
34300 6.2945755967e+00 -1.2393884999e-03 1.6197402540e+00 -2.8054724149e+00 1.6197402540e+00 2.8054724149e+00 
34400 6.2945785525e+00 -1.2620493750e-03 1.6197785130e+00 -2.8055386815e+00 1.6197785130e+00 2.8055386815e+00 
34500 6.2945813346e+00 -1.2831785895e-03 1.6198174706e+00 -2.8056061581e+00 1.6198174706e+00 2.8056061581e+00 
34600 6.2945839428e+00 -1.3028003554e-03 1.6198570795e+00 -2.8056747627e+00 1.6198570795e+00 2.8056747627e+00 
34700 6.2945863776e+00 -1.3209390901e-03 1.6198972931e+00 -2.8057444147e+00 1.6198972931e+00 2.8057444147e+00 
34800 6.2945886401e+00 -1.3376194011e-03 1.6199380656e+00 -2.8058150347e+00 1.6199380656e+00 2.8058150347e+00 
34900 6.2945907321e+00 -1.3528660712e-03 1.6199793519e+00 -2.8058865447e+00 1.6199793519e+00 2.8058865447e+00 
35000 6.2945926555e+00 -1.3667040446e-03 1.6200211077e+00 -2.8059588679e+00 1.6200211077e+00 2.8059588679e+00 
35100 6.2945944133e+00 -1.3791584141e-03 1.6200632896e+00 -2.8060319290e+00 1.6200632896e+00 2.8060319290e+00 
35200 6.2945960085e+00 -1.3902544089e-03 1.6201058547e+00 -2.8061056540e+00 1.6201058547e+00 2.8061056540e+00 
35300 6.2945974448e+00 -1.4000173830e-03 1.6201487612e+00 -2.8061799702e+00 1.6201487612e+00 2.8061799702e+00 
35400 6.2945987262e+00 -1.4084728044e-03 1.6201919678e+00 -2.8062548063e+00 1.6201919678e+00 2.8062548063e+00 
35500 6.2945998570e+00 -1.4156462452e-03 1.6202354343e+00 -2.8063300924e+00 1.6202354343e+00 2.8063300924e+00 
35600 6.2946008419e+00 -1.4215633718e-03 1.6202791209e+00 -2.8064057598e+00 1.6202791209e+00 2.8064057598e+00 
35700 6.2946016861e+00 -1.4262499354e-03 1.6203229889e+00 -2.8064817415e+00 1.6203229889e+00 2.8064817415e+00 
35800 6.2946023947e+00 -1.4297317636e-03 1.6203670004e+00 -2.8065579716e+00 1.6203670004e+00 2.8065579716e+00 
35900 6.2946029732e+00 -1.4320347520e-03 1.6204111182e+00 -2.8066343858e+00 1.6204111182e+00 2.8066343858e+00 
36000 6.2946034275e+00 -1.4331848560e-03 1.6204553057e+00 -2.8067109209e+00 1.6204553057e+00 2.8067109209e+00 
36100 6.2946037633e+00 -1.4332080828e-03 1.6204995276e+00 -2.8067875155e+00 1.6204995276e+00 2.8067875155e+00 
36200 6.2946039867e+00 -1.4321304844e-03 1.6205437490e+00 -2.8068641092e+00 1.6205437490e+00 2.8068641092e+00 
36300 6.2946041038e+00 -1.4299781497e-03 1.6205879359e+00 -2.8069406432e+00 1.6205879359e+00 2.8069406432e+00 
36400 6.2946041209e+00 -1.4267771976e-03 1.6206320552e+00 -2.8070170601e+00 1.6206320552e+00 2.8070170601e+00 
36500 6.2946040443e+00 -1.4225537696e-03 1.6206760746e+00 -2.8070933038e+00 1.6206760746e+00 2.8070933038e+00 
36600 6.2946038802e+00 -1.4173340233e-03 1.6207199625e+00 -2.8071693198e+00 1.6207199625e+00 2.8071693198e+00 
36700 6.2946036349e+00 -1.4111441246e-03 1.6207636881e+00 -2.8072450549e+00 1.6207636881e+00 2.8072450549e+00 
36800 6.2946033148e+00 -1.4040102414e-03 1.6208072216e+00 -2.8073204571e+00 1.6208072216e+00 2.8073204571e+00 
36900 6.2946029261e+00 -1.3959585365e-03 1.6208505339e+00 -2.8073954761e+00 1.6208505339e+00 2.8073954761e+00 
37000 6.2946024750e+00 -1.3870151603e-03 1.6208935966e+00 -2.8074700630e+00 1.6208935966e+00 2.8074700630e+00 
37100 6.2946019675e+00 -1.3772062441e-03 1.6209363823e+00 -2.8075441700e+00 1.6209363823e+00 2.8075441700e+00 
37200 6.2946014098e+00 -1.3665578926e-03 1.6209788643e+00 -2.8076177509e+00 1.6209788643e+00 2.8076177509e+00 
37300 6.2946008077e+00 -1.3550961771e-03 1.6210210167e+00 -2.8076907611e+00 1.6210210167e+00 2.8076907611e+00 
37400 6.2946001669e+00 -1.3428471277e-03 1.6210628145e+00 -2.8077631570e+00 1.6210628145e+00 2.8077631570e+00 
37500 6.2945994931e+00 -1.3298367262e-03 1.6211042334e+00 -2.8078348966e+00 1.6211042334e+00 2.8078348966e+00 
37600 6.2945987917e+00 -1.3160908984e-03 1.6211452500e+00 -2.8079059394e+00 1.6211452500e+00 2.8079059394e+00 
37700 6.2945980679e+00 -1.3016355062e-03 1.6211858415e+00 -2.8079762460e+00 1.6211858415e+00 2.8079762460e+00 
37800 6.2945973269e+00 -1.2864963402e-03 1.6212259862e+00 -2.8080457787e+00 1.6212259862e+00 2.8080457787e+00 
37900 6.2945965735e+00 -1.2706991109e-03 1.6212656631e+00 -2.8081145010e+00 1.6212656631e+00 2.8081145010e+00 
38000 6.2945958124e+00 -1.2542694416e-03 1.6213048517e+00 -2.8081823777e+00 1.6213048517e+00 2.8081823777e+00 
38100 6.2945950481e+00 -1.2372328589e-03 1.6213435327e+00 -2.8082493752e+00 1.6213435327e+00 2.8082493752e+00 
38200 6.2945942848e+00 -1.2196147854e-03 1.6213816874e+00 -2.8083154611e+00 1.6213816874e+00 2.8083154611e+00 
38300 6.2945935265e+00 -1.2014405299e-03 1.6214192979e+00 -2.8083806044e+00 1.6214192979e+00 2.8083806044e+00 
38400 6.2945927770e+00 -1.1827352799e-03 1.6214563471e+00 -2.8084447754e+00 1.6214563471e+00 2.8084447754e+00 
38500 6.2945920400e+00 -1.1635240914e-03 1.6214928186e+00 -2.8085079460e+00 1.6214928186e+00 2.8085079460e+00 
38600 6.2945913187e+00 -1.1438318810e-03 1.6215286969e+00 -2.8085700890e+00 1.6215286969e+00 2.8085700890e+00 
38700 6.2945906162e+00 -1.1236834160e-03 1.6215639672e+00 -2.8086311790e+00 1.6215639672e+00 2.8086311790e+00 
38800 6.2945899354e+00 -1.1031033054e-03 1.6215986155e+00 -2.8086911915e+00 1.6215986155e+00 2.8086911915e+00 
38900 6.2945892790e+00 -1.0821159905e-03 1.6216326285e+00 -2.8087501037e+00 1.6216326285e+00 2.8087501037e+00 
39000 6.2945886493e+00 -1.0607457354e-03 1.6216659936e+00 -2.8088078938e+00 1.6216659936e+00 2.8088078938e+00 
39100 6.2945880485e+00 -1.0390166175e-03 1.6216986991e+00 -2.8088645415e+00 1.6216986991e+00 2.8088645415e+00 
39200 6.2945874786e+00 -1.0169525177e-03 1.6217307341e+00 -2.8089200276e+00 1.6217307341e+00 2.8089200276e+00 
39300 6.2945869413e+00 -9.9457711086e-04 1.6217620881e+00 -2.8089743343e+00 1.6217620881e+00 2.8089743343e+00 
39400 6.2945864381e+00 -9.7191385614e-04 1.6217927517e+00 -2.8090274452e+00 1.6217927517e+00 2.8090274452e+00 
39500 6.2945859703e+00 -9.4898598700e-04 1.6218227159e+00 -2.8090793449e+00 1.6218227159e+00 2.8090793449e+00 
39600 6.2945855390e+00 -9.2581650160e-04 1.6218519728e+00 -2.8091300192e+00 1.6218519728e+00 2.8091300192e+00 
39700 6.2945851451e+00 -9.0242815302e-04 1.6218805148e+00 -2.8091794555e+00 1.6218805148e+00 2.8091794555e+00 
39800 6.2945847893e+00 -8.7884343944e-04 1.6219083353e+00 -2.8092276420e+00 1.6219083353e+00 2.8092276420e+00 
39900 6.2945844721e+00 -8.5508459451e-04 1.6219354283e+00 -2.8092745684e+00 1.6219354283e+00 2.8092745684e+00 
40000 6.2945841938e+00 -8.3117357763e-04 1.6219617884e+00 -2.8093202254e+00 1.6219617884e+00 2.8093202254e+00 
40100 6.2945839545e+00 -8.0713206436e-04 1.6219874109e+00 -2.8093646049e+00 1.6219874109e+00 2.8093646049e+00 
40200 6.2945837544e+00 -7.8298143694e-04 1.6220122919e+00 -2.8094077001e+00 1.6220122919e+00 2.8094077001e+00 
40300 6.2945835932e+00 -7.5874277489e-04 1.6220364281e+00 -2.8094495052e+00 1.6220364281e+00 2.8094495052e+00 
40400 6.2945834705e+00 -7.3443684566e-04 1.6220598167e+00 -2.8094900155e+00 1.6220598167e+00 2.8094900155e+00 
40500 6.2945833861e+00 -7.1008409556e-04 1.6220824558e+00 -2.8095292275e+00 1.6220824558e+00 2.8095292275e+00 
40600 6.2945833392e+00 -6.8570464069e-04 1.6221043439e+00 -2.8095671388e+00 1.6221043439e+00 2.8095671388e+00 
40700 6.2945833291e+00 -6.6131825817e-04 1.6221254802e+00 -2.8096037480e+00 1.6221254802e+00 2.8096037480e+00 
40800 6.2945833551e+00 -6.3694437744e-04 1.6221458646e+00 -2.8096390547e+00 1.6221458646e+00 2.8096390547e+00 
40900 6.2945834163e+00 -6.1260207182e-04 1.6221654974e+00 -2.8096730598e+00 1.6221654974e+00 2.8096730598e+00 
41000 6.2945835115e+00 -5.8831005033e-04 1.6221843797e+00 -2.8097057648e+00 1.6221843797e+00 2.8097057648e+00 
41100 6.2945836398e+00 -5.6408664962e-04 1.6222025130e+00 -2.8097371726e+00 1.6222025130e+00 2.8097371726e+00 
41200 6.2945837998e+00 -5.3994982622e-04 1.6222198994e+00 -2.8097672869e+00 1.6222198994e+00 2.8097672869e+00 
41300 6.2945839905e+00 -5.1591714910e-04 1.6222365418e+00 -2.8097961122e+00 1.6222365418e+00 2.8097961122e+00 
41400 6.2945842103e+00 -4.9200579235e-04 1.6222524432e+00 -2.8098236544e+00 1.6222524432e+00 2.8098236544e+00 
41500 6.2945844580e+00 -4.6823252832e-04 1.6222676075e+00 -2.8098499197e+00 1.6222676075e+00 2.8098499197e+00 
41600 6.2945847322e+00 -4.4461372091e-04 1.6222820390e+00 -2.8098749157e+00 1.6222820390e+00 2.8098749157e+00 
41700 6.2945850313e+00 -4.2116531927e-04 1.6222957423e+00 -2.8098986506e+00 1.6222957423e+00 2.8098986506e+00 
41800 6.2945853538e+00 -3.9790285176e-04 1.6223087229e+00 -2.8099211336e+00 1.6223087229e+00 2.8099211336e+00 
41900 6.2945856984e+00 -3.7484142029e-04 1.6223209864e+00 -2.8099423746e+00 1.6223209864e+00 2.8099423746e+00 
42000 6.2945860633e+00 -3.5199569494e-04 1.6223325390e+00 -2.8099623843e+00 1.6223325390e+00 2.8099623843e+00 
42100 6.2945864471e+00 -3.2937990896e-04 1.6223433875e+00 -2.8099811744e+00 1.6223433875e+00 2.8099811744e+00 
42200 6.2945868483e+00 -3.0700785419e-04 1.6223535388e+00 -2.8099987571e+00 1.6223535388e+00 2.8099987571e+00 
42300 6.2945872651e+00 -2.8489287671e-04 1.6223630007e+00 -2.8100151454e+00 1.6223630007e+00 2.8100151454e+00 
42400 6.2945876962e+00 -2.6304787298e-04 1.6223717808e+00 -2.8100303532e+00 1.6223717808e+00 2.8100303532e+00 
42500 6.2945881400e+00 -2.4148528632e-04 1.6223798877e+00 -2.8100443947e+00 1.6223798877e+00 2.8100443947e+00 
42600 6.2945885949e+00 -2.2021710376e-04 1.6223873301e+00 -2.8100572852e+00 1.6223873301e+00 2.8100572852e+00 
42700 6.2945890594e+00 -1.9925485331e-04 1.6223941169e+00 -2.8100690404e+00 1.6223941169e+00 2.8100690404e+00 
42800 6.2945895322e+00 -1.7860960157e-04 1.6224002577e+00 -2.8100796765e+00 1.6224002577e+00 2.8100796765e+00 
42900 6.2945900117e+00 -1.5829195181e-04 1.6224057621e+00 -2.8100892105e+00 1.6224057621e+00 2.8100892105e+00 
43000 6.2945904965e+00 -1.3831204243e-04 1.6224106405e+00 -2.8100976600e+00 1.6224106405e+00 2.8100976600e+00 
43100 6.2945909853e+00 -1.1867954573e-04 1.6224149030e+00 -2.8101050430e+00 1.6224149030e+00 2.8101050430e+00 
43200 6.2945914768e+00 -9.9403667245e-05 1.6224185605e+00 -2.8101113779e+00 1.6224185605e+00 2.8101113779e+00 
43300 6.2945919696e+00 -8.0493145335e-05 1.6224216240e+00 -2.8101166840e+00 1.6224216240e+00 2.8101166840e+00 
43400 6.2945924626e+00 -6.1956251265e-05 1.6224241046e+00 -2.8101209806e+00 1.6224241046e+00 2.8101209806e+00 
43500 6.2945929546e+00 -4.6360304401e-05 1.6224241046e+00 -2.8101209806e+00 1.6224241046e+00 2.8101209806e+00 
43600 6.2945934443e+00 -3.0421081772e-05 1.6224241046e+00 -2.8101209806e+00 1.6224241046e+00 2.8101209806e+00 
43700 6.2945939307e+00 -1.4156493711e-05 1.6224241046e+00 -2.8101209806e+00 1.6224241046e+00 2.8101209806e+00 
43800 6.2945944128e+00 2.4157225688e-06 1.6224241046e+00 -2.8101209806e+00 1.6224241046e+00 2.8101209806e+00 
43900 6.2945948897e+00 1.9278006586e-05 1.6224241046e+00 -2.8101209806e+00 1.6224241046e+00 2.8101209806e+00 
44000 6.2945953605e+00 3.6412978339e-05 1.6224241046e+00 -2.8101209806e+00 1.6224241046e+00 2.8101209806e+00 
44100 6.2945958244e+00 5.3803442139e-05 1.6224241046e+00 -2.8101209806e+00 1.6224241046e+00 2.8101209806e+00 
44200 6.2945962806e+00 7.1432390554e-05 1.6224241046e+00 -2.8101209806e+00 1.6224241046e+00 2.8101209806e+00 
44300 6.2945967282e+00 8.6331594893e-05 1.6224219032e+00 -2.8101171676e+00 1.6224219032e+00 2.8101171676e+00 
44400 6.2945971667e+00 1.0079946056e-04 1.6224192426e+00 -2.8101125594e+00 1.6224192426e+00 2.8101125594e+00 
44500 6.2945975953e+00 1.1483274356e-04 1.6224161362e+00 -2.8101071788e+00 1.6224161362e+00 2.8101071788e+00 
44600 6.2945980136e+00 1.2842863545e-04 1.6224125972e+00 -2.8101010492e+00 1.6224125972e+00 2.8101010492e+00 
44700 6.2945984210e+00 1.4158475837e-04 1.6224086393e+00 -2.8100941938e+00 1.6224086393e+00 2.8100941938e+00 
44800 6.2945988171e+00 1.5429915986e-04 1.6224042759e+00 -2.8100866362e+00 1.6224042759e+00 2.8100866362e+00 
44900 6.2945992016e+00 1.6657030721e-04 1.6223995206e+00 -2.8100783998e+00 1.6223995206e+00 2.8100783998e+00 
45000 6.2945995740e+00 1.7839708161e-04 1.6223943871e+00 -2.8100695084e+00 1.6223943871e+00 2.8100695084e+00 
45100 6.2945999341e+00 1.8977877192e-04 1.6223888892e+00 -2.8100599857e+00 1.6223888892e+00 2.8100599857e+00 
45200 6.2946002816e+00 2.0071506817e-04 1.6223830404e+00 -2.8100498554e+00 1.6223830404e+00 2.8100498554e+00 
45300 6.2946006164e+00 2.1120605478e-04 1.6223768546e+00 -2.8100391413e+00 1.6223768546e+00 2.8100391413e+00 
45400 6.2946009384e+00 2.2125220353e-04 1.6223703455e+00 -2.8100278671e+00 1.6223703455e+00 2.8100278671e+00 
45500 6.2946012475e+00 2.3085436616e-04 1.6223635267e+00 -2.8100160566e+00 1.6223635267e+00 2.8100160566e+00 
45600 6.2946015436e+00 2.4001376688e-04 1.6223564120e+00 -2.8100037335e+00 1.6223564120e+00 2.8100037335e+00 
45700 6.2946018267e+00 2.4873199448e-04 1.6223490149e+00 -2.8099909214e+00 1.6223490149e+00 2.8099909214e+00 
45800 6.2946020969e+00 2.5701099432e-04 1.6223413491e+00 -2.8099776439e+00 1.6223413491e+00 2.8099776439e+00 
45900 6.2946023542e+00 2.6485306009e-04 1.6223334281e+00 -2.8099639243e+00 1.6223334281e+00 2.8099639243e+00 
46000 6.2946025988e+00 2.7226082528e-04 1.6223252654e+00 -2.8099497861e+00 1.6223252654e+00 2.8099497861e+00 
46100 6.2946028309e+00 2.7923725457e-04 1.6223168743e+00 -2.8099352523e+00 1.6223168743e+00 2.8099352523e+00 
46200 6.2946030506e+00 2.8578563499e-04 1.6223082682e+00 -2.8099203461e+00 1.6223082682e+00 2.8099203461e+00 
46300 6.2946032581e+00 2.9190956688e-04 1.6222994602e+00 -2.8099050902e+00 1.6222994602e+00 2.8099050902e+00 
46400 6.2946034538e+00 2.9761295477e-04 1.6222904635e+00 -2.8098895073e+00 1.6222904635e+00 2.8098895073e+00 
46500 6.2946036377e+00 3.0289999806e-04 1.6222812908e+00 -2.8098736199e+00 1.6222812908e+00 2.8098736199e+00 
46600 6.2946038104e+00 3.0777518156e-04 1.6222719552e+00 -2.8098574502e+00 1.6222719552e+00 2.8098574502e+00 
46700 6.2946039720e+00 3.1224326601e-04 1.6222624693e+00 -2.8098410201e+00 1.6222624693e+00 2.8098410201e+00 
46800 6.2946041230e+00 3.1630927834e-04 1.6222528456e+00 -2.8098243514e+00 1.6222528456e+00 2.8098243514e+00 
46900 6.2946042636e+00 3.1997850201e-04 1.6222430966e+00 -2.8098074655e+00 1.6222430966e+00 2.8098074655e+00 
47000 6.2946043943e+00 3.2325646711e-04 1.6222332344e+00 -2.8097903836e+00 1.6222332344e+00 2.8097903836e+00 
47100 6.2946045155e+00 3.2614894054e-04 1.6222232710e+00 -2.8097731267e+00 1.6222232710e+00 2.8097731267e+00 
47200 6.2946046274e+00 3.2866191598e-04 1.6222132185e+00 -2.8097557152e+00 1.6222132185e+00 2.8097557152e+00 
47300 6.2946047307e+00 3.3080160399e-04 1.6222030885e+00 -2.8097381695e+00 1.6222030885e+00 2.8097381695e+00 
47400 6.2946048255e+00 3.3257442191e-04 1.6221928924e+00 -2.8097205094e+00 1.6221928924e+00 2.8097205094e+00 
47500 6.2946049125e+00 3.3398698387e-04 1.6221826417e+00 -2.8097027546e+00 1.6221826417e+00 2.8097027546e+00 
47600 6.2946049920e+00 3.3504609071e-04 1.6221723473e+00 -2.8096849242e+00 1.6221723473e+00 2.8096849242e+00 
47700 6.2946050644e+00 3.3575871996e-04 1.6221620203e+00 -2.8096670372e+00 1.6221620203e+00 2.8096670372e+00 
47800 6.2946051302e+00 3.3613201579e-04 1.6221516712e+00 -2.8096491120e+00 1.6221516712e+00 2.8096491120e+00 
47900 6.2946051898e+00 3.3617327899e-04 1.6221413105e+00 -2.8096311668e+00 1.6221413105e+00 2.8096311668e+00 
48000 6.2946052436e+00 3.3588995704e-04 1.6221309485e+00 -2.8096132193e+00 1.6221309485e+00 2.8096132193e+00 
48100 6.2946052920e+00 3.3528963416e-04 1.6221205951e+00 -2.8095952868e+00 1.6221205951e+00 2.8095952868e+00 
48200 6.2946053355e+00 3.3438002144e-04 1.6221102602e+00 -2.8095773862e+00 1.6221102602e+00 2.8095773862e+00 
48300 6.2946053745e+00 3.3316894703e-04 1.6220999533e+00 -2.8095595340e+00 1.6220999533e+00 2.8095595340e+00 
48400 6.2946054094e+00 3.3166434644e-04 1.6220896836e+00 -2.8095417465e+00 1.6220896836e+00 2.8095417465e+00 
48500 6.2946054406e+00 3.2987425289e-04 1.6220794603e+00 -2.8095240391e+00 1.6220794603e+00 2.8095240391e+00 
48600 6.2946054684e+00 3.2780678773e-04 1.6220692920e+00 -2.8095064272e+00 1.6220692920e+00 2.8095064272e+00 
48700 6.2946054933e+00 3.2547015103e-04 1.6220591874e+00 -2.8094889255e+00 1.6220591874e+00 2.8094889255e+00 
48800 6.2946055156e+00 3.2287261225e-04 1.6220491548e+00 -2.8094715485e+00 1.6220491548e+00 2.8094715485e+00 
48900 6.2946055356e+00 3.2002250099e-04 1.6220392022e+00 -2.8094543101e+00 1.6220392022e+00 2.8094543101e+00 
49000 6.2946055538e+00 3.1692819792e-04 1.6220293374e+00 -2.8094372238e+00 1.6220293374e+00 2.8094372238e+00 
49100 6.2946055704e+00 3.1359812582e-04 1.6220195679e+00 -2.8094203025e+00 1.6220195679e+00 2.8094203025e+00 
49200 6.2946055858e+00 3.1004074078e-04 1.6220099010e+00 -2.8094035590e+00 1.6220099010e+00 2.8094035590e+00 
49300 6.2946056002e+00 3.0626452350e-04 1.6220003437e+00 -2.8093870053e+00 1.6220003437e+00 2.8093870053e+00 
49400 6.2946056140e+00 3.0227797080e-04 1.6219909028e+00 -2.8093706531e+00 1.6219909028e+00 2.8093706531e+00 
49500 6.2946056274e+00 2.9808958728e-04 1.6219815847e+00 -2.8093545136e+00 1.6219815847e+00 2.8093545136e+00 
49600 6.2946056406e+00 2.9370787707e-04 1.6219723956e+00 -2.8093385977e+00 1.6219723956e+00 2.8093385977e+00 
49700 6.2946056540e+00 2.8914133590e-04 1.6219633416e+00 -2.8093229157e+00 1.6219633416e+00 2.8093229157e+00 
49800 6.2946056677e+00 2.8439844318e-04 1.6219544283e+00 -2.8093074774e+00 1.6219544283e+00 2.8093074774e+00 
49900 6.2946056820e+00 2.7948765438e-04 1.6219456612e+00 -2.8092922923e+00 1.6219456612e+00 2.8092922923e+00 
50000 6.2946056970e+00 2.7441739355e-04 1.6219370454e+00 -2.8092773693e+00 1.6219370454e+00 2.8092773693e+00 
50100 6.2946057130e+00 2.6919604602e-04 1.6219285858e+00 -2.8092627169e+00 1.6219285858e+00 2.8092627169e+00 
50200 6.2946057300e+00 2.6383195130e-04 1.6219202872e+00 -2.8092483432e+00 1.6219202872e+00 2.8092483432e+00 
50300 6.2946057483e+00 2.5833339624e-04 1.6219121539e+00 -2.8092342559e+00 1.6219121539e+00 2.8092342559e+00 
50400 6.2946057680e+00 2.5270860823e-04 1.6219041900e+00 -2.8092204621e+00 1.6219041900e+00 2.8092204621e+00 
50500 6.2946057892e+00 2.4696574880e-04 1.6218963995e+00 -2.8092069686e+00 1.6218963995e+00 2.8092069686e+00 
50600 6.2946058120e+00 2.4111290726e-04 1.6218887861e+00 -2.8091937817e+00 1.6218887861e+00 2.8091937817e+00 
50700 6.2946058365e+00 2.3515809466e-04 1.6218813530e+00 -2.8091809072e+00 1.6218813530e+00 2.8091809072e+00 
50800 6.2946058628e+00 2.2910923788e-04 1.6218741034e+00 -2.8091683506e+00 1.6218741034e+00 2.8091683506e+00 
50900 6.2946058909e+00 2.2297417398e-04 1.6218670403e+00 -2.8091561170e+00 1.6218670403e+00 2.8091561170e+00 
51000 6.2946059210e+00 2.1676064473e-04 1.6218601663e+00 -2.8091442109e+00 1.6218601663e+00 2.8091442109e+00 
51100 6.2946059529e+00 2.1047629140e-04 1.6218534839e+00 -2.8091326365e+00 1.6218534839e+00 2.8091326365e+00 
51200 6.2946059869e+00 2.0412864967e-04 1.6218469951e+00 -2.8091213977e+00 1.6218469951e+00 2.8091213977e+00 
51300 6.2946060228e+00 1.9772514490e-04 1.6218407020e+00 -2.8091104977e+00 1.6218407020e+00 2.8091104977e+00 
51400 6.2946060608e+00 1.9127308741e-04 1.6218346063e+00 -2.8090999396e+00 1.6218346063e+00 2.8090999396e+00 
51500 6.2946061007e+00 1.8477966820e-04 1.6218287095e+00 -2.8090897261e+00 1.6218287095e+00 2.8090897261e+00 
51600 6.2946061426e+00 1.7825195473e-04 1.6218230129e+00 -2.8090798592e+00 1.6218230129e+00 2.8090798592e+00 
51700 6.2946061865e+00 1.7169688693e-04 1.6218175175e+00 -2.8090703409e+00 1.6218175175e+00 2.8090703409e+00 
51800 6.2946062322e+00 1.6512127350e-04 1.6218122241e+00 -2.8090611725e+00 1.6218122241e+00 2.8090611725e+00 
51900 6.2946062799e+00 1.5853178835e-04 1.6218071335e+00 -2.8090523553e+00 1.6218071335e+00 2.8090523553e+00 
52000 6.2946063294e+00 1.5193496724e-04 1.6218022460e+00 -2.8090438899e+00 1.6218022460e+00 2.8090438899e+00 
52100 6.2946063807e+00 1.4533720472e-04 1.6217975618e+00 -2.8090357767e+00 1.6217975618e+00 2.8090357767e+00 
52200 6.2946064337e+00 1.3874475116e-04 1.6217930811e+00 -2.8090280158e+00 1.6217930811e+00 2.8090280158e+00 
52300 6.2946064883e+00 1.3216371008e-04 1.6217888036e+00 -2.8090206070e+00 1.6217888036e+00 2.8090206070e+00 
52400 6.2946065446e+00 1.2560003563e-04 1.6217847290e+00 -2.8090135495e+00 1.6217847290e+00 2.8090135495e+00 
52500 6.2946066023e+00 1.1905953028e-04 1.6217808567e+00 -2.8090068425e+00 1.6217808567e+00 2.8090068425e+00 
52600 6.2946066614e+00 1.1254784275e-04 1.6217771861e+00 -2.8090004848e+00 1.6217771861e+00 2.8090004848e+00 
52700 6.2946067219e+00 1.0607046604e-04 1.6217737162e+00 -2.8089944748e+00 1.6217737162e+00 2.8089944748e+00 
52800 6.2946067837e+00 9.9632735788e-05 1.6217704460e+00 -2.8089888106e+00 1.6217704460e+00 2.8089888106e+00 
52900 6.2946068465e+00 9.3239828690e-05 1.6217673742e+00 -2.8089834902e+00 1.6217673742e+00 2.8089834902e+00 
53000 6.2946069105e+00 8.6896761199e-05 1.6217644996e+00 -2.8089785112e+00 1.6217644996e+00 2.8089785112e+00 
53100 6.2946069754e+00 8.0608388372e-05 1.6217618205e+00 -2.8089738709e+00 1.6217618205e+00 2.8089738709e+00 
53200 6.2946070412e+00 7.4379402898e-05 1.6217593353e+00 -2.8089695664e+00 1.6217593353e+00 2.8089695664e+00 
53300 6.2946071078e+00 6.8214334301e-05 1.6217570421e+00 -2.8089655945e+00 1.6217570421e+00 2.8089655945e+00 
53400 6.2946071752e+00 6.4941272498e-05 1.6217570421e+00 -2.8089655945e+00 1.6217570421e+00 2.8089655945e+00 
53500 6.2946072431e+00 6.1508072511e-05 1.6217570421e+00 -2.8089655945e+00 1.6217570421e+00 2.8089655945e+00 
53600 6.2946073114e+00 5.7920287122e-05 1.6217570421e+00 -2.8089655945e+00 1.6217570421e+00 2.8089655945e+00 
53700 6.2946073801e+00 5.4183435141e-05 1.6217570421e+00 -2.8089655945e+00 1.6217570421e+00 2.8089655945e+00 
53800 6.2946074491e+00 5.0303000136e-05 1.6217570421e+00 -2.8089655945e+00 1.6217570421e+00 2.8089655945e+00 
53900 6.2946075182e+00 4.6284429158e-05 1.6217570421e+00 -2.8089655945e+00 1.6217570421e+00 2.8089655945e+00 
54000 6.2946075873e+00 4.2133131437e-05 1.6217570421e+00 -2.8089655945e+00 1.6217570421e+00 2.8089655945e+00 
54100 6.2946076565e+00 3.7854477071e-05 1.6217570421e+00 -2.8089655945e+00 1.6217570421e+00 2.8089655945e+00 
54200 6.2946077255e+00 3.3453795685e-05 1.6217570421e+00 -2.8089655945e+00 1.6217570421e+00 2.8089655945e+00 
54300 6.2946077944e+00 2.8936375094e-05 1.6217570421e+00 -2.8089655945e+00 1.6217570421e+00 2.8089655945e+00 
54400 6.2946078629e+00 2.4307459937e-05 1.6217570421e+00 -2.8089655945e+00 1.6217570421e+00 2.8089655945e+00 
54500 6.2946079312e+00 1.9572250323e-05 1.6217570421e+00 -2.8089655945e+00 1.6217570421e+00 2.8089655945e+00 
54600 6.2946079990e+00 1.4735900451e-05 1.6217570421e+00 -2.8089655945e+00 1.6217570421e+00 2.8089655945e+00 
54700 6.2946080664e+00 9.8035172449e-06 1.6217570421e+00 -2.8089655945e+00 1.6217570421e+00 2.8089655945e+00 
54800 6.2946081332e+00 4.7801589570e-06 1.6217570421e+00 -2.8089655945e+00 1.6217570421e+00 2.8089655945e+00 
54900 6.2946081994e+00 -3.2916619172e-07 1.6217570421e+00 -2.8089655945e+00 1.6217570421e+00 2.8089655945e+00 
55000 6.2946082649e+00 -5.5195013987e-06 1.6217570421e+00 -2.8089655945e+00 1.6217570421e+00 2.8089655945e+00 
55100 6.2946083297e+00 -1.0785942641e-05 1.6217570421e+00 -2.8089655945e+00 1.6217570421e+00 2.8089655945e+00 
55200 6.2946083937e+00 -1.6123640055e-05 1.6217570421e+00 -2.8089655945e+00 1.6217570421e+00 2.8089655945e+00 
55300 6.2946084568e+00 -2.1527799278e-05 1.6217570421e+00 -2.8089655945e+00 1.6217570421e+00 2.8089655945e+00 
55400 6.2946085191e+00 -2.6993682804e-05 1.6217570421e+00 -2.8089655945e+00 1.6217570421e+00 2.8089655945e+00 
55500 6.2946085805e+00 -3.2516611310e-05 1.6217570421e+00 -2.8089655945e+00 1.6217570421e+00 2.8089655945e+00 
55600 6.2946086409e+00 -3.8091964977e-05 1.6217570421e+00 -2.8089655945e+00 1.6217570421e+00 2.8089655945e+00 
55700 6.2946087004e+00 -4.3715184788e-05 1.6217570421e+00 -2.8089655945e+00 1.6217570421e+00 2.8089655945e+00 
55800 6.2946087588e+00 -4.9381773810e-05 1.6217570421e+00 -2.8089655945e+00 1.6217570421e+00 2.8089655945e+00 
55900 6.2946088162e+00 -5.5087298448e-05 1.6217570421e+00 -2.8089655945e+00 1.6217570421e+00 2.8089655945e+00 
56000 6.2946088725e+00 -6.0827389696e-05 1.6217570421e+00 -2.8089655945e+00 1.6217570421e+00 2.8089655945e+00 
56100 6.2946089277e+00 -6.6597744333e-05 1.6217570421e+00 -2.8089655945e+00 1.6217570421e+00 2.8089655945e+00 
56200 6.2946089818e+00 -7.2394126115e-05 1.6217570421e+00 -2.8089655945e+00 1.6217570421e+00 2.8089655945e+00 
56300 6.2946090346e+00 -7.5215999050e-05 1.6217592741e+00 -2.8089694604e+00 1.6217592741e+00 2.8089694604e+00 
56400 6.2946090861e+00 -7.7917912176e-05 1.6217615931e+00 -2.8089734770e+00 1.6217615931e+00 2.8089734770e+00 
56500 6.2946091365e+00 -8.0499688425e-05 1.6217639953e+00 -2.8089776378e+00 1.6217639953e+00 2.8089776378e+00 
56600 6.2946091857e+00 -8.2961287052e-05 1.6217664772e+00 -2.8089819365e+00 1.6217664772e+00 2.8089819365e+00 
56700 6.2946092337e+00 -8.5302799716e-05 1.6217690349e+00 -2.8089863667e+00 1.6217690349e+00 2.8089863667e+00 
56800 6.2946092805e+00 -8.7524446548e-05 1.6217716649e+00 -2.8089909218e+00 1.6217716649e+00 2.8089909218e+00 
56900 6.2946093261e+00 -8.9626572238e-05 1.6217743633e+00 -2.8089955956e+00 1.6217743633e+00 2.8089955956e+00 
57000 6.2946093705e+00 -9.1609642105e-05 1.6217771265e+00 -2.8090003817e+00 1.6217771265e+00 2.8090003817e+00 
57100 6.2946094138e+00 -9.3474238187e-05 1.6217799509e+00 -2.8090052736e+00 1.6217799509e+00 2.8090052736e+00 
57200 6.2946094559e+00 -9.5221055323e-05 1.6217828327e+00 -2.8090102651e+00 1.6217828327e+00 2.8090102651e+00 
57300 6.2946094968e+00 -9.6850897270e-05 1.6217857684e+00 -2.8090153499e+00 1.6217857684e+00 2.8090153499e+00 
57400 6.2946095366e+00 -9.8364672806e-05 1.6217887543e+00 -2.8090205217e+00 1.6217887543e+00 2.8090205217e+00 
57500 6.2946095753e+00 -9.9763391856e-05 1.6217917869e+00 -2.8090257743e+00 1.6217917869e+00 2.8090257743e+00 
57600 6.2946096129e+00 -1.0104816164e-04 1.6217948627e+00 -2.8090311016e+00 1.6217948627e+00 2.8090311016e+00 
57700 6.2946096494e+00 -1.0222018285e-04 1.6217979780e+00 -2.8090364975e+00 1.6217979780e+00 2.8090364975e+00 
57800 6.2946096848e+00 -1.0328074582e-04 1.6218011294e+00 -2.8090419559e+00 1.6218011294e+00 2.8090419559e+00 
57900 6.2946097193e+00 -1.0423122673e-04 1.6218043136e+00 -2.8090474710e+00 1.6218043136e+00 2.8090474710e+00 
58000 6.2946097527e+00 -1.0507308386e-04 1.6218075270e+00 -2.8090530369e+00 1.6218075270e+00 2.8090530369e+00 
58100 6.2946097852e+00 -1.0580785383e-04 1.6218107664e+00 -2.8090586476e+00 1.6218107664e+00 2.8090586476e+00 
58200 6.2946098167e+00 -1.0643714793e-04 1.6218140284e+00 -2.8090642976e+00 1.6218140284e+00 2.8090642976e+00 
58300 6.2946098473e+00 -1.0696264839e-04 1.6218173098e+00 -2.8090699812e+00 1.6218173098e+00 2.8090699812e+00 
58400 6.2946098770e+00 -1.0738610479e-04 1.6218206075e+00 -2.8090756929e+00 1.6218206075e+00 2.8090756929e+00 
58500 6.2946099058e+00 -1.0770933041e-04 1.6218239181e+00 -2.8090814271e+00 1.6218239181e+00 2.8090814271e+00 
58600 6.2946099339e+00 -1.0793419873e-04 1.6218272387e+00 -2.8090871786e+00 1.6218272387e+00 2.8090871786e+00 
58700 6.2946099611e+00 -1.0806263980e-04 1.6218305663e+00 -2.8090929421e+00 1.6218305663e+00 2.8090929421e+00 
58800 6.2946099876e+00 -1.0809663685e-04 1.6218338978e+00 -2.8090987124e+00 1.6218338978e+00 2.8090987124e+00 
58900 6.2946100133e+00 -1.0803822281e-04 1.6218372303e+00 -2.8091044846e+00 1.6218372303e+00 2.8091044846e+00 
59000 6.2946100384e+00 -1.0788947691e-04 1.6218405611e+00 -2.8091102536e+00 1.6218405611e+00 2.8091102536e+00 
59100 6.2946100628e+00 -1.0765252132e-04 1.6218438872e+00 -2.8091160146e+00 1.6218438872e+00 2.8091160146e+00 
59200 6.2946100865e+00 -1.0732951787e-04 1.6218472061e+00 -2.8091217630e+00 1.6218472061e+00 2.8091217630e+00 
59300 6.2946101097e+00 -1.0692266480e-04 1.6218505149e+00 -2.8091274941e+00 1.6218505149e+00 2.8091274941e+00 
59400 6.2946101323e+00 -1.0643419355e-04 1.6218538112e+00 -2.8091332035e+00 1.6218538112e+00 2.8091332035e+00 
59500 6.2946101543e+00 -1.0586636559e-04 1.6218570925e+00 -2.8091388868e+00 1.6218570925e+00 2.8091388868e+00 
59600 6.2946101759e+00 -1.0522146940e-04 1.6218603562e+00 -2.8091445398e+00 1.6218603562e+00 2.8091445398e+00 
59700 6.2946101969e+00 -1.0450181733e-04 1.6218636001e+00 -2.8091501583e+00 1.6218636001e+00 2.8091501583e+00 
59800 6.2946102175e+00 -1.0370974272e-04 1.6218668217e+00 -2.8091557384e+00 1.6218668217e+00 2.8091557384e+00 
59900 6.2946102377e+00 -1.0284759689e-04 1.6218700190e+00 -2.8091612761e+00 1.6218700190e+00 2.8091612761e+00 
60000 6.2946102575e+00 -1.0191774635e-04 1.6218731896e+00 -2.8091667679e+00 1.6218731896e+00 2.8091667679e+00 
60100 6.2946102769e+00 -1.0092256997e-04 1.6218763316e+00 -2.8091722099e+00 1.6218763316e+00 2.8091722099e+00 
60200 6.2946102960e+00 -9.9864456219e-05 1.6218794429e+00 -2.8091775989e+00 1.6218794429e+00 2.8091775989e+00 
60300 6.2946103148e+00 -9.8745800504e-05 1.6218825216e+00 -2.8091829313e+00 1.6218825216e+00 2.8091829313e+00 
60400 6.2946103332e+00 -9.7569002566e-05 1.6218855657e+00 -2.8091882039e+00 1.6218855657e+00 2.8091882039e+00 
60500 6.2946103514e+00 -9.6336463897e-05 1.6218885736e+00 -2.8091934137e+00 1.6218885736e+00 2.8091934137e+00 
60600 6.2946103694e+00 -9.5050585282e-05 1.6218915435e+00 -2.8091985577e+00 1.6218915435e+00 2.8091985577e+00 
60700 6.2946103871e+00 -9.3713764354e-05 1.6218944738e+00 -2.8092036331e+00 1.6218944738e+00 2.8092036331e+00 
60800 6.2946104046e+00 -9.2328393251e-05 1.6218973628e+00 -2.8092086370e+00 1.6218973628e+00 2.8092086370e+00 
60900 6.2946104219e+00 -9.0896856312e-05 1.6219002091e+00 -2.8092135669e+00 1.6219002091e+00 2.8092135669e+00 
61000 6.2946104391e+00 -8.9421527865e-05 1.6219030113e+00 -2.8092184204e+00 1.6219030113e+00 2.8092184204e+00 
61100 6.2946104561e+00 -8.7904770059e-05 1.6219057679e+00 -2.8092231952e+00 1.6219057679e+00 2.8092231952e+00 
61200 6.2946104730e+00 -8.6348930785e-05 1.6219084779e+00 -2.8092278889e+00 1.6219084779e+00 2.8092278889e+00 
61300 6.2946104897e+00 -8.4756341639e-05 1.6219111398e+00 -2.8092324995e+00 1.6219111398e+00 2.8092324995e+00 
61400 6.2946105063e+00 -8.3129315979e-05 1.6219137527e+00 -2.8092370251e+00 1.6219137527e+00 2.8092370251e+00 
61500 6.2946105229e+00 -8.1470147039e-05 1.6219163154e+00 -2.8092414638e+00 1.6219163154e+00 2.8092414638e+00 
61600 6.2946105393e+00 -7.9781106101e-05 1.6219188269e+00 -2.8092458140e+00 1.6219188269e+00 2.8092458140e+00 
61700 6.2946105557e+00 -7.8064440743e-05 1.6219212864e+00 -2.8092500739e+00 1.6219212864e+00 2.8092500739e+00 
61800 6.2946105720e+00 -7.6322373170e-05 1.6219236929e+00 -2.8092542421e+00 1.6219236929e+00 2.8092542421e+00 
61900 6.2946105882e+00 -7.4557098596e-05 1.6219260458e+00 -2.8092583174e+00 1.6219260458e+00 2.8092583174e+00 
62000 6.2946106044e+00 -7.2770783676e-05 1.6219283442e+00 -2.8092622983e+00 1.6219283442e+00 2.8092622983e+00 
62100 6.2946106206e+00 -7.0965565062e-05 1.6219305875e+00 -2.8092661839e+00 1.6219305875e+00 2.8092661839e+00 
62200 6.2946106367e+00 -6.9143547959e-05 1.6219327752e+00 -2.8092699731e+00 1.6219327752e+00 2.8092699731e+00 
62300 6.2946106529e+00 -7.0167306245e-05 1.6219327752e+00 -2.8092699731e+00 1.6219327752e+00 2.8092699731e+00 
62400 6.2946106692e+00 -7.1122388805e-05 1.6219327752e+00 -2.8092699731e+00 1.6219327752e+00 2.8092699731e+00 
62500 6.2946106852e+00 -6.9067660811e-05 1.6219349677e+00 -2.8092737707e+00 1.6219349677e+00 2.8092737707e+00 
62600 6.2946107013e+00 -6.9868516947e-05 1.6219349677e+00 -2.8092737707e+00 1.6219349677e+00 2.8092737707e+00 
62700 6.2946107174e+00 -7.0604112759e-05 1.6219349677e+00 -2.8092737707e+00 1.6219349677e+00 2.8092737707e+00 
62800 6.2946107335e+00 -7.1275723111e-05 1.6219349677e+00 -2.8092737707e+00 1.6219349677e+00 2.8092737707e+00 
62900 6.2946107494e+00 -6.8935916265e-05 1.6219371650e+00 -2.8092775764e+00 1.6219371650e+00 2.8092775764e+00 
63000 6.2946107655e+00 -6.9462756578e-05 1.6219371650e+00 -2.8092775764e+00 1.6219371650e+00 2.8092775764e+00 
63100 6.2946107815e+00 -6.9929143274e-05 1.6219371650e+00 -2.8092775764e+00 1.6219371650e+00 2.8092775764e+00 
63200 6.2946107974e+00 -7.0336387228e-05 1.6219371650e+00 -2.8092775764e+00 1.6219371650e+00 2.8092775764e+00 
63300 6.2946108134e+00 -7.0685798273e-05 1.6219371650e+00 -2.8092775764e+00 1.6219371650e+00 2.8092775764e+00 
63400 6.2946108293e+00 -7.0978685059e-05 1.6219371650e+00 -2.8092775764e+00 1.6219371650e+00 2.8092775764e+00 
63500 6.2946108449e+00 -6.8279936594e-05 1.6219393530e+00 -2.8092813663e+00 1.6219393530e+00 2.8092813663e+00 
63600 6.2946108608e+00 -6.8443155090e-05 1.6219393530e+00 -2.8092813663e+00 1.6219393530e+00 2.8092813663e+00 
63700 6.2946108765e+00 -6.8553471394e-05 1.6219393530e+00 -2.8092813663e+00 1.6219393530e+00 2.8092813663e+00 
63800 6.2946108922e+00 -6.8612221545e-05 1.6219393530e+00 -2.8092813663e+00 1.6219393530e+00 2.8092813663e+00 
63900 6.2946109079e+00 -6.8620738208e-05 1.6219393530e+00 -2.8092813663e+00 1.6219393530e+00 2.8092813663e+00 
64000 6.2946109235e+00 -6.8580350455e-05 1.6219393530e+00 -2.8092813663e+00 1.6219393530e+00 2.8092813663e+00 
64100 6.2946109390e+00 -6.8492383508e-05 1.6219393530e+00 -2.8092813663e+00 1.6219393530e+00 2.8092813663e+00 
64200 6.2946109545e+00 -6.8358158490e-05 1.6219393530e+00 -2.8092813663e+00 1.6219393530e+00 2.8092813663e+00 
64300 6.2946109699e+00 -6.8178992149e-05 1.6219393530e+00 -2.8092813663e+00 1.6219393530e+00 2.8092813663e+00 
64400 6.2946109852e+00 -6.7956196578e-05 1.6219393530e+00 -2.8092813663e+00 1.6219393530e+00 2.8092813663e+00 
64500 6.2946110004e+00 -6.7691078912e-05 1.6219393530e+00 -2.8092813663e+00 1.6219393530e+00 2.8092813663e+00 
64600 6.2946110156e+00 -6.7384941037e-05 1.6219393530e+00 -2.8092813663e+00 1.6219393530e+00 2.8092813663e+00 
64700 6.2946110306e+00 -6.7039079268e-05 1.6219393530e+00 -2.8092813663e+00 1.6219393530e+00 2.8092813663e+00 
64800 6.2946110456e+00 -6.6654784028e-05 1.6219393530e+00 -2.8092813663e+00 1.6219393530e+00 2.8092813663e+00 
64900 6.2946110604e+00 -6.6233339523e-05 1.6219393530e+00 -2.8092813663e+00 1.6219393530e+00 2.8092813663e+00 
65000 6.2946110751e+00 -6.5776023396e-05 1.6219393530e+00 -2.8092813663e+00 1.6219393530e+00 2.8092813663e+00 
65100 6.2946110898e+00 -6.5284106380e-05 1.6219393530e+00 -2.8092813663e+00 1.6219393530e+00 2.8092813663e+00 
65200 6.2946111043e+00 -6.4758851957e-05 1.6219393530e+00 -2.8092813663e+00 1.6219393530e+00 2.8092813663e+00 
65300 6.2946111187e+00 -6.4201515990e-05 1.6219393530e+00 -2.8092813663e+00 1.6219393530e+00 2.8092813663e+00 
65400 6.2946111330e+00 -6.3613346366e-05 1.6219393530e+00 -2.8092813663e+00 1.6219393530e+00 2.8092813663e+00 
65500 6.2946111471e+00 -6.2995582622e-05 1.6219393530e+00 -2.8092813663e+00 1.6219393530e+00 2.8092813663e+00 
65600 6.2946111611e+00 -6.2349455586e-05 1.6219393530e+00 -2.8092813663e+00 1.6219393530e+00 2.8092813663e+00 
65700 6.2946111750e+00 -6.1676186996e-05 1.6219393530e+00 -2.8092813663e+00 1.6219393530e+00 2.8092813663e+00 
65800 6.2946111888e+00 -6.0976989122e-05 1.6219393530e+00 -2.8092813663e+00 1.6219393530e+00 2.8092813663e+00 
65900 6.2946112024e+00 -6.0253064398e-05 1.6219393530e+00 -2.8092813663e+00 1.6219393530e+00 2.8092813663e+00 
66000 6.2946112158e+00 -5.9505605035e-05 1.6219393530e+00 -2.8092813663e+00 1.6219393530e+00 2.8092813663e+00 
66100 6.2946112291e+00 -5.8735792646e-05 1.6219393530e+00 -2.8092813663e+00 1.6219393530e+00 2.8092813663e+00 
66200 6.2946112423e+00 -5.7944797870e-05 1.6219393530e+00 -2.8092813663e+00 1.6219393530e+00 2.8092813663e+00 
66300 6.2946112553e+00 -5.7133779993e-05 1.6219393530e+00 -2.8092813663e+00 1.6219393530e+00 2.8092813663e+00 
66400 6.2946112682e+00 -5.6303886570e-05 1.6219393530e+00 -2.8092813663e+00 1.6219393530e+00 2.8092813663e+00 
66500 6.2946112809e+00 -5.5456253061e-05 1.6219393530e+00 -2.8092813663e+00 1.6219393530e+00 2.8092813663e+00 
66600 6.2946112934e+00 -5.4592002451e-05 1.6219393530e+00 -2.8092813663e+00 1.6219393530e+00 2.8092813663e+00 
66700 6.2946113058e+00 -5.3712244893e-05 1.6219393530e+00 -2.8092813663e+00 1.6219393530e+00 2.8092813663e+00 
66800 6.2946113180e+00 -5.2818077338e-05 1.6219393530e+00 -2.8092813663e+00 1.6219393530e+00 2.8092813663e+00 
66900 6.2946113300e+00 -5.1910583185e-05 1.6219393530e+00 -2.8092813663e+00 1.6219393530e+00 2.8092813663e+00 
67000 6.2946113419e+00 -5.0990831917e-05 1.6219393530e+00 -2.8092813663e+00 1.6219393530e+00 2.8092813663e+00 
67100 6.2946113537e+00 -5.0059878772e-05 1.6219393530e+00 -2.8092813663e+00 1.6219393530e+00 2.8092813663e+00 
67200 6.2946113652e+00 -4.9118764386e-05 1.6219393530e+00 -2.8092813663e+00 1.6219393530e+00 2.8092813663e+00 
67300 6.2946113766e+00 -4.8168514474e-05 1.6219393530e+00 -2.8092813663e+00 1.6219393530e+00 2.8092813663e+00 
67400 6.2946113879e+00 -4.7210139494e-05 1.6219393530e+00 -2.8092813663e+00 1.6219393530e+00 2.8092813663e+00 
67500 6.2946113989e+00 -4.6244634331e-05 1.6219393530e+00 -2.8092813663e+00 1.6219393530e+00 2.8092813663e+00 
67600 6.2946114099e+00 -4.5272977997e-05 1.6219393530e+00 -2.8092813663e+00 1.6219393530e+00 2.8092813663e+00 
67700 6.2946114206e+00 -4.4296133319e-05 1.6219393530e+00 -2.8092813663e+00 1.6219393530e+00 2.8092813663e+00 
67800 6.2946114312e+00 -4.3315046648e-05 1.6219393530e+00 -2.8092813663e+00 1.6219393530e+00 2.8092813663e+00 
67900 6.2946114416e+00 -4.2330647583e-05 1.6219393530e+00 -2.8092813663e+00 1.6219393530e+00 2.8092813663e+00 
68000 6.2946114519e+00 -4.1343848696e-05 1.6219393530e+00 -2.8092813663e+00 1.6219393530e+00 2.8092813663e+00 
68100 6.2946114620e+00 -4.0355545269e-05 1.6219393530e+00 -2.8092813663e+00 1.6219393530e+00 2.8092813663e+00 
68200 6.2946114719e+00 -3.9366615046e-05 1.6219393530e+00 -2.8092813663e+00 1.6219393530e+00 2.8092813663e+00 
68300 6.2946114817e+00 -3.8377917984e-05 1.6219393530e+00 -2.8092813663e+00 1.6219393530e+00 2.8092813663e+00 
68400 6.2946114914e+00 -3.7390296040e-05 1.6219393530e+00 -2.8092813663e+00 1.6219393530e+00 2.8092813663e+00 
68500 6.2946115008e+00 -3.6404572936e-05 1.6219393530e+00 -2.8092813663e+00 1.6219393530e+00 2.8092813663e+00 
68600 6.2946115102e+00 -3.5421553967e-05 1.6219393530e+00 -2.8092813663e+00 1.6219393530e+00 2.8092813663e+00 
68700 6.2946115194e+00 -3.4442025799e-05 1.6219393530e+00 -2.8092813663e+00 1.6219393530e+00 2.8092813663e+00 
68800 6.2946115284e+00 -3.3466756287e-05 1.6219393530e+00 -2.8092813663e+00 1.6219393530e+00 2.8092813663e+00 
68900 6.2946115373e+00 -3.2496494317e-05 1.6219393530e+00 -2.8092813663e+00 1.6219393530e+00 2.8092813663e+00 
69000 6.2946115461e+00 -3.1531969638e-05 1.6219393530e+00 -2.8092813663e+00 1.6219393530e+00 2.8092813663e+00 
69100 6.2946115547e+00 -3.0573892724e-05 1.6219393530e+00 -2.8092813663e+00 1.6219393530e+00 2.8092813663e+00 
69200 6.2946115632e+00 -2.9622954640e-05 1.6219393530e+00 -2.8092813663e+00 1.6219393530e+00 2.8092813663e+00 
69300 6.2946115715e+00 -2.8679826934e-05 1.6219393530e+00 -2.8092813663e+00 1.6219393530e+00 2.8092813663e+00 
69400 6.2946115797e+00 -2.7745161520e-05 1.6219393530e+00 -2.8092813663e+00 1.6219393530e+00 2.8092813663e+00 
69500 6.2946115878e+00 -2.6819590594e-05 1.6219393530e+00 -2.8092813663e+00 1.6219393530e+00 2.8092813663e+00 
69600 6.2946115958e+00 -2.5903726557e-05 1.6219393530e+00 -2.8092813663e+00 1.6219393530e+00 2.8092813663e+00 
69700 6.2946116036e+00 -2.4998161947e-05 1.6219393530e+00 -2.8092813663e+00 1.6219393530e+00 2.8092813663e+00 
69800 6.2946116113e+00 -2.4103469393e-05 1.6219393530e+00 -2.8092813663e+00 1.6219393530e+00 2.8092813663e+00 
69900 6.2946116189e+00 -2.3220201568e-05 1.6219393530e+00 -2.8092813663e+00 1.6219393530e+00 2.8092813663e+00 
70000 6.2946116264e+00 -2.2348891182e-05 1.6219393530e+00 -2.8092813663e+00 1.6219393530e+00 2.8092813663e+00 
70100 6.2946116338e+00 -2.1490050952e-05 1.6219393530e+00 -2.8092813663e+00 1.6219393530e+00 2.8092813663e+00 
70200 6.2946116410e+00 -2.0644173619e-05 1.6219393530e+00 -2.8092813663e+00 1.6219393530e+00 2.8092813663e+00 
70300 6.2946116482e+00 -1.9811731950e-05 1.6219393530e+00 -2.8092813663e+00 1.6219393530e+00 2.8092813663e+00 
70400 6.2946116552e+00 -1.8993178784e-05 1.6219393530e+00 -2.8092813663e+00 1.6219393530e+00 2.8092813663e+00 
70500 6.2946116622e+00 -1.8188947061e-05 1.6219393530e+00 -2.8092813663e+00 1.6219393530e+00 2.8092813663e+00 
70600 6.2946116690e+00 -1.7399449874e-05 1.6219393530e+00 -2.8092813663e+00 1.6219393530e+00 2.8092813663e+00 
70700 6.2946116758e+00 -1.6625080554e-05 1.6219393530e+00 -2.8092813663e+00 1.6219393530e+00 2.8092813663e+00 
70800 6.2946116824e+00 -1.5866212732e-05 1.6219393530e+00 -2.8092813663e+00 1.6219393530e+00 2.8092813663e+00 
70900 6.2946116890e+00 -1.5123200442e-05 1.6219393530e+00 -2.8092813663e+00 1.6219393530e+00 2.8092813663e+00 
71000 6.2946116955e+00 -1.4396378225e-05 1.6219393530e+00 -2.8092813663e+00 1.6219393530e+00 2.8092813663e+00 
71100 6.2946117018e+00 -1.3686061244e-05 1.6219393530e+00 -2.8092813663e+00 1.6219393530e+00 2.8092813663e+00 
71200 6.2946117081e+00 -1.2992545413e-05 1.6219393530e+00 -2.8092813663e+00 1.6219393530e+00 2.8092813663e+00 
71300 6.2946117144e+00 -1.2316107546e-05 1.6219393530e+00 -2.8092813663e+00 1.6219393530e+00 2.8092813663e+00 
71400 6.2946117205e+00 -1.1657005494e-05 1.6219393530e+00 -2.8092813663e+00 1.6219393530e+00 2.8092813663e+00 
71500 6.2946117266e+00 -1.1015478327e-05 1.6219393530e+00 -2.8092813663e+00 1.6219393530e+00 2.8092813663e+00 
71600 6.2946117325e+00 -1.0391746498e-05 1.6219393530e+00 -2.8092813663e+00 1.6219393530e+00 2.8092813663e+00 
71700 6.2946117385e+00 -9.7860120351e-06 1.6219393530e+00 -2.8092813663e+00 1.6219393530e+00 2.8092813663e+00 
71800 6.2946117443e+00 -9.1984587297e-06 1.6219393530e+00 -2.8092813663e+00 1.6219393530e+00 2.8092813663e+00 
71900 6.2946117501e+00 -8.6292523542e-06 1.6219393530e+00 -2.8092813663e+00 1.6219393530e+00 2.8092813663e+00 
72000 6.2946117558e+00 -8.0785408698e-06 1.6219393530e+00 -2.8092813663e+00 1.6219393530e+00 2.8092813663e+00 
72100 6.2946117614e+00 -7.5464546582e-06 1.6219393530e+00 -2.8092813663e+00 1.6219393530e+00 2.8092813663e+00 
72200 6.2946117670e+00 -7.0331067599e-06 1.6219393530e+00 -2.8092813663e+00 1.6219393530e+00 2.8092813663e+00 
72300 6.2946117725e+00 -6.5385931130e-06 1.6219393530e+00 -2.8092813663e+00 1.6219393530e+00 2.8092813663e+00 
72400 6.2946117779e+00 -6.0629928109e-06 1.6219393530e+00 -2.8092813663e+00 1.6219393530e+00 2.8092813663e+00 
72500 6.2946117833e+00 -5.6063683670e-06 1.6219393530e+00 -2.8092813663e+00 1.6219393530e+00 2.8092813663e+00 
72600 6.2946117886e+00 -5.1687659856e-06 1.6219393530e+00 -2.8092813663e+00 1.6219393530e+00 2.8092813663e+00 
72700 6.2946117939e+00 -4.7502158326e-06 1.6219393530e+00 -2.8092813663e+00 1.6219393530e+00 2.8092813663e+00 
72800 6.2946117991e+00 -4.3507323351e-06 1.6219393530e+00 -2.8092813663e+00 1.6219393530e+00 2.8092813663e+00 
72900 6.2946118043e+00 -3.9703144633e-06 1.6219393530e+00 -2.8092813663e+00 1.6219393530e+00 2.8092813663e+00 
73000 6.2946118094e+00 -3.6089460378e-06 1.6219393530e+00 -2.8092813663e+00 1.6219393530e+00 2.8092813663e+00 
73100 6.2946118144e+00 -3.2665960380e-06 1.6219393530e+00 -2.8092813663e+00 1.6219393530e+00 2.8092813663e+00 
73200 6.2946118194e+00 -2.9432189056e-06 1.6219393530e+00 -2.8092813663e+00 1.6219393530e+00 2.8092813663e+00 
73300 6.2946118244e+00 -2.6387548782e-06 1.6219393530e+00 -2.8092813663e+00 1.6219393530e+00 2.8092813663e+00 
73400 6.2946118293e+00 -2.3531303003e-06 1.6219393530e+00 -2.8092813663e+00 1.6219393530e+00 2.8092813663e+00 
73500 6.2946118341e+00 -2.0862579648e-06 1.6219393530e+00 -2.8092813663e+00 1.6219393530e+00 2.8092813663e+00 
73600 6.2946118389e+00 -1.8380374380e-06 1.6219393530e+00 -2.8092813663e+00 1.6219393530e+00 2.8092813663e+00 
73700 6.2946118437e+00 -1.6083554073e-06 1.6219393530e+00 -2.8092813663e+00 1.6219393530e+00 2.8092813663e+00 
73800 6.2946118484e+00 -1.3970860162e-06 1.6219393530e+00 -2.8092813663e+00 1.6219393530e+00 2.8092813663e+00 
73900 6.2946118530e+00 -1.2040912185e-06 1.6219393530e+00 -2.8092813663e+00 1.6219393530e+00 2.8092813663e+00 
74000 6.2946118577e+00 -1.0292211310e-06 1.6219393530e+00 -2.8092813663e+00 1.6219393530e+00 2.8092813663e+00 
74100 6.2946118622e+00 -8.7231437223e-07 1.6219393530e+00 -2.8092813663e+00 1.6219393530e+00 2.8092813663e+00 
74200 6.2946118668e+00 -7.3319844096e-07 1.6219393530e+00 -2.8092813663e+00 1.6219393530e+00 2.8092813663e+00 
74300 6.2946118713e+00 -6.1169005532e-07 1.6219393530e+00 -2.8092813663e+00 1.6219393530e+00 2.8092813663e+00 
74400 6.2946118757e+00 -5.0759552596e-07 1.6219393530e+00 -2.8092813663e+00 1.6219393530e+00 2.8092813663e+00 
74500 6.2946118801e+00 -4.2071111288e-07 1.6219393530e+00 -2.8092813663e+00 1.6219393530e+00 2.8092813663e+00 
74600 6.2946118845e+00 -3.5082339431e-07 1.6219393530e+00 -2.8092813663e+00 1.6219393530e+00 2.8092813663e+00 
74700 6.2946118888e+00 -2.9770962798e-07 1.6219393530e+00 -2.8092813663e+00 1.6219393530e+00 2.8092813663e+00 
74800 6.2946118931e+00 -2.6113811776e-07 1.6219393530e+00 -2.8092813663e+00 1.6219393530e+00 2.8092813663e+00 
74900 6.2946118973e+00 -2.4086858308e-07 1.6219393530e+00 -2.8092813663e+00 1.6219393530e+00 2.8092813663e+00 
75000 6.2946119015e+00 -2.3665252078e-07 1.6219393530e+00 -2.8092813663e+00 1.6219393530e+00 2.8092813663e+00 
75100 6.2946119056e+00 -2.4823357625e-07 1.6219393530e+00 -2.8092813663e+00 1.6219393530e+00 2.8092813663e+00 
75200 6.2946119098e+00 -2.7534790703e-07 1.6219393530e+00 -2.8092813663e+00 1.6219393530e+00 2.8092813663e+00 
75300 6.2946119138e+00 -3.1772454560e-07 1.6219393530e+00 -2.8092813663e+00 1.6219393530e+00 2.8092813663e+00 
75400 6.2946119179e+00 -3.7508576721e-07 1.6219393530e+00 -2.8092813663e+00 1.6219393530e+00 2.8092813663e+00 
75500 6.2946119219e+00 -4.4714745153e-07 1.6219393530e+00 -2.8092813663e+00 1.6219393530e+00 2.8092813663e+00 
75600 6.2946119258e+00 -5.3361944082e-07 1.6219393530e+00 -2.8092813663e+00 1.6219393530e+00 2.8092813663e+00 
75700 6.2946119297e+00 -6.3420590057e-07 1.6219393530e+00 -2.8092813663e+00 1.6219393530e+00 2.8092813663e+00 
75800 6.2946119336e+00 -7.4860568009e-07 1.6219393530e+00 -2.8092813663e+00 1.6219393530e+00 2.8092813663e+00 
75900 6.2946119374e+00 -8.7651266121e-07 1.6219393530e+00 -2.8092813663e+00 1.6219393530e+00 2.8092813663e+00 
76000 6.2946119412e+00 -1.0176161083e-06 1.6219393530e+00 -2.8092813663e+00 1.6219393530e+00 2.8092813663e+00 
76100 6.2946119450e+00 -1.1716010242e-06 1.6219393530e+00 -2.8092813663e+00 1.6219393530e+00 2.8092813663e+00 
76200 6.2946119487e+00 -1.3381484880e-06 1.6219393530e+00 -2.8092813663e+00 1.6219393530e+00 2.8092813663e+00 
76300 6.2946119524e+00 -1.5169360025e-06 1.6219393530e+00 -2.8092813663e+00 1.6219393530e+00 2.8092813663e+00 
76400 6.2946119560e+00 -1.7076378267e-06 1.6219393530e+00 -2.8092813663e+00 1.6219393530e+00 2.8092813663e+00 
76500 6.2946119596e+00 -1.9099253166e-06 1.6219393530e+00 -2.8092813663e+00 1.6219393530e+00 2.8092813663e+00 
76600 6.2946119632e+00 -2.1234672465e-06 1.6219393530e+00 -2.8092813663e+00 1.6219393530e+00 2.8092813663e+00 
76700 6.2946119667e+00 -2.3479301370e-06 1.6219393530e+00 -2.8092813663e+00 1.6219393530e+00 2.8092813663e+00 
76800 6.2946119702e+00 -2.5829785862e-06 1.6219393530e+00 -2.8092813663e+00 1.6219393530e+00 2.8092813663e+00 
76900 6.2946119737e+00 -2.8282755688e-06 1.6219393530e+00 -2.8092813663e+00 1.6219393530e+00 2.8092813663e+00 
77000 6.2946119771e+00 -3.0834827569e-06 1.6219393530e+00 -2.8092813663e+00 1.6219393530e+00 2.8092813663e+00 
77100 6.2946119805e+00 -3.3482608302e-06 1.6219393530e+00 -2.8092813663e+00 1.6219393530e+00 2.8092813663e+00 
77200 6.2946119838e+00 -3.6222697660e-06 1.6219393530e+00 -2.8092813663e+00 1.6219393530e+00 2.8092813663e+00 
77300 6.2946119871e+00 -3.9051691406e-06 1.6219393530e+00 -2.8092813663e+00 1.6219393530e+00 2.8092813663e+00 
77400 6.2946119904e+00 -4.1966184178e-06 1.6219393530e+00 -2.8092813663e+00 1.6219393530e+00 2.8092813663e+00 
77500 6.2946119936e+00 -4.4962772334e-06 1.6219393530e+00 -2.8092813663e+00 1.6219393530e+00 2.8092813663e+00 
77600 6.2946119968e+00 -4.8038056723e-06 1.6219393530e+00 -2.8092813663e+00 1.6219393530e+00 2.8092813663e+00 
77700 6.2946120000e+00 -5.1188645383e-06 1.6219393530e+00 -2.8092813663e+00 1.6219393530e+00 2.8092813663e+00 
77800 6.2946120031e+00 -5.4411156263e-06 1.6219393530e+00 -2.8092813663e+00 1.6219393530e+00 2.8092813663e+00 
77900 6.2946120062e+00 -5.7702219757e-06 1.6219393530e+00 -2.8092813663e+00 1.6219393530e+00 2.8092813663e+00 
78000 6.2946120092e+00 -6.1058481214e-06 1.6219393530e+00 -2.8092813663e+00 1.6219393530e+00 2.8092813663e+00 
78100 6.2946120122e+00 -6.4476603540e-06 1.6219393530e+00 -2.8092813663e+00 1.6219393530e+00 2.8092813663e+00 
78200 6.2946120152e+00 -6.7953269415e-06 1.6219393530e+00 -2.8092813663e+00 1.6219393530e+00 2.8092813663e+00 
78300 6.2946120182e+00 -7.1485183735e-06 1.6219393530e+00 -2.8092813663e+00 1.6219393530e+00 2.8092813663e+00 
78400 6.2946120211e+00 -7.5069075866e-06 1.6219393530e+00 -2.8092813663e+00 1.6219393530e+00 2.8092813663e+00 
78500 6.2946120239e+00 -7.8701701848e-06 1.6219393530e+00 -2.8092813663e+00 1.6219393530e+00 2.8092813663e+00 
78600 6.2946120268e+00 -8.2379846491e-06 1.6219393530e+00 -2.8092813663e+00 1.6219393530e+00 2.8092813663e+00 
78700 6.2946120296e+00 -8.6100325491e-06 1.6219393530e+00 -2.8092813663e+00 1.6219393530e+00 2.8092813663e+00 
78800 6.2946120323e+00 -8.9859987364e-06 1.6219393530e+00 -2.8092813663e+00 1.6219393530e+00 2.8092813663e+00 
78900 6.2946120351e+00 -9.3655715406e-06 1.6219393530e+00 -2.8092813663e+00 1.6219393530e+00 2.8092813663e+00 
79000 6.2946120378e+00 -9.7484429532e-06 1.6219393530e+00 -2.8092813663e+00 1.6219393530e+00 2.8092813663e+00 
79100 6.2946120405e+00 -1.0134308806e-05 1.6219393530e+00 -2.8092813663e+00 1.6219393530e+00 2.8092813663e+00 
79200 6.2946120431e+00 -1.0522868944e-05 1.6219393530e+00 -2.8092813663e+00 1.6219393530e+00 2.8092813663e+00 
79300 6.2946120457e+00 -1.0913827387e-05 1.6219393530e+00 -2.8092813663e+00 1.6219393530e+00 2.8092813663e+00 
79400 6.2946120483e+00 -1.1306892488e-05 1.6219393530e+00 -2.8092813663e+00 1.6219393530e+00 2.8092813663e+00 
79500 6.2946120508e+00 -1.1701777086e-05 1.6219393530e+00 -2.8092813663e+00 1.6219393530e+00 2.8092813663e+00 
79600 6.2946120533e+00 -1.2098198640e-05 1.6219393530e+00 -2.8092813663e+00 1.6219393530e+00 2.8092813663e+00 
79700 6.2946120558e+00 -1.2495879379e-05 1.6219393530e+00 -2.8092813663e+00 1.6219393530e+00 2.8092813663e+00 
79800 6.2946120583e+00 -1.2894546414e-05 1.6219393530e+00 -2.8092813663e+00 1.6219393530e+00 2.8092813663e+00 
79900 6.2946120607e+00 -1.3293931877e-05 1.6219393530e+00 -2.8092813663e+00 1.6219393530e+00 2.8092813663e+00 
80000 6.2946120631e+00 -1.3693773027e-05 1.6219393530e+00 -2.8092813663e+00 1.6219393530e+00 2.8092813663e+00 
80100 6.2946120654e+00 -1.4093812358e-05 1.6219393530e+00 -2.8092813663e+00 1.6219393530e+00 2.8092813663e+00 
80200 6.2946120678e+00 -1.4493797703e-05 1.6219393530e+00 -2.8092813663e+00 1.6219393530e+00 2.8092813663e+00 
80300 6.2946120701e+00 -1.4893482328e-05 1.6219393530e+00 -2.8092813663e+00 1.6219393530e+00 2.8092813663e+00 
80400 6.2946120723e+00 -1.5292625019e-05 1.6219393530e+00 -2.8092813663e+00 1.6219393530e+00 2.8092813663e+00 
80500 6.2946120746e+00 -1.5690990162e-05 1.6219393530e+00 -2.8092813663e+00 1.6219393530e+00 2.8092813663e+00 
80600 6.2946120768e+00 -1.6088347828e-05 1.6219393530e+00 -2.8092813663e+00 1.6219393530e+00 2.8092813663e+00 
80700 6.2946120790e+00 -1.6484473823e-05 1.6219393530e+00 -2.8092813663e+00 1.6219393530e+00 2.8092813663e+00 
80800 6.2946120812e+00 -1.6879149763e-05 1.6219393530e+00 -2.8092813663e+00 1.6219393530e+00 2.8092813663e+00 
80900 6.2946120833e+00 -1.7272163129e-05 1.6219393530e+00 -2.8092813663e+00 1.6219393530e+00 2.8092813663e+00 
81000 6.2946120854e+00 -1.7663307307e-05 1.6219393530e+00 -2.8092813663e+00 1.6219393530e+00 2.8092813663e+00 
81100 6.2946120875e+00 -1.8052381641e-05 1.6219393530e+00 -2.8092813663e+00 1.6219393530e+00 2.8092813663e+00 
81200 6.2946120895e+00 -1.8439191465e-05 1.6219393530e+00 -2.8092813663e+00 1.6219393530e+00 2.8092813663e+00 
81300 6.2946120916e+00 -1.8823548132e-05 1.6219393530e+00 -2.8092813663e+00 1.6219393530e+00 2.8092813663e+00 
81400 6.2946120936e+00 -1.9205269044e-05 1.6219393530e+00 -2.8092813663e+00 1.6219393530e+00 2.8092813663e+00 
81500 6.2946120956e+00 -1.9584177666e-05 1.6219393530e+00 -2.8092813663e+00 1.6219393530e+00 2.8092813663e+00 
81600 6.2946120975e+00 -1.9960103545e-05 1.6219393530e+00 -2.8092813663e+00 1.6219393530e+00 2.8092813663e+00 
81700 6.2946120995e+00 -2.0332882306e-05 1.6219393530e+00 -2.8092813663e+00 1.6219393530e+00 2.8092813663e+00 
81800 6.2946121014e+00 -2.0702355675e-05 1.6219393530e+00 -2.8092813663e+00 1.6219393530e+00 2.8092813663e+00 
81900 6.2946121033e+00 -2.1068371455e-05 1.6219393530e+00 -2.8092813663e+00 1.6219393530e+00 2.8092813663e+00 
82000 6.2946121051e+00 -2.1430783528e-05 1.6219393530e+00 -2.8092813663e+00 1.6219393530e+00 2.8092813663e+00 
82100 6.2946121070e+00 -2.1789451843e-05 1.6219393530e+00 -2.8092813663e+00 1.6219393530e+00 2.8092813663e+00 
82200 6.2946121088e+00 -2.2144242393e-05 1.6219393530e+00 -2.8092813663e+00 1.6219393530e+00 2.8092813663e+00 
82300 6.2946121106e+00 -2.2495027194e-05 1.6219393530e+00 -2.8092813663e+00 1.6219393530e+00 2.8092813663e+00 
82400 6.2946121124e+00 -2.2841684259e-05 1.6219393530e+00 -2.8092813663e+00 1.6219393530e+00 2.8092813663e+00 
82500 6.2946121142e+00 -2.3184097561e-05 1.6219393530e+00 -2.8092813663e+00 1.6219393530e+00 2.8092813663e+00 
82600 6.2946121159e+00 -2.3522157001e-05 1.6219393530e+00 -2.8092813663e+00 1.6219393530e+00 2.8092813663e+00 
82700 6.2946121176e+00 -2.3855758362e-05 1.6219393530e+00 -2.8092813663e+00 1.6219393530e+00 2.8092813663e+00 
82800 6.2946121193e+00 -2.4184803267e-05 1.6219393530e+00 -2.8092813663e+00 1.6219393530e+00 2.8092813663e+00 
82900 6.2946121210e+00 -2.4509199132e-05 1.6219393530e+00 -2.8092813663e+00 1.6219393530e+00 2.8092813663e+00 
83000 6.2946121226e+00 -2.4828859105e-05 1.6219393530e+00 -2.8092813663e+00 1.6219393530e+00 2.8092813663e+00 
83100 6.2946121243e+00 -2.5143702011e-05 1.6219393530e+00 -2.8092813663e+00 1.6219393530e+00 2.8092813663e+00 
83200 6.2946121259e+00 -2.5453652295e-05 1.6219393530e+00 -2.8092813663e+00 1.6219393530e+00 2.8092813663e+00 
83300 6.2946121275e+00 -2.5758639955e-05 1.6219393530e+00 -2.8092813663e+00 1.6219393530e+00 2.8092813663e+00 
83400 6.2946121291e+00 -2.6058600478e-05 1.6219393530e+00 -2.8092813663e+00 1.6219393530e+00 2.8092813663e+00 
83500 6.2946121307e+00 -2.6353474763e-05 1.6219393530e+00 -2.8092813663e+00 1.6219393530e+00 2.8092813663e+00 
83600 6.2946121322e+00 -2.6643209043e-05 1.6219393530e+00 -2.8092813663e+00 1.6219393530e+00 2.8092813663e+00 
83700 6.2946121337e+00 -2.6927754825e-05 1.6219393530e+00 -2.8092813663e+00 1.6219393530e+00 2.8092813663e+00 
83800 6.2946121352e+00 -2.7207068790e-05 1.6219393530e+00 -2.8092813663e+00 1.6219393530e+00 2.8092813663e+00 
83900 6.2946121367e+00 -2.7481112725e-05 1.6219393530e+00 -2.8092813663e+00 1.6219393530e+00 2.8092813663e+00 
84000 6.2946121382e+00 -2.7749853426e-05 1.6219393530e+00 -2.8092813663e+00 1.6219393530e+00 2.8092813663e+00 
84100 6.2946121397e+00 -2.8013262623e-05 1.6219393530e+00 -2.8092813663e+00 1.6219393530e+00 2.8092813663e+00 
84200 6.2946121411e+00 -2.8271316876e-05 1.6219393530e+00 -2.8092813663e+00 1.6219393530e+00 2.8092813663e+00 
84300 6.2946121425e+00 -2.8523997496e-05 1.6219393530e+00 -2.8092813663e+00 1.6219393530e+00 2.8092813663e+00 
84400 6.2946121440e+00 -2.8771290439e-05 1.6219393530e+00 -2.8092813663e+00 1.6219393530e+00 2.8092813663e+00 
84500 6.2946121454e+00 -2.9013186221e-05 1.6219393530e+00 -2.8092813663e+00 1.6219393530e+00 2.8092813663e+00 
84600 6.2946121467e+00 -2.9249679808e-05 1.6219393530e+00 -2.8092813663e+00 1.6219393530e+00 2.8092813663e+00 
84700 6.2946121481e+00 -2.9480770525e-05 1.6219393530e+00 -2.8092813663e+00 1.6219393530e+00 2.8092813663e+00 
84800 6.2946121495e+00 -2.9706461959e-05 1.6219393530e+00 -2.8092813663e+00 1.6219393530e+00 2.8092813663e+00 
84900 6.2946121508e+00 -2.9926761840e-05 1.6219393530e+00 -2.8092813663e+00 1.6219393530e+00 2.8092813663e+00 
85000 6.2946121521e+00 -3.0141681955e-05 1.6219393530e+00 -2.8092813663e+00 1.6219393530e+00 2.8092813663e+00 
85100 6.2946121534e+00 -3.0351238031e-05 1.6219393530e+00 -2.8092813663e+00 1.6219393530e+00 2.8092813663e+00 
85200 6.2946121547e+00 -3.0555449636e-05 1.6219393530e+00 -2.8092813663e+00 1.6219393530e+00 2.8092813663e+00 
85300 6.2946121560e+00 -3.0754340066e-05 1.6219393530e+00 -2.8092813663e+00 1.6219393530e+00 2.8092813663e+00 
85400 6.2946121573e+00 -3.0947936247e-05 1.6219393530e+00 -2.8092813663e+00 1.6219393530e+00 2.8092813663e+00 
85500 6.2946121585e+00 -3.1136268616e-05 1.6219393530e+00 -2.8092813663e+00 1.6219393530e+00 2.8092813663e+00 
85600 6.2946121597e+00 -3.1319371017e-05 1.6219393530e+00 -2.8092813663e+00 1.6219393530e+00 2.8092813663e+00 
85700 6.2946121610e+00 -3.1497280593e-05 1.6219393530e+00 -2.8092813663e+00 1.6219393530e+00 2.8092813663e+00 
85800 6.2946121622e+00 -3.1670037673e-05 1.6219393530e+00 -2.8092813663e+00 1.6219393530e+00 2.8092813663e+00 
85900 6.2946121634e+00 -3.1837685666e-05 1.6219393530e+00 -2.8092813663e+00 1.6219393530e+00 2.8092813663e+00 
86000 6.2946121645e+00 -3.2000270946e-05 1.6219393530e+00 -2.8092813663e+00 1.6219393530e+00 2.8092813663e+00 
86100 6.2946121657e+00 -3.2157842751e-05 1.6219393530e+00 -2.8092813663e+00 1.6219393530e+00 2.8092813663e+00 
86200 6.2946121669e+00 -3.2310453058e-05 1.6219393530e+00 -2.8092813663e+00 1.6219393530e+00 2.8092813663e+00 
86300 6.2946121680e+00 -3.2458156486e-05 1.6219393530e+00 -2.8092813663e+00 1.6219393530e+00 2.8092813663e+00 
86400 6.2946121691e+00 -3.2601010186e-05 1.6219393530e+00 -2.8092813663e+00 1.6219393530e+00 2.8092813663e+00 
86500 6.2946121703e+00 -3.2739073719e-05 1.6219393530e+00 -2.8092813663e+00 1.6219393530e+00 2.8092813663e+00 
86600 6.2946121714e+00 -3.2872408966e-05 1.6219393530e+00 -2.8092813663e+00 1.6219393530e+00 2.8092813663e+00 
86700 6.2946121725e+00 -3.3001080005e-05 1.6219393530e+00 -2.8092813663e+00 1.6219393530e+00 2.8092813663e+00 
86800 6.2946121736e+00 -3.3125153009e-05 1.6219393530e+00 -2.8092813663e+00 1.6219393530e+00 2.8092813663e+00 
86900 6.2946121746e+00 -3.3244696141e-05 1.6219393530e+00 -2.8092813663e+00 1.6219393530e+00 2.8092813663e+00 
87000 6.2946121757e+00 -3.3359779445e-05 1.6219393530e+00 -2.8092813663e+00 1.6219393530e+00 2.8092813663e+00 
87100 6.2946121767e+00 -3.3470474740e-05 1.6219393530e+00 -2.8092813663e+00 1.6219393530e+00 2.8092813663e+00 
87200 6.2946121778e+00 -3.3576855519e-05 1.6219393530e+00 -2.8092813663e+00 1.6219393530e+00 2.8092813663e+00 
87300 6.2946121788e+00 -3.3678996841e-05 1.6219393530e+00 -2.8092813663e+00 1.6219393530e+00 2.8092813663e+00 
87400 6.2946121798e+00 -3.3776975233e-05 1.6219393530e+00 -2.8092813663e+00 1.6219393530e+00 2.8092813663e+00 
87500 6.2946121808e+00 -3.3870868590e-05 1.6219393530e+00 -2.8092813663e+00 1.6219393530e+00 2.8092813663e+00 
87600 6.2946121818e+00 -3.3960756072e-05 1.6219393530e+00 -2.8092813663e+00 1.6219393530e+00 2.8092813663e+00 
87700 6.2946121828e+00 -3.4046718005e-05 1.6219393530e+00 -2.8092813663e+00 1.6219393530e+00 2.8092813663e+00 
87800 6.2946121837e+00 -3.4128835783e-05 1.6219393530e+00 -2.8092813663e+00 1.6219393530e+00 2.8092813663e+00 
87900 6.2946121847e+00 -3.4207191778e-05 1.6219393530e+00 -2.8092813663e+00 1.6219393530e+00 2.8092813663e+00 
88000 6.2946121856e+00 -3.4281869238e-05 1.6219393530e+00 -2.8092813663e+00 1.6219393530e+00 2.8092813663e+00 
88100 6.2946121866e+00 -3.4352952202e-05 1.6219393530e+00 -2.8092813663e+00 1.6219393530e+00 2.8092813663e+00 
88200 6.2946121875e+00 -3.4420525402e-05 1.6219393530e+00 -2.8092813663e+00 1.6219393530e+00 2.8092813663e+00 
88300 6.2946121884e+00 -3.4484674175e-05 1.6219393530e+00 -2.8092813663e+00 1.6219393530e+00 2.8092813663e+00 
88400 6.2946121893e+00 -3.4545484379e-05 1.6219393530e+00 -2.8092813663e+00 1.6219393530e+00 2.8092813663e+00 
88500 6.2946121902e+00 -3.4603042295e-05 1.6219393530e+00 -2.8092813663e+00 1.6219393530e+00 2.8092813663e+00 
88600 6.2946121911e+00 -3.4657434561e-05 1.6219393530e+00 -2.8092813663e+00 1.6219393530e+00 2.8092813663e+00 
88700 6.2946121920e+00 -3.4708748069e-05 1.6219393530e+00 -2.8092813663e+00 1.6219393530e+00 2.8092813663e+00 
88800 6.2946121928e+00 -3.4757069898e-05 1.6219393530e+00 -2.8092813663e+00 1.6219393530e+00 2.8092813663e+00 
88900 6.2946121937e+00 -3.4802487227e-05 1.6219393530e+00 -2.8092813663e+00 1.6219393530e+00 2.8092813663e+00 
89000 6.2946121945e+00 -3.4845087263e-05 1.6219393530e+00 -2.8092813663e+00 1.6219393530e+00 2.8092813663e+00 
89100 6.2946121954e+00 -3.4884957156e-05 1.6219393530e+00 -2.8092813663e+00 1.6219393530e+00 2.8092813663e+00 
89200 6.2946121962e+00 -3.4922183940e-05 1.6219393530e+00 -2.8092813663e+00 1.6219393530e+00 2.8092813663e+00 
89300 6.2946121970e+00 -3.4956854444e-05 1.6219393530e+00 -2.8092813663e+00 1.6219393530e+00 2.8092813663e+00 
89400 6.2946121978e+00 -3.4989055230e-05 1.6219393530e+00 -2.8092813663e+00 1.6219393530e+00 2.8092813663e+00 
89500 6.2946121986e+00 -3.5018872536e-05 1.6219393530e+00 -2.8092813663e+00 1.6219393530e+00 2.8092813663e+00 
89600 6.2946121994e+00 -3.5046392186e-05 1.6219393530e+00 -2.8092813663e+00 1.6219393530e+00 2.8092813663e+00 
89700 6.2946122002e+00 -3.5071699547e-05 1.6219393530e+00 -2.8092813663e+00 1.6219393530e+00 2.8092813663e+00 
89800 6.2946122010e+00 -3.5094879455e-05 1.6219393530e+00 -2.8092813663e+00 1.6219393530e+00 2.8092813663e+00 
89900 6.2946122017e+00 -3.5116016160e-05 1.6219393530e+00 -2.8092813663e+00 1.6219393530e+00 2.8092813663e+00 
90000 6.2946122025e+00 -3.5135193264e-05 1.6219393530e+00 -2.8092813663e+00 1.6219393530e+00 2.8092813663e+00 
90100 6.2946122032e+00 -3.5152493672e-05 1.6219393530e+00 -2.8092813663e+00 1.6219393530e+00 2.8092813663e+00 
90200 6.2946122040e+00 -3.5167999528e-05 1.6219393530e+00 -2.8092813663e+00 1.6219393530e+00 2.8092813663e+00 
90300 6.2946122047e+00 -3.5181792170e-05 1.6219393530e+00 -2.8092813663e+00 1.6219393530e+00 2.8092813663e+00 
90400 6.2946122054e+00 -3.5193952075e-05 1.6219393530e+00 -2.8092813663e+00 1.6219393530e+00 2.8092813663e+00 
90500 6.2946122061e+00 -3.5204558818e-05 1.6219393530e+00 -2.8092813663e+00 1.6219393530e+00 2.8092813663e+00 
90600 6.2946122068e+00 -3.5213691018e-05 1.6219393530e+00 -2.8092813663e+00 1.6219393530e+00 2.8092813663e+00 
90700 6.2946122075e+00 -3.5221426297e-05 1.6219393530e+00 -2.8092813663e+00 1.6219393530e+00 2.8092813663e+00 
90800 6.2946122082e+00 -3.5227841237e-05 1.6219393530e+00 -2.8092813663e+00 1.6219393530e+00 2.8092813663e+00 
90900 6.2946122089e+00 -3.5233011344e-05 1.6219393530e+00 -2.8092813663e+00 1.6219393530e+00 2.8092813663e+00 
91000 6.2946122096e+00 -3.5237011002e-05 1.6219393530e+00 -2.8092813663e+00 1.6219393530e+00 2.8092813663e+00 
91100 6.2946122102e+00 -3.5239913446e-05 1.6219393530e+00 -2.8092813663e+00 1.6219393530e+00 2.8092813663e+00 
91200 6.2946122109e+00 -3.5241790716e-05 1.6219393530e+00 -2.8092813663e+00 1.6219393530e+00 2.8092813663e+00 
91300 6.2946122115e+00 -3.5242713635e-05 1.6219393530e+00 -2.8092813663e+00 1.6219393530e+00 2.8092813663e+00 
91400 6.2946122122e+00 -3.5242751772e-05 1.6219393530e+00 -2.8092813663e+00 1.6219393530e+00 2.8092813663e+00 
91500 6.2946122128e+00 -3.5241973419e-05 1.6219393530e+00 -2.8092813663e+00 1.6219393530e+00 2.8092813663e+00 
91600 6.2946122135e+00 -3.5240445556e-05 1.6219393530e+00 -2.8092813663e+00 1.6219393530e+00 2.8092813663e+00 
91700 6.2946122141e+00 -3.5238233833e-05 1.6219393530e+00 -2.8092813663e+00 1.6219393530e+00 2.8092813663e+00 
91800 6.2946122147e+00 -3.5235402545e-05 1.6219393530e+00 -2.8092813663e+00 1.6219393530e+00 2.8092813663e+00 
91900 6.2946122153e+00 -3.5232014609e-05 1.6219393530e+00 -2.8092813663e+00 1.6219393530e+00 2.8092813663e+00 
92000 6.2946122159e+00 -3.5228131543e-05 1.6219393530e+00 -2.8092813663e+00 1.6219393530e+00 2.8092813663e+00 
92100 6.2946122165e+00 -3.5223813453e-05 1.6219393530e+00 -2.8092813663e+00 1.6219393530e+00 2.8092813663e+00 
92200 6.2946122171e+00 -3.5219119011e-05 1.6219393530e+00 -2.8092813663e+00 1.6219393530e+00 2.8092813663e+00 
92300 6.2946122176e+00 -3.5214105448e-05 1.6219393530e+00 -2.8092813663e+00 1.6219393530e+00 2.8092813663e+00 
92400 6.2946122182e+00 -3.5208828531e-05 1.6219393530e+00 -2.8092813663e+00 1.6219393530e+00 2.8092813663e+00 
92500 6.2946122188e+00 -3.5203342558e-05 1.6219393530e+00 -2.8092813663e+00 1.6219393530e+00 2.8092813663e+00 
92600 6.2946122193e+00 -3.5197700351e-05 1.6219393530e+00 -2.8092813663e+00 1.6219393530e+00 2.8092813663e+00 
92700 6.2946122199e+00 -3.5191953242e-05 1.6219393530e+00 -2.8092813663e+00 1.6219393530e+00 2.8092813663e+00 
92800 6.2946122204e+00 -3.5186151069e-05 1.6219393530e+00 -2.8092813663e+00 1.6219393530e+00 2.8092813663e+00 
92900 6.2946122210e+00 -3.5180342167e-05 1.6219393530e+00 -2.8092813663e+00 1.6219393530e+00 2.8092813663e+00 
93000 6.2946122215e+00 -3.5174573373e-05 1.6219393530e+00 -2.8092813663e+00 1.6219393530e+00 2.8092813663e+00 
93100 6.2946122220e+00 -3.5168890019e-05 1.6219393530e+00 -2.8092813663e+00 1.6219393530e+00 2.8092813663e+00 
93200 6.2946122226e+00 -3.5163335924e-05 1.6219393530e+00 -2.8092813663e+00 1.6219393530e+00 2.8092813663e+00 
93300 6.2946122231e+00 -3.5157953407e-05 1.6219393530e+00 -2.8092813663e+00 1.6219393530e+00 2.8092813663e+00 
93400 6.2946122236e+00 -3.5152783284e-05 1.6219393530e+00 -2.8092813663e+00 1.6219393530e+00 2.8092813663e+00 
93500 6.2946122241e+00 -3.5147864869e-05 1.6219393530e+00 -2.8092813663e+00 1.6219393530e+00 2.8092813663e+00 
93600 6.2946122246e+00 -3.5143235977e-05 1.6219393530e+00 -2.8092813663e+00 1.6219393530e+00 2.8092813663e+00 
93700 6.2946122251e+00 -3.5138932936e-05 1.6219393530e+00 -2.8092813663e+00 1.6219393530e+00 2.8092813663e+00 
93800 6.2946122256e+00 -3.5134990594e-05 1.6219393530e+00 -2.8092813663e+00 1.6219393530e+00 2.8092813663e+00 
93900 6.2946122260e+00 -3.5131442316e-05 1.6219393530e+00 -2.8092813663e+00 1.6219393530e+00 2.8092813663e+00 
94000 6.2946122265e+00 -3.5128320006e-05 1.6219393530e+00 -2.8092813663e+00 1.6219393530e+00 2.8092813663e+00 
94100 6.2946122270e+00 -3.5125654108e-05 1.6219393530e+00 -2.8092813663e+00 1.6219393530e+00 2.8092813663e+00 
94200 6.2946122275e+00 -3.5123473629e-05 1.6219393530e+00 -2.8092813663e+00 1.6219393530e+00 2.8092813663e+00 
94300 6.2946122279e+00 -3.5121806133e-05 1.6219393530e+00 -2.8092813663e+00 1.6219393530e+00 2.8092813663e+00 
94400 6.2946122284e+00 -3.5120677775e-05 1.6219393530e+00 -2.8092813663e+00 1.6219393530e+00 2.8092813663e+00 
94500 6.2946122288e+00 -3.5120113297e-05 1.6219393530e+00 -2.8092813663e+00 1.6219393530e+00 2.8092813663e+00 
94600 6.2946122293e+00 -3.5120136057e-05 1.6219393530e+00 -2.8092813663e+00 1.6219393530e+00 2.8092813663e+00 
94700 6.2946122297e+00 -3.5120768032e-05 1.6219393530e+00 -2.8092813663e+00 1.6219393530e+00 2.8092813663e+00 
94800 6.2946122301e+00 -3.5122029850e-05 1.6219393530e+00 -2.8092813663e+00 1.6219393530e+00 2.8092813663e+00 
94900 6.2946122306e+00 -3.5123940795e-05 1.6219393530e+00 -2.8092813663e+00 1.6219393530e+00 2.8092813663e+00 
95000 6.2946122310e+00 -3.5126518832e-05 1.6219393530e+00 -2.8092813663e+00 1.6219393530e+00 2.8092813663e+00 
95100 6.2946122314e+00 -3.5129780620e-05 1.6219393530e+00 -2.8092813663e+00 1.6219393530e+00 2.8092813663e+00 
95200 6.2946122318e+00 -3.5133741539e-05 1.6219393530e+00 -2.8092813663e+00 1.6219393530e+00 2.8092813663e+00 
95300 6.2946122322e+00 -3.5138415707e-05 1.6219393530e+00 -2.8092813663e+00 1.6219393530e+00 2.8092813663e+00 
95400 6.2946122326e+00 -3.5143815999e-05 1.6219393530e+00 -2.8092813663e+00 1.6219393530e+00 2.8092813663e+00 
95500 6.2946122330e+00 -3.5149954072e-05 1.6219393530e+00 -2.8092813663e+00 1.6219393530e+00 2.8092813663e+00 
95600 6.2946122334e+00 -3.5156840387e-05 1.6219393530e+00 -2.8092813663e+00 1.6219393530e+00 2.8092813663e+00 
95700 6.2946122338e+00 -3.5164484228e-05 1.6219393530e+00 -2.8092813663e+00 1.6219393530e+00 2.8092813663e+00 
95800 6.2946122342e+00 -3.5172893725e-05 1.6219393530e+00 -2.8092813663e+00 1.6219393530e+00 2.8092813663e+00 
95900 6.2946122346e+00 -3.5182075889e-05 1.6219393530e+00 -2.8092813663e+00 1.6219393530e+00 2.8092813663e+00 
96000 6.2946122350e+00 -3.5192036615e-05 1.6219393530e+00 -2.8092813663e+00 1.6219393530e+00 2.8092813663e+00 
96100 6.2946122354e+00 -3.5202780729e-05 1.6219393530e+00 -2.8092813663e+00 1.6219393530e+00 2.8092813663e+00 
96200 6.2946122357e+00 -3.5214311996e-05 1.6219393530e+00 -2.8092813663e+00 1.6219393530e+00 2.8092813663e+00 
96300 6.2946122361e+00 -3.5226633154e-05 1.6219393530e+00 -2.8092813663e+00 1.6219393530e+00 2.8092813663e+00 
96400 6.2946122365e+00 -3.5239745936e-05 1.6219393530e+00 -2.8092813663e+00 1.6219393530e+00 2.8092813663e+00 
96500 6.2946122368e+00 -3.5253651092e-05 1.6219393530e+00 -2.8092813663e+00 1.6219393530e+00 2.8092813663e+00 
96600 6.2946122372e+00 -3.5268348424e-05 1.6219393530e+00 -2.8092813663e+00 1.6219393530e+00 2.8092813663e+00 
96700 6.2946122375e+00 -3.5283836806e-05 1.6219393530e+00 -2.8092813663e+00 1.6219393530e+00 2.8092813663e+00 
96800 6.2946122379e+00 -3.5300114207e-05 1.6219393530e+00 -2.8092813663e+00 1.6219393530e+00 2.8092813663e+00 
96900 6.2946122382e+00 -3.5317177726e-05 1.6219393530e+00 -2.8092813663e+00 1.6219393530e+00 2.8092813663e+00 
97000 6.2946122386e+00 -3.5335023611e-05 1.6219393530e+00 -2.8092813663e+00 1.6219393530e+00 2.8092813663e+00 
97100 6.2946122389e+00 -3.5353647289e-05 1.6219393530e+00 -2.8092813663e+00 1.6219393530e+00 2.8092813663e+00 
97200 6.2946122392e+00 -3.5373043391e-05 1.6219393530e+00 -2.8092813663e+00 1.6219393530e+00 2.8092813663e+00 
97300 6.2946122396e+00 -3.5393205781e-05 1.6219393530e+00 -2.8092813663e+00 1.6219393530e+00 2.8092813663e+00 
97400 6.2946122399e+00 -3.5414127577e-05 1.6219393530e+00 -2.8092813663e+00 1.6219393530e+00 2.8092813663e+00 
97500 6.2946122402e+00 -3.5435801187e-05 1.6219393530e+00 -2.8092813663e+00 1.6219393530e+00 2.8092813663e+00 
97600 6.2946122405e+00 -3.5458218324e-05 1.6219393530e+00 -2.8092813663e+00 1.6219393530e+00 2.8092813663e+00 
97700 6.2946122408e+00 -3.5481370045e-05 1.6219393530e+00 -2.8092813663e+00 1.6219393530e+00 2.8092813663e+00 
97800 6.2946122411e+00 -3.5505246766e-05 1.6219393530e+00 -2.8092813663e+00 1.6219393530e+00 2.8092813663e+00 
97900 6.2946122414e+00 -3.5529838296e-05 1.6219393530e+00 -2.8092813663e+00 1.6219393530e+00 2.8092813663e+00 
98000 6.2946122417e+00 -3.5555133856e-05 1.6219393530e+00 -2.8092813663e+00 1.6219393530e+00 2.8092813663e+00 
98100 6.2946122420e+00 -3.5581122118e-05 1.6219393530e+00 -2.8092813663e+00 1.6219393530e+00 2.8092813663e+00 
98200 6.2946122423e+00 -3.5607791214e-05 1.6219393530e+00 -2.8092813663e+00 1.6219393530e+00 2.8092813663e+00 
98300 6.2946122426e+00 -3.5635128773e-05 1.6219393530e+00 -2.8092813663e+00 1.6219393530e+00 2.8092813663e+00 
98400 6.2946122429e+00 -3.5663121944e-05 1.6219393530e+00 -2.8092813663e+00 1.6219393530e+00 2.8092813663e+00 
98500 6.2946122432e+00 -3.5691757419e-05 1.6219393530e+00 -2.8092813663e+00 1.6219393530e+00 2.8092813663e+00 
98600 6.2946122435e+00 -3.5721021461e-05 1.6219393530e+00 -2.8092813663e+00 1.6219393530e+00 2.8092813663e+00 
98700 6.2946122438e+00 -3.5750899930e-05 1.6219393530e+00 -2.8092813663e+00 1.6219393530e+00 2.8092813663e+00 
98800 6.2946122440e+00 -3.5781378299e-05 1.6219393530e+00 -2.8092813663e+00 1.6219393530e+00 2.8092813663e+00 
98900 6.2946122443e+00 -3.5812441684e-05 1.6219393530e+00 -2.8092813663e+00 1.6219393530e+00 2.8092813663e+00 
99000 6.2946122446e+00 -3.5844074877e-05 1.6219393530e+00 -2.8092813663e+00 1.6219393530e+00 2.8092813663e+00 
99100 6.2946122449e+00 -3.5876262351e-05 1.6219393530e+00 -2.8092813663e+00 1.6219393530e+00 2.8092813663e+00 
99200 6.2946122451e+00 -3.5908988298e-05 1.6219393530e+00 -2.8092813663e+00 1.6219393530e+00 2.8092813663e+00 
99300 6.2946122454e+00 -3.5942236641e-05 1.6219393530e+00 -2.8092813663e+00 1.6219393530e+00 2.8092813663e+00 
99400 6.2946122456e+00 -3.5975991071e-05 1.6219393530e+00 -2.8092813663e+00 1.6219393530e+00 2.8092813663e+00 
99500 6.2946122459e+00 -3.6010235051e-05 1.6219393530e+00 -2.8092813663e+00 1.6219393530e+00 2.8092813663e+00 
99600 6.2946122462e+00 -3.6044951855e-05 1.6219393530e+00 -2.8092813663e+00 1.6219393530e+00 2.8092813663e+00 
99700 6.2946122464e+00 -3.6080124576e-05 1.6219393530e+00 -2.8092813663e+00 1.6219393530e+00 2.8092813663e+00 
99800 6.2946122467e+00 -3.6115736153e-05 1.6219393530e+00 -2.8092813663e+00 1.6219393530e+00 2.8092813663e+00 
99900 6.2946122469e+00 -3.6151769392e-05 1.6219393530e+00 -2.8092813663e+00 1.6219393530e+00 2.8092813663e+00 
100000 6.2946122471e+00 -3.6188206988e-05 1.6219393530e+00 -2.8092813663e+00 1.6219393530e+00 2.8092813663e+00 
100100 6.2946122474e+00 -3.6225031539e-05 1.6219393530e+00 -2.8092813663e+00 1.6219393530e+00 2.8092813663e+00 
100200 6.2946122476e+00 -3.6262225568e-05 1.6219393530e+00 -2.8092813663e+00 1.6219393530e+00 2.8092813663e+00 
100300 6.2946122479e+00 -3.6299771546e-05 1.6219393530e+00 -2.8092813663e+00 1.6219393530e+00 2.8092813663e+00 
100400 6.2946122481e+00 -3.6337651899e-05 1.6219393530e+00 -2.8092813663e+00 1.6219393530e+00 2.8092813663e+00 
100500 6.2946122483e+00 -3.6375849045e-05 1.6219393530e+00 -2.8092813663e+00 1.6219393530e+00 2.8092813663e+00 
100600 6.2946122485e+00 -3.6414345390e-05 1.6219393530e+00 -2.8092813663e+00 1.6219393530e+00 2.8092813663e+00 
100700 6.2946122488e+00 -3.6453123362e-05 1.6219393530e+00 -2.8092813663e+00 1.6219393530e+00 2.8092813663e+00 
100800 6.2946122490e+00 -3.6492165417e-05 1.6219393530e+00 -2.8092813663e+00 1.6219393530e+00 2.8092813663e+00 
100900 6.2946122492e+00 -3.6531454060e-05 1.6219393530e+00 -2.8092813663e+00 1.6219393530e+00 2.8092813663e+00 
101000 6.2946122494e+00 -3.6570971863e-05 1.6219393530e+00 -2.8092813663e+00 1.6219393530e+00 2.8092813663e+00 
101100 6.2946122496e+00 -3.6610701474e-05 1.6219393530e+00 -2.8092813663e+00 1.6219393530e+00 2.8092813663e+00 
101200 6.2946122498e+00 -3.6650625637e-05 1.6219393530e+00 -2.8092813663e+00 1.6219393530e+00 2.8092813663e+00 
101300 6.2946122501e+00 -3.6690727201e-05 1.6219393530e+00 -2.8092813663e+00 1.6219393530e+00 2.8092813663e+00 
101400 6.2946122503e+00 -3.6730989142e-05 1.6219393530e+00 -2.8092813663e+00 1.6219393530e+00 2.8092813663e+00 
101500 6.2946122505e+00 -3.6771394569e-05 1.6219393530e+00 -2.8092813663e+00 1.6219393530e+00 2.8092813663e+00 
101600 6.2946122507e+00 -3.6811926738e-05 1.6219393530e+00 -2.8092813663e+00 1.6219393530e+00 2.8092813663e+00 
101700 6.2946122509e+00 -3.6852569067e-05 1.6219393530e+00 -2.8092813663e+00 1.6219393530e+00 2.8092813663e+00 
101800 6.2946122511e+00 -3.6893305147e-05 1.6219393530e+00 -2.8092813663e+00 1.6219393530e+00 2.8092813663e+00 
101900 6.2946122513e+00 -3.6934118756e-05 1.6219393530e+00 -2.8092813663e+00 1.6219393530e+00 2.8092813663e+00 
102000 6.2946122515e+00 -3.6974993859e-05 1.6219393530e+00 -2.8092813663e+00 1.6219393530e+00 2.8092813663e+00 
102100 6.2946122516e+00 -3.7015914636e-05 1.6219393530e+00 -2.8092813663e+00 1.6219393530e+00 2.8092813663e+00 
102200 6.2946122518e+00 -3.7056865477e-05 1.6219393530e+00 -2.8092813663e+00 1.6219393530e+00 2.8092813663e+00 
102300 6.2946122520e+00 -3.7097831001e-05 1.6219393530e+00 -2.8092813663e+00 1.6219393530e+00 2.8092813663e+00 
102400 6.2946122522e+00 -3.7138796057e-05 1.6219393530e+00 -2.8092813663e+00 1.6219393530e+00 2.8092813663e+00 
102500 6.2946122524e+00 -3.7179745743e-05 1.6219393530e+00 -2.8092813663e+00 1.6219393530e+00 2.8092813663e+00 
102600 6.2946122526e+00 -3.7220665405e-05 1.6219393530e+00 -2.8092813663e+00 1.6219393530e+00 2.8092813663e+00 
102700 6.2946122527e+00 -3.7261540649e-05 1.6219393530e+00 -2.8092813663e+00 1.6219393530e+00 2.8092813663e+00 
102800 6.2946122529e+00 -3.7302357348e-05 1.6219393530e+00 -2.8092813663e+00 1.6219393530e+00 2.8092813663e+00 
102900 6.2946122531e+00 -3.7343101648e-05 1.6219393530e+00 -2.8092813663e+00 1.6219393530e+00 2.8092813663e+00 
103000 6.2946122533e+00 -3.7383759976e-05 1.6219393530e+00 -2.8092813663e+00 1.6219393530e+00 2.8092813663e+00 
103100 6.2946122534e+00 -3.7424319045e-05 1.6219393530e+00 -2.8092813663e+00 1.6219393530e+00 2.8092813663e+00 
103200 6.2946122536e+00 -3.7464765859e-05 1.6219393530e+00 -2.8092813663e+00 1.6219393530e+00 2.8092813663e+00 
103300 6.2946122538e+00 -3.7505087720e-05 1.6219393530e+00 -2.8092813663e+00 1.6219393530e+00 2.8092813663e+00 
103400 6.2946122539e+00 -3.7545272232e-05 1.6219393530e+00 -2.8092813663e+00 1.6219393530e+00 2.8092813663e+00 
103500 6.2946122541e+00 -3.7585307302e-05 1.6219393530e+00 -2.8092813663e+00 1.6219393530e+00 2.8092813663e+00 
103600 6.2946122543e+00 -3.7625181154e-05 1.6219393530e+00 -2.8092813663e+00 1.6219393530e+00 2.8092813663e+00 
103700 6.2946122544e+00 -3.7664882320e-05 1.6219393530e+00 -2.8092813663e+00 1.6219393530e+00 2.8092813663e+00 
103800 6.2946122546e+00 -3.7704399651e-05 1.6219393530e+00 -2.8092813663e+00 1.6219393530e+00 2.8092813663e+00 
103900 6.2946122547e+00 -3.7743722322e-05 1.6219393530e+00 -2.8092813663e+00 1.6219393530e+00 2.8092813663e+00 
104000 6.2946122549e+00 -3.7782839823e-05 1.6219393530e+00 -2.8092813663e+00 1.6219393530e+00 2.8092813663e+00 
104100 6.2946122550e+00 -3.7821741973e-05 1.6219393530e+00 -2.8092813663e+00 1.6219393530e+00 2.8092813663e+00 
104200 6.2946122552e+00 -3.7860418919e-05 1.6219393530e+00 -2.8092813663e+00 1.6219393530e+00 2.8092813663e+00 
104300 6.2946122553e+00 -3.7898861134e-05 1.6219393530e+00 -2.8092813663e+00 1.6219393530e+00 2.8092813663e+00 
104400 6.2946122555e+00 -3.7937059418e-05 1.6219393530e+00 -2.8092813663e+00 1.6219393530e+00 2.8092813663e+00 
104500 6.2946122556e+00 -3.7975004902e-05 1.6219393530e+00 -2.8092813663e+00 1.6219393530e+00 2.8092813663e+00 
104600 6.2946122558e+00 -3.8012689051e-05 1.6219393530e+00 -2.8092813663e+00 1.6219393530e+00 2.8092813663e+00 
104700 6.2946122559e+00 -3.8050103654e-05 1.6219393530e+00 -2.8092813663e+00 1.6219393530e+00 2.8092813663e+00 
104800 6.2946122561e+00 -3.8087240836e-05 1.6219393530e+00 -2.8092813663e+00 1.6219393530e+00 2.8092813663e+00 
104900 6.2946122562e+00 -3.8124093049e-05 1.6219393530e+00 -2.8092813663e+00 1.6219393530e+00 2.8092813663e+00 
105000 6.2946122563e+00 -3.8160653070e-05 1.6219393530e+00 -2.8092813663e+00 1.6219393530e+00 2.8092813663e+00 
105100 6.2946122565e+00 -3.8196914009e-05 1.6219393530e+00 -2.8092813663e+00 1.6219393530e+00 2.8092813663e+00 
105200 6.2946122566e+00 -3.8232869301e-05 1.6219393530e+00 -2.8092813663e+00 1.6219393530e+00 2.8092813663e+00 
105300 6.2946122567e+00 -3.8268512706e-05 1.6219393530e+00 -2.8092813663e+00 1.6219393530e+00 2.8092813663e+00 
105400 6.2946122569e+00 -3.8303838303e-05 1.6219393530e+00 -2.8092813663e+00 1.6219393530e+00 2.8092813663e+00 
105500 6.2946122570e+00 -3.8338840499e-05 1.6219393530e+00 -2.8092813663e+00 1.6219393530e+00 2.8092813663e+00 
105600 6.2946122571e+00 -3.8373514014e-05 1.6219393530e+00 -2.8092813663e+00 1.6219393530e+00 2.8092813663e+00 
105700 6.2946122573e+00 -3.8407853886e-05 1.6219393530e+00 -2.8092813663e+00 1.6219393530e+00 2.8092813663e+00 
105800 6.2946122574e+00 -3.8441855467e-05 1.6219393530e+00 -2.8092813663e+00 1.6219393530e+00 2.8092813663e+00 
105900 6.2946122575e+00 -3.8475514415e-05 1.6219393530e+00 -2.8092813663e+00 1.6219393530e+00 2.8092813663e+00 
106000 6.2946122576e+00 -3.8508826698e-05 1.6219393530e+00 -2.8092813663e+00 1.6219393530e+00 2.8092813663e+00 
106100 6.2946122578e+00 -3.8541788585e-05 1.6219393530e+00 -2.8092813663e+00 1.6219393530e+00 2.8092813663e+00 
106200 6.2946122579e+00 -3.8574396651e-05 1.6219393530e+00 -2.8092813663e+00 1.6219393530e+00 2.8092813663e+00 
106300 6.2946122580e+00 -3.8606647758e-05 1.6219393530e+00 -2.8092813663e+00 1.6219393530e+00 2.8092813663e+00 
106400 6.2946122581e+00 -3.8638539065e-05 1.6219393530e+00 -2.8092813663e+00 1.6219393530e+00 2.8092813663e+00 
106500 6.2946122582e+00 -3.8670068018e-05 1.6219393530e+00 -2.8092813663e+00 1.6219393530e+00 2.8092813663e+00 
106600 6.2946122583e+00 -3.8701232347e-05 1.6219393530e+00 -2.8092813663e+00 1.6219393530e+00 2.8092813663e+00 
106700 6.2946122585e+00 -3.8732030057e-05 1.6219393530e+00 -2.8092813663e+00 1.6219393530e+00 2.8092813663e+00 
106800 6.2946122586e+00 -3.8762459434e-05 1.6219393530e+00 -2.8092813663e+00 1.6219393530e+00 2.8092813663e+00 
106900 6.2946122587e+00 -3.8792519027e-05 1.6219393530e+00 -2.8092813663e+00 1.6219393530e+00 2.8092813663e+00 
107000 6.2946122588e+00 -3.8822207653e-05 1.6219393530e+00 -2.8092813663e+00 1.6219393530e+00 2.8092813663e+00 
107100 6.2946122589e+00 -3.8851524389e-05 1.6219393530e+00 -2.8092813663e+00 1.6219393530e+00 2.8092813663e+00 
107200 6.2946122590e+00 -3.8880468564e-05 1.6219393530e+00 -2.8092813663e+00 1.6219393530e+00 2.8092813663e+00 
107300 6.2946122591e+00 -3.8909039762e-05 1.6219393530e+00 -2.8092813663e+00 1.6219393530e+00 2.8092813663e+00 
107400 6.2946122592e+00 -3.8937237802e-05 1.6219393530e+00 -2.8092813663e+00 1.6219393530e+00 2.8092813663e+00 
107500 6.2946122593e+00 -3.8965062749e-05 1.6219393530e+00 -2.8092813663e+00 1.6219393530e+00 2.8092813663e+00 
107600 6.2946122594e+00 -3.8992514900e-05 1.6219393530e+00 -2.8092813663e+00 1.6219393530e+00 2.8092813663e+00 
107700 6.2946122595e+00 -3.9019594777e-05 1.6219393530e+00 -2.8092813663e+00 1.6219393530e+00 2.8092813663e+00 
107800 6.2946122596e+00 -3.9046303127e-05 1.6219393530e+00 -2.8092813663e+00 1.6219393530e+00 2.8092813663e+00 
107900 6.2946122597e+00 -3.9072640912e-05 1.6219393530e+00 -2.8092813663e+00 1.6219393530e+00 2.8092813663e+00 
108000 6.2946122598e+00 -3.9098609303e-05 1.6219393530e+00 -2.8092813663e+00 1.6219393530e+00 2.8092813663e+00 
108100 6.2946122599e+00 -3.9124209677e-05 1.6219393530e+00 -2.8092813663e+00 1.6219393530e+00 2.8092813663e+00 
108200 6.2946122600e+00 -3.9149443614e-05 1.6219393530e+00 -2.8092813663e+00 1.6219393530e+00 2.8092813663e+00 
108300 6.2946122601e+00 -3.9174312877e-05 1.6219393530e+00 -2.8092813663e+00 1.6219393530e+00 2.8092813663e+00 
108400 6.2946122602e+00 -3.9198819427e-05 1.6219393530e+00 -2.8092813663e+00 1.6219393530e+00 2.8092813663e+00 
108500 6.2946122603e+00 -3.9222965402e-05 1.6219393530e+00 -2.8092813663e+00 1.6219393530e+00 2.8092813663e+00 
108600 6.2946122604e+00 -3.9246753112e-05 1.6219393530e+00 -2.8092813663e+00 1.6219393530e+00 2.8092813663e+00 
108700 6.2946122605e+00 -3.9270185041e-05 1.6219393530e+00 -2.8092813663e+00 1.6219393530e+00 2.8092813663e+00 
108800 6.2946122606e+00 -3.9293263836e-05 1.6219393530e+00 -2.8092813663e+00 1.6219393530e+00 2.8092813663e+00 
108900 6.2946122607e+00 -3.9315992297e-05 1.6219393530e+00 -2.8092813663e+00 1.6219393530e+00 2.8092813663e+00 
109000 6.2946122608e+00 -3.9338373383e-05 1.6219393530e+00 -2.8092813663e+00 1.6219393530e+00 2.8092813663e+00 
109100 6.2946122608e+00 -3.9360410191e-05 1.6219393530e+00 -2.8092813663e+00 1.6219393530e+00 2.8092813663e+00 
109200 6.2946122609e+00 -3.9382105965e-05 1.6219393530e+00 -2.8092813663e+00 1.6219393530e+00 2.8092813663e+00 
109300 6.2946122610e+00 -3.9403464077e-05 1.6219393530e+00 -2.8092813663e+00 1.6219393530e+00 2.8092813663e+00 
109400 6.2946122611e+00 -3.9424488032e-05 1.6219393530e+00 -2.8092813663e+00 1.6219393530e+00 2.8092813663e+00 
109500 6.2946122612e+00 -3.9445181449e-05 1.6219393530e+00 -2.8092813663e+00 1.6219393530e+00 2.8092813663e+00 
109600 6.2946122613e+00 -3.9465548072e-05 1.6219393530e+00 -2.8092813663e+00 1.6219393530e+00 2.8092813663e+00 
109700 6.2946122613e+00 -3.9485591753e-05 1.6219393530e+00 -2.8092813663e+00 1.6219393530e+00 2.8092813663e+00 
109800 6.2946122614e+00 -3.9505316443e-05 1.6219393530e+00 -2.8092813663e+00 1.6219393530e+00 2.8092813663e+00 
109900 6.2946122615e+00 -3.9524726202e-05 1.6219393530e+00 -2.8092813663e+00 1.6219393530e+00 2.8092813663e+00 
110000 6.2946122616e+00 -3.9543825178e-05 1.6219393530e+00 -2.8092813663e+00 1.6219393530e+00 2.8092813663e+00 
110100 6.2946122617e+00 -3.9562617606e-05 1.6219393530e+00 -2.8092813663e+00 1.6219393530e+00 2.8092813663e+00 
110200 6.2946122617e+00 -3.9581107806e-05 1.6219393530e+00 -2.8092813663e+00 1.6219393530e+00 2.8092813663e+00 
110300 6.2946122618e+00 -3.9599300174e-05 1.6219393530e+00 -2.8092813663e+00 1.6219393530e+00 2.8092813663e+00 
110400 6.2946122619e+00 -3.9617199177e-05 1.6219393530e+00 -2.8092813663e+00 1.6219393530e+00 2.8092813663e+00 
110500 6.2946122620e+00 -3.9634809351e-05 1.6219393530e+00 -2.8092813663e+00 1.6219393530e+00 2.8092813663e+00 
110600 6.2946122620e+00 -3.9652135290e-05 1.6219393530e+00 -2.8092813663e+00 1.6219393530e+00 2.8092813663e+00 
110700 6.2946122621e+00 -3.9669181644e-05 1.6219393530e+00 -2.8092813663e+00 1.6219393530e+00 2.8092813663e+00 
110800 6.2946122622e+00 -3.9685953117e-05 1.6219393530e+00 -2.8092813663e+00 1.6219393530e+00 2.8092813663e+00 
110900 6.2946122623e+00 -3.9702454455e-05 1.6219393530e+00 -2.8092813663e+00 1.6219393530e+00 2.8092813663e+00 
111000 6.2946122623e+00 -3.9718690447e-05 1.6219393530e+00 -2.8092813663e+00 1.6219393530e+00 2.8092813663e+00 
111100 6.2946122624e+00 -3.9734665918e-05 1.6219393530e+00 -2.8092813663e+00 1.6219393530e+00 2.8092813663e+00 
111200 6.2946122625e+00 -3.9750385726e-05 1.6219393530e+00 -2.8092813663e+00 1.6219393530e+00 2.8092813663e+00 
111300 6.2946122625e+00 -3.9765854750e-05 1.6219393530e+00 -2.8092813663e+00 1.6219393530e+00 2.8092813663e+00 
111400 6.2946122626e+00 -3.9781077899e-05 1.6219393530e+00 -2.8092813663e+00 1.6219393530e+00 2.8092813663e+00 
111500 6.2946122627e+00 -3.9796060094e-05 1.6219393530e+00 -2.8092813663e+00 1.6219393530e+00 2.8092813663e+00 
111600 6.2946122627e+00 -3.9810806273e-05 1.6219393530e+00 -2.8092813663e+00 1.6219393530e+00 2.8092813663e+00 
111700 6.2946122628e+00 -3.9825321379e-05 1.6219393530e+00 -2.8092813663e+00 1.6219393530e+00 2.8092813663e+00 
111800 6.2946122629e+00 -3.9839610362e-05 1.6219393530e+00 -2.8092813663e+00 1.6219393530e+00 2.8092813663e+00 
111900 6.2946122629e+00 -3.9853678172e-05 1.6219393530e+00 -2.8092813663e+00 1.6219393530e+00 2.8092813663e+00 
112000 6.2946122630e+00 -3.9867529755e-05 1.6219393530e+00 -2.8092813663e+00 1.6219393530e+00 2.8092813663e+00 
112100 6.2946122630e+00 -3.9881170056e-05 1.6219393530e+00 -2.8092813663e+00 1.6219393530e+00 2.8092813663e+00 
112200 6.2946122631e+00 -3.9894603999e-05 1.6219393530e+00 -2.8092813663e+00 1.6219393530e+00 2.8092813663e+00 
112300 6.2946122632e+00 -3.9907836502e-05 1.6219393530e+00 -2.8092813663e+00 1.6219393530e+00 2.8092813663e+00 
112400 6.2946122632e+00 -3.9920872461e-05 1.6219393530e+00 -2.8092813663e+00 1.6219393530e+00 2.8092813663e+00 
112500 6.2946122633e+00 -3.9933716750e-05 1.6219393530e+00 -2.8092813663e+00 1.6219393530e+00 2.8092813663e+00 
112600 6.2946122633e+00 -3.9946374219e-05 1.6219393530e+00 -2.8092813663e+00 1.6219393530e+00 2.8092813663e+00 
112700 6.2946122634e+00 -3.9958849691e-05 1.6219393530e+00 -2.8092813663e+00 1.6219393530e+00 2.8092813663e+00 
112800 6.2946122635e+00 -3.9971147953e-05 1.6219393530e+00 -2.8092813663e+00 1.6219393530e+00 2.8092813663e+00 
112900 6.2946122635e+00 -3.9983273763e-05 1.6219393530e+00 -2.8092813663e+00 1.6219393530e+00 2.8092813663e+00 
113000 6.2946122636e+00 -3.9995231838e-05 1.6219393530e+00 -2.8092813663e+00 1.6219393530e+00 2.8092813663e+00 
113100 6.2946122636e+00 -4.0007026858e-05 1.6219393530e+00 -2.8092813663e+00 1.6219393530e+00 2.8092813663e+00 
113200 6.2946122637e+00 -4.0018663457e-05 1.6219393530e+00 -2.8092813663e+00 1.6219393530e+00 2.8092813663e+00 
113300 6.2946122637e+00 -4.0030146223e-05 1.6219393530e+00 -2.8092813663e+00 1.6219393530e+00 2.8092813663e+00 
113400 6.2946122638e+00 -4.0041479700e-05 1.6219393530e+00 -2.8092813663e+00 1.6219393530e+00 2.8092813663e+00 
113500 6.2946122638e+00 -4.0052668379e-05 1.6219393530e+00 -2.8092813663e+00 1.6219393530e+00 2.8092813663e+00 
113600 6.2946122639e+00 -4.0063716695e-05 1.6219393530e+00 -2.8092813663e+00 1.6219393530e+00 2.8092813663e+00 
113700 6.2946122640e+00 -4.0074629034e-05 1.6219393530e+00 -2.8092813663e+00 1.6219393530e+00 2.8092813663e+00 
113800 6.2946122640e+00 -4.0085409722e-05 1.6219393530e+00 -2.8092813663e+00 1.6219393530e+00 2.8092813663e+00 
113900 6.2946122641e+00 -4.0096063024e-05 1.6219393530e+00 -2.8092813663e+00 1.6219393530e+00 2.8092813663e+00 
114000 6.2946122641e+00 -4.0106593147e-05 1.6219393530e+00 -2.8092813663e+00 1.6219393530e+00 2.8092813663e+00 
114100 6.2946122642e+00 -4.0117004233e-05 1.6219393530e+00 -2.8092813663e+00 1.6219393530e+00 2.8092813663e+00 
114200 6.2946122642e+00 -4.0122166416e-05 1.6219393530e+00 -2.8092813663e+00 1.6219393530e+00 2.8092813663e+00 
114200 6.2946122642e+00 -4.0122166415e-05 1.6219393530e+00 -2.8092813663e+00 1.6219393530e+00 2.8092813663e+00 
