# step Hamiltonian StressXX CellTensor1 CellTensor2 CellTensor3 CellTensor4 
0 4.8992365435e+00 5.8514820726e-04 1.6185780433e+00 -2.8034594071e+00 1.6185780433e+00 2.8034594071e+00 
100 4.8849760368e+00 -1.5119170338e-03 1.6185780433e+00 -2.8034594071e+00 1.6185780433e+00 2.8034594071e+00 
200 4.8716906689e+00 -3.3689917910e-03 1.6186247487e+00 -2.8035403031e+00 1.6186247487e+00 2.8035403031e+00 
300 4.8592947129e+00 -4.9858385135e-03 1.6187288194e+00 -2.8037205588e+00 1.6187288194e+00 2.8037205588e+00 
400 4.8477111100e+00 -6.3811771309e-03 1.6188828265e+00 -2.8039873071e+00 1.6188828265e+00 2.8039873071e+00 
500 4.8368706771e+00 -7.5724274039e-03 1.6190799164e+00 -2.8043286767e+00 1.6190799164e+00 2.8043286767e+00 
600 4.8267113587e+00 -8.5757587363e-03 1.6193137717e+00 -2.8047337260e+00 1.6193137717e+00 2.8047337260e+00 
700 4.8171775340e+00 -9.4061451815e-03 1.6195785750e+00 -2.8051923788e+00 1.6195785750e+00 2.8051923788e+00 
800 4.8082193761e+00 -1.0077424816e-02 1.6198689723e+00 -2.8056953617e+00 1.6198689723e+00 2.8056953617e+00 
900 4.7997922605e+00 -1.0602362586e-02 1.6201800391e+00 -2.8062341451e+00 1.6201800391e+00 2.8062341451e+00 
1000 4.7918562192e+00 -1.0992715709e-02 1.6205072471e+00 -2.8068008861e+00 1.6205072471e+00 2.8068008861e+00 
1100 4.7843754404e+00 -1.1259300691e-02 1.6208464341e+00 -2.8073883752e+00 1.6208464341e+00 2.8073883752e+00 
1200 4.7773178092e+00 -1.1412061061e-02 1.6211937743e+00 -2.8079899861e+00 1.6211937743e+00 2.8079899861e+00 
1300 4.7706544895e+00 -1.1460134943e-02 1.6215457518e+00 -2.8085996289e+00 1.6215457518e+00 2.8085996289e+00 
1400 4.7643595423e+00 -1.1411921679e-02 1.6218991353e+00 -2.8092117072e+00 1.6218991353e+00 2.8092117072e+00 
1500 4.7584095816e+00 -1.1275146748e-02 1.6222509554e+00 -2.8098210774e+00 1.6222509554e+00 2.8098210774e+00 
1600 4.7527834632e+00 -1.1056924369e-02 1.6225984833e+00 -2.8104230134e+00 1.6225984833e+00 2.8104230134e+00 
1700 4.7474620060e+00 -1.0763817216e-02 1.6229392118e+00 -2.8110131725e+00 1.6229392118e+00 2.8110131725e+00 
1800 4.7424277429e+00 -1.0401892827e-02 1.6232708380e+00 -2.8115875659e+00 1.6232708380e+00 2.8115875659e+00 
1900 4.7376646999e+00 -9.9767763363e-03 1.6235912478e+00 -2.8121425318e+00 1.6235912478e+00 2.8121425318e+00 
2000 4.7331582012e+00 -9.4936992968e-03 1.6238985015e+00 -2.8126747110e+00 1.6238985015e+00 2.8126747110e+00 
2100 4.7288946977e+00 -8.9575444264e-03 1.6241908223e+00 -2.8131810254e+00 1.6241908223e+00 2.8131810254e+00 
2200 4.7248616177e+00 -8.3728862092e-03 1.6244665841e+00 -2.8136586589e+00 1.6244665841e+00 2.8136586589e+00 
2300 4.7210472382e+00 -7.7440273529e-03 1.6247243028e+00 -2.8141050408e+00 1.6247243028e+00 2.8141050408e+00 
2400 4.7174405733e+00 -7.0750311718e-03 1.6249626268e+00 -2.8145178301e+00 1.6249626268e+00 2.8145178301e+00 
2500 4.7140312795e+00 -6.3697500238e-03 1.6251803300e+00 -2.8148949030e+00 1.6251803300e+00 2.8148949030e+00 
2600 4.7108095756e+00 -5.6318499747e-03 1.6253763045e+00 -2.8152343408e+00 1.6253763045e+00 2.8152343408e+00 
2700 4.7077661754e+00 -4.8648319023e-03 1.6255495551e+00 -2.8155344197e+00 1.6255495551e+00 2.8155344197e+00 
2800 4.7048922319e+00 -4.0720492824e-03 1.6256991940e+00 -2.8157936017e+00 1.6256991940e+00 2.8157936017e+00 
2900 4.7021792912e+00 -3.2567229165e-03 1.6258244355e+00 -2.8160105265e+00 1.6258244355e+00 2.8160105265e+00 
3000 4.6996192555e+00 -2.4219528777e-03 1.6259245926e+00 -2.8161840036e+00 1.6259245926e+00 2.8161840036e+00 
3100 4.6972043528e+00 -1.5707279542e-03 1.6259990724e+00 -2.8163130064e+00 1.6259990724e+00 2.8163130064e+00 
3200 4.6949271135e+00 -7.0593287141e-04 1.6260473730e+00 -2.8163966656e+00 1.6260473730e+00 2.8163966656e+00 
3300 4.6927803516e+00 1.6964642989e-04 1.6260690801e+00 -2.8164342633e+00 1.6260690801e+00 2.8164342633e+00 
3400 4.6907571506e+00 1.0533191914e-03 1.6260638636e+00 -2.8164252282e+00 1.6260638636e+00 2.8164252282e+00 
3500 4.6888508529e+00 1.9424876557e-03 1.6260314751e+00 -2.8163691296e+00 1.6260314751e+00 2.8163691296e+00 
3600 4.6870550515e+00 2.8346460621e-03 1.6259717446e+00 -2.8162656732e+00 1.6259717446e+00 2.8162656732e+00 
3700 4.6853635845e+00 3.7273805949e-03 1.6258845776e+00 -2.8161146956e+00 1.6258845776e+00 2.8161146956e+00 
3800 4.6837705305e+00 4.6183700755e-03 1.6257699527e+00 -2.8159161595e+00 1.6257699527e+00 2.8159161595e+00 
3900 4.6822702052e+00 5.5053872076e-03 1.6256279184e+00 -2.8156701488e+00 1.6256279184e+00 2.8156701488e+00 
4000 4.6808571594e+00 6.3863002046e-03 1.6254585902e+00 -2.8153768638e+00 1.6254585902e+00 2.8153768638e+00 
4100 4.6795261767e+00 7.2590746466e-03 1.6252621481e+00 -2.8150366161e+00 1.6252621481e+00 2.8150366161e+00 
4200 4.6782722713e+00 8.1217754305e-03 1.6250388331e+00 -2.8146498231e+00 1.6250388331e+00 2.8146498231e+00 
4300 4.6770906860e+00 8.9725686987e-03 1.6247889447e+00 -2.8142170037e+00 1.6247889447e+00 2.8142170037e+00 
4400 4.6759768900e+00 9.8097236447e-03 1.6245128376e+00 -2.8137387722e+00 1.6245128376e+00 2.8137387722e+00 
4500 4.6749265761e+00 1.0631614113e-02 1.6242109188e+00 -2.8132158335e+00 1.6242109188e+00 2.8132158335e+00 
4600 4.6739356574e+00 1.1436719924e-02 1.6238836442e+00 -2.8126489774e+00 1.6238836442e+00 2.8126489774e+00 
4700 4.6730002637e+00 1.2223627872e-02 1.6235315160e+00 -2.8120390734e+00 1.6235315160e+00 2.8120390734e+00 
4800 4.6721167372e+00 1.2991032352e-02 1.6231550787e+00 -2.8113870649e+00 1.6231550787e+00 2.8113870649e+00 
4900 4.6712816278e+00 1.3737735589e-02 1.6227549168e+00 -2.8106939640e+00 1.6227549168e+00 2.8106939640e+00 
5000 4.6704916877e+00 1.4462647450e-02 1.6223316508e+00 -2.8099608459e+00 1.6223316508e+00 2.8099608459e+00 
5100 4.6697438658e+00 1.5164784831e-02 1.6218859347e+00 -2.8091888431e+00 1.6218859347e+00 2.8091888431e+00 
5200 4.6690353012e+00 1.5843270622e-02 1.6214184525e+00 -2.8083791401e+00 1.6214184525e+00 2.8083791401e+00 
5300 4.6683633165e+00 1.6497332250e-02 1.6209299150e+00 -2.8075329684e+00 1.6209299150e+00 2.8075329684e+00 
5400 4.6677254111e+00 1.7126299824e-02 1.6204210569e+00 -2.8066516001e+00 1.6204210569e+00 2.8066516001e+00 
5500 4.6671192539e+00 1.7729603893e-02 1.6198926334e+00 -2.8057363439e+00 1.6198926334e+00 2.8057363439e+00 
5600 4.6665426753e+00 1.8306772851e-02 1.6193454180e+00 -2.8047885390e+00 1.6193454180e+00 2.8047885390e+00 
5700 4.6659936603e+00 1.8857430007e-02 1.6187801986e+00 -2.8038095503e+00 1.6187801986e+00 2.8038095503e+00 
5800 4.6654703402e+00 1.9381290356e-02 1.6181977756e+00 -2.8028007640e+00 1.6181977756e+00 2.8028007640e+00 
5900 4.6649709847e+00 1.9878157086e-02 1.6175989583e+00 -2.8017635821e+00 1.6175989583e+00 2.8017635821e+00 
6000 4.6644939948e+00 2.0347917849e-02 1.6169845632e+00 -2.8006994185e+00 1.6169845632e+00 2.8006994185e+00 
6100 4.6640378944e+00 2.0790540832e-02 1.6163554107e+00 -2.7996096944e+00 1.6163554107e+00 2.7996096944e+00 
6200 4.6636013228e+00 2.1206070676e-02 1.6157123231e+00 -2.7984958341e+00 1.6157123231e+00 2.7984958341e+00 
6300 4.6631830278e+00 2.1594624251e-02 1.6150561223e+00 -2.7973592610e+00 1.6150561223e+00 2.7973592610e+00 
6400 4.6627818575e+00 2.1956386348e-02 1.6143876275e+00 -2.7962013939e+00 1.6143876275e+00 2.7962013939e+00 
6500 4.6623967543e+00 2.2291605301e-02 1.6137076531e+00 -2.7950236438e+00 1.6137076531e+00 2.7950236438e+00 
6600 4.6620267471e+00 2.2600588586e-02 1.6130170071e+00 -2.7938274098e+00 1.6130170071e+00 2.7938274098e+00 
6700 4.6616709457e+00 2.2883698403e-02 1.6123164890e+00 -2.7926140769e+00 1.6123164890e+00 2.7926140769e+00 
6800 4.6613285339e+00 2.3141347300e-02 1.6116068883e+00 -2.7913850124e+00 1.6116068883e+00 2.7913850124e+00 
6900 4.6609987639e+00 2.3373993830e-02 1.6108889828e+00 -2.7901415636e+00 1.6108889828e+00 2.7901415636e+00 
7000 4.6606809505e+00 2.3582138289e-02 1.6101635375e+00 -2.7888850554e+00 1.6101635375e+00 2.7888850554e+00 
7100 4.6603744661e+00 2.3766318546e-02 1.6094313028e+00 -2.7876167878e+00 1.6094313028e+00 2.7876167878e+00 
7200 4.6600787353e+00 2.3927105976e-02 1.6086930141e+00 -2.7863380342e+00 1.6086930141e+00 2.7863380342e+00 
7300 4.6597932305e+00 2.4065101525e-02 1.6079493899e+00 -2.7850500393e+00 1.6079493899e+00 2.7850500393e+00 
7400 4.6595174675e+00 2.4180931915e-02 1.6072011314e+00 -2.7837540176e+00 1.6072011314e+00 2.7837540176e+00 
7500 4.6592510016e+00 2.4275245992e-02 1.6064489218e+00 -2.7824511523e+00 1.6064489218e+00 2.7824511523e+00 
7600 4.6589934234e+00 2.4348711238e-02 1.6056934249e+00 -2.7811425933e+00 1.6056934249e+00 2.7811425933e+00 
7700 4.6587443558e+00 2.4402010453e-02 1.6049352854e+00 -2.7798294571e+00 1.6049352854e+00 2.7798294571e+00 
7800 4.6585034506e+00 2.4435838601e-02 1.6041751275e+00 -2.7785128251e+00 1.6041751275e+00 2.7785128251e+00 
7900 4.6582703856e+00 2.4450899836e-02 1.6034135553e+00 -2.7771937433e+00 1.6034135553e+00 2.7771937433e+00 
8000 4.6580448619e+00 2.4447904706e-02 1.6026511518e+00 -2.7758732218e+00 1.6026511518e+00 2.7758732218e+00 
8100 4.6578266017e+00 2.4427567533e-02 1.6018884792e+00 -2.7745522340e+00 1.6018884792e+00 2.7745522340e+00 
8200 4.6576153456e+00 2.4390603968e-02 1.6011260781e+00 -2.7732317166e+00 1.6011260781e+00 2.7732317166e+00 
8300 4.6574108512e+00 2.4337728728e-02 1.6003644682e+00 -2.7719125696e+00 1.6003644682e+00 2.7719125696e+00 
8400 4.6572128909e+00 2.4269653499e-02 1.5996041477e+00 -2.7705956557e+00 1.5996041477e+00 2.7705956557e+00 
8500 4.6570212503e+00 2.4187085010e-02 1.5988455933e+00 -2.7692818010e+00 1.5988455933e+00 2.7692818010e+00 
8600 4.6568357270e+00 2.4090723271e-02 1.5980892608e+00 -2.7679717947e+00 1.5980892608e+00 2.7679717947e+00 
8700 4.6566561291e+00 2.3981259968e-02 1.5973355849e+00 -2.7666663897e+00 1.5973355849e+00 2.7666663897e+00 
8800 4.6564822740e+00 2.3859377017e-02 1.5965849793e+00 -2.7653663027e+00 1.5965849793e+00 2.7653663027e+00 
8900 4.6563139878e+00 2.3725745256e-02 1.5958378372e+00 -2.7640722147e+00 1.5958378372e+00 2.7640722147e+00 
9000 4.6561511037e+00 2.3581023283e-02 1.5950945317e+00 -2.7627847717e+00 1.5950945317e+00 2.7627847717e+00 
9100 4.6559934621e+00 2.3425856428e-02 1.5943554156e+00 -2.7615045851e+00 1.5943554156e+00 2.7615045851e+00 
9200 4.6558409089e+00 2.3260875851e-02 1.5936208223e+00 -2.7602322321e+00 1.5936208223e+00 2.7602322321e+00 
9300 4.6556932958e+00 2.3086697758e-02 1.5928910659e+00 -2.7589682570e+00 1.5928910659e+00 2.7589682570e+00 
9400 4.6555504793e+00 2.2903922735e-02 1.5921664417e+00 -2.7577131712e+00 1.5921664417e+00 2.7577131712e+00 
9500 4.6554123204e+00 2.2713135180e-02 1.5914472268e+00 -2.7564674544e+00 1.5914472268e+00 2.7564674544e+00 
9600 4.6552786841e+00 2.2514902844e-02 1.5907336801e+00 -2.7552315553e+00 1.5907336801e+00 2.7552315553e+00 
9700 4.6551494393e+00 2.2309776455e-02 1.5900260434e+00 -2.7540058925e+00 1.5900260434e+00 2.7540058925e+00 
9800 4.6550244583e+00 2.2098289439e-02 1.5893245412e+00 -2.7527908550e+00 1.5893245412e+00 2.7527908550e+00 
9900 4.6549036164e+00 2.1880957705e-02 1.5886293818e+00 -2.7515868036e+00 1.5886293818e+00 2.7515868036e+00 
10000 4.6547867925e+00 2.1658279522e-02 1.5879407575e+00 -2.7503940714e+00 1.5879407575e+00 2.7503940714e+00 
10100 4.6546738678e+00 2.1430735447e-02 1.5872588451e+00 -2.7492129645e+00 1.5872588451e+00 2.7492129645e+00 
10200 4.6545647266e+00 2.1198788324e-02 1.5865838066e+00 -2.7480437636e+00 1.5865838066e+00 2.7480437636e+00 
10300 4.6544592557e+00 2.0962883337e-02 1.5859157896e+00 -2.7468867241e+00 1.5859157896e+00 2.7468867241e+00 
10400 4.6543573445e+00 2.0723448115e-02 1.5852549277e+00 -2.7457420777e+00 1.5852549277e+00 2.7457420777e+00 
10500 4.6542588848e+00 2.0480892878e-02 1.5846013412e+00 -2.7446100328e+00 1.5846013412e+00 2.7446100328e+00 
10600 4.6541637710e+00 2.0235610632e-02 1.5839551377e+00 -2.7434907754e+00 1.5839551377e+00 2.7434907754e+00 
10700 4.6540718995e+00 1.9987977397e-02 1.5833164122e+00 -2.7423844704e+00 1.5833164122e+00 2.7423844704e+00 
10800 4.6539831694e+00 1.9738352465e-02 1.5826852481e+00 -2.7412912622e+00 1.5826852481e+00 2.7412912622e+00 
10900 4.6538974820e+00 1.9487078695e-02 1.5820617175e+00 -2.7402112754e+00 1.5820617175e+00 2.7402112754e+00 
11000 4.6538147406e+00 1.9234482825e-02 1.5814458814e+00 -2.7391446160e+00 1.5814458814e+00 2.7391446160e+00 
11100 4.6537348512e+00 1.8980875813e-02 1.5808377907e+00 -2.7380913720e+00 1.5808377907e+00 2.7380913720e+00 
11200 4.6536577217e+00 1.8726553189e-02 1.5802374864e+00 -2.7370516145e+00 1.5802374864e+00 2.7370516145e+00 
11300 4.6535832625e+00 1.8471795431e-02 1.5796450001e+00 -2.7360253981e+00 1.5796450001e+00 2.7360253981e+00 
11400 4.6535113858e+00 1.8216868352e-02 1.5790603543e+00 -2.7350127619e+00 1.5790603543e+00 2.7350127619e+00 
11500 4.6534420065e+00 1.7962023489e-02 1.5784835632e+00 -2.7340137304e+00 1.5784835632e+00 2.7340137304e+00 
11600 4.6533750413e+00 1.7707498518e-02 1.5779146329e+00 -2.7330283142e+00 1.5779146329e+00 2.7330283142e+00 
11700 4.6533104093e+00 1.7453517657e-02 1.5773535617e+00 -2.7320565104e+00 1.5773535617e+00 2.7320565104e+00 
11800 4.6532480317e+00 1.7200292085e-02 1.5768003409e+00 -2.7310983038e+00 1.5768003409e+00 2.7310983038e+00 
11900 4.6531878318e+00 1.6948020361e-02 1.5762549548e+00 -2.7301536673e+00 1.5762549548e+00 2.7301536673e+00 
12000 4.6531297350e+00 1.6696888841e-02 1.5757173813e+00 -2.7292225628e+00 1.5757173813e+00 2.7292225628e+00 
12100 4.6530736690e+00 1.6447072101e-02 1.5751875924e+00 -2.7283049414e+00 1.5751875924e+00 2.7283049414e+00 
12200 4.6530195633e+00 1.6198733348e-02 1.5746655541e+00 -2.7274007446e+00 1.5746655541e+00 2.7274007446e+00 
12300 4.6529673498e+00 1.5952024841e-02 1.5741512274e+00 -2.7265099046e+00 1.5741512274e+00 2.7265099046e+00 
12400 4.6529169621e+00 1.5707088298e-02 1.5736445680e+00 -2.7256323449e+00 1.5736445680e+00 2.7256323449e+00 
12500 4.6528683361e+00 1.5464055303e-02 1.5731455272e+00 -2.7247679808e+00 1.5731455272e+00 2.7247679808e+00 
12600 4.6528214094e+00 1.5223047708e-02 1.5726540517e+00 -2.7239167203e+00 1.5726540517e+00 2.7239167203e+00 
12700 4.6527761219e+00 1.4984178022e-02 1.5721700843e+00 -2.7230784641e+00 1.5721700843e+00 2.7230784641e+00 
12800 4.6527324151e+00 1.4747549804e-02 1.5716935639e+00 -2.7222531067e+00 1.5716935639e+00 2.7222531067e+00 
12900 4.6526902325e+00 1.4513258040e-02 1.5712244262e+00 -2.7214405362e+00 1.5712244262e+00 2.7214405362e+00 
13000 4.6526495194e+00 1.4281389514e-02 1.5707626033e+00 -2.7206406356e+00 1.5707626033e+00 2.7206406356e+00 
13100 4.6526102231e+00 1.4052023172e-02 1.5703080248e+00 -2.7198532824e+00 1.5703080248e+00 2.7198532824e+00 
13200 4.6525722925e+00 1.3825230476e-02 1.5698606171e+00 -2.7190783497e+00 1.5698606171e+00 2.7190783497e+00 
13300 4.6525356783e+00 1.3601075751e-02 1.5694203047e+00 -2.7183157061e+00 1.5694203047e+00 2.7183157061e+00 
13400 4.6525003327e+00 1.3379616523e-02 1.5689870093e+00 -2.7175652166e+00 1.5689870093e+00 2.7175652166e+00 
13500 4.6524662100e+00 1.3160903839e-02 1.5685606511e+00 -2.7168267425e+00 1.5685606511e+00 2.7168267425e+00 
13600 4.6524332655e+00 1.2944982596e-02 1.5681411481e+00 -2.7161001420e+00 1.5681411481e+00 2.7161001420e+00 
13700 4.6524014567e+00 1.2731891839e-02 1.5677284170e+00 -2.7153852707e+00 1.5677284170e+00 2.7153852707e+00 
13800 4.6523707421e+00 1.2521665065e-02 1.5673223727e+00 -2.7146819814e+00 1.5673223727e+00 2.7146819814e+00 
13900 4.6523410820e+00 1.2314330512e-02 1.5669229293e+00 -2.7139901251e+00 1.5669229293e+00 2.7139901251e+00 
14000 4.6523124381e+00 1.2109911438e-02 1.5665299994e+00 -2.7133095506e+00 1.5665299994e+00 2.7133095506e+00 
14100 4.6522847734e+00 1.1908426390e-02 1.5661434951e+00 -2.7126401054e+00 1.5661434951e+00 2.7126401054e+00 
14200 4.6522580523e+00 1.1709889468e-02 1.5657633273e+00 -2.7119816356e+00 1.5657633273e+00 2.7119816356e+00 
14300 4.6522322406e+00 1.1514310574e-02 1.5653894067e+00 -2.7113339861e+00 1.5653894067e+00 2.7113339861e+00 
14400 4.6522073052e+00 1.1321695654e-02 1.5650216433e+00 -2.7106970012e+00 1.5650216433e+00 2.7106970012e+00 
14500 4.6521832144e+00 1.1132046934e-02 1.5646599467e+00 -2.7100705243e+00 1.5646599467e+00 2.7100705243e+00 
14600 4.6521599376e+00 1.0945363143e-02 1.5643042265e+00 -2.7094543987e+00 1.5643042265e+00 2.7094543987e+00 
14700 4.6521374453e+00 1.0761639729e-02 1.5639543919e+00 -2.7088484674e+00 1.5639543919e+00 2.7088484674e+00 
14800 4.6521157094e+00 1.0580869065e-02 1.5636103523e+00 -2.7082525733e+00 1.5636103523e+00 2.7082525733e+00 
14900 4.6520947024e+00 1.0403040651e-02 1.5632720171e+00 -2.7076665596e+00 1.5632720171e+00 2.7076665596e+00 
15000 4.6520743983e+00 1.0228141301e-02 1.5629392960e+00 -2.7070902698e+00 1.5629392960e+00 2.7070902698e+00 
15100 4.6520547719e+00 1.0056155329e-02 1.5626120989e+00 -2.7065235478e+00 1.5626120989e+00 2.7065235478e+00 
15200 4.6520357988e+00 9.8870647211e-03 1.5622903360e+00 -2.7059662382e+00 1.5622903360e+00 2.7059662382e+00 
15300 4.6520174558e+00 9.7208493059e-03 1.5619739182e+00 -2.7054181864e+00 1.5619739182e+00 2.7054181864e+00 
15400 4.6519997205e+00 9.5574869116e-03 1.5616627566e+00 -2.7048792387e+00 1.5616627566e+00 2.7048792387e+00 
15500 4.6519825713e+00 9.3969535206e-03 1.5613567630e+00 -2.7043492423e+00 1.5613567630e+00 2.7043492423e+00 
15600 4.6519659875e+00 9.2392234146e-03 1.5610558500e+00 -2.7038280457e+00 1.5610558500e+00 2.7038280457e+00 
15700 4.6519499491e+00 9.0842693141e-03 1.5607599307e+00 -2.7033154984e+00 1.5607599307e+00 2.7033154984e+00 
15800 4.6519344370e+00 8.9320625108e-03 1.5604689190e+00 -2.7028114514e+00 1.5604689190e+00 2.7028114514e+00 
15900 4.6519194327e+00 8.7825729939e-03 1.5601827298e+00 -2.7023157570e+00 1.5601827298e+00 2.7023157570e+00 
16000 4.6519049185e+00 8.6357695701e-03 1.5599012785e+00 -2.7018282691e+00 1.5599012785e+00 2.7018282691e+00 
16100 4.6518908774e+00 8.4916199778e-03 1.5596244817e+00 -2.7013488429e+00 1.5596244817e+00 2.7013488429e+00 
16200 4.6518772929e+00 8.3500909958e-03 1.5593522567e+00 -2.7008773356e+00 1.5593522567e+00 2.7008773356e+00 
16300 4.6518641494e+00 8.2111485459e-03 1.5590845221e+00 -2.7004136056e+00 1.5590845221e+00 2.7004136056e+00 
16400 4.6518514315e+00 8.0747577907e-03 1.5588211971e+00 -2.6999575134e+00 1.5588211971e+00 2.6999575134e+00 
16500 4.6518391247e+00 7.9408832260e-03 1.5585622023e+00 -2.6995089211e+00 1.5585622023e+00 2.6995089211e+00 
16600 4.6518272149e+00 7.8094887685e-03 1.5583074589e+00 -2.6990676927e+00 1.5583074589e+00 2.6990676927e+00 
16700 4.6518156887e+00 7.6805378382e-03 1.5580568896e+00 -2.6986336940e+00 1.5580568896e+00 2.6986336940e+00 
16800 4.6518045329e+00 7.5539934370e-03 1.5578104181e+00 -2.6982067926e+00 1.5578104181e+00 2.6982067926e+00 
16900 4.6517937352e+00 7.4298182223e-03 1.5575679689e+00 -2.6977868583e+00 1.5575679689e+00 2.6977868583e+00 
17000 4.6517832834e+00 7.3079745764e-03 1.5573294679e+00 -2.6973737626e+00 1.5573294679e+00 2.6973737626e+00 
17100 4.6517731659e+00 7.1884246722e-03 1.5570948422e+00 -2.6969673789e+00 1.5570948422e+00 2.6969673789e+00 
17200 4.6517633715e+00 7.0711305347e-03 1.5568640198e+00 -2.6965675828e+00 1.5568640198e+00 2.6965675828e+00 
17300 4.6517538895e+00 6.9560540990e-03 1.5566369300e+00 -2.6961742517e+00 1.5566369300e+00 2.6961742517e+00 
17400 4.6517447096e+00 6.8431572644e-03 1.5564135032e+00 -2.6957872652e+00 1.5564135032e+00 2.6957872652e+00 
17500 4.6517358216e+00 6.7324019453e-03 1.5561936710e+00 -2.6954065046e+00 1.5561936710e+00 2.6954065046e+00 
17600 4.6517272160e+00 6.6237501187e-03 1.5559773661e+00 -2.6950318536e+00 1.5559773661e+00 2.6950318536e+00 
17700 4.6517188835e+00 6.5171638688e-03 1.5557645225e+00 -2.6946631975e+00 1.5557645225e+00 2.6946631975e+00 
17800 4.6517108151e+00 6.4126054282e-03 1.5555550750e+00 -2.6943004239e+00 1.5555550750e+00 2.6943004239e+00 
17900 4.6517030023e+00 6.3100372167e-03 1.5553489601e+00 -2.6939434223e+00 1.5553489601e+00 2.6939434223e+00 
18000 4.6516954367e+00 6.2094218769e-03 1.5551461149e+00 -2.6935920842e+00 1.5551461149e+00 2.6935920842e+00 
18100 4.6516881103e+00 6.1107223074e-03 1.5549464781e+00 -2.6932463031e+00 1.5549464781e+00 2.6932463031e+00 
18200 4.6516810153e+00 6.0139016938e-03 1.5547499892e+00 -2.6929059743e+00 1.5547499892e+00 2.6929059743e+00 
18300 4.6516741443e+00 5.9189235367e-03 1.5545565891e+00 -2.6925709955e+00 1.5545565891e+00 2.6925709955e+00 
18400 4.6516674901e+00 5.8257516777e-03 1.5543662196e+00 -2.6922412659e+00 1.5543662196e+00 2.6922412659e+00 
18500 4.6516610458e+00 5.7343503237e-03 1.5541788238e+00 -2.6919166868e+00 1.5541788238e+00 2.6919166868e+00 
18600 4.6516548045e+00 5.6446840686e-03 1.5539943457e+00 -2.6915971615e+00 1.5539943457e+00 2.6915971615e+00 
18700 4.6516487599e+00 5.5567179132e-03 1.5538127307e+00 -2.6912825951e+00 1.5538127307e+00 2.6912825951e+00 
18800 4.6516429056e+00 5.4704172831e-03 1.5536339250e+00 -2.6909728945e+00 1.5536339250e+00 2.6909728945e+00 
18900 4.6516372356e+00 5.3857480454e-03 1.5534578760e+00 -2.6906679687e+00 1.5534578760e+00 2.6906679687e+00 
19000 4.6516317442e+00 5.3026765229e-03 1.5532845322e+00 -2.6903677283e+00 1.5532845322e+00 2.6903677283e+00 
19100 4.6516264256e+00 5.2211695077e-03 1.5531138429e+00 -2.6900720859e+00 1.5531138429e+00 2.6900720859e+00 
19200 4.6516212743e+00 5.1411942723e-03 1.5529457588e+00 -2.6897809556e+00 1.5529457588e+00 2.6897809556e+00 
19300 4.6516162852e+00 5.0627185803e-03 1.5527802313e+00 -2.6894942537e+00 1.5527802313e+00 2.6894942537e+00 
19400 4.6516114531e+00 4.9857106946e-03 1.5526172131e+00 -2.6892118978e+00 1.5526172131e+00 2.6892118978e+00 
19500 4.6516067731e+00 4.9101393856e-03 1.5524566576e+00 -2.6889338075e+00 1.5524566576e+00 2.6889338075e+00 
19600 4.6516022404e+00 4.8359739370e-03 1.5522985193e+00 -2.6886599040e+00 1.5522985193e+00 2.6886599040e+00 
19700 4.6515978505e+00 4.7631841518e-03 1.5521427538e+00 -2.6883901101e+00 1.5521427538e+00 2.6883901101e+00 
19800 4.6515935987e+00 4.6917403559e-03 1.5519893173e+00 -2.6881243504e+00 1.5519893173e+00 2.6881243504e+00 
19900 4.6515894810e+00 4.6216134015e-03 1.5518381673e+00 -2.6878625509e+00 1.5518381673e+00 2.6878625509e+00 
20000 4.6515854930e+00 4.5527746695e-03 1.5516892620e+00 -2.6876046393e+00 1.5516892620e+00 2.6876046393e+00 
20100 4.6515816308e+00 4.4851960709e-03 1.5515425605e+00 -2.6873505448e+00 1.5515425605e+00 2.6873505448e+00 
20200 4.6515778903e+00 4.4188500473e-03 1.5513980228e+00 -2.6871001983e+00 1.5513980228e+00 2.6871001983e+00 
20300 4.6515742680e+00 4.3537095708e-03 1.5512556099e+00 -2.6868535319e+00 1.5512556099e+00 2.6868535319e+00 
20400 4.6515707600e+00 4.2897481432e-03 1.5511152834e+00 -2.6866104793e+00 1.5511152834e+00 2.6866104793e+00 
20500 4.6515673629e+00 4.2269397944e-03 1.5509770060e+00 -2.6863709758e+00 1.5509770060e+00 2.6863709758e+00 
20600 4.6515640731e+00 4.1652590799e-03 1.5508407410e+00 -2.6861349579e+00 1.5508407410e+00 2.6861349579e+00 
20700 4.6515608875e+00 4.1046810787e-03 1.5507064526e+00 -2.6859023635e+00 1.5507064526e+00 2.6859023635e+00 
20800 4.6515578027e+00 4.0451813895e-03 1.5505741057e+00 -2.6856731320e+00 1.5505741057e+00 2.6856731320e+00 
20900 4.6515548157e+00 3.9867361271e-03 1.5504436662e+00 -2.6854472041e+00 1.5504436662e+00 2.6854472041e+00 
21000 4.6515519234e+00 3.9293219180e-03 1.5503151003e+00 -2.6852245215e+00 1.5503151003e+00 2.6852245215e+00 
21100 4.6515491229e+00 3.8729158962e-03 1.5501883755e+00 -2.6850050277e+00 1.5501883755e+00 2.6850050277e+00 
21200 4.6515464114e+00 3.8174956975e-03 1.5500634596e+00 -2.6847886670e+00 1.5500634596e+00 2.6847886670e+00 
21300 4.6515437861e+00 3.7630394545e-03 1.5499403213e+00 -2.6845753851e+00 1.5499403213e+00 2.6845753851e+00 
21400 4.6515412444e+00 3.7095257908e-03 1.5498189298e+00 -2.6843651289e+00 1.5498189298e+00 2.6843651289e+00 
21500 4.6515387836e+00 3.6569338149e-03 1.5496992552e+00 -2.6841578465e+00 1.5496992552e+00 2.6841578465e+00 
21600 4.6515364014e+00 3.6052431140e-03 1.5495812682e+00 -2.6839534870e+00 1.5495812682e+00 2.6839534870e+00 
21700 4.6515340952e+00 3.5544337474e-03 1.5494649401e+00 -2.6837520008e+00 1.5494649401e+00 2.6837520008e+00 
21800 4.6515318627e+00 3.5044862396e-03 1.5493502428e+00 -2.6835533392e+00 1.5493502428e+00 2.6835533392e+00 
21900 4.6515297017e+00 3.4553815737e-03 1.5492371488e+00 -2.6833574547e+00 1.5492371488e+00 2.6833574547e+00 
22000 4.6515276099e+00 3.4071011839e-03 1.5491256313e+00 -2.6831643007e+00 1.5491256313e+00 2.6831643007e+00 
22100 4.6515255853e+00 3.3596269485e-03 1.5490156641e+00 -2.6829738319e+00 1.5490156641e+00 2.6829738319e+00 
22200 4.6515236257e+00 3.3129411825e-03 1.5489072214e+00 -2.6827860037e+00 1.5489072214e+00 2.6827860037e+00 
22300 4.6515217291e+00 3.2670266299e-03 1.5488002782e+00 -2.6826007726e+00 1.5488002782e+00 2.6826007726e+00 
22400 4.6515198936e+00 3.2218664561e-03 1.5486948098e+00 -2.6824180960e+00 1.5486948098e+00 2.6824180960e+00 
22500 4.6515181173e+00 3.1774442408e-03 1.5485907922e+00 -2.6822379322e+00 1.5485907922e+00 2.6822379322e+00 
22600 4.6515163983e+00 3.1337439693e-03 1.5484882019e+00 -2.6820602405e+00 1.5484882019e+00 2.6820602405e+00 
22700 4.6515147350e+00 3.0907500256e-03 1.5483870157e+00 -2.6818849811e+00 1.5483870157e+00 2.6818849811e+00 
22800 4.6515131255e+00 3.0484471840e-03 1.5482872113e+00 -2.6817121148e+00 1.5482872113e+00 2.6817121148e+00 
22900 4.6515115682e+00 3.0068206018e-03 1.5481887666e+00 -2.6815416035e+00 1.5481887666e+00 2.6815416035e+00 
23000 4.6515100616e+00 2.9658558110e-03 1.5480916599e+00 -2.6813734098e+00 1.5480916599e+00 2.6813734098e+00 
23100 4.6515086039e+00 2.9255387108e-03 1.5479958702e+00 -2.6812074971e+00 1.5479958702e+00 2.6812074971e+00 
23200 4.6515071938e+00 2.8858555596e-03 1.5479013768e+00 -2.6810438297e+00 1.5479013768e+00 2.6810438297e+00 
23300 4.6515058297e+00 2.8467929674e-03 1.5478081594e+00 -2.6808823724e+00 1.5478081594e+00 2.6808823724e+00 
23400 4.6515045102e+00 2.8083378878e-03 1.5477161982e+00 -2.6807230910e+00 1.5477161982e+00 2.6807230910e+00 
23500 4.6515032340e+00 2.7704776108e-03 1.5476254739e+00 -2.6805659519e+00 1.5476254739e+00 2.6805659519e+00 
23600 4.6515019996e+00 2.7331997545e-03 1.5475359674e+00 -2.6804109220e+00 1.5475359674e+00 2.6804109220e+00 
23700 4.6515008058e+00 2.6964922582e-03 1.5474476601e+00 -2.6802579694e+00 1.5474476601e+00 2.6802579694e+00 
23800 4.6514996513e+00 2.6603433743e-03 1.5473605338e+00 -2.6801070622e+00 1.5473605338e+00 2.6801070622e+00 
23900 4.6514985349e+00 2.6247416612e-03 1.5472745707e+00 -2.6799581697e+00 1.5472745707e+00 2.6799581697e+00 
24000 4.6514974555e+00 2.5896759761e-03 1.5471897533e+00 -2.6798112616e+00 1.5471897533e+00 2.6798112616e+00 
24100 4.6514964117e+00 2.5551354671e-03 1.5471060643e+00 -2.6796663081e+00 1.5471060643e+00 2.6796663081e+00 
24200 4.6514954027e+00 2.5211095666e-03 1.5470234872e+00 -2.6795232803e+00 1.5470234872e+00 2.6795232803e+00 
24300 4.6514944271e+00 2.4875879842e-03 1.5469420053e+00 -2.6793821496e+00 1.5469420053e+00 2.6793821496e+00 
24400 4.6514934841e+00 2.4545606992e-03 1.5468616026e+00 -2.6792428880e+00 1.5468616026e+00 2.6792428880e+00 
24500 4.6514925726e+00 2.4220179544e-03 1.5467822633e+00 -2.6791054682e+00 1.5467822633e+00 2.6791054682e+00 
24600 4.6514916916e+00 2.3899502486e-03 1.5467039718e+00 -2.6789698634e+00 1.5467039718e+00 2.6789698634e+00 
24700 4.6514908401e+00 2.3583483306e-03 1.5466267130e+00 -2.6788360472e+00 1.5466267130e+00 2.6788360472e+00 
24800 4.6514900173e+00 2.3272031922e-03 1.5465504719e+00 -2.6787039938e+00 1.5465504719e+00 2.6787039938e+00 
24900 4.6514892222e+00 2.2965060617e-03 1.5464752340e+00 -2.6785736779e+00 1.5464752340e+00 2.6785736779e+00 
25000 4.6514884540e+00 2.2662483979e-03 1.5464009849e+00 -2.6784450747e+00 1.5464009849e+00 2.6784450747e+00 
25100 4.6514877118e+00 2.2364218836e-03 1.5463277106e+00 -2.6783181598e+00 1.5463277106e+00 2.6783181598e+00 
25200 4.6514869947e+00 2.2070184197e-03 1.5462553972e+00 -2.6781929094e+00 1.5462553972e+00 2.6781929094e+00 
25300 4.6514863021e+00 2.1780301189e-03 1.5461840311e+00 -2.6780692998e+00 1.5461840311e+00 2.6780692998e+00 
25400 4.6514856331e+00 2.1494493002e-03 1.5461135992e+00 -2.6779473082e+00 1.5461135992e+00 2.6779473082e+00 
25500 4.6514849870e+00 2.1212684826e-03 1.5460440884e+00 -2.6778269119e+00 1.5460440884e+00 2.6778269119e+00 
25600 4.6514843630e+00 2.0934803803e-03 1.5459754858e+00 -2.6777080887e+00 1.5459754858e+00 2.6777080887e+00 
25700 4.6514837605e+00 2.0660778962e-03 1.5459077789e+00 -2.6775908168e+00 1.5459077789e+00 2.6775908168e+00 
25800 4.6514831788e+00 2.0390541173e-03 1.5458409553e+00 -2.6774750749e+00 1.5458409553e+00 2.6774750749e+00 
25900 4.6514826172e+00 2.0124023090e-03 1.5457750028e+00 -2.6773608420e+00 1.5457750028e+00 2.6773608420e+00 
26000 4.6514820751e+00 1.9861159102e-03 1.5457099096e+00 -2.6772480973e+00 1.5457099096e+00 2.6772480973e+00 
26100 4.6514815519e+00 1.9601885277e-03 1.5456456640e+00 -2.6771368206e+00 1.5456456640e+00 2.6771368206e+00 
26200 4.6514810469e+00 1.9346139322e-03 1.5455822544e+00 -2.6770269919e+00 1.5455822544e+00 2.6770269919e+00 
26300 4.6514805596e+00 1.9093860525e-03 1.5455196696e+00 -2.6769185918e+00 1.5455196696e+00 2.6769185918e+00 
26400 4.6514800894e+00 1.8844989716e-03 1.5454578983e+00 -2.6768116009e+00 1.5454578983e+00 2.6768116009e+00 
26500 4.6514796358e+00 1.8599469217e-03 1.5453969298e+00 -2.6767060002e+00 1.5453969298e+00 2.6767060002e+00 
26600 4.6514791983e+00 1.8357242796e-03 1.5453367532e+00 -2.6766017713e+00 1.5453367532e+00 2.6766017713e+00 
26700 4.6514787763e+00 1.8118255631e-03 1.5452773579e+00 -2.6764988957e+00 1.5452773579e+00 2.6764988957e+00 
26800 4.6514783693e+00 1.7882454256e-03 1.5452187337e+00 -2.6763973556e+00 1.5452187337e+00 2.6763973556e+00 
26900 4.6514779768e+00 1.7649786532e-03 1.5451608702e+00 -2.6762971331e+00 1.5451608702e+00 2.6762971331e+00 
27000 4.6514775984e+00 1.7420201596e-03 1.5451037575e+00 -2.6761982109e+00 1.5451037575e+00 2.6761982109e+00 
27100 4.6514772337e+00 1.7193649830e-03 1.5450473856e+00 -2.6761005719e+00 1.5450473856e+00 2.6761005719e+00 
27200 4.6514768821e+00 1.6970082819e-03 1.5449917447e+00 -2.6760041991e+00 1.5449917447e+00 2.6760041991e+00 
27300 4.6514765434e+00 1.6749453313e-03 1.5449368254e+00 -2.6759090761e+00 1.5449368254e+00 2.6759090761e+00 
27400 4.6514762169e+00 1.6531715194e-03 1.5448826181e+00 -2.6758151863e+00 1.5448826181e+00 2.6758151863e+00 
27500 4.6514759024e+00 1.6316823440e-03 1.5448291137e+00 -2.6757225139e+00 1.5448291137e+00 2.6757225139e+00 
27600 4.6514755995e+00 1.6104734088e-03 1.5447763029e+00 -2.6756310429e+00 1.5447763029e+00 2.6756310429e+00 
27700 4.6514753078e+00 1.5895404207e-03 1.5447241768e+00 -2.6755407578e+00 1.5447241768e+00 2.6755407578e+00 
27800 4.6514750269e+00 1.5688791860e-03 1.5446727264e+00 -2.6754516432e+00 1.5446727264e+00 2.6754516432e+00 
27900 4.6514747564e+00 1.5484856075e-03 1.5446219432e+00 -2.6753636840e+00 1.5446219432e+00 2.6753636840e+00 
28000 4.6514744961e+00 1.5283556817e-03 1.5445718184e+00 -2.6752768653e+00 1.5445718184e+00 2.6752768653e+00 
28100 4.6514742456e+00 1.5084854954e-03 1.5445223436e+00 -2.6751911725e+00 1.5445223436e+00 2.6751911725e+00 
28200 4.6514740046e+00 1.4888712234e-03 1.5444735104e+00 -2.6751065910e+00 1.5444735104e+00 2.6751065910e+00 
28300 4.6514737727e+00 1.4695091252e-03 1.5444253107e+00 -2.6750231066e+00 1.5444253107e+00 2.6750231066e+00 
28400 4.6514735497e+00 1.4503955426e-03 1.5443777363e+00 -2.6749407054e+00 1.5443777363e+00 2.6749407054e+00 
28500 4.6514733353e+00 1.4315268974e-03 1.5443307793e+00 -2.6748593734e+00 1.5443307793e+00 2.6748593734e+00 
28600 4.6514731292e+00 1.4128996882e-03 1.5442844317e+00 -2.6747790971e+00 1.5442844317e+00 2.6747790971e+00 
28700 4.6514729311e+00 1.3945104886e-03 1.5442386858e+00 -2.6746998629e+00 1.5442386858e+00 2.6746998629e+00 
28800 4.6514727407e+00 1.3763559444e-03 1.5441935340e+00 -2.6746216576e+00 1.5441935340e+00 2.6746216576e+00 
28900 4.6514725578e+00 1.3584327715e-03 1.5441489687e+00 -2.6745444683e+00 1.5441489687e+00 2.6745444683e+00 
29000 4.6514723822e+00 1.3407377540e-03 1.5441049825e+00 -2.6744682819e+00 1.5441049825e+00 2.6744682819e+00 
29100 4.6514722136e+00 1.3232677414e-03 1.5440615679e+00 -2.6743930857e+00 1.5440615679e+00 2.6743930857e+00 
29200 4.6514720518e+00 1.3060196471e-03 1.5440187179e+00 -2.6743188673e+00 1.5440187179e+00 2.6743188673e+00 
29300 4.6514718965e+00 1.2889904462e-03 1.5439764252e+00 -2.6742456142e+00 1.5439764252e+00 2.6742456142e+00 
29400 4.6514717475e+00 1.2721771734e-03 1.5439346829e+00 -2.6741733143e+00 1.5439346829e+00 2.6741733143e+00 
29500 4.6514716046e+00 1.2555769217e-03 1.5438934839e+00 -2.6741019555e+00 1.5438934839e+00 2.6741019555e+00 
29600 4.6514714677e+00 1.2391868396e-03 1.5438528214e+00 -2.6740315260e+00 1.5438528214e+00 2.6740315260e+00 
29700 4.6514713364e+00 1.2230041306e-03 1.5438126886e+00 -2.6739620140e+00 1.5438126886e+00 2.6739620140e+00 
29800 4.6514712107e+00 1.2070260504e-03 1.5437730789e+00 -2.6738934080e+00 1.5437730789e+00 2.6738934080e+00 
29900 4.6514710903e+00 1.1912499061e-03 1.5437339857e+00 -2.6738256966e+00 1.5437339857e+00 2.6738256966e+00 
30000 4.6514709750e+00 1.1756730540e-03 1.5436954025e+00 -2.6737588685e+00 1.5436954025e+00 2.6737588685e+00 
30100 4.6514708647e+00 1.1602928985e-03 1.5436573228e+00 -2.6736929126e+00 1.5436573228e+00 2.6736929126e+00 
30200 4.6514707592e+00 1.1451068905e-03 1.5436197404e+00 -2.6736278179e+00 1.5436197404e+00 2.6736278179e+00 
30300 4.6514706583e+00 1.1301125261e-03 1.5435826489e+00 -2.6735635736e+00 1.5435826489e+00 2.6735635736e+00 
30400 4.6514705620e+00 1.1153073450e-03 1.5435460422e+00 -2.6735001690e+00 1.5435460422e+00 2.6735001690e+00 
30500 4.6514704699e+00 1.1006889295e-03 1.5435099143e+00 -2.6734375935e+00 1.5435099143e+00 2.6734375935e+00 
30600 4.6514703820e+00 1.0862549028e-03 1.5434742590e+00 -2.6733758368e+00 1.5434742590e+00 2.6733758368e+00 
30700 4.6514702981e+00 1.0720029284e-03 1.5434390705e+00 -2.6733148886e+00 1.5434390705e+00 2.6733148886e+00 
30800 4.6514702181e+00 1.0579307082e-03 1.5434043429e+00 -2.6732547386e+00 1.5434043429e+00 2.6732547386e+00 
30900 4.6514701419e+00 1.0440359822e-03 1.5433700704e+00 -2.6731953769e+00 1.5433700704e+00 2.6731953769e+00 
31000 4.6514700693e+00 1.0303165265e-03 1.5433362473e+00 -2.6731367935e+00 1.5433362473e+00 2.6731367935e+00 
31100 4.6514700002e+00 1.0167701531e-03 1.5433028679e+00 -2.6730789787e+00 1.5433028679e+00 2.6730789787e+00 
31200 4.6514699344e+00 1.0033947083e-03 1.5432699266e+00 -2.6730219227e+00 1.5432699266e+00 2.6730219227e+00 
31300 4.6514698719e+00 9.9018807191e-04 1.5432374180e+00 -2.6729656162e+00 1.5432374180e+00 2.6729656162e+00 
31400 4.6514698126e+00 9.7714815643e-04 1.5432053366e+00 -2.6729100495e+00 1.5432053366e+00 2.6729100495e+00 
31500 4.6514697562e+00 9.6427290602e-04 1.5431736770e+00 -2.6728552135e+00 1.5431736770e+00 2.6728552135e+00 
31600 4.6514697028e+00 9.5156029566e-04 1.5431424340e+00 -2.6728010990e+00 1.5431424340e+00 2.6728010990e+00 
31700 4.6514696522e+00 9.3900833036e-04 1.5431116022e+00 -2.6727476967e+00 1.5431116022e+00 2.6727476967e+00 
31800 4.6514696042e+00 9.2661504427e-04 1.5430811765e+00 -2.6726949978e+00 1.5430811765e+00 2.6726949978e+00 
31900 4.6514695589e+00 9.1437850000e-04 1.5430511517e+00 -2.6726429935e+00 1.5430511517e+00 2.6726429935e+00 
32000 4.6514695161e+00 9.0229678783e-04 1.5430215229e+00 -2.6725916749e+00 1.5430215229e+00 2.6725916749e+00 
32100 4.6514694758e+00 8.9036802500e-04 1.5429922850e+00 -2.6725410333e+00 1.5429922850e+00 2.6725410333e+00 
32200 4.6514694377e+00 8.7859035503e-04 1.5429634331e+00 -2.6724910604e+00 1.5429634331e+00 2.6724910604e+00 
32300 4.6514694020e+00 8.6696194706e-04 1.5429349623e+00 -2.6724417475e+00 1.5429349623e+00 2.6724417475e+00 
32400 4.6514693683e+00 8.5548099522e-04 1.5429068678e+00 -2.6723930865e+00 1.5429068678e+00 2.6723930865e+00 
32500 4.6514693368e+00 8.4414571802e-04 1.5428791449e+00 -2.6723450689e+00 1.5428791449e+00 2.6723450689e+00 
32600 4.6514693073e+00 8.3295435775e-04 1.5428517888e+00 -2.6722976867e+00 1.5428517888e+00 2.6722976867e+00 
32700 4.6514692797e+00 8.2190517994e-04 1.5428247949e+00 -2.6722509319e+00 1.5428247949e+00 2.6722509319e+00 
32800 4.6514692539e+00 8.1099647279e-04 1.5427981586e+00 -2.6722047965e+00 1.5427981586e+00 2.6722047965e+00 
32900 4.6514692300e+00 8.0022654669e-04 1.5427718754e+00 -2.6721592726e+00 1.5427718754e+00 2.6721592726e+00 
33000 4.6514692077e+00 7.8959373369e-04 1.5427459407e+00 -2.6721143525e+00 1.5427459407e+00 2.6721143525e+00 
33100 4.6514691872e+00 7.7909638701e-04 1.5427203503e+00 -2.6720700286e+00 1.5427203503e+00 2.6720700286e+00 
33200 4.6514691682e+00 7.6873288063e-04 1.5426950996e+00 -2.6720262931e+00 1.5426950996e+00 2.6720262931e+00 
33300 4.6514691507e+00 7.5850160880e-04 1.5426701844e+00 -2.6719831388e+00 1.5426701844e+00 2.6719831388e+00 
33400 4.6514691347e+00 7.4840098561e-04 1.5426456004e+00 -2.6719405580e+00 1.5426456004e+00 2.6719405580e+00 
33500 4.6514691201e+00 7.3842944463e-04 1.5426213434e+00 -2.6718985437e+00 1.5426213434e+00 2.6718985437e+00 
33600 4.6514691069e+00 7.2858543847e-04 1.5425974093e+00 -2.6718570885e+00 1.5425974093e+00 2.6718570885e+00 
33700 4.6514690949e+00 7.1886743841e-04 1.5425737938e+00 -2.6718161853e+00 1.5425737938e+00 2.6718161853e+00 
33800 4.6514690843e+00 7.0927393407e-04 1.5425504929e+00 -2.6717758270e+00 1.5425504929e+00 2.6717758270e+00 
33900 4.6514690748e+00 6.9980343302e-04 1.5425275027e+00 -2.6717360067e+00 1.5425275027e+00 2.6717360067e+00 
34000 4.6514690664e+00 6.9045446045e-04 1.5425048191e+00 -2.6716967176e+00 1.5425048191e+00 2.6716967176e+00 
34100 4.6514690592e+00 6.8122555889e-04 1.5424824382e+00 -2.6716579527e+00 1.5424824382e+00 2.6716579527e+00 
34200 4.6514690530e+00 6.7211528784e-04 1.5424603561e+00 -2.6716197055e+00 1.5424603561e+00 2.6716197055e+00 
34300 4.6514690478e+00 6.6312222350e-04 1.5424385691e+00 -2.6715819692e+00 1.5424385691e+00 2.6715819692e+00 
34400 4.6514690436e+00 6.5424495851e-04 1.5424170732e+00 -2.6715447373e+00 1.5424170732e+00 2.6715447373e+00 
34500 4.6514690403e+00 6.4548210161e-04 1.5423958648e+00 -2.6715080033e+00 1.5423958648e+00 2.6715080033e+00 
34600 4.6514690379e+00 6.3683227744e-04 1.5423749402e+00 -2.6714717608e+00 1.5423749402e+00 2.6714717608e+00 
34700 4.6514690364e+00 6.2829412623e-04 1.5423542957e+00 -2.6714360035e+00 1.5423542957e+00 2.6714360035e+00 
34800 4.6514690357e+00 6.1986630361e-04 1.5423339277e+00 -2.6714007251e+00 1.5423339277e+00 2.6714007251e+00 
34900 4.6514690357e+00 6.1154748030e-04 1.5423138327e+00 -2.6713659195e+00 1.5423138327e+00 2.6713659195e+00 
35000 4.6514690365e+00 6.0333634194e-04 1.5422940071e+00 -2.6713315805e+00 1.5422940071e+00 2.6713315805e+00 
35100 4.6514690380e+00 5.9523158887e-04 1.5422744474e+00 -2.6712977022e+00 1.5422744474e+00 2.6712977022e+00 
35200 4.6514690402e+00 5.8723193587e-04 1.5422551503e+00 -2.6712642785e+00 1.5422551503e+00 2.6712642785e+00 
35300 4.6514690431e+00 5.7933611200e-04 1.5422361122e+00 -2.6712313037e+00 1.5422361122e+00 2.6712313037e+00 
35400 4.6514690465e+00 5.7154286037e-04 1.5422173299e+00 -2.6711987718e+00 1.5422173299e+00 2.6711987718e+00 
35500 4.6514690505e+00 5.6385093798e-04 1.5421988001e+00 -2.6711666771e+00 1.5421988001e+00 2.6711666771e+00 
35600 4.6514690551e+00 5.5625911550e-04 1.5421805193e+00 -2.6711350140e+00 1.5421805193e+00 2.6711350140e+00 
35700 4.6514690602e+00 5.4876617712e-04 1.5421624846e+00 -2.6711037768e+00 1.5421624846e+00 2.6711037768e+00 
35800 4.6514690659e+00 5.4137092039e-04 1.5421446925e+00 -2.6710729600e+00 1.5421446925e+00 2.6710729600e+00 
35900 4.6514690720e+00 5.3407215598e-04 1.5421271400e+00 -2.6710425582e+00 1.5421271400e+00 2.6710425582e+00 
36000 4.6514690785e+00 5.2686870760e-04 1.5421098239e+00 -2.6710125659e+00 1.5421098239e+00 2.6710125659e+00 
36100 4.6514690855e+00 5.1975941182e-04 1.5420927412e+00 -2.6709829778e+00 1.5420927412e+00 2.6709829778e+00 
36200 4.6514690930e+00 5.1274311788e-04 1.5420758889e+00 -2.6709537887e+00 1.5420758889e+00 2.6709537887e+00 
36300 4.6514691008e+00 5.0581868759e-04 1.5420592638e+00 -2.6709249932e+00 1.5420592638e+00 2.6709249932e+00 
36400 4.6514691089e+00 4.9898499515e-04 1.5420428631e+00 -2.6708965863e+00 1.5420428631e+00 2.6708965863e+00 
36500 4.6514691174e+00 4.9224092706e-04 1.5420266838e+00 -2.6708685629e+00 1.5420266838e+00 2.6708685629e+00 
36600 4.6514691263e+00 4.8558538192e-04 1.5420107229e+00 -2.6708409180e+00 1.5420107229e+00 2.6708409180e+00 
36700 4.6514691355e+00 4.7901727035e-04 1.5419949778e+00 -2.6708136465e+00 1.5419949778e+00 2.6708136465e+00 
36800 4.6514691449e+00 4.7253551483e-04 1.5419794454e+00 -2.6707867437e+00 1.5419794454e+00 2.6707867437e+00 
36900 4.6514691546e+00 4.6613904960e-04 1.5419641231e+00 -2.6707602046e+00 1.5419641231e+00 2.6707602046e+00 
37000 4.6514691646e+00 4.5982682053e-04 1.5419490080e+00 -2.6707340245e+00 1.5419490080e+00 2.6707340245e+00 
37100 4.6514691748e+00 4.5359778496e-04 1.5419340974e+00 -2.6707081987e+00 1.5419340974e+00 2.6707081987e+00 
37200 4.6514691853e+00 4.4745091168e-04 1.5419193887e+00 -2.6706827225e+00 1.5419193887e+00 2.6706827225e+00 
37300 4.6514691959e+00 4.4138518070e-04 1.5419048792e+00 -2.6706575912e+00 1.5419048792e+00 2.6706575912e+00 
37400 4.6514692068e+00 4.3539958324e-04 1.5418905663e+00 -2.6706328005e+00 1.5418905663e+00 2.6706328005e+00 
37500 4.6514692178e+00 4.2949312155e-04 1.5418764473e+00 -2.6706083456e+00 1.5418764473e+00 2.6706083456e+00 
37600 4.6514692290e+00 4.2366480884e-04 1.5418625197e+00 -2.6705842224e+00 1.5418625197e+00 2.6705842224e+00 
37700 4.6514692404e+00 4.1791366917e-04 1.5418487810e+00 -2.6705604262e+00 1.5418487810e+00 2.6705604262e+00 
37800 4.6514692519e+00 4.1223873735e-04 1.5418352286e+00 -2.6705369529e+00 1.5418352286e+00 2.6705369529e+00 
37900 4.6514692636e+00 4.0663905880e-04 1.5418218602e+00 -2.6705137981e+00 1.5418218602e+00 2.6705137981e+00 
38000 4.6514692753e+00 4.0111368953e-04 1.5418086732e+00 -2.6704909576e+00 1.5418086732e+00 2.6704909576e+00 
38100 4.6514692872e+00 3.9566169597e-04 1.5417956654e+00 -2.6704684273e+00 1.5417956654e+00 2.6704684273e+00 
38200 4.6514692992e+00 3.9028215491e-04 1.5417828342e+00 -2.6704462031e+00 1.5417828342e+00 2.6704462031e+00 
38300 4.6514693113e+00 3.8497415340e-04 1.5417701774e+00 -2.6704242808e+00 1.5417701774e+00 2.6704242808e+00 
38400 4.6514693234e+00 3.7973678864e-04 1.5417576926e+00 -2.6704026565e+00 1.5417576926e+00 2.6704026565e+00 
38500 4.6514693356e+00 3.7456916792e-04 1.5417453775e+00 -2.6703813262e+00 1.5417453775e+00 2.6703813262e+00 
38600 4.6514693479e+00 3.6947040852e-04 1.5417332300e+00 -2.6703602860e+00 1.5417332300e+00 2.6703602860e+00 
38700 4.6514693603e+00 3.6443963758e-04 1.5417212477e+00 -2.6703395321e+00 1.5417212477e+00 2.6703395321e+00 
38800 4.6514693727e+00 3.5947599207e-04 1.5417094284e+00 -2.6703190606e+00 1.5417094284e+00 2.6703190606e+00 
38900 4.6514693851e+00 3.5457861869e-04 1.5416977701e+00 -2.6702988677e+00 1.5416977701e+00 2.6702988677e+00 
39000 4.6514693975e+00 3.4974667375e-04 1.5416862705e+00 -2.6702789498e+00 1.5416862705e+00 2.6702789498e+00 
39100 4.6514694100e+00 3.4497932311e-04 1.5416749275e+00 -2.6702593032e+00 1.5416749275e+00 2.6702593032e+00 
39200 4.6514694225e+00 3.4027574210e-04 1.5416637391e+00 -2.6702399243e+00 1.5416637391e+00 2.6702399243e+00 
39300 4.6514694350e+00 3.3563511544e-04 1.5416527031e+00 -2.6702208094e+00 1.5416527031e+00 2.6702208094e+00 
39400 4.6514694475e+00 3.3105663712e-04 1.5416418176e+00 -2.6702019551e+00 1.5416418176e+00 2.6702019551e+00 
39500 4.6514694600e+00 3.2653951037e-04 1.5416310804e+00 -2.6701833578e+00 1.5416310804e+00 2.6701833578e+00 
39600 4.6514694725e+00 3.2208294754e-04 1.5416204897e+00 -2.6701650142e+00 1.5416204897e+00 2.6701650142e+00 
39700 4.6514694850e+00 3.1768617003e-04 1.5416100435e+00 -2.6701469208e+00 1.5416100435e+00 2.6701469208e+00 
39800 4.6514694975e+00 3.1334840822e-04 1.5415997398e+00 -2.6701290742e+00 1.5415997398e+00 2.6701290742e+00 
39900 4.6514695099e+00 3.0906890138e-04 1.5415895767e+00 -2.6701114713e+00 1.5415895767e+00 2.6701114713e+00 
40000 4.6514695223e+00 3.0484689760e-04 1.5415795524e+00 -2.6700941086e+00 1.5415795524e+00 2.6700941086e+00 
40100 4.6514695347e+00 3.0068165368e-04 1.5415696649e+00 -2.6700769830e+00 1.5415696649e+00 2.6700769830e+00 
40200 4.6514695470e+00 2.9657243510e-04 1.5415599124e+00 -2.6700600913e+00 1.5415599124e+00 2.6700600913e+00 
40300 4.6514695593e+00 2.9251851593e-04 1.5415502932e+00 -2.6700434303e+00 1.5415502932e+00 2.6700434303e+00 
40400 4.6514695716e+00 2.8851917870e-04 1.5415408054e+00 -2.6700269969e+00 1.5415408054e+00 2.6700269969e+00 
40500 4.6514695838e+00 2.8457371441e-04 1.5415314473e+00 -2.6700107882e+00 1.5415314473e+00 2.6700107882e+00 
40600 4.6514695960e+00 2.8068142238e-04 1.5415222171e+00 -2.6699948010e+00 1.5415222171e+00 2.6699948010e+00 
40700 4.6514696081e+00 2.7684161021e-04 1.5415131130e+00 -2.6699790323e+00 1.5415131130e+00 2.6699790323e+00 
40800 4.6514696201e+00 2.7305359371e-04 1.5415041335e+00 -2.6699634793e+00 1.5415041335e+00 2.6699634793e+00 
40900 4.6514696321e+00 2.6931669679e-04 1.5414952768e+00 -2.6699481390e+00 1.5414952768e+00 2.6699481390e+00 
41000 4.6514696440e+00 2.6563025143e-04 1.5414865412e+00 -2.6699330086e+00 1.5414865412e+00 2.6699330086e+00 
41100 4.6514696559e+00 2.6199359756e-04 1.5414779252e+00 -2.6699180852e+00 1.5414779252e+00 2.6699180852e+00 
41200 4.6514696676e+00 2.5840608303e-04 1.5414694271e+00 -2.6699033660e+00 1.5414694271e+00 2.6699033660e+00 
41300 4.6514696793e+00 2.5486706349e-04 1.5414610453e+00 -2.6698888483e+00 1.5414610453e+00 2.6698888483e+00 
41400 4.6514696910e+00 2.5137590237e-04 1.5414527782e+00 -2.6698745294e+00 1.5414527782e+00 2.6698745294e+00 
41500 4.6514697025e+00 2.4793197075e-04 1.5414446244e+00 -2.6698604065e+00 1.5414446244e+00 2.6698604065e+00 
41600 4.6514697140e+00 2.4453464734e-04 1.5414365822e+00 -2.6698464770e+00 1.5414365822e+00 2.6698464770e+00 
41700 4.6514697254e+00 2.4118331836e-04 1.5414286502e+00 -2.6698327383e+00 1.5414286502e+00 2.6698327383e+00 
41800 4.6514697367e+00 2.3787737751e-04 1.5414208268e+00 -2.6698191878e+00 1.5414208268e+00 2.6698191878e+00 
41900 4.6514697479e+00 2.3461622586e-04 1.5414131106e+00 -2.6698058231e+00 1.5414131106e+00 2.6698058231e+00 
42000 4.6514697591e+00 2.3139927181e-04 1.5414055002e+00 -2.6697926414e+00 1.5414055002e+00 2.6697926414e+00 
42100 4.6514697701e+00 2.2822593099e-04 1.5413979941e+00 -2.6697796405e+00 1.5413979941e+00 2.6697796405e+00 
42200 4.6514697811e+00 2.2509562623e-04 1.5413905909e+00 -2.6697668177e+00 1.5413905909e+00 2.6697668177e+00 
42300 4.6514697920e+00 2.2200778743e-04 1.5413832892e+00 -2.6697541708e+00 1.5413832892e+00 2.6697541708e+00 
42400 4.6514698028e+00 2.1896185155e-04 1.5413760876e+00 -2.6697416973e+00 1.5413760876e+00 2.6697416973e+00 
42500 4.6514698135e+00 2.1595726249e-04 1.5413689848e+00 -2.6697293949e+00 1.5413689848e+00 2.6697293949e+00 
42600 4.6514698241e+00 2.1299347107e-04 1.5413619795e+00 -2.6697172613e+00 1.5413619795e+00 2.6697172613e+00 
42700 4.6514698346e+00 2.1006993491e-04 1.5413550702e+00 -2.6697052941e+00 1.5413550702e+00 2.6697052941e+00 
42800 4.6514698450e+00 2.0718611838e-04 1.5413482557e+00 -2.6696934911e+00 1.5413482557e+00 2.6696934911e+00 
42900 4.6514698554e+00 2.0434149257e-04 1.5413415348e+00 -2.6696818501e+00 1.5413415348e+00 2.6696818501e+00 
43000 4.6514698656e+00 2.0153553514e-04 1.5413349061e+00 -2.6696703689e+00 1.5413349061e+00 2.6696703689e+00 
43100 4.6514698757e+00 1.9876773033e-04 1.5413283684e+00 -2.6696590453e+00 1.5413283684e+00 2.6696590453e+00 
43200 4.6514698858e+00 1.9603756885e-04 1.5413219205e+00 -2.6696478771e+00 1.5413219205e+00 2.6696478771e+00 
43300 4.6514698957e+00 1.9334454783e-04 1.5413155611e+00 -2.6696368623e+00 1.5413155611e+00 2.6696368623e+00 
43400 4.6514699056e+00 1.9068817073e-04 1.5413092891e+00 -2.6696259988e+00 1.5413092891e+00 2.6696259988e+00 
43500 4.6514699153e+00 1.8806794730e-04 1.5413031031e+00 -2.6696152845e+00 1.5413031031e+00 2.6696152845e+00 
43600 4.6514699250e+00 1.8548339349e-04 1.5412970022e+00 -2.6696047174e+00 1.5412970022e+00 2.6696047174e+00 
43700 4.6514699345e+00 1.8293403143e-04 1.5412909851e+00 -2.6695942954e+00 1.5412909851e+00 2.6695942954e+00 
43800 4.6514699440e+00 1.8041938928e-04 1.5412850507e+00 -2.6695840167e+00 1.5412850507e+00 2.6695840167e+00 
43900 4.6514699533e+00 1.7793900125e-04 1.5412791978e+00 -2.6695738792e+00 1.5412791978e+00 2.6695738792e+00 
44000 4.6514699626e+00 1.7549240748e-04 1.5412734253e+00 -2.6695638810e+00 1.5412734253e+00 2.6695638810e+00 
44100 4.6514699717e+00 1.7307915402e-04 1.5412677322e+00 -2.6695540203e+00 1.5412677322e+00 2.6695540203e+00 
44200 4.6514699808e+00 1.7069879271e-04 1.5412621174e+00 -2.6695442951e+00 1.5412621174e+00 2.6695442951e+00 
44300 4.6514699898e+00 1.6835088116e-04 1.5412565798e+00 -2.6695347037e+00 1.5412565798e+00 2.6695347037e+00 
44400 4.6514699987e+00 1.6603498267e-04 1.5412511183e+00 -2.6695252441e+00 1.5412511183e+00 2.6695252441e+00 
44500 4.6514700074e+00 1.6375066618e-04 1.5412457319e+00 -2.6695159147e+00 1.5412457319e+00 2.6695159147e+00 
44600 4.6514700161e+00 1.6149750618e-04 1.5412404197e+00 -2.6695067135e+00 1.5412404197e+00 2.6695067135e+00 
44700 4.6514700247e+00 1.5927508268e-04 1.5412351805e+00 -2.6694976390e+00 1.5412351805e+00 2.6694976390e+00 
44800 4.6514700332e+00 1.5708298111e-04 1.5412300133e+00 -2.6694886892e+00 1.5412300133e+00 2.6694886892e+00 
44900 4.6514700416e+00 1.5492079230e-04 1.5412249173e+00 -2.6694798627e+00 1.5412249173e+00 2.6694798627e+00 
45000 4.6514700499e+00 1.5278811240e-04 1.5412198914e+00 -2.6694711576e+00 1.5412198914e+00 2.6694711576e+00 
45100 4.6514700581e+00 1.5068454281e-04 1.5412149347e+00 -2.6694625723e+00 1.5412149347e+00 2.6694625723e+00 
45200 4.6514700662e+00 1.4860969012e-04 1.5412100462e+00 -2.6694541051e+00 1.5412100462e+00 2.6694541051e+00 
45300 4.6514700742e+00 1.4656316608e-04 1.5412052250e+00 -2.6694457546e+00 1.5412052250e+00 2.6694457546e+00 
45400 4.6514700821e+00 1.4454458751e-04 1.5412004702e+00 -2.6694375190e+00 1.5412004702e+00 2.6694375190e+00 
45500 4.6514700899e+00 1.4255357623e-04 1.5411957808e+00 -2.6694293968e+00 1.5411957808e+00 2.6694293968e+00 
45600 4.6514700976e+00 1.4058975906e-04 1.5411911561e+00 -2.6694213865e+00 1.5411911561e+00 2.6694213865e+00 
45700 4.6514701053e+00 1.3865276768e-04 1.5411865950e+00 -2.6694134865e+00 1.5411865950e+00 2.6694134865e+00 
45800 4.6514701128e+00 1.3674223866e-04 1.5411820967e+00 -2.6694056953e+00 1.5411820967e+00 2.6694056953e+00 
45900 4.6514701203e+00 1.3485781331e-04 1.5411776605e+00 -2.6693980114e+00 1.5411776605e+00 2.6693980114e+00 
46000 4.6514701277e+00 1.3299913771e-04 1.5411732853e+00 -2.6693904334e+00 1.5411732853e+00 2.6693904334e+00 
46100 4.6514701349e+00 1.3116586261e-04 1.5411689704e+00 -2.6693829599e+00 1.5411689704e+00 2.6693829599e+00 
46200 4.6514701421e+00 1.2935764334e-04 1.5411647150e+00 -2.6693755893e+00 1.5411647150e+00 2.6693755893e+00 
46300 4.6514701492e+00 1.2757413985e-04 1.5411605183e+00 -2.6693683203e+00 1.5411605183e+00 2.6693683203e+00 
46400 4.6514701562e+00 1.2581501656e-04 1.5411563794e+00 -2.6693611515e+00 1.5411563794e+00 2.6693611515e+00 
46500 4.6514701631e+00 1.2407994236e-04 1.5411522976e+00 -2.6693540816e+00 1.5411522976e+00 2.6693540816e+00 
46600 4.6514701700e+00 1.2236859053e-04 1.5411482720e+00 -2.6693471091e+00 1.5411482720e+00 2.6693471091e+00 
46700 4.6514701767e+00 1.2068063870e-04 1.5411443020e+00 -2.6693402328e+00 1.5411443020e+00 2.6693402328e+00 
46800 4.6514701834e+00 1.1901576880e-04 1.5411403867e+00 -2.6693334513e+00 1.5411403867e+00 2.6693334513e+00 
46900 4.6514701900e+00 1.1737366699e-04 1.5411365254e+00 -2.6693267634e+00 1.5411365254e+00 2.6693267634e+00 
47000 4.6514701965e+00 1.1575402362e-04 1.5411327174e+00 -2.6693201677e+00 1.5411327174e+00 2.6693201677e+00 
47100 4.6514702029e+00 1.1415653319e-04 1.5411289619e+00 -2.6693136630e+00 1.5411289619e+00 2.6693136630e+00 
47200 4.6514702092e+00 1.1258089427e-04 1.5411252582e+00 -2.6693072481e+00 1.5411252582e+00 2.6693072481e+00 
47300 4.6514702155e+00 1.1102680947e-04 1.5411216057e+00 -2.6693009216e+00 1.5411216057e+00 2.6693009216e+00 
47400 4.6514702216e+00 1.0949398537e-04 1.5411180035e+00 -2.6692946826e+00 1.5411180035e+00 2.6692946826e+00 
47500 4.6514702277e+00 1.0798213252e-04 1.5411144511e+00 -2.6692885296e+00 1.5411144511e+00 2.6692885296e+00 
47600 4.6514702337e+00 1.0649096531e-04 1.5411109477e+00 -2.6692824616e+00 1.5411109477e+00 2.6692824616e+00 
47700 4.6514702397e+00 1.0502020201e-04 1.5411074927e+00 -2.6692764773e+00 1.5411074927e+00 2.6692764773e+00 
47800 4.6514702455e+00 1.0356956464e-04 1.5411040854e+00 -2.6692705757e+00 1.5411040854e+00 2.6692705757e+00 
47900 4.6514702513e+00 1.0213877899e-04 1.5411007252e+00 -2.6692647556e+00 1.5411007252e+00 2.6692647556e+00 
48000 4.6514702570e+00 1.0072757452e-04 1.5410974114e+00 -2.6692590159e+00 1.5410974114e+00 2.6692590159e+00 
48100 4.6514702626e+00 9.9335684350e-05 1.5410941433e+00 -2.6692533555e+00 1.5410941433e+00 2.6692533555e+00 
48200 4.6514702682e+00 9.7962845191e-05 1.5410909204e+00 -2.6692477733e+00 1.5410909204e+00 2.6692477733e+00 
48300 4.6514702736e+00 9.6608797310e-05 1.5410877421e+00 -2.6692422682e+00 1.5410877421e+00 2.6692422682e+00 
48400 4.6514702790e+00 9.5273284481e-05 1.5410846076e+00 -2.6692368392e+00 1.5410846076e+00 2.6692368392e+00 
48500 4.6514702844e+00 9.3956053941e-05 1.5410815165e+00 -2.6692314852e+00 1.5410815165e+00 2.6692314852e+00 
48600 4.6514702896e+00 9.2656856345e-05 1.5410784681e+00 -2.6692262053e+00 1.5410784681e+00 2.6692262053e+00 
48700 4.6514702948e+00 9.1375445720e-05 1.5410754619e+00 -2.6692209983e+00 1.5410754619e+00 2.6692209983e+00 
48800 4.6514702999e+00 9.0111579426e-05 1.5410724972e+00 -2.6692158634e+00 1.5410724972e+00 2.6692158634e+00 
48900 4.6514703050e+00 8.8865018105e-05 1.5410695736e+00 -2.6692107994e+00 1.5410695736e+00 2.6692107994e+00 
49000 4.6514703100e+00 8.7635525650e-05 1.5410666904e+00 -2.6692058055e+00 1.5410666904e+00 2.6692058055e+00 
49100 4.6514703149e+00 8.6422869150e-05 1.5410638470e+00 -2.6692008807e+00 1.5410638470e+00 2.6692008807e+00 
49200 4.6514703197e+00 8.5226818857e-05 1.5410610430e+00 -2.6691960241e+00 1.5410610430e+00 2.6691960241e+00 
49300 4.6514703245e+00 8.4047148141e-05 1.5410582778e+00 -2.6691912346e+00 1.5410582778e+00 2.6691912346e+00 
49400 4.6514703292e+00 8.2883633451e-05 1.5410555509e+00 -2.6691865114e+00 1.5410555509e+00 2.6691865114e+00 
49500 4.6514703338e+00 8.1736054271e-05 1.5410528617e+00 -2.6691818536e+00 1.5410528617e+00 2.6691818536e+00 
49600 4.6514703384e+00 8.0604193085e-05 1.5410502098e+00 -2.6691772603e+00 1.5410502098e+00 2.6691772603e+00 
49700 4.6514703429e+00 7.9487835335e-05 1.5410475945e+00 -2.6691727306e+00 1.5410475945e+00 2.6691727306e+00 
49800 4.6514703474e+00 7.8386769381e-05 1.5410450155e+00 -2.6691682636e+00 1.5410450155e+00 2.6691682636e+00 
49900 4.6514703518e+00 7.7300786466e-05 1.5410424722e+00 -2.6691638585e+00 1.5410424722e+00 2.6691638585e+00 
50000 4.6514703561e+00 7.6229680670e-05 1.5410399641e+00 -2.6691595144e+00 1.5410399641e+00 2.6691595144e+00 
50100 4.6514703604e+00 7.5173248881e-05 1.5410374908e+00 -2.6691552305e+00 1.5410374908e+00 2.6691552305e+00 
50200 4.6514703646e+00 7.4131290757e-05 1.5410350518e+00 -2.6691510059e+00 1.5410350518e+00 2.6691510059e+00 
50300 4.6514703688e+00 7.3103608683e-05 1.5410326465e+00 -2.6691468399e+00 1.5410326465e+00 2.6691468399e+00 
50400 4.6514703729e+00 7.2090007738e-05 1.5410302746e+00 -2.6691427316e+00 1.5410302746e+00 2.6691427316e+00 
50500 4.6514703769e+00 7.1090295660e-05 1.5410279356e+00 -2.6691386803e+00 1.5410279356e+00 2.6691386803e+00 
50600 4.6514703809e+00 7.0104282809e-05 1.5410256290e+00 -2.6691346852e+00 1.5410256290e+00 2.6691346852e+00 
50700 4.6514703850e+00 7.0510369494e-05 1.5410256290e+00 -2.6691346852e+00 1.5410256290e+00 2.6691346852e+00 
50800 4.6514703891e+00 7.0920858088e-05 1.5410256290e+00 -2.6691346852e+00 1.5410256290e+00 2.6691346852e+00 
50900 4.6514703929e+00 6.9940635242e-05 1.5410233279e+00 -2.6691306996e+00 1.5410233279e+00 2.6691306996e+00 
51000 4.6514703968e+00 7.0348161983e-05 1.5410233279e+00 -2.6691306996e+00 1.5410233279e+00 2.6691306996e+00 
51100 4.6514704007e+00 7.0759129395e-05 1.5410233279e+00 -2.6691306996e+00 1.5410233279e+00 2.6691306996e+00 
51200 4.6514704044e+00 6.9781682157e-05 1.5410210321e+00 -2.6691267231e+00 1.5410210321e+00 2.6691267231e+00 
51300 4.6514704081e+00 7.0187943874e-05 1.5410210321e+00 -2.6691267231e+00 1.5410210321e+00 2.6691267231e+00 
51400 4.6514704119e+00 7.0596834143e-05 1.5410210321e+00 -2.6691267231e+00 1.5410210321e+00 2.6691267231e+00 
51500 4.6514704156e+00 7.1007961421e-05 1.5410210321e+00 -2.6691267231e+00 1.5410210321e+00 2.6691267231e+00 
51600 4.6514704190e+00 7.0024675371e-05 1.5410187281e+00 -2.6691227326e+00 1.5410187281e+00 2.6691227326e+00 
51700 4.6514704225e+00 7.0428845264e-05 1.5410187281e+00 -2.6691227326e+00 1.5410187281e+00 2.6691227326e+00 
51800 4.6514704261e+00 7.0834627430e-05 1.5410187281e+00 -2.6691227326e+00 1.5410187281e+00 2.6691227326e+00 
51900 4.6514704293e+00 6.9848837407e-05 1.5410164298e+00 -2.6691187518e+00 1.5410164298e+00 2.6691187518e+00 
52000 4.6514704327e+00 7.0246543643e-05 1.5410164298e+00 -2.6691187518e+00 1.5410164298e+00 2.6691187518e+00 
52100 4.6514704361e+00 7.0645338936e-05 1.5410164298e+00 -2.6691187518e+00 1.5410164298e+00 2.6691187518e+00 
52200 4.6514704394e+00 7.1044918709e-05 1.5410164298e+00 -2.6691187518e+00 1.5410164298e+00 2.6691187518e+00 
52300 4.6514704425e+00 7.0048039053e-05 1.5410141247e+00 -2.6691147592e+00 1.5410141247e+00 2.6691147592e+00 
52400 4.6514704457e+00 7.0437995125e-05 1.5410141247e+00 -2.6691147592e+00 1.5410141247e+00 2.6691147592e+00 
52500 4.6514704489e+00 7.0828348121e-05 1.5410141247e+00 -2.6691147592e+00 1.5410141247e+00 2.6691147592e+00 
52600 4.6514704518e+00 6.9826155902e-05 1.5410118266e+00 -2.6691107787e+00 1.5410118266e+00 2.6691107787e+00 
52700 4.6514704549e+00 7.0206214582e-05 1.5410118266e+00 -2.6691107787e+00 1.5410118266e+00 2.6691107787e+00 
52800 4.6514704579e+00 7.0586352285e-05 1.5410118266e+00 -2.6691107787e+00 1.5410118266e+00 2.6691107787e+00 
52900 4.6514704609e+00 7.0966326715e-05 1.5410118266e+00 -2.6691107787e+00 1.5410118266e+00 2.6691107787e+00 
53000 4.6514704636e+00 6.9950542250e-05 1.5410095240e+00 -2.6691067905e+00 1.5410095240e+00 2.6691067905e+00 
53100 4.6514704665e+00 7.0319184300e-05 1.5410095240e+00 -2.6691067905e+00 1.5410095240e+00 2.6691067905e+00 
53200 4.6514704694e+00 7.0687445557e-05 1.5410095240e+00 -2.6691067905e+00 1.5410095240e+00 2.6691067905e+00 
53300 4.6514704722e+00 7.1055113910e-05 1.5410095240e+00 -2.6691067905e+00 1.5410095240e+00 2.6691067905e+00 
53400 4.6514704748e+00 7.0024899671e-05 1.5410072185e+00 -2.6691027974e+00 1.5410072185e+00 2.6691027974e+00 
53500 4.6514704775e+00 7.0380448517e-05 1.5410072185e+00 -2.6691027974e+00 1.5410072185e+00 2.6691027974e+00 
53600 4.6514704802e+00 7.0735270204e-05 1.5410072185e+00 -2.6691027974e+00 1.5410072185e+00 2.6691027974e+00 
53700 4.6514704826e+00 6.9698391798e-05 1.5410049234e+00 -2.6690988221e+00 1.5410049234e+00 2.6690988221e+00 
53800 4.6514704853e+00 7.0040911659e-05 1.5410049234e+00 -2.6690988221e+00 1.5410049234e+00 2.6690988221e+00 
53900 4.6514704878e+00 7.0382606807e-05 1.5410049234e+00 -2.6690988221e+00 1.5410049234e+00 2.6690988221e+00 
54000 4.6514704904e+00 7.0723302197e-05 1.5410049234e+00 -2.6690988221e+00 1.5410049234e+00 2.6690988221e+00 
54100 4.6514704927e+00 6.9672301941e-05 1.5410026287e+00 -2.6690948476e+00 1.5410026287e+00 2.6690948476e+00 
54200 4.6514704951e+00 7.0000217046e-05 1.5410026287e+00 -2.6690948476e+00 1.5410026287e+00 2.6690948476e+00 
54300 4.6514704975e+00 7.0327097962e-05 1.5410026287e+00 -2.6690948476e+00 1.5410026287e+00 2.6690948476e+00 
54400 4.6514704999e+00 7.0652788846e-05 1.5410026287e+00 -2.6690948476e+00 1.5410026287e+00 2.6690948476e+00 
54500 4.6514705023e+00 7.0977143101e-05 1.5410026287e+00 -2.6690948476e+00 1.5410026287e+00 2.6690948476e+00 
54600 4.6514705044e+00 6.9904524795e-05 1.5410003258e+00 -2.6690908587e+00 1.5410003258e+00 2.6690908587e+00 
54700 4.6514705067e+00 7.0215468030e-05 1.5410003258e+00 -2.6690908587e+00 1.5410003258e+00 2.6690908587e+00 
54800 4.6514705089e+00 7.0525119428e-05 1.5410003258e+00 -2.6690908587e+00 1.5410003258e+00 2.6690908587e+00 
54900 4.6514705111e+00 7.0833346601e-05 1.5410003258e+00 -2.6690908587e+00 1.5410003258e+00 2.6690908587e+00 
55000 4.6514705131e+00 6.9747370609e-05 1.5409980275e+00 -2.6690868780e+00 1.5409980275e+00 2.6690868780e+00 
55100 4.6514705152e+00 7.0042072568e-05 1.5409980275e+00 -2.6690868780e+00 1.5409980275e+00 2.6690868780e+00 
55200 4.6514705174e+00 7.0335433192e-05 1.5409980275e+00 -2.6690868780e+00 1.5409980275e+00 2.6690868780e+00 
55300 4.6514705194e+00 7.0627331977e-05 1.5409980275e+00 -2.6690868780e+00 1.5409980275e+00 2.6690868780e+00 
55400 4.6514705215e+00 7.0917656045e-05 1.5409980275e+00 -2.6690868780e+00 1.5409980275e+00 2.6690868780e+00 
55500 4.6514705233e+00 6.9812007084e-05 1.5409957265e+00 -2.6690828925e+00 1.5409957265e+00 2.6690828925e+00 
55600 4.6514705253e+00 7.0088547422e-05 1.5409957265e+00 -2.6690828925e+00 1.5409957265e+00 2.6690828925e+00 
55700 4.6514705273e+00 7.0363649581e-05 1.5409957265e+00 -2.6690828925e+00 1.5409957265e+00 2.6690828925e+00 
55800 4.6514705292e+00 7.0637209074e-05 1.5409957265e+00 -2.6690828925e+00 1.5409957265e+00 2.6690828925e+00 
55900 4.6514705311e+00 7.0909128270e-05 1.5409957265e+00 -2.6690828925e+00 1.5409957265e+00 2.6690828925e+00 
56000 4.6514705328e+00 6.9785208677e-05 1.5409934257e+00 -2.6690789075e+00 1.5409934257e+00 2.6690789075e+00 
56100 4.6514705346e+00 7.0043256957e-05 1.5409934257e+00 -2.6690789075e+00 1.5409934257e+00 2.6690789075e+00 
56200 4.6514705364e+00 7.0299842877e-05 1.5409934257e+00 -2.6690789075e+00 1.5409934257e+00 2.6690789075e+00 
56300 4.6514705382e+00 7.0554874433e-05 1.5409934257e+00 -2.6690789075e+00 1.5409934257e+00 2.6690789075e+00 
56400 4.6514705400e+00 7.0808265861e-05 1.5409934257e+00 -2.6690789075e+00 1.5409934257e+00 2.6690789075e+00 
56500 4.6514705415e+00 6.9667828740e-05 1.5409911282e+00 -2.6690749281e+00 1.5409911282e+00 2.6690749281e+00 
56600 4.6514705432e+00 6.9907397447e-05 1.5409911282e+00 -2.6690749281e+00 1.5409911282e+00 2.6690749281e+00 
56700 4.6514705449e+00 7.0145535488e-05 1.5409911282e+00 -2.6690749281e+00 1.5409911282e+00 2.6690749281e+00 
56800 4.6514705465e+00 7.0382160523e-05 1.5409911282e+00 -2.6690749281e+00 1.5409911282e+00 2.6690749281e+00 
56900 4.6514705482e+00 7.0617195947e-05 1.5409911282e+00 -2.6690749281e+00 1.5409911282e+00 2.6690749281e+00 
57000 4.6514705498e+00 7.0850570578e-05 1.5409911282e+00 -2.6690749281e+00 1.5409911282e+00 2.6690749281e+00 
57100 4.6514705511e+00 6.9689295908e-05 1.5409888294e+00 -2.6690709463e+00 1.5409888294e+00 2.6690709463e+00 
57200 4.6514705527e+00 6.9908840941e-05 1.5409888294e+00 -2.6690709463e+00 1.5409888294e+00 2.6690709463e+00 
57300 4.6514705542e+00 7.0126974166e-05 1.5409888294e+00 -2.6690709463e+00 1.5409888294e+00 2.6690709463e+00 
57400 4.6514705557e+00 7.0343624934e-05 1.5409888294e+00 -2.6690709463e+00 1.5409888294e+00 2.6690709463e+00 
57500 4.6514705572e+00 7.0558727692e-05 1.5409888294e+00 -2.6690709463e+00 1.5409888294e+00 2.6690709463e+00 
57600 4.6514705587e+00 7.0772221706e-05 1.5409888294e+00 -2.6690709463e+00 1.5409888294e+00 2.6690709463e+00 
57700 4.6514705599e+00 6.9592684276e-05 1.5409865330e+00 -2.6690669690e+00 1.5409865330e+00 2.6690669690e+00 
57800 4.6514705613e+00 6.9792493170e-05 1.5409865330e+00 -2.6690669690e+00 1.5409865330e+00 2.6690669690e+00 
57900 4.6514705627e+00 6.9990969790e-05 1.5409865330e+00 -2.6690669690e+00 1.5409865330e+00 2.6690669690e+00 
58000 4.6514705641e+00 7.0188051783e-05 1.5409865330e+00 -2.6690669690e+00 1.5409865330e+00 2.6690669690e+00 
58100 4.6514705655e+00 7.0383681411e-05 1.5409865330e+00 -2.6690669690e+00 1.5409865330e+00 2.6690669690e+00 
58200 4.6514705668e+00 7.0577805289e-05 1.5409865330e+00 -2.6690669690e+00 1.5409865330e+00 2.6690669690e+00 
58300 4.6514705681e+00 7.0770374146e-05 1.5409865330e+00 -2.6690669690e+00 1.5409865330e+00 2.6690669690e+00 
58400 4.6514705692e+00 6.9570028990e-05 1.5409842368e+00 -2.6690629917e+00 1.5409842368e+00 2.6690629917e+00 
58500 4.6514705705e+00 6.9749052111e-05 1.5409842368e+00 -2.6690629917e+00 1.5409842368e+00 2.6690629917e+00 
58600 4.6514705717e+00 6.9926827170e-05 1.5409842368e+00 -2.6690629917e+00 1.5409842368e+00 2.6690629917e+00 
58700 4.6514705730e+00 7.0103300788e-05 1.5409842368e+00 -2.6690629917e+00 1.5409842368e+00 2.6690629917e+00 
58800 4.6514705742e+00 7.0278423654e-05 1.5409842368e+00 -2.6690629917e+00 1.5409842368e+00 2.6690629917e+00 
58900 4.6514705754e+00 7.0452150287e-05 1.5409842368e+00 -2.6690629917e+00 1.5409842368e+00 2.6690629917e+00 
59000 4.6514705766e+00 7.0624438822e-05 1.5409842368e+00 -2.6690629917e+00 1.5409842368e+00 2.6690629917e+00 
59100 4.6514705777e+00 7.0795250806e-05 1.5409842368e+00 -2.6690629917e+00 1.5409842368e+00 2.6690629917e+00 
59200 4.6514705787e+00 6.9572765113e-05 1.5409819397e+00 -2.6690590131e+00 1.5409819397e+00 2.6690590131e+00 
59300 4.6514705798e+00 6.9730214444e-05 1.5409819397e+00 -2.6690590131e+00 1.5409819397e+00 2.6690590131e+00 
59400 4.6514705809e+00 6.9886522941e-05 1.5409819397e+00 -2.6690590131e+00 1.5409819397e+00 2.6690590131e+00 
59500 4.6514705820e+00 7.0041645578e-05 1.5409819397e+00 -2.6690590131e+00 1.5409819397e+00 2.6690590131e+00 
59600 4.6514705831e+00 7.0195540851e-05 1.5409819397e+00 -2.6690590131e+00 1.5409819397e+00 2.6690590131e+00 
59700 4.6514705841e+00 7.0348170581e-05 1.5409819397e+00 -2.6690590131e+00 1.5409819397e+00 2.6690590131e+00 
59800 4.6514705852e+00 7.0499499718e-05 1.5409819397e+00 -2.6690590131e+00 1.5409819397e+00 2.6690590131e+00 
59900 4.6514705862e+00 7.0649496158e-05 1.5409819397e+00 -2.6690590131e+00 1.5409819397e+00 2.6690590131e+00 
60000 4.6514705872e+00 7.0798130578e-05 1.5409819397e+00 -2.6690590131e+00 1.5409819397e+00 2.6690590131e+00 
60100 4.6514705880e+00 6.9553549999e-05 1.5409796425e+00 -2.6690550343e+00 1.5409796425e+00 2.6690550343e+00 
60200 4.6514705890e+00 6.9689075381e-05 1.5409796425e+00 -2.6690550343e+00 1.5409796425e+00 2.6690550343e+00 
60300 4.6514705900e+00 6.9823598413e-05 1.5409796425e+00 -2.6690550343e+00 1.5409796425e+00 2.6690550343e+00 
60400 4.6514705909e+00 6.9957080982e-05 1.5409796425e+00 -2.6690550343e+00 1.5409796425e+00 2.6690550343e+00 
60500 4.6514705919e+00 7.0089488022e-05 1.5409796425e+00 -2.6690550343e+00 1.5409796425e+00 2.6690550343e+00 
60600 4.6514705928e+00 7.0220787333e-05 1.5409796425e+00 -2.6690550343e+00 1.5409796425e+00 2.6690550343e+00 
60700 4.6514705937e+00 7.0350949406e-05 1.5409796425e+00 -2.6690550343e+00 1.5409796425e+00 2.6690550343e+00 
60800 4.6514705946e+00 7.0479947269e-05 1.5409796425e+00 -2.6690550343e+00 1.5409796425e+00 2.6690550343e+00 
60900 4.6514705955e+00 7.0607756339e-05 1.5409796425e+00 -2.6690550343e+00 1.5409796425e+00 2.6690550343e+00 
61000 4.6514705963e+00 7.0734354279e-05 1.5409796425e+00 -2.6690550343e+00 1.5409796425e+00 2.6690550343e+00 
61100 4.6514705970e+00 6.9469163454e-05 1.5409773474e+00 -2.6690510590e+00 1.5409773474e+00 2.6690510590e+00 
61200 4.6514705978e+00 6.9582982359e-05 1.5409773474e+00 -2.6690510590e+00 1.5409773474e+00 2.6690510590e+00 
61300 4.6514705986e+00 6.9695967475e-05 1.5409773474e+00 -2.6690510590e+00 1.5409773474e+00 2.6690510590e+00 
61400 4.6514705995e+00 6.9808085840e-05 1.5409773474e+00 -2.6690510590e+00 1.5409773474e+00 2.6690510590e+00 
61500 4.6514706003e+00 6.9919307134e-05 1.5409773474e+00 -2.6690510590e+00 1.5409773474e+00 2.6690510590e+00 
61600 4.6514706011e+00 7.0029603517e-05 1.5409773474e+00 -2.6690510590e+00 1.5409773474e+00 2.6690510590e+00 
61700 4.6514706018e+00 7.0138949481e-05 1.5409773474e+00 -2.6690510590e+00 1.5409773474e+00 2.6690510590e+00 
61800 4.6514706026e+00 7.0247321710e-05 1.5409773474e+00 -2.6690510590e+00 1.5409773474e+00 2.6690510590e+00 
61900 4.6514706034e+00 7.0354698949e-05 1.5409773474e+00 -2.6690510590e+00 1.5409773474e+00 2.6690510590e+00 
62000 4.6514706041e+00 7.0461061882e-05 1.5409773474e+00 -2.6690510590e+00 1.5409773474e+00 2.6690510590e+00 
62100 4.6514706048e+00 7.0566393018e-05 1.5409773474e+00 -2.6690510590e+00 1.5409773474e+00 2.6690510590e+00 
62200 4.6514706056e+00 7.0670676581e-05 1.5409773474e+00 -2.6690510590e+00 1.5409773474e+00 2.6690510590e+00 
62300 4.6514706063e+00 7.0773898415e-05 1.5409773474e+00 -2.6690510590e+00 1.5409773474e+00 2.6690510590e+00 
62400 4.6514706068e+00 6.9484727559e-05 1.5409750510e+00 -2.6690470815e+00 1.5409750510e+00 2.6690470815e+00 
62500 4.6514706074e+00 6.9575485533e-05 1.5409750510e+00 -2.6690470815e+00 1.5409750510e+00 2.6690470815e+00 
62600 4.6514706081e+00 6.9665580457e-05 1.5409750510e+00 -2.6690470815e+00 1.5409750510e+00 2.6690470815e+00 
62700 4.6514706088e+00 6.9754985353e-05 1.5409750510e+00 -2.6690470815e+00 1.5409750510e+00 2.6690470815e+00 
62800 4.6514706094e+00 6.9843675410e-05 1.5409750510e+00 -2.6690470815e+00 1.5409750510e+00 2.6690470815e+00 
62900 4.6514706101e+00 6.9931627858e-05 1.5409750510e+00 -2.6690470815e+00 1.5409750510e+00 2.6690470815e+00 
63000 4.6514706107e+00 7.0018821836e-05 1.5409750510e+00 -2.6690470815e+00 1.5409750510e+00 2.6690470815e+00 
63100 4.6514706114e+00 7.0105238279e-05 1.5409750510e+00 -2.6690470815e+00 1.5409750510e+00 2.6690470815e+00 
63200 4.6514706120e+00 7.0190859811e-05 1.5409750510e+00 -2.6690470815e+00 1.5409750510e+00 2.6690470815e+00 
63300 4.6514706126e+00 7.0275670640e-05 1.5409750510e+00 -2.6690470815e+00 1.5409750510e+00 2.6690470815e+00 
63400 4.6514706132e+00 7.0359656464e-05 1.5409750510e+00 -2.6690470815e+00 1.5409750510e+00 2.6690470815e+00 
63500 4.6514706138e+00 7.0442804384e-05 1.5409750510e+00 -2.6690470815e+00 1.5409750510e+00 2.6690470815e+00 
63600 4.6514706144e+00 7.0525102817e-05 1.5409750510e+00 -2.6690470815e+00 1.5409750510e+00 2.6690470815e+00 
63700 4.6514706149e+00 7.0606541423e-05 1.5409750510e+00 -2.6690470815e+00 1.5409750510e+00 2.6690470815e+00 
63800 4.6514706155e+00 7.0687111028e-05 1.5409750510e+00 -2.6690470815e+00 1.5409750510e+00 2.6690470815e+00 
63900 4.6514706161e+00 7.0766803554e-05 1.5409750510e+00 -2.6690470815e+00 1.5409750510e+00 2.6690470815e+00 
64000 4.6514706164e+00 6.9454448680e-05 1.5409727548e+00 -2.6690431045e+00 1.5409727548e+00 2.6690431045e+00 
64100 4.6514706169e+00 6.9522063964e-05 1.5409727548e+00 -2.6690431045e+00 1.5409727548e+00 2.6690431045e+00 
64200 4.6514706175e+00 6.9589216242e-05 1.5409727548e+00 -2.6690431045e+00 1.5409727548e+00 2.6690431045e+00 
64300 4.6514706180e+00 6.9655882826e-05 1.5409727548e+00 -2.6690431045e+00 1.5409727548e+00 2.6690431045e+00 
64400 4.6514706185e+00 6.9722042814e-05 1.5409727548e+00 -2.6690431045e+00 1.5409727548e+00 2.6690431045e+00 
64500 4.6514706190e+00 6.9787676979e-05 1.5409727548e+00 -2.6690431045e+00 1.5409727548e+00 2.6690431045e+00 
64600 4.6514706195e+00 6.9852767663e-05 1.5409727548e+00 -2.6690431045e+00 1.5409727548e+00 2.6690431045e+00 
64700 4.6514706200e+00 6.9917298679e-05 1.5409727548e+00 -2.6690431045e+00 1.5409727548e+00 2.6690431045e+00 
64800 4.6514706205e+00 6.9981255224e-05 1.5409727548e+00 -2.6690431045e+00 1.5409727548e+00 2.6690431045e+00 
64900 4.6514706210e+00 7.0044623789e-05 1.5409727548e+00 -2.6690431045e+00 1.5409727548e+00 2.6690431045e+00 
65000 4.6514706214e+00 7.0107392088e-05 1.5409727548e+00 -2.6690431045e+00 1.5409727548e+00 2.6690431045e+00 
65100 4.6514706219e+00 7.0169548972e-05 1.5409727548e+00 -2.6690431045e+00 1.5409727548e+00 2.6690431045e+00 
65200 4.6514706223e+00 7.0231084374e-05 1.5409727548e+00 -2.6690431045e+00 1.5409727548e+00 2.6690431045e+00 
65300 4.6514706228e+00 7.0291989235e-05 1.5409727548e+00 -2.6690431045e+00 1.5409727548e+00 2.6690431045e+00 
65400 4.6514706232e+00 7.0352255446e-05 1.5409727548e+00 -2.6690431045e+00 1.5409727548e+00 2.6690431045e+00 
65500 4.6514706237e+00 7.0411875794e-05 1.5409727548e+00 -2.6690431045e+00 1.5409727548e+00 2.6690431045e+00 
65600 4.6514706241e+00 7.0470843907e-05 1.5409727548e+00 -2.6690431045e+00 1.5409727548e+00 2.6690431045e+00 
65700 4.6514706245e+00 7.0529154203e-05 1.5409727548e+00 -2.6690431045e+00 1.5409727548e+00 2.6690431045e+00 
65800 4.6514706249e+00 7.0586801846e-05 1.5409727548e+00 -2.6690431045e+00 1.5409727548e+00 2.6690431045e+00 
65900 4.6514706253e+00 7.0643782703e-05 1.5409727548e+00 -2.6690431045e+00 1.5409727548e+00 2.6690431045e+00 
66000 4.6514706258e+00 7.0700093301e-05 1.5409727548e+00 -2.6690431045e+00 1.5409727548e+00 2.6690431045e+00 
66100 4.6514706261e+00 7.0755730791e-05 1.5409727548e+00 -2.6690431045e+00 1.5409727548e+00 2.6690431045e+00 
66200 4.6514706263e+00 6.9419762515e-05 1.5409704590e+00 -2.6690391280e+00 1.5409704590e+00 2.6690391280e+00 
66300 4.6514706267e+00 6.9463746188e-05 1.5409704590e+00 -2.6690391280e+00 1.5409704590e+00 2.6690391280e+00 
66400 4.6514706271e+00 6.9507483848e-05 1.5409704590e+00 -2.6690391280e+00 1.5409704590e+00 2.6690391280e+00 
66500 4.6514706275e+00 6.9550956395e-05 1.5409704590e+00 -2.6690391280e+00 1.5409704590e+00 2.6690391280e+00 
66600 4.6514706278e+00 6.9594146163e-05 1.5409704590e+00 -2.6690391280e+00 1.5409704590e+00 2.6690391280e+00 
66700 4.6514706282e+00 6.9637036828e-05 1.5409704590e+00 -2.6690391280e+00 1.5409704590e+00 2.6690391280e+00 
66800 4.6514706286e+00 6.9679613322e-05 1.5409704590e+00 -2.6690391280e+00 1.5409704590e+00 2.6690391280e+00 
66900 4.6514706289e+00 6.9721861756e-05 1.5409704590e+00 -2.6690391280e+00 1.5409704590e+00 2.6690391280e+00 
67000 4.6514706293e+00 6.9763769343e-05 1.5409704590e+00 -2.6690391280e+00 1.5409704590e+00 2.6690391280e+00 
67100 4.6514706296e+00 6.9805324333e-05 1.5409704590e+00 -2.6690391280e+00 1.5409704590e+00 2.6690391280e+00 
67200 4.6514706299e+00 6.9846515946e-05 1.5409704590e+00 -2.6690391280e+00 1.5409704590e+00 2.6690391280e+00 
67300 4.6514706303e+00 6.9887334315e-05 1.5409704590e+00 -2.6690391280e+00 1.5409704590e+00 2.6690391280e+00 
67400 4.6514706306e+00 6.9927770426e-05 1.5409704590e+00 -2.6690391280e+00 1.5409704590e+00 2.6690391280e+00 
67500 4.6514706309e+00 6.9967816071e-05 1.5409704590e+00 -2.6690391280e+00 1.5409704590e+00 2.6690391280e+00 
67600 4.6514706312e+00 7.0007463793e-05 1.5409704590e+00 -2.6690391280e+00 1.5409704590e+00 2.6690391280e+00 
67700 4.6514706315e+00 7.0046706848e-05 1.5409704590e+00 -2.6690391280e+00 1.5409704590e+00 2.6690391280e+00 
67800 4.6514706319e+00 7.0085539159e-05 1.5409704590e+00 -2.6690391280e+00 1.5409704590e+00 2.6690391280e+00 
67900 4.6514706322e+00 7.0123955274e-05 1.5409704590e+00 -2.6690391280e+00 1.5409704590e+00 2.6690391280e+00 
68000 4.6514706325e+00 7.0161950334e-05 1.5409704590e+00 -2.6690391280e+00 1.5409704590e+00 2.6690391280e+00 
68100 4.6514706327e+00 7.0199520034e-05 1.5409704590e+00 -2.6690391280e+00 1.5409704590e+00 2.6690391280e+00 
68200 4.6514706330e+00 7.0236660591e-05 1.5409704590e+00 -2.6690391280e+00 1.5409704590e+00 2.6690391280e+00 
68300 4.6514706333e+00 7.0273368716e-05 1.5409704590e+00 -2.6690391280e+00 1.5409704590e+00 2.6690391280e+00 
68400 4.6514706336e+00 7.0309641585e-05 1.5409704590e+00 -2.6690391280e+00 1.5409704590e+00 2.6690391280e+00 
68500 4.6514706339e+00 7.0345476808e-05 1.5409704590e+00 -2.6690391280e+00 1.5409704590e+00 2.6690391280e+00 
68600 4.6514706341e+00 7.0380872410e-05 1.5409704590e+00 -2.6690391280e+00 1.5409704590e+00 2.6690391280e+00 
68700 4.6514706344e+00 7.0415826803e-05 1.5409704590e+00 -2.6690391280e+00 1.5409704590e+00 2.6690391280e+00 
68800 4.6514706347e+00 7.0450338766e-05 1.5409704590e+00 -2.6690391280e+00 1.5409704590e+00 2.6690391280e+00 
68900 4.6514706349e+00 7.0484407420e-05 1.5409704590e+00 -2.6690391280e+00 1.5409704590e+00 2.6690391280e+00 
69000 4.6514706352e+00 7.0518032217e-05 1.5409704590e+00 -2.6690391280e+00 1.5409704590e+00 2.6690391280e+00 
69100 4.6514706355e+00 7.0551212911e-05 1.5409704590e+00 -2.6690391280e+00 1.5409704590e+00 2.6690391280e+00 
69200 4.6514706357e+00 7.0583949549e-05 1.5409704590e+00 -2.6690391280e+00 1.5409704590e+00 2.6690391280e+00 
69300 4.6514706359e+00 7.0616242450e-05 1.5409704590e+00 -2.6690391280e+00 1.5409704590e+00 2.6690391280e+00 
69400 4.6514706362e+00 7.0648092189e-05 1.5409704590e+00 -2.6690391280e+00 1.5409704590e+00 2.6690391280e+00 
69500 4.6514706364e+00 7.0679499586e-05 1.5409704590e+00 -2.6690391280e+00 1.5409704590e+00 2.6690391280e+00 
69600 4.6514706367e+00 7.0710465690e-05 1.5409704590e+00 -2.6690391280e+00 1.5409704590e+00 2.6690391280e+00 
69700 4.6514706369e+00 7.0740991764e-05 1.5409704590e+00 -2.6690391280e+00 1.5409704590e+00 2.6690391280e+00 
69800 4.6514706369e+00 6.9380453060e-05 1.5409681637e+00 -2.6690351523e+00 1.5409681637e+00 2.6690351523e+00 
69900 4.6514706371e+00 6.9399804438e-05 1.5409681637e+00 -2.6690351523e+00 1.5409681637e+00 2.6690351523e+00 
70000 4.6514706374e+00 6.9419152924e-05 1.5409681637e+00 -2.6690351523e+00 1.5409681637e+00 2.6690351523e+00 
70100 4.6514706376e+00 6.9438482130e-05 1.5409681637e+00 -2.6690351523e+00 1.5409681637e+00 2.6690351523e+00 
70200 4.6514706378e+00 6.9457776801e-05 1.5409681637e+00 -2.6690351523e+00 1.5409681637e+00 2.6690351523e+00 
70300 4.6514706380e+00 6.9477022735e-05 1.5409681637e+00 -2.6690351523e+00 1.5409681637e+00 2.6690351523e+00 
70400 4.6514706382e+00 6.9496206722e-05 1.5409681637e+00 -2.6690351523e+00 1.5409681637e+00 2.6690351523e+00 
70500 4.6514706384e+00 6.9515316471e-05 1.5409681637e+00 -2.6690351523e+00 1.5409681637e+00 2.6690351523e+00 
70600 4.6514706386e+00 6.9534340558e-05 1.5409681637e+00 -2.6690351523e+00 1.5409681637e+00 2.6690351523e+00 
70700 4.6514706388e+00 6.9553268367e-05 1.5409681637e+00 -2.6690351523e+00 1.5409681637e+00 2.6690351523e+00 
70800 4.6514706390e+00 6.9572090038e-05 1.5409681637e+00 -2.6690351523e+00 1.5409681637e+00 2.6690351523e+00 
70900 4.6514706392e+00 6.9590796420e-05 1.5409681637e+00 -2.6690351523e+00 1.5409681637e+00 2.6690351523e+00 
71000 4.6514706394e+00 6.9609379027e-05 1.5409681637e+00 -2.6690351523e+00 1.5409681637e+00 2.6690351523e+00 
71100 4.6514706396e+00 6.9627829996e-05 1.5409681637e+00 -2.6690351523e+00 1.5409681637e+00 2.6690351523e+00 
71200 4.6514706398e+00 6.9646142049e-05 1.5409681637e+00 -2.6690351523e+00 1.5409681637e+00 2.6690351523e+00 
71300 4.6514706400e+00 6.9664308454e-05 1.5409681637e+00 -2.6690351523e+00 1.5409681637e+00 2.6690351523e+00 
71400 4.6514706401e+00 6.9682322996e-05 1.5409681637e+00 -2.6690351523e+00 1.5409681637e+00 2.6690351523e+00 
71500 4.6514706403e+00 6.9700179944e-05 1.5409681637e+00 -2.6690351523e+00 1.5409681637e+00 2.6690351523e+00 
71600 4.6514706405e+00 6.9717874017e-05 1.5409681637e+00 -2.6690351523e+00 1.5409681637e+00 2.6690351523e+00 
71700 4.6514706407e+00 6.9735400365e-05 1.5409681637e+00 -2.6690351523e+00 1.5409681637e+00 2.6690351523e+00 
71800 4.6514706408e+00 6.9752754541e-05 1.5409681637e+00 -2.6690351523e+00 1.5409681637e+00 2.6690351523e+00 
71900 4.6514706410e+00 6.9769932472e-05 1.5409681637e+00 -2.6690351523e+00 1.5409681637e+00 2.6690351523e+00 
72000 4.6514706412e+00 6.9786930444e-05 1.5409681637e+00 -2.6690351523e+00 1.5409681637e+00 2.6690351523e+00 
72100 4.6514706413e+00 6.9803745077e-05 1.5409681637e+00 -2.6690351523e+00 1.5409681637e+00 2.6690351523e+00 
72200 4.6514706415e+00 6.9820373307e-05 1.5409681637e+00 -2.6690351523e+00 1.5409681637e+00 2.6690351523e+00 
72300 4.6514706416e+00 6.9836812368e-05 1.5409681637e+00 -2.6690351523e+00 1.5409681637e+00 2.6690351523e+00 
72400 4.6514706418e+00 6.9853059774e-05 1.5409681637e+00 -2.6690351523e+00 1.5409681637e+00 2.6690351523e+00 
72500 4.6514706419e+00 6.9869113304e-05 1.5409681637e+00 -2.6690351523e+00 1.5409681637e+00 2.6690351523e+00 
72600 4.6514706421e+00 6.9884970989e-05 1.5409681637e+00 -2.6690351523e+00 1.5409681637e+00 2.6690351523e+00 
72700 4.6514706422e+00 6.9900631093e-05 1.5409681637e+00 -2.6690351523e+00 1.5409681637e+00 2.6690351523e+00 
72800 4.6514706424e+00 6.9916092105e-05 1.5409681637e+00 -2.6690351523e+00 1.5409681637e+00 2.6690351523e+00 
72900 4.6514706425e+00 6.9931352722e-05 1.5409681637e+00 -2.6690351523e+00 1.5409681637e+00 2.6690351523e+00 
73000 4.6514706427e+00 6.9946411844e-05 1.5409681637e+00 -2.6690351523e+00 1.5409681637e+00 2.6690351523e+00 
73100 4.6514706428e+00 6.9961268555e-05 1.5409681637e+00 -2.6690351523e+00 1.5409681637e+00 2.6690351523e+00 
73200 4.6514706429e+00 6.9975922118e-05 1.5409681637e+00 -2.6690351523e+00 1.5409681637e+00 2.6690351523e+00 
73300 4.6514706431e+00 6.9990371966e-05 1.5409681637e+00 -2.6690351523e+00 1.5409681637e+00 2.6690351523e+00 
73400 4.6514706432e+00 7.0004617688e-05 1.5409681637e+00 -2.6690351523e+00 1.5409681637e+00 2.6690351523e+00 
73500 4.6514706434e+00 7.0018659024e-05 1.5409681637e+00 -2.6690351523e+00 1.5409681637e+00 2.6690351523e+00 
73600 4.6514706435e+00 7.0032495858e-05 1.5409681637e+00 -2.6690351523e+00 1.5409681637e+00 2.6690351523e+00 
73700 4.6514706436e+00 7.0046128206e-05 1.5409681637e+00 -2.6690351523e+00 1.5409681637e+00 2.6690351523e+00 
73800 4.6514706437e+00 7.0059556213e-05 1.5409681637e+00 -2.6690351523e+00 1.5409681637e+00 2.6690351523e+00 
73900 4.6514706439e+00 7.0072780144e-05 1.5409681637e+00 -2.6690351523e+00 1.5409681637e+00 2.6690351523e+00 
74000 4.6514706440e+00 7.0085800377e-05 1.5409681637e+00 -2.6690351523e+00 1.5409681637e+00 2.6690351523e+00 
74100 4.6514706441e+00 7.0098617398e-05 1.5409681637e+00 -2.6690351523e+00 1.5409681637e+00 2.6690351523e+00 
74200 4.6514706442e+00 7.0111231794e-05 1.5409681637e+00 -2.6690351523e+00 1.5409681637e+00 2.6690351523e+00 
74300 4.6514706443e+00 7.0123644251e-05 1.5409681637e+00 -2.6690351523e+00 1.5409681637e+00 2.6690351523e+00 
74400 4.6514706445e+00 7.0135855542e-05 1.5409681637e+00 -2.6690351523e+00 1.5409681637e+00 2.6690351523e+00 
74500 4.6514706446e+00 7.0147866529e-05 1.5409681637e+00 -2.6690351523e+00 1.5409681637e+00 2.6690351523e+00 
74600 4.6514706447e+00 7.0159678153e-05 1.5409681637e+00 -2.6690351523e+00 1.5409681637e+00 2.6690351523e+00 
74700 4.6514706448e+00 7.0171291433e-05 1.5409681637e+00 -2.6690351523e+00 1.5409681637e+00 2.6690351523e+00 
74800 4.6514706449e+00 7.0182707459e-05 1.5409681637e+00 -2.6690351523e+00 1.5409681637e+00 2.6690351523e+00 
74900 4.6514706450e+00 7.0193927390e-05 1.5409681637e+00 -2.6690351523e+00 1.5409681637e+00 2.6690351523e+00 
75000 4.6514706451e+00 7.0204952448e-05 1.5409681637e+00 -2.6690351523e+00 1.5409681637e+00 2.6690351523e+00 
75100 4.6514706452e+00 7.0215783918e-05 1.5409681637e+00 -2.6690351523e+00 1.5409681637e+00 2.6690351523e+00 
75200 4.6514706453e+00 7.0226423137e-05 1.5409681637e+00 -2.6690351523e+00 1.5409681637e+00 2.6690351523e+00 
75300 4.6514706454e+00 7.0236871500e-05 1.5409681637e+00 -2.6690351523e+00 1.5409681637e+00 2.6690351523e+00 
75400 4.6514706455e+00 7.0247130450e-05 1.5409681637e+00 -2.6690351523e+00 1.5409681637e+00 2.6690351523e+00 
75500 4.6514706456e+00 7.0257201476e-05 1.5409681637e+00 -2.6690351523e+00 1.5409681637e+00 2.6690351523e+00 
75600 4.6514706457e+00 7.0267086112e-05 1.5409681637e+00 -2.6690351523e+00 1.5409681637e+00 2.6690351523e+00 
75700 4.6514706458e+00 7.0276785934e-05 1.5409681637e+00 -2.6690351523e+00 1.5409681637e+00 2.6690351523e+00 
75800 4.6514706459e+00 7.0286302553e-05 1.5409681637e+00 -2.6690351523e+00 1.5409681637e+00 2.6690351523e+00 
75900 4.6514706460e+00 7.0295637620e-05 1.5409681637e+00 -2.6690351523e+00 1.5409681637e+00 2.6690351523e+00 
76000 4.6514706461e+00 7.0304792815e-05 1.5409681637e+00 -2.6690351523e+00 1.5409681637e+00 2.6690351523e+00 
76100 4.6514706462e+00 7.0313769850e-05 1.5409681637e+00 -2.6690351523e+00 1.5409681637e+00 2.6690351523e+00 
76200 4.6514706463e+00 7.0322570468e-05 1.5409681637e+00 -2.6690351523e+00 1.5409681637e+00 2.6690351523e+00 
76300 4.6514706464e+00 7.0331196433e-05 1.5409681637e+00 -2.6690351523e+00 1.5409681637e+00 2.6690351523e+00 
76400 4.6514706464e+00 7.0339649537e-05 1.5409681637e+00 -2.6690351523e+00 1.5409681637e+00 2.6690351523e+00 
76500 4.6514706465e+00 7.0347931592e-05 1.5409681637e+00 -2.6690351523e+00 1.5409681637e+00 2.6690351523e+00 
76600 4.6514706466e+00 7.0356044431e-05 1.5409681637e+00 -2.6690351523e+00 1.5409681637e+00 2.6690351523e+00 
76700 4.6514706467e+00 7.0363989904e-05 1.5409681637e+00 -2.6690351523e+00 1.5409681637e+00 2.6690351523e+00 
76800 4.6514706468e+00 7.0371769878e-05 1.5409681637e+00 -2.6690351523e+00 1.5409681637e+00 2.6690351523e+00 
76900 4.6514706469e+00 7.0379386234e-05 1.5409681637e+00 -2.6690351523e+00 1.5409681637e+00 2.6690351523e+00 
77000 4.6514706469e+00 7.0386840866e-05 1.5409681637e+00 -2.6690351523e+00 1.5409681637e+00 2.6690351523e+00 
77100 4.6514706470e+00 7.0394135679e-05 1.5409681637e+00 -2.6690351523e+00 1.5409681637e+00 2.6690351523e+00 
77200 4.6514706471e+00 7.0401272588e-05 1.5409681637e+00 -2.6690351523e+00 1.5409681637e+00 2.6690351523e+00 
77300 4.6514706472e+00 7.0408253516e-05 1.5409681637e+00 -2.6690351523e+00 1.5409681637e+00 2.6690351523e+00 
77400 4.6514706472e+00 7.0415080392e-05 1.5409681637e+00 -2.6690351523e+00 1.5409681637e+00 2.6690351523e+00 
77500 4.6514706473e+00 7.0421755152e-05 1.5409681637e+00 -2.6690351523e+00 1.5409681637e+00 2.6690351523e+00 
77600 4.6514706474e+00 7.0428279736e-05 1.5409681637e+00 -2.6690351523e+00 1.5409681637e+00 2.6690351523e+00 
77700 4.6514706475e+00 7.0434656085e-05 1.5409681637e+00 -2.6690351523e+00 1.5409681637e+00 2.6690351523e+00 
77800 4.6514706475e+00 7.0440886143e-05 1.5409681637e+00 -2.6690351523e+00 1.5409681637e+00 2.6690351523e+00 
77900 4.6514706476e+00 7.0446971855e-05 1.5409681637e+00 -2.6690351523e+00 1.5409681637e+00 2.6690351523e+00 
78000 4.6514706477e+00 7.0452915165e-05 1.5409681637e+00 -2.6690351523e+00 1.5409681637e+00 2.6690351523e+00 
78100 4.6514706477e+00 7.0458718014e-05 1.5409681637e+00 -2.6690351523e+00 1.5409681637e+00 2.6690351523e+00 
78200 4.6514706478e+00 7.0464382344e-05 1.5409681637e+00 -2.6690351523e+00 1.5409681637e+00 2.6690351523e+00 
78300 4.6514706479e+00 7.0469910089e-05 1.5409681637e+00 -2.6690351523e+00 1.5409681637e+00 2.6690351523e+00 
78400 4.6514706479e+00 7.0475303181e-05 1.5409681637e+00 -2.6690351523e+00 1.5409681637e+00 2.6690351523e+00 
78500 4.6514706480e+00 7.0480563547e-05 1.5409681637e+00 -2.6690351523e+00 1.5409681637e+00 2.6690351523e+00 
78600 4.6514706481e+00 7.0485693107e-05 1.5409681637e+00 -2.6690351523e+00 1.5409681637e+00 2.6690351523e+00 
78700 4.6514706481e+00 7.0490693774e-05 1.5409681637e+00 -2.6690351523e+00 1.5409681637e+00 2.6690351523e+00 
78800 4.6514706482e+00 7.0495567452e-05 1.5409681637e+00 -2.6690351523e+00 1.5409681637e+00 2.6690351523e+00 
78900 4.6514706483e+00 7.0500316041e-05 1.5409681637e+00 -2.6690351523e+00 1.5409681637e+00 2.6690351523e+00 
79000 4.6514706483e+00 7.0504941425e-05 1.5409681637e+00 -2.6690351523e+00 1.5409681637e+00 2.6690351523e+00 
79100 4.6514706484e+00 7.0509445484e-05 1.5409681637e+00 -2.6690351523e+00 1.5409681637e+00 2.6690351523e+00 
79200 4.6514706484e+00 7.0513830086e-05 1.5409681637e+00 -2.6690351523e+00 1.5409681637e+00 2.6690351523e+00 
79300 4.6514706485e+00 7.0518097086e-05 1.5409681637e+00 -2.6690351523e+00 1.5409681637e+00 2.6690351523e+00 
79400 4.6514706485e+00 7.0522248330e-05 1.5409681637e+00 -2.6690351523e+00 1.5409681637e+00 2.6690351523e+00 
79500 4.6514706486e+00 7.0526285650e-05 1.5409681637e+00 -2.6690351523e+00 1.5409681637e+00 2.6690351523e+00 
79600 4.6514706487e+00 7.0530210866e-05 1.5409681637e+00 -2.6690351523e+00 1.5409681637e+00 2.6690351523e+00 
79700 4.6514706487e+00 7.0534025786e-05 1.5409681637e+00 -2.6690351523e+00 1.5409681637e+00 2.6690351523e+00 
79800 4.6514706488e+00 7.0537732202e-05 1.5409681637e+00 -2.6690351523e+00 1.5409681637e+00 2.6690351523e+00 
79900 4.6514706488e+00 7.0541331895e-05 1.5409681637e+00 -2.6690351523e+00 1.5409681637e+00 2.6690351523e+00 
80000 4.6514706489e+00 7.0544826630e-05 1.5409681637e+00 -2.6690351523e+00 1.5409681637e+00 2.6690351523e+00 
80100 4.6514706489e+00 7.0548218156e-05 1.5409681637e+00 -2.6690351523e+00 1.5409681637e+00 2.6690351523e+00 
80200 4.6514706490e+00 7.0551508211e-05 1.5409681637e+00 -2.6690351523e+00 1.5409681637e+00 2.6690351523e+00 
80300 4.6514706490e+00 7.0552988035e-05 1.5409681637e+00 -2.6690351523e+00 1.5409681637e+00 2.6690351523e+00 
80300 4.6514706490e+00 7.0552988035e-05 1.5409681637e+00 -2.6690351523e+00 1.5409681637e+00 2.6690351523e+00 
