# step Hamiltonian StressXX CellTensor1 CellTensor2 CellTensor3 CellTensor4 
0 6.0773334541e+00 -3.9703022967e-03 1.6122881582e+00 -2.7925650064e+00 1.6122881582e+00 2.7925650064e+00 
100 6.0739126268e+00 -2.4410217201e-03 1.6122881582e+00 -2.7925650064e+00 1.6122881582e+00 2.7925650064e+00 
200 6.0706074266e+00 -9.2902011190e-04 1.6123638593e+00 -2.7926961246e+00 1.6123638593e+00 2.7926961246e+00 
300 6.0674146333e+00 4.3703252808e-04 1.6123926687e+00 -2.7927460239e+00 1.6123926687e+00 2.7927460239e+00 
400 6.0643306947e+00 1.6633444978e-03 1.6123791164e+00 -2.7927225506e+00 1.6123791164e+00 2.7927225506e+00 
500 6.0613523278e+00 2.7560579788e-03 1.6123275362e+00 -2.7926332112e+00 1.6123275362e+00 2.7926332112e+00 
600 6.0584764832e+00 3.7212397687e-03 1.6122420687e+00 -2.7924851770e+00 1.6122420687e+00 2.7924851770e+00 
700 6.0557003124e+00 4.5648724472e-03 1.6121266643e+00 -2.7922852908e+00 1.6121266643e+00 2.7922852908e+00 
800 6.0530211390e+00 5.2928460062e-03 1.6119850872e+00 -2.7920400720e+00 1.6119850872e+00 2.7920400720e+00 
900 6.0504364325e+00 5.9109499780e-03 1.6118209183e+00 -2.7917557231e+00 1.6118209183e+00 2.7917557231e+00 
1000 6.0479437858e+00 6.4248660847e-03 1.6116375593e+00 -2.7914381360e+00 1.6116375593e+00 2.7914381360e+00 
1100 6.0455408950e+00 6.8401614329e-03 1.6114382361e+00 -2.7910928982e+00 1.6114382361e+00 2.7910928982e+00 
1200 6.0432255415e+00 7.1622822724e-03 1.6112260030e+00 -2.7907252996e+00 1.6112260030e+00 2.7907252996e+00 
1300 6.0409955768e+00 7.3965483315e-03 1.6110037462e+00 -2.7903403396e+00 1.6110037462e+00 2.7903403396e+00 
1400 6.0388489091e+00 7.5481477396e-03 1.6107741883e+00 -2.7899427337e+00 1.6107741883e+00 2.7899427337e+00 
1500 6.0367834922e+00 7.6221325415e-03 1.6105398921e+00 -2.7895369208e+00 1.6105398921e+00 2.7895369208e+00 
1600 6.0347973156e+00 7.6234148037e-03 1.6103032651e+00 -2.7891270707e+00 1.6103032651e+00 2.7891270707e+00 
1700 6.0328883967e+00 7.5567633096e-03 1.6100665635e+00 -2.7887170915e+00 1.6100665635e+00 2.7887170915e+00 
1800 6.0310547741e+00 7.4268008346e-03 1.6098318968e+00 -2.7883106369e+00 1.6098318968e+00 2.7883106369e+00 
1900 6.0292945025e+00 7.2380019913e-03 1.6096012322e+00 -2.7879111141e+00 1.6096012322e+00 2.7879111141e+00 
2000 6.0276056485e+00 6.9946916277e-03 1.6093763991e+00 -2.7875216917e+00 1.6093763991e+00 2.7875216917e+00 
2100 6.0259862874e+00 6.7010437611e-03 1.6091590934e+00 -2.7871453072e+00 1.6091590934e+00 2.7871453072e+00 
2200 6.0244345013e+00 6.3610810262e-03 1.6089508822e+00 -2.7867846748e+00 1.6089508822e+00 2.7867846748e+00 
2300 6.0229483779e+00 5.9786746138e-03 1.6087532083e+00 -2.7864422936e+00 1.6087532083e+00 2.7864422936e+00 
2400 6.0215260093e+00 5.5575446737e-03 1.6085673949e+00 -2.7861204553e+00 1.6085673949e+00 2.7861204553e+00 
2500 6.0201654928e+00 5.1012611552e-03 1.6083946497e+00 -2.7858212519e+00 1.6083946497e+00 2.7858212519e+00 
2600 6.0188649309e+00 4.6132450549e-03 1.6082360699e+00 -2.7855465836e+00 1.6082360699e+00 2.7855465836e+00 
2700 6.0176224324e+00 4.0967700424e-03 1.6080926464e+00 -2.7852981669e+00 1.6080926464e+00 2.7852981669e+00 
2800 6.0164361140e+00 3.5549644339e-03 1.6079652683e+00 -2.7850775415e+00 1.6079652683e+00 2.7850775415e+00 
2900 6.0153041019e+00 2.9908134811e-03 1.6078547272e+00 -2.7848860788e+00 1.6078547272e+00 2.7848860788e+00 
3000 6.0142245334e+00 2.4071619448e-03 1.6077617218e+00 -2.7847249886e+00 1.6077617218e+00 2.7847249886e+00 
3100 6.0131955596e+00 1.8067169237e-03 1.6076868617e+00 -2.7845953272e+00 1.6076868617e+00 2.7845953272e+00 
3200 6.0122153472e+00 1.1920509056e-03 1.6076306721e+00 -2.7844980039e+00 1.6076306721e+00 2.7844980039e+00 
3300 6.0112820811e+00 5.6560501267e-04 1.6075935975e+00 -2.7844337887e+00 1.6075935975e+00 2.7844337887e+00 
3400 6.0103939665e+00 -7.0307587911e-05 1.6075760058e+00 -2.7844033191e+00 1.6075760058e+00 2.7844033191e+00 
3500 6.0095492357e+00 -7.1626061298e-04 1.6075760058e+00 -2.7844033191e+00 1.6075760058e+00 2.7844033191e+00 
3600 6.0087461383e+00 -1.3645728587e-03 1.6075982836e+00 -2.7844419053e+00 1.6075982836e+00 2.7844419053e+00 
3700 6.0079829557e+00 -2.0161464012e-03 1.6076407251e+00 -2.7845154162e+00 1.6076407251e+00 2.7845154162e+00 
3800 6.0072579993e+00 -2.6691433980e-03 1.6077034306e+00 -2.7846240253e+00 1.6077034306e+00 2.7846240253e+00 
3900 6.0065696122e+00 -3.3218353547e-03 1.6077864424e+00 -2.7847678060e+00 1.6077864424e+00 2.7847678060e+00 
4000 6.0059161720e+00 -3.9725992590e-03 1.6078897481e+00 -2.7849467367e+00 1.6078897481e+00 2.7849467367e+00 
4100 6.0052960922e+00 -4.6199137143e-03 1.6080132843e+00 -2.7851607076e+00 1.6080132843e+00 2.7851607076e+00 
4200 6.0047078244e+00 -5.2623550893e-03 1.6081569393e+00 -2.7854095253e+00 1.6081569393e+00 2.7854095253e+00 
4300 6.0041498593e+00 -5.8985937003e-03 1.6083205565e+00 -2.7856929187e+00 1.6083205565e+00 2.7856929187e+00 
4400 6.0036207290e+00 -6.5273900394e-03 1.6085039374e+00 -2.7860105438e+00 1.6085039374e+00 2.7860105438e+00 
4500 6.0031190076e+00 -7.1475910615e-03 1.6087068442e+00 -2.7863619887e+00 1.6087068442e+00 2.7863619887e+00 
4600 6.0026433126e+00 -7.7581265409e-03 1.6089290026e+00 -2.7867467783e+00 1.6089290026e+00 2.7867467783e+00 
4700 6.0021923060e+00 -8.3580055070e-03 1.6091701046e+00 -2.7871643793e+00 1.6091701046e+00 2.7871643793e+00 
4800 6.0017646948e+00 -8.9463127671e-03 1.6094298109e+00 -2.7876142037e+00 1.6094298109e+00 2.7876142037e+00 
4900 6.0013592318e+00 -9.5222055235e-03 1.6097077531e+00 -2.7880956137e+00 1.6097077531e+00 2.7880956137e+00 
5000 6.0009747159e+00 -1.0084910090e-02 1.6100035365e+00 -2.7886079256e+00 1.6100035365e+00 2.7886079256e+00 
5100 6.0006099926e+00 -1.0633718710e-02 1.6103167420e+00 -2.7891504133e+00 1.6103167420e+00 2.7891504133e+00 
5200 6.0002639541e+00 -1.1167986489e-02 1.6106469280e+00 -2.7897223123e+00 1.6106469280e+00 2.7897223123e+00 
5300 5.9999355388e+00 -1.1687128424e-02 1.6109936330e+00 -2.7903228230e+00 1.6109936330e+00 2.7903228230e+00 
5400 5.9996237320e+00 -1.2190616558e-02 1.6113563770e+00 -2.7909511141e+00 1.6113563770e+00 2.7909511141e+00 
5500 5.9993275646e+00 -1.2677977232e-02 1.6117346637e+00 -2.7916063259e+00 1.6117346637e+00 2.7916063259e+00 
5600 5.9990461135e+00 -1.3148788460e-02 1.6121279820e+00 -2.7922875731e+00 1.6121279820e+00 2.7922875731e+00 
5700 5.9987785004e+00 -1.3602677406e-02 1.6125358076e+00 -2.7929939478e+00 1.6125358076e+00 2.7929939478e+00 
5800 5.9985238915e+00 -1.4039317975e-02 1.6129576051e+00 -2.7937245224e+00 1.6129576051e+00 2.7937245224e+00 
5900 5.9982814966e+00 -1.4458428504e-02 1.6133928288e+00 -2.7944783521e+00 1.6133928288e+00 2.7944783521e+00 
6000 5.9980505682e+00 -1.4859769563e-02 1.6138409248e+00 -2.7952544771e+00 1.6138409248e+00 2.7952544771e+00 
6100 5.9978304002e+00 -1.5243141858e-02 1.6143013319e+00 -2.7960519256e+00 1.6143013319e+00 2.7960519256e+00 
6200 5.9976203274e+00 -1.5608384228e-02 1.6147734831e+00 -2.7968697154e+00 1.6147734831e+00 2.7968697154e+00 
6300 5.9974197241e+00 -1.5955371736e-02 1.6152568067e+00 -2.7977068564e+00 1.6152568067e+00 2.7977068564e+00 
6400 5.9972280026e+00 -1.6284013860e-02 1.6157507276e+00 -2.7985623526e+00 1.6157507276e+00 2.7985623526e+00 
6500 5.9970446125e+00 -1.6594252759e-02 1.6162546686e+00 -2.7994352040e+00 1.6162546686e+00 2.7994352040e+00 
6600 5.9968690390e+00 -1.6886061630e-02 1.6167680509e+00 -2.8003244083e+00 1.6167680509e+00 2.8003244083e+00 
6700 5.9967008014e+00 -1.7159443147e-02 1.6172902956e+00 -2.8012289626e+00 1.6172902956e+00 2.8012289626e+00 
6800 5.9965394524e+00 -1.7414427967e-02 1.6178208244e+00 -2.8021478654e+00 1.6178208244e+00 2.8021478654e+00 
6900 5.9963845760e+00 -1.7651073314e-02 1.6183590605e+00 -2.8030801177e+00 1.6183590605e+00 2.8030801177e+00 
7000 5.9962357863e+00 -1.7869461628e-02 1.6189044298e+00 -2.8040247249e+00 1.6189044298e+00 2.8040247249e+00 
7100 5.9960927262e+00 -1.8069699281e-02 1.6194563609e+00 -2.8049806978e+00 1.6194563609e+00 2.8049806978e+00 
7200 5.9959550659e+00 -1.8251915347e-02 1.6200142869e+00 -2.8059470540e+00 1.6200142869e+00 2.8059470540e+00 
7300 5.9958225013e+00 -1.8416260431e-02 1.6205776453e+00 -2.8069228193e+00 1.6205776453e+00 2.8069228193e+00 
7400 5.9956947529e+00 -1.8562905553e-02 1.6211458790e+00 -2.8079070289e+00 1.6211458790e+00 2.8079070289e+00 
7500 5.9955715639e+00 -1.8692041078e-02 1.6217184369e+00 -2.8088987283e+00 1.6217184369e+00 2.8088987283e+00 
7600 5.9954526994e+00 -1.8803875691e-02 1.6222947746e+00 -2.8098969744e+00 1.6222947746e+00 2.8098969744e+00 
7700 5.9953379446e+00 -1.8898635416e-02 1.6228743547e+00 -2.8109008366e+00 1.6228743547e+00 2.8109008366e+00 
7800 5.9952271035e+00 -1.8976562675e-02 1.6234566476e+00 -2.8119093975e+00 1.6234566476e+00 2.8119093975e+00 
7900 5.9951199979e+00 -1.9037915380e-02 1.6240411320e+00 -2.8129217541e+00 1.6240411320e+00 2.8129217541e+00 
8000 5.9950164655e+00 -1.9082966065e-02 1.6246272951e+00 -2.8139370184e+00 1.6246272951e+00 2.8139370184e+00 
8100 5.9949163595e+00 -1.9112001040e-02 1.6252146333e+00 -2.8149543181e+00 1.6252146333e+00 2.8149543181e+00 
8200 5.9948195467e+00 -1.9125319585e-02 1.6258026527e+00 -2.8159727975e+00 1.6258026527e+00 2.8159727975e+00 
8300 5.9947259065e+00 -1.9123233159e-02 1.6263908690e+00 -2.8169916180e+00 1.6263908690e+00 2.8169916180e+00 
8400 5.9946353301e+00 -1.9106064643e-02 1.6269788084e+00 -2.8180099589e+00 1.6269788084e+00 2.8180099589e+00 
8500 5.9945477191e+00 -1.9074147602e-02 1.6275660076e+00 -2.8190270178e+00 1.6275660076e+00 2.8190270178e+00 
8600 5.9944629846e+00 -1.9027825564e-02 1.6281520143e+00 -2.8200420112e+00 1.6281520143e+00 2.8200420112e+00 
8700 5.9943810462e+00 -1.8967451325e-02 1.6287363873e+00 -2.8210541750e+00 1.6287363873e+00 2.8210541750e+00 
8800 5.9943018311e+00 -1.8893386271e-02 1.6293186971e+00 -2.8220627650e+00 1.6293186971e+00 2.8220627650e+00 
8900 5.9942252733e+00 -1.8805999707e-02 1.6298985255e+00 -2.8230670574e+00 1.6298985255e+00 2.8230670574e+00 
9000 5.9941513126e+00 -1.8705668216e-02 1.6304754666e+00 -2.8240663486e+00 1.6304754666e+00 2.8240663486e+00 
9100 5.9940798941e+00 -1.8592775023e-02 1.6310491264e+00 -2.8250599566e+00 1.6310491264e+00 2.8250599566e+00 
9200 5.9940109672e+00 -1.8467709373e-02 1.6316191233e+00 -2.8260472201e+00 1.6316191233e+00 2.8260472201e+00 
9300 5.9939444851e+00 -1.8330865925e-02 1.6321850880e+00 -2.8270274997e+00 1.6321850880e+00 2.8270274997e+00 
9400 5.9938804040e+00 -1.8182644157e-02 1.6327466639e+00 -2.8280001777e+00 1.6327466639e+00 2.8280001777e+00 
9500 5.9938186828e+00 -1.8023447777e-02 1.6333035071e+00 -2.8289646584e+00 1.6333035071e+00 2.8289646584e+00 
9600 5.9937592826e+00 -1.7853684158e-02 1.6338552864e+00 -2.8299203682e+00 1.6338552864e+00 2.8299203682e+00 
9700 5.9937021656e+00 -1.7673763768e-02 1.6344016836e+00 -2.8308667559e+00 1.6344016836e+00 2.8308667559e+00 
9800 5.9936472956e+00 -1.7484099618e-02 1.6349423933e+00 -2.8318032927e+00 1.6349423933e+00 2.8318032927e+00 
9900 5.9935946369e+00 -1.7285106727e-02 1.6354771232e+00 -2.8327294721e+00 1.6354771232e+00 2.8327294721e+00 
10000 5.9935441542e+00 -1.7077201579e-02 1.6360055940e+00 -2.8336448103e+00 1.6360055940e+00 2.8336448103e+00 
10100 5.9934958122e+00 -1.6860801608e-02 1.6365275393e+00 -2.8345488461e+00 1.6365275393e+00 2.8345488461e+00 
10200 5.9934495757e+00 -1.6636324681e-02 1.6370427059e+00 -2.8354411408e+00 1.6370427059e+00 2.8354411408e+00 
10300 5.9934054088e+00 -1.6404188596e-02 1.6375508535e+00 -2.8363212782e+00 1.6375508535e+00 2.8363212782e+00 
10400 5.9933632751e+00 -1.6164810590e-02 1.6380517547e+00 -2.8371888646e+00 1.6380517547e+00 2.8371888646e+00 
10500 5.9933231373e+00 -1.5918606853e-02 1.6385451952e+00 -2.8380435286e+00 1.6385451952e+00 2.8380435286e+00 
10600 5.9932849575e+00 -1.5665992058e-02 1.6390309735e+00 -2.8388849212e+00 1.6390309735e+00 2.8388849212e+00 
10700 5.9932486964e+00 -1.5407378894e-02 1.6395089008e+00 -2.8397127156e+00 1.6395089008e+00 2.8397127156e+00 
10800 5.9932143139e+00 -1.5143177617e-02 1.6399788011e+00 -2.8405266068e+00 1.6399788011e+00 2.8405266068e+00 
10900 5.9931817686e+00 -1.4873795607e-02 1.6404405110e+00 -2.8413263118e+00 1.6404405110e+00 2.8413263118e+00 
11000 5.9931510180e+00 -1.4599636940e-02 1.6408938794e+00 -2.8421115690e+00 1.6408938794e+00 2.8421115690e+00 
11100 5.9931220184e+00 -1.4321101965e-02 1.6413387679e+00 -2.8428821385e+00 1.6413387679e+00 2.8428821385e+00 
11200 5.9930947249e+00 -1.4038586896e-02 1.6417750501e+00 -2.8436378014e+00 1.6417750501e+00 2.8436378014e+00 
11300 5.9930690917e+00 -1.3752483423e-02 1.6422026116e+00 -2.8443783596e+00 1.6422026116e+00 2.8443783596e+00 
11400 5.9930450717e+00 -1.3463178320e-02 1.6426213500e+00 -2.8451036359e+00 1.6426213500e+00 2.8451036359e+00 
11500 5.9930226168e+00 -1.3171053080e-02 1.6430311748e+00 -2.8458134732e+00 1.6430311748e+00 2.8458134732e+00 
11600 5.9930016782e+00 -1.2876483554e-02 1.6434320068e+00 -2.8465077345e+00 1.6434320068e+00 2.8465077345e+00 
11700 5.9929822061e+00 -1.2579839605e-02 1.6438237782e+00 -2.8471863026e+00 1.6438237782e+00 2.8471863026e+00 
11800 5.9929641499e+00 -1.2281484780e-02 1.6442064326e+00 -2.8478490794e+00 1.6442064326e+00 2.8478490794e+00 
11900 5.9929474585e+00 -1.1981775987e-02 1.6445799243e+00 -2.8484959861e+00 1.6445799243e+00 2.8484959861e+00 
12000 5.9929320804e+00 -1.1681063195e-02 1.6449442185e+00 -2.8491269621e+00 1.6449442185e+00 2.8491269621e+00 
12100 5.9929179633e+00 -1.1379689139e-02 1.6452992908e+00 -2.8497419654e+00 1.6452992908e+00 2.8497419654e+00 
12200 5.9929050550e+00 -1.1077989051e-02 1.6456451273e+00 -2.8503409716e+00 1.6456451273e+00 2.8503409716e+00 
12300 5.9928933030e+00 -1.0776290392e-02 1.6459817237e+00 -2.8509239738e+00 1.6459817237e+00 2.8509239738e+00 
12400 5.9928826548e+00 -1.0474912609e-02 1.6463090860e+00 -2.8514909820e+00 1.6463090860e+00 2.8514909820e+00 
12500 5.9928730581e+00 -1.0174166903e-02 1.6466272295e+00 -2.8520420226e+00 1.6466272295e+00 2.8520420226e+00 
12600 5.9928644606e+00 -9.8743560148e-03 1.6469361787e+00 -2.8525771384e+00 1.6469361787e+00 2.8525771384e+00 
12700 5.9928568106e+00 -9.5757740197e-03 1.6472359674e+00 -2.8530963876e+00 1.6472359674e+00 2.8530963876e+00 
12800 5.9928500568e+00 -9.2787061451e-03 1.6475266378e+00 -2.8535998435e+00 1.6475266378e+00 2.8535998435e+00 
12900 5.9928441484e+00 -8.9834285996e-03 1.6478082409e+00 -2.8540875943e+00 1.6478082409e+00 2.8540875943e+00 
13000 5.9928390354e+00 -8.6902084180e-03 1.6480808356e+00 -2.8545597422e+00 1.6480808356e+00 2.8545597422e+00 
13100 5.9928346687e+00 -8.3993033225e-03 1.6483444889e+00 -2.8550164032e+00 1.6483444889e+00 2.8550164032e+00 
13200 5.9928309999e+00 -8.1109615991e-03 1.6485992755e+00 -2.8554577064e+00 1.6485992755e+00 2.8554577064e+00 
13300 5.9928279818e+00 -7.8254219896e-03 1.6488452771e+00 -2.8558837938e+00 1.6488452771e+00 2.8558837938e+00 
13400 5.9928255683e+00 -7.5429135992e-03 1.6490825829e+00 -2.8562948194e+00 1.6490825829e+00 2.8562948194e+00 
13500 5.9928237146e+00 -7.2636558190e-03 1.6493112885e+00 -2.8566909491e+00 1.6493112885e+00 2.8566909491e+00 
13600 5.9928223769e+00 -6.9878582651e-03 1.6495314961e+00 -2.8570723599e+00 1.6495314961e+00 2.8570723599e+00 
13700 5.9928215130e+00 -6.7157207310e-03 1.6497433140e+00 -2.8574392393e+00 1.6497433140e+00 2.8574392393e+00 
13800 5.9928210821e+00 -6.4474331567e-03 1.6499468565e+00 -2.8577917853e+00 1.6499468565e+00 2.8577917853e+00 
13900 5.9928210448e+00 -6.1831756121e-03 1.6501422435e+00 -2.8581302054e+00 1.6501422435e+00 2.8581302054e+00 
14000 5.9928213633e+00 -5.9231182945e-03 1.6503295998e+00 -2.8584547161e+00 1.6503295998e+00 2.8584547161e+00 
14100 5.9928220013e+00 -5.6674215413e-03 1.6505090557e+00 -2.8587655427e+00 1.6505090557e+00 2.8587655427e+00 
14200 5.9928229242e+00 -5.4162358563e-03 1.6506807457e+00 -2.8590629186e+00 1.6506807457e+00 2.8590629186e+00 
14300 5.9928240989e+00 -5.1697019503e-03 1.6508448091e+00 -2.8593470848e+00 1.6508448091e+00 2.8593470848e+00 
14400 5.9928254942e+00 -4.9279507950e-03 1.6510013890e+00 -2.8596182892e+00 1.6510013890e+00 2.8596182892e+00 
14500 5.9928270803e+00 -4.6911036901e-03 1.6511506326e+00 -2.8598767865e+00 1.6511506326e+00 2.8598767865e+00 
14600 5.9928288293e+00 -4.4592723434e-03 1.6512926902e+00 -2.8601228376e+00 1.6512926902e+00 2.8601228376e+00 
14700 5.9928307148e+00 -4.2325589633e-03 1.6514277157e+00 -2.8603567086e+00 1.6514277157e+00 2.8603567086e+00 
14800 5.9928327122e+00 -4.0110563638e-03 1.6515558658e+00 -2.8605786712e+00 1.6515558658e+00 2.8605786712e+00 
14900 5.9928347985e+00 -3.7948480802e-03 1.6516773000e+00 -2.8607890013e+00 1.6516773000e+00 2.8607890013e+00 
15000 5.9928369524e+00 -3.5840084978e-03 1.6517921799e+00 -2.8609879792e+00 1.6517921799e+00 2.8609879792e+00 
15100 5.9928391541e+00 -3.3786029894e-03 1.6519006696e+00 -2.8611758888e+00 1.6519006696e+00 2.8611758888e+00 
15200 5.9928413855e+00 -3.1786880647e-03 1.6520029348e+00 -2.8613530173e+00 1.6520029348e+00 2.8613530173e+00 
15300 5.9928436301e+00 -2.9843115293e-03 1.6520991428e+00 -2.8615196545e+00 1.6520991428e+00 2.8615196545e+00 
15400 5.9928458727e+00 -2.7955126524e-03 1.6521894624e+00 -2.8616760926e+00 1.6521894624e+00 2.8616760926e+00 
15500 5.9928480998e+00 -2.6123223441e-03 1.6522740634e+00 -2.8618226258e+00 1.6522740634e+00 2.8618226258e+00 
15600 5.9928502993e+00 -2.4347633413e-03 1.6523531163e+00 -2.8619595495e+00 1.6523531163e+00 2.8619595495e+00 
15700 5.9928524603e+00 -2.2628504010e-03 1.6524267925e+00 -2.8620871604e+00 1.6524267925e+00 2.8620871604e+00 
15800 5.9928545734e+00 -2.0965905008e-03 1.6524952635e+00 -2.8622057556e+00 1.6524952635e+00 2.8622057556e+00 
15900 5.9928566304e+00 -1.9359830473e-03 1.6525587010e+00 -2.8623156326e+00 1.6525587010e+00 2.8623156326e+00 
16000 5.9928586243e+00 -1.7810200897e-03 1.6526172767e+00 -2.8624170887e+00 1.6526172767e+00 2.8624170887e+00 
16100 5.9928605494e+00 -1.6316865401e-03 1.6526711618e+00 -2.8625104205e+00 1.6526711618e+00 2.8625104205e+00 
16200 5.9928624009e+00 -1.4879603984e-03 1.6527205272e+00 -2.8625959238e+00 1.6527205272e+00 2.8625959238e+00 
16300 5.9928641751e+00 -1.3498129823e-03 1.6527655429e+00 -2.8626738933e+00 1.6527655429e+00 2.8626738933e+00 
16400 5.9928658692e+00 -1.2172091618e-03 1.6528063780e+00 -2.8627446218e+00 1.6528063780e+00 2.8627446218e+00 
16500 5.9928674815e+00 -1.0901075967e-03 1.6528432007e+00 -2.8628084005e+00 1.6528432007e+00 2.8628084005e+00 
16600 5.9928690110e+00 -9.6846097789e-04 1.6528761775e+00 -2.8628655181e+00 1.6528761775e+00 2.8628655181e+00 
16700 5.9928704575e+00 -8.5221627129e-04 1.6529054738e+00 -2.8629162608e+00 1.6529054738e+00 2.8629162608e+00 
16800 5.9928718214e+00 -7.4131496347e-04 1.6529312532e+00 -2.8629609120e+00 1.6529312532e+00 2.8629609120e+00 
16900 5.9928731040e+00 -6.3569330948e-04 1.6529536775e+00 -2.8629997521e+00 1.6529536775e+00 2.8629997521e+00 
17000 5.9928743070e+00 -5.3528258158e-04 1.6529729066e+00 -2.8630330577e+00 1.6529729066e+00 2.8630330577e+00 
17100 5.9928754327e+00 -4.4000931880e-04 1.6529890981e+00 -2.8630611023e+00 1.6529890981e+00 2.8630611023e+00 
17200 5.9928764838e+00 -3.4979557664e-04 1.6530024076e+00 -2.8630841551e+00 1.6530024076e+00 2.8630841551e+00 
17300 5.9928774635e+00 -2.6455917667e-04 1.6530129883e+00 -2.8631024813e+00 1.6530129883e+00 2.8631024813e+00 
17400 5.9928783754e+00 -1.8421395534e-04 1.6530209906e+00 -2.8631163417e+00 1.6530209906e+00 2.8631163417e+00 
17500 5.9928792232e+00 -1.0867001185e-04 1.6530265627e+00 -2.8631259928e+00 1.6530265627e+00 2.8631259928e+00 
17600 5.9928800111e+00 -3.7833954422e-05 1.6530298497e+00 -2.8631316860e+00 1.6530298497e+00 2.8631316860e+00 
17700 5.9928807433e+00 2.6973617299e-05 1.6530298497e+00 -2.8631316860e+00 1.6530298497e+00 2.8631316860e+00 
17800 5.9928814244e+00 8.9740391977e-05 1.6530298497e+00 -2.8631316860e+00 1.6530298497e+00 2.8631316860e+00 
17900 5.9928820589e+00 1.4705527280e-04 1.6530271352e+00 -2.8631269845e+00 1.6530271352e+00 2.8631269845e+00 
18000 5.9928826515e+00 2.0006554450e-04 1.6530226872e+00 -2.8631192803e+00 1.6530226872e+00 2.8631192803e+00 
18100 5.9928832068e+00 2.4887845591e-04 1.6530166357e+00 -2.8631087987e+00 1.6530166357e+00 2.8631087987e+00 
18200 5.9928837295e+00 2.9360332048e-04 1.6530091077e+00 -2.8630957599e+00 1.6530091077e+00 2.8630957599e+00 
18300 5.9928842243e+00 3.3435129075e-04 1.6530002268e+00 -2.8630803777e+00 1.6530002268e+00 2.8630803777e+00 
18400 5.9928846956e+00 3.7123513698e-04 1.6529901133e+00 -2.8630628607e+00 1.6529901133e+00 2.8630628607e+00 
18500 5.9928851481e+00 4.0436903023e-04 1.6529788842e+00 -2.8630434112e+00 1.6529788842e+00 2.8630434112e+00 
18600 5.9928855861e+00 4.3386833019e-04 1.6529666526e+00 -2.8630222256e+00 1.6529666526e+00 2.8630222256e+00 
18700 5.9928860137e+00 4.5984937795e-04 1.6529535287e+00 -2.8629994943e+00 1.6529535287e+00 2.8629994943e+00 
18800 5.9928864350e+00 4.8242929386e-04 1.6529396188e+00 -2.8629754017e+00 1.6529396188e+00 2.8629754017e+00 
18900 5.9928868539e+00 5.0172578075e-04 1.6529250258e+00 -2.8629501257e+00 1.6529250258e+00 2.8629501257e+00 
19000 5.9928872739e+00 5.1785693268e-04 1.6529098489e+00 -2.8629238386e+00 1.6529098489e+00 2.8629238386e+00 
19100 5.9928876986e+00 5.3094104926e-04 1.6528941839e+00 -2.8628967061e+00 1.6528941839e+00 2.8628967061e+00 
19200 5.9928881312e+00 5.4109645586e-04 1.6528781230e+00 -2.8628688877e+00 1.6528781230e+00 2.8628688877e+00 
19300 5.9928885746e+00 5.4844132970e-04 1.6528617547e+00 -2.8628405370e+00 1.6528617547e+00 2.8628405370e+00 
19400 5.9928890315e+00 5.5309353185e-04 1.6528451641e+00 -2.8628118012e+00 1.6528451641e+00 2.8628118012e+00 
19500 5.9928895045e+00 5.5517044552e-04 1.6528284325e+00 -2.8627828214e+00 1.6528284325e+00 2.8627828214e+00 
19600 5.9928899958e+00 5.5478882033e-04 1.6528116380e+00 -2.8627537324e+00 1.6528116380e+00 2.8627537324e+00 
19700 5.9928905073e+00 5.5206462297e-04 1.6527948549e+00 -2.8627246631e+00 1.6527948549e+00 2.8627246631e+00 
19800 5.9928910408e+00 5.4711289401e-04 1.6527781539e+00 -2.8626957363e+00 1.6527781539e+00 2.8626957363e+00 
19900 5.9928915978e+00 5.4004761105e-04 1.6527616027e+00 -2.8626670686e+00 1.6527616027e+00 2.8626670686e+00 
20000 5.9928921794e+00 5.3098155820e-04 1.6527452650e+00 -2.8626387709e+00 1.6527452650e+00 2.8626387709e+00 
20100 5.9928927868e+00 5.2002620184e-04 1.6527292014e+00 -2.8626109479e+00 1.6527292014e+00 2.8626109479e+00 
20200 5.9928934206e+00 5.0729157271e-04 1.6527134690e+00 -2.8625836987e+00 1.6527134690e+00 2.8625836987e+00 
20300 5.9928940813e+00 4.9288615422e-04 1.6526981218e+00 -2.8625571166e+00 1.6526981218e+00 2.8625571166e+00 
20400 5.9928947693e+00 4.7691677704e-04 1.6526832103e+00 -2.8625312890e+00 1.6526832103e+00 2.8625312890e+00 
20500 5.9928954848e+00 4.5948851990e-04 1.6526687817e+00 -2.8625062981e+00 1.6526687817e+00 2.8625062981e+00 
20600 5.9928962274e+00 4.4070461648e-04 1.6526548804e+00 -2.8624822201e+00 1.6526548804e+00 2.8624822201e+00 
20700 5.9928969971e+00 4.2066636840e-04 1.6526415471e+00 -2.8624591263e+00 1.6526415471e+00 2.8624591263e+00 
20800 5.9928977932e+00 3.9947306417e-04 1.6526288201e+00 -2.8624370824e+00 1.6526288201e+00 2.8624370824e+00 
20900 5.9928986153e+00 3.7722190412e-04 1.6526167341e+00 -2.8624161489e+00 1.6526167341e+00 2.8624161489e+00 
21000 5.9928994624e+00 3.5400793105e-04 1.6526053212e+00 -2.8623963812e+00 1.6526053212e+00 2.8623963812e+00 
21100 5.9929003336e+00 3.2992396670e-04 1.6525946106e+00 -2.8623778300e+00 1.6525946106e+00 2.8623778300e+00 
21200 5.9929012278e+00 3.0506055379e-04 1.6525846287e+00 -2.8623605406e+00 1.6525846287e+00 2.8623605406e+00 
21300 5.9929021439e+00 2.7950590352e-04 1.6525753989e+00 -2.8623445542e+00 1.6525753989e+00 2.8623445542e+00 
21400 5.9929030806e+00 2.5334584852e-04 1.6525669422e+00 -2.8623299068e+00 1.6525669422e+00 2.8623299068e+00 
21500 5.9929040364e+00 2.2666380109e-04 1.6525592770e+00 -2.8623166303e+00 1.6525592770e+00 2.8623166303e+00 
21600 5.9929050100e+00 1.9954071642e-04 1.6525524190e+00 -2.8623047519e+00 1.6525524190e+00 2.8623047519e+00 
21700 5.9929059997e+00 1.7205506103e-04 1.6525463817e+00 -2.8622942949e+00 1.6525463817e+00 2.8622942949e+00 
21800 5.9929070040e+00 1.4428278590e-04 1.6525411759e+00 -2.8622852783e+00 1.6525411759e+00 2.8622852783e+00 
21900 5.9929080211e+00 1.1629730445e-04 1.6525368104e+00 -2.8622777171e+00 1.6525368104e+00 2.8622777171e+00 
22000 5.9929090495e+00 8.8169475000e-05 1.6525332917e+00 -2.8622716224e+00 1.6525332917e+00 2.8622716224e+00 
22100 5.9929100875e+00 5.9967587824e-05 1.6525306240e+00 -2.8622670018e+00 1.6525306240e+00 2.8622670018e+00 
22200 5.9929111333e+00 3.4008992519e-05 1.6525306240e+00 -2.8622670018e+00 1.6525306240e+00 2.8622670018e+00 
22300 5.9929121850e+00 7.0617945904e-06 1.6525306240e+00 -2.8622670018e+00 1.6525306240e+00 2.8622670018e+00 
22400 5.9929132411e+00 -2.0818431532e-05 1.6525306240e+00 -2.8622670018e+00 1.6525306240e+00 2.8622670018e+00 
22500 5.9929142999e+00 -4.9576607099e-05 1.6525306240e+00 -2.8622670018e+00 1.6525306240e+00 2.8622670018e+00 
22600 5.9929153599e+00 -7.9158205333e-05 1.6525306240e+00 -2.8622670018e+00 1.6525306240e+00 2.8622670018e+00 
22700 5.9929164192e+00 -1.0653757289e-04 1.6525330190e+00 -2.8622711502e+00 1.6525330190e+00 2.8622711502e+00 
22800 5.9929174763e+00 -1.3358451530e-04 1.6525362425e+00 -2.8622767334e+00 1.6525362425e+00 2.8622767334e+00 
22900 5.9929185296e+00 -1.6025129665e-04 1.6525402843e+00 -2.8622837340e+00 1.6525402843e+00 2.8622837340e+00 
23000 5.9929195776e+00 -1.8649268878e-04 1.6525451330e+00 -2.8622921321e+00 1.6525451330e+00 2.8622921321e+00 
23100 5.9929206189e+00 -2.1226594803e-04 1.6525507755e+00 -2.8623019053e+00 1.6525507755e+00 2.8623019053e+00 
23200 5.9929216520e+00 -2.3753078915e-04 1.6525571979e+00 -2.8623130292e+00 1.6525571979e+00 2.8623130292e+00 
23300 5.9929226757e+00 -2.6224935652e-04 1.6525643847e+00 -2.8623254771e+00 1.6525643847e+00 2.8623254771e+00 
23400 5.9929236886e+00 -2.8638619289e-04 1.6525723193e+00 -2.8623392202e+00 1.6525723193e+00 2.8623392202e+00 
23500 5.9929246897e+00 -3.0990820558e-04 1.6525809842e+00 -2.8623542282e+00 1.6525809842e+00 2.8623542282e+00 
23600 5.9929256777e+00 -3.3278463060e-04 1.6525903607e+00 -2.8623704688e+00 1.6525903607e+00 2.8623704688e+00 
23700 5.9929266517e+00 -3.5498699447e-04 1.6526004293e+00 -2.8623879081e+00 1.6526004293e+00 2.8623879081e+00 
23800 5.9929276107e+00 -3.7648907415e-04 1.6526111695e+00 -2.8624065108e+00 1.6526111695e+00 2.8624065108e+00 
23900 5.9929285538e+00 -3.9726685505e-04 1.6526225603e+00 -2.8624262402e+00 1.6526225603e+00 2.8624262402e+00 
24000 5.9929294802e+00 -4.1729848734e-04 1.6526345796e+00 -2.8624470582e+00 1.6526345796e+00 2.8624470582e+00 
24100 5.9929303892e+00 -4.3656424066e-04 1.6526472049e+00 -2.8624689258e+00 1.6526472049e+00 2.8624689258e+00 
24200 5.9929312802e+00 -4.5504645733e-04 1.6526604129e+00 -2.8624918028e+00 1.6526604129e+00 2.8624918028e+00 
24300 5.9929321526e+00 -4.7272950416e-04 1.6526741800e+00 -2.8625156481e+00 1.6526741800e+00 2.8625156481e+00 
24400 5.9929330059e+00 -4.8959972312e-04 1.6526884820e+00 -2.8625404199e+00 1.6526884820e+00 2.8625404199e+00 
24500 5.9929338397e+00 -5.0564538080e-04 1.6527032942e+00 -2.8625660754e+00 1.6527032942e+00 2.8625660754e+00 
24600 5.9929346538e+00 -5.2085661688e-04 1.6527185918e+00 -2.8625925716e+00 1.6527185918e+00 2.8625925716e+00 
24700 5.9929354477e+00 -5.3522539169e-04 1.6527343494e+00 -2.8626198645e+00 1.6527343494e+00 2.8626198645e+00 
24800 5.9929362214e+00 -5.4874543302e-04 1.6527505415e+00 -2.8626479101e+00 1.6527505415e+00 2.8626479101e+00 
24900 5.9929369747e+00 -5.6141218218e-04 1.6527671425e+00 -2.8626766639e+00 1.6527671425e+00 2.8626766639e+00 
25000 5.9929377075e+00 -5.7322273948e-04 1.6527841266e+00 -2.8627060811e+00 1.6527841266e+00 2.8627060811e+00 
25100 5.9929384199e+00 -5.8417580925e-04 1.6528014677e+00 -2.8627361169e+00 1.6528014677e+00 2.8627361169e+00 
25200 5.9929391119e+00 -5.9427164447e-04 1.6528191400e+00 -2.8627667263e+00 1.6528191400e+00 2.8627667263e+00 
25300 5.9929397836e+00 -6.0351199102e-04 1.6528371176e+00 -2.8627978643e+00 1.6528371176e+00 2.8627978643e+00 
25400 5.9929404353e+00 -6.1190003179e-04 1.6528553745e+00 -2.8628294861e+00 1.6528553745e+00 2.8628294861e+00 
25500 5.9929410671e+00 -6.1944033062e-04 1.6528738849e+00 -2.8628615471e+00 1.6528738849e+00 2.8628615471e+00 
25600 5.9929416792e+00 -6.2613877625e-04 1.6528926232e+00 -2.8628940029e+00 1.6528926232e+00 2.8628940029e+00 
25700 5.9929422721e+00 -6.3200252617e-04 1.6529115639e+00 -2.8629268092e+00 1.6529115639e+00 2.8629268092e+00 
25800 5.9929428460e+00 -6.3703995079e-04 1.6529306818e+00 -2.8629599223e+00 1.6529306818e+00 2.8629599223e+00 
25900 5.9929434013e+00 -6.4126057755e-04 1.6529499519e+00 -2.8629932990e+00 1.6529499519e+00 2.8629932990e+00 
26000 5.9929439385e+00 -6.4467503550e-04 1.6529693494e+00 -2.8630268965e+00 1.6529693494e+00 2.8630268965e+00 
26100 5.9929444579e+00 -6.4729500006e-04 1.6529888499e+00 -2.8630606724e+00 1.6529888499e+00 2.8630606724e+00 
26200 5.9929449600e+00 -6.4913313825e-04 1.6530084295e+00 -2.8630945853e+00 1.6530084295e+00 2.8630945853e+00 
26300 5.9929454454e+00 -6.5020305431e-04 1.6530280645e+00 -2.8631285940e+00 1.6530280645e+00 2.8631285940e+00 
26400 5.9929459145e+00 -6.5051923589e-04 1.6530477315e+00 -2.8631626583e+00 1.6530477315e+00 2.8631626583e+00 
26500 5.9929463678e+00 -6.5009700076e-04 1.6530674079e+00 -2.8631967389e+00 1.6530674079e+00 2.8631967389e+00 
26600 5.9929468059e+00 -6.4895244417e-04 1.6530870713e+00 -2.8632307969e+00 1.6530870713e+00 2.8632307969e+00 
26700 5.9929472292e+00 -6.4710238688e-04 1.6531066999e+00 -2.8632647945e+00 1.6531066999e+00 2.8632647945e+00 
26800 5.9929476384e+00 -6.4456432388e-04 1.6531262722e+00 -2.8632986948e+00 1.6531262722e+00 2.8632986948e+00 
26900 5.9929480340e+00 -6.4135637394e-04 1.6531457676e+00 -2.8633324617e+00 1.6531457676e+00 2.8633324617e+00 
27000 5.9929484165e+00 -6.3749722991e-04 1.6531651657e+00 -2.8633660602e+00 1.6531651657e+00 2.8633660602e+00 
27100 5.9929487866e+00 -6.3300610993e-04 1.6531844468e+00 -2.8633994561e+00 1.6531844468e+00 2.8633994561e+00 
27200 5.9929491446e+00 -6.2790270945e-04 1.6532035919e+00 -2.8634326164e+00 1.6532035919e+00 2.8634326164e+00 
27300 5.9929494912e+00 -6.2220715429e-04 1.6532225824e+00 -2.8634655090e+00 1.6532225824e+00 2.8634655090e+00 
27400 5.9929498268e+00 -6.1593995457e-04 1.6532414005e+00 -2.8634981028e+00 1.6532414005e+00 2.8634981028e+00 
27500 5.9929501521e+00 -6.0912195966e-04 1.6532600287e+00 -2.8635303679e+00 1.6532600287e+00 2.8635303679e+00 
27600 5.9929504675e+00 -6.0177431417e-04 1.6532784506e+00 -2.8635622755e+00 1.6532784506e+00 2.8635622755e+00 
27700 5.9929507735e+00 -5.9391841498e-04 1.6532966501e+00 -2.8635937979e+00 1.6532966501e+00 2.8635937979e+00 
27800 5.9929510706e+00 -5.8557586932e-04 1.6533146118e+00 -2.8636249085e+00 1.6533146118e+00 2.8636249085e+00 
27900 5.9929513593e+00 -5.7676845400e-04 1.6533323209e+00 -2.8636555817e+00 1.6533323209e+00 2.8636555817e+00 
28000 5.9929516400e+00 -5.6751807568e-04 1.6533497636e+00 -2.8636857932e+00 1.6533497636e+00 2.8636857932e+00 
28100 5.9929519131e+00 -5.5784673236e-04 1.6533669263e+00 -2.8637155199e+00 1.6533669263e+00 2.8637155199e+00 
28200 5.9929521791e+00 -5.4777647593e-04 1.6533837963e+00 -2.8637447396e+00 1.6533837963e+00 2.8637447396e+00 
28300 5.9929524383e+00 -5.3732937597e-04 1.6534003617e+00 -2.8637734317e+00 1.6534003617e+00 2.8637734317e+00 
28400 5.9929526912e+00 -5.2652748467e-04 1.6534166109e+00 -2.8638015762e+00 1.6534166109e+00 2.8638015762e+00 
28500 5.9929529381e+00 -5.1539280299e-04 1.6534325333e+00 -2.8638291546e+00 1.6534325333e+00 2.8638291546e+00 
28600 5.9929531793e+00 -5.0394724790e-04 1.6534481189e+00 -2.8638561496e+00 1.6534481189e+00 2.8638561496e+00 
28700 5.9929534152e+00 -4.9221262099e-04 1.6534633582e+00 -2.8638825449e+00 1.6534633582e+00 2.8638825449e+00 
28800 5.9929536461e+00 -4.8021057816e-04 1.6534782425e+00 -2.8639083253e+00 1.6534782425e+00 2.8639083253e+00 
28900 5.9929538721e+00 -4.6796260055e-04 1.6534927638e+00 -2.8639334768e+00 1.6534927638e+00 2.8639334768e+00 
29000 5.9929540938e+00 -4.5548996672e-04 1.6535069145e+00 -2.8639579866e+00 1.6535069145e+00 2.8639579866e+00 
29100 5.9929543111e+00 -4.4281372599e-04 1.6535206880e+00 -2.8639818430e+00 1.6535206880e+00 2.8639818430e+00 
29200 5.9929545245e+00 -4.2995467300e-04 1.6535340780e+00 -2.8640050352e+00 1.6535340780e+00 2.8640050352e+00 
29300 5.9929547340e+00 -4.1693332351e-04 1.6535470791e+00 -2.8640275538e+00 1.6535470791e+00 2.8640275538e+00 
29400 5.9929549399e+00 -4.0376989139e-04 1.6535596864e+00 -2.8640493902e+00 1.6535596864e+00 2.8640493902e+00 
29500 5.9929551424e+00 -3.9048426673e-04 1.6535718955e+00 -2.8640705370e+00 1.6535718955e+00 2.8640705370e+00 
29600 5.9929553416e+00 -3.7709599527e-04 1.6535837028e+00 -2.8640909879e+00 1.6535837028e+00 2.8640909879e+00 
29700 5.9929555376e+00 -3.6362425889e-04 1.6535951052e+00 -2.8641107374e+00 1.6535951052e+00 2.8641107374e+00 
29800 5.9929557306e+00 -3.5008785733e-04 1.6536061002e+00 -2.8641297813e+00 1.6536061002e+00 2.8641297813e+00 
29900 5.9929559207e+00 -3.3650519105e-04 1.6536166858e+00 -2.8641481161e+00 1.6536166858e+00 2.8641481161e+00 
30000 5.9929561080e+00 -3.2289424524e-04 1.6536268606e+00 -2.8641657394e+00 1.6536268606e+00 2.8641657394e+00 
30100 5.9929562926e+00 -3.0927257494e-04 1.6536366239e+00 -2.8641826498e+00 1.6536366239e+00 2.8641826498e+00 
30200 5.9929564746e+00 -2.9565729130e-04 1.6536459752e+00 -2.8641988467e+00 1.6536459752e+00 2.8641988467e+00 
30300 5.9929566539e+00 -2.8206504893e-04 1.6536549147e+00 -2.8642143305e+00 1.6536549147e+00 2.8642143305e+00 
30400 5.9929568307e+00 -2.6851203431e-04 1.6536634433e+00 -2.8642291024e+00 1.6536634433e+00 2.8642291024e+00 
30500 5.9929570051e+00 -2.5501395531e-04 1.6536715620e+00 -2.8642431644e+00 1.6536715620e+00 2.8642431644e+00 
30600 5.9929571769e+00 -2.4158603171e-04 1.6536792725e+00 -2.8642565194e+00 1.6536792725e+00 2.8642565194e+00 
30700 5.9929573464e+00 -2.2824298677e-04 1.6536865770e+00 -2.8642691712e+00 1.6536865770e+00 2.8642691712e+00 
30800 5.9929575134e+00 -2.1499903980e-04 1.6536934781e+00 -2.8642811242e+00 1.6536934781e+00 2.8642811242e+00 
30900 5.9929576780e+00 -2.0186789972e-04 1.6536999786e+00 -2.8642923835e+00 1.6536999786e+00 2.8642923835e+00 
31000 5.9929578403e+00 -1.8886275956e-04 1.6537060822e+00 -2.8643029551e+00 1.6537060822e+00 2.8643029551e+00 
31100 5.9929580001e+00 -1.7599629191e-04 1.6537117925e+00 -2.8643128456e+00 1.6537117925e+00 2.8643128456e+00 
31200 5.9929581575e+00 -1.6328064534e-04 1.6537171137e+00 -2.8643220623e+00 1.6537171137e+00 2.8643220623e+00 
31300 5.9929583126e+00 -1.5072744160e-04 1.6537220505e+00 -2.8643306131e+00 1.6537220505e+00 2.8643306131e+00 
31400 5.9929584652e+00 -1.3834777378e-04 1.6537266077e+00 -2.8643385064e+00 1.6537266077e+00 2.8643385064e+00 
31500 5.9929586154e+00 -1.2615220531e-04 1.6537307906e+00 -2.8643457514e+00 1.6537307906e+00 2.8643457514e+00 
31600 5.9929587632e+00 -1.1415076970e-04 1.6537346048e+00 -2.8643523577e+00 1.6537346048e+00 2.8643523577e+00 
31700 5.9929589085e+00 -1.0235297118e-04 1.6537380561e+00 -2.8643583356e+00 1.6537380561e+00 2.8643583356e+00 
31800 5.9929590513e+00 -9.0767786036e-05 1.6537411507e+00 -2.8643636956e+00 1.6537411507e+00 2.8643636956e+00 
31900 5.9929591917e+00 -7.9403664700e-05 1.6537438950e+00 -2.8643684489e+00 1.6537438950e+00 2.8643684489e+00 
32000 5.9929593295e+00 -6.8268534570e-05 1.6537462957e+00 -2.8643726071e+00 1.6537462957e+00 2.8643726071e+00 
32100 5.9929594650e+00 -5.9922976023e-05 1.6537462957e+00 -2.8643726071e+00 1.6537462957e+00 2.8643726071e+00 
32200 5.9929595978e+00 -5.1431453027e-05 1.6537462957e+00 -2.8643726071e+00 1.6537462957e+00 2.8643726071e+00 
32300 5.9929597281e+00 -4.2806937622e-05 1.6537462957e+00 -2.8643726071e+00 1.6537462957e+00 2.8643726071e+00 
32400 5.9929598557e+00 -3.4062092085e-05 1.6537462957e+00 -2.8643726071e+00 1.6537462957e+00 2.8643726071e+00 
32500 5.9929599807e+00 -2.5209267129e-05 1.6537462957e+00 -2.8643726071e+00 1.6537462957e+00 2.8643726071e+00 
32600 5.9929601031e+00 -1.6260500394e-05 1.6537462957e+00 -2.8643726071e+00 1.6537462957e+00 2.8643726071e+00 
32700 5.9929602230e+00 -7.2275152713e-06 1.6537462957e+00 -2.8643726071e+00 1.6537462957e+00 2.8643726071e+00 
32800 5.9929603402e+00 1.8782799833e-06 1.6537462957e+00 -2.8643726071e+00 1.6537462957e+00 2.8643726071e+00 
32900 5.9929604549e+00 1.1045792831e-05 1.6537462957e+00 -2.8643726071e+00 1.6537462957e+00 2.8643726071e+00 
33000 5.9929605671e+00 2.0264246745e-05 1.6537462957e+00 -2.8643726071e+00 1.6537462957e+00 2.8643726071e+00 
33100 5.9929606767e+00 2.9523181224e-05 1.6537462957e+00 -2.8643726071e+00 1.6537462957e+00 2.8643726071e+00 
33200 5.9929607839e+00 3.8812451521e-05 1.6537462957e+00 -2.8643726071e+00 1.6537462957e+00 2.8643726071e+00 
33300 5.9929608885e+00 4.8122228114e-05 1.6537462957e+00 -2.8643726071e+00 1.6537462957e+00 2.8643726071e+00 
33400 5.9929609907e+00 5.7442995908e-05 1.6537462957e+00 -2.8643726071e+00 1.6537462957e+00 2.8643726071e+00 
33500 5.9929610905e+00 6.6765553181e-05 1.6537462957e+00 -2.8643726071e+00 1.6537462957e+00 2.8643726071e+00 
33600 5.9929611878e+00 7.6081010286e-05 1.6537462957e+00 -2.8643726071e+00 1.6537462957e+00 2.8643726071e+00 
33700 5.9929612825e+00 8.2535033499e-05 1.6537439955e+00 -2.8643686229e+00 1.6537439955e+00 2.8643686229e+00 
33800 5.9929613748e+00 8.8703215485e-05 1.6537415001e+00 -2.8643643007e+00 1.6537415001e+00 2.8643643007e+00 
33900 5.9929614647e+00 9.4586075766e-05 1.6537388182e+00 -2.8643596555e+00 1.6537388182e+00 2.8643596555e+00 
34000 5.9929615522e+00 1.0018450156e-04 1.6537359584e+00 -2.8643547023e+00 1.6537359584e+00 2.8643547023e+00 
34100 5.9929616374e+00 1.0549973564e-04 1.6537329294e+00 -2.8643494558e+00 1.6537329294e+00 2.8643494558e+00 
34200 5.9929617203e+00 1.1053336409e-04 1.6537297396e+00 -2.8643439311e+00 1.6537297396e+00 2.8643439311e+00 
34300 5.9929618009e+00 1.1528730390e-04 1.6537263977e+00 -2.8643381426e+00 1.6537263977e+00 2.8643381426e+00 
34400 5.9929618793e+00 1.1976379051e-04 1.6537229120e+00 -2.8643321053e+00 1.6537229120e+00 2.8643321053e+00 
34500 5.9929619556e+00 1.2396536526e-04 1.6537192910e+00 -2.8643258334e+00 1.6537192910e+00 2.8643258334e+00 
34600 5.9929620297e+00 1.2789486277e-04 1.6537155429e+00 -2.8643193416e+00 1.6537155429e+00 2.8643193416e+00 
34700 5.9929621017e+00 1.3155539833e-04 1.6537116760e+00 -2.8643126439e+00 1.6537116760e+00 2.8643126439e+00 
34800 5.9929621717e+00 1.3495035524e-04 1.6537076984e+00 -2.8643057546e+00 1.6537076984e+00 2.8643057546e+00 
34900 5.9929622397e+00 1.3808337217e-04 1.6537036182e+00 -2.8642986874e+00 1.6537036182e+00 2.8642986874e+00 
35000 5.9929623058e+00 1.4095833052e-04 1.6536994432e+00 -2.8642914561e+00 1.6536994432e+00 2.8642914561e+00 
35100 5.9929623700e+00 1.4357934185e-04 1.6536951813e+00 -2.8642840743e+00 1.6536951813e+00 2.8642840743e+00 
35200 5.9929624324e+00 1.4595073534e-04 1.6536908402e+00 -2.8642765552e+00 1.6536908402e+00 2.8642765552e+00 
35300 5.9929624930e+00 1.4807704534e-04 1.6536864273e+00 -2.8642689118e+00 1.6536864273e+00 2.8642689118e+00 
35400 5.9929625519e+00 1.4996299899e-04 1.6536819501e+00 -2.8642611571e+00 1.6536819501e+00 2.8642611571e+00 
35500 5.9929626091e+00 1.5161350395e-04 1.6536774159e+00 -2.8642533037e+00 1.6536774159e+00 2.8642533037e+00 
35600 5.9929626647e+00 1.5303363627e-04 1.6536728318e+00 -2.8642453637e+00 1.6536728318e+00 2.8642453637e+00 
35700 5.9929627188e+00 1.5422862833e-04 1.6536682047e+00 -2.8642373494e+00 1.6536682047e+00 2.8642373494e+00 
35800 5.9929627713e+00 1.5520385699e-04 1.6536635415e+00 -2.8642292724e+00 1.6536635415e+00 2.8642292724e+00 
35900 5.9929628224e+00 1.5596483185e-04 1.6536588487e+00 -2.8642211444e+00 1.6536588487e+00 2.8642211444e+00 
36000 5.9929628720e+00 1.5651718373e-04 1.6536541330e+00 -2.8642129765e+00 1.6536541330e+00 2.8642129765e+00 
36100 5.9929629204e+00 1.5686665325e-04 1.6536494005e+00 -2.8642047796e+00 1.6536494005e+00 2.8642047796e+00 
36200 5.9929629674e+00 1.5701907965e-04 1.6536446575e+00 -2.8641965644e+00 1.6536446575e+00 2.8641965644e+00 
36300 5.9929630131e+00 1.5698038984e-04 1.6536399098e+00 -2.8641883412e+00 1.6536399098e+00 2.8641883412e+00 
36400 5.9929630577e+00 1.5675658759e-04 1.6536351633e+00 -2.8641801200e+00 1.6536351633e+00 2.8641801200e+00 
36500 5.9929631011e+00 1.5635374299e-04 1.6536304236e+00 -2.8641719105e+00 1.6536304236e+00 2.8641719105e+00 
36600 5.9929631434e+00 1.5577798211e-04 1.6536256960e+00 -2.8641637221e+00 1.6536256960e+00 2.8641637221e+00 
36700 5.9929631846e+00 1.5503547690e-04 1.6536209858e+00 -2.8641555638e+00 1.6536209858e+00 2.8641555638e+00 
36800 5.9929632248e+00 1.5413243535e-04 1.6536162980e+00 -2.8641474444e+00 1.6536162980e+00 2.8641474444e+00 
36900 5.9929632641e+00 1.5307509187e-04 1.6536116376e+00 -2.8641393722e+00 1.6536116376e+00 2.8641393722e+00 
37000 5.9929633024e+00 1.5186969794e-04 1.6536070090e+00 -2.8641313554e+00 1.6536070090e+00 2.8641313554e+00 
37100 5.9929633398e+00 1.5052251304e-04 1.6536024170e+00 -2.8641234017e+00 1.6536024170e+00 2.8641234017e+00 
37200 5.9929633763e+00 1.4903979578e-04 1.6535978656e+00 -2.8641155186e+00 1.6535978656e+00 2.8641155186e+00 
37300 5.9929634121e+00 1.4742779536e-04 1.6535933591e+00 -2.8641077130e+00 1.6535933591e+00 2.8641077130e+00 
37400 5.9929634470e+00 1.4569274333e-04 1.6535889013e+00 -2.8640999919e+00 1.6535889013e+00 2.8640999919e+00 
37500 5.9929634812e+00 1.4384084549e-04 1.6535844960e+00 -2.8640923616e+00 1.6535844960e+00 2.8640923616e+00 
37600 5.9929635146e+00 1.4187827422e-04 1.6535801466e+00 -2.8640848283e+00 1.6535801466e+00 2.8640848283e+00 
37700 5.9929635474e+00 1.3981116103e-04 1.6535758566e+00 -2.8640773977e+00 1.6535758566e+00 2.8640773977e+00 
37800 5.9929635795e+00 1.3764558938e-04 1.6535716290e+00 -2.8640700754e+00 1.6535716290e+00 2.8640700754e+00 
37900 5.9929636110e+00 1.3538758780e-04 1.6535674670e+00 -2.8640628665e+00 1.6535674670e+00 2.8640628665e+00 
38000 5.9929636419e+00 1.3304312329e-04 1.6535633732e+00 -2.8640557758e+00 1.6535633732e+00 2.8640557758e+00 
38100 5.9929636722e+00 1.3061809502e-04 1.6535593502e+00 -2.8640488079e+00 1.6535593502e+00 2.8640488079e+00 
38200 5.9929637019e+00 1.2811832831e-04 1.6535554006e+00 -2.8640419670e+00 1.6535554006e+00 2.8640419670e+00 
38300 5.9929637311e+00 1.2554956888e-04 1.6535515266e+00 -2.8640352570e+00 1.6535515266e+00 2.8640352570e+00 
38400 5.9929637597e+00 1.2291747741e-04 1.6535477302e+00 -2.8640286815e+00 1.6535477302e+00 2.8640286815e+00 
38500 5.9929637879e+00 1.2022762438e-04 1.6535440135e+00 -2.8640222439e+00 1.6535440135e+00 2.8640222439e+00 
38600 5.9929638156e+00 1.1748548515e-04 1.6535403780e+00 -2.8640159471e+00 1.6535403780e+00 2.8640159471e+00 
38700 5.9929638428e+00 1.1469643542e-04 1.6535368255e+00 -2.8640097939e+00 1.6535368255e+00 2.8640097939e+00 
38800 5.9929638696e+00 1.1186574682e-04 1.6535333573e+00 -2.8640037868e+00 1.6535333573e+00 2.8640037868e+00 
38900 5.9929638959e+00 1.0899858294e-04 1.6535299746e+00 -2.8639979279e+00 1.6535299746e+00 2.8639979279e+00 
39000 5.9929639218e+00 1.0609999554e-04 1.6535266787e+00 -2.8639922192e+00 1.6535266787e+00 2.8639922192e+00 
39100 5.9929639473e+00 1.0317492099e-04 1.6535234704e+00 -2.8639866622e+00 1.6535234704e+00 2.8639866622e+00 
39200 5.9929639724e+00 1.0022817709e-04 1.6535203506e+00 -2.8639812585e+00 1.6535203506e+00 2.8639812585e+00 
39300 5.9929639971e+00 9.7264460088e-05 1.6535173198e+00 -2.8639760091e+00 1.6535173198e+00 2.8639760091e+00 
39400 5.9929640214e+00 9.4288341948e-05 1.6535143787e+00 -2.8639709149e+00 1.6535143787e+00 2.8639709149e+00 
39500 5.9929640453e+00 9.1304267898e-05 1.6535115275e+00 -2.8639659766e+00 1.6535115275e+00 2.8639659766e+00 
39600 5.9929640689e+00 8.8316554225e-05 1.6535087666e+00 -2.8639611945e+00 1.6535087666e+00 2.8639611945e+00 
39700 5.9929640921e+00 8.5329386304e-05 1.6535060960e+00 -2.8639565689e+00 1.6535060960e+00 2.8639565689e+00 
39800 5.9929641149e+00 8.2346816883e-05 1.6535035158e+00 -2.8639520998e+00 1.6535035158e+00 2.8639520998e+00 
39900 5.9929641374e+00 7.9372764601e-05 1.6535010257e+00 -2.8639477869e+00 1.6535010257e+00 2.8639477869e+00 
40000 5.9929641596e+00 7.6411012722e-05 1.6534986256e+00 -2.8639436297e+00 1.6534986256e+00 2.8639436297e+00 
40100 5.9929641814e+00 7.3465208126e-05 1.6534963150e+00 -2.8639396276e+00 1.6534963150e+00 2.8639396276e+00 
40200 5.9929642028e+00 7.0538860480e-05 1.6534940935e+00 -2.8639357799e+00 1.6534940935e+00 2.8639357799e+00 
40300 5.9929642241e+00 7.0275366039e-05 1.6534940935e+00 -2.8639357799e+00 1.6534940935e+00 2.8639357799e+00 
40400 5.9929642451e+00 6.9948223474e-05 1.6534940935e+00 -2.8639357799e+00 1.6534940935e+00 2.8639357799e+00 
40500 5.9929642657e+00 6.9561152847e-05 1.6534940935e+00 -2.8639357799e+00 1.6534940935e+00 2.8639357799e+00 
40600 5.9929642860e+00 6.9117799482e-05 1.6534940935e+00 -2.8639357799e+00 1.6534940935e+00 2.8639357799e+00 
40700 5.9929643059e+00 6.8621733028e-05 1.6534940935e+00 -2.8639357799e+00 1.6534940935e+00 2.8639357799e+00 
40800 5.9929643255e+00 6.8076446599e-05 1.6534940935e+00 -2.8639357799e+00 1.6534940935e+00 2.8639357799e+00 
40900 5.9929643448e+00 6.7485356028e-05 1.6534940935e+00 -2.8639357799e+00 1.6534940935e+00 2.8639357799e+00 
41000 5.9929643638e+00 6.6851799191e-05 1.6534940935e+00 -2.8639357799e+00 1.6534940935e+00 2.8639357799e+00 
41100 5.9929643824e+00 6.6179035427e-05 1.6534940935e+00 -2.8639357799e+00 1.6534940935e+00 2.8639357799e+00 
41200 5.9929644007e+00 6.5470245039e-05 1.6534940935e+00 -2.8639357799e+00 1.6534940935e+00 2.8639357799e+00 
41300 5.9929644186e+00 6.4728528880e-05 1.6534940935e+00 -2.8639357799e+00 1.6534940935e+00 2.8639357799e+00 
41400 5.9929644363e+00 6.3956908014e-05 1.6534940935e+00 -2.8639357799e+00 1.6534940935e+00 2.8639357799e+00 
41500 5.9929644536e+00 6.3158323467e-05 1.6534940935e+00 -2.8639357799e+00 1.6534940935e+00 2.8639357799e+00 
41600 5.9929644706e+00 6.2335636046e-05 1.6534940935e+00 -2.8639357799e+00 1.6534940935e+00 2.8639357799e+00 
41700 5.9929644873e+00 6.1491626230e-05 1.6534940935e+00 -2.8639357799e+00 1.6534940935e+00 2.8639357799e+00 
41800 5.9929645037e+00 6.0628994148e-05 1.6534940935e+00 -2.8639357799e+00 1.6534940935e+00 2.8639357799e+00 
41900 5.9929645198e+00 5.9750359619e-05 1.6534940935e+00 -2.8639357799e+00 1.6534940935e+00 2.8639357799e+00 
42000 5.9929645356e+00 5.8858262257e-05 1.6534940935e+00 -2.8639357799e+00 1.6534940935e+00 2.8639357799e+00 
42100 5.9929645511e+00 5.7955161650e-05 1.6534940935e+00 -2.8639357799e+00 1.6534940935e+00 2.8639357799e+00 
42200 5.9929645663e+00 5.7043437605e-05 1.6534940935e+00 -2.8639357799e+00 1.6534940935e+00 2.8639357799e+00 
42300 5.9929645812e+00 5.6125390454e-05 1.6534940935e+00 -2.8639357799e+00 1.6534940935e+00 2.8639357799e+00 
42400 5.9929645958e+00 5.5203241419e-05 1.6534940935e+00 -2.8639357799e+00 1.6534940935e+00 2.8639357799e+00 
42500 5.9929646102e+00 5.4279133045e-05 1.6534940935e+00 -2.8639357799e+00 1.6534940935e+00 2.8639357799e+00 
42600 5.9929646243e+00 5.3355129673e-05 1.6534940935e+00 -2.8639357799e+00 1.6534940935e+00 2.8639357799e+00 
42700 5.9929646381e+00 5.2433217997e-05 1.6534940935e+00 -2.8639357799e+00 1.6534940935e+00 2.8639357799e+00 
42800 5.9929646516e+00 5.1515307645e-05 1.6534940935e+00 -2.8639357799e+00 1.6534940935e+00 2.8639357799e+00 
42900 5.9929646648e+00 5.0603231829e-05 1.6534940935e+00 -2.8639357799e+00 1.6534940935e+00 2.8639357799e+00 
43000 5.9929646778e+00 4.9698748043e-05 1.6534940935e+00 -2.8639357799e+00 1.6534940935e+00 2.8639357799e+00 
43100 5.9929646906e+00 4.8803538808e-05 1.6534940935e+00 -2.8639357799e+00 1.6534940935e+00 2.8639357799e+00 
43200 5.9929647031e+00 4.7919212456e-05 1.6534940935e+00 -2.8639357799e+00 1.6534940935e+00 2.8639357799e+00 
43300 5.9929647153e+00 4.7047303971e-05 1.6534940935e+00 -2.8639357799e+00 1.6534940935e+00 2.8639357799e+00 
43400 5.9929647273e+00 4.6189275860e-05 1.6534940935e+00 -2.8639357799e+00 1.6534940935e+00 2.8639357799e+00 
43500 5.9929647391e+00 4.5346519077e-05 1.6534940935e+00 -2.8639357799e+00 1.6534940935e+00 2.8639357799e+00 
43600 5.9929647506e+00 4.4520353973e-05 1.6534940935e+00 -2.8639357799e+00 1.6534940935e+00 2.8639357799e+00 
43700 5.9929647619e+00 4.3712031292e-05 1.6534940935e+00 -2.8639357799e+00 1.6534940935e+00 2.8639357799e+00 
43800 5.9929647730e+00 4.2922733197e-05 1.6534940935e+00 -2.8639357799e+00 1.6534940935e+00 2.8639357799e+00 
43900 5.9929647839e+00 4.2153574331e-05 1.6534940935e+00 -2.8639357799e+00 1.6534940935e+00 2.8639357799e+00 
44000 5.9929647945e+00 4.1405602910e-05 1.6534940935e+00 -2.8639357799e+00 1.6534940935e+00 2.8639357799e+00 
44100 5.9929648049e+00 4.0679801845e-05 1.6534940935e+00 -2.8639357799e+00 1.6534940935e+00 2.8639357799e+00 
44200 5.9929648152e+00 3.9977089888e-05 1.6534940935e+00 -2.8639357799e+00 1.6534940935e+00 2.8639357799e+00 
44300 5.9929648252e+00 3.9298322817e-05 1.6534940935e+00 -2.8639357799e+00 1.6534940935e+00 2.8639357799e+00 
44400 5.9929648350e+00 3.8644294625e-05 1.6534940935e+00 -2.8639357799e+00 1.6534940935e+00 2.8639357799e+00 
44500 5.9929648447e+00 3.8015738743e-05 1.6534940935e+00 -2.8639357799e+00 1.6534940935e+00 2.8639357799e+00 
44600 5.9929648541e+00 3.7413329299e-05 1.6534940935e+00 -2.8639357799e+00 1.6534940935e+00 2.8639357799e+00 
44700 5.9929648634e+00 3.6837682361e-05 1.6534940935e+00 -2.8639357799e+00 1.6534940935e+00 2.8639357799e+00 
44800 5.9929648725e+00 3.6289357228e-05 1.6534940935e+00 -2.8639357799e+00 1.6534940935e+00 2.8639357799e+00 
44900 5.9929648814e+00 3.5768857729e-05 1.6534940935e+00 -2.8639357799e+00 1.6534940935e+00 2.8639357799e+00 
45000 5.9929648901e+00 3.5276633522e-05 1.6534940935e+00 -2.8639357799e+00 1.6534940935e+00 2.8639357799e+00 
45100 5.9929648987e+00 3.4813081436e-05 1.6534940935e+00 -2.8639357799e+00 1.6534940935e+00 2.8639357799e+00 
45200 5.9929649071e+00 3.4378546788e-05 1.6534940935e+00 -2.8639357799e+00 1.6534940935e+00 2.8639357799e+00 
45300 5.9929649154e+00 3.3973324737e-05 1.6534940935e+00 -2.8639357799e+00 1.6534940935e+00 2.8639357799e+00 
45400 5.9929649235e+00 3.3597661640e-05 1.6534940935e+00 -2.8639357799e+00 1.6534940935e+00 2.8639357799e+00 
45500 5.9929649314e+00 3.3251756406e-05 1.6534940935e+00 -2.8639357799e+00 1.6534940935e+00 2.8639357799e+00 
45600 5.9929649392e+00 3.2935761863e-05 1.6534940935e+00 -2.8639357799e+00 1.6534940935e+00 2.8639357799e+00 
45700 5.9929649469e+00 3.2649786129e-05 1.6534940935e+00 -2.8639357799e+00 1.6534940935e+00 2.8639357799e+00 
45800 5.9929649544e+00 3.2393893988e-05 1.6534940935e+00 -2.8639357799e+00 1.6534940935e+00 2.8639357799e+00 
45900 5.9929649618e+00 3.2168108254e-05 1.6534940935e+00 -2.8639357799e+00 1.6534940935e+00 2.8639357799e+00 
46000 5.9929649691e+00 3.1972411152e-05 1.6534940935e+00 -2.8639357799e+00 1.6534940935e+00 2.8639357799e+00 
46100 5.9929649762e+00 3.1806745688e-05 1.6534940935e+00 -2.8639357799e+00 1.6534940935e+00 2.8639357799e+00 
46200 5.9929649832e+00 3.1671017019e-05 1.6534940935e+00 -2.8639357799e+00 1.6534940935e+00 2.8639357799e+00 
46300 5.9929649901e+00 3.1565093815e-05 1.6534940935e+00 -2.8639357799e+00 1.6534940935e+00 2.8639357799e+00 
46400 5.9929649968e+00 3.1488809629e-05 1.6534940935e+00 -2.8639357799e+00 1.6534940935e+00 2.8639357799e+00 
46500 5.9929650035e+00 3.1441964243e-05 1.6534940935e+00 -2.8639357799e+00 1.6534940935e+00 2.8639357799e+00 
46600 5.9929650100e+00 3.1424325019e-05 1.6534940935e+00 -2.8639357799e+00 1.6534940935e+00 2.8639357799e+00 
46700 5.9929650164e+00 3.1435628237e-05 1.6534940935e+00 -2.8639357799e+00 1.6534940935e+00 2.8639357799e+00 
46800 5.9929650227e+00 3.1475580425e-05 1.6534940935e+00 -2.8639357799e+00 1.6534940935e+00 2.8639357799e+00 
46900 5.9929650290e+00 3.1543859682e-05 1.6534940935e+00 -2.8639357799e+00 1.6534940935e+00 2.8639357799e+00 
47000 5.9929650351e+00 3.1640116980e-05 1.6534940935e+00 -2.8639357799e+00 1.6534940935e+00 2.8639357799e+00 
47100 5.9929650411e+00 3.1763977464e-05 1.6534940935e+00 -2.8639357799e+00 1.6534940935e+00 2.8639357799e+00 
47200 5.9929650470e+00 3.1915041730e-05 1.6534940935e+00 -2.8639357799e+00 1.6534940935e+00 2.8639357799e+00 
47300 5.9929650528e+00 3.2092887103e-05 1.6534940935e+00 -2.8639357799e+00 1.6534940935e+00 2.8639357799e+00 
47400 5.9929650585e+00 3.2297068875e-05 1.6534940935e+00 -2.8639357799e+00 1.6534940935e+00 2.8639357799e+00 
47500 5.9929650641e+00 3.2527121560e-05 1.6534940935e+00 -2.8639357799e+00 1.6534940935e+00 2.8639357799e+00 
47600 5.9929650696e+00 3.2782560098e-05 1.6534940935e+00 -2.8639357799e+00 1.6534940935e+00 2.8639357799e+00 
47700 5.9929650751e+00 3.3062881073e-05 1.6534940935e+00 -2.8639357799e+00 1.6534940935e+00 2.8639357799e+00 
47800 5.9929650804e+00 3.3367563889e-05 1.6534940935e+00 -2.8639357799e+00 1.6534940935e+00 2.8639357799e+00 
47900 5.9929650857e+00 3.3696071940e-05 1.6534940935e+00 -2.8639357799e+00 1.6534940935e+00 2.8639357799e+00 
48000 5.9929650909e+00 3.4047853764e-05 1.6534940935e+00 -2.8639357799e+00 1.6534940935e+00 2.8639357799e+00 
48100 5.9929650960e+00 3.4422344157e-05 1.6534940935e+00 -2.8639357799e+00 1.6534940935e+00 2.8639357799e+00 
48200 5.9929651011e+00 3.4818965294e-05 1.6534940935e+00 -2.8639357799e+00 1.6534940935e+00 2.8639357799e+00 
48300 5.9929651060e+00 3.5237127807e-05 1.6534940935e+00 -2.8639357799e+00 1.6534940935e+00 2.8639357799e+00 
48400 5.9929651109e+00 3.5676231853e-05 1.6534940935e+00 -2.8639357799e+00 1.6534940935e+00 2.8639357799e+00 
48500 5.9929651157e+00 3.6135668159e-05 1.6534940935e+00 -2.8639357799e+00 1.6534940935e+00 2.8639357799e+00 
48600 5.9929651204e+00 3.6614819036e-05 1.6534940935e+00 -2.8639357799e+00 1.6534940935e+00 2.8639357799e+00 
48700 5.9929651251e+00 3.7113059384e-05 1.6534940935e+00 -2.8639357799e+00 1.6534940935e+00 2.8639357799e+00 
48800 5.9929651297e+00 3.7629757660e-05 1.6534940935e+00 -2.8639357799e+00 1.6534940935e+00 2.8639357799e+00 
48900 5.9929651342e+00 3.8164276834e-05 1.6534940935e+00 -2.8639357799e+00 1.6534940935e+00 2.8639357799e+00 
49000 5.9929651386e+00 3.8715975314e-05 1.6534940935e+00 -2.8639357799e+00 1.6534940935e+00 2.8639357799e+00 
49100 5.9929651430e+00 3.9284207851e-05 1.6534940935e+00 -2.8639357799e+00 1.6534940935e+00 2.8639357799e+00 
49200 5.9929651473e+00 3.9868326416e-05 1.6534940935e+00 -2.8639357799e+00 1.6534940935e+00 2.8639357799e+00 
49300 5.9929651515e+00 4.0467681053e-05 1.6534940935e+00 -2.8639357799e+00 1.6534940935e+00 2.8639357799e+00 
49400 5.9929651557e+00 4.1081620717e-05 1.6534940935e+00 -2.8639357799e+00 1.6534940935e+00 2.8639357799e+00 
49500 5.9929651598e+00 4.1709494065e-05 1.6534940935e+00 -2.8639357799e+00 1.6534940935e+00 2.8639357799e+00 
49600 5.9929651639e+00 4.2350650249e-05 1.6534940935e+00 -2.8639357799e+00 1.6534940935e+00 2.8639357799e+00 
49700 5.9929651679e+00 4.3004439669e-05 1.6534940935e+00 -2.8639357799e+00 1.6534940935e+00 2.8639357799e+00 
49800 5.9929651718e+00 4.3670214692e-05 1.6534940935e+00 -2.8639357799e+00 1.6534940935e+00 2.8639357799e+00 
49900 5.9929651757e+00 4.4347330371e-05 1.6534940935e+00 -2.8639357799e+00 1.6534940935e+00 2.8639357799e+00 
50000 5.9929651795e+00 4.5035145118e-05 1.6534940935e+00 -2.8639357799e+00 1.6534940935e+00 2.8639357799e+00 
50100 5.9929651833e+00 4.5733021359e-05 1.6534940935e+00 -2.8639357799e+00 1.6534940935e+00 2.8639357799e+00 
50200 5.9929651869e+00 4.6440326163e-05 1.6534940935e+00 -2.8639357799e+00 1.6534940935e+00 2.8639357799e+00 
50300 5.9929651906e+00 4.7156431847e-05 1.6534940935e+00 -2.8639357799e+00 1.6534940935e+00 2.8639357799e+00 
50400 5.9929651942e+00 4.7880716557e-05 1.6534940935e+00 -2.8639357799e+00 1.6534940935e+00 2.8639357799e+00 
50500 5.9929651977e+00 4.8612564825e-05 1.6534940935e+00 -2.8639357799e+00 1.6534940935e+00 2.8639357799e+00 
50600 5.9929652012e+00 4.9351368093e-05 1.6534940935e+00 -2.8639357799e+00 1.6534940935e+00 2.8639357799e+00 
50700 5.9929652046e+00 5.0096525225e-05 1.6534940935e+00 -2.8639357799e+00 1.6534940935e+00 2.8639357799e+00 
50800 5.9929652080e+00 5.0847442984e-05 1.6534940935e+00 -2.8639357799e+00 1.6534940935e+00 2.8639357799e+00 
50900 5.9929652113e+00 5.1603536491e-05 1.6534940935e+00 -2.8639357799e+00 1.6534940935e+00 2.8639357799e+00 
51000 5.9929652145e+00 5.2364229662e-05 1.6534940935e+00 -2.8639357799e+00 1.6534940935e+00 2.8639357799e+00 
51100 5.9929652178e+00 5.3128955611e-05 1.6534940935e+00 -2.8639357799e+00 1.6534940935e+00 2.8639357799e+00 
51200 5.9929652209e+00 5.3897157045e-05 1.6534940935e+00 -2.8639357799e+00 1.6534940935e+00 2.8639357799e+00 
51300 5.9929652240e+00 5.4668286622e-05 1.6534940935e+00 -2.8639357799e+00 1.6534940935e+00 2.8639357799e+00 
51400 5.9929652271e+00 5.5441807289e-05 1.6534940935e+00 -2.8639357799e+00 1.6534940935e+00 2.8639357799e+00 
51500 5.9929652301e+00 5.6217192611e-05 1.6534940935e+00 -2.8639357799e+00 1.6534940935e+00 2.8639357799e+00 
51600 5.9929652331e+00 5.6993927055e-05 1.6534940935e+00 -2.8639357799e+00 1.6534940935e+00 2.8639357799e+00 
51700 5.9929652360e+00 5.7771506272e-05 1.6534940935e+00 -2.8639357799e+00 1.6534940935e+00 2.8639357799e+00 
51800 5.9929652389e+00 5.8549437347e-05 1.6534940935e+00 -2.8639357799e+00 1.6534940935e+00 2.8639357799e+00 
51900 5.9929652417e+00 5.9327239033e-05 1.6534940935e+00 -2.8639357799e+00 1.6534940935e+00 2.8639357799e+00 
52000 5.9929652445e+00 6.0104441958e-05 1.6534940935e+00 -2.8639357799e+00 1.6534940935e+00 2.8639357799e+00 
52100 5.9929652472e+00 6.0880588821e-05 1.6534940935e+00 -2.8639357799e+00 1.6534940935e+00 2.8639357799e+00 
52200 5.9929652499e+00 6.1655234558e-05 1.6534940935e+00 -2.8639357799e+00 1.6534940935e+00 2.8639357799e+00 
52300 5.9929652526e+00 6.2427946497e-05 1.6534940935e+00 -2.8639357799e+00 1.6534940935e+00 2.8639357799e+00 
52400 5.9929652552e+00 6.3198304487e-05 1.6534940935e+00 -2.8639357799e+00 1.6534940935e+00 2.8639357799e+00 
52500 5.9929652578e+00 6.3965901016e-05 1.6534940935e+00 -2.8639357799e+00 1.6534940935e+00 2.8639357799e+00 
52600 5.9929652603e+00 6.4730341304e-05 1.6534940935e+00 -2.8639357799e+00 1.6534940935e+00 2.8639357799e+00 
52700 5.9929652628e+00 6.5491243377e-05 1.6534940935e+00 -2.8639357799e+00 1.6534940935e+00 2.8639357799e+00 
52800 5.9929652653e+00 6.6248238135e-05 1.6534940935e+00 -2.8639357799e+00 1.6534940935e+00 2.8639357799e+00 
52900 5.9929652677e+00 6.7000969393e-05 1.6534940935e+00 -2.8639357799e+00 1.6534940935e+00 2.8639357799e+00 
53000 5.9929652701e+00 6.7749093901e-05 1.6534940935e+00 -2.8639357799e+00 1.6534940935e+00 2.8639357799e+00 
53100 5.9929652724e+00 6.8492281365e-05 1.6534940935e+00 -2.8639357799e+00 1.6534940935e+00 2.8639357799e+00 
53200 5.9929652747e+00 6.9230214441e-05 1.6534940935e+00 -2.8639357799e+00 1.6534940935e+00 2.8639357799e+00 
53300 5.9929652770e+00 6.9962588710e-05 1.6534940935e+00 -2.8639357799e+00 1.6534940935e+00 2.8639357799e+00 
53400 5.9929652792e+00 7.0689112651e-05 1.6534940935e+00 -2.8639357799e+00 1.6534940935e+00 2.8639357799e+00 
53500 5.9929652814e+00 7.1409507590e-05 1.6534940935e+00 -2.8639357799e+00 1.6534940935e+00 2.8639357799e+00 
53600 5.9929652834e+00 6.9451424460e-05 1.6534919341e+00 -2.8639320398e+00 1.6534919341e+00 2.8639320398e+00 
53700 5.9929652855e+00 7.0139557903e-05 1.6534919341e+00 -2.8639320398e+00 1.6534919341e+00 2.8639320398e+00 
53800 5.9929652876e+00 7.0820369311e-05 1.6534919341e+00 -2.8639320398e+00 1.6534919341e+00 2.8639320398e+00 
53900 5.9929652895e+00 6.8843622835e-05 1.6534897926e+00 -2.8639283305e+00 1.6534897926e+00 2.8639283305e+00 
54000 5.9929652915e+00 6.9490183168e-05 1.6534897926e+00 -2.8639283305e+00 1.6534897926e+00 2.8639283305e+00 
54100 5.9929652935e+00 7.0128466680e-05 1.6534897926e+00 -2.8639283305e+00 1.6534897926e+00 2.8639283305e+00 
54200 5.9929652955e+00 7.0758361881e-05 1.6534897926e+00 -2.8639283305e+00 1.6534897926e+00 2.8639283305e+00 
54300 5.9929652972e+00 6.8732025697e-05 1.6534876529e+00 -2.8639246245e+00 1.6534876529e+00 2.8639246245e+00 
54400 5.9929652991e+00 6.9325803867e-05 1.6534876529e+00 -2.8639246245e+00 1.6534876529e+00 2.8639246245e+00 
54500 5.9929653010e+00 6.9910485665e-05 1.6534876529e+00 -2.8639246245e+00 1.6534876529e+00 2.8639246245e+00 
54600 5.9929653028e+00 7.0486037988e-05 1.6534876529e+00 -2.8639246245e+00 1.6534876529e+00 2.8639246245e+00 
54700 5.9929653046e+00 7.1052435244e-05 1.6534876529e+00 -2.8639246245e+00 1.6534876529e+00 2.8639246245e+00 
54800 5.9929653062e+00 6.8950903124e-05 1.6534855043e+00 -2.8639209031e+00 1.6534855043e+00 2.8639209031e+00 
54900 5.9929653080e+00 6.9479820191e-05 1.6534855043e+00 -2.8639209031e+00 1.6534855043e+00 2.8639209031e+00 
55000 5.9929653097e+00 6.9999117887e-05 1.6534855043e+00 -2.8639209031e+00 1.6534855043e+00 2.8639209031e+00 
55100 5.9929653114e+00 7.0508840994e-05 1.6534855043e+00 -2.8639209031e+00 1.6534855043e+00 2.8639209031e+00 
55200 5.9929653131e+00 7.1009039715e-05 1.6534855043e+00 -2.8639209031e+00 1.6534855043e+00 2.8639209031e+00 
55300 5.9929653145e+00 6.8842626782e-05 1.6534833571e+00 -2.8639171839e+00 1.6534833571e+00 2.8639171839e+00 
55400 5.9929653161e+00 6.9304837240e-05 1.6534833571e+00 -2.8639171839e+00 1.6534833571e+00 2.8639171839e+00 
55500 5.9929653177e+00 6.9757274042e-05 1.6534833571e+00 -2.8639171839e+00 1.6534833571e+00 2.8639171839e+00 
55600 5.9929653193e+00 7.0200049296e-05 1.6534833571e+00 -2.8639171839e+00 1.6534833571e+00 2.8639171839e+00 
55700 5.9929653209e+00 7.0633278409e-05 1.6534833571e+00 -2.8639171839e+00 1.6534833571e+00 2.8639171839e+00 
55800 5.9929653224e+00 7.1057079941e-05 1.6534833571e+00 -2.8639171839e+00 1.6534833571e+00 2.8639171839e+00 
55900 5.9929653237e+00 6.8812625426e-05 1.6534812084e+00 -2.8639134623e+00 1.6534812084e+00 2.8639134623e+00 
56000 5.9929653252e+00 6.9198815256e-05 1.6534812084e+00 -2.8639134623e+00 1.6534812084e+00 2.8639134623e+00 
56100 5.9929653266e+00 6.9575519446e-05 1.6534812084e+00 -2.8639134623e+00 1.6534812084e+00 2.8639134623e+00 
56200 5.9929653281e+00 6.9942909428e-05 1.6534812084e+00 -2.8639134623e+00 1.6534812084e+00 2.8639134623e+00 
56300 5.9929653295e+00 7.0301157700e-05 1.6534812084e+00 -2.8639134623e+00 1.6534812084e+00 2.8639134623e+00 
56400 5.9929653309e+00 7.0650437672e-05 1.6534812084e+00 -2.8639134623e+00 1.6534812084e+00 2.8639134623e+00 
56500 5.9929653322e+00 7.0990923536e-05 1.6534812084e+00 -2.8639134623e+00 1.6534812084e+00 2.8639134623e+00 
56600 5.9929653334e+00 6.8666307176e-05 1.6534790617e+00 -2.8639097441e+00 1.6534790617e+00 2.8639097441e+00 
56700 5.9929653347e+00 6.8970623419e-05 1.6534790617e+00 -2.8639097441e+00 1.6534790617e+00 2.8639097441e+00 
56800 5.9929653361e+00 6.9266240736e-05 1.6534790617e+00 -2.8639097441e+00 1.6534790617e+00 2.8639097441e+00 
56900 5.9929653373e+00 6.9553376830e-05 1.6534790617e+00 -2.8639097441e+00 1.6534790617e+00 2.8639097441e+00 
57000 5.9929653386e+00 6.9832248182e-05 1.6534790617e+00 -2.8639097441e+00 1.6534790617e+00 2.8639097441e+00 
57100 5.9929653399e+00 7.0103069936e-05 1.6534790617e+00 -2.8639097441e+00 1.6534790617e+00 2.8639097441e+00 
57200 5.9929653411e+00 7.0366055790e-05 1.6534790617e+00 -2.8639097441e+00 1.6534790617e+00 2.8639097441e+00 
57300 5.9929653423e+00 7.0621417880e-05 1.6534790617e+00 -2.8639097441e+00 1.6534790617e+00 2.8639097441e+00 
57400 5.9929653435e+00 7.0869366683e-05 1.6534790617e+00 -2.8639097441e+00 1.6534790617e+00 2.8639097441e+00 
57500 5.9929653445e+00 6.8458170006e-05 1.6534769186e+00 -2.8639060322e+00 1.6534769186e+00 2.8639060322e+00 
57600 5.9929653457e+00 6.8672842563e-05 1.6534769186e+00 -2.8639060322e+00 1.6534769186e+00 2.8639060322e+00 
57700 5.9929653468e+00 6.8880292307e-05 1.6534769186e+00 -2.8639060322e+00 1.6534769186e+00 2.8639060322e+00 
57800 5.9929653480e+00 6.9080763713e-05 1.6534769186e+00 -2.8639060322e+00 1.6534769186e+00 2.8639060322e+00 
57900 5.9929653491e+00 6.9274497780e-05 1.6534769186e+00 -2.8639060322e+00 1.6534769186e+00 2.8639060322e+00 
58000 5.9929653502e+00 6.9461731949e-05 1.6534769186e+00 -2.8639060322e+00 1.6534769186e+00 2.8639060322e+00 
58100 5.9929653512e+00 6.9642700034e-05 1.6534769186e+00 -2.8639060322e+00 1.6534769186e+00 2.8639060322e+00 
58200 5.9929653523e+00 6.9817632160e-05 1.6534769186e+00 -2.8639060322e+00 1.6534769186e+00 2.8639060322e+00 
58300 5.9929653534e+00 6.9986754690e-05 1.6534769186e+00 -2.8639060322e+00 1.6534769186e+00 2.8639060322e+00 
58400 5.9929653544e+00 7.0150290171e-05 1.6534769186e+00 -2.8639060322e+00 1.6534769186e+00 2.8639060322e+00 
58500 5.9929653554e+00 7.0308457282e-05 1.6534769186e+00 -2.8639060322e+00 1.6534769186e+00 2.8639060322e+00 
58600 5.9929653564e+00 7.0461470779e-05 1.6534769186e+00 -2.8639060322e+00 1.6534769186e+00 2.8639060322e+00 
58700 5.9929653574e+00 7.0609541451e-05 1.6534769186e+00 -2.8639060322e+00 1.6534769186e+00 2.8639060322e+00 
58800 5.9929653584e+00 7.0752876076e-05 1.6534769186e+00 -2.8639060322e+00 1.6534769186e+00 2.8639060322e+00 
58900 5.9929653592e+00 6.8244092847e-05 1.6534747791e+00 -2.8639023264e+00 1.6534747791e+00 2.8639023264e+00 
59000 5.9929653601e+00 6.8359516546e-05 1.6534747791e+00 -2.8639023264e+00 1.6534747791e+00 2.8639023264e+00 
59100 5.9929653610e+00 6.8470370917e-05 1.6534747791e+00 -2.8639023264e+00 1.6534747791e+00 2.8639023264e+00 
59200 5.9929653620e+00 6.8576887934e-05 1.6534747791e+00 -2.8639023264e+00 1.6534747791e+00 2.8639023264e+00 
59300 5.9929653629e+00 6.8679294082e-05 1.6534747791e+00 -2.8639023264e+00 1.6534747791e+00 2.8639023264e+00 
59400 5.9929653638e+00 6.8777810337e-05 1.6534747791e+00 -2.8639023264e+00 1.6534747791e+00 2.8639023264e+00 
59500 5.9929653647e+00 6.8872652172e-05 1.6534747791e+00 -2.8639023264e+00 1.6534747791e+00 2.8639023264e+00 
59600 5.9929653655e+00 6.8964029552e-05 1.6534747791e+00 -2.8639023264e+00 1.6534747791e+00 2.8639023264e+00 
59700 5.9929653664e+00 6.9052146936e-05 1.6534747791e+00 -2.8639023264e+00 1.6534747791e+00 2.8639023264e+00 
59800 5.9929653672e+00 6.9137203291e-05 1.6534747791e+00 -2.8639023264e+00 1.6534747791e+00 2.8639023264e+00 
59900 5.9929653680e+00 6.9219392098e-05 1.6534747791e+00 -2.8639023264e+00 1.6534747791e+00 2.8639023264e+00 
60000 5.9929653689e+00 6.9298901380e-05 1.6534747791e+00 -2.8639023264e+00 1.6534747791e+00 2.8639023264e+00 
60100 5.9929653697e+00 6.9375913706e-05 1.6534747791e+00 -2.8639023264e+00 1.6534747791e+00 2.8639023264e+00 
60200 5.9929653705e+00 6.9450606233e-05 1.6534747791e+00 -2.8639023264e+00 1.6534747791e+00 2.8639023264e+00 
60300 5.9929653712e+00 6.9523150720e-05 1.6534747791e+00 -2.8639023264e+00 1.6534747791e+00 2.8639023264e+00 
60400 5.9929653720e+00 6.9593713566e-05 1.6534747791e+00 -2.8639023264e+00 1.6534747791e+00 2.8639023264e+00 
60500 5.9929653728e+00 6.9662455844e-05 1.6534747791e+00 -2.8639023264e+00 1.6534747791e+00 2.8639023264e+00 
60600 5.9929653735e+00 6.9729533338e-05 1.6534747791e+00 -2.8639023264e+00 1.6534747791e+00 2.8639023264e+00 
60700 5.9929653743e+00 6.9795096584e-05 1.6534747791e+00 -2.8639023264e+00 1.6534747791e+00 2.8639023264e+00 
60800 5.9929653750e+00 6.9859290918e-05 1.6534747791e+00 -2.8639023264e+00 1.6534747791e+00 2.8639023264e+00 
60900 5.9929653757e+00 6.9922256517e-05 1.6534747791e+00 -2.8639023264e+00 1.6534747791e+00 2.8639023264e+00 
61000 5.9929653764e+00 6.9984128452e-05 1.6534747791e+00 -2.8639023264e+00 1.6534747791e+00 2.8639023264e+00 
61100 5.9929653771e+00 7.0045036744e-05 1.6534747791e+00 -2.8639023264e+00 1.6534747791e+00 2.8639023264e+00 
61200 5.9929653778e+00 7.0105106412e-05 1.6534747791e+00 -2.8639023264e+00 1.6534747791e+00 2.8639023264e+00 
61300 5.9929653785e+00 7.0164457541e-05 1.6534747791e+00 -2.8639023264e+00 1.6534747791e+00 2.8639023264e+00 
61400 5.9929653791e+00 7.0223205333e-05 1.6534747791e+00 -2.8639023264e+00 1.6534747791e+00 2.8639023264e+00 
61500 5.9929653798e+00 7.0281460172e-05 1.6534747791e+00 -2.8639023264e+00 1.6534747791e+00 2.8639023264e+00 
61600 5.9929653805e+00 7.0339327693e-05 1.6534747791e+00 -2.8639023264e+00 1.6534747791e+00 2.8639023264e+00 
61700 5.9929653811e+00 7.0396908847e-05 1.6534747791e+00 -2.8639023264e+00 1.6534747791e+00 2.8639023264e+00 
61800 5.9929653817e+00 7.0454299961e-05 1.6534747791e+00 -2.8639023264e+00 1.6534747791e+00 2.8639023264e+00 
61900 5.9929653823e+00 7.0511592829e-05 1.6534747791e+00 -2.8639023264e+00 1.6534747791e+00 2.8639023264e+00 
62000 5.9929653830e+00 7.0568874760e-05 1.6534747791e+00 -2.8639023264e+00 1.6534747791e+00 2.8639023264e+00 
62100 5.9929653836e+00 7.0626228672e-05 1.6534747791e+00 -2.8639023264e+00 1.6534747791e+00 2.8639023264e+00 
62200 5.9929653841e+00 7.0683733156e-05 1.6534747791e+00 -2.8639023264e+00 1.6534747791e+00 2.8639023264e+00 
62300 5.9929653847e+00 7.0741462560e-05 1.6534747791e+00 -2.8639023264e+00 1.6534747791e+00 2.8639023264e+00 
62400 5.9929653851e+00 6.8152337573e-05 1.6534726399e+00 -2.8638986213e+00 1.6534726399e+00 2.8638986213e+00 
62500 5.9929653857e+00 6.8191682461e-05 1.6534726399e+00 -2.8638986213e+00 1.6534726399e+00 2.8638986213e+00 
62600 5.9929653863e+00 6.8231021612e-05 1.6534726399e+00 -2.8638986213e+00 1.6534726399e+00 2.8638986213e+00 
62700 5.9929653868e+00 6.8270454762e-05 1.6534726399e+00 -2.8638986213e+00 1.6534726399e+00 2.8638986213e+00 
62800 5.9929653874e+00 6.8310076492e-05 1.6534726399e+00 -2.8638986213e+00 1.6534726399e+00 2.8638986213e+00 
62900 5.9929653879e+00 6.8349976301e-05 1.6534726399e+00 -2.8638986213e+00 1.6534726399e+00 2.8638986213e+00 
63000 5.9929653884e+00 6.8390238714e-05 1.6534726399e+00 -2.8638986213e+00 1.6534726399e+00 2.8638986213e+00 
63100 5.9929653889e+00 6.8430943382e-05 1.6534726399e+00 -2.8638986213e+00 1.6534726399e+00 2.8638986213e+00 
63200 5.9929653894e+00 6.8472165175e-05 1.6534726399e+00 -2.8638986213e+00 1.6534726399e+00 2.8638986213e+00 
63300 5.9929653900e+00 6.8513974289e-05 1.6534726399e+00 -2.8638986213e+00 1.6534726399e+00 2.8638986213e+00 
63400 5.9929653905e+00 6.8556436348e-05 1.6534726399e+00 -2.8638986213e+00 1.6534726399e+00 2.8638986213e+00 
63500 5.9929653909e+00 6.8599612507e-05 1.6534726399e+00 -2.8638986213e+00 1.6534726399e+00 2.8638986213e+00 
63600 5.9929653914e+00 6.8643559559e-05 1.6534726399e+00 -2.8638986213e+00 1.6534726399e+00 2.8638986213e+00 
63700 5.9929653919e+00 6.8688330030e-05 1.6534726399e+00 -2.8638986213e+00 1.6534726399e+00 2.8638986213e+00 
63800 5.9929653924e+00 6.8733972302e-05 1.6534726399e+00 -2.8638986213e+00 1.6534726399e+00 2.8638986213e+00 
63900 5.9929653928e+00 6.8780530709e-05 1.6534726399e+00 -2.8638986213e+00 1.6534726399e+00 2.8638986213e+00 
64000 5.9929653933e+00 6.8828045643e-05 1.6534726399e+00 -2.8638986213e+00 1.6534726399e+00 2.8638986213e+00 
64100 5.9929653937e+00 6.8876553669e-05 1.6534726399e+00 -2.8638986213e+00 1.6534726399e+00 2.8638986213e+00 
64200 5.9929653942e+00 6.8926087624e-05 1.6534726399e+00 -2.8638986213e+00 1.6534726399e+00 2.8638986213e+00 
64300 5.9929653946e+00 6.8976676735e-05 1.6534726399e+00 -2.8638986213e+00 1.6534726399e+00 2.8638986213e+00 
64400 5.9929653951e+00 6.9028346715e-05 1.6534726399e+00 -2.8638986213e+00 1.6534726399e+00 2.8638986213e+00 
64500 5.9929653955e+00 6.9081119883e-05 1.6534726399e+00 -2.8638986213e+00 1.6534726399e+00 2.8638986213e+00 
64600 5.9929653959e+00 6.9135015260e-05 1.6534726399e+00 -2.8638986213e+00 1.6534726399e+00 2.8638986213e+00 
64700 5.9929653963e+00 6.9190048685e-05 1.6534726399e+00 -2.8638986213e+00 1.6534726399e+00 2.8638986213e+00 
64800 5.9929653967e+00 6.9246232915e-05 1.6534726399e+00 -2.8638986213e+00 1.6534726399e+00 2.8638986213e+00 
64900 5.9929653971e+00 6.9303577736e-05 1.6534726399e+00 -2.8638986213e+00 1.6534726399e+00 2.8638986213e+00 
65000 5.9929653975e+00 6.9362090068e-05 1.6534726399e+00 -2.8638986213e+00 1.6534726399e+00 2.8638986213e+00 
65100 5.9929653979e+00 6.9421774066e-05 1.6534726399e+00 -2.8638986213e+00 1.6534726399e+00 2.8638986213e+00 
65200 5.9929653983e+00 6.9482631231e-05 1.6534726399e+00 -2.8638986213e+00 1.6534726399e+00 2.8638986213e+00 
65300 5.9929653987e+00 6.9544660508e-05 1.6534726399e+00 -2.8638986213e+00 1.6534726399e+00 2.8638986213e+00 
65400 5.9929653991e+00 6.9607858389e-05 1.6534726399e+00 -2.8638986213e+00 1.6534726399e+00 2.8638986213e+00 
65500 5.9929653994e+00 6.9672219016e-05 1.6534726399e+00 -2.8638986213e+00 1.6534726399e+00 2.8638986213e+00 
65600 5.9929653998e+00 6.9737734286e-05 1.6534726399e+00 -2.8638986213e+00 1.6534726399e+00 2.8638986213e+00 
65700 5.9929654001e+00 6.9804393938e-05 1.6534726399e+00 -2.8638986213e+00 1.6534726399e+00 2.8638986213e+00 
65800 5.9929654005e+00 6.9872185664e-05 1.6534726399e+00 -2.8638986213e+00 1.6534726399e+00 2.8638986213e+00 
65900 5.9929654008e+00 6.9941095199e-05 1.6534726399e+00 -2.8638986213e+00 1.6534726399e+00 2.8638986213e+00 
66000 5.9929654012e+00 7.0011106419e-05 1.6534726399e+00 -2.8638986213e+00 1.6534726399e+00 2.8638986213e+00 
66100 5.9929654015e+00 7.0082201433e-05 1.6534726399e+00 -2.8638986213e+00 1.6534726399e+00 2.8638986213e+00 
66200 5.9929654019e+00 7.0154360678e-05 1.6534726399e+00 -2.8638986213e+00 1.6534726399e+00 2.8638986213e+00 
66300 5.9929654022e+00 7.0227563013e-05 1.6534726399e+00 -2.8638986213e+00 1.6534726399e+00 2.8638986213e+00 
66400 5.9929654025e+00 7.0301785802e-05 1.6534726399e+00 -2.8638986213e+00 1.6534726399e+00 2.8638986213e+00 
66500 5.9929654028e+00 7.0377005009e-05 1.6534726399e+00 -2.8638986213e+00 1.6534726399e+00 2.8638986213e+00 
66600 5.9929654032e+00 7.0453195281e-05 1.6534726399e+00 -2.8638986213e+00 1.6534726399e+00 2.8638986213e+00 
66700 5.9929654035e+00 7.0530330035e-05 1.6534726399e+00 -2.8638986213e+00 1.6534726399e+00 2.8638986213e+00 
66800 5.9929654038e+00 7.0608381541e-05 1.6534726399e+00 -2.8638986213e+00 1.6534726399e+00 2.8638986213e+00 
66900 5.9929654041e+00 7.0687321001e-05 1.6534726399e+00 -2.8638986213e+00 1.6534726399e+00 2.8638986213e+00 
67000 5.9929654044e+00 7.0767118637e-05 1.6534726399e+00 -2.8638986213e+00 1.6534726399e+00 2.8638986213e+00 
67100 5.9929654045e+00 6.8199634899e-05 1.6534705000e+00 -2.8638949148e+00 1.6534705000e+00 2.8638949148e+00 
67200 5.9929654048e+00 6.8262007392e-05 1.6534705000e+00 -2.8638949148e+00 1.6534705000e+00 2.8638949148e+00 
67300 5.9929654051e+00 6.8324714494e-05 1.6534705000e+00 -2.8638949148e+00 1.6534705000e+00 2.8638949148e+00 
67400 5.9929654053e+00 6.8387764843e-05 1.6534705000e+00 -2.8638949148e+00 1.6534705000e+00 2.8638949148e+00 
67500 5.9929654056e+00 6.8451165142e-05 1.6534705000e+00 -2.8638949148e+00 1.6534705000e+00 2.8638949148e+00 
67600 5.9929654059e+00 6.8514920231e-05 1.6534705000e+00 -2.8638949148e+00 1.6534705000e+00 2.8638949148e+00 
67700 5.9929654062e+00 6.8579033179e-05 1.6534705000e+00 -2.8638949148e+00 1.6534705000e+00 2.8638949148e+00 
67800 5.9929654064e+00 6.8643505355e-05 1.6534705000e+00 -2.8638949148e+00 1.6534705000e+00 2.8638949148e+00 
67900 5.9929654067e+00 6.8708336502e-05 1.6534705000e+00 -2.8638949148e+00 1.6534705000e+00 2.8638949148e+00 
68000 5.9929654070e+00 6.8773524828e-05 1.6534705000e+00 -2.8638949148e+00 1.6534705000e+00 2.8638949148e+00 
68100 5.9929654072e+00 6.8839067068e-05 1.6534705000e+00 -2.8638949148e+00 1.6534705000e+00 2.8638949148e+00 
68200 5.9929654075e+00 6.8904958565e-05 1.6534705000e+00 -2.8638949148e+00 1.6534705000e+00 2.8638949148e+00 
68300 5.9929654077e+00 6.8971193341e-05 1.6534705000e+00 -2.8638949148e+00 1.6534705000e+00 2.8638949148e+00 
68400 5.9929654080e+00 6.9037764172e-05 1.6534705000e+00 -2.8638949148e+00 1.6534705000e+00 2.8638949148e+00 
68500 5.9929654082e+00 6.9104662654e-05 1.6534705000e+00 -2.8638949148e+00 1.6534705000e+00 2.8638949148e+00 
68600 5.9929654084e+00 6.9171879278e-05 1.6534705000e+00 -2.8638949148e+00 1.6534705000e+00 2.8638949148e+00 
68700 5.9929654087e+00 6.9239403495e-05 1.6534705000e+00 -2.8638949148e+00 1.6534705000e+00 2.8638949148e+00 
68800 5.9929654089e+00 6.9307223777e-05 1.6534705000e+00 -2.8638949148e+00 1.6534705000e+00 2.8638949148e+00 
68900 5.9929654091e+00 6.9375327698e-05 1.6534705000e+00 -2.8638949148e+00 1.6534705000e+00 2.8638949148e+00 
69000 5.9929654094e+00 6.9443701976e-05 1.6534705000e+00 -2.8638949148e+00 1.6534705000e+00 2.8638949148e+00 
69100 5.9929654096e+00 6.9512332555e-05 1.6534705000e+00 -2.8638949148e+00 1.6534705000e+00 2.8638949148e+00 
69200 5.9929654098e+00 6.9581204657e-05 1.6534705000e+00 -2.8638949148e+00 1.6534705000e+00 2.8638949148e+00 
69300 5.9929654100e+00 6.9650302835e-05 1.6534705000e+00 -2.8638949148e+00 1.6534705000e+00 2.8638949148e+00 
69400 5.9929654102e+00 6.9719611041e-05 1.6534705000e+00 -2.8638949148e+00 1.6534705000e+00 2.8638949148e+00 
69500 5.9929654105e+00 6.9789112678e-05 1.6534705000e+00 -2.8638949148e+00 1.6534705000e+00 2.8638949148e+00 
69600 5.9929654107e+00 6.9858790653e-05 1.6534705000e+00 -2.8638949148e+00 1.6534705000e+00 2.8638949148e+00 
69700 5.9929654109e+00 6.9928627434e-05 1.6534705000e+00 -2.8638949148e+00 1.6534705000e+00 2.8638949148e+00 
69800 5.9929654111e+00 6.9998605092e-05 1.6534705000e+00 -2.8638949148e+00 1.6534705000e+00 2.8638949148e+00 
69900 5.9929654113e+00 7.0068705364e-05 1.6534705000e+00 -2.8638949148e+00 1.6534705000e+00 2.8638949148e+00 
70000 5.9929654115e+00 7.0138909688e-05 1.6534705000e+00 -2.8638949148e+00 1.6534705000e+00 2.8638949148e+00 
70100 5.9929654117e+00 7.0209199258e-05 1.6534705000e+00 -2.8638949148e+00 1.6534705000e+00 2.8638949148e+00 
70200 5.9929654119e+00 7.0279555065e-05 1.6534705000e+00 -2.8638949148e+00 1.6534705000e+00 2.8638949148e+00 
70300 5.9929654120e+00 7.0349957941e-05 1.6534705000e+00 -2.8638949148e+00 1.6534705000e+00 2.8638949148e+00 
70400 5.9929654122e+00 7.0420388602e-05 1.6534705000e+00 -2.8638949148e+00 1.6534705000e+00 2.8638949148e+00 
70500 5.9929654124e+00 7.0490827689e-05 1.6534705000e+00 -2.8638949148e+00 1.6534705000e+00 2.8638949148e+00 
70600 5.9929654126e+00 7.0561255799e-05 1.6534705000e+00 -2.8638949148e+00 1.6534705000e+00 2.8638949148e+00 
70700 5.9929654128e+00 7.0631653530e-05 1.6534705000e+00 -2.8638949148e+00 1.6534705000e+00 2.8638949148e+00 
70800 5.9929654130e+00 7.0702001512e-05 1.6534705000e+00 -2.8638949148e+00 1.6534705000e+00 2.8638949148e+00 
70900 5.9929654131e+00 7.0772280447e-05 1.6534705000e+00 -2.8638949148e+00 1.6534705000e+00 2.8638949148e+00 
71000 5.9929654131e+00 6.8194160878e-05 1.6534683599e+00 -2.8638912080e+00 1.6534683599e+00 2.8638912080e+00 
71100 5.9929654133e+00 6.8245193853e-05 1.6534683599e+00 -2.8638912080e+00 1.6534683599e+00 2.8638912080e+00 
71200 5.9929654135e+00 6.8295671522e-05 1.6534683599e+00 -2.8638912080e+00 1.6534683599e+00 2.8638912080e+00 
71300 5.9929654136e+00 6.8345616753e-05 1.6534683599e+00 -2.8638912080e+00 1.6534683599e+00 2.8638912080e+00 
71400 5.9929654138e+00 6.8395051306e-05 1.6534683599e+00 -2.8638912080e+00 1.6534683599e+00 2.8638912080e+00 
71500 5.9929654139e+00 6.8443995862e-05 1.6534683599e+00 -2.8638912080e+00 1.6534683599e+00 2.8638912080e+00 
71600 5.9929654141e+00 6.8492470062e-05 1.6534683599e+00 -2.8638912080e+00 1.6534683599e+00 2.8638912080e+00 
71700 5.9929654143e+00 6.8540492543e-05 1.6534683599e+00 -2.8638912080e+00 1.6534683599e+00 2.8638912080e+00 
71800 5.9929654144e+00 6.8588080970e-05 1.6534683599e+00 -2.8638912080e+00 1.6534683599e+00 2.8638912080e+00 
71900 5.9929654146e+00 6.8635252075e-05 1.6534683599e+00 -2.8638912080e+00 1.6534683599e+00 2.8638912080e+00 
72000 5.9929654147e+00 6.8682021688e-05 1.6534683599e+00 -2.8638912080e+00 1.6534683599e+00 2.8638912080e+00 
72100 5.9929654149e+00 6.8728404768e-05 1.6534683599e+00 -2.8638912080e+00 1.6534683599e+00 2.8638912080e+00 
72200 5.9929654150e+00 6.8774415443e-05 1.6534683599e+00 -2.8638912080e+00 1.6534683599e+00 2.8638912080e+00 
72300 5.9929654151e+00 6.8820067034e-05 1.6534683599e+00 -2.8638912080e+00 1.6534683599e+00 2.8638912080e+00 
72400 5.9929654153e+00 6.8865372094e-05 1.6534683599e+00 -2.8638912080e+00 1.6534683599e+00 2.8638912080e+00 
72500 5.9929654154e+00 6.8910342433e-05 1.6534683599e+00 -2.8638912080e+00 1.6534683599e+00 2.8638912080e+00 
72600 5.9929654156e+00 6.8954989153e-05 1.6534683599e+00 -2.8638912080e+00 1.6534683599e+00 2.8638912080e+00 
72700 5.9929654157e+00 6.8999322672e-05 1.6534683599e+00 -2.8638912080e+00 1.6534683599e+00 2.8638912080e+00 
72800 5.9929654158e+00 6.9043352760e-05 1.6534683599e+00 -2.8638912080e+00 1.6534683599e+00 2.8638912080e+00 
72900 5.9929654160e+00 6.9087088559e-05 1.6534683599e+00 -2.8638912080e+00 1.6534683599e+00 2.8638912080e+00 
73000 5.9929654161e+00 6.9130538621e-05 1.6534683599e+00 -2.8638912080e+00 1.6534683599e+00 2.8638912080e+00 
73100 5.9929654162e+00 6.9173710925e-05 1.6534683599e+00 -2.8638912080e+00 1.6534683599e+00 2.8638912080e+00 
73200 5.9929654164e+00 6.9216612908e-05 1.6534683599e+00 -2.8638912080e+00 1.6534683599e+00 2.8638912080e+00 
73300 5.9929654165e+00 6.9259251493e-05 1.6534683599e+00 -2.8638912080e+00 1.6534683599e+00 2.8638912080e+00 
73400 5.9929654166e+00 6.9301633103e-05 1.6534683599e+00 -2.8638912080e+00 1.6534683599e+00 2.8638912080e+00 
73500 5.9929654167e+00 6.9343763703e-05 1.6534683599e+00 -2.8638912080e+00 1.6534683599e+00 2.8638912080e+00 
73600 5.9929654168e+00 6.9385648803e-05 1.6534683599e+00 -2.8638912080e+00 1.6534683599e+00 2.8638912080e+00 
73700 5.9929654170e+00 6.9427293497e-05 1.6534683599e+00 -2.8638912080e+00 1.6534683599e+00 2.8638912080e+00 
73800 5.9929654171e+00 6.9468702479e-05 1.6534683599e+00 -2.8638912080e+00 1.6534683599e+00 2.8638912080e+00 
73900 5.9929654172e+00 6.9509880061e-05 1.6534683599e+00 -2.8638912080e+00 1.6534683599e+00 2.8638912080e+00 
74000 5.9929654173e+00 6.9550830197e-05 1.6534683599e+00 -2.8638912080e+00 1.6534683599e+00 2.8638912080e+00 
74100 5.9929654174e+00 6.9591556503e-05 1.6534683599e+00 -2.8638912080e+00 1.6534683599e+00 2.8638912080e+00 
74200 5.9929654175e+00 6.9632062277e-05 1.6534683599e+00 -2.8638912080e+00 1.6534683599e+00 2.8638912080e+00 
74300 5.9929654176e+00 6.9672350516e-05 1.6534683599e+00 -2.8638912080e+00 1.6534683599e+00 2.8638912080e+00 
74400 5.9929654177e+00 6.9712423931e-05 1.6534683599e+00 -2.8638912080e+00 1.6534683599e+00 2.8638912080e+00 
74500 5.9929654179e+00 6.9752284974e-05 1.6534683599e+00 -2.8638912080e+00 1.6534683599e+00 2.8638912080e+00 
74600 5.9929654180e+00 6.9791935841e-05 1.6534683599e+00 -2.8638912080e+00 1.6534683599e+00 2.8638912080e+00 
74700 5.9929654181e+00 6.9831378501e-05 1.6534683599e+00 -2.8638912080e+00 1.6534683599e+00 2.8638912080e+00 
74800 5.9929654182e+00 6.9870614702e-05 1.6534683599e+00 -2.8638912080e+00 1.6534683599e+00 2.8638912080e+00 
74900 5.9929654183e+00 6.9909645988e-05 1.6534683599e+00 -2.8638912080e+00 1.6534683599e+00 2.8638912080e+00 
75000 5.9929654184e+00 6.9948473715e-05 1.6534683599e+00 -2.8638912080e+00 1.6534683599e+00 2.8638912080e+00 
75100 5.9929654185e+00 6.9987099067e-05 1.6534683599e+00 -2.8638912080e+00 1.6534683599e+00 2.8638912080e+00 
75200 5.9929654186e+00 7.0025523063e-05 1.6534683599e+00 -2.8638912080e+00 1.6534683599e+00 2.8638912080e+00 
75300 5.9929654187e+00 7.0063746571e-05 1.6534683599e+00 -2.8638912080e+00 1.6534683599e+00 2.8638912080e+00 
75400 5.9929654188e+00 7.0101770323e-05 1.6534683599e+00 -2.8638912080e+00 1.6534683599e+00 2.8638912080e+00 
75500 5.9929654188e+00 7.0139594923e-05 1.6534683599e+00 -2.8638912080e+00 1.6534683599e+00 2.8638912080e+00 
75600 5.9929654189e+00 7.0177220859e-05 1.6534683599e+00 -2.8638912080e+00 1.6534683599e+00 2.8638912080e+00 
75700 5.9929654190e+00 7.0214648511e-05 1.6534683599e+00 -2.8638912080e+00 1.6534683599e+00 2.8638912080e+00 
75800 5.9929654191e+00 7.0251878167e-05 1.6534683599e+00 -2.8638912080e+00 1.6534683599e+00 2.8638912080e+00 
75900 5.9929654192e+00 7.0288910025e-05 1.6534683599e+00 -2.8638912080e+00 1.6534683599e+00 2.8638912080e+00 
76000 5.9929654193e+00 7.0325744206e-05 1.6534683599e+00 -2.8638912080e+00 1.6534683599e+00 2.8638912080e+00 
76100 5.9929654194e+00 7.0362380760e-05 1.6534683599e+00 -2.8638912080e+00 1.6534683599e+00 2.8638912080e+00 
76200 5.9929654195e+00 7.0398819676e-05 1.6534683599e+00 -2.8638912080e+00 1.6534683599e+00 2.8638912080e+00 
76300 5.9929654195e+00 7.0435060888e-05 1.6534683599e+00 -2.8638912080e+00 1.6534683599e+00 2.8638912080e+00 
76400 5.9929654196e+00 7.0471104279e-05 1.6534683599e+00 -2.8638912080e+00 1.6534683599e+00 2.8638912080e+00 
76500 5.9929654197e+00 7.0506949699e-05 1.6534683599e+00 -2.8638912080e+00 1.6534683599e+00 2.8638912080e+00 
76600 5.9929654198e+00 7.0542596955e-05 1.6534683599e+00 -2.8638912080e+00 1.6534683599e+00 2.8638912080e+00 
76700 5.9929654199e+00 7.0578045827e-05 1.6534683599e+00 -2.8638912080e+00 1.6534683599e+00 2.8638912080e+00 
76800 5.9929654199e+00 7.0613296075e-05 1.6534683599e+00 -2.8638912080e+00 1.6534683599e+00 2.8638912080e+00 
76900 5.9929654200e+00 7.0648347434e-05 1.6534683599e+00 -2.8638912080e+00 1.6534683599e+00 2.8638912080e+00 
77000 5.9929654201e+00 7.0683199630e-05 1.6534683599e+00 -2.8638912080e+00 1.6534683599e+00 2.8638912080e+00 
77100 5.9929654202e+00 7.0717852379e-05 1.6534683599e+00 -2.8638912080e+00 1.6534683599e+00 2.8638912080e+00 
77200 5.9929654201e+00 6.8106023963e-05 1.6534662214e+00 -2.8638875041e+00 1.6534662214e+00 2.8638875041e+00 
77300 5.9929654201e+00 6.8121240830e-05 1.6534662214e+00 -2.8638875041e+00 1.6534662214e+00 2.8638875041e+00 
77400 5.9929654202e+00 6.8135828677e-05 1.6534662214e+00 -2.8638875041e+00 1.6534662214e+00 2.8638875041e+00 
77500 5.9929654203e+00 6.8149828778e-05 1.6534662214e+00 -2.8638875041e+00 1.6534662214e+00 2.8638875041e+00 
77600 5.9929654204e+00 6.8163281087e-05 1.6534662214e+00 -2.8638875041e+00 1.6534662214e+00 2.8638875041e+00 
77700 5.9929654204e+00 6.8176224258e-05 1.6534662214e+00 -2.8638875041e+00 1.6534662214e+00 2.8638875041e+00 
77800 5.9929654205e+00 6.8188695654e-05 1.6534662214e+00 -2.8638875041e+00 1.6534662214e+00 2.8638875041e+00 
77900 5.9929654206e+00 6.8200731365e-05 1.6534662214e+00 -2.8638875041e+00 1.6534662214e+00 2.8638875041e+00 
78000 5.9929654206e+00 6.8212366224e-05 1.6534662214e+00 -2.8638875041e+00 1.6534662214e+00 2.8638875041e+00 
78100 5.9929654207e+00 6.8223633822e-05 1.6534662214e+00 -2.8638875041e+00 1.6534662214e+00 2.8638875041e+00 
78200 5.9929654208e+00 6.8234566527e-05 1.6534662214e+00 -2.8638875041e+00 1.6534662214e+00 2.8638875041e+00 
78300 5.9929654208e+00 6.8245195501e-05 1.6534662214e+00 -2.8638875041e+00 1.6534662214e+00 2.8638875041e+00 
78400 5.9929654209e+00 6.8255550719e-05 1.6534662214e+00 -2.8638875041e+00 1.6534662214e+00 2.8638875041e+00 
78500 5.9929654210e+00 6.8265660989e-05 1.6534662214e+00 -2.8638875041e+00 1.6534662214e+00 2.8638875041e+00 
78600 5.9929654210e+00 6.8275553964e-05 1.6534662214e+00 -2.8638875041e+00 1.6534662214e+00 2.8638875041e+00 
78700 5.9929654211e+00 6.8285256174e-05 1.6534662214e+00 -2.8638875041e+00 1.6534662214e+00 2.8638875041e+00 
78800 5.9929654211e+00 6.8294793032e-05 1.6534662214e+00 -2.8638875041e+00 1.6534662214e+00 2.8638875041e+00 
78900 5.9929654212e+00 6.8304188866e-05 1.6534662214e+00 -2.8638875041e+00 1.6534662214e+00 2.8638875041e+00 
79000 5.9929654213e+00 6.8313466932e-05 1.6534662214e+00 -2.8638875041e+00 1.6534662214e+00 2.8638875041e+00 
79100 5.9929654213e+00 6.8322649435e-05 1.6534662214e+00 -2.8638875041e+00 1.6534662214e+00 2.8638875041e+00 
79200 5.9929654214e+00 6.8331757556e-05 1.6534662214e+00 -2.8638875041e+00 1.6534662214e+00 2.8638875041e+00 
79300 5.9929654214e+00 6.8340811465e-05 1.6534662214e+00 -2.8638875041e+00 1.6534662214e+00 2.8638875041e+00 
79400 5.9929654215e+00 6.8349830347e-05 1.6534662214e+00 -2.8638875041e+00 1.6534662214e+00 2.8638875041e+00 
79500 5.9929654215e+00 6.8358832425e-05 1.6534662214e+00 -2.8638875041e+00 1.6534662214e+00 2.8638875041e+00 
79600 5.9929654216e+00 6.8367834973e-05 1.6534662214e+00 -2.8638875041e+00 1.6534662214e+00 2.8638875041e+00 
79700 5.9929654216e+00 6.8376854350e-05 1.6534662214e+00 -2.8638875041e+00 1.6534662214e+00 2.8638875041e+00 
79800 5.9929654217e+00 6.8385906010e-05 1.6534662214e+00 -2.8638875041e+00 1.6534662214e+00 2.8638875041e+00 
79900 5.9929654217e+00 6.8395004531e-05 1.6534662214e+00 -2.8638875041e+00 1.6534662214e+00 2.8638875041e+00 
80000 5.9929654218e+00 6.8404163632e-05 1.6534662214e+00 -2.8638875041e+00 1.6534662214e+00 2.8638875041e+00 
80100 5.9929654218e+00 6.8413396197e-05 1.6534662214e+00 -2.8638875041e+00 1.6534662214e+00 2.8638875041e+00 
80200 5.9929654219e+00 6.8422714300e-05 1.6534662214e+00 -2.8638875041e+00 1.6534662214e+00 2.8638875041e+00 
80300 5.9929654219e+00 6.8432129217e-05 1.6534662214e+00 -2.8638875041e+00 1.6534662214e+00 2.8638875041e+00 
80400 5.9929654220e+00 6.8436876294e-05 1.6534662214e+00 -2.8638875041e+00 1.6534662214e+00 2.8638875041e+00 
80400 5.9929654220e+00 6.8436876294e-05 1.6534662214e+00 -2.8638875041e+00 1.6534662214e+00 2.8638875041e+00 
