# step Hamiltonian StressXX CellTensor1 CellTensor2 CellTensor3 CellTensor4 
0 7.1364344280e+00 2.8173633614e-03 1.6122881582e+00 -2.7925650064e+00 1.6122881582e+00 2.7925650064e+00 
100 7.1227030374e+00 5.3137141774e-03 1.6122881582e+00 -2.7925650064e+00 1.6122881582e+00 2.7925650064e+00 
200 7.1091061853e+00 7.3857287118e-03 1.6121233730e+00 -2.7922795901e+00 1.6121233730e+00 2.7922795901e+00 
300 7.0956628221e+00 9.1459947129e-03 1.6118943101e+00 -2.7918828415e+00 1.6118943101e+00 2.7918828415e+00 
400 7.0823904756e+00 1.0610086218e-02 1.6116106151e+00 -2.7913914674e+00 1.6116106151e+00 2.7913914674e+00 
500 7.0693055351e+00 1.1793473586e-02 1.6112814498e+00 -2.7908213364e+00 1.6112814498e+00 2.7908213364e+00 
600 7.0564232231e+00 1.2711489364e-02 1.6109154980e+00 -2.7901874893e+00 1.6109154980e+00 2.7901874893e+00 
700 7.0437575766e+00 1.3379292547e-02 1.6105209717e+00 -2.7895041497e+00 1.6105209717e+00 2.7895041497e+00 
800 7.0313214341e+00 1.3811832019e-02 1.6101056180e+00 -2.7887847360e+00 1.6101056180e+00 2.7887847360e+00 
900 7.0191264312e+00 1.4023809904e-02 1.6096767263e+00 -2.7880418738e+00 1.6096767263e+00 2.7880418738e+00 
1000 7.0071830032e+00 1.4029645543e-02 1.6092411365e+00 -2.7872874100e+00 1.6092411365e+00 2.7872874100e+00 
1100 6.9955003934e+00 1.3843440747e-02 1.6088052474e+00 -2.7865324280e+00 1.6088052474e+00 2.7865324280e+00 
1200 6.9840866687e+00 1.3478946875e-02 1.6083750268e+00 -2.7857872640e+00 1.6083750268e+00 2.7857872640e+00 
1300 6.9729487403e+00 1.2949534260e-02 1.6079560212e+00 -2.7850615251e+00 1.6079560212e+00 2.7850615251e+00 
1400 6.9620923907e+00 1.2268164384e-02 1.6075533674e+00 -2.7843641082e+00 1.6075533674e+00 2.7843641082e+00 
1500 6.9515223040e+00 1.1447365122e-02 1.6071718037e+00 -2.7837032206e+00 1.6071718037e+00 2.7837032206e+00 
1600 6.9412421024e+00 1.0499209324e-02 1.6068156831e+00 -2.7830864015e+00 1.6068156831e+00 2.7830864015e+00 
1700 6.9312543851e+00 9.4352968885e-03 1.6064889856e+00 -2.7825205448e+00 1.6064889856e+00 2.7825205448e+00 
1800 6.9215607719e+00 8.2667404136e-03 1.6061953325e+00 -2.7820119227e+00 1.6061953325e+00 2.7820119227e+00 
1900 6.9121619482e+00 7.0041544641e-03 1.6059380001e+00 -2.7815662100e+00 1.6059380001e+00 2.7815662100e+00 
2000 6.9030577136e+00 5.6576483959e-03 1.6057199346e+00 -2.7811885094e+00 1.6057199346e+00 2.7811885094e+00 
2100 6.8942470320e+00 4.2368226475e-03 1.6055437661e+00 -2.7808833766e+00 1.6055437661e+00 2.7808833766e+00 
2200 6.8857280826e+00 2.7507683501e-03 1.6054118243e+00 -2.7806548468e+00 1.6054118243e+00 2.7806548468e+00 
2300 6.8774983128e+00 1.2080700676e-03 1.6053261534e+00 -2.7805064603e+00 1.6053261534e+00 2.7805064603e+00 
2400 6.8695544911e+00 -3.8318855288e-04 1.6052885266e+00 -2.7804412888e+00 1.6052885266e+00 2.7804412888e+00 
2500 6.8618927604e+00 -2.0154164657e-03 1.6053004618e+00 -2.7804619612e+00 1.6053004618e+00 2.7804619612e+00 
2600 6.8545086907e+00 -3.6815045107e-03 1.6053632360e+00 -2.7805706893e+00 1.6053632360e+00 2.7805706893e+00 
2700 6.8473973323e+00 -5.3748125713e-03 1.6054779000e+00 -2.7807692933e+00 1.6054779000e+00 2.7807692933e+00 
2800 6.8405532671e+00 -7.0891548865e-03 1.6056452927e+00 -2.7810592260e+00 1.6056452927e+00 2.7810592260e+00 
2900 6.8339706600e+00 -8.8187837983e-03 1.6058660550e+00 -2.7814415974e+00 1.6058660550e+00 2.7814415974e+00 
3000 6.8276433076e+00 -1.0558372208e-02 1.6061406431e+00 -2.7819171980e+00 1.6061406431e+00 2.7819171980e+00 
3100 6.8215646873e+00 -1.2302995009e-02 1.6064693420e+00 -2.7824865211e+00 1.6064693420e+00 2.7824865211e+00 
3200 6.8157280029e+00 -1.4048109753e-02 1.6068522775e+00 -2.7831497849e+00 1.6068522775e+00 2.7831497849e+00 
3300 6.8101262298e+00 -1.5789536781e-02 1.6072894287e+00 -2.7839069529e+00 1.6072894287e+00 2.7839069529e+00 
3400 6.8047521576e+00 -1.7523439048e-02 1.6077806389e+00 -2.7847577540e+00 1.6077806389e+00 2.7847577540e+00 
3500 6.7995984307e+00 -1.9246301851e-02 1.6083256271e+00 -2.7857017012e+00 1.6083256271e+00 2.7857017012e+00 
3600 6.7946575875e+00 -2.0954912622e-02 1.6089239977e+00 -2.7867381095e+00 1.6089239977e+00 2.7867381095e+00 
3700 6.7899220964e+00 -2.2646340988e-02 1.6095752505e+00 -2.7878661124e+00 1.6095752505e+00 2.7878661124e+00 
3800 6.7853843906e+00 -2.4317919196e-02 1.6102787898e+00 -2.7890846783e+00 1.6102787898e+00 2.7890846783e+00 
3900 6.7810368999e+00 -2.5967223081e-02 1.6110339329e+00 -2.7903926245e+00 1.6110339329e+00 2.7903926245e+00 
4000 6.7768720813e+00 -2.7592053629e-02 1.6118399180e+00 -2.7917886317e+00 1.6118399180e+00 2.7917886317e+00 
4100 6.7728824462e+00 -2.9190419274e-02 1.6126959117e+00 -2.7932712562e+00 1.6126959117e+00 2.7932712562e+00 
4200 6.7690605864e+00 -3.0760518960e-02 1.6136010156e+00 -2.7948389421e+00 1.6136010156e+00 2.7948389421e+00 
4300 6.7653991973e+00 -3.2300726052e-02 1.6145542731e+00 -2.7964900326e+00 1.6145542731e+00 2.7964900326e+00 
4400 6.7618910997e+00 -3.3809573114e-02 1.6155546749e+00 -2.7982227793e+00 1.6155546749e+00 2.7982227793e+00 
4500 6.7585292587e+00 -3.5285737601e-02 1.6166011644e+00 -2.8000353523e+00 1.6166011644e+00 2.8000353523e+00 
4600 6.7553068013e+00 -3.6728028465e-02 1.6176926428e+00 -2.8019258483e+00 1.6176926428e+00 2.8019258483e+00 
4700 6.7522170314e+00 -3.8135373692e-02 1.6188279734e+00 -2.8038922987e+00 1.6188279734e+00 2.8038922987e+00 
4800 6.7492534438e+00 -3.9506808755e-02 1.6200059860e+00 -2.8059326764e+00 1.6200059860e+00 2.8059326764e+00 
4900 6.7464097355e+00 -4.0841465969e-02 1.6212254803e+00 -2.8080449025e+00 1.6212254803e+00 2.8080449025e+00 
5000 6.7436798158e+00 -4.2138564750e-02 1.6224852295e+00 -2.8102268521e+00 1.6224852295e+00 2.8102268521e+00 
5100 6.7410578145e+00 -4.3397402714e-02 1.6237839835e+00 -2.8124763599e+00 1.6237839835e+00 2.8124763599e+00 
5200 6.7385380885e+00 -4.4617347621e-02 1.6251204713e+00 -2.8147912247e+00 1.6251204713e+00 2.8147912247e+00 
5300 6.7361152274e+00 -4.5797830112e-02 1.6264934041e+00 -2.8171692140e+00 1.6264934041e+00 2.8171692140e+00 
5400 6.7337840567e+00 -4.6938337203e-02 1.6279014771e+00 -2.8196080681e+00 1.6279014771e+00 2.8196080681e+00 
5500 6.7315396409e+00 -4.8038406496e-02 1.6293433721e+00 -2.8221055035e+00 1.6293433721e+00 2.8221055035e+00 
5600 6.7293772839e+00 -4.9097621075e-02 1.6308177588e+00 -2.8246592162e+00 1.6308177588e+00 2.8246592162e+00 
5700 6.7272925297e+00 -5.0115605027e-02 1.6323232970e+00 -2.8272668847e+00 1.6323232970e+00 2.8272668847e+00 
5800 6.7252811610e+00 -5.1092019564e-02 1.6338586378e+00 -2.8299261731e+00 1.6338586378e+00 2.8299261731e+00 
5900 6.7233391971e+00 -5.2026559692e-02 1.6354224255e+00 -2.8326347328e+00 1.6354224255e+00 2.8326347328e+00 
6000 6.7214628908e+00 -5.2918951391e-02 1.6370132984e+00 -2.8353902056e+00 1.6370132984e+00 2.8353902056e+00 
6100 6.7196487248e+00 -5.3768949255e-02 1.6386298904e+00 -2.8381902250e+00 1.6386298904e+00 2.8381902250e+00 
6200 6.7178934067e+00 -5.4576334567e-02 1.6402708318e+00 -2.8410324189e+00 1.6402708318e+00 2.8410324189e+00 
6300 6.7161938639e+00 -5.5340913756e-02 1.6419347507e+00 -2.8439144109e+00 1.6419347507e+00 2.8439144109e+00 
6400 6.7145472374e+00 -5.6062517211e-02 1.6436202735e+00 -2.8468338221e+00 1.6436202735e+00 2.8468338221e+00 
6500 6.7129508751e+00 -5.6740998401e-02 1.6453260265e+00 -2.8497882729e+00 1.6453260265e+00 2.8497882729e+00 
6600 6.7114023253e+00 -5.7376233284e-02 1.6470506360e+00 -2.8527753842e+00 1.6470506360e+00 2.8527753842e+00 
6700 6.7098993285e+00 -5.7968119957e-02 1.6487927298e+00 -2.8557927792e+00 1.6487927298e+00 2.8557927792e+00 
6800 6.7084398101e+00 -5.8516578532e-02 1.6505509378e+00 -2.8588380847e+00 1.6505509378e+00 2.8588380847e+00 
6900 6.7070218717e+00 -5.9021551195e-02 1.6523238925e+00 -2.8619089324e+00 1.6523238925e+00 2.8619089324e+00 
7000 6.7056437834e+00 -5.9483002425e-02 1.6541102303e+00 -2.8650029602e+00 1.6541102303e+00 2.8650029602e+00 
7100 6.7043039744e+00 -5.9900919362e-02 1.6559085919e+00 -2.8681178139e+00 1.6559085919e+00 2.8681178139e+00 
7200 6.7030010247e+00 -6.0275312273e-02 1.6577176233e+00 -2.8712511482e+00 1.6577176233e+00 2.8712511482e+00 
7300 6.7017336563e+00 -6.0606215124e-02 1.6595359763e+00 -2.8744006280e+00 1.6595359763e+00 2.8744006280e+00 
7400 6.7005007239e+00 -6.0893686217e-02 1.6613623097e+00 -2.8775639301e+00 1.6613623097e+00 2.8775639301e+00 
7500 6.6993012065e+00 -6.1137808881e-02 1.6631952894e+00 -2.8807387442e+00 1.6631952894e+00 2.8807387442e+00 
7600 6.6981341981e+00 -6.1338692207e-02 1.6650335900e+00 -2.8839227741e+00 1.6650335900e+00 2.8839227741e+00 
7700 6.6969988992e+00 -6.1496471795e-02 1.6668758948e+00 -2.8871137397e+00 1.6668758948e+00 2.8871137397e+00 
7800 6.6958946080e+00 -6.1611310518e-02 1.6687208973e+00 -2.8903093777e+00 1.6687208973e+00 2.8903093777e+00 
7900 6.6948207119e+00 -6.1683399279e-02 1.6705673012e+00 -2.8935074432e+00 1.6705673012e+00 2.8935074432e+00 
8000 6.6937766790e+00 -6.1712957748e-02 1.6724138221e+00 -2.8967057112e+00 1.6724138221e+00 2.8967057112e+00 
8100 6.6927620502e+00 -6.1700235081e-02 1.6742591875e+00 -2.8999019778e+00 1.6742591875e+00 2.8999019778e+00 
8200 6.6917764310e+00 -6.1645510598e-02 1.6761021381e+00 -2.9030940619e+00 1.6761021381e+00 2.9030940619e+00 
8300 6.6908194839e+00 -6.1549094424e-02 1.6779414285e+00 -2.9062798063e+00 1.6779414285e+00 2.9062798063e+00 
8400 6.6898909212e+00 -6.1411328072e-02 1.6797758279e+00 -2.9094570793e+00 1.6797758279e+00 2.9094570793e+00 
8500 6.6889904974e+00 -6.1232584981e-02 1.6816041211e+00 -2.9126237760e+00 1.6816041211e+00 2.9126237760e+00 
8600 6.6881180027e+00 -6.1013270983e-02 1.6834251092e+00 -2.9157778199e+00 1.6834251092e+00 2.9157778199e+00 
8700 6.6872732566e+00 -6.0753824715e-02 1.6852376106e+00 -2.9189171643e+00 1.6852376106e+00 2.9189171643e+00 
8800 6.6864561013e+00 -6.0454717952e-02 1.6870404615e+00 -2.9220397937e+00 1.6870404615e+00 2.9220397937e+00 
8900 6.6856663961e+00 -6.0116455872e-02 1.6888325171e+00 -2.9251437252e+00 1.6888325171e+00 2.9251437252e+00 
9000 6.6849040118e+00 -5.9739577251e-02 1.6906126523e+00 -2.9282270098e+00 1.6906126523e+00 2.9282270098e+00 
9100 6.6841688256e+00 -5.9324654574e-02 1.6923797624e+00 -2.9312877341e+00 1.6923797624e+00 2.9312877341e+00 
9200 6.6834607163e+00 -5.8872294074e-02 1.6941327638e+00 -2.9343240217e+00 1.6941327638e+00 2.9343240217e+00 
9300 6.6827795597e+00 -5.8383135687e-02 1.6958705954e+00 -2.9373340342e+00 1.6958705954e+00 2.9373340342e+00 
9400 6.6821252245e+00 -5.7857852932e-02 1.6975922185e+00 -2.9403159730e+00 1.6975922185e+00 2.9403159730e+00 
9500 6.6814975687e+00 -5.7297152712e-02 1.6992966185e+00 -2.9432680804e+00 1.6992966185e+00 2.9432680804e+00 
9600 6.6808964362e+00 -5.6701775032e-02 1.7009828050e+00 -2.9461886410e+00 1.7009828050e+00 2.9461886410e+00 
9700 6.6803216535e+00 -5.6072492639e-02 1.7026498126e+00 -2.9490759829e+00 1.7026498126e+00 2.9490759829e+00 
9800 6.6797730271e+00 -5.5410110590e-02 1.7042967021e+00 -2.9519284792e+00 1.7042967021e+00 2.9519284792e+00 
9900 6.6792503414e+00 -5.4715465732e-02 1.7059225607e+00 -2.9547445489e+00 1.7059225607e+00 2.9547445489e+00 
10000 6.6787533561e+00 -5.3989426120e-02 1.7075265031e+00 -2.9575226587e+00 1.7075265031e+00 2.9575226587e+00 
10100 6.6782818050e+00 -5.3232890347e-02 1.7091076718e+00 -2.9602613232e+00 1.7091076718e+00 2.9602613232e+00 
10200 6.6778353944e+00 -5.2446786811e-02 1.7106652380e+00 -2.9629591070e+00 1.7106652380e+00 2.9629591070e+00 
10300 6.6774138017e+00 -5.1632072908e-02 1.7121984022e+00 -2.9656146253e+00 1.7121984022e+00 2.9656146253e+00 
10400 6.6770166751e+00 -5.0789734153e-02 1.7137063946e+00 -2.9682265447e+00 1.7137063946e+00 2.9682265447e+00 
10500 6.6766436329e+00 -4.9920783239e-02 1.7151884760e+00 -2.9707935850e+00 1.7151884760e+00 2.9707935850e+00 
10600 6.6762942627e+00 -4.9026259026e-02 1.7166439381e+00 -2.9733145193e+00 1.7166439381e+00 2.9733145193e+00 
10700 6.6759681224e+00 -4.8107225470e-02 1.7180721041e+00 -2.9757881754e+00 1.7180721041e+00 2.9757881754e+00 
10800 6.6756647396e+00 -4.7164770487e-02 1.7194723292e+00 -2.9782134364e+00 1.7194723292e+00 2.9782134364e+00 
10900 6.6753836123e+00 -4.6200004767e-02 1.7208440011e+00 -2.9805892418e+00 1.7208440011e+00 2.9805892418e+00 
11000 6.6751242098e+00 -4.5214060517e-02 1.7221865402e+00 -2.9829145877e+00 1.7221865402e+00 2.9829145877e+00 
11100 6.6748859734e+00 -4.4208090167e-02 1.7234994003e+00 -2.9851885281e+00 1.7234994003e+00 2.9851885281e+00 
11200 6.6746683175e+00 -4.3183265010e-02 1.7247820688e+00 -2.9874101751e+00 1.7247820688e+00 2.9874101751e+00 
11300 6.6744706310e+00 -4.2140773801e-02 1.7260340671e+00 -2.9895786998e+00 1.7260340671e+00 2.9895786998e+00 
11400 6.6742922785e+00 -4.1081821304e-02 1.7272549508e+00 -2.9916933325e+00 1.7272549508e+00 2.9916933325e+00 
11500 6.6741326021e+00 -4.0007626801e-02 1.7284443101e+00 -2.9937533631e+00 1.7284443101e+00 2.9937533631e+00 
11600 6.6739909229e+00 -3.8919422554e-02 1.7296017696e+00 -2.9957581419e+00 1.7296017696e+00 2.9957581419e+00 
11700 6.6738665432e+00 -3.7818452225e-02 1.7307269893e+00 -2.9977070795e+00 1.7307269893e+00 2.9977070795e+00 
11800 6.6737587477e+00 -3.6705969272e-02 1.7318196639e+00 -2.9995996475e+00 1.7318196639e+00 2.9995996475e+00 
11900 6.6736668065e+00 -3.5583235296e-02 1.7328795234e+00 -3.0014353780e+00 1.7328795234e+00 3.0014353780e+00 
12000 6.6735899763e+00 -3.4451518366e-02 1.7339063330e+00 -3.0032138644e+00 1.7339063330e+00 3.0032138644e+00 
12100 6.6735275031e+00 -3.3312091316e-02 1.7348998932e+00 -3.0049347611e+00 1.7348998932e+00 3.0049347611e+00 
12200 6.6734786244e+00 -3.2166230014e-02 1.7358600398e+00 -3.0065977837e+00 1.7358600398e+00 3.0065977837e+00 
12300 6.6734425711e+00 -3.1015211606e-02 1.7367866436e+00 -3.0082027085e+00 1.7367866436e+00 3.0082027085e+00 
12400 6.6734185702e+00 -2.9860312749e-02 1.7376796107e+00 -3.0097493730e+00 1.7376796107e+00 3.0097493730e+00 
12500 6.6734058465e+00 -2.8702807822e-02 1.7385388822e+00 -3.0112376749e+00 1.7385388822e+00 3.0112376749e+00 
12600 6.6734036258e+00 -2.7543967125e-02 1.7393644340e+00 -3.0126675726e+00 1.7393644340e+00 3.0126675726e+00 
12700 6.6734111360e+00 -2.6385055070e-02 1.7401562766e+00 -3.0140390842e+00 1.7401562766e+00 3.0140390842e+00 
12800 6.6734276105e+00 -2.5227328365e-02 1.7409144548e+00 -3.0153522873e+00 1.7409144548e+00 3.0153522873e+00 
12900 6.6734522896e+00 -2.4072034198e-02 1.7416390474e+00 -3.0166073186e+00 1.7416390474e+00 3.0166073186e+00 
13000 6.6734844228e+00 -2.2920408421e-02 1.7423301673e+00 -3.0178043733e+00 1.7423301673e+00 3.0178043733e+00 
13100 6.6735232712e+00 -2.1773673734e-02 1.7429879602e+00 -3.0189437041e+00 1.7429879602e+00 3.0189437041e+00 
13200 6.6735681093e+00 -2.0633037889e-02 1.7436126052e+00 -3.0200256209e+00 1.7436126052e+00 3.0200256209e+00 
13300 6.6736182269e+00 -1.9499691897e-02 1.7442043136e+00 -3.0210504899e+00 1.7442043136e+00 3.0210504899e+00 
13400 6.6736729313e+00 -1.8374808258e-02 1.7447633288e+00 -3.0220187326e+00 1.7447633288e+00 3.0220187326e+00 
13500 6.6737315486e+00 -1.7259539208e-02 1.7452899255e+00 -3.0229308248e+00 1.7452899255e+00 3.0229308248e+00 
13600 6.6737934257e+00 -1.6155014990e-02 1.7457844093e+00 -3.0237872960e+00 1.7457844093e+00 3.0237872960e+00 
13700 6.6738579319e+00 -1.5062342166e-02 1.7462471162e+00 -3.0245887278e+00 1.7462471162e+00 3.0245887278e+00 
13800 6.6739244601e+00 -1.3982601944e-02 1.7466784114e+00 -3.0253357531e+00 1.7466784114e+00 3.0253357531e+00 
13900 6.6739924284e+00 -1.2916848559e-02 1.7470786893e+00 -3.0260290548e+00 1.7470786893e+00 3.0260290548e+00 
14000 6.6740612814e+00 -1.1866107690e-02 1.7474483723e+00 -3.0266693644e+00 1.7474483723e+00 3.0266693644e+00 
14100 6.6741304907e+00 -1.0831374924e-02 1.7477879100e+00 -3.0272574610e+00 1.7477879100e+00 3.0272574610e+00 
14200 6.6741995567e+00 -9.8136142700e-03 1.7480977787e+00 -3.0277941693e+00 1.7480977787e+00 3.0277941693e+00 
14300 6.6742680088e+00 -8.8137567309e-03 1.7483784803e+00 -3.0282803587e+00 1.7483784803e+00 3.0282803587e+00 
14400 6.6743354065e+00 -7.8326989342e-03 1.7486305415e+00 -3.0287169415e+00 1.7486305415e+00 3.0287169415e+00 
14500 6.6744013398e+00 -6.8713018260e-03 1.7488545129e+00 -3.0291048715e+00 1.7488545129e+00 3.0291048715e+00 
14600 6.6744654294e+00 -5.9303894331e-03 1.7490509681e+00 -3.0294451418e+00 1.7490509681e+00 3.0294451418e+00 
14700 6.6745273276e+00 -5.0107476965e-03 1.7492205025e+00 -3.0297387840e+00 1.7492205025e+00 3.0297387840e+00 
14800 6.6745867179e+00 -4.1131233815e-03 1.7493637325e+00 -3.0299868656e+00 1.7493637325e+00 3.0299868656e+00 
14900 6.6746433154e+00 -3.2382230658e-03 1.7494812943e+00 -3.0301904887e+00 1.7494812943e+00 3.0301904887e+00 
15000 6.6746968663e+00 -2.3867122110e-03 1.7495738432e+00 -3.0303507881e+00 1.7495738432e+00 3.0303507881e+00 
15100 6.6747471483e+00 -1.5592143197e-03 1.7496420521e+00 -3.0304689293e+00 1.7496420521e+00 3.0304689293e+00 
15200 6.6747939697e+00 -7.5631018086e-04 1.7496866104e+00 -3.0305461065e+00 1.7496866104e+00 3.0305461065e+00 
15300 6.6748371690e+00 2.1462792489e-05 1.7497082231e+00 -3.0305835409e+00 1.7497082231e+00 3.0305835409e+00 
15400 6.6748766158e+00 7.7439582543e-04 1.7497082231e+00 -3.0305835409e+00 1.7497082231e+00 3.0305835409e+00 
15500 6.6749122064e+00 1.5004477026e-03 1.7496860939e+00 -3.0305452119e+00 1.7496860939e+00 3.0305452119e+00 
15600 6.6749438666e+00 2.2000225859e-03 1.7496432164e+00 -3.0304709460e+00 1.7496432164e+00 3.0304709460e+00 
15700 6.6749715494e+00 2.8727612289e-03 1.7495803462e+00 -3.0303620516e+00 1.7495803462e+00 3.0303620516e+00 
15800 6.6749952345e+00 3.5183496349e-03 1.7494982483e+00 -3.0302198538e+00 1.7494982483e+00 3.0302198538e+00 
15900 6.6750149268e+00 4.1365191326e-03 1.7493976961e+00 -3.0300456924e+00 1.7493976961e+00 3.0300456924e+00 
16000 6.6750306552e+00 4.7270463503e-03 1.7492794705e+00 -3.0298409196e+00 1.7492794705e+00 3.0298409196e+00 
16100 6.6750424718e+00 5.2897530892e-03 1.7491443582e+00 -3.0296068981e+00 1.7491443582e+00 3.0296068981e+00 
16200 6.6750504503e+00 5.8245060964e-03 1.7489931506e+00 -3.0293449989e+00 1.7489931506e+00 3.0293449989e+00 
16300 6.6750546847e+00 6.3312167380e-03 1.7488266430e+00 -3.0290565993e+00 1.7488266430e+00 3.0290565993e+00 
16400 6.6750552881e+00 6.8098405742e-03 1.7486456328e+00 -3.0287430805e+00 1.7486456328e+00 3.0287430805e+00 
16500 6.6750523910e+00 7.2603768378e-03 1.7484509189e+00 -3.0284058260e+00 1.7484509189e+00 3.0284058260e+00 
16600 6.6750461400e+00 7.6828678179e-03 1.7482432999e+00 -3.0280462194e+00 1.7482432999e+00 3.0280462194e+00 
16700 6.6750366963e+00 8.0773981517e-03 1.7480235734e+00 -3.0276656419e+00 1.7480235734e+00 3.0276656419e+00 
16800 6.6750242343e+00 8.4440940269e-03 1.7477925347e+00 -3.0272654713e+00 1.7477925347e+00 3.0272654713e+00 
16900 6.6750089397e+00 8.7831222985e-03 1.7475509758e+00 -3.0268470788e+00 1.7475509758e+00 3.0268470788e+00 
17000 6.6749910086e+00 9.0946895219e-03 1.7472996838e+00 -3.0264118283e+00 1.7472996838e+00 3.0264118283e+00 
17100 6.6749706454e+00 9.3790409083e-03 1.7470394404e+00 -3.0259610735e+00 1.7470394404e+00 3.0259610735e+00 
17200 6.6749480618e+00 9.6364592051e-03 1.7467710205e+00 -3.0254961568e+00 1.7467710205e+00 3.0254961568e+00 
17300 6.6749234751e+00 9.8672635052e-03 1.7464951914e+00 -3.0250184067e+00 1.7464951914e+00 3.0250184067e+00 
17400 6.6748971065e+00 1.0071807992e-02 1.7462127115e+00 -3.0245291371e+00 1.7462127115e+00 3.0245291371e+00 
17500 6.6748691805e+00 1.0250480622e-02 1.7459243294e+00 -3.0240296446e+00 1.7459243294e+00 3.0240296446e+00 
17600 6.6748399225e+00 1.0403701752e-02 1.7456307830e+00 -3.0235212075e+00 1.7456307830e+00 3.0235212075e+00 
17700 6.6748095583e+00 1.0531922718e-02 1.7453327989e+00 -3.0230050838e+00 1.7453327989e+00 3.0230050838e+00 
17800 6.6747783124e+00 1.0635624362e-02 1.7450310908e+00 -3.0224825101e+00 1.7450310908e+00 3.0224825101e+00 
17900 6.6747464071e+00 1.0715315530e-02 1.7447263595e+00 -3.0219546999e+00 1.7447263595e+00 3.0219546999e+00 
18000 6.6747140609e+00 1.0771531521e-02 1.7444192912e+00 -3.0214228421e+00 1.7444192912e+00 3.0214228421e+00 
18100 6.6746814880e+00 1.0804832519e-02 1.7441105577e+00 -3.0208881000e+00 1.7441105577e+00 3.0208881000e+00 
18200 6.6746488967e+00 1.0815801997e-02 1.7438008149e+00 -3.0203516098e+00 1.7438008149e+00 3.0203516098e+00 
18300 6.6746164890e+00 1.0805045101e-02 1.7434907027e+00 -3.0198144795e+00 1.7434907027e+00 3.0198144795e+00 
18400 6.6745844592e+00 1.0773187023e-02 1.7431808437e+00 -3.0192777880e+00 1.7431808437e+00 3.0192777880e+00 
18500 6.6745529935e+00 1.0720871367e-02 1.7428718434e+00 -3.0187425838e+00 1.7428718434e+00 3.0187425838e+00 
18600 6.6745222692e+00 1.0648758512e-02 1.7425642890e+00 -3.0182098840e+00 1.7425642890e+00 3.0182098840e+00 
18700 6.6744924538e+00 1.0557523976e-02 1.7422587494e+00 -3.0176806740e+00 1.7422587494e+00 3.0176806740e+00 
18800 6.6744637047e+00 1.0447856793e-02 1.7419557744e+00 -3.0171559058e+00 1.7419557744e+00 3.0171559058e+00 
18900 6.6744361688e+00 1.0320457895e-02 1.7416558943e+00 -3.0166364983e+00 1.7416558943e+00 3.0166364983e+00 
19000 6.6744099818e+00 1.0176038515e-02 1.7413596198e+00 -3.0161233357e+00 1.7413596198e+00 3.0161233357e+00 
19100 6.6743852679e+00 1.0015318612e-02 1.7410674414e+00 -3.0156172679e+00 1.7410674414e+00 3.0156172679e+00 
19200 6.6743621399e+00 9.8390253211e-03 1.7407798292e+00 -3.0151191090e+00 1.7407798292e+00 3.0151191090e+00 
19300 6.6743406985e+00 9.6478914270e-03 1.7404972329e+00 -3.0146296379e+00 1.7404972329e+00 3.0146296379e+00 
19400 6.6743210326e+00 9.4426538775e-03 1.7402200812e+00 -3.0141495970e+00 1.7402200812e+00 3.0141495970e+00 
19500 6.6743032191e+00 9.2240523289e-03 1.7399487820e+00 -3.0136796929e+00 1.7399487820e+00 3.0136796929e+00 
19600 6.6742873229e+00 8.9928277305e-03 1.7396837219e+00 -3.0132205955e+00 1.7396837219e+00 3.0132205955e+00 
19700 6.6742733969e+00 8.7497209516e-03 1.7394252668e+00 -3.0127729380e+00 1.7394252668e+00 3.0127729380e+00 
19800 6.6742614825e+00 8.4954714514e-03 1.7391737610e+00 -3.0123373172e+00 1.7391737610e+00 3.0123373172e+00 
19900 6.6742516095e+00 8.2308159962e-03 1.7389295280e+00 -3.0119142932e+00 1.7389295280e+00 3.0119142932e+00 
20000 6.6742437963e+00 7.9564874236e-03 1.7386928700e+00 -3.0115043897e+00 1.7386928700e+00 3.0115043897e+00 
20100 6.6742380506e+00 7.6732134574e-03 1.7384640685e+00 -3.0111080937e+00 1.7384640685e+00 3.0111080937e+00 
20200 6.6742343693e+00 7.3817155729e-03 1.7382433837e+00 -3.0107258565e+00 1.7382433837e+00 3.0107258565e+00 
20300 6.6742327393e+00 7.0827079146e-03 1.7380310554e+00 -3.0103580931e+00 1.7380310554e+00 3.0103580931e+00 
20400 6.6742331377e+00 6.7768962668e-03 1.7378273027e+00 -3.0100051831e+00 1.7378273027e+00 3.0100051831e+00 
20500 6.6742355322e+00 6.4649770785e-03 1.7376323245e+00 -3.0096674709e+00 1.7376323245e+00 3.0096674709e+00 
20600 6.6742398820e+00 6.1476365410e-03 1.7374462995e+00 -3.0093452661e+00 1.7374462995e+00 3.0093452661e+00 
20700 6.6742461379e+00 5.8255497211e-03 1.7372693866e+00 -3.0090388441e+00 1.7372693866e+00 3.0090388441e+00 
20800 6.6742542431e+00 5.4993797474e-03 1.7371017253e+00 -3.0087484462e+00 1.7371017253e+00 3.0087484462e+00 
20900 6.6742641337e+00 5.1697770509e-03 1.7369434359e+00 -3.0084742809e+00 1.7369434359e+00 3.0084742809e+00 
21000 6.6742757392e+00 4.8373786592e-03 1.7367946198e+00 -3.0082165239e+00 1.7367946198e+00 3.0082165239e+00 
21100 6.6742889835e+00 4.5028075429e-03 1.7366553600e+00 -3.0079753188e+00 1.7366553600e+00 3.0079753188e+00 
21200 6.6743037848e+00 4.1666720148e-03 1.7365257214e+00 -3.0077507781e+00 1.7365257214e+00 3.0077507781e+00 
21300 6.6743200569e+00 3.8295651802e-03 1.7364057513e+00 -3.0075429838e+00 1.7364057513e+00 3.0075429838e+00 
21400 6.6743377094e+00 3.4920644366e-03 1.7362954797e+00 -3.0073519878e+00 1.7362954797e+00 3.0073519878e+00 
21500 6.6743566484e+00 3.1547310237e-03 1.7361949199e+00 -3.0071778131e+00 1.7361949199e+00 3.0071778131e+00 
21600 6.6743767773e+00 2.8181096199e-03 1.7361040688e+00 -3.0070204544e+00 1.7361040688e+00 3.0070204544e+00 
21700 6.6743979969e+00 2.4827279867e-03 1.7360229076e+00 -3.0068798790e+00 1.7360229076e+00 3.0068798790e+00 
21800 6.6744202066e+00 2.1490966568e-03 1.7359514018e+00 -3.0067560275e+00 1.7359514018e+00 3.0067560275e+00 
21900 6.6744433045e+00 1.8177086665e-03 1.7358895025e+00 -3.0066488147e+00 1.7358895025e+00 3.0066488147e+00 
22000 6.6744671881e+00 1.4890393308e-03 1.7358371461e+00 -3.0065581307e+00 1.7358371461e+00 3.0065581307e+00 
22100 6.6744917547e+00 1.1635460577e-03 1.7357942552e+00 -3.0064838415e+00 1.7357942552e+00 3.0064838415e+00 
22200 6.6745169024e+00 8.4166820286e-04 1.7357607390e+00 -3.0064257898e+00 1.7357607390e+00 3.0064257898e+00 
22300 6.6745425297e+00 5.2382696077e-04 1.7357364942e+00 -3.0063837964e+00 1.7357364942e+00 3.0063837964e+00 
22400 6.6745685369e+00 2.1042529203e-04 1.7357214047e+00 -3.0063576608e+00 1.7357214047e+00 3.0063576608e+00 
22500 6.6745948258e+00 -9.8152115247e-05 1.7357153431e+00 -3.0063471617e+00 1.7357153431e+00 3.0063471617e+00 
22600 6.6746213004e+00 -4.0153885148e-04 1.7357181705e+00 -3.0063520590e+00 1.7357181705e+00 3.0063520590e+00 
22700 6.6746478676e+00 -6.9938676073e-04 1.7357297375e+00 -3.0063720935e+00 1.7357297375e+00 3.0063720935e+00 
22800 6.6746744367e+00 -9.9136588649e-04 1.7357498843e+00 -3.0064069888e+00 1.7357498843e+00 3.0064069888e+00 
22900 6.6747009206e+00 -1.2771643897e-03 1.7357784416e+00 -3.0064564516e+00 1.7357784416e+00 3.0064564516e+00 
23000 6.6747272357e+00 -1.5564884402e-03 1.7358152312e+00 -3.0065201729e+00 1.7358152312e+00 3.0065201729e+00 
23100 6.6747533020e+00 -1.8290620842e-03 1.7358600659e+00 -3.0065978289e+00 1.7358600659e+00 3.0065978289e+00 
23200 6.6747790435e+00 -2.0946270875e-03 1.7359127507e+00 -3.0066890818e+00 1.7359127507e+00 3.0066890818e+00 
23300 6.6748043886e+00 -2.3529427576e-03 1.7359730832e+00 -3.0067935807e+00 1.7359730832e+00 3.0067935807e+00 
23400 6.6748292700e+00 -2.6037857452e-03 1.7360408538e+00 -3.0069109628e+00 1.7360408538e+00 3.0069109628e+00 
23500 6.6748536248e+00 -2.8469498260e-03 1.7361158464e+00 -3.0070408538e+00 1.7361158464e+00 3.0070408538e+00 
23600 6.6748773947e+00 -3.0822456661e-03 1.7361978390e+00 -3.0071828691e+00 1.7361978390e+00 3.0071828691e+00 
23700 6.6749005264e+00 -3.3095005692e-03 1.7362866040e+00 -3.0073366146e+00 1.7362866040e+00 3.0073366146e+00 
23800 6.6749229711e+00 -3.5285582099e-03 1.7363819089e+00 -3.0075016875e+00 1.7363819089e+00 3.0075016875e+00 
23900 6.6749446849e+00 -3.7392783518e-03 1.7364835165e+00 -3.0076776770e+00 1.7364835165e+00 3.0076776770e+00 
24000 6.6749656287e+00 -3.9415365534e-03 1.7365911857e+00 -3.0078641656e+00 1.7365911857e+00 3.0078641656e+00 
24100 6.6749857681e+00 -4.1352238618e-03 1.7367046718e+00 -3.0080607293e+00 1.7367046718e+00 3.0080607293e+00 
24200 6.6750050737e+00 -4.3202464950e-03 1.7368237269e+00 -3.0082669388e+00 1.7368237269e+00 3.0082669388e+00 
24300 6.6750235205e+00 -4.4965255152e-03 1.7369481004e+00 -3.0084823601e+00 1.7369481004e+00 3.0084823601e+00 
24400 6.6750410884e+00 -4.6639964925e-03 1.7370775396e+00 -3.0087065553e+00 1.7370775396e+00 3.0087065553e+00 
24500 6.6750577616e+00 -4.8226091606e-03 1.7372117897e+00 -3.0089390832e+00 1.7372117897e+00 3.0089390832e+00 
24600 6.6750735288e+00 -4.9723270656e-03 1.7373505947e+00 -3.0091795005e+00 1.7373505947e+00 3.0091795005e+00 
24700 6.6750883830e+00 -5.1131272079e-03 1.7374936975e+00 -3.0094273619e+00 1.7374936975e+00 3.0094273619e+00 
24800 6.6751023213e+00 -5.2449996791e-03 1.7376408405e+00 -3.0096822210e+00 1.7376408405e+00 3.0096822210e+00 
24900 6.6751153447e+00 -5.3679472936e-03 1.7377917657e+00 -3.0099436311e+00 1.7377917657e+00 3.0099436311e+00 
25000 6.6751274581e+00 -5.4819852161e-03 1.7379462153e+00 -3.0102111457e+00 1.7379462153e+00 3.0102111457e+00 
25100 6.6751386700e+00 -5.5871405856e-03 1.7381039322e+00 -3.0104843193e+00 1.7381039322e+00 3.0104843193e+00 
25200 6.6751489922e+00 -5.6834521365e-03 1.7382646598e+00 -3.0107627078e+00 1.7382646598e+00 3.0107627078e+00 
25300 6.6751584399e+00 -5.7709698179e-03 1.7384281430e+00 -3.0110458690e+00 1.7384281430e+00 3.0110458690e+00 
25400 6.6751670313e+00 -5.8497544102e-03 1.7385941280e+00 -3.0113333635e+00 1.7385941280e+00 3.0113333635e+00 
25500 6.6751747872e+00 -5.9198771413e-03 1.7387623631e+00 -3.0116247551e+00 1.7387623631e+00 3.0116247551e+00 
25600 6.6751817312e+00 -5.9814193023e-03 1.7389325983e+00 -3.0119196113e+00 1.7389325983e+00 3.0119196113e+00 
25700 6.6751878892e+00 -6.0344718620e-03 1.7391045865e+00 -3.0122175036e+00 1.7391045865e+00 3.0122175036e+00 
25800 6.6751932893e+00 -6.0791350828e-03 1.7392780831e+00 -3.0125180084e+00 1.7392780831e+00 3.0125180084e+00 
25900 6.6751979614e+00 -6.1155181367e-03 1.7394528463e+00 -3.0128207072e+00 1.7394528463e+00 3.0128207072e+00 
26000 6.6752019373e+00 -6.1437387226e-03 1.7396286378e+00 -3.0131251870e+00 1.7396286378e+00 3.0131251870e+00 
26100 6.6752052502e+00 -6.1639226848e-03 1.7398052227e+00 -3.0134310410e+00 1.7398052227e+00 3.0134310410e+00 
26200 6.6752079346e+00 -6.1762036342e-03 1.7399823698e+00 -3.0137378687e+00 1.7399823698e+00 3.0137378687e+00 
26300 6.6752100259e+00 -6.1807225704e-03 1.7401598517e+00 -3.0140452764e+00 1.7401598517e+00 3.0140452764e+00 
26400 6.6752115608e+00 -6.1776275074e-03 1.7403374454e+00 -3.0143528777e+00 1.7403374454e+00 3.0143528777e+00 
26500 6.6752125761e+00 -6.1670731021e-03 1.7405149320e+00 -3.0146602935e+00 1.7405149320e+00 3.0146602935e+00 
26600 6.6752131095e+00 -6.1492202851e-03 1.7406920973e+00 -3.0149671529e+00 1.7406920973e+00 3.0149671529e+00 
26700 6.6752131987e+00 -6.1242358957e-03 1.7408687318e+00 -3.0152730927e+00 1.7408687318e+00 3.0152730927e+00 
26800 6.6752128817e+00 -6.0922923203e-03 1.7410446307e+00 -3.0155777586e+00 1.7410446307e+00 3.0155777586e+00 
26900 6.6752121963e+00 -6.0535671346e-03 1.7412195945e+00 -3.0158808048e+00 1.7412195945e+00 3.0158808048e+00 
27000 6.6752111799e+00 -6.0082427500e-03 1.7413934286e+00 -3.0161818943e+00 1.7413934286e+00 3.0161818943e+00 
27100 6.6752098698e+00 -5.9565060647e-03 1.7415659439e+00 -3.0164806997e+00 1.7415659439e+00 3.0164806997e+00 
27200 6.6752083025e+00 -5.8985481185e-03 1.7417369568e+00 -3.0167769026e+00 1.7417369568e+00 3.0167769026e+00 
27300 6.6752065138e+00 -5.8345637534e-03 1.7419062890e+00 -3.0170701946e+00 1.7419062890e+00 3.0170701946e+00 
27400 6.6752045388e+00 -5.7647512779e-03 1.7420737681e+00 -3.0173602769e+00 1.7420737681e+00 3.0173602769e+00 
27500 6.6752024114e+00 -5.6893121381e-03 1.7422392273e+00 -3.0176468606e+00 1.7422392273e+00 3.0176468606e+00 
27600 6.6752001648e+00 -5.6084505918e-03 1.7424025057e+00 -3.0179296671e+00 1.7424025057e+00 3.0179296671e+00 
27700 6.6751978306e+00 -5.5223733904e-03 1.7425634483e+00 -3.0182084280e+00 1.7425634483e+00 3.0182084280e+00 
27800 6.6751954395e+00 -5.4312894640e-03 1.7427219062e+00 -3.0184828850e+00 1.7427219062e+00 3.0184828850e+00 
27900 6.6751930204e+00 -5.3354096144e-03 1.7428777363e+00 -3.0187527906e+00 1.7428777363e+00 3.0187527906e+00 
28000 6.6751906013e+00 -5.2349462120e-03 1.7430308018e+00 -3.0190179078e+00 1.7430308018e+00 3.0190179078e+00 
28100 6.6751882083e+00 -5.1301128996e-03 1.7431809718e+00 -3.0192780100e+00 1.7431809718e+00 3.0192780100e+00 
28200 6.6751858661e+00 -5.0211243024e-03 1.7433281219e+00 -3.0195328814e+00 1.7433281219e+00 3.0195328814e+00 
28300 6.6751835978e+00 -4.9081957429e-03 1.7434721336e+00 -3.0197823171e+00 1.7434721336e+00 3.0197823171e+00 
28400 6.6751814249e+00 -4.7915429638e-03 1.7436128948e+00 -3.0200261225e+00 1.7436128948e+00 3.0200261225e+00 
28500 6.6751793672e+00 -4.6713818552e-03 1.7437502993e+00 -3.0202641141e+00 1.7437502993e+00 3.0202641141e+00 
28600 6.6751774429e+00 -4.5479281899e-03 1.7438842474e+00 -3.0204961190e+00 1.7438842474e+00 3.0204961190e+00 
28700 6.6751756684e+00 -4.4213973639e-03 1.7440146455e+00 -3.0207219752e+00 1.7440146455e+00 3.0207219752e+00 
28800 6.6751740586e+00 -4.2920041442e-03 1.7441414063e+00 -3.0209415312e+00 1.7441414063e+00 3.0209415312e+00 
28900 6.6751726265e+00 -4.1599624226e-03 1.7442644483e+00 -3.0211546463e+00 1.7442644483e+00 3.0211546463e+00 
29000 6.6751713836e+00 -4.0254849767e-03 1.7443836966e+00 -3.0213611903e+00 1.7443836966e+00 3.0213611903e+00 
29100 6.6751703396e+00 -3.8887832368e-03 1.7444990820e+00 -3.0215610438e+00 1.7444990820e+00 3.0215610438e+00 
29200 6.6751695029e+00 -3.7500670604e-03 1.7446105416e+00 -3.0217540975e+00 1.7446105416e+00 3.0217540975e+00 
29300 6.6751688800e+00 -3.6095445131e-03 1.7447180185e+00 -3.0219402529e+00 1.7447180185e+00 3.0219402529e+00 
29400 6.6751684761e+00 -3.4674216558e-03 1.7448214616e+00 -3.0221194216e+00 1.7448214616e+00 3.0221194216e+00 
29500 6.6751682946e+00 -3.3239023398e-03 1.7449208257e+00 -3.0222915254e+00 1.7449208257e+00 3.0222915254e+00 
29600 6.6751683378e+00 -3.1791880079e-03 1.7450160717e+00 -3.0224564962e+00 1.7450160717e+00 3.0224564962e+00 
29700 6.6751686065e+00 -3.0334775028e-03 1.7451071658e+00 -3.0226142759e+00 1.7451071658e+00 3.0226142759e+00 
29800 6.6751691000e+00 -2.8869668825e-03 1.7451940804e+00 -3.0227648163e+00 1.7451940804e+00 3.0227648163e+00 
29900 6.6751698166e+00 -2.7398492425e-03 1.7452767929e+00 -3.0229080786e+00 1.7452767929e+00 3.0229080786e+00 
30000 6.6751707532e+00 -2.5923145450e-03 1.7453552868e+00 -3.0230440340e+00 1.7453552868e+00 3.0230440340e+00 
30100 6.6751719057e+00 -2.4445494550e-03 1.7454295505e+00 -3.0231726626e+00 1.7454295505e+00 3.0231726626e+00 
30200 6.6751732688e+00 -2.2967371839e-03 1.7454995782e+00 -3.0232939540e+00 1.7454995782e+00 3.0232939540e+00 
30300 6.6751748363e+00 -2.1490573396e-03 1.7455653688e+00 -3.0234079067e+00 1.7455653688e+00 3.0234079067e+00 
30400 6.6751766012e+00 -2.0016857837e-03 1.7456269268e+00 -3.0235145283e+00 1.7456269268e+00 3.0235145283e+00 
30500 6.6751785555e+00 -1.8547944961e-03 1.7456842614e+00 -3.0236138348e+00 1.7456842614e+00 3.0236138348e+00 
30600 6.6751806904e+00 -1.7085514460e-03 1.7457373868e+00 -3.0237058507e+00 1.7457373868e+00 3.0237058507e+00 
30700 6.6751829966e+00 -1.5631204709e-03 1.7457863220e+00 -3.0237906089e+00 1.7457863220e+00 3.0237906089e+00 
30800 6.6751854640e+00 -1.4186611613e-03 1.7458310906e+00 -3.0238681503e+00 1.7458310906e+00 3.0238681503e+00 
30900 6.6751880821e+00 -1.2753287538e-03 1.7458717207e+00 -3.0239385238e+00 1.7458717207e+00 3.0239385238e+00 
31000 6.6751908400e+00 -1.1332740300e-03 1.7459082450e+00 -3.0240017856e+00 1.7459082450e+00 3.0240017856e+00 
31100 6.6751937262e+00 -9.9264322345e-04 1.7459407002e+00 -3.0240579998e+00 1.7459407002e+00 3.0240579998e+00 
31200 6.6751967290e+00 -8.5357793249e-04 1.7459691275e+00 -3.0241072372e+00 1.7459691275e+00 3.0241072372e+00 
31300 6.6751998365e+00 -7.1621504094e-04 1.7459935718e+00 -3.0241495760e+00 1.7459935718e+00 3.0241495760e+00 
31400 6.6752030367e+00 -5.8068664516e-04 1.7460140820e+00 -3.0241851008e+00 1.7460140820e+00 3.0241851008e+00 
31500 6.6752063173e+00 -4.4711998810e-04 1.7460307110e+00 -3.0242139030e+00 1.7460307110e+00 3.0242139030e+00 
31600 6.6752096661e+00 -3.1563740026e-04 1.7460435149e+00 -3.0242360800e+00 1.7460435149e+00 3.0242360800e+00 
31700 6.6752130710e+00 -1.8635624735e-04 1.7460525536e+00 -3.0242517355e+00 1.7460525536e+00 3.0242517355e+00 
31800 6.6752165197e+00 -5.9388884690e-05 1.7460578901e+00 -3.0242609786e+00 1.7460578901e+00 3.0242609786e+00 
31900 6.6752200000e+00 6.2974988541e-05 1.7460578901e+00 -3.0242609786e+00 1.7460578901e+00 3.0242609786e+00 
32000 6.6752235010e+00 1.8737505288e-04 1.7460578901e+00 -3.0242609786e+00 1.7460578901e+00 3.0242609786e+00 
32100 6.6752270105e+00 3.0677134818e-04 1.7460525244e+00 -3.0242516850e+00 1.7460525244e+00 3.0242516850e+00 
32200 6.6752305174e+00 4.2345550645e-04 1.7460437397e+00 -3.0242364694e+00 1.7460437397e+00 3.0242364694e+00 
32300 6.6752340108e+00 5.3734065903e-04 1.7460316136e+00 -3.0242154663e+00 1.7460316136e+00 3.0242154663e+00 
32400 6.6752374803e+00 6.4834508379e-04 1.7460162261e+00 -3.0241888145e+00 1.7460162261e+00 3.0241888145e+00 
32500 6.6752409158e+00 7.5639220534e-04 1.7459976597e+00 -3.0241566566e+00 1.7459976597e+00 3.0241566566e+00 
32600 6.6752443076e+00 8.6141058892e-04 1.7459759990e+00 -3.0241191391e+00 1.7459759990e+00 3.0241191391e+00 
32700 6.6752476465e+00 9.6333392836e-04 1.7459513306e+00 -3.0240764122e+00 1.7459513306e+00 3.0240764122e+00 
32800 6.6752509240e+00 1.0621010280e-03 1.7459237431e+00 -3.0240286291e+00 1.7459237431e+00 3.0240286291e+00 
32900 6.6752541320e+00 1.1576557787e-03 1.7458933266e+00 -3.0239759462e+00 1.7458933266e+00 3.0239759462e+00 
33000 6.6752572628e+00 1.2499471282e-03 1.7458601730e+00 -3.0239185225e+00 1.7458601730e+00 3.0239185225e+00 
33100 6.6752603096e+00 1.3389290456e-03 1.7458243756e+00 -3.0238565197e+00 1.7458243756e+00 3.0238565197e+00 
33200 6.6752632659e+00 1.4245604810e-03 1.7457860292e+00 -3.0237901017e+00 1.7457860292e+00 3.0237901017e+00 
33300 6.6752661258e+00 1.5068053184e-03 1.7457452294e+00 -3.0237194343e+00 1.7457452294e+00 3.0237194343e+00 
33400 6.6752688842e+00 1.5856323250e-03 1.7457020730e+00 -3.0236446854e+00 1.7457020730e+00 3.0236446854e+00 
33500 6.6752715365e+00 1.6610150942e-03 1.7456566579e+00 -3.0235660241e+00 1.7456566579e+00 3.0235660241e+00 
33600 6.6752740786e+00 1.7329319840e-03 1.7456090825e+00 -3.0234836210e+00 1.7456090825e+00 3.0234836210e+00 
33700 6.6752765071e+00 1.8013660507e-03 1.7455594458e+00 -3.0233976478e+00 1.7455594458e+00 3.0233976478e+00 
33800 6.6752788191e+00 1.8663049777e-03 1.7455078475e+00 -3.0233082770e+00 1.7455078475e+00 3.0233082770e+00 
33900 6.6752810125e+00 1.9277410001e-03 1.7454543876e+00 -3.0232156816e+00 1.7454543876e+00 3.0232156816e+00 
34000 6.6752830856e+00 1.9856708245e-03 1.7453991661e+00 -3.0231200352e+00 1.7453991661e+00 3.0231200352e+00 
34100 6.6752850371e+00 2.0400955449e-03 1.7453422834e+00 -3.0230215115e+00 1.7453422834e+00 3.0230215115e+00 
34200 6.6752868666e+00 2.0910205550e-03 1.7452838398e+00 -3.0229202841e+00 1.7452838398e+00 3.0229202841e+00 
34300 6.6752885740e+00 2.1384554557e-03 1.7452239352e+00 -3.0228165264e+00 1.7452239352e+00 3.0228165264e+00 
34400 6.6752901598e+00 2.1824139598e-03 1.7451626697e+00 -3.0227104113e+00 1.7451626697e+00 3.0227104113e+00 
34500 6.6752916248e+00 2.2229137928e-03 1.7451001425e+00 -3.0226021111e+00 1.7451001425e+00 3.0226021111e+00 
34600 6.6752929705e+00 2.2599765909e-03 1.7450364527e+00 -3.0224917972e+00 1.7450364527e+00 3.0224917972e+00 
34700 6.6752941988e+00 2.2936277950e-03 1.7449716987e+00 -3.0223796399e+00 1.7449716987e+00 3.0223796399e+00 
34800 6.6752953118e+00 2.3238965428e-03 1.7449059781e+00 -3.0222658084e+00 1.7449059781e+00 3.0222658084e+00 
34900 6.6752963124e+00 2.3508155578e-03 1.7448393876e+00 -3.0221504704e+00 1.7448393876e+00 3.0221504704e+00 
35000 6.6752972033e+00 2.3744210354e-03 1.7447720232e+00 -3.0220337919e+00 1.7447720232e+00 3.0220337919e+00 
35100 6.6752979881e+00 2.3947525273e-03 1.7447039798e+00 -3.0219159372e+00 1.7447039798e+00 3.0219159372e+00 
35200 6.6752986704e+00 2.4118528234e-03 1.7446353511e+00 -3.0217970687e+00 1.7446353511e+00 3.0217970687e+00 
35300 6.6752992540e+00 2.4257678322e-03 1.7445662295e+00 -3.0216773467e+00 1.7445662295e+00 3.0216773467e+00 
35400 6.6752997433e+00 2.4365464587e-03 1.7444967065e+00 -3.0215569292e+00 1.7444967065e+00 3.0215569292e+00 
35500 6.6753001425e+00 2.4442404816e-03 1.7444268717e+00 -3.0214359719e+00 1.7444268717e+00 3.0214359719e+00 
35600 6.6753004563e+00 2.4489044288e-03 1.7443568136e+00 -3.0213146277e+00 1.7443568136e+00 3.0213146277e+00 
35700 6.6753006894e+00 2.4505954519e-03 1.7442866190e+00 -3.0211930471e+00 1.7442866190e+00 3.0211930471e+00 
35800 6.6753008468e+00 2.4493731994e-03 1.7442163732e+00 -3.0210713777e+00 1.7442163732e+00 3.0210713777e+00 
35900 6.6753009334e+00 2.4452996896e-03 1.7441461595e+00 -3.0209497641e+00 1.7441461595e+00 3.0209497641e+00 
36000 6.6753009544e+00 2.4384391828e-03 1.7440760598e+00 -3.0208283478e+00 1.7440760598e+00 3.0208283478e+00 
36100 6.6753009148e+00 2.4288580534e-03 1.7440061539e+00 -3.0207072673e+00 1.7440061539e+00 3.0207072673e+00 
36200 6.6753008199e+00 2.4166246610e-03 1.7439365199e+00 -3.0205866577e+00 1.7439365199e+00 3.0205866577e+00 
36300 6.6753006748e+00 2.4018092226e-03 1.7438672339e+00 -3.0204666508e+00 1.7438672339e+00 3.0204666508e+00 
36400 6.6753004848e+00 2.3844836844e-03 1.7437983699e+00 -3.0203473748e+00 1.7437983699e+00 3.0203473748e+00 
36500 6.6753002548e+00 2.3647215938e-03 1.7437299999e+00 -3.0202289546e+00 1.7437299999e+00 3.0202289546e+00 
36600 6.6752999899e+00 2.3425979726e-03 1.7436621940e+00 -3.0201115112e+00 1.7436621940e+00 3.0201115112e+00 
36700 6.6752996952e+00 2.3181891901e-03 1.7435950197e+00 -3.0199951620e+00 1.7435950197e+00 3.0199951620e+00 
36800 6.6752993755e+00 2.2915728380e-03 1.7435285429e+00 -3.0198800207e+00 1.7435285429e+00 3.0198800207e+00 
36900 6.6752990355e+00 2.2628276054e-03 1.7434628268e+00 -3.0197661971e+00 1.7434628268e+00 3.0197661971e+00 
37000 6.6752986798e+00 2.2320331559e-03 1.7433979325e+00 -3.0196537970e+00 1.7433979325e+00 3.0196537970e+00 
37100 6.6752983129e+00 2.1992700052e-03 1.7433339191e+00 -3.0195429224e+00 1.7433339191e+00 3.0195429224e+00 
37200 6.6752979391e+00 2.1646194009e-03 1.7432708429e+00 -3.0194336712e+00 1.7432708429e+00 3.0194336712e+00 
37300 6.6752975624e+00 2.1281632036e-03 1.7432087583e+00 -3.0193261375e+00 1.7432087583e+00 3.0193261375e+00 
37400 6.6752971868e+00 2.0899837696e-03 1.7431477171e+00 -3.0192204110e+00 1.7431477171e+00 3.0192204110e+00 
37500 6.6752968159e+00 2.0501638359e-03 1.7430877688e+00 -3.0191165777e+00 1.7430877688e+00 3.0191165777e+00 
37600 6.6752964534e+00 2.0087864070e-03 1.7430289608e+00 -3.0190147191e+00 1.7430289608e+00 3.0190147191e+00 
37700 6.6752961023e+00 1.9659346439e-03 1.7429713377e+00 -3.0189149130e+00 1.7429713377e+00 3.0189149130e+00 
37800 6.6752957659e+00 1.9216917551e-03 1.7429149419e+00 -3.0188172326e+00 1.7429149419e+00 3.0188172326e+00 
37900 6.6752954468e+00 1.8761408904e-03 1.7428598135e+00 -3.0187217475e+00 1.7428598135e+00 3.0187217475e+00 
38000 6.6752951478e+00 1.8293650369e-03 1.7428059902e+00 -3.0186285227e+00 1.7428059902e+00 3.0186285227e+00 
38100 6.6752948711e+00 1.7814469172e-03 1.7427535071e+00 -3.0185376194e+00 1.7427535071e+00 3.0185376194e+00 
38200 6.6752946188e+00 1.7324688909e-03 1.7427023972e+00 -3.0184490945e+00 1.7427023972e+00 3.0184490945e+00 
38300 6.6752943930e+00 1.6825128585e-03 1.7426526911e+00 -3.0183630009e+00 1.7426526911e+00 3.0183630009e+00 
38400 6.6752941951e+00 1.6316601678e-03 1.7426044168e+00 -3.0182793874e+00 1.7426044168e+00 3.0182793874e+00 
38500 6.6752940266e+00 1.5799915235e-03 1.7425576003e+00 -3.0181982989e+00 1.7425576003e+00 3.0181982989e+00 
38600 6.6752938887e+00 1.5275868995e-03 1.7425122651e+00 -3.0181197760e+00 1.7425122651e+00 3.0181197760e+00 
38700 6.6752937824e+00 1.4745254545e-03 1.7424684324e+00 -3.0180438555e+00 1.7424684324e+00 3.0180438555e+00 
38800 6.6752937084e+00 1.4208854500e-03 1.7424261212e+00 -3.0179705703e+00 1.7424261212e+00 3.0179705703e+00 
38900 6.6752936672e+00 1.3667441719e-03 1.7423853481e+00 -3.0178999493e+00 1.7423853481e+00 3.0178999493e+00 
39000 6.6752936591e+00 1.3121778548e-03 1.7423461278e+00 -3.0178320177e+00 1.7423461278e+00 3.0178320177e+00 
39100 6.6752936843e+00 1.2572616100e-03 1.7423084724e+00 -3.0177667967e+00 1.7423084724e+00 3.0177667967e+00 
39200 6.6752937427e+00 1.2020693554e-03 1.7422723922e+00 -3.0177043040e+00 1.7422723922e+00 3.0177043040e+00 
39300 6.6752938341e+00 1.1466737502e-03 1.7422378952e+00 -3.0176445533e+00 1.7422378952e+00 3.0176445533e+00 
39400 6.6752939580e+00 1.0911461315e-03 1.7422049872e+00 -3.0175875550e+00 1.7422049872e+00 3.0175875550e+00 
39500 6.6752941138e+00 1.0355564545e-03 1.7421736722e+00 -3.0175333159e+00 1.7421736722e+00 3.0175333159e+00 
39600 6.6752943008e+00 9.7997323601e-04 1.7421439521e+00 -3.0174818391e+00 1.7421439521e+00 3.0174818391e+00 
39700 6.6752945182e+00 9.2446350101e-04 1.7421158266e+00 -3.0174331244e+00 1.7421158266e+00 3.0174331244e+00 
39800 6.6752947648e+00 8.6909273223e-04 1.7420892939e+00 -3.0173871684e+00 1.7420892939e+00 3.0173871684e+00 
39900 6.6752950396e+00 8.1392482320e-04 1.7420643500e+00 -3.0173439643e+00 1.7420643500e+00 3.0173439643e+00 
40000 6.6752953412e+00 7.5902203416e-04 1.7420409891e+00 -3.0173035020e+00 1.7420409891e+00 3.0173035020e+00 
40100 6.6752956684e+00 7.0444495126e-04 1.7420192037e+00 -3.0172657687e+00 1.7420192037e+00 3.0172657687e+00 
40200 6.6752960198e+00 6.5025244879e-04 1.7419989846e+00 -3.0172307480e+00 1.7419989846e+00 3.0172307480e+00 
40300 6.6752963937e+00 5.9650165451e-04 1.7419803206e+00 -3.0171984211e+00 1.7419803206e+00 3.0171984211e+00 
40400 6.6752967887e+00 5.4324791798e-04 1.7419631993e+00 -3.0171687661e+00 1.7419631993e+00 3.0171687661e+00 
40500 6.6752972030e+00 4.9054478189e-04 1.7419476063e+00 -3.0171417583e+00 1.7419476063e+00 3.0171417583e+00 
40600 6.6752976349e+00 4.3844395642e-04 1.7419335260e+00 -3.0171173705e+00 1.7419335260e+00 3.0171173705e+00 
40700 6.6752980829e+00 3.8699529646e-04 1.7419209410e+00 -3.0170955727e+00 1.7419209410e+00 3.0170955727e+00 
40800 6.6752985450e+00 3.3624678168e-04 1.7419098328e+00 -3.0170763326e+00 1.7419098328e+00 3.0170763326e+00 
40900 6.6752990196e+00 2.8624449955e-04 1.7419001811e+00 -3.0170596154e+00 1.7419001811e+00 3.0170596154e+00 
41000 6.6752995049e+00 2.3703263095e-04 1.7418919647e+00 -3.0170453841e+00 1.7418919647e+00 3.0170453841e+00 
41100 6.6752999991e+00 1.8865343871e-04 1.7418851608e+00 -3.0170335994e+00 1.7418851608e+00 3.0170335994e+00 
41200 6.6753005005e+00 1.4114725865e-04 1.7418797456e+00 -3.0170242200e+00 1.7418797456e+00 3.0170242200e+00 
41300 6.6753010072e+00 9.4552493323e-05 1.7418756940e+00 -3.0170172025e+00 1.7418756940e+00 3.0170172025e+00 
41400 6.6753015177e+00 4.8905608291e-05 1.7418729799e+00 -3.0170125015e+00 1.7418729799e+00 3.0170125015e+00 
41500 6.6753020302e+00 6.0570287625e-06 1.7418729799e+00 -3.0170125015e+00 1.7418729799e+00 3.0170125015e+00 
41600 6.6753025429e+00 -3.7420619678e-05 1.7418729799e+00 -3.0170125015e+00 1.7418729799e+00 3.0170125015e+00 
41700 6.6753030547e+00 -8.1471340676e-05 1.7418729799e+00 -3.0170125015e+00 1.7418729799e+00 3.0170125015e+00 
41800 6.6753035637e+00 -1.2301558152e-04 1.7418753185e+00 -3.0170165521e+00 1.7418753185e+00 3.0170165521e+00 
41900 6.6753040686e+00 -1.6345814454e-04 1.7418788496e+00 -3.0170226682e+00 1.7418788496e+00 3.0170226682e+00 
42000 6.6753045678e+00 -2.0277415878e-04 1.7418835417e+00 -3.0170307950e+00 1.7418835417e+00 3.0170307950e+00 
42100 6.6753050602e+00 -2.4094064841e-04 1.7418893622e+00 -3.0170408765e+00 1.7418893622e+00 3.0170408765e+00 
42200 6.6753055444e+00 -2.7793651843e-04 1.7418962783e+00 -3.0170528555e+00 1.7418962783e+00 3.0170528555e+00 
42300 6.6753060193e+00 -3.1374253841e-04 1.7419042563e+00 -3.0170666738e+00 1.7419042563e+00 3.0170666738e+00 
42400 6.6753064836e+00 -3.4834132433e-04 1.7419132620e+00 -3.0170822722e+00 1.7419132620e+00 3.0170822722e+00 
42500 6.6753069365e+00 -3.8171731862e-04 1.7419232608e+00 -3.0170995907e+00 1.7419232608e+00 3.0170995907e+00 
42600 6.6753073770e+00 -4.1385676849e-04 1.7419342176e+00 -3.0171185684e+00 1.7419342176e+00 3.0171185684e+00 
42700 6.6753078042e+00 -4.4474770250e-04 1.7419460969e+00 -3.0171391438e+00 1.7419460969e+00 3.0171391438e+00 
42800 6.6753082173e+00 -4.7437990554e-04 1.7419588627e+00 -3.0171612549e+00 1.7419588627e+00 3.0171612549e+00 
42900 6.6753086157e+00 -5.0274489237e-04 1.7419724790e+00 -3.0171848390e+00 1.7419724790e+00 3.0171848390e+00 
43000 6.6753089987e+00 -5.2983587955e-04 1.7419869094e+00 -3.0172098331e+00 1.7419869094e+00 3.0172098331e+00 
43100 6.6753093659e+00 -5.5564775610e-04 1.7420021172e+00 -3.0172361739e+00 1.7420021172e+00 3.0172361739e+00 
43200 6.6753097167e+00 -5.8017705278e-04 1.7420180658e+00 -3.0172637976e+00 1.7420180658e+00 3.0172637976e+00 
43300 6.6753100509e+00 -6.0342191006e-04 1.7420347182e+00 -3.0172926405e+00 1.7420347182e+00 3.0172926405e+00 
43400 6.6753103682e+00 -6.2538204508e-04 1.7420520377e+00 -3.0173226387e+00 1.7420520377e+00 3.0173226387e+00 
43500 6.6753106684e+00 -6.4605871727e-04 1.7420699873e+00 -3.0173537284e+00 1.7420699873e+00 3.0173537284e+00 
43600 6.6753109514e+00 -6.6545469311e-04 1.7420885302e+00 -3.0173858456e+00 1.7420885302e+00 3.0173858456e+00 
43700 6.6753112171e+00 -6.8357420980e-04 1.7421076296e+00 -3.0174189267e+00 1.7421076296e+00 3.0174189267e+00 
43800 6.6753114657e+00 -7.0042293809e-04 1.7421272488e+00 -3.0174529081e+00 1.7421272488e+00 3.0174529081e+00 
43900 6.6753116971e+00 -7.1600794417e-04 1.7421473513e+00 -3.0174877268e+00 1.7421473513e+00 3.0174877268e+00 
44000 6.6753119116e+00 -7.3033765089e-04 1.7421679010e+00 -3.0175233198e+00 1.7421679010e+00 3.0175233198e+00 
44100 6.6753121094e+00 -7.4342179817e-04 1.7421888616e+00 -3.0175596247e+00 1.7421888616e+00 3.0175596247e+00 
44200 6.6753122909e+00 -7.5527140280e-04 1.7422101975e+00 -3.0175965795e+00 1.7422101975e+00 3.0175965795e+00 
44300 6.6753124563e+00 -7.6589871767e-04 1.7422318732e+00 -3.0176341230e+00 1.7422318732e+00 3.0176341230e+00 
44400 6.6753126061e+00 -7.7531719040e-04 1.7422538536e+00 -3.0176721942e+00 1.7422538536e+00 3.0176721942e+00 
44500 6.6753127407e+00 -7.8354142156e-04 1.7422761041e+00 -3.0177107331e+00 1.7422761041e+00 3.0177107331e+00 
44600 6.6753128607e+00 -7.9058712246e-04 1.7422985903e+00 -3.0177496803e+00 1.7422985903e+00 3.0177496803e+00 
44700 6.6753129665e+00 -7.9647107257e-04 1.7423212784e+00 -3.0177889773e+00 1.7423212784e+00 3.0177889773e+00 
44800 6.6753130588e+00 -8.0121107667e-04 1.7423441350e+00 -3.0178285662e+00 1.7423441350e+00 3.0178285662e+00 
44900 6.6753131381e+00 -8.0482592174e-04 1.7423671274e+00 -3.0178683901e+00 1.7423671274e+00 3.0178683901e+00 
45000 6.6753132051e+00 -8.0733533368e-04 1.7423902232e+00 -3.0179083933e+00 1.7423902232e+00 3.0179083933e+00 
45100 6.6753132605e+00 -8.0875993387e-04 1.7424133908e+00 -3.0179485206e+00 1.7424133908e+00 3.0179485206e+00 
45200 6.6753133049e+00 -8.0912119568e-04 1.7424365988e+00 -3.0179887182e+00 1.7424365988e+00 3.0179887182e+00 
45300 6.6753133390e+00 -8.0844140092e-04 1.7424598170e+00 -3.0180289332e+00 1.7424598170e+00 3.0180289332e+00 
45400 6.6753133636e+00 -8.0674359633e-04 1.7424830153e+00 -3.0180691139e+00 1.7424830153e+00 3.0180691139e+00 
45500 6.6753133794e+00 -8.0405155014e-04 1.7425061646e+00 -3.0181092096e+00 1.7425061646e+00 3.0181092096e+00 
45600 6.6753133870e+00 -8.0038970873e-04 1.7425292364e+00 -3.0181491711e+00 1.7425292364e+00 3.0181491711e+00 
45700 6.6753133872e+00 -7.9578315344e-04 1.7425522028e+00 -3.0181889500e+00 1.7425522028e+00 3.0181889500e+00 
45800 6.6753133807e+00 -7.9025755760e-04 1.7425750366e+00 -3.0182284995e+00 1.7425750366e+00 3.0182284995e+00 
45900 6.6753133683e+00 -7.8383914385e-04 1.7425977117e+00 -3.0182677738e+00 1.7425977117e+00 3.0182677738e+00 
46000 6.6753133507e+00 -7.7655464164e-04 1.7426202023e+00 -3.0183067286e+00 1.7426202023e+00 3.0183067286e+00 
46100 6.6753133285e+00 -7.6843124518e-04 1.7426424836e+00 -3.0183453209e+00 1.7426424836e+00 3.0183453209e+00 
46200 6.6753133024e+00 -7.5949657167e-04 1.7426645315e+00 -3.0183835091e+00 1.7426645315e+00 3.0183835091e+00 
46300 6.6753132732e+00 -7.4977862000e-04 1.7426863228e+00 -3.0184212527e+00 1.7426863228e+00 3.0184212527e+00 
46400 6.6753132414e+00 -7.3930572984e-04 1.7427078350e+00 -3.0184585129e+00 1.7427078350e+00 3.0184585129e+00 
46500 6.6753132077e+00 -7.2810654128e-04 1.7427290464e+00 -3.0184952522e+00 1.7427290464e+00 3.0184952522e+00 
46600 6.6753131727e+00 -7.1620995488e-04 1.7427499363e+00 -3.0185314345e+00 1.7427499363e+00 3.0185314345e+00 
46700 6.6753131370e+00 -7.0364509237e-04 1.7427704846e+00 -3.0185670253e+00 1.7427704846e+00 3.0185670253e+00 
46800 6.6753131011e+00 -6.9044125788e-04 1.7427906722e+00 -3.0186019912e+00 1.7427906722e+00 3.0186019912e+00 
46900 6.6753130656e+00 -6.7662789977e-04 1.7428104807e+00 -3.0186363006e+00 1.7428104807e+00 3.0186363006e+00 
47000 6.6753130310e+00 -6.6223457310e-04 1.7428298927e+00 -3.0186699232e+00 1.7428298927e+00 3.0186699232e+00 
47100 6.6753129976e+00 -6.4729090282e-04 1.7428488916e+00 -3.0187028302e+00 1.7428488916e+00 3.0187028302e+00 
47200 6.6753129660e+00 -6.3182654754e-04 1.7428674615e+00 -3.0187349942e+00 1.7428674615e+00 3.0187349942e+00 
47300 6.6753129366e+00 -6.1587116416e-04 1.7428855876e+00 -3.0187663896e+00 1.7428855876e+00 3.0187663896e+00 
47400 6.6753129098e+00 -5.9945437309e-04 1.7429032558e+00 -3.0187969917e+00 1.7429032558e+00 3.0187969917e+00 
47500 6.6753128858e+00 -5.8260572435e-04 1.7429204528e+00 -3.0188267779e+00 1.7429204528e+00 3.0188267779e+00 
47600 6.6753128650e+00 -5.6535466441e-04 1.7429371664e+00 -3.0188557265e+00 1.7429371664e+00 3.0188557265e+00 
47700 6.6753128476e+00 -5.4773050381e-04 1.7429533848e+00 -3.0188838178e+00 1.7429533848e+00 3.0188838178e+00 
47800 6.6753128340e+00 -5.2976238567e-04 1.7429690976e+00 -3.0189110330e+00 1.7429690976e+00 3.0189110330e+00 
47900 6.6753128243e+00 -5.1147925497e-04 1.7429842947e+00 -3.0189373552e+00 1.7429842947e+00 3.0189373552e+00 
48000 6.6753128187e+00 -4.9290982873e-04 1.7429989672e+00 -3.0189627688e+00 1.7429989672e+00 3.0189627688e+00 
48100 6.6753128173e+00 -4.7408256706e-04 1.7430131070e+00 -3.0189872595e+00 1.7430131070e+00 3.0189872595e+00 
48200 6.6753128202e+00 -4.5502564511e-04 1.7430267065e+00 -3.0190108146e+00 1.7430267065e+00 3.0190108146e+00 
48300 6.6753128276e+00 -4.3576692585e-04 1.7430397593e+00 -3.0190334227e+00 1.7430397593e+00 3.0190334227e+00 
48400 6.6753128395e+00 -4.1633393389e-04 1.7430522595e+00 -3.0190550737e+00 1.7430522595e+00 3.0190550737e+00 
48500 6.6753128559e+00 -3.9675383009e-04 1.7430642022e+00 -3.0190757590e+00 1.7430642022e+00 3.0190757590e+00 
48600 6.6753128768e+00 -3.7705338721e-04 1.7430755831e+00 -3.0190954714e+00 1.7430755831e+00 3.0190954714e+00 
48700 6.6753129023e+00 -3.5725896642e-04 1.7430863989e+00 -3.0191142048e+00 1.7430863989e+00 3.0191142048e+00 
48800 6.6753129321e+00 -3.3739649484e-04 1.7430966468e+00 -3.0191319547e+00 1.7430966468e+00 3.0191319547e+00 
48900 6.6753129663e+00 -3.1749144393e-04 1.7431063248e+00 -3.0191487176e+00 1.7431063248e+00 3.0191487176e+00 
49000 6.6753130048e+00 -2.9756880897e-04 1.7431154319e+00 -3.0191644915e+00 1.7431154319e+00 3.0191644915e+00 
49100 6.6753130475e+00 -2.7765308940e-04 1.7431239675e+00 -3.0191792755e+00 1.7431239675e+00 3.0191792755e+00 
49200 6.6753130942e+00 -2.5776827017e-04 1.7431319317e+00 -3.0191930700e+00 1.7431319317e+00 3.0191930700e+00 
49300 6.6753131447e+00 -2.3793780404e-04 1.7431393255e+00 -3.0192058765e+00 1.7431393255e+00 3.0192058765e+00 
49400 6.6753131990e+00 -2.1818459491e-04 1.7431461505e+00 -3.0192176977e+00 1.7431461505e+00 3.0192176977e+00 
49500 6.6753132567e+00 -1.9853098204e-04 1.7431524089e+00 -3.0192285375e+00 1.7431524089e+00 3.0192285375e+00 
49600 6.6753133178e+00 -1.7899872527e-04 1.7431581035e+00 -3.0192384009e+00 1.7431581035e+00 3.0192384009e+00 
49700 6.6753133820e+00 -1.5960899126e-04 1.7431632378e+00 -3.0192472938e+00 1.7431632378e+00 3.0192472938e+00 
49800 6.6753134491e+00 -1.4038234057e-04 1.7431678160e+00 -3.0192552234e+00 1.7431678160e+00 3.0192552234e+00 
49900 6.6753135189e+00 -1.2133871586e-04 1.7431718426e+00 -3.0192621977e+00 1.7431718426e+00 3.0192621977e+00 
50000 6.6753135911e+00 -1.0249743088e-04 1.7431753230e+00 -3.0192682259e+00 1.7431753230e+00 3.0192682259e+00 
50100 6.6753136655e+00 -8.3877160571e-05 1.7431782630e+00 -3.0192733181e+00 1.7431782630e+00 3.0192733181e+00 
50200 6.6753137418e+00 -6.5495931961e-05 1.7431806688e+00 -3.0192774852e+00 1.7431806688e+00 3.0192774852e+00 
50300 6.6753138200e+00 -4.9794213907e-05 1.7431806688e+00 -3.0192774852e+00 1.7431806688e+00 3.0192774852e+00 
50400 6.6753138994e+00 -3.3714488770e-05 1.7431806688e+00 -3.0192774852e+00 1.7431806688e+00 3.0192774852e+00 
50500 6.6753139801e+00 -1.7278334494e-05 1.7431806688e+00 -3.0192774852e+00 1.7431806688e+00 3.0192774852e+00 
50600 6.6753140616e+00 -5.0704916631e-07 1.7431806688e+00 -3.0192774852e+00 1.7431806688e+00 3.0192774852e+00 
50700 6.6753141439e+00 1.6578354749e-05 1.7431806688e+00 -3.0192774852e+00 1.7431806688e+00 3.0192774852e+00 
50800 6.6753142267e+00 3.3957155982e-05 1.7431806688e+00 -3.0192774852e+00 1.7431806688e+00 3.0192774852e+00 
50900 6.6753143098e+00 5.1608929826e-05 1.7431806688e+00 -3.0192774852e+00 1.7431806688e+00 3.0192774852e+00 
51000 6.6753143930e+00 6.9513553301e-05 1.7431806688e+00 -3.0192774852e+00 1.7431806688e+00 3.0192774852e+00 
51100 6.6753144762e+00 8.7651210154e-05 1.7431806688e+00 -3.0192774852e+00 1.7431806688e+00 3.0192774852e+00 
51200 6.6753145589e+00 1.0275917223e-04 1.7431781547e+00 -3.0192731306e+00 1.7431781547e+00 3.0192731306e+00 
51300 6.6753146409e+00 1.1747642199e-04 1.7431752073e+00 -3.0192680255e+00 1.7431752073e+00 3.0192680255e+00 
51400 6.6753147220e+00 1.3179295300e-04 1.7431718376e+00 -3.0192621891e+00 1.7431718376e+00 3.0192621891e+00 
51500 6.6753148022e+00 1.4569944921e-04 1.7431680574e+00 -3.0192556415e+00 1.7431680574e+00 3.0192556415e+00 
51600 6.6753148812e+00 1.5918728178e-04 1.7431638782e+00 -3.0192484030e+00 1.7431638782e+00 3.0192484030e+00 
51700 6.6753149588e+00 1.7224850513e-04 1.7431593122e+00 -3.0192404944e+00 1.7431593122e+00 3.0192404944e+00 
51800 6.6753150349e+00 1.8487585230e-04 1.7431543715e+00 -3.0192319369e+00 1.7431543715e+00 3.0192319369e+00 
51900 6.6753151093e+00 1.9706272955e-04 1.7431490686e+00 -3.0192227519e+00 1.7431490686e+00 3.0192227519e+00 
52000 6.6753151819e+00 2.0880321036e-04 1.7431434161e+00 -3.0192129616e+00 1.7431434161e+00 3.0192129616e+00 
52100 6.6753152525e+00 2.2009202870e-04 1.7431374268e+00 -3.0192025878e+00 1.7431374268e+00 3.0192025878e+00 
52200 6.6753153212e+00 2.3092457174e-04 1.7431311137e+00 -3.0191916532e+00 1.7431311137e+00 3.0191916532e+00 
52300 6.6753153877e+00 2.4129687185e-04 1.7431244899e+00 -3.0191801804e+00 1.7431244899e+00 3.0191801804e+00 
52400 6.6753154519e+00 2.5120559808e-04 1.7431175685e+00 -3.0191681922e+00 1.7431175685e+00 3.0191681922e+00 
52500 6.6753155139e+00 2.6064804700e-04 1.7431103629e+00 -3.0191557117e+00 1.7431103629e+00 3.0191557117e+00 
52600 6.6753155734e+00 2.6962213305e-04 1.7431028863e+00 -3.0191427620e+00 1.7431028863e+00 3.0191427620e+00 
52700 6.6753156306e+00 2.7812637829e-04 1.7430951524e+00 -3.0191293664e+00 1.7430951524e+00 3.0191293664e+00 
52800 6.6753156853e+00 2.8615990169e-04 1.7430871744e+00 -3.0191155482e+00 1.7430871744e+00 3.0191155482e+00 
52900 6.6753157375e+00 2.9372240788e-04 1.7430789660e+00 -3.0191013308e+00 1.7430789660e+00 3.0191013308e+00 
53000 6.6753157872e+00 3.0081417551e-04 1.7430705406e+00 -3.0190867376e+00 1.7430705406e+00 3.0190867376e+00 
53100 6.6753158343e+00 3.0743604506e-04 1.7430619118e+00 -3.0190717920e+00 1.7430619118e+00 3.0190717920e+00 
53200 6.6753158790e+00 3.1358940634e-04 1.7430530930e+00 -3.0190565173e+00 1.7430530930e+00 3.0190565173e+00 
53300 6.6753159211e+00 3.1927618550e-04 1.7430440976e+00 -3.0190409368e+00 1.7430440976e+00 3.0190409368e+00 
53400 6.6753159608e+00 3.2449883172e-04 1.7430349390e+00 -3.0190250737e+00 1.7430349390e+00 3.0190250737e+00 
53500 6.6753159980e+00 3.2926030349e-04 1.7430256305e+00 -3.0190089510e+00 1.7430256305e+00 3.0190089510e+00 
53600 6.6753160328e+00 3.3356405467e-04 1.7430161855e+00 -3.0189925917e+00 1.7430161855e+00 3.0189925917e+00 
53700 6.6753160652e+00 3.3741402011e-04 1.7430066169e+00 -3.0189760184e+00 1.7430066169e+00 3.0189760184e+00 
53800 6.6753160954e+00 3.4081460104e-04 1.7429969378e+00 -3.0189592537e+00 1.7429969378e+00 3.0189592537e+00 
53900 6.6753161233e+00 3.4377065027e-04 1.7429871612e+00 -3.0189423201e+00 1.7429871612e+00 3.0189423201e+00 
54000 6.6753161490e+00 3.4628745702e-04 1.7429772996e+00 -3.0189252394e+00 1.7429772996e+00 3.0189252394e+00 
54100 6.6753161726e+00 3.4837073164e-04 1.7429673658e+00 -3.0189080336e+00 1.7429673658e+00 3.0189080336e+00 
54200 6.6753161942e+00 3.5002659007e-04 1.7429573722e+00 -3.0188907241e+00 1.7429573722e+00 3.0188907241e+00 
54300 6.6753162139e+00 3.5126153817e-04 1.7429473311e+00 -3.0188733323e+00 1.7429473311e+00 3.0188733323e+00 
54400 6.6753162317e+00 3.5208245591e-04 1.7429372544e+00 -3.0188558791e+00 1.7429372544e+00 3.0188558791e+00 
54500 6.6753162478e+00 3.5249658138e-04 1.7429271542e+00 -3.0188383849e+00 1.7429271542e+00 3.0188383849e+00 
54600 6.6753162622e+00 3.5251149474e-04 1.7429170420e+00 -3.0188208701e+00 1.7429170420e+00 3.0188208701e+00 
54700 6.6753162751e+00 3.5213510204e-04 1.7429069293e+00 -3.0188033544e+00 1.7429069293e+00 3.0188033544e+00 
54800 6.6753162865e+00 3.5137561909e-04 1.7428968274e+00 -3.0187858574e+00 1.7428968274e+00 3.0187858574e+00 
54900 6.6753162966e+00 3.5024155511e-04 1.7428867472e+00 -3.0187683979e+00 1.7428867472e+00 3.0187683979e+00 
55000 6.6753163054e+00 3.4874169653e-04 1.7428766994e+00 -3.0187509948e+00 1.7428766994e+00 3.0187509948e+00 
55100 6.6753163130e+00 3.4688509068e-04 1.7428666947e+00 -3.0187336660e+00 1.7428666947e+00 3.0187336660e+00 
55200 6.6753163197e+00 3.4468102954e-04 1.7428567431e+00 -3.0187164294e+00 1.7428567431e+00 3.0187164294e+00 
55300 6.6753163253e+00 3.4213903352e-04 1.7428468547e+00 -3.0186993022e+00 1.7428468547e+00 3.0186993022e+00 
55400 6.6753163302e+00 3.3926883530e-04 1.7428370392e+00 -3.0186823012e+00 1.7428370392e+00 3.0186823012e+00 
55500 6.6753163343e+00 3.3608036374e-04 1.7428273060e+00 -3.0186654428e+00 1.7428273060e+00 3.0186654428e+00 
55600 6.6753163378e+00 3.3258372790e-04 1.7428176642e+00 -3.0186487427e+00 1.7428176642e+00 3.0186487427e+00 
55700 6.6753163407e+00 3.2878920111e-04 1.7428081226e+00 -3.0186322163e+00 1.7428081226e+00 3.0186322163e+00 
55800 6.6753163431e+00 3.2470720528e-04 1.7427986899e+00 -3.0186158783e+00 1.7427986899e+00 3.0186158783e+00 
55900 6.6753163452e+00 3.2034829524e-04 1.7427893742e+00 -3.0185997431e+00 1.7427893742e+00 3.0185997431e+00 
56000 6.6753163471e+00 3.1572314329e-04 1.7427801836e+00 -3.0185838244e+00 1.7427801836e+00 3.0185838244e+00 
56100 6.6753163487e+00 3.1084252394e-04 1.7427711255e+00 -3.0185681354e+00 1.7427711255e+00 3.0185681354e+00 
56200 6.6753163503e+00 3.0571729882e-04 1.7427622075e+00 -3.0185526889e+00 1.7427622075e+00 3.0185526889e+00 
56300 6.6753163518e+00 3.0035840179e-04 1.7427534364e+00 -3.0185374970e+00 1.7427534364e+00 3.0185374970e+00 
56400 6.6753163533e+00 2.9477682429e-04 1.7427448191e+00 -3.0185225713e+00 1.7427448191e+00 3.0185225713e+00 
56500 6.6753163550e+00 2.8898360089e-04 1.7427363619e+00 -3.0185079229e+00 1.7427363619e+00 3.0185079229e+00 
56600 6.6753163568e+00 2.8298979512e-04 1.7427280708e+00 -3.0184935624e+00 1.7427280708e+00 3.0184935624e+00 
56700 6.6753163589e+00 2.7680648555e-04 1.7427199516e+00 -3.0184794996e+00 1.7427199516e+00 3.0184794996e+00 
56800 6.6753163612e+00 2.7044475213e-04 1.7427120098e+00 -3.0184657440e+00 1.7427120098e+00 3.0184657440e+00 
56900 6.6753163639e+00 2.6391566278e-04 1.7427042505e+00 -3.0184523045e+00 1.7427042505e+00 3.0184523045e+00 
57000 6.6753163669e+00 2.5723026035e-04 1.7426966785e+00 -3.0184391894e+00 1.7426966785e+00 3.0184391894e+00 
57100 6.6753163704e+00 2.5039954979e-04 1.7426892983e+00 -3.0184264064e+00 1.7426892983e+00 3.0184264064e+00 
57200 6.6753163744e+00 2.4343448574e-04 1.7426821140e+00 -3.0184139629e+00 1.7426821140e+00 3.0184139629e+00 
57300 6.6753163788e+00 2.3634596027e-04 1.7426751295e+00 -3.0184018654e+00 1.7426751295e+00 3.0184018654e+00 
57400 6.6753163838e+00 2.2914479115e-04 1.7426683484e+00 -3.0183901202e+00 1.7426683484e+00 3.0183901202e+00 
57500 6.6753163893e+00 2.2184171030e-04 1.7426617739e+00 -3.0183787328e+00 1.7426617739e+00 3.0183787328e+00 
57600 6.6753163953e+00 2.1444735265e-04 1.7426554089e+00 -3.0183677082e+00 1.7426554089e+00 3.0183677082e+00 
57700 6.6753164019e+00 2.0697224533e-04 1.7426492560e+00 -3.0183570511e+00 1.7426492560e+00 3.0183570511e+00 
57800 6.6753164091e+00 1.9942679724e-04 1.7426433175e+00 -3.0183467654e+00 1.7426433175e+00 3.0183467654e+00 
57900 6.6753164169e+00 1.9182128893e-04 1.7426375956e+00 -3.0183368547e+00 1.7426375956e+00 3.0183368547e+00 
58000 6.6753164252e+00 1.8416586288e-04 1.7426320918e+00 -3.0183273219e+00 1.7426320918e+00 3.0183273219e+00 
58100 6.6753164342e+00 1.7647051416e-04 1.7426268077e+00 -3.0183181696e+00 1.7426268077e+00 3.0183181696e+00 
58200 6.6753164437e+00 1.6874508142e-04 1.7426217443e+00 -3.0183093996e+00 1.7426217443e+00 3.0183093996e+00 
58300 6.6753164538e+00 1.6099923828e-04 1.7426169026e+00 -3.0183010135e+00 1.7426169026e+00 3.0183010135e+00 
58400 6.6753164645e+00 1.5324248514e-04 1.7426122832e+00 -3.0182930124e+00 1.7426122832e+00 3.0182930124e+00 
58500 6.6753164757e+00 1.4548414127e-04 1.7426078863e+00 -3.0182853967e+00 1.7426078863e+00 3.0182853967e+00 
58600 6.6753164874e+00 1.3773333737e-04 1.7426037119e+00 -3.0182781665e+00 1.7426037119e+00 3.0182781665e+00 
58700 6.6753164996e+00 1.2999900846e-04 1.7425997600e+00 -3.0182713216e+00 1.7425997600e+00 3.0182713216e+00 
58800 6.6753165123e+00 1.2228988723e-04 1.7425960300e+00 -3.0182648610e+00 1.7425960300e+00 3.0182648610e+00 
58900 6.6753165254e+00 1.1461449764e-04 1.7425925211e+00 -3.0182587835e+00 1.7425925211e+00 3.0182587835e+00 
59000 6.6753165390e+00 1.0698114905e-04 1.7425892325e+00 -3.0182530874e+00 1.7425892325e+00 3.0182530874e+00 
59100 6.6753165529e+00 9.9397930616e-05 1.7425861629e+00 -3.0182477707e+00 1.7425861629e+00 3.0182477707e+00 
59200 6.6753165673e+00 9.1872706169e-05 1.7425833109e+00 -3.0182428309e+00 1.7425833109e+00 3.0182428309e+00 
59300 6.6753165820e+00 8.4413109354e-05 1.7425806748e+00 -3.0182382650e+00 1.7425806748e+00 3.0182382650e+00 
59400 6.6753165969e+00 7.7026539264e-05 1.7425782527e+00 -3.0182340699e+00 1.7425782527e+00 3.0182340699e+00 
59500 6.6753166122e+00 6.9720156372e-05 1.7425760426e+00 -3.0182302418e+00 1.7425760426e+00 3.0182302418e+00 
59600 6.6753166278e+00 6.5084422118e-05 1.7425760426e+00 -3.0182302418e+00 1.7425760426e+00 3.0182302418e+00 
59700 6.6753166435e+00 6.0295567050e-05 1.7425760426e+00 -3.0182302418e+00 1.7425760426e+00 3.0182302418e+00 
59800 6.6753166594e+00 5.5362226836e-05 1.7425760426e+00 -3.0182302418e+00 1.7425760426e+00 3.0182302418e+00 
59900 6.6753166754e+00 5.0292907164e-05 1.7425760426e+00 -3.0182302418e+00 1.7425760426e+00 3.0182302418e+00 
60000 6.6753166914e+00 4.5095982129e-05 1.7425760426e+00 -3.0182302418e+00 1.7425760426e+00 3.0182302418e+00 
60100 6.6753167074e+00 3.9779692730e-05 1.7425760426e+00 -3.0182302418e+00 1.7425760426e+00 3.0182302418e+00 
60200 6.6753167235e+00 3.4352145423e-05 1.7425760426e+00 -3.0182302418e+00 1.7425760426e+00 3.0182302418e+00 
60300 6.6753167395e+00 2.8821310776e-05 1.7425760426e+00 -3.0182302418e+00 1.7425760426e+00 3.0182302418e+00 
60400 6.6753167555e+00 2.3195022193e-05 1.7425760426e+00 -3.0182302418e+00 1.7425760426e+00 3.0182302418e+00 
60500 6.6753167714e+00 1.7480974711e-05 1.7425760426e+00 -3.0182302418e+00 1.7425760426e+00 3.0182302418e+00 
60600 6.6753167872e+00 1.1686723897e-05 1.7425760426e+00 -3.0182302418e+00 1.7425760426e+00 3.0182302418e+00 
60700 6.6753168028e+00 5.8196847900e-06 1.7425760426e+00 -3.0182302418e+00 1.7425760426e+00 3.0182302418e+00 
60800 6.6753168183e+00 -1.1286906522e-07 1.7425760426e+00 -3.0182302418e+00 1.7425760426e+00 3.0182302418e+00 
60900 6.6753168336e+00 -6.1038065128e-06 1.7425760426e+00 -3.0182302418e+00 1.7425760426e+00 3.0182302418e+00 
61000 6.6753168488e+00 -1.2146139611e-05 1.7425760426e+00 -3.0182302418e+00 1.7425760426e+00 3.0182302418e+00 
61100 6.6753168637e+00 -1.8233024396e-05 1.7425760426e+00 -3.0182302418e+00 1.7425760426e+00 3.0182302418e+00 
61200 6.6753168784e+00 -2.4357761563e-05 1.7425760426e+00 -3.0182302418e+00 1.7425760426e+00 3.0182302418e+00 
61300 6.6753168928e+00 -3.0513797083e-05 1.7425760426e+00 -3.0182302418e+00 1.7425760426e+00 3.0182302418e+00 
61400 6.6753169070e+00 -3.6694722756e-05 1.7425760426e+00 -3.0182302418e+00 1.7425760426e+00 3.0182302418e+00 
61500 6.6753169209e+00 -4.2894276689e-05 1.7425760426e+00 -3.0182302418e+00 1.7425760426e+00 3.0182302418e+00 
61600 6.6753169345e+00 -4.9106343723e-05 1.7425760426e+00 -3.0182302418e+00 1.7425760426e+00 3.0182302418e+00 
61700 6.6753169478e+00 -5.5324955774e-05 1.7425760426e+00 -3.0182302418e+00 1.7425760426e+00 3.0182302418e+00 
61800 6.6753169607e+00 -6.1544292118e-05 1.7425760426e+00 -3.0182302418e+00 1.7425760426e+00 3.0182302418e+00 
61900 6.6753169734e+00 -6.7758679619e-05 1.7425760426e+00 -3.0182302418e+00 1.7425760426e+00 3.0182302418e+00 
62000 6.6753169857e+00 -7.3962592877e-05 1.7425760426e+00 -3.0182302418e+00 1.7425760426e+00 3.0182302418e+00 
62100 6.6753169975e+00 -7.7410289258e-05 1.7425781648e+00 -3.0182339176e+00 1.7425781648e+00 3.0182339176e+00 
62200 6.6753170089e+00 -8.0687301955e-05 1.7425803859e+00 -3.0182377647e+00 1.7425803859e+00 3.0182377647e+00 
62300 6.6753170199e+00 -8.3792931214e-05 1.7425827011e+00 -3.0182417747e+00 1.7425827011e+00 3.0182417747e+00 
62400 6.6753170305e+00 -8.6726716139e-05 1.7425851054e+00 -3.0182459390e+00 1.7425851054e+00 3.0182459390e+00 
62500 6.6753170407e+00 -8.9488429464e-05 1.7425875938e+00 -3.0182502492e+00 1.7425875938e+00 3.0182502492e+00 
62600 6.6753170504e+00 -9.2078072128e-05 1.7425901615e+00 -3.0182546965e+00 1.7425901615e+00 3.0182546965e+00 
62700 6.6753170598e+00 -9.4495867768e-05 1.7425928035e+00 -3.0182592726e+00 1.7425928035e+00 3.0182592726e+00 
62800 6.6753170688e+00 -9.6742257080e-05 1.7425955149e+00 -3.0182639688e+00 1.7425955149e+00 3.0182639688e+00 
62900 6.6753170774e+00 -9.8817892086e-05 1.7425982907e+00 -3.0182687766e+00 1.7425982907e+00 3.0182687766e+00 
63000 6.6753170857e+00 -1.0072363026e-04 1.7426011260e+00 -3.0182736876e+00 1.7426011260e+00 3.0182736876e+00 
63100 6.6753170935e+00 -1.0246052860e-04 1.7426040161e+00 -3.0182786933e+00 1.7426040161e+00 3.0182786933e+00 
63200 6.6753171010e+00 -1.0402983761e-04 1.7426069560e+00 -3.0182837853e+00 1.7426069560e+00 3.0182837853e+00 
63300 6.6753171081e+00 -1.0543299518e-04 1.7426099408e+00 -3.0182889553e+00 1.7426099408e+00 3.0182889553e+00 
63400 6.6753171148e+00 -1.0667162040e-04 1.7426129660e+00 -3.0182941950e+00 1.7426129660e+00 3.0182941950e+00 
63500 6.6753171213e+00 -1.0774750734e-04 1.7426160267e+00 -3.0182994963e+00 1.7426160267e+00 3.0182994963e+00 
63600 6.6753171273e+00 -1.0866261871e-04 1.7426191182e+00 -3.0183048510e+00 1.7426191182e+00 3.0183048510e+00 
63700 6.6753171331e+00 -1.0941907958e-04 1.7426222360e+00 -3.0183102512e+00 1.7426222360e+00 3.0183102512e+00 
63800 6.6753171386e+00 -1.1001917093e-04 1.7426253755e+00 -3.0183156889e+00 1.7426253755e+00 3.0183156889e+00 
63900 6.6753171437e+00 -1.1046532327e-04 1.7426285322e+00 -3.0183211565e+00 1.7426285322e+00 3.0183211565e+00 
64000 6.6753171486e+00 -1.1076011018e-04 1.7426317017e+00 -3.0183266463e+00 1.7426317017e+00 3.0183266463e+00 
64100 6.6753171533e+00 -1.1090624184e-04 1.7426348797e+00 -3.0183321506e+00 1.7426348797e+00 3.0183321506e+00 
64200 6.6753171577e+00 -1.1090655857e-04 1.7426380618e+00 -3.0183376623e+00 1.7426380618e+00 3.0183376623e+00 
64300 6.6753171618e+00 -1.1076402436e-04 1.7426412440e+00 -3.0183431739e+00 1.7426412440e+00 3.0183431739e+00 
64400 6.6753171657e+00 -1.1048172036e-04 1.7426444220e+00 -3.0183486785e+00 1.7426444220e+00 3.0183486785e+00 
64500 6.6753171695e+00 -1.1006283845e-04 1.7426475920e+00 -3.0183541690e+00 1.7426475920e+00 3.0183541690e+00 
64600 6.6753171730e+00 -1.0951067478e-04 1.7426507499e+00 -3.0183596387e+00 1.7426507499e+00 3.0183596387e+00 
64700 6.6753171764e+00 -1.0882862334e-04 1.7426538920e+00 -3.0183650809e+00 1.7426538920e+00 3.0183650809e+00 
64800 6.6753171796e+00 -1.0802016957e-04 1.7426570145e+00 -3.0183704892e+00 1.7426570145e+00 3.0183704892e+00 
64900 6.6753171827e+00 -1.0708888400e-04 1.7426601138e+00 -3.0183758573e+00 1.7426601138e+00 3.0183758573e+00 
65000 6.6753171856e+00 -1.0603841595e-04 1.7426631863e+00 -3.0183811792e+00 1.7426631863e+00 3.0183811792e+00 
65100 6.6753171884e+00 -1.0487248723e-04 1.7426662288e+00 -3.0183864488e+00 1.7426662288e+00 3.0183864488e+00 
65200 6.6753171911e+00 -1.0359488596e-04 1.7426692377e+00 -3.0183916605e+00 1.7426692377e+00 3.0183916605e+00 
65300 6.6753171938e+00 -1.0220946041e-04 1.7426722100e+00 -3.0183968087e+00 1.7426722100e+00 3.0183968087e+00 
65400 6.6753171963e+00 -1.0072011290e-04 1.7426751426e+00 -3.0184018880e+00 1.7426751426e+00 3.0184018880e+00 
65500 6.6753171988e+00 -9.9130793803e-05 1.7426780324e+00 -3.0184068933e+00 1.7426780324e+00 3.0184068933e+00 
65600 6.6753172013e+00 -9.7445495599e-05 1.7426808766e+00 -3.0184118196e+00 1.7426808766e+00 3.0184118196e+00 
65700 6.6753172037e+00 -9.5668247014e-05 1.7426836724e+00 -3.0184166622e+00 1.7426836724e+00 3.0184166622e+00 
65800 6.6753172061e+00 -9.3803107265e-05 1.7426864173e+00 -3.0184214164e+00 1.7426864173e+00 3.0184214164e+00 
65900 6.6753172085e+00 -9.1854160368e-05 1.7426891086e+00 -3.0184260780e+00 1.7426891086e+00 3.0184260780e+00 
66000 6.6753172108e+00 -8.9825509558e-05 1.7426917441e+00 -3.0184306426e+00 1.7426917441e+00 3.0184306426e+00 
66100 6.6753172132e+00 -8.7721271814e-05 1.7426943213e+00 -3.0184351065e+00 1.7426943213e+00 3.0184351065e+00 
66200 6.6753172156e+00 -8.5545572470e-05 1.7426968381e+00 -3.0184394658e+00 1.7426968381e+00 3.0184394658e+00 
66300 6.6753172180e+00 -8.3302539947e-05 1.7426992925e+00 -3.0184437169e+00 1.7426992925e+00 3.0184437169e+00 
66400 6.6753172204e+00 -8.0996300603e-05 1.7427016825e+00 -3.0184478566e+00 1.7427016825e+00 3.0184478566e+00 
66500 6.6753172228e+00 -7.8630973677e-05 1.7427040064e+00 -3.0184518817e+00 1.7427040064e+00 3.0184518817e+00 
66600 6.6753172253e+00 -7.6210666363e-05 1.7427062624e+00 -3.0184557892e+00 1.7427062624e+00 3.0184557892e+00 
66700 6.6753172279e+00 -7.3739469026e-05 1.7427084490e+00 -3.0184595764e+00 1.7427084490e+00 3.0184595764e+00 
66800 6.6753172304e+00 -7.1221450506e-05 1.7427105646e+00 -3.0184632408e+00 1.7427105646e+00 3.0184632408e+00 
66900 6.6753172331e+00 -6.8660653565e-05 1.7427126080e+00 -3.0184667801e+00 1.7427126080e+00 3.0184667801e+00 
67000 6.6753172359e+00 -6.8604145045e-05 1.7427126080e+00 -3.0184667801e+00 1.7427126080e+00 3.0184667801e+00 
67100 6.6753172388e+00 -6.8436893047e-05 1.7427126080e+00 -3.0184667801e+00 1.7427126080e+00 3.0184667801e+00 
67200 6.6753172417e+00 -6.8161635452e-05 1.7427126080e+00 -3.0184667801e+00 1.7427126080e+00 3.0184667801e+00 
67300 6.6753172447e+00 -6.7781116554e-05 1.7427126080e+00 -3.0184667801e+00 1.7427126080e+00 3.0184667801e+00 
67400 6.6753172477e+00 -6.7298085527e-05 1.7427126080e+00 -3.0184667801e+00 1.7427126080e+00 3.0184667801e+00 
67500 6.6753172508e+00 -6.6715294949e-05 1.7427126080e+00 -3.0184667801e+00 1.7427126080e+00 3.0184667801e+00 
67600 6.6753172539e+00 -6.6035499328e-05 1.7427126080e+00 -3.0184667801e+00 1.7427126080e+00 3.0184667801e+00 
67700 6.6753172570e+00 -6.5261453667e-05 1.7427126080e+00 -3.0184667801e+00 1.7427126080e+00 3.0184667801e+00 
67800 6.6753172602e+00 -6.4395912041e-05 1.7427126080e+00 -3.0184667801e+00 1.7427126080e+00 3.0184667801e+00 
67900 6.6753172634e+00 -6.3441626202e-05 1.7427126080e+00 -3.0184667801e+00 1.7427126080e+00 3.0184667801e+00 
68000 6.6753172667e+00 -6.2401344189e-05 1.7427126080e+00 -3.0184667801e+00 1.7427126080e+00 3.0184667801e+00 
68100 6.6753172700e+00 -6.1277808996e-05 1.7427126080e+00 -3.0184667801e+00 1.7427126080e+00 3.0184667801e+00 
68200 6.6753172733e+00 -6.0073757217e-05 1.7427126080e+00 -3.0184667801e+00 1.7427126080e+00 3.0184667801e+00 
68300 6.6753172767e+00 -5.8791917739e-05 1.7427126080e+00 -3.0184667801e+00 1.7427126080e+00 3.0184667801e+00 
68400 6.6753172801e+00 -5.7435010445e-05 1.7427126080e+00 -3.0184667801e+00 1.7427126080e+00 3.0184667801e+00 
68500 6.6753172835e+00 -5.6005744941e-05 1.7427126080e+00 -3.0184667801e+00 1.7427126080e+00 3.0184667801e+00 
68600 6.6753172869e+00 -5.4506819296e-05 1.7427126080e+00 -3.0184667801e+00 1.7427126080e+00 3.0184667801e+00 
68700 6.6753172904e+00 -5.2940918814e-05 1.7427126080e+00 -3.0184667801e+00 1.7427126080e+00 3.0184667801e+00 
68800 6.6753172939e+00 -5.1310714805e-05 1.7427126080e+00 -3.0184667801e+00 1.7427126080e+00 3.0184667801e+00 
68900 6.6753172974e+00 -4.9618863395e-05 1.7427126080e+00 -3.0184667801e+00 1.7427126080e+00 3.0184667801e+00 
69000 6.6753173009e+00 -4.7868004345e-05 1.7427126080e+00 -3.0184667801e+00 1.7427126080e+00 3.0184667801e+00 
69100 6.6753173044e+00 -4.6060759890e-05 1.7427126080e+00 -3.0184667801e+00 1.7427126080e+00 3.0184667801e+00 
69200 6.6753173079e+00 -4.4199733606e-05 1.7427126080e+00 -3.0184667801e+00 1.7427126080e+00 3.0184667801e+00 
69300 6.6753173114e+00 -4.2287509285e-05 1.7427126080e+00 -3.0184667801e+00 1.7427126080e+00 3.0184667801e+00 
69400 6.6753173149e+00 -4.0326649829e-05 1.7427126080e+00 -3.0184667801e+00 1.7427126080e+00 3.0184667801e+00 
69500 6.6753173184e+00 -3.8319696186e-05 1.7427126080e+00 -3.0184667801e+00 1.7427126080e+00 3.0184667801e+00 
69600 6.6753173219e+00 -3.6269166275e-05 1.7427126080e+00 -3.0184667801e+00 1.7427126080e+00 3.0184667801e+00 
69700 6.6753173253e+00 -3.4177553960e-05 1.7427126080e+00 -3.0184667801e+00 1.7427126080e+00 3.0184667801e+00 
69800 6.6753173288e+00 -3.2047328021e-05 1.7427126080e+00 -3.0184667801e+00 1.7427126080e+00 3.0184667801e+00 
69900 6.6753173322e+00 -2.9880931166e-05 1.7427126080e+00 -3.0184667801e+00 1.7427126080e+00 3.0184667801e+00 
70000 6.6753173356e+00 -2.7680779046e-05 1.7427126080e+00 -3.0184667801e+00 1.7427126080e+00 3.0184667801e+00 
70100 6.6753173390e+00 -2.5449259320e-05 1.7427126080e+00 -3.0184667801e+00 1.7427126080e+00 3.0184667801e+00 
70200 6.6753173424e+00 -2.3188730709e-05 1.7427126080e+00 -3.0184667801e+00 1.7427126080e+00 3.0184667801e+00 
70300 6.6753173457e+00 -2.0901522089e-05 1.7427126080e+00 -3.0184667801e+00 1.7427126080e+00 3.0184667801e+00 
70400 6.6753173490e+00 -1.8589931619e-05 1.7427126080e+00 -3.0184667801e+00 1.7427126080e+00 3.0184667801e+00 
70500 6.6753173522e+00 -1.6256225871e-05 1.7427126080e+00 -3.0184667801e+00 1.7427126080e+00 3.0184667801e+00 
70600 6.6753173554e+00 -1.3902638996e-05 1.7427126080e+00 -3.0184667801e+00 1.7427126080e+00 3.0184667801e+00 
70700 6.6753173586e+00 -1.1531371914e-05 1.7427126080e+00 -3.0184667801e+00 1.7427126080e+00 3.0184667801e+00 
70800 6.6753173617e+00 -9.1445915206e-06 1.7427126080e+00 -3.0184667801e+00 1.7427126080e+00 3.0184667801e+00 
70900 6.6753173648e+00 -6.7444299358e-06 1.7427126080e+00 -3.0184667801e+00 1.7427126080e+00 3.0184667801e+00 
71000 6.6753173678e+00 -4.3329837610e-06 1.7427126080e+00 -3.0184667801e+00 1.7427126080e+00 3.0184667801e+00 
71100 6.6753173708e+00 -1.9123133686e-06 1.7427126080e+00 -3.0184667801e+00 1.7427126080e+00 3.0184667801e+00 
71200 6.6753173737e+00 5.1555777297e-07 1.7427126080e+00 -3.0184667801e+00 1.7427126080e+00 3.0184667801e+00 
71300 6.6753173766e+00 2.9486437624e-06 1.7427126080e+00 -3.0184667801e+00 1.7427126080e+00 3.0184667801e+00 
71400 6.6753173794e+00 5.3849968912e-06 1.7427126080e+00 -3.0184667801e+00 1.7427126080e+00 3.0184667801e+00 
71500 6.6753173822e+00 7.8227082417e-06 1.7427126080e+00 -3.0184667801e+00 1.7427126080e+00 3.0184667801e+00 
71600 6.6753173849e+00 1.0259908270e-05 1.7427126080e+00 -3.0184667801e+00 1.7427126080e+00 3.0184667801e+00 
71700 6.6753173875e+00 1.2694767335e-05 1.7427126080e+00 -3.0184667801e+00 1.7427126080e+00 3.0184667801e+00 
71800 6.6753173901e+00 1.5125496225e-05 1.7427126080e+00 -3.0184667801e+00 1.7427126080e+00 3.0184667801e+00 
71900 6.6753173927e+00 1.7550346638e-05 1.7427126080e+00 -3.0184667801e+00 1.7427126080e+00 3.0184667801e+00 
72000 6.6753173951e+00 1.9967611642e-05 1.7427126080e+00 -3.0184667801e+00 1.7427126080e+00 3.0184667801e+00 
72100 6.6753173976e+00 2.2375626097e-05 1.7427126080e+00 -3.0184667801e+00 1.7427126080e+00 3.0184667801e+00 
72200 6.6753173999e+00 2.4772767057e-05 1.7427126080e+00 -3.0184667801e+00 1.7427126080e+00 3.0184667801e+00 
72300 6.6753174023e+00 2.7157454133e-05 1.7427126080e+00 -3.0184667801e+00 1.7427126080e+00 3.0184667801e+00 
72400 6.6753174045e+00 2.9528149840e-05 1.7427126080e+00 -3.0184667801e+00 1.7427126080e+00 3.0184667801e+00 
72500 6.6753174067e+00 3.1883359880e-05 1.7427126080e+00 -3.0184667801e+00 1.7427126080e+00 3.0184667801e+00 
72600 6.6753174089e+00 3.4221633447e-05 1.7427126080e+00 -3.0184667801e+00 1.7427126080e+00 3.0184667801e+00 
72700 6.6753174110e+00 3.6541563448e-05 1.7427126080e+00 -3.0184667801e+00 1.7427126080e+00 3.0184667801e+00 
72800 6.6753174130e+00 3.8841786729e-05 1.7427126080e+00 -3.0184667801e+00 1.7427126080e+00 3.0184667801e+00 
72900 6.6753174150e+00 4.1120984251e-05 1.7427126080e+00 -3.0184667801e+00 1.7427126080e+00 3.0184667801e+00 
73000 6.6753174169e+00 4.3377881250e-05 1.7427126080e+00 -3.0184667801e+00 1.7427126080e+00 3.0184667801e+00 
73100 6.6753174188e+00 4.5611247353e-05 1.7427126080e+00 -3.0184667801e+00 1.7427126080e+00 3.0184667801e+00 
73200 6.6753174206e+00 4.7819896667e-05 1.7427126080e+00 -3.0184667801e+00 1.7427126080e+00 3.0184667801e+00 
73300 6.6753174224e+00 5.0002687838e-05 1.7427126080e+00 -3.0184667801e+00 1.7427126080e+00 3.0184667801e+00 
73400 6.6753174242e+00 5.2158524080e-05 1.7427126080e+00 -3.0184667801e+00 1.7427126080e+00 3.0184667801e+00 
73500 6.6753174259e+00 5.4286353179e-05 1.7427126080e+00 -3.0184667801e+00 1.7427126080e+00 3.0184667801e+00 
73600 6.6753174275e+00 5.6385167449e-05 1.7427126080e+00 -3.0184667801e+00 1.7427126080e+00 3.0184667801e+00 
73700 6.6753174291e+00 5.8454003677e-05 1.7427126080e+00 -3.0184667801e+00 1.7427126080e+00 3.0184667801e+00 
73800 6.6753174307e+00 6.0491943028e-05 1.7427126080e+00 -3.0184667801e+00 1.7427126080e+00 3.0184667801e+00 
73900 6.6753174322e+00 6.2498110919e-05 1.7427126080e+00 -3.0184667801e+00 1.7427126080e+00 3.0184667801e+00 
74000 6.6753174337e+00 6.4471676870e-05 1.7427126080e+00 -3.0184667801e+00 1.7427126080e+00 3.0184667801e+00 
74100 6.6753174351e+00 6.6411854316e-05 1.7427126080e+00 -3.0184667801e+00 1.7427126080e+00 3.0184667801e+00 
74200 6.6753174366e+00 6.8317900400e-05 1.7427126080e+00 -3.0184667801e+00 1.7427126080e+00 3.0184667801e+00 
74300 6.6753174379e+00 7.0189115732e-05 1.7427126080e+00 -3.0184667801e+00 1.7427126080e+00 3.0184667801e+00 
74400 6.6753174393e+00 7.2024844121e-05 1.7427126080e+00 -3.0184667801e+00 1.7427126080e+00 3.0184667801e+00 
74500 6.6753174404e+00 7.1156500325e-05 1.7427105416e+00 -3.0184632009e+00 1.7427105416e+00 3.0184632009e+00 
74600 6.6753174415e+00 7.0262308079e-05 1.7427085000e+00 -3.0184596649e+00 1.7427085000e+00 3.0184596649e+00 
74700 6.6753174428e+00 7.1944765219e-05 1.7427085000e+00 -3.0184596649e+00 1.7427085000e+00 3.0184596649e+00 
74800 6.6753174438e+00 7.0922771796e-05 1.7427064359e+00 -3.0184560896e+00 1.7427064359e+00 3.0184560896e+00 
74900 6.6753174448e+00 6.9877566392e-05 1.7427044010e+00 -3.0184525652e+00 1.7427044010e+00 3.0184525652e+00 
75000 6.6753174460e+00 7.1397603495e-05 1.7427044010e+00 -3.0184525652e+00 1.7427044010e+00 3.0184525652e+00 
75100 6.6753174469e+00 7.0230816678e-05 1.7427023526e+00 -3.0184490171e+00 1.7427023526e+00 3.0184490171e+00 
75200 6.6753174480e+00 7.1645538918e-05 1.7427023526e+00 -3.0184490171e+00 1.7427023526e+00 3.0184490171e+00 
75300 6.6753174490e+00 7.0363163365e-05 1.7427002970e+00 -3.0184454567e+00 1.7427002970e+00 3.0184454567e+00 
75400 6.6753174500e+00 7.1670470367e-05 1.7427002970e+00 -3.0184454567e+00 1.7427002970e+00 3.0184454567e+00 
75500 6.6753174509e+00 7.0278910286e-05 1.7426982407e+00 -3.0184418951e+00 1.7426982407e+00 3.0184418951e+00 
75600 6.6753174519e+00 7.1477250059e-05 1.7426982407e+00 -3.0184418951e+00 1.7426982407e+00 3.0184418951e+00 
75700 6.6753174528e+00 6.9983272038e-05 1.7426961899e+00 -3.0184383431e+00 1.7426961899e+00 3.0184383431e+00 
75800 6.6753174538e+00 7.1071626359e-05 1.7426961899e+00 -3.0184383431e+00 1.7426961899e+00 3.0184383431e+00 
75900 6.6753174546e+00 6.9482310806e-05 1.7426941508e+00 -3.0184348112e+00 1.7426941508e+00 3.0184348112e+00 
76000 6.6753174556e+00 7.0460178897e-05 1.7426941508e+00 -3.0184348112e+00 1.7426941508e+00 3.0184348112e+00 
76100 6.6753174565e+00 7.1393004122e-05 1.7426941508e+00 -3.0184348112e+00 1.7426941508e+00 3.0184348112e+00 
76200 6.6753174573e+00 6.9636562418e-05 1.7426921024e+00 -3.0184312634e+00 1.7426921024e+00 3.0184312634e+00 
76300 6.6753174583e+00 7.0459573432e-05 1.7426921024e+00 -3.0184312634e+00 1.7426921024e+00 3.0184312634e+00 
76400 6.6753174592e+00 7.1238107403e-05 1.7426921024e+00 -3.0184312634e+00 1.7426921024e+00 3.0184312634e+00 
76500 6.6753174600e+00 6.9333786579e-05 1.7426900585e+00 -3.0184277232e+00 1.7426900585e+00 3.0184277232e+00 
76600 6.6753174609e+00 7.0004040403e-05 1.7426900585e+00 -3.0184277232e+00 1.7426900585e+00 3.0184277232e+00 
76700 6.6753174619e+00 7.0630734696e-05 1.7426900585e+00 -3.0184277232e+00 1.7426900585e+00 3.0184277232e+00 
76800 6.6753174628e+00 7.1214562791e-05 1.7426900585e+00 -3.0184277232e+00 1.7426900585e+00 3.0184277232e+00 
76900 6.6753174635e+00 6.9118133409e-05 1.7426880153e+00 -3.0184241842e+00 1.7426880153e+00 3.0184241842e+00 
77000 6.6753174645e+00 6.9597280725e-05 1.7426880153e+00 -3.0184241842e+00 1.7426880153e+00 3.0184241842e+00 
77100 6.6753174654e+00 7.0034842054e-05 1.7426880153e+00 -3.0184241842e+00 1.7426880153e+00 3.0184241842e+00 
77200 6.6753174663e+00 7.0431623166e-05 1.7426880153e+00 -3.0184241842e+00 1.7426880153e+00 3.0184241842e+00 
77300 6.6753174672e+00 7.0788440947e-05 1.7426880153e+00 -3.0184241842e+00 1.7426880153e+00 3.0184241842e+00 
77400 6.6753174679e+00 6.8483799087e-05 1.7426859843e+00 -3.0184206664e+00 1.7426859843e+00 3.0184206664e+00 
77500 6.6753174688e+00 6.8742218954e-05 1.7426859843e+00 -3.0184206664e+00 1.7426859843e+00 3.0184206664e+00 
77600 6.6753174697e+00 6.8962302221e-05 1.7426859843e+00 -3.0184206664e+00 1.7426859843e+00 3.0184206664e+00 
77700 6.6753174706e+00 6.9144958260e-05 1.7426859843e+00 -3.0184206664e+00 1.7426859843e+00 3.0184206664e+00 
77800 6.6753174715e+00 6.9291102685e-05 1.7426859843e+00 -3.0184206664e+00 1.7426859843e+00 3.0184206664e+00 
77900 6.6753174724e+00 6.9401656621e-05 1.7426859843e+00 -3.0184206664e+00 1.7426859843e+00 3.0184206664e+00 
78000 6.6753174733e+00 6.9477546007e-05 1.7426859843e+00 -3.0184206664e+00 1.7426859843e+00 3.0184206664e+00 
78100 6.6753174742e+00 6.9519700870e-05 1.7426859843e+00 -3.0184206664e+00 1.7426859843e+00 3.0184206664e+00 
78200 6.6753174751e+00 6.9529054644e-05 1.7426859843e+00 -3.0184206664e+00 1.7426859843e+00 3.0184206664e+00 
78300 6.6753174760e+00 6.9506543470e-05 1.7426859843e+00 -3.0184206664e+00 1.7426859843e+00 3.0184206664e+00 
78400 6.6753174769e+00 6.9453105522e-05 1.7426859843e+00 -3.0184206664e+00 1.7426859843e+00 3.0184206664e+00 
78500 6.6753174778e+00 6.9369680328e-05 1.7426859843e+00 -3.0184206664e+00 1.7426859843e+00 3.0184206664e+00 
78600 6.6753174786e+00 6.9257208119e-05 1.7426859843e+00 -3.0184206664e+00 1.7426859843e+00 3.0184206664e+00 
78700 6.6753174795e+00 6.9116629172e-05 1.7426859843e+00 -3.0184206664e+00 1.7426859843e+00 3.0184206664e+00 
78800 6.6753174804e+00 6.8948883159e-05 1.7426859843e+00 -3.0184206664e+00 1.7426859843e+00 3.0184206664e+00 
78900 6.6753174812e+00 6.8754908525e-05 1.7426859843e+00 -3.0184206664e+00 1.7426859843e+00 3.0184206664e+00 
79000 6.6753174821e+00 6.8535641859e-05 1.7426859843e+00 -3.0184206664e+00 1.7426859843e+00 3.0184206664e+00 
79100 6.6753174830e+00 6.8292017285e-05 1.7426859843e+00 -3.0184206664e+00 1.7426859843e+00 3.0184206664e+00 
79200 6.6753174838e+00 6.8024965860e-05 1.7426859843e+00 -3.0184206664e+00 1.7426859843e+00 3.0184206664e+00 
79300 6.6753174847e+00 6.7735414982e-05 1.7426859843e+00 -3.0184206664e+00 1.7426859843e+00 3.0184206664e+00 
79400 6.6753174855e+00 6.7424287806e-05 1.7426859843e+00 -3.0184206664e+00 1.7426859843e+00 3.0184206664e+00 
79500 6.6753174863e+00 6.7092502688e-05 1.7426859843e+00 -3.0184206664e+00 1.7426859843e+00 3.0184206664e+00 
79600 6.6753174871e+00 6.6740972613e-05 1.7426859843e+00 -3.0184206664e+00 1.7426859843e+00 3.0184206664e+00 
79700 6.6753174880e+00 6.6370604659e-05 1.7426859843e+00 -3.0184206664e+00 1.7426859843e+00 3.0184206664e+00 
79800 6.6753174888e+00 6.5982299466e-05 1.7426859843e+00 -3.0184206664e+00 1.7426859843e+00 3.0184206664e+00 
79900 6.6753174896e+00 6.5576950706e-05 1.7426859843e+00 -3.0184206664e+00 1.7426859843e+00 3.0184206664e+00 
80000 6.6753174904e+00 6.5155444585e-05 1.7426859843e+00 -3.0184206664e+00 1.7426859843e+00 3.0184206664e+00 
80100 6.6753174911e+00 6.4718659337e-05 1.7426859843e+00 -3.0184206664e+00 1.7426859843e+00 3.0184206664e+00 
80200 6.6753174919e+00 6.4267464749e-05 1.7426859843e+00 -3.0184206664e+00 1.7426859843e+00 3.0184206664e+00 
80300 6.6753174927e+00 6.3802721687e-05 1.7426859843e+00 -3.0184206664e+00 1.7426859843e+00 3.0184206664e+00 
80400 6.6753174934e+00 6.3325281638e-05 1.7426859843e+00 -3.0184206664e+00 1.7426859843e+00 3.0184206664e+00 
80500 6.6753174942e+00 6.2835986270e-05 1.7426859843e+00 -3.0184206664e+00 1.7426859843e+00 3.0184206664e+00 
80600 6.6753174949e+00 6.2335666999e-05 1.7426859843e+00 -3.0184206664e+00 1.7426859843e+00 3.0184206664e+00 
80700 6.6753174957e+00 6.1825144575e-05 1.7426859843e+00 -3.0184206664e+00 1.7426859843e+00 3.0184206664e+00 
80800 6.6753174964e+00 6.1305228679e-05 1.7426859843e+00 -3.0184206664e+00 1.7426859843e+00 3.0184206664e+00 
80900 6.6753174971e+00 6.0776717531e-05 1.7426859843e+00 -3.0184206664e+00 1.7426859843e+00 3.0184206664e+00 
81000 6.6753174978e+00 6.0240397516e-05 1.7426859843e+00 -3.0184206664e+00 1.7426859843e+00 3.0184206664e+00 
81100 6.6753174985e+00 5.9697042830e-05 1.7426859843e+00 -3.0184206664e+00 1.7426859843e+00 3.0184206664e+00 
81200 6.6753174991e+00 5.9147415123e-05 1.7426859843e+00 -3.0184206664e+00 1.7426859843e+00 3.0184206664e+00 
81300 6.6753174998e+00 5.8592263177e-05 1.7426859843e+00 -3.0184206664e+00 1.7426859843e+00 3.0184206664e+00 
81400 6.6753175005e+00 5.8032322582e-05 1.7426859843e+00 -3.0184206664e+00 1.7426859843e+00 3.0184206664e+00 
81500 6.6753175011e+00 5.7468315441e-05 1.7426859843e+00 -3.0184206664e+00 1.7426859843e+00 3.0184206664e+00 
81600 6.6753175017e+00 5.6900950069e-05 1.7426859843e+00 -3.0184206664e+00 1.7426859843e+00 3.0184206664e+00 
81700 6.6753175024e+00 5.6330920729e-05 1.7426859843e+00 -3.0184206664e+00 1.7426859843e+00 3.0184206664e+00 
81800 6.6753175030e+00 5.5758907371e-05 1.7426859843e+00 -3.0184206664e+00 1.7426859843e+00 3.0184206664e+00 
81900 6.6753175036e+00 5.5185575395e-05 1.7426859843e+00 -3.0184206664e+00 1.7426859843e+00 3.0184206664e+00 
82000 6.6753175042e+00 5.4611575400e-05 1.7426859843e+00 -3.0184206664e+00 1.7426859843e+00 3.0184206664e+00 
82100 6.6753175048e+00 5.4037542997e-05 1.7426859843e+00 -3.0184206664e+00 1.7426859843e+00 3.0184206664e+00 
82200 6.6753175053e+00 5.3464098584e-05 1.7426859843e+00 -3.0184206664e+00 1.7426859843e+00 3.0184206664e+00 
82300 6.6753175059e+00 5.2891847180e-05 1.7426859843e+00 -3.0184206664e+00 1.7426859843e+00 3.0184206664e+00 
82400 6.6753175065e+00 5.2321378244e-05 1.7426859843e+00 -3.0184206664e+00 1.7426859843e+00 3.0184206664e+00 
82500 6.6753175070e+00 5.1753265520e-05 1.7426859843e+00 -3.0184206664e+00 1.7426859843e+00 3.0184206664e+00 
82600 6.6753175075e+00 5.1188066899e-05 1.7426859843e+00 -3.0184206664e+00 1.7426859843e+00 3.0184206664e+00 
82700 6.6753175081e+00 5.0626324290e-05 1.7426859843e+00 -3.0184206664e+00 1.7426859843e+00 3.0184206664e+00 
82800 6.6753175086e+00 5.0068563509e-05 1.7426859843e+00 -3.0184206664e+00 1.7426859843e+00 3.0184206664e+00 
82900 6.6753175091e+00 4.9515294180e-05 1.7426859843e+00 -3.0184206664e+00 1.7426859843e+00 3.0184206664e+00 
83000 6.6753175096e+00 4.8967009653e-05 1.7426859843e+00 -3.0184206664e+00 1.7426859843e+00 3.0184206664e+00 
83100 6.6753175100e+00 4.8424186931e-05 1.7426859843e+00 -3.0184206664e+00 1.7426859843e+00 3.0184206664e+00 
83200 6.6753175105e+00 4.7887286613e-05 1.7426859843e+00 -3.0184206664e+00 1.7426859843e+00 3.0184206664e+00 
83300 6.6753175110e+00 4.7356752859e-05 1.7426859843e+00 -3.0184206664e+00 1.7426859843e+00 3.0184206664e+00 
83400 6.6753175114e+00 4.6833013367e-05 1.7426859843e+00 -3.0184206664e+00 1.7426859843e+00 3.0184206664e+00 
83500 6.6753175119e+00 4.6316479338e-05 1.7426859843e+00 -3.0184206664e+00 1.7426859843e+00 3.0184206664e+00 
83600 6.6753175123e+00 4.5807545498e-05 1.7426859843e+00 -3.0184206664e+00 1.7426859843e+00 3.0184206664e+00 
83700 6.6753175128e+00 4.5306590094e-05 1.7426859843e+00 -3.0184206664e+00 1.7426859843e+00 3.0184206664e+00 
83800 6.6753175132e+00 4.4813974929e-05 1.7426859843e+00 -3.0184206664e+00 1.7426859843e+00 3.0184206664e+00 
83900 6.6753175136e+00 4.4330045401e-05 1.7426859843e+00 -3.0184206664e+00 1.7426859843e+00 3.0184206664e+00 
84000 6.6753175140e+00 4.3855130548e-05 1.7426859843e+00 -3.0184206664e+00 1.7426859843e+00 3.0184206664e+00 
84100 6.6753175144e+00 4.3389543112e-05 1.7426859843e+00 -3.0184206664e+00 1.7426859843e+00 3.0184206664e+00 
84200 6.6753175148e+00 4.2933579622e-05 1.7426859843e+00 -3.0184206664e+00 1.7426859843e+00 3.0184206664e+00 
84300 6.6753175152e+00 4.2487520474e-05 1.7426859843e+00 -3.0184206664e+00 1.7426859843e+00 3.0184206664e+00 
84400 6.6753175156e+00 4.2051630040e-05 1.7426859843e+00 -3.0184206664e+00 1.7426859843e+00 3.0184206664e+00 
84500 6.6753175160e+00 4.1626156766e-05 1.7426859843e+00 -3.0184206664e+00 1.7426859843e+00 3.0184206664e+00 
84600 6.6753175164e+00 4.1211333304e-05 1.7426859843e+00 -3.0184206664e+00 1.7426859843e+00 3.0184206664e+00 
84700 6.6753175167e+00 4.0807376646e-05 1.7426859843e+00 -3.0184206664e+00 1.7426859843e+00 3.0184206664e+00 
84800 6.6753175171e+00 4.0414488261e-05 1.7426859843e+00 -3.0184206664e+00 1.7426859843e+00 3.0184206664e+00 
84900 6.6753175174e+00 4.0032854256e-05 1.7426859843e+00 -3.0184206664e+00 1.7426859843e+00 3.0184206664e+00 
85000 6.6753175178e+00 3.9662645543e-05 1.7426859843e+00 -3.0184206664e+00 1.7426859843e+00 3.0184206664e+00 
85100 6.6753175181e+00 3.9304018000e-05 1.7426859843e+00 -3.0184206664e+00 1.7426859843e+00 3.0184206664e+00 
85200 6.6753175185e+00 3.8957112674e-05 1.7426859843e+00 -3.0184206664e+00 1.7426859843e+00 3.0184206664e+00 
85300 6.6753175188e+00 3.8622055957e-05 1.7426859843e+00 -3.0184206664e+00 1.7426859843e+00 3.0184206664e+00 
85400 6.6753175191e+00 3.8298959802e-05 1.7426859843e+00 -3.0184206664e+00 1.7426859843e+00 3.0184206664e+00 
85500 6.6753175195e+00 3.7987921930e-05 1.7426859843e+00 -3.0184206664e+00 1.7426859843e+00 3.0184206664e+00 
85600 6.6753175198e+00 3.7689026041e-05 1.7426859843e+00 -3.0184206664e+00 1.7426859843e+00 3.0184206664e+00 
85700 6.6753175201e+00 3.7402342059e-05 1.7426859843e+00 -3.0184206664e+00 1.7426859843e+00 3.0184206664e+00 
85800 6.6753175204e+00 3.7127926345e-05 1.7426859843e+00 -3.0184206664e+00 1.7426859843e+00 3.0184206664e+00 
85900 6.6753175207e+00 3.6865821960e-05 1.7426859843e+00 -3.0184206664e+00 1.7426859843e+00 3.0184206664e+00 
86000 6.6753175210e+00 3.6616058902e-05 1.7426859843e+00 -3.0184206664e+00 1.7426859843e+00 3.0184206664e+00 
86100 6.6753175213e+00 3.6378654368e-05 1.7426859843e+00 -3.0184206664e+00 1.7426859843e+00 3.0184206664e+00 
86200 6.6753175216e+00 3.6153613019e-05 1.7426859843e+00 -3.0184206664e+00 1.7426859843e+00 3.0184206664e+00 
86300 6.6753175219e+00 3.5940927236e-05 1.7426859843e+00 -3.0184206664e+00 1.7426859843e+00 3.0184206664e+00 
86400 6.6753175222e+00 3.5740577411e-05 1.7426859843e+00 -3.0184206664e+00 1.7426859843e+00 3.0184206664e+00 
86500 6.6753175225e+00 3.5552532211e-05 1.7426859843e+00 -3.0184206664e+00 1.7426859843e+00 3.0184206664e+00 
86600 6.6753175228e+00 3.5376748878e-05 1.7426859843e+00 -3.0184206664e+00 1.7426859843e+00 3.0184206664e+00 
86700 6.6753175231e+00 3.5213173507e-05 1.7426859843e+00 -3.0184206664e+00 1.7426859843e+00 3.0184206664e+00 
86800 6.6753175234e+00 3.5061741342e-05 1.7426859843e+00 -3.0184206664e+00 1.7426859843e+00 3.0184206664e+00 
86900 6.6753175236e+00 3.4922377084e-05 1.7426859843e+00 -3.0184206664e+00 1.7426859843e+00 3.0184206664e+00 
87000 6.6753175239e+00 3.4794995177e-05 1.7426859843e+00 -3.0184206664e+00 1.7426859843e+00 3.0184206664e+00 
87100 6.6753175242e+00 3.4679500118e-05 1.7426859843e+00 -3.0184206664e+00 1.7426859843e+00 3.0184206664e+00 
87200 6.6753175244e+00 3.4575786774e-05 1.7426859843e+00 -3.0184206664e+00 1.7426859843e+00 3.0184206664e+00 
87300 6.6753175247e+00 3.4483740684e-05 1.7426859843e+00 -3.0184206664e+00 1.7426859843e+00 3.0184206664e+00 
87400 6.6753175250e+00 3.4403238369e-05 1.7426859843e+00 -3.0184206664e+00 1.7426859843e+00 3.0184206664e+00 
87500 6.6753175252e+00 3.4334147652e-05 1.7426859843e+00 -3.0184206664e+00 1.7426859843e+00 3.0184206664e+00 
87600 6.6753175255e+00 3.4276327977e-05 1.7426859843e+00 -3.0184206664e+00 1.7426859843e+00 3.0184206664e+00 
87700 6.6753175258e+00 3.4229630723e-05 1.7426859843e+00 -3.0184206664e+00 1.7426859843e+00 3.0184206664e+00 
87800 6.6753175260e+00 3.4193899520e-05 1.7426859843e+00 -3.0184206664e+00 1.7426859843e+00 3.0184206664e+00 
87900 6.6753175263e+00 3.4168970577e-05 1.7426859843e+00 -3.0184206664e+00 1.7426859843e+00 3.0184206664e+00 
88000 6.6753175265e+00 3.4154672990e-05 1.7426859843e+00 -3.0184206664e+00 1.7426859843e+00 3.0184206664e+00 
88100 6.6753175268e+00 3.4150829081e-05 1.7426859843e+00 -3.0184206664e+00 1.7426859843e+00 3.0184206664e+00 
88200 6.6753175270e+00 3.4157254695e-05 1.7426859843e+00 -3.0184206664e+00 1.7426859843e+00 3.0184206664e+00 
88300 6.6753175272e+00 3.4173759539e-05 1.7426859843e+00 -3.0184206664e+00 1.7426859843e+00 3.0184206664e+00 
88400 6.6753175275e+00 3.4200147491e-05 1.7426859843e+00 -3.0184206664e+00 1.7426859843e+00 3.0184206664e+00 
88500 6.6753175277e+00 3.4236216917e-05 1.7426859843e+00 -3.0184206664e+00 1.7426859843e+00 3.0184206664e+00 
88600 6.6753175280e+00 3.4281760999e-05 1.7426859843e+00 -3.0184206664e+00 1.7426859843e+00 3.0184206664e+00 
88700 6.6753175282e+00 3.4336568034e-05 1.7426859843e+00 -3.0184206664e+00 1.7426859843e+00 3.0184206664e+00 
88800 6.6753175284e+00 3.4400421754e-05 1.7426859843e+00 -3.0184206664e+00 1.7426859843e+00 3.0184206664e+00 
88900 6.6753175286e+00 3.4473101639e-05 1.7426859843e+00 -3.0184206664e+00 1.7426859843e+00 3.0184206664e+00 
89000 6.6753175289e+00 3.4554383230e-05 1.7426859843e+00 -3.0184206664e+00 1.7426859843e+00 3.0184206664e+00 
89100 6.6753175291e+00 3.4644038416e-05 1.7426859843e+00 -3.0184206664e+00 1.7426859843e+00 3.0184206664e+00 
89200 6.6753175293e+00 3.4741835763e-05 1.7426859843e+00 -3.0184206664e+00 1.7426859843e+00 3.0184206664e+00 
89300 6.6753175295e+00 3.4847540792e-05 1.7426859843e+00 -3.0184206664e+00 1.7426859843e+00 3.0184206664e+00 
89400 6.6753175298e+00 3.4960916286e-05 1.7426859843e+00 -3.0184206664e+00 1.7426859843e+00 3.0184206664e+00 
89500 6.6753175300e+00 3.5081722584e-05 1.7426859843e+00 -3.0184206664e+00 1.7426859843e+00 3.0184206664e+00 
89600 6.6753175302e+00 3.5209717863e-05 1.7426859843e+00 -3.0184206664e+00 1.7426859843e+00 3.0184206664e+00 
89700 6.6753175304e+00 3.5344658434e-05 1.7426859843e+00 -3.0184206664e+00 1.7426859843e+00 3.0184206664e+00 
89800 6.6753175306e+00 3.5486299011e-05 1.7426859843e+00 -3.0184206664e+00 1.7426859843e+00 3.0184206664e+00 
89900 6.6753175308e+00 3.5634392994e-05 1.7426859843e+00 -3.0184206664e+00 1.7426859843e+00 3.0184206664e+00 
90000 6.6753175310e+00 3.5788692743e-05 1.7426859843e+00 -3.0184206664e+00 1.7426859843e+00 3.0184206664e+00 
90100 6.6753175312e+00 3.5948949843e-05 1.7426859843e+00 -3.0184206664e+00 1.7426859843e+00 3.0184206664e+00 
90200 6.6753175314e+00 3.6114915367e-05 1.7426859843e+00 -3.0184206664e+00 1.7426859843e+00 3.0184206664e+00 
90300 6.6753175316e+00 3.6286340128e-05 1.7426859843e+00 -3.0184206664e+00 1.7426859843e+00 3.0184206664e+00 
90400 6.6753175318e+00 3.6462974943e-05 1.7426859843e+00 -3.0184206664e+00 1.7426859843e+00 3.0184206664e+00 
90500 6.6753175320e+00 3.6644570877e-05 1.7426859843e+00 -3.0184206664e+00 1.7426859843e+00 3.0184206664e+00 
90600 6.6753175322e+00 3.6830879470e-05 1.7426859843e+00 -3.0184206664e+00 1.7426859843e+00 3.0184206664e+00 
90700 6.6753175324e+00 3.7021652992e-05 1.7426859843e+00 -3.0184206664e+00 1.7426859843e+00 3.0184206664e+00 
90800 6.6753175326e+00 3.7216644662e-05 1.7426859843e+00 -3.0184206664e+00 1.7426859843e+00 3.0184206664e+00 
90900 6.6753175327e+00 3.7415608877e-05 1.7426859843e+00 -3.0184206664e+00 1.7426859843e+00 3.0184206664e+00 
91000 6.6753175329e+00 3.7618301428e-05 1.7426859843e+00 -3.0184206664e+00 1.7426859843e+00 3.0184206664e+00 
91100 6.6753175331e+00 3.7824479713e-05 1.7426859843e+00 -3.0184206664e+00 1.7426859843e+00 3.0184206664e+00 
91200 6.6753175333e+00 3.8033902946e-05 1.7426859843e+00 -3.0184206664e+00 1.7426859843e+00 3.0184206664e+00 
91300 6.6753175334e+00 3.8246332350e-05 1.7426859843e+00 -3.0184206664e+00 1.7426859843e+00 3.0184206664e+00 
91400 6.6753175336e+00 3.8461531359e-05 1.7426859843e+00 -3.0184206664e+00 1.7426859843e+00 3.0184206664e+00 
91500 6.6753175338e+00 3.8679265798e-05 1.7426859843e+00 -3.0184206664e+00 1.7426859843e+00 3.0184206664e+00 
91600 6.6753175340e+00 3.8899304076e-05 1.7426859843e+00 -3.0184206664e+00 1.7426859843e+00 3.0184206664e+00 
91700 6.6753175341e+00 3.9121417340e-05 1.7426859843e+00 -3.0184206664e+00 1.7426859843e+00 3.0184206664e+00 
91800 6.6753175343e+00 3.9345379665e-05 1.7426859843e+00 -3.0184206664e+00 1.7426859843e+00 3.0184206664e+00 
91900 6.6753175344e+00 3.9570968198e-05 1.7426859843e+00 -3.0184206664e+00 1.7426859843e+00 3.0184206664e+00 
92000 6.6753175346e+00 3.9797963329e-05 1.7426859843e+00 -3.0184206664e+00 1.7426859843e+00 3.0184206664e+00 
92100 6.6753175348e+00 4.0026148823e-05 1.7426859843e+00 -3.0184206664e+00 1.7426859843e+00 3.0184206664e+00 
92200 6.6753175349e+00 4.0255311976e-05 1.7426859843e+00 -3.0184206664e+00 1.7426859843e+00 3.0184206664e+00 
92300 6.6753175351e+00 4.0485243738e-05 1.7426859843e+00 -3.0184206664e+00 1.7426859843e+00 3.0184206664e+00 
92400 6.6753175352e+00 4.0715738856e-05 1.7426859843e+00 -3.0184206664e+00 1.7426859843e+00 3.0184206664e+00 
92500 6.6753175354e+00 4.0946595977e-05 1.7426859843e+00 -3.0184206664e+00 1.7426859843e+00 3.0184206664e+00 
92600 6.6753175355e+00 4.1177617783e-05 1.7426859843e+00 -3.0184206664e+00 1.7426859843e+00 3.0184206664e+00 
92700 6.6753175356e+00 4.1408611087e-05 1.7426859843e+00 -3.0184206664e+00 1.7426859843e+00 3.0184206664e+00 
92800 6.6753175358e+00 4.1639386938e-05 1.7426859843e+00 -3.0184206664e+00 1.7426859843e+00 3.0184206664e+00 
92900 6.6753175359e+00 4.1869760723e-05 1.7426859843e+00 -3.0184206664e+00 1.7426859843e+00 3.0184206664e+00 
93000 6.6753175361e+00 4.2099552247e-05 1.7426859843e+00 -3.0184206664e+00 1.7426859843e+00 3.0184206664e+00 
93100 6.6753175362e+00 4.2328585821e-05 1.7426859843e+00 -3.0184206664e+00 1.7426859843e+00 3.0184206664e+00 
93200 6.6753175363e+00 4.2556690341e-05 1.7426859843e+00 -3.0184206664e+00 1.7426859843e+00 3.0184206664e+00 
93300 6.6753175365e+00 4.2783699355e-05 1.7426859843e+00 -3.0184206664e+00 1.7426859843e+00 3.0184206664e+00 
93400 6.6753175366e+00 4.3009451123e-05 1.7426859843e+00 -3.0184206664e+00 1.7426859843e+00 3.0184206664e+00 
93500 6.6753175367e+00 4.3233788686e-05 1.7426859843e+00 -3.0184206664e+00 1.7426859843e+00 3.0184206664e+00 
93600 6.6753175368e+00 4.3456559908e-05 1.7426859843e+00 -3.0184206664e+00 1.7426859843e+00 3.0184206664e+00 
93700 6.6753175370e+00 4.3677617523e-05 1.7426859843e+00 -3.0184206664e+00 1.7426859843e+00 3.0184206664e+00 
93800 6.6753175371e+00 4.3896819180e-05 1.7426859843e+00 -3.0184206664e+00 1.7426859843e+00 3.0184206664e+00 
93900 6.6753175372e+00 4.4114027476e-05 1.7426859843e+00 -3.0184206664e+00 1.7426859843e+00 3.0184206664e+00 
94000 6.6753175373e+00 4.4329109977e-05 1.7426859843e+00 -3.0184206664e+00 1.7426859843e+00 3.0184206664e+00 
94100 6.6753175375e+00 4.4541939249e-05 1.7426859843e+00 -3.0184206664e+00 1.7426859843e+00 3.0184206664e+00 
94200 6.6753175376e+00 4.4752392871e-05 1.7426859843e+00 -3.0184206664e+00 1.7426859843e+00 3.0184206664e+00 
94300 6.6753175377e+00 4.4960353450e-05 1.7426859843e+00 -3.0184206664e+00 1.7426859843e+00 3.0184206664e+00 
94400 6.6753175378e+00 4.5165708617e-05 1.7426859843e+00 -3.0184206664e+00 1.7426859843e+00 3.0184206664e+00 
94500 6.6753175379e+00 4.5368351044e-05 1.7426859843e+00 -3.0184206664e+00 1.7426859843e+00 3.0184206664e+00 
94600 6.6753175380e+00 4.5568178420e-05 1.7426859843e+00 -3.0184206664e+00 1.7426859843e+00 3.0184206664e+00 
94700 6.6753175381e+00 4.5765093463e-05 1.7426859843e+00 -3.0184206664e+00 1.7426859843e+00 3.0184206664e+00 
94800 6.6753175382e+00 4.5959003892e-05 1.7426859843e+00 -3.0184206664e+00 1.7426859843e+00 3.0184206664e+00 
94900 6.6753175383e+00 4.6149822406e-05 1.7426859843e+00 -3.0184206664e+00 1.7426859843e+00 3.0184206664e+00 
95000 6.6753175384e+00 4.6337466672e-05 1.7426859843e+00 -3.0184206664e+00 1.7426859843e+00 3.0184206664e+00 
95100 6.6753175385e+00 4.6521859288e-05 1.7426859843e+00 -3.0184206664e+00 1.7426859843e+00 3.0184206664e+00 
95200 6.6753175386e+00 4.6702927752e-05 1.7426859843e+00 -3.0184206664e+00 1.7426859843e+00 3.0184206664e+00 
95300 6.6753175387e+00 4.6880604424e-05 1.7426859843e+00 -3.0184206664e+00 1.7426859843e+00 3.0184206664e+00 
95400 6.6753175388e+00 4.7054826489e-05 1.7426859843e+00 -3.0184206664e+00 1.7426859843e+00 3.0184206664e+00 
95500 6.6753175389e+00 4.7225535908e-05 1.7426859843e+00 -3.0184206664e+00 1.7426859843e+00 3.0184206664e+00 
95600 6.6753175390e+00 4.7392679369e-05 1.7426859843e+00 -3.0184206664e+00 1.7426859843e+00 3.0184206664e+00 
95700 6.6753175391e+00 4.7556208238e-05 1.7426859843e+00 -3.0184206664e+00 1.7426859843e+00 3.0184206664e+00 
95800 6.6753175392e+00 4.7716078500e-05 1.7426859843e+00 -3.0184206664e+00 1.7426859843e+00 3.0184206664e+00 
95900 6.6753175393e+00 4.7872250695e-05 1.7426859843e+00 -3.0184206664e+00 1.7426859843e+00 3.0184206664e+00 
96000 6.6753175394e+00 4.8024689860e-05 1.7426859843e+00 -3.0184206664e+00 1.7426859843e+00 3.0184206664e+00 
96100 6.6753175395e+00 4.8173365466e-05 1.7426859843e+00 -3.0184206664e+00 1.7426859843e+00 3.0184206664e+00 
96200 6.6753175396e+00 4.8318251336e-05 1.7426859843e+00 -3.0184206664e+00 1.7426859843e+00 3.0184206664e+00 
96300 6.6753175397e+00 4.8459325586e-05 1.7426859843e+00 -3.0184206664e+00 1.7426859843e+00 3.0184206664e+00 
96400 6.6753175398e+00 4.8596570543e-05 1.7426859843e+00 -3.0184206664e+00 1.7426859843e+00 3.0184206664e+00 
96500 6.6753175398e+00 4.8729972668e-05 1.7426859843e+00 -3.0184206664e+00 1.7426859843e+00 3.0184206664e+00 
96600 6.6753175399e+00 4.8859522472e-05 1.7426859843e+00 -3.0184206664e+00 1.7426859843e+00 3.0184206664e+00 
96700 6.6753175400e+00 4.8985214443e-05 1.7426859843e+00 -3.0184206664e+00 1.7426859843e+00 3.0184206664e+00 
96800 6.6753175401e+00 4.9107046949e-05 1.7426859843e+00 -3.0184206664e+00 1.7426859843e+00 3.0184206664e+00 
96900 6.6753175402e+00 4.9225022162e-05 1.7426859843e+00 -3.0184206664e+00 1.7426859843e+00 3.0184206664e+00 
97000 6.6753175403e+00 4.9339145960e-05 1.7426859843e+00 -3.0184206664e+00 1.7426859843e+00 3.0184206664e+00 
97100 6.6753175403e+00 4.9449427844e-05 1.7426859843e+00 -3.0184206664e+00 1.7426859843e+00 3.0184206664e+00 
97200 6.6753175404e+00 4.9555880835e-05 1.7426859843e+00 -3.0184206664e+00 1.7426859843e+00 3.0184206664e+00 
97300 6.6753175405e+00 4.9658521395e-05 1.7426859843e+00 -3.0184206664e+00 1.7426859843e+00 3.0184206664e+00 
97400 6.6753175406e+00 4.9757369315e-05 1.7426859843e+00 -3.0184206664e+00 1.7426859843e+00 3.0184206664e+00 
97500 6.6753175407e+00 4.9852447629e-05 1.7426859843e+00 -3.0184206664e+00 1.7426859843e+00 3.0184206664e+00 
97600 6.6753175407e+00 4.9943782514e-05 1.7426859843e+00 -3.0184206664e+00 1.7426859843e+00 3.0184206664e+00 
97700 6.6753175408e+00 5.0031403186e-05 1.7426859843e+00 -3.0184206664e+00 1.7426859843e+00 3.0184206664e+00 
97800 6.6753175409e+00 5.0115341808e-05 1.7426859843e+00 -3.0184206664e+00 1.7426859843e+00 3.0184206664e+00 
97900 6.6753175409e+00 5.0195633384e-05 1.7426859843e+00 -3.0184206664e+00 1.7426859843e+00 3.0184206664e+00 
98000 6.6753175410e+00 5.0272315663e-05 1.7426859843e+00 -3.0184206664e+00 1.7426859843e+00 3.0184206664e+00 
98100 6.6753175411e+00 5.0345429025e-05 1.7426859843e+00 -3.0184206664e+00 1.7426859843e+00 3.0184206664e+00 
98200 6.6753175412e+00 5.0415016391e-05 1.7426859843e+00 -3.0184206664e+00 1.7426859843e+00 3.0184206664e+00 
98300 6.6753175412e+00 5.0481123118e-05 1.7426859843e+00 -3.0184206664e+00 1.7426859843e+00 3.0184206664e+00 
98400 6.6753175413e+00 5.0543796890e-05 1.7426859843e+00 -3.0184206664e+00 1.7426859843e+00 3.0184206664e+00 
98500 6.6753175414e+00 5.0603087626e-05 1.7426859843e+00 -3.0184206664e+00 1.7426859843e+00 3.0184206664e+00 
98600 6.6753175414e+00 5.0659047366e-05 1.7426859843e+00 -3.0184206664e+00 1.7426859843e+00 3.0184206664e+00 
98700 6.6753175415e+00 5.0711730175e-05 1.7426859843e+00 -3.0184206664e+00 1.7426859843e+00 3.0184206664e+00 
98800 6.6753175416e+00 5.0761192037e-05 1.7426859843e+00 -3.0184206664e+00 1.7426859843e+00 3.0184206664e+00 
98900 6.6753175416e+00 5.0807490756e-05 1.7426859843e+00 -3.0184206664e+00 1.7426859843e+00 3.0184206664e+00 
99000 6.6753175417e+00 5.0850685852e-05 1.7426859843e+00 -3.0184206664e+00 1.7426859843e+00 3.0184206664e+00 
99100 6.6753175418e+00 5.0890838464e-05 1.7426859843e+00 -3.0184206664e+00 1.7426859843e+00 3.0184206664e+00 
99200 6.6753175418e+00 5.0928011241e-05 1.7426859843e+00 -3.0184206664e+00 1.7426859843e+00 3.0184206664e+00 
99300 6.6753175419e+00 5.0962268253e-05 1.7426859843e+00 -3.0184206664e+00 1.7426859843e+00 3.0184206664e+00 
99400 6.6753175419e+00 5.0993674883e-05 1.7426859843e+00 -3.0184206664e+00 1.7426859843e+00 3.0184206664e+00 
99500 6.6753175420e+00 5.1022297737e-05 1.7426859843e+00 -3.0184206664e+00 1.7426859843e+00 3.0184206664e+00 
99600 6.6753175421e+00 5.1048204537e-05 1.7426859843e+00 -3.0184206664e+00 1.7426859843e+00 3.0184206664e+00 
99700 6.6753175421e+00 5.1071464038e-05 1.7426859843e+00 -3.0184206664e+00 1.7426859843e+00 3.0184206664e+00 
99800 6.6753175422e+00 5.1092145919e-05 1.7426859843e+00 -3.0184206664e+00 1.7426859843e+00 3.0184206664e+00 
99900 6.6753175422e+00 5.1110320699e-05 1.7426859843e+00 -3.0184206664e+00 1.7426859843e+00 3.0184206664e+00 
100000 6.6753175423e+00 5.1126059645e-05 1.7426859843e+00 -3.0184206664e+00 1.7426859843e+00 3.0184206664e+00 
100100 6.6753175424e+00 5.1139434674e-05 1.7426859843e+00 -3.0184206664e+00 1.7426859843e+00 3.0184206664e+00 
100200 6.6753175424e+00 5.1150518273e-05 1.7426859843e+00 -3.0184206664e+00 1.7426859843e+00 3.0184206664e+00 
100300 6.6753175425e+00 5.1159383400e-05 1.7426859843e+00 -3.0184206664e+00 1.7426859843e+00 3.0184206664e+00 
100400 6.6753175425e+00 5.1166103405e-05 1.7426859843e+00 -3.0184206664e+00 1.7426859843e+00 3.0184206664e+00 
100500 6.6753175426e+00 5.1170751947e-05 1.7426859843e+00 -3.0184206664e+00 1.7426859843e+00 3.0184206664e+00 
100600 6.6753175426e+00 5.1173402902e-05 1.7426859843e+00 -3.0184206664e+00 1.7426859843e+00 3.0184206664e+00 
100700 6.6753175427e+00 5.1174130285e-05 1.7426859843e+00 -3.0184206664e+00 1.7426859843e+00 3.0184206664e+00 
100800 6.6753175427e+00 5.1173008177e-05 1.7426859843e+00 -3.0184206664e+00 1.7426859843e+00 3.0184206664e+00 
100900 6.6753175428e+00 5.1170110640e-05 1.7426859843e+00 -3.0184206664e+00 1.7426859843e+00 3.0184206664e+00 
101000 6.6753175428e+00 5.1165511641e-05 1.7426859843e+00 -3.0184206664e+00 1.7426859843e+00 3.0184206664e+00 
101100 6.6753175429e+00 5.1159284976e-05 1.7426859843e+00 -3.0184206664e+00 1.7426859843e+00 3.0184206664e+00 
101200 6.6753175429e+00 5.1151504204e-05 1.7426859843e+00 -3.0184206664e+00 1.7426859843e+00 3.0184206664e+00 
101300 6.6753175430e+00 5.1142242579e-05 1.7426859843e+00 -3.0184206664e+00 1.7426859843e+00 3.0184206664e+00 
101400 6.6753175430e+00 5.1131572968e-05 1.7426859843e+00 -3.0184206664e+00 1.7426859843e+00 3.0184206664e+00 
101500 6.6753175430e+00 5.1129740014e-05 1.7426859843e+00 -3.0184206664e+00 1.7426859843e+00 3.0184206664e+00 
101500 6.6753175430e+00 5.1129740014e-05 1.7426859843e+00 -3.0184206664e+00 1.7426859843e+00 3.0184206664e+00 
