# step Hamiltonian StressXX CellTensor1 CellTensor2 CellTensor3 CellTensor4 
0 4.6676320929e+00 4.4797412708e-02 1.8793944066e+00 -3.2552065997e+00 1.8793944066e+00 3.2552065997e+00 
100 4.6593545834e+00 4.4121951734e-02 1.8793944066e+00 -3.2552065997e+00 1.8793944066e+00 3.2552065997e+00 
200 4.6515704937e+00 4.3027759215e-02 1.8782206946e+00 -3.2531736709e+00 1.8782206946e+00 3.2531736709e+00 
300 4.6442926732e+00 4.2094127353e-02 1.8770753717e+00 -3.2511899134e+00 1.8770753717e+00 3.2511899134e+00 
400 4.6374811451e+00 4.1303188598e-02 1.8759542144e+00 -3.2492480121e+00 1.8759542144e+00 3.2492480121e+00 
500 4.6311003224e+00 4.0639076527e-02 1.8748534640e+00 -3.2473414565e+00 1.8748534640e+00 3.2473414565e+00 
600 4.6251184786e+00 4.0087736189e-02 1.8737697751e+00 -3.2454644522e+00 1.8737697751e+00 3.2454644522e+00 
700 4.6195072658e+00 3.9636740189e-02 1.8727001688e+00 -3.2436118397e+00 1.8727001688e+00 3.2436118397e+00 
800 4.6142412798e+00 3.9275112755e-02 1.8716419907e+00 -3.2417790215e+00 1.8716419907e+00 3.2417790215e+00 
900 4.6092976705e+00 3.8993163598e-02 1.8705928734e+00 -3.2399618970e+00 1.8705928734e+00 3.2399618970e+00 
1000 4.6046557950e+00 3.8782332970e-02 1.8695507027e+00 -3.2381568044e+00 1.8695507027e+00 3.2381568044e+00 
1100 4.6002969133e+00 3.8635048852e-02 1.8685135887e+00 -3.2363604703e+00 1.8685135887e+00 3.2363604703e+00 
1200 4.5962039209e+00 3.8544596830e-02 1.8674798396e+00 -3.2345699643e+00 1.8674798396e+00 3.2345699643e+00 
1300 4.5923611186e+00 3.8505002817e-02 1.8664479397e+00 -3.2327826613e+00 1.8664479397e+00 3.2327826613e+00 
1400 4.5887540142e+00 3.8510928500e-02 1.8654165299e+00 -3.2309962071e+00 1.8654165299e+00 3.2309962071e+00 
1500 4.5853691536e+00 3.8557579095e-02 1.8643843911e+00 -3.2292084903e+00 1.8643843911e+00 3.2292084903e+00 
1600 4.5821939790e+00 3.8640622796e-02 1.8633504302e+00 -3.2274176174e+00 1.8633504302e+00 3.2274176174e+00 
1700 4.5792167099e+00 3.8756121170e-02 1.8623136677e+00 -3.2256218921e+00 1.8623136677e+00 3.2256218921e+00 
1800 4.5764262454e+00 3.8900469613e-02 1.8612732278e+00 -3.2238197972e+00 1.8612732278e+00 3.2238197972e+00 
1900 4.5738120833e+00 3.9070346958e-02 1.8602283294e+00 -3.2220099802e+00 1.8602283294e+00 3.2220099802e+00 
2000 4.5713642553e+00 3.9262673279e-02 1.8591782790e+00 -3.2201912396e+00 1.8591782790e+00 3.2201912396e+00 
2100 4.5690732743e+00 3.9474574961e-02 1.8581224643e+00 -3.2183625149e+00 1.8581224643e+00 3.2183625149e+00 
2200 4.5669300933e+00 3.9703356125e-02 1.8570603489e+00 -3.2165228770e+00 1.8570603489e+00 3.2165228770e+00 
2300 4.5649260725e+00 3.9946475557e-02 1.8559914675e+00 -3.2146715201e+00 1.8559914675e+00 3.2146715201e+00 
2400 4.5630529538e+00 4.0201528355e-02 1.8549154223e+00 -3.2128077552e+00 1.8549154223e+00 3.2128077552e+00 
2500 4.5613028412e+00 4.0466231549e-02 1.8538318793e+00 -3.2109310037e+00 1.8538318793e+00 3.2109310037e+00 
2600 4.5596681852e+00 4.0738413058e-02 1.8527405652e+00 -3.2090407922e+00 1.8527405652e+00 3.2090407922e+00 
2700 4.5581417713e+00 4.1016003399e-02 1.8516412645e+00 -3.2071367474e+00 1.8516412645e+00 3.2071367474e+00 
2800 4.5567167105e+00 4.1297029622e-02 1.8505338169e+00 -3.2052185920e+00 1.8505338169e+00 3.2052185920e+00 
2900 4.5553864318e+00 4.1579611043e-02 1.8494181151e+00 -3.2032861398e+00 1.8494181151e+00 3.2032861398e+00 
3000 4.5541446757e+00 4.1861956369e-02 1.8482941022e+00 -3.2013392924e+00 1.8482941022e+00 3.2013392924e+00 
3100 4.5529854885e+00 4.2142361906e-02 1.8471617695e+00 -3.1993780345e+00 1.8471617695e+00 3.1993780345e+00 
3200 4.5519032168e+00 4.2419210544e-02 1.8460211541e+00 -3.1974024308e+00 1.8460211541e+00 3.1974024308e+00 
3300 4.5508925022e+00 4.2690971318e-02 1.8448723372e+00 -3.1954126215e+00 1.8448723372e+00 3.1954126215e+00 
3400 4.5499482758e+00 4.2956199310e-02 1.8437154412e+00 -3.1934088189e+00 1.8437154412e+00 3.1934088189e+00 
3500 4.5490657517e+00 4.3213535772e-02 1.8425506283e+00 -3.1913913037e+00 1.8425506283e+00 3.1913913037e+00 
3600 4.5482404211e+00 4.3461708309e-02 1.8413780974e+00 -3.1893604207e+00 1.8413780974e+00 3.1893604207e+00 
3700 4.5474680447e+00 4.3699531034e-02 1.8401980828e+00 -3.1873165754e+00 1.8401980828e+00 3.1873165754e+00 
3800 4.5467446460e+00 4.3925904616e-02 1.8390108511e+00 -3.1852602298e+00 1.8390108511e+00 3.1852602298e+00 
3900 4.5460665023e+00 4.4139816148e-02 1.8378166997e+00 -3.1831918989e+00 1.8378166997e+00 3.1831918989e+00 
4000 4.5454301371e+00 4.4340338800e-02 1.8366159541e+00 -3.1811121466e+00 1.8366159541e+00 3.1811121466e+00 
4100 4.5448323104e+00 4.4526631221e-02 1.8354089659e+00 -3.1790215815e+00 1.8354089659e+00 3.1790215815e+00 
4200 4.5442700096e+00 4.4697936677e-02 1.8341961102e+00 -3.1769208539e+00 1.8341961102e+00 3.1769208539e+00 
4300 4.5437404402e+00 4.4853581901e-02 1.8329777840e+00 -3.1748106510e+00 1.8329777840e+00 3.1748106510e+00 
4400 4.5432410150e+00 4.4992975675e-02 1.8317544034e+00 -3.1726916936e+00 1.8317544034e+00 3.1726916936e+00 
4500 4.5427693449e+00 4.5115607132e-02 1.8305264018e+00 -3.1705647326e+00 1.8305264018e+00 3.1705647326e+00 
4600 4.5423232281e+00 4.5221043795e-02 1.8292942278e+00 -3.1684305446e+00 1.8292942278e+00 3.1684305446e+00 
4700 4.5419006401e+00 4.5308929370e-02 1.8280583428e+00 -3.1662899289e+00 1.8280583428e+00 3.1662899289e+00 
4800 4.5414997234e+00 4.5378981308e-02 1.8268192191e+00 -3.1641437037e+00 1.8268192191e+00 3.1641437037e+00 
4900 4.5411187774e+00 4.5430988166e-02 1.8255773383e+00 -3.1619927030e+00 1.8255773383e+00 3.1619927030e+00 
5000 4.5407562486e+00 4.5464806773e-02 1.8243331887e+00 -3.1598377728e+00 1.8243331887e+00 3.1598377728e+00 
5100 4.5404107206e+00 4.5480359246e-02 1.8230872643e+00 -3.1576797683e+00 1.8230872643e+00 3.1576797683e+00 
5200 4.5400809045e+00 4.5477629861e-02 1.8218400620e+00 -3.1555195507e+00 1.8218400620e+00 3.1555195507e+00 
5300 4.5397656302e+00 4.5456661825e-02 1.8205920811e+00 -3.1533579843e+00 1.8205920811e+00 3.1533579843e+00 
5400 4.5394638370e+00 4.5417553951e-02 1.8193438206e+00 -3.1511959337e+00 1.8193438206e+00 3.1511959337e+00 
5500 4.5391745652e+00 4.5360457282e-02 1.8180957784e+00 -3.1490342612e+00 1.8180957784e+00 3.1490342612e+00 
5600 4.5388969481e+00 4.5285571669e-02 1.8168484496e+00 -3.1468738243e+00 1.8168484496e+00 3.1468738243e+00 
5700 4.5386302039e+00 4.5193142339e-02 1.8156023250e+00 -3.1447154732e+00 1.8156023250e+00 3.1447154732e+00 
5800 4.5383736286e+00 4.5083456466e-02 1.8143578901e+00 -3.1425600488e+00 1.8143578901e+00 3.1425600488e+00 
5900 4.5381265890e+00 4.4956839769e-02 1.8131156240e+00 -3.1404083807e+00 1.8131156240e+00 3.1404083807e+00 
6000 4.5378885159e+00 4.4813653147e-02 1.8118759978e+00 -3.1382612852e+00 1.8118759978e+00 3.1382612852e+00 
6100 4.5376588983e+00 4.4654289382e-02 1.8106394741e+00 -3.1361195633e+00 1.8106394741e+00 3.1361195633e+00 
6200 4.5374372773e+00 4.4479169910e-02 1.8094065059e+00 -3.1339839998e+00 1.8094065059e+00 3.1339839998e+00 
6300 4.5372232413e+00 4.4288741676e-02 1.8081775358e+00 -3.1318553611e+00 1.8081775358e+00 3.1318553611e+00 
6400 4.5370164202e+00 4.4083474097e-02 1.8069529951e+00 -3.1297343944e+00 1.8069529951e+00 3.1297343944e+00 
6500 4.5368164820e+00 4.3863856122e-02 1.8057333034e+00 -3.1276218264e+00 1.8057333034e+00 3.1276218264e+00 
6600 4.5366231273e+00 4.3630393414e-02 1.8045188678e+00 -3.1255183623e+00 1.8045188678e+00 3.1255183623e+00 
6700 4.5364360866e+00 4.3383605652e-02 1.8033100825e+00 -3.1234246847e+00 1.8033100825e+00 3.1234246847e+00 
6800 4.5362551160e+00 4.3124023964e-02 1.8021073282e+00 -3.1213414531e+00 1.8021073282e+00 3.1213414531e+00 
6900 4.5360799946e+00 4.2852188487e-02 1.8009109719e+00 -3.1192693032e+00 1.8009109719e+00 3.1192693032e+00 
7000 4.5359105211e+00 4.2568646061e-02 1.7997213665e+00 -3.1172088463e+00 1.7997213665e+00 3.1172088463e+00 
7100 4.5357465114e+00 4.2273948065e-02 1.7985388507e+00 -3.1151606688e+00 1.7985388507e+00 3.1151606688e+00 
7200 4.5355877964e+00 4.1968648383e-02 1.7973637484e+00 -3.1131253320e+00 1.7973637484e+00 3.1131253320e+00 
7300 4.5354342199e+00 4.1653301504e-02 1.7961963692e+00 -3.1111033718e+00 1.7961963692e+00 3.1111033718e+00 
7400 4.5352856363e+00 4.1328460764e-02 1.7950370077e+00 -3.1090952989e+00 1.7950370077e+00 3.1090952989e+00 
7500 4.5351419096e+00 4.0994676712e-02 1.7938859440e+00 -3.1071015980e+00 1.7938859440e+00 3.1071015980e+00 
7600 4.5350029115e+00 4.0652495606e-02 1.7927434432e+00 -3.1051227286e+00 1.7927434432e+00 3.1051227286e+00 
7700 4.5348685204e+00 4.0302458044e-02 1.7916097560e+00 -3.1031591247e+00 1.7916097560e+00 3.1031591247e+00 
7800 4.5347386200e+00 3.9945097704e-02 1.7904851182e+00 -3.1012111950e+00 1.7904851182e+00 3.1012111950e+00 
7900 4.5346130986e+00 3.9580940210e-02 1.7893697516e+00 -3.0992793233e+00 1.7893697516e+00 3.0992793233e+00 
8000 4.5344918484e+00 3.9210502108e-02 1.7882638633e+00 -3.0973638686e+00 1.7882638633e+00 3.0973638686e+00 
8100 4.5343747645e+00 3.8834289956e-02 1.7871676467e+00 -3.0954651656e+00 1.7871676467e+00 3.0954651656e+00 
8200 4.5342617444e+00 3.8452799509e-02 1.7860812809e+00 -3.0935835250e+00 1.7860812809e+00 3.0935835250e+00 
8300 4.5341526876e+00 3.8066515008e-02 1.7850049320e+00 -3.0917192340e+00 1.7850049320e+00 3.0917192340e+00 
8400 4.5340474953e+00 3.7675908563e-02 1.7839387522e+00 -3.0898725564e+00 1.7839387522e+00 3.0898725564e+00 
8500 4.5339460699e+00 3.7281439623e-02 1.7828828811e+00 -3.0880437339e+00 1.7828828811e+00 3.0880437339e+00 
8600 4.5338483149e+00 3.6883554524e-02 1.7818374452e+00 -3.0862329859e+00 1.7818374452e+00 3.0862329859e+00 
8700 4.5337541347e+00 3.6482686126e-02 1.7808025590e+00 -3.0844405104e+00 1.7808025590e+00 3.0844405104e+00 
8800 4.5336634342e+00 3.6079253511e-02 1.7797783245e+00 -3.0826664842e+00 1.7797783245e+00 3.0826664842e+00 
8900 4.5335761193e+00 3.5673661755e-02 1.7787648324e+00 -3.0809110644e+00 1.7787648324e+00 3.0809110644e+00 
9000 4.5334920964e+00 3.5266301764e-02 1.7777621616e+00 -3.0791743877e+00 1.7777621616e+00 3.0791743877e+00 
9100 4.5334112722e+00 3.4857550163e-02 1.7767703805e+00 -3.0774565724e+00 1.7767703805e+00 3.0774565724e+00 
9200 4.5333335545e+00 3.4447769243e-02 1.7757895463e+00 -3.0757577178e+00 1.7757895463e+00 3.0757577178e+00 
9300 4.5332588514e+00 3.4037306956e-02 1.7748197064e+00 -3.0740779058e+00 1.7748197064e+00 3.0740779058e+00 
9400 4.5331870719e+00 3.3626496955e-02 1.7738608980e+00 -3.0724172010e+00 1.7738608980e+00 3.0724172010e+00 
9500 4.5331181256e+00 3.3215658674e-02 1.7729131490e+00 -3.0707756514e+00 1.7729131490e+00 3.0707756514e+00 
9600 4.5330519230e+00 3.2805097447e-02 1.7719764778e+00 -3.0691532894e+00 1.7719764778e+00 3.0691532894e+00 
9700 4.5329883757e+00 3.2395104660e-02 1.7710508944e+00 -3.0675501319e+00 1.7710508944e+00 3.0675501319e+00 
9800 4.5329273961e+00 3.1985957933e-02 1.7701364002e+00 -3.0659661815e+00 1.7701364002e+00 3.0659661815e+00 
9900 4.5328688978e+00 3.1577921326e-02 1.7692329886e+00 -3.0644014267e+00 1.7692329886e+00 3.0644014267e+00 
10000 4.5328127958e+00 3.1171245576e-02 1.7683406453e+00 -3.0628558427e+00 1.7683406453e+00 3.0628558427e+00 
10100 4.5327590060e+00 3.0766168349e-02 1.7674593486e+00 -3.0613293921e+00 1.7674593486e+00 3.0613293921e+00 
10200 4.5327074461e+00 3.0362914509e-02 1.7665890700e+00 -3.0598220253e+00 1.7665890700e+00 3.0598220253e+00 
10300 4.5326580350e+00 2.9961696409e-02 1.7657297742e+00 -3.0583336813e+00 1.7657297742e+00 3.0583336813e+00 
10400 4.5326106932e+00 2.9562714192e-02 1.7648814197e+00 -3.0568642882e+00 1.7648814197e+00 3.0568642882e+00 
10500 4.5325653430e+00 2.9166156101e-02 1.7640439590e+00 -3.0554137638e+00 1.7640439590e+00 3.0554137638e+00 
10600 4.5325219082e+00 2.8772198802e-02 1.7632173391e+00 -3.0539820161e+00 1.7632173391e+00 3.0539820161e+00 
10700 4.5324803143e+00 2.8381007712e-02 1.7624015015e+00 -3.0525689440e+00 1.7624015015e+00 3.0525689440e+00 
10800 4.5324404889e+00 2.7992737336e-02 1.7615963829e+00 -3.0511744376e+00 1.7615963829e+00 3.0511744376e+00 
10900 4.5324023612e+00 2.7607531603e-02 1.7608019151e+00 -3.0497983790e+00 1.7608019151e+00 3.0497983790e+00 
11000 4.5323658624e+00 2.7225524207e-02 1.7600180256e+00 -3.0484406426e+00 1.7600180256e+00 3.0484406426e+00 
11100 4.5323309256e+00 2.6846838954e-02 1.7592446378e+00 -3.0471010957e+00 1.7592446378e+00 3.0471010957e+00 
11200 4.5322974858e+00 2.6471590101e-02 1.7584816712e+00 -3.0457795988e+00 1.7584816712e+00 3.0457795988e+00 
11300 4.5322654800e+00 2.6099882700e-02 1.7577290418e+00 -3.0444760064e+00 1.7577290418e+00 3.0444760064e+00 
11400 4.5322348473e+00 2.5731812937e-02 1.7569866622e+00 -3.0431901671e+00 1.7569866622e+00 3.0431901671e+00 
11500 4.5322055286e+00 2.5367468471e-02 1.7562544419e+00 -3.0419219244e+00 1.7562544419e+00 3.0419219244e+00 
11600 4.5321774668e+00 2.5006928768e-02 1.7555322878e+00 -3.0406711167e+00 1.7555322878e+00 3.0406711167e+00 
11700 4.5321506070e+00 2.4650265431e-02 1.7548201038e+00 -3.0394375780e+00 1.7548201038e+00 3.0394375780e+00 
11800 4.5321248961e+00 2.4297542521e-02 1.7541177920e+00 -3.0382211381e+00 1.7541177920e+00 3.0382211381e+00 
11900 4.5321002827e+00 2.3948816885e-02 1.7534252517e+00 -3.0370216233e+00 1.7534252517e+00 3.0370216233e+00 
12000 4.5320767179e+00 2.3604138464e-02 1.7527423808e+00 -3.0358388562e+00 1.7527423808e+00 3.0358388562e+00 
12100 4.5320541541e+00 2.3263550601e-02 1.7520690752e+00 -3.0346726566e+00 1.7520690752e+00 3.0346726566e+00 
12200 4.5320325460e+00 2.2927090343e-02 1.7514052292e+00 -3.0335228416e+00 1.7514052292e+00 3.0335228416e+00 
12300 4.5320118499e+00 2.2594788739e-02 1.7507507358e+00 -3.0323892258e+00 1.7507507358e+00 3.0323892258e+00 
12400 4.5319920240e+00 2.2266671120e-02 1.7501054869e+00 -3.0312716219e+00 1.7501054869e+00 3.0312716219e+00 
12500 4.5319730283e+00 2.1942757387e-02 1.7494693732e+00 -3.0301698407e+00 1.7494693732e+00 3.0301698407e+00 
12600 4.5319548242e+00 2.1623062276e-02 1.7488422846e+00 -3.0290836914e+00 1.7488422846e+00 3.0290836914e+00 
12700 4.5319373752e+00 2.1307595630e-02 1.7482241103e+00 -3.0280129820e+00 1.7482241103e+00 3.0280129820e+00 
12800 4.5319206462e+00 2.0996362651e-02 1.7476147388e+00 -3.0269575197e+00 1.7476147388e+00 3.0269575197e+00 
12900 4.5319046037e+00 2.0689364151e-02 1.7470140584e+00 -3.0259171107e+00 1.7470140584e+00 3.0259171107e+00 
13000 4.5318892157e+00 2.0386596798e-02 1.7464219568e+00 -3.0248915607e+00 1.7464219568e+00 3.0248915607e+00 
13100 4.5318744518e+00 2.0088053344e-02 1.7458383218e+00 -3.0238806752e+00 1.7458383218e+00 3.0238806752e+00 
13200 4.5318602829e+00 1.9793722856e-02 1.7452630409e+00 -3.0228842594e+00 1.7452630409e+00 3.0228842594e+00 
13300 4.5318466813e+00 1.9503590932e-02 1.7446960017e+00 -3.0219021187e+00 1.7446960017e+00 3.0219021187e+00 
13400 4.5318336206e+00 1.9217639917e-02 1.7441370920e+00 -3.0209340588e+00 1.7441370920e+00 3.0209340588e+00 
13500 4.5318210758e+00 1.8935849099e-02 1.7435861999e+00 -3.0199798856e+00 1.7435861999e+00 3.0199798856e+00 
13600 4.5318090231e+00 1.8658194915e-02 1.7430432137e+00 -3.0190394059e+00 1.7430432137e+00 3.0190394059e+00 
13700 4.5317974398e+00 1.8384651133e-02 1.7425080221e+00 -3.0181124269e+00 1.7425080221e+00 3.0181124269e+00 
13800 4.5317863044e+00 1.8115189037e-02 1.7419805146e+00 -3.0171987570e+00 1.7419805146e+00 3.0171987570e+00 
13900 4.5317755963e+00 1.7849777601e-02 1.7414605809e+00 -3.0162982054e+00 1.7414605809e+00 3.0162982054e+00 
14000 4.5317652963e+00 1.7588383658e-02 1.7409481116e+00 -3.0154105826e+00 1.7409481116e+00 3.0154105826e+00 
14100 4.5317553858e+00 1.7330972060e-02 1.7404429979e+00 -3.0145357001e+00 1.7404429979e+00 3.0145357001e+00 
14200 4.5317458473e+00 1.7077505834e-02 1.7399451320e+00 -3.0136733710e+00 1.7399451320e+00 3.0136733710e+00 
14300 4.5317366644e+00 1.6827946329e-02 1.7394544067e+00 -3.0128234098e+00 1.7394544067e+00 3.0128234098e+00 
14400 4.5317278212e+00 1.6582253360e-02 1.7389707157e+00 -3.0119856325e+00 1.7389707157e+00 3.0119856325e+00 
14500 4.5317193028e+00 1.6340385340e-02 1.7384939540e+00 -3.0111598569e+00 1.7384939540e+00 3.0111598569e+00 
14600 4.5317110950e+00 1.6102299412e-02 1.7380240171e+00 -3.0103459023e+00 1.7380240171e+00 3.0103459023e+00 
14700 4.5317031845e+00 1.5867951574e-02 1.7375608018e+00 -3.0095435900e+00 1.7375608018e+00 3.0095435900e+00 
14800 4.5316955585e+00 1.5637296794e-02 1.7371042061e+00 -3.0087527430e+00 1.7371042061e+00 3.0087527430e+00 
14900 4.5316882050e+00 1.5410289126e-02 1.7366541289e+00 -3.0079731864e+00 1.7366541289e+00 3.0079731864e+00 
15000 4.5316811125e+00 1.5186881815e-02 1.7362104702e+00 -3.0072047471e+00 1.7362104702e+00 3.0072047471e+00 
15100 4.5316742702e+00 1.4967027399e-02 1.7357731314e+00 -3.0064472540e+00 1.7357731314e+00 3.0064472540e+00 
15200 4.5316676677e+00 1.4750677808e-02 1.7353420150e+00 -3.0057005384e+00 1.7353420150e+00 3.0057005384e+00 
15300 4.5316612954e+00 1.4537784454e-02 1.7349170245e+00 -3.0049644334e+00 1.7349170245e+00 3.0049644334e+00 
15400 4.5316551439e+00 1.4328298320e-02 1.7344980650e+00 -3.0042387742e+00 1.7344980650e+00 3.0042387742e+00 
15500 4.5316492045e+00 1.4122170043e-02 1.7340850427e+00 -3.0035233985e+00 1.7340850427e+00 3.0035233985e+00 
15600 4.5316434689e+00 1.3919349990e-02 1.7336778649e+00 -3.0028181460e+00 1.7336778649e+00 3.0028181460e+00 
15700 4.5316379290e+00 1.3719788336e-02 1.7332764405e+00 -3.0021228585e+00 1.7332764405e+00 3.0021228585e+00 
15800 4.5316325774e+00 1.3523435130e-02 1.7328806794e+00 -3.0014373802e+00 1.7328806794e+00 3.0014373802e+00 
15900 4.5316274069e+00 1.3330240366e-02 1.7324904931e+00 -3.0007615577e+00 1.7324904931e+00 3.0007615577e+00 
16000 4.5316224107e+00 1.3140154041e-02 1.7321057941e+00 -3.0000952395e+00 1.7321057941e+00 3.0000952395e+00 
16100 4.5316175823e+00 1.2953126215e-02 1.7317264964e+00 -2.9994382766e+00 1.7317264964e+00 2.9994382766e+00 
16200 4.5316129156e+00 1.2769107066e-02 1.7313525153e+00 -2.9987905223e+00 1.7313525153e+00 2.9987905223e+00 
16300 4.5316084046e+00 1.2588046945e-02 1.7309837674e+00 -2.9981518321e+00 1.7309837674e+00 2.9981518321e+00 
16400 4.5316040438e+00 1.2409896418e-02 1.7306201705e+00 -2.9975220639e+00 1.7306201705e+00 2.9975220639e+00 
16500 4.5315998278e+00 1.2234606315e-02 1.7302616439e+00 -2.9969010775e+00 1.7302616439e+00 2.9969010775e+00 
16600 4.5315957515e+00 1.2062127774e-02 1.7299081080e+00 -2.9962887355e+00 1.7299081080e+00 2.9962887355e+00 
16700 4.5315918100e+00 1.1892412277e-02 1.7295594848e+00 -2.9956849024e+00 1.7295594848e+00 2.9956849024e+00 
16800 4.5315879987e+00 1.1725411688e-02 1.7292156973e+00 -2.9950894450e+00 1.7292156973e+00 2.9950894450e+00 
16900 4.5315843132e+00 1.1561078284e-02 1.7288766700e+00 -2.9945022324e+00 1.7288766700e+00 2.9945022324e+00 
17000 4.5315807491e+00 1.1399364793e-02 1.7285423284e+00 -2.9939231359e+00 1.7285423284e+00 2.9939231359e+00 
17100 4.5315773024e+00 1.1240224416e-02 1.7282125997e+00 -2.9933520289e+00 1.7282125997e+00 2.9933520289e+00 
17200 4.5315739691e+00 1.1083610855e-02 1.7278874119e+00 -2.9927887872e+00 1.7278874119e+00 2.9927887872e+00 
17300 4.5315707456e+00 1.0929478340e-02 1.7275666946e+00 -2.9922332885e+00 1.7275666946e+00 2.9922332885e+00 
17400 4.5315676281e+00 1.0777781650e-02 1.7272503785e+00 -2.9916854129e+00 1.7272503785e+00 2.9916854129e+00 
17500 4.5315646133e+00 1.0628476131e-02 1.7269383954e+00 -2.9911450424e+00 1.7269383954e+00 2.9911450424e+00 
17600 4.5315616978e+00 1.0481517715e-02 1.7266306786e+00 -2.9906120612e+00 1.7266306786e+00 2.9906120612e+00 
17700 4.5315588784e+00 1.0336862936e-02 1.7263271623e+00 -2.9900863556e+00 1.7263271623e+00 2.9900863556e+00 
17800 4.5315561520e+00 1.0194468949e-02 1.7260277821e+00 -2.9895678138e+00 1.7260277821e+00 2.9895678138e+00 
17900 4.5315535156e+00 1.0054293533e-02 1.7257324746e+00 -2.9890563263e+00 1.7257324746e+00 2.9890563263e+00 
18000 4.5315509665e+00 9.9162951113e-03 1.7254411777e+00 -2.9885517852e+00 1.7254411777e+00 2.9885517852e+00 
18100 4.5315485018e+00 9.7804327575e-03 1.7251538303e+00 -2.9880540850e+00 1.7251538303e+00 2.9880540850e+00 
18200 4.5315461188e+00 9.6466662030e-03 1.7248703725e+00 -2.9875631217e+00 1.7248703725e+00 2.9875631217e+00 
18300 4.5315438151e+00 9.5149558445e-03 1.7245907456e+00 -2.9870787936e+00 1.7245907456e+00 2.9870787936e+00 
18400 4.5315415881e+00 9.3852627497e-03 1.7243148917e+00 -2.9866010006e+00 1.7243148917e+00 2.9866010006e+00 
18500 4.5315394353e+00 9.2575486614e-03 1.7240427541e+00 -2.9861296446e+00 1.7240427541e+00 2.9861296446e+00 
18600 4.5315373546e+00 9.1317760004e-03 1.7237742774e+00 -2.9856646292e+00 1.7237742774e+00 2.9856646292e+00 
18700 4.5315353436e+00 9.0079078675e-03 1.7235094068e+00 -2.9852058599e+00 1.7235094068e+00 2.9852058599e+00 
18800 4.5315334001e+00 8.8859080447e-03 1.7232480888e+00 -2.9847532438e+00 1.7232480888e+00 2.9847532438e+00 
18900 4.5315315222e+00 8.7657409946e-03 1.7229902708e+00 -2.9843066900e+00 1.7229902708e+00 2.9843066900e+00 
19000 4.5315297076e+00 8.6473718600e-03 1.7227359013e+00 -2.9838661090e+00 1.7227359013e+00 2.9838661090e+00 
19100 4.5315279545e+00 8.5307664620e-03 1.7224849295e+00 -2.9834314132e+00 1.7224849295e+00 2.9834314132e+00 
19200 4.5315262609e+00 8.4158912969e-03 1.7222373058e+00 -2.9830025163e+00 1.7222373058e+00 2.9830025163e+00 
19300 4.5315246250e+00 8.3027135334e-03 1.7219929814e+00 -2.9825793340e+00 1.7219929814e+00 2.9825793340e+00 
19400 4.5315230450e+00 8.1912010080e-03 1.7217519084e+00 -2.9821617834e+00 1.7217519084e+00 2.9821617834e+00 
19500 4.5315215191e+00 8.0813222207e-03 1.7215140399e+00 -2.9817497830e+00 1.7215140399e+00 2.9817497830e+00 
19600 4.5315200457e+00 7.9730463293e-03 1.7212793296e+00 -2.9813432530e+00 1.7212793296e+00 2.9813432530e+00 
19700 4.5315186230e+00 7.8663431434e-03 1.7210477325e+00 -2.9809421149e+00 1.7210477325e+00 2.9809421149e+00 
19800 4.5315172496e+00 7.7611831185e-03 1.7208192040e+00 -2.9805462920e+00 1.7208192040e+00 2.9805462920e+00 
19900 4.5315159238e+00 7.6575373484e-03 1.7205937005e+00 -2.9801557085e+00 1.7205937005e+00 2.9801557085e+00 
20000 4.5315146442e+00 7.5553775583e-03 1.7203711793e+00 -2.9797702905e+00 1.7203711793e+00 2.9797702905e+00 
20100 4.5315134093e+00 7.4546760964e-03 1.7201515983e+00 -2.9793899650e+00 1.7201515983e+00 2.9793899650e+00 
20200 4.5315122176e+00 7.3554059266e-03 1.7199349163e+00 -2.9790146607e+00 1.7199349163e+00 2.9790146607e+00 
20300 4.5315110679e+00 7.2575406193e-03 1.7197210927e+00 -2.9786443073e+00 1.7197210927e+00 2.9786443073e+00 
20400 4.5315099588e+00 7.1610543427e-03 1.7195100877e+00 -2.9782788361e+00 1.7195100877e+00 2.9782788361e+00 
20500 4.5315088889e+00 7.0659218540e-03 1.7193018624e+00 -2.9779181793e+00 1.7193018624e+00 2.9779181793e+00 
20600 4.5315078571e+00 6.9721184897e-03 1.7190963784e+00 -2.9775622705e+00 1.7190963784e+00 2.9775622705e+00 
20700 4.5315068621e+00 6.8796201566e-03 1.7188935980e+00 -2.9772110446e+00 1.7188935980e+00 2.9772110446e+00 
20800 4.5315059027e+00 6.7884033212e-03 1.7186934842e+00 -2.9768644373e+00 1.7186934842e+00 2.9768644373e+00 
20900 4.5315049778e+00 6.6984450007e-03 1.7184960007e+00 -2.9765223858e+00 1.7184960007e+00 2.9765223858e+00 
21000 4.5315040863e+00 6.6097227523e-03 1.7183011117e+00 -2.9761848282e+00 1.7183011117e+00 2.9761848282e+00 
21100 4.5315032271e+00 6.5222146634e-03 1.7181087822e+00 -2.9758517037e+00 1.7181087822e+00 2.9758517037e+00 
21200 4.5315023991e+00 6.4358993414e-03 1.7179189778e+00 -2.9755229528e+00 1.7179189778e+00 2.9755229528e+00 
21300 4.5315016013e+00 6.3507559029e-03 1.7177316644e+00 -2.9751985166e+00 1.7177316644e+00 2.9751985166e+00 
21400 4.5315008328e+00 6.2667639639e-03 1.7175468090e+00 -2.9748783375e+00 1.7175468090e+00 2.9748783375e+00 
21500 4.5315000925e+00 6.1839036288e-03 1.7173643786e+00 -2.9745623589e+00 1.7173643786e+00 2.9745623589e+00 
21600 4.5314993796e+00 6.1021554806e-03 1.7171843412e+00 -2.9742505250e+00 1.7171843412e+00 2.9742505250e+00 
21700 4.5314986931e+00 6.0215005700e-03 1.7170066652e+00 -2.9739427811e+00 1.7170066652e+00 2.9739427811e+00 
21800 4.5314980322e+00 5.9419204051e-03 1.7168313194e+00 -2.9736390732e+00 1.7168313194e+00 2.9736390732e+00 
21900 4.5314973961e+00 5.8633969409e-03 1.7166582733e+00 -2.9733393485e+00 1.7166582733e+00 2.9733393485e+00 
22000 4.5314967838e+00 5.7859125692e-03 1.7164874967e+00 -2.9730435548e+00 1.7164874967e+00 2.9730435548e+00 
22100 4.5314961946e+00 5.7094501080e-03 1.7163189601e+00 -2.9727516410e+00 1.7163189601e+00 2.9727516410e+00 
22200 4.5314956278e+00 5.6339927916e-03 1.7161526345e+00 -2.9724635565e+00 1.7161526345e+00 2.9724635565e+00 
22300 4.5314950825e+00 5.5595242600e-03 1.7159884911e+00 -2.9721792517e+00 1.7159884911e+00 2.9721792517e+00 
22400 4.5314945582e+00 5.4860285492e-03 1.7158265017e+00 -2.9718986780e+00 1.7158265017e+00 2.9718986780e+00 
22500 4.5314940539e+00 5.4134900810e-03 1.7156666387e+00 -2.9716217871e+00 1.7156666387e+00 2.9716217871e+00 
22600 4.5314935692e+00 5.3418936533e-03 1.7155088748e+00 -2.9713485320e+00 1.7155088748e+00 2.9713485320e+00 
22700 4.5314931032e+00 5.2712244302e-03 1.7153531830e+00 -2.9710788659e+00 1.7153531830e+00 2.9710788659e+00 
22800 4.5314926555e+00 5.2014679323e-03 1.7151995369e+00 -2.9708127431e+00 1.7151995369e+00 2.9708127431e+00 
22900 4.5314922253e+00 5.1326100276e-03 1.7150479105e+00 -2.9705501184e+00 1.7150479105e+00 2.9705501184e+00 
23000 4.5314918121e+00 5.0646369214e-03 1.7148982781e+00 -2.9702909474e+00 1.7148982781e+00 2.9702909474e+00 
23100 4.5314914152e+00 4.9975351480e-03 1.7147506144e+00 -2.9700351864e+00 1.7147506144e+00 2.9700351864e+00 
23200 4.5314910342e+00 4.9312915606e-03 1.7146048945e+00 -2.9697827922e+00 1.7146048945e+00 2.9697827922e+00 
23300 4.5314906684e+00 4.8658933233e-03 1.7144610940e+00 -2.9695337224e+00 1.7144610940e+00 2.9695337224e+00 
23400 4.5314903174e+00 4.8013279015e-03 1.7143191886e+00 -2.9692879350e+00 1.7143191886e+00 2.9692879350e+00 
23500 4.5314899807e+00 4.7375830539e-03 1.7141791545e+00 -2.9690453888e+00 1.7141791545e+00 2.9690453888e+00 
23600 4.5314896576e+00 4.6746468237e-03 1.7140409682e+00 -2.9688060432e+00 1.7140409682e+00 2.9688060432e+00 
23700 4.5314893479e+00 4.6125075304e-03 1.7139046067e+00 -2.9685698581e+00 1.7139046067e+00 2.9685698581e+00 
23800 4.5314890510e+00 4.5511537617e-03 1.7137700471e+00 -2.9683367940e+00 1.7137700471e+00 2.9683367940e+00 
23900 4.5314887664e+00 4.4905743654e-03 1.7136372669e+00 -2.9681068120e+00 1.7136372669e+00 2.9681068120e+00 
24000 4.5314884938e+00 4.4307584417e-03 1.7135062439e+00 -2.9678798735e+00 1.7135062439e+00 2.9678798735e+00 
24100 4.5314882327e+00 4.3716953355e-03 1.7133769563e+00 -2.9676559408e+00 1.7133769563e+00 2.9676559408e+00 
24200 4.5314879827e+00 4.3133746291e-03 1.7132493825e+00 -2.9674349764e+00 1.7132493825e+00 2.9674349764e+00 
24300 4.5314877434e+00 4.2557861347e-03 1.7131235011e+00 -2.9672169436e+00 1.7131235011e+00 2.9672169436e+00 
24400 4.5314875144e+00 4.1989198876e-03 1.7129992913e+00 -2.9670018059e+00 1.7129992913e+00 2.9670018059e+00 
24500 4.5314872955e+00 4.1427661387e-03 1.7128767323e+00 -2.9667895275e+00 1.7128767323e+00 2.9667895275e+00 
24600 4.5314870862e+00 4.0873153485e-03 1.7127558037e+00 -2.9665800729e+00 1.7127558037e+00 2.9665800729e+00 
24700 4.5314868861e+00 4.0325581798e-03 1.7126364852e+00 -2.9663734073e+00 1.7126364852e+00 2.9663734073e+00 
24800 4.5314866950e+00 3.9784854918e-03 1.7125187570e+00 -2.9661694961e+00 1.7125187570e+00 2.9661694961e+00 
24900 4.5314865126e+00 3.9250883333e-03 1.7124025994e+00 -2.9659683052e+00 1.7124025994e+00 2.9659683052e+00 
25000 4.5314863384e+00 3.8723579373e-03 1.7122879931e+00 -2.9657698012e+00 1.7122879931e+00 2.9657698012e+00 
25100 4.5314861723e+00 3.8202857145e-03 1.7121749188e+00 -2.9655739508e+00 1.7121749188e+00 2.9655739508e+00 
25200 4.5314860140e+00 3.7688632478e-03 1.7120633576e+00 -2.9653807212e+00 1.7120633576e+00 2.9653807212e+00 
25300 4.5314858631e+00 3.7180822868e-03 1.7119532909e+00 -2.9651900801e+00 1.7119532909e+00 2.9651900801e+00 
25400 4.5314857194e+00 3.6679347420e-03 1.7118447003e+00 -2.9650019955e+00 1.7118447003e+00 2.9650019955e+00 
25500 4.5314855826e+00 3.6184126800e-03 1.7117375674e+00 -2.9648164360e+00 1.7117375674e+00 2.9648164360e+00 
25600 4.5314854525e+00 3.5695083182e-03 1.7116318744e+00 -2.9646333702e+00 1.7116318744e+00 2.9646333702e+00 
25700 4.5314853289e+00 3.5212140197e-03 1.7115276033e+00 -2.9644527675e+00 1.7115276033e+00 2.9644527675e+00 
25800 4.5314852115e+00 3.4735222888e-03 1.7114247368e+00 -2.9642745974e+00 1.7114247368e+00 2.9642745974e+00 
25900 4.5314851000e+00 3.4264257659e-03 1.7113232574e+00 -2.9640988299e+00 1.7113232574e+00 2.9640988299e+00 
26000 4.5314849943e+00 3.3799172237e-03 1.7112231479e+00 -2.9639254353e+00 1.7112231479e+00 2.9639254353e+00 
26100 4.5314848941e+00 3.3339895622e-03 1.7111243915e+00 -2.9637543842e+00 1.7111243915e+00 2.9637543842e+00 
26200 4.5314847993e+00 3.2886358048e-03 1.7110269714e+00 -2.9635856476e+00 1.7110269714e+00 2.9635856476e+00 
26300 4.5314847097e+00 3.2438490943e-03 1.7109308711e+00 -2.9634191970e+00 1.7109308711e+00 2.9634191970e+00 
26400 4.5314846250e+00 3.1996226885e-03 1.7108360742e+00 -2.9632550039e+00 1.7108360742e+00 2.9632550039e+00 
26500 4.5314845450e+00 3.1559499573e-03 1.7107425645e+00 -2.9630930405e+00 1.7107425645e+00 2.9630930405e+00 
26600 4.5314844697e+00 3.1128243782e-03 1.7106503262e+00 -2.9629332789e+00 1.7106503262e+00 2.9629332789e+00 
26700 4.5314843987e+00 3.0702395330e-03 1.7105593433e+00 -2.9627756920e+00 1.7105593433e+00 2.9627756920e+00 
26800 4.5314843320e+00 3.0281891047e-03 1.7104696004e+00 -2.9626202527e+00 1.7104696004e+00 2.9626202527e+00 
26900 4.5314842694e+00 2.9866668740e-03 1.7103810819e+00 -2.9624669342e+00 1.7103810819e+00 2.9624669342e+00 
27000 4.5314842108e+00 2.9456667160e-03 1.7102937727e+00 -2.9623157102e+00 1.7102937727e+00 2.9623157102e+00 
27100 4.5314841559e+00 2.9051825974e-03 1.7102076576e+00 -2.9621665545e+00 1.7102076576e+00 2.9621665545e+00 
27200 4.5314841047e+00 2.8652085735e-03 1.7101227218e+00 -2.9620194413e+00 1.7101227218e+00 2.9620194413e+00 
27300 4.5314840569e+00 2.8257387854e-03 1.7100389504e+00 -2.9618743451e+00 1.7100389504e+00 2.9618743451e+00 
27400 4.5314840126e+00 2.7867674573e-03 1.7099563290e+00 -2.9617312406e+00 1.7099563290e+00 2.9617312406e+00 
27500 4.5314839714e+00 2.7482888937e-03 1.7098748432e+00 -2.9615901029e+00 1.7098748432e+00 2.9615901029e+00 
27600 4.5314839334e+00 2.7102974774e-03 1.7097944786e+00 -2.9614509074e+00 1.7097944786e+00 2.9614509074e+00 
27700 4.5314838984e+00 2.6727876666e-03 1.7097152212e+00 -2.9613136296e+00 1.7097152212e+00 2.9613136296e+00 
27800 4.5314838662e+00 2.6357539929e-03 1.7096370571e+00 -2.9611782454e+00 1.7096370571e+00 2.9611782454e+00 
27900 4.5314838368e+00 2.5991910588e-03 1.7095599725e+00 -2.9610447309e+00 1.7095599725e+00 2.9610447309e+00 
28000 4.5314838100e+00 2.5630935361e-03 1.7094839538e+00 -2.9609130626e+00 1.7094839538e+00 2.9609130626e+00 
28100 4.5314837858e+00 2.5274561635e-03 1.7094089874e+00 -2.9607832171e+00 1.7094089874e+00 2.9607832171e+00 
28200 4.5314837640e+00 2.4922737446e-03 1.7093350602e+00 -2.9606551714e+00 1.7093350602e+00 2.9606551714e+00 
28300 4.5314837445e+00 2.4575411463e-03 1.7092621588e+00 -2.9605289026e+00 1.7092621588e+00 2.9605289026e+00 
28400 4.5314837273e+00 2.4232532969e-03 1.7091902704e+00 -2.9604043881e+00 1.7091902704e+00 2.9604043881e+00 
28500 4.5314837122e+00 2.3894051846e-03 1.7091193820e+00 -2.9602816058e+00 1.7091193820e+00 2.9602816058e+00 
28600 4.5314836992e+00 2.3559918556e-03 1.7090494808e+00 -2.9601605334e+00 1.7090494808e+00 2.9601605334e+00 
28700 4.5314836881e+00 2.3230084126e-03 1.7089805543e+00 -2.9600411492e+00 1.7089805543e+00 2.9600411492e+00 
28800 4.5314836790e+00 2.2904500136e-03 1.7089125900e+00 -2.9599234316e+00 1.7089125900e+00 2.9599234316e+00 
28900 4.5314836716e+00 2.2583118701e-03 1.7088455756e+00 -2.9598073592e+00 1.7088455756e+00 2.9598073592e+00 
29000 4.5314836660e+00 2.2265892462e-03 1.7087794989e+00 -2.9596929110e+00 1.7087794989e+00 2.9596929110e+00 
29100 4.5314836621e+00 2.1952774570e-03 1.7087143479e+00 -2.9595800661e+00 1.7087143479e+00 2.9595800661e+00 
29200 4.5314836597e+00 2.1643718675e-03 1.7086501106e+00 -2.9594688039e+00 1.7086501106e+00 2.9594688039e+00 
29300 4.5314836588e+00 2.1338678913e-03 1.7085867752e+00 -2.9593591039e+00 1.7085867752e+00 2.9593591039e+00 
29400 4.5314836594e+00 2.1037609898e-03 1.7085243302e+00 -2.9592509459e+00 1.7085243302e+00 2.9592509459e+00 
29500 4.5314836614e+00 2.0740466709e-03 1.7084627640e+00 -2.9591443101e+00 1.7084627640e+00 2.9591443101e+00 
29600 4.5314836646e+00 2.0447204881e-03 1.7084020651e+00 -2.9590391766e+00 1.7084020651e+00 2.9590391766e+00 
29700 4.5314836692e+00 2.0157780395e-03 1.7083422224e+00 -2.9589355259e+00 1.7083422224e+00 2.9589355259e+00 
29800 4.5314836749e+00 1.9872149671e-03 1.7082832247e+00 -2.9588333389e+00 1.7082832247e+00 2.9588333389e+00 
29900 4.5314836818e+00 1.9590269556e-03 1.7082250609e+00 -2.9587325963e+00 1.7082250609e+00 2.9587325963e+00 
30000 4.5314836898e+00 1.9312097319e-03 1.7081677202e+00 -2.9586332793e+00 1.7081677202e+00 2.9586332793e+00 
30100 4.5314836988e+00 1.9037590642e-03 1.7081111918e+00 -2.9585353693e+00 1.7081111918e+00 2.9585353693e+00 
30200 4.5314837088e+00 1.8766707612e-03 1.7080554651e+00 -2.9584388477e+00 1.7080554651e+00 2.9584388477e+00 
30300 4.5314837197e+00 1.8499406716e-03 1.7080005295e+00 -2.9583436965e+00 1.7080005295e+00 2.9583436965e+00 
30400 4.5314837315e+00 1.8235646835e-03 1.7079463747e+00 -2.9582498975e+00 1.7079463747e+00 2.9582498975e+00 
30500 4.5314837442e+00 1.7975387232e-03 1.7078929902e+00 -2.9581574330e+00 1.7078929902e+00 2.9581574330e+00 
30600 4.5314837576e+00 1.7718587555e-03 1.7078403660e+00 -2.9580662852e+00 1.7078403660e+00 2.9580662852e+00 
30700 4.5314837719e+00 1.7465207826e-03 1.7077884921e+00 -2.9579764368e+00 1.7077884921e+00 2.9579764368e+00 
30800 4.5314837868e+00 1.7215208434e-03 1.7077373583e+00 -2.9578878706e+00 1.7077373583e+00 2.9578878706e+00 
30900 4.5314838024e+00 1.6968550135e-03 1.7076869550e+00 -2.9578005695e+00 1.7076869550e+00 2.9578005695e+00 
31000 4.5314838187e+00 1.6725194047e-03 1.7076372724e+00 -2.9577145167e+00 1.7076372724e+00 2.9577145167e+00 
31100 4.5314838355e+00 1.6485101639e-03 1.7075883009e+00 -2.9576296956e+00 1.7075883009e+00 2.9576296956e+00 
31200 4.5314838529e+00 1.6248234736e-03 1.7075400310e+00 -2.9575460896e+00 1.7075400310e+00 2.9575460896e+00 
31300 4.5314838709e+00 1.6014555508e-03 1.7074924533e+00 -2.9574636827e+00 1.7074924533e+00 2.9574636827e+00 
31400 4.5314838894e+00 1.5784026470e-03 1.7074455586e+00 -2.9573824586e+00 1.7074455586e+00 2.9573824586e+00 
31500 4.5314839083e+00 1.5556610476e-03 1.7073993376e+00 -2.9573024016e+00 1.7073993376e+00 2.9573024016e+00 
31600 4.5314839277e+00 1.5332270719e-03 1.7073537814e+00 -2.9572234958e+00 1.7073537814e+00 2.9572234958e+00 
31700 4.5314839475e+00 1.5110970725e-03 1.7073088809e+00 -2.9571457259e+00 1.7073088809e+00 2.9571457259e+00 
31800 4.5314839676e+00 1.4892674349e-03 1.7072646273e+00 -2.9570690765e+00 1.7072646273e+00 2.9570690765e+00 
31900 4.5314839882e+00 1.4677345777e-03 1.7072210119e+00 -2.9569935323e+00 1.7072210119e+00 2.9569935323e+00 
32000 4.5314840090e+00 1.4464949518e-03 1.7071780260e+00 -2.9569190786e+00 1.7071780260e+00 2.9569190786e+00 
32100 4.5314840302e+00 1.4255450405e-03 1.7071356611e+00 -2.9568457004e+00 1.7071356611e+00 2.9568457004e+00 
32200 4.5314840516e+00 1.4048813591e-03 1.7070939087e+00 -2.9567733832e+00 1.7070939087e+00 2.9567733832e+00 
32300 4.5314840733e+00 1.3845004548e-03 1.7070527605e+00 -2.9567021125e+00 1.7070527605e+00 2.9567021125e+00 
32400 4.5314840953e+00 1.3643989061e-03 1.7070122083e+00 -2.9566318740e+00 1.7070122083e+00 2.9566318740e+00 
32500 4.5314841174e+00 1.3445733233e-03 1.7069722440e+00 -2.9565626537e+00 1.7069722440e+00 2.9565626537e+00 
32600 4.5314841398e+00 1.3250203475e-03 1.7069328594e+00 -2.9564944375e+00 1.7069328594e+00 2.9564944375e+00 
32700 4.5314841623e+00 1.3057366511e-03 1.7068940466e+00 -2.9564272119e+00 1.7068940466e+00 2.9564272119e+00 
32800 4.5314841850e+00 1.2867189371e-03 1.7068557978e+00 -2.9563609631e+00 1.7068557978e+00 2.9563609631e+00 
32900 4.5314842078e+00 1.2679639392e-03 1.7068181053e+00 -2.9562956777e+00 1.7068181053e+00 2.9562956777e+00 
33000 4.5314842308e+00 1.2494684216e-03 1.7067809614e+00 -2.9562313425e+00 1.7067809614e+00 2.9562313425e+00 
33100 4.5314842538e+00 1.2312291789e-03 1.7067443584e+00 -2.9561679443e+00 1.7067443584e+00 2.9561679443e+00 
33200 4.5314842770e+00 1.2132430357e-03 1.7067082890e+00 -2.9561054703e+00 1.7067082890e+00 2.9561054703e+00 
33300 4.5314843002e+00 1.1955068467e-03 1.7066727458e+00 -2.9560439076e+00 1.7066727458e+00 2.9560439076e+00 
33400 4.5314843235e+00 1.1780174965e-03 1.7066377214e+00 -2.9559832436e+00 1.7066377214e+00 2.9559832436e+00 
33500 4.5314843468e+00 1.1607718993e-03 1.7066032087e+00 -2.9559234659e+00 1.7066032087e+00 2.9559234659e+00 
33600 4.5314843702e+00 1.1437669990e-03 1.7065692006e+00 -2.9558645620e+00 1.7065692006e+00 2.9558645620e+00 
33700 4.5314843936e+00 1.1269997689e-03 1.7065356900e+00 -2.9558065200e+00 1.7065356900e+00 2.9558065200e+00 
33800 4.5314844169e+00 1.1104672117e-03 1.7065026700e+00 -2.9557493277e+00 1.7065026700e+00 2.9557493277e+00 
33900 4.5314844403e+00 1.0941663592e-03 1.7064701337e+00 -2.9556929732e+00 1.7064701337e+00 2.9556929732e+00 
34000 4.5314844637e+00 1.0780942724e-03 1.7064380745e+00 -2.9556374450e+00 1.7064380745e+00 2.9556374450e+00 
34100 4.5314844870e+00 1.0622480410e-03 1.7064064856e+00 -2.9555827314e+00 1.7064064856e+00 2.9555827314e+00 
34200 4.5314845103e+00 1.0466247837e-03 1.7063753604e+00 -2.9555288209e+00 1.7063753604e+00 2.9555288209e+00 
34300 4.5314845336e+00 1.0312216479e-03 1.7063446924e+00 -2.9554757024e+00 1.7063446924e+00 2.9554757024e+00 
34400 4.5314845568e+00 1.0160358095e-03 1.7063144752e+00 -2.9554233647e+00 1.7063144752e+00 2.9554233647e+00 
34500 4.5314845799e+00 1.0010644730e-03 1.7062847025e+00 -2.9553717969e+00 1.7062847025e+00 2.9553717969e+00 
34600 4.5314846030e+00 9.8630487088e-04 1.7062553679e+00 -2.9553209879e+00 1.7062553679e+00 2.9553209879e+00 
34700 4.5314846260e+00 9.7175426418e-04 1.7062264654e+00 -2.9552709273e+00 1.7062264654e+00 2.9552709273e+00 
34800 4.5314846489e+00 9.5740994186e-04 1.7061979888e+00 -2.9552216043e+00 1.7061979888e+00 2.9552216043e+00 
34900 4.5314846717e+00 9.4326922084e-04 1.7061699320e+00 -2.9551730086e+00 1.7061699320e+00 2.9551730086e+00 
35000 4.5314846944e+00 9.2932944589e-04 1.7061422892e+00 -2.9551251299e+00 1.7061422892e+00 2.9551251299e+00 
35100 4.5314847170e+00 9.1558798949e-04 1.7061150545e+00 -2.9550779579e+00 1.7061150545e+00 2.9550779579e+00 
35200 4.5314847395e+00 9.0204225169e-04 1.7060882220e+00 -2.9550314827e+00 1.7060882220e+00 2.9550314827e+00 
35300 4.5314847619e+00 8.8868965997e-04 1.7060617861e+00 -2.9549856944e+00 1.7060617861e+00 2.9549856944e+00 
35400 4.5314847841e+00 8.7552766917e-04 1.7060357411e+00 -2.9549405831e+00 1.7060357411e+00 2.9549405831e+00 
35500 4.5314848063e+00 8.6255376130e-04 1.7060100814e+00 -2.9548961393e+00 1.7060100814e+00 2.9548961393e+00 
35600 4.5314848282e+00 8.4976544543e-04 1.7059848017e+00 -2.9548523534e+00 1.7059848017e+00 2.9548523534e+00 
35700 4.5314848501e+00 8.3716025756e-04 1.7059598963e+00 -2.9548092161e+00 1.7059598963e+00 2.9548092161e+00 
35800 4.5314848718e+00 8.2473576047e-04 1.7059353600e+00 -2.9547667180e+00 1.7059353600e+00 2.9547667180e+00 
35900 4.5314848933e+00 8.1248954360e-04 1.7059111875e+00 -2.9547248500e+00 1.7059111875e+00 2.9547248500e+00 
36000 4.5314849147e+00 8.0041922289e-04 1.7058873736e+00 -2.9546836031e+00 1.7058873736e+00 2.9546836031e+00 
36100 4.5314849360e+00 7.8852244068e-04 1.7058639132e+00 -2.9546429685e+00 1.7058639132e+00 2.9546429685e+00 
36200 4.5314849571e+00 7.7679686552e-04 1.7058408011e+00 -2.9546029372e+00 1.7058408011e+00 2.9546029372e+00 
36300 4.5314849780e+00 7.6524019202e-04 1.7058180324e+00 -2.9545635007e+00 1.7058180324e+00 2.9545635007e+00 
36400 4.5314849987e+00 7.5385014077e-04 1.7057956022e+00 -2.9545246503e+00 1.7057956022e+00 2.9545246503e+00 
36500 4.5314850193e+00 7.4262445811e-04 1.7057735055e+00 -2.9544863778e+00 1.7057735055e+00 2.9544863778e+00 
36600 4.5314850398e+00 7.3156091603e-04 1.7057517376e+00 -2.9544486746e+00 1.7057517376e+00 2.9544486746e+00 
36700 4.5314850600e+00 7.2065731201e-04 1.7057302937e+00 -2.9544115327e+00 1.7057302937e+00 2.9544115327e+00 
36800 4.5314850801e+00 7.0991146885e-04 1.7057091691e+00 -2.9543749439e+00 1.7057091691e+00 2.9543749439e+00 
36900 4.5314851000e+00 6.9932123450e-04 1.7056883593e+00 -2.9543389002e+00 1.7056883593e+00 2.9543389002e+00 
37000 4.5314851197e+00 6.8888448194e-04 1.7056678597e+00 -2.9543033938e+00 1.7056678597e+00 2.9543033938e+00 
37100 4.5314851393e+00 6.7859910900e-04 1.7056476657e+00 -2.9542684169e+00 1.7056476657e+00 2.9542684169e+00 
37200 4.5314851587e+00 6.6846303818e-04 1.7056277731e+00 -2.9542339618e+00 1.7056277731e+00 2.9542339618e+00 
37300 4.5314851778e+00 6.5847421652e-04 1.7056081773e+00 -2.9542000209e+00 1.7056081773e+00 2.9542000209e+00 
37400 4.5314851969e+00 6.4863061537e-04 1.7055888741e+00 -2.9541665868e+00 1.7055888741e+00 2.9541665868e+00 
37500 4.5314852157e+00 6.3893023032e-04 1.7055698593e+00 -2.9541336522e+00 1.7055698593e+00 2.9541336522e+00 
37600 4.5314852343e+00 6.2937108093e-04 1.7055511286e+00 -2.9541012097e+00 1.7055511286e+00 2.9541012097e+00 
37700 4.5314852528e+00 6.1995121061e-04 1.7055326780e+00 -2.9540692523e+00 1.7055326780e+00 2.9540692523e+00 
37800 4.5314852710e+00 6.1066868644e-04 1.7055145033e+00 -2.9540377728e+00 1.7055145033e+00 2.9540377728e+00 
37900 4.5314852891e+00 6.0152159899e-04 1.7054966006e+00 -2.9540067644e+00 1.7054966006e+00 2.9540067644e+00 
38000 4.5314853070e+00 5.9250806213e-04 1.7054789658e+00 -2.9539762201e+00 1.7054789658e+00 2.9539762201e+00 
38100 4.5314853247e+00 5.8362621288e-04 1.7054615951e+00 -2.9539461331e+00 1.7054615951e+00 2.9539461331e+00 
38200 4.5314853423e+00 5.7487421119e-04 1.7054444847e+00 -2.9539164969e+00 1.7054444847e+00 2.9539164969e+00 
38300 4.5314853596e+00 5.6625023981e-04 1.7054276306e+00 -2.9538873048e+00 1.7054276306e+00 2.9538873048e+00 
38400 4.5314853767e+00 5.5775250404e-04 1.7054110292e+00 -2.9538585504e+00 1.7054110292e+00 2.9538585504e+00 
38500 4.5314853937e+00 5.4937923160e-04 1.7053946768e+00 -2.9538302272e+00 1.7053946768e+00 2.9538302272e+00 
38600 4.5314854105e+00 5.4112867243e-04 1.7053785697e+00 -2.9538023289e+00 1.7053785697e+00 2.9538023289e+00 
38700 4.5314854271e+00 5.3299909850e-04 1.7053627044e+00 -2.9537748494e+00 1.7053627044e+00 2.9537748494e+00 
38800 4.5314854435e+00 5.2498880361e-04 1.7053470773e+00 -2.9537477824e+00 1.7053470773e+00 2.9537477824e+00 
38900 4.5314854597e+00 5.1709610322e-04 1.7053316849e+00 -2.9537211219e+00 1.7053316849e+00 2.9537211219e+00 
39000 4.5314854757e+00 5.0931933424e-04 1.7053165237e+00 -2.9536948621e+00 1.7053165237e+00 2.9536948621e+00 
39100 4.5314854916e+00 5.0165685487e-04 1.7053015905e+00 -2.9536689969e+00 1.7053015905e+00 2.9536689969e+00 
39200 4.5314855073e+00 4.9410704436e-04 1.7052868817e+00 -2.9536435207e+00 1.7052868817e+00 2.9536435207e+00 
39300 4.5314855228e+00 4.8666830289e-04 1.7052723943e+00 -2.9536184276e+00 1.7052723943e+00 2.9536184276e+00 
39400 4.5314855381e+00 4.7933905129e-04 1.7052581248e+00 -2.9535937121e+00 1.7052581248e+00 2.9535937121e+00 
39500 4.5314855532e+00 4.7211773092e-04 1.7052440701e+00 -2.9535693686e+00 1.7052440701e+00 2.9535693686e+00 
39600 4.5314855681e+00 4.6500280343e-04 1.7052302270e+00 -2.9535453917e+00 1.7052302270e+00 2.9535453917e+00 
39700 4.5314855829e+00 4.5799275058e-04 1.7052165924e+00 -2.9535217759e+00 1.7052165924e+00 2.9535217759e+00 
39800 4.5314855975e+00 4.5108607406e-04 1.7052031632e+00 -2.9534985159e+00 1.7052031632e+00 2.9534985159e+00 
39900 4.5314856119e+00 4.4428129527e-04 1.7051899365e+00 -2.9534756065e+00 1.7051899365e+00 2.9534756065e+00 
40000 4.5314856262e+00 4.3757695514e-04 1.7051769092e+00 -2.9534530426e+00 1.7051769092e+00 2.9534530426e+00 
40100 4.5314856402e+00 4.3097161393e-04 1.7051640784e+00 -2.9534308189e+00 1.7051640784e+00 2.9534308189e+00 
40200 4.5314856541e+00 4.2446385103e-04 1.7051514411e+00 -2.9534089306e+00 1.7051514411e+00 2.9534089306e+00 
40300 4.5314856678e+00 4.1805226476e-04 1.7051389946e+00 -2.9533873727e+00 1.7051389946e+00 2.9533873727e+00 
40400 4.5314856814e+00 4.1173547221e-04 1.7051267360e+00 -2.9533661402e+00 1.7051267360e+00 2.9533661402e+00 
40500 4.5314856947e+00 4.0551210900e-04 1.7051146626e+00 -2.9533452283e+00 1.7051146626e+00 2.9533452283e+00 
40600 4.5314857080e+00 3.9938082908e-04 1.7051027716e+00 -2.9533246325e+00 1.7051027716e+00 2.9533246325e+00 
40700 4.5314857210e+00 3.9334030460e-04 1.7050910602e+00 -2.9533043478e+00 1.7050910602e+00 2.9533043478e+00 
40800 4.5314857339e+00 3.8738922563e-04 1.7050795260e+00 -2.9532843699e+00 1.7050795260e+00 2.9532843699e+00 
40900 4.5314857466e+00 3.8152630004e-04 1.7050681661e+00 -2.9532646941e+00 1.7050681661e+00 2.9532646941e+00 
41000 4.5314857591e+00 3.7575025324e-04 1.7050569781e+00 -2.9532453159e+00 1.7050569781e+00 2.9532453159e+00 
41100 4.5314857715e+00 3.7005982803e-04 1.7050459594e+00 -2.9532262310e+00 1.7050459594e+00 2.9532262310e+00 
41200 4.5314857837e+00 3.6445378442e-04 1.7050351075e+00 -2.9532074349e+00 1.7050351075e+00 2.9532074349e+00 
41300 4.5314857958e+00 3.5893089937e-04 1.7050244200e+00 -2.9531889235e+00 1.7050244200e+00 2.9531889235e+00 
41400 4.5314858077e+00 3.5348996667e-04 1.7050138943e+00 -2.9531706925e+00 1.7050138943e+00 2.9531706925e+00 
41500 4.5314858194e+00 3.4812979669e-04 1.7050035281e+00 -2.9531527378e+00 1.7050035281e+00 2.9531527378e+00 
41600 4.5314858310e+00 3.4284921626e-04 1.7049933191e+00 -2.9531350552e+00 1.7049933191e+00 2.9531350552e+00 
41700 4.5314858425e+00 3.3764706838e-04 1.7049832648e+00 -2.9531176407e+00 1.7049832648e+00 2.9531176407e+00 
41800 4.5314858538e+00 3.3252221215e-04 1.7049733630e+00 -2.9531004903e+00 1.7049733630e+00 2.9531004903e+00 
41900 4.5314858649e+00 3.2747352247e-04 1.7049636115e+00 -2.9530836002e+00 1.7049636115e+00 2.9530836002e+00 
42000 4.5314858759e+00 3.2249988992e-04 1.7049540080e+00 -2.9530669664e+00 1.7049540080e+00 2.9530669664e+00 
42100 4.5314858867e+00 3.1760022056e-04 1.7049445503e+00 -2.9530505852e+00 1.7049445503e+00 2.9530505852e+00 
42200 4.5314858974e+00 3.1277343574e-04 1.7049352362e+00 -2.9530344527e+00 1.7049352362e+00 2.9530344527e+00 
42300 4.5314859080e+00 3.0801847190e-04 1.7049260636e+00 -2.9530185653e+00 1.7049260636e+00 2.9530185653e+00 
42400 4.5314859184e+00 3.0333428042e-04 1.7049170304e+00 -2.9530029194e+00 1.7049170304e+00 2.9530029194e+00 
42500 4.5314859286e+00 2.9871982742e-04 1.7049081346e+00 -2.9529875113e+00 1.7049081346e+00 2.9529875113e+00 
42600 4.5314859387e+00 2.9417409356e-04 1.7048993740e+00 -2.9529723375e+00 1.7048993740e+00 2.9529723375e+00 
42700 4.5314859487e+00 2.8969607388e-04 1.7048907467e+00 -2.9529573946e+00 1.7048907467e+00 2.9529573946e+00 
42800 4.5314859586e+00 2.8528477764e-04 1.7048822507e+00 -2.9529426791e+00 1.7048822507e+00 2.9529426791e+00 
42900 4.5314859683e+00 2.8093922809e-04 1.7048738840e+00 -2.9529281875e+00 1.7048738840e+00 2.9529281875e+00 
43000 4.5314859779e+00 2.7665846237e-04 1.7048656447e+00 -2.9529139167e+00 1.7048656447e+00 2.9529139167e+00 
43100 4.5314859873e+00 2.7244153124e-04 1.7048575309e+00 -2.9528998632e+00 1.7048575309e+00 2.9528998632e+00 
43200 4.5314859966e+00 2.6828749898e-04 1.7048495407e+00 -2.9528860238e+00 1.7048495407e+00 2.9528860238e+00 
43300 4.5314860058e+00 2.6419544319e-04 1.7048416724e+00 -2.9528723954e+00 1.7048416724e+00 2.9528723954e+00 
43400 4.5314860149e+00 2.6016445462e-04 1.7048339240e+00 -2.9528589748e+00 1.7048339240e+00 2.9528589748e+00 
43500 4.5314860238e+00 2.5619363702e-04 1.7048262938e+00 -2.9528457590e+00 1.7048262938e+00 2.9528457590e+00 
43600 4.5314860326e+00 2.5228210691e-04 1.7048187800e+00 -2.9528327447e+00 1.7048187800e+00 2.9528327447e+00 
43700 4.5314860413e+00 2.4842899351e-04 1.7048113810e+00 -2.9528199291e+00 1.7048113810e+00 2.9528199291e+00 
43800 4.5314860498e+00 2.4463343847e-04 1.7048040948e+00 -2.9528073092e+00 1.7048040948e+00 2.9528073092e+00 
43900 4.5314860583e+00 2.4089459579e-04 1.7047969200e+00 -2.9527948821e+00 1.7047969200e+00 2.9527948821e+00 
44000 4.5314860666e+00 2.3721163162e-04 1.7047898548e+00 -2.9527826448e+00 1.7047898548e+00 2.9527826448e+00 
44100 4.5314860748e+00 2.3358372408e-04 1.7047828976e+00 -2.9527705946e+00 1.7047828976e+00 2.9527705946e+00 
44200 4.5314860829e+00 2.3001006315e-04 1.7047760468e+00 -2.9527587286e+00 1.7047760468e+00 2.9527587286e+00 
44300 4.5314860908e+00 2.2648985047e-04 1.7047693008e+00 -2.9527470441e+00 1.7047693008e+00 2.9527470441e+00 
44400 4.5314860987e+00 2.2302229921e-04 1.7047626579e+00 -2.9527355384e+00 1.7047626579e+00 2.9527355384e+00 
44500 4.5314861064e+00 2.1960663389e-04 1.7047561168e+00 -2.9527242088e+00 1.7047561168e+00 2.9527242088e+00 
44600 4.5314861140e+00 2.1624209023e-04 1.7047496758e+00 -2.9527130526e+00 1.7047496758e+00 2.9527130526e+00 
44700 4.5314861216e+00 2.1292791503e-04 1.7047433334e+00 -2.9527020674e+00 1.7047433334e+00 2.9527020674e+00 
44800 4.5314861290e+00 2.0966336599e-04 1.7047370883e+00 -2.9526912505e+00 1.7047370883e+00 2.9526912505e+00 
44900 4.5314861363e+00 2.0644771156e-04 1.7047309389e+00 -2.9526805993e+00 1.7047309389e+00 2.9526805993e+00 
45000 4.5314861435e+00 2.0328023079e-04 1.7047248837e+00 -2.9526701115e+00 1.7047248837e+00 2.9526701115e+00 
45100 4.5314861506e+00 2.0016021323e-04 1.7047189215e+00 -2.9526597846e+00 1.7047189215e+00 2.9526597846e+00 
45200 4.5314861576e+00 1.9708695871e-04 1.7047130507e+00 -2.9526496161e+00 1.7047130507e+00 2.9526496161e+00 
45300 4.5314861645e+00 1.9405977725e-04 1.7047072701e+00 -2.9526396038e+00 1.7047072701e+00 2.9526396038e+00 
45400 4.5314861713e+00 1.9107798892e-04 1.7047015782e+00 -2.9526297451e+00 1.7047015782e+00 2.9526297451e+00 
45500 4.5314861779e+00 1.8814092368e-04 1.7046959737e+00 -2.9526200380e+00 1.7046959737e+00 2.9526200380e+00 
45600 4.5314861845e+00 1.8524792123e-04 1.7046904554e+00 -2.9526104800e+00 1.7046904554e+00 2.9526104800e+00 
45700 4.5314861910e+00 1.8239833090e-04 1.7046850220e+00 -2.9526010689e+00 1.7046850220e+00 2.9526010689e+00 
45800 4.5314861974e+00 1.7959151153e-04 1.7046796720e+00 -2.9525918026e+00 1.7046796720e+00 2.9525918026e+00 
45900 4.5314862037e+00 1.7682683128e-04 1.7046744044e+00 -2.9525826789e+00 1.7046744044e+00 2.9525826789e+00 
46000 4.5314862100e+00 1.7410366756e-04 1.7046692179e+00 -2.9525736955e+00 1.7046692179e+00 2.9525736955e+00 
46100 4.5314862161e+00 1.7142140684e-04 1.7046641113e+00 -2.9525648505e+00 1.7046641113e+00 2.9525648505e+00 
46200 4.5314862221e+00 1.6877944458e-04 1.7046590832e+00 -2.9525561418e+00 1.7046590832e+00 2.9525561418e+00 
46300 4.5314862281e+00 1.6617718506e-04 1.7046541327e+00 -2.9525475672e+00 1.7046541327e+00 2.9525475672e+00 
46400 4.5314862339e+00 1.6361404129e-04 1.7046492585e+00 -2.9525391248e+00 1.7046492585e+00 2.9525391248e+00 
46500 4.5314862397e+00 1.6108943484e-04 1.7046444594e+00 -2.9525308126e+00 1.7046444594e+00 2.9525308126e+00 
46600 4.5314862454e+00 1.5860279577e-04 1.7046397344e+00 -2.9525226286e+00 1.7046397344e+00 2.9525226286e+00 
46700 4.5314862510e+00 1.5615356245e-04 1.7046350823e+00 -2.9525145710e+00 1.7046350823e+00 2.9525145710e+00 
46800 4.5314862565e+00 1.5374118150e-04 1.7046305021e+00 -2.9525066377e+00 1.7046305021e+00 2.9525066377e+00 
46900 4.5314862620e+00 1.5136510764e-04 1.7046259926e+00 -2.9524988270e+00 1.7046259926e+00 2.9524988270e+00 
47000 4.5314862673e+00 1.4902480358e-04 1.7046215527e+00 -2.9524911370e+00 1.7046215527e+00 2.9524911370e+00 
47100 4.5314862726e+00 1.4671973990e-04 1.7046171815e+00 -2.9524835659e+00 1.7046171815e+00 2.9524835659e+00 
47200 4.5314862778e+00 1.4444939494e-04 1.7046128779e+00 -2.9524761118e+00 1.7046128779e+00 2.9524761118e+00 
47300 4.5314862829e+00 1.4221325469e-04 1.7046086409e+00 -2.9524687731e+00 1.7046086409e+00 2.9524687731e+00 
47400 4.5314862880e+00 1.4001081268e-04 1.7046044695e+00 -2.9524615480e+00 1.7046044695e+00 2.9524615480e+00 
47500 4.5314862929e+00 1.3784156987e-04 1.7046003627e+00 -2.9524544347e+00 1.7046003627e+00 2.9524544347e+00 
47600 4.5314862978e+00 1.3570503453e-04 1.7045963194e+00 -2.9524474317e+00 1.7045963194e+00 2.9524474317e+00 
47700 4.5314863026e+00 1.3360072218e-04 1.7045923389e+00 -2.9524405371e+00 1.7045923389e+00 2.9524405371e+00 
47800 4.5314863074e+00 1.3152815541e-04 1.7045884200e+00 -2.9524337495e+00 1.7045884200e+00 2.9524337495e+00 
47900 4.5314863121e+00 1.2948686383e-04 1.7045845620e+00 -2.9524270671e+00 1.7045845620e+00 2.9524270671e+00 
48000 4.5314863167e+00 1.2747638397e-04 1.7045807638e+00 -2.9524204885e+00 1.7045807638e+00 2.9524204885e+00 
48100 4.5314863212e+00 1.2549625915e-04 1.7045770245e+00 -2.9524140119e+00 1.7045770245e+00 2.9524140119e+00 
48200 4.5314863257e+00 1.2354603941e-04 1.7045733434e+00 -2.9524076360e+00 1.7045733434e+00 2.9524076360e+00 
48300 4.5314863301e+00 1.2162528139e-04 1.7045697194e+00 -2.9524013591e+00 1.7045697194e+00 2.9524013591e+00 
48400 4.5314863345e+00 1.1973354823e-04 1.7045661518e+00 -2.9523951798e+00 1.7045661518e+00 2.9523951798e+00 
48500 4.5314863387e+00 1.1787040950e-04 1.7045626397e+00 -2.9523890966e+00 1.7045626397e+00 2.9523890966e+00 
48600 4.5314863429e+00 1.1603544110e-04 1.7045591822e+00 -2.9523831080e+00 1.7045591822e+00 2.9523831080e+00 
48700 4.5314863471e+00 1.1422822514e-04 1.7045557785e+00 -2.9523772127e+00 1.7045557785e+00 2.9523772127e+00 
48800 4.5314863512e+00 1.1244834989e-04 1.7045524278e+00 -2.9523714092e+00 1.7045524278e+00 2.9523714092e+00 
48900 4.5314863552e+00 1.1069540966e-04 1.7045491294e+00 -2.9523656960e+00 1.7045491294e+00 2.9523656960e+00 
49000 4.5314863592e+00 1.0896900472e-04 1.7045458823e+00 -2.9523600720e+00 1.7045458823e+00 2.9523600720e+00 
49100 4.5314863631e+00 1.0726874121e-04 1.7045426859e+00 -2.9523545356e+00 1.7045426859e+00 2.9523545356e+00 
49200 4.5314863669e+00 1.0559423106e-04 1.7045395393e+00 -2.9523490856e+00 1.7045395393e+00 2.9523490856e+00 
49300 4.5314863707e+00 1.0394509191e-04 1.7045364419e+00 -2.9523437207e+00 1.7045364419e+00 2.9523437207e+00 
49400 4.5314863744e+00 1.0232094701e-04 1.7045333928e+00 -2.9523384395e+00 1.7045333928e+00 2.9523384395e+00 
49500 4.5314863781e+00 1.0072142515e-04 1.7045303914e+00 -2.9523332409e+00 1.7045303914e+00 2.9523332409e+00 
49600 4.5314863817e+00 9.9146160568e-05 1.7045274369e+00 -2.9523281235e+00 1.7045274369e+00 2.9523281235e+00 
49700 4.5314863853e+00 9.7594792885e-05 1.7045245285e+00 -2.9523230862e+00 1.7045245285e+00 2.9523230862e+00 
49800 4.5314863888e+00 9.6066967017e-05 1.7045216657e+00 -2.9523181276e+00 1.7045216657e+00 2.9523181276e+00 
49900 4.5314863922e+00 9.4562333092e-05 1.7045188477e+00 -2.9523132467e+00 1.7045188477e+00 2.9523132467e+00 
50000 4.5314863956e+00 9.3080546384e-05 1.7045160738e+00 -2.9523084422e+00 1.7045160738e+00 2.9523084422e+00 
50100 4.5314863990e+00 9.1621267231e-05 1.7045133434e+00 -2.9523037130e+00 1.7045133434e+00 2.9523037130e+00 
50200 4.5314864023e+00 9.0184160961e-05 1.7045106558e+00 -2.9522990579e+00 1.7045106558e+00 2.9522990579e+00 
50300 4.5314864055e+00 8.8768897823e-05 1.7045080104e+00 -2.9522944759e+00 1.7045080104e+00 2.9522944759e+00 
50400 4.5314864087e+00 8.7375152909e-05 1.7045054064e+00 -2.9522899657e+00 1.7045054064e+00 2.9522899657e+00 
50500 4.5314864119e+00 8.6002606083e-05 1.7045028434e+00 -2.9522855264e+00 1.7045028434e+00 2.9522855264e+00 
50600 4.5314864150e+00 8.4650941920e-05 1.7045003206e+00 -2.9522811567e+00 1.7045003206e+00 2.9522811567e+00 
50700 4.5314864181e+00 8.3319849622e-05 1.7044978374e+00 -2.9522768558e+00 1.7044978374e+00 2.9522768558e+00 
50800 4.5314864211e+00 8.2009022960e-05 1.7044953933e+00 -2.9522726224e+00 1.7044953933e+00 2.9522726224e+00 
50900 4.5314864240e+00 8.0718160206e-05 1.7044929876e+00 -2.9522684557e+00 1.7044929876e+00 2.9522684557e+00 
51000 4.5314864270e+00 7.9446964066e-05 1.7044906198e+00 -2.9522643545e+00 1.7044906198e+00 2.9522643545e+00 
51100 4.5314864298e+00 7.8195141611e-05 1.7044882893e+00 -2.9522603180e+00 1.7044882893e+00 2.9522603180e+00 
51200 4.5314864327e+00 7.6962404215e-05 1.7044859955e+00 -2.9522563450e+00 1.7044859955e+00 2.9522563450e+00 
51300 4.5314864355e+00 7.5748467499e-05 1.7044837379e+00 -2.9522524346e+00 1.7044837379e+00 2.9522524346e+00 
51400 4.5314864382e+00 7.4553051253e-05 1.7044815158e+00 -2.9522485860e+00 1.7044815158e+00 2.9522485860e+00 
51500 4.5314864409e+00 7.3375879393e-05 1.7044793288e+00 -2.9522447980e+00 1.7044793288e+00 2.9522447980e+00 
51600 4.5314864436e+00 7.2216679885e-05 1.7044771764e+00 -2.9522410699e+00 1.7044771764e+00 2.9522410699e+00 
51700 4.5314864462e+00 7.1075184693e-05 1.7044750580e+00 -2.9522374006e+00 1.7044750580e+00 2.9522374006e+00 
51800 4.5314864488e+00 6.9951129721e-05 1.7044729730e+00 -2.9522337894e+00 1.7044729730e+00 2.9522337894e+00 
51900 4.5314864515e+00 6.9816867726e-05 1.7044729730e+00 -2.9522337894e+00 1.7044729730e+00 2.9522337894e+00 
52000 4.5314864542e+00 6.9687682291e-05 1.7044729730e+00 -2.9522337894e+00 1.7044729730e+00 2.9522337894e+00 
52100 4.5314864568e+00 6.9563384054e-05 1.7044729730e+00 -2.9522337894e+00 1.7044729730e+00 2.9522337894e+00 
52200 4.5314864594e+00 6.9443787817e-05 1.7044729730e+00 -2.9522337894e+00 1.7044729730e+00 2.9522337894e+00 
52300 4.5314864619e+00 6.9328712561e-05 1.7044729730e+00 -2.9522337894e+00 1.7044729730e+00 2.9522337894e+00 
52400 4.5314864644e+00 6.9217981452e-05 1.7044729730e+00 -2.9522337894e+00 1.7044729730e+00 2.9522337894e+00 
52500 4.5314864669e+00 6.9111421852e-05 1.7044729730e+00 -2.9522337894e+00 1.7044729730e+00 2.9522337894e+00 
52600 4.5314864693e+00 6.9008865321e-05 1.7044729730e+00 -2.9522337894e+00 1.7044729730e+00 2.9522337894e+00 
52700 4.5314864716e+00 6.8910147616e-05 1.7044729730e+00 -2.9522337894e+00 1.7044729730e+00 2.9522337894e+00 
52800 4.5314864740e+00 6.8815108692e-05 1.7044729730e+00 -2.9522337894e+00 1.7044729730e+00 2.9522337894e+00 
52900 4.5314864763e+00 6.8723592690e-05 1.7044729730e+00 -2.9522337894e+00 1.7044729730e+00 2.9522337894e+00 
53000 4.5314864785e+00 6.8635447932e-05 1.7044729730e+00 -2.9522337894e+00 1.7044729730e+00 2.9522337894e+00 
53100 4.5314864808e+00 6.8550526901e-05 1.7044729730e+00 -2.9522337894e+00 1.7044729730e+00 2.9522337894e+00 
53200 4.5314864830e+00 6.8468686227e-05 1.7044729730e+00 -2.9522337894e+00 1.7044729730e+00 2.9522337894e+00 
53300 4.5314864851e+00 6.8389786661e-05 1.7044729730e+00 -2.9522337894e+00 1.7044729730e+00 2.9522337894e+00 
53400 4.5314864872e+00 6.8313693054e-05 1.7044729730e+00 -2.9522337894e+00 1.7044729730e+00 2.9522337894e+00 
53500 4.5314864893e+00 6.8240274323e-05 1.7044729730e+00 -2.9522337894e+00 1.7044729730e+00 2.9522337894e+00 
53600 4.5314864914e+00 6.8169403418e-05 1.7044729730e+00 -2.9522337894e+00 1.7044729730e+00 2.9522337894e+00 
53700 4.5314864934e+00 6.8100957289e-05 1.7044729730e+00 -2.9522337894e+00 1.7044729730e+00 2.9522337894e+00 
53800 4.5314864954e+00 6.8034816842e-05 1.7044729730e+00 -2.9522337894e+00 1.7044729730e+00 2.9522337894e+00 
53900 4.5314864973e+00 6.7970866898e-05 1.7044729730e+00 -2.9522337894e+00 1.7044729730e+00 2.9522337894e+00 
54000 4.5314864993e+00 6.7908996146e-05 1.7044729730e+00 -2.9522337894e+00 1.7044729730e+00 2.9522337894e+00 
54100 4.5314865011e+00 6.7849097090e-05 1.7044729730e+00 -2.9522337894e+00 1.7044729730e+00 2.9522337894e+00 
54200 4.5314865030e+00 6.7791066004e-05 1.7044729730e+00 -2.9522337894e+00 1.7044729730e+00 2.9522337894e+00 
54300 4.5314865048e+00 6.7734802870e-05 1.7044729730e+00 -2.9522337894e+00 1.7044729730e+00 2.9522337894e+00 
54400 4.5314865066e+00 6.7680211326e-05 1.7044729730e+00 -2.9522337894e+00 1.7044729730e+00 2.9522337894e+00 
54500 4.5314865084e+00 6.7627198603e-05 1.7044729730e+00 -2.9522337894e+00 1.7044729730e+00 2.9522337894e+00 
54600 4.5314865102e+00 6.7575675464e-05 1.7044729730e+00 -2.9522337894e+00 1.7044729730e+00 2.9522337894e+00 
54700 4.5314865119e+00 6.7525556143e-05 1.7044729730e+00 -2.9522337894e+00 1.7044729730e+00 2.9522337894e+00 
54800 4.5314865136e+00 6.7476758276e-05 1.7044729730e+00 -2.9522337894e+00 1.7044729730e+00 2.9522337894e+00 
54900 4.5314865152e+00 6.7429202836e-05 1.7044729730e+00 -2.9522337894e+00 1.7044729730e+00 2.9522337894e+00 
55000 4.5314865169e+00 6.7382814063e-05 1.7044729730e+00 -2.9522337894e+00 1.7044729730e+00 2.9522337894e+00 
55100 4.5314865185e+00 6.7337519398e-05 1.7044729730e+00 -2.9522337894e+00 1.7044729730e+00 2.9522337894e+00 
55200 4.5314865201e+00 6.7293249410e-05 1.7044729730e+00 -2.9522337894e+00 1.7044729730e+00 2.9522337894e+00 
55300 4.5314865216e+00 6.7249937719e-05 1.7044729730e+00 -2.9522337894e+00 1.7044729730e+00 2.9522337894e+00 
55400 4.5314865232e+00 6.7207520934e-05 1.7044729730e+00 -2.9522337894e+00 1.7044729730e+00 2.9522337894e+00 
55500 4.5314865247e+00 6.7165938572e-05 1.7044729730e+00 -2.9522337894e+00 1.7044729730e+00 2.9522337894e+00 
55600 4.5314865262e+00 6.7125132987e-05 1.7044729730e+00 -2.9522337894e+00 1.7044729730e+00 2.9522337894e+00 
55700 4.5314865276e+00 6.7085049296e-05 1.7044729730e+00 -2.9522337894e+00 1.7044729730e+00 2.9522337894e+00 
55800 4.5314865291e+00 6.7045635305e-05 1.7044729730e+00 -2.9522337894e+00 1.7044729730e+00 2.9522337894e+00 
55900 4.5314865305e+00 6.7006841431e-05 1.7044729730e+00 -2.9522337894e+00 1.7044729730e+00 2.9522337894e+00 
56000 4.5314865319e+00 6.6968620635e-05 1.7044729730e+00 -2.9522337894e+00 1.7044729730e+00 2.9522337894e+00 
56100 4.5314865333e+00 6.6930928340e-05 1.7044729730e+00 -2.9522337894e+00 1.7044729730e+00 2.9522337894e+00 
56200 4.5314865346e+00 6.6893722362e-05 1.7044729730e+00 -2.9522337894e+00 1.7044729730e+00 2.9522337894e+00 
56300 4.5314865359e+00 6.6856962835e-05 1.7044729730e+00 -2.9522337894e+00 1.7044729730e+00 2.9522337894e+00 
56400 4.5314865372e+00 6.6820612136e-05 1.7044729730e+00 -2.9522337894e+00 1.7044729730e+00 2.9522337894e+00 
56500 4.5314865385e+00 6.6784634816e-05 1.7044729730e+00 -2.9522337894e+00 1.7044729730e+00 2.9522337894e+00 
56600 4.5314865398e+00 6.6748997524e-05 1.7044729730e+00 -2.9522337894e+00 1.7044729730e+00 2.9522337894e+00 
56700 4.5314865410e+00 6.6713668938e-05 1.7044729730e+00 -2.9522337894e+00 1.7044729730e+00 2.9522337894e+00 
56800 4.5314865423e+00 6.6678619694e-05 1.7044729730e+00 -2.9522337894e+00 1.7044729730e+00 2.9522337894e+00 
56900 4.5314865435e+00 6.6643822317e-05 1.7044729730e+00 -2.9522337894e+00 1.7044729730e+00 2.9522337894e+00 
57000 4.5314865447e+00 6.6609251150e-05 1.7044729730e+00 -2.9522337894e+00 1.7044729730e+00 2.9522337894e+00 
57100 4.5314865458e+00 6.6574882288e-05 1.7044729730e+00 -2.9522337894e+00 1.7044729730e+00 2.9522337894e+00 
57200 4.5314865470e+00 6.6540693510e-05 1.7044729730e+00 -2.9522337894e+00 1.7044729730e+00 2.9522337894e+00 
57300 4.5314865481e+00 6.6506664214e-05 1.7044729730e+00 -2.9522337894e+00 1.7044729730e+00 2.9522337894e+00 
57400 4.5314865493e+00 6.6472775354e-05 1.7044729730e+00 -2.9522337894e+00 1.7044729730e+00 2.9522337894e+00 
57500 4.5314865504e+00 6.6439009372e-05 1.7044729730e+00 -2.9522337894e+00 1.7044729730e+00 2.9522337894e+00 
57600 4.5314865514e+00 6.6405350143e-05 1.7044729730e+00 -2.9522337894e+00 1.7044729730e+00 2.9522337894e+00 
57700 4.5314865525e+00 6.6371782905e-05 1.7044729730e+00 -2.9522337894e+00 1.7044729730e+00 2.9522337894e+00 
57800 4.5314865536e+00 6.6338294208e-05 1.7044729730e+00 -2.9522337894e+00 1.7044729730e+00 2.9522337894e+00 
57900 4.5314865546e+00 6.6304871849e-05 1.7044729730e+00 -2.9522337894e+00 1.7044729730e+00 2.9522337894e+00 
58000 4.5314865556e+00 6.6271504817e-05 1.7044729730e+00 -2.9522337894e+00 1.7044729730e+00 2.9522337894e+00 
58100 4.5314865566e+00 6.6238183242e-05 1.7044729730e+00 -2.9522337894e+00 1.7044729730e+00 2.9522337894e+00 
58200 4.5314865576e+00 6.6204898333e-05 1.7044729730e+00 -2.9522337894e+00 1.7044729730e+00 2.9522337894e+00 
58300 4.5314865586e+00 6.6171642331e-05 1.7044729730e+00 -2.9522337894e+00 1.7044729730e+00 2.9522337894e+00 
58400 4.5314865595e+00 6.6138408451e-05 1.7044729730e+00 -2.9522337894e+00 1.7044729730e+00 2.9522337894e+00 
58500 4.5314865605e+00 6.6105190839e-05 1.7044729730e+00 -2.9522337894e+00 1.7044729730e+00 2.9522337894e+00 
58600 4.5314865614e+00 6.6071984521e-05 1.7044729730e+00 -2.9522337894e+00 1.7044729730e+00 2.9522337894e+00 
58700 4.5314865623e+00 6.6038785352e-05 1.7044729730e+00 -2.9522337894e+00 1.7044729730e+00 2.9522337894e+00 
58800 4.5314865632e+00 6.6005589973e-05 1.7044729730e+00 -2.9522337894e+00 1.7044729730e+00 2.9522337894e+00 
58900 4.5314865641e+00 6.5972395766e-05 1.7044729730e+00 -2.9522337894e+00 1.7044729730e+00 2.9522337894e+00 
59000 4.5314865649e+00 6.5939200811e-05 1.7044729730e+00 -2.9522337894e+00 1.7044729730e+00 2.9522337894e+00 
59100 4.5314865658e+00 6.5906003844e-05 1.7044729730e+00 -2.9522337894e+00 1.7044729730e+00 2.9522337894e+00 
59200 4.5314865666e+00 6.5872804214e-05 1.7044729730e+00 -2.9522337894e+00 1.7044729730e+00 2.9522337894e+00 
59300 4.5314865675e+00 6.5839601849e-05 1.7044729730e+00 -2.9522337894e+00 1.7044729730e+00 2.9522337894e+00 
59400 4.5314865683e+00 6.5806397214e-05 1.7044729730e+00 -2.9522337894e+00 1.7044729730e+00 2.9522337894e+00 
59500 4.5314865691e+00 6.5773191274e-05 1.7044729730e+00 -2.9522337894e+00 1.7044729730e+00 2.9522337894e+00 
59600 4.5314865699e+00 6.5739985461e-05 1.7044729730e+00 -2.9522337894e+00 1.7044729730e+00 2.9522337894e+00 
59700 4.5314865707e+00 6.5706781644e-05 1.7044729730e+00 -2.9522337894e+00 1.7044729730e+00 2.9522337894e+00 
59800 4.5314865714e+00 6.5673582084e-05 1.7044729730e+00 -2.9522337894e+00 1.7044729730e+00 2.9522337894e+00 
59900 4.5314865722e+00 6.5640389419e-05 1.7044729730e+00 -2.9522337894e+00 1.7044729730e+00 2.9522337894e+00 
60000 4.5314865729e+00 6.5607206617e-05 1.7044729730e+00 -2.9522337894e+00 1.7044729730e+00 2.9522337894e+00 
60100 4.5314865737e+00 6.5574036963e-05 1.7044729730e+00 -2.9522337894e+00 1.7044729730e+00 2.9522337894e+00 
60200 4.5314865744e+00 6.5540884019e-05 1.7044729730e+00 -2.9522337894e+00 1.7044729730e+00 2.9522337894e+00 
60300 4.5314865751e+00 6.5507751605e-05 1.7044729730e+00 -2.9522337894e+00 1.7044729730e+00 2.9522337894e+00 
60400 4.5314865758e+00 6.5474643768e-05 1.7044729730e+00 -2.9522337894e+00 1.7044729730e+00 2.9522337894e+00 
60500 4.5314865765e+00 6.5441564763e-05 1.7044729730e+00 -2.9522337894e+00 1.7044729730e+00 2.9522337894e+00 
60600 4.5314865772e+00 6.5408519027e-05 1.7044729730e+00 -2.9522337894e+00 1.7044729730e+00 2.9522337894e+00 
60700 4.5314865778e+00 6.5375511156e-05 1.7044729730e+00 -2.9522337894e+00 1.7044729730e+00 2.9522337894e+00 
60800 4.5314865785e+00 6.5342545886e-05 1.7044729730e+00 -2.9522337894e+00 1.7044729730e+00 2.9522337894e+00 
60900 4.5314865791e+00 6.5309628072e-05 1.7044729730e+00 -2.9522337894e+00 1.7044729730e+00 2.9522337894e+00 
61000 4.5314865798e+00 6.5276762668e-05 1.7044729730e+00 -2.9522337894e+00 1.7044729730e+00 2.9522337894e+00 
61100 4.5314865804e+00 6.5243954710e-05 1.7044729730e+00 -2.9522337894e+00 1.7044729730e+00 2.9522337894e+00 
61200 4.5314865810e+00 6.5211209301e-05 1.7044729730e+00 -2.9522337894e+00 1.7044729730e+00 2.9522337894e+00 
61300 4.5314865816e+00 6.5178531590e-05 1.7044729730e+00 -2.9522337894e+00 1.7044729730e+00 2.9522337894e+00 
61400 4.5314865822e+00 6.5145926759e-05 1.7044729730e+00 -2.9522337894e+00 1.7044729730e+00 2.9522337894e+00 
61500 4.5314865828e+00 6.5113400011e-05 1.7044729730e+00 -2.9522337894e+00 1.7044729730e+00 2.9522337894e+00 
61600 4.5314865834e+00 6.5080956552e-05 1.7044729730e+00 -2.9522337894e+00 1.7044729730e+00 2.9522337894e+00 
61700 4.5314865840e+00 6.5048601579e-05 1.7044729730e+00 -2.9522337894e+00 1.7044729730e+00 2.9522337894e+00 
61800 4.5314865845e+00 6.5016340272e-05 1.7044729730e+00 -2.9522337894e+00 1.7044729730e+00 2.9522337894e+00 
61900 4.5314865851e+00 6.4984177779e-05 1.7044729730e+00 -2.9522337894e+00 1.7044729730e+00 2.9522337894e+00 
62000 4.5314865856e+00 6.4952119203e-05 1.7044729730e+00 -2.9522337894e+00 1.7044729730e+00 2.9522337894e+00 
62100 4.5314865862e+00 6.4920169601e-05 1.7044729730e+00 -2.9522337894e+00 1.7044729730e+00 2.9522337894e+00 
62200 4.5314865867e+00 6.4888333963e-05 1.7044729730e+00 -2.9522337894e+00 1.7044729730e+00 2.9522337894e+00 
62300 4.5314865872e+00 6.4856617214e-05 1.7044729730e+00 -2.9522337894e+00 1.7044729730e+00 2.9522337894e+00 
62400 4.5314865877e+00 6.4825024199e-05 1.7044729730e+00 -2.9522337894e+00 1.7044729730e+00 2.9522337894e+00 
62500 4.5314865883e+00 6.4793559680e-05 1.7044729730e+00 -2.9522337894e+00 1.7044729730e+00 2.9522337894e+00 
62600 4.5314865888e+00 6.4762228329e-05 1.7044729730e+00 -2.9522337894e+00 1.7044729730e+00 2.9522337894e+00 
62700 4.5314865892e+00 6.4731034716e-05 1.7044729730e+00 -2.9522337894e+00 1.7044729730e+00 2.9522337894e+00 
62800 4.5314865897e+00 6.4699983314e-05 1.7044729730e+00 -2.9522337894e+00 1.7044729730e+00 2.9522337894e+00 
62900 4.5314865902e+00 6.4669078483e-05 1.7044729730e+00 -2.9522337894e+00 1.7044729730e+00 2.9522337894e+00 
63000 4.5314865907e+00 6.4638324474e-05 1.7044729730e+00 -2.9522337894e+00 1.7044729730e+00 2.9522337894e+00 
63100 4.5314865911e+00 6.4607725419e-05 1.7044729730e+00 -2.9522337894e+00 1.7044729730e+00 2.9522337894e+00 
63200 4.5314865916e+00 6.4577285329e-05 1.7044729730e+00 -2.9522337894e+00 1.7044729730e+00 2.9522337894e+00 
63300 4.5314865920e+00 6.4547008096e-05 1.7044729730e+00 -2.9522337894e+00 1.7044729730e+00 2.9522337894e+00 
63400 4.5314865925e+00 6.4516897481e-05 1.7044729730e+00 -2.9522337894e+00 1.7044729730e+00 2.9522337894e+00 
63500 4.5314865929e+00 6.4486957117e-05 1.7044729730e+00 -2.9522337894e+00 1.7044729730e+00 2.9522337894e+00 
63600 4.5314865934e+00 6.4457190509e-05 1.7044729730e+00 -2.9522337894e+00 1.7044729730e+00 2.9522337894e+00 
63700 4.5314865938e+00 6.4427601027e-05 1.7044729730e+00 -2.9522337894e+00 1.7044729730e+00 2.9522337894e+00 
63800 4.5314865942e+00 6.4398191910e-05 1.7044729730e+00 -2.9522337894e+00 1.7044729730e+00 2.9522337894e+00 
63900 4.5314865946e+00 6.4368966258e-05 1.7044729730e+00 -2.9522337894e+00 1.7044729730e+00 2.9522337894e+00 
64000 4.5314865950e+00 6.4339927040e-05 1.7044729730e+00 -2.9522337894e+00 1.7044729730e+00 2.9522337894e+00 
64100 4.5314865954e+00 6.4311077086e-05 1.7044729730e+00 -2.9522337894e+00 1.7044729730e+00 2.9522337894e+00 
64200 4.5314865958e+00 6.4282419094e-05 1.7044729730e+00 -2.9522337894e+00 1.7044729730e+00 2.9522337894e+00 
64300 4.5314865962e+00 6.4253955621e-05 1.7044729730e+00 -2.9522337894e+00 1.7044729730e+00 2.9522337894e+00 
64400 4.5314865966e+00 6.4225689094e-05 1.7044729730e+00 -2.9522337894e+00 1.7044729730e+00 2.9522337894e+00 
64500 4.5314865969e+00 6.4197621800e-05 1.7044729730e+00 -2.9522337894e+00 1.7044729730e+00 2.9522337894e+00 
64600 4.5314865973e+00 6.4169755896e-05 1.7044729730e+00 -2.9522337894e+00 1.7044729730e+00 2.9522337894e+00 
64700 4.5314865977e+00 6.4142093404e-05 1.7044729730e+00 -2.9522337894e+00 1.7044729730e+00 2.9522337894e+00 
64800 4.5314865980e+00 6.4114636216e-05 1.7044729730e+00 -2.9522337894e+00 1.7044729730e+00 2.9522337894e+00 
64900 4.5314865984e+00 6.4087386091e-05 1.7044729730e+00 -2.9522337894e+00 1.7044729730e+00 2.9522337894e+00 
65000 4.5314865987e+00 6.4060344660e-05 1.7044729730e+00 -2.9522337894e+00 1.7044729730e+00 2.9522337894e+00 
65100 4.5314865991e+00 6.4033513428e-05 1.7044729730e+00 -2.9522337894e+00 1.7044729730e+00 2.9522337894e+00 
65200 4.5314865994e+00 6.4006893773e-05 1.7044729730e+00 -2.9522337894e+00 1.7044729730e+00 2.9522337894e+00 
65300 4.5314865997e+00 6.3980486951e-05 1.7044729730e+00 -2.9522337894e+00 1.7044729730e+00 2.9522337894e+00 
65400 4.5314866001e+00 6.3954294094e-05 1.7044729730e+00 -2.9522337894e+00 1.7044729730e+00 2.9522337894e+00 
65500 4.5314866004e+00 6.3928316218e-05 1.7044729730e+00 -2.9522337894e+00 1.7044729730e+00 2.9522337894e+00 
65600 4.5314866007e+00 6.3902554218e-05 1.7044729730e+00 -2.9522337894e+00 1.7044729730e+00 2.9522337894e+00 
65700 4.5314866010e+00 6.3877008879e-05 1.7044729730e+00 -2.9522337894e+00 1.7044729730e+00 2.9522337894e+00 
65800 4.5314866013e+00 6.3851680869e-05 1.7044729730e+00 -2.9522337894e+00 1.7044729730e+00 2.9522337894e+00 
65900 4.5314866016e+00 6.3826570749e-05 1.7044729730e+00 -2.9522337894e+00 1.7044729730e+00 2.9522337894e+00 
66000 4.5314866019e+00 6.3801678973e-05 1.7044729730e+00 -2.9522337894e+00 1.7044729730e+00 2.9522337894e+00 
66100 4.5314866022e+00 6.3777005888e-05 1.7044729730e+00 -2.9522337894e+00 1.7044729730e+00 2.9522337894e+00 
66200 4.5314866025e+00 6.3752551741e-05 1.7044729730e+00 -2.9522337894e+00 1.7044729730e+00 2.9522337894e+00 
66300 4.5314866028e+00 6.3728316678e-05 1.7044729730e+00 -2.9522337894e+00 1.7044729730e+00 2.9522337894e+00 
66400 4.5314866031e+00 6.3704300750e-05 1.7044729730e+00 -2.9522337894e+00 1.7044729730e+00 2.9522337894e+00 
66500 4.5314866034e+00 6.3680503914e-05 1.7044729730e+00 -2.9522337894e+00 1.7044729730e+00 2.9522337894e+00 
66600 4.5314866037e+00 6.3656926034e-05 1.7044729730e+00 -2.9522337894e+00 1.7044729730e+00 2.9522337894e+00 
66700 4.5314866039e+00 6.3633566888e-05 1.7044729730e+00 -2.9522337894e+00 1.7044729730e+00 2.9522337894e+00 
66800 4.5314866042e+00 6.3610426167e-05 1.7044729730e+00 -2.9522337894e+00 1.7044729730e+00 2.9522337894e+00 
66900 4.5314866045e+00 6.3587503479e-05 1.7044729730e+00 -2.9522337894e+00 1.7044729730e+00 2.9522337894e+00 
67000 4.5314866047e+00 6.3564798352e-05 1.7044729730e+00 -2.9522337894e+00 1.7044729730e+00 2.9522337894e+00 
67100 4.5314866050e+00 6.3542310238e-05 1.7044729730e+00 -2.9522337894e+00 1.7044729730e+00 2.9522337894e+00 
67200 4.5314866052e+00 6.3520038515e-05 1.7044729730e+00 -2.9522337894e+00 1.7044729730e+00 2.9522337894e+00 
67300 4.5314866055e+00 6.3497982486e-05 1.7044729730e+00 -2.9522337894e+00 1.7044729730e+00 2.9522337894e+00 
67400 4.5314866057e+00 6.3476141388e-05 1.7044729730e+00 -2.9522337894e+00 1.7044729730e+00 2.9522337894e+00 
67500 4.5314866060e+00 6.3454514392e-05 1.7044729730e+00 -2.9522337894e+00 1.7044729730e+00 2.9522337894e+00 
67600 4.5314866062e+00 6.3433100604e-05 1.7044729730e+00 -2.9522337894e+00 1.7044729730e+00 2.9522337894e+00 
67700 4.5314866064e+00 6.3411899068e-05 1.7044729730e+00 -2.9522337894e+00 1.7044729730e+00 2.9522337894e+00 
67800 4.5314866067e+00 6.3390908772e-05 1.7044729730e+00 -2.9522337894e+00 1.7044729730e+00 2.9522337894e+00 
67900 4.5314866069e+00 6.3370128648e-05 1.7044729730e+00 -2.9522337894e+00 1.7044729730e+00 2.9522337894e+00 
68000 4.5314866071e+00 6.3349557574e-05 1.7044729730e+00 -2.9522337894e+00 1.7044729730e+00 2.9522337894e+00 
68100 4.5314866073e+00 6.3329194379e-05 1.7044729730e+00 -2.9522337894e+00 1.7044729730e+00 2.9522337894e+00 
68200 4.5314866075e+00 6.3309037842e-05 1.7044729730e+00 -2.9522337894e+00 1.7044729730e+00 2.9522337894e+00 
68300 4.5314866078e+00 6.3289086696e-05 1.7044729730e+00 -2.9522337894e+00 1.7044729730e+00 2.9522337894e+00 
68400 4.5314866080e+00 6.3269339634e-05 1.7044729730e+00 -2.9522337894e+00 1.7044729730e+00 2.9522337894e+00 
68500 4.5314866082e+00 6.3249795306e-05 1.7044729730e+00 -2.9522337894e+00 1.7044729730e+00 2.9522337894e+00 
68600 4.5314866084e+00 6.3230452322e-05 1.7044729730e+00 -2.9522337894e+00 1.7044729730e+00 2.9522337894e+00 
68700 4.5314866086e+00 6.3211309258e-05 1.7044729730e+00 -2.9522337894e+00 1.7044729730e+00 2.9522337894e+00 
68800 4.5314866088e+00 6.3192364656e-05 1.7044729730e+00 -2.9522337894e+00 1.7044729730e+00 2.9522337894e+00 
68900 4.5314866090e+00 6.3173617024e-05 1.7044729730e+00 -2.9522337894e+00 1.7044729730e+00 2.9522337894e+00 
69000 4.5314866092e+00 6.3155064842e-05 1.7044729730e+00 -2.9522337894e+00 1.7044729730e+00 2.9522337894e+00 
69100 4.5314866094e+00 6.3136706562e-05 1.7044729730e+00 -2.9522337894e+00 1.7044729730e+00 2.9522337894e+00 
69200 4.5314866095e+00 6.3118540608e-05 1.7044729730e+00 -2.9522337894e+00 1.7044729730e+00 2.9522337894e+00 
69300 4.5314866097e+00 6.3100565385e-05 1.7044729730e+00 -2.9522337894e+00 1.7044729730e+00 2.9522337894e+00 
69400 4.5314866099e+00 6.3082779270e-05 1.7044729730e+00 -2.9522337894e+00 1.7044729730e+00 2.9522337894e+00 
69500 4.5314866101e+00 6.3065180626e-05 1.7044729730e+00 -2.9522337894e+00 1.7044729730e+00 2.9522337894e+00 
69600 4.5314866103e+00 6.3047767794e-05 1.7044729730e+00 -2.9522337894e+00 1.7044729730e+00 2.9522337894e+00 
69700 4.5314866104e+00 6.3030539099e-05 1.7044729730e+00 -2.9522337894e+00 1.7044729730e+00 2.9522337894e+00 
69800 4.5314866106e+00 6.3013492853e-05 1.7044729730e+00 -2.9522337894e+00 1.7044729730e+00 2.9522337894e+00 
69900 4.5314866108e+00 6.2996627351e-05 1.7044729730e+00 -2.9522337894e+00 1.7044729730e+00 2.9522337894e+00 
70000 4.5314866109e+00 6.2979940882e-05 1.7044729730e+00 -2.9522337894e+00 1.7044729730e+00 2.9522337894e+00 
70100 4.5314866111e+00 6.2963431720e-05 1.7044729730e+00 -2.9522337894e+00 1.7044729730e+00 2.9522337894e+00 
70200 4.5314866113e+00 6.2947098134e-05 1.7044729730e+00 -2.9522337894e+00 1.7044729730e+00 2.9522337894e+00 
70300 4.5314866114e+00 6.2930938383e-05 1.7044729730e+00 -2.9522337894e+00 1.7044729730e+00 2.9522337894e+00 
70400 4.5314866116e+00 6.2914950723e-05 1.7044729730e+00 -2.9522337894e+00 1.7044729730e+00 2.9522337894e+00 
70500 4.5314866117e+00 6.2899133402e-05 1.7044729730e+00 -2.9522337894e+00 1.7044729730e+00 2.9522337894e+00 
70600 4.5314866119e+00 6.2883484670e-05 1.7044729730e+00 -2.9522337894e+00 1.7044729730e+00 2.9522337894e+00 
70700 4.5314866121e+00 6.2868002772e-05 1.7044729730e+00 -2.9522337894e+00 1.7044729730e+00 2.9522337894e+00 
70800 4.5314866122e+00 6.2852685950e-05 1.7044729730e+00 -2.9522337894e+00 1.7044729730e+00 2.9522337894e+00 
70900 4.5314866123e+00 6.2837532452e-05 1.7044729730e+00 -2.9522337894e+00 1.7044729730e+00 2.9522337894e+00 
71000 4.5314866125e+00 6.2822540524e-05 1.7044729730e+00 -2.9522337894e+00 1.7044729730e+00 2.9522337894e+00 
71100 4.5314866126e+00 6.2807708414e-05 1.7044729730e+00 -2.9522337894e+00 1.7044729730e+00 2.9522337894e+00 
71200 4.5314866128e+00 6.2793034377e-05 1.7044729730e+00 -2.9522337894e+00 1.7044729730e+00 2.9522337894e+00 
71300 4.5314866129e+00 6.2778516669e-05 1.7044729730e+00 -2.9522337894e+00 1.7044729730e+00 2.9522337894e+00 
71400 4.5314866130e+00 6.2764153554e-05 1.7044729730e+00 -2.9522337894e+00 1.7044729730e+00 2.9522337894e+00 
71500 4.5314866132e+00 6.2749943301e-05 1.7044729730e+00 -2.9522337894e+00 1.7044729730e+00 2.9522337894e+00 
71600 4.5314866133e+00 6.2735884186e-05 1.7044729730e+00 -2.9522337894e+00 1.7044729730e+00 2.9522337894e+00 
71700 4.5314866134e+00 6.2721974494e-05 1.7044729730e+00 -2.9522337894e+00 1.7044729730e+00 2.9522337894e+00 
71800 4.5314866136e+00 6.2708212517e-05 1.7044729730e+00 -2.9522337894e+00 1.7044729730e+00 2.9522337894e+00 
71900 4.5314866137e+00 6.2694596559e-05 1.7044729730e+00 -2.9522337894e+00 1.7044729730e+00 2.9522337894e+00 
72000 4.5314866138e+00 6.2681124931e-05 1.7044729730e+00 -2.9522337894e+00 1.7044729730e+00 2.9522337894e+00 
72100 4.5314866139e+00 6.2667795958e-05 1.7044729730e+00 -2.9522337894e+00 1.7044729730e+00 2.9522337894e+00 
72200 4.5314866141e+00 6.2654607974e-05 1.7044729730e+00 -2.9522337894e+00 1.7044729730e+00 2.9522337894e+00 
72300 4.5314866142e+00 6.2641559325e-05 1.7044729730e+00 -2.9522337894e+00 1.7044729730e+00 2.9522337894e+00 
72400 4.5314866143e+00 6.2628648370e-05 1.7044729730e+00 -2.9522337894e+00 1.7044729730e+00 2.9522337894e+00 
72500 4.5314866144e+00 6.2615873481e-05 1.7044729730e+00 -2.9522337894e+00 1.7044729730e+00 2.9522337894e+00 
72600 4.5314866145e+00 6.2603233041e-05 1.7044729730e+00 -2.9522337894e+00 1.7044729730e+00 2.9522337894e+00 
72700 4.5314866147e+00 6.2590725452e-05 1.7044729730e+00 -2.9522337894e+00 1.7044729730e+00 2.9522337894e+00 
72800 4.5314866148e+00 6.2578349125e-05 1.7044729730e+00 -2.9522337894e+00 1.7044729730e+00 2.9522337894e+00 
72900 4.5314866149e+00 6.2566102487e-05 1.7044729730e+00 -2.9522337894e+00 1.7044729730e+00 2.9522337894e+00 
73000 4.5314866150e+00 6.2553983980e-05 1.7044729730e+00 -2.9522337894e+00 1.7044729730e+00 2.9522337894e+00 
73100 4.5314866151e+00 6.2541992063e-05 1.7044729730e+00 -2.9522337894e+00 1.7044729730e+00 2.9522337894e+00 
73200 4.5314866152e+00 6.2530125207e-05 1.7044729730e+00 -2.9522337894e+00 1.7044729730e+00 2.9522337894e+00 
73300 4.5314866153e+00 6.2518381901e-05 1.7044729730e+00 -2.9522337894e+00 1.7044729730e+00 2.9522337894e+00 
73400 4.5314866154e+00 6.2506760649e-05 1.7044729730e+00 -2.9522337894e+00 1.7044729730e+00 2.9522337894e+00 
73500 4.5314866155e+00 6.2495259972e-05 1.7044729730e+00 -2.9522337894e+00 1.7044729730e+00 2.9522337894e+00 
73600 4.5314866156e+00 6.2483878406e-05 1.7044729730e+00 -2.9522337894e+00 1.7044729730e+00 2.9522337894e+00 
73700 4.5314866157e+00 6.2472614506e-05 1.7044729730e+00 -2.9522337894e+00 1.7044729730e+00 2.9522337894e+00 
73800 4.5314866158e+00 6.2461466839e-05 1.7044729730e+00 -2.9522337894e+00 1.7044729730e+00 2.9522337894e+00 
73900 4.5314866159e+00 6.2450433993e-05 1.7044729730e+00 -2.9522337894e+00 1.7044729730e+00 2.9522337894e+00 
74000 4.5314866160e+00 6.2439514571e-05 1.7044729730e+00 -2.9522337894e+00 1.7044729730e+00 2.9522337894e+00 
74100 4.5314866161e+00 6.2428707194e-05 1.7044729730e+00 -2.9522337894e+00 1.7044729730e+00 2.9522337894e+00 
74200 4.5314866162e+00 6.2418010498e-05 1.7044729730e+00 -2.9522337894e+00 1.7044729730e+00 2.9522337894e+00 
74300 4.5314866163e+00 6.2407423136e-05 1.7044729730e+00 -2.9522337894e+00 1.7044729730e+00 2.9522337894e+00 
74400 4.5314866164e+00 6.2396943783e-05 1.7044729730e+00 -2.9522337894e+00 1.7044729730e+00 2.9522337894e+00 
74500 4.5314866164e+00 6.2386571123e-05 1.7044729730e+00 -2.9522337894e+00 1.7044729730e+00 2.9522337894e+00 
74600 4.5314866165e+00 6.2376303863e-05 1.7044729730e+00 -2.9522337894e+00 1.7044729730e+00 2.9522337894e+00 
74700 4.5314866166e+00 6.2366140725e-05 1.7044729730e+00 -2.9522337894e+00 1.7044729730e+00 2.9522337894e+00 
74800 4.5314866167e+00 6.2356080448e-05 1.7044729730e+00 -2.9522337894e+00 1.7044729730e+00 2.9522337894e+00 
74900 4.5314866168e+00 6.2346121788e-05 1.7044729730e+00 -2.9522337894e+00 1.7044729730e+00 2.9522337894e+00 
75000 4.5314866169e+00 6.2336263518e-05 1.7044729730e+00 -2.9522337894e+00 1.7044729730e+00 2.9522337894e+00 
75100 4.5314866169e+00 6.2326504429e-05 1.7044729730e+00 -2.9522337894e+00 1.7044729730e+00 2.9522337894e+00 
75200 4.5314866170e+00 6.2316843324e-05 1.7044729730e+00 -2.9522337894e+00 1.7044729730e+00 2.9522337894e+00 
75300 4.5314866171e+00 6.2307279029e-05 1.7044729730e+00 -2.9522337894e+00 1.7044729730e+00 2.9522337894e+00 
75400 4.5314866172e+00 6.2297810382e-05 1.7044729730e+00 -2.9522337894e+00 1.7044729730e+00 2.9522337894e+00 
75500 4.5314866173e+00 6.2288436240e-05 1.7044729730e+00 -2.9522337894e+00 1.7044729730e+00 2.9522337894e+00 
75600 4.5314866173e+00 6.2279155474e-05 1.7044729730e+00 -2.9522337894e+00 1.7044729730e+00 2.9522337894e+00 
75700 4.5314866174e+00 6.2269966974e-05 1.7044729730e+00 -2.9522337894e+00 1.7044729730e+00 2.9522337894e+00 
75800 4.5314866175e+00 6.2260869642e-05 1.7044729730e+00 -2.9522337894e+00 1.7044729730e+00 2.9522337894e+00 
75900 4.5314866175e+00 6.2251862400e-05 1.7044729730e+00 -2.9522337894e+00 1.7044729730e+00 2.9522337894e+00 
76000 4.5314866176e+00 6.2242944183e-05 1.7044729730e+00 -2.9522337894e+00 1.7044729730e+00 2.9522337894e+00 
76100 4.5314866177e+00 6.2234113944e-05 1.7044729730e+00 -2.9522337894e+00 1.7044729730e+00 2.9522337894e+00 
76200 4.5314866178e+00 6.2225370648e-05 1.7044729730e+00 -2.9522337894e+00 1.7044729730e+00 2.9522337894e+00 
76300 4.5314866178e+00 6.2216713278e-05 1.7044729730e+00 -2.9522337894e+00 1.7044729730e+00 2.9522337894e+00 
76400 4.5314866179e+00 6.2208140831e-05 1.7044729730e+00 -2.9522337894e+00 1.7044729730e+00 2.9522337894e+00 
76500 4.5314866180e+00 6.2199652320e-05 1.7044729730e+00 -2.9522337894e+00 1.7044729730e+00 2.9522337894e+00 
76600 4.5314866180e+00 6.2191246770e-05 1.7044729730e+00 -2.9522337894e+00 1.7044729730e+00 2.9522337894e+00 
76700 4.5314866181e+00 6.2182923224e-05 1.7044729730e+00 -2.9522337894e+00 1.7044729730e+00 2.9522337894e+00 
76800 4.5314866182e+00 6.2174680736e-05 1.7044729730e+00 -2.9522337894e+00 1.7044729730e+00 2.9522337894e+00 
76900 4.5314866182e+00 6.2166518377e-05 1.7044729730e+00 -2.9522337894e+00 1.7044729730e+00 2.9522337894e+00 
77000 4.5314866183e+00 6.2158435231e-05 1.7044729730e+00 -2.9522337894e+00 1.7044729730e+00 2.9522337894e+00 
77100 4.5314866183e+00 6.2150430395e-05 1.7044729730e+00 -2.9522337894e+00 1.7044729730e+00 2.9522337894e+00 
77200 4.5314866184e+00 6.2142502978e-05 1.7044729730e+00 -2.9522337894e+00 1.7044729730e+00 2.9522337894e+00 
77300 4.5314866185e+00 6.2134652109e-05 1.7044729730e+00 -2.9522337894e+00 1.7044729730e+00 2.9522337894e+00 
77400 4.5314866185e+00 6.2126876921e-05 1.7044729730e+00 -2.9522337894e+00 1.7044729730e+00 2.9522337894e+00 
77500 4.5314866186e+00 6.2119176567e-05 1.7044729730e+00 -2.9522337894e+00 1.7044729730e+00 2.9522337894e+00 
77600 4.5314866186e+00 6.2111550210e-05 1.7044729730e+00 -2.9522337894e+00 1.7044729730e+00 2.9522337894e+00 
77700 4.5314866187e+00 6.2103997026e-05 1.7044729730e+00 -2.9522337894e+00 1.7044729730e+00 2.9522337894e+00 
77800 4.5314866187e+00 6.2096516202e-05 1.7044729730e+00 -2.9522337894e+00 1.7044729730e+00 2.9522337894e+00 
77900 4.5314866188e+00 6.2089106939e-05 1.7044729730e+00 -2.9522337894e+00 1.7044729730e+00 2.9522337894e+00 
78000 4.5314866188e+00 6.2081768450e-05 1.7044729730e+00 -2.9522337894e+00 1.7044729730e+00 2.9522337894e+00 
78100 4.5314866189e+00 6.2074499958e-05 1.7044729730e+00 -2.9522337894e+00 1.7044729730e+00 2.9522337894e+00 
78200 4.5314866190e+00 6.2067300699e-05 1.7044729730e+00 -2.9522337894e+00 1.7044729730e+00 2.9522337894e+00 
78300 4.5314866190e+00 6.2060169921e-05 1.7044729730e+00 -2.9522337894e+00 1.7044729730e+00 2.9522337894e+00 
78400 4.5314866191e+00 6.2053106881e-05 1.7044729730e+00 -2.9522337894e+00 1.7044729730e+00 2.9522337894e+00 
78500 4.5314866191e+00 6.2046110848e-05 1.7044729730e+00 -2.9522337894e+00 1.7044729730e+00 2.9522337894e+00 
78600 4.5314866191e+00 6.2044163868e-05 1.7044729730e+00 -2.9522337894e+00 1.7044729730e+00 2.9522337894e+00 
78600 4.5314866191e+00 6.2044163868e-05 1.7044729730e+00 -2.9522337894e+00 1.7044729730e+00 2.9522337894e+00 
