# step Hamiltonian StressXX CellTensor1 CellTensor2 CellTensor3 CellTensor4 
0 5.6672432949e+00 -6.4231307633e-02 1.6185780433e+00 -2.8034594071e+00 1.6185780433e+00 2.8034594071e+00 
100 5.6661070020e+00 -6.4711162616e-02 1.6185780433e+00 -2.8034594071e+00 1.6185780433e+00 2.8034594071e+00 
200 5.6649436817e+00 -6.3258440642e-02 1.6205774671e+00 -2.8069225105e+00 1.6205774671e+00 2.8069225105e+00 
300 5.6639096683e+00 -6.1848992021e-02 1.6225295836e+00 -2.8103036756e+00 1.6225295836e+00 2.8103036756e+00 
400 5.6629964547e+00 -6.0480584340e-02 1.6244358998e+00 -2.8136055120e+00 1.6244358998e+00 2.8136055120e+00 
500 5.6621958637e+00 -5.9151163969e-02 1.6262978422e+00 -2.8168304909e+00 1.6262978422e+00 2.8168304909e+00 
600 5.6615000397e+00 -5.7858840939e-02 1.6281167641e+00 -2.8199809561e+00 1.6281167641e+00 2.8199809561e+00 
700 5.6609014418e+00 -5.6601874783e-02 1.6298939510e+00 -2.8230591340e+00 1.6298939510e+00 2.8230591340e+00 
800 5.6603928373e+00 -5.5378661287e-02 1.6316306257e+00 -2.8260671429e+00 1.6316306257e+00 2.8260671429e+00 
900 5.6599672966e+00 -5.4187720126e-02 1.6333279539e+00 -2.8290070015e+00 1.6333279539e+00 2.8290070015e+00 
1000 5.6596181883e+00 -5.3027683332e-02 1.6349870476e+00 -2.8318806361e+00 1.6349870476e+00 2.8318806361e+00 
1100 5.6593391745e+00 -5.1897284583e-02 1.6366089699e+00 -2.8346898880e+00 1.6366089699e+00 2.8346898880e+00 
1200 5.6591242067e+00 -5.0795349254e-02 1.6381947383e+00 -2.8374365195e+00 1.6381947383e+00 2.8374365195e+00 
1300 5.6589675218e+00 -4.9720785219e-02 1.6397453279e+00 -2.8401222194e+00 1.6397453279e+00 2.8401222194e+00 
1400 5.6588636380e+00 -4.8672574363e-02 1.6412616743e+00 -2.8427486085e+00 1.6412616743e+00 2.8427486085e+00 
1500 5.6588073505e+00 -4.7649764771e-02 1.6427446766e+00 -2.8453172438e+00 1.6427446766e+00 2.8453172438e+00 
1600 5.6587937275e+00 -4.6651463577e-02 1.6441951994e+00 -2.8478296229e+00 1.6441951994e+00 2.8478296229e+00 
1700 5.6588181055e+00 -4.5676830425e-02 1.6456140749e+00 -2.8502871874e+00 1.6456140749e+00 2.8502871874e+00 
1800 5.6588760849e+00 -4.4725071528e-02 1.6470021052e+00 -2.8526913264e+00 1.6470021052e+00 2.8526913264e+00 
1900 5.6589635247e+00 -4.3795434287e-02 1.6483600638e+00 -2.8550433796e+00 1.6483600638e+00 2.8550433796e+00 
2000 5.6590765377e+00 -4.2887202447e-02 1.6496886968e+00 -2.8573446395e+00 1.6496886968e+00 2.8573446395e+00 
2100 5.6592114844e+00 -4.1999691751e-02 1.6509887248e+00 -2.8595963541e+00 1.6509887248e+00 2.8595963541e+00 
2200 5.6593649676e+00 -4.1132246074e-02 1.6522608437e+00 -2.8617997287e+00 1.6522608437e+00 2.8617997287e+00 
2300 5.6595338259e+00 -4.0284234002e-02 1.6535057261e+00 -2.8639559282e+00 1.6535057261e+00 2.8639559282e+00 
2400 5.6597151272e+00 -3.9455045833e-02 1.6547240217e+00 -2.8660660781e+00 1.6547240217e+00 2.8660660781e+00 
2500 5.6599061619e+00 -3.8644090958e-02 1.6559163589e+00 -2.8681312668e+00 1.6559163589e+00 2.8681312668e+00 
2600 5.6601044359e+00 -3.7850795618e-02 1.6570833450e+00 -2.8701525459e+00 1.6570833450e+00 2.8701525459e+00 
2700 5.6603076632e+00 -3.7074600987e-02 1.6582255670e+00 -2.8721309324e+00 1.6582255670e+00 2.8721309324e+00 
2800 5.6605137580e+00 -3.6314961566e-02 1.6593435923e+00 -2.8740674091e+00 1.6593435923e+00 2.8740674091e+00 
2900 5.6607208275e+00 -3.5571343858e-02 1.6604379693e+00 -2.8759629257e+00 1.6604379693e+00 2.8759629257e+00 
3000 5.6609271634e+00 -3.4843225309e-02 1.6615092278e+00 -2.8778183999e+00 1.6615092278e+00 2.8778183999e+00 
3100 5.6611312338e+00 -3.4130093469e-02 1.6625578795e+00 -2.8796347178e+00 1.6625578795e+00 2.8796347178e+00 
3200 5.6613316755e+00 -3.3431445374e-02 1.6635844183e+00 -2.8814127351e+00 1.6635844183e+00 2.8814127351e+00 
3300 5.6615272849e+00 -3.2746787109e-02 1.6645893210e+00 -2.8831532776e+00 1.6645893210e+00 2.8831532776e+00 
3400 5.6617170103e+00 -3.2075633537e-02 1.6655730474e+00 -2.8848571418e+00 1.6655730474e+00 2.8848571418e+00 
3500 5.6618999434e+00 -3.1417508175e-02 1.6665360410e+00 -2.8865250956e+00 1.6665360410e+00 2.8865250956e+00 
3600 5.6620753107e+00 -3.0771943192e-02 1.6674787289e+00 -2.8881578790e+00 1.6674787289e+00 2.8881578790e+00 
3700 5.6622424654e+00 -3.0138479518e-02 1.6684015227e+00 -2.8897562047e+00 1.6684015227e+00 2.8897562047e+00 
3800 5.6624008795e+00 -2.9516667040e-02 1.6693048183e+00 -2.8913207586e+00 1.6693048183e+00 2.8913207586e+00 
3900 5.6625501352e+00 -2.8906064872e-02 1.6701889969e+00 -2.8928522009e+00 1.6701889969e+00 2.8928522009e+00 
4000 5.6626899172e+00 -2.8306241681e-02 1.6710544247e+00 -2.8943511658e+00 1.6710544247e+00 2.8943511658e+00 
4100 5.6628200052e+00 -2.7716776066e-02 1.6719014537e+00 -2.8958182631e+00 1.6719014537e+00 2.8958182631e+00 
4200 5.6629402659e+00 -2.7137256958e-02 1.6727304220e+00 -2.8972540782e+00 1.6727304220e+00 2.8972540782e+00 
4300 5.6630506457e+00 -2.6567284049e-02 1.6735416540e+00 -2.8986591733e+00 1.6735416540e+00 2.8986591733e+00 
4400 5.6631511639e+00 -2.6006468228e-02 1.6743354610e+00 -2.9000340874e+00 1.6743354610e+00 2.9000340874e+00 
4500 5.6632419053e+00 -2.5454432017e-02 1.6751121416e+00 -2.9013793377e+00 1.6751121416e+00 2.9013793377e+00 
4600 5.6633230141e+00 -2.4910809997e-02 1.6758719820e+00 -2.9026954198e+00 1.6758719820e+00 2.9026954198e+00 
4700 5.6633946869e+00 -2.4375249230e-02 1.6766152562e+00 -2.9039828086e+00 1.6766152562e+00 2.9039828086e+00 
4800 5.6634571673e+00 -2.3847409643e-02 1.6773422271e+00 -2.9052419591e+00 1.6773422271e+00 2.9052419591e+00 
4900 5.6635107393e+00 -2.3326964397e-02 1.6780531463e+00 -2.9064733071e+00 1.6780531463e+00 2.9064733071e+00 
5000 5.6635557227e+00 -2.2813600220e-02 1.6787482546e+00 -2.9076772701e+00 1.6787482546e+00 2.9076772701e+00 
5100 5.6635924669e+00 -2.2307017703e-02 1.6794277829e+00 -2.9088542476e+00 1.6794277829e+00 2.9088542476e+00 
5200 5.6636213469e+00 -2.1806931560e-02 1.6800919522e+00 -2.9100046225e+00 1.6800919522e+00 2.9100046225e+00 
5300 5.6636427579e+00 -2.1313070848e-02 1.6807409742e+00 -2.9111287617e+00 1.6807409742e+00 2.9111287617e+00 
5400 5.6636571114e+00 -2.0825179134e-02 1.6813750520e+00 -2.9122270167e+00 1.6813750520e+00 2.9122270167e+00 
5500 5.6636648312e+00 -2.0343014631e-02 1.6819943801e+00 -2.9132997245e+00 1.6819943801e+00 2.9132997245e+00 
5600 5.6636663494e+00 -1.9866350277e-02 1.6825991453e+00 -2.9143472085e+00 1.6825991453e+00 2.9143472085e+00 
5700 5.6636621030e+00 -1.9394973779e-02 1.6831895269e+00 -2.9153697794e+00 1.6831895269e+00 2.9153697794e+00 
5800 5.6636525311e+00 -1.8928687602e-02 1.6837656973e+00 -2.9163677358e+00 1.6837656973e+00 2.9163677358e+00 
5900 5.6636380713e+00 -1.8467308919e-02 1.6843278225e+00 -2.9173413651e+00 1.6843278225e+00 2.9173413651e+00 
6000 5.6636191577e+00 -1.8010669517e-02 1.6848760623e+00 -2.9182909443e+00 1.6848760623e+00 2.9182909443e+00 
6100 5.6635962182e+00 -1.7558615658e-02 1.6854105711e+00 -2.9192167407e+00 1.6854105711e+00 2.9192167407e+00 
6200 5.6635696725e+00 -1.7111007901e-02 1.6859314981e+00 -2.9201190128e+00 1.6859314981e+00 2.9201190128e+00 
6300 5.6635399299e+00 -1.6667720881e-02 1.6864389881e+00 -2.9209980112e+00 1.6864389881e+00 2.9209980112e+00 
6400 5.6635073882e+00 -1.6228643057e-02 1.6869331813e+00 -2.9218539790e+00 1.6869331813e+00 2.9218539790e+00 
6500 5.6634724316e+00 -1.5793676419e-02 1.6874142144e+00 -2.9226871528e+00 1.6874142144e+00 2.9226871528e+00 
6600 5.6634354298e+00 -1.5362736159e-02 1.6878822206e+00 -2.9234977633e+00 1.6878822206e+00 2.9234977633e+00 
6700 5.6633967371e+00 -1.4935750324e-02 1.6883373302e+00 -2.9242860362e+00 1.6883373302e+00 2.9242860362e+00 
6800 5.6633566909e+00 -1.4512659422e-02 1.6887796707e+00 -2.9250521925e+00 1.6887796707e+00 2.9250521925e+00 
6900 5.6633156119e+00 -1.4093416016e-02 1.6892093679e+00 -2.9257964497e+00 1.6892093679e+00 2.9257964497e+00 
7000 5.6632738027e+00 -1.3677984286e-02 1.6896265451e+00 -2.9265190220e+00 1.6896265451e+00 2.9265190220e+00 
7100 5.6632315479e+00 -1.3266339576e-02 1.6900313248e+00 -2.9272201210e+00 1.6900313248e+00 2.9272201210e+00 
7200 5.6631891137e+00 -1.2858467911e-02 1.6904238280e+00 -2.9278999564e+00 1.6904238280e+00 2.9278999564e+00 
7300 5.6631467478e+00 -1.2454365512e-02 1.6908041749e+00 -2.9285587366e+00 1.6908041749e+00 2.9285587366e+00 
7400 5.6631046794e+00 -1.2054038279e-02 1.6911724854e+00 -2.9291966691e+00 1.6911724854e+00 2.9291966691e+00 
7500 5.6630631193e+00 -1.1657501278e-02 1.6915288790e+00 -2.9298139609e+00 1.6915288790e+00 2.9298139609e+00 
7600 5.6630222601e+00 -1.1264778208e-02 1.6918734755e+00 -2.9304108195e+00 1.6918734755e+00 2.9304108195e+00 
7700 5.6629822765e+00 -1.0875900864e-02 1.6922063948e+00 -2.9309874527e+00 1.6922063948e+00 2.9309874527e+00 
7800 5.6629433256e+00 -1.0490908588e-02 1.6925277576e+00 -2.9315440694e+00 1.6925277576e+00 2.9315440694e+00 
7900 5.6629055473e+00 -1.0109847730e-02 1.6928376854e+00 -2.9320808802e+00 1.6928376854e+00 2.9320808802e+00 
8000 5.6628690652e+00 -9.7327710882e-03 1.6931363008e+00 -2.9325980970e+00 1.6931363008e+00 2.9325980970e+00 
8100 5.6628339865e+00 -9.3597373671e-03 1.6934237273e+00 -2.9330959344e+00 1.6934237273e+00 2.9330959344e+00 
8200 5.6628004032e+00 -8.9908106246e-03 1.6937000903e+00 -2.9335746091e+00 1.6937000903e+00 2.9335746091e+00 
8300 5.6627683924e+00 -8.6260597286e-03 1.6939655164e+00 -2.9340343407e+00 1.6939655164e+00 2.9340343407e+00 
8400 5.6627380171e+00 -8.2655578170e-03 1.6942201342e+00 -2.9344753517e+00 1.6942201342e+00 2.9344753517e+00 
8500 5.6627093269e+00 -7.9093817637e-03 1.6944640741e+00 -2.9348978679e+00 1.6944640741e+00 2.9348978679e+00 
8600 5.6626823585e+00 -7.5576116534e-03 1.6946974683e+00 -2.9353021186e+00 1.6946974683e+00 2.9353021186e+00 
8700 5.6626571370e+00 -7.2103302642e-03 1.6949204514e+00 -2.9356883366e+00 1.6949204514e+00 2.9356883366e+00 
8800 5.6626336759e+00 -6.8676225619e-03 1.6951331599e+00 -2.9360567586e+00 1.6951331599e+00 2.9360567586e+00 
8900 5.6626119786e+00 -6.5295752045e-03 1.6953357328e+00 -2.9364076251e+00 1.6953357328e+00 2.9364076251e+00 
9000 5.6625920384e+00 -6.1962760603e-03 1.6955283111e+00 -2.9367411805e+00 1.6955283111e+00 2.9367411805e+00 
9100 5.6625738399e+00 -5.8678137384e-03 1.6957110385e+00 -2.9370576736e+00 1.6957110385e+00 2.9370576736e+00 
9200 5.6625573595e+00 -5.5442771344e-03 1.6958840607e+00 -2.9373573568e+00 1.6958840607e+00 2.9373573568e+00 
9300 5.6625425659e+00 -5.2257549905e-03 1.6960475260e+00 -2.9376404871e+00 1.6960475260e+00 2.9376404871e+00 
9400 5.6625294211e+00 -4.9123354716e-03 1.6962015852e+00 -2.9379073255e+00 1.6962015852e+00 2.9379073255e+00 
9500 5.6625178811e+00 -4.6041057583e-03 1.6963463913e+00 -2.9381581369e+00 1.6963463913e+00 2.9381581369e+00 
9600 5.6625078963e+00 -4.3011516563e-03 1.6964820996e+00 -2.9383931907e+00 1.6964820996e+00 2.9383931907e+00 
9700 5.6624994125e+00 -4.0035572229e-03 1.6966088680e+00 -2.9386127599e+00 1.6966088680e+00 2.9386127599e+00 
9800 5.6624923714e+00 -3.7114044127e-03 1.6967268564e+00 -2.9388171219e+00 1.6967268564e+00 2.9388171219e+00 
9900 5.6624867111e+00 -3.4247727402e-03 1.6968362271e+00 -2.9390065575e+00 1.6968362271e+00 2.9390065575e+00 
10000 5.6624823667e+00 -3.1437389615e-03 1.6969371445e+00 -2.9391813516e+00 1.6969371445e+00 2.9391813516e+00 
10100 5.6624792711e+00 -2.8683767745e-03 1.6970297752e+00 -2.9393417925e+00 1.6970297752e+00 2.9393417925e+00 
10200 5.6624773552e+00 -2.5987565380e-03 1.6971142876e+00 -2.9394881723e+00 1.6971142876e+00 2.9394881723e+00 
10300 5.6624765487e+00 -2.3349450099e-03 1.6971908521e+00 -2.9396207860e+00 1.6971908521e+00 2.9396207860e+00 
10400 5.6624767803e+00 -2.0770051040e-03 1.6972596411e+00 -2.9397399320e+00 1.6972596411e+00 2.9397399320e+00 
10500 5.6624779783e+00 -1.8249956660e-03 1.6973208285e+00 -2.9398459117e+00 1.6973208285e+00 2.9398459117e+00 
10600 5.6624800710e+00 -1.5789712686e-03 1.6973745898e+00 -2.9399390291e+00 1.6973745898e+00 2.9399390291e+00 
10700 5.6624829870e+00 -1.3389820245e-03 1.6974211022e+00 -2.9400195909e+00 1.6974211022e+00 2.9400195909e+00 
10800 5.6624866555e+00 -1.1050734193e-03 1.6974605440e+00 -2.9400879061e+00 1.6974605440e+00 2.9400879061e+00 
10900 5.6624910069e+00 -8.7728616170e-04 1.6974930949e+00 -2.9401442859e+00 1.6974930949e+00 2.9401442859e+00 
11000 5.6624959729e+00 -6.5565605232e-04 1.6975189356e+00 -2.9401890433e+00 1.6975189356e+00 2.9401890433e+00 
11100 5.6625014866e+00 -4.4021387024e-04 1.6975382478e+00 -2.9402224930e+00 1.6975382478e+00 2.9402224930e+00 
11200 5.6625074832e+00 -2.3098527715e-04 1.6975512141e+00 -2.9402449513e+00 1.6975512141e+00 2.9402449513e+00 
11300 5.6625138996e+00 -2.7990738613e-05 1.6975580176e+00 -2.9402567353e+00 1.6975580176e+00 2.9402567353e+00 
11400 5.6625206748e+00 1.6802981383e-04 1.6975580176e+00 -2.9402567353e+00 1.6975580176e+00 2.9402567353e+00 
11500 5.6625277508e+00 3.5853059388e-04 1.6975530684e+00 -2.9402481631e+00 1.6975530684e+00 2.9402481631e+00 
11600 5.6625350717e+00 5.4276733204e-04 1.6975425082e+00 -2.9402298722e+00 1.6975425082e+00 2.9402298722e+00 
11700 5.6625425844e+00 7.2074081999e-04 1.6975265214e+00 -2.9402021822e+00 1.6975265214e+00 2.9402021822e+00 
11800 5.6625502383e+00 8.9245719595e-04 1.6975052923e+00 -2.9401654124e+00 1.6975052923e+00 2.9401654124e+00 
11900 5.6625579858e+00 1.0579279298e-03 1.6974790050e+00 -2.9401198815e+00 1.6974790050e+00 2.9401198815e+00 
12000 5.6625657819e+00 1.2171697945e-03 1.6974478434e+00 -2.9400659080e+00 1.6974478434e+00 2.9400659080e+00 
12100 5.6625735847e+00 1.3702048240e-03 1.6974119906e+00 -2.9400038091e+00 1.6974119906e+00 2.9400038091e+00 
12200 5.6625813550e+00 1.5170602585e-03 1.6973716292e+00 -2.9399339010e+00 1.6973716292e+00 2.9399339010e+00 
12300 5.6625890566e+00 1.6577684780e-03 1.6973269408e+00 -2.9398564986e+00 1.6973269408e+00 2.9398564986e+00 
12400 5.6625966562e+00 1.7923669238e-03 1.6972781064e+00 -2.9397719148e+00 1.6972781064e+00 2.9397719148e+00 
12500 5.6626041232e+00 1.9208980093e-03 1.6972253054e+00 -2.9396804609e+00 1.6972253054e+00 2.9396804609e+00 
12600 5.6626114300e+00 2.0434090208e-03 1.6971687164e+00 -2.9395824458e+00 1.6971687164e+00 2.9395824458e+00 
12700 5.6626185516e+00 2.1599520083e-03 1.6971085162e+00 -2.9394781761e+00 1.6971085162e+00 2.9394781761e+00 
12800 5.6626254658e+00 2.2705836672e-03 1.6970448804e+00 -2.9393679556e+00 1.6970448804e+00 2.9393679556e+00 
12900 5.6626321528e+00 2.3753652120e-03 1.6969779827e+00 -2.9392520853e+00 1.6969779827e+00 2.9392520853e+00 
13000 5.6626385957e+00 2.4743622419e-03 1.6969079950e+00 -2.9391308632e+00 1.6969079950e+00 2.9391308632e+00 
13100 5.6626447797e+00 2.5676445993e-03 1.6968350876e+00 -2.9390045838e+00 1.6968350876e+00 2.9390045838e+00 
13200 5.6626506925e+00 2.6552862215e-03 1.6967594284e+00 -2.9388735381e+00 1.6967594284e+00 2.9388735381e+00 
13300 5.6626563241e+00 2.7373649872e-03 1.6966811831e+00 -2.9387380135e+00 1.6966811831e+00 2.9387380135e+00 
13400 5.6626616665e+00 2.8139625567e-03 1.6966005156e+00 -2.9385982931e+00 1.6966005156e+00 2.9385982931e+00 
13500 5.6626667138e+00 2.8851642080e-03 1.6965175868e+00 -2.9384546563e+00 1.6965175868e+00 2.9384546563e+00 
13600 5.6626714620e+00 2.9510586684e-03 1.6964325556e+00 -2.9383073778e+00 1.6964325556e+00 2.9383073778e+00 
13700 5.6626759091e+00 3.0117379429e-03 1.6963455779e+00 -2.9381567282e+00 1.6963455779e+00 2.9381567282e+00 
13800 5.6626800545e+00 3.0672971390e-03 1.6962568074e+00 -2.9380029730e+00 1.6962568074e+00 2.9380029730e+00 
13900 5.6626838993e+00 3.1178342896e-03 1.6961663945e+00 -2.9378463733e+00 1.6961663945e+00 2.9378463733e+00 
14000 5.6626874462e+00 3.1634501735e-03 1.6960744870e+00 -2.9376871849e+00 1.6960744870e+00 2.9376871849e+00 
14100 5.6626906990e+00 3.2042481346e-03 1.6959812299e+00 -2.9375256588e+00 1.6959812299e+00 2.9375256588e+00 
14200 5.6626936630e+00 3.2403339001e-03 1.6958867648e+00 -2.9373620406e+00 1.6958867648e+00 2.9373620406e+00 
14300 5.6626963442e+00 3.2718153988e-03 1.6957912306e+00 -2.9371965705e+00 1.6957912306e+00 2.9371965705e+00 
14400 5.6626987501e+00 3.2988025780e-03 1.6956947629e+00 -2.9370294834e+00 1.6956947629e+00 2.9370294834e+00 
14500 5.6627008889e+00 3.3214072227e-03 1.6955974939e+00 -2.9368610085e+00 1.6955974939e+00 2.9368610085e+00 
14600 5.6627027694e+00 3.3397427740e-03 1.6954995527e+00 -2.9366913695e+00 1.6954995527e+00 2.9366913695e+00 
14700 5.6627044014e+00 3.3539241497e-03 1.6954010652e+00 -2.9365207841e+00 1.6954010652e+00 2.9365207841e+00 
14800 5.6627057951e+00 3.3640675664e-03 1.6953021538e+00 -2.9363494645e+00 1.6953021538e+00 2.9363494645e+00 
14900 5.6627069613e+00 3.3702903635e-03 1.6952029374e+00 -2.9361776167e+00 1.6952029374e+00 2.9361776167e+00 
15000 5.6627079111e+00 3.3727108294e-03 1.6951035317e+00 -2.9360054409e+00 1.6951035317e+00 2.9360054409e+00 
15100 5.6627086560e+00 3.3714480308e-03 1.6950040487e+00 -2.9358331314e+00 1.6950040487e+00 2.9358331314e+00 
15200 5.6627092079e+00 3.3666216445e-03 1.6949045972e+00 -2.9356608763e+00 1.6949045972e+00 2.9356608763e+00 
15300 5.6627095784e+00 3.3583517929e-03 1.6948052822e+00 -2.9354888577e+00 1.6948052822e+00 2.9354888577e+00 
15400 5.6627097798e+00 3.3467588829e-03 1.6947062053e+00 -2.9353172516e+00 1.6947062053e+00 2.9353172516e+00 
15500 5.6627098238e+00 3.3319634480e-03 1.6946074647e+00 -2.9351462278e+00 1.6946074647e+00 2.9351462278e+00 
15600 5.6627097226e+00 3.3140859954e-03 1.6945091549e+00 -2.9349759502e+00 1.6945091549e+00 2.9349759502e+00 
15700 5.6627094879e+00 3.2932468566e-03 1.6944113669e+00 -2.9348065764e+00 1.6944113669e+00 2.9348065764e+00 
15800 5.6627091315e+00 3.2695660420e-03 1.6943141881e+00 -2.9346382578e+00 1.6943141881e+00 2.9346382578e+00 
15900 5.6627086649e+00 3.2431631012e-03 1.6942177026e+00 -2.9344711401e+00 1.6942177026e+00 2.9344711401e+00 
16000 5.6627080993e+00 3.2141569870e-03 1.6941219908e+00 -2.9343053624e+00 1.6941219908e+00 2.9343053624e+00 
16100 5.6627074456e+00 3.1826659242e-03 1.6940271297e+00 -2.9341410580e+00 1.6940271297e+00 2.9341410580e+00 
16200 5.6627067146e+00 3.1488072837e-03 1.6939331927e+00 -2.9339783544e+00 1.6939331927e+00 2.9339783544e+00 
16300 5.6627059164e+00 3.1126974616e-03 1.6938402499e+00 -2.9338173727e+00 1.6938402499e+00 2.9338173727e+00 
16400 5.6627050609e+00 3.0744517630e-03 1.6937483679e+00 -2.9336582284e+00 1.6937483679e+00 2.9336582284e+00 
16500 5.6627041576e+00 3.0341842907e-03 1.6936576099e+00 -2.9335010309e+00 1.6936576099e+00 2.9335010309e+00 
16600 5.6627032156e+00 2.9920078403e-03 1.6935680357e+00 -2.9333458840e+00 1.6935680357e+00 2.9333458840e+00 
16700 5.6627022434e+00 2.9480337984e-03 1.6934797021e+00 -2.9331928856e+00 1.6934797021e+00 2.9331928856e+00 
16800 5.6627012491e+00 2.9023720481e-03 1.6933926621e+00 -2.9330421279e+00 1.6933926621e+00 2.9330421279e+00 
16900 5.6627002404e+00 2.8551308785e-03 1.6933069659e+00 -2.9328936977e+00 1.6933069659e+00 2.9328936977e+00 
17000 5.6626992245e+00 2.8064168990e-03 1.6932226602e+00 -2.9327476760e+00 1.6932226602e+00 2.9327476760e+00 
17100 5.6626982080e+00 2.7563349603e-03 1.6931397888e+00 -2.9326041386e+00 1.6931397888e+00 2.9326041386e+00 
17200 5.6626971971e+00 2.7049880789e-03 1.6930583923e+00 -2.9324631557e+00 1.6930583923e+00 2.9324631557e+00 
17300 5.6626961976e+00 2.6524773673e-03 1.6929785083e+00 -2.9323247925e+00 1.6929785083e+00 2.9323247925e+00 
17400 5.6626952147e+00 2.5989019696e-03 1.6929001713e+00 -2.9321891088e+00 1.6929001713e+00 2.9321891088e+00 
17500 5.6626942532e+00 2.5443590011e-03 1.6928234130e+00 -2.9320561596e+00 1.6928234130e+00 2.9320561596e+00 
17600 5.6626933174e+00 2.4889434937e-03 1.6927482622e+00 -2.9319259946e+00 1.6927482622e+00 2.9319259946e+00 
17700 5.6626924111e+00 2.4327483457e-03 1.6926747449e+00 -2.9317986589e+00 1.6926747449e+00 2.9317986589e+00 
17800 5.6626915378e+00 2.3758642756e-03 1.6926028844e+00 -2.9316741928e+00 1.6926028844e+00 2.9316741928e+00 
17900 5.6626907004e+00 2.3183797819e-03 1.6925327011e+00 -2.9315526318e+00 1.6925327011e+00 2.9315526318e+00 
18000 5.6626899015e+00 2.2603811062e-03 1.6924642131e+00 -2.9314340071e+00 1.6924642131e+00 2.9314340071e+00 
18100 5.6626891434e+00 2.2019522012e-03 1.6923974357e+00 -2.9313183453e+00 1.6923974357e+00 2.9313183453e+00 
18200 5.6626884277e+00 2.1431747028e-03 1.6923323819e+00 -2.9312056688e+00 1.6923323819e+00 2.9312056688e+00 
18300 5.6626877559e+00 2.0841279065e-03 1.6922690622e+00 -2.9310959957e+00 1.6922690622e+00 2.9310959957e+00 
18400 5.6626871292e+00 2.0248887476e-03 1.6922074846e+00 -2.9309893403e+00 1.6922074846e+00 2.9309893403e+00 
18500 5.6626865482e+00 1.9655317856e-03 1.6921476552e+00 -2.9308857127e+00 1.6921476552e+00 2.9308857127e+00 
18600 5.6626860135e+00 1.9061291923e-03 1.6920895775e+00 -2.9307851191e+00 1.6920895775e+00 2.9307851191e+00 
18700 5.6626855251e+00 1.8467507431e-03 1.6920332531e+00 -2.9306875624e+00 1.6920332531e+00 2.9306875624e+00 
18800 5.6626850831e+00 1.7874638128e-03 1.6919786814e+00 -2.9305930416e+00 1.6919786814e+00 2.9305930416e+00 
18900 5.6626846870e+00 1.7283333737e-03 1.6919258600e+00 -2.9305015522e+00 1.6919258600e+00 2.9305015522e+00 
19000 5.6626843362e+00 1.6694219977e-03 1.6918747843e+00 -2.9304130865e+00 1.6918747843e+00 2.9304130865e+00 
19100 5.6626840301e+00 1.6107898616e-03 1.6918254481e+00 -2.9303276337e+00 1.6918254481e+00 2.9303276337e+00 
19200 5.6626837675e+00 1.5524947546e-03 1.6917778433e+00 -2.9302451797e+00 1.6917778433e+00 2.9302451797e+00 
19300 5.6626835473e+00 1.4945920896e-03 1.6917319599e+00 -2.9301657074e+00 1.6917319599e+00 2.9301657074e+00 
19400 5.6626833683e+00 1.4371349167e-03 1.6916877867e+00 -2.9300891971e+00 1.6916877867e+00 2.9300891971e+00 
19500 5.6626832290e+00 1.3801739398e-03 1.6916453105e+00 -2.9300156262e+00 1.6916453105e+00 2.9300156262e+00 
19600 5.6626831278e+00 1.3237575348e-03 1.6916045169e+00 -2.9299449695e+00 1.6916045169e+00 2.9299449695e+00 
19700 5.6626830631e+00 1.2679317712e-03 1.6915653897e+00 -2.9298771993e+00 1.6915653897e+00 2.9298771993e+00 
19800 5.6626830330e+00 1.2127404355e-03 1.6915279118e+00 -2.9298122857e+00 1.6915279118e+00 2.9298122857e+00 
19900 5.6626830359e+00 1.1582250563e-03 1.6914920644e+00 -2.9297501962e+00 1.6914920644e+00 2.9297501962e+00 
20000 5.6626830698e+00 1.1044249324e-03 1.6914578278e+00 -2.9296908966e+00 1.6914578278e+00 2.9296908966e+00 
20100 5.6626831329e+00 1.0513771614e-03 1.6914251807e+00 -2.9296343503e+00 1.6914251807e+00 2.9296343503e+00 
20200 5.6626832230e+00 9.9911667183e-04 1.6913941012e+00 -2.9295805189e+00 1.6913941012e+00 2.9295805189e+00 
20300 5.6626833384e+00 9.4767625502e-04 1.6913645660e+00 -2.9295293624e+00 1.6913645660e+00 2.9295293624e+00 
20400 5.6626834771e+00 8.9708660003e-04 1.6913365509e+00 -2.9294808389e+00 1.6913365509e+00 2.9294808389e+00 
20500 5.6626836370e+00 8.4737632921e-04 1.6913100310e+00 -2.9294349050e+00 1.6913100310e+00 2.9294349050e+00 
20600 5.6626838162e+00 7.9857203531e-04 1.6912849801e+00 -2.9293915157e+00 1.6912849801e+00 2.9293915157e+00 
20700 5.6626840128e+00 7.5069831986e-04 1.6912613718e+00 -2.9293506248e+00 1.6912613718e+00 2.9293506248e+00 
20800 5.6626842250e+00 7.0377783255e-04 1.6912391784e+00 -2.9293121847e+00 1.6912391784e+00 2.9293121847e+00 
20900 5.6626844509e+00 6.5783131176e-04 1.6912183718e+00 -2.9292761467e+00 1.6912183718e+00 2.9292761467e+00 
21000 5.6626846886e+00 6.1287762593e-04 1.6911989234e+00 -2.9292424611e+00 1.6911989234e+00 2.9292424611e+00 
21100 5.6626849365e+00 5.6893381580e-04 1.6911808038e+00 -2.9292110770e+00 1.6911808038e+00 2.9292110770e+00 
21200 5.6626851929e+00 5.2601513745e-04 1.6911639832e+00 -2.9291819429e+00 1.6911639832e+00 2.9291819429e+00 
21300 5.6626854562e+00 4.8413510595e-04 1.6911484314e+00 -2.9291550063e+00 1.6911484314e+00 2.9291550063e+00 
21400 5.6626857248e+00 4.4330553957e-04 1.6911341176e+00 -2.9291302141e+00 1.6911341176e+00 2.9291302141e+00 
21500 5.6626859972e+00 4.0353660460e-04 1.6911210109e+00 -2.9291075126e+00 1.6911210109e+00 2.9291075126e+00 
21600 5.6626862721e+00 3.6483686049e-04 1.6911090799e+00 -2.9290868475e+00 1.6911090799e+00 2.9290868475e+00 
21700 5.6626865481e+00 3.2721330541e-04 1.6910982930e+00 -2.9290681640e+00 1.6910982930e+00 2.9290681640e+00 
21800 5.6626868240e+00 2.9067142208e-04 1.6910886184e+00 -2.9290514072e+00 1.6910886184e+00 2.9290514072e+00 
21900 5.6626870986e+00 2.5521522377e-04 1.6910800242e+00 -2.9290365216e+00 1.6910800242e+00 2.9290365216e+00 
22000 5.6626873708e+00 2.2084730053e-04 1.6910724783e+00 -2.9290234517e+00 1.6910724783e+00 2.9290234517e+00 
22100 5.6626876398e+00 1.8756886543e-04 1.6910659485e+00 -2.9290121417e+00 1.6910659485e+00 2.9290121417e+00 
22200 5.6626879044e+00 1.5537980088e-04 1.6910604026e+00 -2.9290025360e+00 1.6910604026e+00 2.9290025360e+00 
22300 5.6626881640e+00 1.2427870488e-04 1.6910558085e+00 -2.9289945787e+00 1.6910558085e+00 2.9289945787e+00 
22400 5.6626884177e+00 9.4262937238e-05 1.6910521339e+00 -2.9289882141e+00 1.6910521339e+00 2.9289882141e+00 
22500 5.6626886648e+00 6.5328665547e-05 1.6910493468e+00 -2.9289833867e+00 1.6910493468e+00 2.9289833867e+00 
22600 5.6626889048e+00 3.9201882821e-05 1.6910493468e+00 -2.9289833867e+00 1.6910493468e+00 2.9289833867e+00 
22700 5.6626891370e+00 1.3416506642e-05 1.6910493468e+00 -2.9289833867e+00 1.6910493468e+00 2.9289833867e+00 
22800 5.6626893610e+00 -1.2010024114e-05 1.6910493468e+00 -2.9289833867e+00 1.6910493468e+00 2.9289833867e+00 
22900 5.6626895765e+00 -3.7061360821e-05 1.6910493468e+00 -2.9289833867e+00 1.6910493468e+00 2.9289833867e+00 
23000 5.6626897833e+00 -6.1722220887e-05 1.6910493468e+00 -2.9289833867e+00 1.6910493468e+00 2.9289833867e+00 
23100 5.6626899812e+00 -8.5978363405e-05 1.6910493468e+00 -2.9289833867e+00 1.6910493468e+00 2.9289833867e+00 
23200 5.6626901696e+00 -1.0753891955e-04 1.6910518889e+00 -2.9289877898e+00 1.6910518889e+00 2.9289877898e+00 
23300 5.6626903485e+00 -1.2808623323e-04 1.6910550686e+00 -2.9289932972e+00 1.6910550686e+00 2.9289932972e+00 
23400 5.6626905179e+00 -1.4763283261e-04 1.6910588557e+00 -2.9289998567e+00 1.6910588557e+00 2.9289998567e+00 
23500 5.6626906778e+00 -1.6619199569e-04 1.6910632208e+00 -2.9290074173e+00 1.6910632208e+00 2.9290074173e+00 
23600 5.6626908280e+00 -1.8377770857e-04 1.6910681347e+00 -2.9290159283e+00 1.6910681347e+00 2.9290159283e+00 
23700 5.6626909688e+00 -2.0040462444e-04 1.6910735685e+00 -2.9290253399e+00 1.6910735685e+00 2.9290253399e+00 
23800 5.6626911002e+00 -2.1608802313e-04 1.6910794938e+00 -2.9290356029e+00 1.6910794938e+00 2.9290356029e+00 
23900 5.6626912222e+00 -2.3084377131e-04 1.6910858829e+00 -2.9290466691e+00 1.6910858829e+00 2.9290466691e+00 
24000 5.6626913352e+00 -2.4468828336e-04 1.6910927082e+00 -2.9290584909e+00 1.6910927082e+00 2.9290584909e+00 
24100 5.6626914393e+00 -2.5763848304e-04 1.6910999428e+00 -2.9290710217e+00 1.6910999428e+00 2.9290710217e+00 
24200 5.6626915347e+00 -2.6971176570e-04 1.6911075603e+00 -2.9290842155e+00 1.6911075603e+00 2.9290842155e+00 
24300 5.6626916217e+00 -2.8092596136e-04 1.6911155347e+00 -2.9290980276e+00 1.6911155347e+00 2.9290980276e+00 
24400 5.6626917006e+00 -2.9129929855e-04 1.6911238407e+00 -2.9291124139e+00 1.6911238407e+00 2.9291124139e+00 
24500 5.6626917716e+00 -3.0085036879e-04 1.6911324533e+00 -2.9291273314e+00 1.6911324533e+00 2.9291273314e+00 
24600 5.6626918351e+00 -3.0959809198e-04 1.6911413482e+00 -2.9291427379e+00 1.6911413482e+00 2.9291427379e+00 
24700 5.6626918914e+00 -3.1756168256e-04 1.6911505018e+00 -2.9291585923e+00 1.6911505018e+00 2.9291585923e+00 
24800 5.6626919408e+00 -3.2476061640e-04 1.6911598907e+00 -2.9291748544e+00 1.6911598907e+00 2.9291748544e+00 
24900 5.6626919838e+00 -3.3121459859e-04 1.6911694924e+00 -2.9291914851e+00 1.6911694924e+00 2.9291914851e+00 
25000 5.6626920206e+00 -3.3694353205e-04 1.6911792849e+00 -2.9292084461e+00 1.6911792849e+00 2.9292084461e+00 
25100 5.6626920516e+00 -3.4196748689e-04 1.6911892467e+00 -2.9292257005e+00 1.6911892467e+00 2.9292257005e+00 
25200 5.6626920772e+00 -3.4630667074e-04 1.6911993570e+00 -2.9292432120e+00 1.6911993570e+00 2.9292432120e+00 
25300 5.6626920977e+00 -3.4998139979e-04 1.6912095955e+00 -2.9292609456e+00 1.6912095955e+00 2.9292609456e+00 
25400 5.6626921135e+00 -3.5301207080e-04 1.6912199426e+00 -2.9292788673e+00 1.6912199426e+00 2.9292788673e+00 
25500 5.6626921249e+00 -3.5541913387e-04 1.6912303792e+00 -2.9292969440e+00 1.6912303792e+00 2.9292969440e+00 
25600 5.6626921324e+00 -3.5722306613e-04 1.6912408869e+00 -2.9293151440e+00 1.6912408869e+00 2.9293151440e+00 
25700 5.6626921362e+00 -3.5844434625e-04 1.6912514479e+00 -2.9293334361e+00 1.6912514479e+00 2.9293334361e+00 
25800 5.6626921367e+00 -3.5910342983e-04 1.6912620449e+00 -2.9293517907e+00 1.6912620449e+00 2.9293517907e+00 
25900 5.6626921343e+00 -3.5922072564e-04 1.6912726614e+00 -2.9293701789e+00 1.6912726614e+00 2.9293701789e+00 
26000 5.6626921291e+00 -3.5881657270e-04 1.6912832812e+00 -2.9293885730e+00 1.6912832812e+00 2.9293885730e+00 
26100 5.6626921216e+00 -3.5791121827e-04 1.6912938890e+00 -2.9294069463e+00 1.6912938890e+00 2.9294069463e+00 
26200 5.6626921121e+00 -3.5652479662e-04 1.6913044700e+00 -2.9294252732e+00 1.6913044700e+00 2.9294252732e+00 
26300 5.6626921008e+00 -3.5467730868e-04 1.6913150100e+00 -2.9294435289e+00 1.6913150100e+00 2.9294435289e+00 
26400 5.6626920880e+00 -3.5238860257e-04 1.6913254952e+00 -2.9294616899e+00 1.6913254952e+00 2.9294616899e+00 
26500 5.6626920739e+00 -3.4967835493e-04 1.6913359128e+00 -2.9294797336e+00 1.6913359128e+00 2.9294797336e+00 
26600 5.6626920589e+00 -3.4656605303e-04 1.6913462501e+00 -2.9294976384e+00 1.6913462501e+00 2.9294976384e+00 
26700 5.6626920431e+00 -3.4307097785e-04 1.6913564954e+00 -2.9295153838e+00 1.6913564954e+00 2.9295153838e+00 
26800 5.6626920268e+00 -3.3921218785e-04 1.6913666373e+00 -2.9295329501e+00 1.6913666373e+00 2.9295329501e+00 
26900 5.6626920101e+00 -3.3500850359e-04 1.6913766651e+00 -2.9295503187e+00 1.6913766651e+00 2.9295503187e+00 
27000 5.6626919933e+00 -3.3047849316e-04 1.6913865685e+00 -2.9295674719e+00 1.6913865685e+00 2.9295674719e+00 
27100 5.6626919765e+00 -3.2564045843e-04 1.6913963380e+00 -2.9295843931e+00 1.6913963380e+00 2.9295843931e+00 
27200 5.6626919599e+00 -3.2051242201e-04 1.6914059644e+00 -2.9296010665e+00 1.6914059644e+00 2.9296010665e+00 
27300 5.6626919437e+00 -3.1511211506e-04 1.6914154391e+00 -2.9296174773e+00 1.6914154391e+00 2.9296174773e+00 
27400 5.6626919279e+00 -3.0945696582e-04 1.6914247542e+00 -2.9296336114e+00 1.6914247542e+00 2.9296336114e+00 
27500 5.6626919127e+00 -3.0356408888e-04 1.6914339020e+00 -2.9296494559e+00 1.6914339020e+00 2.9296494559e+00 
27600 5.6626918982e+00 -2.9745027526e-04 1.6914428756e+00 -2.9296649986e+00 1.6914428756e+00 2.9296649986e+00 
27700 5.6626918846e+00 -2.9113198309e-04 1.6914516684e+00 -2.9296802282e+00 1.6914516684e+00 2.9296802282e+00 
27800 5.6626918718e+00 -2.8462532916e-04 1.6914602744e+00 -2.9296951342e+00 1.6914602744e+00 2.9296951342e+00 
27900 5.6626918599e+00 -2.7794608104e-04 1.6914686880e+00 -2.9297097070e+00 1.6914686880e+00 2.9297097070e+00 
28000 5.6626918491e+00 -2.7110964995e-04 1.6914769041e+00 -2.9297239377e+00 1.6914769041e+00 2.9297239377e+00 
28100 5.6626918393e+00 -2.6413108431e-04 1.6914849181e+00 -2.9297378184e+00 1.6914849181e+00 2.9297378184e+00 
28200 5.6626918306e+00 -2.5702506389e-04 1.6914927258e+00 -2.9297513417e+00 1.6914927258e+00 2.9297513417e+00 
28300 5.6626918231e+00 -2.4980589469e-04 1.6915003234e+00 -2.9297645011e+00 1.6915003234e+00 2.9297645011e+00 
28400 5.6626918167e+00 -2.4248750438e-04 1.6915077075e+00 -2.9297772908e+00 1.6915077075e+00 2.9297772908e+00 
28500 5.6626918115e+00 -2.3508343840e-04 1.6915148753e+00 -2.9297897058e+00 1.6915148753e+00 2.9297897058e+00 
28600 5.6626918074e+00 -2.2760685660e-04 1.6915218242e+00 -2.9298017416e+00 1.6915218242e+00 2.9298017416e+00 
28700 5.6626918046e+00 -2.2007053056e-04 1.6915285521e+00 -2.9298133947e+00 1.6915285521e+00 2.9298133947e+00 
28800 5.6626918028e+00 -2.1248684136e-04 1.6915350572e+00 -2.9298246618e+00 1.6915350572e+00 2.9298246618e+00 
28900 5.6626918022e+00 -2.0486777803e-04 1.6915413381e+00 -2.9298355406e+00 1.6915413381e+00 2.9298355406e+00 
29000 5.6626918027e+00 -1.9722493641e-04 1.6915473937e+00 -2.9298460293e+00 1.6915473937e+00 2.9298460293e+00 
29100 5.6626918044e+00 -1.8956951861e-04 1.6915532234e+00 -2.9298561267e+00 1.6915532234e+00 2.9298561267e+00 
29200 5.6626918070e+00 -1.8191233298e-04 1.6915588269e+00 -2.9298658321e+00 1.6915588269e+00 2.9298658321e+00 
29300 5.6626918107e+00 -1.7426379450e-04 1.6915642039e+00 -2.9298751455e+00 1.6915642039e+00 2.9298751455e+00 
29400 5.6626918154e+00 -1.6663392568e-04 1.6915693549e+00 -2.9298840672e+00 1.6915693549e+00 2.9298840672e+00 
29500 5.6626918209e+00 -1.5903235796e-04 1.6915742803e+00 -2.9298925983e+00 1.6915742803e+00 2.9298925983e+00 
29600 5.6626918274e+00 -1.5146833343e-04 1.6915789810e+00 -2.9299007402e+00 1.6915789810e+00 2.9299007402e+00 
29700 5.6626918347e+00 -1.4395070712e-04 1.6915834582e+00 -2.9299084948e+00 1.6915834582e+00 2.9299084948e+00 
29800 5.6626918429e+00 -1.3648794955e-04 1.6915877131e+00 -2.9299158645e+00 1.6915877131e+00 2.9299158645e+00 
29900 5.6626918517e+00 -1.2908814975e-04 1.6915917474e+00 -2.9299228522e+00 1.6915917474e+00 2.9299228522e+00 
30000 5.6626918612e+00 -1.2175901866e-04 1.6915955630e+00 -2.9299294610e+00 1.6915955630e+00 2.9299294610e+00 
30100 5.6626918714e+00 -1.1450789282e-04 1.6915991619e+00 -2.9299356945e+00 1.6915991619e+00 2.9299356945e+00 
30200 5.6626918821e+00 -1.0734173847e-04 1.6916025465e+00 -2.9299415568e+00 1.6916025465e+00 2.9299415568e+00 
30300 5.6626918934e+00 -1.0026715589e-04 1.6916057193e+00 -2.9299470522e+00 1.6916057193e+00 2.9299470522e+00 
30400 5.6626919052e+00 -9.3290384151e-05 1.6916086830e+00 -2.9299521855e+00 1.6916086830e+00 2.9299521855e+00 
30500 5.6626919173e+00 -8.6417306051e-05 1.6916114404e+00 -2.9299569615e+00 1.6916114404e+00 2.9299569615e+00 
30600 5.6626919298e+00 -7.9653453397e-05 1.6916139947e+00 -2.9299613857e+00 1.6916139947e+00 2.9299613857e+00 
30700 5.6626919427e+00 -7.3004012502e-05 1.6916163491e+00 -2.9299654635e+00 1.6916163491e+00 2.9299654635e+00 
30800 5.6626919558e+00 -6.6473829955e-05 1.6916185069e+00 -2.9299692010e+00 1.6916185069e+00 2.9299692010e+00 
30900 5.6626919692e+00 -6.1825120666e-05 1.6916185069e+00 -2.9299692010e+00 1.6916185069e+00 2.9299692010e+00 
31000 5.6626919828e+00 -5.7144348513e-05 1.6916185069e+00 -2.9299692010e+00 1.6916185069e+00 2.9299692010e+00 
31100 5.6626919965e+00 -5.2437919315e-05 1.6916185069e+00 -2.9299692010e+00 1.6916185069e+00 2.9299692010e+00 
31200 5.6626920102e+00 -4.7712023035e-05 1.6916185069e+00 -2.9299692010e+00 1.6916185069e+00 2.9299692010e+00 
31300 5.6626920239e+00 -4.2972635033e-05 1.6916185069e+00 -2.9299692010e+00 1.6916185069e+00 2.9299692010e+00 
31400 5.6626920376e+00 -3.8225517531e-05 1.6916185069e+00 -2.9299692010e+00 1.6916185069e+00 2.9299692010e+00 
31500 5.6626920512e+00 -3.3476221226e-05 1.6916185069e+00 -2.9299692010e+00 1.6916185069e+00 2.9299692010e+00 
31600 5.6626920647e+00 -2.8730087086e-05 1.6916185069e+00 -2.9299692010e+00 1.6916185069e+00 2.9299692010e+00 
31700 5.6626920781e+00 -2.3992248290e-05 1.6916185069e+00 -2.9299692010e+00 1.6916185069e+00 2.9299692010e+00 
31800 5.6626920914e+00 -1.9267632339e-05 1.6916185069e+00 -2.9299692010e+00 1.6916185069e+00 2.9299692010e+00 
31900 5.6626921045e+00 -1.4560963290e-05 1.6916185069e+00 -2.9299692010e+00 1.6916185069e+00 2.9299692010e+00 
32000 5.6626921174e+00 -9.8767641366e-06 1.6916185069e+00 -2.9299692010e+00 1.6916185069e+00 2.9299692010e+00 
32100 5.6626921301e+00 -5.2193593290e-06 1.6916185069e+00 -2.9299692010e+00 1.6916185069e+00 2.9299692010e+00 
32200 5.6626921426e+00 -5.9287739647e-07 1.6916185069e+00 -2.9299692010e+00 1.6916185069e+00 2.9299692010e+00 
32300 5.6626921548e+00 3.9987463009e-06 1.6916185069e+00 -2.9299692010e+00 1.6916185069e+00 2.9299692010e+00 
32400 5.6626921668e+00 8.5517667125e-06 1.6916185069e+00 -2.9299692010e+00 1.6916185069e+00 2.9299692010e+00 
32500 5.6626921785e+00 1.3062626138e-05 1.6916185069e+00 -2.9299692010e+00 1.6916185069e+00 2.9299692010e+00 
32600 5.6626921899e+00 1.7527951174e-05 1.6916185069e+00 -2.9299692010e+00 1.6916185069e+00 2.9299692010e+00 
32700 5.6626922011e+00 2.1944549568e-05 1.6916185069e+00 -2.9299692010e+00 1.6916185069e+00 2.9299692010e+00 
32800 5.6626922119e+00 2.6309406990e-05 1.6916185069e+00 -2.9299692010e+00 1.6916185069e+00 2.9299692010e+00 
32900 5.6626922224e+00 3.0619683736e-05 1.6916185069e+00 -2.9299692010e+00 1.6916185069e+00 2.9299692010e+00 
33000 5.6626922326e+00 3.4872711339e-05 1.6916185069e+00 -2.9299692010e+00 1.6916185069e+00 2.9299692010e+00 
33100 5.6626922425e+00 3.9065989151e-05 1.6916185069e+00 -2.9299692010e+00 1.6916185069e+00 2.9299692010e+00 
33200 5.6626922521e+00 4.3197180828e-05 1.6916185069e+00 -2.9299692010e+00 1.6916185069e+00 2.9299692010e+00 
33300 5.6626922614e+00 4.7264110792e-05 1.6916185069e+00 -2.9299692010e+00 1.6916185069e+00 2.9299692010e+00 
33400 5.6626922703e+00 5.1264760633e-05 1.6916185069e+00 -2.9299692010e+00 1.6916185069e+00 2.9299692010e+00 
33500 5.6626922790e+00 5.5197265468e-05 1.6916185069e+00 -2.9299692010e+00 1.6916185069e+00 2.9299692010e+00 
33600 5.6626922873e+00 5.9059910266e-05 1.6916185069e+00 -2.9299692010e+00 1.6916185069e+00 2.9299692010e+00 
33700 5.6626922953e+00 6.2851126155e-05 1.6916185069e+00 -2.9299692010e+00 1.6916185069e+00 2.9299692010e+00 
33800 5.6626923031e+00 6.6569486674e-05 1.6916185069e+00 -2.9299692010e+00 1.6916185069e+00 2.9299692010e+00 
33900 5.6626923105e+00 7.0213704035e-05 1.6916185069e+00 -2.9299692010e+00 1.6916185069e+00 2.9299692010e+00 
34000 5.6626923176e+00 7.3782625348e-05 1.6916185069e+00 -2.9299692010e+00 1.6916185069e+00 2.9299692010e+00 
34100 5.6626923243e+00 7.5323843889e-05 1.6916163261e+00 -2.9299654237e+00 1.6916163261e+00 2.9299654237e+00 
34200 5.6626923306e+00 7.6736662096e-05 1.6916140997e+00 -2.9299615675e+00 1.6916140997e+00 2.9299615675e+00 
34300 5.6626923366e+00 7.8023419061e-05 1.6916118315e+00 -2.9299576389e+00 1.6916118315e+00 2.9299576389e+00 
34400 5.6626923424e+00 7.9186545506e-05 1.6916095254e+00 -2.9299536445e+00 1.6916095254e+00 2.9299536445e+00 
34500 5.6626923479e+00 8.0228556964e-05 1.6916071848e+00 -2.9299495905e+00 1.6916071848e+00 2.9299495905e+00 
34600 5.6626923531e+00 8.1152047107e-05 1.6916048134e+00 -2.9299454832e+00 1.6916048134e+00 2.9299454832e+00 
34700 5.6626923580e+00 8.1959681219e-05 1.6916024148e+00 -2.9299413286e+00 1.6916024148e+00 2.9299413286e+00 
34800 5.6626923628e+00 8.2654189808e-05 1.6915999922e+00 -2.9299371326e+00 1.6915999922e+00 2.9299371326e+00 
34900 5.6626923673e+00 8.3238362398e-05 1.6915975491e+00 -2.9299329010e+00 1.6915975491e+00 2.9299329010e+00 
35000 5.6626923715e+00 8.3715041463e-05 1.6915950888e+00 -2.9299286396e+00 1.6915950888e+00 2.9299286396e+00 
35100 5.6626923756e+00 8.4087116509e-05 1.6915926143e+00 -2.9299243537e+00 1.6915926143e+00 2.9299243537e+00 
35200 5.6626923794e+00 8.4357518343e-05 1.6915901289e+00 -2.9299200488e+00 1.6915901289e+00 2.9299200488e+00 
35300 5.6626923831e+00 8.4529213470e-05 1.6915876355e+00 -2.9299157301e+00 1.6915876355e+00 2.9299157301e+00 
35400 5.6626923866e+00 8.4605198681e-05 1.6915851369e+00 -2.9299114025e+00 1.6915851369e+00 2.9299114025e+00 
35500 5.6626923900e+00 8.4588495796e-05 1.6915826362e+00 -2.9299070711e+00 1.6915826362e+00 2.9299070711e+00 
35600 5.6626923931e+00 8.4482146561e-05 1.6915801359e+00 -2.9299027405e+00 1.6915801359e+00 2.9299027405e+00 
35700 5.6626923962e+00 8.4289207732e-05 1.6915776388e+00 -2.9298984153e+00 1.6915776388e+00 2.9298984153e+00 
35800 5.6626923991e+00 8.4012746293e-05 1.6915751473e+00 -2.9298941000e+00 1.6915751473e+00 2.9298941000e+00 
35900 5.6626924018e+00 8.3655834872e-05 1.6915726641e+00 -2.9298897988e+00 1.6915726641e+00 2.9298897988e+00 
36000 5.6626924045e+00 8.3221547299e-05 1.6915701913e+00 -2.9298855160e+00 1.6915701913e+00 2.9298855160e+00 
36100 5.6626924071e+00 8.2712954344e-05 1.6915677314e+00 -2.9298812553e+00 1.6915677314e+00 2.9298812553e+00 
36200 5.6626924095e+00 8.2133119607e-05 1.6915652866e+00 -2.9298770207e+00 1.6915652866e+00 2.9298770207e+00 
36300 5.6626924119e+00 8.1485095581e-05 1.6915628589e+00 -2.9298728157e+00 1.6915628589e+00 2.9298728157e+00 
36400 5.6626924142e+00 8.0771919870e-05 1.6915604503e+00 -2.9298686440e+00 1.6915604503e+00 2.9298686440e+00 
36500 5.6626924164e+00 7.9996611581e-05 1.6915580628e+00 -2.9298645087e+00 1.6915580628e+00 2.9298645087e+00 
36600 5.6626924186e+00 7.9162167853e-05 1.6915556982e+00 -2.9298604131e+00 1.6915556982e+00 2.9298604131e+00 
36700 5.6626924207e+00 7.8271560570e-05 1.6915533583e+00 -2.9298563603e+00 1.6915533583e+00 2.9298563603e+00 
36800 5.6626924227e+00 7.7327733226e-05 1.6915510447e+00 -2.9298523530e+00 1.6915510447e+00 2.9298523530e+00 
36900 5.6626924247e+00 7.6333597920e-05 1.6915487590e+00 -2.9298483940e+00 1.6915487590e+00 2.9298483940e+00 
37000 5.6626924267e+00 7.5292032548e-05 1.6915465027e+00 -2.9298444860e+00 1.6915465027e+00 2.9298444860e+00 
37100 5.6626924286e+00 7.4205878108e-05 1.6915442771e+00 -2.9298406312e+00 1.6915442771e+00 2.9298406312e+00 
37200 5.6626924305e+00 7.3077936176e-05 1.6915420837e+00 -2.9298368321e+00 1.6915420837e+00 2.9298368321e+00 
37300 5.6626924324e+00 7.1910966531e-05 1.6915399236e+00 -2.9298330907e+00 1.6915399236e+00 2.9298330907e+00 
37400 5.6626924343e+00 7.0707684895e-05 1.6915377980e+00 -2.9298294090e+00 1.6915377980e+00 2.9298294090e+00 
37500 5.6626924363e+00 7.1341360091e-05 1.6915377980e+00 -2.9298294090e+00 1.6915377980e+00 2.9298294090e+00 
37600 5.6626924381e+00 7.0033899360e-05 1.6915356892e+00 -2.9298257565e+00 1.6915356892e+00 2.9298257565e+00 
37700 5.6626924401e+00 7.0551623715e-05 1.6915356892e+00 -2.9298257565e+00 1.6915356892e+00 2.9298257565e+00 
37800 5.6626924420e+00 7.1018789605e-05 1.6915356892e+00 -2.9298257565e+00 1.6915356892e+00 2.9298257565e+00 
37900 5.6626924438e+00 6.9558192293e-05 1.6915335900e+00 -2.9298221205e+00 1.6915335900e+00 2.9298221205e+00 
38000 5.6626924457e+00 6.9919160307e-05 1.6915335900e+00 -2.9298221205e+00 1.6915335900e+00 2.9298221205e+00 
38100 5.6626924477e+00 7.0234411232e-05 1.6915335900e+00 -2.9298221205e+00 1.6915335900e+00 2.9298221205e+00 
38200 5.6626924496e+00 7.0505575069e-05 1.6915335900e+00 -2.9298221205e+00 1.6915335900e+00 2.9298221205e+00 
38300 5.6626924515e+00 7.0734267920e-05 1.6915335900e+00 -2.9298221205e+00 1.6915335900e+00 2.9298221205e+00 
38400 5.6626924532e+00 6.9050748291e-05 1.6915314991e+00 -2.9298184991e+00 1.6915314991e+00 2.9298184991e+00 
38500 5.6626924551e+00 6.9189319347e-05 1.6915314991e+00 -2.9298184991e+00 1.6915314991e+00 2.9298184991e+00 
38600 5.6626924570e+00 6.9290107031e-05 1.6915314991e+00 -2.9298184991e+00 1.6915314991e+00 2.9298184991e+00 
38700 5.6626924589e+00 6.9354676239e-05 1.6915314991e+00 -2.9298184991e+00 1.6915314991e+00 2.9298184991e+00 
38800 5.6626924608e+00 6.9384571632e-05 1.6915314991e+00 -2.9298184991e+00 1.6915314991e+00 2.9298184991e+00 
38900 5.6626924627e+00 6.9381316700e-05 1.6915314991e+00 -2.9298184991e+00 1.6915314991e+00 2.9298184991e+00 
39000 5.6626924646e+00 6.9346412888e-05 1.6915314991e+00 -2.9298184991e+00 1.6915314991e+00 2.9298184991e+00 
39100 5.6626924664e+00 6.9281338756e-05 1.6915314991e+00 -2.9298184991e+00 1.6915314991e+00 2.9298184991e+00 
39200 5.6626924683e+00 6.9187549219e-05 1.6915314991e+00 -2.9298184991e+00 1.6915314991e+00 2.9298184991e+00 
39300 5.6626924701e+00 6.9066474816e-05 1.6915314991e+00 -2.9298184991e+00 1.6915314991e+00 2.9298184991e+00 
39400 5.6626924720e+00 6.8919521043e-05 1.6915314991e+00 -2.9298184991e+00 1.6915314991e+00 2.9298184991e+00 
39500 5.6626924738e+00 6.8748067734e-05 1.6915314991e+00 -2.9298184991e+00 1.6915314991e+00 2.9298184991e+00 
39600 5.6626924756e+00 6.8553468487e-05 1.6915314991e+00 -2.9298184991e+00 1.6915314991e+00 2.9298184991e+00 
39700 5.6626924774e+00 6.8337050143e-05 1.6915314991e+00 -2.9298184991e+00 1.6915314991e+00 2.9298184991e+00 
39800 5.6626924792e+00 6.8100112314e-05 1.6915314991e+00 -2.9298184991e+00 1.6915314991e+00 2.9298184991e+00 
39900 5.6626924810e+00 6.7843926948e-05 1.6915314991e+00 -2.9298184991e+00 1.6915314991e+00 2.9298184991e+00 
40000 5.6626924828e+00 6.7569737946e-05 1.6915314991e+00 -2.9298184991e+00 1.6915314991e+00 2.9298184991e+00 
40100 5.6626924846e+00 6.7278760825e-05 1.6915314991e+00 -2.9298184991e+00 1.6915314991e+00 2.9298184991e+00 
40200 5.6626924863e+00 6.6972182416e-05 1.6915314991e+00 -2.9298184991e+00 1.6915314991e+00 2.9298184991e+00 
40300 5.6626924881e+00 6.6651160608e-05 1.6915314991e+00 -2.9298184991e+00 1.6915314991e+00 2.9298184991e+00 
40400 5.6626924898e+00 6.6316824135e-05 1.6915314991e+00 -2.9298184991e+00 1.6915314991e+00 2.9298184991e+00 
40500 5.6626924915e+00 6.5970272400e-05 1.6915314991e+00 -2.9298184991e+00 1.6915314991e+00 2.9298184991e+00 
40600 5.6626924932e+00 6.5612575327e-05 1.6915314991e+00 -2.9298184991e+00 1.6915314991e+00 2.9298184991e+00 
40700 5.6626924948e+00 6.5244773274e-05 1.6915314991e+00 -2.9298184991e+00 1.6915314991e+00 2.9298184991e+00 
40800 5.6626924965e+00 6.4867876961e-05 1.6915314991e+00 -2.9298184991e+00 1.6915314991e+00 2.9298184991e+00 
40900 5.6626924981e+00 6.4482867434e-05 1.6915314991e+00 -2.9298184991e+00 1.6915314991e+00 2.9298184991e+00 
41000 5.6626924998e+00 6.4090696075e-05 1.6915314991e+00 -2.9298184991e+00 1.6915314991e+00 2.9298184991e+00 
41100 5.6626925014e+00 6.3692284637e-05 1.6915314991e+00 -2.9298184991e+00 1.6915314991e+00 2.9298184991e+00 
41200 5.6626925029e+00 6.3288525308e-05 1.6915314991e+00 -2.9298184991e+00 1.6915314991e+00 2.9298184991e+00 
41300 5.6626925045e+00 6.2880280807e-05 1.6915314991e+00 -2.9298184991e+00 1.6915314991e+00 2.9298184991e+00 
41400 5.6626925060e+00 6.2468384514e-05 1.6915314991e+00 -2.9298184991e+00 1.6915314991e+00 2.9298184991e+00 
41500 5.6626925075e+00 6.2053640618e-05 1.6915314991e+00 -2.9298184991e+00 1.6915314991e+00 2.9298184991e+00 
41600 5.6626925090e+00 6.1636824302e-05 1.6915314991e+00 -2.9298184991e+00 1.6915314991e+00 2.9298184991e+00 
41700 5.6626925105e+00 6.1218681947e-05 1.6915314991e+00 -2.9298184991e+00 1.6915314991e+00 2.9298184991e+00 
41800 5.6626925119e+00 6.0799931364e-05 1.6915314991e+00 -2.9298184991e+00 1.6915314991e+00 2.9298184991e+00 
41900 5.6626925134e+00 6.0381262044e-05 1.6915314991e+00 -2.9298184991e+00 1.6915314991e+00 2.9298184991e+00 
42000 5.6626925148e+00 5.9963335442e-05 1.6915314991e+00 -2.9298184991e+00 1.6915314991e+00 2.9298184991e+00 
42100 5.6626925161e+00 5.9546785264e-05 1.6915314991e+00 -2.9298184991e+00 1.6915314991e+00 2.9298184991e+00 
42200 5.6626925175e+00 5.9132217793e-05 1.6915314991e+00 -2.9298184991e+00 1.6915314991e+00 2.9298184991e+00 
42300 5.6626925188e+00 5.8720212226e-05 1.6915314991e+00 -2.9298184991e+00 1.6915314991e+00 2.9298184991e+00 
42400 5.6626925201e+00 5.8311321024e-05 1.6915314991e+00 -2.9298184991e+00 1.6915314991e+00 2.9298184991e+00 
42500 5.6626925214e+00 5.7906070285e-05 1.6915314991e+00 -2.9298184991e+00 1.6915314991e+00 2.9298184991e+00 
42600 5.6626925227e+00 5.7504960138e-05 1.6915314991e+00 -2.9298184991e+00 1.6915314991e+00 2.9298184991e+00 
42700 5.6626925239e+00 5.7108465142e-05 1.6915314991e+00 -2.9298184991e+00 1.6915314991e+00 2.9298184991e+00 
42800 5.6626925252e+00 5.6717034702e-05 1.6915314991e+00 -2.9298184991e+00 1.6915314991e+00 2.9298184991e+00 
42900 5.6626925264e+00 5.6331093504e-05 1.6915314991e+00 -2.9298184991e+00 1.6915314991e+00 2.9298184991e+00 
43000 5.6626925275e+00 5.5951041957e-05 1.6915314991e+00 -2.9298184991e+00 1.6915314991e+00 2.9298184991e+00 
43100 5.6626925287e+00 5.5577256644e-05 1.6915314991e+00 -2.9298184991e+00 1.6915314991e+00 2.9298184991e+00 
43200 5.6626925298e+00 5.5210090790e-05 1.6915314991e+00 -2.9298184991e+00 1.6915314991e+00 2.9298184991e+00 
43300 5.6626925309e+00 5.4849874739e-05 1.6915314991e+00 -2.9298184991e+00 1.6915314991e+00 2.9298184991e+00 
43400 5.6626925320e+00 5.4496916429e-05 1.6915314991e+00 -2.9298184991e+00 1.6915314991e+00 2.9298184991e+00 
43500 5.6626925331e+00 5.4151501892e-05 1.6915314991e+00 -2.9298184991e+00 1.6915314991e+00 2.9298184991e+00 
43600 5.6626925341e+00 5.3813895746e-05 1.6915314991e+00 -2.9298184991e+00 1.6915314991e+00 2.9298184991e+00 
43700 5.6626925351e+00 5.3484341701e-05 1.6915314991e+00 -2.9298184991e+00 1.6915314991e+00 2.9298184991e+00 
43800 5.6626925361e+00 5.3163063072e-05 1.6915314991e+00 -2.9298184991e+00 1.6915314991e+00 2.9298184991e+00 
43900 5.6626925371e+00 5.2850263285e-05 1.6915314991e+00 -2.9298184991e+00 1.6915314991e+00 2.9298184991e+00 
44000 5.6626925381e+00 5.2546126407e-05 1.6915314991e+00 -2.9298184991e+00 1.6915314991e+00 2.9298184991e+00 
44100 5.6626925390e+00 5.2250817655e-05 1.6915314991e+00 -2.9298184991e+00 1.6915314991e+00 2.9298184991e+00 
44200 5.6626925399e+00 5.1964483932e-05 1.6915314991e+00 -2.9298184991e+00 1.6915314991e+00 2.9298184991e+00 
44300 5.6626925408e+00 5.1687254342e-05 1.6915314991e+00 -2.9298184991e+00 1.6915314991e+00 2.9298184991e+00 
44400 5.6626925417e+00 5.1419240726e-05 1.6915314991e+00 -2.9298184991e+00 1.6915314991e+00 2.9298184991e+00 
44500 5.6626925426e+00 5.1160538186e-05 1.6915314991e+00 -2.9298184991e+00 1.6915314991e+00 2.9298184991e+00 
44600 5.6626925434e+00 5.0911225609e-05 1.6915314991e+00 -2.9298184991e+00 1.6915314991e+00 2.9298184991e+00 
44700 5.6626925443e+00 5.0671366204e-05 1.6915314991e+00 -2.9298184991e+00 1.6915314991e+00 2.9298184991e+00 
44800 5.6626925451e+00 5.0441008017e-05 1.6915314991e+00 -2.9298184991e+00 1.6915314991e+00 2.9298184991e+00 
44900 5.6626925459e+00 5.0220184460e-05 1.6915314991e+00 -2.9298184991e+00 1.6915314991e+00 2.9298184991e+00 
45000 5.6626925467e+00 5.0008914833e-05 1.6915314991e+00 -2.9298184991e+00 1.6915314991e+00 2.9298184991e+00 
45100 5.6626925475e+00 4.9807204841e-05 1.6915314991e+00 -2.9298184991e+00 1.6915314991e+00 2.9298184991e+00 
45200 5.6626925482e+00 4.9615047110e-05 1.6915314991e+00 -2.9298184991e+00 1.6915314991e+00 2.9298184991e+00 
45300 5.6626925490e+00 4.9432421702e-05 1.6915314991e+00 -2.9298184991e+00 1.6915314991e+00 2.9298184991e+00 
45400 5.6626925497e+00 4.9259296616e-05 1.6915314991e+00 -2.9298184991e+00 1.6915314991e+00 2.9298184991e+00 
45500 5.6626925504e+00 4.9095628299e-05 1.6915314991e+00 -2.9298184991e+00 1.6915314991e+00 2.9298184991e+00 
45600 5.6626925511e+00 4.8941362134e-05 1.6915314991e+00 -2.9298184991e+00 1.6915314991e+00 2.9298184991e+00 
45700 5.6626925518e+00 4.8796432944e-05 1.6915314991e+00 -2.9298184991e+00 1.6915314991e+00 2.9298184991e+00 
45800 5.6626925525e+00 4.8660765466e-05 1.6915314991e+00 -2.9298184991e+00 1.6915314991e+00 2.9298184991e+00 
45900 5.6626925531e+00 4.8534274843e-05 1.6915314991e+00 -2.9298184991e+00 1.6915314991e+00 2.9298184991e+00 
46000 5.6626925538e+00 4.8416867089e-05 1.6915314991e+00 -2.9298184991e+00 1.6915314991e+00 2.9298184991e+00 
46100 5.6626925544e+00 4.8308439559e-05 1.6915314991e+00 -2.9298184991e+00 1.6915314991e+00 2.9298184991e+00 
46200 5.6626925550e+00 4.8208881414e-05 1.6915314991e+00 -2.9298184991e+00 1.6915314991e+00 2.9298184991e+00 
46300 5.6626925557e+00 4.8118074064e-05 1.6915314991e+00 -2.9298184991e+00 1.6915314991e+00 2.9298184991e+00 
46400 5.6626925563e+00 4.8035891622e-05 1.6915314991e+00 -2.9298184991e+00 1.6915314991e+00 2.9298184991e+00 
46500 5.6626925569e+00 4.7962201333e-05 1.6915314991e+00 -2.9298184991e+00 1.6915314991e+00 2.9298184991e+00 
46600 5.6626925574e+00 4.7896864010e-05 1.6915314991e+00 -2.9298184991e+00 1.6915314991e+00 2.9298184991e+00 
46700 5.6626925580e+00 4.7839734453e-05 1.6915314991e+00 -2.9298184991e+00 1.6915314991e+00 2.9298184991e+00 
46800 5.6626925586e+00 4.7790661853e-05 1.6915314991e+00 -2.9298184991e+00 1.6915314991e+00 2.9298184991e+00 
46900 5.6626925591e+00 4.7749490209e-05 1.6915314991e+00 -2.9298184991e+00 1.6915314991e+00 2.9298184991e+00 
47000 5.6626925597e+00 4.7716058713e-05 1.6915314991e+00 -2.9298184991e+00 1.6915314991e+00 2.9298184991e+00 
47100 5.6626925602e+00 4.7690202140e-05 1.6915314991e+00 -2.9298184991e+00 1.6915314991e+00 2.9298184991e+00 
47200 5.6626925608e+00 4.7671751222e-05 1.6915314991e+00 -2.9298184991e+00 1.6915314991e+00 2.9298184991e+00 
47300 5.6626925613e+00 4.7660533016e-05 1.6915314991e+00 -2.9298184991e+00 1.6915314991e+00 2.9298184991e+00 
47400 5.6626925618e+00 4.7656371265e-05 1.6915314991e+00 -2.9298184991e+00 1.6915314991e+00 2.9298184991e+00 
47500 5.6626925623e+00 4.7659086742e-05 1.6915314991e+00 -2.9298184991e+00 1.6915314991e+00 2.9298184991e+00 
47600 5.6626925628e+00 4.7668497593e-05 1.6915314991e+00 -2.9298184991e+00 1.6915314991e+00 2.9298184991e+00 
47700 5.6626925633e+00 4.7684419667e-05 1.6915314991e+00 -2.9298184991e+00 1.6915314991e+00 2.9298184991e+00 
47800 5.6626925638e+00 4.7706666835e-05 1.6915314991e+00 -2.9298184991e+00 1.6915314991e+00 2.9298184991e+00 
47900 5.6626925643e+00 4.7735051295e-05 1.6915314991e+00 -2.9298184991e+00 1.6915314991e+00 2.9298184991e+00 
48000 5.6626925647e+00 4.7769383887e-05 1.6915314991e+00 -2.9298184991e+00 1.6915314991e+00 2.9298184991e+00 
48100 5.6626925652e+00 4.7809474372e-05 1.6915314991e+00 -2.9298184991e+00 1.6915314991e+00 2.9298184991e+00 
48200 5.6626925657e+00 4.7855131718e-05 1.6915314991e+00 -2.9298184991e+00 1.6915314991e+00 2.9298184991e+00 
48300 5.6626925661e+00 4.7906164374e-05 1.6915314991e+00 -2.9298184991e+00 1.6915314991e+00 2.9298184991e+00 
48400 5.6626925665e+00 4.7962380531e-05 1.6915314991e+00 -2.9298184991e+00 1.6915314991e+00 2.9298184991e+00 
48500 5.6626925670e+00 4.8023588377e-05 1.6915314991e+00 -2.9298184991e+00 1.6915314991e+00 2.9298184991e+00 
48600 5.6626925674e+00 4.8089596339e-05 1.6915314991e+00 -2.9298184991e+00 1.6915314991e+00 2.9298184991e+00 
48700 5.6626925678e+00 4.8160213316e-05 1.6915314991e+00 -2.9298184991e+00 1.6915314991e+00 2.9298184991e+00 
48800 5.6626925683e+00 4.8235248912e-05 1.6915314991e+00 -2.9298184991e+00 1.6915314991e+00 2.9298184991e+00 
48900 5.6626925687e+00 4.8314513640e-05 1.6915314991e+00 -2.9298184991e+00 1.6915314991e+00 2.9298184991e+00 
49000 5.6626925691e+00 4.8397819139e-05 1.6915314991e+00 -2.9298184991e+00 1.6915314991e+00 2.9298184991e+00 
49100 5.6626925695e+00 4.8484978366e-05 1.6915314991e+00 -2.9298184991e+00 1.6915314991e+00 2.9298184991e+00 
49200 5.6626925699e+00 4.8575805787e-05 1.6915314991e+00 -2.9298184991e+00 1.6915314991e+00 2.9298184991e+00 
49300 5.6626925703e+00 4.8670117556e-05 1.6915314991e+00 -2.9298184991e+00 1.6915314991e+00 2.9298184991e+00 
49400 5.6626925707e+00 4.8767731683e-05 1.6915314991e+00 -2.9298184991e+00 1.6915314991e+00 2.9298184991e+00 
49500 5.6626925710e+00 4.8868468205e-05 1.6915314991e+00 -2.9298184991e+00 1.6915314991e+00 2.9298184991e+00 
49600 5.6626925714e+00 4.8972149329e-05 1.6915314991e+00 -2.9298184991e+00 1.6915314991e+00 2.9298184991e+00 
49700 5.6626925718e+00 4.9078599584e-05 1.6915314991e+00 -2.9298184991e+00 1.6915314991e+00 2.9298184991e+00 
49800 5.6626925721e+00 4.9187645956e-05 1.6915314991e+00 -2.9298184991e+00 1.6915314991e+00 2.9298184991e+00 
49900 5.6626925725e+00 4.9299118017e-05 1.6915314991e+00 -2.9298184991e+00 1.6915314991e+00 2.9298184991e+00 
50000 5.6626925729e+00 4.9412848048e-05 1.6915314991e+00 -2.9298184991e+00 1.6915314991e+00 2.9298184991e+00 
50100 5.6626925732e+00 4.9528671148e-05 1.6915314991e+00 -2.9298184991e+00 1.6915314991e+00 2.9298184991e+00 
50200 5.6626925735e+00 4.9646425343e-05 1.6915314991e+00 -2.9298184991e+00 1.6915314991e+00 2.9298184991e+00 
50300 5.6626925739e+00 4.9765951681e-05 1.6915314991e+00 -2.9298184991e+00 1.6915314991e+00 2.9298184991e+00 
50400 5.6626925742e+00 4.9887094327e-05 1.6915314991e+00 -2.9298184991e+00 1.6915314991e+00 2.9298184991e+00 
50500 5.6626925745e+00 5.0009700639e-05 1.6915314991e+00 -2.9298184991e+00 1.6915314991e+00 2.9298184991e+00 
50600 5.6626925749e+00 5.0133621253e-05 1.6915314991e+00 -2.9298184991e+00 1.6915314991e+00 2.9298184991e+00 
50700 5.6626925752e+00 5.0258710145e-05 1.6915314991e+00 -2.9298184991e+00 1.6915314991e+00 2.9298184991e+00 
50800 5.6626925755e+00 5.0384824698e-05 1.6915314991e+00 -2.9298184991e+00 1.6915314991e+00 2.9298184991e+00 
50900 5.6626925758e+00 5.0511825755e-05 1.6915314991e+00 -2.9298184991e+00 1.6915314991e+00 2.9298184991e+00 
51000 5.6626925761e+00 5.0639577670e-05 1.6915314991e+00 -2.9298184991e+00 1.6915314991e+00 2.9298184991e+00 
51100 5.6626925764e+00 5.0767948355e-05 1.6915314991e+00 -2.9298184991e+00 1.6915314991e+00 2.9298184991e+00 
51200 5.6626925767e+00 5.0896809311e-05 1.6915314991e+00 -2.9298184991e+00 1.6915314991e+00 2.9298184991e+00 
51300 5.6626925770e+00 5.1026035661e-05 1.6915314991e+00 -2.9298184991e+00 1.6915314991e+00 2.9298184991e+00 
51400 5.6626925773e+00 5.1155506182e-05 1.6915314991e+00 -2.9298184991e+00 1.6915314991e+00 2.9298184991e+00 
51500 5.6626925776e+00 5.1285103322e-05 1.6915314991e+00 -2.9298184991e+00 1.6915314991e+00 2.9298184991e+00 
51600 5.6626925779e+00 5.1414713210e-05 1.6915314991e+00 -2.9298184991e+00 1.6915314991e+00 2.9298184991e+00 
51700 5.6626925781e+00 5.1544225671e-05 1.6915314991e+00 -2.9298184991e+00 1.6915314991e+00 2.9298184991e+00 
51800 5.6626925784e+00 5.1673534233e-05 1.6915314991e+00 -2.9298184991e+00 1.6915314991e+00 2.9298184991e+00 
51900 5.6626925787e+00 5.1802536123e-05 1.6915314991e+00 -2.9298184991e+00 1.6915314991e+00 2.9298184991e+00 
52000 5.6626925789e+00 5.1931132265e-05 1.6915314991e+00 -2.9298184991e+00 1.6915314991e+00 2.9298184991e+00 
52100 5.6626925792e+00 5.2059227270e-05 1.6915314991e+00 -2.9298184991e+00 1.6915314991e+00 2.9298184991e+00 
52200 5.6626925795e+00 5.2186729424e-05 1.6915314991e+00 -2.9298184991e+00 1.6915314991e+00 2.9298184991e+00 
52300 5.6626925797e+00 5.2313550669e-05 1.6915314991e+00 -2.9298184991e+00 1.6915314991e+00 2.9298184991e+00 
52400 5.6626925800e+00 5.2439606586e-05 1.6915314991e+00 -2.9298184991e+00 1.6915314991e+00 2.9298184991e+00 
52500 5.6626925802e+00 5.2564816362e-05 1.6915314991e+00 -2.9298184991e+00 1.6915314991e+00 2.9298184991e+00 
52600 5.6626925804e+00 5.2689102775e-05 1.6915314991e+00 -2.9298184991e+00 1.6915314991e+00 2.9298184991e+00 
52700 5.6626925807e+00 5.2812392146e-05 1.6915314991e+00 -2.9298184991e+00 1.6915314991e+00 2.9298184991e+00 
52800 5.6626925809e+00 5.2934614319e-05 1.6915314991e+00 -2.9298184991e+00 1.6915314991e+00 2.9298184991e+00 
52900 5.6626925811e+00 5.3055702611e-05 1.6915314991e+00 -2.9298184991e+00 1.6915314991e+00 2.9298184991e+00 
53000 5.6626925814e+00 5.3175593779e-05 1.6915314991e+00 -2.9298184991e+00 1.6915314991e+00 2.9298184991e+00 
53100 5.6626925816e+00 5.3294227972e-05 1.6915314991e+00 -2.9298184991e+00 1.6915314991e+00 2.9298184991e+00 
53200 5.6626925818e+00 5.3411548687e-05 1.6915314991e+00 -2.9298184991e+00 1.6915314991e+00 2.9298184991e+00 
53300 5.6626925820e+00 5.3527502715e-05 1.6915314991e+00 -2.9298184991e+00 1.6915314991e+00 2.9298184991e+00 
53400 5.6626925822e+00 5.3642040097e-05 1.6915314991e+00 -2.9298184991e+00 1.6915314991e+00 2.9298184991e+00 
53500 5.6626925825e+00 5.3755114066e-05 1.6915314991e+00 -2.9298184991e+00 1.6915314991e+00 2.9298184991e+00 
53600 5.6626925827e+00 5.3866680994e-05 1.6915314991e+00 -2.9298184991e+00 1.6915314991e+00 2.9298184991e+00 
53700 5.6626925829e+00 5.3976700331e-05 1.6915314991e+00 -2.9298184991e+00 1.6915314991e+00 2.9298184991e+00 
53800 5.6626925831e+00 5.4085134551e-05 1.6915314991e+00 -2.9298184991e+00 1.6915314991e+00 2.9298184991e+00 
53900 5.6626925833e+00 5.4191949085e-05 1.6915314991e+00 -2.9298184991e+00 1.6915314991e+00 2.9298184991e+00 
54000 5.6626925835e+00 5.4297112267e-05 1.6915314991e+00 -2.9298184991e+00 1.6915314991e+00 2.9298184991e+00 
54100 5.6626925836e+00 5.4400595265e-05 1.6915314991e+00 -2.9298184991e+00 1.6915314991e+00 2.9298184991e+00 
54200 5.6626925838e+00 5.4502372015e-05 1.6915314991e+00 -2.9298184991e+00 1.6915314991e+00 2.9298184991e+00 
54300 5.6626925840e+00 5.4602419160e-05 1.6915314991e+00 -2.9298184991e+00 1.6915314991e+00 2.9298184991e+00 
54400 5.6626925842e+00 5.4700715982e-05 1.6915314991e+00 -2.9298184991e+00 1.6915314991e+00 2.9298184991e+00 
54500 5.6626925844e+00 5.4797244331e-05 1.6915314991e+00 -2.9298184991e+00 1.6915314991e+00 2.9298184991e+00 
54600 5.6626925846e+00 5.4891988563e-05 1.6915314991e+00 -2.9298184991e+00 1.6915314991e+00 2.9298184991e+00 
54700 5.6626925847e+00 5.4984935466e-05 1.6915314991e+00 -2.9298184991e+00 1.6915314991e+00 2.9298184991e+00 
54800 5.6626925849e+00 5.5076074190e-05 1.6915314991e+00 -2.9298184991e+00 1.6915314991e+00 2.9298184991e+00 
54900 5.6626925851e+00 5.5165396182e-05 1.6915314991e+00 -2.9298184991e+00 1.6915314991e+00 2.9298184991e+00 
55000 5.6626925852e+00 5.5252895110e-05 1.6915314991e+00 -2.9298184991e+00 1.6915314991e+00 2.9298184991e+00 
55100 5.6626925854e+00 5.5338566800e-05 1.6915314991e+00 -2.9298184991e+00 1.6915314991e+00 2.9298184991e+00 
55200 5.6626925856e+00 5.5422409158e-05 1.6915314991e+00 -2.9298184991e+00 1.6915314991e+00 2.9298184991e+00 
55300 5.6626925857e+00 5.5504422105e-05 1.6915314991e+00 -2.9298184991e+00 1.6915314991e+00 2.9298184991e+00 
55400 5.6626925859e+00 5.5584607501e-05 1.6915314991e+00 -2.9298184991e+00 1.6915314991e+00 2.9298184991e+00 
55500 5.6626925860e+00 5.5662969084e-05 1.6915314991e+00 -2.9298184991e+00 1.6915314991e+00 2.9298184991e+00 
55600 5.6626925862e+00 5.5739512387e-05 1.6915314991e+00 -2.9298184991e+00 1.6915314991e+00 2.9298184991e+00 
55700 5.6626925863e+00 5.5814244682e-05 1.6915314991e+00 -2.9298184991e+00 1.6915314991e+00 2.9298184991e+00 
55800 5.6626925865e+00 5.5887174900e-05 1.6915314991e+00 -2.9298184991e+00 1.6915314991e+00 2.9298184991e+00 
55900 5.6626925866e+00 5.5958313566e-05 1.6915314991e+00 -2.9298184991e+00 1.6915314991e+00 2.9298184991e+00 
56000 5.6626925868e+00 5.6027672731e-05 1.6915314991e+00 -2.9298184991e+00 1.6915314991e+00 2.9298184991e+00 
56100 5.6626925869e+00 5.6095265906e-05 1.6915314991e+00 -2.9298184991e+00 1.6915314991e+00 2.9298184991e+00 
56200 5.6626925870e+00 5.6161107992e-05 1.6915314991e+00 -2.9298184991e+00 1.6915314991e+00 2.9298184991e+00 
56300 5.6626925872e+00 5.6225215211e-05 1.6915314991e+00 -2.9298184991e+00 1.6915314991e+00 2.9298184991e+00 
56400 5.6626925873e+00 5.6287605049e-05 1.6915314991e+00 -2.9298184991e+00 1.6915314991e+00 2.9298184991e+00 
56500 5.6626925874e+00 5.6348296181e-05 1.6915314991e+00 -2.9298184991e+00 1.6915314991e+00 2.9298184991e+00 
56600 5.6626925876e+00 5.6407308412e-05 1.6915314991e+00 -2.9298184991e+00 1.6915314991e+00 2.9298184991e+00 
56700 5.6626925877e+00 5.6464662618e-05 1.6915314991e+00 -2.9298184991e+00 1.6915314991e+00 2.9298184991e+00 
56800 5.6626925878e+00 5.6520380676e-05 1.6915314991e+00 -2.9298184991e+00 1.6915314991e+00 2.9298184991e+00 
56900 5.6626925880e+00 5.6574485406e-05 1.6915314991e+00 -2.9298184991e+00 1.6915314991e+00 2.9298184991e+00 
57000 5.6626925881e+00 5.6627000511e-05 1.6915314991e+00 -2.9298184991e+00 1.6915314991e+00 2.9298184991e+00 
57100 5.6626925882e+00 5.6677950523e-05 1.6915314991e+00 -2.9298184991e+00 1.6915314991e+00 2.9298184991e+00 
57200 5.6626925883e+00 5.6727360736e-05 1.6915314991e+00 -2.9298184991e+00 1.6915314991e+00 2.9298184991e+00 
57300 5.6626925884e+00 5.6775257152e-05 1.6915314991e+00 -2.9298184991e+00 1.6915314991e+00 2.9298184991e+00 
57400 5.6626925886e+00 5.6821666434e-05 1.6915314991e+00 -2.9298184991e+00 1.6915314991e+00 2.9298184991e+00 
57500 5.6626925887e+00 5.6866615835e-05 1.6915314991e+00 -2.9298184991e+00 1.6915314991e+00 2.9298184991e+00 
57600 5.6626925888e+00 5.6910133164e-05 1.6915314991e+00 -2.9298184991e+00 1.6915314991e+00 2.9298184991e+00 
57700 5.6626925889e+00 5.6952246719e-05 1.6915314991e+00 -2.9298184991e+00 1.6915314991e+00 2.9298184991e+00 
57800 5.6626925890e+00 5.6992985242e-05 1.6915314991e+00 -2.9298184991e+00 1.6915314991e+00 2.9298184991e+00 
57900 5.6626925891e+00 5.7032377871e-05 1.6915314991e+00 -2.9298184991e+00 1.6915314991e+00 2.9298184991e+00 
58000 5.6626925892e+00 5.7070454092e-05 1.6915314991e+00 -2.9298184991e+00 1.6915314991e+00 2.9298184991e+00 
58100 5.6626925893e+00 5.7107243686e-05 1.6915314991e+00 -2.9298184991e+00 1.6915314991e+00 2.9298184991e+00 
58200 5.6626925894e+00 5.7142776693e-05 1.6915314991e+00 -2.9298184991e+00 1.6915314991e+00 2.9298184991e+00 
58300 5.6626925895e+00 5.7177083359e-05 1.6915314991e+00 -2.9298184991e+00 1.6915314991e+00 2.9298184991e+00 
58400 5.6626925896e+00 5.7210194100e-05 1.6915314991e+00 -2.9298184991e+00 1.6915314991e+00 2.9298184991e+00 
58500 5.6626925897e+00 5.7242139454e-05 1.6915314991e+00 -2.9298184991e+00 1.6915314991e+00 2.9298184991e+00 
58600 5.6626925898e+00 5.7272950049e-05 1.6915314991e+00 -2.9298184991e+00 1.6915314991e+00 2.9298184991e+00 
58700 5.6626925899e+00 5.7302656557e-05 1.6915314991e+00 -2.9298184991e+00 1.6915314991e+00 2.9298184991e+00 
58800 5.6626925900e+00 5.7331289657e-05 1.6915314991e+00 -2.9298184991e+00 1.6915314991e+00 2.9298184991e+00 
58900 5.6626925901e+00 5.7358880006e-05 1.6915314991e+00 -2.9298184991e+00 1.6915314991e+00 2.9298184991e+00 
59000 5.6626925902e+00 5.7385458197e-05 1.6915314991e+00 -2.9298184991e+00 1.6915314991e+00 2.9298184991e+00 
59100 5.6626925903e+00 5.7411054725e-05 1.6915314991e+00 -2.9298184991e+00 1.6915314991e+00 2.9298184991e+00 
59200 5.6626925904e+00 5.7435699960e-05 1.6915314991e+00 -2.9298184991e+00 1.6915314991e+00 2.9298184991e+00 
59300 5.6626925905e+00 5.7459424113e-05 1.6915314991e+00 -2.9298184991e+00 1.6915314991e+00 2.9298184991e+00 
59400 5.6626925905e+00 5.7482257207e-05 1.6915314991e+00 -2.9298184991e+00 1.6915314991e+00 2.9298184991e+00 
59500 5.6626925906e+00 5.7504229048e-05 1.6915314991e+00 -2.9298184991e+00 1.6915314991e+00 2.9298184991e+00 
59600 5.6626925907e+00 5.7525369201e-05 1.6915314991e+00 -2.9298184991e+00 1.6915314991e+00 2.9298184991e+00 
59700 5.6626925908e+00 5.7545706959e-05 1.6915314991e+00 -2.9298184991e+00 1.6915314991e+00 2.9298184991e+00 
59800 5.6626925909e+00 5.7565271323e-05 1.6915314991e+00 -2.9298184991e+00 1.6915314991e+00 2.9298184991e+00 
59900 5.6626925910e+00 5.7584090978e-05 1.6915314991e+00 -2.9298184991e+00 1.6915314991e+00 2.9298184991e+00 
60000 5.6626925910e+00 5.7602194269e-05 1.6915314991e+00 -2.9298184991e+00 1.6915314991e+00 2.9298184991e+00 
60100 5.6626925911e+00 5.7619609180e-05 1.6915314991e+00 -2.9298184991e+00 1.6915314991e+00 2.9298184991e+00 
60200 5.6626925912e+00 5.7636363318e-05 1.6915314991e+00 -2.9298184991e+00 1.6915314991e+00 2.9298184991e+00 
60300 5.6626925913e+00 5.7652483893e-05 1.6915314991e+00 -2.9298184991e+00 1.6915314991e+00 2.9298184991e+00 
60400 5.6626925913e+00 5.7667997695e-05 1.6915314991e+00 -2.9298184991e+00 1.6915314991e+00 2.9298184991e+00 
60500 5.6626925914e+00 5.7682931090e-05 1.6915314991e+00 -2.9298184991e+00 1.6915314991e+00 2.9298184991e+00 
60600 5.6626925915e+00 5.7697309990e-05 1.6915314991e+00 -2.9298184991e+00 1.6915314991e+00 2.9298184991e+00 
60700 5.6626925916e+00 5.7711159854e-05 1.6915314991e+00 -2.9298184991e+00 1.6915314991e+00 2.9298184991e+00 
60800 5.6626925916e+00 5.7724505660e-05 1.6915314991e+00 -2.9298184991e+00 1.6915314991e+00 2.9298184991e+00 
60900 5.6626925917e+00 5.7737371908e-05 1.6915314991e+00 -2.9298184991e+00 1.6915314991e+00 2.9298184991e+00 
61000 5.6626925918e+00 5.7749782596e-05 1.6915314991e+00 -2.9298184991e+00 1.6915314991e+00 2.9298184991e+00 
61100 5.6626925918e+00 5.7761761221e-05 1.6915314991e+00 -2.9298184991e+00 1.6915314991e+00 2.9298184991e+00 
61200 5.6626925919e+00 5.7773330759e-05 1.6915314991e+00 -2.9298184991e+00 1.6915314991e+00 2.9298184991e+00 
61300 5.6626925920e+00 5.7784513668e-05 1.6915314991e+00 -2.9298184991e+00 1.6915314991e+00 2.9298184991e+00 
61400 5.6626925920e+00 5.7795331875e-05 1.6915314991e+00 -2.9298184991e+00 1.6915314991e+00 2.9298184991e+00 
61500 5.6626925921e+00 5.7805806770e-05 1.6915314991e+00 -2.9298184991e+00 1.6915314991e+00 2.9298184991e+00 
61600 5.6626925922e+00 5.7815959201e-05 1.6915314991e+00 -2.9298184991e+00 1.6915314991e+00 2.9298184991e+00 
61700 5.6626925922e+00 5.7825809469e-05 1.6915314991e+00 -2.9298184991e+00 1.6915314991e+00 2.9298184991e+00 
61800 5.6626925923e+00 5.7835377331e-05 1.6915314991e+00 -2.9298184991e+00 1.6915314991e+00 2.9298184991e+00 
61900 5.6626925924e+00 5.7844681984e-05 1.6915314991e+00 -2.9298184991e+00 1.6915314991e+00 2.9298184991e+00 
62000 5.6626925924e+00 5.7853742078e-05 1.6915314991e+00 -2.9298184991e+00 1.6915314991e+00 2.9298184991e+00 
62100 5.6626925925e+00 5.7862575699e-05 1.6915314991e+00 -2.9298184991e+00 1.6915314991e+00 2.9298184991e+00 
62200 5.6626925925e+00 5.7871200384e-05 1.6915314991e+00 -2.9298184991e+00 1.6915314991e+00 2.9298184991e+00 
62300 5.6626925926e+00 5.7879633110e-05 1.6915314991e+00 -2.9298184991e+00 1.6915314991e+00 2.9298184991e+00 
62400 5.6626925926e+00 5.7887890298e-05 1.6915314991e+00 -2.9298184991e+00 1.6915314991e+00 2.9298184991e+00 
62500 5.6626925927e+00 5.7895987816e-05 1.6915314991e+00 -2.9298184991e+00 1.6915314991e+00 2.9298184991e+00 
62600 5.6626925928e+00 5.7903940984e-05 1.6915314991e+00 -2.9298184991e+00 1.6915314991e+00 2.9298184991e+00 
62700 5.6626925928e+00 5.7911764565e-05 1.6915314991e+00 -2.9298184991e+00 1.6915314991e+00 2.9298184991e+00 
62800 5.6626925929e+00 5.7919472780e-05 1.6915314991e+00 -2.9298184991e+00 1.6915314991e+00 2.9298184991e+00 
62900 5.6626925929e+00 5.7927079307e-05 1.6915314991e+00 -2.9298184991e+00 1.6915314991e+00 2.9298184991e+00 
63000 5.6626925930e+00 5.7934597287e-05 1.6915314991e+00 -2.9298184991e+00 1.6915314991e+00 2.9298184991e+00 
63100 5.6626925930e+00 5.7942039326e-05 1.6915314991e+00 -2.9298184991e+00 1.6915314991e+00 2.9298184991e+00 
63200 5.6626925931e+00 5.7949417500e-05 1.6915314991e+00 -2.9298184991e+00 1.6915314991e+00 2.9298184991e+00 
63300 5.6626925931e+00 5.7956743367e-05 1.6915314991e+00 -2.9298184991e+00 1.6915314991e+00 2.9298184991e+00 
63400 5.6626925931e+00 5.7960972773e-05 1.6915314991e+00 -2.9298184991e+00 1.6915314991e+00 2.9298184991e+00 
63400 5.6626925931e+00 5.7960972774e-05 1.6915314991e+00 -2.9298184991e+00 1.6915314991e+00 2.9298184991e+00 
