# step Hamiltonian StressXX CellTensor1 CellTensor2 CellTensor3 CellTensor4 
0 4.7064076418e+00 5.3465733251e-02 2.6408444507e+00 -4.5740767634e+00 2.6408444507e+00 4.5740767634e+00 
100 4.6992605095e+00 5.5580421422e-02 2.6408444507e+00 -4.5740767634e+00 2.6408444507e+00 4.5740767634e+00 
200 4.6933371227e+00 5.8282862709e-02 2.6397921977e+00 -4.5722542078e+00 2.6397921977e+00 4.5722542078e+00 
300 4.6885350082e+00 6.1602621442e-02 2.6386883457e+00 -4.5703422800e+00 2.6386883457e+00 4.5703422800e+00 
400 4.6847184390e+00 6.5474236510e-02 2.6375211355e+00 -4.5683206127e+00 2.6375211355e+00 4.5683206127e+00 
500 4.6817593538e+00 6.9835283345e-02 2.6362800251e+00 -4.5661709464e+00 2.6362800251e+00 4.5661709464e+00 
600 4.6795374639e+00 7.4626340567e-02 2.6349556318e+00 -4.5638770299e+00 2.6349556318e+00 4.5638770299e+00 
700 4.6779402961e+00 7.9790937089e-02 2.6335396752e+00 -4.5614245213e+00 2.6335396752e+00 4.5614245213e+00 
800 4.6768631832e+00 8.5275485083e-02 2.6320249215e+00 -4.5588008908e+00 2.6320249215e+00 4.5588008908e+00 
900 4.6762092069e+00 9.1029203504e-02 2.6304051281e+00 -4.5559953263e+00 2.6304051281e+00 4.5559953263e+00 
1000 4.6758891026e+00 9.7004036172e-02 2.6286749912e+00 -4.5529986414e+00 2.6286749912e+00 4.5529986414e+00 
1100 4.6758211302e+00 1.0315456781e-01 2.6268300944e+00 -4.5498031864e+00 2.6268300944e+00 4.5498031864e+00 
1200 4.6759309168e+00 1.0943794084e-01 2.6248668592e+00 -4.5464027633e+00 2.6248668592e+00 4.5464027633e+00 
1300 4.6761512747e+00 1.1581377509e-01 2.6227824974e+00 -4.5427925428e+00 2.6227824974e+00 4.5427925428e+00 
1400 4.6764219989e+00 1.2224409223e-01 2.6205749657e+00 -4.5389689856e+00 2.6205749657e+00 4.5389689856e+00 
1500 4.6766896461e+00 1.2869324604e-01 2.6182429213e+00 -4.5349297662e+00 2.6182429213e+00 4.5349297662e+00 
1600 4.6769072981e+00 1.3512785908e-01 2.6157856800e+00 -4.5306736994e+00 2.6157856800e+00 4.5306736994e+00 
1700 4.6770343102e+00 1.4151676629e-01 2.6132031748e+00 -4.5262006693e+00 2.6132031748e+00 4.5262006693e+00 
1800 4.6770360478e+00 1.4783096507e-01 2.6104959169e+00 -4.5215115610e+00 2.6104959169e+00 4.5215115610e+00 
1900 4.6768836098e+00 1.5404357136e-01 2.6076649565e+00 -4.5166081937e+00 2.6076649565e+00 4.5166081937e+00 
2000 4.6765535416e+00 1.6012978099e-01 2.6047118459e+00 -4.5114932562e+00 2.6047118459e+00 4.5114932562e+00 
2100 4.6760275382e+00 1.6606683501e-01 2.6016386029e+00 -4.5061702432e+00 2.6016386029e+00 4.5061702432e+00 
2200 4.6752921379e+00 1.7183398778e-01 2.5984476747e+00 -4.5006433935e+00 2.5984476747e+00 4.5006433935e+00 
2300 4.6743384071e+00 1.7741247641e-01 2.5951419030e+00 -4.4949176288e+00 2.5951419030e+00 4.4949176288e+00 
2400 4.6731616187e+00 1.8278549002e-01 2.5917244891e+00 -4.4889984944e+00 2.5917244891e+00 4.4889984944e+00 
2500 4.6717609239e+00 1.8793813747e-01 2.5881989604e+00 -4.4828920995e+00 2.5881989604e+00 4.4828920995e+00 
2600 4.6701390194e+00 1.9285741207e-01 2.5845691363e+00 -4.4766050598e+00 2.5845691363e+00 4.4766050598e+00 
2700 4.6683018117e+00 1.9753215217e-01 2.5808390959e+00 -4.4701444403e+00 2.5808390959e+00 4.4701444403e+00 
2800 4.6662580800e+00 2.0195299661e-01 2.5770131452e+00 -4.4635176993e+00 2.5770131452e+00 4.4635176993e+00 
2900 4.6640191395e+00 2.0611233414e-01 2.5730957857e+00 -4.4567326336e+00 2.5730957857e+00 4.4567326336e+00 
3000 4.6615985074e+00 2.1000424631e-01 2.5690916833e+00 -4.4497973248e+00 2.5690916833e+00 4.4497973248e+00 
3100 4.6590115732e+00 2.1362444366e-01 2.5650056385e+00 -4.4427200875e+00 2.5650056385e+00 4.4427200875e+00 
3200 4.6562752760e+00 2.1697019493e-01 2.5608425570e+00 -4.4355094190e+00 2.5608425570e+00 4.4355094190e+00 
3300 4.6534077899e+00 2.2004024978e-01 2.5566074221e+00 -4.4281739501e+00 2.5566074221e+00 4.4281739501e+00 
3400 4.6504282206e+00 2.2283475519e-01 2.5523052674e+00 -4.4207223995e+00 2.5523052674e+00 4.4207223995e+00 
3500 4.6473563141e+00 2.2535516630e-01 2.5479411514e+00 -4.4131635288e+00 2.5479411514e+00 4.4131635288e+00 
3600 4.6442121794e+00 2.2760415250e-01 2.5435201335e+00 -4.4055061014e+00 2.5435201335e+00 4.4055061014e+00 
3700 4.6410160279e+00 2.2958549950e-01 2.5390472516e+00 -4.3977588426e+00 2.5390472516e+00 4.3977588426e+00 
3800 4.6377879291e+00 2.3130400847e-01 2.5345275003e+00 -4.3899304036e+00 2.5345275003e+00 4.3899304036e+00 
3900 4.6345475855e+00 2.3276539333e-01 2.5299658122e+00 -4.3820293281e+00 2.5299658122e+00 4.3820293281e+00 
4000 4.6313141262e+00 2.3397617712e-01 2.5253670400e+00 -4.3740640211e+00 2.5253670400e+00 4.3740640211e+00 
4100 4.6281059212e+00 2.3494358858e-01 2.5207359407e+00 -4.3660427217e+00 2.5207359407e+00 4.3660427217e+00 
4200 4.6249404169e+00 2.3567545997e-01 2.5160771611e+00 -4.3579734788e+00 2.5160771611e+00 4.3579734788e+00 
4300 4.6218339921e+00 2.3618012706e-01 2.5113952258e+00 -4.3498641290e+00 2.5113952258e+00 4.3498641290e+00 
4400 4.6188018360e+00 2.3646633222e-01 2.5066945263e+00 -4.3417222786e+00 2.5066945263e+00 4.3417222786e+00 
4500 4.6158578468e+00 2.3654313143e-01 2.5019793120e+00 -4.3335552879e+00 2.5019793120e+00 4.3335552879e+00 
4600 4.6130145524e+00 2.3641980594e-01 2.4972536833e+00 -4.3253702589e+00 2.4972536833e+00 4.3253702589e+00 
4700 4.6102830509e+00 2.3610577919e-01 2.4925215855e+00 -4.3171740251e+00 2.4925215855e+00 4.3171740251e+00 
4800 4.6076729711e+00 2.3561053957e-01 2.4877868048e+00 -4.3089731443e+00 2.4877868048e+00 4.3089731443e+00 
4900 4.6051924527e+00 2.3494356937e-01 2.4830529656e+00 -4.3007738944e+00 2.4830529656e+00 4.3007738944e+00 
5000 4.6028481441e+00 2.3411428029e-01 2.4783235292e+00 -4.2925822702e+00 2.4783235292e+00 4.2925822702e+00 
5100 4.6006452171e+00 2.3313195566e-01 2.4736017935e+00 -4.2844039841e+00 2.4736017935e+00 4.2844039841e+00 
5200 4.5985873985e+00 2.3200569959e-01 2.4688908940e+00 -4.2762444667e+00 2.4688908940e+00 4.2762444667e+00 
5300 4.5966770142e+00 2.3074439286e-01 2.4641938057e+00 -4.2681088711e+00 2.4641938057e+00 4.2681088711e+00 
5400 4.5949150481e+00 2.2935665566e-01 2.4595133462e+00 -4.2600020775e+00 2.4595133462e+00 4.2600020775e+00 
5500 4.5933012112e+00 2.2785081689e-01 2.4548521792e+00 -4.2519286994e+00 2.4548521792e+00 4.2519286994e+00 
5600 4.5918340208e+00 2.2623488983e-01 2.4502128185e+00 -4.2438930911e+00 2.4502128185e+00 4.2438930911e+00 
5700 4.5905108884e+00 2.2451655383e-01 2.4455976335e+00 -4.2358993561e+00 2.4455976335e+00 4.2358993561e+00 
5800 4.5893282137e+00 2.2270314168e-01 2.4410088535e+00 -4.2279513560e+00 2.4410088535e+00 4.2279513560e+00 
5900 4.5882814836e+00 2.2080163223e-01 2.4364485741e+00 -4.2200527204e+00 2.4364485741e+00 4.2200527204e+00 
6000 4.5873653756e+00 2.1881864784e-01 2.4319187624e+00 -4.2122068564e+00 2.4319187624e+00 4.2122068564e+00 
6100 4.5865738619e+00 2.1676045605e-01 2.4274212632e+00 -4.2044169592e+00 2.4274212632e+00 4.2044169592e+00 
6200 4.5859003152e+00 2.1463297520e-01 2.4229578046e+00 -4.1966860222e+00 2.4229578046e+00 4.1966860222e+00 
6300 4.5853376139e+00 2.1244178323e-01 2.4185300044e+00 -4.1890168472e+00 2.4185300044e+00 4.1890168472e+00 
6400 4.5848782439e+00 2.1019212942e-01 2.4141393752e+00 -4.1814120543e+00 2.4141393752e+00 4.1814120543e+00 
6500 4.5845143999e+00 2.0788894826e-01 2.4097873306e+00 -4.1738740920e+00 2.4097873306e+00 4.1738740920e+00 
6600 4.5842380800e+00 2.0553687537e-01 2.4054751904e+00 -4.1664052461e+00 2.4054751904e+00 4.1664052461e+00 
6700 4.5840411779e+00 2.0314026456e-01 2.4012041855e+00 -4.1590076486e+00 2.4012041855e+00 4.1590076486e+00 
6800 4.5839155675e+00 2.0070320602e-01 2.3969754631e+00 -4.1516832866e+00 2.3969754631e+00 4.1516832866e+00 
6900 4.5838531831e+00 1.9822954489e-01 2.3927900911e+00 -4.1444340097e+00 2.3927900911e+00 4.1444340097e+00 
7000 4.5838460914e+00 1.9572290019e-01 2.3886490624e+00 -4.1372615374e+00 2.3886490624e+00 4.1372615374e+00 
7100 4.5838865578e+00 1.9318668340e-01 2.3845532984e+00 -4.1301674662e+00 2.3845532984e+00 4.1301674662e+00 
7200 4.5839671049e+00 1.9062411684e-01 2.3805036533e+00 -4.1231532750e+00 2.3805036533e+00 4.1231532750e+00 
7300 4.5840805633e+00 1.8803825123e-01 2.3765009165e+00 -4.1162203316e+00 2.3765009165e+00 4.1162203316e+00 
7400 4.5842201160e+00 1.8543198243e-01 2.3725458161e+00 -4.1093698968e+00 2.3725458161e+00 4.1093698968e+00 
7500 4.5843793349e+00 1.8280806724e-01 2.3686390213e+00 -4.1026031297e+00 2.3686390213e+00 4.1026031297e+00 
7600 4.5845522105e+00 1.8016913795e-01 2.3647811445e+00 -4.0959210911e+00 2.3647811445e+00 4.0959210911e+00 
7700 4.5847331747e+00 1.7751771574e-01 2.3609727438e+00 -4.0893247475e+00 2.3609727438e+00 4.0893247475e+00 
7800 4.5849171172e+00 1.7485622275e-01 2.3572143241e+00 -4.0828149736e+00 2.3572143241e+00 4.0828149736e+00 
7900 4.5850993956e+00 1.7218699293e-01 2.3535063393e+00 -4.0763925556e+00 2.3535063393e+00 4.0763925556e+00 
8000 4.5852758402e+00 1.6951228144e-01 2.3498491935e+00 -4.0700581932e+00 2.3498491935e+00 4.0700581932e+00 
8100 4.5854427533e+00 1.6683427296e-01 2.3462432418e+00 -4.0638125018e+00 2.3462432418e+00 4.0638125018e+00 
8200 4.5855969036e+00 1.6415508861e-01 2.3426887921e+00 -4.0576560142e+00 2.3426887921e+00 4.0576560142e+00 
8300 4.5857355165e+00 1.6147679179e-01 2.3391861051e+00 -4.0515891824e+00 2.3391861051e+00 4.0515891824e+00 
8400 4.5858562611e+00 1.5880139288e-01 2.3357353959e+00 -4.0456123787e+00 2.3357353959e+00 4.0456123787e+00 
8500 4.5859572328e+00 1.5613085295e-01 2.3323368342e+00 -4.0397258971e+00 2.3323368342e+00 4.0397258971e+00 
8600 4.5860369342e+00 1.5346708650e-01 2.3289905453e+00 -4.0339299548e+00 2.3289905453e+00 4.0339299548e+00 
8700 4.5860942530e+00 1.5081196342e-01 2.3256966107e+00 -4.0282246927e+00 2.3256966107e+00 4.0282246927e+00 
8800 4.5861284385e+00 1.4816731015e-01 2.3224550685e+00 -4.0226101770e+00 2.3224550685e+00 4.0226101770e+00 
8900 4.5861390764e+00 1.4553491024e-01 2.3192659143e+00 -4.0170863999e+00 2.3192659143e+00 4.0170863999e+00 
9000 4.5861260623e+00 1.4291650430e-01 2.3161291017e+00 -4.0116532810e+00 2.3161291017e+00 4.0116532810e+00 
9100 4.5860895755e+00 1.4031378952e-01 2.3130445428e+00 -4.0063106683e+00 2.3130445428e+00 4.0063106683e+00 
9200 4.5860300510e+00 1.3772841880e-01 2.3100121091e+00 -4.0010583391e+00 2.3100121091e+00 4.0010583391e+00 
9300 4.5859481531e+00 1.3516199956e-01 2.3070316322e+00 -3.9958960016e+00 2.3070316322e+00 3.9958960016e+00 
9400 4.5858447479e+00 1.3261609230e-01 2.3041029042e+00 -3.9908232960e+00 2.3041029042e+00 3.9908232960e+00 
9500 4.5857208772e+00 1.3009220902e-01 2.3012256792e+00 -3.9858397960e+00 2.3012256792e+00 3.9858397960e+00 
9600 4.5855777329e+00 1.2759181150e-01 2.2983996733e+00 -3.9809450103e+00 2.2983996733e+00 3.9809450103e+00 
9700 4.5854166319e+00 1.2511630957e-01 2.2956245664e+00 -3.9761383841e+00 2.2956245664e+00 3.9761383841e+00 
9800 4.5852389929e+00 1.2266705930e-01 2.2929000023e+00 -3.9714193006e+00 2.2929000023e+00 3.9714193006e+00 
9900 4.5850463134e+00 1.2024536128e-01 2.2902255904e+00 -3.9667870833e+00 2.2902255904e+00 3.9667870833e+00 
10000 4.5848401490e+00 1.1785245891e-01 2.2876009065e+00 -3.9622409975e+00 2.2876009065e+00 3.9622409975e+00 
10100 4.5846220932e+00 1.1548953685e-01 2.2850254941e+00 -3.9577802523e+00 2.2850254941e+00 3.9577802523e+00 
10200 4.5843937591e+00 1.1315771952e-01 2.2824988652e+00 -3.9534040028e+00 2.2824988652e+00 3.9534040028e+00 
10300 4.5841567626e+00 1.1085806980e-01 2.2800205022e+00 -3.9491113521e+00 2.2800205022e+00 3.9491113521e+00 
10400 4.5839127068e+00 1.0859158780e-01 2.2775898585e+00 -3.9449013538e+00 2.2775898585e+00 3.9449013538e+00 
10500 4.5836631682e+00 1.0635920990e-01 2.2752063604e+00 -3.9407730139e+00 2.2752063604e+00 3.9407730139e+00 
10600 4.5834096838e+00 1.0416180785e-01 2.2728694080e+00 -3.9367252936e+00 2.2728694080e+00 3.9367252936e+00 
10700 4.5831537405e+00 1.0200018814e-01 2.2705783769e+00 -3.9327571114e+00 2.2705783769e+00 3.9327571114e+00 
10800 4.5828967651e+00 9.9875091481e-02 2.2683326197e+00 -3.9288673458e+00 2.2683326197e+00 3.9288673458e+00 
10900 4.5826401161e+00 9.7787192522e-02 2.2661314672e+00 -3.9250548378e+00 2.2661314672e+00 3.9250548378e+00 
11000 4.5823850766e+00 9.5737099698e-02 2.2639742300e+00 -3.9213183935e+00 2.2639742300e+00 3.9213183935e+00 
11100 4.5821328486e+00 9.3725355281e-02 2.2618602001e+00 -3.9176567863e+00 2.2618602001e+00 3.9176567863e+00 
11200 4.5818845484e+00 9.1752435590e-02 2.2597886523e+00 -3.9140687601e+00 2.2597886523e+00 3.9140687601e+00 
11300 4.5816412029e+00 8.9818751380e-02 2.2577588455e+00 -3.9105530317e+00 2.2577588455e+00 3.9105530317e+00 
11400 4.5814037474e+00 8.7924648373e-02 2.2557700248e+00 -3.9071082932e+00 2.2557700248e+00 3.9071082932e+00 
11500 4.5811730239e+00 8.6070407961e-02 2.2538214224e+00 -3.9037332148e+00 2.2538214224e+00 3.9037332148e+00 
11600 4.5809497807e+00 8.4256248041e-02 2.2519122595e+00 -3.9004264477e+00 2.2519122595e+00 3.9004264477e+00 
11700 4.5807346725e+00 8.2482324001e-02 2.2500417477e+00 -3.8971866261e+00 2.2500417477e+00 3.8971866261e+00 
11800 4.5805282611e+00 8.0748729828e-02 2.2482090902e+00 -3.8940123702e+00 2.2482090902e+00 3.8940123702e+00 
11900 4.5803310176e+00 7.9055499349e-02 2.2464134838e+00 -3.8909022888e+00 2.2464134838e+00 3.8909022888e+00 
12000 4.5801433240e+00 7.7402607579e-02 2.2446541200e+00 -3.8878549813e+00 2.2446541200e+00 3.8878549813e+00 
12100 4.5799654767e+00 7.5789972191e-02 2.2429301865e+00 -3.8848690408e+00 2.2429301865e+00 3.8848690408e+00 
12200 4.5797976890e+00 7.4217455074e-02 2.2412408684e+00 -3.8819430561e+00 2.2412408684e+00 3.8819430561e+00 
12300 4.5796400952e+00 7.2684863995e-02 2.2395853500e+00 -3.8790756141e+00 2.2395853500e+00 3.8790756141e+00 
12400 4.5794927546e+00 7.1191954345e-02 2.2379628157e+00 -3.8762653023e+00 2.2379628157e+00 3.8762653023e+00 
12500 4.5793556556e+00 6.9738430963e-02 2.2363724516e+00 -3.8735107108e+00 2.2363724516e+00 3.8735107108e+00 
12600 4.5792287204e+00 6.8323950036e-02 2.2348134465e+00 -3.8708104348e+00 2.2348134465e+00 3.8708104348e+00 
12700 4.5791118096e+00 6.6948121066e-02 2.2332849933e+00 -3.8681630761e+00 2.2332849933e+00 3.8681630761e+00 
12800 4.5790047273e+00 6.5610508891e-02 2.2317862901e+00 -3.8655672461e+00 2.2317862901e+00 3.8655672461e+00 
12900 4.5789072257e+00 6.4310635768e-02 2.2303165413e+00 -3.8630215665e+00 2.2303165413e+00 3.8630215665e+00 
13000 4.5788190102e+00 6.3047983492e-02 2.2288749589e+00 -3.8605246725e+00 2.2288749589e+00 3.8605246725e+00 
13100 4.5787397448e+00 6.1821995569e-02 2.2274607631e+00 -3.8580752136e+00 2.2274607631e+00 3.8580752136e+00 
13200 4.5786690564e+00 6.0632079409e-02 2.2260731837e+00 -3.8556718556e+00 2.2260731837e+00 3.8556718556e+00 
13300 4.5786065403e+00 5.9477608559e-02 2.2247114609e+00 -3.8533132825e+00 2.2247114609e+00 3.8533132825e+00 
13400 4.5785517649e+00 5.8357924953e-02 2.2233748460e+00 -3.8509981976e+00 2.2233748460e+00 3.8509981976e+00 
13500 4.5785042762e+00 5.7272341177e-02 2.2220626026e+00 -3.8487253253e+00 2.2220626026e+00 3.8487253253e+00 
13600 4.5784636026e+00 5.6220142751e-02 2.2207740070e+00 -3.8464934123e+00 2.2207740070e+00 3.8464934123e+00 
13700 4.5784292593e+00 5.5200590410e-02 2.2195083492e+00 -3.8443012287e+00 2.2195083492e+00 3.8443012287e+00 
13800 4.5784007525e+00 5.4212922386e-02 2.2182649335e+00 -3.8421475694e+00 2.2182649335e+00 3.8421475694e+00 
13900 4.5783775835e+00 5.3256356686e-02 2.2170430789e+00 -3.8400312552e+00 2.2170430789e+00 3.8400312552e+00 
14000 4.5783592523e+00 5.2330093355e-02 2.2158421202e+00 -3.8379511337e+00 2.2158421202e+00 3.8379511337e+00 
14100 4.5783452616e+00 5.1433316722e-02 2.2146614078e+00 -3.8359060799e+00 2.2146614078e+00 3.8359060799e+00 
14200 4.5783351199e+00 5.0565197624e-02 2.2135003089e+00 -3.8338949975e+00 2.2135003089e+00 3.8338949975e+00 
14300 4.5783283445e+00 4.9724895605e-02 2.2123582072e+00 -3.8319168195e+00 2.2123582072e+00 3.8319168195e+00 
14400 4.5783244648e+00 4.8911561071e-02 2.2112345040e+00 -3.8299705083e+00 2.2112345040e+00 3.8299705083e+00 
14500 4.5783230245e+00 4.8124337419e-02 2.2101286176e+00 -3.8280550569e+00 2.2101286176e+00 3.8280550569e+00 
14600 4.5783235843e+00 4.7362363115e-02 2.2090399845e+00 -3.8261694890e+00 2.2090399845e+00 3.8261694890e+00 
14700 4.5783257237e+00 4.6624773721e-02 2.2079680589e+00 -3.8243128594e+00 2.2079680589e+00 3.8243128594e+00 
14800 4.5783290429e+00 4.5910703877e-02 2.2069123132e+00 -3.8224842542e+00 2.2069123132e+00 3.8224842542e+00 
14900 4.5783331647e+00 4.5219289220e-02 2.2058722379e+00 -3.8206827911e+00 2.2058722379e+00 3.8206827911e+00 
15000 4.5783377354e+00 4.4549668235e-02 2.2048473421e+00 -3.8189076194e+00 2.2048473421e+00 3.8189076194e+00 
15100 4.5783424264e+00 4.3900984055e-02 2.2038371528e+00 -3.8171579202e+00 2.2038371528e+00 3.8171579202e+00 
15200 4.5783469344e+00 4.3272386174e-02 2.2028412154e+00 -3.8154329061e+00 2.2028412154e+00 3.8154329061e+00 
15300 4.5783509827e+00 4.2663032096e-02 2.2018590936e+00 -3.8137318212e+00 2.2018590936e+00 3.8137318212e+00 
15400 4.5783543211e+00 4.2072088906e-02 2.2008903690e+00 -3.8120539409e+00 2.2008903690e+00 3.8120539409e+00 
15500 4.5783567264e+00 4.1498734759e-02 2.1999346412e+00 -3.8103985718e+00 2.1999346412e+00 3.8103985718e+00 
15600 4.5783580022e+00 4.0942160287e-02 2.1989915275e+00 -3.8087650510e+00 2.1989915275e+00 3.8087650510e+00 
15700 4.5783579788e+00 4.0401569918e-02 2.1980606628e+00 -3.8071527461e+00 2.1980606628e+00 3.8071527461e+00 
15800 4.5783565127e+00 3.9876183118e-02 2.1971416993e+00 -3.8055610545e+00 2.1971416993e+00 3.8055610545e+00 
15900 4.5783534861e+00 3.9365235533e-02 2.1962343059e+00 -3.8039894031e+00 2.1962343059e+00 3.8039894031e+00 
16000 4.5783488062e+00 3.8867980047e-02 2.1953381684e+00 -3.8024372475e+00 2.1953381684e+00 3.8024372475e+00 
16100 4.5783424044e+00 3.8383687752e-02 2.1944529889e+00 -3.8009040716e+00 2.1944529889e+00 3.8009040716e+00 
16200 4.5783342351e+00 3.7911648822e-02 2.1935784854e+00 -3.7993893871e+00 2.1935784854e+00 3.7993893871e+00 
16300 4.5783242749e+00 3.7451173303e-02 2.1927143914e+00 -3.7978927324e+00 2.1927143914e+00 3.7978927324e+00 
16400 4.5783125211e+00 3.7001591805e-02 2.1918604557e+00 -3.7964136724e+00 2.1918604557e+00 3.7964136724e+00 
16500 4.5782989906e+00 3.6562256113e-02 2.1910164418e+00 -3.7949517974e+00 2.1910164418e+00 3.7949517974e+00 
16600 4.5782837185e+00 3.6132539705e-02 2.1901821273e+00 -3.7935067223e+00 2.1901821273e+00 3.7935067223e+00 
16700 4.5782667566e+00 3.5711838184e-02 2.1893573039e+00 -3.7920780862e+00 2.1893573039e+00 3.7920780862e+00 
16800 4.5782481721e+00 3.5299569627e-02 2.1885417764e+00 -3.7906655512e+00 2.1885417764e+00 3.7906655512e+00 
16900 4.5782280458e+00 3.4895174853e-02 2.1877353627e+00 -3.7892688017e+00 2.1877353627e+00 3.7892688017e+00 
17000 4.5782064711e+00 3.4498117607e-02 2.1869378930e+00 -3.7878875437e+00 2.1869378930e+00 3.7878875437e+00 
17100 4.5781835518e+00 3.4107884670e-02 2.1861492094e+00 -3.7865215035e+00 2.1861492094e+00 3.7865215035e+00 
17200 4.5781594011e+00 3.3723985897e-02 2.1853691653e+00 -3.7851704275e+00 2.1853691653e+00 3.7851704275e+00 
17300 4.5781341398e+00 3.3345954181e-02 2.1845976251e+00 -3.7838340808e+00 2.1845976251e+00 3.7838340808e+00 
17400 4.5781078950e+00 3.2973345356e-02 2.1838344637e+00 -3.7825122465e+00 2.1838344637e+00 3.7825122465e+00 
17500 4.5780807987e+00 3.2605738026e-02 2.1830795657e+00 -3.7812047248e+00 2.1830795657e+00 3.7812047248e+00 
17600 4.5780529860e+00 3.2242733349e-02 2.1823328252e+00 -3.7799113323e+00 2.1823328252e+00 3.7799113323e+00 
17700 4.5780245941e+00 3.1883954756e-02 2.1815941452e+00 -3.7786319010e+00 2.1815941452e+00 3.7786319010e+00 
17800 4.5779957612e+00 3.1529047623e-02 2.1808634370e+00 -3.7773662773e+00 2.1808634370e+00 3.7773662773e+00 
17900 4.5779666246e+00 3.1177678895e-02 2.1801406200e+00 -3.7761143214e+00 2.1801406200e+00 3.7761143214e+00 
18000 4.5779373203e+00 3.0829536666e-02 2.1794256208e+00 -3.7748759065e+00 2.1794256208e+00 3.7748759065e+00 
18100 4.5779079814e+00 3.0484329727e-02 2.1787183733e+00 -3.7736509179e+00 2.1787183733e+00 3.7736509179e+00 
18200 4.5778787373e+00 3.0141787067e-02 2.1780188175e+00 -3.7724392518e+00 2.1780188175e+00 3.7724392518e+00 
18300 4.5778497129e+00 2.9801657361e-02 2.1773268999e+00 -3.7712408154e+00 2.1773268999e+00 3.7712408154e+00 
18400 4.5778210277e+00 2.9463708414e-02 2.1766425724e+00 -3.7700555253e+00 2.1766425724e+00 3.7700555253e+00 
18500 4.5777927949e+00 2.9127726593e-02 2.1759657920e+00 -3.7688833073e+00 2.1759657920e+00 3.7688833073e+00 
18600 4.5777651211e+00 2.8793516243e-02 2.1752965206e+00 -3.7677240952e+00 2.1752965206e+00 3.7677240952e+00 
18700 4.5777381055e+00 2.8460899074e-02 2.1746347245e+00 -3.7665778307e+00 2.1746347245e+00 3.7665778307e+00 
18800 4.5777118396e+00 2.8129713554e-02 2.1739803739e+00 -3.7654444622e+00 2.1739803739e+00 3.7654444622e+00 
18900 4.5776864066e+00 2.7799814277e-02 2.1733334426e+00 -3.7643239444e+00 2.1733334426e+00 3.7643239444e+00 
19000 4.5776618815e+00 2.7471071340e-02 2.1726939077e+00 -3.7632162375e+00 2.1726939077e+00 3.7632162375e+00 
19100 4.5776383306e+00 2.7143369706e-02 2.1720617492e+00 -3.7621213068e+00 2.1720617492e+00 3.7621213068e+00 
19200 4.5776158114e+00 2.6816608574e-02 2.1714369496e+00 -3.7610391221e+00 2.1714369496e+00 3.7610391221e+00 
19300 4.5775943729e+00 2.6490700747e-02 2.1708194935e+00 -3.7599696569e+00 2.1708194935e+00 3.7599696569e+00 
19400 4.5775740552e+00 2.6165572008e-02 2.1702093677e+00 -3.7589128880e+00 2.1702093677e+00 3.7589128880e+00 
19500 4.5775548899e+00 2.5841160505e-02 2.1696065605e+00 -3.7578687952e+00 2.1696065605e+00 3.7578687952e+00 
19600 4.5775369000e+00 2.5517416133e-02 2.1690110613e+00 -3.7568373603e+00 2.1690110613e+00 3.7568373603e+00 
19700 4.5775201005e+00 2.5194299941e-02 2.1684228609e+00 -3.7558185674e+00 2.1684228609e+00 3.7558185674e+00 
19800 4.5775044984e+00 2.4871783537e-02 2.1678419508e+00 -3.7548124016e+00 2.1678419508e+00 3.7548124016e+00 
19900 4.5774900933e+00 2.4549848518e-02 2.1672683231e+00 -3.7538188492e+00 2.1672683231e+00 3.7538188492e+00 
20000 4.5774768772e+00 2.4228485898e-02 2.1667019700e+00 -3.7528378970e+00 2.1667019700e+00 3.7528378970e+00 
20100 4.5774648359e+00 2.3907695569e-02 2.1661428843e+00 -3.7518695321e+00 2.1661428843e+00 3.7518695321e+00 
20200 4.5774539483e+00 2.3587485756e-02 2.1655910583e+00 -3.7509137414e+00 2.1655910583e+00 3.7509137414e+00 
20300 4.5774441878e+00 2.3267872507e-02 2.1650464842e+00 -3.7499705113e+00 2.1650464842e+00 3.7499705113e+00 
20400 4.5774355223e+00 2.2948879182e-02 2.1645091537e+00 -3.7490398276e+00 2.1645091537e+00 3.7490398276e+00 
20500 4.5774279149e+00 2.2630535968e-02 2.1639790579e+00 -3.7481216748e+00 2.1639790579e+00 3.7481216748e+00 
20600 4.5774213243e+00 2.2312879407e-02 2.1634561872e+00 -3.7472160362e+00 2.1634561872e+00 3.7472160362e+00 
20700 4.5774157055e+00 2.1995951937e-02 2.1629405310e+00 -3.7463228935e+00 2.1629405310e+00 3.7463228935e+00 
20800 4.5774110102e+00 2.1679801451e-02 2.1624320776e+00 -3.7454422263e+00 2.1624320776e+00 3.7454422263e+00 
20900 4.5774071872e+00 2.1364480871e-02 2.1619308141e+00 -3.7445740125e+00 2.1619308141e+00 3.7445740125e+00 
21000 4.5774041832e+00 2.1050047735e-02 2.1614367265e+00 -3.7437182276e+00 2.1614367265e+00 3.7437182276e+00 
21100 4.5774019430e+00 2.0736563803e-02 2.1609497990e+00 -3.7428748445e+00 2.1609497990e+00 3.7428748445e+00 
21200 4.5774004105e+00 2.0424094670e-02 2.1604700147e+00 -3.7420438337e+00 2.1604700147e+00 3.7420438337e+00 
21300 4.5773995283e+00 2.0112709400e-02 2.1599973548e+00 -3.7412251628e+00 2.1599973548e+00 3.7412251628e+00 
21400 4.5773992392e+00 1.9802480169e-02 2.1595317990e+00 -3.7404187965e+00 2.1595317990e+00 3.7404187965e+00 
21500 4.5773994858e+00 1.9493481921e-02 2.1590733251e+00 -3.7396246964e+00 2.1590733251e+00 3.7396246964e+00 
21600 4.5774002112e+00 1.9185792037e-02 2.1586219092e+00 -3.7388428210e+00 2.1586219092e+00 3.7388428210e+00 
21700 4.5774013594e+00 1.8879490019e-02 2.1581775254e+00 -3.7380731257e+00 2.1581775254e+00 3.7380731257e+00 
21800 4.5774028758e+00 1.8574657176e-02 2.1577401459e+00 -3.7373155621e+00 2.1577401459e+00 3.7373155621e+00 
21900 4.5774047070e+00 1.8271376333e-02 2.1573097409e+00 -3.7365700790e+00 2.1573097409e+00 3.7365700790e+00 
22000 4.5774068018e+00 1.7969731541e-02 2.1568862788e+00 -3.7358366211e+00 2.1568862788e+00 3.7358366211e+00 
22100 4.5774091108e+00 1.7669807802e-02 2.1564697257e+00 -3.7351151300e+00 2.1564697257e+00 3.7351151300e+00 
22200 4.5774115869e+00 1.7371690802e-02 2.1560600458e+00 -3.7344055435e+00 2.1560600458e+00 3.7344055435e+00 
22300 4.5774141857e+00 1.7075466654e-02 2.1556572010e+00 -3.7337077959e+00 2.1556572010e+00 3.7337077959e+00 
22400 4.5774168653e+00 1.6781221648e-02 2.1552611514e+00 -3.7330218178e+00 2.1552611514e+00 3.7330218178e+00 
22500 4.5774195866e+00 1.6489042013e-02 2.1548718548e+00 -3.7323475364e+00 2.1548718548e+00 3.7323475364e+00 
22600 4.5774223134e+00 1.6199013688e-02 2.1544892670e+00 -3.7316848748e+00 2.1544892670e+00 3.7316848748e+00 
22700 4.5774250125e+00 1.5911222093e-02 2.1541133417e+00 -3.7310337530e+00 2.1541133417e+00 3.7310337530e+00 
22800 4.5774276535e+00 1.5625751921e-02 2.1537440304e+00 -3.7303940871e+00 2.1537440304e+00 3.7303940871e+00 
22900 4.5774302094e+00 1.5342686930e-02 2.1533812827e+00 -3.7297657897e+00 2.1533812827e+00 3.7297657897e+00 
23000 4.5774326559e+00 1.5062109740e-02 2.1530250461e+00 -3.7291487699e+00 2.1530250461e+00 3.7291487699e+00 
23100 4.5774349718e+00 1.4784101649e-02 2.1526752661e+00 -3.7285429331e+00 2.1526752661e+00 3.7285429331e+00 
23200 4.5774371388e+00 1.4508742446e-02 2.1523318862e+00 -3.7279481817e+00 2.1523318862e+00 3.7279481817e+00 
23300 4.5774391417e+00 1.4236110234e-02 2.1519948480e+00 -3.7273644143e+00 2.1519948480e+00 3.7273644143e+00 
23400 4.5774409678e+00 1.3966281270e-02 2.1516640910e+00 -3.7267915264e+00 2.1516640910e+00 3.7267915264e+00 
23500 4.5774426072e+00 1.3699329796e-02 2.1513395531e+00 -3.7262294103e+00 2.1513395531e+00 3.7262294103e+00 
23600 4.5774440526e+00 1.3435327895e-02 2.1510211703e+00 -3.7256779551e+00 2.1510211703e+00 3.7256779551e+00 
23700 4.5774452992e+00 1.3174345341e-02 2.1507088767e+00 -3.7251370467e+00 2.1507088767e+00 3.7251370467e+00 
23800 4.5774463443e+00 1.2916449467e-02 2.1504026048e+00 -3.7246065683e+00 2.1504026048e+00 3.7246065683e+00 
23900 4.5774471878e+00 1.2661705036e-02 2.1501022855e+00 -3.7240864000e+00 2.1501022855e+00 3.7240864000e+00 
24000 4.5774478310e+00 1.2410174118e-02 2.1498078480e+00 -3.7235764192e+00 2.1498078480e+00 3.7235764192e+00 
24100 4.5774482776e+00 1.2161915983e-02 2.1495192199e+00 -3.7230765008e+00 2.1495192199e+00 3.7230765008e+00 
24200 4.5774485328e+00 1.1916986990e-02 2.1492363276e+00 -3.7225865169e+00 2.1492363276e+00 3.7225865169e+00 
24300 4.5774486031e+00 1.1675440499e-02 2.1489590959e+00 -3.7221063375e+00 2.1489590959e+00 3.7221063375e+00 
24400 4.5774484966e+00 1.1437326777e-02 2.1486874482e+00 -3.7216358299e+00 2.1486874482e+00 3.7216358299e+00 
24500 4.5774482227e+00 1.1202692921e-02 2.1484213069e+00 -3.7211748596e+00 2.1484213069e+00 3.7211748596e+00 
24600 4.5774477915e+00 1.0971582787e-02 2.1481605930e+00 -3.7207232899e+00 2.1481605930e+00 3.7207232899e+00 
24700 4.5774472142e+00 1.0744036929e-02 2.1479052265e+00 -3.7202809821e+00 2.1479052265e+00 3.7202809821e+00 
24800 4.5774465027e+00 1.0520092538e-02 2.1476551263e+00 -3.7198477959e+00 2.1476551263e+00 3.7198477959e+00 
24900 4.5774456693e+00 1.0299783405e-02 2.1474102105e+00 -3.7194235894e+00 2.1474102105e+00 3.7194235894e+00 
25000 4.5774447270e+00 1.0083139875e-02 2.1471703963e+00 -3.7190082189e+00 2.1471703963e+00 3.7190082189e+00 
25100 4.5774436887e+00 9.8701888196e-03 2.1469355999e+00 -3.7186015396e+00 2.1469355999e+00 3.7186015396e+00 
25200 4.5774425677e+00 9.6609536179e-03 2.1467057371e+00 -3.7182034056e+00 2.1467057371e+00 3.7182034056e+00 
25300 4.5774413774e+00 9.4554541392e-03 2.1464807229e+00 -3.7178136696e+00 2.1464807229e+00 3.7178136696e+00 
25400 4.5774401309e+00 9.2537067394e-03 2.1462604719e+00 -3.7174321836e+00 2.1462604719e+00 3.7174321836e+00 
25500 4.5774388411e+00 9.0557242618e-03 2.1460448981e+00 -3.7170587988e+00 2.1460448981e+00 3.7170587988e+00 
25600 4.5774375208e+00 8.8615160476e-03 2.1458339152e+00 -3.7166933656e+00 2.1458339152e+00 3.7166933656e+00 
25700 4.5774361821e+00 8.6710879529e-03 2.1456274366e+00 -3.7163357343e+00 2.1456274366e+00 3.7163357343e+00 
25800 4.5774348370e+00 8.4844423731e-03 2.1454253756e+00 -3.7159857544e+00 2.1454253756e+00 3.7159857544e+00 
25900 4.5774334967e+00 8.3015782750e-03 2.1452276453e+00 -3.7156432755e+00 2.1452276453e+00 3.7156432755e+00 
26000 4.5774321719e+00 8.1224912351e-03 2.1450341588e+00 -3.7153081470e+00 2.1450341588e+00 3.7153081470e+00 
26100 4.5774308725e+00 7.9471734850e-03 2.1448448291e+00 -3.7149802184e+00 2.1448448291e+00 3.7149802184e+00 
26200 4.5774296079e+00 7.7756139638e-03 2.1446595696e+00 -3.7146593394e+00 2.1446595696e+00 3.7146593394e+00 
26300 4.5774283868e+00 7.6077983751e-03 2.1444782936e+00 -3.7143453603e+00 2.1444782936e+00 3.7143453603e+00 
26400 4.5774272168e+00 7.4437092523e-03 2.1443009150e+00 -3.7140381314e+00 2.1443009150e+00 3.7140381314e+00 
26500 4.5774261051e+00 7.2833260271e-03 2.1441273477e+00 -3.7137375041e+00 2.1441273477e+00 3.7137375041e+00 
26600 4.5774250579e+00 7.1266251054e-03 2.1439575063e+00 -3.7134433303e+00 2.1439575063e+00 3.7134433303e+00 
26700 4.5774240807e+00 6.9735799470e-03 2.1437913059e+00 -3.7131554627e+00 2.1437913059e+00 3.7131554627e+00 
26800 4.5774231781e+00 6.8241611505e-03 2.1436286620e+00 -3.7128737552e+00 2.1436286620e+00 3.7128737552e+00 
26900 4.5774223540e+00 6.6783365430e-03 2.1434694909e+00 -3.7125980627e+00 2.1434694909e+00 3.7125980627e+00 
27000 4.5774216115e+00 6.5360712734e-03 2.1433137094e+00 -3.7123282413e+00 2.1433137094e+00 3.7123282413e+00 
27100 4.5774209531e+00 6.3973279095e-03 2.1431612354e+00 -3.7120641485e+00 2.1431612354e+00 3.7120641485e+00 
27200 4.5774203802e+00 6.2620665392e-03 2.1430119873e+00 -3.7118056433e+00 2.1430119873e+00 3.7118056433e+00 
27300 4.5774198939e+00 6.1302448740e-03 2.1428658846e+00 -3.7115525860e+00 2.1428658846e+00 3.7115525860e+00 
27400 4.5774194944e+00 6.0018183563e-03 2.1427228478e+00 -3.7113048389e+00 2.1427228478e+00 3.7113048389e+00 
27500 4.5774191814e+00 5.8767402679e-03 2.1425827981e+00 -3.7110622657e+00 2.1425827981e+00 3.7110622657e+00 
27600 4.5774189539e+00 5.7549618423e-03 2.1424456581e+00 -3.7108247322e+00 2.1424456581e+00 3.7108247322e+00 
27700 4.5774188104e+00 5.6364323772e-03 2.1423113512e+00 -3.7105921060e+00 2.1423113512e+00 3.7105921060e+00 
27800 4.5774187488e+00 5.5210993494e-03 2.1421798023e+00 -3.7103642566e+00 2.1421798023e+00 3.7103642566e+00 
27900 4.5774187668e+00 5.4089085310e-03 2.1420509372e+00 -3.7101410557e+00 2.1420509372e+00 3.7101410557e+00 
28000 4.5774188614e+00 5.2998041057e-03 2.1419246831e+00 -3.7099223771e+00 2.1419246831e+00 3.7099223771e+00 
28100 4.5774190294e+00 5.1937287867e-03 2.1418009684e+00 -3.7097080969e+00 2.1418009684e+00 3.7097080969e+00 
28200 4.5774192671e+00 5.0906239337e-03 2.1416797227e+00 -3.7094980933e+00 2.1416797227e+00 3.7094980933e+00 
28300 4.5774195707e+00 4.9904296711e-03 2.1415608773e+00 -3.7092922470e+00 2.1415608773e+00 3.7092922470e+00 
28400 4.5774199361e+00 4.8930850045e-03 2.1414443645e+00 -3.7090904409e+00 2.1414443645e+00 3.7090904409e+00 
28500 4.5774203589e+00 4.7985279381e-03 2.1413301182e+00 -3.7088925605e+00 2.1413301182e+00 3.7088925605e+00 
28600 4.5774208347e+00 4.7066955900e-03 2.1412180737e+00 -3.7086984937e+00 2.1412180737e+00 3.7086984937e+00 
28700 4.5774213588e+00 4.6175243072e-03 2.1411081677e+00 -3.7085081309e+00 2.1411081677e+00 3.7085081309e+00 
28800 4.5774219268e+00 4.5309497784e-03 2.1410003383e+00 -3.7083213650e+00 2.1410003383e+00 3.7083213650e+00 
28900 4.5774225338e+00 4.4469071465e-03 2.1408945254e+00 -3.7081380916e+00 2.1408945254e+00 3.7081380916e+00 
29000 4.5774231753e+00 4.3653311179e-03 2.1407906699e+00 -3.7079582087e+00 2.1407906699e+00 3.7079582087e+00 
29100 4.5774238465e+00 4.2861560709e-03 2.1406887147e+00 -3.7077816170e+00 2.1406887147e+00 3.7077816170e+00 
29200 4.5774245430e+00 4.2093161611e-03 2.1405886038e+00 -3.7076082200e+00 2.1405886038e+00 3.7076082200e+00 
29300 4.5774252602e+00 4.1347454247e-03 2.1404902831e+00 -3.7074379235e+00 2.1404902831e+00 3.7074379235e+00 
29400 4.5774259939e+00 4.0623778795e-03 2.1403936998e+00 -3.7072706362e+00 2.1403936998e+00 3.7072706362e+00 
29500 4.5774267397e+00 3.9921476228e-03 2.1402988026e+00 -3.7071062694e+00 2.1402988026e+00 3.7071062694e+00 
29600 4.5774274937e+00 3.9239889268e-03 2.1402055418e+00 -3.7069447370e+00 2.1402055418e+00 3.7069447370e+00 
29700 4.5774282521e+00 3.8578363302e-03 2.1401138693e+00 -3.7067859556e+00 2.1401138693e+00 3.7067859556e+00 
29800 4.5774290112e+00 3.7936247281e-03 2.1400237383e+00 -3.7066298442e+00 2.1400237383e+00 3.7066298442e+00 
29900 4.5774297676e+00 3.7312894573e-03 2.1399351038e+00 -3.7064763248e+00 2.1399351038e+00 3.7064763248e+00 
30000 4.5774305181e+00 3.6707663789e-03 2.1398479221e+00 -3.7063253216e+00 2.1398479221e+00 3.7063253216e+00 
30100 4.5774312599e+00 3.6119919577e-03 2.1397621510e+00 -3.7061767617e+00 2.1397621510e+00 3.7061767617e+00 
30200 4.5774319901e+00 3.5549033377e-03 2.1396777499e+00 -3.7060305746e+00 2.1396777499e+00 3.7060305746e+00 
30300 4.5774327063e+00 3.4994384141e-03 2.1395946794e+00 -3.7058866924e+00 2.1395946794e+00 3.7058866924e+00 
30400 4.5774334065e+00 3.4455359025e-03 2.1395129019e+00 -3.7057450495e+00 2.1395129019e+00 3.7057450495e+00 
30500 4.5774340885e+00 3.3931354032e-03 2.1394323809e+00 -3.7056055830e+00 2.1394323809e+00 3.7056055830e+00 
30600 4.5774347507e+00 3.3421774631e-03 2.1393530815e+00 -3.7054682324e+00 2.1393530815e+00 3.7054682324e+00 
30700 4.5774353918e+00 3.2926036329e-03 2.1392749701e+00 -3.7053329395e+00 2.1392749701e+00 3.7053329395e+00 
30800 4.5774360104e+00 3.2443565219e-03 2.1391980145e+00 -3.7051996485e+00 2.1391980145e+00 3.7051996485e+00 
30900 4.5774366057e+00 3.1973798478e-03 2.1391221838e+00 -3.7050683059e+00 2.1391221838e+00 3.7050683059e+00 
31000 4.5774371768e+00 3.1516184838e-03 2.1390474484e+00 -3.7049388605e+00 2.1390474484e+00 3.7049388605e+00 
31100 4.5774377233e+00 3.1070185018e-03 2.1389737801e+00 -3.7048112632e+00 2.1389737801e+00 3.7048112632e+00 
31200 4.5774382449e+00 3.0635272121e-03 2.1389011518e+00 -3.7046854673e+00 2.1389011518e+00 3.7046854673e+00 
31300 4.5774387415e+00 3.0210931993e-03 2.1388295377e+00 -3.7045614280e+00 2.1388295377e+00 3.7045614280e+00 
31400 4.5774392131e+00 2.9796663554e-03 2.1387589131e+00 -3.7044391027e+00 2.1387589131e+00 3.7044391027e+00 
31500 4.5774396600e+00 2.9391979084e-03 2.1386892548e+00 -3.7043184508e+00 2.1386892548e+00 3.7043184508e+00 
31600 4.5774400826e+00 2.8996404484e-03 2.1386205402e+00 -3.7041994337e+00 2.1386205402e+00 3.7041994337e+00 
31700 4.5774404815e+00 2.8609479503e-03 2.1385527482e+00 -3.7040820146e+00 2.1385527482e+00 3.7040820146e+00 
31800 4.5774408573e+00 2.8230757929e-03 2.1384858588e+00 -3.7039661587e+00 2.1384858588e+00 3.7039661587e+00 
31900 4.5774412109e+00 2.7859807749e-03 2.1384198527e+00 -3.7038518328e+00 2.1384198527e+00 3.7038518328e+00 
32000 4.5774415432e+00 2.7496211281e-03 2.1383547119e+00 -3.7037390056e+00 2.1383547119e+00 3.7037390056e+00 
32100 4.5774418552e+00 2.7139565276e-03 2.1382904193e+00 -3.7036276476e+00 2.1382904193e+00 3.7036276476e+00 
32200 4.5774421480e+00 2.6789480984e-03 2.1382269587e+00 -3.7035177307e+00 2.1382269587e+00 3.7035177307e+00 
32300 4.5774424227e+00 2.6445584203e-03 2.1381643149e+00 -3.7034092283e+00 2.1381643149e+00 3.7034092283e+00 
32400 4.5774426806e+00 2.6107515291e-03 2.1381024734e+00 -3.7033021157e+00 2.1381024734e+00 3.7033021157e+00 
32500 4.5774429228e+00 2.5774929158e-03 2.1380414207e+00 -3.7031963693e+00 2.1380414207e+00 3.7031963693e+00 
32600 4.5774431507e+00 2.5447495228e-03 2.1379811440e+00 -3.7030919671e+00 2.1379811440e+00 3.7030919671e+00 
32700 4.5774433655e+00 2.5124897378e-03 2.1379216314e+00 -3.7029888881e+00 2.1379216314e+00 3.7029888881e+00 
32800 4.5774435685e+00 2.4806833859e-03 2.1378628715e+00 -3.7028871131e+00 2.1378628715e+00 3.7028871131e+00 
32900 4.5774437609e+00 2.4493017185e-03 2.1378048540e+00 -3.7027866238e+00 2.1378048540e+00 3.7027866238e+00 
33000 4.5774439441e+00 2.4183174010e-03 2.1377475688e+00 -3.7026874029e+00 2.1377475688e+00 3.7026874029e+00 
33100 4.5774441193e+00 2.3877044976e-03 2.1376910068e+00 -3.7025894346e+00 2.1376910068e+00 3.7025894346e+00 
33200 4.5774442877e+00 2.3574384550e-03 2.1376351593e+00 -3.7024927039e+00 2.1376351593e+00 3.7024927039e+00 
33300 4.5774444504e+00 2.3274960839e-03 2.1375800182e+00 -3.7023971968e+00 2.1375800182e+00 3.7023971968e+00 
33400 4.5774446085e+00 2.2978555383e-03 2.1375255761e+00 -3.7023029004e+00 2.1375255761e+00 3.7023029004e+00 
33500 4.5774447632e+00 2.2684962942e-03 2.1374718260e+00 -3.7022098024e+00 2.1374718260e+00 3.7022098024e+00 
33600 4.5774449155e+00 2.2393991261e-03 2.1374187613e+00 -3.7021178916e+00 2.1374187613e+00 3.7021178916e+00 
33700 4.5774450662e+00 2.2105460818e-03 2.1373663759e+00 -3.7020271575e+00 2.1373663759e+00 3.7020271575e+00 
33800 4.5774452162e+00 2.1819204567e-03 2.1373146642e+00 -3.7019375902e+00 2.1373146642e+00 3.7019375902e+00 
33900 4.5774453664e+00 2.1535067665e-03 2.1372636209e+00 -3.7018491806e+00 2.1372636209e+00 3.7018491806e+00 
34000 4.5774455176e+00 2.1252907181e-03 2.1372132411e+00 -3.7017619202e+00 2.1372132411e+00 3.7017619202e+00 
34100 4.5774456703e+00 2.0972591809e-03 2.1371635202e+00 -3.7016758011e+00 2.1371635202e+00 3.7016758011e+00 
34200 4.5774458252e+00 2.0694001555e-03 2.1371144540e+00 -3.7015908159e+00 2.1371144540e+00 3.7015908159e+00 
34300 4.5774459827e+00 2.0417027427e-03 2.1370660384e+00 -3.7015069577e+00 2.1370660384e+00 3.7015069577e+00 
34400 4.5774461435e+00 2.0141571117e-03 2.1370182698e+00 -3.7014242199e+00 2.1370182698e+00 3.7014242199e+00 
34500 4.5774463077e+00 1.9867544664e-03 2.1369711445e+00 -3.7013425967e+00 2.1369711445e+00 3.7013425967e+00 
34600 4.5774464758e+00 1.9594870128e-03 2.1369246594e+00 -3.7012620821e+00 2.1369246594e+00 3.7012620821e+00 
34700 4.5774466480e+00 1.9323479245e-03 2.1368788113e+00 -3.7011826708e+00 2.1368788113e+00 3.7011826708e+00 
34800 4.5774468244e+00 1.9053313085e-03 2.1368335972e+00 -3.7011043576e+00 2.1368335972e+00 3.7011043576e+00 
34900 4.5774470052e+00 1.8784321703e-03 2.1367890143e+00 -3.7010271378e+00 2.1367890143e+00 3.7010271378e+00 
35000 4.5774471904e+00 1.8516463788e-03 2.1367450599e+00 -3.7009510065e+00 2.1367450599e+00 3.7009510065e+00 
35100 4.5774473801e+00 1.8249706311e-03 2.1367017314e+00 -3.7008759593e+00 2.1367017314e+00 3.7008759593e+00 
35200 4.5774475741e+00 1.7984024167e-03 2.1366590262e+00 -3.7008019918e+00 2.1366590262e+00 3.7008019918e+00 
35300 4.5774477724e+00 1.7719399821e-03 2.1366169419e+00 -3.7007290996e+00 2.1366169419e+00 3.7007290996e+00 
35400 4.5774479748e+00 1.7455822953e-03 2.1365754760e+00 -3.7006572786e+00 2.1365754760e+00 3.7006572786e+00 
35500 4.5774481812e+00 1.7193290100e-03 2.1365346261e+00 -3.7005865246e+00 2.1365346261e+00 3.7005865246e+00 
35600 4.5774483912e+00 1.6931804301e-03 2.1364943898e+00 -3.7005168333e+00 2.1364943898e+00 3.7005168333e+00 
35700 4.5774486048e+00 1.6671374745e-03 2.1364547648e+00 -3.7004482006e+00 2.1364547648e+00 3.7004482006e+00 
35800 4.5774488214e+00 1.6412016419e-03 2.1364157484e+00 -3.7003806224e+00 2.1364157484e+00 3.7003806224e+00 
35900 4.5774490409e+00 1.6153749758e-03 2.1363773384e+00 -3.7003140942e+00 2.1363773384e+00 3.7003140942e+00 
36000 4.5774492629e+00 1.5896600301e-03 2.1363395321e+00 -3.7002486118e+00 2.1363395321e+00 3.7002486118e+00 
36100 4.5774494871e+00 1.5640598350e-03 2.1363023270e+00 -3.7001841706e+00 2.1363023270e+00 3.7001841706e+00 
36200 4.5774497131e+00 1.5385778626e-03 2.1362657204e+00 -3.7001207661e+00 2.1362657204e+00 3.7001207661e+00 
36300 4.5774499405e+00 1.5132179945e-03 2.1362297096e+00 -3.7000583936e+00 2.1362297096e+00 3.7000583936e+00 
36400 4.5774501689e+00 1.4879844879e-03 2.1361942917e+00 -3.6999970480e+00 2.1361942917e+00 3.6999970480e+00 
36500 4.5774503980e+00 1.4628819442e-03 2.1361594639e+00 -3.6999367245e+00 2.1361594639e+00 3.6999367245e+00 
36600 4.5774506274e+00 1.4379152765e-03 2.1361252230e+00 -3.6998774176e+00 2.1361252230e+00 3.6998774176e+00 
36700 4.5774508567e+00 1.4130896791e-03 2.1360915660e+00 -3.6998191219e+00 2.1360915660e+00 3.6998191219e+00 
36800 4.5774510855e+00 1.3884105962e-03 2.1360584896e+00 -3.6997618319e+00 2.1360584896e+00 3.6997618319e+00 
36900 4.5774513135e+00 1.3638836930e-03 2.1360259903e+00 -3.6997055415e+00 2.1360259903e+00 3.6997055415e+00 
37000 4.5774515403e+00 1.3395148259e-03 2.1359940646e+00 -3.6996502446e+00 2.1359940646e+00 3.6996502446e+00 
37100 4.5774517656e+00 1.3153100142e-03 2.1359627089e+00 -3.6995959350e+00 2.1359627089e+00 3.6995959350e+00 
37200 4.5774519891e+00 1.2912754126e-03 2.1359319194e+00 -3.6995426059e+00 2.1359319194e+00 3.6995426059e+00 
37300 4.5774522105e+00 1.2674172842e-03 2.1359016920e+00 -3.6994902505e+00 2.1359016920e+00 3.6994902505e+00 
37400 4.5774524294e+00 1.2437419745e-03 2.1358720227e+00 -3.6994388618e+00 2.1358720227e+00 3.6994388618e+00 
37500 4.5774526457e+00 1.2202558863e-03 2.1358429072e+00 -3.6993884323e+00 2.1358429072e+00 3.6993884323e+00 
37600 4.5774528590e+00 1.1969654549e-03 2.1358143411e+00 -3.6993389544e+00 2.1358143411e+00 3.6993389544e+00 
37700 4.5774530692e+00 1.1738771248e-03 2.1357863199e+00 -3.6992904202e+00 2.1357863199e+00 3.6992904202e+00 
37800 4.5774532761e+00 1.1509973270e-03 2.1357588388e+00 -3.6992428216e+00 2.1357588388e+00 3.6992428216e+00 
37900 4.5774534794e+00 1.1283324572e-03 2.1357318930e+00 -3.6991961501e+00 2.1357318930e+00 3.6991961501e+00 
38000 4.5774536791e+00 1.1058888548e-03 2.1357054775e+00 -3.6991503970e+00 2.1357054775e+00 3.6991503970e+00 
38100 4.5774538749e+00 1.0836727830e-03 2.1356795871e+00 -3.6991055535e+00 2.1356795871e+00 3.6991055535e+00 
38200 4.5774540668e+00 1.0616904095e-03 2.1356542164e+00 -3.6990616103e+00 2.1356542164e+00 3.6990616103e+00 
38300 4.5774542548e+00 1.0399477886e-03 2.1356293601e+00 -3.6990185579e+00 2.1356293601e+00 3.6990185579e+00 
38400 4.5774544386e+00 1.0184508438e-03 2.1356050126e+00 -3.6989763868e+00 2.1356050126e+00 3.6989763868e+00 
38500 4.5774546183e+00 9.9720535124e-04 2.1355811681e+00 -3.6989350869e+00 2.1355811681e+00 3.6989350869e+00 
38600 4.5774547939e+00 9.7621692472e-04 2.1355578208e+00 -3.6988946481e+00 2.1355578208e+00 3.6988946481e+00 
38700 4.5774549653e+00 9.5549100082e-04 2.1355349645e+00 -3.6988550599e+00 2.1355349645e+00 3.6988550599e+00 
38800 4.5774551326e+00 9.3503282546e-04 2.1355125934e+00 -3.6988163119e+00 2.1355125934e+00 3.6988163119e+00 
38900 4.5774552958e+00 9.1484744123e-04 2.1354907009e+00 -3.6987783931e+00 2.1354907009e+00 3.6987783931e+00 
39000 4.5774554548e+00 8.9493967562e-04 2.1354692809e+00 -3.6987412925e+00 2.1354692809e+00 3.6987412925e+00 
39100 4.5774556099e+00 8.7531413013e-04 2.1354483267e+00 -3.6987049989e+00 2.1354483267e+00 3.6987049989e+00 
39200 4.5774557610e+00 8.5597517038e-04 2.1354278319e+00 -3.6986695008e+00 2.1354278319e+00 3.6986695008e+00 
39300 4.5774559083e+00 8.3692691695e-04 2.1354077897e+00 -3.6986347867e+00 2.1354077897e+00 3.6986347867e+00 
39400 4.5774560518e+00 8.1817323722e-04 2.1353881933e+00 -3.6986008447e+00 2.1353881933e+00 3.6986008447e+00 
39500 4.5774561916e+00 7.9971773803e-04 2.1353690359e+00 -3.6985676630e+00 2.1353690359e+00 3.6985676630e+00 
39600 4.5774563279e+00 7.8156375916e-04 2.1353503104e+00 -3.6985352295e+00 2.1353503104e+00 3.6985352295e+00 
39700 4.5774564608e+00 7.6371436770e-04 2.1353320098e+00 -3.6985035320e+00 2.1353320098e+00 3.6985035320e+00 
39800 4.5774565904e+00 7.4617235318e-04 2.1353141270e+00 -3.6984725581e+00 2.1353141270e+00 3.6984725581e+00 
39900 4.5774567168e+00 7.2894022356e-04 2.1352966549e+00 -3.6984422955e+00 2.1352966549e+00 3.6984422955e+00 
40000 4.5774568402e+00 7.1202020193e-04 2.1352795861e+00 -3.6984127314e+00 2.1352795861e+00 3.6984127314e+00 
40100 4.5774569607e+00 6.9541422410e-04 2.1352629133e+00 -3.6983838534e+00 2.1352629133e+00 3.6983838534e+00 
40200 4.5774570784e+00 6.7912393676e-04 2.1352466293e+00 -3.6983556486e+00 2.1352466293e+00 3.6983556486e+00 
40300 4.5774571935e+00 6.6315069654e-04 2.1352307266e+00 -3.6983281044e+00 2.1352307266e+00 3.6983281044e+00 
40400 4.5774573062e+00 6.4749556966e-04 2.1352151979e+00 -3.6983012078e+00 2.1352151979e+00 3.6983012078e+00 
40500 4.5774574165e+00 6.3215933231e-04 2.1352000356e+00 -3.6982749459e+00 2.1352000356e+00 3.6982749459e+00 
40600 4.5774575246e+00 6.1714247171e-04 2.1351852323e+00 -3.6982493059e+00 2.1351852323e+00 3.6982493059e+00 
40700 4.5774576307e+00 6.0244518770e-04 2.1351707806e+00 -3.6982242748e+00 2.1351707806e+00 3.6982242748e+00 
40800 4.5774577348e+00 5.8806739513e-04 2.1351566729e+00 -3.6981998397e+00 2.1351566729e+00 3.6981998397e+00 
40900 4.5774578371e+00 5.7400872664e-04 2.1351429019e+00 -3.6981759875e+00 2.1351429019e+00 3.6981759875e+00 
41000 4.5774579378e+00 5.6026853614e-04 2.1351294600e+00 -3.6981527054e+00 2.1351294600e+00 3.6981527054e+00 
41100 4.5774580368e+00 5.4684590281e-04 2.1351163398e+00 -3.6981299805e+00 2.1351163398e+00 3.6981299805e+00 
41200 4.5774581344e+00 5.3373963551e-04 2.1351035338e+00 -3.6981077999e+00 2.1351035338e+00 3.6981077999e+00 
41300 4.5774582307e+00 5.2094827786e-04 2.1350910346e+00 -3.6980861508e+00 2.1350910346e+00 3.6980861508e+00 
41400 4.5774583257e+00 5.0847011361e-04 2.1350788350e+00 -3.6980650203e+00 2.1350788350e+00 3.6980650203e+00 
41500 4.5774584195e+00 4.9630317253e-04 2.1350669275e+00 -3.6980443959e+00 2.1350669275e+00 3.6980443959e+00 
41600 4.5774585122e+00 4.8444523675e-04 2.1350553048e+00 -3.6980242649e+00 2.1350553048e+00 3.6980242649e+00 
41700 4.5774586039e+00 4.7289384737e-04 2.1350439598e+00 -3.6980046147e+00 2.1350439598e+00 3.6980046147e+00 
41800 4.5774586947e+00 4.6164631152e-04 2.1350328852e+00 -3.6979854330e+00 2.1350328852e+00 3.6979854330e+00 
41900 4.5774587846e+00 4.5069970975e-04 2.1350220740e+00 -3.6979667075e+00 2.1350220740e+00 3.6979667075e+00 
42000 4.5774588737e+00 4.4005090365e-04 2.1350115191e+00 -3.6979484258e+00 2.1350115191e+00 3.6979484258e+00 
42100 4.5774589620e+00 4.2969654387e-04 2.1350012135e+00 -3.6979305760e+00 2.1350012135e+00 3.6979305760e+00 
42200 4.5774590496e+00 4.1963307824e-04 2.1349911504e+00 -3.6979131462e+00 2.1349911504e+00 3.6979131462e+00 
42300 4.5774591365e+00 4.0985676031e-04 2.1349813229e+00 -3.6978961244e+00 2.1349813229e+00 3.6978961244e+00 
42400 4.5774592227e+00 4.0036365790e-04 2.1349717243e+00 -3.6978794992e+00 2.1349717243e+00 3.6978794992e+00 
42500 4.5774593083e+00 3.9114966199e-04 2.1349623480e+00 -3.6978632589e+00 2.1349623480e+00 3.6978632589e+00 
42600 4.5774593933e+00 3.8221049566e-04 2.1349531874e+00 -3.6978473924e+00 2.1349531874e+00 3.6978473924e+00 
42700 4.5774594776e+00 3.7354172321e-04 2.1349442361e+00 -3.6978318883e+00 2.1349442361e+00 3.6978318883e+00 
42800 4.5774595614e+00 3.6513875940e-04 2.1349354879e+00 -3.6978167359e+00 2.1349354879e+00 3.6978167359e+00 
42900 4.5774596446e+00 3.5699687870e-04 2.1349269364e+00 -3.6978019242e+00 2.1349269364e+00 3.6978019242e+00 
43000 4.5774597273e+00 3.4911122472e-04 2.1349185755e+00 -3.6977874428e+00 2.1349185755e+00 3.6977874428e+00 
43100 4.5774598093e+00 3.4147681959e-04 2.1349103993e+00 -3.6977732812e+00 2.1349103993e+00 3.6977732812e+00 
43200 4.5774598907e+00 3.3408857338e-04 2.1349024018e+00 -3.6977594292e+00 2.1349024018e+00 3.6977594292e+00 
43300 4.5774599715e+00 3.2694129355e-04 2.1348945774e+00 -3.6977458769e+00 2.1348945774e+00 3.6977458769e+00 
43400 4.5774600518e+00 3.2002969434e-04 2.1348869203e+00 -3.6977326144e+00 2.1348869203e+00 3.6977326144e+00 
43500 4.5774601313e+00 3.1334840616e-04 2.1348794251e+00 -3.6977196323e+00 2.1348794251e+00 3.6977196323e+00 
43600 4.5774602103e+00 3.0689198487e-04 2.1348720863e+00 -3.6977069211e+00 2.1348720863e+00 3.6977069211e+00 
43700 4.5774602885e+00 3.0065492105e-04 2.1348648987e+00 -3.6976944719e+00 2.1348648987e+00 3.6976944719e+00 
43800 4.5774603661e+00 2.9463164912e-04 2.1348578572e+00 -3.6976822756e+00 2.1348578572e+00 3.6976822756e+00 
43900 4.5774604429e+00 2.8881655638e-04 2.1348509567e+00 -3.6976703236e+00 2.1348509567e+00 3.6976703236e+00 
44000 4.5774605191e+00 2.8320399191e-04 2.1348441924e+00 -3.6976586074e+00 2.1348441924e+00 3.6976586074e+00 
44100 4.5774605944e+00 2.7778827533e-04 2.1348375595e+00 -3.6976471189e+00 2.1348375595e+00 3.6976471189e+00 
44200 4.5774606690e+00 2.7256370546e-04 2.1348310534e+00 -3.6976358500e+00 2.1348310534e+00 3.6976358500e+00 
44300 4.5774607428e+00 2.6752456869e-04 2.1348246697e+00 -3.6976247931e+00 2.1348246697e+00 3.6976247931e+00 
44400 4.5774608158e+00 2.6266514730e-04 2.1348184039e+00 -3.6976139406e+00 2.1348184039e+00 3.6976139406e+00 
44500 4.5774608880e+00 2.5797972752e-04 2.1348122520e+00 -3.6976032851e+00 2.1348122520e+00 3.6976032851e+00 
44600 4.5774609593e+00 2.5346260737e-04 2.1348062098e+00 -3.6975928197e+00 2.1348062098e+00 3.6975928197e+00 
44700 4.5774610297e+00 2.4910810438e-04 2.1348002734e+00 -3.6975825375e+00 2.1348002734e+00 3.6975825375e+00 
44800 4.5774610992e+00 2.4491056294e-04 2.1347944389e+00 -3.6975724319e+00 2.1347944389e+00 3.6975724319e+00 
44900 4.5774611678e+00 2.4086436158e-04 2.1347887028e+00 -3.6975624966e+00 2.1347887028e+00 3.6975624966e+00 
45000 4.5774612355e+00 2.3696391990e-04 2.1347830614e+00 -3.6975527254e+00 2.1347830614e+00 3.6975527254e+00 
45100 4.5774613023e+00 2.3320370526e-04 2.1347775113e+00 -3.6975431124e+00 2.1347775113e+00 3.6975431124e+00 
45200 4.5774613681e+00 2.2957823927e-04 2.1347720493e+00 -3.6975336519e+00 2.1347720493e+00 3.6975336519e+00 
45300 4.5774614330e+00 2.2608210401e-04 2.1347666722e+00 -3.6975243385e+00 2.1347666722e+00 3.6975243385e+00 
45400 4.5774614969e+00 2.2270994794e-04 2.1347613769e+00 -3.6975151669e+00 2.1347613769e+00 3.6975151669e+00 
45500 4.5774615598e+00 2.1945649157e-04 2.1347561606e+00 -3.6975061320e+00 2.1347561606e+00 3.6975061320e+00 
45600 4.5774616218e+00 2.1631653290e-04 2.1347510206e+00 -3.6974972291e+00 2.1347510206e+00 3.6974972291e+00 
45700 4.5774616828e+00 2.1328495248e-04 2.1347459540e+00 -3.6974884536e+00 2.1347459540e+00 3.6974884536e+00 
45800 4.5774617428e+00 2.1035671834e-04 2.1347409585e+00 -3.6974798011e+00 2.1347409585e+00 3.6974798011e+00 
45900 4.5774618019e+00 2.0752689049e-04 2.1347360315e+00 -3.6974712673e+00 2.1347360315e+00 3.6974712673e+00 
46000 4.5774618600e+00 2.0479062523e-04 2.1347311708e+00 -3.6974628483e+00 2.1347311708e+00 3.6974628483e+00 
46100 4.5774619171e+00 2.0214317920e-04 2.1347263741e+00 -3.6974545403e+00 2.1347263741e+00 3.6974545403e+00 
46200 4.5774619733e+00 1.9957991306e-04 2.1347216395e+00 -3.6974463396e+00 2.1347216395e+00 3.6974463396e+00 
46300 4.5774620285e+00 1.9709629497e-04 2.1347169649e+00 -3.6974382430e+00 2.1347169649e+00 3.6974382430e+00 
46400 4.5774620828e+00 1.9468790374e-04 2.1347123484e+00 -3.6974302470e+00 2.1347123484e+00 3.6974302470e+00 
46500 4.5774621362e+00 1.9235043179e-04 2.1347077884e+00 -3.6974223488e+00 2.1347077884e+00 3.6974223488e+00 
46600 4.5774621887e+00 1.9007968768e-04 2.1347032831e+00 -3.6974145454e+00 2.1347032831e+00 3.6974145454e+00 
46700 4.5774622402e+00 1.8787159856e-04 2.1346988309e+00 -3.6974068341e+00 2.1346988309e+00 3.6974068341e+00 
46800 4.5774622909e+00 1.8572221221e-04 2.1346944305e+00 -3.6973992123e+00 2.1346944305e+00 3.6973992123e+00 
46900 4.5774623408e+00 1.8362769885e-04 2.1346900804e+00 -3.6973916777e+00 2.1346900804e+00 3.6973916777e+00 
47000 4.5774623897e+00 1.8158435277e-04 2.1346857794e+00 -3.6973842281e+00 2.1346857794e+00 3.6973842281e+00 
47100 4.5774624379e+00 1.7958859357e-04 2.1346815262e+00 -3.6973768614e+00 2.1346815262e+00 3.6973768614e+00 
47200 4.5774624852e+00 1.7763696725e-04 2.1346773198e+00 -3.6973695756e+00 2.1346773198e+00 3.6973695756e+00 
47300 4.5774625318e+00 1.7572614706e-04 2.1346731590e+00 -3.6973623690e+00 2.1346731590e+00 3.6973623690e+00 
47400 4.5774625775e+00 1.7385293401e-04 2.1346690430e+00 -3.6973552399e+00 2.1346690430e+00 3.6973552399e+00 
47500 4.5774626225e+00 1.7201425726e-04 2.1346649709e+00 -3.6973481867e+00 2.1346649709e+00 3.6973481867e+00 
47600 4.5774626668e+00 1.7020717425e-04 2.1346609418e+00 -3.6973412082e+00 2.1346609418e+00 3.6973412082e+00 
47700 4.5774627103e+00 1.6842887054e-04 2.1346569551e+00 -3.6973343029e+00 2.1346569551e+00 3.6973343029e+00 
47800 4.5774627532e+00 1.6667665956e-04 2.1346530100e+00 -3.6973274698e+00 2.1346530100e+00 3.6973274698e+00 
47900 4.5774627954e+00 1.6494798201e-04 2.1346491059e+00 -3.6973207078e+00 2.1346491059e+00 3.6973207078e+00 
48000 4.5774628369e+00 1.6324040524e-04 2.1346452423e+00 -3.6973140158e+00 2.1346452423e+00 3.6973140158e+00 
48100 4.5774628777e+00 1.6155162221e-04 2.1346414187e+00 -3.6973073932e+00 2.1346414187e+00 3.6973073932e+00 
48200 4.5774629180e+00 1.5987945050e-04 2.1346376347e+00 -3.6973008390e+00 2.1346376347e+00 3.6973008390e+00 
48300 4.5774629576e+00 1.5822183094e-04 2.1346338898e+00 -3.6972943527e+00 2.1346338898e+00 3.6972943527e+00 
48400 4.5774629967e+00 1.5657682622e-04 2.1346301837e+00 -3.6972879336e+00 2.1346301837e+00 3.6972879336e+00 
48500 4.5774630351e+00 1.5494261927e-04 2.1346265162e+00 -3.6972815812e+00 2.1346265162e+00 3.6972815812e+00 
48600 4.5774630731e+00 1.5331751144e-04 2.1346228869e+00 -3.6972752952e+00 2.1346228869e+00 3.6972752952e+00 
48700 4.5774631105e+00 1.5169992064e-04 2.1346192957e+00 -3.6972690750e+00 2.1346192957e+00 3.6972690750e+00 
48800 4.5774631473e+00 1.5008837929e-04 2.1346157424e+00 -3.6972629205e+00 2.1346157424e+00 3.6972629205e+00 
48900 4.5774631837e+00 1.4848153210e-04 2.1346122268e+00 -3.6972568313e+00 2.1346122268e+00 3.6972568313e+00 
49000 4.5774632196e+00 1.4687813377e-04 2.1346087489e+00 -3.6972508073e+00 2.1346087489e+00 3.6972508073e+00 
49100 4.5774632550e+00 1.4527704658e-04 2.1346053085e+00 -3.6972448484e+00 2.1346053085e+00 3.6972448484e+00 
49200 4.5774632899e+00 1.4367723785e-04 2.1346019056e+00 -3.6972389544e+00 2.1346019056e+00 3.6972389544e+00 
49300 4.5774633243e+00 1.4207777734e-04 2.1345985401e+00 -3.6972331253e+00 2.1345985401e+00 3.6972331253e+00 
49400 4.5774633584e+00 1.4047783447e-04 2.1345952122e+00 -3.6972273611e+00 2.1345952122e+00 3.6972273611e+00 
49500 4.5774633920e+00 1.3887667557e-04 2.1345919217e+00 -3.6972216617e+00 2.1345919217e+00 3.6972216617e+00 
49600 4.5774634251e+00 1.3727366097e-04 2.1345886687e+00 -3.6972160274e+00 2.1345886687e+00 3.6972160274e+00 
49700 4.5774634579e+00 1.3566824204e-04 2.1345854532e+00 -3.6972104580e+00 2.1345854532e+00 3.6972104580e+00 
49800 4.5774634903e+00 1.3405995823e-04 2.1345822753e+00 -3.6972049538e+00 2.1345822753e+00 3.6972049538e+00 
49900 4.5774635222e+00 1.3244843394e-04 2.1345791352e+00 -3.6971995149e+00 2.1345791352e+00 3.6971995149e+00 
50000 4.5774635538e+00 1.3083337544e-04 2.1345760327e+00 -3.6971941413e+00 2.1345760327e+00 3.6971941413e+00 
50100 4.5774635850e+00 1.2921456776e-04 2.1345729681e+00 -3.6971888332e+00 2.1345729681e+00 3.6971888332e+00 
50200 4.5774636158e+00 1.2759187140e-04 2.1345699414e+00 -3.6971835908e+00 2.1345699414e+00 3.6971835908e+00 
50300 4.5774636462e+00 1.2596521922e-04 2.1345669527e+00 -3.6971784142e+00 2.1345669527e+00 3.6971784142e+00 
50400 4.5774636763e+00 1.2433461317e-04 2.1345640021e+00 -3.6971733036e+00 2.1345640021e+00 3.6971733036e+00 
50500 4.5774637060e+00 1.2270012106e-04 2.1345610897e+00 -3.6971682592e+00 2.1345610897e+00 3.6971682592e+00 
50600 4.5774637354e+00 1.2106187330e-04 2.1345582155e+00 -3.6971632810e+00 2.1345582155e+00 3.6971632810e+00 
50700 4.5774637644e+00 1.1942005966e-04 2.1345553798e+00 -3.6971583693e+00 2.1345553798e+00 3.6971583693e+00 
50800 4.5774637931e+00 1.1777492601e-04 2.1345525825e+00 -3.6971535243e+00 2.1345525825e+00 3.6971535243e+00 
50900 4.5774638214e+00 1.1612677113e-04 2.1345498237e+00 -3.6971487459e+00 2.1345498237e+00 3.6971487459e+00 
51000 4.5774638493e+00 1.1447594347e-04 2.1345471035e+00 -3.6971440345e+00 2.1345471035e+00 3.6971440345e+00 
51100 4.5774638770e+00 1.1282283795e-04 2.1345444220e+00 -3.6971393900e+00 2.1345444220e+00 3.6971393900e+00 
51200 4.5774639043e+00 1.1116789281e-04 2.1345417792e+00 -3.6971348125e+00 2.1345417792e+00 3.6971348125e+00 
51300 4.5774639312e+00 1.0951158647e-04 2.1345391752e+00 -3.6971303022e+00 2.1345391752e+00 3.6971303022e+00 
51400 4.5774639579e+00 1.0785443447e-04 2.1345366100e+00 -3.6971258591e+00 2.1345366100e+00 3.6971258591e+00 
51500 4.5774639842e+00 1.0619698635e-04 2.1345340836e+00 -3.6971214832e+00 2.1345340836e+00 3.6971214832e+00 
51600 4.5774640101e+00 1.0453982271e-04 2.1345315960e+00 -3.6971171746e+00 2.1345315960e+00 3.6971171746e+00 
51700 4.5774640358e+00 1.0288355221e-04 2.1345291472e+00 -3.6971129332e+00 2.1345291472e+00 3.6971129332e+00 
51800 4.5774640611e+00 1.0122880869e-04 2.1345267372e+00 -3.6971087590e+00 2.1345267372e+00 3.6971087590e+00 
51900 4.5774640861e+00 9.9576248314e-05 2.1345243660e+00 -3.6971046519e+00 2.1345243660e+00 3.6971046519e+00 
52000 4.5774641107e+00 9.7926546794e-05 2.1345220335e+00 -3.6971006119e+00 2.1345220335e+00 3.6971006119e+00 
52100 4.5774641351e+00 9.6280396659e-05 2.1345197396e+00 -3.6970966388e+00 2.1345197396e+00 3.6970966388e+00 
52200 4.5774641591e+00 9.4638504603e-05 2.1345174843e+00 -3.6970927324e+00 2.1345174843e+00 3.6970927324e+00 
52300 4.5774641828e+00 9.3001588914e-05 2.1345152674e+00 -3.6970888927e+00 2.1345152674e+00 3.6970888927e+00 
52400 4.5774642062e+00 9.1370376943e-05 2.1345130889e+00 -3.6970851194e+00 2.1345130889e+00 3.6970851194e+00 
52500 4.5774642293e+00 8.9745602690e-05 2.1345109486e+00 -3.6970814123e+00 2.1345109486e+00 3.6970814123e+00 
52600 4.5774642521e+00 8.8128004418e-05 2.1345088464e+00 -3.6970777711e+00 2.1345088464e+00 3.6970777711e+00 
52700 4.5774642746e+00 8.6518322397e-05 2.1345067820e+00 -3.6970741955e+00 2.1345067820e+00 3.6970741955e+00 
52800 4.5774642967e+00 8.4917296689e-05 2.1345047553e+00 -3.6970706852e+00 2.1345047553e+00 3.6970706852e+00 
52900 4.5774643186e+00 8.3325665028e-05 2.1345027662e+00 -3.6970672399e+00 2.1345027662e+00 3.6970672399e+00 
53000 4.5774643401e+00 8.1744160794e-05 2.1345008143e+00 -3.6970638592e+00 2.1345008143e+00 3.6970638592e+00 
53100 4.5774643614e+00 8.0173511053e-05 2.1344988995e+00 -3.6970605426e+00 2.1344988995e+00 3.6970605426e+00 
53200 4.5774643823e+00 7.8614434704e-05 2.1344970214e+00 -3.6970572897e+00 2.1344970214e+00 3.6970572897e+00 
53300 4.5774644030e+00 7.7067640680e-05 2.1344951799e+00 -3.6970541001e+00 2.1344951799e+00 3.6970541001e+00 
53400 4.5774644233e+00 7.5533826261e-05 2.1344933746e+00 -3.6970509733e+00 2.1344933746e+00 3.6970509733e+00 
53500 4.5774644434e+00 7.4013675484e-05 2.1344916053e+00 -3.6970479086e+00 2.1344916053e+00 3.6970479086e+00 
53600 4.5774644632e+00 7.2507857607e-05 2.1344898715e+00 -3.6970449057e+00 2.1344898715e+00 3.6970449057e+00 
53700 4.5774644827e+00 7.1017025677e-05 2.1344881730e+00 -3.6970419638e+00 2.1344881730e+00 3.6970419638e+00 
53800 4.5774645020e+00 6.9541815182e-05 2.1344865095e+00 -3.6970390825e+00 2.1344865095e+00 3.6970390825e+00 
53900 4.5774645210e+00 6.8882300570e-05 2.1344865095e+00 -3.6970390825e+00 2.1344865095e+00 3.6970390825e+00 
54000 4.5774645398e+00 6.8232251076e-05 2.1344865095e+00 -3.6970390825e+00 2.1344865095e+00 3.6970390825e+00 
54100 4.5774645583e+00 6.7592461400e-05 2.1344865095e+00 -3.6970390825e+00 2.1344865095e+00 3.6970390825e+00 
54200 4.5774645766e+00 6.6963663161e-05 2.1344865095e+00 -3.6970390825e+00 2.1344865095e+00 3.6970390825e+00 
54300 4.5774645945e+00 6.6346527813e-05 2.1344865095e+00 -3.6970390825e+00 2.1344865095e+00 3.6970390825e+00 
54400 4.5774646123e+00 6.5741669475e-05 2.1344865095e+00 -3.6970390825e+00 2.1344865095e+00 3.6970390825e+00 
54500 4.5774646297e+00 6.5149647633e-05 2.1344865095e+00 -3.6970390825e+00 2.1344865095e+00 3.6970390825e+00 
54600 4.5774646469e+00 6.4570969737e-05 2.1344865095e+00 -3.6970390825e+00 2.1344865095e+00 3.6970390825e+00 
54700 4.5774646639e+00 6.4006093705e-05 2.1344865095e+00 -3.6970390825e+00 2.1344865095e+00 3.6970390825e+00 
54800 4.5774646806e+00 6.3455430304e-05 2.1344865095e+00 -3.6970390825e+00 2.1344865095e+00 3.6970390825e+00 
54900 4.5774646971e+00 6.2919345452e-05 2.1344865095e+00 -3.6970390825e+00 2.1344865095e+00 3.6970390825e+00 
55000 4.5774647133e+00 6.2398162400e-05 2.1344865095e+00 -3.6970390825e+00 2.1344865095e+00 3.6970390825e+00 
55100 4.5774647293e+00 6.1892163834e-05 2.1344865095e+00 -3.6970390825e+00 2.1344865095e+00 3.6970390825e+00 
55200 4.5774647451e+00 6.1401593890e-05 2.1344865095e+00 -3.6970390825e+00 2.1344865095e+00 3.6970390825e+00 
55300 4.5774647606e+00 6.0926660058e-05 2.1344865095e+00 -3.6970390825e+00 2.1344865095e+00 3.6970390825e+00 
55400 4.5774647760e+00 6.0467535024e-05 2.1344865095e+00 -3.6970390825e+00 2.1344865095e+00 3.6970390825e+00 
55500 4.5774647911e+00 6.0024358414e-05 2.1344865095e+00 -3.6970390825e+00 2.1344865095e+00 3.6970390825e+00 
55600 4.5774648060e+00 5.9597238470e-05 2.1344865095e+00 -3.6970390825e+00 2.1344865095e+00 3.6970390825e+00 
55700 4.5774648207e+00 5.9186253644e-05 2.1344865095e+00 -3.6970390825e+00 2.1344865095e+00 3.6970390825e+00 
55800 4.5774648352e+00 5.8791454117e-05 2.1344865095e+00 -3.6970390825e+00 2.1344865095e+00 3.6970390825e+00 
55900 4.5774648495e+00 5.8412863256e-05 2.1344865095e+00 -3.6970390825e+00 2.1344865095e+00 3.6970390825e+00 
56000 4.5774648636e+00 5.8050479001e-05 2.1344865095e+00 -3.6970390825e+00 2.1344865095e+00 3.6970390825e+00 
56100 4.5774648775e+00 5.7704275193e-05 2.1344865095e+00 -3.6970390825e+00 2.1344865095e+00 3.6970390825e+00 
56200 4.5774648912e+00 5.7374202828e-05 2.1344865095e+00 -3.6970390825e+00 2.1344865095e+00 3.6970390825e+00 
56300 4.5774649048e+00 5.7060191282e-05 2.1344865095e+00 -3.6970390825e+00 2.1344865095e+00 3.6970390825e+00 
56400 4.5774649181e+00 5.6762149452e-05 2.1344865095e+00 -3.6970390825e+00 2.1344865095e+00 3.6970390825e+00 
56500 4.5774649313e+00 5.6479966865e-05 2.1344865095e+00 -3.6970390825e+00 2.1344865095e+00 3.6970390825e+00 
56600 4.5774649443e+00 5.6213514731e-05 2.1344865095e+00 -3.6970390825e+00 2.1344865095e+00 3.6970390825e+00 
56700 4.5774649571e+00 5.5962646968e-05 2.1344865095e+00 -3.6970390825e+00 2.1344865095e+00 3.6970390825e+00 
56800 4.5774649698e+00 5.5727201145e-05 2.1344865095e+00 -3.6970390825e+00 2.1344865095e+00 3.6970390825e+00 
56900 4.5774649823e+00 5.5506999429e-05 2.1344865095e+00 -3.6970390825e+00 2.1344865095e+00 3.6970390825e+00 
57000 4.5774649946e+00 5.5301849469e-05 2.1344865095e+00 -3.6970390825e+00 2.1344865095e+00 3.6970390825e+00 
57100 4.5774650068e+00 5.5111545254e-05 2.1344865095e+00 -3.6970390825e+00 2.1344865095e+00 3.6970390825e+00 
57200 4.5774650188e+00 5.4935867925e-05 2.1344865095e+00 -3.6970390825e+00 2.1344865095e+00 3.6970390825e+00 
57300 4.5774650307e+00 5.4774586576e-05 2.1344865095e+00 -3.6970390825e+00 2.1344865095e+00 3.6970390825e+00 
57400 4.5774650424e+00 5.4627459009e-05 2.1344865095e+00 -3.6970390825e+00 2.1344865095e+00 3.6970390825e+00 
57500 4.5774650539e+00 5.4494232466e-05 2.1344865095e+00 -3.6970390825e+00 2.1344865095e+00 3.6970390825e+00 
57600 4.5774650653e+00 5.4374644339e-05 2.1344865095e+00 -3.6970390825e+00 2.1344865095e+00 3.6970390825e+00 
57700 4.5774650766e+00 5.4268422856e-05 2.1344865095e+00 -3.6970390825e+00 2.1344865095e+00 3.6970390825e+00 
57800 4.5774650877e+00 5.4175287738e-05 2.1344865095e+00 -3.6970390825e+00 2.1344865095e+00 3.6970390825e+00 
57900 4.5774650987e+00 5.4094950834e-05 2.1344865095e+00 -3.6970390825e+00 2.1344865095e+00 3.6970390825e+00 
58000 4.5774651095e+00 5.4027116755e-05 2.1344865095e+00 -3.6970390825e+00 2.1344865095e+00 3.6970390825e+00 
58100 4.5774651202e+00 5.3971483456e-05 2.1344865095e+00 -3.6970390825e+00 2.1344865095e+00 3.6970390825e+00 
58200 4.5774651308e+00 5.3927742836e-05 2.1344865095e+00 -3.6970390825e+00 2.1344865095e+00 3.6970390825e+00 
58300 4.5774651412e+00 5.3895581297e-05 2.1344865095e+00 -3.6970390825e+00 2.1344865095e+00 3.6970390825e+00 
58400 4.5774651515e+00 5.3874680297e-05 2.1344865095e+00 -3.6970390825e+00 2.1344865095e+00 3.6970390825e+00 
58500 4.5774651616e+00 5.3864716881e-05 2.1344865095e+00 -3.6970390825e+00 2.1344865095e+00 3.6970390825e+00 
58600 4.5774651716e+00 5.3865364212e-05 2.1344865095e+00 -3.6970390825e+00 2.1344865095e+00 3.6970390825e+00 
58700 4.5774651815e+00 5.3876292072e-05 2.1344865095e+00 -3.6970390825e+00 2.1344865095e+00 3.6970390825e+00 
58800 4.5774651913e+00 5.3897167363e-05 2.1344865095e+00 -3.6970390825e+00 2.1344865095e+00 3.6970390825e+00 
58900 4.5774652009e+00 5.3927654590e-05 2.1344865095e+00 -3.6970390825e+00 2.1344865095e+00 3.6970390825e+00 
59000 4.5774652105e+00 5.3967416326e-05 2.1344865095e+00 -3.6970390825e+00 2.1344865095e+00 3.6970390825e+00 
59100 4.5774652199e+00 5.4016113680e-05 2.1344865095e+00 -3.6970390825e+00 2.1344865095e+00 3.6970390825e+00 
59200 4.5774652291e+00 5.4073406738e-05 2.1344865095e+00 -3.6970390825e+00 2.1344865095e+00 3.6970390825e+00 
59300 4.5774652383e+00 5.4138955016e-05 2.1344865095e+00 -3.6970390825e+00 2.1344865095e+00 3.6970390825e+00 
59400 4.5774652473e+00 5.4212417864e-05 2.1344865095e+00 -3.6970390825e+00 2.1344865095e+00 3.6970390825e+00 
59500 4.5774652563e+00 5.4293454900e-05 2.1344865095e+00 -3.6970390825e+00 2.1344865095e+00 3.6970390825e+00 
59600 4.5774652651e+00 5.4381726409e-05 2.1344865095e+00 -3.6970390825e+00 2.1344865095e+00 3.6970390825e+00 
59700 4.5774652737e+00 5.4476893744e-05 2.1344865095e+00 -3.6970390825e+00 2.1344865095e+00 3.6970390825e+00 
59800 4.5774652823e+00 5.4578619703e-05 2.1344865095e+00 -3.6970390825e+00 2.1344865095e+00 3.6970390825e+00 
59900 4.5774652908e+00 5.4686568908e-05 2.1344865095e+00 -3.6970390825e+00 2.1344865095e+00 3.6970390825e+00 
60000 4.5774652991e+00 5.4800408172e-05 2.1344865095e+00 -3.6970390825e+00 2.1344865095e+00 3.6970390825e+00 
60100 4.5774653074e+00 5.4919806848e-05 2.1344865095e+00 -3.6970390825e+00 2.1344865095e+00 3.6970390825e+00 
60200 4.5774653155e+00 5.5044437178e-05 2.1344865095e+00 -3.6970390825e+00 2.1344865095e+00 3.6970390825e+00 
60300 4.5774653235e+00 5.5173974618e-05 2.1344865095e+00 -3.6970390825e+00 2.1344865095e+00 3.6970390825e+00 
60400 4.5774653315e+00 5.5308098171e-05 2.1344865095e+00 -3.6970390825e+00 2.1344865095e+00 3.6970390825e+00 
60500 4.5774653393e+00 5.5446490691e-05 2.1344865095e+00 -3.6970390825e+00 2.1344865095e+00 3.6970390825e+00 
60600 4.5774653470e+00 5.5588839183e-05 2.1344865095e+00 -3.6970390825e+00 2.1344865095e+00 3.6970390825e+00 
60700 4.5774653546e+00 5.5734835098e-05 2.1344865095e+00 -3.6970390825e+00 2.1344865095e+00 3.6970390825e+00 
60800 4.5774653621e+00 5.5884174609e-05 2.1344865095e+00 -3.6970390825e+00 2.1344865095e+00 3.6970390825e+00 
60900 4.5774653695e+00 5.6036558875e-05 2.1344865095e+00 -3.6970390825e+00 2.1344865095e+00 3.6970390825e+00 
61000 4.5774653768e+00 5.6191694301e-05 2.1344865095e+00 -3.6970390825e+00 2.1344865095e+00 3.6970390825e+00 
61100 4.5774653840e+00 5.6349292781e-05 2.1344865095e+00 -3.6970390825e+00 2.1344865095e+00 3.6970390825e+00 
61200 4.5774653912e+00 5.6509071929e-05 2.1344865095e+00 -3.6970390825e+00 2.1344865095e+00 3.6970390825e+00 
61300 4.5774653982e+00 5.6670755304e-05 2.1344865095e+00 -3.6970390825e+00 2.1344865095e+00 3.6970390825e+00 
61400 4.5774654051e+00 5.6834072607e-05 2.1344865095e+00 -3.6970390825e+00 2.1344865095e+00 3.6970390825e+00 
61500 4.5774654119e+00 5.6998759899e-05 2.1344865095e+00 -3.6970390825e+00 2.1344865095e+00 3.6970390825e+00 
61600 4.5774654187e+00 5.7164559762e-05 2.1344865095e+00 -3.6970390825e+00 2.1344865095e+00 3.6970390825e+00 
61700 4.5774654253e+00 5.7331221484e-05 2.1344865095e+00 -3.6970390825e+00 2.1344865095e+00 3.6970390825e+00 
61800 4.5774654319e+00 5.7498501223e-05 2.1344865095e+00 -3.6970390825e+00 2.1344865095e+00 3.6970390825e+00 
61900 4.5774654384e+00 5.7666162144e-05 2.1344865095e+00 -3.6970390825e+00 2.1344865095e+00 3.6970390825e+00 
62000 4.5774654448e+00 5.7833974558e-05 2.1344865095e+00 -3.6970390825e+00 2.1344865095e+00 3.6970390825e+00 
62100 4.5774654511e+00 5.8001716051e-05 2.1344865095e+00 -3.6970390825e+00 2.1344865095e+00 3.6970390825e+00 
62200 4.5774654573e+00 5.8169171591e-05 2.1344865095e+00 -3.6970390825e+00 2.1344865095e+00 3.6970390825e+00 
62300 4.5774654635e+00 5.8336133619e-05 2.1344865095e+00 -3.6970390825e+00 2.1344865095e+00 3.6970390825e+00 
62400 4.5774654695e+00 5.8502402151e-05 2.1344865095e+00 -3.6970390825e+00 2.1344865095e+00 3.6970390825e+00 
62500 4.5774654755e+00 5.8667784837e-05 2.1344865095e+00 -3.6970390825e+00 2.1344865095e+00 3.6970390825e+00 
62600 4.5774654814e+00 5.8832097029e-05 2.1344865095e+00 -3.6970390825e+00 2.1344865095e+00 3.6970390825e+00 
62700 4.5774654872e+00 5.8995161834e-05 2.1344865095e+00 -3.6970390825e+00 2.1344865095e+00 3.6970390825e+00 
62800 4.5774654930e+00 5.9156810147e-05 2.1344865095e+00 -3.6970390825e+00 2.1344865095e+00 3.6970390825e+00 
62900 4.5774654987e+00 5.9316880673e-05 2.1344865095e+00 -3.6970390825e+00 2.1344865095e+00 3.6970390825e+00 
63000 4.5774655043e+00 5.9475219951e-05 2.1344865095e+00 -3.6970390825e+00 2.1344865095e+00 3.6970390825e+00 
63100 4.5774655098e+00 5.9631682352e-05 2.1344865095e+00 -3.6970390825e+00 2.1344865095e+00 3.6970390825e+00 
63200 4.5774655152e+00 5.9786130067e-05 2.1344865095e+00 -3.6970390825e+00 2.1344865095e+00 3.6970390825e+00 
63300 4.5774655206e+00 5.9938433093e-05 2.1344865095e+00 -3.6970390825e+00 2.1344865095e+00 3.6970390825e+00 
63400 4.5774655259e+00 6.0088469197e-05 2.1344865095e+00 -3.6970390825e+00 2.1344865095e+00 3.6970390825e+00 
63500 4.5774655312e+00 6.0236123877e-05 2.1344865095e+00 -3.6970390825e+00 2.1344865095e+00 3.6970390825e+00 
63600 4.5774655363e+00 6.0381290311e-05 2.1344865095e+00 -3.6970390825e+00 2.1344865095e+00 3.6970390825e+00 
63700 4.5774655414e+00 6.0523869299e-05 2.1344865095e+00 -3.6970390825e+00 2.1344865095e+00 3.6970390825e+00 
63800 4.5774655465e+00 6.0663769172e-05 2.1344865095e+00 -3.6970390825e+00 2.1344865095e+00 3.6970390825e+00 
63900 4.5774655514e+00 6.0800905738e-05 2.1344865095e+00 -3.6970390825e+00 2.1344865095e+00 3.6970390825e+00 
64000 4.5774655564e+00 6.0935202174e-05 2.1344865095e+00 -3.6970390825e+00 2.1344865095e+00 3.6970390825e+00 
64100 4.5774655612e+00 6.1066588926e-05 2.1344865095e+00 -3.6970390825e+00 2.1344865095e+00 3.6970390825e+00 
64200 4.5774655660e+00 6.1195003608e-05 2.1344865095e+00 -3.6970390825e+00 2.1344865095e+00 3.6970390825e+00 
64300 4.5774655707e+00 6.1320390882e-05 2.1344865095e+00 -3.6970390825e+00 2.1344865095e+00 3.6970390825e+00 
64400 4.5774655754e+00 6.1442702328e-05 2.1344865095e+00 -3.6970390825e+00 2.1344865095e+00 3.6970390825e+00 
64500 4.5774655800e+00 6.1561896321e-05 2.1344865095e+00 -3.6970390825e+00 2.1344865095e+00 3.6970390825e+00 
64600 4.5774655845e+00 6.1677937886e-05 2.1344865095e+00 -3.6970390825e+00 2.1344865095e+00 3.6970390825e+00 
64700 4.5774655890e+00 6.1790798552e-05 2.1344865095e+00 -3.6970390825e+00 2.1344865095e+00 3.6970390825e+00 
64800 4.5774655934e+00 6.1900456199e-05 2.1344865095e+00 -3.6970390825e+00 2.1344865095e+00 3.6970390825e+00 
64900 4.5774655978e+00 6.2006894900e-05 2.1344865095e+00 -3.6970390825e+00 2.1344865095e+00 3.6970390825e+00 
65000 4.5774656021e+00 6.2110104759e-05 2.1344865095e+00 -3.6970390825e+00 2.1344865095e+00 3.6970390825e+00 
65100 4.5774656063e+00 6.2210081731e-05 2.1344865095e+00 -3.6970390825e+00 2.1344865095e+00 3.6970390825e+00 
65200 4.5774656106e+00 6.2306827462e-05 2.1344865095e+00 -3.6970390825e+00 2.1344865095e+00 3.6970390825e+00 
65300 4.5774656147e+00 6.2400349099e-05 2.1344865095e+00 -3.6970390825e+00 2.1344865095e+00 3.6970390825e+00 
65400 4.5774656188e+00 6.2490659107e-05 2.1344865095e+00 -3.6970390825e+00 2.1344865095e+00 3.6970390825e+00 
65500 4.5774656228e+00 6.2577775088e-05 2.1344865095e+00 -3.6970390825e+00 2.1344865095e+00 3.6970390825e+00 
65600 4.5774656268e+00 6.2661719583e-05 2.1344865095e+00 -3.6970390825e+00 2.1344865095e+00 3.6970390825e+00 
65700 4.5774656308e+00 6.2742519885e-05 2.1344865095e+00 -3.6970390825e+00 2.1344865095e+00 3.6970390825e+00 
65800 4.5774656347e+00 6.2820207838e-05 2.1344865095e+00 -3.6970390825e+00 2.1344865095e+00 3.6970390825e+00 
65900 4.5774656385e+00 6.2894819646e-05 2.1344865095e+00 -3.6970390825e+00 2.1344865095e+00 3.6970390825e+00 
66000 4.5774656423e+00 6.2966395658e-05 2.1344865095e+00 -3.6970390825e+00 2.1344865095e+00 3.6970390825e+00 
66100 4.5774656460e+00 6.3034980191e-05 2.1344865095e+00 -3.6970390825e+00 2.1344865095e+00 3.6970390825e+00 
66200 4.5774656497e+00 6.3100621303e-05 2.1344865095e+00 -3.6970390825e+00 2.1344865095e+00 3.6970390825e+00 
66300 4.5774656534e+00 6.3163370604e-05 2.1344865095e+00 -3.6970390825e+00 2.1344865095e+00 3.6970390825e+00 
66400 4.5774656570e+00 6.3223283053e-05 2.1344865095e+00 -3.6970390825e+00 2.1344865095e+00 3.6970390825e+00 
66500 4.5774656605e+00 6.3280416749e-05 2.1344865095e+00 -3.6970390825e+00 2.1344865095e+00 3.6970390825e+00 
66600 4.5774656641e+00 6.3334832730e-05 2.1344865095e+00 -3.6970390825e+00 2.1344865095e+00 3.6970390825e+00 
66700 4.5774656675e+00 6.3386594774e-05 2.1344865095e+00 -3.6970390825e+00 2.1344865095e+00 3.6970390825e+00 
66800 4.5774656709e+00 6.3435769198e-05 2.1344865095e+00 -3.6970390825e+00 2.1344865095e+00 3.6970390825e+00 
66900 4.5774656743e+00 6.3482424657e-05 2.1344865095e+00 -3.6970390825e+00 2.1344865095e+00 3.6970390825e+00 
67000 4.5774656777e+00 6.3526631946e-05 2.1344865095e+00 -3.6970390825e+00 2.1344865095e+00 3.6970390825e+00 
67100 4.5774656810e+00 6.3568463805e-05 2.1344865095e+00 -3.6970390825e+00 2.1344865095e+00 3.6970390825e+00 
67200 4.5774656842e+00 6.3607994728e-05 2.1344865095e+00 -3.6970390825e+00 2.1344865095e+00 3.6970390825e+00 
67300 4.5774656874e+00 6.3645300770e-05 2.1344865095e+00 -3.6970390825e+00 2.1344865095e+00 3.6970390825e+00 
67400 4.5774656906e+00 6.3680459357e-05 2.1344865095e+00 -3.6970390825e+00 2.1344865095e+00 3.6970390825e+00 
67500 4.5774656937e+00 6.3713549110e-05 2.1344865095e+00 -3.6970390825e+00 2.1344865095e+00 3.6970390825e+00 
67600 4.5774656968e+00 6.3744649653e-05 2.1344865095e+00 -3.6970390825e+00 2.1344865095e+00 3.6970390825e+00 
67700 4.5774656998e+00 6.3773841444e-05 2.1344865095e+00 -3.6970390825e+00 2.1344865095e+00 3.6970390825e+00 
67800 4.5774657029e+00 6.3801205595e-05 2.1344865095e+00 -3.6970390825e+00 2.1344865095e+00 3.6970390825e+00 
67900 4.5774657058e+00 6.3826823708e-05 2.1344865095e+00 -3.6970390825e+00 2.1344865095e+00 3.6970390825e+00 
68000 4.5774657088e+00 6.3850777700e-05 2.1344865095e+00 -3.6970390825e+00 2.1344865095e+00 3.6970390825e+00 
68100 4.5774657117e+00 6.3873149657e-05 2.1344865095e+00 -3.6970390825e+00 2.1344865095e+00 3.6970390825e+00 
68200 4.5774657145e+00 6.3894021657e-05 2.1344865095e+00 -3.6970390825e+00 2.1344865095e+00 3.6970390825e+00 
68300 4.5774657173e+00 6.3913475642e-05 2.1344865095e+00 -3.6970390825e+00 2.1344865095e+00 3.6970390825e+00 
68400 4.5774657201e+00 6.3931593248e-05 2.1344865095e+00 -3.6970390825e+00 2.1344865095e+00 3.6970390825e+00 
68500 4.5774657229e+00 6.3948455681e-05 2.1344865095e+00 -3.6970390825e+00 2.1344865095e+00 3.6970390825e+00 
68600 4.5774657256e+00 6.3964143563e-05 2.1344865095e+00 -3.6970390825e+00 2.1344865095e+00 3.6970390825e+00 
68700 4.5774657283e+00 6.3978736821e-05 2.1344865095e+00 -3.6970390825e+00 2.1344865095e+00 3.6970390825e+00 
68800 4.5774657309e+00 6.3992314539e-05 2.1344865095e+00 -3.6970390825e+00 2.1344865095e+00 3.6970390825e+00 
68900 4.5774657335e+00 6.4004954853e-05 2.1344865095e+00 -3.6970390825e+00 2.1344865095e+00 3.6970390825e+00 
69000 4.5774657361e+00 6.4016734828e-05 2.1344865095e+00 -3.6970390825e+00 2.1344865095e+00 3.6970390825e+00 
69100 4.5774657386e+00 6.4027730347e-05 2.1344865095e+00 -3.6970390825e+00 2.1344865095e+00 3.6970390825e+00 
69200 4.5774657412e+00 6.4038016009e-05 2.1344865095e+00 -3.6970390825e+00 2.1344865095e+00 3.6970390825e+00 
69300 4.5774657436e+00 6.4047665031e-05 2.1344865095e+00 -3.6970390825e+00 2.1344865095e+00 3.6970390825e+00 
69400 4.5774657461e+00 6.4056749154e-05 2.1344865095e+00 -3.6970390825e+00 2.1344865095e+00 3.6970390825e+00 
69500 4.5774657485e+00 6.4065338548e-05 2.1344865095e+00 -3.6970390825e+00 2.1344865095e+00 3.6970390825e+00 
69600 4.5774657509e+00 6.4073501744e-05 2.1344865095e+00 -3.6970390825e+00 2.1344865095e+00 3.6970390825e+00 
69700 4.5774657532e+00 6.4081305546e-05 2.1344865095e+00 -3.6970390825e+00 2.1344865095e+00 3.6970390825e+00 
69800 4.5774657556e+00 6.4088814961e-05 2.1344865095e+00 -3.6970390825e+00 2.1344865095e+00 3.6970390825e+00 
69900 4.5774657579e+00 6.4096093139e-05 2.1344865095e+00 -3.6970390825e+00 2.1344865095e+00 3.6970390825e+00 
70000 4.5774657601e+00 6.4103201309e-05 2.1344865095e+00 -3.6970390825e+00 2.1344865095e+00 3.6970390825e+00 
70100 4.5774657624e+00 6.4110198727e-05 2.1344865095e+00 -3.6970390825e+00 2.1344865095e+00 3.6970390825e+00 
70200 4.5774657646e+00 6.4117142620e-05 2.1344865095e+00 -3.6970390825e+00 2.1344865095e+00 3.6970390825e+00 
70300 4.5774657668e+00 6.4124088151e-05 2.1344865095e+00 -3.6970390825e+00 2.1344865095e+00 3.6970390825e+00 
70400 4.5774657689e+00 6.4131088377e-05 2.1344865095e+00 -3.6970390825e+00 2.1344865095e+00 3.6970390825e+00 
70500 4.5774657711e+00 6.4138194213e-05 2.1344865095e+00 -3.6970390825e+00 2.1344865095e+00 3.6970390825e+00 
70600 4.5774657732e+00 6.4145454409e-05 2.1344865095e+00 -3.6970390825e+00 2.1344865095e+00 3.6970390825e+00 
70700 4.5774657752e+00 6.4152915522e-05 2.1344865095e+00 -3.6970390825e+00 2.1344865095e+00 3.6970390825e+00 
70800 4.5774657773e+00 6.4160621895e-05 2.1344865095e+00 -3.6970390825e+00 2.1344865095e+00 3.6970390825e+00 
70900 4.5774657793e+00 6.4168615656e-05 2.1344865095e+00 -3.6970390825e+00 2.1344865095e+00 3.6970390825e+00 
71000 4.5774657813e+00 6.4176936691e-05 2.1344865095e+00 -3.6970390825e+00 2.1344865095e+00 3.6970390825e+00 
71100 4.5774657833e+00 6.4185622655e-05 2.1344865095e+00 -3.6970390825e+00 2.1344865095e+00 3.6970390825e+00 
71200 4.5774657852e+00 6.4194708960e-05 2.1344865095e+00 -3.6970390825e+00 2.1344865095e+00 3.6970390825e+00 
71300 4.5774657871e+00 6.4204228790e-05 2.1344865095e+00 -3.6970390825e+00 2.1344865095e+00 3.6970390825e+00 
71400 4.5774657890e+00 6.4214213100e-05 2.1344865095e+00 -3.6970390825e+00 2.1344865095e+00 3.6970390825e+00 
71500 4.5774657909e+00 6.4224690631e-05 2.1344865095e+00 -3.6970390825e+00 2.1344865095e+00 3.6970390825e+00 
71600 4.5774657927e+00 6.4235687929e-05 2.1344865095e+00 -3.6970390825e+00 2.1344865095e+00 3.6970390825e+00 
71700 4.5774657946e+00 6.4247229360e-05 2.1344865095e+00 -3.6970390825e+00 2.1344865095e+00 3.6970390825e+00 
71800 4.5774657964e+00 6.4259337137e-05 2.1344865095e+00 -3.6970390825e+00 2.1344865095e+00 3.6970390825e+00 
71900 4.5774657982e+00 6.4272031344e-05 2.1344865095e+00 -3.6970390825e+00 2.1344865095e+00 3.6970390825e+00 
72000 4.5774657999e+00 6.4285329970e-05 2.1344865095e+00 -3.6970390825e+00 2.1344865095e+00 3.6970390825e+00 
72100 4.5774658017e+00 6.4299248937e-05 2.1344865095e+00 -3.6970390825e+00 2.1344865095e+00 3.6970390825e+00 
72200 4.5774658034e+00 6.4313802134e-05 2.1344865095e+00 -3.6970390825e+00 2.1344865095e+00 3.6970390825e+00 
72300 4.5774658051e+00 6.4329001466e-05 2.1344865095e+00 -3.6970390825e+00 2.1344865095e+00 3.6970390825e+00 
72400 4.5774658067e+00 6.4344856886e-05 2.1344865095e+00 -3.6970390825e+00 2.1344865095e+00 3.6970390825e+00 
72500 4.5774658084e+00 6.4361376439e-05 2.1344865095e+00 -3.6970390825e+00 2.1344865095e+00 3.6970390825e+00 
72600 4.5774658100e+00 6.4378566313e-05 2.1344865095e+00 -3.6970390825e+00 2.1344865095e+00 3.6970390825e+00 
72700 4.5774658116e+00 6.4396430883e-05 2.1344865095e+00 -3.6970390825e+00 2.1344865095e+00 3.6970390825e+00 
72800 4.5774658132e+00 6.4414972765e-05 2.1344865095e+00 -3.6970390825e+00 2.1344865095e+00 3.6970390825e+00 
72900 4.5774658148e+00 6.4434192862e-05 2.1344865095e+00 -3.6970390825e+00 2.1344865095e+00 3.6970390825e+00 
73000 4.5774658163e+00 6.4454090423e-05 2.1344865095e+00 -3.6970390825e+00 2.1344865095e+00 3.6970390825e+00 
73100 4.5774658179e+00 6.4474663096e-05 2.1344865095e+00 -3.6970390825e+00 2.1344865095e+00 3.6970390825e+00 
73200 4.5774658194e+00 6.4495906980e-05 2.1344865095e+00 -3.6970390825e+00 2.1344865095e+00 3.6970390825e+00 
73300 4.5774658209e+00 6.4517816696e-05 2.1344865095e+00 -3.6970390825e+00 2.1344865095e+00 3.6970390825e+00 
73400 4.5774658223e+00 6.4540385428e-05 2.1344865095e+00 -3.6970390825e+00 2.1344865095e+00 3.6970390825e+00 
73500 4.5774658238e+00 6.4563604996e-05 2.1344865095e+00 -3.6970390825e+00 2.1344865095e+00 3.6970390825e+00 
73600 4.5774658252e+00 6.4587465911e-05 2.1344865095e+00 -3.6970390825e+00 2.1344865095e+00 3.6970390825e+00 
73700 4.5774658266e+00 6.4611957434e-05 2.1344865095e+00 -3.6970390825e+00 2.1344865095e+00 3.6970390825e+00 
73800 4.5774658280e+00 6.4637067645e-05 2.1344865095e+00 -3.6970390825e+00 2.1344865095e+00 3.6970390825e+00 
73900 4.5774658294e+00 6.4662783495e-05 2.1344865095e+00 -3.6970390825e+00 2.1344865095e+00 3.6970390825e+00 
74000 4.5774658308e+00 6.4689090880e-05 2.1344865095e+00 -3.6970390825e+00 2.1344865095e+00 3.6970390825e+00 
74100 4.5774658321e+00 6.4715974685e-05 2.1344865095e+00 -3.6970390825e+00 2.1344865095e+00 3.6970390825e+00 
74200 4.5774658335e+00 6.4743418867e-05 2.1344865095e+00 -3.6970390825e+00 2.1344865095e+00 3.6970390825e+00 
74300 4.5774658348e+00 6.4771406508e-05 2.1344865095e+00 -3.6970390825e+00 2.1344865095e+00 3.6970390825e+00 
74400 4.5774658361e+00 6.4799919870e-05 2.1344865095e+00 -3.6970390825e+00 2.1344865095e+00 3.6970390825e+00 
74500 4.5774658374e+00 6.4828940465e-05 2.1344865095e+00 -3.6970390825e+00 2.1344865095e+00 3.6970390825e+00 
74600 4.5774658386e+00 6.4858449117e-05 2.1344865095e+00 -3.6970390825e+00 2.1344865095e+00 3.6970390825e+00 
74700 4.5774658399e+00 6.4888426012e-05 2.1344865095e+00 -3.6970390825e+00 2.1344865095e+00 3.6970390825e+00 
74800 4.5774658411e+00 6.4918850773e-05 2.1344865095e+00 -3.6970390825e+00 2.1344865095e+00 3.6970390825e+00 
74900 4.5774658423e+00 6.4949702501e-05 2.1344865095e+00 -3.6970390825e+00 2.1344865095e+00 3.6970390825e+00 
75000 4.5774658435e+00 6.4980959851e-05 2.1344865095e+00 -3.6970390825e+00 2.1344865095e+00 3.6970390825e+00 
75100 4.5774658447e+00 6.5012601075e-05 2.1344865095e+00 -3.6970390825e+00 2.1344865095e+00 3.6970390825e+00 
75200 4.5774658459e+00 6.5044604091e-05 2.1344865095e+00 -3.6970390825e+00 2.1344865095e+00 3.6970390825e+00 
75300 4.5774658471e+00 6.5076946518e-05 2.1344865095e+00 -3.6970390825e+00 2.1344865095e+00 3.6970390825e+00 
75400 4.5774658482e+00 6.5109605755e-05 2.1344865095e+00 -3.6970390825e+00 2.1344865095e+00 3.6970390825e+00 
75500 4.5774658493e+00 6.5142559014e-05 2.1344865095e+00 -3.6970390825e+00 2.1344865095e+00 3.6970390825e+00 
75600 4.5774658504e+00 6.5175783378e-05 2.1344865095e+00 -3.6970390825e+00 2.1344865095e+00 3.6970390825e+00 
75700 4.5774658516e+00 6.5209255856e-05 2.1344865095e+00 -3.6970390825e+00 2.1344865095e+00 3.6970390825e+00 
75800 4.5774658526e+00 6.5242953420e-05 2.1344865095e+00 -3.6970390825e+00 2.1344865095e+00 3.6970390825e+00 
75900 4.5774658537e+00 6.5276853067e-05 2.1344865095e+00 -3.6970390825e+00 2.1344865095e+00 3.6970390825e+00 
76000 4.5774658548e+00 6.5310931845e-05 2.1344865095e+00 -3.6970390825e+00 2.1344865095e+00 3.6970390825e+00 
76100 4.5774658558e+00 6.5345166917e-05 2.1344865095e+00 -3.6970390825e+00 2.1344865095e+00 3.6970390825e+00 
76200 4.5774658569e+00 6.5379535588e-05 2.1344865095e+00 -3.6970390825e+00 2.1344865095e+00 3.6970390825e+00 
76300 4.5774658579e+00 6.5414015358e-05 2.1344865095e+00 -3.6970390825e+00 2.1344865095e+00 3.6970390825e+00 
76400 4.5774658589e+00 6.5448583947e-05 2.1344865095e+00 -3.6970390825e+00 2.1344865095e+00 3.6970390825e+00 
76500 4.5774658599e+00 6.5483219349e-05 2.1344865095e+00 -3.6970390825e+00 2.1344865095e+00 3.6970390825e+00 
76600 4.5774658609e+00 6.5517899852e-05 2.1344865095e+00 -3.6970390825e+00 2.1344865095e+00 3.6970390825e+00 
76700 4.5774658619e+00 6.5552604082e-05 2.1344865095e+00 -3.6970390825e+00 2.1344865095e+00 3.6970390825e+00 
76800 4.5774658628e+00 6.5587311030e-05 2.1344865095e+00 -3.6970390825e+00 2.1344865095e+00 3.6970390825e+00 
76900 4.5774658638e+00 6.5622000087e-05 2.1344865095e+00 -3.6970390825e+00 2.1344865095e+00 3.6970390825e+00 
77000 4.5774658647e+00 6.5656651071e-05 2.1344865095e+00 -3.6970390825e+00 2.1344865095e+00 3.6970390825e+00 
77100 4.5774658656e+00 6.5691244249e-05 2.1344865095e+00 -3.6970390825e+00 2.1344865095e+00 3.6970390825e+00 
77200 4.5774658665e+00 6.5725760369e-05 2.1344865095e+00 -3.6970390825e+00 2.1344865095e+00 3.6970390825e+00 
77300 4.5774658674e+00 6.5760180685e-05 2.1344865095e+00 -3.6970390825e+00 2.1344865095e+00 3.6970390825e+00 
77400 4.5774658683e+00 6.5794486969e-05 2.1344865095e+00 -3.6970390825e+00 2.1344865095e+00 3.6970390825e+00 
77500 4.5774658692e+00 6.5828661539e-05 2.1344865095e+00 -3.6970390825e+00 2.1344865095e+00 3.6970390825e+00 
77600 4.5774658701e+00 6.5862687279e-05 2.1344865095e+00 -3.6970390825e+00 2.1344865095e+00 3.6970390825e+00 
77700 4.5774658709e+00 6.5896547645e-05 2.1344865095e+00 -3.6970390825e+00 2.1344865095e+00 3.6970390825e+00 
77800 4.5774658718e+00 6.5930226694e-05 2.1344865095e+00 -3.6970390825e+00 2.1344865095e+00 3.6970390825e+00 
77900 4.5774658726e+00 6.5963709089e-05 2.1344865095e+00 -3.6970390825e+00 2.1344865095e+00 3.6970390825e+00 
78000 4.5774658735e+00 6.5996980111e-05 2.1344865095e+00 -3.6970390825e+00 2.1344865095e+00 3.6970390825e+00 
78100 4.5774658743e+00 6.6030025671e-05 2.1344865095e+00 -3.6970390825e+00 2.1344865095e+00 3.6970390825e+00 
78200 4.5774658751e+00 6.6062832323e-05 2.1344865095e+00 -3.6970390825e+00 2.1344865095e+00 3.6970390825e+00 
78300 4.5774658759e+00 6.6095387258e-05 2.1344865095e+00 -3.6970390825e+00 2.1344865095e+00 3.6970390825e+00 
78400 4.5774658767e+00 6.6127678327e-05 2.1344865095e+00 -3.6970390825e+00 2.1344865095e+00 3.6970390825e+00 
78500 4.5774658774e+00 6.6159694035e-05 2.1344865095e+00 -3.6970390825e+00 2.1344865095e+00 3.6970390825e+00 
78600 4.5774658782e+00 6.6191423536e-05 2.1344865095e+00 -3.6970390825e+00 2.1344865095e+00 3.6970390825e+00 
78700 4.5774658790e+00 6.6222856657e-05 2.1344865095e+00 -3.6970390825e+00 2.1344865095e+00 3.6970390825e+00 
78800 4.5774658797e+00 6.6253983874e-05 2.1344865095e+00 -3.6970390825e+00 2.1344865095e+00 3.6970390825e+00 
78900 4.5774658804e+00 6.6284796335e-05 2.1344865095e+00 -3.6970390825e+00 2.1344865095e+00 3.6970390825e+00 
79000 4.5774658812e+00 6.6315285828e-05 2.1344865095e+00 -3.6970390825e+00 2.1344865095e+00 3.6970390825e+00 
79100 4.5774658819e+00 6.6345444804e-05 2.1344865095e+00 -3.6970390825e+00 2.1344865095e+00 3.6970390825e+00 
79200 4.5774658826e+00 6.6375266358e-05 2.1344865095e+00 -3.6970390825e+00 2.1344865095e+00 3.6970390825e+00 
79300 4.5774658833e+00 6.6404744231e-05 2.1344865095e+00 -3.6970390825e+00 2.1344865095e+00 3.6970390825e+00 
79400 4.5774658840e+00 6.6433872793e-05 2.1344865095e+00 -3.6970390825e+00 2.1344865095e+00 3.6970390825e+00 
79500 4.5774658847e+00 6.6462647047e-05 2.1344865095e+00 -3.6970390825e+00 2.1344865095e+00 3.6970390825e+00 
79600 4.5774658854e+00 6.6491062606e-05 2.1344865095e+00 -3.6970390825e+00 2.1344865095e+00 3.6970390825e+00 
79700 4.5774658860e+00 6.6519115697e-05 2.1344865095e+00 -3.6970390825e+00 2.1344865095e+00 3.6970390825e+00 
79800 4.5774658867e+00 6.6546803143e-05 2.1344865095e+00 -3.6970390825e+00 2.1344865095e+00 3.6970390825e+00 
79900 4.5774658874e+00 6.6574122353e-05 2.1344865095e+00 -3.6970390825e+00 2.1344865095e+00 3.6970390825e+00 
80000 4.5774658880e+00 6.6601071305e-05 2.1344865095e+00 -3.6970390825e+00 2.1344865095e+00 3.6970390825e+00 
80100 4.5774658886e+00 6.6627648543e-05 2.1344865095e+00 -3.6970390825e+00 2.1344865095e+00 3.6970390825e+00 
80200 4.5774658893e+00 6.6653853150e-05 2.1344865095e+00 -3.6970390825e+00 2.1344865095e+00 3.6970390825e+00 
80300 4.5774658899e+00 6.6679684747e-05 2.1344865095e+00 -3.6970390825e+00 2.1344865095e+00 3.6970390825e+00 
80400 4.5774658905e+00 6.6705143469e-05 2.1344865095e+00 -3.6970390825e+00 2.1344865095e+00 3.6970390825e+00 
80500 4.5774658911e+00 6.6730229952e-05 2.1344865095e+00 -3.6970390825e+00 2.1344865095e+00 3.6970390825e+00 
80600 4.5774658917e+00 6.6754945317e-05 2.1344865095e+00 -3.6970390825e+00 2.1344865095e+00 3.6970390825e+00 
80700 4.5774658923e+00 6.6779291154e-05 2.1344865095e+00 -3.6970390825e+00 2.1344865095e+00 3.6970390825e+00 
80800 4.5774658929e+00 6.6803269501e-05 2.1344865095e+00 -3.6970390825e+00 2.1344865095e+00 3.6970390825e+00 
80900 4.5774658935e+00 6.6826882840e-05 2.1344865095e+00 -3.6970390825e+00 2.1344865095e+00 3.6970390825e+00 
81000 4.5774658940e+00 6.6850134057e-05 2.1344865095e+00 -3.6970390825e+00 2.1344865095e+00 3.6970390825e+00 
81100 4.5774658946e+00 6.6873026448e-05 2.1344865095e+00 -3.6970390825e+00 2.1344865095e+00 3.6970390825e+00 
81200 4.5774658952e+00 6.6895563682e-05 2.1344865095e+00 -3.6970390825e+00 2.1344865095e+00 3.6970390825e+00 
81300 4.5774658957e+00 6.6917749795e-05 2.1344865095e+00 -3.6970390825e+00 2.1344865095e+00 3.6970390825e+00 
81400 4.5774658962e+00 6.6939589164e-05 2.1344865095e+00 -3.6970390825e+00 2.1344865095e+00 3.6970390825e+00 
81500 4.5774658968e+00 6.6961086496e-05 2.1344865095e+00 -3.6970390825e+00 2.1344865095e+00 3.6970390825e+00 
81600 4.5774658973e+00 6.6982246802e-05 2.1344865095e+00 -3.6970390825e+00 2.1344865095e+00 3.6970390825e+00 
81700 4.5774658978e+00 6.7003075387e-05 2.1344865095e+00 -3.6970390825e+00 2.1344865095e+00 3.6970390825e+00 
81800 4.5774658983e+00 6.7023577818e-05 2.1344865095e+00 -3.6970390825e+00 2.1344865095e+00 3.6970390825e+00 
81900 4.5774658989e+00 6.7043759920e-05 2.1344865095e+00 -3.6970390825e+00 2.1344865095e+00 3.6970390825e+00 
82000 4.5774658994e+00 6.7063627751e-05 2.1344865095e+00 -3.6970390825e+00 2.1344865095e+00 3.6970390825e+00 
82100 4.5774658999e+00 6.7083187582e-05 2.1344865095e+00 -3.6970390825e+00 2.1344865095e+00 3.6970390825e+00 
82200 4.5774659003e+00 6.7102445884e-05 2.1344865095e+00 -3.6970390825e+00 2.1344865095e+00 3.6970390825e+00 
82300 4.5774659008e+00 6.7121409305e-05 2.1344865095e+00 -3.6970390825e+00 2.1344865095e+00 3.6970390825e+00 
82400 4.5774659013e+00 6.7140084654e-05 2.1344865095e+00 -3.6970390825e+00 2.1344865095e+00 3.6970390825e+00 
82500 4.5774659018e+00 6.7158478888e-05 2.1344865095e+00 -3.6970390825e+00 2.1344865095e+00 3.6970390825e+00 
82600 4.5774659023e+00 6.7176599087e-05 2.1344865095e+00 -3.6970390825e+00 2.1344865095e+00 3.6970390825e+00 
82700 4.5774659027e+00 6.7194452443e-05 2.1344865095e+00 -3.6970390825e+00 2.1344865095e+00 3.6970390825e+00 
82800 4.5774659032e+00 6.7212046242e-05 2.1344865095e+00 -3.6970390825e+00 2.1344865095e+00 3.6970390825e+00 
82900 4.5774659036e+00 6.7229387846e-05 2.1344865095e+00 -3.6970390825e+00 2.1344865095e+00 3.6970390825e+00 
83000 4.5774659041e+00 6.7246484679e-05 2.1344865095e+00 -3.6970390825e+00 2.1344865095e+00 3.6970390825e+00 
83100 4.5774659045e+00 6.7263344212e-05 2.1344865095e+00 -3.6970390825e+00 2.1344865095e+00 3.6970390825e+00 
83200 4.5774659049e+00 6.7279973944e-05 2.1344865095e+00 -3.6970390825e+00 2.1344865095e+00 3.6970390825e+00 
83300 4.5774659054e+00 6.7296381394e-05 2.1344865095e+00 -3.6970390825e+00 2.1344865095e+00 3.6970390825e+00 
83400 4.5774659058e+00 6.7312574079e-05 2.1344865095e+00 -3.6970390825e+00 2.1344865095e+00 3.6970390825e+00 
83500 4.5774659062e+00 6.7328559507e-05 2.1344865095e+00 -3.6970390825e+00 2.1344865095e+00 3.6970390825e+00 
83600 4.5774659066e+00 6.7344345161e-05 2.1344865095e+00 -3.6970390825e+00 2.1344865095e+00 3.6970390825e+00 
83700 4.5774659070e+00 6.7359938482e-05 2.1344865095e+00 -3.6970390825e+00 2.1344865095e+00 3.6970390825e+00 
83800 4.5774659074e+00 6.7375346865e-05 2.1344865095e+00 -3.6970390825e+00 2.1344865095e+00 3.6970390825e+00 
83900 4.5774659078e+00 6.7390577641e-05 2.1344865095e+00 -3.6970390825e+00 2.1344865095e+00 3.6970390825e+00 
84000 4.5774659082e+00 6.7405638066e-05 2.1344865095e+00 -3.6970390825e+00 2.1344865095e+00 3.6970390825e+00 
84100 4.5774659086e+00 6.7420535313e-05 2.1344865095e+00 -3.6970390825e+00 2.1344865095e+00 3.6970390825e+00 
84200 4.5774659090e+00 6.7435276458e-05 2.1344865095e+00 -3.6970390825e+00 2.1344865095e+00 3.6970390825e+00 
84300 4.5774659094e+00 6.7449868472e-05 2.1344865095e+00 -3.6970390825e+00 2.1344865095e+00 3.6970390825e+00 
84400 4.5774659098e+00 6.7464318215e-05 2.1344865095e+00 -3.6970390825e+00 2.1344865095e+00 3.6970390825e+00 
84500 4.5774659101e+00 6.7478632421e-05 2.1344865095e+00 -3.6970390825e+00 2.1344865095e+00 3.6970390825e+00 
84600 4.5774659105e+00 6.7492817694e-05 2.1344865095e+00 -3.6970390825e+00 2.1344865095e+00 3.6970390825e+00 
84700 4.5774659109e+00 6.7506880495e-05 2.1344865095e+00 -3.6970390825e+00 2.1344865095e+00 3.6970390825e+00 
84800 4.5774659112e+00 6.7520827140e-05 2.1344865095e+00 -3.6970390825e+00 2.1344865095e+00 3.6970390825e+00 
84900 4.5774659116e+00 6.7534663797e-05 2.1344865095e+00 -3.6970390825e+00 2.1344865095e+00 3.6970390825e+00 
85000 4.5774659119e+00 6.7548396467e-05 2.1344865095e+00 -3.6970390825e+00 2.1344865095e+00 3.6970390825e+00 
85100 4.5774659123e+00 6.7562030986e-05 2.1344865095e+00 -3.6970390825e+00 2.1344865095e+00 3.6970390825e+00 
85200 4.5774659126e+00 6.7575573024e-05 2.1344865095e+00 -3.6970390825e+00 2.1344865095e+00 3.6970390825e+00 
85300 4.5774659129e+00 6.7589028072e-05 2.1344865095e+00 -3.6970390825e+00 2.1344865095e+00 3.6970390825e+00 
85400 4.5774659133e+00 6.7602401443e-05 2.1344865095e+00 -3.6970390825e+00 2.1344865095e+00 3.6970390825e+00 
85500 4.5774659136e+00 6.7615698265e-05 2.1344865095e+00 -3.6970390825e+00 2.1344865095e+00 3.6970390825e+00 
85600 4.5774659139e+00 6.7628923477e-05 2.1344865095e+00 -3.6970390825e+00 2.1344865095e+00 3.6970390825e+00 
85700 4.5774659142e+00 6.7642081837e-05 2.1344865095e+00 -3.6970390825e+00 2.1344865095e+00 3.6970390825e+00 
85800 4.5774659146e+00 6.7655177900e-05 2.1344865095e+00 -3.6970390825e+00 2.1344865095e+00 3.6970390825e+00 
85900 4.5774659149e+00 6.7668216034e-05 2.1344865095e+00 -3.6970390825e+00 2.1344865095e+00 3.6970390825e+00 
86000 4.5774659152e+00 6.7681200410e-05 2.1344865095e+00 -3.6970390825e+00 2.1344865095e+00 3.6970390825e+00 
86100 4.5774659155e+00 6.7694135000e-05 2.1344865095e+00 -3.6970390825e+00 2.1344865095e+00 3.6970390825e+00 
86200 4.5774659158e+00 6.7707023585e-05 2.1344865095e+00 -3.6970390825e+00 2.1344865095e+00 3.6970390825e+00 
86300 4.5774659161e+00 6.7719869739e-05 2.1344865095e+00 -3.6970390825e+00 2.1344865095e+00 3.6970390825e+00 
86400 4.5774659164e+00 6.7732676848e-05 2.1344865095e+00 -3.6970390825e+00 2.1344865095e+00 3.6970390825e+00 
86500 4.5774659167e+00 6.7745448098e-05 2.1344865095e+00 -3.6970390825e+00 2.1344865095e+00 3.6970390825e+00 
86600 4.5774659169e+00 6.7758186478e-05 2.1344865095e+00 -3.6970390825e+00 2.1344865095e+00 3.6970390825e+00 
86700 4.5774659172e+00 6.7770894780e-05 2.1344865095e+00 -3.6970390825e+00 2.1344865095e+00 3.6970390825e+00 
86800 4.5774659175e+00 6.7783575611e-05 2.1344865095e+00 -3.6970390825e+00 2.1344865095e+00 3.6970390825e+00 
86900 4.5774659178e+00 6.7796231379e-05 2.1344865095e+00 -3.6970390825e+00 2.1344865095e+00 3.6970390825e+00 
87000 4.5774659181e+00 6.7808864307e-05 2.1344865095e+00 -3.6970390825e+00 2.1344865095e+00 3.6970390825e+00 
87100 4.5774659183e+00 6.7821476432e-05 2.1344865095e+00 -3.6970390825e+00 2.1344865095e+00 3.6970390825e+00 
87200 4.5774659186e+00 6.7834069605e-05 2.1344865095e+00 -3.6970390825e+00 2.1344865095e+00 3.6970390825e+00 
87300 4.5774659189e+00 6.7846645499e-05 2.1344865095e+00 -3.6970390825e+00 2.1344865095e+00 3.6970390825e+00 
87400 4.5774659191e+00 6.7859205608e-05 2.1344865095e+00 -3.6970390825e+00 2.1344865095e+00 3.6970390825e+00 
87500 4.5774659194e+00 6.7871751253e-05 2.1344865095e+00 -3.6970390825e+00 2.1344865095e+00 3.6970390825e+00 
87600 4.5774659196e+00 6.7884283587e-05 2.1344865095e+00 -3.6970390825e+00 2.1344865095e+00 3.6970390825e+00 
87700 4.5774659199e+00 6.7896803593e-05 2.1344865095e+00 -3.6970390825e+00 2.1344865095e+00 3.6970390825e+00 
87800 4.5774659201e+00 6.7909312100e-05 2.1344865095e+00 -3.6970390825e+00 2.1344865095e+00 3.6970390825e+00 
87900 4.5774659204e+00 6.7921809771e-05 2.1344865095e+00 -3.6970390825e+00 2.1344865095e+00 3.6970390825e+00 
88000 4.5774659206e+00 6.7934297120e-05 2.1344865095e+00 -3.6970390825e+00 2.1344865095e+00 3.6970390825e+00 
88100 4.5774659209e+00 6.7946774516e-05 2.1344865095e+00 -3.6970390825e+00 2.1344865095e+00 3.6970390825e+00 
88200 4.5774659211e+00 6.7959242180e-05 2.1344865095e+00 -3.6970390825e+00 2.1344865095e+00 3.6970390825e+00 
88300 4.5774659213e+00 6.7971700199e-05 2.1344865095e+00 -3.6970390825e+00 2.1344865095e+00 3.6970390825e+00 
88400 4.5774659216e+00 6.7984148523e-05 2.1344865095e+00 -3.6970390825e+00 2.1344865095e+00 3.6970390825e+00 
88500 4.5774659218e+00 6.7996586978e-05 2.1344865095e+00 -3.6970390825e+00 2.1344865095e+00 3.6970390825e+00 
88600 4.5774659220e+00 6.8009015265e-05 2.1344865095e+00 -3.6970390825e+00 2.1344865095e+00 3.6970390825e+00 
88700 4.5774659222e+00 6.8021432966e-05 2.1344865095e+00 -3.6970390825e+00 2.1344865095e+00 3.6970390825e+00 
88800 4.5774659224e+00 6.8033839555e-05 2.1344865095e+00 -3.6970390825e+00 2.1344865095e+00 3.6970390825e+00 
88900 4.5774659227e+00 6.8046234397e-05 2.1344865095e+00 -3.6970390825e+00 2.1344865095e+00 3.6970390825e+00 
89000 4.5774659229e+00 6.8058616756e-05 2.1344865095e+00 -3.6970390825e+00 2.1344865095e+00 3.6970390825e+00 
89100 4.5774659231e+00 6.8070985801e-05 2.1344865095e+00 -3.6970390825e+00 2.1344865095e+00 3.6970390825e+00 
89200 4.5774659233e+00 6.8083340613e-05 2.1344865095e+00 -3.6970390825e+00 2.1344865095e+00 3.6970390825e+00 
89300 4.5774659235e+00 6.8095680182e-05 2.1344865095e+00 -3.6970390825e+00 2.1344865095e+00 3.6970390825e+00 
89400 4.5774659237e+00 6.8108003425e-05 2.1344865095e+00 -3.6970390825e+00 2.1344865095e+00 3.6970390825e+00 
89500 4.5774659239e+00 6.8120309185e-05 2.1344865095e+00 -3.6970390825e+00 2.1344865095e+00 3.6970390825e+00 
89600 4.5774659241e+00 6.8132596231e-05 2.1344865095e+00 -3.6970390825e+00 2.1344865095e+00 3.6970390825e+00 
89700 4.5774659243e+00 6.8144863276e-05 2.1344865095e+00 -3.6970390825e+00 2.1344865095e+00 3.6970390825e+00 
89800 4.5774659245e+00 6.8157108972e-05 2.1344865095e+00 -3.6970390825e+00 2.1344865095e+00 3.6970390825e+00 
89900 4.5774659247e+00 6.8169331916e-05 2.1344865095e+00 -3.6970390825e+00 2.1344865095e+00 3.6970390825e+00 
90000 4.5774659249e+00 6.8181530666e-05 2.1344865095e+00 -3.6970390825e+00 2.1344865095e+00 3.6970390825e+00 
90100 4.5774659251e+00 6.8193703733e-05 2.1344865095e+00 -3.6970390825e+00 2.1344865095e+00 3.6970390825e+00 
90200 4.5774659253e+00 6.8205849587e-05 2.1344865095e+00 -3.6970390825e+00 2.1344865095e+00 3.6970390825e+00 
90300 4.5774659254e+00 6.8217966677e-05 2.1344865095e+00 -3.6970390825e+00 2.1344865095e+00 3.6970390825e+00 
90400 4.5774659256e+00 6.8230053411e-05 2.1344865095e+00 -3.6970390825e+00 2.1344865095e+00 3.6970390825e+00 
90500 4.5774659258e+00 6.8242108189e-05 2.1344865095e+00 -3.6970390825e+00 2.1344865095e+00 3.6970390825e+00 
90600 4.5774659260e+00 6.8254129381e-05 2.1344865095e+00 -3.6970390825e+00 2.1344865095e+00 3.6970390825e+00 
90700 4.5774659261e+00 6.8266115353e-05 2.1344865095e+00 -3.6970390825e+00 2.1344865095e+00 3.6970390825e+00 
90800 4.5774659263e+00 6.8278064455e-05 2.1344865095e+00 -3.6970390825e+00 2.1344865095e+00 3.6970390825e+00 
90900 4.5774659265e+00 6.8289975040e-05 2.1344865095e+00 -3.6970390825e+00 2.1344865095e+00 3.6970390825e+00 
91000 4.5774659267e+00 6.8301845458e-05 2.1344865095e+00 -3.6970390825e+00 2.1344865095e+00 3.6970390825e+00 
91100 4.5774659268e+00 6.8313674055e-05 2.1344865095e+00 -3.6970390825e+00 2.1344865095e+00 3.6970390825e+00 
91200 4.5774659270e+00 6.8325459199e-05 2.1344865095e+00 -3.6970390825e+00 2.1344865095e+00 3.6970390825e+00 
91300 4.5774659271e+00 6.8337199258e-05 2.1344865095e+00 -3.6970390825e+00 2.1344865095e+00 3.6970390825e+00 
91400 4.5774659273e+00 6.8348892617e-05 2.1344865095e+00 -3.6970390825e+00 2.1344865095e+00 3.6970390825e+00 
91500 4.5774659275e+00 6.8360537683e-05 2.1344865095e+00 -3.6970390825e+00 2.1344865095e+00 3.6970390825e+00 
91600 4.5774659276e+00 6.8372132882e-05 2.1344865095e+00 -3.6970390825e+00 2.1344865095e+00 3.6970390825e+00 
91700 4.5774659278e+00 6.8383676665e-05 2.1344865095e+00 -3.6970390825e+00 2.1344865095e+00 3.6970390825e+00 
91800 4.5774659279e+00 6.8395167515e-05 2.1344865095e+00 -3.6970390825e+00 2.1344865095e+00 3.6970390825e+00 
91900 4.5774659281e+00 6.8406603935e-05 2.1344865095e+00 -3.6970390825e+00 2.1344865095e+00 3.6970390825e+00 
92000 4.5774659282e+00 6.8417984471e-05 2.1344865095e+00 -3.6970390825e+00 2.1344865095e+00 3.6970390825e+00 
92100 4.5774659284e+00 6.8429307704e-05 2.1344865095e+00 -3.6970390825e+00 2.1344865095e+00 3.6970390825e+00 
92200 4.5774659285e+00 6.8440572252e-05 2.1344865095e+00 -3.6970390825e+00 2.1344865095e+00 3.6970390825e+00 
92300 4.5774659287e+00 6.8451776770e-05 2.1344865095e+00 -3.6970390825e+00 2.1344865095e+00 3.6970390825e+00 
92400 4.5774659288e+00 6.8462919959e-05 2.1344865095e+00 -3.6970390825e+00 2.1344865095e+00 3.6970390825e+00 
92500 4.5774659289e+00 6.8474000565e-05 2.1344865095e+00 -3.6970390825e+00 2.1344865095e+00 3.6970390825e+00 
92600 4.5774659291e+00 6.8485017380e-05 2.1344865095e+00 -3.6970390825e+00 2.1344865095e+00 3.6970390825e+00 
92700 4.5774659292e+00 6.8495969240e-05 2.1344865095e+00 -3.6970390825e+00 2.1344865095e+00 3.6970390825e+00 
92800 4.5774659294e+00 6.8506855035e-05 2.1344865095e+00 -3.6970390825e+00 2.1344865095e+00 3.6970390825e+00 
92900 4.5774659295e+00 6.8517673705e-05 2.1344865095e+00 -3.6970390825e+00 2.1344865095e+00 3.6970390825e+00 
93000 4.5774659296e+00 6.8528424238e-05 2.1344865095e+00 -3.6970390825e+00 2.1344865095e+00 3.6970390825e+00 
93100 4.5774659297e+00 6.8539105680e-05 2.1344865095e+00 -3.6970390825e+00 2.1344865095e+00 3.6970390825e+00 
93200 4.5774659299e+00 6.8549717127e-05 2.1344865095e+00 -3.6970390825e+00 2.1344865095e+00 3.6970390825e+00 
93300 4.5774659300e+00 6.8560257733e-05 2.1344865095e+00 -3.6970390825e+00 2.1344865095e+00 3.6970390825e+00 
93400 4.5774659301e+00 6.8570726702e-05 2.1344865095e+00 -3.6970390825e+00 2.1344865095e+00 3.6970390825e+00 
93500 4.5774659303e+00 6.8581123300e-05 2.1344865095e+00 -3.6970390825e+00 2.1344865095e+00 3.6970390825e+00 
93600 4.5774659304e+00 6.8591446842e-05 2.1344865095e+00 -3.6970390825e+00 2.1344865095e+00 3.6970390825e+00 
93700 4.5774659305e+00 6.8601696706e-05 2.1344865095e+00 -3.6970390825e+00 2.1344865095e+00 3.6970390825e+00 
93800 4.5774659306e+00 6.8611872324e-05 2.1344865095e+00 -3.6970390825e+00 2.1344865095e+00 3.6970390825e+00 
93900 4.5774659307e+00 6.8621973179e-05 2.1344865095e+00 -3.6970390825e+00 2.1344865095e+00 3.6970390825e+00 
94000 4.5774659309e+00 6.8631998819e-05 2.1344865095e+00 -3.6970390825e+00 2.1344865095e+00 3.6970390825e+00 
94100 4.5774659310e+00 6.8641948844e-05 2.1344865095e+00 -3.6970390825e+00 2.1344865095e+00 3.6970390825e+00 
94200 4.5774659311e+00 6.8651822905e-05 2.1344865095e+00 -3.6970390825e+00 2.1344865095e+00 3.6970390825e+00 
94300 4.5774659312e+00 6.8661620716e-05 2.1344865095e+00 -3.6970390825e+00 2.1344865095e+00 3.6970390825e+00 
94400 4.5774659313e+00 6.8671342039e-05 2.1344865095e+00 -3.6970390825e+00 2.1344865095e+00 3.6970390825e+00 
94500 4.5774659314e+00 6.8680986698e-05 2.1344865095e+00 -3.6970390825e+00 2.1344865095e+00 3.6970390825e+00 
94600 4.5774659315e+00 6.8690554563e-05 2.1344865095e+00 -3.6970390825e+00 2.1344865095e+00 3.6970390825e+00 
94700 4.5774659316e+00 6.8700045557e-05 2.1344865095e+00 -3.6970390825e+00 2.1344865095e+00 3.6970390825e+00 
94800 4.5774659317e+00 6.8709459661e-05 2.1344865095e+00 -3.6970390825e+00 2.1344865095e+00 3.6970390825e+00 
94900 4.5774659318e+00 6.8718796900e-05 2.1344865095e+00 -3.6970390825e+00 2.1344865095e+00 3.6970390825e+00 
95000 4.5774659320e+00 6.8728057350e-05 2.1344865095e+00 -3.6970390825e+00 2.1344865095e+00 3.6970390825e+00 
95100 4.5774659321e+00 6.8737241139e-05 2.1344865095e+00 -3.6970390825e+00 2.1344865095e+00 3.6970390825e+00 
95200 4.5774659322e+00 6.8746348439e-05 2.1344865095e+00 -3.6970390825e+00 2.1344865095e+00 3.6970390825e+00 
95300 4.5774659323e+00 6.8755379468e-05 2.1344865095e+00 -3.6970390825e+00 2.1344865095e+00 3.6970390825e+00 
95400 4.5774659324e+00 6.8764334492e-05 2.1344865095e+00 -3.6970390825e+00 2.1344865095e+00 3.6970390825e+00 
95500 4.5774659325e+00 6.8773213820e-05 2.1344865095e+00 -3.6970390825e+00 2.1344865095e+00 3.6970390825e+00 
95600 4.5774659325e+00 6.8782017797e-05 2.1344865095e+00 -3.6970390825e+00 2.1344865095e+00 3.6970390825e+00 
95700 4.5774659326e+00 6.8790746816e-05 2.1344865095e+00 -3.6970390825e+00 2.1344865095e+00 3.6970390825e+00 
95800 4.5774659327e+00 6.8799401305e-05 2.1344865095e+00 -3.6970390825e+00 2.1344865095e+00 3.6970390825e+00 
95900 4.5774659328e+00 6.8807981734e-05 2.1344865095e+00 -3.6970390825e+00 2.1344865095e+00 3.6970390825e+00 
96000 4.5774659329e+00 6.8816488607e-05 2.1344865095e+00 -3.6970390825e+00 2.1344865095e+00 3.6970390825e+00 
96100 4.5774659330e+00 6.8824922459e-05 2.1344865095e+00 -3.6970390825e+00 2.1344865095e+00 3.6970390825e+00 
96200 4.5774659331e+00 6.8833283865e-05 2.1344865095e+00 -3.6970390825e+00 2.1344865095e+00 3.6970390825e+00 
96300 4.5774659332e+00 6.8841573426e-05 2.1344865095e+00 -3.6970390825e+00 2.1344865095e+00 3.6970390825e+00 
96400 4.5774659333e+00 6.8849791775e-05 2.1344865095e+00 -3.6970390825e+00 2.1344865095e+00 3.6970390825e+00 
96500 4.5774659334e+00 6.8857939574e-05 2.1344865095e+00 -3.6970390825e+00 2.1344865095e+00 3.6970390825e+00 
96600 4.5774659335e+00 6.8866017509e-05 2.1344865095e+00 -3.6970390825e+00 2.1344865095e+00 3.6970390825e+00 
96700 4.5774659335e+00 6.8874026295e-05 2.1344865095e+00 -3.6970390825e+00 2.1344865095e+00 3.6970390825e+00 
96800 4.5774659336e+00 6.8881966668e-05 2.1344865095e+00 -3.6970390825e+00 2.1344865095e+00 3.6970390825e+00 
96900 4.5774659337e+00 6.8889839388e-05 2.1344865095e+00 -3.6970390825e+00 2.1344865095e+00 3.6970390825e+00 
97000 4.5774659338e+00 6.8897645229e-05 2.1344865095e+00 -3.6970390825e+00 2.1344865095e+00 3.6970390825e+00 
97100 4.5774659339e+00 6.8905384990e-05 2.1344865095e+00 -3.6970390825e+00 2.1344865095e+00 3.6970390825e+00 
97200 4.5774659339e+00 6.8913059485e-05 2.1344865095e+00 -3.6970390825e+00 2.1344865095e+00 3.6970390825e+00 
97300 4.5774659340e+00 6.8920669542e-05 2.1344865095e+00 -3.6970390825e+00 2.1344865095e+00 3.6970390825e+00 
97400 4.5774659341e+00 6.8928216005e-05 2.1344865095e+00 -3.6970390825e+00 2.1344865095e+00 3.6970390825e+00 
97500 4.5774659342e+00 6.8935699728e-05 2.1344865095e+00 -3.6970390825e+00 2.1344865095e+00 3.6970390825e+00 
97600 4.5774659343e+00 6.8943121578e-05 2.1344865095e+00 -3.6970390825e+00 2.1344865095e+00 3.6970390825e+00 
97700 4.5774659343e+00 6.8950482430e-05 2.1344865095e+00 -3.6970390825e+00 2.1344865095e+00 3.6970390825e+00 
97800 4.5774659344e+00 6.8957783165e-05 2.1344865095e+00 -3.6970390825e+00 2.1344865095e+00 3.6970390825e+00 
97900 4.5774659345e+00 6.8965024673e-05 2.1344865095e+00 -3.6970390825e+00 2.1344865095e+00 3.6970390825e+00 
98000 4.5774659346e+00 6.8972207849e-05 2.1344865095e+00 -3.6970390825e+00 2.1344865095e+00 3.6970390825e+00 
98100 4.5774659346e+00 6.8979333585e-05 2.1344865095e+00 -3.6970390825e+00 2.1344865095e+00 3.6970390825e+00 
98200 4.5774659347e+00 6.8986402787e-05 2.1344865095e+00 -3.6970390825e+00 2.1344865095e+00 3.6970390825e+00 
98300 4.5774659348e+00 6.8993416351e-05 2.1344865095e+00 -3.6970390825e+00 2.1344865095e+00 3.6970390825e+00 
98400 4.5774659348e+00 6.9000375177e-05 2.1344865095e+00 -3.6970390825e+00 2.1344865095e+00 3.6970390825e+00 
98500 4.5774659349e+00 6.9007280161e-05 2.1344865095e+00 -3.6970390825e+00 2.1344865095e+00 3.6970390825e+00 
98600 4.5774659350e+00 6.9014132203e-05 2.1344865095e+00 -3.6970390825e+00 2.1344865095e+00 3.6970390825e+00 
98700 4.5774659350e+00 6.9020932188e-05 2.1344865095e+00 -3.6970390825e+00 2.1344865095e+00 3.6970390825e+00 
98800 4.5774659351e+00 6.9027681003e-05 2.1344865095e+00 -3.6970390825e+00 2.1344865095e+00 3.6970390825e+00 
98900 4.5774659352e+00 6.9034379527e-05 2.1344865095e+00 -3.6970390825e+00 2.1344865095e+00 3.6970390825e+00 
99000 4.5774659352e+00 6.9041028631e-05 2.1344865095e+00 -3.6970390825e+00 2.1344865095e+00 3.6970390825e+00 
99100 4.5774659353e+00 6.9047629181e-05 2.1344865095e+00 -3.6970390825e+00 2.1344865095e+00 3.6970390825e+00 
99200 4.5774659354e+00 6.9054182026e-05 2.1344865095e+00 -3.6970390825e+00 2.1344865095e+00 3.6970390825e+00 
99300 4.5774659354e+00 6.9060688015e-05 2.1344865095e+00 -3.6970390825e+00 2.1344865095e+00 3.6970390825e+00 
99400 4.5774659355e+00 6.9067147977e-05 2.1344865095e+00 -3.6970390825e+00 2.1344865095e+00 3.6970390825e+00 
99500 4.5774659355e+00 6.9073562733e-05 2.1344865095e+00 -3.6970390825e+00 2.1344865095e+00 3.6970390825e+00 
99600 4.5774659356e+00 6.9079933093e-05 2.1344865095e+00 -3.6970390825e+00 2.1344865095e+00 3.6970390825e+00 
99700 4.5774659357e+00 6.9086259851e-05 2.1344865095e+00 -3.6970390825e+00 2.1344865095e+00 3.6970390825e+00 
99800 4.5774659357e+00 6.9092543786e-05 2.1344865095e+00 -3.6970390825e+00 2.1344865095e+00 3.6970390825e+00 
99900 4.5774659358e+00 6.9098785665e-05 2.1344865095e+00 -3.6970390825e+00 2.1344865095e+00 3.6970390825e+00 
100000 4.5774659358e+00 6.9104986239e-05 2.1344865095e+00 -3.6970390825e+00 2.1344865095e+00 3.6970390825e+00 
100100 4.5774659359e+00 6.9111146244e-05 2.1344865095e+00 -3.6970390825e+00 2.1344865095e+00 3.6970390825e+00 
100200 4.5774659359e+00 6.9117266397e-05 2.1344865095e+00 -3.6970390825e+00 2.1344865095e+00 3.6970390825e+00 
100300 4.5774659360e+00 6.9123347401e-05 2.1344865095e+00 -3.6970390825e+00 2.1344865095e+00 3.6970390825e+00 
100400 4.5774659361e+00 6.9129389940e-05 2.1344865095e+00 -3.6970390825e+00 2.1344865095e+00 3.6970390825e+00 
100500 4.5774659361e+00 6.9135394683e-05 2.1344865095e+00 -3.6970390825e+00 2.1344865095e+00 3.6970390825e+00 
100600 4.5774659362e+00 6.9141362278e-05 2.1344865095e+00 -3.6970390825e+00 2.1344865095e+00 3.6970390825e+00 
100700 4.5774659362e+00 6.9147293359e-05 2.1344865095e+00 -3.6970390825e+00 2.1344865095e+00 3.6970390825e+00 
100800 4.5774659363e+00 6.9153188538e-05 2.1344865095e+00 -3.6970390825e+00 2.1344865095e+00 3.6970390825e+00 
100900 4.5774659363e+00 6.9159048408e-05 2.1344865095e+00 -3.6970390825e+00 2.1344865095e+00 3.6970390825e+00 
101000 4.5774659364e+00 6.9164873547e-05 2.1344865095e+00 -3.6970390825e+00 2.1344865095e+00 3.6970390825e+00 
101100 4.5774659364e+00 6.9170664515e-05 2.1344865095e+00 -3.6970390825e+00 2.1344865095e+00 3.6970390825e+00 
101200 4.5774659364e+00 6.9172971454e-05 2.1344865095e+00 -3.6970390825e+00 2.1344865095e+00 3.6970390825e+00 
101200 4.5774659364e+00 6.9172971454e-05 2.1344865095e+00 -3.6970390825e+00 2.1344865095e+00 3.6970390825e+00 
