# step Hamiltonian StressXX CellTensor1 CellTensor2 CellTensor3 CellTensor4 
0 7.3011446941e+00 -4.2815113009e-03 1.6185780433e+00 -2.8034594071e+00 1.6185780433e+00 2.8034594071e+00 
100 7.2896919252e+00 -1.2234555597e-03 1.6185780433e+00 -2.8034594071e+00 1.6185780433e+00 2.8034594071e+00 
200 7.2783211692e+00 1.6632230944e-03 1.6186158376e+00 -2.8035248687e+00 1.6186158376e+00 2.8035248687e+00 
300 7.2670559518e+00 4.2610588490e-03 1.6185644600e+00 -2.8034358800e+00 1.6185644600e+00 2.8034358800e+00 
400 7.2559170180e+00 6.5849715938e-03 1.6184328309e+00 -2.8032078918e+00 1.6184328309e+00 2.8032078918e+00 
500 7.2449231607e+00 8.6492349784e-03 1.6182293985e+00 -2.8028555366e+00 1.6182293985e+00 2.8028555366e+00 
600 7.2340913104e+00 1.0467521607e-02 1.6179621621e+00 -2.8023926695e+00 1.6179621621e+00 2.8023926695e+00 
700 7.2234366238e+00 1.2052943261e-02 1.6176386943e+00 -2.8018324069e+00 1.6176386943e+00 2.8018324069e+00 
800 7.2129725696e+00 1.3418086466e-02 1.6172661612e+00 -2.8011871605e+00 1.6172661612e+00 2.8011871605e+00 
900 7.2027110136e+00 1.4575043777e-02 1.6168513404e+00 -2.8004686698e+00 1.6168513404e+00 2.8004686698e+00 
1000 7.1926623011e+00 1.5535441157e-02 1.6164006383e+00 -2.7996880309e+00 1.6164006383e+00 2.7996880309e+00 
1100 7.1828353376e+00 1.6310461845e-02 1.6159201055e+00 -2.7988557236e+00 1.6159201055e+00 2.7988557236e+00 
1200 7.1732376674e+00 1.6910867099e-02 1.6154154514e+00 -2.7979816372e+00 1.6154154514e+00 2.7979816372e+00 
1300 7.1638755506e+00 1.7347014202e-02 1.6148920581e+00 -2.7970750933e+00 1.6148920581e+00 2.7970750933e+00 
1400 7.1547540382e+00 1.7628872079e-02 1.6143549927e+00 -2.7961448688e+00 1.6143549927e+00 2.7961448688e+00 
1500 7.1458770448e+00 1.7766034888e-02 1.6138090199e+00 -2.7951992162e+00 1.6138090199e+00 2.7951992162e+00 
1600 7.1372474202e+00 1.7767733886e-02 1.6132586132e+00 -2.7942458839e+00 1.6132586132e+00 2.7942458839e+00 
1700 7.1288670184e+00 1.7642847868e-02 1.6127079662e+00 -2.7932921352e+00 1.6127079662e+00 2.7932921352e+00 
1800 7.1207367655e+00 1.7399912462e-02 1.6121610026e+00 -2.7923447665e+00 1.6121610026e+00 2.7923447665e+00 
1900 7.1128567245e+00 1.7047128489e-02 1.6116213871e+00 -2.7914101250e+00 1.6116213871e+00 2.7914101250e+00 
2000 7.1052261595e+00 1.6592369633e-02 1.6110925347e+00 -2.7904941258e+00 1.6110925347e+00 2.7904941258e+00 
2100 7.0978435973e+00 1.6043189585e-02 1.6105776206e+00 -2.7896022684e+00 1.6105776206e+00 2.7896022684e+00 
2200 7.0907068869e+00 1.5406828838e-02 1.6100795893e+00 -2.7887396529e+00 1.6100795893e+00 2.7887396529e+00 
2300 7.0838132573e+00 1.4690221252e-02 1.6096011637e+00 -2.7879109954e+00 1.6096011637e+00 2.7879109954e+00 
2400 7.0771593732e+00 1.3900000523e-02 1.6091448542e+00 -2.7871206441e+00 1.6091448542e+00 2.7871206441e+00 
2500 7.0707413890e+00 1.3042506639e-02 1.6087129670e+00 -2.7863725937e+00 1.6087129670e+00 2.7863725937e+00 
2600 7.0645550001e+00 1.2123792390e-02 1.6083076132e+00 -2.7856705003e+00 1.6083076132e+00 2.7856705003e+00 
2700 7.0585954926e+00 1.1149630004e-02 1.6079307165e+00 -2.7850176960e+00 1.6079307165e+00 2.7850176960e+00 
2800 7.0528577909e+00 1.0125517935e-02 1.6075840215e+00 -2.7844172027e+00 1.6075840215e+00 2.7844172027e+00 
2900 7.0473365029e+00 9.0566878323e-03 1.6072691021e+00 -2.7838717463e+00 1.6072691021e+00 2.7838717463e+00 
3000 7.0420259639e+00 7.9481117059e-03 1.6069873689e+00 -2.7833837700e+00 1.6069873689e+00 2.7833837700e+00 
3100 7.0369202771e+00 6.8045092913e-03 1.6067400767e+00 -2.7829554474e+00 1.6067400767e+00 2.7829554474e+00 
3200 7.0320133532e+00 5.6303556007e-03 1.6065283324e+00 -2.7825886956e+00 1.6065283324e+00 2.7825886956e+00 
3300 7.0272989474e+00 4.4298886511e-03 1.6063531020e+00 -2.7822851876e+00 1.6063531020e+00 2.7822851876e+00 
3400 7.0227706942e+00 3.2071173472e-03 1.6062152175e+00 -2.7820463645e+00 1.6062152175e+00 2.7820463645e+00 
3500 7.0184221408e+00 1.9658294932e-03 1.6061153839e+00 -2.7818734477e+00 1.6061153839e+00 2.7818734477e+00 
3600 7.0142467773e+00 7.0959990370e-04 1.6060541860e+00 -2.7817674499e+00 1.6060541860e+00 2.7817674499e+00 
3700 7.0102380662e+00 -5.5820141706e-04 1.6060320947e+00 -2.7817291865e+00 1.6060320947e+00 2.7817291865e+00 
3800 7.0063894690e+00 -1.8344010609e-03 1.6060494730e+00 -2.7817592867e+00 1.6060494730e+00 2.7817592867e+00 
3900 7.0026944714e+00 -3.1160140007e-03 1.6061065824e+00 -2.7818582031e+00 1.6061065824e+00 2.7818582031e+00 
4000 6.9991466060e+00 -4.4002354085e-03 1.6062035886e+00 -2.7820262228e+00 1.6062035886e+00 2.7820262228e+00 
4100 6.9957394742e+00 -5.6844325381e-03 1.6063405668e+00 -2.7822634760e+00 1.6063405668e+00 2.7822634760e+00 
4200 6.9924667650e+00 -6.9661367058e-03 1.6065175074e+00 -2.7825699461e+00 1.6065175074e+00 2.7825699461e+00 
4300 6.9893222731e+00 -8.2430353971e-03 1.6067343209e+00 -2.7829454780e+00 1.6067343209e+00 2.7829454780e+00 
4400 6.9862999146e+00 -9.5129645281e-03 1.6069908429e+00 -2.7833897872e+00 1.6069908429e+00 2.7833897872e+00 
4500 6.9833937419e+00 -1.0773900886e-02 1.6072868389e+00 -2.7839024673e+00 1.6072868389e+00 2.7839024673e+00 
4600 6.9805979558e+00 -1.2023954774e-02 1.6076220085e+00 -2.7844829981e+00 1.6076220085e+00 2.7844829981e+00 
4700 6.9779069172e+00 -1.3261362871e-02 1.6079959901e+00 -2.7851307533e+00 1.6079959901e+00 2.7851307533e+00 
4800 6.9753151570e+00 -1.4484481342e-02 1.6084083646e+00 -2.7858450068e+00 1.6084083646e+00 2.7858450068e+00 
4900 6.9728173841e+00 -1.5691779191e-02 1.6088586593e+00 -2.7866249402e+00 1.6088586593e+00 2.7866249402e+00 
5000 6.9704084932e+00 -1.6881831885e-02 1.6093463520e+00 -2.7874696487e+00 1.6093463520e+00 2.7874696487e+00 
5100 6.9680835699e+00 -1.8053315251e-02 1.6098708739e+00 -2.7883781473e+00 1.6098708739e+00 2.7883781473e+00 
5200 6.9658378959e+00 -1.9204999650e-02 1.6104316134e+00 -2.7893493765e+00 1.6104316134e+00 2.7893493765e+00 
5300 6.9636669523e+00 -2.0335744442e-02 1.6110279189e+00 -2.7903822079e+00 1.6110279189e+00 2.7903822079e+00 
5400 6.9615664222e+00 -2.1444492732e-02 1.6116591020e+00 -2.7914754491e+00 1.6116591020e+00 2.7914754491e+00 
5500 6.9595321921e+00 -2.2530266403e-02 1.6123244402e+00 -2.7926278487e+00 1.6123244402e+00 2.7926278487e+00 
5600 6.9575603525e+00 -2.3592161438e-02 1.6130231796e+00 -2.7938381009e+00 1.6130231796e+00 2.7938381009e+00 
5700 6.9556471975e+00 -2.4629343513e-02 1.6137545375e+00 -2.7951048498e+00 1.6137545375e+00 2.7951048498e+00 
5800 6.9537892237e+00 -2.5641043875e-02 1.6145177045e+00 -2.7964266938e+00 1.6145177045e+00 2.7964266938e+00 
5900 6.9519831286e+00 -2.6626555478e-02 1.6153118470e+00 -2.7978021891e+00 1.6153118470e+00 2.7978021891e+00 
6000 6.9502258075e+00 -2.7585229389e-02 1.6161361095e+00 -2.7992298536e+00 1.6161361095e+00 2.7992298536e+00 
6100 6.9485143508e+00 -2.8516471443e-02 1.6169896161e+00 -2.8007081703e+00 1.6169896161e+00 2.8007081703e+00 
6200 6.9468460401e+00 -2.9419739131e-02 1.6178714727e+00 -2.8022355909e+00 1.6178714727e+00 2.8022355909e+00 
6300 6.9452183437e+00 -3.0294538734e-02 1.6187807691e+00 -2.8038105384e+00 1.6187807691e+00 2.8038105384e+00 
6400 6.9436289123e+00 -3.1140422670e-02 1.6197165801e+00 -2.8054314105e+00 1.6197165801e+00 2.8054314105e+00 
6500 6.9420755734e+00 -3.1956987050e-02 1.6206779674e+00 -2.8070965823e+00 1.6206779674e+00 2.8070965823e+00 
6600 6.9405563261e+00 -3.2743869433e-02 1.6216639815e+00 -2.8088044087e+00 1.6216639815e+00 2.8088044087e+00 
6700 6.9390693351e+00 -3.3500746775e-02 1.6226736624e+00 -2.8105532275e+00 1.6226736624e+00 2.8105532275e+00 
6800 6.9376129246e+00 -3.4227333543e-02 1.6237060418e+00 -2.8123413610e+00 1.6237060418e+00 2.8123413610e+00 
6900 6.9361855720e+00 -3.4923380000e-02 1.6247601438e+00 -2.8141671191e+00 1.6247601438e+00 2.8141671191e+00 
7000 6.9347859013e+00 -3.5588670638e-02 1.6258349863e+00 -2.8160288011e+00 1.6258349863e+00 2.8160288011e+00 
7100 6.9334126766e+00 -3.6223022758e-02 1.6269295827e+00 -2.8179246976e+00 1.6269295827e+00 2.8179246976e+00 
7200 6.9320647950e+00 -3.6826285174e-02 1.6280429422e+00 -2.8198530928e+00 1.6280429422e+00 2.8198530928e+00 
7300 6.9307412800e+00 -3.7398337039e-02 1.6291740717e+00 -2.8218122665e+00 1.6291740717e+00 2.8218122665e+00 
7400 6.9294412744e+00 -3.7939086787e-02 1.6303219762e+00 -2.8238004954e+00 1.6303219762e+00 2.8238004954e+00 
7500 6.9281640333e+00 -3.8448471163e-02 1.6314856603e+00 -2.8258160555e+00 1.6314856603e+00 2.8258160555e+00 
7600 6.9269089173e+00 -3.8926454353e-02 1.6326641290e+00 -2.8278572232e+00 1.6326641290e+00 2.8278572232e+00 
7700 6.9256753855e+00 -3.9373027194e-02 1.6338563886e+00 -2.8299222773e+00 1.6338563886e+00 2.8299222773e+00 
7800 6.9244629887e+00 -3.9788206450e-02 1.6350614474e+00 -2.8320095005e+00 1.6350614474e+00 2.8320095005e+00 
7900 6.9232713626e+00 -4.0172034165e-02 1.6362783172e+00 -2.8341171808e+00 1.6362783172e+00 2.8341171808e+00 
8000 6.9221002210e+00 -4.0524577062e-02 1.6375060134e+00 -2.8362436130e+00 1.6375060134e+00 2.8362436130e+00 
8100 6.9209493495e+00 -4.0845925997e-02 1.6387435563e+00 -2.8383871000e+00 1.6387435563e+00 2.8383871000e+00 
8200 6.9198185990e+00 -4.1136195460e-02 1.6399899715e+00 -2.8405459546e+00 1.6399899715e+00 2.8405459546e+00 
8300 6.9187078794e+00 -4.1395523106e-02 1.6412442912e+00 -2.8427185000e+00 1.6412442912e+00 2.8427185000e+00 
8400 6.9176171534e+00 -4.1624069324e-02 1.6425055544e+00 -2.8449030720e+00 1.6425055544e+00 2.8449030720e+00 
8500 6.9165464308e+00 -4.1822016829e-02 1.6437728079e+00 -2.8470980193e+00 1.6437728079e+00 2.8470980193e+00 
8600 6.9154957629e+00 -4.1989570279e-02 1.6450451068e+00 -2.8493017057e+00 1.6450451068e+00 2.8493017057e+00 
8700 6.9144652365e+00 -4.2126955901e-02 1.6463215154e+00 -2.8515125103e+00 1.6463215154e+00 2.8515125103e+00 
8800 6.9134549691e+00 -4.2234421143e-02 1.6476011078e+00 -2.8537288292e+00 1.6476011078e+00 2.8537288292e+00 
8900 6.9124651037e+00 -4.2312234321e-02 1.6488829682e+00 -2.8559490766e+00 1.6488829682e+00 2.8559490766e+00 
9000 6.9114958036e+00 -4.2360684282e-02 1.6501661920e+00 -2.8581716854e+00 1.6501661920e+00 2.8581716854e+00 
9100 6.9105472482e+00 -4.2380080066e-02 1.6514498861e+00 -2.8603951088e+00 1.6514498861e+00 2.8603951088e+00 
9200 6.9096196285e+00 -4.2370750569e-02 1.6527331694e+00 -2.8626178208e+00 1.6527331694e+00 2.8626178208e+00 
9300 6.9087131426e+00 -4.2333044200e-02 1.6540151738e+00 -2.8648383175e+00 1.6540151738e+00 2.8648383175e+00 
9400 6.9078279924e+00 -4.2267328541e-02 1.6552950441e+00 -2.8670551180e+00 1.6552950441e+00 2.8670551180e+00 
9500 6.9069643793e+00 -4.2173989993e-02 1.6565719391e+00 -2.8692667649e+00 1.6565719391e+00 2.8692667649e+00 
9600 6.9061225011e+00 -4.2053433416e-02 1.6578450316e+00 -2.8714718258e+00 1.6578450316e+00 2.8714718258e+00 
9700 6.9053025486e+00 -4.1906081764e-02 1.6591135094e+00 -2.8736688938e+00 1.6591135094e+00 2.8736688938e+00 
9800 6.9045047027e+00 -4.1732375704e-02 1.6603765753e+00 -2.8758565881e+00 1.6603765753e+00 2.8758565881e+00 
9900 6.9037291316e+00 -4.1532773223e-02 1.6616334479e+00 -2.8780335553e+00 1.6616334479e+00 2.8780335553e+00 
10000 6.9029759886e+00 -4.1307749229e-02 1.6628833618e+00 -2.8801984697e+00 1.6628833618e+00 2.8801984697e+00 
10100 6.9022454090e+00 -4.1057795128e-02 1.6641255682e+00 -2.8823500343e+00 1.6641255682e+00 2.8823500343e+00 
10200 6.9015375091e+00 -4.0783418397e-02 1.6653593352e+00 -2.8844869815e+00 1.6653593352e+00 2.8844869815e+00 
10300 6.9008523834e+00 -4.0485142136e-02 1.6665839482e+00 -2.8866080733e+00 1.6665839482e+00 2.8866080733e+00 
10400 6.9001901036e+00 -4.0163504610e-02 1.6677987102e+00 -2.8887121028e+00 1.6677987102e+00 2.8887121028e+00 
10500 6.8995507166e+00 -3.9819058769e-02 1.6690029422e+00 -2.8907978939e+00 1.6690029422e+00 2.8907978939e+00 
10600 6.8989342440e+00 -3.9452371765e-02 1.6701959838e+00 -2.8928643026e+00 1.6701959838e+00 2.8928643026e+00 
10700 6.8983406803e+00 -3.9064024440e-02 1.6713771931e+00 -2.8949102170e+00 1.6713771931e+00 2.8949102170e+00 
10800 6.8977699925e+00 -3.8654610806e-02 1.6725459470e+00 -2.8969345582e+00 1.6725459470e+00 2.8969345582e+00 
10900 6.8972221194e+00 -3.8224737513e-02 1.6737016420e+00 -2.8989362806e+00 1.6737016420e+00 2.8989362806e+00 
11000 6.8966969709e+00 -3.7775023297e-02 1.6748436938e+00 -2.9009143724e+00 1.6748436938e+00 2.9009143724e+00 
11100 6.8961944281e+00 -3.7306098412e-02 1.6759715382e+00 -2.9028678561e+00 1.6759715382e+00 2.9028678561e+00 
11200 6.8957143425e+00 -3.6818604056e-02 1.6770846306e+00 -2.9047957888e+00 1.6770846306e+00 2.9047957888e+00 
11300 6.8952565366e+00 -3.6313191775e-02 1.6781824469e+00 -2.9066972624e+00 1.6781824469e+00 2.9066972624e+00 
11400 6.8948208037e+00 -3.5790522855e-02 1.6792644834e+00 -2.9085714045e+00 1.6792644834e+00 2.9085714045e+00 
11500 6.8944069085e+00 -3.5251267707e-02 1.6803302567e+00 -2.9104173781e+00 1.6803302567e+00 2.9104173781e+00 
11600 6.8940145870e+00 -3.4696105230e-02 1.6813793044e+00 -2.9122343820e+00 1.6813793044e+00 2.9122343820e+00 
11700 6.8936435476e+00 -3.4125722169e-02 1.6824111850e+00 -2.9140216516e+00 1.6824111850e+00 2.9140216516e+00 
11800 6.8932934713e+00 -3.3540812459e-02 1.6834254777e+00 -2.9157784581e+00 1.6834254777e+00 2.9157784581e+00 
11900 6.8929640129e+00 -3.2942076559e-02 1.6844217831e+00 -2.9175041097e+00 1.6844217831e+00 2.9175041097e+00 
12000 6.8926548016e+00 -3.2330220771e-02 1.6853997229e+00 -2.9191979511e+00 1.6853997229e+00 2.9191979511e+00 
12100 6.8923654420e+00 -3.1705956556e-02 1.6863589400e+00 -2.9208593639e+00 1.6863589400e+00 2.9208593639e+00 
12200 6.8920955150e+00 -3.1069999837e-02 1.6872990987e+00 -2.9224877666e+00 1.6872990987e+00 2.9224877666e+00 
12300 6.8918445793e+00 -3.0423070294e-02 1.6882198846e+00 -2.9240826145e+00 1.6882198846e+00 2.9240826145e+00 
12400 6.8916121724e+00 -2.9765890650e-02 1.6891210046e+00 -2.9256434002e+00 1.6891210046e+00 2.9256434002e+00 
12500 6.8913978118e+00 -2.9099185955e-02 1.6900021871e+00 -2.9271696530e+00 1.6900021871e+00 2.9271696530e+00 
12600 6.8912009964e+00 -2.8423682856e-02 1.6908631817e+00 -2.9286609394e+00 1.6908631817e+00 2.9286609394e+00 
12700 6.8910212079e+00 -2.7740108868e-02 1.6917037594e+00 -2.9301168627e+00 1.6917037594e+00 2.9301168627e+00 
12800 6.8908579121e+00 -2.7049191638e-02 1.6925237123e+00 -2.9315370628e+00 1.6925237123e+00 2.9315370628e+00 
12900 6.8907105606e+00 -2.6351658204e-02 1.6933228538e+00 -2.9329212165e+00 1.6933228538e+00 2.9329212165e+00 
13000 6.8905785919e+00 -2.5648234256e-02 1.6941010184e+00 -2.9342690369e+00 1.6941010184e+00 2.9342690369e+00 
13100 6.8904614332e+00 -2.4939643387e-02 1.6948580613e+00 -2.9355802737e+00 1.6948580613e+00 2.9355802737e+00 
13200 6.8903585020e+00 -2.4226606350e-02 1.6955938588e+00 -2.9368547124e+00 1.6955938588e+00 2.9368547124e+00 
13300 6.8902692072e+00 -2.3509840314e-02 1.6963083078e+00 -2.9380921744e+00 1.6963083078e+00 2.9380921744e+00 
13400 6.8901929511e+00 -2.2790058119e-02 1.6970013257e+00 -2.9392925166e+00 1.6970013257e+00 2.9392925166e+00 
13500 6.8901291307e+00 -2.2067967531e-02 1.6976728502e+00 -2.9404556312e+00 1.6976728502e+00 2.9404556312e+00 
13600 6.8900771392e+00 -2.1344270508e-02 1.6983228393e+00 -2.9415814453e+00 1.6983228393e+00 2.9415814453e+00 
13700 6.8900363676e+00 -2.0619662461e-02 1.6989512706e+00 -2.9426699203e+00 1.6989512706e+00 2.9426699203e+00 
13800 6.8900062062e+00 -1.9894831530e-02 1.6995581417e+00 -2.9437210519e+00 1.6995581417e+00 2.9437210519e+00 
13900 6.8899860461e+00 -1.9170457855e-02 1.7001434696e+00 -2.9447348694e+00 1.7001434696e+00 2.9447348694e+00 
14000 6.8899752804e+00 -1.8447212869e-02 1.7007072901e+00 -2.9457114353e+00 1.7007072901e+00 2.9457114353e+00 
14100 6.8899733060e+00 -1.7725758587e-02 1.7012496584e+00 -2.9466508447e+00 1.7012496584e+00 2.9466508447e+00 
14200 6.8899795245e+00 -1.7006746911e-02 1.7017706478e+00 -2.9475532249e+00 1.7017706478e+00 2.9475532249e+00 
14300 6.8899933441e+00 -1.6290818952e-02 1.7022703503e+00 -2.9484187349e+00 1.7022703503e+00 2.9484187349e+00 
14400 6.8900141804e+00 -1.5578604351e-02 1.7027488754e+00 -2.9492475647e+00 1.7027488754e+00 2.9492475647e+00 
14500 6.8900414579e+00 -1.4870720630e-02 1.7032063504e+00 -2.9500399347e+00 1.7032063504e+00 2.9500399347e+00 
14600 6.8900746110e+00 -1.4167772546e-02 1.7036429198e+00 -2.9507960951e+00 1.7036429198e+00 2.9507960951e+00 
14700 6.8901130855e+00 -1.3470351467e-02 1.7040587449e+00 -2.9515163252e+00 1.7040587449e+00 2.9515163252e+00 
14800 6.8901563391e+00 -1.2779034769e-02 1.7044540033e+00 -2.9522009329e+00 1.7044540033e+00 2.9522009329e+00 
14900 6.8902038430e+00 -1.2094385244e-02 1.7048288889e+00 -2.9528502537e+00 1.7048288889e+00 2.9528502537e+00 
15000 6.8902550824e+00 -1.1416950535e-02 1.7051836108e+00 -2.9534646502e+00 1.7051836108e+00 2.9534646502e+00 
15100 6.8903095578e+00 -1.0747262592e-02 1.7055183937e+00 -2.9540445111e+00 1.7055183937e+00 2.9540445111e+00 
15200 6.8903667854e+00 -1.0085837150e-02 1.7058334766e+00 -2.9545902506e+00 1.7058334766e+00 2.9545902506e+00 
15300 6.8904262982e+00 -9.4331732271e-03 1.7061291129e+00 -2.9551023079e+00 1.7061291129e+00 2.9551023079e+00 
15400 6.8904876464e+00 -8.7897526581e-03 1.7064055700e+00 -2.9555811455e+00 1.7064055700e+00 2.9555811455e+00 
15500 6.8905503985e+00 -8.1560396436e-03 1.7066631281e+00 -2.9560272493e+00 1.7066631281e+00 2.9560272493e+00 
15600 6.8906141412e+00 -7.5324803333e-03 1.7069020807e+00 -2.9564411273e+00 1.7069020807e+00 2.9564411273e+00 
15700 6.8906784803e+00 -6.9195024354e-03 1.7071227331e+00 -2.9568233085e+00 1.7071227331e+00 2.9568233085e+00 
15800 6.8907430412e+00 -6.3175148563e-03 1.7073254028e+00 -2.9571743427e+00 1.7073254028e+00 2.9571743427e+00 
15900 6.8908074689e+00 -5.7269073705e-03 1.7075104181e+00 -2.9574947987e+00 1.7075104181e+00 2.9574947987e+00 
16000 6.8908714283e+00 -5.1480503209e-03 1.7076781185e+00 -2.9577852642e+00 1.7076781185e+00 2.9577852642e+00 
16100 6.8909346050e+00 -4.5812943525e-03 1.7078288531e+00 -2.9580463443e+00 1.7078288531e+00 2.9580463443e+00 
16200 6.8909967044e+00 -4.0269701779e-03 1.7079629812e+00 -2.9582786608e+00 1.7079629812e+00 2.9582786608e+00 
16300 6.8910574528e+00 -3.4853883759e-03 1.7080808706e+00 -2.9584828514e+00 1.7080808706e+00 2.9584828514e+00 
16400 6.8911165968e+00 -2.9568392245e-03 1.7081828981e+00 -2.9586595681e+00 1.7081828981e+00 2.9586595681e+00 
16500 6.8911739034e+00 -2.4415925676e-03 1.7082694481e+00 -2.9588094771e+00 1.7082694481e+00 2.9588094771e+00 
16600 6.8912291598e+00 -1.9398977160e-03 1.7083409125e+00 -2.9589332571e+00 1.7083409125e+00 2.9589332571e+00 
16700 6.8912821734e+00 -1.4519833842e-03 1.7083976900e+00 -2.9590315987e+00 1.7083976900e+00 2.9590315987e+00 
16800 6.8913327714e+00 -9.7805766056e-04 1.7084401857e+00 -2.9591052033e+00 1.7084401857e+00 2.9591052033e+00 
16900 6.8913808006e+00 -5.1830801331e-04 1.7084688101e+00 -2.9591547822e+00 1.7084688101e+00 2.9591547822e+00 
17000 6.8914261269e+00 -7.2901331161e-05 1.7084839789e+00 -2.9591810553e+00 1.7084839789e+00 2.9591810553e+00 
17100 6.8914686353e+00 3.5801600165e-04 1.7084861124e+00 -2.9591847507e+00 1.7084861124e+00 2.9591847507e+00 
17200 6.8915082288e+00 7.7431799590e-04 1.7084756348e+00 -2.9591666030e+00 1.7084756348e+00 2.9591666030e+00 
17300 6.8915448285e+00 1.1758989140e-03 1.7084529738e+00 -2.9591273529e+00 1.7084529738e+00 2.9591273529e+00 
17400 6.8915783729e+00 1.5626730933e-03 1.7084185598e+00 -2.9590677461e+00 1.7084185598e+00 2.9590677461e+00 
17500 6.8916088172e+00 1.9345747362e-03 1.7083728255e+00 -2.9589885320e+00 1.7083728255e+00 2.9589885320e+00 
17600 6.8916361328e+00 2.2915576687e-03 1.7083162054e+00 -2.9588904631e+00 1.7083162054e+00 2.9588904631e+00 
17700 6.8916603066e+00 2.6335950674e-03 1.7082491352e+00 -2.9587742941e+00 1.7082491352e+00 2.9587742941e+00 
17800 6.8916813404e+00 2.9606791554e-03 1.7081720511e+00 -2.9586407806e+00 1.7081720511e+00 2.9586407806e+00 
17900 6.8916992503e+00 3.2728208698e-03 1.7080853897e+00 -2.9584906786e+00 1.7080853897e+00 2.9584906786e+00 
18000 6.8917140656e+00 3.5700495004e-03 1.7079895868e+00 -2.9583247431e+00 1.7079895868e+00 2.9583247431e+00 
18100 6.8917258287e+00 3.8524123004e-03 1.7078850776e+00 -2.9581437278e+00 1.7078850776e+00 2.9581437278e+00 
18200 6.8917345937e+00 4.1199740722e-03 1.7077722957e+00 -2.9579483839e+00 1.7077722957e+00 2.9579483839e+00 
18300 6.8917404260e+00 4.3728167276e-03 1.7076516729e+00 -2.9577394590e+00 1.7076516729e+00 2.9577394590e+00 
18400 6.8917434015e+00 4.6110388252e-03 1.7075236385e+00 -2.9575176970e+00 1.7075236385e+00 2.9575176970e+00 
18500 6.8917436056e+00 4.8347550851e-03 1.7073886190e+00 -2.9572838365e+00 1.7073886190e+00 2.9572838365e+00 
18600 6.8917411329e+00 5.0440958838e-03 1.7072470377e+00 -2.9570386103e+00 1.7072470377e+00 2.9570386103e+00 
18700 6.8917360858e+00 5.2392067297e-03 1.7070993138e+00 -2.9567827451e+00 1.7070993138e+00 2.9567827451e+00 
18800 6.8917285741e+00 5.4202477213e-03 1.7069458626e+00 -2.9565169598e+00 1.7069458626e+00 2.9565169598e+00 
18900 6.8917187142e+00 5.5873929891e-03 1.7067870947e+00 -2.9562419658e+00 1.7067870947e+00 2.9562419658e+00 
19000 6.8917066282e+00 5.7408301238e-03 1.7066234157e+00 -2.9559584655e+00 1.7066234157e+00 2.9559584655e+00 
19100 6.8916924433e+00 5.8807595917e-03 1.7064552259e+00 -2.9556671520e+00 1.7064552259e+00 2.9556671520e+00 
19200 6.8916762908e+00 6.0073941387e-03 1.7062829195e+00 -2.9553687087e+00 1.7062829195e+00 2.9553687087e+00 
19300 6.8916583057e+00 6.1209581852e-03 1.7061068851e+00 -2.9550638081e+00 1.7061068851e+00 2.9550638081e+00 
19400 6.8916386258e+00 6.2216872137e-03 1.7059275045e+00 -2.9547531118e+00 1.7059275045e+00 2.9547531118e+00 
19500 6.8916173909e+00 6.3098271490e-03 1.7057451527e+00 -2.9544372693e+00 1.7057451527e+00 2.9544372693e+00 
19600 6.8915947422e+00 6.3856337356e-03 1.7055601980e+00 -2.9541169183e+00 1.7055601980e+00 2.9541169183e+00 
19700 6.8915708220e+00 6.4493719108e-03 1.7053730009e+00 -2.9537926835e+00 1.7053730009e+00 2.9537926835e+00 
19800 6.8915457726e+00 6.5013151769e-03 1.7051839147e+00 -2.9534651765e+00 1.7051839147e+00 2.9534651765e+00 
19900 6.8915197357e+00 6.5417449738e-03 1.7049932844e+00 -2.9531349951e+00 1.7049932844e+00 2.9531349951e+00 
20000 6.8914928522e+00 6.5709500528e-03 1.7048014472e+00 -2.9528027234e+00 1.7048014472e+00 2.9528027234e+00 
20100 6.8914652615e+00 6.5892258539e-03 1.7046087319e+00 -2.9524689307e+00 1.7046087319e+00 2.9524689307e+00 
20200 6.8914371007e+00 6.5968738872e-03 1.7044154588e+00 -2.9521341718e+00 1.7044154588e+00 2.9521341718e+00 
20300 6.8914085046e+00 6.5942011205e-03 1.7042219394e+00 -2.9517989864e+00 1.7042219394e+00 2.9517989864e+00 
20400 6.8913796049e+00 6.5815193733e-03 1.7040284764e+00 -2.9514638987e+00 1.7040284764e+00 2.9514638987e+00 
20500 6.8913505299e+00 6.5591447203e-03 1.7038353636e+00 -2.9511294175e+00 1.7038353636e+00 2.9511294175e+00 
20600 6.8913214039e+00 6.5273969029e-03 1.7036428855e+00 -2.9507960356e+00 1.7036428855e+00 2.9507960356e+00 
20700 6.8912923473e+00 6.4865987524e-03 1.7034513173e+00 -2.9504642298e+00 1.7034513173e+00 2.9504642298e+00 
20800 6.8912634760e+00 6.4370756241e-03 1.7032609251e+00 -2.9501344608e+00 1.7032609251e+00 2.9501344608e+00 
20900 6.8912349007e+00 6.3791548445e-03 1.7030719653e+00 -2.9498071728e+00 1.7030719653e+00 2.9498071728e+00 
21000 6.8912067276e+00 6.3131651713e-03 1.7028846849e+00 -2.9494827937e+00 1.7028846849e+00 2.9494827937e+00 
21100 6.8911790573e+00 6.2394362679e-03 1.7026993215e+00 -2.9491617349e+00 1.7026993215e+00 2.9491617349e+00 
21200 6.8911519849e+00 6.1582981930e-03 1.7025161029e+00 -2.9488443909e+00 1.7025161029e+00 2.9488443909e+00 
21300 6.8911255999e+00 6.0700809054e-03 1.7023352474e+00 -2.9485311399e+00 1.7023352474e+00 2.9485311399e+00 
21400 6.8910999860e+00 5.9751137854e-03 1.7021569636e+00 -2.9482223434e+00 1.7021569636e+00 2.9482223434e+00 
21500 6.8910752212e+00 5.8737251727e-03 1.7019814507e+00 -2.9479183461e+00 1.7019814507e+00 2.9479183461e+00 
21600 6.8910513771e+00 5.7662419216e-03 1.7018088981e+00 -2.9476194762e+00 1.7018088981e+00 2.9476194762e+00 
21700 6.8910285195e+00 5.6529889734e-03 1.7016394858e+00 -2.9473260456e+00 1.7016394858e+00 2.9473260456e+00 
21800 6.8910067083e+00 5.5342889471e-03 1.7014733843e+00 -2.9470383494e+00 1.7014733843e+00 2.9470383494e+00 
21900 6.8909859969e+00 5.4104617481e-03 1.7013107547e+00 -2.9467566665e+00 1.7013107547e+00 2.9467566665e+00 
22000 6.8909664331e+00 5.2818241949e-03 1.7011517485e+00 -2.9464812598e+00 1.7011517485e+00 2.9464812598e+00 
22100 6.8909480585e+00 5.1486896645e-03 1.7009965083e+00 -2.9462123758e+00 1.7009965083e+00 2.9462123758e+00 
22200 6.8909309087e+00 5.0113677560e-03 1.7008451672e+00 -2.9459502454e+00 1.7008451672e+00 2.9459502454e+00 
22300 6.8909150136e+00 4.8701639728e-03 1.7006978494e+00 -2.9456950835e+00 1.7006978494e+00 2.9456950835e+00 
22400 6.8909003972e+00 4.7253794237e-03 1.7005546701e+00 -2.9454470896e+00 1.7005546701e+00 2.9454470896e+00 
22500 6.8908870782e+00 4.5773105409e-03 1.7004157355e+00 -2.9452064479e+00 1.7004157355e+00 2.9452064479e+00 
22600 6.8908750695e+00 4.4262488181e-03 1.7002811434e+00 -2.9449733276e+00 1.7002811434e+00 2.9449733276e+00 
22700 6.8908643790e+00 4.2724805648e-03 1.7001509828e+00 -2.9447478828e+00 1.7001509828e+00 2.9447478828e+00 
22800 6.8908550092e+00 4.1162866793e-03 1.7000253343e+00 -2.9445302532e+00 1.7000253343e+00 2.9445302532e+00 
22900 6.8908469579e+00 3.9579424392e-03 1.6999042703e+00 -2.9443205642e+00 1.6999042703e+00 2.9443205642e+00 
23000 6.8908402180e+00 3.7977173083e-03 1.6997878550e+00 -2.9441189270e+00 1.6997878550e+00 2.9441189270e+00 
23100 6.8908347780e+00 3.6358747613e-03 1.6996761448e+00 -2.9439254391e+00 1.6996761448e+00 2.9439254391e+00 
23200 6.8908306220e+00 3.4726721240e-03 1.6995691880e+00 -2.9437401846e+00 1.6995691880e+00 2.9437401846e+00 
23300 6.8908277300e+00 3.3083604300e-03 1.6994670257e+00 -2.9435632343e+00 1.6994670257e+00 2.9435632343e+00 
23400 6.8908260784e+00 3.1431842931e-03 1.6993696914e+00 -2.9433946464e+00 1.6993696914e+00 2.9433946464e+00 
23500 6.8908256396e+00 2.9773817946e-03 1.6992772114e+00 -2.9432344662e+00 1.6992772114e+00 2.9432344662e+00 
23600 6.8908263830e+00 2.8111843854e-03 1.6991896048e+00 -2.9430827272e+00 1.6991896048e+00 2.9430827272e+00 
23700 6.8908282746e+00 2.6448168024e-03 1.6991068842e+00 -2.9429394509e+00 1.6991068842e+00 2.9429394509e+00 
23800 6.8908312778e+00 2.4784969984e-03 1.6990290551e+00 -2.9428046470e+00 1.6990290551e+00 2.9428046470e+00 
23900 6.8908353530e+00 2.3124360856e-03 1.6989561170e+00 -2.9426783145e+00 1.6989561170e+00 2.9426783145e+00 
24000 6.8908404587e+00 2.1468382914e-03 1.6988880629e+00 -2.9425604413e+00 1.6988880629e+00 2.9425604413e+00 
24100 6.8908465509e+00 1.9819009269e-03 1.6988248796e+00 -2.9424510047e+00 1.6988248796e+00 2.9424510047e+00 
24200 6.8908535838e+00 1.8178143666e-03 1.6987665484e+00 -2.9423499721e+00 1.6987665484e+00 2.9423499721e+00 
24300 6.8908615101e+00 1.6547620395e-03 1.6987130448e+00 -2.9422573010e+00 1.6987130448e+00 2.9422573010e+00 
24400 6.8908702810e+00 1.4929204314e-03 1.6986643387e+00 -2.9421729396e+00 1.6986643387e+00 2.9421729396e+00 
24500 6.8908798464e+00 1.3324590962e-03 1.6986203949e+00 -2.9420968267e+00 1.6986203949e+00 2.9420968267e+00 
24600 6.8908901556e+00 1.1735406777e-03 1.6985811733e+00 -2.9420288929e+00 1.6985811733e+00 2.9420288929e+00 
24700 6.8909011568e+00 1.0163209407e-03 1.6985466286e+00 -2.9419690598e+00 1.6985466286e+00 2.9419690598e+00 
24800 6.8909127979e+00 8.6094880972e-04 1.6985167114e+00 -2.9419172416e+00 1.6985167114e+00 2.9419172416e+00 
24900 6.8909250265e+00 7.0756641709e-04 1.6984913673e+00 -2.9418733443e+00 1.6984913673e+00 2.9418733443e+00 
25000 6.8909377901e+00 5.5630915783e-04 1.6984705381e+00 -2.9418372671e+00 1.6984705381e+00 2.9418372671e+00 
25100 6.8909510362e+00 4.0730575215e-04 1.6984541613e+00 -2.9418089017e+00 1.6984541613e+00 2.9418089017e+00 
25200 6.8909647128e+00 2.6067831455e-04 1.6984421709e+00 -2.9417881336e+00 1.6984421709e+00 2.9417881336e+00 
25300 6.8909787682e+00 1.1654242922e-04 1.6984344968e+00 -2.9417748418e+00 1.6984344968e+00 2.9417748418e+00 
25400 6.8909931512e+00 -2.4992768682e-05 1.6984310659e+00 -2.9417688994e+00 1.6984310659e+00 2.9417688994e+00 
25500 6.8910078120e+00 -1.6482779417e-04 1.6984310659e+00 -2.9417688994e+00 1.6984310659e+00 2.9417688994e+00 
25600 6.8910227008e+00 -3.0082567544e-04 1.6984359183e+00 -2.9417773039e+00 1.6984359183e+00 2.9417773039e+00 
25700 6.8910377695e+00 -4.3393452513e-04 1.6984447743e+00 -2.9417926429e+00 1.6984447743e+00 2.9417926429e+00 
25800 6.8910529710e+00 -5.6407002977e-04 1.6984575487e+00 -2.9418147689e+00 1.6984575487e+00 2.9418147689e+00 
25900 6.8910682595e+00 -6.9115384810e-04 1.6984741541e+00 -2.9418435303e+00 1.6984741541e+00 2.9418435303e+00 
26000 6.8910835907e+00 -8.1511350304e-04 1.6984945005e+00 -2.9418787712e+00 1.6984945005e+00 2.9418787712e+00 
26100 6.8910989219e+00 -9.3588227032e-04 1.6985184957e+00 -2.9419203322e+00 1.6985184957e+00 2.9419203322e+00 
26200 6.8911142118e+00 -1.0533990645e-03 1.6985460458e+00 -2.9419680502e+00 1.6985460458e+00 2.9419680502e+00 
26300 6.8911294211e+00 -1.1676083221e-03 1.6985770547e+00 -2.9420217593e+00 1.6985770547e+00 2.9420217593e+00 
26400 6.8911445118e+00 -1.2784598829e-03 1.6986114250e+00 -2.9420812904e+00 1.6986114250e+00 2.9420812904e+00 
26500 6.8911594483e+00 -1.3859088693e-03 1.6986490576e+00 -2.9421464721e+00 1.6986490576e+00 2.9421464721e+00 
26600 6.8911741964e+00 -1.4899155631e-03 1.6986898523e+00 -2.9422171304e+00 1.6986898523e+00 2.9422171304e+00 
26700 6.8911887241e+00 -1.5904452824e-03 1.6987337073e+00 -2.9422930895e+00 1.6987337073e+00 2.9422930895e+00 
26800 6.8912030013e+00 -1.6874682558e-03 1.6987805202e+00 -2.9423741718e+00 1.6987805202e+00 2.9423741718e+00 
26900 6.8912169997e+00 -1.7809594968e-03 1.6988301875e+00 -2.9424601981e+00 1.6988301875e+00 2.9424601981e+00 
27000 6.8912306933e+00 -1.8708986767e-03 1.6988826050e+00 -2.9425509879e+00 1.6988826050e+00 2.9425509879e+00 
27100 6.8912440578e+00 -1.9572699971e-03 1.6989376679e+00 -2.9426463597e+00 1.6989376679e+00 2.9426463597e+00 
27200 6.8912570711e+00 -2.0400620628e-03 1.6989952710e+00 -2.9427461311e+00 1.6989952710e+00 2.9427461311e+00 
27300 6.8912697131e+00 -2.1192677532e-03 1.6990553086e+00 -2.9428501194e+00 1.6990553086e+00 2.9428501194e+00 
27400 6.8912819657e+00 -2.1948840951e-03 1.6991176751e+00 -2.9429581413e+00 1.6991176751e+00 2.9429581413e+00 
27500 6.8912938126e+00 -2.2669121347e-03 1.6991822644e+00 -2.9430700133e+00 1.6991822644e+00 2.9430700133e+00 
27600 6.8913052395e+00 -2.3353568104e-03 1.6992489708e+00 -2.9431855522e+00 1.6992489708e+00 2.9431855522e+00 
27700 6.8913162343e+00 -2.4002268257e-03 1.6993176886e+00 -2.9433045749e+00 1.6993176886e+00 2.9433045749e+00 
27800 6.8913267864e+00 -2.4615345233e-03 1.6993883124e+00 -2.9434268988e+00 1.6993883124e+00 2.9434268988e+00 
27900 6.8913368873e+00 -2.5192957592e-03 1.6994607370e+00 -2.9435523420e+00 1.6994607370e+00 2.9435523420e+00 
28000 6.8913465300e+00 -2.5735297784e-03 1.6995348580e+00 -2.9436807233e+00 1.6995348580e+00 2.9436807233e+00 
28100 6.8913557096e+00 -2.6242590904e-03 1.6996105713e+00 -2.9438118626e+00 1.6996105713e+00 2.9438118626e+00 
28200 6.8913644227e+00 -2.6715093472e-03 1.6996877737e+00 -2.9439455810e+00 1.6996877737e+00 2.9439455810e+00 
28300 6.8913726674e+00 -2.7153092211e-03 1.6997663625e+00 -2.9440817009e+00 1.6997663625e+00 2.9440817009e+00 
28400 6.8913804436e+00 -2.7556902845e-03 1.6998462362e+00 -2.9442200461e+00 1.6998462362e+00 2.9442200461e+00 
28500 6.8913877526e+00 -2.7926868907e-03 1.6999272939e+00 -2.9443604421e+00 1.6999272939e+00 2.9443604421e+00 
28600 6.8913945971e+00 -2.8263360561e-03 1.7000094359e+00 -2.9445027163e+00 1.7000094359e+00 2.9445027163e+00 
28700 6.8914009812e+00 -2.8566773436e-03 1.7000925636e+00 -2.9446466978e+00 1.7000925636e+00 2.9446466978e+00 
28800 6.8914069103e+00 -2.8837527478e-03 1.7001765797e+00 -2.9447922178e+00 1.7001765797e+00 2.9447922178e+00 
28900 6.8914123910e+00 -2.9076065815e-03 1.7002613878e+00 -2.9449391098e+00 1.7002613878e+00 2.9449391098e+00 
29000 6.8914174311e+00 -2.9282853640e-03 1.7003468932e+00 -2.9450872096e+00 1.7003468932e+00 2.9450872096e+00 
29100 6.8914220393e+00 -2.9458377105e-03 1.7004330024e+00 -2.9452363551e+00 1.7004330024e+00 2.9452363551e+00 
29200 6.8914262256e+00 -2.9603142237e-03 1.7005196234e+00 -2.9453863870e+00 1.7005196234e+00 2.9453863870e+00 
29300 6.8914300007e+00 -2.9717673868e-03 1.7006066656e+00 -2.9455371485e+00 1.7006066656e+00 2.9455371485e+00 
29400 6.8914333762e+00 -2.9802514582e-03 1.7006940401e+00 -2.9456884855e+00 1.7006940401e+00 2.9456884855e+00 
29500 6.8914363644e+00 -2.9858223681e-03 1.7007816595e+00 -2.9458402469e+00 1.7007816595e+00 2.9458402469e+00 
29600 6.8914389784e+00 -2.9885376166e-03 1.7008694382e+00 -2.9459922840e+00 1.7008694382e+00 2.9459922840e+00 
29700 6.8914412319e+00 -2.9884561738e-03 1.7009572922e+00 -2.9461444516e+00 1.7009572922e+00 2.9461444516e+00 
29800 6.8914431392e+00 -2.9856383817e-03 1.7010451393e+00 -2.9462966072e+00 1.7010451393e+00 2.9462966072e+00 
29900 6.8914447150e+00 -2.9801458576e-03 1.7011328990e+00 -2.9464486114e+00 1.7011328990e+00 2.9464486114e+00 
30000 6.8914459743e+00 -2.9720413997e-03 1.7012204927e+00 -2.9466003282e+00 1.7012204927e+00 2.9466003282e+00 
30100 6.8914469327e+00 -2.9613888944e-03 1.7013078437e+00 -2.9467516246e+00 1.7013078437e+00 2.9467516246e+00 
30200 6.8914476060e+00 -2.9482532253e-03 1.7013948772e+00 -2.9469023710e+00 1.7013948772e+00 2.9469023710e+00 
30300 6.8914480100e+00 -2.9327001841e-03 1.7014815201e+00 -2.9470524410e+00 1.7014815201e+00 2.9470524410e+00 
30400 6.8914481608e+00 -2.9147963837e-03 1.7015677016e+00 -2.9472017118e+00 1.7015677016e+00 2.9472017118e+00 
30500 6.8914480748e+00 -2.8946091723e-03 1.7016533527e+00 -2.9473500637e+00 1.7016533527e+00 2.9473500637e+00 
30600 6.8914477679e+00 -2.8722065505e-03 1.7017384062e+00 -2.9474973808e+00 1.7017384062e+00 2.9474973808e+00 
30700 6.8914472565e+00 -2.8476570892e-03 1.7018227973e+00 -2.9476435504e+00 1.7018227973e+00 2.9476435504e+00 
30800 6.8914465567e+00 -2.8210298500e-03 1.7019064629e+00 -2.9477884635e+00 1.7019064629e+00 2.9477884635e+00 
30900 6.8914456843e+00 -2.7923943069e-03 1.7019893421e+00 -2.9479320144e+00 1.7019893421e+00 2.9479320144e+00 
31000 6.8914446552e+00 -2.7618202709e-03 1.7020713760e+00 -2.9480741013e+00 1.7020713760e+00 2.9480741013e+00 
31100 6.8914434850e+00 -2.7293778147e-03 1.7021525078e+00 -2.9482146257e+00 1.7021525078e+00 2.9482146257e+00 
31200 6.8914421888e+00 -2.6951372011e-03 1.7022326827e+00 -2.9483534928e+00 1.7022326827e+00 2.9483534928e+00 
31300 6.8914407818e+00 -2.6591688120e-03 1.7023118481e+00 -2.9484906113e+00 1.7023118481e+00 2.9484906113e+00 
31400 6.8914392784e+00 -2.6215430792e-03 1.7023899533e+00 -2.9486258935e+00 1.7023899533e+00 2.9486258935e+00 
31500 6.8914376930e+00 -2.5823304183e-03 1.7024669499e+00 -2.9487592554e+00 1.7024669499e+00 2.9487592554e+00 
31600 6.8914360394e+00 -2.5416011625e-03 1.7025427913e+00 -2.9488906166e+00 1.7025427913e+00 2.9488906166e+00 
31700 6.8914343310e+00 -2.4994254998e-03 1.7026174332e+00 -2.9490199001e+00 1.7026174332e+00 2.9490199001e+00 
31800 6.8914325806e+00 -2.4558734110e-03 1.7026908332e+00 -2.9491470327e+00 1.7026908332e+00 2.9491470327e+00 
31900 6.8914308007e+00 -2.4110146102e-03 1.7027629511e+00 -2.9492719446e+00 1.7027629511e+00 2.9492719446e+00 
32000 6.8914290033e+00 -2.3649184861e-03 1.7028337487e+00 -2.9493945697e+00 1.7028337487e+00 2.9493945697e+00 
32100 6.8914271996e+00 -2.3176540464e-03 1.7029031899e+00 -2.9495148453e+00 1.7029031899e+00 2.9495148453e+00 
32200 6.8914254005e+00 -2.2692898625e-03 1.7029712404e+00 -2.9496327122e+00 1.7029712404e+00 2.9496327122e+00 
32300 6.8914236163e+00 -2.2198940170e-03 1.7030378682e+00 -2.9497481150e+00 1.7030378682e+00 2.9497481150e+00 
32400 6.8914218567e+00 -2.1695340525e-03 1.7031030432e+00 -2.9498610013e+00 1.7031030432e+00 2.9498610013e+00 
32500 6.8914201307e+00 -2.1182769218e-03 1.7031667371e+00 -2.9499713225e+00 1.7031667371e+00 2.9499713225e+00 
32600 6.8914184470e+00 -2.0661889409e-03 1.7032289239e+00 -2.9500790332e+00 1.7032289239e+00 2.9500790332e+00 
32700 6.8914168135e+00 -2.0133357420e-03 1.7032895794e+00 -2.9501840915e+00 1.7032895794e+00 2.9501840915e+00 
32800 6.8914152375e+00 -1.9597822299e-03 1.7033486811e+00 -2.9502864587e+00 1.7033486811e+00 2.9502864587e+00 
32900 6.8914137258e+00 -1.9055925389e-03 1.7034062088e+00 -2.9503860995e+00 1.7034062088e+00 2.9503860995e+00 
33000 6.8914122845e+00 -1.8508299917e-03 1.7034621438e+00 -2.9504829819e+00 1.7034621438e+00 2.9504829819e+00 
33100 6.8914109194e+00 -1.7955570602e-03 1.7035164697e+00 -2.9505770770e+00 1.7035164697e+00 2.9505770770e+00 
33200 6.8914096353e+00 -1.7398353275e-03 1.7035691714e+00 -2.9506683591e+00 1.7035691714e+00 2.9506683591e+00 
33300 6.8914084369e+00 -1.6837254520e-03 1.7036202361e+00 -2.9507568057e+00 1.7036202361e+00 2.9507568057e+00 
33400 6.8914073278e+00 -1.6272871325e-03 1.7036696524e+00 -2.9508423973e+00 1.7036696524e+00 2.9508423973e+00 
33500 6.8914063116e+00 -1.5705790754e-03 1.7037174109e+00 -2.9509251175e+00 1.7037174109e+00 2.9509251175e+00 
33600 6.8914053911e+00 -1.5136589634e-03 1.7037635039e+00 -2.9510049528e+00 1.7037635039e+00 2.9510049528e+00 
33700 6.8914045685e+00 -1.4565834253e-03 1.7038079251e+00 -2.9510818926e+00 1.7038079251e+00 2.9510818926e+00 
33800 6.8914038456e+00 -1.3994080083e-03 1.7038506702e+00 -2.9511559293e+00 1.7038506702e+00 2.9511559293e+00 
33900 6.8914032239e+00 -1.3421871507e-03 1.7038917364e+00 -2.9512270581e+00 1.7038917364e+00 2.9512270581e+00 
34000 6.8914027040e+00 -1.2849741572e-03 1.7039311225e+00 -2.9512952768e+00 1.7039311225e+00 2.9512952768e+00 
34100 6.8914022864e+00 -1.2278211749e-03 1.7039688288e+00 -2.9513605860e+00 1.7039688288e+00 2.9513605860e+00 
34200 6.8914019710e+00 -1.1707791710e-03 1.7040048572e+00 -2.9514229890e+00 1.7040048572e+00 2.9514229890e+00 
34300 6.8914017575e+00 -1.1138979125e-03 1.7040392111e+00 -2.9514824917e+00 1.7040392111e+00 2.9514824917e+00 
34400 6.8914016449e+00 -1.0572259467e-03 1.7040718952e+00 -2.9515391023e+00 1.7040718952e+00 2.9515391023e+00 
34500 6.8914016320e+00 -1.0008105834e-03 1.7041029159e+00 -2.9515928317e+00 1.7041029159e+00 2.9515928317e+00 
34600 6.8914017172e+00 -9.4469787878e-04 1.7041322807e+00 -2.9516436930e+00 1.7041322807e+00 2.9516436930e+00 
34700 6.8914018987e+00 -8.8893262015e-04 1.7041599986e+00 -2.9516917019e+00 1.7041599986e+00 2.9516917019e+00 
34800 6.8914021741e+00 -8.3355831277e-04 1.7041860800e+00 -2.9517368761e+00 1.7041860800e+00 2.9517368761e+00 
34900 6.8914025411e+00 -7.7861716757e-04 1.7042105362e+00 -2.9517792355e+00 1.7042105362e+00 2.9517792355e+00 
35000 6.8914029969e+00 -7.2415009044e-04 1.7042333802e+00 -2.9518188025e+00 1.7042333802e+00 2.9518188025e+00 
35100 6.8914035383e+00 -6.7019667284e-04 1.7042546259e+00 -2.9518556011e+00 1.7042546259e+00 2.9518556011e+00 
35200 6.8914041622e+00 -6.1679518380e-04 1.7042742884e+00 -2.9518896575e+00 1.7042742884e+00 2.9518896575e+00 
35300 6.8914048652e+00 -5.6398256313e-04 1.7042923839e+00 -2.9519209999e+00 1.7042923839e+00 2.9519209999e+00 
35400 6.8914056436e+00 -5.1179441607e-04 1.7043089299e+00 -2.9519496584e+00 1.7043089299e+00 2.9519496584e+00 
35500 6.8914064937e+00 -4.6026500909e-04 1.7043239447e+00 -2.9519756647e+00 1.7043239447e+00 2.9519756647e+00 
35600 6.8914074116e+00 -4.0942726708e-04 1.7043374475e+00 -2.9519990524e+00 1.7043374475e+00 2.9519990524e+00 
35700 6.8914083932e+00 -3.5931277164e-04 1.7043494589e+00 -2.9520198566e+00 1.7043494589e+00 2.9520198566e+00 
35800 6.8914094343e+00 -3.0995176074e-04 1.7043599999e+00 -2.9520381143e+00 1.7043599999e+00 2.9520381143e+00 
35900 6.8914105309e+00 -2.6137312950e-04 1.7043690929e+00 -2.9520538637e+00 1.7043690929e+00 2.9520538637e+00 
36000 6.8914116786e+00 -2.1360443210e-04 1.7043767606e+00 -2.9520671446e+00 1.7043767606e+00 2.9520671446e+00 
36100 6.8914128732e+00 -1.6667188499e-04 1.7043830270e+00 -2.9520779982e+00 1.7043830270e+00 2.9520779982e+00 
36200 6.8914141103e+00 -1.2060037110e-04 1.7043879165e+00 -2.9520864671e+00 1.7043879165e+00 2.9520864671e+00 
36300 6.8914153856e+00 -7.5413445219e-05 1.7043914544e+00 -2.9520925950e+00 1.7043914544e+00 2.9520925950e+00 
36400 6.8914166947e+00 -3.1133340457e-05 1.7043936667e+00 -2.9520964269e+00 1.7043936667e+00 2.9520964269e+00 
36500 6.8914180334e+00 1.0984411016e-05 1.7043936667e+00 -2.9520964269e+00 1.7043936667e+00 2.9520964269e+00 
36600 6.8914193974e+00 5.3865853211e-05 1.7043936667e+00 -2.9520964269e+00 1.7043936667e+00 2.9520964269e+00 
36700 6.8914207827e+00 9.7466387783e-05 1.7043936667e+00 -2.9520964269e+00 1.7043936667e+00 2.9520964269e+00 
36800 6.8914221850e+00 1.3787643653e-04 1.7043908075e+00 -2.9520914745e+00 1.7043908075e+00 2.9520914745e+00 
36900 6.8914236001e+00 1.7728974768e-04 1.7043867627e+00 -2.9520844688e+00 1.7043867627e+00 2.9520844688e+00 
37000 6.8914250242e+00 2.1569174291e-04 1.7043815617e+00 -2.9520754604e+00 1.7043815617e+00 2.9520754604e+00 
37100 6.8914264535e+00 2.5306909627e-04 1.7043752342e+00 -2.9520645008e+00 1.7043752342e+00 2.9520645008e+00 
37200 6.8914278840e+00 2.8940971970e-04 1.7043678101e+00 -2.9520516419e+00 1.7043678101e+00 2.9520516419e+00 
37300 6.8914293124e+00 3.2470274783e-04 1.7043593199e+00 -2.9520369363e+00 1.7043593199e+00 2.9520369363e+00 
37400 6.8914307349e+00 3.5893852183e-04 1.7043497942e+00 -2.9520204374e+00 1.7043497942e+00 2.9520204374e+00 
37500 6.8914321483e+00 3.9210857262e-04 1.7043392642e+00 -2.9520021988e+00 1.7043392642e+00 2.9520021988e+00 
37600 6.8914335493e+00 4.2420560317e-04 1.7043277609e+00 -2.9519822747e+00 1.7043277609e+00 2.9519822747e+00 
37700 6.8914349349e+00 4.5522347023e-04 1.7043153160e+00 -2.9519607194e+00 1.7043153160e+00 2.9519607194e+00 
37800 6.8914363022e+00 4.8515716524e-04 1.7043019610e+00 -2.9519375878e+00 1.7043019610e+00 2.9519375878e+00 
37900 6.8914376484e+00 5.1400279463e-04 1.7042877277e+00 -2.9519129351e+00 1.7042877277e+00 2.9519129351e+00 
38000 6.8914389709e+00 5.4175755949e-04 1.7042726480e+00 -2.9518868163e+00 1.7042726480e+00 2.9518868163e+00 
38100 6.8914402673e+00 5.6841973457e-04 1.7042567539e+00 -2.9518592870e+00 1.7042567539e+00 2.9518592870e+00 
38200 6.8914415354e+00 5.9398864681e-04 1.7042400775e+00 -2.9518304025e+00 1.7042400775e+00 2.9518304025e+00 
38300 6.8914427729e+00 6.1846465320e-04 1.7042226507e+00 -2.9518002185e+00 1.7042226507e+00 2.9518002185e+00 
38400 6.8914439781e+00 6.4184911825e-04 1.7042045057e+00 -2.9517687904e+00 1.7042045057e+00 2.9517687904e+00 
38500 6.8914451492e+00 6.6414439088e-04 1.7041856744e+00 -2.9517361736e+00 1.7041856744e+00 2.9517361736e+00 
38600 6.8914462846e+00 6.8535378089e-04 1.7041661888e+00 -2.9517024235e+00 1.7041661888e+00 2.9517024235e+00 
38700 6.8914473828e+00 7.0548153501e-04 1.7041460806e+00 -2.9516675951e+00 1.7041460806e+00 2.9516675951e+00 
38800 6.8914484426e+00 7.2453281259e-04 1.7041253817e+00 -2.9516317435e+00 1.7041253817e+00 2.9516317435e+00 
38900 6.8914494631e+00 7.4251366085e-04 1.7041041235e+00 -2.9515949233e+00 1.7041041235e+00 2.9515949233e+00 
39000 6.8914504431e+00 7.5943098990e-04 1.7040823375e+00 -2.9515571889e+00 1.7040823375e+00 2.9515571889e+00 
39100 6.8914513820e+00 7.7529254737e-04 1.7040600549e+00 -2.9515185942e+00 1.7040600549e+00 2.9515185942e+00 
39200 6.8914522793e+00 7.9010689282e-04 1.7040373065e+00 -2.9514791929e+00 1.7040373065e+00 2.9514791929e+00 
39300 6.8914531343e+00 8.0388337195e-04 1.7040141232e+00 -2.9514390382e+00 1.7040141232e+00 2.9514390382e+00 
39400 6.8914539468e+00 8.1663209050e-04 1.7039905353e+00 -2.9513981828e+00 1.7039905353e+00 2.9513981828e+00 
39500 6.8914547168e+00 8.2836388805e-04 1.7039665730e+00 -2.9513566789e+00 1.7039665730e+00 2.9513566789e+00 
39600 6.8914554440e+00 8.3909031169e-04 1.7039422662e+00 -2.9513145782e+00 1.7039422662e+00 2.9513145782e+00 
39700 6.8914561287e+00 8.4882358948e-04 1.7039176442e+00 -2.9512719317e+00 1.7039176442e+00 2.9512719317e+00 
39800 6.8914567711e+00 8.5757660393e-04 1.7038927363e+00 -2.9512287898e+00 1.7038927363e+00 2.9512287898e+00 
39900 6.8914573716e+00 8.6536286530e-04 1.7038675711e+00 -2.9511852025e+00 1.7038675711e+00 2.9511852025e+00 
40000 6.8914579306e+00 8.7219648501e-04 1.7038421771e+00 -2.9511412188e+00 1.7038421771e+00 2.9511412188e+00 
40100 6.8914584487e+00 8.7809214891e-04 1.7038165822e+00 -2.9510968871e+00 1.7038165822e+00 2.9510968871e+00 
40200 6.8914589265e+00 8.8306509065e-04 1.7037908138e+00 -2.9510522550e+00 1.7037908138e+00 2.9510522550e+00 
40300 6.8914593650e+00 8.8713106508e-04 1.7037648992e+00 -2.9510073696e+00 1.7037648992e+00 2.9510073696e+00 
40400 6.8914597650e+00 8.9030632174e-04 1.7037388648e+00 -2.9509622767e+00 1.7037388648e+00 2.9509622767e+00 
40500 6.8914601273e+00 8.9260757841e-04 1.7037127369e+00 -2.9509170218e+00 1.7037127369e+00 2.9509170218e+00 
40600 6.8914604531e+00 8.9405199481e-04 1.7036865410e+00 -2.9508716492e+00 1.7036865410e+00 2.9508716492e+00 
40700 6.8914607435e+00 8.9465714646e-04 1.7036603023e+00 -2.9508262024e+00 1.7036603023e+00 2.9508262024e+00 
40800 6.8914609996e+00 8.9444099874e-04 1.7036340455e+00 -2.9507807243e+00 1.7036340455e+00 2.9507807243e+00 
40900 6.8914612227e+00 8.9342188103e-04 1.7036077946e+00 -2.9507352564e+00 1.7036077946e+00 2.9507352564e+00 
41000 6.8914614140e+00 8.9161846125e-04 1.7035815732e+00 -2.9506898396e+00 1.7035815732e+00 2.9506898396e+00 
41100 6.8914615750e+00 8.8904972045e-04 1.7035554043e+00 -2.9506445137e+00 1.7035554043e+00 2.9506445137e+00 
41200 6.8914617068e+00 8.8573492782e-04 1.7035293104e+00 -2.9505993178e+00 1.7035293104e+00 2.9505993178e+00 
41300 6.8914618110e+00 8.8169361590e-04 1.7035033134e+00 -2.9505542897e+00 1.7035033134e+00 2.9505542897e+00 
41400 6.8914618890e+00 8.7694555610e-04 1.7034774347e+00 -2.9505094664e+00 1.7034774347e+00 2.9505094664e+00 
41500 6.8914619422e+00 8.7151073453e-04 1.7034516949e+00 -2.9504648837e+00 1.7034516949e+00 2.9504648837e+00 
41600 6.8914619720e+00 8.6540932826e-04 1.7034261142e+00 -2.9504205767e+00 1.7034261142e+00 2.9504205767e+00 
41700 6.8914619800e+00 8.5866168176e-04 1.7034007122e+00 -2.9503765792e+00 1.7034007122e+00 2.9503765792e+00 
41800 6.8914619677e+00 8.5128828391e-04 1.7033755080e+00 -2.9503329241e+00 1.7033755080e+00 2.9503329241e+00 
41900 6.8914619364e+00 8.4330974527e-04 1.7033505197e+00 -2.9502896433e+00 1.7033505197e+00 2.9502896433e+00 
42000 6.8914618877e+00 8.3474677575e-04 1.7033257654e+00 -2.9502467674e+00 1.7033257654e+00 2.9502467674e+00 
42100 6.8914618230e+00 8.2562016280e-04 1.7033012620e+00 -2.9502043263e+00 1.7033012620e+00 2.9502043263e+00 
42200 6.8914617439e+00 8.1595074991e-04 1.7032770262e+00 -2.9501623487e+00 1.7032770262e+00 2.9501623487e+00 
42300 6.8914616516e+00 8.0575941564e-04 1.7032530738e+00 -2.9501208620e+00 1.7032530738e+00 2.9501208620e+00 
42400 6.8914615476e+00 7.9506705305e-04 1.7032294203e+00 -2.9500798930e+00 1.7032294203e+00 2.9500798930e+00 
42500 6.8914614333e+00 7.8389454960e-04 1.7032060804e+00 -2.9500394670e+00 1.7032060804e+00 2.9500394670e+00 
42600 6.8914613100e+00 7.7226276761e-04 1.7031830681e+00 -2.9499996086e+00 1.7031830681e+00 2.9499996086e+00 
42700 6.8914611791e+00 7.6019252503e-04 1.7031603970e+00 -2.9499603411e+00 1.7031603970e+00 2.9499603411e+00 
42800 6.8914610418e+00 7.4770457688e-04 1.7031380800e+00 -2.9499216868e+00 1.7031380800e+00 2.9499216868e+00 
42900 6.8914608993e+00 7.3481959710e-04 1.7031161292e+00 -2.9498836670e+00 1.7031161292e+00 2.9498836670e+00 
43000 6.8914607529e+00 7.2155816090e-04 1.7030945565e+00 -2.9498463019e+00 1.7030945565e+00 2.9498463019e+00 
43100 6.8914606037e+00 7.0794072767e-04 1.7030733728e+00 -2.9498096107e+00 1.7030733728e+00 2.9498096107e+00 
43200 6.8914604528e+00 6.9398762437e-04 1.7030525886e+00 -2.9497736114e+00 1.7030525886e+00 2.9497736114e+00 
43300 6.8914603012e+00 6.7971902947e-04 1.7030322138e+00 -2.9497383213e+00 1.7030322138e+00 2.9497383213e+00 
43400 6.8914601500e+00 6.6515495737e-04 1.7030122577e+00 -2.9497037563e+00 1.7030122577e+00 2.9497037563e+00 
43500 6.8914600001e+00 6.5031524342e-04 1.7029927290e+00 -2.9496699315e+00 1.7029927290e+00 2.9496699315e+00 
43600 6.8914598525e+00 6.3521952944e-04 1.7029736357e+00 -2.9496368610e+00 1.7029736357e+00 2.9496368610e+00 
43700 6.8914597079e+00 6.1988724971e-04 1.7029549854e+00 -2.9496045578e+00 1.7029549854e+00 2.9496045578e+00 
43800 6.8914595673e+00 6.0433761764e-04 1.7029367851e+00 -2.9495730339e+00 1.7029367851e+00 2.9495730339e+00 
43900 6.8914594312e+00 5.8858961282e-04 1.7029190412e+00 -2.9495423005e+00 1.7029190412e+00 2.9495423005e+00 
44000 6.8914593004e+00 5.7266196870e-04 1.7029017594e+00 -2.9495123676e+00 1.7029017594e+00 2.9495123676e+00 
44100 6.8914591756e+00 5.5657316081e-04 1.7028849452e+00 -2.9494832445e+00 1.7028849452e+00 2.9494832445e+00 
44200 6.8914590574e+00 5.4034139543e-04 1.7028686031e+00 -2.9494549392e+00 1.7028686031e+00 2.9494549392e+00 
44300 6.8914589462e+00 5.2398459891e-04 1.7028527375e+00 -2.9494274592e+00 1.7028527375e+00 2.9494274592e+00 
44400 6.8914588425e+00 5.0752040740e-04 1.7028373521e+00 -2.9494008108e+00 1.7028373521e+00 2.9494008108e+00 
44500 6.8914587468e+00 4.9096615719e-04 1.7028224499e+00 -2.9493749995e+00 1.7028224499e+00 2.9493749995e+00 
44600 6.8914586594e+00 4.7433887553e-04 1.7028080336e+00 -2.9493500298e+00 1.7028080336e+00 2.9493500298e+00 
44700 6.8914585807e+00 4.5765527199e-04 1.7027941055e+00 -2.9493259056e+00 1.7027941055e+00 2.9493259056e+00 
44800 6.8914585109e+00 4.4093173035e-04 1.7027806672e+00 -2.9493026297e+00 1.7027806672e+00 2.9493026297e+00 
44900 6.8914584502e+00 4.2418430093e-04 1.7027677198e+00 -2.9492802042e+00 1.7027677198e+00 2.9492802042e+00 
45000 6.8914583989e+00 4.0742869350e-04 1.7027552641e+00 -2.9492586302e+00 1.7027552641e+00 2.9492586302e+00 
45100 6.8914583570e+00 3.9068027064e-04 1.7027433003e+00 -2.9492379084e+00 1.7027433003e+00 2.9492379084e+00 
45200 6.8914583247e+00 3.7395404162e-04 1.7027318282e+00 -2.9492180381e+00 1.7027318282e+00 2.9492180381e+00 
45300 6.8914583019e+00 3.5726465675e-04 1.7027208472e+00 -2.9491990185e+00 1.7027208472e+00 2.9491990185e+00 
45400 6.8914582888e+00 3.4062640220e-04 1.7027103562e+00 -2.9491808476e+00 1.7027103562e+00 2.9491808476e+00 
45500 6.8914582852e+00 3.2405319533e-04 1.7027003538e+00 -2.9491635228e+00 1.7027003538e+00 2.9491635228e+00 
45600 6.8914582910e+00 3.0755858040e-04 1.7026908379e+00 -2.9491470409e+00 1.7026908379e+00 2.9491470409e+00 
45700 6.8914583063e+00 2.9115572486e-04 1.7026818064e+00 -2.9491313978e+00 1.7026818064e+00 2.9491313978e+00 
45800 6.8914583308e+00 2.7485741595e-04 1.7026732565e+00 -2.9491165889e+00 1.7026732565e+00 2.9491165889e+00 
45900 6.8914583643e+00 2.5867605786e-04 1.7026651851e+00 -2.9491026089e+00 1.7026651851e+00 2.9491026089e+00 
46000 6.8914584067e+00 2.4262366921e-04 1.7026575889e+00 -2.9490894519e+00 1.7026575889e+00 2.9490894519e+00 
46100 6.8914584578e+00 2.2671188105e-04 1.7026504641e+00 -2.9490771113e+00 1.7026504641e+00 2.9490771113e+00 
46200 6.8914585172e+00 2.1095193522e-04 1.7026438065e+00 -2.9490655800e+00 1.7026438065e+00 2.9490655800e+00 
46300 6.8914585847e+00 1.9535468308e-04 1.7026376116e+00 -2.9490548502e+00 1.7026376116e+00 2.9490548502e+00 
46400 6.8914586601e+00 1.7993058475e-04 1.7026318748e+00 -2.9490449138e+00 1.7026318748e+00 2.9490449138e+00 
46500 6.8914587429e+00 1.6468970856e-04 1.7026265909e+00 -2.9490357618e+00 1.7026265909e+00 2.9490357618e+00 
46600 6.8914588329e+00 1.4964173108e-04 1.7026217546e+00 -2.9490273850e+00 1.7026217546e+00 2.9490273850e+00 
46700 6.8914589296e+00 1.3479593729e-04 1.7026173601e+00 -2.9490197736e+00 1.7026173601e+00 2.9490197736e+00 
46800 6.8914590329e+00 1.2016122133e-04 1.7026134017e+00 -2.9490129173e+00 1.7026134017e+00 2.9490129173e+00 
46900 6.8914591422e+00 1.0574608741e-04 1.7026098729e+00 -2.9490068054e+00 1.7026098729e+00 2.9490068054e+00 
47000 6.8914592571e+00 9.1558651152e-05 1.7026067675e+00 -2.9490014266e+00 1.7026067675e+00 2.9490014266e+00 
47100 6.8914593774e+00 7.7606641242e-05 1.7026040787e+00 -2.9489967695e+00 1.7026040787e+00 2.9489967695e+00 
47200 6.8914595025e+00 6.3897401381e-05 1.7026017997e+00 -2.9489928221e+00 1.7026017997e+00 2.9489928221e+00 
47300 6.8914596323e+00 5.2980510895e-05 1.7026017997e+00 -2.9489928221e+00 1.7026017997e+00 2.9489928221e+00 
47400 6.8914597660e+00 4.1801125954e-05 1.7026017997e+00 -2.9489928221e+00 1.7026017997e+00 2.9489928221e+00 
47500 6.8914599033e+00 3.0372505748e-05 1.7026017997e+00 -2.9489928221e+00 1.7026017997e+00 2.9489928221e+00 
47600 6.8914600439e+00 1.8707739740e-05 1.7026017997e+00 -2.9489928221e+00 1.7026017997e+00 2.9489928221e+00 
47700 6.8914601872e+00 6.8197462106e-06 1.7026017997e+00 -2.9489928221e+00 1.7026017997e+00 2.9489928221e+00 
47800 6.8914603331e+00 -5.2787291464e-06 1.7026017997e+00 -2.9489928221e+00 1.7026017997e+00 2.9489928221e+00 
47900 6.8914604810e+00 -1.7575114610e-05 1.7026017997e+00 -2.9489928221e+00 1.7026017997e+00 2.9489928221e+00 
48000 6.8914606307e+00 -3.0057013740e-05 1.7026017997e+00 -2.9489928221e+00 1.7026017997e+00 2.9489928221e+00 
48100 6.8914607817e+00 -4.2712206677e-05 1.7026017997e+00 -2.9489928221e+00 1.7026017997e+00 2.9489928221e+00 
48200 6.8914609337e+00 -5.5528651370e-05 1.7026017997e+00 -2.9489928221e+00 1.7026017997e+00 2.9489928221e+00 
48300 6.8914610864e+00 -6.8494484787e-05 1.7026017997e+00 -2.9489928221e+00 1.7026017997e+00 2.9489928221e+00 
48400 6.8914612394e+00 -8.1598024059e-05 1.7026017997e+00 -2.9489928221e+00 1.7026017997e+00 2.9489928221e+00 
48500 6.8914613921e+00 -9.1581404950e-05 1.7026041960e+00 -2.9489969726e+00 1.7026041960e+00 2.9489969726e+00 
48600 6.8914615443e+00 -1.0126107873e-04 1.7026068854e+00 -2.9490016308e+00 1.7026068854e+00 2.9490016308e+00 
48700 6.8914616957e+00 -1.1063489269e-04 1.7026098591e+00 -2.9490067815e+00 1.7026098591e+00 2.9490067815e+00 
48800 6.8914618461e+00 -1.1970102118e-04 1.7026131081e+00 -2.9490124089e+00 1.7026131081e+00 2.9490124089e+00 
48900 6.8914619950e+00 -1.2845795948e-04 1.7026166233e+00 -2.9490184974e+00 1.7026166233e+00 2.9490184974e+00 
49000 6.8914621423e+00 -1.3690451758e-04 1.7026203957e+00 -2.9490250313e+00 1.7026203957e+00 2.9490250313e+00 
49100 6.8914622876e+00 -1.4503981377e-04 1.7026244161e+00 -2.9490319949e+00 1.7026244161e+00 2.9490319949e+00 
49200 6.8914624308e+00 -1.5286326822e-04 1.7026286754e+00 -2.9490393722e+00 1.7026286754e+00 2.9490393722e+00 
49300 6.8914625715e+00 -1.6037459635e-04 1.7026331644e+00 -2.9490471474e+00 1.7026331644e+00 2.9490471474e+00 
49400 6.8914627097e+00 -1.6757380218e-04 1.7026378740e+00 -2.9490553047e+00 1.7026378740e+00 2.9490553047e+00 
49500 6.8914628449e+00 -1.7446117161e-04 1.7026427950e+00 -2.9490638282e+00 1.7026427950e+00 2.9490638282e+00 
49600 6.8914629772e+00 -1.8103726550e-04 1.7026479183e+00 -2.9490727019e+00 1.7026479183e+00 2.9490727019e+00 
49700 6.8914631063e+00 -1.8730291287e-04 1.7026532346e+00 -2.9490819101e+00 1.7026532346e+00 2.9490819101e+00 
49800 6.8914632320e+00 -1.9325920386e-04 1.7026587350e+00 -2.9490914369e+00 1.7026587350e+00 2.9490914369e+00 
49900 6.8914633542e+00 -1.9890748270e-04 1.7026644102e+00 -2.9491012667e+00 1.7026644102e+00 2.9491012667e+00 
50000 6.8914634728e+00 -2.0424934071e-04 1.7026702513e+00 -2.9491113837e+00 1.7026702513e+00 2.9491113837e+00 
50100 6.8914635877e+00 -2.0928660912e-04 1.7026762492e+00 -2.9491217724e+00 1.7026762492e+00 2.9491217724e+00 
50200 6.8914636987e+00 -2.1402135191e-04 1.7026823950e+00 -2.9491324173e+00 1.7026823950e+00 2.9491324173e+00 
50300 6.8914638059e+00 -2.1845585870e-04 1.7026886798e+00 -2.9491433029e+00 1.7026886798e+00 2.9491433029e+00 
50400 6.8914639091e+00 -2.2259263749e-04 1.7026950949e+00 -2.9491544141e+00 1.7026950949e+00 2.9491544141e+00 
50500 6.8914640083e+00 -2.2643440747e-04 1.7027016313e+00 -2.9491657356e+00 1.7027016313e+00 2.9491657356e+00 
50600 6.8914641035e+00 -2.2998409179e-04 1.7027082806e+00 -2.9491772525e+00 1.7027082806e+00 2.9491772525e+00 
50700 6.8914641945e+00 -2.3324481031e-04 1.7027150341e+00 -2.9491889499e+00 1.7027150341e+00 2.9491889499e+00 
50800 6.8914642815e+00 -2.3621987242e-04 1.7027218833e+00 -2.9492008130e+00 1.7027218833e+00 2.9492008130e+00 
50900 6.8914643645e+00 -2.3891276977e-04 1.7027288198e+00 -2.9492128275e+00 1.7027288198e+00 2.9492128275e+00 
51000 6.8914644433e+00 -2.4132716910e-04 1.7027358354e+00 -2.9492249788e+00 1.7027358354e+00 2.9492249788e+00 
51100 6.8914645182e+00 -2.4346690506e-04 1.7027429219e+00 -2.9492372529e+00 1.7027429219e+00 2.9492372529e+00 
51200 6.8914645890e+00 -2.4533597299e-04 1.7027500712e+00 -2.9492496358e+00 1.7027500712e+00 2.9492496358e+00 
51300 6.8914646559e+00 -2.4693852187e-04 1.7027572753e+00 -2.9492621137e+00 1.7027572753e+00 2.9492621137e+00 
51400 6.8914647189e+00 -2.4827884719e-04 1.7027645264e+00 -2.9492746731e+00 1.7027645264e+00 2.9492746731e+00 
51500 6.8914647781e+00 -2.4936138387e-04 1.7027718169e+00 -2.9492873005e+00 1.7027718169e+00 2.9492873005e+00 
51600 6.8914648335e+00 -2.5019069927e-04 1.7027791391e+00 -2.9492999830e+00 1.7027791391e+00 2.9492999830e+00 
51700 6.8914648852e+00 -2.5077148625e-04 1.7027864857e+00 -2.9493127076e+00 1.7027864857e+00 2.9493127076e+00 
51800 6.8914649334e+00 -2.5110855622e-04 1.7027938492e+00 -2.9493254617e+00 1.7027938492e+00 2.9493254617e+00 
51900 6.8914649781e+00 -2.5120683230e-04 1.7028012227e+00 -2.9493382328e+00 1.7028012227e+00 2.9493382328e+00 
52000 6.8914650194e+00 -2.5107134254e-04 1.7028085989e+00 -2.9493510089e+00 1.7028085989e+00 2.9493510089e+00 
52100 6.8914650575e+00 -2.5070721320e-04 1.7028159712e+00 -2.9493637781e+00 1.7028159712e+00 2.9493637781e+00 
52200 6.8914650924e+00 -2.5011966206e-04 1.7028233328e+00 -2.9493765287e+00 1.7028233328e+00 2.9493765287e+00 
52300 6.8914651242e+00 -2.4931399188e-04 1.7028306770e+00 -2.9493892493e+00 1.7028306770e+00 2.9493892493e+00 
52400 6.8914651532e+00 -2.4829558387e-04 1.7028379976e+00 -2.9494019289e+00 1.7028379976e+00 2.9494019289e+00 
52500 6.8914651794e+00 -2.4706989127e-04 1.7028452883e+00 -2.9494145567e+00 1.7028452883e+00 2.9494145567e+00 
52600 6.8914652029e+00 -2.4564243301e-04 1.7028525429e+00 -2.9494271221e+00 1.7028525429e+00 2.9494271221e+00 
52700 6.8914652239e+00 -2.4401878746e-04 1.7028597556e+00 -2.9494396148e+00 1.7028597556e+00 2.9494396148e+00 
52800 6.8914652425e+00 -2.4220458624e-04 1.7028669205e+00 -2.9494520249e+00 1.7028669205e+00 2.9494520249e+00 
52900 6.8914652589e+00 -2.4020550818e-04 1.7028740322e+00 -2.9494643427e+00 1.7028740322e+00 2.9494643427e+00 
53000 6.8914652731e+00 -2.3802727333e-04 1.7028810852e+00 -2.9494765588e+00 1.7028810852e+00 2.9494765588e+00 
53100 6.8914652854e+00 -2.3567563706e-04 1.7028880741e+00 -2.9494886640e+00 1.7028880741e+00 2.9494886640e+00 
53200 6.8914652958e+00 -2.3315638430e-04 1.7028949940e+00 -2.9495006496e+00 1.7028949940e+00 2.9495006496e+00 
53300 6.8914653045e+00 -2.3047532386e-04 1.7029018399e+00 -2.9495125070e+00 1.7029018399e+00 2.9495125070e+00 
53400 6.8914653116e+00 -2.2763828285e-04 1.7029086070e+00 -2.9495242280e+00 1.7029086070e+00 2.9495242280e+00 
53500 6.8914653173e+00 -2.2465110122e-04 1.7029152909e+00 -2.9495358047e+00 1.7029152909e+00 2.9495358047e+00 
53600 6.8914653216e+00 -2.2151962642e-04 1.7029218869e+00 -2.9495472295e+00 1.7029218869e+00 2.9495472295e+00 
53700 6.8914653247e+00 -2.1824970811e-04 1.7029283910e+00 -2.9495584949e+00 1.7029283910e+00 2.9495584949e+00 
53800 6.8914653268e+00 -2.1484719305e-04 1.7029347991e+00 -2.9495695940e+00 1.7029347991e+00 2.9495695940e+00 
53900 6.8914653280e+00 -2.1131792010e-04 1.7029411073e+00 -2.9495805201e+00 1.7029411073e+00 2.9495805201e+00 
54000 6.8914653283e+00 -2.0766771530e-04 1.7029473118e+00 -2.9495912666e+00 1.7029473118e+00 2.9495912666e+00 
54100 6.8914653279e+00 -2.0390238706e-04 1.7029534091e+00 -2.9496018274e+00 1.7029534091e+00 2.9496018274e+00 
54200 6.8914653269e+00 -2.0002772153e-04 1.7029593958e+00 -2.9496121968e+00 1.7029593958e+00 2.9496121968e+00 
54300 6.8914653254e+00 -1.9604947804e-04 1.7029652688e+00 -2.9496223690e+00 1.7029652688e+00 2.9496223690e+00 
54400 6.8914653235e+00 -1.9197338466e-04 1.7029710249e+00 -2.9496323389e+00 1.7029710249e+00 2.9496323389e+00 
54500 6.8914653214e+00 -1.8780513387e-04 1.7029766613e+00 -2.9496421015e+00 1.7029766613e+00 2.9496421015e+00 
54600 6.8914653190e+00 -1.8355037846e-04 1.7029821753e+00 -2.9496516521e+00 1.7029821753e+00 2.9496516521e+00 
54700 6.8914653166e+00 -1.7921472738e-04 1.7029875644e+00 -2.9496609862e+00 1.7029875644e+00 2.9496609862e+00 
54800 6.8914653141e+00 -1.7480374184e-04 1.7029928262e+00 -2.9496700999e+00 1.7029928262e+00 2.9496700999e+00 
54900 6.8914653117e+00 -1.7032293149e-04 1.7029979585e+00 -2.9496789892e+00 1.7029979585e+00 2.9496789892e+00 
55000 6.8914653095e+00 -1.6577775075e-04 1.7030029591e+00 -2.9496876507e+00 1.7030029591e+00 2.9496876507e+00 
55100 6.8914653075e+00 -1.6117359521e-04 1.7030078264e+00 -2.9496960809e+00 1.7030078264e+00 2.9496960809e+00 
55200 6.8914653057e+00 -1.5651579825e-04 1.7030125584e+00 -2.9497042771e+00 1.7030125584e+00 2.9497042771e+00 
55300 6.8914653043e+00 -1.5180962765e-04 1.7030171537e+00 -2.9497122363e+00 1.7030171537e+00 2.9497122363e+00 
55400 6.8914653033e+00 -1.4706028248e-04 1.7030216107e+00 -2.9497199562e+00 1.7030216107e+00 2.9497199562e+00 
55500 6.8914653028e+00 -1.4227288998e-04 1.7030259284e+00 -2.9497274345e+00 1.7030259284e+00 2.9497274345e+00 
55600 6.8914653028e+00 -1.3745250265e-04 1.7030301054e+00 -2.9497346694e+00 1.7030301054e+00 2.9497346694e+00 
55700 6.8914653033e+00 -1.3260409545e-04 1.7030341410e+00 -2.9497416592e+00 1.7030341410e+00 2.9497416592e+00 
55800 6.8914653044e+00 -1.2773256310e-04 1.7030380341e+00 -2.9497484023e+00 1.7030380341e+00 2.9497484023e+00 
55900 6.8914653062e+00 -1.2284271750e-04 1.7030417843e+00 -2.9497548978e+00 1.7030417843e+00 2.9497548978e+00 
56000 6.8914653086e+00 -1.1793928535e-04 1.7030453908e+00 -2.9497611445e+00 1.7030453908e+00 2.9497611445e+00 
56100 6.8914653116e+00 -1.1302690575e-04 1.7030488534e+00 -2.9497671419e+00 1.7030488534e+00 2.9497671419e+00 
56200 6.8914653154e+00 -1.0811012811e-04 1.7030521718e+00 -2.9497728895e+00 1.7030521718e+00 2.9497728895e+00 
56300 6.8914653198e+00 -1.0319340998e-04 1.7030553458e+00 -2.9497783871e+00 1.7030553458e+00 2.9497783871e+00 
56400 6.8914653250e+00 -9.8281115183e-05 1.7030583755e+00 -2.9497836346e+00 1.7030583755e+00 2.9497836346e+00 
56500 6.8914653309e+00 -9.3377511945e-05 1.7030612609e+00 -2.9497886323e+00 1.7030612609e+00 2.9497886323e+00 
56600 6.8914653376e+00 -8.8486771192e-05 1.7030640024e+00 -2.9497933806e+00 1.7030640024e+00 2.9497933806e+00 
56700 6.8914653450e+00 -8.3612964973e-05 1.7030666002e+00 -2.9497978803e+00 1.7030666002e+00 2.9497978803e+00 
56800 6.8914653531e+00 -7.8760064983e-05 1.7030690550e+00 -2.9498021321e+00 1.7030690550e+00 2.9498021321e+00 
56900 6.8914653620e+00 -7.3931941198e-05 1.7030713673e+00 -2.9498061371e+00 1.7030713673e+00 2.9498061371e+00 
57000 6.8914653715e+00 -6.9132360642e-05 1.7030735379e+00 -2.9498098966e+00 1.7030735379e+00 2.9498098966e+00 
57100 6.8914653820e+00 -6.7112501303e-05 1.7030735379e+00 -2.9498098966e+00 1.7030735379e+00 2.9498098966e+00 
57200 6.8914653930e+00 -6.4957151175e-05 1.7030735379e+00 -2.9498098966e+00 1.7030735379e+00 2.9498098966e+00 
57300 6.8914654048e+00 -6.2670339152e-05 1.7030735379e+00 -2.9498098966e+00 1.7030735379e+00 2.9498098966e+00 
57400 6.8914654171e+00 -6.0256074076e-05 1.7030735379e+00 -2.9498098966e+00 1.7030735379e+00 2.9498098966e+00 
57500 6.8914654301e+00 -5.7718343893e-05 1.7030735379e+00 -2.9498098966e+00 1.7030735379e+00 2.9498098966e+00 
57600 6.8914654436e+00 -5.5061114847e-05 1.7030735379e+00 -2.9498098966e+00 1.7030735379e+00 2.9498098966e+00 
57700 6.8914654577e+00 -5.2288330641e-05 1.7030735379e+00 -2.9498098966e+00 1.7030735379e+00 2.9498098966e+00 
57800 6.8914654724e+00 -4.9403911605e-05 1.7030735379e+00 -2.9498098966e+00 1.7030735379e+00 2.9498098966e+00 
57900 6.8914654875e+00 -4.6411753872e-05 1.7030735379e+00 -2.9498098966e+00 1.7030735379e+00 2.9498098966e+00 
58000 6.8914655031e+00 -4.3315728527e-05 1.7030735379e+00 -2.9498098966e+00 1.7030735379e+00 2.9498098966e+00 
58100 6.8914655192e+00 -4.0119680780e-05 1.7030735379e+00 -2.9498098966e+00 1.7030735379e+00 2.9498098966e+00 
58200 6.8914655357e+00 -3.6827429124e-05 1.7030735379e+00 -2.9498098966e+00 1.7030735379e+00 2.9498098966e+00 
58300 6.8914655525e+00 -3.3442764491e-05 1.7030735379e+00 -2.9498098966e+00 1.7030735379e+00 2.9498098966e+00 
58400 6.8914655698e+00 -2.9969449415e-05 1.7030735379e+00 -2.9498098966e+00 1.7030735379e+00 2.9498098966e+00 
58500 6.8914655873e+00 -2.6411217189e-05 1.7030735379e+00 -2.9498098966e+00 1.7030735379e+00 2.9498098966e+00 
58600 6.8914656051e+00 -2.2771771028e-05 1.7030735379e+00 -2.9498098966e+00 1.7030735379e+00 2.9498098966e+00 
58700 6.8914656232e+00 -1.9054783217e-05 1.7030735379e+00 -2.9498098966e+00 1.7030735379e+00 2.9498098966e+00 
58800 6.8914656416e+00 -1.5263894290e-05 1.7030735379e+00 -2.9498098966e+00 1.7030735379e+00 2.9498098966e+00 
58900 6.8914656601e+00 -1.1402712186e-05 1.7030735379e+00 -2.9498098966e+00 1.7030735379e+00 2.9498098966e+00 
59000 6.8914656788e+00 -7.4748114104e-06 1.7030735379e+00 -2.9498098966e+00 1.7030735379e+00 2.9498098966e+00 
59100 6.8914656976e+00 -3.4837322207e-06 1.7030735379e+00 -2.9498098966e+00 1.7030735379e+00 2.9498098966e+00 
59200 6.8914657165e+00 5.6702021231e-07 1.7030735379e+00 -2.9498098966e+00 1.7030735379e+00 2.9498098966e+00 
59300 6.8914657355e+00 4.6739766153e-06 1.7030735379e+00 -2.9498098966e+00 1.7030735379e+00 2.9498098966e+00 
59400 6.8914657545e+00 8.8337044259e-06 1.7030735379e+00 -2.9498098966e+00 1.7030735379e+00 2.9498098966e+00 
59500 6.8914657735e+00 1.3042808601e-05 1.7030735379e+00 -2.9498098966e+00 1.7030735379e+00 2.9498098966e+00 
59600 6.8914657925e+00 1.7297932416e-05 1.7030735379e+00 -2.9498098966e+00 1.7030735379e+00 2.9498098966e+00 
59700 6.8914658114e+00 2.1595758246e-05 1.7030735379e+00 -2.9498098966e+00 1.7030735379e+00 2.9498098966e+00 
59800 6.8914658303e+00 2.5933008361e-05 1.7030735379e+00 -2.9498098966e+00 1.7030735379e+00 2.9498098966e+00 
59900 6.8914658491e+00 3.0306445687e-05 1.7030735379e+00 -2.9498098966e+00 1.7030735379e+00 2.9498098966e+00 
60000 6.8914658677e+00 3.4712874565e-05 1.7030735379e+00 -2.9498098966e+00 1.7030735379e+00 2.9498098966e+00 
60100 6.8914658862e+00 3.9149141505e-05 1.7030735379e+00 -2.9498098966e+00 1.7030735379e+00 2.9498098966e+00 
60200 6.8914659045e+00 4.3612135912e-05 1.7030735379e+00 -2.9498098966e+00 1.7030735379e+00 2.9498098966e+00 
60300 6.8914659226e+00 4.8098790820e-05 1.7030735379e+00 -2.9498098966e+00 1.7030735379e+00 2.9498098966e+00 
60400 6.8914659405e+00 5.2606083588e-05 1.7030735379e+00 -2.9498098966e+00 1.7030735379e+00 2.9498098966e+00 
60500 6.8914659582e+00 5.7131036603e-05 1.7030735379e+00 -2.9498098966e+00 1.7030735379e+00 2.9498098966e+00 
60600 6.8914659756e+00 6.1670717946e-05 1.7030735379e+00 -2.9498098966e+00 1.7030735379e+00 2.9498098966e+00 
60700 6.8914659927e+00 6.6222242059e-05 1.7030735379e+00 -2.9498098966e+00 1.7030735379e+00 2.9498098966e+00 
60800 6.8914660095e+00 7.0782770385e-05 1.7030735379e+00 -2.9498098966e+00 1.7030735379e+00 2.9498098966e+00 
60900 6.8914660258e+00 7.2536036064e-05 1.7030714598e+00 -2.9498062972e+00 1.7030714598e+00 2.9498062972e+00 
61000 6.8914660418e+00 7.4204418661e-05 1.7030693302e+00 -2.9498026087e+00 1.7030693302e+00 2.9498026087e+00 
61100 6.8914660574e+00 7.5787714171e-05 1.7030671517e+00 -2.9497988354e+00 1.7030671517e+00 2.9497988354e+00 
61200 6.8914660726e+00 7.7285820214e-05 1.7030649266e+00 -2.9497949815e+00 1.7030649266e+00 2.9497949815e+00 
61300 6.8914660874e+00 7.8698733088e-05 1.7030626576e+00 -2.9497910514e+00 1.7030626576e+00 2.9497910514e+00 
61400 6.8914661018e+00 8.0026544791e-05 1.7030603471e+00 -2.9497870495e+00 1.7030603471e+00 2.9497870495e+00 
61500 6.8914661159e+00 8.1269440088e-05 1.7030579976e+00 -2.9497829801e+00 1.7030579976e+00 2.9497829801e+00 
61600 6.8914661295e+00 8.2427693569e-05 1.7030556116e+00 -2.9497788474e+00 1.7030556116e+00 2.9497788474e+00 
61700 6.8914661427e+00 8.3501666738e-05 1.7030531916e+00 -2.9497746559e+00 1.7030531916e+00 2.9497746559e+00 
61800 6.8914661555e+00 8.4491805125e-05 1.7030507401e+00 -2.9497704097e+00 1.7030507401e+00 2.9497704097e+00 
61900 6.8914661678e+00 8.5398635382e-05 1.7030482595e+00 -2.9497661132e+00 1.7030482595e+00 2.9497661132e+00 
62000 6.8914661798e+00 8.6222762434e-05 1.7030457523e+00 -2.9497617705e+00 1.7030457523e+00 2.9497617705e+00 
62100 6.8914661913e+00 8.6964866633e-05 1.7030432208e+00 -2.9497573860e+00 1.7030432208e+00 2.9497573860e+00 
62200 6.8914662024e+00 8.7625700929e-05 1.7030406676e+00 -2.9497529637e+00 1.7030406676e+00 2.9497529637e+00 
62300 6.8914662131e+00 8.8206088070e-05 1.7030380950e+00 -2.9497485078e+00 1.7030380950e+00 2.9497485078e+00 
62400 6.8914662234e+00 8.8706917822e-05 1.7030355053e+00 -2.9497440223e+00 1.7030355053e+00 2.9497440223e+00 
62500 6.8914662333e+00 8.9129144186e-05 1.7030329010e+00 -2.9497395114e+00 1.7030329010e+00 2.9497395114e+00 
62600 6.8914662427e+00 8.9473782698e-05 1.7030302842e+00 -2.9497349790e+00 1.7030302842e+00 2.9497349790e+00 
62700 6.8914662518e+00 8.9741907696e-05 1.7030276573e+00 -2.9497304291e+00 1.7030276573e+00 2.9497304291e+00 
62800 6.8914662605e+00 8.9934649631e-05 1.7030250225e+00 -2.9497258655e+00 1.7030250225e+00 2.9497258655e+00 
62900 6.8914662688e+00 9.0053192417e-05 1.7030223821e+00 -2.9497212922e+00 1.7030223821e+00 2.9497212922e+00 
63000 6.8914662767e+00 9.0098770797e-05 1.7030197381e+00 -2.9497167128e+00 1.7030197381e+00 2.9497167128e+00 
63100 6.8914662843e+00 9.0072667745e-05 1.7030170929e+00 -2.9497121310e+00 1.7030170929e+00 2.9497121310e+00 
63200 6.8914662915e+00 8.9976211877e-05 1.7030144484e+00 -2.9497075506e+00 1.7030144484e+00 2.9497075506e+00 
63300 6.8914662983e+00 8.9810774929e-05 1.7030118067e+00 -2.9497029751e+00 1.7030118067e+00 2.9497029751e+00 
63400 6.8914663049e+00 8.9577769225e-05 1.7030091699e+00 -2.9496984080e+00 1.7030091699e+00 2.9496984080e+00 
63500 6.8914663111e+00 8.9278645219e-05 1.7030065399e+00 -2.9496938527e+00 1.7030065399e+00 2.9496938527e+00 
63600 6.8914663170e+00 8.8914889026e-05 1.7030039187e+00 -2.9496893127e+00 1.7030039187e+00 2.9496893127e+00 
63700 6.8914663226e+00 8.8488020031e-05 1.7030013082e+00 -2.9496847911e+00 1.7030013082e+00 2.9496847911e+00 
63800 6.8914663279e+00 8.7999588496e-05 1.7029987102e+00 -2.9496802912e+00 1.7029987102e+00 2.9496802912e+00 
63900 6.8914663329e+00 8.7451173239e-05 1.7029961265e+00 -2.9496758162e+00 1.7029961265e+00 2.9496758162e+00 
64000 6.8914663376e+00 8.6844379311e-05 1.7029935589e+00 -2.9496713690e+00 1.7029935589e+00 2.9496713690e+00 
64100 6.8914663422e+00 8.6180835728e-05 1.7029910092e+00 -2.9496669527e+00 1.7029910092e+00 2.9496669527e+00 
64200 6.8914663464e+00 8.5462193261e-05 1.7029884789e+00 -2.9496625702e+00 1.7029884789e+00 2.9496625702e+00 
64300 6.8914663505e+00 8.4690122228e-05 1.7029859697e+00 -2.9496582241e+00 1.7029859697e+00 2.9496582241e+00 
64400 6.8914663543e+00 8.3866310353e-05 1.7029834832e+00 -2.9496539173e+00 1.7029834832e+00 2.9496539173e+00 
64500 6.8914663580e+00 8.2992460664e-05 1.7029810209e+00 -2.9496496525e+00 1.7029810209e+00 2.9496496525e+00 
64600 6.8914663614e+00 8.2070289400e-05 1.7029785842e+00 -2.9496454320e+00 1.7029785842e+00 2.9496454320e+00 
64700 6.8914663647e+00 8.1101524008e-05 1.7029761746e+00 -2.9496412584e+00 1.7029761746e+00 2.9496412584e+00 
64800 6.8914663678e+00 8.0087901139e-05 1.7029737934e+00 -2.9496371341e+00 1.7029737934e+00 2.9496371341e+00 
64900 6.8914663708e+00 7.9031164724e-05 1.7029714420e+00 -2.9496330614e+00 1.7029714420e+00 2.9496330614e+00 
65000 6.8914663736e+00 7.7933064058e-05 1.7029691216e+00 -2.9496290423e+00 1.7029691216e+00 2.9496290423e+00 
65100 6.8914663763e+00 7.6795351950e-05 1.7029668334e+00 -2.9496250791e+00 1.7029668334e+00 2.9496250791e+00 
65200 6.8914663789e+00 7.5619782911e-05 1.7029645787e+00 -2.9496211738e+00 1.7029645787e+00 2.9496211738e+00 
65300 6.8914663814e+00 7.4408111394e-05 1.7029623585e+00 -2.9496173282e+00 1.7029623585e+00 2.9496173282e+00 
65400 6.8914663838e+00 7.3162090049e-05 1.7029601738e+00 -2.9496135443e+00 1.7029601738e+00 2.9496135443e+00 
65500 6.8914663861e+00 7.1883468075e-05 1.7029580257e+00 -2.9496098237e+00 1.7029580257e+00 2.9496098237e+00 
65600 6.8914663883e+00 7.0573989560e-05 1.7029559152e+00 -2.9496061681e+00 1.7029559152e+00 2.9496061681e+00 
65700 6.8914663907e+00 7.2041229245e-05 1.7029559152e+00 -2.9496061681e+00 1.7029559152e+00 2.9496061681e+00 
65800 6.8914663928e+00 7.0582295710e-05 1.7029538000e+00 -2.9496025045e+00 1.7029538000e+00 2.9496025045e+00 
65900 6.8914663950e+00 7.1907237356e-05 1.7029538000e+00 -2.9496025045e+00 1.7029538000e+00 2.9496025045e+00 
66000 6.8914663971e+00 7.0312304882e-05 1.7029516887e+00 -2.9495988477e+00 1.7029516887e+00 2.9495988477e+00 
66100 6.8914663992e+00 7.1496986988e-05 1.7029516887e+00 -2.9495988477e+00 1.7029516887e+00 2.9495988477e+00 
66200 6.8914664012e+00 6.9779182424e-05 1.7029495895e+00 -2.9495952118e+00 1.7029495895e+00 2.9495952118e+00 
66300 6.8914664033e+00 7.0825923565e-05 1.7029495895e+00 -2.9495952118e+00 1.7029495895e+00 2.9495952118e+00 
66400 6.8914664053e+00 6.8998036922e-05 1.7029475100e+00 -2.9495916100e+00 1.7029475100e+00 2.9495916100e+00 
66500 6.8914664074e+00 6.9909425750e-05 1.7029475100e+00 -2.9495916100e+00 1.7029475100e+00 2.9495916100e+00 
66600 6.8914664095e+00 7.0763326859e-05 1.7029475100e+00 -2.9495916100e+00 1.7029475100e+00 2.9495916100e+00 
66700 6.8914664114e+00 6.8747264078e-05 1.7029454323e+00 -2.9495880113e+00 1.7029454323e+00 2.9495880113e+00 
66800 6.8914664135e+00 6.9470226694e-05 1.7029454323e+00 -2.9495880113e+00 1.7029454323e+00 2.9495880113e+00 
66900 6.8914664157e+00 7.0137975696e-05 1.7029454323e+00 -2.9495880113e+00 1.7029454323e+00 2.9495880113e+00 
67000 6.8914664178e+00 7.0751451971e-05 1.7029454323e+00 -2.9495880113e+00 1.7029454323e+00 2.9495880113e+00 
67100 6.8914664198e+00 6.8498709878e-05 1.7029433550e+00 -2.9495844133e+00 1.7029433550e+00 2.9495844133e+00 
67200 6.8914664220e+00 6.8987835073e-05 1.7029433550e+00 -2.9495844133e+00 1.7029433550e+00 2.9495844133e+00 
67300 6.8914664243e+00 6.9425113637e-05 1.7029433550e+00 -2.9495844133e+00 1.7029433550e+00 2.9495844133e+00 
67400 6.8914664265e+00 6.9811533923e-05 1.7029433550e+00 -2.9495844133e+00 1.7029433550e+00 2.9495844133e+00 
67500 6.8914664288e+00 7.0148086799e-05 1.7029433550e+00 -2.9495844133e+00 1.7029433550e+00 2.9495844133e+00 
67600 6.8914664311e+00 7.0435765421e-05 1.7029433550e+00 -2.9495844133e+00 1.7029433550e+00 2.9495844133e+00 
67700 6.8914664335e+00 7.0675565023e-05 1.7029433550e+00 -2.9495844133e+00 1.7029433550e+00 2.9495844133e+00 
67800 6.8914664359e+00 7.0868482700e-05 1.7029433550e+00 -2.9495844133e+00 1.7029433550e+00 2.9495844133e+00 
67900 6.8914664381e+00 6.8197997184e-05 1.7029412743e+00 -2.9495808093e+00 1.7029412743e+00 2.9495808093e+00 
68000 6.8914664406e+00 6.8281471885e-05 1.7029412743e+00 -2.9495808093e+00 1.7029412743e+00 2.9495808093e+00 
68100 6.8914664431e+00 6.8320643670e-05 1.7029412743e+00 -2.9495808093e+00 1.7029412743e+00 2.9495808093e+00 
68200 6.8914664456e+00 6.8316546918e-05 1.7029412743e+00 -2.9495808093e+00 1.7029412743e+00 2.9495808093e+00 
68300 6.8914664482e+00 6.8270215827e-05 1.7029412743e+00 -2.9495808093e+00 1.7029412743e+00 2.9495808093e+00 
68400 6.8914664508e+00 6.8182684167e-05 1.7029412743e+00 -2.9495808093e+00 1.7029412743e+00 2.9495808093e+00 
68500 6.8914664534e+00 6.8054985005e-05 1.7029412743e+00 -2.9495808093e+00 1.7029412743e+00 2.9495808093e+00 
68600 6.8914664561e+00 6.7888150461e-05 1.7029412743e+00 -2.9495808093e+00 1.7029412743e+00 2.9495808093e+00 
68700 6.8914664588e+00 6.7683211418e-05 1.7029412743e+00 -2.9495808093e+00 1.7029412743e+00 2.9495808093e+00 
68800 6.8914664615e+00 6.7441197259e-05 1.7029412743e+00 -2.9495808093e+00 1.7029412743e+00 2.9495808093e+00 
68900 6.8914664643e+00 6.7163135584e-05 1.7029412743e+00 -2.9495808093e+00 1.7029412743e+00 2.9495808093e+00 
69000 6.8914664671e+00 6.6850051931e-05 1.7029412743e+00 -2.9495808093e+00 1.7029412743e+00 2.9495808093e+00 
69100 6.8914664699e+00 6.6502969486e-05 1.7029412743e+00 -2.9495808093e+00 1.7029412743e+00 2.9495808093e+00 
69200 6.8914664727e+00 6.6122908795e-05 1.7029412743e+00 -2.9495808093e+00 1.7029412743e+00 2.9495808093e+00 
69300 6.8914664756e+00 6.5710887466e-05 1.7029412743e+00 -2.9495808093e+00 1.7029412743e+00 2.9495808093e+00 
69400 6.8914664785e+00 6.5267919879e-05 1.7029412743e+00 -2.9495808093e+00 1.7029412743e+00 2.9495808093e+00 
69500 6.8914664814e+00 6.4795016879e-05 1.7029412743e+00 -2.9495808093e+00 1.7029412743e+00 2.9495808093e+00 
69600 6.8914664843e+00 6.4293185484e-05 1.7029412743e+00 -2.9495808093e+00 1.7029412743e+00 2.9495808093e+00 
69700 6.8914664872e+00 6.3763428564e-05 1.7029412743e+00 -2.9495808093e+00 1.7029412743e+00 2.9495808093e+00 
69800 6.8914664901e+00 6.3206744550e-05 1.7029412743e+00 -2.9495808093e+00 1.7029412743e+00 2.9495808093e+00 
69900 6.8914664930e+00 6.2624127121e-05 1.7029412743e+00 -2.9495808093e+00 1.7029412743e+00 2.9495808093e+00 
70000 6.8914664960e+00 6.2016564886e-05 1.7029412743e+00 -2.9495808093e+00 1.7029412743e+00 2.9495808093e+00 
70100 6.8914664989e+00 6.1385041082e-05 1.7029412743e+00 -2.9495808093e+00 1.7029412743e+00 2.9495808093e+00 
70200 6.8914665018e+00 6.0730533264e-05 1.7029412743e+00 -2.9495808093e+00 1.7029412743e+00 2.9495808093e+00 
70300 6.8914665048e+00 6.0054012983e-05 1.7029412743e+00 -2.9495808093e+00 1.7029412743e+00 2.9495808093e+00 
70400 6.8914665077e+00 5.9356445482e-05 1.7029412743e+00 -2.9495808093e+00 1.7029412743e+00 2.9495808093e+00 
70500 6.8914665106e+00 5.8638789378e-05 1.7029412743e+00 -2.9495808093e+00 1.7029412743e+00 2.9495808093e+00 
70600 6.8914665135e+00 5.7901996356e-05 1.7029412743e+00 -2.9495808093e+00 1.7029412743e+00 2.9495808093e+00 
70700 6.8914665164e+00 5.7147010854e-05 1.7029412743e+00 -2.9495808093e+00 1.7029412743e+00 2.9495808093e+00 
70800 6.8914665193e+00 5.6374769757e-05 1.7029412743e+00 -2.9495808093e+00 1.7029412743e+00 2.9495808093e+00 
70900 6.8914665221e+00 5.5586202086e-05 1.7029412743e+00 -2.9495808093e+00 1.7029412743e+00 2.9495808093e+00 
71000 6.8914665250e+00 5.4782228693e-05 1.7029412743e+00 -2.9495808093e+00 1.7029412743e+00 2.9495808093e+00 
71100 6.8914665278e+00 5.3963761958e-05 1.7029412743e+00 -2.9495808093e+00 1.7029412743e+00 2.9495808093e+00 
71200 6.8914665306e+00 5.3131705488e-05 1.7029412743e+00 -2.9495808093e+00 1.7029412743e+00 2.9495808093e+00 
71300 6.8914665333e+00 5.2286953818e-05 1.7029412743e+00 -2.9495808093e+00 1.7029412743e+00 2.9495808093e+00 
71400 6.8914665361e+00 5.1430392116e-05 1.7029412743e+00 -2.9495808093e+00 1.7029412743e+00 2.9495808093e+00 
71500 6.8914665388e+00 5.0562895892e-05 1.7029412743e+00 -2.9495808093e+00 1.7029412743e+00 2.9495808093e+00 
71600 6.8914665414e+00 4.9685330708e-05 1.7029412743e+00 -2.9495808093e+00 1.7029412743e+00 2.9495808093e+00 
71700 6.8914665441e+00 4.8798551902e-05 1.7029412743e+00 -2.9495808093e+00 1.7029412743e+00 2.9495808093e+00 
71800 6.8914665467e+00 4.7903404305e-05 1.7029412743e+00 -2.9495808093e+00 1.7029412743e+00 2.9495808093e+00 
71900 6.8914665492e+00 4.7000721957e-05 1.7029412743e+00 -2.9495808093e+00 1.7029412743e+00 2.9495808093e+00 
72000 6.8914665518e+00 4.6091327855e-05 1.7029412743e+00 -2.9495808093e+00 1.7029412743e+00 2.9495808093e+00 
72100 6.8914665543e+00 4.5176033687e-05 1.7029412743e+00 -2.9495808093e+00 1.7029412743e+00 2.9495808093e+00 
72200 6.8914665567e+00 4.4255639562e-05 1.7029412743e+00 -2.9495808093e+00 1.7029412743e+00 2.9495808093e+00 
72300 6.8914665591e+00 4.3330933767e-05 1.7029412743e+00 -2.9495808093e+00 1.7029412743e+00 2.9495808093e+00 
72400 6.8914665615e+00 4.2402692524e-05 1.7029412743e+00 -2.9495808093e+00 1.7029412743e+00 2.9495808093e+00 
72500 6.8914665638e+00 4.1471679746e-05 1.7029412743e+00 -2.9495808093e+00 1.7029412743e+00 2.9495808093e+00 
72600 6.8914665661e+00 4.0538646810e-05 1.7029412743e+00 -2.9495808093e+00 1.7029412743e+00 2.9495808093e+00 
72700 6.8914665683e+00 3.9604332325e-05 1.7029412743e+00 -2.9495808093e+00 1.7029412743e+00 2.9495808093e+00 
72800 6.8914665705e+00 3.8669461922e-05 1.7029412743e+00 -2.9495808093e+00 1.7029412743e+00 2.9495808093e+00 
72900 6.8914665727e+00 3.7734748038e-05 1.7029412743e+00 -2.9495808093e+00 1.7029412743e+00 2.9495808093e+00 
73000 6.8914665748e+00 3.6800889716e-05 1.7029412743e+00 -2.9495808093e+00 1.7029412743e+00 2.9495808093e+00 
73100 6.8914665768e+00 3.5868572410e-05 1.7029412743e+00 -2.9495808093e+00 1.7029412743e+00 2.9495808093e+00 
73200 6.8914665788e+00 3.4938467801e-05 1.7029412743e+00 -2.9495808093e+00 1.7029412743e+00 2.9495808093e+00 
73300 6.8914665808e+00 3.4011233610e-05 1.7029412743e+00 -2.9495808093e+00 1.7029412743e+00 2.9495808093e+00 
73400 6.8914665827e+00 3.3087513441e-05 1.7029412743e+00 -2.9495808093e+00 1.7029412743e+00 2.9495808093e+00 
73500 6.8914665846e+00 3.2167936610e-05 1.7029412743e+00 -2.9495808093e+00 1.7029412743e+00 2.9495808093e+00 
73600 6.8914665864e+00 3.1253117996e-05 1.7029412743e+00 -2.9495808093e+00 1.7029412743e+00 2.9495808093e+00 
73700 6.8914665882e+00 3.0343657898e-05 1.7029412743e+00 -2.9495808093e+00 1.7029412743e+00 2.9495808093e+00 
73800 6.8914665900e+00 2.9440141897e-05 1.7029412743e+00 -2.9495808093e+00 1.7029412743e+00 2.9495808093e+00 
73900 6.8914665917e+00 2.8543140741e-05 1.7029412743e+00 -2.9495808093e+00 1.7029412743e+00 2.9495808093e+00 
74000 6.8914665933e+00 2.7653210213e-05 1.7029412743e+00 -2.9495808093e+00 1.7029412743e+00 2.9495808093e+00 
74100 6.8914665949e+00 2.6770891041e-05 1.7029412743e+00 -2.9495808093e+00 1.7029412743e+00 2.9495808093e+00 
74200 6.8914665965e+00 2.5896708788e-05 1.7029412743e+00 -2.9495808093e+00 1.7029412743e+00 2.9495808093e+00 
74300 6.8914665980e+00 2.5031173768e-05 1.7029412743e+00 -2.9495808093e+00 1.7029412743e+00 2.9495808093e+00 
74400 6.8914665995e+00 2.4174780975e-05 1.7029412743e+00 -2.9495808093e+00 1.7029412743e+00 2.9495808093e+00 
74500 6.8914666010e+00 2.3328010000e-05 1.7029412743e+00 -2.9495808093e+00 1.7029412743e+00 2.9495808093e+00 
74600 6.8914666024e+00 2.2491324994e-05 1.7029412743e+00 -2.9495808093e+00 1.7029412743e+00 2.9495808093e+00 
74700 6.8914666038e+00 2.1665174591e-05 1.7029412743e+00 -2.9495808093e+00 1.7029412743e+00 2.9495808093e+00 
74800 6.8914666051e+00 2.0849991893e-05 1.7029412743e+00 -2.9495808093e+00 1.7029412743e+00 2.9495808093e+00 
74900 6.8914666064e+00 2.0046194430e-05 1.7029412743e+00 -2.9495808093e+00 1.7029412743e+00 2.9495808093e+00 
75000 6.8914666077e+00 1.9254184139e-05 1.7029412743e+00 -2.9495808093e+00 1.7029412743e+00 2.9495808093e+00 
75100 6.8914666089e+00 1.8474347354e-05 1.7029412743e+00 -2.9495808093e+00 1.7029412743e+00 2.9495808093e+00 
75200 6.8914666101e+00 1.7707054812e-05 1.7029412743e+00 -2.9495808093e+00 1.7029412743e+00 2.9495808093e+00 
75300 6.8914666113e+00 1.6952661655e-05 1.7029412743e+00 -2.9495808093e+00 1.7029412743e+00 2.9495808093e+00 
75400 6.8914666124e+00 1.6211507452e-05 1.7029412743e+00 -2.9495808093e+00 1.7029412743e+00 2.9495808093e+00 
75500 6.8914666135e+00 1.5483916220e-05 1.7029412743e+00 -2.9495808093e+00 1.7029412743e+00 2.9495808093e+00 
75600 6.8914666146e+00 1.4770196480e-05 1.7029412743e+00 -2.9495808093e+00 1.7029412743e+00 2.9495808093e+00 
75700 6.8914666156e+00 1.4070641281e-05 1.7029412743e+00 -2.9495808093e+00 1.7029412743e+00 2.9495808093e+00 
75800 6.8914666167e+00 1.3385528275e-05 1.7029412743e+00 -2.9495808093e+00 1.7029412743e+00 2.9495808093e+00 
75900 6.8914666177e+00 1.2715119772e-05 1.7029412743e+00 -2.9495808093e+00 1.7029412743e+00 2.9495808093e+00 
76000 6.8914666186e+00 1.2059662818e-05 1.7029412743e+00 -2.9495808093e+00 1.7029412743e+00 2.9495808093e+00 
76100 6.8914666196e+00 1.1419389278e-05 1.7029412743e+00 -2.9495808093e+00 1.7029412743e+00 2.9495808093e+00 
76200 6.8914666205e+00 1.0794515934e-05 1.7029412743e+00 -2.9495808093e+00 1.7029412743e+00 2.9495808093e+00 
76300 6.8914666214e+00 1.0185244573e-05 1.7029412743e+00 -2.9495808093e+00 1.7029412743e+00 2.9495808093e+00 
76400 6.8914666223e+00 9.5917621122e-06 1.7029412743e+00 -2.9495808093e+00 1.7029412743e+00 2.9495808093e+00 
76500 6.8914666232e+00 9.0142407084e-06 1.7029412743e+00 -2.9495808093e+00 1.7029412743e+00 2.9495808093e+00 
76600 6.8914666240e+00 8.4528378876e-06 1.7029412743e+00 -2.9495808093e+00 1.7029412743e+00 2.9495808093e+00 
76700 6.8914666248e+00 7.9076966800e-06 1.7029412743e+00 -2.9495808093e+00 1.7029412743e+00 2.9495808093e+00 
76800 6.8914666257e+00 7.3789457606e-06 1.7029412743e+00 -2.9495808093e+00 1.7029412743e+00 2.9495808093e+00 
76900 6.8914666265e+00 6.8666996014e-06 1.7029412743e+00 -2.9495808093e+00 1.7029412743e+00 2.9495808093e+00 
77000 6.8914666272e+00 6.3710586308e-06 1.7029412743e+00 -2.9495808093e+00 1.7029412743e+00 2.9495808093e+00 
77100 6.8914666280e+00 5.8921093984e-06 1.7029412743e+00 -2.9495808093e+00 1.7029412743e+00 2.9495808093e+00 
77200 6.8914666288e+00 5.4299247459e-06 1.7029412743e+00 -2.9495808093e+00 1.7029412743e+00 2.9495808093e+00 
77300 6.8914666295e+00 4.9845639911e-06 1.7029412743e+00 -2.9495808093e+00 1.7029412743e+00 2.9495808093e+00 
77400 6.8914666302e+00 4.5560731102e-06 1.7029412743e+00 -2.9495808093e+00 1.7029412743e+00 2.9495808093e+00 
77500 6.8914666310e+00 4.1444849352e-06 1.7029412743e+00 -2.9495808093e+00 1.7029412743e+00 2.9495808093e+00 
77600 6.8914666317e+00 3.7498193511e-06 1.7029412743e+00 -2.9495808093e+00 1.7029412743e+00 2.9495808093e+00 
77700 6.8914666324e+00 3.3720835049e-06 1.7029412743e+00 -2.9495808093e+00 1.7029412743e+00 2.9495808093e+00 
77800 6.8914666331e+00 3.0112720119e-06 1.7029412743e+00 -2.9495808093e+00 1.7029412743e+00 2.9495808093e+00 
77900 6.8914666338e+00 2.6673671820e-06 1.7029412743e+00 -2.9495808093e+00 1.7029412743e+00 2.9495808093e+00 
78000 6.8914666344e+00 2.3403392381e-06 1.7029412743e+00 -2.9495808093e+00 1.7029412743e+00 2.9495808093e+00 
78100 6.8914666351e+00 2.0301465428e-06 1.7029412743e+00 -2.9495808093e+00 1.7029412743e+00 2.9495808093e+00 
78200 6.8914666358e+00 1.7367358388e-06 1.7029412743e+00 -2.9495808093e+00 1.7029412743e+00 2.9495808093e+00 
78300 6.8914666364e+00 1.4600424766e-06 1.7029412743e+00 -2.9495808093e+00 1.7029412743e+00 2.9495808093e+00 
78400 6.8914666371e+00 1.1999906761e-06 1.7029412743e+00 -2.9495808093e+00 1.7029412743e+00 2.9495808093e+00 
78500 6.8914666378e+00 9.5649375395e-07 1.7029412743e+00 -2.9495808093e+00 1.7029412743e+00 2.9495808093e+00 
78600 6.8914666384e+00 7.2945438420e-07 1.7029412743e+00 -2.9495808093e+00 1.7029412743e+00 2.9495808093e+00 
78700 6.8914666390e+00 5.1876485649e-07 1.7029412743e+00 -2.9495808093e+00 1.7029412743e+00 2.9495808093e+00 
78800 6.8914666397e+00 3.2430733419e-07 1.7029412743e+00 -2.9495808093e+00 1.7029412743e+00 2.9495808093e+00 
78900 6.8914666403e+00 1.4595411144e-07 1.7029412743e+00 -2.9495808093e+00 1.7029412743e+00 2.9495808093e+00 
79000 6.8914666409e+00 -1.6432113678e-08 1.7029412743e+00 -2.9495808093e+00 1.7029412743e+00 2.9495808093e+00 
79100 6.8914666416e+00 -1.6299797859e-07 1.7029412743e+00 -2.9495808093e+00 1.7029412743e+00 2.9495808093e+00 
79200 6.8914666422e+00 -2.9389917639e-07 1.7029412743e+00 -2.9495808093e+00 1.7029412743e+00 2.9495808093e+00 
79300 6.8914666428e+00 -4.0930018333e-07 1.7029412743e+00 -2.9495808093e+00 1.7029412743e+00 2.9495808093e+00 
79400 6.8914666434e+00 -5.0937399140e-07 1.7029412743e+00 -2.9495808093e+00 1.7029412743e+00 2.9495808093e+00 
79500 6.8914666440e+00 -5.9430182093e-07 1.7029412743e+00 -2.9495808093e+00 1.7029412743e+00 2.9495808093e+00 
79600 6.8914666446e+00 -6.6427284738e-07 1.7029412743e+00 -2.9495808093e+00 1.7029412743e+00 2.9495808093e+00 
79700 6.8914666453e+00 -7.1948391429e-07 1.7029412743e+00 -2.9495808093e+00 1.7029412743e+00 2.9495808093e+00 
79800 6.8914666459e+00 -7.6013925801e-07 1.7029412743e+00 -2.9495808093e+00 1.7029412743e+00 2.9495808093e+00 
79900 6.8914666465e+00 -7.8645021572e-07 1.7029412743e+00 -2.9495808093e+00 1.7029412743e+00 2.9495808093e+00 
80000 6.8914666471e+00 -7.9863495498e-07 1.7029412743e+00 -2.9495808093e+00 1.7029412743e+00 2.9495808093e+00 
80100 6.8914666477e+00 -7.9691817372e-07 1.7029412743e+00 -2.9495808093e+00 1.7029412743e+00 2.9495808093e+00 
80200 6.8914666483e+00 -7.8153082921e-07 1.7029412743e+00 -2.9495808093e+00 1.7029412743e+00 2.9495808093e+00 
80300 6.8914666489e+00 -7.5270984668e-07 1.7029412743e+00 -2.9495808093e+00 1.7029412743e+00 2.9495808093e+00 
80400 6.8914666495e+00 -7.1069782928e-07 1.7029412743e+00 -2.9495808093e+00 1.7029412743e+00 2.9495808093e+00 
80500 6.8914666500e+00 -6.5574278748e-07 1.7029412743e+00 -2.9495808093e+00 1.7029412743e+00 2.9495808093e+00 
80600 6.8914666506e+00 -5.8809784330e-07 1.7029412743e+00 -2.9495808093e+00 1.7029412743e+00 2.9495808093e+00 
80700 6.8914666512e+00 -5.0802095742e-07 1.7029412743e+00 -2.9495808093e+00 1.7029412743e+00 2.9495808093e+00 
80800 6.8914666518e+00 -4.1577463983e-07 1.7029412743e+00 -2.9495808093e+00 1.7029412743e+00 2.9495808093e+00 
80900 6.8914666524e+00 -3.1162567337e-07 1.7029412743e+00 -2.9495808093e+00 1.7029412743e+00 2.9495808093e+00 
81000 6.8914666530e+00 -1.9584483284e-07 1.7029412743e+00 -2.9495808093e+00 1.7029412743e+00 2.9495808093e+00 
81100 6.8914666535e+00 -6.8706611228e-08 1.7029412743e+00 -2.9495808093e+00 1.7029412743e+00 2.9495808093e+00 
81200 6.8914666541e+00 6.9511058525e-08 1.7029412743e+00 -2.9495808093e+00 1.7029412743e+00 2.9495808093e+00 
81300 6.8914666547e+00 2.1852707921e-07 1.7029412743e+00 -2.9495808093e+00 1.7029412743e+00 2.9495808093e+00 
81400 6.8914666552e+00 3.7805745369e-07 1.7029412743e+00 -2.9495808093e+00 1.7029412743e+00 2.9495808093e+00 
81500 6.8914666558e+00 5.4781555553e-07 1.7029412743e+00 -2.9495808093e+00 1.7029412743e+00 2.9495808093e+00 
81600 6.8914666564e+00 7.2751240366e-07 1.7029412743e+00 -2.9495808093e+00 1.7029412743e+00 2.9495808093e+00 
81700 6.8914666569e+00 9.1685691701e-07 1.7029412743e+00 -2.9495808093e+00 1.7029412743e+00 2.9495808093e+00 
81800 6.8914666575e+00 1.1155561730e-06 1.7029412743e+00 -2.9495808093e+00 1.7029412743e+00 2.9495808093e+00 
81900 6.8914666580e+00 1.3233156704e-06 1.7029412743e+00 -2.9495808093e+00 1.7029412743e+00 2.9495808093e+00 
82000 6.8914666585e+00 1.5398395843e-06 1.7029412743e+00 -2.9495808093e+00 1.7029412743e+00 2.9495808093e+00 
82100 6.8914666591e+00 1.7648310111e-06 1.7029412743e+00 -2.9495808093e+00 1.7029412743e+00 2.9495808093e+00 
82200 6.8914666596e+00 1.9979922225e-06 1.7029412743e+00 -2.9495808093e+00 1.7029412743e+00 2.9495808093e+00 
82300 6.8914666601e+00 2.2390249025e-06 1.7029412743e+00 -2.9495808093e+00 1.7029412743e+00 2.9495808093e+00 
82400 6.8914666607e+00 2.4876303882e-06 1.7029412743e+00 -2.9495808093e+00 1.7029412743e+00 2.9495808093e+00 
82500 6.8914666612e+00 2.7435099137e-06 1.7029412743e+00 -2.9495808093e+00 1.7029412743e+00 2.9495808093e+00 
82600 6.8914666617e+00 3.0063648287e-06 1.7029412743e+00 -2.9495808093e+00 1.7029412743e+00 2.9495808093e+00 
82700 6.8914666622e+00 3.2758968333e-06 1.7029412743e+00 -2.9495808093e+00 1.7029412743e+00 2.9495808093e+00 
82800 6.8914666627e+00 3.5518082046e-06 1.7029412743e+00 -2.9495808093e+00 1.7029412743e+00 2.9495808093e+00 
82900 6.8914666632e+00 3.8338020040e-06 1.7029412743e+00 -2.9495808093e+00 1.7029412743e+00 2.9495808093e+00 
83000 6.8914666637e+00 4.1215823033e-06 1.7029412743e+00 -2.9495808093e+00 1.7029412743e+00 2.9495808093e+00 
83100 6.8914666642e+00 4.4148543874e-06 1.7029412743e+00 -2.9495808093e+00 1.7029412743e+00 2.9495808093e+00 
83200 6.8914666647e+00 4.7133249641e-06 1.7029412743e+00 -2.9495808093e+00 1.7029412743e+00 2.9495808093e+00 
83300 6.8914666651e+00 5.0167023529e-06 1.7029412743e+00 -2.9495808093e+00 1.7029412743e+00 2.9495808093e+00 
83400 6.8914666656e+00 5.3246966977e-06 1.7029412743e+00 -2.9495808093e+00 1.7029412743e+00 2.9495808093e+00 
83500 6.8914666661e+00 5.6370201424e-06 1.7029412743e+00 -2.9495808093e+00 1.7029412743e+00 2.9495808093e+00 
83600 6.8914666665e+00 5.9533870206e-06 1.7029412743e+00 -2.9495808093e+00 1.7029412743e+00 2.9495808093e+00 
83700 6.8914666670e+00 6.2735140366e-06 1.7029412743e+00 -2.9495808093e+00 1.7029412743e+00 2.9495808093e+00 
83800 6.8914666674e+00 6.5971204437e-06 1.7029412743e+00 -2.9495808093e+00 1.7029412743e+00 2.9495808093e+00 
83900 6.8914666679e+00 6.9239282021e-06 1.7029412743e+00 -2.9495808093e+00 1.7029412743e+00 2.9495808093e+00 
84000 6.8914666683e+00 7.2536621602e-06 1.7029412743e+00 -2.9495808093e+00 1.7029412743e+00 2.9495808093e+00 
84100 6.8914666687e+00 7.5860501989e-06 1.7029412743e+00 -2.9495808093e+00 1.7029412743e+00 2.9495808093e+00 
84200 6.8914666691e+00 7.9208233928e-06 1.7029412743e+00 -2.9495808093e+00 1.7029412743e+00 2.9495808093e+00 
84300 6.8914666695e+00 8.2577161571e-06 1.7029412743e+00 -2.9495808093e+00 1.7029412743e+00 2.9495808093e+00 
84400 6.8914666699e+00 8.5964663926e-06 1.7029412743e+00 -2.9495808093e+00 1.7029412743e+00 2.9495808093e+00 
84500 6.8914666703e+00 8.9368156210e-06 1.7029412743e+00 -2.9495808093e+00 1.7029412743e+00 2.9495808093e+00 
84600 6.8914666707e+00 9.2785091136e-06 1.7029412743e+00 -2.9495808093e+00 1.7029412743e+00 2.9495808093e+00 
84700 6.8914666711e+00 9.6212960275e-06 1.7029412743e+00 -2.9495808093e+00 1.7029412743e+00 2.9495808093e+00 
84800 6.8914666715e+00 9.9649295235e-06 1.7029412743e+00 -2.9495808093e+00 1.7029412743e+00 2.9495808093e+00 
84900 6.8914666719e+00 1.0309166875e-05 1.7029412743e+00 -2.9495808093e+00 1.7029412743e+00 2.9495808093e+00 
85000 6.8914666722e+00 1.0653769583e-05 1.7029412743e+00 -2.9495808093e+00 1.7029412743e+00 2.9495808093e+00 
85100 6.8914666726e+00 1.0998503488e-05 1.7029412743e+00 -2.9495808093e+00 1.7029412743e+00 2.9495808093e+00 
85200 6.8914666730e+00 1.1343138856e-05 1.7029412743e+00 -2.9495808093e+00 1.7029412743e+00 2.9495808093e+00 
85300 6.8914666733e+00 1.1687450486e-05 1.7029412743e+00 -2.9495808093e+00 1.7029412743e+00 2.9495808093e+00 
85400 6.8914666737e+00 1.2031217787e-05 1.7029412743e+00 -2.9495808093e+00 1.7029412743e+00 2.9495808093e+00 
85500 6.8914666740e+00 1.2374224874e-05 1.7029412743e+00 -2.9495808093e+00 1.7029412743e+00 2.9495808093e+00 
85600 6.8914666743e+00 1.2716260636e-05 1.7029412743e+00 -2.9495808093e+00 1.7029412743e+00 2.9495808093e+00 
85700 6.8914666747e+00 1.3057118814e-05 1.7029412743e+00 -2.9495808093e+00 1.7029412743e+00 2.9495808093e+00 
85800 6.8914666750e+00 1.3396598063e-05 1.7029412743e+00 -2.9495808093e+00 1.7029412743e+00 2.9495808093e+00 
85900 6.8914666753e+00 1.3734502017e-05 1.7029412743e+00 -2.9495808093e+00 1.7029412743e+00 2.9495808093e+00 
86000 6.8914666756e+00 1.4070639357e-05 1.7029412743e+00 -2.9495808093e+00 1.7029412743e+00 2.9495808093e+00 
86100 6.8914666759e+00 1.4404823842e-05 1.7029412743e+00 -2.9495808093e+00 1.7029412743e+00 2.9495808093e+00 
86200 6.8914666762e+00 1.4736874372e-05 1.7029412743e+00 -2.9495808093e+00 1.7029412743e+00 2.9495808093e+00 
86300 6.8914666765e+00 1.5066615022e-05 1.7029412743e+00 -2.9495808093e+00 1.7029412743e+00 2.9495808093e+00 
86400 6.8914666768e+00 1.5393875088e-05 1.7029412743e+00 -2.9495808093e+00 1.7029412743e+00 2.9495808093e+00 
86500 6.8914666771e+00 1.5718489106e-05 1.7029412743e+00 -2.9495808093e+00 1.7029412743e+00 2.9495808093e+00 
86600 6.8914666774e+00 1.6040296886e-05 1.7029412743e+00 -2.9495808093e+00 1.7029412743e+00 2.9495808093e+00 
86700 6.8914666776e+00 1.6359143544e-05 1.7029412743e+00 -2.9495808093e+00 1.7029412743e+00 2.9495808093e+00 
86800 6.8914666779e+00 1.6674879498e-05 1.7029412743e+00 -2.9495808093e+00 1.7029412743e+00 2.9495808093e+00 
86900 6.8914666782e+00 1.6987360499e-05 1.7029412743e+00 -2.9495808093e+00 1.7029412743e+00 2.9495808093e+00 
87000 6.8914666784e+00 1.7296447635e-05 1.7029412743e+00 -2.9495808093e+00 1.7029412743e+00 2.9495808093e+00 
87100 6.8914666787e+00 1.7602007328e-05 1.7029412743e+00 -2.9495808093e+00 1.7029412743e+00 2.9495808093e+00 
87200 6.8914666789e+00 1.7903911345e-05 1.7029412743e+00 -2.9495808093e+00 1.7029412743e+00 2.9495808093e+00 
87300 6.8914666792e+00 1.8202036784e-05 1.7029412743e+00 -2.9495808093e+00 1.7029412743e+00 2.9495808093e+00 
87400 6.8914666794e+00 1.8496266073e-05 1.7029412743e+00 -2.9495808093e+00 1.7029412743e+00 2.9495808093e+00 
87500 6.8914666797e+00 1.8786486954e-05 1.7029412743e+00 -2.9495808093e+00 1.7029412743e+00 2.9495808093e+00 
87600 6.8914666799e+00 1.9072592456e-05 1.7029412743e+00 -2.9495808093e+00 1.7029412743e+00 2.9495808093e+00 
87700 6.8914666801e+00 1.9354480894e-05 1.7029412743e+00 -2.9495808093e+00 1.7029412743e+00 2.9495808093e+00 
87800 6.8914666803e+00 1.9632055826e-05 1.7029412743e+00 -2.9495808093e+00 1.7029412743e+00 2.9495808093e+00 
87900 6.8914666806e+00 1.9905226032e-05 1.7029412743e+00 -2.9495808093e+00 1.7029412743e+00 2.9495808093e+00 
88000 6.8914666808e+00 2.0173905487e-05 1.7029412743e+00 -2.9495808093e+00 1.7029412743e+00 2.9495808093e+00 
88100 6.8914666810e+00 2.0438013314e-05 1.7029412743e+00 -2.9495808093e+00 1.7029412743e+00 2.9495808093e+00 
88200 6.8914666812e+00 2.0697473751e-05 1.7029412743e+00 -2.9495808093e+00 1.7029412743e+00 2.9495808093e+00 
88300 6.8914666814e+00 2.0952216111e-05 1.7029412743e+00 -2.9495808093e+00 1.7029412743e+00 2.9495808093e+00 
88400 6.8914666816e+00 2.1202174730e-05 1.7029412743e+00 -2.9495808093e+00 1.7029412743e+00 2.9495808093e+00 
88500 6.8914666818e+00 2.1447288921e-05 1.7029412743e+00 -2.9495808093e+00 1.7029412743e+00 2.9495808093e+00 
88600 6.8914666820e+00 2.1687502921e-05 1.7029412743e+00 -2.9495808093e+00 1.7029412743e+00 2.9495808093e+00 
88700 6.8914666822e+00 2.1922765835e-05 1.7029412743e+00 -2.9495808093e+00 1.7029412743e+00 2.9495808093e+00 
88800 6.8914666824e+00 2.2153031586e-05 1.7029412743e+00 -2.9495808093e+00 1.7029412743e+00 2.9495808093e+00 
88900 6.8914666826e+00 2.2378258836e-05 1.7029412743e+00 -2.9495808093e+00 1.7029412743e+00 2.9495808093e+00 
89000 6.8914666828e+00 2.2598410947e-05 1.7029412743e+00 -2.9495808093e+00 1.7029412743e+00 2.9495808093e+00 
89100 6.8914666830e+00 2.2813455894e-05 1.7029412743e+00 -2.9495808093e+00 1.7029412743e+00 2.9495808093e+00 
89200 6.8914666832e+00 2.3023366206e-05 1.7029412743e+00 -2.9495808093e+00 1.7029412743e+00 2.9495808093e+00 
89300 6.8914666834e+00 2.3228118896e-05 1.7029412743e+00 -2.9495808093e+00 1.7029412743e+00 2.9495808093e+00 
89400 6.8914666836e+00 2.3427695386e-05 1.7029412743e+00 -2.9495808093e+00 1.7029412743e+00 2.9495808093e+00 
89500 6.8914666837e+00 2.3622081431e-05 1.7029412743e+00 -2.9495808093e+00 1.7029412743e+00 2.9495808093e+00 
89600 6.8914666839e+00 2.3811267042e-05 1.7029412743e+00 -2.9495808093e+00 1.7029412743e+00 2.9495808093e+00 
89700 6.8914666841e+00 2.3995246415e-05 1.7029412743e+00 -2.9495808093e+00 1.7029412743e+00 2.9495808093e+00 
89800 6.8914666843e+00 2.4174017831e-05 1.7029412743e+00 -2.9495808093e+00 1.7029412743e+00 2.9495808093e+00 
89900 6.8914666844e+00 2.4347583598e-05 1.7029412743e+00 -2.9495808093e+00 1.7029412743e+00 2.9495808093e+00 
90000 6.8914666846e+00 2.4515949950e-05 1.7029412743e+00 -2.9495808093e+00 1.7029412743e+00 2.9495808093e+00 
90100 6.8914666848e+00 2.4679126965e-05 1.7029412743e+00 -2.9495808093e+00 1.7029412743e+00 2.9495808093e+00 
90200 6.8914666849e+00 2.4837128476e-05 1.7029412743e+00 -2.9495808093e+00 1.7029412743e+00 2.9495808093e+00 
90300 6.8914666851e+00 2.4989971991e-05 1.7029412743e+00 -2.9495808093e+00 1.7029412743e+00 2.9495808093e+00 
90400 6.8914666852e+00 2.5137678594e-05 1.7029412743e+00 -2.9495808093e+00 1.7029412743e+00 2.9495808093e+00 
90500 6.8914666854e+00 2.5280272864e-05 1.7029412743e+00 -2.9495808093e+00 1.7029412743e+00 2.9495808093e+00 
90600 6.8914666856e+00 2.5417782769e-05 1.7029412743e+00 -2.9495808093e+00 1.7029412743e+00 2.9495808093e+00 
90700 6.8914666857e+00 2.5550239589e-05 1.7029412743e+00 -2.9495808093e+00 1.7029412743e+00 2.9495808093e+00 
90800 6.8914666859e+00 2.5677677815e-05 1.7029412743e+00 -2.9495808093e+00 1.7029412743e+00 2.9495808093e+00 
90900 6.8914666860e+00 2.5800135053e-05 1.7029412743e+00 -2.9495808093e+00 1.7029412743e+00 2.9495808093e+00 
91000 6.8914666862e+00 2.5917651933e-05 1.7029412743e+00 -2.9495808093e+00 1.7029412743e+00 2.9495808093e+00 
91100 6.8914666863e+00 2.6030272014e-05 1.7029412743e+00 -2.9495808093e+00 1.7029412743e+00 2.9495808093e+00 
91200 6.8914666865e+00 2.6138041680e-05 1.7029412743e+00 -2.9495808093e+00 1.7029412743e+00 2.9495808093e+00 
91300 6.8914666866e+00 2.6241010062e-05 1.7029412743e+00 -2.9495808093e+00 1.7029412743e+00 2.9495808093e+00 
91400 6.8914666868e+00 2.6339228923e-05 1.7029412743e+00 -2.9495808093e+00 1.7029412743e+00 2.9495808093e+00 
91500 6.8914666869e+00 2.6432752569e-05 1.7029412743e+00 -2.9495808093e+00 1.7029412743e+00 2.9495808093e+00 
91600 6.8914666871e+00 2.6521637754e-05 1.7029412743e+00 -2.9495808093e+00 1.7029412743e+00 2.9495808093e+00 
91700 6.8914666872e+00 2.6605943580e-05 1.7029412743e+00 -2.9495808093e+00 1.7029412743e+00 2.9495808093e+00 
91800 6.8914666873e+00 2.6685731405e-05 1.7029412743e+00 -2.9495808093e+00 1.7029412743e+00 2.9495808093e+00 
91900 6.8914666875e+00 2.6761064739e-05 1.7029412743e+00 -2.9495808093e+00 1.7029412743e+00 2.9495808093e+00 
92000 6.8914666876e+00 2.6832009156e-05 1.7029412743e+00 -2.9495808093e+00 1.7029412743e+00 2.9495808093e+00 
92100 6.8914666877e+00 2.6898632196e-05 1.7029412743e+00 -2.9495808093e+00 1.7029412743e+00 2.9495808093e+00 
92200 6.8914666879e+00 2.6961003261e-05 1.7029412743e+00 -2.9495808093e+00 1.7029412743e+00 2.9495808093e+00 
92300 6.8914666880e+00 2.7019193534e-05 1.7029412743e+00 -2.9495808093e+00 1.7029412743e+00 2.9495808093e+00 
92400 6.8914666881e+00 2.7073275870e-05 1.7029412743e+00 -2.9495808093e+00 1.7029412743e+00 2.9495808093e+00 
92500 6.8914666883e+00 2.7123324717e-05 1.7029412743e+00 -2.9495808093e+00 1.7029412743e+00 2.9495808093e+00 
92600 6.8914666884e+00 2.7169416012e-05 1.7029412743e+00 -2.9495808093e+00 1.7029412743e+00 2.9495808093e+00 
92700 6.8914666885e+00 2.7211627085e-05 1.7029412743e+00 -2.9495808093e+00 1.7029412743e+00 2.9495808093e+00 
92800 6.8914666887e+00 2.7250036582e-05 1.7029412743e+00 -2.9495808093e+00 1.7029412743e+00 2.9495808093e+00 
92900 6.8914666888e+00 2.7284724360e-05 1.7029412743e+00 -2.9495808093e+00 1.7029412743e+00 2.9495808093e+00 
93000 6.8914666889e+00 2.7315771403e-05 1.7029412743e+00 -2.9495808093e+00 1.7029412743e+00 2.9495808093e+00 
93100 6.8914666890e+00 2.7343259732e-05 1.7029412743e+00 -2.9495808093e+00 1.7029412743e+00 2.9495808093e+00 
93200 6.8914666892e+00 2.7367272317e-05 1.7029412743e+00 -2.9495808093e+00 1.7029412743e+00 2.9495808093e+00 
93300 6.8914666893e+00 2.7387892990e-05 1.7029412743e+00 -2.9495808093e+00 1.7029412743e+00 2.9495808093e+00 
93400 6.8914666894e+00 2.7405206357e-05 1.7029412743e+00 -2.9495808093e+00 1.7029412743e+00 2.9495808093e+00 
93500 6.8914666895e+00 2.7419297719e-05 1.7029412743e+00 -2.9495808093e+00 1.7029412743e+00 2.9495808093e+00 
93600 6.8914666896e+00 2.7430252979e-05 1.7029412743e+00 -2.9495808093e+00 1.7029412743e+00 2.9495808093e+00 
93700 6.8914666897e+00 2.7438158565e-05 1.7029412743e+00 -2.9495808093e+00 1.7029412743e+00 2.9495808093e+00 
93800 6.8914666899e+00 2.7443101354e-05 1.7029412743e+00 -2.9495808093e+00 1.7029412743e+00 2.9495808093e+00 
93900 6.8914666900e+00 2.7445168583e-05 1.7029412743e+00 -2.9495808093e+00 1.7029412743e+00 2.9495808093e+00 
94000 6.8914666901e+00 2.7444447771e-05 1.7029412743e+00 -2.9495808093e+00 1.7029412743e+00 2.9495808093e+00 
94100 6.8914666902e+00 2.7441026651e-05 1.7029412743e+00 -2.9495808093e+00 1.7029412743e+00 2.9495808093e+00 
94200 6.8914666903e+00 2.7434993088e-05 1.7029412743e+00 -2.9495808093e+00 1.7029412743e+00 2.9495808093e+00 
94300 6.8914666904e+00 2.7426435004e-05 1.7029412743e+00 -2.9495808093e+00 1.7029412743e+00 2.9495808093e+00 
94400 6.8914666905e+00 2.7415440310e-05 1.7029412743e+00 -2.9495808093e+00 1.7029412743e+00 2.9495808093e+00 
94500 6.8914666906e+00 2.7402096832e-05 1.7029412743e+00 -2.9495808093e+00 1.7029412743e+00 2.9495808093e+00 
94600 6.8914666907e+00 2.7386492238e-05 1.7029412743e+00 -2.9495808093e+00 1.7029412743e+00 2.9495808093e+00 
94700 6.8914666908e+00 2.7368713980e-05 1.7029412743e+00 -2.9495808093e+00 1.7029412743e+00 2.9495808093e+00 
94800 6.8914666909e+00 2.7348849217e-05 1.7029412743e+00 -2.9495808093e+00 1.7029412743e+00 2.9495808093e+00 
94900 6.8914666910e+00 2.7326984760e-05 1.7029412743e+00 -2.9495808093e+00 1.7029412743e+00 2.9495808093e+00 
95000 6.8914666911e+00 2.7303207003e-05 1.7029412743e+00 -2.9495808093e+00 1.7029412743e+00 2.9495808093e+00 
95100 6.8914666912e+00 2.7277601861e-05 1.7029412743e+00 -2.9495808093e+00 1.7029412743e+00 2.9495808093e+00 
95200 6.8914666913e+00 2.7250254715e-05 1.7029412743e+00 -2.9495808093e+00 1.7029412743e+00 2.9495808093e+00 
95300 6.8914666914e+00 2.7221250355e-05 1.7029412743e+00 -2.9495808093e+00 1.7029412743e+00 2.9495808093e+00 
95400 6.8914666915e+00 2.7190672914e-05 1.7029412743e+00 -2.9495808093e+00 1.7029412743e+00 2.9495808093e+00 
95500 6.8914666916e+00 2.7158605823e-05 1.7029412743e+00 -2.9495808093e+00 1.7029412743e+00 2.9495808093e+00 
95600 6.8914666917e+00 2.7125131758e-05 1.7029412743e+00 -2.9495808093e+00 1.7029412743e+00 2.9495808093e+00 
95700 6.8914666918e+00 2.7090332584e-05 1.7029412743e+00 -2.9495808093e+00 1.7029412743e+00 2.9495808093e+00 
95800 6.8914666919e+00 2.7054289313e-05 1.7029412743e+00 -2.9495808093e+00 1.7029412743e+00 2.9495808093e+00 
95900 6.8914666920e+00 2.7017082046e-05 1.7029412743e+00 -2.9495808093e+00 1.7029412743e+00 2.9495808093e+00 
96000 6.8914666921e+00 2.6978789940e-05 1.7029412743e+00 -2.9495808093e+00 1.7029412743e+00 2.9495808093e+00 
96100 6.8914666922e+00 2.6939491153e-05 1.7029412743e+00 -2.9495808093e+00 1.7029412743e+00 2.9495808093e+00 
96200 6.8914666922e+00 2.6899262809e-05 1.7029412743e+00 -2.9495808093e+00 1.7029412743e+00 2.9495808093e+00 
96300 6.8914666923e+00 2.6858180956e-05 1.7029412743e+00 -2.9495808093e+00 1.7029412743e+00 2.9495808093e+00 
96400 6.8914666924e+00 2.6816320525e-05 1.7029412743e+00 -2.9495808093e+00 1.7029412743e+00 2.9495808093e+00 
96500 6.8914666925e+00 2.6773755295e-05 1.7029412743e+00 -2.9495808093e+00 1.7029412743e+00 2.9495808093e+00 
96600 6.8914666926e+00 2.6730557860e-05 1.7029412743e+00 -2.9495808093e+00 1.7029412743e+00 2.9495808093e+00 
96700 6.8914666926e+00 2.6686799591e-05 1.7029412743e+00 -2.9495808093e+00 1.7029412743e+00 2.9495808093e+00 
96800 6.8914666927e+00 2.6642550606e-05 1.7029412743e+00 -2.9495808093e+00 1.7029412743e+00 2.9495808093e+00 
96900 6.8914666928e+00 2.6597879743e-05 1.7029412743e+00 -2.9495808093e+00 1.7029412743e+00 2.9495808093e+00 
97000 6.8914666929e+00 2.6552854526e-05 1.7029412743e+00 -2.9495808093e+00 1.7029412743e+00 2.9495808093e+00 
97100 6.8914666930e+00 2.6507541150e-05 1.7029412743e+00 -2.9495808093e+00 1.7029412743e+00 2.9495808093e+00 
97200 6.8914666930e+00 2.6462004437e-05 1.7029412743e+00 -2.9495808093e+00 1.7029412743e+00 2.9495808093e+00 
97300 6.8914666931e+00 2.6416307834e-05 1.7029412743e+00 -2.9495808093e+00 1.7029412743e+00 2.9495808093e+00 
97400 6.8914666932e+00 2.6370513375e-05 1.7029412743e+00 -2.9495808093e+00 1.7029412743e+00 2.9495808093e+00 
97500 6.8914666932e+00 2.6324681671e-05 1.7029412743e+00 -2.9495808093e+00 1.7029412743e+00 2.9495808093e+00 
97600 6.8914666933e+00 2.6278871882e-05 1.7029412743e+00 -2.9495808093e+00 1.7029412743e+00 2.9495808093e+00 
97700 6.8914666934e+00 2.6233141712e-05 1.7029412743e+00 -2.9495808093e+00 1.7029412743e+00 2.9495808093e+00 
97800 6.8914666935e+00 2.6187547391e-05 1.7029412743e+00 -2.9495808093e+00 1.7029412743e+00 2.9495808093e+00 
97900 6.8914666935e+00 2.6142143652e-05 1.7029412743e+00 -2.9495808093e+00 1.7029412743e+00 2.9495808093e+00 
98000 6.8914666936e+00 2.6096983729e-05 1.7029412743e+00 -2.9495808093e+00 1.7029412743e+00 2.9495808093e+00 
98100 6.8914666937e+00 2.6052119340e-05 1.7029412743e+00 -2.9495808093e+00 1.7029412743e+00 2.9495808093e+00 
98200 6.8914666937e+00 2.6007600685e-05 1.7029412743e+00 -2.9495808093e+00 1.7029412743e+00 2.9495808093e+00 
98300 6.8914666938e+00 2.5963476434e-05 1.7029412743e+00 -2.9495808093e+00 1.7029412743e+00 2.9495808093e+00 
98400 6.8914666938e+00 2.5919793717e-05 1.7029412743e+00 -2.9495808093e+00 1.7029412743e+00 2.9495808093e+00 
98500 6.8914666939e+00 2.5876598129e-05 1.7029412743e+00 -2.9495808093e+00 1.7029412743e+00 2.9495808093e+00 
98600 6.8914666940e+00 2.5833933715e-05 1.7029412743e+00 -2.9495808093e+00 1.7029412743e+00 2.9495808093e+00 
98700 6.8914666940e+00 2.5791842979e-05 1.7029412743e+00 -2.9495808093e+00 1.7029412743e+00 2.9495808093e+00 
98800 6.8914666941e+00 2.5750366875e-05 1.7029412743e+00 -2.9495808093e+00 1.7029412743e+00 2.9495808093e+00 
98900 6.8914666941e+00 2.5709544812e-05 1.7029412743e+00 -2.9495808093e+00 1.7029412743e+00 2.9495808093e+00 
99000 6.8914666942e+00 2.5669414656e-05 1.7029412743e+00 -2.9495808093e+00 1.7029412743e+00 2.9495808093e+00 
99100 6.8914666943e+00 2.5630012729e-05 1.7029412743e+00 -2.9495808093e+00 1.7029412743e+00 2.9495808093e+00 
99200 6.8914666943e+00 2.5591373818e-05 1.7029412743e+00 -2.9495808093e+00 1.7029412743e+00 2.9495808093e+00 
99300 6.8914666944e+00 2.5553531178e-05 1.7029412743e+00 -2.9495808093e+00 1.7029412743e+00 2.9495808093e+00 
99400 6.8914666944e+00 2.5516516541e-05 1.7029412743e+00 -2.9495808093e+00 1.7029412743e+00 2.9495808093e+00 
99500 6.8914666945e+00 2.5480360120e-05 1.7029412743e+00 -2.9495808093e+00 1.7029412743e+00 2.9495808093e+00 
99600 6.8914666945e+00 2.5445090623e-05 1.7029412743e+00 -2.9495808093e+00 1.7029412743e+00 2.9495808093e+00 
99700 6.8914666946e+00 2.5410735255e-05 1.7029412743e+00 -2.9495808093e+00 1.7029412743e+00 2.9495808093e+00 
99800 6.8914666946e+00 2.5377319738e-05 1.7029412743e+00 -2.9495808093e+00 1.7029412743e+00 2.9495808093e+00 
99900 6.8914666947e+00 2.5344868318e-05 1.7029412743e+00 -2.9495808093e+00 1.7029412743e+00 2.9495808093e+00 
100000 6.8914666947e+00 2.5313403776e-05 1.7029412743e+00 -2.9495808093e+00 1.7029412743e+00 2.9495808093e+00 
100100 6.8914666948e+00 2.5282947448e-05 1.7029412743e+00 -2.9495808093e+00 1.7029412743e+00 2.9495808093e+00 
100200 6.8914666948e+00 2.5253519236e-05 1.7029412743e+00 -2.9495808093e+00 1.7029412743e+00 2.9495808093e+00 
100300 6.8914666949e+00 2.5225137622e-05 1.7029412743e+00 -2.9495808093e+00 1.7029412743e+00 2.9495808093e+00 
100400 6.8914666949e+00 2.5197819690e-05 1.7029412743e+00 -2.9495808093e+00 1.7029412743e+00 2.9495808093e+00 
100500 6.8914666950e+00 2.5171581139e-05 1.7029412743e+00 -2.9495808093e+00 1.7029412743e+00 2.9495808093e+00 
100600 6.8914666950e+00 2.5151377126e-05 1.7029412743e+00 -2.9495808093e+00 1.7029412743e+00 2.9495808093e+00 
100600 6.8914666950e+00 2.5151377127e-05 1.7029412743e+00 -2.9495808093e+00 1.7029412743e+00 2.9495808093e+00 
