# step Hamiltonian StressXX CellTensor1 CellTensor2 CellTensor3 CellTensor4 
0 3.3194678808e+00 -1.8105027735e-02 2.2220832177e+00 -3.8487610317e+00 2.2220832177e+00 3.8487610317e+00 
100 3.2844538278e+00 -1.8090923922e-02 2.2220832177e+00 -3.8487610317e+00 2.2220832177e+00 3.8487610317e+00 
200 3.2528266558e+00 -1.7340438391e-02 2.2224903014e+00 -3.8494661213e+00 2.2224903014e+00 3.8494661213e+00 
300 3.2242193993e+00 -1.6131925967e-02 2.2228804256e+00 -3.8501418363e+00 2.2228804256e+00 3.8501418363e+00 
400 3.1982955471e+00 -1.4547157997e-02 2.2232432963e+00 -3.8507703468e+00 2.2232432963e+00 3.8507703468e+00 
500 3.1747542721e+00 -1.2665616754e-02 2.2235704651e+00 -3.8513370197e+00 2.2235704651e+00 3.8513370197e+00 
600 3.1533287412e+00 -1.0562397203e-02 2.2238552747e+00 -3.8518303245e+00 2.2238552747e+00 3.8518303245e+00 
700 3.1337842104e+00 -8.3064885238e-03 2.2240927584e+00 -3.8522416583e+00 2.2240927584e+00 3.8522416583e+00 
800 3.1159158632e+00 -5.9594935329e-03 2.2242794998e+00 -3.8525651039e+00 2.2242794998e+00 3.8525651039e+00 
900 3.0995463978e+00 -3.5748111021e-03 2.2244134657e+00 -3.8527971397e+00 2.2244134657e+00 3.8527971397e+00 
1000 3.0845234032e+00 -1.1972723737e-03 2.2244938202e+00 -3.8529363178e+00 2.2244938202e+00 3.8529363178e+00 
1100 3.0707165957e+00 1.1368096830e-03 2.2245207314e+00 -3.8529829293e+00 2.2245207314e+00 3.8529829293e+00 
1200 3.0580150014e+00 3.3992424334e-03 2.2244951797e+00 -3.8529386724e+00 2.2244951797e+00 3.8529386724e+00 
1300 3.0463241777e+00 5.5692880275e-03 2.2244187753e+00 -3.8528063361e+00 2.2244187753e+00 3.8528063361e+00 
1400 3.0355635568e+00 7.6328164042e-03 2.2242935912e+00 -3.8525895110e+00 2.2242935912e+00 3.8525895110e+00 
1500 3.0256639854e+00 9.5813598202e-03 2.2241220150e+00 -3.8522923322e+00 2.2241220150e+00 3.8522923322e+00 
1600 3.0165655119e+00 1.1411141617e-02 2.2239066220e+00 -3.8519192606e+00 2.2239066220e+00 3.8519192606e+00 
1700 3.0082154553e+00 1.3122137330e-02 2.2236500707e+00 -3.8514749008e+00 2.2236500707e+00 3.8514749008e+00 
1800 3.0005667681e+00 1.4717209939e-02 2.2233550188e+00 -3.8509638557e+00 2.2233550188e+00 3.8509638557e+00 
1900 2.9935766895e+00 1.6201345267e-02 2.2230240585e+00 -3.8503906157e+00 2.2230240585e+00 3.8503906157e+00 
2000 2.9872056726e+00 1.7580999793e-02 2.2226596696e+00 -3.8497594757e+00 2.2226596696e+00 3.8497594757e+00 
2100 2.9814165579e+00 1.8863562337e-02 2.2222641867e+00 -3.8490744792e+00 2.2222641867e+00 3.8490744792e+00 
2200 2.9761739626e+00 2.0056923353e-02 2.2218397781e+00 -3.8483393819e+00 2.2218397781e+00 3.8483393819e+00 
2300 2.9714438508e+00 2.1169140769e-02 2.2213884349e+00 -3.8475576326e+00 2.2213884349e+00 3.8475576326e+00 
2400 2.9671932523e+00 2.2208188891e-02 2.2209119675e+00 -3.8467323669e+00 2.2209119675e+00 3.8467323669e+00 
2500 2.9633900964e+00 2.3181776319e-02 2.2204120072e+00 -3.8458664103e+00 2.2204120072e+00 3.8458664103e+00 
2600 2.9600031355e+00 2.4097219462e-02 2.2198900125e+00 -3.8449622889e+00 2.2198900125e+00 3.8449622889e+00 
2700 2.9570019321e+00 2.4961359611e-02 2.2193472776e+00 -3.8440222444e+00 2.2193472776e+00 3.8440222444e+00 
2800 2.9543568904e+00 2.5780513289e-02 2.2187849432e+00 -3.8430482527e+00 2.2187849432e+00 3.8430482527e+00 
2900 2.9520393148e+00 2.6560447416e-02 2.2182040084e+00 -3.8420420441e+00 2.2182040084e+00 3.8420420441e+00 
3000 2.9500214843e+00 2.7306372511e-02 2.2176053427e+00 -3.8410051247e+00 2.2176053427e+00 3.8410051247e+00 
3100 2.9482767306e+00 2.8022948726e-02 2.2169896987e+00 -3.8399387980e+00 2.2169896987e+00 3.8399387980e+00 
3200 2.9467795153e+00 2.8714300757e-02 2.2163577242e+00 -3.8388441861e+00 2.2163577242e+00 3.8388441861e+00 
3300 2.9455054987e+00 2.9384038719e-02 2.2157099745e+00 -3.8377222507e+00 2.2157099745e+00 3.8377222507e+00 
3400 2.9444315990e+00 3.0035282922e-02 2.2150469236e+00 -3.8365738128e+00 2.2150469236e+00 3.8365738128e+00 
3500 2.9435360375e+00 3.0670691064e-02 2.2143689752e+00 -3.8353995717e+00 2.2143689752e+00 3.8353995717e+00 
3600 2.9427983717e+00 3.1292486842e-02 2.2136764733e+00 -3.8342001233e+00 2.2136764733e+00 3.8342001233e+00 
3700 2.9421995139e+00 3.1902489316e-02 2.2129697119e+00 -3.8329759767e+00 2.2129697119e+00 3.8329759767e+00 
3800 2.9417217361e+00 3.2502142557e-02 2.2122489439e+00 -3.8317275698e+00 2.2122489439e+00 3.8317275698e+00 
3900 2.9413486632e+00 3.3092545300e-02 2.2115143895e+00 -3.8304552843e+00 2.2115143895e+00 3.8304552843e+00 
4000 2.9410652542e+00 3.3674480389e-02 2.2107662443e+00 -3.8291594588e+00 2.2107662443e+00 3.8291594588e+00 
4100 2.9408577732e+00 3.4248443872e-02 2.2100046860e+00 -3.8278404011e+00 2.2100046860e+00 3.8278404011e+00 
4200 2.9407137518e+00 3.4814673631e-02 2.2092298813e+00 -3.8264984000e+00 2.2092298813e+00 3.8264984000e+00 
4300 2.9406219431e+00 3.5373177432e-02 2.2084419913e+00 -3.8251337344e+00 2.2084419913e+00 3.8251337344e+00 
4400 2.9405722704e+00 3.5923760311e-02 2.2076411770e+00 -3.8237466834e+00 2.2076411770e+00 3.8237466834e+00 
4500 2.9405557701e+00 3.6466051176e-02 2.2068276038e+00 -3.8223375333e+00 2.2068276038e+00 3.8223375333e+00 
4600 2.9405645305e+00 3.6999528525e-02 2.2060014456e+00 -3.8209065853e+00 2.2060014456e+00 3.8209065853e+00 
4700 2.9405916287e+00 3.7523545165e-02 2.2051628880e+00 -3.8194541610e+00 2.2051628880e+00 3.8194541610e+00 
4800 2.9406310652e+00 3.8037351828e-02 2.2043121316e+00 -3.8179806076e+00 2.2043121316e+00 3.8179806076e+00 
4900 2.9406776969e+00 3.8540119569e-02 2.2034493937e+00 -3.8164863019e+00 2.2034493937e+00 3.8164863019e+00 
5000 2.9407271710e+00 3.9030960849e-02 2.2025749110e+00 -3.8149716533e+00 2.2025749110e+00 3.8149716533e+00 
5100 2.9407758591e+00 3.9508949218e-02 2.2016889402e+00 -3.8134371068e+00 2.2016889402e+00 3.8134371068e+00 
5200 2.9408207923e+00 3.9973137511e-02 2.2007917593e+00 -3.8118831439e+00 2.2007917593e+00 3.8118831439e+00 
5300 2.9408595981e+00 4.0422574506e-02 2.1998836682e+00 -3.8103102840e+00 2.1998836682e+00 3.8103102840e+00 
5400 2.9408904394e+00 4.0856319991e-02 2.1989649887e+00 -3.8087190845e+00 2.1989649887e+00 3.8087190845e+00 
5500 2.9409119564e+00 4.1273458226e-02 2.1980360644e+00 -3.8071101404e+00 2.1980360644e+00 3.8071101404e+00 
5600 2.9409232107e+00 4.1673109789e-02 2.1970972600e+00 -3.8054840834e+00 2.1970972600e+00 3.8054840834e+00 
5700 2.9409236325e+00 4.2054441815e-02 2.1961489608e+00 -3.8038415811e+00 2.1961489608e+00 3.8038415811e+00 
5800 2.9409129716e+00 4.2416676676e-02 2.1951915716e+00 -3.8021833344e+00 2.1951915716e+00 3.8021833344e+00 
5900 2.9408912512e+00 4.2759099128e-02 2.1942255155e+00 -3.8005100761e+00 2.1942255155e+00 3.8005100761e+00 
6000 2.9408587246e+00 4.3081062018e-02 2.1932512325e+00 -3.7988225685e+00 2.1932512325e+00 3.7988225685e+00 
6100 2.9408158363e+00 4.3381990602e-02 2.1922691780e+00 -3.7971216001e+00 2.1922691780e+00 3.7971216001e+00 
6200 2.9407631859e+00 4.3661385583e-02 2.1912798212e+00 -3.7954079840e+00 2.1912798212e+00 3.7954079840e+00 
6300 2.9407014950e+00 4.3918824960e-02 2.1902836437e+00 -3.7936825539e+00 2.1902836437e+00 3.7936825539e+00 
6400 2.9406315778e+00 4.4153964791e-02 2.1892811372e+00 -3.7919461616e+00 2.1892811372e+00 3.7919461616e+00 
6500 2.9405543148e+00 4.4366538983e-02 2.1882728022e+00 -3.7901996743e+00 2.1882728022e+00 3.7901996743e+00 
6600 2.9404706289e+00 4.4556358227e-02 2.1872591463e+00 -3.7884439708e+00 2.1872591463e+00 3.7884439708e+00 
6700 2.9403814654e+00 4.4723308166e-02 2.1862406822e+00 -3.7866799392e+00 2.1862406822e+00 3.7866799392e+00 
6800 2.9402877731e+00 4.4867346939e-02 2.1852179261e+00 -3.7849084737e+00 2.1852179261e+00 3.7849084737e+00 
6900 2.9401904899e+00 4.4988502182e-02 2.1841913962e+00 -3.7831304717e+00 2.1841913962e+00 3.7831304717e+00 
7000 2.9400905288e+00 4.5086867592e-02 2.1831616109e+00 -3.7813468312e+00 2.1831616109e+00 3.7813468312e+00 
7100 2.9399887675e+00 4.5162599165e-02 2.1821290874e+00 -3.7795584481e+00 2.1821290874e+00 3.7795584481e+00 
7200 2.9398860394e+00 4.5215911171e-02 2.1810943405e+00 -3.7777662138e+00 2.1810943405e+00 3.7777662138e+00 
7300 2.9397831263e+00 4.5247071971e-02 2.1800578808e+00 -3.7759710130e+00 2.1800578808e+00 3.7759710130e+00 
7400 2.9396807532e+00 4.5256399738e-02 2.1790202138e+00 -3.7741737211e+00 2.1790202138e+00 3.7741737211e+00 
7500 2.9395795845e+00 4.5244258141e-02 2.1779818388e+00 -3.7723752028e+00 2.1779818388e+00 3.7723752028e+00 
7600 2.9394802211e+00 4.5211052070e-02 2.1769432475e+00 -3.7705763098e+00 2.1769432475e+00 3.7705763098e+00 
7700 2.9393831993e+00 4.5157223425e-02 2.1759049233e+00 -3.7687778796e+00 2.1759049233e+00 3.7687778796e+00 
7800 2.9392889903e+00 4.5083247030e-02 2.1748673405e+00 -3.7669807334e+00 2.1748673405e+00 3.7669807334e+00 
7900 2.9391980012e+00 4.4989626696e-02 2.1738309631e+00 -3.7651856752e+00 2.1738309631e+00 3.7651856752e+00 
8000 2.9391105757e+00 4.4876891462e-02 2.1727962448e+00 -3.7633934905e+00 2.1727962448e+00 3.7633934905e+00 
8100 2.9390269969e+00 4.4745592037e-02 2.1717636276e+00 -3.7616049450e+00 2.1717636276e+00 3.7616049450e+00 
8200 2.9389474891e+00 4.4596297449e-02 2.1707335419e+00 -3.7598207843e+00 2.1707335419e+00 3.7598207843e+00 
8300 2.9388722218e+00 4.4429591922e-02 2.1697064057e+00 -3.7580417322e+00 2.1697064057e+00 3.7580417322e+00 
8400 2.9388013121e+00 4.4246071975e-02 2.1686826245e+00 -3.7562684910e+00 2.1686826245e+00 3.7562684910e+00 
8500 2.9387348292e+00 4.4046343747e-02 2.1676625904e+00 -3.7545017403e+00 2.1676625904e+00 3.7545017403e+00 
8600 2.9386727977e+00 4.3831020545e-02 2.1666466827e+00 -3.7527421366e+00 2.1666466827e+00 3.7527421366e+00 
8700 2.9386152019e+00 4.3600720608e-02 2.1656352671e+00 -3.7509903132e+00 2.1656352671e+00 3.7509903132e+00 
8800 2.9385619895e+00 4.3356065080e-02 2.1646286954e+00 -3.7492468800e+00 2.1646286954e+00 3.7492468800e+00 
8900 2.9385130761e+00 4.3097676178e-02 2.1636273061e+00 -3.7475124228e+00 2.1636273061e+00 3.7475124228e+00 
9000 2.9384683486e+00 4.2826175543e-02 2.1626314237e+00 -3.7457875039e+00 2.1626314237e+00 3.7457875039e+00 
9100 2.9384276696e+00 4.2542182768e-02 2.1616413589e+00 -3.7440726613e+00 2.1616413589e+00 3.7440726613e+00 
9200 2.9383908808e+00 4.2246314081e-02 2.1606574086e+00 -3.7423684094e+00 2.1606574086e+00 3.7423684094e+00 
9300 2.9383578067e+00 4.1939181175e-02 2.1596798559e+00 -3.7406752385e+00 2.1596798559e+00 3.7406752385e+00 
9400 2.9383282580e+00 4.1621390163e-02 2.1587089704e+00 -3.7389936155e+00 2.1587089704e+00 3.7389936155e+00 
9500 2.9383020348e+00 4.1293540661e-02 2.1577450079e+00 -3.7373239835e+00 2.1577450079e+00 3.7373239835e+00 
9600 2.9382789296e+00 4.0956224967e-02 2.1567882107e+00 -3.7356667621e+00 2.1567882107e+00 3.7356667621e+00 
9700 2.9382587302e+00 4.0610027339e-02 2.1558388078e+00 -3.7340223481e+00 2.1558388078e+00 3.7340223481e+00 
9800 2.9382412217e+00 4.0255523349e-02 2.1548970150e+00 -3.7323911151e+00 2.1548970150e+00 3.7323911151e+00 
9900 2.9382261893e+00 3.9893279313e-02 2.1539630350e+00 -3.7307734143e+00 2.1539630350e+00 3.7307734143e+00 
10000 2.9382134203e+00 3.9523851778e-02 2.1530370577e+00 -3.7291695745e+00 2.1530370577e+00 3.7291695745e+00 
10100 2.9382027055e+00 3.9147787071e-02 2.1521192602e+00 -3.7275799025e+00 2.1521192602e+00 3.7275799025e+00 
10200 2.9381938413e+00 3.8765620877e-02 2.1512098071e+00 -3.7260046836e+00 2.1512098071e+00 3.7260046836e+00 
10300 2.9381866307e+00 3.8377877879e-02 2.1503088510e+00 -3.7244441818e+00 2.1503088510e+00 3.7244441818e+00 
10400 2.9381808844e+00 3.7985071409e-02 2.1494165321e+00 -3.7228986403e+00 2.1494165321e+00 3.7228986403e+00 
10500 2.9381764220e+00 3.7587703145e-02 2.1485329791e+00 -3.7213682816e+00 2.1485329791e+00 3.7213682816e+00 
10600 2.9381730728e+00 3.7186262822e-02 2.1476583090e+00 -3.7198533085e+00 2.1476583090e+00 3.7198533085e+00 
10700 2.9381706758e+00 3.6781227976e-02 2.1467926275e+00 -3.7183539041e+00 2.1467926275e+00 3.7183539041e+00 
10800 2.9381690808e+00 3.6373063697e-02 2.1459360291e+00 -3.7168702322e+00 2.1459360291e+00 3.7168702322e+00 
10900 2.9381681483e+00 3.5962222409e-02 2.1450885978e+00 -3.7154024381e+00 2.1450885978e+00 3.7154024381e+00 
11000 2.9381677496e+00 3.5549143659e-02 2.1442504068e+00 -3.7139506487e+00 2.1442504068e+00 3.7139506487e+00 
11100 2.9381677669e+00 3.5134253936e-02 2.1434215192e+00 -3.7125149732e+00 2.1434215192e+00 3.7125149732e+00 
11200 2.9381680932e+00 3.4717966490e-02 2.1426019880e+00 -3.7110955036e+00 2.1426019880e+00 3.7110955036e+00 
11300 2.9381686320e+00 3.4300681179e-02 2.1417918567e+00 -3.7096923151e+00 2.1417918567e+00 3.7096923151e+00 
11400 2.9381692972e+00 3.3882784330e-02 2.1409911593e+00 -3.7083054665e+00 2.1409911593e+00 3.7083054665e+00 
11500 2.9381700124e+00 3.3464648617e-02 2.1401999208e+00 -3.7069350011e+00 2.1401999208e+00 3.7069350011e+00 
11600 2.9381707109e+00 3.3046632954e-02 2.1394181571e+00 -3.7055809467e+00 2.1394181571e+00 3.7055809467e+00 
11700 2.9381713348e+00 3.2629082417e-02 2.1386458760e+00 -3.7042433166e+00 2.1386458760e+00 3.7042433166e+00 
11800 2.9381718349e+00 3.2212328169e-02 2.1378830769e+00 -3.7029221099e+00 2.1378830769e+00 3.7029221099e+00 
11900 2.9381721700e+00 3.1796687427e-02 2.1371297514e+00 -3.7016173119e+00 2.1371297514e+00 3.7016173119e+00 
12000 2.9381723063e+00 3.1382463428e-02 2.1363858836e+00 -3.7003288950e+00 2.1363858836e+00 3.7003288950e+00 
12100 2.9381722168e+00 3.0969945435e-02 2.1356514502e+00 -3.6990568189e+00 2.1356514502e+00 3.6990568189e+00 
12200 2.9381718809e+00 3.0559408753e-02 2.1349264210e+00 -3.6978010316e+00 2.1349264210e+00 3.6978010316e+00 
12300 2.9381712837e+00 3.0151114776e-02 2.1342107593e+00 -3.6965614692e+00 2.1342107593e+00 3.6965614692e+00 
12400 2.9381704157e+00 2.9745311053e-02 2.1335044221e+00 -3.6953380572e+00 2.1335044221e+00 3.6953380572e+00 
12500 2.9381692719e+00 2.9342231378e-02 2.1328073602e+00 -3.6941307106e+00 2.1328073602e+00 3.6941307106e+00 
12600 2.9381678514e+00 2.8942095903e-02 2.1321195190e+00 -3.6929393348e+00 2.1321195190e+00 3.6929393348e+00 
12700 2.9381661571e+00 2.8545111276e-02 2.1314408385e+00 -3.6917638256e+00 2.1314408385e+00 3.6917638256e+00 
12800 2.9381641950e+00 2.8151470801e-02 2.1307712535e+00 -3.6906040704e+00 2.1307712535e+00 3.6906040704e+00 
12900 2.9381619738e+00 2.7761354618e-02 2.1301106942e+00 -3.6894599481e+00 2.1301106942e+00 3.6894599481e+00 
13000 2.9381595045e+00 2.7374929907e-02 2.1294590863e+00 -3.6883313302e+00 2.1294590863e+00 3.6883313302e+00 
13100 2.9381567999e+00 2.6992351114e-02 2.1288163515e+00 -3.6872180807e+00 2.1288163515e+00 3.6872180807e+00 
13200 2.9381538746e+00 2.6613760197e-02 2.1281824074e+00 -3.6861200573e+00 2.1281824074e+00 3.6861200573e+00 
13300 2.9381507440e+00 2.6239286885e-02 2.1275571683e+00 -3.6850371115e+00 2.1275571683e+00 3.6850371115e+00 
13400 2.9381474246e+00 2.5869048965e-02 2.1269405451e+00 -3.6839690889e+00 2.1269405451e+00 3.6839690889e+00 
13500 2.9381439335e+00 2.5503152580e-02 2.1263324460e+00 -3.6829158302e+00 2.1263324460e+00 3.6829158302e+00 
13600 2.9381402881e+00 2.5141692542e-02 2.1257327760e+00 -3.6818771714e+00 2.1257327760e+00 3.6818771714e+00 
13700 2.9381365058e+00 2.4784752662e-02 2.1251414381e+00 -3.6808529441e+00 2.1251414381e+00 3.6808529441e+00 
13800 2.9381326041e+00 2.4432406094e-02 2.1245583330e+00 -3.6798429764e+00 2.1245583330e+00 3.6798429764e+00 
13900 2.9381286002e+00 2.4084715683e-02 2.1239833593e+00 -3.6788470927e+00 2.1239833593e+00 3.6788470927e+00 
14000 2.9381245107e+00 2.3741734337e-02 2.1234164141e+00 -3.6778651148e+00 2.1234164141e+00 3.6778651148e+00 
14100 2.9381203519e+00 2.3403505391e-02 2.1228573929e+00 -3.6768968618e+00 2.1228573929e+00 3.6768968618e+00 
14200 2.9381161394e+00 2.3070062995e-02 2.1223061903e+00 -3.6759421508e+00 2.1223061903e+00 3.6759421508e+00 
14300 2.9381118880e+00 2.2741432492e-02 2.1217626995e+00 -3.6750007971e+00 2.1217626995e+00 3.6750007971e+00 
14400 2.9381076117e+00 2.2417630814e-02 2.1212268131e+00 -3.6740726147e+00 2.1212268131e+00 3.6740726147e+00 
14500 2.9381033239e+00 2.2098666874e-02 2.1206984231e+00 -3.6731574164e+00 2.1206984231e+00 3.6731574164e+00 
14600 2.9380990367e+00 2.1784541959e-02 2.1201774211e+00 -3.6722550145e+00 2.1201774211e+00 3.6722550145e+00 
14700 2.9380947616e+00 2.1475250127e-02 2.1196636985e+00 -3.6713652208e+00 2.1196636985e+00 3.6713652208e+00 
14800 2.9380905092e+00 2.1170778601e-02 2.1191571466e+00 -3.6704878471e+00 2.1191571466e+00 3.6704878471e+00 
14900 2.9380862890e+00 2.0871108165e-02 2.1186576568e+00 -3.6696227054e+00 2.1186576568e+00 3.6696227054e+00 
15000 2.9380821098e+00 2.0576213550e-02 2.1181651209e+00 -3.6687696082e+00 2.1181651209e+00 3.6687696082e+00 
15100 2.9380779793e+00 2.0286063818e-02 2.1176794310e+00 -3.6679283687e+00 2.1176794310e+00 3.6679283687e+00 
15200 2.9380739044e+00 2.0000622747e-02 2.1172004799e+00 -3.6670988010e+00 2.1172004799e+00 3.6670988010e+00 
15300 2.9380698914e+00 1.9719849204e-02 2.1167281609e+00 -3.6662807206e+00 2.1167281609e+00 3.6662807206e+00 
15400 2.9380659456e+00 1.9443697508e-02 2.1162623683e+00 -3.6654739441e+00 2.1162623683e+00 3.6654739441e+00 
15500 2.9380620714e+00 1.9172117793e-02 2.1158029973e+00 -3.6646782901e+00 2.1158029973e+00 3.6646782901e+00 
15600 2.9380582727e+00 1.8905056359e-02 2.1153499439e+00 -3.6638935787e+00 2.1153499439e+00 3.6638935787e+00 
15700 2.9380545528e+00 1.8642456011e-02 2.1149031055e+00 -3.6631196319e+00 2.1149031055e+00 3.6631196319e+00 
15800 2.9380509142e+00 1.8384256392e-02 2.1144623807e+00 -3.6623562740e+00 2.1144623807e+00 3.6623562740e+00 
15900 2.9380473587e+00 1.8130394306e-02 2.1140276691e+00 -3.6616033314e+00 2.1140276691e+00 3.6616033314e+00 
16000 2.9380438880e+00 1.7880804026e-02 2.1135988719e+00 -3.6608606330e+00 2.1135988719e+00 3.6608606330e+00 
16100 2.9380405028e+00 1.7635417594e-02 2.1131758918e+00 -3.6601280098e+00 2.1131758918e+00 3.6601280098e+00 
16200 2.9380372038e+00 1.7394165112e-02 2.1127586327e+00 -3.6594052959e+00 2.1127586327e+00 3.6594052959e+00 
16300 2.9380339909e+00 1.7156975016e-02 2.1123470002e+00 -3.6586923276e+00 2.1123470002e+00 3.6586923276e+00 
16400 2.9380308640e+00 1.6923774339e-02 2.1119409016e+00 -3.6579889441e+00 2.1119409016e+00 3.6579889441e+00 
16500 2.9380278223e+00 1.6694488969e-02 2.1115402455e+00 -3.6572949874e+00 2.1115402455e+00 3.6572949874e+00 
16600 2.9380248652e+00 1.6469043884e-02 2.1111449424e+00 -3.6566103024e+00 2.1111449424e+00 3.6566103024e+00 
16700 2.9380219914e+00 1.6247363382e-02 2.1107549044e+00 -3.6559347367e+00 2.1107549044e+00 3.6559347367e+00 
16800 2.9380191997e+00 1.6029371299e-02 2.1103700451e+00 -3.6552681409e+00 2.1103700451e+00 3.6552681409e+00 
16900 2.9380164885e+00 1.5814991211e-02 2.1099902802e+00 -3.6546103688e+00 2.1099902802e+00 3.6546103688e+00 
17000 2.9380138561e+00 1.5604146627e-02 2.1096155268e+00 -3.6539612768e+00 2.1096155268e+00 3.6539612768e+00 
17100 2.9380113009e+00 1.5396761170e-02 2.1092457037e+00 -3.6533207244e+00 2.1092457037e+00 3.6533207244e+00 
17200 2.9380088210e+00 1.5192758742e-02 2.1088807316e+00 -3.6526885742e+00 2.1088807316e+00 3.6526885742e+00 
17300 2.9380064144e+00 1.4992063686e-02 2.1085205328e+00 -3.6520646915e+00 2.1085205328e+00 3.6520646915e+00 
17400 2.9380040791e+00 1.4794600928e-02 2.1081650313e+00 -3.6514489450e+00 2.1081650313e+00 3.6514489450e+00 
17500 2.9380018131e+00 1.4600296115e-02 2.1078141529e+00 -3.6508412058e+00 2.1078141529e+00 3.6508412058e+00 
17600 2.9379996144e+00 1.4409075735e-02 2.1074678250e+00 -3.6502413483e+00 2.1074678250e+00 3.6502413483e+00 
17700 2.9379974810e+00 1.4220867235e-02 2.1071259767e+00 -3.6496492497e+00 2.1071259767e+00 3.6496492497e+00 
17800 2.9379954108e+00 1.4035599122e-02 2.1067885387e+00 -3.6490647899e+00 2.1067885387e+00 3.6490647899e+00 
17900 2.9379934018e+00 1.3853201055e-02 2.1064554434e+00 -3.6484878518e+00 2.1064554434e+00 3.6484878518e+00 
18000 2.9379914520e+00 1.3673603935e-02 2.1061266246e+00 -3.6479183211e+00 2.1061266246e+00 3.6479183211e+00 
18100 2.9379895596e+00 1.3496739974e-02 2.1058020180e+00 -3.6473560859e+00 2.1058020180e+00 3.6473560859e+00 
18200 2.9379877227e+00 1.3322542765e-02 2.1054815606e+00 -3.6468010374e+00 2.1054815606e+00 3.6468010374e+00 
18300 2.9379859393e+00 1.3150947339e-02 2.1051651910e+00 -3.6462530691e+00 2.1051651910e+00 3.6462530691e+00 
18400 2.9379842078e+00 1.2981890214e-02 2.1048528492e+00 -3.6457120772e+00 2.1048528492e+00 3.6457120772e+00 
18500 2.9379825265e+00 1.2815309442e-02 2.1045444767e+00 -3.6451779604e+00 2.1045444767e+00 3.6451779604e+00 
18600 2.9379808937e+00 1.2651144636e-02 2.1042400165e+00 -3.6446506199e+00 2.1042400165e+00 3.6446506199e+00 
18700 2.9379793077e+00 1.2489337007e-02 2.1039394129e+00 -3.6441299592e+00 2.1039394129e+00 3.6441299592e+00 
18800 2.9379777672e+00 1.2329829380e-02 2.1036426115e+00 -3.6436158841e+00 2.1036426115e+00 3.6436158841e+00 
18900 2.9379762705e+00 1.2172566213e-02 2.1033495593e+00 -3.6431083027e+00 2.1033495593e+00 3.6431083027e+00 
19000 2.9379748165e+00 1.2017493603e-02 2.1030602044e+00 -3.6426071254e+00 2.1030602044e+00 3.6426071254e+00 
19100 2.9379734036e+00 1.1864559295e-02 2.1027744964e+00 -3.6421122647e+00 2.1027744964e+00 3.6421122647e+00 
19200 2.9379720306e+00 1.1713712679e-02 2.1024923860e+00 -3.6416236350e+00 2.1024923860e+00 3.6416236350e+00 
19300 2.9379706964e+00 1.1564904786e-02 2.1022138248e+00 -3.6411411530e+00 2.1022138248e+00 3.6411411530e+00 
19400 2.9379693998e+00 1.1418088275e-02 2.1019387659e+00 -3.6406647370e+00 2.1019387659e+00 3.6406647370e+00 
19500 2.9379681396e+00 1.1273217425e-02 2.1016671633e+00 -3.6401943074e+00 2.1016671633e+00 3.6401943074e+00 
19600 2.9379669149e+00 1.1130248111e-02 2.1013989720e+00 -3.6397297864e+00 2.1013989720e+00 3.6397297864e+00 
19700 2.9379657246e+00 1.0989137790e-02 2.1011341481e+00 -3.6392710979e+00 2.1011341481e+00 3.6392710979e+00 
19800 2.9379645677e+00 1.0849845471e-02 2.1008726486e+00 -3.6388181676e+00 2.1008726486e+00 3.6388181676e+00 
19900 2.9379634435e+00 1.0712331692e-02 2.1006144315e+00 -3.6383709225e+00 2.1006144315e+00 3.6383709225e+00 
20000 2.9379623509e+00 1.0576558490e-02 2.1003594558e+00 -3.6379292915e+00 2.1003594558e+00 3.6379292915e+00 
20100 2.9379612892e+00 1.0442489368e-02 2.1001076811e+00 -3.6374932050e+00 2.1001076811e+00 3.6374932050e+00 
20200 2.9379602577e+00 1.0310089262e-02 2.0998590680e+00 -3.6370625945e+00 2.0998590680e+00 3.6370625945e+00 
20300 2.9379592554e+00 1.0179324507e-02 2.0996135780e+00 -3.6366373934e+00 2.0996135780e+00 3.6366373934e+00 
20400 2.9379582818e+00 1.0050162800e-02 2.0993711732e+00 -3.6362175359e+00 2.0993711732e+00 3.6362175359e+00 
20500 2.9379573360e+00 9.9225731591e-03 2.0991318165e+00 -3.6358029579e+00 2.0991318165e+00 3.6358029579e+00 
20600 2.9379564175e+00 9.7965258859e-03 2.0988954715e+00 -3.6353935964e+00 2.0988954715e+00 3.6353935964e+00 
20700 2.9379555257e+00 9.6719925259e-03 2.0986621024e+00 -3.6349893893e+00 2.0986621024e+00 3.6349893893e+00 
20800 2.9379546597e+00 9.5489458269e-03 2.0984316743e+00 -3.6345902761e+00 2.0984316743e+00 3.6345902761e+00 
20900 2.9379538192e+00 9.4273596971e-03 2.0982041526e+00 -3.6341961970e+00 2.0982041526e+00 3.6341961970e+00 
21000 2.9379530034e+00 9.3072091637e-03 2.0979795036e+00 -3.6338070935e+00 2.0979795036e+00 3.6338070935e+00 
21100 2.9379522119e+00 9.1884703306e-03 2.0977576939e+00 -3.6334229077e+00 2.0977576939e+00 3.6334229077e+00 
21200 2.9379514440e+00 9.0711203362e-03 2.0975386907e+00 -3.6330435832e+00 2.0975386907e+00 3.6330435832e+00 
21300 2.9379506992e+00 8.9551373116e-03 2.0973224619e+00 -3.6326690640e+00 2.0973224619e+00 3.6326690640e+00 
21400 2.9379499770e+00 8.8405003381e-03 2.0971089758e+00 -3.6322992951e+00 2.0971089758e+00 3.6322992951e+00 
21500 2.9379492770e+00 8.7271894062e-03 2.0968982011e+00 -3.6319342225e+00 2.0968982011e+00 3.6319342225e+00 
21600 2.9379485985e+00 8.6151853741e-03 2.0966901069e+00 -3.6315737929e+00 2.0966901069e+00 3.6315737929e+00 
21700 2.9379479411e+00 8.5044699268e-03 2.0964846630e+00 -3.6312179536e+00 2.0964846630e+00 3.6312179536e+00 
21800 2.9379473043e+00 8.3950255366e-03 2.0962818394e+00 -3.6308666528e+00 2.0962818394e+00 3.6308666528e+00 
21900 2.9379466877e+00 8.2868354233e-03 2.0960816065e+00 -3.6305198392e+00 2.0960816065e+00 3.6305198392e+00 
22000 2.9379460907e+00 8.1798835156e-03 2.0958839351e+00 -3.6301774624e+00 2.0958839351e+00 3.6301774624e+00 
22100 2.9379455130e+00 8.0741544135e-03 2.0956887965e+00 -3.6298394725e+00 2.0956887965e+00 3.6298394725e+00 
22200 2.9379449540e+00 7.9696333509e-03 2.0954961622e+00 -3.6295058201e+00 2.0954961622e+00 3.6295058201e+00 
22300 2.9379444133e+00 7.8663061603e-03 2.0953060041e+00 -3.6291764565e+00 2.0953060041e+00 3.6291764565e+00 
22400 2.9379438905e+00 7.7641592374e-03 2.0951182943e+00 -3.6288513336e+00 2.0951182943e+00 3.6288513336e+00 
22500 2.9379433852e+00 7.6631795069e-03 2.0949330054e+00 -3.6285304038e+00 2.0949330054e+00 3.6285304038e+00 
22600 2.9379428969e+00 7.5633543899e-03 2.0947501101e+00 -3.6282136198e+00 2.0947501101e+00 3.6282136198e+00 
22700 2.9379424252e+00 7.4646717721e-03 2.0945695815e+00 -3.6279009351e+00 2.0945695815e+00 3.6279009351e+00 
22800 2.9379419697e+00 7.3671199726e-03 2.0943913930e+00 -3.6275923035e+00 2.0943913930e+00 3.6275923035e+00 
22900 2.9379415299e+00 7.2706877147e-03 2.0942155181e+00 -3.6272876793e+00 2.0942155181e+00 3.6272876793e+00 
23000 2.9379411055e+00 7.1753640970e-03 2.0940419307e+00 -3.6269870172e+00 2.0940419307e+00 3.6269870172e+00 
23100 2.9379406962e+00 7.0811385663e-03 2.0938706049e+00 -3.6266902722e+00 2.0938706049e+00 3.6266902722e+00 
23200 2.9379403014e+00 6.9880008913e-03 2.0937015151e+00 -3.6263974001e+00 2.0937015151e+00 3.6263974001e+00 
23300 2.9379399208e+00 6.8959411372e-03 2.0935346359e+00 -3.6261083567e+00 2.0935346359e+00 3.6261083567e+00 
23400 2.9379395540e+00 6.8049496420e-03 2.0933699419e+00 -3.6258230984e+00 2.0933699419e+00 3.6258230984e+00 
23500 2.9379392007e+00 6.7150169936e-03 2.0932074082e+00 -3.6255415818e+00 2.0932074082e+00 3.6255415818e+00 
23600 2.9379388605e+00 6.6261340078e-03 2.0930470101e+00 -3.6252637641e+00 2.0930470101e+00 3.6252637641e+00 
23700 2.9379385330e+00 6.5382917081e-03 2.0928887229e+00 -3.6249896027e+00 2.0928887229e+00 3.6249896027e+00 
23800 2.9379382178e+00 6.4514813056e-03 2.0927325223e+00 -3.6247190553e+00 2.0927325223e+00 3.6247190553e+00 
23900 2.9379379147e+00 6.3656941812e-03 2.0925783841e+00 -3.6244520800e+00 2.0925783841e+00 3.6244520800e+00 
24000 2.9379376232e+00 6.2809218672e-03 2.0924262842e+00 -3.6241886353e+00 2.0924262842e+00 3.6241886353e+00 
24100 2.9379373431e+00 6.1971560318e-03 2.0922761989e+00 -3.6239286800e+00 2.0922761989e+00 3.6239286800e+00 
24200 2.9379370740e+00 6.1143884631e-03 2.0921281047e+00 -3.6236721732e+00 2.0921281047e+00 3.6236721732e+00 
24300 2.9379368156e+00 6.0326110549e-03 2.0919819779e+00 -3.6234190743e+00 2.0919819779e+00 3.6234190743e+00 
24400 2.9379365675e+00 5.9518157932e-03 2.0918377955e+00 -3.6231693430e+00 2.0918377955e+00 3.6231693430e+00 
24500 2.9379363295e+00 5.8719947436e-03 2.0916955342e+00 -3.6229229393e+00 2.0916955342e+00 3.6229229393e+00 
24600 2.9379361012e+00 5.7931400395e-03 2.0915551713e+00 -3.6226798236e+00 2.0915551713e+00 3.6226798236e+00 
24700 2.9379358824e+00 5.7152438716e-03 2.0914166841e+00 -3.6224399566e+00 2.0914166841e+00 3.6224399566e+00 
24800 2.9379356728e+00 5.6382984776e-03 2.0912800498e+00 -3.6222032992e+00 2.0912800498e+00 3.6222032992e+00 
24900 2.9379354720e+00 5.5622961334e-03 2.0911452463e+00 -3.6219698126e+00 2.0911452463e+00 3.6219698126e+00 
25000 2.9379352798e+00 5.4872291444e-03 2.0910122513e+00 -3.6217394585e+00 2.0910122513e+00 3.6217394585e+00 
25100 2.9379350960e+00 5.4130898382e-03 2.0908810428e+00 -3.6215121988e+00 2.0908810428e+00 3.6215121988e+00 
25200 2.9379349202e+00 5.3398705573e-03 2.0907515990e+00 -3.6212879954e+00 2.0907515990e+00 3.6212879954e+00 
25300 2.9379347522e+00 5.2675636533e-03 2.0906238981e+00 -3.6210668110e+00 2.0906238981e+00 3.6210668110e+00 
25400 2.9379345918e+00 5.1961614812e-03 2.0904979187e+00 -3.6208486083e+00 2.0904979187e+00 3.6208486083e+00 
25500 2.9379344387e+00 5.1256563943e-03 2.0903736395e+00 -3.6206333503e+00 2.0903736395e+00 3.6206333503e+00 
25600 2.9379342927e+00 5.0560407400e-03 2.0902510392e+00 -3.6204210005e+00 2.0902510392e+00 3.6204210005e+00 
25700 2.9379341534e+00 4.9873068562e-03 2.0901300970e+00 -3.6202115224e+00 2.0901300970e+00 3.6202115224e+00 
25800 2.9379340209e+00 4.9194470678e-03 2.0900107920e+00 -3.6200048801e+00 2.0900107920e+00 3.6200048801e+00 
25900 2.9379338947e+00 4.8524536842e-03 2.0898931036e+00 -3.6198010378e+00 2.0898931036e+00 3.6198010378e+00 
26000 2.9379337746e+00 4.7863189969e-03 2.0897770113e+00 -3.6195999601e+00 2.0897770113e+00 3.6195999601e+00 
26100 2.9379336606e+00 4.7210352780e-03 2.0896624949e+00 -3.6194016118e+00 2.0896624949e+00 3.6194016118e+00 
26200 2.9379335523e+00 4.6565947785e-03 2.0895495342e+00 -3.6192059583e+00 2.0895495342e+00 3.6192059583e+00 
26300 2.9379334496e+00 4.5929897275e-03 2.0894381094e+00 -3.6190129648e+00 2.0894381094e+00 3.6190129648e+00 
26400 2.9379333522e+00 4.5302123320e-03 2.0893282007e+00 -3.6188225973e+00 2.0893282007e+00 3.6188225973e+00 
26500 2.9379332601e+00 4.4682547760e-03 2.0892197885e+00 -3.6186348219e+00 2.0892197885e+00 3.6186348219e+00 
26600 2.9379331730e+00 4.4071092212e-03 2.0891128535e+00 -3.6184496049e+00 2.0891128535e+00 3.6184496049e+00 
26700 2.9379330907e+00 4.3467678070e-03 2.0890073763e+00 -3.6182669132e+00 2.0890073763e+00 3.6182669132e+00 
26800 2.9379330131e+00 4.2872226516e-03 2.0889033381e+00 -3.6180867137e+00 2.0889033381e+00 3.6180867137e+00 
26900 2.9379329400e+00 4.2284658526e-03 2.0888007200e+00 -3.6179089739e+00 2.0888007200e+00 3.6179089739e+00 
27000 2.9379328712e+00 4.1704894883e-03 2.0886995033e+00 -3.6177336614e+00 2.0886995033e+00 3.6177336614e+00 
27100 2.9379328066e+00 4.1132856194e-03 2.0885996695e+00 -3.6175607442e+00 2.0885996695e+00 3.6175607442e+00 
27200 2.9379327461e+00 4.0568462900e-03 2.0885012003e+00 -3.6173901906e+00 2.0885012003e+00 3.6173901906e+00 
27300 2.9379326895e+00 4.0011635300e-03 2.0884040777e+00 -3.6172219692e+00 2.0884040777e+00 3.6172219692e+00 
27400 2.9379326367e+00 3.9462293567e-03 2.0883082836e+00 -3.6170560491e+00 2.0883082836e+00 3.6170560491e+00 
27500 2.9379325874e+00 3.8920357769e-03 2.0882138005e+00 -3.6168923995e+00 2.0882138005e+00 3.6168923995e+00 
27600 2.9379325417e+00 3.8385747894e-03 2.0881206106e+00 -3.6167309899e+00 2.0881206106e+00 3.6167309899e+00 
27700 2.9379324994e+00 3.7858383868e-03 2.0880286967e+00 -3.6165717903e+00 2.0880286967e+00 3.6165717903e+00 
27800 2.9379324602e+00 3.7338185585e-03 2.0879380415e+00 -3.6164147710e+00 2.0879380415e+00 3.6164147710e+00 
27900 2.9379324242e+00 3.6825072927e-03 2.0878486282e+00 -3.6162599025e+00 2.0878486282e+00 3.6162599025e+00 
28000 2.9379323912e+00 3.6318965796e-03 2.0877604397e+00 -3.6161071557e+00 2.0877604397e+00 3.6161071557e+00 
28100 2.9379323611e+00 3.5819784132e-03 2.0876734597e+00 -3.6159565018e+00 2.0876734597e+00 3.6159565018e+00 
28200 2.9379323338e+00 3.5327447947e-03 2.0875876715e+00 -3.6158079123e+00 2.0875876715e+00 3.6158079123e+00 
28300 2.9379323092e+00 3.4841877347e-03 2.0875030590e+00 -3.6156613591e+00 2.0875030590e+00 3.6156613591e+00 
28400 2.9379322871e+00 3.4362992562e-03 2.0874196061e+00 -3.6155168144e+00 2.0874196061e+00 3.6155168144e+00 
28500 2.9379322676e+00 3.3890713973e-03 2.0873372969e+00 -3.6153742507e+00 2.0873372969e+00 3.6153742507e+00 
28600 2.9379322504e+00 3.3424962139e-03 2.0872561157e+00 -3.6152336408e+00 2.0872561157e+00 3.6152336408e+00 
28700 2.9379322355e+00 3.2965657823e-03 2.0871760471e+00 -3.6150949579e+00 2.0871760471e+00 3.6150949579e+00 
28800 2.9379322228e+00 3.2512722020e-03 2.0870970756e+00 -3.6149581753e+00 2.0870970756e+00 3.6149581753e+00 
28900 2.9379322122e+00 3.2066075986e-03 2.0870191863e+00 -3.6148232671e+00 2.0870191863e+00 3.6148232671e+00 
29000 2.9379322037e+00 3.1625641260e-03 2.0869423641e+00 -3.6146902071e+00 2.0869423641e+00 3.6146902071e+00 
29100 2.9379321971e+00 3.1191339695e-03 2.0868665943e+00 -3.6145589699e+00 2.0868665943e+00 3.6145589699e+00 
29200 2.9379321923e+00 3.0763093480e-03 2.0867918623e+00 -3.6144295303e+00 2.0867918623e+00 3.6144295303e+00 
29300 2.9379321894e+00 3.0340825166e-03 2.0867181536e+00 -3.6143018632e+00 2.0867181536e+00 3.6143018632e+00 
29400 2.9379321882e+00 2.9924457692e-03 2.0866454542e+00 -3.6141759441e+00 2.0866454542e+00 3.6141759441e+00 
29500 2.9379321887e+00 2.9513914410e-03 2.0865737499e+00 -3.6140517486e+00 2.0865737499e+00 3.6140517486e+00 
29600 2.9379321907e+00 2.9109119104e-03 2.0865030269e+00 -3.6139292528e+00 2.0865030269e+00 3.6139292528e+00 
29700 2.9379321942e+00 2.8709996018e-03 2.0864332716e+00 -3.6138084329e+00 2.0864332716e+00 3.6138084329e+00 
29800 2.9379321993e+00 2.8316469873e-03 2.0863644703e+00 -3.6136892657e+00 2.0863644703e+00 3.6136892657e+00 
29900 2.9379322056e+00 2.7928465894e-03 2.0862966099e+00 -3.6135717280e+00 2.0862966099e+00 3.6135717280e+00 
30000 2.9379322134e+00 2.7545909825e-03 2.0862296771e+00 -3.6134557971e+00 2.0862296771e+00 3.6134557971e+00 
30100 2.9379322224e+00 2.7168727953e-03 2.0861636591e+00 -3.6133414504e+00 2.0861636591e+00 3.6133414504e+00 
30200 2.9379322326e+00 2.6796847125e-03 2.0860985429e+00 -3.6132286660e+00 2.0860985429e+00 3.6132286660e+00 
30300 2.9379322439e+00 2.6430194766e-03 2.0860343161e+00 -3.6131174218e+00 2.0860343161e+00 3.6131174218e+00 
30400 2.9379322564e+00 2.6068698898e-03 2.0859709661e+00 -3.6130076963e+00 2.0859709661e+00 3.6130076963e+00 
30500 2.9379322699e+00 2.5712288155e-03 2.0859084806e+00 -3.6128994684e+00 2.0859084806e+00 3.6128994684e+00 
30600 2.9379322845e+00 2.5360891798e-03 2.0858468476e+00 -3.6127927169e+00 2.0858468476e+00 3.6127927169e+00 
30700 2.9379323000e+00 2.5014439734e-03 2.0857860551e+00 -3.6126874212e+00 2.0857860551e+00 3.6126874212e+00 
30800 2.9379323164e+00 2.4672862522e-03 2.0857260913e+00 -3.6125835609e+00 2.0857260913e+00 3.6125835609e+00 
30900 2.9379323337e+00 2.4336091397e-03 2.0856669447e+00 -3.6124811158e+00 2.0856669447e+00 3.6124811158e+00 
31000 2.9379323518e+00 2.4004058270e-03 2.0856086037e+00 -3.6123800663e+00 2.0856086037e+00 3.6123800663e+00 
31100 2.9379323706e+00 2.3676695751e-03 2.0855510571e+00 -3.6122803926e+00 2.0855510571e+00 3.6122803926e+00 
31200 2.9379323903e+00 2.3353937152e-03 2.0854942937e+00 -3.6121820755e+00 2.0854942937e+00 3.6121820755e+00 
31300 2.9379324106e+00 2.3035716498e-03 2.0854383025e+00 -3.6120850961e+00 2.0854383025e+00 3.6120850961e+00 
31400 2.9379324316e+00 2.2721968538e-03 2.0853830729e+00 -3.6119894355e+00 2.0853830729e+00 3.6119894355e+00 
31500 2.9379324532e+00 2.2412628753e-03 2.0853285940e+00 -3.6118950753e+00 2.0853285940e+00 3.6118950753e+00 
31600 2.9379324754e+00 2.2107633361e-03 2.0852748554e+00 -3.6118019973e+00 2.0852748554e+00 3.6118019973e+00 
31700 2.9379324982e+00 2.1806919324e-03 2.0852218467e+00 -3.6117101835e+00 2.0852218467e+00 3.6117101835e+00 
31800 2.9379325215e+00 2.1510424357e-03 2.0851695577e+00 -3.6116196163e+00 2.0851695577e+00 3.6116196163e+00 
31900 2.9379325453e+00 2.1218086929e-03 2.0851179783e+00 -3.6115302783e+00 2.0851179783e+00 3.6115302783e+00 
32000 2.9379325696e+00 2.0929846267e-03 2.0850670987e+00 -3.6114421522e+00 2.0850670987e+00 3.6114421522e+00 
32100 2.9379325943e+00 2.0645642365e-03 2.0850169091e+00 -3.6113552211e+00 2.0850169091e+00 3.6113552211e+00 
32200 2.9379326194e+00 2.0365415981e-03 2.0849673997e+00 -3.6112694685e+00 2.0849673997e+00 3.6112694685e+00 
32300 2.9379326449e+00 2.0089108641e-03 2.0849185612e+00 -3.6111848777e+00 2.0849185612e+00 3.6111848777e+00 
32400 2.9379326707e+00 1.9816662640e-03 2.0848703842e+00 -3.6111014327e+00 2.0848703842e+00 3.6111014327e+00 
32500 2.9379326969e+00 1.9548021045e-03 2.0848228595e+00 -3.6110191174e+00 2.0848228595e+00 3.6110191174e+00 
32600 2.9379327234e+00 1.9283127694e-03 2.0847759779e+00 -3.6109379161e+00 2.0847759779e+00 3.6109379161e+00 
32700 2.9379327502e+00 1.9021927192e-03 2.0847297306e+00 -3.6108578135e+00 2.0847297306e+00 3.6108578135e+00 
32800 2.9379327772e+00 1.8764364917e-03 2.0846841087e+00 -3.6107787940e+00 2.0846841087e+00 3.6107787940e+00 
32900 2.9379328044e+00 1.8510387013e-03 2.0846391036e+00 -3.6107008429e+00 2.0846391036e+00 3.6107008429e+00 
33000 2.9379328319e+00 1.8259940387e-03 2.0845947066e+00 -3.6106239451e+00 2.0845947066e+00 3.6106239451e+00 
33100 2.9379328595e+00 1.8012972713e-03 2.0845509095e+00 -3.6105480861e+00 2.0845509095e+00 3.6105480861e+00 
33200 2.9379328874e+00 1.7769432422e-03 2.0845077037e+00 -3.6104732516e+00 2.0845077037e+00 3.6104732516e+00 
33300 2.9379329154e+00 1.7529268702e-03 2.0844650813e+00 -3.6103994273e+00 2.0844650813e+00 3.6103994273e+00 
33400 2.9379329435e+00 1.7292431492e-03 2.0844230340e+00 -3.6103265993e+00 2.0844230340e+00 3.6103265993e+00 
33500 2.9379329717e+00 1.7058871480e-03 2.0843815540e+00 -3.6102547539e+00 2.0843815540e+00 3.6102547539e+00 
33600 2.9379330001e+00 1.6828540094e-03 2.0843406334e+00 -3.6101838774e+00 2.0843406334e+00 3.6101838774e+00 
33700 2.9379330285e+00 1.6601389502e-03 2.0843002646e+00 -3.6101139565e+00 2.0843002646e+00 3.6101139565e+00 
33800 2.9379330570e+00 1.6377372602e-03 2.0842604399e+00 -3.6100449780e+00 2.0842604399e+00 3.6100449780e+00 
33900 2.9379330856e+00 1.6156443018e-03 2.0842211518e+00 -3.6099769291e+00 2.0842211518e+00 3.6099769291e+00 
34000 2.9379331142e+00 1.5938555092e-03 2.0841823929e+00 -3.6099097968e+00 2.0841823929e+00 3.6099097968e+00 
34100 2.9379331428e+00 1.5723663880e-03 2.0841441561e+00 -3.6098435687e+00 2.0841441561e+00 3.6098435687e+00 
34200 2.9379331714e+00 1.5511725142e-03 2.0841064341e+00 -3.6097782323e+00 2.0841064341e+00 3.6097782323e+00 
34300 2.9379332001e+00 1.5302695338e-03 2.0840692199e+00 -3.6097137753e+00 2.0840692199e+00 3.6097137753e+00 
34400 2.9379332287e+00 1.5096531617e-03 2.0840325065e+00 -3.6096501859e+00 2.0840325065e+00 3.6096501859e+00 
34500 2.9379332574e+00 1.4893191812e-03 2.0839962871e+00 -3.6095874520e+00 2.0839962871e+00 3.6095874520e+00 
34600 2.9379332859e+00 1.4692634431e-03 2.0839605549e+00 -3.6095255620e+00 2.0839605549e+00 3.6095255620e+00 
34700 2.9379333145e+00 1.4494818649e-03 2.0839253033e+00 -3.6094645045e+00 2.0839253033e+00 3.6094645045e+00 
34800 2.9379333430e+00 1.4299704299e-03 2.0838905257e+00 -3.6094042679e+00 2.0838905257e+00 3.6094042679e+00 
34900 2.9379333714e+00 1.4107251867e-03 2.0838562157e+00 -3.6093448412e+00 2.0838562157e+00 3.6093448412e+00 
35000 2.9379333998e+00 1.3917422477e-03 2.0838223669e+00 -3.6092862134e+00 2.0838223669e+00 3.6092862134e+00 
35100 2.9379334281e+00 1.3730177889e-03 2.0837889730e+00 -3.6092283734e+00 2.0837889730e+00 3.6092283734e+00 
35200 2.9379334563e+00 1.3545480485e-03 2.0837560278e+00 -3.6091713108e+00 2.0837560278e+00 3.6091713108e+00 
35300 2.9379334844e+00 1.3363293263e-03 2.0837235254e+00 -3.6091150149e+00 2.0837235254e+00 3.6091150149e+00 
35400 2.9379335124e+00 1.3183579828e-03 2.0836914596e+00 -3.6090594752e+00 2.0836914596e+00 3.6090594752e+00 
35500 2.9379335402e+00 1.3006304382e-03 2.0836598245e+00 -3.6090046817e+00 2.0836598245e+00 3.6090046817e+00 
35600 2.9379335680e+00 1.2831431713e-03 2.0836286143e+00 -3.6089506241e+00 2.0836286143e+00 3.6089506241e+00 
35700 2.9379335956e+00 1.2658927191e-03 2.0835978233e+00 -3.6088972925e+00 2.0835978233e+00 3.6088972925e+00 
35800 2.9379336232e+00 1.2488756754e-03 2.0835674458e+00 -3.6088446772e+00 2.0835674458e+00 3.6088446772e+00 
35900 2.9379336505e+00 1.2320886900e-03 2.0835374762e+00 -3.6087927683e+00 2.0835374762e+00 3.6087927683e+00 
36000 2.9379336778e+00 1.2155284680e-03 2.0835079091e+00 -3.6087415565e+00 2.0835079091e+00 3.6087415565e+00 
36100 2.9379337048e+00 1.1991917684e-03 2.0834787389e+00 -3.6086910323e+00 2.0834787389e+00 3.6086910323e+00 
36200 2.9379337318e+00 1.1830754039e-03 2.0834499604e+00 -3.6086411864e+00 2.0834499604e+00 3.6086411864e+00 
36300 2.9379337586e+00 1.1671762392e-03 2.0834215682e+00 -3.6085920098e+00 2.0834215682e+00 3.6085920098e+00 
36400 2.9379337852e+00 1.1514911908e-03 2.0833935573e+00 -3.6085434933e+00 2.0833935573e+00 3.6085434933e+00 
36500 2.9379338116e+00 1.1360172253e-03 2.0833659223e+00 -3.6084956282e+00 2.0833659223e+00 3.6084956282e+00 
36600 2.9379338379e+00 1.1207513595e-03 2.0833386584e+00 -3.6084484057e+00 2.0833386584e+00 3.6084484057e+00 
36700 2.9379338640e+00 1.1056906585e-03 2.0833117605e+00 -3.6084018172e+00 2.0833117605e+00 3.6084018172e+00 
36800 2.9379338899e+00 1.0908322354e-03 2.0832852237e+00 -3.6083558541e+00 2.0832852237e+00 3.6083558541e+00 
36900 2.9379339157e+00 1.0761732505e-03 2.0832590432e+00 -3.6083105081e+00 2.0832590432e+00 3.6083105081e+00 
37000 2.9379339412e+00 1.0617109100e-03 2.0832332141e+00 -3.6082657709e+00 2.0832332141e+00 3.6082657709e+00 
37100 2.9379339666e+00 1.0474424652e-03 2.0832077319e+00 -3.6082216344e+00 2.0832077319e+00 3.6082216344e+00 
37200 2.9379339918e+00 1.0333652121e-03 2.0831825918e+00 -3.6081780905e+00 2.0831825918e+00 3.6081780905e+00 
37300 2.9379340168e+00 1.0194764902e-03 2.0831577893e+00 -3.6081351313e+00 2.0831577893e+00 3.6081351313e+00 
37400 2.9379340416e+00 1.0057736815e-03 2.0831333199e+00 -3.6080927490e+00 2.0831333199e+00 3.6080927490e+00 
37500 2.9379340662e+00 9.9225421017e-04 2.0831091790e+00 -3.6080509358e+00 2.0831091790e+00 3.6080509358e+00 
37600 2.9379340906e+00 9.7891554120e-04 2.0830853624e+00 -3.6080096842e+00 2.0830853624e+00 3.6080096842e+00 
37700 2.9379341148e+00 9.6575518004e-04 2.0830618657e+00 -3.6079689867e+00 2.0830618657e+00 3.6079689867e+00 
37800 2.9379341388e+00 9.5277067157e-04 2.0830386846e+00 -3.6079288358e+00 2.0830386846e+00 3.6079288358e+00 
37900 2.9379341626e+00 9.3995959943e-04 2.0830158149e+00 -3.6078892244e+00 2.0830158149e+00 3.6078892244e+00 
38000 2.9379341862e+00 9.2731958517e-04 2.0829932525e+00 -3.6078501451e+00 2.0829932525e+00 3.6078501451e+00 
38100 2.9379342096e+00 9.1484828760e-04 2.0829709932e+00 -3.6078115909e+00 2.0829709932e+00 3.6078115909e+00 
38200 2.9379342328e+00 9.0254340195e-04 2.0829490331e+00 -3.6077735548e+00 2.0829490331e+00 3.6077735548e+00 
38300 2.9379342558e+00 8.9040265925e-04 2.0829273681e+00 -3.6077360300e+00 2.0829273681e+00 3.6077360300e+00 
38400 2.9379342786e+00 8.7842382556e-04 2.0829059943e+00 -3.6076990095e+00 2.0829059943e+00 3.6076990095e+00 
38500 2.9379343012e+00 8.6660470127e-04 2.0828849078e+00 -3.6076624866e+00 2.0828849078e+00 3.6076624866e+00 
38600 2.9379343235e+00 8.5494312045e-04 2.0828641049e+00 -3.6076264549e+00 2.0828641049e+00 3.6076264549e+00 
38700 2.9379343457e+00 8.4343695016e-04 2.0828435816e+00 -3.6075909076e+00 2.0828435816e+00 3.6075909076e+00 
38800 2.9379343676e+00 8.3208408982e-04 2.0828233344e+00 -3.6075558384e+00 2.0828233344e+00 3.6075558384e+00 
38900 2.9379343893e+00 8.2088247053e-04 2.0828033595e+00 -3.6075212409e+00 2.0828033595e+00 3.6075212409e+00 
39000 2.9379344108e+00 8.0983005448e-04 2.0827836534e+00 -3.6074871088e+00 2.0827836534e+00 3.6074871088e+00 
39100 2.9379344322e+00 7.9892483432e-04 2.0827642124e+00 -3.6074534360e+00 2.0827642124e+00 3.6074534360e+00 
39200 2.9379344533e+00 7.8816483255e-04 2.0827450330e+00 -3.6074202163e+00 2.0827450330e+00 3.6074202163e+00 
39300 2.9379344741e+00 7.7754810095e-04 2.0827261117e+00 -3.6073874437e+00 2.0827261117e+00 3.6073874437e+00 
39400 2.9379344948e+00 7.6707272002e-04 2.0827074451e+00 -3.6073551122e+00 2.0827074451e+00 3.6073551122e+00 
39500 2.9379345153e+00 7.5673679837e-04 2.0826890299e+00 -3.6073232161e+00 2.0826890299e+00 3.6073232161e+00 
39600 2.9379345356e+00 7.4653847224e-04 2.0826708626e+00 -3.6072917494e+00 2.0826708626e+00 3.6072917494e+00 
39700 2.9379345556e+00 7.3647590492e-04 2.0826529400e+00 -3.6072607066e+00 2.0826529400e+00 3.6072607066e+00 
39800 2.9379345754e+00 7.2654728623e-04 2.0826352588e+00 -3.6072300819e+00 2.0826352588e+00 3.6072300819e+00 
39900 2.9379345951e+00 7.1675083204e-04 2.0826178159e+00 -3.6071998698e+00 2.0826178159e+00 3.6071998698e+00 
40000 2.9379346145e+00 7.0708478377e-04 2.0826006080e+00 -3.6071700649e+00 2.0826006080e+00 3.6071700649e+00 
40100 2.9379346337e+00 6.9754740788e-04 2.0825836320e+00 -3.6071406616e+00 2.0825836320e+00 3.6071406616e+00 
40200 2.9379346527e+00 6.8813699542e-04 2.0825668848e+00 -3.6071116547e+00 2.0825668848e+00 3.6071116547e+00 
40300 2.9379346716e+00 6.7885186158e-04 2.0825503635e+00 -3.6070830389e+00 2.0825503635e+00 3.6070830389e+00 
40400 2.9379346902e+00 6.6969034521e-04 2.0825340649e+00 -3.6070548090e+00 2.0825340649e+00 3.6070548090e+00 
40500 2.9379347086e+00 6.6065080844e-04 2.0825179862e+00 -3.6070269598e+00 2.0825179862e+00 3.6070269598e+00 
40600 2.9379347268e+00 6.5173163619e-04 2.0825021244e+00 -3.6069994864e+00 2.0825021244e+00 3.6069994864e+00 
40700 2.9379347448e+00 6.4293123582e-04 2.0824864766e+00 -3.6069723836e+00 2.0824864766e+00 3.6069723836e+00 
40800 2.9379347626e+00 6.3424803667e-04 2.0824710400e+00 -3.6069456466e+00 2.0824710400e+00 3.6069456466e+00 
40900 2.9379347802e+00 6.2568048972e-04 2.0824558118e+00 -3.6069192705e+00 2.0824558118e+00 3.6069192705e+00 
41000 2.9379347976e+00 6.1722706717e-04 2.0824407892e+00 -3.6068932506e+00 2.0824407892e+00 3.6068932506e+00 
41100 2.9379348148e+00 6.0888626209e-04 2.0824259694e+00 -3.6068675819e+00 2.0824259694e+00 3.6068675819e+00 
41200 2.9379348318e+00 6.0065658806e-04 2.0824113497e+00 -3.6068422600e+00 2.0824113497e+00 3.6068422600e+00 
41300 2.9379348486e+00 5.9253657881e-04 2.0823969276e+00 -3.6068172802e+00 2.0823969276e+00 3.6068172802e+00 
41400 2.9379348653e+00 5.8452478787e-04 2.0823827004e+00 -3.6067926378e+00 2.0823827004e+00 3.6067926378e+00 
41500 2.9379348817e+00 5.7661978827e-04 2.0823686654e+00 -3.6067683285e+00 2.0823686654e+00 3.6067683285e+00 
41600 2.9379348979e+00 5.6882017215e-04 2.0823548201e+00 -3.6067443478e+00 2.0823548201e+00 3.6067443478e+00 
41700 2.9379349140e+00 5.6112455055e-04 2.0823411620e+00 -3.6067206913e+00 2.0823411620e+00 3.6067206913e+00 
41800 2.9379349299e+00 5.5353155299e-04 2.0823276886e+00 -3.6066973547e+00 2.0823276886e+00 3.6066973547e+00 
41900 2.9379349455e+00 5.4603982723e-04 2.0823143975e+00 -3.6066743338e+00 2.0823143975e+00 3.6066743338e+00 
42000 2.9379349610e+00 5.3864803900e-04 2.0823012861e+00 -3.6066516242e+00 2.0823012861e+00 3.6066516242e+00 
42100 2.9379349764e+00 5.3135487165e-04 2.0822883522e+00 -3.6066292220e+00 2.0822883522e+00 3.6066292220e+00 
42200 2.9379349915e+00 5.2415902594e-04 2.0822755933e+00 -3.6066071229e+00 2.0822755933e+00 3.6066071229e+00 
42300 2.9379350064e+00 5.1705921971e-04 2.0822630071e+00 -3.6065853230e+00 2.0822630071e+00 3.6065853230e+00 
42400 2.9379350212e+00 5.1005418767e-04 2.0822505913e+00 -3.6065638182e+00 2.0822505913e+00 3.6065638182e+00 
42500 2.9379350358e+00 5.0314268113e-04 2.0822383436e+00 -3.6065426047e+00 2.0822383436e+00 3.6065426047e+00 
42600 2.9379350502e+00 4.9632346773e-04 2.0822262619e+00 -3.6065216784e+00 2.0822262619e+00 3.6065216784e+00 
42700 2.9379350645e+00 4.8959533122e-04 2.0822143438e+00 -3.6065010357e+00 2.0822143438e+00 3.6065010357e+00 
42800 2.9379350785e+00 4.8295707121e-04 2.0822025872e+00 -3.6064806727e+00 2.0822025872e+00 3.6064806727e+00 
42900 2.9379350924e+00 4.7640750295e-04 2.0821909899e+00 -3.6064605856e+00 2.0821909899e+00 3.6064605856e+00 
43000 2.9379351062e+00 4.6994545710e-04 2.0821795499e+00 -3.6064407709e+00 2.0821795499e+00 3.6064407709e+00 
43100 2.9379351197e+00 4.6356977950e-04 2.0821682650e+00 -3.6064212248e+00 2.0821682650e+00 3.6064212248e+00 
43200 2.9379351331e+00 4.5727933096e-04 2.0821571331e+00 -3.6064019438e+00 2.0821571331e+00 3.6064019438e+00 
43300 2.9379351463e+00 4.5107298709e-04 2.0821461522e+00 -3.6063829244e+00 2.0821461522e+00 3.6063829244e+00 
43400 2.9379351594e+00 4.4494963802e-04 2.0821353203e+00 -3.6063641629e+00 2.0821353203e+00 3.6063641629e+00 
43500 2.9379351723e+00 4.3890818825e-04 2.0821246353e+00 -3.6063456561e+00 2.0821246353e+00 3.6063456561e+00 
43600 2.9379351850e+00 4.3294755646e-04 2.0821140954e+00 -3.6063274005e+00 2.0821140954e+00 3.6063274005e+00 
43700 2.9379351976e+00 4.2706667527e-04 2.0821036986e+00 -3.6063093927e+00 2.0821036986e+00 3.6063093927e+00 
43800 2.9379352100e+00 4.2126449113e-04 2.0820934430e+00 -3.6062916294e+00 2.0820934430e+00 3.6062916294e+00 
43900 2.9379352223e+00 4.1553996406e-04 2.0820833266e+00 -3.6062741073e+00 2.0820833266e+00 3.6062741073e+00 
44000 2.9379352344e+00 4.0989206749e-04 2.0820733477e+00 -3.6062568233e+00 2.0820733477e+00 3.6062568233e+00 
44100 2.9379352464e+00 4.0431978813e-04 2.0820635043e+00 -3.6062397741e+00 2.0820635043e+00 3.6062397741e+00 
44200 2.9379352582e+00 3.9882212575e-04 2.0820537947e+00 -3.6062229566e+00 2.0820537947e+00 3.6062229566e+00 
44300 2.9379352698e+00 3.9339809301e-04 2.0820442171e+00 -3.6062063677e+00 2.0820442171e+00 3.6062063677e+00 
44400 2.9379352813e+00 3.8804671532e-04 2.0820347697e+00 -3.6061900043e+00 2.0820347697e+00 3.6061900043e+00 
44500 2.9379352927e+00 3.8276703067e-04 2.0820254508e+00 -3.6061738635e+00 2.0820254508e+00 3.6061738635e+00 
44600 2.9379353039e+00 3.7755808946e-04 2.0820162586e+00 -3.6061579422e+00 2.0820162586e+00 3.6061579422e+00 
44700 2.9379353150e+00 3.7241895434e-04 2.0820071915e+00 -3.6061422375e+00 2.0820071915e+00 3.6061422375e+00 
44800 2.9379353259e+00 3.6734870008e-04 2.0819982478e+00 -3.6061267464e+00 2.0819982478e+00 3.6061267464e+00 
44900 2.9379353367e+00 3.6234641339e-04 2.0819894258e+00 -3.6061114663e+00 2.0819894258e+00 3.6061114663e+00 
45000 2.9379353473e+00 3.5741119280e-04 2.0819807239e+00 -3.6060963941e+00 2.0819807239e+00 3.6060963941e+00 
45100 2.9379353578e+00 3.5254214848e-04 2.0819721404e+00 -3.6060815271e+00 2.0819721404e+00 3.6060815271e+00 
45200 2.9379353682e+00 3.4773840213e-04 2.0819636739e+00 -3.6060668627e+00 2.0819636739e+00 3.6060668627e+00 
45300 2.9379353785e+00 3.4299908679e-04 2.0819553227e+00 -3.6060523980e+00 2.0819553227e+00 3.6060523980e+00 
45400 2.9379353886e+00 3.3832334677e-04 2.0819470852e+00 -3.6060381303e+00 2.0819470852e+00 3.6060381303e+00 
45500 2.9379353985e+00 3.3371033744e-04 2.0819389601e+00 -3.6060240571e+00 2.0819389601e+00 3.6060240571e+00 
45600 2.9379354084e+00 3.2915922516e-04 2.0819309457e+00 -3.6060101758e+00 2.0819309457e+00 3.6060101758e+00 
45700 2.9379354181e+00 3.2466918708e-04 2.0819230405e+00 -3.6059964837e+00 2.0819230405e+00 3.6059964837e+00 
45800 2.9379354277e+00 3.2023941107e-04 2.0819152432e+00 -3.6059829783e+00 2.0819152432e+00 3.6059829783e+00 
45900 2.9379354371e+00 3.1586909554e-04 2.0819075522e+00 -3.6059696571e+00 2.0819075522e+00 3.6059696571e+00 
46000 2.9379354465e+00 3.1155744935e-04 2.0818999662e+00 -3.6059565177e+00 2.0818999662e+00 3.6059565177e+00 
46100 2.9379354557e+00 3.0730369165e-04 2.0818924837e+00 -3.6059435576e+00 2.0818924837e+00 3.6059435576e+00 
46200 2.9379354648e+00 3.0310705178e-04 2.0818851033e+00 -3.6059307744e+00 2.0818851033e+00 3.6059307744e+00 
46300 2.9379354737e+00 2.9896676915e-04 2.0818778237e+00 -3.6059181657e+00 2.0818778237e+00 3.6059181657e+00 
46400 2.9379354826e+00 2.9488209307e-04 2.0818706434e+00 -3.6059057292e+00 2.0818706434e+00 3.6059057292e+00 
46500 2.9379354913e+00 2.9085228270e-04 2.0818635613e+00 -3.6058934626e+00 2.0818635613e+00 3.6058934626e+00 
46600 2.9379354999e+00 2.8687660686e-04 2.0818565759e+00 -3.6058813636e+00 2.0818565759e+00 3.6058813636e+00 
46700 2.9379355084e+00 2.8295434399e-04 2.0818496860e+00 -3.6058694299e+00 2.0818496860e+00 3.6058694299e+00 
46800 2.9379355168e+00 2.7908478196e-04 2.0818428903e+00 -3.6058576593e+00 2.0818428903e+00 3.6058576593e+00 
46900 2.9379355251e+00 2.7526721799e-04 2.0818361874e+00 -3.6058460497e+00 2.0818361874e+00 3.6058460497e+00 
47000 2.9379355333e+00 2.7150095853e-04 2.0818295763e+00 -3.6058345988e+00 2.0818295763e+00 3.6058345988e+00 
47100 2.9379355413e+00 2.6778531915e-04 2.0818230555e+00 -3.6058233046e+00 2.0818230555e+00 3.6058233046e+00 
47200 2.9379355493e+00 2.6411962444e-04 2.0818166240e+00 -3.6058121649e+00 2.0818166240e+00 3.6058121649e+00 
47300 2.9379355571e+00 2.6050320786e-04 2.0818102806e+00 -3.6058011776e+00 2.0818102806e+00 3.6058011776e+00 
47400 2.9379355649e+00 2.5693541168e-04 2.0818040239e+00 -3.6057903408e+00 2.0818040239e+00 3.6057903408e+00 
47500 2.9379355725e+00 2.5341558683e-04 2.0817978529e+00 -3.6057796524e+00 2.0817978529e+00 3.6057796524e+00 
47600 2.9379355800e+00 2.4994309284e-04 2.0817917665e+00 -3.6057691103e+00 2.0817917665e+00 3.6057691103e+00 
47700 2.9379355874e+00 2.4651729767e-04 2.0817857634e+00 -3.6057587127e+00 2.0817857634e+00 3.6057587127e+00 
47800 2.9379355948e+00 2.4313757767e-04 2.0817798426e+00 -3.6057484575e+00 2.0817798426e+00 3.6057484575e+00 
47900 2.9379356020e+00 2.3980331743e-04 2.0817740029e+00 -3.6057383430e+00 2.0817740029e+00 3.6057383430e+00 
48000 2.9379356091e+00 2.3651390970e-04 2.0817682433e+00 -3.6057283671e+00 2.0817682433e+00 3.6057283671e+00 
48100 2.9379356162e+00 2.3326875529e-04 2.0817625627e+00 -3.6057185280e+00 2.0817625627e+00 3.6057185280e+00 
48200 2.9379356231e+00 2.3006726295e-04 2.0817569601e+00 -3.6057088239e+00 2.0817569601e+00 3.6057088239e+00 
48300 2.9379356299e+00 2.2690884929e-04 2.0817514343e+00 -3.6056992529e+00 2.0817514343e+00 3.6056992529e+00 
48400 2.9379356367e+00 2.2379293867e-04 2.0817459843e+00 -3.6056898133e+00 2.0817459843e+00 3.6056898133e+00 
48500 2.9379356434e+00 2.2071896312e-04 2.0817406092e+00 -3.6056805033e+00 2.0817406092e+00 3.6056805033e+00 
48600 2.9379356499e+00 2.1768636220e-04 2.0817353079e+00 -3.6056713212e+00 2.0817353079e+00 3.6056713212e+00 
48700 2.9379356564e+00 2.1469458296e-04 2.0817300794e+00 -3.6056622652e+00 2.0817300794e+00 3.6056622652e+00 
48800 2.9379356628e+00 2.1174307981e-04 2.0817249228e+00 -3.6056533337e+00 2.0817249228e+00 3.6056533337e+00 
48900 2.9379356691e+00 2.0883131442e-04 2.0817198370e+00 -3.6056445249e+00 2.0817198370e+00 3.6056445249e+00 
49000 2.9379356753e+00 2.0595875568e-04 2.0817148212e+00 -3.6056358372e+00 2.0817148212e+00 3.6056358372e+00 
49100 2.9379356814e+00 2.0312487953e-04 2.0817098743e+00 -3.6056272690e+00 2.0817098743e+00 3.6056272690e+00 
49200 2.9379356875e+00 2.0032916892e-04 2.0817049955e+00 -3.6056188187e+00 2.0817049955e+00 3.6056188187e+00 
49300 2.9379356935e+00 1.9757111373e-04 2.0817001839e+00 -3.6056104846e+00 2.0817001839e+00 3.6056104846e+00 
49400 2.9379356993e+00 1.9485021063e-04 2.0816954385e+00 -3.6056022653e+00 2.0816954385e+00 3.6056022653e+00 
49500 2.9379357051e+00 1.9216596304e-04 2.0816907584e+00 -3.6055941592e+00 2.0816907584e+00 3.6055941592e+00 
49600 2.9379357109e+00 1.8951788101e-04 2.0816861428e+00 -3.6055861647e+00 2.0816861428e+00 3.6055861647e+00 
49700 2.9379357165e+00 1.8690548117e-04 2.0816815907e+00 -3.6055782803e+00 2.0816815907e+00 3.6055782803e+00 
49800 2.9379357221e+00 1.8432828659e-04 2.0816771014e+00 -3.6055705047e+00 2.0816771014e+00 3.6055705047e+00 
49900 2.9379357276e+00 1.8178582675e-04 2.0816726740e+00 -3.6055628362e+00 2.0816726740e+00 3.6055628362e+00 
50000 2.9379357330e+00 1.7927763744e-04 2.0816683077e+00 -3.6055552735e+00 2.0816683077e+00 3.6055552735e+00 
50100 2.9379357383e+00 1.7680326064e-04 2.0816640016e+00 -3.6055478151e+00 2.0816640016e+00 3.6055478151e+00 
50200 2.9379357436e+00 1.7436224450e-04 2.0816597549e+00 -3.6055404596e+00 2.0816597549e+00 3.6055404596e+00 
50300 2.9379357488e+00 1.7195414322e-04 2.0816555669e+00 -3.6055332057e+00 2.0816555669e+00 3.6055332057e+00 
50400 2.9379357539e+00 1.6957851695e-04 2.0816514366e+00 -3.6055260519e+00 2.0816514366e+00 3.6055260519e+00 
50500 2.9379357589e+00 1.6723493179e-04 2.0816473635e+00 -3.6055189970e+00 2.0816473635e+00 3.6055189970e+00 
50600 2.9379357639e+00 1.6492295962e-04 2.0816433466e+00 -3.6055120395e+00 2.0816433466e+00 3.6055120395e+00 
50700 2.9379357688e+00 1.6264217807e-04 2.0816393852e+00 -3.6055051782e+00 2.0816393852e+00 3.6055051782e+00 
50800 2.9379357737e+00 1.6039217044e-04 2.0816354786e+00 -3.6054984118e+00 2.0816354786e+00 3.6054984118e+00 
50900 2.9379357785e+00 1.5817252564e-04 2.0816316261e+00 -3.6054917390e+00 2.0816316261e+00 3.6054917390e+00 
51000 2.9379357832e+00 1.5598283806e-04 2.0816278268e+00 -3.6054851585e+00 2.0816278268e+00 3.6054851585e+00 
51100 2.9379357878e+00 1.5382270755e-04 2.0816240802e+00 -3.6054786691e+00 2.0816240802e+00 3.6054786691e+00 
51200 2.9379357924e+00 1.5169173934e-04 2.0816203854e+00 -3.6054722696e+00 2.0816203854e+00 3.6054722696e+00 
51300 2.9379357969e+00 1.4958954393e-04 2.0816167418e+00 -3.6054659587e+00 2.0816167418e+00 3.6054659587e+00 
51400 2.9379358014e+00 1.4751573707e-04 2.0816131487e+00 -3.6054597353e+00 2.0816131487e+00 3.6054597353e+00 
51500 2.9379358057e+00 1.4546993965e-04 2.0816096054e+00 -3.6054535981e+00 2.0816096054e+00 3.6054535981e+00 
51600 2.9379358101e+00 1.4345177765e-04 2.0816061112e+00 -3.6054475460e+00 2.0816061112e+00 3.6054475460e+00 
51700 2.9379358143e+00 1.4146088207e-04 2.0816026655e+00 -3.6054415779e+00 2.0816026655e+00 3.6054415779e+00 
51800 2.9379358186e+00 1.3949688886e-04 2.0815992677e+00 -3.6054356926e+00 2.0815992677e+00 3.6054356926e+00 
51900 2.9379358227e+00 1.3755943883e-04 2.0815959169e+00 -3.6054298890e+00 2.0815959169e+00 3.6054298890e+00 
52000 2.9379358268e+00 1.3564817764e-04 2.0815926128e+00 -3.6054241660e+00 2.0815926128e+00 3.6054241660e+00 
52100 2.9379358308e+00 1.3376275567e-04 2.0815893545e+00 -3.6054185225e+00 2.0815893545e+00 3.6054185225e+00 
52200 2.9379358348e+00 1.3190282800e-04 2.0815861415e+00 -3.6054129574e+00 2.0815861415e+00 3.6054129574e+00 
52300 2.9379358387e+00 1.3006805433e-04 2.0815829732e+00 -3.6054074697e+00 2.0815829732e+00 3.6054074697e+00 
52400 2.9379358426e+00 1.2825809892e-04 2.0815798489e+00 -3.6054020583e+00 2.0815798489e+00 3.6054020583e+00 
52500 2.9379358464e+00 1.2647263052e-04 2.0815767681e+00 -3.6053967222e+00 2.0815767681e+00 3.6053967222e+00 
52600 2.9379358502e+00 1.2471132233e-04 2.0815737302e+00 -3.6053914604e+00 2.0815737302e+00 3.6053914604e+00 
52700 2.9379358539e+00 1.2297385190e-04 2.0815707346e+00 -3.6053862719e+00 2.0815707346e+00 3.6053862719e+00 
52800 2.9379358576e+00 1.2125990111e-04 2.0815677807e+00 -3.6053811556e+00 2.0815677807e+00 3.6053811556e+00 
52900 2.9379358612e+00 1.1956915611e-04 2.0815648680e+00 -3.6053761107e+00 2.0815648680e+00 3.6053761107e+00 
53000 2.9379358647e+00 1.1790130723e-04 2.0815619959e+00 -3.6053711361e+00 2.0815619959e+00 3.6053711361e+00 
53100 2.9379358682e+00 1.1625604893e-04 2.0815591639e+00 -3.6053662308e+00 2.0815591639e+00 3.6053662308e+00 
53200 2.9379358717e+00 1.1463307979e-04 2.0815563714e+00 -3.6053613940e+00 2.0815563714e+00 3.6053613940e+00 
53300 2.9379358751e+00 1.1303210239e-04 2.0815536178e+00 -3.6053566248e+00 2.0815536178e+00 3.6053566248e+00 
53400 2.9379358785e+00 1.1145282329e-04 2.0815509027e+00 -3.6053519221e+00 2.0815509027e+00 3.6053519221e+00 
53500 2.9379358818e+00 1.0989495297e-04 2.0815482256e+00 -3.6053472851e+00 2.0815482256e+00 3.6053472851e+00 
53600 2.9379358851e+00 1.0835820577e-04 2.0815455859e+00 -3.6053427130e+00 2.0815455859e+00 3.6053427130e+00 
53700 2.9379358883e+00 1.0684229986e-04 2.0815429830e+00 -3.6053382047e+00 2.0815429830e+00 3.6053382047e+00 
53800 2.9379358915e+00 1.0534695715e-04 2.0815404166e+00 -3.6053337596e+00 2.0815404166e+00 3.6053337596e+00 
53900 2.9379358946e+00 1.0387190327e-04 2.0815378861e+00 -3.6053293766e+00 2.0815378861e+00 3.6053293766e+00 
54000 2.9379358977e+00 1.0241686751e-04 2.0815353910e+00 -3.6053250550e+00 2.0815353910e+00 3.6053250550e+00 
54100 2.9379359007e+00 1.0098158276e-04 2.0815329309e+00 -3.6053207939e+00 2.0815329309e+00 3.6053207939e+00 
54200 2.9379359037e+00 9.9565785484e-05 2.0815305052e+00 -3.6053165926e+00 2.0815305052e+00 3.6053165926e+00 
54300 2.9379359067e+00 9.8169215639e-05 2.0815281136e+00 -3.6053124501e+00 2.0815281136e+00 3.6053124501e+00 
54400 2.9379359096e+00 9.6791616654e-05 2.0815257555e+00 -3.6053083658e+00 2.0815257555e+00 3.6053083658e+00 
54500 2.9379359125e+00 9.5432735374e-05 2.0815234305e+00 -3.6053043387e+00 2.0815234305e+00 3.6053043387e+00 
54600 2.9379359153e+00 9.4092322010e-05 2.0815211381e+00 -3.6053003682e+00 2.0815211381e+00 3.6053003682e+00 
54700 2.9379359181e+00 9.2770130101e-05 2.0815188779e+00 -3.6052964535e+00 2.0815188779e+00 3.6052964535e+00 
54800 2.9379359209e+00 9.1465916456e-05 2.0815166495e+00 -3.6052925937e+00 2.0815166495e+00 3.6052925937e+00 
54900 2.9379359236e+00 9.0179441126e-05 2.0815144524e+00 -3.6052887882e+00 2.0815144524e+00 3.6052887882e+00 
55000 2.9379359263e+00 8.8910467346e-05 2.0815122862e+00 -3.6052850363e+00 2.0815122862e+00 3.6052850363e+00 
55100 2.9379359289e+00 8.7658761498e-05 2.0815101505e+00 -3.6052813371e+00 2.0815101505e+00 3.6052813371e+00 
55200 2.9379359316e+00 8.6424093065e-05 2.0815080448e+00 -3.6052776900e+00 2.0815080448e+00 3.6052776900e+00 
55300 2.9379359341e+00 8.5206234598e-05 2.0815059688e+00 -3.6052740943e+00 2.0815059688e+00 3.6052740943e+00 
55400 2.9379359367e+00 8.4004961659e-05 2.0815039221e+00 -3.6052705492e+00 2.0815039221e+00 3.6052705492e+00 
55500 2.9379359392e+00 8.2820052793e-05 2.0815019042e+00 -3.6052670541e+00 2.0815019042e+00 3.6052670541e+00 
55600 2.9379359416e+00 8.1651289483e-05 2.0814999148e+00 -3.6052636083e+00 2.0814999148e+00 3.6052636083e+00 
55700 2.9379359441e+00 8.0498456111e-05 2.0814979534e+00 -3.6052602112e+00 2.0814979534e+00 3.6052602112e+00 
55800 2.9379359465e+00 7.9361339917e-05 2.0814960197e+00 -3.6052568619e+00 2.0814960197e+00 3.6052568619e+00 
55900 2.9379359488e+00 7.8239730962e-05 2.0814941134e+00 -3.6052535600e+00 2.0814941134e+00 3.6052535600e+00 
56000 2.9379359511e+00 7.7133422088e-05 2.0814922340e+00 -3.6052503048e+00 2.0814922340e+00 3.6052503048e+00 
56100 2.9379359534e+00 7.6042208888e-05 2.0814903811e+00 -3.6052470956e+00 2.0814903811e+00 3.6052470956e+00 
56200 2.9379359557e+00 7.4965889653e-05 2.0814885545e+00 -3.6052439318e+00 2.0814885545e+00 3.6052439318e+00 
56300 2.9379359579e+00 7.3904265358e-05 2.0814867537e+00 -3.6052408127e+00 2.0814867537e+00 3.6052408127e+00 
56400 2.9379359601e+00 7.2857139601e-05 2.0814849785e+00 -3.6052377379e+00 2.0814849785e+00 3.6052377379e+00 
56500 2.9379359623e+00 7.1824318587e-05 2.0814832283e+00 -3.6052347066e+00 2.0814832283e+00 3.6052347066e+00 
56600 2.9379359645e+00 7.0805611088e-05 2.0814815030e+00 -3.6052317182e+00 2.0814815030e+00 3.6052317182e+00 
56700 2.9379359666e+00 6.9800828400e-05 2.0814798022e+00 -3.6052287723e+00 2.0814798022e+00 3.6052287723e+00 
56800 2.9379359688e+00 6.9518186975e-05 2.0814798022e+00 -3.6052287723e+00 2.0814798022e+00 3.6052287723e+00 
56900 2.9379359709e+00 6.9244737705e-05 2.0814798022e+00 -3.6052287723e+00 2.0814798022e+00 3.6052287723e+00 
57000 2.9379359730e+00 6.8980567235e-05 2.0814798022e+00 -3.6052287723e+00 2.0814798022e+00 3.6052287723e+00 
57100 2.9379359751e+00 6.8725719250e-05 2.0814798022e+00 -3.6052287723e+00 2.0814798022e+00 3.6052287723e+00 
57200 2.9379359772e+00 6.8480197740e-05 2.0814798022e+00 -3.6052287723e+00 2.0814798022e+00 3.6052287723e+00 
57300 2.9379359792e+00 6.8243970160e-05 2.0814798022e+00 -3.6052287723e+00 2.0814798022e+00 3.6052287723e+00 
57400 2.9379359812e+00 6.8016970490e-05 2.0814798022e+00 -3.6052287723e+00 2.0814798022e+00 3.6052287723e+00 
57500 2.9379359832e+00 6.7799102208e-05 2.0814798022e+00 -3.6052287723e+00 2.0814798022e+00 3.6052287723e+00 
57600 2.9379359851e+00 6.7590241137e-05 2.0814798022e+00 -3.6052287723e+00 2.0814798022e+00 3.6052287723e+00 
57700 2.9379359871e+00 6.7390238200e-05 2.0814798022e+00 -3.6052287723e+00 2.0814798022e+00 3.6052287723e+00 
57800 2.9379359889e+00 6.7198922042e-05 2.0814798022e+00 -3.6052287723e+00 2.0814798022e+00 3.6052287723e+00 
57900 2.9379359908e+00 6.7016101543e-05 2.0814798022e+00 -3.6052287723e+00 2.0814798022e+00 3.6052287723e+00 
58000 2.9379359926e+00 6.6841568211e-05 2.0814798022e+00 -3.6052287723e+00 2.0814798022e+00 3.6052287723e+00 
58100 2.9379359944e+00 6.6675098460e-05 2.0814798022e+00 -3.6052287723e+00 2.0814798022e+00 3.6052287723e+00 
58200 2.9379359962e+00 6.6516455759e-05 2.0814798022e+00 -3.6052287723e+00 2.0814798022e+00 3.6052287723e+00 
58300 2.9379359980e+00 6.6365392665e-05 2.0814798022e+00 -3.6052287723e+00 2.0814798022e+00 3.6052287723e+00 
58400 2.9379359997e+00 6.6221652737e-05 2.0814798022e+00 -3.6052287723e+00 2.0814798022e+00 3.6052287723e+00 
58500 2.9379360014e+00 6.6084972336e-05 2.0814798022e+00 -3.6052287723e+00 2.0814798022e+00 3.6052287723e+00 
58600 2.9379360031e+00 6.5955082298e-05 2.0814798022e+00 -3.6052287723e+00 2.0814798022e+00 3.6052287723e+00 
58700 2.9379360047e+00 6.5831709505e-05 2.0814798022e+00 -3.6052287723e+00 2.0814798022e+00 3.6052287723e+00 
58800 2.9379360063e+00 6.5714578336e-05 2.0814798022e+00 -3.6052287723e+00 2.0814798022e+00 3.6052287723e+00 
58900 2.9379360079e+00 6.5603412013e-05 2.0814798022e+00 -3.6052287723e+00 2.0814798022e+00 3.6052287723e+00 
59000 2.9379360095e+00 6.5497933842e-05 2.0814798022e+00 -3.6052287723e+00 2.0814798022e+00 3.6052287723e+00 
59100 2.9379360111e+00 6.5397868342e-05 2.0814798022e+00 -3.6052287723e+00 2.0814798022e+00 3.6052287723e+00 
59200 2.9379360126e+00 6.5302942290e-05 2.0814798022e+00 -3.6052287723e+00 2.0814798022e+00 3.6052287723e+00 
59300 2.9379360141e+00 6.5212885662e-05 2.0814798022e+00 -3.6052287723e+00 2.0814798022e+00 3.6052287723e+00 
59400 2.9379360156e+00 6.5127432477e-05 2.0814798022e+00 -3.6052287723e+00 2.0814798022e+00 3.6052287723e+00 
59500 2.9379360171e+00 6.5046321564e-05 2.0814798022e+00 -3.6052287723e+00 2.0814798022e+00 3.6052287723e+00 
59600 2.9379360185e+00 6.4969297240e-05 2.0814798022e+00 -3.6052287723e+00 2.0814798022e+00 3.6052287723e+00 
59700 2.9379360199e+00 6.4896109903e-05 2.0814798022e+00 -3.6052287723e+00 2.0814798022e+00 3.6052287723e+00 
59800 2.9379360213e+00 6.4826516562e-05 2.0814798022e+00 -3.6052287723e+00 2.0814798022e+00 3.6052287723e+00 
59900 2.9379360227e+00 6.4760281278e-05 2.0814798022e+00 -3.6052287723e+00 2.0814798022e+00 3.6052287723e+00 
60000 2.9379360241e+00 6.4697175554e-05 2.0814798022e+00 -3.6052287723e+00 2.0814798022e+00 3.6052287723e+00 
60100 2.9379360254e+00 6.4636978649e-05 2.0814798022e+00 -3.6052287723e+00 2.0814798022e+00 3.6052287723e+00 
60200 2.9379360268e+00 6.4579477838e-05 2.0814798022e+00 -3.6052287723e+00 2.0814798022e+00 3.6052287723e+00 
60300 2.9379360281e+00 6.4524468615e-05 2.0814798022e+00 -3.6052287723e+00 2.0814798022e+00 3.6052287723e+00 
60400 2.9379360293e+00 6.4471754843e-05 2.0814798022e+00 -3.6052287723e+00 2.0814798022e+00 3.6052287723e+00 
60500 2.9379360306e+00 6.4421148853e-05 2.0814798022e+00 -3.6052287723e+00 2.0814798022e+00 3.6052287723e+00 
60600 2.9379360319e+00 6.4372471507e-05 2.0814798022e+00 -3.6052287723e+00 2.0814798022e+00 3.6052287723e+00 
60700 2.9379360331e+00 6.4325552208e-05 2.0814798022e+00 -3.6052287723e+00 2.0814798022e+00 3.6052287723e+00 
60800 2.9379360343e+00 6.4280228882e-05 2.0814798022e+00 -3.6052287723e+00 2.0814798022e+00 3.6052287723e+00 
60900 2.9379360355e+00 6.4236347918e-05 2.0814798022e+00 -3.6052287723e+00 2.0814798022e+00 3.6052287723e+00 
61000 2.9379360367e+00 6.4193764086e-05 2.0814798022e+00 -3.6052287723e+00 2.0814798022e+00 3.6052287723e+00 
61100 2.9379360378e+00 6.4152340410e-05 2.0814798022e+00 -3.6052287723e+00 2.0814798022e+00 3.6052287723e+00 
61200 2.9379360390e+00 6.4111948043e-05 2.0814798022e+00 -3.6052287723e+00 2.0814798022e+00 3.6052287723e+00 
61300 2.9379360401e+00 6.4072466085e-05 2.0814798022e+00 -3.6052287723e+00 2.0814798022e+00 3.6052287723e+00 
61400 2.9379360412e+00 6.4033781412e-05 2.0814798022e+00 -3.6052287723e+00 2.0814798022e+00 3.6052287723e+00 
61500 2.9379360423e+00 6.3995788467e-05 2.0814798022e+00 -3.6052287723e+00 2.0814798022e+00 3.6052287723e+00 
61600 2.9379360434e+00 6.3958389051e-05 2.0814798022e+00 -3.6052287723e+00 2.0814798022e+00 3.6052287723e+00 
61700 2.9379360445e+00 6.3921492087e-05 2.0814798022e+00 -3.6052287723e+00 2.0814798022e+00 3.6052287723e+00 
61800 2.9379360455e+00 6.3885013382e-05 2.0814798022e+00 -3.6052287723e+00 2.0814798022e+00 3.6052287723e+00 
61900 2.9379360466e+00 6.3848875381e-05 2.0814798022e+00 -3.6052287723e+00 2.0814798022e+00 3.6052287723e+00 
62000 2.9379360476e+00 6.3813006911e-05 2.0814798022e+00 -3.6052287723e+00 2.0814798022e+00 3.6052287723e+00 
62100 2.9379360486e+00 6.3777342920e-05 2.0814798022e+00 -3.6052287723e+00 2.0814798022e+00 3.6052287723e+00 
62200 2.9379360496e+00 6.3741824211e-05 2.0814798022e+00 -3.6052287723e+00 2.0814798022e+00 3.6052287723e+00 
62300 2.9379360505e+00 6.3706397181e-05 2.0814798022e+00 -3.6052287723e+00 2.0814798022e+00 3.6052287723e+00 
62400 2.9379360515e+00 6.3671013550e-05 2.0814798022e+00 -3.6052287723e+00 2.0814798022e+00 3.6052287723e+00 
62500 2.9379360525e+00 6.3635630100e-05 2.0814798022e+00 -3.6052287723e+00 2.0814798022e+00 3.6052287723e+00 
62600 2.9379360534e+00 6.3600208403e-05 2.0814798022e+00 -3.6052287723e+00 2.0814798022e+00 3.6052287723e+00 
62700 2.9379360543e+00 6.3564714567e-05 2.0814798022e+00 -3.6052287723e+00 2.0814798022e+00 3.6052287723e+00 
62800 2.9379360552e+00 6.3529118974e-05 2.0814798022e+00 -3.6052287723e+00 2.0814798022e+00 3.6052287723e+00 
62900 2.9379360561e+00 6.3493396030e-05 2.0814798022e+00 -3.6052287723e+00 2.0814798022e+00 3.6052287723e+00 
63000 2.9379360570e+00 6.3457523912e-05 2.0814798022e+00 -3.6052287723e+00 2.0814798022e+00 3.6052287723e+00 
63100 2.9379360579e+00 6.3421484326e-05 2.0814798022e+00 -3.6052287723e+00 2.0814798022e+00 3.6052287723e+00 
63200 2.9379360587e+00 6.3385262278e-05 2.0814798022e+00 -3.6052287723e+00 2.0814798022e+00 3.6052287723e+00 
63300 2.9379360596e+00 6.3348845836e-05 2.0814798022e+00 -3.6052287723e+00 2.0814798022e+00 3.6052287723e+00 
63400 2.9379360604e+00 6.3312225910e-05 2.0814798022e+00 -3.6052287723e+00 2.0814798022e+00 3.6052287723e+00 
63500 2.9379360612e+00 6.3275396044e-05 2.0814798022e+00 -3.6052287723e+00 2.0814798022e+00 3.6052287723e+00 
63600 2.9379360620e+00 6.3238352199e-05 2.0814798022e+00 -3.6052287723e+00 2.0814798022e+00 3.6052287723e+00 
63700 2.9379360628e+00 6.3201092567e-05 2.0814798022e+00 -3.6052287723e+00 2.0814798022e+00 3.6052287723e+00 
63800 2.9379360636e+00 6.3163617367e-05 2.0814798022e+00 -3.6052287723e+00 2.0814798022e+00 3.6052287723e+00 
63900 2.9379360644e+00 6.3125928677e-05 2.0814798022e+00 -3.6052287723e+00 2.0814798022e+00 3.6052287723e+00 
64000 2.9379360652e+00 6.3088030250e-05 2.0814798022e+00 -3.6052287723e+00 2.0814798022e+00 3.6052287723e+00 
64100 2.9379360659e+00 6.3049927351e-05 2.0814798022e+00 -3.6052287723e+00 2.0814798022e+00 3.6052287723e+00 
64200 2.9379360667e+00 6.3011626609e-05 2.0814798022e+00 -3.6052287723e+00 2.0814798022e+00 3.6052287723e+00 
64300 2.9379360674e+00 6.2973135858e-05 2.0814798022e+00 -3.6052287723e+00 2.0814798022e+00 3.6052287723e+00 
64400 2.9379360681e+00 6.2934464002e-05 2.0814798022e+00 -3.6052287723e+00 2.0814798022e+00 3.6052287723e+00 
64500 2.9379360688e+00 6.2895620882e-05 2.0814798022e+00 -3.6052287723e+00 2.0814798022e+00 3.6052287723e+00 
64600 2.9379360695e+00 6.2856617153e-05 2.0814798022e+00 -3.6052287723e+00 2.0814798022e+00 3.6052287723e+00 
64700 2.9379360702e+00 6.2817464167e-05 2.0814798022e+00 -3.6052287723e+00 2.0814798022e+00 3.6052287723e+00 
64800 2.9379360709e+00 6.2778173864e-05 2.0814798022e+00 -3.6052287723e+00 2.0814798022e+00 3.6052287723e+00 
64900 2.9379360716e+00 6.2738758674e-05 2.0814798022e+00 -3.6052287723e+00 2.0814798022e+00 3.6052287723e+00 
65000 2.9379360723e+00 6.2699231417e-05 2.0814798022e+00 -3.6052287723e+00 2.0814798022e+00 3.6052287723e+00 
65100 2.9379360729e+00 6.2659605222e-05 2.0814798022e+00 -3.6052287723e+00 2.0814798022e+00 3.6052287723e+00 
65200 2.9379360736e+00 6.2619893440e-05 2.0814798022e+00 -3.6052287723e+00 2.0814798022e+00 3.6052287723e+00 
65300 2.9379360742e+00 6.2580109577e-05 2.0814798022e+00 -3.6052287723e+00 2.0814798022e+00 3.6052287723e+00 
65400 2.9379360748e+00 6.2540267223e-05 2.0814798022e+00 -3.6052287723e+00 2.0814798022e+00 3.6052287723e+00 
65500 2.9379360754e+00 6.2500379986e-05 2.0814798022e+00 -3.6052287723e+00 2.0814798022e+00 3.6052287723e+00 
65600 2.9379360760e+00 6.2460461441e-05 2.0814798022e+00 -3.6052287723e+00 2.0814798022e+00 3.6052287723e+00 
65700 2.9379360767e+00 6.2420525076e-05 2.0814798022e+00 -3.6052287723e+00 2.0814798022e+00 3.6052287723e+00 
65800 2.9379360772e+00 6.2380584247e-05 2.0814798022e+00 -3.6052287723e+00 2.0814798022e+00 3.6052287723e+00 
65900 2.9379360778e+00 6.2340652135e-05 2.0814798022e+00 -3.6052287723e+00 2.0814798022e+00 3.6052287723e+00 
66000 2.9379360784e+00 6.2300741711e-05 2.0814798022e+00 -3.6052287723e+00 2.0814798022e+00 3.6052287723e+00 
66100 2.9379360790e+00 6.2260865702e-05 2.0814798022e+00 -3.6052287723e+00 2.0814798022e+00 3.6052287723e+00 
66200 2.9379360795e+00 6.2221036564e-05 2.0814798022e+00 -3.6052287723e+00 2.0814798022e+00 3.6052287723e+00 
66300 2.9379360801e+00 6.2181266454e-05 2.0814798022e+00 -3.6052287723e+00 2.0814798022e+00 3.6052287723e+00 
66400 2.9379360806e+00 6.2141567211e-05 2.0814798022e+00 -3.6052287723e+00 2.0814798022e+00 3.6052287723e+00 
66500 2.9379360812e+00 6.2101950337e-05 2.0814798022e+00 -3.6052287723e+00 2.0814798022e+00 3.6052287723e+00 
66600 2.9379360817e+00 6.2062426985e-05 2.0814798022e+00 -3.6052287723e+00 2.0814798022e+00 3.6052287723e+00 
66700 2.9379360822e+00 6.2023007941e-05 2.0814798022e+00 -3.6052287723e+00 2.0814798022e+00 3.6052287723e+00 
66800 2.9379360827e+00 6.1983703615e-05 2.0814798022e+00 -3.6052287723e+00 2.0814798022e+00 3.6052287723e+00 
66900 2.9379360832e+00 6.1944524041e-05 2.0814798022e+00 -3.6052287723e+00 2.0814798022e+00 3.6052287723e+00 
67000 2.9379360837e+00 6.1905478862e-05 2.0814798022e+00 -3.6052287723e+00 2.0814798022e+00 3.6052287723e+00 
67100 2.9379360842e+00 6.1866577333e-05 2.0814798022e+00 -3.6052287723e+00 2.0814798022e+00 3.6052287723e+00 
67200 2.9379360847e+00 6.1827828318e-05 2.0814798022e+00 -3.6052287723e+00 2.0814798022e+00 3.6052287723e+00 
67300 2.9379360852e+00 6.1789240290e-05 2.0814798022e+00 -3.6052287723e+00 2.0814798022e+00 3.6052287723e+00 
67400 2.9379360857e+00 6.1750821329e-05 2.0814798022e+00 -3.6052287723e+00 2.0814798022e+00 3.6052287723e+00 
67500 2.9379360861e+00 6.1712579135e-05 2.0814798022e+00 -3.6052287723e+00 2.0814798022e+00 3.6052287723e+00 
67600 2.9379360866e+00 6.1674521020e-05 2.0814798022e+00 -3.6052287723e+00 2.0814798022e+00 3.6052287723e+00 
67700 2.9379360871e+00 6.1636653924e-05 2.0814798022e+00 -3.6052287723e+00 2.0814798022e+00 3.6052287723e+00 
67800 2.9379360875e+00 6.1598984410e-05 2.0814798022e+00 -3.6052287723e+00 2.0814798022e+00 3.6052287723e+00 
67900 2.9379360880e+00 6.1561518684e-05 2.0814798022e+00 -3.6052287723e+00 2.0814798022e+00 3.6052287723e+00 
68000 2.9379360884e+00 6.1524262592e-05 2.0814798022e+00 -3.6052287723e+00 2.0814798022e+00 3.6052287723e+00 
68100 2.9379360888e+00 6.1487221631e-05 2.0814798022e+00 -3.6052287723e+00 2.0814798022e+00 3.6052287723e+00 
68200 2.9379360892e+00 6.1450400959e-05 2.0814798022e+00 -3.6052287723e+00 2.0814798022e+00 3.6052287723e+00 
68300 2.9379360897e+00 6.1413805408e-05 2.0814798022e+00 -3.6052287723e+00 2.0814798022e+00 3.6052287723e+00 
68400 2.9379360901e+00 6.1377439483e-05 2.0814798022e+00 -3.6052287723e+00 2.0814798022e+00 3.6052287723e+00 
68500 2.9379360905e+00 6.1341307380e-05 2.0814798022e+00 -3.6052287723e+00 2.0814798022e+00 3.6052287723e+00 
68600 2.9379360909e+00 6.1305412995e-05 2.0814798022e+00 -3.6052287723e+00 2.0814798022e+00 3.6052287723e+00 
68700 2.9379360913e+00 6.1269759932e-05 2.0814798022e+00 -3.6052287723e+00 2.0814798022e+00 3.6052287723e+00 
68800 2.9379360917e+00 6.1234351511e-05 2.0814798022e+00 -3.6052287723e+00 2.0814798022e+00 3.6052287723e+00 
68900 2.9379360921e+00 6.1199190783e-05 2.0814798022e+00 -3.6052287723e+00 2.0814798022e+00 3.6052287723e+00 
69000 2.9379360924e+00 6.1164280535e-05 2.0814798022e+00 -3.6052287723e+00 2.0814798022e+00 3.6052287723e+00 
69100 2.9379360928e+00 6.1129623306e-05 2.0814798022e+00 -3.6052287723e+00 2.0814798022e+00 3.6052287723e+00 
69200 2.9379360932e+00 6.1095221389e-05 2.0814798022e+00 -3.6052287723e+00 2.0814798022e+00 3.6052287723e+00 
69300 2.9379360935e+00 6.1061076848e-05 2.0814798022e+00 -3.6052287723e+00 2.0814798022e+00 3.6052287723e+00 
69400 2.9379360939e+00 6.1027191521e-05 2.0814798022e+00 -3.6052287723e+00 2.0814798022e+00 3.6052287723e+00 
69500 2.9379360943e+00 6.0993567036e-05 2.0814798022e+00 -3.6052287723e+00 2.0814798022e+00 3.6052287723e+00 
69600 2.9379360946e+00 6.0960204813e-05 2.0814798022e+00 -3.6052287723e+00 2.0814798022e+00 3.6052287723e+00 
69700 2.9379360949e+00 6.0927106081e-05 2.0814798022e+00 -3.6052287723e+00 2.0814798022e+00 3.6052287723e+00 
69800 2.9379360953e+00 6.0894271876e-05 2.0814798022e+00 -3.6052287723e+00 2.0814798022e+00 3.6052287723e+00 
69900 2.9379360956e+00 6.0861703062e-05 2.0814798022e+00 -3.6052287723e+00 2.0814798022e+00 3.6052287723e+00 
70000 2.9379360960e+00 6.0829400327e-05 2.0814798022e+00 -3.6052287723e+00 2.0814798022e+00 3.6052287723e+00 
70100 2.9379360963e+00 6.0797364200e-05 2.0814798022e+00 -3.6052287723e+00 2.0814798022e+00 3.6052287723e+00 
70200 2.9379360966e+00 6.0765595055e-05 2.0814798022e+00 -3.6052287723e+00 2.0814798022e+00 3.6052287723e+00 
70300 2.9379360969e+00 6.0734093117e-05 2.0814798022e+00 -3.6052287723e+00 2.0814798022e+00 3.6052287723e+00 
70400 2.9379360972e+00 6.0702858469e-05 2.0814798022e+00 -3.6052287723e+00 2.0814798022e+00 3.6052287723e+00 
70500 2.9379360975e+00 6.0671891064e-05 2.0814798022e+00 -3.6052287723e+00 2.0814798022e+00 3.6052287723e+00 
70600 2.9379360978e+00 6.0641190727e-05 2.0814798022e+00 -3.6052287723e+00 2.0814798022e+00 3.6052287723e+00 
70700 2.9379360981e+00 6.0610757161e-05 2.0814798022e+00 -3.6052287723e+00 2.0814798022e+00 3.6052287723e+00 
70800 2.9379360984e+00 6.0580589952e-05 2.0814798022e+00 -3.6052287723e+00 2.0814798022e+00 3.6052287723e+00 
70900 2.9379360987e+00 6.0550688583e-05 2.0814798022e+00 -3.6052287723e+00 2.0814798022e+00 3.6052287723e+00 
71000 2.9379360990e+00 6.0521052430e-05 2.0814798022e+00 -3.6052287723e+00 2.0814798022e+00 3.6052287723e+00 
71100 2.9379360993e+00 6.0491680771e-05 2.0814798022e+00 -3.6052287723e+00 2.0814798022e+00 3.6052287723e+00 
71200 2.9379360996e+00 6.0462572793e-05 2.0814798022e+00 -3.6052287723e+00 2.0814798022e+00 3.6052287723e+00 
71300 2.9379360999e+00 6.0433727591e-05 2.0814798022e+00 -3.6052287723e+00 2.0814798022e+00 3.6052287723e+00 
71400 2.9379361001e+00 6.0405144182e-05 2.0814798022e+00 -3.6052287723e+00 2.0814798022e+00 3.6052287723e+00 
71500 2.9379361004e+00 6.0376821499e-05 2.0814798022e+00 -3.6052287723e+00 2.0814798022e+00 3.6052287723e+00 
71600 2.9379361007e+00 6.0348758405e-05 2.0814798022e+00 -3.6052287723e+00 2.0814798022e+00 3.6052287723e+00 
71700 2.9379361009e+00 6.0320953691e-05 2.0814798022e+00 -3.6052287723e+00 2.0814798022e+00 3.6052287723e+00 
71800 2.9379361012e+00 6.0293406080e-05 2.0814798022e+00 -3.6052287723e+00 2.0814798022e+00 3.6052287723e+00 
71900 2.9379361014e+00 6.0266114234e-05 2.0814798022e+00 -3.6052287723e+00 2.0814798022e+00 3.6052287723e+00 
72000 2.9379361017e+00 6.0239076757e-05 2.0814798022e+00 -3.6052287723e+00 2.0814798022e+00 3.6052287723e+00 
72100 2.9379361019e+00 6.0212292193e-05 2.0814798022e+00 -3.6052287723e+00 2.0814798022e+00 3.6052287723e+00 
72200 2.9379361022e+00 6.0185759039e-05 2.0814798022e+00 -3.6052287723e+00 2.0814798022e+00 3.6052287723e+00 
72300 2.9379361024e+00 6.0159475740e-05 2.0814798022e+00 -3.6052287723e+00 2.0814798022e+00 3.6052287723e+00 
72400 2.9379361027e+00 6.0133440696e-05 2.0814798022e+00 -3.6052287723e+00 2.0814798022e+00 3.6052287723e+00 
72500 2.9379361029e+00 6.0107652263e-05 2.0814798022e+00 -3.6052287723e+00 2.0814798022e+00 3.6052287723e+00 
72600 2.9379361031e+00 6.0082108757e-05 2.0814798022e+00 -3.6052287723e+00 2.0814798022e+00 3.6052287723e+00 
72700 2.9379361034e+00 6.0056808457e-05 2.0814798022e+00 -3.6052287723e+00 2.0814798022e+00 3.6052287723e+00 
72800 2.9379361036e+00 6.0031749605e-05 2.0814798022e+00 -3.6052287723e+00 2.0814798022e+00 3.6052287723e+00 
72900 2.9379361038e+00 6.0006930413e-05 2.0814798022e+00 -3.6052287723e+00 2.0814798022e+00 3.6052287723e+00 
73000 2.9379361040e+00 5.9982349062e-05 2.0814798022e+00 -3.6052287723e+00 2.0814798022e+00 3.6052287723e+00 
73100 2.9379361042e+00 5.9958003703e-05 2.0814798022e+00 -3.6052287723e+00 2.0814798022e+00 3.6052287723e+00 
73200 2.9379361045e+00 5.9933892465e-05 2.0814798022e+00 -3.6052287723e+00 2.0814798022e+00 3.6052287723e+00 
73300 2.9379361047e+00 5.9910013452e-05 2.0814798022e+00 -3.6052287723e+00 2.0814798022e+00 3.6052287723e+00 
73400 2.9379361049e+00 5.9886364745e-05 2.0814798022e+00 -3.6052287723e+00 2.0814798022e+00 3.6052287723e+00 
73500 2.9379361051e+00 5.9862944408e-05 2.0814798022e+00 -3.6052287723e+00 2.0814798022e+00 3.6052287723e+00 
73600 2.9379361053e+00 5.9839750485e-05 2.0814798022e+00 -3.6052287723e+00 2.0814798022e+00 3.6052287723e+00 
73700 2.9379361055e+00 5.9816781006e-05 2.0814798022e+00 -3.6052287723e+00 2.0814798022e+00 3.6052287723e+00 
73800 2.9379361057e+00 5.9794033989e-05 2.0814798022e+00 -3.6052287723e+00 2.0814798022e+00 3.6052287723e+00 
73900 2.9379361059e+00 5.9771507436e-05 2.0814798022e+00 -3.6052287723e+00 2.0814798022e+00 3.6052287723e+00 
74000 2.9379361061e+00 5.9749199339e-05 2.0814798022e+00 -3.6052287723e+00 2.0814798022e+00 3.6052287723e+00 
74100 2.9379361063e+00 5.9727107685e-05 2.0814798022e+00 -3.6052287723e+00 2.0814798022e+00 3.6052287723e+00 
74200 2.9379361064e+00 5.9705230451e-05 2.0814798022e+00 -3.6052287723e+00 2.0814798022e+00 3.6052287723e+00 
74300 2.9379361066e+00 5.9683565606e-05 2.0814798022e+00 -3.6052287723e+00 2.0814798022e+00 3.6052287723e+00 
74400 2.9379361068e+00 5.9662111119e-05 2.0814798022e+00 -3.6052287723e+00 2.0814798022e+00 3.6052287723e+00 
74500 2.9379361070e+00 5.9640864953e-05 2.0814798022e+00 -3.6052287723e+00 2.0814798022e+00 3.6052287723e+00 
74600 2.9379361072e+00 5.9619825072e-05 2.0814798022e+00 -3.6052287723e+00 2.0814798022e+00 3.6052287723e+00 
74700 2.9379361073e+00 5.9598989438e-05 2.0814798022e+00 -3.6052287723e+00 2.0814798022e+00 3.6052287723e+00 
74800 2.9379361075e+00 5.9578356013e-05 2.0814798022e+00 -3.6052287723e+00 2.0814798022e+00 3.6052287723e+00 
74900 2.9379361077e+00 5.9557922764e-05 2.0814798022e+00 -3.6052287723e+00 2.0814798022e+00 3.6052287723e+00 
75000 2.9379361079e+00 5.9537687659e-05 2.0814798022e+00 -3.6052287723e+00 2.0814798022e+00 3.6052287723e+00 
75100 2.9379361080e+00 5.9517648672e-05 2.0814798022e+00 -3.6052287723e+00 2.0814798022e+00 3.6052287723e+00 
75200 2.9379361082e+00 5.9497803781e-05 2.0814798022e+00 -3.6052287723e+00 2.0814798022e+00 3.6052287723e+00 
75300 2.9379361083e+00 5.9478150974e-05 2.0814798022e+00 -3.6052287723e+00 2.0814798022e+00 3.6052287723e+00 
75400 2.9379361085e+00 5.9458688242e-05 2.0814798022e+00 -3.6052287723e+00 2.0814798022e+00 3.6052287723e+00 
75500 2.9379361087e+00 5.9439413587e-05 2.0814798022e+00 -3.6052287723e+00 2.0814798022e+00 3.6052287723e+00 
75600 2.9379361088e+00 5.9420325021e-05 2.0814798022e+00 -3.6052287723e+00 2.0814798022e+00 3.6052287723e+00 
75700 2.9379361090e+00 5.9401420567e-05 2.0814798022e+00 -3.6052287723e+00 2.0814798022e+00 3.6052287723e+00 
75800 2.9379361091e+00 5.9382698255e-05 2.0814798022e+00 -3.6052287723e+00 2.0814798022e+00 3.6052287723e+00 
75900 2.9379361093e+00 5.9364156132e-05 2.0814798022e+00 -3.6052287723e+00 2.0814798022e+00 3.6052287723e+00 
76000 2.9379361094e+00 5.9345792254e-05 2.0814798022e+00 -3.6052287723e+00 2.0814798022e+00 3.6052287723e+00 
76100 2.9379361096e+00 5.9327604693e-05 2.0814798022e+00 -3.6052287723e+00 2.0814798022e+00 3.6052287723e+00 
76200 2.9379361097e+00 5.9309591534e-05 2.0814798022e+00 -3.6052287723e+00 2.0814798022e+00 3.6052287723e+00 
76300 2.9379361098e+00 5.9291750876e-05 2.0814798022e+00 -3.6052287723e+00 2.0814798022e+00 3.6052287723e+00 
76400 2.9379361100e+00 5.9274080834e-05 2.0814798022e+00 -3.6052287723e+00 2.0814798022e+00 3.6052287723e+00 
76500 2.9379361101e+00 5.9256579538e-05 2.0814798022e+00 -3.6052287723e+00 2.0814798022e+00 3.6052287723e+00 
76600 2.9379361103e+00 5.9239245138e-05 2.0814798022e+00 -3.6052287723e+00 2.0814798022e+00 3.6052287723e+00 
76700 2.9379361104e+00 5.9222075796e-05 2.0814798022e+00 -3.6052287723e+00 2.0814798022e+00 3.6052287723e+00 
76800 2.9379361105e+00 5.9205069693e-05 2.0814798022e+00 -3.6052287723e+00 2.0814798022e+00 3.6052287723e+00 
76900 2.9379361106e+00 5.9188225029e-05 2.0814798022e+00 -3.6052287723e+00 2.0814798022e+00 3.6052287723e+00 
77000 2.9379361108e+00 5.9171540021e-05 2.0814798022e+00 -3.6052287723e+00 2.0814798022e+00 3.6052287723e+00 
77100 2.9379361109e+00 5.9155012904e-05 2.0814798022e+00 -3.6052287723e+00 2.0814798022e+00 3.6052287723e+00 
77200 2.9379361110e+00 5.9138641932e-05 2.0814798022e+00 -3.6052287723e+00 2.0814798022e+00 3.6052287723e+00 
77300 2.9379361112e+00 5.9122425379e-05 2.0814798022e+00 -3.6052287723e+00 2.0814798022e+00 3.6052287723e+00 
77400 2.9379361113e+00 5.9106361536e-05 2.0814798022e+00 -3.6052287723e+00 2.0814798022e+00 3.6052287723e+00 
77500 2.9379361114e+00 5.9090448717e-05 2.0814798022e+00 -3.6052287723e+00 2.0814798022e+00 3.6052287723e+00 
77600 2.9379361115e+00 5.9074685251e-05 2.0814798022e+00 -3.6052287723e+00 2.0814798022e+00 3.6052287723e+00 
77700 2.9379361116e+00 5.9059069491e-05 2.0814798022e+00 -3.6052287723e+00 2.0814798022e+00 3.6052287723e+00 
77800 2.9379361117e+00 5.9043599806e-05 2.0814798022e+00 -3.6052287723e+00 2.0814798022e+00 3.6052287723e+00 
77900 2.9379361119e+00 5.9028274590e-05 2.0814798022e+00 -3.6052287723e+00 2.0814798022e+00 3.6052287723e+00 
78000 2.9379361120e+00 5.9013092251e-05 2.0814798022e+00 -3.6052287723e+00 2.0814798022e+00 3.6052287723e+00 
78100 2.9379361121e+00 5.8998051221e-05 2.0814798022e+00 -3.6052287723e+00 2.0814798022e+00 3.6052287723e+00 
78200 2.9379361122e+00 5.8983149951e-05 2.0814798022e+00 -3.6052287723e+00 2.0814798022e+00 3.6052287723e+00 
78300 2.9379361123e+00 5.8968386914e-05 2.0814798022e+00 -3.6052287723e+00 2.0814798022e+00 3.6052287723e+00 
78400 2.9379361124e+00 5.8953760601e-05 2.0814798022e+00 -3.6052287723e+00 2.0814798022e+00 3.6052287723e+00 
78500 2.9379361125e+00 5.8939269521e-05 2.0814798022e+00 -3.6052287723e+00 2.0814798022e+00 3.6052287723e+00 
78600 2.9379361126e+00 5.8924912208e-05 2.0814798022e+00 -3.6052287723e+00 2.0814798022e+00 3.6052287723e+00 
78700 2.9379361127e+00 5.8910687212e-05 2.0814798022e+00 -3.6052287723e+00 2.0814798022e+00 3.6052287723e+00 
78800 2.9379361128e+00 5.8896593104e-05 2.0814798022e+00 -3.6052287723e+00 2.0814798022e+00 3.6052287723e+00 
78900 2.9379361129e+00 5.8882628474e-05 2.0814798022e+00 -3.6052287723e+00 2.0814798022e+00 3.6052287723e+00 
79000 2.9379361130e+00 5.8868791933e-05 2.0814798022e+00 -3.6052287723e+00 2.0814798022e+00 3.6052287723e+00 
79100 2.9379361131e+00 5.8855082110e-05 2.0814798022e+00 -3.6052287723e+00 2.0814798022e+00 3.6052287723e+00 
79200 2.9379361132e+00 5.8841497654e-05 2.0814798022e+00 -3.6052287723e+00 2.0814798022e+00 3.6052287723e+00 
79300 2.9379361133e+00 5.8828037231e-05 2.0814798022e+00 -3.6052287723e+00 2.0814798022e+00 3.6052287723e+00 
79400 2.9379361134e+00 5.8814699529e-05 2.0814798022e+00 -3.6052287723e+00 2.0814798022e+00 3.6052287723e+00 
79500 2.9379361135e+00 5.8801483251e-05 2.0814798022e+00 -3.6052287723e+00 2.0814798022e+00 3.6052287723e+00 
79600 2.9379361136e+00 5.8788387122e-05 2.0814798022e+00 -3.6052287723e+00 2.0814798022e+00 3.6052287723e+00 
79700 2.9379361137e+00 5.8775409881e-05 2.0814798022e+00 -3.6052287723e+00 2.0814798022e+00 3.6052287723e+00 
79800 2.9379361138e+00 5.8762550288e-05 2.0814798022e+00 -3.6052287723e+00 2.0814798022e+00 3.6052287723e+00 
79900 2.9379361138e+00 5.8749807120e-05 2.0814798022e+00 -3.6052287723e+00 2.0814798022e+00 3.6052287723e+00 
80000 2.9379361139e+00 5.8737179170e-05 2.0814798022e+00 -3.6052287723e+00 2.0814798022e+00 3.6052287723e+00 
80100 2.9379361140e+00 5.8724665250e-05 2.0814798022e+00 -3.6052287723e+00 2.0814798022e+00 3.6052287723e+00 
80200 2.9379361141e+00 5.8712264188e-05 2.0814798022e+00 -3.6052287723e+00 2.0814798022e+00 3.6052287723e+00 
80300 2.9379361142e+00 5.8699974828e-05 2.0814798022e+00 -3.6052287723e+00 2.0814798022e+00 3.6052287723e+00 
80400 2.9379361143e+00 5.8687796029e-05 2.0814798022e+00 -3.6052287723e+00 2.0814798022e+00 3.6052287723e+00 
80500 2.9379361144e+00 5.8675726671e-05 2.0814798022e+00 -3.6052287723e+00 2.0814798022e+00 3.6052287723e+00 
80600 2.9379361144e+00 5.8663765644e-05 2.0814798022e+00 -3.6052287723e+00 2.0814798022e+00 3.6052287723e+00 
80700 2.9379361145e+00 5.8651911856e-05 2.0814798022e+00 -3.6052287723e+00 2.0814798022e+00 3.6052287723e+00 
80800 2.9379361146e+00 5.8640164229e-05 2.0814798022e+00 -3.6052287723e+00 2.0814798022e+00 3.6052287723e+00 
80900 2.9379361147e+00 5.8628521704e-05 2.0814798022e+00 -3.6052287723e+00 2.0814798022e+00 3.6052287723e+00 
81000 2.9379361147e+00 5.8616983230e-05 2.0814798022e+00 -3.6052287723e+00 2.0814798022e+00 3.6052287723e+00 
81100 2.9379361148e+00 5.8605547776e-05 2.0814798022e+00 -3.6052287723e+00 2.0814798022e+00 3.6052287723e+00 
81200 2.9379361149e+00 5.8594214320e-05 2.0814798022e+00 -3.6052287723e+00 2.0814798022e+00 3.6052287723e+00 
81300 2.9379361150e+00 5.8582981858e-05 2.0814798022e+00 -3.6052287723e+00 2.0814798022e+00 3.6052287723e+00 
81400 2.9379361150e+00 5.8571849399e-05 2.0814798022e+00 -3.6052287723e+00 2.0814798022e+00 3.6052287723e+00 
81500 2.9379361151e+00 5.8560815961e-05 2.0814798022e+00 -3.6052287723e+00 2.0814798022e+00 3.6052287723e+00 
81600 2.9379361152e+00 5.8549880578e-05 2.0814798022e+00 -3.6052287723e+00 2.0814798022e+00 3.6052287723e+00 
81700 2.9379361152e+00 5.8539042300e-05 2.0814798022e+00 -3.6052287723e+00 2.0814798022e+00 3.6052287723e+00 
81800 2.9379361153e+00 5.8528300181e-05 2.0814798022e+00 -3.6052287723e+00 2.0814798022e+00 3.6052287723e+00 
81900 2.9379361154e+00 5.8517653294e-05 2.0814798022e+00 -3.6052287723e+00 2.0814798022e+00 3.6052287723e+00 
82000 2.9379361154e+00 5.8507100722e-05 2.0814798022e+00 -3.6052287723e+00 2.0814798022e+00 3.6052287723e+00 
82100 2.9379361155e+00 5.8496641558e-05 2.0814798022e+00 -3.6052287723e+00 2.0814798022e+00 3.6052287723e+00 
82200 2.9379361156e+00 5.8486274907e-05 2.0814798022e+00 -3.6052287723e+00 2.0814798022e+00 3.6052287723e+00 
82300 2.9379361156e+00 5.8475999887e-05 2.0814798022e+00 -3.6052287723e+00 2.0814798022e+00 3.6052287723e+00 
82400 2.9379361157e+00 5.8465815623e-05 2.0814798022e+00 -3.6052287723e+00 2.0814798022e+00 3.6052287723e+00 
82500 2.9379361158e+00 5.8455721255e-05 2.0814798022e+00 -3.6052287723e+00 2.0814798022e+00 3.6052287723e+00 
82600 2.9379361158e+00 5.8445715929e-05 2.0814798022e+00 -3.6052287723e+00 2.0814798022e+00 3.6052287723e+00 
82700 2.9379361159e+00 5.8435798804e-05 2.0814798022e+00 -3.6052287723e+00 2.0814798022e+00 3.6052287723e+00 
82800 2.9379361159e+00 5.8425969049e-05 2.0814798022e+00 -3.6052287723e+00 2.0814798022e+00 3.6052287723e+00 
82900 2.9379361160e+00 5.8416225841e-05 2.0814798022e+00 -3.6052287723e+00 2.0814798022e+00 3.6052287723e+00 
83000 2.9379361161e+00 5.8406568367e-05 2.0814798022e+00 -3.6052287723e+00 2.0814798022e+00 3.6052287723e+00 
83100 2.9379361161e+00 5.8396995823e-05 2.0814798022e+00 -3.6052287723e+00 2.0814798022e+00 3.6052287723e+00 
83200 2.9379361162e+00 5.8387507415e-05 2.0814798022e+00 -3.6052287723e+00 2.0814798022e+00 3.6052287723e+00 
83300 2.9379361162e+00 5.8378102358e-05 2.0814798022e+00 -3.6052287723e+00 2.0814798022e+00 3.6052287723e+00 
83400 2.9379361163e+00 5.8368779873e-05 2.0814798022e+00 -3.6052287723e+00 2.0814798022e+00 3.6052287723e+00 
83500 2.9379361163e+00 5.8359539193e-05 2.0814798022e+00 -3.6052287723e+00 2.0814798022e+00 3.6052287723e+00 
83600 2.9379361164e+00 5.8350379557e-05 2.0814798022e+00 -3.6052287723e+00 2.0814798022e+00 3.6052287723e+00 
83700 2.9379361165e+00 5.8341300214e-05 2.0814798022e+00 -3.6052287723e+00 2.0814798022e+00 3.6052287723e+00 
83800 2.9379361165e+00 5.8332300419e-05 2.0814798022e+00 -3.6052287723e+00 2.0814798022e+00 3.6052287723e+00 
83900 2.9379361166e+00 5.8323379435e-05 2.0814798022e+00 -3.6052287723e+00 2.0814798022e+00 3.6052287723e+00 
84000 2.9379361166e+00 5.8314536535e-05 2.0814798022e+00 -3.6052287723e+00 2.0814798022e+00 3.6052287723e+00 
84100 2.9379361167e+00 5.8305770997e-05 2.0814798022e+00 -3.6052287723e+00 2.0814798022e+00 3.6052287723e+00 
84200 2.9379361167e+00 5.8298467208e-05 2.0814798022e+00 -3.6052287723e+00 2.0814798022e+00 3.6052287723e+00 
84200 2.9379361167e+00 5.8298467208e-05 2.0814798022e+00 -3.6052287723e+00 2.0814798022e+00 3.6052287723e+00 
