# step Hamiltonian StressXX CellTensor1 CellTensor2 CellTensor3 CellTensor4 
0 5.5275362915e+00 -3.0558381149e-01 1.6185780433e+00 -2.8034594071e+00 1.6185780433e+00 2.8034594071e+00 
100 5.5243386786e+00 -3.0950933630e-01 1.6185780433e+00 -2.8034594071e+00 1.6185780433e+00 2.8034594071e+00 
200 5.5180402724e+00 -3.0374480608e-01 1.6281485508e+00 -2.8200360122e+00 1.6281485508e+00 2.8200360122e+00 
300 5.5123843722e+00 -2.9820325211e-01 1.6374853274e+00 -2.8362077837e+00 1.6374853274e+00 2.8362077837e+00 
400 5.5073367331e+00 -2.9287005891e-01 1.6465992439e+00 -2.8519935502e+00 1.6465992439e+00 2.8519935502e+00 
500 5.5028633506e+00 -2.8773169852e-01 1.6555003859e+00 -2.8674107803e+00 1.6555003859e+00 2.8674107803e+00 
600 5.4989304704e+00 -2.8277566252e-01 1.6641981221e+00 -2.8824757013e+00 1.6641981221e+00 2.8824757013e+00 
700 5.4955046140e+00 -2.7799039928e-01 1.6727011673e+00 -2.8972034077e+00 1.6727011673e+00 2.8972034077e+00 
800 5.4925526187e+00 -2.7336525493e-01 1.6810176387e+00 -2.9116079587e+00 1.6810176387e+00 2.9116079587e+00 
900 5.4900416870e+00 -2.6889041734e-01 1.6891551074e+00 -2.9257024679e+00 1.6891551074e+00 2.9257024679e+00 
1000 5.4879394464e+00 -2.6455686216e-01 1.6971206457e+00 -2.9394991850e+00 1.6971206457e+00 2.9394991850e+00 
1100 5.4862140156e+00 -2.6035630087e-01 1.7049208702e+00 -2.9530095700e+00 1.7049208702e+00 2.9530095700e+00 
1200 5.4848340765e+00 -2.5628113019e-01 1.7125619804e+00 -2.9662443612e+00 1.7125619804e+00 2.9662443612e+00 
1300 5.4837689486e+00 -2.5232438296e-01 1.7200497952e+00 -2.9792136369e+00 1.7200497952e+00 2.9792136369e+00 
1400 5.4829886668e+00 -2.4847968030e-01 1.7273897848e+00 -2.9919268718e+00 1.7273897848e+00 2.9919268718e+00 
1500 5.4824640580e+00 -2.4474118520e-01 1.7345871007e+00 -3.0043929886e+00 1.7345871007e+00 3.0043929886e+00 
1600 5.4821668173e+00 -2.4110355739e-01 1.7416466024e+00 -3.0166204041e+00 1.7416466024e+00 3.0166204041e+00 
1700 5.4820695823e+00 -2.3756190983e-01 1.7485728819e+00 -3.0286170722e+00 1.7485728819e+00 3.0286170722e+00 
1800 5.4821460026e+00 -2.3411176667e-01 1.7553702861e+00 -3.0403905216e+00 1.7553702861e+00 3.0403905216e+00 
1900 5.4823708060e+00 -2.3074902306e-01 1.7620429361e+00 -3.0519478905e+00 1.7620429361e+00 3.0519478905e+00 
2000 5.4827198590e+00 -2.2746990671e-01 1.7685947460e+00 -3.0632959580e+00 1.7685947460e+00 3.0632959580e+00 
2100 5.4831702203e+00 -2.2427094137e-01 1.7750294382e+00 -3.0744411719e+00 1.7750294382e+00 3.0744411719e+00 
2200 5.4837001889e+00 -2.2114891243e-01 1.7813505588e+00 -3.0853896739e+00 1.7813505588e+00 3.0853896739e+00 
2300 5.4842893442e+00 -2.1810083454e-01 1.7875614896e+00 -3.0961473217e+00 1.7875614896e+00 3.0961473217e+00 
2400 5.4849185779e+00 -2.1512392145e-01 1.7936654605e+00 -3.1067197094e+00 1.7936654605e+00 3.1067197094e+00 
2500 5.4855701195e+00 -2.1221555810e-01 1.7996655591e+00 -3.1171121851e+00 1.7996655591e+00 3.1171121851e+00 
2600 5.4862275526e+00 -2.0937327484e-01 1.8055647401e+00 -3.1273298661e+00 1.8055647401e+00 3.1273298661e+00 
2700 5.4868758235e+00 -2.0659472401e-01 1.8113658329e+00 -3.1373776536e+00 1.8113658329e+00 3.1373776536e+00 
2800 5.4875012421e+00 -2.0387765870e-01 1.8170715491e+00 -3.1472602440e+00 1.8170715491e+00 3.1472602440e+00 
2900 5.4880914750e+00 -2.0121991371e-01 1.8226844883e+00 -3.1569821400e+00 1.8226844883e+00 3.1569821400e+00 
3000 5.4886355310e+00 -1.9861938862e-01 1.8282071438e+00 -3.1665476599e+00 1.8282071438e+00 3.1665476599e+00 
3100 5.4891237392e+00 -1.9607403303e-01 1.8336419070e+00 -3.1759609457e+00 1.8336419070e+00 3.1759609457e+00 
3200 5.4895477209e+00 -1.9358183373e-01 1.8389910714e+00 -3.1852259704e+00 1.8389910714e+00 3.1852259704e+00 
3300 5.4899003549e+00 -1.9114080380e-01 1.8442568368e+00 -3.1943465435e+00 1.8442568368e+00 3.1943465435e+00 
3400 5.4901757366e+00 -1.8874897358e-01 1.8494413117e+00 -3.2033263174e+00 1.8494413117e+00 3.2033263174e+00 
3500 5.4903691327e+00 -1.8640438327e-01 1.8545465164e+00 -3.2121687915e+00 1.8545465164e+00 3.2121687915e+00 
3600 5.4904769306e+00 -1.8410507722e-01 1.8595743856e+00 -3.2208773163e+00 1.8595743856e+00 3.2208773163e+00 
3700 5.4904965834e+00 -1.8184909965e-01 1.8645267700e+00 -3.2294550976e+00 1.8645267700e+00 3.2294550976e+00 
3800 5.4904265522e+00 -1.7963449175e-01 1.8694054385e+00 -3.2379051994e+00 1.8694054385e+00 3.2379051994e+00 
3900 5.4902662449e+00 -1.7745929005e-01 1.8742120802e+00 -3.2462305470e+00 1.8742120802e+00 3.2462305470e+00 
4000 5.4900159528e+00 -1.7532152592e-01 1.8789483054e+00 -3.2544339298e+00 1.8789483054e+00 3.2544339298e+00 
4100 5.4896767854e+00 -1.7321922603e-01 1.8836156478e+00 -3.2625180039e+00 1.8836156478e+00 3.2625180039e+00 
4200 5.4892506042e+00 -1.7115041380e-01 1.8882155652e+00 -3.2704852945e+00 1.8882155652e+00 3.2704852945e+00 
4300 5.4887399556e+00 -1.6911311155e-01 1.8927494414e+00 -3.2783381986e+00 1.8927494414e+00 3.2783381986e+00 
4400 5.4881480039e+00 -1.6710534334e-01 1.8972185877e+00 -3.2860789869e+00 1.8972185877e+00 3.2860789869e+00 
4500 5.4874784647e+00 -1.6512513843e-01 1.9016242435e+00 -3.2937098067e+00 1.9016242435e+00 3.2937098067e+00 
4600 5.4867355385e+00 -1.6317053510e-01 1.9059675787e+00 -3.3012326839e+00 1.9059675787e+00 3.3012326839e+00 
4700 5.4859238467e+00 -1.6123958498e-01 1.9102496944e+00 -3.3086495258e+00 1.9102496944e+00 3.3086495258e+00 
4800 5.4850483683e+00 -1.5933035750e-01 1.9144716248e+00 -3.3159621238e+00 1.9144716248e+00 3.3159621238e+00 
4900 5.4841143784e+00 -1.5744094468e-01 1.9186343387e+00 -3.3231721557e+00 1.9186343387e+00 3.3231721557e+00 
5000 5.4831273900e+00 -1.5556946596e-01 1.9227387408e+00 -3.3302811888e+00 1.9227387408e+00 3.3302811888e+00 
5100 5.4820930972e+00 -1.5371407305e-01 1.9267856741e+00 -3.3372906828e+00 1.9267856741e+00 3.3372906828e+00 
5200 5.4810173217e+00 -1.5187295485e-01 1.9307759207e+00 -3.3442019926e+00 1.9307759207e+00 3.3442019926e+00 
5300 5.4799059623e+00 -1.5004434224e-01 1.9347102045e+00 -3.3510163722e+00 1.9347102045e+00 3.3510163722e+00 
5400 5.4787649470e+00 -1.4822651269e-01 1.9385891928e+00 -3.3577349769e+00 1.9385891928e+00 3.3577349769e+00 
5500 5.4776001886e+00 -1.4641779482e-01 1.9424134980e+00 -3.3643588679e+00 1.9424134980e+00 3.3643588679e+00 
5600 5.4764175432e+00 -1.4461657263e-01 1.9461836802e+00 -3.3708890149e+00 1.9461836802e+00 3.3708890149e+00 
5700 5.4752227728e+00 -1.4282128955e-01 1.9499002486e+00 -3.3773263003e+00 1.9499002486e+00 3.3773263003e+00 
5800 5.4740215100e+00 -1.4103045219e-01 1.9535636646e+00 -3.3836715229e+00 1.9535636646e+00 3.3836715229e+00 
5900 5.4728192269e+00 -1.3924263383e-01 1.9571743430e+00 -3.3899254013e+00 1.9571743430e+00 3.3899254013e+00 
6000 5.4716212067e+00 -1.3745647755e-01 1.9607326549e+00 -3.3960885784e+00 1.9607326549e+00 3.3960885784e+00 
6100 5.4704325190e+00 -1.3567069909e-01 1.9642389300e+00 -3.4021616249e+00 1.9642389300e+00 3.4021616249e+00 
6200 5.4692579974e+00 -1.3388408937e-01 1.9676934584e+00 -3.4081450437e+00 1.9676934584e+00 3.4081450437e+00 
6300 5.4681022209e+00 -1.3209551668e-01 1.9710964936e+00 -3.4140392736e+00 1.9710964936e+00 3.4140392736e+00 
6400 5.4669694979e+00 -1.3030392855e-01 1.9744482545e+00 -3.4198446936e+00 1.9744482545e+00 3.4198446936e+00 
6500 5.4658638527e+00 -1.2850835333e-01 1.9777489275e+00 -3.4255616270e+00 1.9777489275e+00 3.4255616270e+00 
6600 5.4647890151e+00 -1.2670790141e-01 1.9809986696e+00 -3.4311903455e+00 1.9809986696e+00 3.4311903455e+00 
6700 5.4637484123e+00 -1.2490176617e-01 1.9841976101e+00 -3.4367310730e+00 1.9841976101e+00 3.4367310730e+00 
6800 5.4627451627e+00 -1.2308922467e-01 1.9873458534e+00 -3.4421839903e+00 1.9873458534e+00 3.4421839903e+00 
6900 5.4617820730e+00 -1.2126963802e-01 1.9904434809e+00 -3.4475492385e+00 1.9904434809e+00 3.4475492385e+00 
7000 5.4608616365e+00 -1.1944245153e-01 1.9934905537e+00 -3.4528269234e+00 1.9934905537e+00 3.4528269234e+00 
7100 5.4599860333e+00 -1.1760719462e-01 1.9964871147e+00 -3.4580171194e+00 1.9964871147e+00 3.4580171194e+00 
7200 5.4591571332e+00 -1.1576348045e-01 1.9994331911e+00 -3.4631198733e+00 1.9994331911e+00 3.4631198733e+00 
7300 5.4583764988e+00 -1.1391100541e-01 2.0023287961e+00 -3.4681352082e+00 2.0023287961e+00 3.4681352082e+00 
7400 5.4576453916e+00 -1.1204954838e-01 2.0051739316e+00 -3.4730631276e+00 2.0051739316e+00 3.4730631276e+00 
7500 5.4569647785e+00 -1.1017896982e-01 2.0079685903e+00 -3.4779036184e+00 2.0079685903e+00 3.4779036184e+00 
7600 5.4563353397e+00 -1.0829921070e-01 2.0107127573e+00 -3.4826566552e+00 2.0107127573e+00 3.4826566552e+00 
7700 5.4557574782e+00 -1.0641029122e-01 2.0134064129e+00 -3.4873222035e+00 2.0134064129e+00 3.4873222035e+00 
7800 5.4552313294e+00 -1.0451230951e-01 2.0160495340e+00 -3.4919002235e+00 2.0160495340e+00 3.4919002235e+00 
7900 5.4547567725e+00 -1.0260544005e-01 2.0186420962e+00 -3.4963906729e+00 2.0186420962e+00 3.4963906729e+00 
8000 5.4543334421e+00 -1.0068993210e-01 2.0211840758e+00 -3.5007935108e+00 2.0211840758e+00 3.5007935108e+00 
8100 5.4539607406e+00 -9.8766107952e-02 2.0236754518e+00 -3.5051087005e+00 2.0236754518e+00 3.5051087005e+00 
8200 5.4536378512e+00 -9.6834361052e-02 2.0261162071e+00 -3.5093362128e+00 2.0261162071e+00 3.5093362128e+00 
8300 5.4533637512e+00 -9.4895154099e-02 2.0285063310e+00 -3.5134760288e+00 2.0285063310e+00 3.5134760288e+00 
8400 5.4531372262e+00 -9.2949016986e-02 2.0308458201e+00 -3.5175281428e+00 2.0308458201e+00 3.5175281428e+00 
8500 5.4529568837e+00 -9.0996544674e-02 2.0331346806e+00 -3.5214925654e+00 2.0331346806e+00 3.5214925654e+00 
8600 5.4528211678e+00 -8.9038394972e-02 2.0353729292e+00 -3.5253693258e+00 2.0353729292e+00 3.5253693258e+00 
8700 5.4527283736e+00 -8.7075286234e-02 2.0375605953e+00 -3.5291584745e+00 2.0375605953e+00 3.5291584745e+00 
8800 5.4526766616e+00 -8.5107994965e-02 2.0396977216e+00 -3.5328600860e+00 2.0396977216e+00 3.5328600860e+00 
8900 5.4526640727e+00 -8.3137353341e-02 2.0417843663e+00 -3.5364742606e+00 2.0417843663e+00 3.5364742606e+00 
9000 5.4526885420e+00 -8.1164246651e-02 2.0438206038e+00 -3.5400011273e+00 2.0438206038e+00 3.5400011273e+00 
9100 5.4527479141e+00 -7.9189610640e-02 2.0458065260e+00 -3.5434408456e+00 2.0458065260e+00 3.5434408456e+00 
9200 5.4528399565e+00 -7.7214428775e-02 2.0477422439e+00 -3.5467936073e+00 2.0477422439e+00 3.5467936073e+00 
9300 5.4529623746e+00 -7.5239729423e-02 2.0496278881e+00 -3.5500596388e+00 2.0496278881e+00 3.5500596388e+00 
9400 5.4531128245e+00 -7.3266582930e-02 2.0514636103e+00 -3.5532392030e+00 2.0514636103e+00 3.5532392030e+00 
9500 5.4532889273e+00 -7.1296098624e-02 2.0532495841e+00 -3.5563326003e+00 2.0532495841e+00 3.5563326003e+00 
9600 5.4534882821e+00 -6.9329421724e-02 2.0549860057e+00 -3.5593401707e+00 2.0549860057e+00 3.5593401707e+00 
9700 5.4537084783e+00 -6.7367730159e-02 2.0566730950e+00 -3.5622622951e+00 2.0566730950e+00 3.5622622951e+00 
9800 5.4539471087e+00 -6.5412231302e-02 2.0583110963e+00 -3.5650993966e+00 2.0583110963e+00 3.5650993966e+00 
9900 5.4542017810e+00 -6.3464158622e-02 2.0599002788e+00 -3.5678519415e+00 2.0599002788e+00 3.5678519415e+00 
10000 5.4544701293e+00 -6.1524768248e-02 2.0614409375e+00 -3.5705204405e+00 2.0614409375e+00 3.5705204405e+00 
10100 5.4547498249e+00 -5.9595335457e-02 2.0629333932e+00 -3.5731054496e+00 2.0629333932e+00 3.5731054496e+00 
10200 5.4550385871e+00 -5.7677151094e-02 2.0643779935e+00 -3.5756075708e+00 2.0643779935e+00 3.5756075708e+00 
10300 5.4553341923e+00 -5.5771517914e-02 2.0657751129e+00 -3.5780274526e+00 2.0657751129e+00 3.5780274526e+00 
10400 5.4556344838e+00 -5.3879746871e-02 2.0671251531e+00 -3.5803657908e+00 2.0671251531e+00 3.5803657908e+00 
10500 5.4559373803e+00 -5.2003153357e-02 2.0684285431e+00 -3.5826233285e+00 2.0684285431e+00 3.5826233285e+00 
10600 5.4562408832e+00 -5.0143053386e-02 2.0696857395e+00 -3.5848008565e+00 2.0696857395e+00 3.5848008565e+00 
10700 5.4565430847e+00 -4.8300759760e-02 2.0708972263e+00 -3.5868992133e+00 2.0708972263e+00 3.5868992133e+00 
10800 5.4568421739e+00 -4.6477578202e-02 2.0720635153e+00 -3.5889192850e+00 2.0720635153e+00 3.5889192850e+00 
10900 5.4571364425e+00 -4.4674803493e-02 2.0731851452e+00 -3.5908620050e+00 2.0731851452e+00 3.5908620050e+00 
11000 5.4574242906e+00 -4.2893715601e-02 2.0742626821e+00 -3.5927283537e+00 2.0742626821e+00 3.5927283537e+00 
11100 5.4577042305e+00 -4.1135575841e-02 2.0752967189e+00 -3.5945193579e+00 2.0752967189e+00 3.5945193579e+00 
11200 5.4579748906e+00 -3.9401623069e-02 2.0762878747e+00 -3.5962360901e+00 2.0762878747e+00 3.5962360901e+00 
11300 5.4582350187e+00 -3.7693069919e-02 2.0772367947e+00 -3.5978796678e+00 2.0772367947e+00 3.5978796678e+00 
11400 5.4584834840e+00 -3.6011099120e-02 2.0781441495e+00 -3.5994512523e+00 2.0781441495e+00 3.5994512523e+00 
11500 5.4587192785e+00 -3.4356859892e-02 2.0790106341e+00 -3.6009520478e+00 2.0790106341e+00 3.6009520478e+00 
11600 5.4589415183e+00 -3.2731464446e-02 2.0798369679e+00 -3.6023832999e+00 2.0798369679e+00 3.6023832999e+00 
11700 5.4591494432e+00 -3.1135984601e-02 2.0806238932e+00 -3.6037462945e+00 2.0806238932e+00 3.6037462945e+00 
11800 5.4593424167e+00 -2.9571448547e-02 2.0813721748e+00 -3.6050423562e+00 2.0813721748e+00 3.6050423562e+00 
11900 5.4595199242e+00 -2.8038837746e-02 2.0820825987e+00 -3.6062728465e+00 2.0820825987e+00 3.6062728465e+00 
12000 5.4596815714e+00 -2.6539084022e-02 2.0827559713e+00 -3.6074391621e+00 2.0827559713e+00 3.6074391621e+00 
12100 5.4598270819e+00 -2.5073066819e-02 2.0833931184e+00 -3.6085427331e+00 2.0833931184e+00 3.6085427331e+00 
12200 5.4599562939e+00 -2.3641610675e-02 2.0839948837e+00 -3.6095850212e+00 2.0839948837e+00 3.6095850212e+00 
12300 5.4600691564e+00 -2.2245482895e-02 2.0845621279e+00 -3.6105675171e+00 2.0845621279e+00 3.6105675171e+00 
12400 5.4601657253e+00 -2.0885391465e-02 2.0850957275e+00 -3.6114917388e+00 2.0850957275e+00 3.6114917388e+00 
12500 5.4602461584e+00 -1.9561983191e-02 2.0855965733e+00 -3.6123592291e+00 2.0855965733e+00 3.6123592291e+00 
12600 5.4603107105e+00 -1.8275842094e-02 2.0860655690e+00 -3.6131715534e+00 2.0860655690e+00 3.6131715534e+00 
12700 5.4603597274e+00 -1.7027488054e-02 2.0865036301e+00 -3.6139302974e+00 2.0865036301e+00 3.6139302974e+00 
12800 5.4603936403e+00 -1.5817375719e-02 2.0869116821e+00 -3.6146370644e+00 2.0869116821e+00 3.6146370644e+00 
12900 5.4604129594e+00 -1.4645893676e-02 2.0872906597e+00 -3.6152934728e+00 2.0872906597e+00 3.6152934728e+00 
13000 5.4604182671e+00 -1.3513363894e-02 2.0876415046e+00 -3.6159011539e+00 2.0876415046e+00 3.6159011539e+00 
13100 5.4604102117e+00 -1.2420041432e-02 2.0879651644e+00 -3.6164617491e+00 2.0879651644e+00 3.6164617491e+00 
13200 5.4603894999e+00 -1.1366114414e-02 2.0882625912e+00 -3.6169769075e+00 2.0882625912e+00 3.6169769075e+00 
13300 5.4603568899e+00 -1.0351704268e-02 2.0885347399e+00 -3.6174482829e+00 2.0885347399e+00 3.6174482829e+00 
13400 5.4603131844e+00 -9.3768662310e-03 2.0887825670e+00 -3.6178775320e+00 2.0887825670e+00 3.6178775320e+00 
13500 5.4602592232e+00 -8.4415900897e-03 2.0890070287e+00 -3.6182663111e+00 2.0890070287e+00 3.6182663111e+00 
13600 5.4601958758e+00 -7.5458011807e-03 2.0892090799e+00 -3.6186162740e+00 2.0892090799e+00 3.6186162740e+00 
13700 5.4601240349e+00 -6.6893616140e-03 2.0893896724e+00 -3.6189290694e+00 2.0893896724e+00 3.6189290694e+00 
13800 5.4600446086e+00 -5.8720717207e-03 2.0895497537e+00 -3.6192063384e+00 2.0895497537e+00 3.6192063384e+00 
13900 5.4599585144e+00 -5.0936717078e-03 2.0896902658e+00 -3.6194497124e+00 2.0896902658e+00 3.6194497124e+00 
14000 5.4598666718e+00 -4.3538435076e-03 2.0898121432e+00 -3.6196608103e+00 2.0898121432e+00 3.6196608103e+00 
14100 5.4597699967e+00 -3.6522128043e-03 2.0899163124e+00 -3.6198412366e+00 2.0899163124e+00 3.6198412366e+00 
14200 5.4596693944e+00 -2.9883512234e-03 2.0900036900e+00 -3.6199925791e+00 2.0900036900e+00 3.6199925791e+00 
14300 5.4595657547e+00 -2.3617786664e-03 2.0900751819e+00 -3.6201164067e+00 2.0900751819e+00 3.6201164067e+00 
14400 5.4594599458e+00 -1.7719657725e-03 2.0901316820e+00 -3.6202142678e+00 2.0901316820e+00 3.6202142678e+00 
14500 5.4593528096e+00 -1.2183364915e-03 2.0901740710e+00 -3.6202876877e+00 2.0901740710e+00 3.6202876877e+00 
14600 5.4592451569e+00 -7.0027074789e-04 2.0902032155e+00 -3.6203381673e+00 2.0902032155e+00 3.6203381673e+00 
14700 5.4591377634e+00 -2.1710718013e-04 2.0902199668e+00 -3.6203671814e+00 2.0902199668e+00 3.6203671814e+00 
14800 5.4590313653e+00 2.3185406408e-04 2.0902251602e+00 -3.6203761767e+00 2.0902251602e+00 3.6203761767e+00 
14900 5.4589266566e+00 6.4734849253e-04 2.0902196140e+00 -3.6203665704e+00 2.0902196140e+00 3.6203665704e+00 
15000 5.4588242859e+00 1.0301444108e-03 2.0902041289e+00 -3.6203397494e+00 2.0902041289e+00 3.6203397494e+00 
15100 5.4587248537e+00 1.3810400581e-03 2.0901794867e+00 -3.6202970679e+00 2.0901794867e+00 3.6202970679e+00 
15200 5.4586289110e+00 1.7008607519e-03 2.0901464504e+00 -3.6202398473e+00 2.0901464504e+00 3.6202398473e+00 
15300 5.4585369571e+00 1.9904560556e-03 2.0901057629e+00 -3.6201693746e+00 2.0901057629e+00 3.6201693746e+00 
15400 5.4584494389e+00 2.2506969839e-03 2.0900581470e+00 -3.6200869013e+00 2.0900581470e+00 3.6200869013e+00 
15500 5.4583667501e+00 2.4824732570e-03 2.0900043043e+00 -3.6199936430e+00 2.0900043043e+00 3.6199936430e+00 
15600 5.4582892310e+00 2.6866906159e-03 2.0899449153e+00 -3.6198907784e+00 2.0899449153e+00 3.6198907784e+00 
15700 5.4582171686e+00 2.8642682085e-03 2.0898806391e+00 -3.6197794487e+00 2.0898806391e+00 3.6197794487e+00 
15800 5.4581507973e+00 3.0161360570e-03 2.0898121124e+00 -3.6196607569e+00 2.0898121124e+00 3.6196607569e+00 
15900 5.4580902996e+00 3.1432326123e-03 2.0897399499e+00 -3.6195357679e+00 2.0897399499e+00 3.6195357679e+00 
16000 5.4580358073e+00 3.2465024046e-03 2.0896647441e+00 -3.6194055075e+00 2.0896647441e+00 3.6194055075e+00 
16100 5.4579874033e+00 3.3268937940e-03 2.0895870646e+00 -3.6192709627e+00 2.0895870646e+00 3.6192709627e+00 
16200 5.4579451235e+00 3.3853568265e-03 2.0895074586e+00 -3.6191330811e+00 2.0895074586e+00 3.6191330811e+00 
16300 5.4579089584e+00 3.4228411993e-03 2.0894264506e+00 -3.6189927712e+00 2.0894264506e+00 3.6189927712e+00 
16400 5.4578788561e+00 3.4402943357e-03 2.0893445425e+00 -3.6188509022e+00 2.0893445425e+00 3.6188509022e+00 
16500 5.4578547244e+00 3.4386595744e-03 2.0892622136e+00 -3.6187083042e+00 2.0892622136e+00 3.6187083042e+00 
16600 5.4578364336e+00 3.4188744698e-03 2.0891799205e+00 -3.6185657684e+00 2.0891799205e+00 3.6185657684e+00 
16700 5.4578238194e+00 3.3818692064e-03 2.0890980977e+00 -3.6184240471e+00 2.0890980977e+00 3.6184240471e+00 
16800 5.4578166860e+00 3.3285651239e-03 2.0890171573e+00 -3.6182838543e+00 2.0890171573e+00 3.6182838543e+00 
16900 5.4578148087e+00 3.2598733519e-03 2.0889374896e+00 -3.6181458658e+00 2.0889374896e+00 3.6181458658e+00 
17000 5.4578179377e+00 3.1766935521e-03 2.0888594630e+00 -3.6180107198e+00 2.0888594630e+00 3.6180107198e+00 
17100 5.4578258004e+00 3.0799127644e-03 2.0887834245e+00 -3.6178790173e+00 2.0887834245e+00 3.6178790173e+00 
17200 5.4578381054e+00 2.9704043535e-03 2.0887096999e+00 -3.6177513225e+00 2.0887096999e+00 3.6177513225e+00 
17300 5.4578545449e+00 2.8490270527e-03 2.0886385941e+00 -3.6176281636e+00 2.0886385941e+00 3.6176281636e+00 
17400 5.4578747982e+00 2.7166241001e-03 2.0885703915e+00 -3.6175100333e+00 2.0885703915e+00 3.6175100333e+00 
17500 5.4578985346e+00 2.5740224627e-03 2.0885053564e+00 -3.6173973891e+00 2.0885053564e+00 3.6173973891e+00 
17600 5.4579254161e+00 2.4220321446e-03 2.0884437331e+00 -3.6172906545e+00 2.0884437331e+00 3.6172906545e+00 
17700 5.4579551005e+00 2.2614455736e-03 2.0883857468e+00 -3.6171902193e+00 2.0883857468e+00 3.6171902193e+00 
17800 5.4579872441e+00 2.0930370624e-03 2.0883316037e+00 -3.6170964406e+00 2.0883316037e+00 3.6170964406e+00 
17900 5.4580215039e+00 1.9175623382e-03 2.0882814912e+00 -3.6170096433e+00 2.0882814912e+00 3.6170096433e+00 
18000 5.4580575405e+00 1.7357581379e-03 2.0882355789e+00 -3.6169301209e+00 2.0882355789e+00 3.6169301209e+00 
18100 5.4580950199e+00 1.5483418621e-03 2.0881940187e+00 -3.6168581364e+00 2.0881940187e+00 3.6168581364e+00 
18200 5.4581336160e+00 1.3560112856e-03 2.0881569451e+00 -3.6167939231e+00 2.0881569451e+00 3.6167939231e+00 
18300 5.4581730121e+00 1.1594443177e-03 2.0881244761e+00 -3.6167376851e+00 2.0881244761e+00 3.6167376851e+00 
18400 5.4582129031e+00 9.5929881003e-04 2.0880967133e+00 -3.6166895986e+00 2.0880967133e+00 3.6166895986e+00 
18500 5.4582529966e+00 7.5621240701e-04 2.0880737427e+00 -3.6166498123e+00 2.0880737427e+00 3.6166498123e+00 
18600 5.4582930146e+00 5.5080243508e-04 2.0880556348e+00 -3.6166184486e+00 2.0880556348e+00 3.6166184486e+00 
18700 5.4583326946e+00 3.4366582761e-04 2.0880424455e+00 -3.6165956040e+00 2.0880424455e+00 3.6165956040e+00 
18800 5.4583717907e+00 1.3537908188e-04 2.0880342161e+00 -3.6165813503e+00 2.0880342161e+00 3.6165813503e+00 
18900 5.4584100740e+00 -7.3501754764e-05 2.0880309743e+00 -3.6165757353e+00 2.0880309743e+00 3.6165757353e+00 
19000 5.4584473341e+00 -2.8244107246e-04 2.0880327344e+00 -3.6165787839e+00 2.0880327344e+00 3.6165787839e+00 
19100 5.4584833786e+00 -4.9092366255e-04 2.0880394977e+00 -3.6165904983e+00 2.0880394977e+00 3.6165904983e+00 
19200 5.4585180345e+00 -6.9845465986e-04 2.0880512534e+00 -3.6166108596e+00 2.0880512534e+00 3.6166108596e+00 
19300 5.4585511472e+00 -9.0455946548e-04 2.0880679784e+00 -3.6166398283e+00 2.0880679784e+00 3.6166398283e+00 
19400 5.4585825817e+00 -1.1087836521e-03 2.0880896387e+00 -3.6166773449e+00 2.0880896387e+00 3.6166773449e+00 
19500 5.4586122217e+00 -1.3106928530e-03 2.0881161889e+00 -3.6167233313e+00 2.0881161889e+00 3.6167233313e+00 
19600 5.4586399695e+00 -1.5098726372e-03 2.0881475736e+00 -3.6167776911e+00 2.0881475736e+00 3.6167776911e+00 
19700 5.4586657460e+00 -1.7059283703e-03 2.0881837271e+00 -3.6168403108e+00 2.0881837271e+00 3.6168403108e+00 
19800 5.4586894898e+00 -1.8984850638e-03 2.0882245744e+00 -3.6169110605e+00 2.0882245744e+00 3.6169110605e+00 
19900 5.4587111569e+00 -2.0871872123e-03 2.0882700315e+00 -3.6169897944e+00 2.0882700315e+00 3.6169897944e+00 
20000 5.4587307199e+00 -2.2716986209e-03 2.0883200057e+00 -3.6170763524e+00 2.0883200057e+00 3.6170763524e+00 
20100 5.4587481674e+00 -2.4517022212e-03 2.0883743966e+00 -3.6171705601e+00 2.0883743966e+00 3.6171705601e+00 
20200 5.4587635030e+00 -2.6268998787e-03 2.0884330957e+00 -3.6172722299e+00 2.0884330957e+00 3.6172722299e+00 
20300 5.4587767445e+00 -2.7970121899e-03 2.0884959876e+00 -3.6173811620e+00 2.0884959876e+00 3.6173811620e+00 
20400 5.4587879232e+00 -2.9617782716e-03 2.0885629503e+00 -3.6174971448e+00 2.0885629503e+00 3.6174971448e+00 
20500 5.4587970827e+00 -3.1209555396e-03 2.0886338554e+00 -3.6176199560e+00 2.0886338554e+00 3.6176199560e+00 
20600 5.4588042777e+00 -3.2743194799e-03 2.0887085687e+00 -3.6177493632e+00 2.0887085687e+00 3.6177493632e+00 
20700 5.4588095736e+00 -3.4216634110e-03 2.0887869506e+00 -3.6178851247e+00 2.0887869506e+00 3.6178851247e+00 
20800 5.4588130449e+00 -3.5627982366e-03 2.0888688567e+00 -3.6180269901e+00 2.0888688567e+00 3.6180269901e+00 
20900 5.4588147746e+00 -3.6975521903e-03 2.0889541378e+00 -3.6181747014e+00 2.0889541378e+00 3.6181747014e+00 
21000 5.4588148525e+00 -3.8257705717e-03 2.0890426409e+00 -3.6183279933e+00 2.0890426409e+00 3.6183279933e+00 
21100 5.4588133752e+00 -3.9473154726e-03 2.0891342092e+00 -3.6184865941e+00 2.0891342092e+00 3.6184865941e+00 
21200 5.4588104441e+00 -4.0620654954e-03 2.0892286824e+00 -3.6186502265e+00 2.0892286824e+00 3.6186502265e+00 
21300 5.4588061651e+00 -4.1699154616e-03 2.0893258976e+00 -3.6188186082e+00 2.0893258976e+00 3.6188186082e+00 
21400 5.4588006471e+00 -4.2707761120e-03 2.0894256893e+00 -3.6189914526e+00 2.0894256893e+00 3.6189914526e+00 
21500 5.4587940017e+00 -4.3645737970e-03 2.0895278899e+00 -3.6191684692e+00 2.0895278899e+00 3.6191684692e+00 
21600 5.4587863416e+00 -4.4512501585e-03 2.0896323300e+00 -3.6193493648e+00 2.0896323300e+00 3.6193493648e+00 
21700 5.4587777803e+00 -4.5307618023e-03 2.0897388389e+00 -3.6195338436e+00 2.0897388389e+00 3.6195338436e+00 
21800 5.4587684311e+00 -4.6030799612e-03 2.0898472448e+00 -3.6197216081e+00 2.0898472448e+00 3.6197216081e+00 
21900 5.4587584064e+00 -4.6681901493e-03 2.0899573754e+00 -3.6199123598e+00 2.0899573754e+00 3.6199123598e+00 
22000 5.4587478168e+00 -4.7260918078e-03 2.0900690578e+00 -3.6201057995e+00 2.0900690578e+00 3.6201057995e+00 
22100 5.4587367707e+00 -4.7767979406e-03 2.0901821195e+00 -3.6203016281e+00 2.0901821195e+00 3.6203016281e+00 
22200 5.4587253736e+00 -4.8203347425e-03 2.0902963881e+00 -3.6204995470e+00 2.0902963881e+00 3.6204995470e+00 
22300 5.4587137273e+00 -4.8567412182e-03 2.0904116918e+00 -3.6206992589e+00 2.0904116918e+00 3.6206992589e+00 
22400 5.4587019300e+00 -4.8860687933e-03 2.0905278600e+00 -3.6209004681e+00 2.0905278600e+00 3.6209004681e+00 
22500 5.4586900752e+00 -4.9083809170e-03 2.0906447231e+00 -3.6211028810e+00 2.0906447231e+00 3.6211028810e+00 
22600 5.4586782518e+00 -4.9237526571e-03 2.0907621134e+00 -3.6213062069e+00 2.0907621134e+00 3.6213062069e+00 
22700 5.4586665434e+00 -4.9322702878e-03 2.0908798647e+00 -3.6215101582e+00 2.0908798647e+00 3.6215101582e+00 
22800 5.4586550283e+00 -4.9340308699e-03 2.0909978130e+00 -3.6217144507e+00 2.0909978130e+00 3.6217144507e+00 
22900 5.4586437791e+00 -4.9291418254e-03 2.0911157968e+00 -3.6219188046e+00 2.0911157968e+00 3.6219188046e+00 
23000 5.4586328628e+00 -4.9177205045e-03 2.0912336571e+00 -3.6221229446e+00 2.0912336571e+00 3.6221229446e+00 
23100 5.4586223402e+00 -4.8998937480e-03 2.0913512376e+00 -3.6223266000e+00 2.0913512376e+00 3.6223266000e+00 
23200 5.4586122662e+00 -4.8757974436e-03 2.0914683853e+00 -3.6225295057e+00 2.0914683853e+00 3.6225295057e+00 
23300 5.4586026896e+00 -4.8455760781e-03 2.0915849503e+00 -3.6227314024e+00 2.0915849503e+00 3.6227314024e+00 
23400 5.4585936531e+00 -4.8093822848e-03 2.0917007864e+00 -3.6229320364e+00 2.0917007864e+00 3.6229320364e+00 
23500 5.4585851935e+00 -4.7673763879e-03 2.0918157509e+00 -3.6231311607e+00 2.0918157509e+00 3.6231311607e+00 
23600 5.4585773416e+00 -4.7197259433e-03 2.0919297050e+00 -3.6233285350e+00 2.0919297050e+00 3.6233285350e+00 
23700 5.4585701224e+00 -4.6666052770e-03 2.0920425140e+00 -3.6235239258e+00 2.0920425140e+00 3.6235239258e+00 
23800 5.4585635552e+00 -4.6081950224e-03 2.0921540473e+00 -3.6237171071e+00 2.0921540473e+00 3.6237171071e+00 
23900 5.4585576539e+00 -4.5446816554e-03 2.0922641786e+00 -3.6239078602e+00 2.0922641786e+00 3.6239078602e+00 
24000 5.4585524269e+00 -4.4762570299e-03 2.0923727864e+00 -3.6240959743e+00 2.0923727864e+00 3.6240959743e+00 
24100 5.4585478779e+00 -4.4031179131e-03 2.0924797533e+00 -3.6242812465e+00 2.0924797533e+00 3.6242812465e+00 
24200 5.4585440053e+00 -4.3254655214e-03 2.0925849671e+00 -3.6244634822e+00 2.0925849671e+00 3.6244634822e+00 
24300 5.4585408035e+00 -4.2435050586e-03 2.0926883202e+00 -3.6246424949e+00 2.0926883202e+00 3.6246424949e+00 
24400 5.4585382622e+00 -4.1574452556e-03 2.0927897098e+00 -3.6248181070e+00 2.0927897098e+00 3.6248181070e+00 
24500 5.4585363674e+00 -4.0674979134e-03 2.0928890385e+00 -3.6249901492e+00 2.0928890385e+00 3.6249901492e+00 
24600 5.4585351013e+00 -3.9738774500e-03 2.0929862134e+00 -3.6251584612e+00 2.0929862134e+00 3.6251584612e+00 
24700 5.4585344428e+00 -3.8768004511e-03 2.0930811474e+00 -3.6253228916e+00 2.0930811474e+00 3.6253228916e+00 
24800 5.4585343678e+00 -3.7764852261e-03 2.0931737579e+00 -3.6254832978e+00 2.0931737579e+00 3.6254832978e+00 
24900 5.4585348494e+00 -3.6731513701e-03 2.0932639681e+00 -3.6256395465e+00 2.0932639681e+00 3.6256395465e+00 
25000 5.4585358585e+00 -3.5670193320e-03 2.0933517062e+00 -3.6257915132e+00 2.0933517062e+00 3.6257915132e+00 
25100 5.4585373637e+00 -3.4583099897e-03 2.0934369055e+00 -3.6259390828e+00 2.0934369055e+00 3.6259390828e+00 
25200 5.4585393321e+00 -3.3472442330e-03 2.0935195049e+00 -3.6260821491e+00 2.0935195049e+00 3.6260821491e+00 
25300 5.4585417292e+00 -3.2340425551e-03 2.0935994484e+00 -3.6262206153e+00 2.0935994484e+00 3.6262206153e+00 
25400 5.4585445194e+00 -3.1189246531e-03 2.0936766853e+00 -3.6263543935e+00 2.0936766853e+00 3.6263543935e+00 
25500 5.4585476664e+00 -3.0021090379e-03 2.0937511701e+00 -3.6264834051e+00 2.0937511701e+00 3.6264834051e+00 
25600 5.4585511330e+00 -2.8838126543e-03 2.0938228626e+00 -3.6266075802e+00 2.0938228626e+00 3.6266075802e+00 
25700 5.4585548822e+00 -2.7642505121e-03 2.0938917278e+00 -3.6267268581e+00 2.0938917278e+00 3.6267268581e+00 
25800 5.4585588767e+00 -2.6436353283e-03 2.0939577356e+00 -3.6268411870e+00 2.0939577356e+00 3.6268411870e+00 
25900 5.4585630796e+00 -2.5221771812e-03 2.0940208613e+00 -3.6269505238e+00 2.0940208613e+00 3.6269505238e+00 
26000 5.4585674542e+00 -2.4000831768e-03 2.0940810849e+00 -3.6270548342e+00 2.0940810849e+00 3.6270548342e+00 
26100 5.4585719649e+00 -2.2775571278e-03 2.0941383915e+00 -3.6271540921e+00 2.0941383915e+00 3.6271540921e+00 
26200 5.4585765766e+00 -2.1547992460e-03 2.0941927711e+00 -3.6272482803e+00 2.0941927711e+00 3.6272482803e+00 
26300 5.4585812556e+00 -2.0320058482e-03 2.0942442183e+00 -3.6273373895e+00 2.0942442183e+00 3.6273373895e+00 
26400 5.4585859693e+00 -1.9093690757e-03 2.0942927325e+00 -3.6274214187e+00 2.0942927325e+00 3.6274214187e+00 
26500 5.4585906865e+00 -1.7870766287e-03 2.0943383178e+00 -3.6275003746e+00 2.0943383178e+00 3.6275003746e+00 
26600 5.4585953777e+00 -1.6653115144e-03 2.0943809824e+00 -3.6275742719e+00 2.0943809824e+00 3.6275742719e+00 
26700 5.4586000148e+00 -1.5442518108e-03 2.0944207391e+00 -3.6276431326e+00 2.0944207391e+00 3.6276431326e+00 
26800 5.4586045717e+00 -1.4240704445e-03 2.0944576051e+00 -3.6277069863e+00 2.0944576051e+00 3.6277069863e+00 
26900 5.4586090240e+00 -1.3049349845e-03 2.0944916014e+00 -3.6277658696e+00 2.0944916014e+00 3.6277658696e+00 
27000 5.4586133494e+00 -1.1870074510e-03 2.0945227530e+00 -3.6278198258e+00 2.0945227530e+00 3.6278198258e+00 
27100 5.4586175273e+00 -1.0704441394e-03 2.0945510891e+00 -3.6278689053e+00 2.0945510891e+00 3.6278689053e+00 
27200 5.4586215393e+00 -9.5539545998e-04 2.0945766422e+00 -3.6279131646e+00 2.0945766422e+00 3.6279131646e+00 
27300 5.4586253690e+00 -8.4200579298e-04 2.0945994486e+00 -3.6279526666e+00 2.0945994486e+00 3.6279526666e+00 
27400 5.4586290021e+00 -7.3041335935e-04 2.0946195481e+00 -3.6279874799e+00 2.0946195481e+00 3.6279874799e+00 
27500 5.4586324260e+00 -6.2075010656e-04 2.0946369836e+00 -3.6280176790e+00 2.0946369836e+00 3.6280176790e+00 
27600 5.4586356305e+00 -5.1314161002e-04 2.0946518012e+00 -3.6280433439e+00 2.0946518012e+00 3.6280433439e+00 
27700 5.4586386072e+00 -4.0770698955e-04 2.0946640501e+00 -3.6280645596e+00 2.0946640501e+00 3.6280645596e+00 
27800 5.4586413497e+00 -3.0455884089e-04 2.0946737821e+00 -3.6280814160e+00 2.0946737821e+00 3.6280814160e+00 
27900 5.4586438532e+00 -2.0380318213e-04 2.0946810520e+00 -3.6280940077e+00 2.0946810520e+00 3.6280940077e+00 
28000 5.4586461151e+00 -1.0553941459e-04 2.0946859168e+00 -3.6281024337e+00 2.0946859168e+00 3.6281024337e+00 
28100 5.4586481342e+00 -9.8602981737e-06 2.0946884360e+00 -3.6281067972e+00 2.0946884360e+00 3.6281067972e+00 
28200 5.4586499113e+00 8.3021843591e-05 2.0946884360e+00 -3.6281067972e+00 2.0946884360e+00 3.6281067972e+00 
28300 5.4586514483e+00 1.7328051113e-04 2.0946864543e+00 -3.6281033647e+00 2.0946864543e+00 3.6281033647e+00 
28400 5.4586527491e+00 2.6071611230e-04 2.0946823181e+00 -3.6280962006e+00 2.0946823181e+00 3.6280962006e+00 
28500 5.4586538185e+00 3.4526242883e-04 2.0946760948e+00 -3.6280854216e+00 2.0946760948e+00 3.6280854216e+00 
28600 5.4586546630e+00 4.2685980343e-04 2.0946678534e+00 -3.6280711470e+00 2.0946678534e+00 3.6280711470e+00 
28700 5.4586552898e+00 5.0545508568e-04 2.0946576642e+00 -3.6280534988e+00 2.0946576642e+00 3.6280534988e+00 
28800 5.4586557075e+00 5.8100156622e-04 2.0946455989e+00 -3.6280326011e+00 2.0946455989e+00 3.6280326011e+00 
28900 5.4586559256e+00 6.5345889967e-04 2.0946317301e+00 -3.6280085797e+00 2.0946317301e+00 3.6280085797e+00 
29000 5.4586559542e+00 7.2279301683e-04 2.0946161317e+00 -3.6279815625e+00 2.0946161317e+00 3.6279815625e+00 
29100 5.4586558045e+00 7.8897602658e-04 2.0945988782e+00 -3.6279516785e+00 2.0945988782e+00 3.6279516785e+00 
29200 5.4586554878e+00 8.5198610806e-04 2.0945800446e+00 -3.6279190578e+00 2.0945800446e+00 3.6279190578e+00 
29300 5.4586550164e+00 9.1180739361e-04 2.0945597068e+00 -3.6278838316e+00 2.0945597068e+00 3.6278838316e+00 
29400 5.4586544027e+00 9.6842984299e-04 2.0945379407e+00 -3.6278461317e+00 2.0945379407e+00 3.6278461317e+00 
29500 5.4586536595e+00 1.0218491094e-03 2.0945148228e+00 -3.6278060903e+00 2.0945148228e+00 3.6278060903e+00 
29600 5.4586527997e+00 1.0720663981e-03 2.0944904294e+00 -3.6277638396e+00 2.0944904294e+00 3.6277638396e+00 
29700 5.4586518364e+00 1.1190883173e-03 2.0944648369e+00 -3.6277195122e+00 2.0944648369e+00 3.6277195122e+00 
29800 5.4586507827e+00 1.1629267237e-03 2.0944381216e+00 -3.6276732399e+00 2.0944381216e+00 3.6276732399e+00 
29900 5.4586496514e+00 1.2035985606e-03 2.0944103594e+00 -3.6276251543e+00 2.0944103594e+00 3.6276251543e+00 
30000 5.4586484554e+00 1.2411256916e-03 2.0943816258e+00 -3.6275753864e+00 2.0943816258e+00 3.6275753864e+00 
30100 5.4586472072e+00 1.2755347293e-03 2.0943519960e+00 -3.6275240661e+00 2.0943519960e+00 3.6275240661e+00 
30200 5.4586459190e+00 1.3068568586e-03 2.0943215443e+00 -3.6274713222e+00 2.0943215443e+00 3.6274713222e+00 
30300 5.4586446027e+00 1.3351276579e-03 2.0942903444e+00 -3.6274172823e+00 2.0942903444e+00 3.6274172823e+00 
30400 5.4586432697e+00 1.3603869151e-03 2.0942584691e+00 -3.6273620726e+00 2.0942584691e+00 3.6273620726e+00 
30500 5.4586419307e+00 1.3826784422e-03 2.0942259902e+00 -3.6273058175e+00 2.0942259902e+00 3.6273058175e+00 
30600 5.4586405963e+00 1.4020498865e-03 2.0941929786e+00 -3.6272486398e+00 2.0941929786e+00 3.6272486398e+00 
30700 5.4586392760e+00 1.4185525411e-03 2.0941595040e+00 -3.6271906600e+00 2.0941595040e+00 3.6271906600e+00 
30800 5.4586379792e+00 1.4322411525e-03 2.0941256348e+00 -3.6271319969e+00 2.0941256348e+00 3.6271319969e+00 
30900 5.4586367141e+00 1.4431737288e-03 2.0940914383e+00 -3.6270727668e+00 2.0940914383e+00 3.6270727668e+00 
31000 5.4586354886e+00 1.4514113462e-03 2.0940569801e+00 -3.6270130835e+00 2.0940569801e+00 3.6270130835e+00 
31100 5.4586343099e+00 1.4570179561e-03 2.0940223247e+00 -3.6269530586e+00 2.0940223247e+00 3.6269530586e+00 
31200 5.4586331843e+00 1.4600601924e-03 2.0939875349e+00 -3.6268928009e+00 2.0939875349e+00 3.6268928009e+00 
31300 5.4586321175e+00 1.4606071794e-03 2.0939526718e+00 -3.6268324163e+00 2.0939526718e+00 3.6268324163e+00 
31400 5.4586311145e+00 1.4587303408e-03 2.0939177951e+00 -3.6267720081e+00 2.0939177951e+00 3.6267720081e+00 
31500 5.4586301795e+00 1.4545032101e-03 2.0938829627e+00 -3.6267116765e+00 2.0938829627e+00 3.6267116765e+00 
31600 5.4586293161e+00 1.4480012433e-03 2.0938482306e+00 -3.6266515187e+00 2.0938482306e+00 3.6266515187e+00 
31700 5.4586285272e+00 1.4393016327e-03 2.0938136532e+00 -3.6265916288e+00 2.0938136532e+00 3.6265916288e+00 
31800 5.4586278150e+00 1.4284831243e-03 2.0937792829e+00 -3.6265320978e+00 2.0937792829e+00 3.6265320978e+00 
31900 5.4586271809e+00 1.4156258367e-03 2.0937451705e+00 -3.6264730133e+00 2.0937451705e+00 3.6264730133e+00 
32000 5.4586266260e+00 1.4008110839e-03 2.0937113645e+00 -3.6264144597e+00 2.0937113645e+00 3.6264144597e+00 
32100 5.4586261506e+00 1.3841212010e-03 2.0936779117e+00 -3.6263565178e+00 2.0936779117e+00 3.6263565178e+00 
32200 5.4586257544e+00 1.3656393728e-03 2.0936448570e+00 -3.6262992654e+00 2.0936448570e+00 3.6262992654e+00 
32300 5.4586254365e+00 1.3454494670e-03 2.0936122432e+00 -3.6262427766e+00 2.0936122432e+00 3.6262427766e+00 
32400 5.4586251958e+00 1.3236358705e-03 2.0935801110e+00 -3.6261871220e+00 2.0935801110e+00 3.6261871220e+00 
32500 5.4586250305e+00 1.3002833301e-03 2.0935484993e+00 -3.6261323690e+00 2.0935484993e+00 3.6261323690e+00 
32600 5.4586249382e+00 1.2754767968e-03 2.0935174449e+00 -3.6260785811e+00 2.0935174449e+00 3.6260785811e+00 
32700 5.4586249166e+00 1.2493012756e-03 2.0934869824e+00 -3.6260258186e+00 2.0934869824e+00 3.6260258186e+00 
32800 5.4586249625e+00 1.2218416782e-03 2.0934571447e+00 -3.6259741381e+00 2.0934571447e+00 3.6259741381e+00 
32900 5.4586250727e+00 1.1931826819e-03 2.0934279624e+00 -3.6259235928e+00 2.0934279624e+00 3.6259235928e+00 
33000 5.4586252437e+00 1.1634085917e-03 2.0933994641e+00 -3.6258742324e+00 2.0933994641e+00 3.6258742324e+00 
33100 5.4586254717e+00 1.1326032080e-03 2.0933716767e+00 -3.6258261031e+00 2.0933716767e+00 3.6258261031e+00 
33200 5.4586257527e+00 1.1008496992e-03 2.0933446246e+00 -3.6257792475e+00 2.0933446246e+00 3.6257792475e+00 
33300 5.4586260825e+00 1.0682304787e-03 2.0933183306e+00 -3.6257337050e+00 2.0933183306e+00 3.6257337050e+00 
33400 5.4586264568e+00 1.0348270875e-03 2.0932928154e+00 -3.6256895114e+00 2.0932928154e+00 3.6256895114e+00 
33500 5.4586268714e+00 1.0007200807e-03 2.0932680978e+00 -3.6256466992e+00 2.0932680978e+00 3.6256466992e+00 
33600 5.4586273218e+00 9.6598892049e-04 2.0932441945e+00 -3.6256052976e+00 2.0932441945e+00 3.6256052976e+00 
33700 5.4586278034e+00 9.3071187302e-04 2.0932211206e+00 -3.6255653324e+00 2.0932211206e+00 3.6255653324e+00 
33800 5.4586283120e+00 8.9496591082e-04 2.0931988891e+00 -3.6255268262e+00 2.0931988891e+00 3.6255268262e+00 
33900 5.4586288431e+00 8.5882662015e-04 2.0931775112e+00 -3.6254897986e+00 2.0931775112e+00 3.6254897986e+00 
34000 5.4586293924e+00 8.2236811341e-04 2.0931569963e+00 -3.6254542658e+00 2.0931569963e+00 3.6254542658e+00 
34100 5.4586299556e+00 7.8566294663e-04 2.0931373521e+00 -3.6254202411e+00 2.0931373521e+00 3.6254202411e+00 
34200 5.4586305286e+00 7.4878204180e-04 2.0931185846e+00 -3.6253877347e+00 2.0931185846e+00 3.6253877347e+00 
34300 5.4586311075e+00 7.1179461431e-04 2.0931006978e+00 -3.6253567540e+00 2.0931006978e+00 3.6253567540e+00 
34400 5.4586316885e+00 6.7476810525e-04 2.0930836945e+00 -3.6253273034e+00 2.0930836945e+00 3.6253273034e+00 
34500 5.4586322679e+00 6.3776811858e-04 2.0930675755e+00 -3.6252993845e+00 2.0930675755e+00 3.6252993845e+00 
34600 5.4586328423e+00 6.0085836316e-04 2.0930523403e+00 -3.6252729963e+00 2.0930523403e+00 3.6252729963e+00 
34700 5.4586334084e+00 5.6410059952e-04 2.0930379867e+00 -3.6252481351e+00 2.0930379867e+00 3.6252481351e+00 
34800 5.4586339632e+00 5.2755459132e-04 2.0930245110e+00 -3.6252247946e+00 2.0930245110e+00 3.6252247946e+00 
34900 5.4586345040e+00 4.9127806153e-04 2.0930119084e+00 -3.6252029661e+00 2.0930119084e+00 3.6252029661e+00 
35000 5.4586350281e+00 4.5532665303e-04 2.0930001722e+00 -3.6251826385e+00 2.0930001722e+00 3.6251826385e+00 
35100 5.4586355334e+00 4.1975389386e-04 2.0929892949e+00 -3.6251637984e+00 2.0929892949e+00 3.6251637984e+00 
35200 5.4586360176e+00 3.8461116677e-04 2.0929792673e+00 -3.6251464301e+00 2.0929792673e+00 3.6251464301e+00 
35300 5.4586364790e+00 3.4994768315e-04 2.0929700791e+00 -3.6251305158e+00 2.0929700791e+00 3.6251305158e+00 
35400 5.4586369160e+00 3.1581046116e-04 2.0929617191e+00 -3.6251160357e+00 2.0929617191e+00 3.6251160357e+00 
35500 5.4586373272e+00 2.8224430807e-04 2.0929541745e+00 -3.6251029681e+00 2.0929541745e+00 3.6251029681e+00 
35600 5.4586377116e+00 2.4929180658e-04 2.0929474318e+00 -3.6250912894e+00 2.0929474318e+00 3.6250912894e+00 
35700 5.4586380682e+00 2.1699330520e-04 2.0929414763e+00 -3.6250809741e+00 2.0929414763e+00 3.6250809741e+00 
35800 5.4586383965e+00 1.8538691238e-04 2.0929362923e+00 -3.6250719953e+00 2.0929362923e+00 3.6250719953e+00 
35900 5.4586386960e+00 1.5450849452e-04 2.0929318635e+00 -3.6250643243e+00 2.0929318635e+00 3.6250643243e+00 
36000 5.4586389665e+00 1.2439167754e-04 2.0929281723e+00 -3.6250579309e+00 2.0929281723e+00 3.6250579309e+00 
36100 5.4586392080e+00 9.5067852105e-05 2.0929252005e+00 -3.6250527838e+00 2.0929252005e+00 3.6250527838e+00 
36200 5.4586394207e+00 6.6566182248e-05 2.0929229294e+00 -3.6250488500e+00 2.0929229294e+00 3.6250488500e+00 
36300 5.4586396049e+00 3.9769611904e-05 2.0929229294e+00 -3.6250488500e+00 2.0929229294e+00 3.6250488500e+00 
36400 5.4586397611e+00 1.3498569790e-05 2.0929229294e+00 -3.6250488500e+00 2.0929229294e+00 3.6250488500e+00 
36500 5.4586398900e+00 -1.2215955365e-05 2.0929229294e+00 -3.6250488500e+00 2.0929229294e+00 3.6250488500e+00 
36600 5.4586399925e+00 -3.7344853552e-05 2.0929229294e+00 -3.6250488500e+00 2.0929229294e+00 3.6250488500e+00 
36700 5.4586400697e+00 -6.1860880129e-05 2.0929229294e+00 -3.6250488500e+00 2.0929229294e+00 3.6250488500e+00 
36800 5.4586401226e+00 -8.5738640488e-05 2.0929229294e+00 -3.6250488500e+00 2.0929229294e+00 3.6250488500e+00 
36900 5.4586401522e+00 -1.0785220375e-04 2.0929249777e+00 -3.6250523978e+00 2.0929249777e+00 3.6250523978e+00 
37000 5.4586401598e+00 -1.2898853131e-04 2.0929275543e+00 -3.6250568605e+00 2.0929275543e+00 3.6250568605e+00 
37100 5.4586401469e+00 -1.4913758440e-04 2.0929306358e+00 -3.6250621979e+00 2.0929306358e+00 3.6250621979e+00 
37200 5.4586401149e+00 -1.6829129898e-04 2.0929341987e+00 -3.6250683690e+00 2.0929341987e+00 3.6250683690e+00 
37300 5.4586400651e+00 -1.8644354640e-04 2.0929382192e+00 -3.6250753327e+00 2.0929382192e+00 3.6250753327e+00 
37400 5.4586399991e+00 -2.0359009193e-04 2.0929426733e+00 -3.6250830474e+00 2.0929426733e+00 3.6250830474e+00 
37500 5.4586399184e+00 -2.1972855131e-04 2.0929475370e+00 -3.6250914716e+00 2.0929475370e+00 3.6250914716e+00 
37600 5.4586398246e+00 -2.3485834545e-04 2.0929527863e+00 -3.6251005636e+00 2.0929527863e+00 3.6251005636e+00 
37700 5.4586397192e+00 -2.4898065333e-04 2.0929583970e+00 -3.6251102816e+00 2.0929583970e+00 3.6251102816e+00 
37800 5.4586396038e+00 -2.6209836329e-04 2.0929643450e+00 -3.6251205840e+00 2.0929643450e+00 3.6251205840e+00 
37900 5.4586394798e+00 -2.7421602276e-04 2.0929706064e+00 -3.6251314291e+00 2.0929706064e+00 3.6251314291e+00 
38000 5.4586393487e+00 -2.8533978661e-04 2.0929771573e+00 -3.6251427755e+00 2.0929771573e+00 3.6251427755e+00 
38100 5.4586392121e+00 -2.9547736415e-04 2.0929839739e+00 -3.6251545823e+00 2.0929839739e+00 3.6251545823e+00 
38200 5.4586390713e+00 -3.0463796504e-04 2.0929910327e+00 -3.6251668084e+00 2.0929910327e+00 3.6251668084e+00 
38300 5.4586389277e+00 -3.1283224400e-04 2.0929983103e+00 -3.6251794135e+00 2.0929983103e+00 3.6251794135e+00 
38400 5.4586387826e+00 -3.2007224465e-04 2.0930057836e+00 -3.6251923577e+00 2.0930057836e+00 3.6251923577e+00 
38500 5.4586386373e+00 -3.2637134249e-04 2.0930134298e+00 -3.6252056013e+00 2.0930134298e+00 3.6252056013e+00 
38600 5.4586384929e+00 -3.3174418707e-04 2.0930212265e+00 -3.6252191056e+00 2.0930212265e+00 3.6252191056e+00 
38700 5.4586383505e+00 -3.3620664366e-04 2.0930291515e+00 -3.6252328321e+00 2.0930291515e+00 3.6252328321e+00 
38800 5.4586382113e+00 -3.3977573424e-04 2.0930371831e+00 -3.6252467432e+00 2.0930371831e+00 3.6252467432e+00 
38900 5.4586380760e+00 -3.4246957821e-04 2.0930452999e+00 -3.6252608020e+00 2.0930452999e+00 3.6252608020e+00 
39000 5.4586379457e+00 -3.4430733268e-04 2.0930534810e+00 -3.6252749721e+00 2.0930534810e+00 3.6252749721e+00 
39100 5.4586378211e+00 -3.4530913263e-04 2.0930617061e+00 -3.6252892183e+00 2.0930617061e+00 3.6252892183e+00 
39200 5.4586377028e+00 -3.4549603091e-04 2.0930699550e+00 -3.6253035058e+00 2.0930699550e+00 3.6253035058e+00 
39300 5.4586375917e+00 -3.4488993827e-04 2.0930782083e+00 -3.6253178010e+00 2.0930782083e+00 3.6253178010e+00 
39400 5.4586374880e+00 -3.4351356340e-04 2.0930864471e+00 -3.6253320711e+00 2.0930864471e+00 3.6253320711e+00 
39500 5.4586373925e+00 -3.4139035326e-04 2.0930946530e+00 -3.6253462841e+00 2.0930946530e+00 3.6253462841e+00 
39600 5.4586373053e+00 -3.3854443361e-04 2.0931028082e+00 -3.6253604093e+00 2.0931028082e+00 3.6253604093e+00 
39700 5.4586372268e+00 -3.3500054992e-04 2.0931108953e+00 -3.6253744166e+00 2.0931108953e+00 3.6253744166e+00 
39800 5.4586371573e+00 -3.3078400873e-04 2.0931188978e+00 -3.6253882773e+00 2.0931188978e+00 3.6253882773e+00 
39900 5.4586370968e+00 -3.2592061958e-04 2.0931267995e+00 -3.6254019634e+00 2.0931267995e+00 3.6254019634e+00 
40000 5.4586370455e+00 -3.2043663751e-04 2.0931345850e+00 -3.6254154483e+00 2.0931345850e+00 3.6254154483e+00 
40100 5.4586370034e+00 -3.1435870632e-04 2.0931422395e+00 -3.6254287063e+00 2.0931422395e+00 3.6254287063e+00 
40200 5.4586369703e+00 -3.0771380257e-04 2.0931497487e+00 -3.6254417127e+00 2.0931497487e+00 3.6254417127e+00 
40300 5.4586369462e+00 -3.0052918043e-04 2.0931570992e+00 -3.6254544441e+00 2.0931570992e+00 3.6254544441e+00 
40400 5.4586369309e+00 -2.9283231746e-04 2.0931642781e+00 -3.6254668783e+00 2.0931642781e+00 3.6254668783e+00 
40500 5.4586369242e+00 -2.8465086146e-04 2.0931712731e+00 -3.6254789939e+00 2.0931712731e+00 3.6254789939e+00 
40600 5.4586369258e+00 -2.7601257824e-04 2.0931780726e+00 -3.6254907710e+00 2.0931780726e+00 3.6254907710e+00 
40700 5.4586369354e+00 -2.6694530064e-04 2.0931846657e+00 -3.6255021907e+00 2.0931846657e+00 3.6255021907e+00 
40800 5.4586369526e+00 -2.5747687866e-04 2.0931910423e+00 -3.6255132352e+00 2.0931910423e+00 3.6255132352e+00 
40900 5.4586369769e+00 -2.4763513083e-04 2.0931971926e+00 -3.6255238879e+00 2.0931971926e+00 3.6255238879e+00 
41000 5.4586370081e+00 -2.3744779693e-04 2.0932031079e+00 -3.6255341334e+00 2.0932031079e+00 3.6255341334e+00 
41100 5.4586370457e+00 -2.2694249199e-04 2.0932087797e+00 -3.6255439574e+00 2.0932087797e+00 3.6255439574e+00 
41200 5.4586370891e+00 -2.1614666171e-04 2.0932142007e+00 -3.6255533467e+00 2.0932142007e+00 3.6255533467e+00 
41300 5.4586371378e+00 -2.0508753929e-04 2.0932193637e+00 -3.6255622893e+00 2.0932193637e+00 3.6255622893e+00 
41400 5.4586371915e+00 -1.9379210373e-04 2.0932242626e+00 -3.6255707744e+00 2.0932242626e+00 3.6255707744e+00 
41500 5.4586372495e+00 -1.8228703964e-04 2.0932288916e+00 -3.6255787921e+00 2.0932288916e+00 3.6255787921e+00 
41600 5.4586373114e+00 -1.7059869862e-04 2.0932332458e+00 -3.6255863338e+00 2.0932332458e+00 3.6255863338e+00 
41700 5.4586373766e+00 -1.5875306215e-04 2.0932373208e+00 -3.6255933919e+00 2.0932373208e+00 3.6255933919e+00 
41800 5.4586374446e+00 -1.4677570610e-04 2.0932411129e+00 -3.6255999600e+00 2.0932411129e+00 3.6255999600e+00 
41900 5.4586375150e+00 -1.3469176686e-04 2.0932446188e+00 -3.6256060324e+00 2.0932446188e+00 3.6256060324e+00 
42000 5.4586375871e+00 -1.2252590910e-04 2.0932478361e+00 -3.6256116050e+00 2.0932478361e+00 3.6256116050e+00 
42100 5.4586376606e+00 -1.1030229517e-04 2.0932507628e+00 -3.6256166741e+00 2.0932507628e+00 3.6256166741e+00 
42200 5.4586377349e+00 -9.8044556203e-05 2.0932533975e+00 -3.6256212376e+00 2.0932533975e+00 3.6256212376e+00 
42300 5.4586378097e+00 -8.5775764789e-05 2.0932557394e+00 -3.6256252939e+00 2.0932557394e+00 3.6256252939e+00 
42400 5.4586378844e+00 -7.3518409478e-05 2.0932577883e+00 -3.6256288426e+00 2.0932577883e+00 3.6256288426e+00 
42500 5.4586379587e+00 -6.1294370810e-05 2.0932595444e+00 -3.6256318843e+00 2.0932595444e+00 3.6256318843e+00 
42600 5.4586380321e+00 -4.9912409193e-05 2.0932595444e+00 -3.6256318843e+00 2.0932595444e+00 3.6256318843e+00 
42700 5.4586381044e+00 -3.8455996621e-05 2.0932595444e+00 -3.6256318843e+00 2.0932595444e+00 3.6256318843e+00 
42800 5.4586381750e+00 -2.6944865923e-05 2.0932595444e+00 -3.6256318843e+00 2.0932595444e+00 3.6256318843e+00 
42900 5.4586382437e+00 -1.5398268339e-05 2.0932595444e+00 -3.6256318843e+00 2.0932595444e+00 3.6256318843e+00 
43000 5.4586383103e+00 -3.8349575549e-06 2.0932595444e+00 -3.6256318843e+00 2.0932595444e+00 3.6256318843e+00 
43100 5.4586383745e+00 7.7268251528e-06 2.0932595444e+00 -3.6256318843e+00 2.0932595444e+00 3.6256318843e+00 
43200 5.4586384361e+00 1.9269364681e-05 2.0932595444e+00 -3.6256318843e+00 2.0932595444e+00 3.6256318843e+00 
43300 5.4586384948e+00 3.0775484756e-05 2.0932595444e+00 -3.6256318843e+00 2.0932595444e+00 3.6256318843e+00 
43400 5.4586385506e+00 4.2228559492e-05 2.0932595444e+00 -3.6256318843e+00 2.0932595444e+00 3.6256318843e+00 
43500 5.4586386033e+00 5.3612523852e-05 2.0932595444e+00 -3.6256318843e+00 2.0932595444e+00 3.6256318843e+00 
43600 5.4586386527e+00 6.4911883022e-05 2.0932595444e+00 -3.6256318843e+00 2.0932595444e+00 3.6256318843e+00 
43700 5.4586386989e+00 7.6111720687e-05 2.0932595444e+00 -3.6256318843e+00 2.0932595444e+00 3.6256318843e+00 
43800 5.4586387416e+00 8.6219674242e-05 2.0932577263e+00 -3.6256287354e+00 2.0932577263e+00 3.6256287354e+00 
43900 5.4586387807e+00 9.6061773752e-05 2.0932556669e+00 -3.6256251683e+00 2.0932556669e+00 3.6256251683e+00 
44000 5.4586388165e+00 1.0562696094e-04 2.0932533723e+00 -3.6256211940e+00 2.0932533723e+00 3.6256211940e+00 
44100 5.4586388487e+00 1.1490495054e-04 2.0932508493e+00 -3.6256168240e+00 2.0932508493e+00 3.6256168240e+00 
44200 5.4586388775e+00 1.2388622780e-04 2.0932481046e+00 -3.6256120701e+00 2.0932481046e+00 3.6256120701e+00 
44300 5.4586389029e+00 1.3256204467e-04 2.0932451455e+00 -3.6256069446e+00 2.0932451455e+00 3.6256069446e+00 
44400 5.4586389250e+00 1.4092441476e-04 2.0932419790e+00 -3.6256014602e+00 2.0932419790e+00 3.6256014602e+00 
44500 5.4586389439e+00 1.4896610706e-04 2.0932386129e+00 -3.6255956298e+00 2.0932386129e+00 3.6255956298e+00 
44600 5.4586389597e+00 1.5668063858e-04 2.0932350546e+00 -3.6255894667e+00 2.0932350546e+00 3.6255894667e+00 
44700 5.4586389724e+00 1.6406226581e-04 2.0932313120e+00 -3.6255829845e+00 2.0932313120e+00 3.6255829845e+00 
44800 5.4586389823e+00 1.7110597512e-04 2.0932273932e+00 -3.6255761968e+00 2.0932273932e+00 3.6255761968e+00 
44900 5.4586389894e+00 1.7780747218e-04 2.0932233060e+00 -3.6255691176e+00 2.0932233060e+00 3.6255691176e+00 
45000 5.4586389940e+00 1.8416317034e-04 2.0932190588e+00 -3.6255617613e+00 2.0932190588e+00 3.6255617613e+00 
45100 5.4586389961e+00 1.9017017815e-04 2.0932146598e+00 -3.6255541419e+00 2.0932146598e+00 3.6255541419e+00 
45200 5.4586389960e+00 1.9582628593e-04 2.0932101172e+00 -3.6255462740e+00 2.0932101172e+00 3.6255462740e+00 
45300 5.4586389938e+00 2.0112995152e-04 2.0932054396e+00 -3.6255381721e+00 2.0932054396e+00 3.6255381721e+00 
45400 5.4586389897e+00 2.0608028533e-04 2.0932006352e+00 -3.6255298507e+00 2.0932006352e+00 3.6255298507e+00 
45500 5.4586389839e+00 2.1067703450e-04 2.0931957126e+00 -3.6255213245e+00 2.0931957126e+00 3.6255213245e+00 
45600 5.4586389765e+00 2.1492056647e-04 2.0931906802e+00 -3.6255126080e+00 2.0931906802e+00 3.6255126080e+00 
45700 5.4586389678e+00 2.1881185191e-04 2.0931855464e+00 -3.6255037160e+00 2.0931855464e+00 3.6255037160e+00 
45800 5.4586389579e+00 2.2235244699e-04 2.0931803196e+00 -3.6254946630e+00 2.0931803196e+00 3.6254946630e+00 
45900 5.4586389471e+00 2.2554447518e-04 2.0931750083e+00 -3.6254854635e+00 2.0931750083e+00 3.6254854635e+00 
46000 5.4586389354e+00 2.2839060844e-04 2.0931696207e+00 -3.6254761319e+00 2.0931696207e+00 3.6254761319e+00 
46100 5.4586389230e+00 2.3089404811e-04 2.0931641651e+00 -3.6254666825e+00 2.0931641651e+00 3.6254666825e+00 
46200 5.4586389102e+00 2.3305850524e-04 2.0931586496e+00 -3.6254571295e+00 2.0931586496e+00 3.6254571295e+00 
46300 5.4586388970e+00 2.3488818065e-04 2.0931530825e+00 -3.6254474869e+00 2.0931530825e+00 3.6254474869e+00 
46400 5.4586388837e+00 2.3638774466e-04 2.0931474716e+00 -3.6254377686e+00 2.0931474716e+00 3.6254377686e+00 
46500 5.4586388704e+00 2.3756231649e-04 2.0931418249e+00 -3.6254279882e+00 2.0931418249e+00 3.6254279882e+00 
46600 5.4586388571e+00 2.3841744354e-04 2.0931361501e+00 -3.6254181592e+00 2.0931361501e+00 3.6254181592e+00 
46700 5.4586388441e+00 2.3895908035e-04 2.0931304549e+00 -3.6254082948e+00 2.0931304549e+00 3.6254082948e+00 
46800 5.4586388314e+00 2.3919356758e-04 2.0931247468e+00 -3.6253984080e+00 2.0931247468e+00 3.6253984080e+00 
46900 5.4586388192e+00 2.3912761068e-04 2.0931190330e+00 -3.6253885114e+00 2.0931190330e+00 3.6253885114e+00 
47000 5.4586388075e+00 2.3876825870e-04 2.0931133207e+00 -3.6253786175e+00 2.0931133207e+00 3.6253786175e+00 
47100 5.4586387965e+00 2.3812288297e-04 2.0931076171e+00 -3.6253687385e+00 2.0931076171e+00 3.6253687385e+00 
47200 5.4586387863e+00 2.3719915580e-04 2.0931019288e+00 -3.6253588861e+00 2.0931019288e+00 3.6253588861e+00 
47300 5.4586387768e+00 2.3600502923e-04 2.0930962626e+00 -3.6253490720e+00 2.0930962626e+00 3.6253490720e+00 
47400 5.4586387682e+00 2.3454871395e-04 2.0930906249e+00 -3.6253393072e+00 2.0930906249e+00 3.6253393072e+00 
47500 5.4586387605e+00 2.3283865818e-04 2.0930850220e+00 -3.6253296026e+00 2.0930850220e+00 3.6253296026e+00 
47600 5.4586387538e+00 2.3088352689e-04 2.0930794599e+00 -3.6253199688e+00 2.0930794599e+00 3.6253199688e+00 
47700 5.4586387481e+00 2.2869218105e-04 2.0930739445e+00 -3.6253104159e+00 2.0930739445e+00 3.6253104159e+00 
47800 5.4586387434e+00 2.2627365723e-04 2.0930684814e+00 -3.6253009535e+00 2.0930684814e+00 3.6253009535e+00 
47900 5.4586387397e+00 2.2363714733e-04 2.0930630761e+00 -3.6252915913e+00 2.0930630761e+00 3.6252915913e+00 
48000 5.4586387370e+00 2.2079197865e-04 2.0930577338e+00 -3.6252823381e+00 2.0930577338e+00 3.6252823381e+00 
48100 5.4586387354e+00 2.1774759431e-04 2.0930524594e+00 -3.6252732026e+00 2.0930524594e+00 3.6252732026e+00 
48200 5.4586387347e+00 2.1451353386e-04 2.0930472577e+00 -3.6252641930e+00 2.0930472577e+00 3.6252641930e+00 
48300 5.4586387351e+00 2.1109941440e-04 2.0930421333e+00 -3.6252553172e+00 2.0930421333e+00 3.6252553172e+00 
48400 5.4586387365e+00 2.0751491197e-04 2.0930370904e+00 -3.6252465827e+00 2.0930370904e+00 3.6252465827e+00 
48500 5.4586387388e+00 2.0376974338e-04 2.0930321331e+00 -3.6252379965e+00 2.0930321331e+00 3.6252379965e+00 
48600 5.4586387421e+00 1.9987364845e-04 2.0930272653e+00 -3.6252295652e+00 2.0930272653e+00 3.6252295652e+00 
48700 5.4586387462e+00 1.9583637272e-04 2.0930224906e+00 -3.6252212951e+00 2.0930224906e+00 3.6252212951e+00 
48800 5.4586387512e+00 1.9166765053e-04 2.0930178123e+00 -3.6252131920e+00 2.0930178123e+00 3.6252131920e+00 
48900 5.4586387570e+00 1.8737718870e-04 2.0930132335e+00 -3.6252052614e+00 2.0930132335e+00 3.6252052614e+00 
49000 5.4586387635e+00 1.8297465057e-04 2.0930087573e+00 -3.6251975083e+00 2.0930087573e+00 3.6251975083e+00 
49100 5.4586387707e+00 1.7846964064e-04 2.0930043862e+00 -3.6251899373e+00 2.0930043862e+00 3.6251899373e+00 
49200 5.4586387785e+00 1.7387168968e-04 2.0930001227e+00 -3.6251825528e+00 2.0930001227e+00 3.6251825528e+00 
49300 5.4586387869e+00 1.6919024036e-04 2.0929959691e+00 -3.6251753585e+00 2.0929959691e+00 3.6251753585e+00 
49400 5.4586387958e+00 1.6443463341e-04 2.0929919272e+00 -3.6251683578e+00 2.0929919272e+00 3.6251683578e+00 
49500 5.4586388051e+00 1.5961409441e-04 2.0929879990e+00 -3.6251615539e+00 2.0929879990e+00 3.6251615539e+00 
49600 5.4586388149e+00 1.5473772100e-04 2.0929841860e+00 -3.6251549495e+00 2.0929841860e+00 3.6251549495e+00 
49700 5.4586388250e+00 1.4981447076e-04 2.0929804894e+00 -3.6251485469e+00 2.0929804894e+00 3.6251485469e+00 
49800 5.4586388353e+00 1.4485314959e-04 2.0929769104e+00 -3.6251423479e+00 2.0929769104e+00 3.6251423479e+00 
49900 5.4586388459e+00 1.3986240070e-04 2.0929734499e+00 -3.6251363542e+00 2.0929734499e+00 3.6251363542e+00 
50000 5.4586388567e+00 1.3485069416e-04 2.0929701087e+00 -3.6251305670e+00 2.0929701087e+00 3.6251305670e+00 
50100 5.4586388675e+00 1.2982631700e-04 2.0929668872e+00 -3.6251249872e+00 2.0929668872e+00 3.6251249872e+00 
50200 5.4586388784e+00 1.2479736395e-04 2.0929637857e+00 -3.6251196153e+00 2.0929637857e+00 3.6251196153e+00 
50300 5.4586388893e+00 1.1977172866e-04 2.0929608044e+00 -3.6251144514e+00 2.0929608044e+00 3.6251144514e+00 
50400 5.4586389001e+00 1.1475709564e-04 2.0929579431e+00 -3.6251094955e+00 2.0929579431e+00 3.6251094955e+00 
50500 5.4586389108e+00 1.0976093257e-04 2.0929552016e+00 -3.6251047471e+00 2.0929552016e+00 3.6251047471e+00 
50600 5.4586389214e+00 1.0479048343e-04 2.0929525794e+00 -3.6251002054e+00 2.0929525794e+00 3.6251002054e+00 
50700 5.4586389318e+00 9.9852761981e-05 2.0929500760e+00 -3.6250958693e+00 2.0929500760e+00 3.6250958693e+00 
50800 5.4586389419e+00 9.4954545912e-05 2.0929476905e+00 -3.6250917376e+00 2.0929476905e+00 3.6250917376e+00 
50900 5.4586389518e+00 9.0102371572e-05 2.0929454221e+00 -3.6250878085e+00 2.0929454221e+00 3.6250878085e+00 
51000 5.4586389615e+00 8.5302529164e-05 2.0929432696e+00 -3.6250840803e+00 2.0929432696e+00 3.6250840803e+00 
51100 5.4586389707e+00 8.0561058571e-05 2.0929412317e+00 -3.6250805506e+00 2.0929412317e+00 3.6250805506e+00 
51200 5.4586389797e+00 7.5883745668e-05 2.0929393071e+00 -3.6250772171e+00 2.0929393071e+00 3.6250772171e+00 
51300 5.4586389883e+00 7.1276119191e-05 2.0929374943e+00 -3.6250740771e+00 2.0929374943e+00 3.6250740771e+00 
51400 5.4586389965e+00 6.6743448108e-05 2.0929357915e+00 -3.6250711278e+00 2.0929357915e+00 3.6250711278e+00 
51500 5.4586390043e+00 6.3149073052e-05 2.0929357915e+00 -3.6250711278e+00 2.0929357915e+00 3.6250711278e+00 
51600 5.4586390118e+00 5.9589464173e-05 2.0929357915e+00 -3.6250711278e+00 2.0929357915e+00 3.6250711278e+00 
51700 5.4586390188e+00 5.6069891290e-05 2.0929357915e+00 -3.6250711278e+00 2.0929357915e+00 3.6250711278e+00 
51800 5.4586390253e+00 5.2595387354e-05 2.0929357915e+00 -3.6250711278e+00 2.0929357915e+00 3.6250711278e+00 
51900 5.4586390314e+00 4.9170748683e-05 2.0929357915e+00 -3.6250711278e+00 2.0929357915e+00 3.6250711278e+00 
52000 5.4586390371e+00 4.5800535494e-05 2.0929357915e+00 -3.6250711278e+00 2.0929357915e+00 3.6250711278e+00 
52100 5.4586390423e+00 4.2489072671e-05 2.0929357915e+00 -3.6250711278e+00 2.0929357915e+00 3.6250711278e+00 
52200 5.4586390471e+00 3.9240450801e-05 2.0929357915e+00 -3.6250711278e+00 2.0929357915e+00 3.6250711278e+00 
52300 5.4586390514e+00 3.6058527447e-05 2.0929357915e+00 -3.6250711278e+00 2.0929357915e+00 3.6250711278e+00 
52400 5.4586390553e+00 3.2946928689e-05 2.0929357915e+00 -3.6250711278e+00 2.0929357915e+00 3.6250711278e+00 
52500 5.4586390589e+00 2.9909050889e-05 2.0929357915e+00 -3.6250711278e+00 2.0929357915e+00 3.6250711278e+00 
52600 5.4586390620e+00 2.6948062704e-05 2.0929357915e+00 -3.6250711278e+00 2.0929357915e+00 3.6250711278e+00 
52700 5.4586390648e+00 2.4066907326e-05 2.0929357915e+00 -3.6250711278e+00 2.0929357915e+00 3.6250711278e+00 
52800 5.4586390672e+00 2.1268304962e-05 2.0929357915e+00 -3.6250711278e+00 2.0929357915e+00 3.6250711278e+00 
52900 5.4586390693e+00 1.8554755513e-05 2.0929357915e+00 -3.6250711278e+00 2.0929357915e+00 3.6250711278e+00 
53000 5.4586390711e+00 1.5928541490e-05 2.0929357915e+00 -3.6250711278e+00 2.0929357915e+00 3.6250711278e+00 
53100 5.4586390726e+00 1.3391731118e-05 2.0929357915e+00 -3.6250711278e+00 2.0929357915e+00 3.6250711278e+00 
53200 5.4586390738e+00 1.0946181660e-05 2.0929357915e+00 -3.6250711278e+00 2.0929357915e+00 3.6250711278e+00 
53300 5.4586390748e+00 8.5935429214e-06 2.0929357915e+00 -3.6250711278e+00 2.0929357915e+00 3.6250711278e+00 
53400 5.4586390755e+00 6.3352609360e-06 2.0929357915e+00 -3.6250711278e+00 2.0929357915e+00 3.6250711278e+00 
53500 5.4586390761e+00 4.1725818566e-06 2.0929357915e+00 -3.6250711278e+00 2.0929357915e+00 3.6250711278e+00 
53600 5.4586390764e+00 2.1065559768e-06 2.0929357915e+00 -3.6250711278e+00 2.0929357915e+00 3.6250711278e+00 
53700 5.4586390766e+00 1.3804195459e-07 2.0929357915e+00 -3.6250711278e+00 2.0929357915e+00 3.6250711278e+00 
53800 5.4586390767e+00 -1.7322888452e-06 2.0929357915e+00 -3.6250711278e+00 2.0929357915e+00 3.6250711278e+00 
53900 5.4586390766e+00 -3.5039478328e-06 2.0929357915e+00 -3.6250711278e+00 2.0929357915e+00 3.6250711278e+00 
54000 5.4586390764e+00 -5.1766245600e-06 2.0929357915e+00 -3.6250711278e+00 2.0929357915e+00 3.6250711278e+00 
54100 5.4586390762e+00 -6.7501819479e-06 2.0929357915e+00 -3.6250711278e+00 2.0929357915e+00 3.6250711278e+00 
54200 5.4586390758e+00 -8.2246514024e-06 2.0929357915e+00 -3.6250711278e+00 2.0929357915e+00 3.6250711278e+00 
54300 5.4586390755e+00 -9.6002278113e-06 2.0929357915e+00 -3.6250711278e+00 2.0929357915e+00 3.6250711278e+00 
54400 5.4586390751e+00 -1.0877264441e-05 2.0929357915e+00 -3.6250711278e+00 2.0929357915e+00 3.6250711278e+00 
54500 5.4586390747e+00 -1.2056267756e-05 2.0929357915e+00 -3.6250711278e+00 2.0929357915e+00 3.6250711278e+00 
54600 5.4586390743e+00 -1.3137892128e-05 2.0929357915e+00 -3.6250711278e+00 2.0929357915e+00 3.6250711278e+00 
54700 5.4586390740e+00 -1.4122934495e-05 2.0929357915e+00 -3.6250711278e+00 2.0929357915e+00 3.6250711278e+00 
54800 5.4586390736e+00 -1.5012328937e-05 2.0929357915e+00 -3.6250711278e+00 2.0929357915e+00 3.6250711278e+00 
54900 5.4586390734e+00 -1.5807141214e-05 2.0929357915e+00 -3.6250711278e+00 2.0929357915e+00 3.6250711278e+00 
55000 5.4586390731e+00 -1.6508563233e-05 2.0929357915e+00 -3.6250711278e+00 2.0929357915e+00 3.6250711278e+00 
55100 5.4586390730e+00 -1.7117907500e-05 2.0929357915e+00 -3.6250711278e+00 2.0929357915e+00 3.6250711278e+00 
55200 5.4586390729e+00 -1.7636601523e-05 2.0929357915e+00 -3.6250711278e+00 2.0929357915e+00 3.6250711278e+00 
55300 5.4586390729e+00 -1.8066182202e-05 2.0929357915e+00 -3.6250711278e+00 2.0929357915e+00 3.6250711278e+00 
55400 5.4586390730e+00 -1.8408290207e-05 2.0929357915e+00 -3.6250711278e+00 2.0929357915e+00 3.6250711278e+00 
55500 5.4586390731e+00 -1.8664664347e-05 2.0929357915e+00 -3.6250711278e+00 2.0929357915e+00 3.6250711278e+00 
55600 5.4586390734e+00 -1.8837135948e-05 2.0929357915e+00 -3.6250711278e+00 2.0929357915e+00 3.6250711278e+00 
55700 5.4586390738e+00 -1.8927623238e-05 2.0929357915e+00 -3.6250711278e+00 2.0929357915e+00 3.6250711278e+00 
55800 5.4586390743e+00 -1.8938125751e-05 2.0929357915e+00 -3.6250711278e+00 2.0929357915e+00 3.6250711278e+00 
55900 5.4586390749e+00 -1.8870718767e-05 2.0929357915e+00 -3.6250711278e+00 2.0929357915e+00 3.6250711278e+00 
56000 5.4586390755e+00 -1.8727547776e-05 2.0929357915e+00 -3.6250711278e+00 2.0929357915e+00 3.6250711278e+00 
56100 5.4586390763e+00 -1.8510822990e-05 2.0929357915e+00 -3.6250711278e+00 2.0929357915e+00 3.6250711278e+00 
56200 5.4586390772e+00 -1.8222813905e-05 2.0929357915e+00 -3.6250711278e+00 2.0929357915e+00 3.6250711278e+00 
56300 5.4586390782e+00 -1.7865843919e-05 2.0929357915e+00 -3.6250711278e+00 2.0929357915e+00 3.6250711278e+00 
56400 5.4586390793e+00 -1.7442285009e-05 2.0929357915e+00 -3.6250711278e+00 2.0929357915e+00 3.6250711278e+00 
56500 5.4586390805e+00 -1.6954552488e-05 2.0929357915e+00 -3.6250711278e+00 2.0929357915e+00 3.6250711278e+00 
56600 5.4586390818e+00 -1.6405099824e-05 2.0929357915e+00 -3.6250711278e+00 2.0929357915e+00 3.6250711278e+00 
56700 5.4586390832e+00 -1.5796413551e-05 2.0929357915e+00 -3.6250711278e+00 2.0929357915e+00 3.6250711278e+00 
56800 5.4586390846e+00 -1.5131008263e-05 2.0929357915e+00 -3.6250711278e+00 2.0929357915e+00 3.6250711278e+00 
56900 5.4586390861e+00 -1.4411421705e-05 2.0929357915e+00 -3.6250711278e+00 2.0929357915e+00 3.6250711278e+00 
57000 5.4586390877e+00 -1.3640209962e-05 2.0929357915e+00 -3.6250711278e+00 2.0929357915e+00 3.6250711278e+00 
57100 5.4586390894e+00 -1.2819942744e-05 2.0929357915e+00 -3.6250711278e+00 2.0929357915e+00 3.6250711278e+00 
57200 5.4586390911e+00 -1.1953198786e-05 2.0929357915e+00 -3.6250711278e+00 2.0929357915e+00 3.6250711278e+00 
57300 5.4586390928e+00 -1.1042561360e-05 2.0929357915e+00 -3.6250711278e+00 2.0929357915e+00 3.6250711278e+00 
57400 5.4586390946e+00 -1.0090613904e-05 2.0929357915e+00 -3.6250711278e+00 2.0929357915e+00 3.6250711278e+00 
57500 5.4586390965e+00 -9.0999357606e-06 2.0929357915e+00 -3.6250711278e+00 2.0929357915e+00 3.6250711278e+00 
57600 5.4586390983e+00 -8.0730980586e-06 2.0929357915e+00 -3.6250711278e+00 2.0929357915e+00 3.6250711278e+00 
57700 5.4586391002e+00 -7.0126597058e-06 2.0929357915e+00 -3.6250711278e+00 2.0929357915e+00 3.6250711278e+00 
57800 5.4586391022e+00 -5.9211635170e-06 2.0929357915e+00 -3.6250711278e+00 2.0929357915e+00 3.6250711278e+00 
57900 5.4586391041e+00 -4.8011324762e-06 2.0929357915e+00 -3.6250711278e+00 2.0929357915e+00 3.6250711278e+00 
58000 5.4586391060e+00 -3.6550661370e-06 2.0929357915e+00 -3.6250711278e+00 2.0929357915e+00 3.6250711278e+00 
58100 5.4586391079e+00 -2.4854371488e-06 2.0929357915e+00 -3.6250711278e+00 2.0929357915e+00 3.6250711278e+00 
58200 5.4586391099e+00 -1.2946879411e-06 2.0929357915e+00 -3.6250711278e+00 2.0929357915e+00 3.6250711278e+00 
58300 5.4586391118e+00 -8.5227526394e-08 2.0929357915e+00 -3.6250711278e+00 2.0929357915e+00 3.6250711278e+00 
58400 5.4586391137e+00 1.1405715329e-06 2.0929357915e+00 -3.6250711278e+00 2.0929357915e+00 3.6250711278e+00 
58500 5.4586391155e+00 2.3803760298e-06 2.0929357915e+00 -3.6250711278e+00 2.0929357915e+00 3.6250711278e+00 
58600 5.4586391174e+00 3.6318948615e-06 2.0929357915e+00 -3.6250711278e+00 2.0929357915e+00 3.6250711278e+00 
58700 5.4586391192e+00 4.8928816442e-06 2.0929357915e+00 -3.6250711278e+00 2.0929357915e+00 3.6250711278e+00 
58800 5.4586391209e+00 6.1611371791e-06 2.0929357915e+00 -3.6250711278e+00 2.0929357915e+00 3.6250711278e+00 
58900 5.4586391227e+00 7.4345117634e-06 2.0929357915e+00 -3.6250711278e+00 2.0929357915e+00 3.6250711278e+00 
59000 5.4586391244e+00 8.7109073684e-06 2.0929357915e+00 -3.6250711278e+00 2.0929357915e+00 3.6250711278e+00 
59100 5.4586391260e+00 9.9882796679e-06 2.0929357915e+00 -3.6250711278e+00 2.0929357915e+00 3.6250711278e+00 
59200 5.4586391276e+00 1.1264639928e-05 2.0929357915e+00 -3.6250711278e+00 2.0929357915e+00 3.6250711278e+00 
59300 5.4586391292e+00 1.2538056734e-05 2.0929357915e+00 -3.6250711278e+00 2.0929357915e+00 3.6250711278e+00 
59400 5.4586391307e+00 1.3806657600e-05 2.0929357915e+00 -3.6250711278e+00 2.0929357915e+00 3.6250711278e+00 
59500 5.4586391321e+00 1.5068630420e-05 2.0929357915e+00 -3.6250711278e+00 2.0929357915e+00 3.6250711278e+00 
59600 5.4586391335e+00 1.6322224784e-05 2.0929357915e+00 -3.6250711278e+00 2.0929357915e+00 3.6250711278e+00 
59700 5.4586391349e+00 1.7565753162e-05 2.0929357915e+00 -3.6250711278e+00 2.0929357915e+00 3.6250711278e+00 
59800 5.4586391361e+00 1.8797591936e-05 2.0929357915e+00 -3.6250711278e+00 2.0929357915e+00 3.6250711278e+00 
59900 5.4586391374e+00 2.0016182321e-05 2.0929357915e+00 -3.6250711278e+00 2.0929357915e+00 3.6250711278e+00 
60000 5.4586391386e+00 2.1220031125e-05 2.0929357915e+00 -3.6250711278e+00 2.0929357915e+00 3.6250711278e+00 
60100 5.4586391397e+00 2.2407711405e-05 2.0929357915e+00 -3.6250711278e+00 2.0929357915e+00 3.6250711278e+00 
60200 5.4586391407e+00 2.3577862977e-05 2.0929357915e+00 -3.6250711278e+00 2.0929357915e+00 3.6250711278e+00 
60300 5.4586391418e+00 2.4729192810e-05 2.0929357915e+00 -3.6250711278e+00 2.0929357915e+00 3.6250711278e+00 
60400 5.4586391427e+00 2.5860475306e-05 2.0929357915e+00 -3.6250711278e+00 2.0929357915e+00 3.6250711278e+00 
60500 5.4586391436e+00 2.6970552431e-05 2.0929357915e+00 -3.6250711278e+00 2.0929357915e+00 3.6250711278e+00 
60600 5.4586391445e+00 2.8058333772e-05 2.0929357915e+00 -3.6250711278e+00 2.0929357915e+00 3.6250711278e+00 
60700 5.4586391453e+00 2.9122796438e-05 2.0929357915e+00 -3.6250711278e+00 2.0929357915e+00 3.6250711278e+00 
60800 5.4586391461e+00 3.0162984883e-05 2.0929357915e+00 -3.6250711278e+00 2.0929357915e+00 3.6250711278e+00 
60900 5.4586391468e+00 3.1178010611e-05 2.0929357915e+00 -3.6250711278e+00 2.0929357915e+00 3.6250711278e+00 
61000 5.4586391475e+00 3.2167051772e-05 2.0929357915e+00 -3.6250711278e+00 2.0929357915e+00 3.6250711278e+00 
61100 5.4586391482e+00 3.3129352665e-05 2.0929357915e+00 -3.6250711278e+00 2.0929357915e+00 3.6250711278e+00 
61200 5.4586391488e+00 3.4064223146e-05 2.0929357915e+00 -3.6250711278e+00 2.0929357915e+00 3.6250711278e+00 
61300 5.4586391494e+00 3.4971037935e-05 2.0929357915e+00 -3.6250711278e+00 2.0929357915e+00 3.6250711278e+00 
61400 5.4586391499e+00 3.5849235850e-05 2.0929357915e+00 -3.6250711278e+00 2.0929357915e+00 3.6250711278e+00 
61500 5.4586391504e+00 3.6698318934e-05 2.0929357915e+00 -3.6250711278e+00 2.0929357915e+00 3.6250711278e+00 
61600 5.4586391509e+00 3.7517851517e-05 2.0929357915e+00 -3.6250711278e+00 2.0929357915e+00 3.6250711278e+00 
61700 5.4586391514e+00 3.8307459197e-05 2.0929357915e+00 -3.6250711278e+00 2.0929357915e+00 3.6250711278e+00 
61800 5.4586391518e+00 3.9066827746e-05 2.0929357915e+00 -3.6250711278e+00 2.0929357915e+00 3.6250711278e+00 
61900 5.4586391523e+00 3.9795701943e-05 2.0929357915e+00 -3.6250711278e+00 2.0929357915e+00 3.6250711278e+00 
62000 5.4586391527e+00 4.0493884344e-05 2.0929357915e+00 -3.6250711278e+00 2.0929357915e+00 3.6250711278e+00 
62100 5.4586391531e+00 4.1161233988e-05 2.0929357915e+00 -3.6250711278e+00 2.0929357915e+00 3.6250711278e+00 
62200 5.4586391535e+00 4.1797665054e-05 2.0929357915e+00 -3.6250711278e+00 2.0929357915e+00 3.6250711278e+00 
62300 5.4586391538e+00 4.2403145444e-05 2.0929357915e+00 -3.6250711278e+00 2.0929357915e+00 3.6250711278e+00 
62400 5.4586391542e+00 4.2977695337e-05 2.0929357915e+00 -3.6250711278e+00 2.0929357915e+00 3.6250711278e+00 
62500 5.4586391546e+00 4.3521385679e-05 2.0929357915e+00 -3.6250711278e+00 2.0929357915e+00 3.6250711278e+00 
62600 5.4586391549e+00 4.4034336640e-05 2.0929357915e+00 -3.6250711278e+00 2.0929357915e+00 3.6250711278e+00 
62700 5.4586391553e+00 4.4516716025e-05 2.0929357915e+00 -3.6250711278e+00 2.0929357915e+00 3.6250711278e+00 
62800 5.4586391556e+00 4.4968737667e-05 2.0929357915e+00 -3.6250711278e+00 2.0929357915e+00 3.6250711278e+00 
62900 5.4586391559e+00 4.5390659752e-05 2.0929357915e+00 -3.6250711278e+00 2.0929357915e+00 3.6250711278e+00 
63000 5.4586391563e+00 4.5782783160e-05 2.0929357915e+00 -3.6250711278e+00 2.0929357915e+00 3.6250711278e+00 
63100 5.4586391566e+00 4.6145449740e-05 2.0929357915e+00 -3.6250711278e+00 2.0929357915e+00 3.6250711278e+00 
63200 5.4586391570e+00 4.6479040600e-05 2.0929357915e+00 -3.6250711278e+00 2.0929357915e+00 3.6250711278e+00 
63300 5.4586391573e+00 4.6783974356e-05 2.0929357915e+00 -3.6250711278e+00 2.0929357915e+00 3.6250711278e+00 
63400 5.4586391577e+00 4.7060705364e-05 2.0929357915e+00 -3.6250711278e+00 2.0929357915e+00 3.6250711278e+00 
63500 5.4586391580e+00 4.7309721975e-05 2.0929357915e+00 -3.6250711278e+00 2.0929357915e+00 3.6250711278e+00 
63600 5.4586391584e+00 4.7531544729e-05 2.0929357915e+00 -3.6250711278e+00 2.0929357915e+00 3.6250711278e+00 
63700 5.4586391588e+00 4.7726724599e-05 2.0929357915e+00 -3.6250711278e+00 2.0929357915e+00 3.6250711278e+00 
63800 5.4586391592e+00 4.7895841189e-05 2.0929357915e+00 -3.6250711278e+00 2.0929357915e+00 3.6250711278e+00 
63900 5.4586391595e+00 4.8039500962e-05 2.0929357915e+00 -3.6250711278e+00 2.0929357915e+00 3.6250711278e+00 
64000 5.4586391599e+00 4.8158335466e-05 2.0929357915e+00 -3.6250711278e+00 2.0929357915e+00 3.6250711278e+00 
64100 5.4586391603e+00 4.8252999558e-05 2.0929357915e+00 -3.6250711278e+00 2.0929357915e+00 3.6250711278e+00 
64200 5.4586391607e+00 4.8324169652e-05 2.0929357915e+00 -3.6250711278e+00 2.0929357915e+00 3.6250711278e+00 
64300 5.4586391611e+00 4.8372541967e-05 2.0929357915e+00 -3.6250711278e+00 2.0929357915e+00 3.6250711278e+00 
64400 5.4586391616e+00 4.8398830796e-05 2.0929357915e+00 -3.6250711278e+00 2.0929357915e+00 3.6250711278e+00 
64500 5.4586391620e+00 4.8403766810e-05 2.0929357915e+00 -3.6250711278e+00 2.0929357915e+00 3.6250711278e+00 
64600 5.4586391624e+00 4.8388095335e-05 2.0929357915e+00 -3.6250711278e+00 2.0929357915e+00 3.6250711278e+00 
64700 5.4586391628e+00 4.8352574714e-05 2.0929357915e+00 -3.6250711278e+00 2.0929357915e+00 3.6250711278e+00 
64800 5.4586391633e+00 4.8297974641e-05 2.0929357915e+00 -3.6250711278e+00 2.0929357915e+00 3.6250711278e+00 
64900 5.4586391637e+00 4.8225074550e-05 2.0929357915e+00 -3.6250711278e+00 2.0929357915e+00 3.6250711278e+00 
65000 5.4586391642e+00 4.8134662032e-05 2.0929357915e+00 -3.6250711278e+00 2.0929357915e+00 3.6250711278e+00 
65100 5.4586391646e+00 4.8027531264e-05 2.0929357915e+00 -3.6250711278e+00 2.0929357915e+00 3.6250711278e+00 
65200 5.4586391651e+00 4.7904481491e-05 2.0929357915e+00 -3.6250711278e+00 2.0929357915e+00 3.6250711278e+00 
65300 5.4586391655e+00 4.7766315533e-05 2.0929357915e+00 -3.6250711278e+00 2.0929357915e+00 3.6250711278e+00 
65400 5.4586391660e+00 4.7613838325e-05 2.0929357915e+00 -3.6250711278e+00 2.0929357915e+00 3.6250711278e+00 
65500 5.4586391664e+00 4.7447855506e-05 2.0929357915e+00 -3.6250711278e+00 2.0929357915e+00 3.6250711278e+00 
65600 5.4586391669e+00 4.7269172025e-05 2.0929357915e+00 -3.6250711278e+00 2.0929357915e+00 3.6250711278e+00 
65700 5.4586391673e+00 4.7078590811e-05 2.0929357915e+00 -3.6250711278e+00 2.0929357915e+00 3.6250711278e+00 
65800 5.4586391678e+00 4.6876911472e-05 2.0929357915e+00 -3.6250711278e+00 2.0929357915e+00 3.6250711278e+00 
65900 5.4586391682e+00 4.6664929028e-05 2.0929357915e+00 -3.6250711278e+00 2.0929357915e+00 3.6250711278e+00 
66000 5.4586391687e+00 4.6443432706e-05 2.0929357915e+00 -3.6250711278e+00 2.0929357915e+00 3.6250711278e+00 
66100 5.4586391691e+00 4.6213204757e-05 2.0929357915e+00 -3.6250711278e+00 2.0929357915e+00 3.6250711278e+00 
66200 5.4586391695e+00 4.5975019344e-05 2.0929357915e+00 -3.6250711278e+00 2.0929357915e+00 3.6250711278e+00 
66300 5.4586391700e+00 4.5729641442e-05 2.0929357915e+00 -3.6250711278e+00 2.0929357915e+00 3.6250711278e+00 
66400 5.4586391704e+00 4.5477825819e-05 2.0929357915e+00 -3.6250711278e+00 2.0929357915e+00 3.6250711278e+00 
66500 5.4586391708e+00 4.5220316032e-05 2.0929357915e+00 -3.6250711278e+00 2.0929357915e+00 3.6250711278e+00 
66600 5.4586391713e+00 4.4957843492e-05 2.0929357915e+00 -3.6250711278e+00 2.0929357915e+00 3.6250711278e+00 
66700 5.4586391717e+00 4.4691126559e-05 2.0929357915e+00 -3.6250711278e+00 2.0929357915e+00 3.6250711278e+00 
66800 5.4586391721e+00 4.4420869705e-05 2.0929357915e+00 -3.6250711278e+00 2.0929357915e+00 3.6250711278e+00 
66900 5.4586391725e+00 4.4147762698e-05 2.0929357915e+00 -3.6250711278e+00 2.0929357915e+00 3.6250711278e+00 
67000 5.4586391729e+00 4.3872479854e-05 2.0929357915e+00 -3.6250711278e+00 2.0929357915e+00 3.6250711278e+00 
67100 5.4586391732e+00 4.3595679329e-05 2.0929357915e+00 -3.6250711278e+00 2.0929357915e+00 3.6250711278e+00 
67200 5.4586391736e+00 4.3318002455e-05 2.0929357915e+00 -3.6250711278e+00 2.0929357915e+00 3.6250711278e+00 
67300 5.4586391740e+00 4.3040073130e-05 2.0929357915e+00 -3.6250711278e+00 2.0929357915e+00 3.6250711278e+00 
67400 5.4586391744e+00 4.2762497245e-05 2.0929357915e+00 -3.6250711278e+00 2.0929357915e+00 3.6250711278e+00 
67500 5.4586391747e+00 4.2485862170e-05 2.0929357915e+00 -3.6250711278e+00 2.0929357915e+00 3.6250711278e+00 
67600 5.4586391750e+00 4.2210736271e-05 2.0929357915e+00 -3.6250711278e+00 2.0929357915e+00 3.6250711278e+00 
67700 5.4586391754e+00 4.1937668487e-05 2.0929357915e+00 -3.6250711278e+00 2.0929357915e+00 3.6250711278e+00 
67800 5.4586391757e+00 4.1667187943e-05 2.0929357915e+00 -3.6250711278e+00 2.0929357915e+00 3.6250711278e+00 
67900 5.4586391760e+00 4.1399803607e-05 2.0929357915e+00 -3.6250711278e+00 2.0929357915e+00 3.6250711278e+00 
68000 5.4586391763e+00 4.1136003991e-05 2.0929357915e+00 -3.6250711278e+00 2.0929357915e+00 3.6250711278e+00 
68100 5.4586391766e+00 4.0876256910e-05 2.0929357915e+00 -3.6250711278e+00 2.0929357915e+00 3.6250711278e+00 
68200 5.4586391769e+00 4.0621009251e-05 2.0929357915e+00 -3.6250711278e+00 2.0929357915e+00 3.6250711278e+00 
68300 5.4586391772e+00 4.0370686821e-05 2.0929357915e+00 -3.6250711278e+00 2.0929357915e+00 3.6250711278e+00 
68400 5.4586391775e+00 4.0125694198e-05 2.0929357915e+00 -3.6250711278e+00 2.0929357915e+00 3.6250711278e+00 
68500 5.4586391778e+00 3.9886414659e-05 2.0929357915e+00 -3.6250711278e+00 2.0929357915e+00 3.6250711278e+00 
68600 5.4586391780e+00 3.9653210117e-05 2.0929357915e+00 -3.6250711278e+00 2.0929357915e+00 3.6250711278e+00 
68700 5.4586391783e+00 3.9426421111e-05 2.0929357915e+00 -3.6250711278e+00 2.0929357915e+00 3.6250711278e+00 
68800 5.4586391785e+00 3.9206366824e-05 2.0929357915e+00 -3.6250711278e+00 2.0929357915e+00 3.6250711278e+00 
68900 5.4586391788e+00 3.8993345148e-05 2.0929357915e+00 -3.6250711278e+00 2.0929357915e+00 3.6250711278e+00 
69000 5.4586391790e+00 3.8787632769e-05 2.0929357915e+00 -3.6250711278e+00 2.0929357915e+00 3.6250711278e+00 
69100 5.4586391792e+00 3.8589485300e-05 2.0929357915e+00 -3.6250711278e+00 2.0929357915e+00 3.6250711278e+00 
69200 5.4586391795e+00 3.8399137434e-05 2.0929357915e+00 -3.6250711278e+00 2.0929357915e+00 3.6250711278e+00 
69300 5.4586391797e+00 3.8216803136e-05 2.0929357915e+00 -3.6250711278e+00 2.0929357915e+00 3.6250711278e+00 
69400 5.4586391799e+00 3.8042675862e-05 2.0929357915e+00 -3.6250711278e+00 2.0929357915e+00 3.6250711278e+00 
69500 5.4586391801e+00 3.7876928805e-05 2.0929357915e+00 -3.6250711278e+00 2.0929357915e+00 3.6250711278e+00 
69600 5.4586391803e+00 3.7719715172e-05 2.0929357915e+00 -3.6250711278e+00 2.0929357915e+00 3.6250711278e+00 
69700 5.4586391805e+00 3.7571168487e-05 2.0929357915e+00 -3.6250711278e+00 2.0929357915e+00 3.6250711278e+00 
69800 5.4586391807e+00 3.7431402913e-05 2.0929357915e+00 -3.6250711278e+00 2.0929357915e+00 3.6250711278e+00 
69900 5.4586391809e+00 3.7300513607e-05 2.0929357915e+00 -3.6250711278e+00 2.0929357915e+00 3.6250711278e+00 
70000 5.4586391811e+00 3.7178577093e-05 2.0929357915e+00 -3.6250711278e+00 2.0929357915e+00 3.6250711278e+00 
70100 5.4586391813e+00 3.7065651653e-05 2.0929357915e+00 -3.6250711278e+00 2.0929357915e+00 3.6250711278e+00 
70200 5.4586391814e+00 3.6961777743e-05 2.0929357915e+00 -3.6250711278e+00 2.0929357915e+00 3.6250711278e+00 
70300 5.4586391816e+00 3.6866978427e-05 2.0929357915e+00 -3.6250711278e+00 2.0929357915e+00 3.6250711278e+00 
70400 5.4586391818e+00 3.6781259824e-05 2.0929357915e+00 -3.6250711278e+00 2.0929357915e+00 3.6250711278e+00 
70500 5.4586391819e+00 3.6704611579e-05 2.0929357915e+00 -3.6250711278e+00 2.0929357915e+00 3.6250711278e+00 
70600 5.4586391821e+00 3.6637007340e-05 2.0929357915e+00 -3.6250711278e+00 2.0929357915e+00 3.6250711278e+00 
70700 5.4586391823e+00 3.6578405263e-05 2.0929357915e+00 -3.6250711278e+00 2.0929357915e+00 3.6250711278e+00 
70800 5.4586391824e+00 3.6528748508e-05 2.0929357915e+00 -3.6250711278e+00 2.0929357915e+00 3.6250711278e+00 
70900 5.4586391826e+00 3.6487965763e-05 2.0929357915e+00 -3.6250711278e+00 2.0929357915e+00 3.6250711278e+00 
71000 5.4586391828e+00 3.6455971779e-05 2.0929357915e+00 -3.6250711278e+00 2.0929357915e+00 3.6250711278e+00 
71100 5.4586391829e+00 3.6432667900e-05 2.0929357915e+00 -3.6250711278e+00 2.0929357915e+00 3.6250711278e+00 
71200 5.4586391831e+00 3.6417942616e-05 2.0929357915e+00 -3.6250711278e+00 2.0929357915e+00 3.6250711278e+00 
71300 5.4586391832e+00 3.6411672116e-05 2.0929357915e+00 -3.6250711278e+00 2.0929357915e+00 3.6250711278e+00 
71400 5.4586391834e+00 3.6413720833e-05 2.0929357915e+00 -3.6250711278e+00 2.0929357915e+00 3.6250711278e+00 
71500 5.4586391835e+00 3.6423942031e-05 2.0929357915e+00 -3.6250711278e+00 2.0929357915e+00 3.6250711278e+00 
71600 5.4586391837e+00 3.6442178353e-05 2.0929357915e+00 -3.6250711278e+00 2.0929357915e+00 3.6250711278e+00 
71700 5.4586391838e+00 3.6468262393e-05 2.0929357915e+00 -3.6250711278e+00 2.0929357915e+00 3.6250711278e+00 
71800 5.4586391840e+00 3.6502017268e-05 2.0929357915e+00 -3.6250711278e+00 2.0929357915e+00 3.6250711278e+00 
71900 5.4586391841e+00 3.6543257195e-05 2.0929357915e+00 -3.6250711278e+00 2.0929357915e+00 3.6250711278e+00 
72000 5.4586391843e+00 3.6591788046e-05 2.0929357915e+00 -3.6250711278e+00 2.0929357915e+00 3.6250711278e+00 
72100 5.4586391844e+00 3.6647407928e-05 2.0929357915e+00 -3.6250711278e+00 2.0929357915e+00 3.6250711278e+00 
72200 5.4586391846e+00 3.6709907739e-05 2.0929357915e+00 -3.6250711278e+00 2.0929357915e+00 3.6250711278e+00 
72300 5.4586391847e+00 3.6779071744e-05 2.0929357915e+00 -3.6250711278e+00 2.0929357915e+00 3.6250711278e+00 
72400 5.4586391849e+00 3.6854678114e-05 2.0929357915e+00 -3.6250711278e+00 2.0929357915e+00 3.6250711278e+00 
72500 5.4586391850e+00 3.6936499491e-05 2.0929357915e+00 -3.6250711278e+00 2.0929357915e+00 3.6250711278e+00 
72600 5.4586391851e+00 3.7024303532e-05 2.0929357915e+00 -3.6250711278e+00 2.0929357915e+00 3.6250711278e+00 
72700 5.4586391853e+00 3.7117853449e-05 2.0929357915e+00 -3.6250711278e+00 2.0929357915e+00 3.6250711278e+00 
72800 5.4586391854e+00 3.7216908538e-05 2.0929357915e+00 -3.6250711278e+00 2.0929357915e+00 3.6250711278e+00 
72900 5.4586391856e+00 3.7321224704e-05 2.0929357915e+00 -3.6250711278e+00 2.0929357915e+00 3.6250711278e+00 
73000 5.4586391857e+00 3.7430554983e-05 2.0929357915e+00 -3.6250711278e+00 2.0929357915e+00 3.6250711278e+00 
73100 5.4586391859e+00 3.7544650040e-05 2.0929357915e+00 -3.6250711278e+00 2.0929357915e+00 3.6250711278e+00 
73200 5.4586391860e+00 3.7663258663e-05 2.0929357915e+00 -3.6250711278e+00 2.0929357915e+00 3.6250711278e+00 
73300 5.4586391861e+00 3.7786128264e-05 2.0929357915e+00 -3.6250711278e+00 2.0929357915e+00 3.6250711278e+00 
73400 5.4586391863e+00 3.7913005335e-05 2.0929357915e+00 -3.6250711278e+00 2.0929357915e+00 3.6250711278e+00 
73500 5.4586391864e+00 3.8043635915e-05 2.0929357915e+00 -3.6250711278e+00 2.0929357915e+00 3.6250711278e+00 
73600 5.4586391865e+00 3.8177766051e-05 2.0929357915e+00 -3.6250711278e+00 2.0929357915e+00 3.6250711278e+00 
73700 5.4586391867e+00 3.8315142223e-05 2.0929357915e+00 -3.6250711278e+00 2.0929357915e+00 3.6250711278e+00 
73800 5.4586391868e+00 3.8455511777e-05 2.0929357915e+00 -3.6250711278e+00 2.0929357915e+00 3.6250711278e+00 
73900 5.4586391869e+00 3.8598623334e-05 2.0929357915e+00 -3.6250711278e+00 2.0929357915e+00 3.6250711278e+00 
74000 5.4586391871e+00 3.8744227186e-05 2.0929357915e+00 -3.6250711278e+00 2.0929357915e+00 3.6250711278e+00 
74100 5.4586391872e+00 3.8892075691e-05 2.0929357915e+00 -3.6250711278e+00 2.0929357915e+00 3.6250711278e+00 
74200 5.4586391873e+00 3.9041923621e-05 2.0929357915e+00 -3.6250711278e+00 2.0929357915e+00 3.6250711278e+00 
74300 5.4586391874e+00 3.9193528541e-05 2.0929357915e+00 -3.6250711278e+00 2.0929357915e+00 3.6250711278e+00 
74400 5.4586391876e+00 3.9346651140e-05 2.0929357915e+00 -3.6250711278e+00 2.0929357915e+00 3.6250711278e+00 
74500 5.4586391877e+00 3.9501055554e-05 2.0929357915e+00 -3.6250711278e+00 2.0929357915e+00 3.6250711278e+00 
74600 5.4586391878e+00 3.9656509684e-05 2.0929357915e+00 -3.6250711278e+00 2.0929357915e+00 3.6250711278e+00 
74700 5.4586391879e+00 3.9812785486e-05 2.0929357915e+00 -3.6250711278e+00 2.0929357915e+00 3.6250711278e+00 
74800 5.4586391880e+00 3.9969659260e-05 2.0929357915e+00 -3.6250711278e+00 2.0929357915e+00 3.6250711278e+00 
74900 5.4586391881e+00 4.0126911909e-05 2.0929357915e+00 -3.6250711278e+00 2.0929357915e+00 3.6250711278e+00 
75000 5.4586391883e+00 4.0284329187e-05 2.0929357915e+00 -3.6250711278e+00 2.0929357915e+00 3.6250711278e+00 
75100 5.4586391884e+00 4.0441701946e-05 2.0929357915e+00 -3.6250711278e+00 2.0929357915e+00 3.6250711278e+00 
75200 5.4586391885e+00 4.0598826348e-05 2.0929357915e+00 -3.6250711278e+00 2.0929357915e+00 3.6250711278e+00 
75300 5.4586391886e+00 4.0755504068e-05 2.0929357915e+00 -3.6250711278e+00 2.0929357915e+00 3.6250711278e+00 
75400 5.4586391887e+00 4.0911542489e-05 2.0929357915e+00 -3.6250711278e+00 2.0929357915e+00 3.6250711278e+00 
75500 5.4586391888e+00 4.1066754877e-05 2.0929357915e+00 -3.6250711278e+00 2.0929357915e+00 3.6250711278e+00 
75600 5.4586391889e+00 4.1220960536e-05 2.0929357915e+00 -3.6250711278e+00 2.0929357915e+00 3.6250711278e+00 
75700 5.4586391890e+00 4.1373984961e-05 2.0929357915e+00 -3.6250711278e+00 2.0929357915e+00 3.6250711278e+00 
75800 5.4586391891e+00 4.1525659957e-05 2.0929357915e+00 -3.6250711278e+00 2.0929357915e+00 3.6250711278e+00 
75900 5.4586391892e+00 4.1675823768e-05 2.0929357915e+00 -3.6250711278e+00 2.0929357915e+00 3.6250711278e+00 
76000 5.4586391893e+00 4.1824321173e-05 2.0929357915e+00 -3.6250711278e+00 2.0929357915e+00 3.6250711278e+00 
76100 5.4586391894e+00 4.1971003572e-05 2.0929357915e+00 -3.6250711278e+00 2.0929357915e+00 3.6250711278e+00 
76200 5.4586391895e+00 4.2115729065e-05 2.0929357915e+00 -3.6250711278e+00 2.0929357915e+00 3.6250711278e+00 
76300 5.4586391896e+00 4.2258362508e-05 2.0929357915e+00 -3.6250711278e+00 2.0929357915e+00 3.6250711278e+00 
76400 5.4586391897e+00 4.2398775570e-05 2.0929357915e+00 -3.6250711278e+00 2.0929357915e+00 3.6250711278e+00 
76500 5.4586391897e+00 4.2536846750e-05 2.0929357915e+00 -3.6250711278e+00 2.0929357915e+00 3.6250711278e+00 
76600 5.4586391898e+00 4.2672461418e-05 2.0929357915e+00 -3.6250711278e+00 2.0929357915e+00 3.6250711278e+00 
76700 5.4586391899e+00 4.2805511818e-05 2.0929357915e+00 -3.6250711278e+00 2.0929357915e+00 3.6250711278e+00 
76800 5.4586391900e+00 4.2935897059e-05 2.0929357915e+00 -3.6250711278e+00 2.0929357915e+00 3.6250711278e+00 
76900 5.4586391901e+00 4.3063523110e-05 2.0929357915e+00 -3.6250711278e+00 2.0929357915e+00 3.6250711278e+00 
77000 5.4586391902e+00 4.3188302769e-05 2.0929357915e+00 -3.6250711278e+00 2.0929357915e+00 3.6250711278e+00 
77100 5.4586391902e+00 4.3310155631e-05 2.0929357915e+00 -3.6250711278e+00 2.0929357915e+00 3.6250711278e+00 
77200 5.4586391903e+00 4.3429008039e-05 2.0929357915e+00 -3.6250711278e+00 2.0929357915e+00 3.6250711278e+00 
77300 5.4586391904e+00 4.3544793026e-05 2.0929357915e+00 -3.6250711278e+00 2.0929357915e+00 3.6250711278e+00 
77400 5.4586391905e+00 4.3657450250e-05 2.0929357915e+00 -3.6250711278e+00 2.0929357915e+00 3.6250711278e+00 
77500 5.4586391905e+00 4.3766925918e-05 2.0929357915e+00 -3.6250711278e+00 2.0929357915e+00 3.6250711278e+00 
77600 5.4586391906e+00 4.3873172698e-05 2.0929357915e+00 -3.6250711278e+00 2.0929357915e+00 3.6250711278e+00 
77700 5.4586391907e+00 4.3976149628e-05 2.0929357915e+00 -3.6250711278e+00 2.0929357915e+00 3.6250711278e+00 
77800 5.4586391907e+00 4.4075822011e-05 2.0929357915e+00 -3.6250711278e+00 2.0929357915e+00 3.6250711278e+00 
77900 5.4586391908e+00 4.4172161304e-05 2.0929357915e+00 -3.6250711278e+00 2.0929357915e+00 3.6250711278e+00 
78000 5.4586391909e+00 4.4265145008e-05 2.0929357915e+00 -3.6250711278e+00 2.0929357915e+00 3.6250711278e+00 
78100 5.4586391909e+00 4.4354756531e-05 2.0929357915e+00 -3.6250711278e+00 2.0929357915e+00 3.6250711278e+00 
78200 5.4586391910e+00 4.4440985068e-05 2.0929357915e+00 -3.6250711278e+00 2.0929357915e+00 3.6250711278e+00 
78300 5.4586391911e+00 4.4523825456e-05 2.0929357915e+00 -3.6250711278e+00 2.0929357915e+00 3.6250711278e+00 
78400 5.4586391911e+00 4.4603278034e-05 2.0929357915e+00 -3.6250711278e+00 2.0929357915e+00 3.6250711278e+00 
78500 5.4586391912e+00 4.4679348495e-05 2.0929357915e+00 -3.6250711278e+00 2.0929357915e+00 3.6250711278e+00 
78600 5.4586391913e+00 4.4752047725e-05 2.0929357915e+00 -3.6250711278e+00 2.0929357915e+00 3.6250711278e+00 
78700 5.4586391913e+00 4.4821391658e-05 2.0929357915e+00 -3.6250711278e+00 2.0929357915e+00 3.6250711278e+00 
78800 5.4586391914e+00 4.4887401096e-05 2.0929357915e+00 -3.6250711278e+00 2.0929357915e+00 3.6250711278e+00 
78900 5.4586391914e+00 4.4950101562e-05 2.0929357915e+00 -3.6250711278e+00 2.0929357915e+00 3.6250711278e+00 
79000 5.4586391915e+00 4.5009523106e-05 2.0929357915e+00 -3.6250711278e+00 2.0929357915e+00 3.6250711278e+00 
79100 5.4586391916e+00 4.5065700160e-05 2.0929357915e+00 -3.6250711278e+00 2.0929357915e+00 3.6250711278e+00 
79200 5.4586391916e+00 4.5118671338e-05 2.0929357915e+00 -3.6250711278e+00 2.0929357915e+00 3.6250711278e+00 
79300 5.4586391917e+00 4.5168479273e-05 2.0929357915e+00 -3.6250711278e+00 2.0929357915e+00 3.6250711278e+00 
79400 5.4586391917e+00 4.5215170428e-05 2.0929357915e+00 -3.6250711278e+00 2.0929357915e+00 3.6250711278e+00 
79500 5.4586391918e+00 4.5258794922e-05 2.0929357915e+00 -3.6250711278e+00 2.0929357915e+00 3.6250711278e+00 
79600 5.4586391918e+00 4.5299406338e-05 2.0929357915e+00 -3.6250711278e+00 2.0929357915e+00 3.6250711278e+00 
79700 5.4586391919e+00 4.5337061553e-05 2.0929357915e+00 -3.6250711278e+00 2.0929357915e+00 3.6250711278e+00 
79800 5.4586391920e+00 4.5371820538e-05 2.0929357915e+00 -3.6250711278e+00 2.0929357915e+00 3.6250711278e+00 
79900 5.4586391920e+00 4.5403746185e-05 2.0929357915e+00 -3.6250711278e+00 2.0929357915e+00 3.6250711278e+00 
80000 5.4586391921e+00 4.5432904117e-05 2.0929357915e+00 -3.6250711278e+00 2.0929357915e+00 3.6250711278e+00 
80100 5.4586391921e+00 4.5459362507e-05 2.0929357915e+00 -3.6250711278e+00 2.0929357915e+00 3.6250711278e+00 
80200 5.4586391922e+00 4.5483191893e-05 2.0929357915e+00 -3.6250711278e+00 2.0929357915e+00 3.6250711278e+00 
80300 5.4586391922e+00 4.5504464999e-05 2.0929357915e+00 -3.6250711278e+00 2.0929357915e+00 3.6250711278e+00 
80400 5.4586391923e+00 4.5523256548e-05 2.0929357915e+00 -3.6250711278e+00 2.0929357915e+00 3.6250711278e+00 
80500 5.4586391923e+00 4.5539643092e-05 2.0929357915e+00 -3.6250711278e+00 2.0929357915e+00 3.6250711278e+00 
80600 5.4586391924e+00 4.5553702822e-05 2.0929357915e+00 -3.6250711278e+00 2.0929357915e+00 3.6250711278e+00 
80700 5.4586391924e+00 4.5565515405e-05 2.0929357915e+00 -3.6250711278e+00 2.0929357915e+00 3.6250711278e+00 
80800 5.4586391925e+00 4.5575161801e-05 2.0929357915e+00 -3.6250711278e+00 2.0929357915e+00 3.6250711278e+00 
80900 5.4586391925e+00 4.5582724100e-05 2.0929357915e+00 -3.6250711278e+00 2.0929357915e+00 3.6250711278e+00 
81000 5.4586391925e+00 4.5584717416e-05 2.0929357915e+00 -3.6250711278e+00 2.0929357915e+00 3.6250711278e+00 
81000 5.4586391925e+00 4.5584717416e-05 2.0929357915e+00 -3.6250711278e+00 2.0929357915e+00 3.6250711278e+00 
