# step Hamiltonian StressXX CellTensor1 CellTensor2 CellTensor3 CellTensor4 
0 5.7744903883e+00 1.9073624198e-01 2.6408444507e+00 -4.5740767634e+00 2.6408444507e+00 4.5740767634e+00 
100 5.7922336808e+00 2.0880827130e-01 2.6408444507e+00 -4.5740767634e+00 2.6408444507e+00 4.5740767634e+00 
200 5.8095878680e+00 2.2629878054e-01 2.6368920010e+00 -4.5672309198e+00 2.6368920010e+00 4.5672309198e+00 
300 5.8270040435e+00 2.4295915151e-01 2.6326021533e+00 -4.5598006856e+00 2.6326021533e+00 4.5598006856e+00 
400 5.8444133841e+00 2.5889745653e-01 2.6279890739e+00 -4.5518105978e+00 2.6279890739e+00 4.5518105978e+00 
500 5.8617445436e+00 2.7420760018e-01 2.6230648444e+00 -4.5432815821e+00 2.6230648444e+00 4.5432815821e+00 
600 5.8789244497e+00 2.8897043134e-01 2.6178397286e+00 -4.5342314161e+00 2.6178397286e+00 4.5342314161e+00 
700 5.8958790751e+00 3.0325483759e-01 2.6123224184e+00 -4.5246751545e+00 2.6123224184e+00 4.5246751545e+00 
800 5.9125341637e+00 3.1711878965e-01 2.6065202578e+00 -4.5146255174e+00 2.6065202578e+00 4.5146255174e+00 
900 5.9288159111e+00 3.3061031554e-01 2.6004394466e+00 -4.5040932435e+00 2.6004394466e+00 4.5040932435e+00 
1000 5.9446515954e+00 3.4376839381e-01 2.5940852266e+00 -4.4930874116e+00 2.5940852266e+00 4.4930874116e+00 
1100 5.9599701651e+00 3.5662376282e-01 2.5874620503e+00 -4.4816157338e+00 2.5874620503e+00 4.4816157338e+00 
1200 5.9747027892e+00 3.6919964857e-01 2.5805737360e+00 -4.4696848235e+00 2.5805737360e+00 4.4696848235e+00 
1300 5.9887833763e+00 3.8151241763e-01 2.5734236090e+00 -4.4573004401e+00 2.5734236090e+00 4.4573004401e+00 
1400 6.0021490697e+00 3.9357216479e-01 2.5660146318e+00 -4.4444677152e+00 2.5660146318e+00 4.4444677152e+00 
1500 6.0147407251e+00 4.0538324695e-01 2.5583495248e+00 -4.4311913604e+00 2.5583495248e+00 4.4311913604e+00 
1600 6.0265033737e+00 4.1694477598e-01 2.5504308772e+00 -4.4174758605e+00 2.5504308772e+00 4.4174758605e+00 
1700 6.0373866744e+00 4.2825108409e-01 2.5422612509e+00 -4.4033256526e+00 2.5422612509e+00 4.4033256526e+00 
1800 6.0473453547e+00 4.3929217547e-01 2.5338432760e+00 -4.3887452924e+00 2.5338432760e+00 4.3887452924e+00 
1900 6.0563396371e+00 4.5005417783e-01 2.5251797401e+00 -4.3737396082e+00 2.5251797401e+00 4.3737396082e+00 
2000 6.0643356478e+00 4.6051980648e-01 2.5162736705e+00 -4.3583138430e+00 2.5162736705e+00 4.3583138430e+00 
2100 6.0713057965e+00 4.7066885267e-01 2.5071284080e+00 -4.3424737838e+00 2.5071284080e+00 4.3424737838e+00 
2200 6.0772291203e+00 4.8047870552e-01 2.4977476748e+00 -4.3262258772e+00 2.4977476748e+00 4.3262258772e+00 
2300 6.0820915753e+00 4.8992491373e-01 2.4881356321e+00 -4.3095773309e+00 2.4881356321e+00 4.3095773309e+00 
2400 6.0858862624e+00 4.9898178888e-01 2.4782969294e+00 -4.2925361979e+00 2.4782969294e+00 4.2925361979e+00 
2500 6.0886135707e+00 5.0762304653e-01 2.4682367427e+00 -4.2751114435e+00 2.4682367427e+00 4.2751114435e+00 
2600 6.0902812205e+00 5.1582247442e-01 2.4579608018e+00 -4.2573129918e+00 2.4579608018e+00 4.2573129918e+00 
2700 6.0909041913e+00 5.2355460967e-01 2.4474754048e+00 -4.2391517513e+00 2.4474754048e+00 4.2391517513e+00 
2800 6.0905045210e+00 5.3079540016e-01 2.4367874199e+00 -4.2206396185e+00 2.4367874199e+00 4.2206396185e+00 
2900 6.0891109702e+00 5.3752281959e-01 2.4259042747e+00 -4.2017894581e+00 2.4259042747e+00 4.2017894581e+00 
3000 6.0867585487e+00 5.4371740397e-01 2.4148339325e+00 -4.1826150630e+00 2.4148339325e+00 4.1826150630e+00 
3100 6.0834879132e+00 5.4936267851e-01 2.4035848575e+00 -4.1631310935e+00 2.4035848575e+00 4.1631310935e+00 
3200 6.0793446529e+00 5.5444545095e-01 2.3921659707e+00 -4.1433530013e+00 2.3921659707e+00 4.1433530013e+00 
3300 6.0743784872e+00 5.5895595708e-01 2.3805865984e+00 -4.1232969402e+00 2.3805865984e+00 4.1232969402e+00 
3400 6.0686424104e+00 5.6288785764e-01 2.3688564167e+00 -4.1029796696e+00 2.3688564167e+00 4.1029796696e+00 
3500 6.0621918175e+00 5.6623809888e-01 2.3569853942e+00 -4.0824184554e+00 2.3569853942e+00 4.0824184554e+00 
3600 6.0550836506e+00 5.6900666091e-01 2.3449837355e+00 -4.0616309728e+00 2.3449837355e+00 4.0616309728e+00 
3700 6.0473755989e+00 5.7119622557e-01 2.3328618293e+00 -4.0406352154e+00 2.3328618293e+00 4.0406352154e+00 
3800 6.0391253813e+00 5.7281179934e-01 2.3206302004e+00 -4.0194494127e+00 2.3206302004e+00 4.0194494127e+00 
3900 6.0303901309e+00 5.7386032508e-01 2.3082994689e+00 -3.9980919592e+00 2.3082994689e+00 3.9980919592e+00 
4000 6.0212258919e+00 5.7435031164e-01 2.2958803158e+00 -3.9765813550e+00 2.2958803158e+00 3.9765813550e+00 
4100 6.0116872298e+00 5.7429150284e-01 2.2833834550e+00 -3.9549361573e+00 2.2833834550e+00 3.9549361573e+00 
4200 6.0018269491e+00 5.7369459921e-01 2.2708196116e+00 -3.9331749421e+00 2.2708196116e+00 3.9331749421e+00 
4300 5.9916959056e+00 5.7257103818e-01 2.2581995043e+00 -3.9113162750e+00 2.2581995043e+00 3.9113162750e+00 
4400 5.9813428975e+00 5.7093283197e-01 2.2455338324e+00 -3.8893786879e+00 2.2455338324e+00 3.8893786879e+00 
4500 5.9708146177e+00 5.6879245798e-01 2.2328332653e+00 -3.8673806604e+00 2.2328332653e+00 3.8673806604e+00 
4600 5.9601556516e+00 5.6616279351e-01 2.2201084328e+00 -3.8453406040e+00 2.2201084328e+00 3.8453406040e+00 
4700 5.9494085020e+00 5.6305708555e-01 2.2073699171e+00 -3.8232768476e+00 2.2073699171e+00 3.8232768476e+00 
4800 5.9386136316e+00 5.5948894610e-01 2.1946282440e+00 -3.8012076224e+00 2.1946282440e+00 3.8012076224e+00 
4900 5.9278095097e+00 5.5547236440e-01 2.1818938736e+00 -3.7791510457e+00 2.1818938736e+00 3.7791510457e+00 
5000 5.9170326567e+00 5.5102172823e-01 2.1691771897e+00 -3.7571251031e+00 2.1691771897e+00 3.7571251031e+00 
5100 5.9063176819e+00 5.4615184841e-01 2.1564884883e+00 -3.7351476277e+00 2.1564884883e+00 3.7351476277e+00 
5200 5.8956973107e+00 5.4087798124e-01 2.1438379643e+00 -3.7132362774e+00 2.1438379643e+00 3.7132362774e+00 
5300 5.8852024011e+00 5.3521584563e-01 2.1312356964e+00 -3.6914085091e+00 2.1312356964e+00 3.6914085091e+00 
5400 5.8748619495e+00 5.2918163230e-01 2.1186916314e+00 -3.6696815511e+00 2.1186916314e+00 3.6696815511e+00 
5500 5.8647030874e+00 5.2279200372e-01 2.1062155665e+00 -3.6480723730e+00 2.1062155665e+00 3.6480723730e+00 
5600 5.8547510709e+00 5.1606408402e-01 2.0938171314e+00 -3.6265976533e+00 2.0938171314e+00 3.6265976533e+00 
5700 5.8450292663e+00 5.0901543896e-01 2.0815057683e+00 -3.6052737469e+00 2.0815057683e+00 3.6052737469e+00 
5800 5.8355591327e+00 5.0166404625e-01 2.0692907131e+00 -3.5841166508e+00 2.0692907131e+00 3.5841166508e+00 
5900 5.8263602062e+00 4.9402825720e-01 2.0571809748e+00 -3.5631419687e+00 2.0571809748e+00 3.5631419687e+00 
6000 5.8174500860e+00 4.8612675038e-01 2.0451853154e+00 -3.5423648772e+00 2.0451853154e+00 3.5423648772e+00 
6100 5.8088444260e+00 4.7797847880e-01 2.0333122304e+00 -3.5218000908e+00 2.0333122304e+00 3.5218000908e+00 
6200 5.8005569328e+00 4.6960261145e-01 2.0215699289e+00 -3.5014618280e+00 2.0215699289e+00 3.5014618280e+00 
6300 5.7925993721e+00 4.6101847064e-01 2.0099663151e+00 -3.4813637793e+00 2.0099663151e+00 3.4813637793e+00 
6400 5.7849815831e+00 4.5224546605e-01 1.9985089701e+00 -3.4615190757e+00 1.9985089701e+00 3.4615190757e+00 
6500 5.7777115037e+00 4.4330302688e-01 1.9872051353e+00 -3.4419402594e+00 1.9872051353e+00 3.4419402594e+00 
6600 5.7707952051e+00 4.3421053275e-01 1.9760616963e+00 -3.4226392568e+00 1.9760616963e+00 3.4226392568e+00 
6700 5.7642369363e+00 4.2498724457e-01 1.9650851685e+00 -3.4036273531e+00 1.9650851685e+00 3.4036273531e+00 
6800 5.7580391789e+00 4.1565223605e-01 1.9542816846e+00 -3.3849151701e+00 1.9542816846e+00 3.3849151701e+00 
6900 5.7522027110e+00 4.0622432659e-01 1.9436569827e+00 -3.3665126466e+00 1.9436569827e+00 3.3665126466e+00 
7000 5.7467266797e+00 3.9672201633e-01 1.9332163969e+00 -3.3484290214e+00 1.9332163969e+00 3.3484290214e+00 
7100 5.7416086819e+00 3.8716342383e-01 1.9229648491e+00 -3.3306728197e+00 1.9229648491e+00 3.3306728197e+00 
7200 5.7368448522e+00 3.7756622690e-01 1.9129068430e+00 -3.3132518422e+00 1.9129068430e+00 3.3132518422e+00 
7300 5.7324299564e+00 3.6794760719e-01 1.9030464597e+00 -3.2961731574e+00 1.9030464597e+00 3.2961731574e+00 
7400 5.7283574907e+00 3.5832419870e-01 1.8933873552e+00 -3.2794430976e+00 1.8933873552e+00 3.2794430976e+00 
7500 5.7246197845e+00 3.4871204070e-01 1.8839327596e+00 -3.2630672576e+00 1.8839327596e+00 3.2630672576e+00 
7600 5.7212081065e+00 3.3912653531e-01 1.8746854783e+00 -3.2470504967e+00 1.8746854783e+00 3.2470504967e+00 
7700 5.7181127717e+00 3.2958240993e-01 1.8656478953e+00 -3.2313969437e+00 1.8656478953e+00 3.2313969437e+00 
7800 5.7153232508e+00 3.2009368470e-01 1.8568219773e+00 -3.2161100054e+00 1.8568219773e+00 3.2161100054e+00 
7900 5.7128282778e+00 3.1067364510e-01 1.8482092808e+00 -3.2011923774e+00 1.8482092808e+00 3.2011923774e+00 
8000 5.7106159574e+00 3.0133481975e-01 1.8398109596e+00 -3.1866460583e+00 1.8398109596e+00 3.1866460583e+00 
8100 5.7086738705e+00 2.9208896343e-01 1.8316277745e+00 -3.1724723660e+00 1.8316277745e+00 3.1724723660e+00 
8200 5.7069891760e+00 2.8294704519e-01 1.8236601044e+00 -3.1586719566e+00 1.8236601044e+00 3.1586719566e+00 
8300 5.7055487102e+00 2.7391924155e-01 1.8159079585e+00 -3.1452448460e+00 1.8159079585e+00 3.1452448460e+00 
8400 5.7043390814e+00 2.6501493459e-01 1.8083709897e+00 -3.1321904330e+00 1.8083709897e+00 3.1321904330e+00 
8500 5.7033467599e+00 2.5624271474e-01 1.8010485089e+00 -3.1195075244e+00 1.8010485089e+00 3.1195075244e+00 
8600 5.7025581630e+00 2.4761038798e-01 1.7939395010e+00 -3.1071943614e+00 1.7939395010e+00 3.1071943614e+00 
8700 5.7019597347e+00 2.3912498725e-01 1.7870426403e+00 -3.0952486483e+00 1.7870426403e+00 3.0952486483e+00 
8800 5.7015380190e+00 2.3079278777e-01 1.7803563081e+00 -3.0836675812e+00 1.7803563081e+00 3.0836675812e+00 
8900 5.7012797282e+00 2.2261932580e-01 1.7738786093e+00 -3.0724478778e+00 1.7738786093e+00 3.0724478778e+00 
9000 5.7011718040e+00 2.1460942068e-01 1.7676073907e+00 -3.0615858086e+00 1.7676073907e+00 3.0615858086e+00 
9100 5.7012014736e+00 2.0676719961e-01 1.7615402585e+00 -3.0510772272e+00 1.7615402585e+00 3.0510772272e+00 
9200 5.7013562987e+00 1.9909612489e-01 1.7556745963e+00 -3.0409176023e+00 1.7556745963e+00 3.0409176023e+00 
9300 5.7016242193e+00 1.9159902328e-01 1.7500075834e+00 -3.0311020481e+00 1.7500075834e+00 3.0311020481e+00 
9400 5.7019935911e+00 1.8427811688e-01 1.7445362123e+00 -3.0216253553e+00 1.7445362123e+00 3.0216253553e+00 
9500 5.7024532173e+00 1.7713505553e-01 1.7392573063e+00 -3.0124820220e+00 1.7392573063e+00 3.0124820220e+00 
9600 5.7029923752e+00 1.7017094998e-01 1.7341675372e+00 -3.0036662832e+00 1.7341675372e+00 3.0036662832e+00 
9700 5.7036008370e+00 1.6338640583e-01 1.7292634412e+00 -2.9951721399e+00 1.7292634412e+00 2.9951721399e+00 
9800 5.7042688866e+00 1.5678155767e-01 1.7245414363e+00 -2.9869933874e+00 1.7245414363e+00 2.9869933874e+00 
9900 5.7049873307e+00 1.5035610327e-01 1.7199978371e+00 -2.9791236428e+00 1.7199978371e+00 2.9791236428e+00 
10000 5.7057475065e+00 1.4410933756e-01 1.7156288706e+00 -2.9715563708e+00 1.7156288706e+00 2.9715563708e+00 
10100 5.7065412846e+00 1.3804018598e-01 1.7114306900e+00 -2.9642849087e+00 1.7114306900e+00 2.9642849087e+00 
10200 5.7073610693e+00 1.3214723726e-01 1.7073993890e+00 -2.9573024906e+00 1.7073993890e+00 2.9573024906e+00 
10300 5.7081997945e+00 1.2642877515e-01 1.7035310145e+00 -2.9506022694e+00 1.7035310145e+00 2.9506022694e+00 
10400 5.7090509173e+00 1.2088280923e-01 1.6998215788e+00 -2.9441773383e+00 1.6998215788e+00 2.9441773383e+00 
10500 5.7099084090e+00 1.1550710436e-01 1.6962670712e+00 -2.9380207505e+00 1.6962670712e+00 2.9380207505e+00 
10600 5.7107667431e+00 1.1029920893e-01 1.6928634684e+00 -2.9321255376e+00 1.6928634684e+00 2.9321255376e+00 
10700 5.7116208821e+00 1.0525648164e-01 1.6896067449e+00 -2.9264847270e+00 1.6896067449e+00 2.9264847270e+00 
10800 5.7124662621e+00 1.0037611686e-01 1.6864928818e+00 -2.9210913580e+00 1.6864928818e+00 2.9210913580e+00 
10900 5.7132987760e+00 9.5655168475e-02 1.6835178754e+00 -2.9159384956e+00 1.6835178754e+00 2.9159384956e+00 
11000 5.7141147556e+00 9.1090572148e-02 1.6806777445e+00 -2.9110192447e+00 1.6806777445e+00 2.9110192447e+00 
11100 5.7149109523e+00 8.6679166124e-02 1.6779685383e+00 -2.9063267618e+00 1.6779685383e+00 2.9063267618e+00 
11200 5.7156845181e+00 8.2417710453e-02 1.6753863416e+00 -2.9018542660e+00 1.6753863416e+00 2.9018542660e+00 
11300 5.7164329846e+00 7.8302904722e-02 1.6729272815e+00 -2.8975950490e+00 1.6729272815e+00 2.8975950490e+00 
11400 5.7171542429e+00 7.4331404322e-02 1.6705875318e+00 -2.8935424836e+00 1.6705875318e+00 2.8935424836e+00 
11500 5.7178465230e+00 7.0499835269e-02 1.6683633178e+00 -2.8896900319e+00 1.6683633178e+00 2.8896900319e+00 
11600 5.7185083724e+00 6.6804807666e-02 1.6662509201e+00 -2.8860312518e+00 1.6662509201e+00 2.8860312518e+00 
11700 5.7191386358e+00 6.3242927832e-02 1.6642466783e+00 -2.8825598031e+00 1.6642466783e+00 2.8825598031e+00 
11800 5.7197364347e+00 5.9810809179e-02 1.6623469935e+00 -2.8792694526e+00 1.6623469935e+00 2.8792694526e+00 
11900 5.7203011473e+00 5.6505081896e-02 1.6605483315e+00 -2.8761540785e+00 1.6605483315e+00 2.8761540785e+00 
12000 5.7208323884e+00 5.3322401512e-02 1.6588472240e+00 -2.8732076740e+00 1.6588472240e+00 2.8732076740e+00 
12100 5.7213299907e+00 5.0259456405e-02 1.6572402712e+00 -2.8704243501e+00 1.6572402712e+00 2.8704243501e+00 
12200 5.7217939860e+00 4.7312974336e-02 1.6557241427e+00 -2.8677983385e+00 1.6557241427e+00 2.8677983385e+00 
12300 5.7222245870e+00 4.4479728062e-02 1.6542955785e+00 -2.8653239928e+00 1.6542955785e+00 2.8653239928e+00 
12400 5.7226221705e+00 4.1756540118e-02 1.6529513901e+00 -2.8629957902e+00 1.6529513901e+00 2.8629957902e+00 
12500 5.7229872603e+00 3.9140286817e-02 1.6516884607e+00 -2.8608083323e+00 1.6516884607e+00 2.8608083323e+00 
12600 5.7233205115e+00 3.6627901550e-02 1.6505037457e+00 -2.8587563456e+00 1.6505037457e+00 2.8587563456e+00 
12700 5.7236226955e+00 3.4216377437e-02 1.6493942724e+00 -2.8568346816e+00 1.6493942724e+00 2.8568346816e+00 
12800 5.7238946855e+00 3.1902769393e-02 1.6483571405e+00 -2.8550383164e+00 1.6483571405e+00 2.8550383164e+00 
12900 5.7241374431e+00 2.9684195675e-02 1.6473895212e+00 -2.8533623505e+00 1.6473895212e+00 2.8533623505e+00 
13000 5.7243520054e+00 2.7557838952e-02 1.6464886568e+00 -2.8518020077e+00 1.6464886568e+00 2.8518020077e+00 
13100 5.7245394729e+00 2.5520946954e-02 1.6456518608e+00 -2.8503526345e+00 1.6456518608e+00 2.8503526345e+00 
13200 5.7247009986e+00 2.3570832756e-02 1.6448765163e+00 -2.8490096985e+00 1.6448765163e+00 2.8490096985e+00 
13300 5.7248377769e+00 2.1704874727e-02 1.6441600759e+00 -2.8477687872e+00 1.6441600759e+00 2.8477687872e+00 
13400 5.7249510344e+00 1.9920516199e-02 1.6435000604e+00 -2.8466256069e+00 1.6435000604e+00 2.8466256069e+00 
13500 5.7250420206e+00 1.8215264890e-02 1.6428940583e+00 -2.8455759804e+00 1.6428940583e+00 2.8455759804e+00 
13600 5.7251119995e+00 1.6586692108e-02 1.6423397243e+00 -2.8446158458e+00 1.6423397243e+00 2.8446158458e+00 
13700 5.7251622422e+00 1.5032431783e-02 1.6418347788e+00 -2.8437412545e+00 1.6418347788e+00 2.8437412545e+00 
13800 5.7251940193e+00 1.3550179350e-02 1.6413770064e+00 -2.8429483694e+00 1.6413770064e+00 2.8429483694e+00 
13900 5.7252085951e+00 1.2137690500e-02 1.6409642550e+00 -2.8422334631e+00 1.6409642550e+00 2.8422334631e+00 
14000 5.7252072215e+00 1.0792779842e-02 1.6405944348e+00 -2.8415929157e+00 1.6405944348e+00 2.8415929157e+00 
14100 5.7251911328e+00 9.5133194834e-03 1.6402655169e+00 -2.8410232131e+00 1.6402655169e+00 2.8410232131e+00 
14200 5.7251615411e+00 8.2972375549e-03 1.6399755321e+00 -2.8405209449e+00 1.6399755321e+00 2.8405209449e+00 
14300 5.7251196318e+00 7.1425166911e-03 1.6397225703e+00 -2.8400828021e+00 1.6397225703e+00 2.8400828021e+00 
14400 5.7250665605e+00 6.0471924916e-03 1.6395047786e+00 -2.8397055759e+00 1.6395047786e+00 2.8397055759e+00 
14500 5.7250034492e+00 5.0093519675e-03 1.6393203608e+00 -2.8393861548e+00 1.6393203608e+00 2.8393861548e+00 
14600 5.7249313839e+00 4.0271319895e-03 1.6391675757e+00 -2.8391215232e+00 1.6391675757e+00 2.8391215232e+00 
14700 5.7248514121e+00 3.0987177465e-03 1.6390447365e+00 -2.8389087594e+00 1.6390447365e+00 2.8389087594e+00 
14800 5.7247645408e+00 2.2223412243e-03 1.6389502092e+00 -2.8387450334e+00 1.6389502092e+00 2.8387450334e+00 
14900 5.7246717350e+00 1.3962797106e-03 1.6388824120e+00 -2.8386276052e+00 1.6388824120e+00 2.8386276052e+00 
15000 5.7245739160e+00 6.1885433462e-04 1.6388398136e+00 -2.8385538227e+00 1.6388398136e+00 2.8385538227e+00 
15100 5.7244719612e+00 -1.1157135584e-04 1.6388209328e+00 -2.8385211201e+00 1.6388209328e+00 2.8385211201e+00 
15200 5.7243667027e+00 -7.9659277304e-04 1.6388243368e+00 -2.8385270160e+00 1.6388243368e+00 2.8385270160e+00 
15300 5.7242589271e+00 -1.4377656223e-03 1.6388486407e+00 -2.8385691115e+00 1.6388486407e+00 2.8385691115e+00 
15400 5.7241493754e+00 -2.0366071854e-03 1.6388925060e+00 -2.8386450885e+00 1.6388925060e+00 2.8386450885e+00 
15500 5.7240387432e+00 -2.5945975536e-03 1.6389546400e+00 -2.8387527078e+00 1.6389546400e+00 2.8387527078e+00 
15600 5.7239276805e+00 -3.1131808071e-03 1.6390337947e+00 -2.8388898077e+00 1.6390337947e+00 2.8388898077e+00 
15700 5.7238167926e+00 -3.5937661429e-03 1.6391287656e+00 -2.8390543022e+00 1.6391287656e+00 2.8390543022e+00 
15800 5.7237066403e+00 -4.0377289476e-03 1.6392383911e+00 -2.8392441791e+00 1.6392383911e+00 2.8392441791e+00 
15900 5.7235977411e+00 -4.4464118183e-03 1.6393615513e+00 -2.8394574989e+00 1.6393615513e+00 2.8394574989e+00 
16000 5.7234905697e+00 -4.8211255298e-03 1.6394971673e+00 -2.8396923927e+00 1.6394971673e+00 2.8396923927e+00 
16100 5.7233855593e+00 -5.1631499497e-03 1.6396442001e+00 -2.8399470610e+00 1.6396442001e+00 2.8399470610e+00 
16200 5.7232831027e+00 -5.4737349034e-03 1.6398016499e+00 -2.8402197720e+00 1.6398016499e+00 2.8402197720e+00 
16300 5.7231835531e+00 -5.7541009887e-03 1.6399685551e+00 -2.8405088602e+00 1.6399685551e+00 2.8405088602e+00 
16400 5.7230872259e+00 -6.0054403423e-03 1.6401439915e+00 -2.8408127250e+00 1.6401439915e+00 2.8408127250e+00 
16500 5.7229944000e+00 -6.2289173601e-03 1.6403270715e+00 -2.8411298289e+00 1.6403270715e+00 2.8411298289e+00 
16600 5.7229053189e+00 -6.4256693728e-03 1.6405169433e+00 -2.8414586965e+00 1.6405169433e+00 2.8414586965e+00 
16700 5.7228201924e+00 -6.5968072784e-03 1.6407127901e+00 -2.8417979130e+00 1.6407127901e+00 2.8417979130e+00 
16800 5.7227391980e+00 -6.7434161339e-03 1.6409138290e+00 -2.8421461226e+00 1.6409138290e+00 2.8421461226e+00 
16900 5.7226624826e+00 -6.8665557083e-03 1.6411193107e+00 -2.8425020274e+00 1.6411193107e+00 2.8425020274e+00 
17000 5.7225901638e+00 -6.9672609988e-03 1.6413285186e+00 -2.8428643861e+00 1.6413285186e+00 2.8428643861e+00 
17100 5.7225223315e+00 -7.0465427121e-03 1.6415407677e+00 -2.8432320124e+00 1.6415407677e+00 2.8432320124e+00 
17200 5.7224590497e+00 -7.1053877133e-03 1.6417554044e+00 -2.8436037740e+00 1.6417554044e+00 2.8436037740e+00 
17300 5.7224003577e+00 -7.1447594442e-03 1.6419718052e+00 -2.8439785911e+00 1.6419718052e+00 2.8439785911e+00 
17400 5.7223462720e+00 -7.1655983129e-03 1.6421893764e+00 -2.8443554356e+00 1.6421893764e+00 2.8443554356e+00 
17500 5.7222967874e+00 -7.1688220574e-03 1.6424075534e+00 -2.8447333291e+00 1.6424075534e+00 2.8447333291e+00 
17600 5.7222518789e+00 -7.1553260840e-03 1.6426257995e+00 -2.8451113425e+00 1.6426257995e+00 2.8451113425e+00 
17700 5.7222115031e+00 -7.1259837845e-03 1.6428436057e+00 -2.8454885940e+00 1.6428436057e+00 2.8454885940e+00 
17800 5.7221755992e+00 -7.0816468312e-03 1.6430604901e+00 -2.8458642487e+00 1.6430604901e+00 2.8458642487e+00 
17900 5.7221440913e+00 -7.0231454547e-03 1.6432759965e+00 -2.8462375168e+00 1.6432759965e+00 2.8462375168e+00 
18000 5.7221168889e+00 -6.9512887036e-03 1.6434896945e+00 -2.8466076526e+00 1.6434896945e+00 2.8466076526e+00 
18100 5.7220938888e+00 -6.8668646900e-03 1.6437011786e+00 -2.8469739538e+00 1.6437011786e+00 2.8469739538e+00 
18200 5.7220749763e+00 -6.7706408209e-03 1.6439100672e+00 -2.8473357595e+00 1.6439100672e+00 2.8473357595e+00 
18300 5.7220600261e+00 -6.6633640177e-03 1.6441160025e+00 -2.8476924499e+00 1.6441160025e+00 2.8476924499e+00 
18400 5.7220489041e+00 -6.5457609257e-03 1.6443186495e+00 -2.8480434447e+00 1.6443186495e+00 2.8480434447e+00 
18500 5.7220414682e+00 -6.4185381148e-03 1.6445176952e+00 -2.8483882021e+00 1.6445176952e+00 2.8483882021e+00 
18600 5.7220375695e+00 -6.2823822723e-03 1.6447128486e+00 -2.8487262177e+00 1.6447128486e+00 2.8487262177e+00 
18700 5.7220370532e+00 -6.1379603898e-03 1.6449038395e+00 -2.8490570236e+00 1.6449038395e+00 2.8490570236e+00 
18800 5.7220397600e+00 -5.9859199452e-03 1.6450904181e+00 -2.8493801872e+00 1.6450904181e+00 2.8493801872e+00 
18900 5.7220455267e+00 -5.8268890813e-03 1.6452723543e+00 -2.8496953100e+00 1.6452723543e+00 2.8496953100e+00 
19000 5.7220541875e+00 -5.6614767815e-03 1.6454494373e+00 -2.8500020266e+00 1.6454494373e+00 2.8500020266e+00 
19100 5.7220655745e+00 -5.4902730438e-03 1.6456214746e+00 -2.8503000041e+00 1.6456214746e+00 2.8503000041e+00 
19200 5.7220795185e+00 -5.3138490551e-03 1.6457882920e+00 -2.8505889403e+00 1.6457882920e+00 2.8505889403e+00 
19300 5.7220958502e+00 -5.1327573650e-03 1.6459497325e+00 -2.8508685633e+00 1.6459497325e+00 2.8508685633e+00 
19400 5.7221144006e+00 -4.9475320609e-03 1.6461056558e+00 -2.8511386304e+00 1.6461056558e+00 2.8511386304e+00 
19500 5.7221350017e+00 -4.7586889459e-03 1.6462559380e+00 -2.8513989268e+00 1.6462559380e+00 2.8513989268e+00 
19600 5.7221574870e+00 -4.5667257186e-03 1.6464004707e+00 -2.8516492649e+00 1.6464004707e+00 2.8516492649e+00 
19700 5.7221816924e+00 -4.3721221561e-03 1.6465391609e+00 -2.8518894833e+00 1.6465391609e+00 2.8518894833e+00 
19800 5.7222074566e+00 -4.1753403019e-03 1.6466719297e+00 -2.8521194456e+00 1.6466719297e+00 2.8521194456e+00 
19900 5.7222346212e+00 -3.9768246570e-03 1.6467987125e+00 -2.8523390399e+00 1.6467987125e+00 2.8523390399e+00 
20000 5.7222630319e+00 -3.7770023769e-03 1.6469194581e+00 -2.8525481773e+00 1.6469194581e+00 2.8525481773e+00 
20100 5.7222925381e+00 -3.5762834729e-03 1.6470341281e+00 -2.8527467917e+00 1.6470341281e+00 2.8527467917e+00 
20200 5.7223229936e+00 -3.3750610204e-03 1.6471426967e+00 -2.8529348379e+00 1.6471426967e+00 2.8529348379e+00 
20300 5.7223542573e+00 -3.1737113713e-03 1.6472451497e+00 -2.8531122918e+00 1.6472451497e+00 2.8531122918e+00 
20400 5.7223861927e+00 -2.9725943741e-03 1.6473414846e+00 -2.8532791487e+00 1.6473414846e+00 2.8532791487e+00 
20500 5.7224186687e+00 -2.7720535995e-03 1.6474317094e+00 -2.8534354226e+00 1.6474317094e+00 2.8534354226e+00 
20600 5.7224515596e+00 -2.5724165723e-03 1.6475158427e+00 -2.8535811458e+00 1.6475158427e+00 2.8535811458e+00 
20700 5.7224847452e+00 -2.3739950108e-03 1.6475939128e+00 -2.8537163673e+00 1.6475939128e+00 2.8537163673e+00 
20800 5.7225181111e+00 -2.1770850713e-03 1.6476659577e+00 -2.8538411526e+00 1.6476659577e+00 2.8538411526e+00 
20900 5.7225515488e+00 -1.9819676001e-03 1.6477320238e+00 -2.8539555826e+00 1.6477320238e+00 2.8539555826e+00 
21000 5.7225849556e+00 -1.7889083922e-03 1.6477921665e+00 -2.8540597527e+00 1.6477921665e+00 2.8540597527e+00 
21100 5.7226182346e+00 -1.5981584552e-03 1.6478464488e+00 -2.8541537724e+00 1.6478464488e+00 2.8541537724e+00 
21200 5.7226512951e+00 -1.4099542809e-03 1.6478949414e+00 -2.8542377640e+00 1.6478949414e+00 2.8542377640e+00 
21300 5.7226840522e+00 -1.2245181218e-03 1.6479377220e+00 -2.8543118622e+00 1.6479377220e+00 2.8543118622e+00 
21400 5.7227164270e+00 -1.0420582744e-03 1.6479748752e+00 -2.8543762134e+00 1.6479748752e+00 2.8543762134e+00 
21500 5.7227483464e+00 -8.6276936747e-04 1.6480064916e+00 -2.8544309747e+00 1.6480064916e+00 2.8544309747e+00 
21600 5.7227797431e+00 -6.8683265631e-04 1.6480326678e+00 -2.8544763132e+00 1.6480326678e+00 2.8544763132e+00 
21700 5.7228105556e+00 -5.1441632174e-04 1.6480535058e+00 -2.8545124057e+00 1.6480535058e+00 2.8545124057e+00 
21800 5.7228407277e+00 -3.4567577420e-04 1.6480691126e+00 -2.8545394375e+00 1.6480691126e+00 2.8545394375e+00 
21900 5.7228702091e+00 -1.8075396216e-04 1.6480796000e+00 -2.8545576020e+00 1.6480796000e+00 2.8545576020e+00 
22000 5.7228989545e+00 -1.9781684879e-05 1.6480850837e+00 -2.8545671002e+00 1.6480850837e+00 2.8545671002e+00 
22100 5.7229269237e+00 1.3657819544e-04 1.6480850837e+00 -2.8545671002e+00 1.6480850837e+00 2.8545671002e+00 
22200 5.7229540820e+00 2.8931881282e-04 1.6480809402e+00 -2.8545599234e+00 1.6480809402e+00 2.8545599234e+00 
22300 5.7229803993e+00 4.3778688116e-04 1.6480721628e+00 -2.8545447204e+00 1.6480721628e+00 2.8545447204e+00 
22400 5.7230058502e+00 5.8189701499e-04 1.6480588810e+00 -2.8545217157e+00 1.6480588810e+00 2.8545217157e+00 
22500 5.7230304138e+00 7.2157436483e-04 1.6480412270e+00 -2.8544911381e+00 1.6480412270e+00 2.8544911381e+00 
22600 5.7230540733e+00 8.5675428768e-04 1.6480193352e+00 -2.8544532204e+00 1.6480193352e+00 2.8544532204e+00 
22700 5.7230768165e+00 9.8738201616e-04 1.6479933418e+00 -2.8544081985e+00 1.6479933418e+00 2.8544081985e+00 
22800 5.7230986346e+00 1.1134123266e-03 1.6479633848e+00 -2.8543563115e+00 1.6479633848e+00 2.8543563115e+00 
22900 5.7231195228e+00 1.2348092069e-03 1.6479296034e+00 -2.8542978004e+00 1.6479296034e+00 2.8542978004e+00 
23000 5.7231394796e+00 1.3515455236e-03 1.6478921381e+00 -2.8542329086e+00 1.6478921381e+00 2.8542329086e+00 
23100 5.7231585071e+00 1.4636026905e-03 1.6478511300e+00 -2.8541618804e+00 1.6478511300e+00 2.8541618804e+00 
23200 5.7231766103e+00 1.5709703367e-03 1.6478067207e+00 -2.8540849613e+00 1.6478067207e+00 2.8540849613e+00 
23300 5.7231937970e+00 1.6736459766e-03 1.6477590524e+00 -2.8540023974e+00 1.6477590524e+00 2.8540023974e+00 
23400 5.7232100777e+00 1.7716346815e-03 1.6477082672e+00 -2.8539144348e+00 1.6477082672e+00 2.8539144348e+00 
23500 5.7232254657e+00 1.8649487529e-03 1.6476545069e+00 -2.8538213193e+00 1.6476545069e+00 2.8538213193e+00 
23600 5.7232399762e+00 1.9536073983e-03 1.6475979132e+00 -2.8537232961e+00 1.6475979132e+00 2.8537232961e+00 
23700 5.7232536267e+00 2.0376364096e-03 1.6475386270e+00 -2.8536206094e+00 1.6475386270e+00 2.8536206094e+00 
23800 5.7232664364e+00 2.1170678451e-03 1.6474767886e+00 -2.8535135021e+00 1.6474767886e+00 2.8535135021e+00 
23900 5.7232784265e+00 2.1919397144e-03 1.6474125372e+00 -2.8534022154e+00 1.6474125372e+00 2.8534022154e+00 
24000 5.7232896195e+00 2.2622956678e-03 1.6473460109e+00 -2.8532869885e+00 1.6473460109e+00 2.8532869885e+00 
24100 5.7233000393e+00 2.3281846890e-03 1.6472773465e+00 -2.8531680583e+00 1.6472773465e+00 2.8531680583e+00 
24200 5.7233097110e+00 2.3896607933e-03 1.6472066793e+00 -2.8530456592e+00 1.6472066793e+00 2.8530456592e+00 
24300 5.7233186608e+00 2.4467827299e-03 1.6471341431e+00 -2.8529200227e+00 1.6471341431e+00 2.8529200227e+00 
24400 5.7233269155e+00 2.4996136891e-03 1.6470598697e+00 -2.8527913775e+00 1.6470598697e+00 2.8527913775e+00 
24500 5.7233345029e+00 2.5482210160e-03 1.6469839892e+00 -2.8526599486e+00 1.6469839892e+00 2.8526599486e+00 
24600 5.7233414511e+00 2.5926759283e-03 1.6469066296e+00 -2.8525259578e+00 1.6469066296e+00 2.8525259578e+00 
24700 5.7233477889e+00 2.6330532408e-03 1.6468279167e+00 -2.8523896231e+00 1.6468279167e+00 2.8523896231e+00 
24800 5.7233535452e+00 2.6694310961e-03 1.6467479742e+00 -2.8522511586e+00 1.6467479742e+00 2.8522511586e+00 
24900 5.7233587490e+00 2.7018907007e-03 1.6466669233e+00 -2.8521107742e+00 1.6466669233e+00 2.8521107742e+00 
25000 5.7233634295e+00 2.7305160684e-03 1.6465848827e+00 -2.8519686759e+00 1.6465848827e+00 2.8519686759e+00 
25100 5.7233676158e+00 2.7553937697e-03 1.6465019689e+00 -2.8518250649e+00 1.6465019689e+00 2.8518250649e+00 
25200 5.7233713368e+00 2.7766126883e-03 1.6464182954e+00 -2.8516801382e+00 1.6464182954e+00 2.8516801382e+00 
25300 5.7233746211e+00 2.7942637842e-03 1.6463339733e+00 -2.8515340881e+00 1.6463339733e+00 2.8515340881e+00 
25400 5.7233774970e+00 2.8084398638e-03 1.6462491109e+00 -2.8513871019e+00 1.6462491109e+00 2.8513871019e+00 
25500 5.7233799924e+00 2.8192353574e-03 1.6461638135e+00 -2.8512393625e+00 1.6461638135e+00 2.8512393625e+00 
25600 5.7233821345e+00 2.8267461030e-03 1.6460781837e+00 -2.8510910475e+00 1.6460781837e+00 2.8510910475e+00 
25700 5.7233839502e+00 2.8310691385e-03 1.6459923214e+00 -2.8509423296e+00 1.6459923214e+00 2.8509423296e+00 
25800 5.7233854656e+00 2.8323025001e-03 1.6459063233e+00 -2.8507933765e+00 1.6459063233e+00 2.8507933765e+00 
25900 5.7233867060e+00 2.8305450284e-03 1.6458202833e+00 -2.8506443507e+00 1.6458202833e+00 2.8506443507e+00 
26000 5.7233876961e+00 2.8258961818e-03 1.6457342921e+00 -2.8504954096e+00 1.6457342921e+00 2.8504954096e+00 
26100 5.7233884598e+00 2.8184558569e-03 1.6456484376e+00 -2.8503467054e+00 1.6456484376e+00 2.8503467054e+00 
26200 5.7233890201e+00 2.8083242168e-03 1.6455628048e+00 -2.8501983850e+00 1.6455628048e+00 2.8501983850e+00 
26300 5.7233893991e+00 2.7956015259e-03 1.6454774753e+00 -2.8500505900e+00 1.6454774753e+00 2.8500505900e+00 
26400 5.7233896182e+00 2.7803879921e-03 1.6453925280e+00 -2.8499034569e+00 1.6453925280e+00 2.8499034569e+00 
26500 5.7233896977e+00 2.7627836164e-03 1.6453080386e+00 -2.8497571170e+00 1.6453080386e+00 2.8497571170e+00 
26600 5.7233896569e+00 2.7428880497e-03 1.6452240799e+00 -2.8496116962e+00 1.6452240799e+00 2.8496116962e+00 
26700 5.7233895145e+00 2.7208004555e-03 1.6451407215e+00 -2.8494673152e+00 1.6451407215e+00 2.8494673152e+00 
26800 5.7233892879e+00 2.6966193813e-03 1.6450580302e+00 -2.8493240896e+00 1.6450580302e+00 2.8493240896e+00 
26900 5.7233889937e+00 2.6704426351e-03 1.6449760696e+00 -2.8491821298e+00 1.6449760696e+00 2.8491821298e+00 
27000 5.7233886474e+00 2.6423671695e-03 1.6448949006e+00 -2.8490415410e+00 1.6448949006e+00 2.8490415410e+00 
27100 5.7233882639e+00 2.6124889725e-03 1.6448145810e+00 -2.8489024234e+00 1.6448145810e+00 2.8489024234e+00 
27200 5.7233878567e+00 2.5809029644e-03 1.6447351658e+00 -2.8487648721e+00 1.6447351658e+00 2.8487648721e+00 
27300 5.7233874386e+00 2.5477029007e-03 1.6446567069e+00 -2.8486289773e+00 1.6446567069e+00 2.8486289773e+00 
27400 5.7233870215e+00 2.5129812825e-03 1.6445792535e+00 -2.8484948242e+00 1.6445792535e+00 2.8484948242e+00 
27500 5.7233866164e+00 2.4768292713e-03 1.6445028522e+00 -2.8483624931e+00 1.6445028522e+00 2.8483624931e+00 
27600 5.7233862333e+00 2.4393366111e-03 1.6444275464e+00 -2.8482320598e+00 1.6444275464e+00 2.8482320598e+00 
27700 5.7233858813e+00 2.4005915556e-03 1.6443533772e+00 -2.8481035949e+00 1.6443533772e+00 2.8481035949e+00 
27800 5.7233855689e+00 2.3606808010e-03 1.6442803827e+00 -2.8479771648e+00 1.6442803827e+00 2.8479771648e+00 
27900 5.7233853035e+00 2.3196894245e-03 1.6442085986e+00 -2.8478528311e+00 1.6442085986e+00 2.8478528311e+00 
28000 5.7233850919e+00 2.2777008282e-03 1.6441380579e+00 -2.8477306510e+00 1.6441380579e+00 2.8477306510e+00 
28100 5.7233849400e+00 2.2347966877e-03 1.6440687911e+00 -2.8476106773e+00 1.6440687911e+00 2.8476106773e+00 
28200 5.7233848531e+00 2.1910569061e-03 1.6440008261e+00 -2.8474929585e+00 1.6440008261e+00 2.8474929585e+00 
28300 5.7233848356e+00 2.1465595725e-03 1.6439341886e+00 -2.8473775390e+00 1.6439341886e+00 2.8473775390e+00 
28400 5.7233848914e+00 2.1013809256e-03 1.6438689018e+00 -2.8472644589e+00 1.6438689018e+00 2.8472644589e+00 
28500 5.7233850236e+00 2.0555953211e-03 1.6438049865e+00 -2.8471537544e+00 1.6438049865e+00 2.8471537544e+00 
28600 5.7233852349e+00 2.0092752039e-03 1.6437424614e+00 -2.8470454577e+00 1.6437424614e+00 2.8470454577e+00 
28700 5.7233855271e+00 1.9624910846e-03 1.6436813428e+00 -2.8469395972e+00 1.6436813428e+00 2.8469395972e+00 
28800 5.7233859017e+00 1.9153115194e-03 1.6436216452e+00 -2.8468361978e+00 1.6436216452e+00 2.8468361978e+00 
28900 5.7233863596e+00 1.8678030940e-03 1.6435633805e+00 -2.8467352805e+00 1.6435633805e+00 2.8467352805e+00 
29000 5.7233869012e+00 1.8200304119e-03 1.6435065591e+00 -2.8466368629e+00 1.6435065591e+00 2.8466368629e+00 
29100 5.7233875265e+00 1.7720560849e-03 1.6434511891e+00 -2.8465409592e+00 1.6434511891e+00 2.8465409592e+00 
29200 5.7233882350e+00 1.7239407279e-03 1.6433972767e+00 -2.8464475803e+00 1.6433972767e+00 2.8464475803e+00 
29300 5.7233890257e+00 1.6757429568e-03 1.6433448265e+00 -2.8463567338e+00 1.6433448265e+00 2.8463567338e+00 
29400 5.7233898976e+00 1.6275193887e-03 1.6432938410e+00 -2.8462684244e+00 1.6432938410e+00 2.8462684244e+00 
29500 5.7233908490e+00 1.5793246458e-03 1.6432443212e+00 -2.8461826536e+00 1.6432443212e+00 2.8461826536e+00 
29600 5.7233918780e+00 1.5312113618e-03 1.6431962664e+00 -2.8460994202e+00 1.6431962664e+00 2.8460994202e+00 
29700 5.7233929825e+00 1.4832301903e-03 1.6431496741e+00 -2.8460187200e+00 1.6431496741e+00 2.8460187200e+00 
29800 5.7233941600e+00 1.4354298168e-03 1.6431045406e+00 -2.8459405464e+00 1.6431045406e+00 2.8459405464e+00 
29900 5.7233954081e+00 1.3878569717e-03 1.6430608604e+00 -2.8458648901e+00 1.6430608604e+00 2.8458648901e+00 
30000 5.7233967238e+00 1.3405564462e-03 1.6430186266e+00 -2.8457917391e+00 1.6430186266e+00 2.8457917391e+00 
30100 5.7233981041e+00 1.2935711104e-03 1.6429778313e+00 -2.8457210795e+00 1.6429778313e+00 2.8457210795e+00 
30200 5.7233995460e+00 1.2469419327e-03 1.6429384648e+00 -2.8456528947e+00 1.6429384648e+00 2.8456528947e+00 
30300 5.7234010462e+00 1.2007080013e-03 1.6429005164e+00 -2.8455871662e+00 1.6429005164e+00 2.8455871662e+00 
30400 5.7234026013e+00 1.1549065473e-03 1.6428639742e+00 -2.8455238733e+00 1.6428639742e+00 2.8455238733e+00 
30500 5.7234042078e+00 1.1095729696e-03 1.6428288252e+00 -2.8454629933e+00 1.6428288252e+00 2.8454629933e+00 
30600 5.7234058623e+00 1.0647408608e-03 1.6427950551e+00 -2.8454045018e+00 1.6427950551e+00 2.8454045018e+00 
30700 5.7234075613e+00 1.0204420346e-03 1.6427626488e+00 -2.8453483725e+00 1.6427626488e+00 2.8453483725e+00 
30800 5.7234093012e+00 9.7670655430e-04 1.6427315902e+00 -2.8452945774e+00 1.6427315902e+00 2.8452945774e+00 
30900 5.7234110783e+00 9.3356276295e-04 1.6427018621e+00 -2.8452430869e+00 1.6427018621e+00 2.8452430869e+00 
31000 5.7234128892e+00 8.9103731370e-04 1.6426734468e+00 -2.8451938700e+00 1.6426734468e+00 2.8451938700e+00 
31100 5.7234147303e+00 8.4915520163e-04 1.6426463253e+00 -2.8451468942e+00 1.6426463253e+00 2.8451468942e+00 
31200 5.7234165981e+00 8.0793979619e-04 1.6426204782e+00 -2.8451021257e+00 1.6426204782e+00 2.8451021257e+00 
31300 5.7234184891e+00 7.6741287449e-04 1.6425958852e+00 -2.8450595295e+00 1.6425958852e+00 2.8450595295e+00 
31400 5.7234204000e+00 7.2759465516e-04 1.6425725255e+00 -2.8450190693e+00 1.6425725255e+00 2.8450190693e+00 
31500 5.7234223273e+00 6.8850383283e-04 1.6425503775e+00 -2.8449807079e+00 1.6425503775e+00 2.8449807079e+00 
31600 5.7234242680e+00 6.5015761314e-04 1.6425294192e+00 -2.8449444070e+00 1.6425294192e+00 2.8449444070e+00 
31700 5.7234262187e+00 6.1257174814e-04 1.6425096279e+00 -2.8449101274e+00 1.6425096279e+00 2.8449101274e+00 
31800 5.7234281765e+00 5.7576057205e-04 1.6424909805e+00 -2.8448778292e+00 1.6424909805e+00 2.8448778292e+00 
31900 5.7234301384e+00 5.3973703739e-04 1.6424734535e+00 -2.8448474715e+00 1.6424734535e+00 2.8448474715e+00 
32000 5.7234321016e+00 5.0451275128e-04 1.6424570229e+00 -2.8448190129e+00 1.6424570229e+00 2.8448190129e+00 
32100 5.7234340632e+00 4.7009801189e-04 1.6424416644e+00 -2.8447924113e+00 1.6424416644e+00 2.8447924113e+00 
32200 5.7234360207e+00 4.3650184513e-04 1.6424273535e+00 -2.8447676240e+00 1.6424273535e+00 2.8447676240e+00 
32300 5.7234379716e+00 4.0373204124e-04 1.6424140652e+00 -2.8447446080e+00 1.6424140652e+00 2.8447446080e+00 
32400 5.7234399135e+00 3.7179519159e-04 1.6424017744e+00 -2.8447233197e+00 1.6424017744e+00 2.8447233197e+00 
32500 5.7234418442e+00 3.4069672525e-04 1.6423904558e+00 -2.8447037153e+00 1.6423904558e+00 2.8447037153e+00 
32600 5.7234437615e+00 3.1044094564e-04 1.6423800838e+00 -2.8446857505e+00 1.6423800838e+00 2.8446857505e+00 
32700 5.7234456634e+00 2.8103106698e-04 1.6423706329e+00 -2.8446693810e+00 1.6423706329e+00 2.8446693810e+00 
32800 5.7234475481e+00 2.5246925059e-04 1.6423620772e+00 -2.8446545622e+00 1.6423620772e+00 2.8446545622e+00 
32900 5.7234494138e+00 2.2475664101e-04 1.6423543911e+00 -2.8446412494e+00 1.6423543911e+00 2.8446412494e+00 
33000 5.7234512589e+00 1.9789340188e-04 1.6423475486e+00 -2.8446293978e+00 1.6423475486e+00 2.8446293978e+00 
33100 5.7234530819e+00 1.7187875154e-04 1.6423415239e+00 -2.8446189627e+00 1.6423415239e+00 2.8446189627e+00 
33200 5.7234548816e+00 1.4671099836e-04 1.6423362911e+00 -2.8446098993e+00 1.6423362911e+00 2.8446098993e+00 
33300 5.7234566565e+00 1.2238757571e-04 1.6423318246e+00 -2.8446021631e+00 1.6423318246e+00 2.8446021631e+00 
33400 5.7234584056e+00 9.8905076602e-05 1.6423280986e+00 -2.8445957094e+00 1.6423280986e+00 2.8445957094e+00 
33500 5.7234601280e+00 7.6259287940e-05 1.6423250874e+00 -2.8445904940e+00 1.6423250874e+00 2.8445904940e+00 
33600 5.7234618227e+00 5.4445224362e-05 1.6423227658e+00 -2.8445864727e+00 1.6423227658e+00 2.8445864727e+00 
33700 5.7234634889e+00 3.4983483662e-05 1.6423227658e+00 -2.8445864727e+00 1.6423227658e+00 2.8445864727e+00 
33800 5.7234651259e+00 1.5758418700e-05 1.6423227658e+00 -2.8445864727e+00 1.6423227658e+00 2.8445864727e+00 
33900 5.7234667331e+00 -3.2161150779e-06 1.6423227658e+00 -2.8445864727e+00 1.6423227658e+00 2.8445864727e+00 
34000 5.7234683101e+00 -2.1927061545e-05 1.6423227658e+00 -2.8445864727e+00 1.6423227658e+00 2.8445864727e+00 
34100 5.7234698567e+00 -4.0362146001e-05 1.6423227658e+00 -2.8445864727e+00 1.6423227658e+00 2.8445864727e+00 
34200 5.7234713726e+00 -5.8509857243e-05 1.6423227658e+00 -2.8445864727e+00 1.6423227658e+00 2.8445864727e+00 
34300 5.7234728575e+00 -7.6359429613e-05 1.6423227658e+00 -2.8445864727e+00 1.6423227658e+00 2.8445864727e+00 
34400 5.7234743112e+00 -9.1760462515e-05 1.6423250905e+00 -2.8445904993e+00 1.6423250905e+00 2.8445904993e+00 
34500 5.7234757338e+00 -1.0640464717e-04 1.6423278841e+00 -2.8445953380e+00 1.6423278841e+00 2.8445953380e+00 
34600 5.7234771252e+00 -1.2030290715e-04 1.6423311236e+00 -2.8446009489e+00 1.6423311236e+00 2.8446009489e+00 
34700 5.7234784857e+00 -1.3346659895e-04 1.6423347861e+00 -2.8446072926e+00 1.6423347861e+00 2.8446072926e+00 
34800 5.7234798153e+00 -1.4590748418e-04 1.6423388494e+00 -2.8446143305e+00 1.6423388494e+00 2.8446143305e+00 
34900 5.7234811143e+00 -1.5763770240e-04 1.6423432915e+00 -2.8446220244e+00 1.6423432915e+00 2.8446220244e+00 
35000 5.7234823830e+00 -1.6866974461e-04 1.6423480907e+00 -2.8446303368e+00 1.6423480907e+00 2.8446303368e+00 
35100 5.7234836218e+00 -1.7901642719e-04 1.6423532257e+00 -2.8446392309e+00 1.6423532257e+00 2.8446392309e+00 
35200 5.7234848310e+00 -1.8869086655e-04 1.6423586757e+00 -2.8446486706e+00 1.6423586757e+00 2.8446486706e+00 
35300 5.7234860111e+00 -1.9770645434e-04 1.6423644202e+00 -2.8446586204e+00 1.6423644202e+00 2.8446586204e+00 
35400 5.7234871627e+00 -2.0607683327e-04 1.6423704392e+00 -2.8446690455e+00 1.6423704392e+00 2.8446690455e+00 
35500 5.7234882861e+00 -2.1381587354e-04 1.6423767129e+00 -2.8446799120e+00 1.6423767129e+00 2.8446799120e+00 
35600 5.7234893819e+00 -2.2093764985e-04 1.6423832223e+00 -2.8446911865e+00 1.6423832223e+00 2.8446911865e+00 
35700 5.7234904508e+00 -2.2745641908e-04 1.6423899484e+00 -2.8447028365e+00 1.6423899484e+00 2.8447028365e+00 
35800 5.7234914934e+00 -2.3338659848e-04 1.6423968730e+00 -2.8447148302e+00 1.6423968730e+00 2.8447148302e+00 
35900 5.7234925102e+00 -2.3874274459e-04 1.6424039781e+00 -2.8447271365e+00 1.6424039781e+00 2.8447271365e+00 
36000 5.7234935019e+00 -2.4353953263e-04 1.6424112461e+00 -2.8447397252e+00 1.6424112461e+00 2.8447397252e+00 
36100 5.7234944692e+00 -2.4779173663e-04 1.6424186602e+00 -2.8447525668e+00 1.6424186602e+00 2.8447525668e+00 
36200 5.7234954127e+00 -2.5151421005e-04 1.6424262037e+00 -2.8447656326e+00 1.6424262037e+00 2.8447656326e+00 
36300 5.7234963331e+00 -2.5472186706e-04 1.6424338605e+00 -2.8447788945e+00 1.6424338605e+00 2.8447788945e+00 
36400 5.7234972312e+00 -2.5742966442e-04 1.6424416149e+00 -2.8447923256e+00 1.6424416149e+00 2.8447923256e+00 
36500 5.7234981075e+00 -2.5965258390e-04 1.6424494518e+00 -2.8448058993e+00 1.6424494518e+00 2.8448058993e+00 
36600 5.7234989629e+00 -2.6140561537e-04 1.6424573562e+00 -2.8448195902e+00 1.6424573562e+00 2.8448195902e+00 
36700 5.7234997979e+00 -2.6270374038e-04 1.6424653140e+00 -2.8448333734e+00 1.6424653140e+00 2.8448333734e+00 
36800 5.7235006134e+00 -2.6356191642e-04 1.6424733112e+00 -2.8448472251e+00 1.6424733112e+00 2.8448472251e+00 
36900 5.7235014099e+00 -2.6399506170e-04 1.6424813345e+00 -2.8448611219e+00 1.6424813345e+00 2.8448611219e+00 
37000 5.7235021882e+00 -2.6401804045e-04 1.6424893710e+00 -2.8448750415e+00 1.6424893710e+00 2.8448750415e+00 
37100 5.7235029489e+00 -2.6364564893e-04 1.6424974081e+00 -2.8448889622e+00 1.6424974081e+00 2.8448889622e+00 
37200 5.7235036927e+00 -2.6289260185e-04 1.6425054339e+00 -2.8449028632e+00 1.6425054339e+00 2.8449028632e+00 
37300 5.7235044202e+00 -2.6177351944e-04 1.6425134367e+00 -2.8449167245e+00 1.6425134367e+00 2.8449167245e+00 
37400 5.7235051321e+00 -2.6030291500e-04 1.6425214054e+00 -2.8449305267e+00 1.6425214054e+00 2.8449305267e+00 
37500 5.7235058290e+00 -2.5849518307e-04 1.6425293293e+00 -2.8449442512e+00 1.6425293293e+00 2.8449442512e+00 
37600 5.7235065115e+00 -2.5636458801e-04 1.6425371981e+00 -2.8449578804e+00 1.6425371981e+00 2.8449578804e+00 
37700 5.7235071802e+00 -2.5392525327e-04 1.6425450020e+00 -2.8449713972e+00 1.6425450020e+00 2.8449713972e+00 
37800 5.7235078357e+00 -2.5119115103e-04 1.6425527317e+00 -2.8449847854e+00 1.6425527317e+00 2.8449847854e+00 
37900 5.7235084785e+00 -2.4817609243e-04 1.6425603780e+00 -2.8449980293e+00 1.6425603780e+00 2.8449980293e+00 
38000 5.7235091092e+00 -2.4489371828e-04 1.6425679326e+00 -2.8450111141e+00 1.6425679326e+00 2.8450111141e+00 
38100 5.7235097283e+00 -2.4135749029e-04 1.6425753872e+00 -2.8450240259e+00 1.6425753872e+00 2.8450240259e+00 
38200 5.7235103363e+00 -2.3758068273e-04 1.6425827341e+00 -2.8450367511e+00 1.6425827341e+00 2.8450367511e+00 
38300 5.7235109337e+00 -2.3357637466e-04 1.6425899661e+00 -2.8450492772e+00 1.6425899661e+00 2.8450492772e+00 
38400 5.7235115210e+00 -2.2935744251e-04 1.6425970761e+00 -2.8450615921e+00 1.6425970761e+00 2.8450615921e+00 
38500 5.7235120985e+00 -2.2493655326e-04 1.6426040576e+00 -2.8450736845e+00 1.6426040576e+00 2.8450736845e+00 
38600 5.7235126667e+00 -2.2032615796e-04 1.6426109046e+00 -2.8450855438e+00 1.6426109046e+00 2.8450855438e+00 
38700 5.7235132261e+00 -2.1553848575e-04 1.6426176112e+00 -2.8450971599e+00 1.6426176112e+00 2.8450971599e+00 
38800 5.7235137770e+00 -2.1058553831e-04 1.6426241720e+00 -2.8451085236e+00 1.6426241720e+00 2.8451085236e+00 
38900 5.7235143198e+00 -2.0547908473e-04 1.6426305820e+00 -2.8451196261e+00 1.6426305820e+00 2.8451196261e+00 
39000 5.7235148548e+00 -2.0023065680e-04 1.6426368366e+00 -2.8451304594e+00 1.6426368366e+00 2.8451304594e+00 
39100 5.7235153824e+00 -1.9485154469e-04 1.6426429314e+00 -2.8451410159e+00 1.6426429314e+00 2.8451410159e+00 
39200 5.7235159029e+00 -1.8935279310e-04 1.6426488624e+00 -2.8451512888e+00 1.6426488624e+00 2.8451512888e+00 
39300 5.7235164165e+00 -1.8374519769e-04 1.6426546261e+00 -2.8451612717e+00 1.6426546261e+00 2.8451612717e+00 
39400 5.7235169236e+00 -1.7803930195e-04 1.6426602190e+00 -2.8451709589e+00 1.6426602190e+00 2.8451709589e+00 
39500 5.7235174244e+00 -1.7224539451e-04 1.6426656383e+00 -2.8451803453e+00 1.6426656383e+00 2.8451803453e+00 
39600 5.7235179191e+00 -1.6637350666e-04 1.6426708811e+00 -2.8451894262e+00 1.6426708811e+00 2.8451894262e+00 
39700 5.7235184080e+00 -1.6043341035e-04 1.6426759453e+00 -2.8451981976e+00 1.6426759453e+00 2.8451981976e+00 
39800 5.7235188912e+00 -1.5443461647e-04 1.6426808286e+00 -2.8452066557e+00 1.6426808286e+00 2.8452066557e+00 
39900 5.7235193691e+00 -1.4838637347e-04 1.6426855292e+00 -2.8452147975e+00 1.6426855292e+00 2.8452147975e+00 
40000 5.7235198417e+00 -1.4229766636e-04 1.6426900458e+00 -2.8452226205e+00 1.6426900458e+00 2.8452226205e+00 
40100 5.7235203092e+00 -1.3617721590e-04 1.6426943771e+00 -2.8452301224e+00 1.6426943771e+00 2.8452301224e+00 
40200 5.7235207718e+00 -1.3003347826e-04 1.6426985220e+00 -2.8452373016e+00 1.6426985220e+00 2.8452373016e+00 
40300 5.7235212296e+00 -1.2387464480e-04 1.6427024799e+00 -2.8452441569e+00 1.6427024799e+00 2.8452441569e+00 
40400 5.7235216827e+00 -1.1770864229e-04 1.6427062504e+00 -2.8452506876e+00 1.6427062504e+00 2.8452506876e+00 
40500 5.7235221313e+00 -1.1154313328e-04 1.6427098331e+00 -2.8452568931e+00 1.6427098331e+00 2.8452568931e+00 
40600 5.7235225755e+00 -1.0538551686e-04 1.6427132282e+00 -2.8452627736e+00 1.6427132282e+00 2.8452627736e+00 
40700 5.7235230153e+00 -9.9242929518e-05 1.6427164359e+00 -2.8452683294e+00 1.6427164359e+00 2.8452683294e+00 
40800 5.7235234509e+00 -9.3122246432e-05 1.6427194566e+00 -2.8452735614e+00 1.6427194566e+00 2.8452735614e+00 
40900 5.7235238823e+00 -8.7030082836e-05 1.6427222910e+00 -2.8452784707e+00 1.6427222910e+00 2.8452784707e+00 
41000 5.7235243096e+00 -8.0972795719e-05 1.6427249400e+00 -2.8452830589e+00 1.6427249400e+00 2.8452830589e+00 
41100 5.7235247328e+00 -7.4956485683e-05 1.6427274045e+00 -2.8452873277e+00 1.6427274045e+00 2.8452873277e+00 
41200 5.7235251520e+00 -6.8986999054e-05 1.6427296860e+00 -2.8452912793e+00 1.6427296860e+00 2.8452912793e+00 
41300 5.7235255674e+00 -6.5000881330e-05 1.6427296860e+00 -2.8452912793e+00 1.6427296860e+00 2.8452912793e+00 
41400 5.7235259788e+00 -6.0913953675e-05 1.6427296860e+00 -2.8452912793e+00 1.6427296860e+00 2.8452912793e+00 
41500 5.7235263864e+00 -5.6732439549e-05 1.6427296860e+00 -2.8452912793e+00 1.6427296860e+00 2.8452912793e+00 
41600 5.7235267900e+00 -5.2462443776e-05 1.6427296860e+00 -2.8452912793e+00 1.6427296860e+00 2.8452912793e+00 
41700 5.7235271897e+00 -4.8109950994e-05 1.6427296860e+00 -2.8452912793e+00 1.6427296860e+00 2.8452912793e+00 
41800 5.7235275856e+00 -4.3680824270e-05 1.6427296860e+00 -2.8452912793e+00 1.6427296860e+00 2.8452912793e+00 
41900 5.7235279776e+00 -3.9180803865e-05 1.6427296860e+00 -2.8452912793e+00 1.6427296860e+00 2.8452912793e+00 
42000 5.7235283659e+00 -3.4615506157e-05 1.6427296860e+00 -2.8452912793e+00 1.6427296860e+00 2.8452912793e+00 
42100 5.7235287503e+00 -2.9990422722e-05 1.6427296860e+00 -2.8452912793e+00 1.6427296860e+00 2.8452912793e+00 
42200 5.7235291309e+00 -2.5310919544e-05 1.6427296860e+00 -2.8452912793e+00 1.6427296860e+00 2.8452912793e+00 
42300 5.7235295078e+00 -2.0582236380e-05 1.6427296860e+00 -2.8452912793e+00 1.6427296860e+00 2.8452912793e+00 
42400 5.7235298808e+00 -1.5809486262e-05 1.6427296860e+00 -2.8452912793e+00 1.6427296860e+00 2.8452912793e+00 
42500 5.7235302501e+00 -1.0997655117e-05 1.6427296860e+00 -2.8452912793e+00 1.6427296860e+00 2.8452912793e+00 
42600 5.7235306156e+00 -6.1516015351e-06 1.6427296860e+00 -2.8452912793e+00 1.6427296860e+00 2.8452912793e+00 
42700 5.7235309774e+00 -1.2760566449e-06 1.6427296860e+00 -2.8452912793e+00 1.6427296860e+00 2.8452912793e+00 
42800 5.7235313354e+00 3.6243758768e-06 1.6427296860e+00 -2.8452912793e+00 1.6427296860e+00 2.8452912793e+00 
42900 5.7235316895e+00 8.5452196932e-06 1.6427296860e+00 -2.8452912793e+00 1.6427296860e+00 2.8452912793e+00 
43000 5.7235320400e+00 1.3482125572e-05 1.6427296860e+00 -2.8452912793e+00 1.6427296860e+00 2.8452912793e+00 
43100 5.7235323866e+00 1.8430871049e-05 1.6427296860e+00 -2.8452912793e+00 1.6427296860e+00 2.8452912793e+00 
43200 5.7235327295e+00 2.3387359985e-05 1.6427296860e+00 -2.8452912793e+00 1.6427296860e+00 2.8452912793e+00 
43300 5.7235330686e+00 2.8347622027e-05 1.6427296860e+00 -2.8452912793e+00 1.6427296860e+00 2.8452912793e+00 
43400 5.7235334040e+00 3.3307811967e-05 1.6427296860e+00 -2.8452912793e+00 1.6427296860e+00 2.8452912793e+00 
43500 5.7235337356e+00 3.8264209014e-05 1.6427296860e+00 -2.8452912793e+00 1.6427296860e+00 2.8452912793e+00 
43600 5.7235340634e+00 4.3213215974e-05 1.6427296860e+00 -2.8452912793e+00 1.6427296860e+00 2.8452912793e+00 
43700 5.7235343874e+00 4.8151358352e-05 1.6427296860e+00 -2.8452912793e+00 1.6427296860e+00 2.8452912793e+00 
43800 5.7235347077e+00 5.3075283367e-05 1.6427296860e+00 -2.8452912793e+00 1.6427296860e+00 2.8452912793e+00 
43900 5.7235350243e+00 5.7981758887e-05 1.6427296860e+00 -2.8452912793e+00 1.6427296860e+00 2.8452912793e+00 
44000 5.7235353371e+00 6.2867672302e-05 1.6427296860e+00 -2.8452912793e+00 1.6427296860e+00 2.8452912793e+00 
44100 5.7235356461e+00 6.7730029318e-05 1.6427296860e+00 -2.8452912793e+00 1.6427296860e+00 2.8452912793e+00 
44200 5.7235359514e+00 7.2565952687e-05 1.6427296860e+00 -2.8452912793e+00 1.6427296860e+00 2.8452912793e+00 
44300 5.7235362528e+00 7.5341237515e-05 1.6427274773e+00 -2.8452874537e+00 1.6427274773e+00 2.8452874537e+00 
44400 5.7235365505e+00 7.7999533704e-05 1.6427251841e+00 -2.8452834818e+00 1.6427251841e+00 2.8452834818e+00 
44500 5.7235368443e+00 8.0541179211e-05 1.6427228100e+00 -2.8452793698e+00 1.6427228100e+00 2.8452793698e+00 
44600 5.7235371345e+00 8.2966635437e-05 1.6427203586e+00 -2.8452751237e+00 1.6427203586e+00 2.8452751237e+00 
44700 5.7235374210e+00 8.5276482395e-05 1.6427178333e+00 -2.8452707498e+00 1.6427178333e+00 2.8452707498e+00 
44800 5.7235377038e+00 8.7471413898e-05 1.6427152377e+00 -2.8452662541e+00 1.6427152377e+00 2.8452662541e+00 
44900 5.7235379829e+00 8.9552232814e-05 1.6427125753e+00 -2.8452616427e+00 1.6427125753e+00 2.8452616427e+00 
45000 5.7235382583e+00 9.1519846354e-05 1.6427098496e+00 -2.8452569216e+00 1.6427098496e+00 2.8452569216e+00 
45100 5.7235385301e+00 9.3375261415e-05 1.6427070639e+00 -2.8452520967e+00 1.6427070639e+00 2.8452520967e+00 
45200 5.7235387984e+00 9.5119579984e-05 1.6427042218e+00 -2.8452471740e+00 1.6427042218e+00 2.8452471740e+00 
45300 5.7235390630e+00 9.6753994584e-05 1.6427013266e+00 -2.8452421594e+00 1.6427013266e+00 2.8452421594e+00 
45400 5.7235393241e+00 9.8279783799e-05 1.6426983817e+00 -2.8452370585e+00 1.6426983817e+00 2.8452370585e+00 
45500 5.7235395817e+00 9.9698307854e-05 1.6426953902e+00 -2.8452318773e+00 1.6426953902e+00 2.8452318773e+00 
45600 5.7235398357e+00 1.0101100425e-04 1.6426923556e+00 -2.8452266212e+00 1.6426923556e+00 2.8452266212e+00 
45700 5.7235400863e+00 1.0221938349e-04 1.6426892811e+00 -2.8452212959e+00 1.6426892811e+00 2.8452212959e+00 
45800 5.7235403335e+00 1.0332502486e-04 1.6426861697e+00 -2.8452159069e+00 1.6426861697e+00 2.8452159069e+00 
45900 5.7235405772e+00 1.0432957226e-04 1.6426830247e+00 -2.8452104596e+00 1.6426830247e+00 2.8452104596e+00 
46000 5.7235408176e+00 1.0523473019e-04 1.6426798492e+00 -2.8452049593e+00 1.6426798492e+00 2.8452049593e+00 
46100 5.7235410547e+00 1.0604225971e-04 1.6426766460e+00 -2.8451994113e+00 1.6426766460e+00 2.8451994113e+00 
46200 5.7235412885e+00 1.0675397452e-04 1.6426734183e+00 -2.8451938207e+00 1.6426734183e+00 2.8451938207e+00 
46300 5.7235415190e+00 1.0737173715e-04 1.6426701689e+00 -2.8451881926e+00 1.6426701689e+00 2.8451881926e+00 
46400 5.7235417463e+00 1.0789745522e-04 1.6426669007e+00 -2.8451825319e+00 1.6426669007e+00 2.8451825319e+00 
46500 5.7235419704e+00 1.0833307769e-04 1.6426636165e+00 -2.8451768435e+00 1.6426636165e+00 2.8451768435e+00 
46600 5.7235421913e+00 1.0868059138e-04 1.6426603190e+00 -2.8451711321e+00 1.6426603190e+00 2.8451711321e+00 
46700 5.7235424092e+00 1.0894201736e-04 1.6426570109e+00 -2.8451654023e+00 1.6426570109e+00 2.8451654023e+00 
46800 5.7235426240e+00 1.0911940759e-04 1.6426536949e+00 -2.8451596588e+00 1.6426536949e+00 2.8451596588e+00 
46900 5.7235428357e+00 1.0921484155e-04 1.6426503735e+00 -2.8451539059e+00 1.6426503735e+00 2.8451539059e+00 
47000 5.7235430445e+00 1.0923042303e-04 1.6426470491e+00 -2.8451481480e+00 1.6426470491e+00 2.8451481480e+00 
47100 5.7235432503e+00 1.0916827692e-04 1.6426437243e+00 -2.8451423892e+00 1.6426437243e+00 2.8451423892e+00 
47200 5.7235434533e+00 1.0903054618e-04 1.6426404013e+00 -2.8451366337e+00 1.6426404013e+00 2.8451366337e+00 
47300 5.7235436533e+00 1.0881938880e-04 1.6426370826e+00 -2.8451308854e+00 1.6426370826e+00 2.8451308854e+00 
47400 5.7235438506e+00 1.0853697494e-04 1.6426337703e+00 -2.8451251483e+00 1.6426337703e+00 2.8451251483e+00 
47500 5.7235440451e+00 1.0818548412e-04 1.6426304665e+00 -2.8451194261e+00 1.6426304665e+00 2.8451194261e+00 
47600 5.7235442368e+00 1.0776710245e-04 1.6426271735e+00 -2.8451137223e+00 1.6426271735e+00 2.8451137223e+00 
47700 5.7235444258e+00 1.0728402004e-04 1.6426238931e+00 -2.8451080406e+00 1.6426238931e+00 2.8451080406e+00 
47800 5.7235446122e+00 1.0673842842e-04 1.6426206275e+00 -2.8451023844e+00 1.6426206275e+00 2.8451023844e+00 
47900 5.7235447960e+00 1.0613251810e-04 1.6426173785e+00 -2.8450967569e+00 1.6426173785e+00 2.8450967569e+00 
48000 5.7235449772e+00 1.0546847616e-04 1.6426141479e+00 -2.8450911614e+00 1.6426141479e+00 2.8450911614e+00 
48100 5.7235451559e+00 1.0474848400e-04 1.6426109375e+00 -2.8450856008e+00 1.6426109375e+00 2.8450856008e+00 
48200 5.7235453320e+00 1.0397471510e-04 1.6426077490e+00 -2.8450800782e+00 1.6426077490e+00 2.8450800782e+00 
48300 5.7235455058e+00 1.0314933293e-04 1.6426045841e+00 -2.8450745964e+00 1.6426045841e+00 2.8450745964e+00 
48400 5.7235456771e+00 1.0227448888e-04 1.6426014443e+00 -2.8450691581e+00 1.6426014443e+00 2.8450691581e+00 
48500 5.7235458460e+00 1.0135232036e-04 1.6425983311e+00 -2.8450637659e+00 1.6425983311e+00 2.8450637659e+00 
48600 5.7235460127e+00 1.0038494887e-04 1.6425952460e+00 -2.8450584223e+00 1.6425952460e+00 2.8450584223e+00 
48700 5.7235461770e+00 9.9374478262e-05 1.6425921903e+00 -2.8450531297e+00 1.6425921903e+00 2.8450531297e+00 
48800 5.7235463391e+00 9.8322993020e-05 1.6425891654e+00 -2.8450478904e+00 1.6425891654e+00 2.8450478904e+00 
48900 5.7235464989e+00 9.7232556624e-05 1.6425861724e+00 -2.8450427065e+00 1.6425861724e+00 2.8450427065e+00 
49000 5.7235466566e+00 9.6105210017e-05 1.6425832127e+00 -2.8450375801e+00 1.6425832127e+00 2.8450375801e+00 
49100 5.7235468121e+00 9.4942970130e-05 1.6425802873e+00 -2.8450325131e+00 1.6425802873e+00 2.8450325131e+00 
49200 5.7235469656e+00 9.3747828495e-05 1.6425773972e+00 -2.8450275074e+00 1.6425773972e+00 2.8450275074e+00 
49300 5.7235471169e+00 9.2521749930e-05 1.6425745435e+00 -2.8450225646e+00 1.6425745435e+00 2.8450225646e+00 
49400 5.7235472662e+00 9.1266671288e-05 1.6425717272e+00 -2.8450176866e+00 1.6425717272e+00 2.8450176866e+00 
49500 5.7235474136e+00 8.9984500303e-05 1.6425689490e+00 -2.8450128746e+00 1.6425689490e+00 2.8450128746e+00 
49600 5.7235475589e+00 8.8677114484e-05 1.6425662099e+00 -2.8450081303e+00 1.6425662099e+00 2.8450081303e+00 
49700 5.7235477023e+00 8.7346360091e-05 1.6425635105e+00 -2.8450034549e+00 1.6425635105e+00 2.8450034549e+00 
49800 5.7235478438e+00 8.5994051187e-05 1.6425608517e+00 -2.8449988497e+00 1.6425608517e+00 2.8449988497e+00 
49900 5.7235479835e+00 8.4621968734e-05 1.6425582340e+00 -2.8449943157e+00 1.6425582340e+00 2.8449943157e+00 
50000 5.7235481212e+00 8.3231859780e-05 1.6425556581e+00 -2.8449898541e+00 1.6425556581e+00 2.8449898541e+00 
50100 5.7235482572e+00 8.1825436707e-05 1.6425531245e+00 -2.8449854657e+00 1.6425531245e+00 2.8449854657e+00 
50200 5.7235483914e+00 8.0404376525e-05 1.6425506337e+00 -2.8449811515e+00 1.6425506337e+00 2.8449811515e+00 
50300 5.7235485239e+00 7.8970320247e-05 1.6425481861e+00 -2.8449769123e+00 1.6425481861e+00 2.8449769123e+00 
50400 5.7235486546e+00 7.7524872319e-05 1.6425457822e+00 -2.8449727486e+00 1.6425457822e+00 2.8449727486e+00 
50500 5.7235487836e+00 7.6069600103e-05 1.6425434223e+00 -2.8449686611e+00 1.6425434223e+00 2.8449686611e+00 
50600 5.7235489110e+00 7.4606033423e-05 1.6425411067e+00 -2.8449646504e+00 1.6425411067e+00 2.8449646504e+00 
50700 5.7235490367e+00 7.3135664173e-05 1.6425388357e+00 -2.8449607168e+00 1.6425388357e+00 2.8449607168e+00 
50800 5.7235491608e+00 7.1659945963e-05 1.6425366094e+00 -2.8449568607e+00 1.6425366094e+00 2.8449568607e+00 
50900 5.7235492833e+00 7.0180293835e-05 1.6425344280e+00 -2.8449530825e+00 1.6425344280e+00 2.8449530825e+00 
51000 5.7235494044e+00 7.0664124716e-05 1.6425344280e+00 -2.8449530825e+00 1.6425344280e+00 2.8449530825e+00 
51100 5.7235495240e+00 7.1112403837e-05 1.6425344280e+00 -2.8449530825e+00 1.6425344280e+00 2.8449530825e+00 
51200 5.7235496418e+00 6.9534193047e-05 1.6425322633e+00 -2.8449493331e+00 1.6425322633e+00 2.8449493331e+00 
51300 5.7235497584e+00 6.9907746361e-05 1.6425322633e+00 -2.8449493331e+00 1.6425322633e+00 2.8449493331e+00 
51400 5.7235498734e+00 7.0249248233e-05 1.6425322633e+00 -2.8449493331e+00 1.6425322633e+00 2.8449493331e+00 
51500 5.7235499870e+00 7.0559878884e-05 1.6425322633e+00 -2.8449493331e+00 1.6425322633e+00 2.8449493331e+00 
51600 5.7235500992e+00 7.0840798652e-05 1.6425322633e+00 -2.8449493331e+00 1.6425322633e+00 2.8449493331e+00 
51700 5.7235502098e+00 6.9108566551e-05 1.6425301068e+00 -2.8449455980e+00 1.6425301068e+00 2.8449455980e+00 
51800 5.7235503191e+00 6.9326219825e-05 1.6425301068e+00 -2.8449455980e+00 1.6425301068e+00 2.8449455980e+00 
51900 5.7235504271e+00 6.9517409162e-05 1.6425301068e+00 -2.8449455980e+00 1.6425301068e+00 2.8449455980e+00 
52000 5.7235505337e+00 6.9683227581e-05 1.6425301068e+00 -2.8449455980e+00 1.6425301068e+00 2.8449455980e+00 
52100 5.7235506390e+00 6.9824747120e-05 1.6425301068e+00 -2.8449455980e+00 1.6425301068e+00 2.8449455980e+00 
52200 5.7235507430e+00 6.9943018785e-05 1.6425301068e+00 -2.8449455980e+00 1.6425301068e+00 2.8449455980e+00 
52300 5.7235508457e+00 7.0039072507e-05 1.6425301068e+00 -2.8449455980e+00 1.6425301068e+00 2.8449455980e+00 
52400 5.7235509470e+00 7.0113917127e-05 1.6425301068e+00 -2.8449455980e+00 1.6425301068e+00 2.8449455980e+00 
52500 5.7235510472e+00 7.0168540379e-05 1.6425301068e+00 -2.8449455980e+00 1.6425301068e+00 2.8449455980e+00 
52600 5.7235511460e+00 7.0203908907e-05 1.6425301068e+00 -2.8449455980e+00 1.6425301068e+00 2.8449455980e+00 
52700 5.7235512437e+00 7.0220968282e-05 1.6425301068e+00 -2.8449455980e+00 1.6425301068e+00 2.8449455980e+00 
52800 5.7235513401e+00 7.0220643042e-05 1.6425301068e+00 -2.8449455980e+00 1.6425301068e+00 2.8449455980e+00 
52900 5.7235514353e+00 7.0203836744e-05 1.6425301068e+00 -2.8449455980e+00 1.6425301068e+00 2.8449455980e+00 
53000 5.7235515294e+00 7.0171432023e-05 1.6425301068e+00 -2.8449455980e+00 1.6425301068e+00 2.8449455980e+00 
53100 5.7235516223e+00 7.0124290672e-05 1.6425301068e+00 -2.8449455980e+00 1.6425301068e+00 2.8449455980e+00 
53200 5.7235517140e+00 7.0063253730e-05 1.6425301068e+00 -2.8449455980e+00 1.6425301068e+00 2.8449455980e+00 
53300 5.7235518046e+00 6.9989141581e-05 1.6425301068e+00 -2.8449455980e+00 1.6425301068e+00 2.8449455980e+00 
53400 5.7235518941e+00 6.9902754063e-05 1.6425301068e+00 -2.8449455980e+00 1.6425301068e+00 2.8449455980e+00 
53500 5.7235519824e+00 6.9804870592e-05 1.6425301068e+00 -2.8449455980e+00 1.6425301068e+00 2.8449455980e+00 
53600 5.7235520697e+00 6.9696250299e-05 1.6425301068e+00 -2.8449455980e+00 1.6425301068e+00 2.8449455980e+00 
53700 5.7235521559e+00 6.9577632164e-05 1.6425301068e+00 -2.8449455980e+00 1.6425301068e+00 2.8449455980e+00 
53800 5.7235522410e+00 6.9449735167e-05 1.6425301068e+00 -2.8449455980e+00 1.6425301068e+00 2.8449455980e+00 
53900 5.7235523251e+00 6.9313258459e-05 1.6425301068e+00 -2.8449455980e+00 1.6425301068e+00 2.8449455980e+00 
54000 5.7235524081e+00 6.9168881521e-05 1.6425301068e+00 -2.8449455980e+00 1.6425301068e+00 2.8449455980e+00 
54100 5.7235524901e+00 6.9017264341e-05 1.6425301068e+00 -2.8449455980e+00 1.6425301068e+00 2.8449455980e+00 
54200 5.7235525711e+00 6.8859047608e-05 1.6425301068e+00 -2.8449455980e+00 1.6425301068e+00 2.8449455980e+00 
54300 5.7235526510e+00 6.8694852895e-05 1.6425301068e+00 -2.8449455980e+00 1.6425301068e+00 2.8449455980e+00 
54400 5.7235527300e+00 6.8525282865e-05 1.6425301068e+00 -2.8449455980e+00 1.6425301068e+00 2.8449455980e+00 
54500 5.7235528081e+00 6.8350921471e-05 1.6425301068e+00 -2.8449455980e+00 1.6425301068e+00 2.8449455980e+00 
54600 5.7235528851e+00 6.8172334178e-05 1.6425301068e+00 -2.8449455980e+00 1.6425301068e+00 2.8449455980e+00 
54700 5.7235529612e+00 6.7990068169e-05 1.6425301068e+00 -2.8449455980e+00 1.6425301068e+00 2.8449455980e+00 
54800 5.7235530364e+00 6.7804652581e-05 1.6425301068e+00 -2.8449455980e+00 1.6425301068e+00 2.8449455980e+00 
54900 5.7235531106e+00 6.7616598728e-05 1.6425301068e+00 -2.8449455980e+00 1.6425301068e+00 2.8449455980e+00 
55000 5.7235531839e+00 6.7426400338e-05 1.6425301068e+00 -2.8449455980e+00 1.6425301068e+00 2.8449455980e+00 
55100 5.7235532563e+00 6.7234533791e-05 1.6425301068e+00 -2.8449455980e+00 1.6425301068e+00 2.8449455980e+00 
55200 5.7235533278e+00 6.7041458363e-05 1.6425301068e+00 -2.8449455980e+00 1.6425301068e+00 2.8449455980e+00 
55300 5.7235533984e+00 6.6847616475e-05 1.6425301068e+00 -2.8449455980e+00 1.6425301068e+00 2.8449455980e+00 
55400 5.7235534682e+00 6.6653433943e-05 1.6425301068e+00 -2.8449455980e+00 1.6425301068e+00 2.8449455980e+00 
55500 5.7235535370e+00 6.6459320232e-05 1.6425301068e+00 -2.8449455980e+00 1.6425301068e+00 2.8449455980e+00 
55600 5.7235536050e+00 6.6265668717e-05 1.6425301068e+00 -2.8449455980e+00 1.6425301068e+00 2.8449455980e+00 
55700 5.7235536722e+00 6.6072856944e-05 1.6425301068e+00 -2.8449455980e+00 1.6425301068e+00 2.8449455980e+00 
55800 5.7235537386e+00 6.5881246889e-05 1.6425301068e+00 -2.8449455980e+00 1.6425301068e+00 2.8449455980e+00 
55900 5.7235538041e+00 6.5691185231e-05 1.6425301068e+00 -2.8449455980e+00 1.6425301068e+00 2.8449455980e+00 
56000 5.7235538688e+00 6.5503003616e-05 1.6425301068e+00 -2.8449455980e+00 1.6425301068e+00 2.8449455980e+00 
56100 5.7235539327e+00 6.5317018928e-05 1.6425301068e+00 -2.8449455980e+00 1.6425301068e+00 2.8449455980e+00 
56200 5.7235539958e+00 6.5133533561e-05 1.6425301068e+00 -2.8449455980e+00 1.6425301068e+00 2.8449455980e+00 
56300 5.7235540581e+00 6.4952835692e-05 1.6425301068e+00 -2.8449455980e+00 1.6425301068e+00 2.8449455980e+00 
56400 5.7235541197e+00 6.4775199559e-05 1.6425301068e+00 -2.8449455980e+00 1.6425301068e+00 2.8449455980e+00 
56500 5.7235541804e+00 6.4600885728e-05 1.6425301068e+00 -2.8449455980e+00 1.6425301068e+00 2.8449455980e+00 
56600 5.7235542405e+00 6.4430141381e-05 1.6425301068e+00 -2.8449455980e+00 1.6425301068e+00 2.8449455980e+00 
56700 5.7235542997e+00 6.4263200583e-05 1.6425301068e+00 -2.8449455980e+00 1.6425301068e+00 2.8449455980e+00 
56800 5.7235543583e+00 6.4100284563e-05 1.6425301068e+00 -2.8449455980e+00 1.6425301068e+00 2.8449455980e+00 
56900 5.7235544161e+00 6.3941601993e-05 1.6425301068e+00 -2.8449455980e+00 1.6425301068e+00 2.8449455980e+00 
57000 5.7235544732e+00 6.3787349259e-05 1.6425301068e+00 -2.8449455980e+00 1.6425301068e+00 2.8449455980e+00 
57100 5.7235545296e+00 6.3637710748e-05 1.6425301068e+00 -2.8449455980e+00 1.6425301068e+00 2.8449455980e+00 
57200 5.7235545852e+00 6.3492859116e-05 1.6425301068e+00 -2.8449455980e+00 1.6425301068e+00 2.8449455980e+00 
57300 5.7235546402e+00 6.3352955567e-05 1.6425301068e+00 -2.8449455980e+00 1.6425301068e+00 2.8449455980e+00 
57400 5.7235546945e+00 6.3218150130e-05 1.6425301068e+00 -2.8449455980e+00 1.6425301068e+00 2.8449455980e+00 
57500 5.7235547481e+00 6.3088581930e-05 1.6425301068e+00 -2.8449455980e+00 1.6425301068e+00 2.8449455980e+00 
57600 5.7235548011e+00 6.2964379464e-05 1.6425301068e+00 -2.8449455980e+00 1.6425301068e+00 2.8449455980e+00 
57700 5.7235548534e+00 6.2845660872e-05 1.6425301068e+00 -2.8449455980e+00 1.6425301068e+00 2.8449455980e+00 
57800 5.7235549050e+00 6.2732534209e-05 1.6425301068e+00 -2.8449455980e+00 1.6425301068e+00 2.8449455980e+00 
57900 5.7235549560e+00 6.2625097713e-05 1.6425301068e+00 -2.8449455980e+00 1.6425301068e+00 2.8449455980e+00 
58000 5.7235550064e+00 6.2523440070e-05 1.6425301068e+00 -2.8449455980e+00 1.6425301068e+00 2.8449455980e+00 
58100 5.7235550561e+00 6.2427640686e-05 1.6425301068e+00 -2.8449455980e+00 1.6425301068e+00 2.8449455980e+00 
58200 5.7235551052e+00 6.2337769947e-05 1.6425301068e+00 -2.8449455980e+00 1.6425301068e+00 2.8449455980e+00 
58300 5.7235551537e+00 6.2253889479e-05 1.6425301068e+00 -2.8449455980e+00 1.6425301068e+00 2.8449455980e+00 
58400 5.7235552016e+00 6.2176052412e-05 1.6425301068e+00 -2.8449455980e+00 1.6425301068e+00 2.8449455980e+00 
58500 5.7235552489e+00 6.2104303636e-05 1.6425301068e+00 -2.8449455980e+00 1.6425301068e+00 2.8449455980e+00 
58600 5.7235552956e+00 6.2038680054e-05 1.6425301068e+00 -2.8449455980e+00 1.6425301068e+00 2.8449455980e+00 
58700 5.7235553418e+00 6.1979210836e-05 1.6425301068e+00 -2.8449455980e+00 1.6425301068e+00 2.8449455980e+00 
58800 5.7235553873e+00 6.1925917669e-05 1.6425301068e+00 -2.8449455980e+00 1.6425301068e+00 2.8449455980e+00 
58900 5.7235554323e+00 6.1878815006e-05 1.6425301068e+00 -2.8449455980e+00 1.6425301068e+00 2.8449455980e+00 
59000 5.7235554767e+00 6.1837910307e-05 1.6425301068e+00 -2.8449455980e+00 1.6425301068e+00 2.8449455980e+00 
59100 5.7235555206e+00 6.1803204286e-05 1.6425301068e+00 -2.8449455980e+00 1.6425301068e+00 2.8449455980e+00 
59200 5.7235555639e+00 6.1774691142e-05 1.6425301068e+00 -2.8449455980e+00 1.6425301068e+00 2.8449455980e+00 
59300 5.7235556067e+00 6.1752358806e-05 1.6425301068e+00 -2.8449455980e+00 1.6425301068e+00 2.8449455980e+00 
59400 5.7235556490e+00 6.1736189160e-05 1.6425301068e+00 -2.8449455980e+00 1.6425301068e+00 2.8449455980e+00 
59500 5.7235556907e+00 6.1726158283e-05 1.6425301068e+00 -2.8449455980e+00 1.6425301068e+00 2.8449455980e+00 
59600 5.7235557319e+00 6.1722236660e-05 1.6425301068e+00 -2.8449455980e+00 1.6425301068e+00 2.8449455980e+00 
59700 5.7235557726e+00 6.1724389418e-05 1.6425301068e+00 -2.8449455980e+00 1.6425301068e+00 2.8449455980e+00 
59800 5.7235558128e+00 6.1732576542e-05 1.6425301068e+00 -2.8449455980e+00 1.6425301068e+00 2.8449455980e+00 
59900 5.7235558525e+00 6.1746753091e-05 1.6425301068e+00 -2.8449455980e+00 1.6425301068e+00 2.8449455980e+00 
60000 5.7235558917e+00 6.1766869410e-05 1.6425301068e+00 -2.8449455980e+00 1.6425301068e+00 2.8449455980e+00 
60100 5.7235559304e+00 6.1792871341e-05 1.6425301068e+00 -2.8449455980e+00 1.6425301068e+00 2.8449455980e+00 
60200 5.7235559687e+00 6.1824700431e-05 1.6425301068e+00 -2.8449455980e+00 1.6425301068e+00 2.8449455980e+00 
60300 5.7235560064e+00 6.1862294132e-05 1.6425301068e+00 -2.8449455980e+00 1.6425301068e+00 2.8449455980e+00 
60400 5.7235560437e+00 6.1905586001e-05 1.6425301068e+00 -2.8449455980e+00 1.6425301068e+00 2.8449455980e+00 
60500 5.7235560806e+00 6.1954505895e-05 1.6425301068e+00 -2.8449455980e+00 1.6425301068e+00 2.8449455980e+00 
60600 5.7235561170e+00 6.2008980162e-05 1.6425301068e+00 -2.8449455980e+00 1.6425301068e+00 2.8449455980e+00 
60700 5.7235561529e+00 6.2068931831e-05 1.6425301068e+00 -2.8449455980e+00 1.6425301068e+00 2.8449455980e+00 
60800 5.7235561884e+00 6.2134280800e-05 1.6425301068e+00 -2.8449455980e+00 1.6425301068e+00 2.8449455980e+00 
60900 5.7235562234e+00 6.2204944003e-05 1.6425301068e+00 -2.8449455980e+00 1.6425301068e+00 2.8449455980e+00 
61000 5.7235562580e+00 6.2280835606e-05 1.6425301068e+00 -2.8449455980e+00 1.6425301068e+00 2.8449455980e+00 
61100 5.7235562922e+00 6.2361867165e-05 1.6425301068e+00 -2.8449455980e+00 1.6425301068e+00 2.8449455980e+00 
61200 5.7235563260e+00 6.2447947803e-05 1.6425301068e+00 -2.8449455980e+00 1.6425301068e+00 2.8449455980e+00 
61300 5.7235563593e+00 6.2538984377e-05 1.6425301068e+00 -2.8449455980e+00 1.6425301068e+00 2.8449455980e+00 
61400 5.7235563923e+00 6.2634881633e-05 1.6425301068e+00 -2.8449455980e+00 1.6425301068e+00 2.8449455980e+00 
61500 5.7235564248e+00 6.2735542370e-05 1.6425301068e+00 -2.8449455980e+00 1.6425301068e+00 2.8449455980e+00 
61600 5.7235564569e+00 6.2840867594e-05 1.6425301068e+00 -2.8449455980e+00 1.6425301068e+00 2.8449455980e+00 
61700 5.7235564887e+00 6.2950756670e-05 1.6425301068e+00 -2.8449455980e+00 1.6425301068e+00 2.8449455980e+00 
61800 5.7235565200e+00 6.3065107464e-05 1.6425301068e+00 -2.8449455980e+00 1.6425301068e+00 2.8449455980e+00 
61900 5.7235565510e+00 6.3183816491e-05 1.6425301068e+00 -2.8449455980e+00 1.6425301068e+00 2.8449455980e+00 
62000 5.7235565815e+00 6.3306779054e-05 1.6425301068e+00 -2.8449455980e+00 1.6425301068e+00 2.8449455980e+00 
62100 5.7235566118e+00 6.3433889378e-05 1.6425301068e+00 -2.8449455980e+00 1.6425301068e+00 2.8449455980e+00 
62200 5.7235566416e+00 6.3565040746e-05 1.6425301068e+00 -2.8449455980e+00 1.6425301068e+00 2.8449455980e+00 
62300 5.7235566711e+00 6.3700125623e-05 1.6425301068e+00 -2.8449455980e+00 1.6425301068e+00 2.8449455980e+00 
62400 5.7235567002e+00 6.3839035783e-05 1.6425301068e+00 -2.8449455980e+00 1.6425301068e+00 2.8449455980e+00 
62500 5.7235567289e+00 6.3981662434e-05 1.6425301068e+00 -2.8449455980e+00 1.6425301068e+00 2.8449455980e+00 
62600 5.7235567573e+00 6.4127896327e-05 1.6425301068e+00 -2.8449455980e+00 1.6425301068e+00 2.8449455980e+00 
62700 5.7235567854e+00 6.4277627880e-05 1.6425301068e+00 -2.8449455980e+00 1.6425301068e+00 2.8449455980e+00 
62800 5.7235568131e+00 6.4430747281e-05 1.6425301068e+00 -2.8449455980e+00 1.6425301068e+00 2.8449455980e+00 
62900 5.7235568404e+00 6.4587144601e-05 1.6425301068e+00 -2.8449455980e+00 1.6425301068e+00 2.8449455980e+00 
63000 5.7235568675e+00 6.4746709894e-05 1.6425301068e+00 -2.8449455980e+00 1.6425301068e+00 2.8449455980e+00 
63100 5.7235568942e+00 6.4909333294e-05 1.6425301068e+00 -2.8449455980e+00 1.6425301068e+00 2.8449455980e+00 
63200 5.7235569205e+00 6.5074905121e-05 1.6425301068e+00 -2.8449455980e+00 1.6425301068e+00 2.8449455980e+00 
63300 5.7235569466e+00 6.5243315965e-05 1.6425301068e+00 -2.8449455980e+00 1.6425301068e+00 2.8449455980e+00 
63400 5.7235569723e+00 6.5414456782e-05 1.6425301068e+00 -2.8449455980e+00 1.6425301068e+00 2.8449455980e+00 
63500 5.7235569978e+00 6.5588218976e-05 1.6425301068e+00 -2.8449455980e+00 1.6425301068e+00 2.8449455980e+00 
63600 5.7235570229e+00 6.5764494486e-05 1.6425301068e+00 -2.8449455980e+00 1.6425301068e+00 2.8449455980e+00 
63700 5.7235570477e+00 6.5943175866e-05 1.6425301068e+00 -2.8449455980e+00 1.6425301068e+00 2.8449455980e+00 
63800 5.7235570722e+00 6.6124156358e-05 1.6425301068e+00 -2.8449455980e+00 1.6425301068e+00 2.8449455980e+00 
63900 5.7235570964e+00 6.6307329972e-05 1.6425301068e+00 -2.8449455980e+00 1.6425301068e+00 2.8449455980e+00 
64000 5.7235571203e+00 6.6492591549e-05 1.6425301068e+00 -2.8449455980e+00 1.6425301068e+00 2.8449455980e+00 
64100 5.7235571439e+00 6.6679836835e-05 1.6425301068e+00 -2.8449455980e+00 1.6425301068e+00 2.8449455980e+00 
64200 5.7235571672e+00 6.6868962544e-05 1.6425301068e+00 -2.8449455980e+00 1.6425301068e+00 2.8449455980e+00 
64300 5.7235571903e+00 6.7059866415e-05 1.6425301068e+00 -2.8449455980e+00 1.6425301068e+00 2.8449455980e+00 
64400 5.7235572131e+00 6.7252447278e-05 1.6425301068e+00 -2.8449455980e+00 1.6425301068e+00 2.8449455980e+00 
64500 5.7235572356e+00 6.7446605105e-05 1.6425301068e+00 -2.8449455980e+00 1.6425301068e+00 2.8449455980e+00 
64600 5.7235572578e+00 6.7642241065e-05 1.6425301068e+00 -2.8449455980e+00 1.6425301068e+00 2.8449455980e+00 
64700 5.7235572797e+00 6.7839257568e-05 1.6425301068e+00 -2.8449455980e+00 1.6425301068e+00 2.8449455980e+00 
64800 5.7235573014e+00 6.8037558326e-05 1.6425301068e+00 -2.8449455980e+00 1.6425301068e+00 2.8449455980e+00 
64900 5.7235573228e+00 6.8237048384e-05 1.6425301068e+00 -2.8449455980e+00 1.6425301068e+00 2.8449455980e+00 
65000 5.7235573440e+00 6.8437634164e-05 1.6425301068e+00 -2.8449455980e+00 1.6425301068e+00 2.8449455980e+00 
65100 5.7235573649e+00 6.8639223517e-05 1.6425301068e+00 -2.8449455980e+00 1.6425301068e+00 2.8449455980e+00 
65200 5.7235573855e+00 6.8841725742e-05 1.6425301068e+00 -2.8449455980e+00 1.6425301068e+00 2.8449455980e+00 
65300 5.7235574059e+00 6.9045051634e-05 1.6425301068e+00 -2.8449455980e+00 1.6425301068e+00 2.8449455980e+00 
65400 5.7235574261e+00 6.9249113512e-05 1.6425301068e+00 -2.8449455980e+00 1.6425301068e+00 2.8449455980e+00 
65500 5.7235574460e+00 6.9453825246e-05 1.6425301068e+00 -2.8449455980e+00 1.6425301068e+00 2.8449455980e+00 
65600 5.7235574657e+00 6.9659102285e-05 1.6425301068e+00 -2.8449455980e+00 1.6425301068e+00 2.8449455980e+00 
65700 5.7235574851e+00 6.9864861687e-05 1.6425301068e+00 -2.8449455980e+00 1.6425301068e+00 2.8449455980e+00 
65800 5.7235575043e+00 7.0071022136e-05 1.6425301068e+00 -2.8449455980e+00 1.6425301068e+00 2.8449455980e+00 
65900 5.7235575233e+00 7.0277503965e-05 1.6425301068e+00 -2.8449455980e+00 1.6425301068e+00 2.8449455980e+00 
66000 5.7235575420e+00 7.0484229176e-05 1.6425301068e+00 -2.8449455980e+00 1.6425301068e+00 2.8449455980e+00 
66100 5.7235575605e+00 7.0691121458e-05 1.6425301068e+00 -2.8449455980e+00 1.6425301068e+00 2.8449455980e+00 
66200 5.7235575788e+00 7.0898106190e-05 1.6425301068e+00 -2.8449455980e+00 1.6425301068e+00 2.8449455980e+00 
66300 5.7235575967e+00 6.9118661343e-05 1.6425279486e+00 -2.8449418599e+00 1.6425279486e+00 2.8449418599e+00 
66400 5.7235576145e+00 6.9318368100e-05 1.6425279486e+00 -2.8449418599e+00 1.6425279486e+00 2.8449418599e+00 
66500 5.7235576321e+00 6.9517839647e-05 1.6425279486e+00 -2.8449418599e+00 1.6425279486e+00 2.8449418599e+00 
66600 5.7235576495e+00 6.9717021853e-05 1.6425279486e+00 -2.8449418599e+00 1.6425279486e+00 2.8449418599e+00 
66700 5.7235576667e+00 6.9915861821e-05 1.6425279486e+00 -2.8449418599e+00 1.6425279486e+00 2.8449418599e+00 
66800 5.7235576837e+00 7.0114307890e-05 1.6425279486e+00 -2.8449418599e+00 1.6425279486e+00 2.8449418599e+00 
66900 5.7235577005e+00 7.0312309658e-05 1.6425279486e+00 -2.8449418599e+00 1.6425279486e+00 2.8449418599e+00 
67000 5.7235577171e+00 7.0509817981e-05 1.6425279486e+00 -2.8449418599e+00 1.6425279486e+00 2.8449418599e+00 
67100 5.7235577335e+00 7.0706784988e-05 1.6425279486e+00 -2.8449418599e+00 1.6425279486e+00 2.8449418599e+00 
67200 5.7235577497e+00 7.0903164083e-05 1.6425279486e+00 -2.8449418599e+00 1.6425279486e+00 2.8449418599e+00 
67300 5.7235577655e+00 6.9112298474e-05 1.6425257903e+00 -2.8449381215e+00 1.6425257903e+00 2.8449381215e+00 
67400 5.7235577813e+00 6.9300120698e-05 1.6425257903e+00 -2.8449381215e+00 1.6425257903e+00 2.8449381215e+00 
67500 5.7235577969e+00 6.9487108793e-05 1.6425257903e+00 -2.8449381215e+00 1.6425257903e+00 2.8449381215e+00 
67600 5.7235578123e+00 6.9673234902e-05 1.6425257903e+00 -2.8449381215e+00 1.6425257903e+00 2.8449381215e+00 
67700 5.7235578276e+00 6.9858471944e-05 1.6425257903e+00 -2.8449381215e+00 1.6425257903e+00 2.8449381215e+00 
67800 5.7235578426e+00 7.0042793624e-05 1.6425257903e+00 -2.8449381215e+00 1.6425257903e+00 2.8449381215e+00 
67900 5.7235578575e+00 7.0226174441e-05 1.6425257903e+00 -2.8449381215e+00 1.6425257903e+00 2.8449381215e+00 
68000 5.7235578722e+00 7.0408589693e-05 1.6425257903e+00 -2.8449381215e+00 1.6425257903e+00 2.8449381215e+00 
68100 5.7235578867e+00 7.0590015485e-05 1.6425257903e+00 -2.8449381215e+00 1.6425257903e+00 2.8449381215e+00 
68200 5.7235579011e+00 7.0770428729e-05 1.6425257903e+00 -2.8449381215e+00 1.6425257903e+00 2.8449381215e+00 
68300 5.7235579150e+00 6.8966895056e-05 1.6425236360e+00 -2.8449343901e+00 1.6425236360e+00 2.8449343901e+00 
68400 5.7235579290e+00 6.9137984383e-05 1.6425236360e+00 -2.8449343901e+00 1.6425236360e+00 2.8449343901e+00 
68500 5.7235579429e+00 6.9307882847e-05 1.6425236360e+00 -2.8449343901e+00 1.6425236360e+00 2.8449343901e+00 
68600 5.7235579565e+00 6.9476584187e-05 1.6425236360e+00 -2.8449343901e+00 1.6425236360e+00 2.8449343901e+00 
68700 5.7235579700e+00 6.9644082445e-05 1.6425236360e+00 -2.8449343901e+00 1.6425236360e+00 2.8449343901e+00 
68800 5.7235579834e+00 6.9810371977e-05 1.6425236360e+00 -2.8449343901e+00 1.6425236360e+00 2.8449343901e+00 
68900 5.7235579966e+00 6.9975447464e-05 1.6425236360e+00 -2.8449343901e+00 1.6425236360e+00 2.8449343901e+00 
69000 5.7235580096e+00 7.0139303911e-05 1.6425236360e+00 -2.8449343901e+00 1.6425236360e+00 2.8449343901e+00 
69100 5.7235580224e+00 7.0301936661e-05 1.6425236360e+00 -2.8449343901e+00 1.6425236360e+00 2.8449343901e+00 
69200 5.7235580351e+00 7.0463341398e-05 1.6425236360e+00 -2.8449343901e+00 1.6425236360e+00 2.8449343901e+00 
69300 5.7235580477e+00 7.0623514148e-05 1.6425236360e+00 -2.8449343901e+00 1.6425236360e+00 2.8449343901e+00 
69400 5.7235580601e+00 7.0782451295e-05 1.6425236360e+00 -2.8449343901e+00 1.6425236360e+00 2.8449343901e+00 
69500 5.7235580722e+00 6.8956880004e-05 1.6425214813e+00 -2.8449306581e+00 1.6425214813e+00 2.8449306581e+00 
69600 5.7235580843e+00 6.9106102498e-05 1.6425214813e+00 -2.8449306581e+00 1.6425214813e+00 2.8449306581e+00 
69700 5.7235580962e+00 6.9253966706e-05 1.6425214813e+00 -2.8449306581e+00 1.6425214813e+00 2.8449306581e+00 
69800 5.7235581081e+00 6.9400484014e-05 1.6425214813e+00 -2.8449306581e+00 1.6425214813e+00 2.8449306581e+00 
69900 5.7235581197e+00 6.9545665655e-05 1.6425214813e+00 -2.8449306581e+00 1.6425214813e+00 2.8449306581e+00 
70000 5.7235581313e+00 6.9689522736e-05 1.6425214813e+00 -2.8449306581e+00 1.6425214813e+00 2.8449306581e+00 
70100 5.7235581427e+00 6.9832066229e-05 1.6425214813e+00 -2.8449306581e+00 1.6425214813e+00 2.8449306581e+00 
70200 5.7235581539e+00 6.9973306992e-05 1.6425214813e+00 -2.8449306581e+00 1.6425214813e+00 2.8449306581e+00 
70300 5.7235581651e+00 7.0113255774e-05 1.6425214813e+00 -2.8449306581e+00 1.6425214813e+00 2.8449306581e+00 
70400 5.7235581761e+00 7.0251923228e-05 1.6425214813e+00 -2.8449306581e+00 1.6425214813e+00 2.8449306581e+00 
70500 5.7235581869e+00 7.0389319914e-05 1.6425214813e+00 -2.8449306581e+00 1.6425214813e+00 2.8449306581e+00 
70600 5.7235581977e+00 7.0525456312e-05 1.6425214813e+00 -2.8449306581e+00 1.6425214813e+00 2.8449306581e+00 
70700 5.7235582083e+00 7.0660342830e-05 1.6425214813e+00 -2.8449306581e+00 1.6425214813e+00 2.8449306581e+00 
70800 5.7235582187e+00 7.0793989800e-05 1.6425214813e+00 -2.8449306581e+00 1.6425214813e+00 2.8449306581e+00 
70900 5.7235582289e+00 6.8942793705e-05 1.6425193262e+00 -2.8449269255e+00 1.6425193262e+00 2.8449269255e+00 
71000 5.7235582391e+00 6.9066757223e-05 1.6425193262e+00 -2.8449269255e+00 1.6425193262e+00 2.8449269255e+00 
71100 5.7235582492e+00 6.9189397885e-05 1.6425193262e+00 -2.8449269255e+00 1.6425193262e+00 2.8449269255e+00 
71200 5.7235582592e+00 6.9310739396e-05 1.6425193262e+00 -2.8449269255e+00 1.6425193262e+00 2.8449269255e+00 
71300 5.7235582691e+00 6.9430804911e-05 1.6425193262e+00 -2.8449269255e+00 1.6425193262e+00 2.8449269255e+00 
71400 5.7235582788e+00 6.9549617054e-05 1.6425193262e+00 -2.8449269255e+00 1.6425193262e+00 2.8449269255e+00 
71500 5.7235582885e+00 6.9667197927e-05 1.6425193262e+00 -2.8449269255e+00 1.6425193262e+00 2.8449269255e+00 
71600 5.7235582980e+00 6.9783569126e-05 1.6425193262e+00 -2.8449269255e+00 1.6425193262e+00 2.8449269255e+00 
71700 5.7235583074e+00 6.9898751751e-05 1.6425193262e+00 -2.8449269255e+00 1.6425193262e+00 2.8449269255e+00 
71800 5.7235583167e+00 7.0012766427e-05 1.6425193262e+00 -2.8449269255e+00 1.6425193262e+00 2.8449269255e+00 
71900 5.7235583259e+00 7.0125633307e-05 1.6425193262e+00 -2.8449269255e+00 1.6425193262e+00 2.8449269255e+00 
72000 5.7235583349e+00 7.0237372094e-05 1.6425193262e+00 -2.8449269255e+00 1.6425193262e+00 2.8449269255e+00 
72100 5.7235583439e+00 7.0348002048e-05 1.6425193262e+00 -2.8449269255e+00 1.6425193262e+00 2.8449269255e+00 
72200 5.7235583527e+00 7.0457541996e-05 1.6425193262e+00 -2.8449269255e+00 1.6425193262e+00 2.8449269255e+00 
72300 5.7235583615e+00 7.0566010354e-05 1.6425193262e+00 -2.8449269255e+00 1.6425193262e+00 2.8449269255e+00 
72400 5.7235583701e+00 7.0673425128e-05 1.6425193262e+00 -2.8449269255e+00 1.6425193262e+00 2.8449269255e+00 
72500 5.7235583787e+00 7.0779803929e-05 1.6425193262e+00 -2.8449269255e+00 1.6425193262e+00 2.8449269255e+00 
72600 5.7235583869e+00 6.8901926320e-05 1.6425171716e+00 -2.8449231936e+00 1.6425171716e+00 2.8449231936e+00 
72700 5.7235583953e+00 6.8999050856e-05 1.6425171716e+00 -2.8449231936e+00 1.6425171716e+00 2.8449231936e+00 
72800 5.7235584035e+00 6.9095076024e-05 1.6425171716e+00 -2.8449231936e+00 1.6425171716e+00 2.8449231936e+00 
72900 5.7235584117e+00 6.9190031534e-05 1.6425171716e+00 -2.8449231936e+00 1.6425171716e+00 2.8449231936e+00 
73000 5.7235584197e+00 6.9283946242e-05 1.6425171716e+00 -2.8449231936e+00 1.6425171716e+00 2.8449231936e+00 
73100 5.7235584276e+00 6.9376848170e-05 1.6425171716e+00 -2.8449231936e+00 1.6425171716e+00 2.8449231936e+00 
73200 5.7235584355e+00 6.9468764523e-05 1.6425171716e+00 -2.8449231936e+00 1.6425171716e+00 2.8449231936e+00 
73300 5.7235584433e+00 6.9559721705e-05 1.6425171716e+00 -2.8449231936e+00 1.6425171716e+00 2.8449231936e+00 
73400 5.7235584509e+00 6.9649745340e-05 1.6425171716e+00 -2.8449231936e+00 1.6425171716e+00 2.8449231936e+00 
73500 5.7235584585e+00 6.9738860293e-05 1.6425171716e+00 -2.8449231936e+00 1.6425171716e+00 2.8449231936e+00 
73600 5.7235584660e+00 6.9827090681e-05 1.6425171716e+00 -2.8449231936e+00 1.6425171716e+00 2.8449231936e+00 
73700 5.7235584734e+00 6.9914459894e-05 1.6425171716e+00 -2.8449231936e+00 1.6425171716e+00 2.8449231936e+00 
73800 5.7235584807e+00 7.0000990615e-05 1.6425171716e+00 -2.8449231936e+00 1.6425171716e+00 2.8449231936e+00 
73900 5.7235584879e+00 7.0086704832e-05 1.6425171716e+00 -2.8449231936e+00 1.6425171716e+00 2.8449231936e+00 
74000 5.7235584951e+00 7.0171623858e-05 1.6425171716e+00 -2.8449231936e+00 1.6425171716e+00 2.8449231936e+00 
74100 5.7235585021e+00 7.0255768352e-05 1.6425171716e+00 -2.8449231936e+00 1.6425171716e+00 2.8449231936e+00 
74200 5.7235585091e+00 7.0339158326e-05 1.6425171716e+00 -2.8449231936e+00 1.6425171716e+00 2.8449231936e+00 
74300 5.7235585160e+00 7.0421813167e-05 1.6425171716e+00 -2.8449231936e+00 1.6425171716e+00 2.8449231936e+00 
74400 5.7235585228e+00 7.0503751659e-05 1.6425171716e+00 -2.8449231936e+00 1.6425171716e+00 2.8449231936e+00 
74500 5.7235585295e+00 7.0584991986e-05 1.6425171716e+00 -2.8449231936e+00 1.6425171716e+00 2.8449231936e+00 
74600 5.7235585361e+00 7.0665551756e-05 1.6425171716e+00 -2.8449231936e+00 1.6425171716e+00 2.8449231936e+00 
74700 5.7235585427e+00 7.0745448014e-05 1.6425171716e+00 -2.8449231936e+00 1.6425171716e+00 2.8449231936e+00 
74800 5.7235585490e+00 6.8842400160e-05 1.6425150181e+00 -2.8449194635e+00 1.6425150181e+00 2.8449194635e+00 
74900 5.7235585554e+00 6.8913788287e-05 1.6425150181e+00 -2.8449194635e+00 1.6425150181e+00 2.8449194635e+00 
75000 5.7235585618e+00 6.8984446874e-05 1.6425150181e+00 -2.8449194635e+00 1.6425150181e+00 2.8449194635e+00 
75100 5.7235585680e+00 6.9054404419e-05 1.6425150181e+00 -2.8449194635e+00 1.6425150181e+00 2.8449194635e+00 
75200 5.7235585742e+00 6.9123688426e-05 1.6425150181e+00 -2.8449194635e+00 1.6425150181e+00 2.8449194635e+00 
75300 5.7235585803e+00 6.9192325410e-05 1.6425150181e+00 -2.8449194635e+00 1.6425150181e+00 2.8449194635e+00 
75400 5.7235585864e+00 6.9260340931e-05 1.6425150181e+00 -2.8449194635e+00 1.6425150181e+00 2.8449194635e+00 
75500 5.7235585923e+00 6.9327759613e-05 1.6425150181e+00 -2.8449194635e+00 1.6425150181e+00 2.8449194635e+00 
75600 5.7235585982e+00 6.9394605164e-05 1.6425150181e+00 -2.8449194635e+00 1.6425150181e+00 2.8449194635e+00 
75700 5.7235586041e+00 6.9460900399e-05 1.6425150181e+00 -2.8449194635e+00 1.6425150181e+00 2.8449194635e+00 
75800 5.7235586098e+00 6.9526667267e-05 1.6425150181e+00 -2.8449194635e+00 1.6425150181e+00 2.8449194635e+00 
75900 5.7235586155e+00 6.9591926863e-05 1.6425150181e+00 -2.8449194635e+00 1.6425150181e+00 2.8449194635e+00 
76000 5.7235586211e+00 6.9656699456e-05 1.6425150181e+00 -2.8449194635e+00 1.6425150181e+00 2.8449194635e+00 
76100 5.7235586267e+00 6.9721004507e-05 1.6425150181e+00 -2.8449194635e+00 1.6425150181e+00 2.8449194635e+00 
76200 5.7235586322e+00 6.9784860693e-05 1.6425150181e+00 -2.8449194635e+00 1.6425150181e+00 2.8449194635e+00 
76300 5.7235586376e+00 6.9848285924e-05 1.6425150181e+00 -2.8449194635e+00 1.6425150181e+00 2.8449194635e+00 
76400 5.7235586430e+00 6.9911297367e-05 1.6425150181e+00 -2.8449194635e+00 1.6425150181e+00 2.8449194635e+00 
76500 5.7235586483e+00 6.9973911462e-05 1.6425150181e+00 -2.8449194635e+00 1.6425150181e+00 2.8449194635e+00 
76600 5.7235586535e+00 7.0036143945e-05 1.6425150181e+00 -2.8449194635e+00 1.6425150181e+00 2.8449194635e+00 
76700 5.7235586587e+00 7.0098009867e-05 1.6425150181e+00 -2.8449194635e+00 1.6425150181e+00 2.8449194635e+00 
76800 5.7235586638e+00 7.0159523614e-05 1.6425150181e+00 -2.8449194635e+00 1.6425150181e+00 2.8449194635e+00 
76900 5.7235586688e+00 7.0220698923e-05 1.6425150181e+00 -2.8449194635e+00 1.6425150181e+00 2.8449194635e+00 
77000 5.7235586738e+00 7.0281548904e-05 1.6425150181e+00 -2.8449194635e+00 1.6425150181e+00 2.8449194635e+00 
77100 5.7235586788e+00 7.0342086057e-05 1.6425150181e+00 -2.8449194635e+00 1.6425150181e+00 2.8449194635e+00 
77200 5.7235586837e+00 7.0402322290e-05 1.6425150181e+00 -2.8449194635e+00 1.6425150181e+00 2.8449194635e+00 
77300 5.7235586885e+00 7.0462268938e-05 1.6425150181e+00 -2.8449194635e+00 1.6425150181e+00 2.8449194635e+00 
77400 5.7235586932e+00 7.0521936779e-05 1.6425150181e+00 -2.8449194635e+00 1.6425150181e+00 2.8449194635e+00 
77500 5.7235586979e+00 7.0581336053e-05 1.6425150181e+00 -2.8449194635e+00 1.6425150181e+00 2.8449194635e+00 
77600 5.7235587026e+00 7.0640476475e-05 1.6425150181e+00 -2.8449194635e+00 1.6425150181e+00 2.8449194635e+00 
77700 5.7235587072e+00 7.0699367259e-05 1.6425150181e+00 -2.8449194635e+00 1.6425150181e+00 2.8449194635e+00 
77800 5.7235587117e+00 7.0758017126e-05 1.6425150181e+00 -2.8449194635e+00 1.6425150181e+00 2.8449194635e+00 
77900 5.7235587160e+00 6.8833761733e-05 1.6425128641e+00 -2.8449157327e+00 1.6425128641e+00 2.8449157327e+00 
78000 5.7235587205e+00 6.8884722750e-05 1.6425128641e+00 -2.8449157327e+00 1.6425128641e+00 2.8449157327e+00 
78100 5.7235587249e+00 6.8935352260e-05 1.6425128641e+00 -2.8449157327e+00 1.6425128641e+00 2.8449157327e+00 
78200 5.7235587292e+00 6.8985670746e-05 1.6425128641e+00 -2.8449157327e+00 1.6425128641e+00 2.8449157327e+00 
78300 5.7235587335e+00 6.9035697768e-05 1.6425128641e+00 -2.8449157327e+00 1.6425128641e+00 2.8449157327e+00 
78400 5.7235587377e+00 6.9085451978e-05 1.6425128641e+00 -2.8449157327e+00 1.6425128641e+00 2.8449157327e+00 
78500 5.7235587419e+00 6.9134951154e-05 1.6425128641e+00 -2.8449157327e+00 1.6425128641e+00 2.8449157327e+00 
78600 5.7235587460e+00 6.9184212211e-05 1.6425128641e+00 -2.8449157327e+00 1.6425128641e+00 2.8449157327e+00 
78700 5.7235587501e+00 6.9233251235e-05 1.6425128641e+00 -2.8449157327e+00 1.6425128641e+00 2.8449157327e+00 
78800 5.7235587541e+00 6.9282083496e-05 1.6425128641e+00 -2.8449157327e+00 1.6425128641e+00 2.8449157327e+00 
78900 5.7235587581e+00 6.9330723480e-05 1.6425128641e+00 -2.8449157327e+00 1.6425128641e+00 2.8449157327e+00 
79000 5.7235587621e+00 6.9379184898e-05 1.6425128641e+00 -2.8449157327e+00 1.6425128641e+00 2.8449157327e+00 
79100 5.7235587660e+00 6.9427480724e-05 1.6425128641e+00 -2.8449157327e+00 1.6425128641e+00 2.8449157327e+00 
79200 5.7235587698e+00 6.9475623200e-05 1.6425128641e+00 -2.8449157327e+00 1.6425128641e+00 2.8449157327e+00 
79300 5.7235587736e+00 6.9523623873e-05 1.6425128641e+00 -2.8449157327e+00 1.6425128641e+00 2.8449157327e+00 
79400 5.7235587774e+00 6.9571493602e-05 1.6425128641e+00 -2.8449157327e+00 1.6425128641e+00 2.8449157327e+00 
79500 5.7235587811e+00 6.9619242591e-05 1.6425128641e+00 -2.8449157327e+00 1.6425128641e+00 2.8449157327e+00 
79600 5.7235587847e+00 6.9666880400e-05 1.6425128641e+00 -2.8449157327e+00 1.6425128641e+00 2.8449157327e+00 
79700 5.7235587884e+00 6.9714415972e-05 1.6425128641e+00 -2.8449157327e+00 1.6425128641e+00 2.8449157327e+00 
79800 5.7235587920e+00 6.9761857648e-05 1.6425128641e+00 -2.8449157327e+00 1.6425128641e+00 2.8449157327e+00 
79900 5.7235587955e+00 6.9809213191e-05 1.6425128641e+00 -2.8449157327e+00 1.6425128641e+00 2.8449157327e+00 
80000 5.7235587990e+00 6.9856489804e-05 1.6425128641e+00 -2.8449157327e+00 1.6425128641e+00 2.8449157327e+00 
80100 5.7235588025e+00 6.9903694145e-05 1.6425128641e+00 -2.8449157327e+00 1.6425128641e+00 2.8449157327e+00 
80200 5.7235588059e+00 6.9950832353e-05 1.6425128641e+00 -2.8449157327e+00 1.6425128641e+00 2.8449157327e+00 
80300 5.7235588093e+00 6.9997910060e-05 1.6425128641e+00 -2.8449157327e+00 1.6425128641e+00 2.8449157327e+00 
80400 5.7235588126e+00 7.0044932413e-05 1.6425128641e+00 -2.8449157327e+00 1.6425128641e+00 2.8449157327e+00 
80500 5.7235588159e+00 7.0091904094e-05 1.6425128641e+00 -2.8449157327e+00 1.6425128641e+00 2.8449157327e+00 
80600 5.7235588192e+00 7.0138829325e-05 1.6425128641e+00 -2.8449157327e+00 1.6425128641e+00 2.8449157327e+00 
80700 5.7235588224e+00 7.0185711901e-05 1.6425128641e+00 -2.8449157327e+00 1.6425128641e+00 2.8449157327e+00 
80800 5.7235588256e+00 7.0232555202e-05 1.6425128641e+00 -2.8449157327e+00 1.6425128641e+00 2.8449157327e+00 
80900 5.7235588287e+00 7.0279362200e-05 1.6425128641e+00 -2.8449157327e+00 1.6425128641e+00 2.8449157327e+00 
81000 5.7235588318e+00 7.0326135489e-05 1.6425128641e+00 -2.8449157327e+00 1.6425128641e+00 2.8449157327e+00 
81100 5.7235588349e+00 7.0372877289e-05 1.6425128641e+00 -2.8449157327e+00 1.6425128641e+00 2.8449157327e+00 
81200 5.7235588380e+00 7.0419589473e-05 1.6425128641e+00 -2.8449157327e+00 1.6425128641e+00 2.8449157327e+00 
81300 5.7235588410e+00 7.0466273567e-05 1.6425128641e+00 -2.8449157327e+00 1.6425128641e+00 2.8449157327e+00 
81400 5.7235588439e+00 7.0512930782e-05 1.6425128641e+00 -2.8449157327e+00 1.6425128641e+00 2.8449157327e+00 
81500 5.7235588469e+00 7.0559562014e-05 1.6425128641e+00 -2.8449157327e+00 1.6425128641e+00 2.8449157327e+00 
81600 5.7235588498e+00 7.0606167867e-05 1.6425128641e+00 -2.8449157327e+00 1.6425128641e+00 2.8449157327e+00 
81700 5.7235588526e+00 7.0652748661e-05 1.6425128641e+00 -2.8449157327e+00 1.6425128641e+00 2.8449157327e+00 
81800 5.7235588555e+00 7.0699304450e-05 1.6425128641e+00 -2.8449157327e+00 1.6425128641e+00 2.8449157327e+00 
81900 5.7235588583e+00 7.0745835035e-05 1.6425128641e+00 -2.8449157327e+00 1.6425128641e+00 2.8449157327e+00 
82000 5.7235588609e+00 6.8809985773e-05 1.6425107105e+00 -2.8449120026e+00 1.6425107105e+00 2.8449120026e+00 
82100 5.7235588636e+00 6.8849234341e-05 1.6425107105e+00 -2.8449120026e+00 1.6425107105e+00 2.8449120026e+00 
82200 5.7235588663e+00 6.8888341720e-05 1.6425107105e+00 -2.8449120026e+00 1.6425107105e+00 2.8449120026e+00 
82300 5.7235588690e+00 6.8927320374e-05 1.6425107105e+00 -2.8449120026e+00 1.6425107105e+00 2.8449120026e+00 
82400 5.7235588716e+00 6.8966182059e-05 1.6425107105e+00 -2.8449120026e+00 1.6425107105e+00 2.8449120026e+00 
82500 5.7235588742e+00 6.9004937843e-05 1.6425107105e+00 -2.8449120026e+00 1.6425107105e+00 2.8449120026e+00 
82600 5.7235588768e+00 6.9043598128e-05 1.6425107105e+00 -2.8449120026e+00 1.6425107105e+00 2.8449120026e+00 
82700 5.7235588793e+00 6.9082172663e-05 1.6425107105e+00 -2.8449120026e+00 1.6425107105e+00 2.8449120026e+00 
82800 5.7235588819e+00 6.9120670570e-05 1.6425107105e+00 -2.8449120026e+00 1.6425107105e+00 2.8449120026e+00 
82900 5.7235588844e+00 6.9159100365e-05 1.6425107105e+00 -2.8449120026e+00 1.6425107105e+00 2.8449120026e+00 
83000 5.7235588868e+00 6.9197469968e-05 1.6425107105e+00 -2.8449120026e+00 1.6425107105e+00 2.8449120026e+00 
83100 5.7235588892e+00 6.9235786731e-05 1.6425107105e+00 -2.8449120026e+00 1.6425107105e+00 2.8449120026e+00 
83200 5.7235588916e+00 6.9274057448e-05 1.6425107105e+00 -2.8449120026e+00 1.6425107105e+00 2.8449120026e+00 
83300 5.7235588940e+00 6.9312288384e-05 1.6425107105e+00 -2.8449120026e+00 1.6425107105e+00 2.8449120026e+00 
83400 5.7235588964e+00 6.9350485282e-05 1.6425107105e+00 -2.8449120026e+00 1.6425107105e+00 2.8449120026e+00 
83500 5.7235588987e+00 6.9388653391e-05 1.6425107105e+00 -2.8449120026e+00 1.6425107105e+00 2.8449120026e+00 
83600 5.7235589010e+00 6.9426797476e-05 1.6425107105e+00 -2.8449120026e+00 1.6425107105e+00 2.8449120026e+00 
83700 5.7235589033e+00 6.9464921840e-05 1.6425107105e+00 -2.8449120026e+00 1.6425107105e+00 2.8449120026e+00 
83800 5.7235589055e+00 6.9503030339e-05 1.6425107105e+00 -2.8449120026e+00 1.6425107105e+00 2.8449120026e+00 
83900 5.7235589077e+00 6.9541126399e-05 1.6425107105e+00 -2.8449120026e+00 1.6425107105e+00 2.8449120026e+00 
84000 5.7235589099e+00 6.9579213034e-05 1.6425107105e+00 -2.8449120026e+00 1.6425107105e+00 2.8449120026e+00 
84100 5.7235589121e+00 6.9617292859e-05 1.6425107105e+00 -2.8449120026e+00 1.6425107105e+00 2.8449120026e+00 
84200 5.7235589142e+00 6.9655368114e-05 1.6425107105e+00 -2.8449120026e+00 1.6425107105e+00 2.8449120026e+00 
84300 5.7235589163e+00 6.9693440667e-05 1.6425107105e+00 -2.8449120026e+00 1.6425107105e+00 2.8449120026e+00 
84400 5.7235589184e+00 6.9731512041e-05 1.6425107105e+00 -2.8449120026e+00 1.6425107105e+00 2.8449120026e+00 
84500 5.7235589205e+00 6.9769583426e-05 1.6425107105e+00 -2.8449120026e+00 1.6425107105e+00 2.8449120026e+00 
84600 5.7235589225e+00 6.9807655686e-05 1.6425107105e+00 -2.8449120026e+00 1.6425107105e+00 2.8449120026e+00 
84700 5.7235589245e+00 6.9845729388e-05 1.6425107105e+00 -2.8449120026e+00 1.6425107105e+00 2.8449120026e+00 
84800 5.7235589265e+00 6.9883804802e-05 1.6425107105e+00 -2.8449120026e+00 1.6425107105e+00 2.8449120026e+00 
84900 5.7235589285e+00 6.9921881924e-05 1.6425107105e+00 -2.8449120026e+00 1.6425107105e+00 2.8449120026e+00 
85000 5.7235589304e+00 6.9959960486e-05 1.6425107105e+00 -2.8449120026e+00 1.6425107105e+00 2.8449120026e+00 
85100 5.7235589324e+00 6.9998039969e-05 1.6425107105e+00 -2.8449120026e+00 1.6425107105e+00 2.8449120026e+00 
85200 5.7235589343e+00 7.0036119617e-05 1.6425107105e+00 -2.8449120026e+00 1.6425107105e+00 2.8449120026e+00 
85300 5.7235589361e+00 7.0074198451e-05 1.6425107105e+00 -2.8449120026e+00 1.6425107105e+00 2.8449120026e+00 
85400 5.7235589380e+00 7.0112275280e-05 1.6425107105e+00 -2.8449120026e+00 1.6425107105e+00 2.8449120026e+00 
85500 5.7235589398e+00 7.0150348707e-05 1.6425107105e+00 -2.8449120026e+00 1.6425107105e+00 2.8449120026e+00 
85600 5.7235589416e+00 7.0188417153e-05 1.6425107105e+00 -2.8449120026e+00 1.6425107105e+00 2.8449120026e+00 
85700 5.7235589434e+00 7.0226478858e-05 1.6425107105e+00 -2.8449120026e+00 1.6425107105e+00 2.8449120026e+00 
85800 5.7235589452e+00 7.0264531897e-05 1.6425107105e+00 -2.8449120026e+00 1.6425107105e+00 2.8449120026e+00 
85900 5.7235589470e+00 7.0302574189e-05 1.6425107105e+00 -2.8449120026e+00 1.6425107105e+00 2.8449120026e+00 
86000 5.7235589487e+00 7.0340603508e-05 1.6425107105e+00 -2.8449120026e+00 1.6425107105e+00 2.8449120026e+00 
86100 5.7235589504e+00 7.0378617494e-05 1.6425107105e+00 -2.8449120026e+00 1.6425107105e+00 2.8449120026e+00 
86200 5.7235589521e+00 7.0416613660e-05 1.6425107105e+00 -2.8449120026e+00 1.6425107105e+00 2.8449120026e+00 
86300 5.7235589538e+00 7.0454589402e-05 1.6425107105e+00 -2.8449120026e+00 1.6425107105e+00 2.8449120026e+00 
86400 5.7235589554e+00 7.0492542015e-05 1.6425107105e+00 -2.8449120026e+00 1.6425107105e+00 2.8449120026e+00 
86500 5.7235589571e+00 7.0530468692e-05 1.6425107105e+00 -2.8449120026e+00 1.6425107105e+00 2.8449120026e+00 
86600 5.7235589587e+00 7.0568366537e-05 1.6425107105e+00 -2.8449120026e+00 1.6425107105e+00 2.8449120026e+00 
86700 5.7235589603e+00 7.0606232575e-05 1.6425107105e+00 -2.8449120026e+00 1.6425107105e+00 2.8449120026e+00 
86800 5.7235589619e+00 7.0644063759e-05 1.6425107105e+00 -2.8449120026e+00 1.6425107105e+00 2.8449120026e+00 
86900 5.7235589634e+00 7.0681856976e-05 1.6425107105e+00 -2.8449120026e+00 1.6425107105e+00 2.8449120026e+00 
87000 5.7235589650e+00 7.0719609057e-05 1.6425107105e+00 -2.8449120026e+00 1.6425107105e+00 2.8449120026e+00 
87100 5.7235589663e+00 6.8775676166e-05 1.6425085577e+00 -2.8449082739e+00 1.6425085577e+00 2.8449082739e+00 
87200 5.7235589678e+00 6.8806108881e-05 1.6425085577e+00 -2.8449082739e+00 1.6425085577e+00 2.8449082739e+00 
87300 5.7235589693e+00 6.8836376737e-05 1.6425085577e+00 -2.8449082739e+00 1.6425085577e+00 2.8449082739e+00 
87400 5.7235589708e+00 6.8866489958e-05 1.6425085577e+00 -2.8449082739e+00 1.6425085577e+00 2.8449082739e+00 
87500 5.7235589722e+00 6.8896458240e-05 1.6425085577e+00 -2.8449082739e+00 1.6425085577e+00 2.8449082739e+00 
87600 5.7235589737e+00 6.8926290750e-05 1.6425085577e+00 -2.8449082739e+00 1.6425085577e+00 2.8449082739e+00 
87700 5.7235589751e+00 6.8955996153e-05 1.6425085577e+00 -2.8449082739e+00 1.6425085577e+00 2.8449082739e+00 
87800 5.7235589765e+00 6.8985582620e-05 1.6425085577e+00 -2.8449082739e+00 1.6425085577e+00 2.8449082739e+00 
87900 5.7235589779e+00 6.9015057842e-05 1.6425085577e+00 -2.8449082739e+00 1.6425085577e+00 2.8449082739e+00 
88000 5.7235589792e+00 6.9044429049e-05 1.6425085577e+00 -2.8449082739e+00 1.6425085577e+00 2.8449082739e+00 
88100 5.7235589806e+00 6.9073703021e-05 1.6425085577e+00 -2.8449082739e+00 1.6425085577e+00 2.8449082739e+00 
88200 5.7235589819e+00 6.9102886103e-05 1.6425085577e+00 -2.8449082739e+00 1.6425085577e+00 2.8449082739e+00 
88300 5.7235589833e+00 6.9131984217e-05 1.6425085577e+00 -2.8449082739e+00 1.6425085577e+00 2.8449082739e+00 
88400 5.7235589846e+00 6.9161002877e-05 1.6425085577e+00 -2.8449082739e+00 1.6425085577e+00 2.8449082739e+00 
88500 5.7235589859e+00 6.9189947209e-05 1.6425085577e+00 -2.8449082739e+00 1.6425085577e+00 2.8449082739e+00 
88600 5.7235589871e+00 6.9218821952e-05 1.6425085577e+00 -2.8449082739e+00 1.6425085577e+00 2.8449082739e+00 
88700 5.7235589884e+00 6.9247631482e-05 1.6425085577e+00 -2.8449082739e+00 1.6425085577e+00 2.8449082739e+00 
88800 5.7235589897e+00 6.9276379820e-05 1.6425085577e+00 -2.8449082739e+00 1.6425085577e+00 2.8449082739e+00 
88900 5.7235589909e+00 6.9305070647e-05 1.6425085577e+00 -2.8449082739e+00 1.6425085577e+00 2.8449082739e+00 
89000 5.7235589921e+00 6.9333707315e-05 1.6425085577e+00 -2.8449082739e+00 1.6425085577e+00 2.8449082739e+00 
89100 5.7235589933e+00 6.9362292862e-05 1.6425085577e+00 -2.8449082739e+00 1.6425085577e+00 2.8449082739e+00 
89200 5.7235589945e+00 6.9390830020e-05 1.6425085577e+00 -2.8449082739e+00 1.6425085577e+00 2.8449082739e+00 
89300 5.7235589957e+00 6.9419321234e-05 1.6425085577e+00 -2.8449082739e+00 1.6425085577e+00 2.8449082739e+00 
89400 5.7235589969e+00 6.9447768665e-05 1.6425085577e+00 -2.8449082739e+00 1.6425085577e+00 2.8449082739e+00 
89500 5.7235589980e+00 6.9476174213e-05 1.6425085577e+00 -2.8449082739e+00 1.6425085577e+00 2.8449082739e+00 
89600 5.7235589992e+00 6.9504539516e-05 1.6425085577e+00 -2.8449082739e+00 1.6425085577e+00 2.8449082739e+00 
89700 5.7235590003e+00 6.9532865971e-05 1.6425085577e+00 -2.8449082739e+00 1.6425085577e+00 2.8449082739e+00 
89800 5.7235590014e+00 6.9561154739e-05 1.6425085577e+00 -2.8449082739e+00 1.6425085577e+00 2.8449082739e+00 
89900 5.7235590025e+00 6.9589406759e-05 1.6425085577e+00 -2.8449082739e+00 1.6425085577e+00 2.8449082739e+00 
90000 5.7235590036e+00 6.9617622758e-05 1.6425085577e+00 -2.8449082739e+00 1.6425085577e+00 2.8449082739e+00 
90100 5.7235590047e+00 6.9645803261e-05 1.6425085577e+00 -2.8449082739e+00 1.6425085577e+00 2.8449082739e+00 
90200 5.7235590057e+00 6.9673948599e-05 1.6425085577e+00 -2.8449082739e+00 1.6425085577e+00 2.8449082739e+00 
90300 5.7235590068e+00 6.9702058922e-05 1.6425085577e+00 -2.8449082739e+00 1.6425085577e+00 2.8449082739e+00 
90400 5.7235590078e+00 6.9730134207e-05 1.6425085577e+00 -2.8449082739e+00 1.6425085577e+00 2.8449082739e+00 
90500 5.7235590088e+00 6.9758174268e-05 1.6425085577e+00 -2.8449082739e+00 1.6425085577e+00 2.8449082739e+00 
90600 5.7235590099e+00 6.9786178763e-05 1.6425085577e+00 -2.8449082739e+00 1.6425085577e+00 2.8449082739e+00 
90700 5.7235590109e+00 6.9814147207e-05 1.6425085577e+00 -2.8449082739e+00 1.6425085577e+00 2.8449082739e+00 
90800 5.7235590118e+00 6.9842078972e-05 1.6425085577e+00 -2.8449082739e+00 1.6425085577e+00 2.8449082739e+00 
90900 5.7235590128e+00 6.9869973309e-05 1.6425085577e+00 -2.8449082739e+00 1.6425085577e+00 2.8449082739e+00 
91000 5.7235590138e+00 6.9897829345e-05 1.6425085577e+00 -2.8449082739e+00 1.6425085577e+00 2.8449082739e+00 
91100 5.7235590148e+00 6.9925646091e-05 1.6425085577e+00 -2.8449082739e+00 1.6425085577e+00 2.8449082739e+00 
91200 5.7235590157e+00 6.9953422460e-05 1.6425085577e+00 -2.8449082739e+00 1.6425085577e+00 2.8449082739e+00 
91300 5.7235590166e+00 6.9981157261e-05 1.6425085577e+00 -2.8449082739e+00 1.6425085577e+00 2.8449082739e+00 
91400 5.7235590176e+00 7.0008849214e-05 1.6425085577e+00 -2.8449082739e+00 1.6425085577e+00 2.8449082739e+00 
91500 5.7235590185e+00 7.0036496958e-05 1.6425085577e+00 -2.8449082739e+00 1.6425085577e+00 2.8449082739e+00 
91600 5.7235590194e+00 7.0064099051e-05 1.6425085577e+00 -2.8449082739e+00 1.6425085577e+00 2.8449082739e+00 
91700 5.7235590203e+00 7.0091653984e-05 1.6425085577e+00 -2.8449082739e+00 1.6425085577e+00 2.8449082739e+00 
91800 5.7235590212e+00 7.0119160183e-05 1.6425085577e+00 -2.8449082739e+00 1.6425085577e+00 2.8449082739e+00 
91900 5.7235590220e+00 7.0146616013e-05 1.6425085577e+00 -2.8449082739e+00 1.6425085577e+00 2.8449082739e+00 
92000 5.7235590229e+00 7.0174019793e-05 1.6425085577e+00 -2.8449082739e+00 1.6425085577e+00 2.8449082739e+00 
92100 5.7235590237e+00 7.0201369787e-05 1.6425085577e+00 -2.8449082739e+00 1.6425085577e+00 2.8449082739e+00 
92200 5.7235590246e+00 7.0228664227e-05 1.6425085577e+00 -2.8449082739e+00 1.6425085577e+00 2.8449082739e+00 
92300 5.7235590254e+00 7.0255901300e-05 1.6425085577e+00 -2.8449082739e+00 1.6425085577e+00 2.8449082739e+00 
92400 5.7235590263e+00 7.0283079168e-05 1.6425085577e+00 -2.8449082739e+00 1.6425085577e+00 2.8449082739e+00 
92500 5.7235590271e+00 7.0310195965e-05 1.6425085577e+00 -2.8449082739e+00 1.6425085577e+00 2.8449082739e+00 
92600 5.7235590279e+00 7.0337249802e-05 1.6425085577e+00 -2.8449082739e+00 1.6425085577e+00 2.8449082739e+00 
92700 5.7235590287e+00 7.0364238774e-05 1.6425085577e+00 -2.8449082739e+00 1.6425085577e+00 2.8449082739e+00 
92800 5.7235590295e+00 7.0391160964e-05 1.6425085577e+00 -2.8449082739e+00 1.6425085577e+00 2.8449082739e+00 
92900 5.7235590302e+00 7.0418014445e-05 1.6425085577e+00 -2.8449082739e+00 1.6425085577e+00 2.8449082739e+00 
93000 5.7235590310e+00 7.0444797284e-05 1.6425085577e+00 -2.8449082739e+00 1.6425085577e+00 2.8449082739e+00 
93100 5.7235590318e+00 7.0471507547e-05 1.6425085577e+00 -2.8449082739e+00 1.6425085577e+00 2.8449082739e+00 
93200 5.7235590325e+00 7.0498143304e-05 1.6425085577e+00 -2.8449082739e+00 1.6425085577e+00 2.8449082739e+00 
93300 5.7235590333e+00 7.0524702627e-05 1.6425085577e+00 -2.8449082739e+00 1.6425085577e+00 2.8449082739e+00 
93400 5.7235590340e+00 7.0551183599e-05 1.6425085577e+00 -2.8449082739e+00 1.6425085577e+00 2.8449082739e+00 
93500 5.7235590347e+00 7.0577584313e-05 1.6425085577e+00 -2.8449082739e+00 1.6425085577e+00 2.8449082739e+00 
93600 5.7235590354e+00 7.0603902879e-05 1.6425085577e+00 -2.8449082739e+00 1.6425085577e+00 2.8449082739e+00 
93700 5.7235590361e+00 7.0630137421e-05 1.6425085577e+00 -2.8449082739e+00 1.6425085577e+00 2.8449082739e+00 
93800 5.7235590368e+00 7.0656286087e-05 1.6425085577e+00 -2.8449082739e+00 1.6425085577e+00 2.8449082739e+00 
93900 5.7235590375e+00 7.0682347039e-05 1.6425085577e+00 -2.8449082739e+00 1.6425085577e+00 2.8449082739e+00 
94000 5.7235590382e+00 7.0708318473e-05 1.6425085577e+00 -2.8449082739e+00 1.6425085577e+00 2.8449082739e+00 
94100 5.7235590389e+00 7.0734198606e-05 1.6425085577e+00 -2.8449082739e+00 1.6425085577e+00 2.8449082739e+00 
94200 5.7235590394e+00 6.8777916129e-05 1.6425064045e+00 -2.8449045444e+00 1.6425064045e+00 2.8449045444e+00 
94300 5.7235590400e+00 6.8796379503e-05 1.6425064045e+00 -2.8449045444e+00 1.6425064045e+00 2.8449045444e+00 
94400 5.7235590407e+00 6.8814632429e-05 1.6425064045e+00 -2.8449045444e+00 1.6425064045e+00 2.8449045444e+00 
94500 5.7235590413e+00 6.8832686812e-05 1.6425064045e+00 -2.8449045444e+00 1.6425064045e+00 2.8449045444e+00 
94600 5.7235590420e+00 6.8850554074e-05 1.6425064045e+00 -2.8449045444e+00 1.6425064045e+00 2.8449045444e+00 
94700 5.7235590426e+00 6.8868245173e-05 1.6425064045e+00 -2.8449045444e+00 1.6425064045e+00 2.8449045444e+00 
94800 5.7235590432e+00 6.8885770608e-05 1.6425064045e+00 -2.8449045444e+00 1.6425064045e+00 2.8449045444e+00 
94900 5.7235590439e+00 6.8903140431e-05 1.6425064045e+00 -2.8449045444e+00 1.6425064045e+00 2.8449045444e+00 
95000 5.7235590445e+00 6.8920364256e-05 1.6425064045e+00 -2.8449045444e+00 1.6425064045e+00 2.8449045444e+00 
95100 5.7235590451e+00 6.8937451270e-05 1.6425064045e+00 -2.8449045444e+00 1.6425064045e+00 2.8449045444e+00 
95200 5.7235590457e+00 6.8954410245e-05 1.6425064045e+00 -2.8449045444e+00 1.6425064045e+00 2.8449045444e+00 
95300 5.7235590463e+00 6.8971249548e-05 1.6425064045e+00 -2.8449045444e+00 1.6425064045e+00 2.8449045444e+00 
95400 5.7235590468e+00 6.8987977145e-05 1.6425064045e+00 -2.8449045444e+00 1.6425064045e+00 2.8449045444e+00 
95500 5.7235590474e+00 6.9004600624e-05 1.6425064045e+00 -2.8449045444e+00 1.6425064045e+00 2.8449045444e+00 
95600 5.7235590480e+00 6.9021127191e-05 1.6425064045e+00 -2.8449045444e+00 1.6425064045e+00 2.8449045444e+00 
95700 5.7235590486e+00 6.9037563690e-05 1.6425064045e+00 -2.8449045444e+00 1.6425064045e+00 2.8449045444e+00 
95800 5.7235590491e+00 6.9053916610e-05 1.6425064045e+00 -2.8449045444e+00 1.6425064045e+00 2.8449045444e+00 
95900 5.7235590497e+00 6.9070192096e-05 1.6425064045e+00 -2.8449045444e+00 1.6425064045e+00 2.8449045444e+00 
96000 5.7235590502e+00 6.9086395956e-05 1.6425064045e+00 -2.8449045444e+00 1.6425064045e+00 2.8449045444e+00 
96100 5.7235590507e+00 6.9102533674e-05 1.6425064045e+00 -2.8449045444e+00 1.6425064045e+00 2.8449045444e+00 
96200 5.7235590513e+00 6.9118610419e-05 1.6425064045e+00 -2.8449045444e+00 1.6425064045e+00 2.8449045444e+00 
96300 5.7235590518e+00 6.9134631054e-05 1.6425064045e+00 -2.8449045444e+00 1.6425064045e+00 2.8449045444e+00 
96400 5.7235590523e+00 6.9150600150e-05 1.6425064045e+00 -2.8449045444e+00 1.6425064045e+00 2.8449045444e+00 
96500 5.7235590528e+00 6.9166521985e-05 1.6425064045e+00 -2.8449045444e+00 1.6425064045e+00 2.8449045444e+00 
96600 5.7235590533e+00 6.9182400566e-05 1.6425064045e+00 -2.8449045444e+00 1.6425064045e+00 2.8449045444e+00 
96700 5.7235590538e+00 6.9198239629e-05 1.6425064045e+00 -2.8449045444e+00 1.6425064045e+00 2.8449045444e+00 
96800 5.7235590543e+00 6.9214042653e-05 1.6425064045e+00 -2.8449045444e+00 1.6425064045e+00 2.8449045444e+00 
96900 5.7235590548e+00 6.9229812868e-05 1.6425064045e+00 -2.8449045444e+00 1.6425064045e+00 2.8449045444e+00 
97000 5.7235590553e+00 6.9245553261e-05 1.6425064045e+00 -2.8449045444e+00 1.6425064045e+00 2.8449045444e+00 
97100 5.7235590558e+00 6.9261266589e-05 1.6425064045e+00 -2.8449045444e+00 1.6425064045e+00 2.8449045444e+00 
97200 5.7235590563e+00 6.9276955385e-05 1.6425064045e+00 -2.8449045444e+00 1.6425064045e+00 2.8449045444e+00 
97300 5.7235590567e+00 6.9292621967e-05 1.6425064045e+00 -2.8449045444e+00 1.6425064045e+00 2.8449045444e+00 
97400 5.7235590572e+00 6.9308268448e-05 1.6425064045e+00 -2.8449045444e+00 1.6425064045e+00 2.8449045444e+00 
97500 5.7235590577e+00 6.9323896739e-05 1.6425064045e+00 -2.8449045444e+00 1.6425064045e+00 2.8449045444e+00 
97600 5.7235590581e+00 6.9339508563e-05 1.6425064045e+00 -2.8449045444e+00 1.6425064045e+00 2.8449045444e+00 
97700 5.7235590586e+00 6.9355105460e-05 1.6425064045e+00 -2.8449045444e+00 1.6425064045e+00 2.8449045444e+00 
97800 5.7235590590e+00 6.9370688792e-05 1.6425064045e+00 -2.8449045444e+00 1.6425064045e+00 2.8449045444e+00 
97900 5.7235590594e+00 6.9386259757e-05 1.6425064045e+00 -2.8449045444e+00 1.6425064045e+00 2.8449045444e+00 
98000 5.7235590599e+00 6.9401819391e-05 1.6425064045e+00 -2.8449045444e+00 1.6425064045e+00 2.8449045444e+00 
98100 5.7235590603e+00 6.9417368576e-05 1.6425064045e+00 -2.8449045444e+00 1.6425064045e+00 2.8449045444e+00 
98200 5.7235590607e+00 6.9432908050e-05 1.6425064045e+00 -2.8449045444e+00 1.6425064045e+00 2.8449045444e+00 
98300 5.7235590611e+00 6.9448438406e-05 1.6425064045e+00 -2.8449045444e+00 1.6425064045e+00 2.8449045444e+00 
98400 5.7235590616e+00 6.9463960111e-05 1.6425064045e+00 -2.8449045444e+00 1.6425064045e+00 2.8449045444e+00 
98500 5.7235590620e+00 6.9479473501e-05 1.6425064045e+00 -2.8449045444e+00 1.6425064045e+00 2.8449045444e+00 
98600 5.7235590624e+00 6.9494978795e-05 1.6425064045e+00 -2.8449045444e+00 1.6425064045e+00 2.8449045444e+00 
98700 5.7235590628e+00 6.9510476094e-05 1.6425064045e+00 -2.8449045444e+00 1.6425064045e+00 2.8449045444e+00 
98800 5.7235590632e+00 6.9525965397e-05 1.6425064045e+00 -2.8449045444e+00 1.6425064045e+00 2.8449045444e+00 
98900 5.7235590636e+00 6.9541446595e-05 1.6425064045e+00 -2.8449045444e+00 1.6425064045e+00 2.8449045444e+00 
99000 5.7235590639e+00 6.9556919486e-05 1.6425064045e+00 -2.8449045444e+00 1.6425064045e+00 2.8449045444e+00 
99100 5.7235590643e+00 6.9572383775e-05 1.6425064045e+00 -2.8449045444e+00 1.6425064045e+00 2.8449045444e+00 
99200 5.7235590647e+00 6.9587839085e-05 1.6425064045e+00 -2.8449045444e+00 1.6425064045e+00 2.8449045444e+00 
99300 5.7235590651e+00 6.9603284953e-05 1.6425064045e+00 -2.8449045444e+00 1.6425064045e+00 2.8449045444e+00 
99400 5.7235590654e+00 6.9618720846e-05 1.6425064045e+00 -2.8449045444e+00 1.6425064045e+00 2.8449045444e+00 
99500 5.7235590658e+00 6.9634146157e-05 1.6425064045e+00 -2.8449045444e+00 1.6425064045e+00 2.8449045444e+00 
99600 5.7235590662e+00 6.9649560216e-05 1.6425064045e+00 -2.8449045444e+00 1.6425064045e+00 2.8449045444e+00 
99700 5.7235590665e+00 6.9664962289e-05 1.6425064045e+00 -2.8449045444e+00 1.6425064045e+00 2.8449045444e+00 
99800 5.7235590669e+00 6.9680351588e-05 1.6425064045e+00 -2.8449045444e+00 1.6425064045e+00 2.8449045444e+00 
99900 5.7235590672e+00 6.9695727269e-05 1.6425064045e+00 -2.8449045444e+00 1.6425064045e+00 2.8449045444e+00 
100000 5.7235590676e+00 6.9711088444e-05 1.6425064045e+00 -2.8449045444e+00 1.6425064045e+00 2.8449045444e+00 
100100 5.7235590679e+00 6.9726434177e-05 1.6425064045e+00 -2.8449045444e+00 1.6425064045e+00 2.8449045444e+00 
100200 5.7235590682e+00 6.9741763493e-05 1.6425064045e+00 -2.8449045444e+00 1.6425064045e+00 2.8449045444e+00 
100300 5.7235590686e+00 6.9757075381e-05 1.6425064045e+00 -2.8449045444e+00 1.6425064045e+00 2.8449045444e+00 
100400 5.7235590689e+00 6.9772368796e-05 1.6425064045e+00 -2.8449045444e+00 1.6425064045e+00 2.8449045444e+00 
100500 5.7235590692e+00 6.9787642661e-05 1.6425064045e+00 -2.8449045444e+00 1.6425064045e+00 2.8449045444e+00 
100600 5.7235590696e+00 6.9802895875e-05 1.6425064045e+00 -2.8449045444e+00 1.6425064045e+00 2.8449045444e+00 
100700 5.7235590699e+00 6.9818127314e-05 1.6425064045e+00 -2.8449045444e+00 1.6425064045e+00 2.8449045444e+00 
100800 5.7235590702e+00 6.9833335834e-05 1.6425064045e+00 -2.8449045444e+00 1.6425064045e+00 2.8449045444e+00 
100900 5.7235590705e+00 6.9848520269e-05 1.6425064045e+00 -2.8449045444e+00 1.6425064045e+00 2.8449045444e+00 
101000 5.7235590708e+00 6.9863679444e-05 1.6425064045e+00 -2.8449045444e+00 1.6425064045e+00 2.8449045444e+00 
101100 5.7235590711e+00 6.9878812170e-05 1.6425064045e+00 -2.8449045444e+00 1.6425064045e+00 2.8449045444e+00 
101200 5.7235590714e+00 6.9893917248e-05 1.6425064045e+00 -2.8449045444e+00 1.6425064045e+00 2.8449045444e+00 
101300 5.7235590717e+00 6.9908993473e-05 1.6425064045e+00 -2.8449045444e+00 1.6425064045e+00 2.8449045444e+00 
101400 5.7235590720e+00 6.9924039635e-05 1.6425064045e+00 -2.8449045444e+00 1.6425064045e+00 2.8449045444e+00 
101500 5.7235590723e+00 6.9939054522e-05 1.6425064045e+00 -2.8449045444e+00 1.6425064045e+00 2.8449045444e+00 
101600 5.7235590726e+00 6.9954036921e-05 1.6425064045e+00 -2.8449045444e+00 1.6425064045e+00 2.8449045444e+00 
101700 5.7235590729e+00 6.9968985622e-05 1.6425064045e+00 -2.8449045444e+00 1.6425064045e+00 2.8449045444e+00 
101800 5.7235590731e+00 6.9983899419e-05 1.6425064045e+00 -2.8449045444e+00 1.6425064045e+00 2.8449045444e+00 
101900 5.7235590734e+00 6.9998777109e-05 1.6425064045e+00 -2.8449045444e+00 1.6425064045e+00 2.8449045444e+00 
102000 5.7235590737e+00 7.0013617499e-05 1.6425064045e+00 -2.8449045444e+00 1.6425064045e+00 2.8449045444e+00 
102100 5.7235590740e+00 7.0028419404e-05 1.6425064045e+00 -2.8449045444e+00 1.6425064045e+00 2.8449045444e+00 
102200 5.7235590742e+00 7.0043181649e-05 1.6425064045e+00 -2.8449045444e+00 1.6425064045e+00 2.8449045444e+00 
102300 5.7235590745e+00 7.0057903071e-05 1.6425064045e+00 -2.8449045444e+00 1.6425064045e+00 2.8449045444e+00 
102400 5.7235590748e+00 7.0072582520e-05 1.6425064045e+00 -2.8449045444e+00 1.6425064045e+00 2.8449045444e+00 
102500 5.7235590750e+00 7.0087218862e-05 1.6425064045e+00 -2.8449045444e+00 1.6425064045e+00 2.8449045444e+00 
102600 5.7235590753e+00 7.0101810978e-05 1.6425064045e+00 -2.8449045444e+00 1.6425064045e+00 2.8449045444e+00 
102700 5.7235590755e+00 7.0116357764e-05 1.6425064045e+00 -2.8449045444e+00 1.6425064045e+00 2.8449045444e+00 
102800 5.7235590758e+00 7.0130858137e-05 1.6425064045e+00 -2.8449045444e+00 1.6425064045e+00 2.8449045444e+00 
102900 5.7235590760e+00 7.0145311029e-05 1.6425064045e+00 -2.8449045444e+00 1.6425064045e+00 2.8449045444e+00 
103000 5.7235590763e+00 7.0159715399e-05 1.6425064045e+00 -2.8449045444e+00 1.6425064045e+00 2.8449045444e+00 
103100 5.7235590765e+00 7.0174070216e-05 1.6425064045e+00 -2.8449045444e+00 1.6425064045e+00 2.8449045444e+00 
103200 5.7235590767e+00 7.0188374479e-05 1.6425064045e+00 -2.8449045444e+00 1.6425064045e+00 2.8449045444e+00 
103300 5.7235590770e+00 7.0202627205e-05 1.6425064045e+00 -2.8449045444e+00 1.6425064045e+00 2.8449045444e+00 
103400 5.7235590772e+00 7.0216827437e-05 1.6425064045e+00 -2.8449045444e+00 1.6425064045e+00 2.8449045444e+00 
103500 5.7235590774e+00 7.0230974235e-05 1.6425064045e+00 -2.8449045444e+00 1.6425064045e+00 2.8449045444e+00 
103600 5.7235590777e+00 7.0245066691e-05 1.6425064045e+00 -2.8449045444e+00 1.6425064045e+00 2.8449045444e+00 
103700 5.7235590779e+00 7.0259103913e-05 1.6425064045e+00 -2.8449045444e+00 1.6425064045e+00 2.8449045444e+00 
103800 5.7235590781e+00 7.0273085041e-05 1.6425064045e+00 -2.8449045444e+00 1.6425064045e+00 2.8449045444e+00 
103900 5.7235590783e+00 7.0287009237e-05 1.6425064045e+00 -2.8449045444e+00 1.6425064045e+00 2.8449045444e+00 
104000 5.7235590786e+00 7.0300875685e-05 1.6425064045e+00 -2.8449045444e+00 1.6425064045e+00 2.8449045444e+00 
104100 5.7235590788e+00 7.0314683601e-05 1.6425064045e+00 -2.8449045444e+00 1.6425064045e+00 2.8449045444e+00 
104200 5.7235590790e+00 7.0328432221e-05 1.6425064045e+00 -2.8449045444e+00 1.6425064045e+00 2.8449045444e+00 
104300 5.7235590792e+00 7.0342120811e-05 1.6425064045e+00 -2.8449045444e+00 1.6425064045e+00 2.8449045444e+00 
104400 5.7235590794e+00 7.0355748661e-05 1.6425064045e+00 -2.8449045444e+00 1.6425064045e+00 2.8449045444e+00 
104500 5.7235590796e+00 7.0369315087e-05 1.6425064045e+00 -2.8449045444e+00 1.6425064045e+00 2.8449045444e+00 
104600 5.7235590798e+00 7.0382819435e-05 1.6425064045e+00 -2.8449045444e+00 1.6425064045e+00 2.8449045444e+00 
104700 5.7235590800e+00 7.0396261073e-05 1.6425064045e+00 -2.8449045444e+00 1.6425064045e+00 2.8449045444e+00 
104800 5.7235590802e+00 7.0409639395e-05 1.6425064045e+00 -2.8449045444e+00 1.6425064045e+00 2.8449045444e+00 
104900 5.7235590804e+00 7.0422953825e-05 1.6425064045e+00 -2.8449045444e+00 1.6425064045e+00 2.8449045444e+00 
105000 5.7235590806e+00 7.0436203811e-05 1.6425064045e+00 -2.8449045444e+00 1.6425064045e+00 2.8449045444e+00 
105100 5.7235590808e+00 7.0449388826e-05 1.6425064045e+00 -2.8449045444e+00 1.6425064045e+00 2.8449045444e+00 
105200 5.7235590810e+00 7.0462508372e-05 1.6425064045e+00 -2.8449045444e+00 1.6425064045e+00 2.8449045444e+00 
105300 5.7235590812e+00 7.0475561971e-05 1.6425064045e+00 -2.8449045444e+00 1.6425064045e+00 2.8449045444e+00 
105400 5.7235590814e+00 7.0488549179e-05 1.6425064045e+00 -2.8449045444e+00 1.6425064045e+00 2.8449045444e+00 
105500 5.7235590816e+00 7.0501469569e-05 1.6425064045e+00 -2.8449045444e+00 1.6425064045e+00 2.8449045444e+00 
105600 5.7235590817e+00 7.0514322745e-05 1.6425064045e+00 -2.8449045444e+00 1.6425064045e+00 2.8449045444e+00 
105700 5.7235590819e+00 7.0527108332e-05 1.6425064045e+00 -2.8449045444e+00 1.6425064045e+00 2.8449045444e+00 
105800 5.7235590821e+00 7.0539825984e-05 1.6425064045e+00 -2.8449045444e+00 1.6425064045e+00 2.8449045444e+00 
105900 5.7235590823e+00 7.0552475373e-05 1.6425064045e+00 -2.8449045444e+00 1.6425064045e+00 2.8449045444e+00 
106000 5.7235590824e+00 7.0565056200e-05 1.6425064045e+00 -2.8449045444e+00 1.6425064045e+00 2.8449045444e+00 
106100 5.7235590826e+00 7.0577568188e-05 1.6425064045e+00 -2.8449045444e+00 1.6425064045e+00 2.8449045444e+00 
106200 5.7235590828e+00 7.0590011086e-05 1.6425064045e+00 -2.8449045444e+00 1.6425064045e+00 2.8449045444e+00 
106300 5.7235590829e+00 7.0602384658e-05 1.6425064045e+00 -2.8449045444e+00 1.6425064045e+00 2.8449045444e+00 
106400 5.7235590831e+00 7.0614688700e-05 1.6425064045e+00 -2.8449045444e+00 1.6425064045e+00 2.8449045444e+00 
106500 5.7235590833e+00 7.0626923025e-05 1.6425064045e+00 -2.8449045444e+00 1.6425064045e+00 2.8449045444e+00 
106600 5.7235590834e+00 7.0639087469e-05 1.6425064045e+00 -2.8449045444e+00 1.6425064045e+00 2.8449045444e+00 
106700 5.7235590836e+00 7.0651181889e-05 1.6425064045e+00 -2.8449045444e+00 1.6425064045e+00 2.8449045444e+00 
106800 5.7235590838e+00 7.0663206163e-05 1.6425064045e+00 -2.8449045444e+00 1.6425064045e+00 2.8449045444e+00 
106900 5.7235590839e+00 7.0675160191e-05 1.6425064045e+00 -2.8449045444e+00 1.6425064045e+00 2.8449045444e+00 
107000 5.7235590841e+00 7.0687043890e-05 1.6425064045e+00 -2.8449045444e+00 1.6425064045e+00 2.8449045444e+00 
107100 5.7235590842e+00 7.0698857200e-05 1.6425064045e+00 -2.8449045444e+00 1.6425064045e+00 2.8449045444e+00 
107200 5.7235590844e+00 7.0710600079e-05 1.6425064045e+00 -2.8449045444e+00 1.6425064045e+00 2.8449045444e+00 
107300 5.7235590845e+00 7.0722272504e-05 1.6425064045e+00 -2.8449045444e+00 1.6425064045e+00 2.8449045444e+00 
107400 5.7235590845e+00 6.8752119777e-05 1.6425042516e+00 -2.8449008155e+00 1.6425042516e+00 2.8449008155e+00 
107500 5.7235590846e+00 6.8756423549e-05 1.6425042516e+00 -2.8449008155e+00 1.6425042516e+00 2.8449008155e+00 
107600 5.7235590848e+00 6.8760542938e-05 1.6425042516e+00 -2.8449008155e+00 1.6425042516e+00 2.8449008155e+00 
107700 5.7235590849e+00 6.8764491552e-05 1.6425042516e+00 -2.8449008155e+00 1.6425042516e+00 2.8449008155e+00 
107800 5.7235590851e+00 6.8768282502e-05 1.6425042516e+00 -2.8449008155e+00 1.6425042516e+00 2.8449008155e+00 
107900 5.7235590852e+00 6.8771928407e-05 1.6425042516e+00 -2.8449008155e+00 1.6425042516e+00 2.8449008155e+00 
108000 5.7235590853e+00 6.8775441411e-05 1.6425042516e+00 -2.8449008155e+00 1.6425042516e+00 2.8449008155e+00 
108100 5.7235590855e+00 6.8778833185e-05 1.6425042516e+00 -2.8449008155e+00 1.6425042516e+00 2.8449008155e+00 
108200 5.7235590856e+00 6.8782114936e-05 1.6425042516e+00 -2.8449008155e+00 1.6425042516e+00 2.8449008155e+00 
108300 5.7235590858e+00 6.8785297423e-05 1.6425042516e+00 -2.8449008155e+00 1.6425042516e+00 2.8449008155e+00 
108400 5.7235590859e+00 6.8788390954e-05 1.6425042516e+00 -2.8449008155e+00 1.6425042516e+00 2.8449008155e+00 
108500 5.7235590860e+00 6.8791405409e-05 1.6425042516e+00 -2.8449008155e+00 1.6425042516e+00 2.8449008155e+00 
108600 5.7235590861e+00 6.8794350233e-05 1.6425042516e+00 -2.8449008155e+00 1.6425042516e+00 2.8449008155e+00 
108700 5.7235590863e+00 6.8797234464e-05 1.6425042516e+00 -2.8449008155e+00 1.6425042516e+00 2.8449008155e+00 
108800 5.7235590864e+00 6.8800066728e-05 1.6425042516e+00 -2.8449008155e+00 1.6425042516e+00 2.8449008155e+00 
108900 5.7235590865e+00 6.8802855252e-05 1.6425042516e+00 -2.8449008155e+00 1.6425042516e+00 2.8449008155e+00 
109000 5.7235590866e+00 6.8805607878e-05 1.6425042516e+00 -2.8449008155e+00 1.6425042516e+00 2.8449008155e+00 
109100 5.7235590868e+00 6.8808332066e-05 1.6425042516e+00 -2.8449008155e+00 1.6425042516e+00 2.8449008155e+00 
109200 5.7235590869e+00 6.8811034907e-05 1.6425042516e+00 -2.8449008155e+00 1.6425042516e+00 2.8449008155e+00 
109300 5.7235590870e+00 6.8813723131e-05 1.6425042516e+00 -2.8449008155e+00 1.6425042516e+00 2.8449008155e+00 
109400 5.7235590871e+00 6.8816403120e-05 1.6425042516e+00 -2.8449008155e+00 1.6425042516e+00 2.8449008155e+00 
109500 5.7235590872e+00 6.8819080910e-05 1.6425042516e+00 -2.8449008155e+00 1.6425042516e+00 2.8449008155e+00 
109600 5.7235590874e+00 6.8821762208e-05 1.6425042516e+00 -2.8449008155e+00 1.6425042516e+00 2.8449008155e+00 
109700 5.7235590875e+00 6.8824452395e-05 1.6425042516e+00 -2.8449008155e+00 1.6425042516e+00 2.8449008155e+00 
109800 5.7235590876e+00 6.8827156540e-05 1.6425042516e+00 -2.8449008155e+00 1.6425042516e+00 2.8449008155e+00 
109900 5.7235590877e+00 6.8829879406e-05 1.6425042516e+00 -2.8449008155e+00 1.6425042516e+00 2.8449008155e+00 
110000 5.7235590878e+00 6.8832625461e-05 1.6425042516e+00 -2.8449008155e+00 1.6425042516e+00 2.8449008155e+00 
110100 5.7235590879e+00 6.8835398887e-05 1.6425042516e+00 -2.8449008155e+00 1.6425042516e+00 2.8449008155e+00 
110200 5.7235590880e+00 6.8838203585e-05 1.6425042516e+00 -2.8449008155e+00 1.6425042516e+00 2.8449008155e+00 
110300 5.7235590881e+00 6.8841043189e-05 1.6425042516e+00 -2.8449008155e+00 1.6425042516e+00 2.8449008155e+00 
110400 5.7235590882e+00 6.8843921073e-05 1.6425042516e+00 -2.8449008155e+00 1.6425042516e+00 2.8449008155e+00 
110500 5.7235590883e+00 6.8846840355e-05 1.6425042516e+00 -2.8449008155e+00 1.6425042516e+00 2.8449008155e+00 
110600 5.7235590884e+00 6.8849803916e-05 1.6425042516e+00 -2.8449008155e+00 1.6425042516e+00 2.8449008155e+00 
110700 5.7235590886e+00 6.8852814393e-05 1.6425042516e+00 -2.8449008155e+00 1.6425042516e+00 2.8449008155e+00 
110800 5.7235590887e+00 6.8855874205e-05 1.6425042516e+00 -2.8449008155e+00 1.6425042516e+00 2.8449008155e+00 
110900 5.7235590888e+00 6.8858985546e-05 1.6425042516e+00 -2.8449008155e+00 1.6425042516e+00 2.8449008155e+00 
111000 5.7235590889e+00 6.8862150401e-05 1.6425042516e+00 -2.8449008155e+00 1.6425042516e+00 2.8449008155e+00 
111100 5.7235590889e+00 6.8865370552e-05 1.6425042516e+00 -2.8449008155e+00 1.6425042516e+00 2.8449008155e+00 
111200 5.7235590890e+00 6.8868647586e-05 1.6425042516e+00 -2.8449008155e+00 1.6425042516e+00 2.8449008155e+00 
111300 5.7235590891e+00 6.8871982899e-05 1.6425042516e+00 -2.8449008155e+00 1.6425042516e+00 2.8449008155e+00 
111400 5.7235590892e+00 6.8875377711e-05 1.6425042516e+00 -2.8449008155e+00 1.6425042516e+00 2.8449008155e+00 
111500 5.7235590893e+00 6.8878833064e-05 1.6425042516e+00 -2.8449008155e+00 1.6425042516e+00 2.8449008155e+00 
111600 5.7235590894e+00 6.8882349841e-05 1.6425042516e+00 -2.8449008155e+00 1.6425042516e+00 2.8449008155e+00 
111700 5.7235590895e+00 6.8885928757e-05 1.6425042516e+00 -2.8449008155e+00 1.6425042516e+00 2.8449008155e+00 
111800 5.7235590896e+00 6.8889570381e-05 1.6425042516e+00 -2.8449008155e+00 1.6425042516e+00 2.8449008155e+00 
111900 5.7235590897e+00 6.8893275136e-05 1.6425042516e+00 -2.8449008155e+00 1.6425042516e+00 2.8449008155e+00 
112000 5.7235590898e+00 6.8897043304e-05 1.6425042516e+00 -2.8449008155e+00 1.6425042516e+00 2.8449008155e+00 
112100 5.7235590899e+00 6.8900875035e-05 1.6425042516e+00 -2.8449008155e+00 1.6425042516e+00 2.8449008155e+00 
112200 5.7235590900e+00 6.8904770352e-05 1.6425042516e+00 -2.8449008155e+00 1.6425042516e+00 2.8449008155e+00 
112300 5.7235590900e+00 6.8908729161e-05 1.6425042516e+00 -2.8449008155e+00 1.6425042516e+00 2.8449008155e+00 
112400 5.7235590901e+00 6.8912751251e-05 1.6425042516e+00 -2.8449008155e+00 1.6425042516e+00 2.8449008155e+00 
112500 5.7235590902e+00 6.8916836303e-05 1.6425042516e+00 -2.8449008155e+00 1.6425042516e+00 2.8449008155e+00 
112600 5.7235590903e+00 6.8920983896e-05 1.6425042516e+00 -2.8449008155e+00 1.6425042516e+00 2.8449008155e+00 
112700 5.7235590904e+00 6.8925193514e-05 1.6425042516e+00 -2.8449008155e+00 1.6425042516e+00 2.8449008155e+00 
112800 5.7235590904e+00 6.8929464541e-05 1.6425042516e+00 -2.8449008155e+00 1.6425042516e+00 2.8449008155e+00 
112900 5.7235590905e+00 6.8933796286e-05 1.6425042516e+00 -2.8449008155e+00 1.6425042516e+00 2.8449008155e+00 
113000 5.7235590906e+00 6.8938187966e-05 1.6425042516e+00 -2.8449008155e+00 1.6425042516e+00 2.8449008155e+00 
113100 5.7235590907e+00 6.8942638730e-05 1.6425042516e+00 -2.8449008155e+00 1.6425042516e+00 2.8449008155e+00 
113200 5.7235590908e+00 6.8947147649e-05 1.6425042516e+00 -2.8449008155e+00 1.6425042516e+00 2.8449008155e+00 
113300 5.7235590908e+00 6.8951713731e-05 1.6425042516e+00 -2.8449008155e+00 1.6425042516e+00 2.8449008155e+00 
113400 5.7235590909e+00 6.8956335919e-05 1.6425042516e+00 -2.8449008155e+00 1.6425042516e+00 2.8449008155e+00 
113500 5.7235590910e+00 6.8961013098e-05 1.6425042516e+00 -2.8449008155e+00 1.6425042516e+00 2.8449008155e+00 
113600 5.7235590911e+00 6.8965744099e-05 1.6425042516e+00 -2.8449008155e+00 1.6425042516e+00 2.8449008155e+00 
113700 5.7235590911e+00 6.8970527706e-05 1.6425042516e+00 -2.8449008155e+00 1.6425042516e+00 2.8449008155e+00 
113800 5.7235590912e+00 6.8975362652e-05 1.6425042516e+00 -2.8449008155e+00 1.6425042516e+00 2.8449008155e+00 
113900 5.7235590913e+00 6.8980247633e-05 1.6425042516e+00 -2.8449008155e+00 1.6425042516e+00 2.8449008155e+00 
114000 5.7235590913e+00 6.8985181302e-05 1.6425042516e+00 -2.8449008155e+00 1.6425042516e+00 2.8449008155e+00 
114100 5.7235590914e+00 6.8990162282e-05 1.6425042516e+00 -2.8449008155e+00 1.6425042516e+00 2.8449008155e+00 
114200 5.7235590915e+00 6.8995189159e-05 1.6425042516e+00 -2.8449008155e+00 1.6425042516e+00 2.8449008155e+00 
114300 5.7235590916e+00 6.9000260496e-05 1.6425042516e+00 -2.8449008155e+00 1.6425042516e+00 2.8449008155e+00 
114400 5.7235590916e+00 6.9005374829e-05 1.6425042516e+00 -2.8449008155e+00 1.6425042516e+00 2.8449008155e+00 
114500 5.7235590917e+00 6.9010530674e-05 1.6425042516e+00 -2.8449008155e+00 1.6425042516e+00 2.8449008155e+00 
114600 5.7235590918e+00 6.9015726523e-05 1.6425042516e+00 -2.8449008155e+00 1.6425042516e+00 2.8449008155e+00 
114700 5.7235590918e+00 6.9020960858e-05 1.6425042516e+00 -2.8449008155e+00 1.6425042516e+00 2.8449008155e+00 
114800 5.7235590919e+00 6.9026232144e-05 1.6425042516e+00 -2.8449008155e+00 1.6425042516e+00 2.8449008155e+00 
114900 5.7235590919e+00 6.9031538840e-05 1.6425042516e+00 -2.8449008155e+00 1.6425042516e+00 2.8449008155e+00 
115000 5.7235590920e+00 6.9036879388e-05 1.6425042516e+00 -2.8449008155e+00 1.6425042516e+00 2.8449008155e+00 
115100 5.7235590921e+00 6.9042252234e-05 1.6425042516e+00 -2.8449008155e+00 1.6425042516e+00 2.8449008155e+00 
115200 5.7235590921e+00 6.9047655815e-05 1.6425042516e+00 -2.8449008155e+00 1.6425042516e+00 2.8449008155e+00 
115300 5.7235590922e+00 6.9053088567e-05 1.6425042516e+00 -2.8449008155e+00 1.6425042516e+00 2.8449008155e+00 
115400 5.7235590923e+00 6.9058548930e-05 1.6425042516e+00 -2.8449008155e+00 1.6425042516e+00 2.8449008155e+00 
115500 5.7235590923e+00 6.9064035342e-05 1.6425042516e+00 -2.8449008155e+00 1.6425042516e+00 2.8449008155e+00 
115600 5.7235590924e+00 6.9069546250e-05 1.6425042516e+00 -2.8449008155e+00 1.6425042516e+00 2.8449008155e+00 
115700 5.7235590924e+00 6.9075080107e-05 1.6425042516e+00 -2.8449008155e+00 1.6425042516e+00 2.8449008155e+00 
115800 5.7235590925e+00 6.9080635368e-05 1.6425042516e+00 -2.8449008155e+00 1.6425042516e+00 2.8449008155e+00 
115900 5.7235590925e+00 6.9086210508e-05 1.6425042516e+00 -2.8449008155e+00 1.6425042516e+00 2.8449008155e+00 
116000 5.7235590926e+00 6.9091804007e-05 1.6425042516e+00 -2.8449008155e+00 1.6425042516e+00 2.8449008155e+00 
116100 5.7235590927e+00 6.9097414356e-05 1.6425042516e+00 -2.8449008155e+00 1.6425042516e+00 2.8449008155e+00 
116200 5.7235590927e+00 6.9103040064e-05 1.6425042516e+00 -2.8449008155e+00 1.6425042516e+00 2.8449008155e+00 
116300 5.7235590928e+00 6.9108679657e-05 1.6425042516e+00 -2.8449008155e+00 1.6425042516e+00 2.8449008155e+00 
116400 5.7235590928e+00 6.9114331672e-05 1.6425042516e+00 -2.8449008155e+00 1.6425042516e+00 2.8449008155e+00 
116500 5.7235590929e+00 6.9119994668e-05 1.6425042516e+00 -2.8449008155e+00 1.6425042516e+00 2.8449008155e+00 
116600 5.7235590929e+00 6.9125667219e-05 1.6425042516e+00 -2.8449008155e+00 1.6425042516e+00 2.8449008155e+00 
116700 5.7235590930e+00 6.9131347926e-05 1.6425042516e+00 -2.8449008155e+00 1.6425042516e+00 2.8449008155e+00 
116800 5.7235590930e+00 6.9137035401e-05 1.6425042516e+00 -2.8449008155e+00 1.6425042516e+00 2.8449008155e+00 
116900 5.7235590931e+00 6.9142728285e-05 1.6425042516e+00 -2.8449008155e+00 1.6425042516e+00 2.8449008155e+00 
117000 5.7235590931e+00 6.9148425239e-05 1.6425042516e+00 -2.8449008155e+00 1.6425042516e+00 2.8449008155e+00 
117100 5.7235590932e+00 6.9152414822e-05 1.6425042516e+00 -2.8449008155e+00 1.6425042516e+00 2.8449008155e+00 
117100 5.7235590932e+00 6.9152414822e-05 1.6425042516e+00 -2.8449008155e+00 1.6425042516e+00 2.8449008155e+00 
