# step Hamiltonian StressXX CellTensor1 CellTensor2 CellTensor3 CellTensor4 
0 6.6397397342e+00 1.6582409126e-01 1.8793944066e+00 -3.2552065997e+00 1.8793944066e+00 3.2552065997e+00 
100 6.6381040636e+00 1.7529520149e-01 1.8793944066e+00 -3.2552065997e+00 1.8793944066e+00 3.2552065997e+00 
200 6.6350150970e+00 1.8184973838e-01 1.8747327315e+00 -3.2471323415e+00 1.8747327315e+00 3.2471323415e+00 
300 6.6313645092e+00 1.8756401423e-01 1.8698848104e+00 -3.2387354959e+00 1.8698848104e+00 3.2387354959e+00 
400 6.6272397677e+00 1.9252387534e-01 1.8648716689e+00 -3.2300524802e+00 1.8648716689e+00 3.2300524802e+00 
500 6.6227152400e+00 1.9680204377e-01 1.8597122036e+00 -3.2211160241e+00 1.8597122036e+00 3.2211160241e+00 
600 6.6178543825e+00 2.0046019225e-01 1.8544235236e+00 -3.2119557617e+00 1.8544235236e+00 3.2119557617e+00 
700 6.6127115824e+00 2.0355074576e-01 1.8490212375e+00 -3.2025987276e+00 1.8490212375e+00 3.2025987276e+00 
800 6.6073336975e+00 2.0611843092e-01 1.8435196929e+00 -3.1930697729e+00 1.8435196929e+00 3.1930697729e+00 
900 6.6017613349e+00 2.0820159811e-01 1.8379321762e+00 -3.1833919101e+00 1.8379321762e+00 3.1833919101e+00 
1000 6.5960299092e+00 2.0983334282e-01 1.8322710770e+00 -3.1735865985e+00 1.8322710770e+00 3.1735865985e+00 
1100 6.5901705132e+00 2.1104245152e-01 1.8265480235e+00 -3.1636739791e+00 1.8265480235e+00 3.1636739791e+00 
1200 6.5842106322e+00 2.1185419610e-01 1.8207739938e+00 -3.1536730663e+00 1.8207739938e+00 3.1536730663e+00 
1300 6.5781747275e+00 2.1229099828e-01 1.8149594057e+00 -3.1436019043e+00 1.8149594057e+00 3.1436019043e+00 
1400 6.5720847117e+00 2.1237298319e-01 1.8091141890e+00 -3.1334776921e+00 1.8091141890e+00 3.1334776921e+00 
1500 6.5659603353e+00 2.1211843876e-01 1.8032478437e+00 -3.1233168839e+00 1.8032478437e+00 3.1233168839e+00 
1600 6.5598194981e+00 2.1154419527e-01 1.7973694850e+00 -3.1131352681e+00 1.7973694850e+00 3.1131352681e+00 
1700 6.5536785020e+00 2.1066593741e-01 1.7914878791e+00 -3.1029480278e+00 1.7914878791e+00 3.1029480278e+00 
1800 6.5475522529e+00 2.0949845922e-01 1.7856114697e+00 -3.0927697882e+00 1.7856114697e+00 3.0927697882e+00 
1900 6.5414544236e+00 2.0805587083e-01 1.7797483978e+00 -3.0826146497e+00 1.7797483978e+00 3.0826146497e+00 
2000 6.5353975833e+00 2.0635176440e-01 1.7739065155e+00 -3.0724962128e+00 1.7739065155e+00 3.0724962128e+00 
2100 6.5293933015e+00 2.0439934568e-01 1.7680933956e+00 -3.0624275936e+00 1.7680933956e+00 3.0624275936e+00 
2200 6.5234522298e+00 2.0221153640e-01 1.7623163362e+00 -3.0524214333e+00 1.7623163362e+00 3.0524214333e+00 
2300 6.5175841683e+00 1.9980105209e-01 1.7565823638e+00 -3.0424899018e+00 1.7565823638e+00 3.0424899018e+00 
2400 6.5117981175e+00 1.9718045913e-01 1.7508982327e+00 -3.0326446980e+00 1.7508982327e+00 3.0326446980e+00 
2500 6.5061023205e+00 1.9436221430e-01 1.7452704233e+00 -3.0228970462e+00 1.7452704233e+00 3.0228970462e+00 
2600 6.5005042978e+00 1.9135868965e-01 1.7397051387e+00 -3.0132576905e+00 1.7397051387e+00 3.0132576905e+00 
2700 6.4950108749e+00 1.8818218513e-01 1.7342083007e+00 -3.0037368878e+00 1.7342083007e+00 3.0037368878e+00 
2800 6.4896282071e+00 1.8484493098e-01 1.7287855452e+00 -2.9943443997e+00 1.7287855452e+00 2.9943443997e+00 
2900 6.4843618004e+00 1.8135908180e-01 1.7234422171e+00 -2.9850894840e+00 1.7234422171e+00 2.9850894840e+00 
3000 6.4792165308e+00 1.7773670390e-01 1.7181833660e+00 -2.9759808867e+00 1.7181833660e+00 2.9759808867e+00 
3100 6.4741966625e+00 1.7398975730e-01 1.7130137414e+00 -2.9670268341e+00 1.7130137414e+00 2.9670268341e+00 
3200 6.4693058662e+00 1.7013007361e-01 1.7079377887e+00 -2.9582350263e+00 1.7079377887e+00 2.9582350263e+00 
3300 6.4645472365e+00 1.6616933097e-01 1.7029596465e+00 -2.9496126310e+00 1.7029596465e+00 2.9496126310e+00 
3400 6.4599233111e+00 1.6211902694e-01 1.6980831434e+00 -2.9411662799e+00 1.6980831434e+00 2.9411662799e+00 
3500 6.4554360895e+00 1.5799045030e-01 1.6933117971e+00 -2.9329020656e+00 1.6933117971e+00 2.9329020656e+00 
3600 6.4510870538e+00 1.5379465241e-01 1.6886488134e+00 -2.9248255410e+00 1.6886488134e+00 2.9248255410e+00 
3700 6.4468771895e+00 1.4954241888e-01 1.6840970872e+00 -2.9169417199e+00 1.6840970872e+00 2.9169417199e+00 
3800 6.4428070082e+00 1.4524424212e-01 1.6796592035e+00 -2.9092550799e+00 1.6796592035e+00 2.9092550799e+00 
3900 6.4388765709e+00 1.4091029516e-01 1.6753374409e+00 -2.9017695674e+00 1.6753374409e+00 2.9017695674e+00 
4000 6.4350855118e+00 1.3655040735e-01 1.6711337745e+00 -2.8944886036e+00 1.6711337745e+00 2.8944886036e+00 
4100 6.4314330642e+00 1.3217404203e-01 1.6670498814e+00 -2.8874150934e+00 1.6670498814e+00 2.8874150934e+00 
4200 6.4279180855e+00 1.2779027674e-01 1.6630871466e+00 -2.8805514354e+00 1.6630871466e+00 2.8805514354e+00 
4300 6.4245390841e+00 1.2340778580e-01 1.6592466696e+00 -2.8738995340e+00 1.6592466696e+00 2.8738995340e+00 
4400 6.4212942456e+00 1.1903482581e-01 1.6555292722e+00 -2.8674608129e+00 1.6555292722e+00 2.8674608129e+00 
4500 6.4181814600e+00 1.1467922386e-01 1.6519355076e+00 -2.8612362299e+00 1.6519355076e+00 2.8612362299e+00 
4600 6.4151983481e+00 1.1034836857e-01 1.6484656694e+00 -2.8552262939e+00 1.6484656694e+00 2.8552262939e+00 
4700 6.4123422884e+00 1.0604920399e-01 1.6451198020e+00 -2.8494310815e+00 1.6451198020e+00 2.8494310815e+00 
4800 6.4096104435e+00 1.0178822633e-01 1.6418977112e+00 -2.8438502566e+00 1.6418977112e+00 2.8438502566e+00 
4900 6.4069997854e+00 9.7571483246e-02 1.6387989756e+00 -2.8384830891e+00 1.6387989756e+00 2.8384830891e+00 
5000 6.4045071212e+00 9.3404575826e-02 1.6358229580e+00 -2.8333284755e+00 1.6358229580e+00 2.8333284755e+00 
5100 6.4021291168e+00 8.9292662906e-02 1.6329688179e+00 -2.8283849598e+00 1.6329688179e+00 2.8283849598e+00 
5200 6.3998623209e+00 8.5240467668e-02 1.6302355231e+00 -2.8236507543e+00 1.6302355231e+00 2.8236507543e+00 
5300 6.3977031870e+00 8.1252286288e-02 1.6276218625e+00 -2.8191237613e+00 1.6276218625e+00 2.8191237613e+00 
5400 6.3956480950e+00 7.7331998437e-02 1.6251264583e+00 -2.8148015945e+00 1.6251264583e+00 2.8148015945e+00 
5500 6.3936933714e+00 7.3483079450e-02 1.6227477788e+00 -2.8106816007e+00 1.6227477788e+00 2.8106816007e+00 
5600 6.3918353081e+00 6.9708613925e-02 1.6204841501e+00 -2.8067608809e+00 1.6204841501e+00 2.8067608809e+00 
5700 6.3900701800e+00 6.6011310560e-02 1.6183337689e+00 -2.8030363114e+00 1.6183337689e+00 2.8030363114e+00 
5800 6.3883942622e+00 6.2393518013e-02 1.6162947140e+00 -2.7995045647e+00 1.6162947140e+00 2.7995045647e+00 
5900 6.3868038445e+00 5.8857241584e-02 1.6143649581e+00 -2.7961621294e+00 1.6143649581e+00 2.7961621294e+00 
6000 6.3852952456e+00 5.5404160524e-02 1.6125423792e+00 -2.7930053301e+00 1.6125423792e+00 2.7930053301e+00 
6100 6.3838648259e+00 5.2035645789e-02 1.6108247712e+00 -2.7900303458e+00 1.6108247712e+00 2.7900303458e+00 
6200 6.3825089990e+00 4.8752778063e-02 1.6092098550e+00 -2.7872332289e+00 1.6092098550e+00 2.7872332289e+00 
6300 6.3812242420e+00 4.5556365895e-02 1.6076952880e+00 -2.7846099219e+00 1.6076952880e+00 2.7846099219e+00 
6400 6.3800071045e+00 4.2446963795e-02 1.6062786741e+00 -2.7821562747e+00 1.6062786741e+00 2.7821562747e+00 
6500 6.3788542168e+00 3.9424890169e-02 1.6049575728e+00 -2.7798680600e+00 1.6049575728e+00 2.7798680600e+00 
6600 6.3777622969e+00 3.6490244961e-02 1.6037295073e+00 -2.7777409883e+00 1.6037295073e+00 2.7777409883e+00 
6700 6.3767281564e+00 3.3642926912e-02 1.6025919736e+00 -2.7757707221e+00 1.6025919736e+00 2.7757707221e+00 
6800 6.3757487057e+00 3.0882650330e-02 1.6015424472e+00 -2.7739528891e+00 1.6015424472e+00 2.7739528891e+00 
6900 6.3748209579e+00 2.8208961309e-02 1.6005783907e+00 -2.7722830941e+00 1.6005783907e+00 2.7722830941e+00 
7000 6.3739420322e+00 2.5621253331e-02 1.5996972601e+00 -2.7707569312e+00 1.5996972601e+00 2.7707569312e+00 
7100 6.3731091567e+00 2.3118782192e-02 1.5988965112e+00 -2.7693699935e+00 1.5988965112e+00 2.7693699935e+00 
7200 6.3723196698e+00 2.0700680218e-02 1.5981736052e+00 -2.7681178835e+00 1.5981736052e+00 2.7681178835e+00 
7300 6.3715710215e+00 1.8365969741e-02 1.5975260134e+00 -2.7669962216e+00 1.5975260134e+00 2.7669962216e+00 
7400 6.3708607740e+00 1.6113575823e-02 1.5969512225e+00 -2.7660006546e+00 1.5969512225e+00 2.7660006546e+00 
7500 6.3701866018e+00 1.3942338202e-02 1.5964467385e+00 -2.7651268627e+00 1.5964467385e+00 2.7651268627e+00 
7600 6.3695462906e+00 1.1851022472e-02 1.5960100906e+00 -2.7643705663e+00 1.5960100906e+00 2.7643705663e+00 
7700 6.3689377371e+00 9.8383304926e-03 1.5956388347e+00 -2.7637275323e+00 1.5956388347e+00 2.7637275323e+00 
7800 6.3683589468e+00 7.9029100478e-03 1.5953305565e+00 -2.7631935788e+00 1.5953305565e+00 2.7631935788e+00 
7900 6.3678080329e+00 6.0433637564e-03 1.5950828741e+00 -2.7627645803e+00 1.5950828741e+00 2.7627645803e+00 
8000 6.3672832137e+00 4.2582572684e-03 1.5948934406e+00 -2.7624364718e+00 1.5948934406e+00 2.7624364718e+00 
8100 6.3667828104e+00 2.5461267632e-03 1.5947599458e+00 -2.7622052521e+00 1.5947599458e+00 2.7622052521e+00 
8200 6.3663052445e+00 9.0548577828e-04 1.5946801186e+00 -2.7620669872e+00 1.5946801186e+00 2.7620669872e+00 
8300 6.3658490350e+00 -6.6516860125e-04 1.5946517279e+00 -2.7620178130e+00 1.5946517279e+00 2.7620178130e+00 
8400 6.3654127949e+00 -2.1673501614e-03 1.5946725841e+00 -2.7620539372e+00 1.5946725841e+00 2.7620539372e+00 
8500 6.3649952286e+00 -3.6025785543e-03 1.5947405406e+00 -2.7621716412e+00 1.5947405406e+00 2.7621716412e+00 
8600 6.3645951283e+00 -4.9723748355e-03 1.5948534938e+00 -2.7623672819e+00 1.5948534938e+00 2.7623672819e+00 
8700 6.3642113704e+00 -6.2782575109e-03 1.5950093845e+00 -2.7626372924e+00 1.5950093845e+00 2.7626372924e+00 
8800 6.3638429123e+00 -7.5217390583e-03 1.5952061979e+00 -2.7629781834e+00 1.5952061979e+00 2.7629781834e+00 
8900 6.3634887886e+00 -8.7043228908e-03 1.5954419645e+00 -2.7633865430e+00 1.5954419645e+00 2.7633865430e+00 
9000 6.3631481077e+00 -9.8275007302e-03 1.5957147594e+00 -2.7638590377e+00 1.5957147594e+00 2.7638590377e+00 
9100 6.3628200481e+00 -1.0892750356e-02 1.5960227035e+00 -2.7643924124e+00 1.5960227035e+00 2.7643924124e+00 
9200 6.3625038546e+00 -1.1901533703e-02 1.5963639623e+00 -2.7649834901e+00 1.5963639623e+00 2.7649834901e+00 
9300 6.3621988351e+00 -1.2855295271e-02 1.5967367469e+00 -2.7656291719e+00 1.5967367469e+00 2.7656291719e+00 
9400 6.3619043568e+00 -1.3755460822e-02 1.5971393128e+00 -2.7663264365e+00 1.5971393128e+00 2.7663264365e+00 
9500 6.3616198426e+00 -1.4603436344e-02 1.5975699602e+00 -2.7670723398e+00 1.5975699602e+00 2.7670723398e+00 
9600 6.3613447677e+00 -1.5400607239e-02 1.5980270336e+00 -2.7678640140e+00 1.5980270336e+00 2.7678640140e+00 
9700 6.3610786564e+00 -1.6148337726e-02 1.5985089209e+00 -2.7686986674e+00 1.5985089209e+00 2.7686986674e+00 
9800 6.3608210786e+00 -1.6847970427e-02 1.5990140538e+00 -2.7695735832e+00 1.5990140538e+00 2.7695735832e+00 
9900 6.3605716464e+00 -1.7500826121e-02 1.5995409064e+00 -2.7704861187e+00 1.5995409064e+00 2.7704861187e+00 
10000 6.3603300113e+00 -1.8108203637e-02 1.6000879954e+00 -2.7714337046e+00 1.6000879954e+00 2.7714337046e+00 
10100 6.3600958609e+00 -1.8671379873e-02 1.6006538790e+00 -2.7724138437e+00 1.6006538790e+00 2.7724138437e+00 
10200 6.3598689160e+00 -1.9191609928e-02 1.6012371566e+00 -2.7734241103e+00 1.6012371566e+00 2.7734241103e+00 
10300 6.3596489280e+00 -1.9670127316e-02 1.6018364685e+00 -2.7744621488e+00 1.6018364685e+00 2.7744621488e+00 
10400 6.3594356756e+00 -2.0108144265e-02 1.6024504944e+00 -2.7755256729e+00 1.6024504944e+00 2.7755256729e+00 
10500 6.3592289627e+00 -2.0506852075e-02 1.6030779539e+00 -2.7766124647e+00 1.6030779539e+00 2.7766124647e+00 
10600 6.3590286158e+00 -2.0867421524e-02 1.6037176051e+00 -2.7777203731e+00 1.6037176051e+00 2.7777203731e+00 
10700 6.3588344814e+00 -2.1191003320e-02 1.6043682444e+00 -2.7788473133e+00 1.6043682444e+00 2.7788473133e+00 
10800 6.3586464240e+00 -2.1478728574e-02 1.6050287055e+00 -2.7799912655e+00 1.6050287055e+00 2.7799912655e+00 
10900 6.3584643237e+00 -2.1731709301e-02 1.6056978592e+00 -2.7811502738e+00 1.6056978592e+00 2.7811502738e+00 
11000 6.3582880745e+00 -2.1951038926e-02 1.6063746128e+00 -2.7823224454e+00 1.6063746128e+00 2.7823224454e+00 
11100 6.3581175821e+00 -2.2137792798e-02 1.6070579090e+00 -2.7835059492e+00 1.6070579090e+00 2.7835059492e+00 
11200 6.3579527622e+00 -2.2293028701e-02 1.6077467260e+00 -2.7846990151e+00 1.6077467260e+00 2.7846990151e+00 
11300 6.3577935390e+00 -2.2417787360e-02 1.6084400762e+00 -2.7858999328e+00 1.6084400762e+00 2.7858999328e+00 
11400 6.3576398433e+00 -2.2513092926e-02 1.6091370062e+00 -2.7871070511e+00 1.6091370062e+00 2.7871070511e+00 
11500 6.3574916117e+00 -2.2579953458e-02 1.6098365962e+00 -2.7883187766e+00 1.6098365962e+00 2.7883187766e+00 
11600 6.3573487845e+00 -2.2619361373e-02 1.6105379591e+00 -2.7895335727e+00 1.6105379591e+00 2.7895335727e+00 
11700 6.3572113050e+00 -2.2632293874e-02 1.6112402401e+00 -2.7907499591e+00 1.6112402401e+00 2.7907499591e+00 
11800 6.3570791183e+00 -2.2619713362e-02 1.6119426164e+00 -2.7919665104e+00 1.6119426164e+00 2.7919665104e+00 
11900 6.3569521704e+00 -2.2582567809e-02 1.6126442962e+00 -2.7931818556e+00 1.6126442962e+00 2.7931818556e+00 
12000 6.3568304070e+00 -2.2521791106e-02 1.6133445189e+00 -2.7943946768e+00 1.6133445189e+00 2.7943946768e+00 
12100 6.3567137730e+00 -2.2438303381e-02 1.6140425537e+00 -2.7956037087e+00 1.6140425537e+00 2.7956037087e+00 
12200 6.3566022118e+00 -2.2333011289e-02 1.6147377000e+00 -2.7968077373e+00 1.6147377000e+00 2.7968077373e+00 
12300 6.3564956643e+00 -2.2206808264e-02 1.6154292862e+00 -2.7980055997e+00 1.6154292862e+00 2.7980055997e+00 
12400 6.3563940691e+00 -2.2060574743e-02 1.6161166695e+00 -2.7991961825e+00 1.6161166695e+00 2.7991961825e+00 
12500 6.3562973612e+00 -2.1895178359e-02 1.6167992355e+00 -2.8003784215e+00 1.6167992355e+00 2.8003784215e+00 
12600 6.3562054725e+00 -2.1711474107e-02 1.6174763977e+00 -2.8015513008e+00 1.6174763977e+00 2.8015513008e+00 
12700 6.3561183308e+00 -2.1510304467e-02 1.6181475968e+00 -2.8027138518e+00 1.6181475968e+00 2.8027138518e+00 
12800 6.3560358599e+00 -2.1292499516e-02 1.6188123006e+00 -2.8038651525e+00 1.6188123006e+00 2.8038651525e+00 
12900 6.3559579795e+00 -2.1058876994e-02 1.6194700032e+00 -2.8050043268e+00 1.6194700032e+00 2.8050043268e+00 
13000 6.3558846052e+00 -2.0810242356e-02 1.6201202247e+00 -2.8061305436e+00 1.6201202247e+00 2.8061305436e+00 
13100 6.3558156479e+00 -2.0547388792e-02 1.6207625109e+00 -2.8072430159e+00 1.6207625109e+00 2.8072430159e+00 
13200 6.3557510145e+00 -2.0271097222e-02 1.6213964325e+00 -2.8083410003e+00 1.6213964325e+00 2.8083410003e+00 
13300 6.3556906077e+00 -1.9982136272e-02 1.6220215850e+00 -2.8094237961e+00 1.6220215850e+00 2.8094237961e+00 
13400 6.3556343261e+00 -1.9681262227e-02 1.6226375879e+00 -2.8104907445e+00 1.6226375879e+00 2.8104907445e+00 
13500 6.3555820642e+00 -1.9369218961e-02 1.6232440846e+00 -2.8115412276e+00 1.6232440846e+00 2.8115412276e+00 
13600 6.3555337130e+00 -1.9046737856e-02 1.6238407418e+00 -2.8125746682e+00 1.6238407418e+00 2.8125746682e+00 
13700 6.3554891598e+00 -1.8714537698e-02 1.6244272489e+00 -2.8135905284e+00 1.6244272489e+00 2.8135905284e+00 
13800 6.3554482886e+00 -1.8373324563e-02 1.6250033179e+00 -2.8145883091e+00 1.6250033179e+00 2.8145883091e+00 
13900 6.3554109806e+00 -1.8023791687e-02 1.6255686826e+00 -2.8155675495e+00 1.6255686826e+00 2.8155675495e+00 
14000 6.3553771142e+00 -1.7666619330e-02 1.6261230983e+00 -2.8165278256e+00 1.6261230983e+00 2.8165278256e+00 
14100 6.3553465653e+00 -1.7302474623e-02 1.6266663414e+00 -2.8174687502e+00 1.6266663414e+00 2.8174687502e+00 
14200 6.3553192079e+00 -1.6932011417e-02 1.6271982088e+00 -2.8183899717e+00 1.6271982088e+00 2.8183899717e+00 
14300 6.3552949143e+00 -1.6555870116e-02 1.6277185177e+00 -2.8192911731e+00 1.6277185177e+00 2.8192911731e+00 
14400 6.3552735554e+00 -1.6174677516e-02 1.6282271048e+00 -2.8201720717e+00 1.6282271048e+00 2.8201720717e+00 
14500 6.3552550009e+00 -1.5789046634e-02 1.6287238260e+00 -2.8210324182e+00 1.6287238260e+00 2.8210324182e+00 
14600 6.3552391203e+00 -1.5399576538e-02 1.6292085561e+00 -2.8218719953e+00 1.6292085561e+00 2.8218719953e+00 
14700 6.3552257823e+00 -1.5006852182e-02 1.6296811881e+00 -2.8226906179e+00 1.6296811881e+00 2.8226906179e+00 
14800 6.3552148560e+00 -1.4611444236e-02 1.6301416327e+00 -2.8234881314e+00 1.6301416327e+00 2.8234881314e+00 
14900 6.3552062108e+00 -1.4213908925e-02 1.6305898181e+00 -2.8242644113e+00 1.6305898181e+00 2.8242644113e+00 
15000 6.3551997168e+00 -1.3814787872e-02 1.6310256893e+00 -2.8250193623e+00 1.6310256893e+00 2.8250193623e+00 
15100 6.3551952454e+00 -1.3414607945e-02 1.6314492076e+00 -2.8257529175e+00 1.6314492076e+00 2.8257529175e+00 
15200 6.3551926691e+00 -1.3013881110e-02 1.6318603504e+00 -2.8264650377e+00 1.6318603504e+00 2.8264650377e+00 
15300 6.3551918623e+00 -1.2613104303e-02 1.6322591103e+00 -2.8271557102e+00 1.6322591103e+00 2.8271557102e+00 
15400 6.3551927015e+00 -1.2212759297e-02 1.6326454951e+00 -2.8278249483e+00 1.6326454951e+00 2.8278249483e+00 
15500 6.3551950653e+00 -1.1813312592e-02 1.6330195269e+00 -2.8284727903e+00 1.6330195269e+00 2.8284727903e+00 
15600 6.3551988351e+00 -1.1415215306e-02 1.6333812417e+00 -2.8290992988e+00 1.6333812417e+00 2.8290992988e+00 
15700 6.3552038949e+00 -1.1018903091e-02 1.6337306893e+00 -2.8297045598e+00 1.6337306893e+00 2.8297045598e+00 
15800 6.3552101319e+00 -1.0624796050e-02 1.6340679322e+00 -2.8302886817e+00 1.6340679322e+00 2.8302886817e+00 
15900 6.3552174366e+00 -1.0233298675e-02 1.6343930457e+00 -2.8308517946e+00 1.6343930457e+00 2.8308517946e+00 
16000 6.3552257028e+00 -9.8447997998e-03 1.6347061168e+00 -2.8313940497e+00 1.6347061168e+00 2.8313940497e+00 
16100 6.3552348281e+00 -9.4596725647e-03 1.6350072444e+00 -2.8319156180e+00 1.6350072444e+00 2.8319156180e+00 
16200 6.3552447139e+00 -9.0782743982e-03 1.6352965382e+00 -2.8324166897e+00 1.6352965382e+00 2.8324166897e+00 
16300 6.3552552654e+00 -8.7009470155e-03 1.6355741188e+00 -2.8328974733e+00 1.6355741188e+00 2.8328974733e+00 
16400 6.3552663921e+00 -8.3280164329e-03 1.6358401166e+00 -2.8333581951e+00 1.6358401166e+00 2.8333581951e+00 
16500 6.3552780074e+00 -7.9597929986e-03 1.6360946718e+00 -2.8337990976e+00 1.6360946718e+00 2.8337990976e+00 
16600 6.3552900291e+00 -7.5965714406e-03 1.6363379337e+00 -2.8342204396e+00 1.6363379337e+00 2.8342204396e+00 
16700 6.3553023794e+00 -7.2386309308e-03 1.6365700603e+00 -2.8346224946e+00 1.6365700603e+00 2.8346224946e+00 
16800 6.3553149846e+00 -6.8862351674e-03 1.6367912178e+00 -2.8350055506e+00 1.6367912178e+00 2.8350055506e+00 
16900 6.3553277756e+00 -6.5396324725e-03 1.6370015801e+00 -2.8353699088e+00 1.6370015801e+00 2.8353699088e+00 
17000 6.3553406876e+00 -6.1990559076e-03 1.6372013284e+00 -2.8357158830e+00 1.6372013284e+00 2.8357158830e+00 
17100 6.3553536600e+00 -5.8647234056e-03 1.6373906507e+00 -2.8360437989e+00 1.6373906507e+00 2.8360437989e+00 
17200 6.3553666368e+00 -5.5368379185e-03 1.6375697415e+00 -2.8363539931e+00 1.6375697415e+00 2.8363539931e+00 
17300 6.3553795663e+00 -5.2155875823e-03 1.6377388009e+00 -2.8366468127e+00 1.6377388009e+00 2.8366468127e+00 
17400 6.3553924010e+00 -4.9011458967e-03 1.6378980349e+00 -2.8369226140e+00 1.6378980349e+00 2.8369226140e+00 
17500 6.3554050973e+00 -4.5936719207e-03 1.6380476541e+00 -2.8371817621e+00 1.6380476541e+00 2.8371817621e+00 
17600 6.3554176163e+00 -4.2933104830e-03 1.6381878740e+00 -2.8374246301e+00 1.6381878740e+00 2.8374246301e+00 
17700 6.3554299226e+00 -4.0001924072e-03 1.6383189141e+00 -2.8376515983e+00 1.6383189141e+00 2.8376515983e+00 
17800 6.3554419848e+00 -3.7144347504e-03 1.6384409979e+00 -2.8378630535e+00 1.6384409979e+00 2.8378630535e+00 
17900 6.3554537756e+00 -3.4361410557e-03 1.6385543519e+00 -2.8380593884e+00 1.6385543519e+00 2.8380593884e+00 
18000 6.3554652709e+00 -3.1654016174e-03 1.6386592058e+00 -2.8382410008e+00 1.6386592058e+00 2.8382410008e+00 
18100 6.3554764505e+00 -2.9022937582e-03 1.6387557919e+00 -2.8384082928e+00 1.6387557919e+00 2.8384082928e+00 
18200 6.3554872975e+00 -2.6468821183e-03 1.6388443444e+00 -2.8385616703e+00 1.6388443444e+00 2.8385616703e+00 
18300 6.3554977980e+00 -2.3992189549e-03 1.6389250996e+00 -2.8387015424e+00 1.6389250996e+00 2.8387015424e+00 
18400 6.3555079416e+00 -2.1593444525e-03 1.6389982951e+00 -2.8388283206e+00 1.6389982951e+00 2.8388283206e+00 
18500 6.3555177206e+00 -1.9272870420e-03 1.6390641694e+00 -2.8389424183e+00 1.6390641694e+00 2.8389424183e+00 
18600 6.3555271300e+00 -1.7030637287e-03 1.6391229621e+00 -2.8390442502e+00 1.6391229621e+00 2.8390442502e+00 
18700 6.3555361675e+00 -1.4866804287e-03 1.6391749128e+00 -2.8391342315e+00 1.6391749128e+00 2.8391342315e+00 
18800 6.3555448335e+00 -1.2781323119e-03 1.6392202614e+00 -2.8392127776e+00 1.6392202614e+00 2.8392127776e+00 
18900 6.3555531301e+00 -1.0774041520e-03 1.6392592476e+00 -2.8392803036e+00 1.6392592476e+00 2.8392803036e+00 
19000 6.3555610622e+00 -8.8447068148e-04 1.6392921102e+00 -2.8393372234e+00 1.6392921102e+00 2.8393372234e+00 
19100 6.3555686360e+00 -6.9929695227e-04 1.6393190875e+00 -2.8393839494e+00 1.6393190875e+00 2.8393839494e+00 
19200 6.3555758599e+00 -5.2183870019e-04 1.6393404164e+00 -2.8394208922e+00 1.6393404164e+00 2.8394208922e+00 
19300 6.3555827438e+00 -3.5204271274e-04 1.6393563326e+00 -2.8394484598e+00 1.6393563326e+00 2.8394484598e+00 
19400 6.3555892990e+00 -1.8984719975e-04 1.6393670698e+00 -2.8394670572e+00 1.6393670698e+00 2.8394670572e+00 
19500 6.3555955381e+00 -3.5182165786e-05 1.6393728601e+00 -2.8394770862e+00 1.6393728601e+00 2.8394770862e+00 
19600 6.3556014746e+00 1.1067835021e-04 1.6393728601e+00 -2.8394770862e+00 1.6393728601e+00 2.8394770862e+00 
19700 6.3556071235e+00 2.5056698298e-04 1.6393694845e+00 -2.8394712395e+00 1.6393694845e+00 2.8394712395e+00 
19800 6.3556125005e+00 3.8317912533e-04 1.6393618423e+00 -2.8394580028e+00 1.6393618423e+00 2.8394580028e+00 
19900 6.3556176218e+00 5.0861392282e-04 1.6393501555e+00 -2.8394377607e+00 1.6393501555e+00 2.8394377607e+00 
20000 6.3556225043e+00 6.2697685654e-04 1.6393346428e+00 -2.8394108920e+00 1.6393346428e+00 2.8394108920e+00 
20100 6.3556271652e+00 7.3837937401e-04 1.6393155199e+00 -2.8393777702e+00 1.6393155199e+00 2.8393777702e+00 
20200 6.3556316220e+00 8.4293852284e-04 1.6392929990e+00 -2.8393387628e+00 1.6392929990e+00 2.8393387628e+00 
20300 6.3556358925e+00 9.4077658779e-04 1.6392672887e+00 -2.8392942312e+00 1.6392672887e+00 2.8392942312e+00 
20400 6.3556399946e+00 1.0320207318e-03 1.6392385937e+00 -2.8392445301e+00 1.6392385937e+00 2.8392445301e+00 
20500 6.3556439459e+00 1.1168026412e-03 1.6392071152e+00 -2.8391900076e+00 1.6392071152e+00 2.8391900076e+00 
20600 6.3556477640e+00 1.1952581767e-03 1.6391730500e+00 -2.8391310049e+00 1.6391730500e+00 2.8391310049e+00 
20700 6.3556514664e+00 1.2675270287e-03 1.6391365909e+00 -2.8390678560e+00 1.6391365909e+00 2.8390678560e+00 
20800 6.3556550701e+00 1.3337523792e-03 1.6390979266e+00 -2.8390008874e+00 1.6390979266e+00 2.8390008874e+00 
20900 6.3556585917e+00 1.3940805702e-03 1.6390572412e+00 -2.8389304183e+00 1.6390572412e+00 2.8389304183e+00 
21000 6.3556620474e+00 1.4486607784e-03 1.6390147145e+00 -2.8388567598e+00 1.6390147145e+00 2.8388567598e+00 
21100 6.3556654529e+00 1.4976446973e-03 1.6389705216e+00 -2.8387802156e+00 1.6389705216e+00 2.8387802156e+00 
21200 6.3556688232e+00 1.5411862260e-03 1.6389248333e+00 -2.8387010810e+00 1.6389248333e+00 2.8387010810e+00 
21300 6.3556721727e+00 1.5794411671e-03 1.6388778153e+00 -2.8386196435e+00 1.6388778153e+00 2.8386196435e+00 
21400 6.3556755149e+00 1.6125669311e-03 1.6388296289e+00 -2.8385361821e+00 1.6388296289e+00 2.8385361821e+00 
21500 6.3556788630e+00 1.6407222504e-03 1.6387804304e+00 -2.8384509678e+00 1.6387804304e+00 2.8384509678e+00 
21600 6.3556822289e+00 1.6640669005e-03 1.6387303714e+00 -2.8383642631e+00 1.6387303714e+00 2.8383642631e+00 
21700 6.3556856241e+00 1.6827614308e-03 1.6386795986e+00 -2.8382763221e+00 1.6386795986e+00 2.8382763221e+00 
21800 6.3556890590e+00 1.6969669037e-03 1.6386282538e+00 -2.8381873903e+00 1.6386282538e+00 2.8381873903e+00 
21900 6.3556925434e+00 1.7068446434e-03 1.6385764740e+00 -2.8380977050e+00 1.6385764740e+00 2.8380977050e+00 
22000 6.3556960861e+00 1.7125559924e-03 1.6385243911e+00 -2.8380074948e+00 1.6385243911e+00 2.8380074948e+00 
22100 6.3556996949e+00 1.7142620787e-03 1.6384721323e+00 -2.8379169799e+00 1.6384721323e+00 2.8379169799e+00 
22200 6.3557033771e+00 1.7121235911e-03 1.6384198197e+00 -2.8378263719e+00 1.6384198197e+00 2.8378263719e+00 
22300 6.3557071388e+00 1.7063005643e-03 1.6383675708e+00 -2.8377358741e+00 1.6383675708e+00 2.8377358741e+00 
22400 6.3557109853e+00 1.6969521733e-03 1.6383154979e+00 -2.8376456811e+00 1.6383154979e+00 2.8376456811e+00 
22500 6.3557149213e+00 1.6842365367e-03 1.6382637086e+00 -2.8375559795e+00 1.6382637086e+00 2.8375559795e+00 
22600 6.3557189503e+00 1.6683105295e-03 1.6382123058e+00 -2.8374669472e+00 1.6382123058e+00 2.8374669472e+00 
22700 6.3557230754e+00 1.6493296053e-03 1.6381613874e+00 -2.8373787540e+00 1.6381613874e+00 2.8373787540e+00 
22800 6.3557272985e+00 1.6274476271e-03 1.6381110468e+00 -2.8372915615e+00 1.6381110468e+00 2.8372915615e+00 
22900 6.3557316210e+00 1.6028167078e-03 1.6380613725e+00 -2.8372055231e+00 1.6380613725e+00 2.8372055231e+00 
23000 6.3557360435e+00 1.5755870589e-03 1.6380124486e+00 -2.8371207843e+00 1.6380124486e+00 2.8371207843e+00 
23100 6.3557405658e+00 1.5459068491e-03 1.6379643543e+00 -2.8370374827e+00 1.6379643543e+00 2.8370374827e+00 
23200 6.3557451872e+00 1.5139220704e-03 1.6379171647e+00 -2.8369557478e+00 1.6379171647e+00 2.8369557478e+00 
23300 6.3557499062e+00 1.4797764140e-03 1.6378709500e+00 -2.8368757017e+00 1.6378709500e+00 2.8368757017e+00 
23400 6.3557547207e+00 1.4436111535e-03 1.6378257765e+00 -2.8367974588e+00 1.6378257765e+00 2.8367974588e+00 
23500 6.3557596282e+00 1.4055650376e-03 1.6377817057e+00 -2.8367211260e+00 1.6377817057e+00 2.8367211260e+00 
23600 6.3557646254e+00 1.3657741896e-03 1.6377387952e+00 -2.8366468029e+00 1.6377387952e+00 2.8366468029e+00 
23700 6.3557697086e+00 1.3243720157e-03 1.6376970985e+00 -2.8365745820e+00 1.6376970985e+00 2.8365745820e+00 
23800 6.3557748738e+00 1.2814891213e-03 1.6376566647e+00 -2.8365045485e+00 1.6376566647e+00 2.8365045485e+00 
23900 6.3557801163e+00 1.2372532336e-03 1.6376175391e+00 -2.8364367811e+00 1.6376175391e+00 2.8364367811e+00 
24000 6.3557854312e+00 1.1917891329e-03 1.6375797633e+00 -2.8363713514e+00 1.6375797633e+00 2.8363713514e+00 
24100 6.3557908133e+00 1.1452185904e-03 1.6375433747e+00 -2.8363083245e+00 1.6375433747e+00 2.8363083245e+00 
24200 6.3557962569e+00 1.0976603128e-03 1.6375084072e+00 -2.8362477591e+00 1.6375084072e+00 2.8362477591e+00 
24300 6.3558017562e+00 1.0492298941e-03 1.6374748911e+00 -2.8361897076e+00 1.6374748911e+00 2.8361897076e+00 
24400 6.3558073050e+00 1.0000397732e-03 1.6374428532e+00 -2.8361342162e+00 1.6374428532e+00 2.8361342162e+00 
24500 6.3558128971e+00 9.5019919898e-04 1.6374123167e+00 -2.8360813254e+00 1.6374123167e+00 2.8360813254e+00 
24600 6.3558185261e+00 8.9981419994e-04 1.6373833015e+00 -2.8360310696e+00 1.6373833015e+00 2.8360310696e+00 
24700 6.3558241853e+00 8.4898756089e-04 1.6373558244e+00 -2.8359834778e+00 1.6373558244e+00 2.8359834778e+00 
24800 6.3558298680e+00 7.9781880465e-04 1.6373298989e+00 -2.8359385736e+00 1.6373298989e+00 2.8359385736e+00 
24900 6.3558355677e+00 7.4640417939e-04 1.6373055355e+00 -2.8358963750e+00 1.6373055355e+00 2.8358963750e+00 
25000 6.3558412775e+00 6.9483665101e-04 1.6372827419e+00 -2.8358568953e+00 1.6372827419e+00 2.8358568953e+00 
25100 6.3558469907e+00 6.4320590065e-04 1.6372615227e+00 -2.8358201426e+00 1.6372615227e+00 2.8358201426e+00 
25200 6.3558527006e+00 5.9159832679e-04 1.6372418800e+00 -2.8357861205e+00 1.6372418800e+00 2.8357861205e+00 
25300 6.3558584006e+00 5.4009705199e-04 1.6372238131e+00 -2.8357548277e+00 1.6372238131e+00 2.8357548277e+00 
25400 6.3558640841e+00 4.8878193391e-04 1.6372073189e+00 -2.8357262588e+00 1.6372073189e+00 2.8357262588e+00 
25500 6.3558697447e+00 4.3772958046e-04 1.6371923916e+00 -2.8357004040e+00 1.6371923916e+00 2.8357004040e+00 
25600 6.3558753761e+00 3.8701336885e-04 1.6371790233e+00 -2.8356772495e+00 1.6371790233e+00 2.8356772495e+00 
25700 6.3558809722e+00 3.3670346833e-04 1.6371672038e+00 -2.8356567775e+00 1.6371672038e+00 2.8356567775e+00 
25800 6.3558865269e+00 2.8686686648e-04 1.6371569207e+00 -2.8356389666e+00 1.6371569207e+00 2.8356389666e+00 
25900 6.3558920346e+00 2.3756739880e-04 1.6371481596e+00 -2.8356237919e+00 1.6371481596e+00 2.8356237919e+00 
26000 6.3558974897e+00 1.8886578140e-04 1.6371409041e+00 -2.8356112250e+00 1.6371409041e+00 2.8356112250e+00 
26100 6.3559028867e+00 1.4081964663e-04 1.6371351359e+00 -2.8356012343e+00 1.6371351359e+00 2.8356012343e+00 
26200 6.3559082208e+00 9.3483581550e-05 1.6371308351e+00 -2.8355937851e+00 1.6371308351e+00 2.8355937851e+00 
26300 6.3559134869e+00 4.6909168845e-05 1.6371279800e+00 -2.8355888399e+00 1.6371279800e+00 2.8355888399e+00 
26400 6.3559186805e+00 2.9664050532e-06 1.6371279800e+00 -2.8355888399e+00 1.6371279800e+00 2.8355888399e+00 
26500 6.3559237972e+00 -4.1886405961e-05 1.6371279800e+00 -2.8355888399e+00 1.6371279800e+00 2.8355888399e+00 
26600 6.3559288333e+00 -8.7583586843e-05 1.6371279800e+00 -2.8355888399e+00 1.6371279800e+00 2.8355888399e+00 
26700 6.3559337848e+00 -1.3066010449e-04 1.6371306549e+00 -2.8355934730e+00 1.6371306549e+00 2.8355934730e+00 
26800 6.3559386482e+00 -1.7276035704e-04 1.6371346455e+00 -2.8356003848e+00 1.6371346455e+00 2.8356003848e+00 
26900 6.3559434203e+00 -2.1384980969e-04 1.6371399218e+00 -2.8356095236e+00 1.6371399218e+00 2.8356095236e+00 
27000 6.3559480984e+00 -2.5389658622e-04 1.6371464530e+00 -2.8356208360e+00 1.6371464530e+00 2.8356208360e+00 
27100 6.3559526797e+00 -2.9287141309e-04 1.6371542072e+00 -2.8356342667e+00 1.6371542072e+00 2.8356342667e+00 
27200 6.3559571619e+00 -3.3074756239e-04 1.6371631517e+00 -2.8356497591e+00 1.6371631517e+00 2.8356497591e+00 
27300 6.3559615431e+00 -3.6750079362e-04 1.6371732530e+00 -2.8356672550e+00 1.6371732530e+00 2.8356672550e+00 
27400 6.3559658215e+00 -4.0310929459e-04 1.6371844766e+00 -2.8356866949e+00 1.6371844766e+00 2.8356866949e+00 
27500 6.3559699956e+00 -4.3755362142e-04 1.6371967877e+00 -2.8357080183e+00 1.6371967877e+00 2.8357080183e+00 
27600 6.3559740642e+00 -4.7081663781e-04 1.6372101506e+00 -2.8357311636e+00 1.6372101506e+00 2.8357311636e+00 
27700 6.3559780264e+00 -5.0288345367e-04 1.6372245293e+00 -2.8357560681e+00 1.6372245293e+00 2.8357560681e+00 
27800 6.3559818815e+00 -5.3374136330e-04 1.6372398871e+00 -2.8357826686e+00 1.6372398871e+00 2.8357826686e+00 
27900 6.3559856292e+00 -5.6337978303e-04 1.6372561872e+00 -2.8358109012e+00 1.6372561872e+00 2.8358109012e+00 
28000 6.3559892692e+00 -5.9179018867e-04 1.6372733922e+00 -2.8358407012e+00 1.6372733922e+00 2.8358407012e+00 
28100 6.3559928017e+00 -6.1896605262e-04 1.6372914647e+00 -2.8358720036e+00 1.6372914647e+00 2.8358720036e+00 
28200 6.3559962269e+00 -6.4490278088e-04 1.6373103668e+00 -2.8359047431e+00 1.6373103668e+00 2.8359047431e+00 
28300 6.3559995455e+00 -6.6959764999e-04 1.6373300608e+00 -2.8359388541e+00 1.6373300608e+00 2.8359388541e+00 
28400 6.3560027580e+00 -6.9304974399e-04 1.6373505087e+00 -2.8359742709e+00 1.6373505087e+00 2.8359742709e+00 
28500 6.3560058655e+00 -7.1525989148e-04 1.6373716725e+00 -2.8360109277e+00 1.6373716725e+00 2.8360109277e+00 
28600 6.3560088691e+00 -7.3623060283e-04 1.6373935143e+00 -2.8360487587e+00 1.6373935143e+00 2.8360487587e+00 
28700 6.3560117701e+00 -7.5596600764e-04 1.6374159961e+00 -2.8360876984e+00 1.6374159961e+00 2.8360876984e+00 
28800 6.3560145699e+00 -7.7447179247e-04 1.6374390803e+00 -2.8361276814e+00 1.6374390803e+00 2.8361276814e+00 
28900 6.3560172702e+00 -7.9175513902e-04 1.6374627292e+00 -2.8361686425e+00 1.6374627292e+00 2.8361686425e+00 
29000 6.3560198727e+00 -8.0782466259e-04 1.6374869056e+00 -2.8362105172e+00 1.6374869056e+00 2.8362105172e+00 
29100 6.3560223794e+00 -8.2269035116e-04 1.6375115722e+00 -2.8362532411e+00 1.6375115722e+00 2.8362532411e+00 
29200 6.3560247923e+00 -8.3636350492e-04 1.6375366924e+00 -2.8362967505e+00 1.6375366924e+00 2.8362967505e+00 
29300 6.3560271135e+00 -8.4885667639e-04 1.6375622297e+00 -2.8363409825e+00 1.6375622297e+00 2.8363409825e+00 
29400 6.3560293452e+00 -8.6018361120e-04 1.6375881481e+00 -2.8363858744e+00 1.6375881481e+00 2.8363858744e+00 
29500 6.3560314897e+00 -8.7035918948e-04 1.6376144119e+00 -2.8364313646e+00 1.6376144119e+00 2.8364313646e+00 
29600 6.3560335495e+00 -8.7939936809e-04 1.6376409860e+00 -2.8364773923e+00 1.6376409860e+00 2.8364773923e+00 
29700 6.3560355271e+00 -8.8732112340e-04 1.6376678356e+00 -2.8365238972e+00 1.6376678356e+00 2.8365238972e+00 
29800 6.3560374249e+00 -8.9414239511e-04 1.6376949267e+00 -2.8365708204e+00 1.6376949267e+00 2.8365708204e+00 
29900 6.3560392456e+00 -8.9988203068e-04 1.6377222256e+00 -2.8366181034e+00 1.6377222256e+00 2.8366181034e+00 
30000 6.3560409917e+00 -9.0455973072e-04 1.6377496993e+00 -2.8366656892e+00 1.6377496993e+00 2.8366656892e+00 
30100 6.3560426658e+00 -9.0819599530e-04 1.6377773153e+00 -2.8367135215e+00 1.6377773153e+00 2.8367135215e+00 
30200 6.3560442707e+00 -9.1081207108e-04 1.6378050418e+00 -2.8367615453e+00 1.6378050418e+00 2.8367615453e+00 
30300 6.3560458091e+00 -9.1242989944e-04 1.6378328478e+00 -2.8368097067e+00 1.6378328478e+00 2.8368097067e+00 
30400 6.3560472835e+00 -9.1307206560e-04 1.6378607026e+00 -2.8368579527e+00 1.6378607026e+00 2.8368579527e+00 
30500 6.3560486967e+00 -9.1276174867e-04 1.6378885766e+00 -2.8369062319e+00 1.6378885766e+00 2.8369062319e+00 
30600 6.3560500513e+00 -9.1152267274e-04 1.6379164407e+00 -2.8369544939e+00 1.6379164407e+00 2.8369544939e+00 
30700 6.3560513499e+00 -9.0937905900e-04 1.6379442665e+00 -2.8370026895e+00 1.6379442665e+00 2.8370026895e+00 
30800 6.3560525951e+00 -9.0635557890e-04 1.6379720263e+00 -2.8370507709e+00 1.6379720263e+00 2.8370507709e+00 
30900 6.3560537896e+00 -9.0247730837e-04 1.6379996934e+00 -2.8370986917e+00 1.6379996934e+00 2.8370986917e+00 
31000 6.3560549358e+00 -8.9776968306e-04 1.6380272416e+00 -2.8371464067e+00 1.6380272416e+00 2.8371464067e+00 
31100 6.3560560363e+00 -8.9225845481e-04 1.6380546457e+00 -2.8371938719e+00 1.6380546457e+00 2.8371938719e+00 
31200 6.3560570934e+00 -8.8596964904e-04 1.6380818811e+00 -2.8372410450e+00 1.6380818811e+00 2.8372410450e+00 
31300 6.3560581096e+00 -8.7892952335e-04 1.6381089240e+00 -2.8372878848e+00 1.6381089240e+00 2.8372878848e+00 
31400 6.3560590872e+00 -8.7116452721e-04 1.6381357517e+00 -2.8373343516e+00 1.6381357517e+00 2.8373343516e+00 
31500 6.3560600284e+00 -8.6270126277e-04 1.6381623419e+00 -2.8373804072e+00 1.6381623419e+00 2.8373804072e+00 
31600 6.3560609354e+00 -8.5356644678e-04 1.6381886733e+00 -2.8374260146e+00 1.6381886733e+00 2.8374260146e+00 
31700 6.3560618104e+00 -8.4378687366e-04 1.6382147255e+00 -2.8374711383e+00 1.6382147255e+00 2.8374711383e+00 
31800 6.3560626554e+00 -8.3338937967e-04 1.6382404788e+00 -2.8375157444e+00 1.6382404788e+00 2.8375157444e+00 
31900 6.3560634724e+00 -8.2240080825e-04 1.6382659144e+00 -2.8375598001e+00 1.6382659144e+00 2.8375598001e+00 
32000 6.3560642633e+00 -8.1084797646e-04 1.6382910142e+00 -2.8376032742e+00 1.6382910142e+00 2.8376032742e+00 
32100 6.3560650300e+00 -7.9875764254e-04 1.6383157610e+00 -2.8376461369e+00 1.6383157610e+00 2.8376461369e+00 
32200 6.3560657741e+00 -7.8615647470e-04 1.6383401385e+00 -2.8376883600e+00 1.6383401385e+00 2.8376883600e+00 
32300 6.3560664973e+00 -7.7307102088e-04 1.6383641310e+00 -2.8377299162e+00 1.6383641310e+00 2.8377299162e+00 
32400 6.3560672013e+00 -7.5952767972e-04 1.6383877238e+00 -2.8377707802e+00 1.6383877238e+00 2.8377707802e+00 
32500 6.3560678875e+00 -7.4555267272e-04 1.6384109030e+00 -2.8378109277e+00 1.6384109030e+00 2.8378109277e+00 
32600 6.3560685573e+00 -7.3117201734e-04 1.6384336554e+00 -2.8378503360e+00 1.6384336554e+00 2.8378503360e+00 
32700 6.3560692122e+00 -7.1641150134e-04 1.6384559686e+00 -2.8378889835e+00 1.6384559686e+00 2.8378889835e+00 
32800 6.3560698533e+00 -7.0129665820e-04 1.6384778310e+00 -2.8379268504e+00 1.6384778310e+00 2.8379268504e+00 
32900 6.3560704819e+00 -6.8585274358e-04 1.6384992319e+00 -2.8379639179e+00 1.6384992319e+00 2.8379639179e+00 
33000 6.3560710990e+00 -6.7010471289e-04 1.6385201613e+00 -2.8380001685e+00 1.6385201613e+00 2.8380001685e+00 
33100 6.3560717058e+00 -6.5407719995e-04 1.6385406098e+00 -2.8380355864e+00 1.6385406098e+00 2.8380355864e+00 
33200 6.3560723031e+00 -6.3779449669e-04 1.6385605690e+00 -2.8380701567e+00 1.6385605690e+00 2.8380701567e+00 
33300 6.3560728919e+00 -6.2128053390e-04 1.6385800310e+00 -2.8381038660e+00 1.6385800310e+00 2.8381038660e+00 
33400 6.3560734729e+00 -6.0455886300e-04 1.6385989890e+00 -2.8381367021e+00 1.6385989890e+00 2.8381367021e+00 
33500 6.3560740469e+00 -5.8765263889e-04 1.6386174364e+00 -2.8381686541e+00 1.6386174364e+00 2.8381686541e+00 
33600 6.3560746146e+00 -5.7058460377e-04 1.6386353678e+00 -2.8381997122e+00 1.6386353678e+00 2.8381997122e+00 
33700 6.3560751765e+00 -5.5337707193e-04 1.6386527782e+00 -2.8382298678e+00 1.6386527782e+00 2.8382298678e+00 
33800 6.3560757333e+00 -5.3605191562e-04 1.6386696634e+00 -2.8382591138e+00 1.6386696634e+00 2.8382591138e+00 
33900 6.3560762854e+00 -5.1863055176e-04 1.6386860197e+00 -2.8382874438e+00 1.6386860197e+00 2.8382874438e+00 
34000 6.3560768333e+00 -5.0113392973e-04 1.6387018443e+00 -2.8383148528e+00 1.6387018443e+00 2.8383148528e+00 
34100 6.3560773773e+00 -4.8358251999e-04 1.6387171349e+00 -2.8383413369e+00 1.6387171349e+00 2.8383413369e+00 
34200 6.3560779177e+00 -4.6599630370e-04 1.6387318899e+00 -2.8383668932e+00 1.6387318899e+00 2.8383668932e+00 
34300 6.3560784548e+00 -4.4839476318e-04 1.6387461081e+00 -2.8383915199e+00 1.6387461081e+00 2.8383915199e+00 
34400 6.3560789888e+00 -4.3079687332e-04 1.6387597891e+00 -2.8384152162e+00 1.6387597891e+00 2.8384152162e+00 
34500 6.3560795200e+00 -4.1322109380e-04 1.6387729331e+00 -2.8384379823e+00 1.6387729331e+00 2.8384379823e+00 
34600 6.3560800483e+00 -3.9568536218e-04 1.6387855408e+00 -2.8384598194e+00 1.6387855408e+00 2.8384598194e+00 
34700 6.3560805740e+00 -3.7820708786e-04 1.6387976133e+00 -2.8384807296e+00 1.6387976133e+00 2.8384807296e+00 
34800 6.3560810971e+00 -3.6080314677e-04 1.6388091525e+00 -2.8385007160e+00 1.6388091525e+00 2.8385007160e+00 
34900 6.3560816176e+00 -3.4348987693e-04 1.6388201606e+00 -2.8385197826e+00 1.6388201606e+00 2.8385197826e+00 
35000 6.3560821355e+00 -3.2628307478e-04 1.6388306404e+00 -2.8385379342e+00 1.6388306404e+00 2.8385379342e+00 
35100 6.3560826507e+00 -3.0919799219e-04 1.6388405952e+00 -2.8385551763e+00 1.6388405952e+00 2.8385551763e+00 
35200 6.3560831632e+00 -2.9224933427e-04 1.6388500286e+00 -2.8385715155e+00 1.6388500286e+00 2.8385715155e+00 
35300 6.3560836730e+00 -2.7545125790e-04 1.6388589449e+00 -2.8385869590e+00 1.6388589449e+00 2.8385869590e+00 
35400 6.3560841798e+00 -2.5881737091e-04 1.6388673487e+00 -2.8386015148e+00 1.6388673487e+00 2.8386015148e+00 
35500 6.3560846836e+00 -2.4236073197e-04 1.6388752449e+00 -2.8386151914e+00 1.6388752449e+00 2.8386151914e+00 
35600 6.3560851842e+00 -2.2609385114e-04 1.6388826390e+00 -2.8386279984e+00 1.6388826390e+00 2.8386279984e+00 
35700 6.3560856814e+00 -2.1002869096e-04 1.6388895368e+00 -2.8386399458e+00 1.6388895368e+00 2.8386399458e+00 
35800 6.3560861751e+00 -1.9417666830e-04 1.6388959445e+00 -2.8386510442e+00 1.6388959445e+00 2.8386510442e+00 
35900 6.3560866652e+00 -1.7854865670e-04 1.6389018685e+00 -2.8386613049e+00 1.6389018685e+00 2.8386613049e+00 
36000 6.3560871513e+00 -1.6315498929e-04 1.6389073157e+00 -2.8386707397e+00 1.6389073157e+00 2.8386707397e+00 
36100 6.3560876333e+00 -1.4800546230e-04 1.6389122933e+00 -2.8386793611e+00 1.6389122933e+00 2.8386793611e+00 
36200 6.3560881110e+00 -1.3310933906e-04 1.6389168086e+00 -2.8386871819e+00 1.6389168086e+00 2.8386871819e+00 
36300 6.3560885842e+00 -1.1847535448e-04 1.6389208695e+00 -2.8386942156e+00 1.6389208695e+00 2.8386942156e+00 
36400 6.3560890527e+00 -1.0411172015e-04 1.6389244840e+00 -2.8387004760e+00 1.6389244840e+00 2.8387004760e+00 
36500 6.3560895163e+00 -9.0026129714e-05 1.6389276602e+00 -2.8387059774e+00 1.6389276602e+00 2.8387059774e+00 
36600 6.3560899747e+00 -7.6225764855e-05 1.6389304067e+00 -2.8387107344e+00 1.6389304067e+00 2.8387107344e+00 
36700 6.3560904278e+00 -6.2717301602e-05 1.6389327321e+00 -2.8387147623e+00 1.6389327321e+00 2.8387147623e+00 
36800 6.3560908754e+00 -5.1930534698e-05 1.6389327321e+00 -2.8387147623e+00 1.6389327321e+00 2.8387147623e+00 
36900 6.3560913172e+00 -4.0951851366e-05 1.6389327321e+00 -2.8387147623e+00 1.6389327321e+00 2.8387147623e+00 
37000 6.3560917530e+00 -2.9795285764e-05 1.6389327321e+00 -2.8387147623e+00 1.6389327321e+00 2.8387147623e+00 
37100 6.3560921826e+00 -1.8474598227e-05 1.6389327321e+00 -2.8387147623e+00 1.6389327321e+00 2.8387147623e+00 
37200 6.3560926060e+00 -7.0032731344e-06 1.6389327321e+00 -2.8387147623e+00 1.6389327321e+00 2.8387147623e+00 
37300 6.3560930229e+00 4.6054830058e-06 1.6389327321e+00 -2.8387147623e+00 1.6389327321e+00 2.8387147623e+00 
37400 6.3560934332e+00 1.6338743238e-05 1.6389327321e+00 -2.8387147623e+00 1.6389327321e+00 2.8387147623e+00 
37500 6.3560938368e+00 2.8183861599e-05 1.6389327321e+00 -2.8387147623e+00 1.6389327321e+00 2.8387147623e+00 
37600 6.3560942336e+00 4.0128474346e-05 1.6389327321e+00 -2.8387147623e+00 1.6389327321e+00 2.8387147623e+00 
37700 6.3560946234e+00 5.2160500960e-05 1.6389327321e+00 -2.8387147623e+00 1.6389327321e+00 2.8387147623e+00 
37800 6.3560950063e+00 6.4268144930e-05 1.6389327321e+00 -2.8387147623e+00 1.6389327321e+00 2.8387147623e+00 
37900 6.3560953820e+00 7.6439894328e-05 1.6389327321e+00 -2.8387147623e+00 1.6389327321e+00 2.8387147623e+00 
38000 6.3560957503e+00 8.5710395486e-05 1.6389304001e+00 -2.8387107231e+00 1.6389304001e+00 2.8387107231e+00 
38100 6.3560961113e+00 9.4646457001e-05 1.6389277853e+00 -2.8387061941e+00 1.6389277853e+00 2.8387061941e+00 
38200 6.3560964648e+00 1.0324788529e-04 1.6389248979e+00 -2.8387011929e+00 1.6389248979e+00 2.8387011929e+00 
38300 6.3560968108e+00 1.1151485472e-04 1.6389217480e+00 -2.8386957372e+00 1.6389217480e+00 2.8386957372e+00 
38400 6.3560971493e+00 1.1944789678e-04 1.6389183459e+00 -2.8386898446e+00 1.6389183459e+00 2.8386898446e+00 
38500 6.3560974803e+00 1.2704788917e-04 1.6389147018e+00 -2.8386835328e+00 1.6389147018e+00 2.8386835328e+00 
38600 6.3560978037e+00 1.3431604478e-04 1.6389108258e+00 -2.8386768194e+00 1.6389108258e+00 2.8386768194e+00 
38700 6.3560981196e+00 1.4125390065e-04 1.6389067281e+00 -2.8386697220e+00 1.6389067281e+00 2.8386697220e+00 
38800 6.3560984279e+00 1.4786330687e-04 1.6389024187e+00 -2.8386622579e+00 1.6389024187e+00 2.8386622579e+00 
38900 6.3560987287e+00 1.5414641553e-04 1.6388979077e+00 -2.8386544445e+00 1.6388979077e+00 2.8386544445e+00 
39000 6.3560990220e+00 1.6010566951e-04 1.6388932049e+00 -2.8386462991e+00 1.6388932049e+00 2.8386462991e+00 
39100 6.3560993079e+00 1.6574379141e-04 1.6388883204e+00 -2.8386378388e+00 1.6388883204e+00 2.8386378388e+00 
39200 6.3560995864e+00 1.7106377245e-04 1.6388832638e+00 -2.8386290806e+00 1.6388832638e+00 2.8386290806e+00 
39300 6.3560998576e+00 1.7606886136e-04 1.6388780449e+00 -2.8386200411e+00 1.6388780449e+00 2.8386200411e+00 
39400 6.3561001216e+00 1.8076255334e-04 1.6388726733e+00 -2.8386107372e+00 1.6388726733e+00 2.8386107372e+00 
39500 6.3561003783e+00 1.8514857910e-04 1.6388671584e+00 -2.8386011852e+00 1.6388671584e+00 2.8386011852e+00 
39600 6.3561006281e+00 1.8923089393e-04 1.6388615097e+00 -2.8385914014e+00 1.6388615097e+00 2.8385914014e+00 
39700 6.3561008708e+00 1.9301366678e-04 1.6388557365e+00 -2.8385814019e+00 1.6388557365e+00 2.8385814019e+00 
39800 6.3561011067e+00 1.9650126958e-04 1.6388498478e+00 -2.8385712024e+00 1.6388498478e+00 2.8385712024e+00 
39900 6.3561013358e+00 1.9969826649e-04 1.6388438527e+00 -2.8385608186e+00 1.6388438527e+00 2.8385608186e+00 
40000 6.3561015584e+00 2.0260940336e-04 1.6388377601e+00 -2.8385502658e+00 1.6388377601e+00 2.8385502658e+00 
40100 6.3561017744e+00 2.0523959725e-04 1.6388315786e+00 -2.8385395592e+00 1.6388315786e+00 2.8385395592e+00 
40200 6.3561019841e+00 2.0759392607e-04 1.6388253168e+00 -2.8385287135e+00 1.6388253168e+00 2.8385287135e+00 
40300 6.3561021875e+00 2.0967761839e-04 1.6388189832e+00 -2.8385177433e+00 1.6388189832e+00 2.8385177433e+00 
40400 6.3561023849e+00 2.1149604334e-04 1.6388125860e+00 -2.8385066630e+00 1.6388125860e+00 2.8385066630e+00 
40500 6.3561025763e+00 2.1305470068e-04 1.6388061333e+00 -2.8384954866e+00 1.6388061333e+00 2.8384954866e+00 
40600 6.3561027620e+00 2.1435921100e-04 1.6387996330e+00 -2.8384842278e+00 1.6387996330e+00 2.8384842278e+00 
40700 6.3561029420e+00 2.1541530612e-04 1.6387930929e+00 -2.8384728999e+00 1.6387930929e+00 2.8384728999e+00 
40800 6.3561031166e+00 2.1622881957e-04 1.6387865205e+00 -2.8384615162e+00 1.6387865205e+00 2.8384615162e+00 
40900 6.3561032859e+00 2.1680567736e-04 1.6387799233e+00 -2.8384500895e+00 1.6387799233e+00 2.8384500895e+00 
41000 6.3561034500e+00 2.1715188882e-04 1.6387733084e+00 -2.8384386323e+00 1.6387733084e+00 2.8384386323e+00 
41100 6.3561036091e+00 2.1727353764e-04 1.6387666830e+00 -2.8384271567e+00 1.6387666830e+00 2.8384271567e+00 
41200 6.3561037634e+00 2.1717677315e-04 1.6387600538e+00 -2.8384156746e+00 1.6387600538e+00 2.8384156746e+00 
41300 6.3561039131e+00 2.1686780174e-04 1.6387534276e+00 -2.8384041976e+00 1.6387534276e+00 2.8384041976e+00 
41400 6.3561040582e+00 2.1635287850e-04 1.6387468107e+00 -2.8383927369e+00 1.6387468107e+00 2.8383927369e+00 
41500 6.3561041990e+00 2.1563829900e-04 1.6387402096e+00 -2.8383813034e+00 1.6387402096e+00 2.8383813034e+00 
41600 6.3561043357e+00 2.1473039135e-04 1.6387336302e+00 -2.8383699075e+00 1.6387336302e+00 2.8383699075e+00 
41700 6.3561044683e+00 2.1363550841e-04 1.6387270785e+00 -2.8383585596e+00 1.6387270785e+00 2.8383585596e+00 
41800 6.3561045970e+00 2.1236002024e-04 1.6387205601e+00 -2.8383472695e+00 1.6387205601e+00 2.8383472695e+00 
41900 6.3561047221e+00 2.1091030669e-04 1.6387140807e+00 -2.8383360468e+00 1.6387140807e+00 2.8383360468e+00 
42000 6.3561048436e+00 2.0929275030e-04 1.6387076454e+00 -2.8383249007e+00 1.6387076454e+00 2.8383249007e+00 
42100 6.3561049617e+00 2.0751372935e-04 1.6387012595e+00 -2.8383138399e+00 1.6387012595e+00 2.8383138399e+00 
42200 6.3561050765e+00 2.0557961110e-04 1.6386949279e+00 -2.8383028732e+00 1.6386949279e+00 2.8383028732e+00 
42300 6.3561051883e+00 2.0349674532e-04 1.6386886552e+00 -2.8382920087e+00 1.6386886552e+00 2.8382920087e+00 
42400 6.3561052971e+00 2.0127145793e-04 1.6386824461e+00 -2.8382812541e+00 1.6386824461e+00 2.8382812541e+00 
42500 6.3561054030e+00 1.9891004499e-04 1.6386763048e+00 -2.8382706172e+00 1.6386763048e+00 2.8382706172e+00 
42600 6.3561055063e+00 1.9641876677e-04 1.6386702356e+00 -2.8382601049e+00 1.6386702356e+00 2.8382601049e+00 
42700 6.3561056069e+00 1.9380384213e-04 1.6386642424e+00 -2.8382497244e+00 1.6386642424e+00 2.8382497244e+00 
42800 6.3561057052e+00 1.9107144306e-04 1.6386583289e+00 -2.8382394819e+00 1.6386583289e+00 2.8382394819e+00 
42900 6.3561058011e+00 1.8822768946e-04 1.6386524988e+00 -2.8382293839e+00 1.6386524988e+00 2.8382293839e+00 
43000 6.3561058949e+00 1.8527864414e-04 1.6386467554e+00 -2.8382194361e+00 1.6386467554e+00 2.8382194361e+00 
43100 6.3561059865e+00 1.8223030799e-04 1.6386411020e+00 -2.8382096441e+00 1.6386411020e+00 2.8382096441e+00 
43200 6.3561060762e+00 1.7908861542e-04 1.6386355416e+00 -2.8382000132e+00 1.6386355416e+00 2.8382000132e+00 
43300 6.3561061640e+00 1.7585942997e-04 1.6386300771e+00 -2.8381905483e+00 1.6386300771e+00 2.8381905483e+00 
43400 6.3561062501e+00 1.7254854015e-04 1.6386247110e+00 -2.8381812540e+00 1.6386247110e+00 2.8381812540e+00 
43500 6.3561063344e+00 1.6916165543e-04 1.6386194460e+00 -2.8381721347e+00 1.6386194460e+00 2.8381721347e+00 
43600 6.3561064172e+00 1.6570440255e-04 1.6386142843e+00 -2.8381631944e+00 1.6386142843e+00 2.8381631944e+00 
43700 6.3561064985e+00 1.6218232189e-04 1.6386092280e+00 -2.8381544367e+00 1.6386092280e+00 2.8381544367e+00 
43800 6.3561065784e+00 1.5860086417e-04 1.6386042793e+00 -2.8381458652e+00 1.6386042793e+00 2.8381458652e+00 
43900 6.3561066569e+00 1.5496538727e-04 1.6385994398e+00 -2.8381374829e+00 1.6385994398e+00 2.8381374829e+00 
44000 6.3561067342e+00 1.5128115321e-04 1.6385947112e+00 -2.8381292928e+00 1.6385947112e+00 2.8381292928e+00 
44100 6.3561068103e+00 1.4755332547e-04 1.6385900950e+00 -2.8381212973e+00 1.6385900950e+00 2.8381212973e+00 
44200 6.3561068853e+00 1.4378696632e-04 1.6385855925e+00 -2.8381134988e+00 1.6385855925e+00 2.8381134988e+00 
44300 6.3561069592e+00 1.3998703448e-04 1.6385812050e+00 -2.8381058994e+00 1.6385812050e+00 2.8381058994e+00 
44400 6.3561070321e+00 1.3615838284e-04 1.6385769334e+00 -2.8380985008e+00 1.6385769334e+00 2.8380985008e+00 
44500 6.3561071041e+00 1.3230575647e-04 1.6385727786e+00 -2.8380913045e+00 1.6385727786e+00 2.8380913045e+00 
44600 6.3561071751e+00 1.2843379075e-04 1.6385687414e+00 -2.8380843118e+00 1.6385687414e+00 2.8380843118e+00 
44700 6.3561072453e+00 1.2454700968e-04 1.6385648223e+00 -2.8380775238e+00 1.6385648223e+00 2.8380775238e+00 
44800 6.3561073146e+00 1.2064982431e-04 1.6385610218e+00 -2.8380709411e+00 1.6385610218e+00 2.8380709411e+00 
44900 6.3561073832e+00 1.1674653147e-04 1.6385573403e+00 -2.8380645645e+00 1.6385573403e+00 2.8380645645e+00 
45000 6.3561074510e+00 1.1284131250e-04 1.6385537778e+00 -2.8380583941e+00 1.6385537778e+00 2.8380583941e+00 
45100 6.3561075182e+00 1.0893823228e-04 1.6385503345e+00 -2.8380524301e+00 1.6385503345e+00 2.8380524301e+00 
45200 6.3561075846e+00 1.0504123828e-04 1.6385470102e+00 -2.8380466723e+00 1.6385470102e+00 2.8380466723e+00 
45300 6.3561076503e+00 1.0115415990e-04 1.6385438049e+00 -2.8380411206e+00 1.6385438049e+00 2.8380411206e+00 
45400 6.3561077155e+00 9.7280707811e-05 1.6385407182e+00 -2.8380357742e+00 1.6385407182e+00 2.8380357742e+00 
45500 6.3561077800e+00 9.3424473587e-05 1.6385377497e+00 -2.8380306326e+00 1.6385377497e+00 2.8380306326e+00 
45600 6.3561078439e+00 8.9588929351e-05 1.6385348989e+00 -2.8380256948e+00 1.6385348989e+00 2.8380256948e+00 
45700 6.3561079072e+00 8.5777427639e-05 1.6385321650e+00 -2.8380209597e+00 1.6385321650e+00 2.8380209597e+00 
45800 6.3561079699e+00 8.1993201340e-05 1.6385295475e+00 -2.8380164260e+00 1.6385295475e+00 2.8380164260e+00 
45900 6.3561080321e+00 7.8239363795e-05 1.6385270455e+00 -2.8380120924e+00 1.6385270455e+00 2.8380120924e+00 
46000 6.3561080937e+00 7.4518909018e-05 1.6385246580e+00 -2.8380079571e+00 1.6385246580e+00 2.8380079571e+00 
46100 6.3561081547e+00 7.0834712012e-05 1.6385223841e+00 -2.8380040185e+00 1.6385223841e+00 2.8380040185e+00 
46200 6.3561082152e+00 6.7189529229e-05 1.6385202225e+00 -2.8380002746e+00 1.6385202225e+00 2.8380002746e+00 
46300 6.3561082754e+00 6.6184335670e-05 1.6385202225e+00 -2.8380002746e+00 1.6385202225e+00 2.8380002746e+00 
46400 6.3561083349e+00 6.5099879839e-05 1.6385202225e+00 -2.8380002746e+00 1.6385202225e+00 2.8380002746e+00 
46500 6.3561083939e+00 6.3939643327e-05 1.6385202225e+00 -2.8380002746e+00 1.6385202225e+00 2.8380002746e+00 
46600 6.3561084523e+00 6.2707059062e-05 1.6385202225e+00 -2.8380002746e+00 1.6385202225e+00 2.8380002746e+00 
46700 6.3561085102e+00 6.1405510647e-05 1.6385202225e+00 -2.8380002746e+00 1.6385202225e+00 2.8380002746e+00 
46800 6.3561085675e+00 6.0038331725e-05 1.6385202225e+00 -2.8380002746e+00 1.6385202225e+00 2.8380002746e+00 
46900 6.3561086242e+00 5.8608805386e-05 1.6385202225e+00 -2.8380002746e+00 1.6385202225e+00 2.8380002746e+00 
47000 6.3561086803e+00 5.7120163607e-05 1.6385202225e+00 -2.8380002746e+00 1.6385202225e+00 2.8380002746e+00 
47100 6.3561087359e+00 5.5575586731e-05 1.6385202225e+00 -2.8380002746e+00 1.6385202225e+00 2.8380002746e+00 
47200 6.3561087909e+00 5.3978202979e-05 1.6385202225e+00 -2.8380002746e+00 1.6385202225e+00 2.8380002746e+00 
47300 6.3561088453e+00 5.2331088008e-05 1.6385202225e+00 -2.8380002746e+00 1.6385202225e+00 2.8380002746e+00 
47400 6.3561088991e+00 5.0637264473e-05 1.6385202225e+00 -2.8380002746e+00 1.6385202225e+00 2.8380002746e+00 
47500 6.3561089522e+00 4.8899701664e-05 1.6385202225e+00 -2.8380002746e+00 1.6385202225e+00 2.8380002746e+00 
47600 6.3561090048e+00 4.7121315144e-05 1.6385202225e+00 -2.8380002746e+00 1.6385202225e+00 2.8380002746e+00 
47700 6.3561090568e+00 4.5304966436e-05 1.6385202225e+00 -2.8380002746e+00 1.6385202225e+00 2.8380002746e+00 
47800 6.3561091082e+00 4.3453462729e-05 1.6385202225e+00 -2.8380002746e+00 1.6385202225e+00 2.8380002746e+00 
47900 6.3561091590e+00 4.1569556638e-05 1.6385202225e+00 -2.8380002746e+00 1.6385202225e+00 2.8380002746e+00 
48000 6.3561092091e+00 3.9655945969e-05 1.6385202225e+00 -2.8380002746e+00 1.6385202225e+00 2.8380002746e+00 
48100 6.3561092586e+00 3.7715273530e-05 1.6385202225e+00 -2.8380002746e+00 1.6385202225e+00 2.8380002746e+00 
48200 6.3561093074e+00 3.5750126971e-05 1.6385202225e+00 -2.8380002746e+00 1.6385202225e+00 2.8380002746e+00 
48300 6.3561093557e+00 3.3763038650e-05 1.6385202225e+00 -2.8380002746e+00 1.6385202225e+00 2.8380002746e+00 
48400 6.3561094033e+00 3.1756485529e-05 1.6385202225e+00 -2.8380002746e+00 1.6385202225e+00 2.8380002746e+00 
48500 6.3561094502e+00 2.9732889101e-05 1.6385202225e+00 -2.8380002746e+00 1.6385202225e+00 2.8380002746e+00 
48600 6.3561094965e+00 2.7694615343e-05 1.6385202225e+00 -2.8380002746e+00 1.6385202225e+00 2.8380002746e+00 
48700 6.3561095421e+00 2.5643974694e-05 1.6385202225e+00 -2.8380002746e+00 1.6385202225e+00 2.8380002746e+00 
48800 6.3561095871e+00 2.3583222076e-05 1.6385202225e+00 -2.8380002746e+00 1.6385202225e+00 2.8380002746e+00 
48900 6.3561096315e+00 2.1514556913e-05 1.6385202225e+00 -2.8380002746e+00 1.6385202225e+00 2.8380002746e+00 
49000 6.3561096751e+00 1.9440123206e-05 1.6385202225e+00 -2.8380002746e+00 1.6385202225e+00 2.8380002746e+00 
49100 6.3561097182e+00 1.7362009614e-05 1.6385202225e+00 -2.8380002746e+00 1.6385202225e+00 2.8380002746e+00 
49200 6.3561097605e+00 1.5282249577e-05 1.6385202225e+00 -2.8380002746e+00 1.6385202225e+00 2.8380002746e+00 
49300 6.3561098022e+00 1.3202821439e-05 1.6385202225e+00 -2.8380002746e+00 1.6385202225e+00 2.8380002746e+00 
49400 6.3561098433e+00 1.1125648629e-05 1.6385202225e+00 -2.8380002746e+00 1.6385202225e+00 2.8380002746e+00 
49500 6.3561098837e+00 9.0525998352e-06 1.6385202225e+00 -2.8380002746e+00 1.6385202225e+00 2.8380002746e+00 
49600 6.3561099234e+00 6.9854892271e-06 1.6385202225e+00 -2.8380002746e+00 1.6385202225e+00 2.8380002746e+00 
49700 6.3561099625e+00 4.9260766804e-06 1.6385202225e+00 -2.8380002746e+00 1.6385202225e+00 2.8380002746e+00 
49800 6.3561100009e+00 2.8760680403e-06 1.6385202225e+00 -2.8380002746e+00 1.6385202225e+00 2.8380002746e+00 
49900 6.3561100387e+00 8.3711540307e-07 1.6385202225e+00 -2.8380002746e+00 1.6385202225e+00 2.8380002746e+00 
50000 6.3561100759e+00 -1.1891825858e-06 1.6385202225e+00 -2.8380002746e+00 1.6385202225e+00 2.8380002746e+00 
50100 6.3561101124e+00 -3.2012804119e-06 1.6385202225e+00 -2.8380002746e+00 1.6385202225e+00 2.8380002746e+00 
50200 6.3561101482e+00 -5.1976853385e-06 1.6385202225e+00 -2.8380002746e+00 1.6385202225e+00 2.8380002746e+00 
50300 6.3561101835e+00 -7.1769570487e-06 1.6385202225e+00 -2.8380002746e+00 1.6385202225e+00 2.8380002746e+00 
50400 6.3561102181e+00 -9.1377072575e-06 1.6385202225e+00 -2.8380002746e+00 1.6385202225e+00 2.8380002746e+00 
50500 6.3561102521e+00 -1.1078599306e-05 1.6385202225e+00 -2.8380002746e+00 1.6385202225e+00 2.8380002746e+00 
50600 6.3561102855e+00 -1.2998347744e-05 1.6385202225e+00 -2.8380002746e+00 1.6385202225e+00 2.8380002746e+00 
50700 6.3561103183e+00 -1.4895717882e-05 1.6385202225e+00 -2.8380002746e+00 1.6385202225e+00 2.8380002746e+00 
50800 6.3561103504e+00 -1.6769525333e-05 1.6385202225e+00 -2.8380002746e+00 1.6385202225e+00 2.8380002746e+00 
50900 6.3561103820e+00 -1.8618635533e-05 1.6385202225e+00 -2.8380002746e+00 1.6385202225e+00 2.8380002746e+00 
51000 6.3561104131e+00 -2.0441963246e-05 1.6385202225e+00 -2.8380002746e+00 1.6385202225e+00 2.8380002746e+00 
51100 6.3561104435e+00 -2.2238472054e-05 1.6385202225e+00 -2.8380002746e+00 1.6385202225e+00 2.8380002746e+00 
51200 6.3561104734e+00 -2.4007173821e-05 1.6385202225e+00 -2.8380002746e+00 1.6385202225e+00 2.8380002746e+00 
51300 6.3561105027e+00 -2.5747128168e-05 1.6385202225e+00 -2.8380002746e+00 1.6385202225e+00 2.8380002746e+00 
51400 6.3561105314e+00 -2.7457441886e-05 1.6385202225e+00 -2.8380002746e+00 1.6385202225e+00 2.8380002746e+00 
51500 6.3561105597e+00 -2.9137268384e-05 1.6385202225e+00 -2.8380002746e+00 1.6385202225e+00 2.8380002746e+00 
51600 6.3561105874e+00 -3.0785807089e-05 1.6385202225e+00 -2.8380002746e+00 1.6385202225e+00 2.8380002746e+00 
51700 6.3561106145e+00 -3.2402302850e-05 1.6385202225e+00 -2.8380002746e+00 1.6385202225e+00 2.8380002746e+00 
51800 6.3561106412e+00 -3.3986045316e-05 1.6385202225e+00 -2.8380002746e+00 1.6385202225e+00 2.8380002746e+00 
51900 6.3561106674e+00 -3.5536368315e-05 1.6385202225e+00 -2.8380002746e+00 1.6385202225e+00 2.8380002746e+00 
52000 6.3561106930e+00 -3.7052649207e-05 1.6385202225e+00 -2.8380002746e+00 1.6385202225e+00 2.8380002746e+00 
52100 6.3561107182e+00 -3.8534308236e-05 1.6385202225e+00 -2.8380002746e+00 1.6385202225e+00 2.8380002746e+00 
52200 6.3561107429e+00 -3.9980807862e-05 1.6385202225e+00 -2.8380002746e+00 1.6385202225e+00 2.8380002746e+00 
52300 6.3561107672e+00 -4.1391652091e-05 1.6385202225e+00 -2.8380002746e+00 1.6385202225e+00 2.8380002746e+00 
52400 6.3561107910e+00 -4.2766385785e-05 1.6385202225e+00 -2.8380002746e+00 1.6385202225e+00 2.8380002746e+00 
52500 6.3561108143e+00 -4.4104593973e-05 1.6385202225e+00 -2.8380002746e+00 1.6385202225e+00 2.8380002746e+00 
52600 6.3561108372e+00 -4.5405901146e-05 1.6385202225e+00 -2.8380002746e+00 1.6385202225e+00 2.8380002746e+00 
52700 6.3561108597e+00 -4.6669970540e-05 1.6385202225e+00 -2.8380002746e+00 1.6385202225e+00 2.8380002746e+00 
52800 6.3561108818e+00 -4.7896503424e-05 1.6385202225e+00 -2.8380002746e+00 1.6385202225e+00 2.8380002746e+00 
52900 6.3561109035e+00 -4.9085238360e-05 1.6385202225e+00 -2.8380002746e+00 1.6385202225e+00 2.8380002746e+00 
53000 6.3561109248e+00 -5.0235950481e-05 1.6385202225e+00 -2.8380002746e+00 1.6385202225e+00 2.8380002746e+00 
53100 6.3561109457e+00 -5.1348450738e-05 1.6385202225e+00 -2.8380002746e+00 1.6385202225e+00 2.8380002746e+00 
53200 6.3561109662e+00 -5.2422585153e-05 1.6385202225e+00 -2.8380002746e+00 1.6385202225e+00 2.8380002746e+00 
53300 6.3561109864e+00 -5.3458234074e-05 1.6385202225e+00 -2.8380002746e+00 1.6385202225e+00 2.8380002746e+00 
53400 6.3561110062e+00 -5.4455311405e-05 1.6385202225e+00 -2.8380002746e+00 1.6385202225e+00 2.8380002746e+00 
53500 6.3561110257e+00 -5.5413763853e-05 1.6385202225e+00 -2.8380002746e+00 1.6385202225e+00 2.8380002746e+00 
53600 6.3561110448e+00 -5.6333570146e-05 1.6385202225e+00 -2.8380002746e+00 1.6385202225e+00 2.8380002746e+00 
53700 6.3561110636e+00 -5.7214740274e-05 1.6385202225e+00 -2.8380002746e+00 1.6385202225e+00 2.8380002746e+00 
53800 6.3561110821e+00 -5.8057314713e-05 1.6385202225e+00 -2.8380002746e+00 1.6385202225e+00 2.8380002746e+00 
53900 6.3561111003e+00 -5.8861363637e-05 1.6385202225e+00 -2.8380002746e+00 1.6385202225e+00 2.8380002746e+00 
54000 6.3561111181e+00 -5.9626986153e-05 1.6385202225e+00 -2.8380002746e+00 1.6385202225e+00 2.8380002746e+00 
54100 6.3561111357e+00 -6.0354309511e-05 1.6385202225e+00 -2.8380002746e+00 1.6385202225e+00 2.8380002746e+00 
54200 6.3561111530e+00 -6.1043488324e-05 1.6385202225e+00 -2.8380002746e+00 1.6385202225e+00 2.8380002746e+00 
54300 6.3561111700e+00 -6.1694703785e-05 1.6385202225e+00 -2.8380002746e+00 1.6385202225e+00 2.8380002746e+00 
54400 6.3561111867e+00 -6.2308162886e-05 1.6385202225e+00 -2.8380002746e+00 1.6385202225e+00 2.8380002746e+00 
54500 6.3561112032e+00 -6.2884097630e-05 1.6385202225e+00 -2.8380002746e+00 1.6385202225e+00 2.8380002746e+00 
54600 6.3561112194e+00 -6.3422764255e-05 1.6385202225e+00 -2.8380002746e+00 1.6385202225e+00 2.8380002746e+00 
54700 6.3561112353e+00 -6.3924442450e-05 1.6385202225e+00 -2.8380002746e+00 1.6385202225e+00 2.8380002746e+00 
54800 6.3561112510e+00 -6.4389434570e-05 1.6385202225e+00 -2.8380002746e+00 1.6385202225e+00 2.8380002746e+00 
54900 6.3561112665e+00 -6.4818064873e-05 1.6385202225e+00 -2.8380002746e+00 1.6385202225e+00 2.8380002746e+00 
55000 6.3561112818e+00 -6.5210678728e-05 1.6385202225e+00 -2.8380002746e+00 1.6385202225e+00 2.8380002746e+00 
55100 6.3561112968e+00 -6.5567641857e-05 1.6385202225e+00 -2.8380002746e+00 1.6385202225e+00 2.8380002746e+00 
55200 6.3561113116e+00 -6.5889339558e-05 1.6385202225e+00 -2.8380002746e+00 1.6385202225e+00 2.8380002746e+00 
55300 6.3561113261e+00 -6.6176175947e-05 1.6385202225e+00 -2.8380002746e+00 1.6385202225e+00 2.8380002746e+00 
55400 6.3561113405e+00 -6.6428573186e-05 1.6385202225e+00 -2.8380002746e+00 1.6385202225e+00 2.8380002746e+00 
55500 6.3561113547e+00 -6.6646970740e-05 1.6385202225e+00 -2.8380002746e+00 1.6385202225e+00 2.8380002746e+00 
55600 6.3561113686e+00 -6.6831824621e-05 1.6385202225e+00 -2.8380002746e+00 1.6385202225e+00 2.8380002746e+00 
55700 6.3561113824e+00 -6.6983606639e-05 1.6385202225e+00 -2.8380002746e+00 1.6385202225e+00 2.8380002746e+00 
55800 6.3561113960e+00 -6.7102803666e-05 1.6385202225e+00 -2.8380002746e+00 1.6385202225e+00 2.8380002746e+00 
55900 6.3561114094e+00 -6.7189916902e-05 1.6385202225e+00 -2.8380002746e+00 1.6385202225e+00 2.8380002746e+00 
56000 6.3561114226e+00 -6.7245461146e-05 1.6385202225e+00 -2.8380002746e+00 1.6385202225e+00 2.8380002746e+00 
56100 6.3561114356e+00 -6.7269964074e-05 1.6385202225e+00 -2.8380002746e+00 1.6385202225e+00 2.8380002746e+00 
56200 6.3561114484e+00 -6.7263965536e-05 1.6385202225e+00 -2.8380002746e+00 1.6385202225e+00 2.8380002746e+00 
56300 6.3561114611e+00 -6.7228016830e-05 1.6385202225e+00 -2.8380002746e+00 1.6385202225e+00 2.8380002746e+00 
56400 6.3561114736e+00 -6.7162680025e-05 1.6385202225e+00 -2.8380002746e+00 1.6385202225e+00 2.8380002746e+00 
56500 6.3561114860e+00 -6.7068527262e-05 1.6385202225e+00 -2.8380002746e+00 1.6385202225e+00 2.8380002746e+00 
56600 6.3561114982e+00 -6.6946140069e-05 1.6385202225e+00 -2.8380002746e+00 1.6385202225e+00 2.8380002746e+00 
56700 6.3561115102e+00 -6.6796108693e-05 1.6385202225e+00 -2.8380002746e+00 1.6385202225e+00 2.8380002746e+00 
56800 6.3561115221e+00 -6.6619031441e-05 1.6385202225e+00 -2.8380002746e+00 1.6385202225e+00 2.8380002746e+00 
56900 6.3561115338e+00 -6.6415514012e-05 1.6385202225e+00 -2.8380002746e+00 1.6385202225e+00 2.8380002746e+00 
57000 6.3561115454e+00 -6.6186168867e-05 1.6385202225e+00 -2.8380002746e+00 1.6385202225e+00 2.8380002746e+00 
57100 6.3561115568e+00 -6.5931614584e-05 1.6385202225e+00 -2.8380002746e+00 1.6385202225e+00 2.8380002746e+00 
57200 6.3561115681e+00 -6.5652475237e-05 1.6385202225e+00 -2.8380002746e+00 1.6385202225e+00 2.8380002746e+00 
57300 6.3561115792e+00 -6.5349379781e-05 1.6385202225e+00 -2.8380002746e+00 1.6385202225e+00 2.8380002746e+00 
57400 6.3561115902e+00 -6.5022961447e-05 1.6385202225e+00 -2.8380002746e+00 1.6385202225e+00 2.8380002746e+00 
57500 6.3561116010e+00 -6.4673857149e-05 1.6385202225e+00 -2.8380002746e+00 1.6385202225e+00 2.8380002746e+00 
57600 6.3561116118e+00 -6.4302706902e-05 1.6385202225e+00 -2.8380002746e+00 1.6385202225e+00 2.8380002746e+00 
57700 6.3561116223e+00 -6.3910153246e-05 1.6385202225e+00 -2.8380002746e+00 1.6385202225e+00 2.8380002746e+00 
57800 6.3561116328e+00 -6.3496840695e-05 1.6385202225e+00 -2.8380002746e+00 1.6385202225e+00 2.8380002746e+00 
57900 6.3561116431e+00 -6.3063415176e-05 1.6385202225e+00 -2.8380002746e+00 1.6385202225e+00 2.8380002746e+00 
58000 6.3561116533e+00 -6.2610523506e-05 1.6385202225e+00 -2.8380002746e+00 1.6385202225e+00 2.8380002746e+00 
58100 6.3561116633e+00 -6.2138812851e-05 1.6385202225e+00 -2.8380002746e+00 1.6385202225e+00 2.8380002746e+00 
58200 6.3561116732e+00 -6.1648930220e-05 1.6385202225e+00 -2.8380002746e+00 1.6385202225e+00 2.8380002746e+00 
58300 6.3561116830e+00 -6.1141521970e-05 1.6385202225e+00 -2.8380002746e+00 1.6385202225e+00 2.8380002746e+00 
58400 6.3561116927e+00 -6.0617233301e-05 1.6385202225e+00 -2.8380002746e+00 1.6385202225e+00 2.8380002746e+00 
58500 6.3561117022e+00 -6.0076707793e-05 1.6385202225e+00 -2.8380002746e+00 1.6385202225e+00 2.8380002746e+00 
58600 6.3561117116e+00 -5.9520586932e-05 1.6385202225e+00 -2.8380002746e+00 1.6385202225e+00 2.8380002746e+00 
58700 6.3561117209e+00 -5.8949509658e-05 1.6385202225e+00 -2.8380002746e+00 1.6385202225e+00 2.8380002746e+00 
58800 6.3561117301e+00 -5.8364111929e-05 1.6385202225e+00 -2.8380002746e+00 1.6385202225e+00 2.8380002746e+00 
58900 6.3561117392e+00 -5.7765026291e-05 1.6385202225e+00 -2.8380002746e+00 1.6385202225e+00 2.8380002746e+00 
59000 6.3561117481e+00 -5.7152881457e-05 1.6385202225e+00 -2.8380002746e+00 1.6385202225e+00 2.8380002746e+00 
59100 6.3561117569e+00 -5.6528301917e-05 1.6385202225e+00 -2.8380002746e+00 1.6385202225e+00 2.8380002746e+00 
59200 6.3561117656e+00 -5.5891907532e-05 1.6385202225e+00 -2.8380002746e+00 1.6385202225e+00 2.8380002746e+00 
59300 6.3561117742e+00 -5.5244313170e-05 1.6385202225e+00 -2.8380002746e+00 1.6385202225e+00 2.8380002746e+00 
59400 6.3561117827e+00 -5.4586128334e-05 1.6385202225e+00 -2.8380002746e+00 1.6385202225e+00 2.8380002746e+00 
59500 6.3561117910e+00 -5.3917956809e-05 1.6385202225e+00 -2.8380002746e+00 1.6385202225e+00 2.8380002746e+00 
59600 6.3561117993e+00 -5.3240396330e-05 1.6385202225e+00 -2.8380002746e+00 1.6385202225e+00 2.8380002746e+00 
59700 6.3561118074e+00 -5.2554038243e-05 1.6385202225e+00 -2.8380002746e+00 1.6385202225e+00 2.8380002746e+00 
59800 6.3561118154e+00 -5.1859467202e-05 1.6385202225e+00 -2.8380002746e+00 1.6385202225e+00 2.8380002746e+00 
59900 6.3561118233e+00 -5.1157260860e-05 1.6385202225e+00 -2.8380002746e+00 1.6385202225e+00 2.8380002746e+00 
60000 6.3561118311e+00 -5.0447989582e-05 1.6385202225e+00 -2.8380002746e+00 1.6385202225e+00 2.8380002746e+00 
60100 6.3561118388e+00 -4.9732216166e-05 1.6385202225e+00 -2.8380002746e+00 1.6385202225e+00 2.8380002746e+00 
60200 6.3561118464e+00 -4.9010495583e-05 1.6385202225e+00 -2.8380002746e+00 1.6385202225e+00 2.8380002746e+00 
60300 6.3561118539e+00 -4.8283374722e-05 1.6385202225e+00 -2.8380002746e+00 1.6385202225e+00 2.8380002746e+00 
60400 6.3561118613e+00 -4.7551392147e-05 1.6385202225e+00 -2.8380002746e+00 1.6385202225e+00 2.8380002746e+00 
60500 6.3561118685e+00 -4.6815077875e-05 1.6385202225e+00 -2.8380002746e+00 1.6385202225e+00 2.8380002746e+00 
60600 6.3561118757e+00 -4.6074953156e-05 1.6385202225e+00 -2.8380002746e+00 1.6385202225e+00 2.8380002746e+00 
60700 6.3561118827e+00 -4.5331530269e-05 1.6385202225e+00 -2.8380002746e+00 1.6385202225e+00 2.8380002746e+00 
60800 6.3561118897e+00 -4.4585312337e-05 1.6385202225e+00 -2.8380002746e+00 1.6385202225e+00 2.8380002746e+00 
60900 6.3561118966e+00 -4.3836793134e-05 1.6385202225e+00 -2.8380002746e+00 1.6385202225e+00 2.8380002746e+00 
61000 6.3561119033e+00 -4.3086456925e-05 1.6385202225e+00 -2.8380002746e+00 1.6385202225e+00 2.8380002746e+00 
61100 6.3561119100e+00 -4.2334778316e-05 1.6385202225e+00 -2.8380002746e+00 1.6385202225e+00 2.8380002746e+00 
61200 6.3561119166e+00 -4.1582222088e-05 1.6385202225e+00 -2.8380002746e+00 1.6385202225e+00 2.8380002746e+00 
61300 6.3561119230e+00 -4.0829243080e-05 1.6385202225e+00 -2.8380002746e+00 1.6385202225e+00 2.8380002746e+00 
61400 6.3561119294e+00 -4.0076286057e-05 1.6385202225e+00 -2.8380002746e+00 1.6385202225e+00 2.8380002746e+00 
61500 6.3561119357e+00 -3.9323785603e-05 1.6385202225e+00 -2.8380002746e+00 1.6385202225e+00 2.8380002746e+00 
61600 6.3561119419e+00 -3.8572166016e-05 1.6385202225e+00 -2.8380002746e+00 1.6385202225e+00 2.8380002746e+00 
61700 6.3561119480e+00 -3.7821841215e-05 1.6385202225e+00 -2.8380002746e+00 1.6385202225e+00 2.8380002746e+00 
61800 6.3561119540e+00 -3.7073214664e-05 1.6385202225e+00 -2.8380002746e+00 1.6385202225e+00 2.8380002746e+00 
61900 6.3561119599e+00 -3.6326679293e-05 1.6385202225e+00 -2.8380002746e+00 1.6385202225e+00 2.8380002746e+00 
62000 6.3561119657e+00 -3.5582617449e-05 1.6385202225e+00 -2.8380002746e+00 1.6385202225e+00 2.8380002746e+00 
62100 6.3561119715e+00 -3.4841400836e-05 1.6385202225e+00 -2.8380002746e+00 1.6385202225e+00 2.8380002746e+00 
62200 6.3561119771e+00 -3.4103390484e-05 1.6385202225e+00 -2.8380002746e+00 1.6385202225e+00 2.8380002746e+00 
62300 6.3561119827e+00 -3.3368936701e-05 1.6385202225e+00 -2.8380002746e+00 1.6385202225e+00 2.8380002746e+00 
62400 6.3561119882e+00 -3.2638379072e-05 1.6385202225e+00 -2.8380002746e+00 1.6385202225e+00 2.8380002746e+00 
62500 6.3561119936e+00 -3.1912046429e-05 1.6385202225e+00 -2.8380002746e+00 1.6385202225e+00 2.8380002746e+00 
62600 6.3561119989e+00 -3.1190256852e-05 1.6385202225e+00 -2.8380002746e+00 1.6385202225e+00 2.8380002746e+00 
62700 6.3561120041e+00 -3.0473317686e-05 1.6385202225e+00 -2.8380002746e+00 1.6385202225e+00 2.8380002746e+00 
62800 6.3561120093e+00 -2.9761525532e-05 1.6385202225e+00 -2.8380002746e+00 1.6385202225e+00 2.8380002746e+00 
62900 6.3561120144e+00 -2.9055166292e-05 1.6385202225e+00 -2.8380002746e+00 1.6385202225e+00 2.8380002746e+00 
63000 6.3561120194e+00 -2.8354515174e-05 1.6385202225e+00 -2.8380002746e+00 1.6385202225e+00 2.8380002746e+00 
63100 6.3561120243e+00 -2.7659836756e-05 1.6385202225e+00 -2.8380002746e+00 1.6385202225e+00 2.8380002746e+00 
63200 6.3561120292e+00 -2.6971385013e-05 1.6385202225e+00 -2.8380002746e+00 1.6385202225e+00 2.8380002746e+00 
63300 6.3561120340e+00 -2.6289403376e-05 1.6385202225e+00 -2.8380002746e+00 1.6385202225e+00 2.8380002746e+00 
63400 6.3561120387e+00 -2.5614124788e-05 1.6385202225e+00 -2.8380002746e+00 1.6385202225e+00 2.8380002746e+00 
63500 6.3561120433e+00 -2.4945771785e-05 1.6385202225e+00 -2.8380002746e+00 1.6385202225e+00 2.8380002746e+00 
63600 6.3561120479e+00 -2.4284556548e-05 1.6385202225e+00 -2.8380002746e+00 1.6385202225e+00 2.8380002746e+00 
63700 6.3561120524e+00 -2.3630681004e-05 1.6385202225e+00 -2.8380002746e+00 1.6385202225e+00 2.8380002746e+00 
63800 6.3561120568e+00 -2.2984336902e-05 1.6385202225e+00 -2.8380002746e+00 1.6385202225e+00 2.8380002746e+00 
63900 6.3561120612e+00 -2.2345705910e-05 1.6385202225e+00 -2.8380002746e+00 1.6385202225e+00 2.8380002746e+00 
64000 6.3561120655e+00 -2.1714959711e-05 1.6385202225e+00 -2.8380002746e+00 1.6385202225e+00 2.8380002746e+00 
64100 6.3561120697e+00 -2.1092260112e-05 1.6385202225e+00 -2.8380002746e+00 1.6385202225e+00 2.8380002746e+00 
64200 6.3561120739e+00 -2.0477759152e-05 1.6385202225e+00 -2.8380002746e+00 1.6385202225e+00 2.8380002746e+00 
64300 6.3561120780e+00 -1.9871599218e-05 1.6385202225e+00 -2.8380002746e+00 1.6385202225e+00 2.8380002746e+00 
64400 6.3561120820e+00 -1.9273913167e-05 1.6385202225e+00 -2.8380002746e+00 1.6385202225e+00 2.8380002746e+00 
64500 6.3561120860e+00 -1.8684824448e-05 1.6385202225e+00 -2.8380002746e+00 1.6385202225e+00 2.8380002746e+00 
64600 6.3561120900e+00 -1.8104447243e-05 1.6385202225e+00 -2.8380002746e+00 1.6385202225e+00 2.8380002746e+00 
64700 6.3561120938e+00 -1.7532886580e-05 1.6385202225e+00 -2.8380002746e+00 1.6385202225e+00 2.8380002746e+00 
64800 6.3561120976e+00 -1.6970238498e-05 1.6385202225e+00 -2.8380002746e+00 1.6385202225e+00 2.8380002746e+00 
64900 6.3561121014e+00 -1.6416590173e-05 1.6385202225e+00 -2.8380002746e+00 1.6385202225e+00 2.8380002746e+00 
65000 6.3561121051e+00 -1.5872020069e-05 1.6385202225e+00 -2.8380002746e+00 1.6385202225e+00 2.8380002746e+00 
65100 6.3561121087e+00 -1.5336598091e-05 1.6385202225e+00 -2.8380002746e+00 1.6385202225e+00 2.8380002746e+00 
65200 6.3561121123e+00 -1.4810385734e-05 1.6385202225e+00 -2.8380002746e+00 1.6385202225e+00 2.8380002746e+00 
65300 6.3561121159e+00 -1.4293436244e-05 1.6385202225e+00 -2.8380002746e+00 1.6385202225e+00 2.8380002746e+00 
65400 6.3561121194e+00 -1.3785794776e-05 1.6385202225e+00 -2.8380002746e+00 1.6385202225e+00 2.8380002746e+00 
65500 6.3561121228e+00 -1.3287498555e-05 1.6385202225e+00 -2.8380002746e+00 1.6385202225e+00 2.8380002746e+00 
65600 6.3561121262e+00 -1.2798577043e-05 1.6385202225e+00 -2.8380002746e+00 1.6385202225e+00 2.8380002746e+00 
65700 6.3561121295e+00 -1.2319052111e-05 1.6385202225e+00 -2.8380002746e+00 1.6385202225e+00 2.8380002746e+00 
65800 6.3561121328e+00 -1.1848938199e-05 1.6385202225e+00 -2.8380002746e+00 1.6385202225e+00 2.8380002746e+00 
65900 6.3561121361e+00 -1.1388242490e-05 1.6385202225e+00 -2.8380002746e+00 1.6385202225e+00 2.8380002746e+00 
66000 6.3561121392e+00 -1.0936965095e-05 1.6385202225e+00 -2.8380002746e+00 1.6385202225e+00 2.8380002746e+00 
66100 6.3561121424e+00 -1.0495099210e-05 1.6385202225e+00 -2.8380002746e+00 1.6385202225e+00 2.8380002746e+00 
66200 6.3561121455e+00 -1.0062631305e-05 1.6385202225e+00 -2.8380002746e+00 1.6385202225e+00 2.8380002746e+00 
66300 6.3561121486e+00 -9.6395412991e-06 1.6385202225e+00 -2.8380002746e+00 1.6385202225e+00 2.8380002746e+00 
66400 6.3561121516e+00 -9.2258027349e-06 1.6385202225e+00 -2.8380002746e+00 1.6385202225e+00 2.8380002746e+00 
66500 6.3561121546e+00 -8.8213829674e-06 1.6385202225e+00 -2.8380002746e+00 1.6385202225e+00 2.8380002746e+00 
66600 6.3561121575e+00 -8.4262433277e-06 1.6385202225e+00 -2.8380002746e+00 1.6385202225e+00 2.8380002746e+00 
66700 6.3561121604e+00 -8.0403393257e-06 1.6385202225e+00 -2.8380002746e+00 1.6385202225e+00 2.8380002746e+00 
66800 6.3561121632e+00 -7.6636208115e-06 1.6385202225e+00 -2.8380002746e+00 1.6385202225e+00 2.8380002746e+00 
66900 6.3561121660e+00 -7.2960321700e-06 1.6385202225e+00 -2.8380002746e+00 1.6385202225e+00 2.8380002746e+00 
67000 6.3561121688e+00 -6.9375124921e-06 1.6385202225e+00 -2.8380002746e+00 1.6385202225e+00 2.8380002746e+00 
67100 6.3561121716e+00 -6.5879957698e-06 1.6385202225e+00 -2.8380002746e+00 1.6385202225e+00 2.8380002746e+00 
67200 6.3561121742e+00 -6.2474110611e-06 1.6385202225e+00 -2.8380002746e+00 1.6385202225e+00 2.8380002746e+00 
67300 6.3561121769e+00 -5.9156826841e-06 1.6385202225e+00 -2.8380002746e+00 1.6385202225e+00 2.8380002746e+00 
67400 6.3561121795e+00 -5.5927303895e-06 1.6385202225e+00 -2.8380002746e+00 1.6385202225e+00 2.8380002746e+00 
67500 6.3561121821e+00 -5.2784695428e-06 1.6385202225e+00 -2.8380002746e+00 1.6385202225e+00 2.8380002746e+00 
67600 6.3561121847e+00 -4.9728113005e-06 1.6385202225e+00 -2.8380002746e+00 1.6385202225e+00 2.8380002746e+00 
67700 6.3561121872e+00 -4.6756627960e-06 1.6385202225e+00 -2.8380002746e+00 1.6385202225e+00 2.8380002746e+00 
67800 6.3561121897e+00 -4.3869273067e-06 1.6385202225e+00 -2.8380002746e+00 1.6385202225e+00 2.8380002746e+00 
67900 6.3561121921e+00 -4.1065044305e-06 1.6385202225e+00 -2.8380002746e+00 1.6385202225e+00 2.8380002746e+00 
68000 6.3561121945e+00 -3.8342902692e-06 1.6385202225e+00 -2.8380002746e+00 1.6385202225e+00 2.8380002746e+00 
68100 6.3561121969e+00 -3.5701775932e-06 1.6385202225e+00 -2.8380002746e+00 1.6385202225e+00 2.8380002746e+00 
68200 6.3561121992e+00 -3.3140560128e-06 1.6385202225e+00 -2.8380002746e+00 1.6385202225e+00 2.8380002746e+00 
68300 6.3561122016e+00 -3.0658121520e-06 1.6385202225e+00 -2.8380002746e+00 1.6385202225e+00 2.8380002746e+00 
68400 6.3561122038e+00 -2.8253298129e-06 1.6385202225e+00 -2.8380002746e+00 1.6385202225e+00 2.8380002746e+00 
68500 6.3561122061e+00 -2.5924901470e-06 1.6385202225e+00 -2.8380002746e+00 1.6385202225e+00 2.8380002746e+00 
68600 6.3561122083e+00 -2.3671718111e-06 1.6385202225e+00 -2.8380002746e+00 1.6385202225e+00 2.8380002746e+00 
68700 6.3561122105e+00 -2.1492511347e-06 1.6385202225e+00 -2.8380002746e+00 1.6385202225e+00 2.8380002746e+00 
68800 6.3561122127e+00 -1.9386022815e-06 1.6385202225e+00 -2.8380002746e+00 1.6385202225e+00 2.8380002746e+00 
68900 6.3561122148e+00 -1.7350974064e-06 1.6385202225e+00 -2.8380002746e+00 1.6385202225e+00 2.8380002746e+00 
69000 6.3561122169e+00 -1.5386068051e-06 1.6385202225e+00 -2.8380002746e+00 1.6385202225e+00 2.8380002746e+00 
69100 6.3561122190e+00 -1.3489990779e-06 1.6385202225e+00 -2.8380002746e+00 1.6385202225e+00 2.8380002746e+00 
69200 6.3561122210e+00 -1.1661412706e-06 1.6385202225e+00 -2.8380002746e+00 1.6385202225e+00 2.8380002746e+00 
69300 6.3561122231e+00 -9.8989902653e-07 1.6385202225e+00 -2.8380002746e+00 1.6385202225e+00 2.8380002746e+00 
69400 6.3561122251e+00 -8.2013673736e-07 1.6385202225e+00 -2.8380002746e+00 1.6385202225e+00 2.8380002746e+00 
69500 6.3561122270e+00 -6.5671767645e-07 1.6385202225e+00 -2.8380002746e+00 1.6385202225e+00 2.8380002746e+00 
69600 6.3561122290e+00 -4.9950414775e-07 1.6385202225e+00 -2.8380002746e+00 1.6385202225e+00 2.8380002746e+00 
69700 6.3561122309e+00 -3.4835761831e-07 1.6385202225e+00 -2.8380002746e+00 1.6385202225e+00 2.8380002746e+00 
69800 6.3561122328e+00 -2.0313885898e-07 1.6385202225e+00 -2.8380002746e+00 1.6385202225e+00 2.8380002746e+00 
69900 6.3561122346e+00 -6.3708065602e-08 1.6385202225e+00 -2.8380002746e+00 1.6385202225e+00 2.8380002746e+00 
70000 6.3561122365e+00 7.0074999120e-08 1.6385202225e+00 -2.8380002746e+00 1.6385202225e+00 2.8380002746e+00 
70100 6.3561122383e+00 1.9835088617e-07 1.6385202225e+00 -2.8380002746e+00 1.6385202225e+00 2.8380002746e+00 
70200 6.3561122401e+00 3.2126033315e-07 1.6385202225e+00 -2.8380002746e+00 1.6385202225e+00 2.8380002746e+00 
70300 6.3561122418e+00 4.3894415219e-07 1.6385202225e+00 -2.8380002746e+00 1.6385202225e+00 2.8380002746e+00 
70400 6.3561122436e+00 5.5154309915e-07 1.6385202225e+00 -2.8380002746e+00 1.6385202225e+00 2.8380002746e+00 
70500 6.3561122453e+00 6.5919777051e-07 1.6385202225e+00 -2.8380002746e+00 1.6385202225e+00 2.8380002746e+00 
70600 6.3561122470e+00 7.6204848860e-07 1.6385202225e+00 -2.8380002746e+00 1.6385202225e+00 2.8380002746e+00 
70700 6.3561122486e+00 8.6023518974e-07 1.6385202225e+00 -2.8380002746e+00 1.6385202225e+00 2.8380002746e+00 
70800 6.3561122503e+00 9.5389732157e-07 1.6385202225e+00 -2.8380002746e+00 1.6385202225e+00 2.8380002746e+00 
70900 6.3561122519e+00 1.0431737446e-06 1.6385202225e+00 -2.8380002746e+00 1.6385202225e+00 2.8380002746e+00 
71000 6.3561122535e+00 1.1282026295e-06 1.6385202225e+00 -2.8380002746e+00 1.6385202225e+00 2.8380002746e+00 
71100 6.3561122551e+00 1.2091213584e-06 1.6385202225e+00 -2.8380002746e+00 1.6385202225e+00 2.8380002746e+00 
71200 6.3561122567e+00 1.2860664363e-06 1.6385202225e+00 -2.8380002746e+00 1.6385202225e+00 2.8380002746e+00 
71300 6.3561122582e+00 1.3591734032e-06 1.6385202225e+00 -2.8380002746e+00 1.6385202225e+00 2.8380002746e+00 
71400 6.3561122597e+00 1.4285767422e-06 1.6385202225e+00 -2.8380002746e+00 1.6385202225e+00 2.8380002746e+00 
71500 6.3561122612e+00 1.4944097999e-06 1.6385202225e+00 -2.8380002746e+00 1.6385202225e+00 2.8380002746e+00 
71600 6.3561122627e+00 1.5568047038e-06 1.6385202225e+00 -2.8380002746e+00 1.6385202225e+00 2.8380002746e+00 
71700 6.3561122642e+00 1.6158922874e-06 1.6385202225e+00 -2.8380002746e+00 1.6385202225e+00 2.8380002746e+00 
71800 6.3561122656e+00 1.6718020143e-06 1.6385202225e+00 -2.8380002746e+00 1.6385202225e+00 2.8380002746e+00 
71900 6.3561122670e+00 1.7246619060e-06 1.6385202225e+00 -2.8380002746e+00 1.6385202225e+00 2.8380002746e+00 
72000 6.3561122684e+00 1.7745984810e-06 1.6385202225e+00 -2.8380002746e+00 1.6385202225e+00 2.8380002746e+00 
72100 6.3561122698e+00 1.8217366780e-06 1.6385202225e+00 -2.8380002746e+00 1.6385202225e+00 2.8380002746e+00 
72200 6.3561122711e+00 1.8661998039e-06 1.6385202225e+00 -2.8380002746e+00 1.6385202225e+00 2.8380002746e+00 
72300 6.3561122725e+00 1.9081094720e-06 1.6385202225e+00 -2.8380002746e+00 1.6385202225e+00 2.8380002746e+00 
72400 6.3561122738e+00 1.9475855437e-06 1.6385202225e+00 -2.8380002746e+00 1.6385202225e+00 2.8380002746e+00 
72500 6.3561122751e+00 1.9847460795e-06 1.6385202225e+00 -2.8380002746e+00 1.6385202225e+00 2.8380002746e+00 
72600 6.3561122764e+00 2.0197072854e-06 1.6385202225e+00 -2.8380002746e+00 1.6385202225e+00 2.8380002746e+00 
72700 6.3561122777e+00 2.0525834659e-06 1.6385202225e+00 -2.8380002746e+00 1.6385202225e+00 2.8380002746e+00 
72800 6.3561122789e+00 2.0834869837e-06 1.6385202225e+00 -2.8380002746e+00 1.6385202225e+00 2.8380002746e+00 
72900 6.3561122802e+00 2.1125282132e-06 1.6385202225e+00 -2.8380002746e+00 1.6385202225e+00 2.8380002746e+00 
73000 6.3561122814e+00 2.1398155050e-06 1.6385202225e+00 -2.8380002746e+00 1.6385202225e+00 2.8380002746e+00 
73100 6.3561122826e+00 2.1654551454e-06 1.6385202225e+00 -2.8380002746e+00 1.6385202225e+00 2.8380002746e+00 
73200 6.3561122838e+00 2.1895513304e-06 1.6385202225e+00 -2.8380002746e+00 1.6385202225e+00 2.8380002746e+00 
73300 6.3561122849e+00 2.2122061300e-06 1.6385202225e+00 -2.8380002746e+00 1.6385202225e+00 2.8380002746e+00 
73400 6.3561122861e+00 2.2335194599e-06 1.6385202225e+00 -2.8380002746e+00 1.6385202225e+00 2.8380002746e+00 
73500 6.3561122872e+00 2.2535890598e-06 1.6385202225e+00 -2.8380002746e+00 1.6385202225e+00 2.8380002746e+00 
73600 6.3561122883e+00 2.2725104648e-06 1.6385202225e+00 -2.8380002746e+00 1.6385202225e+00 2.8380002746e+00 
73700 6.3561122894e+00 2.2903769924e-06 1.6385202225e+00 -2.8380002746e+00 1.6385202225e+00 2.8380002746e+00 
73800 6.3561122905e+00 2.3072797157e-06 1.6385202225e+00 -2.8380002746e+00 1.6385202225e+00 2.8380002746e+00 
73900 6.3561122916e+00 2.3233074578e-06 1.6385202225e+00 -2.8380002746e+00 1.6385202225e+00 2.8380002746e+00 
74000 6.3561122927e+00 2.3385467709e-06 1.6385202225e+00 -2.8380002746e+00 1.6385202225e+00 2.8380002746e+00 
74100 6.3561122937e+00 2.3530819267e-06 1.6385202225e+00 -2.8380002746e+00 1.6385202225e+00 2.8380002746e+00 
74200 6.3561122947e+00 2.3669949091e-06 1.6385202225e+00 -2.8380002746e+00 1.6385202225e+00 2.8380002746e+00 
74300 6.3561122958e+00 2.3803654127e-06 1.6385202225e+00 -2.8380002746e+00 1.6385202225e+00 2.8380002746e+00 
74400 6.3561122968e+00 2.3932708268e-06 1.6385202225e+00 -2.8380002746e+00 1.6385202225e+00 2.8380002746e+00 
74500 6.3561122977e+00 2.4057862441e-06 1.6385202225e+00 -2.8380002746e+00 1.6385202225e+00 2.8380002746e+00 
74600 6.3561122987e+00 2.4179844580e-06 1.6385202225e+00 -2.8380002746e+00 1.6385202225e+00 2.8380002746e+00 
74700 6.3561122997e+00 2.4299359577e-06 1.6385202225e+00 -2.8380002746e+00 1.6385202225e+00 2.8380002746e+00 
74800 6.3561123006e+00 2.4417089400e-06 1.6385202225e+00 -2.8380002746e+00 1.6385202225e+00 2.8380002746e+00 
74900 6.3561123016e+00 2.4533693136e-06 1.6385202225e+00 -2.8380002746e+00 1.6385202225e+00 2.8380002746e+00 
75000 6.3561123025e+00 2.4649807021e-06 1.6385202225e+00 -2.8380002746e+00 1.6385202225e+00 2.8380002746e+00 
75100 6.3561123034e+00 2.4766044602e-06 1.6385202225e+00 -2.8380002746e+00 1.6385202225e+00 2.8380002746e+00 
75200 6.3561123043e+00 2.4882996792e-06 1.6385202225e+00 -2.8380002746e+00 1.6385202225e+00 2.8380002746e+00 
75300 6.3561123052e+00 2.5001231996e-06 1.6385202225e+00 -2.8380002746e+00 1.6385202225e+00 2.8380002746e+00 
75400 6.3561123060e+00 2.5121296321e-06 1.6385202225e+00 -2.8380002746e+00 1.6385202225e+00 2.8380002746e+00 
75500 6.3561123069e+00 2.5243713645e-06 1.6385202225e+00 -2.8380002746e+00 1.6385202225e+00 2.8380002746e+00 
75600 6.3561123078e+00 2.5368985876e-06 1.6385202225e+00 -2.8380002746e+00 1.6385202225e+00 2.8380002746e+00 
75700 6.3561123086e+00 2.5497593062e-06 1.6385202225e+00 -2.8380002746e+00 1.6385202225e+00 2.8380002746e+00 
75800 6.3561123094e+00 2.5629993636e-06 1.6385202225e+00 -2.8380002746e+00 1.6385202225e+00 2.8380002746e+00 
75900 6.3561123102e+00 2.5766624676e-06 1.6385202225e+00 -2.8380002746e+00 1.6385202225e+00 2.8380002746e+00 
76000 6.3561123110e+00 2.5907902016e-06 1.6385202225e+00 -2.8380002746e+00 1.6385202225e+00 2.8380002746e+00 
76100 6.3561123118e+00 2.6054220586e-06 1.6385202225e+00 -2.8380002746e+00 1.6385202225e+00 2.8380002746e+00 
76200 6.3561123126e+00 2.6205954662e-06 1.6385202225e+00 -2.8380002746e+00 1.6385202225e+00 2.8380002746e+00 
76300 6.3561123134e+00 2.6363458104e-06 1.6385202225e+00 -2.8380002746e+00 1.6385202225e+00 2.8380002746e+00 
76400 6.3561123141e+00 2.6527064591e-06 1.6385202225e+00 -2.8380002746e+00 1.6385202225e+00 2.8380002746e+00 
76500 6.3561123149e+00 2.6697087997e-06 1.6385202225e+00 -2.8380002746e+00 1.6385202225e+00 2.8380002746e+00 
76600 6.3561123156e+00 2.6873822592e-06 1.6385202225e+00 -2.8380002746e+00 1.6385202225e+00 2.8380002746e+00 
76700 6.3561123164e+00 2.7057543437e-06 1.6385202225e+00 -2.8380002746e+00 1.6385202225e+00 2.8380002746e+00 
76800 6.3561123171e+00 2.7248506665e-06 1.6385202225e+00 -2.8380002746e+00 1.6385202225e+00 2.8380002746e+00 
76900 6.3561123178e+00 2.7446949736e-06 1.6385202225e+00 -2.8380002746e+00 1.6385202225e+00 2.8380002746e+00 
77000 6.3561123185e+00 2.7653091862e-06 1.6385202225e+00 -2.8380002746e+00 1.6385202225e+00 2.8380002746e+00 
77100 6.3561123192e+00 2.7867134287e-06 1.6385202225e+00 -2.8380002746e+00 1.6385202225e+00 2.8380002746e+00 
77200 6.3561123199e+00 2.8089260692e-06 1.6385202225e+00 -2.8380002746e+00 1.6385202225e+00 2.8380002746e+00 
77300 6.3561123205e+00 2.8319637438e-06 1.6385202225e+00 -2.8380002746e+00 1.6385202225e+00 2.8380002746e+00 
77400 6.3561123212e+00 2.8558414037e-06 1.6385202225e+00 -2.8380002746e+00 1.6385202225e+00 2.8380002746e+00 
77500 6.3561123218e+00 2.8805723444e-06 1.6385202225e+00 -2.8380002746e+00 1.6385202225e+00 2.8380002746e+00 
77600 6.3561123225e+00 2.9061682438e-06 1.6385202225e+00 -2.8380002746e+00 1.6385202225e+00 2.8380002746e+00 
77700 6.3561123231e+00 2.9326391997e-06 1.6385202225e+00 -2.8380002746e+00 1.6385202225e+00 2.8380002746e+00 
77800 6.3561123238e+00 2.9599937657e-06 1.6385202225e+00 -2.8380002746e+00 1.6385202225e+00 2.8380002746e+00 
77900 6.3561123244e+00 2.9882389941e-06 1.6385202225e+00 -2.8380002746e+00 1.6385202225e+00 2.8380002746e+00 
78000 6.3561123250e+00 3.0173804660e-06 1.6385202225e+00 -2.8380002746e+00 1.6385202225e+00 2.8380002746e+00 
78100 6.3561123256e+00 3.0474223353e-06 1.6385202225e+00 -2.8380002746e+00 1.6385202225e+00 2.8380002746e+00 
78200 6.3561123262e+00 3.0783673669e-06 1.6385202225e+00 -2.8380002746e+00 1.6385202225e+00 2.8380002746e+00 
78300 6.3561123268e+00 3.1102169722e-06 1.6385202225e+00 -2.8380002746e+00 1.6385202225e+00 2.8380002746e+00 
78400 6.3561123273e+00 3.1429712546e-06 1.6385202225e+00 -2.8380002746e+00 1.6385202225e+00 2.8380002746e+00 
78500 6.3561123279e+00 3.1766290380e-06 1.6385202225e+00 -2.8380002746e+00 1.6385202225e+00 2.8380002746e+00 
78600 6.3561123285e+00 3.2111879175e-06 1.6385202225e+00 -2.8380002746e+00 1.6385202225e+00 2.8380002746e+00 
78700 6.3561123290e+00 3.2466442885e-06 1.6385202225e+00 -2.8380002746e+00 1.6385202225e+00 2.8380002746e+00 
78800 6.3561123296e+00 3.2829933945e-06 1.6385202225e+00 -2.8380002746e+00 1.6385202225e+00 2.8380002746e+00 
78900 6.3561123301e+00 3.3202293599e-06 1.6385202225e+00 -2.8380002746e+00 1.6385202225e+00 2.8380002746e+00 
79000 6.3561123307e+00 3.3583452329e-06 1.6385202225e+00 -2.8380002746e+00 1.6385202225e+00 2.8380002746e+00 
79100 6.3561123312e+00 3.3973330212e-06 1.6385202225e+00 -2.8380002746e+00 1.6385202225e+00 2.8380002746e+00 
79200 6.3561123317e+00 3.4371837320e-06 1.6385202225e+00 -2.8380002746e+00 1.6385202225e+00 2.8380002746e+00 
79300 6.3561123322e+00 3.4778874144e-06 1.6385202225e+00 -2.8380002746e+00 1.6385202225e+00 2.8380002746e+00 
79400 6.3561123327e+00 3.5194331903e-06 1.6385202225e+00 -2.8380002746e+00 1.6385202225e+00 2.8380002746e+00 
79500 6.3561123332e+00 3.5618092986e-06 1.6385202225e+00 -2.8380002746e+00 1.6385202225e+00 2.8380002746e+00 
79600 6.3561123337e+00 3.6050031341e-06 1.6385202225e+00 -2.8380002746e+00 1.6385202225e+00 2.8380002746e+00 
79700 6.3561123342e+00 3.6490012786e-06 1.6385202225e+00 -2.8380002746e+00 1.6385202225e+00 2.8380002746e+00 
79800 6.3561123347e+00 3.6937895443e-06 1.6385202225e+00 -2.8380002746e+00 1.6385202225e+00 2.8380002746e+00 
79900 6.3561123352e+00 3.7393530064e-06 1.6385202225e+00 -2.8380002746e+00 1.6385202225e+00 2.8380002746e+00 
80000 6.3561123356e+00 3.7856760455e-06 1.6385202225e+00 -2.8380002746e+00 1.6385202225e+00 2.8380002746e+00 
80100 6.3561123361e+00 3.8327423799e-06 1.6385202225e+00 -2.8380002746e+00 1.6385202225e+00 2.8380002746e+00 
80200 6.3561123365e+00 3.8805350973e-06 1.6385202225e+00 -2.8380002746e+00 1.6385202225e+00 2.8380002746e+00 
80300 6.3561123370e+00 3.9290367027e-06 1.6385202225e+00 -2.8380002746e+00 1.6385202225e+00 2.8380002746e+00 
80400 6.3561123374e+00 3.9782291396e-06 1.6385202225e+00 -2.8380002746e+00 1.6385202225e+00 2.8380002746e+00 
80500 6.3561123379e+00 4.0280938338e-06 1.6385202225e+00 -2.8380002746e+00 1.6385202225e+00 2.8380002746e+00 
80600 6.3561123383e+00 4.0786117259e-06 1.6385202225e+00 -2.8380002746e+00 1.6385202225e+00 2.8380002746e+00 
80700 6.3561123387e+00 4.1297633007e-06 1.6385202225e+00 -2.8380002746e+00 1.6385202225e+00 2.8380002746e+00 
80800 6.3561123392e+00 4.1815286267e-06 1.6385202225e+00 -2.8380002746e+00 1.6385202225e+00 2.8380002746e+00 
80900 6.3561123396e+00 4.2338873807e-06 1.6385202225e+00 -2.8380002746e+00 1.6385202225e+00 2.8380002746e+00 
81000 6.3561123400e+00 4.2868188847e-06 1.6385202225e+00 -2.8380002746e+00 1.6385202225e+00 2.8380002746e+00 
81100 6.3561123404e+00 4.3403021406e-06 1.6385202225e+00 -2.8380002746e+00 1.6385202225e+00 2.8380002746e+00 
81200 6.3561123408e+00 4.3943158559e-06 1.6385202225e+00 -2.8380002746e+00 1.6385202225e+00 2.8380002746e+00 
81300 6.3561123412e+00 4.4488384743e-06 1.6385202225e+00 -2.8380002746e+00 1.6385202225e+00 2.8380002746e+00 
81400 6.3561123416e+00 4.5038482061e-06 1.6385202225e+00 -2.8380002746e+00 1.6385202225e+00 2.8380002746e+00 
81500 6.3561123419e+00 4.5593230613e-06 1.6385202225e+00 -2.8380002746e+00 1.6385202225e+00 2.8380002746e+00 
81600 6.3561123423e+00 4.6152408701e-06 1.6385202225e+00 -2.8380002746e+00 1.6385202225e+00 2.8380002746e+00 
81700 6.3561123427e+00 4.6715793167e-06 1.6385202225e+00 -2.8380002746e+00 1.6385202225e+00 2.8380002746e+00 
81800 6.3561123431e+00 4.7283159657e-06 1.6385202225e+00 -2.8380002746e+00 1.6385202225e+00 2.8380002746e+00 
81900 6.3561123434e+00 4.7854282892e-06 1.6385202225e+00 -2.8380002746e+00 1.6385202225e+00 2.8380002746e+00 
82000 6.3561123438e+00 4.8428936872e-06 1.6385202225e+00 -2.8380002746e+00 1.6385202225e+00 2.8380002746e+00 
82100 6.3561123441e+00 4.9006895190e-06 1.6385202225e+00 -2.8380002746e+00 1.6385202225e+00 2.8380002746e+00 
82200 6.3561123445e+00 4.9587931286e-06 1.6385202225e+00 -2.8380002746e+00 1.6385202225e+00 2.8380002746e+00 
82300 6.3561123448e+00 5.0171818620e-06 1.6385202225e+00 -2.8380002746e+00 1.6385202225e+00 2.8380002746e+00 
82400 6.3561123452e+00 5.0758330958e-06 1.6385202225e+00 -2.8380002746e+00 1.6385202225e+00 2.8380002746e+00 
82500 6.3561123455e+00 5.1347242573e-06 1.6385202225e+00 -2.8380002746e+00 1.6385202225e+00 2.8380002746e+00 
82600 6.3561123458e+00 5.1938328482e-06 1.6385202225e+00 -2.8380002746e+00 1.6385202225e+00 2.8380002746e+00 
82700 6.3561123462e+00 5.2531364655e-06 1.6385202225e+00 -2.8380002746e+00 1.6385202225e+00 2.8380002746e+00 
82800 6.3561123465e+00 5.3126128212e-06 1.6385202225e+00 -2.8380002746e+00 1.6385202225e+00 2.8380002746e+00 
82900 6.3561123468e+00 5.3722397615e-06 1.6385202225e+00 -2.8380002746e+00 1.6385202225e+00 2.8380002746e+00 
83000 6.3561123471e+00 5.4319952883e-06 1.6385202225e+00 -2.8380002746e+00 1.6385202225e+00 2.8380002746e+00 
83100 6.3561123474e+00 5.4918575735e-06 1.6385202225e+00 -2.8380002746e+00 1.6385202225e+00 2.8380002746e+00 
83200 6.3561123477e+00 5.5518049868e-06 1.6385202225e+00 -2.8380002746e+00 1.6385202225e+00 2.8380002746e+00 
83300 6.3561123480e+00 5.6118160957e-06 1.6385202225e+00 -2.8380002746e+00 1.6385202225e+00 2.8380002746e+00 
83400 6.3561123483e+00 5.6718696985e-06 1.6385202225e+00 -2.8380002746e+00 1.6385202225e+00 2.8380002746e+00 
83500 6.3561123486e+00 5.7319448352e-06 1.6385202225e+00 -2.8380002746e+00 1.6385202225e+00 2.8380002746e+00 
83600 6.3561123489e+00 5.7920207939e-06 1.6385202225e+00 -2.8380002746e+00 1.6385202225e+00 2.8380002746e+00 
83700 6.3561123492e+00 5.8520771416e-06 1.6385202225e+00 -2.8380002746e+00 1.6385202225e+00 2.8380002746e+00 
83800 6.3561123495e+00 5.9120937215e-06 1.6385202225e+00 -2.8380002746e+00 1.6385202225e+00 2.8380002746e+00 
83900 6.3561123498e+00 5.9720506784e-06 1.6385202225e+00 -2.8380002746e+00 1.6385202225e+00 2.8380002746e+00 
84000 6.3561123500e+00 6.0319284623e-06 1.6385202225e+00 -2.8380002746e+00 1.6385202225e+00 2.8380002746e+00 
84100 6.3561123503e+00 6.0917078508e-06 1.6385202225e+00 -2.8380002746e+00 1.6385202225e+00 2.8380002746e+00 
84200 6.3561123506e+00 6.1513699476e-06 1.6385202225e+00 -2.8380002746e+00 1.6385202225e+00 2.8380002746e+00 
84300 6.3561123509e+00 6.2108962036e-06 1.6385202225e+00 -2.8380002746e+00 1.6385202225e+00 2.8380002746e+00 
84400 6.3561123511e+00 6.2702684209e-06 1.6385202225e+00 -2.8380002746e+00 1.6385202225e+00 2.8380002746e+00 
84500 6.3561123514e+00 6.3294687663e-06 1.6385202225e+00 -2.8380002746e+00 1.6385202225e+00 2.8380002746e+00 
84600 6.3561123516e+00 6.3884797761e-06 1.6385202225e+00 -2.8380002746e+00 1.6385202225e+00 2.8380002746e+00 
84700 6.3561123519e+00 6.4472843669e-06 1.6385202225e+00 -2.8380002746e+00 1.6385202225e+00 2.8380002746e+00 
84800 6.3561123521e+00 6.5058658467e-06 1.6385202225e+00 -2.8380002746e+00 1.6385202225e+00 2.8380002746e+00 
84900 6.3561123524e+00 6.5642079100e-06 1.6385202225e+00 -2.8380002746e+00 1.6385202225e+00 2.8380002746e+00 
85000 6.3561123526e+00 6.6222946614e-06 1.6385202225e+00 -2.8380002746e+00 1.6385202225e+00 2.8380002746e+00 
85100 6.3561123529e+00 6.6801106062e-06 1.6385202225e+00 -2.8380002746e+00 1.6385202225e+00 2.8380002746e+00 
85200 6.3561123531e+00 6.7376406629e-06 1.6385202225e+00 -2.8380002746e+00 1.6385202225e+00 2.8380002746e+00 
85300 6.3561123533e+00 6.7948701687e-06 1.6385202225e+00 -2.8380002746e+00 1.6385202225e+00 2.8380002746e+00 
85400 6.3561123535e+00 6.8517848815e-06 1.6385202225e+00 -2.8380002746e+00 1.6385202225e+00 2.8380002746e+00 
85500 6.3561123538e+00 6.9083709845e-06 1.6385202225e+00 -2.8380002746e+00 1.6385202225e+00 2.8380002746e+00 
85600 6.3561123540e+00 6.9646150891e-06 1.6385202225e+00 -2.8380002746e+00 1.6385202225e+00 2.8380002746e+00 
85700 6.3561123542e+00 7.0205042405e-06 1.6385202225e+00 -2.8380002746e+00 1.6385202225e+00 2.8380002746e+00 
85800 6.3561123544e+00 7.0760259137e-06 1.6385202225e+00 -2.8380002746e+00 1.6385202225e+00 2.8380002746e+00 
85900 6.3561123546e+00 7.1311680202e-06 1.6385202225e+00 -2.8380002746e+00 1.6385202225e+00 2.8380002746e+00 
86000 6.3561123549e+00 7.1859189119e-06 1.6385202225e+00 -2.8380002746e+00 1.6385202225e+00 2.8380002746e+00 
86100 6.3561123551e+00 7.2402673754e-06 1.6385202225e+00 -2.8380002746e+00 1.6385202225e+00 2.8380002746e+00 
86200 6.3561123553e+00 7.2942026348e-06 1.6385202225e+00 -2.8380002746e+00 1.6385202225e+00 2.8380002746e+00 
86300 6.3561123555e+00 7.3477143552e-06 1.6385202225e+00 -2.8380002746e+00 1.6385202225e+00 2.8380002746e+00 
86400 6.3561123557e+00 7.4007926386e-06 1.6385202225e+00 -2.8380002746e+00 1.6385202225e+00 2.8380002746e+00 
86500 6.3561123559e+00 7.4534280233e-06 1.6385202225e+00 -2.8380002746e+00 1.6385202225e+00 2.8380002746e+00 
86600 6.3561123561e+00 7.5056114852e-06 1.6385202225e+00 -2.8380002746e+00 1.6385202225e+00 2.8380002746e+00 
86700 6.3561123563e+00 7.5573344311e-06 1.6385202225e+00 -2.8380002746e+00 1.6385202225e+00 2.8380002746e+00 
86800 6.3561123565e+00 7.6085887060e-06 1.6385202225e+00 -2.8380002746e+00 1.6385202225e+00 2.8380002746e+00 
86900 6.3561123566e+00 7.6593665791e-06 1.6385202225e+00 -2.8380002746e+00 1.6385202225e+00 2.8380002746e+00 
87000 6.3561123568e+00 7.7096607544e-06 1.6385202225e+00 -2.8380002746e+00 1.6385202225e+00 2.8380002746e+00 
87100 6.3561123570e+00 7.7594643539e-06 1.6385202225e+00 -2.8380002746e+00 1.6385202225e+00 2.8380002746e+00 
87200 6.3561123572e+00 7.8087709239e-06 1.6385202225e+00 -2.8380002746e+00 1.6385202225e+00 2.8380002746e+00 
87300 6.3561123574e+00 7.8575744258e-06 1.6385202225e+00 -2.8380002746e+00 1.6385202225e+00 2.8380002746e+00 
87400 6.3561123576e+00 7.9058692411e-06 1.6385202225e+00 -2.8380002746e+00 1.6385202225e+00 2.8380002746e+00 
87500 6.3561123577e+00 7.9536501549e-06 1.6385202225e+00 -2.8380002746e+00 1.6385202225e+00 2.8380002746e+00 
87600 6.3561123579e+00 8.0009123590e-06 1.6385202225e+00 -2.8380002746e+00 1.6385202225e+00 2.8380002746e+00 
87700 6.3561123581e+00 8.0476514470e-06 1.6385202225e+00 -2.8380002746e+00 1.6385202225e+00 2.8380002746e+00 
87800 6.3561123582e+00 8.0938634089e-06 1.6385202225e+00 -2.8380002746e+00 1.6385202225e+00 2.8380002746e+00 
87900 6.3561123584e+00 8.1395446199e-06 1.6385202225e+00 -2.8380002746e+00 1.6385202225e+00 2.8380002746e+00 
88000 6.3561123586e+00 8.1846918469e-06 1.6385202225e+00 -2.8380002746e+00 1.6385202225e+00 2.8380002746e+00 
88100 6.3561123587e+00 8.2293022299e-06 1.6385202225e+00 -2.8380002746e+00 1.6385202225e+00 2.8380002746e+00 
88200 6.3561123589e+00 8.2733732853e-06 1.6385202225e+00 -2.8380002746e+00 1.6385202225e+00 2.8380002746e+00 
88300 6.3561123590e+00 8.3169028964e-06 1.6385202225e+00 -2.8380002746e+00 1.6385202225e+00 2.8380002746e+00 
88400 6.3561123592e+00 8.3598893054e-06 1.6385202225e+00 -2.8380002746e+00 1.6385202225e+00 2.8380002746e+00 
88500 6.3561123593e+00 8.4023311137e-06 1.6385202225e+00 -2.8380002746e+00 1.6385202225e+00 2.8380002746e+00 
88600 6.3561123595e+00 8.4442272651e-06 1.6385202225e+00 -2.8380002746e+00 1.6385202225e+00 2.8380002746e+00 
88700 6.3561123596e+00 8.4855770451e-06 1.6385202225e+00 -2.8380002746e+00 1.6385202225e+00 2.8380002746e+00 
88800 6.3561123598e+00 8.5263800776e-06 1.6385202225e+00 -2.8380002746e+00 1.6385202225e+00 2.8380002746e+00 
88900 6.3561123599e+00 8.5666363110e-06 1.6385202225e+00 -2.8380002746e+00 1.6385202225e+00 2.8380002746e+00 
89000 6.3561123601e+00 8.6063460119e-06 1.6385202225e+00 -2.8380002746e+00 1.6385202225e+00 2.8380002746e+00 
89100 6.3561123602e+00 8.6455097613e-06 1.6385202225e+00 -2.8380002746e+00 1.6385202225e+00 2.8380002746e+00 
89200 6.3561123604e+00 8.6841284450e-06 1.6385202225e+00 -2.8380002746e+00 1.6385202225e+00 2.8380002746e+00 
89300 6.3561123605e+00 8.7222032494e-06 1.6385202225e+00 -2.8380002746e+00 1.6385202225e+00 2.8380002746e+00 
89400 6.3561123606e+00 8.7597356436e-06 1.6385202225e+00 -2.8380002746e+00 1.6385202225e+00 2.8380002746e+00 
89500 6.3561123608e+00 8.7967273886e-06 1.6385202225e+00 -2.8380002746e+00 1.6385202225e+00 2.8380002746e+00 
89600 6.3561123609e+00 8.8331805158e-06 1.6385202225e+00 -2.8380002746e+00 1.6385202225e+00 2.8380002746e+00 
89700 6.3561123610e+00 8.8690973221e-06 1.6385202225e+00 -2.8380002746e+00 1.6385202225e+00 2.8380002746e+00 
89800 6.3561123612e+00 8.9044803649e-06 1.6385202225e+00 -2.8380002746e+00 1.6385202225e+00 2.8380002746e+00 
89900 6.3561123613e+00 8.9393324566e-06 1.6385202225e+00 -2.8380002746e+00 1.6385202225e+00 2.8380002746e+00 
90000 6.3561123614e+00 8.9736566508e-06 1.6385202225e+00 -2.8380002746e+00 1.6385202225e+00 2.8380002746e+00 
90100 6.3561123615e+00 9.0074562330e-06 1.6385202225e+00 -2.8380002746e+00 1.6385202225e+00 2.8380002746e+00 
90200 6.3561123617e+00 9.0407347217e-06 1.6385202225e+00 -2.8380002746e+00 1.6385202225e+00 2.8380002746e+00 
90300 6.3561123618e+00 9.0734958533e-06 1.6385202225e+00 -2.8380002746e+00 1.6385202225e+00 2.8380002746e+00 
90400 6.3561123619e+00 9.1057435763e-06 1.6385202225e+00 -2.8380002746e+00 1.6385202225e+00 2.8380002746e+00 
90500 6.3561123620e+00 9.1374820418e-06 1.6385202225e+00 -2.8380002746e+00 1.6385202225e+00 2.8380002746e+00 
90600 6.3561123621e+00 9.1687155993e-06 1.6385202225e+00 -2.8380002746e+00 1.6385202225e+00 2.8380002746e+00 
90700 6.3561123623e+00 9.1994487869e-06 1.6385202225e+00 -2.8380002746e+00 1.6385202225e+00 2.8380002746e+00 
90800 6.3561123624e+00 9.2296863187e-06 1.6385202225e+00 -2.8380002746e+00 1.6385202225e+00 2.8380002746e+00 
90900 6.3561123625e+00 9.2594330876e-06 1.6385202225e+00 -2.8380002746e+00 1.6385202225e+00 2.8380002746e+00 
91000 6.3561123626e+00 9.2886941478e-06 1.6385202225e+00 -2.8380002746e+00 1.6385202225e+00 2.8380002746e+00 
91100 6.3561123627e+00 9.3174747090e-06 1.6385202225e+00 -2.8380002746e+00 1.6385202225e+00 2.8380002746e+00 
91200 6.3561123628e+00 9.3457801319e-06 1.6385202225e+00 -2.8380002746e+00 1.6385202225e+00 2.8380002746e+00 
91300 6.3561123629e+00 9.3736159214e-06 1.6385202225e+00 -2.8380002746e+00 1.6385202225e+00 2.8380002746e+00 
91400 6.3561123630e+00 9.4009877114e-06 1.6385202225e+00 -2.8380002746e+00 1.6385202225e+00 2.8380002746e+00 
91500 6.3561123631e+00 9.4279012667e-06 1.6385202225e+00 -2.8380002746e+00 1.6385202225e+00 2.8380002746e+00 
91600 6.3561123632e+00 9.4543624706e-06 1.6385202225e+00 -2.8380002746e+00 1.6385202225e+00 2.8380002746e+00 
91700 6.3561123633e+00 9.4803773184e-06 1.6385202225e+00 -2.8380002746e+00 1.6385202225e+00 2.8380002746e+00 
91800 6.3561123634e+00 9.5059519053e-06 1.6385202225e+00 -2.8380002746e+00 1.6385202225e+00 2.8380002746e+00 
91900 6.3561123635e+00 9.5310924333e-06 1.6385202225e+00 -2.8380002746e+00 1.6385202225e+00 2.8380002746e+00 
92000 6.3561123636e+00 9.5558051878e-06 1.6385202225e+00 -2.8380002746e+00 1.6385202225e+00 2.8380002746e+00 
92100 6.3561123637e+00 9.5800965398e-06 1.6385202225e+00 -2.8380002746e+00 1.6385202225e+00 2.8380002746e+00 
92200 6.3561123638e+00 9.6039729342e-06 1.6385202225e+00 -2.8380002746e+00 1.6385202225e+00 2.8380002746e+00 
92300 6.3561123639e+00 9.6274408907e-06 1.6385202225e+00 -2.8380002746e+00 1.6385202225e+00 2.8380002746e+00 
92400 6.3561123640e+00 9.6505069898e-06 1.6385202225e+00 -2.8380002746e+00 1.6385202225e+00 2.8380002746e+00 
92500 6.3561123641e+00 9.6731778691e-06 1.6385202225e+00 -2.8380002746e+00 1.6385202225e+00 2.8380002746e+00 
92600 6.3561123642e+00 9.6954602149e-06 1.6385202225e+00 -2.8380002746e+00 1.6385202225e+00 2.8380002746e+00 
92700 6.3561123643e+00 9.7173607581e-06 1.6385202225e+00 -2.8380002746e+00 1.6385202225e+00 2.8380002746e+00 
92800 6.3561123644e+00 9.7388862658e-06 1.6385202225e+00 -2.8380002746e+00 1.6385202225e+00 2.8380002746e+00 
92900 6.3561123644e+00 9.7600435421e-06 1.6385202225e+00 -2.8380002746e+00 1.6385202225e+00 2.8380002746e+00 
93000 6.3561123645e+00 9.7808394115e-06 1.6385202225e+00 -2.8380002746e+00 1.6385202225e+00 2.8380002746e+00 
93100 6.3561123646e+00 9.8012807190e-06 1.6385202225e+00 -2.8380002746e+00 1.6385202225e+00 2.8380002746e+00 
93200 6.3561123647e+00 9.8213743275e-06 1.6385202225e+00 -2.8380002746e+00 1.6385202225e+00 2.8380002746e+00 
93300 6.3561123648e+00 9.8411271006e-06 1.6385202225e+00 -2.8380002746e+00 1.6385202225e+00 2.8380002746e+00 
93400 6.3561123649e+00 9.8605459136e-06 1.6385202225e+00 -2.8380002746e+00 1.6385202225e+00 2.8380002746e+00 
93500 6.3561123649e+00 9.8796376341e-06 1.6385202225e+00 -2.8380002746e+00 1.6385202225e+00 2.8380002746e+00 
93600 6.3561123650e+00 9.8984091269e-06 1.6385202225e+00 -2.8380002746e+00 1.6385202225e+00 2.8380002746e+00 
93700 6.3561123651e+00 9.9168672388e-06 1.6385202225e+00 -2.8380002746e+00 1.6385202225e+00 2.8380002746e+00 
93800 6.3561123652e+00 9.9350188040e-06 1.6385202225e+00 -2.8380002746e+00 1.6385202225e+00 2.8380002746e+00 
93900 6.3561123653e+00 9.9528706323e-06 1.6385202225e+00 -2.8380002746e+00 1.6385202225e+00 2.8380002746e+00 
94000 6.3561123653e+00 9.9704295084e-06 1.6385202225e+00 -2.8380002746e+00 1.6385202225e+00 2.8380002746e+00 
94100 6.3561123654e+00 9.9877021831e-06 1.6385202225e+00 -2.8380002746e+00 1.6385202225e+00 2.8380002746e+00 
94200 6.3561123655e+00 1.0004695377e-05 1.6385202225e+00 -2.8380002746e+00 1.6385202225e+00 2.8380002746e+00 
94300 6.3561123656e+00 1.0021415764e-05 1.6385202225e+00 -2.8380002746e+00 1.6385202225e+00 2.8380002746e+00 
94400 6.3561123656e+00 1.0037869980e-05 1.6385202225e+00 -2.8380002746e+00 1.6385202225e+00 2.8380002746e+00 
94500 6.3561123657e+00 1.0054064609e-05 1.6385202225e+00 -2.8380002746e+00 1.6385202225e+00 2.8380002746e+00 
94600 6.3561123658e+00 1.0070006189e-05 1.6385202225e+00 -2.8380002746e+00 1.6385202225e+00 2.8380002746e+00 
94700 6.3561123658e+00 1.0085701198e-05 1.6385202225e+00 -2.8380002746e+00 1.6385202225e+00 2.8380002746e+00 
94800 6.3561123659e+00 1.0101156057e-05 1.6385202225e+00 -2.8380002746e+00 1.6385202225e+00 2.8380002746e+00 
94900 6.3561123660e+00 1.0116377125e-05 1.6385202225e+00 -2.8380002746e+00 1.6385202225e+00 2.8380002746e+00 
95000 6.3561123660e+00 1.0131370698e-05 1.6385202225e+00 -2.8380002746e+00 1.6385202225e+00 2.8380002746e+00 
95100 6.3561123661e+00 1.0146143002e-05 1.6385202225e+00 -2.8380002746e+00 1.6385202225e+00 2.8380002746e+00 
95200 6.3561123662e+00 1.0160700190e-05 1.6385202225e+00 -2.8380002746e+00 1.6385202225e+00 2.8380002746e+00 
95300 6.3561123662e+00 1.0175048345e-05 1.6385202225e+00 -2.8380002746e+00 1.6385202225e+00 2.8380002746e+00 
95400 6.3561123663e+00 1.0189193469e-05 1.6385202225e+00 -2.8380002746e+00 1.6385202225e+00 2.8380002746e+00 
95500 6.3561123664e+00 1.0203141489e-05 1.6385202225e+00 -2.8380002746e+00 1.6385202225e+00 2.8380002746e+00 
95600 6.3561123664e+00 1.0216898250e-05 1.6385202225e+00 -2.8380002746e+00 1.6385202225e+00 2.8380002746e+00 
95700 6.3561123665e+00 1.0230469507e-05 1.6385202225e+00 -2.8380002746e+00 1.6385202225e+00 2.8380002746e+00 
95800 6.3561123665e+00 1.0243860936e-05 1.6385202225e+00 -2.8380002746e+00 1.6385202225e+00 2.8380002746e+00 
95900 6.3561123666e+00 1.0257078126e-05 1.6385202225e+00 -2.8380002746e+00 1.6385202225e+00 2.8380002746e+00 
96000 6.3561123667e+00 1.0270126567e-05 1.6385202225e+00 -2.8380002746e+00 1.6385202225e+00 2.8380002746e+00 
96100 6.3561123667e+00 1.0283011666e-05 1.6385202225e+00 -2.8380002746e+00 1.6385202225e+00 2.8380002746e+00 
96200 6.3561123668e+00 1.0295738733e-05 1.6385202225e+00 -2.8380002746e+00 1.6385202225e+00 2.8380002746e+00 
96300 6.3561123668e+00 1.0308312985e-05 1.6385202225e+00 -2.8380002746e+00 1.6385202225e+00 2.8380002746e+00 
96400 6.3561123669e+00 1.0320739541e-05 1.6385202225e+00 -2.8380002746e+00 1.6385202225e+00 2.8380002746e+00 
96500 6.3561123669e+00 1.0333023423e-05 1.6385202225e+00 -2.8380002746e+00 1.6385202225e+00 2.8380002746e+00 
96600 6.3561123670e+00 1.0345169554e-05 1.6385202225e+00 -2.8380002746e+00 1.6385202225e+00 2.8380002746e+00 
96700 6.3561123670e+00 1.0357182758e-05 1.6385202225e+00 -2.8380002746e+00 1.6385202225e+00 2.8380002746e+00 
96800 6.3561123671e+00 1.0369067758e-05 1.6385202225e+00 -2.8380002746e+00 1.6385202225e+00 2.8380002746e+00 
96900 6.3561123672e+00 1.0380829175e-05 1.6385202225e+00 -2.8380002746e+00 1.6385202225e+00 2.8380002746e+00 
97000 6.3561123672e+00 1.0392471529e-05 1.6385202225e+00 -2.8380002746e+00 1.6385202225e+00 2.8380002746e+00 
97100 6.3561123673e+00 1.0403999236e-05 1.6385202225e+00 -2.8380002746e+00 1.6385202225e+00 2.8380002746e+00 
97200 6.3561123673e+00 1.0415416607e-05 1.6385202225e+00 -2.8380002746e+00 1.6385202225e+00 2.8380002746e+00 
97300 6.3561123674e+00 1.0426727855e-05 1.6385202225e+00 -2.8380002746e+00 1.6385202225e+00 2.8380002746e+00 
97400 6.3561123674e+00 1.0437937082e-05 1.6385202225e+00 -2.8380002746e+00 1.6385202225e+00 2.8380002746e+00 
97500 6.3561123674e+00 1.0445281234e-05 1.6385202225e+00 -2.8380002746e+00 1.6385202225e+00 2.8380002746e+00 
97500 6.3561123674e+00 1.0445281233e-05 1.6385202225e+00 -2.8380002746e+00 1.6385202225e+00 2.8380002746e+00 
