# step Hamiltonian StressXX CellTensor1 CellTensor2 CellTensor3 CellTensor4 
0 4.3050172861e+00 -4.3793667712e-01 1.6122881582e+00 -2.7925650064e+00 1.6122881582e+00 2.7925650064e+00 
100 4.2872964550e+00 -4.3513260289e-01 1.6122881582e+00 -2.7925650064e+00 1.6122881582e+00 2.7925650064e+00 
200 4.2633394000e+00 -4.1896803836e-01 1.6258010821e+00 -2.8159700772e+00 1.6258010821e+00 2.8159700772e+00 
300 4.2408479036e+00 -4.0460528356e-01 1.6387029401e+00 -2.8383167507e+00 1.6387029401e+00 2.8383167507e+00 
400 4.2196762820e+00 -3.9180893339e-01 1.6510636155e+00 -2.8597260686e+00 1.6510636155e+00 2.8597260686e+00 
500 4.1997099332e+00 -3.8036813597e-01 1.6629430751e+00 -2.8803018962e+00 1.6629430751e+00 2.8803018962e+00 
600 4.1808583389e+00 -3.7009414961e-01 1.6743926896e+00 -2.9001332102e+00 1.6743926896e+00 2.9001332102e+00 
700 4.1630494269e+00 -3.6081829977e-01 1.6854563608e+00 -2.9192960509e+00 1.6854563608e+00 2.9192960509e+00 
800 4.1462250400e+00 -3.5239023015e-01 1.6961714943e+00 -2.9378552065e+00 1.6961714943e+00 2.9378552065e+00 
900 4.1303373116e+00 -3.4467637129e-01 1.7065698452e+00 -2.9558656786e+00 1.7065698452e+00 2.9558656786e+00 
1000 4.1153457894e+00 -3.3755857194e-01 1.7166782596e+00 -2.9733739659e+00 1.7166782596e+00 2.9733739659e+00 
1100 4.1012151756e+00 -3.3093285398e-01 1.7265193275e+00 -2.9904191955e+00 1.7265193275e+00 2.9904191955e+00 
1200 4.0879135791e+00 -3.2470826326e-01 1.7361119606e+00 -3.0070341234e+00 1.7361119606e+00 3.0070341234e+00 
1300 4.0754111890e+00 -3.1880579719e-01 1.7454719044e+00 -3.0232460217e+00 1.7454719044e+00 3.0232460217e+00 
1400 4.0636792950e+00 -3.1315739564e-01 1.7546121934e+00 -3.0390774665e+00 1.7546121934e+00 3.0390774665e+00 
1500 4.0526895925e+00 -3.0770498623e-01 1.7635435544e+00 -3.0545470376e+00 1.7635435544e+00 3.0545470376e+00 
1600 4.0424137189e+00 -3.0239957800e-01 1.7722747659e+00 -3.0696699395e+00 1.7722747659e+00 3.0696699395e+00 
1700 4.0328229748e+00 -2.9720039971e-01 1.7808129744e+00 -3.0844585505e+00 1.7808129744e+00 3.0844585505e+00 
1800 4.0238881916e+00 -2.9207408039e-01 1.7891639755e+00 -3.0989229086e+00 1.7891639755e+00 3.0989229086e+00 
1900 4.0155797139e+00 -2.8699387099e-01 1.7973324596e+00 -3.1130711380e+00 1.7973324596e+00 3.1130711380e+00 
2000 4.0078674663e+00 -2.8193890643e-01 1.8053222281e+00 -3.1269098230e+00 1.8053222281e+00 3.1269098230e+00 
2100 4.0007210826e+00 -2.7689350804e-01 1.8131363809e+00 -3.1404443327e+00 1.8131363809e+00 3.1404443327e+00 
2200 3.9941100757e+00 -2.7184652659e-01 1.8207774785e+00 -3.1536791021e+00 1.8207774785e+00 3.1536791021e+00 
2300 3.9880040336e+00 -2.6679072624e-01 1.8282476810e+00 -3.1666178723e+00 1.8282476810e+00 3.1666178723e+00 
2400 3.9823728243e+00 -2.6172220978e-01 1.8355488656e+00 -3.1792638950e+00 1.8355488656e+00 3.1792638950e+00 
2500 3.9771868016e+00 -2.5663988567e-01 1.8426827257e+00 -3.1916201031e+00 1.8426827257e+00 3.1916201031e+00 
2600 3.9724170005e+00 -2.5154497704e-01 1.8496508521e+00 -3.2036892520e+00 1.8496508521e+00 3.2036892520e+00 
2700 3.9680353160e+00 -2.4644057284e-01 1.8564547993e+00 -3.2154740344e+00 1.8564547993e+00 3.2154740344e+00 
2800 3.9640146600e+00 -2.4133122104e-01 1.8630961379e+00 -3.2269771703e+00 1.8630961379e+00 3.2269771703e+00 
2900 3.9603290941e+00 -2.3622256361e-01 1.8695764949e+00 -3.2382014777e+00 1.8695764949e+00 3.2382014777e+00 
3000 3.9569539340e+00 -2.3112101252e-01 1.8758975829e+00 -3.2491499234e+00 1.8758975829e+00 3.2491499234e+00 
3100 3.9538658269e+00 -2.2603346593e-01 1.8820612215e+00 -3.2598256586e+00 1.8820612215e+00 3.2598256586e+00 
3200 3.9510428016e+00 -2.2096706323e-01 1.8880693492e+00 -3.2702320410e+00 1.8880693492e+00 3.2702320410e+00 
3300 3.9484642920e+00 -2.1592897733e-01 1.8939240295e+00 -3.2803726448e+00 1.8939240295e+00 3.2803726448e+00 
3400 3.9461111370e+00 -2.1092624220e-01 1.8996274519e+00 -3.2902512621e+00 1.8996274519e+00 3.2902512621e+00 
3500 3.9439655590e+00 -2.0596561353e-01 1.9051819274e+00 -3.2998718960e+00 1.9051819274e+00 3.2998718960e+00 
3600 3.9420111230e+00 -2.0105345980e-01 1.9105898816e+00 -3.3092387474e+00 1.9105898816e+00 3.3092387474e+00 
3700 3.9402326817e+00 -1.9619568131e-01 1.9158538446e+00 -3.3183561987e+00 1.9158538446e+00 3.3183561987e+00 
3800 3.9386163070e+00 -1.9139765406e-01 1.9209764389e+00 -3.3272287923e+00 1.9209764389e+00 3.3272287923e+00 
3900 3.9371492136e+00 -1.8666419562e-01 1.9259603669e+00 -3.3358612089e+00 1.9259603669e+00 3.3358612089e+00 
4000 3.9358196757e+00 -1.8199954997e-01 1.9308083971e+00 -3.3442582434e+00 1.9308083971e+00 3.3442582434e+00 
4100 3.9346169417e+00 -1.7740738839e-01 1.9355233500e+00 -3.3524247814e+00 1.9355233500e+00 3.3524247814e+00 
4200 3.9335311469e+00 -1.7289082344e-01 1.9401080850e+00 -3.3603657754e+00 1.9401080850e+00 3.3603657754e+00 
4300 3.9325532291e+00 -1.6845243349e-01 1.9445654874e+00 -3.3680862228e+00 1.9445654874e+00 3.3680862228e+00 
4400 3.9316748465e+00 -1.6409429512e-01 1.9488984562e+00 -3.3755911449e+00 1.9488984562e+00 3.3755911449e+00 
4500 3.9308883009e+00 -1.5981802115e-01 1.9531098928e+00 -3.3828855670e+00 1.9531098928e+00 3.3828855670e+00 
4600 3.9301864662e+00 -1.5562480244e-01 1.9572026912e+00 -3.3899745019e+00 1.9572026912e+00 3.3899745019e+00 
4700 3.9295627246e+00 -1.5151545139e-01 1.9611797290e+00 -3.3968629334e+00 1.9611797290e+00 3.3968629334e+00 
4800 3.9290109077e+00 -1.4749044602e-01 1.9650438596e+00 -3.4035558040e+00 1.9650438596e+00 3.4035558040e+00 
4900 3.9285252471e+00 -1.4354997303e-01 1.9687979057e+00 -3.4100580025e+00 1.9687979057e+00 3.4100580025e+00 
5000 3.9281003301e+00 -1.3969396925e-01 1.9724446536e+00 -3.4163743552e+00 1.9724446536e+00 3.4163743552e+00 
5100 3.9277310625e+00 -1.3592216046e-01 1.9759868491e+00 -3.4225096178e+00 1.9759868491e+00 3.4225096178e+00 
5200 3.9274126388e+00 -1.3223409718e-01 1.9794271940e+00 -3.4284684698e+00 1.9794271940e+00 3.4284684698e+00 
5300 3.9271405163e+00 -1.2862918714e-01 1.9827683430e+00 -3.4342555097e+00 1.9827683430e+00 3.4342555097e+00 
5400 3.9269103956e+00 -1.2510672409e-01 1.9860129026e+00 -3.4398752518e+00 1.9860129026e+00 3.4398752518e+00 
5500 3.9267182050e+00 -1.2166591315e-01 1.9891634295e+00 -3.4453321244e+00 1.9891634295e+00 3.4453321244e+00 
5600 3.9265600887e+00 -1.1830589250e-01 1.9922224300e+00 -3.4506304688e+00 1.9922224300e+00 3.4506304688e+00 
5700 3.9264323984e+00 -1.1502575178e-01 1.9951923603e+00 -3.4557745390e+00 1.9951923603e+00 3.4557745390e+00 
5800 3.9263316868e+00 -1.1182454723e-01 1.9980756264e+00 -3.4607685023e+00 1.9980756264e+00 3.4607685023e+00 
5900 3.9262547035e+00 -1.0870131399e-01 2.0008745849e+00 -3.4656164405e+00 2.0008745849e+00 3.4656164405e+00 
6000 3.9261983921e+00 -1.0565507567e-01 2.0035915436e+00 -3.4703223512e+00 2.0035915436e+00 3.4703223512e+00 
6100 3.9261598882e+00 -1.0268485162e-01 2.0062287632e+00 -3.4748901496e+00 2.0062287632e+00 3.4748901496e+00 
6200 3.9261365180e+00 -9.9789662123e-02 2.0087884578e+00 -3.4793236705e+00 2.0087884578e+00 3.4793236705e+00 
6300 3.9261257966e+00 -9.6968531808e-02 2.0112727960e+00 -3.4836266706e+00 2.0112727960e+00 3.4836266706e+00 
6400 3.9261254269e+00 -9.4220491602e-02 2.0136839031e+00 -3.4878028305e+00 2.0136839031e+00 3.4878028305e+00 
6500 3.9261332975e+00 -9.1544579418e-02 2.0160238610e+00 -3.4918557566e+00 2.0160238610e+00 3.4918557566e+00 
6600 3.9261474803e+00 -8.8939839868e-02 2.0182947107e+00 -3.4957889836e+00 2.0182947107e+00 3.4957889836e+00 
6700 3.9261662278e+00 -8.6405323204e-02 2.0204984524e+00 -3.4996059762e+00 2.0204984524e+00 3.4996059762e+00 
6800 3.9261879687e+00 -8.3940083685e-02 2.0226370472e+00 -3.5033101310e+00 2.0226370472e+00 3.5033101310e+00 
6900 3.9262113038e+00 -8.1543177534e-02 2.0247124176e+00 -3.5069047779e+00 2.0247124176e+00 3.5069047779e+00 
7000 3.9262350006e+00 -7.9213660655e-02 2.0267264488e+00 -3.5103931823e+00 2.0267264488e+00 3.5103931823e+00 
7100 3.9262579871e+00 -7.6950586214e-02 2.0286809893e+00 -3.5137785458e+00 2.0286809893e+00 3.5137785458e+00 
7200 3.9262793448e+00 -7.4753002221e-02 2.0305778515e+00 -3.5170640075e+00 2.0305778515e+00 3.5170640075e+00 
7300 3.9262983016e+00 -7.2619949172e-02 2.0324188123e+00 -3.5202526452e+00 2.0324188123e+00 3.5202526452e+00 
7400 3.9263142235e+00 -7.0550457852e-02 2.0342056138e+00 -3.5233474761e+00 2.0342056138e+00 3.5233474761e+00 
7500 3.9263266062e+00 -6.8543547337e-02 2.0359399634e+00 -3.5263514577e+00 2.0359399634e+00 3.5263514577e+00 
7600 3.9263350658e+00 -6.6598223241e-02 2.0376235342e+00 -3.5292674880e+00 2.0376235342e+00 3.5292674880e+00 
7700 3.9263393301e+00 -6.4713476252e-02 2.0392579657e+00 -3.5320984063e+00 2.0392579657e+00 3.5320984063e+00 
7800 3.9263392287e+00 -6.2888280949e-02 2.0408448630e+00 -3.5348469931e+00 2.0408448630e+00 3.5348469931e+00 
7900 3.9263346835e+00 -6.1121594942e-02 2.0423857981e+00 -3.5375159709e+00 2.0423857981e+00 3.5375159709e+00 
8000 3.9263256996e+00 -5.9412358314e-02 2.0438823090e+00 -3.5401080039e+00 2.0438823090e+00 3.5401080039e+00 
8100 3.9263123550e+00 -5.7759493364e-02 2.0453359004e+00 -3.5426256980e+00 2.0453359004e+00 3.5426256980e+00 
8200 3.9262947922e+00 -5.6161904650e-02 2.0467480434e+00 -3.5450716014e+00 2.0467480434e+00 3.5450716014e+00 
8300 3.9262732084e+00 -5.4618479309e-02 2.0481201755e+00 -3.5474482040e+00 2.0481201755e+00 3.5474482040e+00 
8400 3.9262478470e+00 -5.3128087636e-02 2.0494537008e+00 -3.5497579375e+00 2.0494537008e+00 3.5497579375e+00 
8500 3.9262189895e+00 -5.1689583901e-02 2.0507499898e+00 -3.5520031759e+00 2.0507499898e+00 3.5520031759e+00 
8600 3.9261869470e+00 -5.0301807383e-02 2.0520103793e+00 -3.5541862345e+00 2.0520103793e+00 3.5541862345e+00 
8700 3.9261520530e+00 -4.8963583599e-02 2.0532361726e+00 -3.5563093708e+00 2.0532361726e+00 3.5563093708e+00 
8800 3.9261146567e+00 -4.7673725689e-02 2.0544286394e+00 -3.5583747839e+00 2.0544286394e+00 3.5583747839e+00 
8900 3.9260751160e+00 -4.6431035952e-02 2.0555890158e+00 -3.5603846148e+00 2.0555890158e+00 3.5603846148e+00 
9000 3.9260337920e+00 -4.5234307495e-02 2.0567185043e+00 -3.5623409464e+00 2.0567185043e+00 3.5623409464e+00 
9100 3.9259910436e+00 -4.4082325968e-02 2.0578182741e+00 -3.5642458035e+00 2.0578182741e+00 3.5642458035e+00 
9200 3.9259472228e+00 -4.2973871379e-02 2.0588894607e+00 -3.5661011531e+00 2.0588894607e+00 3.5661011531e+00 
9300 3.9259026704e+00 -4.1907719945e-02 2.0599331666e+00 -3.5679089047e+00 2.0599331666e+00 3.5679089047e+00 
9400 3.9258577129e+00 -4.0882645978e-02 2.0609504609e+00 -3.5696709102e+00 2.0609504609e+00 3.5696709102e+00 
9500 3.9258126586e+00 -3.9897423772e-02 2.0619423801e+00 -3.5713889645e+00 2.0619423801e+00 3.5713889645e+00 
9600 3.9257677960e+00 -3.8950829483e-02 2.0629099275e+00 -3.5730648059e+00 2.0629099275e+00 3.5730648059e+00 
9700 3.9257233913e+00 -3.8041642987e-02 2.0638540744e+00 -3.5747001162e+00 2.0638540744e+00 3.5747001162e+00 
9800 3.9256796872e+00 -3.7168649693e-02 2.0647757595e+00 -3.5762965217e+00 2.0647757595e+00 3.5762965217e+00 
9900 3.9256369016e+00 -3.6330642312e-02 2.0656758899e+00 -3.5778555933e+00 2.0656758899e+00 3.5778555933e+00 
10000 3.9255952271e+00 -3.5526422558e-02 2.0665553410e+00 -3.5793788473e+00 2.0665553410e+00 3.5793788473e+00 
10100 3.9255548309e+00 -3.4754802789e-02 2.0674149571e+00 -3.5808677461e+00 2.0674149571e+00 3.5808677461e+00 
10200 3.9255158549e+00 -3.4014607560e-02 2.0682555517e+00 -3.5823236986e+00 2.0682555517e+00 3.5823236986e+00 
10300 3.9254784158e+00 -3.3304675102e-02 2.0690779081e+00 -3.5837480616e+00 2.0690779081e+00 3.5837480616e+00 
10400 3.9254426067e+00 -3.2623858715e-02 2.0698827795e+00 -3.5851421398e+00 2.0698827795e+00 3.5851421398e+00 
10500 3.9254084969e+00 -3.1971028067e-02 2.0706708900e+00 -3.5865071872e+00 2.0706708900e+00 3.5865071872e+00 
10600 3.9253761342e+00 -3.1345070407e-02 2.0714429348e+00 -3.5878444080e+00 2.0714429348e+00 3.5878444080e+00 
10700 3.9253455455e+00 -3.0744891682e-02 2.0721995807e+00 -3.5891549573e+00 2.0721995807e+00 3.5891549573e+00 
10800 3.9253167387e+00 -3.0169417570e-02 2.0729414669e+00 -3.5904399419e+00 2.0729414669e+00 3.5904399419e+00 
10900 3.9252897042e+00 -2.9617594413e-02 2.0736692053e+00 -3.5917004217e+00 2.0736692053e+00 3.5917004217e+00 
11000 3.9252644165e+00 -2.9088390073e-02 2.0743833813e+00 -3.5929374108e+00 2.0743833813e+00 3.5929374108e+00 
11100 3.9252408359e+00 -2.8580794691e-02 2.0750845542e+00 -3.5941518779e+00 2.0750845542e+00 3.5941518779e+00 
11200 3.9252189103e+00 -2.8093821368e-02 2.0757732581e+00 -3.5953447480e+00 2.0757732581e+00 3.5953447480e+00 
11300 3.9251985771e+00 -2.7626506768e-02 2.0764500022e+00 -3.5965169032e+00 2.0764500022e+00 3.5965169032e+00 
11400 3.9251797647e+00 -2.7177911637e-02 2.0771152718e+00 -3.5976691839e+00 2.0771152718e+00 3.5976691839e+00 
11500 3.9251623940e+00 -2.6747121256e-02 2.0777695286e+00 -3.5988023900e+00 2.0777695286e+00 3.5988023900e+00 
11600 3.9251463804e+00 -2.6333245815e-02 2.0784132117e+00 -3.5999172818e+00 2.0784132117e+00 3.5999172818e+00 
11700 3.9251316348e+00 -2.5935420731e-02 2.0790467379e+00 -3.6010145813e+00 2.0790467379e+00 3.6010145813e+00 
11800 3.9251180656e+00 -2.5552806896e-02 2.0796705025e+00 -3.6020949734e+00 2.0796705025e+00 3.6020949734e+00 
11900 3.9251055796e+00 -2.5184590864e-02 2.0802848803e+00 -3.6031591068e+00 2.0802848803e+00 3.6031591068e+00 
12000 3.9250940833e+00 -2.4829984995e-02 2.0808902255e+00 -3.6042075956e+00 2.0808902255e+00 3.6042075956e+00 
12100 3.9250834840e+00 -2.4488227528e-02 2.0814868733e+00 -3.6052410199e+00 2.0814868733e+00 3.6052410199e+00 
12200 3.9250736907e+00 -2.4158582621e-02 2.0820751398e+00 -3.6062599274e+00 2.0820751398e+00 3.6062599274e+00 
12300 3.9250646154e+00 -2.3840340336e-02 2.0826553231e+00 -3.6072648343e+00 2.0826553231e+00 3.6072648343e+00 
12400 3.9250561731e+00 -2.3532816583e-02 2.0832277038e+00 -3.6082562267e+00 2.0832277038e+00 3.6082562267e+00 
12500 3.9250482830e+00 -2.3235353023e-02 2.0837925455e+00 -3.6092345613e+00 2.0837925455e+00 3.6092345613e+00 
12600 3.9250408689e+00 -2.2947316932e-02 2.0843500960e+00 -3.6102002670e+00 2.0843500960e+00 3.6102002670e+00 
12700 3.9250338595e+00 -2.2668101030e-02 2.0849005871e+00 -3.6111537456e+00 2.0849005871e+00 3.6111537456e+00 
12800 3.9250271888e+00 -2.2397123277e-02 2.0854442362e+00 -3.6120953735e+00 2.0854442362e+00 3.6120953735e+00 
12900 3.9250207963e+00 -2.2133826633e-02 2.0859812461e+00 -3.6130255019e+00 2.0859812461e+00 3.6130255019e+00 
13000 3.9250146268e+00 -2.1877678789e-02 2.0865118061e+00 -3.6139444588e+00 2.0865118061e+00 3.6139444588e+00 
13100 3.9250086313e+00 -2.1628171875e-02 2.0870360925e+00 -3.6148525495e+00 2.0870360925e+00 3.6148525495e+00 
13200 3.9250027659e+00 -2.1384822130e-02 2.0875542692e+00 -3.6157500577e+00 2.0875542692e+00 3.6157500577e+00 
13300 3.9249969925e+00 -2.1147169555e-02 2.0880664881e+00 -3.6166372469e+00 2.0880664881e+00 3.6166372469e+00 
13400 3.9249912783e+00 -2.0914777538e-02 2.0885728902e+00 -3.6175143611e+00 2.0885728902e+00 3.6175143611e+00 
13500 3.9249855956e+00 -2.0687232457e-02 2.0890736056e+00 -3.6183816256e+00 2.0890736056e+00 3.6183816256e+00 
13600 3.9249799215e+00 -2.0464143255e-02 2.0895687545e+00 -3.6192392486e+00 2.0895687545e+00 3.6192392486e+00 
13700 3.9249742380e+00 -2.0245141006e-02 2.0900584474e+00 -3.6200874217e+00 2.0900584474e+00 3.6200874217e+00 
13800 3.9249685312e+00 -2.0029878447e-02 2.0905427861e+00 -3.6209263209e+00 2.0905427861e+00 3.6209263209e+00 
13900 3.9249627912e+00 -1.9818029502e-02 2.0910218637e+00 -3.6217561076e+00 2.0910218637e+00 3.6217561076e+00 
14000 3.9249570118e+00 -1.9609288783e-02 2.0914957654e+00 -3.6225769295e+00 2.0914957654e+00 3.6225769295e+00 
14100 3.9249511899e+00 -1.9403371074e-02 2.0919645692e+00 -3.6233889214e+00 2.0919645692e+00 3.6233889214e+00 
14200 3.9249453256e+00 -1.9200010803e-02 2.0924283458e+00 -3.6241922062e+00 2.0924283458e+00 3.6241922062e+00 
14300 3.9249394212e+00 -1.8998961496e-02 2.0928871599e+00 -3.6249868955e+00 2.0928871599e+00 3.6249868955e+00 
14400 3.9249334814e+00 -1.8799995218e-02 2.0933410699e+00 -3.6257730907e+00 2.0933410699e+00 3.6257730907e+00 
14500 3.9249275129e+00 -1.8602902006e-02 2.0937901288e+00 -3.6265508835e+00 2.0937901288e+00 3.6265508835e+00 
14600 3.9249215236e+00 -1.8407489283e-02 2.0942343844e+00 -3.6273203567e+00 2.0942343844e+00 3.6273203567e+00 
14700 3.9249155229e+00 -1.8213581270e-02 2.0946738799e+00 -3.6280815853e+00 2.0946738799e+00 3.6280815853e+00 
14800 3.9249095210e+00 -1.8021018386e-02 2.0951086543e+00 -3.6288346367e+00 2.0951086543e+00 3.6288346367e+00 
14900 3.9249035288e+00 -1.7829656639e-02 2.0955387426e+00 -3.6295795715e+00 2.0955387426e+00 3.6295795715e+00 
15000 3.9248975575e+00 -1.7639367013e-02 2.0959641764e+00 -3.6303164444e+00 2.0959641764e+00 3.6303164444e+00 
15100 3.9248916186e+00 -1.7450034853e-02 2.0963849841e+00 -3.6310453047e+00 2.0963849841e+00 3.6310453047e+00 
15200 3.9248857235e+00 -1.7261559240e-02 2.0968011914e+00 -3.6317661968e+00 2.0968011914e+00 3.6317661968e+00 
15300 3.9248798834e+00 -1.7073852368e-02 2.0972128213e+00 -3.6324791608e+00 2.0972128213e+00 3.6324791608e+00 
15400 3.9248741091e+00 -1.6886838919e-02 2.0976198950e+00 -3.6331842332e+00 2.0976198950e+00 3.6331842332e+00 
15500 3.9248684110e+00 -1.6700455442e-02 2.0980224317e+00 -3.6338814471e+00 2.0980224317e+00 3.6338814471e+00 
15600 3.9248627987e+00 -1.6514649725e-02 2.0984204490e+00 -3.6345708333e+00 2.0984204490e+00 3.6345708333e+00 
15700 3.9248572811e+00 -1.6329380184e-02 2.0988139632e+00 -3.6352524199e+00 2.0988139632e+00 3.6352524199e+00 
15800 3.9248518665e+00 -1.6144615237e-02 2.0992029897e+00 -3.6359262336e+00 2.0992029897e+00 3.6359262336e+00 
15900 3.9248465621e+00 -1.5960332706e-02 2.0995875430e+00 -3.6365922994e+00 2.0995875430e+00 3.6365922994e+00 
16000 3.9248413743e+00 -1.5776519206e-02 2.0999676370e+00 -3.6372506416e+00 2.0999676370e+00 3.6372506416e+00 
16100 3.9248363086e+00 -1.5593169553e-02 2.1003432854e+00 -3.6379012837e+00 2.1003432854e+00 3.6379012837e+00 
16200 3.9248313697e+00 -1.5410286182e-02 2.1007145016e+00 -3.6385442490e+00 2.1007145016e+00 3.6385442490e+00 
16300 3.9248265610e+00 -1.5227878567e-02 2.1010812991e+00 -3.6391795608e+00 2.1010812991e+00 3.6391795608e+00 
16400 3.9248218856e+00 -1.5045962659e-02 2.1014436914e+00 -3.6398072428e+00 2.1014436914e+00 3.6398072428e+00 
16500 3.9248173451e+00 -1.4864560334e-02 2.1018016927e+00 -3.6404273192e+00 2.1018016927e+00 3.6404273192e+00 
16600 3.9248129408e+00 -1.4683698855e-02 2.1021553173e+00 -3.6410398150e+00 2.1021553173e+00 3.6410398150e+00 
16700 3.9248086728e+00 -1.4503410347e-02 2.1025045804e+00 -3.6416447564e+00 2.1025045804e+00 3.6416447564e+00 
16800 3.9248045409e+00 -1.4323731289e-02 2.1028494978e+00 -3.6422421708e+00 2.1028494978e+00 3.6422421708e+00 
16900 3.9248005438e+00 -1.4144702017e-02 2.1031900861e+00 -3.6428320870e+00 2.1031900861e+00 3.6428320870e+00 
17000 3.9247966798e+00 -1.3966366248e-02 2.1035263628e+00 -3.6434145355e+00 2.1035263628e+00 3.6434145355e+00 
17100 3.9247929467e+00 -1.3788770622e-02 2.1038583466e+00 -3.6439895483e+00 2.1038583466e+00 3.6439895483e+00 
17200 3.9247893417e+00 -1.3611964254e-02 2.1041860571e+00 -3.6445571595e+00 2.1041860571e+00 3.6445571595e+00 
17300 3.9247858615e+00 -1.3435998310e-02 2.1045095150e+00 -3.6451174050e+00 2.1045095150e+00 3.6451174050e+00 
17400 3.9247825027e+00 -1.3260925604e-02 2.1048287423e+00 -3.6456703229e+00 2.1048287423e+00 3.6456703229e+00 
17500 3.9247792613e+00 -1.3086800204e-02 2.1051437622e+00 -3.6462159533e+00 2.1051437622e+00 3.6462159533e+00 
17600 3.9247761332e+00 -1.2913677063e-02 2.1054545989e+00 -3.6467543384e+00 2.1054545989e+00 3.6467543384e+00 
17700 3.9247731142e+00 -1.2741611674e-02 2.1057612783e+00 -3.6472855227e+00 2.1057612783e+00 3.6472855227e+00 
17800 3.9247701998e+00 -1.2570659733e-02 2.1060638273e+00 -3.6478095528e+00 2.1060638273e+00 3.6478095528e+00 
17900 3.9247673854e+00 -1.2400876827e-02 2.1063622740e+00 -3.6483264777e+00 2.1063622740e+00 3.6483264777e+00 
18000 3.9247646666e+00 -1.2232318147e-02 2.1066566480e+00 -3.6488363484e+00 2.1066566480e+00 3.6488363484e+00 
18100 3.9247620388e+00 -1.2065038207e-02 2.1069469800e+00 -3.6493392183e+00 2.1069469800e+00 3.6493392183e+00 
18200 3.9247594974e+00 -1.1899090593e-02 2.1072333022e+00 -3.6498351428e+00 2.1072333022e+00 3.6498351428e+00 
18300 3.9247570381e+00 -1.1734527728e-02 2.1075156477e+00 -3.6503241795e+00 2.1075156477e+00 3.6503241795e+00 
18400 3.9247546566e+00 -1.1571400654e-02 2.1077940510e+00 -3.6508063881e+00 2.1077940510e+00 3.6508063881e+00 
18500 3.9247523487e+00 -1.1409758831e-02 2.1080685477e+00 -3.6512818304e+00 2.1080685477e+00 3.6512818304e+00 
18600 3.9247501104e+00 -1.1249649960e-02 2.1083391746e+00 -3.6517505701e+00 2.1083391746e+00 3.6517505701e+00 
18700 3.9247479378e+00 -1.1091119815e-02 2.1086059696e+00 -3.6522126726e+00 2.1086059696e+00 3.6522126726e+00 
18800 3.9247458274e+00 -1.0934212103e-02 2.1088689716e+00 -3.6526682053e+00 2.1088689716e+00 3.6526682053e+00 
18900 3.9247437756e+00 -1.0778968330e-02 2.1091282204e+00 -3.6531172375e+00 2.1091282204e+00 3.6531172375e+00 
19000 3.9247417794e+00 -1.0625427688e-02 2.1093837570e+00 -3.6535598397e+00 2.1093837570e+00 3.6535598397e+00 
19100 3.9247398356e+00 -1.0473626960e-02 2.1096356229e+00 -3.6539960843e+00 2.1096356229e+00 3.6539960843e+00 
19200 3.9247379415e+00 -1.0323600439e-02 2.1098838609e+00 -3.6544260451e+00 2.1098838609e+00 3.6544260451e+00 
19300 3.9247360945e+00 -1.0175379855e-02 2.1101285141e+00 -3.6548497970e+00 2.1101285141e+00 3.6548497970e+00 
19400 3.9247342923e+00 -1.0028994327e-02 2.1103696268e+00 -3.6552674163e+00 2.1103696268e+00 3.6552674163e+00 
19500 3.9247325328e+00 -9.8844703207e-03 2.1106072435e+00 -3.6556789806e+00 2.1106072435e+00 3.6556789806e+00 
19600 3.9247308139e+00 -9.7418316211e-03 2.1108414096e+00 -3.6560845682e+00 2.1108414096e+00 3.6560845682e+00 
19700 3.9247291339e+00 -9.6010993178e-03 2.1110721709e+00 -3.6564842584e+00 2.1110721709e+00 3.6564842584e+00 
19800 3.9247274913e+00 -9.4622918016e-03 2.1112995736e+00 -3.6568781315e+00 2.1112995736e+00 3.6568781315e+00 
19900 3.9247258847e+00 -9.3254247715e-03 2.1115236645e+00 -3.6572662683e+00 2.1115236645e+00 3.6572662683e+00 
20000 3.9247243128e+00 -9.1905112524e-03 2.1117444905e+00 -3.6576487502e+00 2.1117444905e+00 3.6576487502e+00 
20100 3.9247227745e+00 -9.0575616224e-03 2.1119620990e+00 -3.6580256591e+00 2.1119620990e+00 3.6580256591e+00 
20200 3.9247212690e+00 -8.9265836487e-03 2.1121765373e+00 -3.6583970772e+00 2.1121765373e+00 3.6583970772e+00 
20300 3.9247197952e+00 -8.7975825320e-03 2.1123878533e+00 -3.6587630872e+00 2.1123878533e+00 3.6587630872e+00 
20400 3.9247183526e+00 -8.6705609585e-03 2.1125960946e+00 -3.6591237717e+00 2.1125960946e+00 3.6591237717e+00 
20500 3.9247169405e+00 -8.5455191593e-03 2.1128013090e+00 -3.6594792134e+00 2.1128013090e+00 3.6594792134e+00 
20600 3.9247155583e+00 -8.4224549754e-03 2.1130035441e+00 -3.6598294950e+00 2.1130035441e+00 3.6598294950e+00 
20700 3.9247142057e+00 -8.3013639296e-03 2.1132028478e+00 -3.6601746991e+00 2.1132028478e+00 3.6601746991e+00 
20800 3.9247128820e+00 -8.1822393026e-03 2.1133992675e+00 -3.6605149080e+00 2.1133992675e+00 3.6605149080e+00 
20900 3.9247115871e+00 -8.0650722143e-03 2.1135928505e+00 -3.6608502036e+00 2.1135928505e+00 3.6608502036e+00 
21000 3.9247103206e+00 -7.9498517092e-03 2.1137836440e+00 -3.6611806676e+00 2.1137836440e+00 3.6611806676e+00 
21100 3.9247090821e+00 -7.8365648454e-03 2.1139716947e+00 -3.6615063809e+00 2.1139716947e+00 3.6615063809e+00 
21200 3.9247078715e+00 -7.7251967861e-03 2.1141570491e+00 -3.6618274242e+00 2.1141570491e+00 3.6618274242e+00 
21300 3.9247066884e+00 -7.6157308942e-03 2.1143397533e+00 -3.6621438771e+00 2.1143397533e+00 3.6621438771e+00 
21400 3.9247055327e+00 -7.5081488288e-03 2.1145198530e+00 -3.6624558190e+00 2.1145198530e+00 3.6624558190e+00 
21500 3.9247044041e+00 -7.4024306431e-03 2.1146973934e+00 -3.6627633280e+00 2.1146973934e+00 3.6627633280e+00 
21600 3.9247033022e+00 -7.2985548838e-03 2.1148724192e+00 -3.6630664816e+00 2.1148724192e+00 3.6630664816e+00 
21700 3.9247022270e+00 -7.1964986907e-03 2.1150449746e+00 -3.6633653563e+00 2.1150449746e+00 3.6633653563e+00 
21800 3.9247011781e+00 -7.0962378970e-03 2.1152151033e+00 -3.6636600278e+00 2.1152151033e+00 3.6636600278e+00 
21900 3.9247001551e+00 -6.9977471294e-03 2.1153828482e+00 -3.6639505705e+00 2.1153828482e+00 3.6639505705e+00 
22000 3.9246991580e+00 -6.9009999080e-03 2.1155482518e+00 -3.6642370579e+00 2.1155482518e+00 3.6642370579e+00 
22100 3.9246981862e+00 -6.8059687448e-03 2.1157113558e+00 -3.6645195624e+00 2.1157113558e+00 3.6645195624e+00 
22200 3.9246972394e+00 -6.7126252422e-03 2.1158722013e+00 -3.6647981551e+00 2.1158722013e+00 3.6647981551e+00 
22300 3.9246963174e+00 -6.6209401890e-03 2.1160308288e+00 -3.6650729059e+00 2.1160308288e+00 3.6650729059e+00 
22400 3.9246954197e+00 -6.5308836557e-03 2.1161872779e+00 -3.6653438837e+00 2.1161872779e+00 3.6653438837e+00 
22500 3.9246945459e+00 -6.4424250873e-03 2.1163415876e+00 -3.6656111558e+00 2.1163415876e+00 3.6656111558e+00 
22600 3.9246936957e+00 -6.3555333940e-03 2.1164937960e+00 -3.6658747886e+00 2.1164937960e+00 3.6658747886e+00 
22700 3.9246928684e+00 -6.2701770405e-03 2.1166439408e+00 -3.6661348470e+00 2.1166439408e+00 3.6661348470e+00 
22800 3.9246920638e+00 -6.1863241314e-03 2.1167920585e+00 -3.6663913944e+00 2.1167920585e+00 3.6663913944e+00 
22900 3.9246912814e+00 -6.1039424949e-03 2.1169381852e+00 -3.6666444932e+00 2.1169381852e+00 3.6666444932e+00 
23000 3.9246905206e+00 -6.0229997636e-03 2.1170823559e+00 -3.6668942043e+00 2.1170823559e+00 3.6668942043e+00 
23100 3.9246897809e+00 -5.9434634519e-03 2.1172246052e+00 -3.6671405872e+00 2.1172246052e+00 3.6671405872e+00 
23200 3.9246890619e+00 -5.8653010304e-03 2.1173649665e+00 -3.6673837002e+00 2.1173649665e+00 3.6673837002e+00 
23300 3.9246883630e+00 -5.7884799979e-03 2.1175034728e+00 -3.6676236000e+00 2.1175034728e+00 3.6676236000e+00 
23400 3.9246876838e+00 -5.7129679490e-03 2.1176401559e+00 -3.6678603422e+00 2.1176401559e+00 3.6678603422e+00 
23500 3.9246870236e+00 -5.6387326392e-03 2.1177750473e+00 -3.6680939810e+00 2.1177750473e+00 3.6680939810e+00 
23600 3.9246863820e+00 -5.5657420463e-03 2.1179081774e+00 -3.6683245691e+00 2.1179081774e+00 3.6683245691e+00 
23700 3.9246857585e+00 -5.4939644284e-03 2.1180395759e+00 -3.6685521580e+00 2.1180395759e+00 3.6685521580e+00 
23800 3.9246851525e+00 -5.4233683786e-03 2.1181692718e+00 -3.6687767978e+00 2.1181692718e+00 3.6687767978e+00 
23900 3.9246845635e+00 -5.3539228764e-03 2.1182972933e+00 -3.6689985375e+00 2.1182972933e+00 3.6689985375e+00 
24000 3.9246839910e+00 -5.2855973349e-03 2.1184236678e+00 -3.6692174246e+00 2.1184236678e+00 3.6692174246e+00 
24100 3.9246834345e+00 -5.2183616455e-03 2.1185484221e+00 -3.6694335054e+00 2.1185484221e+00 3.6694335054e+00 
24200 3.9246828935e+00 -5.1521862190e-03 2.1186715822e+00 -3.6696468249e+00 2.1186715822e+00 3.6696468249e+00 
24300 3.9246823675e+00 -5.0870420224e-03 2.1187931734e+00 -3.6698574270e+00 2.1187931734e+00 3.6698574270e+00 
24400 3.9246818561e+00 -5.0229006140e-03 2.1189132203e+00 -3.6700653543e+00 2.1189132203e+00 3.6700653543e+00 
24500 3.9246813588e+00 -4.9597341738e-03 2.1190317468e+00 -3.6702706482e+00 2.1190317468e+00 3.6702706482e+00 
24600 3.9246808751e+00 -4.8975155312e-03 2.1191487761e+00 -3.6704733491e+00 2.1191487761e+00 3.6704733491e+00 
24700 3.9246804046e+00 -4.8362181899e-03 2.1192643310e+00 -3.6706734960e+00 2.1192643310e+00 3.6706734960e+00 
24800 3.9246799469e+00 -4.7758163491e-03 2.1193784334e+00 -3.6708711271e+00 2.1193784334e+00 3.6708711271e+00 
24900 3.9246795016e+00 -4.7162849222e-03 2.1194911046e+00 -3.6710662794e+00 2.1194911046e+00 3.6710662794e+00 
25000 3.9246790683e+00 -4.6575995524e-03 2.1196023654e+00 -3.6712589888e+00 2.1196023654e+00 3.6712589888e+00 
25100 3.9246786466e+00 -4.5997366253e-03 2.1197122360e+00 -3.6714492902e+00 2.1197122360e+00 3.6714492902e+00 
25200 3.9246782361e+00 -4.5426732793e-03 2.1198207360e+00 -3.6716372178e+00 2.1198207360e+00 3.6716372178e+00 
25300 3.9246778366e+00 -4.4863874129e-03 2.1199278845e+00 -3.6718228044e+00 2.1199278845e+00 3.6718228044e+00 
25400 3.9246774476e+00 -4.4308576896e-03 2.1200337000e+00 -3.6720060822e+00 2.1200337000e+00 3.6720060822e+00 
25500 3.9246770689e+00 -4.3760635406e-03 2.1201382006e+00 -3.6721870825e+00 2.1201382006e+00 3.6721870825e+00 
25600 3.9246767001e+00 -4.3219851650e-03 2.1202414037e+00 -3.6723658356e+00 2.1202414037e+00 3.6723658356e+00 
25700 3.9246763410e+00 -4.2686035280e-03 2.1203433266e+00 -3.6725423711e+00 2.1203433266e+00 3.6725423711e+00 
25800 3.9246759912e+00 -4.2159003569e-03 2.1204439857e+00 -3.6727167178e+00 2.1204439857e+00 3.6727167178e+00 
25900 3.9246756506e+00 -4.1638581350e-03 2.1205433972e+00 -3.6728889037e+00 2.1205433972e+00 3.6728889037e+00 
26000 3.9246753188e+00 -4.1124600940e-03 2.1206415770e+00 -3.6730589561e+00 2.1206415770e+00 3.6730589561e+00 
26100 3.9246749956e+00 -4.0616902047e-03 2.1207385404e+00 -3.6732269016e+00 2.1207385404e+00 3.6732269016e+00 
26200 3.9246746809e+00 -4.0115331655e-03 2.1208343024e+00 -3.6733927661e+00 2.1208343024e+00 3.6733927661e+00 
26300 3.9246743742e+00 -3.9619743900e-03 2.1209288775e+00 -3.6735565750e+00 2.1209288775e+00 3.6735565750e+00 
26400 3.9246740755e+00 -3.9129999933e-03 2.1210222800e+00 -3.6737183530e+00 2.1210222800e+00 3.6737183530e+00 
26500 3.9246737846e+00 -3.8645967763e-03 2.1211145239e+00 -3.6738781241e+00 2.1211145239e+00 3.6738781241e+00 
26600 3.9246735012e+00 -3.8167522097e-03 2.1212056229e+00 -3.6740359121e+00 2.1212056229e+00 3.6740359121e+00 
26700 3.9246732251e+00 -3.7694544164e-03 2.1212955901e+00 -3.6741917399e+00 2.1212955901e+00 3.6741917399e+00 
26800 3.9246729562e+00 -3.7226921530e-03 2.1213844386e+00 -3.6743456301e+00 2.1213844386e+00 3.6743456301e+00 
26900 3.9246726943e+00 -3.6764547910e-03 2.1214721813e+00 -3.6744976048e+00 2.1214721813e+00 3.6744976048e+00 
27000 3.9246724392e+00 -3.6307322964e-03 2.1215588305e+00 -3.6746476857e+00 2.1215588305e+00 3.6746476857e+00 
27100 3.9246721907e+00 -3.5855152094e-03 2.1216443987e+00 -3.6747958941e+00 2.1216443987e+00 3.6747958941e+00 
27200 3.9246719488e+00 -3.5407946234e-03 2.1217288977e+00 -3.6749422507e+00 2.1217288977e+00 3.6749422507e+00 
27300 3.9246717132e+00 -3.4965621628e-03 2.1218123395e+00 -3.6750867762e+00 2.1218123395e+00 3.6750867762e+00 
27400 3.9246714838e+00 -3.4528099620e-03 2.1218947357e+00 -3.6752294906e+00 2.1218947357e+00 3.6752294906e+00 
27500 3.9246712604e+00 -3.4095306426e-03 2.1219760977e+00 -3.6753704137e+00 2.1219760977e+00 3.6753704137e+00 
27600 3.9246710429e+00 -3.3667172911e-03 2.1220564368e+00 -3.6755095650e+00 2.1220564368e+00 3.6755095650e+00 
27700 3.9246708312e+00 -3.3243634368e-03 2.1221357640e+00 -3.6756469639e+00 2.1221357640e+00 3.6756469639e+00 
27800 3.9246706251e+00 -3.2824630288e-03 2.1222140904e+00 -3.6757826291e+00 2.1222140904e+00 3.6757826291e+00 
27900 3.9246704245e+00 -3.2410104140e-03 2.1222914267e+00 -3.6759165795e+00 2.1222914267e+00 3.6759165795e+00 
28000 3.9246702293e+00 -3.2000003144e-03 2.1223677836e+00 -3.6760488335e+00 2.1223677836e+00 3.6760488335e+00 
28100 3.9246700392e+00 -3.1594278052e-03 2.1224431715e+00 -3.6761794092e+00 2.1224431715e+00 3.6761794092e+00 
28200 3.9246698543e+00 -3.1192882928e-03 2.1225176010e+00 -3.6763083248e+00 2.1225176010e+00 3.6763083248e+00 
28300 3.9246696744e+00 -3.0795774931e-03 2.1225910823e+00 -3.6764355982e+00 2.1225910823e+00 3.6764355982e+00 
28400 3.9246694993e+00 -3.0402914103e-03 2.1226636255e+00 -3.6765612468e+00 2.1226636255e+00 3.6765612468e+00 
28500 3.9246693290e+00 -3.0014263161e-03 2.1227352410e+00 -3.6766852884e+00 2.1227352410e+00 3.6766852884e+00 
28600 3.9246691633e+00 -2.9629787290e-03 2.1228059385e+00 -3.6768077401e+00 2.1228059385e+00 3.6768077401e+00 
28700 3.9246690020e+00 -2.9249453947e-03 2.1228757281e+00 -3.6769286192e+00 2.1228757281e+00 3.6769286192e+00 
28800 3.9246688452e+00 -2.8873232662e-03 2.1229446196e+00 -3.6770479427e+00 2.1229446196e+00 3.6770479427e+00 
28900 3.9246686927e+00 -2.8501094856e-03 2.1230126227e+00 -3.6771657277e+00 2.1230126227e+00 3.6771657277e+00 
29000 3.9246685443e+00 -2.8133013651e-03 2.1230797473e+00 -3.6772819908e+00 2.1230797473e+00 3.6772819908e+00 
29100 3.9246684000e+00 -2.7768963698e-03 2.1231460028e+00 -3.6773967487e+00 2.1231460028e+00 3.6773967487e+00 
29200 3.9246682596e+00 -2.7408921006e-03 2.1232113989e+00 -3.6775100181e+00 2.1232113989e+00 3.6775100181e+00 
29300 3.9246681231e+00 -2.7052862776e-03 2.1232759452e+00 -3.6776218155e+00 2.1232759452e+00 3.6776218155e+00 
29400 3.9246679903e+00 -2.6700767247e-03 2.1233396510e+00 -3.6777321572e+00 2.1233396510e+00 3.6777321572e+00 
29500 3.9246678612e+00 -2.6352613544e-03 2.1234025257e+00 -3.6778410595e+00 2.1234025257e+00 3.6778410595e+00 
29600 3.9246677356e+00 -2.6008381536e-03 2.1234645788e+00 -3.6779485386e+00 2.1234645788e+00 3.6779485386e+00 
29700 3.9246676135e+00 -2.5668051700e-03 2.1235258196e+00 -3.6780546107e+00 2.1235258196e+00 3.6780546107e+00 
29800 3.9246674947e+00 -2.5331604991e-03 2.1235862572e+00 -3.6781592917e+00 2.1235862572e+00 3.6781592917e+00 
29900 3.9246673792e+00 -2.4999022724e-03 2.1236459009e+00 -3.6782625977e+00 2.1236459009e+00 3.6782625977e+00 
30000 3.9246672669e+00 -2.4670286453e-03 2.1237047599e+00 -3.6783645445e+00 2.1237047599e+00 3.6783645445e+00 
30100 3.9246671577e+00 -2.4345377874e-03 2.1237628433e+00 -3.6784651479e+00 2.1237628433e+00 3.6784651479e+00 
30200 3.9246670515e+00 -2.4024278713e-03 2.1238201602e+00 -3.6785644236e+00 2.1238201602e+00 3.6785644236e+00 
30300 3.9246669482e+00 -2.3706970643e-03 2.1238767196e+00 -3.6786623873e+00 2.1238767196e+00 3.6786623873e+00 
30400 3.9246668477e+00 -2.3393435194e-03 2.1239325304e+00 -3.6787590545e+00 2.1239325304e+00 3.6787590545e+00 
30500 3.9246667500e+00 -2.3083653672e-03 2.1239876017e+00 -3.6788544408e+00 2.1239876017e+00 3.6788544408e+00 
30600 3.9246666550e+00 -2.2777607090e-03 2.1240419423e+00 -3.6789485615e+00 2.1240419423e+00 3.6789485615e+00 
30700 3.9246665626e+00 -2.2475276102e-03 2.1240955611e+00 -3.6790414319e+00 2.1240955611e+00 3.6790414319e+00 
30800 3.9246664728e+00 -2.2176640942e-03 2.1241484668e+00 -3.6791330673e+00 2.1241484668e+00 3.6791330673e+00 
30900 3.9246663854e+00 -2.1881681371e-03 2.1242006683e+00 -3.6792234829e+00 2.1242006683e+00 3.6792234829e+00 
31000 3.9246663004e+00 -2.1590376633e-03 2.1242521742e+00 -3.6793126938e+00 2.1242521742e+00 3.6793126938e+00 
31100 3.9246662177e+00 -2.1302705413e-03 2.1243029931e+00 -3.6794007148e+00 2.1243029931e+00 3.6794007148e+00 
31200 3.9246661373e+00 -2.1018645798e-03 2.1243531338e+00 -3.6794875610e+00 2.1243531338e+00 3.6794875610e+00 
31300 3.9246660591e+00 -2.0738175255e-03 2.1244026047e+00 -3.6795732471e+00 2.1244026047e+00 3.6795732471e+00 
31400 3.9246659830e+00 -2.0461270599e-03 2.1244514143e+00 -3.6796577878e+00 2.1244514143e+00 3.6796577878e+00 
31500 3.9246659091e+00 -2.0187907982e-03 2.1244995711e+00 -3.6797411978e+00 2.1244995711e+00 3.6797411978e+00 
31600 3.9246658371e+00 -1.9918062870e-03 2.1245470834e+00 -3.6798234915e+00 2.1245470834e+00 3.6798234915e+00 
31700 3.9246657671e+00 -1.9651710041e-03 2.1245939596e+00 -3.6799046835e+00 2.1245939596e+00 3.6799046835e+00 
31800 3.9246656991e+00 -1.9388823576e-03 2.1246402079e+00 -3.6799847879e+00 2.1246402079e+00 3.6799847879e+00 
31900 3.9246656329e+00 -1.9129376858e-03 2.1246858366e+00 -3.6800638191e+00 2.1246858366e+00 3.6800638191e+00 
32000 3.9246655685e+00 -1.8873342578e-03 2.1247308537e+00 -3.6801417910e+00 2.1247308537e+00 3.6801417910e+00 
32100 3.9246655059e+00 -1.8620692738e-03 2.1247752673e+00 -3.6802187177e+00 2.1247752673e+00 3.6802187177e+00 
32200 3.9246654449e+00 -1.8371398664e-03 2.1248190855e+00 -3.6802946130e+00 2.1248190855e+00 3.6802946130e+00 
32300 3.9246653857e+00 -1.8125431018e-03 2.1248623162e+00 -3.6803694907e+00 2.1248623162e+00 3.6803694907e+00 
32400 3.9246653281e+00 -1.7882759816e-03 2.1249049671e+00 -3.6804433643e+00 2.1249049671e+00 3.6804433643e+00 
32500 3.9246652720e+00 -1.7643354444e-03 2.1249470462e+00 -3.6805162475e+00 2.1249470462e+00 3.6805162475e+00 
32600 3.9246652175e+00 -1.7407183685e-03 2.1249885612e+00 -3.6805881535e+00 2.1249885612e+00 3.6805881535e+00 
32700 3.9246651645e+00 -1.7174215738e-03 2.1250295196e+00 -3.6806590956e+00 2.1250295196e+00 3.6806590956e+00 
32800 3.9246651130e+00 -1.6944418248e-03 2.1250699291e+00 -3.6807290868e+00 2.1250699291e+00 3.6807290868e+00 
32900 3.9246650628e+00 -1.6717758330e-03 2.1251097971e+00 -3.6807981403e+00 2.1251097971e+00 3.6807981403e+00 
33000 3.9246650141e+00 -1.6494202604e-03 2.1251491311e+00 -3.6808662688e+00 2.1251491311e+00 3.6808662688e+00 
33100 3.9246649666e+00 -1.6273717222e-03 2.1251879384e+00 -3.6809334850e+00 2.1251879384e+00 3.6809334850e+00 
33200 3.9246649205e+00 -1.6056267903e-03 2.1252262262e+00 -3.6809998014e+00 2.1252262262e+00 3.6809998014e+00 
33300 3.9246648757e+00 -1.5841819965e-03 2.1252640018e+00 -3.6810652306e+00 2.1252640018e+00 3.6810652306e+00 
33400 3.9246648321e+00 -1.5630338360e-03 2.1253012721e+00 -3.6811297847e+00 2.1253012721e+00 3.6811297847e+00 
33500 3.9246647897e+00 -1.5421787711e-03 2.1253380443e+00 -3.6811934760e+00 2.1253380443e+00 3.6811934760e+00 
33600 3.9246647484e+00 -1.5216132343e-03 2.1253743252e+00 -3.6812563163e+00 2.1253743252e+00 3.6812563163e+00 
33700 3.9246647084e+00 -1.5013336326e-03 2.1254101216e+00 -3.6813183176e+00 2.1254101216e+00 3.6813183176e+00 
33800 3.9246646694e+00 -1.4813363504e-03 2.1254454404e+00 -3.6813794915e+00 2.1254454404e+00 3.6813794915e+00 
33900 3.9246646315e+00 -1.4616177537e-03 2.1254802882e+00 -3.6814398496e+00 2.1254802882e+00 3.6814398496e+00 
34000 3.9246645946e+00 -1.4421741936e-03 2.1255146715e+00 -3.6814994033e+00 2.1255146715e+00 3.6814994033e+00 
34100 3.9246645588e+00 -1.4230020097e-03 2.1255485969e+00 -3.6815581638e+00 2.1255485969e+00 3.6815581638e+00 
34200 3.9246645240e+00 -1.4040975338e-03 2.1255820707e+00 -3.6816161422e+00 2.1255820707e+00 3.6816161422e+00 
34300 3.9246644901e+00 -1.3854570936e-03 2.1256150994e+00 -3.6816733494e+00 2.1256150994e+00 3.6816733494e+00 
34400 3.9246644572e+00 -1.3670770159e-03 2.1256476890e+00 -3.6817297964e+00 2.1256476890e+00 3.6817297964e+00 
34500 3.9246644252e+00 -1.3489536304e-03 2.1256798458e+00 -3.6817854936e+00 2.1256798458e+00 3.6817854936e+00 
34600 3.9246643941e+00 -1.3310832726e-03 2.1257115758e+00 -3.6818404516e+00 2.1257115758e+00 3.6818404516e+00 
34700 3.9246643639e+00 -1.3134622872e-03 2.1257428850e+00 -3.6818946807e+00 2.1257428850e+00 3.6818946807e+00 
34800 3.9246643345e+00 -1.2960870316e-03 2.1257737793e+00 -3.6819481911e+00 2.1257737793e+00 3.6819481911e+00 
34900 3.9246643059e+00 -1.2789538783e-03 2.1258042644e+00 -3.6820009929e+00 2.1258042644e+00 3.6820009929e+00 
35000 3.9246642782e+00 -1.2620592187e-03 2.1258343461e+00 -3.6820530960e+00 2.1258343461e+00 3.6820530960e+00 
35100 3.9246642512e+00 -1.2453994651e-03 2.1258640301e+00 -3.6821045101e+00 2.1258640301e+00 3.6821045101e+00 
35200 3.9246642250e+00 -1.2289710541e-03 2.1258933217e+00 -3.6821552447e+00 2.1258933217e+00 3.6821552447e+00 
35300 3.9246641995e+00 -1.2127704488e-03 2.1259222266e+00 -3.6822053095e+00 2.1259222266e+00 3.6822053095e+00 
35400 3.9246641747e+00 -1.1967941415e-03 2.1259507501e+00 -3.6822547135e+00 2.1259507501e+00 3.6822547135e+00 
35500 3.9246641506e+00 -1.1810386560e-03 2.1259788974e+00 -3.6823034661e+00 2.1259788974e+00 3.6823034661e+00 
35600 3.9246641272e+00 -1.1655005499e-03 2.1260066738e+00 -3.6823515763e+00 2.1260066738e+00 3.6823515763e+00 
35700 3.9246641045e+00 -1.1501764164e-03 2.1260340844e+00 -3.6823990529e+00 2.1260340844e+00 3.6823990529e+00 
35800 3.9246640824e+00 -1.1350628868e-03 2.1260611343e+00 -3.6824459046e+00 2.1260611343e+00 3.6824459046e+00 
35900 3.9246640609e+00 -1.1201566320e-03 2.1260878284e+00 -3.6824921401e+00 2.1260878284e+00 3.6824921401e+00 
36000 3.9246640400e+00 -1.1054543639e-03 2.1261141716e+00 -3.6825377679e+00 2.1261141716e+00 3.6825377679e+00 
36100 3.9246640198e+00 -1.0909528377e-03 2.1261401687e+00 -3.6825827962e+00 2.1261401687e+00 3.6825827962e+00 
36200 3.9246640001e+00 -1.0766488529e-03 2.1261658245e+00 -3.6826272333e+00 2.1261658245e+00 3.6826272333e+00 
36300 3.9246639809e+00 -1.0625392544e-03 2.1261911435e+00 -3.6826710872e+00 2.1261911435e+00 3.6826710872e+00 
36400 3.9246639623e+00 -1.0486209342e-03 2.1262161305e+00 -3.6827143659e+00 2.1262161305e+00 3.6827143659e+00 
36500 3.9246639442e+00 -1.0348908319e-03 2.1262407899e+00 -3.6827570772e+00 2.1262407899e+00 3.6827570772e+00 
36600 3.9246639267e+00 -1.0213459361e-03 2.1262651261e+00 -3.6827992287e+00 2.1262651261e+00 3.6827992287e+00 
36700 3.9246639096e+00 -1.0079832848e-03 2.1262891435e+00 -3.6828408281e+00 2.1262891435e+00 3.6828408281e+00 
36800 3.9246638930e+00 -9.9479996646e-04 2.1263128464e+00 -3.6828818828e+00 2.1263128464e+00 3.6828818828e+00 
36900 3.9246638769e+00 -9.8179312010e-04 2.1263362391e+00 -3.6829224000e+00 2.1263362391e+00 3.6829224000e+00 
37000 3.9246638613e+00 -9.6895993607e-04 2.1263593256e+00 -3.6829623871e+00 2.1263593256e+00 3.6829623871e+00 
37100 3.9246638461e+00 -9.5629765629e-04 2.1263821101e+00 -3.6830018511e+00 2.1263821101e+00 3.6830018511e+00 
37200 3.9246638313e+00 -9.4380357442e-04 2.1264045967e+00 -3.6830407989e+00 2.1264045967e+00 3.6830407989e+00 
37300 3.9246638169e+00 -9.3147503604e-04 2.1264267892e+00 -3.6830792374e+00 2.1264267892e+00 3.6830792374e+00 
37400 3.9246638030e+00 -9.1930943861e-04 2.1264486916e+00 -3.6831171735e+00 2.1264486916e+00 3.6831171735e+00 
37500 3.9246637895e+00 -9.0730423143e-04 2.1264703077e+00 -3.6831546137e+00 2.1264703077e+00 3.6831546137e+00 
37600 3.9246637763e+00 -8.9545691543e-04 2.1264916413e+00 -3.6831915646e+00 2.1264916413e+00 3.6831915646e+00 
37700 3.9246637635e+00 -8.8376504296e-04 2.1265126961e+00 -3.6832280326e+00 2.1265126961e+00 3.6832280326e+00 
37800 3.9246637511e+00 -8.7222621740e-04 2.1265334758e+00 -3.6832640241e+00 2.1265334758e+00 3.6832640241e+00 
37900 3.9246637390e+00 -8.6083809278e-04 2.1265539840e+00 -3.6832995454e+00 2.1265539840e+00 3.6832995454e+00 
38000 3.9246637273e+00 -8.4959837324e-04 2.1265742243e+00 -3.6833346025e+00 2.1265742243e+00 3.6833346025e+00 
38100 3.9246637159e+00 -8.3850481253e-04 2.1265942001e+00 -3.6833692016e+00 2.1265942001e+00 3.6833692016e+00 
38200 3.9246637049e+00 -8.2755521335e-04 2.1266139148e+00 -3.6834033486e+00 2.1266139148e+00 3.6834033486e+00 
38300 3.9246636942e+00 -8.1674742665e-04 2.1266333720e+00 -3.6834370493e+00 2.1266333720e+00 3.6834370493e+00 
38400 3.9246636837e+00 -8.0607935092e-04 2.1266525748e+00 -3.6834703096e+00 2.1266525748e+00 3.6834703096e+00 
38500 3.9246636736e+00 -7.9554893139e-04 2.1266715267e+00 -3.6835031352e+00 2.1266715267e+00 3.6835031352e+00 
38600 3.9246636638e+00 -7.8515415920e-04 2.1266902308e+00 -3.6835355317e+00 2.1266902308e+00 3.6835355317e+00 
38700 3.9246636542e+00 -7.7489307049e-04 2.1267086904e+00 -3.6835675046e+00 2.1267086904e+00 3.6835675046e+00 
38800 3.9246636449e+00 -7.6476374553e-04 2.1267269085e+00 -3.6835990594e+00 2.1267269085e+00 3.6835990594e+00 
38900 3.9246636359e+00 -7.5476430775e-04 2.1267448884e+00 -3.6836302014e+00 2.1267448884e+00 3.6836302014e+00 
39000 3.9246636272e+00 -7.4489292273e-04 2.1267626330e+00 -3.6836609360e+00 2.1267626330e+00 3.6836609360e+00 
39100 3.9246636187e+00 -7.3514779726e-04 2.1267801454e+00 -3.6836912683e+00 2.1267801454e+00 3.6836912683e+00 
39200 3.9246636104e+00 -7.2552717828e-04 2.1267974285e+00 -3.6837212036e+00 2.1267974285e+00 3.6837212036e+00 
39300 3.9246636024e+00 -7.1602935181e-04 2.1268144853e+00 -3.6837507469e+00 2.1268144853e+00 3.6837507469e+00 
39400 3.9246635947e+00 -7.0665264195e-04 2.1268313187e+00 -3.6837799032e+00 2.1268313187e+00 3.6837799032e+00 
39500 3.9246635871e+00 -6.9739540978e-04 2.1268479316e+00 -3.6838086774e+00 2.1268479316e+00 3.6838086774e+00 
39600 3.9246635798e+00 -6.8825605228e-04 2.1268643266e+00 -3.6838370745e+00 2.1268643266e+00 3.6838370745e+00 
39700 3.9246635727e+00 -6.7923300126e-04 2.1268805067e+00 -3.6838650993e+00 2.1268805067e+00 3.6838650993e+00 
39800 3.9246635658e+00 -6.7032472232e-04 2.1268964746e+00 -3.6838927564e+00 2.1268964746e+00 3.6838927564e+00 
39900 3.9246635591e+00 -6.6152971368e-04 2.1269122329e+00 -3.6839200506e+00 2.1269122329e+00 3.6839200506e+00 
40000 3.9246635526e+00 -6.5284650521e-04 2.1269277843e+00 -3.6839469864e+00 2.1269277843e+00 3.6839469864e+00 
40100 3.9246635462e+00 -6.4427365730e-04 2.1269431315e+00 -3.6839735685e+00 2.1269431315e+00 3.6839735685e+00 
40200 3.9246635401e+00 -6.3580975981e-04 2.1269582770e+00 -3.6839998014e+00 2.1269582770e+00 3.6839998014e+00 
40300 3.9246635342e+00 -6.2745343107e-04 2.1269732235e+00 -3.6840256894e+00 2.1269732235e+00 3.6840256894e+00 
40400 3.9246635284e+00 -6.1920331680e-04 2.1269879734e+00 -3.6840512371e+00 2.1269879734e+00 3.6840512371e+00 
40500 3.9246635228e+00 -6.1105808912e-04 2.1270025293e+00 -3.6840764486e+00 2.1270025293e+00 3.6840764486e+00 
40600 3.9246635174e+00 -6.0301644556e-04 2.1270168936e+00 -3.6841013283e+00 2.1270168936e+00 3.6841013283e+00 
40700 3.9246635121e+00 -5.9507710808e-04 2.1270310688e+00 -3.6841258805e+00 2.1270310688e+00 3.6841258805e+00 
40800 3.9246635070e+00 -5.8723882210e-04 2.1270450573e+00 -3.6841501092e+00 2.1270450573e+00 3.6841501092e+00 
40900 3.9246635020e+00 -5.7950035561e-04 2.1270588614e+00 -3.6841740186e+00 2.1270588614e+00 3.6841740186e+00 
41000 3.9246634972e+00 -5.7186049822e-04 2.1270724835e+00 -3.6841976128e+00 2.1270724835e+00 3.6841976128e+00 
41100 3.9246634925e+00 -5.6431806030e-04 2.1270859260e+00 -3.6842208958e+00 2.1270859260e+00 3.6842208958e+00 
41200 3.9246634880e+00 -5.5687187213e-04 2.1270991910e+00 -3.6842438716e+00 2.1270991910e+00 3.6842438716e+00 
41300 3.9246634836e+00 -5.4952078305e-04 2.1271122810e+00 -3.6842665441e+00 2.1271122810e+00 3.6842665441e+00 
41400 3.9246634793e+00 -5.4226366067e-04 2.1271251981e+00 -3.6842889171e+00 2.1271251981e+00 3.6842889171e+00 
41500 3.9246634752e+00 -5.3509939013e-04 2.1271379445e+00 -3.6843109945e+00 2.1271379445e+00 3.6843109945e+00 
41600 3.9246634712e+00 -5.2802687329e-04 2.1271505224e+00 -3.6843327801e+00 2.1271505224e+00 3.6843327801e+00 
41700 3.9246634673e+00 -5.2104502806e-04 2.1271629340e+00 -3.6843542777e+00 2.1271629340e+00 3.6843542777e+00 
41800 3.9246634635e+00 -5.1415278772e-04 2.1271751814e+00 -3.6843754908e+00 2.1271751814e+00 3.6843754908e+00 
41900 3.9246634598e+00 -5.0734910025e-04 2.1271872668e+00 -3.6843964233e+00 2.1271872668e+00 3.6843964233e+00 
42000 3.9246634563e+00 -5.0063292768e-04 2.1271991922e+00 -3.6844170786e+00 2.1271991922e+00 3.6844170786e+00 
42100 3.9246634528e+00 -4.9400324554e-04 2.1272109596e+00 -3.6844374604e+00 2.1272109596e+00 3.6844374604e+00 
42200 3.9246634495e+00 -4.8745904227e-04 2.1272225711e+00 -3.6844575722e+00 2.1272225711e+00 3.6844575722e+00 
42300 3.9246634463e+00 -4.8099931869e-04 2.1272340288e+00 -3.6844774174e+00 2.1272340288e+00 3.6844774174e+00 
42400 3.9246634431e+00 -4.7462308747e-04 2.1272453345e+00 -3.6844969996e+00 2.1272453345e+00 3.6844969996e+00 
42500 3.9246634401e+00 -4.6832937267e-04 2.1272564903e+00 -3.6845163220e+00 2.1272564903e+00 3.6845163220e+00 
42600 3.9246634371e+00 -4.6211720930e-04 2.1272674982e+00 -3.6845353881e+00 2.1272674982e+00 3.6845353881e+00 
42700 3.9246634343e+00 -4.5598564285e-04 2.1272783599e+00 -3.6845542013e+00 2.1272783599e+00 3.6845542013e+00 
42800 3.9246634315e+00 -4.4993372896e-04 2.1272890775e+00 -3.6845727647e+00 2.1272890775e+00 3.6845727647e+00 
42900 3.9246634288e+00 -4.4396053298e-04 2.1272996528e+00 -3.6845910816e+00 2.1272996528e+00 3.6845910816e+00 
43000 3.9246634262e+00 -4.3806512968e-04 2.1273100877e+00 -3.6846091553e+00 2.1273100877e+00 3.6846091553e+00 
43100 3.9246634237e+00 -4.3224660288e-04 2.1273203839e+00 -3.6846269889e+00 2.1273203839e+00 3.6846269889e+00 
43200 3.9246634213e+00 -4.2650404522e-04 2.1273305433e+00 -3.6846445855e+00 2.1273305433e+00 3.6846445855e+00 
43300 3.9246634189e+00 -4.2083655783e-04 2.1273405677e+00 -3.6846619483e+00 2.1273405677e+00 3.6846619483e+00 
43400 3.9246634166e+00 -4.1524325009e-04 2.1273504589e+00 -3.6846790803e+00 2.1273504589e+00 3.6846790803e+00 
43500 3.9246634144e+00 -4.0972323945e-04 2.1273602185e+00 -3.6846959845e+00 2.1273602185e+00 3.6846959845e+00 
43600 3.9246634122e+00 -4.0427565115e-04 2.1273698484e+00 -3.6847126639e+00 2.1273698484e+00 3.6847126639e+00 
43700 3.9246634101e+00 -3.9889961809e-04 2.1273793502e+00 -3.6847291215e+00 2.1273793502e+00 3.6847291215e+00 
43800 3.9246634081e+00 -3.9359428066e-04 2.1273887255e+00 -3.6847453601e+00 2.1273887255e+00 3.6847453601e+00 
43900 3.9246634062e+00 -3.8835878656e-04 2.1273979762e+00 -3.6847613827e+00 2.1273979762e+00 3.6847613827e+00 
44000 3.9246634043e+00 -3.8319229069e-04 2.1274071038e+00 -3.6847771921e+00 2.1274071038e+00 3.6847771921e+00 
44100 3.9246634025e+00 -3.7809395505e-04 2.1274161099e+00 -3.6847927911e+00 2.1274161099e+00 3.6847927911e+00 
44200 3.9246634007e+00 -3.7306294861e-04 2.1274249961e+00 -3.6848081825e+00 2.1274249961e+00 3.6848081825e+00 
44300 3.9246633990e+00 -3.6809844723e-04 2.1274337640e+00 -3.6848233690e+00 2.1274337640e+00 3.6848233690e+00 
44400 3.9246633973e+00 -3.6319963362e-04 2.1274424153e+00 -3.6848383534e+00 2.1274424153e+00 3.6848383534e+00 
44500 3.9246633957e+00 -3.5836569727e-04 2.1274509513e+00 -3.6848531383e+00 2.1274509513e+00 3.6848531383e+00 
44600 3.9246633941e+00 -3.5359583436e-04 2.1274593738e+00 -3.6848677264e+00 2.1274593738e+00 3.6848677264e+00 
44700 3.9246633926e+00 -3.4888924781e-04 2.1274676841e+00 -3.6848821202e+00 2.1274676841e+00 3.6848821202e+00 
44800 3.9246633912e+00 -3.4424514718e-04 2.1274758837e+00 -3.6848963224e+00 2.1274758837e+00 3.6848963224e+00 
44900 3.9246633898e+00 -3.3966274868e-04 2.1274839742e+00 -3.6849103355e+00 2.1274839742e+00 3.6849103355e+00 
45000 3.9246633884e+00 -3.3514127519e-04 2.1274919569e+00 -3.6849241620e+00 2.1274919569e+00 3.6849241620e+00 
45100 3.9246633871e+00 -3.3067995623e-04 2.1274998333e+00 -3.6849378044e+00 2.1274998333e+00 3.6849378044e+00 
45200 3.9246633858e+00 -3.2627802797e-04 2.1275076049e+00 -3.6849512652e+00 2.1275076049e+00 3.6849512652e+00 
45300 3.9246633846e+00 -3.2193473325e-04 2.1275152730e+00 -3.6849645467e+00 2.1275152730e+00 3.6849645467e+00 
45400 3.9246633834e+00 -3.1764932162e-04 2.1275228390e+00 -3.6849776514e+00 2.1275228390e+00 3.6849776514e+00 
45500 3.9246633822e+00 -3.1342104931e-04 2.1275303042e+00 -3.6849905816e+00 2.1275303042e+00 3.6849905816e+00 
45600 3.9246633811e+00 -3.0924917934e-04 2.1275376701e+00 -3.6850033396e+00 2.1275376701e+00 3.6850033396e+00 
45700 3.9246633800e+00 -3.0513298147e-04 2.1275449378e+00 -3.6850159277e+00 2.1275449378e+00 3.6850159277e+00 
45800 3.9246633790e+00 -3.0107173227e-04 2.1275521089e+00 -3.6850283483e+00 2.1275521089e+00 3.6850283483e+00 
45900 3.9246633780e+00 -2.9706471518e-04 2.1275591844e+00 -3.6850406035e+00 2.1275591844e+00 3.6850406035e+00 
46000 3.9246633770e+00 -2.9311122050e-04 2.1275661658e+00 -3.6850526956e+00 2.1275661658e+00 3.6850526956e+00 
46100 3.9246633761e+00 -2.8921054547e-04 2.1275730542e+00 -3.6850646267e+00 2.1275730542e+00 3.6850646267e+00 
46200 3.9246633752e+00 -2.8536199427e-04 2.1275798509e+00 -3.6850763989e+00 2.1275798509e+00 3.6850763989e+00 
46300 3.9246633743e+00 -2.8156487810e-04 2.1275865572e+00 -3.6850880145e+00 2.1275865572e+00 3.6850880145e+00 
46400 3.9246633734e+00 -2.7781851519e-04 2.1275931742e+00 -3.6850994755e+00 2.1275931742e+00 3.6850994755e+00 
46500 3.9246633726e+00 -2.7412223085e-04 2.1275997031e+00 -3.6851107840e+00 2.1275997031e+00 3.6851107840e+00 
46600 3.9246633718e+00 -2.7047535750e-04 2.1276061452e+00 -3.6851219419e+00 2.1276061452e+00 3.6851219419e+00 
46700 3.9246633711e+00 -2.6687723471e-04 2.1276125015e+00 -3.6851329514e+00 2.1276125015e+00 3.6851329514e+00 
46800 3.9246633703e+00 -2.6332720923e-04 2.1276187733e+00 -3.6851438144e+00 2.1276187733e+00 3.6851438144e+00 
46900 3.9246633696e+00 -2.5982463502e-04 2.1276249616e+00 -3.6851545329e+00 2.1276249616e+00 3.6851545329e+00 
47000 3.9246633689e+00 -2.5636887328e-04 2.1276310676e+00 -3.6851651088e+00 2.1276310676e+00 3.6851651088e+00 
47100 3.9246633683e+00 -2.5295929248e-04 2.1276370923e+00 -3.6851755440e+00 2.1276370923e+00 3.6851755440e+00 
47200 3.9246633676e+00 -2.4959526835e-04 2.1276430369e+00 -3.6851858403e+00 2.1276430369e+00 3.6851858403e+00 
47300 3.9246633670e+00 -2.4627618395e-04 2.1276489025e+00 -3.6851959997e+00 2.1276489025e+00 3.6851959997e+00 
47400 3.9246633664e+00 -2.4300142966e-04 2.1276546900e+00 -3.6852060240e+00 2.1276546900e+00 3.6852060240e+00 
47500 3.9246633659e+00 -2.3977040315e-04 2.1276604005e+00 -3.6852159150e+00 2.1276604005e+00 3.6852159150e+00 
47600 3.9246633653e+00 -2.3658250949e-04 2.1276660351e+00 -3.6852256744e+00 2.1276660351e+00 3.6852256744e+00 
47700 3.9246633648e+00 -2.3343716103e-04 2.1276715948e+00 -3.6852353040e+00 2.1276715948e+00 3.6852353040e+00 
47800 3.9246633643e+00 -2.3033377750e-04 2.1276770806e+00 -3.6852448056e+00 2.1276770806e+00 3.6852448056e+00 
47900 3.9246633638e+00 -2.2727178595e-04 2.1276824934e+00 -3.6852541809e+00 2.1276824934e+00 3.6852541809e+00 
48000 3.9246633633e+00 -2.2425062075e-04 2.1276878342e+00 -3.6852634315e+00 2.1276878342e+00 3.6852634315e+00 
48100 3.9246633629e+00 -2.2126972362e-04 2.1276931040e+00 -3.6852725591e+00 2.1276931040e+00 3.6852725591e+00 
48200 3.9246633624e+00 -2.1832854354e-04 2.1276983038e+00 -3.6852815653e+00 2.1276983038e+00 3.6852815653e+00 
48300 3.9246633620e+00 -2.1542653679e-04 2.1277034344e+00 -3.6852904518e+00 2.1277034344e+00 3.6852904518e+00 
48400 3.9246633616e+00 -2.1256316690e-04 2.1277084968e+00 -3.6852992202e+00 2.1277084968e+00 3.6852992202e+00 
48500 3.9246633612e+00 -2.0973790463e-04 2.1277134919e+00 -3.6853078720e+00 2.1277134919e+00 3.6853078720e+00 
48600 3.9246633608e+00 -2.0695022793e-04 2.1277184207e+00 -3.6853164088e+00 2.1277184207e+00 3.6853164088e+00 
48700 3.9246633605e+00 -2.0419962190e-04 2.1277232839e+00 -3.6853248321e+00 2.1277232839e+00 3.6853248321e+00 
48800 3.9246633601e+00 -2.0148557877e-04 2.1277280824e+00 -3.6853331434e+00 2.1277280824e+00 3.6853331434e+00 
48900 3.9246633598e+00 -1.9880759784e-04 2.1277328172e+00 -3.6853413443e+00 2.1277328172e+00 3.6853413443e+00 
49000 3.9246633595e+00 -1.9616518544e-04 2.1277374890e+00 -3.6853494361e+00 2.1277374890e+00 3.6853494361e+00 
49100 3.9246633592e+00 -1.9355785487e-04 2.1277420987e+00 -3.6853574203e+00 2.1277420987e+00 3.6853574203e+00 
49200 3.9246633589e+00 -1.9098512636e-04 2.1277466471e+00 -3.6853652985e+00 2.1277466471e+00 3.6853652985e+00 
49300 3.9246633586e+00 -1.8844652700e-04 2.1277511351e+00 -3.6853730719e+00 2.1277511351e+00 3.6853730719e+00 
49400 3.9246633584e+00 -1.8594159068e-04 2.1277555634e+00 -3.6853807419e+00 2.1277555634e+00 3.6853807419e+00 
49500 3.9246633581e+00 -1.8346985805e-04 2.1277599328e+00 -3.6853883100e+00 2.1277599328e+00 3.6853883100e+00 
49600 3.9246633579e+00 -1.8103087643e-04 2.1277642442e+00 -3.6853957774e+00 2.1277642442e+00 3.6853957774e+00 
49700 3.9246633576e+00 -1.7862419974e-04 2.1277684982e+00 -3.6854031456e+00 2.1277684982e+00 3.6854031456e+00 
49800 3.9246633574e+00 -1.7624938844e-04 2.1277726957e+00 -3.6854104158e+00 2.1277726957e+00 3.6854104158e+00 
49900 3.9246633572e+00 -1.7390600947e-04 2.1277768373e+00 -3.6854175894e+00 2.1277768373e+00 3.6854175894e+00 
50000 3.9246633570e+00 -1.7159363613e-04 2.1277809239e+00 -3.6854246675e+00 2.1277809239e+00 3.6854246675e+00 
50100 3.9246633568e+00 -1.6931184805e-04 2.1277849561e+00 -3.6854316515e+00 2.1277849561e+00 3.6854316515e+00 
50200 3.9246633566e+00 -1.6706023111e-04 2.1277889347e+00 -3.6854385426e+00 2.1277889347e+00 3.6854385426e+00 
50300 3.9246633564e+00 -1.6483837731e-04 2.1277928604e+00 -3.6854453421e+00 2.1277928604e+00 3.6854453421e+00 
50400 3.9246633562e+00 -1.6264588475e-04 2.1277967338e+00 -3.6854520511e+00 2.1277967338e+00 3.6854520511e+00 
50500 3.9246633561e+00 -1.6048235748e-04 2.1278005557e+00 -3.6854586709e+00 2.1278005557e+00 3.6854586709e+00 
50600 3.9246633559e+00 -1.5834740550e-04 2.1278043268e+00 -3.6854652026e+00 2.1278043268e+00 3.6854652026e+00 
50700 3.9246633558e+00 -1.5624064459e-04 2.1278080477e+00 -3.6854716475e+00 2.1278080477e+00 3.6854716475e+00 
50800 3.9246633556e+00 -1.5416169627e-04 2.1278117191e+00 -3.6854780065e+00 2.1278117191e+00 3.6854780065e+00 
50900 3.9246633555e+00 -1.5211018772e-04 2.1278153417e+00 -3.6854842809e+00 2.1278153417e+00 3.6854842809e+00 
51000 3.9246633554e+00 -1.5008575165e-04 2.1278189160e+00 -3.6854904718e+00 2.1278189160e+00 3.6854904718e+00 
51100 3.9246633553e+00 -1.4808802626e-04 2.1278224428e+00 -3.6854965804e+00 2.1278224428e+00 3.6854965804e+00 
51200 3.9246633551e+00 -1.4611665511e-04 2.1278259226e+00 -3.6855026076e+00 2.1278259226e+00 3.6855026076e+00 
51300 3.9246633550e+00 -1.4417128707e-04 2.1278293560e+00 -3.6855085545e+00 2.1278293560e+00 3.6855085545e+00 
51400 3.9246633549e+00 -1.4225157619e-04 2.1278327438e+00 -3.6855144223e+00 2.1278327438e+00 3.6855144223e+00 
51500 3.9246633548e+00 -1.4035718167e-04 2.1278360864e+00 -3.6855202119e+00 2.1278360864e+00 3.6855202119e+00 
51600 3.9246633548e+00 -1.3848776770e-04 2.1278393846e+00 -3.6855259244e+00 2.1278393846e+00 3.6855259244e+00 
51700 3.9246633547e+00 -1.3664300343e-04 2.1278426388e+00 -3.6855315608e+00 2.1278426388e+00 3.6855315608e+00 
51800 3.9246633546e+00 -1.3482256285e-04 2.1278458496e+00 -3.6855371222e+00 2.1278458496e+00 3.6855371222e+00 
51900 3.9246633545e+00 -1.3302612473e-04 2.1278490176e+00 -3.6855426094e+00 2.1278490176e+00 3.6855426094e+00 
52000 3.9246633544e+00 -1.3125337249e-04 2.1278521435e+00 -3.6855480235e+00 2.1278521435e+00 3.6855480235e+00 
52100 3.9246633544e+00 -1.2950399418e-04 2.1278552277e+00 -3.6855533654e+00 2.1278552277e+00 3.6855533654e+00 
52200 3.9246633543e+00 -1.2777768234e-04 2.1278582707e+00 -3.6855586362e+00 2.1278582707e+00 3.6855586362e+00 
52300 3.9246633543e+00 -1.2607413394e-04 2.1278612732e+00 -3.6855638367e+00 2.1278612732e+00 3.6855638367e+00 
52400 3.9246633542e+00 -1.2439305028e-04 2.1278642357e+00 -3.6855689678e+00 2.1278642357e+00 3.6855689678e+00 
52500 3.9246633542e+00 -1.2273413696e-04 2.1278671586e+00 -3.6855740305e+00 2.1278671586e+00 3.6855740305e+00 
52600 3.9246633541e+00 -1.2109710372e-04 2.1278700426e+00 -3.6855790257e+00 2.1278700426e+00 3.6855790257e+00 
52700 3.9246633541e+00 -1.1948166443e-04 2.1278728881e+00 -3.6855839542e+00 2.1278728881e+00 3.6855839542e+00 
52800 3.9246633540e+00 -1.1788753698e-04 2.1278756956e+00 -3.6855888170e+00 2.1278756956e+00 3.6855888170e+00 
52900 3.9246633540e+00 -1.1631444321e-04 2.1278784657e+00 -3.6855936150e+00 2.1278784657e+00 3.6855936150e+00 
53000 3.9246633540e+00 -1.1476210885e-04 2.1278811988e+00 -3.6855983488e+00 2.1278811988e+00 3.6855983488e+00 
53100 3.9246633540e+00 -1.1323026341e-04 2.1278838955e+00 -3.6856030195e+00 2.1278838955e+00 3.6856030195e+00 
53200 3.9246633539e+00 -1.1171864014e-04 2.1278865561e+00 -3.6856076279e+00 2.1278865561e+00 3.6856076279e+00 
53300 3.9246633539e+00 -1.1022697596e-04 2.1278891812e+00 -3.6856121747e+00 2.1278891812e+00 3.6856121747e+00 
53400 3.9246633539e+00 -1.0875501137e-04 2.1278917713e+00 -3.6856166608e+00 2.1278917713e+00 3.6856166608e+00 
53500 3.9246633539e+00 -1.0730249040e-04 2.1278943267e+00 -3.6856210870e+00 2.1278943267e+00 3.6856210870e+00 
53600 3.9246633539e+00 -1.0586916054e-04 2.1278968480e+00 -3.6856254541e+00 2.1278968480e+00 3.6856254541e+00 
53700 3.9246633539e+00 -1.0445477266e-04 2.1278993357e+00 -3.6856297628e+00 2.1278993357e+00 3.6856297628e+00 
53800 3.9246633538e+00 -1.0305908099e-04 2.1279017901e+00 -3.6856340140e+00 2.1279017901e+00 3.6856340140e+00 
53900 3.9246633538e+00 -1.0168184300e-04 2.1279042117e+00 -3.6856382083e+00 2.1279042117e+00 3.6856382083e+00 
54000 3.9246633538e+00 -1.0032281940e-04 2.1279066010e+00 -3.6856423466e+00 2.1279066010e+00 3.6856423466e+00 
54100 3.9246633538e+00 -9.8981774031e-05 2.1279089583e+00 -3.6856464296e+00 2.1279089583e+00 3.6856464296e+00 
54200 3.9246633538e+00 -9.7658473842e-05 2.1279112841e+00 -3.6856504580e+00 2.1279112841e+00 3.6856504580e+00 
54300 3.9246633538e+00 -9.6352688824e-05 2.1279135788e+00 -3.6856544326e+00 2.1279135788e+00 3.6856544326e+00 
54400 3.9246633538e+00 -9.5064191954e-05 2.1279158428e+00 -3.6856583540e+00 2.1279158428e+00 3.6856583540e+00 
54500 3.9246633538e+00 -9.3792759148e-05 2.1279180765e+00 -3.6856622229e+00 2.1279180765e+00 3.6856622229e+00 
54600 3.9246633539e+00 -9.2538169204e-05 2.1279202804e+00 -3.6856660401e+00 2.1279202804e+00 3.6856660401e+00 
54700 3.9246633539e+00 -9.1300203770e-05 2.1279224548e+00 -3.6856698063e+00 2.1279224548e+00 3.6856698063e+00 
54800 3.9246633539e+00 -9.0078647273e-05 2.1279246001e+00 -3.6856735220e+00 2.1279246001e+00 3.6856735220e+00 
54900 3.9246633539e+00 -8.8873286888e-05 2.1279267167e+00 -3.6856771880e+00 2.1279267167e+00 3.6856771880e+00 
55000 3.9246633539e+00 -8.7683912496e-05 2.1279288049e+00 -3.6856808050e+00 2.1279288049e+00 3.6856808050e+00 
55100 3.9246633539e+00 -8.6510316624e-05 2.1279308652e+00 -3.6856843736e+00 2.1279308652e+00 3.6856843736e+00 
55200 3.9246633539e+00 -8.5352294426e-05 2.1279328980e+00 -3.6856878944e+00 2.1279328980e+00 3.6856878944e+00 
55300 3.9246633540e+00 -8.4209643623e-05 2.1279349035e+00 -3.6856913680e+00 2.1279349035e+00 3.6856913680e+00 
55400 3.9246633540e+00 -8.3082164471e-05 2.1279368822e+00 -3.6856947952e+00 2.1279368822e+00 3.6856947952e+00 
55500 3.9246633540e+00 -8.1969659728e-05 2.1279388343e+00 -3.6856981765e+00 2.1279388343e+00 3.6856981765e+00 
55600 3.9246633540e+00 -8.0871934610e-05 2.1279407604e+00 -3.6857015125e+00 2.1279407604e+00 3.6857015125e+00 
55700 3.9246633540e+00 -7.9788796757e-05 2.1279426606e+00 -3.6857048038e+00 2.1279426606e+00 3.6857048038e+00 
55800 3.9246633541e+00 -7.8720056198e-05 2.1279445354e+00 -3.6857080510e+00 2.1279445354e+00 3.6857080510e+00 
55900 3.9246633541e+00 -7.7665525317e-05 2.1279463851e+00 -3.6857112547e+00 2.1279463851e+00 3.6857112547e+00 
56000 3.9246633541e+00 -7.6625018827e-05 2.1279482100e+00 -3.6857144155e+00 2.1279482100e+00 3.6857144155e+00 
56100 3.9246633541e+00 -7.5598353731e-05 2.1279500104e+00 -3.6857175340e+00 2.1279500104e+00 3.6857175340e+00 
56200 3.9246633542e+00 -7.4585349291e-05 2.1279517867e+00 -3.6857206107e+00 2.1279517867e+00 3.6857206107e+00 
56300 3.9246633542e+00 -7.3585827000e-05 2.1279535392e+00 -3.6857236461e+00 2.1279535392e+00 3.6857236461e+00 
56400 3.9246633542e+00 -7.2599610561e-05 2.1279552683e+00 -3.6857266409e+00 2.1279552683e+00 3.6857266409e+00 
56500 3.9246633542e+00 -7.1626525845e-05 2.1279569741e+00 -3.6857295955e+00 2.1279569741e+00 3.6857295955e+00 
56600 3.9246633543e+00 -7.0666400873e-05 2.1279586571e+00 -3.6857325105e+00 2.1279586571e+00 3.6857325105e+00 
56700 3.9246633544e+00 -7.0423382089e-05 2.1279586571e+00 -3.6857325105e+00 2.1279586571e+00 3.6857325105e+00 
56800 3.9246633545e+00 -7.0193231572e-05 2.1279586571e+00 -3.6857325105e+00 2.1279586571e+00 3.6857325105e+00 
56900 3.9246633547e+00 -6.9975597719e-05 2.1279586571e+00 -3.6857325105e+00 2.1279586571e+00 3.6857325105e+00 
57000 3.9246633548e+00 -6.9770121313e-05 2.1279586571e+00 -3.6857325105e+00 2.1279586571e+00 3.6857325105e+00 
57100 3.9246633549e+00 -6.9576437033e-05 2.1279586571e+00 -3.6857325105e+00 2.1279586571e+00 3.6857325105e+00 
57200 3.9246633551e+00 -6.9394174847e-05 2.1279586571e+00 -3.6857325105e+00 2.1279586571e+00 3.6857325105e+00 
57300 3.9246633552e+00 -6.9222961314e-05 2.1279586571e+00 -3.6857325105e+00 2.1279586571e+00 3.6857325105e+00 
57400 3.9246633553e+00 -6.9062420782e-05 2.1279586571e+00 -3.6857325105e+00 2.1279586571e+00 3.6857325105e+00 
57500 3.9246633554e+00 -6.8912176493e-05 2.1279586571e+00 -3.6857325105e+00 2.1279586571e+00 3.6857325105e+00 
57600 3.9246633555e+00 -6.8771851616e-05 2.1279586571e+00 -3.6857325105e+00 2.1279586571e+00 3.6857325105e+00 
57700 3.9246633557e+00 -6.8641070190e-05 2.1279586571e+00 -3.6857325105e+00 2.1279586571e+00 3.6857325105e+00 
57800 3.9246633558e+00 -6.8519457991e-05 2.1279586571e+00 -3.6857325105e+00 2.1279586571e+00 3.6857325105e+00 
57900 3.9246633559e+00 -6.8406643339e-05 2.1279586571e+00 -3.6857325105e+00 2.1279586571e+00 3.6857325105e+00 
58000 3.9246633560e+00 -6.8302257834e-05 2.1279586571e+00 -3.6857325105e+00 2.1279586571e+00 3.6857325105e+00 
58100 3.9246633561e+00 -6.8205937027e-05 2.1279586571e+00 -3.6857325105e+00 2.1279586571e+00 3.6857325105e+00 
58200 3.9246633562e+00 -6.8117321037e-05 2.1279586571e+00 -3.6857325105e+00 2.1279586571e+00 3.6857325105e+00 
58300 3.9246633563e+00 -6.8036055118e-05 2.1279586571e+00 -3.6857325105e+00 2.1279586571e+00 3.6857325105e+00 
58400 3.9246633564e+00 -6.7961790164e-05 2.1279586571e+00 -3.6857325105e+00 2.1279586571e+00 3.6857325105e+00 
58500 3.9246633565e+00 -6.7894183171e-05 2.1279586571e+00 -3.6857325105e+00 2.1279586571e+00 3.6857325105e+00 
58600 3.9246633566e+00 -6.7832897661e-05 2.1279586571e+00 -3.6857325105e+00 2.1279586571e+00 3.6857325105e+00 
58700 3.9246633567e+00 -6.7777604051e-05 2.1279586571e+00 -3.6857325105e+00 2.1279586571e+00 3.6857325105e+00 
58800 3.9246633568e+00 -6.7727979987e-05 2.1279586571e+00 -3.6857325105e+00 2.1279586571e+00 3.6857325105e+00 
58900 3.9246633569e+00 -6.7683710642e-05 2.1279586571e+00 -3.6857325105e+00 2.1279586571e+00 3.6857325105e+00 
59000 3.9246633570e+00 -6.7644488973e-05 2.1279586571e+00 -3.6857325105e+00 2.1279586571e+00 3.6857325105e+00 
59100 3.9246633570e+00 -6.7610015954e-05 2.1279586571e+00 -3.6857325105e+00 2.1279586571e+00 3.6857325105e+00 
59200 3.9246633571e+00 -6.7580000764e-05 2.1279586571e+00 -3.6857325105e+00 2.1279586571e+00 3.6857325105e+00 
59300 3.9246633572e+00 -6.7554160952e-05 2.1279586571e+00 -3.6857325105e+00 2.1279586571e+00 3.6857325105e+00 
59400 3.9246633573e+00 -6.7532222580e-05 2.1279586571e+00 -3.6857325105e+00 2.1279586571e+00 3.6857325105e+00 
59500 3.9246633574e+00 -6.7513920324e-05 2.1279586571e+00 -3.6857325105e+00 2.1279586571e+00 3.6857325105e+00 
59600 3.9246633575e+00 -6.7498997561e-05 2.1279586571e+00 -3.6857325105e+00 2.1279586571e+00 3.6857325105e+00 
59700 3.9246633576e+00 -6.7487206431e-05 2.1279586571e+00 -3.6857325105e+00 2.1279586571e+00 3.6857325105e+00 
59800 3.9246633576e+00 -6.7478307871e-05 2.1279586571e+00 -3.6857325105e+00 2.1279586571e+00 3.6857325105e+00 
59900 3.9246633577e+00 -6.7472071640e-05 2.1279586571e+00 -3.6857325105e+00 2.1279586571e+00 3.6857325105e+00 
60000 3.9246633578e+00 -6.7468276301e-05 2.1279586571e+00 -3.6857325105e+00 2.1279586571e+00 3.6857325105e+00 
60100 3.9246633579e+00 -6.7466709214e-05 2.1279586571e+00 -3.6857325105e+00 2.1279586571e+00 3.6857325105e+00 
60200 3.9246633579e+00 -6.7467166489e-05 2.1279586571e+00 -3.6857325105e+00 2.1279586571e+00 3.6857325105e+00 
60300 3.9246633580e+00 -6.7469452927e-05 2.1279586571e+00 -3.6857325105e+00 2.1279586571e+00 3.6857325105e+00 
60400 3.9246633581e+00 -6.7473381955e-05 2.1279586571e+00 -3.6857325105e+00 2.1279586571e+00 3.6857325105e+00 
60500 3.9246633582e+00 -6.7478775535e-05 2.1279586571e+00 -3.6857325105e+00 2.1279586571e+00 3.6857325105e+00 
60600 3.9246633582e+00 -6.7485464067e-05 2.1279586571e+00 -3.6857325105e+00 2.1279586571e+00 3.6857325105e+00 
60700 3.9246633583e+00 -6.7493286273e-05 2.1279586571e+00 -3.6857325105e+00 2.1279586571e+00 3.6857325105e+00 
60800 3.9246633584e+00 -6.7502089075e-05 2.1279586571e+00 -3.6857325105e+00 2.1279586571e+00 3.6857325105e+00 
60900 3.9246633584e+00 -6.7511727462e-05 2.1279586571e+00 -3.6857325105e+00 2.1279586571e+00 3.6857325105e+00 
61000 3.9246633585e+00 -6.7522064339e-05 2.1279586571e+00 -3.6857325105e+00 2.1279586571e+00 3.6857325105e+00 
61100 3.9246633586e+00 -6.7532970376e-05 2.1279586571e+00 -3.6857325105e+00 2.1279586571e+00 3.6857325105e+00 
61200 3.9246633586e+00 -6.7544323848e-05 2.1279586571e+00 -3.6857325105e+00 2.1279586571e+00 3.6857325105e+00 
61300 3.9246633587e+00 -6.7556010459e-05 2.1279586571e+00 -3.6857325105e+00 2.1279586571e+00 3.6857325105e+00 
61400 3.9246633587e+00 -6.7567923165e-05 2.1279586571e+00 -3.6857325105e+00 2.1279586571e+00 3.6857325105e+00 
61500 3.9246633588e+00 -6.7579961993e-05 2.1279586571e+00 -3.6857325105e+00 2.1279586571e+00 3.6857325105e+00 
61600 3.9246633589e+00 -6.7592033850e-05 2.1279586571e+00 -3.6857325105e+00 2.1279586571e+00 3.6857325105e+00 
61700 3.9246633589e+00 -6.7604052327e-05 2.1279586571e+00 -3.6857325105e+00 2.1279586571e+00 3.6857325105e+00 
61800 3.9246633590e+00 -6.7615937501e-05 2.1279586571e+00 -3.6857325105e+00 2.1279586571e+00 3.6857325105e+00 
61900 3.9246633590e+00 -6.7627615736e-05 2.1279586571e+00 -3.6857325105e+00 2.1279586571e+00 3.6857325105e+00 
62000 3.9246633591e+00 -6.7639019467e-05 2.1279586571e+00 -3.6857325105e+00 2.1279586571e+00 3.6857325105e+00 
62100 3.9246633591e+00 -6.7650087005e-05 2.1279586571e+00 -3.6857325105e+00 2.1279586571e+00 3.6857325105e+00 
62200 3.9246633592e+00 -6.7660762319e-05 2.1279586571e+00 -3.6857325105e+00 2.1279586571e+00 3.6857325105e+00 
62300 3.9246633593e+00 -6.7670994825e-05 2.1279586571e+00 -3.6857325105e+00 2.1279586571e+00 3.6857325105e+00 
62400 3.9246633593e+00 -6.7680739175e-05 2.1279586571e+00 -3.6857325105e+00 2.1279586571e+00 3.6857325105e+00 
62500 3.9246633594e+00 -6.7689955044e-05 2.1279586571e+00 -3.6857325105e+00 2.1279586571e+00 3.6857325105e+00 
62600 3.9246633594e+00 -6.7697599533e-05 2.1279586571e+00 -3.6857325105e+00 2.1279586571e+00 3.6857325105e+00 
62600 3.9246633594e+00 -6.7697599533e-05 2.1279586571e+00 -3.6857325105e+00 2.1279586571e+00 3.6857325105e+00 
