# step Hamiltonian StressXX CellTensor1 CellTensor2 CellTensor3 CellTensor4 
0 5.8200597205e+00 3.6034415879e-02 1.6185780433e+00 -2.8034594071e+00 1.6185780433e+00 2.8034594071e+00 
100 5.8199551870e+00 3.7721264588e-02 1.6185780433e+00 -2.8034594071e+00 1.6185780433e+00 2.8034594071e+00 
200 5.8197444409e+00 3.8057182023e-02 1.6174129239e+00 -2.8014413610e+00 1.6174129239e+00 2.8014413610e+00 
300 5.8194859284e+00 3.8238642140e-02 1.6162365834e+00 -2.7994038796e+00 1.6162365834e+00 2.7994038796e+00 
400 5.8191857052e+00 3.8276300391e-02 1.6150537747e+00 -2.7973551948e+00 1.6150537747e+00 2.7973551948e+00 
500 5.8188493885e+00 3.8180393852e-02 1.6138689344e+00 -2.7953029912e+00 1.6138689344e+00 2.7953029912e+00 
600 5.8184821720e+00 3.7960745275e-02 1.6126861951e+00 -2.7932544265e+00 1.6126861951e+00 2.7932544265e+00 
700 5.8180888414e+00 3.7626768056e-02 1.6115093968e+00 -2.7912161522e+00 1.6115093968e+00 2.7912161522e+00 
800 5.8176737922e+00 3.7187472022e-02 1.6103420992e+00 -2.7891943334e+00 1.6103420992e+00 2.7891943334e+00 
900 5.8172410462e+00 3.6651469933e-02 1.6091875922e+00 -2.7871946686e+00 1.6091875922e+00 2.7871946686e+00 
1000 5.8167942701e+00 3.6026984643e-02 1.6080489076e+00 -2.7852224090e+00 1.6080489076e+00 2.7852224090e+00 
1100 5.8163367935e+00 3.5321856811e-02 1.6069288297e+00 -2.7832823772e+00 1.6069288297e+00 2.7832823772e+00 
1200 5.8158716270e+00 3.4543553125e-02 1.6058299065e+00 -2.7813789864e+00 1.6058299065e+00 2.7813789864e+00 
1300 5.8154014807e+00 3.3699174961e-02 1.6047544597e+00 -2.7795162578e+00 1.6047544597e+00 2.7795162578e+00 
1400 5.8149287819e+00 3.2795467420e-02 1.6037045951e+00 -2.7776978390e+00 1.6037045951e+00 2.7776978390e+00 
1500 5.8144556932e+00 3.1838828698e-02 1.6026822129e+00 -2.7759270211e+00 1.6026822129e+00 2.7759270211e+00 
1600 5.8139841298e+00 3.0835319726e-02 1.6016890173e+00 -2.7742067559e+00 1.6016890173e+00 2.7742067559e+00 
1700 5.8135157762e+00 2.9790674050e-02 1.6007265262e+00 -2.7725396724e+00 1.6007265262e+00 2.7725396724e+00 
1800 5.8130521033e+00 2.8710307889e-02 1.5997960804e+00 -2.7709280930e+00 1.5997960804e+00 2.7709280930e+00 
1900 5.8125943839e+00 2.7599330342e-02 1.5988988528e+00 -2.7693740492e+00 1.5988988528e+00 2.7693740492e+00 
2000 5.8121437081e+00 2.6462553700e-02 1.5980358575e+00 -2.7678792974e+00 1.5980358575e+00 2.7678792974e+00 
2100 5.8117009984e+00 2.5304503825e-02 1.5972079578e+00 -2.7664453331e+00 1.5972079578e+00 2.7664453331e+00 
2200 5.8112670236e+00 2.4129430556e-02 1.5964158752e+00 -2.7650734059e+00 1.5964158752e+00 2.7650734059e+00 
2300 5.8108424123e+00 2.2941318117e-02 1.5956601973e+00 -2.7637645333e+00 1.5956601973e+00 2.7637645333e+00 
2400 5.8104276656e+00 2.1743895487e-02 1.5949413852e+00 -2.7625195143e+00 1.5949413852e+00 2.7625195143e+00 
2500 5.8100231699e+00 2.0540646706e-02 1.5942597819e+00 -2.7613389428e+00 1.5942597819e+00 2.7613389428e+00 
2600 5.8096292074e+00 1.9334821081e-02 1.5936156190e+00 -2.7602232198e+00 1.5936156190e+00 2.7602232198e+00 
2700 5.8092459680e+00 1.8129443276e-02 1.5930090237e+00 -2.7591725659e+00 1.5930090237e+00 2.7591725659e+00 
2800 5.8088735585e+00 1.6927323255e-02 1.5924400262e+00 -2.7581870333e+00 1.5924400262e+00 2.7581870333e+00 
2900 5.8085120129e+00 1.5731066051e-02 1.5919085656e+00 -2.7572665166e+00 1.5919085656e+00 2.7572665166e+00 
3000 5.8081613008e+00 1.4543081348e-02 1.5914144967e+00 -2.7564107641e+00 1.5914144967e+00 2.7564107641e+00 
3100 5.8078213361e+00 1.3365592857e-02 1.5909575954e+00 -2.7556193879e+00 1.5909575954e+00 2.7556193879e+00 
3200 5.8074919841e+00 1.2200647457e-02 1.5905375652e+00 -2.7548918743e+00 1.5905375652e+00 2.7548918743e+00 
3300 5.8071730693e+00 1.1050124103e-02 1.5901540421e+00 -2.7542275929e+00 1.5901540421e+00 2.7542275929e+00 
3400 5.8068643812e+00 9.9157424774e-03 1.5898066003e+00 -2.7536258059e+00 1.5898066003e+00 2.7536258059e+00 
3500 5.8065656810e+00 8.7990713741e-03 1.5894947568e+00 -2.7530856771e+00 1.5894947568e+00 2.7530856771e+00 
3600 5.8062767066e+00 7.7015368134e-03 1.5892179765e+00 -2.7526062796e+00 1.5892179765e+00 2.7526062796e+00 
3700 5.8059971775e+00 6.6244298728e-03 1.5889756768e+00 -2.7521866041e+00 1.5889756768e+00 2.7521866041e+00 
3800 5.8057267998e+00 5.5689142327e-03 1.5887672316e+00 -2.7518255666e+00 1.5887672316e+00 2.7518255666e+00 
3900 5.8054652698e+00 4.5360334327e-03 1.5885919759e+00 -2.7515220147e+00 1.5885919759e+00 2.7515220147e+00 
4000 5.8052122779e+00 3.5267178357e-03 1.5884492090e+00 -2.7512747353e+00 1.5884492090e+00 2.7512747353e+00 
4100 5.8049675118e+00 2.5417913007e-03 1.5883381990e+00 -2.7510824602e+00 1.5883381990e+00 2.7510824602e+00 
4200 5.8047306591e+00 1.5819775637e-03 1.5882581855e+00 -2.7509438728e+00 1.5882581855e+00 2.7509438728e+00 
4300 5.8045014101e+00 6.4790633069e-04 1.5882083835e+00 -2.7508576131e+00 1.5882083835e+00 2.7508576131e+00 
4400 5.8042794600e+00 -2.5988091541e-04 1.5881879861e+00 -2.7508222839e+00 1.5881879861e+00 2.7508222839e+00 
4500 5.8040645105e+00 -1.1409253880e-03 1.5881961678e+00 -2.7508364550e+00 1.5881961678e+00 2.7508364550e+00 
4600 5.8038562716e+00 -1.9948457455e-03 1.5882320868e+00 -2.7508986686e+00 1.5882320868e+00 2.7508986686e+00 
4700 5.8036544629e+00 -2.8213331089e-03 1.5882948881e+00 -2.7510074435e+00 1.5882948881e+00 2.7510074435e+00 
4800 5.8034588145e+00 -3.6201463407e-03 1.5883837053e+00 -2.7511612795e+00 1.5883837053e+00 2.7511612795e+00 
4900 5.8032690682e+00 -4.3911075784e-03 1.5884976636e+00 -2.7513586610e+00 1.5884976636e+00 2.7513586610e+00 
5000 5.8030849777e+00 -5.1340980133e-03 1.5886358813e+00 -2.7515980612e+00 1.5886358813e+00 2.7515980612e+00 
5100 5.8029063095e+00 -5.8490539065e-03 1.5887974723e+00 -2.7518779450e+00 1.5887974723e+00 2.7518779450e+00 
5200 5.8027328429e+00 -6.5359628325e-03 1.5889815476e+00 -2.7521967728e+00 1.5889815476e+00 2.7521967728e+00 
5300 5.8025643702e+00 -7.1948601422e-03 1.5891872172e+00 -2.7525530029e+00 1.5891872172e+00 2.7525530029e+00 
5400 5.8024006969e+00 -7.8258256340e-03 1.5894135918e+00 -2.7529450952e+00 1.5894135918e+00 2.7529450952e+00 
5500 5.8022416413e+00 -8.4289804259e-03 1.5896597841e+00 -2.7533715127e+00 1.5896597841e+00 2.7533715127e+00 
5600 5.8020870346e+00 -9.0044840163e-03 1.5899249104e+00 -2.7538307251e+00 1.5899249104e+00 2.7538307251e+00 
5700 5.8019367201e+00 -9.5525315259e-03 1.5902080921e+00 -2.7543212101e+00 1.5902080921e+00 2.7543212101e+00 
5800 5.8017905533e+00 -1.0073351110e-02 1.5905084563e+00 -2.7548414562e+00 1.5905084563e+00 2.7548414562e+00 
5900 5.8016484015e+00 -1.0567201535e-02 1.5908251376e+00 -2.7553899643e+00 1.5908251376e+00 2.7553899643e+00 
6000 5.8015101426e+00 -1.1034369900e-02 1.5911572787e+00 -2.7559652496e+00 1.5911572787e+00 2.7559652496e+00 
6100 5.8013756653e+00 -1.1475169513e-02 1.5915040317e+00 -2.7565658434e+00 1.5915040317e+00 2.7565658434e+00 
6200 5.8012448680e+00 -1.1889937891e-02 1.5918645587e+00 -2.7571902944e+00 1.5918645587e+00 2.7571902944e+00 
6300 5.8011176586e+00 -1.2279034891e-02 1.5922380327e+00 -2.7578371705e+00 1.5922380327e+00 2.7578371705e+00 
6400 5.8009939532e+00 -1.2642840963e-02 1.5926236387e+00 -2.7585050596e+00 1.5926236387e+00 2.7585050596e+00 
6500 5.8008736763e+00 -1.2981755501e-02 1.5930205739e+00 -2.7591925715e+00 1.5930205739e+00 2.7591925715e+00 
6600 5.8007567593e+00 -1.3296195314e-02 1.5934280485e+00 -2.7598983382e+00 1.5934280485e+00 2.7598983382e+00 
6700 5.8006431404e+00 -1.3586593174e-02 1.5938452865e+00 -2.7606210156e+00 1.5938452865e+00 2.7606210156e+00 
6800 5.8005327638e+00 -1.3853396468e-02 1.5942715261e+00 -2.7613592842e+00 1.5942715261e+00 2.7613592842e+00 
6900 5.8004255787e+00 -1.4097065921e-02 1.5947060200e+00 -2.7621118498e+00 1.5947060200e+00 2.7621118498e+00 
7000 5.8003215393e+00 -1.4318074400e-02 1.5951480362e+00 -2.7628774442e+00 1.5951480362e+00 2.7628774442e+00 
7100 5.8002206035e+00 -1.4516905788e-02 1.5955968580e+00 -2.7636548265e+00 1.5955968580e+00 2.7636548265e+00 
7200 5.8001227329e+00 -1.4694053923e-02 1.5960517848e+00 -2.7644427828e+00 1.5960517848e+00 2.7644427828e+00 
7300 5.8000278919e+00 -1.4850021590e-02 1.5965121320e+00 -2.7652401276e+00 1.5965121320e+00 2.7652401276e+00 
7400 5.7999360469e+00 -1.4985319579e-02 1.5969772316e+00 -2.7660457037e+00 1.5969772316e+00 2.7660457037e+00 
7500 5.7998471666e+00 -1.5100465784e-02 1.5974464322e+00 -2.7668583829e+00 1.5974464322e+00 2.7668583829e+00 
7600 5.7997612205e+00 -1.5195984348e-02 1.5979190994e+00 -2.7676770665e+00 1.5979190994e+00 2.7676770665e+00 
7700 5.7996781794e+00 -1.5272404860e-02 1.5983946159e+00 -2.7685006852e+00 1.5983946159e+00 2.7685006852e+00 
7800 5.7995980142e+00 -1.5330261576e-02 1.5988723817e+00 -2.7693281999e+00 1.5988723817e+00 2.7693281999e+00 
7900 5.7995206959e+00 -1.5370092689e-02 1.5993518142e+00 -2.7701586013e+00 1.5993518142e+00 2.7701586013e+00 
8000 5.7994461954e+00 -1.5392439623e-02 1.5998323483e+00 -2.7709909108e+00 1.5998323483e+00 2.7709909108e+00 
8100 5.7993744827e+00 -1.5397846358e-02 1.6003134365e+00 -2.7718241801e+00 1.6003134365e+00 2.7718241801e+00 
8200 5.7993055270e+00 -1.5386858786e-02 1.6007945491e+00 -2.7726574915e+00 1.6007945491e+00 2.7726574915e+00 
8300 5.7992392963e+00 -1.5360024089e-02 1.6012751738e+00 -2.7734899579e+00 1.6012751738e+00 2.7734899579e+00 
8400 5.7991757572e+00 -1.5317890137e-02 1.6017548162e+00 -2.7743207230e+00 1.6017548162e+00 2.7743207230e+00 
8500 5.7991148750e+00 -1.5261004917e-02 1.6022329996e+00 -2.7751489610e+00 1.6022329996e+00 2.7751489610e+00 
8600 5.7990566128e+00 -1.5189915966e-02 1.6027092650e+00 -2.7759738767e+00 1.6027092650e+00 2.7759738767e+00 
8700 5.7990009322e+00 -1.5105169842e-02 1.6031831708e+00 -2.7767947056e+00 1.6031831708e+00 2.7767947056e+00 
8800 5.7989477928e+00 -1.5007311594e-02 1.6036542932e+00 -2.7776107135e+00 1.6036542932e+00 2.7776107135e+00 
8900 5.7988971520e+00 -1.4896884255e-02 1.6041222257e+00 -2.7784211965e+00 1.6041222257e+00 2.7784211965e+00 
9000 5.7988489655e+00 -1.4774428358e-02 1.6045865794e+00 -2.7792254807e+00 1.6045865794e+00 2.7792254807e+00 
9100 5.7988031867e+00 -1.4640481448e-02 1.6050469826e+00 -2.7800229224e+00 1.6050469826e+00 2.7800229224e+00 
9200 5.7987597670e+00 -1.4495577628e-02 1.6055030806e+00 -2.7808129073e+00 1.6055030806e+00 2.7808129073e+00 
9300 5.7987186557e+00 -1.4340247101e-02 1.6059545359e+00 -2.7815948508e+00 1.6059545359e+00 2.7815948508e+00 
9400 5.7986798003e+00 -1.4175015737e-02 1.6064010277e+00 -2.7823681973e+00 1.6064010277e+00 2.7823681973e+00 
9500 5.7986431463e+00 -1.4000404645e-02 1.6068422520e+00 -2.7831324203e+00 1.6068422520e+00 2.7831324203e+00 
9600 5.7986086374e+00 -1.3816929760e-02 1.6072779214e+00 -2.7838870217e+00 1.6072779214e+00 2.7838870217e+00 
9700 5.7985762157e+00 -1.3625101442e-02 1.6077077644e+00 -2.7846315317e+00 1.6077077644e+00 2.7846315317e+00 
9800 5.7985458215e+00 -1.3425424086e-02 1.6081315261e+00 -2.7853655085e+00 1.6081315261e+00 2.7853655085e+00 
9900 5.7985173939e+00 -1.3218395747e-02 1.6085489673e+00 -2.7860885378e+00 1.6085489673e+00 2.7860885378e+00 
10000 5.7984908704e+00 -1.3004507772e-02 1.6089598642e+00 -2.7868002322e+00 1.6089598642e+00 2.7868002322e+00 
10100 5.7984661876e+00 -1.2784244446e-02 1.6093640089e+00 -2.7875002314e+00 1.6093640089e+00 2.7875002314e+00 
10200 5.7984432808e+00 -1.2558082657e-02 1.6097612084e+00 -2.7881882010e+00 1.6097612084e+00 2.7881882010e+00 
10300 5.7984220848e+00 -1.2326491561e-02 1.6101512846e+00 -2.7888638327e+00 1.6101512846e+00 2.7888638327e+00 
10400 5.7984025333e+00 -1.2089932269e-02 1.6105340741e+00 -2.7895268436e+00 1.6105340741e+00 2.7895268436e+00 
10500 5.7983845599e+00 -1.1848857545e-02 1.6109094279e+00 -2.7901769755e+00 1.6109094279e+00 2.7901769755e+00 
10600 5.7983680976e+00 -1.1603711515e-02 1.6112772111e+00 -2.7908139946e+00 1.6112772111e+00 2.7908139946e+00 
10700 5.7983530792e+00 -1.1354929391e-02 1.6116373025e+00 -2.7914376914e+00 1.6116373025e+00 2.7914376914e+00 
10800 5.7983394376e+00 -1.1102937209e-02 1.6119895947e+00 -2.7920478792e+00 1.6119895947e+00 2.7920478792e+00 
10900 5.7983271059e+00 -1.0848151580e-02 1.6123339931e+00 -2.7926443947e+00 1.6123339931e+00 2.7926443947e+00 
11000 5.7983160174e+00 -1.0590979454e-02 1.6126704162e+00 -2.7932270967e+00 1.6126704162e+00 2.7932270967e+00 
11100 5.7983061060e+00 -1.0331817901e-02 1.6129987951e+00 -2.7937958656e+00 1.6129987951e+00 2.7937958656e+00 
11200 5.7982973062e+00 -1.0071053906e-02 1.6133190731e+00 -2.7943506033e+00 1.6133190731e+00 2.7943506033e+00 
11300 5.7982895534e+00 -9.8090641774e-03 1.6136312053e+00 -2.7948912323e+00 1.6136312053e+00 2.7948912323e+00 
11400 5.7982827838e+00 -9.5462149703e-03 1.6139351587e+00 -2.7954176949e+00 1.6139351587e+00 2.7954176949e+00 
11500 5.7982769348e+00 -9.2828619274e-03 1.6142309111e+00 -2.7959299532e+00 1.6142309111e+00 2.7959299532e+00 
11600 5.7982719450e+00 -9.0193499328e-03 1.6145184517e+00 -2.7964279881e+00 1.6145184517e+00 2.7964279881e+00 
11700 5.7982677543e+00 -8.7560129827e-03 1.6147977799e+00 -2.7969117987e+00 1.6147977799e+00 2.7969117987e+00 
11800 5.7982643041e+00 -8.4931740708e-03 1.6150689054e+00 -2.7973814019e+00 1.6150689054e+00 2.7973814019e+00 
11900 5.7982615375e+00 -8.2311450897e-03 1.6153318479e+00 -2.7978368316e+00 1.6153318479e+00 2.7978368316e+00 
12000 5.7982593990e+00 -7.9702267482e-03 1.6155866364e+00 -2.7982781384e+00 1.6155866364e+00 2.7982781384e+00 
12100 5.7982578351e+00 -7.7107085039e-03 1.6158333094e+00 -2.7987053884e+00 1.6158333094e+00 2.7987053884e+00 
12200 5.7982567941e+00 -7.4528685112e-03 1.6160719138e+00 -2.7991186633e+00 1.6160719138e+00 2.7991186633e+00 
12300 5.7982562261e+00 -7.1969735857e-03 1.6163025052e+00 -2.7995180593e+00 1.6163025052e+00 2.7995180593e+00 
12400 5.7982560833e+00 -6.9432791833e-03 1.6165251472e+00 -2.7999036867e+00 1.6165251472e+00 2.7999036867e+00 
12500 5.7982563197e+00 -6.6920293952e-03 1.6167399114e+00 -2.8002756691e+00 1.6167399114e+00 2.8002756691e+00 
12600 5.7982568917e+00 -6.4434569574e-03 1.6169468764e+00 -2.8006341431e+00 1.6169468764e+00 2.8006341431e+00 
12700 5.7982577576e+00 -6.1977832763e-03 1.6171461281e+00 -2.8009792572e+00 1.6171461281e+00 2.8009792572e+00 
12800 5.7982588779e+00 -5.9552184677e-03 1.6173377591e+00 -2.8013111718e+00 1.6173377591e+00 2.8013111718e+00 
12900 5.7982602150e+00 -5.7159614116e-03 1.6175218682e+00 -2.8016300580e+00 1.6175218682e+00 2.8016300580e+00 
13000 5.7982617339e+00 -5.4801998205e-03 1.6176985602e+00 -2.8019360977e+00 1.6176985602e+00 2.8019360977e+00 
13100 5.7982634013e+00 -5.2481103217e-03 1.6178679458e+00 -2.8022294821e+00 1.6178679458e+00 2.8022294821e+00 
13200 5.7982651863e+00 -5.0198585533e-03 1.6180301407e+00 -2.8025104118e+00 1.6180301407e+00 2.8025104118e+00 
13300 5.7982670600e+00 -4.7955992733e-03 1.6181852657e+00 -2.8027790962e+00 1.6181852657e+00 2.8027790962e+00 
13400 5.7982689957e+00 -4.5754764815e-03 1.6183334463e+00 -2.8030357525e+00 1.6183334463e+00 2.8030357525e+00 
13500 5.7982709687e+00 -4.3596235540e-03 1.6184748122e+00 -2.8032806054e+00 1.6184748122e+00 2.8032806054e+00 
13600 5.7982729562e+00 -4.1481633890e-03 1.6186094971e+00 -2.8035138866e+00 1.6186094971e+00 2.8035138866e+00 
13700 5.7982749377e+00 -3.9412085649e-03 1.6187376385e+00 -2.8037358340e+00 1.6187376385e+00 2.8037358340e+00 
13800 5.7982768943e+00 -3.7388615083e-03 1.6188593771e+00 -2.8039466915e+00 1.6188593771e+00 2.8039466915e+00 
13900 5.7982788091e+00 -3.5412146738e-03 1.6189748568e+00 -2.8041467081e+00 1.6189748568e+00 2.8041467081e+00 
14000 5.7982806671e+00 -3.3483507322e-03 1.6190842240e+00 -2.8043361377e+00 1.6190842240e+00 2.8043361377e+00 
14100 5.7982824550e+00 -3.1603427694e-03 1.6191876277e+00 -2.8045152381e+00 1.6191876277e+00 2.8045152381e+00 
14200 5.7982841612e+00 -2.9772544934e-03 1.6192852190e+00 -2.8046842713e+00 1.6192852190e+00 2.8046842713e+00 
14300 5.7982857758e+00 -2.7991404497e-03 1.6193771511e+00 -2.8048435022e+00 1.6193771511e+00 2.8048435022e+00 
14400 5.7982872902e+00 -2.6260462446e-03 1.6194635783e+00 -2.8049931986e+00 1.6194635783e+00 2.8049931986e+00 
14500 5.7982886975e+00 -2.4580087754e-03 1.6195446566e+00 -2.8051336304e+00 1.6195446566e+00 2.8051336304e+00 
14600 5.7982899922e+00 -2.2950564675e-03 1.6196205430e+00 -2.8052650695e+00 1.6196205430e+00 2.8052650695e+00 
14700 5.7982911700e+00 -2.1372095169e-03 1.6196913952e+00 -2.8053877890e+00 1.6196913952e+00 2.8053877890e+00 
14800 5.7982922279e+00 -1.9844801390e-03 1.6197573715e+00 -2.8055020633e+00 1.6197573715e+00 2.8055020633e+00 
14900 5.7982931642e+00 -1.8368728211e-03 1.6198186304e+00 -2.8056081669e+00 1.6198186304e+00 2.8056081669e+00 
15000 5.7982939781e+00 -1.6943845799e-03 1.6198753307e+00 -2.8057063747e+00 1.6198753307e+00 2.8057063747e+00 
15100 5.7982946698e+00 -1.5570052227e-03 1.6199276308e+00 -2.8057969612e+00 1.6199276308e+00 2.8057969612e+00 
15200 5.7982952405e+00 -1.4247176109e-03 1.6199756889e+00 -2.8058802002e+00 1.6199756889e+00 2.8058802002e+00 
15300 5.7982956923e+00 -1.2974979274e-03 1.6200196625e+00 -2.8059563648e+00 1.6200196625e+00 2.8059563648e+00 
15400 5.7982960280e+00 -1.1753159444e-03 1.6200597085e+00 -2.8060257263e+00 1.6200597085e+00 2.8060257263e+00 
15500 5.7982962512e+00 -1.0581352936e-03 1.6200959824e+00 -2.8060885547e+00 1.6200959824e+00 2.8060885547e+00 
15600 5.7982963658e+00 -9.4591373735e-04 1.6201286391e+00 -2.8061451177e+00 1.6201286391e+00 2.8061451177e+00 
15700 5.7982963767e+00 -8.3860343980e-04 1.6201578317e+00 -2.8061956809e+00 1.6201578317e+00 2.8061956809e+00 
15800 5.7982962890e+00 -7.3615123797e-04 1.6201837121e+00 -2.8062405070e+00 1.6201837121e+00 2.8062405070e+00 
15900 5.7982961082e+00 -6.3849891242e-04 1.6202064303e+00 -2.8062798560e+00 1.6202064303e+00 2.8062798560e+00 
16000 5.7982958403e+00 -5.4558345676e-04 1.6202261346e+00 -2.8063139849e+00 1.6202261346e+00 2.8063139849e+00 
16100 5.7982954915e+00 -4.5733734555e-04 1.6202429713e+00 -2.8063431468e+00 1.6202429713e+00 2.8063431468e+00 
16200 5.7982950682e+00 -3.7368880039e-04 1.6202570845e+00 -2.8063675917e+00 1.6202570845e+00 2.8063675917e+00 
16300 5.7982945770e+00 -2.9456205345e-04 1.6202686163e+00 -2.8063875654e+00 1.6202686163e+00 2.8063875654e+00 
16400 5.7982940247e+00 -2.1987760835e-04 1.6202777062e+00 -2.8064033096e+00 1.6202777062e+00 2.8064033096e+00 
16500 5.7982934181e+00 -1.4955249778e-04 1.6202844914e+00 -2.8064150619e+00 1.6202844914e+00 2.8064150619e+00 
16600 5.7982927638e+00 -8.3500537626e-05 1.6202891064e+00 -2.8064230553e+00 1.6202891064e+00 2.8064230553e+00 
16700 5.7982920688e+00 -2.1632577255e-05 1.6202916831e+00 -2.8064275183e+00 1.6202916831e+00 2.8064275183e+00 
16800 5.7982913397e+00 3.5338537250e-05 1.6202916831e+00 -2.8064275183e+00 1.6202916831e+00 2.8064275183e+00 
16900 5.7982905833e+00 9.0455558903e-05 1.6202916831e+00 -2.8064275183e+00 1.6202916831e+00 2.8064275183e+00 
17000 5.7982898058e+00 1.4031632159e-04 1.6202888918e+00 -2.8064226836e+00 1.6202888918e+00 2.8064226836e+00 
17100 5.7982890136e+00 1.8637500745e-04 1.6202845618e+00 -2.8064151838e+00 1.6202845618e+00 2.8064151838e+00 
17200 5.7982882128e+00 2.2873197980e-04 1.6202788105e+00 -2.8064052223e+00 1.6202788105e+00 2.8064052223e+00 
17300 5.7982874092e+00 2.6748916611e-04 1.6202717521e+00 -2.8063929968e+00 1.6202717521e+00 2.8063929968e+00 
17400 5.7982866085e+00 3.0274984258e-04 1.6202634977e+00 -2.8063786996e+00 1.6202634977e+00 2.8063786996e+00 
17500 5.7982858161e+00 3.3461842468e-04 1.6202541551e+00 -2.8063625178e+00 1.6202541551e+00 2.8063625178e+00 
17600 5.7982850369e+00 3.6320026362e-04 1.6202438290e+00 -2.8063446324e+00 1.6202438290e+00 2.8063446324e+00 
17700 5.7982842758e+00 3.8860144904e-04 1.6202326208e+00 -2.8063252193e+00 1.6202326208e+00 2.8063252193e+00 
17800 5.7982835372e+00 4.1092861798e-04 1.6202206287e+00 -2.8063044483e+00 1.6202206287e+00 2.8063044483e+00 
17900 5.7982828254e+00 4.3028877017e-04 1.6202079474e+00 -2.8062824838e+00 1.6202079474e+00 2.8062824838e+00 
18000 5.7982821440e+00 4.4678908994e-04 1.6201946686e+00 -2.8062594842e+00 1.6201946686e+00 2.8062594842e+00 
18100 5.7982814966e+00 4.6053677451e-04 1.6201808805e+00 -2.8062356025e+00 1.6201808805e+00 2.8062356025e+00 
18200 5.7982808864e+00 4.7163886898e-04 1.6201666680e+00 -2.8062109858e+00 1.6201666680e+00 2.8062109858e+00 
18300 5.7982803162e+00 4.8020210788e-04 1.6201521128e+00 -2.8061857753e+00 1.6201521128e+00 2.8061857753e+00 
18400 5.7982797886e+00 4.8633276345e-04 1.6201372932e+00 -2.8061601070e+00 1.6201372932e+00 2.8061601070e+00 
18500 5.7982793055e+00 4.9013650046e-04 1.6201222842e+00 -2.8061341107e+00 1.6201222842e+00 2.8061341107e+00 
18600 5.7982788691e+00 4.9171823775e-04 1.6201071577e+00 -2.8061079108e+00 1.6201071577e+00 2.8061079108e+00 
18700 5.7982784807e+00 4.9118201638e-04 1.6200919822e+00 -2.8060816261e+00 1.6200919822e+00 2.8060816261e+00 
18800 5.7982781416e+00 4.8863087434e-04 1.6200768232e+00 -2.8060553699e+00 1.6200768232e+00 2.8060553699e+00 
18900 5.7982778528e+00 4.8416672780e-04 1.6200617427e+00 -2.8060292497e+00 1.6200617427e+00 2.8060292497e+00 
19000 5.7982776150e+00 4.7789025886e-04 1.6200467999e+00 -2.8060033680e+00 1.6200467999e+00 2.8060033680e+00 
19100 5.7982774284e+00 4.6990080970e-04 1.6200320506e+00 -2.8059778216e+00 1.6200320506e+00 2.8059778216e+00 
19200 5.7982772933e+00 4.6029628300e-04 1.6200175478e+00 -2.8059527020e+00 1.6200175478e+00 2.8059527020e+00 
19300 5.7982772095e+00 4.4917304874e-04 1.6200033413e+00 -2.8059280956e+00 1.6200033413e+00 2.8059280956e+00 
19400 5.7982771767e+00 4.3662585696e-04 1.6199894780e+00 -2.8059040836e+00 1.6199894780e+00 2.8059040836e+00 
19500 5.7982771942e+00 4.2274775676e-04 1.6199760018e+00 -2.8058807422e+00 1.6199760018e+00 2.8058807422e+00 
19600 5.7982772613e+00 4.0763002104e-04 1.6199629539e+00 -2.8058581425e+00 1.6199629539e+00 2.8058581425e+00 
19700 5.7982773769e+00 3.9136207716e-04 1.6199503724e+00 -2.8058363508e+00 1.6199503724e+00 2.8058363508e+00 
19800 5.7982775400e+00 3.7403144325e-04 1.6199382930e+00 -2.8058154286e+00 1.6199382930e+00 2.8058154286e+00 
19900 5.7982777492e+00 3.5572367011e-04 1.6199267484e+00 -2.8057954328e+00 1.6199267484e+00 2.8057954328e+00 
20000 5.7982780030e+00 3.3652228844e-04 1.6199157688e+00 -2.8057764155e+00 1.6199157688e+00 2.8057764155e+00 
20100 5.7982782998e+00 3.1650876147e-04 1.6199053818e+00 -2.8057584247e+00 1.6199053818e+00 2.8057584247e+00 
20200 5.7982786379e+00 2.9576244261e-04 1.6198956124e+00 -2.8057415037e+00 1.6198956124e+00 2.8057415037e+00 
20300 5.7982790154e+00 2.7436053815e-04 1.6198864834e+00 -2.8057256917e+00 1.6198864834e+00 2.8057256917e+00 
20400 5.7982794304e+00 2.5237807484e-04 1.6198780149e+00 -2.8057110238e+00 1.6198780149e+00 2.8057110238e+00 
20500 5.7982798809e+00 2.2988787208e-04 1.6198702248e+00 -2.8056975311e+00 1.6198702248e+00 2.8056975311e+00 
20600 5.7982803649e+00 2.0696051868e-04 1.6198631290e+00 -2.8056852407e+00 1.6198631290e+00 2.8056852407e+00 
20700 5.7982808803e+00 1.8366435402e-04 1.6198567408e+00 -2.8056741760e+00 1.6198567408e+00 2.8056741760e+00 
20800 5.7982814248e+00 1.6006545347e-04 1.6198510716e+00 -2.8056643567e+00 1.6198510716e+00 2.8056643567e+00 
20900 5.7982819963e+00 1.3622761777e-04 1.6198461309e+00 -2.8056557991e+00 1.6198461309e+00 2.8056557991e+00 
21000 5.7982825926e+00 1.1221236648e-04 1.6198419259e+00 -2.8056485159e+00 1.6198419259e+00 2.8056485159e+00 
21100 5.7982832115e+00 8.8078935067e-05 1.6198384622e+00 -2.8056425166e+00 1.6198384622e+00 2.8056425166e+00 
21200 5.7982838509e+00 6.3884275688e-05 1.6198357435e+00 -2.8056378076e+00 1.6198357435e+00 2.8056378076e+00 
21300 5.7982845086e+00 4.2067294691e-05 1.6198357435e+00 -2.8056378076e+00 1.6198357435e+00 2.8056378076e+00 
21400 5.7982851822e+00 1.9409643745e-05 1.6198357435e+00 -2.8056378076e+00 1.6198357435e+00 2.8056378076e+00 
21500 5.7982858696e+00 -4.0429705480e-06 1.6198357435e+00 -2.8056378076e+00 1.6198357435e+00 2.8056378076e+00 
21600 5.7982865690e+00 -2.8245291344e-05 1.6198357435e+00 -2.8056378076e+00 1.6198357435e+00 2.8056378076e+00 
21700 5.7982872784e+00 -5.3152554361e-05 1.6198357435e+00 -2.8056378076e+00 1.6198357435e+00 2.8056378076e+00 
21800 5.7982879959e+00 -7.8720528361e-05 1.6198357435e+00 -2.8056378076e+00 1.6198357435e+00 2.8056378076e+00 
21900 5.7982887193e+00 -1.0196786910e-04 1.6198381734e+00 -2.8056420163e+00 1.6198381734e+00 2.8056420163e+00 
22000 5.7982894468e+00 -1.2490117331e-04 1.6198413208e+00 -2.8056474679e+00 1.6198413208e+00 2.8056474679e+00 
22100 5.7982901768e+00 -1.4748350637e-04 1.6198451762e+00 -2.8056541456e+00 1.6198451762e+00 2.8056541456e+00 
22200 5.7982909075e+00 -1.6968004262e-04 1.6198497286e+00 -2.8056620305e+00 1.6198497286e+00 2.8056620305e+00 
22300 5.7982916372e+00 -1.9145803482e-04 1.6198549661e+00 -2.8056711022e+00 1.6198549661e+00 2.8056711022e+00 
22400 5.7982923645e+00 -2.1278678164e-04 1.6198608758e+00 -2.8056813382e+00 1.6198608758e+00 2.8056813382e+00 
22500 5.7982930879e+00 -2.3363759345e-04 1.6198674439e+00 -2.8056927144e+00 1.6198674439e+00 2.8056927144e+00 
22600 5.7982938060e+00 -2.5398375644e-04 1.6198746555e+00 -2.8057052053e+00 1.6198746555e+00 2.8057052053e+00 
22700 5.7982945175e+00 -2.7380049522e-04 1.6198824952e+00 -2.8057187839e+00 1.6198824952e+00 2.8057187839e+00 
22800 5.7982952213e+00 -2.9306493405e-04 1.6198909464e+00 -2.8057334219e+00 1.6198909464e+00 2.8057334219e+00 
22900 5.7982959162e+00 -3.1175605677e-04 1.6198999922e+00 -2.8057490897e+00 1.6198999922e+00 2.8057490897e+00 
23000 5.7982966012e+00 -3.2985466555e-04 1.6199096149e+00 -2.8057657568e+00 1.6199096149e+00 2.8057657568e+00 
23100 5.7982972754e+00 -3.4734333861e-04 1.6199197962e+00 -2.8057833913e+00 1.6199197962e+00 2.8057833913e+00 
23200 5.7982979379e+00 -3.6420638700e-04 1.6199305172e+00 -2.8058019606e+00 1.6199305172e+00 2.8058019606e+00 
23300 5.7982985879e+00 -3.8042981044e-04 1.6199417587e+00 -2.8058214313e+00 1.6199417587e+00 2.8058214313e+00 
23400 5.7982992248e+00 -3.9600125250e-04 1.6199535008e+00 -2.8058417692e+00 1.6199535008e+00 2.8058417692e+00 
23500 5.7982998479e+00 -4.1090995507e-04 1.6199657234e+00 -2.8058629394e+00 1.6199657234e+00 2.8058629394e+00 
23600 5.7983004568e+00 -4.2514671231e-04 1.6199784061e+00 -2.8058849065e+00 1.6199784061e+00 2.8058849065e+00 
23700 5.7983010509e+00 -4.3870382410e-04 1.6199915281e+00 -2.8059076345e+00 1.6199915281e+00 2.8059076345e+00 
23800 5.7983016300e+00 -4.5157504906e-04 1.6200050684e+00 -2.8059310870e+00 1.6200050684e+00 2.8059310870e+00 
23900 5.7983021937e+00 -4.6375555734e-04 1.6200190059e+00 -2.8059552275e+00 1.6200190059e+00 2.8059552275e+00 
24000 5.7983027417e+00 -4.7524188316e-04 1.6200333192e+00 -2.8059800188e+00 1.6200333192e+00 2.8059800188e+00 
24100 5.7983032740e+00 -4.8603187715e-04 1.6200479869e+00 -2.8060054240e+00 1.6200479869e+00 2.8060054240e+00 
24200 5.7983037903e+00 -4.9612465871e-04 1.6200629874e+00 -2.8060314057e+00 1.6200629874e+00 2.8060314057e+00 
24300 5.7983042907e+00 -5.0552056828e-04 1.6200782994e+00 -2.8060579267e+00 1.6200782994e+00 2.8060579267e+00 
24400 5.7983047751e+00 -5.1422111969e-04 1.6200939011e+00 -2.8060849498e+00 1.6200939011e+00 2.8060849498e+00 
24500 5.7983052437e+00 -5.2222895270e-04 1.6201097712e+00 -2.8061124376e+00 1.6201097712e+00 2.8061124376e+00 
24600 5.7983056964e+00 -5.2954778569e-04 1.6201258884e+00 -2.8061403533e+00 1.6201258884e+00 2.8061403533e+00 
24700 5.7983061336e+00 -5.3618236852e-04 1.6201422312e+00 -2.8061686599e+00 1.6201422312e+00 2.8061686599e+00 
24800 5.7983065553e+00 -5.4213843589e-04 1.6201587786e+00 -2.8061973209e+00 1.6201587786e+00 2.8061973209e+00 
24900 5.7983069618e+00 -5.4742266085e-04 1.6201755097e+00 -2.8062262999e+00 1.6201755097e+00 2.8062262999e+00 
25000 5.7983073534e+00 -5.5204260886e-04 1.6201924036e+00 -2.8062555611e+00 1.6201924036e+00 2.8062555611e+00 
25100 5.7983077303e+00 -5.5600669226e-04 1.6202094400e+00 -2.8062850689e+00 1.6202094400e+00 2.8062850689e+00 
25200 5.7983080930e+00 -5.5932412524e-04 1.6202265985e+00 -2.8063147884e+00 1.6202265985e+00 2.8063147884e+00 
25300 5.7983084417e+00 -5.6200487939e-04 1.6202438592e+00 -2.8063446848e+00 1.6202438592e+00 2.8063446848e+00 
25400 5.7983087768e+00 -5.6405963981e-04 1.6202612024e+00 -2.8063747242e+00 1.6202612024e+00 2.8063747242e+00 
25500 5.7983090988e+00 -5.6549976185e-04 1.6202786089e+00 -2.8064048731e+00 1.6202786089e+00 2.8064048731e+00 
25600 5.7983094080e+00 -5.6633722854e-04 1.6202960596e+00 -2.8064350986e+00 1.6202960596e+00 2.8064350986e+00 
25700 5.7983097049e+00 -5.6658460869e-04 1.6203135360e+00 -2.8064653686e+00 1.6203135360e+00 2.8064653686e+00 
25800 5.7983099899e+00 -5.6625501572e-04 1.6203310199e+00 -2.8064956515e+00 1.6203310199e+00 2.8064956515e+00 
25900 5.7983102634e+00 -5.6536206731e-04 1.6203484933e+00 -2.8065259164e+00 1.6203484933e+00 2.8065259164e+00 
26000 5.7983105260e+00 -5.6391984572e-04 1.6203659390e+00 -2.8065561333e+00 1.6203659390e+00 2.8065561333e+00 
26100 5.7983107780e+00 -5.6194285902e-04 1.6203833401e+00 -2.8065862728e+00 1.6203833401e+00 2.8065862728e+00 
26200 5.7983110199e+00 -5.5944600314e-04 1.6204006799e+00 -2.8066163062e+00 1.6204006799e+00 2.8066163062e+00 
26300 5.7983112522e+00 -5.5644452473e-04 1.6204179425e+00 -2.8066462060e+00 1.6204179425e+00 2.8066462060e+00 
26400 5.7983114753e+00 -5.5295398493e-04 1.6204351123e+00 -2.8066759450e+00 1.6204351123e+00 2.8066759450e+00 
26500 5.7983116897e+00 -5.4899022406e-04 1.6204521743e+00 -2.8067054971e+00 1.6204521743e+00 2.8067054971e+00 
26600 5.7983118958e+00 -5.4456932712e-04 1.6204691137e+00 -2.8067348371e+00 1.6204691137e+00 2.8067348371e+00 
26700 5.7983120941e+00 -5.3970759034e-04 1.6204859166e+00 -2.8067639405e+00 1.6204859166e+00 2.8067639405e+00 
26800 5.7983122850e+00 -5.3442148858e-04 1.6205025693e+00 -2.8067927837e+00 1.6205025693e+00 2.8067927837e+00 
26900 5.7983124688e+00 -5.2872764368e-04 1.6205190587e+00 -2.8068213442e+00 1.6205190587e+00 2.8068213442e+00 
27000 5.7983126461e+00 -5.2264279378e-04 1.6205353722e+00 -2.8068496001e+00 1.6205353722e+00 2.8068496001e+00 
27100 5.7983128171e+00 -5.1618376363e-04 1.6205514979e+00 -2.8068775306e+00 1.6205514979e+00 2.8068775306e+00 
27200 5.7983129824e+00 -5.0936743582e-04 1.6205674241e+00 -2.8069051156e+00 1.6205674241e+00 2.8069051156e+00 
27300 5.7983131422e+00 -5.0221072298e-04 1.6205831398e+00 -2.8069323360e+00 1.6205831398e+00 2.8069323360e+00 
27400 5.7983132969e+00 -4.9473054099e-04 1.6205986346e+00 -2.8069591738e+00 1.6205986346e+00 2.8069591738e+00 
27500 5.7983134468e+00 -4.8694378315e-04 1.6206138984e+00 -2.8069856115e+00 1.6206138984e+00 2.8069856115e+00 
27600 5.7983135923e+00 -4.7886729529e-04 1.6206289219e+00 -2.8070116329e+00 1.6206289219e+00 2.8070116329e+00 
27700 5.7983137337e+00 -4.7051785191e-04 1.6206436960e+00 -2.8070372225e+00 1.6206436960e+00 2.8070372225e+00 
27800 5.7983138713e+00 -4.6191213329e-04 1.6206582124e+00 -2.8070623656e+00 1.6206582124e+00 2.8070623656e+00 
27900 5.7983140053e+00 -4.5306670347e-04 1.6206724632e+00 -2.8070870487e+00 1.6206724632e+00 2.8070870487e+00 
28000 5.7983141360e+00 -4.4399798934e-04 1.6206864410e+00 -2.8071112589e+00 1.6206864410e+00 2.8071112589e+00 
28100 5.7983142637e+00 -4.3472226060e-04 1.6207001388e+00 -2.8071349843e+00 1.6207001388e+00 2.8071349843e+00 
28200 5.7983143886e+00 -4.2525561065e-04 1.6207135504e+00 -2.8071582138e+00 1.6207135504e+00 2.8071582138e+00 
28300 5.7983145108e+00 -4.1561393849e-04 1.6207266698e+00 -2.8071809373e+00 1.6207266698e+00 2.8071809373e+00 
28400 5.7983146307e+00 -4.0581293154e-04 1.6207394917e+00 -2.8072031454e+00 1.6207394917e+00 2.8072031454e+00 
28500 5.7983147484e+00 -3.9586804933e-04 1.6207520111e+00 -2.8072248296e+00 1.6207520111e+00 2.8072248296e+00 
28600 5.7983148640e+00 -3.8579450815e-04 1.6207642236e+00 -2.8072459823e+00 1.6207642236e+00 2.8072459823e+00 
28700 5.7983149777e+00 -3.7560726664e-04 1.6207761252e+00 -2.8072665965e+00 1.6207761252e+00 2.8072665965e+00 
28800 5.7983150896e+00 -3.6532101217e-04 1.6207877125e+00 -2.8072866663e+00 1.6207877125e+00 2.8072866663e+00 
28900 5.7983152000e+00 -3.5495014816e-04 1.6207989823e+00 -2.8073061863e+00 1.6207989823e+00 2.8073061863e+00 
29000 5.7983153088e+00 -3.4450878231e-04 1.6208099322e+00 -2.8073251520e+00 1.6208099322e+00 2.8073251520e+00 
29100 5.7983154162e+00 -3.3401071554e-04 1.6208205599e+00 -2.8073435597e+00 1.6208205599e+00 2.8073435597e+00 
29200 5.7983155223e+00 -3.2346943194e-04 1.6208308637e+00 -2.8073614063e+00 1.6208308637e+00 2.8073614063e+00 
29300 5.7983156272e+00 -3.1289808937e-04 1.6208408422e+00 -2.8073786896e+00 1.6208408422e+00 2.8073786896e+00 
29400 5.7983157309e+00 -3.0230951101e-04 1.6208504945e+00 -2.8073954080e+00 1.6208504945e+00 2.8073954080e+00 
29500 5.7983158335e+00 -2.9171617757e-04 1.6208598202e+00 -2.8074115605e+00 1.6208598202e+00 2.8074115605e+00 
29600 5.7983159351e+00 -2.8113022037e-04 1.6208688190e+00 -2.8074271469e+00 1.6208688190e+00 2.8074271469e+00 
29700 5.7983160356e+00 -2.7056341511e-04 1.6208774912e+00 -2.8074421676e+00 1.6208774912e+00 2.8074421676e+00 
29800 5.7983161352e+00 -2.6002717637e-04 1.6208858374e+00 -2.8074566237e+00 1.6208858374e+00 2.8074566237e+00 
29900 5.7983162337e+00 -2.4953255291e-04 1.6208938586e+00 -2.8074705167e+00 1.6208938586e+00 2.8074705167e+00 
30000 5.7983163314e+00 -2.3909022354e-04 1.6209015560e+00 -2.8074838490e+00 1.6209015560e+00 2.8074838490e+00 
30100 5.7983164281e+00 -2.2871049373e-04 1.6209089312e+00 -2.8074966233e+00 1.6209089312e+00 2.8074966233e+00 
30200 5.7983165239e+00 -2.1840329295e-04 1.6209159862e+00 -2.8075088429e+00 1.6209159862e+00 2.8075088429e+00 
30300 5.7983166188e+00 -2.0817817249e-04 1.6209227232e+00 -2.8075205118e+00 1.6209227232e+00 2.8075205118e+00 
30400 5.7983167127e+00 -1.9804430406e-04 1.6209291448e+00 -2.8075316343e+00 1.6209291448e+00 2.8075316343e+00 
30500 5.7983168057e+00 -1.8801047885e-04 1.6209352538e+00 -2.8075422154e+00 1.6209352538e+00 2.8075422154e+00 
30600 5.7983168978e+00 -1.7808510729e-04 1.6209410533e+00 -2.8075522603e+00 1.6209410533e+00 2.8075522603e+00 
30700 5.7983169889e+00 -1.6827621929e-04 1.6209465465e+00 -2.8075617749e+00 1.6209465465e+00 2.8075617749e+00 
30800 5.7983170790e+00 -1.5859146505e-04 1.6209517372e+00 -2.8075707655e+00 1.6209517372e+00 2.8075707655e+00 
30900 5.7983171681e+00 -1.4903811638e-04 1.6209566291e+00 -2.8075792385e+00 1.6209566291e+00 2.8075792385e+00 
31000 5.7983172561e+00 -1.3962306851e-04 1.6209612264e+00 -2.8075872012e+00 1.6209612264e+00 2.8075872012e+00 
31100 5.7983173432e+00 -1.3035284244e-04 1.6209655332e+00 -2.8075946608e+00 1.6209655332e+00 2.8075946608e+00 
31200 5.7983174291e+00 -1.2123358763e-04 1.6209695540e+00 -2.8076016251e+00 1.6209695540e+00 2.8076016251e+00 
31300 5.7983175140e+00 -1.1227108525e-04 1.6209732935e+00 -2.8076081021e+00 1.6209732935e+00 2.8076081021e+00 
31400 5.7983175977e+00 -1.0347075178e-04 1.6209767566e+00 -2.8076141004e+00 1.6209767566e+00 2.8076141004e+00 
31500 5.7983176803e+00 -9.4837643037e-05 1.6209799482e+00 -2.8076196284e+00 1.6209799482e+00 2.8076196284e+00 
31600 5.7983177617e+00 -8.6376458540e-05 1.6209828736e+00 -2.8076246952e+00 1.6209828736e+00 2.8076246952e+00 
31700 5.7983178419e+00 -7.8091546298e-05 1.6209855379e+00 -2.8076293099e+00 1.6209855379e+00 2.8076293099e+00 
31800 5.7983179209e+00 -6.9986907888e-05 1.6209879467e+00 -2.8076334821e+00 1.6209879467e+00 2.8076334821e+00 
31900 5.7983179988e+00 -6.4669145919e-05 1.6209879467e+00 -2.8076334821e+00 1.6209879467e+00 2.8076334821e+00 
32000 5.7983180753e+00 -5.9262549178e-05 1.6209879467e+00 -2.8076334821e+00 1.6209879467e+00 2.8076334821e+00 
32100 5.7983181505e+00 -5.3775176769e-05 1.6209879467e+00 -2.8076334821e+00 1.6209879467e+00 2.8076334821e+00 
32200 5.7983182244e+00 -4.8214872268e-05 1.6209879467e+00 -2.8076334821e+00 1.6209879467e+00 2.8076334821e+00 
32300 5.7983182968e+00 -4.2589264382e-05 1.6209879467e+00 -2.8076334821e+00 1.6209879467e+00 2.8076334821e+00 
32400 5.7983183679e+00 -3.6905767754e-05 1.6209879467e+00 -2.8076334821e+00 1.6209879467e+00 2.8076334821e+00 
32500 5.7983184376e+00 -3.1171583905e-05 1.6209879467e+00 -2.8076334821e+00 1.6209879467e+00 2.8076334821e+00 
32600 5.7983185060e+00 -2.5393702307e-05 1.6209879467e+00 -2.8076334821e+00 1.6209879467e+00 2.8076334821e+00 
32700 5.7983185729e+00 -1.9578901593e-05 1.6209879467e+00 -2.8076334821e+00 1.6209879467e+00 2.8076334821e+00 
32800 5.7983186384e+00 -1.3733750887e-05 1.6209879467e+00 -2.8076334821e+00 1.6209879467e+00 2.8076334821e+00 
32900 5.7983187026e+00 -7.8646112551e-06 1.6209879467e+00 -2.8076334821e+00 1.6209879467e+00 2.8076334821e+00 
33000 5.7983187654e+00 -1.9776372732e-06 1.6209879467e+00 -2.8076334821e+00 1.6209879467e+00 2.8076334821e+00 
33100 5.7983188267e+00 3.9212212840e-06 1.6209879467e+00 -2.8076334821e+00 1.6209879467e+00 2.8076334821e+00 
33200 5.7983188867e+00 9.8262176565e-06 1.6209879467e+00 -2.8076334821e+00 1.6209879467e+00 2.8076334821e+00 
33300 5.7983189454e+00 1.5731806198e-05 1.6209879467e+00 -2.8076334821e+00 1.6209879467e+00 2.8076334821e+00 
33400 5.7983190027e+00 2.1632640388e-05 1.6209879467e+00 -2.8076334821e+00 1.6209879467e+00 2.8076334821e+00 
33500 5.7983190586e+00 2.7523570722e-05 1.6209879467e+00 -2.8076334821e+00 1.6209879467e+00 2.8076334821e+00 
33600 5.7983191132e+00 3.3399642540e-05 1.6209879467e+00 -2.8076334821e+00 1.6209879467e+00 2.8076334821e+00 
33700 5.7983191664e+00 3.9256093741e-05 1.6209879467e+00 -2.8076334821e+00 1.6209879467e+00 2.8076334821e+00 
33800 5.7983192184e+00 4.5088352430e-05 1.6209879467e+00 -2.8076334821e+00 1.6209879467e+00 2.8076334821e+00 
33900 5.7983192691e+00 5.0892034471e-05 1.6209879467e+00 -2.8076334821e+00 1.6209879467e+00 2.8076334821e+00 
34000 5.7983193185e+00 5.6662940978e-05 1.6209879467e+00 -2.8076334821e+00 1.6209879467e+00 2.8076334821e+00 
34100 5.7983193666e+00 6.2397055720e-05 1.6209879467e+00 -2.8076334821e+00 1.6209879467e+00 2.8076334821e+00 
34200 5.7983194135e+00 6.8090542466e-05 1.6209879467e+00 -2.8076334821e+00 1.6209879467e+00 2.8076334821e+00 
34300 5.7983194592e+00 7.3739742260e-05 1.6209879467e+00 -2.8076334821e+00 1.6209879467e+00 2.8076334821e+00 
34400 5.7983195034e+00 7.6598244017e-05 1.6209856721e+00 -2.8076295425e+00 1.6209856721e+00 2.8076295425e+00 
34500 5.7983195464e+00 7.9279815793e-05 1.6209833094e+00 -2.8076254501e+00 1.6209833094e+00 2.8076254501e+00 
34600 5.7983195883e+00 8.1786938023e-05 1.6209808640e+00 -2.8076212145e+00 1.6209808640e+00 2.8076212145e+00 
34700 5.7983196289e+00 8.4122236818e-05 1.6209783412e+00 -2.8076168450e+00 1.6209783412e+00 2.8076168450e+00 
34800 5.7983196684e+00 8.6288475336e-05 1.6209757464e+00 -2.8076123507e+00 1.6209757464e+00 2.8076123507e+00 
34900 5.7983197068e+00 8.8288545272e-05 1.6209730848e+00 -2.8076077406e+00 1.6209730848e+00 2.8076077406e+00 
35000 5.7983197441e+00 9.0125458486e-05 1.6209703615e+00 -2.8076030237e+00 1.6209703615e+00 2.8076030237e+00 
35100 5.7983197803e+00 9.1802338767e-05 1.6209675815e+00 -2.8075982086e+00 1.6209675815e+00 2.8075982086e+00 
35200 5.7983198155e+00 9.3322413730e-05 1.6209647498e+00 -2.8075933039e+00 1.6209647498e+00 2.8075933039e+00 
35300 5.7983198496e+00 9.4689006884e-05 1.6209618712e+00 -2.8075883180e+00 1.6209618712e+00 2.8075883180e+00 
35400 5.7983198828e+00 9.5905529844e-05 1.6209589504e+00 -2.8075832591e+00 1.6209589504e+00 2.8075832591e+00 
35500 5.7983199150e+00 9.6975474687e-05 1.6209559921e+00 -2.8075781352e+00 1.6209559921e+00 2.8075781352e+00 
35600 5.7983199463e+00 9.7902406510e-05 1.6209530008e+00 -2.8075729541e+00 1.6209530008e+00 2.8075729541e+00 
35700 5.7983199767e+00 9.8689956111e-05 1.6209499809e+00 -2.8075677235e+00 1.6209499809e+00 2.8075677235e+00 
35800 5.7983200062e+00 9.9341812874e-05 1.6209469367e+00 -2.8075624508e+00 1.6209469367e+00 2.8075624508e+00 
35900 5.7983200348e+00 9.9861717810e-05 1.6209438724e+00 -2.8075571432e+00 1.6209438724e+00 2.8075571432e+00 
36000 5.7983200627e+00 1.0025345679e-04 1.6209407921e+00 -2.8075518079e+00 1.6209407921e+00 2.8075518079e+00 
36100 5.7983200897e+00 1.0052085394e-04 1.6209376996e+00 -2.8075464516e+00 1.6209376996e+00 2.8075464516e+00 
36200 5.7983201160e+00 1.0066776524e-04 1.6209345989e+00 -2.8075410811e+00 1.6209345989e+00 2.8075410811e+00 
36300 5.7983201416e+00 1.0069807229e-04 1.6209314937e+00 -2.8075357026e+00 1.6209314937e+00 2.8075357026e+00 
36400 5.7983201664e+00 1.0061567625e-04 1.6209283875e+00 -2.8075303226e+00 1.6209283875e+00 2.8075303226e+00 
36500 5.7983201905e+00 1.0042449201e-04 1.6209252839e+00 -2.8075249469e+00 1.6209252839e+00 2.8075249469e+00 
36600 5.7983202140e+00 1.0012844253e-04 1.6209221861e+00 -2.8075195814e+00 1.6209221861e+00 2.8075195814e+00 
36700 5.7983202369e+00 9.9731453314e-05 1.6209190975e+00 -2.8075142318e+00 1.6209190975e+00 2.8075142318e+00 
36800 5.7983202591e+00 9.9237447179e-05 1.6209160211e+00 -2.8075089033e+00 1.6209160211e+00 2.8075089033e+00 
36900 5.7983202808e+00 9.8650339120e-05 1.6209129599e+00 -2.8075036013e+00 1.6209129599e+00 2.8075036013e+00 
37000 5.7983203019e+00 9.7974031409e-05 1.6209099169e+00 -2.8074983306e+00 1.6209099169e+00 2.8074983306e+00 
37100 5.7983203225e+00 9.7212408885e-05 1.6209068947e+00 -2.8074930960e+00 1.6209068947e+00 2.8074930960e+00 
37200 5.7983203425e+00 9.6369334413e-05 1.6209038960e+00 -2.8074879021e+00 1.6209038960e+00 2.8074879021e+00 
37300 5.7983203620e+00 9.5448644548e-05 1.6209009233e+00 -2.8074827532e+00 1.6209009233e+00 2.8074827532e+00 
37400 5.7983203811e+00 9.4454145378e-05 1.6208979790e+00 -2.8074776535e+00 1.6208979790e+00 2.8074776535e+00 
37500 5.7983203997e+00 9.3389608562e-05 1.6208950654e+00 -2.8074726069e+00 1.6208950654e+00 2.8074726069e+00 
37600 5.7983204179e+00 9.2258767544e-05 1.6208921845e+00 -2.8074676172e+00 1.6208921845e+00 2.8074676172e+00 
37700 5.7983204356e+00 9.1065313950e-05 1.6208893386e+00 -2.8074626879e+00 1.6208893386e+00 2.8074626879e+00 
37800 5.7983204529e+00 8.9812894174e-05 1.6208865295e+00 -2.8074578224e+00 1.6208865295e+00 2.8074578224e+00 
37900 5.7983204698e+00 8.8505106144e-05 1.6208837590e+00 -2.8074530238e+00 1.6208837590e+00 2.8074530238e+00 
38000 5.7983204864e+00 8.7145496254e-05 1.6208810289e+00 -2.8074482950e+00 1.6208810289e+00 2.8074482950e+00 
38100 5.7983205026e+00 8.5737556484e-05 1.6208783407e+00 -2.8074436389e+00 1.6208783407e+00 2.8074436389e+00 
38200 5.7983205185e+00 8.4284721688e-05 1.6208756959e+00 -2.8074390580e+00 1.6208756959e+00 2.8074390580e+00 
38300 5.7983205340e+00 8.2790367052e-05 1.6208730959e+00 -2.8074345547e+00 1.6208730959e+00 2.8074345547e+00 
38400 5.7983205492e+00 8.1257805721e-05 1.6208705420e+00 -2.8074301313e+00 1.6208705420e+00 2.8074301313e+00 
38500 5.7983205641e+00 7.9690286589e-05 1.6208680354e+00 -2.8074257897e+00 1.6208680354e+00 2.8074257897e+00 
38600 5.7983205787e+00 7.8090992261e-05 1.6208655772e+00 -2.8074215319e+00 1.6208655772e+00 2.8074215319e+00 
38700 5.7983205930e+00 7.6463037152e-05 1.6208631682e+00 -2.8074173595e+00 1.6208631682e+00 2.8074173595e+00 
38800 5.7983206070e+00 7.4809465766e-05 1.6208608095e+00 -2.8074132741e+00 1.6208608095e+00 2.8074132741e+00 
38900 5.7983206208e+00 7.3133251122e-05 1.6208585018e+00 -2.8074092770e+00 1.6208585018e+00 2.8074092770e+00 
39000 5.7983206343e+00 7.1437293304e-05 1.6208562458e+00 -2.8074053695e+00 1.6208562458e+00 2.8074053695e+00 
39100 5.7983206476e+00 6.9724418206e-05 1.6208540421e+00 -2.8074015526e+00 1.6208540421e+00 2.8074015526e+00 
39200 5.7983206608e+00 7.0591774442e-05 1.6208540421e+00 -2.8074015526e+00 1.6208540421e+00 2.8074015526e+00 
39300 5.7983206737e+00 7.1401812065e-05 1.6208540421e+00 -2.8074015526e+00 1.6208540421e+00 2.8074015526e+00 
39400 5.7983206863e+00 6.9499626736e-05 1.6208518395e+00 -2.8073977376e+00 1.6208518395e+00 2.8073977376e+00 
39500 5.7983206988e+00 7.0181829918e-05 1.6208518395e+00 -2.8073977376e+00 1.6208518395e+00 2.8073977376e+00 
39600 5.7983207110e+00 7.0812159355e-05 1.6208518395e+00 -2.8073977376e+00 1.6208518395e+00 2.8073977376e+00 
39700 5.7983207229e+00 6.8757625011e-05 1.6208496551e+00 -2.8073939541e+00 1.6208496551e+00 2.8073939541e+00 
39800 5.7983207348e+00 6.9271070021e-05 1.6208496551e+00 -2.8073939541e+00 1.6208496551e+00 2.8073939541e+00 
39900 5.7983207464e+00 6.9737985483e-05 1.6208496551e+00 -2.8073939541e+00 1.6208496551e+00 2.8073939541e+00 
40000 5.7983207578e+00 7.0160198467e-05 1.6208496551e+00 -2.8073939541e+00 1.6208496551e+00 2.8073939541e+00 
40100 5.7983207691e+00 7.0539509235e-05 1.6208496551e+00 -2.8073939541e+00 1.6208496551e+00 2.8073939541e+00 
40200 5.7983207801e+00 7.0877690688e-05 1.6208496551e+00 -2.8073939541e+00 1.6208496551e+00 2.8073939541e+00 
40300 5.7983207908e+00 6.8539213985e-05 1.6208474687e+00 -2.8073901670e+00 1.6208474687e+00 2.8073901670e+00 
40400 5.7983208014e+00 6.8781606594e-05 1.6208474687e+00 -2.8073901670e+00 1.6208474687e+00 2.8073901670e+00 
40500 5.7983208119e+00 6.8987829762e-05 1.6208474687e+00 -2.8073901670e+00 1.6208474687e+00 2.8073901670e+00 
40600 5.7983208222e+00 6.9159573516e-05 1.6208474687e+00 -2.8073901670e+00 1.6208474687e+00 2.8073901670e+00 
40700 5.7983208323e+00 6.9298496972e-05 1.6208474687e+00 -2.8073901670e+00 1.6208474687e+00 2.8073901670e+00 
40800 5.7983208422e+00 6.9406228014e-05 1.6208474687e+00 -2.8073901670e+00 1.6208474687e+00 2.8073901670e+00 
40900 5.7983208520e+00 6.9484362987e-05 1.6208474687e+00 -2.8073901670e+00 1.6208474687e+00 2.8073901670e+00 
41000 5.7983208616e+00 6.9534466436e-05 1.6208474687e+00 -2.8073901670e+00 1.6208474687e+00 2.8073901670e+00 
41100 5.7983208710e+00 6.9558070862e-05 1.6208474687e+00 -2.8073901670e+00 1.6208474687e+00 2.8073901670e+00 
41200 5.7983208802e+00 6.9556676522e-05 1.6208474687e+00 -2.8073901670e+00 1.6208474687e+00 2.8073901670e+00 
41300 5.7983208893e+00 6.9531751248e-05 1.6208474687e+00 -2.8073901670e+00 1.6208474687e+00 2.8073901670e+00 
41400 5.7983208982e+00 6.9484730294e-05 1.6208474687e+00 -2.8073901670e+00 1.6208474687e+00 2.8073901670e+00 
41500 5.7983209070e+00 6.9417016225e-05 1.6208474687e+00 -2.8073901670e+00 1.6208474687e+00 2.8073901670e+00 
41600 5.7983209156e+00 6.9329978813e-05 1.6208474687e+00 -2.8073901670e+00 1.6208474687e+00 2.8073901670e+00 
41700 5.7983209241e+00 6.9224954977e-05 1.6208474687e+00 -2.8073901670e+00 1.6208474687e+00 2.8073901670e+00 
41800 5.7983209324e+00 6.9103248737e-05 1.6208474687e+00 -2.8073901670e+00 1.6208474687e+00 2.8073901670e+00 
41900 5.7983209405e+00 6.8966131202e-05 1.6208474687e+00 -2.8073901670e+00 1.6208474687e+00 2.8073901670e+00 
42000 5.7983209485e+00 6.8814840576e-05 1.6208474687e+00 -2.8073901670e+00 1.6208474687e+00 2.8073901670e+00 
42100 5.7983209564e+00 6.8650582196e-05 1.6208474687e+00 -2.8073901670e+00 1.6208474687e+00 2.8073901670e+00 
42200 5.7983209641e+00 6.8474528579e-05 1.6208474687e+00 -2.8073901670e+00 1.6208474687e+00 2.8073901670e+00 
42300 5.7983209717e+00 6.8287819515e-05 1.6208474687e+00 -2.8073901670e+00 1.6208474687e+00 2.8073901670e+00 
42400 5.7983209791e+00 6.8091562155e-05 1.6208474687e+00 -2.8073901670e+00 1.6208474687e+00 2.8073901670e+00 
42500 5.7983209864e+00 6.7886831144e-05 1.6208474687e+00 -2.8073901670e+00 1.6208474687e+00 2.8073901670e+00 
42600 5.7983209935e+00 6.7674668758e-05 1.6208474687e+00 -2.8073901670e+00 1.6208474687e+00 2.8073901670e+00 
42700 5.7983210005e+00 6.7456085074e-05 1.6208474687e+00 -2.8073901670e+00 1.6208474687e+00 2.8073901670e+00 
42800 5.7983210074e+00 6.7232058150e-05 1.6208474687e+00 -2.8073901670e+00 1.6208474687e+00 2.8073901670e+00 
42900 5.7983210142e+00 6.7003534230e-05 1.6208474687e+00 -2.8073901670e+00 1.6208474687e+00 2.8073901670e+00 
43000 5.7983210208e+00 6.6771427965e-05 1.6208474687e+00 -2.8073901670e+00 1.6208474687e+00 2.8073901670e+00 
43100 5.7983210273e+00 6.6536622652e-05 1.6208474687e+00 -2.8073901670e+00 1.6208474687e+00 2.8073901670e+00 
43200 5.7983210337e+00 6.6299970491e-05 1.6208474687e+00 -2.8073901670e+00 1.6208474687e+00 2.8073901670e+00 
43300 5.7983210399e+00 6.6062292859e-05 1.6208474687e+00 -2.8073901670e+00 1.6208474687e+00 2.8073901670e+00 
43400 5.7983210461e+00 6.5824380596e-05 1.6208474687e+00 -2.8073901670e+00 1.6208474687e+00 2.8073901670e+00 
43500 5.7983210521e+00 6.5586994314e-05 1.6208474687e+00 -2.8073901670e+00 1.6208474687e+00 2.8073901670e+00 
43600 5.7983210580e+00 6.5350864711e-05 1.6208474687e+00 -2.8073901670e+00 1.6208474687e+00 2.8073901670e+00 
43700 5.7983210637e+00 6.5116692911e-05 1.6208474687e+00 -2.8073901670e+00 1.6208474687e+00 2.8073901670e+00 
43800 5.7983210694e+00 6.4885150806e-05 1.6208474687e+00 -2.8073901670e+00 1.6208474687e+00 2.8073901670e+00 
43900 5.7983210750e+00 6.4656881421e-05 1.6208474687e+00 -2.8073901670e+00 1.6208474687e+00 2.8073901670e+00 
44000 5.7983210804e+00 6.4432499280e-05 1.6208474687e+00 -2.8073901670e+00 1.6208474687e+00 2.8073901670e+00 
44100 5.7983210858e+00 6.4212590799e-05 1.6208474687e+00 -2.8073901670e+00 1.6208474687e+00 2.8073901670e+00 
44200 5.7983210910e+00 6.3997714672e-05 1.6208474687e+00 -2.8073901670e+00 1.6208474687e+00 2.8073901670e+00 
44300 5.7983210962e+00 6.3788402290e-05 1.6208474687e+00 -2.8073901670e+00 1.6208474687e+00 2.8073901670e+00 
44400 5.7983211012e+00 6.3585158145e-05 1.6208474687e+00 -2.8073901670e+00 1.6208474687e+00 2.8073901670e+00 
44500 5.7983211061e+00 6.3388460267e-05 1.6208474687e+00 -2.8073901670e+00 1.6208474687e+00 2.8073901670e+00 
44600 5.7983211110e+00 6.3198760651e-05 1.6208474687e+00 -2.8073901670e+00 1.6208474687e+00 2.8073901670e+00 
44700 5.7983211157e+00 6.3016485713e-05 1.6208474687e+00 -2.8073901670e+00 1.6208474687e+00 2.8073901670e+00 
44800 5.7983211204e+00 6.2842036725e-05 1.6208474687e+00 -2.8073901670e+00 1.6208474687e+00 2.8073901670e+00 
44900 5.7983211250e+00 6.2675790289e-05 1.6208474687e+00 -2.8073901670e+00 1.6208474687e+00 2.8073901670e+00 
45000 5.7983211295e+00 6.2518098797e-05 1.6208474687e+00 -2.8073901670e+00 1.6208474687e+00 2.8073901670e+00 
45100 5.7983211339e+00 6.2369290905e-05 1.6208474687e+00 -2.8073901670e+00 1.6208474687e+00 2.8073901670e+00 
45200 5.7983211382e+00 6.2229672010e-05 1.6208474687e+00 -2.8073901670e+00 1.6208474687e+00 2.8073901670e+00 
45300 5.7983211424e+00 6.2099524741e-05 1.6208474687e+00 -2.8073901670e+00 1.6208474687e+00 2.8073901670e+00 
45400 5.7983211465e+00 6.1979109432e-05 1.6208474687e+00 -2.8073901670e+00 1.6208474687e+00 2.8073901670e+00 
45500 5.7983211506e+00 6.1868664635e-05 1.6208474687e+00 -2.8073901670e+00 1.6208474687e+00 2.8073901670e+00 
45600 5.7983211546e+00 6.1768407604e-05 1.6208474687e+00 -2.8073901670e+00 1.6208474687e+00 2.8073901670e+00 
45700 5.7983211585e+00 6.1678534798e-05 1.6208474687e+00 -2.8073901670e+00 1.6208474687e+00 2.8073901670e+00 
45800 5.7983211624e+00 6.1599222384e-05 1.6208474687e+00 -2.8073901670e+00 1.6208474687e+00 2.8073901670e+00 
45900 5.7983211662e+00 6.1530626746e-05 1.6208474687e+00 -2.8073901670e+00 1.6208474687e+00 2.8073901670e+00 
46000 5.7983211699e+00 6.1472884991e-05 1.6208474687e+00 -2.8073901670e+00 1.6208474687e+00 2.8073901670e+00 
46100 5.7983211735e+00 6.1426115454e-05 1.6208474687e+00 -2.8073901670e+00 1.6208474687e+00 2.8073901670e+00 
46200 5.7983211771e+00 6.1390418214e-05 1.6208474687e+00 -2.8073901670e+00 1.6208474687e+00 2.8073901670e+00 
46300 5.7983211806e+00 6.1365875602e-05 1.6208474687e+00 -2.8073901670e+00 1.6208474687e+00 2.8073901670e+00 
46400 5.7983211840e+00 6.1352552714e-05 1.6208474687e+00 -2.8073901670e+00 1.6208474687e+00 2.8073901670e+00 
46500 5.7983211874e+00 6.1350497917e-05 1.6208474687e+00 -2.8073901670e+00 1.6208474687e+00 2.8073901670e+00 
46600 5.7983211907e+00 6.1359743366e-05 1.6208474687e+00 -2.8073901670e+00 1.6208474687e+00 2.8073901670e+00 
46700 5.7983211940e+00 6.1380305511e-05 1.6208474687e+00 -2.8073901670e+00 1.6208474687e+00 2.8073901670e+00 
46800 5.7983211971e+00 6.1412185600e-05 1.6208474687e+00 -2.8073901670e+00 1.6208474687e+00 2.8073901670e+00 
46900 5.7983212003e+00 6.1455370191e-05 1.6208474687e+00 -2.8073901670e+00 1.6208474687e+00 2.8073901670e+00 
47000 5.7983212034e+00 6.1509831654e-05 1.6208474687e+00 -2.8073901670e+00 1.6208474687e+00 2.8073901670e+00 
47100 5.7983212064e+00 6.1575528671e-05 1.6208474687e+00 -2.8073901670e+00 1.6208474687e+00 2.8073901670e+00 
47200 5.7983212094e+00 6.1652406740e-05 1.6208474687e+00 -2.8073901670e+00 1.6208474687e+00 2.8073901670e+00 
47300 5.7983212123e+00 6.1740398661e-05 1.6208474687e+00 -2.8073901670e+00 1.6208474687e+00 2.8073901670e+00 
47400 5.7983212152e+00 6.1839425037e-05 1.6208474687e+00 -2.8073901670e+00 1.6208474687e+00 2.8073901670e+00 
47500 5.7983212180e+00 6.1949394755e-05 1.6208474687e+00 -2.8073901670e+00 1.6208474687e+00 2.8073901670e+00 
47600 5.7983212208e+00 6.2070205478e-05 1.6208474687e+00 -2.8073901670e+00 1.6208474687e+00 2.8073901670e+00 
47700 5.7983212235e+00 6.2201744112e-05 1.6208474687e+00 -2.8073901670e+00 1.6208474687e+00 2.8073901670e+00 
47800 5.7983212262e+00 6.2343887297e-05 1.6208474687e+00 -2.8073901670e+00 1.6208474687e+00 2.8073901670e+00 
47900 5.7983212289e+00 6.2496501859e-05 1.6208474687e+00 -2.8073901670e+00 1.6208474687e+00 2.8073901670e+00 
48000 5.7983212315e+00 6.2659445292e-05 1.6208474687e+00 -2.8073901670e+00 1.6208474687e+00 2.8073901670e+00 
48100 5.7983212340e+00 6.2832566200e-05 1.6208474687e+00 -2.8073901670e+00 1.6208474687e+00 2.8073901670e+00 
48200 5.7983212365e+00 6.3015704765e-05 1.6208474687e+00 -2.8073901670e+00 1.6208474687e+00 2.8073901670e+00 
48300 5.7983212390e+00 6.3208693183e-05 1.6208474687e+00 -2.8073901670e+00 1.6208474687e+00 2.8073901670e+00 
48400 5.7983212414e+00 6.3411356110e-05 1.6208474687e+00 -2.8073901670e+00 1.6208474687e+00 2.8073901670e+00 
48500 5.7983212438e+00 6.3623511099e-05 1.6208474687e+00 -2.8073901670e+00 1.6208474687e+00 2.8073901670e+00 
48600 5.7983212462e+00 6.3844969017e-05 1.6208474687e+00 -2.8073901670e+00 1.6208474687e+00 2.8073901670e+00 
48700 5.7983212485e+00 6.4075534481e-05 1.6208474687e+00 -2.8073901670e+00 1.6208474687e+00 2.8073901670e+00 
48800 5.7983212508e+00 6.4315006260e-05 1.6208474687e+00 -2.8073901670e+00 1.6208474687e+00 2.8073901670e+00 
48900 5.7983212530e+00 6.4563177685e-05 1.6208474687e+00 -2.8073901670e+00 1.6208474687e+00 2.8073901670e+00 
49000 5.7983212552e+00 6.4819837051e-05 1.6208474687e+00 -2.8073901670e+00 1.6208474687e+00 2.8073901670e+00 
49100 5.7983212574e+00 6.5084768004e-05 1.6208474687e+00 -2.8073901670e+00 1.6208474687e+00 2.8073901670e+00 
49200 5.7983212595e+00 6.5357749933e-05 1.6208474687e+00 -2.8073901670e+00 1.6208474687e+00 2.8073901670e+00 
49300 5.7983212617e+00 6.5638558338e-05 1.6208474687e+00 -2.8073901670e+00 1.6208474687e+00 2.8073901670e+00 
49400 5.7983212637e+00 6.5926965198e-05 1.6208474687e+00 -2.8073901670e+00 1.6208474687e+00 2.8073901670e+00 
49500 5.7983212658e+00 6.6222739340e-05 1.6208474687e+00 -2.8073901670e+00 1.6208474687e+00 2.8073901670e+00 
49600 5.7983212678e+00 6.6525646785e-05 1.6208474687e+00 -2.8073901670e+00 1.6208474687e+00 2.8073901670e+00 
49700 5.7983212697e+00 6.6835451095e-05 1.6208474687e+00 -2.8073901670e+00 1.6208474687e+00 2.8073901670e+00 
49800 5.7983212717e+00 6.7151913701e-05 1.6208474687e+00 -2.8073901670e+00 1.6208474687e+00 2.8073901670e+00 
49900 5.7983212736e+00 6.7474794243e-05 1.6208474687e+00 -2.8073901670e+00 1.6208474687e+00 2.8073901670e+00 
50000 5.7983212755e+00 6.7803850879e-05 1.6208474687e+00 -2.8073901670e+00 1.6208474687e+00 2.8073901670e+00 
50100 5.7983212774e+00 6.8138840603e-05 1.6208474687e+00 -2.8073901670e+00 1.6208474687e+00 2.8073901670e+00 
50200 5.7983212792e+00 6.8479519536e-05 1.6208474687e+00 -2.8073901670e+00 1.6208474687e+00 2.8073901670e+00 
50300 5.7983212810e+00 6.8825643232e-05 1.6208474687e+00 -2.8073901670e+00 1.6208474687e+00 2.8073901670e+00 
50400 5.7983212828e+00 6.9176966956e-05 1.6208474687e+00 -2.8073901670e+00 1.6208474687e+00 2.8073901670e+00 
50500 5.7983212845e+00 6.9533245958e-05 1.6208474687e+00 -2.8073901670e+00 1.6208474687e+00 2.8073901670e+00 
50600 5.7983212862e+00 6.9894235748e-05 1.6208474687e+00 -2.8073901670e+00 1.6208474687e+00 2.8073901670e+00 
50700 5.7983212879e+00 7.0259692350e-05 1.6208474687e+00 -2.8073901670e+00 1.6208474687e+00 2.8073901670e+00 
50800 5.7983212896e+00 7.0629372553e-05 1.6208474687e+00 -2.8073901670e+00 1.6208474687e+00 2.8073901670e+00 
50900 5.7983212912e+00 7.1003034150e-05 1.6208474687e+00 -2.8073901670e+00 1.6208474687e+00 2.8073901670e+00 
51000 5.7983212927e+00 6.8738891350e-05 1.6208452784e+00 -2.8073863733e+00 1.6208452784e+00 2.8073863733e+00 
51100 5.7983212943e+00 6.9101008780e-05 1.6208452784e+00 -2.8073863733e+00 1.6208452784e+00 2.8073863733e+00 
51200 5.7983212958e+00 6.9466200521e-05 1.6208452784e+00 -2.8073863733e+00 1.6208452784e+00 2.8073863733e+00 
51300 5.7983212974e+00 6.9834262092e-05 1.6208452784e+00 -2.8073863733e+00 1.6208452784e+00 2.8073863733e+00 
51400 5.7983212989e+00 7.0204989824e-05 1.6208452784e+00 -2.8073863733e+00 1.6208452784e+00 2.8073863733e+00 
51500 5.7983213004e+00 7.0578181081e-05 1.6208452784e+00 -2.8073863733e+00 1.6208452784e+00 2.8073863733e+00 
51600 5.7983213019e+00 7.0953634463e-05 1.6208452784e+00 -2.8073863733e+00 1.6208452784e+00 2.8073863733e+00 
51700 5.7983213031e+00 6.8691436603e-05 1.6208430896e+00 -2.8073825822e+00 1.6208430896e+00 2.8073825822e+00 
51800 5.7983213046e+00 6.9052043155e-05 1.6208430896e+00 -2.8073825822e+00 1.6208430896e+00 2.8073825822e+00 
51900 5.7983213060e+00 6.9414128375e-05 1.6208430896e+00 -2.8073825822e+00 1.6208430896e+00 2.8073825822e+00 
52000 5.7983213073e+00 6.9777529142e-05 1.6208430896e+00 -2.8073825822e+00 1.6208430896e+00 2.8073825822e+00 
52100 5.7983213087e+00 7.0142083219e-05 1.6208430896e+00 -2.8073825822e+00 1.6208430896e+00 2.8073825822e+00 
52200 5.7983213100e+00 7.0507629433e-05 1.6208430896e+00 -2.8073825822e+00 1.6208430896e+00 2.8073825822e+00 
52300 5.7983213114e+00 7.0874007854e-05 1.6208430896e+00 -2.8073825822e+00 1.6208430896e+00 2.8073825822e+00 
52400 5.7983213125e+00 6.8604301922e-05 1.6208409032e+00 -2.8073787954e+00 1.6208409032e+00 2.8073787954e+00 
52500 5.7983213138e+00 6.8953118714e-05 1.6208409032e+00 -2.8073787954e+00 1.6208409032e+00 2.8073787954e+00 
52600 5.7983213150e+00 6.9302108633e-05 1.6208409032e+00 -2.8073787954e+00 1.6208409032e+00 2.8073787954e+00 
52700 5.7983213163e+00 6.9651149715e-05 1.6208409032e+00 -2.8073787954e+00 1.6208409032e+00 2.8073787954e+00 
52800 5.7983213175e+00 7.0000120743e-05 1.6208409032e+00 -2.8073787954e+00 1.6208409032e+00 2.8073787954e+00 
52900 5.7983213187e+00 7.0348901397e-05 1.6208409032e+00 -2.8073787954e+00 1.6208409032e+00 2.8073787954e+00 
53000 5.7983213199e+00 7.0697372414e-05 1.6208409032e+00 -2.8073787954e+00 1.6208409032e+00 2.8073787954e+00 
53100 5.7983213211e+00 7.1045415722e-05 1.6208409032e+00 -2.8073787954e+00 1.6208409032e+00 2.8073787954e+00 
53200 5.7983213220e+00 6.8749772685e-05 1.6208387116e+00 -2.8073749994e+00 1.6208387116e+00 2.8073749994e+00 
53300 5.7983213232e+00 6.9077814107e-05 1.6208387116e+00 -2.8073749994e+00 1.6208387116e+00 2.8073749994e+00 
53400 5.7983213243e+00 6.9404893322e-05 1.6208387116e+00 -2.8073749994e+00 1.6208387116e+00 2.8073749994e+00 
53500 5.7983213254e+00 6.9730929810e-05 1.6208387116e+00 -2.8073749994e+00 1.6208387116e+00 2.8073749994e+00 
53600 5.7983213264e+00 7.0055843600e-05 1.6208387116e+00 -2.8073749994e+00 1.6208387116e+00 2.8073749994e+00 
53700 5.7983213275e+00 7.0379555393e-05 1.6208387116e+00 -2.8073749994e+00 1.6208387116e+00 2.8073749994e+00 
53800 5.7983213286e+00 7.0701986688e-05 1.6208387116e+00 -2.8073749994e+00 1.6208387116e+00 2.8073749994e+00 
53900 5.7983213296e+00 7.1023059902e-05 1.6208387116e+00 -2.8073749994e+00 1.6208387116e+00 2.8073749994e+00 
54000 5.7983213304e+00 6.8700381151e-05 1.6208365207e+00 -2.8073712046e+00 1.6208365207e+00 2.8073712046e+00 
54100 5.7983213314e+00 6.8999717597e-05 1.6208365207e+00 -2.8073712046e+00 1.6208365207e+00 2.8073712046e+00 
54200 5.7983213324e+00 6.9297281089e-05 1.6208365207e+00 -2.8073712046e+00 1.6208365207e+00 2.8073712046e+00 
54300 5.7983213334e+00 6.9593030217e-05 1.6208365207e+00 -2.8073712046e+00 1.6208365207e+00 2.8073712046e+00 
54400 5.7983213343e+00 6.9886923722e-05 1.6208365207e+00 -2.8073712046e+00 1.6208365207e+00 2.8073712046e+00 
54500 5.7983213353e+00 7.0178920597e-05 1.6208365207e+00 -2.8073712046e+00 1.6208365207e+00 2.8073712046e+00 
54600 5.7983213362e+00 7.0468980198e-05 1.6208365207e+00 -2.8073712046e+00 1.6208365207e+00 2.8073712046e+00 
54700 5.7983213371e+00 7.0757062333e-05 1.6208365207e+00 -2.8073712046e+00 1.6208365207e+00 2.8073712046e+00 
54800 5.7983213378e+00 6.8410699001e-05 1.6208343380e+00 -2.8073674240e+00 1.6208343380e+00 2.8073674240e+00 
54900 5.7983213387e+00 6.8675986012e-05 1.6208343380e+00 -2.8073674240e+00 1.6208343380e+00 2.8073674240e+00 
55000 5.7983213396e+00 6.8938990667e-05 1.6208343380e+00 -2.8073674240e+00 1.6208343380e+00 2.8073674240e+00 
55100 5.7983213404e+00 6.9199706813e-05 1.6208343380e+00 -2.8073674240e+00 1.6208343380e+00 2.8073674240e+00 
55200 5.7983213413e+00 6.9458127903e-05 1.6208343380e+00 -2.8073674240e+00 1.6208343380e+00 2.8073674240e+00 
55300 5.7983213421e+00 6.9714247098e-05 1.6208343380e+00 -2.8073674240e+00 1.6208343380e+00 2.8073674240e+00 
55400 5.7983213429e+00 6.9968057341e-05 1.6208343380e+00 -2.8073674240e+00 1.6208343380e+00 2.8073674240e+00 
55500 5.7983213437e+00 7.0219551450e-05 1.6208343380e+00 -2.8073674240e+00 1.6208343380e+00 2.8073674240e+00 
55600 5.7983213445e+00 7.0468722200e-05 1.6208343380e+00 -2.8073674240e+00 1.6208343380e+00 2.8073674240e+00 
55700 5.7983213453e+00 7.0715562390e-05 1.6208343380e+00 -2.8073674240e+00 1.6208343380e+00 2.8073674240e+00 
55800 5.7983213459e+00 6.8329174549e-05 1.6208321565e+00 -2.8073636456e+00 1.6208321565e+00 2.8073636456e+00 
55900 5.7983213467e+00 6.8552621323e-05 1.6208321565e+00 -2.8073636456e+00 1.6208321565e+00 2.8073636456e+00 
56000 5.7983213474e+00 6.8773529021e-05 1.6208321565e+00 -2.8073636456e+00 1.6208321565e+00 2.8073636456e+00 
56100 5.7983213482e+00 6.8991922563e-05 1.6208321565e+00 -2.8073636456e+00 1.6208321565e+00 2.8073636456e+00 
56200 5.7983213489e+00 6.9207825962e-05 1.6208321565e+00 -2.8073636456e+00 1.6208321565e+00 2.8073636456e+00 
56300 5.7983213496e+00 6.9421262393e-05 1.6208321565e+00 -2.8073636456e+00 1.6208321565e+00 2.8073636456e+00 
56400 5.7983213503e+00 6.9632254270e-05 1.6208321565e+00 -2.8073636456e+00 1.6208321565e+00 2.8073636456e+00 
56500 5.7983213510e+00 6.9840823319e-05 1.6208321565e+00 -2.8073636456e+00 1.6208321565e+00 2.8073636456e+00 
56600 5.7983213517e+00 7.0046990640e-05 1.6208321565e+00 -2.8073636456e+00 1.6208321565e+00 2.8073636456e+00 
56700 5.7983213524e+00 7.0250776774e-05 1.6208321565e+00 -2.8073636456e+00 1.6208321565e+00 2.8073636456e+00 
56800 5.7983213530e+00 7.0452201762e-05 1.6208321565e+00 -2.8073636456e+00 1.6208321565e+00 2.8073636456e+00 
56900 5.7983213537e+00 7.0651285207e-05 1.6208321565e+00 -2.8073636456e+00 1.6208321565e+00 2.8073636456e+00 
57000 5.7983213543e+00 7.0848046322e-05 1.6208321565e+00 -2.8073636456e+00 1.6208321565e+00 2.8073636456e+00 
57100 5.7983213548e+00 6.8406680336e-05 1.6208299710e+00 -2.8073598601e+00 1.6208299710e+00 2.8073598601e+00 
57200 5.7983213554e+00 6.8580106571e-05 1.6208299710e+00 -2.8073598601e+00 1.6208299710e+00 2.8073598601e+00 
57300 5.7983213560e+00 6.8751078171e-05 1.6208299710e+00 -2.8073598601e+00 1.6208299710e+00 2.8073598601e+00 
57400 5.7983213566e+00 6.8919644655e-05 1.6208299710e+00 -2.8073598601e+00 1.6208299710e+00 2.8073598601e+00 
57500 5.7983213572e+00 6.9085854126e-05 1.6208299710e+00 -2.8073598601e+00 1.6208299710e+00 2.8073598601e+00 
57600 5.7983213578e+00 6.9249753312e-05 1.6208299710e+00 -2.8073598601e+00 1.6208299710e+00 2.8073598601e+00 
57700 5.7983213584e+00 6.9411387646e-05 1.6208299710e+00 -2.8073598601e+00 1.6208299710e+00 2.8073598601e+00 
57800 5.7983213590e+00 6.9570801307e-05 1.6208299710e+00 -2.8073598601e+00 1.6208299710e+00 2.8073598601e+00 
57900 5.7983213595e+00 6.9728037282e-05 1.6208299710e+00 -2.8073598601e+00 1.6208299710e+00 2.8073598601e+00 
58000 5.7983213601e+00 6.9883137419e-05 1.6208299710e+00 -2.8073598601e+00 1.6208299710e+00 2.8073598601e+00 
58100 5.7983213606e+00 7.0036142470e-05 1.6208299710e+00 -2.8073598601e+00 1.6208299710e+00 2.8073598601e+00 
58200 5.7983213612e+00 7.0187092150e-05 1.6208299710e+00 -2.8073598601e+00 1.6208299710e+00 2.8073598601e+00 
58300 5.7983213617e+00 7.0336025173e-05 1.6208299710e+00 -2.8073598601e+00 1.6208299710e+00 2.8073598601e+00 
58400 5.7983213622e+00 7.0482979301e-05 1.6208299710e+00 -2.8073598601e+00 1.6208299710e+00 2.8073598601e+00 
58500 5.7983213628e+00 7.0627991388e-05 1.6208299710e+00 -2.8073598601e+00 1.6208299710e+00 2.8073598601e+00 
58600 5.7983213633e+00 7.0771097411e-05 1.6208299710e+00 -2.8073598601e+00 1.6208299710e+00 2.8073598601e+00 
58700 5.7983213636e+00 6.8279368827e-05 1.6208277878e+00 -2.8073560788e+00 1.6208277878e+00 2.8073560788e+00 
58800 5.7983213641e+00 6.8400040821e-05 1.6208277878e+00 -2.8073560788e+00 1.6208277878e+00 2.8073560788e+00 
58900 5.7983213646e+00 6.8518721952e-05 1.6208277878e+00 -2.8073560788e+00 1.6208277878e+00 2.8073560788e+00 
59000 5.7983213650e+00 6.8635476405e-05 1.6208277878e+00 -2.8073560788e+00 1.6208277878e+00 2.8073560788e+00 
59100 5.7983213655e+00 6.8750366403e-05 1.6208277878e+00 -2.8073560788e+00 1.6208277878e+00 2.8073560788e+00 
59200 5.7983213660e+00 6.8863452256e-05 1.6208277878e+00 -2.8073560788e+00 1.6208277878e+00 2.8073560788e+00 
59300 5.7983213664e+00 6.8974792412e-05 1.6208277878e+00 -2.8073560788e+00 1.6208277878e+00 2.8073560788e+00 
59400 5.7983213669e+00 6.9084443507e-05 1.6208277878e+00 -2.8073560788e+00 1.6208277878e+00 2.8073560788e+00 
59500 5.7983213673e+00 6.9192460415e-05 1.6208277878e+00 -2.8073560788e+00 1.6208277878e+00 2.8073560788e+00 
59600 5.7983213678e+00 6.9298896299e-05 1.6208277878e+00 -2.8073560788e+00 1.6208277878e+00 2.8073560788e+00 
59700 5.7983213682e+00 6.9403802650e-05 1.6208277878e+00 -2.8073560788e+00 1.6208277878e+00 2.8073560788e+00 
59800 5.7983213687e+00 6.9507229342e-05 1.6208277878e+00 -2.8073560788e+00 1.6208277878e+00 2.8073560788e+00 
59900 5.7983213691e+00 6.9609224667e-05 1.6208277878e+00 -2.8073560788e+00 1.6208277878e+00 2.8073560788e+00 
60000 5.7983213695e+00 6.9709835385e-05 1.6208277878e+00 -2.8073560788e+00 1.6208277878e+00 2.8073560788e+00 
60100 5.7983213699e+00 6.9809106760e-05 1.6208277878e+00 -2.8073560788e+00 1.6208277878e+00 2.8073560788e+00 
60200 5.7983213703e+00 6.9907082607e-05 1.6208277878e+00 -2.8073560788e+00 1.6208277878e+00 2.8073560788e+00 
60300 5.7983213707e+00 7.0003805327e-05 1.6208277878e+00 -2.8073560788e+00 1.6208277878e+00 2.8073560788e+00 
60400 5.7983213711e+00 7.0099315944e-05 1.6208277878e+00 -2.8073560788e+00 1.6208277878e+00 2.8073560788e+00 
60500 5.7983213715e+00 7.0193654150e-05 1.6208277878e+00 -2.8073560788e+00 1.6208277878e+00 2.8073560788e+00 
60600 5.7983213719e+00 7.0286858334e-05 1.6208277878e+00 -2.8073560788e+00 1.6208277878e+00 2.8073560788e+00 
60700 5.7983213722e+00 7.0378965617e-05 1.6208277878e+00 -2.8073560788e+00 1.6208277878e+00 2.8073560788e+00 
60800 5.7983213726e+00 7.0470011892e-05 1.6208277878e+00 -2.8073560788e+00 1.6208277878e+00 2.8073560788e+00 
60900 5.7983213730e+00 7.0560031854e-05 1.6208277878e+00 -2.8073560788e+00 1.6208277878e+00 2.8073560788e+00 
61000 5.7983213733e+00 7.0649059033e-05 1.6208277878e+00 -2.8073560788e+00 1.6208277878e+00 2.8073560788e+00 
61100 5.7983213737e+00 7.0737125823e-05 1.6208277878e+00 -2.8073560788e+00 1.6208277878e+00 2.8073560788e+00 
61200 5.7983213739e+00 6.8192564506e-05 1.6208256057e+00 -2.8073522992e+00 1.6208256057e+00 2.8073522992e+00 
61300 5.7983213742e+00 6.8260085311e-05 1.6208256057e+00 -2.8073522992e+00 1.6208256057e+00 2.8073522992e+00 
61400 5.7983213745e+00 6.8326548664e-05 1.6208256057e+00 -2.8073522992e+00 1.6208256057e+00 2.8073522992e+00 
61500 5.7983213749e+00 6.8392014027e-05 1.6208256057e+00 -2.8073522992e+00 1.6208256057e+00 2.8073522992e+00 
61600 5.7983213752e+00 6.8456538617e-05 1.6208256057e+00 -2.8073522992e+00 1.6208256057e+00 2.8073522992e+00 
61700 5.7983213755e+00 6.8520177433e-05 1.6208256057e+00 -2.8073522992e+00 1.6208256057e+00 2.8073522992e+00 
61800 5.7983213759e+00 6.8582983326e-05 1.6208256057e+00 -2.8073522992e+00 1.6208256057e+00 2.8073522992e+00 
61900 5.7983213762e+00 6.8645007034e-05 1.6208256057e+00 -2.8073522992e+00 1.6208256057e+00 2.8073522992e+00 
62000 5.7983213765e+00 6.8706297240e-05 1.6208256057e+00 -2.8073522992e+00 1.6208256057e+00 2.8073522992e+00 
62100 5.7983213768e+00 6.8766900615e-05 1.6208256057e+00 -2.8073522992e+00 1.6208256057e+00 2.8073522992e+00 
62200 5.7983213771e+00 6.8826861865e-05 1.6208256057e+00 -2.8073522992e+00 1.6208256057e+00 2.8073522992e+00 
62300 5.7983213774e+00 6.8886223786e-05 1.6208256057e+00 -2.8073522992e+00 1.6208256057e+00 2.8073522992e+00 
62400 5.7983213777e+00 6.8945027301e-05 1.6208256057e+00 -2.8073522992e+00 1.6208256057e+00 2.8073522992e+00 
62500 5.7983213780e+00 6.9003311510e-05 1.6208256057e+00 -2.8073522992e+00 1.6208256057e+00 2.8073522992e+00 
62600 5.7983213783e+00 6.9061113743e-05 1.6208256057e+00 -2.8073522992e+00 1.6208256057e+00 2.8073522992e+00 
62700 5.7983213786e+00 6.9118469591e-05 1.6208256057e+00 -2.8073522992e+00 1.6208256057e+00 2.8073522992e+00 
62800 5.7983213788e+00 6.9175412963e-05 1.6208256057e+00 -2.8073522992e+00 1.6208256057e+00 2.8073522992e+00 
62900 5.7983213791e+00 6.9231976128e-05 1.6208256057e+00 -2.8073522992e+00 1.6208256057e+00 2.8073522992e+00 
63000 5.7983213794e+00 6.9288189747e-05 1.6208256057e+00 -2.8073522992e+00 1.6208256057e+00 2.8073522992e+00 
63100 5.7983213796e+00 6.9344082936e-05 1.6208256057e+00 -2.8073522992e+00 1.6208256057e+00 2.8073522992e+00 
63200 5.7983213799e+00 6.9399683290e-05 1.6208256057e+00 -2.8073522992e+00 1.6208256057e+00 2.8073522992e+00 
63300 5.7983213802e+00 6.9455016937e-05 1.6208256057e+00 -2.8073522992e+00 1.6208256057e+00 2.8073522992e+00 
63400 5.7983213804e+00 6.9510108573e-05 1.6208256057e+00 -2.8073522992e+00 1.6208256057e+00 2.8073522992e+00 
63500 5.7983213807e+00 6.9564981505e-05 1.6208256057e+00 -2.8073522992e+00 1.6208256057e+00 2.8073522992e+00 
63600 5.7983213809e+00 6.9619657689e-05 1.6208256057e+00 -2.8073522992e+00 1.6208256057e+00 2.8073522992e+00 
63700 5.7983213812e+00 6.9674157774e-05 1.6208256057e+00 -2.8073522992e+00 1.6208256057e+00 2.8073522992e+00 
63800 5.7983213814e+00 6.9728501138e-05 1.6208256057e+00 -2.8073522992e+00 1.6208256057e+00 2.8073522992e+00 
63900 5.7983213816e+00 6.9782705924e-05 1.6208256057e+00 -2.8073522992e+00 1.6208256057e+00 2.8073522992e+00 
64000 5.7983213819e+00 6.9836789082e-05 1.6208256057e+00 -2.8073522992e+00 1.6208256057e+00 2.8073522992e+00 
64100 5.7983213821e+00 6.9890766405e-05 1.6208256057e+00 -2.8073522992e+00 1.6208256057e+00 2.8073522992e+00 
64200 5.7983213823e+00 6.9944652564e-05 1.6208256057e+00 -2.8073522992e+00 1.6208256057e+00 2.8073522992e+00 
64300 5.7983213826e+00 6.9998461146e-05 1.6208256057e+00 -2.8073522992e+00 1.6208256057e+00 2.8073522992e+00 
64400 5.7983213828e+00 7.0052204685e-05 1.6208256057e+00 -2.8073522992e+00 1.6208256057e+00 2.8073522992e+00 
64500 5.7983213830e+00 7.0105894706e-05 1.6208256057e+00 -2.8073522992e+00 1.6208256057e+00 2.8073522992e+00 
64600 5.7983213832e+00 7.0159541747e-05 1.6208256057e+00 -2.8073522992e+00 1.6208256057e+00 2.8073522992e+00 
64700 5.7983213834e+00 7.0213155404e-05 1.6208256057e+00 -2.8073522992e+00 1.6208256057e+00 2.8073522992e+00 
64800 5.7983213836e+00 7.0266744357e-05 1.6208256057e+00 -2.8073522992e+00 1.6208256057e+00 2.8073522992e+00 
64900 5.7983213839e+00 7.0320316403e-05 1.6208256057e+00 -2.8073522992e+00 1.6208256057e+00 2.8073522992e+00 
65000 5.7983213841e+00 7.0373878493e-05 1.6208256057e+00 -2.8073522992e+00 1.6208256057e+00 2.8073522992e+00 
65100 5.7983213843e+00 7.0427436754e-05 1.6208256057e+00 -2.8073522992e+00 1.6208256057e+00 2.8073522992e+00 
65200 5.7983213845e+00 7.0480996530e-05 1.6208256057e+00 -2.8073522992e+00 1.6208256057e+00 2.8073522992e+00 
65300 5.7983213846e+00 7.0534562405e-05 1.6208256057e+00 -2.8073522992e+00 1.6208256057e+00 2.8073522992e+00 
65400 5.7983213848e+00 7.0588138235e-05 1.6208256057e+00 -2.8073522992e+00 1.6208256057e+00 2.8073522992e+00 
65500 5.7983213850e+00 7.0641727176e-05 1.6208256057e+00 -2.8073522992e+00 1.6208256057e+00 2.8073522992e+00 
65600 5.7983213852e+00 7.0695331716e-05 1.6208256057e+00 -2.8073522992e+00 1.6208256057e+00 2.8073522992e+00 
65700 5.7983213854e+00 7.0748953694e-05 1.6208256057e+00 -2.8073522992e+00 1.6208256057e+00 2.8073522992e+00 
65800 5.7983213854e+00 6.8170459549e-05 1.6208234232e+00 -2.8073485190e+00 1.6208234232e+00 2.8073485190e+00 
65900 5.7983213856e+00 6.8205397745e-05 1.6208234232e+00 -2.8073485190e+00 1.6208234232e+00 2.8073485190e+00 
66000 5.7983213858e+00 6.8240167603e-05 1.6208234232e+00 -2.8073485190e+00 1.6208234232e+00 2.8073485190e+00 
66100 5.7983213859e+00 6.8274799972e-05 1.6208234232e+00 -2.8073485190e+00 1.6208234232e+00 2.8073485190e+00 
66200 5.7983213861e+00 6.8309323926e-05 1.6208234232e+00 -2.8073485190e+00 1.6208234232e+00 2.8073485190e+00 
66300 5.7983213863e+00 6.8343766806e-05 1.6208234232e+00 -2.8073485190e+00 1.6208234232e+00 2.8073485190e+00 
66400 5.7983213864e+00 6.8378154270e-05 1.6208234232e+00 -2.8073485190e+00 1.6208234232e+00 2.8073485190e+00 
66500 5.7983213866e+00 6.8412510344e-05 1.6208234232e+00 -2.8073485190e+00 1.6208234232e+00 2.8073485190e+00 
66600 5.7983213868e+00 6.8446857466e-05 1.6208234232e+00 -2.8073485190e+00 1.6208234232e+00 2.8073485190e+00 
66700 5.7983213869e+00 6.8481216532e-05 1.6208234232e+00 -2.8073485190e+00 1.6208234232e+00 2.8073485190e+00 
66800 5.7983213871e+00 6.8515606947e-05 1.6208234232e+00 -2.8073485190e+00 1.6208234232e+00 2.8073485190e+00 
66900 5.7983213872e+00 6.8550046668e-05 1.6208234232e+00 -2.8073485190e+00 1.6208234232e+00 2.8073485190e+00 
67000 5.7983213874e+00 6.8584552254e-05 1.6208234232e+00 -2.8073485190e+00 1.6208234232e+00 2.8073485190e+00 
67100 5.7983213875e+00 6.8619138905e-05 1.6208234232e+00 -2.8073485190e+00 1.6208234232e+00 2.8073485190e+00 
67200 5.7983213877e+00 6.8653820514e-05 1.6208234232e+00 -2.8073485190e+00 1.6208234232e+00 2.8073485190e+00 
67300 5.7983213878e+00 6.8688609707e-05 1.6208234232e+00 -2.8073485190e+00 1.6208234232e+00 2.8073485190e+00 
67400 5.7983213880e+00 6.8723517893e-05 1.6208234232e+00 -2.8073485190e+00 1.6208234232e+00 2.8073485190e+00 
67500 5.7983213881e+00 6.8758555298e-05 1.6208234232e+00 -2.8073485190e+00 1.6208234232e+00 2.8073485190e+00 
67600 5.7983213883e+00 6.8793731017e-05 1.6208234232e+00 -2.8073485190e+00 1.6208234232e+00 2.8073485190e+00 
67700 5.7983213884e+00 6.8829053050e-05 1.6208234232e+00 -2.8073485190e+00 1.6208234232e+00 2.8073485190e+00 
67800 5.7983213885e+00 6.8864528353e-05 1.6208234232e+00 -2.8073485190e+00 1.6208234232e+00 2.8073485190e+00 
67900 5.7983213887e+00 6.8900162865e-05 1.6208234232e+00 -2.8073485190e+00 1.6208234232e+00 2.8073485190e+00 
68000 5.7983213888e+00 6.8935961565e-05 1.6208234232e+00 -2.8073485190e+00 1.6208234232e+00 2.8073485190e+00 
68100 5.7983213890e+00 6.8971928496e-05 1.6208234232e+00 -2.8073485190e+00 1.6208234232e+00 2.8073485190e+00 
68200 5.7983213891e+00 6.9008066815e-05 1.6208234232e+00 -2.8073485190e+00 1.6208234232e+00 2.8073485190e+00 
68300 5.7983213892e+00 6.9044378830e-05 1.6208234232e+00 -2.8073485190e+00 1.6208234232e+00 2.8073485190e+00 
68400 5.7983213893e+00 6.9080866034e-05 1.6208234232e+00 -2.8073485190e+00 1.6208234232e+00 2.8073485190e+00 
68500 5.7983213895e+00 6.9117529143e-05 1.6208234232e+00 -2.8073485190e+00 1.6208234232e+00 2.8073485190e+00 
68600 5.7983213896e+00 6.9154368137e-05 1.6208234232e+00 -2.8073485190e+00 1.6208234232e+00 2.8073485190e+00 
68700 5.7983213897e+00 6.9191382292e-05 1.6208234232e+00 -2.8073485190e+00 1.6208234232e+00 2.8073485190e+00 
68800 5.7983213898e+00 6.9228570213e-05 1.6208234232e+00 -2.8073485190e+00 1.6208234232e+00 2.8073485190e+00 
68900 5.7983213899e+00 6.9265929872e-05 1.6208234232e+00 -2.8073485190e+00 1.6208234232e+00 2.8073485190e+00 
69000 5.7983213901e+00 6.9303458640e-05 1.6208234232e+00 -2.8073485190e+00 1.6208234232e+00 2.8073485190e+00 
69100 5.7983213902e+00 6.9341153321e-05 1.6208234232e+00 -2.8073485190e+00 1.6208234232e+00 2.8073485190e+00 
69200 5.7983213903e+00 6.9379010180e-05 1.6208234232e+00 -2.8073485190e+00 1.6208234232e+00 2.8073485190e+00 
69300 5.7983213904e+00 6.9417024977e-05 1.6208234232e+00 -2.8073485190e+00 1.6208234232e+00 2.8073485190e+00 
69400 5.7983213905e+00 6.9455193002e-05 1.6208234232e+00 -2.8073485190e+00 1.6208234232e+00 2.8073485190e+00 
69500 5.7983213906e+00 6.9493509095e-05 1.6208234232e+00 -2.8073485190e+00 1.6208234232e+00 2.8073485190e+00 
69600 5.7983213907e+00 6.9531967680e-05 1.6208234232e+00 -2.8073485190e+00 1.6208234232e+00 2.8073485190e+00 
69700 5.7983213908e+00 6.9570562797e-05 1.6208234232e+00 -2.8073485190e+00 1.6208234232e+00 2.8073485190e+00 
69800 5.7983213909e+00 6.9609288121e-05 1.6208234232e+00 -2.8073485190e+00 1.6208234232e+00 2.8073485190e+00 
69900 5.7983213910e+00 6.9648136996e-05 1.6208234232e+00 -2.8073485190e+00 1.6208234232e+00 2.8073485190e+00 
70000 5.7983213911e+00 6.9687102456e-05 1.6208234232e+00 -2.8073485190e+00 1.6208234232e+00 2.8073485190e+00 
70100 5.7983213912e+00 6.9726177254e-05 1.6208234232e+00 -2.8073485190e+00 1.6208234232e+00 2.8073485190e+00 
70200 5.7983213913e+00 6.9765353882e-05 1.6208234232e+00 -2.8073485190e+00 1.6208234232e+00 2.8073485190e+00 
70300 5.7983213914e+00 6.9804624599e-05 1.6208234232e+00 -2.8073485190e+00 1.6208234232e+00 2.8073485190e+00 
70400 5.7983213915e+00 6.9843981448e-05 1.6208234232e+00 -2.8073485190e+00 1.6208234232e+00 2.8073485190e+00 
70500 5.7983213916e+00 6.9883416287e-05 1.6208234232e+00 -2.8073485190e+00 1.6208234232e+00 2.8073485190e+00 
70600 5.7983213917e+00 6.9922920804e-05 1.6208234232e+00 -2.8073485190e+00 1.6208234232e+00 2.8073485190e+00 
70700 5.7983213918e+00 6.9962486535e-05 1.6208234232e+00 -2.8073485190e+00 1.6208234232e+00 2.8073485190e+00 
70800 5.7983213919e+00 7.0002104892e-05 1.6208234232e+00 -2.8073485190e+00 1.6208234232e+00 2.8073485190e+00 
70900 5.7983213920e+00 7.0041767177e-05 1.6208234232e+00 -2.8073485190e+00 1.6208234232e+00 2.8073485190e+00 
71000 5.7983213921e+00 7.0081464603e-05 1.6208234232e+00 -2.8073485190e+00 1.6208234232e+00 2.8073485190e+00 
71100 5.7983213922e+00 7.0121188305e-05 1.6208234232e+00 -2.8073485190e+00 1.6208234232e+00 2.8073485190e+00 
71200 5.7983213922e+00 7.0160929370e-05 1.6208234232e+00 -2.8073485190e+00 1.6208234232e+00 2.8073485190e+00 
71300 5.7983213923e+00 7.0200678842e-05 1.6208234232e+00 -2.8073485190e+00 1.6208234232e+00 2.8073485190e+00 
71400 5.7983213924e+00 7.0240427743e-05 1.6208234232e+00 -2.8073485190e+00 1.6208234232e+00 2.8073485190e+00 
71500 5.7983213925e+00 7.0280167086e-05 1.6208234232e+00 -2.8073485190e+00 1.6208234232e+00 2.8073485190e+00 
71600 5.7983213926e+00 7.0319887894e-05 1.6208234232e+00 -2.8073485190e+00 1.6208234232e+00 2.8073485190e+00 
71700 5.7983213927e+00 7.0359581206e-05 1.6208234232e+00 -2.8073485190e+00 1.6208234232e+00 2.8073485190e+00 
71800 5.7983213927e+00 7.0399238099e-05 1.6208234232e+00 -2.8073485190e+00 1.6208234232e+00 2.8073485190e+00 
71900 5.7983213928e+00 7.0438849693e-05 1.6208234232e+00 -2.8073485190e+00 1.6208234232e+00 2.8073485190e+00 
72000 5.7983213929e+00 7.0478407170e-05 1.6208234232e+00 -2.8073485190e+00 1.6208234232e+00 2.8073485190e+00 
72100 5.7983213930e+00 7.0517901780e-05 1.6208234232e+00 -2.8073485190e+00 1.6208234232e+00 2.8073485190e+00 
72200 5.7983213930e+00 7.0557324853e-05 1.6208234232e+00 -2.8073485190e+00 1.6208234232e+00 2.8073485190e+00 
72300 5.7983213931e+00 7.0596667813e-05 1.6208234232e+00 -2.8073485190e+00 1.6208234232e+00 2.8073485190e+00 
72400 5.7983213932e+00 7.0635922184e-05 1.6208234232e+00 -2.8073485190e+00 1.6208234232e+00 2.8073485190e+00 
72500 5.7983213933e+00 7.0675079597e-05 1.6208234232e+00 -2.8073485190e+00 1.6208234232e+00 2.8073485190e+00 
72600 5.7983213933e+00 7.0714131807e-05 1.6208234232e+00 -2.8073485190e+00 1.6208234232e+00 2.8073485190e+00 
72700 5.7983213932e+00 6.8122229919e-05 1.6208212417e+00 -2.8073447407e+00 1.6208212417e+00 2.8073447407e+00 
72800 5.7983213933e+00 6.8142334453e-05 1.6208212417e+00 -2.8073447407e+00 1.6208212417e+00 2.8073447407e+00 
72900 5.7983213934e+00 6.8162122258e-05 1.6208212417e+00 -2.8073447407e+00 1.6208212417e+00 2.8073447407e+00 
73000 5.7983213934e+00 6.8181616933e-05 1.6208212417e+00 -2.8073447407e+00 1.6208212417e+00 2.8073447407e+00 
73100 5.7983213935e+00 6.8200840968e-05 1.6208212417e+00 -2.8073447407e+00 1.6208212417e+00 2.8073447407e+00 
73200 5.7983213936e+00 6.8219815774e-05 1.6208212417e+00 -2.8073447407e+00 1.6208212417e+00 2.8073447407e+00 
73300 5.7983213936e+00 6.8238561704e-05 1.6208212417e+00 -2.8073447407e+00 1.6208212417e+00 2.8073447407e+00 
73400 5.7983213937e+00 6.8257098096e-05 1.6208212417e+00 -2.8073447407e+00 1.6208212417e+00 2.8073447407e+00 
73500 5.7983213937e+00 6.8275443290e-05 1.6208212417e+00 -2.8073447407e+00 1.6208212417e+00 2.8073447407e+00 
73600 5.7983213938e+00 6.8293614660e-05 1.6208212417e+00 -2.8073447407e+00 1.6208212417e+00 2.8073447407e+00 
73700 5.7983213939e+00 6.8311628649e-05 1.6208212417e+00 -2.8073447407e+00 1.6208212417e+00 2.8073447407e+00 
73800 5.7983213939e+00 6.8329500788e-05 1.6208212417e+00 -2.8073447407e+00 1.6208212417e+00 2.8073447407e+00 
73900 5.7983213940e+00 6.8347245730e-05 1.6208212417e+00 -2.8073447407e+00 1.6208212417e+00 2.8073447407e+00 
74000 5.7983213940e+00 6.8364877277e-05 1.6208212417e+00 -2.8073447407e+00 1.6208212417e+00 2.8073447407e+00 
74100 5.7983213941e+00 6.8382408404e-05 1.6208212417e+00 -2.8073447407e+00 1.6208212417e+00 2.8073447407e+00 
74200 5.7983213942e+00 6.8399851293e-05 1.6208212417e+00 -2.8073447407e+00 1.6208212417e+00 2.8073447407e+00 
74300 5.7983213942e+00 6.8417217353e-05 1.6208212417e+00 -2.8073447407e+00 1.6208212417e+00 2.8073447407e+00 
74400 5.7983213943e+00 6.8434517253e-05 1.6208212417e+00 -2.8073447407e+00 1.6208212417e+00 2.8073447407e+00 
74500 5.7983213943e+00 6.8451760940e-05 1.6208212417e+00 -2.8073447407e+00 1.6208212417e+00 2.8073447407e+00 
74600 5.7983213944e+00 6.8468957672e-05 1.6208212417e+00 -2.8073447407e+00 1.6208212417e+00 2.8073447407e+00 
74700 5.7983213944e+00 6.8486116039e-05 1.6208212417e+00 -2.8073447407e+00 1.6208212417e+00 2.8073447407e+00 
74800 5.7983213945e+00 6.8503243993e-05 1.6208212417e+00 -2.8073447407e+00 1.6208212417e+00 2.8073447407e+00 
74900 5.7983213945e+00 6.8520348863e-05 1.6208212417e+00 -2.8073447407e+00 1.6208212417e+00 2.8073447407e+00 
75000 5.7983213946e+00 6.8537437391e-05 1.6208212417e+00 -2.8073447407e+00 1.6208212417e+00 2.8073447407e+00 
75100 5.7983213946e+00 6.8554515745e-05 1.6208212417e+00 -2.8073447407e+00 1.6208212417e+00 2.8073447407e+00 
75200 5.7983213947e+00 6.8571589549e-05 1.6208212417e+00 -2.8073447407e+00 1.6208212417e+00 2.8073447407e+00 
75300 5.7983213947e+00 6.8588663903e-05 1.6208212417e+00 -2.8073447407e+00 1.6208212417e+00 2.8073447407e+00 
75400 5.7983213948e+00 6.8600277144e-05 1.6208212417e+00 -2.8073447407e+00 1.6208212417e+00 2.8073447407e+00 
75400 5.7983213948e+00 6.8600277144e-05 1.6208212417e+00 -2.8073447407e+00 1.6208212417e+00 2.8073447407e+00 
