# step Hamiltonian StressXX CellTensor1 CellTensor2 CellTensor3 CellTensor4 
0 7.3908669013e+00 -7.1835280838e-11 1.3731072612e+00 -2.3782915406e+00 1.3731072612e+00 2.3782915406e+00 
100 7.3882237242e+00 2.3796056513e-10 1.3731072612e+00 -2.3782915406e+00 1.3731072612e+00 2.3782915406e+00 
200 7.3857274406e+00 4.4797255186e-10 1.3731072612e+00 -2.3782915406e+00 1.3731072612e+00 2.3782915406e+00 
300 7.3833698868e+00 5.8282461488e-10 1.3731072612e+00 -2.3782915406e+00 1.3731072612e+00 2.3782915406e+00 
400 7.3811433531e+00 6.6153219178e-10 1.3731072612e+00 -2.3782915406e+00 1.3731072612e+00 2.3782915406e+00 
500 7.3790405581e+00 6.9873799782e-10 1.3731072612e+00 -2.3782915406e+00 1.3731072612e+00 2.3782915406e+00 
600 7.3770546251e+00 7.0567939825e-10 1.3731072612e+00 -2.3782915406e+00 1.3731072612e+00 2.3782915406e+00 
700 7.3751790594e+00 6.9094529680e-10 1.3731072612e+00 -2.3782915406e+00 1.3731072612e+00 2.3782915406e+00 
800 7.3734077276e+00 6.6106799742e-10 1.3731072612e+00 -2.3782915406e+00 1.3731072612e+00 2.3782915406e+00 
900 7.3717348368e+00 6.2098571173e-10 1.3731072612e+00 -2.3782915406e+00 1.3731072612e+00 2.3782915406e+00 
1000 7.3701549162e+00 5.7440370383e-10 1.3731072612e+00 -2.3782915406e+00 1.3731072612e+00 2.3782915406e+00 
1100 7.3686627990e+00 5.2407603345e-10 1.3731072612e+00 -2.3782915406e+00 1.3731072612e+00 2.3782915406e+00 
1200 7.3672536057e+00 4.7202512535e-10 1.3731072612e+00 -2.3782915406e+00 1.3731072612e+00 2.3782915406e+00 
1300 7.3659227276e+00 4.1971267730e-10 1.3731072612e+00 -2.3782915406e+00 1.3731072612e+00 2.3782915406e+00 
1400 7.3646658126e+00 3.6817250142e-10 1.3731072612e+00 -2.3782915406e+00 1.3731072612e+00 2.3782915406e+00 
1500 7.3634787501e+00 3.1811360642e-10 1.3731072612e+00 -2.3782915406e+00 1.3731072612e+00 2.3782915406e+00 
1600 7.3623576581e+00 2.7000003096e-10 1.3731072612e+00 -2.3782915406e+00 1.3731072612e+00 2.3782915406e+00 
1700 7.3612988703e+00 2.2411252891e-10 1.3731072612e+00 -2.3782915406e+00 1.3731072612e+00 2.3782915406e+00 
1800 7.3602989242e+00 1.8059610244e-10 1.3731072612e+00 -2.3782915406e+00 1.3731072612e+00 2.3782915406e+00 
1900 7.3593545497e+00 1.3949651051e-10 1.3731072612e+00 -2.3782915406e+00 1.3731072612e+00 2.3782915406e+00 
2000 7.3584626584e+00 1.0078820053e-10 1.3731072612e+00 -2.3782915406e+00 1.3731072612e+00 2.3782915406e+00 
2100 7.3576203335e+00 6.4395577609e-11 1.3731072612e+00 -2.3782915406e+00 1.3731072612e+00 2.3782915406e+00 
2200 7.3568248205e+00 3.0209107626e-11 1.3731072612e+00 -2.3782915406e+00 1.3731072612e+00 2.3782915406e+00 
2300 7.3560735177e+00 -1.9025774835e-12 1.3731072612e+00 -2.3782915406e+00 1.3731072612e+00 2.3782915406e+00 
2400 7.3553639683e+00 -3.2083660359e-11 1.3731072612e+00 -2.3782915406e+00 1.3731072612e+00 2.3782915406e+00 
2500 7.3546938517e+00 -6.0484493975e-11 1.3731072612e+00 -2.3782915406e+00 1.3731072612e+00 2.3782915406e+00 
2600 7.3540609766e+00 -8.7256779098e-11 1.3731072612e+00 -2.3782915406e+00 1.3731072612e+00 2.3782915406e+00 
2700 7.3534632732e+00 -1.1255013345e-10 1.3731072612e+00 -2.3782915406e+00 1.3731072612e+00 2.3782915406e+00 
2800 7.3528987869e+00 -1.3650971792e-10 1.3731072612e+00 -2.3782915406e+00 1.3731072612e+00 2.3782915406e+00 
2900 7.3523656716e+00 -1.5927466175e-10 1.3731072612e+00 -2.3782915406e+00 1.3731072612e+00 2.3782915406e+00 
3000 7.3518621839e+00 -1.8097708604e-10 1.3731072612e+00 -2.3782915406e+00 1.3731072612e+00 2.3782915406e+00 
3100 7.3513866773e+00 -2.0174157169e-10 1.3731072612e+00 -2.3782915406e+00 1.3731072612e+00 2.3782915406e+00 
3200 7.3509375968e+00 -2.2168495301e-10 1.3731072612e+00 -2.3782915406e+00 1.3731072612e+00 2.3782915406e+00 
3300 7.3505134736e+00 -2.4091634601e-10 1.3731072612e+00 -2.3782915406e+00 1.3731072612e+00 2.3782915406e+00 
3400 7.3501129209e+00 -2.5953734278e-10 1.3731072612e+00 -2.3782915406e+00 1.3731072612e+00 2.3782915406e+00 
3500 7.3497346286e+00 -2.7764231858e-10 1.3731072612e+00 -2.3782915406e+00 1.3731072612e+00 2.3782915406e+00 
3600 7.3493773598e+00 -2.9531881285e-10 1.3731072612e+00 -2.3782915406e+00 1.3731072612e+00 2.3782915406e+00 
3700 7.3490399459e+00 -3.1264795460e-10 1.3731072612e+00 -2.3782915406e+00 1.3731072612e+00 2.3782915406e+00 
3800 7.3487212836e+00 -3.2970490961e-10 1.3731072612e+00 -2.3782915406e+00 1.3731072612e+00 2.3782915406e+00 
3900 7.3484203307e+00 -3.4655933437e-10 1.3731072612e+00 -2.3782915406e+00 1.3731072612e+00 2.3782915406e+00 
4000 7.3481361031e+00 -3.6327582551e-10 1.3731072612e+00 -2.3782915406e+00 1.3731072612e+00 2.3782915406e+00 
4100 7.3478676713e+00 -3.7991435595e-10 1.3731072612e+00 -2.3782915406e+00 1.3731072612e+00 2.3782915406e+00 
4200 7.3476141573e+00 -3.9653069309e-10 1.3731072612e+00 -2.3782915406e+00 1.3731072612e+00 2.3782915406e+00 
4300 7.3473747322e+00 -4.1317679573e-10 1.3731072612e+00 -2.3782915406e+00 1.3731072612e+00 2.3782915406e+00 
4400 7.3471486130e+00 -4.2990118729e-10 1.3731072612e+00 -2.3782915406e+00 1.3731072612e+00 2.3782915406e+00 
4500 7.3469350602e+00 -4.4674930539e-10 1.3731072612e+00 -2.3782915406e+00 1.3731072612e+00 2.3782915406e+00 
4600 7.3467333753e+00 -4.6376382667e-10 1.3731072612e+00 -2.3782915406e+00 1.3731072612e+00 2.3782915406e+00 
4700 7.3465428989e+00 -4.8098496810e-10 1.3731072612e+00 -2.3782915406e+00 1.3731072612e+00 2.3782915406e+00 
4800 7.3463630081e+00 -4.9845076548e-10 1.3731072612e+00 -2.3782915406e+00 1.3731072612e+00 2.3782915406e+00 
4900 7.3461931145e+00 -5.1619733011e-10 1.3731072612e+00 -2.3782915406e+00 1.3731072612e+00 2.3782915406e+00 
5000 7.3460326626e+00 -5.3425908476e-10 1.3731072612e+00 -2.3782915406e+00 1.3731072612e+00 2.3782915406e+00 
5100 7.3458811276e+00 -5.5266898087e-10 1.3731072612e+00 -2.3782915406e+00 1.3731072612e+00 2.3782915406e+00 
5200 7.3457380140e+00 -5.7145869791e-10 1.3731072612e+00 -2.3782915406e+00 1.3731072612e+00 2.3782915406e+00 
5300 7.3456028537e+00 -5.9065882576e-10 1.3731072612e+00 -2.3782915406e+00 1.3731072612e+00 2.3782915406e+00 
5400 7.3454752048e+00 -6.1029903326e-10 1.3731072612e+00 -2.3782915406e+00 1.3731072612e+00 2.3782915406e+00 
5500 7.3453546498e+00 -6.3040822159e-10 1.3731072612e+00 -2.3782915406e+00 1.3731072612e+00 2.3782915406e+00 
5600 7.3452407945e+00 -6.5101466599e-10 1.3731072612e+00 -2.3782915406e+00 1.3731072612e+00 2.3782915406e+00 
5700 7.3451332664e+00 -6.7214614577e-10 1.3731072612e+00 -2.3782915406e+00 1.3731072612e+00 2.3782915406e+00 
5800 7.3450317141e+00 -6.9383006393e-10 1.3731072612e+00 -2.3782915406e+00 1.3731072612e+00 2.3782915406e+00 
5900 7.3449358053e+00 -7.1609355754e-10 1.3731072612e+00 -2.3782915406e+00 1.3731072612e+00 2.3782915406e+00 
6000 7.3448452265e+00 -7.3896359965e-10 1.3731072612e+00 -2.3782915406e+00 1.3731072612e+00 2.3782915406e+00 
6100 7.3447596814e+00 -7.6246709329e-10 1.3731072612e+00 -2.3782915406e+00 1.3731072612e+00 2.3782915406e+00 
6200 7.3446788903e+00 -7.8663095948e-10 1.3731072612e+00 -2.3782915406e+00 1.3731072612e+00 2.3782915406e+00 
6300 7.3446025889e+00 -8.1148221797e-10 1.3731072612e+00 -2.3782915406e+00 1.3731072612e+00 2.3782915406e+00 
6400 7.3445305278e+00 -8.3704806360e-10 1.3731072612e+00 -2.3782915406e+00 1.3731072612e+00 2.3782915406e+00 
6500 7.3444624712e+00 -8.6335593723e-10 1.3731072612e+00 -2.3782915406e+00 1.3731072612e+00 2.3782915406e+00 
6600 7.3443981967e+00 -8.9043359249e-10 1.3731072612e+00 -2.3782915406e+00 1.3731072612e+00 2.3782915406e+00 
6700 7.3443374940e+00 -9.1830915895e-10 1.3731072612e+00 -2.3782915406e+00 1.3731072612e+00 2.3782915406e+00 
6800 7.3442801647e+00 -9.4701120161e-10 1.3731072612e+00 -2.3782915406e+00 1.3731072612e+00 2.3782915406e+00 
6900 7.3442260212e+00 -9.7656877759e-10 1.3731072612e+00 -2.3782915406e+00 1.3731072612e+00 2.3782915406e+00 
7000 7.3441748864e+00 -1.0070114906e-09 1.3731072612e+00 -2.3782915406e+00 1.3731072612e+00 2.3782915406e+00 
7100 7.3441265933e+00 -1.0383695423e-09 1.3731072612e+00 -2.3782915406e+00 1.3731072612e+00 2.3782915406e+00 
7200 7.3440809838e+00 -1.0706737834e-09 1.3731072612e+00 -2.3782915406e+00 1.3731072612e+00 2.3782915406e+00 
7300 7.3440379088e+00 -1.1039557609e-09 1.3731072612e+00 -2.3782915406e+00 1.3731072612e+00 2.3782915406e+00 
7400 7.3439972275e+00 -1.1382477662e-09 1.3731072612e+00 -2.3782915406e+00 1.3731072612e+00 2.3782915406e+00 
7500 7.3439588067e+00 -1.1735828809e-09 1.3731072612e+00 -2.3782915406e+00 1.3731072612e+00 2.3782915406e+00 
7600 7.3439225209e+00 -1.2099950217e-09 1.3731072612e+00 -2.3782915406e+00 1.3731072612e+00 2.3782915406e+00 
7700 7.3438882514e+00 -1.2475189849e-09 1.3731072612e+00 -2.3782915406e+00 1.3731072612e+00 2.3782915406e+00 
7800 7.3438558862e+00 -1.2861904909e-09 1.3731072612e+00 -2.3782915406e+00 1.3731072612e+00 2.3782915406e+00 
7900 7.3438253193e+00 -1.3260462274e-09 1.3731072612e+00 -2.3782915406e+00 1.3731072612e+00 2.3782915406e+00 
8000 7.3437964509e+00 -1.3671238930e-09 1.3731072612e+00 -2.3782915406e+00 1.3731072612e+00 2.3782915406e+00 
8100 7.3437691866e+00 -1.4094622407e-09 1.3731072612e+00 -2.3782915406e+00 1.3731072612e+00 2.3782915406e+00 
8200 7.3437434371e+00 -1.4531011217e-09 1.3731072612e+00 -2.3782915406e+00 1.3731072612e+00 2.3782915406e+00 
8300 7.3437191184e+00 -1.4980815290e-09 1.3731072612e+00 -2.3782915406e+00 1.3731072612e+00 2.3782915406e+00 
8400 7.3436961508e+00 -1.5444456414e-09 1.3731072612e+00 -2.3782915406e+00 1.3731072612e+00 2.3782915406e+00 
8500 7.3436744593e+00 -1.5922368692e-09 1.3731072612e+00 -2.3782915406e+00 1.3731072612e+00 2.3782915406e+00 
8600 7.3436539730e+00 -1.6414998979e-09 1.3731072612e+00 -2.3782915406e+00 1.3731072612e+00 2.3782915406e+00 
8700 7.3436346248e+00 -1.6922807357e-09 1.3731072612e+00 -2.3782915406e+00 1.3731072612e+00 2.3782915406e+00 
8800 7.3436163515e+00 -1.7446267588e-09 1.3731072612e+00 -2.3782915406e+00 1.3731072612e+00 2.3782915406e+00 
8900 7.3435990934e+00 -1.7985867601e-09 1.3731072612e+00 -2.3782915406e+00 1.3731072612e+00 2.3782915406e+00 
9000 7.3435827940e+00 -1.8542109969e-09 1.3731072612e+00 -2.3782915406e+00 1.3731072612e+00 2.3782915406e+00 
9100 7.3435674000e+00 -1.9115512409e-09 1.3731072612e+00 -2.3782915406e+00 1.3731072612e+00 2.3782915406e+00 
9200 7.3435528611e+00 -1.9706608284e-09 1.3731072612e+00 -2.3782915406e+00 1.3731072612e+00 2.3782915406e+00 
9300 7.3435391298e+00 -2.0315947125e-09 1.3731072612e+00 -2.3782915406e+00 1.3731072612e+00 2.3782915406e+00 
9400 7.3435261612e+00 -2.0944095157e-09 1.3731072612e+00 -2.3782915406e+00 1.3731072612e+00 2.3782915406e+00 
9500 7.3435139128e+00 -2.1591635850e-09 1.3731072612e+00 -2.3782915406e+00 1.3731072612e+00 2.3782915406e+00 
9600 7.3435023446e+00 -2.2259170464e-09 1.3731072612e+00 -2.3782915406e+00 1.3731072612e+00 2.3782915406e+00 
9700 7.3434914189e+00 -2.2947318635e-09 1.3731072612e+00 -2.3782915406e+00 1.3731072612e+00 2.3782915406e+00 
9800 7.3434810999e+00 -2.3656718955e-09 1.3731072612e+00 -2.3782915406e+00 1.3731072612e+00 2.3782915406e+00 
9900 7.3434713538e+00 -2.4388029574e-09 1.3731072612e+00 -2.3782915406e+00 1.3731072612e+00 2.3782915406e+00 
10000 7.3434621488e+00 -2.5141928830e-09 1.3731072612e+00 -2.3782915406e+00 1.3731072612e+00 2.3782915406e+00 
10100 7.3434534548e+00 -2.5919115878e-09 1.3731072612e+00 -2.3782915406e+00 1.3731072612e+00 2.3782915406e+00 
10200 7.3434452434e+00 -2.6720311346e-09 1.3731072612e+00 -2.3782915406e+00 1.3731072612e+00 2.3782915406e+00 
10300 7.3434374878e+00 -2.7546258020e-09 1.3731072612e+00 -2.3782915406e+00 1.3731072612e+00 2.3782915406e+00 
10400 7.3434301626e+00 -2.8397721529e-09 1.3731072612e+00 -2.3782915406e+00 1.3731072612e+00 2.3782915406e+00 
10500 7.3434232439e+00 -2.9275491062e-09 1.3731072612e+00 -2.3782915406e+00 1.3731072612e+00 2.3782915406e+00 
10600 7.3434167091e+00 -3.0180380109e-09 1.3731072612e+00 -2.3782915406e+00 1.3731072612e+00 2.3782915406e+00 
10700 7.3434105367e+00 -3.1113227215e-09 1.3731072612e+00 -2.3782915406e+00 1.3731072612e+00 2.3782915406e+00 
10800 7.3434047067e+00 -3.2074896760e-09 1.3731072612e+00 -2.3782915406e+00 1.3731072612e+00 2.3782915406e+00 
10900 7.3433992000e+00 -3.3066279767e-09 1.3731072612e+00 -2.3782915406e+00 1.3731072612e+00 2.3782915406e+00 
11000 7.3433939986e+00 -3.4088294726e-09 1.3731072612e+00 -2.3782915406e+00 1.3731072612e+00 2.3782915406e+00 
11100 7.3433890856e+00 -3.5141888450e-09 1.3731072612e+00 -2.3782915406e+00 1.3731072612e+00 2.3782915406e+00 
11200 7.3433844448e+00 -3.6228036955e-09 1.3731072612e+00 -2.3782915406e+00 1.3731072612e+00 2.3782915406e+00 
11300 7.3433800611e+00 -3.7347746363e-09 1.3731072612e+00 -2.3782915406e+00 1.3731072612e+00 2.3782915406e+00 
11400 7.3433759203e+00 -3.8502053836e-09 1.3731072612e+00 -2.3782915406e+00 1.3731072612e+00 2.3782915406e+00 
11500 7.3433720087e+00 -3.9692028536e-09 1.3731072612e+00 -2.3782915406e+00 1.3731072612e+00 2.3782915406e+00 
11600 7.3433683136e+00 -4.0918772621e-09 1.3731072612e+00 -2.3782915406e+00 1.3731072612e+00 2.3782915406e+00 
11700 7.3433648230e+00 -4.2183422263e-09 1.3731072612e+00 -2.3782915406e+00 1.3731072612e+00 2.3782915406e+00 
11800 7.3433615255e+00 -4.3487148700e-09 1.3731072612e+00 -2.3782915406e+00 1.3731072612e+00 2.3782915406e+00 
11900 7.3433584103e+00 -4.4831159321e-09 1.3731072612e+00 -2.3782915406e+00 1.3731072612e+00 2.3782915406e+00 
12000 7.3433554672e+00 -4.6216698784e-09 1.3731072612e+00 -2.3782915406e+00 1.3731072612e+00 2.3782915406e+00 
12100 7.3433526867e+00 -4.7645050172e-09 1.3731072612e+00 -2.3782915406e+00 1.3731072612e+00 2.3782915406e+00 
12200 7.3433500596e+00 -4.9117536169e-09 1.3731072612e+00 -2.3782915406e+00 1.3731072612e+00 2.3782915406e+00 
12300 7.3433475775e+00 -5.0635520305e-09 1.3731072612e+00 -2.3782915406e+00 1.3731072612e+00 2.3782915406e+00 
12400 7.3433452322e+00 -5.2200408192e-09 1.3731072612e+00 -2.3782915406e+00 1.3731072612e+00 2.3782915406e+00 
12500 7.3433430162e+00 -5.3813648849e-09 1.3731072612e+00 -2.3782915406e+00 1.3731072612e+00 2.3782915406e+00 
12600 7.3433409221e+00 -5.5476736021e-09 1.3731072612e+00 -2.3782915406e+00 1.3731072612e+00 2.3782915406e+00 
12700 7.3433389431e+00 -5.7191209576e-09 1.3731072612e+00 -2.3782915406e+00 1.3731072612e+00 2.3782915406e+00 
12800 7.3433370729e+00 -5.8958656925e-09 1.3731072612e+00 -2.3782915406e+00 1.3731072612e+00 2.3782915406e+00 
12900 7.3433353054e+00 -6.0780714486e-09 1.3731072612e+00 -2.3782915406e+00 1.3731072612e+00 2.3782915406e+00 
13000 7.3433336347e+00 -6.2659069201e-09 1.3731072612e+00 -2.3782915406e+00 1.3731072612e+00 2.3782915406e+00 
13100 7.3433320555e+00 -6.4595460094e-09 1.3731072612e+00 -2.3782915406e+00 1.3731072612e+00 2.3782915406e+00 
13200 7.3433305627e+00 -6.6591679885e-09 1.3731072612e+00 -2.3782915406e+00 1.3731072612e+00 2.3782915406e+00 
13300 7.3433291514e+00 -6.8649576637e-09 1.3731072612e+00 -2.3782915406e+00 1.3731072612e+00 2.3782915406e+00 
13400 7.3433278170e+00 -7.0771055474e-09 1.3731072612e+00 -2.3782915406e+00 1.3731072612e+00 2.3782915406e+00 
13500 7.3433265552e+00 -7.2958080339e-09 1.3731072612e+00 -2.3782915406e+00 1.3731072612e+00 2.3782915406e+00 
13600 7.3433253620e+00 -7.5212675802e-09 1.3731072612e+00 -2.3782915406e+00 1.3731072612e+00 2.3782915406e+00 
13700 7.3433242334e+00 -7.7536928946e-09 1.3731072612e+00 -2.3782915406e+00 1.3731072612e+00 2.3782915406e+00 
13800 7.3433231659e+00 -7.9932991285e-09 1.3731072612e+00 -2.3782915406e+00 1.3731072612e+00 2.3782915406e+00 
13900 7.3433221559e+00 -8.2403080759e-09 1.3731072612e+00 -2.3782915406e+00 1.3731072612e+00 2.3782915406e+00 
14000 7.3433212003e+00 -8.4949483776e-09 1.3731072612e+00 -2.3782915406e+00 1.3731072612e+00 2.3782915406e+00 
14100 7.3433202959e+00 -8.7574557330e-09 1.3731072612e+00 -2.3782915406e+00 1.3731072612e+00 2.3782915406e+00 
14200 7.3433194399e+00 -9.0280731184e-09 1.3731072612e+00 -2.3782915406e+00 1.3731072612e+00 2.3782915406e+00 
14300 7.3433186294e+00 -9.3070510112e-09 1.3731072612e+00 -2.3782915406e+00 1.3731072612e+00 2.3782915406e+00 
14400 7.3433178620e+00 -9.5946476197e-09 1.3731072612e+00 -2.3782915406e+00 1.3731072612e+00 2.3782915406e+00 
14500 7.3433171351e+00 -9.8911291250e-09 1.3731072612e+00 -2.3782915406e+00 1.3731072612e+00 2.3782915406e+00 
14600 7.3433164464e+00 -1.0196769924e-08 1.3731072612e+00 -2.3782915406e+00 1.3731072612e+00 2.3782915406e+00 
14700 7.3433157938e+00 -1.0511852885e-08 1.3731072612e+00 -2.3782915406e+00 1.3731072612e+00 2.3782915406e+00 
14800 7.3433151752e+00 -1.0836669606e-08 1.3731072612e+00 -2.3782915406e+00 1.3731072612e+00 2.3782915406e+00 
14900 7.3433145886e+00 -1.1171520690e-08 1.3731072612e+00 -2.3782915406e+00 1.3731072612e+00 2.3782915406e+00 
15000 7.3433140321e+00 -1.1516716015e-08 1.3731072612e+00 -2.3782915406e+00 1.3731072612e+00 2.3782915406e+00 
15100 7.3433135040e+00 -1.1872575026e-08 1.3731072612e+00 -2.3782915406e+00 1.3731072612e+00 2.3782915406e+00 
15200 7.3433130027e+00 -1.2239427027e-08 1.3731072612e+00 -2.3782915406e+00 1.3731072612e+00 2.3782915406e+00 
15300 7.3433125266e+00 -1.2617611490e-08 1.3731072612e+00 -2.3782915406e+00 1.3731072612e+00 2.3782915406e+00 
15400 7.3433120742e+00 -1.3007478360e-08 1.3731072612e+00 -2.3782915406e+00 1.3731072612e+00 2.3782915406e+00 
15500 7.3433116440e+00 -1.3409388388e-08 1.3731072612e+00 -2.3782915406e+00 1.3731072612e+00 2.3782915406e+00 
15600 7.3433112349e+00 -1.3823713455e-08 1.3731072612e+00 -2.3782915406e+00 1.3731072612e+00 2.3782915406e+00 
15700 7.3433108454e+00 -1.4250836924e-08 1.3731072612e+00 -2.3782915406e+00 1.3731072612e+00 2.3782915406e+00 
15800 7.3433104745e+00 -1.4691153986e-08 1.3731072612e+00 -2.3782915406e+00 1.3731072612e+00 2.3782915406e+00 
15900 7.3433101209e+00 -1.5145072033e-08 1.3731072612e+00 -2.3782915406e+00 1.3731072612e+00 2.3782915406e+00 
16000 7.3433097838e+00 -1.5613011027e-08 1.3731072612e+00 -2.3782915406e+00 1.3731072612e+00 2.3782915406e+00 
16100 7.3433094619e+00 -1.6095403893e-08 1.3731072612e+00 -2.3782915406e+00 1.3731072612e+00 2.3782915406e+00 
16200 7.3433091544e+00 -1.6592696916e-08 1.3731072612e+00 -2.3782915406e+00 1.3731072612e+00 2.3782915406e+00 
16300 7.3433088603e+00 -1.7105350153e-08 1.3731072612e+00 -2.3782915406e+00 1.3731072612e+00 2.3782915406e+00 
16400 7.3433085789e+00 -1.7633837860e-08 1.3731072612e+00 -2.3782915406e+00 1.3731072612e+00 2.3782915406e+00 
16500 7.3433083092e+00 -1.8178648929e-08 1.3731072612e+00 -2.3782915406e+00 1.3731072612e+00 2.3782915406e+00 
16600 7.3433080505e+00 -1.8740287337e-08 1.3731072612e+00 -2.3782915406e+00 1.3731072612e+00 2.3782915406e+00 
16700 7.3433078021e+00 -1.9319272617e-08 1.3731072612e+00 -2.3782915406e+00 1.3731072612e+00 2.3782915406e+00 
16800 7.3433075633e+00 -1.9916140328e-08 1.3731072612e+00 -2.3782915406e+00 1.3731072612e+00 2.3782915406e+00 
16900 7.3433073334e+00 -2.0531442562e-08 1.3731072612e+00 -2.3782915406e+00 1.3731072612e+00 2.3782915406e+00 
17000 7.3433071117e+00 -2.1165748442e-08 1.3731072612e+00 -2.3782915406e+00 1.3731072612e+00 2.3782915406e+00 
17100 7.3433068978e+00 -2.1819644656e-08 1.3731072612e+00 -2.3782915406e+00 1.3731072612e+00 2.3782915406e+00 
17200 7.3433066909e+00 -2.2493735995e-08 1.3731072612e+00 -2.3782915406e+00 1.3731072612e+00 2.3782915406e+00 
17300 7.3433064906e+00 -2.3188645908e-08 1.3731072612e+00 -2.3782915406e+00 1.3731072612e+00 2.3782915406e+00 
17400 7.3433062964e+00 -2.3905017084e-08 1.3731072612e+00 -2.3782915406e+00 1.3731072612e+00 2.3782915406e+00 
17500 7.3433061077e+00 -2.4643512044e-08 1.3731072612e+00 -2.3782915406e+00 1.3731072612e+00 2.3782915406e+00 
17600 7.3433059241e+00 -2.5404813747e-08 1.3731072612e+00 -2.3782915406e+00 1.3731072612e+00 2.3782915406e+00 
17700 7.3433057451e+00 -2.6189626225e-08 1.3731072612e+00 -2.3782915406e+00 1.3731072612e+00 2.3782915406e+00 
17800 7.3433055704e+00 -2.6998675234e-08 1.3731072612e+00 -2.3782915406e+00 1.3731072612e+00 2.3782915406e+00 
17900 7.3433053994e+00 -2.7832708921e-08 1.3731072612e+00 -2.3782915406e+00 1.3731072612e+00 2.3782915406e+00 
18000 7.3433052318e+00 -2.8692498515e-08 1.3731072612e+00 -2.3782915406e+00 1.3731072612e+00 2.3782915406e+00 
18100 7.3433050673e+00 -2.9578839040e-08 1.3731072612e+00 -2.3782915406e+00 1.3731072612e+00 2.3782915406e+00 
18200 7.3433049054e+00 -3.0492550048e-08 1.3731072612e+00 -2.3782915406e+00 1.3731072612e+00 2.3782915406e+00 
18300 7.3433047458e+00 -3.1434476375e-08 1.3731072612e+00 -2.3782915406e+00 1.3731072612e+00 2.3782915406e+00 
18400 7.3433045881e+00 -3.2405488923e-08 1.3731072612e+00 -2.3782915406e+00 1.3731072612e+00 2.3782915406e+00 
18500 7.3433044322e+00 -3.3406485461e-08 1.3731072612e+00 -2.3782915406e+00 1.3731072612e+00 2.3782915406e+00 
18600 7.3433042775e+00 -3.4438391453e-08 1.3731072612e+00 -2.3782915406e+00 1.3731072612e+00 2.3782915406e+00 
18700 7.3433041239e+00 -3.5502160917e-08 1.3731072612e+00 -2.3782915406e+00 1.3731072612e+00 2.3782915406e+00 
18800 7.3433039711e+00 -3.6598777301e-08 1.3731072612e+00 -2.3782915406e+00 1.3731072612e+00 2.3782915406e+00 
18900 7.3433038187e+00 -3.7729254392e-08 1.3731072612e+00 -2.3782915406e+00 1.3731072612e+00 2.3782915406e+00 
19000 7.3433036664e+00 -3.8894637250e-08 1.3731072612e+00 -2.3782915406e+00 1.3731072612e+00 2.3782915406e+00 
19100 7.3433035141e+00 -4.0096003177e-08 1.3731072612e+00 -2.3782915406e+00 1.3731072612e+00 2.3782915406e+00 
19200 7.3433033615e+00 -4.1334462708e-08 1.3731072612e+00 -2.3782915406e+00 1.3731072612e+00 2.3782915406e+00 
19300 7.3433032083e+00 -4.2611160632e-08 1.3731072612e+00 -2.3782915406e+00 1.3731072612e+00 2.3782915406e+00 
19400 7.3433030542e+00 -4.3927277059e-08 1.3731072612e+00 -2.3782915406e+00 1.3731072612e+00 2.3782915406e+00 
19500 7.3433028990e+00 -4.5284028500e-08 1.3731072612e+00 -2.3782915406e+00 1.3731072612e+00 2.3782915406e+00 
19600 7.3433027425e+00 -4.6682668993e-08 1.3731072612e+00 -2.3782915406e+00 1.3731072612e+00 2.3782915406e+00 
19700 7.3433025844e+00 -4.8124491260e-08 1.3731072612e+00 -2.3782915406e+00 1.3731072612e+00 2.3782915406e+00 
19800 7.3433024246e+00 -4.9610827903e-08 1.3731072612e+00 -2.3782915406e+00 1.3731072612e+00 2.3782915406e+00 
19900 7.3433022627e+00 -5.1143052627e-08 1.3731072612e+00 -2.3782915406e+00 1.3731072612e+00 2.3782915406e+00 
20000 7.3433020986e+00 -5.2722581517e-08 1.3731072612e+00 -2.3782915406e+00 1.3731072612e+00 2.3782915406e+00 
20100 7.3433019319e+00 -5.4350874338e-08 1.3731072612e+00 -2.3782915406e+00 1.3731072612e+00 2.3782915406e+00 
20200 7.3433017626e+00 -5.6029435887e-08 1.3731072612e+00 -2.3782915406e+00 1.3731072612e+00 2.3782915406e+00 
20300 7.3433015904e+00 -5.7759817379e-08 1.3731072612e+00 -2.3782915406e+00 1.3731072612e+00 2.3782915406e+00 
20400 7.3433014151e+00 -5.9543617881e-08 1.3731072612e+00 -2.3782915406e+00 1.3731072612e+00 2.3782915406e+00 
20500 7.3433012363e+00 -6.1382485785e-08 1.3731072612e+00 -2.3782915406e+00 1.3731072612e+00 2.3782915406e+00 
20600 7.3433010540e+00 -6.3278120338e-08 1.3731072612e+00 -2.3782915406e+00 1.3731072612e+00 2.3782915406e+00 
20700 7.3433008680e+00 -6.5232273200e-08 1.3731072612e+00 -2.3782915406e+00 1.3731072612e+00 2.3782915406e+00 
20800 7.3433006778e+00 -6.7246750071e-08 1.3731072612e+00 -2.3782915406e+00 1.3731072612e+00 2.3782915406e+00 
20900 7.3433004835e+00 -6.9323412352e-08 1.3731072612e+00 -2.3782915406e+00 1.3731072612e+00 2.3782915406e+00 
21000 7.3433002847e+00 -7.1464178866e-08 1.3731072612e+00 -2.3782915406e+00 1.3731072612e+00 2.3782915406e+00 
21100 7.3433000811e+00 -7.3671027630e-08 1.3731072612e+00 -2.3782915406e+00 1.3731072612e+00 2.3782915406e+00 
21200 7.3432998727e+00 -7.5945997685e-08 1.3731072612e+00 -2.3782915406e+00 1.3731072612e+00 2.3782915406e+00 
21300 7.3432996591e+00 -7.8291190976e-08 1.3731072612e+00 -2.3782915406e+00 1.3731072612e+00 2.3782915406e+00 
21400 7.3432994401e+00 -8.0708774292e-08 1.3731072612e+00 -2.3782915406e+00 1.3731072612e+00 2.3782915406e+00 
21500 7.3432992155e+00 -8.3200981272e-08 1.3731072612e+00 -2.3782915406e+00 1.3731072612e+00 2.3782915406e+00 
21600 7.3432989851e+00 -8.5770114469e-08 1.3731072612e+00 -2.3782915406e+00 1.3731072612e+00 2.3782915406e+00 
21700 7.3432987485e+00 -8.8418547473e-08 1.3731072612e+00 -2.3782915406e+00 1.3731072612e+00 2.3782915406e+00 
21800 7.3432985056e+00 -9.1148727109e-08 1.3731072612e+00 -2.3782915406e+00 1.3731072612e+00 2.3782915406e+00 
21900 7.3432982560e+00 -9.3963175696e-08 1.3731072612e+00 -2.3782915406e+00 1.3731072612e+00 2.3782915406e+00 
22000 7.3432979997e+00 -9.6864493381e-08 1.3731072612e+00 -2.3782915406e+00 1.3731072612e+00 2.3782915406e+00 
22100 7.3432977361e+00 -9.9855360542e-08 1.3731072612e+00 -2.3782915406e+00 1.3731072612e+00 2.3782915406e+00 
22200 7.3432974652e+00 -1.0293854026e-07 1.3731072612e+00 -2.3782915406e+00 1.3731072612e+00 2.3782915406e+00 
22300 7.3432971866e+00 -1.0611688090e-07 1.3731072612e+00 -2.3782915406e+00 1.3731072612e+00 2.3782915406e+00 
22400 7.3432969001e+00 -1.0939331870e-07 1.3731072612e+00 -2.3782915406e+00 1.3731072612e+00 2.3782915406e+00 
22500 7.3432966053e+00 -1.1277088052e-07 1.3731072612e+00 -2.3782915406e+00 1.3731072612e+00 2.3782915406e+00 
22600 7.3432963020e+00 -1.1625268665e-07 1.3731072612e+00 -2.3782915406e+00 1.3731072612e+00 2.3782915406e+00 
22700 7.3432959898e+00 -1.1984195368e-07 1.3731072612e+00 -2.3782915406e+00 1.3731072612e+00 2.3782915406e+00 
22800 7.3432956685e+00 -1.2354199748e-07 1.3731072612e+00 -2.3782915406e+00 1.3731072612e+00 2.3782915406e+00 
22900 7.3432953378e+00 -1.2735623625e-07 1.3731072612e+00 -2.3782915406e+00 1.3731072612e+00 2.3782915406e+00 
23000 7.3432949973e+00 -1.3128819374e-07 1.3731072612e+00 -2.3782915406e+00 1.3731072612e+00 2.3782915406e+00 
23100 7.3432946466e+00 -1.3534150245e-07 1.3731072612e+00 -2.3782915406e+00 1.3731072612e+00 2.3782915406e+00 
23200 7.3432942855e+00 -1.3951990707e-07 1.3731072612e+00 -2.3782915406e+00 1.3731072612e+00 2.3782915406e+00 
23300 7.3432939137e+00 -1.4382726786e-07 1.3731072612e+00 -2.3782915406e+00 1.3731072612e+00 2.3782915406e+00 
23400 7.3432935306e+00 -1.4826756429e-07 1.3731072612e+00 -2.3782915406e+00 1.3731072612e+00 2.3782915406e+00 
23500 7.3432931360e+00 -1.5284489873e-07 1.3731072612e+00 -2.3782915406e+00 1.3731072612e+00 2.3782915406e+00 
23600 7.3432927295e+00 -1.5756350022e-07 1.3731072612e+00 -2.3782915406e+00 1.3731072612e+00 2.3782915406e+00 
23700 7.3432923107e+00 -1.6242772843e-07 1.3731072612e+00 -2.3782915406e+00 1.3731072612e+00 2.3782915406e+00 
23800 7.3432918791e+00 -1.6744207769e-07 1.3731072612e+00 -2.3782915406e+00 1.3731072612e+00 2.3782915406e+00 
23900 7.3432914345e+00 -1.7261118113e-07 1.3731072612e+00 -2.3782915406e+00 1.3731072612e+00 2.3782915406e+00 
24000 7.3432909763e+00 -1.7793981507e-07 1.3731072612e+00 -2.3782915406e+00 1.3731072612e+00 2.3782915406e+00 
24100 7.3432905041e+00 -1.8343290335e-07 1.3731072612e+00 -2.3782915406e+00 1.3731072612e+00 2.3782915406e+00 
24200 7.3432900175e+00 -1.8909552199e-07 1.3731072612e+00 -2.3782915406e+00 1.3731072612e+00 2.3782915406e+00 
24300 7.3432895160e+00 -1.9493290388e-07 1.3731072612e+00 -2.3782915406e+00 1.3731072612e+00 2.3782915406e+00 
24400 7.3432889990e+00 -2.0095044364e-07 1.3731072612e+00 -2.3782915406e+00 1.3731072612e+00 2.3782915406e+00 
24500 7.3432884663e+00 -2.0715370264e-07 1.3731072612e+00 -2.3782915406e+00 1.3731072612e+00 2.3782915406e+00 
24600 7.3432879171e+00 -2.1354841419e-07 1.3731072612e+00 -2.3782915406e+00 1.3731072612e+00 2.3782915406e+00 
24700 7.3432873510e+00 -2.2014048889e-07 1.3731072612e+00 -2.3782915406e+00 1.3731072612e+00 2.3782915406e+00 
24800 7.3432867675e+00 -2.2693602011e-07 1.3731072612e+00 -2.3782915406e+00 1.3731072612e+00 2.3782915406e+00 
24900 7.3432861660e+00 -2.3394128969e-07 1.3731072612e+00 -2.3782915406e+00 1.3731072612e+00 2.3782915406e+00 
25000 7.3432855459e+00 -2.4116277380e-07 1.3731072612e+00 -2.3782915406e+00 1.3731072612e+00 2.3782915406e+00 
25100 7.3432849067e+00 -2.4860714897e-07 1.3731072612e+00 -2.3782915406e+00 1.3731072612e+00 2.3782915406e+00 
25200 7.3432842477e+00 -2.5628129835e-07 1.3731072612e+00 -2.3782915406e+00 1.3731072612e+00 2.3782915406e+00 
25300 7.3432835683e+00 -2.6419231814e-07 1.3731072612e+00 -2.3782915406e+00 1.3731072612e+00 2.3782915406e+00 
25400 7.3432828678e+00 -2.7234752419e-07 1.3731072612e+00 -2.3782915406e+00 1.3731072612e+00 2.3782915406e+00 
25500 7.3432821457e+00 -2.8075445889e-07 1.3731072612e+00 -2.3782915406e+00 1.3731072612e+00 2.3782915406e+00 
25600 7.3432814012e+00 -2.8942089823e-07 1.3731072612e+00 -2.3782915406e+00 1.3731072612e+00 2.3782915406e+00 
25700 7.3432806336e+00 -2.9835485906e-07 1.3731072612e+00 -2.3782915406e+00 1.3731072612e+00 2.3782915406e+00 
25800 7.3432798421e+00 -3.0756460661e-07 1.3731072612e+00 -2.3782915406e+00 1.3731072612e+00 2.3782915406e+00 
25900 7.3432790261e+00 -3.1705866229e-07 1.3731072612e+00 -2.3782915406e+00 1.3731072612e+00 2.3782915406e+00 
26000 7.3432781847e+00 -3.2684581163e-07 1.3731072612e+00 -2.3782915406e+00 1.3731072612e+00 2.3782915406e+00 
26100 7.3432773172e+00 -3.3693511261e-07 1.3731072612e+00 -2.3782915406e+00 1.3731072612e+00 2.3782915406e+00 
26200 7.3432764228e+00 -3.4733590411e-07 1.3731072612e+00 -2.3782915406e+00 1.3731072612e+00 2.3782915406e+00 
26300 7.3432755005e+00 -3.5805781477e-07 1.3731072612e+00 -2.3782915406e+00 1.3731072612e+00 2.3782915406e+00 
26400 7.3432745495e+00 -3.6911077203e-07 1.3731072612e+00 -2.3782915406e+00 1.3731072612e+00 2.3782915406e+00 
26500 7.3432735689e+00 -3.8050501149e-07 1.3731072612e+00 -2.3782915406e+00 1.3731072612e+00 2.3782915406e+00 
26600 7.3432725578e+00 -3.9225108661e-07 1.3731072612e+00 -2.3782915406e+00 1.3731072612e+00 2.3782915406e+00 
26700 7.3432715152e+00 -4.0435987868e-07 1.3731072612e+00 -2.3782915406e+00 1.3731072612e+00 2.3782915406e+00 
26800 7.3432704402e+00 -4.1684260707e-07 1.3731072612e+00 -2.3782915406e+00 1.3731072612e+00 2.3782915406e+00 
26900 7.3432693316e+00 -4.2971083996e-07 1.3731072612e+00 -2.3782915406e+00 1.3731072612e+00 2.3782915406e+00 
27000 7.3432681885e+00 -4.4297650521e-07 1.3731072612e+00 -2.3782915406e+00 1.3731072612e+00 2.3782915406e+00 
27100 7.3432670097e+00 -4.5665190175e-07 1.3731072612e+00 -2.3782915406e+00 1.3731072612e+00 2.3782915406e+00 
27200 7.3432657942e+00 -4.7074971130e-07 1.3731072612e+00 -2.3782915406e+00 1.3731072612e+00 2.3782915406e+00 
27300 7.3432645408e+00 -4.8528301036e-07 1.3731072612e+00 -2.3782915406e+00 1.3731072612e+00 2.3782915406e+00 
27400 7.3432632483e+00 -5.0026528277e-07 1.3731072612e+00 -2.3782915406e+00 1.3731072612e+00 2.3782915406e+00 
27500 7.3432619154e+00 -5.1571043253e-07 1.3731072612e+00 -2.3782915406e+00 1.3731072612e+00 2.3782915406e+00 
27600 7.3432605409e+00 -5.3163279713e-07 1.3731072612e+00 -2.3782915406e+00 1.3731072612e+00 2.3782915406e+00 
27700 7.3432591236e+00 -5.4804716125e-07 1.3731072612e+00 -2.3782915406e+00 1.3731072612e+00 2.3782915406e+00 
27800 7.3432576619e+00 -5.6496877099e-07 1.3731072612e+00 -2.3782915406e+00 1.3731072612e+00 2.3782915406e+00 
27900 7.3432561546e+00 -5.8241334847e-07 1.3731072612e+00 -2.3782915406e+00 1.3731072612e+00 2.3782915406e+00 
28000 7.3432546002e+00 -6.0039710699e-07 1.3731072612e+00 -2.3782915406e+00 1.3731072612e+00 2.3782915406e+00 
28100 7.3432529973e+00 -6.1893676665e-07 1.3731072612e+00 -2.3782915406e+00 1.3731072612e+00 2.3782915406e+00 
28200 7.3432513442e+00 -6.3804957049e-07 1.3731072612e+00 -2.3782915406e+00 1.3731072612e+00 2.3782915406e+00 
28300 7.3432496394e+00 -6.5775330123e-07 1.3731072612e+00 -2.3782915406e+00 1.3731072612e+00 2.3782915406e+00 
28400 7.3432478814e+00 -6.7806629843e-07 1.3731072612e+00 -2.3782915406e+00 1.3731072612e+00 2.3782915406e+00 
28500 7.3432460684e+00 -6.9900747637e-07 1.3731072612e+00 -2.3782915406e+00 1.3731072612e+00 2.3782915406e+00 
28600 7.3432441986e+00 -7.2059634241e-07 1.3731072612e+00 -2.3782915406e+00 1.3731072612e+00 2.3782915406e+00 
28700 7.3432422703e+00 -7.4285301607e-07 1.3731072612e+00 -2.3782915406e+00 1.3731072612e+00 2.3782915406e+00 
28800 7.3432402818e+00 -7.6579824868e-07 1.3731072612e+00 -2.3782915406e+00 1.3731072612e+00 2.3782915406e+00 
28900 7.3432382309e+00 -7.8945344368e-07 1.3731072612e+00 -2.3782915406e+00 1.3731072612e+00 2.3782915406e+00 
29000 7.3432361158e+00 -8.1384067771e-07 1.3731072612e+00 -2.3782915406e+00 1.3731072612e+00 2.3782915406e+00 
29100 7.3432339346e+00 -8.3898272228e-07 1.3731072612e+00 -2.3782915406e+00 1.3731072612e+00 2.3782915406e+00 
29200 7.3432316849e+00 -8.6490306629e-07 1.3731072612e+00 -2.3782915406e+00 1.3731072612e+00 2.3782915406e+00 
29300 7.3432293649e+00 -8.9162593926e-07 1.3731072612e+00 -2.3782915406e+00 1.3731072612e+00 2.3782915406e+00 
29400 7.3432269721e+00 -9.1917633535e-07 1.3731072612e+00 -2.3782915406e+00 1.3731072612e+00 2.3782915406e+00 
29500 7.3432245043e+00 -9.4758003828e-07 1.3731072612e+00 -2.3782915406e+00 1.3731072612e+00 2.3782915406e+00 
29600 7.3432219591e+00 -9.7686364700e-07 1.3731072612e+00 -2.3782915406e+00 1.3731072612e+00 2.3782915406e+00 
29700 7.3432193342e+00 -1.0070546024e-06 1.3731072612e+00 -2.3782915406e+00 1.3731072612e+00 2.3782915406e+00 
29800 7.3432166269e+00 -1.0381812146e-06 1.3731072612e+00 -2.3782915406e+00 1.3731072612e+00 2.3782915406e+00 
29900 7.3432138347e+00 -1.0702726919e-06 1.3731072612e+00 -2.3782915406e+00 1.3731072612e+00 2.3782915406e+00 
30000 7.3432109548e+00 -1.1033591700e-06 1.3731072612e+00 -2.3782915406e+00 1.3731072612e+00 2.3782915406e+00 
30100 7.3432079846e+00 -1.1374717423e-06 1.3731072612e+00 -2.3782915406e+00 1.3731072612e+00 2.3782915406e+00 
30200 7.3432049212e+00 -1.1726424922e-06 1.3731072612e+00 -2.3782915406e+00 1.3731072612e+00 2.3782915406e+00 
30300 7.3432017615e+00 -1.2089045251e-06 1.3731072612e+00 -2.3782915406e+00 1.3731072612e+00 2.3782915406e+00 
30400 7.3431985027e+00 -1.2462920030e-06 1.3731072612e+00 -2.3782915406e+00 1.3731072612e+00 2.3782915406e+00 
30500 7.3431951414e+00 -1.2848401789e-06 1.3731072612e+00 -2.3782915406e+00 1.3731072612e+00 2.3782915406e+00 
30600 7.3431916745e+00 -1.3245854340e-06 1.3731072612e+00 -2.3782915406e+00 1.3731072612e+00 2.3782915406e+00 
30700 7.3431880987e+00 -1.3655653146e-06 1.3731072612e+00 -2.3782915406e+00 1.3731072612e+00 2.3782915406e+00 
30800 7.3431844104e+00 -1.4078185720e-06 1.3731072612e+00 -2.3782915406e+00 1.3731072612e+00 2.3782915406e+00 
30900 7.3431806062e+00 -1.4513852020e-06 1.3731072612e+00 -2.3782915406e+00 1.3731072612e+00 2.3782915406e+00 
31000 7.3431766823e+00 -1.4963064879e-06 1.3731072612e+00 -2.3782915406e+00 1.3731072612e+00 2.3782915406e+00 
31100 7.3431726350e+00 -1.5426250433e-06 1.3731072612e+00 -2.3782915406e+00 1.3731072612e+00 2.3782915406e+00 
31200 7.3431684603e+00 -1.5903848577e-06 1.3731072612e+00 -2.3782915406e+00 1.3731072612e+00 2.3782915406e+00 
31300 7.3431641541e+00 -1.6396313429e-06 1.3731072612e+00 -2.3782915406e+00 1.3731072612e+00 2.3782915406e+00 
31400 7.3431597124e+00 -1.6904113820e-06 1.3731072612e+00 -2.3782915406e+00 1.3731072612e+00 2.3782915406e+00 
31500 7.3431551308e+00 -1.7427733793e-06 1.3731072612e+00 -2.3782915406e+00 1.3731072612e+00 2.3782915406e+00 
31600 7.3431504049e+00 -1.7967673130e-06 1.3731072612e+00 -2.3782915406e+00 1.3731072612e+00 2.3782915406e+00 
31700 7.3431455300e+00 -1.8524447893e-06 1.3731072612e+00 -2.3782915406e+00 1.3731072612e+00 2.3782915406e+00 
31800 7.3431405015e+00 -1.9098590988e-06 1.3731072612e+00 -2.3782915406e+00 1.3731072612e+00 2.3782915406e+00 
31900 7.3431353144e+00 -1.9690652751e-06 1.3731072612e+00 -2.3782915406e+00 1.3731072612e+00 2.3782915406e+00 
32000 7.3431299637e+00 -2.0301201552e-06 1.3731072612e+00 -2.3782915406e+00 1.3731072612e+00 2.3782915406e+00 
32100 7.3431244442e+00 -2.0930824431e-06 1.3731072612e+00 -2.3782915406e+00 1.3731072612e+00 2.3782915406e+00 
32200 7.3431187505e+00 -2.1580127752e-06 1.3731072612e+00 -2.3782915406e+00 1.3731072612e+00 2.3782915406e+00 
32300 7.3431128771e+00 -2.2249737884e-06 1.3731072612e+00 -2.3782915406e+00 1.3731072612e+00 2.3782915406e+00 
32400 7.3431068182e+00 -2.2940301912e-06 1.3731072612e+00 -2.3782915406e+00 1.3731072612e+00 2.3782915406e+00 
32500 7.3431005679e+00 -2.3652488370e-06 1.3731072612e+00 -2.3782915406e+00 1.3731072612e+00 2.3782915406e+00 
32600 7.3430941201e+00 -2.4386988014e-06 1.3731072612e+00 -2.3782915406e+00 1.3731072612e+00 2.3782915406e+00 
32700 7.3430874685e+00 -2.5144514612e-06 1.3731072612e+00 -2.3782915406e+00 1.3731072612e+00 2.3782915406e+00 
32800 7.3430806066e+00 -2.5925805779e-06 1.3731072612e+00 -2.3782915406e+00 1.3731072612e+00 2.3782915406e+00 
32900 7.3430735277e+00 -2.6731623838e-06 1.3731072612e+00 -2.3782915406e+00 1.3731072612e+00 2.3782915406e+00 
33000 7.3430662248e+00 -2.7562756720e-06 1.3731072612e+00 -2.3782915406e+00 1.3731072612e+00 2.3782915406e+00 
33100 7.3430586907e+00 -2.8420018901e-06 1.3731072612e+00 -2.3782915406e+00 1.3731072612e+00 2.3782915406e+00 
33200 7.3430509182e+00 -2.9304252373e-06 1.3731072612e+00 -2.3782915406e+00 1.3731072612e+00 2.3782915406e+00 
33300 7.3430428994e+00 -3.0216327665e-06 1.3731072612e+00 -2.3782915406e+00 1.3731072612e+00 2.3782915406e+00 
33400 7.3430346267e+00 -3.1157144900e-06 1.3731072612e+00 -2.3782915406e+00 1.3731072612e+00 2.3782915406e+00 
33500 7.3430260917e+00 -3.2127634898e-06 1.3731072612e+00 -2.3782915406e+00 1.3731072612e+00 2.3782915406e+00 
33600 7.3430172861e+00 -3.3128760325e-06 1.3731072612e+00 -2.3782915406e+00 1.3731072612e+00 2.3782915406e+00 
33700 7.3430082012e+00 -3.4161516898e-06 1.3731072612e+00 -2.3782915406e+00 1.3731072612e+00 2.3782915406e+00 
33800 7.3429988281e+00 -3.5226934635e-06 1.3731072612e+00 -2.3782915406e+00 1.3731072612e+00 2.3782915406e+00 
33900 7.3429891575e+00 -3.6326079160e-06 1.3731072612e+00 -2.3782915406e+00 1.3731072612e+00 2.3782915406e+00 
34000 7.3429791798e+00 -3.7460053069e-06 1.3731072612e+00 -2.3782915406e+00 1.3731072612e+00 2.3782915406e+00 
34100 7.3429688852e+00 -3.8629997357e-06 1.3731072612e+00 -2.3782915406e+00 1.3731072612e+00 2.3782915406e+00 
34200 7.3429582634e+00 -3.9837092902e-06 1.3731072612e+00 -2.3782915406e+00 1.3731072612e+00 2.3782915406e+00 
34300 7.3429473040e+00 -4.1082562021e-06 1.3731072612e+00 -2.3782915406e+00 1.3731072612e+00 2.3782915406e+00 
34400 7.3429359960e+00 -4.2367670096e-06 1.3731072612e+00 -2.3782915406e+00 1.3731072612e+00 2.3782915406e+00 
34500 7.3429243283e+00 -4.3693727273e-06 1.3731072612e+00 -2.3782915406e+00 1.3731072612e+00 2.3782915406e+00 
34600 7.3429122892e+00 -4.5062090237e-06 1.3731072612e+00 -2.3782915406e+00 1.3731072612e+00 2.3782915406e+00 
34700 7.3428998668e+00 -4.6474164072e-06 1.3731072612e+00 -2.3782915406e+00 1.3731072612e+00 2.3782915406e+00 
34800 7.3428870487e+00 -4.7931404202e-06 1.3731072612e+00 -2.3782915406e+00 1.3731072612e+00 2.3782915406e+00 
34900 7.3428738221e+00 -4.9435318432e-06 1.3731072612e+00 -2.3782915406e+00 1.3731072612e+00 2.3782915406e+00 
35000 7.3428601737e+00 -5.0987469077e-06 1.3731072612e+00 -2.3782915406e+00 1.3731072612e+00 2.3782915406e+00 
35100 7.3428460901e+00 -5.2589475192e-06 1.3731072612e+00 -2.3782915406e+00 1.3731072612e+00 2.3782915406e+00 
35200 7.3428315570e+00 -5.4243014914e-06 1.3731072612e+00 -2.3782915406e+00 1.3731072612e+00 2.3782915406e+00 
35300 7.3428165600e+00 -5.5949827910e-06 1.3731072612e+00 -2.3782915406e+00 1.3731072612e+00 2.3782915406e+00 
35400 7.3428010840e+00 -5.7711717953e-06 1.3731072612e+00 -2.3782915406e+00 1.3731072612e+00 2.3782915406e+00 
35500 7.3427851134e+00 -5.9530555607e-06 1.3731072612e+00 -2.3782915406e+00 1.3731072612e+00 2.3782915406e+00 
35600 7.3427686323e+00 -6.1408281064e-06 1.3731072612e+00 -2.3782915406e+00 1.3731072612e+00 2.3782915406e+00 
35700 7.3427516241e+00 -6.3346907104e-06 1.3731072612e+00 -2.3782915406e+00 1.3731072612e+00 2.3782915406e+00 
35800 7.3427340716e+00 -6.5348522211e-06 1.3731072612e+00 -2.3782915406e+00 1.3731072612e+00 2.3782915406e+00 
35900 7.3427159572e+00 -6.7415293844e-06 1.3731072612e+00 -2.3782915406e+00 1.3731072612e+00 2.3782915406e+00 
36000 7.3426972626e+00 -6.9549471870e-06 1.3731072612e+00 -2.3782915406e+00 1.3731072612e+00 2.3782915406e+00 
36100 7.3426779688e+00 -7.1753392172e-06 1.3731072612e+00 -2.3782915406e+00 1.3731072612e+00 2.3782915406e+00 
36200 7.3426580565e+00 -7.4029480444e-06 1.3731072612e+00 -2.3782915406e+00 1.3731072612e+00 2.3782915406e+00 
36300 7.3426375054e+00 -7.6380256174e-06 1.3731072612e+00 -2.3782915406e+00 1.3731072612e+00 2.3782915406e+00 
36400 7.3426162947e+00 -7.8808336843e-06 1.3731072612e+00 -2.3782915406e+00 1.3731072612e+00 2.3782915406e+00 
36500 7.3425944029e+00 -8.1316442333e-06 1.3731072612e+00 -2.3782915406e+00 1.3731072612e+00 2.3782915406e+00 
36600 7.3425718077e+00 -8.3907399568e-06 1.3731072612e+00 -2.3782915406e+00 1.3731072612e+00 2.3782915406e+00 
36700 7.3425484862e+00 -8.6584147405e-06 1.3731072612e+00 -2.3782915406e+00 1.3731072612e+00 2.3782915406e+00 
36800 7.3425244145e+00 -8.9349741775e-06 1.3731072612e+00 -2.3782915406e+00 1.3731072612e+00 2.3782915406e+00 
36900 7.3424995682e+00 -9.2207361109e-06 1.3731072612e+00 -2.3782915406e+00 1.3731072612e+00 2.3782915406e+00 
37000 7.3424739219e+00 -9.5160312039e-06 1.3731072612e+00 -2.3782915406e+00 1.3731072612e+00 2.3782915406e+00 
37100 7.3424474493e+00 -9.8212035427e-06 1.3731072612e+00 -2.3782915406e+00 1.3731072612e+00 2.3782915406e+00 
37200 7.3424201234e+00 -1.0136611270e-05 1.3731072612e+00 -2.3782915406e+00 1.3731072612e+00 2.3782915406e+00 
37300 7.3423919161e+00 -1.0462627255e-05 1.3731072612e+00 -2.3782915406e+00 1.3731072612e+00 2.3782915406e+00 
37400 7.3423627985e+00 -1.0799639799e-05 1.3731072612e+00 -2.3782915406e+00 1.3731072612e+00 2.3782915406e+00 
37500 7.3423327406e+00 -1.1148053379e-05 1.3731072612e+00 -2.3782915406e+00 1.3731072612e+00 2.3782915406e+00 
37600 7.3423017116e+00 -1.1508289434e-05 1.3731072612e+00 -2.3782915406e+00 1.3731072612e+00 2.3782915406e+00 
37700 7.3422696793e+00 -1.1880787199e-05 1.3731072612e+00 -2.3782915406e+00 1.3731072612e+00 2.3782915406e+00 
37800 7.3422366108e+00 -1.2266004574e-05 1.3731072612e+00 -2.3782915406e+00 1.3731072612e+00 2.3782915406e+00 
37900 7.3422024720e+00 -1.2664419056e-05 1.3731072612e+00 -2.3782915406e+00 1.3731072612e+00 2.3782915406e+00 
38000 7.3421672273e+00 -1.3076528715e-05 1.3731072612e+00 -2.3782915406e+00 1.3731072612e+00 2.3782915406e+00 
38100 7.3421308404e+00 -1.3502853225e-05 1.3731072612e+00 -2.3782915406e+00 1.3731072612e+00 2.3782915406e+00 
38200 7.3420932734e+00 -1.3943934964e-05 1.3731072612e+00 -2.3782915406e+00 1.3731072612e+00 2.3782915406e+00 
38300 7.3420544874e+00 -1.4400340164e-05 1.3731072612e+00 -2.3782915406e+00 1.3731072612e+00 2.3782915406e+00 
38400 7.3420144418e+00 -1.4872660134e-05 1.3731072612e+00 -2.3782915406e+00 1.3731072612e+00 2.3782915406e+00 
38500 7.3419730950e+00 -1.5361512558e-05 1.3731072612e+00 -2.3782915406e+00 1.3731072612e+00 2.3782915406e+00 
38600 7.3419304038e+00 -1.5867542859e-05 1.3731072612e+00 -2.3782915406e+00 1.3731072612e+00 2.3782915406e+00 
38700 7.3418863236e+00 -1.6391425652e-05 1.3731072612e+00 -2.3782915406e+00 1.3731072612e+00 2.3782915406e+00 
38800 7.3418408081e+00 -1.6933866273e-05 1.3731072612e+00 -2.3782915406e+00 1.3731072612e+00 2.3782915406e+00 
38900 7.3417938097e+00 -1.7495602411e-05 1.3731072612e+00 -2.3782915406e+00 1.3731072612e+00 2.3782915406e+00 
39000 7.3417452790e+00 -1.8077405826e-05 1.3731072612e+00 -2.3782915406e+00 1.3731072612e+00 2.3782915406e+00 
39100 7.3416951649e+00 -1.8680084169e-05 1.3731072612e+00 -2.3782915406e+00 1.3731072612e+00 2.3782915406e+00 
39200 7.3416434145e+00 -1.9304482922e-05 1.3731072612e+00 -2.3782915406e+00 1.3731072612e+00 2.3782915406e+00 
39300 7.3415899734e+00 -1.9951487441e-05 1.3731072612e+00 -2.3782915406e+00 1.3731072612e+00 2.3782915406e+00 
39400 7.3415347849e+00 -2.0622025132e-05 1.3731072612e+00 -2.3782915406e+00 1.3731072612e+00 2.3782915406e+00 
39500 7.3414777906e+00 -2.1317067752e-05 1.3731072612e+00 -2.3782915406e+00 1.3731072612e+00 2.3782915406e+00 
39600 7.3414189302e+00 -2.2037633852e-05 1.3731072612e+00 -2.3782915406e+00 1.3731072612e+00 2.3782915406e+00 
39700 7.3413581410e+00 -2.2784791372e-05 1.3731072612e+00 -2.3782915406e+00 1.3731072612e+00 2.3782915406e+00 
39800 7.3412953584e+00 -2.3559660389e-05 1.3731072612e+00 -2.3782915406e+00 1.3731072612e+00 2.3782915406e+00 
39900 7.3412305154e+00 -2.4363416034e-05 1.3731072612e+00 -2.3782915406e+00 1.3731072612e+00 2.3782915406e+00 
40000 7.3411635429e+00 -2.5197291596e-05 1.3731072612e+00 -2.3782915406e+00 1.3731072612e+00 2.3782915406e+00 
40100 7.3410943692e+00 -2.6062581807e-05 1.3731072612e+00 -2.3782915406e+00 1.3731072612e+00 2.3782915406e+00 
40200 7.3410229201e+00 -2.6960646336e-05 1.3731072612e+00 -2.3782915406e+00 1.3731072612e+00 2.3782915406e+00 
40300 7.3409491192e+00 -2.7892913499e-05 1.3731072612e+00 -2.3782915406e+00 1.3731072612e+00 2.3782915406e+00 
40400 7.3408728869e+00 -2.8860884199e-05 1.3731072612e+00 -2.3782915406e+00 1.3731072612e+00 2.3782915406e+00 
40500 7.3407941412e+00 -2.9866136116e-05 1.3731072612e+00 -2.3782915406e+00 1.3731072612e+00 2.3782915406e+00 
40600 7.3407127973e+00 -3.0910328148e-05 1.3731072612e+00 -2.3782915406e+00 1.3731072612e+00 2.3782915406e+00 
40700 7.3406287672e+00 -3.1995205146e-05 1.3731072612e+00 -2.3782915406e+00 1.3731072612e+00 2.3782915406e+00 
40800 7.3405419599e+00 -3.3122602933e-05 1.3731072612e+00 -2.3782915406e+00 1.3731072612e+00 2.3782915406e+00 
40900 7.3404522813e+00 -3.4294453650e-05 1.3731072612e+00 -2.3782915406e+00 1.3731072612e+00 2.3782915406e+00 
41000 7.3403596341e+00 -3.5512791431e-05 1.3731072612e+00 -2.3782915406e+00 1.3731072612e+00 2.3782915406e+00 
41100 7.3402639174e+00 -3.6779758440e-05 1.3731072612e+00 -2.3782915406e+00 1.3731072612e+00 2.3782915406e+00 
41200 7.3401650268e+00 -3.8097611297e-05 1.3731072612e+00 -2.3782915406e+00 1.3731072612e+00 2.3782915406e+00 
41300 7.3400628545e+00 -3.9468727903e-05 1.3731072612e+00 -2.3782915406e+00 1.3731072612e+00 2.3782915406e+00 
41400 7.3399572887e+00 -4.0895614707e-05 1.3731072612e+00 -2.3782915406e+00 1.3731072612e+00 2.3782915406e+00 
41500 7.3398482135e+00 -4.2380914430e-05 1.3731072612e+00 -2.3782915406e+00 1.3731072612e+00 2.3782915406e+00 
41600 7.3397355094e+00 -4.3927414291e-05 1.3731072612e+00 -2.3782915406e+00 1.3731072612e+00 2.3782915406e+00 
41700 7.3396190524e+00 -4.5538054750e-05 1.3731072612e+00 -2.3782915406e+00 1.3731072612e+00 2.3782915406e+00 
41800 7.3394987141e+00 -4.7215938820e-05 1.3731072612e+00 -2.3782915406e+00 1.3731072612e+00 2.3782915406e+00 
41900 7.3393743618e+00 -4.8964341972e-05 1.3731072612e+00 -2.3782915406e+00 1.3731072612e+00 2.3782915406e+00 
42000 7.3392458579e+00 -5.0786722679e-05 1.3731072612e+00 -2.3782915406e+00 1.3731072612e+00 2.3782915406e+00 
42100 7.3391130601e+00 -5.2686733634e-05 1.3731072612e+00 -2.3782915406e+00 1.3731072612e+00 2.3782915406e+00 
42200 7.3389758210e+00 -5.4668233701e-05 1.3731072612e+00 -2.3782915406e+00 1.3731072612e+00 2.3782915406e+00 
42300 7.3388339880e+00 -5.6735300624e-05 1.3731072612e+00 -2.3782915406e+00 1.3731072612e+00 2.3782915406e+00 
42400 7.3386874033e+00 -5.8892244567e-05 1.3731072612e+00 -2.3782915406e+00 1.3731072612e+00 2.3782915406e+00 
42500 7.3385359032e+00 -6.1143622524e-05 1.3731072612e+00 -2.3782915406e+00 1.3731072612e+00 2.3782915406e+00 
42600 7.3383793185e+00 -6.3494253664e-05 1.3731072612e+00 -2.3782915406e+00 1.3731072612e+00 2.3782915406e+00 
42700 7.3382174738e+00 -6.5949235663e-05 1.3731072612e+00 -2.3782915406e+00 1.3731072612e+00 2.3782915406e+00 
42800 7.3380501875e+00 -6.8513962102e-05 1.3731072612e+00 -2.3782915406e+00 1.3731072612e+00 2.3782915406e+00 
42900 7.3378772718e+00 -7.1194140985e-05 1.3731072612e+00 -2.3782915406e+00 1.3731072612e+00 2.3782915406e+00 
43000 7.3376985317e+00 -7.3949177088e-05 1.3731098536e+00 -2.3782960309e+00 1.3731098536e+00 2.3782960309e+00 
43100 7.3375137659e+00 -7.6826900301e-05 1.3731125464e+00 -2.3783006949e+00 1.3731125464e+00 2.3783006949e+00 
43200 7.3373227657e+00 -7.9833669446e-05 1.3731153439e+00 -2.3783055404e+00 1.3731153439e+00 2.3783055404e+00 
43300 7.3371253151e+00 -8.2976207871e-05 1.3731182510e+00 -2.3783105755e+00 1.3731182510e+00 2.3783105755e+00 
43400 7.3369211902e+00 -8.6261626000e-05 1.3731212724e+00 -2.3783158088e+00 1.3731212724e+00 2.3783158088e+00 
43500 7.3367101594e+00 -8.9697445247e-05 1.3731244135e+00 -2.3783212493e+00 1.3731244135e+00 2.3783212493e+00 
43600 7.3364919825e+00 -9.3291623399e-05 1.3731276797e+00 -2.3783269065e+00 1.3731276797e+00 2.3783269065e+00 
43700 7.3362664113e+00 -9.7052581537e-05 1.3731310767e+00 -2.3783327904e+00 1.3731310767e+00 2.3783327904e+00 
43800 7.3360331883e+00 -1.0098923260e-04 1.3731346107e+00 -2.3783389114e+00 1.3731346107e+00 2.3783389114e+00 
43900 7.3357920470e+00 -1.0511101169e-04 1.3731382881e+00 -2.3783452807e+00 1.3731382881e+00 2.3783452807e+00 
44000 7.3355427115e+00 -1.0942790822e-04 1.3731421155e+00 -2.3783519100e+00 1.3731421155e+00 2.3783519100e+00 
44100 7.3352848961e+00 -1.1395049996e-04 1.3731461000e+00 -2.3783588115e+00 1.3731461000e+00 2.3783588115e+00 
44200 7.3350183047e+00 -1.1868998926e-04 1.3731502493e+00 -2.3783659982e+00 1.3731502493e+00 2.3783659982e+00 
44300 7.3347426310e+00 -1.2365824131e-04 1.3731545711e+00 -2.3783734838e+00 1.3731545711e+00 2.3783734838e+00 
44400 7.3344575575e+00 -1.2886782483e-04 1.3731590738e+00 -2.3783812827e+00 1.3731590738e+00 2.3783812827e+00 
44500 7.3341627558e+00 -1.3433205506e-04 1.3731637662e+00 -2.3783894102e+00 1.3731637662e+00 2.3783894102e+00 
44600 7.3338578854e+00 -1.4006503945e-04 1.3731686575e+00 -2.3783978822e+00 1.3731686575e+00 2.3783978822e+00 
44700 7.3335425941e+00 -1.4608172597e-04 1.3731737576e+00 -2.3784067158e+00 1.3731737576e+00 2.3784067158e+00 
44800 7.3332165169e+00 -1.5239795426e-04 1.3731790767e+00 -2.3784159288e+00 1.3731790767e+00 2.3784159288e+00 
44900 7.3328792761e+00 -1.5903050989e-04 1.3731846258e+00 -2.3784255401e+00 1.3731846258e+00 2.3784255401e+00 
45000 7.3325304806e+00 -1.6599718160e-04 1.3731904164e+00 -2.3784355697e+00 1.3731904164e+00 2.3784355697e+00 
45100 7.3321697253e+00 -1.7331682206e-04 1.3731964606e+00 -2.3784460386e+00 1.3731964606e+00 2.3784460386e+00 
45200 7.3317965908e+00 -1.8100941197e-04 1.3732027713e+00 -2.3784569691e+00 1.3732027713e+00 2.3784569691e+00 
45300 7.3314106432e+00 -1.8909612786e-04 1.3732093621e+00 -2.3784683846e+00 1.3732093621e+00 2.3784683846e+00 
45400 7.3310114329e+00 -1.9759941381e-04 1.3732162473e+00 -2.3784803101e+00 1.3732162473e+00 2.3784803101e+00 
45500 7.3305984947e+00 -2.0654305703e-04 1.3732234421e+00 -2.3784927718e+00 1.3732234421e+00 2.3784927718e+00 
45600 7.3301713470e+00 -2.1595226779e-04 1.3732309625e+00 -2.3785057975e+00 1.3732309625e+00 2.3785057975e+00 
45700 7.3297294914e+00 -2.2585376368e-04 1.3732388254e+00 -2.3785194165e+00 1.3732388254e+00 2.3785194165e+00 
45800 7.3292724120e+00 -2.3627585843e-04 1.3732470488e+00 -2.3785336599e+00 1.3732470488e+00 2.3785336599e+00 
45900 7.3287995747e+00 -2.4724855557e-04 1.3732556516e+00 -2.3785485604e+00 1.3732556516e+00 2.3785485604e+00 
46000 7.3283104270e+00 -2.5880364699e-04 1.3732646539e+00 -2.3785641528e+00 1.3732646539e+00 2.3785641528e+00 
46100 7.3278043972e+00 -2.7097481666e-04 1.3732740769e+00 -2.3785804739e+00 1.3732740769e+00 2.3785804739e+00 
46200 7.3272808937e+00 -2.8379774980e-04 1.3732839429e+00 -2.3785975623e+00 1.3732839429e+00 2.3785975623e+00 
46300 7.3267393044e+00 -2.9731024743e-04 1.3732942757e+00 -2.3786154593e+00 1.3732942757e+00 2.3786154593e+00 
46400 7.3261789962e+00 -3.1155234673e-04 1.3733051004e+00 -2.3786342083e+00 1.3733051004e+00 2.3786342083e+00 
46500 7.3255993142e+00 -3.2656644726e-04 1.3733164436e+00 -2.3786538552e+00 1.3733164436e+00 2.3786538552e+00 
46600 7.3249995811e+00 -3.4239744324e-04 1.3733283333e+00 -2.3786744488e+00 1.3733283333e+00 2.3786744488e+00 
46700 7.3243790967e+00 -3.5909286199e-04 1.3733407993e+00 -2.3786960405e+00 1.3733407993e+00 2.3786960405e+00 
46800 7.3237371367e+00 -3.7670300869e-04 1.3733538730e+00 -2.3787186849e+00 1.3733538730e+00 2.3787186849e+00 
46900 7.3230729526e+00 -3.9528111764e-04 1.3733675878e+00 -2.3787424395e+00 1.3733675878e+00 2.3787424395e+00 
47000 7.3223857706e+00 -4.1488351002e-04 1.3733819787e+00 -2.3787673654e+00 1.3733819787e+00 2.3787673654e+00 
47100 7.3216747910e+00 -4.3556975817e-04 1.3733970832e+00 -2.3787935271e+00 1.3733970832e+00 2.3787935271e+00 
47200 7.3209391877e+00 -4.5740285661e-04 1.3734129406e+00 -2.3788209930e+00 1.3734129406e+00 2.3788209930e+00 
47300 7.3201781070e+00 -4.8044939959e-04 1.3734295927e+00 -2.3788498352e+00 1.3734295927e+00 2.3788498352e+00 
47400 7.3193906674e+00 -5.0477976522e-04 1.3734470836e+00 -2.3788801303e+00 1.3734470836e+00 2.3788801303e+00 
47500 7.3185759584e+00 -5.3046830610e-04 1.3734654600e+00 -2.3789119592e+00 1.3734654600e+00 2.3789119592e+00 
47600 7.3177330403e+00 -5.5759354620e-04 1.3734847714e+00 -2.3789454075e+00 1.3734847714e+00 2.3789454075e+00 
47700 7.3168609428e+00 -5.8623838383e-04 1.3735050700e+00 -2.3789805656e+00 1.3735050700e+00 2.3789805656e+00 
47800 7.3159586650e+00 -6.1649030051e-04 1.3735264110e+00 -2.3790175293e+00 1.3735264110e+00 2.3790175293e+00 
47900 7.3150251742e+00 -6.4844157509e-04 1.3735488529e+00 -2.3790563999e+00 1.3735488529e+00 2.3790563999e+00 
48000 7.3140594054e+00 -6.8218950297e-04 1.3735724576e+00 -2.3790972844e+00 1.3735724576e+00 2.3790972844e+00 
48100 7.3130602605e+00 -7.1783661970e-04 1.3735972903e+00 -2.3791402960e+00 1.3735972903e+00 2.3791402960e+00 
48200 7.3120266080e+00 -7.5549092822e-04 1.3736234202e+00 -2.3791855543e+00 1.3736234202e+00 2.3791855543e+00 
48300 7.3109572818e+00 -7.9526612915e-04 1.3736509202e+00 -2.3792331857e+00 1.3736509202e+00 2.3792331857e+00 
48400 7.3098510810e+00 -8.3728185301e-04 1.3736798675e+00 -2.3792833239e+00 1.3736798675e+00 2.3792833239e+00 
48500 7.3087067693e+00 -8.8166389342e-04 1.3737103435e+00 -2.3793361098e+00 1.3737103435e+00 2.3793361098e+00 
48600 7.3075230741e+00 -9.2854443997e-04 1.3737424342e+00 -2.3793916926e+00 1.3737424342e+00 2.3793916926e+00 
48700 7.3062986867e+00 -9.7806230940e-04 1.3737762305e+00 -2.3794502295e+00 1.3737762305e+00 2.3794502295e+00 
48800 7.3050322611e+00 -1.0303631735e-03 1.3738118283e+00 -2.3795118866e+00 1.3738118283e+00 2.3795118866e+00 
48900 7.3037224141e+00 -1.0855997819e-03 1.3738493286e+00 -2.3795768391e+00 1.3738493286e+00 2.3795768391e+00 
49000 7.3023677249e+00 -1.1439321777e-03 1.3738888382e+00 -2.3796452717e+00 1.3738888382e+00 2.3796452717e+00 
49100 7.3009667346e+00 -1.2055279039e-03 1.3739304696e+00 -2.3797173794e+00 1.3739304696e+00 2.3797173794e+00 
49200 7.2995179464e+00 -1.2705621981e-03 1.3739743413e+00 -2.3797933675e+00 1.3739743413e+00 2.3797933675e+00 
49300 7.2980198253e+00 -1.3392181720e-03 1.3740205783e+00 -2.3798734523e+00 1.3740205783e+00 2.3798734523e+00 
49400 7.2964707982e+00 -1.4116869744e-03 1.3740693122e+00 -2.3799578618e+00 1.3740693122e+00 2.3799578618e+00 
49500 7.2948692538e+00 -1.4881679327e-03 1.3741206813e+00 -2.3800468358e+00 1.3741206813e+00 2.3800468358e+00 
49600 7.2932135432e+00 -1.5688686697e-03 1.3741748315e+00 -2.3801406267e+00 1.3741748315e+00 2.3801406267e+00 
49700 7.2915019801e+00 -1.6540051931e-03 1.3742319159e+00 -2.3802394998e+00 1.3742319159e+00 2.3802394998e+00 
49800 7.2897328412e+00 -1.7438019515e-03 1.3742920956e+00 -2.3803437341e+00 1.3742920956e+00 2.3803437341e+00 
49900 7.2879043669e+00 -1.8384918546e-03 1.3743555398e+00 -2.3804536226e+00 1.3743555398e+00 2.3804536226e+00 
50000 7.2860147625e+00 -1.9383162505e-03 1.3744224259e+00 -2.3805694727e+00 1.3744224259e+00 2.3805694727e+00 
50100 7.2840621986e+00 -2.0435248575e-03 1.3744929404e+00 -2.3806916074e+00 1.3744929404e+00 2.3806916074e+00 
50200 7.2820448126e+00 -2.1543756430e-03 1.3745672784e+00 -2.3808203647e+00 1.3745672784e+00 2.3808203647e+00 
50300 7.2799607102e+00 -2.2711346452e-03 1.3746456448e+00 -2.3809560992e+00 1.3746456448e+00 2.3809560992e+00 
50400 7.2778079668e+00 -2.3940757309e-03 1.3747282536e+00 -2.3810991819e+00 1.3747282536e+00 2.3810991819e+00 
50500 7.2755846295e+00 -2.5234802849e-03 1.3748153290e+00 -2.3812500009e+00 1.3748153290e+00 2.3812500009e+00 
50600 7.2732887190e+00 -2.6596368218e-03 1.3749071053e+00 -2.3814089621e+00 1.3749071053e+00 2.3814089621e+00 
50700 7.2709182323e+00 -2.8028405179e-03 1.3750038270e+00 -2.3815764890e+00 1.3750038270e+00 2.3815764890e+00 
50800 7.2684711448e+00 -2.9533926532e-03 1.3751057495e+00 -2.3817530239e+00 1.3751057495e+00 2.3817530239e+00 
50900 7.2659454138e+00 -3.1115999594e-03 1.3752131387e+00 -2.3819390275e+00 1.3752131387e+00 2.3819390275e+00 
51000 7.2633389811e+00 -3.2777738668e-03 1.3753262718e+00 -2.3821349798e+00 1.3753262718e+00 2.3821349798e+00 
51100 7.2606497772e+00 -3.4522296444e-03 1.3754454371e+00 -2.3823413800e+00 1.3754454371e+00 2.3823413800e+00 
51200 7.2578757246e+00 -3.6352854267e-03 1.3755709339e+00 -2.3825587470e+00 1.3755709339e+00 2.3825587470e+00 
51300 7.2550147423e+00 -3.8272611232e-03 1.3757030734e+00 -2.3827876192e+00 1.3757030734e+00 2.3827876192e+00 
51400 7.2520647504e+00 -4.0284772042e-03 1.3758421777e+00 -2.3830285550e+00 1.3758421777e+00 2.3830285550e+00 
51500 7.2490236746e+00 -4.2392533605e-03 1.3759885807e+00 -2.3832821325e+00 1.3759885807e+00 2.3832821325e+00 
51600 7.2458894522e+00 -4.4599070324e-03 1.3761426275e+00 -2.3835489493e+00 1.3761426275e+00 2.3835489493e+00 
51700 7.2426600371e+00 -4.6907518059e-03 1.3763046745e+00 -2.3838296229e+00 1.3763046745e+00 2.3838296229e+00 
51800 7.2393334062e+00 -4.9320956764e-03 1.3764750891e+00 -2.3841247897e+00 1.3764750891e+00 2.3841247897e+00 
51900 7.2359075658e+00 -5.1842391782e-03 1.3766542497e+00 -2.3844351050e+00 1.3766542497e+00 2.3844351050e+00 
52000 7.2323805583e+00 -5.4474733832e-03 1.3768425453e+00 -2.3847612424e+00 1.3768425453e+00 2.3847612424e+00 
52100 7.2287504696e+00 -5.7220777714e-03 1.3770403748e+00 -2.3851038933e+00 1.3770403748e+00 2.3851038933e+00 
52200 7.2250154364e+00 -6.0083179794e-03 1.3772481473e+00 -2.3854637658e+00 1.3772481473e+00 2.3854637658e+00 
52300 7.2211736545e+00 -6.3064434339e-03 1.3774662807e+00 -2.3858415839e+00 1.3774662807e+00 2.3858415839e+00 
52400 7.2172233867e+00 -6.6166848800e-03 1.3776952017e+00 -2.3862380867e+00 1.3776952017e+00 2.3862380867e+00 
52500 7.2131629717e+00 -6.9392518168e-03 1.3779353447e+00 -2.3866540265e+00 1.3779353447e+00 2.3866540265e+00 
52600 7.2089908330e+00 -7.2743298549e-03 1.3781871512e+00 -2.3870901683e+00 1.3781871512e+00 2.3870901683e+00 
52700 7.2047054880e+00 -7.6220780123e-03 1.3784510690e+00 -2.3875472873e+00 1.3784510690e+00 2.3875472873e+00 
52800 7.2003055576e+00 -7.9826259699e-03 1.3787275508e+00 -2.3880261678e+00 1.3787275508e+00 2.3880261678e+00 
52900 7.1957897757e+00 -8.3560713084e-03 1.3790170535e+00 -2.3885276011e+00 1.3790170535e+00 2.3885276011e+00 
53000 7.1911569994e+00 -8.7424767513e-03 1.3793200366e+00 -2.3890523832e+00 1.3793200366e+00 2.3890523832e+00 
53100 7.1864062188e+00 -9.1418674426e-03 1.3796369613e+00 -2.3896013129e+00 1.3796369613e+00 2.3896013129e+00 
53200 7.1815365669e+00 -9.5542282894e-03 1.3799682887e+00 -2.3901751889e+00 1.3799682887e+00 2.3901751889e+00 
53300 7.1765473302e+00 -9.9795014011e-03 1.3803144789e+00 -2.3907748078e+00 1.3803144789e+00 2.3907748078e+00 
53400 7.1714379581e+00 -1.0417583659e-02 1.3806759884e+00 -2.3914009607e+00 1.3806759884e+00 2.3914009607e+00 
53500 7.1662080734e+00 -1.0868324453e-02 1.3810532695e+00 -2.3920544307e+00 1.3810532695e+00 2.3920544307e+00 
53600 7.1608574820e+00 -1.1331523623e-02 1.3814467677e+00 -2.3927359896e+00 1.3814467677e+00 2.3927359896e+00 
53700 7.1553861822e+00 -1.1806929641e-02 1.3818569205e+00 -2.3934463950e+00 1.3818569205e+00 2.3934463950e+00 
53800 7.1497943741e+00 -1.2294238070e-02 1.3822841549e+00 -2.3941863868e+00 1.3822841549e+00 2.3941863868e+00 
53900 7.1440824682e+00 -1.2793090339e-02 1.3827288861e+00 -2.3949566838e+00 1.3827288861e+00 2.3949566838e+00 
54000 7.1382510940e+00 -1.3303072877e-02 1.3831915149e+00 -2.3957579803e+00 1.3831915149e+00 2.3957579803e+00 
54100 7.1323011077e+00 -1.3823716620e-02 1.3836724260e+00 -2.3965909428e+00 1.3836724260e+00 2.3965909428e+00 
54200 7.1262335991e+00 -1.4354496946e-02 1.3841719860e+00 -2.3974562061e+00 1.3841719860e+00 2.3974562061e+00 
54300 7.1200498978e+00 -1.4894834047e-02 1.3846905412e+00 -2.3983543702e+00 1.3846905412e+00 2.3983543702e+00 
54400 7.1137515795e+00 -1.5444093776e-02 1.3852284158e+00 -2.3992859963e+00 1.3852284158e+00 2.3992859963e+00 
54500 7.1073404695e+00 -1.6001588981e-02 1.3857859098e+00 -2.4002516042e+00 1.3857859098e+00 2.4002516042e+00 
54600 7.1008186473e+00 -1.6566581331e-02 1.3863632969e+00 -2.4012516680e+00 1.3863632969e+00 2.4012516680e+00 
54700 7.0941884488e+00 -1.7138283664e-02 1.3869608232e+00 -2.4022866140e+00 1.3869608232e+00 2.4022866140e+00 
54800 7.0874524676e+00 -1.7715862836e-02 1.3875787050e+00 -2.4033568165e+00 1.3875787050e+00 2.4033568165e+00 
54900 7.0806135555e+00 -1.8298443069e-02 1.3882171272e+00 -2.4044625962e+00 1.3882171272e+00 2.4044625962e+00 
55000 7.0736748217e+00 -1.8885109798e-02 1.3888762420e+00 -2.4056042166e+00 1.3888762420e+00 2.4056042166e+00 
55100 7.0666396304e+00 -1.9474913976e-02 1.3895561676e+00 -2.4067818823e+00 1.3895561676e+00 2.4067818823e+00 
55200 7.0595115972e+00 -2.0066876819e-02 1.3902569867e+00 -2.4079957365e+00 1.3902569867e+00 2.4079957365e+00 
55300 7.0522945847e+00 -2.0659994955e-02 1.3909787458e+00 -2.4092458599e+00 1.3909787458e+00 2.4092458599e+00 
55400 7.0449926959e+00 -2.1253245925e-02 1.3917214542e+00 -2.4105322687e+00 1.3917214542e+00 2.4105322687e+00 
55500 7.0376102667e+00 -2.1845593999e-02 1.3924850836e+00 -2.4118549136e+00 1.3924850836e+00 2.4118549136e+00 
55600 7.0301518577e+00 -2.2435996237e-02 1.3932695675e+00 -2.4132136796e+00 1.3932695675e+00 2.4132136796e+00 
55700 7.0226222432e+00 -2.3023408738e-02 1.3940748014e+00 -2.4146083855e+00 1.3940748014e+00 2.4146083855e+00 
55800 7.0150264007e+00 -2.3606793019e-02 1.3949006423e+00 -2.4160387840e+00 1.3949006423e+00 2.4160387840e+00 
55900 7.0073694978e+00 -2.4185122442e-02 1.3957469097e+00 -2.4175045621e+00 1.3957469097e+00 2.4175045621e+00 
56000 6.9996568786e+00 -2.4757388625e-02 1.3966133856e+00 -2.4190053425e+00 1.3966133856e+00 2.4190053425e+00 
56100 6.9918940492e+00 -2.5322607764e-02 1.3974998158e+00 -2.4205406846e+00 1.3974998158e+00 2.4205406846e+00 
56200 6.9840866616e+00 -2.5879826795e-02 1.3984059105e+00 -2.4221100866e+00 1.3984059105e+00 2.4221100866e+00 
56300 6.9762404974e+00 -2.6428129321e-02 1.3993313456e+00 -2.4237129872e+00 1.3993313456e+00 2.4237129872e+00 
56400 6.9683614502e+00 -2.6966641240e-02 1.4002757645e+00 -2.4253487688e+00 1.4002757645e+00 2.4253487688e+00 
56500 6.9604555076e+00 -2.7494536008e-02 1.4012387795e+00 -2.4270167596e+00 1.4012387795e+00 2.4270167596e+00 
56600 6.9525287328e+00 -2.8011039488e-02 1.4022199735e+00 -2.4287162375e+00 1.4022199735e+00 2.4287162375e+00 
56700 6.9445872453e+00 -2.8515434311e-02 1.4032189024e+00 -2.4304464332e+00 1.4032189024e+00 2.4304464332e+00 
56800 6.9366372015e+00 -2.9007063726e-02 1.4042350972e+00 -2.4322065341e+00 1.4042350972e+00 2.4322065341e+00 
56900 6.9286847756e+00 -2.9485334892e-02 1.4052680658e+00 -2.4339956883e+00 1.4052680658e+00 2.4339956883e+00 
57000 6.9207361397e+00 -2.9949721574e-02 1.4063172963e+00 -2.4358130087e+00 1.4063172963e+00 2.4358130087e+00 
57100 6.9127974447e+00 -3.0399766239e-02 1.4073822586e+00 -2.4376575775e+00 1.4073822586e+00 2.4376575775e+00 
57200 6.9048748007e+00 -3.0835081520e-02 1.4084624076e+00 -2.4395284505e+00 1.4084624076e+00 2.4395284505e+00 
57300 6.8969742585e+00 -3.1255351062e-02 1.4095571856e+00 -2.4414246616e+00 1.4095571856e+00 2.4414246616e+00 
57400 6.8891017909e+00 -3.1660329738e-02 1.4106660248e+00 -2.4433452274e+00 1.4106660248e+00 2.4433452274e+00 
57500 6.8812632750e+00 -3.2049843263e-02 1.4117883501e+00 -2.4452891519e+00 1.4117883501e+00 2.4452891519e+00 
57600 6.8734644752e+00 -3.2423787216e-02 1.4129235817e+00 -2.4472554307e+00 1.4129235817e+00 2.4472554307e+00 
57700 6.8657110264e+00 -3.2782125494e-02 1.4140711375e+00 -2.4492430556e+00 1.4140711375e+00 2.4492430556e+00 
57800 6.8580084189e+00 -3.3124888253e-02 1.4152304356e+00 -2.4512510189e+00 1.4152304356e+00 2.4512510189e+00 
57900 6.8503619833e+00 -3.3452169347e-02 1.4164008969e+00 -2.4532783173e+00 1.4164008969e+00 2.4532783173e+00 
58000 6.8427768777e+00 -3.3764123329e-02 1.4175819472e+00 -2.4553239564e+00 1.4175819472e+00 2.4553239564e+00 
58100 6.8352580743e+00 -3.4060962053e-02 1.4187730193e+00 -2.4573869539e+00 1.4187730193e+00 2.4573869539e+00 
58200 6.8278103486e+00 -3.4342950937e-02 1.4199735553e+00 -2.4594663432e+00 1.4199735553e+00 2.4594663432e+00 
58300 6.8204382690e+00 -3.4610404921e-02 1.4211830082e+00 -2.4615611770e+00 1.4211830082e+00 2.4615611770e+00 
58400 6.8131461874e+00 -3.4863684199e-02 1.4224008437e+00 -2.4636705300e+00 1.4224008437e+00 2.4636705300e+00 
58500 6.8059382318e+00 -3.5103189754e-02 1.4236265420e+00 -2.4657935017e+00 1.4236265420e+00 2.4657935017e+00 
58600 6.7988182993e+00 -3.5329358767e-02 1.4248595989e+00 -2.4679292190e+00 1.4248595989e+00 2.4679292190e+00 
58700 6.7917900504e+00 -3.5542659939e-02 1.4260995273e+00 -2.4700768380e+00 1.4260995273e+00 2.4700768380e+00 
58800 6.7848569052e+00 -3.5743588791e-02 1.4273458580e+00 -2.4722355460e+00 1.4273458580e+00 2.4722355460e+00 
58900 6.7780220396e+00 -3.5932662966e-02 1.4285981407e+00 -2.4744045633e+00 1.4285981407e+00 2.4744045633e+00 
59000 6.7712883836e+00 -3.6110417602e-02 1.4298559447e+00 -2.4765831438e+00 1.4298559447e+00 2.4765831438e+00 
59100 6.7646586203e+00 -3.6277400793e-02 1.4311188596e+00 -2.4787705766e+00 1.4311188596e+00 2.4787705766e+00 
59200 6.7581351858e+00 -3.6434169198e-02 1.4323864955e+00 -2.4809661862e+00 1.4323864955e+00 2.4809661862e+00 
59300 6.7517202706e+00 -3.6581283803e-02 1.4336584830e+00 -2.4831693333e+00 1.4336584830e+00 2.4831693333e+00 
59400 6.7454158212e+00 -3.6719305895e-02 1.4349344740e+00 -2.4853794144e+00 1.4349344740e+00 2.4853794144e+00 
59500 6.7392235435e+00 -3.6848793240e-02 1.4362141407e+00 -2.4875958622e+00 1.4362141407e+00 2.4875958622e+00 
59600 6.7331449061e+00 -3.6970296514e-02 1.4374971762e+00 -2.4898181449e+00 1.4374971762e+00 2.4898181449e+00 
59700 6.7271811452e+00 -3.7084355981e-02 1.4387832936e+00 -2.4920457656e+00 1.4387832936e+00 2.4920457656e+00 
59800 6.7213332697e+00 -3.7191498445e-02 1.4400722260e+00 -2.4942782619e+00 1.4400722260e+00 2.4942782619e+00 
59900 6.7156020672e+00 -3.7292234471e-02 1.4413637255e+00 -2.4965152047e+00 1.4413637255e+00 2.4965152047e+00 
60000 6.7099881105e+00 -3.7387055893e-02 1.4426575630e+00 -2.4987561970e+00 1.4426575630e+00 2.4987561970e+00 
60100 6.7044917643e+00 -3.7476433600e-02 1.4439535270e+00 -2.5010008726e+00 1.4439535270e+00 2.5010008726e+00 
60200 6.6991131935e+00 -3.7560815600e-02 1.4452514234e+00 -2.5032488951e+00 1.4452514234e+00 2.5032488951e+00 
60300 6.6938523699e+00 -3.7640625370e-02 1.4465510741e+00 -2.5054999561e+00 1.4465510741e+00 2.5054999561e+00 
60400 6.6887090818e+00 -3.7716260461e-02 1.4478523162e+00 -2.5077537735e+00 1.4478523162e+00 2.5077537735e+00 
60500 6.6836829412e+00 -3.7788091378e-02 1.4491550012e+00 -2.5100100901e+00 1.4491550012e+00 2.5100100901e+00 
60600 6.6787733935e+00 -3.7856460702e-02 1.4504589940e+00 -2.5122686718e+00 1.4504589940e+00 2.5122686718e+00 
60700 6.6739797260e+00 -3.7921682455e-02 1.4517641716e+00 -2.5145293058e+00 1.4517641716e+00 2.5145293058e+00 
60800 6.6693010769e+00 -3.7984041687e-02 1.4530704224e+00 -2.5167917986e+00 1.4530704224e+00 2.5167917986e+00 
60900 6.6647364446e+00 -3.8043794283e-02 1.4543776450e+00 -2.5190559746e+00 1.4543776450e+00 2.5190559746e+00 
61000 6.6602846966e+00 -3.8101166959e-02 1.4556857472e+00 -2.5213216740e+00 1.4556857472e+00 2.5213216740e+00 
61100 6.6559445788e+00 -3.8156357448e-02 1.4569946448e+00 -2.5235887511e+00 1.4569946448e+00 2.5235887511e+00 
61200 6.6517147243e+00 -3.8209534849e-02 1.4583042607e+00 -2.5258570724e+00 1.4583042607e+00 2.5258570724e+00 
61300 6.6475936629e+00 -3.8260840131e-02 1.4596145240e+00 -2.5281265150e+00 1.4596145240e+00 2.5281265150e+00 
61400 6.6435798291e+00 -3.8310386775e-02 1.4609253688e+00 -2.5303969648e+00 1.4609253688e+00 2.5303969648e+00 
61500 6.6396715715e+00 -3.8358261535e-02 1.4622367332e+00 -2.5326683146e+00 1.4622367332e+00 2.5326683146e+00 
61600 6.6358671609e+00 -3.8404525316e-02 1.4635485588e+00 -2.5349404632e+00 1.4635485588e+00 2.5349404632e+00 
61700 6.6321647986e+00 -3.8449214137e-02 1.4648607892e+00 -2.5372133129e+00 1.4648607892e+00 2.5372133129e+00 
61800 6.6285626247e+00 -3.8492340179e-02 1.4661733696e+00 -2.5394867688e+00 1.4661733696e+00 2.5394867688e+00 
61900 6.6250587255e+00 -3.8533892903e-02 1.4674862456e+00 -2.5417607369e+00 1.4674862456e+00 2.5417607369e+00 
62000 6.6216511413e+00 -3.8573840225e-02 1.4687993630e+00 -2.5440351229e+00 1.4687993630e+00 2.5440351229e+00 
62100 6.6183378734e+00 -3.8612129731e-02 1.4701126664e+00 -2.5463098310e+00 1.4701126664e+00 2.5463098310e+00 
62200 6.6151168914e+00 -3.8648689935e-02 1.4714260988e+00 -2.5485847627e+00 1.4714260988e+00 2.5485847627e+00 
62300 6.6119861394e+00 -3.8683431553e-02 1.4727396012e+00 -2.5508598156e+00 1.4727396012e+00 2.5508598156e+00 
62400 6.6089435426e+00 -3.8716248799e-02 1.4740531116e+00 -2.5531348823e+00 1.4740531116e+00 2.5531348823e+00 
62500 6.6059870131e+00 -3.8747020691e-02 1.4753665647e+00 -2.5554098498e+00 1.4753665647e+00 2.5554098498e+00 
62600 6.6031144560e+00 -3.8775612348e-02 1.4766798913e+00 -2.5576845983e+00 1.4766798913e+00 2.5576845983e+00 
62700 6.6003237742e+00 -3.8801876290e-02 1.4779930179e+00 -2.5599590003e+00 1.4779930179e+00 2.5599590003e+00 
62800 6.5976128739e+00 -3.8825653721e-02 1.4793058663e+00 -2.5622329204e+00 1.4793058663e+00 2.5622329204e+00 
62900 6.5949796689e+00 -3.8846775791e-02 1.4806183531e+00 -2.5645062142e+00 1.4806183531e+00 2.5645062142e+00 
63000 6.5924220854e+00 -3.8865064847e-02 1.4819303896e+00 -2.5667787281e+00 1.4819303896e+00 2.5667787281e+00 
63100 6.5899380659e+00 -3.8880335641e-02 1.4832418814e+00 -2.5690502986e+00 1.4832418814e+00 2.5690502986e+00 
63200 6.5875255730e+00 -3.8892396518e-02 1.4845527282e+00 -2.5713207518e+00 1.4845527282e+00 2.5713207518e+00 
63300 6.5851825929e+00 -3.8901050571e-02 1.4858628235e+00 -2.5735899034e+00 1.4858628235e+00 2.5735899034e+00 
63400 6.5829071385e+00 -3.8906096751e-02 1.4871720547e+00 -2.5758575583e+00 1.4871720547e+00 2.5758575583e+00 
63500 6.5806972523e+00 -3.8907330950e-02 1.4884803026e+00 -2.5781235101e+00 1.4884803026e+00 2.5781235101e+00 
63600 6.5785510092e+00 -3.8904547030e-02 1.4897874418e+00 -2.5803875417e+00 1.4897874418e+00 2.5803875417e+00 
63700 6.5764665188e+00 -3.8897537826e-02 1.4910933403e+00 -2.5826494243e+00 1.4910933403e+00 2.5826494243e+00 
63800 6.5744419270e+00 -3.8886096091e-02 1.4923978597e+00 -2.5849089182e+00 1.4923978597e+00 2.5849089182e+00 
63900 6.5724754187e+00 -3.8870015410e-02 1.4937008551e+00 -2.5871657723e+00 1.4937008551e+00 2.5871657723e+00 
64000 6.5705652187e+00 -3.8849091062e-02 1.4950021750e+00 -2.5894197245e+00 1.4950021750e+00 2.5894197245e+00 
64100 6.5687095933e+00 -3.8823120840e-02 1.4963016619e+00 -2.5916705018e+00 1.4963016619e+00 2.5916705018e+00 
64200 6.5669068515e+00 -3.8791905827e-02 1.4975991518e+00 -2.5939178202e+00 1.4975991518e+00 2.5939178202e+00 
64300 6.5651553458e+00 -3.8755251130e-02 1.4988944747e+00 -2.5961613854e+00 1.4988944747e+00 2.5961613854e+00 
64400 6.5634534730e+00 -3.8712966563e-02 1.5001874549e+00 -2.5984008928e+00 1.5001874549e+00 2.5984008928e+00 
64500 6.5617996749e+00 -3.8664867298e-02 1.5014779107e+00 -2.6006360278e+00 1.5014779107e+00 2.6006360278e+00 
64600 6.5601924385e+00 -3.8610774461e-02 1.5027656549e+00 -2.6028664661e+00 1.5027656549e+00 2.6028664661e+00 
64700 6.5586302963e+00 -3.8550515692e-02 1.5040504950e+00 -2.6050918744e+00 1.5040504950e+00 2.6050918744e+00 
64800 6.5571118261e+00 -3.8483925669e-02 1.5053322334e+00 -2.6073119105e+00 1.5053322334e+00 2.6073119105e+00 
64900 6.5556356514e+00 -3.8410846577e-02 1.5066106677e+00 -2.6095262236e+00 1.5066106677e+00 2.6095262236e+00 
65000 6.5542004408e+00 -3.8331128553e-02 1.5078855909e+00 -2.6117344554e+00 1.5078855909e+00 2.6117344554e+00 
65100 6.5528049079e+00 -3.8244630081e-02 1.5091567918e+00 -2.6139362399e+00 1.5091567918e+00 2.6139362399e+00 
65200 6.5514478105e+00 -3.8151218357e-02 1.5104240550e+00 -2.6161312042e+00 1.5104240550e+00 2.6161312042e+00 
65300 6.5501279506e+00 -3.8050769613e-02 1.5116871615e+00 -2.6183189689e+00 1.5116871615e+00 2.6183189689e+00 
65400 6.5488441731e+00 -3.7943169406e-02 1.5129458890e+00 -2.6204991489e+00 1.5129458890e+00 2.6204991489e+00 
65500 6.5475953656e+00 -3.7828312873e-02 1.5142000121e+00 -2.6226713538e+00 1.5142000121e+00 2.6226713538e+00 
65600 6.5463804573e+00 -3.7706104957e-02 1.5154493025e+00 -2.6248351882e+00 1.5154493025e+00 2.6248351882e+00 
65700 6.5451984181e+00 -3.7576460590e-02 1.5166935295e+00 -2.6269902526e+00 1.5166935295e+00 2.6269902526e+00 
65800 6.5440482579e+00 -3.7439304859e-02 1.5179324605e+00 -2.6291361440e+00 1.5179324605e+00 2.6291361440e+00 
65900 6.5429290254e+00 -3.7294573126e-02 1.5191658609e+00 -2.6312724561e+00 1.5191658609e+00 2.6312724561e+00 
66000 6.5418398070e+00 -3.7142211137e-02 1.5203934948e+00 -2.6333987805e+00 1.5203934948e+00 2.6333987805e+00 
66100 6.5407797261e+00 -3.6982175084e-02 1.5216151253e+00 -2.6355147065e+00 1.5216151253e+00 2.6355147065e+00 
66200 6.5397479414e+00 -3.6814431656e-02 1.5228305145e+00 -2.6376198225e+00 1.5228305145e+00 2.6376198225e+00 
66300 6.5387436462e+00 -3.6638958056e-02 1.5240394244e+00 -2.6397137159e+00 1.5240394244e+00 2.6397137159e+00 
66400 6.5377660672e+00 -3.6455741994e-02 1.5252416168e+00 -2.6417959741e+00 1.5252416168e+00 2.6417959741e+00 
66500 6.5368144632e+00 -3.6264781657e-02 1.5264368536e+00 -2.6438661850e+00 1.5264368536e+00 2.6438661850e+00 
66600 6.5358881238e+00 -3.6066085659e-02 1.5276248976e+00 -2.6459239375e+00 1.5276248976e+00 2.6459239375e+00 
66700 6.5349863686e+00 -3.5859672961e-02 1.5288055122e+00 -2.6479688221e+00 1.5288055122e+00 2.6479688221e+00 
66800 6.5341085457e+00 -3.5645572783e-02 1.5299784624e+00 -2.6500004314e+00 1.5299784624e+00 2.6500004314e+00 
66900 6.5332540305e+00 -3.5423824484e-02 1.5311435145e+00 -2.6520183608e+00 1.5311435145e+00 2.6520183608e+00 
67000 6.5324222248e+00 -3.5194477429e-02 1.5323004368e+00 -2.6540222091e+00 1.5323004368e+00 2.6540222091e+00 
67100 6.5316125552e+00 -3.4957590837e-02 1.5334489998e+00 -2.6560115784e+00 1.5334489998e+00 2.6560115784e+00 
67200 6.5308244724e+00 -3.4713233615e-02 1.5345889763e+00 -2.6579860758e+00 1.5345889763e+00 2.6579860758e+00 
67300 6.5300574499e+00 -3.4461484168e-02 1.5357201423e+00 -2.6599453126e+00 1.5357201423e+00 2.6599453126e+00 
67400 6.5293109826e+00 -3.4202430203e-02 1.5368422763e+00 -2.6618889058e+00 1.5368422763e+00 2.6618889058e+00 
67500 6.5285845862e+00 -3.3936168512e-02 1.5379551607e+00 -2.6638164780e+00 1.5379551607e+00 2.6638164780e+00 
67600 6.5278777956e+00 -3.3662804746e-02 1.5390585811e+00 -2.6657276583e+00 1.5390585811e+00 2.6657276583e+00 
67700 6.5271901645e+00 -3.3382453173e-02 1.5401523273e+00 -2.6676220822e+00 1.5401523273e+00 2.6676220822e+00 
67800 6.5265212638e+00 -3.3095236425e-02 1.5412361930e+00 -2.6694993927e+00 1.5412361930e+00 2.6694993927e+00 
67900 6.5258706809e+00 -3.2801285238e-02 1.5423099763e+00 -2.6713592400e+00 1.5423099763e+00 2.6713592400e+00 
68000 6.5252380185e+00 -3.2500738175e-02 1.5433734802e+00 -2.6732012827e+00 1.5433734802e+00 2.6732012827e+00 
68100 6.5246228942e+00 -3.2193741343e-02 1.5444265121e+00 -2.6750251876e+00 1.5444265121e+00 2.6750251876e+00 
68200 6.5240249389e+00 -3.1880448107e-02 1.5454688848e+00 -2.6768306300e+00 1.5454688848e+00 2.6768306300e+00 
68300 6.5234437967e+00 -3.1561018786e-02 1.5465004161e+00 -2.6786172947e+00 1.5465004161e+00 2.6786172947e+00 
68400 6.5228791234e+00 -3.1235620349e-02 1.5475209295e+00 -2.6803848757e+00 1.5475209295e+00 2.6803848757e+00 
68500 6.5223305859e+00 -3.0904426102e-02 1.5485302539e+00 -2.6821330769e+00 1.5485302539e+00 2.6821330769e+00 
68600 6.5217978620e+00 -3.0567615372e-02 1.5495282242e+00 -2.6838616121e+00 1.5495282242e+00 2.6838616121e+00 
68700 6.5212806387e+00 -3.0225373184e-02 1.5505146811e+00 -2.6855702056e+00 1.5505146811e+00 2.6855702056e+00 
68800 6.5207786124e+00 -2.9877889934e-02 1.5514894715e+00 -2.6872585921e+00 1.5514894715e+00 2.6872585921e+00 
68900 6.5202914876e+00 -2.9525361060e-02 1.5524524487e+00 -2.6889265175e+00 1.5524524487e+00 2.6889265175e+00 
69000 6.5198189768e+00 -2.9167986710e-02 1.5534034721e+00 -2.6905737384e+00 1.5534034721e+00 2.6905737384e+00 
69100 6.5193607995e+00 -2.8805971406e-02 1.5543424080e+00 -2.6922000229e+00 1.5543424080e+00 2.6922000229e+00 
69200 6.5189166819e+00 -2.8439523711e-02 1.5552691289e+00 -2.6938051506e+00 1.5552691289e+00 2.6938051506e+00 
69300 6.5184863561e+00 -2.8068855891e-02 1.5561835143e+00 -2.6953889126e+00 1.5561835143e+00 2.6953889126e+00 
69400 6.5180695602e+00 -2.7694183578e-02 1.5570854505e+00 -2.6969511120e+00 1.5570854505e+00 2.6969511120e+00 
69500 6.5176660370e+00 -2.7315725435e-02 1.5579748307e+00 -2.6984915636e+00 1.5579748307e+00 2.6984915636e+00 
69600 6.5172755343e+00 -2.6933702820e-02 1.5588515549e+00 -2.7000100945e+00 1.5588515549e+00 2.7000100945e+00 
69700 6.5168978041e+00 -2.6548339457e-02 1.5597155303e+00 -2.7015065439e+00 1.5597155303e+00 2.7015065439e+00 
69800 6.5165326024e+00 -2.6159861098e-02 1.5605666712e+00 -2.7029807631e+00 1.5605666712e+00 2.7029807631e+00 
69900 6.5161796888e+00 -2.5768495202e-02 1.5614048988e+00 -2.7044326159e+00 1.5614048988e+00 2.7044326159e+00 
70000 6.5158388261e+00 -2.5374470603e-02 1.5622301416e+00 -2.7058619784e+00 1.5622301416e+00 2.7058619784e+00 
70100 6.5155097802e+00 -2.4978017195e-02 1.5630423353e+00 -2.7072687391e+00 1.5630423353e+00 2.7072687391e+00 
70200 6.5151923197e+00 -2.4579365612e-02 1.5638414225e+00 -2.7086527988e+00 1.5638414225e+00 2.7086527988e+00 
70300 6.5148862157e+00 -2.4178746915e-02 1.5646273533e+00 -2.7100140709e+00 1.5646273533e+00 2.7100140709e+00 
70400 6.5145912416e+00 -2.3776392288e-02 1.5654000848e+00 -2.7113524811e+00 1.5654000848e+00 2.7113524811e+00 
70500 6.5143071728e+00 -2.3372532732e-02 1.5661595812e+00 -2.7126679674e+00 1.5661595812e+00 2.7126679674e+00 
70600 6.5140337867e+00 -2.2967398771e-02 1.5669058138e+00 -2.7139604802e+00 1.5669058138e+00 2.7139604802e+00 
70700 6.5137708624e+00 -2.2561220165e-02 1.5676387612e+00 -2.7152299822e+00 1.5676387612e+00 2.7152299822e+00 
70800 6.5135181806e+00 -2.2154225624e-02 1.5683584086e+00 -2.7164764482e+00 1.5683584086e+00 2.7164764482e+00 
70900 6.5132755237e+00 -2.1746642531e-02 1.5690647487e+00 -2.7176998651e+00 1.5690647487e+00 2.7176998651e+00 
71000 6.5130426752e+00 -2.1338696678e-02 1.5697577807e+00 -2.7189002318e+00 1.5697577807e+00 2.7189002318e+00 
71100 6.5128194202e+00 -2.0930611999e-02 1.5704375109e+00 -2.7200775591e+00 1.5704375109e+00 2.7200775591e+00 
71200 6.5126055449e+00 -2.0522610323e-02 1.5711039523e+00 -2.7212318694e+00 1.5711039523e+00 2.7212318694e+00 
71300 6.5124008368e+00 -2.0114911123e-02 1.5717571246e+00 -2.7223631970e+00 1.5717571246e+00 2.7223631970e+00 
71400 6.5122050845e+00 -1.9707731283e-02 1.5723970542e+00 -2.7234715875e+00 1.5723970542e+00 2.7234715875e+00 
71500 6.5120180778e+00 -1.9301284867e-02 1.5730237737e+00 -2.7245570976e+00 1.5730237737e+00 2.7245570976e+00 
71600 6.5118396076e+00 -1.8895782900e-02 1.5736373226e+00 -2.7256197954e+00 1.5736373226e+00 2.7256197954e+00 
71700 6.5116694660e+00 -1.8491433158e-02 1.5742377463e+00 -2.7266597598e+00 1.5742377463e+00 2.7266597598e+00 
71800 6.5115074461e+00 -1.8088439966e-02 1.5748250967e+00 -2.7276770805e+00 1.5748250967e+00 2.7276770805e+00 
71900 6.5113533423e+00 -1.7687004003e-02 1.5753994315e+00 -2.7286718577e+00 1.5753994315e+00 2.7286718577e+00 
72000 6.5112069502e+00 -1.7287322120e-02 1.5759608147e+00 -2.7296442018e+00 1.5759608147e+00 2.7296442018e+00 
72100 6.5110680664e+00 -1.6889587165e-02 1.5765093158e+00 -2.7305942336e+00 1.5765093158e+00 2.7305942336e+00 
72200 6.5109364891e+00 -1.6493987820e-02 1.5770450102e+00 -2.7315220834e+00 1.5770450102e+00 2.7315220834e+00 
72300 6.5108120175e+00 -1.6100708441e-02 1.5775679787e+00 -2.7324278915e+00 1.5775679787e+00 2.7324278915e+00 
72400 6.5106944523e+00 -1.5709928918e-02 1.5780783078e+00 -2.7333118074e+00 1.5780783078e+00 2.7333118074e+00 
72500 6.5105835956e+00 -1.5321824532e-02 1.5785760890e+00 -2.7341739898e+00 1.5785760890e+00 2.7341739898e+00 
72600 6.5104792510e+00 -1.4936565832e-02 1.5790614191e+00 -2.7350146061e+00 1.5790614191e+00 2.7350146061e+00 
72700 6.5103812236e+00 -1.4554318515e-02 1.5795343998e+00 -2.7358338327e+00 1.5795343998e+00 2.7358338327e+00 
72800 6.5102893203e+00 -1.4175243320e-02 1.5799951376e+00 -2.7366318541e+00 1.5799951376e+00 2.7366318541e+00 
72900 6.5102033495e+00 -1.3799495924e-02 1.5804437439e+00 -2.7374088629e+00 1.5804437439e+00 2.7374088629e+00 
73000 6.5101231213e+00 -1.3427226859e-02 1.5808803343e+00 -2.7381650597e+00 1.5808803343e+00 2.7381650597e+00 
73100 6.5100484480e+00 -1.3058581424e-02 1.5813050289e+00 -2.7389006523e+00 1.5813050289e+00 2.7389006523e+00 
73200 6.5099791435e+00 -1.2693699621e-02 1.5817179521e+00 -2.7396158562e+00 1.5817179521e+00 2.7396158562e+00 
73300 6.5099150239e+00 -1.2332716086e-02 1.5821192321e+00 -2.7403108936e+00 1.5821192321e+00 2.7403108936e+00 
73400 6.5098559072e+00 -1.1975760036e-02 1.5825090011e+00 -2.7409859934e+00 1.5825090011e+00 2.7409859934e+00 
73500 6.5098016138e+00 -1.1622955230e-02 1.5828873951e+00 -2.7416413910e+00 1.5828873951e+00 2.7416413910e+00 
73600 6.5097519663e+00 -1.1274419925e-02 1.5832545534e+00 -2.7422773278e+00 1.5832545534e+00 2.7422773278e+00 
73700 6.5097067895e+00 -1.0930266851e-02 1.5836106188e+00 -2.7428940511e+00 1.5836106188e+00 2.7428940511e+00 
73800 6.5096659107e+00 -1.0590603192e-02 1.5839557372e+00 -2.7434918137e+00 1.5839557372e+00 2.7434918137e+00 
73900 6.5096291597e+00 -1.0255530573e-02 1.5842900576e+00 -2.7440708737e+00 1.5842900576e+00 2.7440708737e+00 
74000 6.5095963688e+00 -9.9251450577e-03 1.5846137319e+00 -2.7446314941e+00 1.5846137319e+00 2.7446314941e+00 
74100 6.5095673731e+00 -9.5995371494e-03 1.5849269146e+00 -2.7451739424e+00 1.5849269146e+00 2.7451739424e+00 
74200 6.5095420102e+00 -9.2787918047e-03 1.5852297627e+00 -2.7456984908e+00 1.5852297627e+00 2.7456984908e+00 
74300 6.5095201207e+00 -8.9629884513e-03 1.5855224357e+00 -2.7462054152e+00 1.5855224357e+00 2.7462054152e+00 
74400 6.5095015478e+00 -8.6522010134e-03 1.5858050950e+00 -2.7466949955e+00 1.5858050950e+00 2.7466949955e+00 
74500 6.5094861378e+00 -8.3464979445e-03 1.5860779044e+00 -2.7471675152e+00 1.5860779044e+00 2.7471675152e+00 
74600 6.5094737398e+00 -8.0459422659e-03 1.5863410292e+00 -2.7476232607e+00 1.5863410292e+00 2.7476232607e+00 
74700 6.5094642062e+00 -7.7505916126e-03 1.5865946366e+00 -2.7480625216e+00 1.5865946366e+00 2.7480625216e+00 
74800 6.5094573921e+00 -7.4604982844e-03 1.5868388953e+00 -2.7484855901e+00 1.5868388953e+00 2.7484855901e+00 
74900 6.5094531562e+00 -7.1757093036e-03 1.5870739753e+00 -2.7488927606e+00 1.5870739753e+00 2.7488927606e+00 
75000 6.5094513599e+00 -6.8962664780e-03 1.5873000479e+00 -2.7492843299e+00 1.5873000479e+00 2.7492843299e+00 
75100 6.5094518682e+00 -6.6222064689e-03 1.5875172855e+00 -2.7496605964e+00 1.5875172855e+00 2.7496605964e+00 
75200 6.5094545491e+00 -6.3535608655e-03 1.5877258612e+00 -2.7500218601e+00 1.5877258612e+00 2.7500218601e+00 
75300 6.5094592741e+00 -6.0903562627e-03 1.5879259491e+00 -2.7503684225e+00 1.5879259491e+00 2.7503684225e+00 
75400 6.5094659178e+00 -5.8326143444e-03 1.5881177238e+00 -2.7507005859e+00 1.5881177238e+00 2.7507005859e+00 
75500 6.5094743584e+00 -5.5803519712e-03 1.5883013602e+00 -2.7510186536e+00 1.5883013602e+00 2.7510186536e+00 
75600 6.5094844772e+00 -5.3335812720e-03 1.5884770339e+00 -2.7513229294e+00 1.5884770339e+00 2.7513229294e+00 
75700 6.5094961592e+00 -5.0923097393e-03 1.5886449203e+00 -2.7516137172e+00 1.5886449203e+00 2.7516137172e+00 
75800 6.5095092926e+00 -4.8565403287e-03 1.5888051952e+00 -2.7518913213e+00 1.5888051952e+00 2.7518913213e+00 
75900 6.5095237692e+00 -4.6262715614e-03 1.5889580339e+00 -2.7521560457e+00 1.5889580339e+00 2.7521560457e+00 
76000 6.5095394839e+00 -4.4014976299e-03 1.5891036117e+00 -2.7524081940e+00 1.5891036117e+00 2.7524081940e+00 
76100 6.5095563354e+00 -4.1822085065e-03 1.5892421037e+00 -2.7526480691e+00 1.5892421037e+00 2.7526480691e+00 
76200 6.5095742256e+00 -3.9683900548e-03 1.5893736842e+00 -2.7528759732e+00 1.5893736842e+00 2.7528759732e+00 
76300 6.5095930600e+00 -3.7600241432e-03 1.5894985272e+00 -2.7530922076e+00 1.5894985272e+00 2.7530922076e+00 
76400 6.5096127473e+00 -3.5570887606e-03 1.5896168057e+00 -2.7532970720e+00 1.5896168057e+00 2.7532970720e+00 
76500 6.5096331997e+00 -3.3595581348e-03 1.5897286921e+00 -2.7534908649e+00 1.5897286921e+00 2.7534908649e+00 
76600 6.5096543329e+00 -3.1674028511e-03 1.5898343578e+00 -2.7536738833e+00 1.5898343578e+00 2.7536738833e+00 
76700 6.5096760658e+00 -2.9805899740e-03 1.5899339731e+00 -2.7538464220e+00 1.5899339731e+00 2.7538464220e+00 
76800 6.5096983206e+00 -2.7990831693e-03 1.5900277071e+00 -2.7540087742e+00 1.5900277071e+00 2.7540087742e+00 
76900 6.5097210231e+00 -2.6228428270e-03 1.5901157279e+00 -2.7541612306e+00 1.5901157279e+00 2.7541612306e+00 
77000 6.5097441020e+00 -2.4518261857e-03 1.5901982019e+00 -2.7543040798e+00 1.5901982019e+00 2.7543040798e+00 
77100 6.5097674895e+00 -2.2859874575e-03 1.5902752944e+00 -2.7544376079e+00 1.5902752944e+00 2.7544376079e+00 
77200 6.5097911209e+00 -2.1252779528e-03 1.5903471689e+00 -2.7545620982e+00 1.5903471689e+00 2.7545620982e+00 
77300 6.5098149347e+00 -1.9696462058e-03 1.5904139874e+00 -2.7546778312e+00 1.5904139874e+00 2.7546778312e+00 
77400 6.5098388725e+00 -1.8190381001e-03 1.5904759102e+00 -2.7547850847e+00 1.5904759102e+00 2.7547850847e+00 
77500 6.5098628789e+00 -1.6733969937e-03 1.5905330959e+00 -2.7548841332e+00 1.5905330959e+00 2.7548841332e+00 
77600 6.5098869017e+00 -1.5326638440e-03 1.5905857011e+00 -2.7549752481e+00 1.5905857011e+00 2.7549752481e+00 
77700 6.5099108914e+00 -1.3967773322e-03 1.5906338806e+00 -2.7550586974e+00 1.5906338806e+00 2.7550586974e+00 
77800 6.5099348016e+00 -1.2656739874e-03 1.5906777871e+00 -2.7551347457e+00 1.5906777871e+00 2.7551347457e+00 
77900 6.5099585888e+00 -1.1392883088e-03 1.5907175714e+00 -2.7552036541e+00 1.5907175714e+00 2.7552036541e+00 
78000 6.5099822120e+00 -1.0175528885e-03 1.5907533820e+00 -2.7552656800e+00 1.5907533820e+00 2.7552656800e+00 
78100 6.5100056333e+00 -9.0039853144e-04 1.5907853655e+00 -2.7553210770e+00 1.5907853655e+00 2.7553210770e+00 
78200 6.5100288172e+00 -7.8775437571e-04 1.5908136660e+00 -2.7553700949e+00 1.5908136660e+00 2.7553700949e+00 
78300 6.5100517309e+00 -6.7954801009e-04 1.5908384256e+00 -2.7554129797e+00 1.5908384256e+00 2.7554129797e+00 
78400 6.5100743441e+00 -5.7570559093e-04 1.5908597838e+00 -2.7554499732e+00 1.5908597838e+00 2.7554499732e+00 
78500 6.5100966289e+00 -4.7615195694e-04 1.5908778780e+00 -2.7554813133e+00 1.5908778780e+00 2.7554813133e+00 
78600 6.5101185598e+00 -3.8081074240e-04 1.5908928431e+00 -2.7555072336e+00 1.5908928431e+00 2.7555072336e+00 
78700 6.5101401138e+00 -2.8960448837e-04 1.5909048116e+00 -2.7555279636e+00 1.5909048116e+00 2.7555279636e+00 
78800 6.5101612700e+00 -2.0245475197e-04 1.5909139134e+00 -2.7555437285e+00 1.5909139134e+00 2.7555437285e+00 
78900 6.5101820095e+00 -1.1928221360e-04 1.5909202763e+00 -2.7555547493e+00 1.5909202763e+00 2.7555547493e+00 
79000 6.5102023158e+00 -4.0006781890e-05 1.5909240251e+00 -2.7555612425e+00 1.5909240251e+00 2.7555612425e+00 
79100 6.5102221740e+00 3.3737264000e-05 1.5909240251e+00 -2.7555612425e+00 1.5909240251e+00 2.7555612425e+00 
79200 6.5102415718e+00 1.0697205973e-04 1.5909240251e+00 -2.7555612425e+00 1.5909240251e+00 2.7555612425e+00 
79300 6.5102604983e+00 1.7505041457e-04 1.5909206632e+00 -2.7555554195e+00 1.5909206632e+00 2.7555554195e+00 
79400 6.5102789443e+00 2.3955744680e-04 1.5909151616e+00 -2.7555458905e+00 1.5909151616e+00 2.7555458905e+00 
79500 6.5102969026e+00 3.0057562518e-04 1.5909076327e+00 -2.7555328500e+00 1.5909076327e+00 2.7555328500e+00 
79600 6.5103143675e+00 3.5818760933e-04 1.5908981861e+00 -2.7555164879e+00 1.5908981861e+00 2.7555164879e+00 
79700 6.5103313348e+00 4.1247616191e-04 1.5908869287e+00 -2.7554969896e+00 1.5908869287e+00 2.7554969896e+00 
79800 6.5103478020e+00 4.6352406351e-04 1.5908739650e+00 -2.7554745358e+00 1.5908739650e+00 2.7554745358e+00 
79900 6.5103637677e+00 5.1141403014e-04 1.5908593968e+00 -2.7554493029e+00 1.5908593968e+00 2.7554493029e+00 
80000 6.5103792321e+00 5.5622863360e-04 1.5908433233e+00 -2.7554214628e+00 1.5908433233e+00 2.7554214628e+00 
80100 6.5103941965e+00 5.9805022443e-04 1.5908258411e+00 -2.7553911828e+00 1.5908258411e+00 2.7553911828e+00 
80200 6.5104086635e+00 6.3696085782e-04 1.5908070443e+00 -2.7553586258e+00 1.5908070443e+00 2.7553586258e+00 
80300 6.5104226368e+00 6.7304222208e-04 1.5907870243e+00 -2.7553239501e+00 1.5907870243e+00 2.7553239501e+00 
80400 6.5104361209e+00 7.0637557012e-04 1.5907658700e+00 -2.7552873098e+00 1.5907658700e+00 2.7552873098e+00 
80500 6.5104491217e+00 7.3704165360e-04 1.5907436677e+00 -2.7552488542e+00 1.5907436677e+00 2.7552488542e+00 
80600 6.5104616457e+00 7.6512065987e-04 1.5907205011e+00 -2.7552087286e+00 1.5907205011e+00 2.7552087286e+00 
80700 6.5104737003e+00 7.9069215182e-04 1.5906964517e+00 -2.7551670738e+00 1.5906964517e+00 2.7551670738e+00 
80800 6.5104852937e+00 8.1383501034e-04 1.5906715981e+00 -2.7551240261e+00 1.5906715981e+00 2.7551240261e+00 
80900 6.5104964348e+00 8.3462737969e-04 1.5906460167e+00 -2.7550797178e+00 1.5906460167e+00 2.7550797178e+00 
81000 6.5105071331e+00 8.5314661558e-04 1.5906197813e+00 -2.7550342767e+00 1.5906197813e+00 2.7550342767e+00 
81100 6.5105173988e+00 8.6946923594e-04 1.5905929633e+00 -2.7549878266e+00 1.5905929633e+00 2.7549878266e+00 
81200 6.5105272424e+00 8.8367087444e-04 1.5905656318e+00 -2.7549404870e+00 1.5905656318e+00 2.7549404870e+00 
81300 6.5105366752e+00 8.9582623665e-04 1.5905378533e+00 -2.7548923734e+00 1.5905378533e+00 2.7548923734e+00 
81400 6.5105457087e+00 9.0600905891e-04 1.5905096923e+00 -2.7548435970e+00 1.5905096923e+00 2.7548435970e+00 
81500 6.5105543546e+00 9.1429206973e-04 1.5904812107e+00 -2.7547942654e+00 1.5904812107e+00 2.7547942654e+00 
81600 6.5105626252e+00 9.2074695380e-04 1.5904524681e+00 -2.7547444818e+00 1.5904524681e+00 2.7547444818e+00 
81700 6.5105705330e+00 9.2544431854e-04 1.5904235222e+00 -2.7546943459e+00 1.5904235222e+00 2.7546943459e+00 
81800 6.5105780905e+00 9.2845366312e-04 1.5903944280e+00 -2.7546439533e+00 1.5903944280e+00 2.7546439533e+00 
81900 6.5105853106e+00 9.2984334993e-04 1.5903652387e+00 -2.7545933959e+00 1.5903652387e+00 2.7545933959e+00 
82000 6.5105922062e+00 9.2968057843e-04 1.5903360051e+00 -2.7545427619e+00 1.5903360051e+00 2.7545427619e+00 
82100 6.5105987901e+00 9.2803136137e-04 1.5903067761e+00 -2.7544921359e+00 1.5903067761e+00 2.7544921359e+00 
82200 6.5106050756e+00 9.2496050328e-04 1.5902775985e+00 -2.7544415987e+00 1.5902775985e+00 2.7544415987e+00 
82300 6.5106110755e+00 9.2053158120e-04 1.5902485168e+00 -2.7543912278e+00 1.5902485168e+00 2.7543912278e+00 
82400 6.5106168028e+00 9.1480692760e-04 1.5902195739e+00 -2.7543410972e+00 1.5902195739e+00 2.7543410972e+00 
82500 6.5106222704e+00 9.0784761540e-04 1.5901908105e+00 -2.7542912774e+00 1.5901908105e+00 2.7542912774e+00 
82600 6.5106274910e+00 8.9971344512e-04 1.5901622653e+00 -2.7542418358e+00 1.5901622653e+00 2.7542418358e+00 
82700 6.5106324773e+00 8.9046293393e-04 1.5901339754e+00 -2.7541928362e+00 1.5901339754e+00 2.7541928362e+00 
82800 6.5106372418e+00 8.8015330677e-04 1.5901059759e+00 -2.7541443396e+00 1.5901059759e+00 2.7541443396e+00 
82900 6.5106417966e+00 8.6884048923e-04 1.5900783000e+00 -2.7540964036e+00 1.5900783000e+00 2.7540964036e+00 
83000 6.5106461539e+00 8.5657910236e-04 1.5900509794e+00 -2.7540490829e+00 1.5900509794e+00 2.7540490829e+00 
83100 6.5106503254e+00 8.4342245916e-04 1.5900240439e+00 -2.7540024293e+00 1.5900240439e+00 2.7540024293e+00 
83200 6.5106543227e+00 8.2942256283e-04 1.5899975216e+00 -2.7539564914e+00 1.5899975216e+00 2.7539564914e+00 
83300 6.5106581570e+00 8.1463010657e-04 1.5899714392e+00 -2.7539113153e+00 1.5899714392e+00 2.7539113153e+00 
83400 6.5106618393e+00 7.9909447503e-04 1.5899458215e+00 -2.7538669441e+00 1.5899458215e+00 2.7538669441e+00 
83500 6.5106653801e+00 7.8286374723e-04 1.5899206920e+00 -2.7538234185e+00 1.5899206920e+00 2.7538234185e+00 
83600 6.5106687898e+00 7.6598470091e-04 1.5898960724e+00 -2.7537807762e+00 1.5898960724e+00 2.7537807762e+00 
83700 6.5106720784e+00 7.4850281823e-04 1.5898719834e+00 -2.7537390527e+00 1.5898719834e+00 2.7537390527e+00 
83800 6.5106752554e+00 7.3046229288e-04 1.5898484437e+00 -2.7536982808e+00 1.5898484437e+00 2.7536982808e+00 
83900 6.5106783302e+00 7.1190603832e-04 1.5898254711e+00 -2.7536584910e+00 1.5898254711e+00 2.7536584910e+00 
84000 6.5106813115e+00 6.9287569730e-04 1.5898030817e+00 -2.7536197115e+00 1.5898030817e+00 2.7536197115e+00 
84100 6.5106842080e+00 6.7341165241e-04 1.5897812905e+00 -2.7535819680e+00 1.5897812905e+00 2.7535819680e+00 
84200 6.5106870277e+00 6.5355303781e-04 1.5897601111e+00 -2.7535452843e+00 1.5897601111e+00 2.7535452843e+00 
84300 6.5106897783e+00 6.3333775183e-04 1.5897395561e+00 -2.7535096820e+00 1.5897395561e+00 2.7535096820e+00 
84400 6.5106924673e+00 6.1280247062e-04 1.5897196366e+00 -2.7534751804e+00 1.5897196366e+00 2.7534751804e+00 
84500 6.5106951016e+00 5.9198266263e-04 1.5897003627e+00 -2.7534417970e+00 1.5897003627e+00 2.7534417970e+00 
84600 6.5106976879e+00 5.7091260391e-04 1.5896817434e+00 -2.7534095475e+00 1.5896817434e+00 2.7534095475e+00 
84700 6.5107002323e+00 5.4962539416e-04 1.5896637867e+00 -2.7533784454e+00 1.5896637867e+00 2.7533784454e+00 
84800 6.5107027406e+00 5.2815297357e-04 1.5896464992e+00 -2.7533485027e+00 1.5896464992e+00 2.7533485027e+00 
84900 6.5107052184e+00 5.0652614022e-04 1.5896298870e+00 -2.7533197294e+00 1.5896298870e+00 2.7533197294e+00 
85000 6.5107076707e+00 4.8477456815e-04 1.5896139548e+00 -2.7532921341e+00 1.5896139548e+00 2.7532921341e+00 
85100 6.5107101023e+00 4.6292682590e-04 1.5895987066e+00 -2.7532657235e+00 1.5895987066e+00 2.7532657235e+00 
85200 6.5107125175e+00 4.4101039563e-04 1.5895841455e+00 -2.7532405030e+00 1.5895841455e+00 2.7532405030e+00 
85300 6.5107149203e+00 4.1905169266e-04 1.5895702737e+00 -2.7532164762e+00 1.5895702737e+00 2.7532164762e+00 
85400 6.5107173145e+00 3.9707608538e-04 1.5895570924e+00 -2.7531936456e+00 1.5895570924e+00 2.7531936456e+00 
85500 6.5107197033e+00 3.7510791553e-04 1.5895446023e+00 -2.7531720120e+00 1.5895446023e+00 2.7531720120e+00 
85600 6.5107220897e+00 3.5317051880e-04 1.5895328031e+00 -2.7531515752e+00 1.5895328031e+00 2.7531515752e+00 
85700 6.5107244765e+00 3.3128624567e-04 1.5895216938e+00 -2.7531323334e+00 1.5895216938e+00 2.7531323334e+00 
85800 6.5107268660e+00 3.0947648248e-04 1.5895112729e+00 -2.7531142838e+00 1.5895112729e+00 2.7531142838e+00 
85900 6.5107292604e+00 2.8776167267e-04 1.5895015379e+00 -2.7530974224e+00 1.5895015379e+00 2.7530974224e+00 
86000 6.5107316614e+00 2.6616133816e-04 1.5894924860e+00 -2.7530817440e+00 1.5894924860e+00 2.7530817440e+00 
86100 6.5107340706e+00 2.4469410087e-04 1.5894841135e+00 -2.7530672424e+00 1.5894841135e+00 2.7530672424e+00 
86200 6.5107364892e+00 2.2337770418e-04 1.5894764162e+00 -2.7530539103e+00 1.5894764162e+00 2.7530539103e+00 
86300 6.5107389182e+00 2.0222903458e-04 1.5894693894e+00 -2.7530417396e+00 1.5894693894e+00 2.7530417396e+00 
86400 6.5107413585e+00 1.8126414323e-04 1.5894630279e+00 -2.7530307211e+00 1.5894630279e+00 2.7530307211e+00 
86500 6.5107438105e+00 1.6049826743e-04 1.5894573259e+00 -2.7530208449e+00 1.5894573259e+00 2.7530208449e+00 
86600 6.5107462746e+00 1.3994585215e-04 1.5894522770e+00 -2.7530121000e+00 1.5894522770e+00 2.7530121000e+00 
86700 6.5107487510e+00 1.1962057135e-04 1.5894478747e+00 -2.7530044750e+00 1.5894478747e+00 2.7530044750e+00 
86800 6.5107512396e+00 9.9535349240e-05 1.5894441117e+00 -2.7529979573e+00 1.5894441117e+00 2.7529979573e+00 
86900 6.5107537400e+00 7.9702381370e-05 1.5894409806e+00 -2.7529925340e+00 1.5894409806e+00 2.7529925340e+00 
87000 6.5107562520e+00 6.0133155527e-05 1.5894384734e+00 -2.7529881914e+00 1.5894384734e+00 2.7529881914e+00 
87100 6.5107587751e+00 4.3438393812e-05 1.5894384734e+00 -2.7529881914e+00 1.5894384734e+00 2.7529881914e+00 
87200 6.5107613082e+00 2.6208461498e-05 1.5894384734e+00 -2.7529881914e+00 1.5894384734e+00 2.7529881914e+00 
87300 6.5107638506e+00 8.4608189988e-06 1.5894384734e+00 -2.7529881914e+00 1.5894384734e+00 2.7529881914e+00 
87400 6.5107664015e+00 -9.7873265579e-06 1.5894384734e+00 -2.7529881914e+00 1.5894384734e+00 2.7529881914e+00 
87500 6.5107689597e+00 -2.8519017090e-05 1.5894384734e+00 -2.7529881914e+00 1.5894384734e+00 2.7529881914e+00 
87600 6.5107715242e+00 -4.7717539188e-05 1.5894384734e+00 -2.7529881914e+00 1.5894384734e+00 2.7529881914e+00 
87700 6.5107740938e+00 -6.7366419663e-05 1.5894384734e+00 -2.7529881914e+00 1.5894384734e+00 2.7529881914e+00 
87800 6.5107766672e+00 -8.7449420996e-05 1.5894384734e+00 -2.7529881914e+00 1.5894384734e+00 2.7529881914e+00 
87900 6.5107792425e+00 -1.0417020048e-04 1.5894412243e+00 -2.7529929562e+00 1.5894412243e+00 2.7529929562e+00 
88000 6.5107818186e+00 -1.2054963921e-04 1.5894445013e+00 -2.7529986320e+00 1.5894445013e+00 2.7529986320e+00 
88100 6.5107843939e+00 -1.3658258886e-04 1.5894482935e+00 -2.7530052003e+00 1.5894482935e+00 2.7530052003e+00 
88200 6.5107869669e+00 -1.5226438509e-04 1.5894525900e+00 -2.7530126421e+00 1.5894525900e+00 2.7530126421e+00 
88300 6.5107895359e+00 -1.6759083017e-04 1.5894573798e+00 -2.7530209383e+00 1.5894573798e+00 2.7530209383e+00 
88400 6.5107920994e+00 -1.8255817603e-04 1.5894626518e+00 -2.7530300696e+00 1.5894626518e+00 2.7530300696e+00 
88500 6.5107946558e+00 -1.9716310763e-04 1.5894683946e+00 -2.7530400164e+00 1.5894683946e+00 2.7530400164e+00 
88600 6.5107972034e+00 -2.1140272679e-04 1.5894745967e+00 -2.7530507589e+00 1.5894745967e+00 2.7530507589e+00 
88700 6.5107997406e+00 -2.2527453638e-04 1.5894812468e+00 -2.7530622772e+00 1.5894812468e+00 2.7530622772e+00 
88800 6.5108022658e+00 -2.3877642498e-04 1.5894883332e+00 -2.7530745512e+00 1.5894883332e+00 2.7530745512e+00 
88900 6.5108047773e+00 -2.5190665180e-04 1.5894958444e+00 -2.7530875608e+00 1.5894958444e+00 2.7530875608e+00 
89000 6.5108072737e+00 -2.6466383218e-04 1.5895037685e+00 -2.7531012858e+00 1.5895037685e+00 2.7531012858e+00 
89100 6.5108097533e+00 -2.7704692333e-04 1.5895120938e+00 -2.7531157058e+00 1.5895120938e+00 2.7531157058e+00 
89200 6.5108122146e+00 -2.8905521060e-04 1.5895208087e+00 -2.7531308003e+00 1.5895208087e+00 2.7531308003e+00 
89300 6.5108146561e+00 -3.0068829404e-04 1.5895299012e+00 -2.7531465491e+00 1.5895299012e+00 2.7531465491e+00 
89400 6.5108170765e+00 -3.1194607543e-04 1.5895393596e+00 -2.7531629315e+00 1.5895393596e+00 2.7531629315e+00 
89500 6.5108194742e+00 -3.2282874569e-04 1.5895491721e+00 -2.7531799272e+00 1.5895491721e+00 2.7531799272e+00 
89600 6.5108218479e+00 -3.3333677262e-04 1.5895593268e+00 -2.7531975157e+00 1.5895593268e+00 2.7531975157e+00 
89700 6.5108241963e+00 -3.4347088911e-04 1.5895698121e+00 -2.7532156767e+00 1.5895698121e+00 2.7532156767e+00 
89800 6.5108265183e+00 -3.5323208167e-04 1.5895806160e+00 -2.7532343896e+00 1.5895806160e+00 2.7532343896e+00 
89900 6.5108288125e+00 -3.6262157935e-04 1.5895917268e+00 -2.7532536342e+00 1.5895917268e+00 2.7532536342e+00 
90000 6.5108310779e+00 -3.7164084302e-04 1.5896031330e+00 -2.7532733902e+00 1.5896031330e+00 2.7532733902e+00 
90100 6.5108333133e+00 -3.8029155502e-04 1.5896148227e+00 -2.7532936374e+00 1.5896148227e+00 2.7532936374e+00 
90200 6.5108355179e+00 -3.8857560920e-04 1.5896267845e+00 -2.7533143558e+00 1.5896267845e+00 2.7533143558e+00 
90300 6.5108376906e+00 -3.9649510119e-04 1.5896390067e+00 -2.7533355253e+00 1.5896390067e+00 2.7533355253e+00 
90400 6.5108398307e+00 -4.0405231916e-04 1.5896514780e+00 -2.7533571262e+00 1.5896514780e+00 2.7533571262e+00 
90500 6.5108419372e+00 -4.1124973482e-04 1.5896641868e+00 -2.7533791386e+00 1.5896641868e+00 2.7533791386e+00 
90600 6.5108440095e+00 -4.1808999474e-04 1.5896771220e+00 -2.7534015429e+00 1.5896771220e+00 2.7534015429e+00 
90700 6.5108460469e+00 -4.2457591206e-04 1.5896902721e+00 -2.7534243196e+00 1.5896902721e+00 2.7534243196e+00 
90800 6.5108480488e+00 -4.3071045842e-04 1.5897036262e+00 -2.7534474495e+00 1.5897036262e+00 2.7534474495e+00 
90900 6.5108500147e+00 -4.3649675626e-04 1.5897171731e+00 -2.7534709135e+00 1.5897171731e+00 2.7534709135e+00 
91000 6.5108519441e+00 -4.4193807135e-04 1.5897309019e+00 -2.7534946924e+00 1.5897309019e+00 2.7534946924e+00 
91100 6.5108538367e+00 -4.4703780568e-04 1.5897448017e+00 -2.7535187676e+00 1.5897448017e+00 2.7535187676e+00 
91200 6.5108556920e+00 -4.5179949052e-04 1.5897588617e+00 -2.7535431203e+00 1.5897588617e+00 2.7535431203e+00 
91300 6.5108575100e+00 -4.5622677986e-04 1.5897730714e+00 -2.7535677322e+00 1.5897730714e+00 2.7535677322e+00 
91400 6.5108592903e+00 -4.6032344401e-04 1.5897874203e+00 -2.7535925851e+00 1.5897874203e+00 2.7535925851e+00 
91500 6.5108610329e+00 -4.6409336353e-04 1.5898018978e+00 -2.7536176610e+00 1.5898018978e+00 2.7536176610e+00 
91600 6.5108627376e+00 -4.6754052329e-04 1.5898164938e+00 -2.7536429419e+00 1.5898164938e+00 2.7536429419e+00 
91700 6.5108644045e+00 -4.7066900691e-04 1.5898311980e+00 -2.7536684104e+00 1.5898311980e+00 2.7536684104e+00 
91800 6.5108660337e+00 -4.7348299126e-04 1.5898460005e+00 -2.7536940491e+00 1.5898460005e+00 2.7536940491e+00 
91900 6.5108676252e+00 -4.7598674132e-04 1.5898608914e+00 -2.7537198409e+00 1.5898608914e+00 2.7537198409e+00 
92000 6.5108691792e+00 -4.7818460510e-04 1.5898758609e+00 -2.7537457688e+00 1.5898758609e+00 2.7537457688e+00 
92100 6.5108706958e+00 -4.8008100891e-04 1.5898908993e+00 -2.7537718161e+00 1.5898908993e+00 2.7537718161e+00 
92200 6.5108721755e+00 -4.8168045269e-04 1.5899059973e+00 -2.7537979665e+00 1.5899059973e+00 2.7537979665e+00 
92300 6.5108736185e+00 -4.8298750555e-04 1.5899211454e+00 -2.7538242038e+00 1.5899211454e+00 2.7538242038e+00 
92400 6.5108750251e+00 -4.8400680156e-04 1.5899363344e+00 -2.7538505120e+00 1.5899363344e+00 2.7538505120e+00 
92500 6.5108763958e+00 -4.8474303559e-04 1.5899515554e+00 -2.7538768755e+00 1.5899515554e+00 2.7538768755e+00 
92600 6.5108777309e+00 -4.8520095938e-04 1.5899667994e+00 -2.7539032789e+00 1.5899667994e+00 2.7539032789e+00 
92700 6.5108790311e+00 -4.8538537771e-04 1.5899820576e+00 -2.7539297069e+00 1.5899820576e+00 2.7539297069e+00 
92800 6.5108802967e+00 -4.8530114476e-04 1.5899973215e+00 -2.7539561448e+00 1.5899973215e+00 2.7539561448e+00 
92900 6.5108815284e+00 -4.8495316060e-04 1.5900125826e+00 -2.7539825777e+00 1.5900125826e+00 2.7539825777e+00 
93000 6.5108827267e+00 -4.8434636770e-04 1.5900278326e+00 -2.7540089915e+00 1.5900278326e+00 2.7540089915e+00 
93100 6.5108838922e+00 -4.8348574775e-04 1.5900430634e+00 -2.7540353720e+00 1.5900430634e+00 2.7540353720e+00 
93200 6.5108850256e+00 -4.8237631839e-04 1.5900582669e+00 -2.7540617053e+00 1.5900582669e+00 2.7540617053e+00 
93300 6.5108861276e+00 -4.8102313024e-04 1.5900734355e+00 -2.7540879780e+00 1.5900734355e+00 2.7540879780e+00 
93400 6.5108871988e+00 -4.7943126385e-04 1.5900885613e+00 -2.7541141767e+00 1.5900885613e+00 2.7541141767e+00 
93500 6.5108882399e+00 -4.7760582686e-04 1.5901036370e+00 -2.7541402885e+00 1.5901036370e+00 2.7541402885e+00 
93600 6.5108892516e+00 -4.7555195124e-04 1.5901186551e+00 -2.7541663006e+00 1.5901186551e+00 2.7541663006e+00 
93700 6.5108902347e+00 -4.7327479056e-04 1.5901336084e+00 -2.7541922006e+00 1.5901336084e+00 2.7541922006e+00 
93800 6.5108911899e+00 -4.7077951739e-04 1.5901484901e+00 -2.7542179764e+00 1.5901484901e+00 2.7542179764e+00 
93900 6.5108921180e+00 -4.6807132073e-04 1.5901632931e+00 -2.7542436160e+00 1.5901632931e+00 2.7542436160e+00 
94000 6.5108930198e+00 -4.6515540355e-04 1.5901780108e+00 -2.7542691078e+00 1.5901780108e+00 2.7542691078e+00 
94100 6.5108938959e+00 -4.6203698038e-04 1.5901926367e+00 -2.7542944406e+00 1.5901926367e+00 2.7542944406e+00 
94200 6.5108947472e+00 -4.5872127493e-04 1.5902071645e+00 -2.7543196034e+00 1.5902071645e+00 2.7543196034e+00 
94300 6.5108955744e+00 -4.5521351783e-04 1.5902215878e+00 -2.7543445854e+00 1.5902215878e+00 2.7543445854e+00 
94400 6.5108963784e+00 -4.5151894433e-04 1.5902359007e+00 -2.7543693761e+00 1.5902359007e+00 2.7543693761e+00 
94500 6.5108971599e+00 -4.4764279216e-04 1.5902500973e+00 -2.7543939653e+00 1.5902500973e+00 2.7543939653e+00 
94600 6.5108979196e+00 -4.4359029932e-04 1.5902641720e+00 -2.7544183433e+00 1.5902641720e+00 2.7544183433e+00 
94700 6.5108986584e+00 -4.3936670204e-04 1.5902781190e+00 -2.7544425004e+00 1.5902781190e+00 2.7544425004e+00 
94800 6.5108993770e+00 -4.3497723261e-04 1.5902919332e+00 -2.7544664272e+00 1.5902919332e+00 2.7544664272e+00 
94900 6.5109000761e+00 -4.3042711744e-04 1.5903056093e+00 -2.7544901148e+00 1.5903056093e+00 2.7544901148e+00 
95000 6.5109007565e+00 -4.2572157499e-04 1.5903191421e+00 -2.7545135544e+00 1.5903191421e+00 2.7545135544e+00 
95100 6.5109014189e+00 -4.2086581385e-04 1.5903325269e+00 -2.7545367376e+00 1.5903325269e+00 2.7545367376e+00 
95200 6.5109020641e+00 -4.1586503076e-04 1.5903457589e+00 -2.7545596561e+00 1.5903457589e+00 2.7545596561e+00 
95300 6.5109026927e+00 -4.1072440870e-04 1.5903588336e+00 -2.7545823021e+00 1.5903588336e+00 2.7545823021e+00 
95400 6.5109033054e+00 -4.0544911502e-04 1.5903717466e+00 -2.7546046680e+00 1.5903717466e+00 2.7546046680e+00 
95500 6.5109039029e+00 -4.0004429958e-04 1.5903844936e+00 -2.7546267465e+00 1.5903844936e+00 2.7546267465e+00 
95600 6.5109044859e+00 -3.9451509287e-04 1.5903970706e+00 -2.7546485305e+00 1.5903970706e+00 2.7546485305e+00 
95700 6.5109050551e+00 -3.8886660426e-04 1.5904094736e+00 -2.7546700132e+00 1.5904094736e+00 2.7546700132e+00 
95800 6.5109056110e+00 -3.8310392011e-04 1.5904216990e+00 -2.7546911882e+00 1.5904216990e+00 2.7546911882e+00 
95900 6.5109061542e+00 -3.7723210207e-04 1.5904337431e+00 -2.7547120492e+00 1.5904337431e+00 2.7547120492e+00 
96000 6.5109066855e+00 -3.7125618529e-04 1.5904456026e+00 -2.7547325903e+00 1.5904456026e+00 2.7547325903e+00 
96100 6.5109072052e+00 -3.6518117668e-04 1.5904572740e+00 -2.7547528059e+00 1.5904572740e+00 2.7547528059e+00 
96200 6.5109077140e+00 -3.5901205319e-04 1.5904687544e+00 -2.7547726905e+00 1.5904687544e+00 2.7547726905e+00 
96300 6.5109082125e+00 -3.5275376009e-04 1.5904800408e+00 -2.7547922391e+00 1.5904800408e+00 2.7547922391e+00 
96400 6.5109087011e+00 -3.4641120932e-04 1.5904911303e+00 -2.7548114468e+00 1.5904911303e+00 2.7548114468e+00 
96500 6.5109091803e+00 -3.3998927779e-04 1.5905020204e+00 -2.7548303089e+00 1.5905020204e+00 2.7548303089e+00 
96600 6.5109096506e+00 -3.3349280573e-04 1.5905127086e+00 -2.7548488213e+00 1.5905127086e+00 2.7548488213e+00 
96700 6.5109101125e+00 -3.2692659507e-04 1.5905231924e+00 -2.7548669798e+00 1.5905231924e+00 2.7548669798e+00 
96800 6.5109105663e+00 -3.2029540783e-04 1.5905334697e+00 -2.7548847807e+00 1.5905334697e+00 2.7548847807e+00 
96900 6.5109110126e+00 -3.1360396451e-04 1.5905435385e+00 -2.7549022204e+00 1.5905435385e+00 2.7549022204e+00 
97000 6.5109114517e+00 -3.0685694250e-04 1.5905533969e+00 -2.7549192956e+00 1.5905533969e+00 2.7549192956e+00 
97100 6.5109118839e+00 -3.0005897456e-04 1.5905630432e+00 -2.7549360034e+00 1.5905630432e+00 2.7549360034e+00 
97200 6.5109123097e+00 -2.9321464726e-04 1.5905724757e+00 -2.7549523410e+00 1.5905724757e+00 2.7549523410e+00 
97300 6.5109127294e+00 -2.8632849947e-04 1.5905816929e+00 -2.7549683058e+00 1.5905816929e+00 2.7549683058e+00 
97400 6.5109131432e+00 -2.7940502084e-04 1.5905906937e+00 -2.7549838955e+00 1.5905906937e+00 2.7549838955e+00 
97500 6.5109135515e+00 -2.7244865038e-04 1.5905994768e+00 -2.7549991082e+00 1.5905994768e+00 2.7549991082e+00 
97600 6.5109139545e+00 -2.6546377498e-04 1.5906080411e+00 -2.7550139421e+00 1.5906080411e+00 2.7550139421e+00 
97700 6.5109143525e+00 -2.5845472796e-04 1.5906163858e+00 -2.7550283956e+00 1.5906163858e+00 2.7550283956e+00 
97800 6.5109147458e+00 -2.5142578773e-04 1.5906245102e+00 -2.7550424674e+00 1.5906245102e+00 2.7550424674e+00 
97900 6.5109151345e+00 -2.4438117639e-04 1.5906324136e+00 -2.7550561565e+00 1.5906324136e+00 2.7550561565e+00 
98000 6.5109155189e+00 -2.3732505835e-04 1.5906400955e+00 -2.7550694619e+00 1.5906400955e+00 2.7550694619e+00 
98100 6.5109158992e+00 -2.3026153907e-04 1.5906475555e+00 -2.7550823831e+00 1.5906475555e+00 2.7550823831e+00 
98200 6.5109162755e+00 -2.2319466375e-04 1.5906547935e+00 -2.7550949197e+00 1.5906547935e+00 2.7550949197e+00 
98300 6.5109166480e+00 -2.1612841606e-04 1.5906618093e+00 -2.7551070714e+00 1.5906618093e+00 2.7551070714e+00 
98400 6.5109170168e+00 -2.0906671691e-04 1.5906686030e+00 -2.7551188384e+00 1.5906686030e+00 2.7551188384e+00 
98500 6.5109173821e+00 -2.0201342329e-04 1.5906751747e+00 -2.7551302209e+00 1.5906751747e+00 2.7551302209e+00 
98600 6.5109177439e+00 -1.9497232708e-04 1.5906815246e+00 -2.7551412193e+00 1.5906815246e+00 2.7551412193e+00 
98700 6.5109181025e+00 -1.8794715392e-04 1.5906876532e+00 -2.7551518343e+00 1.5906876532e+00 2.7551518343e+00 
98800 6.5109184578e+00 -1.8094156216e-04 1.5906935609e+00 -2.7551620668e+00 1.5906935609e+00 2.7551620668e+00 
98900 6.5109188099e+00 -1.7395914174e-04 1.5906992484e+00 -2.7551719178e+00 1.5906992484e+00 2.7551719178e+00 
99000 6.5109191589e+00 -1.6700341323e-04 1.5907047164e+00 -2.7551813887e+00 1.5907047164e+00 2.7551813887e+00 
99100 6.5109195049e+00 -1.6007782683e-04 1.5907099658e+00 -2.7551904809e+00 1.5907099658e+00 2.7551904809e+00 
99200 6.5109198478e+00 -1.5318576142e-04 1.5907149974e+00 -2.7551991959e+00 1.5907149974e+00 2.7551991959e+00 
99300 6.5109201878e+00 -1.4633052369e-04 1.5907198124e+00 -2.7552075358e+00 1.5907198124e+00 2.7552075358e+00 
99400 6.5109205249e+00 -1.3951534726e-04 1.5907244120e+00 -2.7552155023e+00 1.5907244120e+00 2.7552155023e+00 
99500 6.5109208590e+00 -1.3274339186e-04 1.5907287972e+00 -2.7552230979e+00 1.5907287972e+00 2.7552230979e+00 
99600 6.5109211902e+00 -1.2601774258e-04 1.5907329696e+00 -2.7552303247e+00 1.5907329696e+00 2.7552303247e+00 
99700 6.5109215185e+00 -1.1934140912e-04 1.5907369306e+00 -2.7552371853e+00 1.5907369306e+00 2.7552371853e+00 
99800 6.5109218438e+00 -1.1271732512e-04 1.5907406818e+00 -2.7552436825e+00 1.5907406818e+00 2.7552436825e+00 
99900 6.5109221662e+00 -1.0614834753e-04 1.5907442247e+00 -2.7552498190e+00 1.5907442247e+00 2.7552498190e+00 
100000 6.5109224857e+00 -9.9637255962e-05 1.5907475611e+00 -2.7552555979e+00 1.5907475611e+00 2.7552555979e+00 
100100 6.5109228022e+00 -9.3186752217e-05 1.5907506929e+00 -2.7552610223e+00 1.5907506929e+00 2.7552610223e+00 
100200 6.5109231157e+00 -8.6799459733e-05 1.5907536219e+00 -2.7552660955e+00 1.5907536219e+00 2.7552660955e+00 
100300 6.5109234261e+00 -8.0477923154e-05 1.5907563502e+00 -2.7552708210e+00 1.5907563502e+00 2.7552708210e+00 
100400 6.5109237335e+00 -7.4224607911e-05 1.5907588797e+00 -2.7552752023e+00 1.5907588797e+00 2.7552752023e+00 
100500 6.5109240378e+00 -6.8041899881e-05 1.5907612127e+00 -2.7552792431e+00 1.5907612127e+00 2.7552792431e+00 
100600 6.5109243391e+00 -6.4859199294e-05 1.5907612127e+00 -2.7552792431e+00 1.5907612127e+00 2.7552792431e+00 
100700 6.5109246372e+00 -6.1505447487e-05 1.5907612127e+00 -2.7552792431e+00 1.5907612127e+00 2.7552792431e+00 
100800 6.5109249320e+00 -5.7984807884e-05 1.5907612127e+00 -2.7552792431e+00 1.5907612127e+00 2.7552792431e+00 
100900 6.5109252235e+00 -5.4301422804e-05 1.5907612127e+00 -2.7552792431e+00 1.5907612127e+00 2.7552792431e+00 
101000 6.5109255116e+00 -5.0459413814e-05 1.5907612127e+00 -2.7552792431e+00 1.5907612127e+00 2.7552792431e+00 
101100 6.5109257963e+00 -4.6462882009e-05 1.5907612127e+00 -2.7552792431e+00 1.5907612127e+00 2.7552792431e+00 
101200 6.5109260776e+00 -4.2315908220e-05 1.5907612127e+00 -2.7552792431e+00 1.5907612127e+00 2.7552792431e+00 
101300 6.5109263554e+00 -3.8022553176e-05 1.5907612127e+00 -2.7552792431e+00 1.5907612127e+00 2.7552792431e+00 
101400 6.5109266297e+00 -3.3586857583e-05 1.5907612127e+00 -2.7552792431e+00 1.5907612127e+00 2.7552792431e+00 
101500 6.5109269004e+00 -2.9012842156e-05 1.5907612127e+00 -2.7552792431e+00 1.5907612127e+00 2.7552792431e+00 
101600 6.5109271676e+00 -2.4304507590e-05 1.5907612127e+00 -2.7552792431e+00 1.5907612127e+00 2.7552792431e+00 
101700 6.5109274311e+00 -1.9465834469e-05 1.5907612127e+00 -2.7552792431e+00 1.5907612127e+00 2.7552792431e+00 
101800 6.5109276909e+00 -1.4500783142e-05 1.5907612127e+00 -2.7552792431e+00 1.5907612127e+00 2.7552792431e+00 
101900 6.5109279470e+00 -9.4132935064e-06 1.5907612127e+00 -2.7552792431e+00 1.5907612127e+00 2.7552792431e+00 
102000 6.5109281994e+00 -4.2072847925e-06 1.5907612127e+00 -2.7552792431e+00 1.5907612127e+00 2.7552792431e+00 
102100 6.5109284481e+00 1.1133447447e-06 1.5907612127e+00 -2.7552792431e+00 1.5907612127e+00 2.7552792431e+00 
102200 6.5109286930e+00 6.5447181520e-06 1.5907612127e+00 -2.7552792431e+00 1.5907612127e+00 2.7552792431e+00 
102300 6.5109289340e+00 1.2082980152e-05 1.5907612127e+00 -2.7552792431e+00 1.5907612127e+00 2.7552792431e+00 
102400 6.5109291713e+00 1.7724297576e-05 1.5907612127e+00 -2.7552792431e+00 1.5907612127e+00 2.7552792431e+00 
102500 6.5109294046e+00 2.3464859812e-05 1.5907612127e+00 -2.7552792431e+00 1.5907612127e+00 2.7552792431e+00 
102600 6.5109296342e+00 2.9300879299e-05 1.5907612127e+00 -2.7552792431e+00 1.5907612127e+00 2.7552792431e+00 
102700 6.5109298598e+00 3.5228592065e-05 1.5907612127e+00 -2.7552792431e+00 1.5907612127e+00 2.7552792431e+00 
102800 6.5109300816e+00 4.1244258286e-05 1.5907612127e+00 -2.7552792431e+00 1.5907612127e+00 2.7552792431e+00 
102900 6.5109302995e+00 4.7344162874e-05 1.5907612127e+00 -2.7552792431e+00 1.5907612127e+00 2.7552792431e+00 
103000 6.5109305136e+00 5.3524616111e-05 1.5907612127e+00 -2.7552792431e+00 1.5907612127e+00 2.7552792431e+00 
103100 6.5109307237e+00 5.9781954284e-05 1.5907612127e+00 -2.7552792431e+00 1.5907612127e+00 2.7552792431e+00 
103200 6.5109309300e+00 6.6112540363e-05 1.5907612127e+00 -2.7552792431e+00 1.5907612127e+00 2.7552792431e+00 
103300 6.5109311324e+00 7.2512764693e-05 1.5907612127e+00 -2.7552792431e+00 1.5907612127e+00 2.7552792431e+00 
103400 6.5109313307e+00 7.5859730642e-05 1.5907589335e+00 -2.7552752955e+00 1.5907589335e+00 2.7552752955e+00 
103500 6.5109315251e+00 7.9107404609e-05 1.5907565492e+00 -2.7552711656e+00 1.5907565492e+00 2.7552711656e+00 
103600 6.5109317156e+00 8.2255417717e-05 1.5907540627e+00 -2.7552668589e+00 1.5907540627e+00 2.7552668589e+00 
103700 6.5109319022e+00 8.5303485494e-05 1.5907514773e+00 -2.7552623808e+00 1.5907514773e+00 2.7552623808e+00 
103800 6.5109320849e+00 8.8251406004e-05 1.5907487960e+00 -2.7552577368e+00 1.5907487960e+00 2.7552577368e+00 
103900 6.5109322639e+00 9.1099057959e-05 1.5907460221e+00 -2.7552529323e+00 1.5907460221e+00 2.7552529323e+00 
104000 6.5109324390e+00 9.3846398860e-05 1.5907431587e+00 -2.7552479727e+00 1.5907431587e+00 2.7552479727e+00 
104100 6.5109326103e+00 9.6493463111e-05 1.5907402090e+00 -2.7552428636e+00 1.5907402090e+00 2.7552428636e+00 
104200 6.5109327779e+00 9.9040360147e-05 1.5907371760e+00 -2.7552376103e+00 1.5907371760e+00 2.7552376103e+00 
104300 6.5109329418e+00 1.0148727257e-04 1.5907340630e+00 -2.7552322184e+00 1.5907340630e+00 2.7552322184e+00 
104400 6.5109331021e+00 1.0383445428e-04 1.5907308730e+00 -2.7552266932e+00 1.5907308730e+00 2.7552266932e+00 
104500 6.5109332586e+00 1.0608222859e-04 1.5907276093e+00 -2.7552210403e+00 1.5907276093e+00 2.7552210403e+00 
104600 6.5109334116e+00 1.0823098639e-04 1.5907242749e+00 -2.7552152649e+00 1.5907242749e+00 2.7552152649e+00 
104700 6.5109335611e+00 1.1028118426e-04 1.5907208729e+00 -2.7552093726e+00 1.5907208729e+00 2.7552093726e+00 
104800 6.5109337070e+00 1.1223334260e-04 1.5907174066e+00 -2.7552033686e+00 1.5907174066e+00 2.7552033686e+00 
104900 6.5109338495e+00 1.1408804382e-04 1.5907138788e+00 -2.7551972584e+00 1.5907138788e+00 2.7551972584e+00 
105000 6.5109339887e+00 1.1584593042e-04 1.5907102927e+00 -2.7551910471e+00 1.5907102927e+00 2.7551910471e+00 
105100 6.5109341244e+00 1.1750770320e-04 1.5907066514e+00 -2.7551847402e+00 1.5907066514e+00 2.7551847402e+00 
105200 6.5109342569e+00 1.1907411936e-04 1.5907029578e+00 -2.7551783427e+00 1.5907029578e+00 2.7551783427e+00 
105300 6.5109343861e+00 1.2054599071e-04 1.5906992150e+00 -2.7551718600e+00 1.5906992150e+00 2.7551718600e+00 
105400 6.5109345122e+00 1.2192418179e-04 1.5906954259e+00 -2.7551652971e+00 1.5906954259e+00 2.7551652971e+00 
105500 6.5109346351e+00 1.2320960808e-04 1.5906915935e+00 -2.7551586592e+00 1.5906915935e+00 2.7551586592e+00 
105600 6.5109347550e+00 1.2440323412e-04 1.5906877207e+00 -2.7551519512e+00 1.5906877207e+00 2.7551519512e+00 
105700 6.5109348718e+00 1.2550607179e-04 1.5906838103e+00 -2.7551451783e+00 1.5906838103e+00 2.7551451783e+00 
105800 6.5109349858e+00 1.2651917840e-04 1.5906798653e+00 -2.7551383453e+00 1.5906798653e+00 2.7551383453e+00 
105900 6.5109350968e+00 1.2744365495e-04 1.5906758884e+00 -2.7551314571e+00 1.5906758884e+00 2.7551314571e+00 
106000 6.5109352051e+00 1.2828064436e-04 1.5906718825e+00 -2.7551245186e+00 1.5906718825e+00 2.7551245186e+00 
106100 6.5109353106e+00 1.2903132962e-04 1.5906678502e+00 -2.7551175345e+00 1.5906678502e+00 2.7551175345e+00 
106200 6.5109354135e+00 1.2969693210e-04 1.5906637943e+00 -2.7551105095e+00 1.5906637943e+00 2.7551105095e+00 
106300 6.5109355137e+00 1.3027870976e-04 1.5906597175e+00 -2.7551034482e+00 1.5906597175e+00 2.7551034482e+00 
106400 6.5109356113e+00 1.3077795539e-04 1.5906556224e+00 -2.7550963553e+00 1.5906556224e+00 2.7550963553e+00 
106500 6.5109357065e+00 1.3119599494e-04 1.5906515115e+00 -2.7550892351e+00 1.5906515115e+00 2.7550892351e+00 
106600 6.5109357993e+00 1.3153418574e-04 1.5906473876e+00 -2.7550820922e+00 1.5906473876e+00 2.7550820922e+00 
106700 6.5109358897e+00 1.3179391485e-04 1.5906432530e+00 -2.7550749309e+00 1.5906432530e+00 2.7550749309e+00 
106800 6.5109359779e+00 1.3197659734e-04 1.5906391102e+00 -2.7550677553e+00 1.5906391102e+00 2.7550677553e+00 
106900 6.5109360638e+00 1.3208367465e-04 1.5906349616e+00 -2.7550605699e+00 1.5906349616e+00 2.7550605699e+00 
107000 6.5109361475e+00 1.3211661292e-04 1.5906308097e+00 -2.7550533785e+00 1.5906308097e+00 2.7550533785e+00 
107100 6.5109362292e+00 1.3207690138e-04 1.5906266568e+00 -2.7550461854e+00 1.5906266568e+00 2.7550461854e+00 
107200 6.5109363088e+00 1.3196605072e-04 1.5906225050e+00 -2.7550389944e+00 1.5906225050e+00 2.7550389944e+00 
107300 6.5109363864e+00 1.3178559149e-04 1.5906183568e+00 -2.7550318094e+00 1.5906183568e+00 2.7550318094e+00 
107400 6.5109364622e+00 1.3153707253e-04 1.5906142142e+00 -2.7550246343e+00 1.5906142142e+00 2.7550246343e+00 
107500 6.5109365361e+00 1.3122205942e-04 1.5906100794e+00 -2.7550174726e+00 1.5906100794e+00 2.7550174726e+00 
107600 6.5109366082e+00 1.3084213295e-04 1.5906059545e+00 -2.7550103281e+00 1.5906059545e+00 2.7550103281e+00 
107700 6.5109366786e+00 1.3039888760e-04 1.5906018416e+00 -2.7550032042e+00 1.5906018416e+00 2.7550032042e+00 
107800 6.5109367473e+00 1.2989393005e-04 1.5905977425e+00 -2.7549961045e+00 1.5905977425e+00 2.7549961045e+00 
107900 6.5109368144e+00 1.2932887770e-04 1.5905936593e+00 -2.7549890322e+00 1.5905936593e+00 2.7549890322e+00 
108000 6.5109368799e+00 1.2870535727e-04 1.5905895939e+00 -2.7549819907e+00 1.5905895939e+00 2.7549819907e+00 
108100 6.5109369440e+00 1.2802500333e-04 1.5905855481e+00 -2.7549749831e+00 1.5905855481e+00 2.7549749831e+00 
108200 6.5109370066e+00 1.2728945695e-04 1.5905815236e+00 -2.7549680125e+00 1.5905815236e+00 2.7549680125e+00 
108300 6.5109370677e+00 1.2650036427e-04 1.5905775223e+00 -2.7549610820e+00 1.5905775223e+00 2.7549610820e+00 
108400 6.5109371276e+00 1.2565937524e-04 1.5905735457e+00 -2.7549541944e+00 1.5905735457e+00 2.7549541944e+00 
108500 6.5109371862e+00 1.2476814223e-04 1.5905695956e+00 -2.7549473525e+00 1.5905695956e+00 2.7549473525e+00 
108600 6.5109372435e+00 1.2382831877e-04 1.5905656735e+00 -2.7549405592e+00 1.5905656735e+00 2.7549405592e+00 
108700 6.5109372996e+00 1.2284155827e-04 1.5905617809e+00 -2.7549338171e+00 1.5905617809e+00 2.7549338171e+00 
108800 6.5109373545e+00 1.2180951281e-04 1.5905579193e+00 -2.7549271286e+00 1.5905579193e+00 2.7549271286e+00 
108900 6.5109374083e+00 1.2073383189e-04 1.5905540902e+00 -2.7549204964e+00 1.5905540902e+00 2.7549204964e+00 
109000 6.5109374611e+00 1.1961616128e-04 1.5905502948e+00 -2.7549139226e+00 1.5905502948e+00 2.7549139226e+00 
109100 6.5109375128e+00 1.1845814186e-04 1.5905465346e+00 -2.7549074098e+00 1.5905465346e+00 2.7549074098e+00 
109200 6.5109375636e+00 1.1726140848e-04 1.5905428108e+00 -2.7549009599e+00 1.5905428108e+00 2.7549009599e+00 
109300 6.5109376134e+00 1.1602758887e-04 1.5905391246e+00 -2.7548945752e+00 1.5905391246e+00 2.7548945752e+00 
109400 6.5109376623e+00 1.1475830258e-04 1.5905354772e+00 -2.7548882577e+00 1.5905354772e+00 2.7548882577e+00 
109500 6.5109377103e+00 1.1345515994e-04 1.5905318696e+00 -2.7548820093e+00 1.5905318696e+00 2.7548820093e+00 
109600 6.5109377574e+00 1.1211976103e-04 1.5905283031e+00 -2.7548758318e+00 1.5905283031e+00 2.7548758318e+00 
109700 6.5109378038e+00 1.1075369473e-04 1.5905247785e+00 -2.7548697270e+00 1.5905247785e+00 2.7548697270e+00 
109800 6.5109378493e+00 1.0935853773e-04 1.5905212968e+00 -2.7548636965e+00 1.5905212968e+00 2.7548636965e+00 
109900 6.5109378941e+00 1.0793585368e-04 1.5905178590e+00 -2.7548577421e+00 1.5905178590e+00 2.7548577421e+00 
110000 6.5109379382e+00 1.0648719221e-04 1.5905144659e+00 -2.7548518650e+00 1.5905144659e+00 2.7548518650e+00 
110100 6.5109379816e+00 1.0501408813e-04 1.5905111183e+00 -2.7548460669e+00 1.5905111183e+00 2.7548460669e+00 
110200 6.5109380243e+00 1.0351806058e-04 1.5905078170e+00 -2.7548403489e+00 1.5905078170e+00 2.7548403489e+00 
110300 6.5109380663e+00 1.0200061224e-04 1.5905045628e+00 -2.7548347124e+00 1.5905045628e+00 2.7548347124e+00 
110400 6.5109381078e+00 1.0046322853e-04 1.5905013562e+00 -2.7548291585e+00 1.5905013562e+00 2.7548291585e+00 
110500 6.5109381486e+00 9.8907376896e-05 1.5904981980e+00 -2.7548236883e+00 1.5904981980e+00 2.7548236883e+00 
110600 6.5109381889e+00 9.7334506102e-05 1.5904950887e+00 -2.7548183028e+00 1.5904950887e+00 2.7548183028e+00 
110700 6.5109382286e+00 9.5746045524e-05 1.5904920288e+00 -2.7548130029e+00 1.5904920288e+00 2.7548130029e+00 
110800 6.5109382677e+00 9.4143404519e-05 1.5904890189e+00 -2.7548077895e+00 1.5904890189e+00 2.7548077895e+00 
110900 6.5109383063e+00 9.2527971783e-05 1.5904860593e+00 -2.7548026634e+00 1.5904860593e+00 2.7548026634e+00 
111000 6.5109383444e+00 9.0901114782e-05 1.5904831505e+00 -2.7547976252e+00 1.5904831505e+00 2.7547976252e+00 
111100 6.5109383820e+00 8.9264179168e-05 1.5904802928e+00 -2.7547926756e+00 1.5904802928e+00 2.7547926756e+00 
111200 6.5109384191e+00 8.7618488251e-05 1.5904774866e+00 -2.7547878151e+00 1.5904774866e+00 2.7547878151e+00 
111300 6.5109384558e+00 8.5965342502e-05 1.5904747322e+00 -2.7547830443e+00 1.5904747322e+00 2.7547830443e+00 
111400 6.5109384920e+00 8.4306019056e-05 1.5904720297e+00 -2.7547783634e+00 1.5904720297e+00 2.7547783634e+00 
111500 6.5109385277e+00 8.2641771278e-05 1.5904693793e+00 -2.7547737729e+00 1.5904693793e+00 2.7547737729e+00 
111600 6.5109385630e+00 8.0973828338e-05 1.5904667813e+00 -2.7547692729e+00 1.5904667813e+00 2.7547692729e+00 
111700 6.5109385979e+00 7.9303394826e-05 1.5904642357e+00 -2.7547648638e+00 1.5904642357e+00 2.7547648638e+00 
111800 6.5109386324e+00 7.7631650365e-05 1.5904617426e+00 -2.7547605457e+00 1.5904617426e+00 2.7547605457e+00 
111900 6.5109386664e+00 7.5959749294e-05 1.5904593021e+00 -2.7547563185e+00 1.5904593021e+00 2.7547563185e+00 
112000 6.5109387001e+00 7.4288820345e-05 1.5904569141e+00 -2.7547521824e+00 1.5904569141e+00 2.7547521824e+00 
112100 6.5109387333e+00 7.2619966368e-05 1.5904545786e+00 -2.7547481373e+00 1.5904545786e+00 2.7547481373e+00 
112200 6.5109387662e+00 7.0954264061e-05 1.5904522956e+00 -2.7547441830e+00 1.5904522956e+00 2.7547441830e+00 
112300 6.5109387986e+00 6.9292763740e-05 1.5904500650e+00 -2.7547403195e+00 1.5904500650e+00 2.7547403195e+00 
112400 6.5109388309e+00 7.0619212103e-05 1.5904500650e+00 -2.7547403195e+00 1.5904500650e+00 2.7547403195e+00 
112500 6.5109388628e+00 7.1897641302e-05 1.5904500650e+00 -2.7547403195e+00 1.5904500650e+00 2.7547403195e+00 
112600 6.5109388941e+00 7.0034310744e-05 1.5904478047e+00 -2.7547364045e+00 1.5904478047e+00 2.7547364045e+00 
112700 6.5109389253e+00 7.1202316130e-05 1.5904478047e+00 -2.7547364045e+00 1.5904478047e+00 2.7547364045e+00 
112800 6.5109389559e+00 6.9260359300e-05 1.5904455663e+00 -2.7547325275e+00 1.5904455663e+00 2.7547325275e+00 
112900 6.5109389863e+00 7.0321858332e-05 1.5904455663e+00 -2.7547325275e+00 1.5904455663e+00 2.7547325275e+00 
113000 6.5109390163e+00 7.1340187741e-05 1.5904455663e+00 -2.7547325275e+00 1.5904455663e+00 2.7547325275e+00 
113100 6.5109390458e+00 6.9245562784e-05 1.5904433235e+00 -2.7547286429e+00 1.5904433235e+00 2.7547286429e+00 
113200 6.5109390751e+00 7.0163226534e-05 1.5904433235e+00 -2.7547286429e+00 1.5904433235e+00 2.7547286429e+00 
113300 6.5109391041e+00 7.1040626052e-05 1.5904433235e+00 -2.7547286429e+00 1.5904433235e+00 2.7547286429e+00 
113400 6.5109391325e+00 6.8820845525e-05 1.5904410901e+00 -2.7547247746e+00 1.5904410901e+00 2.7547247746e+00 
113500 6.5109391607e+00 6.9603401841e-05 1.5904410901e+00 -2.7547247746e+00 1.5904410901e+00 2.7547247746e+00 
113600 6.5109391886e+00 7.0348539070e-05 1.5904410901e+00 -2.7547247746e+00 1.5904410901e+00 2.7547247746e+00 
113700 6.5109392161e+00 7.1057295128e-05 1.5904410901e+00 -2.7547247746e+00 1.5904410901e+00 2.7547247746e+00 
113800 6.5109392431e+00 6.8671998555e-05 1.5904388563e+00 -2.7547209054e+00 1.5904388563e+00 2.7547209054e+00 
113900 6.5109392699e+00 6.9293565156e-05 1.5904388563e+00 -2.7547209054e+00 1.5904388563e+00 2.7547209054e+00 
114000 6.5109392963e+00 6.9881488467e-05 1.5904388563e+00 -2.7547209054e+00 1.5904388563e+00 2.7547209054e+00 
114100 6.5109393224e+00 7.0436771357e-05 1.5904388563e+00 -2.7547209054e+00 1.5904388563e+00 2.7547209054e+00 
114200 6.5109393482e+00 7.0960401157e-05 1.5904388563e+00 -2.7547209054e+00 1.5904388563e+00 2.7547209054e+00 
114300 6.5109393734e+00 6.8398828450e-05 1.5904366254e+00 -2.7547170414e+00 1.5904366254e+00 2.7547170414e+00 
114400 6.5109393984e+00 6.8844598951e-05 1.5904366254e+00 -2.7547170414e+00 1.5904366254e+00 2.7547170414e+00 
114500 6.5109394231e+00 6.9261306135e-05 1.5904366254e+00 -2.7547170414e+00 1.5904366254e+00 2.7547170414e+00 
114600 6.5109394475e+00 6.9649904226e-05 1.5904366254e+00 -2.7547170414e+00 1.5904366254e+00 2.7547170414e+00 
114700 6.5109394715e+00 7.0011332310e-05 1.5904366254e+00 -2.7547170414e+00 1.5904366254e+00 2.7547170414e+00 
114800 6.5109394951e+00 7.0346514540e-05 1.5904366254e+00 -2.7547170414e+00 1.5904366254e+00 2.7547170414e+00 
114900 6.5109395184e+00 7.0656360355e-05 1.5904366254e+00 -2.7547170414e+00 1.5904366254e+00 2.7547170414e+00 
115000 6.5109395413e+00 7.0941764668e-05 1.5904366254e+00 -2.7547170414e+00 1.5904366254e+00 2.7547170414e+00 
115100 6.5109395638e+00 6.8149899145e-05 1.5904343951e+00 -2.7547131785e+00 1.5904343951e+00 2.7547131785e+00 
115200 6.5109395860e+00 6.8371598006e-05 1.5904343951e+00 -2.7547131785e+00 1.5904343951e+00 2.7547131785e+00 
115300 6.5109396079e+00 6.8571173582e-05 1.5904343951e+00 -2.7547131785e+00 1.5904343951e+00 2.7547131785e+00 
115400 6.5109396295e+00 6.8749491145e-05 1.5904343951e+00 -2.7547131785e+00 1.5904343951e+00 2.7547131785e+00 
115500 6.5109396508e+00 6.8907401539e-05 1.5904343951e+00 -2.7547131785e+00 1.5904343951e+00 2.7547131785e+00 
115600 6.5109396717e+00 6.9045741353e-05 1.5904343951e+00 -2.7547131785e+00 1.5904343951e+00 2.7547131785e+00 
115700 6.5109396922e+00 6.9165333073e-05 1.5904343951e+00 -2.7547131785e+00 1.5904343951e+00 2.7547131785e+00 
115800 6.5109397125e+00 6.9266985232e-05 1.5904343951e+00 -2.7547131785e+00 1.5904343951e+00 2.7547131785e+00 
115900 6.5109397324e+00 6.9351492544e-05 1.5904343951e+00 -2.7547131785e+00 1.5904343951e+00 2.7547131785e+00 
116000 6.5109397519e+00 6.9419636050e-05 1.5904343951e+00 -2.7547131785e+00 1.5904343951e+00 2.7547131785e+00 
116100 6.5109397712e+00 6.9472183238e-05 1.5904343951e+00 -2.7547131785e+00 1.5904343951e+00 2.7547131785e+00 
116200 6.5109397901e+00 6.9509888172e-05 1.5904343951e+00 -2.7547131785e+00 1.5904343951e+00 2.7547131785e+00 
116300 6.5109398087e+00 6.9533491617e-05 1.5904343951e+00 -2.7547131785e+00 1.5904343951e+00 2.7547131785e+00 
116400 6.5109398270e+00 6.9543721142e-05 1.5904343951e+00 -2.7547131785e+00 1.5904343951e+00 2.7547131785e+00 
116500 6.5109398450e+00 6.9541291240e-05 1.5904343951e+00 -2.7547131785e+00 1.5904343951e+00 2.7547131785e+00 
116600 6.5109398627e+00 6.9526903424e-05 1.5904343951e+00 -2.7547131785e+00 1.5904343951e+00 2.7547131785e+00 
116700 6.5109398800e+00 6.9501246334e-05 1.5904343951e+00 -2.7547131785e+00 1.5904343951e+00 2.7547131785e+00 
116800 6.5109398971e+00 6.9464995829e-05 1.5904343951e+00 -2.7547131785e+00 1.5904343951e+00 2.7547131785e+00 
116900 6.5109399138e+00 6.9418815084e-05 1.5904343951e+00 -2.7547131785e+00 1.5904343951e+00 2.7547131785e+00 
117000 6.5109399303e+00 6.9363354670e-05 1.5904343951e+00 -2.7547131785e+00 1.5904343951e+00 2.7547131785e+00 
117100 6.5109399465e+00 6.9299252644e-05 1.5904343951e+00 -2.7547131785e+00 1.5904343951e+00 2.7547131785e+00 
117200 6.5109399623e+00 6.9227134636e-05 1.5904343951e+00 -2.7547131785e+00 1.5904343951e+00 2.7547131785e+00 
117300 6.5109399779e+00 6.9147613911e-05 1.5904343951e+00 -2.7547131785e+00 1.5904343951e+00 2.7547131785e+00 
117400 6.5109399932e+00 6.9061291459e-05 1.5904343951e+00 -2.7547131785e+00 1.5904343951e+00 2.7547131785e+00 
117500 6.5109400082e+00 6.8968756062e-05 1.5904343951e+00 -2.7547131785e+00 1.5904343951e+00 2.7547131785e+00 
117600 6.5109400230e+00 6.8870584363e-05 1.5904343951e+00 -2.7547131785e+00 1.5904343951e+00 2.7547131785e+00 
117700 6.5109400375e+00 6.8767340933e-05 1.5904343951e+00 -2.7547131785e+00 1.5904343951e+00 2.7547131785e+00 
117800 6.5109400517e+00 6.8659578344e-05 1.5904343951e+00 -2.7547131785e+00 1.5904343951e+00 2.7547131785e+00 
117900 6.5109400657e+00 6.8547837217e-05 1.5904343951e+00 -2.7547131785e+00 1.5904343951e+00 2.7547131785e+00 
118000 6.5109400794e+00 6.8432646299e-05 1.5904343951e+00 -2.7547131785e+00 1.5904343951e+00 2.7547131785e+00 
118100 6.5109400928e+00 6.8314522515e-05 1.5904343951e+00 -2.7547131785e+00 1.5904343951e+00 2.7547131785e+00 
118200 6.5109401060e+00 6.8193971029e-05 1.5904343951e+00 -2.7547131785e+00 1.5904343951e+00 2.7547131785e+00 
118300 6.5109401190e+00 6.8071485304e-05 1.5904343951e+00 -2.7547131785e+00 1.5904343951e+00 2.7547131785e+00 
118400 6.5109401317e+00 6.7947547155e-05 1.5904343951e+00 -2.7547131785e+00 1.5904343951e+00 2.7547131785e+00 
118500 6.5109401442e+00 6.7822626806e-05 1.5904343951e+00 -2.7547131785e+00 1.5904343951e+00 2.7547131785e+00 
118600 6.5109401565e+00 6.7697182949e-05 1.5904343951e+00 -2.7547131785e+00 1.5904343951e+00 2.7547131785e+00 
118700 6.5109401685e+00 6.7571662794e-05 1.5904343951e+00 -2.7547131785e+00 1.5904343951e+00 2.7547131785e+00 
118800 6.5109401804e+00 6.7446502130e-05 1.5904343951e+00 -2.7547131785e+00 1.5904343951e+00 2.7547131785e+00 
118900 6.5109401920e+00 6.7322125375e-05 1.5904343951e+00 -2.7547131785e+00 1.5904343951e+00 2.7547131785e+00 
119000 6.5109402034e+00 6.7198945633e-05 1.5904343951e+00 -2.7547131785e+00 1.5904343951e+00 2.7547131785e+00 
119100 6.5109402146e+00 6.7077364753e-05 1.5904343951e+00 -2.7547131785e+00 1.5904343951e+00 2.7547131785e+00 
119200 6.5109402256e+00 6.6957773373e-05 1.5904343951e+00 -2.7547131785e+00 1.5904343951e+00 2.7547131785e+00 
119300 6.5109402364e+00 6.6840550995e-05 1.5904343951e+00 -2.7547131785e+00 1.5904343951e+00 2.7547131785e+00 
119400 6.5109402470e+00 6.6726066024e-05 1.5904343951e+00 -2.7547131785e+00 1.5904343951e+00 2.7547131785e+00 
119500 6.5109402574e+00 6.6614675839e-05 1.5904343951e+00 -2.7547131785e+00 1.5904343951e+00 2.7547131785e+00 
119600 6.5109402676e+00 6.6506726842e-05 1.5904343951e+00 -2.7547131785e+00 1.5904343951e+00 2.7547131785e+00 
119700 6.5109402777e+00 6.6402554529e-05 1.5904343951e+00 -2.7547131785e+00 1.5904343951e+00 2.7547131785e+00 
119800 6.5109402876e+00 6.6302483542e-05 1.5904343951e+00 -2.7547131785e+00 1.5904343951e+00 2.7547131785e+00 
119900 6.5109402973e+00 6.6206827735e-05 1.5904343951e+00 -2.7547131785e+00 1.5904343951e+00 2.7547131785e+00 
120000 6.5109403068e+00 6.6115890243e-05 1.5904343951e+00 -2.7547131785e+00 1.5904343951e+00 2.7547131785e+00 
120100 6.5109403162e+00 6.6029963536e-05 1.5904343951e+00 -2.7547131785e+00 1.5904343951e+00 2.7547131785e+00 
120200 6.5109403254e+00 6.5949329501e-05 1.5904343951e+00 -2.7547131785e+00 1.5904343951e+00 2.7547131785e+00 
120300 6.5109403345e+00 6.5874259502e-05 1.5904343951e+00 -2.7547131785e+00 1.5904343951e+00 2.7547131785e+00 
120400 6.5109403434e+00 6.5805014451e-05 1.5904343951e+00 -2.7547131785e+00 1.5904343951e+00 2.7547131785e+00 
120500 6.5109403522e+00 6.5741844883e-05 1.5904343951e+00 -2.7547131785e+00 1.5904343951e+00 2.7547131785e+00 
120600 6.5109403608e+00 6.5684991037e-05 1.5904343951e+00 -2.7547131785e+00 1.5904343951e+00 2.7547131785e+00 
120700 6.5109403693e+00 6.5634682920e-05 1.5904343951e+00 -2.7547131785e+00 1.5904343951e+00 2.7547131785e+00 
120800 6.5109403777e+00 6.5591140397e-05 1.5904343951e+00 -2.7547131785e+00 1.5904343951e+00 2.7547131785e+00 
120900 6.5109403859e+00 6.5554573265e-05 1.5904343951e+00 -2.7547131785e+00 1.5904343951e+00 2.7547131785e+00 
121000 6.5109403940e+00 6.5525181341e-05 1.5904343951e+00 -2.7547131785e+00 1.5904343951e+00 2.7547131785e+00 
121100 6.5109404019e+00 6.5503154550e-05 1.5904343951e+00 -2.7547131785e+00 1.5904343951e+00 2.7547131785e+00 
121200 6.5109404098e+00 6.5488673004e-05 1.5904343951e+00 -2.7547131785e+00 1.5904343951e+00 2.7547131785e+00 
121300 6.5109404175e+00 6.5481907100e-05 1.5904343951e+00 -2.7547131785e+00 1.5904343951e+00 2.7547131785e+00 
121400 6.5109404251e+00 6.5483017614e-05 1.5904343951e+00 -2.7547131785e+00 1.5904343951e+00 2.7547131785e+00 
121500 6.5109404326e+00 6.5492155785e-05 1.5904343951e+00 -2.7547131785e+00 1.5904343951e+00 2.7547131785e+00 
121600 6.5109404400e+00 6.5509463426e-05 1.5904343951e+00 -2.7547131785e+00 1.5904343951e+00 2.7547131785e+00 
121700 6.5109404473e+00 6.5535073012e-05 1.5904343951e+00 -2.7547131785e+00 1.5904343951e+00 2.7547131785e+00 
121800 6.5109404545e+00 6.5569107792e-05 1.5904343951e+00 -2.7547131785e+00 1.5904343951e+00 2.7547131785e+00 
121900 6.5109404616e+00 6.5611681883e-05 1.5904343951e+00 -2.7547131785e+00 1.5904343951e+00 2.7547131785e+00 
122000 6.5109404685e+00 6.5662900392e-05 1.5904343951e+00 -2.7547131785e+00 1.5904343951e+00 2.7547131785e+00 
122100 6.5109404754e+00 6.5722859508e-05 1.5904343951e+00 -2.7547131785e+00 1.5904343951e+00 2.7547131785e+00 
122200 6.5109404822e+00 6.5791646625e-05 1.5904343951e+00 -2.7547131785e+00 1.5904343951e+00 2.7547131785e+00 
122300 6.5109404889e+00 6.5869340450e-05 1.5904343951e+00 -2.7547131785e+00 1.5904343951e+00 2.7547131785e+00 
122400 6.5109404955e+00 6.5956011128e-05 1.5904343951e+00 -2.7547131785e+00 1.5904343951e+00 2.7547131785e+00 
122500 6.5109405020e+00 6.6051720346e-05 1.5904343951e+00 -2.7547131785e+00 1.5904343951e+00 2.7547131785e+00 
122600 6.5109405084e+00 6.6156521467e-05 1.5904343951e+00 -2.7547131785e+00 1.5904343951e+00 2.7547131785e+00 
122700 6.5109405147e+00 6.6270459648e-05 1.5904343951e+00 -2.7547131785e+00 1.5904343951e+00 2.7547131785e+00 
122800 6.5109405210e+00 6.6393571962e-05 1.5904343951e+00 -2.7547131785e+00 1.5904343951e+00 2.7547131785e+00 
122900 6.5109405272e+00 6.6525887529e-05 1.5904343951e+00 -2.7547131785e+00 1.5904343951e+00 2.7547131785e+00 
123000 6.5109405333e+00 6.6667427647e-05 1.5904343951e+00 -2.7547131785e+00 1.5904343951e+00 2.7547131785e+00 
123100 6.5109405393e+00 6.6818205919e-05 1.5904343951e+00 -2.7547131785e+00 1.5904343951e+00 2.7547131785e+00 
123200 6.5109405452e+00 6.6978228390e-05 1.5904343951e+00 -2.7547131785e+00 1.5904343951e+00 2.7547131785e+00 
123300 6.5109405511e+00 6.7147493675e-05 1.5904343951e+00 -2.7547131785e+00 1.5904343951e+00 2.7547131785e+00 
123400 6.5109405569e+00 6.7325993108e-05 1.5904343951e+00 -2.7547131785e+00 1.5904343951e+00 2.7547131785e+00 
123500 6.5109405626e+00 6.7513710869e-05 1.5904343951e+00 -2.7547131785e+00 1.5904343951e+00 2.7547131785e+00 
123600 6.5109405683e+00 6.7710624129e-05 1.5904343951e+00 -2.7547131785e+00 1.5904343951e+00 2.7547131785e+00 
123700 6.5109405738e+00 6.7916703197e-05 1.5904343951e+00 -2.7547131785e+00 1.5904343951e+00 2.7547131785e+00 
123800 6.5109405794e+00 6.8131911656e-05 1.5904343951e+00 -2.7547131785e+00 1.5904343951e+00 2.7547131785e+00 
123900 6.5109405848e+00 6.8356206511e-05 1.5904343951e+00 -2.7547131785e+00 1.5904343951e+00 2.7547131785e+00 
124000 6.5109405902e+00 6.8589538336e-05 1.5904343951e+00 -2.7547131785e+00 1.5904343951e+00 2.7547131785e+00 
124100 6.5109405955e+00 6.8831851426e-05 1.5904343951e+00 -2.7547131785e+00 1.5904343951e+00 2.7547131785e+00 
124200 6.5109406008e+00 6.9083083938e-05 1.5904343951e+00 -2.7547131785e+00 1.5904343951e+00 2.7547131785e+00 
124300 6.5109406060e+00 6.9343168046e-05 1.5904343951e+00 -2.7547131785e+00 1.5904343951e+00 2.7547131785e+00 
124400 6.5109406111e+00 6.9612030092e-05 1.5904343951e+00 -2.7547131785e+00 1.5904343951e+00 2.7547131785e+00 
124500 6.5109406161e+00 6.9889590739e-05 1.5904343951e+00 -2.7547131785e+00 1.5904343951e+00 2.7547131785e+00 
124600 6.5109406211e+00 7.0175765122e-05 1.5904343951e+00 -2.7547131785e+00 1.5904343951e+00 2.7547131785e+00 
124700 6.5109406261e+00 7.0470463007e-05 1.5904343951e+00 -2.7547131785e+00 1.5904343951e+00 2.7547131785e+00 
124800 6.5109406310e+00 7.0773588939e-05 1.5904343951e+00 -2.7547131785e+00 1.5904343951e+00 2.7547131785e+00 
124900 6.5109406356e+00 6.8038766871e-05 1.5904321702e+00 -2.7547093247e+00 1.5904321702e+00 2.7547093247e+00 
125000 6.5109406404e+00 6.8341025477e-05 1.5904321702e+00 -2.7547093247e+00 1.5904321702e+00 2.7547093247e+00 
125100 6.5109406451e+00 6.8651116228e-05 1.5904321702e+00 -2.7547093247e+00 1.5904321702e+00 2.7547093247e+00 
125200 6.5109406498e+00 6.8968950850e-05 1.5904321702e+00 -2.7547093247e+00 1.5904321702e+00 2.7547093247e+00 
125300 6.5109406543e+00 6.9294435863e-05 1.5904321702e+00 -2.7547093247e+00 1.5904321702e+00 2.7547093247e+00 
125400 6.5109406589e+00 6.9627472745e-05 1.5904321702e+00 -2.7547093247e+00 1.5904321702e+00 2.7547093247e+00 
125500 6.5109406634e+00 6.9967958085e-05 1.5904321702e+00 -2.7547093247e+00 1.5904321702e+00 2.7547093247e+00 
125600 6.5109406678e+00 7.0315783764e-05 1.5904321702e+00 -2.7547093247e+00 1.5904321702e+00 2.7547093247e+00 
125700 6.5109406722e+00 7.0670837111e-05 1.5904321702e+00 -2.7547093247e+00 1.5904321702e+00 2.7547093247e+00 
125800 6.5109406765e+00 7.1033001056e-05 1.5904321702e+00 -2.7547093247e+00 1.5904321702e+00 2.7547093247e+00 
125900 6.5109406806e+00 6.8344709931e-05 1.5904299370e+00 -2.7547054568e+00 1.5904299370e+00 2.7547054568e+00 
126000 6.5109406848e+00 6.8703245329e-05 1.5904299370e+00 -2.7547054568e+00 1.5904299370e+00 2.7547054568e+00 
126100 6.5109406890e+00 6.9068234692e-05 1.5904299370e+00 -2.7547054568e+00 1.5904299370e+00 2.7547054568e+00 
126200 6.5109406931e+00 6.9439571638e-05 1.5904299370e+00 -2.7547054568e+00 1.5904299370e+00 2.7547054568e+00 
126300 6.5109406972e+00 6.9817145442e-05 1.5904299370e+00 -2.7547054568e+00 1.5904299370e+00 2.7547054568e+00 
126400 6.5109407012e+00 7.0200841209e-05 1.5904299370e+00 -2.7547054568e+00 1.5904299370e+00 2.7547054568e+00 
126500 6.5109407051e+00 7.0590540039e-05 1.5904299370e+00 -2.7547054568e+00 1.5904299370e+00 2.7547054568e+00 
126600 6.5109407091e+00 7.0986119205e-05 1.5904299370e+00 -2.7547054568e+00 1.5904299370e+00 2.7547054568e+00 
126700 6.5109407127e+00 6.8332019629e-05 1.5904277054e+00 -2.7547015915e+00 1.5904277054e+00 2.7547015915e+00 
126800 6.5109407165e+00 6.8721505723e-05 1.5904277054e+00 -2.7547015915e+00 1.5904277054e+00 2.7547015915e+00 
126900 6.5109407203e+00 6.9116202114e-05 1.5904277054e+00 -2.7547015915e+00 1.5904277054e+00 2.7547015915e+00 
127000 6.5109407240e+00 6.9515998989e-05 1.5904277054e+00 -2.7547015915e+00 1.5904277054e+00 2.7547015915e+00 
127100 6.5109407277e+00 6.9920782766e-05 1.5904277054e+00 -2.7547015915e+00 1.5904277054e+00 2.7547015915e+00 
127200 6.5109407313e+00 7.0330436265e-05 1.5904277054e+00 -2.7547015915e+00 1.5904277054e+00 2.7547015915e+00 
127300 6.5109407349e+00 7.0744838882e-05 1.5904277054e+00 -2.7547015915e+00 1.5904277054e+00 2.7547015915e+00 
127400 6.5109407382e+00 6.8118811735e-05 1.5904254813e+00 -2.7546977393e+00 1.5904254813e+00 2.7546977393e+00 
127500 6.5109407417e+00 6.8524925607e-05 1.5904254813e+00 -2.7546977393e+00 1.5904254813e+00 2.7546977393e+00 
127600 6.5109407451e+00 6.8935128370e-05 1.5904254813e+00 -2.7546977393e+00 1.5904254813e+00 2.7546977393e+00 
127700 6.5109407485e+00 6.9349313874e-05 1.5904254813e+00 -2.7546977393e+00 1.5904254813e+00 2.7546977393e+00 
127800 6.5109407518e+00 6.9767372623e-05 1.5904254813e+00 -2.7546977393e+00 1.5904254813e+00 2.7546977393e+00 
127900 6.5109407551e+00 7.0189191925e-05 1.5904254813e+00 -2.7546977393e+00 1.5904254813e+00 2.7546977393e+00 
128000 6.5109407584e+00 7.0614656074e-05 1.5904254813e+00 -2.7546977393e+00 1.5904254813e+00 2.7546977393e+00 
128100 6.5109407616e+00 7.1043646521e-05 1.5904254813e+00 -2.7546977393e+00 1.5904254813e+00 2.7546977393e+00 
128200 6.5109407645e+00 6.8418118012e-05 1.5904232478e+00 -2.7546938708e+00 1.5904232478e+00 2.7546938708e+00 
128300 6.5109407677e+00 6.8836308290e-05 1.5904232478e+00 -2.7546938708e+00 1.5904232478e+00 2.7546938708e+00 
128400 6.5109407707e+00 6.9257373111e-05 1.5904232478e+00 -2.7546938708e+00 1.5904232478e+00 2.7546938708e+00 
128500 6.5109407738e+00 6.9681210779e-05 1.5904232478e+00 -2.7546938708e+00 1.5904232478e+00 2.7546938708e+00 
128600 6.5109407767e+00 7.0107716808e-05 1.5904232478e+00 -2.7546938708e+00 1.5904232478e+00 2.7546938708e+00 
128700 6.5109407797e+00 7.0536784077e-05 1.5904232478e+00 -2.7546938708e+00 1.5904232478e+00 2.7546938708e+00 
128800 6.5109407826e+00 7.0968303003e-05 1.5904232478e+00 -2.7546938708e+00 1.5904232478e+00 2.7546938708e+00 
128900 6.5109407853e+00 6.8347471920e-05 1.5904210167e+00 -2.7546900063e+00 1.5904210167e+00 2.7546900063e+00 
129000 6.5109407881e+00 6.8766087795e-05 1.5904210167e+00 -2.7546900063e+00 1.5904210167e+00 2.7546900063e+00 
129100 6.5109407909e+00 6.9186533048e-05 1.5904210167e+00 -2.7546900063e+00 1.5904210167e+00 2.7546900063e+00 
129200 6.5109407936e+00 6.9608716405e-05 1.5904210167e+00 -2.7546900063e+00 1.5904210167e+00 2.7546900063e+00 
129300 6.5109407963e+00 7.0032544150e-05 1.5904210167e+00 -2.7546900063e+00 1.5904210167e+00 2.7546900063e+00 
129400 6.5109407990e+00 7.0457920288e-05 1.5904210167e+00 -2.7546900063e+00 1.5904210167e+00 2.7546900063e+00 
129500 6.5109408016e+00 7.0884746705e-05 1.5904210167e+00 -2.7546900063e+00 1.5904210167e+00 2.7546900063e+00 
129600 6.5109408040e+00 6.8261820942e-05 1.5904187882e+00 -2.7546861465e+00 1.5904187882e+00 2.7546861465e+00 
129700 6.5109408065e+00 6.8673797375e-05 1.5904187882e+00 -2.7546861465e+00 1.5904187882e+00 2.7546861465e+00 
129800 6.5109408091e+00 6.9086638589e-05 1.5904187882e+00 -2.7546861465e+00 1.5904187882e+00 2.7546861465e+00 
129900 6.5109408115e+00 6.9500266065e-05 1.5904187882e+00 -2.7546861465e+00 1.5904187882e+00 2.7546861465e+00 
130000 6.5109408140e+00 6.9914599146e-05 1.5904187882e+00 -2.7546861465e+00 1.5904187882e+00 2.7546861465e+00 
130100 6.5109408164e+00 7.0329555206e-05 1.5904187882e+00 -2.7546861465e+00 1.5904187882e+00 2.7546861465e+00 
130200 6.5109408188e+00 7.0745049791e-05 1.5904187882e+00 -2.7546861465e+00 1.5904187882e+00 2.7546861465e+00 
130300 6.5109408209e+00 6.8115897973e-05 1.5904165641e+00 -2.7546822942e+00 1.5904165641e+00 2.7546822942e+00 
130400 6.5109408232e+00 6.8514795121e-05 1.5904165641e+00 -2.7546822942e+00 1.5904165641e+00 2.7546822942e+00 
130500 6.5109408255e+00 6.8913688562e-05 1.5904165641e+00 -2.7546822942e+00 1.5904165641e+00 2.7546822942e+00 
130600 6.5109408277e+00 6.9312514475e-05 1.5904165641e+00 -2.7546822942e+00 1.5904165641e+00 2.7546822942e+00 
130700 6.5109408299e+00 6.9711207171e-05 1.5904165641e+00 -2.7546822942e+00 1.5904165641e+00 2.7546822942e+00 
130800 6.5109408321e+00 7.0109699223e-05 1.5904165641e+00 -2.7546822942e+00 1.5904165641e+00 2.7546822942e+00 
130900 6.5109408342e+00 7.0507921624e-05 1.5904165641e+00 -2.7546822942e+00 1.5904165641e+00 2.7546822942e+00 
131000 6.5109408363e+00 7.0905803909e-05 1.5904165641e+00 -2.7546822942e+00 1.5904165641e+00 2.7546822942e+00 
131100 6.5109408382e+00 6.8251246895e-05 1.5904143350e+00 -2.7546784332e+00 1.5904143350e+00 2.7546784332e+00 
131200 6.5109408403e+00 6.8630777817e-05 1.5904143350e+00 -2.7546784332e+00 1.5904143350e+00 2.7546784332e+00 
131300 6.5109408423e+00 6.9009469896e-05 1.5904143350e+00 -2.7546784332e+00 1.5904143350e+00 2.7546784332e+00 
131400 6.5109408443e+00 6.9387274743e-05 1.5904143350e+00 -2.7546784332e+00 1.5904143350e+00 2.7546784332e+00 
131500 6.5109408462e+00 6.9764142413e-05 1.5904143350e+00 -2.7546784332e+00 1.5904143350e+00 2.7546784332e+00 
131600 6.5109408482e+00 7.0140021527e-05 1.5904143350e+00 -2.7546784332e+00 1.5904143350e+00 2.7546784332e+00 
131700 6.5109408501e+00 7.0514859406e-05 1.5904143350e+00 -2.7546784332e+00 1.5904143350e+00 2.7546784332e+00 
131800 6.5109408519e+00 7.0888602190e-05 1.5904143350e+00 -2.7546784332e+00 1.5904143350e+00 2.7546784332e+00 
131900 6.5109408536e+00 6.8209898361e-05 1.5904121063e+00 -2.7546745731e+00 1.5904121063e+00 2.7546745731e+00 
132000 6.5109408554e+00 6.8563834499e-05 1.5904121063e+00 -2.7546745731e+00 1.5904121063e+00 2.7546745731e+00 
132100 6.5109408572e+00 6.8916228254e-05 1.5904121063e+00 -2.7546745731e+00 1.5904121063e+00 2.7546745731e+00 
132200 6.5109408590e+00 6.9267048809e-05 1.5904121063e+00 -2.7546745731e+00 1.5904121063e+00 2.7546745731e+00 
132300 6.5109408607e+00 6.9616263992e-05 1.5904121063e+00 -2.7546745731e+00 1.5904121063e+00 2.7546745731e+00 
132400 6.5109408625e+00 6.9963840393e-05 1.5904121063e+00 -2.7546745731e+00 1.5904121063e+00 2.7546745731e+00 
132500 6.5109408642e+00 7.0309743487e-05 1.5904121063e+00 -2.7546745731e+00 1.5904121063e+00 2.7546745731e+00 
132600 6.5109408658e+00 7.0653937737e-05 1.5904121063e+00 -2.7546745731e+00 1.5904121063e+00 2.7546745731e+00 
132700 6.5109408675e+00 7.0996386714e-05 1.5904121063e+00 -2.7546745731e+00 1.5904121063e+00 2.7546745731e+00 
132800 6.5109408689e+00 6.8281107606e-05 1.5904098743e+00 -2.7546707072e+00 1.5904098743e+00 2.7546707072e+00 
132900 6.5109408705e+00 6.8602475935e-05 1.5904098743e+00 -2.7546707072e+00 1.5904098743e+00 2.7546707072e+00 
133000 6.5109408721e+00 6.8921705101e-05 1.5904098743e+00 -2.7546707072e+00 1.5904098743e+00 2.7546707072e+00 
133100 6.5109408737e+00 6.9238782707e-05 1.5904098743e+00 -2.7546707072e+00 1.5904098743e+00 2.7546707072e+00 
133200 6.5109408752e+00 6.9553695199e-05 1.5904098743e+00 -2.7546707072e+00 1.5904098743e+00 2.7546707072e+00 
133300 6.5109408767e+00 6.9866427971e-05 1.5904098743e+00 -2.7546707072e+00 1.5904098743e+00 2.7546707072e+00 
133400 6.5109408782e+00 7.0176965464e-05 1.5904098743e+00 -2.7546707072e+00 1.5904098743e+00 2.7546707072e+00 
133500 6.5109408797e+00 7.0485291261e-05 1.5904098743e+00 -2.7546707072e+00 1.5904098743e+00 2.7546707072e+00 
133600 6.5109408812e+00 7.0791388184e-05 1.5904098743e+00 -2.7546707072e+00 1.5904098743e+00 2.7546707072e+00 
133700 6.5109408824e+00 6.8048106804e-05 1.5904076488e+00 -2.7546668524e+00 1.5904076488e+00 2.7546668524e+00 
133800 6.5109408839e+00 6.8332264228e-05 1.5904076488e+00 -2.7546668524e+00 1.5904076488e+00 2.7546668524e+00 
133900 6.5109408853e+00 6.8613858146e-05 1.5904076488e+00 -2.7546668524e+00 1.5904076488e+00 2.7546668524e+00 
134000 6.5109408866e+00 6.8892895715e-05 1.5904076488e+00 -2.7546668524e+00 1.5904076488e+00 2.7546668524e+00 
134100 6.5109408880e+00 6.9169382996e-05 1.5904076488e+00 -2.7546668524e+00 1.5904076488e+00 2.7546668524e+00 
134200 6.5109408893e+00 6.9443325044e-05 1.5904076488e+00 -2.7546668524e+00 1.5904076488e+00 2.7546668524e+00 
134300 6.5109408907e+00 6.9714725994e-05 1.5904076488e+00 -2.7546668524e+00 1.5904076488e+00 2.7546668524e+00 
134400 6.5109408920e+00 6.9983589129e-05 1.5904076488e+00 -2.7546668524e+00 1.5904076488e+00 2.7546668524e+00 
134500 6.5109408933e+00 7.0249916978e-05 1.5904076488e+00 -2.7546668524e+00 1.5904076488e+00 2.7546668524e+00 
134600 6.5109408946e+00 7.0513711378e-05 1.5904076488e+00 -2.7546668524e+00 1.5904076488e+00 2.7546668524e+00 
134700 6.5109408958e+00 7.0774973569e-05 1.5904076488e+00 -2.7546668524e+00 1.5904076488e+00 2.7546668524e+00 
134800 6.5109408969e+00 6.7987269761e-05 1.5904054237e+00 -2.7546629985e+00 1.5904054237e+00 2.7546629985e+00 
134900 6.5109408981e+00 6.8226045227e-05 1.5904054237e+00 -2.7546629985e+00 1.5904054237e+00 2.7546629985e+00 
135000 6.5109408993e+00 6.8462009915e-05 1.5904054237e+00 -2.7546629985e+00 1.5904054237e+00 2.7546629985e+00 
135100 6.5109409005e+00 6.8695189817e-05 1.5904054237e+00 -2.7546629985e+00 1.5904054237e+00 2.7546629985e+00 
135200 6.5109409017e+00 6.8925609892e-05 1.5904054237e+00 -2.7546629985e+00 1.5904054237e+00 2.7546629985e+00 
135300 6.5109409029e+00 6.9153294133e-05 1.5904054237e+00 -2.7546629985e+00 1.5904054237e+00 2.7546629985e+00 
135400 6.5109409040e+00 6.9378265636e-05 1.5904054237e+00 -2.7546629985e+00 1.5904054237e+00 2.7546629985e+00 
135500 6.5109409051e+00 6.9600546661e-05 1.5904054237e+00 -2.7546629985e+00 1.5904054237e+00 2.7546629985e+00 
135600 6.5109409063e+00 6.9820158702e-05 1.5904054237e+00 -2.7546629985e+00 1.5904054237e+00 2.7546629985e+00 
135700 6.5109409074e+00 7.0037122540e-05 1.5904054237e+00 -2.7546629985e+00 1.5904054237e+00 2.7546629985e+00 
135800 6.5109409085e+00 7.0251458311e-05 1.5904054237e+00 -2.7546629985e+00 1.5904054237e+00 2.7546629985e+00 
135900 6.5109409096e+00 7.0463185560e-05 1.5904054237e+00 -2.7546629985e+00 1.5904054237e+00 2.7546629985e+00 
136000 6.5109409106e+00 7.0672323291e-05 1.5904054237e+00 -2.7546629985e+00 1.5904054237e+00 2.7546629985e+00 
136100 6.5109409117e+00 7.0878890031e-05 1.5904054237e+00 -2.7546629985e+00 1.5904054237e+00 2.7546629985e+00 
136200 6.5109409125e+00 6.8031987452e-05 1.5904031954e+00 -2.7546591389e+00 1.5904031954e+00 2.7546591389e+00 
136300 6.5109409136e+00 6.8216016258e-05 1.5904031954e+00 -2.7546591389e+00 1.5904031954e+00 2.7546591389e+00 
136400 6.5109409146e+00 6.8397247560e-05 1.5904031954e+00 -2.7546591389e+00 1.5904031954e+00 2.7546591389e+00 
136500 6.5109409156e+00 6.8575724968e-05 1.5904031954e+00 -2.7546591389e+00 1.5904031954e+00 2.7546591389e+00 
136600 6.5109409166e+00 6.8751491080e-05 1.5904031954e+00 -2.7546591389e+00 1.5904031954e+00 2.7546591389e+00 
136700 6.5109409175e+00 6.8924587530e-05 1.5904031954e+00 -2.7546591389e+00 1.5904031954e+00 2.7546591389e+00 
136800 6.5109409185e+00 6.9095055033e-05 1.5904031954e+00 -2.7546591389e+00 1.5904031954e+00 2.7546591389e+00 
136900 6.5109409195e+00 6.9262933433e-05 1.5904031954e+00 -2.7546591389e+00 1.5904031954e+00 2.7546591389e+00 
137000 6.5109409204e+00 6.9428261741e-05 1.5904031954e+00 -2.7546591389e+00 1.5904031954e+00 2.7546591389e+00 
137100 6.5109409213e+00 6.9591078190e-05 1.5904031954e+00 -2.7546591389e+00 1.5904031954e+00 2.7546591389e+00 
137200 6.5109409223e+00 6.9751420266e-05 1.5904031954e+00 -2.7546591389e+00 1.5904031954e+00 2.7546591389e+00 
137300 6.5109409232e+00 6.9909324750e-05 1.5904031954e+00 -2.7546591389e+00 1.5904031954e+00 2.7546591389e+00 
137400 6.5109409241e+00 7.0064827759e-05 1.5904031954e+00 -2.7546591389e+00 1.5904031954e+00 2.7546591389e+00 
137500 6.5109409249e+00 7.0217964782e-05 1.5904031954e+00 -2.7546591389e+00 1.5904031954e+00 2.7546591389e+00 
137600 6.5109409258e+00 7.0368770715e-05 1.5904031954e+00 -2.7546591389e+00 1.5904031954e+00 2.7546591389e+00 
137700 6.5109409267e+00 7.0517279895e-05 1.5904031954e+00 -2.7546591389e+00 1.5904031954e+00 2.7546591389e+00 
137800 6.5109409275e+00 7.0663526138e-05 1.5904031954e+00 -2.7546591389e+00 1.5904031954e+00 2.7546591389e+00 
137900 6.5109409284e+00 7.0807542766e-05 1.5904031954e+00 -2.7546591389e+00 1.5904031954e+00 2.7546591389e+00 
138000 6.5109409290e+00 6.7901508800e-05 1.5904009693e+00 -2.7546552832e+00 1.5904009693e+00 2.7546552832e+00 
138100 6.5109409298e+00 6.8023731743e-05 1.5904009693e+00 -2.7546552832e+00 1.5904009693e+00 2.7546552832e+00 
138200 6.5109409306e+00 6.8143542987e-05 1.5904009693e+00 -2.7546552832e+00 1.5904009693e+00 2.7546552832e+00 
138300 6.5109409315e+00 6.8261000656e-05 1.5904009693e+00 -2.7546552832e+00 1.5904009693e+00 2.7546552832e+00 
138400 6.5109409322e+00 6.8376161745e-05 1.5904009693e+00 -2.7546552832e+00 1.5904009693e+00 2.7546552832e+00 
138500 6.5109409330e+00 6.8489082151e-05 1.5904009693e+00 -2.7546552832e+00 1.5904009693e+00 2.7546552832e+00 
138600 6.5109409338e+00 6.8599816701e-05 1.5904009693e+00 -2.7546552832e+00 1.5904009693e+00 2.7546552832e+00 
138700 6.5109409346e+00 6.8708419186e-05 1.5904009693e+00 -2.7546552832e+00 1.5904009693e+00 2.7546552832e+00 
138800 6.5109409353e+00 6.8814942374e-05 1.5904009693e+00 -2.7546552832e+00 1.5904009693e+00 2.7546552832e+00 
138900 6.5109409361e+00 6.8919438048e-05 1.5904009693e+00 -2.7546552832e+00 1.5904009693e+00 2.7546552832e+00 
139000 6.5109409368e+00 6.9021957034e-05 1.5904009693e+00 -2.7546552832e+00 1.5904009693e+00 2.7546552832e+00 
139100 6.5109409375e+00 6.9122549207e-05 1.5904009693e+00 -2.7546552832e+00 1.5904009693e+00 2.7546552832e+00 
139200 6.5109409382e+00 6.9221263535e-05 1.5904009693e+00 -2.7546552832e+00 1.5904009693e+00 2.7546552832e+00 
139300 6.5109409389e+00 6.9318148093e-05 1.5904009693e+00 -2.7546552832e+00 1.5904009693e+00 2.7546552832e+00 
139400 6.5109409396e+00 6.9413250083e-05 1.5904009693e+00 -2.7546552832e+00 1.5904009693e+00 2.7546552832e+00 
139500 6.5109409403e+00 6.9506615858e-05 1.5904009693e+00 -2.7546552832e+00 1.5904009693e+00 2.7546552832e+00 
139600 6.5109409410e+00 6.9598290947e-05 1.5904009693e+00 -2.7546552832e+00 1.5904009693e+00 2.7546552832e+00 
139700 6.5109409417e+00 6.9688320063e-05 1.5904009693e+00 -2.7546552832e+00 1.5904009693e+00 2.7546552832e+00 
139800 6.5109409423e+00 6.9776747141e-05 1.5904009693e+00 -2.7546552832e+00 1.5904009693e+00 2.7546552832e+00 
139900 6.5109409430e+00 6.9863615333e-05 1.5904009693e+00 -2.7546552832e+00 1.5904009693e+00 2.7546552832e+00 
140000 6.5109409436e+00 6.9948967048e-05 1.5904009693e+00 -2.7546552832e+00 1.5904009693e+00 2.7546552832e+00 
140100 6.5109409443e+00 7.0032843950e-05 1.5904009693e+00 -2.7546552832e+00 1.5904009693e+00 2.7546552832e+00 
140200 6.5109409449e+00 7.0115286986e-05 1.5904009693e+00 -2.7546552832e+00 1.5904009693e+00 2.7546552832e+00 
140300 6.5109409455e+00 7.0196336402e-05 1.5904009693e+00 -2.7546552832e+00 1.5904009693e+00 2.7546552832e+00 
140400 6.5109409461e+00 7.0276031748e-05 1.5904009693e+00 -2.7546552832e+00 1.5904009693e+00 2.7546552832e+00 
140500 6.5109409467e+00 7.0354411904e-05 1.5904009693e+00 -2.7546552832e+00 1.5904009693e+00 2.7546552832e+00 
140600 6.5109409473e+00 7.0431515087e-05 1.5904009693e+00 -2.7546552832e+00 1.5904009693e+00 2.7546552832e+00 
140700 6.5109409479e+00 7.0507378862e-05 1.5904009693e+00 -2.7546552832e+00 1.5904009693e+00 2.7546552832e+00 
140800 6.5109409485e+00 7.0582040159e-05 1.5904009693e+00 -2.7546552832e+00 1.5904009693e+00 2.7546552832e+00 
140900 6.5109409491e+00 7.0655535284e-05 1.5904009693e+00 -2.7546552832e+00 1.5904009693e+00 2.7546552832e+00 
141000 6.5109409497e+00 7.0727899928e-05 1.5904009693e+00 -2.7546552832e+00 1.5904009693e+00 2.7546552832e+00 
141100 6.5109409500e+00 6.7754736971e-05 1.5903987457e+00 -2.7546514318e+00 1.5903987457e+00 2.7546514318e+00 
141200 6.5109409506e+00 6.7807531995e-05 1.5903987457e+00 -2.7546514318e+00 1.5903987457e+00 2.7546514318e+00 
141300 6.5109409511e+00 6.7859021014e-05 1.5903987457e+00 -2.7546514318e+00 1.5903987457e+00 2.7546514318e+00 
141400 6.5109409517e+00 6.7909263817e-05 1.5903987457e+00 -2.7546514318e+00 1.5903987457e+00 2.7546514318e+00 
141500 6.5109409522e+00 6.7958318852e-05 1.5903987457e+00 -2.7546514318e+00 1.5903987457e+00 2.7546514318e+00 
141600 6.5109409527e+00 6.8006243246e-05 1.5903987457e+00 -2.7546514318e+00 1.5903987457e+00 2.7546514318e+00 
141700 6.5109409532e+00 6.8053092808e-05 1.5903987457e+00 -2.7546514318e+00 1.5903987457e+00 2.7546514318e+00 
141800 6.5109409537e+00 6.8098922054e-05 1.5903987457e+00 -2.7546514318e+00 1.5903987457e+00 2.7546514318e+00 
141900 6.5109409542e+00 6.8143784219e-05 1.5903987457e+00 -2.7546514318e+00 1.5903987457e+00 2.7546514318e+00 
142000 6.5109409547e+00 6.8187731264e-05 1.5903987457e+00 -2.7546514318e+00 1.5903987457e+00 2.7546514318e+00 
142100 6.5109409552e+00 6.8230813894e-05 1.5903987457e+00 -2.7546514318e+00 1.5903987457e+00 2.7546514318e+00 
142200 6.5109409557e+00 6.8273081568e-05 1.5903987457e+00 -2.7546514318e+00 1.5903987457e+00 2.7546514318e+00 
142300 6.5109409562e+00 6.8314582520e-05 1.5903987457e+00 -2.7546514318e+00 1.5903987457e+00 2.7546514318e+00 
142400 6.5109409567e+00 6.8355363762e-05 1.5903987457e+00 -2.7546514318e+00 1.5903987457e+00 2.7546514318e+00 
142500 6.5109409571e+00 6.8395471108e-05 1.5903987457e+00 -2.7546514318e+00 1.5903987457e+00 2.7546514318e+00 
142600 6.5109409576e+00 6.8434949177e-05 1.5903987457e+00 -2.7546514318e+00 1.5903987457e+00 2.7546514318e+00 
142700 6.5109409580e+00 6.8473841417e-05 1.5903987457e+00 -2.7546514318e+00 1.5903987457e+00 2.7546514318e+00 
142800 6.5109409585e+00 6.8512190113e-05 1.5903987457e+00 -2.7546514318e+00 1.5903987457e+00 2.7546514318e+00 
142900 6.5109409589e+00 6.8550036398e-05 1.5903987457e+00 -2.7546514318e+00 1.5903987457e+00 2.7546514318e+00 
143000 6.5109409594e+00 6.8587420268e-05 1.5903987457e+00 -2.7546514318e+00 1.5903987457e+00 2.7546514318e+00 
143100 6.5109409598e+00 6.8624380604e-05 1.5903987457e+00 -2.7546514318e+00 1.5903987457e+00 2.7546514318e+00 
143200 6.5109409602e+00 6.8660955170e-05 1.5903987457e+00 -2.7546514318e+00 1.5903987457e+00 2.7546514318e+00 
143300 6.5109409606e+00 6.8697180638e-05 1.5903987457e+00 -2.7546514318e+00 1.5903987457e+00 2.7546514318e+00 
143400 6.5109409611e+00 6.8733092598e-05 1.5903987457e+00 -2.7546514318e+00 1.5903987457e+00 2.7546514318e+00 
143500 6.5109409615e+00 6.8768725571e-05 1.5903987457e+00 -2.7546514318e+00 1.5903987457e+00 2.7546514318e+00 
143600 6.5109409619e+00 6.8804113022e-05 1.5903987457e+00 -2.7546514318e+00 1.5903987457e+00 2.7546514318e+00 
143700 6.5109409623e+00 6.8839287373e-05 1.5903987457e+00 -2.7546514318e+00 1.5903987457e+00 2.7546514318e+00 
143800 6.5109409627e+00 6.8874280019e-05 1.5903987457e+00 -2.7546514318e+00 1.5903987457e+00 2.7546514318e+00 
143900 6.5109409631e+00 6.8909121340e-05 1.5903987457e+00 -2.7546514318e+00 1.5903987457e+00 2.7546514318e+00 
144000 6.5109409634e+00 6.8943840714e-05 1.5903987457e+00 -2.7546514318e+00 1.5903987457e+00 2.7546514318e+00 
144100 6.5109409638e+00 6.8978466525e-05 1.5903987457e+00 -2.7546514318e+00 1.5903987457e+00 2.7546514318e+00 
144200 6.5109409642e+00 6.9013026187e-05 1.5903987457e+00 -2.7546514318e+00 1.5903987457e+00 2.7546514318e+00 
144300 6.5109409646e+00 6.9047546153e-05 1.5903987457e+00 -2.7546514318e+00 1.5903987457e+00 2.7546514318e+00 
144400 6.5109409649e+00 6.9082051922e-05 1.5903987457e+00 -2.7546514318e+00 1.5903987457e+00 2.7546514318e+00 
144500 6.5109409653e+00 6.9116568058e-05 1.5903987457e+00 -2.7546514318e+00 1.5903987457e+00 2.7546514318e+00 
144600 6.5109409656e+00 6.9151118205e-05 1.5903987457e+00 -2.7546514318e+00 1.5903987457e+00 2.7546514318e+00 
144700 6.5109409660e+00 6.9185725097e-05 1.5903987457e+00 -2.7546514318e+00 1.5903987457e+00 2.7546514318e+00 
144800 6.5109409663e+00 6.9220410570e-05 1.5903987457e+00 -2.7546514318e+00 1.5903987457e+00 2.7546514318e+00 
144900 6.5109409667e+00 6.9255195580e-05 1.5903987457e+00 -2.7546514318e+00 1.5903987457e+00 2.7546514318e+00 
145000 6.5109409670e+00 6.9290100208e-05 1.5903987457e+00 -2.7546514318e+00 1.5903987457e+00 2.7546514318e+00 
145100 6.5109409673e+00 6.9325143684e-05 1.5903987457e+00 -2.7546514318e+00 1.5903987457e+00 2.7546514318e+00 
145200 6.5109409677e+00 6.9360344392e-05 1.5903987457e+00 -2.7546514318e+00 1.5903987457e+00 2.7546514318e+00 
145300 6.5109409680e+00 6.9395719886e-05 1.5903987457e+00 -2.7546514318e+00 1.5903987457e+00 2.7546514318e+00 
145400 6.5109409683e+00 6.9431286901e-05 1.5903987457e+00 -2.7546514318e+00 1.5903987457e+00 2.7546514318e+00 
145500 6.5109409686e+00 6.9467061369e-05 1.5903987457e+00 -2.7546514318e+00 1.5903987457e+00 2.7546514318e+00 
145600 6.5109409689e+00 6.9503058432e-05 1.5903987457e+00 -2.7546514318e+00 1.5903987457e+00 2.7546514318e+00 
145700 6.5109409692e+00 6.9539292453e-05 1.5903987457e+00 -2.7546514318e+00 1.5903987457e+00 2.7546514318e+00 
145800 6.5109409695e+00 6.9575777029e-05 1.5903987457e+00 -2.7546514318e+00 1.5903987457e+00 2.7546514318e+00 
145900 6.5109409698e+00 6.9612525004e-05 1.5903987457e+00 -2.7546514318e+00 1.5903987457e+00 2.7546514318e+00 
146000 6.5109409701e+00 6.9649548485e-05 1.5903987457e+00 -2.7546514318e+00 1.5903987457e+00 2.7546514318e+00 
146100 6.5109409704e+00 6.9686858854e-05 1.5903987457e+00 -2.7546514318e+00 1.5903987457e+00 2.7546514318e+00 
146200 6.5109409707e+00 6.9724466778e-05 1.5903987457e+00 -2.7546514318e+00 1.5903987457e+00 2.7546514318e+00 
146300 6.5109409710e+00 6.9762382223e-05 1.5903987457e+00 -2.7546514318e+00 1.5903987457e+00 2.7546514318e+00 
146400 6.5109409713e+00 6.9800614471e-05 1.5903987457e+00 -2.7546514318e+00 1.5903987457e+00 2.7546514318e+00 
146500 6.5109409716e+00 6.9839172125e-05 1.5903987457e+00 -2.7546514318e+00 1.5903987457e+00 2.7546514318e+00 
146600 6.5109409718e+00 6.9878063127e-05 1.5903987457e+00 -2.7546514318e+00 1.5903987457e+00 2.7546514318e+00 
146700 6.5109409721e+00 6.9917294774e-05 1.5903987457e+00 -2.7546514318e+00 1.5903987457e+00 2.7546514318e+00 
146800 6.5109409724e+00 6.9956873725e-05 1.5903987457e+00 -2.7546514318e+00 1.5903987457e+00 2.7546514318e+00 
146900 6.5109409726e+00 6.9996806014e-05 1.5903987457e+00 -2.7546514318e+00 1.5903987457e+00 2.7546514318e+00 
147000 6.5109409729e+00 7.0037097070e-05 1.5903987457e+00 -2.7546514318e+00 1.5903987457e+00 2.7546514318e+00 
147100 6.5109409731e+00 7.0077751718e-05 1.5903987457e+00 -2.7546514318e+00 1.5903987457e+00 2.7546514318e+00 
147200 6.5109409734e+00 7.0118774199e-05 1.5903987457e+00 -2.7546514318e+00 1.5903987457e+00 2.7546514318e+00 
147300 6.5109409736e+00 7.0160168183e-05 1.5903987457e+00 -2.7546514318e+00 1.5903987457e+00 2.7546514318e+00 
147400 6.5109409739e+00 7.0201936782e-05 1.5903987457e+00 -2.7546514318e+00 1.5903987457e+00 2.7546514318e+00 
147500 6.5109409741e+00 7.0244082557e-05 1.5903987457e+00 -2.7546514318e+00 1.5903987457e+00 2.7546514318e+00 
147600 6.5109409744e+00 7.0286607539e-05 1.5903987457e+00 -2.7546514318e+00 1.5903987457e+00 2.7546514318e+00 
147700 6.5109409746e+00 7.0329513230e-05 1.5903987457e+00 -2.7546514318e+00 1.5903987457e+00 2.7546514318e+00 
147800 6.5109409749e+00 7.0372800628e-05 1.5903987457e+00 -2.7546514318e+00 1.5903987457e+00 2.7546514318e+00 
147900 6.5109409751e+00 7.0416470231e-05 1.5903987457e+00 -2.7546514318e+00 1.5903987457e+00 2.7546514318e+00 
148000 6.5109409753e+00 7.0460522051e-05 1.5903987457e+00 -2.7546514318e+00 1.5903987457e+00 2.7546514318e+00 
148100 6.5109409755e+00 7.0504955630e-05 1.5903987457e+00 -2.7546514318e+00 1.5903987457e+00 2.7546514318e+00 
148200 6.5109409758e+00 7.0549770045e-05 1.5903987457e+00 -2.7546514318e+00 1.5903987457e+00 2.7546514318e+00 
148300 6.5109409760e+00 7.0594963930e-05 1.5903987457e+00 -2.7546514318e+00 1.5903987457e+00 2.7546514318e+00 
148400 6.5109409762e+00 7.0640535478e-05 1.5903987457e+00 -2.7546514318e+00 1.5903987457e+00 2.7546514318e+00 
148500 6.5109409764e+00 7.0686482461e-05 1.5903987457e+00 -2.7546514318e+00 1.5903987457e+00 2.7546514318e+00 
148600 6.5109409766e+00 7.0732802236e-05 1.5903987457e+00 -2.7546514318e+00 1.5903987457e+00 2.7546514318e+00 
148700 6.5109409767e+00 6.7734845395e-05 1.5903965219e+00 -2.7546475802e+00 1.5903965219e+00 2.7546475802e+00 
148800 6.5109409769e+00 6.7764485988e-05 1.5903965219e+00 -2.7546475802e+00 1.5903965219e+00 2.7546475802e+00 
148900 6.5109409771e+00 6.7794210124e-05 1.5903965219e+00 -2.7546475802e+00 1.5903965219e+00 2.7546475802e+00 
149000 6.5109409773e+00 6.7824040078e-05 1.5903965219e+00 -2.7546475802e+00 1.5903965219e+00 2.7546475802e+00 
149100 6.5109409775e+00 6.7853997002e-05 1.5903965219e+00 -2.7546475802e+00 1.5903965219e+00 2.7546475802e+00 
149200 6.5109409777e+00 6.7884100932e-05 1.5903965219e+00 -2.7546475802e+00 1.5903965219e+00 2.7546475802e+00 
149300 6.5109409779e+00 6.7914370823e-05 1.5903965219e+00 -2.7546475802e+00 1.5903965219e+00 2.7546475802e+00 
149400 6.5109409780e+00 6.7944824551e-05 1.5903965219e+00 -2.7546475802e+00 1.5903965219e+00 2.7546475802e+00 
149500 6.5109409782e+00 6.7975478942e-05 1.5903965219e+00 -2.7546475802e+00 1.5903965219e+00 2.7546475802e+00 
149600 6.5109409784e+00 6.8006349784e-05 1.5903965219e+00 -2.7546475802e+00 1.5903965219e+00 2.7546475802e+00 
149700 6.5109409786e+00 6.8037451845e-05 1.5903965219e+00 -2.7546475802e+00 1.5903965219e+00 2.7546475802e+00 
149800 6.5109409788e+00 6.8068798896e-05 1.5903965219e+00 -2.7546475802e+00 1.5903965219e+00 2.7546475802e+00 
149900 6.5109409790e+00 6.8100403733e-05 1.5903965219e+00 -2.7546475802e+00 1.5903965219e+00 2.7546475802e+00 
150000 6.5109409792e+00 6.8132278185e-05 1.5903965219e+00 -2.7546475802e+00 1.5903965219e+00 2.7546475802e+00 
150100 6.5109409793e+00 6.8164433149e-05 1.5903965219e+00 -2.7546475802e+00 1.5903965219e+00 2.7546475802e+00 
150200 6.5109409795e+00 6.8196878597e-05 1.5903965219e+00 -2.7546475802e+00 1.5903965219e+00 2.7546475802e+00 
150300 6.5109409797e+00 6.8229623605e-05 1.5903965219e+00 -2.7546475802e+00 1.5903965219e+00 2.7546475802e+00 
150400 6.5109409798e+00 6.8262676366e-05 1.5903965219e+00 -2.7546475802e+00 1.5903965219e+00 2.7546475802e+00 
150500 6.5109409800e+00 6.8296044220e-05 1.5903965219e+00 -2.7546475802e+00 1.5903965219e+00 2.7546475802e+00 
150600 6.5109409802e+00 6.8329733662e-05 1.5903965219e+00 -2.7546475802e+00 1.5903965219e+00 2.7546475802e+00 
150700 6.5109409803e+00 6.8363750378e-05 1.5903965219e+00 -2.7546475802e+00 1.5903965219e+00 2.7546475802e+00 
150800 6.5109409805e+00 6.8398099247e-05 1.5903965219e+00 -2.7546475802e+00 1.5903965219e+00 2.7546475802e+00 
150900 6.5109409807e+00 6.8432784382e-05 1.5903965219e+00 -2.7546475802e+00 1.5903965219e+00 2.7546475802e+00 
151000 6.5109409808e+00 6.8467809133e-05 1.5903965219e+00 -2.7546475802e+00 1.5903965219e+00 2.7546475802e+00 
151100 6.5109409810e+00 6.8503176123e-05 1.5903965219e+00 -2.7546475802e+00 1.5903965219e+00 2.7546475802e+00 
151200 6.5109409811e+00 6.8538887256e-05 1.5903965219e+00 -2.7546475802e+00 1.5903965219e+00 2.7546475802e+00 
151300 6.5109409813e+00 6.8574943750e-05 1.5903965219e+00 -2.7546475802e+00 1.5903965219e+00 2.7546475802e+00 
151400 6.5109409814e+00 6.8611346149e-05 1.5903965219e+00 -2.7546475802e+00 1.5903965219e+00 2.7546475802e+00 
151500 6.5109409816e+00 6.8648094347e-05 1.5903965219e+00 -2.7546475802e+00 1.5903965219e+00 2.7546475802e+00 
151600 6.5109409817e+00 6.8685187606e-05 1.5903965219e+00 -2.7546475802e+00 1.5903965219e+00 2.7546475802e+00 
151700 6.5109409819e+00 6.8722624582e-05 1.5903965219e+00 -2.7546475802e+00 1.5903965219e+00 2.7546475802e+00 
151800 6.5109409820e+00 6.8760403343e-05 1.5903965219e+00 -2.7546475802e+00 1.5903965219e+00 2.7546475802e+00 
151900 6.5109409822e+00 6.8798521392e-05 1.5903965219e+00 -2.7546475802e+00 1.5903965219e+00 2.7546475802e+00 
152000 6.5109409823e+00 6.8836975679e-05 1.5903965219e+00 -2.7546475802e+00 1.5903965219e+00 2.7546475802e+00 
152100 6.5109409824e+00 6.8875762632e-05 1.5903965219e+00 -2.7546475802e+00 1.5903965219e+00 2.7546475802e+00 
152200 6.5109409826e+00 6.8914878173e-05 1.5903965219e+00 -2.7546475802e+00 1.5903965219e+00 2.7546475802e+00 
152300 6.5109409827e+00 6.8954317735e-05 1.5903965219e+00 -2.7546475802e+00 1.5903965219e+00 2.7546475802e+00 
152400 6.5109409828e+00 6.8994076289e-05 1.5903965219e+00 -2.7546475802e+00 1.5903965219e+00 2.7546475802e+00 
152500 6.5109409830e+00 6.9034148350e-05 1.5903965219e+00 -2.7546475802e+00 1.5903965219e+00 2.7546475802e+00 
152600 6.5109409831e+00 6.9074528018e-05 1.5903965219e+00 -2.7546475802e+00 1.5903965219e+00 2.7546475802e+00 
152700 6.5109409832e+00 6.9115208980e-05 1.5903965219e+00 -2.7546475802e+00 1.5903965219e+00 2.7546475802e+00 
152800 6.5109409834e+00 6.9156184533e-05 1.5903965219e+00 -2.7546475802e+00 1.5903965219e+00 2.7546475802e+00 
152900 6.5109409835e+00 6.9197447605e-05 1.5903965219e+00 -2.7546475802e+00 1.5903965219e+00 2.7546475802e+00 
153000 6.5109409836e+00 6.9238990778e-05 1.5903965219e+00 -2.7546475802e+00 1.5903965219e+00 2.7546475802e+00 
153100 6.5109409837e+00 6.9280806294e-05 1.5903965219e+00 -2.7546475802e+00 1.5903965219e+00 2.7546475802e+00 
153200 6.5109409838e+00 6.9322886086e-05 1.5903965219e+00 -2.7546475802e+00 1.5903965219e+00 2.7546475802e+00 
153300 6.5109409840e+00 6.9365221790e-05 1.5903965219e+00 -2.7546475802e+00 1.5903965219e+00 2.7546475802e+00 
153400 6.5109409841e+00 6.9407804763e-05 1.5903965219e+00 -2.7546475802e+00 1.5903965219e+00 2.7546475802e+00 
153500 6.5109409842e+00 6.9450626100e-05 1.5903965219e+00 -2.7546475802e+00 1.5903965219e+00 2.7546475802e+00 
153600 6.5109409843e+00 6.9493676655e-05 1.5903965219e+00 -2.7546475802e+00 1.5903965219e+00 2.7546475802e+00 
153700 6.5109409844e+00 6.9536947053e-05 1.5903965219e+00 -2.7546475802e+00 1.5903965219e+00 2.7546475802e+00 
153800 6.5109409845e+00 6.9580427710e-05 1.5903965219e+00 -2.7546475802e+00 1.5903965219e+00 2.7546475802e+00 
153900 6.5109409846e+00 6.9624108848e-05 1.5903965219e+00 -2.7546475802e+00 1.5903965219e+00 2.7546475802e+00 
154000 6.5109409848e+00 6.9667980510e-05 1.5903965219e+00 -2.7546475802e+00 1.5903965219e+00 2.7546475802e+00 
154100 6.5109409849e+00 6.9712032578e-05 1.5903965219e+00 -2.7546475802e+00 1.5903965219e+00 2.7546475802e+00 
154200 6.5109409850e+00 6.9756254785e-05 1.5903965219e+00 -2.7546475802e+00 1.5903965219e+00 2.7546475802e+00 
154300 6.5109409851e+00 6.9800636737e-05 1.5903965219e+00 -2.7546475802e+00 1.5903965219e+00 2.7546475802e+00 
154400 6.5109409852e+00 6.9845167920e-05 1.5903965219e+00 -2.7546475802e+00 1.5903965219e+00 2.7546475802e+00 
154500 6.5109409853e+00 6.9889837717e-05 1.5903965219e+00 -2.7546475802e+00 1.5903965219e+00 2.7546475802e+00 
154600 6.5109409854e+00 6.9934635423e-05 1.5903965219e+00 -2.7546475802e+00 1.5903965219e+00 2.7546475802e+00 
154700 6.5109409855e+00 6.9979550260e-05 1.5903965219e+00 -2.7546475802e+00 1.5903965219e+00 2.7546475802e+00 
154800 6.5109409856e+00 7.0024571391e-05 1.5903965219e+00 -2.7546475802e+00 1.5903965219e+00 2.7546475802e+00 
154900 6.5109409857e+00 7.0069687923e-05 1.5903965219e+00 -2.7546475802e+00 1.5903965219e+00 2.7546475802e+00 
155000 6.5109409858e+00 7.0114888939e-05 1.5903965219e+00 -2.7546475802e+00 1.5903965219e+00 2.7546475802e+00 
155100 6.5109409859e+00 7.0160163489e-05 1.5903965219e+00 -2.7546475802e+00 1.5903965219e+00 2.7546475802e+00 
155200 6.5109409860e+00 7.0205500621e-05 1.5903965219e+00 -2.7546475802e+00 1.5903965219e+00 2.7546475802e+00 
155300 6.5109409860e+00 7.0250889378e-05 1.5903965219e+00 -2.7546475802e+00 1.5903965219e+00 2.7546475802e+00 
155400 6.5109409861e+00 7.0296318821e-05 1.5903965219e+00 -2.7546475802e+00 1.5903965219e+00 2.7546475802e+00 
155500 6.5109409862e+00 7.0341778033e-05 1.5903965219e+00 -2.7546475802e+00 1.5903965219e+00 2.7546475802e+00 
155600 6.5109409863e+00 7.0387256129e-05 1.5903965219e+00 -2.7546475802e+00 1.5903965219e+00 2.7546475802e+00 
155700 6.5109409864e+00 7.0432742274e-05 1.5903965219e+00 -2.7546475802e+00 1.5903965219e+00 2.7546475802e+00 
155800 6.5109409865e+00 7.0478225683e-05 1.5903965219e+00 -2.7546475802e+00 1.5903965219e+00 2.7546475802e+00 
155900 6.5109409866e+00 7.0523695641e-05 1.5903965219e+00 -2.7546475802e+00 1.5903965219e+00 2.7546475802e+00 
156000 6.5109409867e+00 7.0569141504e-05 1.5903965219e+00 -2.7546475802e+00 1.5903965219e+00 2.7546475802e+00 
156100 6.5109409867e+00 7.0614552715e-05 1.5903965219e+00 -2.7546475802e+00 1.5903965219e+00 2.7546475802e+00 
156200 6.5109409868e+00 7.0659918804e-05 1.5903965219e+00 -2.7546475802e+00 1.5903965219e+00 2.7546475802e+00 
156300 6.5109409869e+00 7.0705229407e-05 1.5903965219e+00 -2.7546475802e+00 1.5903965219e+00 2.7546475802e+00 
156400 6.5109409870e+00 7.0750474265e-05 1.5903965219e+00 -2.7546475802e+00 1.5903965219e+00 2.7546475802e+00 
156500 6.5109409869e+00 6.7750226654e-05 1.5903942976e+00 -2.7546437276e+00 1.5903942976e+00 2.7546437276e+00 
156600 6.5109409870e+00 6.7777889540e-05 1.5903942976e+00 -2.7546437276e+00 1.5903942976e+00 2.7546437276e+00 
156700 6.5109409870e+00 6.7805177639e-05 1.5903942976e+00 -2.7546437276e+00 1.5903942976e+00 2.7546437276e+00 
156800 6.5109409871e+00 6.7832107655e-05 1.5903942976e+00 -2.7546437276e+00 1.5903942976e+00 2.7546437276e+00 
156900 6.5109409872e+00 6.7858695666e-05 1.5903942976e+00 -2.7546437276e+00 1.5903942976e+00 2.7546437276e+00 
157000 6.5109409873e+00 6.7884957132e-05 1.5903942976e+00 -2.7546437276e+00 1.5903942976e+00 2.7546437276e+00 
157100 6.5109409873e+00 6.7910906907e-05 1.5903942976e+00 -2.7546437276e+00 1.5903942976e+00 2.7546437276e+00 
157200 6.5109409874e+00 6.7936559258e-05 1.5903942976e+00 -2.7546437276e+00 1.5903942976e+00 2.7546437276e+00 
157300 6.5109409875e+00 6.7961927864e-05 1.5903942976e+00 -2.7546437276e+00 1.5903942976e+00 2.7546437276e+00 
157400 6.5109409875e+00 6.7987025844e-05 1.5903942976e+00 -2.7546437276e+00 1.5903942976e+00 2.7546437276e+00 
157500 6.5109409876e+00 6.8011865755e-05 1.5903942976e+00 -2.7546437276e+00 1.5903942976e+00 2.7546437276e+00 
157600 6.5109409877e+00 6.8036459613e-05 1.5903942976e+00 -2.7546437276e+00 1.5903942976e+00 2.7546437276e+00 
157700 6.5109409878e+00 6.8060818903e-05 1.5903942976e+00 -2.7546437276e+00 1.5903942976e+00 2.7546437276e+00 
157800 6.5109409878e+00 6.8084954591e-05 1.5903942976e+00 -2.7546437276e+00 1.5903942976e+00 2.7546437276e+00 
157900 6.5109409879e+00 6.8108877135e-05 1.5903942976e+00 -2.7546437276e+00 1.5903942976e+00 2.7546437276e+00 
158000 6.5109409880e+00 6.8132596504e-05 1.5903942976e+00 -2.7546437276e+00 1.5903942976e+00 2.7546437276e+00 
158100 6.5109409880e+00 6.8156122178e-05 1.5903942976e+00 -2.7546437276e+00 1.5903942976e+00 2.7546437276e+00 
158200 6.5109409881e+00 6.8179463178e-05 1.5903942976e+00 -2.7546437276e+00 1.5903942976e+00 2.7546437276e+00 
158300 6.5109409881e+00 6.8202628058e-05 1.5903942976e+00 -2.7546437276e+00 1.5903942976e+00 2.7546437276e+00 
158400 6.5109409882e+00 6.8225624938e-05 1.5903942976e+00 -2.7546437276e+00 1.5903942976e+00 2.7546437276e+00 
158500 6.5109409883e+00 6.8248461502e-05 1.5903942976e+00 -2.7546437276e+00 1.5903942976e+00 2.7546437276e+00 
158600 6.5109409883e+00 6.8271145015e-05 1.5903942976e+00 -2.7546437276e+00 1.5903942976e+00 2.7546437276e+00 
158700 6.5109409884e+00 6.8293682338e-05 1.5903942976e+00 -2.7546437276e+00 1.5903942976e+00 2.7546437276e+00 
158800 6.5109409885e+00 6.8316079934e-05 1.5903942976e+00 -2.7546437276e+00 1.5903942976e+00 2.7546437276e+00 
158900 6.5109409885e+00 6.8338343887e-05 1.5903942976e+00 -2.7546437276e+00 1.5903942976e+00 2.7546437276e+00 
159000 6.5109409886e+00 6.8360479910e-05 1.5903942976e+00 -2.7546437276e+00 1.5903942976e+00 2.7546437276e+00 
159100 6.5109409886e+00 6.8382493358e-05 1.5903942976e+00 -2.7546437276e+00 1.5903942976e+00 2.7546437276e+00 
159200 6.5109409887e+00 6.8404389244e-05 1.5903942976e+00 -2.7546437276e+00 1.5903942976e+00 2.7546437276e+00 
159300 6.5109409887e+00 6.8426172242e-05 1.5903942976e+00 -2.7546437276e+00 1.5903942976e+00 2.7546437276e+00 
159400 6.5109409888e+00 6.8447846703e-05 1.5903942976e+00 -2.7546437276e+00 1.5903942976e+00 2.7546437276e+00 
159500 6.5109409888e+00 6.8469416672e-05 1.5903942976e+00 -2.7546437276e+00 1.5903942976e+00 2.7546437276e+00 
159600 6.5109409889e+00 6.8490885890e-05 1.5903942976e+00 -2.7546437276e+00 1.5903942976e+00 2.7546437276e+00 
159700 6.5109409890e+00 6.8512257813e-05 1.5903942976e+00 -2.7546437276e+00 1.5903942976e+00 2.7546437276e+00 
159800 6.5109409890e+00 6.8533535616e-05 1.5903942976e+00 -2.7546437276e+00 1.5903942976e+00 2.7546437276e+00 
159900 6.5109409891e+00 6.8554722215e-05 1.5903942976e+00 -2.7546437276e+00 1.5903942976e+00 2.7546437276e+00 
160000 6.5109409891e+00 6.8575820264e-05 1.5903942976e+00 -2.7546437276e+00 1.5903942976e+00 2.7546437276e+00 
160100 6.5109409892e+00 6.8596832175e-05 1.5903942976e+00 -2.7546437276e+00 1.5903942976e+00 2.7546437276e+00 
160200 6.5109409892e+00 6.8617760124e-05 1.5903942976e+00 -2.7546437276e+00 1.5903942976e+00 2.7546437276e+00 
160300 6.5109409893e+00 6.8638606071e-05 1.5903942976e+00 -2.7546437276e+00 1.5903942976e+00 2.7546437276e+00 
160400 6.5109409893e+00 6.8659371751e-05 1.5903942976e+00 -2.7546437276e+00 1.5903942976e+00 2.7546437276e+00 
160500 6.5109409894e+00 6.8680058700e-05 1.5903942976e+00 -2.7546437276e+00 1.5903942976e+00 2.7546437276e+00 
160600 6.5109409894e+00 6.8693669619e-05 1.5903942976e+00 -2.7546437276e+00 1.5903942976e+00 2.7546437276e+00 
160600 6.5109409894e+00 6.8693669619e-05 1.5903942976e+00 -2.7546437276e+00 1.5903942976e+00 2.7546437276e+00 
