# step Hamiltonian StressXX CellTensor1 CellTensor2 CellTensor3 CellTensor4 
0 5.1754923275e+00 1.4634528802e-01 1.9357473151e+00 -3.3528127004e+00 1.9357473151e+00 3.3528127004e+00 
100 5.1755227054e+00 1.4747273206e-01 1.9357473151e+00 -3.3528127004e+00 1.9357473151e+00 3.3528127004e+00 
200 5.1750107110e+00 1.4781784047e-01 1.9319393731e+00 -3.3462171514e+00 1.9319393731e+00 3.3462171514e+00 
300 5.1745237911e+00 1.4813724400e-01 1.9281150047e+00 -3.3395931510e+00 1.9281150047e+00 3.3395931510e+00 
400 5.1740561305e+00 1.4843072540e-01 1.9242747785e+00 -3.3329416841e+00 1.9242747785e+00 3.3329416841e+00 
500 5.1736023919e+00 1.4869769651e-01 1.9204192729e+00 -3.3262637525e+00 1.9204192729e+00 3.3262637525e+00 
600 5.1731577304e+00 1.4893730317e-01 1.9165490859e+00 -3.3195603920e+00 1.9165490859e+00 3.3195603920e+00 
700 5.1727177972e+00 1.4914851190e-01 1.9126648422e+00 -3.3128326845e+00 1.9126648422e+00 3.3128326845e+00 
800 5.1722787332e+00 1.4933018113e-01 1.9087671981e+00 -3.3060817669e+00 1.9087671981e+00 3.3060817669e+00 
900 5.1718371568e+00 1.4948111958e-01 1.9048568451e+00 -3.2993088368e+00 1.9048568451e+00 3.2993088368e+00 
1000 5.1713901454e+00 1.4960013353e-01 1.9009345111e+00 -3.2925151550e+00 1.9009345111e+00 3.2925151550e+00 
1100 5.1709352138e+00 1.4968606496e-01 1.8970009612e+00 -3.2857020467e+00 1.8970009612e+00 3.2857020467e+00 
1200 5.1704702888e+00 1.4973782180e-01 1.8930569971e+00 -3.2788709007e+00 1.8930569971e+00 3.2788709007e+00 
1300 5.1699936824e+00 1.4975440146e-01 1.8891034560e+00 -3.2720231665e+00 1.8891034560e+00 3.2720231665e+00 
1400 5.1695040634e+00 1.4973490885e-01 1.8851412081e+00 -3.2651603519e+00 1.8851412081e+00 3.2651603519e+00 
1500 5.1690004292e+00 1.4967856951e-01 1.8811711548e+00 -3.2582840178e+00 1.8811711548e+00 3.2582840178e+00 
1600 5.1684820764e+00 1.4958473872e-01 1.8771942253e+00 -3.2513957739e+00 1.8771942253e+00 3.2513957739e+00 
1700 5.1679485725e+00 1.4945290715e-01 1.8732113739e+00 -3.2444972729e+00 1.8732113739e+00 3.2444972729e+00 
1800 5.1673997284e+00 1.4928270366e-01 1.8692235765e+00 -3.2375902053e+00 1.8692235765e+00 3.2375902053e+00 
1900 5.1668355713e+00 1.4907389557e-01 1.8652318272e+00 -3.2306762927e+00 1.8652318272e+00 3.2306762927e+00 
2000 5.1662563189e+00 1.4882638695e-01 1.8612371347e+00 -3.2237572823e+00 1.8612371347e+00 3.2237572823e+00 
2100 5.1656623552e+00 1.4854021520e-01 1.8572405190e+00 -3.2168349409e+00 1.8572405190e+00 3.2168349409e+00 
2200 5.1650542075e+00 1.4821554623e-01 1.8532430079e+00 -3.2099110484e+00 1.8532430079e+00 3.2099110484e+00 
2300 5.1644325246e+00 1.4785266857e-01 1.8492456333e+00 -3.2029873925e+00 1.8492456333e+00 3.2029873925e+00 
2400 5.1637980572e+00 1.4745198653e-01 1.8452494286e+00 -3.1960657629e+00 1.8452494286e+00 3.1960657629e+00 
2500 5.1631516389e+00 1.4701401275e-01 1.8412554249e+00 -3.1891479457e+00 1.8412554249e+00 3.1891479457e+00 
2600 5.1624941697e+00 1.4653936026e-01 1.8372646486e+00 -3.1822357183e+00 1.8372646486e+00 3.1822357183e+00 
2700 5.1618266002e+00 1.4602873415e-01 1.8332781181e+00 -3.1753308449e+00 1.8332781181e+00 3.1753308449e+00 
2800 5.1611499176e+00 1.4548292319e-01 1.8292968415e+00 -3.1684350716e+00 1.8292968415e+00 3.1684350716e+00 
2900 5.1604651336e+00 1.4490279123e-01 1.8253218141e+00 -3.1615501222e+00 1.8253218141e+00 3.1615501222e+00 
3000 5.1597732722e+00 1.4428926878e-01 1.8213540162e+00 -3.1546776947e+00 1.8213540162e+00 3.1546776947e+00 
3100 5.1590753608e+00 1.4364334463e-01 1.8173944111e+00 -3.1478194574e+00 1.8173944111e+00 3.1478194574e+00 
3200 5.1583724207e+00 1.4296605777e-01 1.8134439430e+00 -3.1409770459e+00 1.8134439430e+00 3.1409770459e+00 
3300 5.1576654596e+00 1.4225848949e-01 1.8095035358e+00 -3.1341520604e+00 1.8095035358e+00 3.1341520604e+00 
3400 5.1569554656e+00 1.4152175590e-01 1.8055740913e+00 -3.1273460630e+00 1.8055740913e+00 3.1273460630e+00 
3500 5.1562434008e+00 1.4075700074e-01 1.8016564884e+00 -3.1205605756e+00 1.8016564884e+00 3.1205605756e+00 
3600 5.1555301972e+00 1.3996538864e-01 1.7977515812e+00 -3.1137970781e+00 1.7977515812e+00 3.1137970781e+00 
3700 5.1548167530e+00 1.3914809877e-01 1.7938601991e+00 -3.1070570066e+00 1.7938601991e+00 3.1070570066e+00 
3800 5.1541039288e+00 1.3830631895e-01 1.7899831454e+00 -3.1003417525e+00 1.7899831454e+00 3.1003417525e+00 
3900 5.1533925460e+00 1.3744124021e-01 1.7861211967e+00 -3.0936526612e+00 1.7861211967e+00 3.0936526612e+00 
4000 5.1526833845e+00 1.3655405172e-01 1.7822751030e+00 -3.0869910315e+00 1.7822751030e+00 3.0869910315e+00 
4100 5.1519771816e+00 1.3564593628e-01 1.7784455868e+00 -3.0803581148e+00 1.7784455868e+00 3.0803581148e+00 
4200 5.1512746316e+00 1.3471806613e-01 1.7746333433e+00 -3.0737551154e+00 1.7746333433e+00 3.0737551154e+00 
4300 5.1505763847e+00 1.3377159931e-01 1.7708390401e+00 -3.0671831894e+00 1.7708390401e+00 3.0671831894e+00 
4400 5.1498830479e+00 1.3280767625e-01 1.7670633174e+00 -3.0606434459e+00 1.7670633174e+00 3.0606434459e+00 
4500 5.1491951848e+00 1.3182741696e-01 1.7633067880e+00 -3.0541369462e+00 1.7633067880e+00 3.0541369462e+00 
4600 5.1485133165e+00 1.3083191842e-01 1.7595700378e+00 -3.0476647049e+00 1.7595700378e+00 3.0476647049e+00 
4700 5.1478379224e+00 1.2982225242e-01 1.7558536256e+00 -3.0412276903e+00 1.7558536256e+00 3.0412276903e+00 
4800 5.1471694415e+00 1.2879946370e-01 1.7521580841e+00 -3.0348268245e+00 1.7521580841e+00 3.0348268245e+00 
4900 5.1465082732e+00 1.2776456840e-01 1.7484839196e+00 -3.0284629850e+00 1.7484839196e+00 3.0284629850e+00 
5000 5.1458547791e+00 1.2671855280e-01 1.7448316132e+00 -3.0221370048e+00 1.7448316132e+00 3.0221370048e+00 
5100 5.1452092844e+00 1.2566237236e-01 1.7412016209e+00 -3.0158496736e+00 1.7412016209e+00 3.0158496736e+00 
5200 5.1445720791e+00 1.2459695093e-01 1.7375943741e+00 -3.0096017390e+00 1.7375943741e+00 3.0096017390e+00 
5300 5.1439434203e+00 1.2352318025e-01 1.7340102807e+00 -3.0033939069e+00 1.7340102807e+00 3.0033939069e+00 
5400 5.1433235330e+00 1.2244191964e-01 1.7304497249e+00 -2.9972268435e+00 1.7304497249e+00 2.9972268435e+00 
5500 5.1427126125e+00 1.2135399584e-01 1.7269130688e+00 -2.9911011754e+00 1.7269130688e+00 2.9911011754e+00 
5600 5.1421108257e+00 1.2026020309e-01 1.7234006522e+00 -2.9850174915e+00 1.7234006522e+00 2.9850174915e+00 
5700 5.1415183127e+00 1.1916130325e-01 1.7199127940e+00 -2.9789763438e+00 1.7199127940e+00 2.9789763438e+00 
5800 5.1409351887e+00 1.1805802614e-01 1.7164497922e+00 -2.9729782488e+00 1.7164497922e+00 2.9729782488e+00 
5900 5.1403615455e+00 1.1695106997e-01 1.7130119252e+00 -2.9670236884e+00 1.7130119252e+00 2.9670236884e+00 
6000 5.1397974528e+00 1.1584110186e-01 1.7095994518e+00 -2.9611131112e+00 1.7095994518e+00 2.9611131112e+00 
6100 5.1392429600e+00 1.1472875843e-01 1.7062126128e+00 -2.9552469338e+00 1.7062126128e+00 2.9552469338e+00 
6200 5.1386980979e+00 1.1361464649e-01 1.7028516305e+00 -2.9494255418e+00 1.7028516305e+00 2.9494255418e+00 
6300 5.1381628794e+00 1.1249934382e-01 1.6995167106e+00 -2.9436492911e+00 1.6995167106e+00 2.9436492911e+00 
6400 5.1376373016e+00 1.1138339992e-01 1.6962080418e+00 -2.9379185086e+00 1.6962080418e+00 2.9379185086e+00 
6500 5.1371213468e+00 1.1026733684e-01 1.6929257971e+00 -2.9322334941e+00 1.6929257971e+00 2.9322334941e+00 
6600 5.1366149835e+00 1.0915165011e-01 1.6896701342e+00 -2.9265945205e+00 1.6896701342e+00 2.9265945205e+00 
6700 5.1361181681e+00 1.0803680957e-01 1.6864411960e+00 -2.9210018355e+00 1.6864411960e+00 2.9210018355e+00 
6800 5.1356308455e+00 1.0692326031e-01 1.6832391115e+00 -2.9154556624e+00 1.6832391115e+00 2.9154556624e+00 
6900 5.1351529505e+00 1.0581142358e-01 1.6800639960e+00 -2.9099562011e+00 1.6800639960e+00 2.9099562011e+00 
7000 5.1346844087e+00 1.0470169769e-01 1.6769159521e+00 -2.9045036290e+00 1.6769159521e+00 2.9045036290e+00 
7100 5.1342251375e+00 1.0359445899e-01 1.6737950696e+00 -2.8990981021e+00 1.6737950696e+00 2.8990981021e+00 
7200 5.1337750468e+00 1.0249006274e-01 1.6707014269e+00 -2.8937397557e+00 1.6707014269e+00 2.8937397557e+00 
7300 5.1333340400e+00 1.0138884400e-01 1.6676350907e+00 -2.8884287057e+00 1.6676350907e+00 2.8884287057e+00 
7400 5.1329020146e+00 1.0029111859e-01 1.6645961170e+00 -2.8831650488e+00 1.6645961170e+00 2.8831650488e+00 
7500 5.1324788633e+00 9.9197183906e-02 1.6615845513e+00 -2.8779488638e+00 1.6615845513e+00 2.8779488638e+00 
7600 5.1320644739e+00 9.8107319811e-02 1.6586004290e+00 -2.8727802125e+00 1.6586004290e+00 2.8727802125e+00 
7700 5.1316587310e+00 9.7021789461e-02 1.6556437762e+00 -2.8676591396e+00 1.6556437762e+00 2.8676591396e+00 
7800 5.1312615155e+00 9.5940840126e-02 1.6527146098e+00 -2.8625856746e+00 1.6527146098e+00 2.8625856746e+00 
7900 5.1308727057e+00 9.4864703980e-02 1.6498129380e+00 -2.8575598316e+00 1.6498129380e+00 2.8575598316e+00 
8000 5.1304921780e+00 9.3793598866e-02 1.6469387605e+00 -2.8525816102e+00 1.6469387605e+00 2.8525816102e+00 
8100 5.1301198066e+00 9.2727729042e-02 1.6440920692e+00 -2.8476509963e+00 1.6440920692e+00 2.8476509963e+00 
8200 5.1297554645e+00 9.1667285887e-02 1.6412728483e+00 -2.8427679624e+00 1.6412728483e+00 2.8427679624e+00 
8300 5.1293990238e+00 9.0612448595e-02 1.6384810746e+00 -2.8379324685e+00 1.6384810746e+00 2.8379324685e+00 
8400 5.1290503557e+00 8.9563384830e-02 1.6357167181e+00 -2.8331444625e+00 1.6357167181e+00 2.8331444625e+00 
8500 5.1287093314e+00 8.8520251359e-02 1.6329797417e+00 -2.8284038804e+00 1.6329797417e+00 2.8284038804e+00 
8600 5.1283758215e+00 8.7483194656e-02 1.6302701024e+00 -2.8237106474e+00 1.6302701024e+00 2.8237106474e+00 
8700 5.1280496972e+00 8.6452351477e-02 1.6275877506e+00 -2.8190646778e+00 1.6275877506e+00 2.8190646778e+00 
8800 5.1277308300e+00 8.5427849413e-02 1.6249326310e+00 -2.8144658758e+00 1.6249326310e+00 2.8144658758e+00 
8900 5.1274190918e+00 8.4409807413e-02 1.6223046827e+00 -2.8099141358e+00 1.6223046827e+00 2.8099141358e+00 
9000 5.1271143553e+00 8.3398336278e-02 1.6197038392e+00 -2.8054093428e+00 1.6197038392e+00 2.8054093428e+00 
9100 5.1268164942e+00 8.2393539138e-02 1.6171300290e+00 -2.8009513726e+00 1.6171300290e+00 2.8009513726e+00 
9200 5.1265253833e+00 8.1395511893e-02 1.6145831753e+00 -2.7965400926e+00 1.6145831753e+00 2.7965400926e+00 
9300 5.1262408984e+00 8.0404343643e-02 1.6120631967e+00 -2.7921753617e+00 1.6120631967e+00 2.7921753617e+00 
9400 5.1259629166e+00 7.9420117081e-02 1.6095700072e+00 -2.7878570308e+00 1.6095700072e+00 2.7878570308e+00 
9500 5.1256913164e+00 7.8442908872e-02 1.6071035162e+00 -2.7835849432e+00 1.6071035162e+00 2.7835849432e+00 
9600 5.1254259777e+00 7.7472790009e-02 1.6046636291e+00 -2.7793589346e+00 1.6046636291e+00 2.7793589346e+00 
9700 5.1251667818e+00 7.6509826145e-02 1.6022502468e+00 -2.7751788338e+00 1.6022502468e+00 2.7751788338e+00 
9800 5.1249136118e+00 7.5554077908e-02 1.5998632664e+00 -2.7710444626e+00 1.5998632664e+00 2.7710444626e+00 
9900 5.1246663520e+00 7.4605601194e-02 1.5975025814e+00 -2.7669556362e+00 1.5975025814e+00 2.7669556362e+00 
10000 5.1244248887e+00 7.3664447442e-02 1.5951680813e+00 -2.7629121634e+00 1.5951680813e+00 2.7629121634e+00 
10100 5.1241891095e+00 7.2730663893e-02 1.5928596521e+00 -2.7589138468e+00 1.5928596521e+00 2.7589138468e+00 
10200 5.1239589038e+00 7.1804293827e-02 1.5905771766e+00 -2.7549604832e+00 1.5905771766e+00 2.7549604832e+00 
10300 5.1237341627e+00 7.0885376794e-02 1.5883205339e+00 -2.7510518634e+00 1.5883205339e+00 2.7510518634e+00 
10400 5.1235147789e+00 6.9973948816e-02 1.5860896002e+00 -2.7471877729e+00 1.5860896002e+00 2.7471877729e+00 
10500 5.1233006467e+00 6.9070042588e-02 1.5838842485e+00 -2.7433679918e+00 1.5838842485e+00 2.7433679918e+00 
10600 5.1230916622e+00 6.8173687651e-02 1.5817043489e+00 -2.7395922949e+00 1.5817043489e+00 2.7395922949e+00 
10700 5.1228877231e+00 6.7284910568e-02 1.5795497685e+00 -2.7358604520e+00 1.5795497685e+00 2.7358604520e+00 
10800 5.1226887286e+00 6.6403735073e-02 1.5774203715e+00 -2.7321722284e+00 1.5774203715e+00 2.7321722284e+00 
10900 5.1224945797e+00 6.5530182219e-02 1.5753160197e+00 -2.7285273841e+00 1.5753160197e+00 2.7285273841e+00 
11000 5.1223051790e+00 6.4664270509e-02 1.5732365721e+00 -2.7249256752e+00 1.5732365721e+00 2.7249256752e+00 
11100 5.1221204305e+00 6.3806016018e-02 1.5711818851e+00 -2.7213668530e+00 1.5711818851e+00 2.7213668530e+00 
11200 5.1219402400e+00 6.2955432508e-02 1.5691518129e+00 -2.7178506647e+00 1.5691518129e+00 2.7178506647e+00 
11300 5.1217645146e+00 6.2112531531e-02 1.5671462070e+00 -2.7143768534e+00 1.5671462070e+00 2.7143768534e+00 
11400 5.1215931631e+00 6.1277322526e-02 1.5651649169e+00 -2.7109451584e+00 1.5651649169e+00 2.7109451584e+00 
11500 5.1214260958e+00 6.0449812907e-02 1.5632077898e+00 -2.7075553148e+00 1.5632077898e+00 2.7075553148e+00 
11600 5.1212632244e+00 5.9630008142e-02 1.5612746708e+00 -2.7042070544e+00 1.5612746708e+00 2.7042070544e+00 
11700 5.1211044619e+00 5.8817911831e-02 1.5593654027e+00 -2.7009001051e+00 1.5593654027e+00 2.7009001051e+00 
11800 5.1209497231e+00 5.8013525770e-02 1.5574798267e+00 -2.6976341915e+00 1.5574798267e+00 2.6976341915e+00 
11900 5.1207989238e+00 5.7216850018e-02 1.5556177817e+00 -2.6944090350e+00 1.5556177817e+00 2.6944090350e+00 
12000 5.1206519815e+00 5.6427882952e-02 1.5537791050e+00 -2.6912243536e+00 1.5537791050e+00 2.6912243536e+00 
12100 5.1205088148e+00 5.5646621318e-02 1.5519636320e+00 -2.6880798621e+00 1.5519636320e+00 2.6880798621e+00 
12200 5.1203693437e+00 5.4873060281e-02 1.5501711965e+00 -2.6849752727e+00 1.5501711965e+00 2.6849752727e+00 
12300 5.1202334897e+00 5.4107193472e-02 1.5484016304e+00 -2.6819102944e+00 1.5484016304e+00 2.6819102944e+00 
12400 5.1201011753e+00 5.3349013024e-02 1.5466547643e+00 -2.6788846336e+00 1.5466547643e+00 2.6788846336e+00 
12500 5.1199723245e+00 5.2598509611e-02 1.5449304271e+00 -2.6758979939e+00 1.5449304271e+00 2.6758979939e+00 
12600 5.1198468623e+00 5.1855672484e-02 1.5432284463e+00 -2.6729500766e+00 1.5432284463e+00 2.6729500766e+00 
12700 5.1197247151e+00 5.1120489501e-02 1.5415486479e+00 -2.6700405805e+00 1.5415486479e+00 2.6700405805e+00 
12800 5.1196058105e+00 5.0392947158e-02 1.5398908567e+00 -2.6671692019e+00 1.5398908567e+00 2.6671692019e+00 
12900 5.1194900771e+00 4.9673030615e-02 1.5382548962e+00 -2.6643356352e+00 1.5382548962e+00 2.6643356352e+00 
13000 5.1193774450e+00 4.8960723725e-02 1.5366405886e+00 -2.6615395724e+00 1.5366405886e+00 2.6615395724e+00 
13100 5.1192678451e+00 4.8256009053e-02 1.5350477550e+00 -2.6587807036e+00 1.5350477550e+00 2.6587807036e+00 
13200 5.1191612097e+00 4.7558867903e-02 1.5334762154e+00 -2.6560587173e+00 1.5334762154e+00 2.6560587173e+00 
13300 5.1190574721e+00 4.6869280339e-02 1.5319257889e+00 -2.6533732998e+00 1.5319257889e+00 2.6533732998e+00 
13400 5.1189565666e+00 4.6187225202e-02 1.5303962934e+00 -2.6507241358e+00 1.5303962934e+00 2.6507241358e+00 
13500 5.1188584289e+00 4.5512680137e-02 1.5288875460e+00 -2.6481109087e+00 1.5288875460e+00 2.6481109087e+00 
13600 5.1187629954e+00 4.4845621603e-02 1.5273993630e+00 -2.6455333002e+00 1.5273993630e+00 2.6455333002e+00 
13700 5.1186702039e+00 4.4186024900e-02 1.5259315599e+00 -2.6429909906e+00 1.5259315599e+00 2.6429909906e+00 
13800 5.1185799930e+00 4.3533864182e-02 1.5244839514e+00 -2.6404836591e+00 1.5244839514e+00 2.6404836591e+00 
13900 5.1184923024e+00 4.2889112477e-02 1.5230563515e+00 -2.6380109836e+00 1.5230563515e+00 2.6380109836e+00 
14000 5.1184070730e+00 4.2251741705e-02 1.5216485737e+00 -2.6355726409e+00 1.5216485737e+00 2.6355726409e+00 
14100 5.1183242465e+00 4.1621722695e-02 1.5202604309e+00 -2.6331683070e+00 1.5202604309e+00 2.6331683070e+00 
14200 5.1182437658e+00 4.0999025200e-02 1.5188917354e+00 -2.6307976570e+00 1.5188917354e+00 2.6307976570e+00 
14300 5.1181655745e+00 4.0383617922e-02 1.5175422993e+00 -2.6284603650e+00 1.5175422993e+00 2.6284603650e+00 
14400 5.1180896176e+00 3.9775468523e-02 1.5162119340e+00 -2.6261561048e+00 1.5162119340e+00 2.6261561048e+00 
14500 5.1180158407e+00 3.9174543644e-02 1.5149004509e+00 -2.6238845493e+00 1.5149004509e+00 2.6238845493e+00 
14600 5.1179441907e+00 3.8580808928e-02 1.5136076608e+00 -2.6216453712e+00 1.5136076608e+00 2.6216453712e+00 
14700 5.1178746151e+00 3.7994229032e-02 1.5123333745e+00 -2.6194382425e+00 1.5123333745e+00 2.6194382425e+00 
14800 5.1178070626e+00 3.7414767652e-02 1.5110774025e+00 -2.6172628354e+00 1.5110774025e+00 2.6172628354e+00 
14900 5.1177414829e+00 3.6842387536e-02 1.5098395555e+00 -2.6151188214e+00 1.5098395555e+00 2.6151188214e+00 
15000 5.1176778264e+00 3.6277050509e-02 1.5086196437e+00 -2.6130058721e+00 1.5086196437e+00 2.6130058721e+00 
15100 5.1176160445e+00 3.5718717489e-02 1.5074174776e+00 -2.6109236594e+00 1.5074174776e+00 2.6109236594e+00 
15200 5.1175560897e+00 3.5167348512e-02 1.5062328676e+00 -2.6088718547e+00 1.5062328676e+00 2.6088718547e+00 
15300 5.1174979153e+00 3.4622902744e-02 1.5050656244e+00 -2.6068501302e+00 1.5050656244e+00 2.6068501302e+00 
15400 5.1174414753e+00 3.4085338511e-02 1.5039155586e+00 -2.6048581578e+00 1.5039155586e+00 2.6048581578e+00 
15500 5.1173867249e+00 3.3554613315e-02 1.5027824812e+00 -2.6028956102e+00 1.5027824812e+00 2.6028956102e+00 
15600 5.1173336201e+00 3.3030683858e-02 1.5016662034e+00 -2.6009621603e+00 1.5016662034e+00 2.6009621603e+00 
15700 5.1172821176e+00 3.2513506063e-02 1.5005665366e+00 -2.5990574815e+00 1.5005665366e+00 2.5990574815e+00 
15800 5.1172321751e+00 3.2003035094e-02 1.4994832927e+00 -2.5971812480e+00 1.4994832927e+00 2.5971812480e+00 
15900 5.1171837513e+00 3.1499225383e-02 1.4984162839e+00 -2.5953331346e+00 1.4984162839e+00 2.5953331346e+00 
16000 5.1171368055e+00 3.1002030652e-02 1.4973653230e+00 -2.5935128169e+00 1.4973653230e+00 2.5935128169e+00 
16100 5.1170912979e+00 3.0511403932e-02 1.4963302230e+00 -2.5917199711e+00 1.4963302230e+00 2.5917199711e+00 
16200 5.1170471898e+00 3.0027297591e-02 1.4953107977e+00 -2.5899542748e+00 1.4953107977e+00 2.5899542748e+00 
16300 5.1170044429e+00 2.9549663355e-02 1.4943068615e+00 -2.5882154061e+00 1.4943068615e+00 2.5882154061e+00 
16400 5.1169630200e+00 2.9078452334e-02 1.4933182291e+00 -2.5865030447e+00 1.4933182291e+00 2.5865030447e+00 
16500 5.1169228847e+00 2.8613615044e-02 1.4923447162e+00 -2.5848168709e+00 1.4923447162e+00 2.5848168709e+00 
16600 5.1168840012e+00 2.8155101432e-02 1.4913861391e+00 -2.5831565666e+00 1.4913861391e+00 2.5831565666e+00 
16700 5.1168463348e+00 2.7702860900e-02 1.4904423148e+00 -2.5815218150e+00 1.4904423148e+00 2.5815218150e+00 
16800 5.1168098513e+00 2.7256842330e-02 1.4895130611e+00 -2.5799123004e+00 1.4895130611e+00 2.5799123004e+00 
16900 5.1167745173e+00 2.6816994107e-02 1.4885981967e+00 -2.5783277088e+00 1.4885981967e+00 2.5783277088e+00 
17000 5.1167403003e+00 2.6383264145e-02 1.4876975410e+00 -2.5767677274e+00 1.4876975410e+00 2.5767677274e+00 
17100 5.1167071685e+00 2.5955599911e-02 1.4868109145e+00 -2.5752320452e+00 1.4868109145e+00 2.5752320452e+00 
17200 5.1166750908e+00 2.5533948450e-02 1.4859381385e+00 -2.5737203528e+00 1.4859381385e+00 2.5737203528e+00 
17300 5.1166440369e+00 2.5118256406e-02 1.4850790352e+00 -2.5722323423e+00 1.4850790352e+00 2.5722323423e+00 
17400 5.1166139771e+00 2.4708470053e-02 1.4842334280e+00 -2.5707677076e+00 1.4842334280e+00 2.5707677076e+00 
17500 5.1165848824e+00 2.4304535313e-02 1.4834011411e+00 -2.5693261445e+00 1.4834011411e+00 2.5693261445e+00 
17600 5.1165567247e+00 2.3906397783e-02 1.4825820000e+00 -2.5679073505e+00 1.4825820000e+00 2.5679073505e+00 
17700 5.1165294764e+00 2.3514002758e-02 1.4817758311e+00 -2.5665110250e+00 1.4817758311e+00 2.5665110250e+00 
17800 5.1165031107e+00 2.3127295258e-02 1.4809824620e+00 -2.5651368694e+00 1.4809824620e+00 2.5651368694e+00 
17900 5.1164776014e+00 2.2746220045e-02 1.4802017215e+00 -2.5637845870e+00 1.4802017215e+00 2.5637845870e+00 
18000 5.1164529229e+00 2.2370721654e-02 1.4794334393e+00 -2.5624538833e+00 1.4794334393e+00 2.5624538833e+00 
18100 5.1164290503e+00 2.2000744411e-02 1.4786774467e+00 -2.5611444657e+00 1.4786774467e+00 2.5611444657e+00 
18200 5.1164059594e+00 2.1636232459e-02 1.4779335759e+00 -2.5598560437e+00 1.4779335759e+00 2.5598560437e+00 
18300 5.1163836266e+00 2.1277129779e-02 1.4772016606e+00 -2.5585883291e+00 1.4772016606e+00 2.5585883291e+00 
18400 5.1163620287e+00 2.0923380212e-02 1.4764815355e+00 -2.5573410359e+00 1.4764815355e+00 2.5573410359e+00 
18500 5.1163411435e+00 2.0574927484e-02 1.4757730367e+00 -2.5561138801e+00 1.4757730367e+00 2.5561138801e+00 
18600 5.1163209490e+00 2.0231715225e-02 1.4750760018e+00 -2.5549065802e+00 1.4750760018e+00 2.5549065802e+00 
18700 5.1163014240e+00 1.9893686990e-02 1.4743902695e+00 -2.5537188569e+00 1.4743902695e+00 2.5537188569e+00 
18800 5.1162825478e+00 1.9560786284e-02 1.4737156798e+00 -2.5525504333e+00 1.4737156798e+00 2.5525504333e+00 
18900 5.1162643003e+00 1.9232956578e-02 1.4730520742e+00 -2.5514010348e+00 1.4730520742e+00 2.5514010348e+00 
19000 5.1162466619e+00 1.8910141334e-02 1.4723992957e+00 -2.5502703892e+00 1.4723992957e+00 2.5502703892e+00 
19100 5.1162296135e+00 1.8592284020e-02 1.4717571884e+00 -2.5491582268e+00 1.4717571884e+00 2.5491582268e+00 
19200 5.1162131367e+00 1.8279328135e-02 1.4711255981e+00 -2.5480642802e+00 1.4711255981e+00 2.5480642802e+00 
19300 5.1161972134e+00 1.7971217223e-02 1.4705043717e+00 -2.5469882845e+00 1.4705043717e+00 2.5469882845e+00 
19400 5.1161818261e+00 1.7667894896e-02 1.4698933578e+00 -2.5459299774e+00 1.4698933578e+00 2.5459299774e+00 
19500 5.1161669578e+00 1.7369304851e-02 1.4692924063e+00 -2.5448890989e+00 1.4692924063e+00 2.5448890989e+00 
19600 5.1161525920e+00 1.7075390885e-02 1.4687013688e+00 -2.5438653919e+00 1.4687013688e+00 2.5438653919e+00 
19700 5.1161387126e+00 1.6786096918e-02 1.4681200980e+00 -2.5428586013e+00 1.4681200980e+00 2.5428586013e+00 
19800 5.1161253039e+00 1.6501367006e-02 1.4675484483e+00 -2.5418684751e+00 1.4675484483e+00 2.5418684751e+00 
19900 5.1161123509e+00 1.6221145359e-02 1.4669862756e+00 -2.5408947634e+00 1.4669862756e+00 2.5408947634e+00 
20000 5.1160998388e+00 1.5945376356e-02 1.4664334373e+00 -2.5399372193e+00 1.4664334373e+00 2.5399372193e+00 
20100 5.1160877533e+00 1.5674004564e-02 1.4658897921e+00 -2.5389955981e+00 1.4658897921e+00 2.5389955981e+00 
20200 5.1160760806e+00 1.5406974747e-02 1.4653552003e+00 -2.5380696581e+00 1.4653552003e+00 2.5380696581e+00 
20300 5.1160648072e+00 1.5144231890e-02 1.4648295239e+00 -2.5371591598e+00 1.4648295239e+00 2.5371591598e+00 
20400 5.1160539200e+00 1.4885721203e-02 1.4643126262e+00 -2.5362638667e+00 1.4643126262e+00 2.5362638667e+00 
20500 5.1160434064e+00 1.4631388144e-02 1.4638043720e+00 -2.5353835447e+00 1.4638043720e+00 2.5353835447e+00 
20600 5.1160332540e+00 1.4381178427e-02 1.4633046278e+00 -2.5345179623e+00 1.4633046278e+00 2.5345179623e+00 
20700 5.1160234510e+00 1.4135038035e-02 1.4628132615e+00 -2.5336668908e+00 1.4628132615e+00 2.5336668908e+00 
20800 5.1160139859e+00 1.3892913236e-02 1.4623301424e+00 -2.5328301040e+00 1.4623301424e+00 2.5328301040e+00 
20900 5.1160048472e+00 1.3654750592e-02 1.4618551415e+00 -2.5320073785e+00 1.4618551415e+00 2.5320073785e+00 
21000 5.1159960243e+00 1.3420496973e-02 1.4613881314e+00 -2.5311984932e+00 1.4613881314e+00 2.5311984932e+00 
21100 5.1159875066e+00 1.3190099565e-02 1.4609289860e+00 -2.5304032300e+00 1.4609289860e+00 2.5304032300e+00 
21200 5.1159792839e+00 1.2963505885e-02 1.4604775807e+00 -2.5296213731e+00 1.4604775807e+00 2.5296213731e+00 
21300 5.1159713462e+00 1.2740663787e-02 1.4600337927e+00 -2.5288527097e+00 1.4600337927e+00 2.5288527097e+00 
21400 5.1159636840e+00 1.2521521475e-02 1.4595975004e+00 -2.5280970294e+00 1.4595975004e+00 2.5280970294e+00 
21500 5.1159562881e+00 1.2306027510e-02 1.4591685840e+00 -2.5273541243e+00 1.4591685840e+00 2.5273541243e+00 
21600 5.1159491493e+00 1.2094130822e-02 1.4587469249e+00 -2.5266237892e+00 1.4587469249e+00 2.5266237892e+00 
21700 5.1159422591e+00 1.1885780716e-02 1.4583324062e+00 -2.5259058218e+00 1.4583324062e+00 2.5259058218e+00 
21800 5.1159356089e+00 1.1680926881e-02 1.4579249124e+00 -2.5252000219e+00 1.4579249124e+00 2.5252000219e+00 
21900 5.1159291906e+00 1.1479519398e-02 1.4575243296e+00 -2.5245061922e+00 1.4575243296e+00 2.5245061922e+00 
22000 5.1159229963e+00 1.1281508748e-02 1.4571305454e+00 -2.5238241379e+00 1.4571305454e+00 2.5238241379e+00 
22100 5.1159170183e+00 1.1086845817e-02 1.4567434487e+00 -2.5231536667e+00 1.4567434487e+00 2.5231536667e+00 
22200 5.1159112493e+00 1.0895481906e-02 1.4563629300e+00 -2.5224945889e+00 1.4563629300e+00 2.5224945889e+00 
22300 5.1159056820e+00 1.0707368732e-02 1.4559888812e+00 -2.5218467175e+00 1.4559888812e+00 2.5218467175e+00 
22400 5.1159003095e+00 1.0522458440e-02 1.4556211957e+00 -2.5212098676e+00 1.4556211957e+00 2.5212098676e+00 
22500 5.1158951251e+00 1.0340703603e-02 1.4552597685e+00 -2.5205838573e+00 1.4552597685e+00 2.5205838573e+00 
22600 5.1158901223e+00 1.0162057232e-02 1.4549044958e+00 -2.5199685068e+00 1.4549044958e+00 2.5199685068e+00 
22700 5.1158852948e+00 9.9864727754e-03 1.4545552752e+00 -2.5193636391e+00 1.4545552752e+00 2.5193636391e+00 
22800 5.1158806366e+00 9.8139041286e-03 1.4542120061e+00 -2.5187690795e+00 1.4542120061e+00 2.5187690795e+00 
22900 5.1158761417e+00 9.6443056346e-03 1.4538745888e+00 -2.5181846556e+00 1.4538745888e+00 2.5181846556e+00 
23000 5.1158718045e+00 9.4776320894e-03 1.4535429254e+00 -2.5176101978e+00 1.4535429254e+00 2.5176101978e+00 
23100 5.1158676194e+00 9.3138387447e-03 1.4532169193e+00 -2.5170455387e+00 1.4532169193e+00 2.5170455387e+00 
23200 5.1158635812e+00 9.1528813113e-03 1.4528964752e+00 -2.5164905132e+00 1.4528964752e+00 2.5164905132e+00 
23300 5.1158596846e+00 8.9947159619e-03 1.4525814992e+00 -2.5159449587e+00 1.4525814992e+00 2.5159449587e+00 
23400 5.1158559248e+00 8.8392993334e-03 1.4522718988e+00 -2.5154087151e+00 1.4522718988e+00 2.5154087151e+00 
23500 5.1158522970e+00 8.6865885293e-03 1.4519675828e+00 -2.5148816244e+00 1.4519675828e+00 2.5148816244e+00 
23600 5.1158487964e+00 8.5365411216e-03 1.4516684615e+00 -2.5143635310e+00 1.4516684615e+00 2.5143635310e+00 
23700 5.1158454186e+00 8.3891151524e-03 1.4513744462e+00 -2.5138542817e+00 1.4513744462e+00 2.5138542817e+00 
23800 5.1158421593e+00 8.2442691350e-03 1.4510854499e+00 -2.5133537254e+00 1.4510854499e+00 2.5133537254e+00 
23900 5.1158390142e+00 8.1019620557e-03 1.4508013867e+00 -2.5128617135e+00 1.4508013867e+00 2.5128617135e+00 
24000 5.1158359794e+00 7.9621533738e-03 1.4505221720e+00 -2.5123780994e+00 1.4505221720e+00 2.5123780994e+00 
24100 5.1158330509e+00 7.8248030229e-03 1.4502477225e+00 -2.5119027389e+00 1.4502477225e+00 2.5119027389e+00 
24200 5.1158302248e+00 7.6898714109e-03 1.4499779561e+00 -2.5114354899e+00 1.4499779561e+00 2.5114354899e+00 
24300 5.1158274977e+00 7.5573194204e-03 1.4497127922e+00 -2.5109762125e+00 1.4497127922e+00 2.5109762125e+00 
24400 5.1158248659e+00 7.4271084081e-03 1.4494521512e+00 -2.5105247690e+00 1.4494521512e+00 2.5105247690e+00 
24500 5.1158223260e+00 7.2992002052e-03 1.4491959547e+00 -2.5100810237e+00 1.4491959547e+00 2.5100810237e+00 
24600 5.1158198748e+00 7.1735571163e-03 1.4489441258e+00 -2.5096448432e+00 1.4489441258e+00 2.5096448432e+00 
24700 5.1158175090e+00 7.0501419191e-03 1.4486965886e+00 -2.5092160962e+00 1.4486965886e+00 2.5092160962e+00 
24800 5.1158152256e+00 6.9289178631e-03 1.4484532683e+00 -2.5087946531e+00 1.4484532683e+00 2.5087946531e+00 
24900 5.1158130216e+00 6.8098486689e-03 1.4482140916e+00 -2.5083803868e+00 1.4482140916e+00 2.5083803868e+00 
25000 5.1158108942e+00 6.6928985264e-03 1.4479789860e+00 -2.5079731720e+00 1.4479789860e+00 2.5079731720e+00 
25100 5.1158088406e+00 6.5780320940e-03 1.4477478804e+00 -2.5075728854e+00 1.4477478804e+00 2.5075728854e+00 
25200 5.1158068582e+00 6.4652144965e-03 1.4475207048e+00 -2.5071794057e+00 1.4475207048e+00 2.5071794057e+00 
25300 5.1158049443e+00 6.3544113233e-03 1.4472973903e+00 -2.5067926136e+00 1.4472973903e+00 2.5067926136e+00 
25400 5.1158030964e+00 6.2455886267e-03 1.4470778690e+00 -2.5064123916e+00 1.4470778690e+00 2.5064123916e+00 
25500 5.1158013123e+00 6.1387129198e-03 1.4468620743e+00 -2.5060386243e+00 1.4468620743e+00 2.5060386243e+00 
25600 5.1157995895e+00 6.0337511739e-03 1.4466499407e+00 -2.5056711980e+00 1.4466499407e+00 2.5056711980e+00 
25700 5.1157979258e+00 5.9306708167e-03 1.4464414035e+00 -2.5053100010e+00 1.4464414035e+00 2.5053100010e+00 
25800 5.1157963191e+00 5.8294397290e-03 1.4462363993e+00 -2.5049549234e+00 1.4462363993e+00 2.5049549234e+00 
25900 5.1157947673e+00 5.7300262431e-03 1.4460348657e+00 -2.5046058570e+00 1.4460348657e+00 2.5046058570e+00 
26000 5.1157932683e+00 5.6323991390e-03 1.4458367413e+00 -2.5042626955e+00 1.4458367413e+00 2.5042626955e+00 
26100 5.1157918203e+00 5.5365276425e-03 1.4456419658e+00 -2.5039253343e+00 1.4456419658e+00 2.5039253343e+00 
26200 5.1157904214e+00 5.4423814212e-03 1.4454504798e+00 -2.5035936708e+00 1.4454504798e+00 2.5035936708e+00 
26300 5.1157890698e+00 5.3499305825e-03 1.4452622248e+00 -2.5032676037e+00 1.4452622248e+00 2.5032676037e+00 
26400 5.1157877636e+00 5.2591456695e-03 1.4450771437e+00 -2.5029470337e+00 1.4450771437e+00 2.5029470337e+00 
26500 5.1157865013e+00 5.1699976585e-03 1.4448951798e+00 -2.5026318631e+00 1.4448951798e+00 2.5026318631e+00 
26600 5.1157852813e+00 5.0824579550e-03 1.4447162779e+00 -2.5023219959e+00 1.4447162779e+00 2.5023219959e+00 
26700 5.1157841019e+00 4.9964983906e-03 1.4445403833e+00 -2.5020173375e+00 1.4445403833e+00 2.5020173375e+00 
26800 5.1157829617e+00 4.9120912196e-03 1.4443674426e+00 -2.5017177953e+00 1.4443674426e+00 2.5017177953e+00 
26900 5.1157818593e+00 4.8292091150e-03 1.4441974029e+00 -2.5014232780e+00 1.4441974029e+00 2.5014232780e+00 
27000 5.1157807931e+00 4.7478251653e-03 1.4440302126e+00 -2.5011336959e+00 1.4440302126e+00 2.5011336959e+00 
27100 5.1157797619e+00 4.6679128705e-03 1.4438658208e+00 -2.5008489609e+00 1.4438658208e+00 2.5008489609e+00 
27200 5.1157787644e+00 4.5894461384e-03 1.4437041775e+00 -2.5005689865e+00 1.4437041775e+00 2.5005689865e+00 
27300 5.1157777993e+00 4.5123992807e-03 1.4435452335e+00 -2.5002936874e+00 1.4435452335e+00 2.5002936874e+00 
27400 5.1157768654e+00 4.4367470093e-03 1.4433889406e+00 -2.5000229801e+00 1.4433889406e+00 2.5000229801e+00 
27500 5.1157759616e+00 4.3624644320e-03 1.4432352513e+00 -2.4997567825e+00 1.4432352513e+00 2.4997567825e+00 
27600 5.1157750866e+00 4.2895270491e-03 1.4430841190e+00 -2.4994950137e+00 1.4430841190e+00 2.4994950137e+00 
27700 5.1157742395e+00 4.2179107487e-03 1.4429354980e+00 -2.4992375945e+00 1.4429354980e+00 2.4992375945e+00 
27800 5.1157734192e+00 4.1475918032e-03 1.4427893431e+00 -2.4989844469e+00 1.4427893431e+00 2.4989844469e+00 
27900 5.1157726247e+00 4.0785468649e-03 1.4426456103e+00 -2.4987354944e+00 1.4426456103e+00 2.4987354944e+00 
28000 5.1157718551e+00 4.0107529620e-03 1.4425042561e+00 -2.4984906618e+00 1.4425042561e+00 2.4984906618e+00 
28100 5.1157711093e+00 3.9441874945e-03 1.4423652379e+00 -2.4982498751e+00 1.4423652379e+00 2.4982498751e+00 
28200 5.1157703865e+00 3.8788282298e-03 1.4422285137e+00 -2.4980130618e+00 1.4422285137e+00 2.4980130618e+00 
28300 5.1157696858e+00 3.8146532987e-03 1.4420940423e+00 -2.4977801506e+00 1.4420940423e+00 2.4977801506e+00 
28400 5.1157690065e+00 3.7516411914e-03 1.4419617835e+00 -2.4975510715e+00 1.4419617835e+00 2.4975510715e+00 
28500 5.1157683476e+00 3.6897707528e-03 1.4418316973e+00 -2.4973257557e+00 1.4418316973e+00 2.4973257557e+00 
28600 5.1157677084e+00 3.6290211786e-03 1.4417037449e+00 -2.4971041357e+00 1.4417037449e+00 2.4971041357e+00 
28700 5.1157670882e+00 3.5693720109e-03 1.4415778880e+00 -2.4968861451e+00 1.4415778880e+00 2.4968861451e+00 
28800 5.1157664863e+00 3.5108031342e-03 1.4414540889e+00 -2.4966717187e+00 1.4414540889e+00 2.4966717187e+00 
28900 5.1157659020e+00 3.4532947709e-03 1.4413323107e+00 -2.4964607927e+00 1.4413323107e+00 2.4964607927e+00 
29000 5.1157653345e+00 3.3968274770e-03 1.4412125171e+00 -2.4962533041e+00 1.4412125171e+00 2.4962533041e+00 
29100 5.1157647833e+00 3.3413821382e-03 1.4410946726e+00 -2.4960491914e+00 1.4410946726e+00 2.4960491914e+00 
29200 5.1157642478e+00 3.2869399653e-03 1.4409787420e+00 -2.4958483938e+00 1.4409787420e+00 2.4958483938e+00 
29300 5.1157637273e+00 3.2334824900e-03 1.4408646912e+00 -2.4956508520e+00 1.4408646912e+00 2.4956508520e+00 
29400 5.1157632213e+00 3.1809915610e-03 1.4407524863e+00 -2.4954565074e+00 1.4407524863e+00 2.4954565074e+00 
29500 5.1157627292e+00 3.1294493394e-03 1.4406420943e+00 -2.4952653029e+00 1.4406420943e+00 2.4952653029e+00 
29600 5.1157622506e+00 3.0788382945e-03 1.4405334827e+00 -2.4950771820e+00 1.4405334827e+00 2.4950771820e+00 
29700 5.1157617848e+00 3.0291411998e-03 1.4404266195e+00 -2.4948920895e+00 1.4404266195e+00 2.4948920895e+00 
29800 5.1157613315e+00 2.9803411289e-03 1.4403214734e+00 -2.4947099712e+00 1.4403214734e+00 2.4947099712e+00 
29900 5.1157608901e+00 2.9324214509e-03 1.4402180137e+00 -2.4945307737e+00 1.4402180137e+00 2.4945307737e+00 
30000 5.1157604602e+00 2.8853658266e-03 1.4401162101e+00 -2.4943544447e+00 1.4401162101e+00 2.4943544447e+00 
30100 5.1157600414e+00 2.8391582043e-03 1.4400160330e+00 -2.4941809329e+00 1.4400160330e+00 2.4941809329e+00 
30200 5.1157596332e+00 2.7937828156e-03 1.4399174534e+00 -2.4940101879e+00 1.4399174534e+00 2.4940101879e+00 
30300 5.1157592353e+00 2.7492241715e-03 1.4398204426e+00 -2.4938421603e+00 1.4398204426e+00 2.4938421603e+00 
30400 5.1157588472e+00 2.7054670580e-03 1.4397249725e+00 -2.4936768013e+00 1.4397249725e+00 2.4936768013e+00 
30500 5.1157584685e+00 2.6624965325e-03 1.4396310158e+00 -2.4935140635e+00 1.4396310158e+00 2.4935140635e+00 
30600 5.1157580991e+00 2.6202979194e-03 1.4395385453e+00 -2.4933538999e+00 1.4395385453e+00 2.4933538999e+00 
30700 5.1157577383e+00 2.5788568062e-03 1.4394475345e+00 -2.4931962646e+00 1.4394475345e+00 2.4931962646e+00 
30800 5.1157573861e+00 2.5381590398e-03 1.4393579574e+00 -2.4930411125e+00 1.4393579574e+00 2.4930411125e+00 
30900 5.1157570420e+00 2.4981907222e-03 1.4392697885e+00 -2.4928883995e+00 1.4392697885e+00 2.4928883995e+00 
31000 5.1157567057e+00 2.4589382070e-03 1.4391830026e+00 -2.4927380819e+00 1.4391830026e+00 2.4927380819e+00 
31100 5.1157563769e+00 2.4203880950e-03 1.4390975752e+00 -2.4925901173e+00 1.4390975752e+00 2.4925901173e+00 
31200 5.1157560554e+00 2.3825272309e-03 1.4390134821e+00 -2.4924444637e+00 1.4390134821e+00 2.4924444637e+00 
31300 5.1157557409e+00 2.3453426991e-03 1.4389306995e+00 -2.4923010801e+00 1.4389306995e+00 2.4923010801e+00 
31400 5.1157554332e+00 2.3088218204e-03 1.4388492042e+00 -2.4921599262e+00 1.4388492042e+00 2.4921599262e+00 
31500 5.1157551319e+00 2.2729521476e-03 1.4387689735e+00 -2.4920209624e+00 1.4387689735e+00 2.4920209624e+00 
31600 5.1157548368e+00 2.2377214624e-03 1.4386899847e+00 -2.4918841498e+00 1.4386899847e+00 2.4918841498e+00 
31700 5.1157545478e+00 2.2031177714e-03 1.4386122160e+00 -2.4917494505e+00 1.4386122160e+00 2.4917494505e+00 
31800 5.1157542646e+00 2.1691293025e-03 1.4385356457e+00 -2.4916168269e+00 1.4385356457e+00 2.4916168269e+00 
31900 5.1157539869e+00 2.1357445015e-03 1.4384602527e+00 -2.4914862424e+00 1.4384602527e+00 2.4914862424e+00 
32000 5.1157537147e+00 2.1029520284e-03 1.4383860162e+00 -2.4913576609e+00 1.4383860162e+00 2.4913576609e+00 
32100 5.1157534476e+00 2.0707407538e-03 1.4383129157e+00 -2.4912310472e+00 1.4383129157e+00 2.4912310472e+00 
32200 5.1157531855e+00 2.0390997557e-03 1.4382409313e+00 -2.4911063665e+00 1.4382409313e+00 2.4911063665e+00 
32300 5.1157529282e+00 2.0080183156e-03 1.4381700432e+00 -2.4909835847e+00 1.4381700432e+00 2.4909835847e+00 
32400 5.1157526756e+00 1.9774859156e-03 1.4381002322e+00 -2.4908626685e+00 1.4381002322e+00 2.4908626685e+00 
32500 5.1157524275e+00 1.9474922348e-03 1.4380314793e+00 -2.4907435850e+00 1.4380314793e+00 2.4907435850e+00 
32600 5.1157521837e+00 1.9180271457e-03 1.4379637660e+00 -2.4906263022e+00 1.4379637660e+00 2.4906263022e+00 
32700 5.1157519441e+00 1.8890807116e-03 1.4378970740e+00 -2.4905107883e+00 1.4378970740e+00 2.4905107883e+00 
32800 5.1157517085e+00 1.8606431827e-03 1.4378313855e+00 -2.4903970125e+00 1.4378313855e+00 2.4903970125e+00 
32900 5.1157514768e+00 1.8327049930e-03 1.4377666829e+00 -2.4902849442e+00 1.4377666829e+00 2.4902849442e+00 
33000 5.1157512489e+00 1.8052567576e-03 1.4377029489e+00 -2.4901745538e+00 1.4377029489e+00 2.4901745538e+00 
33100 5.1157510246e+00 1.7782892689e-03 1.4376401667e+00 -2.4900658118e+00 1.4376401667e+00 2.4900658118e+00 
33200 5.1157508038e+00 1.7517934942e-03 1.4375783197e+00 -2.4899586895e+00 1.4375783197e+00 2.4899586895e+00 
33300 5.1157505864e+00 1.7257605719e-03 1.4375173915e+00 -2.4898531588e+00 1.4375173915e+00 2.4898531588e+00 
33400 5.1157503723e+00 1.7001818092e-03 1.4374573662e+00 -2.4897491919e+00 1.4374573662e+00 2.4897491919e+00 
33500 5.1157501613e+00 1.6750486787e-03 1.4373982280e+00 -2.4896467617e+00 1.4373982280e+00 2.4896467617e+00 
33600 5.1157499534e+00 1.6503528155e-03 1.4373399618e+00 -2.4895458415e+00 1.4373399618e+00 2.4895458415e+00 
33700 5.1157497485e+00 1.6260860145e-03 1.4372825522e+00 -2.4894464052e+00 1.4372825522e+00 2.4894464052e+00 
33800 5.1157495465e+00 1.6022402275e-03 1.4372259845e+00 -2.4893484271e+00 1.4372259845e+00 2.4893484271e+00 
33900 5.1157493473e+00 1.5788075601e-03 1.4371702441e+00 -2.4892518819e+00 1.4371702441e+00 2.4892518819e+00 
34000 5.1157491507e+00 1.5557802694e-03 1.4371153168e+00 -2.4891567451e+00 1.4371153168e+00 2.4891567451e+00 
34100 5.1157489568e+00 1.5331507610e-03 1.4370611886e+00 -2.4890629922e+00 1.4370611886e+00 2.4890629922e+00 
34200 5.1157487654e+00 1.5109115862e-03 1.4370078456e+00 -2.4889705995e+00 1.4370078456e+00 2.4889705995e+00 
34300 5.1157485764e+00 1.4890554395e-03 1.4369552745e+00 -2.4888795437e+00 1.4369552745e+00 2.4888795437e+00 
34400 5.1157483899e+00 1.4675751561e-03 1.4369034620e+00 -2.4887898017e+00 1.4369034620e+00 2.4887898017e+00 
34500 5.1157482057e+00 1.4464637092e-03 1.4368523950e+00 -2.4887013511e+00 1.4368523950e+00 2.4887013511e+00 
34600 5.1157480237e+00 1.4257142071e-03 1.4368020608e+00 -2.4886141697e+00 1.4368020608e+00 2.4886141697e+00 
34700 5.1157478439e+00 1.4053198916e-03 1.4367524469e+00 -2.4885282360e+00 1.4367524469e+00 2.4885282360e+00 
34800 5.1157476662e+00 1.3852741346e-03 1.4367035411e+00 -2.4884435286e+00 1.4367035411e+00 2.4884435286e+00 
34900 5.1157474906e+00 1.3655704363e-03 1.4366553312e+00 -2.4883600266e+00 1.4366553312e+00 2.4883600266e+00 
35000 5.1157473171e+00 1.3462024222e-03 1.4366078054e+00 -2.4882777096e+00 1.4366078054e+00 2.4882777096e+00 
35100 5.1157471454e+00 1.3271638417e-03 1.4365609522e+00 -2.4881965574e+00 1.4365609522e+00 2.4881965574e+00 
35200 5.1157469757e+00 1.3084485647e-03 1.4365147600e+00 -2.4881165502e+00 1.4365147600e+00 2.4881165502e+00 
35300 5.1157468079e+00 1.2900505802e-03 1.4364692178e+00 -2.4880376688e+00 1.4364692178e+00 2.4880376688e+00 
35400 5.1157466418e+00 1.2719639936e-03 1.4364243145e+00 -2.4879598940e+00 1.4364243145e+00 2.4879598940e+00 
35500 5.1157464776e+00 1.2541830245e-03 1.4363800394e+00 -2.4878832072e+00 1.4363800394e+00 2.4878832072e+00 
35600 5.1157463150e+00 1.2367020047e-03 1.4363363818e+00 -2.4878075901e+00 1.4363363818e+00 2.4878075901e+00 
35700 5.1157461542e+00 1.2195153761e-03 1.4362933315e+00 -2.4877330247e+00 1.4362933315e+00 2.4877330247e+00 
35800 5.1157459949e+00 1.2026176885e-03 1.4362508781e+00 -2.4876594933e+00 1.4362508781e+00 2.4876594933e+00 
35900 5.1157458373e+00 1.1860035974e-03 1.4362090118e+00 -2.4875869787e+00 1.4362090118e+00 2.4875869787e+00 
36000 5.1157456813e+00 1.1696678622e-03 1.4361677226e+00 -2.4875154637e+00 1.4361677226e+00 2.4875154637e+00 
36100 5.1157455268e+00 1.1536053442e-03 1.4361270009e+00 -2.4874449318e+00 1.4361270009e+00 2.4874449318e+00 
36200 5.1157453738e+00 1.1378110044e-03 1.4360868374e+00 -2.4873753664e+00 1.4360868374e+00 2.4873753664e+00 
36300 5.1157452223e+00 1.1222799020e-03 1.4360472226e+00 -2.4873067516e+00 1.4360472226e+00 2.4873067516e+00 
36400 5.1157450722e+00 1.1070071919e-03 1.4360081474e+00 -2.4872390714e+00 1.4360081474e+00 2.4872390714e+00 
36500 5.1157449236e+00 1.0919881236e-03 1.4359696030e+00 -2.4871723105e+00 1.4359696030e+00 2.4871723105e+00 
36600 5.1157447763e+00 1.0772180386e-03 1.4359315805e+00 -2.4871064536e+00 1.4359315805e+00 2.4871064536e+00 
36700 5.1157446304e+00 1.0626923691e-03 1.4358940713e+00 -2.4870414857e+00 1.4358940713e+00 2.4870414857e+00 
36800 5.1157444859e+00 1.0484066362e-03 1.4358570669e+00 -2.4869773923e+00 1.4358570669e+00 2.4869773923e+00 
36900 5.1157443426e+00 1.0343564479e-03 1.4358205590e+00 -2.4869141587e+00 1.4358205590e+00 2.4869141587e+00 
37000 5.1157442007e+00 1.0205374976e-03 1.4357845395e+00 -2.4868517711e+00 1.4357845395e+00 2.4868517711e+00 
37100 5.1157440600e+00 1.0069455625e-03 1.4357490002e+00 -2.4867902153e+00 1.4357490002e+00 2.4867902153e+00 
37200 5.1157439206e+00 9.9357650166e-04 1.4357139335e+00 -2.4867294779e+00 1.4357139335e+00 2.4867294779e+00 
37300 5.1157437823e+00 9.8042625470e-04 1.4356793314e+00 -2.4866695454e+00 1.4356793314e+00 2.4866695454e+00 
37400 5.1157436454e+00 9.6749084006e-04 1.4356451865e+00 -2.4866104047e+00 1.4356451865e+00 2.4866104047e+00 
37500 5.1157435095e+00 9.5476635346e-04 1.4356114913e+00 -2.4865520429e+00 1.4356114913e+00 2.4865520429e+00 
37600 5.1157433749e+00 9.4224896638e-04 1.4355782385e+00 -2.4864944473e+00 1.4355782385e+00 2.4864944473e+00 
37700 5.1157432414e+00 9.2993492457e-04 1.4355454209e+00 -2.4864376055e+00 1.4355454209e+00 2.4864376055e+00 
37800 5.1157431091e+00 9.1782054657e-04 1.4355130314e+00 -2.4863815053e+00 1.4355130314e+00 2.4863815053e+00 
37900 5.1157429779e+00 9.0590222228e-04 1.4354810631e+00 -2.4863261347e+00 1.4354810631e+00 2.4863261347e+00 
38000 5.1157428478e+00 8.9417641151e-04 1.4354495093e+00 -2.4862714818e+00 1.4354495093e+00 2.4862714818e+00 
38100 5.1157427188e+00 8.8263964262e-04 1.4354183632e+00 -2.4862175352e+00 1.4354183632e+00 2.4862175352e+00 
38200 5.1157425909e+00 8.7128851115e-04 1.4353876183e+00 -2.4861642834e+00 1.4353876183e+00 2.4861642834e+00 
38300 5.1157424640e+00 8.6011967847e-04 1.4353572681e+00 -2.4861117154e+00 1.4353572681e+00 2.4861117154e+00 
38400 5.1157423382e+00 8.4912987047e-04 1.4353273063e+00 -2.4860598201e+00 1.4353273063e+00 2.4860598201e+00 
38500 5.1157422135e+00 8.3831587627e-04 1.4352977268e+00 -2.4860085868e+00 1.4352977268e+00 2.4860085868e+00 
38600 5.1157420897e+00 8.2767454698e-04 1.4352685233e+00 -2.4859580049e+00 1.4352685233e+00 2.4859580049e+00 
38700 5.1157419670e+00 8.1720279441e-04 1.4352396900e+00 -2.4859080641e+00 1.4352396900e+00 2.4859080641e+00 
38800 5.1157418454e+00 8.0689758989e-04 1.4352112209e+00 -2.4858587541e+00 1.4352112209e+00 2.4858587541e+00 
38900 5.1157417247e+00 7.9675596307e-04 1.4351831102e+00 -2.4858100650e+00 1.4351831102e+00 2.4858100650e+00 
39000 5.1157416050e+00 7.8677500076e-04 1.4351553523e+00 -2.4857619869e+00 1.4351553523e+00 2.4857619869e+00 
39100 5.1157414862e+00 7.7695184575e-04 1.4351279416e+00 -2.4857145102e+00 1.4351279416e+00 2.4857145102e+00 
39200 5.1157413685e+00 7.6728369572e-04 1.4351008726e+00 -2.4856676253e+00 1.4351008726e+00 2.4856676253e+00 
39300 5.1157412517e+00 7.5776780211e-04 1.4350741399e+00 -2.4856213230e+00 1.4350741399e+00 2.4856213230e+00 
39400 5.1157411359e+00 7.4840146907e-04 1.4350477383e+00 -2.4855755940e+00 1.4350477383e+00 2.4855755940e+00 
39500 5.1157410210e+00 7.3918205237e-04 1.4350216626e+00 -2.4855304295e+00 1.4350216626e+00 2.4855304295e+00 
39600 5.1157409070e+00 7.3010695836e-04 1.4349959075e+00 -2.4854858205e+00 1.4349959075e+00 2.4854858205e+00 
39700 5.1157407940e+00 7.2117364298e-04 1.4349704683e+00 -2.4854417584e+00 1.4349704683e+00 2.4854417584e+00 
39800 5.1157406819e+00 7.1237961075e-04 1.4349453398e+00 -2.4853982347e+00 1.4349453398e+00 2.4853982347e+00 
39900 5.1157405706e+00 7.0372241375e-04 1.4349205174e+00 -2.4853552409e+00 1.4349205174e+00 2.4853552409e+00 
40000 5.1157404604e+00 6.9519965074e-04 1.4348959961e+00 -2.4853127689e+00 1.4348959961e+00 2.4853127689e+00 
40100 5.1157403510e+00 6.8680896615e-04 1.4348717715e+00 -2.4852708105e+00 1.4348717715e+00 2.4852708105e+00 
40200 5.1157402424e+00 6.7854804918e-04 1.4348478388e+00 -2.4852293579e+00 1.4348478388e+00 2.4852293579e+00 
40300 5.1157401348e+00 6.7041463292e-04 1.4348241935e+00 -2.4851884031e+00 1.4348241935e+00 2.4851884031e+00 
40400 5.1157400281e+00 6.6240649344e-04 1.4348008313e+00 -2.4851479386e+00 1.4348008313e+00 2.4851479386e+00 
40500 5.1157399222e+00 6.5452144892e-04 1.4347777478e+00 -2.4851079568e+00 1.4347777478e+00 2.4851079568e+00 
40600 5.1157398172e+00 6.4675735881e-04 1.4347549387e+00 -2.4850684503e+00 1.4347549387e+00 2.4850684503e+00 
40700 5.1157397130e+00 6.3911212302e-04 1.4347323999e+00 -2.4850294118e+00 1.4347323999e+00 2.4850294118e+00 
40800 5.1157396097e+00 6.3158368107e-04 1.4347101270e+00 -2.4849908342e+00 1.4347101270e+00 2.4849908342e+00 
40900 5.1157395073e+00 6.2417001129e-04 1.4346881163e+00 -2.4849527104e+00 1.4346881163e+00 2.4849527104e+00 
41000 5.1157394057e+00 6.1686913008e-04 1.4346663635e+00 -2.4849150335e+00 1.4346663635e+00 2.4849150335e+00 
41100 5.1157393049e+00 6.0967909110e-04 1.4346448649e+00 -2.4848777967e+00 1.4346448649e+00 2.4848777967e+00 
41200 5.1157392049e+00 6.0259798452e-04 1.4346236165e+00 -2.4848409935e+00 1.4346236165e+00 2.4848409935e+00 
41300 5.1157391058e+00 5.9562393634e-04 1.4346026146e+00 -2.4848046171e+00 1.4346026146e+00 2.4848046171e+00 
41400 5.1157390075e+00 5.8875510760e-04 1.4345818554e+00 -2.4847686612e+00 1.4345818554e+00 2.4847686612e+00 
41500 5.1157389100e+00 5.8198969370e-04 1.4345613354e+00 -2.4847331194e+00 1.4345613354e+00 2.4847331194e+00 
41600 5.1157388133e+00 5.7532592374e-04 1.4345410508e+00 -2.4846979856e+00 1.4345410508e+00 2.4846979856e+00 
41700 5.1157387174e+00 5.6876205979e-04 1.4345209983e+00 -2.4846632535e+00 1.4345209983e+00 2.4846632535e+00 
41800 5.1157386223e+00 5.6229639628e-04 1.4345011742e+00 -2.4846289172e+00 1.4345011742e+00 2.4846289172e+00 
41900 5.1157385280e+00 5.5592725929e-04 1.4344815752e+00 -2.4845949708e+00 1.4344815752e+00 2.4845949708e+00 
42000 5.1157384345e+00 5.4965300600e-04 1.4344621980e+00 -2.4845614084e+00 1.4344621980e+00 2.4845614084e+00 
42100 5.1157383418e+00 5.4347202398e-04 1.4344430392e+00 -2.4845282244e+00 1.4344430392e+00 2.4845282244e+00 
42200 5.1157382498e+00 5.3738273062e-04 1.4344240956e+00 -2.4844954131e+00 1.4344240956e+00 2.4844954131e+00 
42300 5.1157381587e+00 5.3138357255e-04 1.4344053639e+00 -2.4844629690e+00 1.4344053639e+00 2.4844629690e+00 
42400 5.1157380682e+00 5.2547302504e-04 1.4343868412e+00 -2.4844308867e+00 1.4343868412e+00 2.4844308867e+00 
42500 5.1157379786e+00 5.1964959140e-04 1.4343685242e+00 -2.4843991608e+00 1.4343685242e+00 2.4843991608e+00 
42600 5.1157378897e+00 5.1391180248e-04 1.4343504101e+00 -2.4843677861e+00 1.4343504101e+00 2.4843677861e+00 
42700 5.1157378016e+00 5.0825821606e-04 1.4343324957e+00 -2.4843367574e+00 1.4343324957e+00 2.4843367574e+00 
42800 5.1157377142e+00 5.0268741636e-04 1.4343147781e+00 -2.4843060697e+00 1.4343147781e+00 2.4843060697e+00 
42900 5.1157376275e+00 4.9719801348e-04 1.4342972545e+00 -2.4842757180e+00 1.4342972545e+00 2.4842757180e+00 
43000 5.1157375416e+00 4.9178864292e-04 1.4342799221e+00 -2.4842456974e+00 1.4342799221e+00 2.4842456974e+00 
43100 5.1157374565e+00 4.8645796504e-04 1.4342627780e+00 -2.4842160030e+00 1.4342627780e+00 2.4842160030e+00 
43200 5.1157373720e+00 4.8120466460e-04 1.4342458196e+00 -2.4841866301e+00 1.4342458196e+00 2.4841866301e+00 
43300 5.1157372883e+00 4.7602745024e-04 1.4342290441e+00 -2.4841575741e+00 1.4342290441e+00 2.4841575741e+00 
43400 5.1157372053e+00 4.7092505405e-04 1.4342124489e+00 -2.4841288303e+00 1.4342124489e+00 2.4841288303e+00 
43500 5.1157371230e+00 4.6589623108e-04 1.4341960314e+00 -2.4841003944e+00 1.4341960314e+00 2.4841003944e+00 
43600 5.1157370415e+00 4.6093975889e-04 1.4341797890e+00 -2.4840722617e+00 1.4341797890e+00 2.4840722617e+00 
43700 5.1157369606e+00 4.5605443710e-04 1.4341637192e+00 -2.4840444281e+00 1.4341637192e+00 2.4840444281e+00 
43800 5.1157368805e+00 4.5123908700e-04 1.4341478196e+00 -2.4840168891e+00 1.4341478196e+00 2.4840168891e+00 
43900 5.1157368010e+00 4.4649255104e-04 1.4341320877e+00 -2.4839896406e+00 1.4341320877e+00 2.4839896406e+00 
44000 5.1157367223e+00 4.4181369251e-04 1.4341165210e+00 -2.4839626784e+00 1.4341165210e+00 2.4839626784e+00 
44100 5.1157366442e+00 4.3720139505e-04 1.4341011174e+00 -2.4839359985e+00 1.4341011174e+00 2.4839359985e+00 
44200 5.1157365668e+00 4.3265456233e-04 1.4340858744e+00 -2.4839095968e+00 1.4340858744e+00 2.4839095968e+00 
44300 5.1157364901e+00 4.2817211757e-04 1.4340707897e+00 -2.4838834694e+00 1.4340707897e+00 2.4838834694e+00 
44400 5.1157364141e+00 4.2375300325e-04 1.4340558612e+00 -2.4838576124e+00 1.4340558612e+00 2.4838576124e+00 
44500 5.1157363387e+00 4.1939618066e-04 1.4340410866e+00 -2.4838320221e+00 1.4340410866e+00 2.4838320221e+00 
44600 5.1157362640e+00 4.1510062958e-04 1.4340264637e+00 -2.4838066945e+00 1.4340264637e+00 2.4838066945e+00 
44700 5.1157361900e+00 4.1086534791e-04 1.4340119905e+00 -2.4837816262e+00 1.4340119905e+00 2.4837816262e+00 
44800 5.1157361166e+00 4.0668935130e-04 1.4339976648e+00 -2.4837568133e+00 1.4339976648e+00 2.4837568133e+00 
44900 5.1157360439e+00 4.0257167285e-04 1.4339834845e+00 -2.4837322524e+00 1.4339834845e+00 2.4837322524e+00 
45000 5.1157359719e+00 3.9851136272e-04 1.4339694477e+00 -2.4837079400e+00 1.4339694477e+00 2.4837079400e+00 
45100 5.1157359004e+00 3.9450748784e-04 1.4339555524e+00 -2.4836838725e+00 1.4339555524e+00 2.4836838725e+00 
45200 5.1157358297e+00 3.9055913158e-04 1.4339417965e+00 -2.4836600466e+00 1.4339417965e+00 2.4836600466e+00 
45300 5.1157357595e+00 3.8666539342e-04 1.4339281781e+00 -2.4836364589e+00 1.4339281781e+00 2.4836364589e+00 
45400 5.1157356900e+00 3.8282538864e-04 1.4339146954e+00 -2.4836131061e+00 1.4339146954e+00 2.4836131061e+00 
45500 5.1157356211e+00 3.7903824805e-04 1.4339013465e+00 -2.4835899851e+00 1.4339013465e+00 2.4835899851e+00 
45600 5.1157355529e+00 3.7530311767e-04 1.4338881295e+00 -2.4835670926e+00 1.4338881295e+00 2.4835670926e+00 
45700 5.1157354853e+00 3.7161915842e-04 1.4338750426e+00 -2.4835444254e+00 1.4338750426e+00 2.4835444254e+00 
45800 5.1157354182e+00 3.6798554588e-04 1.4338620840e+00 -2.4835219806e+00 1.4338620840e+00 2.4835219806e+00 
45900 5.1157353518e+00 3.6440146997e-04 1.4338492521e+00 -2.4834997550e+00 1.4338492521e+00 2.4834997550e+00 
46000 5.1157352860e+00 3.6086613473e-04 1.4338365450e+00 -2.4834777457e+00 1.4338365450e+00 2.4834777457e+00 
46100 5.1157352208e+00 3.5737875799e-04 1.4338239611e+00 -2.4834559497e+00 1.4338239611e+00 2.4834559497e+00 
46200 5.1157351562e+00 3.5393857115e-04 1.4338114987e+00 -2.4834343641e+00 1.4338114987e+00 2.4834343641e+00 
46300 5.1157350922e+00 3.5054481892e-04 1.4337991561e+00 -2.4834129862e+00 1.4337991561e+00 2.4834129862e+00 
46400 5.1157350288e+00 3.4719675906e-04 1.4337869318e+00 -2.4833918131e+00 1.4337869318e+00 2.4833918131e+00 
46500 5.1157349660e+00 3.4389366215e-04 1.4337748241e+00 -2.4833708420e+00 1.4337748241e+00 2.4833708420e+00 
46600 5.1157349037e+00 3.4063481131e-04 1.4337628315e+00 -2.4833500702e+00 1.4337628315e+00 2.4833500702e+00 
46700 5.1157348420e+00 3.3741950205e-04 1.4337509525e+00 -2.4833294951e+00 1.4337509525e+00 2.4833294951e+00 
46800 5.1157347809e+00 3.3424704192e-04 1.4337391855e+00 -2.4833091141e+00 1.4337391855e+00 2.4833091141e+00 
46900 5.1157347204e+00 3.3111675040e-04 1.4337275290e+00 -2.4832889245e+00 1.4337275290e+00 2.4832889245e+00 
47000 5.1157346604e+00 3.2802795860e-04 1.4337159816e+00 -2.4832689238e+00 1.4337159816e+00 2.4832689238e+00 
47100 5.1157346010e+00 3.2498000910e-04 1.4337045419e+00 -2.4832491096e+00 1.4337045419e+00 2.4832491096e+00 
47200 5.1157345422e+00 3.2197225568e-04 1.4336932083e+00 -2.4832294793e+00 1.4336932083e+00 2.4832294793e+00 
47300 5.1157344839e+00 3.1900406316e-04 1.4336819796e+00 -2.4832100305e+00 1.4336819796e+00 2.4832100305e+00 
47400 5.1157344261e+00 3.1607480719e-04 1.4336708542e+00 -2.4831907608e+00 1.4336708542e+00 2.4831907608e+00 
47500 5.1157343689e+00 3.1318387402e-04 1.4336598310e+00 -2.4831716680e+00 1.4336598310e+00 2.4831716680e+00 
47600 5.1157343122e+00 3.1033066034e-04 1.4336489085e+00 -2.4831527497e+00 1.4336489085e+00 2.4831527497e+00 
47700 5.1157342561e+00 3.0751457309e-04 1.4336380854e+00 -2.4831340035e+00 1.4336380854e+00 2.4831340035e+00 
47800 5.1157342005e+00 3.0473502923e-04 1.4336273604e+00 -2.4831154273e+00 1.4336273604e+00 2.4831154273e+00 
47900 5.1157341454e+00 3.0199145560e-04 1.4336167323e+00 -2.4830970189e+00 1.4336167323e+00 2.4830970189e+00 
48000 5.1157340908e+00 2.9928328874e-04 1.4336061998e+00 -2.4830787761e+00 1.4336061998e+00 2.4830787761e+00 
48100 5.1157340368e+00 2.9660997467e-04 1.4335957617e+00 -2.4830606968e+00 1.4335957617e+00 2.4830606968e+00 
48200 5.1157339832e+00 2.9397096878e-04 1.4335854167e+00 -2.4830427788e+00 1.4335854167e+00 2.4830427788e+00 
48300 5.1157339302e+00 2.9136573560e-04 1.4335751638e+00 -2.4830250201e+00 1.4335751638e+00 2.4830250201e+00 
48400 5.1157338777e+00 2.8879374870e-04 1.4335650016e+00 -2.4830074187e+00 1.4335650016e+00 2.4830074187e+00 
48500 5.1157338257e+00 2.8625449046e-04 1.4335549290e+00 -2.4829899725e+00 1.4335549290e+00 2.4829899725e+00 
48600 5.1157337742e+00 2.8374745195e-04 1.4335449449e+00 -2.4829726796e+00 1.4335449449e+00 2.4829726796e+00 
48700 5.1157337231e+00 2.8127213278e-04 1.4335350482e+00 -2.4829555380e+00 1.4335350482e+00 2.4829555380e+00 
48800 5.1157336726e+00 2.7882804093e-04 1.4335252378e+00 -2.4829385458e+00 1.4335252378e+00 2.4829385458e+00 
48900 5.1157336226e+00 2.7641469259e-04 1.4335155126e+00 -2.4829217012e+00 1.4335155126e+00 2.4829217012e+00 
49000 5.1157335730e+00 2.7403161204e-04 1.4335058714e+00 -2.4829050023e+00 1.4335058714e+00 2.4829050023e+00 
49100 5.1157335239e+00 2.7167833151e-04 1.4334963134e+00 -2.4828884472e+00 1.4334963134e+00 2.4828884472e+00 
49200 5.1157334753e+00 2.6935439100e-04 1.4334868373e+00 -2.4828720342e+00 1.4334868373e+00 2.4828720342e+00 
49300 5.1157334272e+00 2.6705933817e-04 1.4334774422e+00 -2.4828557614e+00 1.4334774422e+00 2.4828557614e+00 
49400 5.1157333795e+00 2.6479272822e-04 1.4334681271e+00 -2.4828396272e+00 1.4334681271e+00 2.4828396272e+00 
49500 5.1157333323e+00 2.6255412371e-04 1.4334588911e+00 -2.4828236299e+00 1.4334588911e+00 2.4828236299e+00 
49600 5.1157332855e+00 2.6034309448e-04 1.4334497330e+00 -2.4828077677e+00 1.4334497330e+00 2.4828077677e+00 
49700 5.1157332392e+00 2.5815921749e-04 1.4334406520e+00 -2.4827920389e+00 1.4334406520e+00 2.4827920389e+00 
49800 5.1157331934e+00 2.5600207671e-04 1.4334316472e+00 -2.4827764420e+00 1.4334316472e+00 2.4827764420e+00 
49900 5.1157331480e+00 2.5387126299e-04 1.4334227175e+00 -2.4827609754e+00 1.4334227175e+00 2.4827609754e+00 
50000 5.1157331030e+00 2.5176637394e-04 1.4334138621e+00 -2.4827456374e+00 1.4334138621e+00 2.4827456374e+00 
50100 5.1157330585e+00 2.4968701381e-04 1.4334050800e+00 -2.4827304264e+00 1.4334050800e+00 2.4827304264e+00 
50200 5.1157330144e+00 2.4763279340e-04 1.4333963704e+00 -2.4827153410e+00 1.4333963704e+00 2.4827153410e+00 
50300 5.1157329707e+00 2.4560332989e-04 1.4333877325e+00 -2.4827003796e+00 1.4333877325e+00 2.4827003796e+00 
50400 5.1157329275e+00 2.4359824680e-04 1.4333791653e+00 -2.4826855407e+00 1.4333791653e+00 2.4826855407e+00 
50500 5.1157328847e+00 2.4161717383e-04 1.4333706679e+00 -2.4826708229e+00 1.4333706679e+00 2.4826708229e+00 
50600 5.1157328423e+00 2.3965974675e-04 1.4333622396e+00 -2.4826562247e+00 1.4333622396e+00 2.4826562247e+00 
50700 5.1157328003e+00 2.3772560734e-04 1.4333538796e+00 -2.4826417447e+00 1.4333538796e+00 2.4826417447e+00 
50800 5.1157327588e+00 2.3581440325e-04 1.4333455870e+00 -2.4826273814e+00 1.4333455870e+00 2.4826273814e+00 
50900 5.1157327176e+00 2.3392578790e-04 1.4333373610e+00 -2.4826131336e+00 1.4333373610e+00 2.4826131336e+00 
51000 5.1157326769e+00 2.3205942039e-04 1.4333292008e+00 -2.4825989997e+00 1.4333292008e+00 2.4825989997e+00 
51100 5.1157326366e+00 2.3021496543e-04 1.4333211057e+00 -2.4825849786e+00 1.4333211057e+00 2.4825849786e+00 
51200 5.1157325966e+00 2.2839209317e-04 1.4333130749e+00 -2.4825710688e+00 1.4333130749e+00 2.4825710688e+00 
51300 5.1157325571e+00 2.2659047919e-04 1.4333051076e+00 -2.4825572691e+00 1.4333051076e+00 2.4825572691e+00 
51400 5.1157325180e+00 2.2480980435e-04 1.4332972031e+00 -2.4825435782e+00 1.4332972031e+00 2.4825435782e+00 
51500 5.1157324792e+00 2.2304975473e-04 1.4332893607e+00 -2.4825299947e+00 1.4332893607e+00 2.4825299947e+00 
51600 5.1157324408e+00 2.2131002153e-04 1.4332815797e+00 -2.4825165176e+00 1.4332815797e+00 2.4825165176e+00 
51700 5.1157324028e+00 2.1959030098e-04 1.4332738593e+00 -2.4825031455e+00 1.4332738593e+00 2.4825031455e+00 
51800 5.1157323652e+00 2.1789029428e-04 1.4332661989e+00 -2.4824898772e+00 1.4332661989e+00 2.4824898772e+00 
51900 5.1157323280e+00 2.1620970745e-04 1.4332585977e+00 -2.4824767116e+00 1.4332585977e+00 2.4824767116e+00 
52000 5.1157322911e+00 2.1454825135e-04 1.4332510551e+00 -2.4824636475e+00 1.4332510551e+00 2.4824636475e+00 
52100 5.1157322546e+00 2.1290564150e-04 1.4332435704e+00 -2.4824506836e+00 1.4332435704e+00 2.4824506836e+00 
52200 5.1157322184e+00 2.1128159807e-04 1.4332361430e+00 -2.4824378190e+00 1.4332361430e+00 2.4824378190e+00 
52300 5.1157321827e+00 2.0967584576e-04 1.4332287723e+00 -2.4824250524e+00 1.4332287723e+00 2.4824250524e+00 
52400 5.1157321472e+00 2.0808811373e-04 1.4332214575e+00 -2.4824123828e+00 1.4332214575e+00 2.4824123828e+00 
52500 5.1157321122e+00 2.0651813557e-04 1.4332141980e+00 -2.4823998091e+00 1.4332141980e+00 2.4823998091e+00 
52600 5.1157320775e+00 2.0496564916e-04 1.4332069933e+00 -2.4823873302e+00 1.4332069933e+00 2.4823873302e+00 
52700 5.1157320431e+00 2.0343039664e-04 1.4331998427e+00 -2.4823749450e+00 1.4331998427e+00 2.4823749450e+00 
52800 5.1157320091e+00 2.0191212431e-04 1.4331927456e+00 -2.4823626525e+00 1.4331927456e+00 2.4823626525e+00 
52900 5.1157319754e+00 2.0041058261e-04 1.4331857015e+00 -2.4823504517e+00 1.4331857015e+00 2.4823504517e+00 
53000 5.1157319421e+00 1.9892552599e-04 1.4331787097e+00 -2.4823383416e+00 1.4331787097e+00 2.4823383416e+00 
53100 5.1157319090e+00 1.9745671289e-04 1.4331717697e+00 -2.4823263211e+00 1.4331717697e+00 2.4823263211e+00 
53200 5.1157318764e+00 1.9600390564e-04 1.4331648809e+00 -2.4823143894e+00 1.4331648809e+00 2.4823143894e+00 
53300 5.1157318440e+00 1.9456687042e-04 1.4331580428e+00 -2.4823025454e+00 1.4331580428e+00 2.4823025454e+00 
53400 5.1157318120e+00 1.9314537719e-04 1.4331512548e+00 -2.4822907882e+00 1.4331512548e+00 2.4822907882e+00 
53500 5.1157317803e+00 1.9173919961e-04 1.4331445163e+00 -2.4822791168e+00 1.4331445163e+00 2.4822791168e+00 
53600 5.1157317489e+00 1.9034811501e-04 1.4331378268e+00 -2.4822675303e+00 1.4331378268e+00 2.4822675303e+00 
53700 5.1157317179e+00 1.8897190430e-04 1.4331311859e+00 -2.4822560278e+00 1.4331311859e+00 2.4822560278e+00 
53800 5.1157316871e+00 1.8761035192e-04 1.4331245929e+00 -2.4822446085e+00 1.4331245929e+00 2.4822446085e+00 
53900 5.1157316567e+00 1.8626324580e-04 1.4331180474e+00 -2.4822332713e+00 1.4331180474e+00 2.4822332713e+00 
54000 5.1157316266e+00 1.8493037728e-04 1.4331115489e+00 -2.4822220156e+00 1.4331115489e+00 2.4822220156e+00 
54100 5.1157315967e+00 1.8361154104e-04 1.4331050968e+00 -2.4822108403e+00 1.4331050968e+00 2.4822108403e+00 
54200 5.1157315672e+00 1.8230653510e-04 1.4330986908e+00 -2.4821997446e+00 1.4330986908e+00 2.4821997446e+00 
54300 5.1157315380e+00 1.8101516071e-04 1.4330923302e+00 -2.4821887278e+00 1.4330923302e+00 2.4821887278e+00 
54400 5.1157315091e+00 1.7973722232e-04 1.4330860146e+00 -2.4821777890e+00 1.4330860146e+00 2.4821777890e+00 
54500 5.1157314804e+00 1.7847252752e-04 1.4330797437e+00 -2.4821669273e+00 1.4330797437e+00 2.4821669273e+00 
54600 5.1157314521e+00 1.7722088700e-04 1.4330735168e+00 -2.4821561421e+00 1.4330735168e+00 2.4821561421e+00 
54700 5.1157314240e+00 1.7598211449e-04 1.4330673335e+00 -2.4821454324e+00 1.4330673335e+00 2.4821454324e+00 
54800 5.1157313963e+00 1.7475602671e-04 1.4330611935e+00 -2.4821347975e+00 1.4330611935e+00 2.4821347975e+00 
54900 5.1157313688e+00 1.7354244333e-04 1.4330550962e+00 -2.4821242367e+00 1.4330550962e+00 2.4821242367e+00 
55000 5.1157313416e+00 1.7234118690e-04 1.4330490412e+00 -2.4821137491e+00 1.4330490412e+00 2.4821137491e+00 
55100 5.1157313147e+00 1.7115208284e-04 1.4330430281e+00 -2.4821033342e+00 1.4330430281e+00 2.4821033342e+00 
55200 5.1157312880e+00 1.6997495936e-04 1.4330370565e+00 -2.4820929910e+00 1.4330370565e+00 2.4820929910e+00 
55300 5.1157312616e+00 1.6880964740e-04 1.4330311259e+00 -2.4820827189e+00 1.4330311259e+00 2.4820827189e+00 
55400 5.1157312355e+00 1.6765598066e-04 1.4330252360e+00 -2.4820725173e+00 1.4330252360e+00 2.4820725173e+00 
55500 5.1157312097e+00 1.6651379546e-04 1.4330193863e+00 -2.4820623852e+00 1.4330193863e+00 2.4820623852e+00 
55600 5.1157311841e+00 1.6538293076e-04 1.4330135764e+00 -2.4820523222e+00 1.4330135764e+00 2.4820523222e+00 
55700 5.1157311588e+00 1.6426322812e-04 1.4330078059e+00 -2.4820423275e+00 1.4330078059e+00 2.4820423275e+00 
55800 5.1157311337e+00 1.6315453159e-04 1.4330020745e+00 -2.4820324004e+00 1.4330020745e+00 2.4820324004e+00 
55900 5.1157311089e+00 1.6205668775e-04 1.4329963818e+00 -2.4820225403e+00 1.4329963818e+00 2.4820225403e+00 
56000 5.1157310843e+00 1.6096954564e-04 1.4329907273e+00 -2.4820127464e+00 1.4329907273e+00 2.4820127464e+00 
56100 5.1157310600e+00 1.5989295669e-04 1.4329851107e+00 -2.4820030183e+00 1.4329851107e+00 2.4820030183e+00 
56200 5.1157310360e+00 1.5882677472e-04 1.4329795317e+00 -2.4819933552e+00 1.4329795317e+00 2.4819933552e+00 
56300 5.1157310122e+00 1.5777085588e-04 1.4329739899e+00 -2.4819837564e+00 1.4329739899e+00 2.4819837564e+00 
56400 5.1157309886e+00 1.5672505862e-04 1.4329684849e+00 -2.4819742215e+00 1.4329684849e+00 2.4819742215e+00 
56500 5.1157309653e+00 1.5568924367e-04 1.4329630163e+00 -2.4819647497e+00 1.4329630163e+00 2.4819647497e+00 
56600 5.1157309422e+00 1.5466327396e-04 1.4329575839e+00 -2.4819553404e+00 1.4329575839e+00 2.4819553404e+00 
56700 5.1157309194e+00 1.5364701461e-04 1.4329521873e+00 -2.4819459932e+00 1.4329521873e+00 2.4819459932e+00 
56800 5.1157308968e+00 1.5264033291e-04 1.4329468261e+00 -2.4819367073e+00 1.4329468261e+00 2.4819367073e+00 
56900 5.1157308744e+00 1.5164309825e-04 1.4329415000e+00 -2.4819274822e+00 1.4329415000e+00 2.4819274822e+00 
57000 5.1157308522e+00 1.5065518211e-04 1.4329362087e+00 -2.4819183174e+00 1.4329362087e+00 2.4819183174e+00 
57100 5.1157308303e+00 1.4967645802e-04 1.4329309518e+00 -2.4819092122e+00 1.4329309518e+00 2.4819092122e+00 
57200 5.1157308086e+00 1.4870680153e-04 1.4329257291e+00 -2.4819001662e+00 1.4329257291e+00 2.4819001662e+00 
57300 5.1157307871e+00 1.4774609016e-04 1.4329205401e+00 -2.4818911787e+00 1.4329205401e+00 2.4818911787e+00 
57400 5.1157307659e+00 1.4679420339e-04 1.4329153847e+00 -2.4818822493e+00 1.4329153847e+00 2.4818822493e+00 
57500 5.1157307449e+00 1.4585102263e-04 1.4329102625e+00 -2.4818733773e+00 1.4329102625e+00 2.4818733773e+00 
57600 5.1157307240e+00 1.4491643115e-04 1.4329051732e+00 -2.4818645624e+00 1.4329051732e+00 2.4818645624e+00 
57700 5.1157307034e+00 1.4399031410e-04 1.4329001164e+00 -2.4818558039e+00 1.4329001164e+00 2.4818558039e+00 
57800 5.1157306831e+00 1.4307255845e-04 1.4328950920e+00 -2.4818471013e+00 1.4328950920e+00 2.4818471013e+00 
57900 5.1157306629e+00 1.4216305296e-04 1.4328900996e+00 -2.4818384542e+00 1.4328900996e+00 2.4818384542e+00 
58000 5.1157306429e+00 1.4126168817e-04 1.4328851389e+00 -2.4818298620e+00 1.4328851389e+00 2.4818298620e+00 
58100 5.1157306231e+00 1.4036835636e-04 1.4328802096e+00 -2.4818213242e+00 1.4328802096e+00 2.4818213242e+00 
58200 5.1157306036e+00 1.3948295151e-04 1.4328753115e+00 -2.4818128404e+00 1.4328753115e+00 2.4818128404e+00 
58300 5.1157305842e+00 1.3860536928e-04 1.4328704443e+00 -2.4818044101e+00 1.4328704443e+00 2.4818044101e+00 
58400 5.1157305651e+00 1.3773550701e-04 1.4328656076e+00 -2.4817960328e+00 1.4328656076e+00 2.4817960328e+00 
58500 5.1157305461e+00 1.3687326363e-04 1.4328608013e+00 -2.4817877081e+00 1.4328608013e+00 2.4817877081e+00 
58600 5.1157305273e+00 1.3601853971e-04 1.4328560251e+00 -2.4817794354e+00 1.4328560251e+00 2.4817794354e+00 
58700 5.1157305088e+00 1.3517123738e-04 1.4328512787e+00 -2.4817712144e+00 1.4328512787e+00 2.4817712144e+00 
58800 5.1157304904e+00 1.3433126031e-04 1.4328465618e+00 -2.4817630446e+00 1.4328465618e+00 2.4817630446e+00 
58900 5.1157304722e+00 1.3349851372e-04 1.4328418743e+00 -2.4817549255e+00 1.4328418743e+00 2.4817549255e+00 
59000 5.1157304542e+00 1.3267290431e-04 1.4328372158e+00 -2.4817468567e+00 1.4328372158e+00 2.4817468567e+00 
59100 5.1157304364e+00 1.3185434026e-04 1.4328325860e+00 -2.4817388378e+00 1.4328325860e+00 2.4817388378e+00 
59200 5.1157304187e+00 1.3104273120e-04 1.4328279849e+00 -2.4817308683e+00 1.4328279849e+00 2.4817308683e+00 
59300 5.1157304013e+00 1.3023798820e-04 1.4328234120e+00 -2.4817229478e+00 1.4328234120e+00 2.4817229478e+00 
59400 5.1157303840e+00 1.2944002372e-04 1.4328188672e+00 -2.4817150760e+00 1.4328188672e+00 2.4817150760e+00 
59500 5.1157303669e+00 1.2864875161e-04 1.4328143502e+00 -2.4817072524e+00 1.4328143502e+00 2.4817072524e+00 
59600 5.1157303500e+00 1.2786408709e-04 1.4328098609e+00 -2.4816994766e+00 1.4328098609e+00 2.4816994766e+00 
59700 5.1157303333e+00 1.2708594668e-04 1.4328053989e+00 -2.4816917482e+00 1.4328053989e+00 2.4816917482e+00 
59800 5.1157303167e+00 1.2631424827e-04 1.4328009640e+00 -2.4816840668e+00 1.4328009640e+00 2.4816840668e+00 
59900 5.1157303003e+00 1.2554891099e-04 1.4327965560e+00 -2.4816764320e+00 1.4327965560e+00 2.4816764320e+00 
60000 5.1157302841e+00 1.2478985528e-04 1.4327921748e+00 -2.4816688434e+00 1.4327921748e+00 2.4816688434e+00 
60100 5.1157302680e+00 1.2403700282e-04 1.4327878200e+00 -2.4816613007e+00 1.4327878200e+00 2.4816613007e+00 
60200 5.1157302521e+00 1.2329027651e-04 1.4327834915e+00 -2.4816538035e+00 1.4327834915e+00 2.4816538035e+00 
60300 5.1157302364e+00 1.2254960048e-04 1.4327791890e+00 -2.4816463514e+00 1.4327791890e+00 2.4816463514e+00 
60400 5.1157302209e+00 1.2181490004e-04 1.4327749124e+00 -2.4816389441e+00 1.4327749124e+00 2.4816389441e+00 
60500 5.1157302055e+00 1.2108610168e-04 1.4327706614e+00 -2.4816315811e+00 1.4327706614e+00 2.4816315811e+00 
60600 5.1157301902e+00 1.2036313304e-04 1.4327664358e+00 -2.4816242622e+00 1.4327664358e+00 2.4816242622e+00 
60700 5.1157301751e+00 1.1964592288e-04 1.4327622354e+00 -2.4816169869e+00 1.4327622354e+00 2.4816169869e+00 
60800 5.1157301602e+00 1.1893440110e-04 1.4327580601e+00 -2.4816097550e+00 1.4327580601e+00 2.4816097550e+00 
60900 5.1157301454e+00 1.1822849868e-04 1.4327539095e+00 -2.4816025660e+00 1.4327539095e+00 2.4816025660e+00 
61000 5.1157301308e+00 1.1752814768e-04 1.4327497836e+00 -2.4815954197e+00 1.4327497836e+00 2.4815954197e+00 
61100 5.1157301164e+00 1.1683328123e-04 1.4327456821e+00 -2.4815883158e+00 1.4327456821e+00 2.4815883158e+00 
61200 5.1157301021e+00 1.1614383350e-04 1.4327416049e+00 -2.4815812537e+00 1.4327416049e+00 2.4815812537e+00 
61300 5.1157300879e+00 1.1545973969e-04 1.4327375517e+00 -2.4815742334e+00 1.4327375517e+00 2.4815742334e+00 
61400 5.1157300739e+00 1.1478093600e-04 1.4327335223e+00 -2.4815672544e+00 1.4327335223e+00 2.4815672544e+00 
61500 5.1157300600e+00 1.1410735963e-04 1.4327295167e+00 -2.4815603164e+00 1.4327295167e+00 2.4815603164e+00 
61600 5.1157300463e+00 1.1343894875e-04 1.4327255345e+00 -2.4815534191e+00 1.4327255345e+00 2.4815534191e+00 
61700 5.1157300327e+00 1.1277564251e-04 1.4327215757e+00 -2.4815465621e+00 1.4327215757e+00 2.4815465621e+00 
61800 5.1157300192e+00 1.1211738099e-04 1.4327176399e+00 -2.4815397453e+00 1.4327176399e+00 2.4815397453e+00 
61900 5.1157300059e+00 1.1146410520e-04 1.4327137272e+00 -2.4815329682e+00 1.4327137272e+00 2.4815329682e+00 
62000 5.1157299928e+00 1.1081575707e-04 1.4327098372e+00 -2.4815262306e+00 1.4327098372e+00 2.4815262306e+00 
62100 5.1157299797e+00 1.1017227942e-04 1.4327059699e+00 -2.4815195321e+00 1.4327059699e+00 2.4815195321e+00 
62200 5.1157299668e+00 1.0953361597e-04 1.4327021250e+00 -2.4815128726e+00 1.4327021250e+00 2.4815128726e+00 
62300 5.1157299541e+00 1.0889971130e-04 1.4326983024e+00 -2.4815062516e+00 1.4326983024e+00 2.4815062516e+00 
62400 5.1157299415e+00 1.0827051083e-04 1.4326945019e+00 -2.4814996689e+00 1.4326945019e+00 2.4814996689e+00 
62500 5.1157299290e+00 1.0764596086e-04 1.4326907233e+00 -2.4814931243e+00 1.4326907233e+00 2.4814931243e+00 
62600 5.1157299166e+00 1.0702600849e-04 1.4326869665e+00 -2.4814866173e+00 1.4326869665e+00 2.4814866173e+00 
62700 5.1157299044e+00 1.0641060163e-04 1.4326832314e+00 -2.4814801479e+00 1.4326832314e+00 2.4814801479e+00 
62800 5.1157298922e+00 1.0579968901e-04 1.4326795177e+00 -2.4814737156e+00 1.4326795177e+00 2.4814737156e+00 
62900 5.1157298803e+00 1.0519322012e-04 1.4326758253e+00 -2.4814673202e+00 1.4326758253e+00 2.4814673202e+00 
63000 5.1157298684e+00 1.0459114527e-04 1.4326721541e+00 -2.4814609615e+00 1.4326721541e+00 2.4814609615e+00 
63100 5.1157298567e+00 1.0399341547e-04 1.4326685039e+00 -2.4814546391e+00 1.4326685039e+00 2.4814546391e+00 
63200 5.1157298451e+00 1.0339998254e-04 1.4326648745e+00 -2.4814483529e+00 1.4326648745e+00 2.4814483529e+00 
63300 5.1157298336e+00 1.0281079899e-04 1.4326612659e+00 -2.4814421025e+00 1.4326612659e+00 2.4814421025e+00 
63400 5.1157298222e+00 1.0222581808e-04 1.4326576778e+00 -2.4814358878e+00 1.4326576778e+00 2.4814358878e+00 
63500 5.1157298109e+00 1.0164499378e-04 1.4326541101e+00 -2.4814297083e+00 1.4326541101e+00 2.4814297083e+00 
63600 5.1157297998e+00 1.0106828074e-04 1.4326505626e+00 -2.4814235640e+00 1.4326505626e+00 2.4814235640e+00 
63700 5.1157297888e+00 1.0049563432e-04 1.4326470353e+00 -2.4814174545e+00 1.4326470353e+00 2.4814174545e+00 
63800 5.1157297779e+00 9.9927010550e-05 1.4326435280e+00 -2.4814113796e+00 1.4326435280e+00 2.4814113796e+00 
63900 5.1157297671e+00 9.9362366132e-05 1.4326400405e+00 -2.4814053391e+00 1.4326400405e+00 2.4814053391e+00 
64000 5.1157297564e+00 9.8801658416e-05 1.4326365727e+00 -2.4813993327e+00 1.4326365727e+00 2.4813993327e+00 
64100 5.1157297459e+00 9.8244845396e-05 1.4326331244e+00 -2.4813933601e+00 1.4326331244e+00 2.4813933601e+00 
64200 5.1157297354e+00 9.7691885704e-05 1.4326296956e+00 -2.4813874212e+00 1.4326296956e+00 2.4813874212e+00 
64300 5.1157297250e+00 9.7142738593e-05 1.4326262861e+00 -2.4813815158e+00 1.4326262861e+00 2.4813815158e+00 
64400 5.1157297148e+00 9.6597363927e-05 1.4326228957e+00 -2.4813756435e+00 1.4326228957e+00 2.4813756435e+00 
64500 5.1157297047e+00 9.6055722175e-05 1.4326195244e+00 -2.4813698041e+00 1.4326195244e+00 2.4813698041e+00 
64600 5.1157296946e+00 9.5517774396e-05 1.4326161719e+00 -2.4813639975e+00 1.4326161719e+00 2.4813639975e+00 
64700 5.1157296847e+00 9.4983482235e-05 1.4326128382e+00 -2.4813582234e+00 1.4326128382e+00 2.4813582234e+00 
64800 5.1157296749e+00 9.4452807904e-05 1.4326095232e+00 -2.4813524816e+00 1.4326095232e+00 2.4813524816e+00 
64900 5.1157296652e+00 9.3925714185e-05 1.4326062267e+00 -2.4813467718e+00 1.4326062267e+00 2.4813467718e+00 
65000 5.1157296556e+00 9.3402164409e-05 1.4326029485e+00 -2.4813410939e+00 1.4326029485e+00 2.4813410939e+00 
65100 5.1157296461e+00 9.2882122454e-05 1.4325996886e+00 -2.4813354476e+00 1.4325996886e+00 2.4813354476e+00 
65200 5.1157296366e+00 9.2365552733e-05 1.4325964469e+00 -2.4813298328e+00 1.4325964469e+00 2.4813298328e+00 
65300 5.1157296273e+00 9.1852420184e-05 1.4325932232e+00 -2.4813242492e+00 1.4325932232e+00 2.4813242492e+00 
65400 5.1157296181e+00 9.1342690267e-05 1.4325900174e+00 -2.4813186965e+00 1.4325900174e+00 2.4813186965e+00 
65500 5.1157296090e+00 9.0836328945e-05 1.4325868294e+00 -2.4813131747e+00 1.4325868294e+00 2.4813131747e+00 
65600 5.1157296000e+00 9.0333302688e-05 1.4325836590e+00 -2.4813076835e+00 1.4325836590e+00 2.4813076835e+00 
65700 5.1157295910e+00 8.9833578455e-05 1.4325805062e+00 -2.4813022227e+00 1.4325805062e+00 2.4813022227e+00 
65800 5.1157295822e+00 8.9337123689e-05 1.4325773708e+00 -2.4812967921e+00 1.4325773708e+00 2.4812967921e+00 
65900 5.1157295734e+00 8.8843906310e-05 1.4325742528e+00 -2.4812913914e+00 1.4325742528e+00 2.4812913914e+00 
66000 5.1157295648e+00 8.8353894704e-05 1.4325711519e+00 -2.4812860206e+00 1.4325711519e+00 2.4812860206e+00 
66100 5.1157295562e+00 8.7867057722e-05 1.4325680682e+00 -2.4812806794e+00 1.4325680682e+00 2.4812806794e+00 
66200 5.1157295477e+00 8.7383364661e-05 1.4325650014e+00 -2.4812753676e+00 1.4325650014e+00 2.4812753676e+00 
66300 5.1157295394e+00 8.6902785269e-05 1.4325619515e+00 -2.4812700850e+00 1.4325619515e+00 2.4812700850e+00 
66400 5.1157295311e+00 8.6425289726e-05 1.4325589184e+00 -2.4812648315e+00 1.4325589184e+00 2.4812648315e+00 
66500 5.1157295228e+00 8.5950848646e-05 1.4325559019e+00 -2.4812596068e+00 1.4325559019e+00 2.4812596068e+00 
66600 5.1157295147e+00 8.5479433066e-05 1.4325529020e+00 -2.4812544108e+00 1.4325529020e+00 2.4812544108e+00 
66700 5.1157295067e+00 8.5011014436e-05 1.4325499186e+00 -2.4812492433e+00 1.4325499186e+00 2.4812492433e+00 
66800 5.1157294987e+00 8.4545564617e-05 1.4325469514e+00 -2.4812441041e+00 1.4325469514e+00 2.4812441041e+00 
66900 5.1157294908e+00 8.4083055873e-05 1.4325440006e+00 -2.4812389930e+00 1.4325440006e+00 2.4812389930e+00 
67000 5.1157294830e+00 8.3623460860e-05 1.4325410658e+00 -2.4812339099e+00 1.4325410658e+00 2.4812339099e+00 
67100 5.1157294753e+00 8.3166752625e-05 1.4325381471e+00 -2.4812288546e+00 1.4325381471e+00 2.4812288546e+00 
67200 5.1157294677e+00 8.2712904598e-05 1.4325352443e+00 -2.4812238268e+00 1.4325352443e+00 2.4812238268e+00 
67300 5.1157294602e+00 8.2261890582e-05 1.4325323574e+00 -2.4812188265e+00 1.4325323574e+00 2.4812188265e+00 
67400 5.1157294527e+00 8.1813684752e-05 1.4325294862e+00 -2.4812138534e+00 1.4325294862e+00 2.4812138534e+00 
67500 5.1157294453e+00 8.1368261646e-05 1.4325266306e+00 -2.4812089074e+00 1.4325266306e+00 2.4812089074e+00 
67600 5.1157294380e+00 8.0925596155e-05 1.4325237906e+00 -2.4812039883e+00 1.4325237906e+00 2.4812039883e+00 
67700 5.1157294307e+00 8.0485663528e-05 1.4325209660e+00 -2.4811990960e+00 1.4325209660e+00 2.4811990960e+00 
67800 5.1157294236e+00 8.0048439355e-05 1.4325181568e+00 -2.4811942303e+00 1.4325181568e+00 2.4811942303e+00 
67900 5.1157294165e+00 7.9613899566e-05 1.4325153628e+00 -2.4811893910e+00 1.4325153628e+00 2.4811893910e+00 
68000 5.1157294095e+00 7.9182020424e-05 1.4325125840e+00 -2.4811845779e+00 1.4325125840e+00 2.4811845779e+00 
68100 5.1157294025e+00 7.8752778523e-05 1.4325098202e+00 -2.4811797910e+00 1.4325098202e+00 2.4811797910e+00 
68200 5.1157293957e+00 7.8326150778e-05 1.4325070715e+00 -2.4811750300e+00 1.4325070715e+00 2.4811750300e+00 
68300 5.1157293889e+00 7.7902114419e-05 1.4325043376e+00 -2.4811702948e+00 1.4325043376e+00 2.4811702948e+00 
68400 5.1157293821e+00 7.7480646992e-05 1.4325016185e+00 -2.4811655852e+00 1.4325016185e+00 2.4811655852e+00 
68500 5.1157293755e+00 7.7061726349e-05 1.4324989141e+00 -2.4811609010e+00 1.4324989141e+00 2.4811609010e+00 
68600 5.1157293689e+00 7.6645330640e-05 1.4324962244e+00 -2.4811562422e+00 1.4324962244e+00 2.4811562422e+00 
68700 5.1157293624e+00 7.6231438315e-05 1.4324935491e+00 -2.4811516086e+00 1.4324935491e+00 2.4811516086e+00 
68800 5.1157293559e+00 7.5820028114e-05 1.4324908883e+00 -2.4811470000e+00 1.4324908883e+00 2.4811470000e+00 
68900 5.1157293496e+00 7.5411079065e-05 1.4324882419e+00 -2.4811424162e+00 1.4324882419e+00 2.4811424162e+00 
69000 5.1157293432e+00 7.5004570477e-05 1.4324856097e+00 -2.4811378571e+00 1.4324856097e+00 2.4811378571e+00 
69100 5.1157293370e+00 7.4600481935e-05 1.4324829917e+00 -2.4811333227e+00 1.4324829917e+00 2.4811333227e+00 
69200 5.1157293308e+00 7.4198793299e-05 1.4324803878e+00 -2.4811288126e+00 1.4324803878e+00 2.4811288126e+00 
69300 5.1157293247e+00 7.3799484694e-05 1.4324777980e+00 -2.4811243268e+00 1.4324777980e+00 2.4811243268e+00 
69400 5.1157293186e+00 7.3402536511e-05 1.4324752220e+00 -2.4811198651e+00 1.4324752220e+00 2.4811198651e+00 
69500 5.1157293127e+00 7.3007929396e-05 1.4324726599e+00 -2.4811154275e+00 1.4324726599e+00 2.4811154275e+00 
69600 5.1157293067e+00 7.2615644256e-05 1.4324701116e+00 -2.4811110137e+00 1.4324701116e+00 2.4811110137e+00 
69700 5.1157293009e+00 7.2225662244e-05 1.4324675770e+00 -2.4811066236e+00 1.4324675770e+00 2.4811066236e+00 
69800 5.1157292951e+00 7.1837964759e-05 1.4324650560e+00 -2.4811022570e+00 1.4324650560e+00 2.4811022570e+00 
69900 5.1157292893e+00 7.1452533443e-05 1.4324625485e+00 -2.4810979139e+00 1.4324625485e+00 2.4810979139e+00 
70000 5.1157292836e+00 7.1069350177e-05 1.4324600544e+00 -2.4810935941e+00 1.4324600544e+00 2.4810935941e+00 
70100 5.1157292780e+00 7.0688397075e-05 1.4324575738e+00 -2.4810892975e+00 1.4324575738e+00 2.4810892975e+00 
70200 5.1157292727e+00 7.1576992056e-05 1.4324575738e+00 -2.4810892975e+00 1.4324575738e+00 2.4810892975e+00 
70300 5.1157292672e+00 7.1180268657e-05 1.4324550754e+00 -2.4810849701e+00 1.4324550754e+00 2.4810849701e+00 
70400 5.1157292617e+00 7.0785818287e-05 1.4324525908e+00 -2.4810806667e+00 1.4324525908e+00 2.4810806667e+00 
70500 5.1157292563e+00 7.0393644795e-05 1.4324501200e+00 -2.4810763872e+00 1.4324501200e+00 2.4810763872e+00 
70600 5.1157292513e+00 7.1265702435e-05 1.4324501200e+00 -2.4810763872e+00 1.4324501200e+00 2.4810763872e+00 
70700 5.1157292460e+00 7.0857996763e-05 1.4324476325e+00 -2.4810720786e+00 1.4324476325e+00 2.4810720786e+00 
70800 5.1157292407e+00 7.0452663229e-05 1.4324451592e+00 -2.4810677947e+00 1.4324451592e+00 2.4810677947e+00 
70900 5.1157292358e+00 7.1312656216e-05 1.4324451592e+00 -2.4810677947e+00 1.4324451592e+00 2.4810677947e+00 
71000 5.1157292307e+00 7.0892013103e-05 1.4324426700e+00 -2.4810634833e+00 1.4324426700e+00 2.4810634833e+00 
71100 5.1157292256e+00 7.0473880144e-05 1.4324401955e+00 -2.4810591973e+00 1.4324401955e+00 2.4810591973e+00 
71200 5.1157292209e+00 7.1321530914e-05 1.4324401955e+00 -2.4810591973e+00 1.4324401955e+00 2.4810591973e+00 
71300 5.1157292159e+00 7.0888393517e-05 1.4324377059e+00 -2.4810548854e+00 1.4324377059e+00 2.4810548854e+00 
71400 5.1157292110e+00 7.0457934032e-05 1.4324352315e+00 -2.4810505996e+00 1.4324352315e+00 2.4810505996e+00 
71500 5.1157292064e+00 7.1293076852e-05 1.4324352315e+00 -2.4810505996e+00 1.4324352315e+00 2.4810505996e+00 
71600 5.1157292015e+00 7.0847977456e-05 1.4324327430e+00 -2.4810462893e+00 1.4324327430e+00 2.4810462893e+00 
71700 5.1157291968e+00 7.0405743374e-05 1.4324302700e+00 -2.4810420060e+00 1.4324302700e+00 2.4810420060e+00 
71800 5.1157291923e+00 7.1228298816e-05 1.4324302700e+00 -2.4810420060e+00 1.4324302700e+00 2.4810420060e+00 
71900 5.1157291876e+00 7.0771830710e-05 1.4324277838e+00 -2.4810376996e+00 1.4324277838e+00 2.4810376996e+00 
72000 5.1157291830e+00 7.0318427180e-05 1.4324253134e+00 -2.4810334209e+00 1.4324253134e+00 2.4810334209e+00 
72100 5.1157291787e+00 7.1128382033e-05 1.4324253134e+00 -2.4810334209e+00 1.4324253134e+00 2.4810334209e+00 
72200 5.1157291742e+00 7.0661177758e-05 1.4324228306e+00 -2.4810291205e+00 1.4324228306e+00 2.4810291205e+00 
72300 5.1157291699e+00 7.1463589149e-05 1.4324228306e+00 -2.4810291205e+00 1.4324228306e+00 2.4810291205e+00 
72400 5.1157291655e+00 7.0982818680e-05 1.4324203361e+00 -2.4810247999e+00 1.4324203361e+00 2.4810247999e+00 
72500 5.1157291611e+00 7.0505494756e-05 1.4324178584e+00 -2.4810205084e+00 1.4324178584e+00 2.4810205084e+00 
72600 5.1157291570e+00 7.1295158546e-05 1.4324178584e+00 -2.4810205084e+00 1.4324178584e+00 2.4810205084e+00 
72700 5.1157291527e+00 7.0804769153e-05 1.4324153698e+00 -2.4810161980e+00 1.4324153698e+00 2.4810161980e+00 
72800 5.1157291485e+00 7.0318049340e-05 1.4324128982e+00 -2.4810119172e+00 1.4324128982e+00 2.4810119172e+00 
72900 5.1157291445e+00 7.1095114046e-05 1.4324128982e+00 -2.4810119172e+00 1.4324128982e+00 2.4810119172e+00 
73000 5.1157291403e+00 7.0595822746e-05 1.4324104166e+00 -2.4810076188e+00 1.4324104166e+00 2.4810076188e+00 
73100 5.1157291365e+00 7.1365415129e-05 1.4324104166e+00 -2.4810076188e+00 1.4324104166e+00 2.4810076188e+00 
73200 5.1157291324e+00 7.0853812310e-05 1.4324079255e+00 -2.4810033041e+00 1.4324079255e+00 2.4810033041e+00 
73300 5.1157291283e+00 7.0346270242e-05 1.4324054523e+00 -2.4809990203e+00 1.4324054523e+00 2.4809990203e+00 
73400 5.1157291246e+00 7.1103304250e-05 1.4324054523e+00 -2.4809990203e+00 1.4324054523e+00 2.4809990203e+00 
73500 5.1157291206e+00 7.0583971927e-05 1.4324029703e+00 -2.4809947215e+00 1.4324029703e+00 2.4809947215e+00 
73600 5.1157291170e+00 7.1333597914e-05 1.4324029703e+00 -2.4809947215e+00 1.4324029703e+00 2.4809947215e+00 
73700 5.1157291131e+00 7.0802745568e-05 1.4324004803e+00 -2.4809904087e+00 1.4324004803e+00 2.4809904087e+00 
73800 5.1157291092e+00 7.0276344008e-05 1.4323980088e+00 -2.4809861280e+00 1.4323980088e+00 2.4809861280e+00 
73900 5.1157291057e+00 7.1013550748e-05 1.4323980088e+00 -2.4809861280e+00 1.4323980088e+00 2.4809861280e+00 
74000 5.1157291019e+00 7.0476156703e-05 1.4323955300e+00 -2.4809818345e+00 1.4323955300e+00 2.4809818345e+00 
74100 5.1157290984e+00 7.1206070064e-05 1.4323955300e+00 -2.4809818345e+00 1.4323955300e+00 2.4809818345e+00 
74200 5.1157290948e+00 7.0657953033e-05 1.4323930444e+00 -2.4809775294e+00 1.4323930444e+00 2.4809775294e+00 
74300 5.1157290914e+00 7.1380526852e-05 1.4323930444e+00 -2.4809775294e+00 1.4323930444e+00 2.4809775294e+00 
74400 5.1157290877e+00 7.0821973932e-05 1.4323905528e+00 -2.4809732137e+00 1.4323905528e+00 2.4809732137e+00 
74500 5.1157290842e+00 7.0268419771e-05 1.4323880806e+00 -2.4809689318e+00 1.4323880806e+00 2.4809689318e+00 
74600 5.1157290809e+00 7.0978738130e-05 1.4323880806e+00 -2.4809689318e+00 1.4323880806e+00 2.4809689318e+00 
74700 5.1157290774e+00 7.0415287847e-05 1.4323856030e+00 -2.4809646404e+00 1.4323856030e+00 2.4809646404e+00 
74800 5.1157290741e+00 7.1118455687e-05 1.4323856030e+00 -2.4809646404e+00 1.4323856030e+00 2.4809646404e+00 
74900 5.1157290707e+00 7.0545379682e-05 1.4323831205e+00 -2.4809603406e+00 1.4323831205e+00 2.4809603406e+00 
75000 5.1157290676e+00 7.1241371818e-05 1.4323831205e+00 -2.4809603406e+00 1.4323831205e+00 2.4809603406e+00 
75100 5.1157290642e+00 7.0658953526e-05 1.4323806337e+00 -2.4809560333e+00 1.4323806337e+00 2.4809560333e+00 
75200 5.1157290611e+00 7.1347760772e-05 1.4323806337e+00 -2.4809560333e+00 1.4323806337e+00 2.4809560333e+00 
75300 5.1157290578e+00 7.0756293356e-05 1.4323781431e+00 -2.4809517196e+00 1.4323781431e+00 2.4809517196e+00 
75400 5.1157290546e+00 7.0170507844e-05 1.4323756732e+00 -2.4809474416e+00 1.4323756732e+00 2.4809474416e+00 
75500 5.1157290516e+00 7.0847347765e-05 1.4323756732e+00 -2.4809474416e+00 1.4323756732e+00 2.4809474416e+00 
75600 5.1157290484e+00 7.0253050148e-05 1.4323732002e+00 -2.4809431581e+00 1.4323732002e+00 2.4809431581e+00 
75700 5.1157290454e+00 7.0922960576e-05 1.4323732002e+00 -2.4809431581e+00 1.4323732002e+00 2.4809431581e+00 
75800 5.1157290423e+00 7.0320413032e-05 1.4323707245e+00 -2.4809388700e+00 1.4323707245e+00 2.4809388700e+00 
75900 5.1157290394e+00 7.0983387345e-05 1.4323707245e+00 -2.4809388700e+00 1.4323707245e+00 2.4809388700e+00 
76000 5.1157290364e+00 7.0372861039e-05 1.4323682466e+00 -2.4809345783e+00 1.4323682466e+00 2.4809345783e+00 
76100 5.1157290336e+00 7.1028905066e-05 1.4323682466e+00 -2.4809345783e+00 1.4323682466e+00 2.4809345783e+00 
76200 5.1157290306e+00 7.0410677596e-05 1.4323657672e+00 -2.4809302838e+00 1.4323657672e+00 2.4809302838e+00 
76300 5.1157290278e+00 7.1059807609e-05 1.4323657672e+00 -2.4809302838e+00 1.4323657672e+00 2.4809302838e+00 
76400 5.1157290249e+00 7.0434160852e-05 1.4323632867e+00 -2.4809259875e+00 1.4323632867e+00 2.4809259875e+00 
76500 5.1157290222e+00 7.1076401850e-05 1.4323632867e+00 -2.4809259875e+00 1.4323632867e+00 2.4809259875e+00 
76600 5.1157290193e+00 7.0443620152e-05 1.4323608056e+00 -2.4809216901e+00 1.4323608056e+00 2.4809216901e+00 
76700 5.1157290167e+00 7.1079004417e-05 1.4323608056e+00 -2.4809216901e+00 1.4323608056e+00 2.4809216901e+00 
76800 5.1157290139e+00 7.0439373080e-05 1.4323583244e+00 -2.4809173926e+00 1.4323583244e+00 2.4809173926e+00 
76900 5.1157290113e+00 7.1067938936e-05 1.4323583244e+00 -2.4809173926e+00 1.4323583244e+00 2.4809173926e+00 
77000 5.1157290085e+00 7.0421742960e-05 1.4323558436e+00 -2.4809130957e+00 1.4323558436e+00 2.4809130957e+00 
77100 5.1157290060e+00 7.1043533731e-05 1.4323558436e+00 -2.4809130957e+00 1.4323558436e+00 2.4809130957e+00 
77200 5.1157290033e+00 7.0391056765e-05 1.4323533637e+00 -2.4809088003e+00 1.4323533637e+00 2.4809088003e+00 
77300 5.1157290008e+00 7.1006119885e-05 1.4323533637e+00 -2.4809088003e+00 1.4323533637e+00 2.4809088003e+00 
77400 5.1157289981e+00 7.0347643365e-05 1.4323508850e+00 -2.4809045071e+00 1.4323508850e+00 2.4809045071e+00 
77500 5.1157289957e+00 7.0956029631e-05 1.4323508850e+00 -2.4809045071e+00 1.4323508850e+00 2.4809045071e+00 
77600 5.1157289931e+00 7.0291832071e-05 1.4323484081e+00 -2.4809002170e+00 1.4323484081e+00 2.4809002170e+00 
77700 5.1157289908e+00 7.0893595007e-05 1.4323484081e+00 -2.4809002170e+00 1.4323484081e+00 2.4809002170e+00 
77800 5.1157289882e+00 7.0223951422e-05 1.4323459334e+00 -2.4808959307e+00 1.4323459334e+00 2.4808959307e+00 
77900 5.1157289859e+00 7.0819146749e-05 1.4323459334e+00 -2.4808959307e+00 1.4323459334e+00 2.4808959307e+00 
78000 5.1157289834e+00 7.0144328188e-05 1.4323434613e+00 -2.4808916488e+00 1.4323434613e+00 2.4808916488e+00 
78100 5.1157289811e+00 7.0733013371e-05 1.4323434613e+00 -2.4808916488e+00 1.4323434613e+00 2.4808916488e+00 
78200 5.1157289787e+00 7.0053286546e-05 1.4323409921e+00 -2.4808873721e+00 1.4323409921e+00 2.4808873721e+00 
78300 5.1157289765e+00 7.0635520418e-05 1.4323409921e+00 -2.4808873721e+00 1.4323409921e+00 2.4808873721e+00 
78400 5.1157289743e+00 7.1215879428e-05 1.4323409921e+00 -2.4808873721e+00 1.4323409921e+00 2.4808873721e+00 
78500 5.1157289719e+00 7.0519157400e-05 1.4323385061e+00 -2.4808830662e+00 1.4323385061e+00 2.4808830662e+00 
78600 5.1157289698e+00 7.1092911009e-05 1.4323385061e+00 -2.4808830662e+00 1.4323385061e+00 2.4808830662e+00 
78700 5.1157289674e+00 7.0391864447e-05 1.4323360244e+00 -2.4808787678e+00 1.4323360244e+00 2.4808787678e+00 
78800 5.1157289653e+00 7.0959112159e-05 1.4323360244e+00 -2.4808787678e+00 1.4323360244e+00 2.4808787678e+00 
78900 5.1157289630e+00 7.0254031019e-05 1.4323335474e+00 -2.4808744774e+00 1.4323335474e+00 2.4808744774e+00 
79000 5.1157289610e+00 7.0814867016e-05 1.4323335474e+00 -2.4808744774e+00 1.4323335474e+00 2.4808744774e+00 
79100 5.1157289587e+00 7.0106029398e-05 1.4323310754e+00 -2.4808701958e+00 1.4323310754e+00 2.4808701958e+00 
79200 5.1157289567e+00 7.0660543212e-05 1.4323310754e+00 -2.4808701958e+00 1.4323310754e+00 2.4808701958e+00 
79300 5.1157289548e+00 7.1213257550e-05 1.4323310754e+00 -2.4808701958e+00 1.4323310754e+00 2.4808701958e+00 
79400 5.1157289526e+00 7.0489157347e-05 1.4323285894e+00 -2.4808658901e+00 1.4323285894e+00 2.4808658901e+00 
79500 5.1157289506e+00 7.1035431943e-05 1.4323285894e+00 -2.4808658901e+00 1.4323285894e+00 2.4808658901e+00 
79600 5.1157289485e+00 7.0308161973e-05 1.4323261097e+00 -2.4808615951e+00 1.4323261097e+00 2.4808615951e+00 
79700 5.1157289466e+00 7.0848115651e-05 1.4323261097e+00 -2.4808615951e+00 1.4323261097e+00 2.4808615951e+00 
79800 5.1157289445e+00 7.0117959420e-05 1.4323236365e+00 -2.4808573114e+00 1.4323236365e+00 2.4808573114e+00 
79900 5.1157289426e+00 7.0651702271e-05 1.4323236365e+00 -2.4808573114e+00 1.4323236365e+00 2.4808573114e+00 
80000 5.1157289408e+00 7.1183708112e-05 1.4323236365e+00 -2.4808573114e+00 1.4323236365e+00 2.4808573114e+00 
80100 5.1157289388e+00 7.0439597468e-05 1.4323211516e+00 -2.4808530074e+00 1.4323211516e+00 2.4808530074e+00 
80200 5.1157289370e+00 7.0965299398e-05 1.4323211516e+00 -2.4808530074e+00 1.4323211516e+00 2.4808530074e+00 
80300 5.1157289350e+00 7.0218885645e-05 1.4323186744e+00 -2.4808487166e+00 1.4323186744e+00 2.4808487166e+00 
80400 5.1157289332e+00 7.0738415322e-05 1.4323186744e+00 -2.4808487166e+00 1.4323186744e+00 2.4808487166e+00 
80500 5.1157289312e+00 6.9989975428e-05 1.4323162050e+00 -2.4808444396e+00 1.4323162050e+00 2.4808444396e+00 
80600 5.1157289295e+00 7.0503453469e-05 1.4323162050e+00 -2.4808444396e+00 1.4323162050e+00 2.4808444396e+00 
80700 5.1157289278e+00 7.1015274952e-05 1.4323162050e+00 -2.4808444396e+00 1.4323162050e+00 2.4808444396e+00 
80800 5.1157289259e+00 7.0254175616e-05 1.4323137260e+00 -2.4808401457e+00 1.4323137260e+00 2.4808401457e+00 
80900 5.1157289243e+00 7.0759865056e-05 1.4323137260e+00 -2.4808401457e+00 1.4323137260e+00 2.4808401457e+00 
81000 5.1157289224e+00 6.9997297676e-05 1.4323112558e+00 -2.4808358674e+00 1.4323112558e+00 2.4808358674e+00 
81100 5.1157289208e+00 7.0496992838e-05 1.4323112558e+00 -2.4808358674e+00 1.4323112558e+00 2.4808358674e+00 
81200 5.1157289191e+00 7.0995065767e-05 1.4323112558e+00 -2.4808358674e+00 1.4323112558e+00 2.4808358674e+00 
81300 5.1157289173e+00 7.0220685170e-05 1.4323087775e+00 -2.4808315748e+00 1.4323087775e+00 2.4808315748e+00 
81400 5.1157289157e+00 7.0712703978e-05 1.4323087775e+00 -2.4808315748e+00 1.4323087775e+00 2.4808315748e+00 
81500 5.1157289140e+00 6.9937419704e-05 1.4323063090e+00 -2.4808272992e+00 1.4323063090e+00 2.4808272992e+00 
81600 5.1157289124e+00 7.0423533030e-05 1.4323063090e+00 -2.4808272992e+00 1.4323063090e+00 2.4808272992e+00 
81700 5.1157289109e+00 7.0908070832e-05 1.4323063090e+00 -2.4808272992e+00 1.4323063090e+00 2.4808272992e+00 
81800 5.1157289092e+00 7.0121826788e-05 1.4323038337e+00 -2.4808230118e+00 1.4323038337e+00 2.4808230118e+00 
81900 5.1157289077e+00 7.0600412349e-05 1.4323038337e+00 -2.4808230118e+00 1.4323038337e+00 2.4808230118e+00 
82000 5.1157289062e+00 7.1077410520e-05 1.4323038337e+00 -2.4808230118e+00 1.4323038337e+00 2.4808230118e+00 
82100 5.1157289045e+00 7.0280628144e-05 1.4323013525e+00 -2.4808187142e+00 1.4323013525e+00 2.4808187142e+00 
82200 5.1157289031e+00 7.0751656694e-05 1.4323013525e+00 -2.4808187142e+00 1.4323013525e+00 2.4808187142e+00 
82300 5.1157289014e+00 6.9954841096e-05 1.4322988826e+00 -2.4808144363e+00 1.4322988826e+00 2.4808144363e+00 
82400 5.1157289000e+00 7.0420071525e-05 1.4322988826e+00 -2.4808144363e+00 1.4322988826e+00 2.4808144363e+00 
82500 5.1157288986e+00 7.0883787746e-05 1.4322988826e+00 -2.4808144363e+00 1.4322988826e+00 2.4808144363e+00 
82600 5.1157288970e+00 7.0077324096e-05 1.4322964081e+00 -2.4808101504e+00 1.4322964081e+00 2.4808101504e+00 
82700 5.1157288956e+00 7.0535222667e-05 1.4322964081e+00 -2.4808101504e+00 1.4322964081e+00 2.4808101504e+00 
82800 5.1157288943e+00 7.0991605790e-05 1.4322964081e+00 -2.4808101504e+00 1.4322964081e+00 2.4808101504e+00 
82900 5.1157288927e+00 7.0175919244e-05 1.4322939299e+00 -2.4808058580e+00 1.4322939299e+00 2.4808058580e+00 
83000 5.1157288914e+00 7.0626487983e-05 1.4322939299e+00 -2.4808058580e+00 1.4322939299e+00 2.4808058580e+00 
83100 5.1157288901e+00 7.1075549579e-05 1.4322939299e+00 -2.4808058580e+00 1.4322939299e+00 2.4808058580e+00 
83200 5.1157288886e+00 7.0251087077e-05 1.4322914487e+00 -2.4808015604e+00 1.4322914487e+00 2.4808015604e+00 
83300 5.1157288873e+00 7.0694355183e-05 1.4322914487e+00 -2.4808015604e+00 1.4322914487e+00 2.4808015604e+00 
83400 5.1157288860e+00 7.1136131712e-05 1.4322914487e+00 -2.4808015604e+00 1.4322914487e+00 2.4808015604e+00 
83500 5.1157288845e+00 7.0303353776e-05 1.4322889654e+00 -2.4807972592e+00 1.4322889654e+00 2.4807972592e+00 
83600 5.1157288833e+00 7.0739371259e-05 1.4322889654e+00 -2.4807972592e+00 1.4322889654e+00 2.4807972592e+00 
83700 5.1157288818e+00 6.9908051375e-05 1.4322864960e+00 -2.4807929820e+00 1.4322864960e+00 2.4807929820e+00 
83800 5.1157288806e+00 7.0338508845e-05 1.4322864960e+00 -2.4807929820e+00 1.4322864960e+00 2.4807929820e+00 
83900 5.1157288794e+00 7.0767578964e-05 1.4322864960e+00 -2.4807929820e+00 1.4322864960e+00 2.4807929820e+00 
84000 5.1157288780e+00 6.9928847751e-05 1.4322840255e+00 -2.4807887031e+00 1.4322840255e+00 2.4807887031e+00 
84100 5.1157288768e+00 7.0352370911e-05 1.4322840255e+00 -2.4807887031e+00 1.4322840255e+00 2.4807887031e+00 
84200 5.1157288757e+00 7.0774517537e-05 1.4322840255e+00 -2.4807887031e+00 1.4322840255e+00 2.4807887031e+00 
84300 5.1157288743e+00 6.9928785965e-05 1.4322815548e+00 -2.4807844237e+00 1.4322815548e+00 2.4807844237e+00 
84400 5.1157288732e+00 7.0345413185e-05 1.4322815548e+00 -2.4807844237e+00 1.4322815548e+00 2.4807844237e+00 
84500 5.1157288721e+00 7.0760680627e-05 1.4322815548e+00 -2.4807844237e+00 1.4322815548e+00 2.4807844237e+00 
84600 5.1157288707e+00 6.9908369516e-05 1.4322790846e+00 -2.4807801452e+00 1.4322790846e+00 2.4807801452e+00 
84700 5.1157288696e+00 7.0318156245e-05 1.4322790846e+00 -2.4807801452e+00 1.4322790846e+00 2.4807801452e+00 
84800 5.1157288685e+00 7.0726604413e-05 1.4322790846e+00 -2.4807801452e+00 1.4322790846e+00 2.4807801452e+00 
84900 5.1157288672e+00 6.9868139213e-05 1.4322766156e+00 -2.4807758687e+00 1.4322766156e+00 2.4807758687e+00 
85000 5.1157288662e+00 7.0271153857e-05 1.4322766156e+00 -2.4807758687e+00 1.4322766156e+00 2.4807758687e+00 
85100 5.1157288651e+00 7.0672854455e-05 1.4322766156e+00 -2.4807758687e+00 1.4322766156e+00 2.4807758687e+00 
85200 5.1157288641e+00 7.1073169580e-05 1.4322766156e+00 -2.4807758687e+00 1.4322766156e+00 2.4807758687e+00 
85300 5.1157288628e+00 7.0200376063e-05 1.4322741345e+00 -2.4807715713e+00 1.4322741345e+00 2.4807715713e+00 
85400 5.1157288618e+00 7.0595173583e-05 1.4322741345e+00 -2.4807715713e+00 1.4322741345e+00 2.4807715713e+00 
85500 5.1157288608e+00 7.0988632406e-05 1.4322741345e+00 -2.4807715713e+00 1.4322741345e+00 2.4807715713e+00 
85600 5.1157288596e+00 7.0110572636e-05 1.4322716563e+00 -2.4807672790e+00 1.4322716563e+00 2.4807672790e+00 
85700 5.1157288586e+00 7.0498607827e-05 1.4322716563e+00 -2.4807672790e+00 1.4322716563e+00 2.4807672790e+00 
85800 5.1157288576e+00 7.0885348386e-05 1.4322716563e+00 -2.4807672790e+00 1.4322716563e+00 2.4807672790e+00 
85900 5.1157288564e+00 7.0002492571e-05 1.4322691817e+00 -2.4807629929e+00 1.4322691817e+00 2.4807629929e+00 
86000 5.1157288555e+00 7.0383899176e-05 1.4322691817e+00 -2.4807629929e+00 1.4322691817e+00 2.4807629929e+00 
86100 5.1157288545e+00 7.0764052873e-05 1.4322691817e+00 -2.4807629929e+00 1.4322691817e+00 2.4807629929e+00 
86200 5.1157288533e+00 6.9876851761e-05 1.4322667114e+00 -2.4807587141e+00 1.4322667114e+00 2.4807587141e+00 
86300 5.1157288524e+00 7.0251757525e-05 1.4322667114e+00 -2.4807587141e+00 1.4322667114e+00 2.4807587141e+00 
86400 5.1157288515e+00 7.0625450066e-05 1.4322667114e+00 -2.4807587141e+00 1.4322667114e+00 2.4807587141e+00 
86500 5.1157288506e+00 7.0997862054e-05 1.4322667114e+00 -2.4807587141e+00 1.4322667114e+00 2.4807587141e+00 
86600 5.1157288495e+00 7.0098755800e-05 1.4322642329e+00 -2.4807544212e+00 1.4322642329e+00 2.4807544212e+00 
86700 5.1157288486e+00 7.0465873099e-05 1.4322642329e+00 -2.4807544212e+00 1.4322642329e+00 2.4807544212e+00 
86800 5.1157288477e+00 7.0831766434e-05 1.4322642329e+00 -2.4807544212e+00 1.4322642329e+00 2.4807544212e+00 
86900 5.1157288466e+00 6.9929196690e-05 1.4322617602e+00 -2.4807501383e+00 1.4322617602e+00 2.4807501383e+00 
87000 5.1157288458e+00 7.0289908999e-05 1.4322617602e+00 -2.4807501383e+00 1.4322617602e+00 2.4807501383e+00 
87100 5.1157288449e+00 7.0649448229e-05 1.4322617602e+00 -2.4807501383e+00 1.4322617602e+00 2.4807501383e+00 
87200 5.1157288441e+00 7.1007750062e-05 1.4322617602e+00 -2.4807501383e+00 1.4322617602e+00 2.4807501383e+00 
87300 5.1157288430e+00 7.0094471253e-05 1.4322592813e+00 -2.4807458448e+00 1.4322592813e+00 2.4807458448e+00 
87400 5.1157288422e+00 7.0447572132e-05 1.4322592813e+00 -2.4807458448e+00 1.4322592813e+00 2.4807458448e+00 
87500 5.1157288414e+00 7.0799499723e-05 1.4322592813e+00 -2.4807458448e+00 1.4322592813e+00 2.4807458448e+00 
87600 5.1157288404e+00 6.9883661278e-05 1.4322568097e+00 -2.4807415639e+00 1.4322568097e+00 2.4807415639e+00 
87700 5.1157288396e+00 7.0230516089e-05 1.4322568097e+00 -2.4807415639e+00 1.4322568097e+00 2.4807415639e+00 
87800 5.1157288388e+00 7.0576253938e-05 1.4322568097e+00 -2.4807415639e+00 1.4322568097e+00 2.4807415639e+00 
87900 5.1157288381e+00 7.0920812004e-05 1.4322568097e+00 -2.4807415639e+00 1.4322568097e+00 2.4807415639e+00 
88000 5.1157288370e+00 6.9995469122e-05 1.4322543338e+00 -2.4807372756e+00 1.4322543338e+00 2.4807372756e+00 
88100 5.1157288363e+00 7.0334948307e-05 1.4322543338e+00 -2.4807372756e+00 1.4322543338e+00 2.4807372756e+00 
88200 5.1157288355e+00 7.0673315167e-05 1.4322543338e+00 -2.4807372756e+00 1.4322543338e+00 2.4807372756e+00 
88300 5.1157288348e+00 7.1010509851e-05 1.4322543338e+00 -2.4807372756e+00 1.4322543338e+00 2.4807372756e+00 
88400 5.1157288338e+00 7.0076246264e-05 1.4322518549e+00 -2.4807329819e+00 1.4322518549e+00 2.4807329819e+00 
88500 5.1157288331e+00 7.0408381867e-05 1.4322518549e+00 -2.4807329819e+00 1.4322518549e+00 2.4807329819e+00 
88600 5.1157288324e+00 7.0739420513e-05 1.4322518549e+00 -2.4807329819e+00 1.4322518549e+00 2.4807329819e+00 
88700 5.1157288315e+00 6.9803947322e-05 1.4322493854e+00 -2.4807287045e+00 1.4322493854e+00 2.4807287045e+00 
88800 5.1157288308e+00 7.0130076506e-05 1.4322493854e+00 -2.4807287045e+00 1.4322493854e+00 2.4807287045e+00 
88900 5.1157288301e+00 7.0455173086e-05 1.4322493854e+00 -2.4807287045e+00 1.4322493854e+00 2.4807287045e+00 
89000 5.1157288294e+00 7.0779176458e-05 1.4322493854e+00 -2.4807287045e+00 1.4322493854e+00 2.4807287045e+00 
89100 5.1157288285e+00 6.9835998666e-05 1.4322469144e+00 -2.4807244248e+00 1.4322469144e+00 2.4807244248e+00 
89200 5.1157288278e+00 7.0155106908e-05 1.4322469144e+00 -2.4807244248e+00 1.4322469144e+00 2.4807244248e+00 
89300 5.1157288271e+00 7.0473194322e-05 1.4322469144e+00 -2.4807244248e+00 1.4322469144e+00 2.4807244248e+00 
89400 5.1157288265e+00 7.0790202494e-05 1.4322469144e+00 -2.4807244248e+00 1.4322469144e+00 2.4807244248e+00 
89500 5.1157288256e+00 6.9839882532e-05 1.4322444431e+00 -2.4807201444e+00 1.4322444431e+00 2.4807201444e+00 
89600 5.1157288249e+00 7.0152028835e-05 1.4322444431e+00 -2.4807201444e+00 1.4322444431e+00 2.4807201444e+00 
89700 5.1157288243e+00 7.0463173799e-05 1.4322444431e+00 -2.4807201444e+00 1.4322444431e+00 2.4807201444e+00 
89800 5.1157288237e+00 7.0773260524e-05 1.4322444431e+00 -2.4807201444e+00 1.4322444431e+00 2.4807201444e+00 
89900 5.1157288228e+00 6.9816377927e-05 1.4322419724e+00 -2.4807158650e+00 1.4322419724e+00 2.4807158650e+00 
90000 5.1157288222e+00 7.0121649303e-05 1.4322419724e+00 -2.4807158650e+00 1.4322419724e+00 2.4807158650e+00 
90100 5.1157288216e+00 7.0425944048e-05 1.4322419724e+00 -2.4807158650e+00 1.4322419724e+00 2.4807158650e+00 
90200 5.1157288210e+00 7.0729206287e-05 1.4322419724e+00 -2.4807158650e+00 1.4322419724e+00 2.4807158650e+00 
90300 5.1157288202e+00 6.9766346349e-05 1.4322395033e+00 -2.4807115882e+00 1.4322395033e+00 2.4807115882e+00 
90400 5.1157288196e+00 7.0064848902e-05 1.4322395033e+00 -2.4807115882e+00 1.4322395033e+00 2.4807115882e+00 
90500 5.1157288190e+00 7.0362402943e-05 1.4322395033e+00 -2.4807115882e+00 1.4322395033e+00 2.4807115882e+00 
90600 5.1157288184e+00 7.0658953283e-05 1.4322395033e+00 -2.4807115882e+00 1.4322395033e+00 2.4807115882e+00 
90700 5.1157288179e+00 7.0954449902e-05 1.4322395033e+00 -2.4807115882e+00 1.4322395033e+00 2.4807115882e+00 
90800 5.1157288171e+00 6.9979820844e-05 1.4322370262e+00 -2.4807072979e+00 1.4322370262e+00 2.4807072979e+00 
90900 5.1157288165e+00 7.0270522801e-05 1.4322370262e+00 -2.4807072979e+00 1.4322370262e+00 2.4807072979e+00 
91000 5.1157288160e+00 7.0560270584e-05 1.4322370262e+00 -2.4807072979e+00 1.4322370262e+00 2.4807072979e+00 
91100 5.1157288154e+00 7.0849013100e-05 1.4322370262e+00 -2.4807072979e+00 1.4322370262e+00 2.4807072979e+00 
91200 5.1157288146e+00 6.9869593805e-05 1.4322345528e+00 -2.4807030139e+00 1.4322345528e+00 2.4807030139e+00 
91300 5.1157288141e+00 7.0153639301e-05 1.4322345528e+00 -2.4807030139e+00 1.4322345528e+00 2.4807030139e+00 
91400 5.1157288136e+00 7.0436775879e-05 1.4322345528e+00 -2.4807030139e+00 1.4322345528e+00 2.4807030139e+00 
91500 5.1157288131e+00 7.0718951618e-05 1.4322345528e+00 -2.4807030139e+00 1.4322345528e+00 2.4807030139e+00 
91600 5.1157288123e+00 6.9735365144e-05 1.4322320840e+00 -2.4806987377e+00 1.4322320840e+00 2.4806987377e+00 
91700 5.1157288118e+00 7.0012935028e-05 1.4322320840e+00 -2.4806987377e+00 1.4322320840e+00 2.4806987377e+00 
91800 5.1157288113e+00 7.0289637796e-05 1.4322320840e+00 -2.4806987377e+00 1.4322320840e+00 2.4806987377e+00 
91900 5.1157288108e+00 7.0565420895e-05 1.4322320840e+00 -2.4806987377e+00 1.4322320840e+00 2.4806987377e+00 
92000 5.1157288103e+00 7.0840236674e-05 1.4322320840e+00 -2.4806987377e+00 1.4322320840e+00 2.4806987377e+00 
92100 5.1157288096e+00 6.9847156247e-05 1.4322296109e+00 -2.4806944543e+00 1.4322296109e+00 2.4806944543e+00 
92200 5.1157288091e+00 7.0117360162e-05 1.4322296109e+00 -2.4806944543e+00 1.4322296109e+00 2.4806944543e+00 
92300 5.1157288086e+00 7.0386701668e-05 1.4322296109e+00 -2.4806944543e+00 1.4322296109e+00 2.4806944543e+00 
92400 5.1157288081e+00 7.0655131195e-05 1.4322296109e+00 -2.4806944543e+00 1.4322296109e+00 2.4806944543e+00 
92500 5.1157288077e+00 7.0922603819e-05 1.4322296109e+00 -2.4806944543e+00 1.4322296109e+00 2.4806944543e+00 
92600 5.1157288070e+00 6.9920756613e-05 1.4322271350e+00 -2.4806901658e+00 1.4322271350e+00 2.4806901658e+00 
92700 5.1157288065e+00 7.0183642403e-05 1.4322271350e+00 -2.4806901658e+00 1.4322271350e+00 2.4806901658e+00 
92800 5.1157288061e+00 7.0445683313e-05 1.4322271350e+00 -2.4806901658e+00 1.4322271350e+00 2.4806901658e+00 
92900 5.1157288056e+00 7.0706831644e-05 1.4322271350e+00 -2.4806901658e+00 1.4322271350e+00 2.4806901658e+00 
93000 5.1157288052e+00 7.0967044175e-05 1.4322271350e+00 -2.4806901658e+00 1.4322271350e+00 2.4806901658e+00 
93100 5.1157288045e+00 6.9957200137e-05 1.4322246575e+00 -2.4806858746e+00 1.4322246575e+00 2.4806858746e+00 
93200 5.1157288041e+00 7.0212870839e-05 1.4322246575e+00 -2.4806858746e+00 1.4322246575e+00 2.4806858746e+00 
93300 5.1157288036e+00 7.0467722130e-05 1.4322246575e+00 -2.4806858746e+00 1.4322246575e+00 2.4806858746e+00 
93400 5.1157288032e+00 7.0721707450e-05 1.4322246575e+00 -2.4806858746e+00 1.4322246575e+00 2.4806858746e+00 
93500 5.1157288026e+00 6.9710116479e-05 1.4322221885e+00 -2.4806815983e+00 1.4322221885e+00 2.4806815983e+00 
93600 5.1157288022e+00 6.9959699324e-05 1.4322221885e+00 -2.4806815983e+00 1.4322221885e+00 2.4806815983e+00 
93700 5.1157288017e+00 7.0208523168e-05 1.4322221885e+00 -2.4806815983e+00 1.4322221885e+00 2.4806815983e+00 
93800 5.1157288013e+00 7.0456539031e-05 1.4322221885e+00 -2.4806815983e+00 1.4322221885e+00 2.4806815983e+00 
93900 5.1157288009e+00 7.0703702474e-05 1.4322221885e+00 -2.4806815983e+00 1.4322221885e+00 2.4806815983e+00 
94000 5.1157288005e+00 7.0949973243e-05 1.4322221885e+00 -2.4806815983e+00 1.4322221885e+00 2.4806815983e+00 
94100 5.1157287999e+00 6.9926605899e-05 1.4322197116e+00 -2.4806773081e+00 1.4322197116e+00 2.4806773081e+00 
94200 5.1157287995e+00 7.0168429358e-05 1.4322197116e+00 -2.4806773081e+00 1.4322197116e+00 2.4806773081e+00 
94300 5.1157287991e+00 7.0409483841e-05 1.4322197116e+00 -2.4806773081e+00 1.4322197116e+00 2.4806773081e+00 
94400 5.1157287988e+00 7.0649724794e-05 1.4322197116e+00 -2.4806773081e+00 1.4322197116e+00 2.4806773081e+00 
94500 5.1157287984e+00 7.0889111835e-05 1.4322197116e+00 -2.4806773081e+00 1.4322197116e+00 2.4806773081e+00 
94600 5.1157287978e+00 6.9860019718e-05 1.4322172368e+00 -2.4806730217e+00 1.4322172368e+00 2.4806730217e+00 
94700 5.1157287974e+00 7.0095038648e-05 1.4322172368e+00 -2.4806730217e+00 1.4322172368e+00 2.4806730217e+00 
94800 5.1157287971e+00 7.0329326726e-05 1.4322172368e+00 -2.4806730217e+00 1.4322172368e+00 2.4806730217e+00 
94900 5.1157287967e+00 7.0562839244e-05 1.4322172368e+00 -2.4806730217e+00 1.4322172368e+00 2.4806730217e+00 
95000 5.1157287963e+00 7.0795535657e-05 1.4322172368e+00 -2.4806730217e+00 1.4322172368e+00 2.4806730217e+00 
95100 5.1157287957e+00 6.9761494780e-05 1.4322147653e+00 -2.4806687408e+00 1.4322147653e+00 2.4806687408e+00 
95200 5.1157287954e+00 6.9989901478e-05 1.4322147653e+00 -2.4806687408e+00 1.4322147653e+00 2.4806687408e+00 
95300 5.1157287951e+00 7.0217614319e-05 1.4322147653e+00 -2.4806687408e+00 1.4322147653e+00 2.4806687408e+00 
95400 5.1157287947e+00 7.0444588434e-05 1.4322147653e+00 -2.4806687408e+00 1.4322147653e+00 2.4806687408e+00 
95500 5.1157287944e+00 7.0670783112e-05 1.4322147653e+00 -2.4806687408e+00 1.4322147653e+00 2.4806687408e+00 
95600 5.1157287941e+00 7.0896161475e-05 1.4322147653e+00 -2.4806687408e+00 1.4322147653e+00 2.4806687408e+00 
95700 5.1157287935e+00 6.9853043418e-05 1.4322122902e+00 -2.4806644539e+00 1.4322122902e+00 2.4806644539e+00 
95800 5.1157287932e+00 7.0074137713e-05 1.4322122902e+00 -2.4806644539e+00 1.4322122902e+00 2.4806644539e+00 
95900 5.1157287928e+00 7.0294547518e-05 1.4322122902e+00 -2.4806644539e+00 1.4322122902e+00 2.4806644539e+00 
96000 5.1157287925e+00 7.0514230515e-05 1.4322122902e+00 -2.4806644539e+00 1.4322122902e+00 2.4806644539e+00 
96100 5.1157287922e+00 7.0733148323e-05 1.4322122902e+00 -2.4806644539e+00 1.4322122902e+00 2.4806644539e+00 
96200 5.1157287917e+00 6.9686562927e-05 1.4322098209e+00 -2.4806601768e+00 1.4322098209e+00 2.4806601768e+00 
96300 5.1157287913e+00 6.9901300593e-05 1.4322098209e+00 -2.4806601768e+00 1.4322098209e+00 2.4806601768e+00 
96400 5.1157287910e+00 7.0115400435e-05 1.4322098209e+00 -2.4806601768e+00 1.4322098209e+00 2.4806601768e+00 
96500 5.1157287907e+00 7.0328819022e-05 1.4322098209e+00 -2.4806601768e+00 1.4322098209e+00 2.4806601768e+00 
96600 5.1157287904e+00 7.0541516930e-05 1.4322098209e+00 -2.4806601768e+00 1.4322098209e+00 2.4806601768e+00 
96700 5.1157287901e+00 7.0753458431e-05 1.4322098209e+00 -2.4806601768e+00 1.4322098209e+00 2.4806601768e+00 
96800 5.1157287896e+00 6.9699579207e-05 1.4322073508e+00 -2.4806558985e+00 1.4322073508e+00 2.4806558985e+00 
96900 5.1157287893e+00 6.9907364378e-05 1.4322073508e+00 -2.4806558985e+00 1.4322073508e+00 2.4806558985e+00 
97000 5.1157287890e+00 7.0114527250e-05 1.4322073508e+00 -2.4806558985e+00 1.4322073508e+00 2.4806558985e+00 
97100 5.1157287888e+00 7.0321026235e-05 1.4322073508e+00 -2.4806558985e+00 1.4322073508e+00 2.4806558985e+00 
97200 5.1157287885e+00 7.0526823592e-05 1.4322073508e+00 -2.4806558985e+00 1.4322073508e+00 2.4806558985e+00 
97300 5.1157287882e+00 7.0731885124e-05 1.4322073508e+00 -2.4806558985e+00 1.4322073508e+00 2.4806558985e+00 
97400 5.1157287877e+00 6.9671566708e-05 1.4322048815e+00 -2.4806516215e+00 1.4322048815e+00 2.4806516215e+00 
97500 5.1157287874e+00 6.9872517810e-05 1.4322048815e+00 -2.4806516215e+00 1.4322048815e+00 2.4806516215e+00 
97600 5.1157287872e+00 7.0072870932e-05 1.4322048815e+00 -2.4806516215e+00 1.4322048815e+00 2.4806516215e+00 
97700 5.1157287869e+00 7.0272585531e-05 1.4322048815e+00 -2.4806516215e+00 1.4322048815e+00 2.4806516215e+00 
97800 5.1157287866e+00 7.0471624807e-05 1.4322048815e+00 -2.4806516215e+00 1.4322048815e+00 2.4806516215e+00 
97900 5.1157287864e+00 7.0669955411e-05 1.4322048815e+00 -2.4806516215e+00 1.4322048815e+00 2.4806516215e+00 
98000 5.1157287861e+00 7.0867547175e-05 1.4322048815e+00 -2.4806516215e+00 1.4322048815e+00 2.4806516215e+00 
98100 5.1157287856e+00 6.9797372148e-05 1.4322024074e+00 -2.4806473363e+00 1.4322024074e+00 2.4806473363e+00 
98200 5.1157287854e+00 6.9990853224e-05 1.4322024074e+00 -2.4806473363e+00 1.4322024074e+00 2.4806473363e+00 
98300 5.1157287851e+00 7.0183743911e-05 1.4322024074e+00 -2.4806473363e+00 1.4322024074e+00 2.4806473363e+00 
98400 5.1157287849e+00 7.0376006461e-05 1.4322024074e+00 -2.4806473363e+00 1.4322024074e+00 2.4806473363e+00 
98500 5.1157287846e+00 7.0567606630e-05 1.4322024074e+00 -2.4806473363e+00 1.4322024074e+00 2.4806473363e+00 
98600 5.1157287844e+00 7.0758513404e-05 1.4322024074e+00 -2.4806473363e+00 1.4322024074e+00 2.4806473363e+00 
98700 5.1157287839e+00 6.9683677761e-05 1.4321999371e+00 -2.4806430577e+00 1.4321999371e+00 2.4806430577e+00 
98800 5.1157287837e+00 6.9870566215e-05 1.4321999371e+00 -2.4806430577e+00 1.4321999371e+00 2.4806430577e+00 
98900 5.1157287835e+00 7.0056907098e-05 1.4321999371e+00 -2.4806430577e+00 1.4321999371e+00 2.4806430577e+00 
99000 5.1157287832e+00 7.0242662002e-05 1.4321999371e+00 -2.4806430577e+00 1.4321999371e+00 2.4806430577e+00 
99100 5.1157287830e+00 7.0427796058e-05 1.4321999371e+00 -2.4806430577e+00 1.4321999371e+00 2.4806430577e+00 
99200 5.1157287828e+00 7.0612277652e-05 1.4321999371e+00 -2.4806430577e+00 1.4321999371e+00 2.4806430577e+00 
99300 5.1157287826e+00 7.0796078178e-05 1.4321999371e+00 -2.4806430577e+00 1.4321999371e+00 2.4806430577e+00 
99400 5.1157287821e+00 6.9713514134e-05 1.4321974655e+00 -2.4806387768e+00 1.4321974655e+00 2.4806387768e+00 
99500 5.1157287819e+00 6.9893325949e-05 1.4321974655e+00 -2.4806387768e+00 1.4321974655e+00 2.4806387768e+00 
99600 5.1157287817e+00 7.0072608677e-05 1.4321974655e+00 -2.4806387768e+00 1.4321974655e+00 2.4806387768e+00 
99700 5.1157287815e+00 7.0251325570e-05 1.4321974655e+00 -2.4806387768e+00 1.4321974655e+00 2.4806387768e+00 
99800 5.1157287813e+00 7.0429443264e-05 1.4321974655e+00 -2.4806387768e+00 1.4321974655e+00 2.4806387768e+00 
99900 5.1157287810e+00 7.0606931514e-05 1.4321974655e+00 -2.4806387768e+00 1.4321974655e+00 2.4806387768e+00 
100000 5.1157287808e+00 7.0783762954e-05 1.4321974655e+00 -2.4806387768e+00 1.4321974655e+00 2.4806387768e+00 
100100 5.1157287804e+00 6.9694508720e-05 1.4321949944e+00 -2.4806344966e+00 1.4321949944e+00 2.4806344966e+00 
100200 5.1157287802e+00 6.9867403582e-05 1.4321949944e+00 -2.4806344966e+00 1.4321949944e+00 2.4806344966e+00 
100300 5.1157287800e+00 7.0039796635e-05 1.4321949944e+00 -2.4806344966e+00 1.4321949944e+00 2.4806344966e+00 
100400 5.1157287798e+00 7.0211651957e-05 1.4321949944e+00 -2.4806344966e+00 1.4321949944e+00 2.4806344966e+00 
100500 5.1157287796e+00 7.0382936925e-05 1.4321949944e+00 -2.4806344966e+00 1.4321949944e+00 2.4806344966e+00 
100600 5.1157287794e+00 7.0553621959e-05 1.4321949944e+00 -2.4806344966e+00 1.4321949944e+00 2.4806344966e+00 
100700 5.1157287792e+00 7.0723680284e-05 1.4321949944e+00 -2.4806344966e+00 1.4321949944e+00 2.4806344966e+00 
100800 5.1157287788e+00 6.9628789503e-05 1.4321925253e+00 -2.4806302201e+00 1.4321925253e+00 2.4806302201e+00 
100900 5.1157287786e+00 6.9794975049e-05 1.4321925253e+00 -2.4806302201e+00 1.4321925253e+00 2.4806302201e+00 
101000 5.1157287784e+00 6.9960690103e-05 1.4321925253e+00 -2.4806302201e+00 1.4321925253e+00 2.4806302201e+00 
101100 5.1157287782e+00 7.0125899116e-05 1.4321925253e+00 -2.4806302201e+00 1.4321925253e+00 2.4806302201e+00 
101200 5.1157287781e+00 7.0290569791e-05 1.4321925253e+00 -2.4806302201e+00 1.4321925253e+00 2.4806302201e+00 
101300 5.1157287779e+00 7.0454672829e-05 1.4321925253e+00 -2.4806302201e+00 1.4321925253e+00 2.4806302201e+00 
101400 5.1157287777e+00 7.0618181696e-05 1.4321925253e+00 -2.4806302201e+00 1.4321925253e+00 2.4806302201e+00 
101500 5.1157287775e+00 7.0781072403e-05 1.4321925253e+00 -2.4806302201e+00 1.4321925253e+00 2.4806302201e+00 
101600 5.1157287771e+00 6.9678034593e-05 1.4321900542e+00 -2.4806259400e+00 1.4321900542e+00 2.4806259400e+00 
101700 5.1157287770e+00 6.9837074886e-05 1.4321900542e+00 -2.4806259400e+00 1.4321900542e+00 2.4806259400e+00 
101800 5.1157287768e+00 6.9995660433e-05 1.4321900542e+00 -2.4806259400e+00 1.4321900542e+00 2.4806259400e+00 
101900 5.1157287766e+00 7.0153757609e-05 1.4321900542e+00 -2.4806259400e+00 1.4321900542e+00 2.4806259400e+00 
102000 5.1157287765e+00 7.0311335872e-05 1.4321900542e+00 -2.4806259400e+00 1.4321900542e+00 2.4806259400e+00 
102100 5.1157287763e+00 7.0468367520e-05 1.4321900542e+00 -2.4806259400e+00 1.4321900542e+00 2.4806259400e+00 
102200 5.1157287761e+00 7.0624827470e-05 1.4321900542e+00 -2.4806259400e+00 1.4321900542e+00 2.4806259400e+00 
102300 5.1157287760e+00 7.0780693049e-05 1.4321900542e+00 -2.4806259400e+00 1.4321900542e+00 2.4806259400e+00 
102400 5.1157287756e+00 6.9670695542e-05 1.4321875832e+00 -2.4806216600e+00 1.4321875832e+00 2.4806216600e+00 
102500 5.1157287754e+00 6.9822761670e-05 1.4321875832e+00 -2.4806216600e+00 1.4321875832e+00 2.4806216600e+00 
102600 5.1157287753e+00 6.9974400085e-05 1.4321875832e+00 -2.4806216600e+00 1.4321875832e+00 2.4806216600e+00 
102700 5.1157287751e+00 7.0125578042e-05 1.4321875832e+00 -2.4806216600e+00 1.4321875832e+00 2.4806216600e+00 
102800 5.1157287750e+00 7.0276265784e-05 1.4321875832e+00 -2.4806216600e+00 1.4321875832e+00 2.4806216600e+00 
102900 5.1157287748e+00 7.0426436312e-05 1.4321875832e+00 -2.4806216600e+00 1.4321875832e+00 2.4806216600e+00 
103000 5.1157287747e+00 7.0576065174e-05 1.4321875832e+00 -2.4806216600e+00 1.4321875832e+00 2.4806216600e+00 
103100 5.1157287745e+00 7.0725130256e-05 1.4321875832e+00 -2.4806216600e+00 1.4321875832e+00 2.4806216600e+00 
103200 5.1157287741e+00 6.9609388500e-05 1.4321851140e+00 -2.4806173834e+00 1.4321851140e+00 2.4806173834e+00 
103300 5.1157287740e+00 6.9754718661e-05 1.4321851140e+00 -2.4806173834e+00 1.4321851140e+00 2.4806173834e+00 
103400 5.1157287739e+00 6.9899652850e-05 1.4321851140e+00 -2.4806173834e+00 1.4321851140e+00 2.4806173834e+00 
103500 5.1157287737e+00 7.0044158667e-05 1.4321851140e+00 -2.4806173834e+00 1.4321851140e+00 2.4806173834e+00 
103600 5.1157287736e+00 7.0188206657e-05 1.4321851140e+00 -2.4806173834e+00 1.4321851140e+00 2.4806173834e+00 
103700 5.1157287734e+00 7.0331770084e-05 1.4321851140e+00 -2.4806173834e+00 1.4321851140e+00 2.4806173834e+00 
103800 5.1157287733e+00 7.0474824714e-05 1.4321851140e+00 -2.4806173834e+00 1.4321851140e+00 2.4806173834e+00 
103900 5.1157287732e+00 7.0617348621e-05 1.4321851140e+00 -2.4806173834e+00 1.4321851140e+00 2.4806173834e+00 
104000 5.1157287730e+00 7.0759322005e-05 1.4321851140e+00 -2.4806173834e+00 1.4321851140e+00 2.4806173834e+00 
104100 5.1157287727e+00 6.9635927430e-05 1.4321826437e+00 -2.4806131046e+00 1.4321826437e+00 2.4806131046e+00 
104200 5.1157287725e+00 6.9774197223e-05 1.4321826437e+00 -2.4806131046e+00 1.4321826437e+00 2.4806131046e+00 
104300 5.1157287724e+00 6.9912090203e-05 1.4321826437e+00 -2.4806131046e+00 1.4321826437e+00 2.4806131046e+00 
104400 5.1157287723e+00 7.0049575559e-05 1.4321826437e+00 -2.4806131046e+00 1.4321826437e+00 2.4806131046e+00 
104500 5.1157287722e+00 7.0186625282e-05 1.4321826437e+00 -2.4806131046e+00 1.4321826437e+00 2.4806131046e+00 
104600 5.1157287720e+00 7.0323213943e-05 1.4321826437e+00 -2.4806131046e+00 1.4321826437e+00 2.4806131046e+00 
104700 5.1157287719e+00 7.0459318497e-05 1.4321826437e+00 -2.4806131046e+00 1.4321826437e+00 2.4806131046e+00 
104800 5.1157287718e+00 7.0594918093e-05 1.4321826437e+00 -2.4806131046e+00 1.4321826437e+00 2.4806131046e+00 
104900 5.1157287717e+00 7.0729993901e-05 1.4321826437e+00 -2.4806131046e+00 1.4321826437e+00 2.4806131046e+00 
105000 5.1157287713e+00 6.9600286308e-05 1.4321801744e+00 -2.4806088277e+00 1.4321801744e+00 2.4806088277e+00 
105100 5.1157287712e+00 6.9731715496e-05 1.4321801744e+00 -2.4806088277e+00 1.4321801744e+00 2.4806088277e+00 
105200 5.1157287711e+00 6.9862796882e-05 1.4321801744e+00 -2.4806088277e+00 1.4321801744e+00 2.4806088277e+00 
105300 5.1157287710e+00 6.9993500291e-05 1.4321801744e+00 -2.4806088277e+00 1.4321801744e+00 2.4806088277e+00 
105400 5.1157287709e+00 7.0123798279e-05 1.4321801744e+00 -2.4806088277e+00 1.4321801744e+00 2.4806088277e+00 
105500 5.1157287707e+00 7.0253665922e-05 1.4321801744e+00 -2.4806088277e+00 1.4321801744e+00 2.4806088277e+00 
105600 5.1157287706e+00 7.0383080618e-05 1.4321801744e+00 -2.4806088277e+00 1.4321801744e+00 2.4806088277e+00 
105700 5.1157287705e+00 7.0512021906e-05 1.4321801744e+00 -2.4806088277e+00 1.4321801744e+00 2.4806088277e+00 
105800 5.1157287704e+00 7.0640471298e-05 1.4321801744e+00 -2.4806088277e+00 1.4321801744e+00 2.4806088277e+00 
105900 5.1157287703e+00 7.0768412123e-05 1.4321801744e+00 -2.4806088277e+00 1.4321801744e+00 2.4806088277e+00 
106000 5.1157287700e+00 6.9630934837e-05 1.4321777038e+00 -2.4806045484e+00 1.4321777038e+00 2.4806045484e+00 
106100 5.1157287699e+00 6.9755263733e-05 1.4321777038e+00 -2.4806045484e+00 1.4321777038e+00 2.4806045484e+00 
106200 5.1157287698e+00 6.9879265568e-05 1.4321777038e+00 -2.4806045484e+00 1.4321777038e+00 2.4806045484e+00 
106300 5.1157287696e+00 7.0002911642e-05 1.4321777038e+00 -2.4806045484e+00 1.4321777038e+00 2.4806045484e+00 
106400 5.1157287695e+00 7.0126175849e-05 1.4321777038e+00 -2.4806045484e+00 1.4321777038e+00 2.4806045484e+00 
106500 5.1157287694e+00 7.0249034477e-05 1.4321777038e+00 -2.4806045484e+00 1.4321777038e+00 2.4806045484e+00 
106600 5.1157287693e+00 7.0371466021e-05 1.4321777038e+00 -2.4806045484e+00 1.4321777038e+00 2.4806045484e+00 
106700 5.1157287692e+00 7.0493451011e-05 1.4321777038e+00 -2.4806045484e+00 1.4321777038e+00 2.4806045484e+00 
106800 5.1157287692e+00 7.0614971850e-05 1.4321777038e+00 -2.4806045484e+00 1.4321777038e+00 2.4806045484e+00 
106900 5.1157287691e+00 7.0736012669e-05 1.4321777038e+00 -2.4806045484e+00 1.4321777038e+00 2.4806045484e+00 
107000 5.1157287687e+00 6.9592276342e-05 1.4321752342e+00 -2.4806002710e+00 1.4321752342e+00 2.4806002710e+00 
107100 5.1157287686e+00 6.9709765487e-05 1.4321752342e+00 -2.4806002710e+00 1.4321752342e+00 2.4806002710e+00 
107200 5.1157287685e+00 6.9826957955e-05 1.4321752342e+00 -2.4806002710e+00 1.4321752342e+00 2.4806002710e+00 
107300 5.1157287684e+00 6.9943825558e-05 1.4321752342e+00 -2.4806002710e+00 1.4321752342e+00 2.4806002710e+00 
107400 5.1157287684e+00 7.0060342647e-05 1.4321752342e+00 -2.4806002710e+00 1.4321752342e+00 2.4806002710e+00 
107500 5.1157287683e+00 7.0176485911e-05 1.4321752342e+00 -2.4806002710e+00 1.4321752342e+00 2.4806002710e+00 
107600 5.1157287682e+00 7.0292234193e-05 1.4321752342e+00 -2.4806002710e+00 1.4321752342e+00 2.4806002710e+00 
107700 5.1157287681e+00 7.0407568327e-05 1.4321752342e+00 -2.4806002710e+00 1.4321752342e+00 2.4806002710e+00 
107800 5.1157287680e+00 7.0522470978e-05 1.4321752342e+00 -2.4806002710e+00 1.4321752342e+00 2.4806002710e+00 
107900 5.1157287679e+00 7.0636926499e-05 1.4321752342e+00 -2.4806002710e+00 1.4321752342e+00 2.4806002710e+00 
108000 5.1157287678e+00 7.0750920795e-05 1.4321752342e+00 -2.4806002710e+00 1.4321752342e+00 2.4806002710e+00 
108100 5.1157287675e+00 6.9599925946e-05 1.4321727642e+00 -2.4805959928e+00 1.4321727642e+00 2.4805959928e+00 
108200 5.1157287674e+00 6.9710410234e-05 1.4321727642e+00 -2.4805959928e+00 1.4321727642e+00 2.4805959928e+00 
108300 5.1157287673e+00 6.9820621115e-05 1.4321727642e+00 -2.4805959928e+00 1.4321727642e+00 2.4805959928e+00 
108400 5.1157287673e+00 6.9930531609e-05 1.4321727642e+00 -2.4805959928e+00 1.4321727642e+00 2.4805959928e+00 
108500 5.1157287672e+00 7.0040117157e-05 1.4321727642e+00 -2.4805959928e+00 1.4321727642e+00 2.4805959928e+00 
108600 5.1157287671e+00 7.0149355435e-05 1.4321727642e+00 -2.4805959928e+00 1.4321727642e+00 2.4805959928e+00 
108700 5.1157287670e+00 7.0258226175e-05 1.4321727642e+00 -2.4805959928e+00 1.4321727642e+00 2.4805959928e+00 
108800 5.1157287669e+00 7.0366711010e-05 1.4321727642e+00 -2.4805959928e+00 1.4321727642e+00 2.4805959928e+00 
108900 5.1157287669e+00 7.0474793324e-05 1.4321727642e+00 -2.4805959928e+00 1.4321727642e+00 2.4805959928e+00 
109000 5.1157287668e+00 7.0582458108e-05 1.4321727642e+00 -2.4805959928e+00 1.4321727642e+00 2.4805959928e+00 
109100 5.1157287667e+00 7.0689691843e-05 1.4321727642e+00 -2.4805959928e+00 1.4321727642e+00 2.4805959928e+00 
109200 5.1157287666e+00 7.0796482373e-05 1.4321727642e+00 -2.4805959928e+00 1.4321727642e+00 2.4805959928e+00 
109300 5.1157287663e+00 6.9637524212e-05 1.4321702925e+00 -2.4805917118e+00 1.4321702925e+00 2.4805917118e+00 
109400 5.1157287662e+00 6.9740844168e-05 1.4321702925e+00 -2.4805917118e+00 1.4321702925e+00 2.4805917118e+00 
109500 5.1157287662e+00 6.9843913716e-05 1.4321702925e+00 -2.4805917118e+00 1.4321702925e+00 2.4805917118e+00 
109600 5.1157287661e+00 6.9946707184e-05 1.4321702925e+00 -2.4805917118e+00 1.4321702925e+00 2.4805917118e+00 
109700 5.1157287660e+00 7.0049201202e-05 1.4321702925e+00 -2.4805917118e+00 1.4321702925e+00 2.4805917118e+00 
109800 5.1157287660e+00 7.0151374516e-05 1.4321702925e+00 -2.4805917118e+00 1.4321702925e+00 2.4805917118e+00 
109900 5.1157287659e+00 7.0253207830e-05 1.4321702925e+00 -2.4805917118e+00 1.4321702925e+00 2.4805917118e+00 
110000 5.1157287658e+00 7.0354683647e-05 1.4321702925e+00 -2.4805917118e+00 1.4321702925e+00 2.4805917118e+00 
110100 5.1157287658e+00 7.0455786129e-05 1.4321702925e+00 -2.4805917118e+00 1.4321702925e+00 2.4805917118e+00 
110200 5.1157287657e+00 7.0556500970e-05 1.4321702925e+00 -2.4805917118e+00 1.4321702925e+00 2.4805917118e+00 
110300 5.1157287656e+00 7.0656815275e-05 1.4321702925e+00 -2.4805917118e+00 1.4321702925e+00 2.4805917118e+00 
110400 5.1157287656e+00 7.0756717442e-05 1.4321702925e+00 -2.4805917118e+00 1.4321702925e+00 2.4805917118e+00 
110500 5.1157287653e+00 6.9591645520e-05 1.4321678223e+00 -2.4805874331e+00 1.4321678223e+00 2.4805874331e+00 
110600 5.1157287652e+00 6.9688142013e-05 1.4321678223e+00 -2.4805874331e+00 1.4321678223e+00 2.4805874331e+00 
110700 5.1157287651e+00 6.9784420346e-05 1.4321678223e+00 -2.4805874331e+00 1.4321678223e+00 2.4805874331e+00 
110800 5.1157287651e+00 6.9880455191e-05 1.4321678223e+00 -2.4805874331e+00 1.4321678223e+00 2.4805874331e+00 
110900 5.1157287650e+00 6.9976223468e-05 1.4321678223e+00 -2.4805874331e+00 1.4321678223e+00 2.4805874331e+00 
111000 5.1157287649e+00 7.0071704179e-05 1.4321678223e+00 -2.4805874331e+00 1.4321678223e+00 2.4805874331e+00 
111100 5.1157287649e+00 7.0166878238e-05 1.4321678223e+00 -2.4805874331e+00 1.4321678223e+00 2.4805874331e+00 
111200 5.1157287648e+00 7.0261728326e-05 1.4321678223e+00 -2.4805874331e+00 1.4321678223e+00 2.4805874331e+00 
111300 5.1157287648e+00 7.0356238753e-05 1.4321678223e+00 -2.4805874331e+00 1.4321678223e+00 2.4805874331e+00 
111400 5.1157287647e+00 7.0450395329e-05 1.4321678223e+00 -2.4805874331e+00 1.4321678223e+00 2.4805874331e+00 
111500 5.1157287646e+00 7.0544185247e-05 1.4321678223e+00 -2.4805874331e+00 1.4321678223e+00 2.4805874331e+00 
111600 5.1157287646e+00 7.0637596973e-05 1.4321678223e+00 -2.4805874331e+00 1.4321678223e+00 2.4805874331e+00 
111700 5.1157287645e+00 7.0730620145e-05 1.4321678223e+00 -2.4805874331e+00 1.4321678223e+00 2.4805874331e+00 
111800 5.1157287642e+00 6.9559193089e-05 1.4321653529e+00 -2.4805831561e+00 1.4321653529e+00 2.4805831561e+00 
111900 5.1157287642e+00 6.9648861860e-05 1.4321653529e+00 -2.4805831561e+00 1.4321653529e+00 2.4805831561e+00 
112000 5.1157287641e+00 6.9738339028e-05 1.4321653529e+00 -2.4805831561e+00 1.4321653529e+00 2.4805831561e+00 
112100 5.1157287641e+00 6.9827600095e-05 1.4321653529e+00 -2.4805831561e+00 1.4321653529e+00 2.4805831561e+00 
112200 5.1157287640e+00 6.9916622733e-05 1.4321653529e+00 -2.4805831561e+00 1.4321653529e+00 2.4805831561e+00 
112300 5.1157287640e+00 7.0005386610e-05 1.4321653529e+00 -2.4805831561e+00 1.4321653529e+00 2.4805831561e+00 
112400 5.1157287639e+00 7.0093873241e-05 1.4321653529e+00 -2.4805831561e+00 1.4321653529e+00 2.4805831561e+00 
112500 5.1157287639e+00 7.0182065843e-05 1.4321653529e+00 -2.4805831561e+00 1.4321653529e+00 2.4805831561e+00 
112600 5.1157287638e+00 7.0269949198e-05 1.4321653529e+00 -2.4805831561e+00 1.4321653529e+00 2.4805831561e+00 
112700 5.1157287638e+00 7.0357509537e-05 1.4321653529e+00 -2.4805831561e+00 1.4321653529e+00 2.4805831561e+00 
112800 5.1157287637e+00 7.0444734420e-05 1.4321653529e+00 -2.4805831561e+00 1.4321653529e+00 2.4805831561e+00 
112900 5.1157287637e+00 7.0531612634e-05 1.4321653529e+00 -2.4805831561e+00 1.4321653529e+00 2.4805831561e+00 
113000 5.1157287636e+00 7.0618134096e-05 1.4321653529e+00 -2.4805831561e+00 1.4321653529e+00 2.4805831561e+00 
113100 5.1157287636e+00 7.0704289763e-05 1.4321653529e+00 -2.4805831561e+00 1.4321653529e+00 2.4805831561e+00 
113200 5.1157287635e+00 7.0790071546e-05 1.4321653529e+00 -2.4805831561e+00 1.4321653529e+00 2.4805831561e+00 
113300 5.1157287632e+00 6.9610392730e-05 1.4321628815e+00 -2.4805788755e+00 1.4321628815e+00 2.4805788755e+00 
113400 5.1157287632e+00 6.9692853251e-05 1.4321628815e+00 -2.4805788755e+00 1.4321628815e+00 2.4805788755e+00 
113500 5.1157287631e+00 6.9775142719e-05 1.4321628815e+00 -2.4805788755e+00 1.4321628815e+00 2.4805788755e+00 
113600 5.1157287631e+00 6.9857238185e-05 1.4321628815e+00 -2.4805788755e+00 1.4321628815e+00 2.4805788755e+00 
113700 5.1157287630e+00 6.9939118726e-05 1.4321628815e+00 -2.4805788755e+00 1.4321628815e+00 2.4805788755e+00 
113800 5.1157287630e+00 7.0020765288e-05 1.4321628815e+00 -2.4805788755e+00 1.4321628815e+00 2.4805788755e+00 
113900 5.1157287629e+00 7.0102160536e-05 1.4321628815e+00 -2.4805788755e+00 1.4321628815e+00 2.4805788755e+00 
114000 5.1157287629e+00 7.0183288731e-05 1.4321628815e+00 -2.4805788755e+00 1.4321628815e+00 2.4805788755e+00 
114100 5.1157287629e+00 7.0264135593e-05 1.4321628815e+00 -2.4805788755e+00 1.4321628815e+00 2.4805788755e+00 
114200 5.1157287628e+00 7.0344688195e-05 1.4321628815e+00 -2.4805788755e+00 1.4321628815e+00 2.4805788755e+00 
114300 5.1157287628e+00 7.0424934857e-05 1.4321628815e+00 -2.4805788755e+00 1.4321628815e+00 2.4805788755e+00 
114400 5.1157287627e+00 7.0504865040e-05 1.4321628815e+00 -2.4805788755e+00 1.4321628815e+00 2.4805788755e+00 
114500 5.1157287627e+00 7.0584469266e-05 1.4321628815e+00 -2.4805788755e+00 1.4321628815e+00 2.4805788755e+00 
114600 5.1157287626e+00 7.0663739024e-05 1.4321628815e+00 -2.4805788755e+00 1.4321628815e+00 2.4805788755e+00 
114700 5.1157287626e+00 7.0742666698e-05 1.4321628815e+00 -2.4805788755e+00 1.4321628815e+00 2.4805788755e+00 
114800 5.1157287623e+00 6.9557045229e-05 1.4321604117e+00 -2.4805745977e+00 1.4321604117e+00 2.4805745977e+00 
114900 5.1157287623e+00 6.9632718062e-05 1.4321604117e+00 -2.4805745977e+00 1.4321604117e+00 2.4805745977e+00 
115000 5.1157287622e+00 6.9708252591e-05 1.4321604117e+00 -2.4805745977e+00 1.4321604117e+00 2.4805745977e+00 
115100 5.1157287622e+00 6.9783626150e-05 1.4321604117e+00 -2.4805745977e+00 1.4321604117e+00 2.4805745977e+00 
115200 5.1157287622e+00 6.9858818058e-05 1.4321604117e+00 -2.4805745977e+00 1.4321604117e+00 2.4805745977e+00 
115300 5.1157287621e+00 6.9933809462e-05 1.4321604117e+00 -2.4805745977e+00 1.4321604117e+00 2.4805745977e+00 
115400 5.1157287621e+00 7.0008583200e-05 1.4321604117e+00 -2.4805745977e+00 1.4321604117e+00 2.4805745977e+00 
115500 5.1157287621e+00 7.0083123666e-05 1.4321604117e+00 -2.4805745977e+00 1.4321604117e+00 2.4805745977e+00 
115600 5.1157287620e+00 7.0157416691e-05 1.4321604117e+00 -2.4805745977e+00 1.4321604117e+00 2.4805745977e+00 
115700 5.1157287620e+00 7.0231449430e-05 1.4321604117e+00 -2.4805745977e+00 1.4321604117e+00 2.4805745977e+00 
115800 5.1157287619e+00 7.0305210259e-05 1.4321604117e+00 -2.4805745977e+00 1.4321604117e+00 2.4805745977e+00 
115900 5.1157287619e+00 7.0378688679e-05 1.4321604117e+00 -2.4805745977e+00 1.4321604117e+00 2.4805745977e+00 
116000 5.1157287619e+00 7.0451875224e-05 1.4321604117e+00 -2.4805745977e+00 1.4321604117e+00 2.4805745977e+00 
116100 5.1157287618e+00 7.0524761384e-05 1.4321604117e+00 -2.4805745977e+00 1.4321604117e+00 2.4805745977e+00 
116200 5.1157287618e+00 7.0597339527e-05 1.4321604117e+00 -2.4805745977e+00 1.4321604117e+00 2.4805745977e+00 
116300 5.1157287618e+00 7.0669602825e-05 1.4321604117e+00 -2.4805745977e+00 1.4321604117e+00 2.4805745977e+00 
116400 5.1157287617e+00 7.0741545196e-05 1.4321604117e+00 -2.4805745977e+00 1.4321604117e+00 2.4805745977e+00 
116500 5.1157287615e+00 6.9549014483e-05 1.4321579420e+00 -2.4805703199e+00 1.4321579420e+00 2.4805703199e+00 
116600 5.1157287615e+00 6.9557267764e-05 1.4321579420e+00 -2.4805703199e+00 1.4321579420e+00 2.4805703199e+00 
116600 5.1157287615e+00 6.9557267764e-05 1.4321579420e+00 -2.4805703199e+00 1.4321579420e+00 2.4805703199e+00 
