# step Hamiltonian StressXX CellTensor1 CellTensor2 CellTensor3 CellTensor4 
0 5.1542425521e+00 -9.0749998775e-02 1.6122881582e+00 -2.7925650064e+00 1.6122881582e+00 2.7925650064e+00 
100 5.1486766809e+00 -9.1140953366e-02 1.6122881582e+00 -2.7925650064e+00 1.6122881582e+00 2.7925650064e+00 
200 5.1430033062e+00 -8.8683994444e-02 1.6151154300e+00 -2.7974619848e+00 1.6151154300e+00 2.7974619848e+00 
300 5.1375528887e+00 -8.6303450905e-02 1.6178616447e+00 -2.8022185683e+00 1.6178616447e+00 2.8022185683e+00 
400 5.1323222789e+00 -8.3989804143e-02 1.6205295838e+00 -2.8068395742e+00 1.6205295838e+00 2.8068395742e+00 
500 5.1273080352e+00 -8.1734760715e-02 1.6231217041e+00 -2.8113292584e+00 1.6231217041e+00 2.8113292584e+00 
600 5.1225064127e+00 -7.9531139306e-02 1.6256401800e+00 -2.8156913867e+00 1.6256401800e+00 2.8156913867e+00 
700 5.1179133639e+00 -7.7372766092e-02 1.6280869409e+00 -2.8199293007e+00 1.6280869409e+00 2.8199293007e+00 
800 5.1135245458e+00 -7.5254377795e-02 1.6304637046e+00 -2.8240459763e+00 1.6304637046e+00 2.8240459763e+00 
900 5.1093353343e+00 -7.3171531821e-02 1.6327720082e+00 -2.8280440754e+00 1.6327720082e+00 2.8280440754e+00 
1000 5.1053408441e+00 -7.1120522946e-02 1.6350132349e+00 -2.8319259940e+00 1.6350132349e+00 2.8319259940e+00 
1100 5.1015359522e+00 -6.9098306118e-02 1.6371886384e+00 -2.8356939033e+00 1.6371886384e+00 2.8356939033e+00 
1200 5.0979153239e+00 -6.7102424945e-02 1.6392993644e+00 -2.8393497879e+00 1.6392993644e+00 2.8393497879e+00 
1300 5.0944734418e+00 -6.5130945530e-02 1.6413464697e+00 -2.8428954784e+00 1.6413464697e+00 2.8428954784e+00 
1400 5.0912046354e+00 -6.3182395333e-02 1.6433309396e+00 -2.8463326810e+00 1.6433309396e+00 2.8463326810e+00 
1500 5.0881031108e+00 -6.1255706760e-02 1.6452537020e+00 -2.8496630032e+00 1.6452537020e+00 2.8496630032e+00 
1600 5.0851629815e+00 -5.9350165214e-02 1.6471156411e+00 -2.8528879764e+00 1.6471156411e+00 2.8528879764e+00 
1700 5.0823782974e+00 -5.7465361372e-02 1.6489176085e+00 -2.8560090755e+00 1.6489176085e+00 2.8560090755e+00 
1800 5.0797430738e+00 -5.5601147442e-02 1.6506604328e+00 -2.8590277356e+00 1.6506604328e+00 2.8590277356e+00 
1900 5.0772513187e+00 -5.3757597181e-02 1.6523449280e+00 -2.8619453670e+00 1.6523449280e+00 2.8619453670e+00 
2000 5.0748970582e+00 -5.1934969481e-02 1.6539719009e+00 -2.8647633667e+00 1.6539719009e+00 2.8647633667e+00 
2100 5.0726743613e+00 -5.0133675307e-02 1.6555421567e+00 -2.8674831295e+00 1.6555421567e+00 2.8674831295e+00 
2200 5.0705773614e+00 -4.8354247796e-02 1.6570565038e+00 -2.8701060556e+00 1.6570565038e+00 2.8701060556e+00 
2300 5.0686002771e+00 -4.6597315344e-02 1.6585157582e+00 -2.8726335583e+00 1.6585157582e+00 2.8726335583e+00 
2400 5.0667374302e+00 -4.4863577478e-02 1.6599207460e+00 -2.8750670685e+00 1.6599207460e+00 2.8750670685e+00 
2500 5.0649832620e+00 -4.3153783364e-02 1.6612723063e+00 -2.8774080397e+00 1.6612723063e+00 2.8774080397e+00 
2600 5.0633323475e+00 -4.1468712759e-02 1.6625712926e+00 -2.8796579501e+00 1.6625712926e+00 2.8796579501e+00 
2700 5.0617794075e+00 -3.9809159243e-02 1.6638185743e+00 -2.8818183053e+00 1.6638185743e+00 2.8818183053e+00 
2800 5.0603193192e+00 -3.8175915595e-02 1.6650150367e+00 -2.8838906389e+00 1.6650150367e+00 2.8838906389e+00 
2900 5.0589471245e+00 -3.6569761112e-02 1.6661615817e+00 -2.8858765131e+00 1.6661615817e+00 2.8858765131e+00 
3000 5.0576580368e+00 -3.4991450770e-02 1.6672591275e+00 -2.8877775182e+00 1.6672591275e+00 2.8877775182e+00 
3100 5.0564474462e+00 -3.3441706039e-02 1.6683086080e+00 -2.8895952717e+00 1.6683086080e+00 2.8895952717e+00 
3200 5.0553109229e+00 -3.1921207236e-02 1.6693109721e+00 -2.8913314172e+00 1.6693109721e+00 2.8913314172e+00 
3300 5.0542442199e+00 -3.0430587279e-02 1.6702671825e+00 -2.8929876224e+00 1.6702671825e+00 2.8929876224e+00 
3400 5.0532432733e+00 -2.8970426696e-02 1.6711782150e+00 -2.8945655768e+00 1.6711782150e+00 2.8945655768e+00 
3500 5.0523042026e+00 -2.7541249790e-02 1.6720450564e+00 -2.8960669902e+00 1.6720450564e+00 2.8960669902e+00 
3600 5.0514233091e+00 -2.6143521826e-02 1.6728687037e+00 -2.8974935893e+00 1.6728687037e+00 2.8974935893e+00 
3700 5.0505970738e+00 -2.4777647137e-02 1.6736501624e+00 -2.8988471154e+00 1.6736501624e+00 2.8988471154e+00 
3800 5.0498221546e+00 -2.3443968040e-02 1.6743904448e+00 -2.9001293221e+00 1.6743904448e+00 2.9001293221e+00 
3900 5.0490953822e+00 -2.2142764475e-02 1.6750905682e+00 -2.9013419715e+00 1.6750905682e+00 2.9013419715e+00 
4000 5.0484137562e+00 -2.0874254262e-02 1.6757515540e+00 -2.9024868324e+00 1.6757515540e+00 2.9024868324e+00 
4100 5.0477744398e+00 -1.9638593901e-02 1.6763744252e+00 -2.9035656769e+00 1.6763744252e+00 2.9035656769e+00 
4200 5.0471747554e+00 -1.8435879834e-02 1.6769602053e+00 -2.9045802779e+00 1.6769602053e+00 2.9045802779e+00 
4300 5.0466121781e+00 -1.7266150100e-02 1.6775099168e+00 -2.9055324062e+00 1.6775099168e+00 2.9055324062e+00 
4400 5.0460843306e+00 -1.6129386311e-02 1.6780245794e+00 -2.9064238280e+00 1.6780245794e+00 2.9064238280e+00 
4500 5.0455889769e+00 -1.5025515893e-02 1.6785052088e+00 -2.9072563023e+00 1.6785052088e+00 2.9072563023e+00 
4600 5.0451240164e+00 -1.3954414542e-02 1.6789528149e+00 -2.9080315789e+00 1.6789528149e+00 2.9080315789e+00 
4700 5.0446874777e+00 -1.2915908833e-02 1.6793684010e+00 -2.9087513951e+00 1.6793684010e+00 2.9087513951e+00 
4800 5.0442775123e+00 -1.1909778961e-02 1.6797529623e+00 -2.9094174748e+00 1.6797529623e+00 2.9094174748e+00 
4900 5.0438923889e+00 -1.0935761544e-02 1.6801074846e+00 -2.9100315255e+00 1.6801074846e+00 2.9100315255e+00 
5000 5.0435304867e+00 -9.9935524873e-03 1.6804329434e+00 -2.9105952366e+00 1.6804329434e+00 2.9105952366e+00 
5100 5.0431902903e+00 -9.0828098548e-03 1.6807303027e+00 -2.9111102780e+00 1.6807303027e+00 2.9111102780e+00 
5200 5.0428703831e+00 -8.2031567306e-03 1.6810005142e+00 -2.9115782981e+00 1.6810005142e+00 2.9115782981e+00 
5300 5.0425694423e+00 -7.3541840510e-03 1.6812445163e+00 -2.9120009222e+00 1.6812445163e+00 2.9120009222e+00 
5400 5.0422862330e+00 -6.5354533838e-03 1.6814632336e+00 -2.9123797516e+00 1.6814632336e+00 2.9123797516e+00 
5500 5.0420196032e+00 -5.7464996403e-03 1.6816575756e+00 -2.9127163619e+00 1.6816575756e+00 2.9127163619e+00 
5600 5.0417684786e+00 -4.9868337093e-03 1.6818284367e+00 -2.9130123020e+00 1.6818284367e+00 2.9130123020e+00 
5700 5.0415318580e+00 -4.2559449990e-03 1.6819766952e+00 -2.9132690932e+00 1.6819766952e+00 2.9132690932e+00 
5800 5.0413088082e+00 -3.5533038821e-03 1.6821032129e+00 -2.9134882284e+00 1.6821032129e+00 2.9134882284e+00 
5900 5.0410984600e+00 -2.8783640367e-03 1.6822088349e+00 -2.9136711710e+00 1.6822088349e+00 2.9136711710e+00 
6000 5.0409000037e+00 -2.2305646772e-03 1.6822943887e+00 -2.9138193546e+00 1.6822943887e+00 2.9138193546e+00 
6100 5.0407126856e+00 -1.6093326757e-03 1.6823606845e+00 -2.9139341822e+00 1.6823606845e+00 2.9139341822e+00 
6200 5.0405358037e+00 -1.0140845687e-03 1.6824085143e+00 -2.9140170259e+00 1.6824085143e+00 2.9140170259e+00 
6300 5.0403687042e+00 -4.4422845221e-04 1.6824386523e+00 -2.9140692264e+00 1.6824386523e+00 2.9140692264e+00 
6400 5.0402107787e+00 1.0083423682e-04 1.6824518542e+00 -2.9140920928e+00 1.6824518542e+00 2.9140920928e+00 
6500 5.0400614605e+00 6.2170704926e-04 1.6824488576e+00 -2.9140869025e+00 1.6824488576e+00 2.9140869025e+00 
6600 5.0399202219e+00 1.1189969617e-03 1.6824303814e+00 -2.9140549007e+00 1.6824303814e+00 2.9140549007e+00 
6700 5.0397865712e+00 1.5933129200e-03 1.6823971261e+00 -2.9139973009e+00 1.6823971261e+00 2.9139973009e+00 
6800 5.0396600506e+00 2.0452644861e-03 1.6823497739e+00 -2.9139152844e+00 1.6823497739e+00 2.9139152844e+00 
6900 5.0395402332e+00 2.4754605838e-03 1.6822889883e+00 -2.9138100007e+00 1.6822889883e+00 2.9138100007e+00 
7000 5.0394267212e+00 2.8845083394e-03 1.6822154146e+00 -2.9136825674e+00 1.6822154146e+00 2.9136825674e+00 
7100 5.0393191435e+00 3.2730120148e-03 1.6821296800e+00 -2.9135340706e+00 1.6821296800e+00 2.9135340706e+00 
7200 5.0392171542e+00 3.6415720274e-03 1.6820323932e+00 -2.9133655649e+00 1.6820323932e+00 2.9133655649e+00 
7300 5.0391204301e+00 3.9907840524e-03 1.6819241451e+00 -2.9131780739e+00 1.6819241451e+00 2.9131780739e+00 
7400 5.0390286696e+00 4.3212382052e-03 1.6818055091e+00 -2.9129725902e+00 1.6818055091e+00 2.9129725902e+00 
7500 5.0389415908e+00 4.6335182976e-03 1.6816770405e+00 -2.9127500761e+00 1.6816770405e+00 2.9127500761e+00 
7600 5.0388589303e+00 4.9282011653e-03 1.6815392776e+00 -2.9125114637e+00 1.6815392776e+00 2.9125114637e+00 
7700 5.0387804417e+00 5.2058560610e-03 1.6813927413e+00 -2.9122576554e+00 1.6813927413e+00 2.9122576554e+00 
7800 5.0387058943e+00 5.4670441112e-03 1.6812379358e+00 -2.9119895245e+00 1.6812379358e+00 2.9119895245e+00 
7900 5.0386350723e+00 5.7123178312e-03 1.6810753486e+00 -2.9117079152e+00 1.6810753486e+00 2.9117079152e+00 
8000 5.0385677733e+00 5.9422206954e-03 1.6809054508e+00 -2.9114136435e+00 1.6809054508e+00 2.9114136435e+00 
8100 5.0385038075e+00 6.1572867592e-03 1.6807286973e+00 -2.9111074975e+00 1.6807286973e+00 2.9111074975e+00 
8200 5.0384429968e+00 6.3580403293e-03 1.6805455275e+00 -2.9107902381e+00 1.6805455275e+00 2.9107902381e+00 
8300 5.0383851742e+00 6.5449956786e-03 1.6803563651e+00 -2.9104625992e+00 1.6803563651e+00 2.9104625992e+00 
8400 5.0383301825e+00 6.7186568040e-03 1.6801616187e+00 -2.9101252884e+00 1.6801616187e+00 2.9101252884e+00 
8500 5.0382778740e+00 6.8795172219e-03 1.6799616818e+00 -2.9097789877e+00 1.6799616818e+00 2.9097789877e+00 
8600 5.0382281099e+00 7.0280598012e-03 1.6797569338e+00 -2.9094243537e+00 1.6797569338e+00 2.9094243537e+00 
8700 5.0381807593e+00 7.1647566295e-03 1.6795477394e+00 -2.9090620184e+00 1.6795477394e+00 2.9090620184e+00 
8800 5.0381356989e+00 7.2900689101e-03 1.6793344497e+00 -2.9086925898e+00 1.6793344497e+00 2.9086925898e+00 
8900 5.0380928126e+00 7.4044468888e-03 1.6791174021e+00 -2.9083166522e+00 1.6791174021e+00 2.9083166522e+00 
9000 5.0380519908e+00 7.5083298064e-03 1.6788969206e+00 -2.9079347672e+00 1.6788969206e+00 2.9079347672e+00 
9100 5.0380131300e+00 7.6021458767e-03 1.6786733166e+00 -2.9075474736e+00 1.6786733166e+00 2.9075474736e+00 
9200 5.0379761325e+00 7.6863122864e-03 1.6784468885e+00 -2.9071552887e+00 1.6784468885e+00 2.9071552887e+00 
9300 5.0379409060e+00 7.7612352167e-03 1.6782179227e+00 -2.9067587083e+00 1.6782179227e+00 2.9067587083e+00 
9400 5.0379073631e+00 7.8273098832e-03 1.6779866936e+00 -2.9063582077e+00 1.6779866936e+00 2.9063582077e+00 
9500 5.0378754213e+00 7.8849205942e-03 1.6777534639e+00 -2.9059542420e+00 1.6777534639e+00 2.9059542420e+00 
9600 5.0378450022e+00 7.9344408243e-03 1.6775184849e+00 -2.9055472464e+00 1.6775184849e+00 2.9055472464e+00 
9700 5.0378160319e+00 7.9762333034e-03 1.6772819970e+00 -2.9051376375e+00 1.6772819970e+00 2.9051376375e+00 
9800 5.0377884401e+00 8.0106501182e-03 1.6770442301e+00 -2.9047258130e+00 1.6770442301e+00 2.9047258130e+00 
9900 5.0377621602e+00 8.0380328271e-03 1.6768054033e+00 -2.9043121530e+00 1.6768054033e+00 2.9043121530e+00 
10000 5.0377371293e+00 8.0587125845e-03 1.6765657261e+00 -2.9038970198e+00 1.6765657261e+00 2.9038970198e+00 
10100 5.0377132874e+00 8.0730102760e-03 1.6763253979e+00 -2.9034807592e+00 1.6763253979e+00 2.9034807592e+00 
10200 5.0376905776e+00 8.0812366627e-03 1.6760846088e+00 -2.9030637003e+00 1.6760846088e+00 2.9030637003e+00 
10300 5.0376689461e+00 8.0836925322e-03 1.6758435398e+00 -2.9026461564e+00 1.6758435398e+00 2.9026461564e+00 
10400 5.0376483415e+00 8.0806688586e-03 1.6756023628e+00 -2.9022284256e+00 1.6756023628e+00 2.9022284256e+00 
10500 5.0376287153e+00 8.0724469664e-03 1.6753612413e+00 -2.9018107909e+00 1.6753612413e+00 2.9018107909e+00 
10600 5.0376100210e+00 8.0592987022e-03 1.6751203304e+00 -2.9013935211e+00 1.6751203304e+00 2.9013935211e+00 
10700 5.0375922147e+00 8.0414866096e-03 1.6748797774e+00 -2.9009768710e+00 1.6748797774e+00 2.9009768710e+00 
10800 5.0375752546e+00 8.0192641087e-03 1.6746397215e+00 -2.9005610820e+00 1.6746397215e+00 2.9005610820e+00 
10900 5.0375591009e+00 7.9928756793e-03 1.6744002947e+00 -2.9001463826e+00 1.6744002947e+00 2.9001463826e+00 
11000 5.0375437158e+00 7.9625570468e-03 1.6741616216e+00 -2.8997329887e+00 1.6741616216e+00 2.8997329887e+00 
11100 5.0375290633e+00 7.9285353705e-03 1.6739238200e+00 -2.8993211042e+00 1.6739238200e+00 2.8993211042e+00 
11200 5.0375151091e+00 7.8910294335e-03 1.6736870007e+00 -2.8989109211e+00 1.6736870007e+00 2.8989109211e+00 
11300 5.0375018206e+00 7.8502498348e-03 1.6734512683e+00 -2.8985026207e+00 1.6734512683e+00 2.8985026207e+00 
11400 5.0374891669e+00 7.8063991813e-03 1.6732167211e+00 -2.8980963730e+00 1.6732167211e+00 2.8980963730e+00 
11500 5.0374771183e+00 7.7596722812e-03 1.6729834513e+00 -2.8976923379e+00 1.6729834513e+00 2.8976923379e+00 
11600 5.0374656467e+00 7.7102563373e-03 1.6727515455e+00 -2.8972906652e+00 1.6727515455e+00 2.8972906652e+00 
11700 5.0374547255e+00 7.6583311399e-03 1.6725210845e+00 -2.8968914951e+00 1.6725210845e+00 2.8968914951e+00 
11800 5.0374443290e+00 7.6040692598e-03 1.6722921440e+00 -2.8964949585e+00 1.6722921440e+00 2.8964949585e+00 
11900 5.0374344330e+00 7.5476362399e-03 1.6720647945e+00 -2.8961011775e+00 1.6720647945e+00 2.8961011775e+00 
12000 5.0374250145e+00 7.4891907863e-03 1.6718391014e+00 -2.8957102658e+00 1.6718391014e+00 2.8957102658e+00 
12100 5.0374160512e+00 7.4288849574e-03 1.6716151258e+00 -2.8953223287e+00 1.6716151258e+00 2.8953223287e+00 
12200 5.0374075224e+00 7.3668643527e-03 1.6713929240e+00 -2.8949374637e+00 1.6713929240e+00 2.8949374637e+00 
12300 5.0373994080e+00 7.3032682981e-03 1.6711725478e+00 -2.8945557610e+00 1.6711725478e+00 2.8945557610e+00 
12400 5.0373916890e+00 7.2382300311e-03 1.6709540453e+00 -2.8941773035e+00 1.6709540453e+00 2.8941773035e+00 
12500 5.0373843472e+00 7.1718768824e-03 1.6707374602e+00 -2.8938021672e+00 1.6707374602e+00 2.8938021672e+00 
12600 5.0373773653e+00 7.1043304564e-03 1.6705228327e+00 -2.8934304215e+00 1.6705228327e+00 2.8934304215e+00 
12700 5.0373707270e+00 7.0357068080e-03 1.6703101993e+00 -2.8930621296e+00 1.6703101993e+00 2.8930621296e+00 
12800 5.0373644164e+00 6.9661166183e-03 1.6700995930e+00 -2.8926973487e+00 1.6700995930e+00 2.8926973487e+00 
12900 5.0373584187e+00 6.8956653664e-03 1.6698910434e+00 -2.8923361302e+00 1.6698910434e+00 2.8923361302e+00 
13000 5.0373527197e+00 6.8244534990e-03 1.6696845771e+00 -2.8919785202e+00 1.6696845771e+00 2.8919785202e+00 
13100 5.0373473056e+00 6.7525765972e-03 1.6694802177e+00 -2.8916245593e+00 1.6694802177e+00 2.8916245593e+00 
13200 5.0373421636e+00 6.6801255397e-03 1.6692779859e+00 -2.8912742836e+00 1.6692779859e+00 2.8912742836e+00 
13300 5.0373372814e+00 6.6071866642e-03 1.6690778996e+00 -2.8909277240e+00 1.6690778996e+00 2.8909277240e+00 
13400 5.0373326471e+00 6.5338419240e-03 1.6688799743e+00 -2.8905849072e+00 1.6688799743e+00 2.8905849072e+00 
13500 5.0373282496e+00 6.4601690430e-03 1.6686842228e+00 -2.8902458557e+00 1.6686842228e+00 2.8902458557e+00 
13600 5.0373240782e+00 6.3862416666e-03 1.6684906558e+00 -2.8899105879e+00 1.6684906558e+00 2.8899105879e+00 
13700 5.0373201226e+00 6.3121295097e-03 1.6682992817e+00 -2.8895791181e+00 1.6682992817e+00 2.8895791181e+00 
13800 5.0373163731e+00 6.2378985014e-03 1.6681101067e+00 -2.8892514574e+00 1.6681101067e+00 2.8892514574e+00 
13900 5.0373128205e+00 6.1636109260e-03 1.6679231352e+00 -2.8889276132e+00 1.6679231352e+00 2.8889276132e+00 
14000 5.0373094558e+00 6.0893255617e-03 1.6677383695e+00 -2.8886075898e+00 1.6677383695e+00 2.8886075898e+00 
14100 5.0373062706e+00 6.0150978148e-03 1.6675558105e+00 -2.8882913882e+00 1.6675558105e+00 2.8882913882e+00 
14200 5.0373032569e+00 5.9409798514e-03 1.6673754570e+00 -2.8879790069e+00 1.6673754570e+00 2.8879790069e+00 
14300 5.0373004069e+00 5.8670207253e-03 1.6671973066e+00 -2.8876704412e+00 1.6671973066e+00 2.8876704412e+00 
14400 5.0372977134e+00 5.7932665032e-03 1.6670213551e+00 -2.8873656843e+00 1.6670213551e+00 2.8873656843e+00 
14500 5.0372951692e+00 5.7197603855e-03 1.6668475971e+00 -2.8870647266e+00 1.6668475971e+00 2.8870647266e+00 
14600 5.0372927676e+00 5.6465428253e-03 1.6666760258e+00 -2.8867675565e+00 1.6666760258e+00 2.8867675565e+00 
14700 5.0372905023e+00 5.5736516428e-03 1.6665066334e+00 -2.8864741601e+00 1.6665066334e+00 2.8864741601e+00 
14800 5.0372883672e+00 5.5011221372e-03 1.6663394106e+00 -2.8861845217e+00 1.6663394106e+00 2.8861845217e+00 
14900 5.0372863563e+00 5.4289871953e-03 1.6661743472e+00 -2.8858986236e+00 1.6661743472e+00 2.8858986236e+00 
15000 5.0372844641e+00 5.3572773969e-03 1.6660114321e+00 -2.8856164464e+00 1.6660114321e+00 2.8856164464e+00 
15100 5.0372826852e+00 5.2860211164e-03 1.6658506532e+00 -2.8853379691e+00 1.6658506532e+00 2.8853379691e+00 
15200 5.0372810146e+00 5.2152446227e-03 1.6656919974e+00 -2.8850631692e+00 1.6656919974e+00 2.8850631692e+00 
15300 5.0372794473e+00 5.1449721749e-03 1.6655354509e+00 -2.8847920228e+00 1.6655354509e+00 2.8847920228e+00 
15400 5.0372779786e+00 5.0752261148e-03 1.6653809993e+00 -2.8845245048e+00 1.6653809993e+00 2.8845245048e+00 
15500 5.0372766042e+00 5.0060269578e-03 1.6652286273e+00 -2.8842605888e+00 1.6652286273e+00 2.8842605888e+00 
15600 5.0372753196e+00 4.9373934792e-03 1.6650783191e+00 -2.8840002473e+00 1.6650783191e+00 2.8840002473e+00 
15700 5.0372741208e+00 4.8693427988e-03 1.6649300582e+00 -2.8837434518e+00 1.6649300582e+00 2.8837434518e+00 
15800 5.0372730039e+00 4.8018904623e-03 1.6647838277e+00 -2.8834901732e+00 1.6647838277e+00 2.8834901732e+00 
15900 5.0372719651e+00 4.7350505195e-03 1.6646396101e+00 -2.8832403810e+00 1.6646396101e+00 2.8832403810e+00 
16000 5.0372710008e+00 4.6688356004e-03 1.6644973877e+00 -2.8829940445e+00 1.6644973877e+00 2.8829940445e+00 
16100 5.0372701076e+00 4.6032569882e-03 1.6643571420e+00 -2.8827511319e+00 1.6643571420e+00 2.8827511319e+00 
16200 5.0372692821e+00 4.5383246901e-03 1.6642188546e+00 -2.8825116111e+00 1.6642188546e+00 2.8825116111e+00 
16300 5.0372685213e+00 4.4740475047e-03 1.6640825065e+00 -2.8822754492e+00 1.6640825065e+00 2.8822754492e+00 
16400 5.0372678219e+00 4.4104330879e-03 1.6639480784e+00 -2.8820426130e+00 1.6639480784e+00 2.8820426130e+00 
16500 5.0372671812e+00 4.3474880158e-03 1.6638155510e+00 -2.8818130688e+00 1.6638155510e+00 2.8818130688e+00 
16600 5.0372665964e+00 4.2852178448e-03 1.6636849046e+00 -2.8815867825e+00 1.6636849046e+00 2.8815867825e+00 
16700 5.0372660647e+00 4.2236271703e-03 1.6635561193e+00 -2.8813637199e+00 1.6635561193e+00 2.8813637199e+00 
16800 5.0372655837e+00 4.1627196823e-03 1.6634291752e+00 -2.8811438462e+00 1.6634291752e+00 2.8811438462e+00 
16900 5.0372651508e+00 4.1024982192e-03 1.6633040521e+00 -2.8809271267e+00 1.6633040521e+00 2.8809271267e+00 
17000 5.0372647637e+00 4.0429648192e-03 1.6631807299e+00 -2.8807135263e+00 1.6631807299e+00 2.8807135263e+00 
17100 5.0372644201e+00 3.9841207695e-03 1.6630591882e+00 -2.8805030099e+00 1.6630591882e+00 2.8805030099e+00 
17200 5.0372641180e+00 3.9259666540e-03 1.6629394067e+00 -2.8802955424e+00 1.6629394067e+00 2.8802955424e+00 
17300 5.0372638551e+00 3.8685023978e-03 1.6628213651e+00 -2.8800910883e+00 1.6628213651e+00 2.8800910883e+00 
17400 5.0372636295e+00 3.8117273114e-03 1.6627050430e+00 -2.8798896125e+00 1.6627050430e+00 2.8798896125e+00 
17500 5.0372634392e+00 3.7556401315e-03 1.6625904201e+00 -2.8796910798e+00 1.6625904201e+00 2.8796910798e+00 
17600 5.0372632826e+00 3.7002390607e-03 1.6624774759e+00 -2.8794954547e+00 1.6624774759e+00 2.8794954547e+00 
17700 5.0372631577e+00 3.6455218052e-03 1.6623661903e+00 -2.8793027023e+00 1.6623661903e+00 2.8793027023e+00 
17800 5.0372630629e+00 3.5914856109e-03 1.6622565429e+00 -2.8791127875e+00 1.6622565429e+00 2.8791127875e+00 
17900 5.0372629966e+00 3.5381272977e-03 1.6621485136e+00 -2.8789256753e+00 1.6621485136e+00 2.8789256753e+00 
18000 5.0372629572e+00 3.4854432923e-03 1.6620420824e+00 -2.8787413311e+00 1.6620420824e+00 2.8787413311e+00 
18100 5.0372629433e+00 3.4334296591e-03 1.6619372293e+00 -2.8785597201e+00 1.6619372293e+00 2.8785597201e+00 
18200 5.0372629534e+00 3.3820821299e-03 1.6618339344e+00 -2.8783808080e+00 1.6618339344e+00 2.8783808080e+00 
18300 5.0372629861e+00 3.3313961320e-03 1.6617321779e+00 -2.8782045606e+00 1.6617321779e+00 2.8782045606e+00 
18400 5.0372630401e+00 3.2813668149e-03 1.6616319402e+00 -2.8780309439e+00 1.6616319402e+00 2.8780309439e+00 
18500 5.0372631143e+00 3.2319890756e-03 1.6615332019e+00 -2.8778599242e+00 1.6615332019e+00 2.8778599242e+00 
18600 5.0372632073e+00 3.1832575824e-03 1.6614359436e+00 -2.8776914679e+00 1.6614359436e+00 2.8776914679e+00 
18700 5.0372633180e+00 3.1351667980e-03 1.6613401462e+00 -2.8775255418e+00 1.6613401462e+00 2.8775255418e+00 
18800 5.0372634454e+00 3.0877110003e-03 1.6612457905e+00 -2.8773621130e+00 1.6612457905e+00 2.8773621130e+00 
18900 5.0372635883e+00 3.0408843033e-03 1.6611528578e+00 -2.8772011488e+00 1.6611528578e+00 2.8772011488e+00 
19000 5.0372637458e+00 2.9946806757e-03 1.6610613293e+00 -2.8770426168e+00 1.6610613293e+00 2.8770426168e+00 
19100 5.0372639169e+00 2.9490939595e-03 1.6609711865e+00 -2.8768864849e+00 1.6609711865e+00 2.8768864849e+00 
19200 5.0372641006e+00 2.9041178861e-03 1.6608824111e+00 -2.8767327214e+00 1.6608824111e+00 2.8767327214e+00 
19300 5.0372642962e+00 2.8597460929e-03 1.6607949849e+00 -2.8765812948e+00 1.6607949849e+00 2.8765812948e+00 
19400 5.0372645026e+00 2.8159721381e-03 1.6607088899e+00 -2.8764321740e+00 1.6607088899e+00 2.8764321740e+00 
19500 5.0372647192e+00 2.7727895144e-03 1.6606241084e+00 -2.8762853281e+00 1.6606241084e+00 2.8762853281e+00 
19600 5.0372649452e+00 2.7301916626e-03 1.6605406228e+00 -2.8761407267e+00 1.6605406228e+00 2.8761407267e+00 
19700 5.0372651798e+00 2.6881719833e-03 1.6604584155e+00 -2.8759983395e+00 1.6604584155e+00 2.8759983395e+00 
19800 5.0372654223e+00 2.6467238487e-03 1.6603774695e+00 -2.8758581369e+00 1.6603774695e+00 2.8758581369e+00 
19900 5.0372656721e+00 2.6058406133e-03 1.6602977677e+00 -2.8757200893e+00 1.6602977677e+00 2.8757200893e+00 
20000 5.0372659285e+00 2.5655156233e-03 1.6602192932e+00 -2.8755841675e+00 1.6602192932e+00 2.8755841675e+00 
20100 5.0372661909e+00 2.5257422262e-03 1.6601420294e+00 -2.8754503427e+00 1.6601420294e+00 2.8754503427e+00 
20200 5.0372664587e+00 2.4865137792e-03 1.6600659599e+00 -2.8753185865e+00 1.6600659599e+00 2.8753185865e+00 
20300 5.0372667315e+00 2.4478236568e-03 1.6599910685e+00 -2.8751888707e+00 1.6599910685e+00 2.8751888707e+00 
20400 5.0372670086e+00 2.4096652583e-03 1.6599173390e+00 -2.8750611675e+00 1.6599173390e+00 2.8750611675e+00 
20500 5.0372672895e+00 2.3720320141e-03 1.6598447556e+00 -2.8749354495e+00 1.6598447556e+00 2.8749354495e+00 
20600 5.0372675739e+00 2.3349173920e-03 1.6597733027e+00 -2.8748116894e+00 1.6597733027e+00 2.8748116894e+00 
20700 5.0372678611e+00 2.2983149025e-03 1.6597029648e+00 -2.8746898605e+00 1.6597029648e+00 2.8746898605e+00 
20800 5.0372681509e+00 2.2622181041e-03 1.6596337265e+00 -2.8745699363e+00 1.6596337265e+00 2.8745699363e+00 
20900 5.0372684429e+00 2.2266206074e-03 1.6595655729e+00 -2.8744518907e+00 1.6595655729e+00 2.8744518907e+00 
21000 5.0372687365e+00 2.1915160794e-03 1.6594984889e+00 -2.8743356978e+00 1.6594984889e+00 2.8743356978e+00 
21100 5.0372690315e+00 2.1568982474e-03 1.6594324598e+00 -2.8742213322e+00 1.6594324598e+00 2.8742213322e+00 
21200 5.0372693275e+00 2.1227609017e-03 1.6593674712e+00 -2.8741087686e+00 1.6593674712e+00 2.8741087686e+00 
21300 5.0372696243e+00 2.0890978988e-03 1.6593035087e+00 -2.8739979822e+00 1.6593035087e+00 2.8739979822e+00 
21400 5.0372699214e+00 2.0559031637e-03 1.6592405580e+00 -2.8738889485e+00 1.6592405580e+00 2.8738889485e+00 
21500 5.0372702187e+00 2.0231706923e-03 1.6591786053e+00 -2.8737816432e+00 1.6591786053e+00 2.8737816432e+00 
21600 5.0372705158e+00 1.9908945530e-03 1.6591176366e+00 -2.8736760423e+00 1.6591176366e+00 2.8736760423e+00 
21700 5.0372708124e+00 1.9590688883e-03 1.6590576384e+00 -2.8735721223e+00 1.6590576384e+00 2.8735721223e+00 
21800 5.0372711085e+00 1.9276879163e-03 1.6589985971e+00 -2.8734698599e+00 1.6589985971e+00 2.8734698599e+00 
21900 5.0372714036e+00 1.8967459310e-03 1.6589404995e+00 -2.8733692319e+00 1.6589404995e+00 2.8733692319e+00 
22000 5.0372716976e+00 1.8662373040e-03 1.6588833324e+00 -2.8732702156e+00 1.6588833324e+00 2.8732702156e+00 
22100 5.0372719904e+00 1.8361564843e-03 1.6588270830e+00 -2.8731727887e+00 1.6588270830e+00 2.8731727887e+00 
22200 5.0372722817e+00 1.8064979989e-03 1.6587717382e+00 -2.8730769288e+00 1.6587717382e+00 2.8730769288e+00 
22300 5.0372725713e+00 1.7772564529e-03 1.6587172857e+00 -2.8729826142e+00 1.6587172857e+00 2.8729826142e+00 
22400 5.0372728592e+00 1.7484265294e-03 1.6586637127e+00 -2.8728898231e+00 1.6586637127e+00 2.8728898231e+00 
22500 5.0372731451e+00 1.7200029895e-03 1.6586110071e+00 -2.8727985343e+00 1.6586110071e+00 2.8727985343e+00 
22600 5.0372734289e+00 1.6919806714e-03 1.6585591567e+00 -2.8727087268e+00 1.6585591567e+00 2.8727087268e+00 
22700 5.0372737104e+00 1.6643544904e-03 1.6585081494e+00 -2.8726203795e+00 1.6585081494e+00 2.8726203795e+00 
22800 5.0372739897e+00 1.6371194380e-03 1.6584579734e+00 -2.8725334722e+00 1.6584579734e+00 2.8725334722e+00 
22900 5.0372742664e+00 1.6102705814e-03 1.6584086170e+00 -2.8724479843e+00 1.6584086170e+00 2.8724479843e+00 
23000 5.0372745407e+00 1.5838030621e-03 1.6583600685e+00 -2.8723638960e+00 1.6583600685e+00 2.8723638960e+00 
23100 5.0372748123e+00 1.5577120956e-03 1.6583123167e+00 -2.8722811873e+00 1.6583123167e+00 2.8722811873e+00 
23200 5.0372750811e+00 1.5319929699e-03 1.6582653501e+00 -2.8721998388e+00 1.6582653501e+00 2.8721998388e+00 
23300 5.0372753472e+00 1.5066410445e-03 1.6582191577e+00 -2.8721198312e+00 1.6582191577e+00 2.8721198312e+00 
23400 5.0372756104e+00 1.4816517494e-03 1.6581737284e+00 -2.8720411454e+00 1.6581737284e+00 2.8720411454e+00 
23500 5.0372758706e+00 1.4570205834e-03 1.6581290514e+00 -2.8719637625e+00 1.6581290514e+00 2.8719637625e+00 
23600 5.0372761279e+00 1.4327431136e-03 1.6580851159e+00 -2.8718876640e+00 1.6580851159e+00 2.8718876640e+00 
23700 5.0372763821e+00 1.4088149730e-03 1.6580419114e+00 -2.8718128315e+00 1.6580419114e+00 2.8718128315e+00 
23800 5.0372766333e+00 1.3852318602e-03 1.6579994272e+00 -2.8717392469e+00 1.6579994272e+00 2.8717392469e+00 
23900 5.0372768813e+00 1.3619895373e-03 1.6579576532e+00 -2.8716668922e+00 1.6579576532e+00 2.8716668922e+00 
24000 5.0372771262e+00 1.3390838286e-03 1.6579165791e+00 -2.8715957497e+00 1.6579165791e+00 2.8715957497e+00 
24100 5.0372773679e+00 1.3165106196e-03 1.6578761947e+00 -2.8715258019e+00 1.6578761947e+00 2.8715258019e+00 
24200 5.0372776063e+00 1.2942658549e-03 1.6578364901e+00 -2.8714570315e+00 1.6578364901e+00 2.8714570315e+00 
24300 5.0372778416e+00 1.2723455372e-03 1.6577974555e+00 -2.8713894216e+00 1.6577974555e+00 2.8713894216e+00 
24400 5.0372780736e+00 1.2507457258e-03 1.6577590811e+00 -2.8713229551e+00 1.6577590811e+00 2.8713229551e+00 
24500 5.0372783024e+00 1.2294625348e-03 1.6577213572e+00 -2.8712576155e+00 1.6577213572e+00 2.8712576155e+00 
24600 5.0372785279e+00 1.2084921323e-03 1.6576842744e+00 -2.8711933862e+00 1.6576842744e+00 2.8711933862e+00 
24700 5.0372787501e+00 1.1878307383e-03 1.6576478234e+00 -2.8711302511e+00 1.6576478234e+00 2.8711302511e+00 
24800 5.0372789691e+00 1.1674746238e-03 1.6576119947e+00 -2.8710681940e+00 1.6576119947e+00 2.8710681940e+00 
24900 5.0372791849e+00 1.1474201089e-03 1.6575767793e+00 -2.8710071991e+00 1.6575767793e+00 2.8710071991e+00 
25000 5.0372793973e+00 1.1276635619e-03 1.6575421680e+00 -2.8709472507e+00 1.6575421680e+00 2.8709472507e+00 
25100 5.0372796066e+00 1.1082013977e-03 1.6575081520e+00 -2.8708883332e+00 1.6575081520e+00 2.8708883332e+00 
25200 5.0372798126e+00 1.0890300766e-03 1.6574747224e+00 -2.8708304314e+00 1.6574747224e+00 2.8708304314e+00 
25300 5.0372800154e+00 1.0701461026e-03 1.6574418704e+00 -2.8707735301e+00 1.6574418704e+00 2.8707735301e+00 
25400 5.0372802149e+00 1.0515460228e-03 1.6574095874e+00 -2.8707176144e+00 1.6574095874e+00 2.8707176144e+00 
25500 5.0372804113e+00 1.0332264256e-03 1.6573778649e+00 -2.8706626694e+00 1.6573778649e+00 2.8706626694e+00 
25600 5.0372806045e+00 1.0151839395e-03 1.6573466945e+00 -2.8706086807e+00 1.6573466945e+00 2.8706086807e+00 
25700 5.0372807946e+00 9.9741523228e-04 1.6573160678e+00 -2.8705556337e+00 1.6573160678e+00 2.8705556337e+00 
25800 5.0372809815e+00 9.7991700969e-04 1.6572859766e+00 -2.8705035142e+00 1.6572859766e+00 2.8705035142e+00 
25900 5.0372811654e+00 9.6268601420e-04 1.6572564128e+00 -2.8704523082e+00 1.6572564128e+00 2.8704523082e+00 
26000 5.0372813461e+00 9.4571902406e-04 1.6572273683e+00 -2.8704020017e+00 1.6572273683e+00 2.8704020017e+00 
26100 5.0372815239e+00 9.2901285221e-04 1.6571988353e+00 -2.8703525809e+00 1.6571988353e+00 2.8703525809e+00 
26200 5.0372816986e+00 9.1256434532e-04 1.6571708057e+00 -2.8703040323e+00 1.6571708057e+00 2.8703040323e+00 
26300 5.0372818703e+00 8.9637038282e-04 1.6571432720e+00 -2.8702563425e+00 1.6571432720e+00 2.8702563425e+00 
26400 5.0372820390e+00 8.8042787593e-04 1.6571162264e+00 -2.8702094982e+00 1.6571162264e+00 2.8702094982e+00 
26500 5.0372822048e+00 8.6473376683e-04 1.6570896614e+00 -2.8701634863e+00 1.6570896614e+00 2.8701634863e+00 
26600 5.0372823677e+00 8.4928502775e-04 1.6570635695e+00 -2.8701182938e+00 1.6570635695e+00 2.8701182938e+00 
26700 5.0372825277e+00 8.3407866021e-04 1.6570379434e+00 -2.8700739081e+00 1.6570379434e+00 2.8700739081e+00 
26800 5.0372826850e+00 8.1911169422e-04 1.6570127757e+00 -2.8700303163e+00 1.6570127757e+00 2.8700303163e+00 
26900 5.0372828394e+00 8.0438118755e-04 1.6569880593e+00 -2.8699875062e+00 1.6569880593e+00 2.8699875062e+00 
27000 5.0372829910e+00 7.8988422499e-04 1.6569637869e+00 -2.8699454653e+00 1.6569637869e+00 2.8699454653e+00 
27100 5.0372831399e+00 7.7561791774e-04 1.6569399517e+00 -2.8699041814e+00 1.6569399517e+00 2.8699041814e+00 
27200 5.0372832861e+00 7.6157940275e-04 1.6569165466e+00 -2.8698636426e+00 1.6569165466e+00 2.8698636426e+00 
27300 5.0372834296e+00 7.4776584214e-04 1.6568935648e+00 -2.8698238370e+00 1.6568935648e+00 2.8698238370e+00 
27400 5.0372835706e+00 7.3417442259e-04 1.6568709996e+00 -2.8697847529e+00 1.6568709996e+00 2.8697847529e+00 
27500 5.0372837089e+00 7.2080235487e-04 1.6568488442e+00 -2.8697463786e+00 1.6568488442e+00 2.8697463786e+00 
27600 5.0372838446e+00 7.0764687334e-04 1.6568270920e+00 -2.8697087028e+00 1.6568270920e+00 2.8697087028e+00 
27700 5.0372839779e+00 6.9470523543e-04 1.6568057366e+00 -2.8696717141e+00 1.6568057366e+00 2.8696717141e+00 
27800 5.0372841087e+00 6.8197472127e-04 1.6567847715e+00 -2.8696354014e+00 1.6567847715e+00 2.8696354014e+00 
27900 5.0372842370e+00 6.6945263325e-04 1.6567641902e+00 -2.8695997536e+00 1.6567641902e+00 2.8695997536e+00 
28000 5.0372843629e+00 6.5713629567e-04 1.6567439866e+00 -2.8695647600e+00 1.6567439866e+00 2.8695647600e+00 
28100 5.0372844864e+00 6.4502305439e-04 1.6567241545e+00 -2.8695304098e+00 1.6567241545e+00 2.8695304098e+00 
28200 5.0372846076e+00 6.3311027648e-04 1.6567046877e+00 -2.8694966923e+00 1.6567046877e+00 2.8694966923e+00 
28300 5.0372847265e+00 6.2139534997e-04 1.6566855803e+00 -2.8694635972e+00 1.6566855803e+00 2.8694635972e+00 
28400 5.0372848431e+00 6.0987568358e-04 1.6566668261e+00 -2.8694311141e+00 1.6566668261e+00 2.8694311141e+00 
28500 5.0372849575e+00 5.9854870645e-04 1.6566484194e+00 -2.8693992328e+00 1.6566484194e+00 2.8693992328e+00 
28600 5.0372850696e+00 5.8741186795e-04 1.6566303544e+00 -2.8693679432e+00 1.6566303544e+00 2.8693679432e+00 
28700 5.0372851797e+00 5.7646263746e-04 1.6566126253e+00 -2.8693372356e+00 1.6566126253e+00 2.8693372356e+00 
28800 5.0372852876e+00 5.6569850422e-04 1.6565952265e+00 -2.8693070999e+00 1.6565952265e+00 2.8693070999e+00 
28900 5.0372853934e+00 5.5511697716e-04 1.6565781524e+00 -2.8692775267e+00 1.6565781524e+00 2.8692775267e+00 
29000 5.0372854971e+00 5.4471558476e-04 1.6565613975e+00 -2.8692485064e+00 1.6565613975e+00 2.8692485064e+00 
29100 5.0372855988e+00 5.3449187496e-04 1.6565449564e+00 -2.8692200295e+00 1.6565449564e+00 2.8692200295e+00 
29200 5.0372856986e+00 5.2444341501e-04 1.6565288237e+00 -2.8691920869e+00 1.6565288237e+00 2.8691920869e+00 
29300 5.0372857963e+00 5.1456779145e-04 1.6565129941e+00 -2.8691646693e+00 1.6565129941e+00 2.8691646693e+00 
29400 5.0372858922e+00 5.0486260999e-04 1.6564974625e+00 -2.8691377677e+00 1.6564974625e+00 2.8691377677e+00 
29500 5.0372859862e+00 4.9532549550e-04 1.6564822237e+00 -2.8691113732e+00 1.6564822237e+00 2.8691113732e+00 
29600 5.0372860783e+00 4.8595409191e-04 1.6564672726e+00 -2.8690854772e+00 1.6564672726e+00 2.8690854772e+00 
29700 5.0372861686e+00 4.7674606225e-04 1.6564526042e+00 -2.8690600708e+00 1.6564526042e+00 2.8690600708e+00 
29800 5.0372862570e+00 4.6769908859e-04 1.6564382137e+00 -2.8690351456e+00 1.6564382137e+00 2.8690351456e+00 
29900 5.0372863438e+00 4.5881087205e-04 1.6564240961e+00 -2.8690106933e+00 1.6564240961e+00 2.8690106933e+00 
30000 5.0372864288e+00 4.5007913281e-04 1.6564102466e+00 -2.8689867054e+00 1.6564102466e+00 2.8689867054e+00 
30100 5.0372865121e+00 4.4150161010e-04 1.6563966607e+00 -2.8689631738e+00 1.6563966607e+00 2.8689631738e+00 
30200 5.0372865937e+00 4.3307606225e-04 1.6563833335e+00 -2.8689400905e+00 1.6563833335e+00 2.8689400905e+00 
30300 5.0372866737e+00 4.2480026670e-04 1.6563702606e+00 -2.8689174475e+00 1.6563702606e+00 2.8689174475e+00 
30400 5.0372867521e+00 4.1667202005e-04 1.6563574374e+00 -2.8688952371e+00 1.6563574374e+00 2.8688952371e+00 
30500 5.0372868289e+00 4.0868913808e-04 1.6563448594e+00 -2.8688734514e+00 1.6563448594e+00 2.8688734514e+00 
30600 5.0372869042e+00 4.0084945584e-04 1.6563325224e+00 -2.8688520830e+00 1.6563325224e+00 2.8688520830e+00 
30700 5.0372869780e+00 3.9315082763e-04 1.6563204219e+00 -2.8688311243e+00 1.6563204219e+00 2.8688311243e+00 
30800 5.0372870502e+00 3.8559112714e-04 1.6563085537e+00 -2.8688105680e+00 1.6563085537e+00 2.8688105680e+00 
30900 5.0372871210e+00 3.7816824743e-04 1.6562969136e+00 -2.8687904068e+00 1.6562969136e+00 2.8687904068e+00 
31000 5.0372871904e+00 3.7088010104e-04 1.6562854976e+00 -2.8687706336e+00 1.6562854976e+00 2.8687706336e+00 
31100 5.0372872583e+00 3.6372462003e-04 1.6562743014e+00 -2.8687512414e+00 1.6562743014e+00 2.8687512414e+00 
31200 5.0372873249e+00 3.5669975606e-04 1.6562633213e+00 -2.8687322231e+00 1.6562633213e+00 2.8687322231e+00 
31300 5.0372873901e+00 3.4980348043e-04 1.6562525531e+00 -2.8687135721e+00 1.6562525531e+00 2.8687135721e+00 
31400 5.0372874540e+00 3.4303378417e-04 1.6562419930e+00 -2.8686952815e+00 1.6562419930e+00 2.8686952815e+00 
31500 5.0372875166e+00 3.3638867809e-04 1.6562316372e+00 -2.8686773447e+00 1.6562316372e+00 2.8686773447e+00 
31600 5.0372875779e+00 3.2986619283e-04 1.6562214820e+00 -2.8686597554e+00 1.6562214820e+00 2.8686597554e+00 
31700 5.0372876379e+00 3.2346437895e-04 1.6562115236e+00 -2.8686425069e+00 1.6562115236e+00 2.8686425069e+00 
31800 5.0372876967e+00 3.1718130696e-04 1.6562017584e+00 -2.8686255931e+00 1.6562017584e+00 2.8686255931e+00 
31900 5.0372877543e+00 3.1101506741e-04 1.6561921828e+00 -2.8686090078e+00 1.6561921828e+00 2.8686090078e+00 
32000 5.0372878108e+00 3.0496377091e-04 1.6561827934e+00 -2.8685927448e+00 1.6561827934e+00 2.8685927448e+00 
32100 5.0372878660e+00 2.9902554823e-04 1.6561735866e+00 -2.8685767981e+00 1.6561735866e+00 2.8685767981e+00 
32200 5.0372879202e+00 2.9319855027e-04 1.6561645590e+00 -2.8685611619e+00 1.6561645590e+00 2.8685611619e+00 
32300 5.0372879732e+00 2.8748094819e-04 1.6561557073e+00 -2.8685458302e+00 1.6561557073e+00 2.8685458302e+00 
32400 5.0372880251e+00 2.8187093341e-04 1.6561470281e+00 -2.8685307975e+00 1.6561470281e+00 2.8685307975e+00 
32500 5.0372880760e+00 2.7636671764e-04 1.6561385183e+00 -2.8685160580e+00 1.6561385183e+00 2.8685160580e+00 
32600 5.0372881258e+00 2.7096653294e-04 1.6561301746e+00 -2.8685016063e+00 1.6561301746e+00 2.8685016063e+00 
32700 5.0372881746e+00 2.6566863172e-04 1.6561219939e+00 -2.8684874369e+00 1.6561219939e+00 2.8684874369e+00 
32800 5.0372882223e+00 2.6047128677e-04 1.6561139731e+00 -2.8684735445e+00 1.6561139731e+00 2.8684735445e+00 
32900 5.0372882691e+00 2.5537279132e-04 1.6561061091e+00 -2.8684599238e+00 1.6561061091e+00 2.8684599238e+00 
33000 5.0372883149e+00 2.5037145898e-04 1.6560983991e+00 -2.8684465696e+00 1.6560983991e+00 2.8684465696e+00 
33100 5.0372883598e+00 2.4546562381e-04 1.6560908400e+00 -2.8684334769e+00 1.6560908400e+00 2.8684334769e+00 
33200 5.0372884037e+00 2.4065364029e-04 1.6560834290e+00 -2.8684206407e+00 1.6560834290e+00 2.8684206407e+00 
33300 5.0372884468e+00 2.3593388333e-04 1.6560761633e+00 -2.8684080560e+00 1.6560761633e+00 2.8684080560e+00 
33400 5.0372884889e+00 2.3130474826e-04 1.6560690400e+00 -2.8683957182e+00 1.6560690400e+00 2.8683957182e+00 
33500 5.0372885302e+00 2.2676465080e-04 1.6560620565e+00 -2.8683836223e+00 1.6560620565e+00 2.8683836223e+00 
33600 5.0372885706e+00 2.2231202708e-04 1.6560552100e+00 -2.8683717638e+00 1.6560552100e+00 2.8683717638e+00 
33700 5.0372886101e+00 2.1794533357e-04 1.6560484979e+00 -2.8683601382e+00 1.6560484979e+00 2.8683601382e+00 
33800 5.0372886489e+00 2.1366304706e-04 1.6560419176e+00 -2.8683487408e+00 1.6560419176e+00 2.8683487408e+00 
33900 5.0372886868e+00 2.0946366464e-04 1.6560354666e+00 -2.8683375673e+00 1.6560354666e+00 2.8683375673e+00 
34000 5.0372887240e+00 2.0534570364e-04 1.6560291424e+00 -2.8683266134e+00 1.6560291424e+00 2.8683266134e+00 
34100 5.0372887604e+00 2.0130770159e-04 1.6560229424e+00 -2.8683158748e+00 1.6560229424e+00 2.8683158748e+00 
34200 5.0372887960e+00 1.9734821615e-04 1.6560168644e+00 -2.8683053473e+00 1.6560168644e+00 2.8683053473e+00 
34300 5.0372888309e+00 1.9346582506e-04 1.6560109059e+00 -2.8682950268e+00 1.6560109059e+00 2.8682950268e+00 
34400 5.0372888651e+00 1.8965912608e-04 1.6560050645e+00 -2.8682849094e+00 1.6560050645e+00 2.8682849094e+00 
34500 5.0372888985e+00 1.8592673691e-04 1.6559993381e+00 -2.8682749910e+00 1.6559993381e+00 2.8682749910e+00 
34600 5.0372889313e+00 1.8226729509e-04 1.6559937244e+00 -2.8682652677e+00 1.6559937244e+00 2.8682652677e+00 
34700 5.0372889634e+00 1.7867945795e-04 1.6559882212e+00 -2.8682557358e+00 1.6559882212e+00 2.8682557358e+00 
34800 5.0372889948e+00 1.7516190252e-04 1.6559828262e+00 -2.8682463915e+00 1.6559828262e+00 2.8682463915e+00 
34900 5.0372890256e+00 1.7171332539e-04 1.6559775375e+00 -2.8682372311e+00 1.6559775375e+00 2.8682372311e+00 
35000 5.0372890557e+00 1.6833244266e-04 1.6559723528e+00 -2.8682282510e+00 1.6559723528e+00 2.8682282510e+00 
35100 5.0372890852e+00 1.6501798981e-04 1.6559672702e+00 -2.8682194477e+00 1.6559672702e+00 2.8682194477e+00 
35200 5.0372891141e+00 1.6176872159e-04 1.6559622877e+00 -2.8682108177e+00 1.6559622877e+00 2.8682108177e+00 
35300 5.0372891424e+00 1.5858341192e-04 1.6559574033e+00 -2.8682023576e+00 1.6559574033e+00 2.8682023576e+00 
35400 5.0372891701e+00 1.5546085374e-04 1.6559526150e+00 -2.8681940641e+00 1.6559526150e+00 2.8681940641e+00 
35500 5.0372891972e+00 1.5239985892e-04 1.6559479210e+00 -2.8681859339e+00 1.6559479210e+00 2.8681859339e+00 
35600 5.0372892238e+00 1.4939925809e-04 1.6559433194e+00 -2.8681779637e+00 1.6559433194e+00 2.8681779637e+00 
35700 5.0372892498e+00 1.4645790054e-04 1.6559388084e+00 -2.8681701504e+00 1.6559388084e+00 2.8681701504e+00 
35800 5.0372892752e+00 1.4357465405e-04 1.6559343862e+00 -2.8681624909e+00 1.6559343862e+00 2.8681624909e+00 
35900 5.0372893002e+00 1.4074840480e-04 1.6559300511e+00 -2.8681549822e+00 1.6559300511e+00 2.8681549822e+00 
36000 5.0372893246e+00 1.3797805714e-04 1.6559258012e+00 -2.8681476213e+00 1.6559258012e+00 2.8681476213e+00 
36100 5.0372893485e+00 1.3526253351e-04 1.6559216350e+00 -2.8681404053e+00 1.6559216350e+00 2.8681404053e+00 
36200 5.0372893720e+00 1.3260077426e-04 1.6559175508e+00 -2.8681333312e+00 1.6559175508e+00 2.8681333312e+00 
36300 5.0372893949e+00 1.2999173747e-04 1.6559135470e+00 -2.8681263963e+00 1.6559135470e+00 2.8681263963e+00 
36400 5.0372894174e+00 1.2743439884e-04 1.6559096219e+00 -2.8681195979e+00 1.6559096219e+00 2.8681195979e+00 
36500 5.0372894394e+00 1.2492775146e-04 1.6559057741e+00 -2.8681129332e+00 1.6559057741e+00 2.8681129332e+00 
36600 5.0372894609e+00 1.2247080569e-04 1.6559020019e+00 -2.8681063996e+00 1.6559020019e+00 2.8681063996e+00 
36700 5.0372894820e+00 1.2006258897e-04 1.6558983039e+00 -2.8680999945e+00 1.6558983039e+00 2.8680999945e+00 
36800 5.0372895027e+00 1.1770214564e-04 1.6558946786e+00 -2.8680937153e+00 1.6558946786e+00 2.8680937153e+00 
36900 5.0372895229e+00 1.1538853678e-04 1.6558911245e+00 -2.8680875595e+00 1.6558911245e+00 2.8680875595e+00 
37000 5.0372895428e+00 1.1312084000e-04 1.6558876403e+00 -2.8680815247e+00 1.6558876403e+00 2.8680815247e+00 
37100 5.0372895622e+00 1.1089814931e-04 1.6558842246e+00 -2.8680756085e+00 1.6558842246e+00 2.8680756085e+00 
37200 5.0372895812e+00 1.0871957487e-04 1.6558808760e+00 -2.8680698086e+00 1.6558808760e+00 2.8680698086e+00 
37300 5.0372895998e+00 1.0658424285e-04 1.6558775932e+00 -2.8680641225e+00 1.6558775932e+00 2.8680641225e+00 
37400 5.0372896180e+00 1.0449129523e-04 1.6558743748e+00 -2.8680585482e+00 1.6558743748e+00 2.8680585482e+00 
37500 5.0372896359e+00 1.0243988960e-04 1.6558712197e+00 -2.8680530833e+00 1.6558712197e+00 2.8680530833e+00 
37600 5.0372896534e+00 1.0042919900e-04 1.6558681264e+00 -2.8680477256e+00 1.6558681264e+00 2.8680477256e+00 
37700 5.0372896705e+00 9.8458411663e-05 1.6558650939e+00 -2.8680424731e+00 1.6558650939e+00 2.8680424731e+00 
37800 5.0372896873e+00 9.6526730894e-05 1.6558621209e+00 -2.8680373237e+00 1.6558621209e+00 2.8680373237e+00 
37900 5.0372897038e+00 9.4633374830e-05 1.6558592062e+00 -2.8680322753e+00 1.6558592062e+00 2.8680322753e+00 
38000 5.0372897199e+00 9.2777576255e-05 1.6558563487e+00 -2.8680273259e+00 1.6558563487e+00 2.8680273259e+00 
38100 5.0372897357e+00 9.0958582403e-05 1.6558535472e+00 -2.8680224736e+00 1.6558535472e+00 2.8680224736e+00 
38200 5.0372897511e+00 8.9175654760e-05 1.6558508006e+00 -2.8680177164e+00 1.6558508006e+00 2.8680177164e+00 
38300 5.0372897662e+00 8.7428068866e-05 1.6558481078e+00 -2.8680130524e+00 1.6558481078e+00 2.8680130524e+00 
38400 5.0372897811e+00 8.5715114114e-05 1.6558454679e+00 -2.8680084798e+00 1.6558454679e+00 2.8680084798e+00 
38500 5.0372897956e+00 8.4036093553e-05 1.6558428796e+00 -2.8680039968e+00 1.6558428796e+00 2.8680039968e+00 
38600 5.0372898098e+00 8.2390323686e-05 1.6558403421e+00 -2.8679996017e+00 1.6558403421e+00 2.8679996017e+00 
38700 5.0372898238e+00 8.0777134276e-05 1.6558378542e+00 -2.8679952925e+00 1.6558378542e+00 2.8679952925e+00 
38800 5.0372898374e+00 7.9195868138e-05 1.6558354150e+00 -2.8679910678e+00 1.6558354150e+00 2.8679910678e+00 
38900 5.0372898508e+00 7.7645880947e-05 1.6558330236e+00 -2.8679869257e+00 1.6558330236e+00 2.8679869257e+00 
39000 5.0372898639e+00 7.6126541034e-05 1.6558306790e+00 -2.8679828647e+00 1.6558306790e+00 2.8679828647e+00 
39100 5.0372898767e+00 7.4637229196e-05 1.6558283802e+00 -2.8679788832e+00 1.6558283802e+00 2.8679788832e+00 
39200 5.0372898893e+00 7.3177338485e-05 1.6558261265e+00 -2.8679749796e+00 1.6558261265e+00 2.8679749796e+00 
39300 5.0372899016e+00 7.1746274025e-05 1.6558239168e+00 -2.8679711523e+00 1.6558239168e+00 2.8679711523e+00 
39400 5.0372899137e+00 7.0343452802e-05 1.6558217503e+00 -2.8679673998e+00 1.6558217503e+00 2.8679673998e+00 
39500 5.0372899257e+00 7.0400628745e-05 1.6558217503e+00 -2.8679673998e+00 1.6558217503e+00 2.8679673998e+00 
39600 5.0372899375e+00 7.0465742794e-05 1.6558217503e+00 -2.8679673998e+00 1.6558217503e+00 2.8679673998e+00 
39700 5.0372899490e+00 7.0538449505e-05 1.6558217503e+00 -2.8679673998e+00 1.6558217503e+00 2.8679673998e+00 
39800 5.0372899603e+00 7.0618406293e-05 1.6558217503e+00 -2.8679673998e+00 1.6558217503e+00 2.8679673998e+00 
39900 5.0372899713e+00 7.0705273902e-05 1.6558217503e+00 -2.8679673998e+00 1.6558217503e+00 2.8679673998e+00 
40000 5.0372899821e+00 7.0798716853e-05 1.6558217503e+00 -2.8679673998e+00 1.6558217503e+00 2.8679673998e+00 
40100 5.0372899926e+00 6.9456813179e-05 1.6558196124e+00 -2.8679636969e+00 1.6558196124e+00 2.8679636969e+00 
40200 5.0372900030e+00 6.9553537783e-05 1.6558196124e+00 -2.8679636969e+00 1.6558196124e+00 2.8679636969e+00 
40300 5.0372900132e+00 6.9656035257e-05 1.6558196124e+00 -2.8679636969e+00 1.6558196124e+00 2.8679636969e+00 
40400 5.0372900231e+00 6.9763992970e-05 1.6558196124e+00 -2.8679636969e+00 1.6558196124e+00 2.8679636969e+00 
40500 5.0372900329e+00 6.9877103318e-05 1.6558196124e+00 -2.8679636969e+00 1.6558196124e+00 2.8679636969e+00 
40600 5.0372900425e+00 6.9995064008e-05 1.6558196124e+00 -2.8679636969e+00 1.6558196124e+00 2.8679636969e+00 
40700 5.0372900519e+00 7.0117578330e-05 1.6558196124e+00 -2.8679636969e+00 1.6558196124e+00 2.8679636969e+00 
40800 5.0372900611e+00 7.0244355385e-05 1.6558196124e+00 -2.8679636969e+00 1.6558196124e+00 2.8679636969e+00 
40900 5.0372900701e+00 7.0375110307e-05 1.6558196124e+00 -2.8679636969e+00 1.6558196124e+00 2.8679636969e+00 
41000 5.0372900789e+00 7.0509564452e-05 1.6558196124e+00 -2.8679636969e+00 1.6558196124e+00 2.8679636969e+00 
41100 5.0372900876e+00 7.0647445570e-05 1.6558196124e+00 -2.8679636969e+00 1.6558196124e+00 2.8679636969e+00 
41200 5.0372900960e+00 7.0788487950e-05 1.6558196124e+00 -2.8679636969e+00 1.6558196124e+00 2.8679636969e+00 
41300 5.0372901042e+00 6.9491046991e-05 1.6558174749e+00 -2.8679599945e+00 1.6558174749e+00 2.8679599945e+00 
41400 5.0372901123e+00 6.9628762737e-05 1.6558174749e+00 -2.8679599945e+00 1.6558174749e+00 2.8679599945e+00 
41500 5.0372901203e+00 6.9769060387e-05 1.6558174749e+00 -2.8679599945e+00 1.6558174749e+00 2.8679599945e+00 
41600 5.0372901281e+00 6.9911705447e-05 1.6558174749e+00 -2.8679599945e+00 1.6558174749e+00 2.8679599945e+00 
41700 5.0372901358e+00 7.0056469924e-05 1.6558174749e+00 -2.8679599945e+00 1.6558174749e+00 2.8679599945e+00 
41800 5.0372901433e+00 7.0203132387e-05 1.6558174749e+00 -2.8679599945e+00 1.6558174749e+00 2.8679599945e+00 
41900 5.0372901507e+00 7.0351478018e-05 1.6558174749e+00 -2.8679599945e+00 1.6558174749e+00 2.8679599945e+00 
42000 5.0372901579e+00 7.0501298647e-05 1.6558174749e+00 -2.8679599945e+00 1.6558174749e+00 2.8679599945e+00 
42100 5.0372901650e+00 7.0652392773e-05 1.6558174749e+00 -2.8679599945e+00 1.6558174749e+00 2.8679599945e+00 
42200 5.0372901719e+00 7.0804565572e-05 1.6558174749e+00 -2.8679599945e+00 1.6558174749e+00 2.8679599945e+00 
42300 5.0372901785e+00 6.9515907110e-05 1.6558153368e+00 -2.8679562913e+00 1.6558153368e+00 2.8679562913e+00 
42400 5.0372901852e+00 6.9660798493e-05 1.6558153368e+00 -2.8679562913e+00 1.6558153368e+00 2.8679562913e+00 
42500 5.0372901917e+00 6.9806401399e-05 1.6558153368e+00 -2.8679562913e+00 1.6558153368e+00 2.8679562913e+00 
42600 5.0372901981e+00 6.9952551508e-05 1.6558153368e+00 -2.8679562913e+00 1.6558153368e+00 2.8679562913e+00 
42700 5.0372902044e+00 7.0099090549e-05 1.6558153368e+00 -2.8679562913e+00 1.6558153368e+00 2.8679562913e+00 
42800 5.0372902106e+00 7.0245866254e-05 1.6558153368e+00 -2.8679562913e+00 1.6558153368e+00 2.8679562913e+00 
42900 5.0372902166e+00 7.0392732328e-05 1.6558153368e+00 -2.8679562913e+00 1.6558153368e+00 2.8679562913e+00 
43000 5.0372902225e+00 7.0539548394e-05 1.6558153368e+00 -2.8679562913e+00 1.6558153368e+00 2.8679562913e+00 
43100 5.0372902283e+00 7.0686179934e-05 1.6558153368e+00 -2.8679562913e+00 1.6558153368e+00 2.8679562913e+00 
43200 5.0372902340e+00 7.0832498227e-05 1.6558153368e+00 -2.8679562913e+00 1.6558153368e+00 2.8679562913e+00 
43300 5.0372902394e+00 6.9536077739e-05 1.6558131979e+00 -2.8679525866e+00 1.6558131979e+00 2.8679525866e+00 
43400 5.0372902449e+00 6.9672521731e-05 1.6558131979e+00 -2.8679525866e+00 1.6558131979e+00 2.8679525866e+00 
43500 5.0372902502e+00 6.9808477763e-05 1.6558131979e+00 -2.8679525866e+00 1.6558131979e+00 2.8679525866e+00 
43600 5.0372902555e+00 6.9943843481e-05 1.6558131979e+00 -2.8679525866e+00 1.6558131979e+00 2.8679525866e+00 
43700 5.0372902606e+00 7.0078521405e-05 1.6558131979e+00 -2.8679525866e+00 1.6558131979e+00 2.8679525866e+00 
43800 5.0372902657e+00 7.0212418865e-05 1.6558131979e+00 -2.8679525866e+00 1.6558131979e+00 2.8679525866e+00 
43900 5.0372902706e+00 7.0345447905e-05 1.6558131979e+00 -2.8679525866e+00 1.6558131979e+00 2.8679525866e+00 
44000 5.0372902755e+00 7.0477525215e-05 1.6558131979e+00 -2.8679525866e+00 1.6558131979e+00 2.8679525866e+00 
44100 5.0372902803e+00 7.0608572035e-05 1.6558131979e+00 -2.8679525866e+00 1.6558131979e+00 2.8679525866e+00 
44200 5.0372902849e+00 7.0738514064e-05 1.6558131979e+00 -2.8679525866e+00 1.6558131979e+00 2.8679525866e+00 
44300 5.0372902893e+00 6.9426878685e-05 1.6558110618e+00 -2.8679488868e+00 1.6558110618e+00 2.8679488868e+00 
44400 5.0372902938e+00 6.9545533028e-05 1.6558110618e+00 -2.8679488868e+00 1.6558110618e+00 2.8679488868e+00 
44500 5.0372902983e+00 6.9663062675e-05 1.6558110618e+00 -2.8679488868e+00 1.6558110618e+00 2.8679488868e+00 
44600 5.0372903026e+00 6.9779414169e-05 1.6558110618e+00 -2.8679488868e+00 1.6558110618e+00 2.8679488868e+00 
44700 5.0372903068e+00 6.9894537518e-05 1.6558110618e+00 -2.8679488868e+00 1.6558110618e+00 2.8679488868e+00 
44800 5.0372903110e+00 7.0008386117e-05 1.6558110618e+00 -2.8679488868e+00 1.6558110618e+00 2.8679488868e+00 
44900 5.0372903151e+00 7.0120916667e-05 1.6558110618e+00 -2.8679488868e+00 1.6558110618e+00 2.8679488868e+00 
45000 5.0372903191e+00 7.0232089087e-05 1.6558110618e+00 -2.8679488868e+00 1.6558110618e+00 2.8679488868e+00 
45100 5.0372903230e+00 7.0341866429e-05 1.6558110618e+00 -2.8679488868e+00 1.6558110618e+00 2.8679488868e+00 
45200 5.0372903269e+00 7.0450214797e-05 1.6558110618e+00 -2.8679488868e+00 1.6558110618e+00 2.8679488868e+00 
45300 5.0372903306e+00 7.0557103253e-05 1.6558110618e+00 -2.8679488868e+00 1.6558110618e+00 2.8679488868e+00 
45400 5.0372903344e+00 7.0662503735e-05 1.6558110618e+00 -2.8679488868e+00 1.6558110618e+00 2.8679488868e+00 
45500 5.0372903380e+00 7.0766390965e-05 1.6558110618e+00 -2.8679488868e+00 1.6558110618e+00 2.8679488868e+00 
45600 5.0372903414e+00 6.9427754324e-05 1.6558089249e+00 -2.8679451856e+00 1.6558089249e+00 2.8679451856e+00 
45700 5.0372903449e+00 6.9519674013e-05 1.6558089249e+00 -2.8679451856e+00 1.6558089249e+00 2.8679451856e+00 
45800 5.0372903483e+00 6.9610197664e-05 1.6558089249e+00 -2.8679451856e+00 1.6558089249e+00 2.8679451856e+00 
45900 5.0372903517e+00 6.9699314213e-05 1.6558089249e+00 -2.8679451856e+00 1.6558089249e+00 2.8679451856e+00 
46000 5.0372903550e+00 6.9787014438e-05 1.6558089249e+00 -2.8679451856e+00 1.6558089249e+00 2.8679451856e+00 
46100 5.0372903582e+00 6.9873290895e-05 1.6558089249e+00 -2.8679451856e+00 1.6558089249e+00 2.8679451856e+00 
46200 5.0372903614e+00 6.9958137849e-05 1.6558089249e+00 -2.8679451856e+00 1.6558089249e+00 2.8679451856e+00 
46300 5.0372903646e+00 7.0041551215e-05 1.6558089249e+00 -2.8679451856e+00 1.6558089249e+00 2.8679451856e+00 
46400 5.0372903676e+00 7.0123528492e-05 1.6558089249e+00 -2.8679451856e+00 1.6558089249e+00 2.8679451856e+00 
46500 5.0372903706e+00 7.0204068698e-05 1.6558089249e+00 -2.8679451856e+00 1.6558089249e+00 2.8679451856e+00 
46600 5.0372903736e+00 7.0283172310e-05 1.6558089249e+00 -2.8679451856e+00 1.6558089249e+00 2.8679451856e+00 
46700 5.0372903765e+00 7.0360841203e-05 1.6558089249e+00 -2.8679451856e+00 1.6558089249e+00 2.8679451856e+00 
46800 5.0372903793e+00 7.0437078585e-05 1.6558089249e+00 -2.8679451856e+00 1.6558089249e+00 2.8679451856e+00 
46900 5.0372903821e+00 7.0511888939e-05 1.6558089249e+00 -2.8679451856e+00 1.6558089249e+00 2.8679451856e+00 
47000 5.0372903849e+00 7.0585277961e-05 1.6558089249e+00 -2.8679451856e+00 1.6558089249e+00 2.8679451856e+00 
47100 5.0372903876e+00 7.0657252506e-05 1.6558089249e+00 -2.8679451856e+00 1.6558089249e+00 2.8679451856e+00 
47200 5.0372903902e+00 7.0727820526e-05 1.6558089249e+00 -2.8679451856e+00 1.6558089249e+00 2.8679451856e+00 
47300 5.0372903926e+00 6.9356766575e-05 1.6558067892e+00 -2.8679414864e+00 1.6558067892e+00 2.8679414864e+00 
47400 5.0372903951e+00 6.9415678716e-05 1.6558067892e+00 -2.8679414864e+00 1.6558067892e+00 2.8679414864e+00 
47500 5.0372903976e+00 6.9473391297e-05 1.6558067892e+00 -2.8679414864e+00 1.6558067892e+00 2.8679414864e+00 
47600 5.0372904001e+00 6.9529920061e-05 1.6558067892e+00 -2.8679414864e+00 1.6558067892e+00 2.8679414864e+00 
47700 5.0372904025e+00 6.9585281064e-05 1.6558067892e+00 -2.8679414864e+00 1.6558067892e+00 2.8679414864e+00 
47800 5.0372904049e+00 6.9639490660e-05 1.6558067892e+00 -2.8679414864e+00 1.6558067892e+00 2.8679414864e+00 
47900 5.0372904072e+00 6.9692565464e-05 1.6558067892e+00 -2.8679414864e+00 1.6558067892e+00 2.8679414864e+00 
48000 5.0372904095e+00 6.9744522327e-05 1.6558067892e+00 -2.8679414864e+00 1.6558067892e+00 2.8679414864e+00 
48100 5.0372904117e+00 6.9795378310e-05 1.6558067892e+00 -2.8679414864e+00 1.6558067892e+00 2.8679414864e+00 
48200 5.0372904139e+00 6.9845150658e-05 1.6558067892e+00 -2.8679414864e+00 1.6558067892e+00 2.8679414864e+00 
48300 5.0372904160e+00 6.9893856775e-05 1.6558067892e+00 -2.8679414864e+00 1.6558067892e+00 2.8679414864e+00 
48400 5.0372904182e+00 6.9941514203e-05 1.6558067892e+00 -2.8679414864e+00 1.6558067892e+00 2.8679414864e+00 
48500 5.0372904202e+00 6.9988140591e-05 1.6558067892e+00 -2.8679414864e+00 1.6558067892e+00 2.8679414864e+00 
48600 5.0372904223e+00 7.0033753680e-05 1.6558067892e+00 -2.8679414864e+00 1.6558067892e+00 2.8679414864e+00 
48700 5.0372904243e+00 7.0078371279e-05 1.6558067892e+00 -2.8679414864e+00 1.6558067892e+00 2.8679414864e+00 
48800 5.0372904262e+00 7.0122011242e-05 1.6558067892e+00 -2.8679414864e+00 1.6558067892e+00 2.8679414864e+00 
48900 5.0372904282e+00 7.0164691452e-05 1.6558067892e+00 -2.8679414864e+00 1.6558067892e+00 2.8679414864e+00 
49000 5.0372904301e+00 7.0206429799e-05 1.6558067892e+00 -2.8679414864e+00 1.6558067892e+00 2.8679414864e+00 
49100 5.0372904319e+00 7.0247244161e-05 1.6558067892e+00 -2.8679414864e+00 1.6558067892e+00 2.8679414864e+00 
49200 5.0372904338e+00 7.0287152389e-05 1.6558067892e+00 -2.8679414864e+00 1.6558067892e+00 2.8679414864e+00 
49300 5.0372904355e+00 7.0326172287e-05 1.6558067892e+00 -2.8679414864e+00 1.6558067892e+00 2.8679414864e+00 
49400 5.0372904373e+00 7.0364321599e-05 1.6558067892e+00 -2.8679414864e+00 1.6558067892e+00 2.8679414864e+00 
49500 5.0372904390e+00 7.0401617992e-05 1.6558067892e+00 -2.8679414864e+00 1.6558067892e+00 2.8679414864e+00 
49600 5.0372904407e+00 7.0438079039e-05 1.6558067892e+00 -2.8679414864e+00 1.6558067892e+00 2.8679414864e+00 
49700 5.0372904424e+00 7.0473722210e-05 1.6558067892e+00 -2.8679414864e+00 1.6558067892e+00 2.8679414864e+00 
49800 5.0372904441e+00 7.0508564857e-05 1.6558067892e+00 -2.8679414864e+00 1.6558067892e+00 2.8679414864e+00 
49900 5.0372904457e+00 7.0542624198e-05 1.6558067892e+00 -2.8679414864e+00 1.6558067892e+00 2.8679414864e+00 
50000 5.0372904473e+00 7.0575917311e-05 1.6558067892e+00 -2.8679414864e+00 1.6558067892e+00 2.8679414864e+00 
50100 5.0372904488e+00 7.0608461119e-05 1.6558067892e+00 -2.8679414864e+00 1.6558067892e+00 2.8679414864e+00 
50200 5.0372904503e+00 7.0640272378e-05 1.6558067892e+00 -2.8679414864e+00 1.6558067892e+00 2.8679414864e+00 
50300 5.0372904518e+00 7.0671367675e-05 1.6558067892e+00 -2.8679414864e+00 1.6558067892e+00 2.8679414864e+00 
50400 5.0372904533e+00 7.0701763410e-05 1.6558067892e+00 -2.8679414864e+00 1.6558067892e+00 2.8679414864e+00 
50500 5.0372904548e+00 7.0731475793e-05 1.6558067892e+00 -2.8679414864e+00 1.6558067892e+00 2.8679414864e+00 
50600 5.0372904560e+00 6.9320188350e-05 1.6558046533e+00 -2.8679377870e+00 1.6558046533e+00 2.8679377870e+00 
50700 5.0372904574e+00 6.9339711074e-05 1.6558046533e+00 -2.8679377870e+00 1.6558046533e+00 2.8679377870e+00 
50800 5.0372904588e+00 6.9358774890e-05 1.6558046533e+00 -2.8679377870e+00 1.6558046533e+00 2.8679377870e+00 
50900 5.0372904601e+00 6.9377399123e-05 1.6558046533e+00 -2.8679377870e+00 1.6558046533e+00 2.8679377870e+00 
51000 5.0372904614e+00 6.9395602365e-05 1.6558046533e+00 -2.8679377870e+00 1.6558046533e+00 2.8679377870e+00 
51100 5.0372904627e+00 6.9413402495e-05 1.6558046533e+00 -2.8679377870e+00 1.6558046533e+00 2.8679377870e+00 
51200 5.0372904640e+00 6.9430816697e-05 1.6558046533e+00 -2.8679377870e+00 1.6558046533e+00 2.8679377870e+00 
51300 5.0372904653e+00 6.9447861472e-05 1.6558046533e+00 -2.8679377870e+00 1.6558046533e+00 2.8679377870e+00 
51400 5.0372904665e+00 6.9464552663e-05 1.6558046533e+00 -2.8679377870e+00 1.6558046533e+00 2.8679377870e+00 
51500 5.0372904677e+00 6.9480905466e-05 1.6558046533e+00 -2.8679377870e+00 1.6558046533e+00 2.8679377870e+00 
51600 5.0372904689e+00 6.9496934448e-05 1.6558046533e+00 -2.8679377870e+00 1.6558046533e+00 2.8679377870e+00 
51700 5.0372904701e+00 6.9512653568e-05 1.6558046533e+00 -2.8679377870e+00 1.6558046533e+00 2.8679377870e+00 
51800 5.0372904713e+00 6.9528076190e-05 1.6558046533e+00 -2.8679377870e+00 1.6558046533e+00 2.8679377870e+00 
51900 5.0372904724e+00 6.9543215100e-05 1.6558046533e+00 -2.8679377870e+00 1.6558046533e+00 2.8679377870e+00 
52000 5.0372904735e+00 6.9558082527e-05 1.6558046533e+00 -2.8679377870e+00 1.6558046533e+00 2.8679377870e+00 
52100 5.0372904746e+00 6.9572690155e-05 1.6558046533e+00 -2.8679377870e+00 1.6558046533e+00 2.8679377870e+00 
52200 5.0372904757e+00 6.9587049140e-05 1.6558046533e+00 -2.8679377870e+00 1.6558046533e+00 2.8679377870e+00 
52300 5.0372904767e+00 6.9601170129e-05 1.6558046533e+00 -2.8679377870e+00 1.6558046533e+00 2.8679377870e+00 
52400 5.0372904778e+00 6.9615063274e-05 1.6558046533e+00 -2.8679377870e+00 1.6558046533e+00 2.8679377870e+00 
52500 5.0372904788e+00 6.9628738251e-05 1.6558046533e+00 -2.8679377870e+00 1.6558046533e+00 2.8679377870e+00 
52600 5.0372904798e+00 6.9642204268e-05 1.6558046533e+00 -2.8679377870e+00 1.6558046533e+00 2.8679377870e+00 
52700 5.0372904808e+00 6.9655470093e-05 1.6558046533e+00 -2.8679377870e+00 1.6558046533e+00 2.8679377870e+00 
52800 5.0372904817e+00 6.9668544055e-05 1.6558046533e+00 -2.8679377870e+00 1.6558046533e+00 2.8679377870e+00 
52900 5.0372904827e+00 6.9681434071e-05 1.6558046533e+00 -2.8679377870e+00 1.6558046533e+00 2.8679377870e+00 
53000 5.0372904836e+00 6.9694147655e-05 1.6558046533e+00 -2.8679377870e+00 1.6558046533e+00 2.8679377870e+00 
53100 5.0372904845e+00 6.9706691931e-05 1.6558046533e+00 -2.8679377870e+00 1.6558046533e+00 2.8679377870e+00 
53200 5.0372904854e+00 6.9719073654e-05 1.6558046533e+00 -2.8679377870e+00 1.6558046533e+00 2.8679377870e+00 
53300 5.0372904863e+00 6.9731299218e-05 1.6558046533e+00 -2.8679377870e+00 1.6558046533e+00 2.8679377870e+00 
53400 5.0372904872e+00 6.9743374670e-05 1.6558046533e+00 -2.8679377870e+00 1.6558046533e+00 2.8679377870e+00 
53500 5.0372904881e+00 6.9755305728e-05 1.6558046533e+00 -2.8679377870e+00 1.6558046533e+00 2.8679377870e+00 
53600 5.0372904889e+00 6.9767097788e-05 1.6558046533e+00 -2.8679377870e+00 1.6558046533e+00 2.8679377870e+00 
53700 5.0372904897e+00 6.9778755943e-05 1.6558046533e+00 -2.8679377870e+00 1.6558046533e+00 2.8679377870e+00 
53800 5.0372904906e+00 6.9790284992e-05 1.6558046533e+00 -2.8679377870e+00 1.6558046533e+00 2.8679377870e+00 
53900 5.0372904914e+00 6.9801689452e-05 1.6558046533e+00 -2.8679377870e+00 1.6558046533e+00 2.8679377870e+00 
54000 5.0372904921e+00 6.9812973572e-05 1.6558046533e+00 -2.8679377870e+00 1.6558046533e+00 2.8679377870e+00 
54100 5.0372904929e+00 6.9824141344e-05 1.6558046533e+00 -2.8679377870e+00 1.6558046533e+00 2.8679377870e+00 
54200 5.0372904937e+00 6.9835196514e-05 1.6558046533e+00 -2.8679377870e+00 1.6558046533e+00 2.8679377870e+00 
54300 5.0372904944e+00 6.9846142592e-05 1.6558046533e+00 -2.8679377870e+00 1.6558046533e+00 2.8679377870e+00 
54400 5.0372904952e+00 6.9856982866e-05 1.6558046533e+00 -2.8679377870e+00 1.6558046533e+00 2.8679377870e+00 
54500 5.0372904959e+00 6.9867720412e-05 1.6558046533e+00 -2.8679377870e+00 1.6558046533e+00 2.8679377870e+00 
54600 5.0372904966e+00 6.9878358098e-05 1.6558046533e+00 -2.8679377870e+00 1.6558046533e+00 2.8679377870e+00 
54700 5.0372904973e+00 6.9888898604e-05 1.6558046533e+00 -2.8679377870e+00 1.6558046533e+00 2.8679377870e+00 
54800 5.0372904980e+00 6.9899344424e-05 1.6558046533e+00 -2.8679377870e+00 1.6558046533e+00 2.8679377870e+00 
54900 5.0372904987e+00 6.9909697878e-05 1.6558046533e+00 -2.8679377870e+00 1.6558046533e+00 2.8679377870e+00 
55000 5.0372904993e+00 6.9919961123e-05 1.6558046533e+00 -2.8679377870e+00 1.6558046533e+00 2.8679377870e+00 
55100 5.0372905000e+00 6.9930136156e-05 1.6558046533e+00 -2.8679377870e+00 1.6558046533e+00 2.8679377870e+00 
55200 5.0372905006e+00 6.9940224830e-05 1.6558046533e+00 -2.8679377870e+00 1.6558046533e+00 2.8679377870e+00 
55300 5.0372905013e+00 6.9950228856e-05 1.6558046533e+00 -2.8679377870e+00 1.6558046533e+00 2.8679377870e+00 
55400 5.0372905019e+00 6.9960149814e-05 1.6558046533e+00 -2.8679377870e+00 1.6558046533e+00 2.8679377870e+00 
55500 5.0372905025e+00 6.9969989161e-05 1.6558046533e+00 -2.8679377870e+00 1.6558046533e+00 2.8679377870e+00 
55600 5.0372905031e+00 6.9979748238e-05 1.6558046533e+00 -2.8679377870e+00 1.6558046533e+00 2.8679377870e+00 
55700 5.0372905037e+00 6.9989428272e-05 1.6558046533e+00 -2.8679377870e+00 1.6558046533e+00 2.8679377870e+00 
55800 5.0372905043e+00 6.9999030392e-05 1.6558046533e+00 -2.8679377870e+00 1.6558046533e+00 2.8679377870e+00 
55900 5.0372905049e+00 7.0008555632e-05 1.6558046533e+00 -2.8679377870e+00 1.6558046533e+00 2.8679377870e+00 
56000 5.0372905054e+00 7.0018004932e-05 1.6558046533e+00 -2.8679377870e+00 1.6558046533e+00 2.8679377870e+00 
56100 5.0372905060e+00 7.0027379151e-05 1.6558046533e+00 -2.8679377870e+00 1.6558046533e+00 2.8679377870e+00 
56200 5.0372905065e+00 7.0036679069e-05 1.6558046533e+00 -2.8679377870e+00 1.6558046533e+00 2.8679377870e+00 
56300 5.0372905071e+00 7.0045905397e-05 1.6558046533e+00 -2.8679377870e+00 1.6558046533e+00 2.8679377870e+00 
56400 5.0372905076e+00 7.0055058776e-05 1.6558046533e+00 -2.8679377870e+00 1.6558046533e+00 2.8679377870e+00 
56500 5.0372905081e+00 7.0064139786e-05 1.6558046533e+00 -2.8679377870e+00 1.6558046533e+00 2.8679377870e+00 
56600 5.0372905086e+00 7.0073148953e-05 1.6558046533e+00 -2.8679377870e+00 1.6558046533e+00 2.8679377870e+00 
56700 5.0372905091e+00 7.0082086748e-05 1.6558046533e+00 -2.8679377870e+00 1.6558046533e+00 2.8679377870e+00 
56800 5.0372905096e+00 7.0090953596e-05 1.6558046533e+00 -2.8679377870e+00 1.6558046533e+00 2.8679377870e+00 
56900 5.0372905101e+00 7.0099749880e-05 1.6558046533e+00 -2.8679377870e+00 1.6558046533e+00 2.8679377870e+00 
57000 5.0372905106e+00 7.0108475940e-05 1.6558046533e+00 -2.8679377870e+00 1.6558046533e+00 2.8679377870e+00 
57100 5.0372905111e+00 7.0117132085e-05 1.6558046533e+00 -2.8679377870e+00 1.6558046533e+00 2.8679377870e+00 
57200 5.0372905115e+00 7.0125718592e-05 1.6558046533e+00 -2.8679377870e+00 1.6558046533e+00 2.8679377870e+00 
57300 5.0372905120e+00 7.0134235708e-05 1.6558046533e+00 -2.8679377870e+00 1.6558046533e+00 2.8679377870e+00 
57400 5.0372905124e+00 7.0142683655e-05 1.6558046533e+00 -2.8679377870e+00 1.6558046533e+00 2.8679377870e+00 
57500 5.0372905129e+00 7.0151062636e-05 1.6558046533e+00 -2.8679377870e+00 1.6558046533e+00 2.8679377870e+00 
57600 5.0372905133e+00 7.0159372836e-05 1.6558046533e+00 -2.8679377870e+00 1.6558046533e+00 2.8679377870e+00 
57700 5.0372905137e+00 7.0167614418e-05 1.6558046533e+00 -2.8679377870e+00 1.6558046533e+00 2.8679377870e+00 
57800 5.0372905141e+00 7.0175787541e-05 1.6558046533e+00 -2.8679377870e+00 1.6558046533e+00 2.8679377870e+00 
57900 5.0372905146e+00 7.0183892345e-05 1.6558046533e+00 -2.8679377870e+00 1.6558046533e+00 2.8679377870e+00 
58000 5.0372905150e+00 7.0191928966e-05 1.6558046533e+00 -2.8679377870e+00 1.6558046533e+00 2.8679377870e+00 
58100 5.0372905154e+00 7.0199897533e-05 1.6558046533e+00 -2.8679377870e+00 1.6558046533e+00 2.8679377870e+00 
58200 5.0372905158e+00 7.0207798170e-05 1.6558046533e+00 -2.8679377870e+00 1.6558046533e+00 2.8679377870e+00 
58300 5.0372905161e+00 7.0215631000e-05 1.6558046533e+00 -2.8679377870e+00 1.6558046533e+00 2.8679377870e+00 
58400 5.0372905165e+00 7.0223396145e-05 1.6558046533e+00 -2.8679377870e+00 1.6558046533e+00 2.8679377870e+00 
58500 5.0372905169e+00 7.0231093727e-05 1.6558046533e+00 -2.8679377870e+00 1.6558046533e+00 2.8679377870e+00 
58600 5.0372905173e+00 7.0238723873e-05 1.6558046533e+00 -2.8679377870e+00 1.6558046533e+00 2.8679377870e+00 
58700 5.0372905176e+00 7.0246286710e-05 1.6558046533e+00 -2.8679377870e+00 1.6558046533e+00 2.8679377870e+00 
58800 5.0372905180e+00 7.0253782374e-05 1.6558046533e+00 -2.8679377870e+00 1.6558046533e+00 2.8679377870e+00 
58900 5.0372905183e+00 7.0261211006e-05 1.6558046533e+00 -2.8679377870e+00 1.6558046533e+00 2.8679377870e+00 
59000 5.0372905187e+00 7.0268572755e-05 1.6558046533e+00 -2.8679377870e+00 1.6558046533e+00 2.8679377870e+00 
59100 5.0372905190e+00 7.0275867777e-05 1.6558046533e+00 -2.8679377870e+00 1.6558046533e+00 2.8679377870e+00 
59200 5.0372905194e+00 7.0283096240e-05 1.6558046533e+00 -2.8679377870e+00 1.6558046533e+00 2.8679377870e+00 
59300 5.0372905197e+00 7.0290258318e-05 1.6558046533e+00 -2.8679377870e+00 1.6558046533e+00 2.8679377870e+00 
59400 5.0372905200e+00 7.0297354200e-05 1.6558046533e+00 -2.8679377870e+00 1.6558046533e+00 2.8679377870e+00 
59500 5.0372905203e+00 7.0304384084e-05 1.6558046533e+00 -2.8679377870e+00 1.6558046533e+00 2.8679377870e+00 
59600 5.0372905207e+00 7.0311348181e-05 1.6558046533e+00 -2.8679377870e+00 1.6558046533e+00 2.8679377870e+00 
59700 5.0372905210e+00 7.0318246714e-05 1.6558046533e+00 -2.8679377870e+00 1.6558046533e+00 2.8679377870e+00 
59800 5.0372905213e+00 7.0325079918e-05 1.6558046533e+00 -2.8679377870e+00 1.6558046533e+00 2.8679377870e+00 
59900 5.0372905216e+00 7.0331848041e-05 1.6558046533e+00 -2.8679377870e+00 1.6558046533e+00 2.8679377870e+00 
60000 5.0372905219e+00 7.0338551348e-05 1.6558046533e+00 -2.8679377870e+00 1.6558046533e+00 2.8679377870e+00 
60100 5.0372905222e+00 7.0345190111e-05 1.6558046533e+00 -2.8679377870e+00 1.6558046533e+00 2.8679377870e+00 
60200 5.0372905224e+00 7.0351764623e-05 1.6558046533e+00 -2.8679377870e+00 1.6558046533e+00 2.8679377870e+00 
60300 5.0372905227e+00 7.0358275183e-05 1.6558046533e+00 -2.8679377870e+00 1.6558046533e+00 2.8679377870e+00 
60400 5.0372905230e+00 7.0364722110e-05 1.6558046533e+00 -2.8679377870e+00 1.6558046533e+00 2.8679377870e+00 
60500 5.0372905233e+00 7.0371105733e-05 1.6558046533e+00 -2.8679377870e+00 1.6558046533e+00 2.8679377870e+00 
60600 5.0372905235e+00 7.0377426397e-05 1.6558046533e+00 -2.8679377870e+00 1.6558046533e+00 2.8679377870e+00 
60700 5.0372905238e+00 7.0383684460e-05 1.6558046533e+00 -2.8679377870e+00 1.6558046533e+00 2.8679377870e+00 
60800 5.0372905241e+00 7.0389880291e-05 1.6558046533e+00 -2.8679377870e+00 1.6558046533e+00 2.8679377870e+00 
60900 5.0372905243e+00 7.0396014276e-05 1.6558046533e+00 -2.8679377870e+00 1.6558046533e+00 2.8679377870e+00 
61000 5.0372905246e+00 7.0402086812e-05 1.6558046533e+00 -2.8679377870e+00 1.6558046533e+00 2.8679377870e+00 
61100 5.0372905248e+00 7.0408098306e-05 1.6558046533e+00 -2.8679377870e+00 1.6558046533e+00 2.8679377870e+00 
61200 5.0372905251e+00 7.0414049183e-05 1.6558046533e+00 -2.8679377870e+00 1.6558046533e+00 2.8679377870e+00 
61300 5.0372905253e+00 7.0419939875e-05 1.6558046533e+00 -2.8679377870e+00 1.6558046533e+00 2.8679377870e+00 
61400 5.0372905255e+00 7.0425770831e-05 1.6558046533e+00 -2.8679377870e+00 1.6558046533e+00 2.8679377870e+00 
61500 5.0372905258e+00 7.0431542507e-05 1.6558046533e+00 -2.8679377870e+00 1.6558046533e+00 2.8679377870e+00 
61600 5.0372905260e+00 7.0437255371e-05 1.6558046533e+00 -2.8679377870e+00 1.6558046533e+00 2.8679377870e+00 
61700 5.0372905262e+00 7.0442909903e-05 1.6558046533e+00 -2.8679377870e+00 1.6558046533e+00 2.8679377870e+00 
61800 5.0372905264e+00 7.0448506593e-05 1.6558046533e+00 -2.8679377870e+00 1.6558046533e+00 2.8679377870e+00 
61900 5.0372905267e+00 7.0454045939e-05 1.6558046533e+00 -2.8679377870e+00 1.6558046533e+00 2.8679377870e+00 
62000 5.0372905269e+00 7.0459528452e-05 1.6558046533e+00 -2.8679377870e+00 1.6558046533e+00 2.8679377870e+00 
62100 5.0372905271e+00 7.0464954648e-05 1.6558046533e+00 -2.8679377870e+00 1.6558046533e+00 2.8679377870e+00 
62200 5.0372905273e+00 7.0470325055e-05 1.6558046533e+00 -2.8679377870e+00 1.6558046533e+00 2.8679377870e+00 
62300 5.0372905275e+00 7.0475640205e-05 1.6558046533e+00 -2.8679377870e+00 1.6558046533e+00 2.8679377870e+00 
62400 5.0372905277e+00 7.0480900642e-05 1.6558046533e+00 -2.8679377870e+00 1.6558046533e+00 2.8679377870e+00 
62500 5.0372905279e+00 7.0486106915e-05 1.6558046533e+00 -2.8679377870e+00 1.6558046533e+00 2.8679377870e+00 
62600 5.0372905281e+00 7.0491259580e-05 1.6558046533e+00 -2.8679377870e+00 1.6558046533e+00 2.8679377870e+00 
62700 5.0372905283e+00 7.0496359197e-05 1.6558046533e+00 -2.8679377870e+00 1.6558046533e+00 2.8679377870e+00 
62800 5.0372905285e+00 7.0501406336e-05 1.6558046533e+00 -2.8679377870e+00 1.6558046533e+00 2.8679377870e+00 
62900 5.0372905287e+00 7.0506401569e-05 1.6558046533e+00 -2.8679377870e+00 1.6558046533e+00 2.8679377870e+00 
63000 5.0372905289e+00 7.0511345473e-05 1.6558046533e+00 -2.8679377870e+00 1.6558046533e+00 2.8679377870e+00 
63100 5.0372905290e+00 7.0516238631e-05 1.6558046533e+00 -2.8679377870e+00 1.6558046533e+00 2.8679377870e+00 
63200 5.0372905292e+00 7.0521081628e-05 1.6558046533e+00 -2.8679377870e+00 1.6558046533e+00 2.8679377870e+00 
63300 5.0372905294e+00 7.0525875053e-05 1.6558046533e+00 -2.8679377870e+00 1.6558046533e+00 2.8679377870e+00 
63400 5.0372905296e+00 7.0530619499e-05 1.6558046533e+00 -2.8679377870e+00 1.6558046533e+00 2.8679377870e+00 
63500 5.0372905297e+00 7.0535315559e-05 1.6558046533e+00 -2.8679377870e+00 1.6558046533e+00 2.8679377870e+00 
63600 5.0372905299e+00 7.0539963830e-05 1.6558046533e+00 -2.8679377870e+00 1.6558046533e+00 2.8679377870e+00 
63700 5.0372905301e+00 7.0544564910e-05 1.6558046533e+00 -2.8679377870e+00 1.6558046533e+00 2.8679377870e+00 
63800 5.0372905302e+00 7.0549119396e-05 1.6558046533e+00 -2.8679377870e+00 1.6558046533e+00 2.8679377870e+00 
63900 5.0372905304e+00 7.0553627891e-05 1.6558046533e+00 -2.8679377870e+00 1.6558046533e+00 2.8679377870e+00 
64000 5.0372905305e+00 7.0558090992e-05 1.6558046533e+00 -2.8679377870e+00 1.6558046533e+00 2.8679377870e+00 
64100 5.0372905307e+00 7.0562509299e-05 1.6558046533e+00 -2.8679377870e+00 1.6558046533e+00 2.8679377870e+00 
64200 5.0372905309e+00 7.0566883413e-05 1.6558046533e+00 -2.8679377870e+00 1.6558046533e+00 2.8679377870e+00 
64300 5.0372905310e+00 7.0571213931e-05 1.6558046533e+00 -2.8679377870e+00 1.6558046533e+00 2.8679377870e+00 
64400 5.0372905312e+00 7.0575501449e-05 1.6558046533e+00 -2.8679377870e+00 1.6558046533e+00 2.8679377870e+00 
64500 5.0372905313e+00 7.0579746563e-05 1.6558046533e+00 -2.8679377870e+00 1.6558046533e+00 2.8679377870e+00 
64600 5.0372905314e+00 7.0583949866e-05 1.6558046533e+00 -2.8679377870e+00 1.6558046533e+00 2.8679377870e+00 
64700 5.0372905316e+00 7.0588111950e-05 1.6558046533e+00 -2.8679377870e+00 1.6558046533e+00 2.8679377870e+00 
64800 5.0372905317e+00 7.0592233400e-05 1.6558046533e+00 -2.8679377870e+00 1.6558046533e+00 2.8679377870e+00 
64900 5.0372905319e+00 7.0596314803e-05 1.6558046533e+00 -2.8679377870e+00 1.6558046533e+00 2.8679377870e+00 
65000 5.0372905320e+00 7.0600356740e-05 1.6558046533e+00 -2.8679377870e+00 1.6558046533e+00 2.8679377870e+00 
65100 5.0372905321e+00 7.0604359789e-05 1.6558046533e+00 -2.8679377870e+00 1.6558046533e+00 2.8679377870e+00 
65200 5.0372905323e+00 7.0608324525e-05 1.6558046533e+00 -2.8679377870e+00 1.6558046533e+00 2.8679377870e+00 
65300 5.0372905324e+00 7.0612251514e-05 1.6558046533e+00 -2.8679377870e+00 1.6558046533e+00 2.8679377870e+00 
65400 5.0372905325e+00 7.0616141325e-05 1.6558046533e+00 -2.8679377870e+00 1.6558046533e+00 2.8679377870e+00 
65500 5.0372905326e+00 7.0619994518e-05 1.6558046533e+00 -2.8679377870e+00 1.6558046533e+00 2.8679377870e+00 
65600 5.0372905328e+00 7.0623811645e-05 1.6558046533e+00 -2.8679377870e+00 1.6558046533e+00 2.8679377870e+00 
65700 5.0372905329e+00 7.0627593261e-05 1.6558046533e+00 -2.8679377870e+00 1.6558046533e+00 2.8679377870e+00 
65800 5.0372905330e+00 7.0631339908e-05 1.6558046533e+00 -2.8679377870e+00 1.6558046533e+00 2.8679377870e+00 
65900 5.0372905331e+00 7.0635052126e-05 1.6558046533e+00 -2.8679377870e+00 1.6558046533e+00 2.8679377870e+00 
66000 5.0372905332e+00 7.0638730447e-05 1.6558046533e+00 -2.8679377870e+00 1.6558046533e+00 2.8679377870e+00 
66100 5.0372905334e+00 7.0642375401e-05 1.6558046533e+00 -2.8679377870e+00 1.6558046533e+00 2.8679377870e+00 
66200 5.0372905335e+00 7.0645987506e-05 1.6558046533e+00 -2.8679377870e+00 1.6558046533e+00 2.8679377870e+00 
66300 5.0372905336e+00 7.0649567279e-05 1.6558046533e+00 -2.8679377870e+00 1.6558046533e+00 2.8679377870e+00 
66400 5.0372905337e+00 7.0653115227e-05 1.6558046533e+00 -2.8679377870e+00 1.6558046533e+00 2.8679377870e+00 
66500 5.0372905338e+00 7.0656631853e-05 1.6558046533e+00 -2.8679377870e+00 1.6558046533e+00 2.8679377870e+00 
66600 5.0372905339e+00 7.0660117651e-05 1.6558046533e+00 -2.8679377870e+00 1.6558046533e+00 2.8679377870e+00 
66700 5.0372905340e+00 7.0663573109e-05 1.6558046533e+00 -2.8679377870e+00 1.6558046533e+00 2.8679377870e+00 
66800 5.0372905341e+00 7.0666998709e-05 1.6558046533e+00 -2.8679377870e+00 1.6558046533e+00 2.8679377870e+00 
66900 5.0372905342e+00 7.0670394924e-05 1.6558046533e+00 -2.8679377870e+00 1.6558046533e+00 2.8679377870e+00 
67000 5.0372905343e+00 7.0673762220e-05 1.6558046533e+00 -2.8679377870e+00 1.6558046533e+00 2.8679377870e+00 
67100 5.0372905344e+00 7.0677101059e-05 1.6558046533e+00 -2.8679377870e+00 1.6558046533e+00 2.8679377870e+00 
67200 5.0372905345e+00 7.0680411892e-05 1.6558046533e+00 -2.8679377870e+00 1.6558046533e+00 2.8679377870e+00 
67300 5.0372905346e+00 7.0683695163e-05 1.6558046533e+00 -2.8679377870e+00 1.6558046533e+00 2.8679377870e+00 
67400 5.0372905347e+00 7.0686951311e-05 1.6558046533e+00 -2.8679377870e+00 1.6558046533e+00 2.8679377870e+00 
67500 5.0372905348e+00 7.0690180766e-05 1.6558046533e+00 -2.8679377870e+00 1.6558046533e+00 2.8679377870e+00 
67600 5.0372905349e+00 7.0693383951e-05 1.6558046533e+00 -2.8679377870e+00 1.6558046533e+00 2.8679377870e+00 
67700 5.0372905350e+00 7.0696561279e-05 1.6558046533e+00 -2.8679377870e+00 1.6558046533e+00 2.8679377870e+00 
67800 5.0372905351e+00 7.0699713160e-05 1.6558046533e+00 -2.8679377870e+00 1.6558046533e+00 2.8679377870e+00 
67900 5.0372905352e+00 7.0702839992e-05 1.6558046533e+00 -2.8679377870e+00 1.6558046533e+00 2.8679377870e+00 
68000 5.0372905352e+00 7.0705942171e-05 1.6558046533e+00 -2.8679377870e+00 1.6558046533e+00 2.8679377870e+00 
68100 5.0372905353e+00 7.0709020077e-05 1.6558046533e+00 -2.8679377870e+00 1.6558046533e+00 2.8679377870e+00 
68200 5.0372905354e+00 7.0712074091e-05 1.6558046533e+00 -2.8679377870e+00 1.6558046533e+00 2.8679377870e+00 
68300 5.0372905353e+00 6.9275096750e-05 1.6558025180e+00 -2.8679340886e+00 1.6558025180e+00 2.8679340886e+00 
68400 5.0372905354e+00 6.9269236530e-05 1.6558025180e+00 -2.8679340886e+00 1.6558025180e+00 2.8679340886e+00 
68500 5.0372905355e+00 6.9263530409e-05 1.6558025180e+00 -2.8679340886e+00 1.6558025180e+00 2.8679340886e+00 
68600 5.0372905356e+00 6.9257982694e-05 1.6558025180e+00 -2.8679340886e+00 1.6558025180e+00 2.8679340886e+00 
68700 5.0372905356e+00 6.9252597182e-05 1.6558025180e+00 -2.8679340886e+00 1.6558025180e+00 2.8679340886e+00 
68800 5.0372905357e+00 6.9247377179e-05 1.6558025180e+00 -2.8679340886e+00 1.6558025180e+00 2.8679340886e+00 
68900 5.0372905358e+00 6.9242325519e-05 1.6558025180e+00 -2.8679340886e+00 1.6558025180e+00 2.8679340886e+00 
69000 5.0372905359e+00 6.9237444591e-05 1.6558025180e+00 -2.8679340886e+00 1.6558025180e+00 2.8679340886e+00 
69100 5.0372905359e+00 6.9232736360e-05 1.6558025180e+00 -2.8679340886e+00 1.6558025180e+00 2.8679340886e+00 
69200 5.0372905360e+00 6.9228202379e-05 1.6558025180e+00 -2.8679340886e+00 1.6558025180e+00 2.8679340886e+00 
69300 5.0372905361e+00 6.9223843822e-05 1.6558025180e+00 -2.8679340886e+00 1.6558025180e+00 2.8679340886e+00 
69400 5.0372905361e+00 6.9219661490e-05 1.6558025180e+00 -2.8679340886e+00 1.6558025180e+00 2.8679340886e+00 
69500 5.0372905362e+00 6.9215655841e-05 1.6558025180e+00 -2.8679340886e+00 1.6558025180e+00 2.8679340886e+00 
69600 5.0372905363e+00 6.9211827002e-05 1.6558025180e+00 -2.8679340886e+00 1.6558025180e+00 2.8679340886e+00 
69700 5.0372905363e+00 6.9208174790e-05 1.6558025180e+00 -2.8679340886e+00 1.6558025180e+00 2.8679340886e+00 
69800 5.0372905364e+00 6.9204698729e-05 1.6558025180e+00 -2.8679340886e+00 1.6558025180e+00 2.8679340886e+00 
69900 5.0372905365e+00 6.9201398065e-05 1.6558025180e+00 -2.8679340886e+00 1.6558025180e+00 2.8679340886e+00 
70000 5.0372905365e+00 6.9198271783e-05 1.6558025180e+00 -2.8679340886e+00 1.6558025180e+00 2.8679340886e+00 
70100 5.0372905366e+00 6.9195318630e-05 1.6558025180e+00 -2.8679340886e+00 1.6558025180e+00 2.8679340886e+00 
70200 5.0372905367e+00 6.9192537118e-05 1.6558025180e+00 -2.8679340886e+00 1.6558025180e+00 2.8679340886e+00 
70300 5.0372905367e+00 6.9189925549e-05 1.6558025180e+00 -2.8679340886e+00 1.6558025180e+00 2.8679340886e+00 
70400 5.0372905368e+00 6.9187482027e-05 1.6558025180e+00 -2.8679340886e+00 1.6558025180e+00 2.8679340886e+00 
70500 5.0372905368e+00 6.9185204469e-05 1.6558025180e+00 -2.8679340886e+00 1.6558025180e+00 2.8679340886e+00 
70600 5.0372905369e+00 6.9183090623e-05 1.6558025180e+00 -2.8679340886e+00 1.6558025180e+00 2.8679340886e+00 
70700 5.0372905370e+00 6.9181138079e-05 1.6558025180e+00 -2.8679340886e+00 1.6558025180e+00 2.8679340886e+00 
70800 5.0372905370e+00 6.9179344280e-05 1.6558025180e+00 -2.8679340886e+00 1.6558025180e+00 2.8679340886e+00 
70900 5.0372905371e+00 6.9177706537e-05 1.6558025180e+00 -2.8679340886e+00 1.6558025180e+00 2.8679340886e+00 
71000 5.0372905371e+00 6.9176222042e-05 1.6558025180e+00 -2.8679340886e+00 1.6558025180e+00 2.8679340886e+00 
71100 5.0372905372e+00 6.9174887872e-05 1.6558025180e+00 -2.8679340886e+00 1.6558025180e+00 2.8679340886e+00 
71200 5.0372905372e+00 6.9173701009e-05 1.6558025180e+00 -2.8679340886e+00 1.6558025180e+00 2.8679340886e+00 
71300 5.0372905373e+00 6.9172658344e-05 1.6558025180e+00 -2.8679340886e+00 1.6558025180e+00 2.8679340886e+00 
71400 5.0372905373e+00 6.9171756691e-05 1.6558025180e+00 -2.8679340886e+00 1.6558025180e+00 2.8679340886e+00 
71500 5.0372905374e+00 6.9170992793e-05 1.6558025180e+00 -2.8679340886e+00 1.6558025180e+00 2.8679340886e+00 
71600 5.0372905374e+00 6.9170363334e-05 1.6558025180e+00 -2.8679340886e+00 1.6558025180e+00 2.8679340886e+00 
71700 5.0372905375e+00 6.9169864945e-05 1.6558025180e+00 -2.8679340886e+00 1.6558025180e+00 2.8679340886e+00 
71800 5.0372905375e+00 6.9169716955e-05 1.6558025180e+00 -2.8679340886e+00 1.6558025180e+00 2.8679340886e+00 
71800 5.0372905375e+00 6.9169716955e-05 1.6558025180e+00 -2.8679340886e+00 1.6558025180e+00 2.8679340886e+00 
