# step Hamiltonian StressXX CellTensor1 CellTensor2 CellTensor3 CellTensor4 
0 4.7637537072e+00 -5.7224373478e-01 1.6087831444e+00 -2.7864941444e+00 1.6087831444e+00 2.7864941444e+00 
100 4.7703109971e+00 -5.7463298587e-01 1.6087831444e+00 -2.7864941444e+00 1.6087831444e+00 2.7864941444e+00 
200 4.7654569400e+00 -5.5695024803e-01 1.6266750672e+00 -2.8174838638e+00 1.6266750672e+00 2.8174838638e+00 
300 4.7625505659e+00 -5.4038257999e-01 1.6438240657e+00 -2.8471868004e+00 1.6438240657e+00 2.8471868004e+00 
400 4.7613314656e+00 -5.2488688264e-01 1.6602879387e+00 -2.8757030650e+00 1.6602879387e+00 2.8757030650e+00 
500 4.7615489123e+00 -5.1042201785e-01 1.6761198884e+00 -2.9031248063e+00 1.6761198884e+00 2.9031248063e+00 
600 4.7629625786e+00 -4.9694857852e-01 1.6913690320e+00 -2.9295370977e+00 1.6913690320e+00 2.9295370977e+00 
700 4.7653434663e+00 -4.8442858423e-01 1.7060808353e+00 -2.9550186885e+00 1.7060808353e+00 2.9550186885e+00 
800 4.7684749417e+00 -4.7282513564e-01 1.7202974798e+00 -2.9796426392e+00 1.7202974798e+00 2.9796426392e+00 
900 4.7721537871e+00 -4.6210205523e-01 1.7340581716e+00 -3.0034768565e+00 1.7340581716e+00 3.0034768565e+00 
1000 4.7761911972e+00 -4.5222353835e-01 1.7473994002e+00 -3.0265845423e+00 1.7473994002e+00 3.0265845423e+00 
1100 4.7804136604e+00 -4.4315383371e-01 1.7603551552e+00 -3.0490245681e+00 1.7603551552e+00 3.0490245681e+00 
1200 4.7846636811e+00 -4.3485696902e-01 1.7729571064e+00 -3.0708517879e+00 1.7729571064e+00 3.0708517879e+00 
1300 4.7888003096e+00 -4.2729653267e-01 1.7852347538e+00 -3.0921172970e+00 1.7852347538e+00 3.0921172970e+00 
1400 4.7926994586e+00 -4.2043551903e-01 1.7972155523e+00 -3.1128686487e+00 1.7972155523e+00 3.1128686487e+00 
1500 4.7962539964e+00 -4.1423624053e-01 1.8089250165e+00 -3.1331500356e+00 1.8089250165e+00 3.1331500356e+00 
1600 4.7993736151e+00 -4.0866030638e-01 1.8203868095e+00 -3.1530024435e+00 1.8203868095e+00 3.1530024435e+00 
1700 4.8019844823e+00 -4.0366866447e-01 1.8316228198e+00 -3.1724637842e+00 1.8316228198e+00 3.1724637842e+00 
1800 4.8040286902e+00 -3.9922170045e-01 1.8426532295e+00 -3.1915690142e+00 1.8426532295e+00 3.1915690142e+00 
1900 4.8054635222e+00 -3.9527938572e-01 1.8534965768e+00 -3.2103502426e+00 1.8534965768e+00 3.2103502426e+00 
2000 4.8062605623e+00 -3.9180146480e-01 1.8641698153e+00 -3.2288368340e+00 1.8641698153e+00 3.2288368340e+00 
2100 4.8064046743e+00 -3.8874767144e-01 1.8746883718e+00 -3.2470555084e+00 1.8746883718e+00 3.2470555084e+00 
2200 4.8058928792e+00 -3.8607796304e-01 1.8850662044e+00 -3.2650304416e+00 1.8850662044e+00 3.2650304416e+00 
2300 4.8047331608e+00 -3.8375276278e-01 1.8953158611e+00 -3.2827833678e+00 1.8953158611e+00 3.2827833678e+00 
2400 4.8029432272e+00 -3.8173320013e-01 1.9054485410e+00 -3.3003336842e+00 1.9054485410e+00 3.3003336842e+00 
2500 4.8005492548e+00 -3.7998134117e-01 1.9154741571e+00 -3.3176985606e+00 1.9154741571e+00 3.3176985606e+00 
2600 4.7975846396e+00 -3.7846040175e-01 1.9254014011e+00 -3.3348930517e+00 1.9254014011e+00 3.3348930517e+00 
2700 4.7940887766e+00 -3.7713493802e-01 1.9352378107e+00 -3.3519302129e+00 1.9352378107e+00 3.3519302129e+00 
2800 4.7901058861e+00 -3.7597101040e-01 1.9449898378e+00 -3.3688212192e+00 1.9449898378e+00 3.3688212192e+00 
2900 4.7856839009e+00 -3.7493631840e-01 1.9546629179e+00 -3.3855754855e+00 1.9546629179e+00 3.3855754855e+00 
3000 4.7808734268e+00 -3.7400030552e-01 1.9642615405e+00 -3.4022007875e+00 1.9642615405e+00 3.4022007875e+00 
3100 4.7757267846e+00 -3.7313423408e-01 1.9737893185e+00 -3.4187033831e+00 1.9737893185e+00 3.4187033831e+00 
3200 4.7702971386e+00 -3.7231123141e-01 1.9832490573e+00 -3.4350881314e+00 1.9832490573e+00 3.4350881314e+00 
3300 4.7646377152e+00 -3.7150630922e-01 1.9926428228e+00 -3.4513586104e+00 1.9926428228e+00 3.4513586104e+00 
3400 4.7588011117e+00 -3.7069635876e-01 2.0019720066e+00 -3.4675172307e+00 2.0019720066e+00 3.4675172307e+00 
3500 4.7528386938e+00 -3.6986012485e-01 2.0112373899e+00 -3.4835653454e+00 2.0112373899e+00 3.4835653454e+00 
3600 4.7468000793e+00 -3.6897816172e-01 2.0204392042e+00 -3.4995033553e+00 2.0204392042e+00 3.4995033553e+00 
3700 4.7407327038e+00 -3.6803277409e-01 2.0295771886e+00 -3.5153308085e+00 2.0295771886e+00 3.5153308085e+00 
3800 4.7346814623e+00 -3.6700794660e-01 2.0386506442e+00 -3.5310464947e+00 2.0386506442e+00 3.5310464947e+00 
3900 4.7286884232e+00 -3.6588926452e-01 2.0476584857e+00 -3.5466485337e+00 2.0476584857e+00 3.5466485337e+00 
4000 4.7227926057e+00 -3.6466382856e-01 2.0565992877e+00 -3.5621344571e+00 2.0565992877e+00 3.5621344571e+00 
4100 4.7170298172e+00 -3.6332016632e-01 2.0654713297e+00 -3.5775012846e+00 2.0654713297e+00 3.5775012846e+00 
4200 4.7114325428e+00 -3.6184814236e-01 2.0742726360e+00 -3.5927455943e+00 2.0742726360e+00 3.5927455943e+00 
4300 4.7060298811e+00 -3.6023886901e-01 2.0830010131e+00 -3.6078635869e+00 2.0830010131e+00 3.6078635869e+00 
4400 4.7008475212e+00 -3.5848461923e-01 2.0916540833e+00 -3.6228511441e+00 2.0916540833e+00 3.6228511441e+00 
4500 4.6959077547e+00 -3.5657874291e-01 2.1002293158e+00 -3.6377038826e+00 2.1002293158e+00 3.6377038826e+00 
4600 4.6912295184e+00 -3.5451558760e-01 2.1087240546e+00 -3.6524172017e+00 2.1087240546e+00 3.6524172017e+00 
4700 4.6868284623e+00 -3.5229042429e-01 2.1171355436e+00 -3.6669863281e+00 2.1171355436e+00 3.6669863281e+00 
4800 4.6827170395e+00 -3.4989937891e-01 2.1254609497e+00 -3.6814063543e+00 2.1254609497e+00 3.6814063543e+00 
4900 4.6789046145e+00 -3.4733936981e-01 2.1336973830e+00 -3.6956722752e+00 2.1336973830e+00 3.6956722752e+00 
5000 4.6753975852e+00 -3.4460805134e-01 2.1418419156e+00 -3.7097790197e+00 2.1418419156e+00 3.7097790197e+00 
5100 4.6721995178e+00 -3.4170376380e-01 2.1498915986e+00 -3.7237214795e+00 2.1498915986e+00 3.7237214795e+00 
5200 4.6693112908e+00 -3.3862548940e-01 2.1578434763e+00 -3.7374945358e+00 2.1578434763e+00 3.7374945358e+00 
5300 4.6667312464e+00 -3.3537281432e-01 2.1656946011e+00 -3.7510930827e+00 2.1656946011e+00 3.7510930827e+00 
5400 4.6644553478e+00 -3.3194589660e-01 2.1734420448e+00 -3.7645120489e+00 2.1734420448e+00 3.7645120489e+00 
5500 4.6624773408e+00 -3.2834543948e-01 2.1810829110e+00 -3.7777464174e+00 2.1810829110e+00 3.7777464174e+00 
5600 4.6607889186e+00 -3.2457267002e-01 2.1886143452e+00 -3.7907912441e+00 2.1886143452e+00 3.7907912441e+00 
5700 4.6593798889e+00 -3.2062932255e-01 2.1960335446e+00 -3.8036416744e+00 2.1960335446e+00 3.8036416744e+00 
5800 4.6582383428e+00 -3.1651762656e-01 2.2033377677e+00 -3.8162929599e+00 2.2033377677e+00 3.8162929599e+00 
5900 4.6573508243e+00 -3.1224029872e-01 2.2105243426e+00 -3.8287404727e+00 2.2105243426e+00 3.8287404727e+00 
6000 4.6567025011e+00 -3.0780053839e-01 2.2175906759e+00 -3.8409797210e+00 2.2175906759e+00 3.8409797210e+00 
6100 4.6562773352e+00 -3.0320202637e-01 2.2245342608e+00 -3.8530063628e+00 2.2245342608e+00 3.8530063628e+00 
6200 4.6560582540e+00 -2.9844892621e-01 2.2313526850e+00 -3.8648162200e+00 2.2313526850e+00 3.8648162200e+00 
6300 4.6560273213e+00 -2.9354588761e-01 2.2380436389e+00 -3.8764052922e+00 2.2380436389e+00 3.8764052922e+00 
6400 4.6561659081e+00 -2.8849805146e-01 2.2446049237e+00 -3.8877697707e+00 2.2446049237e+00 3.8877697707e+00 
6500 4.6564548630e+00 -2.8331105569e-01 2.2510344588e+00 -3.8989060522e+00 2.2510344588e+00 3.8989060522e+00 
6600 4.6568746816e+00 -2.7799104162e-01 2.2573302907e+00 -3.9098107529e+00 2.2573302907e+00 3.9098107529e+00 
6700 4.6574056760e+00 -2.7254465986e-01 2.2634906005e+00 -3.9204807226e+00 2.2634906005e+00 3.9204807226e+00 
6800 4.6580281420e+00 -2.6697907534e-01 2.2695137128e+00 -3.9309130590e+00 2.2695137128e+00 3.9309130590e+00 
6900 4.6587225248e+00 -2.6130197068e-01 2.2753981032e+00 -3.9411051223e+00 2.2753981032e+00 3.9411051223e+00 
7000 4.6594695829e+00 -2.5552154715e-01 2.2811424078e+00 -3.9510545495e+00 2.2811424078e+00 3.9510545495e+00 
7100 4.6602505478e+00 -2.4964652272e-01 2.2867454304e+00 -3.9607592695e+00 2.2867454304e+00 3.9607592695e+00 
7200 4.6610472810e+00 -2.4368612630e-01 2.2922061521e+00 -3.9702175168e+00 2.2922061521e+00 3.9702175168e+00 
7300 4.6618424244e+00 -2.3765008770e-01 2.2975237386e+00 -3.9794278469e+00 2.2975237386e+00 3.9794278469e+00 
7400 4.6626195456e+00 -2.3154862265e-01 2.3026975491e+00 -3.9883891495e+00 2.3026975491e+00 3.9883891495e+00 
7500 4.6633632750e+00 -2.2539241233e-01 2.3077271436e+00 -3.9971006628e+00 2.3077271436e+00 3.9971006628e+00 
7600 4.6640594336e+00 -2.1919257703e-01 2.3126122909e+00 -4.0055619860e+00 2.3126122909e+00 4.0055619860e+00 
7700 4.6646951507e+00 -2.1296064358e-01 2.3173529750e+00 -4.0137730917e+00 2.3173529750e+00 4.0137730917e+00 
7800 4.6652589683e+00 -2.0670850627e-01 2.3219494021e+00 -4.0217343370e+00 2.3219494021e+00 4.0217343370e+00 
7900 4.6657409325e+00 -2.0044838133e-01 2.3264020061e+00 -4.0294464734e+00 2.3264020061e+00 4.0294464734e+00 
8000 4.6661326680e+00 -1.9419275497e-01 2.3307114533e+00 -4.0369106549e+00 2.3307114533e+00 4.0369106549e+00 
8100 4.6664274365e+00 -1.8795432517e-01 2.3348786466e+00 -4.0441284454e+00 2.3348786466e+00 4.0441284454e+00 
8200 4.6666201754e+00 -1.8174593776e-01 2.3389047280e+00 -4.0511018230e+00 2.3389047280e+00 4.0511018230e+00 
8300 4.6667075168e+00 -1.7558051724e-01 2.3427910807e+00 -4.0578331833e+00 2.3427910807e+00 4.0578331833e+00 
8400 4.6666877856e+00 -1.6947099319e-01 2.3465393289e+00 -4.0643253396e+00 2.3465393289e+00 4.0643253396e+00 
8500 4.6665609757e+00 -1.6343022295e-01 2.3501513372e+00 -4.0705815216e+00 2.3501513372e+00 4.0705815216e+00 
8600 4.6663287043e+00 -1.5747091180e-01 2.3536292082e+00 -4.0766053708e+00 2.3536292082e+00 4.0766053708e+00 
8700 4.6659941436e+00 -1.5160553154e-01 2.3569752782e+00 -4.0824009341e+00 2.3569752782e+00 4.0824009341e+00 
8800 4.6655619320e+00 -1.4584623873e-01 2.3601921122e+00 -4.0879726539e+00 2.3601921122e+00 4.0879726539e+00 
8900 4.6650380640e+00 -1.4020479379e-01 2.3632824966e+00 -4.0933253567e+00 2.3632824966e+00 4.0933253567e+00 
9000 4.6644297615e+00 -1.3469248214e-01 2.3662494311e+00 -4.0984642380e+00 2.3662494311e+00 4.0984642380e+00 
9100 4.6637453274e+00 -1.2932003869e-01 2.3690961185e+00 -4.1033948453e+00 2.3690961185e+00 4.1033948453e+00 
9200 4.6629939850e+00 -1.2409757674e-01 2.3718259538e+00 -4.1081230586e+00 2.3718259538e+00 4.1081230586e+00 
9300 4.6621857049e+00 -1.1903452235e-01 2.3744425109e+00 -4.1126550686e+00 2.3744425109e+00 4.1126550686e+00 
9400 4.6613310231e+00 -1.1413955528e-01 2.3769495298e+00 -4.1169973526e+00 2.3769495298e+00 4.1169973526e+00 
9500 4.6604408530e+00 -1.0942055713e-01 2.3793509008e+00 -4.1211566491e+00 2.3793509008e+00 4.1211566491e+00 
9600 4.6595262958e+00 -1.0488456755e-01 2.3816506491e+00 -4.1251399300e+00 2.3816506491e+00 4.1251399300e+00 
9700 4.6585984518e+00 -1.0053774886e-01 2.3838529182e+00 -4.1289543721e+00 2.3838529182e+00 4.1289543721e+00 
9800 4.6576682368e+00 -9.6385359433e-02 2.3859619526e+00 -4.1326073269e+00 2.3859619526e+00 4.1326073269e+00 
9900 4.6567462073e+00 -9.2431736046e-02 2.3879820801e+00 -4.1361062904e+00 2.3879820801e+00 4.1361062904e+00 
10000 4.6558423972e+00 -8.8680285013e-02 2.3899176937e+00 -4.1394588714e+00 2.3899176937e+00 4.1394588714e+00 
10100 4.6549661691e+00 -8.5133481971e-02 2.3917732336e+00 -4.1426727607e+00 2.3917732336e+00 4.1426727607e+00 
10200 4.6541260840e+00 -8.1792879893e-02 2.3935531689e+00 -4.1457556991e+00 2.3935531689e+00 4.1457556991e+00 
10300 4.6533297892e+00 -7.8659124798e-02 2.3952619799e+00 -4.1487154467e+00 2.3952619799e+00 4.1487154467e+00 
10400 4.6525839288e+00 -7.5731978559e-02 2.3969041407e+00 -4.1515597526e+00 2.3969041407e+00 4.1515597526e+00 
10500 4.6518940756e+00 -7.3010348057e-02 2.3984841015e+00 -4.1542963250e+00 2.3984841015e+00 4.1542963250e+00 
10600 4.6512646871e+00 -7.0492319940e-02 2.4000062727e+00 -4.1569328027e+00 2.4000062727e+00 4.1569328027e+00 
10700 4.6506990832e+00 -6.8175200176e-02 2.4014750085e+00 -4.1594767278e+00 2.4014750085e+00 4.1594767278e+00 
10800 4.6501994474e+00 -6.6055557591e-02 2.4028945926e+00 -4.1619355195e+00 2.4028945926e+00 4.1619355195e+00 
10900 4.6497668490e+00 -6.4129270624e-02 2.4042692232e+00 -4.1643164497e+00 2.4042692232e+00 4.1643164497e+00 
11000 4.6494012851e+00 -6.2391576534e-02 2.4056030006e+00 -4.1666266198e+00 2.4056030006e+00 4.1666266198e+00 
11100 4.6491017410e+00 -6.0837122379e-02 2.4068999140e+00 -4.1688729398e+00 2.4068999140e+00 4.1688729398e+00 
11200 4.6488662657e+00 -5.9460017118e-02 2.4081638312e+00 -4.1710621086e+00 2.4081638312e+00 4.1710621086e+00 
11300 4.6486920610e+00 -5.8253884280e-02 2.4093984876e+00 -4.1732005961e+00 2.4093984876e+00 4.1732005961e+00 
11400 4.6485755813e+00 -5.7211914690e-02 2.4106074771e+00 -4.1752946275e+00 2.4106074771e+00 4.1752946275e+00 
11500 4.6485126408e+00 -5.6326918822e-02 2.4117942445e+00 -4.1773501689e+00 2.4117942445e+00 4.1773501689e+00 
11600 4.6484985264e+00 -5.5591378421e-02 2.4129620776e+00 -4.1793729151e+00 2.4129620776e+00 4.1793729151e+00 
11700 4.6485281120e+00 -5.4997497069e-02 2.4141141015e+00 -4.1813682791e+00 2.4141141015e+00 4.1813682791e+00 
11800 4.6485959740e+00 -5.4537249451e-02 2.4152532734e+00 -4.1833413827e+00 2.4152532734e+00 4.1833413827e+00 
11900 4.6486965030e+00 -5.4202429101e-02 2.4163823785e+00 -4.1852970501e+00 2.4163823785e+00 4.1852970501e+00 
12000 4.6488240121e+00 -5.3984694460e-02 2.4175040268e+00 -4.1872398018e+00 2.4175040268e+00 4.1872398018e+00 
12100 4.6489728376e+00 -5.3875613105e-02 2.4186206505e+00 -4.1891738509e+00 2.4186206505e+00 4.1891738509e+00 
12200 4.6491374328e+00 -5.3866704020e-02 2.4197345033e+00 -4.1911031005e+00 2.4197345033e+00 4.1911031005e+00 
12300 4.6493124519e+00 -5.3949477834e-02 2.4208476591e+00 -4.1930311430e+00 2.4208476591e+00 4.1930311430e+00 
12400 4.6494928242e+00 -5.4115474933e-02 2.4219620129e+00 -4.1949612603e+00 2.4219620129e+00 4.1949612603e+00 
12500 4.6496738171e+00 -5.4356301383e-02 2.4230792813e+00 -4.1968964260e+00 2.4230792813e+00 4.1968964260e+00 
12600 4.6498510886e+00 -5.4663662619e-02 2.4242010047e+00 -4.1988393079e+00 2.4242010047e+00 4.1988393079e+00 
12700 4.6500207282e+00 -5.5029394855e-02 2.4253285493e+00 -4.2007922725e+00 2.4253285493e+00 4.2007922725e+00 
12800 4.6501792873e+00 -5.5445494184e-02 2.4264631107e+00 -4.2027573905e+00 2.4264631107e+00 4.2027573905e+00 
12900 4.6503237985e+00 -5.5904143350e-02 2.4276057171e+00 -4.2047364427e+00 2.4276057171e+00 4.2047364427e+00 
13000 4.6504517857e+00 -5.6397736186e-02 2.4287572336e+00 -4.2067309278e+00 2.4287572336e+00 4.2067309278e+00 
13100 4.6505612642e+00 -5.6918899723e-02 2.4299183671e+00 -4.2087420700e+00 2.4299183671e+00 4.2087420700e+00 
13200 4.6506507325e+00 -5.7460513982e-02 2.4310896712e+00 -4.2107708283e+00 2.4310896712e+00 4.2107708283e+00 
13300 4.6507191574e+00 -5.8015729477e-02 2.4322715521e+00 -4.2128179060e+00 2.4322715521e+00 4.2128179060e+00 
13400 4.6507659516e+00 -5.8577982483e-02 2.4334642739e+00 -4.2148837609e+00 2.4334642739e+00 4.2148837609e+00 
13500 4.6507909464e+00 -5.9141008110e-02 2.4346679655e+00 -4.2169686158e+00 2.4346679655e+00 4.2169686158e+00 
13600 4.6507943596e+00 -5.9698851252e-02 2.4358826265e+00 -4.2190724703e+00 2.4358826265e+00 4.2190724703e+00 
13700 4.6507767598e+00 -6.0245875500e-02 2.4371081341e+00 -4.2211951118e+00 2.4371081341e+00 4.2211951118e+00 
13800 4.6507390287e+00 -6.0776770095e-02 2.4383442501e+00 -4.2233361274e+00 2.4383442501e+00 4.2233361274e+00 
13900 4.6506823208e+00 -6.1286555026e-02 2.4395906275e+00 -4.2254949165e+00 2.4395906275e+00 4.2254949165e+00 
14000 4.6506080229e+00 -6.1770584376e-02 2.4408468180e+00 -4.2276707022e+00 2.4408468180e+00 4.2276707022e+00 
14100 4.6505177134e+00 -6.2224548031e-02 2.4421122788e+00 -4.2298625446e+00 2.4421122788e+00 4.2298625446e+00 
14200 4.6504131217e+00 -6.2644471869e-02 2.4433863798e+00 -4.2320693523e+00 2.4433863798e+00 4.2320693523e+00 
14300 4.6502960893e+00 -6.3026716538e-02 2.4446684109e+00 -4.2342898953e+00 2.4446684109e+00 4.2342898953e+00 
14400 4.6501685320e+00 -6.3367974956e-02 2.4459575889e+00 -4.2365228171e+00 2.4459575889e+00 4.2365228171e+00 
14500 4.6500324049e+00 -6.3665268651e-02 2.4472530644e+00 -4.2387666465e+00 2.4472530644e+00 4.2387666465e+00 
14600 4.6498896690e+00 -6.3915943038e-02 2.4485539292e+00 -4.2410198104e+00 2.4485539292e+00 4.2410198104e+00 
14700 4.6497422611e+00 -6.4117661784e-02 2.4498592224e+00 -4.2432806446e+00 2.4498592224e+00 4.2432806446e+00 
14800 4.6495920665e+00 -6.4268400325e-02 2.4511679378e+00 -4.2455474061e+00 2.4511679378e+00 4.2455474061e+00 
14900 4.6494408944e+00 -6.4366438679e-02 2.4524790296e+00 -4.2478182838e+00 2.4524790296e+00 4.2478182838e+00 
15000 4.6492904568e+00 -6.4410353622e-02 2.4537914195e+00 -4.2500914098e+00 2.4537914195e+00 4.2500914098e+00 
15100 4.6491423505e+00 -6.4399010327e-02 2.4551040024e+00 -4.2523648701e+00 2.4551040024e+00 4.2523648701e+00 
15200 4.6489980421e+00 -6.4331553555e-02 2.4564156524e+00 -4.2546367144e+00 2.4564156524e+00 4.2546367144e+00 
15300 4.6488588558e+00 -6.4207398450e-02 2.4577252285e+00 -4.2569049668e+00 2.4577252285e+00 4.2569049668e+00 
15400 4.6487259650e+00 -6.4026221030e-02 2.4590315805e+00 -4.2591676348e+00 2.4590315805e+00 4.2591676348e+00 
15500 4.6486003860e+00 -6.3787948409e-02 2.4603335537e+00 -4.2614227186e+00 2.4603335537e+00 4.2614227186e+00 
15600 4.6484829741e+00 -6.3492748810e-02 2.4616299948e+00 -4.2636682204e+00 2.4616299948e+00 4.2636682204e+00 
15700 4.6483744233e+00 -6.3141021419e-02 2.4629197558e+00 -4.2659021520e+00 2.4629197558e+00 4.2659021520e+00 
15800 4.6482752675e+00 -6.2733386093e-02 2.4642016996e+00 -4.2681225439e+00 2.4642016996e+00 4.2681225439e+00 
15900 4.6481858836e+00 -6.2270672980e-02 2.4654747039e+00 -4.2703274519e+00 2.4654747039e+00 4.2703274519e+00 
16000 4.6481064973e+00 -6.1753912051e-02 2.4667376652e+00 -4.2725149652e+00 2.4667376652e+00 4.2725149652e+00 
16100 4.6480371899e+00 -6.1184322575e-02 2.4679895035e+00 -4.2746832126e+00 2.4679895035e+00 4.2746832126e+00 
16200 4.6479779068e+00 -6.0563302549e-02 2.4692291652e+00 -4.2768303697e+00 2.4692291652e+00 4.2768303697e+00 
16300 4.6479284673e+00 -5.9892418095e-02 2.4704556272e+00 -4.2789546641e+00 2.4704556272e+00 4.2789546641e+00 
16400 4.6478885752e+00 -5.9173392823e-02 2.4716678998e+00 -4.2810543819e+00 2.4716678998e+00 4.2810543819e+00 
16500 4.6478578306e+00 -5.8408097177e-02 2.4728650300e+00 -4.2831278723e+00 2.4728650300e+00 4.2831278723e+00 
16600 4.6478357416e+00 -5.7598537768e-02 2.4740461043e+00 -4.2851735529e+00 2.4740461043e+00 4.2851735529e+00 
16700 4.6478217375e+00 -5.6746846678e-02 2.4752102510e+00 -4.2871899141e+00 2.4752102510e+00 4.2871899141e+00 
16800 4.6478151811e+00 -5.5855270763e-02 2.4763566430e+00 -4.2891755233e+00 2.4763566430e+00 4.2891755233e+00 
16900 4.6478153818e+00 -5.4926160948e-02 2.4774844997e+00 -4.2911290284e+00 2.4774844997e+00 4.2911290284e+00 
17000 4.6478216080e+00 -5.3961961504e-02 2.4785930889e+00 -4.2930491613e+00 2.4785930889e+00 4.2930491613e+00 
17100 4.6478331002e+00 -5.2965199338e-02 2.4796817289e+00 -4.2949347411e+00 2.4796817289e+00 4.2949347411e+00 
17200 4.6478490825e+00 -5.1938473282e-02 2.4807497894e+00 -4.2967846760e+00 2.4807497894e+00 4.2967846760e+00 
17300 4.6478687742e+00 -5.0884443399e-02 2.4817966931e+00 -4.2985979665e+00 2.4817966931e+00 4.2985979665e+00 
17400 4.6478914010e+00 -4.9805820319e-02 2.4828219170e+00 -4.3003737064e+00 2.4828219170e+00 4.3003737064e+00 
17500 4.6479162047e+00 -4.8705354608e-02 2.4838249928e+00 -4.3021110846e+00 2.4838249928e+00 4.3021110846e+00 
17600 4.6479424530e+00 -4.7585826200e-02 2.4848055079e+00 -4.3038093866e+00 2.4848055079e+00 4.3038093866e+00 
17700 4.6479694473e+00 -4.6450033904e-02 2.4857631056e+00 -4.3054679945e+00 2.4857631056e+00 4.3054679945e+00 
17800 4.6479965306e+00 -4.5300785005e-02 2.4866974855e+00 -4.3070863880e+00 2.4866974855e+00 4.3070863880e+00 
17900 4.6480230939e+00 -4.4140884991e-02 2.4876084035e+00 -4.3086641442e+00 2.4876084035e+00 4.3086641442e+00 
18000 4.6480485814e+00 -4.2973127425e-02 2.4884956715e+00 -4.3102009375e+00 2.4884956715e+00 4.3102009375e+00 
18100 4.6480724948e+00 -4.1800283998e-02 2.4893591573e+00 -4.3116965387e+00 2.4893591573e+00 4.3116965387e+00 
18200 4.6480943969e+00 -4.0625094788e-02 2.4901987837e+00 -4.3131508143e+00 2.4901987837e+00 4.3131508143e+00 
18300 4.6481139138e+00 -3.9450258757e-02 2.4910145280e+00 -4.3145637250e+00 2.4910145280e+00 4.3145637250e+00 
18400 4.6481307361e+00 -3.8278424529e-02 2.4918064212e+00 -4.3159353242e+00 2.4918064212e+00 4.3159353242e+00 
18500 4.6481446192e+00 -3.7112181473e-02 2.4925745465e+00 -4.3172657562e+00 2.4925745465e+00 4.3172657562e+00 
18600 4.6481553826e+00 -3.5954051124e-02 2.4933190383e+00 -4.3185552539e+00 2.4933190383e+00 4.3185552539e+00 
18700 4.6481629088e+00 -3.4806478995e-02 2.4940400809e+00 -4.3198041363e+00 2.4940400809e+00 4.3198041363e+00 
18800 4.6481671405e+00 -3.3671826786e-02 2.4947379065e+00 -4.3210128057e+00 2.4947379065e+00 4.3210128057e+00 
18900 4.6481680780e+00 -3.2552365050e-02 2.4954127940e+00 -4.3221817450e+00 2.4954127940e+00 4.3221817450e+00 
19000 4.6481657753e+00 -3.1450266328e-02 2.4960650665e+00 -4.3233115141e+00 2.4960650665e+00 4.3233115141e+00 
19100 4.6481603359e+00 -3.0367598794e-02 2.4966950899e+00 -4.3244027467e+00 2.4966950899e+00 4.3244027467e+00 
19200 4.6481519082e+00 -2.9306320432e-02 2.4973032705e+00 -4.3254561464e+00 2.4973032705e+00 4.3254561464e+00 
19300 4.6481406805e+00 -2.8268273770e-02 2.4978900528e+00 -4.3264724832e+00 2.4978900528e+00 4.3264724832e+00 
19400 4.6481268753e+00 -2.7255181190e-02 2.4984559172e+00 -4.3274525891e+00 2.4984559172e+00 4.3274525891e+00 
19500 4.6481107443e+00 -2.6268640842e-02 2.4990013776e+00 -4.3283973541e+00 2.4990013776e+00 4.3283973541e+00 
19600 4.6480925622e+00 -2.5310123164e-02 2.4995269787e+00 -4.3293077221e+00 2.4995269787e+00 4.3293077221e+00 
19700 4.6480726212e+00 -2.4380968018e-02 2.5000332941e+00 -4.3301846860e+00 2.5000332941e+00 4.3301846860e+00 
19800 4.6480512257e+00 -2.3482382464e-02 2.5005209228e+00 -4.3310292837e+00 2.5005209228e+00 4.3310292837e+00 
19900 4.6480286865e+00 -2.2615439156e-02 2.5009904873e+00 -4.3318425932e+00 2.5009904873e+00 4.3318425932e+00 
20000 4.6480053158e+00 -2.1781075366e-02 2.5014426306e+00 -4.3326257284e+00 2.5014426306e+00 4.3326257284e+00 
20100 4.6479814220e+00 -2.0980092636e-02 2.5018780135e+00 -4.3333798337e+00 2.5018780135e+00 4.3333798337e+00 
20200 4.6479573054e+00 -2.0213157032e-02 2.5022973121e+00 -4.3341060801e+00 2.5022973121e+00 4.3341060801e+00 
20300 4.6479332540e+00 -1.9480800005e-02 2.5027012149e+00 -4.3348056604e+00 2.5027012149e+00 4.3348056604e+00 
20400 4.6479095396e+00 -1.8783419826e-02 2.5030904205e+00 -4.3354797842e+00 2.5030904205e+00 4.3354797842e+00 
20500 4.6478864147e+00 -1.8121283584e-02 2.5034656344e+00 -4.3361296739e+00 2.5034656344e+00 4.3361296739e+00 
20600 4.6478641096e+00 -1.7494529721e-02 2.5038275671e+00 -4.3367565596e+00 2.5038275671e+00 4.3367565596e+00 
20700 4.6478428302e+00 -1.6903171070e-02 2.5041769310e+00 -4.3373616756e+00 2.5041769310e+00 4.3373616756e+00 
20800 4.6478227564e+00 -1.6347098375e-02 2.5045144381e+00 -4.3379462550e+00 2.5045144381e+00 4.3379462550e+00 
20900 4.6478040407e+00 -1.5826084263e-02 2.5048407978e+00 -4.3385115267e+00 2.5048407978e+00 4.3385115267e+00 
21000 4.6477868075e+00 -1.5339787616e-02 2.5051567144e+00 -4.3390587103e+00 2.5051567144e+00 4.3390587103e+00 
21100 4.6477711531e+00 -1.4887758340e-02 2.5054628849e+00 -4.3395890131e+00 2.5054628849e+00 4.3395890131e+00 
21200 4.6477571455e+00 -1.4469442458e-02 2.5057599967e+00 -4.3401036259e+00 2.5057599967e+00 4.3401036259e+00 
21300 4.6477448256e+00 -1.4084187516e-02 2.5060487259e+00 -4.3406037195e+00 2.5060487259e+00 4.3406037195e+00 
21400 4.6477342076e+00 -1.3731248256e-02 2.5063297350e+00 -4.3410904415e+00 2.5063297350e+00 4.3410904415e+00 
21500 4.6477252810e+00 -1.3409792515e-02 2.5066036714e+00 -4.3415649133e+00 2.5066036714e+00 4.3415649133e+00 
21600 4.6477180120e+00 -1.3118907313e-02 2.5068711654e+00 -4.3420282266e+00 2.5068711654e+00 4.3420282266e+00 
21700 4.6477123456e+00 -1.2857605098e-02 2.5071328290e+00 -4.3424814411e+00 2.5071328290e+00 4.3424814411e+00 
21800 4.6477082074e+00 -1.2624830106e-02 2.5073892538e+00 -4.3429255820e+00 2.5073892538e+00 4.3429255820e+00 
21900 4.6477055064e+00 -1.2419464794e-02 2.5076410106e+00 -4.3433616374e+00 2.5076410106e+00 4.3433616374e+00 
22000 4.6477041374e+00 -1.2240336331e-02 2.5078886471e+00 -4.3437905564e+00 2.5078886471e+00 4.3437905564e+00 
22100 4.6477039830e+00 -1.2086223090e-02 2.5081326877e+00 -4.3442132472e+00 2.5081326877e+00 4.3442132472e+00 
22200 4.6477049170e+00 -1.1955861124e-02 2.5083736322e+00 -4.3446305754e+00 2.5083736322e+00 4.3446305754e+00 
22300 4.6477068061e+00 -1.1847950588e-02 2.5086119550e+00 -4.3450433625e+00 2.5086119550e+00 4.3450433625e+00 
22400 4.6477095127e+00 -1.1761162089e-02 2.5088481042e+00 -4.3454523850e+00 2.5088481042e+00 4.3454523850e+00 
22500 4.6477128976e+00 -1.1694142919e-02 2.5090825015e+00 -4.3458583730e+00 2.5090825015e+00 4.3458583730e+00 
22600 4.6477168215e+00 -1.1645523163e-02 2.5093155414e+00 -4.3462620099e+00 2.5093155414e+00 4.3462620099e+00 
22700 4.6477211478e+00 -1.1613921654e-02 2.5095475908e+00 -4.3466639312e+00 2.5095475908e+00 4.3466639312e+00 
22800 4.6477257442e+00 -1.1597951745e-02 2.5097789890e+00 -4.3470647248e+00 2.5097789890e+00 4.3470647248e+00 
22900 4.6477304844e+00 -1.1596226895e-02 2.5100100478e+00 -4.3474649304e+00 2.5100100478e+00 4.3474649304e+00 
23000 4.6477352495e+00 -1.1607366040e-02 2.5102410510e+00 -4.3478650396e+00 2.5102410510e+00 4.3478650396e+00 
23100 4.6477399297e+00 -1.1629998732e-02 2.5104722548e+00 -4.3482654962e+00 2.5104722548e+00 4.3482654962e+00 
23200 4.6477444250e+00 -1.1662770049e-02 2.5107038880e+00 -4.3486666968e+00 2.5107038880e+00 4.3486666968e+00 
23300 4.6477486461e+00 -1.1704345249e-02 2.5109361526e+00 -4.3490689908e+00 2.5109361526e+00 4.3490689908e+00 
23400 4.6477525150e+00 -1.1753414155e-02 2.5111692235e+00 -4.3494726816e+00 2.5111692235e+00 4.3494726816e+00 
23500 4.6477559658e+00 -1.1808695291e-02 2.5114032499e+00 -4.3498780271e+00 2.5114032499e+00 4.3498780271e+00 
23600 4.6477589441e+00 -1.1868939725e-02 2.5116383551e+00 -4.3502852413e+00 2.5116383551e+00 4.3502852413e+00 
23700 4.6477614078e+00 -1.1932934646e-02 2.5118746377e+00 -4.3506944947e+00 2.5118746377e+00 4.3506944947e+00 
23800 4.6477633262e+00 -1.1999506655e-02 2.5121121719e+00 -4.3511059160e+00 2.5121121719e+00 4.3511059160e+00 
23900 4.6477646803e+00 -1.2067524776e-02 2.5123510087e+00 -4.3515195934e+00 2.5123510087e+00 4.3515195934e+00 
24000 4.6477654618e+00 -1.2135903182e-02 2.5125911765e+00 -4.3519355763e+00 2.5125911765e+00 4.3519355763e+00 
24100 4.6477656726e+00 -1.2203603644e-02 2.5128326821e+00 -4.3523538763e+00 2.5128326821e+00 4.3523538763e+00 
24200 4.6477653242e+00 -1.2269637695e-02 2.5130755116e+00 -4.3527744694e+00 2.5130755116e+00 4.3527744694e+00 
24300 4.6477644366e+00 -1.2333068526e-02 2.5133196316e+00 -4.3531972975e+00 2.5133196316e+00 4.3531972975e+00 
24400 4.6477630375e+00 -1.2393012607e-02 2.5135649897e+00 -4.3536222703e+00 2.5135649897e+00 4.3536222703e+00 
24500 4.6477611614e+00 -1.2448641045e-02 2.5138115164e+00 -4.3540492670e+00 2.5138115164e+00 4.3540492670e+00 
24600 4.6477588485e+00 -1.2499180677e-02 2.5140591253e+00 -4.3544781383e+00 2.5140591253e+00 4.3544781383e+00 
24700 4.6477561436e+00 -1.2543914922e-02 2.5143077151e+00 -4.3549087084e+00 2.5143077151e+00 4.3549087084e+00 
24800 4.6477530953e+00 -1.2582184376e-02 2.5145571699e+00 -4.3553407768e+00 2.5145571699e+00 4.3553407768e+00 
24900 4.6477497546e+00 -1.2613387175e-02 2.5148073609e+00 -4.3557741203e+00 2.5148073609e+00 4.3557741203e+00 
25000 4.6477461743e+00 -1.2636979134e-02 2.5150581474e+00 -4.3562084954e+00 2.5150581474e+00 4.3562084954e+00 
25100 4.6477424081e+00 -1.2652473658e-02 2.5153093780e+00 -4.3566436395e+00 2.5153093780e+00 4.3566436395e+00 
25200 4.6477385091e+00 -1.2659441450e-02 2.5155608915e+00 -4.3570792736e+00 2.5155608915e+00 4.3570792736e+00 
25300 4.6477345299e+00 -1.2657510011e-02 2.5158125183e+00 -4.3575151041e+00 2.5158125183e+00 4.3575151041e+00 
25400 4.6477305210e+00 -1.2646362956e-02 2.5160640816e+00 -4.3579508244e+00 2.5160640816e+00 4.3579508244e+00 
25500 4.6477265307e+00 -1.2625739147e-02 2.5163153982e+00 -4.3583861176e+00 2.5163153982e+00 4.3583861176e+00 
25600 4.6477226041e+00 -1.2595431649e-02 2.5165662799e+00 -4.3588206574e+00 2.5165662799e+00 4.3588206574e+00 
25700 4.6477187832e+00 -1.2555286535e-02 2.5168165344e+00 -4.3592541109e+00 2.5168165344e+00 4.3592541109e+00 
25800 4.6477151056e+00 -1.2505201529e-02 2.5170659664e+00 -4.3596861399e+00 2.5170659664e+00 4.3596861399e+00 
25900 4.6477116051e+00 -1.2445124520e-02 2.5173143788e+00 -4.3601164027e+00 2.5173143788e+00 4.3601164027e+00 
26000 4.6477083107e+00 -1.2375051939e-02 2.5175615734e+00 -4.3605445563e+00 2.5175615734e+00 4.3605445563e+00 
26100 4.6477052469e+00 -1.2295027013e-02 2.5178073519e+00 -4.3609702572e+00 2.5178073519e+00 4.3609702572e+00 
26200 4.6477024336e+00 -1.2205137919e-02 2.5180515173e+00 -4.3613931640e+00 2.5180515173e+00 4.3613931640e+00 
26300 4.6476998859e+00 -1.2105515830e-02 2.5182938740e+00 -4.3618129381e+00 2.5182938740e+00 4.3618129381e+00 
26400 4.6476976142e+00 -1.1996332874e-02 2.5185342293e+00 -4.3622292458e+00 2.5185342293e+00 4.3622292458e+00 
26500 4.6476956245e+00 -1.1877800012e-02 2.5187723941e+00 -4.3626417593e+00 2.5187723941e+00 4.3626417593e+00 
26600 4.6476939186e+00 -1.1750164852e-02 2.5190081833e+00 -4.3630501581e+00 2.5190081833e+00 4.3630501581e+00 
26700 4.6476924941e+00 -1.1613709391e-02 2.5192414169e+00 -4.3634541305e+00 2.5192414169e+00 4.3634541305e+00 
26800 4.6476913448e+00 -1.1468747718e-02 2.5194719205e+00 -4.3638533745e+00 2.5194719205e+00 4.3638533745e+00 
26900 4.6476904613e+00 -1.1315623671e-02 2.5196995261e+00 -4.3642475991e+00 2.5196995261e+00 4.3642475991e+00 
27000 4.6476898310e+00 -1.1154708460e-02 2.5199240726e+00 -4.3646365249e+00 2.5199240726e+00 4.3646365249e+00 
27100 4.6476894387e+00 -1.0986398268e-02 2.5201454061e+00 -4.3650198858e+00 2.5201454061e+00 4.3650198858e+00 
27200 4.6476892667e+00 -1.0811111843e-02 2.5203633807e+00 -4.3653974290e+00 2.5203633807e+00 4.3653974290e+00 
27300 4.6476892957e+00 -1.0629288078e-02 2.5205778590e+00 -4.3657689163e+00 2.5205778590e+00 4.3657689163e+00 
27400 4.6476895048e+00 -1.0441383593e-02 2.5207887122e+00 -4.3661341247e+00 2.5207887122e+00 4.3661341247e+00 
27500 4.6476898720e+00 -1.0247870342e-02 2.5209958205e+00 -4.3664928468e+00 2.5209958205e+00 4.3664928468e+00 
27600 4.6476903748e+00 -1.0049233216e-02 2.5211990737e+00 -4.3668448916e+00 2.5211990737e+00 4.3668448916e+00 
27700 4.6476909901e+00 -9.8459677003e-03 2.5213983710e+00 -4.3671900848e+00 2.5213983710e+00 4.3671900848e+00 
27800 4.6476916952e+00 -9.6385775421e-03 2.5215936217e+00 -4.3675282689e+00 2.5215936217e+00 4.3675282689e+00 
27900 4.6476924675e+00 -9.4275724771e-03 2.5217847449e+00 -4.3678593039e+00 2.5217847449e+00 4.3678593039e+00 
28000 4.6476932853e+00 -9.2134659966e-03 2.5219716698e+00 -4.3681830674e+00 2.5219716698e+00 4.3681830674e+00 
28100 4.6476941279e+00 -8.9967731729e-03 2.5221543360e+00 -4.3684994544e+00 2.5221543360e+00 4.3684994544e+00 
28200 4.6476949755e+00 -8.7780085462e-03 2.5223326930e+00 -4.3688083779e+00 2.5223326930e+00 4.3688083779e+00 
28300 4.6476958100e+00 -8.5576840793e-03 2.5225067008e+00 -4.3691097682e+00 2.5225067008e+00 4.3691097682e+00 
28400 4.6476966150e+00 -8.3363071856e-03 2.5226763293e+00 -4.3694035733e+00 2.5226763293e+00 4.3694035733e+00 
28500 4.6476973755e+00 -8.1143788365e-03 2.5228415585e+00 -4.3696897588e+00 2.5228415585e+00 4.3696897588e+00 
28600 4.6476980785e+00 -7.8923917519e-03 2.5230023785e+00 -4.3699683071e+00 2.5230023785e+00 4.3699683071e+00 
28700 4.6476987131e+00 -7.6708286785e-03 2.5231587888e+00 -4.3702392178e+00 2.5231587888e+00 4.3702392178e+00 
28800 4.6476992700e+00 -7.4501607607e-03 2.5233107988e+00 -4.3705025068e+00 2.5233107988e+00 4.3705025068e+00 
28900 4.6476997422e+00 -7.2308460069e-03 2.5234584269e+00 -4.3707582062e+00 2.5234584269e+00 4.3707582062e+00 
29000 4.6477001242e+00 -7.0133278549e-03 2.5236017008e+00 -4.3710063639e+00 2.5236017008e+00 4.3710063639e+00 
29100 4.6477004128e+00 -6.7980338385e-03 2.5237406568e+00 -4.3712470427e+00 2.5237406568e+00 4.3712470427e+00 
29200 4.6477006064e+00 -6.5853743582e-03 2.5238753397e+00 -4.3714803203e+00 2.5238753397e+00 4.3714803203e+00 
29300 4.6477007050e+00 -6.3757415577e-03 2.5240058024e+00 -4.3717062883e+00 2.5240058024e+00 4.3717062883e+00 
29400 4.6477007104e+00 -6.1695083074e-03 2.5241321055e+00 -4.3719250517e+00 2.5241321055e+00 4.3719250517e+00 
29500 4.6477006256e+00 -5.9670272955e-03 2.5242543170e+00 -4.3721367282e+00 2.5242543170e+00 4.3721367282e+00 
29600 4.6477004552e+00 -5.7686302281e-03 2.5243725117e+00 -4.3723414476e+00 2.5243725117e+00 4.3723414476e+00 
29700 4.6477002046e+00 -5.5746271375e-03 2.5244867713e+00 -4.3725393509e+00 2.5244867713e+00 4.3725393509e+00 
29800 4.6476998804e+00 -5.3853057982e-03 2.5245971832e+00 -4.3727305899e+00 2.5245971832e+00 4.3727305899e+00 
29900 4.6476994900e+00 -5.2009312509e-03 2.5247038407e+00 -4.3729153261e+00 2.5247038407e+00 4.3729153261e+00 
30000 4.6476990414e+00 -5.0217454313e-03 2.5248068422e+00 -4.3730937300e+00 2.5248068422e+00 4.3730937300e+00 
30100 4.6476985429e+00 -4.8479669040e-03 2.5249062910e+00 -4.3732659803e+00 2.5249062910e+00 4.3732659803e+00 
30200 4.6476980034e+00 -4.6797906980e-03 2.5250022945e+00 -4.3734322633e+00 2.5250022945e+00 4.3734322633e+00 
30300 4.6476974318e+00 -4.5173882416e-03 2.5250949641e+00 -4.3735927717e+00 2.5250949641e+00 4.3735927717e+00 
30400 4.6476968369e+00 -4.3609073950e-03 2.5251844145e+00 -4.3737477044e+00 2.5251844145e+00 4.3737477044e+00 
30500 4.6476962276e+00 -4.2104725758e-03 2.5252707633e+00 -4.3738972649e+00 2.5252707633e+00 4.3738972649e+00 
30600 4.6476956124e+00 -4.0661849751e-03 2.5253541305e+00 -4.3740416611e+00 2.5253541305e+00 4.3740416611e+00 
30700 4.6476949993e+00 -3.9281228597e-03 2.5254346381e+00 -4.3741811045e+00 2.5254346381e+00 4.3741811045e+00 
30800 4.6476943959e+00 -3.7963419577e-03 2.5255124098e+00 -4.3743158089e+00 2.5255124098e+00 4.3743158089e+00 
30900 4.6476938095e+00 -3.6708759210e-03 2.5255875700e+00 -4.3744459902e+00 2.5255875700e+00 4.3744459902e+00 
31000 4.6476932463e+00 -3.5517368632e-03 2.5256602440e+00 -4.3745718653e+00 2.5256602440e+00 4.3745718653e+00 
31100 4.6476927120e+00 -3.4389159654e-03 2.5257305574e+00 -4.3746936516e+00 2.5257305574e+00 4.3746936516e+00 
31200 4.6476922117e+00 -3.3323841470e-03 2.5257986353e+00 -4.3748115661e+00 2.5257986353e+00 4.3748115661e+00 
31300 4.6476917494e+00 -3.2320927962e-03 2.5258646026e+00 -4.3749258247e+00 2.5258646026e+00 4.3749258247e+00 
31400 4.6476913286e+00 -3.1379745546e-03 2.5259285828e+00 -4.3750366416e+00 2.5259285828e+00 4.3750366416e+00 
31500 4.6476909519e+00 -3.0499441517e-03 2.5259906983e+00 -4.3751442289e+00 2.5259906983e+00 4.3751442289e+00 
31600 4.6476906211e+00 -2.9678992835e-03 2.5260510698e+00 -4.3752487954e+00 2.5260510698e+00 4.3752487954e+00 
31700 4.6476903372e+00 -2.8917215300e-03 2.5261098158e+00 -4.3753505465e+00 2.5261098158e+00 4.3753505465e+00 
31800 4.6476901005e+00 -2.8212773079e-03 2.5261670527e+00 -4.3754496837e+00 2.5261670527e+00 4.3754496837e+00 
31900 4.6476899107e+00 -2.7564188510e-03 2.5262228940e+00 -4.3755464036e+00 2.5262228940e+00 4.3755464036e+00 
32000 4.6476897667e+00 -2.6969852153e-03 2.5262774503e+00 -4.3756408979e+00 2.5262774503e+00 4.3756408979e+00 
32100 4.6476896670e+00 -2.6428033030e-03 2.5263308291e+00 -4.3757333528e+00 2.5263308291e+00 4.3757333528e+00 
32200 4.6476896094e+00 -2.5936889006e-03 2.5263831345e+00 -4.3758239483e+00 2.5263831345e+00 4.3758239483e+00 
32300 4.6476895914e+00 -2.5494477262e-03 2.5264344667e+00 -4.3759128583e+00 2.5264344667e+00 4.3759128583e+00 
32400 4.6476896100e+00 -2.5098764818e-03 2.5264849223e+00 -4.3760002500e+00 2.5264849223e+00 4.3760002500e+00 
32500 4.6476896620e+00 -2.4747639058e-03 2.5265345938e+00 -4.3760862836e+00 2.5265345938e+00 4.3760862836e+00 
32600 4.6476897437e+00 -2.4438918217e-03 2.5265835694e+00 -4.3761711118e+00 2.5265835694e+00 4.3761711118e+00 
32700 4.6476898515e+00 -2.4170361778e-03 2.5266319331e+00 -4.3762548802e+00 2.5266319331e+00 4.3762548802e+00 
32800 4.6476899816e+00 -2.3939680759e-03 2.5266797645e+00 -4.3763377265e+00 2.5266797645e+00 4.3763377265e+00 
32900 4.6476901301e+00 -2.3744547838e-03 2.5267271384e+00 -4.3764197806e+00 2.5267271384e+00 4.3764197806e+00 
33000 4.6476902932e+00 -2.3582607279e-03 2.5267741253e+00 -4.3765011643e+00 2.5267741253e+00 4.3765011643e+00 
33100 4.6476904670e+00 -2.3451484639e-03 2.5268207909e+00 -4.3765819915e+00 2.5268207909e+00 4.3765819915e+00 
33200 4.6476906479e+00 -2.3348796211e-03 2.5268671962e+00 -4.3766623678e+00 2.5268671962e+00 4.3766623678e+00 
33300 4.6476908324e+00 -2.3272158187e-03 2.5269133974e+00 -4.3767423906e+00 2.5269133974e+00 4.3767423906e+00 
33400 4.6476910171e+00 -2.3219195498e-03 2.5269594461e+00 -4.3768221494e+00 2.5269594461e+00 4.3768221494e+00 
33500 4.6476911992e+00 -2.3187550332e-03 2.5270053892e+00 -4.3769017251e+00 2.5270053892e+00 4.3769017251e+00 
33600 4.6476913757e+00 -2.3174890276e-03 2.5270512689e+00 -4.3769811910e+00 2.5270512689e+00 4.3769811910e+00 
33700 4.6476915442e+00 -2.3178916097e-03 2.5270971226e+00 -4.3770606120e+00 2.5270971226e+00 4.3770606120e+00 
33800 4.6476917025e+00 -2.3197369110e-03 2.5271429835e+00 -4.3771400454e+00 2.5271429835e+00 4.3771400454e+00 
33900 4.6476918488e+00 -2.3228038151e-03 2.5271888801e+00 -4.3772195406e+00 2.5271888801e+00 4.3772195406e+00 
34000 4.6476919817e+00 -2.3268766118e-03 2.5272348365e+00 -4.3772991395e+00 2.5272348365e+00 4.3772991395e+00 
34100 4.6476920998e+00 -2.3317456081e-03 2.5272808727e+00 -4.3773788765e+00 2.5272808727e+00 4.3773788765e+00 
34200 4.6476922023e+00 -2.3372076951e-03 2.5273270043e+00 -4.3774587788e+00 2.5273270043e+00 4.3774587788e+00 
34300 4.6476922888e+00 -2.3430668698e-03 2.5273732432e+00 -4.3775388669e+00 2.5273732432e+00 4.3775388669e+00 
34400 4.6476923589e+00 -2.3491347119e-03 2.5274195971e+00 -4.3776191543e+00 2.5274195971e+00 4.3776191543e+00 
34500 4.6476924127e+00 -2.3552308149e-03 2.5274660702e+00 -4.3776996481e+00 2.5274660702e+00 4.3776996481e+00 
34600 4.6476924504e+00 -2.3611831720e-03 2.5275126631e+00 -4.3777803493e+00 2.5275126631e+00 4.3777803493e+00 
34700 4.6476924728e+00 -2.3668285161e-03 2.5275593729e+00 -4.3778612530e+00 2.5275593729e+00 4.3778612530e+00 
34800 4.6476924804e+00 -2.3720126152e-03 2.5276061935e+00 -4.3779423486e+00 2.5276061935e+00 4.3779423486e+00 
34900 4.6476924742e+00 -2.3765905228e-03 2.5276531157e+00 -4.3780236203e+00 2.5276531157e+00 4.3780236203e+00 
35000 4.6476924554e+00 -2.3804267844e-03 2.5277001277e+00 -4.3781050474e+00 2.5277001277e+00 4.3781050474e+00 
35100 4.6476924252e+00 -2.3833956009e-03 2.5277472146e+00 -4.3781866044e+00 2.5277472146e+00 4.3781866044e+00 
35200 4.6476923849e+00 -2.3853809492e-03 2.5277943594e+00 -4.3782682616e+00 2.5277943594e+00 4.3782682616e+00 
35300 4.6476923359e+00 -2.3862766624e-03 2.5278415426e+00 -4.3783499853e+00 2.5278415426e+00 4.3783499853e+00 
35400 4.6476922797e+00 -2.3859864684e-03 2.5278887427e+00 -4.3784317382e+00 2.5278887427e+00 4.3784317382e+00 
35500 4.6476922177e+00 -2.3844239913e-03 2.5279359361e+00 -4.3785134796e+00 2.5279359361e+00 4.3785134796e+00 
35600 4.6476921516e+00 -2.3815127137e-03 2.5279830977e+00 -4.3785951659e+00 2.5279830977e+00 4.3785951659e+00 
35700 4.6476920826e+00 -2.3771859039e-03 2.5280302009e+00 -4.3786767510e+00 2.5280302009e+00 4.3786767510e+00 
35800 4.6476920122e+00 -2.3713865081e-03 2.5280772176e+00 -4.3787581863e+00 2.5280772176e+00 4.3787581863e+00 
35900 4.6476919418e+00 -2.3640670098e-03 2.5281241187e+00 -4.3788394215e+00 2.5281241187e+00 4.3788394215e+00 
36000 4.6476918726e+00 -2.3551892577e-03 2.5281708742e+00 -4.3789204044e+00 2.5281708742e+00 4.3789204044e+00 
36100 4.6476918058e+00 -2.3447242645e-03 2.5282174533e+00 -4.3790010817e+00 2.5282174533e+00 4.3790010817e+00 
36200 4.6476917423e+00 -2.3326519771e-03 2.5282638245e+00 -4.3790813990e+00 2.5282638245e+00 4.3790813990e+00 
36300 4.6476916833e+00 -2.3189610219e-03 2.5283099562e+00 -4.3791613013e+00 2.5283099562e+00 4.3791613013e+00 
36400 4.6476916294e+00 -2.3036484249e-03 2.5283558162e+00 -4.3792407333e+00 2.5283558162e+00 4.3792407333e+00 
36500 4.6476915814e+00 -2.2867193105e-03 2.5284013726e+00 -4.3793196392e+00 2.5284013726e+00 4.3793196392e+00 
36600 4.6476915398e+00 -2.2681865793e-03 2.5284465934e+00 -4.3793979640e+00 2.5284465934e+00 4.3793979640e+00 
36700 4.6476915050e+00 -2.2480705679e-03 2.5284914469e+00 -4.3794756525e+00 2.5284914469e+00 4.3794756525e+00 
36800 4.6476914774e+00 -2.2263986916e-03 2.5285359018e+00 -4.3795526506e+00 2.5285359018e+00 4.3795526506e+00 
36900 4.6476914570e+00 -2.2032050733e-03 2.5285799274e+00 -4.3796289052e+00 2.5285799274e+00 4.3796289052e+00 
37000 4.6476914439e+00 -2.1785301587e-03 2.5286234935e+00 -4.3797043640e+00 2.5286234935e+00 4.3797043640e+00 
37100 4.6476914382e+00 -2.1524203217e-03 2.5286665711e+00 -4.3797789765e+00 2.5286665711e+00 4.3797789765e+00 
37200 4.6476914395e+00 -2.1249274599e-03 2.5287091316e+00 -4.3798526934e+00 2.5287091316e+00 4.3798526934e+00 
37300 4.6476914477e+00 -2.0961085830e-03 2.5287511477e+00 -4.3799254676e+00 2.5287511477e+00 4.3799254676e+00 
37400 4.6476914623e+00 -2.0660253967e-03 2.5287925934e+00 -4.3799972535e+00 2.5287925934e+00 4.3799972535e+00 
37500 4.6476914830e+00 -2.0347438819e-03 2.5288334435e+00 -4.3800680080e+00 2.5288334435e+00 4.3800680080e+00 
37600 4.6476915093e+00 -2.0023338725e-03 2.5288736745e+00 -4.3801376902e+00 2.5288736745e+00 4.3801376902e+00 
37700 4.6476915407e+00 -1.9688686330e-03 2.5289132640e+00 -4.3802062613e+00 2.5289132640e+00 4.3802062613e+00 
37800 4.6476915764e+00 -1.9344244371e-03 2.5289521913e+00 -4.3802736853e+00 2.5289521913e+00 4.3802736853e+00 
37900 4.6476916161e+00 -1.8990801496e-03 2.5289904370e+00 -4.3803399287e+00 2.5289904370e+00 4.3803399287e+00 
38000 4.6476916590e+00 -1.8629168125e-03 2.5290279833e+00 -4.3804049608e+00 2.5290279833e+00 4.3804049608e+00 
38100 4.6476917044e+00 -1.8260172369e-03 2.5290648141e+00 -4.3804687536e+00 2.5290648141e+00 4.3804687536e+00 
38200 4.6476917519e+00 -1.7884656020e-03 2.5291009148e+00 -4.3805312819e+00 2.5291009148e+00 4.3805312819e+00 
38300 4.6476918007e+00 -1.7503470630e-03 2.5291362726e+00 -4.3805925234e+00 2.5291362726e+00 4.3805925234e+00 
38400 4.6476918503e+00 -1.7117473682e-03 2.5291708763e+00 -4.3806524588e+00 2.5291708763e+00 4.3806524588e+00 
38500 4.6476919001e+00 -1.6727524870e-03 2.5292047165e+00 -4.3807110717e+00 2.5292047165e+00 4.3807110717e+00 
38600 4.6476919495e+00 -1.6334482501e-03 2.5292377853e+00 -4.3807683486e+00 2.5292377853e+00 4.3807683486e+00 
38700 4.6476919981e+00 -1.5939200025e-03 2.5292700767e+00 -4.3808242789e+00 2.5292700767e+00 4.3808242789e+00 
38800 4.6476920454e+00 -1.5542522698e-03 2.5293015863e+00 -4.3808788551e+00 2.5293015863e+00 4.3808788551e+00 
38900 4.6476920911e+00 -1.5145284398e-03 2.5293323112e+00 -4.3809320723e+00 2.5293323112e+00 4.3809320723e+00 
39000 4.6476921348e+00 -1.4748304593e-03 2.5293622506e+00 -4.3809839288e+00 2.5293622506e+00 4.3809839288e+00 
39100 4.6476921761e+00 -1.4352385461e-03 2.5293914048e+00 -4.3810344254e+00 2.5293914048e+00 4.3810344254e+00 
39200 4.6476922149e+00 -1.3958309192e-03 2.5294197761e+00 -4.3810835659e+00 2.5294197761e+00 4.3810835659e+00 
39300 4.6476922510e+00 -1.3566835442e-03 2.5294473681e+00 -4.3811313566e+00 2.5294473681e+00 4.3811313566e+00 
39400 4.6476922842e+00 -1.3178698979e-03 2.5294741859e+00 -4.3811778065e+00 2.5294741859e+00 4.3811778065e+00 
39500 4.6476923145e+00 -1.2794607497e-03 2.5295002362e+00 -4.3812229269e+00 2.5295002362e+00 4.3812229269e+00 
39600 4.6476923419e+00 -1.2415239611e-03 2.5295255271e+00 -4.3812667319e+00 2.5295255271e+00 4.3812667319e+00 
39700 4.6476923662e+00 -1.2041243043e-03 2.5295500678e+00 -4.3813092376e+00 2.5295500678e+00 4.3813092376e+00 
39800 4.6476923878e+00 -1.1673232984e-03 2.5295738689e+00 -4.3813504625e+00 2.5295738689e+00 4.3813504625e+00 
39900 4.6476924065e+00 -1.1311790639e-03 2.5295969425e+00 -4.3813904271e+00 2.5295969425e+00 4.3813904271e+00 
40000 4.6476924225e+00 -1.0957461966e-03 2.5296193014e+00 -4.3814291539e+00 2.5296193014e+00 4.3814291539e+00 
40100 4.6476924361e+00 -1.0610756583e-03 2.5296409598e+00 -4.3814666672e+00 2.5296409598e+00 4.3814666672e+00 
40200 4.6476924474e+00 -1.0272146864e-03 2.5296619326e+00 -4.3815029933e+00 2.5296619326e+00 4.3815029933e+00 
40300 4.6476924566e+00 -9.9420672165e-04 2.5296822361e+00 -4.3815381599e+00 2.5296822361e+00 4.3815381599e+00 
40400 4.6476924640e+00 -9.6209135232e-04 2.5297018869e+00 -4.3815721961e+00 2.5297018869e+00 4.3815721961e+00 
40500 4.6476924698e+00 -9.3090427629e-04 2.5297209028e+00 -4.3816051327e+00 2.5297209028e+00 4.3816051327e+00 
40600 4.6476924742e+00 -9.0067727963e-04 2.5297393022e+00 -4.3816370013e+00 2.5297393022e+00 4.3816370013e+00 
40700 4.6476924774e+00 -8.7143823135e-04 2.5297571040e+00 -4.3816678350e+00 2.5297571040e+00 4.3816678350e+00 
40800 4.6476924799e+00 -8.4321109382e-04 2.5297743278e+00 -4.3816976674e+00 2.5297743278e+00 4.3816976674e+00 
40900 4.6476924817e+00 -8.1601594846e-04 2.5297909935e+00 -4.3817265334e+00 2.5297909935e+00 4.3817265334e+00 
41000 4.6476924831e+00 -7.8986903575e-04 2.5298071217e+00 -4.3817544681e+00 2.5298071217e+00 4.3817544681e+00 
41100 4.6476924844e+00 -7.6478280930e-04 2.5298227330e+00 -4.3817815076e+00 2.5298227330e+00 4.3817815076e+00 
41200 4.6476924857e+00 -7.4076600293e-04 2.5298378483e+00 -4.3818076882e+00 2.5298378483e+00 4.3818076882e+00 
41300 4.6476924873e+00 -7.1782371035e-04 2.5298524889e+00 -4.3818330465e+00 2.5298524889e+00 4.3818330465e+00 
41400 4.6476924894e+00 -6.9595747654e-04 2.5298666760e+00 -4.3818576192e+00 2.5298666760e+00 4.3818576192e+00 
41500 4.6476924920e+00 -6.7516540006e-04 2.5298804308e+00 -4.3818814433e+00 2.5298804308e+00 4.3818814433e+00 
41600 4.6476924953e+00 -6.5544224567e-04 2.5298937747e+00 -4.3819045555e+00 2.5298937747e+00 4.3819045555e+00 
41700 4.6476924995e+00 -6.3677956624e-04 2.5299067286e+00 -4.3819269924e+00 2.5299067286e+00 4.3819269924e+00 
41800 4.6476925046e+00 -6.1916583338e-04 2.5299193137e+00 -4.3819487903e+00 2.5299193137e+00 4.3819487903e+00 
41900 4.6476925107e+00 -6.0258657580e-04 2.5299315506e+00 -4.3819699852e+00 2.5299315506e+00 4.3819699852e+00 
42000 4.6476925178e+00 -5.8702452469e-04 2.5299434597e+00 -4.3819906125e+00 2.5299434597e+00 4.3819906125e+00 
42100 4.6476925260e+00 -5.7245976527e-04 2.5299550613e+00 -4.3820107070e+00 2.5299550613e+00 4.3820107070e+00 
42200 4.6476925353e+00 -5.5886989371e-04 2.5299663749e+00 -4.3820303028e+00 2.5299663749e+00 4.3820303028e+00 
42300 4.6476925456e+00 -5.4623017861e-04 2.5299774199e+00 -4.3820494333e+00 2.5299774199e+00 4.3820494333e+00 
42400 4.6476925570e+00 -5.3451372628e-04 2.5299882151e+00 -4.3820681311e+00 2.5299882151e+00 4.3820681311e+00 
42500 4.6476925694e+00 -5.2369164897e-04 2.5299987786e+00 -4.3820864277e+00 2.5299987786e+00 4.3820864277e+00 
42600 4.6476925827e+00 -5.1373323531e-04 2.5300091283e+00 -4.3821043538e+00 2.5300091283e+00 4.3821043538e+00 
42700 4.6476925968e+00 -5.0460612232e-04 2.5300192811e+00 -4.3821219390e+00 2.5300192811e+00 4.3821219390e+00 
42800 4.6476926117e+00 -4.9627646803e-04 2.5300292535e+00 -4.3821392117e+00 2.5300292535e+00 4.3821392117e+00 
42900 4.6476926274e+00 -4.8870912424e-04 2.5300390612e+00 -4.3821561992e+00 2.5300390612e+00 4.3821561992e+00 
43000 4.6476926436e+00 -4.8186780860e-04 2.5300487194e+00 -4.3821729275e+00 2.5300487194e+00 4.3821729275e+00 
43100 4.6476926602e+00 -4.7571527538e-04 2.5300582423e+00 -4.3821894217e+00 2.5300582423e+00 4.3821894217e+00 
43200 4.6476926773e+00 -4.7021348431e-04 2.5300676435e+00 -4.3822057052e+00 2.5300676435e+00 4.3822057052e+00 
43300 4.6476926947e+00 -4.6532376693e-04 2.5300769360e+00 -4.3822218003e+00 2.5300769360e+00 4.3822218003e+00 
43400 4.6476927122e+00 -4.6100698977e-04 2.5300861319e+00 -4.3822377280e+00 2.5300861319e+00 4.3822377280e+00 
43500 4.6476927298e+00 -4.5722371397e-04 2.5300952424e+00 -4.3822535078e+00 2.5300952424e+00 4.3822535078e+00 
43600 4.6476927474e+00 -4.5393435072e-04 2.5301042781e+00 -4.3822691581e+00 2.5301042781e+00 4.3822691581e+00 
43700 4.6476927648e+00 -4.5109931212e-04 2.5301132488e+00 -4.3822846958e+00 2.5301132488e+00 4.3822846958e+00 
43800 4.6476927821e+00 -4.4867915697e-04 2.5301221634e+00 -4.3823001363e+00 2.5301221634e+00 4.3823001363e+00 
43900 4.6476927991e+00 -4.4663473110e-04 2.5301310301e+00 -4.3823154940e+00 2.5301310301e+00 4.3823154940e+00 
44000 4.6476928157e+00 -4.4492730201e-04 2.5301398565e+00 -4.3823307816e+00 2.5301398565e+00 4.3823307816e+00 
44100 4.6476928318e+00 -4.4351868720e-04 2.5301486490e+00 -4.3823460108e+00 2.5301486490e+00 4.3823460108e+00 
44200 4.6476928475e+00 -4.4237137625e-04 2.5301574137e+00 -4.3823611917e+00 2.5301574137e+00 4.3823611917e+00 
44300 4.6476928627e+00 -4.4144864607e-04 2.5301661557e+00 -4.3823763332e+00 2.5301661557e+00 4.3823763332e+00 
44400 4.6476928773e+00 -4.4071466931e-04 2.5301748794e+00 -4.3823914431e+00 2.5301748794e+00 4.3823914431e+00 
44500 4.6476928913e+00 -4.4013461570e-04 2.5301835886e+00 -4.3824065279e+00 2.5301835886e+00 4.3824065279e+00 
44600 4.6476929047e+00 -4.3967474607e-04 2.5301922862e+00 -4.3824215927e+00 2.5301922862e+00 4.3824215927e+00 
44700 4.6476929175e+00 -4.3930249906e-04 2.5302009748e+00 -4.3824366417e+00 2.5302009748e+00 4.3824366417e+00 
44800 4.6476929297e+00 -4.3898657035e-04 2.5302096560e+00 -4.3824516780e+00 2.5302096560e+00 4.3824516780e+00 
44900 4.6476929412e+00 -4.3869698437e-04 2.5302183309e+00 -4.3824667034e+00 2.5302183309e+00 4.3824667034e+00 
45000 4.6476929521e+00 -4.3840515853e-04 2.5302270001e+00 -4.3824817188e+00 2.5302270001e+00 4.3824817188e+00 
45100 4.6476929625e+00 -4.3808395983e-04 2.5302356634e+00 -4.3824967242e+00 2.5302356634e+00 4.3824967242e+00 
45200 4.6476929722e+00 -4.3770775408e-04 2.5302443204e+00 -4.3825117185e+00 2.5302443204e+00 4.3825117185e+00 
45300 4.6476929815e+00 -4.3725244767e-04 2.5302529699e+00 -4.3825266999e+00 2.5302529699e+00 4.3825266999e+00 
45400 4.6476929902e+00 -4.3669552191e-04 2.5302616104e+00 -4.3825416657e+00 2.5302616104e+00 4.3825416657e+00 
45500 4.6476929985e+00 -4.3601606034e-04 2.5302702399e+00 -4.3825566124e+00 2.5302702399e+00 4.3825566124e+00 
45600 4.6476930064e+00 -4.3519476876e-04 2.5302788559e+00 -4.3825715357e+00 2.5302788559e+00 4.3825715357e+00 
45700 4.6476930139e+00 -4.3421398848e-04 2.5302874556e+00 -4.3825864309e+00 2.5302874556e+00 4.3825864309e+00 
45800 4.6476930210e+00 -4.3305770282e-04 2.5302960360e+00 -4.3826012925e+00 2.5302960360e+00 4.3826012925e+00 
45900 4.6476930279e+00 -4.3171153703e-04 2.5303045934e+00 -4.3826161144e+00 2.5303045934e+00 4.3826161144e+00 
46000 4.6476930345e+00 -4.3016275196e-04 2.5303131243e+00 -4.3826308903e+00 2.5303131243e+00 4.3826308903e+00 
46100 4.6476930409e+00 -4.2840023166e-04 2.5303216244e+00 -4.3826456130e+00 2.5303216244e+00 4.3826456130e+00 
46200 4.6476930471e+00 -4.2641446512e-04 2.5303300898e+00 -4.3826602754e+00 2.5303300898e+00 4.3826602754e+00 
46300 4.6476930532e+00 -4.2419752254e-04 2.5303385158e+00 -4.3826748698e+00 2.5303385158e+00 4.3826748698e+00 
46400 4.6476930592e+00 -4.2174302632e-04 2.5303468981e+00 -4.3826893883e+00 2.5303468981e+00 4.3826893883e+00 
46500 4.6476930652e+00 -4.1904611702e-04 2.5303552318e+00 -4.3827038227e+00 2.5303552318e+00 4.3827038227e+00 
46600 4.6476930712e+00 -4.1610341476e-04 2.5303635122e+00 -4.3827181647e+00 2.5303635122e+00 4.3827181647e+00 
46700 4.6476930771e+00 -4.1291297613e-04 2.5303717344e+00 -4.3827324060e+00 2.5303717344e+00 4.3827324060e+00 
46800 4.6476930831e+00 -4.0947424720e-04 2.5303798935e+00 -4.3827465380e+00 2.5303798935e+00 4.3827465380e+00 
46900 4.6476930891e+00 -4.0578801266e-04 2.5303879847e+00 -4.3827605523e+00 2.5303879847e+00 4.3827605523e+00 
47000 4.6476930952e+00 -4.0185634168e-04 2.5303960030e+00 -4.3827744404e+00 2.5303960030e+00 4.3827744404e+00 
47100 4.6476931014e+00 -3.9768253061e-04 2.5304039436e+00 -4.3827881939e+00 2.5304039436e+00 4.3827881939e+00 
47200 4.6476931076e+00 -3.9327104296e-04 2.5304118017e+00 -4.3828018046e+00 2.5304118017e+00 4.3828018046e+00 
47300 4.6476931140e+00 -3.8862744699e-04 2.5304195726e+00 -4.3828152641e+00 2.5304195726e+00 4.3828152641e+00 
47400 4.6476931204e+00 -3.8375835108e-04 2.5304272517e+00 -4.3828285648e+00 2.5304272517e+00 4.3828285648e+00 
47500 4.6476931269e+00 -3.7867133751e-04 2.5304348346e+00 -4.3828416987e+00 2.5304348346e+00 4.3828416987e+00 
47600 4.6476931336e+00 -3.7337489458e-04 2.5304423169e+00 -4.3828546585e+00 2.5304423169e+00 4.3828546585e+00 
47700 4.6476931403e+00 -3.6787834771e-04 2.5304496946e+00 -4.3828674370e+00 2.5304496946e+00 4.3828674370e+00 
47800 4.6476931471e+00 -3.6219178967e-04 2.5304569636e+00 -4.3828800273e+00 2.5304569636e+00 4.3828800273e+00 
47900 4.6476931539e+00 -3.5632601022e-04 2.5304641202e+00 -4.3828924230e+00 2.5304641202e+00 4.3828924230e+00 
48000 4.6476931608e+00 -3.5029242553e-04 2.5304711610e+00 -4.3829046179e+00 2.5304711610e+00 4.3829046179e+00 
48100 4.6476931678e+00 -3.4410300764e-04 2.5304780825e+00 -4.3829166063e+00 2.5304780825e+00 4.3829166063e+00 
48200 4.6476931747e+00 -3.3777021418e-04 2.5304848816e+00 -4.3829283828e+00 2.5304848816e+00 4.3829283828e+00 
48300 4.6476931817e+00 -3.3130691870e-04 2.5304915557e+00 -4.3829399425e+00 2.5304915557e+00 4.3829399425e+00 
48400 4.6476931887e+00 -3.2472634177e-04 2.5304981020e+00 -4.3829512810e+00 2.5304981020e+00 4.3829512810e+00 
48500 4.6476931956e+00 -3.1804198316e-04 2.5305045182e+00 -4.3829623943e+00 2.5305045182e+00 4.3829623943e+00 
48600 4.6476932025e+00 -3.1126755528e-04 2.5305108024e+00 -4.3829732788e+00 2.5305108024e+00 4.3829732788e+00 
48700 4.6476932094e+00 -3.0441691816e-04 2.5305169527e+00 -4.3829839314e+00 2.5305169527e+00 4.3829839314e+00 
48800 4.6476932162e+00 -2.9750401604e-04 2.5305229676e+00 -4.3829943496e+00 2.5305229676e+00 4.3829943496e+00 
48900 4.6476932229e+00 -2.9054281596e-04 2.5305288459e+00 -4.3830045311e+00 2.5305288459e+00 4.3830045311e+00 
49000 4.6476932295e+00 -2.8354724826e-04 2.5305345867e+00 -4.3830144744e+00 2.5305345867e+00 4.3830144744e+00 
49100 4.6476932360e+00 -2.7653114951e-04 2.5305401892e+00 -4.3830241782e+00 2.5305401892e+00 4.3830241782e+00 
49200 4.6476932423e+00 -2.6950820757e-04 2.5305456531e+00 -4.3830336420e+00 2.5305456531e+00 4.3830336420e+00 
49300 4.6476932486e+00 -2.6249190935e-04 2.5305509782e+00 -4.3830428653e+00 2.5305509782e+00 4.3830428653e+00 
49400 4.6476932547e+00 -2.5549549104e-04 2.5305561646e+00 -4.3830518485e+00 2.5305561646e+00 4.3830518485e+00 
49500 4.6476932606e+00 -2.4853189117e-04 2.5305612128e+00 -4.3830605923e+00 2.5305612128e+00 4.3830605923e+00 
49600 4.6476932664e+00 -2.4161370645e-04 2.5305661234e+00 -4.3830690977e+00 2.5305661234e+00 4.3830690977e+00 
49700 4.6476932721e+00 -2.3475315044e-04 2.5305708973e+00 -4.3830773664e+00 2.5305708973e+00 4.3830773664e+00 
49800 4.6476932776e+00 -2.2796201525e-04 2.5305755357e+00 -4.3830854002e+00 2.5305755357e+00 4.3830854002e+00 
49900 4.6476932829e+00 -2.2125163625e-04 2.5305800398e+00 -4.3830932016e+00 2.5305800398e+00 4.3830932016e+00 
50000 4.6476932881e+00 -2.1463285968e-04 2.5305844114e+00 -4.3831007734e+00 2.5305844114e+00 4.3831007734e+00 
50100 4.6476932932e+00 -2.0811601355e-04 2.5305886522e+00 -4.3831081186e+00 2.5305886522e+00 4.3831081186e+00 
50200 4.6476932981e+00 -2.0171088136e-04 2.5305927642e+00 -4.3831152408e+00 2.5305927642e+00 4.3831152408e+00 
50300 4.6476933028e+00 -1.9542667907e-04 2.5305967496e+00 -4.3831221438e+00 2.5305967496e+00 4.3831221438e+00 
50400 4.6476933074e+00 -1.8927203502e-04 2.5306006109e+00 -4.3831288318e+00 2.5306006109e+00 4.3831288318e+00 
50500 4.6476933119e+00 -1.8325497296e-04 2.5306043506e+00 -4.3831353091e+00 2.5306043506e+00 4.3831353091e+00 
50600 4.6476933162e+00 -1.7738289796e-04 2.5306079714e+00 -4.3831415804e+00 2.5306079714e+00 4.3831415804e+00 
50700 4.6476933204e+00 -1.7166258536e-04 2.5306114761e+00 -4.3831476508e+00 2.5306114761e+00 4.3831476508e+00 
50800 4.6476933245e+00 -1.6610017256e-04 2.5306148678e+00 -4.3831535255e+00 2.5306148678e+00 4.3831535255e+00 
50900 4.6476933285e+00 -1.6070115365e-04 2.5306181496e+00 -4.3831592097e+00 2.5306181496e+00 4.3831592097e+00 
51000 4.6476933324e+00 -1.5547037674e-04 2.5306213248e+00 -4.3831647092e+00 2.5306213248e+00 4.3831647092e+00 
51100 4.6476933362e+00 -1.5041204403e-04 2.5306243966e+00 -4.3831700297e+00 2.5306243966e+00 4.3831700297e+00 
51200 4.6476933399e+00 -1.4552971438e-04 2.5306273684e+00 -4.3831751771e+00 2.5306273684e+00 4.3831751771e+00 
51300 4.6476933436e+00 -1.4082630835e-04 2.5306302438e+00 -4.3831801574e+00 2.5306302438e+00 4.3831801574e+00 
51400 4.6476933471e+00 -1.3630411568e-04 2.5306330262e+00 -4.3831849767e+00 2.5306330262e+00 4.3831849767e+00 
51500 4.6476933507e+00 -1.3196480495e-04 2.5306357193e+00 -4.3831896413e+00 2.5306357193e+00 4.3831896413e+00 
51600 4.6476933541e+00 -1.2780943543e-04 2.5306383266e+00 -4.3831941573e+00 2.5306383266e+00 4.3831941573e+00 
51700 4.6476933576e+00 -1.2383847094e-04 2.5306408519e+00 -4.3831985312e+00 2.5306408519e+00 4.3831985312e+00 
51800 4.6476933609e+00 -1.2005179558e-04 2.5306432987e+00 -4.3832027691e+00 2.5306432987e+00 4.3832027691e+00 
51900 4.6476933643e+00 -1.1644873130e-04 2.5306456706e+00 -4.3832068775e+00 2.5306456706e+00 4.3832068775e+00 
52000 4.6476933676e+00 -1.1302805708e-04 2.5306479714e+00 -4.3832108625e+00 2.5306479714e+00 4.3832108625e+00 
52100 4.6476933709e+00 -1.0978802954e-04 2.5306502046e+00 -4.3832147305e+00 2.5306502046e+00 4.3832147305e+00 
52200 4.6476933741e+00 -1.0672640513e-04 2.5306523737e+00 -4.3832184876e+00 2.5306523737e+00 4.3832184876e+00 
52300 4.6476933773e+00 -1.0384046335e-04 2.5306544824e+00 -4.3832221400e+00 2.5306544824e+00 4.3832221400e+00 
52400 4.6476933806e+00 -1.0112703123e-04 2.5306565341e+00 -4.3832256935e+00 2.5306565341e+00 4.3832256935e+00 
52500 4.6476933838e+00 -9.8582508705e-05 2.5306585321e+00 -4.3832291542e+00 2.5306585321e+00 4.3832291542e+00 
52600 4.6476933869e+00 -9.6202894897e-05 2.5306604799e+00 -4.3832325279e+00 2.5306604799e+00 4.3832325279e+00 
52700 4.6476933901e+00 -9.3983815052e-05 2.5306623806e+00 -4.3832358200e+00 2.5306623806e+00 4.3832358200e+00 
52800 4.6476933932e+00 -9.1920548123e-05 2.5306642375e+00 -4.3832390363e+00 2.5306642375e+00 4.3832390363e+00 
52900 4.6476933964e+00 -9.0008054741e-05 2.5306660537e+00 -4.3832421819e+00 2.5306660537e+00 4.3832421819e+00 
53000 4.6476933995e+00 -8.8241005575e-05 2.5306678320e+00 -4.3832452621e+00 2.5306678320e+00 4.3832452621e+00 
53100 4.6476934025e+00 -8.6613809861e-05 2.5306695754e+00 -4.3832482818e+00 2.5306695754e+00 4.3832482818e+00 
53200 4.6476934056e+00 -8.5120644045e-05 2.5306712867e+00 -4.3832512459e+00 2.5306712867e+00 4.3832512459e+00 
53300 4.6476934086e+00 -8.3755480374e-05 2.5306729685e+00 -4.3832541588e+00 2.5306729685e+00 4.3832541588e+00 
53400 4.6476934116e+00 -8.2512115372e-05 2.5306746233e+00 -4.3832570250e+00 2.5306746233e+00 4.3832570250e+00 
53500 4.6476934146e+00 -8.1384198055e-05 2.5306762536e+00 -4.3832598487e+00 2.5306762536e+00 4.3832598487e+00 
53600 4.6476934176e+00 -8.0365257809e-05 2.5306778615e+00 -4.3832626337e+00 2.5306778615e+00 4.3832626337e+00 
53700 4.6476934205e+00 -7.9448731797e-05 2.5306794493e+00 -4.3832653839e+00 2.5306794493e+00 4.3832653839e+00 
53800 4.6476934234e+00 -7.8627991884e-05 2.5306810190e+00 -4.3832681027e+00 2.5306810190e+00 4.3832681027e+00 
53900 4.6476934262e+00 -7.7896370861e-05 2.5306825725e+00 -4.3832707935e+00 2.5306825725e+00 4.3832707935e+00 
54000 4.6476934290e+00 -7.7247188036e-05 2.5306841116e+00 -4.3832734591e+00 2.5306841116e+00 4.3832734591e+00 
54100 4.6476934318e+00 -7.6673773962e-05 2.5306856378e+00 -4.3832761026e+00 2.5306856378e+00 4.3832761026e+00 
54200 4.6476934345e+00 -7.6169494416e-05 2.5306871527e+00 -4.3832787265e+00 2.5306871527e+00 4.3832787265e+00 
54300 4.6476934372e+00 -7.5727773344e-05 2.5306886576e+00 -4.3832813331e+00 2.5306886576e+00 4.3832813331e+00 
54400 4.6476934398e+00 -7.5342114907e-05 2.5306901538e+00 -4.3832839245e+00 2.5306901538e+00 4.3832839245e+00 
54500 4.6476934424e+00 -7.5006124476e-05 2.5306916423e+00 -4.3832865028e+00 2.5306916423e+00 4.3832865028e+00 
54600 4.6476934449e+00 -7.4713528525e-05 2.5306931243e+00 -4.3832890696e+00 2.5306931243e+00 4.3832890696e+00 
54700 4.6476934474e+00 -7.4458193444e-05 2.5306946004e+00 -4.3832916264e+00 2.5306946004e+00 4.3832916264e+00 
54800 4.6476934499e+00 -7.4234143151e-05 2.5306960715e+00 -4.3832941744e+00 2.5306960715e+00 4.3832941744e+00 
54900 4.6476934522e+00 -7.4035575566e-05 2.5306975382e+00 -4.3832967147e+00 2.5306975382e+00 4.3832967147e+00 
55000 4.6476934546e+00 -7.3856877821e-05 2.5306990009e+00 -4.3832992483e+00 2.5306990009e+00 4.3832992483e+00 
55100 4.6476934569e+00 -7.3692640307e-05 2.5307004602e+00 -4.3833017757e+00 2.5307004602e+00 4.3833017757e+00 
55200 4.6476934591e+00 -7.3537669399e-05 2.5307019161e+00 -4.3833042976e+00 2.5307019161e+00 4.3833042976e+00 
55300 4.6476934613e+00 -7.3386998996e-05 2.5307033690e+00 -4.3833068141e+00 2.5307033690e+00 4.3833068141e+00 
55400 4.6476934635e+00 -7.3235900796e-05 2.5307048190e+00 -4.3833093254e+00 2.5307048190e+00 4.3833093254e+00 
55500 4.6476934656e+00 -7.3079893270e-05 2.5307062659e+00 -4.3833118316e+00 2.5307062659e+00 4.3833118316e+00 
55600 4.6476934676e+00 -7.2914749465e-05 2.5307077098e+00 -4.3833143325e+00 2.5307077098e+00 4.3833143325e+00 
55700 4.6476934696e+00 -7.2736503508e-05 2.5307091504e+00 -4.3833168277e+00 2.5307091504e+00 4.3833168277e+00 
55800 4.6476934716e+00 -7.2541455955e-05 2.5307105875e+00 -4.3833193167e+00 2.5307105875e+00 4.3833193167e+00 
55900 4.6476934735e+00 -7.2326177876e-05 2.5307120207e+00 -4.3833217992e+00 2.5307120207e+00 4.3833217992e+00 
56000 4.6476934754e+00 -7.2087513815e-05 2.5307134497e+00 -4.3833242742e+00 2.5307134497e+00 4.3833242742e+00 
56100 4.6476934773e+00 -7.1822583614e-05 2.5307148739e+00 -4.3833267411e+00 2.5307148739e+00 4.3833267411e+00 
56200 4.6476934791e+00 -7.1528783059e-05 2.5307162929e+00 -4.3833291989e+00 2.5307162929e+00 4.3833291989e+00 
56300 4.6476934809e+00 -7.1203783520e-05 2.5307177061e+00 -4.3833316467e+00 2.5307177061e+00 4.3833316467e+00 
56400 4.6476934827e+00 -7.0845530510e-05 2.5307191129e+00 -4.3833340833e+00 2.5307191129e+00 4.3833340833e+00 
56500 4.6476934844e+00 -7.0452241251e-05 2.5307205126e+00 -4.3833365077e+00 2.5307205126e+00 4.3833365077e+00 
56600 4.6476934861e+00 -7.0542549653e-05 2.5307205126e+00 -4.3833365077e+00 2.5307205126e+00 4.3833365077e+00 
56700 4.6476934879e+00 -7.0604339113e-05 2.5307205126e+00 -4.3833365077e+00 2.5307205126e+00 4.3833365077e+00 
56800 4.6476934896e+00 -7.0636736638e-05 2.5307205126e+00 -4.3833365077e+00 2.5307205126e+00 4.3833365077e+00 
56900 4.6476934913e+00 -7.0639065779e-05 2.5307205126e+00 -4.3833365077e+00 2.5307205126e+00 4.3833365077e+00 
57000 4.6476934930e+00 -7.0610840975e-05 2.5307205126e+00 -4.3833365077e+00 2.5307205126e+00 4.3833365077e+00 
57100 4.6476934946e+00 -7.0551761331e-05 2.5307205126e+00 -4.3833365077e+00 2.5307205126e+00 4.3833365077e+00 
57200 4.6476934962e+00 -7.0461703851e-05 2.5307205126e+00 -4.3833365077e+00 2.5307205126e+00 4.3833365077e+00 
57300 4.6476934978e+00 -7.0340716216e-05 2.5307205126e+00 -4.3833365077e+00 2.5307205126e+00 4.3833365077e+00 
57400 4.6476934994e+00 -7.0189009114e-05 2.5307205126e+00 -4.3833365077e+00 2.5307205126e+00 4.3833365077e+00 
57500 4.6476935009e+00 -7.0006948207e-05 2.5307205126e+00 -4.3833365077e+00 2.5307205126e+00 4.3833365077e+00 
57600 4.6476935025e+00 -6.9795045788e-05 2.5307205126e+00 -4.3833365077e+00 2.5307205126e+00 4.3833365077e+00 
57700 4.6476935040e+00 -6.9553952136e-05 2.5307205126e+00 -4.3833365077e+00 2.5307205126e+00 4.3833365077e+00 
57800 4.6476935055e+00 -6.9284446671e-05 2.5307205126e+00 -4.3833365077e+00 2.5307205126e+00 4.3833365077e+00 
57900 4.6476935069e+00 -6.8987428912e-05 2.5307205126e+00 -4.3833365077e+00 2.5307205126e+00 4.3833365077e+00 
58000 4.6476935084e+00 -6.8663909321e-05 2.5307205126e+00 -4.3833365077e+00 2.5307205126e+00 4.3833365077e+00 
58100 4.6476935098e+00 -6.8315000031e-05 2.5307205126e+00 -4.3833365077e+00 2.5307205126e+00 4.3833365077e+00 
58200 4.6476935112e+00 -6.7941905559e-05 2.5307205126e+00 -4.3833365077e+00 2.5307205126e+00 4.3833365077e+00 
58300 4.6476935126e+00 -6.7545913490e-05 2.5307205126e+00 -4.3833365077e+00 2.5307205126e+00 4.3833365077e+00 
58400 4.6476935139e+00 -6.7128385197e-05 2.5307205126e+00 -4.3833365077e+00 2.5307205126e+00 4.3833365077e+00 
58500 4.6476935153e+00 -6.6690746646e-05 2.5307205126e+00 -4.3833365077e+00 2.5307205126e+00 4.3833365077e+00 
58600 4.6476935166e+00 -6.6234479292e-05 2.5307205126e+00 -4.3833365077e+00 2.5307205126e+00 4.3833365077e+00 
58700 4.6476935179e+00 -6.5761111122e-05 2.5307205126e+00 -4.3833365077e+00 2.5307205126e+00 4.3833365077e+00 
58800 4.6476935192e+00 -6.5272207860e-05 2.5307205126e+00 -4.3833365077e+00 2.5307205126e+00 4.3833365077e+00 
58900 4.6476935204e+00 -6.4769364387e-05 2.5307205126e+00 -4.3833365077e+00 2.5307205126e+00 4.3833365077e+00 
59000 4.6476935217e+00 -6.4254196378e-05 2.5307205126e+00 -4.3833365077e+00 2.5307205126e+00 4.3833365077e+00 
59100 4.6476935229e+00 -6.3728332190e-05 2.5307205126e+00 -4.3833365077e+00 2.5307205126e+00 4.3833365077e+00 
59200 4.6476935241e+00 -6.3193405035e-05 2.5307205126e+00 -4.3833365077e+00 2.5307205126e+00 4.3833365077e+00 
59300 4.6476935253e+00 -6.2651045449e-05 2.5307205126e+00 -4.3833365077e+00 2.5307205126e+00 4.3833365077e+00 
59400 4.6476935264e+00 -6.2102874065e-05 2.5307205126e+00 -4.3833365077e+00 2.5307205126e+00 4.3833365077e+00 
59500 4.6476935276e+00 -6.1550494741e-05 2.5307205126e+00 -4.3833365077e+00 2.5307205126e+00 4.3833365077e+00 
59600 4.6476935287e+00 -6.0995488013e-05 2.5307205126e+00 -4.3833365077e+00 2.5307205126e+00 4.3833365077e+00 
59700 4.6476935298e+00 -6.0439404928e-05 2.5307205126e+00 -4.3833365077e+00 2.5307205126e+00 4.3833365077e+00 
59800 4.6476935309e+00 -5.9883761241e-05 2.5307205126e+00 -4.3833365077e+00 2.5307205126e+00 4.3833365077e+00 
59900 4.6476935319e+00 -5.9330031997e-05 2.5307205126e+00 -4.3833365077e+00 2.5307205126e+00 4.3833365077e+00 
60000 4.6476935330e+00 -5.8779646494e-05 2.5307205126e+00 -4.3833365077e+00 2.5307205126e+00 4.3833365077e+00 
60100 4.6476935340e+00 -5.8233983645e-05 2.5307205126e+00 -4.3833365077e+00 2.5307205126e+00 4.3833365077e+00 
60200 4.6476935350e+00 -5.7694367744e-05 2.5307205126e+00 -4.3833365077e+00 2.5307205126e+00 4.3833365077e+00 
60300 4.6476935360e+00 -5.7162064619e-05 2.5307205126e+00 -4.3833365077e+00 2.5307205126e+00 4.3833365077e+00 
60400 4.6476935370e+00 -5.6638278186e-05 2.5307205126e+00 -4.3833365077e+00 2.5307205126e+00 4.3833365077e+00 
60500 4.6476935379e+00 -5.6124147410e-05 2.5307205126e+00 -4.3833365077e+00 2.5307205126e+00 4.3833365077e+00 
60600 4.6476935389e+00 -5.5620743642e-05 2.5307205126e+00 -4.3833365077e+00 2.5307205126e+00 4.3833365077e+00 
60700 4.6476935398e+00 -5.5129068371e-05 2.5307205126e+00 -4.3833365077e+00 2.5307205126e+00 4.3833365077e+00 
60800 4.6476935407e+00 -5.4650051326e-05 2.5307205126e+00 -4.3833365077e+00 2.5307205126e+00 4.3833365077e+00 
60900 4.6476935416e+00 -5.4184548988e-05 2.5307205126e+00 -4.3833365077e+00 2.5307205126e+00 4.3833365077e+00 
61000 4.6476935425e+00 -5.3733343448e-05 2.5307205126e+00 -4.3833365077e+00 2.5307205126e+00 4.3833365077e+00 
61100 4.6476935434e+00 -5.3297141621e-05 2.5307205126e+00 -4.3833365077e+00 2.5307205126e+00 4.3833365077e+00 
61200 4.6476935442e+00 -5.2876574830e-05 2.5307205126e+00 -4.3833365077e+00 2.5307205126e+00 4.3833365077e+00 
61300 4.6476935451e+00 -5.2472198695e-05 2.5307205126e+00 -4.3833365077e+00 2.5307205126e+00 4.3833365077e+00 
61400 4.6476935459e+00 -5.2084493363e-05 2.5307205126e+00 -4.3833365077e+00 2.5307205126e+00 4.3833365077e+00 
61500 4.6476935467e+00 -5.1713864043e-05 2.5307205126e+00 -4.3833365077e+00 2.5307205126e+00 4.3833365077e+00 
61600 4.6476935475e+00 -5.1360641838e-05 2.5307205126e+00 -4.3833365077e+00 2.5307205126e+00 4.3833365077e+00 
61700 4.6476935483e+00 -5.1025084849e-05 2.5307205126e+00 -4.3833365077e+00 2.5307205126e+00 4.3833365077e+00 
61800 4.6476935490e+00 -5.0707379549e-05 2.5307205126e+00 -4.3833365077e+00 2.5307205126e+00 4.3833365077e+00 
61900 4.6476935498e+00 -5.0407642408e-05 2.5307205126e+00 -4.3833365077e+00 2.5307205126e+00 4.3833365077e+00 
62000 4.6476935505e+00 -5.0125921744e-05 2.5307205126e+00 -4.3833365077e+00 2.5307205126e+00 4.3833365077e+00 
62100 4.6476935513e+00 -4.9862199793e-05 2.5307205126e+00 -4.3833365077e+00 2.5307205126e+00 4.3833365077e+00 
62200 4.6476935520e+00 -4.9616394980e-05 2.5307205126e+00 -4.3833365077e+00 2.5307205126e+00 4.3833365077e+00 
62300 4.6476935527e+00 -4.9388364367e-05 2.5307205126e+00 -4.3833365077e+00 2.5307205126e+00 4.3833365077e+00 
62400 4.6476935534e+00 -4.9177906272e-05 2.5307205126e+00 -4.3833365077e+00 2.5307205126e+00 4.3833365077e+00 
62500 4.6476935541e+00 -4.8984763028e-05 2.5307205126e+00 -4.3833365077e+00 2.5307205126e+00 4.3833365077e+00 
62600 4.6476935548e+00 -4.8808623877e-05 2.5307205126e+00 -4.3833365077e+00 2.5307205126e+00 4.3833365077e+00 
62700 4.6476935555e+00 -4.8649127981e-05 2.5307205126e+00 -4.3833365077e+00 2.5307205126e+00 4.3833365077e+00 
62800 4.6476935561e+00 -4.8505867530e-05 2.5307205126e+00 -4.3833365077e+00 2.5307205126e+00 4.3833365077e+00 
62900 4.6476935568e+00 -4.8378390923e-05 2.5307205126e+00 -4.3833365077e+00 2.5307205126e+00 4.3833365077e+00 
63000 4.6476935574e+00 -4.8266206016e-05 2.5307205126e+00 -4.3833365077e+00 2.5307205126e+00 4.3833365077e+00 
63100 4.6476935581e+00 -4.8168783432e-05 2.5307205126e+00 -4.3833365077e+00 2.5307205126e+00 4.3833365077e+00 
63200 4.6476935587e+00 -4.8085559886e-05 2.5307205126e+00 -4.3833365077e+00 2.5307205126e+00 4.3833365077e+00 
63300 4.6476935593e+00 -4.8015941544e-05 2.5307205126e+00 -4.3833365077e+00 2.5307205126e+00 4.3833365077e+00 
63400 4.6476935599e+00 -4.7959307372e-05 2.5307205126e+00 -4.3833365077e+00 2.5307205126e+00 4.3833365077e+00 
63500 4.6476935605e+00 -4.7915012483e-05 2.5307205126e+00 -4.3833365077e+00 2.5307205126e+00 4.3833365077e+00 
63600 4.6476935611e+00 -4.7882391472e-05 2.5307205126e+00 -4.3833365077e+00 2.5307205126e+00 4.3833365077e+00 
63700 4.6476935617e+00 -4.7860761695e-05 2.5307205126e+00 -4.3833365077e+00 2.5307205126e+00 4.3833365077e+00 
63800 4.6476935622e+00 -4.7849426503e-05 2.5307205126e+00 -4.3833365077e+00 2.5307205126e+00 4.3833365077e+00 
63900 4.6476935628e+00 -4.7847678441e-05 2.5307205126e+00 -4.3833365077e+00 2.5307205126e+00 4.3833365077e+00 
64000 4.6476935634e+00 -4.7854802345e-05 2.5307205126e+00 -4.3833365077e+00 2.5307205126e+00 4.3833365077e+00 
64100 4.6476935639e+00 -4.7870078381e-05 2.5307205126e+00 -4.3833365077e+00 2.5307205126e+00 4.3833365077e+00 
64200 4.6476935644e+00 -4.7892784983e-05 2.5307205126e+00 -4.3833365077e+00 2.5307205126e+00 4.3833365077e+00 
64300 4.6476935650e+00 -4.7922201695e-05 2.5307205126e+00 -4.3833365077e+00 2.5307205126e+00 4.3833365077e+00 
64400 4.6476935655e+00 -4.7957611917e-05 2.5307205126e+00 -4.3833365077e+00 2.5307205126e+00 4.3833365077e+00 
64500 4.6476935660e+00 -4.7998305528e-05 2.5307205126e+00 -4.3833365077e+00 2.5307205126e+00 4.3833365077e+00 
64600 4.6476935665e+00 -4.8043581382e-05 2.5307205126e+00 -4.3833365077e+00 2.5307205126e+00 4.3833365077e+00 
64700 4.6476935670e+00 -4.8092749701e-05 2.5307205126e+00 -4.3833365077e+00 2.5307205126e+00 4.3833365077e+00 
64800 4.6476935675e+00 -4.8145134317e-05 2.5307205126e+00 -4.3833365077e+00 2.5307205126e+00 4.3833365077e+00 
64900 4.6476935680e+00 -4.8200074794e-05 2.5307205126e+00 -4.3833365077e+00 2.5307205126e+00 4.3833365077e+00 
65000 4.6476935684e+00 -4.8256928399e-05 2.5307205126e+00 -4.3833365077e+00 2.5307205126e+00 4.3833365077e+00 
65100 4.6476935689e+00 -4.8315071939e-05 2.5307205126e+00 -4.3833365077e+00 2.5307205126e+00 4.3833365077e+00 
65200 4.6476935693e+00 -4.8373903457e-05 2.5307205126e+00 -4.3833365077e+00 2.5307205126e+00 4.3833365077e+00 
65300 4.6476935698e+00 -4.8432843775e-05 2.5307205126e+00 -4.3833365077e+00 2.5307205126e+00 4.3833365077e+00 
65400 4.6476935702e+00 -4.8491337906e-05 2.5307205126e+00 -4.3833365077e+00 2.5307205126e+00 4.3833365077e+00 
65500 4.6476935707e+00 -4.8548856296e-05 2.5307205126e+00 -4.3833365077e+00 2.5307205126e+00 4.3833365077e+00 
65600 4.6476935711e+00 -4.8604895948e-05 2.5307205126e+00 -4.3833365077e+00 2.5307205126e+00 4.3833365077e+00 
65700 4.6476935715e+00 -4.8658981377e-05 2.5307205126e+00 -4.3833365077e+00 2.5307205126e+00 4.3833365077e+00 
65800 4.6476935719e+00 -4.8710665437e-05 2.5307205126e+00 -4.3833365077e+00 2.5307205126e+00 4.3833365077e+00 
65900 4.6476935723e+00 -4.8759529999e-05 2.5307205126e+00 -4.3833365077e+00 2.5307205126e+00 4.3833365077e+00 
66000 4.6476935727e+00 -4.8805186500e-05 2.5307205126e+00 -4.3833365077e+00 2.5307205126e+00 4.3833365077e+00 
66100 4.6476935731e+00 -4.8847276339e-05 2.5307205126e+00 -4.3833365077e+00 2.5307205126e+00 4.3833365077e+00 
66200 4.6476935735e+00 -4.8885471151e-05 2.5307205126e+00 -4.3833365077e+00 2.5307205126e+00 4.3833365077e+00 
66300 4.6476935739e+00 -4.8919472956e-05 2.5307205126e+00 -4.3833365077e+00 2.5307205126e+00 4.3833365077e+00 
66400 4.6476935743e+00 -4.8949014176e-05 2.5307205126e+00 -4.3833365077e+00 2.5307205126e+00 4.3833365077e+00 
66500 4.6476935747e+00 -4.8973857525e-05 2.5307205126e+00 -4.3833365077e+00 2.5307205126e+00 4.3833365077e+00 
66600 4.6476935750e+00 -4.8993795806e-05 2.5307205126e+00 -4.3833365077e+00 2.5307205126e+00 4.3833365077e+00 
66700 4.6476935754e+00 -4.9008651576e-05 2.5307205126e+00 -4.3833365077e+00 2.5307205126e+00 4.3833365077e+00 
66800 4.6476935757e+00 -4.9018276712e-05 2.5307205126e+00 -4.3833365077e+00 2.5307205126e+00 4.3833365077e+00 
66900 4.6476935761e+00 -4.9022551880e-05 2.5307205126e+00 -4.3833365077e+00 2.5307205126e+00 4.3833365077e+00 
67000 4.6476935764e+00 -4.9021385909e-05 2.5307205126e+00 -4.3833365077e+00 2.5307205126e+00 4.3833365077e+00 
67100 4.6476935768e+00 -4.9014715084e-05 2.5307205126e+00 -4.3833365077e+00 2.5307205126e+00 4.3833365077e+00 
67200 4.6476935771e+00 -4.9002502335e-05 2.5307205126e+00 -4.3833365077e+00 2.5307205126e+00 4.3833365077e+00 
67300 4.6476935774e+00 -4.8984736391e-05 2.5307205126e+00 -4.3833365077e+00 2.5307205126e+00 4.3833365077e+00 
67400 4.6476935778e+00 -4.8961430811e-05 2.5307205126e+00 -4.3833365077e+00 2.5307205126e+00 4.3833365077e+00 
67500 4.6476935781e+00 -4.8932622999e-05 2.5307205126e+00 -4.3833365077e+00 2.5307205126e+00 4.3833365077e+00 
67600 4.6476935784e+00 -4.8898373140e-05 2.5307205126e+00 -4.3833365077e+00 2.5307205126e+00 4.3833365077e+00 
67700 4.6476935787e+00 -4.8858763086e-05 2.5307205126e+00 -4.3833365077e+00 2.5307205126e+00 4.3833365077e+00 
67800 4.6476935790e+00 -4.8813895202e-05 2.5307205126e+00 -4.3833365077e+00 2.5307205126e+00 4.3833365077e+00 
67900 4.6476935793e+00 -4.8763891178e-05 2.5307205126e+00 -4.3833365077e+00 2.5307205126e+00 4.3833365077e+00 
68000 4.6476935796e+00 -4.8708890795e-05 2.5307205126e+00 -4.3833365077e+00 2.5307205126e+00 4.3833365077e+00 
68100 4.6476935799e+00 -4.8649050685e-05 2.5307205126e+00 -4.3833365077e+00 2.5307205126e+00 4.3833365077e+00 
68200 4.6476935802e+00 -4.8584543049e-05 2.5307205126e+00 -4.3833365077e+00 2.5307205126e+00 4.3833365077e+00 
68300 4.6476935805e+00 -4.8515554385e-05 2.5307205126e+00 -4.3833365077e+00 2.5307205126e+00 4.3833365077e+00 
68400 4.6476935807e+00 -4.8442284181e-05 2.5307205126e+00 -4.3833365077e+00 2.5307205126e+00 4.3833365077e+00 
68500 4.6476935810e+00 -4.8364943629e-05 2.5307205126e+00 -4.3833365077e+00 2.5307205126e+00 4.3833365077e+00 
68600 4.6476935813e+00 -4.8283754329e-05 2.5307205126e+00 -4.3833365077e+00 2.5307205126e+00 4.3833365077e+00 
68700 4.6476935816e+00 -4.8198946992e-05 2.5307205126e+00 -4.3833365077e+00 2.5307205126e+00 4.3833365077e+00 
68800 4.6476935818e+00 -4.8110760182e-05 2.5307205126e+00 -4.3833365077e+00 2.5307205126e+00 4.3833365077e+00 
68900 4.6476935821e+00 -4.8019439038e-05 2.5307205126e+00 -4.3833365077e+00 2.5307205126e+00 4.3833365077e+00 
69000 4.6476935823e+00 -4.7925234055e-05 2.5307205126e+00 -4.3833365077e+00 2.5307205126e+00 4.3833365077e+00 
69100 4.6476935826e+00 -4.7828399860e-05 2.5307205126e+00 -4.3833365077e+00 2.5307205126e+00 4.3833365077e+00 
69200 4.6476935828e+00 -4.7729194031e-05 2.5307205126e+00 -4.3833365077e+00 2.5307205126e+00 4.3833365077e+00 
69300 4.6476935831e+00 -4.7627875946e-05 2.5307205126e+00 -4.3833365077e+00 2.5307205126e+00 4.3833365077e+00 
69400 4.6476935833e+00 -4.7524705673e-05 2.5307205126e+00 -4.3833365077e+00 2.5307205126e+00 4.3833365077e+00 
69500 4.6476935836e+00 -4.7419942888e-05 2.5307205126e+00 -4.3833365077e+00 2.5307205126e+00 4.3833365077e+00 
69600 4.6476935838e+00 -4.7313845843e-05 2.5307205126e+00 -4.3833365077e+00 2.5307205126e+00 4.3833365077e+00 
69700 4.6476935840e+00 -4.7206670381e-05 2.5307205126e+00 -4.3833365077e+00 2.5307205126e+00 4.3833365077e+00 
69800 4.6476935842e+00 -4.7098668985e-05 2.5307205126e+00 -4.3833365077e+00 2.5307205126e+00 4.3833365077e+00 
69900 4.6476935845e+00 -4.6990089887e-05 2.5307205126e+00 -4.3833365077e+00 2.5307205126e+00 4.3833365077e+00 
70000 4.6476935847e+00 -4.6881176231e-05 2.5307205126e+00 -4.3833365077e+00 2.5307205126e+00 4.3833365077e+00 
70100 4.6476935849e+00 -4.6772165268e-05 2.5307205126e+00 -4.3833365077e+00 2.5307205126e+00 4.3833365077e+00 
70200 4.6476935851e+00 -4.6663287633e-05 2.5307205126e+00 -4.3833365077e+00 2.5307205126e+00 4.3833365077e+00 
70300 4.6476935853e+00 -4.6554766645e-05 2.5307205126e+00 -4.3833365077e+00 2.5307205126e+00 4.3833365077e+00 
70400 4.6476935855e+00 -4.6446817690e-05 2.5307205126e+00 -4.3833365077e+00 2.5307205126e+00 4.3833365077e+00 
70500 4.6476935857e+00 -4.6339647636e-05 2.5307205126e+00 -4.3833365077e+00 2.5307205126e+00 4.3833365077e+00 
70600 4.6476935859e+00 -4.6233454317e-05 2.5307205126e+00 -4.3833365077e+00 2.5307205126e+00 4.3833365077e+00 
70700 4.6476935861e+00 -4.6128426070e-05 2.5307205126e+00 -4.3833365077e+00 2.5307205126e+00 4.3833365077e+00 
70800 4.6476935863e+00 -4.6024741332e-05 2.5307205126e+00 -4.3833365077e+00 2.5307205126e+00 4.3833365077e+00 
70900 4.6476935865e+00 -4.5922568273e-05 2.5307205126e+00 -4.3833365077e+00 2.5307205126e+00 4.3833365077e+00 
71000 4.6476935867e+00 -4.5822064505e-05 2.5307205126e+00 -4.3833365077e+00 2.5307205126e+00 4.3833365077e+00 
71100 4.6476935869e+00 -4.5723376834e-05 2.5307205126e+00 -4.3833365077e+00 2.5307205126e+00 4.3833365077e+00 
71200 4.6476935871e+00 -4.5626641068e-05 2.5307205126e+00 -4.3833365077e+00 2.5307205126e+00 4.3833365077e+00 
71300 4.6476935872e+00 -4.5531981864e-05 2.5307205126e+00 -4.3833365077e+00 2.5307205126e+00 4.3833365077e+00 
71400 4.6476935874e+00 -4.5439512649e-05 2.5307205126e+00 -4.3833365077e+00 2.5307205126e+00 4.3833365077e+00 
71500 4.6476935876e+00 -4.5349335564e-05 2.5307205126e+00 -4.3833365077e+00 2.5307205126e+00 4.3833365077e+00 
71600 4.6476935878e+00 -4.5261541466e-05 2.5307205126e+00 -4.3833365077e+00 2.5307205126e+00 4.3833365077e+00 
71700 4.6476935879e+00 -4.5176209985e-05 2.5307205126e+00 -4.3833365077e+00 2.5307205126e+00 4.3833365077e+00 
71800 4.6476935881e+00 -4.5093409596e-05 2.5307205126e+00 -4.3833365077e+00 2.5307205126e+00 4.3833365077e+00 
71900 4.6476935883e+00 -4.5013197766e-05 2.5307205126e+00 -4.3833365077e+00 2.5307205126e+00 4.3833365077e+00 
72000 4.6476935884e+00 -4.4935621116e-05 2.5307205126e+00 -4.3833365077e+00 2.5307205126e+00 4.3833365077e+00 
72100 4.6476935886e+00 -4.4860715622e-05 2.5307205126e+00 -4.3833365077e+00 2.5307205126e+00 4.3833365077e+00 
72200 4.6476935887e+00 -4.4788506870e-05 2.5307205126e+00 -4.3833365077e+00 2.5307205126e+00 4.3833365077e+00 
72300 4.6476935889e+00 -4.4719010315e-05 2.5307205126e+00 -4.3833365077e+00 2.5307205126e+00 4.3833365077e+00 
72400 4.6476935891e+00 -4.4652231598e-05 2.5307205126e+00 -4.3833365077e+00 2.5307205126e+00 4.3833365077e+00 
72500 4.6476935892e+00 -4.4588166862e-05 2.5307205126e+00 -4.3833365077e+00 2.5307205126e+00 4.3833365077e+00 
72600 4.6476935894e+00 -4.4526803127e-05 2.5307205126e+00 -4.3833365077e+00 2.5307205126e+00 4.3833365077e+00 
72700 4.6476935895e+00 -4.4468118654e-05 2.5307205126e+00 -4.3833365077e+00 2.5307205126e+00 4.3833365077e+00 
72800 4.6476935896e+00 -4.4412083351e-05 2.5307205126e+00 -4.3833365077e+00 2.5307205126e+00 4.3833365077e+00 
72900 4.6476935898e+00 -4.4358659201e-05 2.5307205126e+00 -4.3833365077e+00 2.5307205126e+00 4.3833365077e+00 
73000 4.6476935899e+00 -4.4307800685e-05 2.5307205126e+00 -4.3833365077e+00 2.5307205126e+00 4.3833365077e+00 
73100 4.6476935901e+00 -4.4259455233e-05 2.5307205126e+00 -4.3833365077e+00 2.5307205126e+00 4.3833365077e+00 
73200 4.6476935902e+00 -4.4213563690e-05 2.5307205126e+00 -4.3833365077e+00 2.5307205126e+00 4.3833365077e+00 
73300 4.6476935903e+00 -4.4170060775e-05 2.5307205126e+00 -4.3833365077e+00 2.5307205126e+00 4.3833365077e+00 
73400 4.6476935905e+00 -4.4128875571e-05 2.5307205126e+00 -4.3833365077e+00 2.5307205126e+00 4.3833365077e+00 
73500 4.6476935906e+00 -4.4089931992e-05 2.5307205126e+00 -4.3833365077e+00 2.5307205126e+00 4.3833365077e+00 
73600 4.6476935907e+00 -4.4053149280e-05 2.5307205126e+00 -4.3833365077e+00 2.5307205126e+00 4.3833365077e+00 
73700 4.6476935908e+00 -4.4018442472e-05 2.5307205126e+00 -4.3833365077e+00 2.5307205126e+00 4.3833365077e+00 
73800 4.6476935910e+00 -4.3985722897e-05 2.5307205126e+00 -4.3833365077e+00 2.5307205126e+00 4.3833365077e+00 
73900 4.6476935911e+00 -4.3954898651e-05 2.5307205126e+00 -4.3833365077e+00 2.5307205126e+00 4.3833365077e+00 
74000 4.6476935912e+00 -4.3925875071e-05 2.5307205126e+00 -4.3833365077e+00 2.5307205126e+00 4.3833365077e+00 
74100 4.6476935913e+00 -4.3898555204e-05 2.5307205126e+00 -4.3833365077e+00 2.5307205126e+00 4.3833365077e+00 
74200 4.6476935915e+00 -4.3872840264e-05 2.5307205126e+00 -4.3833365077e+00 2.5307205126e+00 4.3833365077e+00 
74300 4.6476935916e+00 -4.3848630083e-05 2.5307205126e+00 -4.3833365077e+00 2.5307205126e+00 4.3833365077e+00 
74400 4.6476935917e+00 -4.3825823556e-05 2.5307205126e+00 -4.3833365077e+00 2.5307205126e+00 4.3833365077e+00 
74500 4.6476935918e+00 -4.3804319056e-05 2.5307205126e+00 -4.3833365077e+00 2.5307205126e+00 4.3833365077e+00 
74600 4.6476935919e+00 -4.3784014851e-05 2.5307205126e+00 -4.3833365077e+00 2.5307205126e+00 4.3833365077e+00 
74700 4.6476935920e+00 -4.3764809505e-05 2.5307205126e+00 -4.3833365077e+00 2.5307205126e+00 4.3833365077e+00 
74800 4.6476935921e+00 -4.3746602257e-05 2.5307205126e+00 -4.3833365077e+00 2.5307205126e+00 4.3833365077e+00 
74900 4.6476935922e+00 -4.3729293381e-05 2.5307205126e+00 -4.3833365077e+00 2.5307205126e+00 4.3833365077e+00 
75000 4.6476935923e+00 -4.3712784541e-05 2.5307205126e+00 -4.3833365077e+00 2.5307205126e+00 4.3833365077e+00 
75100 4.6476935924e+00 -4.3696979109e-05 2.5307205126e+00 -4.3833365077e+00 2.5307205126e+00 4.3833365077e+00 
75200 4.6476935925e+00 -4.3681782488e-05 2.5307205126e+00 -4.3833365077e+00 2.5307205126e+00 4.3833365077e+00 
75300 4.6476935926e+00 -4.3667102386e-05 2.5307205126e+00 -4.3833365077e+00 2.5307205126e+00 4.3833365077e+00 
75400 4.6476935927e+00 -4.3652849104e-05 2.5307205126e+00 -4.3833365077e+00 2.5307205126e+00 4.3833365077e+00 
75500 4.6476935928e+00 -4.3638935768e-05 2.5307205126e+00 -4.3833365077e+00 2.5307205126e+00 4.3833365077e+00 
75600 4.6476935929e+00 -4.3625278566e-05 2.5307205126e+00 -4.3833365077e+00 2.5307205126e+00 4.3833365077e+00 
75700 4.6476935930e+00 -4.3611796964e-05 2.5307205126e+00 -4.3833365077e+00 2.5307205126e+00 4.3833365077e+00 
75800 4.6476935931e+00 -4.3598413879e-05 2.5307205126e+00 -4.3833365077e+00 2.5307205126e+00 4.3833365077e+00 
75900 4.6476935932e+00 -4.3585055857e-05 2.5307205126e+00 -4.3833365077e+00 2.5307205126e+00 4.3833365077e+00 
76000 4.6476935933e+00 -4.3571653212e-05 2.5307205126e+00 -4.3833365077e+00 2.5307205126e+00 4.3833365077e+00 
76100 4.6476935934e+00 -4.3558140159e-05 2.5307205126e+00 -4.3833365077e+00 2.5307205126e+00 4.3833365077e+00 
76200 4.6476935935e+00 -4.3544454916e-05 2.5307205126e+00 -4.3833365077e+00 2.5307205126e+00 4.3833365077e+00 
76300 4.6476935936e+00 -4.3530539789e-05 2.5307205126e+00 -4.3833365077e+00 2.5307205126e+00 4.3833365077e+00 
76400 4.6476935936e+00 -4.3516341244e-05 2.5307205126e+00 -4.3833365077e+00 2.5307205126e+00 4.3833365077e+00 
76500 4.6476935937e+00 -4.3501809944e-05 2.5307205126e+00 -4.3833365077e+00 2.5307205126e+00 4.3833365077e+00 
76600 4.6476935938e+00 -4.3486900788e-05 2.5307205126e+00 -4.3833365077e+00 2.5307205126e+00 4.3833365077e+00 
76700 4.6476935939e+00 -4.3471572926e-05 2.5307205126e+00 -4.3833365077e+00 2.5307205126e+00 4.3833365077e+00 
76800 4.6476935940e+00 -4.3455789736e-05 2.5307205126e+00 -4.3833365077e+00 2.5307205126e+00 4.3833365077e+00 
76900 4.6476935940e+00 -4.3439518820e-05 2.5307205126e+00 -4.3833365077e+00 2.5307205126e+00 4.3833365077e+00 
77000 4.6476935941e+00 -4.3422731949e-05 2.5307205126e+00 -4.3833365077e+00 2.5307205126e+00 4.3833365077e+00 
77100 4.6476935942e+00 -4.3405405032e-05 2.5307205126e+00 -4.3833365077e+00 2.5307205126e+00 4.3833365077e+00 
77200 4.6476935943e+00 -4.3387518023e-05 2.5307205126e+00 -4.3833365077e+00 2.5307205126e+00 4.3833365077e+00 
77300 4.6476935944e+00 -4.3369054852e-05 2.5307205126e+00 -4.3833365077e+00 2.5307205126e+00 4.3833365077e+00 
77400 4.6476935944e+00 -4.3350003339e-05 2.5307205126e+00 -4.3833365077e+00 2.5307205126e+00 4.3833365077e+00 
77500 4.6476935945e+00 -4.3330355070e-05 2.5307205126e+00 -4.3833365077e+00 2.5307205126e+00 4.3833365077e+00 
77600 4.6476935946e+00 -4.3310105292e-05 2.5307205126e+00 -4.3833365077e+00 2.5307205126e+00 4.3833365077e+00 
77700 4.6476935946e+00 -4.3289252786e-05 2.5307205126e+00 -4.3833365077e+00 2.5307205126e+00 4.3833365077e+00 
77800 4.6476935947e+00 -4.3267799728e-05 2.5307205126e+00 -4.3833365077e+00 2.5307205126e+00 4.3833365077e+00 
77900 4.6476935948e+00 -4.3245751538e-05 2.5307205126e+00 -4.3833365077e+00 2.5307205126e+00 4.3833365077e+00 
78000 4.6476935948e+00 -4.3223116744e-05 2.5307205126e+00 -4.3833365077e+00 2.5307205126e+00 4.3833365077e+00 
78100 4.6476935949e+00 -4.3199906813e-05 2.5307205126e+00 -4.3833365077e+00 2.5307205126e+00 4.3833365077e+00 
78200 4.6476935950e+00 -4.3176135979e-05 2.5307205126e+00 -4.3833365077e+00 2.5307205126e+00 4.3833365077e+00 
78300 4.6476935950e+00 -4.3151821089e-05 2.5307205126e+00 -4.3833365077e+00 2.5307205126e+00 4.3833365077e+00 
78400 4.6476935951e+00 -4.3126981420e-05 2.5307205126e+00 -4.3833365077e+00 2.5307205126e+00 4.3833365077e+00 
78500 4.6476935952e+00 -4.3101638511e-05 2.5307205126e+00 -4.3833365077e+00 2.5307205126e+00 4.3833365077e+00 
78600 4.6476935952e+00 -4.3075815978e-05 2.5307205126e+00 -4.3833365077e+00 2.5307205126e+00 4.3833365077e+00 
78700 4.6476935953e+00 -4.3049539329e-05 2.5307205126e+00 -4.3833365077e+00 2.5307205126e+00 4.3833365077e+00 
78800 4.6476935954e+00 -4.3022835798e-05 2.5307205126e+00 -4.3833365077e+00 2.5307205126e+00 4.3833365077e+00 
78900 4.6476935954e+00 -4.2995734151e-05 2.5307205126e+00 -4.3833365077e+00 2.5307205126e+00 4.3833365077e+00 
79000 4.6476935955e+00 -4.2968264511e-05 2.5307205126e+00 -4.3833365077e+00 2.5307205126e+00 4.3833365077e+00 
79100 4.6476935955e+00 -4.2940458177e-05 2.5307205126e+00 -4.3833365077e+00 2.5307205126e+00 4.3833365077e+00 
79200 4.6476935956e+00 -4.2912347452e-05 2.5307205126e+00 -4.3833365077e+00 2.5307205126e+00 4.3833365077e+00 
79300 4.6476935956e+00 -4.2883965465e-05 2.5307205126e+00 -4.3833365077e+00 2.5307205126e+00 4.3833365077e+00 
79400 4.6476935957e+00 -4.2855345999e-05 2.5307205126e+00 -4.3833365077e+00 2.5307205126e+00 4.3833365077e+00 
79500 4.6476935958e+00 -4.2826523329e-05 2.5307205126e+00 -4.3833365077e+00 2.5307205126e+00 4.3833365077e+00 
79600 4.6476935958e+00 -4.2797532055e-05 2.5307205126e+00 -4.3833365077e+00 2.5307205126e+00 4.3833365077e+00 
79700 4.6476935959e+00 -4.2768406946e-05 2.5307205126e+00 -4.3833365077e+00 2.5307205126e+00 4.3833365077e+00 
79800 4.6476935959e+00 -4.2739182791e-05 2.5307205126e+00 -4.3833365077e+00 2.5307205126e+00 4.3833365077e+00 
79900 4.6476935960e+00 -4.2709894241e-05 2.5307205126e+00 -4.3833365077e+00 2.5307205126e+00 4.3833365077e+00 
80000 4.6476935960e+00 -4.2680575687e-05 2.5307205126e+00 -4.3833365077e+00 2.5307205126e+00 4.3833365077e+00 
80100 4.6476935961e+00 -4.2651261106e-05 2.5307205126e+00 -4.3833365077e+00 2.5307205126e+00 4.3833365077e+00 
80200 4.6476935961e+00 -4.2629005285e-05 2.5307205126e+00 -4.3833365077e+00 2.5307205126e+00 4.3833365077e+00 
80200 4.6476935961e+00 -4.2629005285e-05 2.5307205126e+00 -4.3833365077e+00 2.5307205126e+00 4.3833365077e+00 
