# step Hamiltonian StressXX CellTensor1 CellTensor2 CellTensor3 CellTensor4 
0 5.8954921947e+00 1.2494166771e-01 2.8237630504e+00 -4.8909010719e+00 2.8237630504e+00 4.8909010719e+00 
100 5.9112379411e+00 1.4235877288e-01 2.8237630504e+00 -4.8909010719e+00 2.8237630504e+00 4.8909010719e+00 
200 5.9270173763e+00 1.5924278282e-01 2.8212426978e+00 -4.8865356930e+00 2.8212426978e+00 4.8865356930e+00 
300 5.9429165210e+00 1.7570252242e-01 2.8184209589e+00 -4.8816482979e+00 2.8184209589e+00 4.8816482979e+00 
400 5.9588262941e+00 1.9179498781e-01 2.8153044957e+00 -4.8762504254e+00 2.8153044957e+00 4.8762504254e+00 
500 5.9746380432e+00 2.0756601071e-01 2.8118988914e+00 -4.8703517456e+00 2.8118988914e+00 4.8703517456e+00 
600 5.9902446181e+00 2.2305117212e-01 2.8082088486e+00 -4.8639604041e+00 2.8082088486e+00 4.8639604041e+00 
700 6.0055413519e+00 2.3827662351e-01 2.8042383725e+00 -4.8570833377e+00 2.8042383725e+00 4.8570833377e+00 
800 6.0204269566e+00 2.5325982382e-01 2.7999909382e+00 -4.8497265656e+00 2.7999909382e+00 4.8497265656e+00 
900 6.0348043464e+00 2.6801020287e-01 2.7954696461e+00 -4.8418954580e+00 2.7954696461e+00 4.8418954580e+00 
1000 6.0485813971e+00 2.8252976540e-01 2.7906773659e+00 -4.8335949853e+00 2.7906773659e+00 4.8335949853e+00 
1100 6.0616716546e+00 2.9681365492e-01 2.7856168706e+00 -4.8248299503e+00 2.7856168706e+00 4.8248299503e+00 
1200 6.0739950033e+00 3.1085070161e-01 2.7802909612e+00 -4.8156052046e+00 2.7802909612e+00 4.8156052046e+00 
1300 6.0854783049e+00 3.2462398423e-01 2.7747025834e+00 -4.8059258504e+00 2.7747025834e+00 4.8059258504e+00 
1400 6.0960560153e+00 3.3811144016e-01 2.7688549355e+00 -4.7957974270e+00 2.7688549355e+00 4.7957974270e+00 
1500 6.1056707808e+00 3.5128655828e-01 2.7627515658e+00 -4.7852260807e+00 2.7627515658e+00 4.7852260807e+00 
1600 6.1142740106e+00 3.6411918482e-01 2.7563964609e+00 -4.7742187161e+00 2.7563964609e+00 4.7742187161e+00 
1700 6.1218264095e+00 3.7657645996e-01 2.7497941194e+00 -4.7627831251e+00 2.7497941194e+00 4.7627831251e+00 
1800 6.1282984456e+00 3.8862388240e-01 2.7429496109e+00 -4.7509280887e+00 2.7429496109e+00 4.7509280887e+00 
1900 6.1336707148e+00 4.0022647224e-01 2.7358686174e+00 -4.7386634481e+00 2.7358686174e+00 4.7386634481e+00 
2000 6.1379341591e+00 4.1134997228e-01 2.7285574538e+00 -4.7260001414e+00 2.7285574538e+00 4.7260001414e+00 
2100 6.1410900917e+00 4.2196200266e-01 2.7210230688e+00 -4.7129502037e+00 2.7210230688e+00 4.7129502037e+00 
2200 6.1431499915e+00 4.3203306968e-01 2.7132730237e+00 -4.6995267319e+00 2.7132730237e+00 4.6995267319e+00 
2300 6.1441350453e+00 4.4153733413e-01 2.7053154544e+00 -4.6857438175e+00 2.7053154544e+00 4.6857438175e+00 
2400 6.1440754427e+00 4.5045306962e-01 2.6971590178e+00 -4.6716164549e+00 2.6971590178e+00 4.6716164549e+00 
2500 6.1430094537e+00 4.5876278363e-01 2.6888128300e+00 -4.6571604336e+00 2.6888128300e+00 4.6571604336e+00 
2600 6.1409823496e+00 4.6645302483e-01 2.6802864012e+00 -4.6423922258e+00 2.6802864012e+00 4.6423922258e+00 
2700 6.1380452388e+00 4.7351394738e-01 2.6715895729e+00 -4.6273288773e+00 2.6715895729e+00 4.6273288773e+00 
2800 6.1342539000e+00 4.7993873469e-01 2.6627324622e+00 -4.6119879116e+00 2.6627324622e+00 4.6119879116e+00 
2900 6.1296676845e+00 4.8572299565e-01 2.6537254160e+00 -4.5963872499e+00 2.6537254160e+00 4.5963872499e+00 
3000 6.1243485386e+00 4.9086423354e-01 2.6445789752e+00 -4.5805451497e+00 2.6445789752e+00 4.5805451497e+00 
3100 6.1183601770e+00 4.9536145834e-01 2.6353038480e+00 -4.5644801582e+00 2.6353038480e+00 4.5644801582e+00 
3200 6.1117674089e+00 4.9921497532e-01 2.6259108902e+00 -4.5482110779e+00 2.6259108902e+00 4.5482110779e+00 
3300 6.1046356020e+00 5.0242634571e-01 2.6164110877e+00 -4.5317569373e+00 2.6164110877e+00 4.5317569373e+00 
3400 6.0970302510e+00 5.0499848647e-01 2.6068155405e+00 -4.5151369621e+00 2.6068155405e+00 4.5151369621e+00 
3500 6.0890166192e+00 5.0693585955e-01 2.5971354427e+00 -4.4983705410e+00 2.5971354427e+00 4.4983705410e+00 
3600 6.0806594167e+00 5.0824469590e-01 2.5873820591e+00 -4.4814771849e+00 2.5873820591e+00 4.4814771849e+00 
3700 6.0720224901e+00 5.0893320525e-01 2.5775666952e+00 -4.4644764761e+00 2.5775666952e+00 4.4644764761e+00 
3800 6.0631685064e+00 5.0901173386e-01 2.5677006639e+00 -4.4473880084e+00 2.5677006639e+00 4.4473880084e+00 
3900 6.0541586225e+00 5.0849284746e-01 2.5577952455e+00 -4.4302313206e+00 2.5577952455e+00 4.4302313206e+00 
4000 6.0450521416e+00 5.0739133023e-01 2.5478616472e+00 -4.4130258235e+00 2.5478616472e+00 4.4130258235e+00 
4100 6.0359061631e+00 5.0572410300e-01 2.5379109587e+00 -4.3957907256e+00 2.5379109587e+00 4.3957907256e+00 
4200 6.0267752362e+00 5.0351007159e-01 2.5279541102e+00 -4.3785449580e+00 2.5279541102e+00 4.3785449580e+00 
4300 6.0177110292e+00 5.0076992136e-01 2.5180018296e+00 -4.3613071025e+00 2.5180018296e+00 4.3613071025e+00 
4400 6.0087620258e+00 4.9752587538e-01 2.5080646046e+00 -4.3440953238e+00 2.5080646046e+00 4.3440953238e+00 
4500 5.9999732574e+00 4.9380143272e-01 2.4981526460e+00 -4.3269273079e+00 2.4981526460e+00 4.3269273079e+00 
4600 5.9913860794e+00 4.8962110115e-01 2.4882758568e+00 -4.3098202073e+00 2.4882758568e+00 4.3098202073e+00 
4700 5.9830379967e+00 4.8501013559e-01 2.4784438046e+00 -4.2927905933e+00 2.4784438046e+00 4.2927905933e+00 
4800 5.9749625382e+00 4.7999429013e-01 2.4686656982e+00 -4.2758544162e+00 2.4686656982e+00 4.2758544162e+00 
4900 5.9671891840e+00 4.7459958924e-01 2.4589503689e+00 -4.2590269722e+00 2.4589503689e+00 4.2590269722e+00 
5000 5.9597433409e+00 4.6885212075e-01 2.4493062554e+00 -4.2423228776e+00 2.4493062554e+00 4.2423228776e+00 
5100 5.9526463647e+00 4.6277785216e-01 2.4397413925e+00 -4.2257560492e+00 2.4397413925e+00 4.2257560492e+00 
5200 5.9459156257e+00 4.5640246983e-01 2.4302634033e+00 -4.2093396903e+00 2.4302634033e+00 4.2093396903e+00 
5300 5.9395646134e+00 4.4975124052e-01 2.4208794941e+00 -4.1930862827e+00 2.4208794941e+00 4.1930862827e+00 
5400 5.9336030745e+00 4.4284889378e-01 2.4115964522e+00 -4.1770075825e+00 2.4115964522e+00 4.1770075825e+00 
5500 5.9280371821e+00 4.3571952363e-01 2.4024206465e+00 -4.1611146208e+00 2.4024206465e+00 4.1611146208e+00 
5600 5.9228697287e+00 4.2838650789e-01 2.3933580293e+00 -4.1454177075e+00 2.3933580293e+00 4.1454177075e+00 
5700 5.9181003413e+00 4.2087244355e-01 2.3844141412e+00 -4.1299264389e+00 2.3844141412e+00 4.1299264389e+00 
5800 5.9137257117e+00 4.1319909648e-01 2.3755941162e+00 -4.1146497074e+00 2.3755941162e+00 4.1146497074e+00 
5900 5.9097398396e+00 4.0538736413e-01 2.3669026892e+00 -4.0995957142e+00 2.3669026892e+00 4.0995957142e+00 
6000 5.9061342844e+00 3.9745724959e-01 2.3583442042e+00 -4.0847719834e+00 2.3583442042e+00 4.0847719834e+00 
6100 5.9028984212e+00 3.8942784588e-01 2.3499226238e+00 -4.0701853782e+00 2.3499226238e+00 4.0701853782e+00 
6200 5.9000196986e+00 3.8131732907e-01 2.3416415388e+00 -4.0558421183e+00 2.3416415388e+00 4.0558421183e+00 
6300 5.8974838949e+00 3.7314295916e-01 2.3335041793e+00 -4.0417477982e+00 2.3335041793e+00 4.0417477982e+00 
6400 5.8952753699e+00 3.6492108758e-01 2.3255134256e+00 -4.0279074069e+00 2.3255134256e+00 4.0279074069e+00 
6500 5.8933773105e+00 3.5666717031e-01 2.3176718198e+00 -4.0143253472e+00 2.3176718198e+00 4.0143253472e+00 
6600 5.8917719663e+00 3.4839578578e-01 2.3099815774e+00 -4.0010054566e+00 2.3099815774e+00 4.0010054566e+00 
6700 5.8904408761e+00 3.4012065650e-01 2.3024445995e+00 -3.9879510279e+00 2.3024445995e+00 3.9879510279e+00 
6800 5.8893650811e+00 3.3185467385e-01 2.2950624843e+00 -3.9751648293e+00 2.2950624843e+00 3.9751648293e+00 
6900 5.8885253251e+00 3.2360992525e-01 2.2878365396e+00 -3.9626491260e+00 2.2878365396e+00 3.9626491260e+00 
7000 5.8879022409e+00 3.1539772301e-01 2.2807677942e+00 -3.9504056998e+00 2.2807677942e+00 3.9504056998e+00 
7100 5.8874765213e+00 3.0722863446e-01 2.2738570100e+00 -3.9384358705e+00 2.2738570100e+00 3.9384358705e+00 
7200 5.8872290744e+00 2.9911251270e-01 2.2671046934e+00 -3.9267405150e+00 2.2671046934e+00 3.9267405150e+00 
7300 5.8871411642e+00 2.9105852772e-01 2.2605111066e+00 -3.9153200877e+00 2.2605111066e+00 3.9153200877e+00 
7400 5.8871945353e+00 2.8307519742e-01 2.2540762791e+00 -3.9041746396e+00 2.2540762791e+00 3.9041746396e+00 
7500 5.8873715218e+00 2.7517041829e-01 2.2478000185e+00 -3.8933038373e+00 2.2478000185e+00 3.8933038373e+00 
7600 5.8876551417e+00 2.6735149549e-01 2.2416819210e+00 -3.8827069816e+00 2.2416819210e+00 3.8827069816e+00 
7700 5.8880291766e+00 2.5962517216e-01 2.2357213821e+00 -3.8723830254e+00 2.2357213821e+00 3.8723830254e+00 
7800 5.8884782373e+00 2.5199765775e-01 2.2299176065e+00 -3.8623305912e+00 2.2299176065e+00 3.8623305912e+00 
7900 5.8889878165e+00 2.4447465539e-01 2.2242696184e+00 -3.8525479887e+00 2.2242696184e+00 3.8525479887e+00 
8000 5.8895443286e+00 2.3706138812e-01 2.2187762705e+00 -3.8430332312e+00 2.2187762705e+00 3.8430332312e+00 
8100 5.8901351380e+00 2.2976262390e-01 2.2134362542e+00 -3.8337840516e+00 2.2134362542e+00 3.8337840516e+00 
8200 5.8907485770e+00 2.2258269957e-01 2.2082481080e+00 -3.8247979188e+00 2.2082481080e+00 3.8247979188e+00 
8300 5.8913739526e+00 2.1552554353e-01 2.2032102266e+00 -3.8160720522e+00 2.2032102266e+00 3.8160720522e+00 
8400 5.8920015459e+00 2.0859469733e-01 2.1983208697e+00 -3.8076034377e+00 2.1983208697e+00 3.8076034377e+00 
8500 5.8926226021e+00 2.0179333609e-01 2.1935781703e+00 -3.7993888413e+00 2.1935781703e+00 3.7993888413e+00 
8600 5.8932293137e+00 1.9512428792e-01 2.1889801425e+00 -3.7914248237e+00 2.1889801425e+00 3.7914248237e+00 
8700 5.8938147974e+00 1.8859005216e-01 2.1845246901e+00 -3.7837077537e+00 2.1845246901e+00 3.7837077537e+00 
8800 5.8943730654e+00 1.8219281679e-01 2.1802096136e+00 -3.7762338220e+00 2.1802096136e+00 3.7762338220e+00 
8900 5.8948989917e+00 1.7593447482e-01 2.1760326183e+00 -3.7689990537e+00 2.1760326183e+00 3.7689990537e+00 
9000 5.8953882750e+00 1.6981663978e-01 2.1719913209e+00 -3.7619993213e+00 2.1719913209e+00 3.7619993213e+00 
9100 5.8958373975e+00 1.6384066047e-01 2.1680832572e+00 -3.7552303565e+00 2.1680832572e+00 3.7552303565e+00 
9200 5.8962435816e+00 1.5800763486e-01 2.1643058887e+00 -3.7486877623e+00 2.1643058887e+00 3.7486877623e+00 
9300 5.8966047449e+00 1.5231842331e-01 2.1606566091e+00 -3.7423670247e+00 2.1606566091e+00 3.7423670247e+00 
9400 5.8969194528e+00 1.4677366110e-01 2.1571327512e+00 -3.7362635237e+00 2.1571327512e+00 3.7362635237e+00 
9500 5.8971868715e+00 1.4137377029e-01 2.1537315924e+00 -3.7303725438e+00 2.1537315924e+00 3.7303725438e+00 
9600 5.8974067193e+00 1.3611897110e-01 2.1504503616e+00 -3.7246892854e+00 2.1504503616e+00 3.7246892854e+00 
9700 5.8975792187e+00 1.3100929256e-01 2.1472862445e+00 -3.7192088739e+00 2.1472862445e+00 3.7192088739e+00 
9800 5.8977050488e+00 1.2604458281e-01 2.1442363896e+00 -3.7139263703e+00 2.1442363896e+00 3.7139263703e+00 
9900 5.8977852983e+00 1.2122451876e-01 2.1412979135e+00 -3.7088367804e+00 2.1412979135e+00 3.7088367804e+00 
10000 5.8978214196e+00 1.1654861542e-01 2.1384679062e+00 -3.7039350639e+00 2.1384679062e+00 3.7039350639e+00 
10100 5.8978151836e+00 1.1201623464e-01 2.1357434363e+00 -3.6992161435e+00 2.1357434363e+00 3.6992161435e+00 
10200 5.8977686376e+00 1.0762659359e-01 2.1331215557e+00 -3.6946749132e+00 2.1331215557e+00 3.6946749132e+00 
10300 5.8976840626e+00 1.0337877265e-01 2.1305993048e+00 -3.6903062466e+00 2.1305993048e+00 3.6903062466e+00 
10400 5.8975639348e+00 9.9271723129e-02 2.1281737166e+00 -3.6861050045e+00 2.1281737166e+00 3.6861050045e+00 
10500 5.8974108870e+00 9.5304274418e-02 2.1258418212e+00 -3.6820660432e+00 2.1258418212e+00 3.6820660432e+00 
10600 5.8972276735e+00 9.1475140919e-02 2.1236006500e+00 -3.6781842209e+00 2.1236006500e+00 3.6781842209e+00 
10700 5.8970171368e+00 8.7782928585e-02 2.1214472399e+00 -3.6744544051e+00 2.1214472399e+00 3.6744544051e+00 
10800 5.8967821755e+00 8.4226141133e-02 2.1193786368e+00 -3.6708714795e+00 2.1193786368e+00 3.6708714795e+00 
10900 5.8965257162e+00 8.0803185960e-02 2.1173918996e+00 -3.6674303497e+00 2.1173918996e+00 3.6674303497e+00 
11000 5.8962506856e+00 7.7512379738e-02 2.1154841036e+00 -3.6641259500e+00 2.1154841036e+00 3.6641259500e+00 
11100 5.8959599869e+00 7.4351953737e-02 2.1136523436e+00 -3.6609532486e+00 2.1136523436e+00 3.6609532486e+00 
11200 5.8956564761e+00 7.1320058854e-02 2.1118937376e+00 -3.6579072537e+00 2.1118937376e+00 3.6579072537e+00 
11300 5.8953429428e+00 6.8414770389e-02 2.1102054295e+00 -3.6549830182e+00 2.1102054295e+00 3.6549830182e+00 
11400 5.8950220912e+00 6.5634092560e-02 2.1085845919e+00 -3.6521756452e+00 2.1085845919e+00 3.6521756452e+00 
11500 5.8946965240e+00 6.2975962779e-02 2.1070284292e+00 -3.6494802924e+00 2.1070284292e+00 3.6494802924e+00 
11600 5.8943687286e+00 6.0438255697e-02 2.1055341800e+00 -3.6468921768e+00 2.1055341800e+00 3.6468921768e+00 
11700 5.8940410644e+00 5.8018787040e-02 2.1040991193e+00 -3.6444065789e+00 2.1040991193e+00 3.6444065789e+00 
11800 5.8937157526e+00 5.5715317233e-02 2.1027205615e+00 -3.6420188466e+00 2.1027205615e+00 3.6420188466e+00 
11900 5.8933948674e+00 5.3525554845e-02 2.1013958619e+00 -3.6397243996e+00 2.1013958619e+00 3.6397243996e+00 
12000 5.8930803291e+00 5.1447159853e-02 2.1001224192e+00 -3.6375187321e+00 2.1001224192e+00 3.6375187321e+00 
12100 5.8927738990e+00 4.9477746745e-02 2.0988976773e+00 -3.6353974170e+00 2.0988976773e+00 3.6353974170e+00 
12200 5.8924771749e+00 4.7614887482e-02 2.0977191274e+00 -3.6333561087e+00 2.0977191274e+00 3.6333561087e+00 
12300 5.8921915896e+00 4.5856114323e-02 2.0965843093e+00 -3.6313905461e+00 2.0965843093e+00 3.6313905461e+00 
12400 5.8919184089e+00 4.4198922533e-02 2.0954908135e+00 -3.6294965557e+00 2.0954908135e+00 3.6294965557e+00 
12500 5.8916587326e+00 4.2640772994e-02 2.0944362822e+00 -3.6276700539e+00 2.0944362822e+00 3.6276700539e+00 
12600 5.8914134955e+00 4.1179094717e-02 2.0934184112e+00 -3.6259070497e+00 2.0934184112e+00 3.6259070497e+00 
12700 5.8911834698e+00 3.9811287292e-02 2.0924349511e+00 -3.6242036469e+00 2.0924349511e+00 3.6242036469e+00 
12800 5.8909692688e+00 3.8534723269e-02 2.0914837084e+00 -3.6225560462e+00 2.0914837084e+00 3.6225560462e+00 
12900 5.8907713511e+00 3.7346750498e-02 2.0905625467e+00 -3.6209605473e+00 2.0905625467e+00 3.6209605473e+00 
13000 5.8905900259e+00 3.6244694435e-02 2.0896693879e+00 -3.6194135508e+00 2.0896693879e+00 3.6194135508e+00 
13100 5.8904254589e+00 3.5225860431e-02 2.0888022127e+00 -3.6179115594e+00 2.0888022127e+00 3.6179115594e+00 
13200 5.8902776790e+00 3.4287536009e-02 2.0879590623e+00 -3.6164511800e+00 2.0879590623e+00 3.6164511800e+00 
13300 5.8901465854e+00 3.3426993153e-02 2.0871380384e+00 -3.6150291248e+00 2.0871380384e+00 3.6150291248e+00 
13400 5.8900319555e+00 3.2641490605e-02 2.0863373042e+00 -3.6136422126e+00 2.0863373042e+00 3.6136422126e+00 
13500 5.8899334528e+00 3.1928276197e-02 2.0855550853e+00 -3.6122873697e+00 2.0855550853e+00 3.6122873697e+00 
13600 5.8898506359e+00 3.1284589211e-02 2.0847896698e+00 -3.6109616312e+00 2.0847896698e+00 3.6109616312e+00 
13700 5.8897829665e+00 3.0707662787e-02 2.0840394092e+00 -3.6096621417e+00 2.0840394092e+00 3.6096621417e+00 
13800 5.8897298195e+00 3.0194726382e-02 2.0833027184e+00 -3.6083861558e+00 2.0833027184e+00 3.6083861558e+00 
13900 5.8896904913e+00 2.9743008285e-02 2.0825780763e+00 -3.6071310389e+00 2.0825780763e+00 3.6071310389e+00 
14000 5.8896642097e+00 2.9349738194e-02 2.0818640261e+00 -3.6058942676e+00 2.0818640261e+00 3.6058942676e+00 
14100 5.8896501427e+00 2.9012149861e-02 2.0811591750e+00 -3.6046734298e+00 2.0811591750e+00 3.6046734298e+00 
14200 5.8896474084e+00 2.8727483803e-02 2.0804621949e+00 -3.6034662249e+00 2.0804621949e+00 3.6034662249e+00 
14300 5.8896550838e+00 2.8492990082e-02 2.0797718220e+00 -3.6022704639e+00 2.0797718220e+00 3.6022704639e+00 
14400 5.8896722139e+00 2.8305931157e-02 2.0790868569e+00 -3.6010840694e+00 2.0790868569e+00 3.6010840694e+00 
14500 5.8896978207e+00 2.8163584796e-02 2.0784061641e+00 -3.5999050751e+00 2.0784061641e+00 3.5999050751e+00 
14600 5.8897309120e+00 2.8063247059e-02 2.0777286725e+00 -3.5987316252e+00 2.0777286725e+00 3.5987316252e+00 
14700 5.8897704894e+00 2.8002235333e-02 2.0770533744e+00 -3.5975619745e+00 2.0770533744e+00 3.5975619745e+00 
14800 5.8898155565e+00 2.7977891426e-02 2.0763793253e+00 -3.5963944872e+00 2.0763793253e+00 3.5963944872e+00 
14900 5.8898651266e+00 2.7987584701e-02 2.0757056435e+00 -3.5952276361e+00 2.0757056435e+00 3.5952276361e+00 
15000 5.8899182298e+00 2.8028715245e-02 2.0750315096e+00 -3.5940600020e+00 2.0750315096e+00 3.5940600020e+00 
15100 5.8899739202e+00 2.8098717074e-02 2.0743561658e+00 -3.5928902722e+00 2.0743561658e+00 3.5928902722e+00 
15200 5.8900312815e+00 2.8195061342e-02 2.0736789150e+00 -3.5917172394e+00 2.0736789150e+00 3.5917172394e+00 
15300 5.8900894336e+00 2.8315259557e-02 2.0729991203e+00 -3.5905398004e+00 2.0729991203e+00 3.5905398004e+00 
15400 5.8901475374e+00 2.8456866791e-02 2.0723162038e+00 -3.5893569544e+00 2.0723162038e+00 3.5893569544e+00 
15500 5.8902048000e+00 2.8617484862e-02 2.0716296461e+00 -3.5881678015e+00 2.0716296461e+00 3.5881678015e+00 
15600 5.8902604784e+00 2.8794765473e-02 2.0709389846e+00 -3.5869715408e+00 2.0709389846e+00 3.5869715408e+00 
15700 5.8903138836e+00 2.8986413307e-02 2.0702438132e+00 -3.5857674685e+00 2.0702438132e+00 3.5857674685e+00 
15800 5.8903643836e+00 2.9190189046e-02 2.0695437802e+00 -3.5845549758e+00 2.0695437802e+00 3.5845549758e+00 
15900 5.8904114057e+00 2.9403912307e-02 2.0688385878e+00 -3.5833335467e+00 2.0688385878e+00 3.5833335467e+00 
16000 5.8904544388e+00 2.9625464474e-02 2.0681279903e+00 -3.5821027558e+00 2.0681279903e+00 3.5821027558e+00 
16100 5.8904930343e+00 2.9852791420e-02 2.0674117930e+00 -3.5808622657e+00 2.0674117930e+00 3.5808622657e+00 
16200 5.8905268076e+00 3.0083906092e-02 2.0666898504e+00 -3.5796118244e+00 2.0666898504e+00 3.5796118244e+00 
16300 5.8905554375e+00 3.0316890951e-02 2.0659620649e+00 -3.5783512629e+00 2.0659620649e+00 3.5783512629e+00 
16400 5.8905786669e+00 3.0549900251e-02 2.0652283850e+00 -3.5770804921e+00 2.0652283850e+00 3.5770804921e+00 
16500 5.8905963013e+00 3.0781162150e-02 2.0644888040e+00 -3.5757995001e+00 2.0644888040e+00 3.5757995001e+00 
16600 5.8906082079e+00 3.1008980623e-02 2.0637433577e+00 -3.5745083493e+00 2.0637433577e+00 3.5745083493e+00 
16700 5.8906143140e+00 3.1231737191e-02 2.0629921233e+00 -3.5732071732e+00 2.0629921233e+00 3.5732071732e+00 
16800 5.8906146047e+00 3.1447892434e-02 2.0622352172e+00 -3.5718961734e+00 2.0622352172e+00 3.5718961734e+00 
16900 5.8906091202e+00 3.1655987293e-02 2.0614727932e+00 -3.5705756162e+00 2.0614727932e+00 3.5705756162e+00 
17000 5.8905979537e+00 3.1854644146e-02 2.0607050406e+00 -3.5692458298e+00 2.0607050406e+00 3.5692458298e+00 
17100 5.8905812474e+00 3.2042567659e-02 2.0599321825e+00 -3.5679072002e+00 2.0599321825e+00 3.5679072002e+00 
17200 5.8905591894e+00 3.2218545403e-02 2.0591544736e+00 -3.5665601690e+00 2.0591544736e+00 3.5665601690e+00 
17300 5.8905320100e+00 3.2381448236e-02 2.0583721986e+00 -3.5652052288e+00 2.0583721986e+00 3.5652052288e+00 
17400 5.8904999780e+00 3.2530230450e-02 2.0575856696e+00 -3.5638429207e+00 2.0575856696e+00 3.5638429207e+00 
17500 5.8904633961e+00 3.2663929686e-02 2.0567952251e+00 -3.5624738307e+00 2.0567952251e+00 3.5624738307e+00 
17600 5.8904225975e+00 3.2781666611e-02 2.0560012271e+00 -3.5610985857e+00 2.0560012271e+00 3.5610985857e+00 
17700 5.8903779407e+00 3.2882644374e-02 2.0552040596e+00 -3.5597178511e+00 2.0552040596e+00 3.5597178511e+00 
17800 5.8903298061e+00 3.2966147833e-02 2.0544041266e+00 -3.5583323265e+00 2.0544041266e+00 3.5583323265e+00 
17900 5.8902785914e+00 3.3031542570e-02 2.0536018501e+00 -3.5569427430e+00 2.0536018501e+00 3.5569427430e+00 
18000 5.8902247071e+00 3.3078273698e-02 2.0527976683e+00 -3.5555498592e+00 2.0527976683e+00 3.5555498592e+00 
18100 5.8901685728e+00 3.3105864471e-02 2.0519920334e+00 -3.5541544586e+00 2.0519920334e+00 3.5541544586e+00 
18200 5.8901106126e+00 3.3113914698e-02 2.0511854100e+00 -3.5527573459e+00 2.0511854100e+00 3.5527573459e+00 
18300 5.8900512517e+00 3.3102098993e-02 2.0503782733e+00 -3.5513593441e+00 2.0503782733e+00 3.5513593441e+00 
18400 5.8899909125e+00 3.3070164849e-02 2.0495711070e+00 -3.5499612910e+00 2.0495711070e+00 3.5499612910e+00 
18500 5.8899300109e+00 3.3017930569e-02 2.0487644017e+00 -3.5485640366e+00 2.0487644017e+00 3.5485640366e+00 
18600 5.8898689530e+00 3.2945283054e-02 2.0479586535e+00 -3.5471684397e+00 2.0479586535e+00 3.5471684397e+00 
18700 5.8898081324e+00 3.2852175462e-02 2.0471543618e+00 -3.5457753655e+00 2.0471543618e+00 3.5457753655e+00 
18800 5.8897479266e+00 3.2738624768e-02 2.0463520278e+00 -3.5443856824e+00 2.0463520278e+00 3.5443856824e+00 
18900 5.8896886953e+00 3.2604709217e-02 2.0455521534e+00 -3.5430002593e+00 2.0455521534e+00 3.5430002593e+00 
19000 5.8896307775e+00 3.2450565694e-02 2.0447552392e+00 -3.5416199634e+00 2.0447552392e+00 3.5416199634e+00 
19100 5.8895744898e+00 3.2276387032e-02 2.0439617832e+00 -3.5402456573e+00 2.0439617832e+00 3.5402456573e+00 
19200 5.8895201246e+00 3.2082419257e-02 2.0431722795e+00 -3.5388781968e+00 2.0431722795e+00 3.5388781968e+00 
19300 5.8894679489e+00 3.1868958798e-02 2.0423872169e+00 -3.5375184284e+00 2.0423872169e+00 3.5375184284e+00 
19400 5.8894182028e+00 3.1636349655e-02 2.0416070777e+00 -3.5361671876e+00 2.0416070777e+00 3.5361671876e+00 
19500 5.8893710991e+00 3.1384980566e-02 2.0408323363e+00 -3.5348252962e+00 2.0408323363e+00 3.5348252962e+00 
19600 5.8893268223e+00 3.1115282151e-02 2.0400634586e+00 -3.5334935610e+00 2.0400634586e+00 3.5334935610e+00 
19700 5.8892855290e+00 3.0827724075e-02 2.0393009004e+00 -3.5321727714e+00 2.0393009004e+00 3.5321727714e+00 
19800 5.8892473471e+00 3.0522812218e-02 2.0385451066e+00 -3.5308636982e+00 2.0385451066e+00 3.5308636982e+00 
19900 5.8892123769e+00 3.0201085871e-02 2.0377965104e+00 -3.5295670915e+00 2.0377965104e+00 3.5295670915e+00 
20000 5.8891806906e+00 2.9863114968e-02 2.0370555322e+00 -3.5282836797e+00 2.0370555322e+00 3.5282836797e+00 
20100 5.8891523340e+00 2.9509497357e-02 2.0363225791e+00 -3.5270141677e+00 2.0363225791e+00 3.5270141677e+00 
20200 5.8891273266e+00 2.9140856120e-02 2.0355980440e+00 -3.5257592359e+00 2.0355980440e+00 3.5257592359e+00 
20300 5.8891056632e+00 2.8757836947e-02 2.0348823047e+00 -3.5245195392e+00 2.0348823047e+00 3.5245195392e+00 
20400 5.8890873147e+00 2.8361105575e-02 2.0341757240e+00 -3.5232957055e+00 2.0341757240e+00 3.5232957055e+00 
20500 5.8890722300e+00 2.7951345289e-02 2.0334786484e+00 -3.5220883351e+00 2.0334786484e+00 3.5220883351e+00 
20600 5.8890603368e+00 2.7529254492e-02 2.0327914081e+00 -3.5208980000e+00 2.0327914081e+00 3.5208980000e+00 
20700 5.8890515439e+00 2.7095544355e-02 2.0321143163e+00 -3.5197252427e+00 2.0321143163e+00 3.5197252427e+00 
20800 5.8890457424e+00 2.6650936535e-02 2.0314476692e+00 -3.5185705761e+00 2.0314476692e+00 3.5185705761e+00 
20900 5.8890428076e+00 2.6196160978e-02 2.0307917453e+00 -3.5174344825e+00 2.0307917453e+00 3.5174344825e+00 
21000 5.8890426008e+00 2.5731953806e-02 2.0301468054e+00 -3.5163174138e+00 2.0301468054e+00 3.5163174138e+00 
21100 5.8890449710e+00 2.5259055277e-02 2.0295130923e+00 -3.5152197904e+00 2.0295130923e+00 3.5152197904e+00 
21200 5.8890497569e+00 2.4778207837e-02 2.0288908306e+00 -3.5141420016e+00 2.0288908306e+00 3.5141420016e+00 
21300 5.8890567883e+00 2.4290154253e-02 2.0282802269e+00 -3.5130844050e+00 2.0282802269e+00 3.5130844050e+00 
21400 5.8890658883e+00 2.3795635828e-02 2.0276814694e+00 -3.5120473266e+00 2.0276814694e+00 3.5120473266e+00 
21500 5.8890768750e+00 2.3295390705e-02 2.0270947282e+00 -3.5110310609e+00 2.0270947282e+00 3.5110310609e+00 
21600 5.8890895626e+00 2.2790152251e-02 2.0265201549e+00 -3.5100358708e+00 2.0265201549e+00 3.5100358708e+00 
21700 5.8891037638e+00 2.2280647522e-02 2.0259578832e+00 -3.5090619877e+00 2.0259578832e+00 3.5090619877e+00 
21800 5.8891192908e+00 2.1767595819e-02 2.0254080287e+00 -3.5081096118e+00 2.0254080287e+00 3.5081096118e+00 
21900 5.8891359570e+00 2.1251707309e-02 2.0248706893e+00 -3.5071789126e+00 2.0248706893e+00 3.5071789126e+00 
22000 5.8891535783e+00 2.0733681746e-02 2.0243459449e+00 -3.5062700287e+00 2.0243459449e+00 3.5062700287e+00 
22100 5.8891719741e+00 2.0214207248e-02 2.0238338584e+00 -3.5053830687e+00 2.0238338584e+00 3.5053830687e+00 
22200 5.8891909691e+00 1.9693959173e-02 2.0233344751e+00 -3.5045181115e+00 2.0233344751e+00 3.5045181115e+00 
22300 5.8892103937e+00 1.9173599050e-02 2.0228478237e+00 -3.5036752067e+00 2.0228478237e+00 3.5036752067e+00 
22400 5.8892300851e+00 1.8653773597e-02 2.0223739163e+00 -3.5028543750e+00 2.0223739163e+00 3.5028543750e+00 
22500 5.8892498885e+00 1.8135113807e-02 2.0219127488e+00 -3.5020556094e+00 2.0219127488e+00 3.5020556094e+00 
22600 5.8892696573e+00 1.7618234099e-02 2.0214643011e+00 -3.5012788751e+00 2.0214643011e+00 3.5012788751e+00 
22700 5.8892892541e+00 1.7103731547e-02 2.0210285377e+00 -3.5005241109e+00 2.0210285377e+00 3.5005241109e+00 
22800 5.8893085511e+00 1.6592185168e-02 2.0206054083e+00 -3.4997912291e+00 2.0206054083e+00 3.4997912291e+00 
22900 5.8893274304e+00 1.6084155275e-02 2.0201948476e+00 -3.4990801172e+00 2.0201948476e+00 3.4990801172e+00 
23000 5.8893457844e+00 1.5580182899e-02 2.0197967764e+00 -3.4983906377e+00 2.0197967764e+00 3.4983906377e+00 
23100 5.8893635158e+00 1.5080789263e-02 2.0194111018e+00 -3.4977226296e+00 2.0194111018e+00 3.4977226296e+00 
23200 5.8893805381e+00 1.4586475329e-02 2.0190377175e+00 -3.4970759092e+00 2.0190377175e+00 3.4970759092e+00 
23300 5.8893967752e+00 1.4097721385e-02 2.0186765049e+00 -3.4964502705e+00 2.0186765049e+00 3.4964502705e+00 
23400 5.8894121617e+00 1.3614986705e-02 2.0183273327e+00 -3.4958454865e+00 2.0183273327e+00 3.4958454865e+00 
23500 5.8894266423e+00 1.3138709253e-02 2.0179900581e+00 -3.4952613099e+00 2.0179900581e+00 3.4952613099e+00 
23600 5.8894401721e+00 1.2669305441e-02 2.0176645274e+00 -3.4946974741e+00 2.0176645274e+00 3.4946974741e+00 
23700 5.8894527159e+00 1.2207169944e-02 2.0173505759e+00 -3.4941536941e+00 2.0173505759e+00 3.4941536941e+00 
23800 5.8894642481e+00 1.1752675557e-02 2.0170480290e+00 -3.4936296674e+00 2.0170480290e+00 3.4936296674e+00 
23900 5.8894747521e+00 1.1306173100e-02 2.0167567024e+00 -3.4931250751e+00 2.0167567024e+00 3.4931250751e+00 
24000 5.8894842202e+00 1.0867991378e-02 2.0164764031e+00 -3.4926395824e+00 2.0164764031e+00 3.4926395824e+00 
24100 5.8894926527e+00 1.0438437172e-02 2.0162069293e+00 -3.4921728402e+00 2.0162069293e+00 3.4921728402e+00 
24200 5.8895000577e+00 1.0017795284e-02 2.0159480716e+00 -3.4917244855e+00 2.0159480716e+00 3.4917244855e+00 
24300 5.8895064505e+00 9.6063286188e-03 2.0156996131e+00 -3.4912941427e+00 2.0156996131e+00 3.4912941427e+00 
24400 5.8895118527e+00 9.2042783001e-03 2.0154613301e+00 -3.4908814244e+00 2.0154613301e+00 3.4908814244e+00 
24500 5.8895162924e+00 8.8118638354e-03 2.0152329927e+00 -3.4904859324e+00 2.0152329927e+00 3.4904859324e+00 
24600 5.8895198027e+00 8.4292833081e-03 2.0150143652e+00 -3.4901072586e+00 2.0150143652e+00 3.4901072586e+00 
24700 5.8895224217e+00 8.0567136089e-03 2.0148052070e+00 -3.4897449859e+00 2.0148052070e+00 3.4897449859e+00 
24800 5.8895241919e+00 7.6943106981e-03 2.0146052725e+00 -3.4893986892e+00 2.0146052725e+00 3.4893986892e+00 
24900 5.8895251591e+00 7.3422099015e-03 2.0144143123e+00 -3.4890679364e+00 2.0144143123e+00 3.4890679364e+00 
25000 5.8895253726e+00 7.0005262344e-03 2.0142320733e+00 -3.4887522891e+00 2.0142320733e+00 3.4887522891e+00 
25100 5.8895248840e+00 6.6693547555e-03 2.0140582992e+00 -3.4884513036e+00 2.0140582992e+00 3.4884513036e+00 
25200 5.8895237469e+00 6.3487709473e-03 2.0138927314e+00 -3.4881645318e+00 2.0138927314e+00 3.4881645318e+00 
25300 5.8895220163e+00 6.0388311214e-03 2.0137351091e+00 -3.4878915220e+00 2.0137351091e+00 3.4878915220e+00 
25400 5.8895197484e+00 5.7395728485e-03 2.0135851699e+00 -3.4876318197e+00 2.0135851699e+00 3.4876318197e+00 
25500 5.8895169996e+00 5.4510154105e-03 2.0134426504e+00 -3.4873849686e+00 2.0134426504e+00 3.4873849686e+00 
25600 5.8895138265e+00 5.1731602733e-03 2.0133072863e+00 -3.4871505112e+00 2.0133072863e+00 3.4871505112e+00 
25700 5.8895102851e+00 4.9059915795e-03 2.0131788135e+00 -3.4869279897e+00 2.0131788135e+00 3.4869279897e+00 
25800 5.8895064308e+00 4.6494766582e-03 2.0130569679e+00 -3.4867169469e+00 2.0130569679e+00 3.4867169469e+00 
25900 5.8895023177e+00 4.4035665526e-03 2.0129414860e+00 -3.4865169264e+00 2.0129414860e+00 3.4865169264e+00 
26000 5.8894979985e+00 4.1681965612e-03 2.0128321056e+00 -3.4863274740e+00 2.0128321056e+00 3.4863274740e+00 
26100 5.8894935241e+00 3.9432867943e-03 2.0127285659e+00 -3.4861481379e+00 2.0127285659e+00 3.4861481379e+00 
26200 5.8894889431e+00 3.7287427410e-03 2.0126306079e+00 -3.4859784698e+00 2.0126306079e+00 3.4859784698e+00 
26300 5.8894843022e+00 3.5244558489e-03 2.0125379751e+00 -3.4858180250e+00 2.0125379751e+00 3.4858180250e+00 
26400 5.8894796452e+00 3.3303041120e-03 2.0124504133e+00 -3.4856663635e+00 2.0124504133e+00 3.4856663635e+00 
26500 5.8894750136e+00 3.1461526673e-03 2.0123676713e+00 -3.4855230502e+00 2.0123676713e+00 3.4855230502e+00 
26600 5.8894704457e+00 2.9718543990e-03 2.0122895014e+00 -3.4853876560e+00 2.0122895014e+00 3.4853876560e+00 
26700 5.8894659772e+00 2.8072505472e-03 2.0122156592e+00 -3.4852597576e+00 2.0122156592e+00 3.4852597576e+00 
26800 5.8894616406e+00 2.6521713217e-03 2.0121459044e+00 -3.4851389387e+00 2.0121459044e+00 3.4851389387e+00 
26900 5.8894574654e+00 2.5064365191e-03 2.0120800007e+00 -3.4850247902e+00 2.0120800007e+00 3.4850247902e+00 
27000 5.8894534779e+00 2.3698561419e-03 2.0120177163e+00 -3.4849169104e+00 2.0120177163e+00 3.4849169104e+00 
27100 5.8894497014e+00 2.2422310178e-03 2.0119588241e+00 -3.4848149061e+00 2.0119588241e+00 3.4848149061e+00 
27200 5.8894461561e+00 2.1233534193e-03 2.0119031018e+00 -3.4847183922e+00 2.0119031018e+00 3.4847183922e+00 
27300 5.8894428593e+00 2.0130076824e-03 2.0118503322e+00 -3.4846269926e+00 2.0118503322e+00 3.4846269926e+00 
27400 5.8894398249e+00 1.9109708214e-03 2.0118003037e+00 -3.4845403406e+00 2.0118003037e+00 3.4845403406e+00 
27500 5.8894370644e+00 1.8170131415e-03 2.0117528098e+00 -3.4844580789e+00 2.0117528098e+00 3.4844580789e+00 
27600 5.8894345862e+00 1.7308988467e-03 2.0117076500e+00 -3.4843798598e+00 2.0117076500e+00 3.4843798598e+00 
27700 5.8894323961e+00 1.6523866411e-03 2.0116646295e+00 -3.4843053462e+00 2.0116646295e+00 3.4843053462e+00 
27800 5.8894304972e+00 1.5812303256e-03 2.0116235596e+00 -3.4842342108e+00 2.0116235596e+00 3.4842342108e+00 
27900 5.8894288903e+00 1.5171793855e-03 2.0115842573e+00 -3.4841661374e+00 2.0115842573e+00 3.4841661374e+00 
28000 5.8894275740e+00 1.4599795713e-03 2.0115465464e+00 -3.4841008202e+00 2.0115465464e+00 3.4841008202e+00 
28100 5.8894265445e+00 1.4093734690e-03 2.0115102565e+00 -3.4840379643e+00 2.0115102565e+00 3.4840379643e+00 
28200 5.8894257961e+00 1.3651010621e-03 2.0114752239e+00 -3.4839772860e+00 2.0114752239e+00 3.4839772860e+00 
28300 5.8894253215e+00 1.3269002820e-03 2.0114412912e+00 -3.4839185128e+00 2.0114412912e+00 3.4839185128e+00 
28400 5.8894251116e+00 1.2945075470e-03 2.0114083074e+00 -3.4838613833e+00 2.0114083074e+00 3.4838613833e+00 
28500 5.8894251558e+00 1.2676582894e-03 2.0113761284e+00 -3.4838056475e+00 2.0113761284e+00 3.4838056475e+00 
28600 5.8894254421e+00 1.2460874706e-03 2.0113446163e+00 -3.4837510669e+00 2.0113446163e+00 3.4837510669e+00 
28700 5.8894259577e+00 1.2295300814e-03 2.0113136399e+00 -3.4836974142e+00 2.0113136399e+00 3.4836974142e+00 
28800 5.8894266885e+00 1.2177216295e-03 2.0112830746e+00 -3.4836444736e+00 2.0112830746e+00 3.4836444736e+00 
28900 5.8894276197e+00 1.2103986124e-03 2.0112528024e+00 -3.4835920406e+00 2.0112528024e+00 3.4835920406e+00 
29000 5.8894287360e+00 1.2072989746e-03 2.0112227118e+00 -3.4835399222e+00 2.0112227118e+00 3.4835399222e+00 
29100 5.8894300215e+00 1.2081625500e-03 2.0111926978e+00 -3.4834879365e+00 2.0111926978e+00 3.4834879365e+00 
29200 5.8894314598e+00 1.2127314885e-03 2.0111626619e+00 -3.4834359128e+00 2.0111626619e+00 3.4834359128e+00 
29300 5.8894330347e+00 1.2207506652e-03 2.0111325120e+00 -3.4833836916e+00 2.0111325120e+00 3.4833836916e+00 
29400 5.8894347296e+00 1.2319680746e-03 2.0111021623e+00 -3.4833311242e+00 2.0111021623e+00 3.4833311242e+00 
29500 5.8894365281e+00 1.2461352063e-03 2.0110715332e+00 -3.4832780731e+00 2.0110715332e+00 3.4832780731e+00 
29600 5.8894384141e+00 1.2630074044e-03 2.0110405514e+00 -3.4832244111e+00 2.0110405514e+00 3.4832244111e+00 
29700 5.8894403717e+00 1.2823442090e-03 2.0110091496e+00 -3.4831700216e+00 2.0110091496e+00 3.4831700216e+00 
29800 5.8894423853e+00 1.3039096800e-03 2.0109772666e+00 -3.4831147986e+00 2.0109772666e+00 3.4831147986e+00 
29900 5.8894444401e+00 1.3274727030e-03 2.0109448469e+00 -3.4830586460e+00 2.0109448469e+00 3.4830586460e+00 
30000 5.8894465215e+00 1.3528072775e-03 2.0109118408e+00 -3.4830014778e+00 2.0109118408e+00 3.4830014778e+00 
30100 5.8894486160e+00 1.3796927867e-03 2.0108782042e+00 -3.4829432175e+00 2.0108782042e+00 3.4829432175e+00 
30200 5.8894507105e+00 1.4079142493e-03 2.0108438986e+00 -3.4828837984e+00 2.0108438986e+00 3.4828837984e+00 
30300 5.8894527927e+00 1.4372625528e-03 2.0108088906e+00 -3.4828231629e+00 2.0108088906e+00 3.4828231629e+00 
30400 5.8894548514e+00 1.4675346695e-03 2.0107731523e+00 -3.4827612623e+00 2.0107731523e+00 3.4827612623e+00 
30500 5.8894568760e+00 1.4985338535e-03 2.0107366606e+00 -3.4826980569e+00 2.0107366606e+00 3.4826980569e+00 
30600 5.8894588568e+00 1.5300698200e-03 2.0106993974e+00 -3.4826335151e+00 2.0106993974e+00 3.4826335151e+00 
30700 5.8894607851e+00 1.5619589071e-03 2.0106613494e+00 -3.4825676139e+00 2.0106613494e+00 3.4825676139e+00 
30800 5.8894626533e+00 1.5940242197e-03 2.0106225076e+00 -3.4825003380e+00 2.0106225076e+00 3.4825003380e+00 
30900 5.8894644544e+00 1.6260957554e-03 2.0105828676e+00 -3.4824316796e+00 2.0105828676e+00 3.4824316796e+00 
31000 5.8894661824e+00 1.6580105142e-03 2.0105424294e+00 -3.4823616384e+00 2.0105424294e+00 3.4823616384e+00 
31100 5.8894678325e+00 1.6896125898e-03 2.0105011966e+00 -3.4822902211e+00 2.0105011966e+00 3.4822902211e+00 
31200 5.8894694005e+00 1.7207532454e-03 2.0104591770e+00 -3.4822174412e+00 2.0104591770e+00 3.4822174412e+00 
31300 5.8894708831e+00 1.7512909725e-03 2.0104163822e+00 -3.4821433183e+00 2.0104163822e+00 3.4821433183e+00 
31400 5.8894722780e+00 1.7810915334e-03 2.0103728269e+00 -3.4820678783e+00 2.0103728269e+00 3.4820678783e+00 
31500 5.8894735836e+00 1.8100279886e-03 2.0103285295e+00 -3.4819911530e+00 2.0103285295e+00 3.4819911530e+00 
31600 5.8894747992e+00 1.8379807081e-03 2.0102835115e+00 -3.4819131795e+00 2.0102835115e+00 3.4819131795e+00 
31700 5.8894759247e+00 1.8648373688e-03 2.0102377972e+00 -3.4818340000e+00 2.0102377972e+00 3.4818340000e+00 
31800 5.8894769608e+00 1.8904929361e-03 2.0101914138e+00 -3.4817536617e+00 2.0101914138e+00 3.4817536617e+00 
31900 5.8894779087e+00 1.9148496328e-03 2.0101443913e+00 -3.4816722163e+00 2.0101443913e+00 3.4816722163e+00 
32000 5.8894787704e+00 1.9378168934e-03 2.0100967619e+00 -3.4815897197e+00 2.0100967619e+00 3.4815897197e+00 
32100 5.8894795483e+00 1.9593113060e-03 2.0100485600e+00 -3.4815062315e+00 2.0100485600e+00 3.4815062315e+00 
32200 5.8894802454e+00 1.9792565412e-03 2.0099998223e+00 -3.4814218153e+00 2.0099998223e+00 3.4814218153e+00 
32300 5.8894808650e+00 1.9975832692e-03 2.0099505872e+00 -3.4813365378e+00 2.0099505872e+00 3.4813365378e+00 
32400 5.8894814109e+00 2.0142290654e-03 2.0099008951e+00 -3.4812504684e+00 2.0099008951e+00 3.4812504684e+00 
32500 5.8894818872e+00 2.0291383048e-03 2.0098507876e+00 -3.4811636798e+00 2.0098507876e+00 3.4811636798e+00 
32600 5.8894822983e+00 2.0422620460e-03 2.0098003080e+00 -3.4810762465e+00 2.0098003080e+00 3.4810762465e+00 
32700 5.8894826489e+00 2.0535579056e-03 2.0097495006e+00 -3.4809882456e+00 2.0097495006e+00 3.4809882456e+00 
32800 5.8894829437e+00 2.0629899228e-03 2.0096984109e+00 -3.4808997556e+00 2.0096984109e+00 3.4808997556e+00 
32900 5.8894831877e+00 2.0705284160e-03 2.0096470853e+00 -3.4808108570e+00 2.0096470853e+00 3.4808108570e+00 
33000 5.8894833859e+00 2.0761498300e-03 2.0095955708e+00 -3.4807216313e+00 2.0095955708e+00 3.4807216313e+00 
33100 5.8894835433e+00 2.0798365769e-03 2.0095439151e+00 -3.4806321610e+00 2.0095439151e+00 3.4806321610e+00 
33200 5.8894836651e+00 2.0815768692e-03 2.0094921664e+00 -3.4805425295e+00 2.0094921664e+00 3.4805425295e+00 
33300 5.8894837561e+00 2.0813645461e-03 2.0094403730e+00 -3.4804528208e+00 2.0094403730e+00 3.4804528208e+00 
33400 5.8894838214e+00 2.0791988949e-03 2.0093885835e+00 -3.4803631188e+00 2.0093885835e+00 3.4803631188e+00 
33500 5.8894838657e+00 2.0750844661e-03 2.0093368467e+00 -3.4802735079e+00 2.0093368467e+00 3.4802735079e+00 
33600 5.8894838937e+00 2.0690308840e-03 2.0092852108e+00 -3.4801840720e+00 2.0092852108e+00 3.4801840720e+00 
33700 5.8894839099e+00 2.0610526530e-03 2.0092337243e+00 -3.4800948948e+00 2.0092337243e+00 3.4800948948e+00 
33800 5.8894839185e+00 2.0511689600e-03 2.0091824350e+00 -3.4800060591e+00 2.0091824350e+00 3.4800060591e+00 
33900 5.8894839237e+00 2.0394034742e-03 2.0091313904e+00 -3.4799176472e+00 2.0091313904e+00 3.4799176472e+00 
34000 5.8894839292e+00 2.0257841431e-03 2.0090806372e+00 -3.4798297401e+00 2.0090806372e+00 3.4798297401e+00 
34100 5.8894839386e+00 2.0103429873e-03 2.0090302217e+00 -3.4797424180e+00 2.0090302217e+00 3.4797424180e+00 
34200 5.8894839552e+00 1.9931158931e-03 2.0089801893e+00 -3.4796557592e+00 2.0089801893e+00 3.4796557592e+00 
34300 5.8894839819e+00 1.9741424039e-03 2.0089305843e+00 -3.4795698409e+00 2.0089305843e+00 3.4795698409e+00 
34400 5.8894840215e+00 1.9534655109e-03 2.0088814503e+00 -3.4794847384e+00 2.0088814503e+00 3.4794847384e+00 
34500 5.8894840763e+00 1.9311314436e-03 2.0088328298e+00 -3.4794005251e+00 2.0088328298e+00 3.4794005251e+00 
34600 5.8894841485e+00 1.9071894601e-03 2.0087847640e+00 -3.4793172727e+00 2.0087847640e+00 3.4793172727e+00 
34700 5.8894842399e+00 1.8816916384e-03 2.0087372929e+00 -3.4792350504e+00 2.0087372929e+00 3.4792350504e+00 
34800 5.8894843519e+00 1.8546926682e-03 2.0086904555e+00 -3.4791539255e+00 2.0086904555e+00 3.4791539255e+00 
34900 5.8894844858e+00 1.8262496444e-03 2.0086442889e+00 -3.4790739627e+00 2.0086442889e+00 3.4790739627e+00 
35000 5.8894846425e+00 1.7964218624e-03 2.0085988293e+00 -3.4789952244e+00 2.0085988293e+00 3.4789952244e+00 
35100 5.8894848227e+00 1.7652706146e-03 2.0085541112e+00 -3.4789177704e+00 2.0085541112e+00 3.4789177704e+00 
35200 5.8894850267e+00 1.7328589910e-03 2.0085101676e+00 -3.4788416577e+00 2.0085101676e+00 3.4788416577e+00 
35300 5.8894852548e+00 1.6992516806e-03 2.0084670298e+00 -3.4787669409e+00 2.0084670298e+00 3.4787669409e+00 
35400 5.8894855067e+00 1.6645147775e-03 2.0084247277e+00 -3.4786936716e+00 2.0084247277e+00 3.4786936716e+00 
35500 5.8894857822e+00 1.6287155894e-03 2.0083832896e+00 -3.4786218986e+00 2.0083832896e+00 3.4786218986e+00 
35600 5.8894860807e+00 1.5919224501e-03 2.0083427418e+00 -3.4785516678e+00 2.0083427418e+00 3.4785516678e+00 
35700 5.8894864015e+00 1.5542045358e-03 2.0083031092e+00 -3.4784830221e+00 2.0083031092e+00 3.4784830221e+00 
35800 5.8894867437e+00 1.5156316856e-03 2.0082644148e+00 -3.4784160015e+00 2.0082644148e+00 3.4784160015e+00 
35900 5.8894871062e+00 1.4762742261e-03 2.0082266801e+00 -3.4783506430e+00 2.0082266801e+00 3.4783506430e+00 
36000 5.8894874879e+00 1.4362028012e-03 2.0081899245e+00 -3.4782869805e+00 2.0081899245e+00 3.4782869805e+00 
36100 5.8894878873e+00 1.3954882056e-03 2.0081541660e+00 -3.4782250449e+00 2.0081541660e+00 3.4782250449e+00 
36200 5.8894883031e+00 1.3542012246e-03 2.0081194205e+00 -3.4781648640e+00 2.0081194205e+00 3.4781648640e+00 
36300 5.8894887337e+00 1.3124124778e-03 2.0080857025e+00 -3.4781064627e+00 2.0080857025e+00 3.4781064627e+00 
36400 5.8894891775e+00 1.2701922687e-03 2.0080530244e+00 -3.4780498625e+00 2.0080530244e+00 3.4780498625e+00 
36500 5.8894896329e+00 1.2276104392e-03 2.0080213970e+00 -3.4779950823e+00 2.0080213970e+00 3.4779950823e+00 
36600 5.8894900981e+00 1.1847362304e-03 2.0079908294e+00 -3.4779421377e+00 2.0079908294e+00 3.4779421377e+00 
36700 5.8894905716e+00 1.1416381481e-03 2.0079613290e+00 -3.4778910414e+00 2.0079613290e+00 3.4778910414e+00 
36800 5.8894910514e+00 1.0983838344e-03 2.0079329012e+00 -3.4778418031e+00 2.0079329012e+00 3.4778418031e+00 
36900 5.8894915361e+00 1.0550399453e-03 2.0079055502e+00 -3.4777944297e+00 2.0079055502e+00 3.4777944297e+00 
37000 5.8894920237e+00 1.0116720332e-03 2.0078792781e+00 -3.4777489251e+00 2.0078792781e+00 3.4777489251e+00 
37100 5.8894925127e+00 9.6834443657e-04 2.0078540856e+00 -3.4777052904e+00 2.0078540856e+00 3.4777052904e+00 
37200 5.8894930016e+00 9.2512017434e-04 2.0078299717e+00 -3.4776635240e+00 2.0078299717e+00 3.4776635240e+00 
37300 5.8894934886e+00 8.8206084687e-04 2.0078069340e+00 -3.4776236214e+00 2.0078069340e+00 3.4776236214e+00 
37400 5.8894939723e+00 8.3922654257e-04 2.0077849682e+00 -3.4775855756e+00 2.0077849682e+00 3.4775855756e+00 
37500 5.8894944514e+00 7.9667575058e-04 2.0077640689e+00 -3.4775493770e+00 2.0077640689e+00 3.4775493770e+00 
37600 5.8894949244e+00 7.5446527921e-04 2.0077442291e+00 -3.4775150134e+00 2.0077442291e+00 3.4775150134e+00 
37700 5.8894953901e+00 7.1265018043e-04 2.0077254402e+00 -3.4774824702e+00 2.0077254402e+00 3.4774824702e+00 
37800 5.8894958474e+00 6.7128368002e-04 2.0077076926e+00 -3.4774517303e+00 2.0077076926e+00 3.4774517303e+00 
37900 5.8894962951e+00 6.3041711371e-04 2.0076909749e+00 -3.4774227745e+00 2.0076909749e+00 3.4774227745e+00 
38000 5.8894967324e+00 5.9009986892e-04 2.0076752749e+00 -3.4773955812e+00 2.0076752749e+00 3.4773955812e+00 
38100 5.8894971583e+00 5.5037933228e-04 2.0076605788e+00 -3.4773701269e+00 2.0076605788e+00 3.4773701269e+00 
38200 5.8894975722e+00 5.1130084274e-04 2.0076468719e+00 -3.4773463857e+00 2.0076468719e+00 3.4773463857e+00 
38300 5.8894979733e+00 4.7290765020e-04 2.0076341380e+00 -3.4773243301e+00 2.0076341380e+00 3.4773243301e+00 
38400 5.8894983611e+00 4.3524087961e-04 2.0076223603e+00 -3.4773039305e+00 2.0076223603e+00 3.4773039305e+00 
38500 5.8894987352e+00 3.9833950044e-04 2.0076115206e+00 -3.4772851556e+00 2.0076115206e+00 3.4772851556e+00 
38600 5.8894990952e+00 3.6224030137e-04 2.0076015999e+00 -3.4772679724e+00 2.0076015999e+00 3.4772679724e+00 
38700 5.8894994409e+00 3.2697787016e-04 2.0075925782e+00 -3.4772523463e+00 2.0075925782e+00 3.4772523463e+00 
38800 5.8894997721e+00 2.9258457851e-04 2.0075844346e+00 -3.4772382413e+00 2.0075844346e+00 3.4772382413e+00 
38900 5.8895000888e+00 2.5909057193e-04 2.0075771477e+00 -3.4772256199e+00 2.0075771477e+00 3.4772256199e+00 
39000 5.8895003910e+00 2.2652376425e-04 2.0075706949e+00 -3.4772144433e+00 2.0075706949e+00 3.4772144433e+00 
39100 5.8895006788e+00 1.9490983693e-04 2.0075650531e+00 -3.4772046715e+00 2.0075650531e+00 3.4772046715e+00 
39200 5.8895009524e+00 1.6427224278e-04 2.0075601987e+00 -3.4771962635e+00 2.0075601987e+00 3.4771962635e+00 
39300 5.8895012122e+00 1.3463221419e-04 2.0075561074e+00 -3.4771891771e+00 2.0075561074e+00 3.4771891771e+00 
39400 5.8895014584e+00 1.0600877543e-04 2.0075527543e+00 -3.4771833693e+00 2.0075527543e+00 3.4771833693e+00 
39500 5.8895016913e+00 7.8418759211e-05 2.0075501140e+00 -3.4771787962e+00 2.0075501140e+00 3.4771787962e+00 
39600 5.8895019116e+00 5.1876827081e-05 2.0075481609e+00 -3.4771754134e+00 2.0075481609e+00 3.4771754134e+00 
39700 5.8895021197e+00 2.7229840131e-05 2.0075481609e+00 -3.4771754134e+00 2.0075481609e+00 3.4771754134e+00 
39800 5.8895023159e+00 3.2495297657e-06 2.0075481609e+00 -3.4771754134e+00 2.0075481609e+00 3.4771754134e+00 
39900 5.8895025011e+00 -2.0041086790e-05 2.0075481609e+00 -3.4771754134e+00 2.0075481609e+00 3.4771754134e+00 
40000 5.8895026758e+00 -4.2620898108e-05 2.0075481609e+00 -3.4771754134e+00 2.0075481609e+00 3.4771754134e+00 
40100 5.8895028408e+00 -6.4470682315e-05 2.0075481609e+00 -3.4771754134e+00 2.0075481609e+00 3.4771754134e+00 
40200 5.8895029967e+00 -8.5573087779e-05 2.0075481609e+00 -3.4771754134e+00 2.0075481609e+00 3.4771754134e+00 
40300 5.8895031440e+00 -1.0453656313e-04 2.0075502922e+00 -3.4771791048e+00 2.0075502922e+00 3.4771791048e+00 
40400 5.8895032834e+00 -1.2240947663e-04 2.0075528958e+00 -3.4771836144e+00 2.0075528958e+00 3.4771836144e+00 
40500 5.8895034156e+00 -1.3919519389e-04 2.0075559445e+00 -3.4771888949e+00 2.0075559445e+00 3.4771888949e+00 
40600 5.8895035414e+00 -1.5489886603e-04 2.0075594113e+00 -3.4771948996e+00 2.0075594113e+00 3.4771948996e+00 
40700 5.8895036613e+00 -1.6952737635e-04 2.0075632692e+00 -3.4772015816e+00 2.0075632692e+00 3.4772015816e+00 
40800 5.8895037760e+00 -1.8308928512e-04 2.0075674914e+00 -3.4772088947e+00 2.0075674914e+00 3.4772088947e+00 
40900 5.8895038863e+00 -1.9559477238e-04 2.0075720514e+00 -3.4772167929e+00 2.0075720514e+00 3.4772167929e+00 
41000 5.8895039926e+00 -2.0705557922e-04 2.0075769228e+00 -3.4772252304e+00 2.0075769228e+00 3.4772252304e+00 
41100 5.8895040957e+00 -2.1748494741e-04 2.0075820797e+00 -3.4772341624e+00 2.0075820797e+00 3.4772341624e+00 
41200 5.8895041961e+00 -2.2689755774e-04 2.0075874963e+00 -3.4772435442e+00 2.0075874963e+00 3.4772435442e+00 
41300 5.8895042943e+00 -2.3530946716e-04 2.0075931473e+00 -3.4772533320e+00 2.0075931473e+00 3.4772533320e+00 
41400 5.8895043908e+00 -2.4273804485e-04 2.0075990078e+00 -3.4772634827e+00 2.0075990078e+00 3.4772634827e+00 
41500 5.8895044863e+00 -2.4920190740e-04 2.0076050532e+00 -3.4772739537e+00 2.0076050532e+00 3.4772739537e+00 
41600 5.8895045810e+00 -2.5472085326e-04 2.0076112597e+00 -3.4772847036e+00 2.0076112597e+00 3.4772847036e+00 
41700 5.8895046754e+00 -2.5931579661e-04 2.0076176036e+00 -3.4772956916e+00 2.0076176036e+00 3.4772956916e+00 
41800 5.8895047700e+00 -2.6300870073e-04 2.0076240619e+00 -3.4773068777e+00 2.0076240619e+00 3.4773068777e+00 
41900 5.8895048649e+00 -2.6582251116e-04 2.0076306121e+00 -3.4773182230e+00 2.0076306121e+00 3.4773182230e+00 
42000 5.8895049607e+00 -2.6778108857e-04 2.0076372324e+00 -3.4773296897e+00 2.0076372324e+00 3.4773296897e+00 
42100 5.8895050575e+00 -2.6890914170e-04 2.0076439015e+00 -3.4773412409e+00 2.0076439015e+00 3.4773412409e+00 
42200 5.8895051555e+00 -2.6923216038e-04 2.0076505986e+00 -3.4773528407e+00 2.0076505986e+00 3.4773528407e+00 
42300 5.8895052550e+00 -2.6877634872e-04 2.0076573038e+00 -3.4773644544e+00 2.0076573038e+00 3.4773644544e+00 
42400 5.8895053561e+00 -2.6756855875e-04 2.0076639976e+00 -3.4773760483e+00 2.0076639976e+00 3.4773760483e+00 
42500 5.8895054590e+00 -2.6563622448e-04 2.0076706613e+00 -3.4773875902e+00 2.0076706613e+00 3.4773875902e+00 
42600 5.8895055637e+00 -2.6300729651e-04 2.0076772768e+00 -3.4773990486e+00 2.0076772768e+00 3.4773990486e+00 
42700 5.8895056703e+00 -2.5971017745e-04 2.0076838268e+00 -3.4774103936e+00 2.0076838268e+00 3.4774103936e+00 
42800 5.8895057789e+00 -2.5577365806e-04 2.0076902947e+00 -3.4774215964e+00 2.0076902947e+00 3.4774215964e+00 
42900 5.8895058894e+00 -2.5122685435e-04 2.0076966646e+00 -3.4774326293e+00 2.0076966646e+00 3.4774326293e+00 
43000 5.8895060018e+00 -2.4609914567e-04 2.0077029212e+00 -3.4774434660e+00 2.0077029212e+00 3.4774434660e+00 
43100 5.8895061161e+00 -2.4042011394e-04 2.0077090501e+00 -3.4774540815e+00 2.0077090501e+00 3.4774540815e+00 
43200 5.8895062322e+00 -2.3421948402e-04 2.0077150375e+00 -3.4774644521e+00 2.0077150375e+00 3.4774644521e+00 
43300 5.8895063500e+00 -2.2752706542e-04 2.0077208705e+00 -3.4774745551e+00 2.0077208705e+00 3.4774745551e+00 
43400 5.8895064694e+00 -2.2037269537e-04 2.0077265368e+00 -3.4774843694e+00 2.0077265368e+00 3.4774843694e+00 
43500 5.8895065903e+00 -2.1278618327e-04 2.0077320249e+00 -3.4774938751e+00 2.0077320249e+00 3.4774938751e+00 
43600 5.8895067125e+00 -2.0479725668e-04 2.0077373241e+00 -3.4775030536e+00 2.0077373241e+00 3.4775030536e+00 
43700 5.8895068359e+00 -1.9643550894e-04 2.0077424243e+00 -3.4775118874e+00 2.0077424243e+00 3.4775118874e+00 
43800 5.8895069603e+00 -1.8773034830e-04 2.0077473162e+00 -3.4775203605e+00 2.0077473162e+00 3.4775203605e+00 
43900 5.8895070855e+00 -1.7871094887e-04 2.0077519914e+00 -3.4775284581e+00 2.0077519914e+00 3.4775284581e+00 
44000 5.8895072114e+00 -1.6940620324e-04 2.0077564419e+00 -3.4775361666e+00 2.0077564419e+00 3.4775361666e+00 
44100 5.8895073377e+00 -1.5984467686e-04 2.0077606607e+00 -3.4775434738e+00 2.0077606607e+00 3.4775434738e+00 
44200 5.8895074643e+00 -1.5005456435e-04 2.0077646414e+00 -3.4775503685e+00 2.0077646414e+00 3.4775503685e+00 
44300 5.8895075909e+00 -1.4006364756e-04 2.0077683782e+00 -3.4775568409e+00 2.0077683782e+00 3.4775568409e+00 
44400 5.8895077175e+00 -1.2989925562e-04 2.0077718663e+00 -3.4775628824e+00 2.0077718663e+00 3.4775628824e+00 
44500 5.8895078437e+00 -1.1958822683e-04 2.0077751012e+00 -3.4775684854e+00 2.0077751012e+00 3.4775684854e+00 
44600 5.8895079695e+00 -1.0915687262e-04 2.0077780793e+00 -3.4775736437e+00 2.0077780793e+00 3.4775736437e+00 
44700 5.8895080946e+00 -9.8630943316e-05 2.0077807977e+00 -3.4775783520e+00 2.0077807977e+00 3.4775783520e+00 
44800 5.8895082188e+00 -8.8035596030e-05 2.0077832539e+00 -3.4775826063e+00 2.0077832539e+00 3.4775826063e+00 
44900 5.8895083421e+00 -7.7395364460e-05 2.0077854462e+00 -3.4775864036e+00 2.0077854462e+00 3.4775864036e+00 
45000 5.8895084641e+00 -6.6734130704e-05 2.0077873736e+00 -3.4775897419e+00 2.0077873736e+00 3.4775897419e+00 
45100 5.8895085850e+00 -5.7147665875e-05 2.0077873736e+00 -3.4775897419e+00 2.0077873736e+00 3.4775897419e+00 
45200 5.8895087043e+00 -4.7421746492e-05 2.0077873736e+00 -3.4775897419e+00 2.0077873736e+00 3.4775897419e+00 
45300 5.8895088219e+00 -3.7577623371e-05 2.0077873736e+00 -3.4775897419e+00 2.0077873736e+00 3.4775897419e+00 
45400 5.8895089378e+00 -2.7636101442e-05 2.0077873736e+00 -3.4775897419e+00 2.0077873736e+00 3.4775897419e+00 
45500 5.8895090519e+00 -1.7617515267e-05 2.0077873736e+00 -3.4775897419e+00 2.0077873736e+00 3.4775897419e+00 
45600 5.8895091641e+00 -7.5417061296e-06 2.0077873736e+00 -3.4775897419e+00 2.0077873736e+00 3.4775897419e+00 
45700 5.8895092742e+00 2.5719992425e-06 2.0077873736e+00 -3.4775897419e+00 2.0077873736e+00 3.4775897419e+00 
45800 5.8895093822e+00 1.2704808368e-05 2.0077873736e+00 -3.4775897419e+00 2.0077873736e+00 3.4775897419e+00 
45900 5.8895094882e+00 2.2838481106e-05 2.0077873736e+00 -3.4775897419e+00 2.0077873736e+00 3.4775897419e+00 
46000 5.8895095920e+00 3.2955346178e-05 2.0077873736e+00 -3.4775897419e+00 2.0077873736e+00 3.4775897419e+00 
46100 5.8895096936e+00 4.3038316136e-05 2.0077873736e+00 -3.4775897419e+00 2.0077873736e+00 3.4775897419e+00 
46200 5.8895097930e+00 5.3070900770e-05 2.0077873736e+00 -3.4775897419e+00 2.0077873736e+00 3.4775897419e+00 
46300 5.8895098901e+00 6.3037219010e-05 2.0077873736e+00 -3.4775897419e+00 2.0077873736e+00 3.4775897419e+00 
46400 5.8895099851e+00 7.2922009320e-05 2.0077873736e+00 -3.4775897419e+00 2.0077873736e+00 3.4775897419e+00 
46500 5.8895100777e+00 8.1538374735e-05 2.0077855577e+00 -3.4775865966e+00 2.0077855577e+00 3.4775865966e+00 
46600 5.8895101680e+00 8.9898238887e-05 2.0077835271e+00 -3.4775830795e+00 2.0077835271e+00 3.4775830795e+00 
46700 5.8895102561e+00 9.7991202535e-05 2.0077812884e+00 -3.4775792019e+00 2.0077812884e+00 3.4775792019e+00 
46800 5.8895103421e+00 1.0580769998e-04 2.0077788481e+00 -3.4775749752e+00 2.0077788481e+00 3.4775749752e+00 
46900 5.8895104258e+00 1.1333899306e-04 2.0077762131e+00 -3.4775704114e+00 2.0077762131e+00 3.4775704114e+00 
47000 5.8895105074e+00 1.2057716377e-04 2.0077733906e+00 -3.4775655226e+00 2.0077733906e+00 3.4775655226e+00 
47100 5.8895105870e+00 1.2751510547e-04 2.0077703879e+00 -3.4775603217e+00 2.0077703879e+00 3.4775603217e+00 
47200 5.8895106646e+00 1.3414651287e-04 2.0077672123e+00 -3.4775548215e+00 2.0077672123e+00 3.4775548215e+00 
47300 5.8895107402e+00 1.4046587074e-04 2.0077638716e+00 -3.4775490353e+00 2.0077638716e+00 3.4775490353e+00 
47400 5.8895108139e+00 1.4646844139e-04 2.0077603736e+00 -3.4775429765e+00 2.0077603736e+00 3.4775429765e+00 
47500 5.8895108858e+00 1.5215025112e-04 2.0077567260e+00 -3.4775366587e+00 2.0077567260e+00 3.4775366587e+00 
47600 5.8895109560e+00 1.5750807546e-04 2.0077529370e+00 -3.4775300959e+00 2.0077529370e+00 3.4775300959e+00 
47700 5.8895110246e+00 1.6253942360e-04 2.0077490145e+00 -3.4775233019e+00 2.0077490145e+00 3.4775233019e+00 
47800 5.8895110915e+00 1.6724252160e-04 2.0077449667e+00 -3.4775162909e+00 2.0077449667e+00 3.4775162909e+00 
47900 5.8895111570e+00 1.7161629497e-04 2.0077408017e+00 -3.4775090770e+00 2.0077408017e+00 3.4775090770e+00 
48000 5.8895112210e+00 1.7566035026e-04 2.0077365279e+00 -3.4775016745e+00 2.0077365279e+00 3.4775016745e+00 
48100 5.8895112837e+00 1.7937495586e-04 2.0077321533e+00 -3.4774940975e+00 2.0077321533e+00 3.4774940975e+00 
48200 5.8895113451e+00 1.8276102223e-04 2.0077276862e+00 -3.4774863602e+00 2.0077276862e+00 3.4774863602e+00 
48300 5.8895114053e+00 1.8582008128e-04 2.0077231347e+00 -3.4774784769e+00 2.0077231347e+00 3.4774784769e+00 
48400 5.8895114644e+00 1.8855426530e-04 2.0077185071e+00 -3.4774704616e+00 2.0077185071e+00 3.4774704616e+00 
48500 5.8895115225e+00 1.9096628528e-04 2.0077138114e+00 -3.4774623284e+00 2.0077138114e+00 3.4774623284e+00 
48600 5.8895115797e+00 1.9305940878e-04 2.0077090556e+00 -3.4774540910e+00 2.0077090556e+00 3.4774540910e+00 
48700 5.8895116359e+00 1.9483743728e-04 2.0077042476e+00 -3.4774457634e+00 2.0077042476e+00 3.4774457634e+00 
48800 5.8895116913e+00 1.9630468332e-04 2.0076993954e+00 -3.4774373591e+00 2.0076993954e+00 3.4774373591e+00 
48900 5.8895117459e+00 1.9746594717e-04 2.0076945066e+00 -3.4774288915e+00 2.0076945066e+00 3.4774288915e+00 
49000 5.8895117998e+00 1.9832649331e-04 2.0076895888e+00 -3.4774203737e+00 2.0076895888e+00 3.4774203737e+00 
49100 5.8895118531e+00 1.9889202670e-04 2.0076846497e+00 -3.4774118188e+00 2.0076846497e+00 3.4774118188e+00 
49200 5.8895119058e+00 1.9916866887e-04 2.0076796964e+00 -3.4774032395e+00 2.0076796964e+00 3.4774032395e+00 
49300 5.8895119579e+00 1.9916293390e-04 2.0076747362e+00 -3.4773946482e+00 2.0076747362e+00 3.4773946482e+00 
49400 5.8895120095e+00 1.9888170438e-04 2.0076697762e+00 -3.4773860572e+00 2.0076697762e+00 3.4773860572e+00 
49500 5.8895120607e+00 1.9833220730e-04 2.0076648232e+00 -3.4773774783e+00 2.0076648232e+00 3.4773774783e+00 
49600 5.8895121114e+00 1.9752199004e-04 2.0076598838e+00 -3.4773689230e+00 2.0076598838e+00 3.4773689230e+00 
49700 5.8895121617e+00 1.9645889638e-04 2.0076549646e+00 -3.4773604027e+00 2.0076549646e+00 3.4773604027e+00 
49800 5.8895122117e+00 1.9515104270e-04 2.0076500718e+00 -3.4773519282e+00 2.0076500718e+00 3.4773519282e+00 
49900 5.8895122613e+00 1.9360679429e-04 2.0076452116e+00 -3.4773435102e+00 2.0076452116e+00 3.4773435102e+00 
50000 5.8895123106e+00 1.9183474190e-04 2.0076403899e+00 -3.4773351587e+00 2.0076403899e+00 3.4773351587e+00 
50100 5.8895123596e+00 1.8984367854e-04 2.0076356123e+00 -3.4773268836e+00 2.0076356123e+00 3.4773268836e+00 
50200 5.8895124083e+00 1.8764257655e-04 2.0076308843e+00 -3.4773186944e+00 2.0076308843e+00 3.4773186944e+00 
50300 5.8895124567e+00 1.8524056499e-04 2.0076262110e+00 -3.4773106001e+00 2.0076262110e+00 3.4773106001e+00 
50400 5.8895125048e+00 1.8264690744e-04 2.0076215976e+00 -3.4773026094e+00 2.0076215976e+00 3.4773026094e+00 
50500 5.8895125527e+00 1.7987098007e-04 2.0076170488e+00 -3.4772947306e+00 2.0076170488e+00 3.4772947306e+00 
50600 5.8895126003e+00 1.7692225027e-04 2.0076125691e+00 -3.4772869715e+00 2.0076125691e+00 3.4772869715e+00 
50700 5.8895126476e+00 1.7381025562e-04 2.0076081628e+00 -3.4772793396e+00 2.0076081628e+00 3.4772793396e+00 
50800 5.8895126946e+00 1.7054458342e-04 2.0076038340e+00 -3.4772718419e+00 2.0076038340e+00 3.4772718419e+00 
50900 5.8895127414e+00 1.6713485063e-04 2.0075995865e+00 -3.4772644851e+00 2.0075995865e+00 3.4772644851e+00 
51000 5.8895127878e+00 1.6359068439e-04 2.0075954240e+00 -3.4772572754e+00 2.0075954240e+00 3.4772572754e+00 
51100 5.8895128340e+00 1.5992170315e-04 2.0075913497e+00 -3.4772502185e+00 2.0075913497e+00 3.4772502185e+00 
51200 5.8895128799e+00 1.5613749822e-04 2.0075873668e+00 -3.4772433199e+00 2.0075873668e+00 3.4772433199e+00 
51300 5.8895129254e+00 1.5224761600e-04 2.0075834781e+00 -3.4772365845e+00 2.0075834781e+00 3.4772365845e+00 
51400 5.8895129706e+00 1.4826154087e-04 2.0075796863e+00 -3.4772300168e+00 2.0075796863e+00 3.4772300168e+00 
51500 5.8895130154e+00 1.4418867855e-04 2.0075759937e+00 -3.4772236212e+00 2.0075759937e+00 3.4772236212e+00 
51600 5.8895130599e+00 1.4003834022e-04 2.0075724026e+00 -3.4772174012e+00 2.0075724026e+00 3.4772174012e+00 
51700 5.8895131040e+00 1.3581972724e-04 2.0075689148e+00 -3.4772113602e+00 2.0075689148e+00 3.4772113602e+00 
51800 5.8895131477e+00 1.3154191651e-04 2.0075655322e+00 -3.4772055012e+00 2.0075655322e+00 3.4772055012e+00 
51900 5.8895131910e+00 1.2721384655e-04 2.0075622560e+00 -3.4771998268e+00 2.0075622560e+00 3.4771998268e+00 
52000 5.8895132339e+00 1.2284430417e-04 2.0075590876e+00 -3.4771943390e+00 2.0075590876e+00 3.4771943390e+00 
52100 5.8895132764e+00 1.1844191193e-04 2.0075560281e+00 -3.4771890397e+00 2.0075560281e+00 3.4771890397e+00 
52200 5.8895133184e+00 1.1401511613e-04 2.0075530782e+00 -3.4771839303e+00 2.0075530782e+00 3.4771839303e+00 
52300 5.8895133599e+00 1.0957217568e-04 2.0075502385e+00 -3.4771790119e+00 2.0075502385e+00 3.4771790119e+00 
52400 5.8895134010e+00 1.0512115149e-04 2.0075475095e+00 -3.4771742851e+00 2.0075475095e+00 3.4771742851e+00 
52500 5.8895134415e+00 1.0066989664e-04 2.0075448914e+00 -3.4771697504e+00 2.0075448914e+00 3.4771697504e+00 
52600 5.8895134816e+00 9.6226047177e-05 2.0075423841e+00 -3.4771654076e+00 2.0075423841e+00 3.4771654076e+00 
52700 5.8895135211e+00 9.1797013691e-05 2.0075399875e+00 -3.4771612566e+00 2.0075399875e+00 3.4771612566e+00 
52800 5.8895135602e+00 8.7389973470e-05 2.0075377012e+00 -3.4771572966e+00 2.0075377012e+00 3.4771572966e+00 
52900 5.8895135987e+00 8.3011863379e-05 2.0075355246e+00 -3.4771535267e+00 2.0075355246e+00 3.4771535267e+00 
53000 5.8895136366e+00 7.8669373425e-05 2.0075334571e+00 -3.4771499456e+00 2.0075334571e+00 3.4771499456e+00 
53100 5.8895136741e+00 7.4368940948e-05 2.0075314978e+00 -3.4771465519e+00 2.0075314978e+00 3.4771465519e+00 
53200 5.8895137110e+00 7.0116745493e-05 2.0075296455e+00 -3.4771433438e+00 2.0075296455e+00 3.4771433438e+00 
53300 5.8895137474e+00 6.7046683122e-05 2.0075296455e+00 -3.4771433438e+00 2.0075296455e+00 3.4771433438e+00 
53400 5.8895137833e+00 6.3976376727e-05 2.0075296455e+00 -3.4771433438e+00 2.0075296455e+00 3.4771433438e+00 
53500 5.8895138186e+00 6.0911952845e-05 2.0075296455e+00 -3.4771433438e+00 2.0075296455e+00 3.4771433438e+00 
53600 5.8895138533e+00 5.7859325742e-05 2.0075296455e+00 -3.4771433438e+00 2.0075296455e+00 3.4771433438e+00 
53700 5.8895138875e+00 5.4824193263e-05 2.0075296455e+00 -3.4771433438e+00 2.0075296455e+00 3.4771433438e+00 
53800 5.8895139211e+00 5.1812033197e-05 2.0075296455e+00 -3.4771433438e+00 2.0075296455e+00 3.4771433438e+00 
53900 5.8895139542e+00 4.8828100177e-05 2.0075296455e+00 -3.4771433438e+00 2.0075296455e+00 3.4771433438e+00 
54000 5.8895139867e+00 4.5877423062e-05 2.0075296455e+00 -3.4771433438e+00 2.0075296455e+00 3.4771433438e+00 
54100 5.8895140187e+00 4.2964802828e-05 2.0075296455e+00 -3.4771433438e+00 2.0075296455e+00 3.4771433438e+00 
54200 5.8895140501e+00 4.0094810951e-05 2.0075296455e+00 -3.4771433438e+00 2.0075296455e+00 3.4771433438e+00 
54300 5.8895140810e+00 3.7271788254e-05 2.0075296455e+00 -3.4771433438e+00 2.0075296455e+00 3.4771433438e+00 
54400 5.8895141114e+00 3.4499844206e-05 2.0075296455e+00 -3.4771433438e+00 2.0075296455e+00 3.4771433438e+00 
54500 5.8895141413e+00 3.1782856700e-05 2.0075296455e+00 -3.4771433438e+00 2.0075296455e+00 3.4771433438e+00 
54600 5.8895141708e+00 2.9124472243e-05 2.0075296455e+00 -3.4771433438e+00 2.0075296455e+00 3.4771433438e+00 
54700 5.8895141997e+00 2.6528106572e-05 2.0075296455e+00 -3.4771433438e+00 2.0075296455e+00 3.4771433438e+00 
54800 5.8895142282e+00 2.3996945693e-05 2.0075296455e+00 -3.4771433438e+00 2.0075296455e+00 3.4771433438e+00 
54900 5.8895142562e+00 2.1533947301e-05 2.0075296455e+00 -3.4771433438e+00 2.0075296455e+00 3.4771433438e+00 
55000 5.8895142838e+00 1.9141842581e-05 2.0075296455e+00 -3.4771433438e+00 2.0075296455e+00 3.4771433438e+00 
55100 5.8895143109e+00 1.6823138389e-05 2.0075296455e+00 -3.4771433438e+00 2.0075296455e+00 3.4771433438e+00 
55200 5.8895143376e+00 1.4580119766e-05 2.0075296455e+00 -3.4771433438e+00 2.0075296455e+00 3.4771433438e+00 
55300 5.8895143639e+00 1.2414852794e-05 2.0075296455e+00 -3.4771433438e+00 2.0075296455e+00 3.4771433438e+00 
55400 5.8895143899e+00 1.0329187776e-05 2.0075296455e+00 -3.4771433438e+00 2.0075296455e+00 3.4771433438e+00 
55500 5.8895144154e+00 8.3247627100e-06 2.0075296455e+00 -3.4771433438e+00 2.0075296455e+00 3.4771433438e+00 
55600 5.8895144406e+00 6.4030070601e-06 2.0075296455e+00 -3.4771433438e+00 2.0075296455e+00 3.4771433438e+00 
55700 5.8895144654e+00 4.5651457922e-06 2.0075296455e+00 -3.4771433438e+00 2.0075296455e+00 3.4771433438e+00 
55800 5.8895144899e+00 2.8122036685e-06 2.0075296455e+00 -3.4771433438e+00 2.0075296455e+00 3.4771433438e+00 
55900 5.8895145141e+00 1.1450097868e-06 2.0075296455e+00 -3.4771433438e+00 2.0075296455e+00 3.4771433438e+00 
56000 5.8895145379e+00 -4.3579766045e-07 2.0075296455e+00 -3.4771433438e+00 2.0075296455e+00 3.4771433438e+00 
56100 5.8895145614e+00 -1.9297664307e-06 2.0075296455e+00 -3.4771433438e+00 2.0075296455e+00 3.4771433438e+00 
56200 5.8895145846e+00 -3.3366250557e-06 2.0075296455e+00 -3.4771433438e+00 2.0075296455e+00 3.4771433438e+00 
56300 5.8895146075e+00 -4.6562775140e-06 2.0075296455e+00 -3.4771433438e+00 2.0075296455e+00 3.4771433438e+00 
56400 5.8895146301e+00 -5.8887977353e-06 2.0075296455e+00 -3.4771433438e+00 2.0075296455e+00 3.4771433438e+00 
56500 5.8895146525e+00 -7.0344239526e-06 2.0075296455e+00 -3.4771433438e+00 2.0075296455e+00 3.4771433438e+00 
56600 5.8895146746e+00 -8.0935529272e-06 2.0075296455e+00 -3.4771433438e+00 2.0075296455e+00 3.4771433438e+00 
56700 5.8895146964e+00 -9.0667340658e-06 2.0075296455e+00 -3.4771433438e+00 2.0075296455e+00 3.4771433438e+00 
56800 5.8895147180e+00 -9.9546634271e-06 2.0075296455e+00 -3.4771433438e+00 2.0075296455e+00 3.4771433438e+00 
56900 5.8895147393e+00 -1.0758177642e-05 2.0075296455e+00 -3.4771433438e+00 2.0075296455e+00 3.4771433438e+00 
57000 5.8895147604e+00 -1.1478247771e-05 2.0075296455e+00 -3.4771433438e+00 2.0075296455e+00 3.4771433438e+00 
57100 5.8895147812e+00 -1.2115973091e-05 2.0075296455e+00 -3.4771433438e+00 2.0075296455e+00 3.4771433438e+00 
57200 5.8895148019e+00 -1.2672574849e-05 2.0075296455e+00 -3.4771433438e+00 2.0075296455e+00 3.4771433438e+00 
57300 5.8895148223e+00 -1.3149389973e-05 2.0075296455e+00 -3.4771433438e+00 2.0075296455e+00 3.4771433438e+00 
57400 5.8895148424e+00 -1.3547864780e-05 2.0075296455e+00 -3.4771433438e+00 2.0075296455e+00 3.4771433438e+00 
57500 5.8895148624e+00 -1.3869548653e-05 2.0075296455e+00 -3.4771433438e+00 2.0075296455e+00 3.4771433438e+00 
57600 5.8895148821e+00 -1.4116087756e-05 2.0075296455e+00 -3.4771433438e+00 2.0075296455e+00 3.4771433438e+00 
57700 5.8895149017e+00 -1.4289218741e-05 2.0075296455e+00 -3.4771433438e+00 2.0075296455e+00 3.4771433438e+00 
57800 5.8895149210e+00 -1.4390762491e-05 2.0075296455e+00 -3.4771433438e+00 2.0075296455e+00 3.4771433438e+00 
57900 5.8895149402e+00 -1.4422617916e-05 2.0075296455e+00 -3.4771433438e+00 2.0075296455e+00 3.4771433438e+00 
58000 5.8895149591e+00 -1.4386755782e-05 2.0075296455e+00 -3.4771433438e+00 2.0075296455e+00 3.4771433438e+00 
58100 5.8895149778e+00 -1.4285212608e-05 2.0075296455e+00 -3.4771433438e+00 2.0075296455e+00 3.4771433438e+00 
58200 5.8895149963e+00 -1.4120084641e-05 2.0075296455e+00 -3.4771433438e+00 2.0075296455e+00 3.4771433438e+00 
58300 5.8895150147e+00 -1.3893521900e-05 2.0075296455e+00 -3.4771433438e+00 2.0075296455e+00 3.4771433438e+00 
58400 5.8895150328e+00 -1.3607722312e-05 2.0075296455e+00 -3.4771433438e+00 2.0075296455e+00 3.4771433438e+00 
58500 5.8895150507e+00 -1.3264925947e-05 2.0075296455e+00 -3.4771433438e+00 2.0075296455e+00 3.4771433438e+00 
58600 5.8895150685e+00 -1.2867409358e-05 2.0075296455e+00 -3.4771433438e+00 2.0075296455e+00 3.4771433438e+00 
58700 5.8895150860e+00 -1.2417480032e-05 2.0075296455e+00 -3.4771433438e+00 2.0075296455e+00 3.4771433438e+00 
58800 5.8895151034e+00 -1.1917470958e-05 2.0075296455e+00 -3.4771433438e+00 2.0075296455e+00 3.4771433438e+00 
58900 5.8895151206e+00 -1.1369735332e-05 2.0075296455e+00 -3.4771433438e+00 2.0075296455e+00 3.4771433438e+00 
59000 5.8895151375e+00 -1.0776641375e-05 2.0075296455e+00 -3.4771433438e+00 2.0075296455e+00 3.4771433438e+00 
59100 5.8895151543e+00 -1.0140567305e-05 2.0075296455e+00 -3.4771433438e+00 2.0075296455e+00 3.4771433438e+00 
59200 5.8895151709e+00 -9.4638964538e-06 2.0075296455e+00 -3.4771433438e+00 2.0075296455e+00 3.4771433438e+00 
59300 5.8895151873e+00 -8.7490125125e-06 2.0075296455e+00 -3.4771433438e+00 2.0075296455e+00 3.4771433438e+00 
59400 5.8895152035e+00 -7.9982949493e-06 2.0075296455e+00 -3.4771433438e+00 2.0075296455e+00 3.4771433438e+00 
59500 5.8895152195e+00 -7.2141145748e-06 2.0075296455e+00 -3.4771433438e+00 2.0075296455e+00 3.4771433438e+00 
59600 5.8895152354e+00 -6.3988292670e-06 2.0075296455e+00 -3.4771433438e+00 2.0075296455e+00 3.4771433438e+00 
59700 5.8895152510e+00 -5.5547798601e-06 2.0075296455e+00 -3.4771433438e+00 2.0075296455e+00 3.4771433438e+00 
59800 5.8895152664e+00 -4.6842861962e-06 2.0075296455e+00 -3.4771433438e+00 2.0075296455e+00 3.4771433438e+00 
59900 5.8895152817e+00 -3.7896433527e-06 2.0075296455e+00 -3.4771433438e+00 2.0075296455e+00 3.4771433438e+00 
60000 5.8895152968e+00 -2.8731180286e-06 2.0075296455e+00 -3.4771433438e+00 2.0075296455e+00 3.4771433438e+00 
60100 5.8895153117e+00 -1.9369451092e-06 2.0075296455e+00 -3.4771433438e+00 2.0075296455e+00 3.4771433438e+00 
60200 5.8895153264e+00 -9.8332440058e-07 2.0075296455e+00 -3.4771433438e+00 2.0075296455e+00 3.4771433438e+00 
60300 5.8895153409e+00 -1.4417537281e-08 2.0075296455e+00 -3.4771433438e+00 2.0075296455e+00 3.4771433438e+00 
60400 5.8895153552e+00 9.6765493709e-07 2.0075296455e+00 -3.4771433438e+00 2.0075296455e+00 3.4771433438e+00 
60500 5.8895153693e+00 1.9608163151e-06 2.0075296455e+00 -3.4771433438e+00 2.0075296455e+00 3.4771433438e+00 
60600 5.8895153833e+00 2.9630362983e-06 2.0075296455e+00 -3.4771433438e+00 2.0075296455e+00 3.4771433438e+00 
60700 5.8895153971e+00 3.9723333965e-06 2.0075296455e+00 -3.4771433438e+00 2.0075296455e+00 3.4771433438e+00 
60800 5.8895154107e+00 4.9867771530e-06 2.0075296455e+00 -3.4771433438e+00 2.0075296455e+00 3.4771433438e+00 
60900 5.8895154241e+00 6.0044902114e-06 2.0075296455e+00 -3.4771433438e+00 2.0075296455e+00 3.4771433438e+00 
61000 5.8895154373e+00 7.0236501918e-06 2.0075296455e+00 -3.4771433438e+00 2.0075296455e+00 3.4771433438e+00 
61100 5.8895154504e+00 8.0424914267e-06 2.0075296455e+00 -3.4771433438e+00 2.0075296455e+00 3.4771433438e+00 
61200 5.8895154633e+00 9.0593065054e-06 2.0075296455e+00 -3.4771433438e+00 2.0075296455e+00 3.4771433438e+00 
61300 5.8895154760e+00 1.0072447675e-05 2.0075296455e+00 -3.4771433438e+00 2.0075296455e+00 3.4771433438e+00 
61400 5.8895154886e+00 1.1080328073e-05 2.0075296455e+00 -3.4771433438e+00 2.0075296455e+00 3.4771433438e+00 
61500 5.8895155010e+00 1.2081422802e-05 2.0075296455e+00 -3.4771433438e+00 2.0075296455e+00 3.4771433438e+00 
61600 5.8895155132e+00 1.3074269852e-05 2.0075296455e+00 -3.4771433438e+00 2.0075296455e+00 3.4771433438e+00 
61700 5.8895155253e+00 1.4057470879e-05 2.0075296455e+00 -3.4771433438e+00 2.0075296455e+00 3.4771433438e+00 
61800 5.8895155372e+00 1.5029691807e-05 2.0075296455e+00 -3.4771433438e+00 2.0075296455e+00 3.4771433438e+00 
61900 5.8895155489e+00 1.5989663335e-05 2.0075296455e+00 -3.4771433438e+00 2.0075296455e+00 3.4771433438e+00 
62000 5.8895155605e+00 1.6936181252e-05 2.0075296455e+00 -3.4771433438e+00 2.0075296455e+00 3.4771433438e+00 
62100 5.8895155719e+00 1.7868106646e-05 2.0075296455e+00 -3.4771433438e+00 2.0075296455e+00 3.4771433438e+00 
62200 5.8895155832e+00 1.8784365977e-05 2.0075296455e+00 -3.4771433438e+00 2.0075296455e+00 3.4771433438e+00 
62300 5.8895155943e+00 1.9683951009e-05 2.0075296455e+00 -3.4771433438e+00 2.0075296455e+00 3.4771433438e+00 
62400 5.8895156053e+00 2.0565918629e-05 2.0075296455e+00 -3.4771433438e+00 2.0075296455e+00 3.4771433438e+00 
62500 5.8895156162e+00 2.1429390545e-05 2.0075296455e+00 -3.4771433438e+00 2.0075296455e+00 3.4771433438e+00 
62600 5.8895156269e+00 2.2273552862e-05 2.0075296455e+00 -3.4771433438e+00 2.0075296455e+00 3.4771433438e+00 
62700 5.8895156374e+00 2.3097655553e-05 2.0075296455e+00 -3.4771433438e+00 2.0075296455e+00 3.4771433438e+00 
62800 5.8895156478e+00 2.3901011821e-05 2.0075296455e+00 -3.4771433438e+00 2.0075296455e+00 3.4771433438e+00 
62900 5.8895156581e+00 2.4682997359e-05 2.0075296455e+00 -3.4771433438e+00 2.0075296455e+00 3.4771433438e+00 
63000 5.8895156683e+00 2.5443049519e-05 2.0075296455e+00 -3.4771433438e+00 2.0075296455e+00 3.4771433438e+00 
63100 5.8895156783e+00 2.6180666374e-05 2.0075296455e+00 -3.4771433438e+00 2.0075296455e+00 3.4771433438e+00 
63200 5.8895156882e+00 2.6895405714e-05 2.0075296455e+00 -3.4771433438e+00 2.0075296455e+00 3.4771433438e+00 
63300 5.8895156980e+00 2.7586883937e-05 2.0075296455e+00 -3.4771433438e+00 2.0075296455e+00 3.4771433438e+00 
63400 5.8895157076e+00 2.8254774875e-05 2.0075296455e+00 -3.4771433438e+00 2.0075296455e+00 3.4771433438e+00 
63500 5.8895157171e+00 2.8898808552e-05 2.0075296455e+00 -3.4771433438e+00 2.0075296455e+00 3.4771433438e+00 
63600 5.8895157265e+00 2.9518769856e-05 2.0075296455e+00 -3.4771433438e+00 2.0075296455e+00 3.4771433438e+00 
63700 5.8895157358e+00 3.0114497157e-05 2.0075296455e+00 -3.4771433438e+00 2.0075296455e+00 3.4771433438e+00 
63800 5.8895157450e+00 3.0685880878e-05 2.0075296455e+00 -3.4771433438e+00 2.0075296455e+00 3.4771433438e+00 
63900 5.8895157541e+00 3.1232861990e-05 2.0075296455e+00 -3.4771433438e+00 2.0075296455e+00 3.4771433438e+00 
64000 5.8895157630e+00 3.1755430469e-05 2.0075296455e+00 -3.4771433438e+00 2.0075296455e+00 3.4771433438e+00 
64100 5.8895157718e+00 3.2253623710e-05 2.0075296455e+00 -3.4771433438e+00 2.0075296455e+00 3.4771433438e+00 
64200 5.8895157806e+00 3.2727524893e-05 2.0075296455e+00 -3.4771433438e+00 2.0075296455e+00 3.4771433438e+00 
64300 5.8895157892e+00 3.3177261322e-05 2.0075296455e+00 -3.4771433438e+00 2.0075296455e+00 3.4771433438e+00 
64400 5.8895157977e+00 3.3603002722e-05 2.0075296455e+00 -3.4771433438e+00 2.0075296455e+00 3.4771433438e+00 
64500 5.8895158061e+00 3.4004959523e-05 2.0075296455e+00 -3.4771433438e+00 2.0075296455e+00 3.4771433438e+00 
64600 5.8895158144e+00 3.4383381100e-05 2.0075296455e+00 -3.4771433438e+00 2.0075296455e+00 3.4771433438e+00 
64700 5.8895158227e+00 3.4738554021e-05 2.0075296455e+00 -3.4771433438e+00 2.0075296455e+00 3.4771433438e+00 
64800 5.8895158308e+00 3.5070800249e-05 2.0075296455e+00 -3.4771433438e+00 2.0075296455e+00 3.4771433438e+00 
64900 5.8895158388e+00 3.5380475366e-05 2.0075296455e+00 -3.4771433438e+00 2.0075296455e+00 3.4771433438e+00 
65000 5.8895158467e+00 3.5667966761e-05 2.0075296455e+00 -3.4771433438e+00 2.0075296455e+00 3.4771433438e+00 
65100 5.8895158545e+00 3.5933691833e-05 2.0075296455e+00 -3.4771433438e+00 2.0075296455e+00 3.4771433438e+00 
65200 5.8895158623e+00 3.6178096188e-05 2.0075296455e+00 -3.4771433438e+00 2.0075296455e+00 3.4771433438e+00 
65300 5.8895158699e+00 3.6401651837e-05 2.0075296455e+00 -3.4771433438e+00 2.0075296455e+00 3.4771433438e+00 
65400 5.8895158775e+00 3.6604855406e-05 2.0075296455e+00 -3.4771433438e+00 2.0075296455e+00 3.4771433438e+00 
65500 5.8895158849e+00 3.6788226352e-05 2.0075296455e+00 -3.4771433438e+00 2.0075296455e+00 3.4771433438e+00 
65600 5.8895158923e+00 3.6952305201e-05 2.0075296455e+00 -3.4771433438e+00 2.0075296455e+00 3.4771433438e+00 
65700 5.8895158996e+00 3.7097651788e-05 2.0075296455e+00 -3.4771433438e+00 2.0075296455e+00 3.4771433438e+00 
65800 5.8895159068e+00 3.7224843528e-05 2.0075296455e+00 -3.4771433438e+00 2.0075296455e+00 3.4771433438e+00 
65900 5.8895159139e+00 3.7334473706e-05 2.0075296455e+00 -3.4771433438e+00 2.0075296455e+00 3.4771433438e+00 
66000 5.8895159209e+00 3.7427149788e-05 2.0075296455e+00 -3.4771433438e+00 2.0075296455e+00 3.4771433438e+00 
66100 5.8895159279e+00 3.7503491769e-05 2.0075296455e+00 -3.4771433438e+00 2.0075296455e+00 3.4771433438e+00 
66200 5.8895159348e+00 3.7564130535e-05 2.0075296455e+00 -3.4771433438e+00 2.0075296455e+00 3.4771433438e+00 
66300 5.8895159415e+00 3.7609706274e-05 2.0075296455e+00 -3.4771433438e+00 2.0075296455e+00 3.4771433438e+00 
66400 5.8895159482e+00 3.7640866902e-05 2.0075296455e+00 -3.4771433438e+00 2.0075296455e+00 3.4771433438e+00 
66500 5.8895159549e+00 3.7658266548e-05 2.0075296455e+00 -3.4771433438e+00 2.0075296455e+00 3.4771433438e+00 
66600 5.8895159614e+00 3.7662564047e-05 2.0075296455e+00 -3.4771433438e+00 2.0075296455e+00 3.4771433438e+00 
66700 5.8895159679e+00 3.7654421506e-05 2.0075296455e+00 -3.4771433438e+00 2.0075296455e+00 3.4771433438e+00 
66800 5.8895159742e+00 3.7634502881e-05 2.0075296455e+00 -3.4771433438e+00 2.0075296455e+00 3.4771433438e+00 
66900 5.8895159806e+00 3.7603472613e-05 2.0075296455e+00 -3.4771433438e+00 2.0075296455e+00 3.4771433438e+00 
67000 5.8895159868e+00 3.7561994304e-05 2.0075296455e+00 -3.4771433438e+00 2.0075296455e+00 3.4771433438e+00 
67100 5.8895159929e+00 3.7510729436e-05 2.0075296455e+00 -3.4771433438e+00 2.0075296455e+00 3.4771433438e+00 
67200 5.8895159990e+00 3.7450336135e-05 2.0075296455e+00 -3.4771433438e+00 2.0075296455e+00 3.4771433438e+00 
67300 5.8895160050e+00 3.7381467983e-05 2.0075296455e+00 -3.4771433438e+00 2.0075296455e+00 3.4771433438e+00 
67400 5.8895160110e+00 3.7304772884e-05 2.0075296455e+00 -3.4771433438e+00 2.0075296455e+00 3.4771433438e+00 
67500 5.8895160168e+00 3.7220891963e-05 2.0075296455e+00 -3.4771433438e+00 2.0075296455e+00 3.4771433438e+00 
67600 5.8895160226e+00 3.7130458528e-05 2.0075296455e+00 -3.4771433438e+00 2.0075296455e+00 3.4771433438e+00 
67700 5.8895160283e+00 3.7034097075e-05 2.0075296455e+00 -3.4771433438e+00 2.0075296455e+00 3.4771433438e+00 
67800 5.8895160340e+00 3.6932422339e-05 2.0075296455e+00 -3.4771433438e+00 2.0075296455e+00 3.4771433438e+00 
67900 5.8895160396e+00 3.6826038408e-05 2.0075296455e+00 -3.4771433438e+00 2.0075296455e+00 3.4771433438e+00 
68000 5.8895160451e+00 3.6715537868e-05 2.0075296455e+00 -3.4771433438e+00 2.0075296455e+00 3.4771433438e+00 
68100 5.8895160505e+00 3.6601501015e-05 2.0075296455e+00 -3.4771433438e+00 2.0075296455e+00 3.4771433438e+00 
68200 5.8895160559e+00 3.6484495104e-05 2.0075296455e+00 -3.4771433438e+00 2.0075296455e+00 3.4771433438e+00 
68300 5.8895160612e+00 3.6365073660e-05 2.0075296455e+00 -3.4771433438e+00 2.0075296455e+00 3.4771433438e+00 
68400 5.8895160665e+00 3.6243775829e-05 2.0075296455e+00 -3.4771433438e+00 2.0075296455e+00 3.4771433438e+00 
68500 5.8895160716e+00 3.6121125778e-05 2.0075296455e+00 -3.4771433438e+00 2.0075296455e+00 3.4771433438e+00 
68600 5.8895160768e+00 3.5997632150e-05 2.0075296455e+00 -3.4771433438e+00 2.0075296455e+00 3.4771433438e+00 
68700 5.8895160818e+00 3.5873787566e-05 2.0075296455e+00 -3.4771433438e+00 2.0075296455e+00 3.4771433438e+00 
68800 5.8895160868e+00 3.5750068168e-05 2.0075296455e+00 -3.4771433438e+00 2.0075296455e+00 3.4771433438e+00 
68900 5.8895160917e+00 3.5626933216e-05 2.0075296455e+00 -3.4771433438e+00 2.0075296455e+00 3.4771433438e+00 
69000 5.8895160966e+00 3.5504824731e-05 2.0075296455e+00 -3.4771433438e+00 2.0075296455e+00 3.4771433438e+00 
69100 5.8895161014e+00 3.5384167179e-05 2.0075296455e+00 -3.4771433438e+00 2.0075296455e+00 3.4771433438e+00 
69200 5.8895161062e+00 3.5265367199e-05 2.0075296455e+00 -3.4771433438e+00 2.0075296455e+00 3.4771433438e+00 
69300 5.8895161109e+00 3.5148813386e-05 2.0075296455e+00 -3.4771433438e+00 2.0075296455e+00 3.4771433438e+00 
69400 5.8895161155e+00 3.5034876100e-05 2.0075296455e+00 -3.4771433438e+00 2.0075296455e+00 3.4771433438e+00 
69500 5.8895161201e+00 3.4923907333e-05 2.0075296455e+00 -3.4771433438e+00 2.0075296455e+00 3.4771433438e+00 
69600 5.8895161246e+00 3.4816240599e-05 2.0075296455e+00 -3.4771433438e+00 2.0075296455e+00 3.4771433438e+00 
69700 5.8895161290e+00 3.4712190885e-05 2.0075296455e+00 -3.4771433438e+00 2.0075296455e+00 3.4771433438e+00 
69800 5.8895161334e+00 3.4612054619e-05 2.0075296455e+00 -3.4771433438e+00 2.0075296455e+00 3.4771433438e+00 
69900 5.8895161378e+00 3.4516109689e-05 2.0075296455e+00 -3.4771433438e+00 2.0075296455e+00 3.4771433438e+00 
70000 5.8895161421e+00 3.4424615498e-05 2.0075296455e+00 -3.4771433438e+00 2.0075296455e+00 3.4771433438e+00 
70100 5.8895161463e+00 3.4337813037e-05 2.0075296455e+00 -3.4771433438e+00 2.0075296455e+00 3.4771433438e+00 
70200 5.8895161505e+00 3.4255925023e-05 2.0075296455e+00 -3.4771433438e+00 2.0075296455e+00 3.4771433438e+00 
70300 5.8895161547e+00 3.4179156032e-05 2.0075296455e+00 -3.4771433438e+00 2.0075296455e+00 3.4771433438e+00 
70400 5.8895161588e+00 3.4107692689e-05 2.0075296455e+00 -3.4771433438e+00 2.0075296455e+00 3.4771433438e+00 
70500 5.8895161628e+00 3.4041703882e-05 2.0075296455e+00 -3.4771433438e+00 2.0075296455e+00 3.4771433438e+00 
70600 5.8895161668e+00 3.3981340995e-05 2.0075296455e+00 -3.4771433438e+00 2.0075296455e+00 3.4771433438e+00 
70700 5.8895161707e+00 3.3926738179e-05 2.0075296455e+00 -3.4771433438e+00 2.0075296455e+00 3.4771433438e+00 
70800 5.8895161746e+00 3.3878012645e-05 2.0075296455e+00 -3.4771433438e+00 2.0075296455e+00 3.4771433438e+00 
70900 5.8895161785e+00 3.3835264970e-05 2.0075296455e+00 -3.4771433438e+00 2.0075296455e+00 3.4771433438e+00 
71000 5.8895161823e+00 3.3798579445e-05 2.0075296455e+00 -3.4771433438e+00 2.0075296455e+00 3.4771433438e+00 
71100 5.8895161860e+00 3.3768024433e-05 2.0075296455e+00 -3.4771433438e+00 2.0075296455e+00 3.4771433438e+00 
71200 5.8895161897e+00 3.3743652741e-05 2.0075296455e+00 -3.4771433438e+00 2.0075296455e+00 3.4771433438e+00 
71300 5.8895161934e+00 3.3725502022e-05 2.0075296455e+00 -3.4771433438e+00 2.0075296455e+00 3.4771433438e+00 
71400 5.8895161970e+00 3.3713595193e-05 2.0075296455e+00 -3.4771433438e+00 2.0075296455e+00 3.4771433438e+00 
71500 5.8895162006e+00 3.3707940858e-05 2.0075296455e+00 -3.4771433438e+00 2.0075296455e+00 3.4771433438e+00 
71600 5.8895162041e+00 3.3708533760e-05 2.0075296455e+00 -3.4771433438e+00 2.0075296455e+00 3.4771433438e+00 
71700 5.8895162076e+00 3.3715355227e-05 2.0075296455e+00 -3.4771433438e+00 2.0075296455e+00 3.4771433438e+00 
71800 5.8895162110e+00 3.3728373654e-05 2.0075296455e+00 -3.4771433438e+00 2.0075296455e+00 3.4771433438e+00 
71900 5.8895162144e+00 3.3747544976e-05 2.0075296455e+00 -3.4771433438e+00 2.0075296455e+00 3.4771433438e+00 
72000 5.8895162178e+00 3.3772813159e-05 2.0075296455e+00 -3.4771433438e+00 2.0075296455e+00 3.4771433438e+00 
72100 5.8895162211e+00 3.3804110692e-05 2.0075296455e+00 -3.4771433438e+00 2.0075296455e+00 3.4771433438e+00 
72200 5.8895162244e+00 3.3841359096e-05 2.0075296455e+00 -3.4771433438e+00 2.0075296455e+00 3.4771433438e+00 
72300 5.8895162276e+00 3.3884469430e-05 2.0075296455e+00 -3.4771433438e+00 2.0075296455e+00 3.4771433438e+00 
72400 5.8895162308e+00 3.3933342807e-05 2.0075296455e+00 -3.4771433438e+00 2.0075296455e+00 3.4771433438e+00 
72500 5.8895162340e+00 3.3987870901e-05 2.0075296455e+00 -3.4771433438e+00 2.0075296455e+00 3.4771433438e+00 
72600 5.8895162371e+00 3.4047936478e-05 2.0075296455e+00 -3.4771433438e+00 2.0075296455e+00 3.4771433438e+00 
72700 5.8895162402e+00 3.4113413908e-05 2.0075296455e+00 -3.4771433438e+00 2.0075296455e+00 3.4771433438e+00 
72800 5.8895162433e+00 3.4184169682e-05 2.0075296455e+00 -3.4771433438e+00 2.0075296455e+00 3.4771433438e+00 
72900 5.8895162463e+00 3.4260062938e-05 2.0075296455e+00 -3.4771433438e+00 2.0075296455e+00 3.4771433438e+00 
73000 5.8895162493e+00 3.4340945967e-05 2.0075296455e+00 -3.4771433438e+00 2.0075296455e+00 3.4771433438e+00 
73100 5.8895162522e+00 3.4426664736e-05 2.0075296455e+00 -3.4771433438e+00 2.0075296455e+00 3.4771433438e+00 
73200 5.8895162551e+00 3.4517059390e-05 2.0075296455e+00 -3.4771433438e+00 2.0075296455e+00 3.4771433438e+00 
73300 5.8895162580e+00 3.4611964759e-05 2.0075296455e+00 -3.4771433438e+00 2.0075296455e+00 3.4771433438e+00 
73400 5.8895162608e+00 3.4711210854e-05 2.0075296455e+00 -3.4771433438e+00 2.0075296455e+00 3.4771433438e+00 
73500 5.8895162636e+00 3.4814623362e-05 2.0075296455e+00 -3.4771433438e+00 2.0075296455e+00 3.4771433438e+00 
73600 5.8895162664e+00 3.4922024138e-05 2.0075296455e+00 -3.4771433438e+00 2.0075296455e+00 3.4771433438e+00 
73700 5.8895162691e+00 3.5033231659e-05 2.0075296455e+00 -3.4771433438e+00 2.0075296455e+00 3.4771433438e+00 
73800 5.8895162718e+00 3.5148061522e-05 2.0075296455e+00 -3.4771433438e+00 2.0075296455e+00 3.4771433438e+00 
73900 5.8895162745e+00 3.5266326881e-05 2.0075296455e+00 -3.4771433438e+00 2.0075296455e+00 3.4771433438e+00 
74000 5.8895162772e+00 3.5387838909e-05 2.0075296455e+00 -3.4771433438e+00 2.0075296455e+00 3.4771433438e+00 
74100 5.8895162798e+00 3.5512407231e-05 2.0075296455e+00 -3.4771433438e+00 2.0075296455e+00 3.4771433438e+00 
74200 5.8895162823e+00 3.5639840357e-05 2.0075296455e+00 -3.4771433438e+00 2.0075296455e+00 3.4771433438e+00 
74300 5.8895162849e+00 3.5769946092e-05 2.0075296455e+00 -3.4771433438e+00 2.0075296455e+00 3.4771433438e+00 
74400 5.8895162874e+00 3.5902531944e-05 2.0075296455e+00 -3.4771433438e+00 2.0075296455e+00 3.4771433438e+00 
74500 5.8895162899e+00 3.6037405526e-05 2.0075296455e+00 -3.4771433438e+00 2.0075296455e+00 3.4771433438e+00 
74600 5.8895162923e+00 3.6174374915e-05 2.0075296455e+00 -3.4771433438e+00 2.0075296455e+00 3.4771433438e+00 
74700 5.8895162948e+00 3.6313249042e-05 2.0075296455e+00 -3.4771433438e+00 2.0075296455e+00 3.4771433438e+00 
74800 5.8895162972e+00 3.6453838030e-05 2.0075296455e+00 -3.4771433438e+00 2.0075296455e+00 3.4771433438e+00 
74900 5.8895162995e+00 3.6595953542e-05 2.0075296455e+00 -3.4771433438e+00 2.0075296455e+00 3.4771433438e+00 
75000 5.8895163019e+00 3.6739409104e-05 2.0075296455e+00 -3.4771433438e+00 2.0075296455e+00 3.4771433438e+00 
75100 5.8895163042e+00 3.6884020416e-05 2.0075296455e+00 -3.4771433438e+00 2.0075296455e+00 3.4771433438e+00 
75200 5.8895163065e+00 3.7029605658e-05 2.0075296455e+00 -3.4771433438e+00 2.0075296455e+00 3.4771433438e+00 
75300 5.8895163087e+00 3.7175985763e-05 2.0075296455e+00 -3.4771433438e+00 2.0075296455e+00 3.4771433438e+00 
75400 5.8895163109e+00 3.7322984695e-05 2.0075296455e+00 -3.4771433438e+00 2.0075296455e+00 3.4771433438e+00 
75500 5.8895163131e+00 3.7470429700e-05 2.0075296455e+00 -3.4771433438e+00 2.0075296455e+00 3.4771433438e+00 
75600 5.8895163153e+00 3.7618151552e-05 2.0075296455e+00 -3.4771433438e+00 2.0075296455e+00 3.4771433438e+00 
75700 5.8895163175e+00 3.7765984769e-05 2.0075296455e+00 -3.4771433438e+00 2.0075296455e+00 3.4771433438e+00 
75800 5.8895163196e+00 3.7913767833e-05 2.0075296455e+00 -3.4771433438e+00 2.0075296455e+00 3.4771433438e+00 
75900 5.8895163217e+00 3.8061343387e-05 2.0075296455e+00 -3.4771433438e+00 2.0075296455e+00 3.4771433438e+00 
76000 5.8895163238e+00 3.8208558414e-05 2.0075296455e+00 -3.4771433438e+00 2.0075296455e+00 3.4771433438e+00 
76100 5.8895163258e+00 3.8355264405e-05 2.0075296455e+00 -3.4771433438e+00 2.0075296455e+00 3.4771433438e+00 
76200 5.8895163278e+00 3.8501317521e-05 2.0075296455e+00 -3.4771433438e+00 2.0075296455e+00 3.4771433438e+00 
76300 5.8895163298e+00 3.8646578722e-05 2.0075296455e+00 -3.4771433438e+00 2.0075296455e+00 3.4771433438e+00 
76400 5.8895163318e+00 3.8790913905e-05 2.0075296455e+00 -3.4771433438e+00 2.0075296455e+00 3.4771433438e+00 
76500 5.8895163337e+00 3.8934194012e-05 2.0075296455e+00 -3.4771433438e+00 2.0075296455e+00 3.4771433438e+00 
76600 5.8895163357e+00 3.9076295124e-05 2.0075296455e+00 -3.4771433438e+00 2.0075296455e+00 3.4771433438e+00 
76700 5.8895163376e+00 3.9217098558e-05 2.0075296455e+00 -3.4771433438e+00 2.0075296455e+00 3.4771433438e+00 
76800 5.8895163395e+00 3.9356490931e-05 2.0075296455e+00 -3.4771433438e+00 2.0075296455e+00 3.4771433438e+00 
76900 5.8895163413e+00 3.9494364230e-05 2.0075296455e+00 -3.4771433438e+00 2.0075296455e+00 3.4771433438e+00 
77000 5.8895163431e+00 3.9630615851e-05 2.0075296455e+00 -3.4771433438e+00 2.0075296455e+00 3.4771433438e+00 
77100 5.8895163450e+00 3.9765148640e-05 2.0075296455e+00 -3.4771433438e+00 2.0075296455e+00 3.4771433438e+00 
77200 5.8895163467e+00 3.9897870921e-05 2.0075296455e+00 -3.4771433438e+00 2.0075296455e+00 3.4771433438e+00 
77300 5.8895163485e+00 4.0028696503e-05 2.0075296455e+00 -3.4771433438e+00 2.0075296455e+00 3.4771433438e+00 
77400 5.8895163503e+00 4.0157544680e-05 2.0075296455e+00 -3.4771433438e+00 2.0075296455e+00 3.4771433438e+00 
77500 5.8895163520e+00 4.0284340233e-05 2.0075296455e+00 -3.4771433438e+00 2.0075296455e+00 3.4771433438e+00 
77600 5.8895163537e+00 4.0409013403e-05 2.0075296455e+00 -3.4771433438e+00 2.0075296455e+00 3.4771433438e+00 
77700 5.8895163554e+00 4.0531499858e-05 2.0075296455e+00 -3.4771433438e+00 2.0075296455e+00 3.4771433438e+00 
77800 5.8895163570e+00 4.0651740664e-05 2.0075296455e+00 -3.4771433438e+00 2.0075296455e+00 3.4771433438e+00 
77900 5.8895163587e+00 4.0769682230e-05 2.0075296455e+00 -3.4771433438e+00 2.0075296455e+00 3.4771433438e+00 
78000 5.8895163603e+00 4.0885276252e-05 2.0075296455e+00 -3.4771433438e+00 2.0075296455e+00 3.4771433438e+00 
78100 5.8895163619e+00 4.0998479651e-05 2.0075296455e+00 -3.4771433438e+00 2.0075296455e+00 3.4771433438e+00 
78200 5.8895163635e+00 4.1109254489e-05 2.0075296455e+00 -3.4771433438e+00 2.0075296455e+00 3.4771433438e+00 
78300 5.8895163651e+00 4.1217567906e-05 2.0075296455e+00 -3.4771433438e+00 2.0075296455e+00 3.4771433438e+00 
78400 5.8895163666e+00 4.1323392011e-05 2.0075296455e+00 -3.4771433438e+00 2.0075296455e+00 3.4771433438e+00 
78500 5.8895163682e+00 4.1426703797e-05 2.0075296455e+00 -3.4771433438e+00 2.0075296455e+00 3.4771433438e+00 
78600 5.8895163697e+00 4.1527485041e-05 2.0075296455e+00 -3.4771433438e+00 2.0075296455e+00 3.4771433438e+00 
78700 5.8895163712e+00 4.1625722189e-05 2.0075296455e+00 -3.4771433438e+00 2.0075296455e+00 3.4771433438e+00 
78800 5.8895163726e+00 4.1721406247e-05 2.0075296455e+00 -3.4771433438e+00 2.0075296455e+00 3.4771433438e+00 
78900 5.8895163741e+00 4.1814532656e-05 2.0075296455e+00 -3.4771433438e+00 2.0075296455e+00 3.4771433438e+00 
79000 5.8895163755e+00 4.1905101177e-05 2.0075296455e+00 -3.4771433438e+00 2.0075296455e+00 3.4771433438e+00 
79100 5.8895163770e+00 4.1993115754e-05 2.0075296455e+00 -3.4771433438e+00 2.0075296455e+00 3.4771433438e+00 
79200 5.8895163784e+00 4.2078584385e-05 2.0075296455e+00 -3.4771433438e+00 2.0075296455e+00 3.4771433438e+00 
79300 5.8895163798e+00 4.2161518988e-05 2.0075296455e+00 -3.4771433438e+00 2.0075296455e+00 3.4771433438e+00 
79400 5.8895163811e+00 4.2241935251e-05 2.0075296455e+00 -3.4771433438e+00 2.0075296455e+00 3.4771433438e+00 
79500 5.8895163825e+00 4.2319852506e-05 2.0075296455e+00 -3.4771433438e+00 2.0075296455e+00 3.4771433438e+00 
79600 5.8895163838e+00 4.2395293566e-05 2.0075296455e+00 -3.4771433438e+00 2.0075296455e+00 3.4771433438e+00 
79700 5.8895163852e+00 4.2468284590e-05 2.0075296455e+00 -3.4771433438e+00 2.0075296455e+00 3.4771433438e+00 
79800 5.8895163865e+00 4.2538854930e-05 2.0075296455e+00 -3.4771433438e+00 2.0075296455e+00 3.4771433438e+00 
79900 5.8895163878e+00 4.2607036977e-05 2.0075296455e+00 -3.4771433438e+00 2.0075296455e+00 3.4771433438e+00 
80000 5.8895163890e+00 4.2672866011e-05 2.0075296455e+00 -3.4771433438e+00 2.0075296455e+00 3.4771433438e+00 
80100 5.8895163903e+00 4.2736380053e-05 2.0075296455e+00 -3.4771433438e+00 2.0075296455e+00 3.4771433438e+00 
80200 5.8895163915e+00 4.2797619700e-05 2.0075296455e+00 -3.4771433438e+00 2.0075296455e+00 3.4771433438e+00 
80300 5.8895163928e+00 4.2856627983e-05 2.0075296455e+00 -3.4771433438e+00 2.0075296455e+00 3.4771433438e+00 
80400 5.8895163940e+00 4.2913450208e-05 2.0075296455e+00 -3.4771433438e+00 2.0075296455e+00 3.4771433438e+00 
80500 5.8895163952e+00 4.2968133801e-05 2.0075296455e+00 -3.4771433438e+00 2.0075296455e+00 3.4771433438e+00 
80600 5.8895163964e+00 4.3020728161e-05 2.0075296455e+00 -3.4771433438e+00 2.0075296455e+00 3.4771433438e+00 
80700 5.8895163976e+00 4.3071284506e-05 2.0075296455e+00 -3.4771433438e+00 2.0075296455e+00 3.4771433438e+00 
80800 5.8895163987e+00 4.3119855717e-05 2.0075296455e+00 -3.4771433438e+00 2.0075296455e+00 3.4771433438e+00 
80900 5.8895163999e+00 4.3166496200e-05 2.0075296455e+00 -3.4771433438e+00 2.0075296455e+00 3.4771433438e+00 
81000 5.8895164010e+00 4.3211261730e-05 2.0075296455e+00 -3.4771433438e+00 2.0075296455e+00 3.4771433438e+00 
81100 5.8895164021e+00 4.3254209308e-05 2.0075296455e+00 -3.4771433438e+00 2.0075296455e+00 3.4771433438e+00 
81200 5.8895164032e+00 4.3295397021e-05 2.0075296455e+00 -3.4771433438e+00 2.0075296455e+00 3.4771433438e+00 
81300 5.8895164043e+00 4.3334883899e-05 2.0075296455e+00 -3.4771433438e+00 2.0075296455e+00 3.4771433438e+00 
81400 5.8895164054e+00 4.3372729776e-05 2.0075296455e+00 -3.4771433438e+00 2.0075296455e+00 3.4771433438e+00 
81500 5.8895164065e+00 4.3408995154e-05 2.0075296455e+00 -3.4771433438e+00 2.0075296455e+00 3.4771433438e+00 
81600 5.8895164075e+00 4.3443741075e-05 2.0075296455e+00 -3.4771433438e+00 2.0075296455e+00 3.4771433438e+00 
81700 5.8895164086e+00 4.3477028987e-05 2.0075296455e+00 -3.4771433438e+00 2.0075296455e+00 3.4771433438e+00 
81800 5.8895164096e+00 4.3508920621e-05 2.0075296455e+00 -3.4771433438e+00 2.0075296455e+00 3.4771433438e+00 
81900 5.8895164106e+00 4.3539477863e-05 2.0075296455e+00 -3.4771433438e+00 2.0075296455e+00 3.4771433438e+00 
82000 5.8895164116e+00 4.3568762647e-05 2.0075296455e+00 -3.4771433438e+00 2.0075296455e+00 3.4771433438e+00 
82100 5.8895164126e+00 4.3596836820e-05 2.0075296455e+00 -3.4771433438e+00 2.0075296455e+00 3.4771433438e+00 
82200 5.8895164136e+00 4.3623762050e-05 2.0075296455e+00 -3.4771433438e+00 2.0075296455e+00 3.4771433438e+00 
82300 5.8895164146e+00 4.3649599706e-05 2.0075296455e+00 -3.4771433438e+00 2.0075296455e+00 3.4771433438e+00 
82400 5.8895164155e+00 4.3674410758e-05 2.0075296455e+00 -3.4771433438e+00 2.0075296455e+00 3.4771433438e+00 
82500 5.8895164165e+00 4.3698255677e-05 2.0075296455e+00 -3.4771433438e+00 2.0075296455e+00 3.4771433438e+00 
82600 5.8895164174e+00 4.3721194333e-05 2.0075296455e+00 -3.4771433438e+00 2.0075296455e+00 3.4771433438e+00 
82700 5.8895164183e+00 4.3743285918e-05 2.0075296455e+00 -3.4771433438e+00 2.0075296455e+00 3.4771433438e+00 
82800 5.8895164192e+00 4.3764588840e-05 2.0075296455e+00 -3.4771433438e+00 2.0075296455e+00 3.4771433438e+00 
82900 5.8895164202e+00 4.3785160652e-05 2.0075296455e+00 -3.4771433438e+00 2.0075296455e+00 3.4771433438e+00 
83000 5.8895164210e+00 4.3805057972e-05 2.0075296455e+00 -3.4771433438e+00 2.0075296455e+00 3.4771433438e+00 
83100 5.8895164219e+00 4.3824336398e-05 2.0075296455e+00 -3.4771433438e+00 2.0075296455e+00 3.4771433438e+00 
83200 5.8895164228e+00 4.3843050452e-05 2.0075296455e+00 -3.4771433438e+00 2.0075296455e+00 3.4771433438e+00 
83300 5.8895164237e+00 4.3861253503e-05 2.0075296455e+00 -3.4771433438e+00 2.0075296455e+00 3.4771433438e+00 
83400 5.8895164245e+00 4.3878997706e-05 2.0075296455e+00 -3.4771433438e+00 2.0075296455e+00 3.4771433438e+00 
83500 5.8895164253e+00 4.3896333953e-05 2.0075296455e+00 -3.4771433438e+00 2.0075296455e+00 3.4771433438e+00 
83600 5.8895164262e+00 4.3913311804e-05 2.0075296455e+00 -3.4771433438e+00 2.0075296455e+00 3.4771433438e+00 
83700 5.8895164270e+00 4.3929979452e-05 2.0075296455e+00 -3.4771433438e+00 2.0075296455e+00 3.4771433438e+00 
83800 5.8895164278e+00 4.3946383672e-05 2.0075296455e+00 -3.4771433438e+00 2.0075296455e+00 3.4771433438e+00 
83900 5.8895164286e+00 4.3962569777e-05 2.0075296455e+00 -3.4771433438e+00 2.0075296455e+00 3.4771433438e+00 
84000 5.8895164294e+00 4.3978581586e-05 2.0075296455e+00 -3.4771433438e+00 2.0075296455e+00 3.4771433438e+00 
84100 5.8895164302e+00 4.3994461389e-05 2.0075296455e+00 -3.4771433438e+00 2.0075296455e+00 3.4771433438e+00 
84200 5.8895164310e+00 4.4010249916e-05 2.0075296455e+00 -3.4771433438e+00 2.0075296455e+00 3.4771433438e+00 
84300 5.8895164317e+00 4.4025986316e-05 2.0075296455e+00 -3.4771433438e+00 2.0075296455e+00 3.4771433438e+00 
84400 5.8895164325e+00 4.4041708131e-05 2.0075296455e+00 -3.4771433438e+00 2.0075296455e+00 3.4771433438e+00 
84500 5.8895164332e+00 4.4057451280e-05 2.0075296455e+00 -3.4771433438e+00 2.0075296455e+00 3.4771433438e+00 
84600 5.8895164340e+00 4.4073250048e-05 2.0075296455e+00 -3.4771433438e+00 2.0075296455e+00 3.4771433438e+00 
84700 5.8895164347e+00 4.4089137072e-05 2.0075296455e+00 -3.4771433438e+00 2.0075296455e+00 3.4771433438e+00 
84800 5.8895164354e+00 4.4105143334e-05 2.0075296455e+00 -3.4771433438e+00 2.0075296455e+00 3.4771433438e+00 
84900 5.8895164361e+00 4.4121298160e-05 2.0075296455e+00 -3.4771433438e+00 2.0075296455e+00 3.4771433438e+00 
85000 5.8895164368e+00 4.4137629218e-05 2.0075296455e+00 -3.4771433438e+00 2.0075296455e+00 3.4771433438e+00 
85100 5.8895164375e+00 4.4154162519e-05 2.0075296455e+00 -3.4771433438e+00 2.0075296455e+00 3.4771433438e+00 
85200 5.8895164382e+00 4.4170922422e-05 2.0075296455e+00 -3.4771433438e+00 2.0075296455e+00 3.4771433438e+00 
85300 5.8895164389e+00 4.4187931656e-05 2.0075296455e+00 -3.4771433438e+00 2.0075296455e+00 3.4771433438e+00 
85400 5.8895164396e+00 4.4205211310e-05 2.0075296455e+00 -3.4771433438e+00 2.0075296455e+00 3.4771433438e+00 
85500 5.8895164402e+00 4.4222780864e-05 2.0075296455e+00 -3.4771433438e+00 2.0075296455e+00 3.4771433438e+00 
85600 5.8895164409e+00 4.4240658202e-05 2.0075296455e+00 -3.4771433438e+00 2.0075296455e+00 3.4771433438e+00 
85700 5.8895164415e+00 4.4258859628e-05 2.0075296455e+00 -3.4771433438e+00 2.0075296455e+00 3.4771433438e+00 
85800 5.8895164422e+00 4.4277399887e-05 2.0075296455e+00 -3.4771433438e+00 2.0075296455e+00 3.4771433438e+00 
85900 5.8895164428e+00 4.4296292199e-05 2.0075296455e+00 -3.4771433438e+00 2.0075296455e+00 3.4771433438e+00 
86000 5.8895164434e+00 4.4315548275e-05 2.0075296455e+00 -3.4771433438e+00 2.0075296455e+00 3.4771433438e+00 
86100 5.8895164440e+00 4.4335178347e-05 2.0075296455e+00 -3.4771433438e+00 2.0075296455e+00 3.4771433438e+00 
86200 5.8895164446e+00 4.4355191204e-05 2.0075296455e+00 -3.4771433438e+00 2.0075296455e+00 3.4771433438e+00 
86300 5.8895164452e+00 4.4375594220e-05 2.0075296455e+00 -3.4771433438e+00 2.0075296455e+00 3.4771433438e+00 
86400 5.8895164458e+00 4.4396393384e-05 2.0075296455e+00 -3.4771433438e+00 2.0075296455e+00 3.4771433438e+00 
86500 5.8895164464e+00 4.4417593348e-05 2.0075296455e+00 -3.4771433438e+00 2.0075296455e+00 3.4771433438e+00 
86600 5.8895164470e+00 4.4439197444e-05 2.0075296455e+00 -3.4771433438e+00 2.0075296455e+00 3.4771433438e+00 
86700 5.8895164476e+00 4.4461207744e-05 2.0075296455e+00 -3.4771433438e+00 2.0075296455e+00 3.4771433438e+00 
86800 5.8895164481e+00 4.4483625081e-05 2.0075296455e+00 -3.4771433438e+00 2.0075296455e+00 3.4771433438e+00 
86900 5.8895164487e+00 4.4506449100e-05 2.0075296455e+00 -3.4771433438e+00 2.0075296455e+00 3.4771433438e+00 
87000 5.8895164493e+00 4.4529678298e-05 2.0075296455e+00 -3.4771433438e+00 2.0075296455e+00 3.4771433438e+00 
87100 5.8895164498e+00 4.4553310060e-05 2.0075296455e+00 -3.4771433438e+00 2.0075296455e+00 3.4771433438e+00 
87200 5.8895164503e+00 4.4577340711e-05 2.0075296455e+00 -3.4771433438e+00 2.0075296455e+00 3.4771433438e+00 
87300 5.8895164509e+00 4.4601765552e-05 2.0075296455e+00 -3.4771433438e+00 2.0075296455e+00 3.4771433438e+00 
87400 5.8895164514e+00 4.4626578911e-05 2.0075296455e+00 -3.4771433438e+00 2.0075296455e+00 3.4771433438e+00 
87500 5.8895164519e+00 4.4651774181e-05 2.0075296455e+00 -3.4771433438e+00 2.0075296455e+00 3.4771433438e+00 
87600 5.8895164524e+00 4.4677343866e-05 2.0075296455e+00 -3.4771433438e+00 2.0075296455e+00 3.4771433438e+00 
87700 5.8895164530e+00 4.4703279637e-05 2.0075296455e+00 -3.4771433438e+00 2.0075296455e+00 3.4771433438e+00 
87800 5.8895164535e+00 4.4729572361e-05 2.0075296455e+00 -3.4771433438e+00 2.0075296455e+00 3.4771433438e+00 
87900 5.8895164540e+00 4.4756212155e-05 2.0075296455e+00 -3.4771433438e+00 2.0075296455e+00 3.4771433438e+00 
88000 5.8895164544e+00 4.4783188435e-05 2.0075296455e+00 -3.4771433438e+00 2.0075296455e+00 3.4771433438e+00 
88100 5.8895164549e+00 4.4810489956e-05 2.0075296455e+00 -3.4771433438e+00 2.0075296455e+00 3.4771433438e+00 
88200 5.8895164554e+00 4.4838104853e-05 2.0075296455e+00 -3.4771433438e+00 2.0075296455e+00 3.4771433438e+00 
88300 5.8895164559e+00 4.4866020697e-05 2.0075296455e+00 -3.4771433438e+00 2.0075296455e+00 3.4771433438e+00 
88400 5.8895164564e+00 4.4894224533e-05 2.0075296455e+00 -3.4771433438e+00 2.0075296455e+00 3.4771433438e+00 
88500 5.8895164568e+00 4.4922702923e-05 2.0075296455e+00 -3.4771433438e+00 2.0075296455e+00 3.4771433438e+00 
88600 5.8895164573e+00 4.4951441993e-05 2.0075296455e+00 -3.4771433438e+00 2.0075296455e+00 3.4771433438e+00 
88700 5.8895164577e+00 4.4980427471e-05 2.0075296455e+00 -3.4771433438e+00 2.0075296455e+00 3.4771433438e+00 
88800 5.8895164582e+00 4.5009644738e-05 2.0075296455e+00 -3.4771433438e+00 2.0075296455e+00 3.4771433438e+00 
88900 5.8895164586e+00 4.5039078862e-05 2.0075296455e+00 -3.4771433438e+00 2.0075296455e+00 3.4771433438e+00 
89000 5.8895164591e+00 4.5068714642e-05 2.0075296455e+00 -3.4771433438e+00 2.0075296455e+00 3.4771433438e+00 
89100 5.8895164595e+00 4.5098536644e-05 2.0075296455e+00 -3.4771433438e+00 2.0075296455e+00 3.4771433438e+00 
89200 5.8895164599e+00 4.5128529252e-05 2.0075296455e+00 -3.4771433438e+00 2.0075296455e+00 3.4771433438e+00 
89300 5.8895164603e+00 4.5158676691e-05 2.0075296455e+00 -3.4771433438e+00 2.0075296455e+00 3.4771433438e+00 
89400 5.8895164608e+00 4.5188963077e-05 2.0075296455e+00 -3.4771433438e+00 2.0075296455e+00 3.4771433438e+00 
89500 5.8895164612e+00 4.5219372444e-05 2.0075296455e+00 -3.4771433438e+00 2.0075296455e+00 3.4771433438e+00 
89600 5.8895164616e+00 4.5249888786e-05 2.0075296455e+00 -3.4771433438e+00 2.0075296455e+00 3.4771433438e+00 
89700 5.8895164620e+00 4.5280496092e-05 2.0075296455e+00 -3.4771433438e+00 2.0075296455e+00 3.4771433438e+00 
89800 5.8895164624e+00 4.5311178370e-05 2.0075296455e+00 -3.4771433438e+00 2.0075296455e+00 3.4771433438e+00 
89900 5.8895164628e+00 4.5341919691e-05 2.0075296455e+00 -3.4771433438e+00 2.0075296455e+00 3.4771433438e+00 
90000 5.8895164632e+00 4.5372704212e-05 2.0075296455e+00 -3.4771433438e+00 2.0075296455e+00 3.4771433438e+00 
90100 5.8895164635e+00 4.5403516207e-05 2.0075296455e+00 -3.4771433438e+00 2.0075296455e+00 3.4771433438e+00 
90200 5.8895164639e+00 4.5434340102e-05 2.0075296455e+00 -3.4771433438e+00 2.0075296455e+00 3.4771433438e+00 
90300 5.8895164643e+00 4.5465160490e-05 2.0075296455e+00 -3.4771433438e+00 2.0075296455e+00 3.4771433438e+00 
90400 5.8895164647e+00 4.5495962174e-05 2.0075296455e+00 -3.4771433438e+00 2.0075296455e+00 3.4771433438e+00 
90500 5.8895164650e+00 4.5526730172e-05 2.0075296455e+00 -3.4771433438e+00 2.0075296455e+00 3.4771433438e+00 
90600 5.8895164654e+00 4.5557449756e-05 2.0075296455e+00 -3.4771433438e+00 2.0075296455e+00 3.4771433438e+00 
90700 5.8895164658e+00 4.5588106474e-05 2.0075296455e+00 -3.4771433438e+00 2.0075296455e+00 3.4771433438e+00 
90800 5.8895164661e+00 4.5618686159e-05 2.0075296455e+00 -3.4771433438e+00 2.0075296455e+00 3.4771433438e+00 
90900 5.8895164665e+00 4.5649174963e-05 2.0075296455e+00 -3.4771433438e+00 2.0075296455e+00 3.4771433438e+00 
91000 5.8895164668e+00 4.5679559363e-05 2.0075296455e+00 -3.4771433438e+00 2.0075296455e+00 3.4771433438e+00 
91100 5.8895164671e+00 4.5709826193e-05 2.0075296455e+00 -3.4771433438e+00 2.0075296455e+00 3.4771433438e+00 
91200 5.8895164675e+00 4.5739962643e-05 2.0075296455e+00 -3.4771433438e+00 2.0075296455e+00 3.4771433438e+00 
91300 5.8895164678e+00 4.5769956288e-05 2.0075296455e+00 -3.4771433438e+00 2.0075296455e+00 3.4771433438e+00 
91400 5.8895164681e+00 4.5799795096e-05 2.0075296455e+00 -3.4771433438e+00 2.0075296455e+00 3.4771433438e+00 
91500 5.8895164685e+00 4.5829467441e-05 2.0075296455e+00 -3.4771433438e+00 2.0075296455e+00 3.4771433438e+00 
91600 5.8895164688e+00 4.5858962116e-05 2.0075296455e+00 -3.4771433438e+00 2.0075296455e+00 3.4771433438e+00 
91700 5.8895164691e+00 4.5888268336e-05 2.0075296455e+00 -3.4771433438e+00 2.0075296455e+00 3.4771433438e+00 
91800 5.8895164694e+00 4.5917375760e-05 2.0075296455e+00 -3.4771433438e+00 2.0075296455e+00 3.4771433438e+00 
91900 5.8895164697e+00 4.5946274486e-05 2.0075296455e+00 -3.4771433438e+00 2.0075296455e+00 3.4771433438e+00 
92000 5.8895164700e+00 4.5974955066e-05 2.0075296455e+00 -3.4771433438e+00 2.0075296455e+00 3.4771433438e+00 
92100 5.8895164703e+00 4.6003408507e-05 2.0075296455e+00 -3.4771433438e+00 2.0075296455e+00 3.4771433438e+00 
92200 5.8895164706e+00 4.6031626275e-05 2.0075296455e+00 -3.4771433438e+00 2.0075296455e+00 3.4771433438e+00 
92300 5.8895164709e+00 4.6059600308e-05 2.0075296455e+00 -3.4771433438e+00 2.0075296455e+00 3.4771433438e+00 
92400 5.8895164712e+00 4.6087323004e-05 2.0075296455e+00 -3.4771433438e+00 2.0075296455e+00 3.4771433438e+00 
92500 5.8895164715e+00 4.6114787234e-05 2.0075296455e+00 -3.4771433438e+00 2.0075296455e+00 3.4771433438e+00 
92600 5.8895164718e+00 4.6141986333e-05 2.0075296455e+00 -3.4771433438e+00 2.0075296455e+00 3.4771433438e+00 
92700 5.8895164721e+00 4.6168914112e-05 2.0075296455e+00 -3.4771433438e+00 2.0075296455e+00 3.4771433438e+00 
92800 5.8895164724e+00 4.6195564843e-05 2.0075296455e+00 -3.4771433438e+00 2.0075296455e+00 3.4771433438e+00 
92900 5.8895164726e+00 4.6221933268e-05 2.0075296455e+00 -3.4771433438e+00 2.0075296455e+00 3.4771433438e+00 
93000 5.8895164729e+00 4.6248014587e-05 2.0075296455e+00 -3.4771433438e+00 2.0075296455e+00 3.4771433438e+00 
93100 5.8895164732e+00 4.6273804462e-05 2.0075296455e+00 -3.4771433438e+00 2.0075296455e+00 3.4771433438e+00 
93200 5.8895164734e+00 4.6299299005e-05 2.0075296455e+00 -3.4771433438e+00 2.0075296455e+00 3.4771433438e+00 
93300 5.8895164737e+00 4.6324494780e-05 2.0075296455e+00 -3.4771433438e+00 2.0075296455e+00 3.4771433438e+00 
93400 5.8895164740e+00 4.6349388791e-05 2.0075296455e+00 -3.4771433438e+00 2.0075296455e+00 3.4771433438e+00 
93500 5.8895164742e+00 4.6373978479e-05 2.0075296455e+00 -3.4771433438e+00 2.0075296455e+00 3.4771433438e+00 
93600 5.8895164745e+00 4.6398261710e-05 2.0075296455e+00 -3.4771433438e+00 2.0075296455e+00 3.4771433438e+00 
93700 5.8895164747e+00 4.6422236775e-05 2.0075296455e+00 -3.4771433438e+00 2.0075296455e+00 3.4771433438e+00 
93800 5.8895164750e+00 4.6445902373e-05 2.0075296455e+00 -3.4771433438e+00 2.0075296455e+00 3.4771433438e+00 
93900 5.8895164752e+00 4.6469257607e-05 2.0075296455e+00 -3.4771433438e+00 2.0075296455e+00 3.4771433438e+00 
94000 5.8895164755e+00 4.6492301972e-05 2.0075296455e+00 -3.4771433438e+00 2.0075296455e+00 3.4771433438e+00 
94100 5.8895164757e+00 4.6515035348e-05 2.0075296455e+00 -3.4771433438e+00 2.0075296455e+00 3.4771433438e+00 
94200 5.8895164759e+00 4.6537457986e-05 2.0075296455e+00 -3.4771433438e+00 2.0075296455e+00 3.4771433438e+00 
94300 5.8895164762e+00 4.6559570497e-05 2.0075296455e+00 -3.4771433438e+00 2.0075296455e+00 3.4771433438e+00 
94400 5.8895164764e+00 4.6581373847e-05 2.0075296455e+00 -3.4771433438e+00 2.0075296455e+00 3.4771433438e+00 
94500 5.8895164766e+00 4.6602869335e-05 2.0075296455e+00 -3.4771433438e+00 2.0075296455e+00 3.4771433438e+00 
94600 5.8895164769e+00 4.6624058594e-05 2.0075296455e+00 -3.4771433438e+00 2.0075296455e+00 3.4771433438e+00 
94700 5.8895164771e+00 4.6644943566e-05 2.0075296455e+00 -3.4771433438e+00 2.0075296455e+00 3.4771433438e+00 
94800 5.8895164773e+00 4.6665526497e-05 2.0075296455e+00 -3.4771433438e+00 2.0075296455e+00 3.4771433438e+00 
94900 5.8895164775e+00 4.6685809926e-05 2.0075296455e+00 -3.4771433438e+00 2.0075296455e+00 3.4771433438e+00 
95000 5.8895164777e+00 4.6705796665e-05 2.0075296455e+00 -3.4771433438e+00 2.0075296455e+00 3.4771433438e+00 
95100 5.8895164780e+00 4.6725489792e-05 2.0075296455e+00 -3.4771433438e+00 2.0075296455e+00 3.4771433438e+00 
95200 5.8895164782e+00 4.6744892639e-05 2.0075296455e+00 -3.4771433438e+00 2.0075296455e+00 3.4771433438e+00 
95300 5.8895164784e+00 4.6764008774e-05 2.0075296455e+00 -3.4771433438e+00 2.0075296455e+00 3.4771433438e+00 
95400 5.8895164786e+00 4.6782841989e-05 2.0075296455e+00 -3.4771433438e+00 2.0075296455e+00 3.4771433438e+00 
95500 5.8895164788e+00 4.6801396295e-05 2.0075296455e+00 -3.4771433438e+00 2.0075296455e+00 3.4771433438e+00 
95600 5.8895164790e+00 4.6819675893e-05 2.0075296455e+00 -3.4771433438e+00 2.0075296455e+00 3.4771433438e+00 
95700 5.8895164792e+00 4.6837685176e-05 2.0075296455e+00 -3.4771433438e+00 2.0075296455e+00 3.4771433438e+00 
95800 5.8895164794e+00 4.6855428710e-05 2.0075296455e+00 -3.4771433438e+00 2.0075296455e+00 3.4771433438e+00 
95900 5.8895164796e+00 4.6872911217e-05 2.0075296455e+00 -3.4771433438e+00 2.0075296455e+00 3.4771433438e+00 
96000 5.8895164798e+00 4.6890137571e-05 2.0075296455e+00 -3.4771433438e+00 2.0075296455e+00 3.4771433438e+00 
96100 5.8895164800e+00 4.6907112778e-05 2.0075296455e+00 -3.4771433438e+00 2.0075296455e+00 3.4771433438e+00 
96200 5.8895164801e+00 4.6923841964e-05 2.0075296455e+00 -3.4771433438e+00 2.0075296455e+00 3.4771433438e+00 
96300 5.8895164803e+00 4.6940330368e-05 2.0075296455e+00 -3.4771433438e+00 2.0075296455e+00 3.4771433438e+00 
96400 5.8895164805e+00 4.6956583325e-05 2.0075296455e+00 -3.4771433438e+00 2.0075296455e+00 3.4771433438e+00 
96500 5.8895164807e+00 4.6972606254e-05 2.0075296455e+00 -3.4771433438e+00 2.0075296455e+00 3.4771433438e+00 
96600 5.8895164809e+00 4.6988404648e-05 2.0075296455e+00 -3.4771433438e+00 2.0075296455e+00 3.4771433438e+00 
96700 5.8895164810e+00 4.7003984063e-05 2.0075296455e+00 -3.4771433438e+00 2.0075296455e+00 3.4771433438e+00 
96800 5.8895164812e+00 4.7019350100e-05 2.0075296455e+00 -3.4771433438e+00 2.0075296455e+00 3.4771433438e+00 
96900 5.8895164814e+00 4.7034508405e-05 2.0075296455e+00 -3.4771433438e+00 2.0075296455e+00 3.4771433438e+00 
97000 5.8895164816e+00 4.7049464650e-05 2.0075296455e+00 -3.4771433438e+00 2.0075296455e+00 3.4771433438e+00 
97100 5.8895164817e+00 4.7064224523e-05 2.0075296455e+00 -3.4771433438e+00 2.0075296455e+00 3.4771433438e+00 
97200 5.8895164819e+00 4.7078793722e-05 2.0075296455e+00 -3.4771433438e+00 2.0075296455e+00 3.4771433438e+00 
97300 5.8895164821e+00 4.7093177941e-05 2.0075296455e+00 -3.4771433438e+00 2.0075296455e+00 3.4771433438e+00 
97400 5.8895164822e+00 4.7107382860e-05 2.0075296455e+00 -3.4771433438e+00 2.0075296455e+00 3.4771433438e+00 
97500 5.8895164824e+00 4.7121414142e-05 2.0075296455e+00 -3.4771433438e+00 2.0075296455e+00 3.4771433438e+00 
97600 5.8895164825e+00 4.7135277413e-05 2.0075296455e+00 -3.4771433438e+00 2.0075296455e+00 3.4771433438e+00 
97700 5.8895164827e+00 4.7148978266e-05 2.0075296455e+00 -3.4771433438e+00 2.0075296455e+00 3.4771433438e+00 
97800 5.8895164829e+00 4.7162522242e-05 2.0075296455e+00 -3.4771433438e+00 2.0075296455e+00 3.4771433438e+00 
97900 5.8895164830e+00 4.7175914829e-05 2.0075296455e+00 -3.4771433438e+00 2.0075296455e+00 3.4771433438e+00 
98000 5.8895164832e+00 4.7189161452e-05 2.0075296455e+00 -3.4771433438e+00 2.0075296455e+00 3.4771433438e+00 
98100 5.8895164833e+00 4.7202267463e-05 2.0075296455e+00 -3.4771433438e+00 2.0075296455e+00 3.4771433438e+00 
98200 5.8895164835e+00 4.7215238138e-05 2.0075296455e+00 -3.4771433438e+00 2.0075296455e+00 3.4771433438e+00 
98300 5.8895164836e+00 4.7228078670e-05 2.0075296455e+00 -3.4771433438e+00 2.0075296455e+00 3.4771433438e+00 
98400 5.8895164838e+00 4.7240794163e-05 2.0075296455e+00 -3.4771433438e+00 2.0075296455e+00 3.4771433438e+00 
98500 5.8895164839e+00 4.7253389623e-05 2.0075296455e+00 -3.4771433438e+00 2.0075296455e+00 3.4771433438e+00 
98600 5.8895164840e+00 4.7265869954e-05 2.0075296455e+00 -3.4771433438e+00 2.0075296455e+00 3.4771433438e+00 
98700 5.8895164842e+00 4.7278239957e-05 2.0075296455e+00 -3.4771433438e+00 2.0075296455e+00 3.4771433438e+00 
98800 5.8895164843e+00 4.7290504320e-05 2.0075296455e+00 -3.4771433438e+00 2.0075296455e+00 3.4771433438e+00 
98900 5.8895164845e+00 4.7302667617e-05 2.0075296455e+00 -3.4771433438e+00 2.0075296455e+00 3.4771433438e+00 
99000 5.8895164846e+00 4.7314734301e-05 2.0075296455e+00 -3.4771433438e+00 2.0075296455e+00 3.4771433438e+00 
99100 5.8895164847e+00 4.7326708700e-05 2.0075296455e+00 -3.4771433438e+00 2.0075296455e+00 3.4771433438e+00 
99200 5.8895164849e+00 4.7338595022e-05 2.0075296455e+00 -3.4771433438e+00 2.0075296455e+00 3.4771433438e+00 
99300 5.8895164850e+00 4.7350397343e-05 2.0075296455e+00 -3.4771433438e+00 2.0075296455e+00 3.4771433438e+00 
99400 5.8895164851e+00 4.7362119604e-05 2.0075296455e+00 -3.4771433438e+00 2.0075296455e+00 3.4771433438e+00 
99500 5.8895164852e+00 4.7373765617e-05 2.0075296455e+00 -3.4771433438e+00 2.0075296455e+00 3.4771433438e+00 
99600 5.8895164854e+00 4.7385339053e-05 2.0075296455e+00 -3.4771433438e+00 2.0075296455e+00 3.4771433438e+00 
99700 5.8895164855e+00 4.7396843447e-05 2.0075296455e+00 -3.4771433438e+00 2.0075296455e+00 3.4771433438e+00 
99800 5.8895164856e+00 4.7408282201e-05 2.0075296455e+00 -3.4771433438e+00 2.0075296455e+00 3.4771433438e+00 
99900 5.8895164857e+00 4.7419658565e-05 2.0075296455e+00 -3.4771433438e+00 2.0075296455e+00 3.4771433438e+00 
100000 5.8895164859e+00 4.7430975660e-05 2.0075296455e+00 -3.4771433438e+00 2.0075296455e+00 3.4771433438e+00 
100100 5.8895164860e+00 4.7442236457e-05 2.0075296455e+00 -3.4771433438e+00 2.0075296455e+00 3.4771433438e+00 
100200 5.8895164861e+00 4.7453443792e-05 2.0075296455e+00 -3.4771433438e+00 2.0075296455e+00 3.4771433438e+00 
100300 5.8895164862e+00 4.7464600357e-05 2.0075296455e+00 -3.4771433438e+00 2.0075296455e+00 3.4771433438e+00 
100400 5.8895164863e+00 4.7475708700e-05 2.0075296455e+00 -3.4771433438e+00 2.0075296455e+00 3.4771433438e+00 
100500 5.8895164864e+00 4.7486771235e-05 2.0075296455e+00 -3.4771433438e+00 2.0075296455e+00 3.4771433438e+00 
100600 5.8895164866e+00 4.7497790233e-05 2.0075296455e+00 -3.4771433438e+00 2.0075296455e+00 3.4771433438e+00 
100700 5.8895164867e+00 4.7508767827e-05 2.0075296455e+00 -3.4771433438e+00 2.0075296455e+00 3.4771433438e+00 
100800 5.8895164868e+00 4.7519706012e-05 2.0075296455e+00 -3.4771433438e+00 2.0075296455e+00 3.4771433438e+00 
100900 5.8895164869e+00 4.7530606652e-05 2.0075296455e+00 -3.4771433438e+00 2.0075296455e+00 3.4771433438e+00 
101000 5.8895164870e+00 4.7541471472e-05 2.0075296455e+00 -3.4771433438e+00 2.0075296455e+00 3.4771433438e+00 
101100 5.8895164871e+00 4.7552302070e-05 2.0075296455e+00 -3.4771433438e+00 2.0075296455e+00 3.4771433438e+00 
101200 5.8895164872e+00 4.7563099910e-05 2.0075296455e+00 -3.4771433438e+00 2.0075296455e+00 3.4771433438e+00 
101300 5.8895164873e+00 4.7573866333e-05 2.0075296455e+00 -3.4771433438e+00 2.0075296455e+00 3.4771433438e+00 
101400 5.8895164874e+00 4.7584602554e-05 2.0075296455e+00 -3.4771433438e+00 2.0075296455e+00 3.4771433438e+00 
101500 5.8895164875e+00 4.7595309662e-05 2.0075296455e+00 -3.4771433438e+00 2.0075296455e+00 3.4771433438e+00 
101600 5.8895164876e+00 4.7605988634e-05 2.0075296455e+00 -3.4771433438e+00 2.0075296455e+00 3.4771433438e+00 
101700 5.8895164877e+00 4.7616640325e-05 2.0075296455e+00 -3.4771433438e+00 2.0075296455e+00 3.4771433438e+00 
101800 5.8895164878e+00 4.7627265479e-05 2.0075296455e+00 -3.4771433438e+00 2.0075296455e+00 3.4771433438e+00 
101900 5.8895164879e+00 4.7637864732e-05 2.0075296455e+00 -3.4771433438e+00 2.0075296455e+00 3.4771433438e+00 
102000 5.8895164880e+00 4.7648438605e-05 2.0075296455e+00 -3.4771433438e+00 2.0075296455e+00 3.4771433438e+00 
102100 5.8895164881e+00 4.7658987524e-05 2.0075296455e+00 -3.4771433438e+00 2.0075296455e+00 3.4771433438e+00 
102200 5.8895164882e+00 4.7669511814e-05 2.0075296455e+00 -3.4771433438e+00 2.0075296455e+00 3.4771433438e+00 
102300 5.8895164883e+00 4.7680011697e-05 2.0075296455e+00 -3.4771433438e+00 2.0075296455e+00 3.4771433438e+00 
102400 5.8895164884e+00 4.7690487309e-05 2.0075296455e+00 -3.4771433438e+00 2.0075296455e+00 3.4771433438e+00 
102500 5.8895164885e+00 4.7700938695e-05 2.0075296455e+00 -3.4771433438e+00 2.0075296455e+00 3.4771433438e+00 
102600 5.8895164885e+00 4.7711365811e-05 2.0075296455e+00 -3.4771433438e+00 2.0075296455e+00 3.4771433438e+00 
102700 5.8895164886e+00 4.7721768536e-05 2.0075296455e+00 -3.4771433438e+00 2.0075296455e+00 3.4771433438e+00 
102800 5.8895164887e+00 4.7732146668e-05 2.0075296455e+00 -3.4771433438e+00 2.0075296455e+00 3.4771433438e+00 
102900 5.8895164888e+00 4.7742499931e-05 2.0075296455e+00 -3.4771433438e+00 2.0075296455e+00 3.4771433438e+00 
103000 5.8895164889e+00 4.7752827979e-05 2.0075296455e+00 -3.4771433438e+00 2.0075296455e+00 3.4771433438e+00 
103100 5.8895164890e+00 4.7763130400e-05 2.0075296455e+00 -3.4771433438e+00 2.0075296455e+00 3.4771433438e+00 
103200 5.8895164891e+00 4.7773406717e-05 2.0075296455e+00 -3.4771433438e+00 2.0075296455e+00 3.4771433438e+00 
103300 5.8895164891e+00 4.7783656397e-05 2.0075296455e+00 -3.4771433438e+00 2.0075296455e+00 3.4771433438e+00 
103400 5.8895164892e+00 4.7793878849e-05 2.0075296455e+00 -3.4771433438e+00 2.0075296455e+00 3.4771433438e+00 
103500 5.8895164893e+00 4.7804073432e-05 2.0075296455e+00 -3.4771433438e+00 2.0075296455e+00 3.4771433438e+00 
103600 5.8895164894e+00 4.7814239460e-05 2.0075296455e+00 -3.4771433438e+00 2.0075296455e+00 3.4771433438e+00 
103700 5.8895164895e+00 4.7824376196e-05 2.0075296455e+00 -3.4771433438e+00 2.0075296455e+00 3.4771433438e+00 
103800 5.8895164895e+00 4.7834482871e-05 2.0075296455e+00 -3.4771433438e+00 2.0075296455e+00 3.4771433438e+00 
103900 5.8895164896e+00 4.7844558672e-05 2.0075296455e+00 -3.4771433438e+00 2.0075296455e+00 3.4771433438e+00 
104000 5.8895164897e+00 4.7854602758e-05 2.0075296455e+00 -3.4771433438e+00 2.0075296455e+00 3.4771433438e+00 
104100 5.8895164898e+00 4.7864614259e-05 2.0075296455e+00 -3.4771433438e+00 2.0075296455e+00 3.4771433438e+00 
104200 5.8895164898e+00 4.7874592274e-05 2.0075296455e+00 -3.4771433438e+00 2.0075296455e+00 3.4771433438e+00 
104300 5.8895164899e+00 4.7884535884e-05 2.0075296455e+00 -3.4771433438e+00 2.0075296455e+00 3.4771433438e+00 
104400 5.8895164900e+00 4.7894444148e-05 2.0075296455e+00 -3.4771433438e+00 2.0075296455e+00 3.4771433438e+00 
104500 5.8895164900e+00 4.7904316111e-05 2.0075296455e+00 -3.4771433438e+00 2.0075296455e+00 3.4771433438e+00 
104600 5.8895164901e+00 4.7914150803e-05 2.0075296455e+00 -3.4771433438e+00 2.0075296455e+00 3.4771433438e+00 
104700 5.8895164902e+00 4.7923947246e-05 2.0075296455e+00 -3.4771433438e+00 2.0075296455e+00 3.4771433438e+00 
104800 5.8895164903e+00 4.7933704455e-05 2.0075296455e+00 -3.4771433438e+00 2.0075296455e+00 3.4771433438e+00 
104900 5.8895164903e+00 4.7943421440e-05 2.0075296455e+00 -3.4771433438e+00 2.0075296455e+00 3.4771433438e+00 
105000 5.8895164904e+00 4.7953097211e-05 2.0075296455e+00 -3.4771433438e+00 2.0075296455e+00 3.4771433438e+00 
105100 5.8895164905e+00 4.7962730781e-05 2.0075296455e+00 -3.4771433438e+00 2.0075296455e+00 3.4771433438e+00 
105200 5.8895164905e+00 4.7972321163e-05 2.0075296455e+00 -3.4771433438e+00 2.0075296455e+00 3.4771433438e+00 
105300 5.8895164906e+00 4.7981867380e-05 2.0075296455e+00 -3.4771433438e+00 2.0075296455e+00 3.4771433438e+00 
105400 5.8895164907e+00 4.7991368466e-05 2.0075296455e+00 -3.4771433438e+00 2.0075296455e+00 3.4771433438e+00 
105500 5.8895164907e+00 4.8000823464e-05 2.0075296455e+00 -3.4771433438e+00 2.0075296455e+00 3.4771433438e+00 
105600 5.8895164908e+00 4.8010231428e-05 2.0075296455e+00 -3.4771433438e+00 2.0075296455e+00 3.4771433438e+00 
105700 5.8895164908e+00 4.8019591437e-05 2.0075296455e+00 -3.4771433438e+00 2.0075296455e+00 3.4771433438e+00 
105800 5.8895164909e+00 4.8028902580e-05 2.0075296455e+00 -3.4771433438e+00 2.0075296455e+00 3.4771433438e+00 
105900 5.8895164910e+00 4.8038163968e-05 2.0075296455e+00 -3.4771433438e+00 2.0075296455e+00 3.4771433438e+00 
106000 5.8895164910e+00 4.8047374732e-05 2.0075296455e+00 -3.4771433438e+00 2.0075296455e+00 3.4771433438e+00 
106100 5.8895164911e+00 4.8056534034e-05 2.0075296455e+00 -3.4771433438e+00 2.0075296455e+00 3.4771433438e+00 
106200 5.8895164911e+00 4.8065641054e-05 2.0075296455e+00 -3.4771433438e+00 2.0075296455e+00 3.4771433438e+00 
106300 5.8895164912e+00 4.8074694999e-05 2.0075296455e+00 -3.4771433438e+00 2.0075296455e+00 3.4771433438e+00 
106400 5.8895164913e+00 4.8083695106e-05 2.0075296455e+00 -3.4771433438e+00 2.0075296455e+00 3.4771433438e+00 
106500 5.8895164913e+00 4.8092640642e-05 2.0075296455e+00 -3.4771433438e+00 2.0075296455e+00 3.4771433438e+00 
106600 5.8895164914e+00 4.8101530902e-05 2.0075296455e+00 -3.4771433438e+00 2.0075296455e+00 3.4771433438e+00 
106700 5.8895164914e+00 4.8110365213e-05 2.0075296455e+00 -3.4771433438e+00 2.0075296455e+00 3.4771433438e+00 
106800 5.8895164915e+00 4.8119142934e-05 2.0075296455e+00 -3.4771433438e+00 2.0075296455e+00 3.4771433438e+00 
106900 5.8895164915e+00 4.8127863462e-05 2.0075296455e+00 -3.4771433438e+00 2.0075296455e+00 3.4771433438e+00 
107000 5.8895164916e+00 4.8136526223e-05 2.0075296455e+00 -3.4771433438e+00 2.0075296455e+00 3.4771433438e+00 
107100 5.8895164916e+00 4.8145130679e-05 2.0075296455e+00 -3.4771433438e+00 2.0075296455e+00 3.4771433438e+00 
107200 5.8895164917e+00 4.8153676328e-05 2.0075296455e+00 -3.4771433438e+00 2.0075296455e+00 3.4771433438e+00 
107300 5.8895164917e+00 4.8162162705e-05 2.0075296455e+00 -3.4771433438e+00 2.0075296455e+00 3.4771433438e+00 
107400 5.8895164918e+00 4.8170589379e-05 2.0075296455e+00 -3.4771433438e+00 2.0075296455e+00 3.4771433438e+00 
107500 5.8895164918e+00 4.8178955959e-05 2.0075296455e+00 -3.4771433438e+00 2.0075296455e+00 3.4771433438e+00 
107600 5.8895164919e+00 4.8186765429e-05 2.0075296455e+00 -3.4771433438e+00 2.0075296455e+00 3.4771433438e+00 
107600 5.8895164919e+00 4.8186765429e-05 2.0075296455e+00 -3.4771433438e+00 2.0075296455e+00 3.4771433438e+00 
