# step Hamiltonian StressXX CellTensor1 CellTensor2 CellTensor3 CellTensor4 
0 3.9924985555e+00 1.4479515012e-02 2.6408444507e+00 -4.5740767634e+00 2.6408444507e+00 4.5740767634e+00 
100 3.8997144560e+00 1.4423790166e-03 2.6408444507e+00 -4.5740767634e+00 2.6408444507e+00 4.5740767634e+00 
200 3.8163227620e+00 -9.6016292105e-03 2.6408171417e+00 -4.5740294628e+00 2.6408171417e+00 4.5740294628e+00 
300 3.7415529105e+00 -1.8604019447e-02 2.6409989365e+00 -4.5743443408e+00 2.6409989365e+00 4.5743443408e+00 
400 3.6746837395e+00 -2.5622671685e-02 2.6413511599e+00 -4.5749544096e+00 2.6413511599e+00 4.5749544096e+00 
500 3.6150399556e+00 -3.0734923494e-02 2.6418362044e+00 -4.5757945313e+00 2.6418362044e+00 4.5757945313e+00 
600 3.5619874499e+00 -3.4034758543e-02 2.6424179220e+00 -4.5768020957e+00 2.6424179220e+00 4.5768020957e+00 
700 3.5149300379e+00 -3.5629906710e-02 2.6430619560e+00 -4.5779175953e+00 2.6430619560e+00 4.5779175953e+00 
800 3.4733072535e+00 -3.5638952120e-02 2.6437360117e+00 -4.5790850941e+00 2.6437360117e+00 4.5790850941e+00 
900 3.4365928922e+00 -3.4188526933e-02 2.6444100666e+00 -4.5802525915e+00 2.6444100666e+00 4.5802525915e+00 
1000 3.4042940498e+00 -3.1410651606e-02 2.6450565231e+00 -4.5813722869e+00 2.6450565231e+00 4.5813722869e+00 
1100 3.3759504559e+00 -2.7440267176e-02 2.6456503068e+00 -4.5824007504e+00 2.6456503068e+00 4.5824007504e+00 
1200 3.3511339476e+00 -2.2412992195e-02 2.6461689158e+00 -4.5832990076e+00 2.6461689158e+00 4.5832990076e+00 
1300 3.3294479644e+00 -1.6463125997e-02 2.6465924260e+00 -4.5840325487e+00 2.6465924260e+00 4.5840325487e+00 
1400 3.3105269821e+00 -9.7219108262e-03 2.6469034570e+00 -4.5845712703e+00 2.6469034570e+00 4.5845712703e+00 
1500 3.2940358299e+00 -2.3160575811e-03 2.6470871060e+00 -4.5848893597e+00 2.6470871060e+00 4.5848893597e+00 
1600 3.2796688601e+00 5.6334667556e-03 2.6471308534e+00 -4.5849651324e+00 2.6471308534e+00 4.5849651324e+00 
1700 3.2671489570e+00 1.4012397762e-02 2.6470244471e+00 -4.5847808313e+00 2.6470244471e+00 4.5847808313e+00 
1800 3.2562263876e+00 2.2713891141e-02 2.6467597695e+00 -4.5843223962e+00 2.6467597695e+00 4.5843223962e+00 
1900 3.2466775082e+00 3.1639016401e-02 2.6463306924e+00 -4.5835792129e+00 2.6463306924e+00 4.5835792129e+00 
2000 3.2383033481e+00 4.0697047424e-02 2.6457329246e+00 -4.5825438487e+00 2.6457329246e+00 4.5825438487e+00 
2100 3.2309280964e+00 4.9805573359e-02 2.6449638547e+00 -4.5812117805e+00 2.6449638547e+00 4.5812117805e+00 
2200 3.2243975208e+00 5.8890454987e-02 2.6440223935e+00 -4.5795811218e+00 2.6440223935e+00 4.5795811218e+00 
2300 3.2185773471e+00 6.7885652338e-02 2.6429088189e+00 -4.5776523542e+00 2.6429088189e+00 4.5776523542e+00 
2400 3.2133516258e+00 7.6732949041e-02 2.6416246250e+00 -4.5754280650e+00 2.6416246250e+00 4.5754280650e+00 
2500 3.2086211117e+00 8.5381597552e-02 2.6401723764e+00 -4.5729126966e+00 2.6401723764e+00 4.5729126966e+00 
2600 3.2043016762e+00 9.3787907385e-02 2.6385555714e+00 -4.5701123082e+00 2.6385555714e+00 4.5701123082e+00 
2700 3.2003227705e+00 1.0191479589e-01 2.6367785125e+00 -4.5670343520e+00 2.6367785125e+00 4.5670343520e+00 
2800 3.1966259531e+00 1.0973131808e-01 2.6348461861e+00 -4.5636874644e+00 2.6348461861e+00 4.5636874644e+00 
2900 3.1931634925e+00 1.1721218914e-01 2.6327641508e+00 -4.5600812735e+00 2.6327641508e+00 4.5600812735e+00 
3000 3.1898970502e+00 1.2433731003e-01 2.6305384357e+00 -4.5562262219e+00 2.6305384357e+00 4.5562262219e+00 
3100 3.1867964506e+00 1.3109130411e-01 2.6281754466e+00 -4.5521334046e+00 2.6281754466e+00 4.5521334046e+00 
3200 3.1838385387e+00 1.3746307031e-01 2.6256818811e+00 -4.5478144225e+00 2.6256818811e+00 4.5478144225e+00 
3300 3.1810061257e+00 1.4344535626e-01 2.6230646522e+00 -4.5432812492e+00 2.6230646522e+00 4.5432812492e+00 
3400 3.1782870228e+00 1.4903435351e-01 2.6203308193e+00 -4.5385461117e+00 2.6203308193e+00 4.5385461117e+00 
3500 3.1756731607e+00 1.5422931570e-01 2.6174875263e+00 -4.5336213838e+00 2.6174875263e+00 4.5336213838e+00 
3600 3.1731597925e+00 1.5903219974e-01 2.6145419468e+00 -4.5285194904e+00 2.6145419468e+00 4.5285194904e+00 
3700 3.1707447779e+00 1.6344732980e-01 2.6115012358e+00 -4.5232528244e+00 2.6115012358e+00 4.5232528244e+00 
3800 3.1684279442e+00 1.6748108334e-01 2.6083724866e+00 -4.5178336718e+00 2.6083724866e+00 4.5178336718e+00 
3900 3.1662105234e+00 1.7114159854e-01 2.6051626942e+00 -4.5122741483e+00 2.6051626942e+00 4.5122741483e+00 
4000 3.1640946587e+00 1.7443850249e-01 2.6018787229e+00 -4.5065861432e+00 2.6018787229e+00 4.5065861432e+00 
4100 3.1620829811e+00 1.7738265942e-01 2.5985272793e+00 -4.5007812725e+00 2.5985272793e+00 4.5007812725e+00 
4200 3.1601782484e+00 1.7998593855e-01 2.5951148891e+00 -4.4948708395e+00 2.5951148891e+00 4.4948708395e+00 
4300 3.1583830463e+00 1.8226100094e-01 2.5916478789e+00 -4.4888658015e+00 2.5916478789e+00 4.4888658015e+00 
4400 3.1566995466e+00 1.8422110518e-01 2.5881323602e+00 -4.4827767446e+00 2.5881323602e+00 4.4827767446e+00 
4500 3.1551293175e+00 1.8587993132e-01 2.5845742186e+00 -4.4766138626e+00 2.5845742186e+00 4.4766138626e+00 
4600 3.1536731849e+00 1.8725142290e-01 2.5809791048e+00 -4.4703869428e+00 2.5809791048e+00 4.4703869428e+00 
4700 3.1523311370e+00 1.8834964642e-01 2.5773524289e+00 -4.4641053558e+00 2.5773524289e+00 4.4641053558e+00 
4800 3.1511022712e+00 1.8918866800e-01 2.5736993569e+00 -4.4577780495e+00 2.5736993569e+00 4.4577780495e+00 
4900 3.1499847758e+00 1.8978244653e-01 2.5700248101e+00 -4.4514135478e+00 2.5700248101e+00 4.4514135478e+00 
5000 3.1489759448e+00 1.9014474256e-01 2.5663334656e+00 -4.4450199515e+00 2.5663334656e+00 4.4450199515e+00 
5100 3.1480722194e+00 1.9028904228e-01 2.5626297589e+00 -4.4386049433e+00 2.5626297589e+00 4.4386049433e+00 
5200 3.1472692516e+00 1.9022849552e-01 2.5589178878e+00 -4.4321757940e+00 2.5589178878e+00 4.4321757940e+00 
5300 3.1465619873e+00 1.8997586676e-01 2.5552018175e+00 -4.4257393714e+00 2.5552018175e+00 4.4257393714e+00 
5400 3.1459447620e+00 1.8954349818e-01 2.5514852865e+00 -4.4193021509e+00 2.5514852865e+00 4.4193021509e+00 
5500 3.1454114068e+00 1.8894328331e-01 2.5477718133e+00 -4.4128702267e+00 2.5477718133e+00 4.4128702267e+00 
5600 3.1449553606e+00 1.8818665030e-01 2.5440647037e+00 -4.4064493246e+00 2.5440647037e+00 4.4064493246e+00 
5700 3.1445697837e+00 1.8728455337e-01 2.5403670583e+00 -4.4000448148e+00 2.5403670583e+00 4.4000448148e+00 
5800 3.1442476712e+00 1.8624747135e-01 2.5366817799e+00 -4.3936617254e+00 2.5366817799e+00 4.3936617254e+00 
5900 3.1439819624e+00 1.8508541207e-01 2.5330115820e+00 -4.3873047562e+00 2.5330115820e+00 4.3873047562e+00 
6000 3.1437656441e+00 1.8380792136e-01 2.5293589959e+00 -4.3809782916e+00 2.5293589959e+00 4.3809782916e+00 
6100 3.1435918456e+00 1.8242409582e-01 2.5257263789e+00 -4.3746864143e+00 2.5257263789e+00 4.3746864143e+00 
6200 3.1434539243e+00 1.8094259814e-01 2.5221159213e+00 -4.3684329183e+00 2.5221159213e+00 4.3684329183e+00 
6300 3.1433455405e+00 1.7937167434e-01 2.5185296538e+00 -4.3622213208e+00 2.5185296538e+00 4.3622213208e+00 
6400 3.1432607206e+00 1.7771917201e-01 2.5149694546e+00 -4.3560548749e+00 2.5149694546e+00 4.3560548749e+00 
6500 3.1431939087e+00 1.7599255895e-01 2.5114370559e+00 -4.3499365808e+00 2.5114370559e+00 4.3499365808e+00 
6600 3.1431400059e+00 1.7419894186e-01 2.5079340499e+00 -4.3438691965e+00 2.5079340499e+00 4.3438691965e+00 
6700 3.1430943991e+00 1.7234508429e-01 2.5044618956e+00 -4.3378552488e+00 2.5044618956e+00 4.3378552488e+00 
6800 3.1430529773e+00 1.7043742398e-01 2.5010219237e+00 -4.3318970428e+00 2.5010219237e+00 4.3318970428e+00 
6900 3.1430121394e+00 1.6848208902e-01 2.4976153428e+00 -4.3259966716e+00 2.4976153428e+00 4.3259966716e+00 
7000 3.1429687912e+00 1.6648491281e-01 2.4942432440e+00 -4.3201560250e+00 2.4942432440e+00 4.3201560250e+00 
7100 3.1429203350e+00 1.6445144782e-01 2.4909066060e+00 -4.3143767984e+00 2.4909066060e+00 4.3143767984e+00 
7200 3.1428646517e+00 1.6238697796e-01 2.4876063000e+00 -4.3086605009e+00 2.4876063000e+00 4.3086605009e+00 
7300 3.1428000770e+00 1.6029652978e-01 2.4843430943e+00 -4.3030084628e+00 2.4843430943e+00 4.3030084628e+00 
7400 3.1427253722e+00 1.5818488238e-01 2.4811176584e+00 -4.2974218439e+00 2.4811176584e+00 4.2974218439e+00 
7500 3.1426396919e+00 1.5605657627e-01 2.4779305672e+00 -4.2919016400e+00 2.4779305672e+00 4.2919016400e+00 
7600 3.1425425483e+00 1.5391592115e-01 2.4747823054e+00 -4.2864486906e+00 2.4747823054e+00 4.2864486906e+00 
7700 3.1424337738e+00 1.5176700294e-01 2.4716732714e+00 -4.2810636858e+00 2.4716732714e+00 4.2810636858e+00 
7800 3.1423134831e+00 1.4961368988e-01 2.4686037810e+00 -4.2757471725e+00 2.4686037810e+00 4.2757471725e+00 
7900 3.1421820351e+00 1.4745963809e-01 2.4655740716e+00 -4.2704995619e+00 2.4655740716e+00 4.2704995619e+00 
8000 3.1420399944e+00 1.4530829660e-01 2.4625843055e+00 -4.2653211351e+00 2.4625843055e+00 4.2653211351e+00 
8100 3.1418880959e+00 1.4316291195e-01 2.4596345741e+00 -4.2602120504e+00 2.4596345741e+00 4.2602120504e+00 
8200 3.1417272090e+00 1.4102653246e-01 2.4567249011e+00 -4.2551723489e+00 2.4567249011e+00 4.2551723489e+00 
8300 3.1415583059e+00 1.3890201233e-01 2.4538552465e+00 -4.2502019613e+00 2.4538552465e+00 4.2502019613e+00 
8400 3.1413824303e+00 1.3679201557e-01 2.4510255099e+00 -4.2453007137e+00 2.4510255099e+00 4.2453007137e+00 
8500 3.1412006707e+00 1.3469901987e-01 2.4482355342e+00 -4.2404683342e+00 2.4482355342e+00 4.2404683342e+00 
8600 3.1410141349e+00 1.3262532051e-01 2.4454851092e+00 -4.2357044583e+00 2.4454851092e+00 4.2357044583e+00 
8700 3.1408239280e+00 1.3057303421e-01 2.4427739746e+00 -4.2310086355e+00 2.4427739746e+00 4.2310086355e+00 
8800 3.1406311336e+00 1.2854410318e-01 2.4401018241e+00 -4.2263803349e+00 2.4401018241e+00 4.2263803349e+00 
8900 3.1404367969e+00 1.2654029921e-01 2.4374683079e+00 -4.2218189511e+00 2.4374683079e+00 4.2218189511e+00 
9000 3.1402419115e+00 1.2456322795e-01 2.4348730369e+00 -4.2173238099e+00 2.4348730369e+00 4.2173238099e+00 
9100 3.1400474078e+00 1.2261433329e-01 2.4323155854e+00 -4.2128941739e+00 2.4323155854e+00 4.2128941739e+00 
9200 3.1398541449e+00 1.2069490195e-01 2.4297954943e+00 -4.2085292482e+00 2.4297954943e+00 4.2085292482e+00 
9300 3.1396629039e+00 1.1880606820e-01 2.4273122747e+00 -4.2042281855e+00 2.4273122747e+00 4.2042281855e+00 
9400 3.1394743839e+00 1.1694881882e-01 2.4248654102e+00 -4.1999900919e+00 2.4248654102e+00 4.1999900919e+00 
9500 3.1392891993e+00 1.1512399810e-01 2.4224543606e+00 -4.1958140315e+00 2.4224543606e+00 4.1958140315e+00 
9600 3.1391078794e+00 1.1333231315e-01 2.4200785643e+00 -4.1916990317e+00 2.4200785643e+00 4.1916990317e+00 
9700 3.1389308691e+00 1.1157433920e-01 2.4177374416e+00 -4.1876440882e+00 2.4177374416e+00 4.1876440882e+00 
9800 3.1387585311e+00 1.0985052518e-01 2.4154303967e+00 -4.1836481692e+00 2.4154303967e+00 4.1836481692e+00 
9900 3.1385911486e+00 1.0816119927e-01 2.4131568211e+00 -4.1797102208e+00 2.4131568211e+00 4.1797102208e+00 
10000 3.1384289299e+00 1.0650657469e-01 2.4109160955e+00 -4.1758291703e+00 2.4109160955e+00 4.1758291703e+00 
10100 3.1382720132e+00 1.0488675545e-01 2.4087075928e+00 -4.1720039313e+00 2.4087075928e+00 4.1720039313e+00 
10200 3.1381204715e+00 1.0330174229e-01 2.4065306797e+00 -4.1682334073e+00 2.4065306797e+00 4.1682334073e+00 
10300 3.1379743185e+00 1.0175143852e-01 2.4043847197e+00 -4.1645164955e+00 2.4043847197e+00 4.1645164955e+00 
10400 3.1378335149e+00 1.0023565601e-01 2.4022690745e+00 -4.1608520904e+00 2.4022690745e+00 4.1608520904e+00 
10500 3.1376979744e+00 9.8754121144e-02 2.4001831063e+00 -4.1572390876e+00 2.4001831063e+00 4.1572390876e+00 
10600 3.1375675698e+00 9.7306480735e-02 2.3981261799e+00 -4.1536763865e+00 2.3981261799e+00 4.1536763865e+00 
10700 3.1374421391e+00 9.5892307939e-02 2.3960976638e+00 -4.1501628937e+00 2.3960976638e+00 4.1501628937e+00 
10800 3.1373214917e+00 9.4511108116e-02 2.3940969326e+00 -4.1466975255e+00 2.3940969326e+00 4.1466975255e+00 
10900 3.1372054139e+00 9.3162324608e-02 2.3921233677e+00 -4.1432792109e+00 2.3921233677e+00 4.1432792109e+00 
11000 3.1370936746e+00 9.1845344446e-02 2.3901763596e+00 -4.1399068938e+00 2.3901763596e+00 4.1399068938e+00 
11100 3.1369860300e+00 9.0559503941e-02 2.3882553082e+00 -4.1365795353e+00 2.3882553082e+00 4.1365795353e+00 
11200 3.1368822287e+00 8.9304094172e-02 2.3863596250e+00 -4.1332961156e+00 2.3863596250e+00 4.1332961156e+00 
11300 3.1367820162e+00 8.8078366317e-02 2.3844887331e+00 -4.1300556359e+00 2.3844887331e+00 4.1300556359e+00 
11400 3.1366851382e+00 8.6881536863e-02 2.3826420692e+00 -4.1268571201e+00 2.3826420692e+00 4.1268571201e+00 
11500 3.1365913446e+00 8.5712792629e-02 2.3808190835e+00 -4.1236996163e+00 2.3808190835e+00 4.1236996163e+00 
11600 3.1365003924e+00 8.4571295637e-02 2.3790192411e+00 -4.1205821978e+00 2.3790192411e+00 4.1205821978e+00 
11700 3.1364120483e+00 8.3456187787e-02 2.3772420222e+00 -4.1175039644e+00 2.3772420222e+00 4.1175039644e+00 
11800 3.1363260906e+00 8.2366595341e-02 2.3754869231e+00 -4.1144640435e+00 2.3754869231e+00 4.1144640435e+00 
11900 3.1362423118e+00 8.1301633210e-02 2.3737534560e+00 -4.1114615904e+00 2.3737534560e+00 4.1114615904e+00 
12000 3.1361605189e+00 8.0260409029e-02 2.3720411499e+00 -4.1084957892e+00 2.3720411499e+00 4.1084957892e+00 
12100 3.1360805352e+00 7.9242027017e-02 2.3703495506e+00 -4.1055658533e+00 2.3703495506e+00 4.1055658533e+00 
12200 3.1360022007e+00 7.8245591622e-02 2.3686782210e+00 -4.1026710255e+00 2.3686782210e+00 4.1026710255e+00 
12300 3.1359253724e+00 7.7270210941e-02 2.3670267410e+00 -4.0998105784e+00 2.3670267410e+00 4.0998105784e+00 
12400 3.1358499245e+00 7.6314999920e-02 2.3653947078e+00 -4.0969838139e+00 2.3653947078e+00 4.0969838139e+00 
12500 3.1357757479e+00 7.5379083320e-02 2.3637817356e+00 -4.0941900641e+00 2.3637817356e+00 4.0941900641e+00 
12600 3.1357027502e+00 7.4461598471e-02 2.3621874555e+00 -4.0914286900e+00 2.3621874555e+00 4.0914286900e+00 
12700 3.1356308546e+00 7.3561697794e-02 2.3606115156e+00 -4.0886990819e+00 2.3606115156e+00 4.0886990819e+00 
12800 3.1355599993e+00 7.2678551105e-02 2.3590535803e+00 -4.0860006588e+00 2.3590535803e+00 4.0860006588e+00 
12900 3.1354901369e+00 7.1811347700e-02 2.3575133304e+00 -4.0833328679e+00 2.3575133304e+00 4.0833328679e+00 
13000 3.1354212326e+00 7.0959298230e-02 2.3559904629e+00 -4.0806951839e+00 2.3559904629e+00 4.0806951839e+00 
13100 3.1353532635e+00 7.0121636364e-02 2.3544846900e+00 -4.0780871087e+00 2.3544846900e+00 4.0780871087e+00 
13200 3.1352862174e+00 6.9297620253e-02 2.3529957391e+00 -4.0755081701e+00 2.3529957391e+00 4.0755081701e+00 
13300 3.1352200915e+00 6.8486533794e-02 2.3515233525e+00 -4.0729579217e+00 2.3515233525e+00 4.0729579217e+00 
13400 3.1351548910e+00 6.7687687712e-02 2.3500672866e+00 -4.0704359415e+00 2.3500672866e+00 4.0704359415e+00 
13500 3.1350906281e+00 6.6900420456e-02 2.3486273114e+00 -4.0679418314e+00 2.3486273114e+00 4.0679418314e+00 
13600 3.1350273203e+00 6.6124098918e-02 2.3472032103e+00 -4.0654752159e+00 2.3472032103e+00 4.0654752159e+00 
13700 3.1349649900e+00 6.5358118999e-02 2.3457947792e+00 -4.0630357417e+00 2.3457947792e+00 4.0630357417e+00 
13800 3.1349036625e+00 6.4601906008e-02 2.3444018260e+00 -4.0606230760e+00 2.3444018260e+00 4.0606230760e+00 
13900 3.1348433653e+00 6.3854914920e-02 2.3430241702e+00 -4.0582369062e+00 2.3430241702e+00 4.0582369062e+00 
14000 3.1347841274e+00 6.3116630493e-02 2.3416616422e+00 -4.0558769384e+00 2.3416616422e+00 4.0558769384e+00 
14100 3.1347259778e+00 6.2386567255e-02 2.3403140826e+00 -4.0535428967e+00 2.3403140826e+00 4.0535428967e+00 
14200 3.1346689452e+00 6.1664269374e-02 2.3389813418e+00 -4.0512345219e+00 2.3389813418e+00 4.0512345219e+00 
14300 3.1346130567e+00 6.0949310412e-02 2.3376632792e+00 -4.0489515706e+00 2.3376632792e+00 4.0489515706e+00 
14400 3.1345583379e+00 6.0241292981e-02 2.3363597630e+00 -4.0466938142e+00 2.3363597630e+00 4.0466938142e+00 
14500 3.1345048115e+00 5.9539848304e-02 2.3350706689e+00 -4.0444610378e+00 2.3350706689e+00 4.0444610378e+00 
14600 3.1344524975e+00 5.8844635682e-02 2.3337958803e+00 -4.0422530392e+00 2.3337958803e+00 4.0422530392e+00 
14700 3.1344014126e+00 5.8155341897e-02 2.3325352873e+00 -4.0400696281e+00 2.3325352873e+00 4.0400696281e+00 
14800 3.1343515700e+00 5.7471680536e-02 2.3312887862e+00 -4.0379106248e+00 2.3312887862e+00 4.0379106248e+00 
14900 3.1343029789e+00 5.6793391251e-02 2.3300562788e+00 -4.0357758593e+00 2.3300562788e+00 4.0357758593e+00 
15000 3.1342556448e+00 5.6120238974e-02 2.3288376722e+00 -4.0336651709e+00 2.3288376722e+00 4.0336651709e+00 
15100 3.1342095694e+00 5.5452013071e-02 2.3276328781e+00 -4.0315784063e+00 2.3276328781e+00 4.0315784063e+00 
15200 3.1341647502e+00 5.4788526465e-02 2.3264418123e+00 -4.0295154197e+00 2.3264418123e+00 4.0295154197e+00 
15300 3.1341211812e+00 5.4129614716e-02 2.3252643940e+00 -4.0274760714e+00 2.3252643940e+00 4.0274760714e+00 
15400 3.1340788525e+00 5.3475135077e-02 2.3241005458e+00 -4.0254602272e+00 2.3241005458e+00 4.0254602272e+00 
15500 3.1340377509e+00 5.2824965519e-02 2.3229501928e+00 -4.0234677573e+00 2.3229501928e+00 4.0234677573e+00 
15600 3.1339978599e+00 5.2179003745e-02 2.3218132624e+00 -4.0214985361e+00 2.3218132624e+00 4.0214985361e+00 
15700 3.1339591600e+00 5.1537166183e-02 2.3206896838e+00 -4.0195524409e+00 2.3206896838e+00 4.0195524409e+00 
15800 3.1339216287e+00 5.0899386973e-02 2.3195793877e+00 -4.0176293516e+00 2.3195793877e+00 4.0176293516e+00 
15900 3.1338852416e+00 5.0265616948e-02 2.3184823057e+00 -4.0157291500e+00 2.3184823057e+00 4.0157291500e+00 
16000 3.1338499718e+00 4.9635822612e-02 2.3173983704e+00 -4.0138517189e+00 2.3173983704e+00 4.0138517189e+00 
16100 3.1338157906e+00 4.9009985123e-02 2.3163275144e+00 -4.0119969420e+00 2.3163275144e+00 4.0119969420e+00 
16200 3.1337826680e+00 4.8388099278e-02 2.3152696707e+00 -4.0101647028e+00 2.3152696707e+00 4.0101647028e+00 
16300 3.1337505727e+00 4.7770172510e-02 2.3142247717e+00 -4.0083548847e+00 2.3142247717e+00 4.0083548847e+00 
16400 3.1337194725e+00 4.7156223894e-02 2.3131927496e+00 -4.0065673701e+00 2.3131927496e+00 4.0065673701e+00 
16500 3.1336893346e+00 4.6546283170e-02 2.3121735358e+00 -4.0048020400e+00 2.3121735358e+00 4.0048020400e+00 
16600 3.1336601261e+00 4.5940389780e-02 2.3111670607e+00 -4.0030587739e+00 2.3111670607e+00 4.0030587739e+00 
16700 3.1336318137e+00 4.5338591926e-02 2.3101732533e+00 -4.0013374491e+00 2.3101732533e+00 4.0013374491e+00 
16800 3.1336043647e+00 4.4740945650e-02 2.3091920416e+00 -3.9996379405e+00 2.3091920416e+00 3.9996379405e+00 
16900 3.1335777464e+00 4.4147513934e-02 2.3082233518e+00 -3.9979601206e+00 2.3082233518e+00 3.9979601206e+00 
17000 3.1335519270e+00 4.3558365826e-02 2.3072671085e+00 -3.9963038585e+00 2.3072671085e+00 3.9963038585e+00 
17100 3.1335268753e+00 4.2973575596e-02 2.3063232344e+00 -3.9946690206e+00 2.3063232344e+00 3.9946690206e+00 
17200 3.1335025612e+00 4.2393221915e-02 2.3053916502e+00 -3.9930554696e+00 2.3053916502e+00 3.9930554696e+00 
17300 3.1334789554e+00 4.1817387065e-02 2.3044722749e+00 -3.9914630648e+00 2.3044722749e+00 3.9914630648e+00 
17400 3.1334560299e+00 4.1246156181e-02 2.3035650251e+00 -3.9898916620e+00 2.3035650251e+00 3.9898916620e+00 
17500 3.1334337579e+00 4.0679616519e-02 2.3026698152e+00 -3.9883411130e+00 2.3026698152e+00 3.9883411130e+00 
17600 3.1334121140e+00 4.0117856766e-02 2.3017865576e+00 -3.9868112659e+00 2.3017865576e+00 3.9868112659e+00 
17700 3.1333910739e+00 3.9560966369e-02 2.3009151622e+00 -3.9853019648e+00 2.3009151622e+00 3.9853019648e+00 
17800 3.1333706148e+00 3.9009034912e-02 2.3000555368e+00 -3.9838130499e+00 2.3000555368e+00 3.9838130499e+00 
17900 3.1333507151e+00 3.8462151515e-02 2.2992075869e+00 -3.9823443576e+00 2.2992075869e+00 3.9823443576e+00 
18000 3.1333313547e+00 3.7920404277e-02 2.2983712157e+00 -3.9808957203e+00 2.2983712157e+00 3.9808957203e+00 
18100 3.1333125147e+00 3.7383879745e-02 2.2975463243e+00 -3.9794669664e+00 2.2975463243e+00 3.9794669664e+00 
18200 3.1332941774e+00 3.6852662423e-02 2.2967328113e+00 -3.9780579207e+00 2.2967328113e+00 3.9780579207e+00 
18300 3.1332763266e+00 3.6326834315e-02 2.2959305736e+00 -3.9766684041e+00 2.2959305736e+00 3.9766684041e+00 
18400 3.1332589468e+00 3.5806474500e-02 2.2951395055e+00 -3.9752982340e+00 2.2951395055e+00 3.9752982340e+00 
18500 3.1332420241e+00 3.5291658745e-02 2.2943594996e+00 -3.9739472242e+00 2.2943594996e+00 3.9739472242e+00 
18600 3.1332255451e+00 3.4782459151e-02 2.2935904465e+00 -3.9726151851e+00 2.2935904465e+00 3.9726151851e+00 
18700 3.1332094977e+00 3.4278943828e-02 2.2928322348e+00 -3.9713019240e+00 2.2928322348e+00 3.9713019240e+00 
18800 3.1331938706e+00 3.3781176613e-02 2.2920847514e+00 -3.9700072447e+00 2.2920847514e+00 3.9700072447e+00 
18900 3.1331786532e+00 3.3289216807e-02 2.2913478815e+00 -3.9687309486e+00 2.2913478815e+00 3.9687309486e+00 
19000 3.1331638356e+00 3.2803118960e-02 2.2906215087e+00 -3.9674728339e+00 2.2906215087e+00 3.9674728339e+00 
19100 3.1331494088e+00 3.2322932671e-02 2.2899055150e+00 -3.9662326966e+00 2.2899055150e+00 3.9662326966e+00 
19200 3.1331353639e+00 3.1848702431e-02 2.2891997813e+00 -3.9650103299e+00 2.2891997813e+00 3.9650103299e+00 
19300 3.1331216928e+00 3.1380467489e-02 2.2885041869e+00 -3.9638055251e+00 2.2885041869e+00 3.9638055251e+00 
19400 3.1331083879e+00 3.0918261746e-02 2.2878186103e+00 -3.9626180715e+00 2.2878186103e+00 3.9626180715e+00 
19500 3.1330954416e+00 3.0462113679e-02 2.2871429287e+00 -3.9614477566e+00 2.2871429287e+00 3.9614477566e+00 
19600 3.1330828469e+00 3.0012046292e-02 2.2864770185e+00 -3.9602943664e+00 2.2864770185e+00 3.9602943664e+00 
19700 3.1330705969e+00 2.9568077087e-02 2.2858207554e+00 -3.9591576853e+00 2.2858207554e+00 3.9591576853e+00 
19800 3.1330586850e+00 2.9130218066e-02 2.2851740143e+00 -3.9580374970e+00 2.2851740143e+00 3.9580374970e+00 
19900 3.1330471046e+00 2.8698475750e-02 2.2845366698e+00 -3.9569335839e+00 2.2845366698e+00 3.9569335839e+00 
20000 3.1330358493e+00 2.8272851223e-02 2.2839085958e+00 -3.9558457278e+00 2.2839085958e+00 3.9558457278e+00 
20100 3.1330249128e+00 2.7853340191e-02 2.2832896662e+00 -3.9547737103e+00 2.2832896662e+00 3.9547737103e+00 
20200 3.1330142887e+00 2.7439933071e-02 2.2826797546e+00 -3.9537173123e+00 2.2826797546e+00 3.9537173123e+00 
20300 3.1330039708e+00 2.7032615085e-02 2.2820787344e+00 -3.9526763149e+00 2.2820787344e+00 3.9526763149e+00 
20400 3.1329939528e+00 2.6631366378e-02 2.2814864796e+00 -3.9516504994e+00 2.2814864796e+00 3.9516504994e+00 
20500 3.1329842284e+00 2.6236162147e-02 2.2809028638e+00 -3.9506396472e+00 2.2809028638e+00 3.9506396472e+00 
20600 3.1329747913e+00 2.5846972789e-02 2.2803277613e+00 -3.9496435404e+00 2.2803277613e+00 3.9496435404e+00 
20700 3.1329656352e+00 2.5463764059e-02 2.2797610466e+00 -3.9486619619e+00 2.2797610466e+00 3.9486619619e+00 
20800 3.1329567537e+00 2.5086497233e-02 2.2792025950e+00 -3.9476946953e+00 2.2792025950e+00 3.9476946953e+00 
20900 3.1329481404e+00 2.4715129293e-02 2.2786522822e+00 -3.9467415256e+00 2.2786522822e+00 3.9467415256e+00 
21000 3.1329397890e+00 2.4349613110e-02 2.2781099847e+00 -3.9458022388e+00 2.2781099847e+00 3.9458022388e+00 
21100 3.1329316929e+00 2.3989897642e-02 2.2775755799e+00 -3.9448766224e+00 2.2775755799e+00 3.9448766224e+00 
21200 3.1329238458e+00 2.3635928133e-02 2.2770489459e+00 -3.9439644656e+00 2.2770489459e+00 3.9439644656e+00 
21300 3.1329162413e+00 2.3287646324e-02 2.2765299621e+00 -3.9430655593e+00 2.2765299621e+00 3.9430655593e+00 
21400 3.1329088728e+00 2.2944990657e-02 2.2760185088e+00 -3.9421796963e+00 2.2760185088e+00 3.9421796963e+00 
21500 3.1329017340e+00 2.2607896497e-02 2.2755144676e+00 -3.9413066713e+00 2.2755144676e+00 3.9413066713e+00 
21600 3.1328948185e+00 2.2276296343e-02 2.2750177212e+00 -3.9404462812e+00 2.2750177212e+00 3.9404462812e+00 
21700 3.1328881199e+00 2.1950120045e-02 2.2745281536e+00 -3.9395983253e+00 2.2745281536e+00 3.9395983253e+00 
21800 3.1328816320e+00 2.1629295029e-02 2.2740456504e+00 -3.9387626052e+00 2.2740456504e+00 3.9387626052e+00 
21900 3.1328753487e+00 2.1313746505e-02 2.2735700984e+00 -3.9379389249e+00 2.2735700984e+00 3.9379389249e+00 
22000 3.1328692636e+00 2.1003397690e-02 2.2731013859e+00 -3.9371270911e+00 2.2731013859e+00 3.9371270911e+00 
22100 3.1328633710e+00 2.0698170018e-02 2.2726394028e+00 -3.9363269130e+00 2.2726394028e+00 3.9363269130e+00 
22200 3.1328576647e+00 2.0397983352e-02 2.2721840407e+00 -3.9355382026e+00 2.2721840407e+00 3.9355382026e+00 
22300 3.1328521391e+00 2.0102756191e-02 2.2717351925e+00 -3.9347607748e+00 2.2717351925e+00 3.9347607748e+00 
22400 3.1328467884e+00 1.9812405876e-02 2.2712927531e+00 -3.9339944473e+00 2.2712927531e+00 3.9339944473e+00 
22500 3.1328416070e+00 1.9526848783e-02 2.2708566189e+00 -3.9332390406e+00 2.2708566189e+00 3.9332390406e+00 
22600 3.1328365896e+00 1.9246000522e-02 2.2704266879e+00 -3.9324943783e+00 2.2704266879e+00 3.9324943783e+00 
22700 3.1328317309e+00 1.8969776122e-02 2.2700028600e+00 -3.9317602869e+00 2.2700028600e+00 3.9317602869e+00 
22800 3.1328270258e+00 1.8698090214e-02 2.2695850369e+00 -3.9310365960e+00 2.2695850369e+00 3.9310365960e+00 
22900 3.1328224693e+00 1.8430857204e-02 2.2691731219e+00 -3.9303231382e+00 2.2691731219e+00 3.9303231382e+00 
23000 3.1328180566e+00 1.8167991441e-02 2.2687670200e+00 -3.9296197492e+00 2.2687670200e+00 3.9296197492e+00 
23100 3.1328137831e+00 1.7909407385e-02 2.2683666383e+00 -3.9289262677e+00 2.2683666383e+00 3.9289262677e+00 
23200 3.1328096442e+00 1.7655019751e-02 2.2679718854e+00 -3.9282425356e+00 2.2679718854e+00 3.9282425356e+00 
23300 3.1328056356e+00 1.7404743664e-02 2.2675826717e+00 -3.9275683977e+00 2.2675826717e+00 3.9275683977e+00 
23400 3.1328017531e+00 1.7158494794e-02 2.2671989094e+00 -3.9269037020e+00 2.2671989094e+00 3.9269037020e+00 
23500 3.1327979928e+00 1.6916189485e-02 2.2668205126e+00 -3.9262482994e+00 2.2668205126e+00 3.9262482994e+00 
23600 3.1327943506e+00 1.6677744886e-02 2.2664473969e+00 -3.9256020441e+00 2.2664473969e+00 3.9256020441e+00 
23700 3.1327908230e+00 1.6443079059e-02 2.2660794798e+00 -3.9249647931e+00 2.2660794798e+00 3.9249647931e+00 
23800 3.1327874063e+00 1.6212111089e-02 2.2657166806e+00 -3.9243364063e+00 2.2657166806e+00 3.9243364063e+00 
23900 3.1327840971e+00 1.5984761185e-02 2.2653589199e+00 -3.9237167467e+00 2.2653589199e+00 3.9237167467e+00 
24000 3.1327808920e+00 1.5760950772e-02 2.2650061205e+00 -3.9231056802e+00 2.2650061205e+00 3.9231056802e+00 
24100 3.1327777879e+00 1.5540602573e-02 2.2646582065e+00 -3.9225030754e+00 2.2646582065e+00 3.9225030754e+00 
24200 3.1327747817e+00 1.5323640687e-02 2.2643151037e+00 -3.9219088040e+00 2.2643151037e+00 3.9219088040e+00 
24300 3.1327718706e+00 1.5109990659e-02 2.2639767396e+00 -3.9213227402e+00 2.2639767396e+00 3.9213227402e+00 
24400 3.1327690515e+00 1.4899579540e-02 2.2636430432e+00 -3.9207447610e+00 2.2636430432e+00 3.9207447610e+00 
24500 3.1327663220e+00 1.4692335941e-02 2.2633139450e+00 -3.9201747461e+00 2.2633139450e+00 3.9201747461e+00 
24600 3.1327636792e+00 1.4488190083e-02 2.2629893770e+00 -3.9196125779e+00 2.2629893770e+00 3.9196125779e+00 
24700 3.1327611207e+00 1.4287073838e-02 2.2626692728e+00 -3.9190581412e+00 2.2626692728e+00 3.9190581412e+00 
24800 3.1327586442e+00 1.4088920757e-02 2.2623535673e+00 -3.9185113232e+00 2.2623535673e+00 3.9185113232e+00 
24900 3.1327562471e+00 1.3893666104e-02 2.2620421969e+00 -3.9179720139e+00 2.2620421969e+00 3.9179720139e+00 
25000 3.1327539273e+00 1.3701246877e-02 2.2617350994e+00 -3.9174401054e+00 2.2617350994e+00 3.9174401054e+00 
25100 3.1327516825e+00 1.3511601819e-02 2.2614322138e+00 -3.9169154921e+00 2.2614322138e+00 3.9169154921e+00 
25200 3.1327495107e+00 1.3324671431e-02 2.2611334804e+00 -3.9163980708e+00 2.2611334804e+00 3.9163980708e+00 
25300 3.1327474098e+00 1.3140397979e-02 2.2608388410e+00 -3.9158877403e+00 2.2608388410e+00 3.9158877403e+00 
25400 3.1327453777e+00 1.2958725487e-02 2.2605482383e+00 -3.9153844017e+00 2.2605482383e+00 3.9153844017e+00 
25500 3.1327434126e+00 1.2779599737e-02 2.2602616164e+00 -3.9148879580e+00 2.2602616164e+00 3.9148879580e+00 
25600 3.1327415126e+00 1.2602968257e-02 2.2599789205e+00 -3.9143983144e+00 2.2599789205e+00 3.9143983144e+00 
25700 3.1327396758e+00 1.2428780303e-02 2.2597000969e+00 -3.9139153778e+00 2.2597000969e+00 3.9139153778e+00 
25800 3.1327379004e+00 1.2256986849e-02 2.2594250930e+00 -3.9134390570e+00 2.2594250930e+00 3.9134390570e+00 
25900 3.1327361848e+00 1.2087540555e-02 2.2591538572e+00 -3.9129692627e+00 2.2591538572e+00 3.9129692627e+00 
26000 3.1327345271e+00 1.1920395749e-02 2.2588863388e+00 -3.9125059073e+00 2.2588863388e+00 3.9125059073e+00 
26100 3.1327329259e+00 1.1755508391e-02 2.2586224884e+00 -3.9120489049e+00 2.2586224884e+00 3.9120489049e+00 
26200 3.1327313793e+00 1.1592836048e-02 2.2583622571e+00 -3.9115981712e+00 2.2583622571e+00 3.9115981712e+00 
26300 3.1327298859e+00 1.1432337853e-02 2.2581055973e+00 -3.9111536234e+00 2.2581055973e+00 3.9111536234e+00 
26400 3.1327284442e+00 1.1273974472e-02 2.2578524620e+00 -3.9107151802e+00 2.2578524620e+00 3.9107151802e+00 
26500 3.1327270526e+00 1.1117708064e-02 2.2576028052e+00 -3.9102827619e+00 2.2576028052e+00 3.9102827619e+00 
26600 3.1327257096e+00 1.0963502235e-02 2.2573565815e+00 -3.9098562899e+00 2.2573565815e+00 3.9098562899e+00 
26700 3.1327244138e+00 1.0811322002e-02 2.2571137464e+00 -3.9094356873e+00 2.2571137464e+00 3.9094356873e+00 
26800 3.1327231639e+00 1.0661133744e-02 2.2568742563e+00 -3.9090208782e+00 2.2568742563e+00 3.9090208782e+00 
26900 3.1327219583e+00 1.0512905157e-02 2.2566380679e+00 -3.9086117879e+00 2.2566380679e+00 3.9086117879e+00 
27000 3.1327207959e+00 1.0366605205e-02 2.2564051390e+00 -3.9082083433e+00 2.2564051390e+00 3.9082083433e+00 
27100 3.1327196752e+00 1.0222204077e-02 2.2561754279e+00 -3.9078104718e+00 2.2561754279e+00 3.9078104718e+00 
27200 3.1327185950e+00 1.0079673136e-02 2.2559488933e+00 -3.9074181025e+00 2.2559488933e+00 3.9074181025e+00 
27300 3.1327175540e+00 9.9389848676e-03 2.2557254949e+00 -3.9070311652e+00 2.2557254949e+00 3.9070311652e+00 
27400 3.1327165511e+00 9.8001128351e-03 2.2555051928e+00 -3.9066495907e+00 2.2555051928e+00 3.9066495907e+00 
27500 3.1327155850e+00 9.6630316283e-03 2.2552879476e+00 -3.9062733109e+00 2.2552879476e+00 3.9062733109e+00 
27600 3.1327146546e+00 9.5277168143e-03 2.2550737204e+00 -3.9059022585e+00 2.2550737204e+00 3.9059022585e+00 
27700 3.1327137587e+00 9.3941448895e-03 2.2548624730e+00 -3.9055363674e+00 2.2548624730e+00 3.9055363674e+00 
27800 3.1327128962e+00 9.2622932300e-03 2.2546541676e+00 -3.9051755718e+00 2.2546541676e+00 3.9051755718e+00 
27900 3.1327120662e+00 9.1321400449e-03 2.2544487669e+00 -3.9048198073e+00 2.2544487669e+00 3.9048198073e+00 
28000 3.1327112674e+00 9.0036643278e-03 2.2542462339e+00 -3.9044690100e+00 2.2542462339e+00 3.9044690100e+00 
28100 3.1327104990e+00 8.8768458114e-03 2.2540465324e+00 -3.9041231167e+00 2.2540465324e+00 3.9041231167e+00 
28200 3.1327097599e+00 8.7516649211e-03 2.2538496261e+00 -3.9037820650e+00 2.2538496261e+00 3.9037820650e+00 
28300 3.1327090492e+00 8.6281027307e-03 2.2536554796e+00 -3.9034457935e+00 2.2536554796e+00 3.9034457935e+00 
28400 3.1327083659e+00 8.5061409189e-03 2.2534640577e+00 -3.9031142410e+00 2.2534640577e+00 3.9031142410e+00 
28500 3.1327077091e+00 8.3857617269e-03 2.2532753256e+00 -3.9027873473e+00 2.2532753256e+00 3.9027873473e+00 
28600 3.1327070780e+00 8.2669479173e-03 2.2530892488e+00 -3.9024650528e+00 2.2530892488e+00 3.9024650528e+00 
28700 3.1327064718e+00 8.1496827342e-03 2.2529057932e+00 -3.9021472985e+00 2.2529057932e+00 3.9021472985e+00 
28800 3.1327058895e+00 8.0339498651e-03 2.2527249251e+00 -3.9018340258e+00 2.2527249251e+00 3.9018340258e+00 
28900 3.1327053305e+00 7.9197334037e-03 2.2525466112e+00 -3.9015251770e+00 2.2525466112e+00 3.9015251770e+00 
29000 3.1327047938e+00 7.8070178145e-03 2.2523708184e+00 -3.9012206950e+00 2.2523708184e+00 3.9012206950e+00 
29100 3.1327042789e+00 7.6957878987e-03 2.2521975139e+00 -3.9009205228e+00 2.2521975139e+00 3.9009205228e+00 
29200 3.1327037849e+00 7.5860287618e-03 2.2520266655e+00 -3.9006246046e+00 2.2520266655e+00 3.9006246046e+00 
29300 3.1327033112e+00 7.4777257832e-03 2.2518582409e+00 -3.9003328846e+00 2.2518582409e+00 3.9003328846e+00 
29400 3.1327028571e+00 7.3708645861e-03 2.2516922083e+00 -3.9000453078e+00 2.2516922083e+00 3.9000453078e+00 
29500 3.1327024220e+00 7.2654310105e-03 2.2515285364e+00 -3.8997618198e+00 2.2515285364e+00 3.8997618198e+00 
29600 3.1327020051e+00 7.1614110867e-03 2.2513671939e+00 -3.8994823664e+00 2.2513671939e+00 3.8994823664e+00 
29700 3.1327016060e+00 7.0587910111e-03 2.2512081500e+00 -3.8992068942e+00 2.2512081500e+00 3.8992068942e+00 
29800 3.1327012240e+00 6.9575571231e-03 2.2510513740e+00 -3.8989353502e+00 2.2510513740e+00 3.8989353502e+00 
29900 3.1327008585e+00 6.8576958839e-03 2.2508968356e+00 -3.8986676818e+00 2.2508968356e+00 3.8986676818e+00 
30000 3.1327005089e+00 6.7591938566e-03 2.2507445048e+00 -3.8984038371e+00 2.2507445048e+00 3.8984038371e+00 
30100 3.1327001749e+00 6.6620376881e-03 2.2505943518e+00 -3.8981437646e+00 2.2505943518e+00 3.8981437646e+00 
30200 3.1326998558e+00 6.5662140921e-03 2.2504463472e+00 -3.8978874131e+00 2.2504463472e+00 3.8978874131e+00 
30300 3.1326995511e+00 6.4717098344e-03 2.2503004619e+00 -3.8976347323e+00 2.2503004619e+00 3.8976347323e+00 
30400 3.1326992603e+00 6.3785117186e-03 2.2501566669e+00 -3.8973856720e+00 2.2501566669e+00 3.8973856720e+00 
30500 3.1326989831e+00 6.2866065738e-03 2.2500149335e+00 -3.8971401826e+00 2.2500149335e+00 3.8971401826e+00 
30600 3.1326987188e+00 6.1959812438e-03 2.2498752335e+00 -3.8968982151e+00 2.2498752335e+00 3.8968982151e+00 
30700 3.1326984672e+00 6.1066225772e-03 2.2497375388e+00 -3.8966597209e+00 2.2497375388e+00 3.8966597209e+00 
30800 3.1326982277e+00 6.0185174189e-03 2.2496018216e+00 -3.8964246518e+00 2.2496018216e+00 3.8964246518e+00 
30900 3.1326980000e+00 5.9316526034e-03 2.2494680544e+00 -3.8961929603e+00 2.2494680544e+00 3.8961929603e+00 
31000 3.1326977837e+00 5.8460149482e-03 2.2493362101e+00 -3.8959645991e+00 2.2493362101e+00 3.8959645991e+00 
31100 3.1326975783e+00 5.7615912493e-03 2.2492062615e+00 -3.8957395217e+00 2.2492062615e+00 3.8957395217e+00 
31200 3.1326973835e+00 5.6783682773e-03 2.2490781822e+00 -3.8955176818e+00 2.2490781822e+00 3.8955176818e+00 
31300 3.1326971990e+00 5.5963327746e-03 2.2489519457e+00 -3.8952990337e+00 2.2489519457e+00 3.8952990337e+00 
31400 3.1326970243e+00 5.5154714537e-03 2.2488275259e+00 -3.8950835324e+00 2.2488275259e+00 3.8950835324e+00 
31500 3.1326968592e+00 5.4357709965e-03 2.2487048971e+00 -3.8948711330e+00 2.2487048971e+00 3.8948711330e+00 
31600 3.1326967033e+00 5.3572180540e-03 2.2485840337e+00 -3.8946617915e+00 2.2485840337e+00 3.8946617915e+00 
31700 3.1326965563e+00 5.2797992470e-03 2.2484649105e+00 -3.8944554640e+00 2.2484649105e+00 3.8944554640e+00 
31800 3.1326964178e+00 5.2035011684e-03 2.2483475026e+00 -3.8942521075e+00 2.2483475026e+00 3.8942521075e+00 
31900 3.1326962877e+00 5.1283103846e-03 2.2482317852e+00 -3.8940516792e+00 2.2482317852e+00 3.8940516792e+00 
32000 3.1326961655e+00 5.0542134388e-03 2.2481177341e+00 -3.8938541368e+00 2.2481177341e+00 3.8938541368e+00 
32100 3.1326960510e+00 4.9811968547e-03 2.2480053251e+00 -3.8936594388e+00 2.2480053251e+00 3.8936594388e+00 
32200 3.1326959440e+00 4.9092471403e-03 2.2478945346e+00 -3.8934675439e+00 2.2478945346e+00 3.8934675439e+00 
32300 3.1326958441e+00 4.8383507922e-03 2.2477853389e+00 -3.8932784115e+00 2.2477853389e+00 3.8932784115e+00 
32400 3.1326957511e+00 4.7684943012e-03 2.2476777149e+00 -3.8930920012e+00 2.2476777149e+00 3.8930920012e+00 
32500 3.1326956647e+00 4.6996641571e-03 2.2475716397e+00 -3.8929082736e+00 2.2475716397e+00 3.8929082736e+00 
32600 3.1326955848e+00 4.6318468546e-03 2.2474670907e+00 -3.8927271894e+00 2.2474670907e+00 3.8927271894e+00 
32700 3.1326955110e+00 4.5650288993e-03 2.2473640456e+00 -3.8925487100e+00 2.2473640456e+00 3.8925487100e+00 
32800 3.1326954432e+00 4.4991968140e-03 2.2472624822e+00 -3.8923727972e+00 2.2472624822e+00 3.8923727972e+00 
32900 3.1326953810e+00 4.4343371449e-03 2.2471623790e+00 -3.8921994134e+00 2.2471623790e+00 3.8921994134e+00 
33000 3.1326953244e+00 4.3704364684e-03 2.2470637145e+00 -3.8920285214e+00 2.2470637145e+00 3.8920285214e+00 
33100 3.1326952731e+00 4.3074813980e-03 2.2469664675e+00 -3.8918600846e+00 2.2469664675e+00 3.8918600846e+00 
33200 3.1326952268e+00 4.2454585904e-03 2.2468706171e+00 -3.8916940669e+00 2.2468706171e+00 3.8916940669e+00 
33300 3.1326951854e+00 4.1843547532e-03 2.2467761429e+00 -3.8915304327e+00 2.2467761429e+00 3.8915304327e+00 
33400 3.1326951487e+00 4.1241566511e-03 2.2466830244e+00 -3.8913691468e+00 2.2466830244e+00 3.8913691468e+00 
33500 3.1326951165e+00 4.0648511133e-03 2.2465912418e+00 -3.8912101747e+00 2.2465912418e+00 3.8912101747e+00 
33600 3.1326950887e+00 4.0064250396e-03 2.2465007753e+00 -3.8910534821e+00 2.2465007753e+00 3.8910534821e+00 
33700 3.1326950650e+00 3.9488654077e-03 2.2464116056e+00 -3.8908990356e+00 2.2464116056e+00 3.8908990356e+00 
33800 3.1326950453e+00 3.8921592796e-03 2.2463237134e+00 -3.8907468019e+00 2.2463237134e+00 3.8907468019e+00 
33900 3.1326950294e+00 3.8362938077e-03 2.2462370800e+00 -3.8905967484e+00 2.2462370800e+00 3.8905967484e+00 
34000 3.1326950172e+00 3.7812562417e-03 2.2461516868e+00 -3.8904488430e+00 2.2461516868e+00 3.8904488430e+00 
34100 3.1326950085e+00 3.7270339342e-03 2.2460675154e+00 -3.8903030539e+00 2.2460675154e+00 3.8903030539e+00 
34200 3.1326950032e+00 3.6736143468e-03 2.2459845479e+00 -3.8901593500e+00 2.2459845479e+00 3.8901593500e+00 
34300 3.1326950011e+00 3.6209850559e-03 2.2459027666e+00 -3.8900177006e+00 2.2459027666e+00 3.8900177006e+00 
34400 3.1326950021e+00 3.5691337579e-03 2.2458221539e+00 -3.8898780754e+00 2.2458221539e+00 3.8898780754e+00 
34500 3.1326950060e+00 3.5180482747e-03 2.2457426928e+00 -3.8897404446e+00 2.2457426928e+00 3.8897404446e+00 
34600 3.1326950128e+00 3.4677165585e-03 2.2456643662e+00 -3.8896047790e+00 2.2456643662e+00 3.8896047790e+00 
34700 3.1326950223e+00 3.4181266963e-03 2.2455871575e+00 -3.8894710496e+00 2.2455871575e+00 3.8894710496e+00 
34800 3.1326950344e+00 3.3692669147e-03 2.2455110503e+00 -3.8893392280e+00 2.2455110503e+00 3.8893392280e+00 
34900 3.1326950489e+00 3.3211255836e-03 2.2454360284e+00 -3.8892092864e+00 2.2454360284e+00 3.8892092864e+00 
35000 3.1326950658e+00 3.2736912202e-03 2.2453620760e+00 -3.8890811971e+00 2.2453620760e+00 3.8890811971e+00 
35100 3.1326950849e+00 3.2269524929e-03 2.2452891775e+00 -3.8889549330e+00 2.2452891775e+00 3.8889549330e+00 
35200 3.1326951062e+00 3.1808982235e-03 2.2452173173e+00 -3.8888304677e+00 2.2452173173e+00 3.8888304677e+00 
35300 3.1326951295e+00 3.1355173914e-03 2.2451464805e+00 -3.8887077747e+00 2.2451464805e+00 3.8887077747e+00 
35400 3.1326951548e+00 3.0907991351e-03 2.2450766521e+00 -3.8885868283e+00 2.2450766521e+00 3.8885868283e+00 
35500 3.1326951819e+00 3.0467327553e-03 2.2450078174e+00 -3.8884676031e+00 2.2450078174e+00 3.8884676031e+00 
35600 3.1326952108e+00 3.0033077162e-03 2.2449399620e+00 -3.8883500741e+00 2.2449399620e+00 3.8883500741e+00 
35700 3.1326952414e+00 2.9605136480e-03 2.2448730717e+00 -3.8882342168e+00 2.2448730717e+00 3.8882342168e+00 
35800 3.1326952735e+00 2.9183403476e-03 2.2448071326e+00 -3.8881200069e+00 2.2448071326e+00 3.8881200069e+00 
35900 3.1326953072e+00 2.8767777801e-03 2.2447421309e+00 -3.8880074206e+00 2.2447421309e+00 3.8880074206e+00 
36000 3.1326953423e+00 2.8358160797e-03 2.2446780531e+00 -3.8878964345e+00 2.2446780531e+00 3.8878964345e+00 
36100 3.1326953787e+00 2.7954455499e-03 2.2446148858e+00 -3.8877870256e+00 2.2446148858e+00 3.8877870256e+00 
36200 3.1326954165e+00 2.7556566643e-03 2.2445526160e+00 -3.8876791713e+00 2.2445526160e+00 3.8876791713e+00 
36300 3.1326954554e+00 2.7164400660e-03 2.2444912309e+00 -3.8875728491e+00 2.2444912309e+00 3.8875728491e+00 
36400 3.1326954955e+00 2.6777865679e-03 2.2444307177e+00 -3.8874680371e+00 2.2444307177e+00 3.8874680371e+00 
36500 3.1326955367e+00 2.6396871521e-03 2.2443710639e+00 -3.8873647137e+00 2.2443710639e+00 3.8873647137e+00 
36600 3.1326955789e+00 2.6021329692e-03 2.2443122573e+00 -3.8872628578e+00 2.2443122573e+00 3.8872628578e+00 
36700 3.1326956221e+00 2.5651153369e-03 2.2442542859e+00 -3.8871624482e+00 2.2442542859e+00 3.8871624482e+00 
36800 3.1326956661e+00 2.5286257399e-03 2.2441971376e+00 -3.8870634645e+00 2.2441971376e+00 3.8870634645e+00 
36900 3.1326957110e+00 2.4926558274e-03 2.2441408009e+00 -3.8869658864e+00 2.2441408009e+00 3.8869658864e+00 
37000 3.1326957567e+00 2.4571974122e-03 2.2440852641e+00 -3.8868696940e+00 2.2440852641e+00 3.8868696940e+00 
37100 3.1326958031e+00 2.4222424690e-03 2.2440305160e+00 -3.8867748675e+00 2.2440305160e+00 3.8867748675e+00 
37200 3.1326958502e+00 2.3877831323e-03 2.2439765454e+00 -3.8866813877e+00 2.2439765454e+00 3.8866813877e+00 
37300 3.1326958980e+00 2.3538116943e-03 2.2439233414e+00 -3.8865892355e+00 2.2439233414e+00 3.8865892355e+00 
37400 3.1326959463e+00 2.3203206027e-03 2.2438708930e+00 -3.8864983923e+00 2.2438708930e+00 3.8864983923e+00 
37500 3.1326959952e+00 2.2873024586e-03 2.2438191897e+00 -3.8864088395e+00 2.2438191897e+00 3.8864088395e+00 
37600 3.1326960446e+00 2.2547500138e-03 2.2437682209e+00 -3.8863205590e+00 2.2437682209e+00 3.8863205590e+00 
37700 3.1326960945e+00 2.2226561682e-03 2.2437179764e+00 -3.8862335330e+00 2.2437179764e+00 3.8862335330e+00 
37800 3.1326961448e+00 2.1910139673e-03 2.2436684459e+00 -3.8861477437e+00 2.2436684459e+00 3.8861477437e+00 
37900 3.1326961954e+00 2.1598165993e-03 2.2436196195e+00 -3.8860631738e+00 2.2436196195e+00 3.8860631738e+00 
38000 3.1326962465e+00 2.1290573920e-03 2.2435714873e+00 -3.8859798063e+00 2.2435714873e+00 3.8859798063e+00 
38100 3.1326962978e+00 2.0987298103e-03 2.2435240395e+00 -3.8858976244e+00 2.2435240395e+00 3.8858976244e+00 
38200 3.1326963494e+00 2.0688274528e-03 2.2434772666e+00 -3.8858166113e+00 2.2434772666e+00 3.8858166113e+00 
38300 3.1326964012e+00 2.0393440492e-03 2.2434311591e+00 -3.8857367509e+00 2.2434311591e+00 3.8857367509e+00 
38400 3.1326964533e+00 2.0102734567e-03 2.2433857078e+00 -3.8856580269e+00 2.2433857078e+00 3.8856580269e+00 
38500 3.1326965055e+00 1.9816096571e-03 2.2433409035e+00 -3.8855804236e+00 2.2433409035e+00 3.8855804236e+00 
38600 3.1326965579e+00 1.9533467537e-03 2.2432967372e+00 -3.8855039252e+00 2.2432967372e+00 3.8855039252e+00 
38700 3.1326966105e+00 1.9254789682e-03 2.2432531999e+00 -3.8854285165e+00 2.2432531999e+00 3.8854285165e+00 
38800 3.1326966631e+00 1.8980006374e-03 2.2432102829e+00 -3.8853541821e+00 2.2432102829e+00 3.8853541821e+00 
38900 3.1326967158e+00 1.8709062098e-03 2.2431679776e+00 -3.8852809071e+00 2.2431679776e+00 3.8852809071e+00 
39000 3.1326967685e+00 1.8441902429e-03 2.2431262754e+00 -3.8852086768e+00 2.2431262754e+00 3.8852086768e+00 
39100 3.1326968213e+00 1.8178473999e-03 2.2430851679e+00 -3.8851374766e+00 2.2430851679e+00 3.8851374766e+00 
39200 3.1326968741e+00 1.7918724465e-03 2.2430446469e+00 -3.8850672921e+00 2.2430446469e+00 3.8850672921e+00 
39300 3.1326969269e+00 1.7662602477e-03 2.2430047042e+00 -3.8849981093e+00 2.2430047042e+00 3.8849981093e+00 
39400 3.1326969796e+00 1.7410057651e-03 2.2429653317e+00 -3.8849299141e+00 2.2429653317e+00 3.8849299141e+00 
39500 3.1326970322e+00 1.7161040536e-03 2.2429265214e+00 -3.8848626927e+00 2.2429265214e+00 3.8848626927e+00 
39600 3.1326970848e+00 1.6915502586e-03 2.2428882656e+00 -3.8847964317e+00 2.2428882656e+00 3.8847964317e+00 
39700 3.1326971373e+00 1.6673396129e-03 2.2428505565e+00 -3.8847311177e+00 2.2428505565e+00 3.8847311177e+00 
39800 3.1326971897e+00 1.6434674341e-03 2.2428133865e+00 -3.8846667374e+00 2.2428133865e+00 3.8846667374e+00 
39900 3.1326972419e+00 1.6199291219e-03 2.2427767481e+00 -3.8846032777e+00 2.2427767481e+00 3.8846032777e+00 
40000 3.1326972940e+00 1.5967201547e-03 2.2427406338e+00 -3.8845407260e+00 2.2427406338e+00 3.8845407260e+00 
40100 3.1326973459e+00 1.5738360878e-03 2.2427050364e+00 -3.8844790694e+00 2.2427050364e+00 3.8844790694e+00 
40200 3.1326973976e+00 1.5512725505e-03 2.2426699486e+00 -3.8844182956e+00 2.2426699486e+00 3.8844182956e+00 
40300 3.1326974492e+00 1.5290252432e-03 2.2426353633e+00 -3.8843583921e+00 2.2426353633e+00 3.8843583921e+00 
40400 3.1326975006e+00 1.5070899357e-03 2.2426012735e+00 -3.8842993468e+00 2.2426012735e+00 3.8842993468e+00 
40500 3.1326975517e+00 1.4854624641e-03 2.2425676722e+00 -3.8842411476e+00 2.2425676722e+00 3.8842411476e+00 
40600 3.1326976026e+00 1.4641387293e-03 2.2425345526e+00 -3.8841837828e+00 2.2425345526e+00 3.8841837828e+00 
40700 3.1326976533e+00 1.4431146941e-03 2.2425019079e+00 -3.8841272406e+00 2.2425019079e+00 3.8841272406e+00 
40800 3.1326977037e+00 1.4223863815e-03 2.2424697315e+00 -3.8840715095e+00 2.2424697315e+00 3.8840715095e+00 
40900 3.1326977539e+00 1.4019498726e-03 2.2424380169e+00 -3.8840165781e+00 2.2424380169e+00 3.8840165781e+00 
41000 3.1326978038e+00 1.3818013046e-03 2.2424067575e+00 -3.8839624352e+00 2.2424067575e+00 3.8839624352e+00 
41100 3.1326978534e+00 1.3619368690e-03 2.2423759469e+00 -3.8839090696e+00 2.2423759469e+00 3.8839090696e+00 
41200 3.1326979028e+00 1.3423528098e-03 2.2423455788e+00 -3.8838564705e+00 2.2423455788e+00 3.8838564705e+00 
41300 3.1326979518e+00 1.3230454217e-03 2.2423156469e+00 -3.8838046271e+00 2.2423156469e+00 3.8838046271e+00 
41400 3.1326980006e+00 1.3040110488e-03 2.2422861452e+00 -3.8837535287e+00 2.2422861452e+00 3.8837535287e+00 
41500 3.1326980490e+00 1.2852460827e-03 2.2422570676e+00 -3.8837031647e+00 2.2422570676e+00 3.8837031647e+00 
41600 3.1326980971e+00 1.2667469612e-03 2.2422284080e+00 -3.8836535248e+00 2.2422284080e+00 3.8836535248e+00 
41700 3.1326981449e+00 1.2485101671e-03 2.2422001606e+00 -3.8836045988e+00 2.2422001606e+00 3.8836045988e+00 
41800 3.1326981924e+00 1.2305322267e-03 2.2421723194e+00 -3.8835563766e+00 2.2421723194e+00 3.8835563766e+00 
41900 3.1326982395e+00 1.2128097084e-03 2.2421448789e+00 -3.8835088481e+00 2.2421448789e+00 3.8835088481e+00 
42000 3.1326982863e+00 1.1953392221e-03 2.2421178332e+00 -3.8834620036e+00 2.2421178332e+00 3.8834620036e+00 
42100 3.1326983328e+00 1.1781174176e-03 2.2420911767e+00 -3.8834158333e+00 2.2420911767e+00 3.8834158333e+00 
42200 3.1326983789e+00 1.1611409838e-03 2.2420649041e+00 -3.8833703277e+00 2.2420649041e+00 3.8833703277e+00 
42300 3.1326984247e+00 1.1444066478e-03 2.2420390097e+00 -3.8833254773e+00 2.2420390097e+00 3.8833254773e+00 
42400 3.1326984701e+00 1.1279111740e-03 2.2420134881e+00 -3.8832812727e+00 2.2420134881e+00 3.8832812727e+00 
42500 3.1326985152e+00 1.1116513632e-03 2.2419883342e+00 -3.8832377048e+00 2.2419883342e+00 3.8832377048e+00 
42600 3.1326985598e+00 1.0956240520e-03 2.2419635426e+00 -3.8831947645e+00 2.2419635426e+00 3.8831947645e+00 
42700 3.1326986042e+00 1.0798261119e-03 2.2419391082e+00 -3.8831524429e+00 2.2419391082e+00 3.8831524429e+00 
42800 3.1326986482e+00 1.0642544488e-03 2.2419150258e+00 -3.8831107310e+00 2.2419150258e+00 3.8831107310e+00 
42900 3.1326986918e+00 1.0489060024e-03 2.2418912905e+00 -3.8830696201e+00 2.2418912905e+00 3.8830696201e+00 
43000 3.1326987350e+00 1.0337777458e-03 2.2418678972e+00 -3.8830291018e+00 2.2418678972e+00 3.8830291018e+00 
43100 3.1326987778e+00 1.0188666847e-03 2.2418448411e+00 -3.8829891674e+00 2.2418448411e+00 3.8829891674e+00 
43200 3.1326988203e+00 1.0041698570e-03 2.2418221172e+00 -3.8829498086e+00 2.2418221172e+00 3.8829498086e+00 
43300 3.1326988624e+00 9.8968433280e-04 2.2417997210e+00 -3.8829110172e+00 2.2417997210e+00 3.8829110172e+00 
43400 3.1326989042e+00 9.7540721354e-04 2.2417776476e+00 -3.8828727849e+00 2.2417776476e+00 3.8828727849e+00 
43500 3.1326989455e+00 9.6133563193e-04 2.2417558924e+00 -3.8828351038e+00 2.2417558924e+00 3.8828351038e+00 
43600 3.1326989865e+00 9.4746675160e-04 2.2417344509e+00 -3.8827979660e+00 2.2417344509e+00 3.8827979660e+00 
43700 3.1326990271e+00 9.3379776683e-04 2.2417133185e+00 -3.8827613636e+00 2.2417133185e+00 3.8827613636e+00 
43800 3.1326990674e+00 9.2032590233e-04 2.2416924907e+00 -3.8827252889e+00 2.2416924907e+00 3.8827252889e+00 
43900 3.1326991072e+00 9.0704841303e-04 2.2416719633e+00 -3.8826897343e+00 2.2416719633e+00 3.8826897343e+00 
44000 3.1326991467e+00 8.9396258389e-04 2.2416517318e+00 -3.8826546923e+00 2.2416517318e+00 3.8826546923e+00 
44100 3.1326991858e+00 8.8106572973e-04 2.2416317920e+00 -3.8826201556e+00 2.2416317920e+00 3.8826201556e+00 
44200 3.1326992245e+00 8.6835519514e-04 2.2416121397e+00 -3.8825861168e+00 2.2416121397e+00 3.8825861168e+00 
44300 3.1326992628e+00 8.5582835427e-04 2.2415927707e+00 -3.8825525688e+00 2.2415927707e+00 3.8825525688e+00 
44400 3.1326993008e+00 8.4348261082e-04 2.2415736810e+00 -3.8825195044e+00 2.2415736810e+00 3.8825195044e+00 
44500 3.1326993384e+00 8.3131539785e-04 2.2415548665e+00 -3.8824869168e+00 2.2415548665e+00 3.8824869168e+00 
44600 3.1326993756e+00 8.1932417779e-04 2.2415363233e+00 -3.8824547989e+00 2.2415363233e+00 3.8824547989e+00 
44700 3.1326994124e+00 8.0750644228e-04 2.2415180474e+00 -3.8824231441e+00 2.2415180474e+00 3.8824231441e+00 
44800 3.1326994489e+00 7.9585971218e-04 2.2415000349e+00 -3.8823919456e+00 2.2415000349e+00 3.8823919456e+00 
44900 3.1326994850e+00 7.8438153744e-04 2.2414822821e+00 -3.8823611968e+00 2.2414822821e+00 3.8823611968e+00 
45000 3.1326995207e+00 7.7306949710e-04 2.2414647852e+00 -3.8823308913e+00 2.2414647852e+00 3.8823308913e+00 
45100 3.1326995560e+00 7.6192119922e-04 2.2414475404e+00 -3.8823010226e+00 2.2414475404e+00 3.8823010226e+00 
45200 3.1326995910e+00 7.5093428081e-04 2.2414305443e+00 -3.8822715843e+00 2.2414305443e+00 3.8822715843e+00 
45300 3.1326996256e+00 7.4010640781e-04 2.2414137931e+00 -3.8822425704e+00 2.2414137931e+00 3.8822425704e+00 
45400 3.1326996599e+00 7.2943527502e-04 2.2413972833e+00 -3.8822139746e+00 2.2413972833e+00 3.8822139746e+00 
45500 3.1326996938e+00 7.1891860604e-04 2.2413810114e+00 -3.8821857909e+00 2.2413810114e+00 3.8821857909e+00 
45600 3.1326997273e+00 7.0855415324e-04 2.2413649740e+00 -3.8821580133e+00 2.2413649740e+00 3.8821580133e+00 
45700 3.1326997604e+00 6.9833969766e-04 2.2413491677e+00 -3.8821306360e+00 2.2413491677e+00 3.8821306360e+00 
45800 3.1326997932e+00 6.8827304898e-04 2.2413335892e+00 -3.8821036532e+00 2.2413335892e+00 3.8821036532e+00 
45900 3.1326998257e+00 6.7835204543e-04 2.2413182351e+00 -3.8820770592e+00 2.2413182351e+00 3.8820770592e+00 
46000 3.1326998578e+00 6.6857455369e-04 2.2413031023e+00 -3.8820508483e+00 2.2413031023e+00 3.8820508483e+00 
46100 3.1326998895e+00 6.5893846883e-04 2.2412881874e+00 -3.8820250150e+00 2.2412881874e+00 3.8820250150e+00 
46200 3.1326999209e+00 6.4944171423e-04 2.2412734874e+00 -3.8819995539e+00 2.2412734874e+00 3.8819995539e+00 
46300 3.1326999520e+00 6.4008224142e-04 2.2412589992e+00 -3.8819744596e+00 2.2412589992e+00 3.8819744596e+00 
46400 3.1326999827e+00 6.3085803001e-04 2.2412447197e+00 -3.8819497267e+00 2.2412447197e+00 3.8819497267e+00 
46500 3.1327000130e+00 6.2176708757e-04 2.2412306459e+00 -3.8819253502e+00 2.2412306459e+00 3.8819253502e+00 
46600 3.1327000431e+00 6.1280744947e-04 2.2412167748e+00 -3.8819013247e+00 2.2412167748e+00 3.8819013247e+00 
46700 3.1327000728e+00 6.0397717876e-04 2.2412031035e+00 -3.8818776453e+00 2.2412031035e+00 3.8818776453e+00 
46800 3.1327001021e+00 5.9527436599e-04 2.2411896291e+00 -3.8818543070e+00 2.2411896291e+00 3.8818543070e+00 
46900 3.1327001311e+00 5.8669712910e-04 2.2411763488e+00 -3.8818313049e+00 2.2411763488e+00 3.8818313049e+00 
47000 3.1327001598e+00 5.7824361318e-04 2.2411632598e+00 -3.8818086340e+00 2.2411632598e+00 3.8818086340e+00 
47100 3.1327001882e+00 5.6991199036e-04 2.2411503593e+00 -3.8817862897e+00 2.2411503593e+00 3.8817862897e+00 
47200 3.1327002162e+00 5.6170045955e-04 2.2411376446e+00 -3.8817642671e+00 2.2411376446e+00 3.8817642671e+00 
47300 3.1327002439e+00 5.5360724627e-04 2.2411251130e+00 -3.8817425618e+00 2.2411251130e+00 3.8817425618e+00 
47400 3.1327002713e+00 5.4563060245e-04 2.2411127619e+00 -3.8817211691e+00 2.2411127619e+00 3.8817211691e+00 
47500 3.1327002984e+00 5.3776880619e-04 2.2411005887e+00 -3.8817000845e+00 2.2411005887e+00 3.8817000845e+00 
47600 3.1327003251e+00 5.3002016151e-04 2.2410885908e+00 -3.8816793036e+00 2.2410885908e+00 3.8816793036e+00 
47700 3.1327003516e+00 5.2238299816e-04 2.2410767658e+00 -3.8816588220e+00 2.2410767658e+00 3.8816588220e+00 
47800 3.1327003777e+00 5.1485567131e-04 2.2410651111e+00 -3.8816386354e+00 2.2410651111e+00 3.8816386354e+00 
47900 3.1327004035e+00 5.0743656134e-04 2.2410536242e+00 -3.8816187396e+00 2.2410536242e+00 3.8816187396e+00 
48000 3.1327004290e+00 5.0012407357e-04 2.2410423028e+00 -3.8815991304e+00 2.2410423028e+00 3.8815991304e+00 
48100 3.1327004543e+00 4.9291663794e-04 2.2410311446e+00 -3.8815798037e+00 2.2410311446e+00 3.8815798037e+00 
48200 3.1327004792e+00 4.8581270879e-04 2.2410201470e+00 -3.8815607554e+00 2.2410201470e+00 3.8815607554e+00 
48300 3.1327005038e+00 4.7881076453e-04 2.2410093079e+00 -3.8815419816e+00 2.2410093079e+00 3.8815419816e+00 
48400 3.1327005281e+00 4.7190930736e-04 2.2409986250e+00 -3.8815234782e+00 2.2409986250e+00 3.8815234782e+00 
48500 3.1327005522e+00 4.6510686299e-04 2.2409880960e+00 -3.8815052415e+00 2.2409880960e+00 3.8815052415e+00 
48600 3.1327005759e+00 4.5840198029e-04 2.2409777188e+00 -3.8814872675e+00 2.2409777188e+00 3.8814872675e+00 
48700 3.1327005994e+00 4.5179323101e-04 2.2409674911e+00 -3.8814695526e+00 2.2409674911e+00 3.8814695526e+00 
48800 3.1327006226e+00 4.4527920947e-04 2.2409574107e+00 -3.8814520930e+00 2.2409574107e+00 3.8814520930e+00 
48900 3.1327006455e+00 4.3885853222e-04 2.2409474757e+00 -3.8814348851e+00 2.2409474757e+00 3.8814348851e+00 
49000 3.1327006681e+00 4.3252983772e-04 2.2409376839e+00 -3.8814179252e+00 2.2409376839e+00 3.8814179252e+00 
49100 3.1327006905e+00 4.2629178603e-04 2.2409280333e+00 -3.8814012098e+00 2.2409280333e+00 3.8814012098e+00 
49200 3.1327007126e+00 4.2014305848e-04 2.2409185218e+00 -3.8813847354e+00 2.2409185218e+00 3.8813847354e+00 
49300 3.1327007344e+00 4.1408235732e-04 2.2409091475e+00 -3.8813684985e+00 2.2409091475e+00 3.8813684985e+00 
49400 3.1327007560e+00 4.0810840540e-04 2.2408999083e+00 -3.8813524959e+00 2.2408999083e+00 3.8813524959e+00 
49500 3.1327007772e+00 4.0221994586e-04 2.2408908024e+00 -3.8813367240e+00 2.2408908024e+00 3.8813367240e+00 
49600 3.1327007983e+00 3.9641574173e-04 2.2408818279e+00 -3.8813211796e+00 2.2408818279e+00 3.8813211796e+00 
49700 3.1327008190e+00 3.9069457569e-04 2.2408729828e+00 -3.8813058595e+00 2.2408729828e+00 3.8813058595e+00 
49800 3.1327008396e+00 3.8505524964e-04 2.2408642653e+00 -3.8812907604e+00 2.2408642653e+00 3.8812907604e+00 
49900 3.1327008598e+00 3.7949658445e-04 2.2408556737e+00 -3.8812758792e+00 2.2408556737e+00 3.8812758792e+00 
50000 3.1327008798e+00 3.7401741956e-04 2.2408472060e+00 -3.8812612128e+00 2.2408472060e+00 3.8812612128e+00 
50100 3.1327008996e+00 3.6861661270e-04 2.2408388606e+00 -3.8812467580e+00 2.2408388606e+00 3.8812467580e+00 
50200 3.1327009191e+00 3.6329303954e-04 2.2408306356e+00 -3.8812325120e+00 2.2408306356e+00 3.8812325120e+00 
50300 3.1327009384e+00 3.5804559335e-04 2.2408225294e+00 -3.8812184716e+00 2.2408225294e+00 3.8812184716e+00 
50400 3.1327009574e+00 3.5287318471e-04 2.2408145402e+00 -3.8812046340e+00 2.2408145402e+00 3.8812046340e+00 
50500 3.1327009762e+00 3.4777474115e-04 2.2408066665e+00 -3.8811909962e+00 2.2408066665e+00 3.8811909962e+00 
50600 3.1327009948e+00 3.4274920687e-04 2.2407989064e+00 -3.8811775555e+00 2.2407989064e+00 3.8811775555e+00 
50700 3.1327010131e+00 3.3779554239e-04 2.2407912585e+00 -3.8811643089e+00 2.2407912585e+00 3.8811643089e+00 
50800 3.1327010312e+00 3.3291272428e-04 2.2407837211e+00 -3.8811512537e+00 2.2407837211e+00 3.8811512537e+00 
50900 3.1327010491e+00 3.2809974480e-04 2.2407762926e+00 -3.8811383872e+00 2.2407762926e+00 3.8811383872e+00 
51000 3.1327010668e+00 3.2335561166e-04 2.2407689715e+00 -3.8811257067e+00 2.2407689715e+00 3.8811257067e+00 
51100 3.1327010842e+00 3.1867934766e-04 2.2407617562e+00 -3.8811132094e+00 2.2407617562e+00 3.8811132094e+00 
51200 3.1327011014e+00 3.1406999045e-04 2.2407546453e+00 -3.8811008929e+00 2.2407546453e+00 3.8811008929e+00 
51300 3.1327011184e+00 3.0952659221e-04 2.2407476371e+00 -3.8810887545e+00 2.2407476371e+00 3.8810887545e+00 
51400 3.1327011352e+00 3.0504821938e-04 2.2407407304e+00 -3.8810767916e+00 2.2407407304e+00 3.8810767916e+00 
51500 3.1327011518e+00 3.0063395237e-04 2.2407339235e+00 -3.8810650018e+00 2.2407339235e+00 3.8810650018e+00 
51600 3.1327011681e+00 2.9628288530e-04 2.2407272151e+00 -3.8810533825e+00 2.2407272151e+00 3.8810533825e+00 
51700 3.1327011843e+00 2.9199412574e-04 2.2407206038e+00 -3.8810419314e+00 2.2407206038e+00 3.8810419314e+00 
51800 3.1327012002e+00 2.8776679444e-04 2.2407140882e+00 -3.8810306460e+00 2.2407140882e+00 3.8810306460e+00 
51900 3.1327012160e+00 2.8360002504e-04 2.2407076669e+00 -3.8810195240e+00 2.2407076669e+00 3.8810195240e+00 
52000 3.1327012315e+00 2.7949296389e-04 2.2407013385e+00 -3.8810085629e+00 2.2407013385e+00 3.8810085629e+00 
52100 3.1327012469e+00 2.7544476974e-04 2.2406951018e+00 -3.8809977606e+00 2.2406951018e+00 3.8809977606e+00 
52200 3.1327012620e+00 2.7145461356e-04 2.2406889554e+00 -3.8809871147e+00 2.2406889554e+00 3.8809871147e+00 
52300 3.1327012770e+00 2.6752167825e-04 2.2406828980e+00 -3.8809766230e+00 2.2406828980e+00 3.8809766230e+00 
52400 3.1327012918e+00 2.6364515846e-04 2.2406769284e+00 -3.8809662833e+00 2.2406769284e+00 3.8809662833e+00 
52500 3.1327013064e+00 2.5982426033e-04 2.2406710452e+00 -3.8809560933e+00 2.2406710452e+00 3.8809560933e+00 
52600 3.1327013208e+00 2.5605820132e-04 2.2406652473e+00 -3.8809460511e+00 2.2406652473e+00 3.8809460511e+00 
52700 3.1327013350e+00 2.5234620995e-04 2.2406595334e+00 -3.8809361543e+00 2.2406595334e+00 3.8809361543e+00 
52800 3.1327013490e+00 2.4868752564e-04 2.2406539023e+00 -3.8809264010e+00 2.2406539023e+00 3.8809264010e+00 
52900 3.1327013629e+00 2.4508139848e-04 2.2406483529e+00 -3.8809167891e+00 2.2406483529e+00 3.8809167891e+00 
53000 3.1327013765e+00 2.4152708907e-04 2.2406428839e+00 -3.8809073166e+00 2.2406428839e+00 3.8809073166e+00 
53100 3.1327013900e+00 2.3802386829e-04 2.2406374942e+00 -3.8808979814e+00 2.2406374942e+00 3.8808979814e+00 
53200 3.1327014034e+00 2.3457101718e-04 2.2406321827e+00 -3.8808887815e+00 2.2406321827e+00 3.8808887815e+00 
53300 3.1327014165e+00 2.3116782668e-04 2.2406269482e+00 -3.8808797152e+00 2.2406269482e+00 3.8808797152e+00 
53400 3.1327014295e+00 2.2781359754e-04 2.2406217897e+00 -3.8808707803e+00 2.2406217897e+00 3.8808707803e+00 
53500 3.1327014423e+00 2.2450764011e-04 2.2406167060e+00 -3.8808619750e+00 2.2406167060e+00 3.8808619750e+00 
53600 3.1327014550e+00 2.2124927420e-04 2.2406116960e+00 -3.8808532976e+00 2.2406116960e+00 3.8808532976e+00 
53700 3.1327014675e+00 2.1803782889e-04 2.2406067588e+00 -3.8808447460e+00 2.2406067588e+00 3.8808447460e+00 
53800 3.1327014798e+00 2.1487264243e-04 2.2406018932e+00 -3.8808363185e+00 2.2406018932e+00 3.8808363185e+00 
53900 3.1327014920e+00 2.1175306206e-04 2.2405970982e+00 -3.8808280134e+00 2.2405970982e+00 3.8808280134e+00 
54000 3.1327015040e+00 2.0867844386e-04 2.2405923728e+00 -3.8808198288e+00 2.2405923728e+00 3.8808198288e+00 
54100 3.1327015158e+00 2.0564815263e-04 2.2405877161e+00 -3.8808117631e+00 2.2405877161e+00 3.8808117631e+00 
54200 3.1327015275e+00 2.0266156178e-04 2.2405831269e+00 -3.8808038144e+00 2.2405831269e+00 3.8808038144e+00 
54300 3.1327015391e+00 1.9971805315e-04 2.2405786044e+00 -3.8807959812e+00 2.2405786044e+00 3.8807959812e+00 
54400 3.1327015505e+00 1.9681701691e-04 2.2405741476e+00 -3.8807882617e+00 2.2405741476e+00 3.8807882617e+00 
54500 3.1327015618e+00 1.9395785144e-04 2.2405697555e+00 -3.8807806543e+00 2.2405697555e+00 3.8807806543e+00 
54600 3.1327015729e+00 1.9113996323e-04 2.2405654271e+00 -3.8807731575e+00 2.2405654271e+00 3.8807731575e+00 
54700 3.1327015838e+00 1.8836276671e-04 2.2405611617e+00 -3.8807657695e+00 2.2405611617e+00 3.8807657695e+00 
54800 3.1327015947e+00 1.8562568420e-04 2.2405569582e+00 -3.8807584889e+00 2.2405569582e+00 3.8807584889e+00 
54900 3.1327016053e+00 1.8292814577e-04 2.2405528158e+00 -3.8807513141e+00 2.2405528158e+00 3.8807513141e+00 
55000 3.1327016159e+00 1.8026958914e-04 2.2405487336e+00 -3.8807442435e+00 2.2405487336e+00 3.8807442435e+00 
55100 3.1327016263e+00 1.7764945959e-04 2.2405447107e+00 -3.8807372756e+00 2.2405447107e+00 3.8807372756e+00 
55200 3.1327016366e+00 1.7506720983e-04 2.2405407463e+00 -3.8807304090e+00 2.2405407463e+00 3.8807304090e+00 
55300 3.1327016467e+00 1.7252229994e-04 2.2405368395e+00 -3.8807236422e+00 2.2405368395e+00 3.8807236422e+00 
55400 3.1327016567e+00 1.7001419726e-04 2.2405329895e+00 -3.8807169738e+00 2.2405329895e+00 3.8807169738e+00 
55500 3.1327016666e+00 1.6754237630e-04 2.2405291954e+00 -3.8807104023e+00 2.2405291954e+00 3.8807104023e+00 
55600 3.1327016763e+00 1.6510631864e-04 2.2405254565e+00 -3.8807039263e+00 2.2405254565e+00 3.8807039263e+00 
55700 3.1327016860e+00 1.6270551286e-04 2.2405217720e+00 -3.8806975445e+00 2.2405217720e+00 3.8806975445e+00 
55800 3.1327016955e+00 1.6033945446e-04 2.2405181410e+00 -3.8806912555e+00 2.2405181410e+00 3.8806912555e+00 
55900 3.1327017048e+00 1.5800764574e-04 2.2405145628e+00 -3.8806850579e+00 2.2405145628e+00 3.8806850579e+00 
56000 3.1327017141e+00 1.5570959576e-04 2.2405110367e+00 -3.8806789505e+00 2.2405110367e+00 3.8806789505e+00 
56100 3.1327017232e+00 1.5344482024e-04 2.2405075618e+00 -3.8806729318e+00 2.2405075618e+00 3.8806729318e+00 
56200 3.1327017322e+00 1.5121284147e-04 2.2405041375e+00 -3.8806670007e+00 2.2405041375e+00 3.8806670007e+00 
56300 3.1327017411e+00 1.4901318827e-04 2.2405007630e+00 -3.8806611558e+00 2.2405007630e+00 3.8806611558e+00 
56400 3.1327017499e+00 1.4684539589e-04 2.2404974375e+00 -3.8806553960e+00 2.2404974375e+00 3.8806553960e+00 
56500 3.1327017586e+00 1.4470900592e-04 2.2404941604e+00 -3.8806497200e+00 2.2404941604e+00 3.8806497200e+00 
56600 3.1327017671e+00 1.4260356626e-04 2.2404909310e+00 -3.8806441265e+00 2.2404909310e+00 3.8806441265e+00 
56700 3.1327017756e+00 1.4052863100e-04 2.2404877486e+00 -3.8806386144e+00 2.2404877486e+00 3.8806386144e+00 
56800 3.1327017839e+00 1.3848376038e-04 2.2404846125e+00 -3.8806331825e+00 2.2404846125e+00 3.8806331825e+00 
56900 3.1327017921e+00 1.3646852073e-04 2.2404815220e+00 -3.8806278296e+00 2.2404815220e+00 3.8806278296e+00 
57000 3.1327018002e+00 1.3448248436e-04 2.2404784765e+00 -3.8806225546e+00 2.2404784765e+00 3.8806225546e+00 
57100 3.1327018082e+00 1.3252522952e-04 2.2404754753e+00 -3.8806173564e+00 2.2404754753e+00 3.8806173564e+00 
57200 3.1327018161e+00 1.3059634035e-04 2.2404725178e+00 -3.8806122338e+00 2.2404725178e+00 3.8806122338e+00 
57300 3.1327018239e+00 1.2869540674e-04 2.2404696033e+00 -3.8806071857e+00 2.2404696033e+00 3.8806071857e+00 
57400 3.1327018316e+00 1.2682202437e-04 2.2404667312e+00 -3.8806022112e+00 2.2404667312e+00 3.8806022112e+00 
57500 3.1327018392e+00 1.2497579456e-04 2.2404639010e+00 -3.8805973090e+00 2.2404639010e+00 3.8805973090e+00 
57600 3.1327018467e+00 1.2315632423e-04 2.2404611119e+00 -3.8805924782e+00 2.2404611119e+00 3.8805924782e+00 
57700 3.1327018541e+00 1.2136322585e-04 2.2404583635e+00 -3.8805877178e+00 2.2404583635e+00 3.8805877178e+00 
57800 3.1327018614e+00 1.1959611735e-04 2.2404556550e+00 -3.8805830266e+00 2.2404556550e+00 3.8805830266e+00 
57900 3.1327018686e+00 1.1785462209e-04 2.2404529860e+00 -3.8805784037e+00 2.2404529860e+00 3.8805784037e+00 
58000 3.1327018757e+00 1.1613836875e-04 2.2404503559e+00 -3.8805738482e+00 2.2404503559e+00 3.8805738482e+00 
58100 3.1327018827e+00 1.1444699132e-04 2.2404477640e+00 -3.8805693590e+00 2.2404477640e+00 3.8805693590e+00 
58200 3.1327018897e+00 1.1278012899e-04 2.2404452099e+00 -3.8805649351e+00 2.2404452099e+00 3.8805649351e+00 
58300 3.1327018965e+00 1.1113742612e-04 2.2404426930e+00 -3.8805605757e+00 2.2404426930e+00 3.8805605757e+00 
58400 3.1327019032e+00 1.0951853216e-04 2.2404402127e+00 -3.8805562798e+00 2.2404402127e+00 3.8805562798e+00 
58500 3.1327019099e+00 1.0792310160e-04 2.2404377686e+00 -3.8805520464e+00 2.2404377686e+00 3.8805520464e+00 
58600 3.1327019165e+00 1.0635079389e-04 2.2404353601e+00 -3.8805478747e+00 2.2404353601e+00 3.8805478747e+00 
58700 3.1327019230e+00 1.0480127339e-04 2.2404329866e+00 -3.8805437638e+00 2.2404329866e+00 3.8805437638e+00 
58800 3.1327019294e+00 1.0327420933e-04 2.2404306478e+00 -3.8805397128e+00 2.2404306478e+00 3.8805397128e+00 
58900 3.1327019357e+00 1.0176927570e-04 2.2404283430e+00 -3.8805357208e+00 2.2404283430e+00 3.8805357208e+00 
59000 3.1327019419e+00 1.0028615125e-04 2.2404260718e+00 -3.8805317869e+00 2.2404260718e+00 3.8805317869e+00 
59100 3.1327019480e+00 9.8824519360e-05 2.2404238337e+00 -3.8805279104e+00 2.2404238337e+00 3.8805279104e+00 
59200 3.1327019541e+00 9.7384068048e-05 2.2404216282e+00 -3.8805240904e+00 2.2404216282e+00 3.8805240904e+00 
59300 3.1327019601e+00 9.5964489864e-05 2.2404194549e+00 -3.8805203261e+00 2.2404194549e+00 3.8805203261e+00 
59400 3.1327019660e+00 9.4565481845e-05 2.2404173132e+00 -3.8805166166e+00 2.2404173132e+00 3.8805166166e+00 
59500 3.1327019719e+00 9.3186745462e-05 2.2404152027e+00 -3.8805129612e+00 2.2404152027e+00 3.8805129612e+00 
59600 3.1327019776e+00 9.1827986551e-05 2.2404131231e+00 -3.8805093591e+00 2.2404131231e+00 3.8805093591e+00 
59700 3.1327019833e+00 9.0488915261e-05 2.2404110737e+00 -3.8805058095e+00 2.2404110737e+00 3.8805058095e+00 
59800 3.1327019889e+00 8.9169245994e-05 2.2404090542e+00 -3.8805023117e+00 2.2404090542e+00 3.8805023117e+00 
59900 3.1327019944e+00 8.7868697339e-05 2.2404070642e+00 -3.8804988649e+00 2.2404070642e+00 3.8804988649e+00 
60000 3.1327019999e+00 8.6586992024e-05 2.2404051032e+00 -3.8804954683e+00 2.2404051032e+00 3.8804954683e+00 
60100 3.1327020053e+00 8.5323856858e-05 2.2404031708e+00 -3.8804921213e+00 2.2404031708e+00 3.8804921213e+00 
60200 3.1327020106e+00 8.4079022667e-05 2.2404012666e+00 -3.8804888231e+00 2.2404012666e+00 3.8804888231e+00 
60300 3.1327020159e+00 8.2852224248e-05 2.2403993902e+00 -3.8804855731e+00 2.2403993902e+00 3.8804855731e+00 
60400 3.1327020210e+00 8.1643200295e-05 2.2403975411e+00 -3.8804823704e+00 2.2403975411e+00 3.8804823704e+00 
60500 3.1327020262e+00 8.0451693366e-05 2.2403957191e+00 -3.8804792145e+00 2.2403957191e+00 3.8804792145e+00 
60600 3.1327020312e+00 7.9277449809e-05 2.2403939236e+00 -3.8804761046e+00 2.2403939236e+00 3.8804761046e+00 
60700 3.1327020362e+00 7.8120219713e-05 2.2403921543e+00 -3.8804730402e+00 2.2403921543e+00 3.8804730402e+00 
60800 3.1327020411e+00 7.6979756852e-05 2.2403904109e+00 -3.8804700204e+00 2.2403904109e+00 3.8804700204e+00 
60900 3.1327020459e+00 7.5855818642e-05 2.2403886929e+00 -3.8804670448e+00 2.2403886929e+00 3.8804670448e+00 
61000 3.1327020507e+00 7.4748166065e-05 2.2403870000e+00 -3.8804641125e+00 2.2403870000e+00 3.8804641125e+00 
61100 3.1327020555e+00 7.3656563639e-05 2.2403853318e+00 -3.8804612231e+00 2.2403853318e+00 3.8804612231e+00 
61200 3.1327020601e+00 7.2580779350e-05 2.2403836879e+00 -3.8804583759e+00 2.2403836879e+00 3.8804583759e+00 
61300 3.1327020647e+00 7.1520584608e-05 2.2403820681e+00 -3.8804555703e+00 2.2403820681e+00 3.8804555703e+00 
61400 3.1327020693e+00 7.0475754188e-05 2.2403804719e+00 -3.8804528057e+00 2.2403804719e+00 3.8804528057e+00 
61500 3.1327020738e+00 7.0152703919e-05 2.2403804719e+00 -3.8804528057e+00 2.2403804719e+00 3.8804528057e+00 
61600 3.1327020784e+00 6.9845431312e-05 2.2403804719e+00 -3.8804528057e+00 2.2403804719e+00 3.8804528057e+00 
61700 3.1327020828e+00 6.9553808073e-05 2.2403804719e+00 -3.8804528057e+00 2.2403804719e+00 3.8804528057e+00 
61800 3.1327020872e+00 6.9277645118e-05 2.2403804719e+00 -3.8804528057e+00 2.2403804719e+00 3.8804528057e+00 
61900 3.1327020915e+00 6.9016699199e-05 2.2403804719e+00 -3.8804528057e+00 2.2403804719e+00 3.8804528057e+00 
62000 3.1327020958e+00 6.8770679181e-05 2.2403804719e+00 -3.8804528057e+00 2.2403804719e+00 3.8804528057e+00 
62100 3.1327021000e+00 6.8539251957e-05 2.2403804719e+00 -3.8804528057e+00 2.2403804719e+00 3.8804528057e+00 
62200 3.1327021042e+00 6.8322048027e-05 2.2403804719e+00 -3.8804528057e+00 2.2403804719e+00 3.8804528057e+00 
62300 3.1327021083e+00 6.8118666721e-05 2.2403804719e+00 -3.8804528057e+00 2.2403804719e+00 3.8804528057e+00 
62400 3.1327021124e+00 6.7928681092e-05 2.2403804719e+00 -3.8804528057e+00 2.2403804719e+00 3.8804528057e+00 
62500 3.1327021164e+00 6.7751642469e-05 2.2403804719e+00 -3.8804528057e+00 2.2403804719e+00 3.8804528057e+00 
62600 3.1327021203e+00 6.7587084694e-05 2.2403804719e+00 -3.8804528057e+00 2.2403804719e+00 3.8804528057e+00 
62700 3.1327021242e+00 6.7434528044e-05 2.2403804719e+00 -3.8804528057e+00 2.2403804719e+00 3.8804528057e+00 
62800 3.1327021280e+00 6.7293482836e-05 2.2403804719e+00 -3.8804528057e+00 2.2403804719e+00 3.8804528057e+00 
62900 3.1327021318e+00 6.7163452756e-05 2.2403804719e+00 -3.8804528057e+00 2.2403804719e+00 3.8804528057e+00 
63000 3.1327021355e+00 6.7043937883e-05 2.2403804719e+00 -3.8804528057e+00 2.2403804719e+00 3.8804528057e+00 
63100 3.1327021392e+00 6.6934437463e-05 2.2403804719e+00 -3.8804528057e+00 2.2403804719e+00 3.8804528057e+00 
63200 3.1327021429e+00 6.6834452400e-05 2.2403804719e+00 -3.8804528057e+00 2.2403804719e+00 3.8804528057e+00 
63300 3.1327021465e+00 6.6743487514e-05 2.2403804719e+00 -3.8804528057e+00 2.2403804719e+00 3.8804528057e+00 
63400 3.1327021500e+00 6.6661053554e-05 2.2403804719e+00 -3.8804528057e+00 2.2403804719e+00 3.8804528057e+00 
63500 3.1327021535e+00 6.6586668991e-05 2.2403804719e+00 -3.8804528057e+00 2.2403804719e+00 3.8804528057e+00 
63600 3.1327021569e+00 6.6519861591e-05 2.2403804719e+00 -3.8804528057e+00 2.2403804719e+00 3.8804528057e+00 
63700 3.1327021603e+00 6.6460169800e-05 2.2403804719e+00 -3.8804528057e+00 2.2403804719e+00 3.8804528057e+00 
63800 3.1327021637e+00 6.6407143932e-05 2.2403804719e+00 -3.8804528057e+00 2.2403804719e+00 3.8804528057e+00 
63900 3.1327021670e+00 6.6360347175e-05 2.2403804719e+00 -3.8804528057e+00 2.2403804719e+00 3.8804528057e+00 
64000 3.1327021703e+00 6.6319356451e-05 2.2403804719e+00 -3.8804528057e+00 2.2403804719e+00 3.8804528057e+00 
64100 3.1327021735e+00 6.6283763106e-05 2.2403804719e+00 -3.8804528057e+00 2.2403804719e+00 3.8804528057e+00 
64200 3.1327021767e+00 6.6253173465e-05 2.2403804719e+00 -3.8804528057e+00 2.2403804719e+00 3.8804528057e+00 
64300 3.1327021798e+00 6.6227209259e-05 2.2403804719e+00 -3.8804528057e+00 2.2403804719e+00 3.8804528057e+00 
64400 3.1327021829e+00 6.6205507922e-05 2.2403804719e+00 -3.8804528057e+00 2.2403804719e+00 3.8804528057e+00 
64500 3.1327021860e+00 6.6187722789e-05 2.2403804719e+00 -3.8804528057e+00 2.2403804719e+00 3.8804528057e+00 
64600 3.1327021890e+00 6.6173523191e-05 2.2403804719e+00 -3.8804528057e+00 2.2403804719e+00 3.8804528057e+00 
64700 3.1327021920e+00 6.6162594448e-05 2.2403804719e+00 -3.8804528057e+00 2.2403804719e+00 3.8804528057e+00 
64800 3.1327021949e+00 6.6154637798e-05 2.2403804719e+00 -3.8804528057e+00 2.2403804719e+00 3.8804528057e+00 
64900 3.1327021978e+00 6.6149370240e-05 2.2403804719e+00 -3.8804528057e+00 2.2403804719e+00 3.8804528057e+00 
65000 3.1327022007e+00 6.6146524317e-05 2.2403804719e+00 -3.8804528057e+00 2.2403804719e+00 3.8804528057e+00 
65100 3.1327022035e+00 6.6145847836e-05 2.2403804719e+00 -3.8804528057e+00 2.2403804719e+00 3.8804528057e+00 
65200 3.1327022063e+00 6.6147103545e-05 2.2403804719e+00 -3.8804528057e+00 2.2403804719e+00 3.8804528057e+00 
65300 3.1327022090e+00 6.6150068762e-05 2.2403804719e+00 -3.8804528057e+00 2.2403804719e+00 3.8804528057e+00 
65400 3.1327022118e+00 6.6154534967e-05 2.2403804719e+00 -3.8804528057e+00 2.2403804719e+00 3.8804528057e+00 
65500 3.1327022144e+00 6.6160307365e-05 2.2403804719e+00 -3.8804528057e+00 2.2403804719e+00 3.8804528057e+00 
65600 3.1327022171e+00 6.6167204422e-05 2.2403804719e+00 -3.8804528057e+00 2.2403804719e+00 3.8804528057e+00 
65700 3.1327022197e+00 6.6175057381e-05 2.2403804719e+00 -3.8804528057e+00 2.2403804719e+00 3.8804528057e+00 
65800 3.1327022223e+00 6.6183709757e-05 2.2403804719e+00 -3.8804528057e+00 2.2403804719e+00 3.8804528057e+00 
65900 3.1327022248e+00 6.6193016836e-05 2.2403804719e+00 -3.8804528057e+00 2.2403804719e+00 3.8804528057e+00 
66000 3.1327022273e+00 6.6202845143e-05 2.2403804719e+00 -3.8804528057e+00 2.2403804719e+00 3.8804528057e+00 
66100 3.1327022298e+00 6.6213071930e-05 2.2403804719e+00 -3.8804528057e+00 2.2403804719e+00 3.8804528057e+00 
66200 3.1327022322e+00 6.6223584647e-05 2.2403804719e+00 -3.8804528057e+00 2.2403804719e+00 3.8804528057e+00 
66300 3.1327022346e+00 6.6234280428e-05 2.2403804719e+00 -3.8804528057e+00 2.2403804719e+00 3.8804528057e+00 
66400 3.1327022370e+00 6.6245065563e-05 2.2403804719e+00 -3.8804528057e+00 2.2403804719e+00 3.8804528057e+00 
66500 3.1327022393e+00 6.6255855003e-05 2.2403804719e+00 -3.8804528057e+00 2.2403804719e+00 3.8804528057e+00 
66600 3.1327022417e+00 6.6266571856e-05 2.2403804719e+00 -3.8804528057e+00 2.2403804719e+00 3.8804528057e+00 
66700 3.1327022439e+00 6.6277146898e-05 2.2403804719e+00 -3.8804528057e+00 2.2403804719e+00 3.8804528057e+00 
66800 3.1327022462e+00 6.6287518103e-05 2.2403804719e+00 -3.8804528057e+00 2.2403804719e+00 3.8804528057e+00 
66900 3.1327022484e+00 6.6297630174e-05 2.2403804719e+00 -3.8804528057e+00 2.2403804719e+00 3.8804528057e+00 
67000 3.1327022506e+00 6.6307434114e-05 2.2403804719e+00 -3.8804528057e+00 2.2403804719e+00 3.8804528057e+00 
67100 3.1327022528e+00 6.6316886781e-05 2.2403804719e+00 -3.8804528057e+00 2.2403804719e+00 3.8804528057e+00 
67200 3.1327022549e+00 6.6325950484e-05 2.2403804719e+00 -3.8804528057e+00 2.2403804719e+00 3.8804528057e+00 
67300 3.1327022570e+00 6.6334592584e-05 2.2403804719e+00 -3.8804528057e+00 2.2403804719e+00 3.8804528057e+00 
67400 3.1327022591e+00 6.6342785124e-05 2.2403804719e+00 -3.8804528057e+00 2.2403804719e+00 3.8804528057e+00 
67500 3.1327022612e+00 6.6350504461e-05 2.2403804719e+00 -3.8804528057e+00 2.2403804719e+00 3.8804528057e+00 
67600 3.1327022632e+00 6.6357730930e-05 2.2403804719e+00 -3.8804528057e+00 2.2403804719e+00 3.8804528057e+00 
67700 3.1327022652e+00 6.6364448524e-05 2.2403804719e+00 -3.8804528057e+00 2.2403804719e+00 3.8804528057e+00 
67800 3.1327022672e+00 6.6370644580e-05 2.2403804719e+00 -3.8804528057e+00 2.2403804719e+00 3.8804528057e+00 
67900 3.1327022691e+00 6.6376309499e-05 2.2403804719e+00 -3.8804528057e+00 2.2403804719e+00 3.8804528057e+00 
68000 3.1327022710e+00 6.6381436468e-05 2.2403804719e+00 -3.8804528057e+00 2.2403804719e+00 3.8804528057e+00 
68100 3.1327022729e+00 6.6386021215e-05 2.2403804719e+00 -3.8804528057e+00 2.2403804719e+00 3.8804528057e+00 
68200 3.1327022748e+00 6.6390061766e-05 2.2403804719e+00 -3.8804528057e+00 2.2403804719e+00 3.8804528057e+00 
68300 3.1327022767e+00 6.6393558226e-05 2.2403804719e+00 -3.8804528057e+00 2.2403804719e+00 3.8804528057e+00 
68400 3.1327022785e+00 6.6396512568e-05 2.2403804719e+00 -3.8804528057e+00 2.2403804719e+00 3.8804528057e+00 
68500 3.1327022803e+00 6.6398928453e-05 2.2403804719e+00 -3.8804528057e+00 2.2403804719e+00 3.8804528057e+00 
68600 3.1327022821e+00 6.6400811040e-05 2.2403804719e+00 -3.8804528057e+00 2.2403804719e+00 3.8804528057e+00 
68700 3.1327022838e+00 6.6402166829e-05 2.2403804719e+00 -3.8804528057e+00 2.2403804719e+00 3.8804528057e+00 
68800 3.1327022856e+00 6.6403003513e-05 2.2403804719e+00 -3.8804528057e+00 2.2403804719e+00 3.8804528057e+00 
68900 3.1327022873e+00 6.6403329831e-05 2.2403804719e+00 -3.8804528057e+00 2.2403804719e+00 3.8804528057e+00 
69000 3.1327022889e+00 6.6403155449e-05 2.2403804719e+00 -3.8804528057e+00 2.2403804719e+00 3.8804528057e+00 
69100 3.1327022906e+00 6.6402490838e-05 2.2403804719e+00 -3.8804528057e+00 2.2403804719e+00 3.8804528057e+00 
69200 3.1327022923e+00 6.6401347175e-05 2.2403804719e+00 -3.8804528057e+00 2.2403804719e+00 3.8804528057e+00 
69300 3.1327022939e+00 6.6399736234e-05 2.2403804719e+00 -3.8804528057e+00 2.2403804719e+00 3.8804528057e+00 
69400 3.1327022955e+00 6.6397670314e-05 2.2403804719e+00 -3.8804528057e+00 2.2403804719e+00 3.8804528057e+00 
69500 3.1327022971e+00 6.6395162145e-05 2.2403804719e+00 -3.8804528057e+00 2.2403804719e+00 3.8804528057e+00 
69600 3.1327022986e+00 6.6392224828e-05 2.2403804719e+00 -3.8804528057e+00 2.2403804719e+00 3.8804528057e+00 
69700 3.1327023002e+00 6.6388871759e-05 2.2403804719e+00 -3.8804528057e+00 2.2403804719e+00 3.8804528057e+00 
69800 3.1327023017e+00 6.6385116581e-05 2.2403804719e+00 -3.8804528057e+00 2.2403804719e+00 3.8804528057e+00 
69900 3.1327023032e+00 6.6380973124e-05 2.2403804719e+00 -3.8804528057e+00 2.2403804719e+00 3.8804528057e+00 
70000 3.1327023047e+00 6.6376455361e-05 2.2403804719e+00 -3.8804528057e+00 2.2403804719e+00 3.8804528057e+00 
70100 3.1327023061e+00 6.6371577369e-05 2.2403804719e+00 -3.8804528057e+00 2.2403804719e+00 3.8804528057e+00 
70200 3.1327023076e+00 6.6366353282e-05 2.2403804719e+00 -3.8804528057e+00 2.2403804719e+00 3.8804528057e+00 
70300 3.1327023090e+00 6.6360797269e-05 2.2403804719e+00 -3.8804528057e+00 2.2403804719e+00 3.8804528057e+00 
70400 3.1327023104e+00 6.6354923495e-05 2.2403804719e+00 -3.8804528057e+00 2.2403804719e+00 3.8804528057e+00 
70500 3.1327023118e+00 6.6348746097e-05 2.2403804719e+00 -3.8804528057e+00 2.2403804719e+00 3.8804528057e+00 
70600 3.1327023132e+00 6.6342279164e-05 2.2403804719e+00 -3.8804528057e+00 2.2403804719e+00 3.8804528057e+00 
70700 3.1327023145e+00 6.6335536709e-05 2.2403804719e+00 -3.8804528057e+00 2.2403804719e+00 3.8804528057e+00 
70800 3.1327023158e+00 6.6328532653e-05 2.2403804719e+00 -3.8804528057e+00 2.2403804719e+00 3.8804528057e+00 
70900 3.1327023172e+00 6.6321280810e-05 2.2403804719e+00 -3.8804528057e+00 2.2403804719e+00 3.8804528057e+00 
71000 3.1327023185e+00 6.6313794871e-05 2.2403804719e+00 -3.8804528057e+00 2.2403804719e+00 3.8804528057e+00 
71100 3.1327023197e+00 6.6306088381e-05 2.2403804719e+00 -3.8804528057e+00 2.2403804719e+00 3.8804528057e+00 
71200 3.1327023210e+00 6.6298174741e-05 2.2403804719e+00 -3.8804528057e+00 2.2403804719e+00 3.8804528057e+00 
71300 3.1327023223e+00 6.6290067188e-05 2.2403804719e+00 -3.8804528057e+00 2.2403804719e+00 3.8804528057e+00 
71400 3.1327023235e+00 6.6281778782e-05 2.2403804719e+00 -3.8804528057e+00 2.2403804719e+00 3.8804528057e+00 
71500 3.1327023247e+00 6.6273322403e-05 2.2403804719e+00 -3.8804528057e+00 2.2403804719e+00 3.8804528057e+00 
71600 3.1327023259e+00 6.6264710739e-05 2.2403804719e+00 -3.8804528057e+00 2.2403804719e+00 3.8804528057e+00 
71700 3.1327023271e+00 6.6255956275e-05 2.2403804719e+00 -3.8804528057e+00 2.2403804719e+00 3.8804528057e+00 
71800 3.1327023283e+00 6.6247071288e-05 2.2403804719e+00 -3.8804528057e+00 2.2403804719e+00 3.8804528057e+00 
71900 3.1327023294e+00 6.6238067839e-05 2.2403804719e+00 -3.8804528057e+00 2.2403804719e+00 3.8804528057e+00 
72000 3.1327023306e+00 6.6228957764e-05 2.2403804719e+00 -3.8804528057e+00 2.2403804719e+00 3.8804528057e+00 
72100 3.1327023317e+00 6.6219752668e-05 2.2403804719e+00 -3.8804528057e+00 2.2403804719e+00 3.8804528057e+00 
72200 3.1327023328e+00 6.6210463921e-05 2.2403804719e+00 -3.8804528057e+00 2.2403804719e+00 3.8804528057e+00 
72300 3.1327023339e+00 6.6201102641e-05 2.2403804719e+00 -3.8804528057e+00 2.2403804719e+00 3.8804528057e+00 
72400 3.1327023350e+00 6.6191679704e-05 2.2403804719e+00 -3.8804528057e+00 2.2403804719e+00 3.8804528057e+00 
72500 3.1327023361e+00 6.6182205726e-05 2.2403804719e+00 -3.8804528057e+00 2.2403804719e+00 3.8804528057e+00 
72600 3.1327023371e+00 6.6172691057e-05 2.2403804719e+00 -3.8804528057e+00 2.2403804719e+00 3.8804528057e+00 
72700 3.1327023382e+00 6.6163145783e-05 2.2403804719e+00 -3.8804528057e+00 2.2403804719e+00 3.8804528057e+00 
72800 3.1327023392e+00 6.6153579714e-05 2.2403804719e+00 -3.8804528057e+00 2.2403804719e+00 3.8804528057e+00 
72900 3.1327023402e+00 6.6144002379e-05 2.2403804719e+00 -3.8804528057e+00 2.2403804719e+00 3.8804528057e+00 
73000 3.1327023412e+00 6.6134423024e-05 2.2403804719e+00 -3.8804528057e+00 2.2403804719e+00 3.8804528057e+00 
73100 3.1327023422e+00 6.6124850606e-05 2.2403804719e+00 -3.8804528057e+00 2.2403804719e+00 3.8804528057e+00 
73200 3.1327023432e+00 6.6115293788e-05 2.2403804719e+00 -3.8804528057e+00 2.2403804719e+00 3.8804528057e+00 
73300 3.1327023442e+00 6.6105760936e-05 2.2403804719e+00 -3.8804528057e+00 2.2403804719e+00 3.8804528057e+00 
73400 3.1327023451e+00 6.6096260109e-05 2.2403804719e+00 -3.8804528057e+00 2.2403804719e+00 3.8804528057e+00 
73500 3.1327023460e+00 6.6086799067e-05 2.2403804719e+00 -3.8804528057e+00 2.2403804719e+00 3.8804528057e+00 
73600 3.1327023470e+00 6.6077385256e-05 2.2403804719e+00 -3.8804528057e+00 2.2403804719e+00 3.8804528057e+00 
73700 3.1327023479e+00 6.6068025815e-05 2.2403804719e+00 -3.8804528057e+00 2.2403804719e+00 3.8804528057e+00 
73800 3.1327023488e+00 6.6058727567e-05 2.2403804719e+00 -3.8804528057e+00 2.2403804719e+00 3.8804528057e+00 
73900 3.1327023497e+00 6.6049497018e-05 2.2403804719e+00 -3.8804528057e+00 2.2403804719e+00 3.8804528057e+00 
74000 3.1327023506e+00 6.6040340356e-05 2.2403804719e+00 -3.8804528057e+00 2.2403804719e+00 3.8804528057e+00 
74100 3.1327023514e+00 6.6031263456e-05 2.2403804719e+00 -3.8804528057e+00 2.2403804719e+00 3.8804528057e+00 
74200 3.1327023523e+00 6.6022271871e-05 2.2403804719e+00 -3.8804528057e+00 2.2403804719e+00 3.8804528057e+00 
74300 3.1327023532e+00 6.6013370832e-05 2.2403804719e+00 -3.8804528057e+00 2.2403804719e+00 3.8804528057e+00 
74400 3.1327023540e+00 6.6004565257e-05 2.2403804719e+00 -3.8804528057e+00 2.2403804719e+00 3.8804528057e+00 
74500 3.1327023548e+00 6.5995859746e-05 2.2403804719e+00 -3.8804528057e+00 2.2403804719e+00 3.8804528057e+00 
74600 3.1327023556e+00 6.5987258581e-05 2.2403804719e+00 -3.8804528057e+00 2.2403804719e+00 3.8804528057e+00 
74700 3.1327023564e+00 6.5978765731e-05 2.2403804719e+00 -3.8804528057e+00 2.2403804719e+00 3.8804528057e+00 
74800 3.1327023572e+00 6.5970384857e-05 2.2403804719e+00 -3.8804528057e+00 2.2403804719e+00 3.8804528057e+00 
74900 3.1327023580e+00 6.5962119310e-05 2.2403804719e+00 -3.8804528057e+00 2.2403804719e+00 3.8804528057e+00 
75000 3.1327023588e+00 6.5953972137e-05 2.2403804719e+00 -3.8804528057e+00 2.2403804719e+00 3.8804528057e+00 
75100 3.1327023596e+00 6.5945946088e-05 2.2403804719e+00 -3.8804528057e+00 2.2403804719e+00 3.8804528057e+00 
75200 3.1327023603e+00 6.5938043616e-05 2.2403804719e+00 -3.8804528057e+00 2.2403804719e+00 3.8804528057e+00 
75300 3.1327023611e+00 6.5930266881e-05 2.2403804719e+00 -3.8804528057e+00 2.2403804719e+00 3.8804528057e+00 
75400 3.1327023618e+00 6.5922617766e-05 2.2403804719e+00 -3.8804528057e+00 2.2403804719e+00 3.8804528057e+00 
75500 3.1327023625e+00 6.5915097870e-05 2.2403804719e+00 -3.8804528057e+00 2.2403804719e+00 3.8804528057e+00 
75600 3.1327023633e+00 6.5907708524e-05 2.2403804719e+00 -3.8804528057e+00 2.2403804719e+00 3.8804528057e+00 
75700 3.1327023640e+00 6.5900450790e-05 2.2403804719e+00 -3.8804528057e+00 2.2403804719e+00 3.8804528057e+00 
75800 3.1327023647e+00 6.5893325481e-05 2.2403804719e+00 -3.8804528057e+00 2.2403804719e+00 3.8804528057e+00 
75900 3.1327023654e+00 6.5886333154e-05 2.2403804719e+00 -3.8804528057e+00 2.2403804719e+00 3.8804528057e+00 
76000 3.1327023660e+00 6.5879474126e-05 2.2403804719e+00 -3.8804528057e+00 2.2403804719e+00 3.8804528057e+00 
76100 3.1327023667e+00 6.5872748482e-05 2.2403804719e+00 -3.8804528057e+00 2.2403804719e+00 3.8804528057e+00 
76200 3.1327023674e+00 6.5866156083e-05 2.2403804719e+00 -3.8804528057e+00 2.2403804719e+00 3.8804528057e+00 
76300 3.1327023680e+00 6.5859696573e-05 2.2403804719e+00 -3.8804528057e+00 2.2403804719e+00 3.8804528057e+00 
76400 3.1327023687e+00 6.5853369392e-05 2.2403804719e+00 -3.8804528057e+00 2.2403804719e+00 3.8804528057e+00 
76500 3.1327023693e+00 6.5847173784e-05 2.2403804719e+00 -3.8804528057e+00 2.2403804719e+00 3.8804528057e+00 
76600 3.1327023700e+00 6.5841108804e-05 2.2403804719e+00 -3.8804528057e+00 2.2403804719e+00 3.8804528057e+00 
76700 3.1327023706e+00 6.5835173329e-05 2.2403804719e+00 -3.8804528057e+00 2.2403804719e+00 3.8804528057e+00 
76800 3.1327023712e+00 6.5829366072e-05 2.2403804719e+00 -3.8804528057e+00 2.2403804719e+00 3.8804528057e+00 
76900 3.1327023718e+00 6.5823685583e-05 2.2403804719e+00 -3.8804528057e+00 2.2403804719e+00 3.8804528057e+00 
77000 3.1327023724e+00 6.5818130268e-05 2.2403804719e+00 -3.8804528057e+00 2.2403804719e+00 3.8804528057e+00 
77100 3.1327023730e+00 6.5812698393e-05 2.2403804719e+00 -3.8804528057e+00 2.2403804719e+00 3.8804528057e+00 
77200 3.1327023736e+00 6.5807388098e-05 2.2403804719e+00 -3.8804528057e+00 2.2403804719e+00 3.8804528057e+00 
77300 3.1327023742e+00 6.5802197405e-05 2.2403804719e+00 -3.8804528057e+00 2.2403804719e+00 3.8804528057e+00 
77400 3.1327023748e+00 6.5797124224e-05 2.2403804719e+00 -3.8804528057e+00 2.2403804719e+00 3.8804528057e+00 
77500 3.1327023753e+00 6.5792166370e-05 2.2403804719e+00 -3.8804528057e+00 2.2403804719e+00 3.8804528057e+00 
77600 3.1327023759e+00 6.5787321570e-05 2.2403804719e+00 -3.8804528057e+00 2.2403804719e+00 3.8804528057e+00 
77700 3.1327023764e+00 6.5782587468e-05 2.2403804719e+00 -3.8804528057e+00 2.2403804719e+00 3.8804528057e+00 
77800 3.1327023770e+00 6.5777961641e-05 2.2403804719e+00 -3.8804528057e+00 2.2403804719e+00 3.8804528057e+00 
77900 3.1327023775e+00 6.5773441603e-05 2.2403804719e+00 -3.8804528057e+00 2.2403804719e+00 3.8804528057e+00 
78000 3.1327023780e+00 6.5769024817e-05 2.2403804719e+00 -3.8804528057e+00 2.2403804719e+00 3.8804528057e+00 
78100 3.1327023786e+00 6.5764708704e-05 2.2403804719e+00 -3.8804528057e+00 2.2403804719e+00 3.8804528057e+00 
78200 3.1327023791e+00 6.5760490645e-05 2.2403804719e+00 -3.8804528057e+00 2.2403804719e+00 3.8804528057e+00 
78300 3.1327023796e+00 6.5756368002e-05 2.2403804719e+00 -3.8804528057e+00 2.2403804719e+00 3.8804528057e+00 
78400 3.1327023801e+00 6.5752338112e-05 2.2403804719e+00 -3.8804528057e+00 2.2403804719e+00 3.8804528057e+00 
78500 3.1327023806e+00 6.5748398304e-05 2.2403804719e+00 -3.8804528057e+00 2.2403804719e+00 3.8804528057e+00 
78600 3.1327023811e+00 6.5744545904e-05 2.2403804719e+00 -3.8804528057e+00 2.2403804719e+00 3.8804528057e+00 
78700 3.1327023816e+00 6.5740778239e-05 2.2403804719e+00 -3.8804528057e+00 2.2403804719e+00 3.8804528057e+00 
78800 3.1327023820e+00 6.5737092645e-05 2.2403804719e+00 -3.8804528057e+00 2.2403804719e+00 3.8804528057e+00 
78900 3.1327023825e+00 6.5733486480e-05 2.2403804719e+00 -3.8804528057e+00 2.2403804719e+00 3.8804528057e+00 
79000 3.1327023830e+00 6.5729957117e-05 2.2403804719e+00 -3.8804528057e+00 2.2403804719e+00 3.8804528057e+00 
79100 3.1327023834e+00 6.5726501965e-05 2.2403804719e+00 -3.8804528057e+00 2.2403804719e+00 3.8804528057e+00 
79200 3.1327023839e+00 6.5723118460e-05 2.2403804719e+00 -3.8804528057e+00 2.2403804719e+00 3.8804528057e+00 
79300 3.1327023843e+00 6.5719804078e-05 2.2403804719e+00 -3.8804528057e+00 2.2403804719e+00 3.8804528057e+00 
79400 3.1327023848e+00 6.5716556342e-05 2.2403804719e+00 -3.8804528057e+00 2.2403804719e+00 3.8804528057e+00 
79500 3.1327023852e+00 6.5713372819e-05 2.2403804719e+00 -3.8804528057e+00 2.2403804719e+00 3.8804528057e+00 
79600 3.1327023857e+00 6.5710251125e-05 2.2403804719e+00 -3.8804528057e+00 2.2403804719e+00 3.8804528057e+00 
79700 3.1327023861e+00 6.5707188939e-05 2.2403804719e+00 -3.8804528057e+00 2.2403804719e+00 3.8804528057e+00 
79800 3.1327023865e+00 6.5704183991e-05 2.2403804719e+00 -3.8804528057e+00 2.2403804719e+00 3.8804528057e+00 
79900 3.1327023869e+00 6.5701234075e-05 2.2403804719e+00 -3.8804528057e+00 2.2403804719e+00 3.8804528057e+00 
80000 3.1327023873e+00 6.5698337048e-05 2.2403804719e+00 -3.8804528057e+00 2.2403804719e+00 3.8804528057e+00 
80100 3.1327023877e+00 6.5695490835e-05 2.2403804719e+00 -3.8804528057e+00 2.2403804719e+00 3.8804528057e+00 
80200 3.1327023881e+00 6.5692693430e-05 2.2403804719e+00 -3.8804528057e+00 2.2403804719e+00 3.8804528057e+00 
80300 3.1327023885e+00 6.5689942891e-05 2.2403804719e+00 -3.8804528057e+00 2.2403804719e+00 3.8804528057e+00 
80400 3.1327023889e+00 6.5687237356e-05 2.2403804719e+00 -3.8804528057e+00 2.2403804719e+00 3.8804528057e+00 
80500 3.1327023893e+00 6.5684575028e-05 2.2403804719e+00 -3.8804528057e+00 2.2403804719e+00 3.8804528057e+00 
80600 3.1327023897e+00 6.5681954186e-05 2.2403804719e+00 -3.8804528057e+00 2.2403804719e+00 3.8804528057e+00 
80700 3.1327023901e+00 6.5679373184e-05 2.2403804719e+00 -3.8804528057e+00 2.2403804719e+00 3.8804528057e+00 
80800 3.1327023904e+00 6.5676830447e-05 2.2403804719e+00 -3.8804528057e+00 2.2403804719e+00 3.8804528057e+00 
80900 3.1327023908e+00 6.5674324476e-05 2.2403804719e+00 -3.8804528057e+00 2.2403804719e+00 3.8804528057e+00 
81000 3.1327023912e+00 6.5671853844e-05 2.2403804719e+00 -3.8804528057e+00 2.2403804719e+00 3.8804528057e+00 
81100 3.1327023915e+00 6.5669417199e-05 2.2403804719e+00 -3.8804528057e+00 2.2403804719e+00 3.8804528057e+00 
81200 3.1327023919e+00 6.5667013262e-05 2.2403804719e+00 -3.8804528057e+00 2.2403804719e+00 3.8804528057e+00 
81300 3.1327023922e+00 6.5664640821e-05 2.2403804719e+00 -3.8804528057e+00 2.2403804719e+00 3.8804528057e+00 
81400 3.1327023926e+00 6.5662298741e-05 2.2403804719e+00 -3.8804528057e+00 2.2403804719e+00 3.8804528057e+00 
81500 3.1327023929e+00 6.5659985952e-05 2.2403804719e+00 -3.8804528057e+00 2.2403804719e+00 3.8804528057e+00 
81600 3.1327023933e+00 6.5657701454e-05 2.2403804719e+00 -3.8804528057e+00 2.2403804719e+00 3.8804528057e+00 
81700 3.1327023936e+00 6.5655444314e-05 2.2403804719e+00 -3.8804528057e+00 2.2403804719e+00 3.8804528057e+00 
81800 3.1327023939e+00 6.5653213662e-05 2.2403804719e+00 -3.8804528057e+00 2.2403804719e+00 3.8804528057e+00 
81900 3.1327023942e+00 6.5651008689e-05 2.2403804719e+00 -3.8804528057e+00 2.2403804719e+00 3.8804528057e+00 
82000 3.1327023946e+00 6.5648828655e-05 2.2403804719e+00 -3.8804528057e+00 2.2403804719e+00 3.8804528057e+00 
82100 3.1327023949e+00 6.5646672872e-05 2.2403804719e+00 -3.8804528057e+00 2.2403804719e+00 3.8804528057e+00 
82200 3.1327023952e+00 6.5644540710e-05 2.2403804719e+00 -3.8804528057e+00 2.2403804719e+00 3.8804528057e+00 
82300 3.1327023955e+00 6.5642431597e-05 2.2403804719e+00 -3.8804528057e+00 2.2403804719e+00 3.8804528057e+00 
82400 3.1327023958e+00 6.5640345011e-05 2.2403804719e+00 -3.8804528057e+00 2.2403804719e+00 3.8804528057e+00 
82500 3.1327023961e+00 6.5638280478e-05 2.2403804719e+00 -3.8804528057e+00 2.2403804719e+00 3.8804528057e+00 
82600 3.1327023964e+00 6.5636237579e-05 2.2403804719e+00 -3.8804528057e+00 2.2403804719e+00 3.8804528057e+00 
82700 3.1327023967e+00 6.5634215935e-05 2.2403804719e+00 -3.8804528057e+00 2.2403804719e+00 3.8804528057e+00 
82800 3.1327023970e+00 6.5632215211e-05 2.2403804719e+00 -3.8804528057e+00 2.2403804719e+00 3.8804528057e+00 
82900 3.1327023973e+00 6.5630235112e-05 2.2403804719e+00 -3.8804528057e+00 2.2403804719e+00 3.8804528057e+00 
83000 3.1327023976e+00 6.5628275385e-05 2.2403804719e+00 -3.8804528057e+00 2.2403804719e+00 3.8804528057e+00 
83100 3.1327023978e+00 6.5626335811e-05 2.2403804719e+00 -3.8804528057e+00 2.2403804719e+00 3.8804528057e+00 
83200 3.1327023981e+00 6.5624416202e-05 2.2403804719e+00 -3.8804528057e+00 2.2403804719e+00 3.8804528057e+00 
83300 3.1327023984e+00 6.5622516405e-05 2.2403804719e+00 -3.8804528057e+00 2.2403804719e+00 3.8804528057e+00 
83400 3.1327023987e+00 6.5620636293e-05 2.2403804719e+00 -3.8804528057e+00 2.2403804719e+00 3.8804528057e+00 
83500 3.1327023989e+00 6.5618775767e-05 2.2403804719e+00 -3.8804528057e+00 2.2403804719e+00 3.8804528057e+00 
83600 3.1327023992e+00 6.5616934754e-05 2.2403804719e+00 -3.8804528057e+00 2.2403804719e+00 3.8804528057e+00 
83700 3.1327023994e+00 6.5615113199e-05 2.2403804719e+00 -3.8804528057e+00 2.2403804719e+00 3.8804528057e+00 
83800 3.1327023997e+00 6.5613311070e-05 2.2403804719e+00 -3.8804528057e+00 2.2403804719e+00 3.8804528057e+00 
83900 3.1327023999e+00 6.5611528349e-05 2.2403804719e+00 -3.8804528057e+00 2.2403804719e+00 3.8804528057e+00 
84000 3.1327024002e+00 6.5609765038e-05 2.2403804719e+00 -3.8804528057e+00 2.2403804719e+00 3.8804528057e+00 
84100 3.1327024004e+00 6.5608021153e-05 2.2403804719e+00 -3.8804528057e+00 2.2403804719e+00 3.8804528057e+00 
84200 3.1327024007e+00 6.5606296717e-05 2.2403804719e+00 -3.8804528057e+00 2.2403804719e+00 3.8804528057e+00 
84300 3.1327024009e+00 6.5604591765e-05 2.2403804719e+00 -3.8804528057e+00 2.2403804719e+00 3.8804528057e+00 
84400 3.1327024012e+00 6.5602906342e-05 2.2403804719e+00 -3.8804528057e+00 2.2403804719e+00 3.8804528057e+00 
84500 3.1327024014e+00 6.5601240497e-05 2.2403804719e+00 -3.8804528057e+00 2.2403804719e+00 3.8804528057e+00 
84600 3.1327024016e+00 6.5599594286e-05 2.2403804719e+00 -3.8804528057e+00 2.2403804719e+00 3.8804528057e+00 
84700 3.1327024019e+00 6.5597967766e-05 2.2403804719e+00 -3.8804528057e+00 2.2403804719e+00 3.8804528057e+00 
84800 3.1327024021e+00 6.5596360996e-05 2.2403804719e+00 -3.8804528057e+00 2.2403804719e+00 3.8804528057e+00 
84900 3.1327024023e+00 6.5594774039e-05 2.2403804719e+00 -3.8804528057e+00 2.2403804719e+00 3.8804528057e+00 
85000 3.1327024025e+00 6.5593206951e-05 2.2403804719e+00 -3.8804528057e+00 2.2403804719e+00 3.8804528057e+00 
85100 3.1327024027e+00 6.5591659792e-05 2.2403804719e+00 -3.8804528057e+00 2.2403804719e+00 3.8804528057e+00 
85200 3.1327024030e+00 6.5590132614e-05 2.2403804719e+00 -3.8804528057e+00 2.2403804719e+00 3.8804528057e+00 
85300 3.1327024032e+00 6.5588625468e-05 2.2403804719e+00 -3.8804528057e+00 2.2403804719e+00 3.8804528057e+00 
85400 3.1327024034e+00 6.5587138399e-05 2.2403804719e+00 -3.8804528057e+00 2.2403804719e+00 3.8804528057e+00 
85500 3.1327024036e+00 6.5585671444e-05 2.2403804719e+00 -3.8804528057e+00 2.2403804719e+00 3.8804528057e+00 
85600 3.1327024038e+00 6.5584224637e-05 2.2403804719e+00 -3.8804528057e+00 2.2403804719e+00 3.8804528057e+00 
85700 3.1327024040e+00 6.5582798002e-05 2.2403804719e+00 -3.8804528057e+00 2.2403804719e+00 3.8804528057e+00 
85800 3.1327024042e+00 6.5581391554e-05 2.2403804719e+00 -3.8804528057e+00 2.2403804719e+00 3.8804528057e+00 
85900 3.1327024044e+00 6.5580005298e-05 2.2403804719e+00 -3.8804528057e+00 2.2403804719e+00 3.8804528057e+00 
86000 3.1327024046e+00 6.5578639235e-05 2.2403804719e+00 -3.8804528057e+00 2.2403804719e+00 3.8804528057e+00 
86100 3.1327024048e+00 6.5577293353e-05 2.2403804719e+00 -3.8804528057e+00 2.2403804719e+00 3.8804528057e+00 
86200 3.1327024050e+00 6.5575967630e-05 2.2403804719e+00 -3.8804528057e+00 2.2403804719e+00 3.8804528057e+00 
86300 3.1327024052e+00 6.5574662034e-05 2.2403804719e+00 -3.8804528057e+00 2.2403804719e+00 3.8804528057e+00 
86400 3.1327024053e+00 6.5573376523e-05 2.2403804719e+00 -3.8804528057e+00 2.2403804719e+00 3.8804528057e+00 
86500 3.1327024055e+00 6.5572111044e-05 2.2403804719e+00 -3.8804528057e+00 2.2403804719e+00 3.8804528057e+00 
86600 3.1327024057e+00 6.5570865532e-05 2.2403804719e+00 -3.8804528057e+00 2.2403804719e+00 3.8804528057e+00 
86700 3.1327024059e+00 6.5569639911e-05 2.2403804719e+00 -3.8804528057e+00 2.2403804719e+00 3.8804528057e+00 
86800 3.1327024061e+00 6.5568434099e-05 2.2403804719e+00 -3.8804528057e+00 2.2403804719e+00 3.8804528057e+00 
86900 3.1327024062e+00 6.5567247996e-05 2.2403804719e+00 -3.8804528057e+00 2.2403804719e+00 3.8804528057e+00 
87000 3.1327024064e+00 6.5566081499e-05 2.2403804719e+00 -3.8804528057e+00 2.2403804719e+00 3.8804528057e+00 
87100 3.1327024066e+00 6.5564934489e-05 2.2403804719e+00 -3.8804528057e+00 2.2403804719e+00 3.8804528057e+00 
87200 3.1327024067e+00 6.5563806837e-05 2.2403804719e+00 -3.8804528057e+00 2.2403804719e+00 3.8804528057e+00 
87300 3.1327024069e+00 6.5562698406e-05 2.2403804719e+00 -3.8804528057e+00 2.2403804719e+00 3.8804528057e+00 
87400 3.1327024071e+00 6.5561609051e-05 2.2403804719e+00 -3.8804528057e+00 2.2403804719e+00 3.8804528057e+00 
87500 3.1327024072e+00 6.5560538611e-05 2.2403804719e+00 -3.8804528057e+00 2.2403804719e+00 3.8804528057e+00 
87600 3.1327024074e+00 6.5559486924e-05 2.2403804719e+00 -3.8804528057e+00 2.2403804719e+00 3.8804528057e+00 
87700 3.1327024075e+00 6.5558453812e-05 2.2403804719e+00 -3.8804528057e+00 2.2403804719e+00 3.8804528057e+00 
87800 3.1327024077e+00 6.5557439095e-05 2.2403804719e+00 -3.8804528057e+00 2.2403804719e+00 3.8804528057e+00 
87900 3.1327024079e+00 6.5556442577e-05 2.2403804719e+00 -3.8804528057e+00 2.2403804719e+00 3.8804528057e+00 
88000 3.1327024080e+00 6.5555464064e-05 2.2403804719e+00 -3.8804528057e+00 2.2403804719e+00 3.8804528057e+00 
88100 3.1327024082e+00 6.5554503348e-05 2.2403804719e+00 -3.8804528057e+00 2.2403804719e+00 3.8804528057e+00 
88200 3.1327024083e+00 6.5553560216e-05 2.2403804719e+00 -3.8804528057e+00 2.2403804719e+00 3.8804528057e+00 
88300 3.1327024085e+00 6.5552634449e-05 2.2403804719e+00 -3.8804528057e+00 2.2403804719e+00 3.8804528057e+00 
88400 3.1327024086e+00 6.5551725823e-05 2.2403804719e+00 -3.8804528057e+00 2.2403804719e+00 3.8804528057e+00 
88500 3.1327024087e+00 6.5550834106e-05 2.2403804719e+00 -3.8804528057e+00 2.2403804719e+00 3.8804528057e+00 
88600 3.1327024089e+00 6.5549959064e-05 2.2403804719e+00 -3.8804528057e+00 2.2403804719e+00 3.8804528057e+00 
88700 3.1327024090e+00 6.5549100457e-05 2.2403804719e+00 -3.8804528057e+00 2.2403804719e+00 3.8804528057e+00 
88800 3.1327024092e+00 6.5548258043e-05 2.2403804719e+00 -3.8804528057e+00 2.2403804719e+00 3.8804528057e+00 
88900 3.1327024093e+00 6.5547431575e-05 2.2403804719e+00 -3.8804528057e+00 2.2403804719e+00 3.8804528057e+00 
89000 3.1327024094e+00 6.5546620801e-05 2.2403804719e+00 -3.8804528057e+00 2.2403804719e+00 3.8804528057e+00 
89100 3.1327024096e+00 6.5545825473e-05 2.2403804719e+00 -3.8804528057e+00 2.2403804719e+00 3.8804528057e+00 
89200 3.1327024097e+00 6.5545045334e-05 2.2403804719e+00 -3.8804528057e+00 2.2403804719e+00 3.8804528057e+00 
89300 3.1327024098e+00 6.5544280127e-05 2.2403804719e+00 -3.8804528057e+00 2.2403804719e+00 3.8804528057e+00 
89400 3.1327024099e+00 6.5543529596e-05 2.2403804719e+00 -3.8804528057e+00 2.2403804719e+00 3.8804528057e+00 
89500 3.1327024101e+00 6.5542793485e-05 2.2403804719e+00 -3.8804528057e+00 2.2403804719e+00 3.8804528057e+00 
89600 3.1327024102e+00 6.5542071534e-05 2.2403804719e+00 -3.8804528057e+00 2.2403804719e+00 3.8804528057e+00 
89700 3.1327024103e+00 6.5541363484e-05 2.2403804719e+00 -3.8804528057e+00 2.2403804719e+00 3.8804528057e+00 
89800 3.1327024104e+00 6.5540669081e-05 2.2403804719e+00 -3.8804528057e+00 2.2403804719e+00 3.8804528057e+00 
89900 3.1327024106e+00 6.5539988065e-05 2.2403804719e+00 -3.8804528057e+00 2.2403804719e+00 3.8804528057e+00 
90000 3.1327024107e+00 6.5539320183e-05 2.2403804719e+00 -3.8804528057e+00 2.2403804719e+00 3.8804528057e+00 
90100 3.1327024108e+00 6.5538665180e-05 2.2403804719e+00 -3.8804528057e+00 2.2403804719e+00 3.8804528057e+00 
90200 3.1327024109e+00 6.5538022806e-05 2.2403804719e+00 -3.8804528057e+00 2.2403804719e+00 3.8804528057e+00 
90300 3.1327024110e+00 6.5537392809e-05 2.2403804719e+00 -3.8804528057e+00 2.2403804719e+00 3.8804528057e+00 
90400 3.1327024111e+00 6.5536774942e-05 2.2403804719e+00 -3.8804528057e+00 2.2403804719e+00 3.8804528057e+00 
90500 3.1327024113e+00 6.5536168962e-05 2.2403804719e+00 -3.8804528057e+00 2.2403804719e+00 3.8804528057e+00 
90600 3.1327024114e+00 6.5535574626e-05 2.2403804719e+00 -3.8804528057e+00 2.2403804719e+00 3.8804528057e+00 
90700 3.1327024115e+00 6.5534991699e-05 2.2403804719e+00 -3.8804528057e+00 2.2403804719e+00 3.8804528057e+00 
90800 3.1327024116e+00 6.5534419943e-05 2.2403804719e+00 -3.8804528057e+00 2.2403804719e+00 3.8804528057e+00 
90900 3.1327024117e+00 6.5533859131e-05 2.2403804719e+00 -3.8804528057e+00 2.2403804719e+00 3.8804528057e+00 
91000 3.1327024118e+00 6.5533309031e-05 2.2403804719e+00 -3.8804528057e+00 2.2403804719e+00 3.8804528057e+00 
91100 3.1327024119e+00 6.5532769424e-05 2.2403804719e+00 -3.8804528057e+00 2.2403804719e+00 3.8804528057e+00 
91200 3.1327024120e+00 6.5532240091e-05 2.2403804719e+00 -3.8804528057e+00 2.2403804719e+00 3.8804528057e+00 
91300 3.1327024121e+00 6.5531720817e-05 2.2403804719e+00 -3.8804528057e+00 2.2403804719e+00 3.8804528057e+00 
91400 3.1327024122e+00 6.5531211392e-05 2.2403804719e+00 -3.8804528057e+00 2.2403804719e+00 3.8804528057e+00 
91500 3.1327024123e+00 6.5530711611e-05 2.2403804719e+00 -3.8804528057e+00 2.2403804719e+00 3.8804528057e+00 
91600 3.1327024124e+00 6.5530221274e-05 2.2403804719e+00 -3.8804528057e+00 2.2403804719e+00 3.8804528057e+00 
91700 3.1327024125e+00 6.5529740185e-05 2.2403804719e+00 -3.8804528057e+00 2.2403804719e+00 3.8804528057e+00 
91800 3.1327024126e+00 6.5529268153e-05 2.2403804719e+00 -3.8804528057e+00 2.2403804719e+00 3.8804528057e+00 
91900 3.1327024127e+00 6.5528804993e-05 2.2403804719e+00 -3.8804528057e+00 2.2403804719e+00 3.8804528057e+00 
92000 3.1327024128e+00 6.5528350521e-05 2.2403804719e+00 -3.8804528057e+00 2.2403804719e+00 3.8804528057e+00 
92100 3.1327024129e+00 6.5527904564e-05 2.2403804719e+00 -3.8804528057e+00 2.2403804719e+00 3.8804528057e+00 
92200 3.1327024130e+00 6.5527466947e-05 2.2403804719e+00 -3.8804528057e+00 2.2403804719e+00 3.8804528057e+00 
92300 3.1327024130e+00 6.5527037508e-05 2.2403804719e+00 -3.8804528057e+00 2.2403804719e+00 3.8804528057e+00 
92400 3.1327024131e+00 6.5526616082e-05 2.2403804719e+00 -3.8804528057e+00 2.2403804719e+00 3.8804528057e+00 
92500 3.1327024132e+00 6.5526202512e-05 2.2403804719e+00 -3.8804528057e+00 2.2403804719e+00 3.8804528057e+00 
92600 3.1327024133e+00 6.5525796646e-05 2.2403804719e+00 -3.8804528057e+00 2.2403804719e+00 3.8804528057e+00 
92700 3.1327024134e+00 6.5525398338e-05 2.2403804719e+00 -3.8804528057e+00 2.2403804719e+00 3.8804528057e+00 
92800 3.1327024135e+00 6.5525007442e-05 2.2403804719e+00 -3.8804528057e+00 2.2403804719e+00 3.8804528057e+00 
92900 3.1327024136e+00 6.5524623824e-05 2.2403804719e+00 -3.8804528057e+00 2.2403804719e+00 3.8804528057e+00 
93000 3.1327024136e+00 6.5524247347e-05 2.2403804719e+00 -3.8804528057e+00 2.2403804719e+00 3.8804528057e+00 
93100 3.1327024137e+00 6.5523877883e-05 2.2403804719e+00 -3.8804528057e+00 2.2403804719e+00 3.8804528057e+00 
93200 3.1327024138e+00 6.5523515307e-05 2.2403804719e+00 -3.8804528057e+00 2.2403804719e+00 3.8804528057e+00 
93300 3.1327024139e+00 6.5523159497e-05 2.2403804719e+00 -3.8804528057e+00 2.2403804719e+00 3.8804528057e+00 
93400 3.1327024140e+00 6.5522810336e-05 2.2403804719e+00 -3.8804528057e+00 2.2403804719e+00 3.8804528057e+00 
93500 3.1327024140e+00 6.5522467714e-05 2.2403804719e+00 -3.8804528057e+00 2.2403804719e+00 3.8804528057e+00 
93600 3.1327024141e+00 6.5522131520e-05 2.2403804719e+00 -3.8804528057e+00 2.2403804719e+00 3.8804528057e+00 
93700 3.1327024142e+00 6.5521801650e-05 2.2403804719e+00 -3.8804528057e+00 2.2403804719e+00 3.8804528057e+00 
93800 3.1327024143e+00 6.5521477999e-05 2.2403804719e+00 -3.8804528057e+00 2.2403804719e+00 3.8804528057e+00 
93900 3.1327024143e+00 6.5521160473e-05 2.2403804719e+00 -3.8804528057e+00 2.2403804719e+00 3.8804528057e+00 
94000 3.1327024144e+00 6.5520848976e-05 2.2403804719e+00 -3.8804528057e+00 2.2403804719e+00 3.8804528057e+00 
94100 3.1327024145e+00 6.5520543416e-05 2.2403804719e+00 -3.8804528057e+00 2.2403804719e+00 3.8804528057e+00 
94200 3.1327024146e+00 6.5520243705e-05 2.2403804719e+00 -3.8804528057e+00 2.2403804719e+00 3.8804528057e+00 
94300 3.1327024146e+00 6.5519949759e-05 2.2403804719e+00 -3.8804528057e+00 2.2403804719e+00 3.8804528057e+00 
94400 3.1327024147e+00 6.5519661493e-05 2.2403804719e+00 -3.8804528057e+00 2.2403804719e+00 3.8804528057e+00 
94500 3.1327024148e+00 6.5519378830e-05 2.2403804719e+00 -3.8804528057e+00 2.2403804719e+00 3.8804528057e+00 
94600 3.1327024148e+00 6.5519101691e-05 2.2403804719e+00 -3.8804528057e+00 2.2403804719e+00 3.8804528057e+00 
94700 3.1327024149e+00 6.5518830001e-05 2.2403804719e+00 -3.8804528057e+00 2.2403804719e+00 3.8804528057e+00 
94800 3.1327024150e+00 6.5518563689e-05 2.2403804719e+00 -3.8804528057e+00 2.2403804719e+00 3.8804528057e+00 
94900 3.1327024150e+00 6.5518302684e-05 2.2403804719e+00 -3.8804528057e+00 2.2403804719e+00 3.8804528057e+00 
95000 3.1327024151e+00 6.5518046919e-05 2.2403804719e+00 -3.8804528057e+00 2.2403804719e+00 3.8804528057e+00 
95100 3.1327024152e+00 6.5517796328e-05 2.2403804719e+00 -3.8804528057e+00 2.2403804719e+00 3.8804528057e+00 
95200 3.1327024152e+00 6.5517550845e-05 2.2403804719e+00 -3.8804528057e+00 2.2403804719e+00 3.8804528057e+00 
95300 3.1327024153e+00 6.5517310409e-05 2.2403804719e+00 -3.8804528057e+00 2.2403804719e+00 3.8804528057e+00 
95400 3.1327024153e+00 6.5517074960e-05 2.2403804719e+00 -3.8804528057e+00 2.2403804719e+00 3.8804528057e+00 
95500 3.1327024154e+00 6.5516844437e-05 2.2403804719e+00 -3.8804528057e+00 2.2403804719e+00 3.8804528057e+00 
95600 3.1327024155e+00 6.5516618780e-05 2.2403804719e+00 -3.8804528057e+00 2.2403804719e+00 3.8804528057e+00 
95700 3.1327024155e+00 6.5516397939e-05 2.2403804719e+00 -3.8804528057e+00 2.2403804719e+00 3.8804528057e+00 
95800 3.1327024156e+00 6.5516181852e-05 2.2403804719e+00 -3.8804528057e+00 2.2403804719e+00 3.8804528057e+00 
95900 3.1327024156e+00 6.5515970470e-05 2.2403804719e+00 -3.8804528057e+00 2.2403804719e+00 3.8804528057e+00 
96000 3.1327024157e+00 6.5515763735e-05 2.2403804719e+00 -3.8804528057e+00 2.2403804719e+00 3.8804528057e+00 
96100 3.1327024158e+00 6.5515561599e-05 2.2403804719e+00 -3.8804528057e+00 2.2403804719e+00 3.8804528057e+00 
96200 3.1327024158e+00 6.5515364007e-05 2.2403804719e+00 -3.8804528057e+00 2.2403804719e+00 3.8804528057e+00 
96300 3.1327024159e+00 6.5515170911e-05 2.2403804719e+00 -3.8804528057e+00 2.2403804719e+00 3.8804528057e+00 
96400 3.1327024159e+00 6.5514982260e-05 2.2403804719e+00 -3.8804528057e+00 2.2403804719e+00 3.8804528057e+00 
96500 3.1327024160e+00 6.5514798005e-05 2.2403804719e+00 -3.8804528057e+00 2.2403804719e+00 3.8804528057e+00 
96600 3.1327024160e+00 6.5514618096e-05 2.2403804719e+00 -3.8804528057e+00 2.2403804719e+00 3.8804528057e+00 
96700 3.1327024161e+00 6.5514442486e-05 2.2403804719e+00 -3.8804528057e+00 2.2403804719e+00 3.8804528057e+00 
96800 3.1327024161e+00 6.5514271128e-05 2.2403804719e+00 -3.8804528057e+00 2.2403804719e+00 3.8804528057e+00 
96900 3.1327024162e+00 6.5514103973e-05 2.2403804719e+00 -3.8804528057e+00 2.2403804719e+00 3.8804528057e+00 
97000 3.1327024162e+00 6.5513940975e-05 2.2403804719e+00 -3.8804528057e+00 2.2403804719e+00 3.8804528057e+00 
97100 3.1327024163e+00 6.5513807236e-05 2.2403804719e+00 -3.8804528057e+00 2.2403804719e+00 3.8804528057e+00 
97100 3.1327024163e+00 6.5513807236e-05 2.2403804719e+00 -3.8804528057e+00 2.2403804719e+00 3.8804528057e+00 
