# step Hamiltonian StressXX CellTensor1 CellTensor2 CellTensor3 CellTensor4 
0 6.5031805439e+00 -1.2169786869e-01 1.6387017056e+00 -2.8383146126e+00 1.6387017056e+00 2.8383146126e+00 
100 6.4972762177e+00 -1.2249682233e-01 1.6387017056e+00 -2.8383146126e+00 1.6387017056e+00 2.8383146126e+00 
200 6.4910435258e+00 -1.1980218304e-01 1.6424407413e+00 -2.8447908123e+00 1.6424407413e+00 2.8447908123e+00 
300 6.4850631497e+00 -1.1719015355e-01 1.6460891658e+00 -2.8511100690e+00 1.6460891658e+00 2.8511100690e+00 
400 6.4793359823e+00 -1.1465962991e-01 1.6496500999e+00 -2.8572777877e+00 1.6496500999e+00 2.8572777877e+00 
500 6.4738614497e+00 -1.1220959392e-01 1.6531265887e+00 -2.8632992430e+00 1.6531265887e+00 2.8632992430e+00 
600 6.4686376534e+00 -1.0983908032e-01 1.6565216073e+00 -2.8691795877e+00 1.6565216073e+00 2.8691795877e+00 
700 6.4636615068e+00 -1.0754714939e-01 1.6598380641e+00 -2.8749238593e+00 1.6598380641e+00 2.8749238593e+00 
800 6.4589288642e+00 -1.0533286408e-01 1.6630788039e+00 -2.8805369853e+00 1.6630788039e+00 2.8805369853e+00 
900 6.4544346436e+00 -1.0319527121e-01 1.6662466102e+00 -2.8860237868e+00 1.6662466102e+00 2.8860237868e+00 
1000 6.4501729422e+00 -1.0113338624e-01 1.6693442061e+00 -2.8913889804e+00 1.6693442061e+00 2.8913889804e+00 
1100 6.4461371470e+00 -9.9146181001e-02 1.6723742558e+00 -2.8966371803e+00 1.6723742558e+00 2.8966371803e+00 
1200 6.4423200377e+00 -9.7232574216e-02 1.6753393642e+00 -2.9017728986e+00 1.6753393642e+00 2.9017728986e+00 
1300 6.4387138849e+00 -9.5391424222e-02 1.6782420774e+00 -2.9068005455e+00 1.6782420774e+00 2.9068005455e+00 
1400 6.4353105413e+00 -9.3621523748e-02 1.6810848825e+00 -2.9117244283e+00 1.6810848825e+00 2.9117244283e+00 
1500 6.4321015279e+00 -9.1921596396e-02 1.6838702066e+00 -2.9165487513e+00 1.6838702066e+00 2.9165487513e+00 
1600 6.4290781137e+00 -9.0290294609e-02 1.6866004168e+00 -2.9212776139e+00 1.6866004168e+00 2.9212776139e+00 
1700 6.4262313899e+00 -8.8726198909e-02 1.6892778185e+00 -2.9259150098e+00 1.6892778185e+00 2.9259150098e+00 
1800 6.4235523394e+00 -8.7227818224e-02 1.6919046556e+00 -2.9304648251e+00 1.6919046556e+00 2.9304648251e+00 
1900 6.4210318998e+00 -8.5793591151e-02 1.6944831087e+00 -2.9349308368e+00 1.6944831087e+00 2.9349308368e+00 
2000 6.4186610213e+00 -8.4421887994e-02 1.6970152945e+00 -2.9393167113e+00 1.6970152945e+00 2.9393167113e+00 
2100 6.4164307204e+00 -8.3111013478e-02 1.6995032650e+00 -2.9436260027e+00 1.6995032650e+00 2.9436260027e+00 
2200 6.4143321274e+00 -8.1859210016e-02 1.7019490066e+00 -2.9478621513e+00 1.7019490066e+00 2.9478621513e+00 
2300 6.4123565297e+00 -8.0664661443e-02 1.7043544388e+00 -2.9520284821e+00 1.7043544388e+00 2.9520284821e+00 
2400 6.4104954108e+00 -7.9525497134e-02 1.7067214143e+00 -2.9561282039e+00 1.7067214143e+00 2.9561282039e+00 
2500 6.4087404837e+00 -7.8439796424e-02 1.7090517174e+00 -2.9601644073e+00 1.7090517174e+00 2.9601644073e+00 
2600 6.4070837211e+00 -7.7405593295e-02 1.7113470642e+00 -2.9641400645e+00 1.7113470642e+00 2.9641400645e+00 
2700 6.4055173812e+00 -7.6420881232e-02 1.7136091015e+00 -2.9680580281e+00 1.7136091015e+00 2.9680580281e+00 
2800 6.4040340294e+00 -7.5483618244e-02 1.7158394069e+00 -2.9719210305e+00 1.7158394069e+00 2.9719210305e+00 
2900 6.4026265560e+00 -7.4591731971e-02 1.7180394883e+00 -2.9757316831e+00 1.7180394883e+00 2.9757316831e+00 
3000 6.4012881916e+00 -7.3743124862e-02 1.7202107836e+00 -2.9794924769e+00 1.7202107836e+00 2.9794924769e+00 
3100 6.4000125177e+00 -7.2935679372e-02 1.7223546610e+00 -2.9832057814e+00 1.7223546610e+00 2.9832057814e+00 
3200 6.3987934752e+00 -7.2167263163e-02 1.7244724189e+00 -2.9868738457e+00 1.7244724189e+00 2.9868738457e+00 
3300 6.3976253701e+00 -7.1435734275e-02 1.7265652862e+00 -2.9904987983e+00 1.7265652862e+00 2.9904987983e+00 
3400 6.3965028757e+00 -7.0738946228e-02 1.7286344226e+00 -2.9940826477e+00 1.7286344226e+00 2.9940826477e+00 
3500 6.3954210329e+00 -7.0074753069e-02 1.7306809191e+00 -2.9976272836e+00 1.7306809191e+00 2.9976272836e+00 
3600 6.3943752487e+00 -6.9441014295e-02 1.7327057984e+00 -3.0011344774e+00 1.7327057984e+00 3.0011344774e+00 
3700 6.3933612915e+00 -6.8835599683e-02 1.7347100158e+00 -3.0046058838e+00 1.7347100158e+00 3.0046058838e+00 
3800 6.3923752857e+00 -6.8256393971e-02 1.7366944601e+00 -3.0080430421e+00 1.7366944601e+00 3.0080430421e+00 
3900 6.3914137035e+00 -6.7701301397e-02 1.7386599541e+00 -3.0114473776e+00 1.7386599541e+00 3.0114473776e+00 
4000 6.3904733564e+00 -6.7168250083e-02 1.7406072562e+00 -3.0148202037e+00 1.7406072562e+00 3.0148202037e+00 
4100 6.3895513845e+00 -6.6655196237e-02 1.7425370610e+00 -3.0181627237e+00 1.7425370610e+00 3.0181627237e+00 
4200 6.3886452450e+00 -6.6160128182e-02 1.7444500010e+00 -3.0214760330e+00 1.7444500010e+00 3.0214760330e+00 
4300 6.3877526995e+00 -6.5681070188e-02 1.7463466475e+00 -3.0247611212e+00 1.7463466475e+00 3.0247611212e+00 
4400 6.3868718008e+00 -6.5216086107e-02 1.7482275125e+00 -3.0280188749e+00 1.7482275125e+00 3.0280188749e+00 
4500 6.3860008790e+00 -6.4763282809e-02 1.7500930498e+00 -3.0312500802e+00 1.7500930498e+00 3.0312500802e+00 
4600 6.3851385263e+00 -6.4320813396e-02 1.7519436566e+00 -3.0344554252e+00 1.7519436566e+00 3.0344554252e+00 
4700 6.3842835828e+00 -6.3886880216e-02 1.7537796755e+00 -3.0376355033e+00 1.7537796755e+00 3.0376355033e+00 
4800 6.3834351204e+00 -6.3459737654e-02 1.7556013960e+00 -3.0407908157e+00 1.7556013960e+00 3.0407908157e+00 
4900 6.3825924280e+00 -6.3037694701e-02 1.7574090562e+00 -3.0439217750e+00 1.7574090562e+00 3.0439217750e+00 
5000 6.3817549953e+00 -6.2619117317e-02 1.7592028447e+00 -3.0470287079e+00 1.7592028447e+00 3.0470287079e+00 
5100 6.3809224977e+00 -6.2202430564e-02 1.7609829028e+00 -3.0501118590e+00 1.7609829028e+00 3.0501118590e+00 
5200 6.3800947809e+00 -6.1786120526e-02 1.7627493259e+00 -3.0531713935e+00 1.7627493259e+00 3.0531713935e+00 
5300 6.3792718453e+00 -6.1368736018e-02 1.7645021659e+00 -3.0562074014e+00 1.7645021659e+00 3.0562074014e+00 
5400 6.3784538310e+00 -6.0948890081e-02 1.7662414328e+00 -3.0592199001e+00 1.7662414328e+00 3.0592199001e+00 
5500 6.3776410038e+00 -6.0525261268e-02 1.7679670974e+00 -3.0622088387e+00 1.7679670974e+00 3.0622088387e+00 
5600 6.3768337400e+00 -6.0096594726e-02 1.7696790924e+00 -3.0651741011e+00 1.7696790924e+00 3.0651741011e+00 
5700 6.3760325133e+00 -5.9661703086e-02 1.7713773154e+00 -3.0681155097e+00 1.7713773154e+00 3.0681155097e+00 
5800 6.3752378812e+00 -5.9219467152e-02 1.7730616304e+00 -3.0710328288e+00 1.7730616304e+00 3.0710328288e+00 
5900 6.3744504720e+00 -5.8768836412e-02 1.7747318700e+00 -3.0739257687e+00 1.7747318700e+00 3.0739257687e+00 
6000 6.3736709726e+00 -5.8308829360e-02 1.7763878375e+00 -3.0767939885e+00 1.7763878375e+00 3.0767939885e+00 
6100 6.3729001172e+00 -5.7838533650e-02 1.7780293090e+00 -3.0796371005e+00 1.7780293090e+00 3.0796371005e+00 
6200 6.3721386753e+00 -5.7357106085e-02 1.7796560354e+00 -3.0824546733e+00 1.7796560354e+00 3.0824546733e+00 
6300 6.3713874424e+00 -5.6863772448e-02 1.7812677444e+00 -3.0852462352e+00 1.7812677444e+00 3.0852462352e+00 
6400 6.3706472289e+00 -5.6357827171e-02 1.7828641428e+00 -3.0880112782e+00 1.7828641428e+00 3.0880112782e+00 
6500 6.3699188518e+00 -5.5838632880e-02 1.7844449179e+00 -3.0907492611e+00 1.7844449179e+00 3.0907492611e+00 
6600 6.3692031258e+00 -5.5305619784e-02 1.7860097402e+00 -3.0934596129e+00 1.7860097402e+00 3.0934596129e+00 
6700 6.3685008551e+00 -5.4758284948e-02 1.7875582649e+00 -3.0961417364e+00 1.7875582649e+00 3.0961417364e+00 
6800 6.3678128264e+00 -5.4196191445e-02 1.7890901338e+00 -3.0987950111e+00 1.7890901338e+00 3.0987950111e+00 
6900 6.3671398024e+00 -5.3618967389e-02 1.7906049774e+00 -3.1014187971e+00 1.7906049774e+00 3.1014187971e+00 
7000 6.3664825150e+00 -5.3026304868e-02 1.7921024163e+00 -3.1040124374e+00 1.7921024163e+00 3.1040124374e+00 
7100 6.3658416606e+00 -5.2417958774e-02 1.7935820638e+00 -3.1065752620e+00 1.7935820638e+00 3.1065752620e+00 
7200 6.3652178949e+00 -5.1793745549e-02 1.7950435266e+00 -3.1091065899e+00 1.7950435266e+00 3.1091065899e+00 
7300 6.3646118286e+00 -5.1153541837e-02 1.7964864074e+00 -3.1116057328e+00 1.7964864074e+00 3.1116057328e+00 
7400 6.3640240239e+00 -5.0497283067e-02 1.7979103061e+00 -3.1140719976e+00 1.7979103061e+00 3.1140719976e+00 
7500 6.3634549911e+00 -4.9824961959e-02 1.7993148214e+00 -3.1165046896e+00 1.7993148214e+00 3.1165046896e+00 
7600 6.3629051859e+00 -4.9136626969e-02 1.8006995526e+00 -3.1189031143e+00 1.8006995526e+00 3.1189031143e+00 
7700 6.3623750077e+00 -4.8432380669e-02 1.8020641009e+00 -3.1212665812e+00 1.8020641009e+00 3.1212665812e+00 
7800 6.3618647974e+00 -4.7712378081e-02 1.8034080707e+00 -3.1235944052e+00 1.8034080707e+00 3.1235944052e+00 
7900 6.3613748366e+00 -4.6976824953e-02 1.8047310715e+00 -3.1258859098e+00 1.8047310715e+00 3.1258859098e+00 
8000 6.3609053465e+00 -4.6225976001e-02 1.8060327188e+00 -3.1281404291e+00 1.8060327188e+00 3.1281404291e+00 
8100 6.3604564881e+00 -4.5460133102e-02 1.8073126356e+00 -3.1303573100e+00 1.8073126356e+00 3.1303573100e+00 
8200 6.3600283615e+00 -4.4679643463e-02 1.8085704534e+00 -3.1325359144e+00 1.8085704534e+00 3.1325359144e+00 
8300 6.3596210071e+00 -4.3884897750e-02 1.8098058138e+00 -3.1346756214e+00 1.8098058138e+00 3.1346756214e+00 
8400 6.3592344056e+00 -4.3076328196e-02 1.8110183692e+00 -3.1367758288e+00 1.8110183692e+00 3.1367758288e+00 
8500 6.3588684798e+00 -4.2254406687e-02 1.8122077839e+00 -3.1388359556e+00 1.8122077839e+00 3.1388359556e+00 
8600 6.3585230955e+00 -4.1419642819e-02 1.8133737356e+00 -3.1408554432e+00 1.8133737356e+00 3.1408554432e+00 
8700 6.3581980632e+00 -4.0572581955e-02 1.8145159157e+00 -3.1428337572e+00 1.8145159157e+00 3.1428337572e+00 
8800 6.3578931401e+00 -3.9713803251e-02 1.8156340306e+00 -3.1447703890e+00 1.8156340306e+00 3.1447703890e+00 
8900 6.3576080324e+00 -3.8843917683e-02 1.8167278025e+00 -3.1466648574e+00 1.8167278025e+00 3.1466648574e+00 
9000 6.3573423973e+00 -3.7963566063e-02 1.8177969699e+00 -3.1485167098e+00 1.8177969699e+00 3.1485167098e+00 
9100 6.3570958455e+00 -3.7073417046e-02 1.8188412889e+00 -3.1503255233e+00 1.8188412889e+00 3.1503255233e+00 
9200 6.3568679443e+00 -3.6174165142e-02 1.8198605334e+00 -3.1520909065e+00 1.8198605334e+00 3.1520909065e+00 
9300 6.3566582199e+00 -3.5266528714e-02 1.8208544957e+00 -3.1538124997e+00 1.8208544957e+00 3.1538124997e+00 
9400 6.3564661606e+00 -3.4351247993e-02 1.8218229875e+00 -3.1554899767e+00 1.8218229875e+00 3.1554899767e+00 
9500 6.3562912197e+00 -3.3429083083e-02 1.8227658401e+00 -3.1571230453e+00 1.8227658401e+00 3.1571230453e+00 
9600 6.3561328188e+00 -3.2500811979e-02 1.8236829048e+00 -3.1587114480e+00 1.8236829048e+00 3.1587114480e+00 
9700 6.3559903507e+00 -3.1567228591e-02 1.8245740536e+00 -3.1602549630e+00 1.8245740536e+00 3.1602549630e+00 
9800 6.3558631827e+00 -3.0629140773e-02 1.8254391794e+00 -3.1617534048e+00 1.8254391794e+00 3.1617534048e+00 
9900 6.3557506599e+00 -2.9687368374e-02 1.8262781963e+00 -3.1632066247e+00 1.8262781963e+00 3.1632066247e+00 
10000 6.3556521083e+00 -2.8742741289e-02 1.8270910398e+00 -3.1646145110e+00 1.8270910398e+00 3.1646145110e+00 
10100 6.3555668381e+00 -2.7796097536e-02 1.8278776674e+00 -3.1659769899e+00 1.8278776674e+00 3.1659769899e+00 
10200 6.3554941468e+00 -2.6848281348e-02 1.8286380581e+00 -3.1672940253e+00 1.8286380581e+00 3.1672940253e+00 
10300 6.3554333225e+00 -2.5900141281e-02 1.8293722131e+00 -3.1685656191e+00 1.8293722131e+00 3.1685656191e+00 
10400 6.3553836469e+00 -2.4952528347e-02 1.8300801557e+00 -3.1697918117e+00 1.8300801557e+00 3.1697918117e+00 
10500 6.3553443982e+00 -2.4006294175e-02 1.8307619313e+00 -3.1709726815e+00 1.8307619313e+00 3.1709726815e+00 
10600 6.3553148545e+00 -2.3062289190e-02 1.8314176071e+00 -3.1721083453e+00 1.8314176071e+00 3.1721083453e+00 
10700 6.3552942960e+00 -2.2121360829e-02 1.8320472726e+00 -3.1731989580e+00 1.8320472726e+00 3.1731989580e+00 
10800 6.3552820082e+00 -2.1184351782e-02 1.8326510391e+00 -3.1742447123e+00 1.8326510391e+00 3.1742447123e+00 
10900 6.3552772846e+00 -2.0252098273e-02 1.8332290396e+00 -3.1752458385e+00 1.8332290396e+00 3.1752458385e+00 
11000 6.3552794290e+00 -1.9325428374e-02 1.8337814287e+00 -3.1762026045e+00 1.8337814287e+00 3.1762026045e+00 
11100 6.3552877577e+00 -1.8405160353e-02 1.8343083823e+00 -3.1771153149e+00 1.8343083823e+00 3.1771153149e+00 
11200 6.3553016024e+00 -1.7492101077e-02 1.8348100973e+00 -3.1779843107e+00 1.8348100973e+00 3.1779843107e+00 
11300 6.3553203118e+00 -1.6587044443e-02 1.8352867912e+00 -3.1788099689e+00 1.8352867912e+00 3.1788099689e+00 
11400 6.3553432536e+00 -1.5690769872e-02 1.8357387022e+00 -3.1795927016e+00 1.8357387022e+00 3.1795927016e+00 
11500 6.3553698165e+00 -1.4804040836e-02 1.8361660881e+00 -3.1803329558e+00 1.8361660881e+00 3.1803329558e+00 
11600 6.3553994119e+00 -1.3927603452e-02 1.8365692266e+00 -3.1810312121e+00 1.8365692266e+00 3.1810312121e+00 
11700 6.3554314749e+00 -1.3062185122e-02 1.8369484141e+00 -3.1816879841e+00 1.8369484141e+00 3.1816879841e+00 
11800 6.3554654665e+00 -1.2208493233e-02 1.8373039659e+00 -3.1823038179e+00 1.8373039659e+00 3.1823038179e+00 
11900 6.3555008740e+00 -1.1367213917e-02 1.8376362153e+00 -3.1828792907e+00 1.8376362153e+00 3.1828792907e+00 
12000 6.3555372122e+00 -1.0539010873e-02 1.8379455129e+00 -3.1834150100e+00 1.8379455129e+00 3.1834150100e+00 
12100 6.3555740246e+00 -9.7245242527e-03 1.8382322267e+00 -3.1839116127e+00 1.8382322267e+00 3.1839116127e+00 
12200 6.3556108836e+00 -8.9243696159e-03 1.8384967405e+00 -3.1843697642e+00 1.8384967405e+00 3.1843697642e+00 
12300 6.3556473914e+00 -8.1391369512e-03 1.8387394542e+00 -3.1847901566e+00 1.8387394542e+00 3.1847901566e+00 
12400 6.3556831800e+00 -7.3693897697e-03 1.8389607825e+00 -3.1851735084e+00 1.8389607825e+00 3.1851735084e+00 
12500 6.3557179119e+00 -6.6156642704e-03 1.8391611544e+00 -3.1855205628e+00 1.8391611544e+00 3.1855205628e+00 
12600 6.3557512795e+00 -5.8784685797e-03 1.8393410128e+00 -3.1858320867e+00 1.8393410128e+00 3.1858320867e+00 
12700 6.3557830058e+00 -5.1582820667e-03 1.8395008134e+00 -3.1861088694e+00 1.8395008134e+00 3.1861088694e+00 
12800 6.3558128434e+00 -4.4555547340e-03 1.8396410239e+00 -3.1863517211e+00 1.8396410239e+00 3.1863517211e+00 
12900 6.3558405746e+00 -3.7707066873e-03 1.8397621237e+00 -3.1865614721e+00 1.8397621237e+00 3.1865614721e+00 
13000 6.3558660110e+00 -3.1041276810e-03 1.8398646028e+00 -3.1867389711e+00 1.8398646028e+00 3.1867389711e+00 
13100 6.3558889925e+00 -2.4561767444e-03 1.8399489609e+00 -3.1868850837e+00 1.8399489609e+00 3.1868850837e+00 
13200 6.3559093867e+00 -1.8271818844e-03 1.8400157071e+00 -3.1870006915e+00 1.8400157071e+00 3.1870006915e+00 
13300 6.3559270882e+00 -1.2174398677e-03 1.8400653586e+00 -3.1870866903e+00 1.8400653586e+00 3.1870866903e+00 
13400 6.3559420178e+00 -6.2721608072e-04 1.8400984401e+00 -3.1871439892e+00 1.8400984401e+00 3.1871439892e+00 
13500 6.3559541209e+00 -5.6744466339e-05 1.8401154832e+00 -3.1871735086e+00 1.8401154832e+00 3.1871735086e+00 
13600 6.3559633655e+00 4.9234685385e-04 1.8401154832e+00 -3.1871735086e+00 1.8401154832e+00 3.1871735086e+00 
13700 6.3559697453e+00 1.0227656219e-03 1.8401021050e+00 -3.1871503370e+00 1.8401021050e+00 3.1871503370e+00 
13800 6.3559732742e+00 1.5329177617e-03 1.8400743141e+00 -3.1871022017e+00 1.8400743141e+00 3.1871022017e+00 
13900 6.3559739861e+00 2.0226942740e-03 1.8400326606e+00 -3.1870300557e+00 1.8400326606e+00 3.1870300557e+00 
14000 6.3559719335e+00 2.4920167995e-03 1.8399776973e+00 -3.1869348565e+00 1.8399776973e+00 3.1869348565e+00 
14100 6.3559671866e+00 2.9408372478e-03 1.8399099790e+00 -3.1868175650e+00 1.8399099790e+00 3.1868175650e+00 
14200 6.3559598316e+00 3.3691373609e-03 1.8398300616e+00 -3.1866791441e+00 1.8398300616e+00 3.1866791441e+00 
14300 6.3559499692e+00 3.7769282142e-03 1.8397385013e+00 -3.1865205569e+00 1.8397385013e+00 3.1865205569e+00 
14400 6.3559377135e+00 4.1642496575e-03 1.8396358538e+00 -3.1863427661e+00 1.8396358538e+00 3.1863427661e+00 
14500 6.3559231902e+00 4.5311696999e-03 1.8395226736e+00 -3.1861467323e+00 1.8395226736e+00 3.1861467323e+00 
14600 6.3559065354e+00 4.8777838401e-03 1.8393995134e+00 -3.1859334126e+00 1.8393995134e+00 3.1859334126e+00 
14700 6.3558878940e+00 5.2042143481e-03 1.8392669232e+00 -3.1857037597e+00 1.8392669232e+00 3.1857037597e+00 
14800 6.3558674186e+00 5.5106094980e-03 1.8391254498e+00 -3.1854587205e+00 1.8391254498e+00 3.1854587205e+00 
14900 6.3558452678e+00 5.7971427590e-03 1.8389756358e+00 -3.1851992351e+00 1.8389756358e+00 3.1851992351e+00 
15000 6.3558216050e+00 6.0640119462e-03 1.8388180192e+00 -3.1849262352e+00 1.8388180192e+00 3.1849262352e+00 
15100 6.3557965971e+00 6.3114383352e-03 1.8386531329e+00 -3.1846406436e+00 1.8386531329e+00 3.1846406436e+00 
15200 6.3557704133e+00 6.5396657442e-03 1.8384815034e+00 -3.1843433727e+00 1.8384815034e+00 3.1843433727e+00 
15300 6.3557432238e+00 6.7489595878e-03 1.8383036512e+00 -3.1840353236e+00 1.8383036512e+00 3.1840353236e+00 
15400 6.3557151987e+00 6.9396059056e-03 1.8381200894e+00 -3.1837173852e+00 1.8381200894e+00 3.1837173852e+00 
15500 6.3556865070e+00 7.1119103694e-03 1.8379313235e+00 -3.1833904331e+00 1.8379313235e+00 3.1833904331e+00 
15600 6.3556573153e+00 7.2661972727e-03 1.8377378509e+00 -3.1830553288e+00 1.8377378509e+00 3.1830553288e+00 
15700 6.3556277872e+00 7.4028085061e-03 1.8375401604e+00 -3.1827129188e+00 1.8375401604e+00 3.1827129188e+00 
15800 6.3555980821e+00 7.5221025225e-03 1.8373387315e+00 -3.1823640337e+00 1.8373387315e+00 3.1823640337e+00 
15900 6.3555683547e+00 7.6244532941e-03 1.8371340343e+00 -3.1820094877e+00 1.8371340343e+00 3.1820094877e+00 
16000 6.3555387538e+00 7.7102492667e-03 1.8369265288e+00 -3.1816500776e+00 1.8369265288e+00 3.1816500776e+00 
16100 6.3555094221e+00 7.7798923121e-03 1.8367166646e+00 -3.1812865821e+00 1.8367166646e+00 3.1812865821e+00 
16200 6.3554804953e+00 7.8337966839e-03 1.8365048806e+00 -3.1809197616e+00 1.8365048806e+00 3.1809197616e+00 
16300 6.3554521017e+00 7.8723879779e-03 1.8362916047e+00 -3.1805503568e+00 1.8362916047e+00 3.1805503568e+00 
16400 6.3554243617e+00 7.8961021003e-03 1.8360772533e+00 -3.1801790893e+00 1.8360772533e+00 3.1801790893e+00 
16500 6.3553973873e+00 7.9053842472e-03 1.8358622310e+00 -3.1798066599e+00 1.8358622310e+00 3.1798066599e+00 
16600 6.3553712821e+00 7.9006878971e-03 1.8356469309e+00 -3.1794337490e+00 1.8356469309e+00 3.1794337490e+00 
16700 6.3553461406e+00 7.8824738179e-03 1.8354317333e+00 -3.1790610160e+00 1.8354317333e+00 3.1790610160e+00 
16800 6.3553220486e+00 7.8512090925e-03 1.8352170067e+00 -3.1786890986e+00 1.8352170067e+00 3.1786890986e+00 
16900 6.3552990825e+00 7.8073661633e-03 1.8350031068e+00 -3.1783186130e+00 1.8350031068e+00 3.1783186130e+00 
17000 6.3552773096e+00 7.7514218979e-03 1.8347903765e+00 -3.1779501533e+00 1.8347903765e+00 3.1779501533e+00 
17100 6.3552567881e+00 7.6838566776e-03 1.8345791460e+00 -3.1775842914e+00 1.8345791460e+00 3.1775842914e+00 
17200 6.3552375670e+00 7.6051535106e-03 1.8343697326e+00 -3.1772215767e+00 1.8343697326e+00 3.1772215767e+00 
17300 6.3552196863e+00 7.5157971702e-03 1.8341624404e+00 -3.1768625361e+00 1.8341624404e+00 3.1768625361e+00 
17400 6.3552031772e+00 7.4162733602e-03 1.8339575606e+00 -3.1765076738e+00 1.8339575606e+00 3.1765076738e+00 
17500 6.3551880625e+00 7.3070679071e-03 1.8337553711e+00 -3.1761574714e+00 1.8337553711e+00 3.1761574714e+00 
17600 6.3551743563e+00 7.1886659821e-03 1.8335561369e+00 -3.1758123877e+00 1.8335561369e+00 3.1758123877e+00 
17700 6.3551620648e+00 7.0615513506e-03 1.8333601097e+00 -3.1754728586e+00 1.8333601097e+00 3.1754728586e+00 
17800 6.3551511865e+00 6.9262056526e-03 1.8331675281e+00 -3.1751392975e+00 1.8331675281e+00 3.1751392975e+00 
17900 6.3551417126e+00 6.7831077123e-03 1.8329786178e+00 -3.1748120952e+00 1.8329786178e+00 3.1748120952e+00 
18000 6.3551336272e+00 6.6327328787e-03 1.8327935912e+00 -3.1744916198e+00 1.8327935912e+00 3.1744916198e+00 
18100 6.3551269079e+00 6.4755523956e-03 1.8326126482e+00 -3.1741782173e+00 1.8326126482e+00 3.1741782173e+00 
18200 6.3551215261e+00 6.3120328033e-03 1.8324359756e+00 -3.1738722114e+00 1.8324359756e+00 3.1738722114e+00 
18300 6.3551174476e+00 6.1426353696e-03 1.8322637477e+00 -3.1735739039e+00 1.8322637477e+00 3.1735739039e+00 
18400 6.3551146329e+00 5.9678155515e-03 1.8320961260e+00 -3.1732835747e+00 1.8320961260e+00 3.1732835747e+00 
18500 6.3551130378e+00 5.7880224871e-03 1.8319332599e+00 -3.1730014823e+00 1.8319332599e+00 3.1730014823e+00 
18600 6.3551126137e+00 5.6036985168e-03 1.8317752864e+00 -3.1727278641e+00 1.8317752864e+00 3.1727278641e+00 
18700 6.3551133083e+00 5.4152787336e-03 1.8316223304e+00 -3.1724629365e+00 1.8316223304e+00 3.1724629365e+00 
18800 6.3551150659e+00 5.2231905630e-03 1.8314745050e+00 -3.1722068954e+00 1.8314745050e+00 3.1722068954e+00 
18900 6.3551178279e+00 5.0278533701e-03 1.8313319116e+00 -3.1719599165e+00 1.8313319116e+00 3.1719599165e+00 
19000 6.3551215335e+00 4.8296780954e-03 1.8311946402e+00 -3.1717221554e+00 1.8311946402e+00 3.1717221554e+00 
19100 6.3551261196e+00 4.6290669170e-03 1.8310627695e+00 -3.1714937486e+00 1.8310627695e+00 3.1714937486e+00 
19200 6.3551315218e+00 4.4264129397e-03 1.8309363671e+00 -3.1712748132e+00 1.8309363671e+00 3.1712748132e+00 
19300 6.3551376745e+00 4.2220999098e-03 1.8308154900e+00 -3.1710654480e+00 1.8308154900e+00 3.1710654480e+00 
19400 6.3551445117e+00 4.0165019548e-03 1.8307001847e+00 -3.1708657333e+00 1.8307001847e+00 3.1708657333e+00 
19500 6.3551519668e+00 3.8099833479e-03 1.8305904873e+00 -3.1706757318e+00 1.8305904873e+00 3.1706757318e+00 
19600 6.3551599735e+00 3.6028982955e-03 1.8304864239e+00 -3.1704954888e+00 1.8304864239e+00 3.1704954888e+00 
19700 6.3551684658e+00 3.3955907486e-03 1.8303880111e+00 -3.1703250328e+00 1.8303880111e+00 3.1703250328e+00 
19800 6.3551773787e+00 3.1883942351e-03 1.8302952559e+00 -3.1701643760e+00 1.8302952559e+00 3.1701643760e+00 
19900 6.3551866483e+00 2.9816317147e-03 1.8302081560e+00 -3.1700135147e+00 1.8302081560e+00 3.1700135147e+00 
20000 6.3551962119e+00 2.7756154540e-03 1.8301267005e+00 -3.1698724296e+00 1.8301267005e+00 3.1698724296e+00 
20100 6.3552060088e+00 2.5706469209e-03 1.8300508698e+00 -3.1697410870e+00 1.8300508698e+00 3.1697410870e+00 
20200 6.3552159799e+00 2.3670166997e-03 1.8299806360e+00 -3.1696194384e+00 1.8299806360e+00 3.1696194384e+00 
20300 6.3552260685e+00 2.1650044230e-03 1.8299159631e+00 -3.1695074217e+00 1.8299159631e+00 3.1695074217e+00 
20400 6.3552362202e+00 1.9648787225e-03 1.8298568076e+00 -3.1694049613e+00 1.8298568076e+00 3.1694049613e+00 
20500 6.3552463831e+00 1.7668971962e-03 1.8298031184e+00 -3.1693119689e+00 1.8298031184e+00 3.1693119689e+00 
20600 6.3552565079e+00 1.5713063925e-03 1.8297548376e+00 -3.1692283440e+00 1.8297548376e+00 3.1692283440e+00 
20700 6.3552665482e+00 1.3783418096e-03 1.8297119001e+00 -3.1691539742e+00 1.8297119001e+00 3.1691539742e+00 
20800 6.3552764606e+00 1.1882279099e-03 1.8296742347e+00 -3.1690887358e+00 1.8296742347e+00 3.1690887358e+00 
20900 6.3552862045e+00 1.0011781489e-03 1.8296417638e+00 -3.1690324945e+00 1.8296417638e+00 3.1690324945e+00 
21000 6.3552957426e+00 8.1739501798e-04 1.8296144039e+00 -3.1689851058e+00 1.8296144039e+00 3.1689851058e+00 
21100 6.3553050406e+00 6.3707010020e-04 1.8295920660e+00 -3.1689464155e+00 1.8295920660e+00 3.1689464155e+00 
21200 6.3553140671e+00 4.6038413851e-04 1.8295746559e+00 -3.1689162602e+00 1.8295746559e+00 3.1689162602e+00 
21300 6.3553227942e+00 2.8750711616e-04 1.8295620742e+00 -3.1688944681e+00 1.8295620742e+00 3.1688944681e+00 
21400 6.3553311970e+00 1.1859834854e-04 1.8295542169e+00 -3.1688808589e+00 1.8295542169e+00 3.1688808589e+00 
21500 6.3553392535e+00 -4.6193414281e-05 1.8295509757e+00 -3.1688752450e+00 1.8295509757e+00 3.1688752450e+00 
21600 6.3553469455e+00 -2.0793083797e-04 1.8295509757e+00 -3.1688752450e+00 1.8295509757e+00 3.1688752450e+00 
21700 6.3553542566e+00 -3.6405883241e-04 1.8295566583e+00 -3.1688850875e+00 1.8295566583e+00 3.1688850875e+00 
21800 6.3553611738e+00 -5.1568647936e-04 1.8295666077e+00 -3.1689023203e+00 1.8295666077e+00 3.1689023203e+00 
21900 6.3553676872e+00 -6.6270602958e-04 1.8295807008e+00 -3.1689267304e+00 1.8295807008e+00 3.1689267304e+00 
22000 6.3553737892e+00 -8.0501964175e-04 1.8295988117e+00 -3.1689580994e+00 1.8295988117e+00 3.1689580994e+00 
22100 6.3553794752e+00 -9.4253922485e-04 1.8296208117e+00 -3.1689962044e+00 1.8296208117e+00 3.1689962044e+00 
22200 6.3553847429e+00 -1.0751862729e-03 1.8296465695e+00 -3.1690408183e+00 1.8296465695e+00 3.1690408183e+00 
22300 6.3553895924e+00 -1.2028916929e-03 1.8296759519e+00 -3.1690917101e+00 1.8296759519e+00 3.1690917101e+00 
22400 6.3553940260e+00 -1.3255956255e-03 1.8297088237e+00 -3.1691486458e+00 1.8297088237e+00 3.1691486458e+00 
22500 6.3553980482e+00 -1.4432472597e-03 1.8297450481e+00 -3.1692113882e+00 1.8297450481e+00 3.1692113882e+00 
22600 6.3554016655e+00 -1.5558046419e-03 1.8297844867e+00 -3.1692796979e+00 1.8297844867e+00 3.1692796979e+00 
22700 6.3554048861e+00 -1.6632344789e-03 1.8298270002e+00 -3.1693533334e+00 1.8298270002e+00 3.1693533334e+00 
22800 6.3554077198e+00 -1.7655119354e-03 1.8298724483e+00 -3.1694320517e+00 1.8298724483e+00 3.1694320517e+00 
22900 6.3554101783e+00 -1.8626204283e-03 1.8299206899e+00 -3.1695156087e+00 1.8299206899e+00 3.1695156087e+00 
23000 6.3554122744e+00 -1.9545514142e-03 1.8299715836e+00 -3.1696037591e+00 1.8299715836e+00 3.1696037591e+00 
23100 6.3554140220e+00 -2.0413041748e-03 1.8300249877e+00 -3.1696962578e+00 1.8300249877e+00 3.1696962578e+00 
23200 6.3554154365e+00 -2.1228855973e-03 1.8300807606e+00 -3.1697928592e+00 1.8300807606e+00 3.1697928592e+00 
23300 6.3554165340e+00 -2.1993099520e-03 1.8301387606e+00 -3.1698933183e+00 1.8301387606e+00 3.1698933183e+00 
23400 6.3554173314e+00 -2.2705986661e-03 1.8301988469e+00 -3.1699973907e+00 1.8301988469e+00 3.1699973907e+00 
23500 6.3554178462e+00 -2.3367800957e-03 1.8302608787e+00 -3.1701048330e+00 1.8302608787e+00 3.1701048330e+00 
23600 6.3554180966e+00 -2.3978892939e-03 1.8303247164e+00 -3.1702154032e+00 1.8303247164e+00 3.1702154032e+00 
23700 6.3554181013e+00 -2.4539677782e-03 1.8303902213e+00 -3.1703288609e+00 1.8303902213e+00 3.1703288609e+00 
23800 6.3554178789e+00 -2.5050632949e-03 1.8304572557e+00 -3.1704449679e+00 1.8304572557e+00 3.1704449679e+00 
23900 6.3554174484e+00 -2.5512295822e-03 1.8305256834e+00 -3.1705634881e+00 1.8305256834e+00 3.1705634881e+00 
24000 6.3554168290e+00 -2.5925261324e-03 1.8305953695e+00 -3.1706841881e+00 1.8305953695e+00 3.1706841881e+00 
24100 6.3554160394e+00 -2.6290179524e-03 1.8306661810e+00 -3.1708068372e+00 1.8306661810e+00 3.1708068372e+00 
24200 6.3554150986e+00 -2.6607753240e-03 1.8307379864e+00 -3.1709312078e+00 1.8307379864e+00 3.1709312078e+00 
24300 6.3554140250e+00 -2.6878735633e-03 1.8308106564e+00 -3.1710570759e+00 1.8308106564e+00 3.1710570759e+00 
24400 6.3554128368e+00 -2.7103927805e-03 1.8308840635e+00 -3.1711842208e+00 1.8308840635e+00 3.1711842208e+00 
24500 6.3554115518e+00 -2.7284176388e-03 1.8309580827e+00 -3.1713124257e+00 1.8309580827e+00 3.1713124257e+00 
24600 6.3554101871e+00 -2.7420371149e-03 1.8310325911e+00 -3.1714414781e+00 1.8310325911e+00 3.1714414781e+00 
24700 6.3554087596e+00 -2.7513442586e-03 1.8311074684e+00 -3.1715711694e+00 1.8311074684e+00 3.1715711694e+00 
24800 6.3554072852e+00 -2.7564359550e-03 1.8311825968e+00 -3.1717012956e+00 1.8311825968e+00 3.1717012956e+00 
24900 6.3554057792e+00 -2.7574126859e-03 1.8312578611e+00 -3.1718316573e+00 1.8312578611e+00 3.1718316573e+00 
25000 6.3554042562e+00 -2.7543782941e-03 1.8313331491e+00 -3.1719620598e+00 1.8313331491e+00 3.1719620598e+00 
25100 6.3554027301e+00 -2.7474397485e-03 1.8314083510e+00 -3.1720923134e+00 1.8314083510e+00 3.1720923134e+00 
25200 6.3554012139e+00 -2.7367069109e-03 1.8314833605e+00 -3.1722222336e+00 1.8314833605e+00 3.1722222336e+00 
25300 6.3553997197e+00 -2.7222923054e-03 1.8315580738e+00 -3.1723516409e+00 1.8315580738e+00 3.1723516409e+00 
25400 6.3553982589e+00 -2.7043108897e-03 1.8316323906e+00 -3.1724803614e+00 1.8316323906e+00 3.1724803614e+00 
25500 6.3553968419e+00 -2.6828798287e-03 1.8317062136e+00 -3.1726082264e+00 1.8317062136e+00 3.1726082264e+00 
25600 6.3553954783e+00 -2.6581182715e-03 1.8317794485e+00 -3.1727350730e+00 1.8317794485e+00 3.1727350730e+00 
25700 6.3553941766e+00 -2.6301471301e-03 1.8318520046e+00 -3.1728607439e+00 1.8318520046e+00 3.1728607439e+00 
25800 6.3553929447e+00 -2.5990888628e-03 1.8319237944e+00 -3.1729850874e+00 1.8319237944e+00 3.1729850874e+00 
25900 6.3553917895e+00 -2.5650672594e-03 1.8319947336e+00 -3.1731079578e+00 1.8319947336e+00 3.1731079578e+00 
26000 6.3553907169e+00 -2.5282072306e-03 1.8320647415e+00 -3.1732292151e+00 1.8320647415e+00 3.1732292151e+00 
26100 6.3553897321e+00 -2.4886346014e-03 1.8321337408e+00 -3.1733487254e+00 1.8321337408e+00 3.1733487254e+00 
26200 6.3553888393e+00 -2.4464759075e-03 1.8322016575e+00 -3.1734663606e+00 1.8322016575e+00 3.1734663606e+00 
26300 6.3553880422e+00 -2.4018581964e-03 1.8322684212e+00 -3.1735819987e+00 1.8322684212e+00 3.1735819987e+00 
26400 6.3553873433e+00 -2.3549088323e-03 1.8323339649e+00 -3.1736955237e+00 1.8323339649e+00 3.1736955237e+00 
26500 6.3553867445e+00 -2.3057553057e-03 1.8323982251e+00 -3.1738068256e+00 1.8323982251e+00 3.1738068256e+00 
26600 6.3553862472e+00 -2.2545250471e-03 1.8324611418e+00 -3.1739158005e+00 1.8324611418e+00 3.1739158005e+00 
26700 6.3553858516e+00 -2.2013452456e-03 1.8325226584e+00 -3.1740223504e+00 1.8325226584e+00 3.1740223504e+00 
26800 6.3553855578e+00 -2.1463426721e-03 1.8325827220e+00 -3.1741263836e+00 1.8325827220e+00 3.1741263836e+00 
26900 6.3553853648e+00 -2.0896435076e-03 1.8326412829e+00 -3.1742278141e+00 1.8326412829e+00 3.1742278141e+00 
27000 6.3553852712e+00 -2.0313731764e-03 1.8326982950e+00 -3.1743265619e+00 1.8326982950e+00 3.1743265619e+00 
27100 6.3553852752e+00 -1.9716561844e-03 1.8327537156e+00 -3.1744225531e+00 1.8327537156e+00 3.1744225531e+00 
27200 6.3553853743e+00 -1.9106159624e-03 1.8328075053e+00 -3.1745157197e+00 1.8328075053e+00 3.1745157197e+00 
27300 6.3553855655e+00 -1.8483747154e-03 1.8328596282e+00 -3.1746059992e+00 1.8328596282e+00 3.1746059992e+00 
27400 6.3553858456e+00 -1.7850532766e-03 1.8329100517e+00 -3.1746933352e+00 1.8329100517e+00 3.1746933352e+00 
27500 6.3553862107e+00 -1.7207709676e-03 1.8329587464e+00 -3.1747776769e+00 1.8329587464e+00 3.1747776769e+00 
27600 6.3553866569e+00 -1.6556454630e-03 1.8330056863e+00 -3.1748589793e+00 1.8330056863e+00 3.1748589793e+00 
27700 6.3553871798e+00 -1.5897926623e-03 1.8330508485e+00 -3.1749372025e+00 1.8330508485e+00 3.1749372025e+00 
27800 6.3553877748e+00 -1.5233265659e-03 1.8330942134e+00 -3.1750123126e+00 1.8330942134e+00 3.1750123126e+00 
27900 6.3553884371e+00 -1.4563591577e-03 1.8331357642e+00 -3.1750842808e+00 1.8331357642e+00 3.1750842808e+00 
28000 6.3553891616e+00 -1.3890002936e-03 1.8331754875e+00 -3.1751530836e+00 1.8331754875e+00 3.1751530836e+00 
28100 6.3553899433e+00 -1.3213575949e-03 1.8332133727e+00 -3.1752187027e+00 1.8332133727e+00 3.1752187027e+00 
28200 6.3553907769e+00 -1.2535363487e-03 1.8332494122e+00 -3.1752811250e+00 1.8332494122e+00 3.1752811250e+00 
28300 6.3553916571e+00 -1.1856394131e-03 1.8332836013e+00 -3.1753403421e+00 1.8332836013e+00 3.1753403421e+00 
28400 6.3553925785e+00 -1.1177671287e-03 1.8333159379e+00 -3.1753963507e+00 1.8333159379e+00 3.1753963507e+00 
28500 6.3553935359e+00 -1.0500172362e-03 1.8333464228e+00 -3.1754491522e+00 1.8333464228e+00 3.1754491522e+00 
28600 6.3553945240e+00 -9.8248479936e-04 1.8333750595e+00 -3.1754987524e+00 1.8333750595e+00 3.1754987524e+00 
28700 6.3553955374e+00 -9.1526213372e-04 1.8334018540e+00 -3.1755451618e+00 1.8334018540e+00 3.1755451618e+00 
28800 6.3553965712e+00 -8.4843874163e-04 1.8334268148e+00 -3.1755883952e+00 1.8334268148e+00 3.1755883952e+00 
28900 6.3553976201e+00 -7.8210125249e-04 1.8334499529e+00 -3.1756284716e+00 1.8334499529e+00 3.1756284716e+00 
29000 6.3553986794e+00 -7.1633336895e-04 1.8334712816e+00 -3.1756654140e+00 1.8334712816e+00 3.1756654140e+00 
29100 6.3553997443e+00 -6.5121581864e-04 1.8334908166e+00 -3.1756992495e+00 1.8334908166e+00 3.1756992495e+00 
29200 6.3554008103e+00 -5.8682631155e-04 1.8335085755e+00 -3.1757300089e+00 1.8335085755e+00 3.1757300089e+00 
29300 6.3554018729e+00 -5.2323950290e-04 1.8335245784e+00 -3.1757577266e+00 1.8335245784e+00 3.1757577266e+00 
29400 6.3554029280e+00 -4.6052696144e-04 1.8335388471e+00 -3.1757824407e+00 1.8335388471e+00 3.1757824407e+00 
29500 6.3554039718e+00 -3.9875714313e-04 1.8335514055e+00 -3.1758041926e+00 1.8335514055e+00 3.1758041926e+00 
29600 6.3554050004e+00 -3.3799537009e-04 1.8335622794e+00 -3.1758230268e+00 1.8335622794e+00 3.1758230268e+00 
29700 6.3554060105e+00 -2.7830381475e-04 1.8335714963e+00 -3.1758389909e+00 1.8335714963e+00 3.1758389909e+00 
29800 6.3554069989e+00 -2.1974148907e-04 1.8335790854e+00 -3.1758521357e+00 1.8335790854e+00 3.1758521357e+00 
29900 6.3554079625e+00 -1.6236423871e-04 1.8335850776e+00 -3.1758625144e+00 1.8335850776e+00 3.1758625144e+00 
30000 6.3554088987e+00 -1.0622474214e-04 1.8335895051e+00 -3.1758701830e+00 1.8335895051e+00 3.1758701830e+00 
30100 6.3554098052e+00 -5.1372514435e-05 1.8335924017e+00 -3.1758752002e+00 1.8335924017e+00 3.1758752002e+00 
30200 6.3554106795e+00 8.2312514919e-07 1.8335924017e+00 -3.1758752002e+00 1.8335924017e+00 3.1758752002e+00 
30300 6.3554115200e+00 5.3013088758e-05 1.8335924017e+00 -3.1758752002e+00 1.8335924017e+00 3.1758752002e+00 
30400 6.3554123251e+00 1.0512910198e-04 1.8335924017e+00 -3.1758752002e+00 1.8335924017e+00 3.1758752002e+00 
30500 6.3554130933e+00 1.5439725470e-04 1.8335895350e+00 -3.1758702348e+00 1.8335895350e+00 3.1758702348e+00 
30600 6.3554138235e+00 2.0217767204e-04 1.8335853247e+00 -3.1758629424e+00 1.8335853247e+00 3.1758629424e+00 
30700 6.3554145148e+00 2.4843948328e-04 1.8335798116e+00 -3.1758533933e+00 1.8335798116e+00 3.1758533933e+00 
30800 6.3554151666e+00 2.9315483219e-04 1.8335730368e+00 -3.1758416592e+00 1.8335730368e+00 3.1758416592e+00 
30900 6.3554157783e+00 3.3629883992e-04 1.8335650428e+00 -3.1758278131e+00 1.8335650428e+00 3.1758278131e+00 
31000 6.3554163500e+00 3.7784956435e-04 1.8335558721e+00 -3.1758119291e+00 1.8335558721e+00 3.1758119291e+00 
31100 6.3554168814e+00 4.1778795607e-04 1.8335455684e+00 -3.1757940825e+00 1.8335455684e+00 3.1757940825e+00 
31200 6.3554173730e+00 4.5609781115e-04 1.8335341755e+00 -3.1757743494e+00 1.8335341755e+00 3.1757743494e+00 
31300 6.3554178251e+00 4.9276572087e-04 1.8335217379e+00 -3.1757528068e+00 1.8335217379e+00 3.1757528068e+00 
31400 6.3554182382e+00 5.2778101853e-04 1.8335083002e+00 -3.1757295321e+00 1.8335083002e+00 3.1757295321e+00 
31500 6.3554186132e+00 5.6113572353e-04 1.8334939076e+00 -3.1757046033e+00 1.8334939076e+00 3.1757046033e+00 
31600 6.3554189509e+00 5.9282448287e-04 1.8334786052e+00 -3.1756780989e+00 1.8334786052e+00 3.1756780989e+00 
31700 6.3554192523e+00 6.2284451023e-04 1.8334624386e+00 -3.1756500974e+00 1.8334624386e+00 3.1756500974e+00 
31800 6.3554195188e+00 6.5119552277e-04 1.8334454532e+00 -3.1756206778e+00 1.8334454532e+00 3.1756206778e+00 
31900 6.3554197514e+00 6.7787967582e-04 1.8334276944e+00 -3.1755899187e+00 1.8334276944e+00 3.1755899187e+00 
32000 6.3554199517e+00 7.0290149568e-04 1.8334092077e+00 -3.1755578989e+00 1.8334092077e+00 3.1755578989e+00 
32100 6.3554201212e+00 7.2626781055e-04 1.8333900385e+00 -3.1755246968e+00 1.8333900385e+00 3.1755246968e+00 
32200 6.3554202613e+00 7.4798767987e-04 1.8333702319e+00 -3.1754903907e+00 1.8333702319e+00 3.1754903907e+00 
32300 6.3554203738e+00 7.6807232218e-04 1.8333498327e+00 -3.1754550582e+00 1.8333498327e+00 3.1754550582e+00 
32400 6.3554204602e+00 7.8653504162e-04 1.8333288855e+00 -3.1754187766e+00 1.8333288855e+00 3.1754187766e+00 
32500 6.3554205223e+00 8.0339115331e-04 1.8333074345e+00 -3.1753816224e+00 1.8333074345e+00 3.1753816224e+00 
32600 6.3554205620e+00 8.1865790763e-04 1.8332855236e+00 -3.1753436716e+00 1.8332855236e+00 3.1753436716e+00 
32700 6.3554205808e+00 8.3235441371e-04 1.8332631960e+00 -3.1753049991e+00 1.8332631960e+00 3.1753049991e+00 
32800 6.3554205807e+00 8.4450156207e-04 1.8332404946e+00 -3.1752656791e+00 1.8332404946e+00 3.1752656791e+00 
32900 6.3554205634e+00 8.5512194676e-04 1.8332174616e+00 -3.1752257848e+00 1.8332174616e+00 3.1752257848e+00 
33000 6.3554205306e+00 8.6423978699e-04 1.8331941387e+00 -3.1751853883e+00 1.8331941387e+00 3.1751853883e+00 
33100 6.3554204841e+00 8.7188084846e-04 1.8331705668e+00 -3.1751445606e+00 1.8331705668e+00 3.1751445606e+00 
33200 6.3554204257e+00 8.7807236446e-04 1.8331467861e+00 -3.1751033713e+00 1.8331467861e+00 3.1751033713e+00 
33300 6.3554203569e+00 8.8284295697e-04 1.8331228363e+00 -3.1750618890e+00 1.8331228363e+00 3.1750618890e+00 
33400 6.3554202795e+00 8.8622255774e-04 1.8330987561e+00 -3.1750201808e+00 1.8330987561e+00 3.1750201808e+00 
33500 6.3554201951e+00 8.8824232965e-04 1.8330745833e+00 -3.1749783124e+00 1.8330745833e+00 3.1749783124e+00 
33600 6.3554201051e+00 8.8893458824e-04 1.8330503552e+00 -3.1749363480e+00 1.8330503552e+00 3.1749363480e+00 
33700 6.3554200110e+00 8.8833272377e-04 1.8330261078e+00 -3.1748943503e+00 1.8330261078e+00 3.1748943503e+00 
33800 6.3554199142e+00 8.8647112376e-04 1.8330018766e+00 -3.1748523806e+00 1.8330018766e+00 3.1748523806e+00 
33900 6.3554198161e+00 8.8338509608e-04 1.8329776957e+00 -3.1748104982e+00 1.8329776957e+00 3.1748104982e+00 
34000 6.3554197179e+00 8.7911079294e-04 1.8329535988e+00 -3.1747687610e+00 1.8329535988e+00 3.1747687610e+00 
34100 6.3554196208e+00 8.7368513547e-04 1.8329296181e+00 -3.1747272253e+00 1.8329296181e+00 3.1747272253e+00 
34200 6.3554195258e+00 8.6714573946e-04 1.8329057852e+00 -3.1746859454e+00 1.8329057852e+00 3.1746859454e+00 
34300 6.3554194341e+00 8.5953084189e-04 1.8328821303e+00 -3.1746449739e+00 1.8328821303e+00 3.1746449739e+00 
34400 6.3554193466e+00 8.5087922868e-04 1.8328586828e+00 -3.1746043617e+00 1.8328586828e+00 3.1746043617e+00 
34500 6.3554192640e+00 8.4123016357e-04 1.8328354710e+00 -3.1745641578e+00 1.8328354710e+00 3.1745641578e+00 
34600 6.3554191872e+00 8.3062331824e-04 1.8328125222e+00 -3.1745244092e+00 1.8328125222e+00 3.1745244092e+00 
34700 6.3554191169e+00 8.1909870369e-04 1.8327898625e+00 -3.1744851614e+00 1.8327898625e+00 3.1744851614e+00 
34800 6.3554190536e+00 8.0669660313e-04 1.8327675168e+00 -3.1744464576e+00 1.8327675168e+00 3.1744464576e+00 
34900 6.3554189979e+00 7.9345750617e-04 1.8327455093e+00 -3.1744083394e+00 1.8327455093e+00 3.1744083394e+00 
35000 6.3554189502e+00 7.7942204457e-04 1.8327238626e+00 -3.1743708463e+00 1.8327238626e+00 3.1743708463e+00 
35100 6.3554189109e+00 7.6463092959e-04 1.8327025986e+00 -3.1743340160e+00 1.8327025986e+00 3.1743340160e+00 
35200 6.3554188802e+00 7.4912489084e-04 1.8326817379e+00 -3.1742978842e+00 1.8326817379e+00 3.1742978842e+00 
35300 6.3554188585e+00 7.3294461690e-04 1.8326613000e+00 -3.1742624847e+00 1.8326613000e+00 3.1742624847e+00 
35400 6.3554188458e+00 7.1613069750e-04 1.8326413033e+00 -3.1742278494e+00 1.8326413033e+00 3.1742278494e+00 
35500 6.3554188422e+00 6.9872356755e-04 1.8326217651e+00 -3.1741940083e+00 1.8326217651e+00 3.1741940083e+00 
35600 6.3554188477e+00 6.8076345286e-04 1.8326027017e+00 -3.1741609894e+00 1.8326027017e+00 3.1741609894e+00 
35700 6.3554188622e+00 6.6229031767e-04 1.8325841280e+00 -3.1741288189e+00 1.8325841280e+00 3.1741288189e+00 
35800 6.3554188858e+00 6.4334381401e-04 1.8325660582e+00 -3.1740975211e+00 1.8325660582e+00 3.1740975211e+00 
35900 6.3554189181e+00 6.2396323291e-04 1.8325485052e+00 -3.1740671183e+00 1.8325485052e+00 3.1740671183e+00 
36000 6.3554189590e+00 6.0418745744e-04 1.8325314807e+00 -3.1740376311e+00 1.8325314807e+00 3.1740376311e+00 
36100 6.3554190082e+00 5.8405491764e-04 1.8325149957e+00 -3.1740090782e+00 1.8325149957e+00 3.1740090782e+00 
36200 6.3554190655e+00 5.6360354740e-04 1.8324990598e+00 -3.1739814765e+00 1.8324990598e+00 3.1739814765e+00 
36300 6.3554191305e+00 5.4287074310e-04 1.8324836818e+00 -3.1739548410e+00 1.8324836818e+00 3.1739548410e+00 
36400 6.3554192029e+00 5.2189332433e-04 1.8324688694e+00 -3.1739291852e+00 1.8324688694e+00 3.1739291852e+00 
36500 6.3554192821e+00 5.0070749640e-04 1.8324546293e+00 -3.1739045205e+00 1.8324546293e+00 3.1739045205e+00 
36600 6.3554193679e+00 4.7934881477e-04 1.8324409671e+00 -3.1738808569e+00 1.8324409671e+00 3.1738808569e+00 
36700 6.3554194597e+00 4.5785215144e-04 1.8324278876e+00 -3.1738582025e+00 1.8324278876e+00 3.1738582025e+00 
36800 6.3554195572e+00 4.3625166322e-04 1.8324153946e+00 -3.1738365640e+00 1.8324153946e+00 3.1738365640e+00 
36900 6.3554196597e+00 4.1458076185e-04 1.8324034908e+00 -3.1738159461e+00 1.8324034908e+00 3.1738159461e+00 
37000 6.3554197669e+00 3.9287208605e-04 1.8323921784e+00 -3.1737963523e+00 1.8323921784e+00 3.1737963523e+00 
37100 6.3554198783e+00 3.7115747544e-04 1.8323814582e+00 -3.1737777844e+00 1.8323814582e+00 3.1737777844e+00 
37200 6.3554199933e+00 3.4946794629e-04 1.8323713305e+00 -3.1737602427e+00 1.8323713305e+00 3.1737602427e+00 
37300 6.3554201114e+00 3.2783366911e-04 1.8323617945e+00 -3.1737437260e+00 1.8323617945e+00 3.1737437260e+00 
37400 6.3554202321e+00 3.0628394807e-04 1.8323528489e+00 -3.1737282316e+00 1.8323528489e+00 3.1737282316e+00 
37500 6.3554203550e+00 2.8484720221e-04 1.8323444912e+00 -3.1737137557e+00 1.8323444912e+00 3.1737137557e+00 
37600 6.3554204795e+00 2.6355094844e-04 1.8323367185e+00 -3.1737002929e+00 1.8323367185e+00 3.1737002929e+00 
37700 6.3554206052e+00 2.4242178620e-04 1.8323295268e+00 -3.1736878366e+00 1.8323295268e+00 3.1736878366e+00 
37800 6.3554207316e+00 2.2148538399e-04 1.8323229117e+00 -3.1736763789e+00 1.8323229117e+00 3.1736763789e+00 
37900 6.3554208583e+00 2.0076646743e-04 1.8323168678e+00 -3.1736659107e+00 1.8323168678e+00 3.1736659107e+00 
38000 6.3554209847e+00 1.8028880911e-04 1.8323113894e+00 -3.1736564217e+00 1.8323113894e+00 3.1736564217e+00 
38100 6.3554211106e+00 1.6007521997e-04 1.8323064697e+00 -3.1736479005e+00 1.8323064697e+00 3.1736479005e+00 
38200 6.3554212355e+00 1.4014754232e-04 1.8323021015e+00 -3.1736403346e+00 1.8323021015e+00 3.1736403346e+00 
38300 6.3554213590e+00 1.2052664444e-04 1.8322982772e+00 -3.1736337107e+00 1.8322982772e+00 3.1736337107e+00 
38400 6.3554214808e+00 1.0123241666e-04 1.8322949882e+00 -3.1736280140e+00 1.8322949882e+00 3.1736280140e+00 
38500 6.3554216005e+00 8.2283768926e-05 1.8322922258e+00 -3.1736232293e+00 1.8322922258e+00 3.1736232293e+00 
38600 6.3554217178e+00 6.3698629884e-05 1.8322899804e+00 -3.1736193402e+00 1.8322899804e+00 3.1736193402e+00 
38700 6.3554218326e+00 4.7140093426e-05 1.8322899804e+00 -3.1736193402e+00 1.8322899804e+00 3.1736193402e+00 
38800 6.3554219443e+00 3.0516196588e-05 1.8322899804e+00 -3.1736193402e+00 1.8322899804e+00 3.1736193402e+00 
38900 6.3554220528e+00 1.3849979231e-05 1.8322899804e+00 -3.1736193402e+00 1.8322899804e+00 3.1736193402e+00 
39000 6.3554221580e+00 -2.8361464338e-06 1.8322899804e+00 -3.1736193402e+00 1.8322899804e+00 3.1736193402e+00 
39100 6.3554222595e+00 -1.9520405374e-05 1.8322899804e+00 -3.1736193402e+00 1.8322899804e+00 3.1736193402e+00 
39200 6.3554223575e+00 -3.6181668218e-05 1.8322899804e+00 -3.1736193402e+00 1.8322899804e+00 3.1736193402e+00 
39300 6.3554224516e+00 -5.2799458756e-05 1.8322899804e+00 -3.1736193402e+00 1.8322899804e+00 3.1736193402e+00 
39400 6.3554225420e+00 -6.9353960448e-05 1.8322899804e+00 -3.1736193402e+00 1.8322899804e+00 3.1736193402e+00 
39500 6.3554226284e+00 -8.5826021936e-05 1.8322899804e+00 -3.1736193402e+00 1.8322899804e+00 3.1736193402e+00 
39600 6.3554227105e+00 -9.9979547018e-05 1.8322923224e+00 -3.1736233968e+00 1.8322923224e+00 3.1736233968e+00 
39700 6.3554227886e+00 -1.1363697807e-04 1.8322950507e+00 -3.1736281223e+00 1.8322950507e+00 3.1736281223e+00 
39800 6.3554228624e+00 -1.2679171822e-04 1.8322981516e+00 -3.1736334933e+00 1.8322981516e+00 3.1736334933e+00 
39900 6.3554229321e+00 -1.3943805291e-04 1.8323016116e+00 -3.1736394860e+00 1.8323016116e+00 3.1736394860e+00 
40000 6.3554229976e+00 -1.5157113478e-04 1.8323054166e+00 -3.1736460765e+00 1.8323054166e+00 3.1736460765e+00 
40100 6.3554230591e+00 -1.6318696785e-04 1.8323095526e+00 -3.1736532404e+00 1.8323095526e+00 3.1736532404e+00 
40200 6.3554231164e+00 -1.7428239081e-04 1.8323140057e+00 -3.1736609533e+00 1.8323140057e+00 3.1736609533e+00 
40300 6.3554231698e+00 -1.8485505966e-04 1.8323187615e+00 -3.1736691905e+00 1.8323187615e+00 3.1736691905e+00 
40400 6.3554232193e+00 -1.9490342968e-04 1.8323238058e+00 -3.1736779275e+00 1.8323238058e+00 3.1736779275e+00 
40500 6.3554232650e+00 -2.0442673667e-04 1.8323291243e+00 -3.1736871394e+00 1.8323291243e+00 3.1736871394e+00 
40600 6.3554233070e+00 -2.1342497767e-04 1.8323347026e+00 -3.1736968014e+00 1.8323347026e+00 3.1736968014e+00 
40700 6.3554233455e+00 -2.2189889109e-04 1.8323405264e+00 -3.1737068886e+00 1.8323405264e+00 3.1737068886e+00 
40800 6.3554233805e+00 -2.2984993635e-04 1.8323465815e+00 -3.1737173763e+00 1.8323465815e+00 3.1737173763e+00 
40900 6.3554234122e+00 -2.3728027300e-04 1.8323528535e+00 -3.1737282397e+00 1.8323528535e+00 3.1737282397e+00 
41000 6.3554234408e+00 -2.4419273944e-04 1.8323593283e+00 -3.1737394543e+00 1.8323593283e+00 3.1737394543e+00 
41100 6.3554234664e+00 -2.5059083127e-04 1.8323659916e+00 -3.1737509955e+00 1.8323659916e+00 3.1737509955e+00 
41200 6.3554234892e+00 -2.5647867923e-04 1.8323728295e+00 -3.1737628392e+00 1.8323728295e+00 3.1737628392e+00 
41300 6.3554235094e+00 -2.6186102689e-04 1.8323798281e+00 -3.1737749610e+00 1.8323798281e+00 3.1737749610e+00 
41400 6.3554235271e+00 -2.6674320801e-04 1.8323869735e+00 -3.1737873372e+00 1.8323869735e+00 3.1737873372e+00 
41500 6.3554235425e+00 -2.7113112370e-04 1.8323942520e+00 -3.1737999440e+00 1.8323942520e+00 3.1737999440e+00 
41600 6.3554235557e+00 -2.7503121940e-04 1.8324016503e+00 -3.1738127582e+00 1.8324016503e+00 3.1738127582e+00 
41700 6.3554235670e+00 -2.7845046162e-04 1.8324091550e+00 -3.1738257567e+00 1.8324091550e+00 3.1738257567e+00 
41800 6.3554235765e+00 -2.8139631466e-04 1.8324167529e+00 -3.1738389167e+00 1.8324167529e+00 3.1738389167e+00 
41900 6.3554235844e+00 -2.8387671716e-04 1.8324244312e+00 -3.1738522159e+00 1.8324244312e+00 3.1738522159e+00 
42000 6.3554235908e+00 -2.8590005864e-04 1.8324321772e+00 -3.1738656322e+00 1.8324321772e+00 3.1738656322e+00 
42100 6.3554235960e+00 -2.8747515601e-04 1.8324399783e+00 -3.1738791442e+00 1.8324399783e+00 3.1738791442e+00 
42200 6.3554236000e+00 -2.8861123005e-04 1.8324478223e+00 -3.1738927305e+00 1.8324478223e+00 3.1738927305e+00 
42300 6.3554236031e+00 -2.8931788200e-04 1.8324556973e+00 -3.1739063704e+00 1.8324556973e+00 3.1739063704e+00 
42400 6.3554236054e+00 -2.8960507021e-04 1.8324635916e+00 -3.1739200437e+00 1.8324635916e+00 3.1739200437e+00 
42500 6.3554236070e+00 -2.8948308684e-04 1.8324714937e+00 -3.1739337305e+00 1.8324714937e+00 3.1739337305e+00 
42600 6.3554236082e+00 -2.8896253476e-04 1.8324793924e+00 -3.1739474115e+00 1.8324793924e+00 3.1739474115e+00 
42700 6.3554236089e+00 -2.8805430460e-04 1.8324872769e+00 -3.1739610678e+00 1.8324872769e+00 3.1739610678e+00 
42800 6.3554236093e+00 -2.8676955195e-04 1.8324951365e+00 -3.1739746811e+00 1.8324951365e+00 3.1739746811e+00 
42900 6.3554236097e+00 -2.8511967483e-04 1.8325029611e+00 -3.1739882337e+00 1.8325029611e+00 3.1739882337e+00 
43000 6.3554236100e+00 -2.8311629138e-04 1.8325107406e+00 -3.1740017082e+00 1.8325107406e+00 3.1740017082e+00 
43100 6.3554236103e+00 -2.8077121780e-04 1.8325184655e+00 -3.1740150880e+00 1.8325184655e+00 3.1740150880e+00 
43200 6.3554236109e+00 -2.7809644664e-04 1.8325261263e+00 -3.1740283569e+00 1.8325261263e+00 3.1740283569e+00 
43300 6.3554236117e+00 -2.7510412532e-04 1.8325337141e+00 -3.1740414993e+00 1.8325337141e+00 3.1740414993e+00 
43400 6.3554236128e+00 -2.7180653506e-04 1.8325412202e+00 -3.1740545003e+00 1.8325412202e+00 3.1740545003e+00 
43500 6.3554236144e+00 -2.6821607012e-04 1.8325486363e+00 -3.1740673454e+00 1.8325486363e+00 3.1740673454e+00 
43600 6.3554236165e+00 -2.6434521747e-04 1.8325559544e+00 -3.1740800208e+00 1.8325559544e+00 3.1740800208e+00 
43700 6.3554236191e+00 -2.6020653676e-04 1.8325631669e+00 -3.1740925131e+00 1.8325631669e+00 3.1740925131e+00 
43800 6.3554236222e+00 -2.5581264082e-04 1.8325702664e+00 -3.1741048099e+00 1.8325702664e+00 3.1741048099e+00 
43900 6.3554236260e+00 -2.5117617648e-04 1.8325772460e+00 -3.1741168989e+00 1.8325772460e+00 3.1741168989e+00 
44000 6.3554236305e+00 -2.4630980596e-04 1.8325840991e+00 -3.1741287688e+00 1.8325840991e+00 3.1741287688e+00 
44100 6.3554236357e+00 -2.4122618855e-04 1.8325908194e+00 -3.1741404087e+00 1.8325908194e+00 3.1741404087e+00 
44200 6.3554236415e+00 -2.3593796295e-04 1.8325974010e+00 -3.1741518083e+00 1.8325974010e+00 3.1741518083e+00 
44300 6.3554236481e+00 -2.3045772993e-04 1.8326038382e+00 -3.1741629580e+00 1.8326038382e+00 3.1741629580e+00 
44400 6.3554236554e+00 -2.2479803565e-04 1.8326101260e+00 -3.1741738486e+00 1.8326101260e+00 3.1741738486e+00 
44500 6.3554236635e+00 -2.1897135532e-04 1.8326162592e+00 -3.1741844718e+00 1.8326162592e+00 3.1741844718e+00 
44600 6.3554236723e+00 -2.1299007751e-04 1.8326222335e+00 -3.1741948195e+00 1.8326222335e+00 3.1741948195e+00 
44700 6.3554236818e+00 -2.0686648893e-04 1.8326280446e+00 -3.1742048846e+00 1.8326280446e+00 3.1742048846e+00 
44800 6.3554236920e+00 -2.0061275976e-04 1.8326336886e+00 -3.1742146603e+00 1.8326336886e+00 3.1742146603e+00 
44900 6.3554237029e+00 -1.9424092950e-04 1.8326391619e+00 -3.1742241404e+00 1.8326391619e+00 3.1742241404e+00 
45000 6.3554237145e+00 -1.8776289340e-04 1.8326444614e+00 -3.1742333194e+00 1.8326444614e+00 3.1742333194e+00 
45100 6.3554237267e+00 -1.8119038943e-04 1.8326495842e+00 -3.1742421922e+00 1.8326495842e+00 3.1742421922e+00 
45200 6.3554237395e+00 -1.7453498581e-04 1.8326545276e+00 -3.1742507545e+00 1.8326545276e+00 3.1742507545e+00 
45300 6.3554237529e+00 -1.6780806905e-04 1.8326592894e+00 -3.1742590022e+00 1.8326592894e+00 3.1742590022e+00 
45400 6.3554237668e+00 -1.6102083269e-04 1.8326638676e+00 -3.1742669320e+00 1.8326638676e+00 3.1742669320e+00 
45500 6.3554237812e+00 -1.5418426642e-04 1.8326682607e+00 -3.1742745410e+00 1.8326682607e+00 3.1742745410e+00 
45600 6.3554237961e+00 -1.4730914593e-04 1.8326724673e+00 -3.1742818270e+00 1.8326724673e+00 3.1742818270e+00 
45700 6.3554238114e+00 -1.4040602323e-04 1.8326764863e+00 -3.1742887880e+00 1.8326764863e+00 3.1742887880e+00 
45800 6.3554238271e+00 -1.3348521754e-04 1.8326803169e+00 -3.1742954229e+00 1.8326803169e+00 3.1742954229e+00 
45900 6.3554238431e+00 -1.2655680682e-04 1.8326839587e+00 -3.1743017307e+00 1.8326839587e+00 3.1743017307e+00 
46000 6.3554238594e+00 -1.1963061974e-04 1.8326874115e+00 -3.1743077110e+00 1.8326874115e+00 3.1743077110e+00 
46100 6.3554238759e+00 -1.1271622832e-04 1.8326906753e+00 -3.1743133641e+00 1.8326906753e+00 3.1743133641e+00 
46200 6.3554238926e+00 -1.0582294106e-04 1.8326937504e+00 -3.1743186904e+00 1.8326937504e+00 3.1743186904e+00 
46300 6.3554239095e+00 -9.8959796638e-05 1.8326966375e+00 -3.1743236910e+00 1.8326966375e+00 3.1743236910e+00 
46400 6.3554239264e+00 -9.2135558146e-05 1.8326993373e+00 -3.1743283673e+00 1.8326993373e+00 3.1743283673e+00 
46500 6.3554239434e+00 -8.5358707870e-05 1.8327018510e+00 -3.1743327211e+00 1.8327018510e+00 3.1743327211e+00 
46600 6.3554239605e+00 -7.8637442607e-05 1.8327041798e+00 -3.1743367546e+00 1.8327041798e+00 3.1743367546e+00 
46700 6.3554239775e+00 -7.1979669495e-05 1.8327063252e+00 -3.1743404705e+00 1.8327063252e+00 3.1743404705e+00 
46800 6.3554239944e+00 -6.5393002370e-05 1.8327082889e+00 -3.1743438719e+00 1.8327082889e+00 3.1743438719e+00 
46900 6.3554240114e+00 -6.0572505061e-05 1.8327082889e+00 -3.1743438719e+00 1.8327082889e+00 3.1743438719e+00 
47000 6.3554240282e+00 -5.5678448033e-05 1.8327082889e+00 -3.1743438719e+00 1.8327082889e+00 3.1743438719e+00 
47100 6.3554240447e+00 -5.0719140764e-05 1.8327082889e+00 -3.1743438719e+00 1.8327082889e+00 3.1743438719e+00 
47200 6.3554240610e+00 -4.5702725852e-05 1.8327082889e+00 -3.1743438719e+00 1.8327082889e+00 3.1743438719e+00 
47300 6.3554240771e+00 -4.0637173911e-05 1.8327082889e+00 -3.1743438719e+00 1.8327082889e+00 3.1743438719e+00 
47400 6.3554240928e+00 -3.5530278816e-05 1.8327082889e+00 -3.1743438719e+00 1.8327082889e+00 3.1743438719e+00 
47500 6.3554241082e+00 -3.0389653272e-05 1.8327082889e+00 -3.1743438719e+00 1.8327082889e+00 3.1743438719e+00 
47600 6.3554241233e+00 -2.5222724725e-05 1.8327082889e+00 -3.1743438719e+00 1.8327082889e+00 3.1743438719e+00 
47700 6.3554241381e+00 -2.0036731614e-05 1.8327082889e+00 -3.1743438719e+00 1.8327082889e+00 3.1743438719e+00 
47800 6.3554241524e+00 -1.4838719937e-05 1.8327082889e+00 -3.1743438719e+00 1.8327082889e+00 3.1743438719e+00 
47900 6.3554241664e+00 -9.6355401483e-06 1.8327082889e+00 -3.1743438719e+00 1.8327082889e+00 3.1743438719e+00 
48000 6.3554241800e+00 -4.4338443843e-06 1.8327082889e+00 -3.1743438719e+00 1.8327082889e+00 3.1743438719e+00 
48100 6.3554241932e+00 7.5991600704e-07 1.8327082889e+00 -3.1743438719e+00 1.8327082889e+00 3.1743438719e+00 
48200 6.3554242060e+00 5.9394926224e-06 1.8327082889e+00 -3.1743438719e+00 1.8327082889e+00 3.1743438719e+00 
48300 6.3554242183e+00 1.1098841846e-05 1.8327082889e+00 -3.1743438719e+00 1.8327082889e+00 3.1743438719e+00 
48400 6.3554242303e+00 1.6232126405e-05 1.8327082889e+00 -3.1743438719e+00 1.8327082889e+00 3.1743438719e+00 
48500 6.3554242418e+00 2.1333716617e-05 1.8327082889e+00 -3.1743438719e+00 1.8327082889e+00 3.1743438719e+00 
48600 6.3554242528e+00 2.6398191355e-05 1.8327082889e+00 -3.1743438719e+00 1.8327082889e+00 3.1743438719e+00 
48700 6.3554242635e+00 3.1420338743e-05 1.8327082889e+00 -3.1743438719e+00 1.8327082889e+00 3.1743438719e+00 
48800 6.3554242738e+00 3.6395156543e-05 1.8327082889e+00 -3.1743438719e+00 1.8327082889e+00 3.1743438719e+00 
48900 6.3554242836e+00 4.1317852312e-05 1.8327082889e+00 -3.1743438719e+00 1.8327082889e+00 3.1743438719e+00 
49000 6.3554242930e+00 4.6183843267e-05 1.8327082889e+00 -3.1743438719e+00 1.8327082889e+00 3.1743438719e+00 
49100 6.3554243020e+00 5.0988755903e-05 1.8327082889e+00 -3.1743438719e+00 1.8327082889e+00 3.1743438719e+00 
49200 6.3554243107e+00 5.5728425383e-05 1.8327082889e+00 -3.1743438719e+00 1.8327082889e+00 3.1743438719e+00 
49300 6.3554243189e+00 6.0398894645e-05 1.8327082889e+00 -3.1743438719e+00 1.8327082889e+00 3.1743438719e+00 
49400 6.3554243268e+00 6.4996413322e-05 1.8327082889e+00 -3.1743438719e+00 1.8327082889e+00 3.1743438719e+00 
49500 6.3554243343e+00 6.9517436401e-05 1.8327082889e+00 -3.1743438719e+00 1.8327082889e+00 3.1743438719e+00 
49600 6.3554243415e+00 7.3958622683e-05 1.8327082889e+00 -3.1743438719e+00 1.8327082889e+00 3.1743438719e+00 
49700 6.3554243482e+00 7.6407777858e-05 1.8327062712e+00 -3.1743403770e+00 1.8327062712e+00 3.1743403770e+00 
49800 6.3554243545e+00 7.8697638857e-05 1.8327041866e+00 -3.1743367665e+00 1.8327041866e+00 3.1743367665e+00 
49900 6.3554243604e+00 8.0828923846e-05 1.8327020396e+00 -3.1743330477e+00 1.8327020396e+00 3.1743330477e+00 
50000 6.3554243661e+00 8.2802563314e-05 1.8326998344e+00 -3.1743292282e+00 1.8326998344e+00 3.1743292282e+00 
50100 6.3554243714e+00 8.4619692894e-05 1.8326975754e+00 -3.1743253154e+00 1.8326975754e+00 3.1743253154e+00 
50200 6.3554243764e+00 8.6281646048e-05 1.8326952668e+00 -3.1743213168e+00 1.8326952668e+00 3.1743213168e+00 
50300 6.3554243812e+00 8.7789946692e-05 1.8326929128e+00 -3.1743172396e+00 1.8326929128e+00 3.1743172396e+00 
50400 6.3554243857e+00 8.9146301782e-05 1.8326905177e+00 -3.1743130912e+00 1.8326905177e+00 3.1743130912e+00 
50500 6.3554243900e+00 9.0352593807e-05 1.8326880856e+00 -3.1743088787e+00 1.8326880856e+00 3.1743088787e+00 
50600 6.3554243941e+00 9.1410873262e-05 1.8326856206e+00 -3.1743046091e+00 1.8326856206e+00 3.1743046091e+00 
50700 6.3554243979e+00 9.2323351103e-05 1.8326831266e+00 -3.1743002895e+00 1.8326831266e+00 3.1743002895e+00 
50800 6.3554244016e+00 9.3092391150e-05 1.8326806078e+00 -3.1742959268e+00 1.8326806078e+00 3.1742959268e+00 
50900 6.3554244051e+00 9.3720502520e-05 1.8326780681e+00 -3.1742915278e+00 1.8326780681e+00 3.1742915278e+00 
51000 6.3554244084e+00 9.4210332036e-05 1.8326755111e+00 -3.1742870991e+00 1.8326755111e+00 3.1742870991e+00 
51100 6.3554244116e+00 9.4564656652e-05 1.8326729408e+00 -3.1742826472e+00 1.8326729408e+00 3.1742826472e+00 
51200 6.3554244146e+00 9.4786375933e-05 1.8326703609e+00 -3.1742781786e+00 1.8326703609e+00 3.1742781786e+00 
51300 6.3554244176e+00 9.4878504510e-05 1.8326677749e+00 -3.1742736994e+00 1.8326677749e+00 3.1742736994e+00 
51400 6.3554244204e+00 9.4844164637e-05 1.8326651863e+00 -3.1742692160e+00 1.8326651863e+00 3.1742692160e+00 
51500 6.3554244232e+00 9.4686578768e-05 1.8326625987e+00 -3.1742647341e+00 1.8326625987e+00 3.1742647341e+00 
51600 6.3554244259e+00 9.4409062196e-05 1.8326600154e+00 -3.1742602597e+00 1.8326600154e+00 3.1742602597e+00 
51700 6.3554244285e+00 9.4015015774e-05 1.8326574397e+00 -3.1742557984e+00 1.8326574397e+00 3.1742557984e+00 
51800 6.3554244311e+00 9.3507918694e-05 1.8326548747e+00 -3.1742513557e+00 1.8326548747e+00 3.1742513557e+00 
51900 6.3554244337e+00 9.2891321384e-05 1.8326523235e+00 -3.1742469370e+00 1.8326523235e+00 3.1742469370e+00 
52000 6.3554244362e+00 9.2168838459e-05 1.8326497892e+00 -3.1742425473e+00 1.8326497892e+00 3.1742425473e+00 
52100 6.3554244387e+00 9.1344141806e-05 1.8326472746e+00 -3.1742381919e+00 1.8326472746e+00 3.1742381919e+00 
52200 6.3554244412e+00 9.0420953756e-05 1.8326447824e+00 -3.1742338754e+00 1.8326447824e+00 3.1742338754e+00 
52300 6.3554244437e+00 8.9403040377e-05 1.8326423155e+00 -3.1742296025e+00 1.8326423155e+00 3.1742296025e+00 
52400 6.3554244462e+00 8.8294204889e-05 1.8326398763e+00 -3.1742253777e+00 1.8326398763e+00 3.1742253777e+00 
52500 6.3554244488e+00 8.7098281199e-05 1.8326374673e+00 -3.1742212053e+00 1.8326374673e+00 3.1742212053e+00 
52600 6.3554244513e+00 8.5819127580e-05 1.8326350910e+00 -3.1742170894e+00 1.8326350910e+00 3.1742170894e+00 
52700 6.3554244539e+00 8.4460620476e-05 1.8326327496e+00 -3.1742130340e+00 1.8326327496e+00 3.1742130340e+00 
52800 6.3554244565e+00 8.3026648450e-05 1.8326304453e+00 -3.1742090427e+00 1.8326304453e+00 3.1742090427e+00 
52900 6.3554244591e+00 8.1521106287e-05 1.8326281800e+00 -3.1742051192e+00 1.8326281800e+00 3.1742051192e+00 
53000 6.3554244618e+00 7.9947889243e-05 1.8326259559e+00 -3.1742012669e+00 1.8326259559e+00 3.1742012669e+00 
53100 6.3554244645e+00 7.8310887443e-05 1.8326237746e+00 -3.1741974888e+00 1.8326237746e+00 3.1741974888e+00 
53200 6.3554244672e+00 7.6613980452e-05 1.8326216381e+00 -3.1741937882e+00 1.8326216381e+00 3.1741937882e+00 
53300 6.3554244700e+00 7.4861032003e-05 1.8326195478e+00 -3.1741901677e+00 1.8326195478e+00 3.1741901677e+00 
53400 6.3554244728e+00 7.3055884870e-05 1.8326175053e+00 -3.1741866301e+00 1.8326175053e+00 3.1741866301e+00 
53500 6.3554244757e+00 7.1202355949e-05 1.8326155121e+00 -3.1741831777e+00 1.8326155121e+00 3.1741831777e+00 
53600 6.3554244785e+00 6.9304231474e-05 1.8326135695e+00 -3.1741798130e+00 1.8326135695e+00 3.1741798130e+00 
53700 6.3554244816e+00 6.9154579451e-05 1.8326135695e+00 -3.1741798130e+00 1.8326135695e+00 3.1741798130e+00 
53800 6.3554244847e+00 6.8927240611e-05 1.8326135695e+00 -3.1741798130e+00 1.8326135695e+00 3.1741798130e+00 
53900 6.3554244879e+00 6.8624952569e-05 1.8326135695e+00 -3.1741798130e+00 1.8326135695e+00 3.1741798130e+00 
54000 6.3554244910e+00 6.8250464087e-05 1.8326135695e+00 -3.1741798130e+00 1.8326135695e+00 3.1741798130e+00 
54100 6.3554244942e+00 6.7806531446e-05 1.8326135695e+00 -3.1741798130e+00 1.8326135695e+00 3.1741798130e+00 
54200 6.3554244973e+00 6.7295914908e-05 1.8326135695e+00 -3.1741798130e+00 1.8326135695e+00 3.1741798130e+00 
54300 6.3554245005e+00 6.6721375263e-05 1.8326135695e+00 -3.1741798130e+00 1.8326135695e+00 3.1741798130e+00 
54400 6.3554245037e+00 6.6085670456e-05 1.8326135695e+00 -3.1741798130e+00 1.8326135695e+00 3.1741798130e+00 
54500 6.3554245070e+00 6.5391552321e-05 1.8326135695e+00 -3.1741798130e+00 1.8326135695e+00 3.1741798130e+00 
54600 6.3554245102e+00 6.4641763396e-05 1.8326135695e+00 -3.1741798130e+00 1.8326135695e+00 3.1741798130e+00 
54700 6.3554245134e+00 6.3839033833e-05 1.8326135695e+00 -3.1741798130e+00 1.8326135695e+00 3.1741798130e+00 
54800 6.3554245166e+00 6.2986078418e-05 1.8326135695e+00 -3.1741798130e+00 1.8326135695e+00 3.1741798130e+00 
54900 6.3554245198e+00 6.2085593665e-05 1.8326135695e+00 -3.1741798130e+00 1.8326135695e+00 3.1741798130e+00 
55000 6.3554245229e+00 6.1140255032e-05 1.8326135695e+00 -3.1741798130e+00 1.8326135695e+00 3.1741798130e+00 
55100 6.3554245261e+00 6.0152714226e-05 1.8326135695e+00 -3.1741798130e+00 1.8326135695e+00 3.1741798130e+00 
55200 6.3554245293e+00 5.9125596607e-05 1.8326135695e+00 -3.1741798130e+00 1.8326135695e+00 3.1741798130e+00 
55300 6.3554245324e+00 5.8061498696e-05 1.8326135695e+00 -3.1741798130e+00 1.8326135695e+00 3.1741798130e+00 
55400 6.3554245355e+00 5.6962985794e-05 1.8326135695e+00 -3.1741798130e+00 1.8326135695e+00 3.1741798130e+00 
55500 6.3554245386e+00 5.5832589687e-05 1.8326135695e+00 -3.1741798130e+00 1.8326135695e+00 3.1741798130e+00 
55600 6.3554245416e+00 5.4672806467e-05 1.8326135695e+00 -3.1741798130e+00 1.8326135695e+00 3.1741798130e+00 
55700 6.3554245446e+00 5.3486094453e-05 1.8326135695e+00 -3.1741798130e+00 1.8326135695e+00 3.1741798130e+00 
55800 6.3554245476e+00 5.2274872208e-05 1.8326135695e+00 -3.1741798130e+00 1.8326135695e+00 3.1741798130e+00 
55900 6.3554245505e+00 5.1041516675e-05 1.8326135695e+00 -3.1741798130e+00 1.8326135695e+00 3.1741798130e+00 
56000 6.3554245534e+00 4.9788361394e-05 1.8326135695e+00 -3.1741798130e+00 1.8326135695e+00 3.1741798130e+00 
56100 6.3554245562e+00 4.8517694840e-05 1.8326135695e+00 -3.1741798130e+00 1.8326135695e+00 3.1741798130e+00 
56200 6.3554245590e+00 4.7231758853e-05 1.8326135695e+00 -3.1741798130e+00 1.8326135695e+00 3.1741798130e+00 
56300 6.3554245618e+00 4.5932747173e-05 1.8326135695e+00 -3.1741798130e+00 1.8326135695e+00 3.1741798130e+00 
56400 6.3554245645e+00 4.4622804070e-05 1.8326135695e+00 -3.1741798130e+00 1.8326135695e+00 3.1741798130e+00 
56500 6.3554245672e+00 4.3304023081e-05 1.8326135695e+00 -3.1741798130e+00 1.8326135695e+00 3.1741798130e+00 
56600 6.3554245698e+00 4.1978445841e-05 1.8326135695e+00 -3.1741798130e+00 1.8326135695e+00 3.1741798130e+00 
56700 6.3554245723e+00 4.0648061007e-05 1.8326135695e+00 -3.1741798130e+00 1.8326135695e+00 3.1741798130e+00 
56800 6.3554245748e+00 3.9314803289e-05 1.8326135695e+00 -3.1741798130e+00 1.8326135695e+00 3.1741798130e+00 
56900 6.3554245773e+00 3.7980552561e-05 1.8326135695e+00 -3.1741798130e+00 1.8326135695e+00 3.1741798130e+00 
57000 6.3554245797e+00 3.6647133087e-05 1.8326135695e+00 -3.1741798130e+00 1.8326135695e+00 3.1741798130e+00 
57100 6.3554245820e+00 3.5316312810e-05 1.8326135695e+00 -3.1741798130e+00 1.8326135695e+00 3.1741798130e+00 
57200 6.3554245843e+00 3.3989802758e-05 1.8326135695e+00 -3.1741798130e+00 1.8326135695e+00 3.1741798130e+00 
57300 6.3554245866e+00 3.2669256523e-05 1.8326135695e+00 -3.1741798130e+00 1.8326135695e+00 3.1741798130e+00 
57400 6.3554245887e+00 3.1356269833e-05 1.8326135695e+00 -3.1741798130e+00 1.8326135695e+00 3.1741798130e+00 
57500 6.3554245909e+00 3.0052380204e-05 1.8326135695e+00 -3.1741798130e+00 1.8326135695e+00 3.1741798130e+00 
57600 6.3554245930e+00 2.8759066684e-05 1.8326135695e+00 -3.1741798130e+00 1.8326135695e+00 3.1741798130e+00 
57700 6.3554245950e+00 2.7477749673e-05 1.8326135695e+00 -3.1741798130e+00 1.8326135695e+00 3.1741798130e+00 
57800 6.3554245970e+00 2.6209790819e-05 1.8326135695e+00 -3.1741798130e+00 1.8326135695e+00 3.1741798130e+00 
57900 6.3554245989e+00 2.4956492994e-05 1.8326135695e+00 -3.1741798130e+00 1.8326135695e+00 3.1741798130e+00 
58000 6.3554246008e+00 2.3719100353e-05 1.8326135695e+00 -3.1741798130e+00 1.8326135695e+00 3.1741798130e+00 
58100 6.3554246026e+00 2.2498798455e-05 1.8326135695e+00 -3.1741798130e+00 1.8326135695e+00 3.1741798130e+00 
58200 6.3554246044e+00 2.1296714458e-05 1.8326135695e+00 -3.1741798130e+00 1.8326135695e+00 3.1741798130e+00 
58300 6.3554246061e+00 2.0113917394e-05 1.8326135695e+00 -3.1741798130e+00 1.8326135695e+00 3.1741798130e+00 
58400 6.3554246078e+00 1.8951418487e-05 1.8326135695e+00 -3.1741798130e+00 1.8326135695e+00 3.1741798130e+00 
58500 6.3554246094e+00 1.7810171562e-05 1.8326135695e+00 -3.1741798130e+00 1.8326135695e+00 3.1741798130e+00 
58600 6.3554246110e+00 1.6691073500e-05 1.8326135695e+00 -3.1741798130e+00 1.8326135695e+00 3.1741798130e+00 
58700 6.3554246126e+00 1.5594964750e-05 1.8326135695e+00 -3.1741798130e+00 1.8326135695e+00 3.1741798130e+00 
58800 6.3554246141e+00 1.4522629918e-05 1.8326135695e+00 -3.1741798130e+00 1.8326135695e+00 3.1741798130e+00 
58900 6.3554246156e+00 1.3474798386e-05 1.8326135695e+00 -3.1741798130e+00 1.8326135695e+00 3.1741798130e+00 
59000 6.3554246171e+00 1.2452145004e-05 1.8326135695e+00 -3.1741798130e+00 1.8326135695e+00 3.1741798130e+00 
59100 6.3554246185e+00 1.1455290824e-05 1.8326135695e+00 -3.1741798130e+00 1.8326135695e+00 3.1741798130e+00 
59200 6.3554246198e+00 1.0484803872e-05 1.8326135695e+00 -3.1741798130e+00 1.8326135695e+00 3.1741798130e+00 
59300 6.3554246212e+00 9.5411999980e-06 1.8326135695e+00 -3.1741798130e+00 1.8326135695e+00 3.1741798130e+00 
59400 6.3554246225e+00 8.6249437290e-06 1.8326135695e+00 -3.1741798130e+00 1.8326135695e+00 3.1741798130e+00 
59500 6.3554246238e+00 7.7364491909e-06 1.8326135695e+00 -3.1741798130e+00 1.8326135695e+00 3.1741798130e+00 
59600 6.3554246250e+00 6.8760810590e-06 1.8326135695e+00 -3.1741798130e+00 1.8326135695e+00 3.1741798130e+00 
59700 6.3554246263e+00 6.0441555469e-06 1.8326135695e+00 -3.1741798130e+00 1.8326135695e+00 3.1741798130e+00 
59800 6.3554246275e+00 5.2409414328e-06 1.8326135695e+00 -3.1741798130e+00 1.8326135695e+00 3.1741798130e+00 
59900 6.3554246286e+00 4.4666611068e-06 1.8326135695e+00 -3.1741798130e+00 1.8326135695e+00 3.1741798130e+00 
60000 6.3554246298e+00 3.7214916626e-06 1.8326135695e+00 -3.1741798130e+00 1.8326135695e+00 3.1741798130e+00 
60100 6.3554246309e+00 3.0055660033e-06 1.8326135695e+00 -3.1741798130e+00 1.8326135695e+00 3.1741798130e+00 
60200 6.3554246320e+00 2.3189739873e-06 1.8326135695e+00 -3.1741798130e+00 1.8326135695e+00 3.1741798130e+00 
60300 6.3554246331e+00 1.6617635794e-06 1.8326135695e+00 -3.1741798130e+00 1.8326135695e+00 3.1741798130e+00 
60400 6.3554246342e+00 1.0339420383e-06 1.8326135695e+00 -3.1741798130e+00 1.8326135695e+00 3.1741798130e+00 
60500 6.3554246353e+00 4.3547711284e-07 1.8326135695e+00 -3.1741798130e+00 1.8326135695e+00 3.1741798130e+00 
60600 6.3554246363e+00 -1.3370173941e-07 1.8326135695e+00 -3.1741798130e+00 1.8326135695e+00 3.1741798130e+00 
60700 6.3554246373e+00 -6.7370211949e-07 1.8326135695e+00 -3.1741798130e+00 1.8326135695e+00 3.1741798130e+00 
60800 6.3554246383e+00 -1.1846674469e-06 1.8326135695e+00 -3.1741798130e+00 1.8326135695e+00 3.1741798130e+00 
60900 6.3554246393e+00 -1.6667757005e-06 1.8326135695e+00 -3.1741798130e+00 1.8326135695e+00 3.1741798130e+00 
61000 6.3554246403e+00 -2.1202381608e-06 1.8326135695e+00 -3.1741798130e+00 1.8326135695e+00 3.1741798130e+00 
61100 6.3554246413e+00 -2.5452981351e-06 1.8326135695e+00 -3.1741798130e+00 1.8326135695e+00 3.1741798130e+00 
61200 6.3554246422e+00 -2.9422296862e-06 1.8326135695e+00 -3.1741798130e+00 1.8326135695e+00 3.1741798130e+00 
61300 6.3554246432e+00 -3.3113363448e-06 1.8326135695e+00 -3.1741798130e+00 1.8326135695e+00 3.1741798130e+00 
61400 6.3554246441e+00 -3.6529498491e-06 1.8326135695e+00 -3.1741798130e+00 1.8326135695e+00 3.1741798130e+00 
61500 6.3554246451e+00 -3.9674288441e-06 1.8326135695e+00 -3.1741798130e+00 1.8326135695e+00 3.1741798130e+00 
61600 6.3554246460e+00 -4.2551576153e-06 1.8326135695e+00 -3.1741798130e+00 1.8326135695e+00 3.1741798130e+00 
61700 6.3554246469e+00 -4.5165448178e-06 1.8326135695e+00 -3.1741798130e+00 1.8326135695e+00 3.1741798130e+00 
61800 6.3554246478e+00 -4.7520221993e-06 1.8326135695e+00 -3.1741798130e+00 1.8326135695e+00 3.1741798130e+00 
61900 6.3554246487e+00 -4.9620433431e-06 1.8326135695e+00 -3.1741798130e+00 1.8326135695e+00 3.1741798130e+00 
62000 6.3554246496e+00 -5.1470824118e-06 1.8326135695e+00 -3.1741798130e+00 1.8326135695e+00 3.1741798130e+00 
62100 6.3554246504e+00 -5.3076329112e-06 1.8326135695e+00 -3.1741798130e+00 1.8326135695e+00 3.1741798130e+00 
62200 6.3554246513e+00 -5.4442064422e-06 1.8326135695e+00 -3.1741798130e+00 1.8326135695e+00 3.1741798130e+00 
62300 6.3554246522e+00 -5.5573314937e-06 1.8326135695e+00 -3.1741798130e+00 1.8326135695e+00 3.1741798130e+00 
62400 6.3554246530e+00 -5.6475522250e-06 1.8326135695e+00 -3.1741798130e+00 1.8326135695e+00 3.1741798130e+00 
62500 6.3554246539e+00 -5.7154272811e-06 1.8326135695e+00 -3.1741798130e+00 1.8326135695e+00 3.1741798130e+00 
62600 6.3554246547e+00 -5.7615286075e-06 1.8326135695e+00 -3.1741798130e+00 1.8326135695e+00 3.1741798130e+00 
62700 6.3554246556e+00 -5.7864402975e-06 1.8326135695e+00 -3.1741798130e+00 1.8326135695e+00 3.1741798130e+00 
62800 6.3554246564e+00 -5.7907574448e-06 1.8326135695e+00 -3.1741798130e+00 1.8326135695e+00 3.1741798130e+00 
62900 6.3554246572e+00 -5.7750850194e-06 1.8326135695e+00 -3.1741798130e+00 1.8326135695e+00 3.1741798130e+00 
63000 6.3554246580e+00 -5.7400367710e-06 1.8326135695e+00 -3.1741798130e+00 1.8326135695e+00 3.1741798130e+00 
63100 6.3554246588e+00 -5.6862341352e-06 1.8326135695e+00 -3.1741798130e+00 1.8326135695e+00 3.1741798130e+00 
63200 6.3554246596e+00 -5.6143051838e-06 1.8326135695e+00 -3.1741798130e+00 1.8326135695e+00 3.1741798130e+00 
63300 6.3554246604e+00 -5.5248835783e-06 1.8326135695e+00 -3.1741798130e+00 1.8326135695e+00 3.1741798130e+00 
63400 6.3554246612e+00 -5.4186075566e-06 1.8326135695e+00 -3.1741798130e+00 1.8326135695e+00 3.1741798130e+00 
63500 6.3554246620e+00 -5.2961189417e-06 1.8326135695e+00 -3.1741798130e+00 1.8326135695e+00 3.1741798130e+00 
63600 6.3554246628e+00 -5.1580621732e-06 1.8326135695e+00 -3.1741798130e+00 1.8326135695e+00 3.1741798130e+00 
63700 6.3554246635e+00 -5.0050833663e-06 1.8326135695e+00 -3.1741798130e+00 1.8326135695e+00 3.1741798130e+00 
63800 6.3554246643e+00 -4.8378293928e-06 1.8326135695e+00 -3.1741798130e+00 1.8326135695e+00 3.1741798130e+00 
63900 6.3554246650e+00 -4.6569469866e-06 1.8326135695e+00 -3.1741798130e+00 1.8326135695e+00 3.1741798130e+00 
64000 6.3554246658e+00 -4.4630818902e-06 1.8326135695e+00 -3.1741798130e+00 1.8326135695e+00 3.1741798130e+00 
64100 6.3554246665e+00 -4.2568780030e-06 1.8326135695e+00 -3.1741798130e+00 1.8326135695e+00 3.1741798130e+00 
64200 6.3554246672e+00 -4.0389765800e-06 1.8326135695e+00 -3.1741798130e+00 1.8326135695e+00 3.1741798130e+00 
64300 6.3554246679e+00 -3.8100154436e-06 1.8326135695e+00 -3.1741798130e+00 1.8326135695e+00 3.1741798130e+00 
64400 6.3554246687e+00 -3.5706282316e-06 1.8326135695e+00 -3.1741798130e+00 1.8326135695e+00 3.1741798130e+00 
64500 6.3554246694e+00 -3.3214436644e-06 1.8326135695e+00 -3.1741798130e+00 1.8326135695e+00 3.1741798130e+00 
64600 6.3554246700e+00 -3.0630848504e-06 1.8326135695e+00 -3.1741798130e+00 1.8326135695e+00 3.1741798130e+00 
64700 6.3554246707e+00 -2.7961686055e-06 1.8326135695e+00 -3.1741798130e+00 1.8326135695e+00 3.1741798130e+00 
64800 6.3554246714e+00 -2.5213048239e-06 1.8326135695e+00 -3.1741798130e+00 1.8326135695e+00 3.1741798130e+00 
64900 6.3554246721e+00 -2.2390958470e-06 1.8326135695e+00 -3.1741798130e+00 1.8326135695e+00 3.1741798130e+00 
65000 6.3554246727e+00 -1.9501358886e-06 1.8326135695e+00 -3.1741798130e+00 1.8326135695e+00 3.1741798130e+00 
65100 6.3554246734e+00 -1.6550104661e-06 1.8326135695e+00 -3.1741798130e+00 1.8326135695e+00 3.1741798130e+00 
65200 6.3554246740e+00 -1.3542958783e-06 1.8326135695e+00 -3.1741798130e+00 1.8326135695e+00 3.1741798130e+00 
65300 6.3554246746e+00 -1.0485586934e-06 1.8326135695e+00 -3.1741798130e+00 1.8326135695e+00 3.1741798130e+00 
65400 6.3554246753e+00 -7.3835528488e-07 1.8326135695e+00 -3.1741798130e+00 1.8326135695e+00 3.1741798130e+00 
65500 6.3554246759e+00 -4.2423137396e-07 1.8326135695e+00 -3.1741798130e+00 1.8326135695e+00 3.1741798130e+00 
65600 6.3554246765e+00 -1.0672161488e-07 1.8326135695e+00 -3.1741798130e+00 1.8326135695e+00 3.1741798130e+00 
65700 6.3554246771e+00 2.1365079306e-07 1.8326135695e+00 -3.1741798130e+00 1.8326135695e+00 3.1741798130e+00 
65800 6.3554246777e+00 5.3637448528e-07 1.8326135695e+00 -3.1741798130e+00 1.8326135695e+00 3.1741798130e+00 
65900 6.3554246782e+00 8.6095025897e-07 1.8326135695e+00 -3.1741798130e+00 1.8326135695e+00 3.1741798130e+00 
66000 6.3554246788e+00 1.1868913855e-06 1.8326135695e+00 -3.1741798130e+00 1.8326135695e+00 3.1741798130e+00 
66100 6.3554246794e+00 1.5137239033e-06 1.8326135695e+00 -3.1741798130e+00 1.8326135695e+00 3.1741798130e+00 
66200 6.3554246799e+00 1.8409868747e-06 1.8326135695e+00 -3.1741798130e+00 1.8326135695e+00 3.1741798130e+00 
66300 6.3554246805e+00 2.1682326275e-06 1.8326135695e+00 -3.1741798130e+00 1.8326135695e+00 3.1741798130e+00 
66400 6.3554246810e+00 2.4950269534e-06 1.8326135695e+00 -3.1741798130e+00 1.8326135695e+00 3.1741798130e+00 
66500 6.3554246815e+00 2.8209493112e-06 1.8326135695e+00 -3.1741798130e+00 1.8326135695e+00 3.1741798130e+00 
66600 6.3554246820e+00 3.1455929788e-06 1.8326135695e+00 -3.1741798130e+00 1.8326135695e+00 3.1741798130e+00 
66700 6.3554246825e+00 3.4685651910e-06 1.8326135695e+00 -3.1741798130e+00 1.8326135695e+00 3.1741798130e+00 
66800 6.3554246830e+00 3.7894872666e-06 1.8326135695e+00 -3.1741798130e+00 1.8326135695e+00 3.1741798130e+00 
66900 6.3554246835e+00 4.1079946897e-06 1.8326135695e+00 -3.1741798130e+00 1.8326135695e+00 3.1741798130e+00 
67000 6.3554246840e+00 4.4237371940e-06 1.8326135695e+00 -3.1741798130e+00 1.8326135695e+00 3.1741798130e+00 
67100 6.3554246845e+00 4.7363788035e-06 1.8326135695e+00 -3.1741798130e+00 1.8326135695e+00 3.1741798130e+00 
67200 6.3554246849e+00 5.0455978696e-06 1.8326135695e+00 -3.1741798130e+00 1.8326135695e+00 3.1741798130e+00 
67300 6.3554246854e+00 5.3510870782e-06 1.8326135695e+00 -3.1741798130e+00 1.8326135695e+00 3.1741798130e+00 
67400 6.3554246858e+00 5.6525534384e-06 1.8326135695e+00 -3.1741798130e+00 1.8326135695e+00 3.1741798130e+00 
67500 6.3554246863e+00 5.9497182556e-06 1.8326135695e+00 -3.1741798130e+00 1.8326135695e+00 3.1741798130e+00 
67600 6.3554246867e+00 6.2423170872e-06 1.8326135695e+00 -3.1741798130e+00 1.8326135695e+00 3.1741798130e+00 
67700 6.3554246871e+00 6.5300996715e-06 1.8326135695e+00 -3.1741798130e+00 1.8326135695e+00 3.1741798130e+00 
67800 6.3554246875e+00 6.8128298474e-06 1.8326135695e+00 -3.1741798130e+00 1.8326135695e+00 3.1741798130e+00 
67900 6.3554246880e+00 7.0902854591e-06 1.8326135695e+00 -3.1741798130e+00 1.8326135695e+00 3.1741798130e+00 
68000 6.3554246884e+00 7.3622582411e-06 1.8326135695e+00 -3.1741798130e+00 1.8326135695e+00 3.1741798130e+00 
68100 6.3554246888e+00 7.6285536787e-06 1.8326135695e+00 -3.1741798130e+00 1.8326135695e+00 3.1741798130e+00 
68200 6.3554246892e+00 7.8889908752e-06 1.8326135695e+00 -3.1741798130e+00 1.8326135695e+00 3.1741798130e+00 
68300 6.3554246895e+00 8.1434023878e-06 1.8326135695e+00 -3.1741798130e+00 1.8326135695e+00 3.1741798130e+00 
68400 6.3554246899e+00 8.3916340490e-06 1.8326135695e+00 -3.1741798130e+00 1.8326135695e+00 3.1741798130e+00 
68500 6.3554246903e+00 8.6335447918e-06 1.8326135695e+00 -3.1741798130e+00 1.8326135695e+00 3.1741798130e+00 
68600 6.3554246907e+00 8.8690064464e-06 1.8326135695e+00 -3.1741798130e+00 1.8326135695e+00 3.1741798130e+00 
68700 6.3554246910e+00 9.0979035294e-06 1.8326135695e+00 -3.1741798130e+00 1.8326135695e+00 3.1741798130e+00 
68800 6.3554246914e+00 9.3201330271e-06 1.8326135695e+00 -3.1741798130e+00 1.8326135695e+00 3.1741798130e+00 
68900 6.3554246917e+00 9.5356041597e-06 1.8326135695e+00 -3.1741798130e+00 1.8326135695e+00 3.1741798130e+00 
69000 6.3554246921e+00 9.7442381493e-06 1.8326135695e+00 -3.1741798130e+00 1.8326135695e+00 3.1741798130e+00 
69100 6.3554246924e+00 9.9459679625e-06 1.8326135695e+00 -3.1741798130e+00 1.8326135695e+00 3.1741798130e+00 
69200 6.3554246927e+00 1.0140738055e-05 1.8326135695e+00 -3.1741798130e+00 1.8326135695e+00 3.1741798130e+00 
69300 6.3554246931e+00 1.0328504106e-05 1.8326135695e+00 -3.1741798130e+00 1.8326135695e+00 3.1741798130e+00 
69400 6.3554246934e+00 1.0509232745e-05 1.8326135695e+00 -3.1741798130e+00 1.8326135695e+00 3.1741798130e+00 
69500 6.3554246937e+00 1.0682901271e-05 1.8326135695e+00 -3.1741798130e+00 1.8326135695e+00 3.1741798130e+00 
69600 6.3554246940e+00 1.0849497363e-05 1.8326135695e+00 -3.1741798130e+00 1.8326135695e+00 3.1741798130e+00 
69700 6.3554246943e+00 1.1009018793e-05 1.8326135695e+00 -3.1741798130e+00 1.8326135695e+00 3.1741798130e+00 
69800 6.3554246946e+00 1.1161473129e-05 1.8326135695e+00 -3.1741798130e+00 1.8326135695e+00 3.1741798130e+00 
69900 6.3554246949e+00 1.1306877427e-05 1.8326135695e+00 -3.1741798130e+00 1.8326135695e+00 3.1741798130e+00 
70000 6.3554246952e+00 1.1445257934e-05 1.8326135695e+00 -3.1741798130e+00 1.8326135695e+00 3.1741798130e+00 
70100 6.3554246955e+00 1.1576649774e-05 1.8326135695e+00 -3.1741798130e+00 1.8326135695e+00 3.1741798130e+00 
70200 6.3554246958e+00 1.1701096632e-05 1.8326135695e+00 -3.1741798130e+00 1.8326135695e+00 3.1741798130e+00 
70300 6.3554246961e+00 1.1818650450e-05 1.8326135695e+00 -3.1741798130e+00 1.8326135695e+00 3.1741798130e+00 
70400 6.3554246964e+00 1.1929371103e-05 1.8326135695e+00 -3.1741798130e+00 1.8326135695e+00 3.1741798130e+00 
70500 6.3554246967e+00 1.2033326084e-05 1.8326135695e+00 -3.1741798130e+00 1.8326135695e+00 3.1741798130e+00 
70600 6.3554246969e+00 1.2130590183e-05 1.8326135695e+00 -3.1741798130e+00 1.8326135695e+00 3.1741798130e+00 
70700 6.3554246972e+00 1.2221245172e-05 1.8326135695e+00 -3.1741798130e+00 1.8326135695e+00 3.1741798130e+00 
70800 6.3554246975e+00 1.2305379480e-05 1.8326135695e+00 -3.1741798130e+00 1.8326135695e+00 3.1741798130e+00 
70900 6.3554246977e+00 1.2383087880e-05 1.8326135695e+00 -3.1741798130e+00 1.8326135695e+00 3.1741798130e+00 
71000 6.3554246980e+00 1.2454471167e-05 1.8326135695e+00 -3.1741798130e+00 1.8326135695e+00 3.1741798130e+00 
71100 6.3554246983e+00 1.2519635845e-05 1.8326135695e+00 -3.1741798130e+00 1.8326135695e+00 3.1741798130e+00 
71200 6.3554246985e+00 1.2578693803e-05 1.8326135695e+00 -3.1741798130e+00 1.8326135695e+00 3.1741798130e+00 
71300 6.3554246988e+00 1.2631762014e-05 1.8326135695e+00 -3.1741798130e+00 1.8326135695e+00 3.1741798130e+00 
71400 6.3554246990e+00 1.2678962213e-05 1.8326135695e+00 -3.1741798130e+00 1.8326135695e+00 3.1741798130e+00 
71500 6.3554246993e+00 1.2720420595e-05 1.8326135695e+00 -3.1741798130e+00 1.8326135695e+00 3.1741798130e+00 
71600 6.3554246995e+00 1.2756267509e-05 1.8326135695e+00 -3.1741798130e+00 1.8326135695e+00 3.1741798130e+00 
71700 6.3554246997e+00 1.2786637154e-05 1.8326135695e+00 -3.1741798130e+00 1.8326135695e+00 3.1741798130e+00 
71800 6.3554247000e+00 1.2811667281e-05 1.8326135695e+00 -3.1741798130e+00 1.8326135695e+00 3.1741798130e+00 
71900 6.3554247002e+00 1.2831498900e-05 1.8326135695e+00 -3.1741798130e+00 1.8326135695e+00 3.1741798130e+00 
72000 6.3554247004e+00 1.2846275992e-05 1.8326135695e+00 -3.1741798130e+00 1.8326135695e+00 3.1741798130e+00 
72100 6.3554247007e+00 1.2856145217e-05 1.8326135695e+00 -3.1741798130e+00 1.8326135695e+00 3.1741798130e+00 
72200 6.3554247009e+00 1.2861255639e-05 1.8326135695e+00 -3.1741798130e+00 1.8326135695e+00 3.1741798130e+00 
72300 6.3554247011e+00 1.2861758448e-05 1.8326135695e+00 -3.1741798130e+00 1.8326135695e+00 3.1741798130e+00 
72400 6.3554247013e+00 1.2857806691e-05 1.8326135695e+00 -3.1741798130e+00 1.8326135695e+00 3.1741798130e+00 
72500 6.3554247015e+00 1.2849554999e-05 1.8326135695e+00 -3.1741798130e+00 1.8326135695e+00 3.1741798130e+00 
72600 6.3554247017e+00 1.2837159346e-05 1.8326135695e+00 -3.1741798130e+00 1.8326135695e+00 3.1741798130e+00 
72700 6.3554247020e+00 1.2820776773e-05 1.8326135695e+00 -3.1741798130e+00 1.8326135695e+00 3.1741798130e+00 
72800 6.3554247022e+00 1.2800565154e-05 1.8326135695e+00 -3.1741798130e+00 1.8326135695e+00 3.1741798130e+00 
72900 6.3554247024e+00 1.2776682955e-05 1.8326135695e+00 -3.1741798130e+00 1.8326135695e+00 3.1741798130e+00 
73000 6.3554247026e+00 1.2749288991e-05 1.8326135695e+00 -3.1741798130e+00 1.8326135695e+00 3.1741798130e+00 
73100 6.3554247028e+00 1.2718542202e-05 1.8326135695e+00 -3.1741798130e+00 1.8326135695e+00 3.1741798130e+00 
73200 6.3554247030e+00 1.2684601434e-05 1.8326135695e+00 -3.1741798130e+00 1.8326135695e+00 3.1741798130e+00 
73300 6.3554247032e+00 1.2647625216e-05 1.8326135695e+00 -3.1741798130e+00 1.8326135695e+00 3.1741798130e+00 
73400 6.3554247034e+00 1.2607771557e-05 1.8326135695e+00 -3.1741798130e+00 1.8326135695e+00 3.1741798130e+00 
73500 6.3554247036e+00 1.2565197741e-05 1.8326135695e+00 -3.1741798130e+00 1.8326135695e+00 3.1741798130e+00 
73600 6.3554247037e+00 1.2520060137e-05 1.8326135695e+00 -3.1741798130e+00 1.8326135695e+00 3.1741798130e+00 
73700 6.3554247039e+00 1.2472514005e-05 1.8326135695e+00 -3.1741798130e+00 1.8326135695e+00 3.1741798130e+00 
73800 6.3554247041e+00 1.2422713317e-05 1.8326135695e+00 -3.1741798130e+00 1.8326135695e+00 3.1741798130e+00 
73900 6.3554247043e+00 1.2370810586e-05 1.8326135695e+00 -3.1741798130e+00 1.8326135695e+00 3.1741798130e+00 
74000 6.3554247045e+00 1.2316956696e-05 1.8326135695e+00 -3.1741798130e+00 1.8326135695e+00 3.1741798130e+00 
74100 6.3554247046e+00 1.2261300746e-05 1.8326135695e+00 -3.1741798130e+00 1.8326135695e+00 3.1741798130e+00 
74200 6.3554247048e+00 1.2203989892e-05 1.8326135695e+00 -3.1741798130e+00 1.8326135695e+00 3.1741798130e+00 
74300 6.3554247050e+00 1.2145169209e-05 1.8326135695e+00 -3.1741798130e+00 1.8326135695e+00 3.1741798130e+00 
74400 6.3554247052e+00 1.2084981545e-05 1.8326135695e+00 -3.1741798130e+00 1.8326135695e+00 3.1741798130e+00 
74500 6.3554247053e+00 1.2023567396e-05 1.8326135695e+00 -3.1741798130e+00 1.8326135695e+00 3.1741798130e+00 
74600 6.3554247055e+00 1.1961064779e-05 1.8326135695e+00 -3.1741798130e+00 1.8326135695e+00 3.1741798130e+00 
74700 6.3554247056e+00 1.1897609119e-05 1.8326135695e+00 -3.1741798130e+00 1.8326135695e+00 3.1741798130e+00 
74800 6.3554247058e+00 1.1833333130e-05 1.8326135695e+00 -3.1741798130e+00 1.8326135695e+00 3.1741798130e+00 
74900 6.3554247060e+00 1.1768366723e-05 1.8326135695e+00 -3.1741798130e+00 1.8326135695e+00 3.1741798130e+00 
75000 6.3554247061e+00 1.1702836903e-05 1.8326135695e+00 -3.1741798130e+00 1.8326135695e+00 3.1741798130e+00 
75100 6.3554247063e+00 1.1636867679e-05 1.8326135695e+00 -3.1741798130e+00 1.8326135695e+00 3.1741798130e+00 
75200 6.3554247064e+00 1.1570579988e-05 1.8326135695e+00 -3.1741798130e+00 1.8326135695e+00 3.1741798130e+00 
75300 6.3554247066e+00 1.1504091611e-05 1.8326135695e+00 -3.1741798130e+00 1.8326135695e+00 3.1741798130e+00 
75400 6.3554247067e+00 1.1437517109e-05 1.8326135695e+00 -3.1741798130e+00 1.8326135695e+00 3.1741798130e+00 
75500 6.3554247069e+00 1.1370967756e-05 1.8326135695e+00 -3.1741798130e+00 1.8326135695e+00 3.1741798130e+00 
75600 6.3554247070e+00 1.1304551487e-05 1.8326135695e+00 -3.1741798130e+00 1.8326135695e+00 3.1741798130e+00 
75700 6.3554247071e+00 1.1238372843e-05 1.8326135695e+00 -3.1741798130e+00 1.8326135695e+00 3.1741798130e+00 
75800 6.3554247073e+00 1.1172532928e-05 1.8326135695e+00 -3.1741798130e+00 1.8326135695e+00 3.1741798130e+00 
75900 6.3554247074e+00 1.1107129373e-05 1.8326135695e+00 -3.1741798130e+00 1.8326135695e+00 3.1741798130e+00 
76000 6.3554247075e+00 1.1042256299e-05 1.8326135695e+00 -3.1741798130e+00 1.8326135695e+00 3.1741798130e+00 
76100 6.3554247077e+00 1.0978004295e-05 1.8326135695e+00 -3.1741798130e+00 1.8326135695e+00 3.1741798130e+00 
76200 6.3554247078e+00 1.0914460395e-05 1.8326135695e+00 -3.1741798130e+00 1.8326135695e+00 3.1741798130e+00 
76300 6.3554247079e+00 1.0851708061e-05 1.8326135695e+00 -3.1741798130e+00 1.8326135695e+00 3.1741798130e+00 
76400 6.3554247081e+00 1.0789827174e-05 1.8326135695e+00 -3.1741798130e+00 1.8326135695e+00 3.1741798130e+00 
76500 6.3554247082e+00 1.0728894029e-05 1.8326135695e+00 -3.1741798130e+00 1.8326135695e+00 3.1741798130e+00 
76600 6.3554247083e+00 1.0668981333e-05 1.8326135695e+00 -3.1741798130e+00 1.8326135695e+00 3.1741798130e+00 
76700 6.3554247084e+00 1.0610158215e-05 1.8326135695e+00 -3.1741798130e+00 1.8326135695e+00 3.1741798130e+00 
76800 6.3554247086e+00 1.0552490228e-05 1.8326135695e+00 -3.1741798130e+00 1.8326135695e+00 3.1741798130e+00 
76900 6.3554247087e+00 1.0496039373e-05 1.8326135695e+00 -3.1741798130e+00 1.8326135695e+00 3.1741798130e+00 
77000 6.3554247088e+00 1.0440864105e-05 1.8326135695e+00 -3.1741798130e+00 1.8326135695e+00 3.1741798130e+00 
77100 6.3554247089e+00 1.0387019371e-05 1.8326135695e+00 -3.1741798130e+00 1.8326135695e+00 3.1741798130e+00 
77200 6.3554247090e+00 1.0334556621e-05 1.8326135695e+00 -3.1741798130e+00 1.8326135695e+00 3.1741798130e+00 
77300 6.3554247091e+00 1.0283523854e-05 1.8326135695e+00 -3.1741798130e+00 1.8326135695e+00 3.1741798130e+00 
77400 6.3554247092e+00 1.0233965641e-05 1.8326135695e+00 -3.1741798130e+00 1.8326135695e+00 3.1741798130e+00 
77500 6.3554247093e+00 1.0185923175e-05 1.8326135695e+00 -3.1741798130e+00 1.8326135695e+00 3.1741798130e+00 
77600 6.3554247095e+00 1.0139434299e-05 1.8326135695e+00 -3.1741798130e+00 1.8326135695e+00 3.1741798130e+00 
77700 6.3554247096e+00 1.0094533565e-05 1.8326135695e+00 -3.1741798130e+00 1.8326135695e+00 3.1741798130e+00 
77800 6.3554247097e+00 1.0051252277e-05 1.8326135695e+00 -3.1741798130e+00 1.8326135695e+00 3.1741798130e+00 
77900 6.3554247098e+00 1.0009618535e-05 1.8326135695e+00 -3.1741798130e+00 1.8326135695e+00 3.1741798130e+00 
78000 6.3554247099e+00 9.9696573106e-06 1.8326135695e+00 -3.1741798130e+00 1.8326135695e+00 3.1741798130e+00 
78100 6.3554247100e+00 9.9313904744e-06 1.8326135695e+00 -3.1741798130e+00 1.8326135695e+00 3.1741798130e+00 
78200 6.3554247101e+00 9.8948368863e-06 1.8326135695e+00 -3.1741798130e+00 1.8326135695e+00 3.1741798130e+00 
78300 6.3554247102e+00 9.8600124329e-06 1.8326135695e+00 -3.1741798130e+00 1.8326135695e+00 3.1741798130e+00 
78400 6.3554247103e+00 9.8269301073e-06 1.8326135695e+00 -3.1741798130e+00 1.8326135695e+00 3.1741798130e+00 
78500 6.3554247104e+00 9.7956000712e-06 1.8326135695e+00 -3.1741798130e+00 1.8326135695e+00 3.1741798130e+00 
78600 6.3554247104e+00 9.7660297175e-06 1.8326135695e+00 -3.1741798130e+00 1.8326135695e+00 3.1741798130e+00 
78700 6.3554247105e+00 9.7382237506e-06 1.8326135695e+00 -3.1741798130e+00 1.8326135695e+00 3.1741798130e+00 
78800 6.3554247106e+00 9.7121842505e-06 1.8326135695e+00 -3.1741798130e+00 1.8326135695e+00 3.1741798130e+00 
78900 6.3554247107e+00 9.6879107497e-06 1.8326135695e+00 -3.1741798130e+00 1.8326135695e+00 3.1741798130e+00 
79000 6.3554247108e+00 9.6654003068e-06 1.8326135695e+00 -3.1741798130e+00 1.8326135695e+00 3.1741798130e+00 
79100 6.3554247109e+00 9.6446475809e-06 1.8326135695e+00 -3.1741798130e+00 1.8326135695e+00 3.1741798130e+00 
79200 6.3554247110e+00 9.6256449120e-06 1.8326135695e+00 -3.1741798130e+00 1.8326135695e+00 3.1741798130e+00 
79300 6.3554247111e+00 9.6083823992e-06 1.8326135695e+00 -3.1741798130e+00 1.8326135695e+00 3.1741798130e+00 
79400 6.3554247111e+00 9.5928479722e-06 1.8326135695e+00 -3.1741798130e+00 1.8326135695e+00 3.1741798130e+00 
79500 6.3554247112e+00 9.5790274766e-06 1.8326135695e+00 -3.1741798130e+00 1.8326135695e+00 3.1741798130e+00 
79600 6.3554247113e+00 9.5669047555e-06 1.8326135695e+00 -3.1741798130e+00 1.8326135695e+00 3.1741798130e+00 
79700 6.3554247114e+00 9.5564617247e-06 1.8326135695e+00 -3.1741798130e+00 1.8326135695e+00 3.1741798130e+00 
79800 6.3554247115e+00 9.5476784564e-06 1.8326135695e+00 -3.1741798130e+00 1.8326135695e+00 3.1741798130e+00 
79900 6.3554247115e+00 9.5405332603e-06 1.8326135695e+00 -3.1741798130e+00 1.8326135695e+00 3.1741798130e+00 
80000 6.3554247116e+00 9.5350027595e-06 1.8326135695e+00 -3.1741798130e+00 1.8326135695e+00 3.1741798130e+00 
80100 6.3554247117e+00 9.5310619792e-06 1.8326135695e+00 -3.1741798130e+00 1.8326135695e+00 3.1741798130e+00 
80200 6.3554247118e+00 9.5286844205e-06 1.8326135695e+00 -3.1741798130e+00 1.8326135695e+00 3.1741798130e+00 
80300 6.3554247119e+00 9.5278421452e-06 1.8326135695e+00 -3.1741798130e+00 1.8326135695e+00 3.1741798130e+00 
80400 6.3554247119e+00 9.5285058545e-06 1.8326135695e+00 -3.1741798130e+00 1.8326135695e+00 3.1741798130e+00 
80500 6.3554247120e+00 9.5306449616e-06 1.8326135695e+00 -3.1741798130e+00 1.8326135695e+00 3.1741798130e+00 
80600 6.3554247121e+00 9.5342276860e-06 1.8326135695e+00 -3.1741798130e+00 1.8326135695e+00 3.1741798130e+00 
80700 6.3554247121e+00 9.5392211198e-06 1.8326135695e+00 -3.1741798130e+00 1.8326135695e+00 3.1741798130e+00 
80800 6.3554247122e+00 9.5455913036e-06 1.8326135695e+00 -3.1741798130e+00 1.8326135695e+00 3.1741798130e+00 
80900 6.3554247123e+00 9.5533033134e-06 1.8326135695e+00 -3.1741798130e+00 1.8326135695e+00 3.1741798130e+00 
81000 6.3554247123e+00 9.5623213291e-06 1.8326135695e+00 -3.1741798130e+00 1.8326135695e+00 3.1741798130e+00 
81100 6.3554247124e+00 9.5726087115e-06 1.8326135695e+00 -3.1741798130e+00 1.8326135695e+00 3.1741798130e+00 
81200 6.3554247125e+00 9.5841280751e-06 1.8326135695e+00 -3.1741798130e+00 1.8326135695e+00 3.1741798130e+00 
81300 6.3554247125e+00 9.5968413606e-06 1.8326135695e+00 -3.1741798130e+00 1.8326135695e+00 3.1741798130e+00 
81400 6.3554247126e+00 9.6107099100e-06 1.8326135695e+00 -3.1741798130e+00 1.8326135695e+00 3.1741798130e+00 
81500 6.3554247127e+00 9.6256945343e-06 1.8326135695e+00 -3.1741798130e+00 1.8326135695e+00 3.1741798130e+00 
81600 6.3554247127e+00 9.6417555777e-06 1.8326135695e+00 -3.1741798130e+00 1.8326135695e+00 3.1741798130e+00 
81700 6.3554247128e+00 9.6588529943e-06 1.8326135695e+00 -3.1741798130e+00 1.8326135695e+00 3.1741798130e+00 
81800 6.3554247129e+00 9.6769464073e-06 1.8326135695e+00 -3.1741798130e+00 1.8326135695e+00 3.1741798130e+00 
81900 6.3554247129e+00 9.6959951738e-06 1.8326135695e+00 -3.1741798130e+00 1.8326135695e+00 3.1741798130e+00 
82000 6.3554247130e+00 9.7159584578e-06 1.8326135695e+00 -3.1741798130e+00 1.8326135695e+00 3.1741798130e+00 
82100 6.3554247130e+00 9.7367952752e-06 1.8326135695e+00 -3.1741798130e+00 1.8326135695e+00 3.1741798130e+00 
82200 6.3554247131e+00 9.7584645700e-06 1.8326135695e+00 -3.1741798130e+00 1.8326135695e+00 3.1741798130e+00 
82300 6.3554247131e+00 9.7809252602e-06 1.8326135695e+00 -3.1741798130e+00 1.8326135695e+00 3.1741798130e+00 
82400 6.3554247132e+00 9.8041363011e-06 1.8326135695e+00 -3.1741798130e+00 1.8326135695e+00 3.1741798130e+00 
82500 6.3554247133e+00 9.8280567390e-06 1.8326135695e+00 -3.1741798130e+00 1.8326135695e+00 3.1741798130e+00 
82600 6.3554247133e+00 9.8526457665e-06 1.8326135695e+00 -3.1741798130e+00 1.8326135695e+00 3.1741798130e+00 
82700 6.3554247134e+00 9.8778627692e-06 1.8326135695e+00 -3.1741798130e+00 1.8326135695e+00 3.1741798130e+00 
82800 6.3554247134e+00 9.9036673807e-06 1.8326135695e+00 -3.1741798130e+00 1.8326135695e+00 3.1741798130e+00 
82900 6.3554247135e+00 9.9300195261e-06 1.8326135695e+00 -3.1741798130e+00 1.8326135695e+00 3.1741798130e+00 
83000 6.3554247135e+00 9.9568794707e-06 1.8326135695e+00 -3.1741798130e+00 1.8326135695e+00 3.1741798130e+00 
83100 6.3554247136e+00 9.9842078634e-06 1.8326135695e+00 -3.1741798130e+00 1.8326135695e+00 3.1741798130e+00 
83200 6.3554247136e+00 1.0011965782e-05 1.8326135695e+00 -3.1741798130e+00 1.8326135695e+00 3.1741798130e+00 
83300 6.3554247137e+00 1.0040114773e-05 1.8326135695e+00 -3.1741798130e+00 1.8326135695e+00 3.1741798130e+00 
83400 6.3554247137e+00 1.0068616884e-05 1.8326135695e+00 -3.1741798130e+00 1.8326135695e+00 3.1741798130e+00 
83500 6.3554247138e+00 1.0091647665e-05 1.8326135695e+00 -3.1741798130e+00 1.8326135695e+00 3.1741798130e+00 
83500 6.3554247138e+00 1.0091647665e-05 1.8326135695e+00 -3.1741798130e+00 1.8326135695e+00 3.1741798130e+00 
