# step Hamiltonian StressXX CellTensor1 CellTensor2 CellTensor3 CellTensor4 
0 5.0952064386e+00 -9.4227376210e-02 1.6122881582e+00 -2.7925650064e+00 1.6122881582e+00 2.7925650064e+00 
100 5.0884927298e+00 -9.3490537657e-02 1.6122881582e+00 -2.7925650064e+00 1.6122881582e+00 2.7925650064e+00 
200 5.0816923157e+00 -8.9912377397e-02 1.6151883379e+00 -2.7975882650e+00 1.6151883379e+00 2.7975882650e+00 
300 5.0751556803e+00 -8.6476093929e-02 1.6179724762e+00 -2.8024105341e+00 1.6179724762e+00 2.8024105341e+00 
400 5.0688748553e+00 -8.3168652599e-02 1.6206455705e+00 -2.8070404692e+00 1.6206455705e+00 2.8070404692e+00 
500 5.0628424906e+00 -7.9978557013e-02 1.6232121577e+00 -2.8114859287e+00 1.6232121577e+00 2.8114859287e+00 
600 5.0570517176e+00 -7.6895700407e-02 1.6256763691e+00 -2.8157540680e+00 1.6256763691e+00 2.8157540680e+00 
700 5.0514960354e+00 -7.3911229390e-02 1.6280419789e+00 -2.8198514243e+00 1.6280419789e+00 2.8198514243e+00 
800 5.0461692164e+00 -7.1017418862e-02 1.6303124480e+00 -2.8237839922e+00 1.6303124480e+00 2.8237839922e+00 
900 5.0410652302e+00 -6.8207557067e-02 1.6324909633e+00 -2.8275572913e+00 1.6324909633e+00 2.8275572913e+00 
1000 5.0361781820e+00 -6.5475839934e-02 1.6345804721e+00 -2.8311764267e+00 1.6345804721e+00 2.8311764267e+00 
1100 5.0315022644e+00 -6.2817273921e-02 1.6365837138e+00 -2.8346461431e+00 1.6365837138e+00 2.8346461431e+00 
1200 5.0270317205e+00 -6.0227586740e-02 1.6385032470e+00 -2.8379708722e+00 1.6385032470e+00 2.8379708722e+00 
1300 5.0227608168e+00 -5.7703145356e-02 1.6403414745e+00 -2.8411547756e+00 1.6403414745e+00 2.8411547756e+00 
1400 5.0186838241e+00 -5.5240880759e-02 1.6421006645e+00 -2.8442017820e+00 1.6421006645e+00 2.8442017820e+00 
1500 5.0147950058e+00 -5.2838219055e-02 1.6437829700e+00 -2.8471156207e+00 1.6437829700e+00 2.8471156207e+00 
1600 5.0110886114e+00 -5.0493018436e-02 1.6453904457e+00 -2.8498998502e+00 1.6453904457e+00 2.8498998502e+00 
1700 5.0075588754e+00 -4.8203511668e-02 1.6469250619e+00 -2.8525578835e+00 1.6469250619e+00 2.8525578835e+00 
1800 5.0042000200e+00 -4.5968253720e-02 1.6483887182e+00 -2.8550930106e+00 1.6483887182e+00 2.8550930106e+00 
1900 5.0010062607e+00 -4.3786074228e-02 1.6497832536e+00 -2.8575084168e+00 1.6497832536e+00 2.8575084168e+00 
2000 4.9979718148e+00 -4.1656034452e-02 1.6511104564e+00 -2.8598071995e+00 1.6511104564e+00 2.8598071995e+00 
2100 4.9950909112e+00 -3.9577388460e-02 1.6523720721e+00 -2.8619923818e+00 1.6523720721e+00 2.8619923818e+00 
2200 4.9923578018e+00 -3.7549548245e-02 1.6535698097e+00 -2.8640669243e+00 1.6535698097e+00 2.8640669243e+00 
2300 4.9897667742e+00 -3.5572052515e-02 1.6547053482e+00 -2.8660337346e+00 1.6547053482e+00 2.8660337346e+00 
2400 4.9873121636e+00 -3.3644538906e-02 1.6557803402e+00 -2.8678956754e+00 1.6557803402e+00 2.8678956754e+00 
2500 4.9849883664e+00 -3.1766719364e-02 1.6567964164e+00 -2.8696555709e+00 1.6567964164e+00 2.8696555709e+00 
2600 4.9827898523e+00 -2.9938358490e-02 1.6577551878e+00 -2.8713162117e+00 1.6577551878e+00 2.8713162117e+00 
2700 4.9807111766e+00 -2.8159254598e-02 1.6586582486e+00 -2.8728803589e+00 1.6586582486e+00 2.8728803589e+00 
2800 4.9787469922e+00 -2.6429223302e-02 1.6595071774e+00 -2.8743507468e+00 1.6595071774e+00 2.8743507468e+00 
2900 4.9768920599e+00 -2.4748083411e-02 1.6603035384e+00 -2.8757300845e+00 1.6603035384e+00 2.8757300845e+00 
3000 4.9751412587e+00 -2.3115644956e-02 1.6610488820e+00 -2.8770210576e+00 1.6610488820e+00 2.8770210576e+00 
3100 4.9734895947e+00 -2.1531699154e-02 1.6617447453e+00 -2.8782263281e+00 1.6617447453e+00 2.8782263281e+00 
3200 4.9719322091e+00 -1.9996010148e-02 1.6623926516e+00 -2.8793485347e+00 1.6623926516e+00 2.8793485347e+00 
3300 4.9704643849e+00 -1.8508308345e-02 1.6629941105e+00 -2.8803902920e+00 1.6629941105e+00 2.8803902920e+00 
3400 4.9690815532e+00 -1.7068285214e-02 1.6635506169e+00 -2.8813541895e+00 1.6635506169e+00 2.8813541895e+00 
3500 4.9677792972e+00 -1.5675589373e-02 1.6640636510e+00 -2.8822427906e+00 1.6640636510e+00 2.8822427906e+00 
3600 4.9665533565e+00 -1.4329823858e-02 1.6645346765e+00 -2.8830586307e+00 1.6645346765e+00 2.8830586307e+00 
3700 4.9653996294e+00 -1.3030544407e-02 1.6649651404e+00 -2.8838042160e+00 1.6649651404e+00 2.8838042160e+00 
3800 4.9643141746e+00 -1.1777258679e-02 1.6653564716e+00 -2.8844820214e+00 1.6653564716e+00 2.8844820214e+00 
3900 4.9632932119e+00 -1.0569426248e-02 1.6657100798e+00 -2.8850944889e+00 1.6657100798e+00 2.8850944889e+00 
4000 4.9623331224e+00 -9.4064593100e-03 1.6660273547e+00 -2.8856440252e+00 1.6660273547e+00 2.8856440252e+00 
4100 4.9614304470e+00 -8.2877239701e-03 1.6663096648e+00 -2.8861330005e+00 1.6663096648e+00 2.8861330005e+00 
4200 4.9605818852e+00 -7.2125420388e-03 1.6665583560e+00 -2.8865637463e+00 1.6665583560e+00 2.8865637463e+00 
4300 4.9597842926e+00 -6.1801932448e-03 1.6667747510e+00 -2.8869385534e+00 1.6667747510e+00 2.8869385534e+00 
4400 4.9590346780e+00 -5.1899177896e-03 1.6669601482e+00 -2.8872596708e+00 1.6669601482e+00 2.8872596708e+00 
4500 4.9583301999e+00 -4.2409191727e-03 1.6671158207e+00 -2.8875293036e+00 1.6671158207e+00 2.8875293036e+00 
4600 4.9576681631e+00 -3.3323672242e-03 1.6672430156e+00 -2.8877496116e+00 1.6672430156e+00 2.8877496116e+00 
4700 4.9570460139e+00 -2.4634012861e-03 1.6673429531e+00 -2.8879227084e+00 1.6673429531e+00 2.8879227084e+00 
4800 4.9564613360e+00 -1.6331334914e-03 1.6674168257e+00 -2.8880506595e+00 1.6674168257e+00 2.8880506595e+00 
4900 4.9559118453e+00 -8.4065209404e-04 1.6674657979e+00 -2.8881354818e+00 1.6674657979e+00 2.8881354818e+00 
5000 4.9553953857e+00 -8.5024809246e-05 1.6674910054e+00 -2.8881791426e+00 1.6674910054e+00 2.8881791426e+00 
5100 4.9549099233e+00 6.3469787166e-04 1.6674935549e+00 -2.8881835584e+00 1.6674935549e+00 2.8881835584e+00 
5200 4.9544535414e+00 1.3194794226e-03 1.6674745235e+00 -2.8881505950e+00 1.6674745235e+00 2.8881505950e+00 
5300 4.9540244357e+00 1.9702941069e-03 1.6674349584e+00 -2.8880820663e+00 1.6674349584e+00 2.8880820663e+00 
5400 4.9536209087e+00 2.5881239070e-03 1.6673758772e+00 -2.8879797346e+00 1.6673758772e+00 2.8879797346e+00 
5500 4.9532413646e+00 3.1739555770e-03 1.6672982671e+00 -2.8878453100e+00 1.6672982671e+00 2.8878453100e+00 
5600 4.9528843044e+00 3.7287778341e-03 1.6672030854e+00 -2.8876804504e+00 1.6672030854e+00 2.8876804504e+00 
5700 4.9525483207e+00 4.2535787000e-03 1.6670912593e+00 -2.8874867620e+00 1.6670912593e+00 2.8874867620e+00 
5800 4.9522320932e+00 4.7493430009e-03 1.6669636861e+00 -2.8872657986e+00 1.6669636861e+00 2.8872657986e+00 
5900 4.9519343832e+00 5.2170500321e-03 1.6668212332e+00 -2.8870190630e+00 1.6668212332e+00 2.8870190630e+00 
6000 4.9516540299e+00 5.6576713912e-03 1.6666647387e+00 -2.8867480065e+00 1.6666647387e+00 2.8867480065e+00 
6100 4.9513899454e+00 6.0721689804e-03 1.6664950112e+00 -2.8864540300e+00 1.6664950112e+00 2.8864540300e+00 
6200 4.9511411107e+00 6.4614931794e-03 1.6663128307e+00 -2.8861384841e+00 1.6663128307e+00 2.8861384841e+00 
6300 4.9509065714e+00 6.8265811841e-03 1.6661189485e+00 -2.8858026702e+00 1.6661189485e+00 2.8858026702e+00 
6400 4.9506854342e+00 7.1683555113e-03 1.6659140879e+00 -2.8854478413e+00 1.6659140879e+00 2.8854478413e+00 
6500 4.9504768626e+00 7.4877226618e-03 1.6656989447e+00 -2.8850752024e+00 1.6656989447e+00 2.8850752024e+00 
6600 4.9502800742e+00 7.7855719378e-03 1.6654741876e+00 -2.8846859116e+00 1.6654741876e+00 2.8846859116e+00 
6700 4.9500943363e+00 8.0627744095e-03 1.6652404587e+00 -2.8842810813e+00 1.6652404587e+00 2.8842810813e+00 
6800 4.9499189638e+00 8.3201820211e-03 1.6649983742e+00 -2.8838617786e+00 1.6649983742e+00 2.8838617786e+00 
6900 4.9497533154e+00 8.5586268327e-03 1.6647485249e+00 -2.8834290269e+00 1.6647485249e+00 2.8834290269e+00 
7000 4.9495967914e+00 8.7789203870e-03 1.6644914768e+00 -2.8829838066e+00 1.6644914768e+00 2.8829838066e+00 
7100 4.9494488304e+00 8.9818531955e-03 1.6642277720e+00 -2.8825270565e+00 1.6642277720e+00 2.8825270565e+00 
7200 4.9493089076e+00 9.1681943357e-03 1.6639579288e+00 -2.8820596744e+00 1.6639579288e+00 2.8820596744e+00 
7300 4.9491765315e+00 9.3386911501e-03 1.6636824428e+00 -2.8815825187e+00 1.6636824428e+00 2.8815825187e+00 
7400 4.9490512426e+00 9.4940690418e-03 1.6634017875e+00 -2.8810964093e+00 1.6634017875e+00 2.8810964093e+00 
7500 4.9489326109e+00 9.6350313565e-03 1.6631164145e+00 -2.8806021288e+00 1.6631164145e+00 2.8806021288e+00 
7600 4.9488202340e+00 9.7622593456e-03 1.6628267550e+00 -2.8801004238e+00 1.6628267550e+00 2.8801004238e+00 
7700 4.9487137352e+00 9.8764122013e-03 1.6625332195e+00 -2.8795920054e+00 1.6625332195e+00 2.8795920054e+00 
7800 4.9486127622e+00 9.9781271586e-03 1.6622361993e+00 -2.8790775514e+00 1.6622361993e+00 2.8790775514e+00 
7900 4.9485169850e+00 1.0068019657e-02 1.6619360667e+00 -2.8785577064e+00 1.6619360667e+00 2.8785577064e+00 
8000 4.9484260949e+00 1.0146683553e-02 1.6616331756e+00 -2.8780330836e+00 1.6616331756e+00 2.8780330836e+00 
8100 4.9483398028e+00 1.0214691387e-02 1.6613278623e+00 -2.8775042655e+00 1.6613278623e+00 2.8775042655e+00 
8200 4.9482578381e+00 1.0272594680e-02 1.6610204463e+00 -2.8769718054e+00 1.6610204463e+00 2.8769718054e+00 
8300 4.9481799475e+00 1.0320924282e-02 1.6607112305e+00 -2.8764362278e+00 1.6607112305e+00 2.8764362278e+00 
8400 4.9481058936e+00 1.0360190739e-02 1.6604005021e+00 -2.8758980305e+00 1.6604005021e+00 2.8758980305e+00 
8500 4.9480354543e+00 1.0390884695e-02 1.6600885332e+00 -2.8753576845e+00 1.6600885332e+00 2.8753576845e+00 
8600 4.9479684214e+00 1.0413477315e-02 1.6597755812e+00 -2.8748156359e+00 1.6597755812e+00 2.8748156359e+00 
8700 4.9479046001e+00 1.0428420728e-02 1.6594618898e+00 -2.8742723063e+00 1.6594618898e+00 2.8742723063e+00 
8800 4.9478438077e+00 1.0436148488e-02 1.6591476888e+00 -2.8737280942e+00 1.6591476888e+00 2.8737280942e+00 
8900 4.9477858733e+00 1.0437076039e-02 1.6588331954e+00 -2.8731833757e+00 1.6588331954e+00 2.8731833757e+00 
9000 4.9477306365e+00 1.0431601203e-02 1.6585186145e+00 -2.8726385056e+00 1.6585186145e+00 2.8726385056e+00 
9100 4.9476779472e+00 1.0420104666e-02 1.6582041389e+00 -2.8720938179e+00 1.6582041389e+00 2.8720938179e+00 
9200 4.9476276646e+00 1.0402950472e-02 1.6578899503e+00 -2.8715496273e+00 1.6578899503e+00 2.8715496273e+00 
9300 4.9475796570e+00 1.0380486518e-02 1.6575762196e+00 -2.8710062297e+00 1.6575762196e+00 2.8710062297e+00 
9400 4.9475338007e+00 1.0353045052e-02 1.6572631070e+00 -2.8704639028e+00 1.6572631070e+00 2.8704639028e+00 
9500 4.9474899798e+00 1.0320943169e-02 1.6569507631e+00 -2.8699229073e+00 1.6569507631e+00 2.8699229073e+00 
9600 4.9474480857e+00 1.0284483304e-02 1.6566393290e+00 -2.8693834876e+00 1.6566393290e+00 2.8693834876e+00 
9700 4.9474080165e+00 1.0243953723e-02 1.6563289367e+00 -2.8688458724e+00 1.6563289367e+00 2.8688458724e+00 
9800 4.9473696768e+00 1.0199629007e-02 1.6560197096e+00 -2.8683102754e+00 1.6560197096e+00 2.8683102754e+00 
9900 4.9473329769e+00 1.0151770531e-02 1.6557117630e+00 -2.8677768962e+00 1.6557117630e+00 2.8677768962e+00 
10000 4.9472978328e+00 1.0100626934e-02 1.6554052043e+00 -2.8672459209e+00 1.6554052043e+00 2.8672459209e+00 
10100 4.9472641656e+00 1.0046434589e-02 1.6551001335e+00 -2.8667175228e+00 1.6551001335e+00 2.8667175228e+00 
10200 4.9472319014e+00 9.9894180514e-03 1.6547966434e+00 -2.8661918626e+00 1.6547966434e+00 2.8661918626e+00 
10300 4.9472009706e+00 9.9297905114e-03 1.6544948204e+00 -2.8656690898e+00 1.6544948204e+00 2.8656690898e+00 
10400 4.9471713079e+00 9.8677542295e-03 1.6541947442e+00 -2.8651493426e+00 1.6541947442e+00 2.8651493426e+00 
10500 4.9471428521e+00 9.8035009648e-03 1.6538964886e+00 -2.8646327487e+00 1.6538964886e+00 2.8646327487e+00 
10600 4.9471155457e+00 9.7372123928e-03 1.6536001216e+00 -2.8641194260e+00 1.6536001216e+00 2.8641194260e+00 
10700 4.9470893343e+00 9.6690605130e-03 1.6533057057e+00 -2.8636094827e+00 1.6533057057e+00 2.8636094827e+00 
10800 4.9470641673e+00 9.5992080458e-03 1.6530132983e+00 -2.8631030182e+00 1.6530132983e+00 2.8631030182e+00 
10900 4.9470399965e+00 9.5278088194e-03 1.6527229520e+00 -2.8626001236e+00 1.6527229520e+00 2.8626001236e+00 
11000 4.9470167770e+00 9.4550081448e-03 1.6524347145e+00 -2.8621008818e+00 1.6524347145e+00 2.8621008818e+00 
11100 4.9469944664e+00 9.3809431818e-03 1.6521486296e+00 -2.8616053681e+00 1.6521486296e+00 2.8616053681e+00 
11200 4.9469730245e+00 9.3057432923e-03 1.6518647364e+00 -2.8611136506e+00 1.6518647364e+00 2.8611136506e+00 
11300 4.9469524137e+00 9.2295303849e-03 1.6515830705e+00 -2.8606257910e+00 1.6515830705e+00 2.8606257910e+00 
11400 4.9469325984e+00 9.1524192470e-03 1.6513036637e+00 -2.8601418443e+00 1.6513036637e+00 2.8601418443e+00 
11500 4.9469135449e+00 9.0745178679e-03 1.6510265444e+00 -2.8596618595e+00 1.6510265444e+00 2.8596618595e+00 
11600 4.9468952216e+00 8.9959277504e-03 1.6507517376e+00 -2.8591858802e+00 1.6507517376e+00 2.8591858802e+00 
11700 4.9468775985e+00 8.9167442126e-03 1.6504792654e+00 -2.8587139445e+00 1.6504792654e+00 2.8587139445e+00 
11800 4.9468606470e+00 8.8370566794e-03 1.6502091468e+00 -2.8582460854e+00 1.6502091468e+00 2.8582460854e+00 
11900 4.9468443405e+00 8.7569489637e-03 1.6499413984e+00 -2.8577823316e+00 1.6499413984e+00 2.8577823316e+00 
12000 4.9468286532e+00 8.6764995383e-03 1.6496760340e+00 -2.8573227070e+00 1.6496760340e+00 2.8573227070e+00 
12100 4.9468135612e+00 8.5957817979e-03 1.6494130651e+00 -2.8568672315e+00 1.6494130651e+00 2.8568672315e+00 
12200 4.9467990414e+00 8.5148643110e-03 1.6491525011e+00 -2.8564159213e+00 1.6491525011e+00 2.8564159213e+00 
12300 4.9467850720e+00 8.4338110634e-03 1.6488943490e+00 -2.8559687888e+00 1.6488943490e+00 2.8559687888e+00 
12400 4.9467716322e+00 8.3526816925e-03 1.6486386142e+00 -2.8555258432e+00 1.6486386142e+00 2.8555258432e+00 
12500 4.9467587024e+00 8.2715317115e-03 1.6483853001e+00 -2.8550870903e+00 1.6483853001e+00 2.8550870903e+00 
12600 4.9467462636e+00 8.1904127269e-03 1.6481344085e+00 -2.8546525332e+00 1.6481344085e+00 2.8546525332e+00 
12700 4.9467342979e+00 8.1093726455e-03 1.6478859395e+00 -2.8542221723e+00 1.6478859395e+00 2.8542221723e+00 
12800 4.9467227882e+00 8.0284558748e-03 1.6476398918e+00 -2.8537960052e+00 1.6476398918e+00 2.8537960052e+00 
12900 4.9467117179e+00 7.9477035140e-03 1.6473962628e+00 -2.8533740273e+00 1.6473962628e+00 2.8533740273e+00 
13000 4.9467010716e+00 7.8671535380e-03 1.6471550485e+00 -2.8529562319e+00 1.6471550485e+00 2.8529562319e+00 
13100 4.9466908340e+00 7.7868409736e-03 1.6469162439e+00 -2.8525426103e+00 1.6469162439e+00 2.8525426103e+00 
13200 4.9466809908e+00 7.7067980679e-03 1.6466798429e+00 -2.8521331516e+00 1.6466798429e+00 2.8521331516e+00 
13300 4.9466715283e+00 7.6270544497e-03 1.6464458382e+00 -2.8517278437e+00 1.6464458382e+00 2.8517278437e+00 
13400 4.9466624330e+00 7.5476372844e-03 1.6462142218e+00 -2.8513266724e+00 1.6462142218e+00 2.8513266724e+00 
13500 4.9466536923e+00 7.4685714210e-03 1.6459849849e+00 -2.8509296224e+00 1.6459849849e+00 2.8509296224e+00 
13600 4.9466452939e+00 7.3898795333e-03 1.6457581177e+00 -2.8505366769e+00 1.6457581177e+00 2.8505366769e+00 
13700 4.9466372260e+00 7.3115822549e-03 1.6455336099e+00 -2.8501478179e+00 1.6455336099e+00 2.8501478179e+00 
13800 4.9466294771e+00 7.2336983070e-03 1.6453114504e+00 -2.8497630264e+00 1.6453114504e+00 2.8497630264e+00 
13900 4.9466220363e+00 7.1562446212e-03 1.6450916277e+00 -2.8493822823e+00 1.6450916277e+00 2.8493822823e+00 
14000 4.9466148931e+00 7.0792364558e-03 1.6448741296e+00 -2.8490055644e+00 1.6448741296e+00 2.8490055644e+00 
14100 4.9466080371e+00 7.0026875072e-03 1.6446589434e+00 -2.8486328511e+00 1.6446589434e+00 2.8486328511e+00 
14200 4.9466014586e+00 6.9266100150e-03 1.6444460562e+00 -2.8482641197e+00 1.6444460562e+00 2.8482641197e+00 
14300 4.9465951480e+00 6.8510148625e-03 1.6442354545e+00 -2.8478993469e+00 1.6442354545e+00 2.8478993469e+00 
14400 4.9465890959e+00 6.7759116720e-03 1.6440271246e+00 -2.8475385088e+00 1.6440271246e+00 2.8475385088e+00 
14500 4.9465832937e+00 6.7013088951e-03 1.6438210523e+00 -2.8471815811e+00 1.6438210523e+00 2.8471815811e+00 
14600 4.9465777324e+00 6.6272138982e-03 1.6436172232e+00 -2.8468285388e+00 1.6436172232e+00 2.8468285388e+00 
14700 4.9465724039e+00 6.5536330441e-03 1.6434156228e+00 -2.8464793566e+00 1.6434156228e+00 2.8464793566e+00 
14800 4.9465673000e+00 6.4805717679e-03 1.6432162362e+00 -2.8461340089e+00 1.6432162362e+00 2.8461340089e+00 
14900 4.9465624129e+00 6.4080346506e-03 1.6430190484e+00 -2.8457924697e+00 1.6430190484e+00 2.8457924697e+00 
15000 4.9465577349e+00 6.3360254866e-03 1.6428240444e+00 -2.8454547127e+00 1.6428240444e+00 2.8454547127e+00 
15100 4.9465532587e+00 6.2645473491e-03 1.6426312087e+00 -2.8451207116e+00 1.6426312087e+00 2.8451207116e+00 
15200 4.9465489771e+00 6.1936026506e-03 1.6424405260e+00 -2.8447904395e+00 1.6424405260e+00 2.8447904395e+00 
15300 4.9465448833e+00 6.1231932003e-03 1.6422519809e+00 -2.8444638697e+00 1.6422519809e+00 2.8444638697e+00 
15400 4.9465409704e+00 6.0533202579e-03 1.6420655577e+00 -2.8441409753e+00 1.6420655577e+00 2.8441409753e+00 
15500 4.9465372320e+00 5.9839845843e-03 1.6418812408e+00 -2.8438217291e+00 1.6418812408e+00 2.8438217291e+00 
15600 4.9465336618e+00 5.9151864891e-03 1.6416990147e+00 -2.8435061042e+00 1.6416990147e+00 2.8435061042e+00 
15700 4.9465302535e+00 5.8469258750e-03 1.6415188636e+00 -2.8431940733e+00 1.6415188636e+00 2.8431940733e+00 
15800 4.9465270014e+00 5.7792022790e-03 1.6413407718e+00 -2.8428856093e+00 1.6413407718e+00 2.8428856093e+00 
15900 4.9465238997e+00 5.7120149117e-03 1.6411647237e+00 -2.8425806850e+00 1.6411647237e+00 2.8425806850e+00 
16000 4.9465209427e+00 5.6453626933e-03 1.6409907035e+00 -2.8422792733e+00 1.6409907035e+00 2.8422792733e+00 
16100 4.9465181250e+00 5.5792442870e-03 1.6408186957e+00 -2.8419813470e+00 1.6408186957e+00 2.8419813470e+00 
16200 4.9465154415e+00 5.5136581304e-03 1.6406486846e+00 -2.8416868792e+00 1.6406486846e+00 2.8416868792e+00 
16300 4.9465128869e+00 5.4486024648e-03 1.6404806546e+00 -2.8413958427e+00 1.6404806546e+00 2.8413958427e+00 
16400 4.9465104565e+00 5.3840753616e-03 1.6403145902e+00 -2.8411082106e+00 1.6403145902e+00 2.8411082106e+00 
16500 4.9465081454e+00 5.3200747471e-03 1.6401504758e+00 -2.8408239561e+00 1.6401504758e+00 2.8408239561e+00 
16600 4.9465059490e+00 5.2565984254e-03 1.6399882959e+00 -2.8405430523e+00 1.6399882959e+00 2.8405430523e+00 
16700 4.9465038629e+00 5.1936440996e-03 1.6398280352e+00 -2.8402654727e+00 1.6398280352e+00 2.8402654727e+00 
16800 4.9465018827e+00 5.1312093905e-03 1.6396696784e+00 -2.8399911906e+00 1.6396696784e+00 2.8399911906e+00 
16900 4.9465000042e+00 5.0692918544e-03 1.6395132100e+00 -2.8397201795e+00 1.6395132100e+00 2.8397201795e+00 
17000 4.9464982233e+00 5.0078889990e-03 1.6393586150e+00 -2.8394524130e+00 1.6393586150e+00 2.8394524130e+00 
17100 4.9464965362e+00 4.9469982980e-03 1.6392058781e+00 -2.8391878649e+00 1.6392058781e+00 2.8391878649e+00 
17200 4.9464949390e+00 4.8866172037e-03 1.6390549842e+00 -2.8389265091e+00 1.6390549842e+00 2.8389265091e+00 
17300 4.9464934281e+00 4.8267431595e-03 1.6389059183e+00 -2.8386683194e+00 1.6389059183e+00 2.8386683194e+00 
17400 4.9464919999e+00 4.7673736096e-03 1.6387586655e+00 -2.8384132700e+00 1.6387586655e+00 2.8384132700e+00 
17500 4.9464906511e+00 4.7085060089e-03 1.6386132108e+00 -2.8381613351e+00 1.6386132108e+00 2.8381613351e+00 
17600 4.9464893782e+00 4.6501378308e-03 1.6384695394e+00 -2.8379124889e+00 1.6384695394e+00 2.8379124889e+00 
17700 4.9464881781e+00 4.5922665748e-03 1.6383276365e+00 -2.8376667059e+00 1.6383276365e+00 2.8376667059e+00 
17800 4.9464870478e+00 4.5348897725e-03 1.6381874875e+00 -2.8374239606e+00 1.6381874875e+00 2.8374239606e+00 
17900 4.9464859842e+00 4.4780049929e-03 1.6380490776e+00 -2.8371842277e+00 1.6380490776e+00 2.8371842277e+00 
18000 4.9464849844e+00 4.4216098471e-03 1.6379123924e+00 -2.8369474820e+00 1.6379123924e+00 2.8369474820e+00 
18100 4.9464840457e+00 4.3657019918e-03 1.6377774172e+00 -2.8367136982e+00 1.6377774172e+00 2.8367136982e+00 
18200 4.9464831655e+00 4.3102791327e-03 1.6376441378e+00 -2.8364828513e+00 1.6376441378e+00 2.8364828513e+00 
18300 4.9464823411e+00 4.2553390262e-03 1.6375125395e+00 -2.8362549165e+00 1.6375125395e+00 2.8362549165e+00 
18400 4.9464815701e+00 4.2008794817e-03 1.6373826082e+00 -2.8360298689e+00 1.6373826082e+00 2.8360298689e+00 
18500 4.9464808500e+00 4.1468983626e-03 1.6372543296e+00 -2.8358076837e+00 1.6372543296e+00 2.8358076837e+00 
18600 4.9464801786e+00 4.0933935866e-03 1.6371276894e+00 -2.8355883364e+00 1.6371276894e+00 2.8355883364e+00 
18700 4.9464795537e+00 4.0403631264e-03 1.6370026734e+00 -2.8353718025e+00 1.6370026734e+00 2.8353718025e+00 
18800 4.9464789731e+00 3.9878050090e-03 1.6368792676e+00 -2.8351580574e+00 1.6368792676e+00 2.8351580574e+00 
18900 4.9464784348e+00 3.9357173152e-03 1.6367574579e+00 -2.8349470768e+00 1.6367574579e+00 2.8349470768e+00 
19000 4.9464779369e+00 3.8840981782e-03 1.6366372303e+00 -2.8347388364e+00 1.6366372303e+00 2.8347388364e+00 
19100 4.9464774773e+00 3.8329457829e-03 1.6365185708e+00 -2.8345333121e+00 1.6365185708e+00 2.8345333121e+00 
19200 4.9464770543e+00 3.7822583638e-03 1.6364014655e+00 -2.8343304798e+00 1.6364014655e+00 2.8343304798e+00 
19300 4.9464766662e+00 3.7320342028e-03 1.6362859005e+00 -2.8341303154e+00 1.6362859005e+00 2.8341303154e+00 
19400 4.9464763112e+00 3.6822716279e-03 1.6361718620e+00 -2.8339327950e+00 1.6361718620e+00 2.8339327950e+00 
19500 4.9464759878e+00 3.6329690101e-03 1.6360593363e+00 -2.8337378946e+00 1.6360593363e+00 2.8337378946e+00 
19600 4.9464756943e+00 3.5841247609e-03 1.6359483095e+00 -2.8335455906e+00 1.6359483095e+00 2.8335455906e+00 
19700 4.9464754294e+00 3.5357373304e-03 1.6358387680e+00 -2.8333558592e+00 1.6358387680e+00 2.8333558592e+00 
19800 4.9464751916e+00 3.4878052036e-03 1.6357306981e+00 -2.8331686766e+00 1.6357306981e+00 2.8331686766e+00 
19900 4.9464749795e+00 3.4403268979e-03 1.6356240862e+00 -2.8329840194e+00 1.6356240862e+00 2.8329840194e+00 
20000 4.9464747918e+00 3.3933009604e-03 1.6355189187e+00 -2.8328018639e+00 1.6355189187e+00 2.8328018639e+00 
20100 4.9464746272e+00 3.3467259643e-03 1.6354151820e+00 -2.8326221868e+00 1.6354151820e+00 2.8326221868e+00 
20200 4.9464744846e+00 3.3006005062e-03 1.6353128627e+00 -2.8324449645e+00 1.6353128627e+00 2.8324449645e+00 
20300 4.9464743628e+00 3.2549232030e-03 1.6352119473e+00 -2.8322701738e+00 1.6352119473e+00 2.8322701738e+00 
20400 4.9464742606e+00 3.2096926885e-03 1.6351124223e+00 -2.8320977915e+00 1.6351124223e+00 2.8320977915e+00 
20500 4.9464741771e+00 3.1649076108e-03 1.6350142743e+00 -2.8319277941e+00 1.6350142743e+00 2.8319277941e+00 
20600 4.9464741113e+00 3.1205666285e-03 1.6349174899e+00 -2.8317601587e+00 1.6349174899e+00 2.8317601587e+00 
20700 4.9464740620e+00 3.0766684083e-03 1.6348220558e+00 -2.8315948620e+00 1.6348220558e+00 2.8315948620e+00 
20800 4.9464740285e+00 3.0332116216e-03 1.6347279588e+00 -2.8314318811e+00 1.6347279588e+00 2.8314318811e+00 
20900 4.9464740098e+00 2.9901949415e-03 1.6346351854e+00 -2.8312711930e+00 1.6346351854e+00 2.8312711930e+00 
21000 4.9464740051e+00 2.9476170403e-03 1.6345437226e+00 -2.8311127748e+00 1.6345437226e+00 2.8311127748e+00 
21100 4.9464740136e+00 2.9054765861e-03 1.6344535571e+00 -2.8309566035e+00 1.6344535571e+00 2.8309566035e+00 
21200 4.9464740345e+00 2.8637722402e-03 1.6343646757e+00 -2.8308026564e+00 1.6343646757e+00 2.8308026564e+00 
21300 4.9464740671e+00 2.8225026547e-03 1.6342770653e+00 -2.8306509108e+00 1.6342770653e+00 2.8306509108e+00 
21400 4.9464741106e+00 2.7816664695e-03 1.6341907128e+00 -2.8305013439e+00 1.6341907128e+00 2.8305013439e+00 
21500 4.9464741644e+00 2.7412623100e-03 1.6341056052e+00 -2.8303539331e+00 1.6341056052e+00 2.8303539331e+00 
21600 4.9464742279e+00 2.7012887846e-03 1.6340217294e+00 -2.8302086559e+00 1.6340217294e+00 2.8302086559e+00 
21700 4.9464743004e+00 2.6617444826e-03 1.6339390724e+00 -2.8300654898e+00 1.6339390724e+00 2.8300654898e+00 
21800 4.9464743814e+00 2.6226279714e-03 1.6338576213e+00 -2.8299244124e+00 1.6338576213e+00 2.8299244124e+00 
21900 4.9464744702e+00 2.5839377953e-03 1.6337773632e+00 -2.8297854013e+00 1.6337773632e+00 2.8297854013e+00 
22000 4.9464745664e+00 2.5456724727e-03 1.6336982852e+00 -2.8296484342e+00 1.6336982852e+00 2.8296484342e+00 
22100 4.9464746695e+00 2.5078304946e-03 1.6336203745e+00 -2.8295134888e+00 1.6336203745e+00 2.8295134888e+00 
22200 4.9464747789e+00 2.4704103227e-03 1.6335436182e+00 -2.8293805432e+00 1.6335436182e+00 2.8293805432e+00 
22300 4.9464748942e+00 2.4334103880e-03 1.6334680037e+00 -2.8292495750e+00 1.6334680037e+00 2.8292495750e+00 
22400 4.9464750150e+00 2.3968290890e-03 1.6333935183e+00 -2.8291205624e+00 1.6333935183e+00 2.8291205624e+00 
22500 4.9464751409e+00 2.3606647901e-03 1.6333201492e+00 -2.8289934835e+00 1.6333201492e+00 2.8289934835e+00 
22600 4.9464752714e+00 2.3249158210e-03 1.6332478839e+00 -2.8288683163e+00 1.6332478839e+00 2.8288683163e+00 
22700 4.9464754063e+00 2.2895804748e-03 1.6331767098e+00 -2.8287450392e+00 1.6331767098e+00 2.8287450392e+00 
22800 4.9464755450e+00 2.2546570070e-03 1.6331066144e+00 -2.8286236303e+00 1.6331066144e+00 2.8286236303e+00 
22900 4.9464756873e+00 2.2201436351e-03 1.6330375852e+00 -2.8285040682e+00 1.6330375852e+00 2.8285040682e+00 
23000 4.9464758329e+00 2.1860385369e-03 1.6329696098e+00 -2.8283863314e+00 1.6329696098e+00 2.8283863314e+00 
23100 4.9464759815e+00 2.1523398506e-03 1.6329026758e+00 -2.8282703983e+00 1.6329026758e+00 2.8282703983e+00 
23200 4.9464761327e+00 2.1190456735e-03 1.6328367709e+00 -2.8281562477e+00 1.6328367709e+00 2.8281562477e+00 
23300 4.9464762863e+00 2.0861540618e-03 1.6327718829e+00 -2.8280438583e+00 1.6327718829e+00 2.8280438583e+00 
23400 4.9464764420e+00 2.0536630299e-03 1.6327079995e+00 -2.8279332090e+00 1.6327079995e+00 2.8279332090e+00 
23500 4.9464765996e+00 2.0215705504e-03 1.6326451085e+00 -2.8278242787e+00 1.6326451085e+00 2.8278242787e+00 
23600 4.9464767588e+00 1.9898745537e-03 1.6325831980e+00 -2.8277170466e+00 1.6325831980e+00 2.8277170466e+00 
23700 4.9464769194e+00 1.9585729278e-03 1.6325222559e+00 -2.8276114917e+00 1.6325222559e+00 2.8276114917e+00 
23800 4.9464770813e+00 1.9276635183e-03 1.6324622702e+00 -2.8275075934e+00 1.6324622702e+00 2.8275075934e+00 
23900 4.9464772441e+00 1.8971441284e-03 1.6324032289e+00 -2.8274053309e+00 1.6324032289e+00 2.8274053309e+00 
24000 4.9464774078e+00 1.8670125192e-03 1.6323451203e+00 -2.8273046839e+00 1.6323451203e+00 2.8273046839e+00 
24100 4.9464775720e+00 1.8372664095e-03 1.6322879326e+00 -2.8272056319e+00 1.6322879326e+00 2.8272056319e+00 
24200 4.9464777368e+00 1.8079034767e-03 1.6322316541e+00 -2.8271081546e+00 1.6322316541e+00 2.8271081546e+00 
24300 4.9464779019e+00 1.7789213565e-03 1.6321762731e+00 -2.8270122318e+00 1.6321762731e+00 2.8270122318e+00 
24400 4.9464780671e+00 1.7503176438e-03 1.6321217780e+00 -2.8269178436e+00 1.6321217780e+00 2.8269178436e+00 
24500 4.9464782323e+00 1.7220898931e-03 1.6320681573e+00 -2.8268249699e+00 1.6320681573e+00 2.8268249699e+00 
24600 4.9464783974e+00 1.6942356190e-03 1.6320153997e+00 -2.8267335911e+00 1.6320153997e+00 2.8267335911e+00 
24700 4.9464785622e+00 1.6667522968e-03 1.6319634938e+00 -2.8266436873e+00 1.6319634938e+00 2.8266436873e+00 
24800 4.9464787267e+00 1.6396373634e-03 1.6319124282e+00 -2.8265552391e+00 1.6319124282e+00 2.8265552391e+00 
24900 4.9464788907e+00 1.6128882179e-03 1.6318621918e+00 -2.8264682271e+00 1.6318621918e+00 2.8264682271e+00 
25000 4.9464790541e+00 1.5865022225e-03 1.6318127734e+00 -2.8263826319e+00 1.6318127734e+00 2.8263826319e+00 
25100 4.9464792168e+00 1.5604767030e-03 1.6317641620e+00 -2.8262984345e+00 1.6317641620e+00 2.8262984345e+00 
25200 4.9464793788e+00 1.5348089506e-03 1.6317163466e+00 -2.8262156158e+00 1.6317163466e+00 2.8262156158e+00 
25300 4.9464795399e+00 1.5094962217e-03 1.6316693163e+00 -2.8261341569e+00 1.6316693163e+00 2.8261341569e+00 
25400 4.9464797000e+00 1.4845357398e-03 1.6316230603e+00 -2.8260540392e+00 1.6316230603e+00 2.8260540392e+00 
25500 4.9464798592e+00 1.4599246963e-03 1.6315775679e+00 -2.8259752441e+00 1.6315775679e+00 2.8259752441e+00 
25600 4.9464800172e+00 1.4356602511e-03 1.6315328284e+00 -2.8258977531e+00 1.6315328284e+00 2.8258977531e+00 
25700 4.9464801742e+00 1.4117395346e-03 1.6314888314e+00 -2.8258215479e+00 1.6314888314e+00 2.8258215479e+00 
25800 4.9464803299e+00 1.3881596479e-03 1.6314455662e+00 -2.8257466104e+00 1.6314455662e+00 2.8257466104e+00 
25900 4.9464804843e+00 1.3649176646e-03 1.6314030225e+00 -2.8256729226e+00 1.6314030225e+00 2.8256729226e+00 
26000 4.9464806374e+00 1.3420106319e-03 1.6313611900e+00 -2.8256004667e+00 1.6313611900e+00 2.8256004667e+00 
26100 4.9464807892e+00 1.3194355714e-03 1.6313200586e+00 -2.8255292249e+00 1.6313200586e+00 2.8255292249e+00 
26200 4.9464809395e+00 1.2971894808e-03 1.6312796180e+00 -2.8254591798e+00 1.6312796180e+00 2.8254591798e+00 
26300 4.9464810884e+00 1.2752693350e-03 1.6312398583e+00 -2.8253903139e+00 1.6312398583e+00 2.8253903139e+00 
26400 4.9464812359e+00 1.2536720872e-03 1.6312007695e+00 -2.8253226101e+00 1.6312007695e+00 2.8253226101e+00 
26500 4.9464813818e+00 1.2323946705e-03 1.6311623418e+00 -2.8252560513e+00 1.6311623418e+00 2.8252560513e+00 
26600 4.9464815261e+00 1.2114339988e-03 1.6311245653e+00 -2.8251906206e+00 1.6311245653e+00 2.8251906206e+00 
26700 4.9464816689e+00 1.1907869684e-03 1.6310874306e+00 -2.8251263013e+00 1.6310874306e+00 2.8251263013e+00 
26800 4.9464818101e+00 1.1704504590e-03 1.6310509278e+00 -2.8250630767e+00 1.6310509278e+00 2.8250630767e+00 
26900 4.9464819497e+00 1.1504213352e-03 1.6310150477e+00 -2.8250009305e+00 1.6310150477e+00 2.8250009305e+00 
27000 4.9464820876e+00 1.1306964479e-03 1.6309797808e+00 -2.8249398465e+00 1.6309797808e+00 2.8249398465e+00 
27100 4.9464822239e+00 1.1112726354e-03 1.6309451178e+00 -2.8248798084e+00 1.6309451178e+00 2.8248798084e+00 
27200 4.9464823585e+00 1.0921467246e-03 1.6309110496e+00 -2.8248208005e+00 1.6309110496e+00 2.8248208005e+00 
27300 4.9464824915e+00 1.0733155326e-03 1.6308775670e+00 -2.8247628069e+00 1.6308775670e+00 2.8247628069e+00 
27400 4.9464826227e+00 1.0547758677e-03 1.6308446610e+00 -2.8247058121e+00 1.6308446610e+00 2.8247058121e+00 
27500 4.9464827522e+00 1.0365245308e-03 1.6308123228e+00 -2.8246498007e+00 1.6308123228e+00 2.8246498007e+00 
27600 4.9464828801e+00 1.0185583168e-03 1.6307805435e+00 -2.8245947573e+00 1.6307805435e+00 2.8245947573e+00 
27700 4.9464830062e+00 1.0008740155e-03 1.6307493144e+00 -2.8245406670e+00 1.6307493144e+00 2.8245406670e+00 
27800 4.9464831306e+00 9.8346841309e-04 1.6307186270e+00 -2.8244875148e+00 1.6307186270e+00 2.8244875148e+00 
27900 4.9464832533e+00 9.6633829343e-04 1.6306884726e+00 -2.8244352859e+00 1.6306884726e+00 2.8244352859e+00 
28000 4.9464833743e+00 9.4948043909e-04 1.6306588429e+00 -2.8243839658e+00 1.6306588429e+00 2.8243839658e+00 
28100 4.9464834936e+00 9.3289163261e-04 1.6306297296e+00 -2.8243335401e+00 1.6306297296e+00 2.8243335401e+00 
28200 4.9464836111e+00 9.1656865771e-04 1.6306011245e+00 -2.8242839944e+00 1.6306011245e+00 2.8242839944e+00 
28300 4.9464837270e+00 9.0050830042e-04 1.6305730193e+00 -2.8242353149e+00 1.6305730193e+00 2.8242353149e+00 
28400 4.9464838412e+00 8.8470735021e-04 1.6305454061e+00 -2.8241874875e+00 1.6305454061e+00 2.8241874875e+00 
28500 4.9464839536e+00 8.6916260113e-04 1.6305182770e+00 -2.8241404985e+00 1.6305182770e+00 2.8241404985e+00 
28600 4.9464840644e+00 8.5387085292e-04 1.6304916241e+00 -2.8240943343e+00 1.6304916241e+00 2.8240943343e+00 
28700 4.9464841735e+00 8.3882891206e-04 1.6304654397e+00 -2.8240489816e+00 1.6304654397e+00 2.8240489816e+00 
28800 4.9464842809e+00 8.2403359282e-04 1.6304397162e+00 -2.8240044272e+00 1.6304397162e+00 2.8240044272e+00 
28900 4.9464843867e+00 8.0948171832e-04 1.6304144460e+00 -2.8239606579e+00 1.6304144460e+00 2.8239606579e+00 
29000 4.9464844908e+00 7.9517012153e-04 1.6303896216e+00 -2.8239176608e+00 1.6303896216e+00 2.8239176608e+00 
29100 4.9464845933e+00 7.8109564623e-04 1.6303652358e+00 -2.8238754233e+00 1.6303652358e+00 2.8238754233e+00 
29200 4.9464846942e+00 7.6725514798e-04 1.6303412812e+00 -2.8238339328e+00 1.6303412812e+00 2.8238339328e+00 
29300 4.9464847935e+00 7.5364549508e-04 1.6303177508e+00 -2.8237931769e+00 1.6303177508e+00 2.8237931769e+00 
29400 4.9464848911e+00 7.4026356942e-04 1.6302946374e+00 -2.8237531433e+00 1.6302946374e+00 2.8237531433e+00 
29500 4.9464849872e+00 7.2710626742e-04 1.6302719341e+00 -2.8237138200e+00 1.6302719341e+00 2.8237138200e+00 
29600 4.9464850817e+00 7.1417050084e-04 1.6302496340e+00 -2.8236751951e+00 1.6302496340e+00 2.8236751951e+00 
29700 4.9464851746e+00 7.0145319763e-04 1.6302277303e+00 -2.8236372568e+00 1.6302277303e+00 2.8236372568e+00 
29800 4.9464852660e+00 6.8895130272e-04 1.6302062164e+00 -2.8235999936e+00 1.6302062164e+00 2.8235999936e+00 
29900 4.9464853559e+00 6.7666177883e-04 1.6301850856e+00 -2.8235633941e+00 1.6301850856e+00 2.8235633941e+00 
30000 4.9464854443e+00 6.6458160715e-04 1.6301643315e+00 -2.8235274469e+00 1.6301643315e+00 2.8235274469e+00 
30100 4.9464855312e+00 6.5270778811e-04 1.6301439477e+00 -2.8234921411e+00 1.6301439477e+00 2.8234921411e+00 
30200 4.9464856166e+00 6.4103734207e-04 1.6301239278e+00 -2.8234574656e+00 1.6301239278e+00 2.8234574656e+00 
30300 4.9464857005e+00 6.2956730998e-04 1.6301042656e+00 -2.8234234097e+00 1.6301042656e+00 2.8234234097e+00 
30400 4.9464857830e+00 6.1829475401e-04 1.6300849550e+00 -2.8233899627e+00 1.6300849550e+00 2.8233899627e+00 
30500 4.9464858641e+00 6.0721675815e-04 1.6300659899e+00 -2.8233571143e+00 1.6300659899e+00 2.8233571143e+00 
30600 4.9464859438e+00 5.9633042886e-04 1.6300473644e+00 -2.8233248540e+00 1.6300473644e+00 2.8233248540e+00 
30700 4.9464860221e+00 5.8563289554e-04 1.6300290727e+00 -2.8232931717e+00 1.6300290727e+00 2.8232931717e+00 
30800 4.9464860990e+00 5.7512131114e-04 1.6300111088e+00 -2.8232620574e+00 1.6300111088e+00 2.8232620574e+00 
30900 4.9464861745e+00 5.6479285260e-04 1.6299934672e+00 -2.8232315012e+00 1.6299934672e+00 2.8232315012e+00 
31000 4.9464862488e+00 5.5464472141e-04 1.6299761422e+00 -2.8232014935e+00 1.6299761422e+00 2.8232014935e+00 
31100 4.9464863217e+00 5.4467414397e-04 1.6299591284e+00 -2.8231720246e+00 1.6299591284e+00 2.8231720246e+00 
31200 4.9464863933e+00 5.3487837210e-04 1.6299424202e+00 -2.8231430852e+00 1.6299424202e+00 2.8231430852e+00 
31300 4.9464864636e+00 5.2525468339e-04 1.6299260123e+00 -2.8231146659e+00 1.6299260123e+00 2.8231146659e+00 
31400 4.9464865327e+00 5.1580038163e-04 1.6299098995e+00 -2.8230867577e+00 1.6299098995e+00 2.8230867577e+00 
31500 4.9464866005e+00 5.0651279711e-04 1.6298940766e+00 -2.8230593516e+00 1.6298940766e+00 2.8230593516e+00 
31600 4.9464866671e+00 4.9738928699e-04 1.6298785384e+00 -2.8230324386e+00 1.6298785384e+00 2.8230324386e+00 
31700 4.9464867324e+00 4.8842723559e-04 1.6298632799e+00 -2.8230060102e+00 1.6298632799e+00 2.8230060102e+00 
31800 4.9464867966e+00 4.7962405467e-04 1.6298482963e+00 -2.8229800578e+00 1.6298482963e+00 2.8229800578e+00 
31900 4.9464868596e+00 4.7097718373e-04 1.6298335825e+00 -2.8229545728e+00 1.6298335825e+00 2.8229545728e+00 
32000 4.9464869215e+00 4.6248409019e-04 1.6298191339e+00 -2.8229295471e+00 1.6298191339e+00 2.8229295471e+00 
32100 4.9464869822e+00 4.5414226963e-04 1.6298049457e+00 -2.8229049724e+00 1.6298049457e+00 2.8229049724e+00 
32200 4.9464870418e+00 4.4594924602e-04 1.6297910133e+00 -2.8228808408e+00 1.6297910133e+00 2.8228808408e+00 
32300 4.9464871003e+00 4.3790257184e-04 1.6297773322e+00 -2.8228571444e+00 1.6297773322e+00 2.8228571444e+00 
32400 4.9464871577e+00 4.2999982824e-04 1.6297638978e+00 -2.8228338753e+00 1.6297638978e+00 2.8228338753e+00 
32500 4.9464872140e+00 4.2223862524e-04 1.6297507057e+00 -2.8228110259e+00 1.6297507057e+00 2.8228110259e+00 
32600 4.9464872693e+00 4.1461660174e-04 1.6297377516e+00 -2.8227885888e+00 1.6297377516e+00 2.8227885888e+00 
32700 4.9464873236e+00 4.0713142570e-04 1.6297250313e+00 -2.8227665566e+00 1.6297250313e+00 2.8227665566e+00 
32800 4.9464873768e+00 3.9978079416e-04 1.6297125405e+00 -2.8227449219e+00 1.6297125405e+00 2.8227449219e+00 
32900 4.9464874290e+00 3.9256243333e-04 1.6297002752e+00 -2.8227236777e+00 1.6297002752e+00 2.8227236777e+00 
33000 4.9464874803e+00 3.8547409862e-04 1.6296882312e+00 -2.8227028169e+00 1.6296882312e+00 2.8227028169e+00 
33100 4.9464875305e+00 3.7851357465e-04 1.6296764046e+00 -2.8226823326e+00 1.6296764046e+00 2.8226823326e+00 
33200 4.9464875798e+00 3.7167867527e-04 1.6296647914e+00 -2.8226622180e+00 1.6296647914e+00 2.8226622180e+00 
33300 4.9464876282e+00 3.6496724354e-04 1.6296533879e+00 -2.8226424666e+00 1.6296533879e+00 2.8226424666e+00 
33400 4.9464876757e+00 3.5837715171e-04 1.6296421902e+00 -2.8226230716e+00 1.6296421902e+00 2.8226230716e+00 
33500 4.9464877223e+00 3.5190630118e-04 1.6296311946e+00 -2.8226040267e+00 1.6296311946e+00 2.8226040267e+00 
33600 4.9464877679e+00 3.4555262242e-04 1.6296203975e+00 -2.8225853256e+00 1.6296203975e+00 2.8225853256e+00 
33700 4.9464878127e+00 3.3931407494e-04 1.6296097953e+00 -2.8225669620e+00 1.6296097953e+00 2.8225669620e+00 
33800 4.9464878567e+00 3.3318864716e-04 1.6295993844e+00 -2.8225489298e+00 1.6295993844e+00 2.8225489298e+00 
33900 4.9464878997e+00 3.2717435636e-04 1.6295891614e+00 -2.8225312230e+00 1.6295891614e+00 2.8225312230e+00 
34000 4.9464879420e+00 3.2126924852e-04 1.6295791229e+00 -2.8225138358e+00 1.6295791229e+00 2.8225138358e+00 
34100 4.9464879835e+00 3.1547139823e-04 1.6295692654e+00 -2.8224967622e+00 1.6295692654e+00 2.8224967622e+00 
34200 4.9464880241e+00 3.0977890855e-04 1.6295595859e+00 -2.8224799967e+00 1.6295595859e+00 2.8224799967e+00 
34300 4.9464880640e+00 3.0418991086e-04 1.6295500809e+00 -2.8224635336e+00 1.6295500809e+00 2.8224635336e+00 
34400 4.9464881031e+00 2.9870256469e-04 1.6295407473e+00 -2.8224473674e+00 1.6295407473e+00 2.8224473674e+00 
34500 4.9464881414e+00 2.9331505758e-04 1.6295315821e+00 -2.8224314928e+00 1.6295315821e+00 2.8224314928e+00 
34600 4.9464881790e+00 2.8802560488e-04 1.6295225821e+00 -2.8224159043e+00 1.6295225821e+00 2.8224159043e+00 
34700 4.9464882159e+00 2.8283244958e-04 1.6295137444e+00 -2.8224005970e+00 1.6295137444e+00 2.8224005970e+00 
34800 4.9464882520e+00 2.7773386211e-04 1.6295050660e+00 -2.8223855655e+00 1.6295050660e+00 2.8223855655e+00 
34900 4.9464882874e+00 2.7272814010e-04 1.6294965440e+00 -2.8223708049e+00 1.6294965440e+00 2.8223708049e+00 
35000 4.9464883222e+00 2.6781360824e-04 1.6294881755e+00 -2.8223563103e+00 1.6294881755e+00 2.8223563103e+00 
35100 4.9464883563e+00 2.6298861801e-04 1.6294799578e+00 -2.8223420768e+00 1.6294799578e+00 2.8223420768e+00 
35200 4.9464883897e+00 2.5825154744e-04 1.6294718881e+00 -2.8223280997e+00 1.6294718881e+00 2.8223280997e+00 
35300 4.9464884224e+00 2.5360080093e-04 1.6294639637e+00 -2.8223143742e+00 1.6294639637e+00 2.8223143742e+00 
35400 4.9464884545e+00 2.4903480895e-04 1.6294561820e+00 -2.8223008959e+00 1.6294561820e+00 2.8223008959e+00 
35500 4.9464884860e+00 2.4455202784e-04 1.6294485403e+00 -2.8222876602e+00 1.6294485403e+00 2.8222876602e+00 
35600 4.9464885169e+00 2.4015093954e-04 1.6294410362e+00 -2.8222746626e+00 1.6294410362e+00 2.8222746626e+00 
35700 4.9464885471e+00 2.3583005131e-04 1.6294336671e+00 -2.8222618989e+00 1.6294336671e+00 2.8222618989e+00 
35800 4.9464885768e+00 2.3158789551e-04 1.6294264305e+00 -2.8222493649e+00 1.6294264305e+00 2.8222493649e+00 
35900 4.9464886059e+00 2.2742302931e-04 1.6294193241e+00 -2.8222370562e+00 1.6294193241e+00 2.8222370562e+00 
36000 4.9464886344e+00 2.2333403442e-04 1.6294123455e+00 -2.8222249688e+00 1.6294123455e+00 2.8222249688e+00 
36100 4.9464886623e+00 2.1931951679e-04 1.6294054923e+00 -2.8222130987e+00 1.6294054923e+00 2.8222130987e+00 
36200 4.9464886897e+00 2.1537810639e-04 1.6293987622e+00 -2.8222014419e+00 1.6293987622e+00 2.8222014419e+00 
36300 4.9464887166e+00 2.1150845688e-04 1.6293921531e+00 -2.8221899946e+00 1.6293921531e+00 2.8221899946e+00 
36400 4.9464887429e+00 2.0770924533e-04 1.6293856627e+00 -2.8221787529e+00 1.6293856627e+00 2.8221787529e+00 
36500 4.9464887687e+00 2.0397917196e-04 1.6293792888e+00 -2.8221677131e+00 1.6293792888e+00 2.8221677131e+00 
36600 4.9464887940e+00 2.0031695982e-04 1.6293730294e+00 -2.8221568714e+00 1.6293730294e+00 2.8221568714e+00 
36700 4.9464888188e+00 1.9672135452e-04 1.6293668824e+00 -2.8221462244e+00 1.6293668824e+00 2.8221462244e+00 
36800 4.9464888431e+00 1.9319112392e-04 1.6293608456e+00 -2.8221357685e+00 1.6293608456e+00 2.8221357685e+00 
36900 4.9464888669e+00 1.8972505783e-04 1.6293549172e+00 -2.8221255002e+00 1.6293549172e+00 2.8221255002e+00 
37000 4.9464888903e+00 1.8632196774e-04 1.6293490951e+00 -2.8221154160e+00 1.6293490951e+00 2.8221154160e+00 
37100 4.9464889132e+00 1.8298068652e-04 1.6293433774e+00 -2.8221055127e+00 1.6293433774e+00 2.8221055127e+00 
37200 4.9464889356e+00 1.7970006808e-04 1.6293377623e+00 -2.8220957869e+00 1.6293377623e+00 2.8220957869e+00 
37300 4.9464889576e+00 1.7647898713e-04 1.6293322478e+00 -2.8220862355e+00 1.6293322478e+00 2.8220862355e+00 
37400 4.9464889792e+00 1.7331633885e-04 1.6293268321e+00 -2.8220768553e+00 1.6293268321e+00 2.8220768553e+00 
37500 4.9464890003e+00 1.7021103857e-04 1.6293215134e+00 -2.8220676431e+00 1.6293215134e+00 2.8220676431e+00 
37600 4.9464890210e+00 1.6716202152e-04 1.6293162901e+00 -2.8220585960e+00 1.6293162901e+00 2.8220585960e+00 
37700 4.9464890413e+00 1.6416824252e-04 1.6293111603e+00 -2.8220497109e+00 1.6293111603e+00 2.8220497109e+00 
37800 4.9464890612e+00 1.6122867565e-04 1.6293061223e+00 -2.8220409849e+00 1.6293061223e+00 2.8220409849e+00 
37900 4.9464890808e+00 1.5834231398e-04 1.6293011745e+00 -2.8220324151e+00 1.6293011745e+00 2.8220324151e+00 
38000 4.9464890999e+00 1.5550816928e-04 1.6292963153e+00 -2.8220239987e+00 1.6292963153e+00 2.8220239987e+00 
38100 4.9464891186e+00 1.5272527171e-04 1.6292915431e+00 -2.8220157329e+00 1.6292915431e+00 2.8220157329e+00 
38200 4.9464891370e+00 1.4999266953e-04 1.6292868562e+00 -2.8220076151e+00 1.6292868562e+00 2.8220076151e+00 
38300 4.9464891550e+00 1.4730942882e-04 1.6292822532e+00 -2.8219996424e+00 1.6292822532e+00 2.8219996424e+00 
38400 4.9464891726e+00 1.4467463318e-04 1.6292777325e+00 -2.8219918123e+00 1.6292777325e+00 2.8219918123e+00 
38500 4.9464891899e+00 1.4208738343e-04 1.6292732927e+00 -2.8219841223e+00 1.6292732927e+00 2.8219841223e+00 
38600 4.9464892069e+00 1.3954679735e-04 1.6292689322e+00 -2.8219765698e+00 1.6292689322e+00 2.8219765698e+00 
38700 4.9464892235e+00 1.3705200939e-04 1.6292646497e+00 -2.8219691523e+00 1.6292646497e+00 2.8219691523e+00 
38800 4.9464892398e+00 1.3460217037e-04 1.6292604438e+00 -2.8219618674e+00 1.6292604438e+00 2.8219618674e+00 
38900 4.9464892558e+00 1.3219644720e-04 1.6292563130e+00 -2.8219547127e+00 1.6292563130e+00 2.8219547127e+00 
39000 4.9464892714e+00 1.2983402264e-04 1.6292522561e+00 -2.8219476858e+00 1.6292522561e+00 2.8219476858e+00 
39100 4.9464892868e+00 1.2751409498e-04 1.6292482716e+00 -2.8219407845e+00 1.6292482716e+00 2.8219407845e+00 
39200 4.9464893018e+00 1.2523587779e-04 1.6292443583e+00 -2.8219340065e+00 1.6292443583e+00 2.8219340065e+00 
39300 4.9464893166e+00 1.2299859964e-04 1.6292405149e+00 -2.8219273496e+00 1.6292405149e+00 2.8219273496e+00 
39400 4.9464893310e+00 1.2080150385e-04 1.6292367402e+00 -2.8219208116e+00 1.6292367402e+00 2.8219208116e+00 
39500 4.9464893452e+00 1.1864384822e-04 1.6292330329e+00 -2.8219143904e+00 1.6292330329e+00 2.8219143904e+00 
39600 4.9464893591e+00 1.1652490473e-04 1.6292293918e+00 -2.8219080838e+00 1.6292293918e+00 2.8219080838e+00 
39700 4.9464893727e+00 1.1444395936e-04 1.6292258157e+00 -2.8219018899e+00 1.6292258157e+00 2.8219018899e+00 
39800 4.9464893860e+00 1.1240031175e-04 1.6292223035e+00 -2.8218958065e+00 1.6292223035e+00 2.8218958065e+00 
39900 4.9464893991e+00 1.1039327501e-04 1.6292188540e+00 -2.8218898318e+00 1.6292188540e+00 2.8218898318e+00 
40000 4.9464894119e+00 1.0842217544e-04 1.6292154661e+00 -2.8218839638e+00 1.6292154661e+00 2.8218839638e+00 
40100 4.9464894245e+00 1.0648635229e-04 1.6292121387e+00 -2.8218782005e+00 1.6292121387e+00 2.8218782005e+00 
40200 4.9464894368e+00 1.0458515752e-04 1.6292088706e+00 -2.8218725401e+00 1.6292088706e+00 2.8218725401e+00 
40300 4.9464894488e+00 1.0271795555e-04 1.6292056609e+00 -2.8218669807e+00 1.6292056609e+00 2.8218669807e+00 
40400 4.9464894607e+00 1.0088412304e-04 1.6292025086e+00 -2.8218615206e+00 1.6292025086e+00 2.8218615206e+00 
40500 4.9464894723e+00 9.9083048663e-05 1.6291994124e+00 -2.8218561580e+00 1.6291994124e+00 2.8218561580e+00 
40600 4.9464894837e+00 9.7314132828e-05 1.6291963716e+00 -2.8218508911e+00 1.6291963716e+00 2.8218508911e+00 
40700 4.9464894948e+00 9.5576787505e-05 1.6291933850e+00 -2.8218457182e+00 1.6291933850e+00 2.8218457182e+00 
40800 4.9464895057e+00 9.3870435983e-05 1.6291904518e+00 -2.8218406377e+00 1.6291904518e+00 2.8218406377e+00 
40900 4.9464895164e+00 9.2194512645e-05 1.6291875709e+00 -2.8218356478e+00 1.6291875709e+00 2.8218356478e+00 
41000 4.9464895270e+00 9.0548462759e-05 1.6291847414e+00 -2.8218307470e+00 1.6291847414e+00 2.8218307470e+00 
41100 4.9464895372e+00 8.8931742261e-05 1.6291819625e+00 -2.8218259338e+00 1.6291819625e+00 2.8218259338e+00 
41200 4.9464895473e+00 8.7343817547e-05 1.6291792331e+00 -2.8218212064e+00 1.6291792331e+00 2.8218212064e+00 
41300 4.9464895572e+00 8.5784165266e-05 1.6291765525e+00 -2.8218165635e+00 1.6291765525e+00 2.8218165635e+00 
41400 4.9464895669e+00 8.4252272116e-05 1.6291739198e+00 -2.8218120034e+00 1.6291739198e+00 2.8218120034e+00 
41500 4.9464895765e+00 8.2747634648e-05 1.6291713340e+00 -2.8218075248e+00 1.6291713340e+00 2.8218075248e+00 
41600 4.9464895858e+00 8.1269759067e-05 1.6291687945e+00 -2.8218031261e+00 1.6291687945e+00 2.8218031261e+00 
41700 4.9464895949e+00 7.9818161034e-05 1.6291663003e+00 -2.8217988060e+00 1.6291663003e+00 2.8217988060e+00 
41800 4.9464896039e+00 7.8392365492e-05 1.6291638506e+00 -2.8217945631e+00 1.6291638506e+00 2.8217945631e+00 
41900 4.9464896127e+00 7.6991906461e-05 1.6291614447e+00 -2.8217903960e+00 1.6291614447e+00 2.8217903960e+00 
42000 4.9464896213e+00 7.5616326868e-05 1.6291590818e+00 -2.8217863032e+00 1.6291590818e+00 2.8217863032e+00 
42100 4.9464896297e+00 7.4265178361e-05 1.6291567611e+00 -2.8217822836e+00 1.6291567611e+00 2.8217822836e+00 
42200 4.9464896380e+00 7.2938021136e-05 1.6291544818e+00 -2.8217783359e+00 1.6291544818e+00 2.8217783359e+00 
42300 4.9464896462e+00 7.1634423764e-05 1.6291522433e+00 -2.8217744586e+00 1.6291522433e+00 2.8217744586e+00 
42400 4.9464896541e+00 7.0353963019e-05 1.6291500448e+00 -2.8217706507e+00 1.6291500448e+00 2.8217706507e+00 
42500 4.9464896621e+00 7.0484919544e-05 1.6291500448e+00 -2.8217706507e+00 1.6291500448e+00 2.8217706507e+00 
42600 4.9464896700e+00 7.0621600489e-05 1.6291500448e+00 -2.8217706507e+00 1.6291500448e+00 2.8217706507e+00 
42700 4.9464896776e+00 7.0763681619e-05 1.6291500448e+00 -2.8217706507e+00 1.6291500448e+00 2.8217706507e+00 
42800 4.9464896850e+00 6.9514068116e-05 1.6291478730e+00 -2.8217668890e+00 1.6291478730e+00 2.8217668890e+00 
42900 4.9464896924e+00 6.9657723251e-05 1.6291478730e+00 -2.8217668890e+00 1.6291478730e+00 2.8217668890e+00 
43000 4.9464896996e+00 6.9806066654e-05 1.6291478730e+00 -2.8217668890e+00 1.6291478730e+00 2.8217668890e+00 
43100 4.9464897067e+00 6.9958801573e-05 1.6291478730e+00 -2.8217668890e+00 1.6291478730e+00 2.8217668890e+00 
43200 4.9464897137e+00 7.0115638275e-05 1.6291478730e+00 -2.8217668890e+00 1.6291478730e+00 2.8217668890e+00 
43300 4.9464897205e+00 7.0276294120e-05 1.6291478730e+00 -2.8217668890e+00 1.6291478730e+00 2.8217668890e+00 
43400 4.9464897272e+00 7.0440493626e-05 1.6291478730e+00 -2.8217668890e+00 1.6291478730e+00 2.8217668890e+00 
43500 4.9464897337e+00 7.0607968515e-05 1.6291478730e+00 -2.8217668890e+00 1.6291478730e+00 2.8217668890e+00 
43600 4.9464897402e+00 7.0778457746e-05 1.6291478730e+00 -2.8217668890e+00 1.6291478730e+00 2.8217668890e+00 
43700 4.9464897463e+00 6.9554646063e-05 1.6291457007e+00 -2.8217631266e+00 1.6291457007e+00 2.8217631266e+00 
43800 4.9464897525e+00 6.9722126418e-05 1.6291457007e+00 -2.8217631266e+00 1.6291457007e+00 2.8217631266e+00 
43900 4.9464897585e+00 6.9892100699e-05 1.6291457007e+00 -2.8217631266e+00 1.6291457007e+00 2.8217631266e+00 
44000 4.9464897645e+00 7.0064336240e-05 1.6291457007e+00 -2.8217631266e+00 1.6291457007e+00 2.8217631266e+00 
44100 4.9464897703e+00 7.0238607368e-05 1.6291457007e+00 -2.8217631266e+00 1.6291457007e+00 2.8217631266e+00 
44200 4.9464897760e+00 7.0414695380e-05 1.6291457007e+00 -2.8217631266e+00 1.6291457007e+00 2.8217631266e+00 
44300 4.9464897816e+00 7.0592388523e-05 1.6291457007e+00 -2.8217631266e+00 1.6291457007e+00 2.8217631266e+00 
44400 4.9464897871e+00 7.0771481961e-05 1.6291457007e+00 -2.8217631266e+00 1.6291457007e+00 2.8217631266e+00 
44500 4.9464897923e+00 6.9554855805e-05 1.6291435287e+00 -2.8217593645e+00 1.6291435287e+00 2.8217593645e+00 
44600 4.9464897976e+00 6.9727879776e-05 1.6291435287e+00 -2.8217593645e+00 1.6291435287e+00 2.8217593645e+00 
44700 4.9464898028e+00 6.9901949619e-05 1.6291435287e+00 -2.8217593645e+00 1.6291435287e+00 2.8217593645e+00 
44800 4.9464898079e+00 7.0076886948e-05 1.6291435287e+00 -2.8217593645e+00 1.6291435287e+00 2.8217593645e+00 
44900 4.9464898129e+00 7.0252519747e-05 1.6291435287e+00 -2.8217593645e+00 1.6291435287e+00 2.8217593645e+00 
45000 4.9464898178e+00 7.0428682311e-05 1.6291435287e+00 -2.8217593645e+00 1.6291435287e+00 2.8217593645e+00 
45100 4.9464898226e+00 7.0605215173e-05 1.6291435287e+00 -2.8217593645e+00 1.6291435287e+00 2.8217593645e+00 
45200 4.9464898273e+00 7.0781965031e-05 1.6291435287e+00 -2.8217593645e+00 1.6291435287e+00 2.8217593645e+00 
45300 4.9464898317e+00 6.9561654492e-05 1.6291413563e+00 -2.8217556018e+00 1.6291413563e+00 2.8217556018e+00 
45400 4.9464898362e+00 6.9730118281e-05 1.6291413563e+00 -2.8217556018e+00 1.6291413563e+00 2.8217556018e+00 
45500 4.9464898407e+00 6.9898594407e-05 1.6291413563e+00 -2.8217556018e+00 1.6291413563e+00 2.8217556018e+00 
45600 4.9464898450e+00 7.0066952662e-05 1.6291413563e+00 -2.8217556018e+00 1.6291413563e+00 2.8217556018e+00 
45700 4.9464898493e+00 7.0235068301e-05 1.6291413563e+00 -2.8217556018e+00 1.6291413563e+00 2.8217556018e+00 
45800 4.9464898535e+00 7.0402821952e-05 1.6291413563e+00 -2.8217556018e+00 1.6291413563e+00 2.8217556018e+00 
45900 4.9464898576e+00 7.0570099525e-05 1.6291413563e+00 -2.8217556018e+00 1.6291413563e+00 2.8217556018e+00 
46000 4.9464898616e+00 7.0736792121e-05 1.6291413563e+00 -2.8217556018e+00 1.6291413563e+00 2.8217556018e+00 
46100 4.9464898654e+00 6.9506553628e-05 1.6291391853e+00 -2.8217518416e+00 1.6291391853e+00 2.8217518416e+00 
46200 4.9464898693e+00 6.9663490630e-05 1.6291391853e+00 -2.8217518416e+00 1.6291391853e+00 2.8217518416e+00 
46300 4.9464898731e+00 6.9819765074e-05 1.6291391853e+00 -2.8217518416e+00 1.6291391853e+00 2.8217518416e+00 
46400 4.9464898769e+00 6.9975287123e-05 1.6291391853e+00 -2.8217518416e+00 1.6291391853e+00 2.8217518416e+00 
46500 4.9464898805e+00 7.0129971369e-05 1.6291391853e+00 -2.8217518416e+00 1.6291391853e+00 2.8217518416e+00 
46600 4.9464898841e+00 7.0283736740e-05 1.6291391853e+00 -2.8217518416e+00 1.6291391853e+00 2.8217518416e+00 
46700 4.9464898877e+00 7.0436506407e-05 1.6291391853e+00 -2.8217518416e+00 1.6291391853e+00 2.8217518416e+00 
46800 4.9464898911e+00 7.0588207690e-05 1.6291391853e+00 -2.8217518416e+00 1.6291391853e+00 2.8217518416e+00 
46900 4.9464898945e+00 7.0738771956e-05 1.6291391853e+00 -2.8217518416e+00 1.6291391853e+00 2.8217518416e+00 
47000 4.9464898977e+00 6.9491847393e-05 1.6291370143e+00 -2.8217480812e+00 1.6291370143e+00 2.8217480812e+00 
47100 4.9464899009e+00 6.9631667945e-05 1.6291370143e+00 -2.8217480812e+00 1.6291370143e+00 2.8217480812e+00 
47200 4.9464899042e+00 6.9770387867e-05 1.6291370143e+00 -2.8217480812e+00 1.6291370143e+00 2.8217480812e+00 
47300 4.9464899073e+00 6.9907953039e-05 1.6291370143e+00 -2.8217480812e+00 1.6291370143e+00 2.8217480812e+00 
47400 4.9464899104e+00 7.0044312642e-05 1.6291370143e+00 -2.8217480812e+00 1.6291370143e+00 2.8217480812e+00 
47500 4.9464899134e+00 7.0179419074e-05 1.6291370143e+00 -2.8217480812e+00 1.6291370143e+00 2.8217480812e+00 
47600 4.9464899164e+00 7.0313227861e-05 1.6291370143e+00 -2.8217480812e+00 1.6291370143e+00 2.8217480812e+00 
47700 4.9464899193e+00 7.0445697573e-05 1.6291370143e+00 -2.8217480812e+00 1.6291370143e+00 2.8217480812e+00 
47800 4.9464899222e+00 7.0576789736e-05 1.6291370143e+00 -2.8217480812e+00 1.6291370143e+00 2.8217480812e+00 
47900 4.9464899250e+00 7.0706468748e-05 1.6291370143e+00 -2.8217480812e+00 1.6291370143e+00 2.8217480812e+00 
48000 4.9464899278e+00 7.0834701793e-05 1.6291370143e+00 -2.8217480812e+00 1.6291370143e+00 2.8217480812e+00 
48100 4.9464899303e+00 6.9563270097e-05 1.6291348403e+00 -2.8217443157e+00 1.6291348403e+00 2.8217443157e+00 
48200 4.9464899330e+00 6.9680232756e-05 1.6291348403e+00 -2.8217443157e+00 1.6291348403e+00 2.8217443157e+00 
48300 4.9464899356e+00 6.9795886115e-05 1.6291348403e+00 -2.8217443157e+00 1.6291348403e+00 2.8217443157e+00 
48400 4.9464899382e+00 6.9910206947e-05 1.6291348403e+00 -2.8217443157e+00 1.6291348403e+00 2.8217443157e+00 
48500 4.9464899407e+00 7.0023174131e-05 1.6291348403e+00 -2.8217443157e+00 1.6291348403e+00 2.8217443157e+00 
48600 4.9464899431e+00 7.0134768593e-05 1.6291348403e+00 -2.8217443157e+00 1.6291348403e+00 2.8217443157e+00 
48700 4.9464899456e+00 7.0244973225e-05 1.6291348403e+00 -2.8217443157e+00 1.6291348403e+00 2.8217443157e+00 
48800 4.9464899480e+00 7.0353772830e-05 1.6291348403e+00 -2.8217443157e+00 1.6291348403e+00 2.8217443157e+00 
48900 4.9464899503e+00 7.0461154050e-05 1.6291348403e+00 -2.8217443157e+00 1.6291348403e+00 2.8217443157e+00 
49000 4.9464899526e+00 7.0567105300e-05 1.6291348403e+00 -2.8217443157e+00 1.6291348403e+00 2.8217443157e+00 
49100 4.9464899548e+00 7.0671616706e-05 1.6291348403e+00 -2.8217443157e+00 1.6291348403e+00 2.8217443157e+00 
49200 4.9464899571e+00 7.0774680039e-05 1.6291348403e+00 -2.8217443157e+00 1.6291348403e+00 2.8217443157e+00 
49300 4.9464899590e+00 6.9479274849e-05 1.6291326681e+00 -2.8217405535e+00 1.6291326681e+00 2.8217405535e+00 
49400 4.9464899612e+00 6.9571139985e-05 1.6291326681e+00 -2.8217405535e+00 1.6291326681e+00 2.8217405535e+00 
49500 4.9464899633e+00 6.9661760673e-05 1.6291326681e+00 -2.8217405535e+00 1.6291326681e+00 2.8217405535e+00 
49600 4.9464899653e+00 6.9751133942e-05 1.6291326681e+00 -2.8217405535e+00 1.6291326681e+00 2.8217405535e+00 
49700 4.9464899673e+00 6.9839257910e-05 1.6291326681e+00 -2.8217405535e+00 1.6291326681e+00 2.8217405535e+00 
49800 4.9464899693e+00 6.9926131734e-05 1.6291326681e+00 -2.8217405535e+00 1.6291326681e+00 2.8217405535e+00 
49900 4.9464899713e+00 7.0011755570e-05 1.6291326681e+00 -2.8217405535e+00 1.6291326681e+00 2.8217405535e+00 
50000 4.9464899732e+00 7.0096130530e-05 1.6291326681e+00 -2.8217405535e+00 1.6291326681e+00 2.8217405535e+00 
50100 4.9464899751e+00 7.0179258638e-05 1.6291326681e+00 -2.8217405535e+00 1.6291326681e+00 2.8217405535e+00 
50200 4.9464899769e+00 7.0261142795e-05 1.6291326681e+00 -2.8217405535e+00 1.6291326681e+00 2.8217405535e+00 
50300 4.9464899787e+00 7.0341786732e-05 1.6291326681e+00 -2.8217405535e+00 1.6291326681e+00 2.8217405535e+00 
50400 4.9464899805e+00 7.0421194977e-05 1.6291326681e+00 -2.8217405535e+00 1.6291326681e+00 2.8217405535e+00 
50500 4.9464899822e+00 7.0499372813e-05 1.6291326681e+00 -2.8217405535e+00 1.6291326681e+00 2.8217405535e+00 
50600 4.9464899840e+00 7.0576326243e-05 1.6291326681e+00 -2.8217405535e+00 1.6291326681e+00 2.8217405535e+00 
50700 4.9464899856e+00 7.0652061952e-05 1.6291326681e+00 -2.8217405535e+00 1.6291326681e+00 2.8217405535e+00 
50800 4.9464899873e+00 7.0726587273e-05 1.6291326681e+00 -2.8217405535e+00 1.6291326681e+00 2.8217405535e+00 
50900 4.9464899887e+00 6.9403832973e-05 1.6291304974e+00 -2.8217367937e+00 1.6291304974e+00 2.8217367937e+00 
51000 4.9464899903e+00 6.9467684031e-05 1.6291304974e+00 -2.8217367937e+00 1.6291304974e+00 2.8217367937e+00 
51100 4.9464899919e+00 6.9530569135e-05 1.6291304974e+00 -2.8217367937e+00 1.6291304974e+00 2.8217367937e+00 
51200 4.9464899934e+00 6.9592497160e-05 1.6291304974e+00 -2.8217367937e+00 1.6291304974e+00 2.8217367937e+00 
51300 4.9464899949e+00 6.9653477215e-05 1.6291304974e+00 -2.8217367937e+00 1.6291304974e+00 2.8217367937e+00 
51400 4.9464899964e+00 6.9713518612e-05 1.6291304974e+00 -2.8217367937e+00 1.6291304974e+00 2.8217367937e+00 
51500 4.9464899979e+00 6.9772630860e-05 1.6291304974e+00 -2.8217367937e+00 1.6291304974e+00 2.8217367937e+00 
51600 4.9464899993e+00 6.9830823647e-05 1.6291304974e+00 -2.8217367937e+00 1.6291304974e+00 2.8217367937e+00 
51700 4.9464900007e+00 6.9888106823e-05 1.6291304974e+00 -2.8217367937e+00 1.6291304974e+00 2.8217367937e+00 
51800 4.9464900021e+00 6.9944490386e-05 1.6291304974e+00 -2.8217367937e+00 1.6291304974e+00 2.8217367937e+00 
51900 4.9464900035e+00 6.9999984473e-05 1.6291304974e+00 -2.8217367937e+00 1.6291304974e+00 2.8217367937e+00 
52000 4.9464900048e+00 7.0054599337e-05 1.6291304974e+00 -2.8217367937e+00 1.6291304974e+00 2.8217367937e+00 
52100 4.9464900061e+00 7.0108345346e-05 1.6291304974e+00 -2.8217367937e+00 1.6291304974e+00 2.8217367937e+00 
52200 4.9464900074e+00 7.0161232960e-05 1.6291304974e+00 -2.8217367937e+00 1.6291304974e+00 2.8217367937e+00 
52300 4.9464900087e+00 7.0213272727e-05 1.6291304974e+00 -2.8217367937e+00 1.6291304974e+00 2.8217367937e+00 
52400 4.9464900099e+00 7.0264475266e-05 1.6291304974e+00 -2.8217367937e+00 1.6291304974e+00 2.8217367937e+00 
52500 4.9464900111e+00 7.0314851261e-05 1.6291304974e+00 -2.8217367937e+00 1.6291304974e+00 2.8217367937e+00 
52600 4.9464900123e+00 7.0364411446e-05 1.6291304974e+00 -2.8217367937e+00 1.6291304974e+00 2.8217367937e+00 
52700 4.9464900135e+00 7.0413166597e-05 1.6291304974e+00 -2.8217367937e+00 1.6291304974e+00 2.8217367937e+00 
52800 4.9464900147e+00 7.0461127524e-05 1.6291304974e+00 -2.8217367937e+00 1.6291304974e+00 2.8217367937e+00 
52900 4.9464900158e+00 7.0508305059e-05 1.6291304974e+00 -2.8217367937e+00 1.6291304974e+00 2.8217367937e+00 
53000 4.9464900169e+00 7.0554710047e-05 1.6291304974e+00 -2.8217367937e+00 1.6291304974e+00 2.8217367937e+00 
53100 4.9464900180e+00 7.0600353338e-05 1.6291304974e+00 -2.8217367937e+00 1.6291304974e+00 2.8217367937e+00 
53200 4.9464900191e+00 7.0645245784e-05 1.6291304974e+00 -2.8217367937e+00 1.6291304974e+00 2.8217367937e+00 
53300 4.9464900202e+00 7.0689398222e-05 1.6291304974e+00 -2.8217367937e+00 1.6291304974e+00 2.8217367937e+00 
53400 4.9464900212e+00 7.0732821471e-05 1.6291304974e+00 -2.8217367937e+00 1.6291304974e+00 2.8217367937e+00 
53500 4.9464900221e+00 6.9379308321e-05 1.6291283266e+00 -2.8217330337e+00 1.6291283266e+00 2.8217330337e+00 
53600 4.9464900231e+00 6.9413027089e-05 1.6291283266e+00 -2.8217330337e+00 1.6291283266e+00 2.8217330337e+00 
53700 4.9464900241e+00 6.9446267844e-05 1.6291283266e+00 -2.8217330337e+00 1.6291283266e+00 2.8217330337e+00 
53800 4.9464900250e+00 6.9479040561e-05 1.6291283266e+00 -2.8217330337e+00 1.6291283266e+00 2.8217330337e+00 
53900 4.9464900260e+00 6.9511354909e-05 1.6291283266e+00 -2.8217330337e+00 1.6291283266e+00 2.8217330337e+00 
54000 4.9464900269e+00 6.9543220256e-05 1.6291283266e+00 -2.8217330337e+00 1.6291283266e+00 2.8217330337e+00 
54100 4.9464900279e+00 6.9574645683e-05 1.6291283266e+00 -2.8217330337e+00 1.6291283266e+00 2.8217330337e+00 
54200 4.9464900288e+00 6.9605639985e-05 1.6291283266e+00 -2.8217330337e+00 1.6291283266e+00 2.8217330337e+00 
54300 4.9464900297e+00 6.9636211685e-05 1.6291283266e+00 -2.8217330337e+00 1.6291283266e+00 2.8217330337e+00 
54400 4.9464900305e+00 6.9666369036e-05 1.6291283266e+00 -2.8217330337e+00 1.6291283266e+00 2.8217330337e+00 
54500 4.9464900314e+00 6.9696120036e-05 1.6291283266e+00 -2.8217330337e+00 1.6291283266e+00 2.8217330337e+00 
54600 4.9464900323e+00 6.9725472429e-05 1.6291283266e+00 -2.8217330337e+00 1.6291283266e+00 2.8217330337e+00 
54700 4.9464900331e+00 6.9754433720e-05 1.6291283266e+00 -2.8217330337e+00 1.6291283266e+00 2.8217330337e+00 
54800 4.9464900339e+00 6.9783011175e-05 1.6291283266e+00 -2.8217330337e+00 1.6291283266e+00 2.8217330337e+00 
54900 4.9464900347e+00 6.9811211836e-05 1.6291283266e+00 -2.8217330337e+00 1.6291283266e+00 2.8217330337e+00 
55000 4.9464900355e+00 6.9839042524e-05 1.6291283266e+00 -2.8217330337e+00 1.6291283266e+00 2.8217330337e+00 
55100 4.9464900363e+00 6.9866509847e-05 1.6291283266e+00 -2.8217330337e+00 1.6291283266e+00 2.8217330337e+00 
55200 4.9464900371e+00 6.9893620210e-05 1.6291283266e+00 -2.8217330337e+00 1.6291283266e+00 2.8217330337e+00 
55300 4.9464900378e+00 6.9920379818e-05 1.6291283266e+00 -2.8217330337e+00 1.6291283266e+00 2.8217330337e+00 
55400 4.9464900386e+00 6.9946794690e-05 1.6291283266e+00 -2.8217330337e+00 1.6291283266e+00 2.8217330337e+00 
55500 4.9464900393e+00 6.9972870655e-05 1.6291283266e+00 -2.8217330337e+00 1.6291283266e+00 2.8217330337e+00 
55600 4.9464900400e+00 6.9998613370e-05 1.6291283266e+00 -2.8217330337e+00 1.6291283266e+00 2.8217330337e+00 
55700 4.9464900407e+00 7.0024028321e-05 1.6291283266e+00 -2.8217330337e+00 1.6291283266e+00 2.8217330337e+00 
55800 4.9464900414e+00 7.0049120828e-05 1.6291283266e+00 -2.8217330337e+00 1.6291283266e+00 2.8217330337e+00 
55900 4.9464900421e+00 7.0073896055e-05 1.6291283266e+00 -2.8217330337e+00 1.6291283266e+00 2.8217330337e+00 
56000 4.9464900427e+00 7.0098359017e-05 1.6291283266e+00 -2.8217330337e+00 1.6291283266e+00 2.8217330337e+00 
56100 4.9464900434e+00 7.0122514579e-05 1.6291283266e+00 -2.8217330337e+00 1.6291283266e+00 2.8217330337e+00 
56200 4.9464900441e+00 7.0146367470e-05 1.6291283266e+00 -2.8217330337e+00 1.6291283266e+00 2.8217330337e+00 
56300 4.9464900447e+00 7.0169922283e-05 1.6291283266e+00 -2.8217330337e+00 1.6291283266e+00 2.8217330337e+00 
56400 4.9464900453e+00 7.0193183483e-05 1.6291283266e+00 -2.8217330337e+00 1.6291283266e+00 2.8217330337e+00 
56500 4.9464900459e+00 7.0216155414e-05 1.6291283266e+00 -2.8217330337e+00 1.6291283266e+00 2.8217330337e+00 
56600 4.9464900465e+00 7.0238842299e-05 1.6291283266e+00 -2.8217330337e+00 1.6291283266e+00 2.8217330337e+00 
56700 4.9464900471e+00 7.0261248247e-05 1.6291283266e+00 -2.8217330337e+00 1.6291283266e+00 2.8217330337e+00 
56800 4.9464900477e+00 7.0283377262e-05 1.6291283266e+00 -2.8217330337e+00 1.6291283266e+00 2.8217330337e+00 
56900 4.9464900483e+00 7.0305233243e-05 1.6291283266e+00 -2.8217330337e+00 1.6291283266e+00 2.8217330337e+00 
57000 4.9464900489e+00 7.0326819987e-05 1.6291283266e+00 -2.8217330337e+00 1.6291283266e+00 2.8217330337e+00 
57100 4.9464900494e+00 7.0348141201e-05 1.6291283266e+00 -2.8217330337e+00 1.6291283266e+00 2.8217330337e+00 
57200 4.9464900500e+00 7.0369200497e-05 1.6291283266e+00 -2.8217330337e+00 1.6291283266e+00 2.8217330337e+00 
57300 4.9464900505e+00 7.0390001401e-05 1.6291283266e+00 -2.8217330337e+00 1.6291283266e+00 2.8217330337e+00 
57400 4.9464900510e+00 7.0410547358e-05 1.6291283266e+00 -2.8217330337e+00 1.6291283266e+00 2.8217330337e+00 
57500 4.9464900516e+00 7.0430841730e-05 1.6291283266e+00 -2.8217330337e+00 1.6291283266e+00 2.8217330337e+00 
57600 4.9464900521e+00 7.0450887806e-05 1.6291283266e+00 -2.8217330337e+00 1.6291283266e+00 2.8217330337e+00 
57700 4.9464900526e+00 7.0470688802e-05 1.6291283266e+00 -2.8217330337e+00 1.6291283266e+00 2.8217330337e+00 
57800 4.9464900531e+00 7.0490247864e-05 1.6291283266e+00 -2.8217330337e+00 1.6291283266e+00 2.8217330337e+00 
57900 4.9464900536e+00 7.0509568074e-05 1.6291283266e+00 -2.8217330337e+00 1.6291283266e+00 2.8217330337e+00 
58000 4.9464900540e+00 7.0528652447e-05 1.6291283266e+00 -2.8217330337e+00 1.6291283266e+00 2.8217330337e+00 
58100 4.9464900545e+00 7.0547503941e-05 1.6291283266e+00 -2.8217330337e+00 1.6291283266e+00 2.8217330337e+00 
58200 4.9464900550e+00 7.0566125457e-05 1.6291283266e+00 -2.8217330337e+00 1.6291283266e+00 2.8217330337e+00 
58300 4.9464900554e+00 7.0584519839e-05 1.6291283266e+00 -2.8217330337e+00 1.6291283266e+00 2.8217330337e+00 
58400 4.9464900559e+00 7.0602689879e-05 1.6291283266e+00 -2.8217330337e+00 1.6291283266e+00 2.8217330337e+00 
58500 4.9464900563e+00 7.0620638319e-05 1.6291283266e+00 -2.8217330337e+00 1.6291283266e+00 2.8217330337e+00 
58600 4.9464900568e+00 7.0638367854e-05 1.6291283266e+00 -2.8217330337e+00 1.6291283266e+00 2.8217330337e+00 
58700 4.9464900572e+00 7.0655881133e-05 1.6291283266e+00 -2.8217330337e+00 1.6291283266e+00 2.8217330337e+00 
58800 4.9464900576e+00 7.0673180762e-05 1.6291283266e+00 -2.8217330337e+00 1.6291283266e+00 2.8217330337e+00 
58900 4.9464900580e+00 7.0690269304e-05 1.6291283266e+00 -2.8217330337e+00 1.6291283266e+00 2.8217330337e+00 
59000 4.9464900584e+00 7.0707149283e-05 1.6291283266e+00 -2.8217330337e+00 1.6291283266e+00 2.8217330337e+00 
59100 4.9464900588e+00 7.0723823185e-05 1.6291283266e+00 -2.8217330337e+00 1.6291283266e+00 2.8217330337e+00 
59200 4.9464900591e+00 6.9344225197e-05 1.6291261560e+00 -2.8217292741e+00 1.6291261560e+00 2.8217292741e+00 
59300 4.9464900594e+00 6.9352217093e-05 1.6291261560e+00 -2.8217292741e+00 1.6291261560e+00 2.8217292741e+00 
59400 4.9464900598e+00 6.9360228989e-05 1.6291261560e+00 -2.8217292741e+00 1.6291261560e+00 2.8217292741e+00 
59500 4.9464900602e+00 6.9368262533e-05 1.6291261560e+00 -2.8217292741e+00 1.6291261560e+00 2.8217292741e+00 
59600 4.9464900606e+00 6.9376319083e-05 1.6291261560e+00 -2.8217292741e+00 1.6291261560e+00 2.8217292741e+00 
59700 4.9464900609e+00 6.9384399726e-05 1.6291261560e+00 -2.8217292741e+00 1.6291261560e+00 2.8217292741e+00 
59800 4.9464900613e+00 6.9392505291e-05 1.6291261560e+00 -2.8217292741e+00 1.6291261560e+00 2.8217292741e+00 
59900 4.9464900616e+00 6.9400636363e-05 1.6291261560e+00 -2.8217292741e+00 1.6291261560e+00 2.8217292741e+00 
60000 4.9464900620e+00 6.9408793297e-05 1.6291261560e+00 -2.8217292741e+00 1.6291261560e+00 2.8217292741e+00 
60100 4.9464900623e+00 6.9416976232e-05 1.6291261560e+00 -2.8217292741e+00 1.6291261560e+00 2.8217292741e+00 
60200 4.9464900627e+00 6.9425185102e-05 1.6291261560e+00 -2.8217292741e+00 1.6291261560e+00 2.8217292741e+00 
60300 4.9464900630e+00 6.9433419654e-05 1.6291261560e+00 -2.8217292741e+00 1.6291261560e+00 2.8217292741e+00 
60400 4.9464900633e+00 6.9441679454e-05 1.6291261560e+00 -2.8217292741e+00 1.6291261560e+00 2.8217292741e+00 
60500 4.9464900637e+00 6.9449963902e-05 1.6291261560e+00 -2.8217292741e+00 1.6291261560e+00 2.8217292741e+00 
60600 4.9464900640e+00 6.9458272245e-05 1.6291261560e+00 -2.8217292741e+00 1.6291261560e+00 2.8217292741e+00 
60700 4.9464900643e+00 6.9466603585e-05 1.6291261560e+00 -2.8217292741e+00 1.6291261560e+00 2.8217292741e+00 
60800 4.9464900646e+00 6.9474956894e-05 1.6291261560e+00 -2.8217292741e+00 1.6291261560e+00 2.8217292741e+00 
60900 4.9464900649e+00 6.9483331021e-05 1.6291261560e+00 -2.8217292741e+00 1.6291261560e+00 2.8217292741e+00 
61000 4.9464900652e+00 6.9491724702e-05 1.6291261560e+00 -2.8217292741e+00 1.6291261560e+00 2.8217292741e+00 
61100 4.9464900655e+00 6.9500136575e-05 1.6291261560e+00 -2.8217292741e+00 1.6291261560e+00 2.8217292741e+00 
61200 4.9464900658e+00 6.9508565180e-05 1.6291261560e+00 -2.8217292741e+00 1.6291261560e+00 2.8217292741e+00 
61300 4.9464900660e+00 6.9517008979e-05 1.6291261560e+00 -2.8217292741e+00 1.6291261560e+00 2.8217292741e+00 
61400 4.9464900663e+00 6.9525466357e-05 1.6291261560e+00 -2.8217292741e+00 1.6291261560e+00 2.8217292741e+00 
61500 4.9464900666e+00 6.9533935631e-05 1.6291261560e+00 -2.8217292741e+00 1.6291261560e+00 2.8217292741e+00 
61600 4.9464900669e+00 6.9542415062e-05 1.6291261560e+00 -2.8217292741e+00 1.6291261560e+00 2.8217292741e+00 
61700 4.9464900671e+00 6.9550902857e-05 1.6291261560e+00 -2.8217292741e+00 1.6291261560e+00 2.8217292741e+00 
61800 4.9464900674e+00 6.9559397184e-05 1.6291261560e+00 -2.8217292741e+00 1.6291261560e+00 2.8217292741e+00 
61900 4.9464900676e+00 6.9567896170e-05 1.6291261560e+00 -2.8217292741e+00 1.6291261560e+00 2.8217292741e+00 
62000 4.9464900679e+00 6.9576397912e-05 1.6291261560e+00 -2.8217292741e+00 1.6291261560e+00 2.8217292741e+00 
62100 4.9464900681e+00 6.9584900485e-05 1.6291261560e+00 -2.8217292741e+00 1.6291261560e+00 2.8217292741e+00 
62200 4.9464900684e+00 6.9593401945e-05 1.6291261560e+00 -2.8217292741e+00 1.6291261560e+00 2.8217292741e+00 
62300 4.9464900686e+00 6.9601900335e-05 1.6291261560e+00 -2.8217292741e+00 1.6291261560e+00 2.8217292741e+00 
62400 4.9464900689e+00 6.9610393691e-05 1.6291261560e+00 -2.8217292741e+00 1.6291261560e+00 2.8217292741e+00 
62500 4.9464900691e+00 6.9618880047e-05 1.6291261560e+00 -2.8217292741e+00 1.6291261560e+00 2.8217292741e+00 
62600 4.9464900693e+00 6.9627357440e-05 1.6291261560e+00 -2.8217292741e+00 1.6291261560e+00 2.8217292741e+00 
62700 4.9464900696e+00 6.9635823912e-05 1.6291261560e+00 -2.8217292741e+00 1.6291261560e+00 2.8217292741e+00 
62800 4.9464900698e+00 6.9644277518e-05 1.6291261560e+00 -2.8217292741e+00 1.6291261560e+00 2.8217292741e+00 
62900 4.9464900700e+00 6.9652716328e-05 1.6291261560e+00 -2.8217292741e+00 1.6291261560e+00 2.8217292741e+00 
63000 4.9464900702e+00 6.9661138429e-05 1.6291261560e+00 -2.8217292741e+00 1.6291261560e+00 2.8217292741e+00 
63100 4.9464900704e+00 6.9669541932e-05 1.6291261560e+00 -2.8217292741e+00 1.6291261560e+00 2.8217292741e+00 
63200 4.9464900706e+00 6.9677924972e-05 1.6291261560e+00 -2.8217292741e+00 1.6291261560e+00 2.8217292741e+00 
63300 4.9464900708e+00 6.9686285712e-05 1.6291261560e+00 -2.8217292741e+00 1.6291261560e+00 2.8217292741e+00 
63400 4.9464900711e+00 6.9694622347e-05 1.6291261560e+00 -2.8217292741e+00 1.6291261560e+00 2.8217292741e+00 
63500 4.9464900713e+00 6.9702933104e-05 1.6291261560e+00 -2.8217292741e+00 1.6291261560e+00 2.8217292741e+00 
63600 4.9464900714e+00 6.9711216246e-05 1.6291261560e+00 -2.8217292741e+00 1.6291261560e+00 2.8217292741e+00 
63700 4.9464900716e+00 6.9719470076e-05 1.6291261560e+00 -2.8217292741e+00 1.6291261560e+00 2.8217292741e+00 
63800 4.9464900718e+00 6.9727692931e-05 1.6291261560e+00 -2.8217292741e+00 1.6291261560e+00 2.8217292741e+00 
63900 4.9464900720e+00 6.9735883194e-05 1.6291261560e+00 -2.8217292741e+00 1.6291261560e+00 2.8217292741e+00 
64000 4.9464900722e+00 6.9744039292e-05 1.6291261560e+00 -2.8217292741e+00 1.6291261560e+00 2.8217292741e+00 
64100 4.9464900724e+00 6.9752159690e-05 1.6291261560e+00 -2.8217292741e+00 1.6291261560e+00 2.8217292741e+00 
64200 4.9464900726e+00 6.9760242904e-05 1.6291261560e+00 -2.8217292741e+00 1.6291261560e+00 2.8217292741e+00 
64300 4.9464900727e+00 6.9768287494e-05 1.6291261560e+00 -2.8217292741e+00 1.6291261560e+00 2.8217292741e+00 
64400 4.9464900729e+00 6.9776292069e-05 1.6291261560e+00 -2.8217292741e+00 1.6291261560e+00 2.8217292741e+00 
64500 4.9464900731e+00 6.9784255283e-05 1.6291261560e+00 -2.8217292741e+00 1.6291261560e+00 2.8217292741e+00 
64600 4.9464900733e+00 6.9792175841e-05 1.6291261560e+00 -2.8217292741e+00 1.6291261560e+00 2.8217292741e+00 
64700 4.9464900734e+00 6.9800052497e-05 1.6291261560e+00 -2.8217292741e+00 1.6291261560e+00 2.8217292741e+00 
64800 4.9464900736e+00 6.9807884055e-05 1.6291261560e+00 -2.8217292741e+00 1.6291261560e+00 2.8217292741e+00 
64900 4.9464900738e+00 6.9815669366e-05 1.6291261560e+00 -2.8217292741e+00 1.6291261560e+00 2.8217292741e+00 
65000 4.9464900739e+00 6.9823407335e-05 1.6291261560e+00 -2.8217292741e+00 1.6291261560e+00 2.8217292741e+00 
65100 4.9464900741e+00 6.9831096915e-05 1.6291261560e+00 -2.8217292741e+00 1.6291261560e+00 2.8217292741e+00 
65200 4.9464900742e+00 6.9838737108e-05 1.6291261560e+00 -2.8217292741e+00 1.6291261560e+00 2.8217292741e+00 
65300 4.9464900744e+00 6.9846326967e-05 1.6291261560e+00 -2.8217292741e+00 1.6291261560e+00 2.8217292741e+00 
65400 4.9464900745e+00 6.9853865596e-05 1.6291261560e+00 -2.8217292741e+00 1.6291261560e+00 2.8217292741e+00 
65500 4.9464900747e+00 6.9861352145e-05 1.6291261560e+00 -2.8217292741e+00 1.6291261560e+00 2.8217292741e+00 
65600 4.9464900748e+00 6.9868785815e-05 1.6291261560e+00 -2.8217292741e+00 1.6291261560e+00 2.8217292741e+00 
65700 4.9464900750e+00 6.9876165856e-05 1.6291261560e+00 -2.8217292741e+00 1.6291261560e+00 2.8217292741e+00 
65800 4.9464900751e+00 6.9883491565e-05 1.6291261560e+00 -2.8217292741e+00 1.6291261560e+00 2.8217292741e+00 
65900 4.9464900752e+00 6.9890762285e-05 1.6291261560e+00 -2.8217292741e+00 1.6291261560e+00 2.8217292741e+00 
66000 4.9464900754e+00 6.9897977410e-05 1.6291261560e+00 -2.8217292741e+00 1.6291261560e+00 2.8217292741e+00 
66100 4.9464900755e+00 6.9905136376e-05 1.6291261560e+00 -2.8217292741e+00 1.6291261560e+00 2.8217292741e+00 
66200 4.9464900756e+00 6.9912238665e-05 1.6291261560e+00 -2.8217292741e+00 1.6291261560e+00 2.8217292741e+00 
66300 4.9464900758e+00 6.9919283804e-05 1.6291261560e+00 -2.8217292741e+00 1.6291261560e+00 2.8217292741e+00 
66400 4.9464900759e+00 6.9926271367e-05 1.6291261560e+00 -2.8217292741e+00 1.6291261560e+00 2.8217292741e+00 
66500 4.9464900760e+00 6.9933200965e-05 1.6291261560e+00 -2.8217292741e+00 1.6291261560e+00 2.8217292741e+00 
66600 4.9464900761e+00 6.9940072255e-05 1.6291261560e+00 -2.8217292741e+00 1.6291261560e+00 2.8217292741e+00 
66700 4.9464900763e+00 6.9946884933e-05 1.6291261560e+00 -2.8217292741e+00 1.6291261560e+00 2.8217292741e+00 
66800 4.9464900764e+00 6.9953638738e-05 1.6291261560e+00 -2.8217292741e+00 1.6291261560e+00 2.8217292741e+00 
66900 4.9464900765e+00 6.9960333445e-05 1.6291261560e+00 -2.8217292741e+00 1.6291261560e+00 2.8217292741e+00 
67000 4.9464900766e+00 6.9966968870e-05 1.6291261560e+00 -2.8217292741e+00 1.6291261560e+00 2.8217292741e+00 
67100 4.9464900767e+00 6.9973544863e-05 1.6291261560e+00 -2.8217292741e+00 1.6291261560e+00 2.8217292741e+00 
67200 4.9464900769e+00 6.9980061312e-05 1.6291261560e+00 -2.8217292741e+00 1.6291261560e+00 2.8217292741e+00 
67300 4.9464900770e+00 6.9986518142e-05 1.6291261560e+00 -2.8217292741e+00 1.6291261560e+00 2.8217292741e+00 
67400 4.9464900771e+00 6.9992915309e-05 1.6291261560e+00 -2.8217292741e+00 1.6291261560e+00 2.8217292741e+00 
67500 4.9464900772e+00 6.9999252803e-05 1.6291261560e+00 -2.8217292741e+00 1.6291261560e+00 2.8217292741e+00 
67600 4.9464900773e+00 7.0005530646e-05 1.6291261560e+00 -2.8217292741e+00 1.6291261560e+00 2.8217292741e+00 
67700 4.9464900774e+00 7.0011748893e-05 1.6291261560e+00 -2.8217292741e+00 1.6291261560e+00 2.8217292741e+00 
67800 4.9464900775e+00 7.0017907626e-05 1.6291261560e+00 -2.8217292741e+00 1.6291261560e+00 2.8217292741e+00 
67900 4.9464900776e+00 7.0024006957e-05 1.6291261560e+00 -2.8217292741e+00 1.6291261560e+00 2.8217292741e+00 
68000 4.9464900777e+00 7.0030047026e-05 1.6291261560e+00 -2.8217292741e+00 1.6291261560e+00 2.8217292741e+00 
68100 4.9464900778e+00 7.0036028000e-05 1.6291261560e+00 -2.8217292741e+00 1.6291261560e+00 2.8217292741e+00 
68200 4.9464900779e+00 7.0041950072e-05 1.6291261560e+00 -2.8217292741e+00 1.6291261560e+00 2.8217292741e+00 
68300 4.9464900780e+00 7.0047813457e-05 1.6291261560e+00 -2.8217292741e+00 1.6291261560e+00 2.8217292741e+00 
68400 4.9464900781e+00 7.0053618397e-05 1.6291261560e+00 -2.8217292741e+00 1.6291261560e+00 2.8217292741e+00 
68500 4.9464900782e+00 7.0059365156e-05 1.6291261560e+00 -2.8217292741e+00 1.6291261560e+00 2.8217292741e+00 
68600 4.9464900783e+00 7.0065054018e-05 1.6291261560e+00 -2.8217292741e+00 1.6291261560e+00 2.8217292741e+00 
68700 4.9464900784e+00 7.0070685288e-05 1.6291261560e+00 -2.8217292741e+00 1.6291261560e+00 2.8217292741e+00 
68800 4.9464900785e+00 7.0076259293e-05 1.6291261560e+00 -2.8217292741e+00 1.6291261560e+00 2.8217292741e+00 
68900 4.9464900785e+00 7.0081776376e-05 1.6291261560e+00 -2.8217292741e+00 1.6291261560e+00 2.8217292741e+00 
69000 4.9464900786e+00 7.0087236899e-05 1.6291261560e+00 -2.8217292741e+00 1.6291261560e+00 2.8217292741e+00 
69100 4.9464900787e+00 7.0092641240e-05 1.6291261560e+00 -2.8217292741e+00 1.6291261560e+00 2.8217292741e+00 
69200 4.9464900788e+00 7.0097989794e-05 1.6291261560e+00 -2.8217292741e+00 1.6291261560e+00 2.8217292741e+00 
69300 4.9464900789e+00 7.0103282971e-05 1.6291261560e+00 -2.8217292741e+00 1.6291261560e+00 2.8217292741e+00 
69400 4.9464900790e+00 7.0108521194e-05 1.6291261560e+00 -2.8217292741e+00 1.6291261560e+00 2.8217292741e+00 
69500 4.9464900791e+00 7.0113704899e-05 1.6291261560e+00 -2.8217292741e+00 1.6291261560e+00 2.8217292741e+00 
69600 4.9464900791e+00 7.0118834537e-05 1.6291261560e+00 -2.8217292741e+00 1.6291261560e+00 2.8217292741e+00 
69700 4.9464900792e+00 7.0123910567e-05 1.6291261560e+00 -2.8217292741e+00 1.6291261560e+00 2.8217292741e+00 
69800 4.9464900793e+00 7.0128933461e-05 1.6291261560e+00 -2.8217292741e+00 1.6291261560e+00 2.8217292741e+00 
69900 4.9464900794e+00 7.0133903702e-05 1.6291261560e+00 -2.8217292741e+00 1.6291261560e+00 2.8217292741e+00 
70000 4.9464900794e+00 7.0138821778e-05 1.6291261560e+00 -2.8217292741e+00 1.6291261560e+00 2.8217292741e+00 
70100 4.9464900795e+00 7.0143688191e-05 1.6291261560e+00 -2.8217292741e+00 1.6291261560e+00 2.8217292741e+00 
70200 4.9464900796e+00 7.0148503447e-05 1.6291261560e+00 -2.8217292741e+00 1.6291261560e+00 2.8217292741e+00 
70300 4.9464900797e+00 7.0153268058e-05 1.6291261560e+00 -2.8217292741e+00 1.6291261560e+00 2.8217292741e+00 
70400 4.9464900797e+00 7.0157982547e-05 1.6291261560e+00 -2.8217292741e+00 1.6291261560e+00 2.8217292741e+00 
70500 4.9464900798e+00 7.0162647440e-05 1.6291261560e+00 -2.8217292741e+00 1.6291261560e+00 2.8217292741e+00 
70600 4.9464900799e+00 7.0167263265e-05 1.6291261560e+00 -2.8217292741e+00 1.6291261560e+00 2.8217292741e+00 
70700 4.9464900799e+00 7.0171830561e-05 1.6291261560e+00 -2.8217292741e+00 1.6291261560e+00 2.8217292741e+00 
70800 4.9464900800e+00 7.0176349864e-05 1.6291261560e+00 -2.8217292741e+00 1.6291261560e+00 2.8217292741e+00 
70900 4.9464900801e+00 7.0180821719e-05 1.6291261560e+00 -2.8217292741e+00 1.6291261560e+00 2.8217292741e+00 
71000 4.9464900801e+00 7.0185246670e-05 1.6291261560e+00 -2.8217292741e+00 1.6291261560e+00 2.8217292741e+00 
71100 4.9464900802e+00 7.0189625263e-05 1.6291261560e+00 -2.8217292741e+00 1.6291261560e+00 2.8217292741e+00 
71200 4.9464900803e+00 7.0193958048e-05 1.6291261560e+00 -2.8217292741e+00 1.6291261560e+00 2.8217292741e+00 
71300 4.9464900803e+00 7.0198245575e-05 1.6291261560e+00 -2.8217292741e+00 1.6291261560e+00 2.8217292741e+00 
71400 4.9464900804e+00 7.0202488394e-05 1.6291261560e+00 -2.8217292741e+00 1.6291261560e+00 2.8217292741e+00 
71500 4.9464900804e+00 7.0206687055e-05 1.6291261560e+00 -2.8217292741e+00 1.6291261560e+00 2.8217292741e+00 
71600 4.9464900805e+00 7.0210842110e-05 1.6291261560e+00 -2.8217292741e+00 1.6291261560e+00 2.8217292741e+00 
71700 4.9464900806e+00 7.0214954107e-05 1.6291261560e+00 -2.8217292741e+00 1.6291261560e+00 2.8217292741e+00 
71800 4.9464900806e+00 7.0219023594e-05 1.6291261560e+00 -2.8217292741e+00 1.6291261560e+00 2.8217292741e+00 
71900 4.9464900807e+00 7.0223051119e-05 1.6291261560e+00 -2.8217292741e+00 1.6291261560e+00 2.8217292741e+00 
72000 4.9464900807e+00 7.0227037226e-05 1.6291261560e+00 -2.8217292741e+00 1.6291261560e+00 2.8217292741e+00 
72100 4.9464900808e+00 7.0230982458e-05 1.6291261560e+00 -2.8217292741e+00 1.6291261560e+00 2.8217292741e+00 
72200 4.9464900808e+00 7.0234887356e-05 1.6291261560e+00 -2.8217292741e+00 1.6291261560e+00 2.8217292741e+00 
72300 4.9464900809e+00 7.0238752455e-05 1.6291261560e+00 -2.8217292741e+00 1.6291261560e+00 2.8217292741e+00 
72400 4.9464900809e+00 7.0242578290e-05 1.6291261560e+00 -2.8217292741e+00 1.6291261560e+00 2.8217292741e+00 
72500 4.9464900810e+00 7.0246365392e-05 1.6291261560e+00 -2.8217292741e+00 1.6291261560e+00 2.8217292741e+00 
72600 4.9464900810e+00 7.0250114287e-05 1.6291261560e+00 -2.8217292741e+00 1.6291261560e+00 2.8217292741e+00 
72700 4.9464900811e+00 7.0253825498e-05 1.6291261560e+00 -2.8217292741e+00 1.6291261560e+00 2.8217292741e+00 
72800 4.9464900811e+00 7.0257353288e-05 1.6291261560e+00 -2.8217292741e+00 1.6291261560e+00 2.8217292741e+00 
72800 4.9464900811e+00 7.0257353288e-05 1.6291261560e+00 -2.8217292741e+00 1.6291261560e+00 2.8217292741e+00 
