# step Hamiltonian StressXX CellTensor1 CellTensor2 CellTensor3 CellTensor4 
0 7.1848267285e+00 1.0470579160e-01 1.6495625316e+00 -2.8571261149e+00 1.6495625316e+00 2.8571261149e+00 
100 7.1744035337e+00 1.1039502840e-01 1.6495625316e+00 -2.8571261149e+00 1.6495625316e+00 2.8571261149e+00 
200 7.1632249081e+00 1.1285793225e-01 1.6462174741e+00 -2.8513323054e+00 1.6462174741e+00 2.8513323054e+00 
300 7.1517755960e+00 1.1472909794e-01 1.6427908708e+00 -2.8453972544e+00 1.6427908708e+00 2.8453972544e+00 
400 7.1401159977e+00 1.1605634002e-01 1.6393002145e+00 -2.8393512603e+00 1.6393002145e+00 2.8393512603e+00 
500 7.1282996152e+00 1.1688251037e-01 1.6357616777e+00 -2.8332223348e+00 1.6357616777e+00 2.8332223348e+00 
600 7.1163740020e+00 1.1724631959e-01 1.6321902568e+00 -2.8270364523e+00 1.6321902568e+00 2.8270364523e+00 
700 7.1043815615e+00 1.1718303160e-01 1.6285998903e+00 -2.8208177552e+00 1.6285998903e+00 2.8208177552e+00 
800 7.0923602146e+00 1.1672504518e-01 1.6250035560e+00 -2.8145887215e+00 1.6250035560e+00 2.8145887215e+00 
900 7.0803439577e+00 1.1590237530e-01 1.6214133499e+00 -2.8083703021e+00 1.6214133499e+00 2.8083703021e+00 
1000 7.0683633272e+00 1.1474304703e-01 1.6178405503e+00 -2.8021820317e+00 1.6178405503e+00 2.8021820317e+00 
1100 7.0564457860e+00 1.1327341366e-01 1.6142956695e+00 -2.7960421181e+00 1.6142956695e+00 2.7960421181e+00 
1200 7.0446160458e+00 1.1151840992e-01 1.6107884962e+00 -2.7899675157e+00 1.6107884962e+00 2.7899675157e+00 
1300 7.0328963365e+00 1.0950174982e-01 1.6073281294e+00 -2.7839739846e+00 1.6073281294e+00 2.7839739846e+00 
1400 7.0213066313e+00 1.0724607827e-01 1.6039230067e+00 -2.7780761390e+00 1.6039230067e+00 2.7780761390e+00 
1500 7.0098648376e+00 1.0477308393e-01 1.6005809278e+00 -2.7722874886e+00 1.6005809278e+00 2.7722874886e+00 
1600 6.9985869588e+00 1.0210358045e-01 1.5973090751e+00 -2.7666204734e+00 1.5973090751e+00 2.7666204734e+00 
1700 6.9874872344e+00 9.9257562136e-02 1.5941140309e+00 -2.7610864945e+00 1.5941140309e+00 2.7610864945e+00 
1800 6.9765782612e+00 9.6254239287e-02 1.5910017946e+00 -2.7556959431e+00 1.5910017946e+00 2.7556959431e+00 
1900 6.9658711012e+00 9.3112057974e-02 1.5879777980e+00 -2.7504582274e+00 1.5879777980e+00 2.7504582274e+00 
2000 6.9553753785e+00 8.9848708098e-02 1.5850469209e+00 -2.7453817994e+00 1.5850469209e+00 2.7453817994e+00 
2100 6.9450993675e+00 8.6481123196e-02 1.5822135069e+00 -2.7404741824e+00 1.5822135069e+00 2.7404741824e+00 
2200 6.9350500746e+00 8.3025474863e-02 1.5794813793e+00 -2.7357419985e+00 1.5794813793e+00 2.7357419985e+00 
2300 6.9252333153e+00 7.9497164145e-02 1.5768538583e+00 -2.7311909986e+00 1.5768538583e+00 2.7311909986e+00 
2400 6.9156537866e+00 7.5910811902e-02 1.5743337785e+00 -2.7268260924e+00 1.5743337785e+00 2.7268260924e+00 
2500 6.9063151373e+00 7.2280249687e-02 1.5719235079e+00 -2.7226513814e+00 1.5719235079e+00 2.7226513814e+00 
2600 6.8972200351e+00 6.8618512385e-02 1.5696249672e+00 -2.7186701920e+00 1.5696249672e+00 2.7186701920e+00 
2700 6.8883702314e+00 6.4937833544e-02 1.5674396501e+00 -2.7148851119e+00 1.5674396501e+00 2.7148851119e+00 
2800 6.8797666252e+00 6.1249644043e-02 1.5653686450e+00 -2.7112980257e+00 1.5653686450e+00 2.7112980257e+00 
2900 6.8714093240e+00 5.7564574544e-02 1.5634126562e+00 -2.7079101538e+00 1.5634126562e+00 2.7079101538e+00 
3000 6.8632977042e+00 5.3892461951e-02 1.5615720269e+00 -2.7047220903e+00 1.5615720269e+00 2.7047220903e+00 
3100 6.8554304687e+00 5.0242359937e-02 1.5598467615e+00 -2.7017338429e+00 1.5598467615e+00 2.7017338429e+00 
3200 6.8478057032e+00 4.6622553476e-02 1.5582365486e+00 -2.6989448724e+00 1.5582365486e+00 2.6989448724e+00 
3300 6.8404209313e+00 4.3040577172e-02 1.5567407845e+00 -2.6963541330e+00 1.5567407845e+00 2.6963541330e+00 
3400 6.8332731660e+00 3.9503237137e-02 1.5553585955e+00 -2.6939601113e+00 1.5553585955e+00 2.6939601113e+00 
3500 6.8263589610e+00 3.6016636049e-02 1.5540888607e+00 -2.6917608662e+00 1.5540888607e+00 2.6917608662e+00 
3600 6.8196744589e+00 3.2586201022e-02 1.5529302346e+00 -2.6897540670e+00 1.5529302346e+00 2.6897540670e+00 
3700 6.8132154374e+00 2.9216713857e-02 1.5518811686e+00 -2.6879370312e+00 1.5518811686e+00 2.6879370312e+00 
3800 6.8069773534e+00 2.5912343251e-02 1.5509399316e+00 -2.6863067610e+00 1.5509399316e+00 2.6863067610e+00 
3900 6.8009553848e+00 2.2676678524e-02 1.5501046312e+00 -2.6848599782e+00 1.5501046312e+00 2.6848599782e+00 
4000 6.7951444704e+00 1.9512764438e-02 1.5493732323e+00 -2.6835931583e+00 1.5493732323e+00 2.6835931583e+00 
4100 6.7895393469e+00 1.6423136704e-02 1.5487435764e+00 -2.6825025621e+00 1.5487435764e+00 2.6825025621e+00 
4200 6.7841345846e+00 1.3409857793e-02 1.5482133982e+00 -2.6815842667e+00 1.5482133982e+00 2.6815842667e+00 
4300 6.7789246199e+00 1.0474552689e-02 1.5477803432e+00 -2.6808341934e+00 1.5477803432e+00 2.6808341934e+00 
4400 6.7739037861e+00 7.6184442789e-03 1.5474419822e+00 -2.6802481349e+00 1.5474419822e+00 2.6802481349e+00 
4500 6.7690663428e+00 4.8423880672e-03 1.5471958262e+00 -2.6798217802e+00 1.5471958262e+00 2.6798217802e+00 
4600 6.7644065018e+00 2.1469059954e-03 1.5470393396e+00 -2.6795507375e+00 1.5470393396e+00 2.6795507375e+00 
4700 6.7599184522e+00 -4.6778087137e-04 1.5469699526e+00 -2.6794305556e+00 1.5469699526e+00 2.6794305556e+00 
4800 6.7555963832e+00 -3.0017209579e-03 1.5469850719e+00 -2.6794567430e+00 1.5469850719e+00 2.6794567430e+00 
4900 6.7514345048e+00 -5.4552022387e-03 1.5470820913e+00 -2.6796247856e+00 1.5470820913e+00 2.6796247856e+00 
5000 6.7474270674e+00 -7.8287238559e-03 1.5472584008e+00 -2.6799301626e+00 1.5472584008e+00 2.6799301626e+00 
5100 6.7435683789e+00 -1.0122969378e-02 1.5475113947e+00 -2.6803683608e+00 1.5475113947e+00 2.6803683608e+00 
5200 6.7398528208e+00 -1.2338781751e-02 1.5478384787e+00 -2.6809348870e+00 1.5478384787e+00 2.6809348870e+00 
5300 6.7362748623e+00 -1.4477139974e-02 1.5482370769e+00 -2.6816252793e+00 1.5482370769e+00 2.6816252793e+00 
5400 6.7328290735e+00 -1.6539137509e-02 1.5487046367e+00 -2.6824351166e+00 1.5487046367e+00 2.6824351166e+00 
5500 6.7295101366e+00 -1.8525962399e-02 1.5492386341e+00 -2.6833600274e+00 1.5492386341e+00 2.6833600274e+00 
5600 6.7263128561e+00 -2.0438879088e-02 1.5498365780e+00 -2.6843956965e+00 1.5498365780e+00 2.6843956965e+00 
5700 6.7232321676e+00 -2.2279211883e-02 1.5504960129e+00 -2.6855378713e+00 1.5504960129e+00 2.6855378713e+00 
5800 6.7202631457e+00 -2.4048330008e-02 1.5512145227e+00 -2.6867823668e+00 1.5512145227e+00 2.6867823668e+00 
5900 6.7174010104e+00 -2.5747634186e-02 1.5519897324e+00 -2.6881250694e+00 1.5519897324e+00 2.6881250694e+00 
6000 6.7146411325e+00 -2.7378544686e-02 1.5528193103e+00 -2.6895619404e+00 1.5528193103e+00 2.6895619404e+00 
6100 6.7119790385e+00 -2.8942490745e-02 1.5537009690e+00 -2.6910890181e+00 1.5537009690e+00 2.6910890181e+00 
6200 6.7094104135e+00 -3.0440901294e-02 1.5546324668e+00 -2.6927024197e+00 1.5546324668e+00 2.6927024197e+00 
6300 6.7069311045e+00 -3.1875196905e-02 1.5556116080e+00 -2.6943983420e+00 1.5556116080e+00 2.6943983420e+00 
6400 6.7045371218e+00 -3.3246782869e-02 1.5566362434e+00 -2.6961730625e+00 1.5566362434e+00 2.6961730625e+00 
6500 6.7022246403e+00 -3.4557043335e-02 1.5577042701e+00 -2.6980229390e+00 1.5577042701e+00 2.6980229390e+00 
6600 6.6999899997e+00 -3.5807336411e-02 1.5588136316e+00 -2.6999444094e+00 1.5588136316e+00 2.6999444094e+00 
6700 6.6978297042e+00 -3.6998990161e-02 1.5599623170e+00 -2.7019339910e+00 1.5599623170e+00 2.7019339910e+00 
6800 6.6957404215e+00 -3.8133299411e-02 1.5611483609e+00 -2.7039882792e+00 1.5611483609e+00 2.7039882792e+00 
6900 6.6937189812e+00 -3.9211523292e-02 1.5623698421e+00 -2.7061039467e+00 1.5623698421e+00 2.7061039467e+00 
7000 6.6917623728e+00 -4.0234883456e-02 1.5636248832e+00 -2.7082777417e+00 1.5636248832e+00 2.7082777417e+00 
7100 6.6898677433e+00 -4.1204562874e-02 1.5649116495e+00 -2.7105064863e+00 1.5649116495e+00 2.7105064863e+00 
7200 6.6880323936e+00 -4.2121705185e-02 1.5662283480e+00 -2.7127870750e+00 1.5662283480e+00 2.7127870750e+00 
7300 6.6862537756e+00 -4.2987414504e-02 1.5675732262e+00 -2.7151164724e+00 1.5675732262e+00 2.7151164724e+00 
7400 6.6845294883e+00 -4.3802755653e-02 1.5689445712e+00 -2.7174917117e+00 1.5689445712e+00 2.7174917117e+00 
7500 6.6828572735e+00 -4.4568754754e-02 1.5703407087e+00 -2.7199098926e+00 1.5703407087e+00 2.7199098926e+00 
7600 6.6812350115e+00 -4.5286400134e-02 1.5717600014e+00 -2.7223681797e+00 1.5717600014e+00 2.7223681797e+00 
7700 6.6796607164e+00 -4.5956643503e-02 1.5732008483e+00 -2.7248637998e+00 1.5732008483e+00 2.7248637998e+00 
7800 6.6781325314e+00 -4.6580401362e-02 1.5746616837e+00 -2.7273940408e+00 1.5746616837e+00 2.7273940408e+00 
7900 6.6766487232e+00 -4.7158556590e-02 1.5761409756e+00 -2.7299562496e+00 1.5761409756e+00 2.7299562496e+00 
8000 6.6752076776e+00 -4.7691960205e-02 1.5776372253e+00 -2.7325478301e+00 1.5776372253e+00 2.7325478301e+00 
8100 6.6738078932e+00 -4.8181433228e-02 1.5791489660e+00 -2.7351662419e+00 1.5791489660e+00 2.7351662419e+00 
8200 6.6724479769e+00 -4.8627768662e-02 1.5806747620e+00 -2.7378089980e+00 1.5806747620e+00 2.7378089980e+00 
8300 6.6711266376e+00 -4.9031733525e-02 1.5822132078e+00 -2.7404736643e+00 1.5822132078e+00 2.7404736643e+00 
8400 6.6698426810e+00 -4.9394070942e-02 1.5837629271e+00 -2.7431578569e+00 1.5837629271e+00 2.7431578569e+00 
8500 6.6685950043e+00 -4.9715502253e-02 1.5853225724e+00 -2.7458592419e+00 1.5853225724e+00 2.7458592419e+00 
8600 6.6673825899e+00 -4.9996729136e-02 1.5868908239e+00 -2.7485755331e+00 1.5868908239e+00 2.7485755331e+00 
8700 6.6662045007e+00 -5.0238435715e-02 1.5884663889e+00 -2.7513044917e+00 1.5884663889e+00 2.7513044917e+00 
8800 6.6650598740e+00 -5.0441290651e-02 1.5900480013e+00 -2.7540439248e+00 1.5900480013e+00 2.7540439248e+00 
8900 6.6639479166e+00 -5.0605949191e-02 1.5916344210e+00 -2.7567916843e+00 1.5916344210e+00 2.7567916843e+00 
9000 6.6628678988e+00 -5.0733055172e-02 1.5932244333e+00 -2.7595456663e+00 1.5932244333e+00 2.7595456663e+00 
9100 6.6618191500e+00 -5.0823242969e-02 1.5948168485e+00 -2.7623038104e+00 1.5948168485e+00 2.7623038104e+00 
9200 6.6608010530e+00 -5.0877139378e-02 1.5964105016e+00 -2.7650640986e+00 1.5964105016e+00 2.7650640986e+00 
9300 6.6598130392e+00 -5.0895365425e-02 1.5980042519e+00 -2.7678245551e+00 1.5980042519e+00 2.7678245551e+00 
9400 6.6588545839e+00 -5.0878538095e-02 1.5995969827e+00 -2.7705832457e+00 1.5995969827e+00 2.7705832457e+00 
9500 6.6579252015e+00 -5.0827271984e-02 1.6011876009e+00 -2.7733382771e+00 1.6011876009e+00 2.7733382771e+00 
9600 6.6570244412e+00 -5.0742180859e-02 1.6027750370e+00 -2.7760877972e+00 1.6027750370e+00 2.7760877972e+00 
9700 6.6561518824e+00 -5.0623879127e-02 1.6043582450e+00 -2.7788299939e+00 1.6043582450e+00 2.7788299939e+00 
9800 6.6553071307e+00 -5.0472983213e-02 1.6059362020e+00 -2.7815630956e+00 1.6059362020e+00 2.7815630956e+00 
9900 6.6544898142e+00 -5.0290112841e-02 1.6075079085e+00 -2.7842853711e+00 1.6075079085e+00 2.7842853711e+00 
10000 6.6536995795e+00 -5.0075892223e-02 1.6090723879e+00 -2.7869951290e+00 1.6090723879e+00 2.7869951290e+00 
10100 6.6529360879e+00 -4.9830951146e-02 1.6106286869e+00 -2.7896907179e+00 1.6106286869e+00 2.7896907179e+00 
10200 6.6521990128e+00 -4.9555925962e-02 1.6121758753e+00 -2.7923705268e+00 1.6121758753e+00 2.7923705268e+00 
10300 6.6514880360e+00 -4.9251460485e-02 1.6137130461e+00 -2.7950329847e+00 1.6137130461e+00 2.7950329847e+00 
10400 6.6508028448e+00 -4.8918206788e-02 1.6152393155e+00 -2.7976765608e+00 1.6152393155e+00 2.7976765608e+00 
10500 6.6501431298e+00 -4.8556825906e-02 1.6167538230e+00 -2.8002997648e+00 1.6167538230e+00 2.8002997648e+00 
10600 6.6495085818e+00 -4.8167988440e-02 1.6182557318e+00 -2.8029011471e+00 1.6182557318e+00 2.8029011471e+00 
10700 6.6488988898e+00 -4.7752375077e-02 1.6197442285e+00 -2.8054792990e+00 1.6197442285e+00 2.8054792990e+00 
10800 6.6483137390e+00 -4.7310677008e-02 1.6212185233e+00 -2.8080328526e+00 1.6212185233e+00 2.8080328526e+00 
10900 6.6477528087e+00 -4.6843596261e-02 1.6226778506e+00 -2.8105604815e+00 1.6226778506e+00 2.8105604815e+00 
11000 6.6472157709e+00 -4.6351845952e-02 1.6241214684e+00 -2.8130609010e+00 1.6241214684e+00 2.8130609010e+00 
11100 6.6467022887e+00 -4.5836150438e-02 1.6255486593e+00 -2.8155328681e+00 1.6255486593e+00 2.8155328681e+00 
11200 6.6462120150e+00 -4.5297245397e-02 1.6269587300e+00 -2.8179751822e+00 1.6269587300e+00 2.8179751822e+00 
11300 6.6457445915e+00 -4.4735877827e-02 1.6283510118e+00 -2.8203866850e+00 1.6283510118e+00 2.8203866850e+00 
11400 6.6452996476e+00 -4.4152805958e-02 1.6297248606e+00 -2.8227662609e+00 1.6297248606e+00 2.8227662609e+00 
11500 6.6448768001e+00 -4.3548799100e-02 1.6310796573e+00 -2.8251128377e+00 1.6310796573e+00 2.8251128377e+00 
11600 6.6444756522e+00 -4.2924637413e-02 1.6324148078e+00 -2.8274253861e+00 1.6324148078e+00 2.8274253861e+00 
11700 6.6440957933e+00 -4.2281111605e-02 1.6337297430e+00 -2.8297029207e+00 1.6337297430e+00 2.8297029207e+00 
11800 6.6437367989e+00 -4.1619022567e-02 1.6350239194e+00 -2.8319444999e+00 1.6350239194e+00 2.8319444999e+00 
11900 6.6433982304e+00 -4.0939180943e-02 1.6362968187e+00 -2.8341492263e+00 1.6362968187e+00 2.8341492263e+00 
12000 6.6430796349e+00 -4.0242406638e-02 1.6375479485e+00 -2.8363162466e+00 1.6375479485e+00 2.8363162466e+00 
12100 6.6427805461e+00 -3.9529528269e-02 1.6387768418e+00 -2.8384447523e+00 1.6387768418e+00 2.8384447523e+00 
12200 6.6425004840e+00 -3.8801382563e-02 1.6399830577e+00 -2.8405339795e+00 1.6399830577e+00 2.8405339795e+00 
12300 6.6422389554e+00 -3.8058813699e-02 1.6411661811e+00 -2.8425832093e+00 1.6411661811e+00 2.8425832093e+00 
12400 6.6419954549e+00 -3.7302672604e-02 1.6423258227e+00 -2.8445917674e+00 1.6423258227e+00 2.8445917674e+00 
12500 6.6417694651e+00 -3.6533816206e-02 1.6434616195e+00 -2.8465590252e+00 1.6434616195e+00 2.8465590252e+00 
12600 6.6415604576e+00 -3.5753106637e-02 1.6445732345e+00 -2.8484843989e+00 1.6445732345e+00 2.8484843989e+00 
12700 6.6413678936e+00 -3.4961410409e-02 1.6456603567e+00 -2.8503673498e+00 1.6456603567e+00 2.8503673498e+00 
12800 6.6411912253e+00 -3.4159597540e-02 1.6467227013e+00 -2.8522073847e+00 1.6467227013e+00 2.8522073847e+00 
12900 6.6410298963e+00 -3.3348540659e-02 1.6477600096e+00 -2.8540040553e+00 1.6477600096e+00 2.8540040553e+00 
13000 6.6408833429e+00 -3.2529114075e-02 1.6487720487e+00 -2.8557569585e+00 1.6487720487e+00 2.8557569585e+00 
13100 6.6407509954e+00 -3.1702192822e-02 1.6497586119e+00 -2.8574657361e+00 1.6497586119e+00 2.8574657361e+00 
13200 6.6406322788e+00 -3.0868651682e-02 1.6507195182e+00 -2.8591300746e+00 1.6507195182e+00 2.8591300746e+00 
13300 6.6405266143e+00 -3.0029364183e-02 1.6516546124e+00 -2.8607497052e+00 1.6516546124e+00 2.8607497052e+00 
13400 6.6404334205e+00 -2.9185201587e-02 1.6525637648e+00 -2.8623244034e+00 1.6525637648e+00 2.8623244034e+00 
13500 6.6403521143e+00 -2.8337031859e-02 1.6534468714e+00 -2.8638539889e+00 1.6534468714e+00 2.8638539889e+00 
13600 6.6402821124e+00 -2.7485718632e-02 1.6543038533e+00 -2.8653383250e+00 1.6543038533e+00 2.8653383250e+00 
13700 6.6402228327e+00 -2.6632120156e-02 1.6551346564e+00 -2.8667773183e+00 1.6551346564e+00 2.8667773183e+00 
13800 6.6401736950e+00 -2.5777088249e-02 1.6559392519e+00 -2.8681709185e+00 1.6559392519e+00 2.8681709185e+00 
13900 6.6401341226e+00 -2.4921467246e-02 1.6567176351e+00 -2.8695191178e+00 1.6567176351e+00 2.8695191178e+00 
14000 6.6401035436e+00 -2.4066092951e-02 1.6574698258e+00 -2.8708219503e+00 1.6574698258e+00 2.8708219503e+00 
14100 6.6400813918e+00 -2.3211791589e-02 1.6581958677e+00 -2.8720794917e+00 1.6581958677e+00 2.8720794917e+00 
14200 6.6400671079e+00 -2.2359378775e-02 1.6588958279e+00 -2.8732918584e+00 1.6588958279e+00 2.8732918584e+00 
14300 6.6400601409e+00 -2.1509658483e-02 1.6595697971e+00 -2.8744592072e+00 1.6595697971e+00 2.8744592072e+00 
14400 6.6400599489e+00 -2.0663422038e-02 1.6602178884e+00 -2.8755817344e+00 1.6602178884e+00 2.8755817344e+00 
14500 6.6400660002e+00 -1.9821447121e-02 1.6608402379e+00 -2.8766596752e+00 1.6608402379e+00 2.8766596752e+00 
14600 6.6400777745e+00 -1.8984496794e-02 1.6614370031e+00 -2.8776933029e+00 1.6614370031e+00 2.8776933029e+00 
14700 6.6400947636e+00 -1.8153318545e-02 1.6620083634e+00 -2.8786829280e+00 1.6620083634e+00 2.8786829280e+00 
14800 6.6401164724e+00 -1.7328643364e-02 1.6625545193e+00 -2.8796288978e+00 1.6625545193e+00 2.8796288978e+00 
14900 6.6401424200e+00 -1.6511184840e-02 1.6630756916e+00 -2.8805315947e+00 1.6630756916e+00 2.8805315947e+00 
15000 6.6401721400e+00 -1.5701638288e-02 1.6635721214e+00 -2.8813914363e+00 1.6635721214e+00 2.8813914363e+00 
15100 6.6402051815e+00 -1.4900679916e-02 1.6640440691e+00 -2.8822088737e+00 1.6640440691e+00 2.8822088737e+00 
15200 6.6402411099e+00 -1.4108966019e-02 1.6644918141e+00 -2.8829843908e+00 1.6644918141e+00 2.8829843908e+00 
15300 6.6402795072e+00 -1.3327132209e-02 1.6649156541e+00 -2.8837185032e+00 1.6649156541e+00 2.8837185032e+00 
15400 6.6403199728e+00 -1.2555792691e-02 1.6653159046e+00 -2.8844117574e+00 1.6653159046e+00 2.8844117574e+00 
15500 6.6403621238e+00 -1.1795539573e-02 1.6656928981e+00 -2.8850647293e+00 1.6656928981e+00 2.8850647293e+00 
15600 6.6404055953e+00 -1.1046942222e-02 1.6660469837e+00 -2.8856780236e+00 1.6660469837e+00 2.8856780236e+00 
15700 6.6404500411e+00 -1.0310546664e-02 1.6663785262e+00 -2.8862522721e+00 1.6663785262e+00 2.8862522721e+00 
15800 6.6404951336e+00 -9.5868750258e-03 1.6666879057e+00 -2.8867881330e+00 1.6666879057e+00 2.8867881330e+00 
15900 6.6405405641e+00 -8.8764250320e-03 1.6669755165e+00 -2.8872862896e+00 1.6669755165e+00 2.8872862896e+00 
16000 6.6405860431e+00 -8.1796695416e-03 1.6672417670e+00 -2.8877474490e+00 1.6672417670e+00 2.8877474490e+00 
16100 6.6406313001e+00 -7.4970561397e-03 1.6674870785e+00 -2.8881723409e+00 1.6674870785e+00 2.8881723409e+00 
16200 6.6406760836e+00 -6.8290067781e-03 1.6677118846e+00 -2.8885617165e+00 1.6677118846e+00 2.8885617165e+00 
16300 6.6407201615e+00 -6.1759174668e-03 1.6679166306e+00 -2.8889163469e+00 1.6679166306e+00 2.8889163469e+00 
16400 6.6407633204e+00 -5.5381580177e-03 1.6681017727e+00 -2.8892370225e+00 1.6681017727e+00 2.8892370225e+00 
16500 6.6408053655e+00 -4.9160718401e-03 1.6682677772e+00 -2.8895245508e+00 1.6682677772e+00 2.8895245508e+00 
16600 6.6408461208e+00 -4.3099757897e-03 1.6684151200e+00 -2.8897797560e+00 1.6684151200e+00 2.8897797560e+00 
16700 6.6408854284e+00 -3.7201600692e-03 1.6685442854e+00 -2.8900034771e+00 1.6685442854e+00 2.8900034771e+00 
16800 6.6409231480e+00 -3.1468881821e-03 1.6686557659e+00 -2.8901965669e+00 1.6686557659e+00 2.8901965669e+00 
16900 6.6409591572e+00 -2.5903969384e-03 1.6687500609e+00 -2.8903598906e+00 1.6687500609e+00 2.8903598906e+00 
17000 6.6409933503e+00 -2.0508965128e-03 1.6688276764e+00 -2.8904943246e+00 1.6688276764e+00 2.8904943246e+00 
17100 6.6410256382e+00 -1.5285705539e-03 1.6688891240e+00 -2.8906007549e+00 1.6688891240e+00 2.8906007549e+00 
17200 6.6410559479e+00 -1.0235763439e-03 1.6689349202e+00 -2.8906800764e+00 1.6689349202e+00 2.8906800764e+00 
17300 6.6410842216e+00 -5.3604500823e-04 1.6689655859e+00 -2.8907331908e+00 1.6689655859e+00 2.8907331908e+00 
17400 6.6411104167e+00 -6.6081773944e-05 1.6689816451e+00 -2.8907610062e+00 1.6689816451e+00 2.8907610062e+00 
17500 6.6411345026e+00 3.8353919498e-04 1.6689816451e+00 -2.8907610062e+00 1.6689816451e+00 2.8907610062e+00 
17600 6.6411564661e+00 8.1824335218e-04 1.6689701549e+00 -2.8907411046e+00 1.6689701549e+00 2.8907411046e+00 
17700 6.6411763055e+00 1.2352123537e-03 1.6689456416e+00 -2.8906986462e+00 1.6689456416e+00 2.8906986462e+00 
17800 6.6411940308e+00 1.6344412405e-03 1.6689086359e+00 -2.8906345506e+00 1.6689086359e+00 2.8906345506e+00 
17900 6.6412096635e+00 2.0159489667e-03 1.6688596688e+00 -2.8905497370e+00 1.6688596688e+00 2.8905497370e+00 
18000 6.6412232361e+00 2.3797778804e-03 1.6687992702e+00 -2.8904451235e+00 1.6687992702e+00 2.8904451235e+00 
18100 6.6412347909e+00 2.7259931661e-03 1.6687279686e+00 -2.8903216256e+00 1.6687279686e+00 2.8903216256e+00 
18200 6.6412443795e+00 3.0546822528e-03 1.6686462905e+00 -2.8901801549e+00 1.6686462905e+00 2.8901801549e+00 
18300 6.6412520622e+00 3.3659541876e-03 1.6685547595e+00 -2.8900216187e+00 1.6685547595e+00 2.8900216187e+00 
18400 6.6412579071e+00 3.6599389791e-03 1.6684538962e+00 -2.8898469183e+00 1.6684538962e+00 2.8898469183e+00 
18500 6.6412619891e+00 3.9367869120e-03 1.6683442168e+00 -2.8896569481e+00 1.6683442168e+00 2.8896569481e+00 
18600 6.6412643898e+00 4.1966678350e-03 1.6682262334e+00 -2.8894525947e+00 1.6682262334e+00 2.8894525947e+00 
18700 6.6412651963e+00 4.4397704244e-03 1.6681004526e+00 -2.8892347361e+00 1.6681004526e+00 2.8892347361e+00 
18800 6.6412645003e+00 4.6663014269e-03 1.6679673758e+00 -2.8890042402e+00 1.6679673758e+00 2.8890042402e+00 
18900 6.6412623981e+00 4.8764848825e-03 1.6678274978e+00 -2.8887619645e+00 1.6678274978e+00 2.8887619645e+00 
19000 6.6412589893e+00 5.0705613307e-03 1.6676813073e+00 -2.8885087550e+00 1.6676813073e+00 2.8885087550e+00 
19100 6.6412543763e+00 5.2487870033e-03 1.6675292853e+00 -2.8882454452e+00 1.6675292853e+00 2.8882454452e+00 
19200 6.6412486640e+00 5.4114330039e-03 1.6673719056e+00 -2.8879728556e+00 1.6673719056e+00 2.8879728556e+00 
19300 6.6412419584e+00 5.5587844794e-03 1.6672096339e+00 -2.8876917928e+00 1.6672096339e+00 2.8876917928e+00 
19400 6.6412343669e+00 5.6911397834e-03 1.6670429275e+00 -2.8874030488e+00 1.6670429275e+00 2.8874030488e+00 
19500 6.6412259969e+00 5.8088096356e-03 1.6668722347e+00 -2.8871074003e+00 1.6668722347e+00 2.8871074003e+00 
19600 6.6412169561e+00 5.9121162787e-03 1.6666979950e+00 -2.8868056081e+00 1.6666979950e+00 2.8868056081e+00 
19700 6.6412073510e+00 6.0013926349e-03 1.6665206380e+00 -2.8864984168e+00 1.6665206380e+00 2.8864984168e+00 
19800 6.6411972874e+00 6.0769814645e-03 1.6663405836e+00 -2.8861865536e+00 1.6663405836e+00 2.8861865536e+00 
19900 6.6411868691e+00 6.1392345292e-03 1.6661582418e+00 -2.8858707283e+00 1.6661582418e+00 2.8858707283e+00 
20000 6.6411761981e+00 6.1885117609e-03 1.6659740120e+00 -2.8855516329e+00 1.6659740120e+00 2.8855516329e+00 
20100 6.6411653736e+00 6.2251804390e-03 1.6657882829e+00 -2.8852299407e+00 1.6657882829e+00 2.8852299407e+00 
20200 6.6411544923e+00 6.2496143778e-03 1.6656014325e+00 -2.8849063063e+00 1.6656014325e+00 2.8849063063e+00 
20300 6.6411436474e+00 6.2621931252e-03 1.6654138277e+00 -2.8845813652e+00 1.6654138277e+00 2.8845813652e+00 
20400 6.6411329287e+00 6.2633011755e-03 1.6652258241e+00 -2.8842557334e+00 1.6652258241e+00 2.8842557334e+00 
20500 6.6411224223e+00 6.2533271965e-03 1.6650377660e+00 -2.8839300073e+00 1.6650377660e+00 2.8839300073e+00 
20600 6.6411122102e+00 6.2326632737e-03 1.6648499862e+00 -2.8836047631e+00 1.6648499862e+00 2.8836047631e+00 
20700 6.6411023699e+00 6.2017041714e-03 1.6646628058e+00 -2.8832805571e+00 1.6646628058e+00 2.8832805571e+00 
20800 6.6410929748e+00 6.1608466142e-03 1.6644765342e+00 -2.8829579252e+00 1.6644765342e+00 2.8829579252e+00 
20900 6.6410840935e+00 6.1104885871e-03 1.6642914690e+00 -2.8826373830e+00 1.6642914690e+00 2.8826373830e+00 
21000 6.6410757899e+00 6.0510286579e-03 1.6641078961e+00 -2.8823194254e+00 1.6641078961e+00 2.8823194254e+00 
21100 6.6410681230e+00 5.9828653213e-03 1.6639260895e+00 -2.8820045270e+00 1.6639260895e+00 2.8820045270e+00 
21200 6.6410611468e+00 5.9063963655e-03 1.6637463111e+00 -2.8816931417e+00 1.6637463111e+00 2.8816931417e+00 
21300 6.6410549106e+00 5.8220182635e-03 1.6635688114e+00 -2.8813857031e+00 1.6635688114e+00 2.8813857031e+00 
21400 6.6410494583e+00 5.7301255873e-03 1.6633938286e+00 -2.8810826242e+00 1.6633938286e+00 2.8810826242e+00 
21500 6.6410448291e+00 5.6311104474e-03 1.6632215896e+00 -2.8807842974e+00 1.6632215896e+00 2.8807842974e+00 
21600 6.6410410570e+00 5.5253619577e-03 1.6630523092e+00 -2.8804910952e+00 1.6630523092e+00 2.8804910952e+00 
21700 6.6410381713e+00 5.4132657247e-03 1.6628861909e+00 -2.8802033698e+00 1.6628861909e+00 2.8802033698e+00 
21800 6.6410361961e+00 5.2952033635e-03 1.6627234264e+00 -2.8799214534e+00 1.6627234264e+00 2.8799214534e+00 
21900 6.6410351508e+00 5.1715520384e-03 1.6625641961e+00 -2.8796456585e+00 1.6625641961e+00 2.8796456585e+00 
22000 6.6410350503e+00 5.0426840298e-03 1.6624086691e+00 -2.8793762778e+00 1.6624086691e+00 2.8793762778e+00 
22100 6.6410359047e+00 4.9089663265e-03 1.6622570034e+00 -2.8791135852e+00 1.6622570034e+00 2.8791135852e+00 
22200 6.6410377196e+00 4.7707602436e-03 1.6621093459e+00 -2.8788578349e+00 1.6621093459e+00 2.8788578349e+00 
22300 6.6410404964e+00 4.6284210656e-03 1.6619658328e+00 -2.8786092628e+00 1.6619658328e+00 2.8786092628e+00 
22400 6.6410442323e+00 4.4822977144e-03 1.6618265893e+00 -2.8783680861e+00 1.6618265893e+00 2.8783680861e+00 
22500 6.6410489206e+00 4.3327324424e-03 1.6616917306e+00 -2.8781345039e+00 1.6616917306e+00 2.8781345039e+00 
22600 6.6410545506e+00 4.1800605493e-03 1.6615613612e+00 -2.8779086974e+00 1.6615613612e+00 2.8779086974e+00 
22700 6.6410611080e+00 4.0246101233e-03 1.6614355756e+00 -2.8776908305e+00 1.6614355756e+00 2.8776908305e+00 
22800 6.6410685754e+00 3.8667018053e-03 1.6613144586e+00 -2.8774810497e+00 1.6613144586e+00 2.8774810497e+00 
22900 6.6410769318e+00 3.7066485758e-03 1.6611980852e+00 -2.8772794851e+00 1.6611980852e+00 2.8772794851e+00 
23000 6.6410861532e+00 3.5447555647e-03 1.6610865210e+00 -2.8770862501e+00 1.6610865210e+00 2.8770862501e+00 
23100 6.6410962131e+00 3.3813198820e-03 1.6609798222e+00 -2.8769014424e+00 1.6609798222e+00 2.8769014424e+00 
23200 6.6411070821e+00 3.2166304697e-03 1.6608780363e+00 -2.8767251441e+00 1.6608780363e+00 2.8767251441e+00 
23300 6.6411187285e+00 3.0509679745e-03 1.6607812020e+00 -2.8765574222e+00 1.6607812020e+00 2.8765574222e+00 
23400 6.6411311186e+00 2.8846046391e-03 1.6606893495e+00 -2.8763983289e+00 1.6606893495e+00 2.8763983289e+00 
23500 6.6411442165e+00 2.7178042138e-03 1.6606025006e+00 -2.8762479023e+00 1.6606025006e+00 2.8762479023e+00 
23600 6.6411579848e+00 2.5508218850e-03 1.6605206694e+00 -2.8761061665e+00 1.6605206694e+00 2.8761061665e+00 
23700 6.6411723844e+00 2.3839042220e-03 1.6604438621e+00 -2.8759731323e+00 1.6604438621e+00 2.8759731323e+00 
23800 6.6411873750e+00 2.2172891404e-03 1.6603720775e+00 -2.8758487977e+00 1.6603720775e+00 2.8758487977e+00 
23900 6.6412029152e+00 2.0512058810e-03 1.6603053071e+00 -2.8757331480e+00 1.6603053071e+00 2.8757331480e+00 
24000 6.6412189627e+00 1.8858750051e-03 1.6602435355e+00 -2.8756261565e+00 1.6602435355e+00 2.8756261565e+00 
24100 6.6412354744e+00 1.7215084028e-03 1.6601867407e+00 -2.8755277850e+00 1.6601867407e+00 2.8755277850e+00 
24200 6.6412524069e+00 1.5583093166e-03 1.6601348942e+00 -2.8754379841e+00 1.6601348942e+00 2.8754379841e+00 
24300 6.6412697164e+00 1.3964723768e-03 1.6600879612e+00 -2.8753566938e+00 1.6600879612e+00 2.8753566938e+00 
24400 6.6412873588e+00 1.2361836499e-03 1.6600459011e+00 -2.8752838437e+00 1.6600459011e+00 2.8752838437e+00 
24500 6.6413052902e+00 1.0776206989e-03 1.6600086679e+00 -2.8752193538e+00 1.6600086679e+00 2.8752193538e+00 
24600 6.6413234670e+00 9.2095265358e-04 1.6599762097e+00 -2.8751631345e+00 1.6599762097e+00 2.8751631345e+00 
24700 6.6413418457e+00 7.6634029186e-04 1.6599484698e+00 -2.8751150877e+00 1.6599484698e+00 2.8751150877e+00 
24800 6.6413603835e+00 6.1393613043e-04 1.6599253866e+00 -2.8750751064e+00 1.6599253866e+00 2.8750751064e+00 
24900 6.6413790382e+00 4.6388452427e-04 1.6599068938e+00 -2.8750430759e+00 1.6599068938e+00 2.8750430759e+00 
25000 6.6413977684e+00 3.1632177445e-04 1.6598929206e+00 -2.8750188736e+00 1.6598929206e+00 2.8750188736e+00 
25100 6.6414165336e+00 1.7137624373e-04 1.6598833922e+00 -2.8750023700e+00 1.6598833922e+00 2.8750023700e+00 
25200 6.6414352943e+00 2.9168479052e-05 1.6598782299e+00 -2.8749934286e+00 1.6598782299e+00 2.8749934286e+00 
25300 6.6414540119e+00 -1.0896507935e-04 1.6598782299e+00 -2.8749934286e+00 1.6598782299e+00 2.8749934286e+00 
25400 6.6414726497e+00 -2.4540921396e-04 1.6598815122e+00 -2.8749991138e+00 1.6598815122e+00 2.8749991138e+00 
25500 6.6414911718e+00 -3.7879786562e-04 1.6598889046e+00 -2.8750119177e+00 1.6598889046e+00 2.8750119177e+00 
25600 6.6415095438e+00 -5.0904048469e-04 1.6599003150e+00 -2.8750316810e+00 1.6599003150e+00 2.8750316810e+00 
25700 6.6415277330e+00 -6.3605363375e-04 1.6599156485e+00 -2.8750582394e+00 1.6599156485e+00 2.8750582394e+00 
25800 6.6415457079e+00 -7.5976083433e-04 1.6599348077e+00 -2.8750914242e+00 1.6599348077e+00 2.8750914242e+00 
25900 6.6415634388e+00 -8.8009241013e-04 1.6599576930e+00 -2.8751310627e+00 1.6599576930e+00 2.8751310627e+00 
26000 6.6415808975e+00 -9.9698532734e-04 1.6599842026e+00 -2.8751769786e+00 1.6599842026e+00 2.8751769786e+00 
26100 6.6415980578e+00 -1.1103830323e-03 1.6600142326e+00 -2.8752289922e+00 1.6600142326e+00 2.8752289922e+00 
26200 6.6416148949e+00 -1.2202352868e-03 1.6600476777e+00 -2.8752869208e+00 1.6600476777e+00 2.8752869208e+00 
26300 6.6416313857e+00 -1.3264980020e-03 1.6600844309e+00 -2.8753505792e+00 1.6600844309e+00 2.8753505792e+00 
26400 6.6416475092e+00 -1.4291330705e-03 1.6601243838e+00 -2.8754197796e+00 1.6601243838e+00 2.8754197796e+00 
26500 6.6416632458e+00 -1.5281081975e-03 1.6601674269e+00 -2.8754943325e+00 1.6601674269e+00 2.8754943325e+00 
26600 6.6416785780e+00 -1.6233967306e-03 1.6602134498e+00 -2.8755740465e+00 1.6602134498e+00 2.8755740465e+00 
26700 6.6416934897e+00 -1.7149774903e-03 1.6602623413e+00 -2.8756587290e+00 1.6602623413e+00 2.8756587290e+00 
26800 6.6417079668e+00 -1.8028345990e-03 1.6603139893e+00 -2.8757481861e+00 1.6603139893e+00 2.8757481861e+00 
26900 6.6417219969e+00 -1.8869573110e-03 1.6603682816e+00 -2.8758422230e+00 1.6603682816e+00 2.8758422230e+00 
27000 6.6417355693e+00 -1.9673398419e-03 1.6604251054e+00 -2.8759406447e+00 1.6604251054e+00 2.8759406447e+00 
27100 6.6417486749e+00 -2.0439811997e-03 1.6604843478e+00 -2.8760432556e+00 1.6604843478e+00 2.8760432556e+00 
27200 6.6417613064e+00 -2.1168850155e-03 1.6605458959e+00 -2.8761498600e+00 1.6605458959e+00 2.8761498600e+00 
27300 6.6417734580e+00 -2.1860593758e-03 1.6606096370e+00 -2.8762602628e+00 1.6606096370e+00 2.8762602628e+00 
27400 6.6417851255e+00 -2.2515166560e-03 1.6606754584e+00 -2.8763742688e+00 1.6606754584e+00 2.8763742688e+00 
27500 6.6417963063e+00 -2.3132733551e-03 1.6607432480e+00 -2.8764916839e+00 1.6607432480e+00 2.8764916839e+00 
27600 6.6418069992e+00 -2.3713499315e-03 1.6608128942e+00 -2.8766123147e+00 1.6608128942e+00 2.8766123147e+00 
27700 6.6418172044e+00 -2.4257706415e-03 1.6608842860e+00 -2.8767359688e+00 1.6608842860e+00 2.8767359688e+00 
27800 6.6418269237e+00 -2.4765633782e-03 1.6609573130e+00 -2.8768624553e+00 1.6609573130e+00 2.8768624553e+00 
27900 6.6418361598e+00 -2.5237595137e-03 1.6610318659e+00 -2.8769915847e+00 1.6610318659e+00 2.8769915847e+00 
28000 6.6418449171e+00 -2.5673937422e-03 1.6611078361e+00 -2.8771231689e+00 1.6611078361e+00 2.8771231689e+00 
28100 6.6418532009e+00 -2.6075039264e-03 1.6611851162e+00 -2.8772570221e+00 1.6611851162e+00 2.8772570221e+00 
28200 6.6418610177e+00 -2.6441309447e-03 1.6612636001e+00 -2.8773929601e+00 1.6612636001e+00 2.8773929601e+00 
28300 6.6418683752e+00 -2.6773185424e-03 1.6613431826e+00 -2.8775308012e+00 1.6613431826e+00 2.8775308012e+00 
28400 6.6418752820e+00 -2.7071131840e-03 1.6614237602e+00 -2.8776703656e+00 1.6614237602e+00 2.8776703656e+00 
28500 6.6418817474e+00 -2.7335639085e-03 1.6615052306e+00 -2.8778114764e+00 1.6615052306e+00 2.8778114764e+00 
28600 6.6418877821e+00 -2.7567221877e-03 1.6615874929e+00 -2.8779539590e+00 1.6615874929e+00 2.8779539590e+00 
28700 6.6418933971e+00 -2.7766417862e-03 1.6616704481e+00 -2.8780976415e+00 1.6616704481e+00 2.8780976415e+00 
28800 6.6418986043e+00 -2.7933786245e-03 1.6617539985e+00 -2.8782423551e+00 1.6617539985e+00 2.8782423551e+00 
28900 6.6419034163e+00 -2.8069906456e-03 1.6618380483e+00 -2.8783879336e+00 1.6618380483e+00 2.8783879336e+00 
29000 6.6419078464e+00 -2.8175376826e-03 1.6619225034e+00 -2.8785342142e+00 1.6619225034e+00 2.8785342142e+00 
29100 6.6419119082e+00 -2.8250813310e-03 1.6620072716e+00 -2.8786810369e+00 1.6620072716e+00 2.8786810369e+00 
29200 6.6419156158e+00 -2.8296848222e-03 1.6620922623e+00 -2.8788282452e+00 1.6620922623e+00 2.8788282452e+00 
29300 6.6419189840e+00 -2.8314129012e-03 1.6621773872e+00 -2.8789756859e+00 1.6621773872e+00 2.8789756859e+00 
29400 6.6419220274e+00 -2.8303317059e-03 1.6622625598e+00 -2.8791232090e+00 1.6622625598e+00 2.8791232090e+00 
29500 6.6419247614e+00 -2.8265086500e-03 1.6623476954e+00 -2.8792706683e+00 1.6623476954e+00 2.8792706683e+00 
29600 6.6419272014e+00 -2.8200123090e-03 1.6624327117e+00 -2.8794179208e+00 1.6624327117e+00 2.8794179208e+00 
29700 6.6419293628e+00 -2.8109123080e-03 1.6625175283e+00 -2.8795648274e+00 1.6625175283e+00 2.8795648274e+00 
29800 6.6419312614e+00 -2.7992792136e-03 1.6626020668e+00 -2.8797112525e+00 1.6626020668e+00 2.8797112525e+00 
29900 6.6419329128e+00 -2.7851844278e-03 1.6626862512e+00 -2.8798570641e+00 1.6626862512e+00 2.8798570641e+00 
30000 6.6419343327e+00 -2.7687000850e-03 1.6627700074e+00 -2.8800021342e+00 1.6627700074e+00 2.8800021342e+00 
30100 6.6419355368e+00 -2.7498989520e-03 1.6628532638e+00 -2.8801463384e+00 1.6628532638e+00 2.8801463384e+00 
30200 6.6419365405e+00 -2.7288543309e-03 1.6629359506e+00 -2.8802895562e+00 1.6629359506e+00 2.8802895562e+00 
30300 6.6419373593e+00 -2.7056399640e-03 1.6630180006e+00 -2.8804316710e+00 1.6630180006e+00 2.8804316710e+00 
30400 6.6419380082e+00 -2.6803299429e-03 1.6630993486e+00 -2.8805725697e+00 1.6630993486e+00 2.8805725697e+00 
30500 6.6419385024e+00 -2.6529986190e-03 1.6631799316e+00 -2.8807121436e+00 1.6631799316e+00 2.8807121436e+00 
30600 6.6419388563e+00 -2.6237205177e-03 1.6632596890e+00 -2.8808502876e+00 1.6632596890e+00 2.8808502876e+00 
30700 6.6419390844e+00 -2.5925702546e-03 1.6633385625e+00 -2.8809869004e+00 1.6633385625e+00 2.8809869004e+00 
30800 6.6419392006e+00 -2.5596224551e-03 1.6634164958e+00 -2.8811218849e+00 1.6634164958e+00 2.8811218849e+00 
30900 6.6419392187e+00 -2.5249516762e-03 1.6634934351e+00 -2.8812551477e+00 1.6634934351e+00 2.8812551477e+00 
31000 6.6419391517e+00 -2.4886323310e-03 1.6635693288e+00 -2.8813865993e+00 1.6635693288e+00 2.8813865993e+00 
31100 6.6419390126e+00 -2.4507386162e-03 1.6636441273e+00 -2.8815161542e+00 1.6636441273e+00 2.8815161542e+00 
31200 6.6419388136e+00 -2.4113444415e-03 1.6637177836e+00 -2.8816437306e+00 1.6637177836e+00 2.8816437306e+00 
31300 6.6419385666e+00 -2.3705233620e-03 1.6637902527e+00 -2.8817692507e+00 1.6637902527e+00 2.8817692507e+00 
31400 6.6419382830e+00 -2.3283485134e-03 1.6638614918e+00 -2.8818926406e+00 1.6638614918e+00 2.8818926406e+00 
31500 6.6419379736e+00 -2.2848925490e-03 1.6639314605e+00 -2.8820138299e+00 1.6639314605e+00 2.8820138299e+00 
31600 6.6419376487e+00 -2.2402275793e-03 1.6640001205e+00 -2.8821327524e+00 1.6640001205e+00 2.8821327524e+00 
31700 6.6419373182e+00 -2.1944251147e-03 1.6640674354e+00 -2.8822493454e+00 1.6640674354e+00 2.8822493454e+00 
31800 6.6419369914e+00 -2.1475560100e-03 1.6641333714e+00 -2.8823635499e+00 1.6641333714e+00 2.8823635499e+00 
31900 6.6419366768e+00 -2.0996904107e-03 1.6641978966e+00 -2.8824753108e+00 1.6641978966e+00 2.8824753108e+00 
32000 6.6419363827e+00 -2.0508977031e-03 1.6642609812e+00 -2.8825845765e+00 1.6642609812e+00 2.8825845765e+00 
32100 6.6419361167e+00 -2.0012464653e-03 1.6643225974e+00 -2.8826912989e+00 1.6643225974e+00 2.8826912989e+00 
32200 6.6419358857e+00 -1.9508044209e-03 1.6643827197e+00 -2.8827954338e+00 1.6643827197e+00 2.8827954338e+00 
32300 6.6419356962e+00 -1.8996383951e-03 1.6644413245e+00 -2.8828969403e+00 1.6644413245e+00 2.8828969403e+00 
32400 6.6419355542e+00 -1.8478142731e-03 1.6644983902e+00 -2.8829957809e+00 1.6644983902e+00 2.8829957809e+00 
32500 6.6419354650e+00 -1.7953969595e-03 1.6645538971e+00 -2.8830919218e+00 1.6645538971e+00 2.8830919218e+00 
32600 6.6419354335e+00 -1.7424503416e-03 1.6646078277e+00 -2.8831853323e+00 1.6646078277e+00 2.8831853323e+00 
32700 6.6419354638e+00 -1.6890372531e-03 1.6646601662e+00 -2.8832759851e+00 1.6646601662e+00 2.8832759851e+00 
32800 6.6419355598e+00 -1.6352194407e-03 1.6647108986e+00 -2.8833638563e+00 1.6647108986e+00 2.8833638563e+00 
32900 6.6419357246e+00 -1.5810575324e-03 1.6647600131e+00 -2.8834489250e+00 1.6647600131e+00 2.8834489250e+00 
33000 6.6419359611e+00 -1.5266110080e-03 1.6648074993e+00 -2.8835311737e+00 1.6648074993e+00 2.8835311737e+00 
33100 6.6419362715e+00 -1.4719381712e-03 1.6648533490e+00 -2.8836105877e+00 1.6648533490e+00 2.8836105877e+00 
33200 6.6419366574e+00 -1.4170961236e-03 1.6648975555e+00 -2.8836871555e+00 1.6648975555e+00 2.8836871555e+00 
33300 6.6419371203e+00 -1.3621407407e-03 1.6649401137e+00 -2.8837608685e+00 1.6649401137e+00 2.8837608685e+00 
33400 6.6419376610e+00 -1.3071266496e-03 1.6649810205e+00 -2.8838317211e+00 1.6649810205e+00 2.8838317211e+00 
33500 6.6419382799e+00 -1.2521072089e-03 1.6650202741e+00 -2.8838997104e+00 1.6650202741e+00 2.8838997104e+00 
33600 6.6419389770e+00 -1.1971344889e-03 1.6650578746e+00 -2.8839648364e+00 1.6650578746e+00 2.8839648364e+00 
33700 6.6419397520e+00 -1.1422592558e-03 1.6650938235e+00 -2.8840271016e+00 1.6650938235e+00 2.8840271016e+00 
33800 6.6419406041e+00 -1.0875309553e-03 1.6651281237e+00 -2.8840865114e+00 1.6651281237e+00 2.8840865114e+00 
33900 6.6419415323e+00 -1.0329976991e-03 1.6651607799e+00 -2.8841430736e+00 1.6651607799e+00 2.8841430736e+00 
34000 6.6419425351e+00 -9.7870625298e-04 1.6651917980e+00 -2.8841967985e+00 1.6651917980e+00 2.8841967985e+00 
34100 6.6419436107e+00 -9.2470202559e-04 1.6652211853e+00 -2.8842476987e+00 1.6652211853e+00 2.8842476987e+00 
34200 6.6419447573e+00 -8.7102905982e-04 1.6652489505e+00 -2.8842957895e+00 1.6652489505e+00 2.8842957895e+00 
34300 6.6419459724e+00 -8.1773002489e-04 1.6652751037e+00 -2.8843410881e+00 1.6652751037e+00 2.8843410881e+00 
34400 6.6419472535e+00 -7.6484621021e-04 1.6652996561e+00 -2.8843836142e+00 1.6652996561e+00 2.8843836142e+00 
34500 6.6419485979e+00 -7.1241752065e-04 1.6653226204e+00 -2.8844233895e+00 1.6653226204e+00 2.8844233895e+00 
34600 6.6419500026e+00 -6.6048247310e-04 1.6653440102e+00 -2.8844604378e+00 1.6653440102e+00 2.8844604378e+00 
34700 6.6419514644e+00 -6.0907819449e-04 1.6653638405e+00 -2.8844947848e+00 1.6653638405e+00 2.8844947848e+00 
34800 6.6419529800e+00 -5.5824042104e-04 1.6653821271e+00 -2.8845264582e+00 1.6653821271e+00 2.8845264582e+00 
34900 6.6419545459e+00 -5.0800349890e-04 1.6653988873e+00 -2.8845554877e+00 1.6653988873e+00 2.8845554877e+00 
35000 6.6419561586e+00 -4.5840038592e-04 1.6654141390e+00 -2.8845819045e+00 1.6654141390e+00 2.8845819045e+00 
35100 6.6419578142e+00 -4.0946265474e-04 1.6654279014e+00 -2.8846057416e+00 1.6654279014e+00 2.8846057416e+00 
35200 6.6419595091e+00 -3.6122049706e-04 1.6654401944e+00 -2.8846270337e+00 1.6654401944e+00 2.8846270337e+00 
35300 6.6419612394e+00 -3.1370272902e-04 1.6654510390e+00 -2.8846458171e+00 1.6654510390e+00 2.8846458171e+00 
35400 6.6419630011e+00 -2.6693679770e-04 1.6654604570e+00 -2.8846621295e+00 1.6654604570e+00 2.8846621295e+00 
35500 6.6419647902e+00 -2.2094878883e-04 1.6654684709e+00 -2.8846760100e+00 1.6654684709e+00 2.8846760100e+00 
35600 6.6419666030e+00 -1.7576343537e-04 1.6654751042e+00 -2.8846874991e+00 1.6654751042e+00 2.8846874991e+00 
35700 6.6419684353e+00 -1.3140412731e-04 1.6654803808e+00 -2.8846966386e+00 1.6654803808e+00 2.8846966386e+00 
35800 6.6419702832e+00 -8.7892922302e-05 1.6654843258e+00 -2.8847034714e+00 1.6654843258e+00 2.8847034714e+00 
35900 6.6419721428e+00 -4.5250557373e-05 1.6654869644e+00 -2.8847080417e+00 1.6654869644e+00 2.8847080417e+00 
36000 6.6419740102e+00 -5.3673222150e-06 1.6654869644e+00 -2.8847080417e+00 1.6654869644e+00 2.8847080417e+00 
36100 6.6419758815e+00 3.5322287331e-05 1.6654869644e+00 -2.8847080417e+00 1.6654869644e+00 2.8847080417e+00 
36200 6.6419777532e+00 7.6776218566e-05 1.6654869644e+00 -2.8847080417e+00 1.6654869644e+00 2.8847080417e+00 
36300 6.6419796214e+00 1.1577844927e-04 1.6654846595e+00 -2.8847040495e+00 1.6654846595e+00 2.8847040495e+00 
36400 6.6419814827e+00 1.5382692894e-04 1.6654811837e+00 -2.8846980292e+00 1.6654811837e+00 2.8846980292e+00 
36500 6.6419833335e+00 1.9090857620e-04 1.6654765656e+00 -2.8846900304e+00 1.6654765656e+00 2.8846900304e+00 
36600 6.6419851705e+00 2.2701152286e-04 1.6654708343e+00 -2.8846801035e+00 1.6654708343e+00 2.8846801035e+00 
36700 6.6419869904e+00 2.6212509580e-04 1.6654640190e+00 -2.8846682991e+00 1.6654640190e+00 2.8846682991e+00 
36800 6.6419887902e+00 2.9623979817e-04 1.6654561496e+00 -2.8846546689e+00 1.6654561496e+00 2.8846546689e+00 
36900 6.6419905668e+00 3.2934728990e-04 1.6654472560e+00 -2.8846392646e+00 1.6654472560e+00 2.8846392646e+00 
37000 6.6419923174e+00 3.6144036767e-04 1.6654373683e+00 -2.8846221387e+00 1.6654373683e+00 2.8846221387e+00 
37100 6.6419940394e+00 3.9251294423e-04 1.6654265171e+00 -2.8846033439e+00 1.6654265171e+00 2.8846033439e+00 
37200 6.6419957303e+00 4.2256002717e-04 1.6654147330e+00 -2.8845829332e+00 1.6654147330e+00 2.8845829332e+00 
37300 6.6419973875e+00 4.5157769728e-04 1.6654020466e+00 -2.8845609598e+00 1.6654020466e+00 2.8845609598e+00 
37400 6.6419990090e+00 4.7956308627e-04 1.6653884890e+00 -2.8845374774e+00 1.6653884890e+00 2.8845374774e+00 
37500 6.6420005927e+00 5.0651435413e-04 1.6653740911e+00 -2.8845125395e+00 1.6653740911e+00 2.8845125395e+00 
37600 6.6420021367e+00 5.3243066605e-04 1.6653588839e+00 -2.8844861998e+00 1.6653588839e+00 2.8844861998e+00 
37700 6.6420036392e+00 5.5731216891e-04 1.6653428985e+00 -2.8844585122e+00 1.6653428985e+00 2.8844585122e+00 
37800 6.6420050988e+00 5.8115996745e-04 1.6653261659e+00 -2.8844295305e+00 1.6653261659e+00 2.8844295305e+00 
37900 6.6420065140e+00 6.0397610010e-04 1.6653087171e+00 -2.8843993082e+00 1.6653087171e+00 2.8843993082e+00 
38000 6.6420078837e+00 6.2576351448e-04 1.6652905830e+00 -2.8843678992e+00 1.6652905830e+00 2.8843678992e+00 
38100 6.6420092067e+00 6.4652604264e-04 1.6652717947e+00 -2.8843353568e+00 1.6652717947e+00 2.8843353568e+00 
38200 6.6420104822e+00 6.6626837607e-04 1.6652523827e+00 -2.8843017342e+00 1.6652523827e+00 2.8843017342e+00 
38300 6.6420117094e+00 6.8499604052e-04 1.6652323777e+00 -2.8842670846e+00 1.6652323777e+00 2.8842670846e+00 
38400 6.6420128878e+00 7.0271537052e-04 1.6652118101e+00 -2.8842314605e+00 1.6652118101e+00 2.8842314605e+00 
38500 6.6420140170e+00 7.1943348390e-04 1.6651907103e+00 -2.8841949145e+00 1.6651907103e+00 2.8841949145e+00 
38600 6.6420150966e+00 7.3515825609e-04 1.6651691082e+00 -2.8841574986e+00 1.6651691082e+00 2.8841574986e+00 
38700 6.6420161266e+00 7.4989829432e-04 1.6651470337e+00 -2.8841192644e+00 1.6651470337e+00 2.8841192644e+00 
38800 6.6420171070e+00 7.6366291176e-04 1.6651245163e+00 -2.8840802631e+00 1.6651245163e+00 2.8840802631e+00 
38900 6.6420180379e+00 7.7646210167e-04 1.6651015852e+00 -2.8840405453e+00 1.6651015852e+00 2.8840405453e+00 
39000 6.6420189196e+00 7.8830651140e-04 1.6650782695e+00 -2.8840001614e+00 1.6650782695e+00 2.8840001614e+00 
39100 6.6420197526e+00 7.9920741655e-04 1.6650545978e+00 -2.8839591608e+00 1.6650545978e+00 2.8839591608e+00 
39200 6.6420205374e+00 8.0917669504e-04 1.6650305984e+00 -2.8839175926e+00 1.6650305984e+00 2.8839175926e+00 
39300 6.6420212746e+00 8.1822680129e-04 1.6650062993e+00 -2.8838755054e+00 1.6650062993e+00 2.8838755054e+00 
39400 6.6420219650e+00 8.2637074049e-04 1.6649817281e+00 -2.8838329468e+00 1.6649817281e+00 2.8838329468e+00 
39500 6.6420226095e+00 8.3362204297e-04 1.6649569120e+00 -2.8837899639e+00 1.6649569120e+00 2.8837899639e+00 
39600 6.6420232090e+00 8.3999473864e-04 1.6649318777e+00 -2.8837466033e+00 1.6649318777e+00 2.8837466033e+00 
39700 6.6420237647e+00 8.4550333170e-04 1.6649066516e+00 -2.8837029105e+00 1.6649066516e+00 2.8837029105e+00 
39800 6.6420242775e+00 8.5016277537e-04 1.6648812598e+00 -2.8836589305e+00 1.6648812598e+00 2.8836589305e+00 
39900 6.6420247488e+00 8.5398844696e-04 1.6648557276e+00 -2.8836147075e+00 1.6648557276e+00 2.8836147075e+00 
40000 6.6420251798e+00 8.5699612305e-04 1.6648300802e+00 -2.8835702848e+00 1.6648300802e+00 2.8835702848e+00 
40100 6.6420255719e+00 8.5920195498e-04 1.6648043420e+00 -2.8835257050e+00 1.6648043420e+00 2.8835257050e+00 
40200 6.6420259265e+00 8.6062244450e-04 1.6647785372e+00 -2.8834810097e+00 1.6647785372e+00 2.8834810097e+00 
40300 6.6420262451e+00 8.6127441982e-04 1.6647526893e+00 -2.8834362399e+00 1.6647526893e+00 2.8834362399e+00 
40400 6.6420265291e+00 8.6117501180e-04 1.6647268214e+00 -2.8833914354e+00 1.6647268214e+00 2.8833914354e+00 
40500 6.6420267800e+00 8.6034163059e-04 1.6647009561e+00 -2.8833466354e+00 1.6647009561e+00 2.8833466354e+00 
40600 6.6420269996e+00 8.5879194249e-04 1.6646751155e+00 -2.8833018781e+00 1.6646751155e+00 2.8833018781e+00 
40700 6.6420271893e+00 8.5654384720e-04 1.6646493209e+00 -2.8832572007e+00 1.6646493209e+00 2.8832572007e+00 
40800 6.6420273507e+00 8.5361545538e-04 1.6646235936e+00 -2.8832126395e+00 1.6646235936e+00 2.8832126395e+00 
40900 6.6420274856e+00 8.5002506666e-04 1.6645979537e+00 -2.8831682300e+00 1.6645979537e+00 2.8831682300e+00 
41000 6.6420275955e+00 8.4579114791e-04 1.6645724213e+00 -2.8831240066e+00 1.6645724213e+00 2.8831240066e+00 
41100 6.6420276821e+00 8.4093231204e-04 1.6645470158e+00 -2.8830800029e+00 1.6645470158e+00 2.8830800029e+00 
41200 6.6420277469e+00 8.3546729707e-04 1.6645217557e+00 -2.8830362512e+00 1.6645217557e+00 2.8830362512e+00 
41300 6.6420277918e+00 8.2941494569e-04 1.6644966595e+00 -2.8829927832e+00 1.6644966595e+00 2.8829927832e+00 
41400 6.6420278181e+00 8.2279418528e-04 1.6644717446e+00 -2.8829496295e+00 1.6644717446e+00 2.8829496295e+00 
41500 6.6420278277e+00 8.1562400826e-04 1.6644470283e+00 -2.8829068196e+00 1.6644470283e+00 2.8829068196e+00 
41600 6.6420278219e+00 8.0792345298e-04 1.6644225270e+00 -2.8828643821e+00 1.6644225270e+00 2.8828643821e+00 
41700 6.6420278024e+00 7.9971158501e-04 1.6643982567e+00 -2.8828223447e+00 1.6643982567e+00 2.8828223447e+00 
41800 6.6420277707e+00 7.9100747891e-04 1.6643742327e+00 -2.8827807339e+00 1.6643742327e+00 2.8827807339e+00 
41900 6.6420277283e+00 7.8183020046e-04 1.6643504699e+00 -2.8827395754e+00 1.6643504699e+00 2.8827395754e+00 
42000 6.6420276766e+00 7.7219878935e-04 1.6643269824e+00 -2.8826988939e+00 1.6643269824e+00 2.8826988939e+00 
42100 6.6420276170e+00 7.6213224237e-04 1.6643037839e+00 -2.8826587129e+00 1.6643037839e+00 2.8826587129e+00 
42200 6.6420275508e+00 7.5164949706e-04 1.6642808875e+00 -2.8826190553e+00 1.6642808875e+00 2.8826190553e+00 
42300 6.6420274795e+00 7.4076941585e-04 1.6642583058e+00 -2.8825799425e+00 1.6642583058e+00 2.8825799425e+00 
42400 6.6420274042e+00 7.2951077069e-04 1.6642360506e+00 -2.8825413954e+00 1.6642360506e+00 2.8825413954e+00 
42500 6.6420273262e+00 7.1789222816e-04 1.6642141333e+00 -2.8825034336e+00 1.6642141333e+00 2.8825034336e+00 
42600 6.6420272466e+00 7.0593233510e-04 1.6641925649e+00 -2.8824660759e+00 1.6641925649e+00 2.8824660759e+00 
42700 6.6420271665e+00 6.9364950470e-04 1.6641713555e+00 -2.8824293402e+00 1.6641713555e+00 2.8824293402e+00 
42800 6.6420270870e+00 6.8106200307e-04 1.6641505148e+00 -2.8823932431e+00 1.6641505148e+00 2.8823932431e+00 
42900 6.6420270090e+00 6.6818793635e-04 1.6641300521e+00 -2.8823578007e+00 1.6641300521e+00 2.8823578007e+00 
43000 6.6420269336e+00 6.5504523831e-04 1.6641099760e+00 -2.8823230277e+00 1.6641099760e+00 2.8823230277e+00 
43100 6.6420268616e+00 6.4165165836e-04 1.6640902945e+00 -2.8822889384e+00 1.6640902945e+00 2.8822889384e+00 
43200 6.6420267937e+00 6.2802475013e-04 1.6640710151e+00 -2.8822555456e+00 1.6640710151e+00 2.8822555456e+00 
43300 6.6420267308e+00 6.1418186055e-04 1.6640521450e+00 -2.8822228617e+00 1.6640521450e+00 2.8822228617e+00 
43400 6.6420266736e+00 6.0014011929e-04 1.6640336907e+00 -2.8821908977e+00 1.6640336907e+00 2.8821908977e+00 
43500 6.6420266226e+00 5.8591642887e-04 1.6640156580e+00 -2.8821596643e+00 1.6640156580e+00 2.8821596643e+00 
43600 6.6420265785e+00 5.7152745504e-04 1.6639980525e+00 -2.8821291707e+00 1.6639980525e+00 2.8821291707e+00 
43700 6.6420265418e+00 5.5698961778e-04 1.6639808793e+00 -2.8820994257e+00 1.6639808793e+00 2.8820994257e+00 
43800 6.6420265130e+00 5.4231908272e-04 1.6639641426e+00 -2.8820704370e+00 1.6639641426e+00 2.8820704370e+00 
43900 6.6420264924e+00 5.2753175302e-04 1.6639478467e+00 -2.8820422115e+00 1.6639478467e+00 2.8820422115e+00 
44000 6.6420264804e+00 5.1264326167e-04 1.6639319949e+00 -2.8820147554e+00 1.6639319949e+00 2.8820147554e+00 
44100 6.6420264773e+00 4.9766896434e-04 1.6639165903e+00 -2.8819880740e+00 1.6639165903e+00 2.8819880740e+00 
44200 6.6420264834e+00 4.8262393253e-04 1.6639016356e+00 -2.8819621716e+00 1.6639016356e+00 2.8819621716e+00 
44300 6.6420264988e+00 4.6752294731e-04 1.6638871328e+00 -2.8819370521e+00 1.6638871328e+00 2.8819370521e+00 
44400 6.6420265237e+00 4.5238049339e-04 1.6638730837e+00 -2.8819127184e+00 1.6638730837e+00 2.8819127184e+00 
44500 6.6420265581e+00 4.3721075362e-04 1.6638594896e+00 -2.8818891726e+00 1.6638594896e+00 2.8818891726e+00 
44600 6.6420266022e+00 4.2202760400e-04 1.6638463511e+00 -2.8818664161e+00 1.6638463511e+00 2.8818664161e+00 
44700 6.6420266559e+00 4.0684460894e-04 1.6638336688e+00 -2.8818444498e+00 1.6638336688e+00 2.8818444498e+00 
44800 6.6420267191e+00 3.9167501709e-04 1.6638214427e+00 -2.8818232736e+00 1.6638214427e+00 2.8818232736e+00 
44900 6.6420267919e+00 3.7653175741e-04 1.6638096724e+00 -2.8818028867e+00 1.6638096724e+00 2.8818028867e+00 
45000 6.6420268740e+00 3.6142743579e-04 1.6637983571e+00 -2.8817832880e+00 1.6637983571e+00 2.8817832880e+00 
45100 6.6420269654e+00 3.4637433187e-04 1.6637874956e+00 -2.8817644753e+00 1.6637874956e+00 2.8817644753e+00 
45200 6.6420270658e+00 3.3138439638e-04 1.6637770864e+00 -2.8817464461e+00 1.6637770864e+00 2.8817464461e+00 
45300 6.6420271750e+00 3.1646924874e-04 1.6637671276e+00 -2.8817291969e+00 1.6637671276e+00 2.8817291969e+00 
45400 6.6420272927e+00 3.0164017507e-04 1.6637576170e+00 -2.8817127241e+00 1.6637576170e+00 2.8817127241e+00 
45500 6.6420274187e+00 2.8690812652e-04 1.6637485519e+00 -2.8816970230e+00 1.6637485519e+00 2.8816970230e+00 
45600 6.6420275527e+00 2.7228371791e-04 1.6637399296e+00 -2.8816820887e+00 1.6637399296e+00 2.8816820887e+00 
45700 6.6420276943e+00 2.5777722678e-04 1.6637317467e+00 -2.8816679155e+00 1.6637317467e+00 2.8816679155e+00 
45800 6.6420278432e+00 2.4339859263e-04 1.6637239998e+00 -2.8816544974e+00 1.6637239998e+00 2.8816544974e+00 
45900 6.6420279991e+00 2.2915741661e-04 1.6637166849e+00 -2.8816418277e+00 1.6637166849e+00 2.8816418277e+00 
46000 6.6420281614e+00 2.1506296138e-04 1.6637097980e+00 -2.8816298992e+00 1.6637097980e+00 2.8816298992e+00 
46100 6.6420283299e+00 2.0112415135e-04 1.6637033347e+00 -2.8816187044e+00 1.6637033347e+00 2.8816187044e+00 
46200 6.6420285041e+00 1.8734957315e-04 1.6636972902e+00 -2.8816082350e+00 1.6636972902e+00 2.8816082350e+00 
46300 6.6420286836e+00 1.7374747642e-04 1.6636916597e+00 -2.8815984827e+00 1.6636916597e+00 2.8815984827e+00 
46400 6.6420288680e+00 1.6032577480e-04 1.6636864379e+00 -2.8815894384e+00 1.6636864379e+00 2.8815894384e+00 
46500 6.6420290568e+00 1.4709204726e-04 1.6636816196e+00 -2.8815810927e+00 1.6636816196e+00 2.8815810927e+00 
46600 6.6420292495e+00 1.3405353956e-04 1.6636771989e+00 -2.8815734358e+00 1.6636771989e+00 2.8815734358e+00 
46700 6.6420294459e+00 1.2121716609e-04 1.6636731700e+00 -2.8815664577e+00 1.6636731700e+00 2.8815664577e+00 
46800 6.6420296453e+00 1.0858951183e-04 1.6636695270e+00 -2.8815601477e+00 1.6636695270e+00 2.8815601477e+00 
46900 6.6420298474e+00 9.6176834572e-05 1.6636662634e+00 -2.8815544951e+00 1.6636662634e+00 2.8815544951e+00 
47000 6.6420300517e+00 8.3985067343e-05 1.6636633729e+00 -2.8815494886e+00 1.6636633729e+00 2.8815494886e+00 
47100 6.6420302578e+00 7.2019821059e-05 1.6636608488e+00 -2.8815451167e+00 1.6636608488e+00 2.8815451167e+00 
47200 6.6420304652e+00 6.0286387343e-05 1.6636586843e+00 -2.8815413677e+00 1.6636586843e+00 2.8815413677e+00 
47300 6.6420306736e+00 5.1291607229e-05 1.6636586843e+00 -2.8815413677e+00 1.6636586843e+00 2.8815413677e+00 
47400 6.6420308825e+00 4.2079312737e-05 1.6636586843e+00 -2.8815413677e+00 1.6636586843e+00 2.8815413677e+00 
47500 6.6420310914e+00 3.2660810600e-05 1.6636586843e+00 -2.8815413677e+00 1.6636586843e+00 2.8815413677e+00 
47600 6.6420312999e+00 2.3047247218e-05 1.6636586843e+00 -2.8815413677e+00 1.6636586843e+00 2.8815413677e+00 
47700 6.6420315078e+00 1.3249609860e-05 1.6636586843e+00 -2.8815413677e+00 1.6636586843e+00 2.8815413677e+00 
47800 6.6420317146e+00 3.2787277964e-06 1.6636586843e+00 -2.8815413677e+00 1.6636586843e+00 2.8815413677e+00 
47900 6.6420319199e+00 -6.8547266772e-06 1.6636586843e+00 -2.8815413677e+00 1.6636586843e+00 2.8815413677e+00 
48000 6.6420321236e+00 -1.7140237292e-05 1.6636586843e+00 -2.8815413677e+00 1.6636586843e+00 2.8815413677e+00 
48100 6.6420323251e+00 -2.7567442943e-05 1.6636586843e+00 -2.8815413677e+00 1.6636586843e+00 2.8815413677e+00 
48200 6.6420325244e+00 -3.8126136923e-05 1.6636586843e+00 -2.8815413677e+00 1.6636586843e+00 2.8815413677e+00 
48300 6.6420327210e+00 -4.8806266232e-05 1.6636586843e+00 -2.8815413677e+00 1.6636586843e+00 2.8815413677e+00 
48400 6.6420329147e+00 -5.9597930981e-05 1.6636586843e+00 -2.8815413677e+00 1.6636586843e+00 2.8815413677e+00 
48500 6.6420331052e+00 -7.0491383862e-05 1.6636586843e+00 -2.8815413677e+00 1.6636586843e+00 2.8815413677e+00 
48600 6.6420332924e+00 -8.1477029714e-05 1.6636586843e+00 -2.8815413677e+00 1.6636586843e+00 2.8815413677e+00 
48700 6.6420334757e+00 -8.9164690213e-05 1.6636611331e+00 -2.8815456090e+00 1.6636611331e+00 2.8815456090e+00 
48800 6.6420336550e+00 -9.6582324987e-05 1.6636638128e+00 -2.8815502505e+00 1.6636638128e+00 2.8815502505e+00 
48900 6.6420338303e+00 -1.0372916606e-04 1.6636667155e+00 -2.8815552782e+00 1.6636667155e+00 2.8815552782e+00 
49000 6.6420340012e+00 -1.1060470515e-04 1.6636698330e+00 -2.8815606778e+00 1.6636698330e+00 2.8815606778e+00 
49100 6.6420341678e+00 -1.1720868770e-04 1.6636731571e+00 -2.8815664354e+00 1.6636731571e+00 2.8815664354e+00 
49200 6.6420343297e+00 -1.2354110688e-04 1.6636766797e+00 -2.8815725367e+00 1.6636766797e+00 2.8815725367e+00 
49300 6.6420344869e+00 -1.2960219758e-04 1.6636803926e+00 -2.8815789676e+00 1.6636803926e+00 2.8815789676e+00 
49400 6.6420346394e+00 -1.3539243031e-04 1.6636842877e+00 -2.8815857140e+00 1.6636842877e+00 2.8815857140e+00 
49500 6.6420347869e+00 -1.4091250520e-04 1.6636883567e+00 -2.8815927618e+00 1.6636883567e+00 2.8815927618e+00 
49600 6.6420349295e+00 -1.4616334588e-04 1.6636925917e+00 -2.8816000969e+00 1.6636925917e+00 2.8816000969e+00 
49700 6.6420350671e+00 -1.5114609340e-04 1.6636969844e+00 -2.8816077054e+00 1.6636969844e+00 2.8816077054e+00 
49800 6.6420351996e+00 -1.5586210013e-04 1.6637015269e+00 -2.8816155732e+00 1.6637015269e+00 2.8816155732e+00 
49900 6.6420353270e+00 -1.6031292364e-04 1.6637062111e+00 -2.8816236865e+00 1.6637062111e+00 2.8816236865e+00 
50000 6.6420354494e+00 -1.6450032066e-04 1.6637110290e+00 -2.8816320314e+00 1.6637110290e+00 2.8816320314e+00 
50100 6.6420355667e+00 -1.6842624090e-04 1.6637159728e+00 -2.8816405943e+00 1.6637159728e+00 2.8816405943e+00 
50200 6.6420356790e+00 -1.7209282101e-04 1.6637210346e+00 -2.8816493615e+00 1.6637210346e+00 2.8816493615e+00 
50300 6.6420357862e+00 -1.7550237847e-04 1.6637262065e+00 -2.8816583195e+00 1.6637262065e+00 2.8816583195e+00 
50400 6.6420358885e+00 -1.7865740552e-04 1.6637314809e+00 -2.8816674550e+00 1.6637314809e+00 2.8816674550e+00 
50500 6.6420359858e+00 -1.8156056313e-04 1.6637368501e+00 -2.8816767547e+00 1.6637368501e+00 2.8816767547e+00 
50600 6.6420360784e+00 -1.8421467493e-04 1.6637423065e+00 -2.8816862055e+00 1.6637423065e+00 2.8816862055e+00 
50700 6.6420361661e+00 -1.8662272119e-04 1.6637478426e+00 -2.8816957944e+00 1.6637478426e+00 2.8816957944e+00 
50800 6.6420362493e+00 -1.8878783287e-04 1.6637534511e+00 -2.8817055086e+00 1.6637534511e+00 2.8817055086e+00 
50900 6.6420363278e+00 -1.9071328560e-04 1.6637591247e+00 -2.8817153355e+00 1.6637591247e+00 2.8817153355e+00 
51000 6.6420364019e+00 -1.9240249379e-04 1.6637648561e+00 -2.8817252626e+00 1.6637648561e+00 2.8817252626e+00 
51100 6.6420364717e+00 -1.9385900467e-04 1.6637706382e+00 -2.8817352776e+00 1.6637706382e+00 2.8817352776e+00 
51200 6.6420365373e+00 -1.9508649250e-04 1.6637764641e+00 -2.8817453683e+00 1.6637764641e+00 2.8817453683e+00 
51300 6.6420365988e+00 -1.9608875267e-04 1.6637823269e+00 -2.8817555229e+00 1.6637823269e+00 2.8817555229e+00 
51400 6.6420366564e+00 -1.9686969593e-04 1.6637882198e+00 -2.8817657297e+00 1.6637882198e+00 2.8817657297e+00 
51500 6.6420367102e+00 -1.9743334266e-04 1.6637941361e+00 -2.8817759770e+00 1.6637941361e+00 2.8817759770e+00 
51600 6.6420367604e+00 -1.9778381713e-04 1.6638000693e+00 -2.8817862537e+00 1.6638000693e+00 2.8817862537e+00 
51700 6.6420368071e+00 -1.9792534189e-04 1.6638060130e+00 -2.8817965485e+00 1.6638060130e+00 2.8817965485e+00 
51800 6.6420368505e+00 -1.9786223212e-04 1.6638119610e+00 -2.8818068507e+00 1.6638119610e+00 2.8818068507e+00 
51900 6.6420368907e+00 -1.9759889010e-04 1.6638179071e+00 -2.8818171496e+00 1.6638179071e+00 2.8818171496e+00 
52000 6.6420369279e+00 -1.9713979968e-04 1.6638238452e+00 -2.8818274347e+00 1.6638238452e+00 2.8818274347e+00 
52100 6.6420369622e+00 -1.9648952090e-04 1.6638297695e+00 -2.8818376959e+00 1.6638297695e+00 2.8818376959e+00 
52200 6.6420369939e+00 -1.9565268451e-04 1.6638356742e+00 -2.8818479232e+00 1.6638356742e+00 2.8818479232e+00 
52300 6.6420370230e+00 -1.9463398672e-04 1.6638415538e+00 -2.8818581069e+00 1.6638415538e+00 2.8818581069e+00 
52400 6.6420370498e+00 -1.9343818390e-04 1.6638474027e+00 -2.8818682376e+00 1.6638474027e+00 2.8818682376e+00 
52500 6.6420370744e+00 -1.9207008738e-04 1.6638532157e+00 -2.8818783060e+00 1.6638532157e+00 2.8818783060e+00 
52600 6.6420370970e+00 -1.9053455835e-04 1.6638589876e+00 -2.8818883031e+00 1.6638589876e+00 2.8818883031e+00 
52700 6.6420371177e+00 -1.8883650273e-04 1.6638647133e+00 -2.8818982203e+00 1.6638647133e+00 2.8818982203e+00 
52800 6.6420371367e+00 -1.8698086623e-04 1.6638703879e+00 -2.8819080490e+00 1.6638703879e+00 2.8819080490e+00 
52900 6.6420371541e+00 -1.8497262940e-04 1.6638760068e+00 -2.8819177812e+00 1.6638760068e+00 2.8819177812e+00 
53000 6.6420371701e+00 -1.8281680278e-04 1.6638815652e+00 -2.8819274088e+00 1.6638815652e+00 2.8819274088e+00 
53100 6.6420371849e+00 -1.8051842214e-04 1.6638870589e+00 -2.8819369241e+00 1.6638870589e+00 2.8819369241e+00 
53200 6.6420371986e+00 -1.7808254373e-04 1.6638924835e+00 -2.8819463198e+00 1.6638924835e+00 2.8819463198e+00 
53300 6.6420372112e+00 -1.7551423974e-04 1.6638978349e+00 -2.8819555887e+00 1.6638978349e+00 2.8819555887e+00 
53400 6.6420372230e+00 -1.7281859365e-04 1.6639031091e+00 -2.8819647238e+00 1.6639031091e+00 2.8819647238e+00 
53500 6.6420372342e+00 -1.7000069589e-04 1.6639083023e+00 -2.8819737187e+00 1.6639083023e+00 2.8819737187e+00 
53600 6.6420372447e+00 -1.6706563933e-04 1.6639134108e+00 -2.8819825668e+00 1.6639134108e+00 2.8819825668e+00 
53700 6.6420372548e+00 -1.6401851510e-04 1.6639184310e+00 -2.8819912622e+00 1.6639184310e+00 2.8819912622e+00 
53800 6.6420372645e+00 -1.6086440829e-04 1.6639233597e+00 -2.8819997989e+00 1.6639233597e+00 2.8819997989e+00 
53900 6.6420372740e+00 -1.5760839390e-04 1.6639281936e+00 -2.8820081715e+00 1.6639281936e+00 2.8820081715e+00 
54000 6.6420372834e+00 -1.5425553273e-04 1.6639329296e+00 -2.8820163745e+00 1.6639329296e+00 2.8820163745e+00 
54100 6.6420372927e+00 -1.5081086748e-04 1.6639375649e+00 -2.8820244030e+00 1.6639375649e+00 2.8820244030e+00 
54200 6.6420373021e+00 -1.4727941889e-04 1.6639420967e+00 -2.8820322523e+00 1.6639420967e+00 2.8820322523e+00 
54300 6.6420373116e+00 -1.4366618193e-04 1.6639465223e+00 -2.8820399177e+00 1.6639465223e+00 2.8820399177e+00 
54400 6.6420373214e+00 -1.3997612217e-04 1.6639508393e+00 -2.8820473950e+00 1.6639508393e+00 2.8820473950e+00 
54500 6.6420373315e+00 -1.3621417218e-04 1.6639550454e+00 -2.8820546802e+00 1.6639550454e+00 2.8820546802e+00 
54600 6.6420373419e+00 -1.3238522802e-04 1.6639591385e+00 -2.8820617697e+00 1.6639591385e+00 2.8820617697e+00 
54700 6.6420373528e+00 -1.2849414589e-04 1.6639631166e+00 -2.8820686598e+00 1.6639631166e+00 2.8820686598e+00 
54800 6.6420373642e+00 -1.2454573877e-04 1.6639669776e+00 -2.8820753474e+00 1.6639669776e+00 2.8820753474e+00 
54900 6.6420373761e+00 -1.2054477326e-04 1.6639707201e+00 -2.8820818295e+00 1.6639707201e+00 2.8820818295e+00 
55000 6.6420373886e+00 -1.1649596648e-04 1.6639743423e+00 -2.8820881033e+00 1.6639743423e+00 2.8820881033e+00 
55100 6.6420374018e+00 -1.1240398300e-04 1.6639778428e+00 -2.8820941664e+00 1.6639778428e+00 2.8820941664e+00 
55200 6.6420374156e+00 -1.0827343199e-04 1.6639812204e+00 -2.8821000166e+00 1.6639812204e+00 2.8821000166e+00 
55300 6.6420374302e+00 -1.0410886437e-04 1.6639844738e+00 -2.8821056517e+00 1.6639844738e+00 2.8821056517e+00 
55400 6.6420374454e+00 -9.9914770121e-05 1.6639876021e+00 -2.8821110701e+00 1.6639876021e+00 2.8821110701e+00 
55500 6.6420374614e+00 -9.5695575635e-05 1.6639906044e+00 -2.8821162701e+00 1.6639906044e+00 2.8821162701e+00 
55600 6.6420374782e+00 -9.1455641217e-05 1.6639934799e+00 -2.8821212506e+00 1.6639934799e+00 2.8821212506e+00 
55700 6.6420374957e+00 -8.7199258672e-05 1.6639962280e+00 -2.8821260104e+00 1.6639962280e+00 2.8821260104e+00 
55800 6.6420375140e+00 -8.2930648966e-05 1.6639988481e+00 -2.8821305487e+00 1.6639988481e+00 2.8821305487e+00 
55900 6.6420375331e+00 -7.8653960027e-05 1.6640013401e+00 -2.8821348648e+00 1.6640013401e+00 2.8821348648e+00 
56000 6.6420375530e+00 -7.4373264616e-05 1.6640037035e+00 -2.8821389584e+00 1.6640037035e+00 2.8821389584e+00 
56100 6.6420375736e+00 -7.0092558314e-05 1.6640059382e+00 -2.8821428291e+00 1.6640059382e+00 2.8821428291e+00 
56200 6.6420375951e+00 -6.8721642443e-05 1.6640059382e+00 -2.8821428291e+00 1.6640059382e+00 2.8821428291e+00 
56300 6.6420376174e+00 -6.7202293333e-05 1.6640059382e+00 -2.8821428291e+00 1.6640059382e+00 2.8821428291e+00 
56400 6.6420376403e+00 -6.5537746159e-05 1.6640059382e+00 -2.8821428291e+00 1.6640059382e+00 2.8821428291e+00 
56500 6.6420376639e+00 -6.3731243574e-05 1.6640059382e+00 -2.8821428291e+00 1.6640059382e+00 2.8821428291e+00 
56600 6.6420376881e+00 -6.1786035349e-05 1.6640059382e+00 -2.8821428291e+00 1.6640059382e+00 2.8821428291e+00 
56700 6.6420377130e+00 -5.9705377969e-05 1.6640059382e+00 -2.8821428291e+00 1.6640059382e+00 2.8821428291e+00 
56800 6.6420377384e+00 -5.7492534184e-05 1.6640059382e+00 -2.8821428291e+00 1.6640059382e+00 2.8821428291e+00 
56900 6.6420377645e+00 -5.5150772520e-05 1.6640059382e+00 -2.8821428291e+00 1.6640059382e+00 2.8821428291e+00 
57000 6.6420377910e+00 -5.2683366744e-05 1.6640059382e+00 -2.8821428291e+00 1.6640059382e+00 2.8821428291e+00 
57100 6.6420378180e+00 -5.0093595284e-05 1.6640059382e+00 -2.8821428291e+00 1.6640059382e+00 2.8821428291e+00 
57200 6.6420378455e+00 -4.7384740614e-05 1.6640059382e+00 -2.8821428291e+00 1.6640059382e+00 2.8821428291e+00 
57300 6.6420378734e+00 -4.4560088577e-05 1.6640059382e+00 -2.8821428291e+00 1.6640059382e+00 2.8821428291e+00 
57400 6.6420379017e+00 -4.1622927701e-05 1.6640059382e+00 -2.8821428291e+00 1.6640059382e+00 2.8821428291e+00 
57500 6.6420379304e+00 -3.8576548441e-05 1.6640059382e+00 -2.8821428291e+00 1.6640059382e+00 2.8821428291e+00 
57600 6.6420379593e+00 -3.5424242401e-05 1.6640059382e+00 -2.8821428291e+00 1.6640059382e+00 2.8821428291e+00 
57700 6.6420379885e+00 -3.2169301515e-05 1.6640059382e+00 -2.8821428291e+00 1.6640059382e+00 2.8821428291e+00 
57800 6.6420380179e+00 -2.8815017193e-05 1.6640059382e+00 -2.8821428291e+00 1.6640059382e+00 2.8821428291e+00 
57900 6.6420380476e+00 -2.5364679425e-05 1.6640059382e+00 -2.8821428291e+00 1.6640059382e+00 2.8821428291e+00 
58000 6.6420380773e+00 -2.1821575867e-05 1.6640059382e+00 -2.8821428291e+00 1.6640059382e+00 2.8821428291e+00 
58100 6.6420381072e+00 -1.8188990868e-05 1.6640059382e+00 -2.8821428291e+00 1.6640059382e+00 2.8821428291e+00 
58200 6.6420381372e+00 -1.4470204503e-05 1.6640059382e+00 -2.8821428291e+00 1.6640059382e+00 2.8821428291e+00 
58300 6.6420381671e+00 -1.0668491535e-05 1.6640059382e+00 -2.8821428291e+00 1.6640059382e+00 2.8821428291e+00 
58400 6.6420381971e+00 -6.7871203921e-06 1.6640059382e+00 -2.8821428291e+00 1.6640059382e+00 2.8821428291e+00 
58500 6.6420382270e+00 -2.8293520853e-06 1.6640059382e+00 -2.8821428291e+00 1.6640059382e+00 2.8821428291e+00 
58600 6.6420382569e+00 1.2015608758e-06 1.6640059382e+00 -2.8821428291e+00 1.6640059382e+00 2.8821428291e+00 
58700 6.6420382866e+00 5.3023756079e-06 1.6640059382e+00 -2.8821428291e+00 1.6640059382e+00 2.8821428291e+00 
58800 6.6420383161e+00 9.4698599790e-06 1.6640059382e+00 -2.8821428291e+00 1.6640059382e+00 2.8821428291e+00 
58900 6.6420383455e+00 1.3700793771e-05 1.6640059382e+00 -2.8821428291e+00 1.6640059382e+00 2.8821428291e+00 
59000 6.6420383747e+00 1.7991969842e-05 1.6640059382e+00 -2.8821428291e+00 1.6640059382e+00 2.8821428291e+00 
59100 6.6420384035e+00 2.2340195321e-05 1.6640059382e+00 -2.8821428291e+00 1.6640059382e+00 2.8821428291e+00 
59200 6.6420384322e+00 2.6742292795e-05 1.6640059382e+00 -2.8821428291e+00 1.6640059382e+00 2.8821428291e+00 
59300 6.6420384605e+00 3.1195101532e-05 1.6640059382e+00 -2.8821428291e+00 1.6640059382e+00 2.8821428291e+00 
59400 6.6420384884e+00 3.5695478690e-05 1.6640059382e+00 -2.8821428291e+00 1.6640059382e+00 2.8821428291e+00 
59500 6.6420385160e+00 4.0240300543e-05 1.6640059382e+00 -2.8821428291e+00 1.6640059382e+00 2.8821428291e+00 
59600 6.6420385432e+00 4.4826463718e-05 1.6640059382e+00 -2.8821428291e+00 1.6640059382e+00 2.8821428291e+00 
59700 6.6420385700e+00 4.9450886429e-05 1.6640059382e+00 -2.8821428291e+00 1.6640059382e+00 2.8821428291e+00 
59800 6.6420385963e+00 5.4110509707e-05 1.6640059382e+00 -2.8821428291e+00 1.6640059382e+00 2.8821428291e+00 
59900 6.6420386222e+00 5.8802298650e-05 1.6640059382e+00 -2.8821428291e+00 1.6640059382e+00 2.8821428291e+00 
60000 6.6420386477e+00 6.3523243642e-05 1.6640059382e+00 -2.8821428291e+00 1.6640059382e+00 2.8821428291e+00 
60100 6.6420386726e+00 6.8270361594e-05 1.6640059382e+00 -2.8821428291e+00 1.6640059382e+00 2.8821428291e+00 
60200 6.6420386970e+00 7.3040697166e-05 1.6640059382e+00 -2.8821428291e+00 1.6640059382e+00 2.8821428291e+00 
60300 6.6420387207e+00 7.4802945293e-05 1.6640037435e+00 -2.8821390277e+00 1.6640037435e+00 2.8821390277e+00 
60400 6.6420387439e+00 7.6487469709e-05 1.6640014958e+00 -2.8821351346e+00 1.6640014958e+00 2.8821351346e+00 
60500 6.6420387665e+00 7.8093626607e-05 1.6639991975e+00 -2.8821311539e+00 1.6639991975e+00 2.8821311539e+00 
60600 6.6420387884e+00 7.9620883863e-05 1.6639968510e+00 -2.8821270895e+00 1.6639968510e+00 2.8821270895e+00 
60700 6.6420388098e+00 8.1068818080e-05 1.6639944585e+00 -2.8821229456e+00 1.6639944585e+00 2.8821229456e+00 
60800 6.6420388307e+00 8.2437111644e-05 1.6639920225e+00 -2.8821187264e+00 1.6639920225e+00 2.8821187264e+00 
60900 6.6420388509e+00 8.3725549784e-05 1.6639895454e+00 -2.8821144360e+00 1.6639895454e+00 2.8821144360e+00 
61000 6.6420388705e+00 8.4934017666e-05 1.6639870296e+00 -2.8821100785e+00 1.6639870296e+00 2.8821100785e+00 
61100 6.6420388895e+00 8.6062497477e-05 1.6639844775e+00 -2.8821056581e+00 1.6639844775e+00 2.8821056581e+00 
61200 6.6420389079e+00 8.7111065524e-05 1.6639818915e+00 -2.8821011789e+00 1.6639818915e+00 2.8821011789e+00 
61300 6.6420389257e+00 8.8079889373e-05 1.6639792739e+00 -2.8820966452e+00 1.6639792739e+00 2.8820966452e+00 
61400 6.6420389429e+00 8.8969224965e-05 1.6639766273e+00 -2.8820920610e+00 1.6639766273e+00 2.8820920610e+00 
61500 6.6420389595e+00 8.9779413774e-05 1.6639739539e+00 -2.8820874306e+00 1.6639739539e+00 2.8820874306e+00 
61600 6.6420389756e+00 9.0510879976e-05 1.6639712561e+00 -2.8820827580e+00 1.6639712561e+00 2.8820827580e+00 
61700 6.6420389910e+00 9.1164127606e-05 1.6639685364e+00 -2.8820780473e+00 1.6639685364e+00 2.8820780473e+00 
61800 6.6420390059e+00 9.1739737776e-05 1.6639657970e+00 -2.8820733025e+00 1.6639657970e+00 2.8820733025e+00 
61900 6.6420390203e+00 9.2238365885e-05 1.6639630404e+00 -2.8820685279e+00 1.6639630404e+00 2.8820685279e+00 
62000 6.6420390341e+00 9.2660738837e-05 1.6639602687e+00 -2.8820637272e+00 1.6639602687e+00 2.8820637272e+00 
62100 6.6420390474e+00 9.3007652309e-05 1.6639574844e+00 -2.8820589046e+00 1.6639574844e+00 2.8820589046e+00 
62200 6.6420390601e+00 9.3279968006e-05 1.6639546896e+00 -2.8820540639e+00 1.6639546896e+00 2.8820540639e+00 
62300 6.6420390723e+00 9.3478610966e-05 1.6639518867e+00 -2.8820492091e+00 1.6639518867e+00 2.8820492091e+00 
62400 6.6420390841e+00 9.3604566861e-05 1.6639490777e+00 -2.8820443438e+00 1.6639490777e+00 2.8820443438e+00 
62500 6.6420390954e+00 9.3658879350e-05 1.6639462650e+00 -2.8820394721e+00 1.6639462650e+00 2.8820394721e+00 
62600 6.6420391061e+00 9.3642647414e-05 1.6639434507e+00 -2.8820345975e+00 1.6639434507e+00 2.8820345975e+00 
62700 6.6420391165e+00 9.3557022755e-05 1.6639406368e+00 -2.8820297237e+00 1.6639406368e+00 2.8820297237e+00 
62800 6.6420391264e+00 9.3403207212e-05 1.6639378255e+00 -2.8820248544e+00 1.6639378255e+00 2.8820248544e+00 
62900 6.6420391359e+00 9.3182450180e-05 1.6639350188e+00 -2.8820199930e+00 1.6639350188e+00 2.8820199930e+00 
63000 6.6420391450e+00 9.2896046083e-05 1.6639322187e+00 -2.8820151432e+00 1.6639322187e+00 2.8820151432e+00 
63100 6.6420391537e+00 9.2545331870e-05 1.6639294273e+00 -2.8820103082e+00 1.6639294273e+00 2.8820103082e+00 
63200 6.6420391621e+00 9.2131684527e-05 1.6639266463e+00 -2.8820054915e+00 1.6639266463e+00 2.8820054915e+00 
63300 6.6420391701e+00 9.1656518633e-05 1.6639238778e+00 -2.8820006963e+00 1.6639238778e+00 2.8820006963e+00 
63400 6.6420391778e+00 9.1121283949e-05 1.6639211236e+00 -2.8819959259e+00 1.6639211236e+00 2.8819959259e+00 
63500 6.6420391851e+00 9.0527463021e-05 1.6639183855e+00 -2.8819911833e+00 1.6639183855e+00 2.8819911833e+00 
63600 6.6420391922e+00 8.9876568844e-05 1.6639156651e+00 -2.8819864715e+00 1.6639156651e+00 2.8819864715e+00 
63700 6.6420391990e+00 8.9170142526e-05 1.6639129644e+00 -2.8819817937e+00 1.6639129644e+00 2.8819817937e+00 
63800 6.6420392055e+00 8.8409751028e-05 1.6639102849e+00 -2.8819771526e+00 1.6639102849e+00 2.8819771526e+00 
63900 6.6420392118e+00 8.7596984890e-05 1.6639076282e+00 -2.8819725511e+00 1.6639076282e+00 2.8819725511e+00 
64000 6.6420392178e+00 8.6733456049e-05 1.6639049959e+00 -2.8819679919e+00 1.6639049959e+00 2.8819679919e+00 
64100 6.6420392236e+00 8.5820795654e-05 1.6639023896e+00 -2.8819634776e+00 1.6639023896e+00 2.8819634776e+00 
64200 6.6420392293e+00 8.4860651918e-05 1.6638998107e+00 -2.8819590108e+00 1.6638998107e+00 2.8819590108e+00 
64300 6.6420392348e+00 8.3854688046e-05 1.6638972606e+00 -2.8819545940e+00 1.6638972606e+00 2.8819545940e+00 
64400 6.6420392401e+00 8.2804580163e-05 1.6638947408e+00 -2.8819502295e+00 1.6638947408e+00 2.8819502295e+00 
64500 6.6420392452e+00 8.1712015300e-05 1.6638922525e+00 -2.8819459197e+00 1.6638922525e+00 2.8819459197e+00 
64600 6.6420392502e+00 8.0578689429e-05 1.6638897971e+00 -2.8819416667e+00 1.6638897971e+00 2.8819416667e+00 
64700 6.6420392551e+00 7.9406305509e-05 1.6638873757e+00 -2.8819374728e+00 1.6638873757e+00 2.8819374728e+00 
64800 6.6420392599e+00 7.8196571620e-05 1.6638849895e+00 -2.8819333398e+00 1.6638849895e+00 2.8819333398e+00 
64900 6.6420392646e+00 7.6951199090e-05 1.6638826397e+00 -2.8819292698e+00 1.6638826397e+00 2.8819292698e+00 
65000 6.6420392692e+00 7.5671900707e-05 1.6638803273e+00 -2.8819252646e+00 1.6638803273e+00 2.8819252646e+00 
65100 6.6420392737e+00 7.4360388942e-05 1.6638780533e+00 -2.8819213260e+00 1.6638780533e+00 2.8819213260e+00 
65200 6.6420392782e+00 7.3018374243e-05 1.6638758188e+00 -2.8819174556e+00 1.6638758188e+00 2.8819174556e+00 
65300 6.6420392826e+00 7.1647563350e-05 1.6638736246e+00 -2.8819136551e+00 1.6638736246e+00 2.8819136551e+00 
65400 6.6420392870e+00 7.0249657675e-05 1.6638714715e+00 -2.8819099260e+00 1.6638714715e+00 2.8819099260e+00 
65500 6.6420392916e+00 7.1739811956e-05 1.6638714715e+00 -2.8819099260e+00 1.6638714715e+00 2.8819099260e+00 
65600 6.6420392959e+00 7.0193175070e-05 1.6638693157e+00 -2.8819061920e+00 1.6638693157e+00 2.8819061920e+00 
65700 6.6420393004e+00 7.1539324598e-05 1.6638693157e+00 -2.8819061920e+00 1.6638693157e+00 2.8819061920e+00 
65800 6.6420393047e+00 6.9857960200e-05 1.6638671659e+00 -2.8819024685e+00 1.6638671659e+00 2.8819024685e+00 
65900 6.6420393092e+00 7.1062148338e-05 1.6638671659e+00 -2.8819024685e+00 1.6638671659e+00 2.8819024685e+00 
66000 6.6420393135e+00 6.9259668385e-05 1.6638650305e+00 -2.8818987697e+00 1.6638650305e+00 2.8818987697e+00 
66100 6.6420393180e+00 7.0324207609e-05 1.6638650305e+00 -2.8818987697e+00 1.6638650305e+00 2.8818987697e+00 
66200 6.6420393225e+00 7.1330398881e-05 1.6638650305e+00 -2.8818987697e+00 1.6638650305e+00 2.8818987697e+00 
66300 6.6420393268e+00 6.9320797479e-05 1.6638628870e+00 -2.8818950571e+00 1.6638628870e+00 2.8818950571e+00 
66400 6.6420393313e+00 7.0191309641e-05 1.6638628870e+00 -2.8818950571e+00 1.6638628870e+00 2.8818950571e+00 
66500 6.6420393359e+00 7.1005566271e-05 1.6638628870e+00 -2.8818950571e+00 1.6638628870e+00 2.8818950571e+00 
66600 6.6420393403e+00 6.8819637674e-05 1.6638607532e+00 -2.8818913613e+00 1.6638607532e+00 2.8818913613e+00 
66700 6.6420393449e+00 6.9502633323e-05 1.6638607532e+00 -2.8818913613e+00 1.6638607532e+00 2.8818913613e+00 
66800 6.6420393496e+00 7.0131602989e-05 1.6638607532e+00 -2.8818913613e+00 1.6638607532e+00 2.8818913613e+00 
66900 6.6420393543e+00 7.0707483881e-05 1.6638607532e+00 -2.8818913613e+00 1.6638607532e+00 2.8818913613e+00 
67000 6.6420393590e+00 7.1231214080e-05 1.6638607532e+00 -2.8818913613e+00 1.6638607532e+00 2.8818913613e+00 
67100 6.6420393636e+00 6.8749556200e-05 1.6638586127e+00 -2.8818876538e+00 1.6638586127e+00 2.8818876538e+00 
67200 6.6420393683e+00 6.9150303425e-05 1.6638586127e+00 -2.8818876538e+00 1.6638586127e+00 2.8818876538e+00 
67300 6.6420393732e+00 6.9501264935e-05 1.6638586127e+00 -2.8818876538e+00 1.6638586127e+00 2.8818876538e+00 
67400 6.6420393780e+00 6.9803422972e-05 1.6638586127e+00 -2.8818876538e+00 1.6638586127e+00 2.8818876538e+00 
67500 6.6420393829e+00 7.0057760147e-05 1.6638586127e+00 -2.8818876538e+00 1.6638586127e+00 2.8818876538e+00 
67600 6.6420393878e+00 7.0265259485e-05 1.6638586127e+00 -2.8818876538e+00 1.6638586127e+00 2.8818876538e+00 
67700 6.6420393927e+00 7.0426904502e-05 1.6638586127e+00 -2.8818876538e+00 1.6638586127e+00 2.8818876538e+00 
67800 6.6420393977e+00 7.0543679232e-05 1.6638586127e+00 -2.8818876538e+00 1.6638586127e+00 2.8818876538e+00 
67900 6.6420394027e+00 7.0616568225e-05 1.6638586127e+00 -2.8818876538e+00 1.6638586127e+00 2.8818876538e+00 
68000 6.6420394077e+00 7.0646556563e-05 1.6638586127e+00 -2.8818876538e+00 1.6638586127e+00 2.8818876538e+00 
68100 6.6420394127e+00 7.0634629816e-05 1.6638586127e+00 -2.8818876538e+00 1.6638586127e+00 2.8818876538e+00 
68200 6.6420394178e+00 7.0581774018e-05 1.6638586127e+00 -2.8818876538e+00 1.6638586127e+00 2.8818876538e+00 
68300 6.6420394228e+00 7.0488975592e-05 1.6638586127e+00 -2.8818876538e+00 1.6638586127e+00 2.8818876538e+00 
68400 6.6420394279e+00 7.0357221273e-05 1.6638586127e+00 -2.8818876538e+00 1.6638586127e+00 2.8818876538e+00 
68500 6.6420394330e+00 7.0187498019e-05 1.6638586127e+00 -2.8818876538e+00 1.6638586127e+00 2.8818876538e+00 
68600 6.6420394380e+00 6.9980792887e-05 1.6638586127e+00 -2.8818876538e+00 1.6638586127e+00 2.8818876538e+00 
68700 6.6420394431e+00 6.9738092909e-05 1.6638586127e+00 -2.8818876538e+00 1.6638586127e+00 2.8818876538e+00 
68800 6.6420394482e+00 6.9460384945e-05 1.6638586127e+00 -2.8818876538e+00 1.6638586127e+00 2.8818876538e+00 
68900 6.6420394533e+00 6.9148655518e-05 1.6638586127e+00 -2.8818876538e+00 1.6638586127e+00 2.8818876538e+00 
69000 6.6420394583e+00 6.8803890634e-05 1.6638586127e+00 -2.8818876538e+00 1.6638586127e+00 2.8818876538e+00 
69100 6.6420394634e+00 6.8427075592e-05 1.6638586127e+00 -2.8818876538e+00 1.6638586127e+00 2.8818876538e+00 
69200 6.6420394684e+00 6.8019194776e-05 1.6638586127e+00 -2.8818876538e+00 1.6638586127e+00 2.8818876538e+00 
69300 6.6420394734e+00 6.7581231436e-05 1.6638586127e+00 -2.8818876538e+00 1.6638586127e+00 2.8818876538e+00 
69400 6.6420394784e+00 6.7114167445e-05 1.6638586127e+00 -2.8818876538e+00 1.6638586127e+00 2.8818876538e+00 
69500 6.6420394834e+00 6.6618983066e-05 1.6638586127e+00 -2.8818876538e+00 1.6638586127e+00 2.8818876538e+00 
69600 6.6420394883e+00 6.6096656679e-05 1.6638586127e+00 -2.8818876538e+00 1.6638586127e+00 2.8818876538e+00 
69700 6.6420394932e+00 6.5548164520e-05 1.6638586127e+00 -2.8818876538e+00 1.6638586127e+00 2.8818876538e+00 
69800 6.6420394981e+00 6.4974480393e-05 1.6638586127e+00 -2.8818876538e+00 1.6638586127e+00 2.8818876538e+00 
69900 6.6420395029e+00 6.4376575386e-05 1.6638586127e+00 -2.8818876538e+00 1.6638586127e+00 2.8818876538e+00 
70000 6.6420395077e+00 6.3755417566e-05 1.6638586127e+00 -2.8818876538e+00 1.6638586127e+00 2.8818876538e+00 
70100 6.6420395125e+00 6.3111971668e-05 1.6638586127e+00 -2.8818876538e+00 1.6638586127e+00 2.8818876538e+00 
70200 6.6420395171e+00 6.2447198777e-05 1.6638586127e+00 -2.8818876538e+00 1.6638586127e+00 2.8818876538e+00 
70300 6.6420395218e+00 6.1762056005e-05 1.6638586127e+00 -2.8818876538e+00 1.6638586127e+00 2.8818876538e+00 
70400 6.6420395264e+00 6.1057496159e-05 1.6638586127e+00 -2.8818876538e+00 1.6638586127e+00 2.8818876538e+00 
70500 6.6420395309e+00 6.0334467401e-05 1.6638586127e+00 -2.8818876538e+00 1.6638586127e+00 2.8818876538e+00 
70600 6.6420395354e+00 5.9593912901e-05 1.6638586127e+00 -2.8818876538e+00 1.6638586127e+00 2.8818876538e+00 
70700 6.6420395398e+00 5.8836770493e-05 1.6638586127e+00 -2.8818876538e+00 1.6638586127e+00 2.8818876538e+00 
70800 6.6420395441e+00 5.8063972326e-05 1.6638586127e+00 -2.8818876538e+00 1.6638586127e+00 2.8818876538e+00 
70900 6.6420395484e+00 5.7276444490e-05 1.6638586127e+00 -2.8818876538e+00 1.6638586127e+00 2.8818876538e+00 
71000 6.6420395526e+00 5.6475106675e-05 1.6638586127e+00 -2.8818876538e+00 1.6638586127e+00 2.8818876538e+00 
71100 6.6420395568e+00 5.5660871803e-05 1.6638586127e+00 -2.8818876538e+00 1.6638586127e+00 2.8818876538e+00 
71200 6.6420395609e+00 5.4834645657e-05 1.6638586127e+00 -2.8818876538e+00 1.6638586127e+00 2.8818876538e+00 
71300 6.6420395649e+00 5.3997326534e-05 1.6638586127e+00 -2.8818876538e+00 1.6638586127e+00 2.8818876538e+00 
71400 6.6420395688e+00 5.3149804859e-05 1.6638586127e+00 -2.8818876538e+00 1.6638586127e+00 2.8818876538e+00 
71500 6.6420395727e+00 5.2292962835e-05 1.6638586127e+00 -2.8818876538e+00 1.6638586127e+00 2.8818876538e+00 
71600 6.6420395765e+00 5.1427674083e-05 1.6638586127e+00 -2.8818876538e+00 1.6638586127e+00 2.8818876538e+00 
71700 6.6420395802e+00 5.0554803271e-05 1.6638586127e+00 -2.8818876538e+00 1.6638586127e+00 2.8818876538e+00 
71800 6.6420395839e+00 4.9675205751e-05 1.6638586127e+00 -2.8818876538e+00 1.6638586127e+00 2.8818876538e+00 
71900 6.6420395875e+00 4.8789727219e-05 1.6638586127e+00 -2.8818876538e+00 1.6638586127e+00 2.8818876538e+00 
72000 6.6420395910e+00 4.7899203342e-05 1.6638586127e+00 -2.8818876538e+00 1.6638586127e+00 2.8818876538e+00 
72100 6.6420395944e+00 4.7004459428e-05 1.6638586127e+00 -2.8818876538e+00 1.6638586127e+00 2.8818876538e+00 
72200 6.6420395978e+00 4.6106310065e-05 1.6638586127e+00 -2.8818876538e+00 1.6638586127e+00 2.8818876538e+00 
72300 6.6420396011e+00 4.5205558789e-05 1.6638586127e+00 -2.8818876538e+00 1.6638586127e+00 2.8818876538e+00 
72400 6.6420396043e+00 4.4302997744e-05 1.6638586127e+00 -2.8818876538e+00 1.6638586127e+00 2.8818876538e+00 
72500 6.6420396074e+00 4.3399407364e-05 1.6638586127e+00 -2.8818876538e+00 1.6638586127e+00 2.8818876538e+00 
72600 6.6420396105e+00 4.2495556036e-05 1.6638586127e+00 -2.8818876538e+00 1.6638586127e+00 2.8818876538e+00 
72700 6.6420396135e+00 4.1592199798e-05 1.6638586127e+00 -2.8818876538e+00 1.6638586127e+00 2.8818876538e+00 
72800 6.6420396164e+00 4.0690082023e-05 1.6638586127e+00 -2.8818876538e+00 1.6638586127e+00 2.8818876538e+00 
72900 6.6420396193e+00 3.9789933124e-05 1.6638586127e+00 -2.8818876538e+00 1.6638586127e+00 2.8818876538e+00 
73000 6.6420396221e+00 3.8892470257e-05 1.6638586127e+00 -2.8818876538e+00 1.6638586127e+00 2.8818876538e+00 
73100 6.6420396248e+00 3.7998397044e-05 1.6638586127e+00 -2.8818876538e+00 1.6638586127e+00 2.8818876538e+00 
73200 6.6420396275e+00 3.7108403295e-05 1.6638586127e+00 -2.8818876538e+00 1.6638586127e+00 2.8818876538e+00 
73300 6.6420396300e+00 3.6223164742e-05 1.6638586127e+00 -2.8818876538e+00 1.6638586127e+00 2.8818876538e+00 
73400 6.6420396326e+00 3.5343342789e-05 1.6638586127e+00 -2.8818876538e+00 1.6638586127e+00 2.8818876538e+00 
73500 6.6420396350e+00 3.4469584265e-05 1.6638586127e+00 -2.8818876538e+00 1.6638586127e+00 2.8818876538e+00 
73600 6.6420396374e+00 3.3602521185e-05 1.6638586127e+00 -2.8818876538e+00 1.6638586127e+00 2.8818876538e+00 
73700 6.6420396398e+00 3.2742770532e-05 1.6638586127e+00 -2.8818876538e+00 1.6638586127e+00 2.8818876538e+00 
73800 6.6420396421e+00 3.1890934041e-05 1.6638586127e+00 -2.8818876538e+00 1.6638586127e+00 2.8818876538e+00 
73900 6.6420396443e+00 3.1047598002e-05 1.6638586127e+00 -2.8818876538e+00 1.6638586127e+00 2.8818876538e+00 
74000 6.6420396465e+00 3.0213333061e-05 1.6638586127e+00 -2.8818876538e+00 1.6638586127e+00 2.8818876538e+00 
74100 6.6420396486e+00 2.9388694046e-05 1.6638586127e+00 -2.8818876538e+00 1.6638586127e+00 2.8818876538e+00 
74200 6.6420396506e+00 2.8574219803e-05 1.6638586127e+00 -2.8818876538e+00 1.6638586127e+00 2.8818876538e+00 
74300 6.6420396527e+00 2.7770433034e-05 1.6638586127e+00 -2.8818876538e+00 1.6638586127e+00 2.8818876538e+00 
74400 6.6420396546e+00 2.6977840160e-05 1.6638586127e+00 -2.8818876538e+00 1.6638586127e+00 2.8818876538e+00 
74500 6.6420396565e+00 2.6196931188e-05 1.6638586127e+00 -2.8818876538e+00 1.6638586127e+00 2.8818876538e+00 
74600 6.6420396584e+00 2.5428179591e-05 1.6638586127e+00 -2.8818876538e+00 1.6638586127e+00 2.8818876538e+00 
74700 6.6420396602e+00 2.4672042205e-05 1.6638586127e+00 -2.8818876538e+00 1.6638586127e+00 2.8818876538e+00 
74800 6.6420396620e+00 2.3928959136e-05 1.6638586127e+00 -2.8818876538e+00 1.6638586127e+00 2.8818876538e+00 
74900 6.6420396638e+00 2.3199353676e-05 1.6638586127e+00 -2.8818876538e+00 1.6638586127e+00 2.8818876538e+00 
75000 6.6420396655e+00 2.2483632240e-05 1.6638586127e+00 -2.8818876538e+00 1.6638586127e+00 2.8818876538e+00 
75100 6.6420396672e+00 2.1782184301e-05 1.6638586127e+00 -2.8818876538e+00 1.6638586127e+00 2.8818876538e+00 
75200 6.6420396688e+00 2.1095382360e-05 1.6638586127e+00 -2.8818876538e+00 1.6638586127e+00 2.8818876538e+00 
75300 6.6420396704e+00 2.0423581913e-05 1.6638586127e+00 -2.8818876538e+00 1.6638586127e+00 2.8818876538e+00 
75400 6.6420396720e+00 1.9767121420e-05 1.6638586127e+00 -2.8818876538e+00 1.6638586127e+00 2.8818876538e+00 
75500 6.6420396735e+00 1.9126322325e-05 1.6638586127e+00 -2.8818876538e+00 1.6638586127e+00 2.8818876538e+00 
75600 6.6420396750e+00 1.8501489039e-05 1.6638586127e+00 -2.8818876538e+00 1.6638586127e+00 2.8818876538e+00 
75700 6.6420396765e+00 1.7892908975e-05 1.6638586127e+00 -2.8818876538e+00 1.6638586127e+00 2.8818876538e+00 
75800 6.6420396779e+00 1.7300852584e-05 1.6638586127e+00 -2.8818876538e+00 1.6638586127e+00 2.8818876538e+00 
75900 6.6420396794e+00 1.6725573385e-05 1.6638586127e+00 -2.8818876538e+00 1.6638586127e+00 2.8818876538e+00 
76000 6.6420396808e+00 1.6167308035e-05 1.6638586127e+00 -2.8818876538e+00 1.6638586127e+00 2.8818876538e+00 
76100 6.6420396822e+00 1.5626276396e-05 1.6638586127e+00 -2.8818876538e+00 1.6638586127e+00 2.8818876538e+00 
76200 6.6420396835e+00 1.5102681611e-05 1.6638586127e+00 -2.8818876538e+00 1.6638586127e+00 2.8818876538e+00 
76300 6.6420396849e+00 1.4596710206e-05 1.6638586127e+00 -2.8818876538e+00 1.6638586127e+00 2.8818876538e+00 
76400 6.6420396862e+00 1.4108532183e-05 1.6638586127e+00 -2.8818876538e+00 1.6638586127e+00 2.8818876538e+00 
76500 6.6420396875e+00 1.3638301150e-05 1.6638586127e+00 -2.8818876538e+00 1.6638586127e+00 2.8818876538e+00 
76600 6.6420396888e+00 1.3186154438e-05 1.6638586127e+00 -2.8818876538e+00 1.6638586127e+00 2.8818876538e+00 
76700 6.6420396901e+00 1.2752213242e-05 1.6638586127e+00 -2.8818876538e+00 1.6638586127e+00 2.8818876538e+00 
76800 6.6420396913e+00 1.2336582771e-05 1.6638586127e+00 -2.8818876538e+00 1.6638586127e+00 2.8818876538e+00 
76900 6.6420396926e+00 1.1939352408e-05 1.6638586127e+00 -2.8818876538e+00 1.6638586127e+00 2.8818876538e+00 
77000 6.6420396938e+00 1.1560595881e-05 1.6638586127e+00 -2.8818876538e+00 1.6638586127e+00 2.8818876538e+00 
77100 6.6420396950e+00 1.1200371432e-05 1.6638586127e+00 -2.8818876538e+00 1.6638586127e+00 2.8818876538e+00 
77200 6.6420396962e+00 1.0858722032e-05 1.6638586127e+00 -2.8818876538e+00 1.6638586127e+00 2.8818876538e+00 
77300 6.6420396974e+00 1.0535675554e-05 1.6638586127e+00 -2.8818876538e+00 1.6638586127e+00 2.8818876538e+00 
77400 6.6420396986e+00 1.0231244997e-05 1.6638586127e+00 -2.8818876538e+00 1.6638586127e+00 2.8818876538e+00 
77500 6.6420396998e+00 9.9454286951e-06 1.6638586127e+00 -2.8818876538e+00 1.6638586127e+00 2.8818876538e+00 
77600 6.6420397009e+00 9.6782105549e-06 1.6638586127e+00 -2.8818876538e+00 1.6638586127e+00 2.8818876538e+00 
77700 6.6420397021e+00 9.4295602771e-06 1.6638586127e+00 -2.8818876538e+00 1.6638586127e+00 2.8818876538e+00 
77800 6.6420397033e+00 9.1994336167e-06 1.6638586127e+00 -2.8818876538e+00 1.6638586127e+00 2.8818876538e+00 
77900 6.6420397044e+00 8.9877726115e-06 1.6638586127e+00 -2.8818876538e+00 1.6638586127e+00 2.8818876538e+00 
78000 6.6420397055e+00 8.7945058620e-06 1.6638586127e+00 -2.8818876538e+00 1.6638586127e+00 2.8818876538e+00 
78100 6.6420397067e+00 8.6195487854e-06 1.6638586127e+00 -2.8818876538e+00 1.6638586127e+00 2.8818876538e+00 
78200 6.6420397078e+00 8.4628038906e-06 1.6638586127e+00 -2.8818876538e+00 1.6638586127e+00 2.8818876538e+00 
78300 6.6420397089e+00 8.3241610599e-06 1.6638586127e+00 -2.8818876538e+00 1.6638586127e+00 2.8818876538e+00 
78400 6.6420397100e+00 8.2034978278e-06 1.6638586127e+00 -2.8818876538e+00 1.6638586127e+00 2.8818876538e+00 
78500 6.6420397111e+00 8.1006796819e-06 1.6638586127e+00 -2.8818876538e+00 1.6638586127e+00 2.8818876538e+00 
78600 6.6420397122e+00 8.0155603530e-06 1.6638586127e+00 -2.8818876538e+00 1.6638586127e+00 2.8818876538e+00 
78700 6.6420397133e+00 7.9479821168e-06 1.6638586127e+00 -2.8818876538e+00 1.6638586127e+00 2.8818876538e+00 
78800 6.6420397144e+00 7.8977761077e-06 1.6638586127e+00 -2.8818876538e+00 1.6638586127e+00 2.8818876538e+00 
78900 6.6420397154e+00 7.8647626208e-06 1.6638586127e+00 -2.8818876538e+00 1.6638586127e+00 2.8818876538e+00 
79000 6.6420397165e+00 7.8487514385e-06 1.6638586127e+00 -2.8818876538e+00 1.6638586127e+00 2.8818876538e+00 
79100 6.6420397176e+00 7.8495421435e-06 1.6638586127e+00 -2.8818876538e+00 1.6638586127e+00 2.8818876538e+00 
79200 6.6420397186e+00 7.8669244428e-06 1.6638586127e+00 -2.8818876538e+00 1.6638586127e+00 2.8818876538e+00 
79300 6.6420397197e+00 7.9006784960e-06 1.6638586127e+00 -2.8818876538e+00 1.6638586127e+00 2.8818876538e+00 
79400 6.6420397207e+00 7.9505752452e-06 1.6638586127e+00 -2.8818876538e+00 1.6638586127e+00 2.8818876538e+00 
79500 6.6420397218e+00 8.0163767475e-06 1.6638586127e+00 -2.8818876538e+00 1.6638586127e+00 2.8818876538e+00 
79600 6.6420397228e+00 8.0978365067e-06 1.6638586127e+00 -2.8818876538e+00 1.6638586127e+00 2.8818876538e+00 
79700 6.6420397239e+00 8.1946998188e-06 1.6638586127e+00 -2.8818876538e+00 1.6638586127e+00 2.8818876538e+00 
79800 6.6420397249e+00 8.3067040924e-06 1.6638586127e+00 -2.8818876538e+00 1.6638586127e+00 2.8818876538e+00 
79900 6.6420397259e+00 8.4335792060e-06 1.6638586127e+00 -2.8818876538e+00 1.6638586127e+00 2.8818876538e+00 
80000 6.6420397269e+00 8.5750478389e-06 1.6638586127e+00 -2.8818876538e+00 1.6638586127e+00 2.8818876538e+00 
80100 6.6420397279e+00 8.7308258174e-06 1.6638586127e+00 -2.8818876538e+00 1.6638586127e+00 2.8818876538e+00 
80200 6.6420397289e+00 8.9006224502e-06 1.6638586127e+00 -2.8818876538e+00 1.6638586127e+00 2.8818876538e+00 
80300 6.6420397299e+00 9.0841408761e-06 1.6638586127e+00 -2.8818876538e+00 1.6638586127e+00 2.8818876538e+00 
80400 6.6420397309e+00 9.2810783988e-06 1.6638586127e+00 -2.8818876538e+00 1.6638586127e+00 2.8818876538e+00 
80500 6.6420397318e+00 9.4911268289e-06 1.6638586127e+00 -2.8818876538e+00 1.6638586127e+00 2.8818876538e+00 
80600 6.6420397328e+00 9.7139728314e-06 1.6638586127e+00 -2.8818876538e+00 1.6638586127e+00 2.8818876538e+00 
80700 6.6420397338e+00 9.9492982548e-06 1.6638586127e+00 -2.8818876538e+00 1.6638586127e+00 2.8818876538e+00 
80800 6.6420397347e+00 1.0196780474e-05 1.6638586127e+00 -2.8818876538e+00 1.6638586127e+00 2.8818876538e+00 
80900 6.6420397357e+00 1.0456092718e-05 1.6638586127e+00 -2.8818876538e+00 1.6638586127e+00 2.8818876538e+00 
81000 6.6420397366e+00 1.0726904417e-05 1.6638586127e+00 -2.8818876538e+00 1.6638586127e+00 2.8818876538e+00 
81100 6.6420397375e+00 1.1008881520e-05 1.6638586127e+00 -2.8818876538e+00 1.6638586127e+00 2.8818876538e+00 
81200 6.6420397384e+00 1.1301686826e-05 1.6638586127e+00 -2.8818876538e+00 1.6638586127e+00 2.8818876538e+00 
81300 6.6420397393e+00 1.1604980319e-05 1.6638586127e+00 -2.8818876538e+00 1.6638586127e+00 2.8818876538e+00 
81400 6.6420397402e+00 1.1918419485e-05 1.6638586127e+00 -2.8818876538e+00 1.6638586127e+00 2.8818876538e+00 
81500 6.6420397411e+00 1.2241659629e-05 1.6638586127e+00 -2.8818876538e+00 1.6638586127e+00 2.8818876538e+00 
81600 6.6420397420e+00 1.2574354189e-05 1.6638586127e+00 -2.8818876538e+00 1.6638586127e+00 2.8818876538e+00 
81700 6.6420397428e+00 1.2916155063e-05 1.6638586127e+00 -2.8818876538e+00 1.6638586127e+00 2.8818876538e+00 
81800 6.6420397437e+00 1.3266712902e-05 1.6638586127e+00 -2.8818876538e+00 1.6638586127e+00 2.8818876538e+00 
81900 6.6420397445e+00 1.3625677422e-05 1.6638586127e+00 -2.8818876538e+00 1.6638586127e+00 2.8818876538e+00 
82000 6.6420397454e+00 1.3992697703e-05 1.6638586127e+00 -2.8818876538e+00 1.6638586127e+00 2.8818876538e+00 
82100 6.6420397462e+00 1.4367422482e-05 1.6638586127e+00 -2.8818876538e+00 1.6638586127e+00 2.8818876538e+00 
82200 6.6420397470e+00 1.4749500448e-05 1.6638586127e+00 -2.8818876538e+00 1.6638586127e+00 2.8818876538e+00 
82300 6.6420397478e+00 1.5138580530e-05 1.6638586127e+00 -2.8818876538e+00 1.6638586127e+00 2.8818876538e+00 
82400 6.6420397486e+00 1.5534312168e-05 1.6638586127e+00 -2.8818876538e+00 1.6638586127e+00 2.8818876538e+00 
82500 6.6420397494e+00 1.5936345597e-05 1.6638586127e+00 -2.8818876538e+00 1.6638586127e+00 2.8818876538e+00 
82600 6.6420397502e+00 1.6344332116e-05 1.6638586127e+00 -2.8818876538e+00 1.6638586127e+00 2.8818876538e+00 
82700 6.6420397509e+00 1.6757924351e-05 1.6638586127e+00 -2.8818876538e+00 1.6638586127e+00 2.8818876538e+00 
82800 6.6420397517e+00 1.7176776520e-05 1.6638586127e+00 -2.8818876538e+00 1.6638586127e+00 2.8818876538e+00 
82900 6.6420397524e+00 1.7600544674e-05 1.6638586127e+00 -2.8818876538e+00 1.6638586127e+00 2.8818876538e+00 
83000 6.6420397531e+00 1.8028886955e-05 1.6638586127e+00 -2.8818876538e+00 1.6638586127e+00 2.8818876538e+00 
83100 6.6420397539e+00 1.8461463836e-05 1.6638586127e+00 -2.8818876538e+00 1.6638586127e+00 2.8818876538e+00 
83200 6.6420397546e+00 1.8897938354e-05 1.6638586127e+00 -2.8818876538e+00 1.6638586127e+00 2.8818876538e+00 
83300 6.6420397553e+00 1.9337976334e-05 1.6638586127e+00 -2.8818876538e+00 1.6638586127e+00 2.8818876538e+00 
83400 6.6420397559e+00 1.9781246622e-05 1.6638586127e+00 -2.8818876538e+00 1.6638586127e+00 2.8818876538e+00 
83500 6.6420397566e+00 2.0227421294e-05 1.6638586127e+00 -2.8818876538e+00 1.6638586127e+00 2.8818876538e+00 
83600 6.6420397573e+00 2.0676175865e-05 1.6638586127e+00 -2.8818876538e+00 1.6638586127e+00 2.8818876538e+00 
83700 6.6420397579e+00 2.1127189496e-05 1.6638586127e+00 -2.8818876538e+00 1.6638586127e+00 2.8818876538e+00 
83800 6.6420397586e+00 2.1580145187e-05 1.6638586127e+00 -2.8818876538e+00 1.6638586127e+00 2.8818876538e+00 
83900 6.6420397592e+00 2.2034729966e-05 1.6638586127e+00 -2.8818876538e+00 1.6638586127e+00 2.8818876538e+00 
84000 6.6420397598e+00 2.2490635072e-05 1.6638586127e+00 -2.8818876538e+00 1.6638586127e+00 2.8818876538e+00 
84100 6.6420397604e+00 2.2947556136e-05 1.6638586127e+00 -2.8818876538e+00 1.6638586127e+00 2.8818876538e+00 
84200 6.6420397610e+00 2.3405193342e-05 1.6638586127e+00 -2.8818876538e+00 1.6638586127e+00 2.8818876538e+00 
84300 6.6420397616e+00 2.3863251594e-05 1.6638586127e+00 -2.8818876538e+00 1.6638586127e+00 2.8818876538e+00 
84400 6.6420397622e+00 2.4321440669e-05 1.6638586127e+00 -2.8818876538e+00 1.6638586127e+00 2.8818876538e+00 
84500 6.6420397628e+00 2.4779475363e-05 1.6638586127e+00 -2.8818876538e+00 1.6638586127e+00 2.8818876538e+00 
84600 6.6420397633e+00 2.5237075641e-05 1.6638586127e+00 -2.8818876538e+00 1.6638586127e+00 2.8818876538e+00 
84700 6.6420397639e+00 2.5693966760e-05 1.6638586127e+00 -2.8818876538e+00 1.6638586127e+00 2.8818876538e+00 
84800 6.6420397644e+00 2.6149879402e-05 1.6638586127e+00 -2.8818876538e+00 1.6638586127e+00 2.8818876538e+00 
84900 6.6420397649e+00 2.6604549801e-05 1.6638586127e+00 -2.8818876538e+00 1.6638586127e+00 2.8818876538e+00 
85000 6.6420397655e+00 2.7057719841e-05 1.6638586127e+00 -2.8818876538e+00 1.6638586127e+00 2.8818876538e+00 
85100 6.6420397660e+00 2.7509137177e-05 1.6638586127e+00 -2.8818876538e+00 1.6638586127e+00 2.8818876538e+00 
85200 6.6420397665e+00 2.7958555325e-05 1.6638586127e+00 -2.8818876538e+00 1.6638586127e+00 2.8818876538e+00 
85300 6.6420397670e+00 2.8405733764e-05 1.6638586127e+00 -2.8818876538e+00 1.6638586127e+00 2.8818876538e+00 
85400 6.6420397675e+00 2.8850438011e-05 1.6638586127e+00 -2.8818876538e+00 1.6638586127e+00 2.8818876538e+00 
85500 6.6420397680e+00 2.9292439715e-05 1.6638586127e+00 -2.8818876538e+00 1.6638586127e+00 2.8818876538e+00 
85600 6.6420397684e+00 2.9731516711e-05 1.6638586127e+00 -2.8818876538e+00 1.6638586127e+00 2.8818876538e+00 
85700 6.6420397689e+00 3.0167453110e-05 1.6638586127e+00 -2.8818876538e+00 1.6638586127e+00 2.8818876538e+00 
85800 6.6420397693e+00 3.0600039336e-05 1.6638586127e+00 -2.8818876538e+00 1.6638586127e+00 2.8818876538e+00 
85900 6.6420397698e+00 3.1029072189e-05 1.6638586127e+00 -2.8818876538e+00 1.6638586127e+00 2.8818876538e+00 
86000 6.6420397702e+00 3.1454354901e-05 1.6638586127e+00 -2.8818876538e+00 1.6638586127e+00 2.8818876538e+00 
86100 6.6420397707e+00 3.1875697152e-05 1.6638586127e+00 -2.8818876538e+00 1.6638586127e+00 2.8818876538e+00 
86200 6.6420397711e+00 3.2292915133e-05 1.6638586127e+00 -2.8818876538e+00 1.6638586127e+00 2.8818876538e+00 
86300 6.6420397715e+00 3.2705831555e-05 1.6638586127e+00 -2.8818876538e+00 1.6638586127e+00 2.8818876538e+00 
86400 6.6420397719e+00 3.3114275672e-05 1.6638586127e+00 -2.8818876538e+00 1.6638586127e+00 2.8818876538e+00 
86500 6.6420397723e+00 3.3518083310e-05 1.6638586127e+00 -2.8818876538e+00 1.6638586127e+00 2.8818876538e+00 
86600 6.6420397727e+00 3.3917096860e-05 1.6638586127e+00 -2.8818876538e+00 1.6638586127e+00 2.8818876538e+00 
86700 6.6420397731e+00 3.4311165298e-05 1.6638586127e+00 -2.8818876538e+00 1.6638586127e+00 2.8818876538e+00 
86800 6.6420397735e+00 3.4700144172e-05 1.6638586127e+00 -2.8818876538e+00 1.6638586127e+00 2.8818876538e+00 
86900 6.6420397739e+00 3.5083895599e-05 1.6638586127e+00 -2.8818876538e+00 1.6638586127e+00 2.8818876538e+00 
87000 6.6420397743e+00 3.5462288258e-05 1.6638586127e+00 -2.8818876538e+00 1.6638586127e+00 2.8818876538e+00 
87100 6.6420397746e+00 3.5835197363e-05 1.6638586127e+00 -2.8818876538e+00 1.6638586127e+00 2.8818876538e+00 
87200 6.6420397750e+00 3.6202504645e-05 1.6638586127e+00 -2.8818876538e+00 1.6638586127e+00 2.8818876538e+00 
87300 6.6420397754e+00 3.6564098327e-05 1.6638586127e+00 -2.8818876538e+00 1.6638586127e+00 2.8818876538e+00 
87400 6.6420397757e+00 3.6919873083e-05 1.6638586127e+00 -2.8818876538e+00 1.6638586127e+00 2.8818876538e+00 
87500 6.6420397761e+00 3.7269730011e-05 1.6638586127e+00 -2.8818876538e+00 1.6638586127e+00 2.8818876538e+00 
87600 6.6420397764e+00 3.7613576579e-05 1.6638586127e+00 -2.8818876538e+00 1.6638586127e+00 2.8818876538e+00 
87700 6.6420397767e+00 3.7951326583e-05 1.6638586127e+00 -2.8818876538e+00 1.6638586127e+00 2.8818876538e+00 
87800 6.6420397771e+00 3.8282900101e-05 1.6638586127e+00 -2.8818876538e+00 1.6638586127e+00 2.8818876538e+00 
87900 6.6420397774e+00 3.8608223425e-05 1.6638586127e+00 -2.8818876538e+00 1.6638586127e+00 2.8818876538e+00 
88000 6.6420397777e+00 3.8927229013e-05 1.6638586127e+00 -2.8818876538e+00 1.6638586127e+00 2.8818876538e+00 
88100 6.6420397781e+00 3.9239855416e-05 1.6638586127e+00 -2.8818876538e+00 1.6638586127e+00 2.8818876538e+00 
88200 6.6420397784e+00 3.9546047211e-05 1.6638586127e+00 -2.8818876538e+00 1.6638586127e+00 2.8818876538e+00 
88300 6.6420397787e+00 3.9845754938e-05 1.6638586127e+00 -2.8818876538e+00 1.6638586127e+00 2.8818876538e+00 
88400 6.6420397790e+00 4.0138935012e-05 1.6638586127e+00 -2.8818876538e+00 1.6638586127e+00 2.8818876538e+00 
88500 6.6420397793e+00 4.0425549648e-05 1.6638586127e+00 -2.8818876538e+00 1.6638586127e+00 2.8818876538e+00 
88600 6.6420397796e+00 4.0705566782e-05 1.6638586127e+00 -2.8818876538e+00 1.6638586127e+00 2.8818876538e+00 
88700 6.6420397799e+00 4.0978959989e-05 1.6638586127e+00 -2.8818876538e+00 1.6638586127e+00 2.8818876538e+00 
88800 6.6420397802e+00 4.1245708376e-05 1.6638586127e+00 -2.8818876538e+00 1.6638586127e+00 2.8818876538e+00 
88900 6.6420397805e+00 4.1505796511e-05 1.6638586127e+00 -2.8818876538e+00 1.6638586127e+00 2.8818876538e+00 
89000 6.6420397808e+00 4.1759214315e-05 1.6638586127e+00 -2.8818876538e+00 1.6638586127e+00 2.8818876538e+00 
89100 6.6420397811e+00 4.2005956974e-05 1.6638586127e+00 -2.8818876538e+00 1.6638586127e+00 2.8818876538e+00 
89200 6.6420397814e+00 4.2246024829e-05 1.6638586127e+00 -2.8818876538e+00 1.6638586127e+00 2.8818876538e+00 
89300 6.6420397817e+00 4.2479423283e-05 1.6638586127e+00 -2.8818876538e+00 1.6638586127e+00 2.8818876538e+00 
89400 6.6420397819e+00 4.2706162693e-05 1.6638586127e+00 -2.8818876538e+00 1.6638586127e+00 2.8818876538e+00 
89500 6.6420397822e+00 4.2926258256e-05 1.6638586127e+00 -2.8818876538e+00 1.6638586127e+00 2.8818876538e+00 
89600 6.6420397825e+00 4.3139729913e-05 1.6638586127e+00 -2.8818876538e+00 1.6638586127e+00 2.8818876538e+00 
89700 6.6420397828e+00 4.3346602230e-05 1.6638586127e+00 -2.8818876538e+00 1.6638586127e+00 2.8818876538e+00 
89800 6.6420397830e+00 4.3546904289e-05 1.6638586127e+00 -2.8818876538e+00 1.6638586127e+00 2.8818876538e+00 
89900 6.6420397833e+00 4.3740669571e-05 1.6638586127e+00 -2.8818876538e+00 1.6638586127e+00 2.8818876538e+00 
90000 6.6420397835e+00 4.3927935842e-05 1.6638586127e+00 -2.8818876538e+00 1.6638586127e+00 2.8818876538e+00 
90100 6.6420397838e+00 4.4108745040e-05 1.6638586127e+00 -2.8818876538e+00 1.6638586127e+00 2.8818876538e+00 
90200 6.6420397841e+00 4.4283143152e-05 1.6638586127e+00 -2.8818876538e+00 1.6638586127e+00 2.8818876538e+00 
90300 6.6420397843e+00 4.4451180097e-05 1.6638586127e+00 -2.8818876538e+00 1.6638586127e+00 2.8818876538e+00 
90400 6.6420397846e+00 4.4612909605e-05 1.6638586127e+00 -2.8818876538e+00 1.6638586127e+00 2.8818876538e+00 
90500 6.6420397848e+00 4.4768389097e-05 1.6638586127e+00 -2.8818876538e+00 1.6638586127e+00 2.8818876538e+00 
90600 6.6420397851e+00 4.4917679563e-05 1.6638586127e+00 -2.8818876538e+00 1.6638586127e+00 2.8818876538e+00 
90700 6.6420397853e+00 4.5060845442e-05 1.6638586127e+00 -2.8818876538e+00 1.6638586127e+00 2.8818876538e+00 
90800 6.6420397855e+00 4.5197954499e-05 1.6638586127e+00 -2.8818876538e+00 1.6638586127e+00 2.8818876538e+00 
90900 6.6420397858e+00 4.5329077695e-05 1.6638586127e+00 -2.8818876538e+00 1.6638586127e+00 2.8818876538e+00 
91000 6.6420397860e+00 4.5454289076e-05 1.6638586127e+00 -2.8818876538e+00 1.6638586127e+00 2.8818876538e+00 
91100 6.6420397863e+00 4.5573665639e-05 1.6638586127e+00 -2.8818876538e+00 1.6638586127e+00 2.8818876538e+00 
91200 6.6420397865e+00 4.5687287214e-05 1.6638586127e+00 -2.8818876538e+00 1.6638586127e+00 2.8818876538e+00 
91300 6.6420397867e+00 4.5795236339e-05 1.6638586127e+00 -2.8818876538e+00 1.6638586127e+00 2.8818876538e+00 
91400 6.6420397869e+00 4.5897598141e-05 1.6638586127e+00 -2.8818876538e+00 1.6638586127e+00 2.8818876538e+00 
91500 6.6420397872e+00 4.5994460206e-05 1.6638586127e+00 -2.8818876538e+00 1.6638586127e+00 2.8818876538e+00 
91600 6.6420397874e+00 4.6085912462e-05 1.6638586127e+00 -2.8818876538e+00 1.6638586127e+00 2.8818876538e+00 
91700 6.6420397876e+00 4.6172047062e-05 1.6638586127e+00 -2.8818876538e+00 1.6638586127e+00 2.8818876538e+00 
91800 6.6420397878e+00 4.6252958244e-05 1.6638586127e+00 -2.8818876538e+00 1.6638586127e+00 2.8818876538e+00 
91900 6.6420397881e+00 4.6328742234e-05 1.6638586127e+00 -2.8818876538e+00 1.6638586127e+00 2.8818876538e+00 
92000 6.6420397883e+00 4.6399497111e-05 1.6638586127e+00 -2.8818876538e+00 1.6638586127e+00 2.8818876538e+00 
92100 6.6420397885e+00 4.6465322694e-05 1.6638586127e+00 -2.8818876538e+00 1.6638586127e+00 2.8818876538e+00 
92200 6.6420397887e+00 4.6526320423e-05 1.6638586127e+00 -2.8818876538e+00 1.6638586127e+00 2.8818876538e+00 
92300 6.6420397889e+00 4.6582593240e-05 1.6638586127e+00 -2.8818876538e+00 1.6638586127e+00 2.8818876538e+00 
92400 6.6420397891e+00 4.6634245475e-05 1.6638586127e+00 -2.8818876538e+00 1.6638586127e+00 2.8818876538e+00 
92500 6.6420397893e+00 4.6681382737e-05 1.6638586127e+00 -2.8818876538e+00 1.6638586127e+00 2.8818876538e+00 
92600 6.6420397895e+00 4.6724111787e-05 1.6638586127e+00 -2.8818876538e+00 1.6638586127e+00 2.8818876538e+00 
92700 6.6420397897e+00 4.6762540443e-05 1.6638586127e+00 -2.8818876538e+00 1.6638586127e+00 2.8818876538e+00 
92800 6.6420397899e+00 4.6796777455e-05 1.6638586127e+00 -2.8818876538e+00 1.6638586127e+00 2.8818876538e+00 
92900 6.6420397901e+00 4.6826932406e-05 1.6638586127e+00 -2.8818876538e+00 1.6638586127e+00 2.8818876538e+00 
93000 6.6420397903e+00 4.6853115599e-05 1.6638586127e+00 -2.8818876538e+00 1.6638586127e+00 2.8818876538e+00 
93100 6.6420397905e+00 4.6875437950e-05 1.6638586127e+00 -2.8818876538e+00 1.6638586127e+00 2.8818876538e+00 
93200 6.6420397906e+00 4.6894010890e-05 1.6638586127e+00 -2.8818876538e+00 1.6638586127e+00 2.8818876538e+00 
93300 6.6420397908e+00 4.6908946259e-05 1.6638586127e+00 -2.8818876538e+00 1.6638586127e+00 2.8818876538e+00 
93400 6.6420397910e+00 4.6920356207e-05 1.6638586127e+00 -2.8818876538e+00 1.6638586127e+00 2.8818876538e+00 
93500 6.6420397912e+00 4.6928353090e-05 1.6638586127e+00 -2.8818876538e+00 1.6638586127e+00 2.8818876538e+00 
93600 6.6420397914e+00 4.6933049379e-05 1.6638586127e+00 -2.8818876538e+00 1.6638586127e+00 2.8818876538e+00 
93700 6.6420397915e+00 4.6934557562e-05 1.6638586127e+00 -2.8818876538e+00 1.6638586127e+00 2.8818876538e+00 
93800 6.6420397917e+00 4.6932990053e-05 1.6638586127e+00 -2.8818876538e+00 1.6638586127e+00 2.8818876538e+00 
93900 6.6420397919e+00 4.6928459097e-05 1.6638586127e+00 -2.8818876538e+00 1.6638586127e+00 2.8818876538e+00 
94000 6.6420397921e+00 4.6921076688e-05 1.6638586127e+00 -2.8818876538e+00 1.6638586127e+00 2.8818876538e+00 
94100 6.6420397922e+00 4.6910954472e-05 1.6638586127e+00 -2.8818876538e+00 1.6638586127e+00 2.8818876538e+00 
94200 6.6420397924e+00 4.6898203675e-05 1.6638586127e+00 -2.8818876538e+00 1.6638586127e+00 2.8818876538e+00 
94300 6.6420397926e+00 4.6882935007e-05 1.6638586127e+00 -2.8818876538e+00 1.6638586127e+00 2.8818876538e+00 
94400 6.6420397927e+00 4.6865258591e-05 1.6638586127e+00 -2.8818876538e+00 1.6638586127e+00 2.8818876538e+00 
94500 6.6420397929e+00 4.6845283882e-05 1.6638586127e+00 -2.8818876538e+00 1.6638586127e+00 2.8818876538e+00 
94600 6.6420397930e+00 4.6823119584e-05 1.6638586127e+00 -2.8818876538e+00 1.6638586127e+00 2.8818876538e+00 
94700 6.6420397932e+00 4.6798873593e-05 1.6638586127e+00 -2.8818876538e+00 1.6638586127e+00 2.8818876538e+00 
94800 6.6420397933e+00 4.6772652908e-05 1.6638586127e+00 -2.8818876538e+00 1.6638586127e+00 2.8818876538e+00 
94900 6.6420397935e+00 4.6744563567e-05 1.6638586127e+00 -2.8818876538e+00 1.6638586127e+00 2.8818876538e+00 
95000 6.6420397936e+00 4.6714710590e-05 1.6638586127e+00 -2.8818876538e+00 1.6638586127e+00 2.8818876538e+00 
95100 6.6420397938e+00 4.6683197896e-05 1.6638586127e+00 -2.8818876538e+00 1.6638586127e+00 2.8818876538e+00 
95200 6.6420397939e+00 4.6650128255e-05 1.6638586127e+00 -2.8818876538e+00 1.6638586127e+00 2.8818876538e+00 
95300 6.6420397941e+00 4.6615603224e-05 1.6638586127e+00 -2.8818876538e+00 1.6638586127e+00 2.8818876538e+00 
95400 6.6420397942e+00 4.6579723085e-05 1.6638586127e+00 -2.8818876538e+00 1.6638586127e+00 2.8818876538e+00 
95500 6.6420397943e+00 4.6542586791e-05 1.6638586127e+00 -2.8818876538e+00 1.6638586127e+00 2.8818876538e+00 
95600 6.6420397945e+00 4.6504291923e-05 1.6638586127e+00 -2.8818876538e+00 1.6638586127e+00 2.8818876538e+00 
95700 6.6420397946e+00 4.6464934622e-05 1.6638586127e+00 -2.8818876538e+00 1.6638586127e+00 2.8818876538e+00 
95800 6.6420397947e+00 4.6424609551e-05 1.6638586127e+00 -2.8818876538e+00 1.6638586127e+00 2.8818876538e+00 
95900 6.6420397949e+00 4.6383409849e-05 1.6638586127e+00 -2.8818876538e+00 1.6638586127e+00 2.8818876538e+00 
96000 6.6420397950e+00 4.6341427080e-05 1.6638586127e+00 -2.8818876538e+00 1.6638586127e+00 2.8818876538e+00 
96100 6.6420397951e+00 4.6298751198e-05 1.6638586127e+00 -2.8818876538e+00 1.6638586127e+00 2.8818876538e+00 
96200 6.6420397953e+00 4.6255470505e-05 1.6638586127e+00 -2.8818876538e+00 1.6638586127e+00 2.8818876538e+00 
96300 6.6420397954e+00 4.6211671611e-05 1.6638586127e+00 -2.8818876538e+00 1.6638586127e+00 2.8818876538e+00 
96400 6.6420397955e+00 4.6167439405e-05 1.6638586127e+00 -2.8818876538e+00 1.6638586127e+00 2.8818876538e+00 
96500 6.6420397956e+00 4.6122857017e-05 1.6638586127e+00 -2.8818876538e+00 1.6638586127e+00 2.8818876538e+00 
96600 6.6420397957e+00 4.6078005790e-05 1.6638586127e+00 -2.8818876538e+00 1.6638586127e+00 2.8818876538e+00 
96700 6.6420397959e+00 4.6032965247e-05 1.6638586127e+00 -2.8818876538e+00 1.6638586127e+00 2.8818876538e+00 
96800 6.6420397960e+00 4.5987813072e-05 1.6638586127e+00 -2.8818876538e+00 1.6638586127e+00 2.8818876538e+00 
96900 6.6420397961e+00 4.5942625084e-05 1.6638586127e+00 -2.8818876538e+00 1.6638586127e+00 2.8818876538e+00 
97000 6.6420397962e+00 4.5897475207e-05 1.6638586127e+00 -2.8818876538e+00 1.6638586127e+00 2.8818876538e+00 
97100 6.6420397963e+00 4.5852435459e-05 1.6638586127e+00 -2.8818876538e+00 1.6638586127e+00 2.8818876538e+00 
97200 6.6420397964e+00 4.5807575932e-05 1.6638586127e+00 -2.8818876538e+00 1.6638586127e+00 2.8818876538e+00 
97300 6.6420397965e+00 4.5762964775e-05 1.6638586127e+00 -2.8818876538e+00 1.6638586127e+00 2.8818876538e+00 
97400 6.6420397966e+00 4.5718668176e-05 1.6638586127e+00 -2.8818876538e+00 1.6638586127e+00 2.8818876538e+00 
97500 6.6420397967e+00 4.5674750361e-05 1.6638586127e+00 -2.8818876538e+00 1.6638586127e+00 2.8818876538e+00 
97600 6.6420397968e+00 4.5631273570e-05 1.6638586127e+00 -2.8818876538e+00 1.6638586127e+00 2.8818876538e+00 
97700 6.6420397969e+00 4.5588298062e-05 1.6638586127e+00 -2.8818876538e+00 1.6638586127e+00 2.8818876538e+00 
97800 6.6420397970e+00 4.5545882099e-05 1.6638586127e+00 -2.8818876538e+00 1.6638586127e+00 2.8818876538e+00 
97900 6.6420397971e+00 4.5504081948e-05 1.6638586127e+00 -2.8818876538e+00 1.6638586127e+00 2.8818876538e+00 
98000 6.6420397972e+00 4.5462951873e-05 1.6638586127e+00 -2.8818876538e+00 1.6638586127e+00 2.8818876538e+00 
98100 6.6420397973e+00 4.5422544138e-05 1.6638586127e+00 -2.8818876538e+00 1.6638586127e+00 2.8818876538e+00 
98200 6.6420397974e+00 4.5382909008e-05 1.6638586127e+00 -2.8818876538e+00 1.6638586127e+00 2.8818876538e+00 
98300 6.6420397975e+00 4.5344094748e-05 1.6638586127e+00 -2.8818876538e+00 1.6638586127e+00 2.8818876538e+00 
98400 6.6420397976e+00 4.5306147631e-05 1.6638586127e+00 -2.8818876538e+00 1.6638586127e+00 2.8818876538e+00 
98500 6.6420397977e+00 4.5269111940e-05 1.6638586127e+00 -2.8818876538e+00 1.6638586127e+00 2.8818876538e+00 
98600 6.6420397978e+00 4.5233029979e-05 1.6638586127e+00 -2.8818876538e+00 1.6638586127e+00 2.8818876538e+00 
98700 6.6420397979e+00 4.5197942081e-05 1.6638586127e+00 -2.8818876538e+00 1.6638586127e+00 2.8818876538e+00 
98800 6.6420397980e+00 4.5163886617e-05 1.6638586127e+00 -2.8818876538e+00 1.6638586127e+00 2.8818876538e+00 
98900 6.6420397981e+00 4.5130900007e-05 1.6638586127e+00 -2.8818876538e+00 1.6638586127e+00 2.8818876538e+00 
99000 6.6420397982e+00 4.5099016739e-05 1.6638586127e+00 -2.8818876538e+00 1.6638586127e+00 2.8818876538e+00 
99100 6.6420397982e+00 4.5068269371e-05 1.6638586127e+00 -2.8818876538e+00 1.6638586127e+00 2.8818876538e+00 
99200 6.6420397983e+00 4.5038688567e-05 1.6638586127e+00 -2.8818876538e+00 1.6638586127e+00 2.8818876538e+00 
99300 6.6420397984e+00 4.5010303089e-05 1.6638586127e+00 -2.8818876538e+00 1.6638586127e+00 2.8818876538e+00 
99400 6.6420397985e+00 4.4983139840e-05 1.6638586127e+00 -2.8818876538e+00 1.6638586127e+00 2.8818876538e+00 
99500 6.6420397986e+00 4.4957223867e-05 1.6638586127e+00 -2.8818876538e+00 1.6638586127e+00 2.8818876538e+00 
99600 6.6420397986e+00 4.4932578388e-05 1.6638586127e+00 -2.8818876538e+00 1.6638586127e+00 2.8818876538e+00 
99700 6.6420397987e+00 4.4909224813e-05 1.6638586127e+00 -2.8818876538e+00 1.6638586127e+00 2.8818876538e+00 
99800 6.6420397988e+00 4.4887182766e-05 1.6638586127e+00 -2.8818876538e+00 1.6638586127e+00 2.8818876538e+00 
99900 6.6420397989e+00 4.4866470107e-05 1.6638586127e+00 -2.8818876538e+00 1.6638586127e+00 2.8818876538e+00 
100000 6.6420397990e+00 4.4847102969e-05 1.6638586127e+00 -2.8818876538e+00 1.6638586127e+00 2.8818876538e+00 
100100 6.6420397990e+00 4.4829095765e-05 1.6638586127e+00 -2.8818876538e+00 1.6638586127e+00 2.8818876538e+00 
100200 6.6420397991e+00 4.4812461226e-05 1.6638586127e+00 -2.8818876538e+00 1.6638586127e+00 2.8818876538e+00 
100300 6.6420397992e+00 4.4797210431e-05 1.6638586127e+00 -2.8818876538e+00 1.6638586127e+00 2.8818876538e+00 
100400 6.6420397992e+00 4.4783352828e-05 1.6638586127e+00 -2.8818876538e+00 1.6638586127e+00 2.8818876538e+00 
100500 6.6420397993e+00 4.4770896266e-05 1.6638586127e+00 -2.8818876538e+00 1.6638586127e+00 2.8818876538e+00 
100600 6.6420397994e+00 4.4759847027e-05 1.6638586127e+00 -2.8818876538e+00 1.6638586127e+00 2.8818876538e+00 
100700 6.6420397995e+00 4.4750209857e-05 1.6638586127e+00 -2.8818876538e+00 1.6638586127e+00 2.8818876538e+00 
100800 6.6420397995e+00 4.4741987986e-05 1.6638586127e+00 -2.8818876538e+00 1.6638586127e+00 2.8818876538e+00 
100900 6.6420397996e+00 4.4735183179e-05 1.6638586127e+00 -2.8818876538e+00 1.6638586127e+00 2.8818876538e+00 
101000 6.6420397997e+00 4.4729795751e-05 1.6638586127e+00 -2.8818876538e+00 1.6638586127e+00 2.8818876538e+00 
101100 6.6420397997e+00 4.4725824611e-05 1.6638586127e+00 -2.8818876538e+00 1.6638586127e+00 2.8818876538e+00 
101200 6.6420397998e+00 4.4723267290e-05 1.6638586127e+00 -2.8818876538e+00 1.6638586127e+00 2.8818876538e+00 
101300 6.6420397999e+00 4.4722119980e-05 1.6638586127e+00 -2.8818876538e+00 1.6638586127e+00 2.8818876538e+00 
101400 6.6420397999e+00 4.4722377557e-05 1.6638586127e+00 -2.8818876538e+00 1.6638586127e+00 2.8818876538e+00 
101500 6.6420398000e+00 4.4724033626e-05 1.6638586127e+00 -2.8818876538e+00 1.6638586127e+00 2.8818876538e+00 
101600 6.6420398001e+00 4.4727080556e-05 1.6638586127e+00 -2.8818876538e+00 1.6638586127e+00 2.8818876538e+00 
101700 6.6420398001e+00 4.4731509511e-05 1.6638586127e+00 -2.8818876538e+00 1.6638586127e+00 2.8818876538e+00 
101800 6.6420398002e+00 4.4737310482e-05 1.6638586127e+00 -2.8818876538e+00 1.6638586127e+00 2.8818876538e+00 
101900 6.6420398002e+00 4.4744472333e-05 1.6638586127e+00 -2.8818876538e+00 1.6638586127e+00 2.8818876538e+00 
102000 6.6420398003e+00 4.4752982823e-05 1.6638586127e+00 -2.8818876538e+00 1.6638586127e+00 2.8818876538e+00 
102100 6.6420398004e+00 4.4762828659e-05 1.6638586127e+00 -2.8818876538e+00 1.6638586127e+00 2.8818876538e+00 
102200 6.6420398004e+00 4.4773995517e-05 1.6638586127e+00 -2.8818876538e+00 1.6638586127e+00 2.8818876538e+00 
102300 6.6420398005e+00 4.4786468088e-05 1.6638586127e+00 -2.8818876538e+00 1.6638586127e+00 2.8818876538e+00 
102400 6.6420398005e+00 4.4800230107e-05 1.6638586127e+00 -2.8818876538e+00 1.6638586127e+00 2.8818876538e+00 
102500 6.6420398006e+00 4.4815264396e-05 1.6638586127e+00 -2.8818876538e+00 1.6638586127e+00 2.8818876538e+00 
102600 6.6420398006e+00 4.4831552889e-05 1.6638586127e+00 -2.8818876538e+00 1.6638586127e+00 2.8818876538e+00 
102700 6.6420398007e+00 4.4849076686e-05 1.6638586127e+00 -2.8818876538e+00 1.6638586127e+00 2.8818876538e+00 
102800 6.6420398008e+00 4.4867816072e-05 1.6638586127e+00 -2.8818876538e+00 1.6638586127e+00 2.8818876538e+00 
102900 6.6420398008e+00 4.4887750563e-05 1.6638586127e+00 -2.8818876538e+00 1.6638586127e+00 2.8818876538e+00 
103000 6.6420398009e+00 4.4908858938e-05 1.6638586127e+00 -2.8818876538e+00 1.6638586127e+00 2.8818876538e+00 
103100 6.6420398009e+00 4.4931119271e-05 1.6638586127e+00 -2.8818876538e+00 1.6638586127e+00 2.8818876538e+00 
103200 6.6420398010e+00 4.4954508981e-05 1.6638586127e+00 -2.8818876538e+00 1.6638586127e+00 2.8818876538e+00 
103300 6.6420398010e+00 4.4979004847e-05 1.6638586127e+00 -2.8818876538e+00 1.6638586127e+00 2.8818876538e+00 
103400 6.6420398011e+00 4.5004583056e-05 1.6638586127e+00 -2.8818876538e+00 1.6638586127e+00 2.8818876538e+00 
103500 6.6420398011e+00 4.5031219238e-05 1.6638586127e+00 -2.8818876538e+00 1.6638586127e+00 2.8818876538e+00 
103600 6.6420398012e+00 4.5058888492e-05 1.6638586127e+00 -2.8818876538e+00 1.6638586127e+00 2.8818876538e+00 
103700 6.6420398012e+00 4.5087565429e-05 1.6638586127e+00 -2.8818876538e+00 1.6638586127e+00 2.8818876538e+00 
103800 6.6420398013e+00 4.5117224203e-05 1.6638586127e+00 -2.8818876538e+00 1.6638586127e+00 2.8818876538e+00 
103900 6.6420398013e+00 4.5147838542e-05 1.6638586127e+00 -2.8818876538e+00 1.6638586127e+00 2.8818876538e+00 
104000 6.6420398013e+00 4.5166022203e-05 1.6638586127e+00 -2.8818876538e+00 1.6638586127e+00 2.8818876538e+00 
104000 6.6420398013e+00 4.5166022203e-05 1.6638586127e+00 -2.8818876538e+00 1.6638586127e+00 2.8818876538e+00 
