# step Hamiltonian StressXX CellTensor1 CellTensor2 CellTensor3 CellTensor4 
0 6.8758080209e+00 -6.7925073611e-10 1.3731072612e+00 -2.3782915406e+00 1.3731072612e+00 2.3782915406e+00 
100 6.8696353048e+00 -5.4500317454e-10 1.3731072612e+00 -2.3782915406e+00 1.3731072612e+00 2.3782915406e+00 
200 6.8638159872e+00 -4.5680449273e-10 1.3731072612e+00 -2.3782915406e+00 1.3731072612e+00 2.3782915406e+00 
300 6.8583298354e+00 -4.0379206333e-10 1.3731072612e+00 -2.3782915406e+00 1.3731072612e+00 2.3782915406e+00 
400 6.8531577751e+00 -3.7748684654e-10 1.3731072612e+00 -2.3782915406e+00 1.3731072612e+00 2.3782915406e+00 
500 6.8482818240e+00 -3.7128821167e-10 1.3731072612e+00 -2.3782915406e+00 1.3731072612e+00 2.3782915406e+00 
600 6.8436850295e+00 -3.8007423133e-10 1.3731072612e+00 -2.3782915406e+00 1.3731072612e+00 2.3782915406e+00 
700 6.8393514092e+00 -3.9988558010e-10 1.3731072612e+00 -2.3782915406e+00 1.3731072612e+00 2.3782915406e+00 
800 6.8352658961e+00 -4.2767568999e-10 1.3731072612e+00 -2.3782915406e+00 1.3731072612e+00 2.3782915406e+00 
900 6.8314142856e+00 -4.6111340044e-10 1.3731072612e+00 -2.3782915406e+00 1.3731072612e+00 2.3782915406e+00 
1000 6.8277831863e+00 -4.9842718763e-10 1.3731072612e+00 -2.3782915406e+00 1.3731072612e+00 2.3782915406e+00 
1100 6.8243599736e+00 -5.3828231669e-10 1.3731072612e+00 -2.3782915406e+00 1.3731072612e+00 2.3782915406e+00 
1200 6.8211327456e+00 -5.7968405183e-10 1.3731072612e+00 -2.3782915406e+00 1.3731072612e+00 2.3782915406e+00 
1300 6.8180902820e+00 -6.2190148352e-10 1.3731072612e+00 -2.3782915406e+00 1.3731072612e+00 2.3782915406e+00 
1400 6.8152220045e+00 -6.6440765770e-10 1.3731072612e+00 -2.3782915406e+00 1.3731072612e+00 2.3782915406e+00 
1500 6.8125179409e+00 -7.0683258990e-10 1.3731072612e+00 -2.3782915406e+00 1.3731072612e+00 2.3782915406e+00 
1600 6.8099686894e+00 -7.4892645480e-10 1.3731072612e+00 -2.3782915406e+00 1.3731072612e+00 2.3782915406e+00 
1700 6.8075653869e+00 -7.9053080722e-10 1.3731072612e+00 -2.3782915406e+00 1.3731072612e+00 2.3782915406e+00 
1800 6.8052996776e+00 -8.3155613536e-10 1.3731072612e+00 -2.3782915406e+00 1.3731072612e+00 2.3782915406e+00 
1900 6.8031636840e+00 -8.7196440261e-10 1.3731072612e+00 -2.3782915406e+00 1.3731072612e+00 2.3782915406e+00 
2000 6.8011499797e+00 -9.1175551438e-10 1.3731072612e+00 -2.3782915406e+00 1.3731072612e+00 2.3782915406e+00 
2100 6.7992515633e+00 -9.5095686918e-10 1.3731072612e+00 -2.3782915406e+00 1.3731072612e+00 2.3782915406e+00 
2200 6.7974618345e+00 -9.8961532983e-10 1.3731072612e+00 -2.3782915406e+00 1.3731072612e+00 2.3782915406e+00 
2300 6.7957745707e+00 -1.0277910895e-09 1.3731072612e+00 -2.3782915406e+00 1.3731072612e+00 2.3782915406e+00 
2400 6.7941839056e+00 -1.0655530194e-09 1.3731072612e+00 -2.3782915406e+00 1.3731072612e+00 2.3782915406e+00 
2500 6.7926843087e+00 -1.1029751707e-09 1.3731072612e+00 -2.3782915406e+00 1.3731072612e+00 2.3782915406e+00 
2600 6.7912705664e+00 -1.1401341748e-09 1.3731072612e+00 -2.3782915406e+00 1.3731072612e+00 2.3782915406e+00 
2700 6.7899377631e+00 -1.1771073387e-09 1.3731072612e+00 -2.3782915406e+00 1.3731072612e+00 2.3782915406e+00 
2800 6.7886812651e+00 -1.2139712777e-09 1.3731072612e+00 -2.3782915406e+00 1.3731072612e+00 2.3782915406e+00 
2900 6.7874967038e+00 -1.2508009591e-09 1.3731072612e+00 -2.3782915406e+00 1.3731072612e+00 2.3782915406e+00 
3000 6.7863799605e+00 -1.2876690613e-09 1.3731072612e+00 -2.3782915406e+00 1.3731072612e+00 2.3782915406e+00 
3100 6.7853271527e+00 -1.3246455716e-09 1.3731072612e+00 -2.3782915406e+00 1.3731072612e+00 2.3782915406e+00 
3200 6.7843346199e+00 -1.3617975617e-09 1.3731072612e+00 -2.3782915406e+00 1.3731072612e+00 2.3782915406e+00 
3300 6.7833989113e+00 -1.3991890975e-09 1.3731072612e+00 -2.3782915406e+00 1.3731072612e+00 2.3782915406e+00 
3400 6.7825167736e+00 -1.4368812450e-09 1.3731072612e+00 -2.3782915406e+00 1.3731072612e+00 2.3782915406e+00 
3500 6.7816851397e+00 -1.4749321465e-09 1.3731072612e+00 -2.3782915406e+00 1.3731072612e+00 2.3782915406e+00 
3600 6.7809011182e+00 -1.5133971455e-09 1.3731072612e+00 -2.3782915406e+00 1.3731072612e+00 2.3782915406e+00 
3700 6.7801619833e+00 -1.5523289429e-09 1.3731072612e+00 -2.3782915406e+00 1.3731072612e+00 2.3782915406e+00 
3800 6.7794651651e+00 -1.5917777752e-09 1.3731072612e+00 -2.3782915406e+00 1.3731072612e+00 2.3782915406e+00 
3900 6.7788082409e+00 -1.6317916024e-09 1.3731072612e+00 -2.3782915406e+00 1.3731072612e+00 2.3782915406e+00 
4000 6.7781889267e+00 -1.6724163011e-09 1.3731072612e+00 -2.3782915406e+00 1.3731072612e+00 2.3782915406e+00 
4100 6.7776050693e+00 -1.7136958571e-09 1.3731072612e+00 -2.3782915406e+00 1.3731072612e+00 2.3782915406e+00 
4200 6.7770546386e+00 -1.7556725539e-09 1.3731072612e+00 -2.3782915406e+00 1.3731072612e+00 2.3782915406e+00 
4300 6.7765357210e+00 -1.7983871543e-09 1.3731072612e+00 -2.3782915406e+00 1.3731072612e+00 2.3782915406e+00 
4400 6.7760465123e+00 -1.8418790752e-09 1.3731072612e+00 -2.3782915406e+00 1.3731072612e+00 2.3782915406e+00 
4500 6.7755853116e+00 -1.8861865525e-09 1.3731072612e+00 -2.3782915406e+00 1.3731072612e+00 2.3782915406e+00 
4600 6.7751505154e+00 -1.9313467966e-09 1.3731072612e+00 -2.3782915406e+00 1.3731072612e+00 2.3782915406e+00 
4700 6.7747406120e+00 -1.9773961388e-09 1.3731072612e+00 -2.3782915406e+00 1.3731072612e+00 2.3782915406e+00 
4800 6.7743541762e+00 -2.0243701676e-09 1.3731072612e+00 -2.3782915406e+00 1.3731072612e+00 2.3782915406e+00 
4900 6.7739898644e+00 -2.0723038561e-09 1.3731072612e+00 -2.3782915406e+00 1.3731072612e+00 2.3782915406e+00 
5000 6.7736464101e+00 -2.1212316804e-09 1.3731072612e+00 -2.3782915406e+00 1.3731072612e+00 2.3782915406e+00 
5100 6.7733226191e+00 -2.1711877297e-09 1.3731072612e+00 -2.3782915406e+00 1.3731072612e+00 2.3782915406e+00 
5200 6.7730173657e+00 -2.2222058078e-09 1.3731072612e+00 -2.3782915406e+00 1.3731072612e+00 2.3782915406e+00 
5300 6.7727295885e+00 -2.2743195286e-09 1.3731072612e+00 -2.3782915406e+00 1.3731072612e+00 2.3782915406e+00 
5400 6.7724582869e+00 -2.3275624031e-09 1.3731072612e+00 -2.3782915406e+00 1.3731072612e+00 2.3782915406e+00 
5500 6.7722025178e+00 -2.3819679216e-09 1.3731072612e+00 -2.3782915406e+00 1.3731072612e+00 2.3782915406e+00 
5600 6.7719613919e+00 -2.4375696289e-09 1.3731072612e+00 -2.3782915406e+00 1.3731072612e+00 2.3782915406e+00 
5700 6.7717340708e+00 -2.4944011953e-09 1.3731072612e+00 -2.3782915406e+00 1.3731072612e+00 2.3782915406e+00 
5800 6.7715197642e+00 -2.5524964816e-09 1.3731072612e+00 -2.3782915406e+00 1.3731072612e+00 2.3782915406e+00 
5900 6.7713177269e+00 -2.6118896010e-09 1.3731072612e+00 -2.3782915406e+00 1.3731072612e+00 2.3782915406e+00 
6000 6.7711272566e+00 -2.6726149759e-09 1.3731072612e+00 -2.3782915406e+00 1.3731072612e+00 2.3782915406e+00 
6100 6.7709476909e+00 -2.7347073922e-09 1.3731072612e+00 -2.3782915406e+00 1.3731072612e+00 2.3782915406e+00 
6200 6.7707784057e+00 -2.7982020492e-09 1.3731072612e+00 -2.3782915406e+00 1.3731072612e+00 2.3782915406e+00 
6300 6.7706188122e+00 -2.8631346078e-09 1.3731072612e+00 -2.3782915406e+00 1.3731072612e+00 2.3782915406e+00 
6400 6.7704683557e+00 -2.9295412357e-09 1.3731072612e+00 -2.3782915406e+00 1.3731072612e+00 2.3782915406e+00 
6500 6.7703265131e+00 -2.9974586496e-09 1.3731072612e+00 -2.3782915406e+00 1.3731072612e+00 2.3782915406e+00 
6600 6.7701927911e+00 -3.0669241568e-09 1.3731072612e+00 -2.3782915406e+00 1.3731072612e+00 2.3782915406e+00 
6700 6.7700667248e+00 -3.1379756938e-09 1.3731072612e+00 -2.3782915406e+00 1.3731072612e+00 2.3782915406e+00 
6800 6.7699478760e+00 -3.2106518638e-09 1.3731072612e+00 -2.3782915406e+00 1.3731072612e+00 2.3782915406e+00 
6900 6.7698358315e+00 -3.2849919730e-09 1.3731072612e+00 -2.3782915406e+00 1.3731072612e+00 2.3782915406e+00 
7000 6.7697302016e+00 -3.3610360657e-09 1.3731072612e+00 -2.3782915406e+00 1.3731072612e+00 2.3782915406e+00 
7100 6.7696306191e+00 -3.4388249576e-09 1.3731072612e+00 -2.3782915406e+00 1.3731072612e+00 2.3782915406e+00 
7200 6.7695367379e+00 -3.5184002697e-09 1.3731072612e+00 -2.3782915406e+00 1.3731072612e+00 2.3782915406e+00 
7300 6.7694482314e+00 -3.5998044599e-09 1.3731072612e+00 -2.3782915406e+00 1.3731072612e+00 2.3782915406e+00 
7400 6.7693647920e+00 -3.6830808552e-09 1.3731072612e+00 -2.3782915406e+00 1.3731072612e+00 2.3782915406e+00 
7500 6.7692861296e+00 -3.7682736828e-09 1.3731072612e+00 -2.3782915406e+00 1.3731072612e+00 2.3782915406e+00 
7600 6.7692119706e+00 -3.8554281014e-09 1.3731072612e+00 -2.3782915406e+00 1.3731072612e+00 2.3782915406e+00 
7700 6.7691420574e+00 -3.9445902311e-09 1.3731072612e+00 -2.3782915406e+00 1.3731072612e+00 2.3782915406e+00 
7800 6.7690761467e+00 -4.0358071845e-09 1.3731072612e+00 -2.3782915406e+00 1.3731072612e+00 2.3782915406e+00 
7900 6.7690140094e+00 -4.1291270967e-09 1.3731072612e+00 -2.3782915406e+00 1.3731072612e+00 2.3782915406e+00 
8000 6.7689554295e+00 -4.2245991559e-09 1.3731072612e+00 -2.3782915406e+00 1.3731072612e+00 2.3782915406e+00 
8100 6.7689002033e+00 -4.3222736335e-09 1.3731072612e+00 -2.3782915406e+00 1.3731072612e+00 2.3782915406e+00 
8200 6.7688481388e+00 -4.4222019150e-09 1.3731072612e+00 -2.3782915406e+00 1.3731072612e+00 2.3782915406e+00 
8300 6.7687990550e+00 -4.5244365300e-09 1.3731072612e+00 -2.3782915406e+00 1.3731072612e+00 2.3782915406e+00 
8400 6.7687527813e+00 -4.6290311840e-09 1.3731072612e+00 -2.3782915406e+00 1.3731072612e+00 2.3782915406e+00 
8500 6.7687091567e+00 -4.7360407887e-09 1.3731072612e+00 -2.3782915406e+00 1.3731072612e+00 2.3782915406e+00 
8600 6.7686680296e+00 -4.8455214941e-09 1.3731072612e+00 -2.3782915406e+00 1.3731072612e+00 2.3782915406e+00 
8700 6.7686292570e+00 -4.9575307204e-09 1.3731072612e+00 -2.3782915406e+00 1.3731072612e+00 2.3782915406e+00 
8800 6.7685927041e+00 -5.0721271899e-09 1.3731072612e+00 -2.3782915406e+00 1.3731072612e+00 2.3782915406e+00 
8900 6.7685582438e+00 -5.1893709602e-09 1.3731072612e+00 -2.3782915406e+00 1.3731072612e+00 2.3782915406e+00 
9000 6.7685257563e+00 -5.3093234572e-09 1.3731072612e+00 -2.3782915406e+00 1.3731072612e+00 2.3782915406e+00 
9100 6.7684951287e+00 -5.4320475092e-09 1.3731072612e+00 -2.3782915406e+00 1.3731072612e+00 2.3782915406e+00 
9200 6.7684662544e+00 -5.5576073811e-09 1.3731072612e+00 -2.3782915406e+00 1.3731072612e+00 2.3782915406e+00 
9300 6.7684390332e+00 -5.6860688094e-09 1.3731072612e+00 -2.3782915406e+00 1.3731072612e+00 2.3782915406e+00 
9400 6.7684133703e+00 -5.8174990382e-09 1.3731072612e+00 -2.3782915406e+00 1.3731072612e+00 2.3782915406e+00 
9500 6.7683891765e+00 -5.9519668549e-09 1.3731072612e+00 -2.3782915406e+00 1.3731072612e+00 2.3782915406e+00 
9600 6.7683663678e+00 -6.0895426279e-09 1.3731072612e+00 -2.3782915406e+00 1.3731072612e+00 2.3782915406e+00 
9700 6.7683448647e+00 -6.2302983439e-09 1.3731072612e+00 -2.3782915406e+00 1.3731072612e+00 2.3782915406e+00 
9800 6.7683245926e+00 -6.3743076468e-09 1.3731072612e+00 -2.3782915406e+00 1.3731072612e+00 2.3782915406e+00 
9900 6.7683054811e+00 -6.5216458765e-09 1.3731072612e+00 -2.3782915406e+00 1.3731072612e+00 2.3782915406e+00 
10000 6.7682874635e+00 -6.6723901097e-09 1.3731072612e+00 -2.3782915406e+00 1.3731072612e+00 2.3782915406e+00 
10100 6.7682704774e+00 -6.8266192005e-09 1.3731072612e+00 -2.3782915406e+00 1.3731072612e+00 2.3782915406e+00 
10200 6.7682544636e+00 -6.9844138221e-09 1.3731072612e+00 -2.3782915406e+00 1.3731072612e+00 2.3782915406e+00 
10300 6.7682393665e+00 -7.1458565102e-09 1.3731072612e+00 -2.3782915406e+00 1.3731072612e+00 2.3782915406e+00 
10400 6.7682251335e+00 -7.3110317060e-09 1.3731072612e+00 -2.3782915406e+00 1.3731072612e+00 2.3782915406e+00 
10500 6.7682117153e+00 -7.4800258016e-09 1.3731072612e+00 -2.3782915406e+00 1.3731072612e+00 2.3782915406e+00 
10600 6.7681990652e+00 -7.6529271848e-09 1.3731072612e+00 -2.3782915406e+00 1.3731072612e+00 2.3782915406e+00 
10700 6.7681871391e+00 -7.8298262869e-09 1.3731072612e+00 -2.3782915406e+00 1.3731072612e+00 2.3782915406e+00 
10800 6.7681758957e+00 -8.0108156290e-09 1.3731072612e+00 -2.3782915406e+00 1.3731072612e+00 2.3782915406e+00 
10900 6.7681652958e+00 -8.1959898720e-09 1.3731072612e+00 -2.3782915406e+00 1.3731072612e+00 2.3782915406e+00 
11000 6.7681553027e+00 -8.3854458664e-09 1.3731072612e+00 -2.3782915406e+00 1.3731072612e+00 2.3782915406e+00 
11100 6.7681458815e+00 -8.5792827024e-09 1.3731072612e+00 -2.3782915406e+00 1.3731072612e+00 2.3782915406e+00 
11200 6.7681369995e+00 -8.7776017628e-09 1.3731072612e+00 -2.3782915406e+00 1.3731072612e+00 2.3782915406e+00 
11300 6.7681286258e+00 -8.9805067766e-09 1.3731072612e+00 -2.3782915406e+00 1.3731072612e+00 2.3782915406e+00 
11400 6.7681207314e+00 -9.1881038730e-09 1.3731072612e+00 -2.3782915406e+00 1.3731072612e+00 2.3782915406e+00 
11500 6.7681132887e+00 -9.4005016373e-09 1.3731072612e+00 -2.3782915406e+00 1.3731072612e+00 2.3782915406e+00 
11600 6.7681062720e+00 -9.6178111687e-09 1.3731072612e+00 -2.3782915406e+00 1.3731072612e+00 2.3782915406e+00 
11700 6.7680996568e+00 -9.8401461378e-09 1.3731072612e+00 -2.3782915406e+00 1.3731072612e+00 2.3782915406e+00 
11800 6.7680934201e+00 -1.0067622847e-08 1.3731072612e+00 -2.3782915406e+00 1.3731072612e+00 2.3782915406e+00 
11900 6.7680875403e+00 -1.0300360292e-08 1.3731072612e+00 -2.3782915406e+00 1.3731072612e+00 2.3782915406e+00 
12000 6.7680819969e+00 -1.0538480222e-08 1.3731072612e+00 -2.3782915406e+00 1.3731072612e+00 2.3782915406e+00 
12100 6.7680767707e+00 -1.0782107208e-08 1.3731072612e+00 -2.3782915406e+00 1.3731072612e+00 2.3782915406e+00 
12200 6.7680718435e+00 -1.1031368704e-08 1.3731072612e+00 -2.3782915406e+00 1.3731072612e+00 2.3782915406e+00 
12300 6.7680671981e+00 -1.1286395117e-08 1.3731072612e+00 -2.3782915406e+00 1.3731072612e+00 2.3782915406e+00 
12400 6.7680628185e+00 -1.1547319874e-08 1.3731072612e+00 -2.3782915406e+00 1.3731072612e+00 2.3782915406e+00 
12500 6.7680586894e+00 -1.1814279491e-08 1.3731072612e+00 -2.3782915406e+00 1.3731072612e+00 2.3782915406e+00 
12600 6.7680547964e+00 -1.2087413650e-08 1.3731072612e+00 -2.3782915406e+00 1.3731072612e+00 2.3782915406e+00 
12700 6.7680511261e+00 -1.2366865265e-08 1.3731072612e+00 -2.3782915406e+00 1.3731072612e+00 2.3782915406e+00 
12800 6.7680476657e+00 -1.2652780563e-08 1.3731072612e+00 -2.3782915406e+00 1.3731072612e+00 2.3782915406e+00 
12900 6.7680444032e+00 -1.2945309157e-08 1.3731072612e+00 -2.3782915406e+00 1.3731072612e+00 2.3782915406e+00 
13000 6.7680413271e+00 -1.3244604127e-08 1.3731072612e+00 -2.3782915406e+00 1.3731072612e+00 2.3782915406e+00 
13100 6.7680384270e+00 -1.3550822102e-08 1.3731072612e+00 -2.3782915406e+00 1.3731072612e+00 2.3782915406e+00 
13200 6.7680356925e+00 -1.3864123337e-08 1.3731072612e+00 -2.3782915406e+00 1.3731072612e+00 2.3782915406e+00 
13300 6.7680331144e+00 -1.4184671802e-08 1.3731072612e+00 -2.3782915406e+00 1.3731072612e+00 2.3782915406e+00 
13400 6.7680306836e+00 -1.4512635268e-08 1.3731072612e+00 -2.3782915406e+00 1.3731072612e+00 2.3782915406e+00 
13500 6.7680283917e+00 -1.4848185390e-08 1.3731072612e+00 -2.3782915406e+00 1.3731072612e+00 2.3782915406e+00 
13600 6.7680262307e+00 -1.5191497805e-08 1.3731072612e+00 -2.3782915406e+00 1.3731072612e+00 2.3782915406e+00 
13700 6.7680241931e+00 -1.5542752219e-08 1.3731072612e+00 -2.3782915406e+00 1.3731072612e+00 2.3782915406e+00 
13800 6.7680222718e+00 -1.5902132503e-08 1.3731072612e+00 -2.3782915406e+00 1.3731072612e+00 2.3782915406e+00 
13900 6.7680204603e+00 -1.6269826790e-08 1.3731072612e+00 -2.3782915406e+00 1.3731072612e+00 2.3782915406e+00 
14000 6.7680187521e+00 -1.6646027575e-08 1.3731072612e+00 -2.3782915406e+00 1.3731072612e+00 2.3782915406e+00 
14100 6.7680171414e+00 -1.7030931812e-08 1.3731072612e+00 -2.3782915406e+00 1.3731072612e+00 2.3782915406e+00 
14200 6.7680156226e+00 -1.7424741024e-08 1.3731072612e+00 -2.3782915406e+00 1.3731072612e+00 2.3782915406e+00 
14300 6.7680141904e+00 -1.7827661405e-08 1.3731072612e+00 -2.3782915406e+00 1.3731072612e+00 2.3782915406e+00 
14400 6.7680128398e+00 -1.8239903927e-08 1.3731072612e+00 -2.3782915406e+00 1.3731072612e+00 2.3782915406e+00 
14500 6.7680115662e+00 -1.8661684455e-08 1.3731072612e+00 -2.3782915406e+00 1.3731072612e+00 2.3782915406e+00 
14600 6.7680103651e+00 -1.9093223860e-08 1.3731072612e+00 -2.3782915406e+00 1.3731072612e+00 2.3782915406e+00 
14700 6.7680092324e+00 -1.9534748132e-08 1.3731072612e+00 -2.3782915406e+00 1.3731072612e+00 2.3782915406e+00 
14800 6.7680081642e+00 -1.9986488502e-08 1.3731072612e+00 -2.3782915406e+00 1.3731072612e+00 2.3782915406e+00 
14900 6.7680071568e+00 -2.0448681565e-08 1.3731072612e+00 -2.3782915406e+00 1.3731072612e+00 2.3782915406e+00 
15000 6.7680062066e+00 -2.0921569398e-08 1.3731072612e+00 -2.3782915406e+00 1.3731072612e+00 2.3782915406e+00 
15100 6.7680053104e+00 -2.1405399696e-08 1.3731072612e+00 -2.3782915406e+00 1.3731072612e+00 2.3782915406e+00 
15200 6.7680044651e+00 -2.1900425898e-08 1.3731072612e+00 -2.3782915406e+00 1.3731072612e+00 2.3782915406e+00 
15300 6.7680036677e+00 -2.2406907318e-08 1.3731072612e+00 -2.3782915406e+00 1.3731072612e+00 2.3782915406e+00 
15400 6.7680029156e+00 -2.2925109288e-08 1.3731072612e+00 -2.3782915406e+00 1.3731072612e+00 2.3782915406e+00 
15500 6.7680022060e+00 -2.3455303293e-08 1.3731072612e+00 -2.3782915406e+00 1.3731072612e+00 2.3782915406e+00 
15600 6.7680015366e+00 -2.3997767116e-08 1.3731072612e+00 -2.3782915406e+00 1.3731072612e+00 2.3782915406e+00 
15700 6.7680009051e+00 -2.4552784982e-08 1.3731072612e+00 -2.3782915406e+00 1.3731072612e+00 2.3782915406e+00 
15800 6.7680003092e+00 -2.5120647712e-08 1.3731072612e+00 -2.3782915406e+00 1.3731072612e+00 2.3782915406e+00 
15900 6.7679997470e+00 -2.5701652873e-08 1.3731072612e+00 -2.3782915406e+00 1.3731072612e+00 2.3782915406e+00 
16000 6.7679992164e+00 -2.6296104936e-08 1.3731072612e+00 -2.3782915406e+00 1.3731072612e+00 2.3782915406e+00 
16100 6.7679987157e+00 -2.6904315436e-08 1.3731072612e+00 -2.3782915406e+00 1.3731072612e+00 2.3782915406e+00 
16200 6.7679982431e+00 -2.7526603137e-08 1.3731072612e+00 -2.3782915406e+00 1.3731072612e+00 2.3782915406e+00 
16300 6.7679977970e+00 -2.8163294200e-08 1.3731072612e+00 -2.3782915406e+00 1.3731072612e+00 2.3782915406e+00 
16400 6.7679973760e+00 -2.8814722355e-08 1.3731072612e+00 -2.3782915406e+00 1.3731072612e+00 2.3782915406e+00 
16500 6.7679969784e+00 -2.9481229076e-08 1.3731072612e+00 -2.3782915406e+00 1.3731072612e+00 2.3782915406e+00 
16600 6.7679966030e+00 -3.0163163763e-08 1.3731072612e+00 -2.3782915406e+00 1.3731072612e+00 2.3782915406e+00 
16700 6.7679962485e+00 -3.0860883924e-08 1.3731072612e+00 -2.3782915406e+00 1.3731072612e+00 2.3782915406e+00 
16800 6.7679959137e+00 -3.1574755368e-08 1.3731072612e+00 -2.3782915406e+00 1.3731072612e+00 2.3782915406e+00 
16900 6.7679955975e+00 -3.2305152392e-08 1.3731072612e+00 -2.3782915406e+00 1.3731072612e+00 2.3782915406e+00 
17000 6.7679952987e+00 -3.3052457984e-08 1.3731072612e+00 -2.3782915406e+00 1.3731072612e+00 2.3782915406e+00 
17100 6.7679950163e+00 -3.3817064023e-08 1.3731072612e+00 -2.3782915406e+00 1.3731072612e+00 2.3782915406e+00 
17200 6.7679947495e+00 -3.4599371483e-08 1.3731072612e+00 -2.3782915406e+00 1.3731072612e+00 2.3782915406e+00 
17300 6.7679944972e+00 -3.5399790652e-08 1.3731072612e+00 -2.3782915406e+00 1.3731072612e+00 2.3782915406e+00 
17400 6.7679942587e+00 -3.6218741343e-08 1.3731072612e+00 -2.3782915406e+00 1.3731072612e+00 2.3782915406e+00 
17500 6.7679940331e+00 -3.7056653115e-08 1.3731072612e+00 -2.3782915406e+00 1.3731072612e+00 2.3782915406e+00 
17600 6.7679938197e+00 -3.7913965505e-08 1.3731072612e+00 -2.3782915406e+00 1.3731072612e+00 2.3782915406e+00 
17700 6.7679936178e+00 -3.8791128256e-08 1.3731072612e+00 -2.3782915406e+00 1.3731072612e+00 2.3782915406e+00 
17800 6.7679934267e+00 -3.9688601557e-08 1.3731072612e+00 -2.3782915406e+00 1.3731072612e+00 2.3782915406e+00 
17900 6.7679932457e+00 -4.0606856286e-08 1.3731072612e+00 -2.3782915406e+00 1.3731072612e+00 2.3782915406e+00 
18000 6.7679930742e+00 -4.1546374256e-08 1.3731072612e+00 -2.3782915406e+00 1.3731072612e+00 2.3782915406e+00 
18100 6.7679929118e+00 -4.2507648475e-08 1.3731072612e+00 -2.3782915406e+00 1.3731072612e+00 2.3782915406e+00 
18200 6.7679927578e+00 -4.3491183402e-08 1.3731072612e+00 -2.3782915406e+00 1.3731072612e+00 2.3782915406e+00 
18300 6.7679926118e+00 -4.4497495217e-08 1.3731072612e+00 -2.3782915406e+00 1.3731072612e+00 2.3782915406e+00 
18400 6.7679924732e+00 -4.5527112093e-08 1.3731072612e+00 -2.3782915406e+00 1.3731072612e+00 2.3782915406e+00 
18500 6.7679923417e+00 -4.6580574473e-08 1.3731072612e+00 -2.3782915406e+00 1.3731072612e+00 2.3782915406e+00 
18600 6.7679922168e+00 -4.7658435361e-08 1.3731072612e+00 -2.3782915406e+00 1.3731072612e+00 2.3782915406e+00 
18700 6.7679920981e+00 -4.8761260612e-08 1.3731072612e+00 -2.3782915406e+00 1.3731072612e+00 2.3782915406e+00 
18800 6.7679919852e+00 -4.9889629230e-08 1.3731072612e+00 -2.3782915406e+00 1.3731072612e+00 2.3782915406e+00 
18900 6.7679918778e+00 -5.1044133676e-08 1.3731072612e+00 -2.3782915406e+00 1.3731072612e+00 2.3782915406e+00 
19000 6.7679917755e+00 -5.2225380185e-08 1.3731072612e+00 -2.3782915406e+00 1.3731072612e+00 2.3782915406e+00 
19100 6.7679916781e+00 -5.3433989081e-08 1.3731072612e+00 -2.3782915406e+00 1.3731072612e+00 2.3782915406e+00 
19200 6.7679915851e+00 -5.4670595110e-08 1.3731072612e+00 -2.3782915406e+00 1.3731072612e+00 2.3782915406e+00 
19300 6.7679914964e+00 -5.5935847775e-08 1.3731072612e+00 -2.3782915406e+00 1.3731072612e+00 2.3782915406e+00 
19400 6.7679914117e+00 -5.7230411679e-08 1.3731072612e+00 -2.3782915406e+00 1.3731072612e+00 2.3782915406e+00 
19500 6.7679913307e+00 -5.8554966882e-08 1.3731072612e+00 -2.3782915406e+00 1.3731072612e+00 2.3782915406e+00 
19600 6.7679912531e+00 -5.9910209254e-08 1.3731072612e+00 -2.3782915406e+00 1.3731072612e+00 2.3782915406e+00 
19700 6.7679911789e+00 -6.1296850851e-08 1.3731072612e+00 -2.3782915406e+00 1.3731072612e+00 2.3782915406e+00 
19800 6.7679911076e+00 -6.2715620288e-08 1.3731072612e+00 -2.3782915406e+00 1.3731072612e+00 2.3782915406e+00 
19900 6.7679910392e+00 -6.4167263129e-08 1.3731072612e+00 -2.3782915406e+00 1.3731072612e+00 2.3782915406e+00 
20000 6.7679909734e+00 -6.5652542280e-08 1.3731072612e+00 -2.3782915406e+00 1.3731072612e+00 2.3782915406e+00 
20100 6.7679909101e+00 -6.7172238395e-08 1.3731072612e+00 -2.3782915406e+00 1.3731072612e+00 2.3782915406e+00 
20200 6.7679908491e+00 -6.8727150289e-08 1.3731072612e+00 -2.3782915406e+00 1.3731072612e+00 2.3782915406e+00 
20300 6.7679907902e+00 -7.0318095366e-08 1.3731072612e+00 -2.3782915406e+00 1.3731072612e+00 2.3782915406e+00 
20400 6.7679907333e+00 -7.1945910047e-08 1.3731072612e+00 -2.3782915406e+00 1.3731072612e+00 2.3782915406e+00 
20500 6.7679906782e+00 -7.3611450220e-08 1.3731072612e+00 -2.3782915406e+00 1.3731072612e+00 2.3782915406e+00 
20600 6.7679906248e+00 -7.5315591692e-08 1.3731072612e+00 -2.3782915406e+00 1.3731072612e+00 2.3782915406e+00 
20700 6.7679905730e+00 -7.7059230653e-08 1.3731072612e+00 -2.3782915406e+00 1.3731072612e+00 2.3782915406e+00 
20800 6.7679905226e+00 -7.8843284156e-08 1.3731072612e+00 -2.3782915406e+00 1.3731072612e+00 2.3782915406e+00 
20900 6.7679904735e+00 -8.0668690602e-08 1.3731072612e+00 -2.3782915406e+00 1.3731072612e+00 2.3782915406e+00 
21000 6.7679904257e+00 -8.2536410237e-08 1.3731072612e+00 -2.3782915406e+00 1.3731072612e+00 2.3782915406e+00 
21100 6.7679903789e+00 -8.4447425670e-08 1.3731072612e+00 -2.3782915406e+00 1.3731072612e+00 2.3782915406e+00 
21200 6.7679903331e+00 -8.6402742386e-08 1.3731072612e+00 -2.3782915406e+00 1.3731072612e+00 2.3782915406e+00 
21300 6.7679902883e+00 -8.8403389288e-08 1.3731072612e+00 -2.3782915406e+00 1.3731072612e+00 2.3782915406e+00 
21400 6.7679902442e+00 -9.0450419243e-08 1.3731072612e+00 -2.3782915406e+00 1.3731072612e+00 2.3782915406e+00 
21500 6.7679902009e+00 -9.2544909640e-08 1.3731072612e+00 -2.3782915406e+00 1.3731072612e+00 2.3782915406e+00 
21600 6.7679901582e+00 -9.4687962968e-08 1.3731072612e+00 -2.3782915406e+00 1.3731072612e+00 2.3782915406e+00 
21700 6.7679901161e+00 -9.6880707399e-08 1.3731072612e+00 -2.3782915406e+00 1.3731072612e+00 2.3782915406e+00 
21800 6.7679900745e+00 -9.9124297390e-08 1.3731072612e+00 -2.3782915406e+00 1.3731072612e+00 2.3782915406e+00 
21900 6.7679900333e+00 -1.0141991430e-07 1.3731072612e+00 -2.3782915406e+00 1.3731072612e+00 2.3782915406e+00 
22000 6.7679899924e+00 -1.0376876702e-07 1.3731072612e+00 -2.3782915406e+00 1.3731072612e+00 2.3782915406e+00 
22100 6.7679899518e+00 -1.0617209262e-07 1.3731072612e+00 -2.3782915406e+00 1.3731072612e+00 2.3782915406e+00 
22200 6.7679899115e+00 -1.0863115699e-07 1.3731072612e+00 -2.3782915406e+00 1.3731072612e+00 2.3782915406e+00 
22300 6.7679898712e+00 -1.1114725554e-07 1.3731072612e+00 -2.3782915406e+00 1.3731072612e+00 2.3782915406e+00 
22400 6.7679898311e+00 -1.1372171388e-07 1.3731072612e+00 -2.3782915406e+00 1.3731072612e+00 2.3782915406e+00 
22500 6.7679897910e+00 -1.1635588854e-07 1.3731072612e+00 -2.3782915406e+00 1.3731072612e+00 2.3782915406e+00 
22600 6.7679897509e+00 -1.1905116766e-07 1.3731072612e+00 -2.3782915406e+00 1.3731072612e+00 2.3782915406e+00 
22700 6.7679897108e+00 -1.2180897177e-07 1.3731072612e+00 -2.3782915406e+00 1.3731072612e+00 2.3782915406e+00 
22800 6.7679896705e+00 -1.2463075452e-07 1.3731072612e+00 -2.3782915406e+00 1.3731072612e+00 2.3782915406e+00 
22900 6.7679896300e+00 -1.2751800349e-07 1.3731072612e+00 -2.3782915406e+00 1.3731072612e+00 2.3782915406e+00 
23000 6.7679895893e+00 -1.3047224094e-07 1.3731072612e+00 -2.3782915406e+00 1.3731072612e+00 2.3782915406e+00 
23100 6.7679895484e+00 -1.3349502466e-07 1.3731072612e+00 -2.3782915406e+00 1.3731072612e+00 2.3782915406e+00 
23200 6.7679895071e+00 -1.3658794880e-07 1.3731072612e+00 -2.3782915406e+00 1.3731072612e+00 2.3782915406e+00 
23300 6.7679894655e+00 -1.3975264470e-07 1.3731072612e+00 -2.3782915406e+00 1.3731072612e+00 2.3782915406e+00 
23400 6.7679894235e+00 -1.4299078178e-07 1.3731072612e+00 -2.3782915406e+00 1.3731072612e+00 2.3782915406e+00 
23500 6.7679893811e+00 -1.4630406842e-07 1.3731072612e+00 -2.3782915406e+00 1.3731072612e+00 2.3782915406e+00 
23600 6.7679893382e+00 -1.4969425290e-07 1.3731072612e+00 -2.3782915406e+00 1.3731072612e+00 2.3782915406e+00 
23700 6.7679892948e+00 -1.5316312433e-07 1.3731072612e+00 -2.3782915406e+00 1.3731072612e+00 2.3782915406e+00 
23800 6.7679892508e+00 -1.5671251356e-07 1.3731072612e+00 -2.3782915406e+00 1.3731072612e+00 2.3782915406e+00 
23900 6.7679892062e+00 -1.6034429424e-07 1.3731072612e+00 -2.3782915406e+00 1.3731072612e+00 2.3782915406e+00 
24000 6.7679891610e+00 -1.6406038377e-07 1.3731072612e+00 -2.3782915406e+00 1.3731072612e+00 2.3782915406e+00 
24100 6.7679891151e+00 -1.6786274434e-07 1.3731072612e+00 -2.3782915406e+00 1.3731072612e+00 2.3782915406e+00 
24200 6.7679890685e+00 -1.7175338397e-07 1.3731072612e+00 -2.3782915406e+00 1.3731072612e+00 2.3782915406e+00 
24300 6.7679890211e+00 -1.7573435764e-07 1.3731072612e+00 -2.3782915406e+00 1.3731072612e+00 2.3782915406e+00 
24400 6.7679889730e+00 -1.7980776833e-07 1.3731072612e+00 -2.3782915406e+00 1.3731072612e+00 2.3782915406e+00 
24500 6.7679889240e+00 -1.8397576817e-07 1.3731072612e+00 -2.3782915406e+00 1.3731072612e+00 2.3782915406e+00 
24600 6.7679888742e+00 -1.8824055962e-07 1.3731072612e+00 -2.3782915406e+00 1.3731072612e+00 2.3782915406e+00 
24700 6.7679888235e+00 -1.9260439661e-07 1.3731072612e+00 -2.3782915406e+00 1.3731072612e+00 2.3782915406e+00 
24800 6.7679887719e+00 -1.9706958580e-07 1.3731072612e+00 -2.3782915406e+00 1.3731072612e+00 2.3782915406e+00 
24900 6.7679887193e+00 -2.0163848777e-07 1.3731072612e+00 -2.3782915406e+00 1.3731072612e+00 2.3782915406e+00 
25000 6.7679886657e+00 -2.0631351834e-07 1.3731072612e+00 -2.3782915406e+00 1.3731072612e+00 2.3782915406e+00 
25100 6.7679886111e+00 -2.1109714983e-07 1.3731072612e+00 -2.3782915406e+00 1.3731072612e+00 2.3782915406e+00 
25200 6.7679885554e+00 -2.1599191241e-07 1.3731072612e+00 -2.3782915406e+00 1.3731072612e+00 2.3782915406e+00 
25300 6.7679884986e+00 -2.2100039545e-07 1.3731072612e+00 -2.3782915406e+00 1.3731072612e+00 2.3782915406e+00 
25400 6.7679884406e+00 -2.2612524892e-07 1.3731072612e+00 -2.3782915406e+00 1.3731072612e+00 2.3782915406e+00 
25500 6.7679883815e+00 -2.3136918484e-07 1.3731072612e+00 -2.3782915406e+00 1.3731072612e+00 2.3782915406e+00 
25600 6.7679883212e+00 -2.3673497870e-07 1.3731072612e+00 -2.3782915406e+00 1.3731072612e+00 2.3782915406e+00 
25700 6.7679882596e+00 -2.4222547100e-07 1.3731072612e+00 -2.3782915406e+00 1.3731072612e+00 2.3782915406e+00 
25800 6.7679881967e+00 -2.4784356874e-07 1.3731072612e+00 -2.3782915406e+00 1.3731072612e+00 2.3782915406e+00 
25900 6.7679881324e+00 -2.5359224702e-07 1.3731072612e+00 -2.3782915406e+00 1.3731072612e+00 2.3782915406e+00 
26000 6.7679880669e+00 -2.5947455064e-07 1.3731072612e+00 -2.3782915406e+00 1.3731072612e+00 2.3782915406e+00 
26100 6.7679879998e+00 -2.6549359573e-07 1.3731072612e+00 -2.3782915406e+00 1.3731072612e+00 2.3782915406e+00 
26200 6.7679879314e+00 -2.7165257145e-07 1.3731072612e+00 -2.3782915406e+00 1.3731072612e+00 2.3782915406e+00 
26300 6.7679878615e+00 -2.7795474171e-07 1.3731072612e+00 -2.3782915406e+00 1.3731072612e+00 2.3782915406e+00 
26400 6.7679877900e+00 -2.8440344693e-07 1.3731072612e+00 -2.3782915406e+00 1.3731072612e+00 2.3782915406e+00 
26500 6.7679877169e+00 -2.9100210585e-07 1.3731072612e+00 -2.3782915406e+00 1.3731072612e+00 2.3782915406e+00 
26600 6.7679876423e+00 -2.9775421738e-07 1.3731072612e+00 -2.3782915406e+00 1.3731072612e+00 2.3782915406e+00 
26700 6.7679875660e+00 -3.0466336251e-07 1.3731072612e+00 -2.3782915406e+00 1.3731072612e+00 2.3782915406e+00 
26800 6.7679874880e+00 -3.1173320621e-07 1.3731072612e+00 -2.3782915406e+00 1.3731072612e+00 2.3782915406e+00 
26900 6.7679874082e+00 -3.1896749946e-07 1.3731072612e+00 -2.3782915406e+00 1.3731072612e+00 2.3782915406e+00 
27000 6.7679873267e+00 -3.2637008125e-07 1.3731072612e+00 -2.3782915406e+00 1.3731072612e+00 2.3782915406e+00 
27100 6.7679872434e+00 -3.3394488070e-07 1.3731072612e+00 -2.3782915406e+00 1.3731072612e+00 2.3782915406e+00 
27200 6.7679871581e+00 -3.4169591915e-07 1.3731072612e+00 -2.3782915406e+00 1.3731072612e+00 2.3782915406e+00 
27300 6.7679870709e+00 -3.4962731237e-07 1.3731072612e+00 -2.3782915406e+00 1.3731072612e+00 2.3782915406e+00 
27400 6.7679869818e+00 -3.5774327278e-07 1.3731072612e+00 -2.3782915406e+00 1.3731072612e+00 2.3782915406e+00 
27500 6.7679868906e+00 -3.6604811178e-07 1.3731072612e+00 -2.3782915406e+00 1.3731072612e+00 2.3782915406e+00 
27600 6.7679867974e+00 -3.7454624202e-07 1.3731072612e+00 -2.3782915406e+00 1.3731072612e+00 2.3782915406e+00 
27700 6.7679867020e+00 -3.8324217987e-07 1.3731072612e+00 -2.3782915406e+00 1.3731072612e+00 2.3782915406e+00 
27800 6.7679866045e+00 -3.9214054785e-07 1.3731072612e+00 -2.3782915406e+00 1.3731072612e+00 2.3782915406e+00 
27900 6.7679865047e+00 -4.0124607713e-07 1.3731072612e+00 -2.3782915406e+00 1.3731072612e+00 2.3782915406e+00 
28000 6.7679864027e+00 -4.1056361014e-07 1.3731072612e+00 -2.3782915406e+00 1.3731072612e+00 2.3782915406e+00 
28100 6.7679862983e+00 -4.2009810320e-07 1.3731072612e+00 -2.3782915406e+00 1.3731072612e+00 2.3782915406e+00 
28200 6.7679861915e+00 -4.2985462921e-07 1.3731072612e+00 -2.3782915406e+00 1.3731072612e+00 2.3782915406e+00 
28300 6.7679860823e+00 -4.3983838044e-07 1.3731072612e+00 -2.3782915406e+00 1.3731072612e+00 2.3782915406e+00 
28400 6.7679859705e+00 -4.5005467131e-07 1.3731072612e+00 -2.3782915406e+00 1.3731072612e+00 2.3782915406e+00 
28500 6.7679858562e+00 -4.6050894140e-07 1.3731072612e+00 -2.3782915406e+00 1.3731072612e+00 2.3782915406e+00 
28600 6.7679857392e+00 -4.7120675829e-07 1.3731072612e+00 -2.3782915406e+00 1.3731072612e+00 2.3782915406e+00 
28700 6.7679856195e+00 -4.8215382073e-07 1.3731072612e+00 -2.3782915406e+00 1.3731072612e+00 2.3782915406e+00 
28800 6.7679854971e+00 -4.9335596165e-07 1.3731072612e+00 -2.3782915406e+00 1.3731072612e+00 2.3782915406e+00 
28900 6.7679853719e+00 -5.0481915144e-07 1.3731072612e+00 -2.3782915406e+00 1.3731072612e+00 2.3782915406e+00 
29000 6.7679852437e+00 -5.1654950118e-07 1.3731072612e+00 -2.3782915406e+00 1.3731072612e+00 2.3782915406e+00 
29100 6.7679851126e+00 -5.2855326596e-07 1.3731072612e+00 -2.3782915406e+00 1.3731072612e+00 2.3782915406e+00 
29200 6.7679849784e+00 -5.4083684839e-07 1.3731072612e+00 -2.3782915406e+00 1.3731072612e+00 2.3782915406e+00 
29300 6.7679848411e+00 -5.5340680203e-07 1.3731072612e+00 -2.3782915406e+00 1.3731072612e+00 2.3782915406e+00 
29400 6.7679847007e+00 -5.6626983504e-07 1.3731072612e+00 -2.3782915406e+00 1.3731072612e+00 2.3782915406e+00 
29500 6.7679845570e+00 -5.7943281385e-07 1.3731072612e+00 -2.3782915406e+00 1.3731072612e+00 2.3782915406e+00 
29600 6.7679844099e+00 -5.9290276694e-07 1.3731072612e+00 -2.3782915406e+00 1.3731072612e+00 2.3782915406e+00 
29700 6.7679842595e+00 -6.0668688869e-07 1.3731072612e+00 -2.3782915406e+00 1.3731072612e+00 2.3782915406e+00 
29800 6.7679841055e+00 -6.2079254337e-07 1.3731072612e+00 -2.3782915406e+00 1.3731072612e+00 2.3782915406e+00 
29900 6.7679839480e+00 -6.3522726915e-07 1.3731072612e+00 -2.3782915406e+00 1.3731072612e+00 2.3782915406e+00 
30000 6.7679837868e+00 -6.4999878230e-07 1.3731072612e+00 -2.3782915406e+00 1.3731072612e+00 2.3782915406e+00 
30100 6.7679836218e+00 -6.6511498143e-07 1.3731072612e+00 -2.3782915406e+00 1.3731072612e+00 2.3782915406e+00 
30200 6.7679834531e+00 -6.8058395184e-07 1.3731072612e+00 -2.3782915406e+00 1.3731072612e+00 2.3782915406e+00 
30300 6.7679832804e+00 -6.9641397000e-07 1.3731072612e+00 -2.3782915406e+00 1.3731072612e+00 2.3782915406e+00 
30400 6.7679831036e+00 -7.1261350808e-07 1.3731072612e+00 -2.3782915406e+00 1.3731072612e+00 2.3782915406e+00 
30500 6.7679829228e+00 -7.2919123872e-07 1.3731072612e+00 -2.3782915406e+00 1.3731072612e+00 2.3782915406e+00 
30600 6.7679827377e+00 -7.4615603975e-07 1.3731072612e+00 -2.3782915406e+00 1.3731072612e+00 2.3782915406e+00 
30700 6.7679825484e+00 -7.6351699913e-07 1.3731072612e+00 -2.3782915406e+00 1.3731072612e+00 2.3782915406e+00 
30800 6.7679823546e+00 -7.8128341999e-07 1.3731072612e+00 -2.3782915406e+00 1.3731072612e+00 2.3782915406e+00 
30900 6.7679821563e+00 -7.9946482582e-07 1.3731072612e+00 -2.3782915406e+00 1.3731072612e+00 2.3782915406e+00 
31000 6.7679819533e+00 -8.1807096568e-07 1.3731072612e+00 -2.3782915406e+00 1.3731072612e+00 2.3782915406e+00 
31100 6.7679817457e+00 -8.3711181969e-07 1.3731072612e+00 -2.3782915406e+00 1.3731072612e+00 2.3782915406e+00 
31200 6.7679815332e+00 -8.5659760453e-07 1.3731072612e+00 -2.3782915406e+00 1.3731072612e+00 2.3782915406e+00 
31300 6.7679813157e+00 -8.7653877914e-07 1.3731072612e+00 -2.3782915406e+00 1.3731072612e+00 2.3782915406e+00 
31400 6.7679810932e+00 -8.9694605052e-07 1.3731072612e+00 -2.3782915406e+00 1.3731072612e+00 2.3782915406e+00 
31500 6.7679808655e+00 -9.1783037975e-07 1.3731072612e+00 -2.3782915406e+00 1.3731072612e+00 2.3782915406e+00 
31600 6.7679806324e+00 -9.3920298803e-07 1.3731072612e+00 -2.3782915406e+00 1.3731072612e+00 2.3782915406e+00 
31700 6.7679803939e+00 -9.6107536297e-07 1.3731072612e+00 -2.3782915406e+00 1.3731072612e+00 2.3782915406e+00 
31800 6.7679801499e+00 -9.8345926504e-07 1.3731072612e+00 -2.3782915406e+00 1.3731072612e+00 2.3782915406e+00 
31900 6.7679799001e+00 -1.0063667341e-06 1.3731072612e+00 -2.3782915406e+00 1.3731072612e+00 2.3782915406e+00 
32000 6.7679796445e+00 -1.0298100960e-06 1.3731072612e+00 -2.3782915406e+00 1.3731072612e+00 2.3782915406e+00 
32100 6.7679793830e+00 -1.0538019699e-06 1.3731072612e+00 -2.3782915406e+00 1.3731072612e+00 2.3782915406e+00 
32200 6.7679791153e+00 -1.0783552749e-06 1.3731072612e+00 -2.3782915406e+00 1.3731072612e+00 2.3782915406e+00 
32300 6.7679788414e+00 -1.1034832373e-06 1.3731072612e+00 -2.3782915406e+00 1.3731072612e+00 2.3782915406e+00 
32400 6.7679785610e+00 -1.1291993984e-06 1.3731072612e+00 -2.3782915406e+00 1.3731072612e+00 2.3782915406e+00 
32500 6.7679782741e+00 -1.1555176218e-06 1.3731072612e+00 -2.3782915406e+00 1.3731072612e+00 2.3782915406e+00 
32600 6.7679779805e+00 -1.1824521012e-06 1.3731072612e+00 -2.3782915406e+00 1.3731072612e+00 2.3782915406e+00 
32700 6.7679776800e+00 -1.2100173684e-06 1.3731072612e+00 -2.3782915406e+00 1.3731072612e+00 2.3782915406e+00 
32800 6.7679773725e+00 -1.2382283018e-06 1.3731072612e+00 -2.3782915406e+00 1.3731072612e+00 2.3782915406e+00 
32900 6.7679770578e+00 -1.2671001341e-06 1.3731072612e+00 -2.3782915406e+00 1.3731072612e+00 2.3782915406e+00 
33000 6.7679767357e+00 -1.2966484618e-06 1.3731072612e+00 -2.3782915406e+00 1.3731072612e+00 2.3782915406e+00 
33100 6.7679764061e+00 -1.3268892530e-06 1.3731072612e+00 -2.3782915406e+00 1.3731072612e+00 2.3782915406e+00 
33200 6.7679760688e+00 -1.3578388572e-06 1.3731072612e+00 -2.3782915406e+00 1.3731072612e+00 2.3782915406e+00 
33300 6.7679757236e+00 -1.3895140145e-06 1.3731072612e+00 -2.3782915406e+00 1.3731072612e+00 2.3782915406e+00 
33400 6.7679753703e+00 -1.4219318644e-06 1.3731072612e+00 -2.3782915406e+00 1.3731072612e+00 2.3782915406e+00 
33500 6.7679750087e+00 -1.4551099564e-06 1.3731072612e+00 -2.3782915406e+00 1.3731072612e+00 2.3782915406e+00 
33600 6.7679746386e+00 -1.4890662593e-06 1.3731072612e+00 -2.3782915406e+00 1.3731072612e+00 2.3782915406e+00 
33700 6.7679742599e+00 -1.5238191718e-06 1.3731072612e+00 -2.3782915406e+00 1.3731072612e+00 2.3782915406e+00 
33800 6.7679738722e+00 -1.5593875326e-06 1.3731072612e+00 -2.3782915406e+00 1.3731072612e+00 2.3782915406e+00 
33900 6.7679734755e+00 -1.5957906315e-06 1.3731072612e+00 -2.3782915406e+00 1.3731072612e+00 2.3782915406e+00 
34000 6.7679730695e+00 -1.6330482203e-06 1.3731072612e+00 -2.3782915406e+00 1.3731072612e+00 2.3782915406e+00 
34100 6.7679726540e+00 -1.6711805237e-06 1.3731072612e+00 -2.3782915406e+00 1.3731072612e+00 2.3782915406e+00 
34200 6.7679722287e+00 -1.7102082514e-06 1.3731072612e+00 -2.3782915406e+00 1.3731072612e+00 2.3782915406e+00 
34300 6.7679717935e+00 -1.7501526096e-06 1.3731072612e+00 -2.3782915406e+00 1.3731072612e+00 2.3782915406e+00 
34400 6.7679713480e+00 -1.7910353131e-06 1.3731072612e+00 -2.3782915406e+00 1.3731072612e+00 2.3782915406e+00 
34500 6.7679708921e+00 -1.8328785980e-06 1.3731072612e+00 -2.3782915406e+00 1.3731072612e+00 2.3782915406e+00 
34600 6.7679704255e+00 -1.8757052341e-06 1.3731072612e+00 -2.3782915406e+00 1.3731072612e+00 2.3782915406e+00 
34700 6.7679699479e+00 -1.9195385383e-06 1.3731072612e+00 -2.3782915406e+00 1.3731072612e+00 2.3782915406e+00 
34800 6.7679694591e+00 -1.9644023878e-06 1.3731072612e+00 -2.3782915406e+00 1.3731072612e+00 2.3782915406e+00 
34900 6.7679689588e+00 -2.0103212340e-06 1.3731072612e+00 -2.3782915406e+00 1.3731072612e+00 2.3782915406e+00 
35000 6.7679684468e+00 -2.0573201164e-06 1.3731072612e+00 -2.3782915406e+00 1.3731072612e+00 2.3782915406e+00 
35100 6.7679679227e+00 -2.1054246771e-06 1.3731072612e+00 -2.3782915406e+00 1.3731072612e+00 2.3782915406e+00 
35200 6.7679673863e+00 -2.1546611758e-06 1.3731072612e+00 -2.3782915406e+00 1.3731072612e+00 2.3782915406e+00 
35300 6.7679668374e+00 -2.2050565046e-06 1.3731072612e+00 -2.3782915406e+00 1.3731072612e+00 2.3782915406e+00 
35400 6.7679662755e+00 -2.2566382040e-06 1.3731072612e+00 -2.3782915406e+00 1.3731072612e+00 2.3782915406e+00 
35500 6.7679657004e+00 -2.3094344785e-06 1.3731072612e+00 -2.3782915406e+00 1.3731072612e+00 2.3782915406e+00 
35600 6.7679651117e+00 -2.3634742131e-06 1.3731072612e+00 -2.3782915406e+00 1.3731072612e+00 2.3782915406e+00 
35700 6.7679645092e+00 -2.4187869903e-06 1.3731072612e+00 -2.3782915406e+00 1.3731072612e+00 2.3782915406e+00 
35800 6.7679638926e+00 -2.4754031070e-06 1.3731072612e+00 -2.3782915406e+00 1.3731072612e+00 2.3782915406e+00 
35900 6.7679632614e+00 -2.5333535920e-06 1.3731072612e+00 -2.3782915406e+00 1.3731072612e+00 2.3782915406e+00 
36000 6.7679626154e+00 -2.5926702249e-06 1.3731072612e+00 -2.3782915406e+00 1.3731072612e+00 2.3782915406e+00 
36100 6.7679619541e+00 -2.6533855537e-06 1.3731072612e+00 -2.3782915406e+00 1.3731072612e+00 2.3782915406e+00 
36200 6.7679612773e+00 -2.7155329143e-06 1.3731072612e+00 -2.3782915406e+00 1.3731072612e+00 2.3782915406e+00 
36300 6.7679605846e+00 -2.7791464503e-06 1.3731072612e+00 -2.3782915406e+00 1.3731072612e+00 2.3782915406e+00 
36400 6.7679598755e+00 -2.8442611323e-06 1.3731072612e+00 -2.3782915406e+00 1.3731072612e+00 2.3782915406e+00 
36500 6.7679591497e+00 -2.9109127792e-06 1.3731072612e+00 -2.3782915406e+00 1.3731072612e+00 2.3782915406e+00 
36600 6.7679584068e+00 -2.9791380787e-06 1.3731072612e+00 -2.3782915406e+00 1.3731072612e+00 2.3782915406e+00 
36700 6.7679576464e+00 -3.0489746093e-06 1.3731072612e+00 -2.3782915406e+00 1.3731072612e+00 2.3782915406e+00 
36800 6.7679568680e+00 -3.1204608620e-06 1.3731072612e+00 -2.3782915406e+00 1.3731072612e+00 2.3782915406e+00 
36900 6.7679560713e+00 -3.1936362638e-06 1.3731072612e+00 -2.3782915406e+00 1.3731072612e+00 2.3782915406e+00 
37000 6.7679552558e+00 -3.2685412002e-06 1.3731072612e+00 -2.3782915406e+00 1.3731072612e+00 2.3782915406e+00 
37100 6.7679544211e+00 -3.3452170395e-06 1.3731072612e+00 -2.3782915406e+00 1.3731072612e+00 2.3782915406e+00 
37200 6.7679535666e+00 -3.4237061577e-06 1.3731072612e+00 -2.3782915406e+00 1.3731072612e+00 2.3782915406e+00 
37300 6.7679526920e+00 -3.5040519628e-06 1.3731072612e+00 -2.3782915406e+00 1.3731072612e+00 2.3782915406e+00 
37400 6.7679517967e+00 -3.5862989217e-06 1.3731072612e+00 -2.3782915406e+00 1.3731072612e+00 2.3782915406e+00 
37500 6.7679508802e+00 -3.6704925857e-06 1.3731072612e+00 -2.3782915406e+00 1.3731072612e+00 2.3782915406e+00 
37600 6.7679499421e+00 -3.7566796186e-06 1.3731072612e+00 -2.3782915406e+00 1.3731072612e+00 2.3782915406e+00 
37700 6.7679489819e+00 -3.8449078239e-06 1.3731072612e+00 -2.3782915406e+00 1.3731072612e+00 2.3782915406e+00 
37800 6.7679479989e+00 -3.9352261739e-06 1.3731072612e+00 -2.3782915406e+00 1.3731072612e+00 2.3782915406e+00 
37900 6.7679469927e+00 -4.0276848388e-06 1.3731072612e+00 -2.3782915406e+00 1.3731072612e+00 2.3782915406e+00 
38000 6.7679459627e+00 -4.1223352172e-06 1.3731072612e+00 -2.3782915406e+00 1.3731072612e+00 2.3782915406e+00 
38100 6.7679449083e+00 -4.2192299665e-06 1.3731072612e+00 -2.3782915406e+00 1.3731072612e+00 2.3782915406e+00 
38200 6.7679438289e+00 -4.3184230352e-06 1.3731072612e+00 -2.3782915406e+00 1.3731072612e+00 2.3782915406e+00 
38300 6.7679427240e+00 -4.4199696954e-06 1.3731072612e+00 -2.3782915406e+00 1.3731072612e+00 2.3782915406e+00 
38400 6.7679415930e+00 -4.5239265760e-06 1.3731072612e+00 -2.3782915406e+00 1.3731072612e+00 2.3782915406e+00 
38500 6.7679404351e+00 -4.6303516971e-06 1.3731072612e+00 -2.3782915406e+00 1.3731072612e+00 2.3782915406e+00 
38600 6.7679392498e+00 -4.7393045056e-06 1.3731072612e+00 -2.3782915406e+00 1.3731072612e+00 2.3782915406e+00 
38700 6.7679380364e+00 -4.8508459108e-06 1.3731072612e+00 -2.3782915406e+00 1.3731072612e+00 2.3782915406e+00 
38800 6.7679367943e+00 -4.9650383221e-06 1.3731072612e+00 -2.3782915406e+00 1.3731072612e+00 2.3782915406e+00 
38900 6.7679355227e+00 -5.0819456869e-06 1.3731072612e+00 -2.3782915406e+00 1.3731072612e+00 2.3782915406e+00 
39000 6.7679342209e+00 -5.2016335294e-06 1.3731072612e+00 -2.3782915406e+00 1.3731072612e+00 2.3782915406e+00 
39100 6.7679328883e+00 -5.3241689914e-06 1.3731072612e+00 -2.3782915406e+00 1.3731072612e+00 2.3782915406e+00 
39200 6.7679315240e+00 -5.4496208732e-06 1.3731072612e+00 -2.3782915406e+00 1.3731072612e+00 2.3782915406e+00 
39300 6.7679301273e+00 -5.5780596759e-06 1.3731072612e+00 -2.3782915406e+00 1.3731072612e+00 2.3782915406e+00 
39400 6.7679286975e+00 -5.7095576449e-06 1.3731072612e+00 -2.3782915406e+00 1.3731072612e+00 2.3782915406e+00 
39500 6.7679272336e+00 -5.8441888149e-06 1.3731072612e+00 -2.3782915406e+00 1.3731072612e+00 2.3782915406e+00 
39600 6.7679257350e+00 -5.9820290553e-06 1.3731072612e+00 -2.3782915406e+00 1.3731072612e+00 2.3782915406e+00 
39700 6.7679242008e+00 -6.1231561176e-06 1.3731072612e+00 -2.3782915406e+00 1.3731072612e+00 2.3782915406e+00 
39800 6.7679226301e+00 -6.2676496833e-06 1.3731072612e+00 -2.3782915406e+00 1.3731072612e+00 2.3782915406e+00 
39900 6.7679210220e+00 -6.4155914143e-06 1.3731072612e+00 -2.3782915406e+00 1.3731072612e+00 2.3782915406e+00 
40000 6.7679193756e+00 -6.5670650032e-06 1.3731072612e+00 -2.3782915406e+00 1.3731072612e+00 2.3782915406e+00 
40100 6.7679176901e+00 -6.7221562261e-06 1.3731072612e+00 -2.3782915406e+00 1.3731072612e+00 2.3782915406e+00 
40200 6.7679159644e+00 -6.8809529962e-06 1.3731072612e+00 -2.3782915406e+00 1.3731072612e+00 2.3782915406e+00 
40300 6.7679141976e+00 -7.0435454191e-06 1.3731072612e+00 -2.3782915406e+00 1.3731072612e+00 2.3782915406e+00 
40400 6.7679123888e+00 -7.2100258496e-06 1.3731072612e+00 -2.3782915406e+00 1.3731072612e+00 2.3782915406e+00 
40500 6.7679105368e+00 -7.3804889502e-06 1.3731072612e+00 -2.3782915406e+00 1.3731072612e+00 2.3782915406e+00 
40600 6.7679086406e+00 -7.5550317506e-06 1.3731072612e+00 -2.3782915406e+00 1.3731072612e+00 2.3782915406e+00 
40700 6.7679066992e+00 -7.7337537096e-06 1.3731072612e+00 -2.3782915406e+00 1.3731072612e+00 2.3782915406e+00 
40800 6.7679047115e+00 -7.9167567782e-06 1.3731072612e+00 -2.3782915406e+00 1.3731072612e+00 2.3782915406e+00 
40900 6.7679026763e+00 -8.1041454646e-06 1.3731072612e+00 -2.3782915406e+00 1.3731072612e+00 2.3782915406e+00 
41000 6.7679005925e+00 -8.2960269010e-06 1.3731072612e+00 -2.3782915406e+00 1.3731072612e+00 2.3782915406e+00 
41100 6.7678984590e+00 -8.4925109122e-06 1.3731072612e+00 -2.3782915406e+00 1.3731072612e+00 2.3782915406e+00 
41200 6.7678962745e+00 -8.6937100861e-06 1.3731072612e+00 -2.3782915406e+00 1.3731072612e+00 2.3782915406e+00 
41300 6.7678940377e+00 -8.8997398462e-06 1.3731072612e+00 -2.3782915406e+00 1.3731072612e+00 2.3782915406e+00 
41400 6.7678917475e+00 -9.1107185261e-06 1.3731072612e+00 -2.3782915406e+00 1.3731072612e+00 2.3782915406e+00 
41500 6.7678894024e+00 -9.3267674458e-06 1.3731072612e+00 -2.3782915406e+00 1.3731072612e+00 2.3782915406e+00 
41600 6.7678870012e+00 -9.5480109909e-06 1.3731072612e+00 -2.3782915406e+00 1.3731072612e+00 2.3782915406e+00 
41700 6.7678845426e+00 -9.7745766930e-06 1.3731072612e+00 -2.3782915406e+00 1.3731072612e+00 2.3782915406e+00 
41800 6.7678820250e+00 -1.0006595313e-05 1.3731072612e+00 -2.3782915406e+00 1.3731072612e+00 2.3782915406e+00 
41900 6.7678794471e+00 -1.0244200927e-05 1.3731072612e+00 -2.3782915406e+00 1.3731072612e+00 2.3782915406e+00 
42000 6.7678768074e+00 -1.0487531012e-05 1.3731072612e+00 -2.3782915406e+00 1.3731072612e+00 2.3782915406e+00 
42100 6.7678741044e+00 -1.0736726542e-05 1.3731072612e+00 -2.3782915406e+00 1.3731072612e+00 2.3782915406e+00 
42200 6.7678713365e+00 -1.0991932072e-05 1.3731072612e+00 -2.3782915406e+00 1.3731072612e+00 2.3782915406e+00 
42300 6.7678685022e+00 -1.1253295843e-05 1.3731072612e+00 -2.3782915406e+00 1.3731072612e+00 2.3782915406e+00 
42400 6.7678655998e+00 -1.1520969872e-05 1.3731072612e+00 -2.3782915406e+00 1.3731072612e+00 2.3782915406e+00 
42500 6.7678626278e+00 -1.1795110060e-05 1.3731072612e+00 -2.3782915406e+00 1.3731072612e+00 2.3782915406e+00 
42600 6.7678595842e+00 -1.2075876290e-05 1.3731072612e+00 -2.3782915406e+00 1.3731072612e+00 2.3782915406e+00 
42700 6.7678564675e+00 -1.2363432540e-05 1.3731072612e+00 -2.3782915406e+00 1.3731072612e+00 2.3782915406e+00 
42800 6.7678532758e+00 -1.2657946985e-05 1.3731072612e+00 -2.3782915406e+00 1.3731072612e+00 2.3782915406e+00 
42900 6.7678500073e+00 -1.2959592120e-05 1.3731072612e+00 -2.3782915406e+00 1.3731072612e+00 2.3782915406e+00 
43000 6.7678466601e+00 -1.3268544866e-05 1.3731072612e+00 -2.3782915406e+00 1.3731072612e+00 2.3782915406e+00 
43100 6.7678432323e+00 -1.3584986698e-05 1.3731072612e+00 -2.3782915406e+00 1.3731072612e+00 2.3782915406e+00 
43200 6.7678397219e+00 -1.3909103764e-05 1.3731072612e+00 -2.3782915406e+00 1.3731072612e+00 2.3782915406e+00 
43300 6.7678361268e+00 -1.4241087014e-05 1.3731072612e+00 -2.3782915406e+00 1.3731072612e+00 2.3782915406e+00 
43400 6.7678324450e+00 -1.4581132326e-05 1.3731072612e+00 -2.3782915406e+00 1.3731072612e+00 2.3782915406e+00 
43500 6.7678286743e+00 -1.4929440647e-05 1.3731072612e+00 -2.3782915406e+00 1.3731072612e+00 2.3782915406e+00 
43600 6.7678248126e+00 -1.5286218126e-05 1.3731072612e+00 -2.3782915406e+00 1.3731072612e+00 2.3782915406e+00 
43700 6.7678208576e+00 -1.5651676256e-05 1.3731072612e+00 -2.3782915406e+00 1.3731072612e+00 2.3782915406e+00 
43800 6.7678168069e+00 -1.6026032025e-05 1.3731072612e+00 -2.3782915406e+00 1.3731072612e+00 2.3782915406e+00 
43900 6.7678126584e+00 -1.6409508062e-05 1.3731072612e+00 -2.3782915406e+00 1.3731072612e+00 2.3782915406e+00 
44000 6.7678084094e+00 -1.6802332794e-05 1.3731072612e+00 -2.3782915406e+00 1.3731072612e+00 2.3782915406e+00 
44100 6.7678040576e+00 -1.7204740607e-05 1.3731072612e+00 -2.3782915406e+00 1.3731072612e+00 2.3782915406e+00 
44200 6.7677996005e+00 -1.7616972007e-05 1.3731072612e+00 -2.3782915406e+00 1.3731072612e+00 2.3782915406e+00 
44300 6.7677950352e+00 -1.8039273791e-05 1.3731072612e+00 -2.3782915406e+00 1.3731072612e+00 2.3782915406e+00 
44400 6.7677903594e+00 -1.8471899224e-05 1.3731072612e+00 -2.3782915406e+00 1.3731072612e+00 2.3782915406e+00 
44500 6.7677855700e+00 -1.8915108214e-05 1.3731072612e+00 -2.3782915406e+00 1.3731072612e+00 2.3782915406e+00 
44600 6.7677806645e+00 -1.9369167501e-05 1.3731072612e+00 -2.3782915406e+00 1.3731072612e+00 2.3782915406e+00 
44700 6.7677756398e+00 -1.9834350842e-05 1.3731072612e+00 -2.3782915406e+00 1.3731072612e+00 2.3782915406e+00 
44800 6.7677704930e+00 -2.0310939216e-05 1.3731072612e+00 -2.3782915406e+00 1.3731072612e+00 2.3782915406e+00 
44900 6.7677652211e+00 -2.0799221017e-05 1.3731072612e+00 -2.3782915406e+00 1.3731072612e+00 2.3782915406e+00 
45000 6.7677598209e+00 -2.1299492267e-05 1.3731072612e+00 -2.3782915406e+00 1.3731072612e+00 2.3782915406e+00 
45100 6.7677542893e+00 -2.1812056831e-05 1.3731072612e+00 -2.3782915406e+00 1.3731072612e+00 2.3782915406e+00 
45200 6.7677486230e+00 -2.2337226636e-05 1.3731072612e+00 -2.3782915406e+00 1.3731072612e+00 2.3782915406e+00 
45300 6.7677428187e+00 -2.2875321900e-05 1.3731072612e+00 -2.3782915406e+00 1.3731072612e+00 2.3782915406e+00 
45400 6.7677368728e+00 -2.3426671368e-05 1.3731072612e+00 -2.3782915406e+00 1.3731072612e+00 2.3782915406e+00 
45500 6.7677307818e+00 -2.3991612552e-05 1.3731072612e+00 -2.3782915406e+00 1.3731072612e+00 2.3782915406e+00 
45600 6.7677245422e+00 -2.4570491979e-05 1.3731072612e+00 -2.3782915406e+00 1.3731072612e+00 2.3782915406e+00 
45700 6.7677181501e+00 -2.5163665456e-05 1.3731072612e+00 -2.3782915406e+00 1.3731072612e+00 2.3782915406e+00 
45800 6.7677116018e+00 -2.5771498324e-05 1.3731072612e+00 -2.3782915406e+00 1.3731072612e+00 2.3782915406e+00 
45900 6.7677048934e+00 -2.6394365742e-05 1.3731072612e+00 -2.3782915406e+00 1.3731072612e+00 2.3782915406e+00 
46000 6.7676980208e+00 -2.7032652963e-05 1.3731072612e+00 -2.3782915406e+00 1.3731072612e+00 2.3782915406e+00 
46100 6.7676909800e+00 -2.7686755623e-05 1.3731072612e+00 -2.3782915406e+00 1.3731072612e+00 2.3782915406e+00 
46200 6.7676837666e+00 -2.8357080050e-05 1.3731072612e+00 -2.3782915406e+00 1.3731072612e+00 2.3782915406e+00 
46300 6.7676763763e+00 -2.9044043562e-05 1.3731072612e+00 -2.3782915406e+00 1.3731072612e+00 2.3782915406e+00 
46400 6.7676688048e+00 -2.9748074795e-05 1.3731072612e+00 -2.3782915406e+00 1.3731072612e+00 2.3782915406e+00 
46500 6.7676610474e+00 -3.0469614028e-05 1.3731072612e+00 -2.3782915406e+00 1.3731072612e+00 2.3782915406e+00 
46600 6.7676530994e+00 -3.1209113523e-05 1.3731072612e+00 -2.3782915406e+00 1.3731072612e+00 2.3782915406e+00 
46700 6.7676449560e+00 -3.1967037876e-05 1.3731072612e+00 -2.3782915406e+00 1.3731072612e+00 2.3782915406e+00 
46800 6.7676366123e+00 -3.2743864380e-05 1.3731072612e+00 -2.3782915406e+00 1.3731072612e+00 2.3782915406e+00 
46900 6.7676280632e+00 -3.3540083396e-05 1.3731072612e+00 -2.3782915406e+00 1.3731072612e+00 2.3782915406e+00 
47000 6.7676193035e+00 -3.4356198739e-05 1.3731072612e+00 -2.3782915406e+00 1.3731072612e+00 2.3782915406e+00 
47100 6.7676103279e+00 -3.5192728076e-05 1.3731072612e+00 -2.3782915406e+00 1.3731072612e+00 2.3782915406e+00 
47200 6.7676011308e+00 -3.6050203339e-05 1.3731072612e+00 -2.3782915406e+00 1.3731072612e+00 2.3782915406e+00 
47300 6.7675917068e+00 -3.6929171144e-05 1.3731072612e+00 -2.3782915406e+00 1.3731072612e+00 2.3782915406e+00 
47400 6.7675820499e+00 -3.7830193233e-05 1.3731072612e+00 -2.3782915406e+00 1.3731072612e+00 2.3782915406e+00 
47500 6.7675721543e+00 -3.8753846922e-05 1.3731072612e+00 -2.3782915406e+00 1.3731072612e+00 2.3782915406e+00 
47600 6.7675620139e+00 -3.9700725574e-05 1.3731072612e+00 -2.3782915406e+00 1.3731072612e+00 2.3782915406e+00 
47700 6.7675516224e+00 -4.0671439073e-05 1.3731072612e+00 -2.3782915406e+00 1.3731072612e+00 2.3782915406e+00 
47800 6.7675409735e+00 -4.1666614330e-05 1.3731072612e+00 -2.3782915406e+00 1.3731072612e+00 2.3782915406e+00 
47900 6.7675300605e+00 -4.2686895793e-05 1.3731072612e+00 -2.3782915406e+00 1.3731072612e+00 2.3782915406e+00 
48000 6.7675188768e+00 -4.3732945979e-05 1.3731072612e+00 -2.3782915406e+00 1.3731072612e+00 2.3782915406e+00 
48100 6.7675074153e+00 -4.4805446027e-05 1.3731072612e+00 -2.3782915406e+00 1.3731072612e+00 2.3782915406e+00 
48200 6.7674956690e+00 -4.5905096259e-05 1.3731072612e+00 -2.3782915406e+00 1.3731072612e+00 2.3782915406e+00 
48300 6.7674836305e+00 -4.7032616774e-05 1.3731072612e+00 -2.3782915406e+00 1.3731072612e+00 2.3782915406e+00 
48400 6.7674712923e+00 -4.8188748051e-05 1.3731072612e+00 -2.3782915406e+00 1.3731072612e+00 2.3782915406e+00 
48500 6.7674586468e+00 -4.9374251576e-05 1.3731072612e+00 -2.3782915406e+00 1.3731072612e+00 2.3782915406e+00 
48600 6.7674456861e+00 -5.0589910492e-05 1.3731072612e+00 -2.3782915406e+00 1.3731072612e+00 2.3782915406e+00 
48700 6.7674324019e+00 -5.1836530268e-05 1.3731072612e+00 -2.3782915406e+00 1.3731072612e+00 2.3782915406e+00 
48800 6.7674187859e+00 -5.3114939392e-05 1.3731072612e+00 -2.3782915406e+00 1.3731072612e+00 2.3782915406e+00 
48900 6.7674048297e+00 -5.4425990091e-05 1.3731072612e+00 -2.3782915406e+00 1.3731072612e+00 2.3782915406e+00 
49000 6.7673905243e+00 -5.5770559068e-05 1.3731072612e+00 -2.3782915406e+00 1.3731072612e+00 2.3782915406e+00 
49100 6.7673758608e+00 -5.7149548274e-05 1.3731072612e+00 -2.3782915406e+00 1.3731072612e+00 2.3782915406e+00 
49200 6.7673608299e+00 -5.8563885698e-05 1.3731072612e+00 -2.3782915406e+00 1.3731072612e+00 2.3782915406e+00 
49300 6.7673454220e+00 -6.0014526192e-05 1.3731072612e+00 -2.3782915406e+00 1.3731072612e+00 2.3782915406e+00 
49400 6.7673296273e+00 -6.1502452319e-05 1.3731072612e+00 -2.3782915406e+00 1.3731072612e+00 2.3782915406e+00 
49500 6.7673134359e+00 -6.3028675232e-05 1.3731072612e+00 -2.3782915406e+00 1.3731072612e+00 2.3782915406e+00 
49600 6.7672968373e+00 -6.4594235586e-05 1.3731072612e+00 -2.3782915406e+00 1.3731072612e+00 2.3782915406e+00 
49700 6.7672798209e+00 -6.6200204481e-05 1.3731072612e+00 -2.3782915406e+00 1.3731072612e+00 2.3782915406e+00 
49800 6.7672623758e+00 -6.7847684438e-05 1.3731072612e+00 -2.3782915406e+00 1.3731072612e+00 2.3782915406e+00 
49900 6.7672444909e+00 -6.9537810409e-05 1.3731072612e+00 -2.3782915406e+00 1.3731072612e+00 2.3782915406e+00 
50000 6.7672261547e+00 -7.1271750825e-05 1.3731072612e+00 -2.3782915406e+00 1.3731072612e+00 2.3782915406e+00 
50100 6.7672073549e+00 -7.3042082920e-05 1.3731098565e+00 -2.3782960358e+00 1.3731098565e+00 2.3782960358e+00 
50200 6.7671880798e+00 -7.4858004428e-05 1.3731125162e+00 -2.3783006426e+00 1.3731125162e+00 2.3783006426e+00 
50300 6.7671683168e+00 -7.6720754366e-05 1.3731152420e+00 -2.3783053639e+00 1.3731152420e+00 2.3783053639e+00 
50400 6.7671480531e+00 -7.8631607570e-05 1.3731180357e+00 -2.3783102027e+00 1.3731180357e+00 2.3783102027e+00 
50500 6.7671272756e+00 -8.0591875840e-05 1.3731208990e+00 -2.3783151620e+00 1.3731208990e+00 2.3783151620e+00 
50600 6.7671059706e+00 -8.2602909132e-05 1.3731238336e+00 -2.3783202449e+00 1.3731238336e+00 2.3783202449e+00 
50700 6.7670841243e+00 -8.4666096791e-05 1.3731268414e+00 -2.3783254546e+00 1.3731268414e+00 2.3783254546e+00 
50800 6.7670617223e+00 -8.6782868814e-05 1.3731299244e+00 -2.3783307945e+00 1.3731299244e+00 2.3783307945e+00 
50900 6.7670387500e+00 -8.8954697171e-05 1.3731330845e+00 -2.3783362678e+00 1.3731330845e+00 2.3783362678e+00 
51000 6.7670151923e+00 -9.1183097158e-05 1.3731363236e+00 -2.3783418781e+00 1.3731363236e+00 2.3783418781e+00 
51100 6.7669910335e+00 -9.3469628804e-05 1.3731396438e+00 -2.3783476290e+00 1.3731396438e+00 2.3783476290e+00 
51200 6.7669662577e+00 -9.5815898320e-05 1.3731430473e+00 -2.3783535240e+00 1.3731430473e+00 2.3783535240e+00 
51300 6.7669408486e+00 -9.8223559607e-05 1.3731465362e+00 -2.3783595670e+00 1.3731465362e+00 2.3783595670e+00 
51400 6.7669147891e+00 -1.0069431581e-04 1.3731501128e+00 -2.3783657618e+00 1.3731501128e+00 2.3783657618e+00 
51500 6.7668880621e+00 -1.0322992093e-04 1.3731537794e+00 -2.3783721125e+00 1.3731537794e+00 2.3783721125e+00 
51600 6.7668606496e+00 -1.0583218148e-04 1.3731575382e+00 -2.3783786230e+00 1.3731575382e+00 2.3783786230e+00 
51700 6.7668325333e+00 -1.0850295823e-04 1.3731613919e+00 -2.3783852977e+00 1.3731613919e+00 2.3783852977e+00 
51800 6.7668036944e+00 -1.1124416797e-04 1.3731653427e+00 -2.3783921407e+00 1.3731653427e+00 2.3783921407e+00 
51900 6.7667741134e+00 -1.1405778539e-04 1.3731693933e+00 -2.3783991567e+00 1.3731693933e+00 2.3783991567e+00 
52000 6.7667437705e+00 -1.1694584497e-04 1.3731735464e+00 -2.3784063500e+00 1.3731735464e+00 2.3784063500e+00 
52100 6.7667126450e+00 -1.1991044299e-04 1.3731778047e+00 -2.3784137255e+00 1.3731778047e+00 2.3784137255e+00 
52200 6.7666807160e+00 -1.2295373956e-04 1.3731821708e+00 -2.3784212879e+00 1.3731821708e+00 2.3784212879e+00 
52300 6.7666479618e+00 -1.2607796078e-04 1.3731866478e+00 -2.3784290423e+00 1.3731866478e+00 2.3784290423e+00 
52400 6.7666143601e+00 -1.2928540092e-04 1.3731912385e+00 -2.3784369936e+00 1.3731912385e+00 2.3784369936e+00 
52500 6.7665798878e+00 -1.3257842476e-04 1.3731959460e+00 -2.3784451472e+00 1.3731959460e+00 2.3784451472e+00 
52600 6.7665445215e+00 -1.3595946992e-04 1.3732007734e+00 -2.3784535085e+00 1.3732007734e+00 2.3784535085e+00 
52700 6.7665082369e+00 -1.3943104931e-04 1.3732057238e+00 -2.3784620829e+00 1.3732057238e+00 2.3784620829e+00 
52800 6.7664710090e+00 -1.4299575376e-04 1.3732108007e+00 -2.3784708763e+00 1.3732108007e+00 2.3784708763e+00 
52900 6.7664328121e+00 -1.4665625456e-04 1.3732160073e+00 -2.3784798944e+00 1.3732160073e+00 2.3784798944e+00 
53000 6.7663936198e+00 -1.5041530630e-04 1.3732213472e+00 -2.3784891434e+00 1.3732213472e+00 2.3784891434e+00 
53100 6.7663534049e+00 -1.5427574966e-04 1.3732268239e+00 -2.3784986294e+00 1.3732268239e+00 2.3784986294e+00 
53200 6.7663121395e+00 -1.5824051439e-04 1.3732324412e+00 -2.3785083588e+00 1.3732324412e+00 2.3785083588e+00 
53300 6.7662697949e+00 -1.6231262236e-04 1.3732382028e+00 -2.3785183382e+00 1.3732382028e+00 2.3785183382e+00 
53400 6.7662263413e+00 -1.6649519074e-04 1.3732441127e+00 -2.3785285743e+00 1.3732441127e+00 2.3785285743e+00 
53500 6.7661817483e+00 -1.7079143532e-04 1.3732501748e+00 -2.3785390742e+00 1.3732501748e+00 2.3785390742e+00 
53600 6.7661359847e+00 -1.7520467388e-04 1.3732563933e+00 -2.3785498450e+00 1.3732563933e+00 2.3785498450e+00 
53700 6.7660890180e+00 -1.7973832982e-04 1.3732627725e+00 -2.3785608941e+00 1.3732627725e+00 2.3785608941e+00 
53800 6.7660408152e+00 -1.8439593578e-04 1.3732693167e+00 -2.3785722290e+00 1.3732693167e+00 2.3785722290e+00 
53900 6.7659913421e+00 -1.8918113750e-04 1.3732760304e+00 -2.3785838575e+00 1.3732760304e+00 2.3785838575e+00 
54000 6.7659405634e+00 -1.9409769779e-04 1.3732829184e+00 -2.3785957878e+00 1.3732829184e+00 2.3785957878e+00 
54100 6.7658884430e+00 -1.9914950064e-04 1.3732899853e+00 -2.3786080281e+00 1.3732899853e+00 2.3786080281e+00 
54200 6.7658349436e+00 -2.0434055553e-04 1.3732972362e+00 -2.3786205869e+00 1.3732972362e+00 2.3786205869e+00 
54300 6.7657800268e+00 -2.0967500186e-04 1.3733046759e+00 -2.3786334730e+00 1.3733046759e+00 2.3786334730e+00 
54400 6.7657236532e+00 -2.1515711355e-04 1.3733123099e+00 -2.3786466954e+00 1.3733123099e+00 2.3786466954e+00 
54500 6.7656657822e+00 -2.2079130388e-04 1.3733201434e+00 -2.3786602635e+00 1.3733201434e+00 2.3786602635e+00 
54600 6.7656063717e+00 -2.2658213046e-04 1.3733281820e+00 -2.3786741867e+00 1.3733281820e+00 2.3786741867e+00 
54700 6.7655453788e+00 -2.3253430037e-04 1.3733364314e+00 -2.3786884751e+00 1.3733364314e+00 2.3786884751e+00 
54800 6.7654827590e+00 -2.3865267559e-04 1.3733448975e+00 -2.3787031387e+00 1.3733448975e+00 2.3787031387e+00 
54900 6.7654184667e+00 -2.4494227854e-04 1.3733535862e+00 -2.3787181881e+00 1.3733535862e+00 2.3787181881e+00 
55000 6.7653524547e+00 -2.5140829792e-04 1.3733625039e+00 -2.3787336339e+00 1.3733625039e+00 2.3787336339e+00 
55100 6.7652846747e+00 -2.5805609472e-04 1.3733716569e+00 -2.3787494875e+00 1.3733716569e+00 2.3787494875e+00 
55200 6.7652150768e+00 -2.6489120850e-04 1.3733810519e+00 -2.3787657601e+00 1.3733810519e+00 2.3787657601e+00 
55300 6.7651436094e+00 -2.7191936388e-04 1.3733906957e+00 -2.3787824636e+00 1.3733906957e+00 2.3787824636e+00 
55400 6.7650702197e+00 -2.7914647733e-04 1.3734005953e+00 -2.3787996101e+00 1.3734005953e+00 2.3787996101e+00 
55500 6.7649948531e+00 -2.8657866420e-04 1.3734107579e+00 -2.3788172123e+00 1.3734107579e+00 2.3788172123e+00 
55600 6.7649174535e+00 -2.9422224603e-04 1.3734211910e+00 -2.3788352830e+00 1.3734211910e+00 2.3788352830e+00 
55700 6.7648379630e+00 -3.0208375815e-04 1.3734319023e+00 -2.3788538355e+00 1.3734319023e+00 2.3788538355e+00 
55800 6.7647563220e+00 -3.1016995760e-04 1.3734428997e+00 -2.3788728836e+00 1.3734428997e+00 2.3788728836e+00 
55900 6.7646724690e+00 -3.1848783129e-04 1.3734541914e+00 -2.3788924414e+00 1.3734541914e+00 2.3788924414e+00 
56000 6.7645863408e+00 -3.2704460461e-04 1.3734657858e+00 -2.3789125235e+00 1.3734657858e+00 2.3789125235e+00 
56100 6.7644978722e+00 -3.3584775026e-04 1.3734776917e+00 -2.3789331451e+00 1.3734776917e+00 2.3789331451e+00 
56200 6.7644069960e+00 -3.4490499749e-04 1.3734899179e+00 -2.3789543215e+00 1.3734899179e+00 2.3789543215e+00 
56300 6.7643136431e+00 -3.5422434171e-04 1.3735024737e+00 -2.3789760688e+00 1.3735024737e+00 2.3789760688e+00 
56400 6.7642177420e+00 -3.6381405447e-04 1.3735153686e+00 -2.3789984035e+00 1.3735153686e+00 2.3789984035e+00 
56500 6.7641192193e+00 -3.7368269382e-04 1.3735286126e+00 -2.3790213426e+00 1.3735286126e+00 2.3790213426e+00 
56600 6.7640179992e+00 -3.8383911512e-04 1.3735422156e+00 -2.3790449038e+00 1.3735422156e+00 2.3790449038e+00 
56700 6.7639140037e+00 -3.9429248223e-04 1.3735561882e+00 -2.3790691051e+00 1.3735561882e+00 2.3790691051e+00 
56800 6.7638071523e+00 -4.0505227921e-04 1.3735705412e+00 -2.3790939652e+00 1.3735705412e+00 2.3790939652e+00 
56900 6.7636973620e+00 -4.1612832247e-04 1.3735852858e+00 -2.3791195035e+00 1.3735852858e+00 2.3791195035e+00 
57000 6.7635845475e+00 -4.2753077331e-04 1.3736004333e+00 -2.3791457398e+00 1.3736004333e+00 2.3791457398e+00 
57100 6.7634686206e+00 -4.3927015113e-04 1.3736159958e+00 -2.3791726947e+00 1.3736159958e+00 2.3791726947e+00 
57200 6.7633494905e+00 -4.5135734701e-04 1.3736319853e+00 -2.3792003895e+00 1.3736319853e+00 2.3792003895e+00 
57300 6.7632270635e+00 -4.6380363793e-04 1.3736484147e+00 -2.3792288460e+00 1.3736484147e+00 2.3792288460e+00 
57400 6.7631012432e+00 -4.7662070151e-04 1.3736652969e+00 -2.3792580869e+00 1.3736652969e+00 2.3792580869e+00 
57500 6.7629719300e+00 -4.8982063135e-04 1.3736826455e+00 -2.3792881354e+00 1.3736826455e+00 2.3792881354e+00 
57600 6.7628390213e+00 -5.0341595299e-04 1.3737004742e+00 -2.3793190158e+00 1.3737004742e+00 2.3793190158e+00 
57700 6.7627024114e+00 -5.1741964047e-04 1.3737187976e+00 -2.3793507528e+00 1.3737187976e+00 2.3793507528e+00 
57800 6.7625619913e+00 -5.3184513359e-04 1.3737376305e+00 -2.3793833723e+00 1.3737376305e+00 2.3793833723e+00 
57900 6.7624176484e+00 -5.4670635582e-04 1.3737569881e+00 -2.3794169007e+00 1.3737569881e+00 2.3794169007e+00 
58000 6.7622692669e+00 -5.6201773294e-04 1.3737768864e+00 -2.3794513655e+00 1.3737768864e+00 2.3794513655e+00 
58100 6.7621167272e+00 -5.7779421241e-04 1.3737973417e+00 -2.3794867950e+00 1.3737973417e+00 2.3794867950e+00 
58200 6.7619599059e+00 -5.9405128348e-04 1.3738183708e+00 -2.3795232186e+00 1.3738183708e+00 2.3795232186e+00 
58300 6.7617986760e+00 -6.1080499813e-04 1.3738399913e+00 -2.3795606664e+00 1.3738399913e+00 2.3795606664e+00 
58400 6.7616329064e+00 -6.2807199277e-04 1.3738622212e+00 -2.3795991697e+00 1.3738622212e+00 2.3795991697e+00 
58500 6.7614624618e+00 -6.4586951088e-04 1.3738850792e+00 -2.3796387609e+00 1.3738850792e+00 2.3796387609e+00 
58600 6.7612872029e+00 -6.6421542641e-04 1.3739085845e+00 -2.3796794732e+00 1.3739085845e+00 2.3796794732e+00 
58700 6.7611069857e+00 -6.8312826822e-04 1.3739327570e+00 -2.3797213413e+00 1.3739327570e+00 2.3797213413e+00 
58800 6.7609216620e+00 -7.0262724530e-04 1.3739576174e+00 -2.3797644008e+00 1.3739576174e+00 2.3797644008e+00 
58900 6.7607310788e+00 -7.2273227313e-04 1.3739831869e+00 -2.3798086885e+00 1.3739831869e+00 2.3798086885e+00 
59000 6.7605350783e+00 -7.4346400095e-04 1.3740094877e+00 -2.3798542427e+00 1.3740094877e+00 2.3798542427e+00 
59100 6.7603334979e+00 -7.6484384003e-04 1.3740365423e+00 -2.3799011027e+00 1.3740365423e+00 2.3799011027e+00 
59200 6.7601261696e+00 -7.8689399311e-04 1.3740643744e+00 -2.3799493093e+00 1.3740643744e+00 2.3799493093e+00 
59300 6.7599129204e+00 -8.0963748488e-04 1.3740930083e+00 -2.3799989047e+00 1.3740930083e+00 2.3799989047e+00 
59400 6.7596935717e+00 -8.3309819359e-04 1.3741224692e+00 -2.3800499325e+00 1.3741224692e+00 2.3800499325e+00 
59500 6.7594679393e+00 -8.5730088387e-04 1.3741527831e+00 -2.3801024377e+00 1.3741527831e+00 2.3801024377e+00 
59600 6.7592358332e+00 -8.8227124067e-04 1.3741839770e+00 -2.3801564672e+00 1.3741839770e+00 2.3801564672e+00 
59700 6.7589970576e+00 -9.0803590458e-04 1.3742160788e+00 -2.3802120691e+00 1.3742160788e+00 2.3802120691e+00 
59800 6.7587514103e+00 -9.3462250825e-04 1.3742491173e+00 -2.3802692934e+00 1.3742491173e+00 2.3802692934e+00 
59900 6.7584986829e+00 -9.6205971419e-04 1.3742831223e+00 -2.3803281917e+00 1.3742831223e+00 2.3803281917e+00 
60000 6.7582386603e+00 -9.9037725397e-04 1.3743181246e+00 -2.3803888176e+00 1.3743181246e+00 2.3803888176e+00 
60100 6.7579711208e+00 -1.0196059686e-03 1.3743541564e+00 -2.3804512265e+00 1.3743541564e+00 2.3804512265e+00 
60200 6.7576958356e+00 -1.0497778504e-03 1.3743912506e+00 -2.3805154754e+00 1.3743912506e+00 2.3805154754e+00 
60300 6.7574125688e+00 -1.0809260866e-03 1.3744294414e+00 -2.3805816239e+00 1.3744294414e+00 2.3805816239e+00 
60400 6.7571210771e+00 -1.1130851034e-03 1.3744687643e+00 -2.3806497332e+00 1.3744687643e+00 2.3806497332e+00 
60500 6.7568211095e+00 -1.1462906128e-03 1.3745092560e+00 -2.3807198668e+00 1.3745092560e+00 2.3807198668e+00 
60600 6.7565124073e+00 -1.1805796601e-03 1.3745509543e+00 -2.3807920905e+00 1.3745509543e+00 2.3807920905e+00 
60700 6.7561947035e+00 -1.2159906728e-03 1.3745938988e+00 -2.3808664724e+00 1.3745938988e+00 2.3808664724e+00 
60800 6.7558677228e+00 -1.2525635115e-03 1.3746381299e+00 -2.3809430830e+00 1.3746381299e+00 2.3809430830e+00 
60900 6.7555311814e+00 -1.2903395223e-03 1.3746836899e+00 -2.3810219953e+00 1.3746836899e+00 2.3810219953e+00 
61000 6.7551847866e+00 -1.3293615899e-03 1.3747306224e+00 -2.3811032847e+00 1.3747306224e+00 2.3811032847e+00 
61100 6.7548282367e+00 -1.3696741934e-03 1.3747789726e+00 -2.3811870297e+00 1.3747789726e+00 2.3811870297e+00 
61200 6.7544612204e+00 -1.4113234631e-03 1.3748287872e+00 -2.3812733112e+00 1.3748287872e+00 2.3812733112e+00 
61300 6.7540834170e+00 -1.4543572381e-03 1.3748801148e+00 -2.3813622131e+00 1.3748801148e+00 2.3813622131e+00 
61400 6.7536944956e+00 -1.4988251268e-03 1.3749330055e+00 -2.3814538225e+00 1.3749330055e+00 2.3814538225e+00 
61500 6.7532941155e+00 -1.5447785674e-03 1.3749875112e+00 -2.3815482292e+00 1.3749875112e+00 2.3815482292e+00 
61600 6.7528819251e+00 -1.5922708910e-03 1.3750436859e+00 -2.3816455266e+00 1.3750436859e+00 2.3816455266e+00 
61700 6.7524575622e+00 -1.6413573853e-03 1.3751015852e+00 -2.3817458111e+00 1.3751015852e+00 2.3817458111e+00 
61800 6.7520206537e+00 -1.6920953597e-03 1.3751612669e+00 -2.3818491829e+00 1.3751612669e+00 2.3818491829e+00 
61900 6.7515708148e+00 -1.7445442119e-03 1.3752227909e+00 -2.3819557456e+00 1.3752227909e+00 2.3819557456e+00 
62000 6.7511076492e+00 -1.7987654954e-03 1.3752862191e+00 -2.3820656064e+00 1.3752862191e+00 2.3820656064e+00 
62100 6.7506307486e+00 -1.8548229878e-03 1.3753516157e+00 -2.3821788766e+00 1.3753516157e+00 2.3821788766e+00 
62200 6.7501396923e+00 -1.9127827607e-03 1.3754190471e+00 -2.3822956712e+00 1.3754190471e+00 2.3822956712e+00 
62300 6.7496340472e+00 -1.9727132496e-03 1.3754885822e+00 -2.3824161096e+00 1.3754885822e+00 2.3824161096e+00 
62400 6.7491133670e+00 -2.0346853247e-03 1.3755602924e+00 -2.3825403153e+00 1.3755602924e+00 2.3825403153e+00 
62500 6.7485771923e+00 -2.0987723619e-03 1.3756342515e+00 -2.3826684162e+00 1.3756342515e+00 2.3826684162e+00 
62600 6.7480250503e+00 -2.1650503145e-03 1.3757105360e+00 -2.3828005448e+00 1.3757105360e+00 2.3828005448e+00 
62700 6.7474564539e+00 -2.2335977843e-03 1.3757892252e+00 -2.3829368385e+00 1.3757892252e+00 2.3829368385e+00 
62800 6.7468709022e+00 -2.3044960923e-03 1.3758704011e+00 -2.3830774394e+00 1.3758704011e+00 2.3830774394e+00 
62900 6.7462678795e+00 -2.3778293497e-03 1.3759541488e+00 -2.3832224946e+00 1.3759541488e+00 2.3832224946e+00 
63000 6.7456468554e+00 -2.4536845265e-03 1.3760405563e+00 -2.3833721567e+00 1.3760405563e+00 2.3833721567e+00 
63100 6.7450072843e+00 -2.5321515204e-03 1.3761297147e+00 -2.3835265836e+00 1.3761297147e+00 2.3835265836e+00 
63200 6.7443486052e+00 -2.6133232224e-03 1.3762217183e+00 -2.3836859386e+00 1.3762217183e+00 2.3836859386e+00 
63300 6.7436702414e+00 -2.6972955817e-03 1.3763166650e+00 -2.3838503911e+00 1.3763166650e+00 2.3838503911e+00 
63400 6.7429716000e+00 -2.7841676665e-03 1.3764146558e+00 -2.3840201161e+00 1.3764146558e+00 2.3840201161e+00 
63500 6.7422520718e+00 -2.8740417231e-03 1.3765157954e+00 -2.3841952951e+00 1.3765157954e+00 2.3841952951e+00 
63600 6.7415110311e+00 -2.9670232298e-03 1.3766201923e+00 -2.3843761158e+00 1.3766201923e+00 2.3843761158e+00 
63700 6.7407478353e+00 -3.0632209476e-03 1.3767279585e+00 -2.3845627723e+00 1.3767279585e+00 2.3845627723e+00 
63800 6.7399618246e+00 -3.1627469645e-03 1.3768392100e+00 -2.3847554656e+00 1.3768392100e+00 2.3847554656e+00 
63900 6.7391523219e+00 -3.2657167355e-03 1.3769540670e+00 -2.3849544036e+00 1.3769540670e+00 2.3849544036e+00 
64000 6.7383186327e+00 -3.3722491144e-03 1.3770726535e+00 -2.3851598015e+00 1.3770726535e+00 2.3851598015e+00 
64100 6.7374600445e+00 -3.4824663790e-03 1.3771950979e+00 -2.3853718816e+00 1.3771950979e+00 2.3853718816e+00 
64200 6.7365758270e+00 -3.5964942471e-03 1.3773215332e+00 -2.3855908738e+00 1.3773215332e+00 2.3855908738e+00 
64300 6.7356652319e+00 -3.7144618837e-03 1.3774520964e+00 -2.3858170160e+00 1.3774520964e+00 2.3858170160e+00 
64400 6.7347274926e+00 -3.8365018972e-03 1.3775869295e+00 -2.3860505537e+00 1.3775869295e+00 2.3860505537e+00 
64500 6.7337618243e+00 -3.9627503235e-03 1.3777261790e+00 -2.3862917410e+00 1.3777261790e+00 2.3862917410e+00 
64600 6.7327674238e+00 -4.0933465976e-03 1.3778699964e+00 -2.3865408400e+00 1.3778699964e+00 2.3865408400e+00 
64700 6.7317434698e+00 -4.2284335107e-03 1.3780185380e+00 -2.3867981216e+00 1.3780185380e+00 2.3867981216e+00 
64800 6.7306891224e+00 -4.3681571514e-03 1.3781719653e+00 -2.3870638654e+00 1.3781719653e+00 2.3870638654e+00 
64900 6.7296035238e+00 -4.5126668302e-03 1.3783304448e+00 -2.3873383600e+00 1.3783304448e+00 2.3873383600e+00 
65000 6.7284857978e+00 -4.6621149844e-03 1.3784941485e+00 -2.3876219031e+00 1.3784941485e+00 2.3876219031e+00 
65100 6.7273350507e+00 -4.8166570640e-03 1.3786632537e+00 -2.3879148019e+00 1.3786632537e+00 2.3879148019e+00 
65200 6.7261503706e+00 -4.9764513939e-03 1.3788379431e+00 -2.3882173729e+00 1.3788379431e+00 2.3882173729e+00 
65300 6.7249308286e+00 -5.1416590142e-03 1.3790184052e+00 -2.3885299425e+00 1.3790184052e+00 2.3885299425e+00 
65400 6.7236754788e+00 -5.3124434932e-03 1.3792048340e+00 -2.3888528466e+00 1.3792048340e+00 2.3888528466e+00 
65500 6.7223833585e+00 -5.4889707145e-03 1.3793974293e+00 -2.3891864314e+00 1.3793974293e+00 2.3891864314e+00 
65600 6.7210534892e+00 -5.6714086334e-03 1.3795963967e+00 -2.3895310531e+00 1.3795963967e+00 2.3895310531e+00 
65700 6.7196848767e+00 -5.8599270032e-03 1.3798019478e+00 -2.3898870779e+00 1.3798019478e+00 2.3898870779e+00 
65800 6.7182765123e+00 -6.0546970676e-03 1.3800142999e+00 -2.3902548826e+00 1.3800142999e+00 2.3902548826e+00 
65900 6.7168273730e+00 -6.2558912180e-03 1.3802336765e+00 -2.3906348540e+00 1.3802336765e+00 2.3906348540e+00 
66000 6.7153364231e+00 -6.4636826140e-03 1.3804603071e+00 -2.3910273897e+00 1.3804603071e+00 2.3910273897e+00 
66100 6.7138026143e+00 -6.6782447640e-03 1.3806944270e+00 -2.3914328973e+00 1.3806944270e+00 2.3914328973e+00 
66200 6.7122248877e+00 -6.8997510660e-03 1.3809362777e+00 -2.3918517951e+00 1.3809362777e+00 2.3918517951e+00 
66300 6.7106021742e+00 -7.1283743046e-03 1.3811861068e+00 -2.3922845116e+00 1.3811861068e+00 2.3922845116e+00 
66400 6.7089333966e+00 -7.3642861039e-03 1.3814441674e+00 -2.3927314858e+00 1.3814441674e+00 2.3927314858e+00 
66500 6.7072174702e+00 -7.6076563343e-03 1.3817107190e+00 -2.3931931667e+00 1.3817107190e+00 2.3931931667e+00 
66600 6.7054533051e+00 -7.8586524717e-03 1.3819860266e+00 -2.3936700134e+00 1.3819860266e+00 2.3936700134e+00 
66700 6.7036398078e+00 -8.1174389084e-03 1.3822703610e+00 -2.3941624950e+00 1.3822703610e+00 2.3941624950e+00 
66800 6.7017758826e+00 -8.3841762135e-03 1.3825639984e+00 -2.3946710899e+00 1.3825639984e+00 2.3946710899e+00 
66900 6.6998604342e+00 -8.6590203433e-03 1.3828672206e+00 -2.3951962862e+00 1.3828672206e+00 2.3951962862e+00 
67000 6.6978923694e+00 -8.9421218012e-03 1.3831803146e+00 -2.3957385808e+00 1.3831803146e+00 2.3957385808e+00 
67100 6.6958705998e+00 -9.2336247461e-03 1.3835035721e+00 -2.3962984794e+00 1.3835035721e+00 2.3962984794e+00 
67200 6.6937940441e+00 -9.5336660505e-03 1.3838372899e+00 -2.3968764956e+00 1.3838372899e+00 2.3968764956e+00 
67300 6.6916616306e+00 -9.8423743096e-03 1.3841817691e+00 -2.3974731509e+00 1.3841817691e+00 2.3974731509e+00 
67400 6.6894723001e+00 -1.0159868801e-02 1.3845373147e+00 -2.3980889740e+00 1.3845373147e+00 2.3980889740e+00 
67500 6.6872250092e+00 -1.0486258399e-02 1.3849042357e+00 -2.3987244999e+00 1.3849042357e+00 2.3987244999e+00 
67600 6.6849187327e+00 -1.0821640445e-02 1.3852828444e+00 -2.3993802694e+00 1.3852828444e+00 2.3993802694e+00 
67700 6.6825524677e+00 -1.1166099576e-02 1.3856734560e+00 -2.4000568284e+00 1.3856734560e+00 2.4000568284e+00 
67800 6.6801252363e+00 -1.1519706519e-02 1.3860763879e+00 -2.4007547270e+00 1.3860763879e+00 2.4007547270e+00 
67900 6.6776360900e+00 -1.1882516849e-02 1.3864919595e+00 -2.4014745182e+00 1.3864919595e+00 2.4014745182e+00 
68000 6.6750841125e+00 -1.2254569726e-02 1.3869204917e+00 -2.4022167577e+00 1.3869204917e+00 2.4022167577e+00 
68100 6.6724684246e+00 -1.2635886606e-02 1.3873623058e+00 -2.4029820022e+00 1.3873623058e+00 2.4029820022e+00 
68200 6.6697881875e+00 -1.3026469942e-02 1.3878177232e+00 -2.4037708082e+00 1.3878177232e+00 2.4037708082e+00 
68300 6.6670426073e+00 -1.3426301880e-02 1.3882870645e+00 -2.4045837312e+00 1.3882870645e+00 2.4045837312e+00 
68400 6.6642309394e+00 -1.3835342954e-02 1.3887706490e+00 -2.4054213241e+00 1.3887706490e+00 2.4054213241e+00 
68500 6.6613524925e+00 -1.4253530800e-02 1.3892687935e+00 -2.4062841357e+00 1.3892687935e+00 2.4062841357e+00 
68600 6.6584066337e+00 -1.4680778888e-02 1.3897818118e+00 -2.4071727095e+00 1.3897818118e+00 2.4071727095e+00 
68700 6.6553927924e+00 -1.5116975295e-02 1.3903100137e+00 -2.4080875821e+00 1.3903100137e+00 2.4080875821e+00 
68800 6.6523104655e+00 -1.5561981517e-02 1.3908537040e+00 -2.4090292812e+00 1.3908537040e+00 2.4090292812e+00 
68900 6.6491592218e+00 -1.6015631347e-02 1.3914131814e+00 -2.4099983245e+00 1.3914131814e+00 2.4099983245e+00 
69000 6.6459387066e+00 -1.6477729824e-02 1.3919887378e+00 -2.4109952174e+00 1.3919887378e+00 2.4109952174e+00 
69100 6.6426486467e+00 -1.6948052268e-02 1.3925806570e+00 -2.4120204515e+00 1.3925806570e+00 2.4120204515e+00 
69200 6.6392888549e+00 -1.7426343415e-02 1.3931892137e+00 -2.4130745027e+00 1.3931892137e+00 2.4130745027e+00 
69300 6.6358592344e+00 -1.7912316672e-02 1.3938146724e+00 -2.4141578289e+00 1.3938146724e+00 2.4141578289e+00 
69400 6.6323597837e+00 -1.8405653497e-02 1.3944572863e+00 -2.4152708688e+00 1.3944572863e+00 2.4152708688e+00 
69500 6.6287906006e+00 -1.8906002924e-02 1.3951172959e+00 -2.4164140390e+00 1.3951172959e+00 2.4164140390e+00 
69600 6.6251518868e+00 -1.9412981249e-02 1.3957949282e+00 -2.4175877327e+00 1.3957949282e+00 2.4175877327e+00 
69700 6.6214439517e+00 -1.9926171885e-02 1.3964903955e+00 -2.4187923172e+00 1.3964903955e+00 2.4187923172e+00 
69800 6.6176672163e+00 -2.0445125405e-02 1.3972038937e+00 -2.4200281324e+00 1.3972038937e+00 2.4200281324e+00 
69900 6.6138222168e+00 -2.0969359777e-02 1.3979356018e+00 -2.4212954880e+00 1.3979356018e+00 2.4212954880e+00 
70000 6.6099096082e+00 -2.1498360815e-02 1.3986856805e+00 -2.4225946624e+00 1.3986856805e+00 2.4225946624e+00 
70100 6.6059301668e+00 -2.2031582833e-02 1.3994542709e+00 -2.4239259001e+00 1.3994542709e+00 2.4239259001e+00 
70200 6.6018847931e+00 -2.2568449539e-02 1.4002414937e+00 -2.4252894100e+00 1.4002414937e+00 2.4252894100e+00 
70300 6.5977745142e+00 -2.3108355144e-02 1.4010474480e+00 -2.4266853638e+00 1.4010474480e+00 2.4266853638e+00 
70400 6.5936004852e+00 -2.3650665719e-02 1.4018722103e+00 -2.4281138939e+00 1.4018722103e+00 2.4281138939e+00 
70500 6.5893639912e+00 -2.4194720775e-02 1.4027158334e+00 -2.4295750920e+00 1.4027158334e+00 2.4295750920e+00 
70600 6.5850664475e+00 -2.4739835084e-02 1.4035783459e+00 -2.4310690075e+00 1.4035783459e+00 2.4310690075e+00 
70700 6.5807094009e+00 -2.5285300725e-02 1.4044597510e+00 -2.4325956459e+00 1.4044597510e+00 2.4325956459e+00 
70800 6.5762945286e+00 -2.5830389361e-02 1.4053600260e+00 -2.4341549680e+00 1.4053600260e+00 2.4341549680e+00 
70900 6.5718236382e+00 -2.6374354720e-02 1.4062791215e+00 -2.4357468881e+00 1.4062791215e+00 2.4357468881e+00 
71000 6.5672986665e+00 -2.6916435291e-02 1.4072169611e+00 -2.4373712739e+00 1.4072169611e+00 2.4373712739e+00 
71100 6.5627216771e+00 -2.7455857193e-02 1.4081734405e+00 -2.4390279449e+00 1.4081734405e+00 2.4390279449e+00 
71200 6.5580948587e+00 -2.7991837230e-02 1.4091484278e+00 -2.4407166724e+00 1.4091484278e+00 2.4407166724e+00 
71300 6.5534205216e+00 -2.8523586084e-02 1.4101417626e+00 -2.4424371787e+00 1.4101417626e+00 2.4424371787e+00 
71400 6.5487010944e+00 -2.9050311639e-02 1.4111532564e+00 -2.4441891373e+00 1.4111532564e+00 2.4441891373e+00 
71500 6.5439391200e+00 -2.9571222414e-02 1.4121826924e+00 -2.4459721729e+00 1.4121826924e+00 2.4459721729e+00 
71600 6.5391372502e+00 -3.0085531063e-02 1.4132298259e+00 -2.4477858612e+00 1.4132298259e+00 2.4477858612e+00 
71700 6.5342982411e+00 -3.0592457933e-02 1.4142943840e+00 -2.4496297299e+00 1.4142943840e+00 2.4496297299e+00 
71800 6.5294249471e+00 -3.1091234629e-02 1.4153760666e+00 -2.4515032592e+00 1.4153760666e+00 2.4515032592e+00 
71900 6.5245203140e+00 -3.1581107581e-02 1.4164745468e+00 -2.4534058828e+00 1.4164745468e+00 2.4534058828e+00 
72000 6.5195873728e+00 -3.2061341559e-02 1.4175894715e+00 -2.4553369888e+00 1.4175894715e+00 2.4553369888e+00 
72100 6.5146292322e+00 -3.2531223118e-02 1.4187204618e+00 -2.4572959216e+00 1.4187204618e+00 2.4572959216e+00 
72200 6.5096490707e+00 -3.2990063934e-02 1.4198671148e+00 -2.4592819829e+00 1.4198671148e+00 2.4592819829e+00 
72300 6.5046501285e+00 -3.3437204018e-02 1.4210290038e+00 -2.4612944336e+00 1.4210290038e+00 2.4612944336e+00 
72400 6.4996356992e+00 -3.3872014753e-02 1.4222056798e+00 -2.4633324962e+00 1.4222056798e+00 2.4633324962e+00 
72500 6.4946091210e+00 -3.4293901748e-02 1.4233966727e+00 -2.4653953564e+00 1.4233966727e+00 2.4653953564e+00 
72600 6.4895737675e+00 -3.4702307477e-02 1.4246014927e+00 -2.4674821658e+00 1.4246014927e+00 2.4674821658e+00 
72700 6.4845330389e+00 -3.5096713679e-02 1.4258196315e+00 -2.4695920442e+00 1.4258196315e+00 2.4695920442e+00 
72800 6.4794903526e+00 -3.5476643500e-02 1.4270505641e+00 -2.4717240821e+00 1.4270505641e+00 2.4717240821e+00 
72900 6.4744491335e+00 -3.5841663355e-02 1.4282937503e+00 -2.4738773436e+00 1.4282937503e+00 2.4738773436e+00 
73000 6.4694128052e+00 -3.6191384510e-02 1.4295486359e+00 -2.4760508693e+00 1.4295486359e+00 2.4760508693e+00 
73100 6.4643847800e+00 -3.6525464353e-02 1.4308146551e+00 -2.4782436789e+00 1.4308146551e+00 2.4782436789e+00 
73200 6.4593684502e+00 -3.6843607361e-02 1.4320912317e+00 -2.4804547744e+00 1.4320912317e+00 2.4804547744e+00 
73300 6.4543671784e+00 -3.7145565755e-02 1.4333777810e+00 -2.4826831431e+00 1.4333777810e+00 2.4826831431e+00 
73400 6.4493842893e+00 -3.7431139839e-02 1.4346737114e+00 -2.4849277604e+00 1.4346737114e+00 2.4849277604e+00 
73500 6.4444230601e+00 -3.7700178031e-02 1.4359784264e+00 -2.4871875931e+00 1.4359784264e+00 2.4871875931e+00 
73600 6.4394867128e+00 -3.7952576585e-02 1.4372913263e+00 -2.4894616024e+00 1.4372913263e+00 2.4894616024e+00 
73700 6.4345784059e+00 -3.8188279021e-02 1.4386118095e+00 -2.4917487464e+00 1.4386118095e+00 2.4917487464e+00 
73800 6.4297012266e+00 -3.8407275268e-02 1.4399392748e+00 -2.4940479838e+00 1.4399392748e+00 2.4940479838e+00 
73900 6.4248581835e+00 -3.8609600538e-02 1.4412731227e+00 -2.4963582760e+00 1.4412731227e+00 2.4963582760e+00 
74000 6.4200521997e+00 -3.8795333943e-02 1.4426127569e+00 -2.4986785905e+00 1.4426127569e+00 2.4986785905e+00 
74100 6.4152861066e+00 -3.8964596885e-02 1.4439575861e+00 -2.5010079030e+00 1.4439575861e+00 2.5010079030e+00 
74200 6.4105626378e+00 -3.9117551224e-02 1.4453070252e+00 -2.5033452003e+00 1.4453070252e+00 2.5033452003e+00 
74300 6.4058844235e+00 -3.9254397259e-02 1.4466604972e+00 -2.5056894824e+00 1.4466604972e+00 2.5056894824e+00 
74400 6.4012539860e+00 -3.9375371535e-02 1.4480174336e+00 -2.5080397653e+00 1.4480174336e+00 2.5080397653e+00 
74500 6.3966737351e+00 -3.9480744512e-02 1.4493772766e+00 -2.5103950825e+00 1.4493772766e+00 2.5103950825e+00 
74600 6.3921459642e+00 -3.9570818104e-02 1.4507394797e+00 -2.5127544873e+00 1.4507394797e+00 2.5127544873e+00 
74700 6.3876728472e+00 -3.9645923125e-02 1.4521035086e+00 -2.5151170547e+00 1.4521035086e+00 2.5151170547e+00 
74800 6.3832564355e+00 -3.9706416666e-02 1.4534688427e+00 -2.5174818828e+00 1.4534688427e+00 2.5174818828e+00 
74900 6.3788986562e+00 -3.9752679412e-02 1.4548349755e+00 -2.5198480942e+00 1.4548349755e+00 2.5198480942e+00 
75000 6.3746013098e+00 -3.9785112942e-02 1.4562014156e+00 -2.5222148378e+00 1.4562014156e+00 2.5222148378e+00 
75100 6.3703660696e+00 -3.9804137018e-02 1.4575676870e+00 -2.5245812893e+00 1.4575676870e+00 2.5245812893e+00 
75200 6.3661944806e+00 -3.9810186895e-02 1.4589333301e+00 -2.5269466526e+00 1.4589333301e+00 2.5269466526e+00 
75300 6.3620879596e+00 -3.9803710660e-02 1.4602979019e+00 -2.5293101603e+00 1.4602979019e+00 2.5293101603e+00 
75400 6.3580477952e+00 -3.9785166627e-02 1.4616609764e+00 -2.5316710746e+00 1.4616609764e+00 2.5316710746e+00 
75500 6.3540751488e+00 -3.9755020803e-02 1.4630221448e+00 -2.5340286874e+00 1.4630221448e+00 2.5340286874e+00 
75600 6.3501710554e+00 -3.9713744439e-02 1.4643810159e+00 -2.5363823211e+00 1.4643810159e+00 2.5363823211e+00 
75700 6.3463364252e+00 -3.9661811671e-02 1.4657372158e+00 -2.5387313283e+00 1.4657372158e+00 2.5387313283e+00 
75800 6.3425720457e+00 -3.9599697278e-02 1.4670903883e+00 -2.5410750919e+00 1.4670903883e+00 2.5410750919e+00 
75900 6.3388785838e+00 -3.9527874558e-02 1.4684401948e+00 -2.5434130253e+00 1.4684401948e+00 2.5434130253e+00 
76000 6.3352565880e+00 -3.9446813323e-02 1.4697863139e+00 -2.5457445720e+00 1.4697863139e+00 2.5457445720e+00 
76100 6.3317064919e+00 -3.9356978035e-02 1.4711284413e+00 -2.5480692049e+00 1.4711284413e+00 2.5480692049e+00 
76200 6.3282286166e+00 -3.9258826074e-02 1.4724662898e+00 -2.5503864263e+00 1.4724662898e+00 2.5503864263e+00 
76300 6.3248231747e+00 -3.9152806155e-02 1.4737995883e+00 -2.5526957672e+00 1.4737995883e+00 2.5526957672e+00 
76400 6.3214902731e+00 -3.9039356876e-02 1.4751280825e+00 -2.5549967865e+00 1.4751280825e+00 2.5549967865e+00 
76500 6.3182299172e+00 -3.8918905421e-02 1.4764515333e+00 -2.5572890705e+00 1.4764515333e+00 2.5572890705e+00 
76600 6.3150420149e+00 -3.8791866400e-02 1.4777697171e+00 -2.5595722319e+00 1.4777697171e+00 2.5595722319e+00 
76700 6.3119263799e+00 -3.8658640829e-02 1.4790824251e+00 -2.5618459089e+00 1.4790824251e+00 2.5618459089e+00 
76800 6.3088827365e+00 -3.8519615253e-02 1.4803894628e+00 -2.5641097645e+00 1.4803894628e+00 2.5641097645e+00 
76900 6.3059107237e+00 -3.8375161004e-02 1.4816906492e+00 -2.5663634854e+00 1.4816906492e+00 2.5663634854e+00 
77000 6.3030098988e+00 -3.8225633582e-02 1.4829858165e+00 -2.5686067810e+00 1.4829858165e+00 2.5686067810e+00 
77100 6.3001797427e+00 -3.8071372170e-02 1.4842748094e+00 -2.5708393823e+00 1.4842748094e+00 2.5708393823e+00 
77200 6.2974196633e+00 -3.7912699266e-02 1.4855574846e+00 -2.5730610410e+00 1.4855574846e+00 2.5730610410e+00 
77300 6.2947290004e+00 -3.7749920424e-02 1.4868337100e+00 -2.5752715281e+00 1.4868337100e+00 2.5752715281e+00 
77400 6.2921070296e+00 -3.7583324114e-02 1.4881033640e+00 -2.5774706334e+00 1.4881033640e+00 2.5774706334e+00 
77500 6.2895529672e+00 -3.7413181667e-02 1.4893663352e+00 -2.5796581637e+00 1.4893663352e+00 2.5796581637e+00 
77600 6.2870659734e+00 -3.7239747327e-02 1.4906225217e+00 -2.5818339425e+00 1.4906225217e+00 2.5818339425e+00 
77700 6.2846451577e+00 -3.7063258383e-02 1.4918718301e+00 -2.5839978080e+00 1.4918718301e+00 2.5839978080e+00 
77800 6.2822895819e+00 -3.6883935380e-02 1.4931141753e+00 -2.5861496131e+00 1.4931141753e+00 2.5861496131e+00 
77900 6.2799982649e+00 -3.6701982409e-02 1.4943494799e+00 -2.5882892235e+00 1.4943494799e+00 2.5882892235e+00 
78000 6.2777701863e+00 -3.6517587454e-02 1.4955776734e+00 -2.5904165169e+00 1.4955776734e+00 2.5904165169e+00 
78100 6.2756042902e+00 -3.6330922801e-02 1.4967986916e+00 -2.5925313825e+00 1.4967986916e+00 2.5925313825e+00 
78200 6.2734994890e+00 -3.6142145506e-02 1.4980124763e+00 -2.5946337194e+00 1.4980124763e+00 2.5946337194e+00 
78300 6.2714546672e+00 -3.5951397896e-02 1.4992189747e+00 -2.5967234359e+00 1.4992189747e+00 2.5967234359e+00 
78400 6.2694686846e+00 -3.5758808119e-02 1.5004181386e+00 -2.5988004487e+00 1.5004181386e+00 2.5988004487e+00 
78500 6.2675403799e+00 -3.5564490723e-02 1.5016099243e+00 -2.6008646821e+00 1.5016099243e+00 2.6008646821e+00 
78600 6.2656685737e+00 -3.5368547264e-02 1.5027942919e+00 -2.6029160669e+00 1.5027942919e+00 2.6029160669e+00 
78700 6.2638520720e+00 -3.5171066938e-02 1.5039712048e+00 -2.6049545398e+00 1.5039712048e+00 2.6049545398e+00 
78800 6.2620896688e+00 -3.4972127228e-02 1.5051406295e+00 -2.6069800427e+00 1.5051406295e+00 2.6069800427e+00 
78900 6.2603801492e+00 -3.4771794563e-02 1.5063025349e+00 -2.6089925221e+00 1.5063025349e+00 2.6089925221e+00 
79000 6.2587222921e+00 -3.4570124988e-02 1.5074568924e+00 -2.6109919279e+00 1.5074568924e+00 2.6109919279e+00 
79100 6.2571148726e+00 -3.4367164835e-02 1.5086036749e+00 -2.6129782134e+00 1.5086036749e+00 2.6129782134e+00 
79200 6.2555566646e+00 -3.4162951399e-02 1.5097428570e+00 -2.6149513347e+00 1.5097428570e+00 2.6149513347e+00 
79300 6.2540464434e+00 -3.3957513604e-02 1.5108744145e+00 -2.6169112497e+00 1.5108744145e+00 2.6169112497e+00 
79400 6.2525829871e+00 -3.3750872671e-02 1.5119983239e+00 -2.6188579179e+00 1.5119983239e+00 2.6188579179e+00 
79500 6.2511650796e+00 -3.3543042768e-02 1.5131145626e+00 -2.6207913001e+00 1.5131145626e+00 2.6207913001e+00 
79600 6.2497915117e+00 -3.3334031657e-02 1.5142231084e+00 -2.6227113577e+00 1.5142231084e+00 2.6227113577e+00 
79700 6.2484610834e+00 -3.3123841318e-02 1.5153239391e+00 -2.6246180525e+00 1.5153239391e+00 2.6246180525e+00 
79800 6.2471726056e+00 -3.2912468569e-02 1.5164170328e+00 -2.6265113463e+00 1.5164170328e+00 2.6265113463e+00 
79900 6.2459249013e+00 -3.2699905656e-02 1.5175023672e+00 -2.6283912006e+00 1.5175023672e+00 2.6283912006e+00 
80000 6.2447168072e+00 -3.2486140829e-02 1.5185799198e+00 -2.6302575765e+00 1.5185799198e+00 2.6302575765e+00 
80100 6.2435471752e+00 -3.2271158904e-02 1.5196496677e+00 -2.6321104341e+00 1.5196496677e+00 2.6321104341e+00 
80200 6.2424148732e+00 -3.2054941790e-02 1.5207115872e+00 -2.6339497327e+00 1.5207115872e+00 2.6339497327e+00 
80300 6.2413187869e+00 -3.1837469005e-02 1.5217656544e+00 -2.6357754306e+00 1.5217656544e+00 2.6357754306e+00 
80400 6.2402578198e+00 -3.1618718167e-02 1.5228118442e+00 -2.6375874844e+00 1.5228118442e+00 2.6375874844e+00 
80500 6.2392308950e+00 -3.1398665452e-02 1.5238501309e+00 -2.6393858499e+00 1.5238501309e+00 2.6393858499e+00 
80600 6.2382369556e+00 -3.1177286045e-02 1.5248804882e+00 -2.6411704810e+00 1.5248804882e+00 2.6411704810e+00 
80700 6.2372749654e+00 -3.0954554548e-02 1.5259028886e+00 -2.6429413304e+00 1.5259028886e+00 2.6429413304e+00 
80800 6.2363439096e+00 -3.0730445381e-02 1.5269173038e+00 -2.6446983491e+00 1.5269173038e+00 2.6446983491e+00 
80900 6.2354427952e+00 -3.0504933147e-02 1.5279237047e+00 -2.6464414865e+00 1.5279237047e+00 2.6464414865e+00 
81000 6.2345706516e+00 -3.0277992976e-02 1.5289220612e+00 -2.6481706908e+00 1.5289220612e+00 2.6481706908e+00 
81100 6.2337265312e+00 -3.0049600847e-02 1.5299123425e+00 -2.6498859084e+00 1.5299123425e+00 2.6498859084e+00 
81200 6.2329095091e+00 -2.9819733888e-02 1.5308945169e+00 -2.6515870843e+00 1.5308945169e+00 2.6515870843e+00 
81300 6.2321186837e+00 -2.9588370648e-02 1.5318685518e+00 -2.6532741622e+00 1.5318685518e+00 2.6532741622e+00 
81400 6.2313531771e+00 -2.9355491348e-02 1.5328344139e+00 -2.6549470845e+00 1.5328344139e+00 2.6549470845e+00 
81500 6.2306121347e+00 -2.9121078113e-02 1.5337920694e+00 -2.6566057925e+00 1.5337920694e+00 2.6566057925e+00 
81600 6.2298947255e+00 -2.8885115180e-02 1.5347414837e+00 -2.6582502262e+00 1.5347414837e+00 2.6582502262e+00 
81700 6.2292001424e+00 -2.8647589084e-02 1.5356826215e+00 -2.6598803247e+00 1.5356826215e+00 2.6598803247e+00 
81800 6.2285276014e+00 -2.8408488827e-02 1.5366154473e+00 -2.6614960264e+00 1.5366154473e+00 2.6614960264e+00 
81900 6.2278763422e+00 -2.8167806025e-02 1.5375399250e+00 -2.6630972688e+00 1.5375399250e+00 2.6630972688e+00 
82000 6.2272456278e+00 -2.7925535035e-02 1.5384560183e+00 -2.6646839890e+00 1.5384560183e+00 2.6646839890e+00 
82100 6.2266347442e+00 -2.7681673071e-02 1.5393636907e+00 -2.6662561236e+00 1.5393636907e+00 2.6662561236e+00 
82200 6.2260430002e+00 -2.7436220292e-02 1.5402629053e+00 -2.6678136090e+00 1.5402629053e+00 2.6678136090e+00 
82300 6.2254697273e+00 -2.7189179881e-02 1.5411536254e+00 -2.6693563814e+00 1.5411536254e+00 2.6693563814e+00 
82400 6.2249142793e+00 -2.6940558108e-02 1.5420358143e+00 -2.6708843774e+00 1.5420358143e+00 2.6708843774e+00 
82500 6.2243760319e+00 -2.6690364372e-02 1.5429094354e+00 -2.6723975335e+00 1.5429094354e+00 2.6723975335e+00 
82600 6.2238543825e+00 -2.6438611238e-02 1.5437744523e+00 -2.6738957869e+00 1.5437744523e+00 2.6738957869e+00 
82700 6.2233487498e+00 -2.6185314452e-02 1.5446308292e+00 -2.6753790751e+00 1.5446308292e+00 2.6753790751e+00 
82800 6.2228585731e+00 -2.5930492944e-02 1.5454785304e+00 -2.6768473366e+00 1.5454785304e+00 2.6768473366e+00 
82900 6.2223833124e+00 -2.5674168829e-02 1.5463175209e+00 -2.6783005109e+00 1.5463175209e+00 2.6783005109e+00 
83000 6.2219224476e+00 -2.5416367381e-02 1.5471477665e+00 -2.6797385384e+00 1.5471477665e+00 2.6797385384e+00 
83100 6.2214754780e+00 -2.5157117011e-02 1.5479692334e+00 -2.6811613609e+00 1.5479692334e+00 2.6811613609e+00 
83200 6.2210419221e+00 -2.4896449221e-02 1.5487818890e+00 -2.6825689216e+00 1.5487818890e+00 2.6825689216e+00 
83300 6.2206213170e+00 -2.4634398567e-02 1.5495857014e+00 -2.6839611655e+00 1.5495857014e+00 2.6839611655e+00 
83400 6.2202132179e+00 -2.4371002592e-02 1.5503806398e+00 -2.6853380392e+00 1.5503806398e+00 2.6853380392e+00 
83500 6.2198171975e+00 -2.4106301767e-02 1.5511666745e+00 -2.6866994913e+00 1.5511666745e+00 2.6866994913e+00 
83600 6.2194328457e+00 -2.3840339423e-02 1.5519437771e+00 -2.6880454725e+00 1.5519437771e+00 2.6880454725e+00 
83700 6.2190597691e+00 -2.3573161663e-02 1.5527119205e+00 -2.6893759358e+00 1.5527119205e+00 2.6893759358e+00 
83800 6.2186975902e+00 -2.3304817288e-02 1.5534710787e+00 -2.6906908364e+00 1.5534710787e+00 2.6906908364e+00 
83900 6.2183459472e+00 -2.3035357700e-02 1.5542212276e+00 -2.6919901324e+00 1.5542212276e+00 2.6919901324e+00 
84000 6.2180044934e+00 -2.2764836811e-02 1.5549623443e+00 -2.6932737843e+00 1.5549623443e+00 2.6932737843e+00 
84100 6.2176728965e+00 -2.2493310942e-02 1.5556944078e+00 -2.6945417554e+00 1.5556944078e+00 2.6945417554e+00 
84200 6.2173508386e+00 -2.2220838720e-02 1.5564173985e+00 -2.6957940120e+00 1.5564173985e+00 2.6957940120e+00 
84300 6.2170380150e+00 -2.1947480971e-02 1.5571312988e+00 -2.6970305236e+00 1.5571312988e+00 2.6970305236e+00 
84400 6.2167341342e+00 -2.1673300610e-02 1.5578360928e+00 -2.6982512626e+00 1.5578360928e+00 2.6982512626e+00 
84500 6.2164389173e+00 -2.1398362530e-02 1.5585317665e+00 -2.6994562048e+00 1.5585317665e+00 2.6994562048e+00 
84600 6.2161520974e+00 -2.1122733484e-02 1.5592183080e+00 -2.7006453295e+00 1.5592183080e+00 2.7006453295e+00 
84700 6.2158734193e+00 -2.0846481971e-02 1.5598957071e+00 -2.7018186192e+00 1.5598957071e+00 2.7018186192e+00 
84800 6.2156026388e+00 -2.0569678119e-02 1.5605639559e+00 -2.7029760601e+00 1.5605639559e+00 2.7029760601e+00 
84900 6.2153395223e+00 -2.0292393563e-02 1.5612230486e+00 -2.7041176421e+00 1.5612230486e+00 2.7041176421e+00 
85000 6.2150838466e+00 -2.0014701328e-02 1.5618729814e+00 -2.7052433587e+00 1.5618729814e+00 2.7052433587e+00 
85100 6.2148353981e+00 -1.9736675706e-02 1.5625137527e+00 -2.7063532072e+00 1.5625137527e+00 2.7063532072e+00 
85200 6.2145939724e+00 -1.9458392140e-02 1.5631453633e+00 -2.7074471889e+00 1.5631453633e+00 2.7074471889e+00 
85300 6.2143593741e+00 -1.9179927102e-02 1.5637678161e+00 -2.7085253087e+00 1.5637678161e+00 2.7085253087e+00 
85400 6.2141314162e+00 -1.8901357970e-02 1.5643811162e+00 -2.7095875757e+00 1.5643811162e+00 2.7095875757e+00 
85500 6.2139099198e+00 -1.8622762917e-02 1.5649852712e+00 -2.7106340028e+00 1.5649852712e+00 2.7106340028e+00 
85600 6.2136947136e+00 -1.8344220787e-02 1.5655802910e+00 -2.7116646073e+00 1.5655802910e+00 2.7116646073e+00 
85700 6.2134856334e+00 -1.8065810980e-02 1.5661661876e+00 -2.7126794100e+00 1.5661661876e+00 2.7126794100e+00 
85800 6.2132825223e+00 -1.7787613339e-02 1.5667429757e+00 -2.7136784362e+00 1.5667429757e+00 2.7136784362e+00 
85900 6.2130852294e+00 -1.7509708034e-02 1.5673106721e+00 -2.7146617153e+00 1.5673106721e+00 2.7146617153e+00 
86000 6.2128936102e+00 -1.7232175452e-02 1.5678692961e+00 -2.7156292804e+00 1.5678692961e+00 2.7156292804e+00 
86100 6.2127075262e+00 -1.6955096086e-02 1.5684188694e+00 -2.7165811693e+00 1.5684188694e+00 2.7165811693e+00 
86200 6.2125268441e+00 -1.6678550428e-02 1.5689594160e+00 -2.7175174235e+00 1.5689594160e+00 2.7175174235e+00 
86300 6.2123514359e+00 -1.6402618865e-02 1.5694909623e+00 -2.7184380887e+00 1.5694909623e+00 2.7184380887e+00 
86400 6.2121811785e+00 -1.6127381573e-02 1.5700135371e+00 -2.7193432148e+00 1.5700135371e+00 2.7193432148e+00 
86500 6.2120159533e+00 -1.5852918419e-02 1.5705271715e+00 -2.7202328558e+00 1.5705271715e+00 2.7202328558e+00 
86600 6.2118556462e+00 -1.5579308861e-02 1.5710318991e+00 -2.7211070696e+00 1.5710318991e+00 2.7211070696e+00 
86700 6.2117001469e+00 -1.5306631858e-02 1.5715277556e+00 -2.7219659182e+00 1.5715277556e+00 2.7219659182e+00 
86800 6.2115493491e+00 -1.5034965770e-02 1.5720147792e+00 -2.7228094679e+00 1.5720147792e+00 2.7228094679e+00 
86900 6.2114031498e+00 -1.4764388273e-02 1.5724930103e+00 -2.7236377885e+00 1.5724930103e+00 2.7236377885e+00 
87000 6.2112614495e+00 -1.4494976274e-02 1.5729624917e+00 -2.7244509540e+00 1.5729624917e+00 2.7244509540e+00 
87100 6.2111241517e+00 -1.4226805823e-02 1.5734232682e+00 -2.7252490423e+00 1.5734232682e+00 2.7252490423e+00 
87200 6.2109911629e+00 -1.3959952037e-02 1.5738753871e+00 -2.7260321352e+00 1.5738753871e+00 2.7260321352e+00 
87300 6.2108623921e+00 -1.3694489019e-02 1.5743188976e+00 -2.7268003180e+00 1.5743188976e+00 2.7268003180e+00 
87400 6.2107377508e+00 -1.3430489785e-02 1.5747538514e+00 -2.7275536801e+00 1.5747538514e+00 2.7275536801e+00 
87500 6.2106171530e+00 -1.3168026195e-02 1.5751803021e+00 -2.7282923143e+00 1.5751803021e+00 2.7282923143e+00 
87600 6.2105005146e+00 -1.2907168882e-02 1.5755983053e+00 -2.7290163171e+00 1.5755983053e+00 2.7290163171e+00 
87700 6.2103877537e+00 -1.2647987189e-02 1.5760079188e+00 -2.7297257885e+00 1.5760079188e+00 2.7297257885e+00 
87800 6.2102787901e+00 -1.2390549107e-02 1.5764092025e+00 -2.7304208322e+00 1.5764092025e+00 2.7304208322e+00 
87900 6.2101735453e+00 -1.2134921216e-02 1.5768022179e+00 -2.7311015549e+00 1.5768022179e+00 2.7311015549e+00 
88000 6.2100719425e+00 -1.1881168632e-02 1.5771870289e+00 -2.7317680670e+00 1.5771870289e+00 2.7317680670e+00 
88100 6.2099739062e+00 -1.1629354954e-02 1.5775637008e+00 -2.7324204819e+00 1.5775637008e+00 2.7324204819e+00 
88200 6.2098793623e+00 -1.1379542212e-02 1.5779323010e+00 -2.7330589163e+00 1.5779323010e+00 2.7330589163e+00 
88300 6.2097882379e+00 -1.1131790828e-02 1.5782928987e+00 -2.7336834899e+00 1.5782928987e+00 2.7336834899e+00 
88400 6.2097004614e+00 -1.0886159569e-02 1.5786455648e+00 -2.7342943253e+00 1.5786455648e+00 2.7342943253e+00 
88500 6.2096159620e+00 -1.0642705508e-02 1.5789903716e+00 -2.7348915483e+00 1.5789903716e+00 2.7348915483e+00 
88600 6.2095346702e+00 -1.0401483988e-02 1.5793273934e+00 -2.7354752872e+00 1.5793273934e+00 2.7354752872e+00 
88700 6.2094565170e+00 -1.0162548589e-02 1.5796567059e+00 -2.7360456732e+00 1.5796567059e+00 2.7360456732e+00 
88800 6.2093814346e+00 -9.9259511007e-03 1.5799783864e+00 -2.7366028400e+00 1.5799783864e+00 2.7366028400e+00 
88900 6.2093093558e+00 -9.6917414883e-03 1.5802925134e+00 -2.7371469241e+00 1.5802925134e+00 2.7371469241e+00 
89000 6.2092402142e+00 -9.4599678742e-03 1.5805991673e+00 -2.7376780641e+00 1.5805991673e+00 2.7376780641e+00 
89100 6.2091739441e+00 -9.2306765140e-03 1.5808984293e+00 -2.7381964012e+00 1.5808984293e+00 2.7381964012e+00 
89200 6.2091104802e+00 -9.0039117780e-03 1.5811903823e+00 -2.7387020786e+00 1.5811903823e+00 2.7387020786e+00 
89300 6.2090497582e+00 -8.7797161351e-03 1.5814751102e+00 -2.7391952419e+00 1.5814751102e+00 2.7391952419e+00 
89400 6.2089917141e+00 -8.5581301398e-03 1.5817526983e+00 -2.7396760385e+00 1.5817526983e+00 2.7396760385e+00 
89500 6.2089362845e+00 -8.3391924212e-03 1.5820232328e+00 -2.7401446180e+00 1.5820232328e+00 2.7401446180e+00 
89600 6.2088834066e+00 -8.1229396748e-03 1.5822868012e+00 -2.7406011318e+00 1.5822868012e+00 2.7406011318e+00 
89700 6.2088330181e+00 -7.9094066571e-03 1.5825434916e+00 -2.7410457327e+00 1.5825434916e+00 2.7410457327e+00 
89800 6.2087850571e+00 -7.6986261824e-03 1.5827933936e+00 -2.7414785756e+00 1.5827933936e+00 2.7414785756e+00 
89900 6.2087394623e+00 -7.4906291217e-03 1.5830365973e+00 -2.7418998167e+00 1.5830365973e+00 2.7418998167e+00 
90000 6.2086961729e+00 -7.2854444043e-03 1.5832731937e+00 -2.7423096138e+00 1.5832731937e+00 2.7423096138e+00 
90100 6.2086551285e+00 -7.0830990216e-03 1.5835032747e+00 -2.7427081257e+00 1.5835032747e+00 2.7427081257e+00 
90200 6.2086162692e+00 -6.8836180330e-03 1.5837269327e+00 -2.7430955128e+00 1.5837269327e+00 2.7430955128e+00 
90300 6.2085795356e+00 -6.6870245737e-03 1.5839442611e+00 -2.7434719366e+00 1.5839442611e+00 2.7434719366e+00 
90400 6.2085448689e+00 -6.4933398648e-03 1.5841553535e+00 -2.7438375594e+00 1.5841553535e+00 2.7438375594e+00 
90500 6.2085122107e+00 -6.3025832251e-03 1.5843603044e+00 -2.7441925447e+00 1.5843603044e+00 2.7441925447e+00 
90600 6.2084815030e+00 -6.1147720852e-03 1.5845592085e+00 -2.7445370567e+00 1.5845592085e+00 2.7445370567e+00 
90700 6.2084526885e+00 -5.9299220029e-03 1.5847521611e+00 -2.7448712604e+00 1.5847521611e+00 2.7448712604e+00 
90800 6.2084257105e+00 -5.7480466807e-03 1.5849392578e+00 -2.7451953214e+00 1.5849392578e+00 2.7451953214e+00 
90900 6.2084005126e+00 -5.5691579849e-03 1.5851205946e+00 -2.7455094060e+00 1.5851205946e+00 2.7455094060e+00 
91000 6.2083770392e+00 -5.3932659661e-03 1.5852962677e+00 -2.7458136807e+00 1.5852962677e+00 2.7458136807e+00 
91100 6.2083552351e+00 -5.2203788814e-03 1.5854663735e+00 -2.7461083126e+00 1.5854663735e+00 2.7461083126e+00 
91200 6.2083350459e+00 -5.0505032179e-03 1.5856310087e+00 -2.7463934690e+00 1.5856310087e+00 2.7463934690e+00 
91300 6.2083164176e+00 -4.8836437181e-03 1.5857902698e+00 -2.7466693174e+00 1.5857902698e+00 2.7466693174e+00 
91400 6.2082992971e+00 -4.7198034056e-03 1.5859442537e+00 -2.7469360253e+00 1.5859442537e+00 2.7469360253e+00 
91500 6.2082836318e+00 -4.5589836131e-03 1.5860930570e+00 -2.7471937603e+00 1.5860930570e+00 2.7471937603e+00 
91600 6.2082693697e+00 -4.4011840109e-03 1.5862367766e+00 -2.7474426899e+00 1.5862367766e+00 2.7474426899e+00 
91700 6.2082564596e+00 -4.2464026368e-03 1.5863755090e+00 -2.7476829815e+00 1.5863755090e+00 2.7476829815e+00 
91800 6.2082448512e+00 -4.0946359268e-03 1.5865093506e+00 -2.7479148020e+00 1.5865093506e+00 2.7479148020e+00 
91900 6.2082344946e+00 -3.9458787470e-03 1.5866383978e+00 -2.7481383183e+00 1.5866383978e+00 2.7481383183e+00 
92000 6.2082253408e+00 -3.8001244264e-03 1.5867627466e+00 -2.7483536967e+00 1.5867627466e+00 2.7483536967e+00 
92100 6.2082173416e+00 -3.6573647899e-03 1.5868824927e+00 -2.7485611029e+00 1.5868824927e+00 2.7485611029e+00 
92200 6.2082104497e+00 -3.5175901935e-03 1.5869977315e+00 -2.7487607024e+00 1.5869977315e+00 2.7487607024e+00 
92300 6.2082046184e+00 -3.3807895585e-03 1.5871085581e+00 -2.7489526597e+00 1.5871085581e+00 2.7489526597e+00 
92400 6.2081998020e+00 -3.2469504074e-03 1.5872150671e+00 -2.7491371387e+00 1.5872150671e+00 2.7491371387e+00 
92500 6.2081959555e+00 -3.1160589005e-03 1.5873173527e+00 -2.7493143026e+00 1.5873173527e+00 2.7493143026e+00 
92600 6.2081930348e+00 -2.9880998721e-03 1.5874155086e+00 -2.7494843136e+00 1.5874155086e+00 2.7494843136e+00 
92700 6.2081909967e+00 -2.8630568678e-03 1.5875096279e+00 -2.7496473331e+00 1.5875096279e+00 2.7496473331e+00 
92800 6.2081897990e+00 -2.7409121828e-03 1.5875998032e+00 -2.7498035213e+00 1.5875998032e+00 2.7498035213e+00 
92900 6.2081894003e+00 -2.6216468989e-03 1.5876861265e+00 -2.7499530376e+00 1.5876861265e+00 2.7499530376e+00 
93000 6.2081897600e+00 -2.5052409235e-03 1.5877686891e+00 -2.7500960402e+00 1.5877686891e+00 2.7500960402e+00 
93100 6.2081908385e+00 -2.3916730278e-03 1.5878475817e+00 -2.7502326861e+00 1.5878475817e+00 2.7502326861e+00 
93200 6.2081925973e+00 -2.2809208858e-03 1.5879228941e+00 -2.7503631310e+00 1.5879228941e+00 2.7503631310e+00 
93300 6.2081949987e+00 -2.1729611127e-03 1.5879947155e+00 -2.7504875294e+00 1.5879947155e+00 2.7504875294e+00 
93400 6.2081980058e+00 -2.0677693046e-03 1.5880631344e+00 -2.7506060344e+00 1.5880631344e+00 2.7506060344e+00 
93500 6.2082015829e+00 -1.9653200768e-03 1.5881282383e+00 -2.7507187977e+00 1.5881282383e+00 2.7507187977e+00 
93600 6.2082056952e+00 -1.8655871032e-03 1.5881901141e+00 -2.7508259697e+00 1.5881901141e+00 2.7508259697e+00 
93700 6.2082103088e+00 -1.7685431551e-03 1.5882488476e+00 -2.7509276990e+00 1.5882488476e+00 2.7509276990e+00 
93800 6.2082153908e+00 -1.6741601406e-03 1.5883045238e+00 -2.7510241331e+00 1.5883045238e+00 2.7510241331e+00 
93900 6.2082209092e+00 -1.5824091426e-03 1.5883572268e+00 -2.7511154174e+00 1.5883572268e+00 2.7511154174e+00 
94000 6.2082268331e+00 -1.4932604582e-03 1.5884070398e+00 -2.7512016961e+00 1.5884070398e+00 2.7512016961e+00 
94100 6.2082331326e+00 -1.4066836364e-03 1.5884540450e+00 -2.7512831115e+00 1.5884540450e+00 2.7512831115e+00 
94200 6.2082397784e+00 -1.3226475169e-03 1.5884983236e+00 -2.7513598042e+00 1.5884983236e+00 2.7513598042e+00 
94300 6.2082467427e+00 -1.2411202677e-03 1.5885399558e+00 -2.7514319133e+00 1.5885399558e+00 2.7514319133e+00 
94400 6.2082539982e+00 -1.1620694228e-03 1.5885790208e+00 -2.7514995758e+00 1.5885790208e+00 2.7514995758e+00 
94500 6.2082615188e+00 -1.0854619195e-03 1.5886155967e+00 -2.7515629271e+00 1.5886155967e+00 2.7515629271e+00 
94600 6.2082692793e+00 -1.0112641351e-03 1.5886497606e+00 -2.7516221007e+00 1.5886497606e+00 2.7516221007e+00 
94700 6.2082772554e+00 -9.3944192362e-04 1.5886815885e+00 -2.7516772283e+00 1.5886815885e+00 2.7516772283e+00 
94800 6.2082854238e+00 -8.6996065187e-04 1.5887111553e+00 -2.7517284395e+00 1.5887111553e+00 2.7517284395e+00 
94900 6.2082937620e+00 -8.0278523495e-04 1.5887385348e+00 -2.7517758622e+00 1.5887385348e+00 2.7517758622e+00 
95000 6.2083022487e+00 -7.3788017150e-04 1.5887637997e+00 -2.7518196223e+00 1.5887637997e+00 2.7518196223e+00 
95100 6.2083108631e+00 -6.7520957828e-04 1.5887870216e+00 -2.7518598438e+00 1.5887870216e+00 2.7518598438e+00 
95200 6.2083195855e+00 -6.1473722433e-04 1.5888082709e+00 -2.7518966486e+00 1.5888082709e+00 2.7518966486e+00 
95300 6.2083283971e+00 -5.5642656453e-04 1.5888276168e+00 -2.7519301567e+00 1.5888276168e+00 2.7519301567e+00 
95400 6.2083372801e+00 -5.0024077261e-04 1.5888451274e+00 -2.7519604860e+00 1.5888451274e+00 2.7519604860e+00 
95500 6.2083462171e+00 -4.4614277358e-04 1.5888608697e+00 -2.7519877525e+00 1.5888608697e+00 2.7519877525e+00 
95600 6.2083551920e+00 -3.9409527552e-04 1.5888749094e+00 -2.7520120700e+00 1.5888749094e+00 2.7520120700e+00 
95700 6.2083641893e+00 -3.4406080085e-04 1.5888873112e+00 -2.7520335504e+00 1.5888873112e+00 2.7520335504e+00 
95800 6.2083731944e+00 -2.9600171681e-04 1.5888981383e+00 -2.7520523035e+00 1.5888981383e+00 2.7520523035e+00 
95900 6.2083821933e+00 -2.4988026548e-04 1.5889074530e+00 -2.7520684371e+00 1.5889074530e+00 2.7520684371e+00 
96000 6.2083911730e+00 -2.0565859297e-04 1.5889153162e+00 -2.7520820567e+00 1.5889153162e+00 2.7520820567e+00 
96100 6.2084001212e+00 -1.6329877806e-04 1.5889217879e+00 -2.7520932659e+00 1.5889217879e+00 2.7520932659e+00 
96200 6.2084090263e+00 -1.2276286009e-04 1.5889269266e+00 -2.7521021664e+00 1.5889269266e+00 2.7521021664e+00 
96300 6.2084178774e+00 -8.4012866199e-05 1.5889307897e+00 -2.7521088574e+00 1.5889307897e+00 2.7521088574e+00 
96400 6.2084266643e+00 -4.7010837827e-05 1.5889334333e+00 -2.7521134364e+00 1.5889334333e+00 2.7521134364e+00 
96500 6.2084353774e+00 -1.3390009224e-05 1.5889334333e+00 -2.7521134364e+00 1.5889334333e+00 2.7521134364e+00 
96600 6.2084440079e+00 1.9807716991e-05 1.5889334333e+00 -2.7521134364e+00 1.5889334333e+00 2.7521134364e+00 
96700 6.2084525478e+00 5.2564964606e-05 1.5889334333e+00 -2.7521134364e+00 1.5889334333e+00 2.7521134364e+00 
96800 6.2084609897e+00 8.4865499647e-05 1.5889334333e+00 -2.7521134364e+00 1.5889334333e+00 2.7521134364e+00 
96900 6.2084693262e+00 1.1367527782e-04 1.5889307628e+00 -2.7521088109e+00 1.5889307628e+00 2.7521088109e+00 
97000 6.2084775511e+00 1.4096386434e-04 1.5889271857e+00 -2.7521026152e+00 1.5889271857e+00 2.7521026152e+00 
97100 6.2084856585e+00 1.6676840466e-04 1.5889227499e+00 -2.7520949322e+00 1.5889227499e+00 2.7520949322e+00 
97200 6.2084936433e+00 1.9112584479e-04 1.5889175021e+00 -2.7520858426e+00 1.5889175021e+00 2.7520858426e+00 
97300 6.2085015006e+00 2.1407291120e-04 1.5889114877e+00 -2.7520754255e+00 1.5889114877e+00 2.7520754255e+00 
97400 6.2085092263e+00 2.3564609150e-04 1.5889047513e+00 -2.7520637576e+00 1.5889047513e+00 2.7520637576e+00 
97500 6.2085168165e+00 2.5588161578e-04 1.5888973359e+00 -2.7520509138e+00 1.5888973359e+00 2.7520509138e+00 
97600 6.2085242681e+00 2.7481543873e-04 1.5888892838e+00 -2.7520369671e+00 1.5888892838e+00 2.7520369671e+00 
97700 6.2085315781e+00 2.9248322242e-04 1.5888806357e+00 -2.7520219882e+00 1.5888806357e+00 2.7520219882e+00 
97800 6.2085387442e+00 3.0892031987e-04 1.5888714317e+00 -2.7520060463e+00 1.5888714317e+00 2.7520060463e+00 
97900 6.2085457643e+00 3.2416175929e-04 1.5888617103e+00 -2.7519892084e+00 1.5888617103e+00 2.7519892084e+00 
98000 6.2085526368e+00 3.3824222901e-04 1.5888515092e+00 -2.7519715397e+00 1.5888515092e+00 2.7519715397e+00 
98100 6.2085593606e+00 3.5119606318e-04 1.5888408650e+00 -2.7519531034e+00 1.5888408650e+00 2.7519531034e+00 
98200 6.2085659346e+00 3.6305722808e-04 1.5888298131e+00 -2.7519339608e+00 1.5888298131e+00 2.7519339608e+00 
98300 6.2085723584e+00 3.7385930916e-04 1.5888183878e+00 -2.7519141716e+00 1.5888183878e+00 2.7519141716e+00 
98400 6.2085786317e+00 3.8363549880e-04 1.5888066225e+00 -2.7518937935e+00 1.5888066225e+00 2.7518937935e+00 
98500 6.2085847546e+00 3.9241858466e-04 1.5887945494e+00 -2.7518728824e+00 1.5887945494e+00 2.7518728824e+00 
98600 6.2085907274e+00 4.0024093874e-04 1.5887821999e+00 -2.7518514923e+00 1.5887821999e+00 2.7518514923e+00 
98700 6.2085965507e+00 4.0713450710e-04 1.5887696040e+00 -2.7518296757e+00 1.5887696040e+00 2.7518296757e+00 
98800 6.2086022254e+00 4.1313080022e-04 1.5887567912e+00 -2.7518074832e+00 1.5887567912e+00 2.7518074832e+00 
98900 6.2086077525e+00 4.1826088395e-04 1.5887437895e+00 -2.7517849636e+00 1.5887437895e+00 2.7517849636e+00 
99000 6.2086131334e+00 4.2255537116e-04 1.5887306262e+00 -2.7517621642e+00 1.5887306262e+00 2.7517621642e+00 
99100 6.2086183696e+00 4.2604441396e-04 1.5887173277e+00 -2.7517391305e+00 1.5887173277e+00 2.7517391305e+00 
99200 6.2086234627e+00 4.2875769651e-04 1.5887039193e+00 -2.7517159065e+00 1.5887039193e+00 2.7517159065e+00 
99300 6.2086284146e+00 4.3072442847e-04 1.5886904254e+00 -2.7516925343e+00 1.5886904254e+00 2.7516925343e+00 
99400 6.2086332274e+00 4.3197333896e-04 1.5886768695e+00 -2.7516690547e+00 1.5886768695e+00 2.7516690547e+00 
99500 6.2086379031e+00 4.3253267118e-04 1.5886632741e+00 -2.7516455069e+00 1.5886632741e+00 2.7516455069e+00 
99600 6.2086424442e+00 4.3243017747e-04 1.5886496610e+00 -2.7516219283e+00 1.5886496610e+00 2.7516219283e+00 
99700 6.2086468529e+00 4.3169311505e-04 1.5886360510e+00 -2.7515983551e+00 1.5886360510e+00 2.7515983551e+00 
99800 6.2086511319e+00 4.3034824215e-04 1.5886224642e+00 -2.7515748220e+00 1.5886224642e+00 2.7515748220e+00 
99900 6.2086552837e+00 4.2842181479e-04 1.5886089195e+00 -2.7515513619e+00 1.5886089195e+00 2.7515513619e+00 
100000 6.2086593110e+00 4.2593958393e-04 1.5885954353e+00 -2.7515280066e+00 1.5885954353e+00 2.7515280066e+00 
100100 6.2086632166e+00 4.2292679327e-04 1.5885820292e+00 -2.7515047865e+00 1.5885820292e+00 2.7515047865e+00 
100200 6.2086670033e+00 4.1940817735e-04 1.5885687177e+00 -2.7514817304e+00 1.5885687177e+00 2.7514817304e+00 
100300 6.2086706740e+00 4.1540796030e-04 1.5885555169e+00 -2.7514588660e+00 1.5885555169e+00 2.7514588660e+00 
100400 6.2086742317e+00 4.1094985487e-04 1.5885424419e+00 -2.7514362194e+00 1.5885424419e+00 2.7514362194e+00 
100500 6.2086776792e+00 4.0605706204e-04 1.5885295071e+00 -2.7514138157e+00 1.5885295071e+00 2.7514138157e+00 
100600 6.2086810196e+00 4.0075227095e-04 1.5885167262e+00 -2.7513916785e+00 1.5885167262e+00 2.7513916785e+00 
100700 6.2086842558e+00 3.9505765934e-04 1.5885041122e+00 -2.7513698304e+00 1.5885041122e+00 2.7513698304e+00 
100800 6.2086873909e+00 3.8899489428e-04 1.5884916773e+00 -2.7513482925e+00 1.5884916773e+00 2.7513482925e+00 
100900 6.2086904279e+00 3.8258513335e-04 1.5884794332e+00 -2.7513270851e+00 1.5884794332e+00 2.7513270851e+00 
101000 6.2086933697e+00 3.7584902623e-04 1.5884673907e+00 -2.7513062269e+00 1.5884673907e+00 2.7513062269e+00 
101100 6.2086962194e+00 3.6880671655e-04 1.5884555602e+00 -2.7512857358e+00 1.5884555602e+00 2.7512857358e+00 
101200 6.2086989799e+00 3.6147784413e-04 1.5884439512e+00 -2.7512656285e+00 1.5884439512e+00 2.7512656285e+00 
101300 6.2087016542e+00 3.5388154761e-04 1.5884325729e+00 -2.7512459206e+00 1.5884325729e+00 2.7512459206e+00 
101400 6.2087042451e+00 3.4603646726e-04 1.5884214335e+00 -2.7512266267e+00 1.5884214335e+00 2.7512266267e+00 
101500 6.2087067557e+00 3.3796074828e-04 1.5884105411e+00 -2.7512077604e+00 1.5884105411e+00 2.7512077604e+00 
101600 6.2087091886e+00 3.2967204417e-04 1.5883999028e+00 -2.7511893343e+00 1.5883999028e+00 2.7511893343e+00 
101700 6.2087115468e+00 3.2118752062e-04 1.5883895253e+00 -2.7511713600e+00 1.5883895253e+00 2.7511713600e+00 
101800 6.2087138329e+00 3.1252385943e-04 1.5883794148e+00 -2.7511538482e+00 1.5883794148e+00 2.7511538482e+00 
101900 6.2087160498e+00 3.0369726289e-04 1.5883695770e+00 -2.7511368086e+00 1.5883695770e+00 2.7511368086e+00 
102000 6.2087181999e+00 2.9472345824e-04 1.5883600170e+00 -2.7511202501e+00 1.5883600170e+00 2.7511202501e+00 
102100 6.2087202860e+00 2.8561770248e-04 1.5883507394e+00 -2.7511041809e+00 1.5883507394e+00 2.7511041809e+00 
102200 6.2087223105e+00 2.7639478730e-04 1.5883417484e+00 -2.7510886080e+00 1.5883417484e+00 2.7510886080e+00 
102300 6.2087242760e+00 2.6706904425e-04 1.5883330477e+00 -2.7510735379e+00 1.5883330477e+00 2.7510735379e+00 
102400 6.2087261848e+00 2.5765435017e-04 1.5883246405e+00 -2.7510589762e+00 1.5883246405e+00 2.7510589762e+00 
102500 6.2087280393e+00 2.4816413266e-04 1.5883165296e+00 -2.7510449277e+00 1.5883165296e+00 2.7510449277e+00 
102600 6.2087298418e+00 2.3861137585e-04 1.5883087174e+00 -2.7510313967e+00 1.5883087174e+00 2.7510313967e+00 
102700 6.2087315944e+00 2.2900862627e-04 1.5883012059e+00 -2.7510183864e+00 1.5883012059e+00 2.7510183864e+00 
102800 6.2087332994e+00 2.1936799884e-04 1.5882939967e+00 -2.7510058996e+00 1.5882939967e+00 2.7510058996e+00 
102900 6.2087349588e+00 2.0970118308e-04 1.5882870909e+00 -2.7509939385e+00 1.5882870909e+00 2.7509939385e+00 
103000 6.2087365746e+00 2.0001944935e-04 1.5882804894e+00 -2.7509825044e+00 1.5882804894e+00 2.7509825044e+00 
103100 6.2087381487e+00 1.9033365528e-04 1.5882741927e+00 -2.7509715981e+00 1.5882741927e+00 2.7509715981e+00 
103200 6.2087396831e+00 1.8065425226e-04 1.5882682009e+00 -2.7509612200e+00 1.5882682009e+00 2.7509612200e+00 
103300 6.2087411795e+00 1.7099129205e-04 1.5882625137e+00 -2.7509513696e+00 1.5882625137e+00 2.7509513696e+00 
103400 6.2087426396e+00 1.6135443348e-04 1.5882571308e+00 -2.7509420460e+00 1.5882571308e+00 2.7509420460e+00 
103500 6.2087440651e+00 1.5175294917e-04 1.5882520512e+00 -2.7509332479e+00 1.5882520512e+00 2.7509332479e+00 
103600 6.2087454576e+00 1.4219573244e-04 1.5882472738e+00 -2.7509249732e+00 1.5882472738e+00 2.7509249732e+00 
103700 6.2087468187e+00 1.3269130413e-04 1.5882427973e+00 -2.7509172197e+00 1.5882427973e+00 2.7509172197e+00 
103800 6.2087481496e+00 1.2324781960e-04 1.5882386200e+00 -2.7509099844e+00 1.5882386200e+00 2.7509099844e+00 
103900 6.2087494520e+00 1.1387307565e-04 1.5882347400e+00 -2.7509032641e+00 1.5882347400e+00 2.7509032641e+00 
104000 6.2087507270e+00 1.0457451763e-04 1.5882311551e+00 -2.7508970548e+00 1.5882311551e+00 2.7508970548e+00 
104100 6.2087519759e+00 9.5359246395e-05 1.5882278630e+00 -2.7508913526e+00 1.5882278630e+00 2.7508913526e+00 
104200 6.2087532000e+00 8.6234025440e-05 1.5882248609e+00 -2.7508861529e+00 1.5882248609e+00 2.7508861529e+00 
104300 6.2087544003e+00 7.7205287947e-05 1.5882221461e+00 -2.7508814508e+00 1.5882221461e+00 2.7508814508e+00 
104400 6.2087555780e+00 6.8279143878e-05 1.5882197155e+00 -2.7508772409e+00 1.5882197155e+00 2.7508772409e+00 
104500 6.2087567341e+00 6.1906666020e-05 1.5882197155e+00 -2.7508772409e+00 1.5882197155e+00 2.7508772409e+00 
104600 6.2087578696e+00 5.5340174038e-05 1.5882197155e+00 -2.7508772409e+00 1.5882197155e+00 2.7508772409e+00 
104700 6.2087589851e+00 4.8588142318e-05 1.5882197155e+00 -2.7508772409e+00 1.5882197155e+00 2.7508772409e+00 
104800 6.2087600817e+00 4.1658903102e-05 1.5882197155e+00 -2.7508772409e+00 1.5882197155e+00 2.7508772409e+00 
104900 6.2087611601e+00 3.4560646386e-05 1.5882197155e+00 -2.7508772409e+00 1.5882197155e+00 2.7508772409e+00 
105000 6.2087622212e+00 2.7301419923e-05 1.5882197155e+00 -2.7508772409e+00 1.5882197155e+00 2.7508772409e+00 
105100 6.2087632655e+00 1.9889129355e-05 1.5882197155e+00 -2.7508772409e+00 1.5882197155e+00 2.7508772409e+00 
105200 6.2087642937e+00 1.2331538452e-05 1.5882197155e+00 -2.7508772409e+00 1.5882197155e+00 2.7508772409e+00 
105300 6.2087653066e+00 4.6362694521e-06 1.5882197155e+00 -2.7508772409e+00 1.5882197155e+00 2.7508772409e+00 
105400 6.2087663047e+00 -3.1891965016e-06 1.5882197155e+00 -2.7508772409e+00 1.5882197155e+00 2.7508772409e+00 
105500 6.2087672884e+00 -1.1137518833e-05 1.5882197155e+00 -2.7508772409e+00 1.5882197155e+00 2.7508772409e+00 
105600 6.2087682583e+00 -1.9201496921e-05 1.5882197155e+00 -2.7508772409e+00 1.5882197155e+00 2.7508772409e+00 
105700 6.2087692150e+00 -2.7374069412e-05 1.5882197155e+00 -2.7508772409e+00 1.5882197155e+00 2.7508772409e+00 
105800 6.2087701587e+00 -3.5648313450e-05 1.5882197155e+00 -2.7508772409e+00 1.5882197155e+00 2.7508772409e+00 
105900 6.2087710898e+00 -4.4017443851e-05 1.5882197155e+00 -2.7508772409e+00 1.5882197155e+00 2.7508772409e+00 
106000 6.2087720088e+00 -5.2474812207e-05 1.5882197155e+00 -2.7508772409e+00 1.5882197155e+00 2.7508772409e+00 
106100 6.2087729160e+00 -6.1013905933e-05 1.5882197155e+00 -2.7508772409e+00 1.5882197155e+00 2.7508772409e+00 
106200 6.2087738117e+00 -6.9628347262e-05 1.5882197155e+00 -2.7508772409e+00 1.5882197155e+00 2.7508772409e+00 
106300 6.2087746960e+00 -7.8311892189e-05 1.5882197155e+00 -2.7508772409e+00 1.5882197155e+00 2.7508772409e+00 
106400 6.2087755691e+00 -8.4253687022e-05 1.5882221809e+00 -2.7508815111e+00 1.5882221809e+00 2.7508815111e+00 
106500 6.2087764313e+00 -9.0030668707e-05 1.5882248334e+00 -2.7508861053e+00 1.5882248334e+00 2.7508861053e+00 
106600 6.2087772827e+00 -9.5641934562e-05 1.5882276677e+00 -2.7508910145e+00 1.5882276677e+00 2.7508910145e+00 
106700 6.2087781236e+00 -1.0108676021e-04 1.5882306787e+00 -2.7508962296e+00 1.5882306787e+00 2.7508962296e+00 
106800 6.2087789542e+00 -1.0636459350e-04 1.5882338611e+00 -2.7509017416e+00 1.5882338611e+00 2.7509017416e+00 
106900 6.2087797744e+00 -1.1147504862e-04 1.5882372096e+00 -2.7509075414e+00 1.5882372096e+00 2.7509075414e+00 
107000 6.2087805846e+00 -1.1641790018e-04 1.5882407190e+00 -2.7509136199e+00 1.5882407190e+00 2.7509136199e+00 
107100 6.2087813847e+00 -1.2119307752e-04 1.5882443840e+00 -2.7509199679e+00 1.5882443840e+00 2.7509199679e+00 
107200 6.2087821749e+00 -1.2580065909e-04 1.5882481993e+00 -2.7509265762e+00 1.5882481993e+00 2.7509265762e+00 
107300 6.2087829552e+00 -1.3024086683e-04 1.5882521596e+00 -2.7509334357e+00 1.5882521596e+00 2.7509334357e+00 
107400 6.2087837257e+00 -1.3451406083e-04 1.5882562598e+00 -2.7509405374e+00 1.5882562598e+00 2.7509405374e+00 
107500 6.2087844864e+00 -1.3862073395e-04 1.5882604944e+00 -2.7509478720e+00 1.5882604944e+00 2.7509478720e+00 
107600 6.2087852375e+00 -1.4256150660e-04 1.5882648583e+00 -2.7509554305e+00 1.5882648583e+00 2.7509554305e+00 
107700 6.2087859788e+00 -1.4633712164e-04 1.5882693463e+00 -2.7509632039e+00 1.5882693463e+00 2.7509632039e+00 
107800 6.2087867106e+00 -1.4994843938e-04 1.5882739531e+00 -2.7509711831e+00 1.5882739531e+00 2.7509711831e+00 
107900 6.2087874327e+00 -1.5339643259e-04 1.5882786736e+00 -2.7509793593e+00 1.5882786736e+00 2.7509793593e+00 
108000 6.2087881453e+00 -1.5668218179e-04 1.5882835026e+00 -2.7509877234e+00 1.5882835026e+00 2.7509877234e+00 
108100 6.2087888483e+00 -1.5980687049e-04 1.5882884351e+00 -2.7509962666e+00 1.5882884351e+00 2.7509962666e+00 
108200 6.2087895417e+00 -1.6277178059e-04 1.5882934659e+00 -2.7510049802e+00 1.5882934659e+00 2.7510049802e+00 
108300 6.2087902255e+00 -1.6557828791e-04 1.5882985900e+00 -2.7510138554e+00 1.5882985900e+00 2.7510138554e+00 
108400 6.2087908999e+00 -1.6822785774e-04 1.5883038024e+00 -2.7510228836e+00 1.5883038024e+00 2.7510228836e+00 
108500 6.2087915646e+00 -1.7072204060e-04 1.5883090983e+00 -2.7510320563e+00 1.5883090983e+00 2.7510320563e+00 
108600 6.2087922199e+00 -1.7306246800e-04 1.5883144726e+00 -2.7510413649e+00 1.5883144726e+00 2.7510413649e+00 
108700 6.2087928656e+00 -1.7525084837e-04 1.5883199206e+00 -2.7510508011e+00 1.5883199206e+00 2.7510508011e+00 
108800 6.2087935018e+00 -1.7728896304e-04 1.5883254374e+00 -2.7510603566e+00 1.5883254374e+00 2.7510603566e+00 
108900 6.2087941285e+00 -1.7917866235e-04 1.5883310185e+00 -2.7510700232e+00 1.5883310185e+00 2.7510700232e+00 
109000 6.2087947457e+00 -1.8092186184e-04 1.5883366589e+00 -2.7510797928e+00 1.5883366589e+00 2.7510797928e+00 
109100 6.2087953535e+00 -1.8252053851e-04 1.5883423543e+00 -2.7510896574e+00 1.5883423543e+00 2.7510896574e+00 
109200 6.2087959517e+00 -1.8397672728e-04 1.5883480999e+00 -2.7510996091e+00 1.5883480999e+00 2.7510996091e+00 
109300 6.2087965405e+00 -1.8529251737e-04 1.5883538913e+00 -2.7511096402e+00 1.5883538913e+00 2.7511096402e+00 
109400 6.2087971198e+00 -1.8647004894e-04 1.5883597242e+00 -2.7511197430e+00 1.5883597242e+00 2.7511197430e+00 
109500 6.2087976897e+00 -1.8751150972e-04 1.5883655941e+00 -2.7511299100e+00 1.5883655941e+00 2.7511299100e+00 
109600 6.2087982502e+00 -1.8841913175e-04 1.5883714967e+00 -2.7511401337e+00 1.5883714967e+00 2.7511401337e+00 
109700 6.2087988014e+00 -1.8919518824e-04 1.5883774280e+00 -2.7511504068e+00 1.5883774280e+00 2.7511504068e+00 
109800 6.2087993432e+00 -1.8984199048e-04 1.5883833836e+00 -2.7511607222e+00 1.5883833836e+00 2.7511607222e+00 
109900 6.2087998757e+00 -1.9036188483e-04 1.5883893595e+00 -2.7511710729e+00 1.5883893595e+00 2.7511710729e+00 
110000 6.2088003990e+00 -1.9075724986e-04 1.5883953518e+00 -2.7511814519e+00 1.5883953518e+00 2.7511814519e+00 
110100 6.2088009131e+00 -1.9103049349e-04 1.5884013565e+00 -2.7511918523e+00 1.5884013565e+00 2.7511918523e+00 
110200 6.2088014180e+00 -1.9118405023e-04 1.5884073698e+00 -2.7512022677e+00 1.5884073698e+00 2.7512022677e+00 
110300 6.2088019138e+00 -1.9122037858e-04 1.5884133879e+00 -2.7512126913e+00 1.5884133879e+00 2.7512126913e+00 
110400 6.2088024005e+00 -1.9114195840e-04 1.5884194072e+00 -2.7512231170e+00 1.5884194072e+00 2.7512231170e+00 
110500 6.2088028783e+00 -1.9095128839e-04 1.5884254239e+00 -2.7512335383e+00 1.5884254239e+00 2.7512335383e+00 
110600 6.2088033471e+00 -1.9065088370e-04 1.5884314346e+00 -2.7512439491e+00 1.5884314346e+00 2.7512439491e+00 
110700 6.2088038071e+00 -1.9024327357e-04 1.5884374359e+00 -2.7512543436e+00 1.5884374359e+00 2.7512543436e+00 
110800 6.2088042584e+00 -1.8973099902e-04 1.5884434242e+00 -2.7512647157e+00 1.5884434242e+00 2.7512647157e+00 
110900 6.2088047009e+00 -1.8911661066e-04 1.5884493965e+00 -2.7512750600e+00 1.5884493965e+00 2.7512750600e+00 
111000 6.2088051348e+00 -1.8840266654e-04 1.5884553494e+00 -2.7512853706e+00 1.5884553494e+00 2.7512853706e+00 
111100 6.2088055602e+00 -1.8759173009e-04 1.5884612797e+00 -2.7512956423e+00 1.5884612797e+00 2.7512956423e+00 
111200 6.2088059771e+00 -1.8668636812e-04 1.5884671846e+00 -2.7513058698e+00 1.5884671846e+00 2.7513058698e+00 
111300 6.2088063857e+00 -1.8568914888e-04 1.5884730609e+00 -2.7513160479e+00 1.5884730609e+00 2.7513160479e+00 
111400 6.2088067861e+00 -1.8460264017e-04 1.5884789058e+00 -2.7513261715e+00 1.5884789058e+00 2.7513261715e+00 
111500 6.2088071783e+00 -1.8342940755e-04 1.5884847164e+00 -2.7513362359e+00 1.5884847164e+00 2.7513362359e+00 
111600 6.2088075624e+00 -1.8217201261e-04 1.5884904902e+00 -2.7513462363e+00 1.5884904902e+00 2.7513462363e+00 
111700 6.2088079387e+00 -1.8083301126e-04 1.5884962243e+00 -2.7513561681e+00 1.5884962243e+00 2.7513561681e+00 
111800 6.2088083070e+00 -1.7941495212e-04 1.5885019163e+00 -2.7513660269e+00 1.5885019163e+00 2.7513660269e+00 
111900 6.2088086677e+00 -1.7792037494e-04 1.5885075636e+00 -2.7513758083e+00 1.5885075636e+00 2.7513758083e+00 
112000 6.2088090208e+00 -1.7635180915e-04 1.5885131638e+00 -2.7513855082e+00 1.5885131638e+00 2.7513855082e+00 
112100 6.2088093664e+00 -1.7471177230e-04 1.5885187146e+00 -2.7513951225e+00 1.5885187146e+00 2.7513951225e+00 
112200 6.2088097046e+00 -1.7300276877e-04 1.5885242139e+00 -2.7514046474e+00 1.5885242139e+00 2.7514046474e+00 
112300 6.2088100356e+00 -1.7122728838e-04 1.5885296592e+00 -2.7514140792e+00 1.5885296592e+00 2.7514140792e+00 
112400 6.2088103594e+00 -1.6938780508e-04 1.5885350487e+00 -2.7514234140e+00 1.5885350487e+00 2.7514234140e+00 
112500 6.2088106763e+00 -1.6748677578e-04 1.5885403803e+00 -2.7514326486e+00 1.5885403803e+00 2.7514326486e+00 
112600 6.2088109862e+00 -1.6552663908e-04 1.5885456520e+00 -2.7514417795e+00 1.5885456520e+00 2.7514417795e+00 
112700 6.2088112894e+00 -1.6350981417e-04 1.5885508620e+00 -2.7514508035e+00 1.5885508620e+00 2.7514508035e+00 
112800 6.2088115860e+00 -1.6143869976e-04 1.5885560086e+00 -2.7514597175e+00 1.5885560086e+00 2.7514597175e+00 
112900 6.2088118761e+00 -1.5931567300e-04 1.5885610899e+00 -2.7514685186e+00 1.5885610899e+00 2.7514685186e+00 
113000 6.2088121598e+00 -1.5714308848e-04 1.5885661043e+00 -2.7514772039e+00 1.5885661043e+00 2.7514772039e+00 
113100 6.2088124373e+00 -1.5492327731e-04 1.5885710504e+00 -2.7514857707e+00 1.5885710504e+00 2.7514857707e+00 
113200 6.2088127086e+00 -1.5265854618e-04 1.5885759266e+00 -2.7514942165e+00 1.5885759266e+00 2.7514942165e+00 
113300 6.2088129740e+00 -1.5035117649e-04 1.5885807315e+00 -2.7515025388e+00 1.5885807315e+00 2.7515025388e+00 
113400 6.2088132335e+00 -1.4800342358e-04 1.5885854637e+00 -2.7515107353e+00 1.5885854637e+00 2.7515107353e+00 
113500 6.2088134873e+00 -1.4561751584e-04 1.5885901221e+00 -2.7515188038e+00 1.5885901221e+00 2.7515188038e+00 
113600 6.2088137355e+00 -1.4319565407e-04 1.5885947053e+00 -2.7515267422e+00 1.5885947053e+00 2.7515267422e+00 
113700 6.2088139782e+00 -1.4074001072e-04 1.5885992123e+00 -2.7515345486e+00 1.5885992123e+00 2.7515345486e+00 
113800 6.2088142156e+00 -1.3825272923e-04 1.5886036420e+00 -2.7515422210e+00 1.5886036420e+00 2.7515422210e+00 
113900 6.2088144478e+00 -1.3573592340e-04 1.5886079934e+00 -2.7515497578e+00 1.5886079934e+00 2.7515497578e+00 
114000 6.2088146748e+00 -1.3319167680e-04 1.5886122656e+00 -2.7515571575e+00 1.5886122656e+00 2.7515571575e+00 
114100 6.2088148969e+00 -1.3062204221e-04 1.5886164576e+00 -2.7515644184e+00 1.5886164576e+00 2.7515644184e+00 
114200 6.2088151141e+00 -1.2802904109e-04 1.5886205688e+00 -2.7515715391e+00 1.5886205688e+00 2.7515715391e+00 
114300 6.2088153266e+00 -1.2541466309e-04 1.5886245984e+00 -2.7515785186e+00 1.5886245984e+00 2.7515785186e+00 
114400 6.2088155345e+00 -1.2278086560e-04 1.5886285457e+00 -2.7515853554e+00 1.5886285457e+00 2.7515853554e+00 
114500 6.2088157379e+00 -1.2012957332e-04 1.5886324100e+00 -2.7515920487e+00 1.5886324100e+00 2.7515920487e+00 
114600 6.2088159370e+00 -1.1746267785e-04 1.5886361909e+00 -2.7515985975e+00 1.5886361909e+00 2.7515985975e+00 
114700 6.2088161317e+00 -1.1478203735e-04 1.5886398879e+00 -2.7516050008e+00 1.5886398879e+00 2.7516050008e+00 
114800 6.2088163223e+00 -1.1208947620e-04 1.5886435005e+00 -2.7516112580e+00 1.5886435005e+00 2.7516112580e+00 
114900 6.2088165089e+00 -1.0938678469e-04 1.5886470283e+00 -2.7516173684e+00 1.5886470283e+00 2.7516173684e+00 
115000 6.2088166916e+00 -1.0667571872e-04 1.5886504711e+00 -2.7516233314e+00 1.5886504711e+00 2.7516233314e+00 
115100 6.2088168704e+00 -1.0395799962e-04 1.5886538285e+00 -2.7516291467e+00 1.5886538285e+00 2.7516291467e+00 
115200 6.2088170455e+00 -1.0123531386e-04 1.5886571004e+00 -2.7516348137e+00 1.5886571004e+00 2.7516348137e+00 
115300 6.2088172170e+00 -9.8509312862e-05 1.5886602866e+00 -2.7516403324e+00 1.5886602866e+00 2.7516403324e+00 
115400 6.2088173850e+00 -9.5781612881e-05 1.5886633870e+00 -2.7516457024e+00 1.5886633870e+00 2.7516457024e+00 
115500 6.2088175495e+00 -9.3053794812e-05 1.5886664015e+00 -2.7516509238e+00 1.5886664015e+00 2.7516509238e+00 
115600 6.2088177108e+00 -9.0327404088e-05 1.5886693302e+00 -2.7516559964e+00 1.5886693302e+00 2.7516559964e+00 
115700 6.2088178688e+00 -8.7603950584e-05 1.5886721731e+00 -2.7516609204e+00 1.5886721731e+00 2.7516609204e+00 
115800 6.2088180237e+00 -8.4884908540e-05 1.5886749302e+00 -2.7516656959e+00 1.5886749302e+00 2.7516656959e+00 
115900 6.2088181755e+00 -8.2171716517e-05 1.5886776018e+00 -2.7516703232e+00 1.5886776018e+00 2.7516703232e+00 
116000 6.2088183244e+00 -7.9465777369e-05 1.5886801880e+00 -2.7516748025e+00 1.5886801880e+00 2.7516748025e+00 
116100 6.2088184704e+00 -7.6768458230e-05 1.5886826890e+00 -2.7516791344e+00 1.5886826890e+00 2.7516791344e+00 
116200 6.2088186136e+00 -7.4081090537e-05 1.5886851051e+00 -2.7516833192e+00 1.5886851051e+00 2.7516833192e+00 
116300 6.2088187541e+00 -7.1404970059e-05 1.5886874366e+00 -2.7516873575e+00 1.5886874366e+00 2.7516873575e+00 
116400 6.2088188919e+00 -6.8741356952e-05 1.5886896839e+00 -2.7516912500e+00 1.5886896839e+00 2.7516912500e+00 
116500 6.2088190274e+00 -6.8549137755e-05 1.5886896839e+00 -2.7516912500e+00 1.5886896839e+00 2.7516912500e+00 
116600 6.2088191604e+00 -6.8285120328e-05 1.5886896839e+00 -2.7516912500e+00 1.5886896839e+00 2.7516912500e+00 
116700 6.2088192909e+00 -6.7950921760e-05 1.5886896839e+00 -2.7516912500e+00 1.5886896839e+00 2.7516912500e+00 
116800 6.2088194191e+00 -6.7548141575e-05 1.5886896839e+00 -2.7516912500e+00 1.5886896839e+00 2.7516912500e+00 
116900 6.2088195449e+00 -6.7078361823e-05 1.5886896839e+00 -2.7516912500e+00 1.5886896839e+00 2.7516912500e+00 
117000 6.2088196685e+00 -6.6543147199e-05 1.5886896839e+00 -2.7516912500e+00 1.5886896839e+00 2.7516912500e+00 
117100 6.2088197900e+00 -6.5944045145e-05 1.5886896839e+00 -2.7516912500e+00 1.5886896839e+00 2.7516912500e+00 
117200 6.2088199093e+00 -6.5282585968e-05 1.5886896839e+00 -2.7516912500e+00 1.5886896839e+00 2.7516912500e+00 
117300 6.2088200266e+00 -6.4560282939e-05 1.5886896839e+00 -2.7516912500e+00 1.5886896839e+00 2.7516912500e+00 
117400 6.2088201418e+00 -6.3778632413e-05 1.5886896839e+00 -2.7516912500e+00 1.5886896839e+00 2.7516912500e+00 
117500 6.2088202551e+00 -6.2939113929e-05 1.5886896839e+00 -2.7516912500e+00 1.5886896839e+00 2.7516912500e+00 
117600 6.2088203665e+00 -6.2043190325e-05 1.5886896839e+00 -2.7516912500e+00 1.5886896839e+00 2.7516912500e+00 
117700 6.2088204761e+00 -6.1092307842e-05 1.5886896839e+00 -2.7516912500e+00 1.5886896839e+00 2.7516912500e+00 
117800 6.2088205838e+00 -6.0087896234e-05 1.5886896839e+00 -2.7516912500e+00 1.5886896839e+00 2.7516912500e+00 
117900 6.2088206898e+00 -5.9031368867e-05 1.5886896839e+00 -2.7516912500e+00 1.5886896839e+00 2.7516912500e+00 
118000 6.2088207941e+00 -5.7924122826e-05 1.5886896839e+00 -2.7516912500e+00 1.5886896839e+00 2.7516912500e+00 
118100 6.2088208967e+00 -5.6767539017e-05 1.5886896839e+00 -2.7516912500e+00 1.5886896839e+00 2.7516912500e+00 
118200 6.2088209977e+00 -5.5562982259e-05 1.5886896839e+00 -2.7516912500e+00 1.5886896839e+00 2.7516912500e+00 
118300 6.2088210971e+00 -5.4311801390e-05 1.5886896839e+00 -2.7516912500e+00 1.5886896839e+00 2.7516912500e+00 
118400 6.2088211949e+00 -5.3015329355e-05 1.5886896839e+00 -2.7516912500e+00 1.5886896839e+00 2.7516912500e+00 
118500 6.2088212912e+00 -5.1674883299e-05 1.5886896839e+00 -2.7516912500e+00 1.5886896839e+00 2.7516912500e+00 
118600 6.2088213860e+00 -5.0291764659e-05 1.5886896839e+00 -2.7516912500e+00 1.5886896839e+00 2.7516912500e+00 
118700 6.2088214794e+00 -4.8867259250e-05 1.5886896839e+00 -2.7516912500e+00 1.5886896839e+00 2.7516912500e+00 
118800 6.2088215714e+00 -4.7402637349e-05 1.5886896839e+00 -2.7516912500e+00 1.5886896839e+00 2.7516912500e+00 
118900 6.2088216620e+00 -4.5899153771e-05 1.5886896839e+00 -2.7516912500e+00 1.5886896839e+00 2.7516912500e+00 
119000 6.2088217512e+00 -4.4358047963e-05 1.5886896839e+00 -2.7516912500e+00 1.5886896839e+00 2.7516912500e+00 
119100 6.2088218391e+00 -4.2780544061e-05 1.5886896839e+00 -2.7516912500e+00 1.5886896839e+00 2.7516912500e+00 
119200 6.2088219256e+00 -4.1167850981e-05 1.5886896839e+00 -2.7516912500e+00 1.5886896839e+00 2.7516912500e+00 
119300 6.2088220109e+00 -3.9521162479e-05 1.5886896839e+00 -2.7516912500e+00 1.5886896839e+00 2.7516912500e+00 
119400 6.2088220950e+00 -3.7841657225e-05 1.5886896839e+00 -2.7516912500e+00 1.5886896839e+00 2.7516912500e+00 
119500 6.2088221778e+00 -3.6130498864e-05 1.5886896839e+00 -2.7516912500e+00 1.5886896839e+00 2.7516912500e+00 
119600 6.2088222594e+00 -3.4388836085e-05 1.5886896839e+00 -2.7516912500e+00 1.5886896839e+00 2.7516912500e+00 
119700 6.2088223398e+00 -3.2617802680e-05 1.5886896839e+00 -2.7516912500e+00 1.5886896839e+00 2.7516912500e+00 
119800 6.2088224191e+00 -3.0818517600e-05 1.5886896839e+00 -2.7516912500e+00 1.5886896839e+00 2.7516912500e+00 
119900 6.2088224972e+00 -2.8992085014e-05 1.5886896839e+00 -2.7516912500e+00 1.5886896839e+00 2.7516912500e+00 
120000 6.2088225741e+00 -2.7139594363e-05 1.5886896839e+00 -2.7516912500e+00 1.5886896839e+00 2.7516912500e+00 
120100 6.2088226500e+00 -2.5262120411e-05 1.5886896839e+00 -2.7516912500e+00 1.5886896839e+00 2.7516912500e+00 
120200 6.2088227248e+00 -2.3360723297e-05 1.5886896839e+00 -2.7516912500e+00 1.5886896839e+00 2.7516912500e+00 
120300 6.2088227985e+00 -2.1436448579e-05 1.5886896839e+00 -2.7516912500e+00 1.5886896839e+00 2.7516912500e+00 
120400 6.2088228711e+00 -1.9490327283e-05 1.5886896839e+00 -2.7516912500e+00 1.5886896839e+00 2.7516912500e+00 
120500 6.2088229427e+00 -1.7523375950e-05 1.5886896839e+00 -2.7516912500e+00 1.5886896839e+00 2.7516912500e+00 
120600 6.2088230132e+00 -1.5536596676e-05 1.5886896839e+00 -2.7516912500e+00 1.5886896839e+00 2.7516912500e+00 
120700 6.2088230828e+00 -1.3530977151e-05 1.5886896839e+00 -2.7516912500e+00 1.5886896839e+00 2.7516912500e+00 
120800 6.2088231513e+00 -1.1507490706e-05 1.5886896839e+00 -2.7516912500e+00 1.5886896839e+00 2.7516912500e+00 
120900 6.2088232189e+00 -9.4670963458e-06 1.5886896839e+00 -2.7516912500e+00 1.5886896839e+00 2.7516912500e+00 
121000 6.2088232855e+00 -7.4107387891e-06 1.5886896839e+00 -2.7516912500e+00 1.5886896839e+00 2.7516912500e+00 
121100 6.2088233511e+00 -5.3393485115e-06 1.5886896839e+00 -2.7516912500e+00 1.5886896839e+00 2.7516912500e+00 
121200 6.2088234157e+00 -3.2538417701e-06 1.5886896839e+00 -2.7516912500e+00 1.5886896839e+00 2.7516912500e+00 
121300 6.2088234794e+00 -1.1551206463e-06 1.5886896839e+00 -2.7516912500e+00 1.5886896839e+00 2.7516912500e+00 
121400 6.2088235422e+00 9.5592691952e-07 1.5886896839e+00 -2.7516912500e+00 1.5886896839e+00 2.7516912500e+00 
121500 6.2088236041e+00 3.0784270935e-06 1.5886896839e+00 -2.7516912500e+00 1.5886896839e+00 2.7516912500e+00 
121600 6.2088236650e+00 5.2115201159e-06 1.5886896839e+00 -2.7516912500e+00 1.5886896839e+00 2.7516912500e+00 
121700 6.2088237251e+00 7.3543602672e-06 1.5886896839e+00 -2.7516912500e+00 1.5886896839e+00 2.7516912500e+00 
121800 6.2088237843e+00 9.5061158328e-06 1.5886896839e+00 -2.7516912500e+00 1.5886896839e+00 2.7516912500e+00 
121900 6.2088238426e+00 1.1665969066e-05 1.5886896839e+00 -2.7516912500e+00 1.5886896839e+00 2.7516912500e+00 
122000 6.2088239000e+00 1.3833116158e-05 1.5886896839e+00 -2.7516912500e+00 1.5886896839e+00 2.7516912500e+00 
122100 6.2088239566e+00 1.6006767207e-05 1.5886896839e+00 -2.7516912500e+00 1.5886896839e+00 2.7516912500e+00 
122200 6.2088240123e+00 1.8186146171e-05 1.5886896839e+00 -2.7516912500e+00 1.5886896839e+00 2.7516912500e+00 
122300 6.2088240672e+00 2.0370490845e-05 1.5886896839e+00 -2.7516912500e+00 1.5886896839e+00 2.7516912500e+00 
122400 6.2088241212e+00 2.2559052817e-05 1.5886896839e+00 -2.7516912500e+00 1.5886896839e+00 2.7516912500e+00 
122500 6.2088241745e+00 2.4751097431e-05 1.5886896839e+00 -2.7516912500e+00 1.5886896839e+00 2.7516912500e+00 
122600 6.2088242269e+00 2.6945903753e-05 1.5886896839e+00 -2.7516912500e+00 1.5886896839e+00 2.7516912500e+00 
122700 6.2088242785e+00 2.9142764533e-05 1.5886896839e+00 -2.7516912500e+00 1.5886896839e+00 2.7516912500e+00 
122800 6.2088243293e+00 3.1340986156e-05 1.5886896839e+00 -2.7516912500e+00 1.5886896839e+00 2.7516912500e+00 
122900 6.2088243794e+00 3.3539888612e-05 1.5886896839e+00 -2.7516912500e+00 1.5886896839e+00 2.7516912500e+00 
123000 6.2088244286e+00 3.5738805444e-05 1.5886896839e+00 -2.7516912500e+00 1.5886896839e+00 2.7516912500e+00 
123100 6.2088244771e+00 3.7937083712e-05 1.5886896839e+00 -2.7516912500e+00 1.5886896839e+00 2.7516912500e+00 
123200 6.2088245248e+00 4.0134083941e-05 1.5886896839e+00 -2.7516912500e+00 1.5886896839e+00 2.7516912500e+00 
123300 6.2088245718e+00 4.2329180077e-05 1.5886896839e+00 -2.7516912500e+00 1.5886896839e+00 2.7516912500e+00 
123400 6.2088246180e+00 4.4521759440e-05 1.5886896839e+00 -2.7516912500e+00 1.5886896839e+00 2.7516912500e+00 
123500 6.2088246635e+00 4.6711222670e-05 1.5886896839e+00 -2.7516912500e+00 1.5886896839e+00 2.7516912500e+00 
123600 6.2088247083e+00 4.8896983676e-05 1.5886896839e+00 -2.7516912500e+00 1.5886896839e+00 2.7516912500e+00 
123700 6.2088247523e+00 5.1078469587e-05 1.5886896839e+00 -2.7516912500e+00 1.5886896839e+00 2.7516912500e+00 
123800 6.2088247957e+00 5.3255120684e-05 1.5886896839e+00 -2.7516912500e+00 1.5886896839e+00 2.7516912500e+00 
123900 6.2088248383e+00 5.5426390358e-05 1.5886896839e+00 -2.7516912500e+00 1.5886896839e+00 2.7516912500e+00 
124000 6.2088248803e+00 5.7591745035e-05 1.5886896839e+00 -2.7516912500e+00 1.5886896839e+00 2.7516912500e+00 
124100 6.2088249215e+00 5.9750664127e-05 1.5886896839e+00 -2.7516912500e+00 1.5886896839e+00 2.7516912500e+00 
124200 6.2088249621e+00 6.1902639957e-05 1.5886896839e+00 -2.7516912500e+00 1.5886896839e+00 2.7516912500e+00 
124300 6.2088250020e+00 6.4047177703e-05 1.5886896839e+00 -2.7516912500e+00 1.5886896839e+00 2.7516912500e+00 
124400 6.2088250413e+00 6.6183795316e-05 1.5886896839e+00 -2.7516912500e+00 1.5886896839e+00 2.7516912500e+00 
124500 6.2088250799e+00 6.8312023464e-05 1.5886896839e+00 -2.7516912500e+00 1.5886896839e+00 2.7516912500e+00 
124600 6.2088251179e+00 7.0431405451e-05 1.5886896839e+00 -2.7516912500e+00 1.5886896839e+00 2.7516912500e+00 
124700 6.2088251552e+00 7.2541497138e-05 1.5886896839e+00 -2.7516912500e+00 1.5886896839e+00 2.7516912500e+00 
124800 6.2088251917e+00 7.2048909008e-05 1.5886874008e+00 -2.7516872956e+00 1.5886874008e+00 2.7516872956e+00 
124900 6.2088252276e+00 7.1555232112e-05 1.5886851333e+00 -2.7516833680e+00 1.5886851333e+00 2.7516833680e+00 
125000 6.2088252628e+00 7.1059909701e-05 1.5886828812e+00 -2.7516794674e+00 1.5886828812e+00 2.7516794674e+00 
125100 6.2088252975e+00 7.0562435849e-05 1.5886806448e+00 -2.7516755938e+00 1.5886806448e+00 2.7516755938e+00 
125200 6.2088253317e+00 7.2584610629e-05 1.5886806448e+00 -2.7516755938e+00 1.5886806448e+00 2.7516755938e+00 
125300 6.2088253652e+00 7.1999672860e-05 1.5886783604e+00 -2.7516716370e+00 1.5886783604e+00 2.7516716370e+00 
125400 6.2088253980e+00 7.1414214401e-05 1.5886760943e+00 -2.7516677122e+00 1.5886760943e+00 2.7516677122e+00 
125500 6.2088254303e+00 7.0827791871e-05 1.5886738467e+00 -2.7516638192e+00 1.5886738467e+00 2.7516638192e+00 
125600 6.2088254621e+00 7.0240006756e-05 1.5886716176e+00 -2.7516599582e+00 1.5886716176e+00 2.7516599582e+00 
125700 6.2088254934e+00 7.2161275156e-05 1.5886716176e+00 -2.7516599582e+00 1.5886716176e+00 2.7516599582e+00 
125800 6.2088255241e+00 7.1488275309e-05 1.5886693465e+00 -2.7516560245e+00 1.5886693465e+00 2.7516560245e+00 
125900 6.2088255541e+00 7.0815818782e-05 1.5886670965e+00 -2.7516521275e+00 1.5886670965e+00 2.7516521275e+00 
126000 6.2088255837e+00 7.0143548062e-05 1.5886648678e+00 -2.7516482672e+00 1.5886648678e+00 2.7516482672e+00 
126100 6.2088256129e+00 7.1978499185e-05 1.5886648678e+00 -2.7516482672e+00 1.5886648678e+00 2.7516482672e+00 
126200 6.2088256414e+00 7.1224332327e-05 1.5886626024e+00 -2.7516443434e+00 1.5886626024e+00 2.7516443434e+00 
126300 6.2088256695e+00 7.0472358904e-05 1.5886603607e+00 -2.7516404608e+00 1.5886603607e+00 2.7516404608e+00 
126400 6.2088256972e+00 7.2241378731e-05 1.5886603607e+00 -2.7516404608e+00 1.5886603607e+00 2.7516404608e+00 
126500 6.2088257242e+00 7.1411112056e-05 1.5886580871e+00 -2.7516365227e+00 1.5886580871e+00 2.7516365227e+00 
126600 6.2088257508e+00 7.0585028417e-05 1.5886558396e+00 -2.7516326298e+00 1.5886558396e+00 2.7516326298e+00 
126700 6.2088257770e+00 7.2285963179e-05 1.5886558396e+00 -2.7516326298e+00 1.5886558396e+00 2.7516326298e+00 
126800 6.2088258027e+00 7.1385396734e-05 1.5886535645e+00 -2.7516286893e+00 1.5886535645e+00 2.7516286893e+00 
126900 6.2088258278e+00 7.0490969211e-05 1.5886513178e+00 -2.7516247979e+00 1.5886513178e+00 2.7516247979e+00 
127000 6.2088258527e+00 7.2122159903e-05 1.5886513178e+00 -2.7516247979e+00 1.5886513178e+00 2.7516247979e+00 
127100 6.2088258770e+00 7.1157226615e-05 1.5886490478e+00 -2.7516208663e+00 1.5886490478e+00 2.7516208663e+00 
127200 6.2088259008e+00 7.0200340405e-05 1.5886468083e+00 -2.7516169872e+00 1.5886468083e+00 2.7516169872e+00 
127300 6.2088259245e+00 7.1760596148e-05 1.5886468083e+00 -2.7516169872e+00 1.5886468083e+00 2.7516169872e+00 
127400 6.2088259475e+00 7.0737309200e-05 1.5886445497e+00 -2.7516130753e+00 1.5886445497e+00 2.7516130753e+00 
127500 6.2088259701e+00 6.9723917332e-05 1.5886423234e+00 -2.7516092192e+00 1.5886423234e+00 2.7516092192e+00 
127600 6.2088259925e+00 7.1212487955e-05 1.5886423234e+00 -2.7516092192e+00 1.5886423234e+00 2.7516092192e+00 
127700 6.2088260143e+00 7.0136892173e-05 1.5886400821e+00 -2.7516053371e+00 1.5886400821e+00 2.7516053371e+00 
127800 6.2088260359e+00 7.1580194494e-05 1.5886400821e+00 -2.7516053371e+00 1.5886400821e+00 2.7516053371e+00 
127900 6.2088260569e+00 7.0446189292e-05 1.5886378292e+00 -2.7516014351e+00 1.5886378292e+00 2.7516014351e+00 
128000 6.2088260778e+00 7.1844225225e-05 1.5886378292e+00 -2.7516014351e+00 1.5886378292e+00 2.7516014351e+00 
128100 6.2088260981e+00 7.0655554356e-05 1.5886355680e+00 -2.7515975186e+00 1.5886355680e+00 2.7515975186e+00 
128200 6.2088261182e+00 7.2008408756e-05 1.5886355680e+00 -2.7515975186e+00 1.5886355680e+00 2.7515975186e+00 
128300 6.2088261378e+00 7.0768760591e-05 1.5886333017e+00 -2.7515935931e+00 1.5886333017e+00 2.7515935931e+00 
128400 6.2088261571e+00 6.9546754277e-05 1.5886310743e+00 -2.7515897352e+00 1.5886310743e+00 2.7515897352e+00 
128500 6.2088261762e+00 7.0828011026e-05 1.5886310743e+00 -2.7515897352e+00 1.5886310743e+00 2.7515897352e+00 
128600 6.2088261948e+00 6.9559014162e-05 1.5886288451e+00 -2.7515858741e+00 1.5886288451e+00 2.7515858741e+00 
128700 6.2088262132e+00 7.0795569230e-05 1.5886288451e+00 -2.7515858741e+00 1.5886288451e+00 2.7515858741e+00 
128800 6.2088262312e+00 6.9483203121e-05 1.5886266169e+00 -2.7515820148e+00 1.5886266169e+00 2.7515820148e+00 
128900 6.2088262490e+00 7.0675438720e-05 1.5886266169e+00 -2.7515820148e+00 1.5886266169e+00 2.7515820148e+00 
129000 6.2088262665e+00 7.1849784012e-05 1.5886266169e+00 -2.7515820148e+00 1.5886266169e+00 2.7515820148e+00 
129100 6.2088262836e+00 7.0437961114e-05 1.5886243555e+00 -2.7515780979e+00 1.5886243555e+00 2.7515780979e+00 
129200 6.2088263005e+00 7.1568769815e-05 1.5886243555e+00 -2.7515780979e+00 1.5886243555e+00 2.7515780979e+00 
129300 6.2088263169e+00 7.0123673362e-05 1.5886221030e+00 -2.7515741964e+00 1.5886221030e+00 2.7515741964e+00 
129400 6.2088263333e+00 7.1211444936e-05 1.5886221030e+00 -2.7515741964e+00 1.5886221030e+00 2.7515741964e+00 
129500 6.2088263492e+00 6.9736327598e-05 1.5886198617e+00 -2.7515703144e+00 1.5886198617e+00 2.7515703144e+00 
129600 6.2088263650e+00 7.0781619655e-05 1.5886198617e+00 -2.7515703144e+00 1.5886198617e+00 2.7515703144e+00 
129700 6.2088263804e+00 6.9279654479e-05 1.5886176339e+00 -2.7515664558e+00 1.5886176339e+00 2.7515664558e+00 
129800 6.2088263957e+00 7.0283079161e-05 1.5886176339e+00 -2.7515664558e+00 1.5886176339e+00 2.7515664558e+00 
129900 6.2088264107e+00 7.1269904539e-05 1.5886176339e+00 -2.7515664558e+00 1.5886176339e+00 2.7515664558e+00 
130000 6.2088264253e+00 6.9692585749e-05 1.5886153908e+00 -2.7515625705e+00 1.5886153908e+00 2.7515625705e+00 
130100 6.2088264398e+00 7.0638646408e-05 1.5886153908e+00 -2.7515625705e+00 1.5886153908e+00 2.7515625705e+00 
130200 6.2088264541e+00 7.1568694429e-05 1.5886153908e+00 -2.7515625705e+00 1.5886153908e+00 2.7515625705e+00 
130300 6.2088264680e+00 6.9924499768e-05 1.5886131382e+00 -2.7515586690e+00 1.5886131382e+00 2.7515586690e+00 
130400 6.2088264818e+00 7.0814935668e-05 1.5886131382e+00 -2.7515586690e+00 1.5886131382e+00 2.7515586690e+00 
130500 6.2088264952e+00 6.9158380225e-05 1.5886109094e+00 -2.7515548086e+00 1.5886109094e+00 2.7515548086e+00 
130600 6.2088265086e+00 7.0009930428e-05 1.5886109094e+00 -2.7515548086e+00 1.5886109094e+00 2.7515548086e+00 
130700 6.2088265218e+00 7.0846401029e-05 1.5886109094e+00 -2.7515548086e+00 1.5886109094e+00 2.7515548086e+00 
130800 6.2088265346e+00 6.9135376648e-05 1.5886086796e+00 -2.7515509464e+00 1.5886086796e+00 2.7515509464e+00 
130900 6.2088265473e+00 6.9934219501e-05 1.5886086796e+00 -2.7515509464e+00 1.5886086796e+00 2.7515509464e+00 
131000 6.2088265598e+00 7.0718616930e-05 1.5886086796e+00 -2.7515509464e+00 1.5886086796e+00 2.7515509464e+00 
131100 6.2088265720e+00 6.8960715198e-05 1.5886064538e+00 -2.7515470912e+00 1.5886064538e+00 2.7515470912e+00 
131200 6.2088265841e+00 6.9708773366e-05 1.5886064538e+00 -2.7515470912e+00 1.5886064538e+00 2.7515470912e+00 
131300 6.2088265961e+00 7.0443025375e-05 1.5886064538e+00 -2.7515470912e+00 1.5886064538e+00 2.7515470912e+00 
131400 6.2088266078e+00 7.1163770298e-05 1.5886064538e+00 -2.7515470912e+00 1.5886064538e+00 2.7515470912e+00 
131500 6.2088266192e+00 6.9327228525e-05 1.5886042140e+00 -2.7515432117e+00 1.5886042140e+00 2.7515432117e+00 
131600 6.2088266306e+00 7.0013444414e-05 1.5886042140e+00 -2.7515432117e+00 1.5886042140e+00 2.7515432117e+00 
131700 6.2088266418e+00 7.0686776798e-05 1.5886042140e+00 -2.7515432117e+00 1.5886042140e+00 2.7515432117e+00 
131800 6.2088266528e+00 7.1347519704e-05 1.5886042140e+00 -2.7515432117e+00 1.5886042140e+00 2.7515432117e+00 
131900 6.2088266635e+00 6.9445311952e-05 1.5886019684e+00 -2.7515393222e+00 1.5886019684e+00 2.7515393222e+00 
132000 6.2088266742e+00 7.0073323286e-05 1.5886019684e+00 -2.7515393222e+00 1.5886019684e+00 2.7515393222e+00 
132100 6.2088266847e+00 7.0689351843e-05 1.5886019684e+00 -2.7515393222e+00 1.5886019684e+00 2.7515393222e+00 
132200 6.2088266950e+00 7.1293685914e-05 1.5886019684e+00 -2.7515393222e+00 1.5886019684e+00 2.7515393222e+00 
132300 6.2088267050e+00 6.9337875662e-05 1.5885997245e+00 -2.7515354357e+00 1.5885997245e+00 2.7515354357e+00 
132400 6.2088267151e+00 6.9911256453e-05 1.5885997245e+00 -2.7515354357e+00 1.5885997245e+00 2.7515354357e+00 
132500 6.2088267250e+00 7.0473531485e-05 1.5885997245e+00 -2.7515354357e+00 1.5885997245e+00 2.7515354357e+00 
132600 6.2088267347e+00 7.1024982665e-05 1.5885997245e+00 -2.7515354357e+00 1.5885997245e+00 2.7515354357e+00 
132700 6.2088267441e+00 6.9026752552e-05 1.5885974890e+00 -2.7515315637e+00 1.5885974890e+00 2.7515315637e+00 
132800 6.2088267535e+00 6.9549003590e-05 1.5885974890e+00 -2.7515315637e+00 1.5885974890e+00 2.7515315637e+00 
132900 6.2088267628e+00 7.0061000509e-05 1.5885974890e+00 -2.7515315637e+00 1.5885974890e+00 2.7515315637e+00 
133000 6.2088267719e+00 7.0563018262e-05 1.5885974890e+00 -2.7515315637e+00 1.5885974890e+00 2.7515315637e+00 
133100 6.2088267809e+00 7.1055325725e-05 1.5885974890e+00 -2.7515315637e+00 1.5885974890e+00 2.7515315637e+00 
133200 6.2088267896e+00 6.8997961651e-05 1.5885952526e+00 -2.7515276901e+00 1.5885952526e+00 2.7515276901e+00 
133300 6.2088267983e+00 6.9463253117e-05 1.5885952526e+00 -2.7515276901e+00 1.5885952526e+00 2.7515276901e+00 
133400 6.2088268069e+00 6.9919364681e-05 1.5885952526e+00 -2.7515276901e+00 1.5885952526e+00 2.7515276901e+00 
133500 6.2088268154e+00 7.0366558179e-05 1.5885952526e+00 -2.7515276901e+00 1.5885952526e+00 2.7515276901e+00 
133600 6.2088268237e+00 7.0805089363e-05 1.5885952526e+00 -2.7515276901e+00 1.5885952526e+00 2.7515276901e+00 
133700 6.2088268317e+00 6.8703923917e-05 1.5885930240e+00 -2.7515238302e+00 1.5885930240e+00 2.7515238302e+00 
133800 6.2088268398e+00 6.9117524999e-05 1.5885930240e+00 -2.7515238302e+00 1.5885930240e+00 2.7515238302e+00 
133900 6.2088268477e+00 6.9522955649e-05 1.5885930240e+00 -2.7515238302e+00 1.5885930240e+00 2.7515238302e+00 
134000 6.2088268556e+00 6.9920464537e-05 1.5885930240e+00 -2.7515238302e+00 1.5885930240e+00 2.7515238302e+00 
134100 6.2088268633e+00 7.0310294264e-05 1.5885930240e+00 -2.7515238302e+00 1.5885930240e+00 2.7515238302e+00 
134200 6.2088268709e+00 7.0692681458e-05 1.5885930240e+00 -2.7515238302e+00 1.5885930240e+00 2.7515238302e+00 
134300 6.2088268784e+00 7.1067856855e-05 1.5885930240e+00 -2.7515238302e+00 1.5885930240e+00 2.7515238302e+00 
134400 6.2088268856e+00 6.8895363797e-05 1.5885907872e+00 -2.7515199559e+00 1.5885907872e+00 2.7515199559e+00 
134500 6.2088268928e+00 6.9248404714e-05 1.5885907872e+00 -2.7515199559e+00 1.5885907872e+00 2.7515199559e+00 
134600 6.2088269000e+00 6.9594651089e-05 1.5885907872e+00 -2.7515199559e+00 1.5885907872e+00 2.7515199559e+00 
134700 6.2088269070e+00 6.9934327493e-05 1.5885907872e+00 -2.7515199559e+00 1.5885907872e+00 2.7515199559e+00 
134800 6.2088269140e+00 7.0267652650e-05 1.5885907872e+00 -2.7515199559e+00 1.5885907872e+00 2.7515199559e+00 
134900 6.2088269208e+00 7.0594839531e-05 1.5885907872e+00 -2.7515199559e+00 1.5885907872e+00 2.7515199559e+00 
135000 6.2088269275e+00 7.0916095455e-05 1.5885907872e+00 -2.7515199559e+00 1.5885907872e+00 2.7515199559e+00 
135100 6.2088269340e+00 6.8696362449e-05 1.5885885552e+00 -2.7515160899e+00 1.5885885552e+00 2.7515160899e+00 
135200 6.2088269405e+00 6.8997993890e-05 1.5885885552e+00 -2.7515160899e+00 1.5885885552e+00 2.7515160899e+00 
135300 6.2088269469e+00 6.9294043305e-05 1.5885885552e+00 -2.7515160899e+00 1.5885885552e+00 2.7515160899e+00 
135400 6.2088269533e+00 6.9584712744e-05 1.5885885552e+00 -2.7515160899e+00 1.5885885552e+00 2.7515160899e+00 
135500 6.2088269595e+00 6.9870198656e-05 1.5885885552e+00 -2.7515160899e+00 1.5885885552e+00 2.7515160899e+00 
135600 6.2088269656e+00 7.0150691981e-05 1.5885885552e+00 -2.7515160899e+00 1.5885885552e+00 2.7515160899e+00 
135700 6.2088269717e+00 7.0426378251e-05 1.5885885552e+00 -2.7515160899e+00 1.5885885552e+00 2.7515160899e+00 
135800 6.2088269777e+00 7.0697437677e-05 1.5885885552e+00 -2.7515160899e+00 1.5885885552e+00 2.7515160899e+00 
135900 6.2088269835e+00 7.0964045257e-05 1.5885885552e+00 -2.7515160899e+00 1.5885885552e+00 2.7515160899e+00 
136000 6.2088269891e+00 6.8689395482e-05 1.5885863216e+00 -2.7515122213e+00 1.5885863216e+00 2.7515122213e+00 
136100 6.2088269948e+00 6.8939235634e-05 1.5885863216e+00 -2.7515122213e+00 1.5885863216e+00 2.7515122213e+00 
136200 6.2088270004e+00 6.9184878405e-05 1.5885863216e+00 -2.7515122213e+00 1.5885863216e+00 2.7515122213e+00 
136300 6.2088270059e+00 6.9426495285e-05 1.5885863216e+00 -2.7515122213e+00 1.5885863216e+00 2.7515122213e+00 
136400 6.2088270114e+00 6.9664252601e-05 1.5885863216e+00 -2.7515122213e+00 1.5885863216e+00 2.7515122213e+00 
136500 6.2088270167e+00 6.9898311606e-05 1.5885863216e+00 -2.7515122213e+00 1.5885863216e+00 2.7515122213e+00 
136600 6.2088270220e+00 7.0128828578e-05 1.5885863216e+00 -2.7515122213e+00 1.5885863216e+00 2.7515122213e+00 
136700 6.2088270272e+00 7.0355954914e-05 1.5885863216e+00 -2.7515122213e+00 1.5885863216e+00 2.7515122213e+00 
136800 6.2088270323e+00 7.0579837231e-05 1.5885863216e+00 -2.7515122213e+00 1.5885863216e+00 2.7515122213e+00 
136900 6.2088270374e+00 7.0800617446e-05 1.5885863216e+00 -2.7515122213e+00 1.5885863216e+00 2.7515122213e+00 
137000 6.2088270421e+00 6.8487299505e-05 1.5885840932e+00 -2.7515083615e+00 1.5885840932e+00 2.7515083615e+00 
137100 6.2088270470e+00 6.8693933597e-05 1.5885840932e+00 -2.7515083615e+00 1.5885840932e+00 2.7515083615e+00 
137200 6.2088270519e+00 6.8897624564e-05 1.5885840932e+00 -2.7515083615e+00 1.5885840932e+00 2.7515083615e+00 
137300 6.2088270566e+00 6.9098512866e-05 1.5885840932e+00 -2.7515083615e+00 1.5885840932e+00 2.7515083615e+00 
137400 6.2088270613e+00 6.9296734316e-05 1.5885840932e+00 -2.7515083615e+00 1.5885840932e+00 2.7515083615e+00 
137500 6.2088270659e+00 6.9492420168e-05 1.5885840932e+00 -2.7515083615e+00 1.5885840932e+00 2.7515083615e+00 
137600 6.2088270704e+00 6.9685697208e-05 1.5885840932e+00 -2.7515083615e+00 1.5885840932e+00 2.7515083615e+00 
137700 6.2088270749e+00 6.9876687848e-05 1.5885840932e+00 -2.7515083615e+00 1.5885840932e+00 2.7515083615e+00 
137800 6.2088270793e+00 7.0065510217e-05 1.5885840932e+00 -2.7515083615e+00 1.5885840932e+00 2.7515083615e+00 
137900 6.2088270836e+00 7.0252278246e-05 1.5885840932e+00 -2.7515083615e+00 1.5885840932e+00 2.7515083615e+00 
138000 6.2088270879e+00 7.0437101763e-05 1.5885840932e+00 -2.7515083615e+00 1.5885840932e+00 2.7515083615e+00 
138100 6.2088270921e+00 7.0620086574e-05 1.5885840932e+00 -2.7515083615e+00 1.5885840932e+00 2.7515083615e+00 
138200 6.2088270962e+00 7.0801334562e-05 1.5885840932e+00 -2.7515083615e+00 1.5885840932e+00 2.7515083615e+00 
138300 6.2088271001e+00 6.8449786861e-05 1.5885818648e+00 -2.7515045018e+00 1.5885818648e+00 2.7515045018e+00 
138400 6.2088271041e+00 6.8619501643e-05 1.5885818648e+00 -2.7515045018e+00 1.5885818648e+00 2.7515045018e+00 
138500 6.2088271080e+00 6.8787523018e-05 1.5885818648e+00 -2.7515045018e+00 1.5885818648e+00 2.7515045018e+00 
138600 6.2088271119e+00 6.8953954396e-05 1.5885818648e+00 -2.7515045018e+00 1.5885818648e+00 2.7515045018e+00 
138700 6.2088271158e+00 6.9118895265e-05 1.5885818648e+00 -2.7515045018e+00 1.5885818648e+00 2.7515045018e+00 
138800 6.2088271195e+00 6.9282441282e-05 1.5885818648e+00 -2.7515045018e+00 1.5885818648e+00 2.7515045018e+00 
138900 6.2088271233e+00 6.9444684351e-05 1.5885818648e+00 -2.7515045018e+00 1.5885818648e+00 2.7515045018e+00 
139000 6.2088271269e+00 6.9605712715e-05 1.5885818648e+00 -2.7515045018e+00 1.5885818648e+00 2.7515045018e+00 
139100 6.2088271305e+00 6.9765611024e-05 1.5885818648e+00 -2.7515045018e+00 1.5885818648e+00 2.7515045018e+00 
139200 6.2088271341e+00 6.9924460436e-05 1.5885818648e+00 -2.7515045018e+00 1.5885818648e+00 2.7515045018e+00 
139300 6.2088271376e+00 7.0082338681e-05 1.5885818648e+00 -2.7515045018e+00 1.5885818648e+00 2.7515045018e+00 
139400 6.2088271410e+00 7.0239320152e-05 1.5885818648e+00 -2.7515045018e+00 1.5885818648e+00 2.7515045018e+00 
139500 6.2088271444e+00 7.0395475984e-05 1.5885818648e+00 -2.7515045018e+00 1.5885818648e+00 2.7515045018e+00 
139600 6.2088271478e+00 7.0550874126e-05 1.5885818648e+00 -2.7515045018e+00 1.5885818648e+00 2.7515045018e+00 
139700 6.2088271511e+00 7.0705579427e-05 1.5885818648e+00 -2.7515045018e+00 1.5885818648e+00 2.7515045018e+00 
139800 6.2088271543e+00 7.0859653713e-05 1.5885818648e+00 -2.7515045018e+00 1.5885818648e+00 2.7515045018e+00 
139900 6.2088271573e+00 6.8479918045e-05 1.5885796345e+00 -2.7515006388e+00 1.5885796345e+00 2.7515006388e+00 
140000 6.2088271604e+00 6.8624546681e-05 1.5885796345e+00 -2.7515006388e+00 1.5885796345e+00 2.7515006388e+00 
140100 6.2088271635e+00 6.8768472720e-05 1.5885796345e+00 -2.7515006388e+00 1.5885796345e+00 2.7515006388e+00 
140200 6.2088271666e+00 6.8911763036e-05 1.5885796345e+00 -2.7515006388e+00 1.5885796345e+00 2.7515006388e+00 
140300 6.2088271696e+00 6.9054481431e-05 1.5885796345e+00 -2.7515006388e+00 1.5885796345e+00 2.7515006388e+00 
140400 6.2088271726e+00 6.9196688713e-05 1.5885796345e+00 -2.7515006388e+00 1.5885796345e+00 2.7515006388e+00 
140500 6.2088271755e+00 6.9338442763e-05 1.5885796345e+00 -2.7515006388e+00 1.5885796345e+00 2.7515006388e+00 
140600 6.2088271784e+00 6.9479798616e-05 1.5885796345e+00 -2.7515006388e+00 1.5885796345e+00 2.7515006388e+00 
140700 6.2088271812e+00 6.9620808522e-05 1.5885796345e+00 -2.7515006388e+00 1.5885796345e+00 2.7515006388e+00 
140800 6.2088271840e+00 6.9761522023e-05 1.5885796345e+00 -2.7515006388e+00 1.5885796345e+00 2.7515006388e+00 
140900 6.2088271867e+00 6.9901986025e-05 1.5885796345e+00 -2.7515006388e+00 1.5885796345e+00 2.7515006388e+00 
141000 6.2088271894e+00 7.0042244860e-05 1.5885796345e+00 -2.7515006388e+00 1.5885796345e+00 2.7515006388e+00 
141100 6.2088271921e+00 7.0182340358e-05 1.5885796345e+00 -2.7515006388e+00 1.5885796345e+00 2.7515006388e+00 
141200 6.2088271947e+00 7.0322311919e-05 1.5885796345e+00 -2.7515006388e+00 1.5885796345e+00 2.7515006388e+00 
141300 6.2088271973e+00 7.0462196568e-05 1.5885796345e+00 -2.7515006388e+00 1.5885796345e+00 2.7515006388e+00 
141400 6.2088271999e+00 7.0602029036e-05 1.5885796345e+00 -2.7515006388e+00 1.5885796345e+00 2.7515006388e+00 
141500 6.2088272024e+00 7.0741841812e-05 1.5885796345e+00 -2.7515006388e+00 1.5885796345e+00 2.7515006388e+00 
141600 6.2088272047e+00 6.8352642453e-05 1.5885774079e+00 -2.7514967823e+00 1.5885774079e+00 2.7514967823e+00 
141700 6.2088272071e+00 6.8484160593e-05 1.5885774079e+00 -2.7514967823e+00 1.5885774079e+00 2.7514967823e+00 
141800 6.2088272095e+00 6.8615504520e-05 1.5885774079e+00 -2.7514967823e+00 1.5885774079e+00 2.7514967823e+00 
141900 6.2088272119e+00 6.8746714776e-05 1.5885774079e+00 -2.7514967823e+00 1.5885774079e+00 2.7514967823e+00 
142000 6.2088272142e+00 6.8877829564e-05 1.5885774079e+00 -2.7514967823e+00 1.5885774079e+00 2.7514967823e+00 
142100 6.2088272165e+00 6.9008884804e-05 1.5885774079e+00 -2.7514967823e+00 1.5885774079e+00 2.7514967823e+00 
142200 6.2088272188e+00 6.9139914199e-05 1.5885774079e+00 -2.7514967823e+00 1.5885774079e+00 2.7514967823e+00 
142300 6.2088272210e+00 6.9270949292e-05 1.5885774079e+00 -2.7514967823e+00 1.5885774079e+00 2.7514967823e+00 
142400 6.2088272232e+00 6.9402019527e-05 1.5885774079e+00 -2.7514967823e+00 1.5885774079e+00 2.7514967823e+00 
142500 6.2088272253e+00 6.9533152306e-05 1.5885774079e+00 -2.7514967823e+00 1.5885774079e+00 2.7514967823e+00 
142600 6.2088272275e+00 6.9664373050e-05 1.5885774079e+00 -2.7514967823e+00 1.5885774079e+00 2.7514967823e+00 
142700 6.2088272296e+00 6.9795705250e-05 1.5885774079e+00 -2.7514967823e+00 1.5885774079e+00 2.7514967823e+00 
142800 6.2088272317e+00 6.9927170533e-05 1.5885774079e+00 -2.7514967823e+00 1.5885774079e+00 2.7514967823e+00 
142900 6.2088272337e+00 7.0058788712e-05 1.5885774079e+00 -2.7514967823e+00 1.5885774079e+00 2.7514967823e+00 
143000 6.2088272357e+00 7.0190577841e-05 1.5885774079e+00 -2.7514967823e+00 1.5885774079e+00 2.7514967823e+00 
143100 6.2088272377e+00 7.0322554270e-05 1.5885774079e+00 -2.7514967823e+00 1.5885774079e+00 2.7514967823e+00 
143200 6.2088272396e+00 7.0454732705e-05 1.5885774079e+00 -2.7514967823e+00 1.5885774079e+00 2.7514967823e+00 
143300 6.2088272416e+00 7.0587126250e-05 1.5885774079e+00 -2.7514967823e+00 1.5885774079e+00 2.7514967823e+00 
143400 6.2088272435e+00 7.0719746469e-05 1.5885774079e+00 -2.7514967823e+00 1.5885774079e+00 2.7514967823e+00 
143500 6.2088272451e+00 6.8324373436e-05 1.5885751820e+00 -2.7514929269e+00 1.5885751820e+00 2.7514929269e+00 
143600 6.2088272470e+00 6.8449133596e-05 1.5885751820e+00 -2.7514929269e+00 1.5885751820e+00 2.7514929269e+00 
143700 6.2088272488e+00 6.8573907272e-05 1.5885751820e+00 -2.7514929269e+00 1.5885751820e+00 2.7514929269e+00 
143800 6.2088272506e+00 6.8698716718e-05 1.5885751820e+00 -2.7514929269e+00 1.5885751820e+00 2.7514929269e+00 
143900 6.2088272524e+00 6.8823582476e-05 1.5885751820e+00 -2.7514929269e+00 1.5885751820e+00 2.7514929269e+00 
144000 6.2088272541e+00 6.8948523426e-05 1.5885751820e+00 -2.7514929269e+00 1.5885751820e+00 2.7514929269e+00 
144100 6.2088272558e+00 6.9073556832e-05 1.5885751820e+00 -2.7514929269e+00 1.5885751820e+00 2.7514929269e+00 
144200 6.2088272575e+00 6.9198698396e-05 1.5885751820e+00 -2.7514929269e+00 1.5885751820e+00 2.7514929269e+00 
144300 6.2088272592e+00 6.9323962300e-05 1.5885751820e+00 -2.7514929269e+00 1.5885751820e+00 2.7514929269e+00 
144400 6.2088272608e+00 6.9449361256e-05 1.5885751820e+00 -2.7514929269e+00 1.5885751820e+00 2.7514929269e+00 
144500 6.2088272624e+00 6.9574906551e-05 1.5885751820e+00 -2.7514929269e+00 1.5885751820e+00 2.7514929269e+00 
144600 6.2088272640e+00 6.9700608094e-05 1.5885751820e+00 -2.7514929269e+00 1.5885751820e+00 2.7514929269e+00 
144700 6.2088272656e+00 6.9826474459e-05 1.5885751820e+00 -2.7514929269e+00 1.5885751820e+00 2.7514929269e+00 
144800 6.2088272671e+00 6.9952512933e-05 1.5885751820e+00 -2.7514929269e+00 1.5885751820e+00 2.7514929269e+00 
144900 6.2088272687e+00 7.0078729558e-05 1.5885751820e+00 -2.7514929269e+00 1.5885751820e+00 2.7514929269e+00 
145000 6.2088272702e+00 7.0205129171e-05 1.5885751820e+00 -2.7514929269e+00 1.5885751820e+00 2.7514929269e+00 
145100 6.2088272717e+00 7.0331715456e-05 1.5885751820e+00 -2.7514929269e+00 1.5885751820e+00 2.7514929269e+00 
145200 6.2088272731e+00 7.0458490980e-05 1.5885751820e+00 -2.7514929269e+00 1.5885751820e+00 2.7514929269e+00 
145300 6.2088272746e+00 7.0585457232e-05 1.5885751820e+00 -2.7514929269e+00 1.5885751820e+00 2.7514929269e+00 
145400 6.2088272760e+00 7.0712614666e-05 1.5885751820e+00 -2.7514929269e+00 1.5885751820e+00 2.7514929269e+00 
145500 6.2088272772e+00 6.8311988928e-05 1.5885729564e+00 -2.7514890720e+00 1.5885729564e+00 2.7514890720e+00 
145600 6.2088272786e+00 6.8431184164e-05 1.5885729564e+00 -2.7514890720e+00 1.5885729564e+00 2.7514890720e+00 
145700 6.2088272800e+00 6.8550327131e-05 1.5885729564e+00 -2.7514890720e+00 1.5885729564e+00 2.7514890720e+00 
145800 6.2088272813e+00 6.8669430902e-05 1.5885729564e+00 -2.7514890720e+00 1.5885729564e+00 2.7514890720e+00 
145900 6.2088272826e+00 6.8788507291e-05 1.5885729564e+00 -2.7514890720e+00 1.5885729564e+00 2.7514890720e+00 
146000 6.2088272839e+00 6.8907566897e-05 1.5885729564e+00 -2.7514890720e+00 1.5885729564e+00 2.7514890720e+00 
146100 6.2088272852e+00 6.9026619142e-05 1.5885729564e+00 -2.7514890720e+00 1.5885729564e+00 2.7514890720e+00 
146200 6.2088272865e+00 6.9145672302e-05 1.5885729564e+00 -2.7514890720e+00 1.5885729564e+00 2.7514890720e+00 
146300 6.2088272878e+00 6.9264733553e-05 1.5885729564e+00 -2.7514890720e+00 1.5885729564e+00 2.7514890720e+00 
146400 6.2088272890e+00 6.9383809000e-05 1.5885729564e+00 -2.7514890720e+00 1.5885729564e+00 2.7514890720e+00 
146500 6.2088272902e+00 6.9502903717e-05 1.5885729564e+00 -2.7514890720e+00 1.5885729564e+00 2.7514890720e+00 
146600 6.2088272914e+00 6.9622021783e-05 1.5885729564e+00 -2.7514890720e+00 1.5885729564e+00 2.7514890720e+00 
146700 6.2088272926e+00 6.9741166320e-05 1.5885729564e+00 -2.7514890720e+00 1.5885729564e+00 2.7514890720e+00 
146800 6.2088272938e+00 6.9860339522e-05 1.5885729564e+00 -2.7514890720e+00 1.5885729564e+00 2.7514890720e+00 
146900 6.2088272949e+00 6.9979542694e-05 1.5885729564e+00 -2.7514890720e+00 1.5885729564e+00 2.7514890720e+00 
147000 6.2088272961e+00 7.0098776285e-05 1.5885729564e+00 -2.7514890720e+00 1.5885729564e+00 2.7514890720e+00 
147100 6.2088272972e+00 7.0218039923e-05 1.5885729564e+00 -2.7514890720e+00 1.5885729564e+00 2.7514890720e+00 
147200 6.2088272983e+00 7.0337332444e-05 1.5885729564e+00 -2.7514890720e+00 1.5885729564e+00 2.7514890720e+00 
147300 6.2088272994e+00 7.0456651931e-05 1.5885729564e+00 -2.7514890720e+00 1.5885729564e+00 2.7514890720e+00 
147400 6.2088273004e+00 7.0575995742e-05 1.5885729564e+00 -2.7514890720e+00 1.5885729564e+00 2.7514890720e+00 
147500 6.2088273015e+00 7.0695360539e-05 1.5885729564e+00 -2.7514890720e+00 1.5885729564e+00 2.7514890720e+00 
147600 6.2088273026e+00 7.0814742324e-05 1.5885729564e+00 -2.7514890720e+00 1.5885729564e+00 2.7514890720e+00 
147700 6.2088273034e+00 6.8402511411e-05 1.5885707275e+00 -2.7514852114e+00 1.5885707275e+00 2.7514852114e+00 
147800 6.2088273044e+00 6.8513557983e-05 1.5885707275e+00 -2.7514852114e+00 1.5885707275e+00 2.7514852114e+00 
147900 6.2088273054e+00 6.8624366560e-05 1.5885707275e+00 -2.7514852114e+00 1.5885707275e+00 2.7514852114e+00 
148000 6.2088273064e+00 6.8734947174e-05 1.5885707275e+00 -2.7514852114e+00 1.5885707275e+00 2.7514852114e+00 
148100 6.2088273074e+00 6.8845308920e-05 1.5885707275e+00 -2.7514852114e+00 1.5885707275e+00 2.7514852114e+00 
148200 6.2088273083e+00 6.8955459998e-05 1.5885707275e+00 -2.7514852114e+00 1.5885707275e+00 2.7514852114e+00 
148300 6.2088273093e+00 6.9065407731e-05 1.5885707275e+00 -2.7514852114e+00 1.5885707275e+00 2.7514852114e+00 
148400 6.2088273102e+00 6.9175158596e-05 1.5885707275e+00 -2.7514852114e+00 1.5885707275e+00 2.7514852114e+00 
148500 6.2088273111e+00 6.9284718254e-05 1.5885707275e+00 -2.7514852114e+00 1.5885707275e+00 2.7514852114e+00 
148600 6.2088273120e+00 6.9394091579e-05 1.5885707275e+00 -2.7514852114e+00 1.5885707275e+00 2.7514852114e+00 
148700 6.2088273129e+00 6.9503282685e-05 1.5885707275e+00 -2.7514852114e+00 1.5885707275e+00 2.7514852114e+00 
148800 6.2088273138e+00 6.9612294950e-05 1.5885707275e+00 -2.7514852114e+00 1.5885707275e+00 2.7514852114e+00 
148900 6.2088273147e+00 6.9721131048e-05 1.5885707275e+00 -2.7514852114e+00 1.5885707275e+00 2.7514852114e+00 
149000 6.2088273156e+00 6.9829792976e-05 1.5885707275e+00 -2.7514852114e+00 1.5885707275e+00 2.7514852114e+00 
149100 6.2088273164e+00 6.9938282074e-05 1.5885707275e+00 -2.7514852114e+00 1.5885707275e+00 2.7514852114e+00 
149200 6.2088273172e+00 7.0046599061e-05 1.5885707275e+00 -2.7514852114e+00 1.5885707275e+00 2.7514852114e+00 
149300 6.2088273181e+00 7.0154744050e-05 1.5885707275e+00 -2.7514852114e+00 1.5885707275e+00 2.7514852114e+00 
149400 6.2088273189e+00 7.0262716585e-05 1.5885707275e+00 -2.7514852114e+00 1.5885707275e+00 2.7514852114e+00 
149500 6.2088273197e+00 7.0370515657e-05 1.5885707275e+00 -2.7514852114e+00 1.5885707275e+00 2.7514852114e+00 
149600 6.2088273205e+00 7.0478139730e-05 1.5885707275e+00 -2.7514852114e+00 1.5885707275e+00 2.7514852114e+00 
149700 6.2088273213e+00 7.0585586771e-05 1.5885707275e+00 -2.7514852114e+00 1.5885707275e+00 2.7514852114e+00 
149800 6.2088273220e+00 7.0692854268e-05 1.5885707275e+00 -2.7514852114e+00 1.5885707275e+00 2.7514852114e+00 
149900 6.2088273228e+00 7.0799939255e-05 1.5885707275e+00 -2.7514852114e+00 1.5885707275e+00 2.7514852114e+00 
150000 6.2088273234e+00 6.8375740246e-05 1.5885684991e+00 -2.7514813517e+00 1.5885684991e+00 2.7514813517e+00 
150100 6.2088273241e+00 6.8474096104e-05 1.5885684991e+00 -2.7514813517e+00 1.5885684991e+00 2.7514813517e+00 
150200 6.2088273248e+00 6.8572018824e-05 1.5885684991e+00 -2.7514813517e+00 1.5885684991e+00 2.7514813517e+00 
150300 6.2088273255e+00 6.8669520222e-05 1.5885684991e+00 -2.7514813517e+00 1.5885684991e+00 2.7514813517e+00 
150400 6.2088273263e+00 6.8766611355e-05 1.5885684991e+00 -2.7514813517e+00 1.5885684991e+00 2.7514813517e+00 
150500 6.2088273270e+00 6.8863302540e-05 1.5885684991e+00 -2.7514813517e+00 1.5885684991e+00 2.7514813517e+00 
150600 6.2088273276e+00 6.8959603378e-05 1.5885684991e+00 -2.7514813517e+00 1.5885684991e+00 2.7514813517e+00 
150700 6.2088273283e+00 6.9055522780e-05 1.5885684991e+00 -2.7514813517e+00 1.5885684991e+00 2.7514813517e+00 
150800 6.2088273290e+00 6.9151068979e-05 1.5885684991e+00 -2.7514813517e+00 1.5885684991e+00 2.7514813517e+00 
150900 6.2088273297e+00 6.9246249565e-05 1.5885684991e+00 -2.7514813517e+00 1.5885684991e+00 2.7514813517e+00 
151000 6.2088273303e+00 6.9341071492e-05 1.5885684991e+00 -2.7514813517e+00 1.5885684991e+00 2.7514813517e+00 
151100 6.2088273310e+00 6.9435541111e-05 1.5885684991e+00 -2.7514813517e+00 1.5885684991e+00 2.7514813517e+00 
151200 6.2088273316e+00 6.9529664184e-05 1.5885684991e+00 -2.7514813517e+00 1.5885684991e+00 2.7514813517e+00 
151300 6.2088273322e+00 6.9623445911e-05 1.5885684991e+00 -2.7514813517e+00 1.5885684991e+00 2.7514813517e+00 
151400 6.2088273328e+00 6.9716890941e-05 1.5885684991e+00 -2.7514813517e+00 1.5885684991e+00 2.7514813517e+00 
151500 6.2088273335e+00 6.9810003404e-05 1.5885684991e+00 -2.7514813517e+00 1.5885684991e+00 2.7514813517e+00 
151600 6.2088273341e+00 6.9902786920e-05 1.5885684991e+00 -2.7514813517e+00 1.5885684991e+00 2.7514813517e+00 
151700 6.2088273347e+00 6.9995244630e-05 1.5885684991e+00 -2.7514813517e+00 1.5885684991e+00 2.7514813517e+00 
151800 6.2088273352e+00 7.0087379207e-05 1.5885684991e+00 -2.7514813517e+00 1.5885684991e+00 2.7514813517e+00 
151900 6.2088273358e+00 7.0179192876e-05 1.5885684991e+00 -2.7514813517e+00 1.5885684991e+00 2.7514813517e+00 
152000 6.2088273364e+00 7.0270687439e-05 1.5885684991e+00 -2.7514813517e+00 1.5885684991e+00 2.7514813517e+00 
152100 6.2088273370e+00 7.0361864289e-05 1.5885684991e+00 -2.7514813517e+00 1.5885684991e+00 2.7514813517e+00 
152200 6.2088273375e+00 7.0452724427e-05 1.5885684991e+00 -2.7514813517e+00 1.5885684991e+00 2.7514813517e+00 
152300 6.2088273381e+00 7.0543268485e-05 1.5885684991e+00 -2.7514813517e+00 1.5885684991e+00 2.7514813517e+00 
152400 6.2088273386e+00 7.0633496738e-05 1.5885684991e+00 -2.7514813517e+00 1.5885684991e+00 2.7514813517e+00 
152500 6.2088273391e+00 7.0723409128e-05 1.5885684991e+00 -2.7514813517e+00 1.5885684991e+00 2.7514813517e+00 
152600 6.2088273395e+00 6.8284639576e-05 1.5885662731e+00 -2.7514774961e+00 1.5885662731e+00 2.7514774961e+00 
152700 6.2088273400e+00 6.8365573842e-05 1.5885662731e+00 -2.7514774961e+00 1.5885662731e+00 2.7514774961e+00 
152800 6.2088273405e+00 6.8445951276e-05 1.5885662731e+00 -2.7514774961e+00 1.5885662731e+00 2.7514774961e+00 
152900 6.2088273410e+00 6.8525786991e-05 1.5885662731e+00 -2.7514774961e+00 1.5885662731e+00 2.7514774961e+00 
153000 6.2088273415e+00 6.8605095433e-05 1.5885662731e+00 -2.7514774961e+00 1.5885662731e+00 2.7514774961e+00 
153100 6.2088273420e+00 6.8683890391e-05 1.5885662731e+00 -2.7514774961e+00 1.5885662731e+00 2.7514774961e+00 
153200 6.2088273425e+00 6.8762185016e-05 1.5885662731e+00 -2.7514774961e+00 1.5885662731e+00 2.7514774961e+00 
153300 6.2088273429e+00 6.8839991842e-05 1.5885662731e+00 -2.7514774961e+00 1.5885662731e+00 2.7514774961e+00 
153400 6.2088273434e+00 6.8917322796e-05 1.5885662731e+00 -2.7514774961e+00 1.5885662731e+00 2.7514774961e+00 
153500 6.2088273439e+00 6.8994189219e-05 1.5885662731e+00 -2.7514774961e+00 1.5885662731e+00 2.7514774961e+00 
153600 6.2088273443e+00 6.9070601884e-05 1.5885662731e+00 -2.7514774961e+00 1.5885662731e+00 2.7514774961e+00 
153700 6.2088273448e+00 6.9146571004e-05 1.5885662731e+00 -2.7514774961e+00 1.5885662731e+00 2.7514774961e+00 
153800 6.2088273452e+00 6.9222106262e-05 1.5885662731e+00 -2.7514774961e+00 1.5885662731e+00 2.7514774961e+00 
153900 6.2088273457e+00 6.9297216812e-05 1.5885662731e+00 -2.7514774961e+00 1.5885662731e+00 2.7514774961e+00 
154000 6.2088273461e+00 6.9371911306e-05 1.5885662731e+00 -2.7514774961e+00 1.5885662731e+00 2.7514774961e+00 
154100 6.2088273466e+00 6.9446197907e-05 1.5885662731e+00 -2.7514774961e+00 1.5885662731e+00 2.7514774961e+00 
154200 6.2088273470e+00 6.9520084304e-05 1.5885662731e+00 -2.7514774961e+00 1.5885662731e+00 2.7514774961e+00 
154300 6.2088273474e+00 6.9593577727e-05 1.5885662731e+00 -2.7514774961e+00 1.5885662731e+00 2.7514774961e+00 
154400 6.2088273478e+00 6.9666684963e-05 1.5885662731e+00 -2.7514774961e+00 1.5885662731e+00 2.7514774961e+00 
154500 6.2088273482e+00 6.9739412375e-05 1.5885662731e+00 -2.7514774961e+00 1.5885662731e+00 2.7514774961e+00 
154600 6.2088273486e+00 6.9811765906e-05 1.5885662731e+00 -2.7514774961e+00 1.5885662731e+00 2.7514774961e+00 
154700 6.2088273490e+00 6.9883751112e-05 1.5885662731e+00 -2.7514774961e+00 1.5885662731e+00 2.7514774961e+00 
154800 6.2088273494e+00 6.9955373161e-05 1.5885662731e+00 -2.7514774961e+00 1.5885662731e+00 2.7514774961e+00 
154900 6.2088273498e+00 7.0026636849e-05 1.5885662731e+00 -2.7514774961e+00 1.5885662731e+00 2.7514774961e+00 
155000 6.2088273502e+00 7.0097546624e-05 1.5885662731e+00 -2.7514774961e+00 1.5885662731e+00 2.7514774961e+00 
155100 6.2088273505e+00 7.0168106591e-05 1.5885662731e+00 -2.7514774961e+00 1.5885662731e+00 2.7514774961e+00 
155200 6.2088273509e+00 7.0238320531e-05 1.5885662731e+00 -2.7514774961e+00 1.5885662731e+00 2.7514774961e+00 
155300 6.2088273513e+00 7.0308191910e-05 1.5885662731e+00 -2.7514774961e+00 1.5885662731e+00 2.7514774961e+00 
155400 6.2088273516e+00 7.0377723897e-05 1.5885662731e+00 -2.7514774961e+00 1.5885662731e+00 2.7514774961e+00 
155500 6.2088273520e+00 7.0446919374e-05 1.5885662731e+00 -2.7514774961e+00 1.5885662731e+00 2.7514774961e+00 
155600 6.2088273523e+00 7.0515780948e-05 1.5885662731e+00 -2.7514774961e+00 1.5885662731e+00 2.7514774961e+00 
155700 6.2088273527e+00 7.0584310968e-05 1.5885662731e+00 -2.7514774961e+00 1.5885662731e+00 2.7514774961e+00 
155800 6.2088273530e+00 7.0652511534e-05 1.5885662731e+00 -2.7514774961e+00 1.5885662731e+00 2.7514774961e+00 
155900 6.2088273534e+00 7.0720384508e-05 1.5885662731e+00 -2.7514774961e+00 1.5885662731e+00 2.7514774961e+00 
156000 6.2088273535e+00 6.8259669831e-05 1.5885640472e+00 -2.7514736407e+00 1.5885640472e+00 2.7514736407e+00 
156100 6.2088273538e+00 6.8318547281e-05 1.5885640472e+00 -2.7514736407e+00 1.5885640472e+00 2.7514736407e+00 
156200 6.2088273542e+00 6.8376862529e-05 1.5885640472e+00 -2.7514736407e+00 1.5885640472e+00 2.7514736407e+00 
156300 6.2088273545e+00 6.8434632961e-05 1.5885640472e+00 -2.7514736407e+00 1.5885640472e+00 2.7514736407e+00 
156400 6.2088273548e+00 6.8491875362e-05 1.5885640472e+00 -2.7514736407e+00 1.5885640472e+00 2.7514736407e+00 
156500 6.2088273551e+00 6.8548605934e-05 1.5885640472e+00 -2.7514736407e+00 1.5885640472e+00 2.7514736407e+00 
156600 6.2088273554e+00 6.8604840305e-05 1.5885640472e+00 -2.7514736407e+00 1.5885640472e+00 2.7514736407e+00 
156700 6.2088273557e+00 6.8660593542e-05 1.5885640472e+00 -2.7514736407e+00 1.5885640472e+00 2.7514736407e+00 
156800 6.2088273560e+00 6.8715880168e-05 1.5885640472e+00 -2.7514736407e+00 1.5885640472e+00 2.7514736407e+00 
156900 6.2088273563e+00 6.8770714162e-05 1.5885640472e+00 -2.7514736407e+00 1.5885640472e+00 2.7514736407e+00 
157000 6.2088273566e+00 6.8825108984e-05 1.5885640472e+00 -2.7514736407e+00 1.5885640472e+00 2.7514736407e+00 
157100 6.2088273569e+00 6.8879077580e-05 1.5885640472e+00 -2.7514736407e+00 1.5885640472e+00 2.7514736407e+00 
157200 6.2088273572e+00 6.8932632392e-05 1.5885640472e+00 -2.7514736407e+00 1.5885640472e+00 2.7514736407e+00 
157300 6.2088273575e+00 6.8985785379e-05 1.5885640472e+00 -2.7514736407e+00 1.5885640472e+00 2.7514736407e+00 
157400 6.2088273577e+00 6.9038548018e-05 1.5885640472e+00 -2.7514736407e+00 1.5885640472e+00 2.7514736407e+00 
157500 6.2088273580e+00 6.9090931326e-05 1.5885640472e+00 -2.7514736407e+00 1.5885640472e+00 2.7514736407e+00 
157600 6.2088273583e+00 6.9142945861e-05 1.5885640472e+00 -2.7514736407e+00 1.5885640472e+00 2.7514736407e+00 
157700 6.2088273585e+00 6.9194601746e-05 1.5885640472e+00 -2.7514736407e+00 1.5885640472e+00 2.7514736407e+00 
157800 6.2088273588e+00 6.9245908671e-05 1.5885640472e+00 -2.7514736407e+00 1.5885640472e+00 2.7514736407e+00 
157900 6.2088273591e+00 6.9296875907e-05 1.5885640472e+00 -2.7514736407e+00 1.5885640472e+00 2.7514736407e+00 
158000 6.2088273593e+00 6.9347512320e-05 1.5885640472e+00 -2.7514736407e+00 1.5885640472e+00 2.7514736407e+00 
158100 6.2088273596e+00 6.9397826383e-05 1.5885640472e+00 -2.7514736407e+00 1.5885640472e+00 2.7514736407e+00 
158200 6.2088273598e+00 6.9447826181e-05 1.5885640472e+00 -2.7514736407e+00 1.5885640472e+00 2.7514736407e+00 
158300 6.2088273601e+00 6.9497519428e-05 1.5885640472e+00 -2.7514736407e+00 1.5885640472e+00 2.7514736407e+00 
158400 6.2088273603e+00 6.9546913479e-05 1.5885640472e+00 -2.7514736407e+00 1.5885640472e+00 2.7514736407e+00 
158500 6.2088273606e+00 6.9596015334e-05 1.5885640472e+00 -2.7514736407e+00 1.5885640472e+00 2.7514736407e+00 
158600 6.2088273608e+00 6.9644831656e-05 1.5885640472e+00 -2.7514736407e+00 1.5885640472e+00 2.7514736407e+00 
158700 6.2088273610e+00 6.9693368776e-05 1.5885640472e+00 -2.7514736407e+00 1.5885640472e+00 2.7514736407e+00 
158800 6.2088273612e+00 6.9741632712e-05 1.5885640472e+00 -2.7514736407e+00 1.5885640472e+00 2.7514736407e+00 
158900 6.2088273615e+00 6.9789629170e-05 1.5885640472e+00 -2.7514736407e+00 1.5885640472e+00 2.7514736407e+00 
159000 6.2088273617e+00 6.9837363557e-05 1.5885640472e+00 -2.7514736407e+00 1.5885640472e+00 2.7514736407e+00 
159100 6.2088273619e+00 6.9884840992e-05 1.5885640472e+00 -2.7514736407e+00 1.5885640472e+00 2.7514736407e+00 
159200 6.2088273621e+00 6.9932066319e-05 1.5885640472e+00 -2.7514736407e+00 1.5885640472e+00 2.7514736407e+00 
159300 6.2088273624e+00 6.9979044113e-05 1.5885640472e+00 -2.7514736407e+00 1.5885640472e+00 2.7514736407e+00 
159400 6.2088273626e+00 7.0025778687e-05 1.5885640472e+00 -2.7514736407e+00 1.5885640472e+00 2.7514736407e+00 
159500 6.2088273628e+00 7.0072274110e-05 1.5885640472e+00 -2.7514736407e+00 1.5885640472e+00 2.7514736407e+00 
159600 6.2088273630e+00 7.0118534207e-05 1.5885640472e+00 -2.7514736407e+00 1.5885640472e+00 2.7514736407e+00 
159700 6.2088273632e+00 7.0164562573e-05 1.5885640472e+00 -2.7514736407e+00 1.5885640472e+00 2.7514736407e+00 
159800 6.2088273634e+00 7.0210362582e-05 1.5885640472e+00 -2.7514736407e+00 1.5885640472e+00 2.7514736407e+00 
159900 6.2088273636e+00 7.0255937395e-05 1.5885640472e+00 -2.7514736407e+00 1.5885640472e+00 2.7514736407e+00 
160000 6.2088273638e+00 7.0301289967e-05 1.5885640472e+00 -2.7514736407e+00 1.5885640472e+00 2.7514736407e+00 
160100 6.2088273640e+00 7.0346423058e-05 1.5885640472e+00 -2.7514736407e+00 1.5885640472e+00 2.7514736407e+00 
160200 6.2088273642e+00 7.0391339239e-05 1.5885640472e+00 -2.7514736407e+00 1.5885640472e+00 2.7514736407e+00 
160300 6.2088273644e+00 7.0436040904e-05 1.5885640472e+00 -2.7514736407e+00 1.5885640472e+00 2.7514736407e+00 
160400 6.2088273645e+00 7.0480530269e-05 1.5885640472e+00 -2.7514736407e+00 1.5885640472e+00 2.7514736407e+00 
160500 6.2088273647e+00 7.0524809391e-05 1.5885640472e+00 -2.7514736407e+00 1.5885640472e+00 2.7514736407e+00 
160600 6.2088273649e+00 7.0568880168e-05 1.5885640472e+00 -2.7514736407e+00 1.5885640472e+00 2.7514736407e+00 
160700 6.2088273651e+00 7.0612744349e-05 1.5885640472e+00 -2.7514736407e+00 1.5885640472e+00 2.7514736407e+00 
160800 6.2088273653e+00 7.0656403537e-05 1.5885640472e+00 -2.7514736407e+00 1.5885640472e+00 2.7514736407e+00 
160900 6.2088273654e+00 7.0699859205e-05 1.5885640472e+00 -2.7514736407e+00 1.5885640472e+00 2.7514736407e+00 
161000 6.2088273656e+00 7.0743112693e-05 1.5885640472e+00 -2.7514736407e+00 1.5885640472e+00 2.7514736407e+00 
161100 6.2088273656e+00 6.8257086415e-05 1.5885618205e+00 -2.7514697841e+00 1.5885618205e+00 2.7514697841e+00 
161200 6.2088273658e+00 6.8291590949e-05 1.5885618205e+00 -2.7514697841e+00 1.5885618205e+00 2.7514697841e+00 
161300 6.2088273659e+00 6.8325657682e-05 1.5885618205e+00 -2.7514697841e+00 1.5885618205e+00 2.7514697841e+00 
161400 6.2088273661e+00 6.8359303856e-05 1.5885618205e+00 -2.7514697841e+00 1.5885618205e+00 2.7514697841e+00 
161500 6.2088273663e+00 6.8392546197e-05 1.5885618205e+00 -2.7514697841e+00 1.5885618205e+00 2.7514697841e+00 
161600 6.2088273664e+00 6.8425400931e-05 1.5885618205e+00 -2.7514697841e+00 1.5885618205e+00 2.7514697841e+00 
161700 6.2088273666e+00 6.8457883776e-05 1.5885618205e+00 -2.7514697841e+00 1.5885618205e+00 2.7514697841e+00 
161800 6.2088273667e+00 6.8490009961e-05 1.5885618205e+00 -2.7514697841e+00 1.5885618205e+00 2.7514697841e+00 
161900 6.2088273669e+00 6.8521794230e-05 1.5885618205e+00 -2.7514697841e+00 1.5885618205e+00 2.7514697841e+00 
162000 6.2088273670e+00 6.8553250847e-05 1.5885618205e+00 -2.7514697841e+00 1.5885618205e+00 2.7514697841e+00 
162100 6.2088273672e+00 6.8584393608e-05 1.5885618205e+00 -2.7514697841e+00 1.5885618205e+00 2.7514697841e+00 
162200 6.2088273673e+00 6.8615235846e-05 1.5885618205e+00 -2.7514697841e+00 1.5885618205e+00 2.7514697841e+00 
162300 6.2088273675e+00 6.8645790437e-05 1.5885618205e+00 -2.7514697841e+00 1.5885618205e+00 2.7514697841e+00 
162400 6.2088273676e+00 6.8676069818e-05 1.5885618205e+00 -2.7514697841e+00 1.5885618205e+00 2.7514697841e+00 
162500 6.2088273678e+00 6.8706085981e-05 1.5885618205e+00 -2.7514697841e+00 1.5885618205e+00 2.7514697841e+00 
162600 6.2088273679e+00 6.8735850491e-05 1.5885618205e+00 -2.7514697841e+00 1.5885618205e+00 2.7514697841e+00 
162700 6.2088273680e+00 6.8765374486e-05 1.5885618205e+00 -2.7514697841e+00 1.5885618205e+00 2.7514697841e+00 
162800 6.2088273682e+00 6.8794668699e-05 1.5885618205e+00 -2.7514697841e+00 1.5885618205e+00 2.7514697841e+00 
162900 6.2088273683e+00 6.8823743448e-05 1.5885618205e+00 -2.7514697841e+00 1.5885618205e+00 2.7514697841e+00 
163000 6.2088273684e+00 6.8852608661e-05 1.5885618205e+00 -2.7514697841e+00 1.5885618205e+00 2.7514697841e+00 
163100 6.2088273686e+00 6.8881273870e-05 1.5885618205e+00 -2.7514697841e+00 1.5885618205e+00 2.7514697841e+00 
163200 6.2088273687e+00 6.8909748232e-05 1.5885618205e+00 -2.7514697841e+00 1.5885618205e+00 2.7514697841e+00 
163300 6.2088273688e+00 6.8938040526e-05 1.5885618205e+00 -2.7514697841e+00 1.5885618205e+00 2.7514697841e+00 
163400 6.2088273690e+00 6.8966159171e-05 1.5885618205e+00 -2.7514697841e+00 1.5885618205e+00 2.7514697841e+00 
163500 6.2088273691e+00 6.8994112227e-05 1.5885618205e+00 -2.7514697841e+00 1.5885618205e+00 2.7514697841e+00 
163600 6.2088273692e+00 6.9021907406e-05 1.5885618205e+00 -2.7514697841e+00 1.5885618205e+00 2.7514697841e+00 
163700 6.2088273693e+00 6.9049552080e-05 1.5885618205e+00 -2.7514697841e+00 1.5885618205e+00 2.7514697841e+00 
163800 6.2088273695e+00 6.9077053291e-05 1.5885618205e+00 -2.7514697841e+00 1.5885618205e+00 2.7514697841e+00 
163900 6.2088273696e+00 6.9104417754e-05 1.5885618205e+00 -2.7514697841e+00 1.5885618205e+00 2.7514697841e+00 
164000 6.2088273697e+00 6.9131651871e-05 1.5885618205e+00 -2.7514697841e+00 1.5885618205e+00 2.7514697841e+00 
164100 6.2088273698e+00 6.9158761736e-05 1.5885618205e+00 -2.7514697841e+00 1.5885618205e+00 2.7514697841e+00 
164200 6.2088273699e+00 6.9185753142e-05 1.5885618205e+00 -2.7514697841e+00 1.5885618205e+00 2.7514697841e+00 
164300 6.2088273700e+00 6.9212631590e-05 1.5885618205e+00 -2.7514697841e+00 1.5885618205e+00 2.7514697841e+00 
164400 6.2088273701e+00 6.9239402300e-05 1.5885618205e+00 -2.7514697841e+00 1.5885618205e+00 2.7514697841e+00 
164500 6.2088273703e+00 6.9266070211e-05 1.5885618205e+00 -2.7514697841e+00 1.5885618205e+00 2.7514697841e+00 
164600 6.2088273704e+00 6.9292639997e-05 1.5885618205e+00 -2.7514697841e+00 1.5885618205e+00 2.7514697841e+00 
164700 6.2088273705e+00 6.9319116068e-05 1.5885618205e+00 -2.7514697841e+00 1.5885618205e+00 2.7514697841e+00 
164800 6.2088273706e+00 6.9345502586e-05 1.5885618205e+00 -2.7514697841e+00 1.5885618205e+00 2.7514697841e+00 
164900 6.2088273707e+00 6.9371803462e-05 1.5885618205e+00 -2.7514697841e+00 1.5885618205e+00 2.7514697841e+00 
165000 6.2088273708e+00 6.9398022368e-05 1.5885618205e+00 -2.7514697841e+00 1.5885618205e+00 2.7514697841e+00 
165100 6.2088273709e+00 6.9424162748e-05 1.5885618205e+00 -2.7514697841e+00 1.5885618205e+00 2.7514697841e+00 
165200 6.2088273710e+00 6.9450227820e-05 1.5885618205e+00 -2.7514697841e+00 1.5885618205e+00 2.7514697841e+00 
165300 6.2088273711e+00 6.9476220586e-05 1.5885618205e+00 -2.7514697841e+00 1.5885618205e+00 2.7514697841e+00 
165400 6.2088273712e+00 6.9502143835e-05 1.5885618205e+00 -2.7514697841e+00 1.5885618205e+00 2.7514697841e+00 
165500 6.2088273713e+00 6.9528000157e-05 1.5885618205e+00 -2.7514697841e+00 1.5885618205e+00 2.7514697841e+00 
165600 6.2088273714e+00 6.9553791944e-05 1.5885618205e+00 -2.7514697841e+00 1.5885618205e+00 2.7514697841e+00 
165700 6.2088273715e+00 6.9579521397e-05 1.5885618205e+00 -2.7514697841e+00 1.5885618205e+00 2.7514697841e+00 
165800 6.2088273716e+00 6.9605190533e-05 1.5885618205e+00 -2.7514697841e+00 1.5885618205e+00 2.7514697841e+00 
165900 6.2088273717e+00 6.9630801196e-05 1.5885618205e+00 -2.7514697841e+00 1.5885618205e+00 2.7514697841e+00 
166000 6.2088273717e+00 6.9656355057e-05 1.5885618205e+00 -2.7514697841e+00 1.5885618205e+00 2.7514697841e+00 
166100 6.2088273718e+00 6.9681853625e-05 1.5885618205e+00 -2.7514697841e+00 1.5885618205e+00 2.7514697841e+00 
166200 6.2088273719e+00 6.9707298250e-05 1.5885618205e+00 -2.7514697841e+00 1.5885618205e+00 2.7514697841e+00 
166300 6.2088273720e+00 6.9732690128e-05 1.5885618205e+00 -2.7514697841e+00 1.5885618205e+00 2.7514697841e+00 
166400 6.2088273721e+00 6.9758030314e-05 1.5885618205e+00 -2.7514697841e+00 1.5885618205e+00 2.7514697841e+00 
166500 6.2088273722e+00 6.9783319717e-05 1.5885618205e+00 -2.7514697841e+00 1.5885618205e+00 2.7514697841e+00 
166600 6.2088273723e+00 6.9808559117e-05 1.5885618205e+00 -2.7514697841e+00 1.5885618205e+00 2.7514697841e+00 
166700 6.2088273723e+00 6.9833749163e-05 1.5885618205e+00 -2.7514697841e+00 1.5885618205e+00 2.7514697841e+00 
166800 6.2088273724e+00 6.9858890379e-05 1.5885618205e+00 -2.7514697841e+00 1.5885618205e+00 2.7514697841e+00 
166900 6.2088273725e+00 6.9883983174e-05 1.5885618205e+00 -2.7514697841e+00 1.5885618205e+00 2.7514697841e+00 
167000 6.2088273726e+00 6.9909027843e-05 1.5885618205e+00 -2.7514697841e+00 1.5885618205e+00 2.7514697841e+00 
167100 6.2088273727e+00 6.9934024573e-05 1.5885618205e+00 -2.7514697841e+00 1.5885618205e+00 2.7514697841e+00 
167200 6.2088273727e+00 6.9958973449e-05 1.5885618205e+00 -2.7514697841e+00 1.5885618205e+00 2.7514697841e+00 
167300 6.2088273728e+00 6.9983874458e-05 1.5885618205e+00 -2.7514697841e+00 1.5885618205e+00 2.7514697841e+00 
167400 6.2088273729e+00 7.0008727494e-05 1.5885618205e+00 -2.7514697841e+00 1.5885618205e+00 2.7514697841e+00 
167500 6.2088273730e+00 7.0033532362e-05 1.5885618205e+00 -2.7514697841e+00 1.5885618205e+00 2.7514697841e+00 
167600 6.2088273730e+00 7.0058288786e-05 1.5885618205e+00 -2.7514697841e+00 1.5885618205e+00 2.7514697841e+00 
167700 6.2088273731e+00 7.0082996409e-05 1.5885618205e+00 -2.7514697841e+00 1.5885618205e+00 2.7514697841e+00 
167800 6.2088273732e+00 7.0107654798e-05 1.5885618205e+00 -2.7514697841e+00 1.5885618205e+00 2.7514697841e+00 
167900 6.2088273733e+00 7.0132263450e-05 1.5885618205e+00 -2.7514697841e+00 1.5885618205e+00 2.7514697841e+00 
168000 6.2088273733e+00 7.0156821798e-05 1.5885618205e+00 -2.7514697841e+00 1.5885618205e+00 2.7514697841e+00 
168100 6.2088273734e+00 7.0181329208e-05 1.5885618205e+00 -2.7514697841e+00 1.5885618205e+00 2.7514697841e+00 
168200 6.2088273735e+00 7.0205784991e-05 1.5885618205e+00 -2.7514697841e+00 1.5885618205e+00 2.7514697841e+00 
168300 6.2088273735e+00 7.0230188400e-05 1.5885618205e+00 -2.7514697841e+00 1.5885618205e+00 2.7514697841e+00 
168400 6.2088273736e+00 7.0254538638e-05 1.5885618205e+00 -2.7514697841e+00 1.5885618205e+00 2.7514697841e+00 
168500 6.2088273737e+00 7.0278834862e-05 1.5885618205e+00 -2.7514697841e+00 1.5885618205e+00 2.7514697841e+00 
168600 6.2088273737e+00 7.0303076184e-05 1.5885618205e+00 -2.7514697841e+00 1.5885618205e+00 2.7514697841e+00 
168700 6.2088273738e+00 7.0327261671e-05 1.5885618205e+00 -2.7514697841e+00 1.5885618205e+00 2.7514697841e+00 
168800 6.2088273739e+00 7.0351390358e-05 1.5885618205e+00 -2.7514697841e+00 1.5885618205e+00 2.7514697841e+00 
168900 6.2088273739e+00 7.0375461243e-05 1.5885618205e+00 -2.7514697841e+00 1.5885618205e+00 2.7514697841e+00 
169000 6.2088273740e+00 7.0399473293e-05 1.5885618205e+00 -2.7514697841e+00 1.5885618205e+00 2.7514697841e+00 
169100 6.2088273741e+00 7.0423425444e-05 1.5885618205e+00 -2.7514697841e+00 1.5885618205e+00 2.7514697841e+00 
169200 6.2088273741e+00 7.0447316611e-05 1.5885618205e+00 -2.7514697841e+00 1.5885618205e+00 2.7514697841e+00 
169300 6.2088273742e+00 7.0471145681e-05 1.5885618205e+00 -2.7514697841e+00 1.5885618205e+00 2.7514697841e+00 
169400 6.2088273742e+00 7.0494911526e-05 1.5885618205e+00 -2.7514697841e+00 1.5885618205e+00 2.7514697841e+00 
169500 6.2088273743e+00 7.0518612994e-05 1.5885618205e+00 -2.7514697841e+00 1.5885618205e+00 2.7514697841e+00 
169600 6.2088273743e+00 7.0542248922e-05 1.5885618205e+00 -2.7514697841e+00 1.5885618205e+00 2.7514697841e+00 
169700 6.2088273744e+00 7.0565818135e-05 1.5885618205e+00 -2.7514697841e+00 1.5885618205e+00 2.7514697841e+00 
169800 6.2088273745e+00 7.0589319445e-05 1.5885618205e+00 -2.7514697841e+00 1.5885618205e+00 2.7514697841e+00 
169900 6.2088273745e+00 7.0612751655e-05 1.5885618205e+00 -2.7514697841e+00 1.5885618205e+00 2.7514697841e+00 
170000 6.2088273746e+00 7.0636113566e-05 1.5885618205e+00 -2.7514697841e+00 1.5885618205e+00 2.7514697841e+00 
170100 6.2088273746e+00 7.0659403966e-05 1.5885618205e+00 -2.7514697841e+00 1.5885618205e+00 2.7514697841e+00 
170200 6.2088273747e+00 7.0682621651e-05 1.5885618205e+00 -2.7514697841e+00 1.5885618205e+00 2.7514697841e+00 
170300 6.2088273747e+00 7.0705765410e-05 1.5885618205e+00 -2.7514697841e+00 1.5885618205e+00 2.7514697841e+00 
170400 6.2088273748e+00 7.0728834038e-05 1.5885618205e+00 -2.7514697841e+00 1.5885618205e+00 2.7514697841e+00 
170500 6.2088273746e+00 6.8223252873e-05 1.5885595943e+00 -2.7514659282e+00 1.5885595943e+00 2.7514659282e+00 
170600 6.2088273747e+00 6.8237820740e-05 1.5885595943e+00 -2.7514659282e+00 1.5885595943e+00 2.7514659282e+00 
170700 6.2088273747e+00 6.8252071016e-05 1.5885595943e+00 -2.7514659282e+00 1.5885595943e+00 2.7514659282e+00 
170800 6.2088273748e+00 6.8266018865e-05 1.5885595943e+00 -2.7514659282e+00 1.5885595943e+00 2.7514659282e+00 
170900 6.2088273748e+00 6.8279679042e-05 1.5885595943e+00 -2.7514659282e+00 1.5885595943e+00 2.7514659282e+00 
171000 6.2088273749e+00 6.8293065893e-05 1.5885595943e+00 -2.7514659282e+00 1.5885595943e+00 2.7514659282e+00 
171100 6.2088273749e+00 6.8300710542e-05 1.5885595943e+00 -2.7514659282e+00 1.5885595943e+00 2.7514659282e+00 
171100 6.2088273749e+00 6.8300710542e-05 1.5885595943e+00 -2.7514659282e+00 1.5885595943e+00 2.7514659282e+00 
