# step Hamiltonian StressXX CellTensor1 CellTensor2 CellTensor3 CellTensor4 
0 6.2159320532e+00 1.4260697741e-01 2.2220832177e+00 -3.8487610317e+00 2.2220832177e+00 3.8487610317e+00 
100 6.2156710177e+00 1.4969613357e-01 2.2220832177e+00 -3.8487610317e+00 2.2220832177e+00 3.8487610317e+00 
200 6.2147584447e+00 1.5623963157e-01 2.2187156963e+00 -3.8429283135e+00 2.2187156963e+00 3.8429283135e+00 
300 6.2137074111e+00 1.6250579360e-01 2.2151956815e+00 -3.8368314690e+00 2.2151956815e+00 3.8368314690e+00 
400 6.2125836083e+00 1.6857808702e-01 2.2115287171e+00 -3.8304801004e+00 2.2115287171e+00 3.8304801004e+00 
500 6.2114270069e+00 1.7451149148e-01 2.2077184663e+00 -3.8238805524e+00 2.2077184663e+00 3.8238805524e+00 
600 6.2102594412e+00 1.8034091774e-01 2.2037673436e+00 -3.8170370072e+00 2.2037673436e+00 3.8170370072e+00 
700 6.2090900718e+00 1.8608712947e-01 2.1996769616e+00 -3.8099522577e+00 2.1996769616e+00 3.8099522577e+00 
800 6.2079193442e+00 1.9176093094e-01 2.1954484458e+00 -3.8026282535e+00 2.1954484458e+00 3.8026282535e+00 
900 6.2067418711e+00 1.9736614306e-01 2.1910826583e+00 -3.7950664877e+00 2.1910826583e+00 3.7950664877e+00 
1000 6.2055485384e+00 2.0290172797e-01 2.1865803546e+00 -3.7872682690e+00 2.1865803546e+00 3.7872682690e+00 
1100 6.2043280460e+00 2.0836331249e-01 2.1819422946e+00 -3.7792349134e+00 2.1819422946e+00 3.7792349134e+00 
1200 6.2030680339e+00 2.1374428527e-01 2.1771693189e+00 -3.7709678769e+00 2.1771693189e+00 3.7709678769e+00 
1300 6.2017559011e+00 2.1903659062e-01 2.1722624018e+00 -3.7624688473e+00 2.1722624018e+00 3.7624688473e+00 
1400 6.2003793965e+00 2.2423130597e-01 2.1672226869e+00 -3.7537398050e+00 2.1672226869e+00 3.7537398050e+00 
1500 6.1989270376e+00 2.2931906435e-01 2.1620515089e+00 -3.7447830620e+00 2.1620515089e+00 3.7447830620e+00 
1600 6.1973883996e+00 2.3429036571e-01 2.1567504075e+00 -3.7356012851e+00 2.1567504075e+00 3.7356012851e+00 
1700 6.1957543053e+00 2.3913580807e-01 2.1513211335e+00 -3.7261975067e+00 2.1513211335e+00 3.7261975067e+00 
1800 6.1940169391e+00 2.4384626056e-01 2.1457656502e+00 -3.7165751273e+00 2.1457656502e+00 3.7165751273e+00 
1900 6.1921699031e+00 2.4841299395e-01 2.1400861307e+00 -3.7067379110e+00 2.1400861307e+00 3.7067379110e+00 
2000 6.1902082270e+00 2.5282777952e-01 2.1342849528e+00 -3.6966899761e+00 2.1342849528e+00 3.6966899761e+00 
2100 6.1881283442e+00 2.5708296412e-01 2.1283646910e+00 -3.6864357818e+00 2.1283646910e+00 3.6864357818e+00 
2200 6.1859280405e+00 2.6117152648e-01 2.1223281072e+00 -3.6759801120e+00 2.1223281072e+00 3.6759801120e+00 
2300 6.1836063824e+00 2.6508711862e-01 2.1161781400e+00 -3.6653280564e+00 2.1161781400e+00 3.6653280564e+00 
2400 6.1811636310e+00 2.6882409467e-01 2.1099178928e+00 -3.6544849902e+00 2.1099178928e+00 3.6544849902e+00 
2500 6.1786011438e+00 2.7237752903e-01 2.1035506212e+00 -3.6434565522e+00 2.1035506212e+00 3.6434565522e+00 
2600 6.1759212707e+00 2.7574322480e-01 2.0970797196e+00 -3.6322486219e+00 2.0970797196e+00 3.6322486219e+00 
2700 6.1731272451e+00 2.7891771367e-01 2.0905087083e+00 -3.6208672964e+00 2.0905087083e+00 3.6208672964e+00 
2800 6.1702230736e+00 2.8189824781e-01 2.0838412188e+00 -3.6093188659e+00 2.0838412188e+00 3.6093188659e+00 
2900 6.1672134264e+00 2.8468278451e-01 2.0770809809e+00 -3.5976097903e+00 2.0770809809e+00 3.5976097903e+00 
3000 6.1641035309e+00 2.8726996433e-01 2.0702318082e+00 -3.5857466753e+00 2.0702318082e+00 3.5857466753e+00 
3100 6.1608990682e+00 2.8965908324e-01 2.0632975856e+00 -3.5737362493e+00 2.0632975856e+00 3.5737362493e+00 
3200 6.1576060764e+00 2.9185005974e-01 2.0562822552e+00 -3.5615853406e+00 2.0562822552e+00 3.5615853406e+00 
3300 6.1542308593e+00 2.9384339760e-01 2.0491898045e+00 -3.5493008557e+00 2.0491898045e+00 3.5493008557e+00 
3400 6.1507799032e+00 2.9564014514e-01 2.0420242544e+00 -3.5368897588e+00 2.0420242544e+00 3.5368897588e+00 
3500 6.1472598004e+00 2.9724185177e-01 2.0347896476e+00 -3.5243590523e+00 2.0347896476e+00 3.5243590523e+00 
3600 6.1436771814e+00 2.9865052289e-01 2.0274900384e+00 -3.5117157583e+00 2.0274900384e+00 3.5117157583e+00 
3700 6.1400386549e+00 2.9986857362e-01 2.0201294831e+00 -3.4989669025e+00 2.0201294831e+00 3.4989669025e+00 
3800 6.1363507558e+00 3.0089878255e-01 2.0127120309e+00 -3.4861194985e+00 2.0127120309e+00 3.4861194985e+00 
3900 6.1326199005e+00 3.0174424587e-01 2.0052417164e+00 -3.4731805342e+00 2.0052417164e+00 3.4731805342e+00 
4000 6.1288523506e+00 3.0240833274e-01 1.9977225521e+00 -3.4601569596e+00 1.9977225521e+00 3.4601569596e+00 
4100 6.1250541822e+00 3.0289464247e-01 1.9901585225e+00 -3.4470556761e+00 1.9901585225e+00 3.4470556761e+00 
4200 6.1212312625e+00 3.0320696381e-01 1.9825535788e+00 -3.4338835272e+00 1.9825535788e+00 3.4338835272e+00 
4300 6.1173892315e+00 3.0334923695e-01 1.9749116341e+00 -3.4206472908e+00 1.9749116341e+00 3.4206472908e+00 
4400 6.1135334897e+00 3.0332551835e-01 1.9672365602e+00 -3.4073536727e+00 1.9672365602e+00 3.4073536727e+00 
4500 6.1096691894e+00 3.0313994863e-01 1.9595321837e+00 -3.3940093012e+00 1.9595321837e+00 3.3940093012e+00 
4600 6.1058012306e+00 3.0279672374e-01 1.9518022845e+00 -3.3806207231e+00 1.9518022845e+00 3.3806207231e+00 
4700 6.1019342598e+00 3.0230006931e-01 1.9440505936e+00 -3.3671944006e+00 1.9440505936e+00 3.3671944006e+00 
4800 6.0980726723e+00 3.0165421819e-01 1.9362807917e+00 -3.3537367090e+00 1.9362807917e+00 3.3537367090e+00 
4900 6.0942206161e+00 3.0086339124e-01 1.9284965089e+00 -3.3402539357e+00 1.9284965089e+00 3.3402539357e+00 
5000 6.0903819979e+00 2.9993178098e-01 1.9207013239e+00 -3.3267522791e+00 1.9207013239e+00 3.3267522791e+00 
5100 6.0865604906e+00 2.9886353825e-01 1.9128987640e+00 -3.3132378489e+00 1.9128987640e+00 3.3132378489e+00 
5200 6.0827595417e+00 2.9766276143e-01 1.9050923056e+00 -3.2997166664e+00 1.9050923056e+00 3.2997166664e+00 
5300 6.0789823831e+00 2.9633348815e-01 1.8972853746e+00 -3.2861946652e+00 1.8972853746e+00 3.2861946652e+00 
5400 6.0752320398e+00 2.9487968929e-01 1.8894813467e+00 -3.2726776925e+00 1.8894813467e+00 3.2726776925e+00 
5500 6.0715113408e+00 2.9330526498e-01 1.8816835486e+00 -3.2591715099e+00 1.8816835486e+00 3.2591715099e+00 
5600 6.0678229288e+00 2.9161404239e-01 1.8738952584e+00 -3.2456817956e+00 1.8738952584e+00 3.2456817956e+00 
5700 6.0641692699e+00 2.8980977512e-01 1.8661197067e+00 -3.2322141450e+00 1.8661197067e+00 3.2322141450e+00 
5800 6.0605526636e+00 2.8789614395e-01 1.8583600772e+00 -3.2187740725e+00 1.8583600772e+00 3.2187740725e+00 
5900 6.0569752516e+00 2.8587675882e-01 1.8506195077e+00 -3.2053670128e+00 1.8506195077e+00 3.2053670128e+00 
6000 6.0534390277e+00 2.8375516167e-01 1.8429010905e+00 -3.1919983221e+00 1.8429010905e+00 3.1919983221e+00 
6100 6.0499458453e+00 2.8153483018e-01 1.8352078732e+00 -3.1786732788e+00 1.8352078732e+00 3.1786732788e+00 
6200 6.0464974261e+00 2.7921918210e-01 1.8275428589e+00 -3.1653970846e+00 1.8275428589e+00 3.1653970846e+00 
6300 6.0430953671e+00 2.7681158003e-01 1.8199090067e+00 -3.1521748648e+00 1.8199090067e+00 3.1521748648e+00 
6400 6.0397411483e+00 2.7431533654e-01 1.8123092317e+00 -3.1390116683e+00 1.8123092317e+00 3.1390116683e+00 
6500 6.0364361385e+00 2.7173371951e-01 1.8047464049e+00 -3.1259124681e+00 1.8047464049e+00 3.1259124681e+00 
6600 6.0331816017e+00 2.6906995754e-01 1.7972233532e+00 -3.1128821603e+00 1.7972233532e+00 3.1128821603e+00 
6700 6.0299787026e+00 2.6632724530e-01 1.7897428587e+00 -3.0999255637e+00 1.7897428587e+00 3.0999255637e+00 
6800 6.0268285115e+00 2.6350874882e-01 1.7823076580e+00 -3.0870474185e+00 1.7823076580e+00 3.0870474185e+00 
6900 6.0237320092e+00 2.6061761051e-01 1.7749204420e+00 -3.0742523849e+00 1.7749204420e+00 3.0742523849e+00 
7000 6.0206900909e+00 2.5765695398e-01 1.7675838541e+00 -3.0615450419e+00 1.7675838541e+00 3.0615450419e+00 
7100 6.0177035701e+00 2.5462988844e-01 1.7603004895e+00 -3.0489298844e+00 1.7603004895e+00 3.0489298844e+00 
7200 6.0147731823e+00 2.5153951275e-01 1.7530728939e+00 -3.0364113216e+00 1.7530728939e+00 3.0364113216e+00 
7300 6.0118995878e+00 2.4838891904e-01 1.7459035616e+00 -3.0239936738e+00 1.7459035616e+00 3.0239936738e+00 
7400 6.0090833746e+00 2.4518119579e-01 1.7387949342e+00 -3.0116811700e+00 1.7387949342e+00 3.0116811700e+00 
7500 6.0063250610e+00 2.4191943047e-01 1.7317493986e+00 -2.9994779444e+00 1.7317493986e+00 2.9994779444e+00 
7600 6.0036250975e+00 2.3860671160e-01 1.7247692852e+00 -2.9873880333e+00 1.7247692852e+00 2.9873880333e+00 
7700 6.0009838694e+00 2.3524613025e-01 1.7178568655e+00 -2.9754153711e+00 1.7178568655e+00 2.9754153711e+00 
7800 5.9984016979e+00 2.3184078105e-01 1.7110143504e+00 -2.9635637874e+00 1.7110143504e+00 2.9635637874e+00 
7900 5.9958788424e+00 2.2839376254e-01 1.7042438878e+00 -2.9518370022e+00 1.7042438878e+00 2.9518370022e+00 
8000 5.9934155013e+00 2.2490817705e-01 1.6975475603e+00 -2.9402386226e+00 1.6975475603e+00 2.9402386226e+00 
8100 5.9910118139e+00 2.2138712998e-01 1.6909273827e+00 -2.9287721388e+00 1.6909273827e+00 2.9287721388e+00 
8200 5.9886678610e+00 2.1783372855e-01 1.6843853003e+00 -2.9174409196e+00 1.6843853003e+00 2.9174409196e+00 
8300 5.9863836665e+00 2.1425108006e-01 1.6779231857e+00 -2.9062482088e+00 1.6779231857e+00 2.9062482088e+00 
8400 5.9841591981e+00 2.1064228962e-01 1.6715428372e+00 -2.8951971211e+00 1.6715428372e+00 2.8951971211e+00 
8500 5.9819943683e+00 2.0701045748e-01 1.6652459764e+00 -2.8842906382e+00 1.6652459764e+00 2.8842906382e+00 
8600 5.9798890352e+00 2.0335867584e-01 1.6590342455e+00 -2.8735316048e+00 1.6590342455e+00 2.8735316048e+00 
8700 5.9778430039e+00 1.9969002539e-01 1.6529092061e+00 -2.8629227253e+00 1.6529092061e+00 2.8629227253e+00 
8800 5.9758560266e+00 1.9600757137e-01 1.6468723364e+00 -2.8524665602e+00 1.6468723364e+00 2.8524665602e+00 
8900 5.9739278040e+00 1.9231435942e-01 1.6409250296e+00 -2.8421655227e+00 1.6409250296e+00 2.8421655227e+00 
9000 5.9720579861e+00 1.8861341112e-01 1.6350685924e+00 -2.8320218760e+00 1.6350685924e+00 2.8320218760e+00 
9100 5.9702461731e+00 1.8490771932e-01 1.6293042432e+00 -2.8220377302e+00 1.6293042432e+00 2.8220377302e+00 
9200 5.9684919164e+00 1.8120024333e-01 1.6236331104e+00 -2.8122150401e+00 1.6236331104e+00 2.8122150401e+00 
9300 5.9667947197e+00 1.7749390392e-01 1.6180562318e+00 -2.8025556031e+00 1.6180562318e+00 2.8025556031e+00 
9400 5.9651540401e+00 1.7379157832e-01 1.6125745532e+00 -2.7930610571e+00 1.6125745532e+00 2.7930610571e+00 
9500 5.9635692890e+00 1.7009609515e-01 1.6071889274e+00 -2.7837328796e+00 1.6071889274e+00 2.7837328796e+00 
9600 5.9620398339e+00 1.6641022942e-01 1.6019001140e+00 -2.7745723861e+00 1.6019001140e+00 2.7745723861e+00 
9700 5.9605649992e+00 1.6273669751e-01 1.5967087789e+00 -2.7655807299e+00 1.5967087789e+00 2.7655807299e+00 
9800 5.9591440682e+00 1.5907815236e-01 1.5916154939e+00 -2.7567589016e+00 1.5916154939e+00 2.7567589016e+00 
9900 5.9577762840e+00 1.5543717875e-01 1.5866207372e+00 -2.7481077291e+00 1.5866207372e+00 2.7481077291e+00 
10000 5.9564608515e+00 1.5181628879e-01 1.5817248932e+00 -2.7396278787e+00 1.5817248932e+00 2.7396278787e+00 
10100 5.9551969390e+00 1.4821791766e-01 1.5769282536e+00 -2.7313198552e+00 1.5769282536e+00 2.7313198552e+00 
10200 5.9539836798e+00 1.4464441953e-01 1.5722310178e+00 -2.7231840041e+00 1.5722310178e+00 2.7231840041e+00 
10300 5.9528201743e+00 1.4109806389e-01 1.5676332940e+00 -2.7152205128e+00 1.5676332940e+00 2.7152205128e+00 
10400 5.9517054917e+00 1.3758103207e-01 1.5631351005e+00 -2.7074294131e+00 1.5631351005e+00 2.7074294131e+00 
10500 5.9506386722e+00 1.3409541422e-01 1.5587363670e+00 -2.6998105833e+00 1.5587363670e+00 2.6998105833e+00 
10600 5.9496187286e+00 1.3064320649e-01 1.5544369366e+00 -2.6923637514e+00 1.5544369366e+00 2.6923637514e+00 
10700 5.9486446488e+00 1.2722630875e-01 1.5502365673e+00 -2.6850884984e+00 1.5502365673e+00 2.6850884984e+00 
10800 5.9477153979e+00 1.2384652254e-01 1.5461349343e+00 -2.6779842615e+00 1.5461349343e+00 2.6779842615e+00 
10900 5.9468299200e+00 1.2050554949e-01 1.5421316318e+00 -2.6710503382e+00 1.5421316318e+00 2.6710503382e+00 
11000 5.9459871407e+00 1.1720499012e-01 1.5382261761e+00 -2.6642858905e+00 1.5382261761e+00 2.6642858905e+00 
11100 5.9451859692e+00 1.1394634295e-01 1.5344180076e+00 -2.6576899492e+00 1.5344180076e+00 2.6576899492e+00 
11200 5.9444253005e+00 1.1073100411e-01 1.5307064936e+00 -2.6512614185e+00 1.5307064936e+00 2.6512614185e+00 
11300 5.9437040174e+00 1.0756026721e-01 1.5270909314e+00 -2.6449990810e+00 1.5270909314e+00 2.6449990810e+00 
11400 5.9430209931e+00 1.0443532368e-01 1.5235705507e+00 -2.6389016027e+00 1.5235705507e+00 2.6389016027e+00 
11500 5.9423750929e+00 1.0135726336e-01 1.5201445170e+00 -2.6329675383e+00 1.5201445170e+00 2.6329675383e+00 
11600 5.9417651766e+00 9.8327075484e-02 1.5168119347e+00 -2.6271953364e+00 1.5168119347e+00 2.6271953364e+00 
11700 5.9411901005e+00 9.5345650006e-02 1.5135718500e+00 -2.6215833452e+00 1.5135718500e+00 2.6215833452e+00 
11800 5.9406487195e+00 9.2413779165e-02 1.5104232545e+00 -2.6161298177e+00 1.5104232545e+00 2.6161298177e+00 
11900 5.9401398891e+00 8.9532159378e-02 1.5073650878e+00 -2.6108329177e+00 1.5073650878e+00 2.6108329177e+00 
12000 5.9396624669e+00 8.6701393375e-02 1.5043962416e+00 -2.6056907252e+00 1.5043962416e+00 2.6056907252e+00 
12100 5.9392153154e+00 8.3921992577e-02 1.5015155624e+00 -2.6007012424e+00 1.5015155624e+00 2.6007012424e+00 
12200 5.9387973029e+00 8.1194379688e-02 1.4987218547e+00 -2.5958623987e+00 1.4987218547e+00 2.5958623987e+00 
12300 5.9384073057e+00 7.8518891484e-02 1.4960138846e+00 -2.5911720570e+00 1.4960138846e+00 2.5911720570e+00 
12400 5.9380442095e+00 7.5895781765e-02 1.4933903831e+00 -2.5866280190e+00 1.4933903831e+00 2.5866280190e+00 
12500 5.9377069112e+00 7.3325224461e-02 1.4908500486e+00 -2.5822280306e+00 1.4908500486e+00 2.5822280306e+00 
12600 5.9373943204e+00 7.0807316852e-02 1.4883915507e+00 -2.5779697874e+00 1.4883915507e+00 2.5779697874e+00 
12700 5.9371053606e+00 6.8342082903e-02 1.4860135331e+00 -2.5738509401e+00 1.4860135331e+00 2.5738509401e+00 
12800 5.9368389707e+00 6.5929476664e-02 1.4837146163e+00 -2.5698690994e+00 1.4837146163e+00 2.5698690994e+00 
12900 5.9365941061e+00 6.3569385744e-02 1.4814934008e+00 -2.5660218413e+00 1.4814934008e+00 2.5660218413e+00 
13000 5.9363697400e+00 6.1261634809e-02 1.4793484699e+00 -2.5623067120e+00 1.4793484699e+00 2.5623067120e+00 
13100 5.9361648646e+00 5.9005989117e-02 1.4772783922e+00 -2.5587212323e+00 1.4772783922e+00 2.5587212323e+00 
13200 5.9359784917e+00 5.6802158037e-02 1.4752817247e+00 -2.5552629027e+00 1.4752817247e+00 2.5552629027e+00 
13300 5.9358096540e+00 5.4649798572e-02 1.4733570148e+00 -2.5519292073e+00 1.4733570148e+00 2.5519292073e+00 
13400 5.9356574055e+00 5.2548518840e-02 1.4715028030e+00 -2.5487176182e+00 1.4715028030e+00 2.5487176182e+00 
13500 5.9355208229e+00 5.0497881513e-02 1.4697176253e+00 -2.5456255998e+00 1.4697176253e+00 2.5456255998e+00 
13600 5.9353990055e+00 4.8497407207e-02 1.4680000154e+00 -2.5426506121e+00 1.4680000154e+00 2.5426506121e+00 
13700 5.9352910765e+00 4.6546577791e-02 1.4663485065e+00 -2.5397901148e+00 1.4663485065e+00 2.5397901148e+00 
13800 5.9351961830e+00 4.4644839628e-02 1.4647616336e+00 -2.5370415704e+00 1.4647616336e+00 2.5370415704e+00 
13900 5.9351134967e+00 4.2791606724e-02 1.4632379355e+00 -2.5344024479e+00 1.4632379355e+00 2.5344024479e+00 
14000 5.9350422143e+00 4.0986263774e-02 1.4617759562e+00 -2.5318702254e+00 1.4617759562e+00 2.5318702254e+00 
14100 5.9349815577e+00 3.9228169120e-02 1.4603742467e+00 -2.5294423933e+00 1.4603742467e+00 2.5294423933e+00 
14200 5.9349307742e+00 3.7516657582e-02 1.4590313666e+00 -2.5271164567e+00 1.4590313666e+00 2.5271164567e+00 
14300 5.9348891370e+00 3.5851043189e-02 1.4577458855e+00 -2.5248899383e+00 1.4577458855e+00 2.5248899383e+00 
14400 5.9348559448e+00 3.4230621786e-02 1.4565163846e+00 -2.5227603802e+00 1.4565163846e+00 2.5227603802e+00 
14500 5.9348305226e+00 3.2654673524e-02 1.4553414574e+00 -2.5207253465e+00 1.4553414574e+00 2.5207253465e+00 
14600 5.9348122208e+00 3.1122465222e-02 1.4542197112e+00 -2.5187824251e+00 1.4542197112e+00 2.5187824251e+00 
14700 5.9348004161e+00 2.9633252614e-02 1.4531497681e+00 -2.5169292294e+00 1.4531497681e+00 2.5169292294e+00 
14800 5.9347945107e+00 2.8186282466e-02 1.4521302660e+00 -2.5151633999e+00 1.4521302660e+00 2.5151633999e+00 
14900 5.9347939325e+00 2.6780794571e-02 1.4511598592e+00 -2.5134826061e+00 1.4511598592e+00 2.5134826061e+00 
15000 5.9347981349e+00 2.5416023626e-02 1.4502372195e+00 -2.5118845472e+00 1.4502372195e+00 2.5118845472e+00 
15100 5.9348065965e+00 2.4091200980e-02 1.4493610366e+00 -2.5103669538e+00 1.4493610366e+00 2.5103669538e+00 
15200 5.9348188210e+00 2.2805556272e-02 1.4485300187e+00 -2.5089275887e+00 1.4485300187e+00 2.5089275887e+00 
15300 5.9348343365e+00 2.1558318948e-02 1.4477428935e+00 -2.5075642479e+00 1.4477428935e+00 2.5075642479e+00 
15400 5.9348526957e+00 2.0348719663e-02 1.4469984081e+00 -2.5062747613e+00 1.4469984081e+00 2.5062747613e+00 
15500 5.9348734751e+00 1.9175991579e-02 1.4462953296e+00 -2.5050569935e+00 1.4462953296e+00 2.5050569935e+00 
15600 5.9348962751e+00 1.8039371551e-02 1.4456324454e+00 -2.5039088444e+00 1.4456324454e+00 2.5039088444e+00 
15700 5.9349207188e+00 1.6938101213e-02 1.4450085636e+00 -2.5028282496e+00 1.4450085636e+00 2.5028282496e+00 
15800 5.9349464522e+00 1.5871427964e-02 1.4444225133e+00 -2.5018131806e+00 1.4444225133e+00 2.5018131806e+00 
15900 5.9349731436e+00 1.4838605858e-02 1.4438731442e+00 -2.5008616454e+00 1.4438731442e+00 2.5008616454e+00 
16000 5.9350004829e+00 1.3838896408e-02 1.4433593274e+00 -2.4999716886e+00 1.4433593274e+00 2.4999716886e+00 
16100 5.9350281812e+00 1.2871569297e-02 1.4428799551e+00 -2.4991413914e+00 1.4428799551e+00 2.4991413914e+00 
16200 5.9350559702e+00 1.1935903015e-02 1.4424339406e+00 -2.4983688718e+00 1.4424339406e+00 2.4983688718e+00 
16300 5.9350836017e+00 1.1031185409e-02 1.4420202187e+00 -2.4976522843e+00 1.4420202187e+00 2.4976522843e+00 
16400 5.9351108470e+00 1.0156714170e-02 1.4416377449e+00 -2.4969898203e+00 1.4416377449e+00 2.4969898203e+00 
16500 5.9351374962e+00 9.3117972418e-03 1.4412854962e+00 -2.4963797077e+00 1.4412854962e+00 2.4963797077e+00 
16600 5.9351633578e+00 8.4957531739e-03 1.4409624704e+00 -2.4958202105e+00 1.4409624704e+00 2.4958202105e+00 
16700 5.9351882579e+00 7.7079114057e-03 1.4406676860e+00 -2.4953096290e+00 1.4406676860e+00 2.4953096290e+00 
16800 5.9352120397e+00 6.9476125001e-03 1.4404001825e+00 -2.4948462994e+00 1.4404001825e+00 2.4948462994e+00 
16900 5.9352345627e+00 6.2142083230e-03 1.4401590198e+00 -2.4944285932e+00 1.4401590198e+00 2.4944285932e+00 
17000 5.9352557023e+00 5.5070621741e-03 1.4399432778e+00 -2.4940549172e+00 1.4399432778e+00 2.4940549172e+00 
17100 5.9352753490e+00 4.8255488741e-03 1.4397520571e+00 -2.4937237132e+00 1.4397520571e+00 2.4937237132e+00 
17200 5.9352934078e+00 4.1690548095e-03 1.4395844777e+00 -2.4934334572e+00 1.4395844777e+00 2.4934334572e+00 
17300 5.9353097974e+00 3.5369779419e-03 1.4394396795e+00 -2.4931826594e+00 1.4394396795e+00 2.4931826594e+00 
17400 5.9353244497e+00 2.9287277813e-03 1.4393168217e+00 -2.4929698634e+00 1.4393168217e+00 2.4929698634e+00 
17500 5.9353373095e+00 2.3437253304e-03 1.4392150827e+00 -2.4927936463e+00 1.4392150827e+00 2.4927936463e+00 
17600 5.9353483330e+00 1.7814029996e-03 1.4391336598e+00 -2.4926526176e+00 1.4391336598e+00 2.4926526176e+00 
17700 5.9353574879e+00 1.2412044984e-03 1.4390717687e+00 -2.4925454191e+00 1.4390717687e+00 2.4925454191e+00 
17800 5.9353647527e+00 7.2258470440e-04 1.4390286437e+00 -2.4924707245e+00 1.4390286437e+00 2.4924707245e+00 
17900 5.9353701156e+00 2.2500951236e-04 1.4390035371e+00 -2.4924272386e+00 1.4390035371e+00 2.4924272386e+00 
18000 5.9353735744e+00 -2.5204433263e-04 1.4389957189e+00 -2.4924136970e+00 1.4389957189e+00 2.4924136970e+00 
18100 5.9353751356e+00 -7.0908941726e-04 1.4390044765e+00 -2.4924288657e+00 1.4390044765e+00 2.4924288657e+00 
18200 5.9353748139e+00 -1.1466278542e-03 1.4390291148e+00 -2.4924715404e+00 1.4390291148e+00 2.4924715404e+00 
18300 5.9353726316e+00 -1.5651514866e-03 1.4390689553e+00 -2.4925405462e+00 1.4390689553e+00 2.4925405462e+00 
18400 5.9353686181e+00 -1.9651421012e-03 1.4391233364e+00 -2.4926347369e+00 1.4391233364e+00 2.4926347369e+00 
18500 5.9353628092e+00 -2.3470716476e-03 1.4391916126e+00 -2.4927529948e+00 1.4391916126e+00 2.4927529948e+00 
18600 5.9353552465e+00 -2.7114024634e-03 1.4392731547e+00 -2.4928942298e+00 1.4392731547e+00 2.4928942298e+00 
18700 5.9353459773e+00 -3.0585875013e-03 1.4393673491e+00 -2.4930573795e+00 1.4393673491e+00 2.4930573795e+00 
18800 5.9353350535e+00 -3.3890705600e-03 1.4394735981e+00 -2.4932414080e+00 1.4394735981e+00 2.4932414080e+00 
18900 5.9353225314e+00 -3.7032865148e-03 1.4395913188e+00 -2.4934453063e+00 1.4395913188e+00 2.4934453063e+00 
19000 5.9353084713e+00 -4.0016615476e-03 1.4397199435e+00 -2.4936680909e+00 1.4397199435e+00 2.4936680909e+00 
19100 5.9352929368e+00 -4.2846133765e-03 1.4398589194e+00 -2.4939088041e+00 1.4398589194e+00 2.4939088041e+00 
19200 5.9352759946e+00 -4.5525514822e-03 1.4400077078e+00 -2.4941665132e+00 1.4400077078e+00 2.4941665132e+00 
19300 5.9352577137e+00 -4.8058773311e-03 1.4401657846e+00 -2.4944403102e+00 1.4401657846e+00 2.4944403102e+00 
19400 5.9352381654e+00 -5.0449845947e-03 1.4403326393e+00 -2.4947293111e+00 1.4403326393e+00 2.4947293111e+00 
19500 5.9352174227e+00 -5.2702593644e-03 1.4405077755e+00 -2.4950326559e+00 1.4405077755e+00 2.4950326559e+00 
19600 5.9351955599e+00 -5.4820803604e-03 1.4406907100e+00 -2.4953495077e+00 1.4406907100e+00 2.4953495077e+00 
19700 5.9351726521e+00 -5.6808191355e-03 1.4408809729e+00 -2.4956790528e+00 1.4408809729e+00 2.4956790528e+00 
19800 5.9351487754e+00 -5.8668402721e-03 1.4410781075e+00 -2.4960204998e+00 1.4410781075e+00 2.4960204998e+00 
19900 5.9351240059e+00 -6.0405015729e-03 1.4412816696e+00 -2.4963730798e+00 1.4412816696e+00 2.4963730798e+00 
20000 5.9350984199e+00 -6.2021542446e-03 1.4414912278e+00 -2.4967360452e+00 1.4414912278e+00 2.4967360452e+00 
20100 5.9350720931e+00 -6.3521430743e-03 1.4417063629e+00 -2.4971086702e+00 1.4417063629e+00 2.4971086702e+00 
20200 5.9350451011e+00 -6.4908065989e-03 1.4419266680e+00 -2.4974902498e+00 1.4419266680e+00 2.4974902498e+00 
20300 5.9350175182e+00 -6.6184772665e-03 1.4421517480e+00 -2.4978800997e+00 1.4421517480e+00 2.4978800997e+00 
20400 5.9349894182e+00 -6.7354815908e-03 1.4423812194e+00 -2.4982775559e+00 1.4423812194e+00 2.4982775559e+00 
20500 5.9349608731e+00 -6.8421402980e-03 1.4426147105e+00 -2.4986819743e+00 1.4426147105e+00 2.4986819743e+00 
20600 5.9349319539e+00 -6.9387684648e-03 1.4428518607e+00 -2.4990927306e+00 1.4428518607e+00 2.4990927306e+00 
20700 5.9349027297e+00 -7.0256756512e-03 1.4430923206e+00 -2.4995092194e+00 1.4430923206e+00 2.4995092194e+00 
20800 5.9348732678e+00 -7.1031660235e-03 1.4433357518e+00 -2.4999308545e+00 1.4433357518e+00 2.4999308545e+00 
20900 5.9348436338e+00 -7.1715384715e-03 1.4435818265e+00 -2.5003570684e+00 1.4435818265e+00 2.5003570684e+00 
21000 5.9348138910e+00 -7.2310867179e-03 1.4438302275e+00 -2.5007873116e+00 1.4438302275e+00 2.5007873116e+00 
21100 5.9347841006e+00 -7.2820994209e-03 1.4440806481e+00 -2.5012210527e+00 1.4440806481e+00 2.5012210527e+00 
21200 5.9347543214e+00 -7.3248602700e-03 1.4443327916e+00 -2.5016577781e+00 1.4443327916e+00 2.5016577781e+00 
21300 5.9347246099e+00 -7.3596480745e-03 1.4445863715e+00 -2.5020969913e+00 1.4445863715e+00 2.5020969913e+00 
21400 5.9346950201e+00 -7.3867368470e-03 1.4448411110e+00 -2.5025382131e+00 1.4448411110e+00 2.5025382131e+00 
21500 5.9346656037e+00 -7.4063958794e-03 1.4450967431e+00 -2.5029809808e+00 1.4450967431e+00 2.5029809808e+00 
21600 5.9346364094e+00 -7.4188898137e-03 1.4453530102e+00 -2.5034248485e+00 1.4453530102e+00 2.5034248485e+00 
21700 5.9346074838e+00 -7.4244787072e-03 1.4456096640e+00 -2.5038693860e+00 1.4456096640e+00 2.5038693860e+00 
21800 5.9345788704e+00 -7.4234180922e-03 1.4458664657e+00 -2.5043141795e+00 1.4458664657e+00 2.5043141795e+00 
21900 5.9345506104e+00 -7.4159590305e-03 1.4461231850e+00 -2.5047588304e+00 1.4461231850e+00 2.5047588304e+00 
22000 5.9345227421e+00 -7.4023481638e-03 1.4463796009e+00 -2.5052029557e+00 1.4463796009e+00 2.5052029557e+00 
22100 5.9344953015e+00 -7.3828277586e-03 1.4466355007e+00 -2.5056461873e+00 1.4466355007e+00 2.5056461873e+00 
22200 5.9344683216e+00 -7.3576357480e-03 1.4468906806e+00 -2.5060881717e+00 1.4468906806e+00 2.5060881717e+00 
22300 5.9344418330e+00 -7.3270057690e-03 1.4471449448e+00 -2.5065285703e+00 1.4471449448e+00 2.5065285703e+00 
22400 5.9344158637e+00 -7.2911671963e-03 1.4473981060e+00 -2.5069670584e+00 1.4473981060e+00 2.5069670584e+00 
22500 5.9343904392e+00 -7.2503451732e-03 1.4476499848e+00 -2.5074033253e+00 1.4476499848e+00 2.5074033253e+00 
22600 5.9343655825e+00 -7.2047606388e-03 1.4479004098e+00 -2.5078370741e+00 1.4479004098e+00 2.5078370741e+00 
22700 5.9343413140e+00 -7.1546303533e-03 1.4481492172e+00 -2.5082680212e+00 1.4481492172e+00 2.5082680212e+00 
22800 5.9343176521e+00 -7.1001669204e-03 1.4483962509e+00 -2.5086958961e+00 1.4483962509e+00 2.5086958961e+00 
22900 5.9342946125e+00 -7.0415788077e-03 1.4486413623e+00 -2.5091204414e+00 1.4486413623e+00 2.5091204414e+00 
23000 5.9342722088e+00 -6.9790703649e-03 1.4488844099e+00 -2.5095414122e+00 1.4488844099e+00 2.5095414122e+00 
23100 5.9342504526e+00 -6.9128418410e-03 1.4491252594e+00 -2.5099585759e+00 1.4491252594e+00 2.5099585759e+00 
23200 5.9342293530e+00 -6.8430893998e-03 1.4493637837e+00 -2.5103717121e+00 1.4493637837e+00 2.5103717121e+00 
23300 5.9342089176e+00 -6.7700051339e-03 1.4495998623e+00 -2.5107806122e+00 1.4495998623e+00 2.5107806122e+00 
23400 5.9341891516e+00 -6.6937770786e-03 1.4498333815e+00 -2.5111850792e+00 1.4498333815e+00 2.5111850792e+00 
23500 5.9341700585e+00 -6.6145892241e-03 1.4500642340e+00 -2.5115849276e+00 1.4500642340e+00 2.5115849276e+00 
23600 5.9341516402e+00 -6.5326215286e-03 1.4502923192e+00 -2.5119799827e+00 1.4502923192e+00 2.5119799827e+00 
23700 5.9341338966e+00 -6.4480499297e-03 1.4505175424e+00 -2.5123700807e+00 1.4505175424e+00 2.5123700807e+00 
23800 5.9341168263e+00 -6.3610463567e-03 1.4507398153e+00 -2.5127550687e+00 1.4507398153e+00 2.5127550687e+00 
23900 5.9341004261e+00 -6.2717787425e-03 1.4509590554e+00 -2.5131348037e+00 1.4509590554e+00 2.5131348037e+00 
24000 5.9340846916e+00 -6.1804110363e-03 1.4511751861e+00 -2.5135091529e+00 1.4511751861e+00 2.5135091529e+00 
24100 5.9340696170e+00 -6.0871032160e-03 1.4513881363e+00 -2.5138779936e+00 1.4513881363e+00 2.5138779936e+00 
24200 5.9340551952e+00 -5.9920113020e-03 1.4515978407e+00 -2.5142412123e+00 1.4515978407e+00 2.5142412123e+00 
24300 5.9340414180e+00 -5.8952873709e-03 1.4518042392e+00 -2.5145987050e+00 1.4518042392e+00 2.5145987050e+00 
24400 5.9340282760e+00 -5.7970795708e-03 1.4520072771e+00 -2.5149503769e+00 1.4520072771e+00 2.5149503769e+00 
24500 5.9340157590e+00 -5.6975321371e-03 1.4522069046e+00 -2.5152961419e+00 1.4522069046e+00 2.5152961419e+00 
24600 5.9340038556e+00 -5.5967854095e-03 1.4524030771e+00 -2.5156359226e+00 1.4524030771e+00 2.5156359226e+00 
24700 5.9339925539e+00 -5.4949758500e-03 1.4525957546e+00 -2.5159696499e+00 1.4525957546e+00 2.5159696499e+00 
24800 5.9339818411e+00 -5.3922360626e-03 1.4527849021e+00 -2.5162972629e+00 1.4527849021e+00 2.5162972629e+00 
24900 5.9339717036e+00 -5.2886948137e-03 1.4529704888e+00 -2.5166187084e+00 1.4529704888e+00 2.5166187084e+00 
25000 5.9339621274e+00 -5.1844770542e-03 1.4531524885e+00 -2.5169339412e+00 1.4531524885e+00 2.5169339412e+00 
25100 5.9339530978e+00 -5.0797039435e-03 1.4533308794e+00 -2.5172429233e+00 1.4533308794e+00 2.5172429233e+00 
25200 5.9339445997e+00 -4.9744928737e-03 1.4535056436e+00 -2.5175456239e+00 1.4535056436e+00 2.5175456239e+00 
25300 5.9339366178e+00 -4.8689574968e-03 1.4536767675e+00 -2.5178420191e+00 1.4536767675e+00 2.5178420191e+00 
25400 5.9339291362e+00 -4.7632077524e-03 1.4538442412e+00 -2.5181320920e+00 1.4538442412e+00 2.5181320920e+00 
25500 5.9339221388e+00 -4.6573498976e-03 1.4540080585e+00 -2.5184158319e+00 1.4540080585e+00 2.5184158319e+00 
25600 5.9339156095e+00 -4.5514865379e-03 1.4541682170e+00 -2.5186932346e+00 1.4541682170e+00 2.5186932346e+00 
25700 5.9339095317e+00 -4.4457166602e-03 1.4543247177e+00 -2.5189643018e+00 1.4543247177e+00 2.5189643018e+00 
25800 5.9339038889e+00 -4.3401356672e-03 1.4544775651e+00 -2.5192290413e+00 1.4544775651e+00 2.5192290413e+00 
25900 5.9338986648e+00 -4.2348354130e-03 1.4546267668e+00 -2.5194874662e+00 1.4546267668e+00 2.5194874662e+00 
26000 5.9338938426e+00 -4.1299042414e-03 1.4547723336e+00 -2.5197395952e+00 1.4547723336e+00 2.5197395952e+00 
26100 5.9338894060e+00 -4.0254270239e-03 1.4549142792e+00 -2.5199854522e+00 1.4549142792e+00 2.5199854522e+00 
26200 5.9338853385e+00 -3.9214852013e-03 1.4550526204e+00 -2.5202250661e+00 1.4550526204e+00 2.5202250661e+00 
26300 5.9338816238e+00 -3.8181568249e-03 1.4551873765e+00 -2.5204584706e+00 1.4551873765e+00 2.5204584706e+00 
26400 5.9338782460e+00 -3.7155166006e-03 1.4553185697e+00 -2.5206857040e+00 1.4553185697e+00 2.5206857040e+00 
26500 5.9338751890e+00 -3.6136359336e-03 1.4554462246e+00 -2.5209068087e+00 1.4554462246e+00 2.5209068087e+00 
26600 5.9338724374e+00 -3.5125829744e-03 1.4555703682e+00 -2.5211218318e+00 1.4555703682e+00 2.5211218318e+00 
26700 5.9338699755e+00 -3.4124226670e-03 1.4556910299e+00 -2.5213308240e+00 1.4556910299e+00 2.5213308240e+00 
26800 5.9338677885e+00 -3.3132167972e-03 1.4558082412e+00 -2.5215338399e+00 1.4558082412e+00 2.5215338399e+00 
26900 5.9338658615e+00 -3.2150240429e-03 1.4559220357e+00 -2.5217309378e+00 1.4559220357e+00 2.5217309378e+00 
27000 5.9338641801e+00 -3.1179000253e-03 1.4560324491e+00 -2.5219221793e+00 1.4560324491e+00 2.5219221793e+00 
27100 5.9338627301e+00 -3.0218973612e-03 1.4561395188e+00 -2.5221076294e+00 1.4561395188e+00 2.5221076294e+00 
27200 5.9338614980e+00 -2.9270657164e-03 1.4562432840e+00 -2.5222873561e+00 1.4562432840e+00 2.5222873561e+00 
27300 5.9338604702e+00 -2.8334518600e-03 1.4563437857e+00 -2.5224614302e+00 1.4563437857e+00 2.5224614302e+00 
27400 5.9338596340e+00 -2.7410997195e-03 1.4564410664e+00 -2.5226299253e+00 1.4564410664e+00 2.5226299253e+00 
27500 5.9338589768e+00 -2.6500504371e-03 1.4565351701e+00 -2.5227929177e+00 1.4565351701e+00 2.5227929177e+00 
27600 5.9338584866e+00 -2.5603424265e-03 1.4566261421e+00 -2.5229504858e+00 1.4566261421e+00 2.5229504858e+00 
27700 5.9338581515e+00 -2.4720114303e-03 1.4567140290e+00 -2.5231027104e+00 1.4567140290e+00 2.5231027104e+00 
27800 5.9338579604e+00 -2.3850905784e-03 1.4567988788e+00 -2.5232496744e+00 1.4567988788e+00 2.5232496744e+00 
27900 5.9338579025e+00 -2.2996104467e-03 1.4568807402e+00 -2.5233914626e+00 1.4568807402e+00 2.5233914626e+00 
28000 5.9338579673e+00 -2.2155991162e-03 1.4569596633e+00 -2.5235281614e+00 1.4569596633e+00 2.5235281614e+00 
28100 5.9338581450e+00 -2.1330822332e-03 1.4570356990e+00 -2.5236598591e+00 1.4570356990e+00 2.5236598591e+00 
28200 5.9338584260e+00 -2.0520830688e-03 1.4571088990e+00 -2.5237866452e+00 1.4571088990e+00 2.5237866452e+00 
28300 5.9338588013e+00 -1.9726225797e-03 1.4571793158e+00 -2.5239086107e+00 1.4571793158e+00 2.5239086107e+00 
28400 5.9338592621e+00 -1.8947194689e-03 1.4572470027e+00 -2.5240258478e+00 1.4572470027e+00 2.5240258478e+00 
28500 5.9338598002e+00 -1.8183902461e-03 1.4573120134e+00 -2.5241384497e+00 1.4573120134e+00 2.5241384497e+00 
28600 5.9338604079e+00 -1.7436492890e-03 1.4573744023e+00 -2.5242465105e+00 1.4573744023e+00 2.5242465105e+00 
28700 5.9338610777e+00 -1.6705089040e-03 1.4574342243e+00 -2.5243501252e+00 1.4574342243e+00 2.5243501252e+00 
28800 5.9338618025e+00 -1.5989793874e-03 1.4574915346e+00 -2.5244493896e+00 1.4574915346e+00 2.5244493896e+00 
28900 5.9338625759e+00 -1.5290690863e-03 1.4575463888e+00 -2.5245443998e+00 1.4575463888e+00 2.5245443998e+00 
29000 5.9338633914e+00 -1.4607844590e-03 1.4575988426e+00 -2.5246352525e+00 1.4575988426e+00 2.5246352525e+00 
29100 5.9338642434e+00 -1.3941301358e-03 1.4576489522e+00 -2.5247220448e+00 1.4576489522e+00 2.5247220448e+00 
29200 5.9338651263e+00 -1.3291089793e-03 1.4576967737e+00 -2.5248048740e+00 1.4576967737e+00 2.5248048740e+00 
29300 5.9338660350e+00 -1.2657221446e-03 1.4577423632e+00 -2.5248838375e+00 1.4577423632e+00 2.5248838375e+00 
29400 5.9338669646e+00 -1.2039691384e-03 1.4577857772e+00 -2.5249590327e+00 1.4577857772e+00 2.5249590327e+00 
29500 5.9338679108e+00 -1.1438478788e-03 1.4578270719e+00 -2.5250305572e+00 1.4578270719e+00 2.5250305572e+00 
29600 5.9338688693e+00 -1.0853547540e-03 1.4578663033e+00 -2.5250985080e+00 1.4578663033e+00 2.5250985080e+00 
29700 5.9338698365e+00 -1.0284846802e-03 1.4579035276e+00 -2.5251629823e+00 1.4579035276e+00 2.5251629823e+00 
29800 5.9338708086e+00 -9.7323115997e-04 1.4579388004e+00 -2.5252240767e+00 1.4579388004e+00 2.5252240767e+00 
29900 5.9338717825e+00 -9.1958633898e-04 1.4579721775e+00 -2.5252818875e+00 1.4579721775e+00 2.5252818875e+00 
30000 5.9338727553e+00 -8.6754106268e-04 1.4580037141e+00 -2.5253365105e+00 1.4580037141e+00 2.5253365105e+00 
30100 5.9338737242e+00 -8.1708493224e-04 1.4580334652e+00 -2.5253880409e+00 1.4580334652e+00 2.5253880409e+00 
30200 5.9338746867e+00 -7.6820635964e-04 1.4580614854e+00 -2.5254365733e+00 1.4580614854e+00 2.5254365733e+00 
30300 5.9338756406e+00 -7.2089262221e-04 1.4580878289e+00 -2.5254822015e+00 1.4580878289e+00 2.5254822015e+00 
30400 5.9338765840e+00 -6.7512991620e-04 1.4581125494e+00 -2.5255250188e+00 1.4581125494e+00 2.5255250188e+00 
30500 5.9338775150e+00 -6.3090340976e-04 1.4581357003e+00 -2.5255651173e+00 1.4581357003e+00 2.5255651173e+00 
30600 5.9338784321e+00 -5.8819729489e-04 1.4581573343e+00 -2.5256025884e+00 1.4581573343e+00 2.5256025884e+00 
30700 5.9338793338e+00 -5.4699483871e-04 1.4581775035e+00 -2.5256375226e+00 1.4581775035e+00 2.5256375226e+00 
30800 5.9338802190e+00 -5.0727843372e-04 1.4581962597e+00 -2.5256700092e+00 1.4581962597e+00 2.5256700092e+00 
30900 5.9338810867e+00 -4.6902964721e-04 1.4582136537e+00 -2.5257001366e+00 1.4582136537e+00 2.5257001366e+00 
31000 5.9338819359e+00 -4.3222926977e-04 1.4582297361e+00 -2.5257279921e+00 1.4582297361e+00 2.5257279921e+00 
31100 5.9338827659e+00 -3.9685736279e-04 1.4582445565e+00 -2.5257536617e+00 1.4582445565e+00 2.5257536617e+00 
31200 5.9338835761e+00 -3.6289330504e-04 1.4582581639e+00 -2.5257772304e+00 1.4582581639e+00 2.5257772304e+00 
31300 5.9338843660e+00 -3.3031583829e-04 1.4582706066e+00 -2.5257987818e+00 1.4582706066e+00 2.5257987818e+00 
31400 5.9338851353e+00 -2.9910311186e-04 1.4582819322e+00 -2.5258183983e+00 1.4582819322e+00 2.5258183983e+00 
31500 5.9338858838e+00 -2.6923272626e-04 1.4582921875e+00 -2.5258361611e+00 1.4582921875e+00 2.5258361611e+00 
31600 5.9338866113e+00 -2.4068177578e-04 1.4583014186e+00 -2.5258521498e+00 1.4583014186e+00 2.5258521498e+00 
31700 5.9338873177e+00 -2.1342689000e-04 1.4583096708e+00 -2.5258664430e+00 1.4583096708e+00 2.5258664430e+00 
31800 5.9338880031e+00 -1.8744427433e-04 1.4583169884e+00 -2.5258791174e+00 1.4583169884e+00 2.5258791174e+00 
31900 5.9338886676e+00 -1.6270974952e-04 1.4583234151e+00 -2.5258902489e+00 1.4583234151e+00 2.5258902489e+00 
32000 5.9338893114e+00 -1.3919879008e-04 1.4583289938e+00 -2.5258999114e+00 1.4583289938e+00 2.5258999114e+00 
32100 5.9338899347e+00 -1.1688656168e-04 1.4583337663e+00 -2.5259081777e+00 1.4583337663e+00 2.5259081777e+00 
32200 5.9338905379e+00 -9.5747957482e-05 1.4583377739e+00 -2.5259151190e+00 1.4583377739e+00 2.5259151190e+00 
32300 5.9338911212e+00 -7.5757633454e-05 1.4583410567e+00 -2.5259208049e+00 1.4583410567e+00 2.5259208049e+00 
32400 5.9338916851e+00 -5.6890042621e-05 1.4583436541e+00 -2.5259253037e+00 1.4583436541e+00 2.5259253037e+00 
32500 5.9338922300e+00 -4.1187988929e-05 1.4583436541e+00 -2.5259253037e+00 1.4583436541e+00 2.5259253037e+00 
32600 5.9338927563e+00 -2.5916683048e-05 1.4583436541e+00 -2.5259253037e+00 1.4583436541e+00 2.5259253037e+00 
32700 5.9338932644e+00 -1.1087226694e-05 1.4583436541e+00 -2.5259253037e+00 1.4583436541e+00 2.5259253037e+00 
32800 5.9338937550e+00 3.2901891412e-06 1.4583436541e+00 -2.5259253037e+00 1.4583436541e+00 2.5259253037e+00 
32900 5.9338942286e+00 1.7206259153e-05 1.4583436541e+00 -2.5259253037e+00 1.4583436541e+00 2.5259253037e+00 
33000 5.9338946858e+00 3.0652538792e-05 1.4583436541e+00 -2.5259253037e+00 1.4583436541e+00 2.5259253037e+00 
33100 5.9338951272e+00 4.3621419487e-05 1.4583436541e+00 -2.5259253037e+00 1.4583436541e+00 2.5259253037e+00 
33200 5.9338955533e+00 5.6106104013e-05 1.4583436541e+00 -2.5259253037e+00 1.4583436541e+00 2.5259253037e+00 
33300 5.9338959648e+00 6.8100582047e-05 1.4583436541e+00 -2.5259253037e+00 1.4583436541e+00 2.5259253037e+00 
33400 5.9338963622e+00 7.9599605903e-05 1.4583436541e+00 -2.5259253037e+00 1.4583436541e+00 2.5259253037e+00 
33500 5.9338967457e+00 8.7699426141e-05 1.4583409249e+00 -2.5259205768e+00 1.4583409249e+00 2.5259205768e+00 
33600 5.9338971161e+00 9.4992357136e-05 1.4583379181e+00 -2.5259153688e+00 1.4583379181e+00 2.5259153688e+00 
33700 5.9338974741e+00 1.0150377529e-04 1.4583346613e+00 -2.5259097277e+00 1.4583346613e+00 2.5259097277e+00 
33800 5.9338978200e+00 1.0725889353e-04 1.4583311811e+00 -2.5259037000e+00 1.4583311811e+00 2.5259037000e+00 
33900 5.9338981546e+00 1.1228274182e-04 1.4583275037e+00 -2.5258973304e+00 1.4583275037e+00 2.5258973304e+00 
34000 5.9338984782e+00 1.1660014857e-04 1.4583236540e+00 -2.5258906626e+00 1.4583236540e+00 2.5258906626e+00 
34100 5.9338987915e+00 1.2023572297e-04 1.4583196562e+00 -2.5258837383e+00 1.4583196562e+00 2.5258837383e+00 
34200 5.9338990950e+00 1.2321383814e-04 1.4583155338e+00 -2.5258765980e+00 1.4583155338e+00 2.5258765980e+00 
34300 5.9338993891e+00 1.2555861526e-04 1.4583113093e+00 -2.5258692810e+00 1.4583113093e+00 2.5258692810e+00 
34400 5.9338996743e+00 1.2729390847e-04 1.4583070044e+00 -2.5258618246e+00 1.4583070044e+00 2.5258618246e+00 
34500 5.9338999510e+00 1.2844329059e-04 1.4583026399e+00 -2.5258542652e+00 1.4583026399e+00 2.5258542652e+00 
34600 5.9339002199e+00 1.2903003975e-04 1.4582982361e+00 -2.5258466375e+00 1.4582982361e+00 2.5258466375e+00 
34700 5.9339004811e+00 1.2907712675e-04 1.4582938121e+00 -2.5258389749e+00 1.4582938121e+00 2.5258389749e+00 
34800 5.9339007353e+00 1.2860720322e-04 1.4582893865e+00 -2.5258313095e+00 1.4582893865e+00 2.5258313095e+00 
34900 5.9339009827e+00 1.2764259054e-04 1.4582849769e+00 -2.5258236720e+00 1.4582849769e+00 2.5258236720e+00 
35000 5.9339012238e+00 1.2620526957e-04 1.4582806005e+00 -2.5258160917e+00 1.4582806005e+00 2.5258160917e+00 
35100 5.9339014589e+00 1.2431687103e-04 1.4582762733e+00 -2.5258085968e+00 1.4582762733e+00 2.5258085968e+00 
35200 5.9339016883e+00 1.2199866662e-04 1.4582720108e+00 -2.5258012140e+00 1.4582720108e+00 2.5258012140e+00 
35300 5.9339019125e+00 1.1927156090e-04 1.4582678278e+00 -2.5257939689e+00 1.4582678278e+00 2.5257939689e+00 
35400 5.9339021316e+00 1.1615608376e-04 1.4582637383e+00 -2.5257868857e+00 1.4582637383e+00 2.5257868857e+00 
35500 5.9339023460e+00 1.1267238360e-04 1.4582597557e+00 -2.5257799874e+00 1.4582597557e+00 2.5257799874e+00 
35600 5.9339025559e+00 1.0884022117e-04 1.4582558924e+00 -2.5257732961e+00 1.4582558924e+00 2.5257732961e+00 
35700 5.9339027617e+00 1.0467896395e-04 1.4582521606e+00 -2.5257668323e+00 1.4582521606e+00 2.5257668323e+00 
35800 5.9339029636e+00 1.0020758127e-04 1.4582485714e+00 -2.5257606157e+00 1.4582485714e+00 2.5257606157e+00 
35900 5.9339031618e+00 9.5444639912e-05 1.4582451355e+00 -2.5257546645e+00 1.4582451355e+00 2.5257546645e+00 
36000 5.9339033564e+00 9.0408300311e-05 1.4582418629e+00 -2.5257489963e+00 1.4582418629e+00 2.5257489963e+00 
36100 5.9339035478e+00 8.5116313348e-05 1.4582387630e+00 -2.5257436271e+00 1.4582387630e+00 2.5257436271e+00 
36200 5.9339037362e+00 7.9586017634e-05 1.4582358445e+00 -2.5257385721e+00 1.4582358445e+00 2.5257385721e+00 
36300 5.9339039216e+00 7.3834337343e-05 1.4582331157e+00 -2.5257338456e+00 1.4582331157e+00 2.5257338456e+00 
36400 5.9339041042e+00 6.7877780522e-05 1.4582305840e+00 -2.5257294607e+00 1.4582305840e+00 2.5257294607e+00 
36500 5.9339042845e+00 6.4214486051e-05 1.4582305840e+00 -2.5257294607e+00 1.4582305840e+00 2.5257294607e+00 
36600 5.9339044622e+00 6.0159904999e-05 1.4582305840e+00 -2.5257294607e+00 1.4582305840e+00 2.5257294607e+00 
36700 5.9339046375e+00 5.5722393312e-05 1.4582305840e+00 -2.5257294607e+00 1.4582305840e+00 2.5257294607e+00 
36800 5.9339048106e+00 5.0910421290e-05 1.4582305840e+00 -2.5257294607e+00 1.4582305840e+00 2.5257294607e+00 
36900 5.9339049815e+00 4.5732560935e-05 1.4582305840e+00 -2.5257294607e+00 1.4582305840e+00 2.5257294607e+00 
37000 5.9339051504e+00 4.0197473671e-05 1.4582305840e+00 -2.5257294607e+00 1.4582305840e+00 2.5257294607e+00 
37100 5.9339053173e+00 3.4313898449e-05 1.4582305840e+00 -2.5257294607e+00 1.4582305840e+00 2.5257294607e+00 
37200 5.9339054823e+00 2.8090640226e-05 1.4582305840e+00 -2.5257294607e+00 1.4582305840e+00 2.5257294607e+00 
37300 5.9339056456e+00 2.1536558811e-05 1.4582305840e+00 -2.5257294607e+00 1.4582305840e+00 2.5257294607e+00 
37400 5.9339058071e+00 1.4660558082e-05 1.4582305840e+00 -2.5257294607e+00 1.4582305840e+00 2.5257294607e+00 
37500 5.9339059671e+00 7.4715755749e-06 1.4582305840e+00 -2.5257294607e+00 1.4582305840e+00 2.5257294607e+00 
37600 5.9339061255e+00 -2.1427576262e-08 1.4582305840e+00 -2.5257294607e+00 1.4582305840e+00 2.5257294607e+00 
37700 5.9339062824e+00 -7.8094763332e-06 1.4582305840e+00 -2.5257294607e+00 1.4582305840e+00 2.5257294607e+00 
37800 5.9339064379e+00 -1.5883591094e-05 1.4582305840e+00 -2.5257294607e+00 1.4582305840e+00 2.5257294607e+00 
37900 5.9339065920e+00 -2.4234796688e-05 1.4582305840e+00 -2.5257294607e+00 1.4582305840e+00 2.5257294607e+00 
38000 5.9339067448e+00 -3.2854131020e-05 1.4582305840e+00 -2.5257294607e+00 1.4582305840e+00 2.5257294607e+00 
38100 5.9339068964e+00 -4.1732653372e-05 1.4582305840e+00 -2.5257294607e+00 1.4582305840e+00 2.5257294607e+00 
38200 5.9339070467e+00 -5.0861452375e-05 1.4582305840e+00 -2.5257294607e+00 1.4582305840e+00 2.5257294607e+00 
38300 5.9339071959e+00 -6.0231653645e-05 1.4582305840e+00 -2.5257294607e+00 1.4582305840e+00 2.5257294607e+00 
38400 5.9339073439e+00 -6.9834427092e-05 1.4582305840e+00 -2.5257294607e+00 1.4582305840e+00 2.5257294607e+00 
38500 5.9339074909e+00 -7.9660993903e-05 1.4582305840e+00 -2.5257294607e+00 1.4582305840e+00 2.5257294607e+00 
38600 5.9339076364e+00 -8.6785407285e-05 1.4582333155e+00 -2.5257341917e+00 1.4582333155e+00 2.5257341917e+00 
38700 5.9339077808e+00 -9.3847836172e-05 1.4582362912e+00 -2.5257393458e+00 1.4582362912e+00 2.5257393458e+00 
38800 5.9339079240e+00 -1.0084122413e-04 1.4582395090e+00 -2.5257449192e+00 1.4582395090e+00 2.5257449192e+00 
38900 5.9339080661e+00 -1.0775885690e-04 1.4582429667e+00 -2.5257509081e+00 1.4582429667e+00 2.5257509081e+00 
39000 5.9339082070e+00 -1.1459435641e-04 1.4582466615e+00 -2.5257573077e+00 1.4582466615e+00 2.5257573077e+00 
39100 5.9339083469e+00 -1.2134167470e-04 1.4582505907e+00 -2.5257641132e+00 1.4582505907e+00 2.5257641132e+00 
39200 5.9339084857e+00 -1.2799508775e-04 1.4582547512e+00 -2.5257713195e+00 1.4582547512e+00 2.5257713195e+00 
39300 5.9339086234e+00 -1.3454918917e-04 1.4582591398e+00 -2.5257789208e+00 1.4582591398e+00 2.5257789208e+00 
39400 5.9339087600e+00 -1.4099888386e-04 1.4582637532e+00 -2.5257869114e+00 1.4582637532e+00 2.5257869114e+00 
39500 5.9339088956e+00 -1.4733938154e-04 1.4582685877e+00 -2.5257952849e+00 1.4582685877e+00 2.5257952849e+00 
39600 5.9339090301e+00 -1.5356619024e-04 1.4582736395e+00 -2.5258040350e+00 1.4582736395e+00 2.5258040350e+00 
39700 5.9339091636e+00 -1.5967510971e-04 1.4582789049e+00 -2.5258131549e+00 1.4582789049e+00 2.5258131549e+00 
39800 5.9339092961e+00 -1.6566222484e-04 1.4582843797e+00 -2.5258226375e+00 1.4582843797e+00 2.5258226375e+00 
39900 5.9339094275e+00 -1.7152389893e-04 1.4582900597e+00 -2.5258324756e+00 1.4582900597e+00 2.5258324756e+00 
40000 5.9339095579e+00 -1.7725676704e-04 1.4582959407e+00 -2.5258426618e+00 1.4582959407e+00 2.5258426618e+00 
40100 5.9339096873e+00 -1.8285772924e-04 1.4583020182e+00 -2.5258531884e+00 1.4583020182e+00 2.5258531884e+00 
40200 5.9339098156e+00 -1.8832394388e-04 1.4583082878e+00 -2.5258640475e+00 1.4583082878e+00 2.5258640475e+00 
40300 5.9339099430e+00 -1.9365282083e-04 1.4583147447e+00 -2.5258752313e+00 1.4583147447e+00 2.5258752313e+00 
40400 5.9339100694e+00 -1.9884201472e-04 1.4583213843e+00 -2.5258867314e+00 1.4583213843e+00 2.5258867314e+00 
40500 5.9339101948e+00 -2.0388941821e-04 1.4583282018e+00 -2.5258985397e+00 1.4583282018e+00 2.5258985397e+00 
40600 5.9339103193e+00 -2.0879315520e-04 1.4583351924e+00 -2.5259106476e+00 1.4583351924e+00 2.5259106476e+00 
40700 5.9339104427e+00 -2.1355157418e-04 1.4583423510e+00 -2.5259230467e+00 1.4583423510e+00 2.5259230467e+00 
40800 5.9339105652e+00 -2.1816324144e-04 1.4583496727e+00 -2.5259357283e+00 1.4583496727e+00 2.5259357283e+00 
40900 5.9339106868e+00 -2.2262693449e-04 1.4583571525e+00 -2.5259486837e+00 1.4583571525e+00 2.5259486837e+00 
41000 5.9339108074e+00 -2.2694163534e-04 1.4583647853e+00 -2.5259619041e+00 1.4583647853e+00 2.5259619041e+00 
41100 5.9339109270e+00 -2.3110652396e-04 1.4583725660e+00 -2.5259753807e+00 1.4583725660e+00 2.5259753807e+00 
41200 5.9339110457e+00 -2.3512097170e-04 1.4583804895e+00 -2.5259891045e+00 1.4583804895e+00 2.5259891045e+00 
41300 5.9339111635e+00 -2.3898453479e-04 1.4583885505e+00 -2.5260030666e+00 1.4583885505e+00 2.5260030666e+00 
41400 5.9339112804e+00 -2.4269694790e-04 1.4583967440e+00 -2.5260172581e+00 1.4583967440e+00 2.5260172581e+00 
41500 5.9339113963e+00 -2.4625811775e-04 1.4584050646e+00 -2.5260316700e+00 1.4584050646e+00 2.5260316700e+00 
41600 5.9339115114e+00 -2.4966811679e-04 1.4584135074e+00 -2.5260462932e+00 1.4584135074e+00 2.5260462932e+00 
41700 5.9339116255e+00 -2.5292717693e-04 1.4584220670e+00 -2.5260611188e+00 1.4584220670e+00 2.5260611188e+00 
41800 5.9339117388e+00 -2.5603568336e-04 1.4584307382e+00 -2.5260761379e+00 1.4584307382e+00 2.5260761379e+00 
41900 5.9339118512e+00 -2.5899416844e-04 1.4584395160e+00 -2.5260913415e+00 1.4584395160e+00 2.5260913415e+00 
42000 5.9339119627e+00 -2.6180330569e-04 1.4584483952e+00 -2.5261067207e+00 1.4584483952e+00 2.5261067207e+00 
42100 5.9339120733e+00 -2.6446390378e-04 1.4584573706e+00 -2.5261222665e+00 1.4584573706e+00 2.5261222665e+00 
42200 5.9339121830e+00 -2.6697690074e-04 1.4584664372e+00 -2.5261379703e+00 1.4584664372e+00 2.5261379703e+00 
42300 5.9339122919e+00 -2.6934335812e-04 1.4584755898e+00 -2.5261538232e+00 1.4584755898e+00 2.5261538232e+00 
42400 5.9339123999e+00 -2.7156445534e-04 1.4584848236e+00 -2.5261698165e+00 1.4584848236e+00 2.5261698165e+00 
42500 5.9339125071e+00 -2.7364148408e-04 1.4584941334e+00 -2.5261859416e+00 1.4584941334e+00 2.5261859416e+00 
42600 5.9339126134e+00 -2.7557584276e-04 1.4585035144e+00 -2.5262021899e+00 1.4585035144e+00 2.5262021899e+00 
42700 5.9339127189e+00 -2.7736903117e-04 1.4585129616e+00 -2.5262185530e+00 1.4585129616e+00 2.5262185530e+00 
42800 5.9339128236e+00 -2.7902264514e-04 1.4585224702e+00 -2.5262350224e+00 1.4585224702e+00 2.5262350224e+00 
42900 5.9339129274e+00 -2.8053837135e-04 1.4585320355e+00 -2.5262515899e+00 1.4585320355e+00 2.5262515899e+00 
43000 5.9339130304e+00 -2.8191798219e-04 1.4585416526e+00 -2.5262682473e+00 1.4585416526e+00 2.5262682473e+00 
43100 5.9339131326e+00 -2.8316333082e-04 1.4585513170e+00 -2.5262849865e+00 1.4585513170e+00 2.5262849865e+00 
43200 5.9339132339e+00 -2.8427634621e-04 1.4585610240e+00 -2.5263017996e+00 1.4585610240e+00 2.5263017996e+00 
43300 5.9339133345e+00 -2.8525902841e-04 1.4585707692e+00 -2.5263186786e+00 1.4585707692e+00 2.5263186786e+00 
43400 5.9339134342e+00 -2.8611344380e-04 1.4585805479e+00 -2.5263356159e+00 1.4585805479e+00 2.5263356159e+00 
43500 5.9339135331e+00 -2.8684172056e-04 1.4585903558e+00 -2.5263526037e+00 1.4585903558e+00 2.5263526037e+00 
43600 5.9339136312e+00 -2.8744604421e-04 1.4586001887e+00 -2.5263696347e+00 1.4586001887e+00 2.5263696347e+00 
43700 5.9339137285e+00 -2.8792865319e-04 1.4586100422e+00 -2.5263867015e+00 1.4586100422e+00 2.5263867015e+00 
43800 5.9339138250e+00 -2.8829183468e-04 1.4586199122e+00 -2.5264037968e+00 1.4586199122e+00 2.5264037968e+00 
43900 5.9339139207e+00 -2.8853792041e-04 1.4586297945e+00 -2.5264209135e+00 1.4586297945e+00 2.5264209135e+00 
44000 5.9339140156e+00 -2.8866928264e-04 1.4586396853e+00 -2.5264380448e+00 1.4586396853e+00 2.5264380448e+00 
44100 5.9339141097e+00 -2.8868833024e-04 1.4586495804e+00 -2.5264551837e+00 1.4586495804e+00 2.5264551837e+00 
44200 5.9339142030e+00 -2.8859750488e-04 1.4586594762e+00 -2.5264723237e+00 1.4586594762e+00 2.5264723237e+00 
44300 5.9339142955e+00 -2.8839927731e-04 1.4586693687e+00 -2.5264894581e+00 1.4586693687e+00 2.5264894581e+00 
44400 5.9339143872e+00 -2.8809614377e-04 1.4586792544e+00 -2.5265065806e+00 1.4586792544e+00 2.5265065806e+00 
44500 5.9339144781e+00 -2.8769062254e-04 1.4586891297e+00 -2.5265236851e+00 1.4586891297e+00 2.5265236851e+00 
44600 5.9339145683e+00 -2.8718525047e-04 1.4586989910e+00 -2.5265407653e+00 1.4586989910e+00 2.5265407653e+00 
44700 5.9339146576e+00 -2.8658257981e-04 1.4587088349e+00 -2.5265578155e+00 1.4587088349e+00 2.5265578155e+00 
44800 5.9339147461e+00 -2.8588517497e-04 1.4587186580e+00 -2.5265748297e+00 1.4587186580e+00 2.5265748297e+00 
44900 5.9339148339e+00 -2.8509560950e-04 1.4587284572e+00 -2.5265918024e+00 1.4587284572e+00 2.5265918024e+00 
45000 5.9339149209e+00 -2.8421646313e-04 1.4587382293e+00 -2.5266087281e+00 1.4587382293e+00 2.5266087281e+00 
45100 5.9339150070e+00 -2.8325031890e-04 1.4587479712e+00 -2.5266256015e+00 1.4587479712e+00 2.5266256015e+00 
45200 5.9339150924e+00 -2.8219976044e-04 1.4587576799e+00 -2.5266424175e+00 1.4587576799e+00 2.5266424175e+00 
45300 5.9339151770e+00 -2.8106736930e-04 1.4587673525e+00 -2.5266591709e+00 1.4587673525e+00 2.5266591709e+00 
45400 5.9339152608e+00 -2.7985572243e-04 1.4587769862e+00 -2.5266758571e+00 1.4587769862e+00 2.5266758571e+00 
45500 5.9339153438e+00 -2.7856738972e-04 1.4587865784e+00 -2.5266924711e+00 1.4587865784e+00 2.5266924711e+00 
45600 5.9339154260e+00 -2.7720493165e-04 1.4587961263e+00 -2.5267090086e+00 1.4587961263e+00 2.5267090086e+00 
45700 5.9339155074e+00 -2.7577089709e-04 1.4588056275e+00 -2.5267254651e+00 1.4588056275e+00 2.5267254651e+00 
45800 5.9339155880e+00 -2.7426782106e-04 1.4588150794e+00 -2.5267418364e+00 1.4588150794e+00 2.5267418364e+00 
45900 5.9339156678e+00 -2.7269822277e-04 1.4588244798e+00 -2.5267581183e+00 1.4588244798e+00 2.5267581183e+00 
46000 5.9339157469e+00 -2.7106460358e-04 1.4588338263e+00 -2.5267743070e+00 1.4588338263e+00 2.5267743070e+00 
46100 5.9339158251e+00 -2.6936944519e-04 1.4588431168e+00 -2.5267903985e+00 1.4588431168e+00 2.5267903985e+00 
46200 5.9339159026e+00 -2.6761520779e-04 1.4588523491e+00 -2.5268063893e+00 1.4588523491e+00 2.5268063893e+00 
46300 5.9339159792e+00 -2.6580432845e-04 1.4588615212e+00 -2.5268222759e+00 1.4588615212e+00 2.5268222759e+00 
46400 5.9339160551e+00 -2.6393921944e-04 1.4588706312e+00 -2.5268380549e+00 1.4588706312e+00 2.5268380549e+00 
46500 5.9339161301e+00 -2.6202226675e-04 1.4588796772e+00 -2.5268537231e+00 1.4588796772e+00 2.5268537231e+00 
46600 5.9339162044e+00 -2.6005582865e-04 1.4588886575e+00 -2.5268692774e+00 1.4588886575e+00 2.5268692774e+00 
46700 5.9339162779e+00 -2.5804223430e-04 1.4588975703e+00 -2.5268847148e+00 1.4588975703e+00 2.5268847148e+00 
46800 5.9339163506e+00 -2.5598378255e-04 1.4589064141e+00 -2.5269000326e+00 1.4589064141e+00 2.5269000326e+00 
46900 5.9339164225e+00 -2.5388274067e-04 1.4589151872e+00 -2.5269152282e+00 1.4589151872e+00 2.5269152282e+00 
47000 5.9339164936e+00 -2.5174134327e-04 1.4589238883e+00 -2.5269302989e+00 1.4589238883e+00 2.5269302989e+00 
47100 5.9339165639e+00 -2.4956179126e-04 1.4589325159e+00 -2.5269452424e+00 1.4589325159e+00 2.5269452424e+00 
47200 5.9339166334e+00 -2.4734625086e-04 1.4589410688e+00 -2.5269600565e+00 1.4589410688e+00 2.5269600565e+00 
47300 5.9339167022e+00 -2.4509685271e-04 1.4589495458e+00 -2.5269747389e+00 1.4589495458e+00 2.5269747389e+00 
47400 5.9339167701e+00 -2.4281569107e-04 1.4589579455e+00 -2.5269892878e+00 1.4589579455e+00 2.5269892878e+00 
47500 5.9339168373e+00 -2.4050482300e-04 1.4589662671e+00 -2.5270037011e+00 1.4589662671e+00 2.5270037011e+00 
47600 5.9339169037e+00 -2.3816626773e-04 1.4589745094e+00 -2.5270179772e+00 1.4589745094e+00 2.5270179772e+00 
47700 5.9339169694e+00 -2.3580200601e-04 1.4589826715e+00 -2.5270321144e+00 1.4589826715e+00 2.5270321144e+00 
47800 5.9339170342e+00 -2.3341397952e-04 1.4589907526e+00 -2.5270461112e+00 1.4589907526e+00 2.5270461112e+00 
47900 5.9339170983e+00 -2.3100409039e-04 1.4589987517e+00 -2.5270599662e+00 1.4589987517e+00 2.5270599662e+00 
48000 5.9339171616e+00 -2.2857420076e-04 1.4590066683e+00 -2.5270736780e+00 1.4590066683e+00 2.5270736780e+00 
48100 5.9339172241e+00 -2.2612613239e-04 1.4590145015e+00 -2.5270872456e+00 1.4590145015e+00 2.5270872456e+00 
48200 5.9339172859e+00 -2.2366166629e-04 1.4590222508e+00 -2.5271006677e+00 1.4590222508e+00 2.5271006677e+00 
48300 5.9339173469e+00 -2.2118254251e-04 1.4590299156e+00 -2.5271139435e+00 1.4590299156e+00 2.5271139435e+00 
48400 5.9339174072e+00 -2.1869045984e-04 1.4590374953e+00 -2.5271270721e+00 1.4590374953e+00 2.5271270721e+00 
48500 5.9339174667e+00 -2.1618707569e-04 1.4590449897e+00 -2.5271400527e+00 1.4590449897e+00 2.5271400527e+00 
48600 5.9339175254e+00 -2.1367400595e-04 1.4590523982e+00 -2.5271528846e+00 1.4590523982e+00 2.5271528846e+00 
48700 5.9339175835e+00 -2.1115282489e-04 1.4590597206e+00 -2.5271655673e+00 1.4590597206e+00 2.5271655673e+00 
48800 5.9339176407e+00 -2.0862506515e-04 1.4590669565e+00 -2.5271781003e+00 1.4590669565e+00 2.5271781003e+00 
48900 5.9339176973e+00 -2.0609221773e-04 1.4590741058e+00 -2.5271904832e+00 1.4590741058e+00 2.5271904832e+00 
49000 5.9339177531e+00 -2.0355573205e-04 1.4590811682e+00 -2.5272027157e+00 1.4590811682e+00 2.5272027157e+00 
49100 5.9339178082e+00 -2.0101701606e-04 1.4590881437e+00 -2.5272147976e+00 1.4590881437e+00 2.5272147976e+00 
49200 5.9339178625e+00 -1.9847743633e-04 1.4590950321e+00 -2.5272267287e+00 1.4590950321e+00 2.5272267287e+00 
49300 5.9339179162e+00 -1.9593831824e-04 1.4591018335e+00 -2.5272385091e+00 1.4591018335e+00 2.5272385091e+00 
49400 5.9339179691e+00 -1.9340094619e-04 1.4591085479e+00 -2.5272501387e+00 1.4591085479e+00 2.5272501387e+00 
49500 5.9339180214e+00 -1.9086656381e-04 1.4591151753e+00 -2.5272616176e+00 1.4591151753e+00 2.5272616176e+00 
49600 5.9339180729e+00 -1.8833637429e-04 1.4591217157e+00 -2.5272729461e+00 1.4591217157e+00 2.5272729461e+00 
49700 5.9339181238e+00 -1.8581154058e-04 1.4591281695e+00 -2.5272841244e+00 1.4591281695e+00 2.5272841244e+00 
49800 5.9339181739e+00 -1.8329318581e-04 1.4591345367e+00 -2.5272951527e+00 1.4591345367e+00 2.5272951527e+00 
49900 5.9339182234e+00 -1.8078239362e-04 1.4591408176e+00 -2.5273060315e+00 1.4591408176e+00 2.5273060315e+00 
50000 5.9339182722e+00 -1.7828020851e-04 1.4591470124e+00 -2.5273167613e+00 1.4591470124e+00 2.5273167613e+00 
50100 5.9339183204e+00 -1.7578763628e-04 1.4591531215e+00 -2.5273273425e+00 1.4591531215e+00 2.5273273425e+00 
50200 5.9339183678e+00 -1.7330564450e-04 1.4591591451e+00 -2.5273377757e+00 1.4591591451e+00 2.5273377757e+00 
50300 5.9339184147e+00 -1.7083516286e-04 1.4591650837e+00 -2.5273480616e+00 1.4591650837e+00 2.5273480616e+00 
50400 5.9339184608e+00 -1.6837708377e-04 1.4591709376e+00 -2.5273582008e+00 1.4591709376e+00 2.5273582008e+00 
50500 5.9339185064e+00 -1.6593226275e-04 1.4591767072e+00 -2.5273681940e+00 1.4591767072e+00 2.5273681940e+00 
50600 5.9339185513e+00 -1.6350151903e-04 1.4591823930e+00 -2.5273780422e+00 1.4591823930e+00 2.5273780422e+00 
50700 5.9339185955e+00 -1.6108563600e-04 1.4591879955e+00 -2.5273877460e+00 1.4591879955e+00 2.5273877460e+00 
50800 5.9339186392e+00 -1.5868536185e-04 1.4591935152e+00 -2.5273973064e+00 1.4591935152e+00 2.5273973064e+00 
50900 5.9339186822e+00 -1.5630141004e-04 1.4591989526e+00 -2.5274067243e+00 1.4591989526e+00 2.5274067243e+00 
51000 5.9339187247e+00 -1.5393445994e-04 1.4592043084e+00 -2.5274160007e+00 1.4592043084e+00 2.5274160007e+00 
51100 5.9339187665e+00 -1.5158515739e-04 1.4592095830e+00 -2.5274251366e+00 1.4592095830e+00 2.5274251366e+00 
51200 5.9339188077e+00 -1.4925411533e-04 1.4592147771e+00 -2.5274341330e+00 1.4592147771e+00 2.5274341330e+00 
51300 5.9339188484e+00 -1.4694191437e-04 1.4592198913e+00 -2.5274429911e+00 1.4592198913e+00 2.5274429911e+00 
51400 5.9339188884e+00 -1.4464910343e-04 1.4592249262e+00 -2.5274517119e+00 1.4592249262e+00 2.5274517119e+00 
51500 5.9339189279e+00 -1.4237620037e-04 1.4592298826e+00 -2.5274602966e+00 1.4592298826e+00 2.5274602966e+00 
51600 5.9339189669e+00 -1.4012369265e-04 1.4592347611e+00 -2.5274687463e+00 1.4592347611e+00 2.5274687463e+00 
51700 5.9339190053e+00 -1.3789203791e-04 1.4592395623e+00 -2.5274770624e+00 1.4592395623e+00 2.5274770624e+00 
51800 5.9339190431e+00 -1.3568166468e-04 1.4592442871e+00 -2.5274852460e+00 1.4592442871e+00 2.5274852460e+00 
51900 5.9339190804e+00 -1.3349297302e-04 1.4592489362e+00 -2.5274932983e+00 1.4592489362e+00 2.5274932983e+00 
52000 5.9339191171e+00 -1.3132633513e-04 1.4592535102e+00 -2.5275012208e+00 1.4592535102e+00 2.5275012208e+00 
52100 5.9339191533e+00 -1.2918209609e-04 1.4592580100e+00 -2.5275090146e+00 1.4592580100e+00 2.5275090146e+00 
52200 5.9339191890e+00 -1.2706057445e-04 1.4592624363e+00 -2.5275166812e+00 1.4592624363e+00 2.5275166812e+00 
52300 5.9339192242e+00 -1.2496206292e-04 1.4592667899e+00 -2.5275242218e+00 1.4592667899e+00 2.5275242218e+00 
52400 5.9339192589e+00 -1.2288682906e-04 1.4592710715e+00 -2.5275316379e+00 1.4592710715e+00 2.5275316379e+00 
52500 5.9339192930e+00 -1.2083511591e-04 1.4592752821e+00 -2.5275389308e+00 1.4592752821e+00 2.5275389308e+00 
52600 5.9339193267e+00 -1.1880714264e-04 1.4592794223e+00 -2.5275461019e+00 1.4592794223e+00 2.5275461019e+00 
52700 5.9339193599e+00 -1.1680310527e-04 1.4592834931e+00 -2.5275531527e+00 1.4592834931e+00 2.5275531527e+00 
52800 5.9339193926e+00 -1.1482317728e-04 1.4592874952e+00 -2.5275600845e+00 1.4592874952e+00 2.5275600845e+00 
52900 5.9339194248e+00 -1.1286751029e-04 1.4592914294e+00 -2.5275668987e+00 1.4592914294e+00 2.5275668987e+00 
53000 5.9339194566e+00 -1.1093623470e-04 1.4592952966e+00 -2.5275735969e+00 1.4592952966e+00 2.5275735969e+00 
53100 5.9339194879e+00 -1.0902946035e-04 1.4592990976e+00 -2.5275801805e+00 1.4592990976e+00 2.5275801805e+00 
53200 5.9339195187e+00 -1.0714727716e-04 1.4593028333e+00 -2.5275866509e+00 1.4593028333e+00 2.5275866509e+00 
53300 5.9339195491e+00 -1.0528975579e-04 1.4593065045e+00 -2.5275930096e+00 1.4593065045e+00 2.5275930096e+00 
53400 5.9339195791e+00 -1.0345694826e-04 1.4593101120e+00 -2.5275992580e+00 1.4593101120e+00 2.5275992580e+00 
53500 5.9339196086e+00 -1.0164888855e-04 1.4593136567e+00 -2.5276053976e+00 1.4593136567e+00 2.5276053976e+00 
53600 5.9339196376e+00 -9.9865593300e-05 1.4593171395e+00 -2.5276114300e+00 1.4593171395e+00 2.5276114300e+00 
53700 5.9339196663e+00 -9.8107062358e-05 1.4593205611e+00 -2.5276173564e+00 1.4593205611e+00 2.5276173564e+00 
53800 5.9339196945e+00 -9.6373279421e-05 1.4593239225e+00 -2.5276231785e+00 1.4593239225e+00 2.5276231785e+00 
53900 5.9339197224e+00 -9.4664212637e-05 1.4593272245e+00 -2.5276288978e+00 1.4593272245e+00 2.5276288978e+00 
54000 5.9339197498e+00 -9.2979815189e-05 1.4593304679e+00 -2.5276345155e+00 1.4593304679e+00 2.5276345155e+00 
54100 5.9339197768e+00 -9.1320025899e-05 1.4593336537e+00 -2.5276400333e+00 1.4593336537e+00 2.5276400333e+00 
54200 5.9339198034e+00 -8.9684769792e-05 1.4593367825e+00 -2.5276454526e+00 1.4593367825e+00 2.5276454526e+00 
54300 5.9339198297e+00 -8.8073958679e-05 1.4593398553e+00 -2.5276507748e+00 1.4593398553e+00 2.5276507748e+00 
54400 5.9339198555e+00 -8.6487491705e-05 1.4593428729e+00 -2.5276560015e+00 1.4593428729e+00 2.5276560015e+00 
54500 5.9339198810e+00 -8.4925255918e-05 1.4593458361e+00 -2.5276611339e+00 1.4593458361e+00 2.5276611339e+00 
54600 5.9339199061e+00 -8.3387126795e-05 1.4593487458e+00 -2.5276661737e+00 1.4593487458e+00 2.5276661737e+00 
54700 5.9339199308e+00 -8.1872968793e-05 1.4593516028e+00 -2.5276711222e+00 1.4593516028e+00 2.5276711222e+00 
54800 5.9339199552e+00 -8.0382635859e-05 1.4593544079e+00 -2.5276759808e+00 1.4593544079e+00 2.5276759808e+00 
54900 5.9339199792e+00 -7.8915971952e-05 1.4593571620e+00 -2.5276807509e+00 1.4593571620e+00 2.5276807509e+00 
55000 5.9339200029e+00 -7.7472811547e-05 1.4593598658e+00 -2.5276854340e+00 1.4593598658e+00 2.5276854340e+00 
55100 5.9339200262e+00 -7.6052980121e-05 1.4593625201e+00 -2.5276900315e+00 1.4593625201e+00 2.5276900315e+00 
55200 5.9339200492e+00 -7.4656294648e-05 1.4593651258e+00 -2.5276945447e+00 1.4593651258e+00 2.5276945447e+00 
55300 5.9339200718e+00 -7.3282564065e-05 1.4593676836e+00 -2.5276989750e+00 1.4593676836e+00 2.5276989750e+00 
55400 5.9339200941e+00 -7.1931589736e-05 1.4593701944e+00 -2.5277033238e+00 1.4593701944e+00 2.5277033238e+00 
55500 5.9339201161e+00 -7.0603165907e-05 1.4593726589e+00 -2.5277075923e+00 1.4593726589e+00 2.5277075923e+00 
55600 5.9339201380e+00 -7.1881887734e-05 1.4593726589e+00 -2.5277075923e+00 1.4593726589e+00 2.5277075923e+00 
55700 5.9339201593e+00 -7.0509739377e-05 1.4593751216e+00 -2.5277118580e+00 1.4593751216e+00 2.5277118580e+00 
55800 5.9339201806e+00 -7.1743924648e-05 1.4593751216e+00 -2.5277118580e+00 1.4593751216e+00 2.5277118580e+00 
55900 5.9339202013e+00 -7.0333273706e-05 1.4593775797e+00 -2.5277161154e+00 1.4593775797e+00 2.5277161154e+00 
56000 5.9339202219e+00 -7.1524858692e-05 1.4593775797e+00 -2.5277161154e+00 1.4593775797e+00 2.5277161154e+00 
56100 5.9339202420e+00 -7.0080550262e-05 1.4593800302e+00 -2.5277203599e+00 1.4593800302e+00 2.5277203599e+00 
56200 5.9339202620e+00 -7.1231358664e-05 1.4593800302e+00 -2.5277203599e+00 1.4593800302e+00 2.5277203599e+00 
56300 5.9339202815e+00 -6.9757883900e-05 1.4593824707e+00 -2.5277245869e+00 1.4593824707e+00 2.5277245869e+00 
56400 5.9339203010e+00 -7.0869631891e-05 1.4593824707e+00 -2.5277245869e+00 1.4593824707e+00 2.5277245869e+00 
56500 5.9339203199e+00 -6.9371149947e-05 1.4593848987e+00 -2.5277287924e+00 1.4593848987e+00 2.5277287924e+00 
56600 5.9339203387e+00 -7.0445451232e-05 1.4593848987e+00 -2.5277287924e+00 1.4593848987e+00 2.5277287924e+00 
56700 5.9339203573e+00 -7.1504815069e-05 1.4593848987e+00 -2.5277287924e+00 1.4593848987e+00 2.5277287924e+00 
56800 5.9339203754e+00 -6.9931841521e-05 1.4593873486e+00 -2.5277330356e+00 1.4593873486e+00 2.5277330356e+00 
56900 5.9339203934e+00 -7.0955944047e-05 1.4593873486e+00 -2.5277330356e+00 1.4593873486e+00 2.5277330356e+00 
57000 5.9339204110e+00 -6.9368482421e-05 1.4593897796e+00 -2.5277372463e+00 1.4593897796e+00 2.5277372463e+00 
57100 5.9339204285e+00 -7.0358693632e-05 1.4593897796e+00 -2.5277372463e+00 1.4593897796e+00 2.5277372463e+00 
57200 5.9339204457e+00 -7.1335655776e-05 1.4593897796e+00 -2.5277372463e+00 1.4593897796e+00 2.5277372463e+00 
57300 5.9339204625e+00 -6.9688115703e-05 1.4593922236e+00 -2.5277414795e+00 1.4593922236e+00 2.5277414795e+00 
57400 5.9339204792e+00 -7.0633031032e-05 1.4593922236e+00 -2.5277414795e+00 1.4593922236e+00 2.5277414795e+00 
57500 5.9339204957e+00 -7.1565585130e-05 1.4593922236e+00 -2.5277414795e+00 1.4593922236e+00 2.5277414795e+00 
57600 5.9339205117e+00 -6.9866081095e-05 1.4593946755e+00 -2.5277457263e+00 1.4593946755e+00 2.5277457263e+00 
57700 5.9339205277e+00 -7.0768245296e-05 1.4593946755e+00 -2.5277457263e+00 1.4593946755e+00 2.5277457263e+00 
57800 5.9339205433e+00 -6.9068044794e-05 1.4593971001e+00 -2.5277499258e+00 1.4593971001e+00 2.5277499258e+00 
57900 5.9339205588e+00 -6.9940862734e-05 1.4593971001e+00 -2.5277499258e+00 1.4593971001e+00 2.5277499258e+00 
58000 5.9339205741e+00 -7.0802571635e-05 1.4593971001e+00 -2.5277499258e+00 1.4593971001e+00 2.5277499258e+00 
58100 5.9339205889e+00 -6.9061378542e-05 1.4593995258e+00 -2.5277541273e+00 1.4593995258e+00 2.5277541273e+00 
58200 5.9339206038e+00 -6.9895134194e-05 1.4593995258e+00 -2.5277541273e+00 1.4593995258e+00 2.5277541273e+00 
58300 5.9339206184e+00 -7.0718439176e-05 1.4593995258e+00 -2.5277541273e+00 1.4593995258e+00 2.5277541273e+00 
58400 5.9339206326e+00 -6.8942563700e-05 1.4594019487e+00 -2.5277583238e+00 1.4594019487e+00 2.5277583238e+00 
58500 5.9339206468e+00 -6.9739165040e-05 1.4594019487e+00 -2.5277583238e+00 1.4594019487e+00 2.5277583238e+00 
58600 5.9339206607e+00 -7.0525901195e-05 1.4594019487e+00 -2.5277583238e+00 1.4594019487e+00 2.5277583238e+00 
58700 5.9339206745e+00 -7.1302975818e-05 1.4594019487e+00 -2.5277583238e+00 1.4594019487e+00 2.5277583238e+00 
58800 5.9339206878e+00 -6.9460236444e-05 1.4594043916e+00 -2.5277625550e+00 1.4594043916e+00 2.5277625550e+00 
58900 5.9339207012e+00 -7.0212039194e-05 1.4594043916e+00 -2.5277625550e+00 1.4594043916e+00 2.5277625550e+00 
59000 5.9339207143e+00 -7.0954674721e-05 1.4594043916e+00 -2.5277625550e+00 1.4594043916e+00 2.5277625550e+00 
59100 5.9339207271e+00 -6.9090732376e-05 1.4594068225e+00 -2.5277667655e+00 1.4594068225e+00 2.5277667655e+00 
59200 5.9339207398e+00 -6.9809060082e-05 1.4594068225e+00 -2.5277667655e+00 1.4594068225e+00 2.5277667655e+00 
59300 5.9339207524e+00 -7.0518660424e-05 1.4594068225e+00 -2.5277667655e+00 1.4594068225e+00 2.5277667655e+00 
59400 5.9339207648e+00 -7.1219692442e-05 1.4594068225e+00 -2.5277667655e+00 1.4594068225e+00 2.5277667655e+00 
59500 5.9339207767e+00 -6.9305029657e-05 1.4594092625e+00 -2.5277709918e+00 1.4594092625e+00 2.5277709918e+00 
59600 5.9339207887e+00 -6.9982857203e-05 1.4594092625e+00 -2.5277709918e+00 1.4594092625e+00 2.5277709918e+00 
59700 5.9339208006e+00 -7.0652487939e-05 1.4594092625e+00 -2.5277709918e+00 1.4594092625e+00 2.5277709918e+00 
59800 5.9339208122e+00 -7.1314060189e-05 1.4594092625e+00 -2.5277709918e+00 1.4594092625e+00 2.5277709918e+00 
59900 5.9339208235e+00 -6.9356983867e-05 1.4594117058e+00 -2.5277752236e+00 1.4594117058e+00 2.5277752236e+00 
60000 5.9339208348e+00 -6.9996304185e-05 1.4594117058e+00 -2.5277752236e+00 1.4594117058e+00 2.5277752236e+00 
60100 5.9339208459e+00 -7.0627880866e-05 1.4594117058e+00 -2.5277752236e+00 1.4594117058e+00 2.5277752236e+00 
60200 5.9339208569e+00 -7.1251835160e-05 1.4594117058e+00 -2.5277752236e+00 1.4594117058e+00 2.5277752236e+00 
60300 5.9339208674e+00 -6.9259850410e-05 1.4594141469e+00 -2.5277794517e+00 1.4594141469e+00 2.5277794517e+00 
60400 5.9339208781e+00 -6.9862382701e-05 1.4594141469e+00 -2.5277794517e+00 1.4594141469e+00 2.5277794517e+00 
60500 5.9339208885e+00 -7.0457561296e-05 1.4594141469e+00 -2.5277794517e+00 1.4594141469e+00 2.5277794517e+00 
60600 5.9339208988e+00 -7.1045493627e-05 1.4594141469e+00 -2.5277794517e+00 1.4594141469e+00 2.5277794517e+00 
60700 5.9339209088e+00 -6.9025416194e-05 1.4594165810e+00 -2.5277836676e+00 1.4594165810e+00 2.5277836676e+00 
60800 5.9339209188e+00 -6.9592659066e-05 1.4594165810e+00 -2.5277836676e+00 1.4594165810e+00 2.5277836676e+00 
60900 5.9339209286e+00 -7.0152887543e-05 1.4594165810e+00 -2.5277836676e+00 1.4594165810e+00 2.5277836676e+00 
61000 5.9339209383e+00 -7.0706198110e-05 1.4594165810e+00 -2.5277836676e+00 1.4594165810e+00 2.5277836676e+00 
61100 5.9339209479e+00 -7.1252683486e-05 1.4594165810e+00 -2.5277836676e+00 1.4594165810e+00 2.5277836676e+00 
61200 5.9339209571e+00 -6.9183994733e-05 1.4594190221e+00 -2.5277878958e+00 1.4594190221e+00 2.5277878958e+00 
61300 5.9339209664e+00 -6.9710572860e-05 1.4594190221e+00 -2.5277878958e+00 1.4594190221e+00 2.5277878958e+00 
61400 5.9339209755e+00 -7.0230518253e-05 1.4594190221e+00 -2.5277878958e+00 1.4594190221e+00 2.5277878958e+00 
61500 5.9339209845e+00 -7.0743915880e-05 1.4594190221e+00 -2.5277878958e+00 1.4594190221e+00 2.5277878958e+00 
61600 5.9339209931e+00 -6.8661048350e-05 1.4594214458e+00 -2.5277920938e+00 1.4594214458e+00 2.5277920938e+00 
61700 5.9339210018e+00 -6.9155118968e-05 1.4594214458e+00 -2.5277920938e+00 1.4594214458e+00 2.5277920938e+00 
61800 5.9339210104e+00 -6.9642814765e-05 1.4594214458e+00 -2.5277920938e+00 1.4594214458e+00 2.5277920938e+00 
61900 5.9339210189e+00 -7.0124215030e-05 1.4594214458e+00 -2.5277920938e+00 1.4594214458e+00 2.5277920938e+00 
62000 5.9339210272e+00 -7.0599396490e-05 1.4594214458e+00 -2.5277920938e+00 1.4594214458e+00 2.5277920938e+00 
62100 5.9339210354e+00 -7.1068433435e-05 1.4594214458e+00 -2.5277920938e+00 1.4594214458e+00 2.5277920938e+00 
62200 5.9339210433e+00 -6.8929733928e-05 1.4594238806e+00 -2.5277963110e+00 1.4594238806e+00 2.5277963110e+00 
62300 5.9339210512e+00 -6.9380191278e-05 1.4594238806e+00 -2.5277963110e+00 1.4594238806e+00 2.5277963110e+00 
62400 5.9339210591e+00 -6.9824648937e-05 1.4594238806e+00 -2.5277963110e+00 1.4594238806e+00 2.5277963110e+00 
62500 5.9339210668e+00 -7.0263178251e-05 1.4594238806e+00 -2.5277963110e+00 1.4594238806e+00 2.5277963110e+00 
62600 5.9339210744e+00 -7.0695848620e-05 1.4594238806e+00 -2.5277963110e+00 1.4594238806e+00 2.5277963110e+00 
62700 5.9339210819e+00 -7.1122727590e-05 1.4594238806e+00 -2.5277963110e+00 1.4594238806e+00 2.5277963110e+00 
62800 5.9339210891e+00 -6.8940245820e-05 1.4594263173e+00 -2.5278005314e+00 1.4594263173e+00 2.5278005314e+00 
62900 5.9339210963e+00 -6.9349228228e-05 1.4594263173e+00 -2.5278005314e+00 1.4594263173e+00 2.5278005314e+00 
63000 5.9339211035e+00 -6.9752547035e-05 1.4594263173e+00 -2.5278005314e+00 1.4594263173e+00 2.5278005314e+00 
63100 5.9339211105e+00 -7.0150268936e-05 1.4594263173e+00 -2.5278005314e+00 1.4594263173e+00 2.5278005314e+00 
63200 5.9339211175e+00 -7.0542459135e-05 1.4594263173e+00 -2.5278005314e+00 1.4594263173e+00 2.5278005314e+00 
63300 5.9339211243e+00 -7.0929181420e-05 1.4594263173e+00 -2.5278005314e+00 1.4594263173e+00 2.5278005314e+00 
63400 5.9339211308e+00 -6.8713965443e-05 1.4594287473e+00 -2.5278047404e+00 1.4594287473e+00 2.5278047404e+00 
63500 5.9339211375e+00 -6.9083446006e-05 1.4594287473e+00 -2.5278047404e+00 1.4594287473e+00 2.5278047404e+00 
63600 5.9339211440e+00 -6.9447577769e-05 1.4594287473e+00 -2.5278047404e+00 1.4594287473e+00 2.5278047404e+00 
63700 5.9339211505e+00 -6.9806425180e-05 1.4594287473e+00 -2.5278047404e+00 1.4594287473e+00 2.5278047404e+00 
63800 5.9339211568e+00 -7.0160051528e-05 1.4594287473e+00 -2.5278047404e+00 1.4594287473e+00 2.5278047404e+00 
63900 5.9339211631e+00 -7.0508518996e-05 1.4594287473e+00 -2.5278047404e+00 1.4594287473e+00 2.5278047404e+00 
64000 5.9339211692e+00 -7.0851888716e-05 1.4594287473e+00 -2.5278047404e+00 1.4594287473e+00 2.5278047404e+00 
64100 5.9339211750e+00 -6.8596536069e-05 1.4594311747e+00 -2.5278089447e+00 1.4594311747e+00 2.5278089447e+00 
64200 5.9339211810e+00 -6.8923404588e-05 1.4594311747e+00 -2.5278089447e+00 1.4594311747e+00 2.5278089447e+00 
64300 5.9339211869e+00 -6.9245288531e-05 1.4594311747e+00 -2.5278089447e+00 1.4594311747e+00 2.5278089447e+00 
64400 5.9339211927e+00 -6.9562250917e-05 1.4594311747e+00 -2.5278089447e+00 1.4594311747e+00 2.5278089447e+00 
64500 5.9339211984e+00 -6.9874353866e-05 1.4594311747e+00 -2.5278089447e+00 1.4594311747e+00 2.5278089447e+00 
64600 5.9339212041e+00 -7.0181658632e-05 1.4594311747e+00 -2.5278089447e+00 1.4594311747e+00 2.5278089447e+00 
64700 5.9339212096e+00 -7.0484225638e-05 1.4594311747e+00 -2.5278089447e+00 1.4594311747e+00 2.5278089447e+00 
64800 5.9339212151e+00 -7.0782114510e-05 1.4594311747e+00 -2.5278089447e+00 1.4594311747e+00 2.5278089447e+00 
64900 5.9339212202e+00 -6.8484273751e-05 1.4594335997e+00 -2.5278131450e+00 1.4594335997e+00 2.5278131450e+00 
65000 5.9339212255e+00 -6.8766503188e-05 1.4594335997e+00 -2.5278131450e+00 1.4594335997e+00 2.5278131450e+00 
65100 5.9339212307e+00 -6.9044164565e-05 1.4594335997e+00 -2.5278131450e+00 1.4594335997e+00 2.5278131450e+00 
65200 5.9339212359e+00 -6.9317320229e-05 1.4594335997e+00 -2.5278131450e+00 1.4594335997e+00 2.5278131450e+00 
65300 5.9339212410e+00 -6.9586031789e-05 1.4594335997e+00 -2.5278131450e+00 1.4594335997e+00 2.5278131450e+00 
65400 5.9339212460e+00 -6.9850360137e-05 1.4594335997e+00 -2.5278131450e+00 1.4594335997e+00 2.5278131450e+00 
65500 5.9339212509e+00 -7.0110365467e-05 1.4594335997e+00 -2.5278131450e+00 1.4594335997e+00 2.5278131450e+00 
65600 5.9339212557e+00 -7.0366107298e-05 1.4594335997e+00 -2.5278131450e+00 1.4594335997e+00 2.5278131450e+00 
65700 5.9339212605e+00 -7.0617644483e-05 1.4594335997e+00 -2.5278131450e+00 1.4594335997e+00 2.5278131450e+00 
65800 5.9339212652e+00 -7.0865035231e-05 1.4594335997e+00 -2.5278131450e+00 1.4594335997e+00 2.5278131450e+00 
65900 5.9339212697e+00 -6.8514214169e-05 1.4594360275e+00 -2.5278173501e+00 1.4594360275e+00 2.5278173501e+00 
66000 5.9339212742e+00 -6.8746997246e-05 1.4594360275e+00 -2.5278173501e+00 1.4594360275e+00 2.5278173501e+00 
66100 5.9339212787e+00 -6.8975740395e-05 1.4594360275e+00 -2.5278173501e+00 1.4594360275e+00 2.5278173501e+00 
66200 5.9339212832e+00 -6.9200505001e-05 1.4594360275e+00 -2.5278173501e+00 1.4594360275e+00 2.5278173501e+00 
66300 5.9339212876e+00 -6.9421351787e-05 1.4594360275e+00 -2.5278173501e+00 1.4594360275e+00 2.5278173501e+00 
66400 5.9339212919e+00 -6.9638340824e-05 1.4594360275e+00 -2.5278173501e+00 1.4594360275e+00 2.5278173501e+00 
66500 5.9339212961e+00 -6.9851531531e-05 1.4594360275e+00 -2.5278173501e+00 1.4594360275e+00 2.5278173501e+00 
66600 5.9339213003e+00 -7.0060982696e-05 1.4594360275e+00 -2.5278173501e+00 1.4594360275e+00 2.5278173501e+00 
66700 5.9339213045e+00 -7.0266752463e-05 1.4594360275e+00 -2.5278173501e+00 1.4594360275e+00 2.5278173501e+00 
66800 5.9339213085e+00 -7.0468898352e-05 1.4594360275e+00 -2.5278173501e+00 1.4594360275e+00 2.5278173501e+00 
66900 5.9339213125e+00 -7.0667477258e-05 1.4594360275e+00 -2.5278173501e+00 1.4594360275e+00 2.5278173501e+00 
67000 5.9339213165e+00 -7.0862545455e-05 1.4594360275e+00 -2.5278173501e+00 1.4594360275e+00 2.5278173501e+00 
67100 5.9339213202e+00 -6.8460152313e-05 1.4594384553e+00 -2.5278215550e+00 1.4594384553e+00 2.5278215550e+00 
67200 5.9339213240e+00 -6.8641878421e-05 1.4594384553e+00 -2.5278215550e+00 1.4594384553e+00 2.5278215550e+00 
67300 5.9339213278e+00 -6.8820194591e-05 1.4594384553e+00 -2.5278215550e+00 1.4594384553e+00 2.5278215550e+00 
67400 5.9339213315e+00 -6.8995160274e-05 1.4594384553e+00 -2.5278215550e+00 1.4594384553e+00 2.5278215550e+00 
67500 5.9339213352e+00 -6.9166834231e-05 1.4594384553e+00 -2.5278215550e+00 1.4594384553e+00 2.5278215550e+00 
67600 5.9339213388e+00 -6.9335274544e-05 1.4594384553e+00 -2.5278215550e+00 1.4594384553e+00 2.5278215550e+00 
67700 5.9339213424e+00 -6.9500538609e-05 1.4594384553e+00 -2.5278215550e+00 1.4594384553e+00 2.5278215550e+00 
67800 5.9339213459e+00 -6.9662683133e-05 1.4594384553e+00 -2.5278215550e+00 1.4594384553e+00 2.5278215550e+00 
67900 5.9339213494e+00 -6.9821764140e-05 1.4594384553e+00 -2.5278215550e+00 1.4594384553e+00 2.5278215550e+00 
68000 5.9339213528e+00 -6.9977836964e-05 1.4594384553e+00 -2.5278215550e+00 1.4594384553e+00 2.5278215550e+00 
68100 5.9339213562e+00 -7.0130956252e-05 1.4594384553e+00 -2.5278215550e+00 1.4594384553e+00 2.5278215550e+00 
68200 5.9339213595e+00 -7.0281175964e-05 1.4594384553e+00 -2.5278215550e+00 1.4594384553e+00 2.5278215550e+00 
68300 5.9339213628e+00 -7.0428549368e-05 1.4594384553e+00 -2.5278215550e+00 1.4594384553e+00 2.5278215550e+00 
68400 5.9339213661e+00 -7.0573129045e-05 1.4594384553e+00 -2.5278215550e+00 1.4594384553e+00 2.5278215550e+00 
68500 5.9339213692e+00 -7.0714966885e-05 1.4594384553e+00 -2.5278215550e+00 1.4594384553e+00 2.5278215550e+00 
68600 5.9339213722e+00 -6.8265538988e-05 1.4594408779e+00 -2.5278257512e+00 1.4594408779e+00 2.5278257512e+00 
68700 5.9339213753e+00 -6.8395572172e-05 1.4594408779e+00 -2.5278257512e+00 1.4594408779e+00 2.5278257512e+00 
68800 5.9339213783e+00 -6.8522950840e-05 1.4594408779e+00 -2.5278257512e+00 1.4594408779e+00 2.5278257512e+00 
68900 5.9339213813e+00 -6.8647729728e-05 1.4594408779e+00 -2.5278257512e+00 1.4594408779e+00 2.5278257512e+00 
69000 5.9339213843e+00 -6.8769962805e-05 1.4594408779e+00 -2.5278257512e+00 1.4594408779e+00 2.5278257512e+00 
69100 5.9339213872e+00 -6.8889703263e-05 1.4594408779e+00 -2.5278257512e+00 1.4594408779e+00 2.5278257512e+00 
69200 5.9339213901e+00 -6.9007003525e-05 1.4594408779e+00 -2.5278257512e+00 1.4594408779e+00 2.5278257512e+00 
69300 5.9339213930e+00 -6.9121915232e-05 1.4594408779e+00 -2.5278257512e+00 1.4594408779e+00 2.5278257512e+00 
69400 5.9339213958e+00 -6.9234489249e-05 1.4594408779e+00 -2.5278257512e+00 1.4594408779e+00 2.5278257512e+00 
69500 5.9339213985e+00 -6.9344775659e-05 1.4594408779e+00 -2.5278257512e+00 1.4594408779e+00 2.5278257512e+00 
69600 5.9339214013e+00 -6.9452823766e-05 1.4594408779e+00 -2.5278257512e+00 1.4594408779e+00 2.5278257512e+00 
69700 5.9339214040e+00 -6.9558682091e-05 1.4594408779e+00 -2.5278257512e+00 1.4594408779e+00 2.5278257512e+00 
69800 5.9339214066e+00 -6.9662398373e-05 1.4594408779e+00 -2.5278257512e+00 1.4594408779e+00 2.5278257512e+00 
69900 5.9339214092e+00 -6.9764019571e-05 1.4594408779e+00 -2.5278257512e+00 1.4594408779e+00 2.5278257512e+00 
70000 5.9339214118e+00 -6.9863591864e-05 1.4594408779e+00 -2.5278257512e+00 1.4594408779e+00 2.5278257512e+00 
70100 5.9339214144e+00 -6.9961160648e-05 1.4594408779e+00 -2.5278257512e+00 1.4594408779e+00 2.5278257512e+00 
70200 5.9339214169e+00 -7.0056770543e-05 1.4594408779e+00 -2.5278257512e+00 1.4594408779e+00 2.5278257512e+00 
70300 5.9339214194e+00 -7.0150465393e-05 1.4594408779e+00 -2.5278257512e+00 1.4594408779e+00 2.5278257512e+00 
70400 5.9339214218e+00 -7.0242288263e-05 1.4594408779e+00 -2.5278257512e+00 1.4594408779e+00 2.5278257512e+00 
70500 5.9339214242e+00 -7.0332281452e-05 1.4594408779e+00 -2.5278257512e+00 1.4594408779e+00 2.5278257512e+00 
70600 5.9339214266e+00 -7.0420486486e-05 1.4594408779e+00 -2.5278257512e+00 1.4594408779e+00 2.5278257512e+00 
70700 5.9339214289e+00 -7.0506944125e-05 1.4594408779e+00 -2.5278257512e+00 1.4594408779e+00 2.5278257512e+00 
70800 5.9339214312e+00 -7.0591694366e-05 1.4594408779e+00 -2.5278257512e+00 1.4594408779e+00 2.5278257512e+00 
70900 5.9339214335e+00 -7.0674776448e-05 1.4594408779e+00 -2.5278257512e+00 1.4594408779e+00 2.5278257512e+00 
71000 5.9339214358e+00 -7.0756228856e-05 1.4594408779e+00 -2.5278257512e+00 1.4594408779e+00 2.5278257512e+00 
71100 5.9339214377e+00 -6.8246043051e-05 1.4594433020e+00 -2.5278299499e+00 1.4594433020e+00 2.5278299499e+00 
71200 5.9339214399e+00 -6.8317870412e-05 1.4594433020e+00 -2.5278299499e+00 1.4594433020e+00 2.5278299499e+00 
71300 5.9339214421e+00 -6.8388114844e-05 1.4594433020e+00 -2.5278299499e+00 1.4594433020e+00 2.5278299499e+00 
71400 5.9339214442e+00 -6.8456817464e-05 1.4594433020e+00 -2.5278299499e+00 1.4594433020e+00 2.5278299499e+00 
71500 5.9339214463e+00 -6.8524018578e-05 1.4594433020e+00 -2.5278299499e+00 1.4594433020e+00 2.5278299499e+00 
71600 5.9339214484e+00 -6.8589757685e-05 1.4594433020e+00 -2.5278299499e+00 1.4594433020e+00 2.5278299499e+00 
71700 5.9339214504e+00 -6.8654073476e-05 1.4594433020e+00 -2.5278299499e+00 1.4594433020e+00 2.5278299499e+00 
71800 5.9339214524e+00 -6.8717003840e-05 1.4594433020e+00 -2.5278299499e+00 1.4594433020e+00 2.5278299499e+00 
71900 5.9339214544e+00 -6.8778585868e-05 1.4594433020e+00 -2.5278299499e+00 1.4594433020e+00 2.5278299499e+00 
72000 5.9339214564e+00 -6.8838855854e-05 1.4594433020e+00 -2.5278299499e+00 1.4594433020e+00 2.5278299499e+00 
72100 5.9339214583e+00 -6.8897849303e-05 1.4594433020e+00 -2.5278299499e+00 1.4594433020e+00 2.5278299499e+00 
72200 5.9339214602e+00 -6.8955600937e-05 1.4594433020e+00 -2.5278299499e+00 1.4594433020e+00 2.5278299499e+00 
72300 5.9339214621e+00 -6.9012144693e-05 1.4594433020e+00 -2.5278299499e+00 1.4594433020e+00 2.5278299499e+00 
72400 5.9339214639e+00 -6.9067513741e-05 1.4594433020e+00 -2.5278299499e+00 1.4594433020e+00 2.5278299499e+00 
72500 5.9339214658e+00 -6.9121740476e-05 1.4594433020e+00 -2.5278299499e+00 1.4594433020e+00 2.5278299499e+00 
72600 5.9339214676e+00 -6.9174856536e-05 1.4594433020e+00 -2.5278299499e+00 1.4594433020e+00 2.5278299499e+00 
72700 5.9339214694e+00 -6.9226892804e-05 1.4594433020e+00 -2.5278299499e+00 1.4594433020e+00 2.5278299499e+00 
72800 5.9339214711e+00 -6.9277879416e-05 1.4594433020e+00 -2.5278299499e+00 1.4594433020e+00 2.5278299499e+00 
72900 5.9339214729e+00 -6.9327845768e-05 1.4594433020e+00 -2.5278299499e+00 1.4594433020e+00 2.5278299499e+00 
73000 5.9339214746e+00 -6.9376820523e-05 1.4594433020e+00 -2.5278299499e+00 1.4594433020e+00 2.5278299499e+00 
73100 5.9339214763e+00 -6.9424831622e-05 1.4594433020e+00 -2.5278299499e+00 1.4594433020e+00 2.5278299499e+00 
73200 5.9339214779e+00 -6.9471906289e-05 1.4594433020e+00 -2.5278299499e+00 1.4594433020e+00 2.5278299499e+00 
73300 5.9339214796e+00 -6.9518071044e-05 1.4594433020e+00 -2.5278299499e+00 1.4594433020e+00 2.5278299499e+00 
73400 5.9339214812e+00 -6.9563351707e-05 1.4594433020e+00 -2.5278299499e+00 1.4594433020e+00 2.5278299499e+00 
73500 5.9339214828e+00 -6.9607773408e-05 1.4594433020e+00 -2.5278299499e+00 1.4594433020e+00 2.5278299499e+00 
73600 5.9339214844e+00 -6.9651360602e-05 1.4594433020e+00 -2.5278299499e+00 1.4594433020e+00 2.5278299499e+00 
73700 5.9339214859e+00 -6.9694137069e-05 1.4594433020e+00 -2.5278299499e+00 1.4594433020e+00 2.5278299499e+00 
73800 5.9339214874e+00 -6.9736125934e-05 1.4594433020e+00 -2.5278299499e+00 1.4594433020e+00 2.5278299499e+00 
73900 5.9339214890e+00 -6.9777349668e-05 1.4594433020e+00 -2.5278299499e+00 1.4594433020e+00 2.5278299499e+00 
74000 5.9339214905e+00 -6.9817830101e-05 1.4594433020e+00 -2.5278299499e+00 1.4594433020e+00 2.5278299499e+00 
74100 5.9339214919e+00 -6.9857588438e-05 1.4594433020e+00 -2.5278299499e+00 1.4594433020e+00 2.5278299499e+00 
74200 5.9339214934e+00 -6.9896645259e-05 1.4594433020e+00 -2.5278299499e+00 1.4594433020e+00 2.5278299499e+00 
74300 5.9339214948e+00 -6.9935020538e-05 1.4594433020e+00 -2.5278299499e+00 1.4594433020e+00 2.5278299499e+00 
74400 5.9339214962e+00 -6.9972733648e-05 1.4594433020e+00 -2.5278299499e+00 1.4594433020e+00 2.5278299499e+00 
74500 5.9339214976e+00 -7.0009803377e-05 1.4594433020e+00 -2.5278299499e+00 1.4594433020e+00 2.5278299499e+00 
74600 5.9339214990e+00 -7.0046247931e-05 1.4594433020e+00 -2.5278299499e+00 1.4594433020e+00 2.5278299499e+00 
74700 5.9339215004e+00 -7.0082084956e-05 1.4594433020e+00 -2.5278299499e+00 1.4594433020e+00 2.5278299499e+00 
74800 5.9339215017e+00 -7.0117331536e-05 1.4594433020e+00 -2.5278299499e+00 1.4594433020e+00 2.5278299499e+00 
74900 5.9339215031e+00 -7.0152004216e-05 1.4594433020e+00 -2.5278299499e+00 1.4594433020e+00 2.5278299499e+00 
75000 5.9339215044e+00 -7.0186119003e-05 1.4594433020e+00 -2.5278299499e+00 1.4594433020e+00 2.5278299499e+00 
75100 5.9339215057e+00 -7.0219691384e-05 1.4594433020e+00 -2.5278299499e+00 1.4594433020e+00 2.5278299499e+00 
75200 5.9339215069e+00 -7.0252736333e-05 1.4594433020e+00 -2.5278299499e+00 1.4594433020e+00 2.5278299499e+00 
75300 5.9339215082e+00 -7.0285268325e-05 1.4594433020e+00 -2.5278299499e+00 1.4594433020e+00 2.5278299499e+00 
75400 5.9339215094e+00 -7.0317301344e-05 1.4594433020e+00 -2.5278299499e+00 1.4594433020e+00 2.5278299499e+00 
75500 5.9339215107e+00 -7.0348848897e-05 1.4594433020e+00 -2.5278299499e+00 1.4594433020e+00 2.5278299499e+00 
75600 5.9339215119e+00 -7.0379924023e-05 1.4594433020e+00 -2.5278299499e+00 1.4594433020e+00 2.5278299499e+00 
75700 5.9339215131e+00 -7.0410539305e-05 1.4594433020e+00 -2.5278299499e+00 1.4594433020e+00 2.5278299499e+00 
75800 5.9339215142e+00 -7.0440706882e-05 1.4594433020e+00 -2.5278299499e+00 1.4594433020e+00 2.5278299499e+00 
75900 5.9339215154e+00 -7.0470438456e-05 1.4594433020e+00 -2.5278299499e+00 1.4594433020e+00 2.5278299499e+00 
76000 5.9339215166e+00 -7.0499745308e-05 1.4594433020e+00 -2.5278299499e+00 1.4594433020e+00 2.5278299499e+00 
76100 5.9339215177e+00 -7.0528638303e-05 1.4594433020e+00 -2.5278299499e+00 1.4594433020e+00 2.5278299499e+00 
76200 5.9339215188e+00 -7.0557127909e-05 1.4594433020e+00 -2.5278299499e+00 1.4594433020e+00 2.5278299499e+00 
76300 5.9339215199e+00 -7.0585224200e-05 1.4594433020e+00 -2.5278299499e+00 1.4594433020e+00 2.5278299499e+00 
76400 5.9339215210e+00 -7.0612936870e-05 1.4594433020e+00 -2.5278299499e+00 1.4594433020e+00 2.5278299499e+00 
76500 5.9339215221e+00 -7.0640275241e-05 1.4594433020e+00 -2.5278299499e+00 1.4594433020e+00 2.5278299499e+00 
76600 5.9339215231e+00 -7.0667248281e-05 1.4594433020e+00 -2.5278299499e+00 1.4594433020e+00 2.5278299499e+00 
76700 5.9339215242e+00 -7.0693864604e-05 1.4594433020e+00 -2.5278299499e+00 1.4594433020e+00 2.5278299499e+00 
76800 5.9339215252e+00 -7.0720132487e-05 1.4594433020e+00 -2.5278299499e+00 1.4594433020e+00 2.5278299499e+00 
76900 5.9339215260e+00 -6.8157402937e-05 1.4594457249e+00 -2.5278341464e+00 1.4594457249e+00 2.5278341464e+00 
77000 5.9339215270e+00 -6.8176521982e-05 1.4594457249e+00 -2.5278341464e+00 1.4594457249e+00 2.5278341464e+00 
77100 5.9339215280e+00 -6.8195251349e-05 1.4594457249e+00 -2.5278341464e+00 1.4594457249e+00 2.5278341464e+00 
77200 5.9339215290e+00 -6.8213603658e-05 1.4594457249e+00 -2.5278341464e+00 1.4594457249e+00 2.5278341464e+00 
77300 5.9339215300e+00 -6.8231591162e-05 1.4594457249e+00 -2.5278341464e+00 1.4594457249e+00 2.5278341464e+00 
77400 5.9339215309e+00 -6.8249225751e-05 1.4594457249e+00 -2.5278341464e+00 1.4594457249e+00 2.5278341464e+00 
77500 5.9339215319e+00 -6.8266518954e-05 1.4594457249e+00 -2.5278341464e+00 1.4594457249e+00 2.5278341464e+00 
77600 5.9339215328e+00 -6.8283481948e-05 1.4594457249e+00 -2.5278341464e+00 1.4594457249e+00 2.5278341464e+00 
77700 5.9339215337e+00 -6.8300125567e-05 1.4594457249e+00 -2.5278341464e+00 1.4594457249e+00 2.5278341464e+00 
77800 5.9339215346e+00 -6.8316460304e-05 1.4594457249e+00 -2.5278341464e+00 1.4594457249e+00 2.5278341464e+00 
77900 5.9339215355e+00 -6.8332496319e-05 1.4594457249e+00 -2.5278341464e+00 1.4594457249e+00 2.5278341464e+00 
78000 5.9339215364e+00 -6.8348243445e-05 1.4594457249e+00 -2.5278341464e+00 1.4594457249e+00 2.5278341464e+00 
78100 5.9339215373e+00 -6.8363711194e-05 1.4594457249e+00 -2.5278341464e+00 1.4594457249e+00 2.5278341464e+00 
78200 5.9339215382e+00 -6.8378908767e-05 1.4594457249e+00 -2.5278341464e+00 1.4594457249e+00 2.5278341464e+00 
78300 5.9339215390e+00 -6.8393845056e-05 1.4594457249e+00 -2.5278341464e+00 1.4594457249e+00 2.5278341464e+00 
78400 5.9339215399e+00 -6.8408528653e-05 1.4594457249e+00 -2.5278341464e+00 1.4594457249e+00 2.5278341464e+00 
78500 5.9339215407e+00 -6.8422967856e-05 1.4594457249e+00 -2.5278341464e+00 1.4594457249e+00 2.5278341464e+00 
78600 5.9339215415e+00 -6.8437170675e-05 1.4594457249e+00 -2.5278341464e+00 1.4594457249e+00 2.5278341464e+00 
78700 5.9339215423e+00 -6.8451144840e-05 1.4594457249e+00 -2.5278341464e+00 1.4594457249e+00 2.5278341464e+00 
78800 5.9339215431e+00 -6.8464897808e-05 1.4594457249e+00 -2.5278341464e+00 1.4594457249e+00 2.5278341464e+00 
78900 5.9339215439e+00 -6.8478436767e-05 1.4594457249e+00 -2.5278341464e+00 1.4594457249e+00 2.5278341464e+00 
79000 5.9339215447e+00 -6.8491768643e-05 1.4594457249e+00 -2.5278341464e+00 1.4594457249e+00 2.5278341464e+00 
79100 5.9339215455e+00 -6.8504900109e-05 1.4594457249e+00 -2.5278341464e+00 1.4594457249e+00 2.5278341464e+00 
79200 5.9339215462e+00 -6.8517837591e-05 1.4594457249e+00 -2.5278341464e+00 1.4594457249e+00 2.5278341464e+00 
79300 5.9339215470e+00 -6.8530587270e-05 1.4594457249e+00 -2.5278341464e+00 1.4594457249e+00 2.5278341464e+00 
79400 5.9339215477e+00 -6.8543155097e-05 1.4594457249e+00 -2.5278341464e+00 1.4594457249e+00 2.5278341464e+00 
79500 5.9339215485e+00 -6.8555546788e-05 1.4594457249e+00 -2.5278341464e+00 1.4594457249e+00 2.5278341464e+00 
79600 5.9339215492e+00 -6.8567767841e-05 1.4594457249e+00 -2.5278341464e+00 1.4594457249e+00 2.5278341464e+00 
79700 5.9339215499e+00 -6.8579823539e-05 1.4594457249e+00 -2.5278341464e+00 1.4594457249e+00 2.5278341464e+00 
79800 5.9339215506e+00 -6.8591718950e-05 1.4594457249e+00 -2.5278341464e+00 1.4594457249e+00 2.5278341464e+00 
79900 5.9339215513e+00 -6.8603458942e-05 1.4594457249e+00 -2.5278341464e+00 1.4594457249e+00 2.5278341464e+00 
80000 5.9339215520e+00 -6.8615048186e-05 1.4594457249e+00 -2.5278341464e+00 1.4594457249e+00 2.5278341464e+00 
80100 5.9339215527e+00 -6.8626491158e-05 1.4594457249e+00 -2.5278341464e+00 1.4594457249e+00 2.5278341464e+00 
80200 5.9339215533e+00 -6.8637792151e-05 1.4594457249e+00 -2.5278341464e+00 1.4594457249e+00 2.5278341464e+00 
80300 5.9339215540e+00 -6.8648955278e-05 1.4594457249e+00 -2.5278341464e+00 1.4594457249e+00 2.5278341464e+00 
80400 5.9339215546e+00 -6.8659984476e-05 1.4594457249e+00 -2.5278341464e+00 1.4594457249e+00 2.5278341464e+00 
80500 5.9339215553e+00 -6.8670883516e-05 1.4594457249e+00 -2.5278341464e+00 1.4594457249e+00 2.5278341464e+00 
80600 5.9339215559e+00 -6.8681656005e-05 1.4594457249e+00 -2.5278341464e+00 1.4594457249e+00 2.5278341464e+00 
80700 5.9339215566e+00 -6.8692305393e-05 1.4594457249e+00 -2.5278341464e+00 1.4594457249e+00 2.5278341464e+00 
80800 5.9339215572e+00 -6.8702834978e-05 1.4594457249e+00 -2.5278341464e+00 1.4594457249e+00 2.5278341464e+00 
80900 5.9339215578e+00 -6.8713247913e-05 1.4594457249e+00 -2.5278341464e+00 1.4594457249e+00 2.5278341464e+00 
81000 5.9339215584e+00 -6.8723547209e-05 1.4594457249e+00 -2.5278341464e+00 1.4594457249e+00 2.5278341464e+00 
81100 5.9339215590e+00 -6.8733735740e-05 1.4594457249e+00 -2.5278341464e+00 1.4594457249e+00 2.5278341464e+00 
81200 5.9339215596e+00 -6.8743816252e-05 1.4594457249e+00 -2.5278341464e+00 1.4594457249e+00 2.5278341464e+00 
81300 5.9339215602e+00 -6.8753791362e-05 1.4594457249e+00 -2.5278341464e+00 1.4594457249e+00 2.5278341464e+00 
81400 5.9339215608e+00 -6.8763663569e-05 1.4594457249e+00 -2.5278341464e+00 1.4594457249e+00 2.5278341464e+00 
81500 5.9339215613e+00 -6.8773435253e-05 1.4594457249e+00 -2.5278341464e+00 1.4594457249e+00 2.5278341464e+00 
81600 5.9339215619e+00 -6.8783108683e-05 1.4594457249e+00 -2.5278341464e+00 1.4594457249e+00 2.5278341464e+00 
81700 5.9339215624e+00 -6.8792686024e-05 1.4594457249e+00 -2.5278341464e+00 1.4594457249e+00 2.5278341464e+00 
81800 5.9339215630e+00 -6.8802169334e-05 1.4594457249e+00 -2.5278341464e+00 1.4594457249e+00 2.5278341464e+00 
81900 5.9339215635e+00 -6.8811560577e-05 1.4594457249e+00 -2.5278341464e+00 1.4594457249e+00 2.5278341464e+00 
82000 5.9339215641e+00 -6.8820861621e-05 1.4594457249e+00 -2.5278341464e+00 1.4594457249e+00 2.5278341464e+00 
82100 5.9339215646e+00 -6.8830074242e-05 1.4594457249e+00 -2.5278341464e+00 1.4594457249e+00 2.5278341464e+00 
82200 5.9339215651e+00 -6.8839200136e-05 1.4594457249e+00 -2.5278341464e+00 1.4594457249e+00 2.5278341464e+00 
82300 5.9339215656e+00 -6.8848240915e-05 1.4594457249e+00 -2.5278341464e+00 1.4594457249e+00 2.5278341464e+00 
82400 5.9339215662e+00 -6.8857198109e-05 1.4594457249e+00 -2.5278341464e+00 1.4594457249e+00 2.5278341464e+00 
82500 5.9339215667e+00 -6.8866073180e-05 1.4594457249e+00 -2.5278341464e+00 1.4594457249e+00 2.5278341464e+00 
82600 5.9339215672e+00 -6.8874867517e-05 1.4594457249e+00 -2.5278341464e+00 1.4594457249e+00 2.5278341464e+00 
82700 5.9339215676e+00 -6.8883582441e-05 1.4594457249e+00 -2.5278341464e+00 1.4594457249e+00 2.5278341464e+00 
82800 5.9339215681e+00 -6.8892219212e-05 1.4594457249e+00 -2.5278341464e+00 1.4594457249e+00 2.5278341464e+00 
82900 5.9339215686e+00 -6.8900779027e-05 1.4594457249e+00 -2.5278341464e+00 1.4594457249e+00 2.5278341464e+00 
83000 5.9339215691e+00 -6.8909263031e-05 1.4594457249e+00 -2.5278341464e+00 1.4594457249e+00 2.5278341464e+00 
83100 5.9339215695e+00 -6.8917672309e-05 1.4594457249e+00 -2.5278341464e+00 1.4594457249e+00 2.5278341464e+00 
83200 5.9339215700e+00 -6.8926007900e-05 1.4594457249e+00 -2.5278341464e+00 1.4594457249e+00 2.5278341464e+00 
83300 5.9339215705e+00 -6.8934270794e-05 1.4594457249e+00 -2.5278341464e+00 1.4594457249e+00 2.5278341464e+00 
83400 5.9339215709e+00 -6.8942461934e-05 1.4594457249e+00 -2.5278341464e+00 1.4594457249e+00 2.5278341464e+00 
83500 5.9339215714e+00 -6.8950582224e-05 1.4594457249e+00 -2.5278341464e+00 1.4594457249e+00 2.5278341464e+00 
83600 5.9339215718e+00 -6.8958632527e-05 1.4594457249e+00 -2.5278341464e+00 1.4594457249e+00 2.5278341464e+00 
83700 5.9339215722e+00 -6.8966613670e-05 1.4594457249e+00 -2.5278341464e+00 1.4594457249e+00 2.5278341464e+00 
83800 5.9339215727e+00 -6.8974526444e-05 1.4594457249e+00 -2.5278341464e+00 1.4594457249e+00 2.5278341464e+00 
83900 5.9339215731e+00 -6.8982371607e-05 1.4594457249e+00 -2.5278341464e+00 1.4594457249e+00 2.5278341464e+00 
84000 5.9339215735e+00 -6.8990149892e-05 1.4594457249e+00 -2.5278341464e+00 1.4594457249e+00 2.5278341464e+00 
84100 5.9339215739e+00 -6.8997861999e-05 1.4594457249e+00 -2.5278341464e+00 1.4594457249e+00 2.5278341464e+00 
84200 5.9339215743e+00 -6.9005508605e-05 1.4594457249e+00 -2.5278341464e+00 1.4594457249e+00 2.5278341464e+00 
84300 5.9339215747e+00 -6.9013090363e-05 1.4594457249e+00 -2.5278341464e+00 1.4594457249e+00 2.5278341464e+00 
84400 5.9339215751e+00 -6.9020607905e-05 1.4594457249e+00 -2.5278341464e+00 1.4594457249e+00 2.5278341464e+00 
84500 5.9339215755e+00 -6.9028061843e-05 1.4594457249e+00 -2.5278341464e+00 1.4594457249e+00 2.5278341464e+00 
84600 5.9339215759e+00 -6.9035452769e-05 1.4594457249e+00 -2.5278341464e+00 1.4594457249e+00 2.5278341464e+00 
84700 5.9339215763e+00 -6.9042781263e-05 1.4594457249e+00 -2.5278341464e+00 1.4594457249e+00 2.5278341464e+00 
84800 5.9339215767e+00 -6.9050047886e-05 1.4594457249e+00 -2.5278341464e+00 1.4594457249e+00 2.5278341464e+00 
84900 5.9339215771e+00 -6.9057253188e-05 1.4594457249e+00 -2.5278341464e+00 1.4594457249e+00 2.5278341464e+00 
85000 5.9339215774e+00 -6.9064397709e-05 1.4594457249e+00 -2.5278341464e+00 1.4594457249e+00 2.5278341464e+00 
85100 5.9339215778e+00 -6.9071481974e-05 1.4594457249e+00 -2.5278341464e+00 1.4594457249e+00 2.5278341464e+00 
85200 5.9339215782e+00 -6.9078506502e-05 1.4594457249e+00 -2.5278341464e+00 1.4594457249e+00 2.5278341464e+00 
85300 5.9339215785e+00 -6.9085471806e-05 1.4594457249e+00 -2.5278341464e+00 1.4594457249e+00 2.5278341464e+00 
85400 5.9339215789e+00 -6.9092378389e-05 1.4594457249e+00 -2.5278341464e+00 1.4594457249e+00 2.5278341464e+00 
85500 5.9339215792e+00 -6.9099226749e-05 1.4594457249e+00 -2.5278341464e+00 1.4594457249e+00 2.5278341464e+00 
85600 5.9339215796e+00 -6.9106017382e-05 1.4594457249e+00 -2.5278341464e+00 1.4594457249e+00 2.5278341464e+00 
85700 5.9339215799e+00 -6.9112750777e-05 1.4594457249e+00 -2.5278341464e+00 1.4594457249e+00 2.5278341464e+00 
85800 5.9339215802e+00 -6.9119427423e-05 1.4594457249e+00 -2.5278341464e+00 1.4594457249e+00 2.5278341464e+00 
85900 5.9339215806e+00 -6.9126047807e-05 1.4594457249e+00 -2.5278341464e+00 1.4594457249e+00 2.5278341464e+00 
86000 5.9339215809e+00 -6.9132612416e-05 1.4594457249e+00 -2.5278341464e+00 1.4594457249e+00 2.5278341464e+00 
86100 5.9339215812e+00 -6.9139121734e-05 1.4594457249e+00 -2.5278341464e+00 1.4594457249e+00 2.5278341464e+00 
86200 5.9339215815e+00 -6.9145576246e-05 1.4594457249e+00 -2.5278341464e+00 1.4594457249e+00 2.5278341464e+00 
86300 5.9339215819e+00 -6.9151976441e-05 1.4594457249e+00 -2.5278341464e+00 1.4594457249e+00 2.5278341464e+00 
86400 5.9339215822e+00 -6.9158322806e-05 1.4594457249e+00 -2.5278341464e+00 1.4594457249e+00 2.5278341464e+00 
86500 5.9339215825e+00 -6.9164615836e-05 1.4594457249e+00 -2.5278341464e+00 1.4594457249e+00 2.5278341464e+00 
86600 5.9339215828e+00 -6.9170856021e-05 1.4594457249e+00 -2.5278341464e+00 1.4594457249e+00 2.5278341464e+00 
86700 5.9339215831e+00 -6.9177043860e-05 1.4594457249e+00 -2.5278341464e+00 1.4594457249e+00 2.5278341464e+00 
86800 5.9339215834e+00 -6.9183179852e-05 1.4594457249e+00 -2.5278341464e+00 1.4594457249e+00 2.5278341464e+00 
86900 5.9339215837e+00 -6.9189264504e-05 1.4594457249e+00 -2.5278341464e+00 1.4594457249e+00 2.5278341464e+00 
87000 5.9339215840e+00 -6.9195298323e-05 1.4594457249e+00 -2.5278341464e+00 1.4594457249e+00 2.5278341464e+00 
87100 5.9339215843e+00 -6.9201281821e-05 1.4594457249e+00 -2.5278341464e+00 1.4594457249e+00 2.5278341464e+00 
87200 5.9339215845e+00 -6.9207215517e-05 1.4594457249e+00 -2.5278341464e+00 1.4594457249e+00 2.5278341464e+00 
87300 5.9339215848e+00 -6.9213099936e-05 1.4594457249e+00 -2.5278341464e+00 1.4594457249e+00 2.5278341464e+00 
87400 5.9339215851e+00 -6.9218935603e-05 1.4594457249e+00 -2.5278341464e+00 1.4594457249e+00 2.5278341464e+00 
87500 5.9339215854e+00 -6.9224723051e-05 1.4594457249e+00 -2.5278341464e+00 1.4594457249e+00 2.5278341464e+00 
87600 5.9339215856e+00 -6.9230462818e-05 1.4594457249e+00 -2.5278341464e+00 1.4594457249e+00 2.5278341464e+00 
87700 5.9339215859e+00 -6.9236155450e-05 1.4594457249e+00 -2.5278341464e+00 1.4594457249e+00 2.5278341464e+00 
87800 5.9339215862e+00 -6.9241801494e-05 1.4594457249e+00 -2.5278341464e+00 1.4594457249e+00 2.5278341464e+00 
87900 5.9339215864e+00 -6.9247401504e-05 1.4594457249e+00 -2.5278341464e+00 1.4594457249e+00 2.5278341464e+00 
88000 5.9339215867e+00 -6.9252956040e-05 1.4594457249e+00 -2.5278341464e+00 1.4594457249e+00 2.5278341464e+00 
88100 5.9339215870e+00 -6.9258465666e-05 1.4594457249e+00 -2.5278341464e+00 1.4594457249e+00 2.5278341464e+00 
88200 5.9339215872e+00 -6.9263930954e-05 1.4594457249e+00 -2.5278341464e+00 1.4594457249e+00 2.5278341464e+00 
88300 5.9339215875e+00 -6.9269352477e-05 1.4594457249e+00 -2.5278341464e+00 1.4594457249e+00 2.5278341464e+00 
88400 5.9339215877e+00 -6.9274730816e-05 1.4594457249e+00 -2.5278341464e+00 1.4594457249e+00 2.5278341464e+00 
88500 5.9339215879e+00 -6.9280066556e-05 1.4594457249e+00 -2.5278341464e+00 1.4594457249e+00 2.5278341464e+00 
88600 5.9339215882e+00 -6.9285360286e-05 1.4594457249e+00 -2.5278341464e+00 1.4594457249e+00 2.5278341464e+00 
88700 5.9339215884e+00 -6.9290612601e-05 1.4594457249e+00 -2.5278341464e+00 1.4594457249e+00 2.5278341464e+00 
88800 5.9339215887e+00 -6.9295824098e-05 1.4594457249e+00 -2.5278341464e+00 1.4594457249e+00 2.5278341464e+00 
88900 5.9339215889e+00 -6.9300995382e-05 1.4594457249e+00 -2.5278341464e+00 1.4594457249e+00 2.5278341464e+00 
89000 5.9339215891e+00 -6.9306127057e-05 1.4594457249e+00 -2.5278341464e+00 1.4594457249e+00 2.5278341464e+00 
89100 5.9339215893e+00 -6.9311219734e-05 1.4594457249e+00 -2.5278341464e+00 1.4594457249e+00 2.5278341464e+00 
89200 5.9339215896e+00 -6.9316274027e-05 1.4594457249e+00 -2.5278341464e+00 1.4594457249e+00 2.5278341464e+00 
89300 5.9339215898e+00 -6.9321290552e-05 1.4594457249e+00 -2.5278341464e+00 1.4594457249e+00 2.5278341464e+00 
89400 5.9339215900e+00 -6.9326269930e-05 1.4594457249e+00 -2.5278341464e+00 1.4594457249e+00 2.5278341464e+00 
89500 5.9339215902e+00 -6.9331212781e-05 1.4594457249e+00 -2.5278341464e+00 1.4594457249e+00 2.5278341464e+00 
89600 5.9339215904e+00 -6.9336119733e-05 1.4594457249e+00 -2.5278341464e+00 1.4594457249e+00 2.5278341464e+00 
89700 5.9339215906e+00 -6.9340991410e-05 1.4594457249e+00 -2.5278341464e+00 1.4594457249e+00 2.5278341464e+00 
89800 5.9339215909e+00 -6.9345828440e-05 1.4594457249e+00 -2.5278341464e+00 1.4594457249e+00 2.5278341464e+00 
89900 5.9339215911e+00 -6.9350631455e-05 1.4594457249e+00 -2.5278341464e+00 1.4594457249e+00 2.5278341464e+00 
90000 5.9339215913e+00 -6.9355401084e-05 1.4594457249e+00 -2.5278341464e+00 1.4594457249e+00 2.5278341464e+00 
90100 5.9339215915e+00 -6.9360137962e-05 1.4594457249e+00 -2.5278341464e+00 1.4594457249e+00 2.5278341464e+00 
90200 5.9339215917e+00 -6.9364842719e-05 1.4594457249e+00 -2.5278341464e+00 1.4594457249e+00 2.5278341464e+00 
90300 5.9339215919e+00 -6.9369515988e-05 1.4594457249e+00 -2.5278341464e+00 1.4594457249e+00 2.5278341464e+00 
90400 5.9339215921e+00 -6.9374158402e-05 1.4594457249e+00 -2.5278341464e+00 1.4594457249e+00 2.5278341464e+00 
90500 5.9339215922e+00 -6.9378770594e-05 1.4594457249e+00 -2.5278341464e+00 1.4594457249e+00 2.5278341464e+00 
90600 5.9339215924e+00 -6.9383353194e-05 1.4594457249e+00 -2.5278341464e+00 1.4594457249e+00 2.5278341464e+00 
90700 5.9339215926e+00 -6.9387906834e-05 1.4594457249e+00 -2.5278341464e+00 1.4594457249e+00 2.5278341464e+00 
90800 5.9339215928e+00 -6.9392432143e-05 1.4594457249e+00 -2.5278341464e+00 1.4594457249e+00 2.5278341464e+00 
90900 5.9339215930e+00 -6.9396929748e-05 1.4594457249e+00 -2.5278341464e+00 1.4594457249e+00 2.5278341464e+00 
91000 5.9339215932e+00 -6.9401400276e-05 1.4594457249e+00 -2.5278341464e+00 1.4594457249e+00 2.5278341464e+00 
91100 5.9339215934e+00 -6.9405844349e-05 1.4594457249e+00 -2.5278341464e+00 1.4594457249e+00 2.5278341464e+00 
91200 5.9339215935e+00 -6.9410262587e-05 1.4594457249e+00 -2.5278341464e+00 1.4594457249e+00 2.5278341464e+00 
91300 5.9339215937e+00 -6.9414655609e-05 1.4594457249e+00 -2.5278341464e+00 1.4594457249e+00 2.5278341464e+00 
91400 5.9339215939e+00 -6.9419024029e-05 1.4594457249e+00 -2.5278341464e+00 1.4594457249e+00 2.5278341464e+00 
91500 5.9339215940e+00 -6.9423368459e-05 1.4594457249e+00 -2.5278341464e+00 1.4594457249e+00 2.5278341464e+00 
91600 5.9339215942e+00 -6.9427689506e-05 1.4594457249e+00 -2.5278341464e+00 1.4594457249e+00 2.5278341464e+00 
91700 5.9339215944e+00 -6.9431987774e-05 1.4594457249e+00 -2.5278341464e+00 1.4594457249e+00 2.5278341464e+00 
91800 5.9339215945e+00 -6.9436263861e-05 1.4594457249e+00 -2.5278341464e+00 1.4594457249e+00 2.5278341464e+00 
91900 5.9339215947e+00 -6.9440518362e-05 1.4594457249e+00 -2.5278341464e+00 1.4594457249e+00 2.5278341464e+00 
92000 5.9339215949e+00 -6.9444751867e-05 1.4594457249e+00 -2.5278341464e+00 1.4594457249e+00 2.5278341464e+00 
92100 5.9339215950e+00 -6.9448964960e-05 1.4594457249e+00 -2.5278341464e+00 1.4594457249e+00 2.5278341464e+00 
92200 5.9339215952e+00 -6.9453158221e-05 1.4594457249e+00 -2.5278341464e+00 1.4594457249e+00 2.5278341464e+00 
92300 5.9339215953e+00 -6.9457332221e-05 1.4594457249e+00 -2.5278341464e+00 1.4594457249e+00 2.5278341464e+00 
92400 5.9339215955e+00 -6.9461487531e-05 1.4594457249e+00 -2.5278341464e+00 1.4594457249e+00 2.5278341464e+00 
92500 5.9339215956e+00 -6.9465624712e-05 1.4594457249e+00 -2.5278341464e+00 1.4594457249e+00 2.5278341464e+00 
92600 5.9339215958e+00 -6.9469744318e-05 1.4594457249e+00 -2.5278341464e+00 1.4594457249e+00 2.5278341464e+00 
92700 5.9339215959e+00 -6.9473846898e-05 1.4594457249e+00 -2.5278341464e+00 1.4594457249e+00 2.5278341464e+00 
92800 5.9339215961e+00 -6.9477932994e-05 1.4594457249e+00 -2.5278341464e+00 1.4594457249e+00 2.5278341464e+00 
92900 5.9339215962e+00 -6.9482003141e-05 1.4594457249e+00 -2.5278341464e+00 1.4594457249e+00 2.5278341464e+00 
93000 5.9339215964e+00 -6.9486057869e-05 1.4594457249e+00 -2.5278341464e+00 1.4594457249e+00 2.5278341464e+00 
93100 5.9339215965e+00 -6.9490097697e-05 1.4594457249e+00 -2.5278341464e+00 1.4594457249e+00 2.5278341464e+00 
93200 5.9339215967e+00 -6.9494123138e-05 1.4594457249e+00 -2.5278341464e+00 1.4594457249e+00 2.5278341464e+00 
93300 5.9339215968e+00 -6.9498134697e-05 1.4594457249e+00 -2.5278341464e+00 1.4594457249e+00 2.5278341464e+00 
93400 5.9339215969e+00 -6.9502132874e-05 1.4594457249e+00 -2.5278341464e+00 1.4594457249e+00 2.5278341464e+00 
93500 5.9339215971e+00 -6.9506118156e-05 1.4594457249e+00 -2.5278341464e+00 1.4594457249e+00 2.5278341464e+00 
93600 5.9339215972e+00 -6.9510091027e-05 1.4594457249e+00 -2.5278341464e+00 1.4594457249e+00 2.5278341464e+00 
93700 5.9339215973e+00 -6.9514051960e-05 1.4594457249e+00 -2.5278341464e+00 1.4594457249e+00 2.5278341464e+00 
93800 5.9339215975e+00 -6.9518001420e-05 1.4594457249e+00 -2.5278341464e+00 1.4594457249e+00 2.5278341464e+00 
93900 5.9339215976e+00 -6.9521939864e-05 1.4594457249e+00 -2.5278341464e+00 1.4594457249e+00 2.5278341464e+00 
94000 5.9339215977e+00 -6.9525867738e-05 1.4594457249e+00 -2.5278341464e+00 1.4594457249e+00 2.5278341464e+00 
94100 5.9339215978e+00 -6.9529785485e-05 1.4594457249e+00 -2.5278341464e+00 1.4594457249e+00 2.5278341464e+00 
94200 5.9339215980e+00 -6.9533693532e-05 1.4594457249e+00 -2.5278341464e+00 1.4594457249e+00 2.5278341464e+00 
94300 5.9339215981e+00 -6.9537592302e-05 1.4594457249e+00 -2.5278341464e+00 1.4594457249e+00 2.5278341464e+00 
94400 5.9339215982e+00 -6.9541482208e-05 1.4594457249e+00 -2.5278341464e+00 1.4594457249e+00 2.5278341464e+00 
94500 5.9339215983e+00 -6.9545363653e-05 1.4594457249e+00 -2.5278341464e+00 1.4594457249e+00 2.5278341464e+00 
94600 5.9339215984e+00 -6.9549237033e-05 1.4594457249e+00 -2.5278341464e+00 1.4594457249e+00 2.5278341464e+00 
94700 5.9339215986e+00 -6.9553102733e-05 1.4594457249e+00 -2.5278341464e+00 1.4594457249e+00 2.5278341464e+00 
94800 5.9339215987e+00 -6.9556961130e-05 1.4594457249e+00 -2.5278341464e+00 1.4594457249e+00 2.5278341464e+00 
94900 5.9339215988e+00 -6.9560812590e-05 1.4594457249e+00 -2.5278341464e+00 1.4594457249e+00 2.5278341464e+00 
95000 5.9339215989e+00 -6.9564657471e-05 1.4594457249e+00 -2.5278341464e+00 1.4594457249e+00 2.5278341464e+00 
95100 5.9339215990e+00 -6.9568496124e-05 1.4594457249e+00 -2.5278341464e+00 1.4594457249e+00 2.5278341464e+00 
95200 5.9339215991e+00 -6.9572328886e-05 1.4594457249e+00 -2.5278341464e+00 1.4594457249e+00 2.5278341464e+00 
95300 5.9339215992e+00 -6.9576156087e-05 1.4594457249e+00 -2.5278341464e+00 1.4594457249e+00 2.5278341464e+00 
95400 5.9339215993e+00 -6.9579978051e-05 1.4594457249e+00 -2.5278341464e+00 1.4594457249e+00 2.5278341464e+00 
95500 5.9339215994e+00 -6.9583795087e-05 1.4594457249e+00 -2.5278341464e+00 1.4594457249e+00 2.5278341464e+00 
95600 5.9339215995e+00 -6.9587607498e-05 1.4594457249e+00 -2.5278341464e+00 1.4594457249e+00 2.5278341464e+00 
95700 5.9339215997e+00 -6.9591415577e-05 1.4594457249e+00 -2.5278341464e+00 1.4594457249e+00 2.5278341464e+00 
95800 5.9339215998e+00 -6.9595219610e-05 1.4594457249e+00 -2.5278341464e+00 1.4594457249e+00 2.5278341464e+00 
95900 5.9339215999e+00 -6.9599019870e-05 1.4594457249e+00 -2.5278341464e+00 1.4594457249e+00 2.5278341464e+00 
96000 5.9339216000e+00 -6.9602816623e-05 1.4594457249e+00 -2.5278341464e+00 1.4594457249e+00 2.5278341464e+00 
96100 5.9339216001e+00 -6.9606610126e-05 1.4594457249e+00 -2.5278341464e+00 1.4594457249e+00 2.5278341464e+00 
96200 5.9339216002e+00 -6.9610400627e-05 1.4594457249e+00 -2.5278341464e+00 1.4594457249e+00 2.5278341464e+00 
96300 5.9339216003e+00 -6.9614188363e-05 1.4594457249e+00 -2.5278341464e+00 1.4594457249e+00 2.5278341464e+00 
96400 5.9339216003e+00 -6.9617973565e-05 1.4594457249e+00 -2.5278341464e+00 1.4594457249e+00 2.5278341464e+00 
96500 5.9339216004e+00 -6.9621756454e-05 1.4594457249e+00 -2.5278341464e+00 1.4594457249e+00 2.5278341464e+00 
96600 5.9339216005e+00 -6.9625537242e-05 1.4594457249e+00 -2.5278341464e+00 1.4594457249e+00 2.5278341464e+00 
96700 5.9339216006e+00 -6.9629316131e-05 1.4594457249e+00 -2.5278341464e+00 1.4594457249e+00 2.5278341464e+00 
96800 5.9339216007e+00 -6.9633093318e-05 1.4594457249e+00 -2.5278341464e+00 1.4594457249e+00 2.5278341464e+00 
96900 5.9339216008e+00 -6.9636868988e-05 1.4594457249e+00 -2.5278341464e+00 1.4594457249e+00 2.5278341464e+00 
97000 5.9339216009e+00 -6.9640643319e-05 1.4594457249e+00 -2.5278341464e+00 1.4594457249e+00 2.5278341464e+00 
97100 5.9339216010e+00 -6.9644416479e-05 1.4594457249e+00 -2.5278341464e+00 1.4594457249e+00 2.5278341464e+00 
97200 5.9339216011e+00 -6.9648188632e-05 1.4594457249e+00 -2.5278341464e+00 1.4594457249e+00 2.5278341464e+00 
97300 5.9339216012e+00 -6.9651959930e-05 1.4594457249e+00 -2.5278341464e+00 1.4594457249e+00 2.5278341464e+00 
97400 5.9339216012e+00 -6.9655730517e-05 1.4594457249e+00 -2.5278341464e+00 1.4594457249e+00 2.5278341464e+00 
97500 5.9339216013e+00 -6.9659500530e-05 1.4594457249e+00 -2.5278341464e+00 1.4594457249e+00 2.5278341464e+00 
97600 5.9339216014e+00 -6.9663270099e-05 1.4594457249e+00 -2.5278341464e+00 1.4594457249e+00 2.5278341464e+00 
97700 5.9339216015e+00 -6.9667039346e-05 1.4594457249e+00 -2.5278341464e+00 1.4594457249e+00 2.5278341464e+00 
97800 5.9339216016e+00 -6.9670808383e-05 1.4594457249e+00 -2.5278341464e+00 1.4594457249e+00 2.5278341464e+00 
97900 5.9339216017e+00 -6.9674577318e-05 1.4594457249e+00 -2.5278341464e+00 1.4594457249e+00 2.5278341464e+00 
98000 5.9339216017e+00 -6.9678346251e-05 1.4594457249e+00 -2.5278341464e+00 1.4594457249e+00 2.5278341464e+00 
98100 5.9339216018e+00 -6.9682115272e-05 1.4594457249e+00 -2.5278341464e+00 1.4594457249e+00 2.5278341464e+00 
98200 5.9339216019e+00 -6.9685884465e-05 1.4594457249e+00 -2.5278341464e+00 1.4594457249e+00 2.5278341464e+00 
98300 5.9339216020e+00 -6.9689653910e-05 1.4594457249e+00 -2.5278341464e+00 1.4594457249e+00 2.5278341464e+00 
98400 5.9339216020e+00 -6.9693423676e-05 1.4594457249e+00 -2.5278341464e+00 1.4594457249e+00 2.5278341464e+00 
98500 5.9339216021e+00 -6.9697193829e-05 1.4594457249e+00 -2.5278341464e+00 1.4594457249e+00 2.5278341464e+00 
98600 5.9339216022e+00 -6.9700964426e-05 1.4594457249e+00 -2.5278341464e+00 1.4594457249e+00 2.5278341464e+00 
98700 5.9339216023e+00 -6.9704735518e-05 1.4594457249e+00 -2.5278341464e+00 1.4594457249e+00 2.5278341464e+00 
98800 5.9339216023e+00 -6.9708507150e-05 1.4594457249e+00 -2.5278341464e+00 1.4594457249e+00 2.5278341464e+00 
98900 5.9339216024e+00 -6.9712279362e-05 1.4594457249e+00 -2.5278341464e+00 1.4594457249e+00 2.5278341464e+00 
99000 5.9339216025e+00 -6.9716052184e-05 1.4594457249e+00 -2.5278341464e+00 1.4594457249e+00 2.5278341464e+00 
99100 5.9339216026e+00 -6.9719825644e-05 1.4594457249e+00 -2.5278341464e+00 1.4594457249e+00 2.5278341464e+00 
99200 5.9339216026e+00 -6.9723599765e-05 1.4594457249e+00 -2.5278341464e+00 1.4594457249e+00 2.5278341464e+00 
99300 5.9339216027e+00 -6.9727374559e-05 1.4594457249e+00 -2.5278341464e+00 1.4594457249e+00 2.5278341464e+00 
99400 5.9339216028e+00 -6.9731150039e-05 1.4594457249e+00 -2.5278341464e+00 1.4594457249e+00 2.5278341464e+00 
99500 5.9339216028e+00 -6.9734926209e-05 1.4594457249e+00 -2.5278341464e+00 1.4594457249e+00 2.5278341464e+00 
99600 5.9339216029e+00 -6.9738703068e-05 1.4594457249e+00 -2.5278341464e+00 1.4594457249e+00 2.5278341464e+00 
99700 5.9339216030e+00 -6.9742480610e-05 1.4594457249e+00 -2.5278341464e+00 1.4594457249e+00 2.5278341464e+00 
99800 5.9339216030e+00 -6.9746258826e-05 1.4594457249e+00 -2.5278341464e+00 1.4594457249e+00 2.5278341464e+00 
99900 5.9339216031e+00 -6.9750037700e-05 1.4594457249e+00 -2.5278341464e+00 1.4594457249e+00 2.5278341464e+00 
100000 5.9339216032e+00 -6.9753817213e-05 1.4594457249e+00 -2.5278341464e+00 1.4594457249e+00 2.5278341464e+00 
100100 5.9339216032e+00 -6.9757597339e-05 1.4594457249e+00 -2.5278341464e+00 1.4594457249e+00 2.5278341464e+00 
100200 5.9339216033e+00 -6.9761378052e-05 1.4594457249e+00 -2.5278341464e+00 1.4594457249e+00 2.5278341464e+00 
100300 5.9339216033e+00 -6.9765159318e-05 1.4594457249e+00 -2.5278341464e+00 1.4594457249e+00 2.5278341464e+00 
100400 5.9339216034e+00 -6.9768941099e-05 1.4594457249e+00 -2.5278341464e+00 1.4594457249e+00 2.5278341464e+00 
100500 5.9339216035e+00 -6.9772723356e-05 1.4594457249e+00 -2.5278341464e+00 1.4594457249e+00 2.5278341464e+00 
100600 5.9339216035e+00 -6.9776506043e-05 1.4594457249e+00 -2.5278341464e+00 1.4594457249e+00 2.5278341464e+00 
100700 5.9339216036e+00 -6.9780289114e-05 1.4594457249e+00 -2.5278341464e+00 1.4594457249e+00 2.5278341464e+00 
100800 5.9339216036e+00 -6.9784072515e-05 1.4594457249e+00 -2.5278341464e+00 1.4594457249e+00 2.5278341464e+00 
100900 5.9339216037e+00 -6.9787856193e-05 1.4594457249e+00 -2.5278341464e+00 1.4594457249e+00 2.5278341464e+00 
101000 5.9339216037e+00 -6.9791640088e-05 1.4594457249e+00 -2.5278341464e+00 1.4594457249e+00 2.5278341464e+00 
101100 5.9339216038e+00 -6.9795424139e-05 1.4594457249e+00 -2.5278341464e+00 1.4594457249e+00 2.5278341464e+00 
101200 5.9339216039e+00 -6.9799208282e-05 1.4594457249e+00 -2.5278341464e+00 1.4594457249e+00 2.5278341464e+00 
101300 5.9339216039e+00 -6.9802992450e-05 1.4594457249e+00 -2.5278341464e+00 1.4594457249e+00 2.5278341464e+00 
101400 5.9339216040e+00 -6.9806776572e-05 1.4594457249e+00 -2.5278341464e+00 1.4594457249e+00 2.5278341464e+00 
101500 5.9339216040e+00 -6.9810560576e-05 1.4594457249e+00 -2.5278341464e+00 1.4594457249e+00 2.5278341464e+00 
101600 5.9339216041e+00 -6.9814344387e-05 1.4594457249e+00 -2.5278341464e+00 1.4594457249e+00 2.5278341464e+00 
101700 5.9339216041e+00 -6.9818127926e-05 1.4594457249e+00 -2.5278341464e+00 1.4594457249e+00 2.5278341464e+00 
101800 5.9339216042e+00 -6.9821911115e-05 1.4594457249e+00 -2.5278341464e+00 1.4594457249e+00 2.5278341464e+00 
101900 5.9339216042e+00 -6.9825693871e-05 1.4594457249e+00 -2.5278341464e+00 1.4594457249e+00 2.5278341464e+00 
102000 5.9339216043e+00 -6.9829476113e-05 1.4594457249e+00 -2.5278341464e+00 1.4594457249e+00 2.5278341464e+00 
102100 5.9339216043e+00 -6.9833257751e-05 1.4594457249e+00 -2.5278341464e+00 1.4594457249e+00 2.5278341464e+00 
102200 5.9339216044e+00 -6.9837038700e-05 1.4594457249e+00 -2.5278341464e+00 1.4594457249e+00 2.5278341464e+00 
102300 5.9339216044e+00 -6.9837416754e-05 1.4594457249e+00 -2.5278341464e+00 1.4594457249e+00 2.5278341464e+00 
102300 5.9339216044e+00 -6.9837416754e-05 1.4594457249e+00 -2.5278341464e+00 1.4594457249e+00 2.5278341464e+00 
