# step Hamiltonian StressXX CellTensor1 CellTensor2 CellTensor3 CellTensor4 
0 6.9686946725e+00 2.5755085395e-01 2.8237630504e+00 -4.8909010719e+00 2.8237630504e+00 4.8909010719e+00 
100 7.0104199094e+00 3.1136045672e-01 2.8237630504e+00 -4.8909010719e+00 2.8237630504e+00 4.8909010719e+00 
200 7.0475922950e+00 3.6021271135e-01 2.8182516294e+00 -4.8813550107e+00 2.8182516294e+00 4.8813550107e+00 
300 7.0815508942e+00 4.0472755755e-01 2.8118633378e+00 -4.8702901650e+00 2.8118633378e+00 4.8702901650e+00 
400 7.1127275574e+00 4.4545194053e-01 2.8046696299e+00 -4.8578302975e+00 2.8046696299e+00 4.8578302975e+00 
500 7.1414775977e+00 4.8287873109e-01 2.7967321330e+00 -4.8440821495e+00 2.7967321330e+00 4.8440821495e+00 
600 7.1680875137e+00 5.1744552722e-01 2.7881036782e+00 -4.8291372273e+00 2.7881036782e+00 4.8291372273e+00 
700 7.1927832769e+00 5.4953575209e-01 2.7788293183e+00 -4.8130735648e+00 2.7788293183e+00 4.8130735648e+00 
800 7.2157384671e+00 5.7948117731e-01 2.7689473028e+00 -4.7959574120e+00 2.7689473028e+00 4.7959574120e+00 
900 7.2370817077e+00 6.0756489590e-01 2.7584899927e+00 -4.7778448195e+00 2.7584899927e+00 4.7778448195e+00 
1000 7.2569029895e+00 6.3402365750e-01 2.7474847141e+00 -4.7587831179e+00 2.7474847141e+00 4.7587831179e+00 
1100 7.2752585344e+00 6.5904824742e-01 2.7359545678e+00 -4.7388123186e+00 2.7359545678e+00 4.7388123186e+00 
1200 7.2921738307e+00 6.8278013872e-01 2.7239192333e+00 -4.7179665078e+00 2.7239192333e+00 4.7179665078e+00 
1300 7.3076443885e+00 7.0530192122e-01 2.7113958420e+00 -4.6962753578e+00 2.7113958420e+00 4.6962753578e+00 
1400 7.3216336643e+00 7.2661811504e-01 2.6984000389e+00 -4.6737659666e+00 2.6984000389e+00 4.6737659666e+00 
1500 7.3340676665e+00 7.4662245316e-01 2.6849474221e+00 -4.6504653508e+00 2.6849474221e+00 4.6504653508e+00 
1600 7.3448263561e+00 7.6504915792e-01 2.6710556285e+00 -4.6264040584e+00 2.6710556285e+00 4.6264040584e+00 
1700 7.3537338416e+00 7.8141273786e-01 2.6567473936e+00 -4.6016214686e+00 2.6567473936e+00 4.6016214686e+00 
1800 7.3605535743e+00 7.9495935782e-01 2.6420548447e+00 -4.5761732274e+00 2.6420548447e+00 4.5761732274e+00 
1900 7.3650015957e+00 8.0468681026e-01 2.6270248653e+00 -4.5501405394e+00 2.6270248653e+00 4.5501405394e+00 
2000 7.3667965387e+00 8.0952371260e-01 2.6117242804e+00 -4.5236391489e+00 2.6117242804e+00 4.5236391489e+00 
2100 7.3657570067e+00 8.0872833238e-01 2.5962418206e+00 -4.4968227420e+00 2.5962418206e+00 4.4968227420e+00 
2200 7.3619201632e+00 8.0238990748e-01 2.5806825062e+00 -4.4698732189e+00 2.5806825062e+00 4.4698732189e+00 
2300 7.3556059952e+00 7.9166934839e-01 2.5651521296e+00 -4.4429738176e+00 2.5651521296e+00 4.4429738176e+00 
2400 7.3473578570e+00 7.7846201069e-01 2.5497364590e+00 -4.4162730929e+00 2.5497364590e+00 4.4162730929e+00 
2500 7.3377842741e+00 7.6465783430e-01 2.5344862448e+00 -4.3898589470e+00 2.5344862448e+00 4.3898589470e+00 
2600 7.3274091783e+00 7.5154927481e-01 2.5194162327e+00 -4.3637569205e+00 2.5194162327e+00 4.3637569205e+00 
2700 7.3166069173e+00 7.3970285464e-01 2.5045158897e+00 -4.3379487693e+00 2.5045158897e+00 4.3379487693e+00 
2800 7.3056136952e+00 7.2916374770e-01 2.4897631059e+00 -4.3123961983e+00 2.4897631059e+00 4.3123961983e+00 
2900 7.2945691181e+00 7.1972562603e-01 2.4751343091e+00 -4.2870583789e+00 2.4751343091e+00 4.2870583789e+00 
3000 7.2835549698e+00 7.1111990298e-01 2.4606095045e+00 -4.2619006794e+00 2.4606095045e+00 4.2619006794e+00 
3100 7.2726210702e+00 7.0310829354e-01 2.4461736548e+00 -4.2368970543e+00 2.4461736548e+00 4.2368970543e+00 
3200 7.2617998331e+00 6.9551219887e-01 2.4318162164e+00 -4.2120292415e+00 2.4318162164e+00 4.2120292415e+00 
3300 7.2511136931e+00 6.8821191269e-01 2.4175300523e+00 -4.1872848795e+00 2.4175300523e+00 4.1872848795e+00 
3400 7.2405786742e+00 6.8113540778e-01 2.4033103205e+00 -4.1626555815e+00 2.4033103205e+00 4.1626555815e+00 
3500 7.2302060407e+00 6.7424581045e-01 2.3891535538e+00 -4.1381353423e+00 2.3891535538e+00 4.1381353423e+00 
3600 7.2200030406e+00 6.6753080257e-01 2.3750569677e+00 -4.1137193389e+00 2.3750569677e+00 4.1137193389e+00 
3700 7.2099732336e+00 6.6099457560e-01 2.3610179655e+00 -4.0894030738e+00 2.3610179655e+00 4.0894030738e+00 
3800 7.2001166302e+00 6.5465201604e-01 2.3470337956e+00 -4.0651817810e+00 2.3470337956e+00 4.0651817810e+00 
3900 7.1904297482e+00 6.4852457920e-01 2.3331013203e+00 -4.0410500260e+00 2.3331013203e+00 4.0410500260e+00 
4000 7.1809056315e+00 6.4263734748e-01 2.3192168645e+00 -4.0170014431e+00 2.3192168645e+00 4.0170014431e+00 
4100 7.1715338531e+00 6.3701687784e-01 2.3053761220e+00 -3.9930285738e+00 2.3053761220e+00 3.9930285738e+00 
4200 7.1623005111e+00 6.3168954874e-01 2.2915741056e+00 -3.9691227802e+00 2.2915741056e+00 3.9691227802e+00 
4300 7.1531882249e+00 6.2668020047e-01 2.2778051314e+00 -3.9452742174e+00 2.2778051314e+00 3.9452742174e+00 
4400 7.1441761367e+00 6.2201092390e-01 2.2640628323e+00 -3.9214718570e+00 2.2640628323e+00 3.9214718570e+00 
4500 7.1352399236e+00 6.1769989620e-01 2.2503401984e+00 -3.8977035580e+00 2.2503401984e+00 3.8977035580e+00 
4600 7.1263518307e+00 6.1376019330e-01 2.2366296456e+00 -3.8739561839e+00 2.2366296456e+00 3.8739561839e+00 
4700 7.1174807372e+00 6.1019853400e-01 2.2229231117e+00 -3.8502157708e+00 2.2229231117e+00 3.8502157708e+00 
4800 7.1085922705e+00 6.0701393300e-01 2.2092121853e+00 -3.8264677496e+00 2.2092121853e+00 3.8264677496e+00 
4900 7.0996489920e+00 6.0419626443e-01 2.1954882689e+00 -3.8026972291e+00 2.1954882689e+00 3.8026972291e+00 
5000 7.0906106791e+00 6.0172476531e-01 2.1817427806e+00 -3.7788893451e+00 2.1817427806e+00 3.7788893451e+00 
5100 7.0814347365e+00 5.9956654394e-01 2.1679673975e+00 -3.7550296816e+00 2.1679673975e+00 3.7550296816e+00 
5200 7.0720767726e+00 5.9767519957e-01 2.1541543417e+00 -3.7311047672e+00 2.1541543417e+00 3.7311047672e+00 
5300 7.0624913784e+00 5.9598970833e-01 2.1402967101e+00 -3.7071026452e+00 2.1402967101e+00 3.7071026452e+00 
5400 7.0526331430e+00 5.9443377859e-01 2.1263888415e+00 -3.6830135102e+00 2.1263888415e+00 3.6830135102e+00 
5500 7.0424579329e+00 5.9291591880e-01 2.1124267143e+00 -3.6588303964e+00 2.1124267143e+00 3.6588303964e+00 
5600 7.0319244389e+00 5.9133047667e-01 2.0984083577e+00 -3.6345498905e+00 2.0984083577e+00 3.6345498905e+00 
5700 7.0209959678e+00 5.8955988151e-01 2.0843342561e+00 -3.6101728315e+00 2.0843342561e+00 3.6101728315e+00 
5800 7.0096424141e+00 5.8747823223e-01 2.0702077163e+00 -3.5857049469e+00 2.0702077163e+00 3.5857049469e+00 
5900 6.9978422979e+00 5.8495621221e-01 2.0560351645e+00 -3.5611573670e+00 2.0560351645e+00 3.5611573670e+00 
6000 6.9855847076e+00 5.8186708519e-01 2.0418263369e+00 -3.5365469558e+00 2.0418263369e+00 3.5365469558e+00 
6100 6.9728709514e+00 5.7809326989e-01 2.0275943337e+00 -3.5118964031e+00 2.0275943337e+00 3.5118964031e+00 
6200 6.9597157117e+00 5.7353276956e-01 2.0133555125e+00 -3.4872340413e+00 2.0133555125e+00 3.4872340413e+00 
6300 6.9461475280e+00 5.6810462380e-01 1.9991292191e+00 -3.4625933783e+00 1.9991292191e+00 3.4625933783e+00 
6400 6.9322085039e+00 5.6175262041e-01 1.9849373690e+00 -3.4380123730e+00 1.9849373690e+00 3.4380123730e+00 
6500 6.9179532338e+00 5.5444676907e-01 1.9708039159e+00 -3.4135325140e+00 1.9708039159e+00 3.4135325140e+00 
6600 6.9034470602e+00 5.4618244325e-01 1.9567542565e+00 -3.3891977901e+00 1.9567542565e+00 3.3891977901e+00 
6700 6.8887638575e+00 5.3697752895e-01 1.9428146288e+00 -3.3650536467e+00 1.9428146288e+00 3.3650536467e+00 
6800 6.8739835904e+00 5.2686824992e-01 1.9290115525e+00 -3.3411460173e+00 1.9290115525e+00 3.3411460173e+00 
6900 6.8591898879e+00 5.1590447739e-01 1.9153713501e+00 -3.3175204938e+00 1.9153713501e+00 3.3175204938e+00 
7000 6.8444678239e+00 5.0414526274e-01 1.9019197648e+00 -3.2942216646e+00 1.9019197648e+00 3.2942216646e+00 
7100 6.8299020206e+00 4.9165510924e-01 1.8886816766e+00 -3.2712926233e+00 1.8886816766e+00 3.2712926233e+00 
7200 6.8155751141e+00 4.7850121894e-01 1.8756809023e+00 -3.2487746215e+00 1.8756809023e+00 3.2487746215e+00 
7300 6.8015665623e+00 4.6475170186e-01 1.8629400578e+00 -3.2267068315e+00 1.8629400578e+00 3.2267068315e+00 
7400 6.7879517388e+00 4.5047456984e-01 1.8504804628e+00 -3.2051261800e+00 1.8504804628e+00 3.2051261800e+00 
7500 6.7748012483e+00 4.3573726768e-01 1.8383220676e+00 -3.1840672217e+00 1.8383220676e+00 3.1840672217e+00 
7600 6.7621804017e+00 4.2060650099e-01 1.8264833902e+00 -3.1635620310e+00 1.8264833902e+00 3.1635620310e+00 
7700 6.7501488063e+00 4.0514817056e-01 1.8149814574e+00 -3.1436400990e+00 1.8149814574e+00 3.1436400990e+00 
7800 6.7387600418e+00 3.8942728878e-01 1.8038317468e+00 -3.1243282338e+00 1.8038317468e+00 3.1243282338e+00 
7900 6.7280614075e+00 3.7350781372e-01 1.7930481315e+00 -3.1056504642e+00 1.7930481315e+00 3.1056504642e+00 
8000 6.7180937359e+00 3.5745238277e-01 1.7826428309e+00 -3.0876279549e+00 1.7826428309e+00 3.0876279549e+00 
8100 6.7088912715e+00 3.4132195681e-01 1.7726263705e+00 -3.0702789366e+00 1.7726263705e+00 3.0702789366e+00 
8200 6.7004816199e+00 3.2517540196e-01 1.7630075555e+00 -3.0536186603e+00 1.7630075555e+00 3.0536186603e+00 
8300 6.6928857653e+00 3.0906904126e-01 1.7537934595e+00 -3.0376593779e+00 1.7537934595e+00 3.0376593779e+00 
8400 6.6861181605e+00 2.9305620819e-01 1.7449894317e+00 -3.0224103543e+00 1.7449894317e+00 3.0224103543e+00 
8500 6.6801868826e+00 2.7718682972e-01 1.7365991219e+00 -3.0078779116e+00 1.7365991219e+00 3.0078779116e+00 
8600 6.6750938536e+00 2.6150706081e-01 1.7286245255e+00 -2.9940655054e+00 1.7286245255e+00 2.9940655054e+00 
8700 6.6708351162e+00 2.4605898617e-01 1.7210660447e+00 -2.9809738325e+00 1.7210660447e+00 2.9809738325e+00 
8800 6.6674011593e+00 2.3088039940e-01 1.7139225668e+00 -2.9686009660e+00 1.7139225668e+00 2.9686009660e+00 
8900 6.6647772825e+00 2.1600466399e-01 1.7071915573e+00 -2.9569425155e+00 1.7071915573e+00 2.9569425155e+00 
9000 6.6629439910e+00 2.0146065667e-01 1.7008691631e+00 -2.9459918075e+00 1.7008691631e+00 2.9459918075e+00 
9100 6.6618774126e+00 1.8727278952e-01 1.6949503264e+00 -2.9357400816e+00 1.6949503264e+00 2.9357400816e+00 
9200 6.6615497282e+00 1.7346110456e-01 1.6894289042e+00 -2.9261766979e+00 1.6894289042e+00 2.9261766979e+00 
9300 6.6619296077e+00 1.6004143267e-01 1.6842977920e+00 -2.9172893508e+00 1.6842977920e+00 2.9172893508e+00 
9400 6.6629826457e+00 1.4702560699e-01 1.6795490480e+00 -2.9090642850e+00 1.6795490480e+00 2.9090642850e+00 
9500 6.6646717906e+00 1.3442172071e-01 1.6751740171e+00 -2.9014865091e+00 1.6751740171e+00 2.9014865091e+00 
9600 6.6669577639e+00 1.2223441866e-01 1.6711634506e+00 -2.8945400042e+00 1.6711634506e+00 2.8945400042e+00 
9700 6.6697994646e+00 1.1046521270e-01 1.6675076222e+00 -2.8882079236e+00 1.6675076222e+00 2.8882079236e+00 
9800 6.6731543577e+00 9.9112811322e-02 1.6641964358e+00 -2.8824727806e+00 1.6641964358e+00 2.8824727806e+00 
9900 6.6769788439e+00 8.8173455093e-02 1.6612195276e+00 -2.8773166244e+00 1.6612195276e+00 2.8773166244e+00 
10000 6.6812286092e+00 7.7641250241e-02 1.6585663581e+00 -2.8727211999e+00 1.6585663581e+00 2.8727211999e+00 
10100 6.6858589552e+00 6.7508494209e-02 1.6562262961e+00 -2.8686680936e+00 1.6562262961e+00 2.8686680936e+00 
10200 6.6908251072e+00 5.7765987891e-02 1.6541886931e+00 -2.8651388618e+00 1.6541886931e+00 2.8651388618e+00 
10300 6.6960825023e+00 4.8403330529e-02 1.6524429487e+00 -2.8621151437e+00 1.6524429487e+00 2.8621151437e+00 
10400 6.7015870567e+00 3.9409194242e-02 1.6509785661e+00 -2.8595787586e+00 1.6509785661e+00 2.8595787586e+00 
10500 6.7072954116e+00 3.0771576145e-02 1.6497851998e+00 -2.8575117876e+00 1.6497851998e+00 2.8575117876e+00 
10600 6.7131651603e+00 2.2478026831e-02 1.6488526943e+00 -2.8558966407e+00 1.6488526943e+00 2.8558966407e+00 
10700 6.7191550542e+00 1.4515854717e-02 1.6481711150e+00 -2.8547161107e+00 1.6481711150e+00 2.8547161107e+00 
10800 6.7252251898e+00 6.8723063534e-03 1.6477307721e+00 -2.8539534145e+00 1.6477307721e+00 2.8539534145e+00 
10900 6.7313371768e+00 -4.6527672661e-04 1.6475222380e+00 -2.8535922228e+00 1.6475222380e+00 2.8535922228e+00 
11000 6.7374542873e+00 -7.5093236799e-03 1.6475363585e+00 -2.8536166803e+00 1.6475363585e+00 2.8536166803e+00 
11100 6.7435415868e+00 -1.4271921316e-02 1.6477642593e+00 -2.8540114160e+00 1.6477642593e+00 2.8540114160e+00 
11200 6.7495660473e+00 -2.0764720941e-02 1.6481973475e+00 -2.8547615468e+00 1.6481973475e+00 2.8547615468e+00 
11300 6.7554966429e+00 -2.6998863554e-02 1.6488273098e+00 -2.8558526735e+00 1.6488273098e+00 2.8558526735e+00 
11400 6.7613044285e+00 -3.2984921791e-02 1.6496461068e+00 -2.8572708715e+00 1.6496461068e+00 2.8572708715e+00 
11500 6.7669626021e+00 -3.8732857031e-02 1.6506459652e+00 -2.8590026771e+00 1.6506459652e+00 2.8590026771e+00 
11600 6.7724465510e+00 -4.4251990056e-02 1.6518193678e+00 -2.8610350699e+00 1.6518193678e+00 2.8610350699e+00 
11700 6.7777338826e+00 -4.9550983769e-02 1.6531590411e+00 -2.8633554521e+00 1.6531590411e+00 2.8633554521e+00 
11800 6.7828044405e+00 -5.4637836476e-02 1.6546579429e+00 -2.8659516263e+00 1.6546579429e+00 2.8659516263e+00 
11900 6.7876403060e+00 -5.9519884398e-02 1.6563092484e+00 -2.8688117712e+00 1.6563092484e+00 2.8688117712e+00 
12000 6.7922257871e+00 -6.4203812106e-02 1.6581063353e+00 -2.8719244171e+00 1.6581063353e+00 2.8719244171e+00 
12100 6.7965473943e+00 -6.8695669715e-02 1.6600427700e+00 -2.8752784203e+00 1.6600427700e+00 2.8752784203e+00 
12200 6.8005938038e+00 -7.3000895748e-02 1.6621122926e+00 -2.8788629387e+00 1.6621122926e+00 2.8788629387e+00 
12300 6.8043558116e+00 -7.7124344687e-02 1.6643088034e+00 -2.8826674069e+00 1.6643088034e+00 2.8826674069e+00 
12400 6.8078262752e+00 -8.1070318313e-02 1.6666263485e+00 -2.8866815128e+00 1.6666263485e+00 2.8866815128e+00 
12500 6.8110000477e+00 -8.4842600024e-02 1.6690591076e+00 -2.8908951751e+00 1.6690591076e+00 2.8908951751e+00 
12600 6.8138739028e+00 -8.8444491413e-02 1.6716013812e+00 -2.8952985223e+00 1.6716013812e+00 2.8952985223e+00 
12700 6.8164464529e+00 -9.1878850450e-02 1.6742475798e+00 -2.8998818727e+00 1.6742475798e+00 2.8998818727e+00 
12800 6.8187180596e+00 -9.5148130678e-02 1.6769922129e+00 -2.9046357166e+00 1.6769922129e+00 2.9046357166e+00 
12900 6.8206907405e+00 -9.8254420929e-02 1.6798298799e+00 -2.9095507001e+00 1.6798298799e+00 2.9095507001e+00 
13000 6.8223680694e+00 -1.0119948507e-01 1.6827552619e+00 -2.9146176103e+00 1.6827552619e+00 2.9146176103e+00 
13100 6.8237550742e+00 -1.0398480142e-01 1.6857631138e+00 -2.9198273626e+00 1.6857631138e+00 2.9198273626e+00 
13200 6.8248581315e+00 -1.0661160141e-01 1.6888482581e+00 -2.9251709893e+00 1.6888482581e+00 2.9251709893e+00 
13300 6.8256848588e+00 -1.0908090728e-01 1.6920055799e+00 -2.9306396311e+00 1.6920055799e+00 2.9306396311e+00 
13400 6.8262440064e+00 -1.1139356844e-01 1.6952300219e+00 -2.9362245284e+00 1.6952300219e+00 2.9362245284e+00 
13500 6.8265453476e+00 -1.1355029632e-01 1.6985165812e+00 -2.9419170161e+00 1.6985165812e+00 2.9419170161e+00 
13600 6.8265995709e+00 -1.1555169754e-01 1.7018603068e+00 -2.9477085187e+00 1.7018603068e+00 2.9477085187e+00 
13700 6.8264181716e+00 -1.1739830520e-01 1.7052562976e+00 -2.9535905473e+00 1.7052562976e+00 2.9535905473e+00 
13800 6.8260133458e+00 -1.1909060812e-01 1.7086997014e+00 -2.9595546977e+00 1.7086997014e+00 2.9595546977e+00 
13900 6.8253978869e+00 -1.2062907807e-01 1.7121857150e+00 -2.9655926503e+00 1.7121857150e+00 2.9655926503e+00 
14000 6.8245850836e+00 -1.2201419474e-01 1.7157095838e+00 -2.9716961701e+00 1.7157095838e+00 2.9716961701e+00 
14100 6.8235886227e+00 -1.2324646861e-01 1.7192666034e+00 -2.9778571089e+00 1.7192666034e+00 2.9778571089e+00 
14200 6.8224224938e+00 -1.2432646144e-01 1.7228521207e+00 -2.9840674070e+00 1.7228521207e+00 2.9840674070e+00 
14300 6.8211008996e+00 -1.2525480462e-01 1.7264615357e+00 -2.9903190972e+00 1.7264615357e+00 2.9903190972e+00 
14400 6.8196381686e+00 -1.2603221533e-01 1.7300903040e+00 -2.9966043081e+00 1.7300903040e+00 2.9966043081e+00 
14500 6.8180486742e+00 -1.2665951039e-01 1.7337339388e+00 -3.0029152687e+00 1.7337339388e+00 3.0029152687e+00 
14600 6.8163467568e+00 -1.2713761817e-01 1.7373880142e+00 -3.0092443131e+00 1.7373880142e+00 3.0092443131e+00 
14700 6.8145466515e+00 -1.2746758827e-01 1.7410481681e+00 -3.0155838856e+00 1.7410481681e+00 3.0155838856e+00 
14800 6.8126624207e+00 -1.2765059941e-01 1.7447101048e+00 -3.0219265459e+00 1.7447101048e+00 3.0219265459e+00 
14900 6.8107078916e+00 -1.2768796535e-01 1.7483695985e+00 -3.0282649750e+00 1.7483695985e+00 3.0282649750e+00 
15000 6.8086965984e+00 -1.2758113907e-01 1.7520224966e+00 -3.0345919802e+00 1.7520224966e+00 3.0345919802e+00 
15100 6.8066417297e+00 -1.2733171541e-01 1.7556647226e+00 -3.0409005006e+00 1.7556647226e+00 3.0409005006e+00 
15200 6.8045560807e+00 -1.2694143208e-01 1.7592922791e+00 -3.0471836127e+00 1.7592922791e+00 3.0471836127e+00 
15300 6.8024520101e+00 -1.2641216935e-01 1.7629012510e+00 -3.0534345355e+00 1.7629012510e+00 3.0534345355e+00 
15400 6.8003414023e+00 -1.2574594856e-01 1.7664878084e+00 -3.0596466352e+00 1.7664878084e+00 3.0596466352e+00 
15500 6.7982356329e+00 -1.2494492937e-01 1.7700482092e+00 -3.0658134301e+00 1.7700482092e+00 3.0658134301e+00 
15600 6.7961455400e+00 -1.2401140624e-01 1.7735788014e+00 -3.0719285953e+00 1.7735788014e+00 3.0719285953e+00 
15700 6.7940813989e+00 -1.2294780387e-01 1.7770760260e+00 -3.0779859660e+00 1.7770760260e+00 3.0779859660e+00 
15800 6.7920529010e+00 -1.2175667209e-01 1.7805364186e+00 -3.0839795418e+00 1.7805364186e+00 3.0839795418e+00 
15900 6.7900691367e+00 -1.2044068013e-01 1.7839566116e+00 -3.0899034899e+00 1.7839566116e+00 3.0899034899e+00 
16000 6.7881385821e+00 -1.1900261038e-01 1.7873333359e+00 -3.0957521479e+00 1.7873333359e+00 3.0957521479e+00 
16100 6.7862690885e+00 -1.1744535193e-01 1.7906634222e+00 -3.1015200265e+00 1.7906634222e+00 3.1015200265e+00 
16200 6.7844678761e+00 -1.1577189379e-01 1.7939438023e+00 -3.1072018115e+00 1.7939438023e+00 3.1072018115e+00 
16300 6.7827415300e+00 -1.1398531806e-01 1.7971715104e+00 -3.1127923659e+00 1.7971715104e+00 3.1127923659e+00 
16400 6.7810959996e+00 -1.1208879304e-01 1.8003436835e+00 -3.1182867308e+00 1.8003436835e+00 3.1182867308e+00 
16500 6.7795366002e+00 -1.1008556646e-01 1.8034575622e+00 -3.1236801271e+00 1.8034575622e+00 3.1236801271e+00 
16600 6.7780680173e+00 -1.0797895882e-01 1.8065104914e+00 -3.1289679555e+00 1.8065104914e+00 3.1289679555e+00 
16700 6.7766943134e+00 -1.0577235693e-01 1.8094999200e+00 -3.1341457977e+00 1.8094999200e+00 3.1341457977e+00 
16800 6.7754189362e+00 -1.0346920785e-01 1.8124234013e+00 -3.1392094159e+00 1.8124234013e+00 3.1392094159e+00 
16900 6.7742447298e+00 -1.0107301302e-01 1.8152785930e+00 -3.1441547530e+00 1.8152785930e+00 3.1441547530e+00 
17000 6.7731739467e+00 -9.8587322864e-02 1.8180632567e+00 -3.1489779320e+00 1.8180632567e+00 3.1489779320e+00 
17100 6.7722082618e+00 -9.6015731823e-02 1.8207752578e+00 -3.1536752557e+00 1.8207752578e+00 3.1536752557e+00 
17200 6.7713487879e+00 -9.3361873780e-02 1.8234125650e+00 -3.1582432057e+00 1.8234125650e+00 3.1582432057e+00 
17300 6.7705960927e+00 -9.0629417996e-02 1.8259732496e+00 -3.1626784415e+00 1.8259732496e+00 3.1626784415e+00 
17400 6.7699502167e+00 -8.7822065515e-02 1.8284554853e+00 -3.1669777998e+00 1.8284554853e+00 3.1669777998e+00 
17500 6.7694106923e+00 -8.4943546056e-02 1.8308575471e+00 -3.1711382931e+00 1.8308575471e+00 3.1711382931e+00 
17600 6.7689765641e+00 -8.1997615380e-02 1.8331778113e+00 -3.1751571084e+00 1.8331778113e+00 3.1751571084e+00 
17700 6.7686464097e+00 -7.8988053146e-02 1.8354147538e+00 -3.1790316065e+00 1.8354147538e+00 3.1790316065e+00 
17800 6.7684183619e+00 -7.5918661208e-02 1.8375669504e+00 -3.1827593204e+00 1.8375669504e+00 3.1827593204e+00 
17900 6.7682901311e+00 -7.2793262361e-02 1.8396330757e+00 -3.1863379543e+00 1.8396330757e+00 3.1863379543e+00 
18000 6.7682590285e+00 -6.9615699485e-02 1.8416119022e+00 -3.1897653825e+00 1.8416119022e+00 3.1897653825e+00 
18100 6.7683219901e+00 -6.6389835075e-02 1.8435023004e+00 -3.1930396482e+00 1.8435023004e+00 3.1930396482e+00 
18200 6.7684756008e+00 -6.3119551101e-02 1.8453032375e+00 -3.1961589626e+00 1.8453032375e+00 3.1961589626e+00 
18300 6.7687161197e+00 -5.9808749173e-02 1.8470137772e+00 -3.1991217045e+00 1.8470137772e+00 3.1991217045e+00 
18400 6.7690395047e+00 -5.6461350944e-02 1.8486330797e+00 -3.2019264186e+00 1.8486330797e+00 3.2019264186e+00 
18500 6.7694414386e+00 -5.3081298733e-02 1.8501604006e+00 -3.2045718160e+00 1.8501604006e+00 3.2045718160e+00 
18600 6.7699173546e+00 -4.9672556281e-02 1.8515950911e+00 -3.2070567729e+00 1.8515950911e+00 3.2070567729e+00 
18700 6.7704624626e+00 -4.6239109606e-02 1.8529365980e+00 -3.2093803309e+00 1.8529365980e+00 3.2093803309e+00 
18800 6.7710717754e+00 -4.2784967901e-02 1.8541844630e+00 -3.2115416965e+00 1.8541844630e+00 3.2115416965e+00 
18900 6.7717401353e+00 -3.9314164396e-02 1.8553383234e+00 -3.2135402414e+00 1.8553383234e+00 3.2135402414e+00 
19000 6.7724622406e+00 -3.5830757143e-02 1.8563979120e+00 -3.2153755026e+00 1.8563979120e+00 3.2153755026e+00 
19100 6.7732326720e+00 -3.2338829657e-02 1.8573630569e+00 -3.2170471826e+00 1.8573630569e+00 3.2170471826e+00 
19200 6.7740459193e+00 -2.8842491340e-02 1.8582336824e+00 -3.2185551503e+00 1.8582336824e+00 3.2185551503e+00 
19300 6.7748964082e+00 -2.5345877637e-02 1.8590098092e+00 -3.2198994413e+00 1.8590098092e+00 3.2198994413e+00 
19400 6.7757785260e+00 -2.1853149863e-02 1.8596915546e+00 -3.2210802589e+00 1.8596915546e+00 3.2210802589e+00 
19500 6.7766866485e+00 -1.8368494631e-02 1.8602791332e+00 -3.2220979750e+00 1.8602791332e+00 3.2220979750e+00 
19600 6.7776151654e+00 -1.4896122830e-02 1.8607728577e+00 -3.2229531308e+00 1.8607728577e+00 3.2229531308e+00 
19700 6.7785585060e+00 -1.1440268095e-02 1.8611731391e+00 -3.2236464386e+00 1.8611731391e+00 3.2236464386e+00 
19800 6.7795111646e+00 -8.0051847163e-03 1.8614804878e+00 -3.2241787822e+00 1.8614804878e+00 3.2241787822e+00 
19900 6.7804677247e+00 -4.5951449389e-03 1.8616955139e+00 -3.2245512184e+00 1.8616955139e+00 3.2245512184e+00 
20000 6.7814228836e+00 -1.2144356097e-03 1.8618189282e+00 -3.2247649781e+00 1.8618189282e+00 3.2247649781e+00 
20100 6.7823714755e+00 2.1326458696e-03 1.8618515425e+00 -3.2248214678e+00 1.8618515425e+00 3.2248214678e+00 
20200 6.7833084941e+00 5.4417963130e-03 1.8617942706e+00 -3.2247222700e+00 1.8617942706e+00 3.2247222700e+00 
20300 6.7842291147e+00 8.7087122711e-03 1.8616481287e+00 -3.2244691447e+00 1.8616481287e+00 3.2244691447e+00 
20400 6.7851287149e+00 1.1929096321e-02 1.8614142357e+00 -3.2240640301e+00 1.8614142357e+00 3.2240640301e+00 
20500 6.7860028942e+00 1.5098664131e-02 1.8610938139e+00 -3.2235090433e+00 1.8610938139e+00 3.2235090433e+00 
20600 6.7868474933e+00 1.8213152311e-02 1.8606881891e+00 -3.2228064805e+00 1.8606881891e+00 3.2228064805e+00 
20700 6.7876586108e+00 2.1268327026e-02 1.8601987908e+00 -3.2219588178e+00 1.8601987908e+00 3.2219588178e+00 
20800 6.7884326195e+00 2.4259993361e-02 1.8596271519e+00 -3.2209687103e+00 1.8596271519e+00 3.2209687103e+00 
20900 6.7891661814e+00 2.7184005415e-02 1.8589749090e+00 -3.2198389923e+00 1.8589749090e+00 3.2198389923e+00 
21000 6.7898562603e+00 3.0036277076e-02 1.8582438011e+00 -3.2185726764e+00 1.8582438011e+00 3.2185726764e+00 
21100 6.7905001334e+00 3.2812793422e-02 1.8574356698e+00 -3.2171729519e+00 1.8574356698e+00 3.2171729519e+00 
21200 6.7910954014e+00 3.5509622704e-02 1.8565524578e+00 -3.2156431838e+00 1.8565524578e+00 3.2156431838e+00 
21300 6.7916399959e+00 3.8122928829e-02 1.8555962076e+00 -3.2139869099e+00 1.8555962076e+00 3.2139869099e+00 
21400 6.7921321859e+00 4.0648984258e-02 1.8545690604e+00 -3.2122078387e+00 1.8545690604e+00 3.2122078387e+00 
21500 6.7925705821e+00 4.3084183239e-02 1.8534732538e+00 -3.2103098461e+00 1.8534732538e+00 3.2103098461e+00 
21600 6.7929541386e+00 4.5425055268e-02 1.8523111200e+00 -3.2082969714e+00 1.8523111200e+00 3.2082969714e+00 
21700 6.7932821538e+00 4.7668278675e-02 1.8510850830e+00 -3.2061734129e+00 1.8510850830e+00 3.2061734129e+00 
21800 6.7935542684e+00 4.9810694212e-02 1.8497976557e+00 -3.2039435235e+00 1.8497976557e+00 3.2039435235e+00 
21900 6.7937704616e+00 5.1849318538e-02 1.8484514370e+00 -3.2016118041e+00 1.8484514370e+00 3.2016118041e+00 
22000 6.7939310451e+00 5.3781357457e-02 1.8470491075e+00 -3.1991828983e+00 1.8470491075e+00 3.1991828983e+00 
22100 6.7940366557e+00 5.5604218804e-02 1.8455934265e+00 -3.1966615848e+00 1.8455934265e+00 3.1966615848e+00 
22200 6.7940882454e+00 5.7315524824e-02 1.8440872267e+00 -3.1940527703e+00 1.8440872267e+00 3.1940527703e+00 
22300 6.7940870699e+00 5.8913123945e-02 1.8425334101e+00 -3.1913614809e+00 1.8425334101e+00 3.1913614809e+00 
22400 6.7940346748e+00 6.0395101794e-02 1.8409349425e+00 -3.1885928539e+00 1.8409349425e+00 3.1885928539e+00 
22500 6.7939328808e+00 6.1759791347e-02 1.8392948486e+00 -3.1857521279e+00 1.8392948486e+00 3.1857521279e+00 
22600 6.7937837667e+00 6.3005782099e-02 1.8376162056e+00 -3.1828446330e+00 1.8376162056e+00 3.1828446330e+00 
22700 6.7935896512e+00 6.4131928136e-02 1.8359021378e+00 -3.1798757804e+00 1.8359021378e+00 3.1798757804e+00 
22800 6.7933530729e+00 6.5137355016e-02 1.8341558097e+00 -3.1768510514e+00 1.8341558097e+00 3.1768510514e+00 
22900 6.7930767701e+00 6.6021465374e-02 1.8323804198e+00 -3.1737759859e+00 1.8323804198e+00 3.1737759859e+00 
23000 6.7927636579e+00 6.6783943167e-02 1.8305791935e+00 -3.1706561704e+00 1.8305791935e+00 3.1706561704e+00 
23100 6.7924168059e+00 6.7424756502e-02 1.8287553762e+00 -3.1674972261e+00 1.8287553762e+00 3.1674972261e+00 
23200 6.7920394147e+00 6.7944158999e-02 1.8269122260e+00 -3.1643047963e+00 1.8269122260e+00 3.1643047963e+00 
23300 6.7916347913e+00 6.8342689654e-02 1.8250530063e+00 -3.1610845335e+00 1.8250530063e+00 3.1610845335e+00 
23400 6.7912063251e+00 6.8621171194e-02 1.8231809787e+00 -3.1578420866e+00 1.8231809787e+00 3.1578420866e+00 
23500 6.7907574630e+00 6.8780706906e-02 1.8212993950e+00 -3.1545830879e+00 1.8212993950e+00 3.1545830879e+00 
23600 6.7902916853e+00 6.8822675981e-02 1.8194114899e+00 -3.1513131403e+00 1.8194114899e+00 3.1513131403e+00 
23700 6.7898124808e+00 6.8748727390e-02 1.8175204734e+00 -3.1480378038e+00 1.8175204734e+00 3.1480378038e+00 
23800 6.7893233234e+00 6.8560772336e-02 1.8156295239e+00 -3.1447625830e+00 1.8156295239e+00 3.1447625830e+00 
23900 6.7888276489e+00 6.8260975373e-02 1.8137417798e+00 -3.1414929144e+00 1.8137417798e+00 3.1414929144e+00 
24000 6.7883288322e+00 6.7851744231e-02 1.8118603334e+00 -3.1382341536e+00 1.8118603334e+00 3.1382341536e+00 
24100 6.7878301662e+00 6.7335718469e-02 1.8099882231e+00 -3.1349915636e+00 1.8099882231e+00 3.1349915636e+00 
24200 6.7873348414e+00 6.6715757049e-02 1.8081284272e+00 -3.1317703026e+00 1.8081284272e+00 3.1317703026e+00 
24300 6.7868459267e+00 6.5994924936e-02 1.8062838569e+00 -3.1285754131e+00 1.8062838569e+00 3.1285754131e+00 
24400 6.7863663520e+00 6.5176478850e-02 1.8044573503e+00 -3.1254118108e+00 1.8044573503e+00 3.1254118108e+00 
24500 6.7858988918e+00 6.4263852298e-02 1.8026516663e+00 -3.1222842743e+00 1.8026516663e+00 3.1222842743e+00 
24600 6.7854461506e+00 6.3260640023e-02 1.8008694792e+00 -3.1191974357e+00 1.8008694792e+00 3.1191974357e+00 
24700 6.7850105504e+00 6.2170581979e-02 1.7991133734e+00 -3.1161557712e+00 1.7991133734e+00 3.1161557712e+00 
24800 6.7845943193e+00 6.0997547008e-02 1.7973858385e+00 -3.1131635931e+00 1.7973858385e+00 3.1131635931e+00 
24900 6.7841994821e+00 5.9745516305e-02 1.7956892651e+00 -3.1102250418e+00 1.7956892651e+00 3.1102250418e+00 
25000 6.7838278531e+00 5.8418566851e-02 1.7940259405e+00 -3.1073440790e+00 1.7940259405e+00 3.1073440790e+00 
25100 6.7834810301e+00 5.7020854891e-02 1.7923980453e+00 -3.1045244819e+00 1.7923980453e+00 3.1045244819e+00 
25200 6.7831603905e+00 5.5556599626e-02 1.7908076505e+00 -3.1017698372e+00 1.7908076505e+00 3.1017698372e+00 
25300 6.7828670897e+00 5.4030067188e-02 1.7892567141e+00 -3.0990835367e+00 1.7892567141e+00 3.0990835367e+00 
25400 6.7826020600e+00 5.2445555041e-02 1.7877470800e+00 -3.0964687736e+00 1.7877470800e+00 3.0964687736e+00 
25500 6.7823660123e+00 5.0807376876e-02 1.7862804749e+00 -3.0939285391e+00 1.7862804749e+00 3.0939285391e+00 
25600 6.7821594392e+00 4.9119848098e-02 1.7848585081e+00 -3.0914656204e+00 1.7848585081e+00 3.0914656204e+00 
25700 6.7819826189e+00 4.7387271983e-02 1.7834826699e+00 -3.0890825987e+00 1.7834826699e+00 3.0890825987e+00 
25800 6.7818356218e+00 4.5613926557e-02 1.7821543311e+00 -3.0867818484e+00 1.7821543311e+00 3.0867818484e+00 
25900 6.7817183170e+00 4.3804052263e-02 1.7808747432e+00 -3.0845655371e+00 1.7808747432e+00 3.0845655371e+00 
26000 6.7816303813e+00 4.1961840448e-02 1.7796450383e+00 -3.0824356258e+00 1.7796450383e+00 3.0824356258e+00 
26100 6.7815713084e+00 4.0091422703e-02 1.7784662301e+00 -3.0803938700e+00 1.7784662301e+00 3.0803938700e+00 
26200 6.7815404195e+00 3.8196861084e-02 1.7773392144e+00 -3.0784418217e+00 1.7773392144e+00 3.0784418217e+00 
26300 6.7815368748e+00 3.6282139209e-02 1.7762647710e+00 -3.0765808310e+00 1.7762647710e+00 3.0765808310e+00 
26400 6.7815596852e+00 3.4351154247e-02 1.7752435645e+00 -3.0748120496e+00 1.7752435645e+00 3.0748120496e+00 
26500 6.7816077256e+00 3.2407709778e-02 1.7742761471e+00 -3.0731364334e+00 1.7742761471e+00 3.0731364334e+00 
26600 6.7816797475e+00 3.0455509520e-02 1.7733629598e+00 -3.0715547466e+00 1.7733629598e+00 3.0715547466e+00 
26700 6.7817743928e+00 2.8498151889e-02 1.7725043355e+00 -3.0700675657e+00 1.7725043355e+00 3.0700675657e+00 
26800 6.7818902074e+00 2.6539125365e-02 1.7717005012e+00 -3.0686752838e+00 1.7717005012e+00 3.0686752838e+00 
26900 6.7820256550e+00 2.4581804643e-02 1.7709515807e+00 -3.0673781155e+00 1.7709515807e+00 3.0673781155e+00 
27000 6.7821791313e+00 2.2629447497e-02 1.7702575979e+00 -3.0661761021e+00 1.7702575979e+00 3.0661761021e+00 
27100 6.7823489770e+00 2.0685192359e-02 1.7696184795e+00 -3.0650691165e+00 1.7696184795e+00 3.0650691165e+00 
27200 6.7825334920e+00 1.8752056523e-02 1.7690340582e+00 -3.0640568692e+00 1.7690340582e+00 3.0640568692e+00 
27300 6.7827309483e+00 1.6832934959e-02 1.7685040763e+00 -3.0631389136e+00 1.7685040763e+00 3.0631389136e+00 
27400 6.7829396027e+00 1.4930599669e-02 1.7680281888e+00 -3.0623146523e+00 1.7680281888e+00 3.0623146523e+00 
27500 6.7831577092e+00 1.3047699552e-02 1.7676059669e+00 -3.0615833425e+00 1.7676059669e+00 3.0615833425e+00 
27600 6.7833835312e+00 1.1186760707e-02 1.7672369015e+00 -3.0609441024e+00 1.7672369015e+00 3.0609441024e+00 
27700 6.7836153518e+00 9.3501871515e-03 1.7669204067e+00 -3.0603959173e+00 1.7669204067e+00 3.0603959173e+00 
27800 6.7838514852e+00 7.5402618904e-03 1.7666558233e+00 -3.0599376455e+00 1.7666558233e+00 3.0599376455e+00 
27900 6.7840902863e+00 5.7591482962e-03 1.7664424227e+00 -3.0595680247e+00 1.7664424227e+00 3.0595680247e+00 
28000 6.7843301594e+00 4.0088917587e-03 1.7662794097e+00 -3.0592856780e+00 1.7662794097e+00 3.0592856780e+00 
28100 6.7845695672e+00 2.2914215620e-03 1.7661659269e+00 -3.0590891199e+00 1.7661659269e+00 3.0590891199e+00 
28200 6.7848070379e+00 6.0855295138e-04 1.7661010573e+00 -3.0589767626e+00 1.7661010573e+00 3.0589767626e+00 
28300 6.7850411721e+00 -1.0380106459e-03 1.7660838286e+00 -3.0589469216e+00 1.7660838286e+00 3.0589469216e+00 
28400 6.7852706486e+00 -2.6466752775e-03 1.7661132161e+00 -3.0589978222e+00 1.7661132161e+00 3.0589978222e+00 
28500 6.7854942301e+00 -4.2159540304e-03 1.7661881460e+00 -3.0591276046e+00 1.7661881460e+00 3.0591276046e+00 
28600 6.7857107667e+00 -5.7444645290e-03 1.7663074991e+00 -3.0593343302e+00 1.7663074991e+00 3.0593343302e+00 
28700 6.7859192002e+00 -7.2309263915e-03 1.7664701138e+00 -3.0596159872e+00 1.7664701138e+00 3.0596159872e+00 
28800 6.7861185665e+00 -8.6741586631e-03 1.7666747894e+00 -3.0599704957e+00 1.7666747894e+00 3.0599704957e+00 
28900 6.7863079977e+00 -1.0073077247e-02 1.7669202890e+00 -3.0603957135e+00 1.7669202890e+00 3.0603957135e+00 
29000 6.7864867235e+00 -1.1426692347e-02 1.7672053429e+00 -3.0608894413e+00 1.7672053429e+00 3.0608894413e+00 
29100 6.7866540717e+00 -1.2734105933e-02 1.7675286511e+00 -3.0614494275e+00 1.7675286511e+00 3.0614494275e+00 
29200 6.7868094681e+00 -1.3994509243e-02 1.7678888868e+00 -3.0620733741e+00 1.7678888868e+00 3.0620733741e+00 
29300 6.7869524360e+00 -1.5207180331e-02 1.7682846988e+00 -3.0627589405e+00 1.7682846988e+00 3.0627589405e+00 
29400 6.7870825948e+00 -1.6371481658e-02 1.7687147143e+00 -3.0635037492e+00 1.7687147143e+00 3.0635037492e+00 
29500 6.7871996581e+00 -1.7486857750e-02 1.7691775417e+00 -3.0643053899e+00 1.7691775417e+00 3.0643053899e+00 
29600 6.7873034314e+00 -1.8552832900e-02 1.7696717734e+00 -3.0651614243e+00 1.7696717734e+00 3.0651614243e+00 
29700 6.7873938095e+00 -1.9569008942e-02 1.7701959878e+00 -3.0660693903e+00 1.7701959878e+00 3.0660693903e+00 
29800 6.7874707728e+00 -2.0535063078e-02 1.7707487522e+00 -3.0670268063e+00 1.7707487522e+00 3.0670268063e+00 
29900 6.7875343842e+00 -2.1450745768e-02 1.7713286251e+00 -3.0680311756e+00 1.7713286251e+00 3.0680311756e+00 
30000 6.7875847845e+00 -2.2315878680e-02 1.7719341584e+00 -3.0690799899e+00 1.7719341584e+00 3.0690799899e+00 
30100 6.7876221889e+00 -2.3130352689e-02 1.7725638996e+00 -3.0701707337e+00 1.7725638996e+00 3.0701707337e+00 
30200 6.7876468818e+00 -2.3894125942e-02 1.7732163943e+00 -3.0713008877e+00 1.7732163943e+00 3.0713008877e+00 
30300 6.7876592125e+00 -2.4607221962e-02 1.7738901879e+00 -3.0724679325e+00 1.7738901879e+00 3.0724679325e+00 
30400 6.7876595900e+00 -2.5269727806e-02 1.7745838280e+00 -3.0736693523e+00 1.7745838280e+00 3.0736693523e+00 
30500 6.7876484782e+00 -2.5881792260e-02 1.7752958658e+00 -3.0749026380e+00 1.7752958658e+00 3.0749026380e+00 
30600 6.7876263906e+00 -2.6443624084e-02 1.7760248587e+00 -3.0761652908e+00 1.7760248587e+00 3.0761652908e+00 
30700 6.7875938850e+00 -2.6955490278e-02 1.7767693717e+00 -3.0774548251e+00 1.7767693717e+00 3.0774548251e+00 
30800 6.7875515588e+00 -2.7417714392e-02 1.7775279791e+00 -3.0787687717e+00 1.7775279791e+00 3.0787687717e+00 
30900 6.7875000430e+00 -2.7830674858e-02 1.7782992664e+00 -3.0801046805e+00 1.7782992664e+00 3.0801046805e+00 
31000 6.7874399978e+00 -2.8194803344e-02 1.7790818320e+00 -3.0814601238e+00 1.7790818320e+00 3.0814601238e+00 
31100 6.7873721067e+00 -2.8510583136e-02 1.7798742884e+00 -3.0828326985e+00 1.7798742884e+00 3.0828326985e+00 
31200 6.7872970723e+00 -2.8778547529e-02 1.7806752640e+00 -3.0842200291e+00 1.7806752640e+00 3.0842200291e+00 
31300 6.7872156109e+00 -2.8999278238e-02 1.7814834047e+00 -3.0856197699e+00 1.7814834047e+00 3.0856197699e+00 
31400 6.7871284476e+00 -2.9173403817e-02 1.7822973749e+00 -3.0870296075e+00 1.7822973749e+00 3.0870296075e+00 
31500 6.7870363123e+00 -2.9301598093e-02 1.7831158588e+00 -3.0884472632e+00 1.7831158588e+00 3.0884472632e+00 
31600 6.7869399346e+00 -2.9384578598e-02 1.7839375622e+00 -3.0898704953e+00 1.7839375622e+00 3.0898704953e+00 
31700 6.7868400403e+00 -2.9423105014e-02 1.7847612132e+00 -3.0912971006e+00 1.7847612132e+00 3.0912971006e+00 
31800 6.7867373467e+00 -2.9417977620e-02 1.7855855635e+00 -3.0927249172e+00 1.7855855635e+00 3.0927249172e+00 
31900 6.7866325591e+00 -2.9370035735e-02 1.7864093896e+00 -3.0941518258e+00 1.7864093896e+00 3.0941518258e+00 
32000 6.7865263676e+00 -2.9280156171e-02 1.7872314936e+00 -3.0955757518e+00 1.7872314936e+00 3.0955757518e+00 
32100 6.7864194431e+00 -2.9149251682e-02 1.7880507045e+00 -3.0969946668e+00 1.7880507045e+00 3.0969946668e+00 
32200 6.7863124347e+00 -2.8978269410e-02 1.7888658790e+00 -3.0984065903e+00 1.7888658790e+00 3.0984065903e+00 
32300 6.7862059669e+00 -2.8768189334e-02 1.7896759021e+00 -3.0998095916e+00 1.7896759021e+00 3.0998095916e+00 
32400 6.7861006368e+00 -2.8520022718e-02 1.7904796885e+00 -3.1012017904e+00 1.7904796885e+00 3.1012017904e+00 
32500 6.7859970120e+00 -2.8234810554e-02 1.7912761828e+00 -3.1025813589e+00 1.7912761828e+00 3.1025813589e+00 
32600 6.7858956285e+00 -2.7913622007e-02 1.7920643605e+00 -3.1039465228e+00 1.7920643605e+00 3.1039465228e+00 
32700 6.7857969890e+00 -2.7557552858e-02 1.7928432288e+00 -3.1052955623e+00 1.7928432288e+00 3.1052955623e+00 
32800 6.7857015613e+00 -2.7167723944e-02 1.7936118270e+00 -3.1066268134e+00 1.7936118270e+00 3.1066268134e+00 
32900 6.7856097770e+00 -2.6745279602e-02 1.7943692271e+00 -3.1079386688e+00 1.7943692271e+00 3.1079386688e+00 
33000 6.7855220307e+00 -2.6291386109e-02 1.7951145344e+00 -3.1092295790e+00 1.7951145344e+00 3.1092295790e+00 
33100 6.7854386789e+00 -2.5807230123e-02 1.7958468880e+00 -3.1104980527e+00 1.7958468880e+00 3.1104980527e+00 
33200 6.7853600399e+00 -2.5294017124e-02 1.7965654613e+00 -3.1117426580e+00 1.7965654613e+00 3.1117426580e+00 
33300 6.7852863930e+00 -2.4752969857e-02 1.7972694620e+00 -3.1129620231e+00 1.7972694620e+00 3.1129620231e+00 
33400 6.7852179789e+00 -2.4185326780e-02 1.7979581331e+00 -3.1141548364e+00 1.7979581331e+00 3.1141548364e+00 
33500 6.7851549996e+00 -2.3592340507e-02 1.7986307526e+00 -3.1153198475e+00 1.7986307526e+00 3.1153198475e+00 
33600 6.7850976186e+00 -2.2975276257e-02 1.7992866341e+00 -3.1164558677e+00 1.7992866341e+00 3.1164558677e+00 
33700 6.7850459617e+00 -2.2335410310e-02 1.7999251270e+00 -3.1175617698e+00 1.7999251270e+00 3.1175617698e+00 
33800 6.7850001177e+00 -2.1674028459e-02 1.8005456165e+00 -3.1186364891e+00 1.8005456165e+00 3.1186364891e+00 
33900 6.7849601389e+00 -2.0992424472e-02 1.8011475239e+00 -3.1196790234e+00 1.8011475239e+00 3.1196790234e+00 
34000 6.7849260428e+00 -2.0291898555e-02 1.8017303067e+00 -3.1206884328e+00 1.8017303067e+00 3.1206884328e+00 
34100 6.7848978127e+00 -1.9573755823e-02 1.8022934586e+00 -3.1216638404e+00 1.8022934586e+00 3.1216638404e+00 
34200 6.7848753992e+00 -1.8839304771e-02 1.8028365094e+00 -3.1226044320e+00 1.8028365094e+00 3.1226044320e+00 
34300 6.7848587221e+00 -1.8089855760e-02 1.8033590253e+00 -3.1235094561e+00 1.8033590253e+00 3.1235094561e+00 
34400 6.7848476712e+00 -1.7326719496e-02 1.8038606086e+00 -3.1243782238e+00 1.8038606086e+00 3.1243782238e+00 
34500 6.7848421085e+00 -1.6551205529e-02 1.8043408976e+00 -3.1252101087e+00 1.8043408976e+00 3.1252101087e+00 
34600 6.7848418701e+00 -1.5764620752e-02 1.8047995666e+00 -3.1260045468e+00 1.8047995666e+00 3.1260045468e+00 
34700 6.7848467673e+00 -1.4968267906e-02 1.8052363258e+00 -3.1267610360e+00 1.8052363258e+00 3.1267610360e+00 
34800 6.7848565895e+00 -1.4163444101e-02 1.8056509209e+00 -3.1274791357e+00 1.8056509209e+00 3.1274791357e+00 
34900 6.7848711054e+00 -1.3351439337e-02 1.8060431328e+00 -3.1281584667e+00 1.8060431328e+00 3.1281584667e+00 
35000 6.7848900651e+00 -1.2533535040e-02 1.8064127777e+00 -3.1287987105e+00 1.8064127777e+00 3.1287987105e+00 
35100 6.7849132025e+00 -1.1711002611e-02 1.8067597067e+00 -3.1293996090e+00 1.8067597067e+00 3.1293996090e+00 
35200 6.7849402373e+00 -1.0885101976e-02 1.8070838049e+00 -3.1299609636e+00 1.8070838049e+00 3.1299609636e+00 
35300 6.7849708764e+00 -1.0057080159e-02 1.8073849919e+00 -3.1304826348e+00 1.8073849919e+00 3.1304826348e+00 
35400 6.7850048169e+00 -9.2281698625e-03 1.8076632209e+00 -3.1309645416e+00 1.8076632209e+00 3.1309645416e+00 
35500 6.7850417475e+00 -8.3995880651e-03 1.8079184783e+00 -3.1314066603e+00 1.8079184783e+00 3.1314066603e+00 
35600 6.7850813507e+00 -7.5725346310e-03 1.8081507832e+00 -3.1318090243e+00 1.8081507832e+00 3.1318090243e+00 
35700 6.7851233047e+00 -6.7481909405e-03 1.8083601872e+00 -3.1321717227e+00 1.8083601872e+00 3.1321717227e+00 
35800 6.7851672857e+00 -5.9277185372e-03 1.8085467736e+00 -3.1324948997e+00 1.8085467736e+00 3.1324948997e+00 
35900 6.7852129693e+00 -5.1122577950e-03 1.8087106568e+00 -3.1327787537e+00 1.8087106568e+00 3.1327787537e+00 
36000 6.7852600325e+00 -4.3029266083e-03 1.8088519819e+00 -3.1330235360e+00 1.8088519819e+00 3.1330235360e+00 
36100 6.7853081558e+00 -3.5008191046e-03 1.8089709240e+00 -3.1332295498e+00 1.8089709240e+00 3.1332295498e+00 
36200 6.7853570242e+00 -2.7070043837e-03 1.8090676876e+00 -3.1333971492e+00 1.8090676876e+00 3.1333971492e+00 
36300 6.7854063296e+00 -1.9225252845e-03 1.8091425058e+00 -3.1335267381e+00 1.8091425058e+00 3.1335267381e+00 
36400 6.7854557717e+00 -1.1483971818e-03 1.8091956396e+00 -3.1336187687e+00 1.8091956396e+00 3.1336187687e+00 
36500 6.7855050598e+00 -3.8560681573e-04 1.8092273775e+00 -3.1336737403e+00 1.8092273775e+00 3.1336737403e+00 
36600 6.7855539139e+00 3.6488884431e-04 1.8092380342e+00 -3.1336921982e+00 1.8092380342e+00 3.1336921982e+00 
36700 6.7856020661e+00 1.1021636981e-03 1.8092279502e+00 -3.1336747321e+00 1.8092279502e+00 3.1336747321e+00 
36800 6.7856492615e+00 1.8253235732e-03 1.8091974907e+00 -3.1336219749e+00 1.8091974907e+00 3.1336219749e+00 
36900 6.7856952597e+00 2.5335072416e-03 1.8091470453e+00 -3.1335346008e+00 1.8091470453e+00 3.1335346008e+00 
37000 6.7857398351e+00 3.2258873905e-03 1.8090770264e+00 -3.1334133245e+00 1.8090770264e+00 3.1334133245e+00 
37100 6.7857827780e+00 3.9016715454e-03 1.8089878687e+00 -3.1332588989e+00 1.8089878687e+00 3.1332588989e+00 
37200 6.7858238954e+00 4.5601029432e-03 1.8088800285e+00 -3.1330721142e+00 1.8088800285e+00 3.1330721142e+00 
37300 6.7858630114e+00 5.2004613517e-03 1.8087539823e+00 -3.1328537957e+00 1.8087539823e+00 3.1328537957e+00 
37400 6.7858999675e+00 5.8220638332e-03 1.8086102261e+00 -3.1326048027e+00 1.8086102261e+00 3.1326048027e+00 
37500 6.7859346233e+00 6.4242654503e-03 1.8084492744e+00 -3.1323260261e+00 1.8084492744e+00 3.1323260261e+00 
37600 6.7859668566e+00 7.0064599098e-03 1.8082716592e+00 -3.1320183877e+00 1.8082716592e+00 3.1320183877e+00 
37700 6.7859965633e+00 7.5680801445e-03 1.8080779291e+00 -3.1316828372e+00 1.8080779291e+00 3.1316828372e+00 
37800 6.7860236575e+00 8.1085988286e-03 1.8078686479e+00 -3.1313203515e+00 1.8078686479e+00 3.1313203515e+00 
37900 6.7860480718e+00 8.6275288259e-03 1.8076443940e+00 -3.1309319324e+00 1.8076443940e+00 3.1309319324e+00 
38000 6.7860697565e+00 9.1244235677e-03 1.8074057592e+00 -3.1305186047e+00 1.8074057592e+00 3.1305186047e+00 
38100 6.7860886797e+00 9.5988773600e-03 1.8071533473e+00 -3.1300814147e+00 1.8071533473e+00 3.1300814147e+00 
38200 6.7861048267e+00 1.0050525617e-02 1.8068877738e+00 -3.1296214278e+00 1.8068877738e+00 3.1296214278e+00 
38300 6.7861181998e+00 1.0479045020e-02 1.8066096639e+00 -3.1291397273e+00 1.8066096639e+00 3.1291397273e+00 
38400 6.7861288173e+00 1.0884153601e-02 1.8063196520e+00 -3.1286374120e+00 1.8063196520e+00 3.1286374120e+00 
38500 6.7861367133e+00 1.1265610752e-02 1.8060183806e+00 -3.1281155946e+00 1.8060183806e+00 3.1281155946e+00 
38600 6.7861419367e+00 1.1623217149e-02 1.8057064987e+00 -3.1275753994e+00 1.8057064987e+00 3.1275753994e+00 
38700 6.7861445507e+00 1.1956814611e-02 1.8053846615e+00 -3.1270179609e+00 1.8053846615e+00 3.1270179609e+00 
38800 6.7861446317e+00 1.2266285871e-02 1.8050535285e+00 -3.1264444218e+00 1.8050535285e+00 3.1264444218e+00 
38900 6.7861422684e+00 1.2551554271e-02 1.8047137629e+00 -3.1258559305e+00 1.8047137629e+00 3.1258559305e+00 
39000 6.7861375610e+00 1.2812583387e-02 1.8043660305e+00 -3.1252536402e+00 1.8043660305e+00 3.1252536402e+00 
39100 6.7861306205e+00 1.3049376569e-02 1.8040109982e+00 -3.1246387063e+00 1.8040109982e+00 3.1246387063e+00 
39200 6.7861215670e+00 1.3261976410e-02 1.8036493335e+00 -3.1240122847e+00 1.8036493335e+00 3.1240122847e+00 
39300 6.7861105293e+00 1.3450464142e-02 1.8032817032e+00 -3.1233755302e+00 1.8032817032e+00 3.1233755302e+00 
39400 6.7860976435e+00 1.3614958957e-02 1.8029087720e+00 -3.1227295945e+00 1.8029087720e+00 3.1227295945e+00 
39500 6.7860830522e+00 1.3755617262e-02 1.8025312020e+00 -3.1220756241e+00 1.8025312020e+00 3.1220756241e+00 
39600 6.7860669031e+00 1.3872631859e-02 1.8021496516e+00 -3.1214147593e+00 1.8021496516e+00 3.1214147593e+00 
39700 6.7860493484e+00 1.3966231068e-02 1.8017647740e+00 -3.1207481319e+00 1.8017647740e+00 3.1207481319e+00 
39800 6.7860305432e+00 1.4036677781e-02 1.8013772171e+00 -3.1200768635e+00 1.8013772171e+00 3.1200768635e+00 
39900 6.7860106450e+00 1.4084268456e-02 1.8009876215e+00 -3.1194020642e+00 1.8009876215e+00 3.1194020642e+00 
40000 6.7859898121e+00 1.4109332062e-02 1.8005966205e+00 -3.1187248306e+00 1.8005966205e+00 3.1187248306e+00 
40100 6.7859682033e+00 1.4112228959e-02 1.8002048387e+00 -3.1180462446e+00 1.8002048387e+00 3.1180462446e+00 
40200 6.7859459762e+00 1.4093349739e-02 1.7998128912e+00 -3.1173673716e+00 1.7998128912e+00 3.1173673716e+00 
40300 6.7859232870e+00 1.4053114012e-02 1.7994213827e+00 -3.1166892591e+00 1.7994213827e+00 3.1166892591e+00 
40400 6.7859002889e+00 1.3991969158e-02 1.7990309070e+00 -3.1160129354e+00 1.7990309070e+00 3.1160129354e+00 
40500 6.7858771320e+00 1.3910389035e-02 1.7986420459e+00 -3.1153394081e+00 1.7986420459e+00 3.1153394081e+00 
40600 6.7858539617e+00 1.3808872653e-02 1.7982553683e+00 -3.1146696629e+00 1.7982553683e+00 3.1146696629e+00 
40700 6.7858309187e+00 1.3687942825e-02 1.7978714300e+00 -3.1140046623e+00 1.7978714300e+00 3.1140046623e+00 
40800 6.7858081379e+00 1.3548144780e-02 1.7974907727e+00 -3.1133453444e+00 1.7974907727e+00 3.1133453444e+00 
40900 6.7857857479e+00 1.3390044767e-02 1.7971139232e+00 -3.1126926219e+00 1.7971139232e+00 3.1126926219e+00 
41000 6.7857638705e+00 1.3214228633e-02 1.7967413930e+00 -3.1120473808e+00 1.7967413930e+00 3.1120473808e+00 
41100 6.7857426199e+00 1.3021300392e-02 1.7963736779e+00 -3.1114104796e+00 1.7963736779e+00 3.1114104796e+00 
41200 6.7857221026e+00 1.2811880781e-02 1.7960112572e+00 -3.1107827484e+00 1.7960112572e+00 3.1107827484e+00 
41300 6.7857024170e+00 1.2586605818e-02 1.7956545930e+00 -3.1101649880e+00 1.7956545930e+00 3.1101649880e+00 
41400 6.7856836528e+00 1.2346125350e-02 1.7953041304e+00 -3.1095579689e+00 1.7953041304e+00 3.1095579689e+00 
41500 6.7856658910e+00 1.2091101612e-02 1.7949602964e+00 -3.1089624310e+00 1.7949602964e+00 3.1089624310e+00 
41600 6.7856492037e+00 1.1822207787e-02 1.7946235000e+00 -3.1083790825e+00 1.7946235000e+00 3.1083790825e+00 
41700 6.7856336539e+00 1.1540126580e-02 1.7942941316e+00 -3.1078085997e+00 1.7942941316e+00 3.1078085997e+00 
41800 6.7856192952e+00 1.1245548803e-02 1.7939725628e+00 -3.1072516261e+00 1.7939725628e+00 3.1072516261e+00 
41900 6.7856061725e+00 1.0939171978e-02 1.7936591460e+00 -3.1067087723e+00 1.7936591460e+00 3.1067087723e+00 
42000 6.7855943213e+00 1.0621698964e-02 1.7933542145e+00 -3.1061806156e+00 1.7933542145e+00 3.1061806156e+00 
42100 6.7855837682e+00 1.0293836601e-02 1.7930580821e+00 -3.1056676992e+00 1.7930580821e+00 3.1056676992e+00 
42200 6.7855745308e+00 9.9562943838e-03 1.7927710428e+00 -3.1051705325e+00 1.7927710428e+00 3.1051705325e+00 
42300 6.7855666183e+00 9.6097831631e-03 1.7924933711e+00 -3.1046895910e+00 1.7924933711e+00 3.1046895910e+00 
42400 6.7855600314e+00 9.2550138803e-03 1.7922253215e+00 -3.1042253154e+00 1.7922253215e+00 3.1042253154e+00 
42500 6.7855547627e+00 8.8926963318e-03 1.7919671287e+00 -3.1037781124e+00 1.7919671287e+00 3.1037781124e+00 
42600 6.7855507971e+00 8.5235379709e-03 1.7917190078e+00 -3.1033483544e+00 1.7917190078e+00 3.1033483544e+00 
42700 6.7855481122e+00 8.1482427458e-03 1.7914811538e+00 -3.1029363792e+00 1.7914811538e+00 3.1029363792e+00 
42800 6.7855466784e+00 7.7675099766e-03 1.7912537423e+00 -3.1025424909e+00 1.7912537423e+00 3.1025424909e+00 
42900 6.7855464598e+00 7.3820332722e-03 1.7910369290e+00 -3.1021669592e+00 1.7910369290e+00 3.1021669592e+00 
43000 6.7855474143e+00 6.9924994876e-03 1.7908308502e+00 -3.1018100204e+00 1.7908308502e+00 3.1018100204e+00 
43100 6.7855494942e+00 6.5995877245e-03 1.7906356232e+00 -3.1014718772e+00 1.7906356232e+00 3.1014718772e+00 
43200 6.7855526467e+00 6.2039683740e-03 1.7904513458e+00 -3.1011526993e+00 1.7904513458e+00 3.1011526993e+00 
43300 6.7855568145e+00 5.8063022028e-03 1.7902780970e+00 -3.1008526238e+00 1.7902780970e+00 3.1008526238e+00 
43400 6.7855619360e+00 5.4072394839e-03 1.7901159375e+00 -3.1005717551e+00 1.7901159375e+00 3.1005717551e+00 
43500 6.7855679462e+00 5.0074191711e-03 1.7899649092e+00 -3.1003101664e+00 1.7899649092e+00 3.1003101664e+00 
43600 6.7855747771e+00 4.6074681183e-03 1.7898250362e+00 -3.1000678994e+00 1.7898250362e+00 3.1000678994e+00 
43700 6.7855823582e+00 4.2080003427e-03 1.7896963249e+00 -3.0998449649e+00 1.7896963249e+00 3.0998449649e+00 
43800 6.7855906168e+00 3.8096163328e-03 1.7895787644e+00 -3.0996413440e+00 1.7895787644e+00 3.0996413440e+00 
43900 6.7855994791e+00 3.4129024003e-03 1.7894723265e+00 -3.0994569883e+00 1.7894723265e+00 3.0994569883e+00 
44000 6.7856088701e+00 3.0184300752e-03 1.7893769668e+00 -3.0992918204e+00 1.7893769668e+00 3.0992918204e+00 
44100 6.7856187143e+00 2.6267555441e-03 1.7892926244e+00 -3.0991457351e+00 1.7892926244e+00 3.0991457351e+00 
44200 6.7856289364e+00 2.2384191319e-03 1.7892192228e+00 -3.0990185998e+00 1.7892192228e+00 3.0990185998e+00 
44300 6.7856394615e+00 1.8539448242e-03 1.7891566702e+00 -3.0989102556e+00 1.7891566702e+00 3.0989102556e+00 
44400 6.7856502155e+00 1.4738398315e-03 1.7891048599e+00 -3.0988205174e+00 1.7891048599e+00 3.0988205174e+00 
44500 6.7856611257e+00 1.0985941934e-03 1.7890636708e+00 -3.0987491757e+00 1.7890636708e+00 3.0987491757e+00 
44600 6.7856721212e+00 7.2868042253e-04 1.7890329678e+00 -3.0986959966e+00 1.7890329678e+00 3.0986959966e+00 
44700 6.7856831332e+00 3.6455318693e-04 1.7890126026e+00 -3.0986607231e+00 1.7890126026e+00 3.0986607231e+00 
44800 6.7856940950e+00 6.6490296182e-06 1.7890024140e+00 -3.0986430759e+00 1.7890024140e+00 3.0986430759e+00 
44900 6.7857049430e+00 -3.4438698149e-04 1.7890024140e+00 -3.0986430759e+00 1.7890024140e+00 3.0986430759e+00 
45000 6.7857156165e+00 -6.8861521345e-04 1.7890120391e+00 -3.0986597471e+00 1.7890120391e+00 3.0986597471e+00 
45100 6.7857260581e+00 -1.0254214625e-03 1.7890312848e+00 -3.0986930816e+00 1.7890312848e+00 3.0986930816e+00 
45200 6.7857362139e+00 -1.3544437898e-03 1.7890599435e+00 -3.0987427199e+00 1.7890599435e+00 3.0987427199e+00 
45300 6.7857460337e+00 -1.6753392537e-03 1.7890977971e+00 -3.0988082843e+00 1.7890977971e+00 3.0988082843e+00 
45400 6.7857554711e+00 -1.9877839865e-03 1.7891446181e+00 -3.0988893806e+00 1.7891446181e+00 3.0988893806e+00 
45500 6.7857644839e+00 -2.2914732409e-03 1.7892001696e+00 -3.0989855987e+00 1.7892001696e+00 3.0989855987e+00 
45600 6.7857730337e+00 -2.5861214074e-03 1.7892642062e+00 -3.0990965134e+00 1.7892642062e+00 3.0990965134e+00 
45700 6.7857810865e+00 -2.8714620035e-03 1.7893364745e+00 -3.0992216856e+00 1.7893364745e+00 3.0992216856e+00 
45800 6.7857886124e+00 -3.1472476359e-03 1.7894167132e+00 -3.0993606632e+00 1.7894167132e+00 3.0993606632e+00 
45900 6.7857955860e+00 -3.4132499367e-03 1.7895046546e+00 -3.0995129821e+00 1.7895046546e+00 3.0995129821e+00 
46000 6.7858019858e+00 -3.6692594752e-03 1.7896000240e+00 -3.0996781667e+00 1.7896000240e+00 3.0996781667e+00 
46100 6.7858077948e+00 -3.9150856446e-03 1.7897025411e+00 -3.0998557317e+00 1.7897025411e+00 3.0998557317e+00 
46200 6.7858130000e+00 -4.1505565270e-03 1.7898119204e+00 -3.1000451821e+00 1.7898119204e+00 3.1000451821e+00 
46300 6.7858175926e+00 -4.3755187354e-03 1.7899278711e+00 -3.1002460147e+00 1.7899278711e+00 3.1002460147e+00 
46400 6.7858215676e+00 -4.5898372352e-03 1.7900500986e+00 -3.1004577189e+00 1.7900500986e+00 3.1004577189e+00 
46500 6.7858249242e+00 -4.7933951453e-03 1.7901783043e+00 -3.1006797777e+00 1.7901783043e+00 3.1006797777e+00 
46600 6.7858276649e+00 -4.9860935201e-03 1.7903121864e+00 -3.1009116682e+00 1.7903121864e+00 3.1009116682e+00 
46700 6.7858297961e+00 -5.1678511126e-03 1.7904514403e+00 -3.1011528630e+00 1.7904514403e+00 3.1011528630e+00 
46800 6.7858313276e+00 -5.3386041207e-03 1.7905957592e+00 -3.1014028307e+00 1.7905957592e+00 3.1014028307e+00 
46900 6.7858322722e+00 -5.4983059161e-03 1.7907448347e+00 -3.1016610370e+00 1.7907448347e+00 3.1016610370e+00 
47000 6.7858326458e+00 -5.6469267575e-03 1.7908983569e+00 -3.1019269454e+00 1.7908983569e+00 3.1019269454e+00 
47100 6.7858324672e+00 -5.7844534888e-03 1.7910560155e+00 -3.1022000181e+00 1.7910560155e+00 3.1022000181e+00 
47200 6.7858317577e+00 -5.9108892225e-03 1.7912174996e+00 -3.1024797167e+00 1.7912174996e+00 3.1024797167e+00 
47300 6.7858305411e+00 -6.0262530096e-03 1.7913824985e+00 -3.1027655032e+00 1.7913824985e+00 3.1027655032e+00 
47400 6.7858288432e+00 -6.1305794966e-03 1.7915507023e+00 -3.1030568408e+00 1.7915507023e+00 3.1030568408e+00 
47500 6.7858266919e+00 -6.2239185699e-03 1.7917218021e+00 -3.1033531942e+00 1.7917218021e+00 3.1033531942e+00 
47600 6.7858241164e+00 -6.3063349892e-03 1.7918954903e+00 -3.1036540310e+00 1.7918954903e+00 3.1036540310e+00 
47700 6.7858211478e+00 -6.3779080091e-03 1.7920714614e+00 -3.1039588220e+00 1.7920714614e+00 3.1039588220e+00 
47800 6.7858178182e+00 -6.4387309911e-03 1.7922494123e+00 -3.1042670419e+00 1.7922494123e+00 3.1042670419e+00 
47900 6.7858141605e+00 -6.4889110055e-03 1.7924290424e+00 -3.1045781704e+00 1.7924290424e+00 3.1045781704e+00 
48000 6.7858102085e+00 -6.5285684244e-03 1.7926100543e+00 -3.1048916922e+00 1.7926100543e+00 3.1048916922e+00 
48100 6.7858059966e+00 -6.5578365060e-03 1.7927921541e+00 -3.1052070983e+00 1.7927921541e+00 3.1052070983e+00 
48200 6.7858015594e+00 -6.5768609714e-03 1.7929750517e+00 -3.1055238863e+00 1.7929750517e+00 3.1055238863e+00 
48300 6.7857969315e+00 -6.5857995737e-03 1.7931584612e+00 -3.1058415609e+00 1.7931584612e+00 3.1058415609e+00 
48400 6.7857921474e+00 -6.5848216605e-03 1.7933421012e+00 -3.1061596347e+00 1.7933421012e+00 3.1061596347e+00 
48500 6.7857872413e+00 -6.5741077301e-03 1.7935256951e+00 -3.1064776286e+00 1.7935256951e+00 3.1064776286e+00 
48600 6.7857822468e+00 -6.5538489823e-03 1.7937089716e+00 -3.1067950727e+00 1.7937089716e+00 3.1067950727e+00 
48700 6.7857771970e+00 -6.5242468635e-03 1.7938916645e+00 -3.1071115062e+00 1.7938916645e+00 3.1071115062e+00 
48800 6.7857721240e+00 -6.4855126081e-03 1.7940735138e+00 -3.1074264784e+00 1.7940735138e+00 3.1074264784e+00 
48900 6.7857670587e+00 -6.4378667750e-03 1.7942542650e+00 -3.1077395488e+00 1.7942542650e+00 3.1077395488e+00 
49000 6.7857620310e+00 -6.3815387811e-03 1.7944336703e+00 -3.1080502878e+00 1.7944336703e+00 3.1080502878e+00 
49100 6.7857570696e+00 -6.3167664312e-03 1.7946114881e+00 -3.1083582773e+00 1.7946114881e+00 3.1083582773e+00 
49200 6.7857522015e+00 -6.2437954462e-03 1.7947874836e+00 -3.1086631103e+00 1.7947874836e+00 3.1086631103e+00 
49300 6.7857474525e+00 -6.1628789884e-03 1.7949614289e+00 -3.1089643924e+00 1.7949614289e+00 3.1089643924e+00 
49400 6.7857428464e+00 -6.0742771861e-03 1.7951331032e+00 -3.1092617411e+00 1.7951331032e+00 3.1092617411e+00 
49500 6.7857384055e+00 -5.9782566562e-03 1.7953022933e+00 -3.1095547869e+00 1.7953022933e+00 3.1095547869e+00 
49600 6.7857341503e+00 -5.8750900275e-03 1.7954687930e+00 -3.1098431730e+00 1.7954687930e+00 3.1098431730e+00 
49700 6.7857300996e+00 -5.7650554627e-03 1.7956324043e+00 -3.1101265560e+00 1.7956324043e+00 3.1101265560e+00 
49800 6.7857262699e+00 -5.6484361818e-03 1.7957929367e+00 -3.1104046062e+00 1.7957929367e+00 3.1104046062e+00 
49900 6.7857226762e+00 -5.5255199862e-03 1.7959502075e+00 -3.1106770073e+00 1.7959502075e+00 3.1106770073e+00 
50000 6.7857193315e+00 -5.3965987834e-03 1.7961040425e+00 -3.1109434573e+00 1.7961040425e+00 3.1109434573e+00 
50100 6.7857162467e+00 -5.2619681151e-03 1.7962542753e+00 -3.1112036681e+00 1.7962542753e+00 3.1112036681e+00 
50200 6.7857134309e+00 -5.1219266866e-03 1.7964007479e+00 -3.1114573661e+00 1.7964007479e+00 3.1114573661e+00 
50300 6.7857108912e+00 -4.9767758990e-03 1.7965433106e+00 -3.1117042919e+00 1.7965433106e+00 3.1117042919e+00 
50400 6.7857086329e+00 -4.8268193854e-03 1.7966818221e+00 -3.1119442009e+00 1.7966818221e+00 3.1119442009e+00 
50500 6.7857066594e+00 -4.6723625506e-03 1.7968161497e+00 -3.1121768632e+00 1.7968161497e+00 3.1121768632e+00 
50600 6.7857049724e+00 -4.5137121145e-03 1.7969461691e+00 -3.1124020634e+00 1.7969461691e+00 3.1124020634e+00 
50700 6.7857035717e+00 -4.3511756615e-03 1.7970717645e+00 -3.1126196010e+00 1.7970717645e+00 3.1126196010e+00 
50800 6.7857024555e+00 -4.1850611935e-03 1.7971928288e+00 -3.1128292905e+00 1.7971928288e+00 3.1128292905e+00 
50900 6.7857016203e+00 -4.0156766903e-03 1.7973092634e+00 -3.1130309611e+00 1.7973092634e+00 3.1130309611e+00 
51000 6.7857010612e+00 -3.8433296741e-03 1.7974209781e+00 -3.1132244567e+00 1.7974209781e+00 3.1132244567e+00 
51100 6.7857007718e+00 -3.6683267827e-03 1.7975278915e+00 -3.1134096361e+00 1.7975278915e+00 3.1134096361e+00 
51200 6.7857007443e+00 -3.4909733478e-03 1.7976299306e+00 -3.1135863730e+00 1.7976299306e+00 3.1135863730e+00 
51300 6.7857009696e+00 -3.3115729821e-03 1.7977270308e+00 -3.1137545554e+00 1.7977270308e+00 3.1137545554e+00 
51400 6.7857014376e+00 -3.1304271735e-03 1.7978191360e+00 -3.1139140864e+00 1.7978191360e+00 3.1139140864e+00 
51500 6.7857021368e+00 -2.9478348880e-03 1.7979061985e+00 -3.1140648831e+00 1.7979061985e+00 3.1140648831e+00 
51600 6.7857030552e+00 -2.7640921809e-03 1.7979881788e+00 -3.1142068771e+00 1.7979881788e+00 3.1142068771e+00 
51700 6.7857041796e+00 -2.5794918177e-03 1.7980650456e+00 -3.1143400143e+00 1.7980650456e+00 3.1143400143e+00 
51800 6.7857054961e+00 -2.3943229038e-03 1.7981367757e+00 -3.1144642545e+00 1.7981367757e+00 3.1144642545e+00 
51900 6.7857069902e+00 -2.2088705251e-03 1.7982033540e+00 -3.1145795715e+00 1.7982033540e+00 3.1145795715e+00 
52000 6.7857086469e+00 -2.0234153978e-03 1.7982647732e+00 -3.1146859526e+00 1.7982647732e+00 3.1146859526e+00 
52100 6.7857104508e+00 -1.8382335300e-03 1.7983210337e+00 -3.1147833987e+00 1.7983210337e+00 3.1147833987e+00 
52200 6.7857123860e+00 -1.6535958931e-03 1.7983721437e+00 -3.1148719237e+00 1.7983721437e+00 3.1148719237e+00 
52300 6.7857144366e+00 -1.4697681059e-03 1.7984181187e+00 -3.1149515548e+00 1.7984181187e+00 3.1149515548e+00 
52400 6.7857165864e+00 -1.2870101294e-03 1.7984589816e+00 -3.1150223315e+00 1.7984589816e+00 3.1150223315e+00 
52500 6.7857188194e+00 -1.1055759743e-03 1.7984947626e+00 -3.1150843060e+00 1.7984947626e+00 3.1150843060e+00 
52600 6.7857211194e+00 -9.2571342044e-04 1.7985254989e+00 -3.1151375428e+00 1.7985254989e+00 3.1151375428e+00 
52700 6.7857234707e+00 -7.4766374899e-04 1.7985512343e+00 -3.1151821178e+00 1.7985512343e+00 3.1151821178e+00 
52800 6.7857258575e+00 -5.7166148783e-04 1.7985720195e+00 -3.1152181188e+00 1.7985720195e+00 3.1152181188e+00 
52900 6.7857282647e+00 -3.9793416975e-04 1.7985879116e+00 -3.1152456448e+00 1.7985879116e+00 3.1152456448e+00 
53000 6.7857306773e+00 -2.2670210425e-04 1.7985989740e+00 -3.1152648054e+00 1.7985989740e+00 3.1152648054e+00 
53100 6.7857330810e+00 -5.8178162876e-05 1.7986052762e+00 -3.1152757212e+00 1.7986052762e+00 3.1152757212e+00 
53200 6.7857354616e+00 1.0549670725e-04 1.7986052762e+00 -3.1152757212e+00 1.7986052762e+00 3.1152757212e+00 
53300 6.7857378061e+00 2.6804639113e-04 1.7986023435e+00 -3.1152706415e+00 1.7986023435e+00 3.1152706415e+00 
53400 6.7857401024e+00 4.2729359793e-04 1.7985948920e+00 -3.1152577351e+00 1.7985948920e+00 3.1152577351e+00 
53500 6.7857423384e+00 5.8305723200e-04 1.7985830134e+00 -3.1152371609e+00 1.7985830134e+00 3.1152371609e+00 
53600 6.7857445034e+00 7.3516448989e-04 1.7985668047e+00 -3.1152090865e+00 1.7985668047e+00 3.1152090865e+00 
53700 6.7857465870e+00 8.8345099004e-04 1.7985463672e+00 -3.1151736878e+00 1.7985463672e+00 3.1151736878e+00 
53800 6.7857485800e+00 1.0277608879e-03 1.7985218071e+00 -3.1151311484e+00 1.7985218071e+00 3.1151311484e+00 
53900 6.7857504738e+00 1.1679469766e-03 1.7984932348e+00 -3.1150816598e+00 1.7984932348e+00 3.1150816598e+00 
54000 6.7857522608e+00 1.3038707725e-03 1.7984607648e+00 -3.1150254200e+00 1.7984607648e+00 3.1150254200e+00 
54100 6.7857539344e+00 1.4354025870e-03 1.7984245152e+00 -3.1149626340e+00 1.7984245152e+00 3.1149626340e+00 
54200 6.7857554888e+00 1.5624215824e-03 1.7983846082e+00 -3.1148935129e+00 1.7983846082e+00 3.1148935129e+00 
54300 6.7857569191e+00 1.6848158152e-03 1.7983411688e+00 -3.1148182736e+00 1.7983411688e+00 3.1148182736e+00 
54400 6.7857582213e+00 1.8024822625e-03 1.7982943254e+00 -3.1147371385e+00 1.7982943254e+00 3.1147371385e+00 
54500 6.7857593923e+00 1.9153268366e-03 1.7982442091e+00 -3.1146503347e+00 1.7982442091e+00 3.1146503347e+00 
54600 6.7857604301e+00 2.0232643831e-03 1.7981909539e+00 -3.1145580939e+00 1.7981909539e+00 3.1145580939e+00 
54700 6.7857613331e+00 2.1262186669e-03 1.7981346959e+00 -3.1144606522e+00 1.7981346959e+00 3.1144606522e+00 
54800 6.7857621011e+00 2.2241223431e-03 1.7980755733e+00 -3.1143582489e+00 1.7980755733e+00 3.1143582489e+00 
54900 6.7857627343e+00 2.3169169144e-03 1.7980137264e+00 -3.1142511268e+00 1.7980137264e+00 3.1142511268e+00 
55000 6.7857632339e+00 2.4045526758e-03 1.7979492969e+00 -3.1141395316e+00 1.7979492969e+00 3.1141395316e+00 
55100 6.7857636017e+00 2.4869886454e-03 1.7978824280e+00 -3.1140237113e+00 1.7978824280e+00 3.1140237113e+00 
55200 6.7857638404e+00 2.5641924828e-03 1.7978132640e+00 -3.1139039158e+00 1.7978132640e+00 3.1139039158e+00 
55300 6.7857639533e+00 2.6361403944e-03 1.7977419503e+00 -3.1137803968e+00 1.7977419503e+00 3.1137803968e+00 
55400 6.7857639442e+00 2.7028170271e-03 1.7976686327e+00 -3.1136534070e+00 1.7976686327e+00 3.1136534070e+00 
55500 6.7857638176e+00 2.7642153498e-03 1.7975934576e+00 -3.1135231999e+00 1.7975934576e+00 3.1135231999e+00 
55600 6.7857635787e+00 2.8203365229e-03 1.7975165716e+00 -3.1133900295e+00 1.7975165716e+00 3.1133900295e+00 
55700 6.7857632328e+00 2.8711897577e-03 1.7974381212e+00 -3.1132541495e+00 1.7974381212e+00 3.1132541495e+00 
55800 6.7857627861e+00 2.9167921642e-03 1.7973582529e+00 -3.1131158134e+00 1.7973582529e+00 3.1131158134e+00 
55900 6.7857622447e+00 2.9571685886e-03 1.7972771124e+00 -3.1129752740e+00 1.7972771124e+00 3.1129752740e+00 
56000 6.7857616155e+00 2.9923514413e-03 1.7971948450e+00 -3.1128327827e+00 1.7971948450e+00 3.1128327827e+00 
56100 6.7857609053e+00 3.0223805155e-03 1.7971115951e+00 -3.1126885895e+00 1.7971115951e+00 3.1126885895e+00 
56200 6.7857601215e+00 3.0473027960e-03 1.7970275058e+00 -3.1125429426e+00 1.7970275058e+00 3.1125429426e+00 
56300 6.7857592714e+00 3.0671722605e-03 1.7969427191e+00 -3.1123960878e+00 1.7969427191e+00 3.1123960878e+00 
56400 6.7857583624e+00 3.0820496723e-03 1.7968573756e+00 -3.1122482685e+00 1.7968573756e+00 3.1122482685e+00 
56500 6.7857574023e+00 3.0920023656e-03 1.7967716141e+00 -3.1120997251e+00 1.7967716141e+00 3.1120997251e+00 
56600 6.7857563986e+00 3.0971040235e-03 1.7966855715e+00 -3.1119506950e+00 1.7966855715e+00 3.1119506950e+00 
56700 6.7857553590e+00 3.0974344500e-03 1.7965993828e+00 -3.1118014118e+00 1.7965993828e+00 3.1118014118e+00 
56800 6.7857542910e+00 3.0930793356e-03 1.7965131808e+00 -3.1116521056e+00 1.7965131808e+00 3.1116521056e+00 
56900 6.7857532021e+00 3.0841300175e-03 1.7964270958e+00 -3.1115030021e+00 1.7964270958e+00 3.1115030021e+00 
57000 6.7857520996e+00 3.0706832346e-03 1.7963412558e+00 -3.1113543229e+00 1.7963412558e+00 3.1113543229e+00 
57100 6.7857509907e+00 3.0528408786e-03 1.7962557860e+00 -3.1112062848e+00 1.7962557860e+00 3.1112062848e+00 
57200 6.7857498822e+00 3.0307097406e-03 1.7961708088e+00 -3.1110590999e+00 1.7961708088e+00 3.1110590999e+00 
57300 6.7857487809e+00 3.0044012543e-03 1.7960864436e+00 -3.1109129751e+00 1.7960864436e+00 3.1109129751e+00 
57400 6.7857476932e+00 2.9740312370e-03 1.7960028068e+00 -3.1107681120e+00 1.7960028068e+00 3.1107681120e+00 
57500 6.7857466251e+00 2.9397196272e-03 1.7959200116e+00 -3.1106247065e+00 1.7959200116e+00 3.1106247065e+00 
57600 6.7857455823e+00 2.9015902212e-03 1.7958381679e+00 -3.1104829489e+00 1.7958381679e+00 3.1104829489e+00 
57700 6.7857445703e+00 2.8597704076e-03 1.7957573819e+00 -3.1103430236e+00 1.7957573819e+00 3.1103430236e+00 
57800 6.7857435941e+00 2.8143909015e-03 1.7956777568e+00 -3.1102051088e+00 1.7956777568e+00 3.1102051088e+00 
57900 6.7857426582e+00 2.7655854780e-03 1.7955993917e+00 -3.1100693764e+00 1.7955993917e+00 3.1100693764e+00 
58000 6.7857417669e+00 2.7134907058e-03 1.7955223821e+00 -3.1099359919e+00 1.7955223821e+00 3.1099359919e+00 
58100 6.7857409240e+00 2.6582456814e-03 1.7954468199e+00 -3.1098051144e+00 1.7954468199e+00 3.1098051144e+00 
58200 6.7857401328e+00 2.5999917645e-03 1.7953727930e+00 -3.1096768960e+00 1.7953727930e+00 3.1096768960e+00 
58300 6.7857393963e+00 2.5388723141e-03 1.7953003854e+00 -3.1095514823e+00 1.7953003854e+00 3.1095514823e+00 
58400 6.7857387169e+00 2.4750324277e-03 1.7952296770e+00 -3.1094290118e+00 1.7952296770e+00 3.1094290118e+00 
58500 6.7857380968e+00 2.4086186816e-03 1.7951607439e+00 -3.1093096161e+00 1.7951607439e+00 3.1093096161e+00 
58600 6.7857375375e+00 2.3397788745e-03 1.7950936578e+00 -3.1091934197e+00 1.7950936578e+00 3.1091934197e+00 
58700 6.7857370404e+00 2.2686617742e-03 1.7950284867e+00 -3.1090805401e+00 1.7950284867e+00 3.1090805401e+00 
58800 6.7857366061e+00 2.1954168676e-03 1.7949652942e+00 -3.1089710874e+00 1.7949652942e+00 3.1089710874e+00 
58900 6.7857362351e+00 2.1201941143e-03 1.7949041397e+00 -3.1088651646e+00 1.7949041397e+00 3.1088651646e+00 
59000 6.7857359274e+00 2.0431437051e-03 1.7948450785e+00 -3.1087628677e+00 1.7948450785e+00 3.1087628677e+00 
59100 6.7857356826e+00 1.9644158238e-03 1.7947881618e+00 -3.1086642851e+00 1.7947881618e+00 3.1086642851e+00 
59200 6.7857354999e+00 1.8841604152e-03 1.7947334365e+00 -3.1085694981e+00 1.7947334365e+00 3.1085694981e+00 
59300 6.7857353783e+00 1.8025269567e-03 1.7946809454e+00 -3.1084785809e+00 1.7946809454e+00 3.1084785809e+00 
59400 6.7857353164e+00 1.7196642365e-03 1.7946307271e+00 -3.1083916001e+00 1.7946307271e+00 3.1083916001e+00 
59500 6.7857353123e+00 1.6357201367e-03 1.7945828159e+00 -3.1083086156e+00 1.7945828159e+00 3.1083086156e+00 
59600 6.7857353643e+00 1.5508414221e-03 1.7945372423e+00 -3.1082296797e+00 1.7945372423e+00 3.1082296797e+00 
59700 6.7857354698e+00 1.4651735362e-03 1.7944940324e+00 -3.1081548380e+00 1.7944940324e+00 3.1081548380e+00 
59800 6.7857356266e+00 1.3788604016e-03 1.7944532084e+00 -3.1080841288e+00 1.7944532084e+00 3.1080841288e+00 
59900 6.7857358317e+00 1.2920442287e-03 1.7944147885e+00 -3.1080175835e+00 1.7944147885e+00 3.1080175835e+00 
60000 6.7857360824e+00 1.2048653301e-03 1.7943787868e+00 -3.1079552267e+00 1.7943787868e+00 3.1079552267e+00 
60100 6.7857363754e+00 1.1174619415e-03 1.7943452135e+00 -3.1078970762e+00 1.7943452135e+00 3.1078970762e+00 
60200 6.7857367077e+00 1.0299700504e-03 1.7943140752e+00 -3.1078431430e+00 1.7943140752e+00 3.1078431430e+00 
60300 6.7857370758e+00 9.4252323117e-04 1.7942853743e+00 -3.1077934316e+00 1.7942853743e+00 3.1077934316e+00 
60400 6.7857374763e+00 8.5525248750e-04 1.7942591098e+00 -3.1077479401e+00 1.7942591098e+00 3.1077479401e+00 
60500 6.7857379058e+00 7.6828610212e-04 1.7942352768e+00 -3.1077066602e+00 1.7942352768e+00 3.1077066602e+00 
60600 6.7857383605e+00 6.8174949371e-04 1.7942138670e+00 -3.1076695773e+00 1.7942138670e+00 3.1076695773e+00 
60700 6.7857388370e+00 5.9576508132e-04 1.7941948685e+00 -3.1076366709e+00 1.7941948685e+00 3.1076366709e+00 
60800 6.7857393318e+00 5.1045215613e-04 1.7941782660e+00 -3.1076079145e+00 1.7941782660e+00 3.1076079145e+00 
60900 6.7857398411e+00 4.2592676069e-04 1.7941640407e+00 -3.1075832757e+00 1.7941640407e+00 3.1075832757e+00 
61000 6.7857403615e+00 3.4230157563e-04 1.7941521710e+00 -3.1075627166e+00 1.7941521710e+00 3.1075627166e+00 
61100 6.7857408896e+00 2.5968581385e-04 1.7941426316e+00 -3.1075461940e+00 1.7941426316e+00 3.1075461940e+00 
61200 6.7857414219e+00 1.7818512222e-04 1.7941353946e+00 -3.1075336591e+00 1.7941353946e+00 3.1075336591e+00 
61300 6.7857419552e+00 9.7901490656e-05 1.7941304288e+00 -3.1075250581e+00 1.7941304288e+00 3.1075250581e+00 
61400 6.7857424863e+00 1.8933168723e-05 1.7941277004e+00 -3.1075203324e+00 1.7941277004e+00 3.1075203324e+00 
61500 6.7857430120e+00 -5.7988016916e-05 1.7941277004e+00 -3.1075203324e+00 1.7941277004e+00 3.1075203324e+00 
61600 6.7857435300e+00 -1.3601522270e-04 1.7941277004e+00 -3.1075203324e+00 1.7941277004e+00 3.1075203324e+00 
61700 6.7857440370e+00 -2.1045108109e-04 1.7941314910e+00 -3.1075268979e+00 1.7941314910e+00 3.1075268979e+00 
61800 6.7857445305e+00 -2.8321910166e-04 1.7941373560e+00 -3.1075370563e+00 1.7941373560e+00 3.1075370563e+00 
61900 6.7857450081e+00 -3.5424062227e-04 1.7941452489e+00 -3.1075507272e+00 1.7941452489e+00 3.1075507272e+00 
62000 6.7857454675e+00 -4.2344107448e-04 1.7941551210e+00 -3.1075678263e+00 1.7941551210e+00 3.1075678263e+00 
62100 6.7857459067e+00 -4.9075001655e-04 1.7941669216e+00 -3.1075882655e+00 1.7941669216e+00 3.1075882655e+00 
62200 6.7857463240e+00 -5.5610115953e-04 1.7941805979e+00 -3.1076119535e+00 1.7941805979e+00 3.1076119535e+00 
62300 6.7857467175e+00 -6.1943238674e-04 1.7941960953e+00 -3.1076387958e+00 1.7941960953e+00 3.1076387958e+00 
62400 6.7857470859e+00 -6.8068576651e-04 1.7942133574e+00 -3.1076686947e+00 1.7942133574e+00 3.1076686947e+00 
62500 6.7857474279e+00 -7.3980755870e-04 1.7942323264e+00 -3.1077015499e+00 1.7942323264e+00 3.1077015499e+00 
62600 6.7857477424e+00 -7.9674821460e-04 1.7942529427e+00 -3.1077372584e+00 1.7942529427e+00 3.1077372584e+00 
62700 6.7857480287e+00 -8.5146237092e-04 1.7942751455e+00 -3.1077757148e+00 1.7942751455e+00 3.1077757148e+00 
62800 6.7857482861e+00 -9.0390883750e-04 1.7942988728e+00 -3.1078168116e+00 1.7942988728e+00 3.1078168116e+00 
62900 6.7857485140e+00 -9.5405057926e-04 1.7943240612e+00 -3.1078604392e+00 1.7943240612e+00 3.1078604392e+00 
63000 6.7857487124e+00 -1.0018546924e-03 1.7943506465e+00 -3.1079064863e+00 1.7943506465e+00 3.1079064863e+00 
63100 6.7857488810e+00 -1.0472923748e-03 1.7943785635e+00 -3.1079548399e+00 1.7943785635e+00 3.1079548399e+00 
63200 6.7857490200e+00 -1.0903388915e-03 1.7944077461e+00 -3.1080053858e+00 1.7944077461e+00 3.1080053858e+00 
63300 6.7857491296e+00 -1.1309735343e-03 1.7944381278e+00 -3.1080580084e+00 1.7944381278e+00 3.1080580084e+00 
63400 6.7857492104e+00 -1.1691795765e-03 1.7944696412e+00 -3.1081125912e+00 1.7944696412e+00 3.1081125912e+00 
63500 6.7857492629e+00 -1.2049442231e-03 1.7945022186e+00 -3.1081690169e+00 1.7945022186e+00 3.1081690169e+00 
63600 6.7857492878e+00 -1.2382585554e-03 1.7945357919e+00 -3.1082271676e+00 1.7945357919e+00 3.1082271676e+00 
63700 6.7857492860e+00 -1.2691174721e-03 1.7945702928e+00 -3.1082869249e+00 1.7945702928e+00 3.1082869249e+00 
63800 6.7857492586e+00 -1.2975196249e-03 1.7946056529e+00 -3.1083481703e+00 1.7946056529e+00 3.1083481703e+00 
63900 6.7857492066e+00 -1.3234673507e-03 1.7946418035e+00 -3.1084107851e+00 1.7946418035e+00 3.1084107851e+00 
64000 6.7857491314e+00 -1.3469665996e-03 1.7946786764e+00 -3.1084746508e+00 1.7946786764e+00 3.1084746508e+00 
64100 6.7857490341e+00 -1.3680268583e-03 1.7947162032e+00 -3.1085396492e+00 1.7947162032e+00 3.1085396492e+00 
64200 6.7857489162e+00 -1.3866610711e-03 1.7947543160e+00 -3.1086056624e+00 1.7947543160e+00 3.1086056624e+00 
64300 6.7857487792e+00 -1.4028855565e-03 1.7947929471e+00 -3.1086725734e+00 1.7947929471e+00 3.1086725734e+00 
64400 6.7857486246e+00 -1.4167199205e-03 1.7948320293e+00 -3.1087402658e+00 1.7948320293e+00 3.1087402658e+00 
64500 6.7857484541e+00 -1.4281869673e-03 1.7948714961e+00 -3.1088086243e+00 1.7948714961e+00 3.1088086243e+00 
64600 6.7857482692e+00 -1.4373126066e-03 1.7949112815e+00 -3.1088775346e+00 1.7949112815e+00 3.1088775346e+00 
64700 6.7857480715e+00 -1.4441257584e-03 1.7949513202e+00 -3.1089468836e+00 1.7949513202e+00 3.1089468836e+00 
64800 6.7857478628e+00 -1.4486582551e-03 1.7949915477e+00 -3.1090165598e+00 1.7949915477e+00 3.1090165598e+00 
64900 6.7857476447e+00 -1.4509447412e-03 1.7950319007e+00 -3.1090864532e+00 1.7950319007e+00 3.1090864532e+00 
65000 6.7857474189e+00 -1.4510225711e-03 1.7950723164e+00 -3.1091564553e+00 1.7950723164e+00 3.1091564553e+00 
65100 6.7857471871e+00 -1.4489317042e-03 1.7951127334e+00 -3.1092264595e+00 1.7951127334e+00 3.1092264595e+00 
65200 6.7857469508e+00 -1.4447145991e-03 1.7951530912e+00 -3.1092963613e+00 1.7951530912e+00 3.1092963613e+00 
65300 6.7857467116e+00 -1.4384161051e-03 1.7951933307e+00 -3.1093660581e+00 1.7951933307e+00 3.1093660581e+00 
65400 6.7857464712e+00 -1.4300833532e-03 1.7952333938e+00 -3.1094354495e+00 1.7952333938e+00 3.1094354495e+00 
65500 6.7857462310e+00 -1.4197656452e-03 1.7952732240e+00 -3.1095044374e+00 1.7952732240e+00 3.1095044374e+00 
65600 6.7857459924e+00 -1.4075143419e-03 1.7953127659e+00 -3.1095729260e+00 1.7953127659e+00 3.1095729260e+00 
65700 6.7857457569e+00 -1.3933827500e-03 1.7953519657e+00 -3.1096408221e+00 1.7953519657e+00 3.1096408221e+00 
65800 6.7857455258e+00 -1.3774260089e-03 1.7953907711e+00 -3.1097080351e+00 1.7953907711e+00 3.1097080351e+00 
65900 6.7857453003e+00 -1.3597009762e-03 1.7954291313e+00 -3.1097744769e+00 1.7954291313e+00 3.1097744769e+00 
66000 6.7857450815e+00 -1.3402661134e-03 1.7954669971e+00 -3.1098400623e+00 1.7954669971e+00 3.1098400623e+00 
66100 6.7857448707e+00 -1.3191813707e-03 1.7955043208e+00 -3.1099047089e+00 1.7955043208e+00 3.1099047089e+00 
66200 6.7857446687e+00 -1.2965080719e-03 1.7955410566e+00 -3.1099683372e+00 1.7955410566e+00 3.1099683372e+00 
66300 6.7857444765e+00 -1.2723087997e-03 1.7955771603e+00 -3.1100308706e+00 1.7955771603e+00 3.1100308706e+00 
66400 6.7857442948e+00 -1.2466472810e-03 1.7956125894e+00 -3.1100922355e+00 1.7956125894e+00 3.1100922355e+00 
66500 6.7857441245e+00 -1.2195882722e-03 1.7956473032e+00 -3.1101523616e+00 1.7956473032e+00 3.1101523616e+00 
66600 6.7857439662e+00 -1.1911974455e-03 1.7956812629e+00 -3.1102111815e+00 1.7956812629e+00 3.1102111815e+00 
66700 6.7857438203e+00 -1.1615412758e-03 1.7957144314e+00 -3.1102686311e+00 1.7957144314e+00 3.1102686311e+00 
66800 6.7857436874e+00 -1.1306869281e-03 1.7957467735e+00 -3.1103246493e+00 1.7957467735e+00 3.1103246493e+00 
66900 6.7857435677e+00 -1.0987021464e-03 1.7957782560e+00 -3.1103791785e+00 1.7957782560e+00 3.1103791785e+00 
67000 6.7857434616e+00 -1.0656551430e-03 1.7958088473e+00 -3.1104321642e+00 1.7958088473e+00 3.1104321642e+00 
67100 6.7857433692e+00 -1.0316144897e-03 1.7958385180e+00 -3.1104835554e+00 1.7958385180e+00 3.1104835554e+00 
67200 6.7857432906e+00 -9.9664900981e-04 1.7958672405e+00 -3.1105333041e+00 1.7958672405e+00 3.1105333041e+00 
67300 6.7857432258e+00 -9.6082767237e-04 1.7958949889e+00 -3.1105813659e+00 1.7958949889e+00 3.1105813659e+00 
67400 6.7857431746e+00 -9.2421948710e-04 1.7959217397e+00 -3.1106276995e+00 1.7959217397e+00 3.1106276995e+00 
67500 6.7857431371e+00 -8.8689340174e-04 1.7959474708e+00 -3.1106722671e+00 1.7959474708e+00 3.1106722671e+00 
67600 6.7857431128e+00 -8.4891820108e-04 1.7959721624e+00 -3.1107150342e+00 1.7959721624e+00 3.1107150342e+00 
67700 6.7857431015e+00 -8.1036240785e-04 1.7959957964e+00 -3.1107559695e+00 1.7959957964e+00 3.1107559695e+00 
67800 6.7857431028e+00 -7.7129418585e-04 1.7960183567e+00 -3.1107950451e+00 1.7960183567e+00 3.1107950451e+00 
67900 6.7857431163e+00 -7.3178124515e-04 1.7960398290e+00 -3.1108322363e+00 1.7960398290e+00 3.1108322363e+00 
68000 6.7857431415e+00 -6.9189074963e-04 1.7960602012e+00 -3.1108675218e+00 1.7960602012e+00 3.1108675218e+00 
68100 6.7857431778e+00 -6.5168922691e-04 1.7960794625e+00 -3.1109008835e+00 1.7960794625e+00 3.1109008835e+00 
68200 6.7857432246e+00 -6.1124248072e-04 1.7960976046e+00 -3.1109323064e+00 1.7960976046e+00 3.1109323064e+00 
68300 6.7857432814e+00 -5.7061550582e-04 1.7961146204e+00 -3.1109617788e+00 1.7961146204e+00 3.1109617788e+00 
68400 6.7857433473e+00 -5.2987240562e-04 1.7961305052e+00 -3.1109892920e+00 1.7961305052e+00 3.1109892920e+00 
68500 6.7857434219e+00 -4.8907631248e-04 1.7961452556e+00 -3.1110148404e+00 1.7961452556e+00 3.1110148404e+00 
68600 6.7857435042e+00 -4.4828931074e-04 1.7961588702e+00 -3.1110384217e+00 1.7961588702e+00 3.1110384217e+00 
68700 6.7857435935e+00 -4.0757236274e-04 1.7961713493e+00 -3.1110600361e+00 1.7961713493e+00 3.1110600361e+00 
68800 6.7857436892e+00 -3.6698523763e-04 1.7961826949e+00 -3.1110796873e+00 1.7961826949e+00 3.1110796873e+00 
68900 6.7857437904e+00 -3.2658644323e-04 1.7961929106e+00 -3.1110973814e+00 1.7961929106e+00 3.1110973814e+00 
69000 6.7857438963e+00 -2.8643316089e-04 1.7962020017e+00 -3.1111131276e+00 1.7962020017e+00 3.1111131276e+00 
69100 6.7857440061e+00 -2.4658118342e-04 1.7962099750e+00 -3.1111269378e+00 1.7962099750e+00 3.1111269378e+00 
69200 6.7857441192e+00 -2.0708485618e-04 1.7962168390e+00 -3.1111388265e+00 1.7962168390e+00 3.1111388265e+00 
69300 6.7857442346e+00 -1.6799702124e-04 1.7962226034e+00 -3.1111488109e+00 1.7962226034e+00 3.1111488109e+00 
69400 6.7857443517e+00 -1.2936896482e-04 1.7962272798e+00 -3.1111569106e+00 1.7962272798e+00 3.1111569106e+00 
69500 6.7857444698e+00 -9.1250367866e-05 1.7962308810e+00 -3.1111631480e+00 1.7962308810e+00 3.1111631480e+00 
69600 6.7857445880e+00 -5.3689259935e-05 1.7962334210e+00 -3.1111675475e+00 1.7962334210e+00 3.1111675475e+00 
69700 6.7857447057e+00 -1.8529452975e-05 1.7962334210e+00 -3.1111675475e+00 1.7962334210e+00 3.1111675475e+00 
69800 6.7857448222e+00 1.7205987470e-05 1.7962334210e+00 -3.1111675475e+00 1.7962334210e+00 3.1111675475e+00 
69900 6.7857449368e+00 5.3460659333e-05 1.7962334210e+00 -3.1111675475e+00 1.7962334210e+00 3.1111675475e+00 
70000 6.7857450494e+00 9.0179137850e-05 1.7962334210e+00 -3.1111675475e+00 1.7962334210e+00 3.1111675475e+00 
70100 6.7857451588e+00 1.2428751420e-04 1.7962309108e+00 -3.1111631996e+00 1.7962309108e+00 3.1111631996e+00 
70200 6.7857452648e+00 1.5758748185e-04 1.7962274511e+00 -3.1111572073e+00 1.7962274511e+00 3.1111572073e+00 
70300 6.7857453668e+00 1.9004356930e-04 1.7962230645e+00 -3.1111496094e+00 1.7962230645e+00 3.1111496094e+00 
70400 6.7857454644e+00 2.2162220898e-04 1.7962177744e+00 -3.1111404467e+00 1.7962177744e+00 3.1111404467e+00 
70500 6.7857455572e+00 2.5229175412e-04 1.7962116053e+00 -3.1111297615e+00 1.7962116053e+00 3.1111297615e+00 
70600 6.7857456447e+00 2.8202249239e-04 1.7962045824e+00 -3.1111175975e+00 1.7962045824e+00 3.1111175975e+00 
70700 6.7857457268e+00 3.1078665643e-04 1.7961967319e+00 -3.1111040000e+00 1.7961967319e+00 3.1111040000e+00 
70800 6.7857458031e+00 3.3855843125e-04 1.7961880807e+00 -3.1110890156e+00 1.7961880807e+00 3.1110890156e+00 
70900 6.7857458733e+00 3.6531395855e-04 1.7961786563e+00 -3.1110726922e+00 1.7961786563e+00 3.1110726922e+00 
71000 6.7857459374e+00 3.9103133803e-04 1.7961684871e+00 -3.1110550786e+00 1.7961684871e+00 3.1110550786e+00 
71100 6.7857459951e+00 4.1569062565e-04 1.7961576020e+00 -3.1110362250e+00 1.7961576020e+00 3.1110362250e+00 
71200 6.7857460464e+00 4.3927382906e-04 1.7961460303e+00 -3.1110161823e+00 1.7961460303e+00 3.1110161823e+00 
71300 6.7857460912e+00 4.6176490008e-04 1.7961338021e+00 -3.1109950024e+00 1.7961338021e+00 3.1109950024e+00 
71400 6.7857461294e+00 4.8314972436e-04 1.7961209477e+00 -3.1109727380e+00 1.7961209477e+00 3.1109727380e+00 
71500 6.7857461612e+00 5.0341610832e-04 1.7961074979e+00 -3.1109494422e+00 1.7961074979e+00 3.1109494422e+00 
71600 6.7857461865e+00 5.2255376338e-04 1.7960934838e+00 -3.1109251692e+00 1.7960934838e+00 3.1109251692e+00 
71700 6.7857462054e+00 5.4055428758e-04 1.7960789369e+00 -3.1108999731e+00 1.7960789369e+00 3.1108999731e+00 
71800 6.7857462181e+00 5.5741114466e-04 1.7960638888e+00 -3.1108739090e+00 1.7960638888e+00 3.1108739090e+00 
71900 6.7857462248e+00 5.7311964062e-04 1.7960483712e+00 -3.1108470318e+00 1.7960483712e+00 3.1108470318e+00 
72000 6.7857462256e+00 5.8767689795e-04 1.7960324162e+00 -3.1108193969e+00 1.7960324162e+00 3.1108193969e+00 
72100 6.7857462207e+00 6.0108182750e-04 1.7960160558e+00 -3.1107910599e+00 1.7960160558e+00 3.1107910599e+00 
72200 6.7857462105e+00 6.1333509817e-04 1.7959993221e+00 -3.1107620762e+00 1.7959993221e+00 3.1107620762e+00 
72300 6.7857461951e+00 6.2443910437e-04 1.7959822471e+00 -3.1107325014e+00 1.7959822471e+00 3.1107325014e+00 
72400 6.7857461748e+00 6.3439793151e-04 1.7959648628e+00 -3.1107023909e+00 1.7959648628e+00 3.1107023909e+00 
72500 6.7857461500e+00 6.4321731948e-04 1.7959472010e+00 -3.1106717999e+00 1.7959472010e+00 3.1106717999e+00 
72600 6.7857461210e+00 6.5090462421e-04 1.7959292936e+00 -3.1106407833e+00 1.7959292936e+00 3.1106407833e+00 
72700 6.7857460881e+00 6.5746877758e-04 1.7959111720e+00 -3.1106093957e+00 1.7959111720e+00 3.1106093957e+00 
72800 6.7857460517e+00 6.6292024545e-04 1.7958928674e+00 -3.1105776913e+00 1.7958928674e+00 3.1105776913e+00 
72900 6.7857460121e+00 6.6727098422e-04 1.7958744109e+00 -3.1105457236e+00 1.7958744109e+00 3.1105457236e+00 
73000 6.7857459697e+00 6.7053439590e-04 1.7958558330e+00 -3.1105135458e+00 1.7958558330e+00 3.1105135458e+00 
73100 6.7857459248e+00 6.7272528166e-04 1.7958371641e+00 -3.1104812104e+00 1.7958371641e+00 3.1104812104e+00 
73200 6.7857458779e+00 6.7385979418e-04 1.7958184340e+00 -3.1104487689e+00 1.7958184340e+00 3.1104487689e+00 
73300 6.7857458292e+00 6.7395538874e-04 1.7957996721e+00 -3.1104162723e+00 1.7957996721e+00 3.1104162723e+00 
73400 6.7857457792e+00 6.7303077321e-04 1.7957809074e+00 -3.1103837709e+00 1.7957809074e+00 3.1103837709e+00 
73500 6.7857457281e+00 6.7110585701e-04 1.7957621682e+00 -3.1103513136e+00 1.7957621682e+00 3.1103513136e+00 
73600 6.7857456765e+00 6.6820169918e-04 1.7957434824e+00 -3.1103189489e+00 1.7957434824e+00 3.1103189489e+00 
73700 6.7857456245e+00 6.6434045559e-04 1.7957248773e+00 -3.1102867239e+00 1.7957248773e+00 3.1102867239e+00 
73800 6.7857455725e+00 6.5954532546e-04 1.7957063795e+00 -3.1102546847e+00 1.7957063795e+00 3.1102546847e+00 
73900 6.7857455209e+00 6.5384049723e-04 1.7956880150e+00 -3.1102228765e+00 1.7956880150e+00 3.1102228765e+00 
74000 6.7857454700e+00 6.4725109395e-04 1.7956698092e+00 -3.1101913431e+00 1.7956698092e+00 3.1101913431e+00 
74100 6.7857454200e+00 6.3980311813e-04 1.7956517867e+00 -3.1101601272e+00 1.7956517867e+00 3.1101601272e+00 
74200 6.7857453712e+00 6.3152339636e-04 1.7956339714e+00 -3.1101292702e+00 1.7956339714e+00 3.1101292702e+00 
74300 6.7857453239e+00 6.2243952363e-04 1.7956163864e+00 -3.1100988122e+00 1.7956163864e+00 3.1100988122e+00 
74400 6.7857452783e+00 6.1257980747e-04 1.7955990542e+00 -3.1100687920e+00 1.7955990542e+00 3.1100687920e+00 
74500 6.7857452346e+00 6.0197321205e-04 1.7955819965e+00 -3.1100392470e+00 1.7955819965e+00 3.1100392470e+00 
74600 6.7857451931e+00 5.9064930232e-04 1.7955652339e+00 -3.1100102134e+00 1.7955652339e+00 3.1100102134e+00 
74700 6.7857451539e+00 5.7863818818e-04 1.7955487864e+00 -3.1099817256e+00 1.7955487864e+00 3.1099817256e+00 
74800 6.7857451172e+00 5.6597046897e-04 1.7955326733e+00 -3.1099538169e+00 1.7955326733e+00 3.1099538169e+00 
74900 6.7857450830e+00 5.5267717806e-04 1.7955169128e+00 -3.1099265189e+00 1.7955169128e+00 3.1099265189e+00 
75000 6.7857450517e+00 5.3878972796e-04 1.7955015224e+00 -3.1098998618e+00 1.7955015224e+00 3.1098998618e+00 
75100 6.7857450231e+00 5.2433985581e-04 1.7954865185e+00 -3.1098738744e+00 1.7954865185e+00 3.1098738744e+00 
75200 6.7857449975e+00 5.0935956926e-04 1.7954719169e+00 -3.1098485837e+00 1.7954719169e+00 3.1098485837e+00 
75300 6.7857449748e+00 4.9388109316e-04 1.7954577324e+00 -3.1098240154e+00 1.7954577324e+00 3.1098240154e+00 
75400 6.7857449551e+00 4.7793681672e-04 1.7954439788e+00 -3.1098001934e+00 1.7954439788e+00 3.1098001934e+00 
75500 6.7857449385e+00 4.6155924146e-04 1.7954306691e+00 -3.1097771403e+00 1.7954306691e+00 3.1097771403e+00 
75600 6.7857449249e+00 4.4478092996e-04 1.7954178154e+00 -3.1097548771e+00 1.7954178154e+00 3.1097548771e+00 
75700 6.7857449143e+00 4.2763445548e-04 1.7954054288e+00 -3.1097334229e+00 1.7954054288e+00 3.1097334229e+00 
75800 6.7857449066e+00 4.1015235244e-04 1.7953935197e+00 -3.1097127957e+00 1.7953935197e+00 3.1097127957e+00 
75900 6.7857449019e+00 3.9236706796e-04 1.7953820974e+00 -3.1096930117e+00 1.7953820974e+00 3.1096930117e+00 
76000 6.7857449000e+00 3.7431091434e-04 1.7953711703e+00 -3.1096740854e+00 1.7953711703e+00 3.1096740854e+00 
76100 6.7857449009e+00 3.5601602269e-04 1.7953607460e+00 -3.1096560299e+00 1.7953607460e+00 3.1096560299e+00 
76200 6.7857449045e+00 3.3751429771e-04 1.7953508311e+00 -3.1096388568e+00 1.7953508311e+00 3.1096388568e+00 
76300 6.7857449106e+00 3.1883737359e-04 1.7953414314e+00 -3.1096225761e+00 1.7953414314e+00 3.1096225761e+00 
76400 6.7857449192e+00 3.0001657122e-04 1.7953325518e+00 -3.1096071963e+00 1.7953325518e+00 3.1096071963e+00 
76500 6.7857449301e+00 2.8108285657e-04 1.7953241964e+00 -3.1095927242e+00 1.7953241964e+00 3.1095927242e+00 
76600 6.7857449431e+00 2.6206680052e-04 1.7953163682e+00 -3.1095791654e+00 1.7953163682e+00 3.1095791654e+00 
76700 6.7857449582e+00 2.4299853990e-04 1.7953090696e+00 -3.1095665238e+00 1.7953090696e+00 3.1095665238e+00 
76800 6.7857449751e+00 2.2390774004e-04 1.7953023020e+00 -3.1095548020e+00 1.7953023020e+00 3.1095548020e+00 
76900 6.7857449938e+00 2.0482355858e-04 1.7952960661e+00 -3.1095440010e+00 1.7952960661e+00 3.1095440010e+00 
77000 6.7857450140e+00 1.8577461091e-04 1.7952903616e+00 -3.1095341207e+00 1.7952903616e+00 3.1095341207e+00 
77100 6.7857450355e+00 1.6678893692e-04 1.7952851877e+00 -3.1095251591e+00 1.7952851877e+00 3.1095251591e+00 
77200 6.7857450583e+00 1.4789396932e-04 1.7952805425e+00 -3.1095171134e+00 1.7952805425e+00 3.1095171134e+00 
77300 6.7857450821e+00 1.2911650344e-04 1.7952764235e+00 -3.1095099792e+00 1.7952764235e+00 3.1095099792e+00 
77400 6.7857451068e+00 1.1048266856e-04 1.7952728275e+00 -3.1095037507e+00 1.7952728275e+00 3.1095037507e+00 
77500 6.7857451321e+00 9.2017900788e-05 1.7952697505e+00 -3.1094984211e+00 1.7952697505e+00 3.1094984211e+00 
77600 6.7857451580e+00 7.3746917521e-05 1.7952671877e+00 -3.1094939822e+00 1.7952671877e+00 3.1094939822e+00 
77700 6.7857451842e+00 5.5693693374e-05 1.7952651338e+00 -3.1094904247e+00 1.7952651338e+00 3.1094904247e+00 
77800 6.7857452107e+00 3.9750862093e-05 1.7952651338e+00 -3.1094904247e+00 1.7952651338e+00 3.1094904247e+00 
77900 6.7857452371e+00 2.3487159325e-05 1.7952651338e+00 -3.1094904247e+00 1.7952651338e+00 3.1094904247e+00 
78000 6.7857452633e+00 6.9297693514e-06 1.7952651338e+00 -3.1094904247e+00 1.7952651338e+00 3.1094904247e+00 
78100 6.7857452893e+00 -9.8945511152e-06 1.7952651338e+00 -3.1094904247e+00 1.7952651338e+00 3.1094904247e+00 
78200 6.7857453149e+00 -2.6959489227e-05 1.7952651338e+00 -3.1094904247e+00 1.7952651338e+00 3.1094904247e+00 
78300 6.7857453400e+00 -4.4239191473e-05 1.7952651338e+00 -3.1094904247e+00 1.7952651338e+00 3.1094904247e+00 
78400 6.7857453645e+00 -6.1708278345e-05 1.7952651338e+00 -3.1094904247e+00 1.7952651338e+00 3.1094904247e+00 
78500 6.7857453884e+00 -7.9341858161e-05 1.7952651338e+00 -3.1094904247e+00 1.7952651338e+00 3.1094904247e+00 
78600 6.7857454113e+00 -9.4452639946e-05 1.7952673435e+00 -3.1094942521e+00 1.7952673435e+00 3.1094942521e+00 
78700 6.7857454332e+00 -1.0915311710e-04 1.7952699741e+00 -3.1094988085e+00 1.7952699741e+00 3.1094988085e+00 
78800 6.7857454540e+00 -1.2342849479e-04 1.7952730141e+00 -3.1095040739e+00 1.7952730141e+00 3.1095040739e+00 
78900 6.7857454737e+00 -1.3726489283e-04 1.7952764517e+00 -3.1095100280e+00 1.7952764517e+00 3.1095100280e+00 
79000 6.7857454922e+00 -1.5064934955e-04 1.7952802747e+00 -3.1095166496e+00 1.7952802747e+00 3.1095166496e+00 
79100 6.7857455094e+00 -1.6356982406e-04 1.7952844704e+00 -3.1095239167e+00 1.7952844704e+00 3.1095239167e+00 
79200 6.7857455253e+00 -1.7601519727e-04 1.7952890259e+00 -3.1095318072e+00 1.7952890259e+00 3.1095318072e+00 
79300 6.7857455398e+00 -1.8797527138e-04 1.7952939281e+00 -3.1095402979e+00 1.7952939281e+00 3.1095402979e+00 
79400 6.7857455529e+00 -1.9944076812e-04 1.7952991633e+00 -3.1095493656e+00 1.7952991633e+00 3.1095493656e+00 
79500 6.7857455646e+00 -2.1040332559e-04 1.7953047178e+00 -3.1095589863e+00 1.7953047178e+00 3.1095589863e+00 
79600 6.7857455748e+00 -2.2085549380e-04 1.7953105777e+00 -3.1095691359e+00 1.7953105777e+00 3.1095691359e+00 
79700 6.7857455836e+00 -2.3079072898e-04 1.7953167286e+00 -3.1095797895e+00 1.7953167286e+00 3.1095797895e+00 
79800 6.7857455910e+00 -2.4020338662e-04 1.7953231561e+00 -3.1095909224e+00 1.7953231561e+00 3.1095909224e+00 
79900 6.7857455969e+00 -2.4908871330e-04 1.7953298458e+00 -3.1096025093e+00 1.7953298458e+00 3.1096025093e+00 
80000 6.7857456015e+00 -2.5744283736e-04 1.7953367830e+00 -3.1096145248e+00 1.7953367830e+00 3.1096145248e+00 
80100 6.7857456047e+00 -2.6526275843e-04 1.7953439527e+00 -3.1096269432e+00 1.7953439527e+00 3.1096269432e+00 
80200 6.7857456065e+00 -2.7254633585e-04 1.7953513403e+00 -3.1096397388e+00 1.7953513403e+00 3.1096397388e+00 
80300 6.7857456071e+00 -2.7929227602e-04 1.7953589306e+00 -3.1096528856e+00 1.7953589306e+00 3.1096528856e+00 
80400 6.7857456064e+00 -2.8550011877e-04 1.7953667088e+00 -3.1096663578e+00 1.7953667088e+00 3.1096663578e+00 
80500 6.7857456045e+00 -2.9117022268e-04 1.7953746598e+00 -3.1096801294e+00 1.7953746598e+00 3.1096801294e+00 
80600 6.7857456015e+00 -2.9630374952e-04 1.7953827687e+00 -3.1096941745e+00 1.7953827687e+00 3.1096941745e+00 
80700 6.7857455975e+00 -3.0090264770e-04 1.7953910206e+00 -3.1097084670e+00 1.7953910206e+00 3.1097084670e+00 
80800 6.7857455924e+00 -3.0496963496e-04 1.7953994004e+00 -3.1097229814e+00 1.7953994004e+00 3.1097229814e+00 
80900 6.7857455864e+00 -3.0850818013e-04 1.7954078935e+00 -3.1097376919e+00 1.7954078935e+00 3.1097376919e+00 
81000 6.7857455795e+00 -3.1152248418e-04 1.7954164851e+00 -3.1097525730e+00 1.7954164851e+00 3.1097525730e+00 
81100 6.7857455719e+00 -3.1401746053e-04 1.7954251606e+00 -3.1097675994e+00 1.7954251606e+00 3.1097675994e+00 
81200 6.7857455635e+00 -3.1599871458e-04 1.7954339056e+00 -3.1097827461e+00 1.7954339056e+00 3.1097827461e+00 
81300 6.7857455546e+00 -3.1747252272e-04 1.7954427056e+00 -3.1097979882e+00 1.7954427056e+00 3.1097979882e+00 
81400 6.7857455451e+00 -3.1844581062e-04 1.7954515467e+00 -3.1098133014e+00 1.7954515467e+00 3.1098133014e+00 
81500 6.7857455351e+00 -3.1892613094e-04 1.7954604148e+00 -3.1098286615e+00 1.7954604148e+00 3.1098286615e+00 
81600 6.7857455248e+00 -3.1892164067e-04 1.7954692963e+00 -3.1098440446e+00 1.7954692963e+00 3.1098440446e+00 
81700 6.7857455141e+00 -3.1844107777e-04 1.7954781776e+00 -3.1098594275e+00 1.7954781776e+00 3.1098594275e+00 
81800 6.7857455033e+00 -3.1749373757e-04 1.7954870455e+00 -3.1098747871e+00 1.7954870455e+00 3.1098747871e+00 
81900 6.7857454923e+00 -3.1608944859e-04 1.7954958869e+00 -3.1098901009e+00 1.7954958869e+00 3.1098901009e+00 
82000 6.7857454812e+00 -3.1423854817e-04 1.7955046892e+00 -3.1099053469e+00 1.7955046892e+00 3.1099053469e+00 
82100 6.7857454701e+00 -3.1195185771e-04 1.7955134399e+00 -3.1099205036e+00 1.7955134399e+00 3.1099205036e+00 
82200 6.7857454591e+00 -3.0924065761e-04 1.7955221269e+00 -3.1099355499e+00 1.7955221269e+00 3.1099355499e+00 
82300 6.7857454483e+00 -3.0611666205e-04 1.7955307384e+00 -3.1099504654e+00 1.7955307384e+00 3.1099504654e+00 
82400 6.7857454376e+00 -3.0259199353e-04 1.7955392628e+00 -3.1099652301e+00 1.7955392628e+00 3.1099652301e+00 
82500 6.7857454272e+00 -2.9867915731e-04 1.7955476890e+00 -3.1099798247e+00 1.7955476890e+00 3.1099798247e+00 
82600 6.7857454171e+00 -2.9439101571e-04 1.7955560062e+00 -3.1099942306e+00 1.7955560062e+00 3.1099942306e+00 
82700 6.7857454074e+00 -2.8974076237e-04 1.7955642040e+00 -3.1100084295e+00 1.7955642040e+00 3.1100084295e+00 
82800 6.7857453982e+00 -2.8474189642e-04 1.7955722722e+00 -3.1100224042e+00 1.7955722722e+00 3.1100224042e+00 
82900 6.7857453894e+00 -2.7940819678e-04 1.7955802012e+00 -3.1100361376e+00 1.7955802012e+00 3.1100361376e+00 
83000 6.7857453810e+00 -2.7375369637e-04 1.7955879817e+00 -3.1100496137e+00 1.7955879817e+00 3.1100496137e+00 
83100 6.7857453733e+00 -2.6779265654e-04 1.7955956046e+00 -3.1100628171e+00 1.7955956046e+00 3.1100628171e+00 
83200 6.7857453661e+00 -2.6153954151e-04 1.7956030616e+00 -3.1100757329e+00 1.7956030616e+00 3.1100757329e+00 
83300 6.7857453595e+00 -2.5500899303e-04 1.7956103444e+00 -3.1100883470e+00 1.7956103444e+00 3.1100883470e+00 
83400 6.7857453535e+00 -2.4821580524e-04 1.7956174453e+00 -3.1101006462e+00 1.7956174453e+00 3.1101006462e+00 
83500 6.7857453482e+00 -2.4117489971e-04 1.7956243570e+00 -3.1101126176e+00 1.7956243570e+00 3.1101126176e+00 
83600 6.7857453435e+00 -2.3390130078e-04 1.7956310726e+00 -3.1101242494e+00 1.7956310726e+00 3.1101242494e+00 
83700 6.7857453394e+00 -2.2641011118e-04 1.7956375857e+00 -3.1101355304e+00 1.7956375857e+00 3.1101355304e+00 
83800 6.7857453360e+00 -2.1871648794e-04 1.7956438901e+00 -3.1101464500e+00 1.7956438901e+00 3.1101464500e+00 
83900 6.7857453333e+00 -2.1083561871e-04 1.7956499803e+00 -3.1101569986e+00 1.7956499803e+00 3.1101569986e+00 
84000 6.7857453313e+00 -2.0278269844e-04 1.7956558511e+00 -3.1101671670e+00 1.7956558511e+00 3.1101671670e+00 
84100 6.7857453298e+00 -1.9457290642e-04 1.7956614976e+00 -3.1101769470e+00 1.7956614976e+00 3.1101769470e+00 
84200 6.7857453291e+00 -1.8622138381e-04 1.7956669154e+00 -3.1101863310e+00 1.7956669154e+00 3.1101863310e+00 
84300 6.7857453289e+00 -1.7774321166e-04 1.7956721007e+00 -3.1101953122e+00 1.7956721007e+00 3.1101953122e+00 
84400 6.7857453293e+00 -1.6915338929e-04 1.7956770499e+00 -3.1102038845e+00 1.7956770499e+00 3.1102038845e+00 
84500 6.7857453304e+00 -1.6046681333e-04 1.7956817600e+00 -3.1102120425e+00 1.7956817600e+00 3.1102120425e+00 
84600 6.7857453320e+00 -1.5169825719e-04 1.7956862281e+00 -3.1102197815e+00 1.7956862281e+00 3.1102197815e+00 
84700 6.7857453341e+00 -1.4286235110e-04 1.7956904520e+00 -3.1102270976e+00 1.7956904520e+00 3.1102270976e+00 
84800 6.7857453367e+00 -1.3397356277e-04 1.7956944300e+00 -3.1102339876e+00 1.7956944300e+00 3.1102339876e+00 
84900 6.7857453398e+00 -1.2504617857e-04 1.7956981604e+00 -3.1102404488e+00 1.7956981604e+00 3.1102404488e+00 
85000 6.7857453433e+00 -1.1609428538e-04 1.7957016422e+00 -3.1102464795e+00 1.7957016422e+00 3.1102464795e+00 
85100 6.7857453473e+00 -1.0713175301e-04 1.7957048748e+00 -3.1102520785e+00 1.7957048748e+00 3.1102520785e+00 
85200 6.7857453516e+00 -9.8172217301e-05 1.7957078578e+00 -3.1102572452e+00 1.7957078578e+00 3.1102572452e+00 
85300 6.7857453563e+00 -8.9229063885e-05 1.7957105913e+00 -3.1102619798e+00 1.7957105913e+00 3.1102619798e+00 
85400 6.7857453612e+00 -8.0315412546e-05 1.7957130758e+00 -3.1102662831e+00 1.7957130758e+00 3.1102662831e+00 
85500 6.7857453664e+00 -7.1444102342e-05 1.7957153121e+00 -3.1102701565e+00 1.7957153121e+00 3.1102701565e+00 
85600 6.7857453719e+00 -6.2627677365e-05 1.7957173014e+00 -3.1102736021e+00 1.7957173014e+00 3.1102736021e+00 
85700 6.7857453776e+00 -5.5977863294e-05 1.7957173014e+00 -3.1102736021e+00 1.7957173014e+00 3.1102736021e+00 
85800 6.7857453834e+00 -4.9129164411e-05 1.7957173014e+00 -3.1102736021e+00 1.7957173014e+00 3.1102736021e+00 
85900 6.7857453893e+00 -4.2094869866e-05 1.7957173014e+00 -3.1102736021e+00 1.7957173014e+00 3.1102736021e+00 
86000 6.7857453952e+00 -3.4888103759e-05 1.7957173014e+00 -3.1102736021e+00 1.7957173014e+00 3.1102736021e+00 
86100 6.7857454011e+00 -2.7521816156e-05 1.7957173014e+00 -3.1102736021e+00 1.7957173014e+00 3.1102736021e+00 
86200 6.7857454070e+00 -2.0008774507e-05 1.7957173014e+00 -3.1102736021e+00 1.7957173014e+00 3.1102736021e+00 
86300 6.7857454129e+00 -1.2361555399e-05 1.7957173014e+00 -3.1102736021e+00 1.7957173014e+00 3.1102736021e+00 
86400 6.7857454187e+00 -4.5925367432e-06 1.7957173014e+00 -3.1102736021e+00 1.7957173014e+00 3.1102736021e+00 
86500 6.7857454244e+00 3.2861097141e-06 1.7957173014e+00 -3.1102736021e+00 1.7957173014e+00 3.1102736021e+00 
86600 6.7857454299e+00 1.1262425491e-05 1.7957173014e+00 -3.1102736021e+00 1.7957173014e+00 3.1102736021e+00 
86700 6.7857454354e+00 1.9324672083e-05 1.7957173014e+00 -3.1102736021e+00 1.7957173014e+00 3.1102736021e+00 
86800 6.7857454407e+00 2.7461337325e-05 1.7957173014e+00 -3.1102736021e+00 1.7957173014e+00 3.1102736021e+00 
86900 6.7857454459e+00 3.5661141377e-05 1.7957173014e+00 -3.1102736021e+00 1.7957173014e+00 3.1102736021e+00 
87000 6.7857454509e+00 4.3913042335e-05 1.7957173014e+00 -3.1102736021e+00 1.7957173014e+00 3.1102736021e+00 
87100 6.7857454557e+00 5.2206241503e-05 1.7957173014e+00 -3.1102736021e+00 1.7957173014e+00 3.1102736021e+00 
87200 6.7857454602e+00 6.0530188278e-05 1.7957173014e+00 -3.1102736021e+00 1.7957173014e+00 3.1102736021e+00 
87300 6.7857454646e+00 6.8874584689e-05 1.7957173014e+00 -3.1102736021e+00 1.7957173014e+00 3.1102736021e+00 
87400 6.7857454688e+00 7.7229389579e-05 1.7957173014e+00 -3.1102736021e+00 1.7957173014e+00 3.1102736021e+00 
87500 6.7857454725e+00 8.2995535195e-05 1.7957151510e+00 -3.1102698775e+00 1.7957151510e+00 3.1102698775e+00 
87600 6.7857454759e+00 8.8540476029e-05 1.7957128401e+00 -3.1102658749e+00 1.7957128401e+00 3.1102658749e+00 
87700 6.7857454790e+00 9.3859468744e-05 1.7957103748e+00 -3.1102616048e+00 1.7957103748e+00 3.1102616048e+00 
87800 6.7857454818e+00 9.8948214601e-05 1.7957077613e+00 -3.1102570782e+00 1.7957077613e+00 3.1102570782e+00 
87900 6.7857454843e+00 1.0380285704e-04 1.7957050062e+00 -3.1102523062e+00 1.7957050062e+00 3.1102523062e+00 
88000 6.7857454864e+00 1.0841997868e-04 1.7957021159e+00 -3.1102473000e+00 1.7957021159e+00 3.1102473000e+00 
88100 6.7857454883e+00 1.1279659775e-04 1.7956990970e+00 -3.1102420712e+00 1.7956990970e+00 3.1102420712e+00 
88200 6.7857454898e+00 1.1693016394e-04 1.7956959563e+00 -3.1102366312e+00 1.7956959563e+00 3.1102366312e+00 
88300 6.7857454910e+00 1.2081855375e-04 1.7956927004e+00 -3.1102309919e+00 1.7956927004e+00 3.1102309919e+00 
88400 6.7857454919e+00 1.2446006526e-04 1.7956893363e+00 -3.1102251651e+00 1.7956893363e+00 3.1102251651e+00 
88500 6.7857454925e+00 1.2785341247e-04 1.7956858708e+00 -3.1102191627e+00 1.7956858708e+00 3.1102191627e+00 
88600 6.7857454928e+00 1.3099771904e-04 1.7956823108e+00 -3.1102129965e+00 1.7956823108e+00 3.1102129965e+00 
88700 6.7857454928e+00 1.3389251164e-04 1.7956786632e+00 -3.1102066787e+00 1.7956786632e+00 3.1102066787e+00 
88800 6.7857454926e+00 1.3653771279e-04 1.7956749350e+00 -3.1102002213e+00 1.7956749350e+00 3.1102002213e+00 
88900 6.7857454921e+00 1.3893363327e-04 1.7956711332e+00 -3.1101936363e+00 1.7956711332e+00 3.1101936363e+00 
89000 6.7857454914e+00 1.4108096414e-04 1.7956672646e+00 -3.1101869358e+00 1.7956672646e+00 3.1101869358e+00 
89100 6.7857454905e+00 1.4298076826e-04 1.7956633362e+00 -3.1101801316e+00 1.7956633362e+00 3.1101801316e+00 
89200 6.7857454893e+00 1.4463447157e-04 1.7956593550e+00 -3.1101732359e+00 1.7956593550e+00 3.1101732359e+00 
89300 6.7857454880e+00 1.4604385385e-04 1.7956553276e+00 -3.1101662603e+00 1.7956553276e+00 3.1101662603e+00 
89400 6.7857454865e+00 1.4721103922e-04 1.7956512610e+00 -3.1101592168e+00 1.7956512610e+00 3.1101592168e+00 
89500 6.7857454848e+00 1.4813848633e-04 1.7956471619e+00 -3.1101521169e+00 1.7956471619e+00 3.1101521169e+00 
89600 6.7857454830e+00 1.4882897813e-04 1.7956430370e+00 -3.1101449723e+00 1.7956430370e+00 3.1101449723e+00 
89700 6.7857454810e+00 1.4928561152e-04 1.7956388928e+00 -3.1101377944e+00 1.7956388928e+00 3.1101377944e+00 
89800 6.7857454790e+00 1.4951178657e-04 1.7956347359e+00 -3.1101305945e+00 1.7956347359e+00 3.1101305945e+00 
89900 6.7857454768e+00 1.4951119558e-04 1.7956305727e+00 -3.1101233836e+00 1.7956305727e+00 3.1101233836e+00 
90000 6.7857454746e+00 1.4928781191e-04 1.7956264096e+00 -3.1101161728e+00 1.7956264096e+00 3.1101161728e+00 
90100 6.7857454724e+00 1.4884587858e-04 1.7956222526e+00 -3.1101089727e+00 1.7956222526e+00 3.1101089727e+00 
90200 6.7857454701e+00 1.4818989669e-04 1.7956181079e+00 -3.1101017938e+00 1.7956181079e+00 3.1101017938e+00 
90300 6.7857454678e+00 1.4732461368e-04 1.7956139815e+00 -3.1100946467e+00 1.7956139815e+00 3.1100946467e+00 
90400 6.7857454654e+00 1.4625501142e-04 1.7956098791e+00 -3.1100875412e+00 1.7956098791e+00 3.1100875412e+00 
90500 6.7857454631e+00 1.4498629425e-04 1.7956058065e+00 -3.1100804873e+00 1.7956058065e+00 3.1100804873e+00 
90600 6.7857454609e+00 1.4352387681e-04 1.7956017693e+00 -3.1100734946e+00 1.7956017693e+00 3.1100734946e+00 
90700 6.7857454586e+00 1.4187337182e-04 1.7955977727e+00 -3.1100665724e+00 1.7955977727e+00 3.1100665724e+00 
90800 6.7857454564e+00 1.4004057788e-04 1.7955938222e+00 -3.1100597297e+00 1.7955938222e+00 3.1100597297e+00 
90900 6.7857454543e+00 1.3803146705e-04 1.7955899226e+00 -3.1100529755e+00 1.7955899226e+00 3.1100529755e+00 
91000 6.7857454523e+00 1.3585217261e-04 1.7955860790e+00 -3.1100463182e+00 1.7955860790e+00 3.1100463182e+00 
91100 6.7857454503e+00 1.3350897660e-04 1.7955822960e+00 -3.1100397659e+00 1.7955822960e+00 3.1100397659e+00 
91200 6.7857454485e+00 1.3100829755e-04 1.7955785783e+00 -3.1100333266e+00 1.7955785783e+00 3.1100333266e+00 
91300 6.7857454468e+00 1.2835667810e-04 1.7955749302e+00 -3.1100270080e+00 1.7955749302e+00 3.1100270080e+00 
91400 6.7857454451e+00 1.2556077276e-04 1.7955713560e+00 -3.1100208172e+00 1.7955713560e+00 3.1100208172e+00 
91500 6.7857454436e+00 1.2262733570e-04 1.7955678596e+00 -3.1100147613e+00 1.7955678596e+00 3.1100147613e+00 
91600 6.7857454423e+00 1.1956320858e-04 1.7955644449e+00 -3.1100088468e+00 1.7955644449e+00 3.1100088468e+00 
91700 6.7857454410e+00 1.1637530855e-04 1.7955611155e+00 -3.1100030801e+00 1.7955611155e+00 3.1100030801e+00 
91800 6.7857454400e+00 1.1307061628e-04 1.7955578748e+00 -3.1099974671e+00 1.7955578748e+00 3.1099974671e+00 
91900 6.7857454390e+00 1.0965616423e-04 1.7955547262e+00 -3.1099920136e+00 1.7955547262e+00 3.1099920136e+00 
92000 6.7857454382e+00 1.0613902491e-04 1.7955516727e+00 -3.1099867247e+00 1.7955516727e+00 3.1099867247e+00 
92100 6.7857454375e+00 1.0252629945e-04 1.7955487171e+00 -3.1099816054e+00 1.7955487171e+00 3.1099816054e+00 
92200 6.7857454370e+00 9.8825106253e-05 1.7955458620e+00 -3.1099766604e+00 1.7955458620e+00 3.1099766604e+00 
92300 6.7857454366e+00 9.5042569840e-05 1.7955431101e+00 -3.1099718939e+00 1.7955431101e+00 3.1099718939e+00 
92400 6.7857454364e+00 9.1185809923e-05 1.7955404635e+00 -3.1099673098e+00 1.7955404635e+00 3.1099673098e+00 
92500 6.7857454363e+00 8.7261930683e-05 1.7955379242e+00 -3.1099629117e+00 1.7955379242e+00 3.1099629117e+00 
92600 6.7857454364e+00 8.3278010251e-05 1.7955354943e+00 -3.1099587029e+00 1.7955354943e+00 3.1099587029e+00 
92700 6.7857454365e+00 7.9241090439e-05 1.7955331752e+00 -3.1099546862e+00 1.7955331752e+00 3.1099546862e+00 
92800 6.7857454368e+00 7.5158166735e-05 1.7955309686e+00 -3.1099508642e+00 1.7955309686e+00 3.1099508642e+00 
92900 6.7857454373e+00 7.1036178514e-05 1.7955288757e+00 -3.1099472392e+00 1.7955288757e+00 3.1099472392e+00 
93000 6.7857454378e+00 6.6881999542e-05 1.7955268976e+00 -3.1099438129e+00 1.7955268976e+00 3.1099438129e+00 
93100 6.7857454386e+00 6.4945891027e-05 1.7955268976e+00 -3.1099438129e+00 1.7955268976e+00 3.1099438129e+00 
93200 6.7857454394e+00 6.2867315286e-05 1.7955268976e+00 -3.1099438129e+00 1.7955268976e+00 3.1099438129e+00 
93300 6.7857454404e+00 6.0652533385e-05 1.7955268976e+00 -3.1099438129e+00 1.7955268976e+00 3.1099438129e+00 
93400 6.7857454414e+00 5.8307780070e-05 1.7955268976e+00 -3.1099438129e+00 1.7955268976e+00 3.1099438129e+00 
93500 6.7857454424e+00 5.5839258259e-05 1.7955268976e+00 -3.1099438129e+00 1.7955268976e+00 3.1099438129e+00 
93600 6.7857454435e+00 5.3253133665e-05 1.7955268976e+00 -3.1099438129e+00 1.7955268976e+00 3.1099438129e+00 
93700 6.7857454447e+00 5.0555529612e-05 1.7955268976e+00 -3.1099438129e+00 1.7955268976e+00 3.1099438129e+00 
93800 6.7857454459e+00 4.7752521978e-05 1.7955268976e+00 -3.1099438129e+00 1.7955268976e+00 3.1099438129e+00 
93900 6.7857454471e+00 4.4850134332e-05 1.7955268976e+00 -3.1099438129e+00 1.7955268976e+00 3.1099438129e+00 
94000 6.7857454483e+00 4.1854333214e-05 1.7955268976e+00 -3.1099438129e+00 1.7955268976e+00 3.1099438129e+00 
94100 6.7857454496e+00 3.8771023579e-05 1.7955268976e+00 -3.1099438129e+00 1.7955268976e+00 3.1099438129e+00 
94200 6.7857454509e+00 3.5606044414e-05 1.7955268976e+00 -3.1099438129e+00 1.7955268976e+00 3.1099438129e+00 
94300 6.7857454521e+00 3.2365164524e-05 1.7955268976e+00 -3.1099438129e+00 1.7955268976e+00 3.1099438129e+00 
94400 6.7857454534e+00 2.9054078467e-05 1.7955268976e+00 -3.1099438129e+00 1.7955268976e+00 3.1099438129e+00 
94500 6.7857454547e+00 2.5678402668e-05 1.7955268976e+00 -3.1099438129e+00 1.7955268976e+00 3.1099438129e+00 
94600 6.7857454559e+00 2.2243671701e-05 1.7955268976e+00 -3.1099438129e+00 1.7955268976e+00 3.1099438129e+00 
94700 6.7857454572e+00 1.8755334723e-05 1.7955268976e+00 -3.1099438129e+00 1.7955268976e+00 3.1099438129e+00 
94800 6.7857454584e+00 1.5218752087e-05 1.7955268976e+00 -3.1099438129e+00 1.7955268976e+00 3.1099438129e+00 
94900 6.7857454596e+00 1.1639192109e-05 1.7955268976e+00 -3.1099438129e+00 1.7955268976e+00 3.1099438129e+00 
95000 6.7857454608e+00 8.0218280079e-06 1.7955268976e+00 -3.1099438129e+00 1.7955268976e+00 3.1099438129e+00 
95100 6.7857454620e+00 4.3717350113e-06 1.7955268976e+00 -3.1099438129e+00 1.7955268976e+00 3.1099438129e+00 
95200 6.7857454631e+00 6.9388762134e-07 1.7955268976e+00 -3.1099438129e+00 1.7955268976e+00 3.1099438129e+00 
95300 6.7857454642e+00 -3.0068429744e-06 1.7955268976e+00 -3.1099438129e+00 1.7955268976e+00 3.1099438129e+00 
95400 6.7857454652e+00 -6.7256912851e-06 1.7955268976e+00 -3.1099438129e+00 1.7955268976e+00 3.1099438129e+00 
95500 6.7857454662e+00 -1.0457999796e-05 1.7955268976e+00 -3.1099438129e+00 1.7955268976e+00 3.1099438129e+00 
95600 6.7857454672e+00 -1.4199221046e-05 1.7955268976e+00 -3.1099438129e+00 1.7955268976e+00 3.1099438129e+00 
95700 6.7857454681e+00 -1.7944919555e-05 1.7955268976e+00 -3.1099438129e+00 1.7955268976e+00 3.1099438129e+00 
95800 6.7857454690e+00 -2.1690773618e-05 1.7955268976e+00 -3.1099438129e+00 1.7955268976e+00 3.1099438129e+00 
95900 6.7857454698e+00 -2.5432576918e-05 1.7955268976e+00 -3.1099438129e+00 1.7955268976e+00 3.1099438129e+00 
96000 6.7857454705e+00 -2.9166239991e-05 1.7955268976e+00 -3.1099438129e+00 1.7955268976e+00 3.1099438129e+00 
96100 6.7857454713e+00 -3.2887791554e-05 1.7955268976e+00 -3.1099438129e+00 1.7955268976e+00 3.1099438129e+00 
96200 6.7857454719e+00 -3.6593379677e-05 1.7955268976e+00 -3.1099438129e+00 1.7955268976e+00 3.1099438129e+00 
96300 6.7857454726e+00 -4.0279272787e-05 1.7955268976e+00 -3.1099438129e+00 1.7955268976e+00 3.1099438129e+00 
96400 6.7857454731e+00 -4.3941860572e-05 1.7955268976e+00 -3.1099438129e+00 1.7955268976e+00 3.1099438129e+00 
96500 6.7857454737e+00 -4.7577654684e-05 1.7955268976e+00 -3.1099438129e+00 1.7955268976e+00 3.1099438129e+00 
96600 6.7857454742e+00 -5.1183289366e-05 1.7955268976e+00 -3.1099438129e+00 1.7955268976e+00 3.1099438129e+00 
96700 6.7857454746e+00 -5.4755521880e-05 1.7955268976e+00 -3.1099438129e+00 1.7955268976e+00 3.1099438129e+00 
96800 6.7857454750e+00 -5.8291232834e-05 1.7955268976e+00 -3.1099438129e+00 1.7955268976e+00 3.1099438129e+00 
96900 6.7857454753e+00 -6.1787426384e-05 1.7955268976e+00 -3.1099438129e+00 1.7955268976e+00 3.1099438129e+00 
97000 6.7857454756e+00 -6.5241230271e-05 1.7955268976e+00 -3.1099438129e+00 1.7955268976e+00 3.1099438129e+00 
97100 6.7857454759e+00 -6.8649895755e-05 1.7955268976e+00 -3.1099438129e+00 1.7955268976e+00 3.1099438129e+00 
97200 6.7857454761e+00 -7.2010797426e-05 1.7955268976e+00 -3.1099438129e+00 1.7955268976e+00 3.1099438129e+00 
97300 6.7857454761e+00 -7.2906198317e-05 1.7955289029e+00 -3.1099472862e+00 1.7955289029e+00 3.1099472862e+00 
97400 6.7857454760e+00 -7.3701272157e-05 1.7955309331e+00 -3.1099508026e+00 1.7955309331e+00 3.1099508026e+00 
97500 6.7857454759e+00 -7.4395516738e-05 1.7955329854e+00 -3.1099543574e+00 1.7955329854e+00 3.1099543574e+00 
97600 6.7857454758e+00 -7.4988642671e-05 1.7955350571e+00 -3.1099579457e+00 1.7955350571e+00 3.1099579457e+00 
97700 6.7857454756e+00 -7.5480567583e-05 1.7955371453e+00 -3.1099615625e+00 1.7955371453e+00 3.1099615625e+00 
97800 6.7857454753e+00 -7.5871410207e-05 1.7955392472e+00 -3.1099652031e+00 1.7955392472e+00 3.1099652031e+00 
97900 6.7857454750e+00 -7.6161484399e-05 1.7955413600e+00 -3.1099688626e+00 1.7955413600e+00 3.1099688626e+00 
98000 6.7857454747e+00 -7.6351293065e-05 1.7955434808e+00 -3.1099725360e+00 1.7955434808e+00 3.1099725360e+00 
98100 6.7857454744e+00 -7.6441521960e-05 1.7955456070e+00 -3.1099762186e+00 1.7955456070e+00 3.1099762186e+00 
98200 6.7857454740e+00 -7.6433033469e-05 1.7955477356e+00 -3.1099799055e+00 1.7955477356e+00 3.1099799055e+00 
98300 6.7857454736e+00 -7.6326860293e-05 1.7955498640e+00 -3.1099835920e+00 1.7955498640e+00 3.1099835920e+00 
98400 6.7857454732e+00 -7.6124199077e-05 1.7955519894e+00 -3.1099872734e+00 1.7955519894e+00 3.1099872734e+00 
98500 6.7857454728e+00 -7.5826403974e-05 1.7955541092e+00 -3.1099909450e+00 1.7955541092e+00 3.1099909450e+00 
98600 6.7857454723e+00 -7.5434980192e-05 1.7955562208e+00 -3.1099946022e+00 1.7955562208e+00 3.1099946022e+00 
98700 6.7857454719e+00 -7.4951577463e-05 1.7955583214e+00 -3.1099982405e+00 1.7955583214e+00 3.1099982405e+00 
98800 6.7857454714e+00 -7.4377983501e-05 1.7955604085e+00 -3.1100018556e+00 1.7955604085e+00 3.1100018556e+00 
98900 6.7857454709e+00 -7.3716117457e-05 1.7955624797e+00 -3.1100054429e+00 1.7955624797e+00 3.1100054429e+00 
99000 6.7857454705e+00 -7.2968023300e-05 1.7955645324e+00 -3.1100089984e+00 1.7955645324e+00 3.1100089984e+00 
99100 6.7857454700e+00 -7.2135863248e-05 1.7955665643e+00 -3.1100125177e+00 1.7955665643e+00 3.1100125177e+00 
99200 6.7857454696e+00 -7.1221911176e-05 1.7955685730e+00 -3.1100159969e+00 1.7955685730e+00 3.1100159969e+00 
99300 6.7857454692e+00 -7.0228545995e-05 1.7955705563e+00 -3.1100194320e+00 1.7955705563e+00 3.1100194320e+00 
99400 6.7857454689e+00 -7.1513428687e-05 1.7955705563e+00 -3.1100194320e+00 1.7955705563e+00 3.1100194320e+00 
99500 6.7857454685e+00 -7.0306999918e-05 1.7955725477e+00 -3.1100228812e+00 1.7955725477e+00 3.1100228812e+00 
99600 6.7857454682e+00 -7.1389513348e-05 1.7955725477e+00 -3.1100228812e+00 1.7955725477e+00 3.1100228812e+00 
99700 6.7857454679e+00 -6.9986073065e-05 1.7955745356e+00 -3.1100263244e+00 1.7955745356e+00 3.1100263244e+00 
99800 6.7857454677e+00 -7.0868821835e-05 1.7955745356e+00 -3.1100263244e+00 1.7955745356e+00 3.1100263244e+00 
99900 6.7857454673e+00 -6.9284657626e-05 1.7955765090e+00 -3.1100297425e+00 1.7955765090e+00 3.1100297425e+00 
100000 6.7857454672e+00 -6.9971085623e-05 1.7955765090e+00 -3.1100297425e+00 1.7955765090e+00 3.1100297425e+00 
100100 6.7857454670e+00 -7.0569164845e-05 1.7955765090e+00 -3.1100297425e+00 1.7955765090e+00 3.1100297425e+00 
100200 6.7857454669e+00 -7.1080682341e-05 1.7955765090e+00 -3.1100297425e+00 1.7955765090e+00 3.1100297425e+00 
100300 6.7857454667e+00 -6.9123735590e-05 1.7955784884e+00 -3.1100331708e+00 1.7955784884e+00 3.1100331708e+00 
100400 6.7857454666e+00 -6.9450222012e-05 1.7955784884e+00 -3.1100331708e+00 1.7955784884e+00 3.1100331708e+00 
100500 6.7857454665e+00 -6.9694388056e-05 1.7955784884e+00 -3.1100331708e+00 1.7955784884e+00 3.1100331708e+00 
100600 6.7857454665e+00 -6.9858245712e-05 1.7955784884e+00 -3.1100331708e+00 1.7955784884e+00 3.1100331708e+00 
100700 6.7857454665e+00 -6.9943838723e-05 1.7955784884e+00 -3.1100331708e+00 1.7955784884e+00 3.1100331708e+00 
100800 6.7857454665e+00 -6.9953239777e-05 1.7955784884e+00 -3.1100331708e+00 1.7955784884e+00 3.1100331708e+00 
100900 6.7857454665e+00 -6.9888547717e-05 1.7955784884e+00 -3.1100331708e+00 1.7955784884e+00 3.1100331708e+00 
101000 6.7857454666e+00 -6.9751884802e-05 1.7955784884e+00 -3.1100331708e+00 1.7955784884e+00 3.1100331708e+00 
101100 6.7857454667e+00 -6.9545393996e-05 1.7955784884e+00 -3.1100331708e+00 1.7955784884e+00 3.1100331708e+00 
101200 6.7857454667e+00 -6.9271236304e-05 1.7955784884e+00 -3.1100331708e+00 1.7955784884e+00 3.1100331708e+00 
101300 6.7857454668e+00 -6.8931588137e-05 1.7955784884e+00 -3.1100331708e+00 1.7955784884e+00 3.1100331708e+00 
101400 6.7857454669e+00 -6.8528638742e-05 1.7955784884e+00 -3.1100331708e+00 1.7955784884e+00 3.1100331708e+00 
101500 6.7857454671e+00 -6.8064587652e-05 1.7955784884e+00 -3.1100331708e+00 1.7955784884e+00 3.1100331708e+00 
101600 6.7857454672e+00 -6.7541642202e-05 1.7955784884e+00 -3.1100331708e+00 1.7955784884e+00 3.1100331708e+00 
101700 6.7857454674e+00 -6.6962015086e-05 1.7955784884e+00 -3.1100331708e+00 1.7955784884e+00 3.1100331708e+00 
101800 6.7857454675e+00 -6.6327921951e-05 1.7955784884e+00 -3.1100331708e+00 1.7955784884e+00 3.1100331708e+00 
101900 6.7857454677e+00 -6.5641579065e-05 1.7955784884e+00 -3.1100331708e+00 1.7955784884e+00 3.1100331708e+00 
102000 6.7857454679e+00 -6.4905201019e-05 1.7955784884e+00 -3.1100331708e+00 1.7955784884e+00 3.1100331708e+00 
102100 6.7857454681e+00 -6.4120998482e-05 1.7955784884e+00 -3.1100331708e+00 1.7955784884e+00 3.1100331708e+00 
102200 6.7857454683e+00 -6.3291176016e-05 1.7955784884e+00 -3.1100331708e+00 1.7955784884e+00 3.1100331708e+00 
102300 6.7857454685e+00 -6.2417929952e-05 1.7955784884e+00 -3.1100331708e+00 1.7955784884e+00 3.1100331708e+00 
102400 6.7857454687e+00 -6.1503446302e-05 1.7955784884e+00 -3.1100331708e+00 1.7955784884e+00 3.1100331708e+00 
102500 6.7857454689e+00 -6.0549898745e-05 1.7955784884e+00 -3.1100331708e+00 1.7955784884e+00 3.1100331708e+00 
102600 6.7857454692e+00 -5.9559446671e-05 1.7955784884e+00 -3.1100331708e+00 1.7955784884e+00 3.1100331708e+00 
102700 6.7857454694e+00 -5.8534233258e-05 1.7955784884e+00 -3.1100331708e+00 1.7955784884e+00 3.1100331708e+00 
102800 6.7857454696e+00 -5.7476383650e-05 1.7955784884e+00 -3.1100331708e+00 1.7955784884e+00 3.1100331708e+00 
102900 6.7857454698e+00 -5.6388003157e-05 1.7955784884e+00 -3.1100331708e+00 1.7955784884e+00 3.1100331708e+00 
103000 6.7857454701e+00 -5.5271175534e-05 1.7955784884e+00 -3.1100331708e+00 1.7955784884e+00 3.1100331708e+00 
103100 6.7857454703e+00 -5.4127961308e-05 1.7955784884e+00 -3.1100331708e+00 1.7955784884e+00 3.1100331708e+00 
103200 6.7857454705e+00 -5.2960396195e-05 1.7955784884e+00 -3.1100331708e+00 1.7955784884e+00 3.1100331708e+00 
103300 6.7857454707e+00 -5.1770489532e-05 1.7955784884e+00 -3.1100331708e+00 1.7955784884e+00 3.1100331708e+00 
103400 6.7857454710e+00 -5.0560222817e-05 1.7955784884e+00 -3.1100331708e+00 1.7955784884e+00 3.1100331708e+00 
103500 6.7857454712e+00 -4.9331548277e-05 1.7955784884e+00 -3.1100331708e+00 1.7955784884e+00 3.1100331708e+00 
103600 6.7857454714e+00 -4.8086387519e-05 1.7955784884e+00 -3.1100331708e+00 1.7955784884e+00 3.1100331708e+00 
103700 6.7857454716e+00 -4.6826630226e-05 1.7955784884e+00 -3.1100331708e+00 1.7955784884e+00 3.1100331708e+00 
103800 6.7857454718e+00 -4.5554132941e-05 1.7955784884e+00 -3.1100331708e+00 1.7955784884e+00 3.1100331708e+00 
103900 6.7857454720e+00 -4.4270717876e-05 1.7955784884e+00 -3.1100331708e+00 1.7955784884e+00 3.1100331708e+00 
104000 6.7857454722e+00 -4.2978171821e-05 1.7955784884e+00 -3.1100331708e+00 1.7955784884e+00 3.1100331708e+00 
104100 6.7857454724e+00 -4.1678245093e-05 1.7955784884e+00 -3.1100331708e+00 1.7955784884e+00 3.1100331708e+00 
104200 6.7857454725e+00 -4.0372650545e-05 1.7955784884e+00 -3.1100331708e+00 1.7955784884e+00 3.1100331708e+00 
104300 6.7857454727e+00 -3.9063062650e-05 1.7955784884e+00 -3.1100331708e+00 1.7955784884e+00 3.1100331708e+00 
104400 6.7857454729e+00 -3.7751116644e-05 1.7955784884e+00 -3.1100331708e+00 1.7955784884e+00 3.1100331708e+00 
104500 6.7857454730e+00 -3.6438407709e-05 1.7955784884e+00 -3.1100331708e+00 1.7955784884e+00 3.1100331708e+00 
104600 6.7857454732e+00 -3.5126490249e-05 1.7955784884e+00 -3.1100331708e+00 1.7955784884e+00 3.1100331708e+00 
104700 6.7857454733e+00 -3.3816877202e-05 1.7955784884e+00 -3.1100331708e+00 1.7955784884e+00 3.1100331708e+00 
104800 6.7857454734e+00 -3.2511039416e-05 1.7955784884e+00 -3.1100331708e+00 1.7955784884e+00 3.1100331708e+00 
104900 6.7857454736e+00 -3.1210405094e-05 1.7955784884e+00 -3.1100331708e+00 1.7955784884e+00 3.1100331708e+00 
105000 6.7857454737e+00 -2.9916359287e-05 1.7955784884e+00 -3.1100331708e+00 1.7955784884e+00 3.1100331708e+00 
105100 6.7857454738e+00 -2.8630243441e-05 1.7955784884e+00 -3.1100331708e+00 1.7955784884e+00 3.1100331708e+00 
105200 6.7857454739e+00 -2.7353355012e-05 1.7955784884e+00 -3.1100331708e+00 1.7955784884e+00 3.1100331708e+00 
105300 6.7857454740e+00 -2.6086947130e-05 1.7955784884e+00 -3.1100331708e+00 1.7955784884e+00 3.1100331708e+00 
105400 6.7857454741e+00 -2.4832228322e-05 1.7955784884e+00 -3.1100331708e+00 1.7955784884e+00 3.1100331708e+00 
105500 6.7857454742e+00 -2.3590362290e-05 1.7955784884e+00 -3.1100331708e+00 1.7955784884e+00 3.1100331708e+00 
105600 6.7857454742e+00 -2.2362467726e-05 1.7955784884e+00 -3.1100331708e+00 1.7955784884e+00 3.1100331708e+00 
105700 6.7857454743e+00 -2.1149618206e-05 1.7955784884e+00 -3.1100331708e+00 1.7955784884e+00 3.1100331708e+00 
105800 6.7857454744e+00 -1.9952842115e-05 1.7955784884e+00 -3.1100331708e+00 1.7955784884e+00 3.1100331708e+00 
105900 6.7857454744e+00 -1.8773122631e-05 1.7955784884e+00 -3.1100331708e+00 1.7955784884e+00 3.1100331708e+00 
106000 6.7857454745e+00 -1.7611397761e-05 1.7955784884e+00 -3.1100331708e+00 1.7955784884e+00 3.1100331708e+00 
106100 6.7857454745e+00 -1.6468560408e-05 1.7955784884e+00 -3.1100331708e+00 1.7955784884e+00 3.1100331708e+00 
106200 6.7857454745e+00 -1.5345458514e-05 1.7955784884e+00 -3.1100331708e+00 1.7955784884e+00 3.1100331708e+00 
106300 6.7857454746e+00 -1.4242895224e-05 1.7955784884e+00 -3.1100331708e+00 1.7955784884e+00 3.1100331708e+00 
106400 6.7857454746e+00 -1.3161629101e-05 1.7955784884e+00 -3.1100331708e+00 1.7955784884e+00 3.1100331708e+00 
106500 6.7857454746e+00 -1.2102374391e-05 1.7955784884e+00 -3.1100331708e+00 1.7955784884e+00 3.1100331708e+00 
106600 6.7857454747e+00 -1.1065801328e-05 1.7955784884e+00 -3.1100331708e+00 1.7955784884e+00 3.1100331708e+00 
106700 6.7857454747e+00 -1.0052536482e-05 1.7955784884e+00 -3.1100331708e+00 1.7955784884e+00 3.1100331708e+00 
106800 6.7857454747e+00 -9.0631631330e-06 1.7955784884e+00 -3.1100331708e+00 1.7955784884e+00 3.1100331708e+00 
106900 6.7857454747e+00 -8.0982216994e-06 1.7955784884e+00 -3.1100331708e+00 1.7955784884e+00 3.1100331708e+00 
107000 6.7857454747e+00 -7.1582101970e-06 1.7955784884e+00 -3.1100331708e+00 1.7955784884e+00 3.1100331708e+00 
107100 6.7857454747e+00 -6.2435847452e-06 1.7955784884e+00 -3.1100331708e+00 1.7955784884e+00 3.1100331708e+00 
107200 6.7857454747e+00 -5.6010079079e-06 1.7955784884e+00 -3.1100331708e+00 1.7955784884e+00 3.1100331708e+00 
107200 6.7857454747e+00 -5.6010079084e-06 1.7955784884e+00 -3.1100331708e+00 1.7955784884e+00 3.1100331708e+00 
