# step Hamiltonian StressXX CellTensor1 CellTensor2 CellTensor3 CellTensor4 
0 6.6197123538e+00 2.3123471895e-01 2.6408444507e+00 -4.5740767634e+00 2.6408444507e+00 4.5740767634e+00 
100 6.6496675034e+00 2.6789838071e-01 2.6408444507e+00 -4.5740767634e+00 2.6408444507e+00 4.5740767634e+00 
200 6.6766332595e+00 3.0195195509e-01 2.6357738669e+00 -4.5652942548e+00 2.6357738669e+00 4.5652942548e+00 
300 6.7016695969e+00 3.3308268632e-01 2.6300479897e+00 -4.5553767445e+00 2.6300479897e+00 4.5553767445e+00 
400 6.7250172791e+00 3.6174138749e-01 2.6237182819e+00 -4.5444133690e+00 2.6237182819e+00 4.5444133690e+00 
500 6.7468628789e+00 3.8831247128e-01 2.6168276305e+00 -4.5324784106e+00 2.6168276305e+00 4.5324784106e+00 
600 6.7673473910e+00 4.1311976292e-01 2.6094116194e+00 -4.5196335027e+00 2.6094116194e+00 4.5196335027e+00 
700 6.7865742249e+00 4.3643319702e-01 2.6014996777e+00 -4.5059296177e+00 2.6014996777e+00 4.5059296177e+00 
800 6.8046163179e+00 4.5847566101e-01 2.5931160921e+00 -4.4914088215e+00 2.5931160921e+00 4.4914088215e+00 
900 6.8215222814e+00 4.7942951382e-01 2.5842808867e+00 -4.4761057967e+00 2.5842808867e+00 4.4761057967e+00 
1000 6.8373215975e+00 4.9944251551e-01 2.5750105771e+00 -4.4600491496e+00 2.5750105771e+00 4.4600491496e+00 
1100 6.8520289489e+00 5.1863305027e-01 2.5653188143e+00 -4.4432625240e+00 2.5653188143e+00 4.4432625240e+00 
1200 6.8656477898e+00 5.3709462300e-01 2.5552169297e+00 -4.4257655466e+00 2.5552169297e+00 4.4257655466e+00 
1300 6.8781732787e+00 5.5489966776e-01 2.5447143983e+00 -4.4075746287e+00 2.5447143983e+00 4.4075746287e+00 
1400 6.8895946823e+00 5.7210273784e-01 2.5338192324e+00 -4.3887036477e+00 2.5338192324e+00 4.3887036477e+00 
1500 6.8998973536e+00 5.8874316030e-01 2.5225383170e+00 -4.3691645291e+00 2.5225383170e+00 4.3691645291e+00 
1600 6.9090643698e+00 6.0484723961e-01 2.5108776990e+00 -4.3489677462e+00 2.5108776990e+00 4.3489677462e+00 
1700 6.9170778995e+00 6.2043009102e-01 2.4988428368e+00 -4.3281227535e+00 2.4988428368e+00 4.3281227535e+00 
1800 6.9239203581e+00 6.3549717634e-01 2.4864388193e+00 -4.3066383649e+00 2.4864388193e+00 4.3066383649e+00 
1900 6.9295753919e+00 6.5004560622e-01 2.4736705582e+00 -4.2845230880e+00 2.4736705582e+00 4.2845230880e+00 
2000 6.9340287273e+00 6.6406526378e-01 2.4605429600e+00 -4.2617854209e+00 2.4605429600e+00 4.2617854209e+00 
2100 6.9372689040e+00 6.7753979540e-01 2.4470610793e+00 -4.2384341186e+00 2.4470610793e+00 4.2384341186e+00 
2200 6.9392879105e+00 6.9044750610e-01 2.4332302575e+00 -4.2144784326e+00 2.4332302575e+00 4.2144784326e+00 
2300 6.9400817284e+00 7.0276218831e-01 2.4190562478e+00 -4.1899283276e+00 2.4190562478e+00 4.1899283276e+00 
2400 6.9396507906e+00 7.1445390508e-01 2.4045453278e+00 -4.1647946768e+00 2.4045453278e+00 4.1647946768e+00 
2500 6.9380003523e+00 7.2548974069e-01 2.3897044008e+00 -4.1390894372e+00 2.3897044008e+00 4.1390894372e+00 
2600 6.9351407748e+00 7.3583452458e-01 2.3745410865e+00 -4.1128258065e+00 2.3745410865e+00 4.1128258065e+00 
2700 6.9310877178e+00 7.4545152783e-01 2.3590638004e+00 -4.0860183607e+00 2.3590638004e+00 4.0860183607e+00 
2800 6.9258622406e+00 7.5430312622e-01 2.3432818234e+00 -4.0586831746e+00 2.3432818234e+00 4.0586831746e+00 
2900 6.9194908124e+00 7.6235142074e-01 2.3272053606e+00 -4.0308379243e+00 2.3272053606e+00 4.0308379243e+00 
3000 6.9120052354e+00 7.6955880581e-01 2.3108455918e+00 -4.0025019734e+00 2.3108455918e+00 4.0025019734e+00 
3100 6.9034424891e+00 7.7588847695e-01 2.2942147118e+00 -3.9736964443e+00 2.2942147118e+00 3.9736964443e+00 
3200 6.8938445082e+00 7.8130487437e-01 2.2773259639e+00 -3.9444442748e+00 2.2773259639e+00 3.9444442748e+00 
3300 6.8832579068e+00 7.8577406435e-01 2.2601936652e+00 -3.9147702632e+00 2.2601936652e+00 3.9147702632e+00 
3400 6.8717336677e+00 7.8926406711e-01 2.2428332271e+00 -3.8847011022e+00 2.2428332271e+00 3.8847011022e+00 
3500 6.8593268116e+00 7.9174514489e-01 2.2252611685e+00 -3.8542654040e+00 2.2252611685e+00 3.8542654040e+00 
3600 6.8460960619e+00 7.9319006807e-01 2.2074951256e+00 -3.8234937150e+00 2.2074951256e+00 3.8234937150e+00 
3700 6.8321035167e+00 7.9357437776e-01 2.1895538551e+00 -3.7924185230e+00 2.1895538551e+00 3.7924185230e+00 
3800 6.8174143335e+00 7.9287666171e-01 2.1714572329e+00 -3.7610742538e+00 2.1714572329e+00 3.7610742538e+00 
3900 6.8020964297e+00 7.9107885621e-01 2.1532262449e+00 -3.7294972564e+00 2.1532262449e+00 3.7294972564e+00 
4000 6.7862201942e+00 7.8816658093e-01 2.1348829710e+00 -3.6977257741e+00 2.1348829710e+00 3.6977257741e+00 
4100 6.7698582033e+00 7.8412950714e-01 2.1164505586e+00 -3.6657998992e+00 2.1164505586e+00 3.6657998992e+00 
4200 6.7530849313e+00 7.7896175361e-01 2.0979531848e+00 -3.6337615080e+00 2.0979531848e+00 3.6337615080e+00 
4300 6.7359764420e+00 7.7266229870e-01 2.0794160061e+00 -3.6016541726e+00 2.0794160061e+00 3.6016541726e+00 
4400 6.7186100516e+00 7.6523539297e-01 2.0608650919e+00 -3.5695230467e+00 2.0608650919e+00 3.5695230467e+00 
4500 6.7010639524e+00 7.5669095339e-01 2.0423273432e+00 -3.5374147241e+00 2.0423273432e+00 3.5374147241e+00 
4600 6.6834167891e+00 7.4704491889e-01 2.0238303929e+00 -3.5053770665e+00 2.0238303929e+00 3.5053770665e+00 
4700 6.6657471859e+00 7.3631954630e-01 2.0054024891e+00 -3.4734590007e+00 2.0054024891e+00 3.4734590007e+00 
4800 6.6481332219e+00 7.2454362727e-01 1.9870723598e+00 -3.4417102854e+00 1.9870723598e+00 3.4417102854e+00 
4900 6.6306518621e+00 7.1175260847e-01 1.9688690613e+00 -3.4101812476e+00 1.9688690613e+00 3.4101812476e+00 
5000 6.6133783497e+00 6.9798860069e-01 1.9508218102e+00 -3.3789224918e+00 1.9508218102e+00 3.3789224918e+00 
5100 6.5963855719e+00 6.8330026647e-01 1.9329598010e+00 -3.3479845843e+00 1.9329598010e+00 3.3479845843e+00 
5200 6.5797434151e+00 6.6774258018e-01 1.9153120125e+00 -3.3174177180e+00 1.9153120125e+00 3.3174177180e+00 
5300 6.5635181239e+00 6.5137645943e-01 1.8979070048e+00 -3.2872713604e+00 1.8979070048e+00 3.2872713604e+00 
5400 6.5477716830e+00 6.3426827150e-01 1.8807727113e+00 -3.2575938935e+00 1.8807727113e+00 3.2575938935e+00 
5500 6.5325612394e+00 6.1648922320e-01 1.8639362283e+00 -3.2284322494e+00 1.8639362283e+00 3.2284322494e+00 
5600 6.5179385823e+00 5.9811464706e-01 1.8474236070e+00 -3.1998315504e+00 1.8474236070e+00 3.1998315504e+00 
5700 6.5039496959e+00 5.7922320015e-01 1.8312596518e+00 -3.1718347587e+00 1.8312596518e+00 3.1718347587e+00 
5800 6.4906343995e+00 5.5989599534e-01 1.8154677284e+00 -3.1444823451e+00 1.8154677284e+00 3.1444823451e+00 
5900 6.4780260834e+00 5.4021568643e-01 1.8000695862e+00 -3.1178119804e+00 1.8000695862e+00 3.1178119804e+00 
6000 6.4661515504e+00 5.2026553030e-01 1.7850851977e+00 -3.0918582582e+00 1.7850851977e+00 3.0918582582e+00 
6100 6.4550309629e+00 5.0012844926e-01 1.7705326194e+00 -3.0666524532e+00 1.7705326194e+00 3.0666524532e+00 
6200 6.4446778986e+00 4.7988611625e-01 1.7564278756e+00 -3.0422223204e+00 1.7564278756e+00 3.0422223204e+00 
6300 6.4350995080e+00 4.5961808417e-01 1.7427848679e+00 -3.0185919379e+00 1.7427848679e+00 3.0185919379e+00 
6400 6.4262967685e+00 4.3940097834e-01 1.7296153115e+00 -2.9957815971e+00 1.7296153115e+00 2.9957815971e+00 
6500 6.4182648241e+00 4.1930776847e-01 1.7169286993e+00 -2.9738077401e+00 1.7169286993e+00 2.9738077401e+00 
6600 6.4109933981e+00 3.9940713298e-01 1.7047322935e+00 -2.9526829456e+00 1.7047322935e+00 2.9526829456e+00 
6700 6.4044672665e+00 3.7976292548e-01 1.6930311446e+00 -2.9324159613e+00 1.6930311446e+00 2.9324159613e+00 
6800 6.3986667746e+00 3.6043374917e-01 1.6818281363e+00 -2.9130117816e+00 1.6818281363e+00 2.9130117816e+00 
6900 6.3935683848e+00 3.4147264154e-01 1.6711240534e+00 -2.8944717663e+00 1.6711240534e+00 2.8944717663e+00 
7000 6.3891452386e+00 3.2292686858e-01 1.6609176730e+00 -2.8767937969e+00 1.6609176730e+00 2.8767937969e+00 
7100 6.3853677194e+00 3.0483782424e-01 1.6512058732e+00 -2.8599724661e+00 1.6512058732e+00 2.8599724661e+00 
7200 6.3822040052e+00 2.8724102889e-01 1.6419837583e+00 -2.8439992946e+00 1.6419837583e+00 2.8439992946e+00 
7300 6.3796205981e+00 2.7016621777e-01 1.6332447972e+00 -2.8288629700e+00 1.6332447972e+00 2.8288629700e+00 
7400 6.3775828240e+00 2.5363750939e-01 1.6249809706e+00 -2.8145496025e+00 1.6249809706e+00 2.8145496025e+00 
7500 6.3760552938e+00 2.3767364247e-01 1.6171829253e+00 -2.8010429918e+00 1.6171829253e+00 2.8010429918e+00 
7600 6.3750023227e+00 2.2228826945e-01 1.6098401312e+00 -2.7883248993e+00 1.6098401312e+00 2.7883248993e+00 
7700 6.3743883033e+00 2.0749029476e-01 1.6029410393e+00 -2.7763753217e+00 1.6029410393e+00 2.7763753217e+00 
7800 6.3741780324e+00 1.9328424598e-01 1.5964732375e+00 -2.7651727603e+00 1.5964732375e+00 2.7651727603e+00 
7900 6.3743369905e+00 1.7967066705e-01 1.5904236018e+00 -2.7546944838e+00 1.5904236018e+00 2.7546944838e+00 
8000 6.3748315765e+00 1.6664652314e-01 1.5847784411e+00 -2.7449167787e+00 1.5847784411e+00 2.7449167787e+00 
8100 6.3756292987e+00 1.5420560839e-01 1.5795236349e+00 -2.7358151874e+00 1.5795236349e+00 2.7358151874e+00 
8200 6.3766989267e+00 1.4233894839e-01 1.5746447609e+00 -2.7273647298e+00 1.5746447609e+00 2.7273647298e+00 
8300 6.3780106067e+00 1.3103519099e-01 1.5701272131e+00 -2.7195401074e+00 1.5701272131e+00 2.7195401074e+00 
8400 6.3795359437e+00 1.2028097993e-01 1.5659563091e+00 -2.7123158898e+00 1.5659563091e+00 2.7123158898e+00 
8500 6.3812480561e+00 1.1006130711e-01 1.5621173867e+00 -2.7056666812e+00 1.5621173867e+00 2.7056666812e+00 
8600 6.3831216053e+00 1.0035984056e-01 1.5585958894e+00 -2.6995672688e+00 1.5585958894e+00 2.6995672688e+00 
8700 6.3851328041e+00 9.1159225926e-02 1.5553774407e+00 -2.6939927522e+00 1.5553774407e+00 2.6939927522e+00 
8800 6.3872594081e+00 8.2441360328e-02 1.5524479091e+00 -2.6889186547e+00 1.5524479091e+00 2.6889186547e+00 
8900 6.3894806930e+00 7.4187638345e-02 1.5497934619e+00 -2.6843210173e+00 1.5497934619e+00 2.6843210173e+00 
9000 6.3917774201e+00 6.6379170216e-02 1.5474006104e+00 -2.6801764769e+00 1.5474006104e+00 2.6801764769e+00 
9100 6.3941317932e+00 5.8996973135e-02 1.5452562460e+00 -2.6764623289e+00 1.5452562460e+00 2.6764623289e+00 
9200 6.3965274088e+00 5.2022136801e-02 1.5433476690e+00 -2.6731565765e+00 1.5433476690e+00 2.6731565765e+00 
9300 6.3989492019e+00 4.5435964697e-02 1.5416626094e+00 -2.6702379675e+00 1.5416626094e+00 2.6702379675e+00 
9400 6.4013833880e+00 3.9220092805e-02 1.5401892416e+00 -2.6676860197e+00 1.5401892416e+00 2.6676860197e+00 
9500 6.4038174034e+00 3.3356587579e-02 1.5389161940e+00 -2.6654810366e+00 1.5389161940e+00 2.6654810366e+00 
9600 6.4062398448e+00 2.7828025055e-02 1.5378325525e+00 -2.6636041144e+00 1.5378325525e+00 2.6636041144e+00 
9700 6.4086404085e+00 2.2617553001e-02 1.5369278605e+00 -2.6620371420e+00 1.5369278605e+00 2.6620371420e+00 
9800 6.4110098302e+00 1.7708937962e-02 1.5361921153e+00 -2.6607627938e+00 1.5361921153e+00 2.6607627938e+00 
9900 6.4133398262e+00 1.3086598992e-02 1.5356157606e+00 -2.6597645183e+00 1.5356157606e+00 2.6597645183e+00 
10000 6.4156230358e+00 8.7356297733e-03 1.5351896777e+00 -2.6590265210e+00 1.5351896777e+00 2.6590265210e+00 
10100 6.4178529652e+00 4.6418106997e-03 1.5349051734e+00 -2.6585337451e+00 1.5349051734e+00 2.6585337451e+00 
10200 6.4200239336e+00 7.9161240658e-04 1.5347539675e+00 -2.6582718488e+00 1.5347539675e+00 2.6582718488e+00 
10300 6.4221310212e+00 -2.8278079267e-03 1.5347281780e+00 -2.6582271801e+00 1.5347281780e+00 2.6582271801e+00 
10400 6.4241700188e+00 -6.2286162803e-03 1.5348203063e+00 -2.6583867509e+00 1.5348203063e+00 2.6583867509e+00 
10500 6.4261373805e+00 -9.4223164193e-03 1.5350232210e+00 -2.6587382096e+00 1.5350232210e+00 2.6587382096e+00 
10600 6.4280301772e+00 -1.2419768473e-02 1.5353301424e+00 -2.6592698131e+00 1.5353301424e+00 2.6592698131e+00 
10700 6.4298460530e+00 -1.5231210615e-02 1.5357346259e+00 -2.6599703990e+00 1.5357346259e+00 2.6599703990e+00 
10800 6.4315831832e+00 -1.7866283100e-02 1.5362305459e+00 -2.6608293577e+00 1.5362305459e+00 2.6608293577e+00 
10900 6.4332402343e+00 -2.0334054013e-02 1.5368120800e+00 -2.6618366043e+00 1.5368120800e+00 2.6618366043e+00 
11000 6.4348163262e+00 -2.2643046167e-02 1.5374736935e+00 -2.6629825525e+00 1.5374736935e+00 2.6629825525e+00 
11100 6.4363109953e+00 -2.4801264690e-02 1.5382101241e+00 -2.6642580877e+00 1.5382101241e+00 2.6642580877e+00 
11200 6.4377241607e+00 -2.6816224890e-02 1.5390163673e+00 -2.6656545419e+00 1.5390163673e+00 2.6656545419e+00 
11300 6.4390560907e+00 -2.8694980063e-02 1.5398876626e+00 -2.6671636696e+00 1.5398876626e+00 2.6671636696e+00 
11400 6.4403073719e+00 -3.0444148987e-02 1.5408194797e+00 -2.6687776241e+00 1.5408194797e+00 2.6687776241e+00 
11500 6.4414788797e+00 -3.2069942847e-02 1.5418075059e+00 -2.6704889357e+00 1.5418075059e+00 2.6704889357e+00 
11600 6.4425717500e+00 -3.3578191448e-02 1.5428476340e+00 -2.6722904903e+00 1.5428476340e+00 2.6722904903e+00 
11700 6.4435873526e+00 -3.4974368539e-02 1.5439359506e+00 -2.6741755101e+00 1.5439359506e+00 2.6741755101e+00 
11800 6.4445272660e+00 -3.6263616174e-02 1.5450687256e+00 -2.6761375340e+00 1.5450687256e+00 2.6761375340e+00 
11900 6.4453932538e+00 -3.7450768007e-02 1.5462424017e+00 -2.6781704006e+00 1.5462424017e+00 2.6781704006e+00 
12000 6.4461872421e+00 -3.8540371478e-02 1.5474535848e+00 -2.6802682312e+00 1.5474535848e+00 2.6802682312e+00 
12100 6.4469112980e+00 -3.9536708861e-02 1.5486990353e+00 -2.6824254147e+00 1.5486990353e+00 2.6824254147e+00 
12200 6.4475676106e+00 -4.0443817147e-02 1.5499756595e+00 -2.6846365928e+00 1.5499756595e+00 2.6846365928e+00 
12300 6.4481584713e+00 -4.1265506767e-02 1.5512805022e+00 -2.6868966465e+00 1.5512805022e+00 2.6868966465e+00 
12400 6.4486862571e+00 -4.2005379168e-02 1.5526107386e+00 -2.6892006837e+00 1.5526107386e+00 2.6892006837e+00 
12500 6.4491534136e+00 -4.2666843252e-02 1.5539636687e+00 -2.6915440272e+00 1.5539636687e+00 2.6915440272e+00 
12600 6.4495624403e+00 -4.3253130719e-02 1.5553367098e+00 -2.6939222042e+00 1.5553367098e+00 2.6939222042e+00 
12700 6.4499158762e+00 -4.3767310332e-02 1.5567273916e+00 -2.6963309358e+00 1.5567273916e+00 2.6963309358e+00 
12800 6.4502162865e+00 -4.4212301161e-02 1.5581333504e+00 -2.6987661278e+00 1.5581333504e+00 2.6987661278e+00 
12900 6.4504662507e+00 -4.4590884824e-02 1.5595523241e+00 -2.7012238624e+00 1.5595523241e+00 2.7012238624e+00 
13000 6.4506683511e+00 -4.4905716794e-02 1.5609821476e+00 -2.7037003893e+00 1.5609821476e+00 2.7037003893e+00 
13100 6.4508251630e+00 -4.5159336802e-02 1.5624207485e+00 -2.7061921192e+00 1.5624207485e+00 2.7061921192e+00 
13200 6.4509392447e+00 -4.5354178381e-02 1.5638661432e+00 -2.7086956162e+00 1.5638661432e+00 2.7086956162e+00 
13300 6.4510131293e+00 -4.5492577617e-02 1.5653164329e+00 -2.7112075917e+00 1.5653164329e+00 2.7112075917e+00 
13400 6.4510493171e+00 -4.5576781125e-02 1.5667698007e+00 -2.7137248986e+00 1.5667698007e+00 2.7137248986e+00 
13500 6.4510502680e+00 -4.5608953327e-02 1.5682245079e+00 -2.7162445254e+00 1.5682245079e+00 2.7162445254e+00 
13600 6.4510183958e+00 -4.5591183048e-02 1.5696788914e+00 -2.7187635914e+00 1.5696788914e+00 2.7187635914e+00 
13700 6.4509560626e+00 -4.5525489503e-02 1.5711313606e+00 -2.7212793419e+00 1.5711313606e+00 2.7212793419e+00 
13800 6.4508655735e+00 -4.5413827691e-02 1.5725803954e+00 -2.7237891438e+00 1.5725803954e+00 2.7237891438e+00 
13900 6.4507491729e+00 -4.5258093260e-02 1.5740245432e+00 -2.7262904812e+00 1.5740245432e+00 2.7262904812e+00 
14000 6.4506090400e+00 -4.5060126864e-02 1.5754624171e+00 -2.7287809519e+00 1.5754624171e+00 2.7287809519e+00 
14100 6.4504472867e+00 -4.4821718070e-02 1.5768926936e+00 -2.7312582635e+00 1.5768926936e+00 2.7312582635e+00 
14200 6.4502659539e+00 -4.4544608831e-02 1.5783141107e+00 -2.7337202301e+00 1.5783141107e+00 2.7337202301e+00 
14300 6.4500670102e+00 -4.4230496576e-02 1.5797254661e+00 -2.7361647692e+00 1.5797254661e+00 2.7361647692e+00 
14400 6.4498523496e+00 -4.3881036939e-02 1.5811256152e+00 -2.7385898986e+00 1.5811256152e+00 2.7385898986e+00 
14500 6.4496237908e+00 -4.3497846163e-02 1.5825134698e+00 -2.7409937333e+00 1.5825134698e+00 2.7409937333e+00 
14600 6.4493830756e+00 -4.3082503214e-02 1.5838879964e+00 -2.7433744832e+00 1.5838879964e+00 2.7433744832e+00 
14700 6.4491318692e+00 -4.2636551620e-02 1.5852482145e+00 -2.7457304501e+00 1.5852482145e+00 2.7457304501e+00 
14800 6.4488717593e+00 -4.2161501064e-02 1.5865931955e+00 -2.7480600255e+00 1.5865931955e+00 2.7480600255e+00 
14900 6.4486042564e+00 -4.1658828772e-02 1.5879220610e+00 -2.7503616882e+00 1.5879220610e+00 2.7503616882e+00 
15000 6.4483307944e+00 -4.1129980690e-02 1.5892339818e+00 -2.7526340017e+00 1.5892339818e+00 2.7526340017e+00 
15100 6.4480527311e+00 -4.0576372500e-02 1.5905281764e+00 -2.7548756123e+00 1.5905281764e+00 2.7548756123e+00 
15200 6.4477713488e+00 -3.9999390466e-02 1.5918039095e+00 -2.7570852470e+00 1.5918039095e+00 2.7570852470e+00 
15300 6.4474878558e+00 -3.9400392158e-02 1.5930604917e+00 -2.7592617112e+00 1.5930604917e+00 2.7592617112e+00 
15400 6.4472033873e+00 -3.8780707043e-02 1.5942972773e+00 -2.7614038867e+00 1.5942972773e+00 2.7614038867e+00 
15500 6.4469190068e+00 -3.8141636978e-02 1.5955136638e+00 -2.7635107299e+00 1.5955136638e+00 2.7635107299e+00 
15600 6.4466357077e+00 -3.7484456613e-02 1.5967090906e+00 -2.7655812699e+00 1.5967090906e+00 2.7655812699e+00 
15700 6.4463544153e+00 -3.6810413706e-02 1.5978830379e+00 -2.7676146062e+00 1.5978830379e+00 2.7676146062e+00 
15800 6.4460759878e+00 -3.6120729382e-02 1.5990350256e+00 -2.7696099075e+00 1.5990350256e+00 2.7696099075e+00 
15900 6.4458012189e+00 -3.5416598330e-02 1.6001646125e+00 -2.7715664093e+00 1.6001646125e+00 2.7715664093e+00 
16000 6.4455308392e+00 -3.4699188959e-02 1.6012713948e+00 -2.7734834125e+00 1.6012713948e+00 2.7734834125e+00 
16100 6.4452655185e+00 -3.3969643507e-02 1.6023550056e+00 -2.7753602814e+00 1.6023550056e+00 2.7753602814e+00 
16200 6.4450058677e+00 -3.3229078126e-02 1.6034151136e+00 -2.7771964423e+00 1.6034151136e+00 2.7771964423e+00 
16300 6.4447524410e+00 -3.2478582947e-02 1.6044514221e+00 -2.7789913813e+00 1.6044514221e+00 2.7789913813e+00 
16400 6.4445057376e+00 -3.1719222121e-02 1.6054636682e+00 -2.7807446431e+00 1.6054636682e+00 2.7807446431e+00 
16500 6.4442662045e+00 -3.0952033847e-02 1.6064516219e+00 -2.7824558290e+00 1.6064516219e+00 2.7824558290e+00 
16600 6.4440342380e+00 -3.0178030406e-02 1.6074150846e+00 -2.7841245954e+00 1.6074150846e+00 2.7841245954e+00 
16700 6.4438101859e+00 -2.9398198174e-02 1.6083538890e+00 -2.7857506522e+00 1.6083538890e+00 2.7857506522e+00 
16800 6.4435943502e+00 -2.8613497647e-02 1.6092678974e+00 -2.7873337613e+00 1.6092678974e+00 2.7873337613e+00 
16900 6.4433869883e+00 -2.7824863469e-02 1.6101570014e+00 -2.7888737346e+00 1.6101570014e+00 2.7888737346e+00 
17000 6.4431883159e+00 -2.7033204461e-02 1.6110211206e+00 -2.7903704329e+00 1.6110211206e+00 2.7903704329e+00 
17100 6.4429985085e+00 -2.6239403662e-02 1.6118602018e+00 -2.7918237641e+00 1.6118602018e+00 2.7918237641e+00 
17200 6.4428177037e+00 -2.5444318379e-02 1.6126742181e+00 -2.7932336818e+00 1.6126742181e+00 2.7932336818e+00 
17300 6.4426460031e+00 -2.4648780247e-02 1.6134631683e+00 -2.7946001836e+00 1.6134631683e+00 2.7946001836e+00 
17400 6.4424834744e+00 -2.3853595303e-02 1.6142270755e+00 -2.7959233097e+00 1.6142270755e+00 2.7959233097e+00 
17500 6.4423301530e+00 -2.3059544071e-02 1.6149659869e+00 -2.7972031417e+00 1.6149659869e+00 2.7972031417e+00 
17600 6.4421860442e+00 -2.2267381665e-02 1.6156799722e+00 -2.7984398007e+00 1.6156799722e+00 2.7984398007e+00 
17700 6.4420511250e+00 -2.1477837899e-02 1.6163691237e+00 -2.7996334460e+00 1.6163691237e+00 2.7996334460e+00 
17800 6.4419253457e+00 -2.0691617421e-02 1.6170335545e+00 -2.8007842739e+00 1.6170335545e+00 2.8007842739e+00 
17900 6.4418086317e+00 -1.9909399850e-02 1.6176733984e+00 -2.8018925161e+00 1.6176733984e+00 2.8018925161e+00 
18000 6.4417008853e+00 -1.9131839934e-02 1.6182888088e+00 -2.8029584382e+00 1.6182888088e+00 2.8029584382e+00 
18100 6.4416019873e+00 -1.8359567724e-02 1.6188799581e+00 -2.8039823388e+00 1.6188799581e+00 2.8039823388e+00 
18200 6.4415117986e+00 -1.7593188754e-02 1.6194470365e+00 -2.8049645475e+00 1.6194470365e+00 2.8049645475e+00 
18300 6.4414301617e+00 -1.6833284241e-02 1.6199902520e+00 -2.8059054242e+00 1.6199902520e+00 2.8059054242e+00 
18400 6.4413569022e+00 -1.6080411294e-02 1.6205098287e+00 -2.8068053574e+00 1.6205098287e+00 2.8068053574e+00 
18500 6.4412918304e+00 -1.5335103137e-02 1.6210060068e+00 -2.8076647632e+00 1.6210060068e+00 2.8076647632e+00 
18600 6.4412347423e+00 -1.4597869345e-02 1.6214790417e+00 -2.8084840837e+00 1.6214790417e+00 2.8084840837e+00 
18700 6.4411854216e+00 -1.3869196088e-02 1.6219292031e+00 -2.8092637861e+00 1.6219292031e+00 2.8092637861e+00 
18800 6.4411436402e+00 -1.3149546386e-02 1.6223567743e+00 -2.8100043611e+00 1.6223567743e+00 2.8100043611e+00 
18900 6.4411091603e+00 -1.2439360383e-02 1.6227620518e+00 -2.8107063224e+00 1.6227620518e+00 2.8107063224e+00 
19000 6.4410817348e+00 -1.1739055614e-02 1.6231453443e+00 -2.8113702044e+00 1.6231453443e+00 2.8113702044e+00 
19100 6.4410611091e+00 -1.1049027300e-02 1.6235069722e+00 -2.8119965622e+00 1.6235069722e+00 2.8119965622e+00 
19200 6.4410470217e+00 -1.0369648637e-02 1.6238472668e+00 -2.8125859698e+00 1.6238472668e+00 2.8125859698e+00 
19300 6.4410392057e+00 -9.7012711027e-03 1.6241665698e+00 -2.8131390189e+00 1.6241665698e+00 2.8131390189e+00 
19400 6.4410373896e+00 -9.0442247641e-03 1.6244652328e+00 -2.8136563184e+00 1.6244652328e+00 2.8136563184e+00 
19500 6.4410412981e+00 -8.3988186002e-03 1.6247436162e+00 -2.8141384925e+00 1.6247436162e+00 2.8141384925e+00 
19600 6.4410506533e+00 -7.7653408247e-03 1.6250020890e+00 -2.8145861806e+00 1.6250020890e+00 2.8145861806e+00 
19700 6.4410651756e+00 -7.1440592196e-03 1.6252410281e+00 -2.8150000353e+00 1.6252410281e+00 2.8150000353e+00 
19800 6.4410845845e+00 -6.5352214737e-03 1.6254608177e+00 -2.8153807220e+00 1.6254608177e+00 2.8153807220e+00 
19900 6.4411085989e+00 -5.9390555271e-03 1.6256618486e+00 -2.8157289177e+00 1.6256618486e+00 2.8157289177e+00 
20000 6.4411369388e+00 -5.3557699219e-03 1.6258445178e+00 -2.8160453100e+00 1.6258445178e+00 2.8160453100e+00 
20100 6.4411693253e+00 -4.7855541581e-03 1.6260092279e+00 -2.8163305962e+00 1.6260092279e+00 2.8163305962e+00 
20200 6.4412054814e+00 -4.2285790545e-03 1.6261563865e+00 -2.8165854825e+00 1.6261563865e+00 2.8165854825e+00 
20300 6.4412451330e+00 -3.6849971149e-03 1.6262864058e+00 -2.8168106826e+00 1.6262864058e+00 2.8168106826e+00 
20400 6.4412880089e+00 -3.1549428985e-03 1.6263997020e+00 -2.8170069173e+00 1.6263997020e+00 2.8170069173e+00 
20500 6.4413338419e+00 -2.6385333957e-03 1.6264966946e+00 -2.8171749134e+00 1.6264966946e+00 2.8171749134e+00 
20600 6.4413823691e+00 -2.1358684067e-03 1.6265778062e+00 -2.8173154028e+00 1.6265778062e+00 2.8173154028e+00 
20700 6.4414333325e+00 -1.6470309259e-03 1.6266434619e+00 -2.8174291218e+00 1.6266434619e+00 2.8174291218e+00 
20800 6.4414864792e+00 -1.1720875287e-03 1.6266940889e+00 -2.8175168103e+00 1.6266940889e+00 2.8175168103e+00 
20900 6.4415415620e+00 -7.1108876307e-04 1.6267301157e+00 -2.8175792105e+00 1.6267301157e+00 2.8175792105e+00 
21000 6.4415983401e+00 -2.6406954393e-04 1.6267519721e+00 -2.8176170670e+00 1.6267519721e+00 2.8176170670e+00 
21100 6.4416565788e+00 1.6895044869e-04 1.6267600886e+00 -2.8176311251e+00 1.6267600886e+00 2.8176311251e+00 
21200 6.4417160503e+00 5.8796636851e-04 1.6267548957e+00 -2.8176221308e+00 1.6267548957e+00 2.8176221308e+00 
21300 6.4417765338e+00 9.9298779897e-04 1.6267368240e+00 -2.8175908297e+00 1.6267368240e+00 2.8175908297e+00 
21400 6.4418378161e+00 1.3840383462e-03 1.6267063032e+00 -2.8175379662e+00 1.6267063032e+00 2.8175379662e+00 
21500 6.4418996912e+00 1.7611552299e-03 1.6266637623e+00 -2.8174642831e+00 1.6266637623e+00 2.8174642831e+00 
21600 6.4419619611e+00 2.1243888709e-03 1.6266096286e+00 -2.8173705209e+00 1.6266096286e+00 2.8173705209e+00 
21700 6.4420244356e+00 2.4738024778e-03 1.6265443279e+00 -2.8172574168e+00 1.6265443279e+00 2.8172574168e+00 
21800 6.4420869328e+00 2.8094716310e-03 1.6264682838e+00 -2.8171257045e+00 1.6264682838e+00 2.8171257045e+00 
21900 6.4421492789e+00 3.1314838648e-03 1.6263819173e+00 -2.8169761133e+00 1.6263819173e+00 2.8169761133e+00 
22000 6.4422113083e+00 3.4399382486e-03 1.6262856468e+00 -2.8168093679e+00 1.6262856468e+00 2.8168093679e+00 
22100 6.4422728641e+00 3.7349449669e-03 1.6261798874e+00 -2.8166261872e+00 1.6261798874e+00 2.8166261872e+00 
22200 6.4423337976e+00 4.0166248981e-03 1.6260650507e+00 -2.8164272843e+00 1.6260650507e+00 2.8164272843e+00 
22300 6.4423939686e+00 4.2851091924e-03 1.6259415448e+00 -2.8162133657e+00 1.6259415448e+00 2.8162133657e+00 
22400 6.4424532455e+00 4.5405388505e-03 1.6258097734e+00 -2.8159851309e+00 1.6258097734e+00 2.8159851309e+00 
22500 6.4425115050e+00 4.7830643011e-03 1.6256701361e+00 -2.8157432720e+00 1.6256701361e+00 2.8157432720e+00 
22600 6.4425686323e+00 5.0128449789e-03 1.6255230278e+00 -2.8154884730e+00 1.6255230278e+00 2.8154884730e+00 
22700 6.4426245209e+00 5.2300489041e-03 1.6253688384e+00 -2.8152214092e+00 1.6253688384e+00 2.8152214092e+00 
22800 6.4426790728e+00 5.4348522615e-03 1.6252079530e+00 -2.8149427475e+00 1.6252079530e+00 2.8149427475e+00 
22900 6.4427321978e+00 5.6274389821e-03 1.6250407511e+00 -2.8146531452e+00 1.6250407511e+00 2.8146531452e+00 
23000 6.4427838142e+00 5.8080003254e-03 1.6248676065e+00 -2.8143532501e+00 1.6248676065e+00 2.8143532501e+00 
23100 6.4428338480e+00 5.9767344646e-03 1.6246888875e+00 -2.8140436997e+00 1.6246888875e+00 2.8140436997e+00 
23200 6.4428822330e+00 6.1338460732e-03 1.6245049563e+00 -2.8137251214e+00 1.6245049563e+00 2.8137251214e+00 
23300 6.4429289108e+00 6.2795459153e-03 1.6243161687e+00 -2.8133981317e+00 1.6243161687e+00 2.8133981317e+00 
23400 6.4429738303e+00 6.4140504380e-03 1.6241228744e+00 -2.8130633362e+00 1.6241228744e+00 2.8130633362e+00 
23500 6.4430169478e+00 6.5375813684e-03 1.6239254164e+00 -2.8127213289e+00 1.6239254164e+00 2.8127213289e+00 
23600 6.4430582267e+00 6.6503653136e-03 1.6237241311e+00 -2.8123726925e+00 1.6237241311e+00 2.8123726925e+00 
23700 6.4430976373e+00 6.7526333653e-03 1.6235193480e+00 -2.8120179978e+00 1.6235193480e+00 2.8120179978e+00 
23800 6.4431351565e+00 6.8446207088e-03 1.6233113896e+00 -2.8116578033e+00 1.6233113896e+00 2.8116578033e+00 
23900 6.4431707678e+00 6.9265662375e-03 1.6231005714e+00 -2.8112926554e+00 1.6231005714e+00 2.8112926554e+00 
24000 6.4432044607e+00 6.9987121720e-03 1.6228872015e+00 -2.8109230880e+00 1.6228872015e+00 2.8109230880e+00 
24100 6.4432362308e+00 7.0613036856e-03 1.6226715810e+00 -2.8105496222e+00 1.6226715810e+00 2.8105496222e+00 
24200 6.4432660796e+00 7.1145885355e-03 1.6224540032e+00 -2.8101727665e+00 1.6224540032e+00 2.8101727665e+00 
24300 6.4432940138e+00 7.1588167003e-03 1.6222347542e+00 -2.8097930161e+00 1.6222347542e+00 2.8097930161e+00 
24400 6.4433200454e+00 7.1942400249e-03 1.6220141124e+00 -2.8094108533e+00 1.6220141124e+00 2.8094108533e+00 
24500 6.4433441916e+00 7.2211118717e-03 1.6217923488e+00 -2.8090267474e+00 1.6217923488e+00 2.8090267474e+00 
24600 6.4433664739e+00 7.2396867798e-03 1.6215697263e+00 -2.8086411540e+00 1.6215697263e+00 2.8086411540e+00 
24700 6.4433869186e+00 7.2502201314e-03 1.6213465006e+00 -2.8082545158e+00 1.6213465006e+00 2.8082545158e+00 
24800 6.4434055560e+00 7.2529678268e-03 1.6211229194e+00 -2.8078672617e+00 1.6211229194e+00 2.8078672617e+00 
24900 6.4434224204e+00 7.2481859671e-03 1.6208992226e+00 -2.8074798074e+00 1.6208992226e+00 2.8074798074e+00 
25000 6.4434375494e+00 7.2361305458e-03 1.6206756424e+00 -2.8070925552e+00 1.6206756424e+00 2.8070925552e+00 
25100 6.4434509845e+00 7.2170571491e-03 1.6204524032e+00 -2.8067058937e+00 1.6204524032e+00 2.8067058937e+00 
25200 6.4434627699e+00 7.1912206650e-03 1.6202297219e+00 -2.8063201982e+00 1.6202297219e+00 2.8063201982e+00 
25300 6.4434729529e+00 7.1588750020e-03 1.6200078071e+00 -2.8059358306e+00 1.6200078071e+00 2.8059358306e+00 
25400 6.4434815831e+00 7.1202728166e-03 1.6197868603e+00 -2.8055531395e+00 1.6197868603e+00 2.8055531395e+00 
25500 6.4434887126e+00 7.0756652514e-03 1.6195670748e+00 -2.8051724599e+00 1.6195670748e+00 2.8051724599e+00 
25600 6.4434943957e+00 7.0253016818e-03 1.6193486366e+00 -2.8047941138e+00 1.6193486366e+00 2.8047941138e+00 
25700 6.4434986883e+00 6.9694294730e-03 1.6191317240e+00 -2.8044184101e+00 1.6191317240e+00 2.8044184101e+00 
25800 6.4435016479e+00 6.9082937475e-03 1.6189165075e+00 -2.8040456443e+00 1.6189165075e+00 2.8040456443e+00 
25900 6.4435033334e+00 6.8421371617e-03 1.6187031506e+00 -2.8036760992e+00 1.6187031506e+00 2.8036760992e+00 
26000 6.4435038049e+00 6.7711996937e-03 1.6184918089e+00 -2.8033100447e+00 1.6184918089e+00 2.8033100447e+00 
26100 6.4435031232e+00 6.6957184403e-03 1.6182826310e+00 -2.8029477380e+00 1.6182826310e+00 2.8029477380e+00 
26200 6.4435013499e+00 6.6159274248e-03 1.6180757582e+00 -2.8025894236e+00 1.6180757582e+00 2.8025894236e+00 
26300 6.4434985470e+00 6.5320574152e-03 1.6178713243e+00 -2.8022353339e+00 1.6178713243e+00 2.8022353339e+00 
26400 6.4434947767e+00 6.4443357523e-03 1.6176694566e+00 -2.8018856886e+00 1.6176694566e+00 2.8018856886e+00 
26500 6.4434901014e+00 6.3529861880e-03 1.6174702749e+00 -2.8015406958e+00 1.6174702749e+00 2.8015406958e+00 
26600 6.4434845832e+00 6.2582287339e-03 1.6172738923e+00 -2.8012005513e+00 1.6172738923e+00 2.8012005513e+00 
26700 6.4434782840e+00 6.1602795206e-03 1.6170804154e+00 -2.8008654394e+00 1.6170804154e+00 2.8008654394e+00 
26800 6.4434712652e+00 6.0593506658e-03 1.6168899438e+00 -2.8005355329e+00 1.6168899438e+00 2.8005355329e+00 
26900 6.4434635875e+00 5.9556501533e-03 1.6167025707e+00 -2.8002109932e+00 1.6167025707e+00 2.8002109932e+00 
27000 6.4434553107e+00 5.8493817221e-03 1.6165183829e+00 -2.7998919706e+00 1.6165183829e+00 2.7998919706e+00 
27100 6.4434464939e+00 5.7407447641e-03 1.6163374610e+00 -2.7995786046e+00 1.6163374610e+00 2.7995786046e+00 
27200 6.4434371949e+00 5.6299342322e-03 1.6161598793e+00 -2.7992710240e+00 1.6161598793e+00 2.7992710240e+00 
27300 6.4434274704e+00 5.5171405579e-03 1.6159857061e+00 -2.7989693473e+00 1.6159857061e+00 2.7989693473e+00 
27400 6.4434173758e+00 5.4025495778e-03 1.6158150040e+00 -2.7986736826e+00 1.6158150040e+00 2.7986736826e+00 
27500 6.4434069648e+00 5.2863424689e-03 1.6156478297e+00 -2.7983841281e+00 1.6156478297e+00 2.7983841281e+00 
27600 6.4433962898e+00 5.1686956938e-03 1.6154842342e+00 -2.7981007724e+00 1.6154842342e+00 2.7981007724e+00 
27700 6.4433854015e+00 5.0497809534e-03 1.6153242633e+00 -2.7978236947e+00 1.6153242633e+00 2.7978236947e+00 
27800 6.4433743490e+00 4.9297651489e-03 1.6151679572e+00 -2.7975529646e+00 1.6151679572e+00 2.7975529646e+00 
27900 6.4433631794e+00 4.8088103514e-03 1.6150153512e+00 -2.7972886432e+00 1.6150153512e+00 2.7972886432e+00 
28000 6.4433519379e+00 4.6870737802e-03 1.6148664753e+00 -2.7970307826e+00 1.6148664753e+00 2.7970307826e+00 
28100 6.4433406681e+00 4.5647077882e-03 1.6147213548e+00 -2.7967794266e+00 1.6147213548e+00 2.7967794266e+00 
28200 6.4433294114e+00 4.4418598548e-03 1.6145800103e+00 -2.7965346107e+00 1.6145800103e+00 2.7965346107e+00 
28300 6.4433182072e+00 4.3186725868e-03 1.6144424576e+00 -2.7962963624e+00 1.6144424576e+00 2.7962963624e+00 
28400 6.4433070930e+00 4.1952837254e-03 1.6143087082e+00 -2.7960647017e+00 1.6143087082e+00 2.7960647017e+00 
28500 6.4432961040e+00 4.0718261605e-03 1.6141787694e+00 -2.7958396411e+00 1.6141787694e+00 2.7958396411e+00 
28600 6.4432852735e+00 3.9484279507e-03 1.6140526442e+00 -2.7956211858e+00 1.6140526442e+00 2.7956211858e+00 
28700 6.4432746328e+00 3.8252123508e-03 1.6139303316e+00 -2.7954093342e+00 1.6139303316e+00 2.7954093342e+00 
28800 6.4432642108e+00 3.7022978434e-03 1.6138118269e+00 -2.7952040781e+00 1.6138118269e+00 2.7952040781e+00 
28900 6.4432540346e+00 3.5797981778e-03 1.6136971217e+00 -2.7950054028e+00 1.6136971217e+00 2.7950054028e+00 
29000 6.4432441291e+00 3.4578224130e-03 1.6135862038e+00 -2.7948132874e+00 1.6135862038e+00 2.7948132874e+00 
29100 6.4432345171e+00 3.3364749664e-03 1.6134790579e+00 -2.7946277052e+00 1.6134790579e+00 2.7946277052e+00 
29200 6.4432252194e+00 3.2158556670e-03 1.6133756652e+00 -2.7944486238e+00 1.6133756652e+00 2.7944486238e+00 
29300 6.4432162547e+00 3.0960598134e-03 1.6132760039e+00 -2.7942760053e+00 1.6132760039e+00 2.7942760053e+00 
29400 6.4432076400e+00 2.9771782353e-03 1.6131800491e+00 -2.7941098069e+00 1.6131800491e+00 2.7941098069e+00 
29500 6.4431993899e+00 2.8592973596e-03 1.6130877733e+00 -2.7939499805e+00 1.6130877733e+00 2.7939499805e+00 
29600 6.4431915175e+00 2.7424992803e-03 1.6129991461e+00 -2.7937964735e+00 1.6129991461e+00 2.7937964735e+00 
29700 6.4431840338e+00 2.6268618308e-03 1.6129141344e+00 -2.7936492290e+00 1.6129141344e+00 2.7936492290e+00 
29800 6.4431769481e+00 2.5124586605e-03 1.6128327029e+00 -2.7935081855e+00 1.6128327029e+00 2.7935081855e+00 
29900 6.4431702679e+00 2.3993593134e-03 1.6127548139e+00 -2.7933732778e+00 1.6127548139e+00 2.7933732778e+00 
30000 6.4431639990e+00 2.2876293098e-03 1.6126804275e+00 -2.7932444368e+00 1.6126804275e+00 2.7932444368e+00 
30100 6.4431581455e+00 2.1773302300e-03 1.6126095017e+00 -2.7931215897e+00 1.6126095017e+00 2.7931215897e+00 
30200 6.4431527100e+00 2.0685198008e-03 1.6125419926e+00 -2.7930046606e+00 1.6125419926e+00 2.7930046606e+00 
30300 6.4431476936e+00 1.9612519825e-03 1.6124778546e+00 -2.7928935702e+00 1.6124778546e+00 2.7928935702e+00 
30400 6.4431430959e+00 1.8555770595e-03 1.6124170401e+00 -2.7927882365e+00 1.6124170401e+00 2.7927882365e+00 
30500 6.4431389152e+00 1.7515417303e-03 1.6123595002e+00 -2.7926885745e+00 1.6123595002e+00 2.7926885745e+00 
30600 6.4431351482e+00 1.6491892001e-03 1.6123051844e+00 -2.7925944967e+00 1.6123051844e+00 2.7925944967e+00 
30700 6.4431317908e+00 1.5485592740e-03 1.6122540409e+00 -2.7925059135e+00 1.6122540409e+00 2.7925059135e+00 
30800 6.4431288374e+00 1.4496884504e-03 1.6122060164e+00 -2.7924227328e+00 1.6122060164e+00 2.7924227328e+00 
30900 6.4431262815e+00 1.3526100160e-03 1.6121610569e+00 -2.7923448605e+00 1.6121610569e+00 2.7923448605e+00 
31000 6.4431241153e+00 1.2573541406e-03 1.6121191068e+00 -2.7922722009e+00 1.6121191068e+00 2.7922722009e+00 
31100 6.4431223304e+00 1.1639479716e-03 1.6120801101e+00 -2.7922046565e+00 1.6120801101e+00 2.7922046565e+00 
31200 6.4431209172e+00 1.0724157300e-03 1.6120440094e+00 -2.7921421283e+00 1.6120440094e+00 2.7921421283e+00 
31300 6.4431198656e+00 9.8277880468e-04 1.6120107469e+00 -2.7920845160e+00 1.6120107469e+00 2.7920845160e+00 
31400 6.4431191645e+00 8.9505584724e-04 1.6119802640e+00 -2.7920317180e+00 1.6119802640e+00 2.7920317180e+00 
31500 6.4431188022e+00 8.0926286645e-04 1.6119525014e+00 -2.7919836319e+00 1.6119525014e+00 2.7919836319e+00 
31600 6.4431187664e+00 7.2541332169e-04 1.6119273996e+00 -2.7919401542e+00 1.6119273996e+00 2.7919401542e+00 
31700 6.4431190445e+00 6.4351821597e-04 1.6119048982e+00 -2.7919011806e+00 1.6119048982e+00 2.7919011806e+00 
31800 6.4431196230e+00 5.6358618797e-04 1.6118849368e+00 -2.7918666065e+00 1.6118849368e+00 2.7918666065e+00 
31900 6.4431204884e+00 4.8562360321e-04 1.6118674546e+00 -2.7918363265e+00 1.6118674546e+00 2.7918363265e+00 
32000 6.4431216267e+00 4.0963464401e-04 1.6118523907e+00 -2.7918102349e+00 1.6118523907e+00 2.7918102349e+00 
32100 6.4431230235e+00 3.3562139842e-04 1.6118396837e+00 -2.7917882259e+00 1.6118396837e+00 2.7917882259e+00 
32200 6.4431246644e+00 2.6358394770e-04 1.6118292726e+00 -2.7917701933e+00 1.6118292726e+00 2.7917701933e+00 
32300 6.4431265348e+00 1.9352045264e-04 1.6118210961e+00 -2.7917560311e+00 1.6118210961e+00 2.7917560311e+00 
32400 6.4431286200e+00 1.2542723818e-04 1.6118150929e+00 -2.7917456333e+00 1.6118150929e+00 2.7917456333e+00 
32500 6.4431309051e+00 5.9298876740e-05 1.6118112020e+00 -2.7917388941e+00 1.6118112020e+00 2.7917388941e+00 
32600 6.4431333753e+00 -2.4230700205e-06 1.6118112020e+00 -2.7917388941e+00 1.6118112020e+00 2.7917388941e+00 
32700 6.4431360159e+00 -6.4831272136e-05 1.6118112020e+00 -2.7917388941e+00 1.6118112020e+00 2.7917388941e+00 
32800 6.4431388128e+00 -1.2787051576e-04 1.6118112020e+00 -2.7917388941e+00 1.6118112020e+00 2.7917388941e+00 
32900 6.4431417510e+00 -1.8620827561e-04 1.6118151687e+00 -2.7917457646e+00 1.6118151687e+00 2.7917457646e+00 
33000 6.4431448163e+00 -2.4263250555e-04 1.6118209451e+00 -2.7917557696e+00 1.6118209451e+00 2.7917557696e+00 
33100 6.4431479947e+00 -2.9715746214e-04 1.6118284717e+00 -2.7917688061e+00 1.6118284717e+00 2.7917688061e+00 
33200 6.4431512725e+00 -3.4979862110e-04 1.6118376898e+00 -2.7917847722e+00 1.6118376898e+00 2.7917847722e+00 
33300 6.4431546360e+00 -4.0057260814e-04 1.6118485407e+00 -2.7918035666e+00 1.6118485407e+00 2.7918035666e+00 
33400 6.4431580722e+00 -4.4949713168e-04 1.6118609666e+00 -2.7918250889e+00 1.6118609666e+00 2.7918250889e+00 
33500 6.4431615682e+00 -4.9659091755e-04 1.6118749100e+00 -2.7918492396e+00 1.6118749100e+00 2.7918492396e+00 
33600 6.4431651117e+00 -5.4187364551e-04 1.6118903142e+00 -2.7918759204e+00 1.6118903142e+00 2.7918759204e+00 
33700 6.4431686906e+00 -5.8536588788e-04 1.6119071229e+00 -2.7919050339e+00 1.6119071229e+00 2.7919050339e+00 
33800 6.4431722933e+00 -6.2708904998e-04 1.6119252805e+00 -2.7919364838e+00 1.6119252805e+00 2.7919364838e+00 
33900 6.4431759087e+00 -6.6706531252e-04 1.6119447321e+00 -2.7919701749e+00 1.6119447321e+00 2.7919701749e+00 
34000 6.4431795261e+00 -7.0531757603e-04 1.6119654234e+00 -2.7920060134e+00 1.6119654234e+00 2.7920060134e+00 
34100 6.4431831353e+00 -7.4186940707e-04 1.6119873010e+00 -2.7920439065e+00 1.6119873010e+00 2.7920439065e+00 
34200 6.4431867266e+00 -7.7674498639e-04 1.6120103121e+00 -2.7920837629e+00 1.6120103121e+00 2.7920837629e+00 
34300 6.4431902908e+00 -8.0996905905e-04 1.6120344046e+00 -2.7921254923e+00 1.6120344046e+00 2.7921254923e+00 
34400 6.4431938191e+00 -8.4156688630e-04 1.6120595272e+00 -2.7921690060e+00 1.6120595272e+00 2.7921690060e+00 
34500 6.4431973034e+00 -8.7156419931e-04 1.6120856295e+00 -2.7922142165e+00 1.6120856295e+00 2.7922142165e+00 
34600 6.4432007361e+00 -8.9998715482e-04 1.6121126618e+00 -2.7922610378e+00 1.6121126618e+00 2.7922610378e+00 
34700 6.4432041099e+00 -9.2686229240e-04 1.6121405752e+00 -2.7923093851e+00 1.6121405752e+00 2.7923093851e+00 
34800 6.4432074181e+00 -9.5221649365e-04 1.6121693216e+00 -2.7923591754e+00 1.6121693216e+00 2.7923591754e+00 
34900 6.4432106548e+00 -9.7607694292e-04 1.6121988538e+00 -2.7924103267e+00 1.6121988538e+00 2.7924103267e+00 
35000 6.4432138142e+00 -9.9847108991e-04 1.6122291255e+00 -2.7924627588e+00 1.6122291255e+00 2.7924627588e+00 
35100 6.4432168912e+00 -1.0194266137e-03 1.6122600912e+00 -2.7925163929e+00 1.6122600912e+00 2.7925163929e+00 
35200 6.4432198812e+00 -1.0389713887e-03 1.6122917061e+00 -2.7925711516e+00 1.6122917061e+00 2.7925711516e+00 
35300 6.4432227801e+00 -1.0571334518e-03 1.6123239265e+00 -2.7926269590e+00 1.6123239265e+00 2.7926269590e+00 
35400 6.4432255843e+00 -1.0739409711e-03 1.6123567096e+00 -2.7926837409e+00 1.6123567096e+00 2.7926837409e+00 
35500 6.4432282906e+00 -1.0894222166e-03 1.6123900131e+00 -2.7927414243e+00 1.6123900131e+00 2.7927414243e+00 
35600 6.4432308962e+00 -1.1036055317e-03 1.6124237961e+00 -2.7927999381e+00 1.6124237961e+00 2.7927999381e+00 
35700 6.4432333989e+00 -1.1165193065e-03 1.6124580181e+00 -2.7928592125e+00 1.6124580181e+00 2.7928592125e+00 
35800 6.4432357970e+00 -1.1281919521e-03 1.6124926399e+00 -2.7929191792e+00 1.6124926399e+00 2.7929191792e+00 
35900 6.4432380889e+00 -1.1386518769e-03 1.6125276229e+00 -2.7929797715e+00 1.6125276229e+00 2.7929797715e+00 
36000 6.4432402736e+00 -1.1479274631e-03 1.6125629295e+00 -2.7930409242e+00 1.6125629295e+00 2.7930409242e+00 
36100 6.4432423507e+00 -1.1560470456e-03 1.6125985229e+00 -2.7931025738e+00 1.6125985229e+00 2.7931025738e+00 
36200 6.4432443197e+00 -1.1630388911e-03 1.6126343672e+00 -2.7931646581e+00 1.6126343672e+00 2.7931646581e+00 
36300 6.4432461809e+00 -1.1689311788e-03 1.6126704276e+00 -2.7932271164e+00 1.6126704276e+00 2.7932271164e+00 
36400 6.4432479346e+00 -1.1737519826e-03 1.6127066698e+00 -2.7932898898e+00 1.6127066698e+00 2.7932898898e+00 
36500 6.4432495818e+00 -1.1775292531e-03 1.6127430607e+00 -2.7933529207e+00 1.6127430607e+00 2.7933529207e+00 
36600 6.4432511233e+00 -1.1802908021e-03 1.6127795679e+00 -2.7934161529e+00 1.6127795679e+00 2.7934161529e+00 
36700 6.4432525606e+00 -1.1820642869e-03 1.6128161598e+00 -2.7934795321e+00 1.6128161598e+00 2.7934795321e+00 
36800 6.4432538954e+00 -1.1828771963e-03 1.6128528059e+00 -2.7935430050e+00 1.6128528059e+00 2.7935430050e+00 
36900 6.4432551295e+00 -1.1827568369e-03 1.6128894764e+00 -2.7936065201e+00 1.6128894764e+00 2.7936065201e+00 
37000 6.4432562650e+00 -1.1817303207e-03 1.6129261423e+00 -2.7936700273e+00 1.6129261423e+00 2.7936700273e+00 
37100 6.4432573042e+00 -1.1798245532e-03 1.6129627756e+00 -2.7937334780e+00 1.6129627756e+00 2.7937334780e+00 
37200 6.4432582498e+00 -1.1770662225e-03 1.6129993489e+00 -2.7937968249e+00 1.6129993489e+00 2.7937968249e+00 
37300 6.4432591042e+00 -1.1734817889e-03 1.6130358359e+00 -2.7938600223e+00 1.6130358359e+00 2.7938600223e+00 
37400 6.4432598705e+00 -1.1690974753e-03 1.6130722110e+00 -2.7939230258e+00 1.6130722110e+00 2.7939230258e+00 
37500 6.4432605517e+00 -1.1639392583e-03 1.6131084494e+00 -2.7939857924e+00 1.6131084494e+00 2.7939857924e+00 
37600 6.4432611507e+00 -1.1580328601e-03 1.6131445270e+00 -2.7940482808e+00 1.6131445270e+00 2.7940482808e+00 
37700 6.4432616710e+00 -1.1514037401e-03 1.6131804208e+00 -2.7941104506e+00 1.6131804208e+00 2.7941104506e+00 
37800 6.4432621158e+00 -1.1440770887e-03 1.6132161083e+00 -2.7941722632e+00 1.6132161083e+00 2.7941722632e+00 
37900 6.4432624885e+00 -1.1360778198e-03 1.6132515680e+00 -2.7942336811e+00 1.6132515680e+00 2.7942336811e+00 
38000 6.4432627927e+00 -1.1274305652e-03 1.6132867789e+00 -2.7942946683e+00 1.6132867789e+00 2.7942946683e+00 
38100 6.4432630317e+00 -1.1181596687e-03 1.6133217211e+00 -2.7943551899e+00 1.6133217211e+00 2.7943551899e+00 
38200 6.4432632093e+00 -1.1082891809e-03 1.6133563752e+00 -2.7944152125e+00 1.6133563752e+00 2.7944152125e+00 
38300 6.4432633290e+00 -1.0978428546e-03 1.6133907226e+00 -2.7944747040e+00 1.6133907226e+00 2.7944747040e+00 
38400 6.4432633942e+00 -1.0868441399e-03 1.6134247456e+00 -2.7945336335e+00 1.6134247456e+00 2.7945336335e+00 
38500 6.4432634088e+00 -1.0753161807e-03 1.6134584270e+00 -2.7945919714e+00 1.6134584270e+00 2.7945919714e+00 
38600 6.4432633761e+00 -1.0632818106e-03 1.6134917504e+00 -2.7946496893e+00 1.6134917504e+00 2.7946496893e+00 
38700 6.4432632998e+00 -1.0507635499e-03 1.6135247002e+00 -2.7947067601e+00 1.6135247002e+00 2.7947067601e+00 
38800 6.4432631834e+00 -1.0377836021e-03 1.6135572615e+00 -2.7947631578e+00 1.6135572615e+00 2.7947631578e+00 
38900 6.4432630303e+00 -1.0243638514e-03 1.6135894198e+00 -2.7948188577e+00 1.6135894198e+00 2.7948188577e+00 
39000 6.4432628439e+00 -1.0105258601e-03 1.6136211617e+00 -2.7948738362e+00 1.6136211617e+00 2.7948738362e+00 
39100 6.4432626275e+00 -9.9629086619e-04 1.6136524742e+00 -2.7949280710e+00 1.6136524742e+00 2.7949280710e+00 
39200 6.4432623844e+00 -9.8167978163e-04 1.6136833449e+00 -2.7949815408e+00 1.6136833449e+00 2.7949815408e+00 
39300 6.4432621179e+00 -9.6671319018e-04 1.6137137624e+00 -2.7950342253e+00 1.6137137624e+00 2.7950342253e+00 
39400 6.4432618309e+00 -9.5141134599e-04 1.6137437155e+00 -2.7950861057e+00 1.6137437155e+00 2.7950861057e+00 
39500 6.4432615265e+00 -9.3579417206e-04 1.6137731940e+00 -2.7951371639e+00 1.6137731940e+00 2.7951371639e+00 
39600 6.4432612077e+00 -9.1988125903e-04 1.6138021881e+00 -2.7951873831e+00 1.6138021881e+00 2.7951873831e+00 
39700 6.4432608771e+00 -9.0369186407e-04 1.6138306886e+00 -2.7952367475e+00 1.6138306886e+00 2.7952367475e+00 
39800 6.4432605375e+00 -8.8724490996e-04 1.6138586870e+00 -2.7952852422e+00 1.6138586870e+00 2.7952852422e+00 
39900 6.4432601915e+00 -8.7055898428e-04 1.6138861754e+00 -2.7953328535e+00 1.6138861754e+00 2.7953328535e+00 
40000 6.4432598415e+00 -8.5365233877e-04 1.6139131464e+00 -2.7953795686e+00 1.6139131464e+00 2.7953795686e+00 
40100 6.4432594899e+00 -8.3654288879e-04 1.6139395931e+00 -2.7954253756e+00 1.6139395931e+00 2.7954253756e+00 
40200 6.4432591390e+00 -8.1924821291e-04 1.6139655094e+00 -2.7954702639e+00 1.6139655094e+00 2.7954702639e+00 
40300 6.4432587907e+00 -8.0178555265e-04 1.6139908894e+00 -2.7955142234e+00 1.6139908894e+00 2.7955142234e+00 
40400 6.4432584472e+00 -7.8417181225e-04 1.6140157281e+00 -2.7955572453e+00 1.6140157281e+00 2.7955572453e+00 
40500 6.4432581103e+00 -7.6642355862e-04 1.6140400207e+00 -2.7955993213e+00 1.6140400207e+00 2.7955993213e+00 
40600 6.4432577817e+00 -7.4855702134e-04 1.6140637632e+00 -2.7956404445e+00 1.6140637632e+00 2.7956404445e+00 
40700 6.4432574630e+00 -7.3058809277e-04 1.6140869518e+00 -2.7956806084e+00 1.6140869518e+00 2.7956806084e+00 
40800 6.4432571558e+00 -7.1253232824e-04 1.6141095835e+00 -2.7957198076e+00 1.6141095835e+00 2.7957198076e+00 
40900 6.4432568614e+00 -6.9440494634e-04 1.6141316555e+00 -2.7957580375e+00 1.6141316555e+00 2.7957580375e+00 
41000 6.4432565810e+00 -6.7622082929e-04 1.6141531657e+00 -2.7957952943e+00 1.6141531657e+00 2.7957952943e+00 
41100 6.4432563159e+00 -6.5799452336e-04 1.6141741124e+00 -2.7958315749e+00 1.6141741124e+00 2.7958315749e+00 
41200 6.4432560669e+00 -6.3974023944e-04 1.6141944942e+00 -2.7958668773e+00 1.6141944942e+00 2.7958668773e+00 
41300 6.4432558352e+00 -6.2147185359e-04 1.6142143103e+00 -2.7959011998e+00 1.6142143103e+00 2.7959011998e+00 
41400 6.4432556213e+00 -6.0320290774e-04 1.6142335604e+00 -2.7959345418e+00 1.6142335604e+00 2.7959345418e+00 
41500 6.4432554261e+00 -5.8494661044e-04 1.6142522443e+00 -2.7959669033e+00 1.6142522443e+00 2.7959669033e+00 
41600 6.4432552500e+00 -5.6671583769e-04 1.6142703625e+00 -2.7959982850e+00 1.6142703625e+00 2.7959982850e+00 
41700 6.4432550936e+00 -5.4852313383e-04 1.6142879158e+00 -2.7960286883e+00 1.6142879158e+00 2.7960286883e+00 
41800 6.4432549573e+00 -5.3038071250e-04 1.6143049055e+00 -2.7960581152e+00 1.6143049055e+00 2.7960581152e+00 
41900 6.4432548414e+00 -5.1230045772e-04 1.6143213331e+00 -2.7960865686e+00 1.6143213331e+00 2.7960865686e+00 
42000 6.4432547459e+00 -4.9429392496e-04 1.6143372004e+00 -2.7961140517e+00 1.6143372004e+00 2.7961140517e+00 
42100 6.4432546711e+00 -4.7637234236e-04 1.6143525100e+00 -2.7961405686e+00 1.6143525100e+00 2.7961405686e+00 
42200 6.4432546170e+00 -4.5854661203e-04 1.6143672643e+00 -2.7961661238e+00 1.6143672643e+00 2.7961661238e+00 
42300 6.4432545834e+00 -4.4082731129e-04 1.6143814664e+00 -2.7961907225e+00 1.6143814664e+00 2.7961907225e+00 
42400 6.4432545704e+00 -4.2322469422e-04 1.6143951195e+00 -2.7962143705e+00 1.6143951195e+00 2.7962143705e+00 
42500 6.4432545776e+00 -4.0574869301e-04 1.6144082274e+00 -2.7962370740e+00 1.6144082274e+00 2.7962370740e+00 
42600 6.4432546047e+00 -3.8840891966e-04 1.6144207939e+00 -2.7962588398e+00 1.6144207939e+00 2.7962588398e+00 
42700 6.4432546516e+00 -3.7121466755e-04 1.6144328232e+00 -2.7962796753e+00 1.6144328232e+00 2.7962796753e+00 
42800 6.4432547177e+00 -3.5417491318e-04 1.6144443200e+00 -2.7962995882e+00 1.6144443200e+00 2.7962995882e+00 
42900 6.4432548026e+00 -3.3729831798e-04 1.6144552890e+00 -2.7963185870e+00 1.6144552890e+00 2.7963185870e+00 
43000 6.4432549059e+00 -3.2059323021e-04 1.6144657352e+00 -2.7963366804e+00 1.6144657352e+00 2.7963366804e+00 
43100 6.4432550269e+00 -3.0406768693e-04 1.6144756639e+00 -2.7963538775e+00 1.6144756639e+00 2.7963538775e+00 
43200 6.4432551651e+00 -2.8772941600e-04 1.6144850809e+00 -2.7963701881e+00 1.6144850809e+00 2.7963701881e+00 
43300 6.4432553199e+00 -2.7158583828e-04 1.6144939918e+00 -2.7963856222e+00 1.6144939918e+00 2.7963856222e+00 
43400 6.4432554906e+00 -2.5564406983e-04 1.6145024026e+00 -2.7964001903e+00 1.6145024026e+00 2.7964001903e+00 
43500 6.4432556765e+00 -2.3991092415e-04 1.6145103198e+00 -2.7964139032e+00 1.6145103198e+00 2.7964139032e+00 
43600 6.4432558769e+00 -2.2439291467e-04 1.6145177496e+00 -2.7964267720e+00 1.6145177496e+00 2.7964267720e+00 
43700 6.4432560911e+00 -2.0909625714e-04 1.6145246988e+00 -2.7964388084e+00 1.6145246988e+00 2.7964388084e+00 
43800 6.4432563184e+00 -1.9402687220e-04 1.6145311743e+00 -2.7964500243e+00 1.6145311743e+00 2.7964500243e+00 
43900 6.4432565578e+00 -1.7919038807e-04 1.6145371831e+00 -2.7964604318e+00 1.6145371831e+00 2.7964604318e+00 
44000 6.4432568088e+00 -1.6459214320e-04 1.6145427324e+00 -2.7964700434e+00 1.6145427324e+00 2.7964700434e+00 
44100 6.4432570704e+00 -1.5023718917e-04 1.6145478295e+00 -2.7964788720e+00 1.6145478295e+00 2.7964788720e+00 
44200 6.4432573419e+00 -1.3613029351e-04 1.6145524821e+00 -2.7964869306e+00 1.6145524821e+00 2.7964869306e+00 
44300 6.4432576224e+00 -1.2227594273e-04 1.6145566979e+00 -2.7964942324e+00 1.6145566979e+00 2.7964942324e+00 
44400 6.4432579113e+00 -1.0867834539e-04 1.6145604845e+00 -2.7965007911e+00 1.6145604845e+00 2.7965007911e+00 
44500 6.4432582077e+00 -9.5341435240e-05 1.6145638501e+00 -2.7965066205e+00 1.6145638501e+00 2.7965066205e+00 
44600 6.4432585108e+00 -8.2268874460e-05 1.6145668027e+00 -2.7965117344e+00 1.6145668027e+00 2.7965117344e+00 
44700 6.4432588198e+00 -6.9464056991e-05 1.6145693504e+00 -2.7965161472e+00 1.6145693504e+00 2.7965161472e+00 
44800 6.4432591341e+00 -5.9776700128e-05 1.6145693504e+00 -2.7965161472e+00 1.6145693504e+00 2.7965161472e+00 
44900 6.4432594526e+00 -4.9866507122e-05 1.6145693504e+00 -2.7965161472e+00 1.6145693504e+00 2.7965161472e+00 
45000 6.4432597748e+00 -3.9744470930e-05 1.6145693504e+00 -2.7965161472e+00 1.6145693504e+00 2.7965161472e+00 
45100 6.4432600998e+00 -2.9421433522e-05 1.6145693504e+00 -2.7965161472e+00 1.6145693504e+00 2.7965161472e+00 
45200 6.4432604270e+00 -1.8908086299e-05 1.6145693504e+00 -2.7965161472e+00 1.6145693504e+00 2.7965161472e+00 
45300 6.4432607558e+00 -8.2149704436e-06 1.6145693504e+00 -2.7965161472e+00 1.6145693504e+00 2.7965161472e+00 
45400 6.4432610853e+00 2.6475228153e-06 1.6145693504e+00 -2.7965161472e+00 1.6145693504e+00 2.7965161472e+00 
45500 6.4432614152e+00 1.3669151996e-05 1.6145693504e+00 -2.7965161472e+00 1.6145693504e+00 2.7965161472e+00 
45600 6.4432617446e+00 2.4839825235e-05 1.6145693504e+00 -2.7965161472e+00 1.6145693504e+00 2.7965161472e+00 
45700 6.4432620732e+00 3.6149600214e-05 1.6145693504e+00 -2.7965161472e+00 1.6145693504e+00 2.7965161472e+00 
45800 6.4432624002e+00 4.7588684144e-05 1.6145693504e+00 -2.7965161472e+00 1.6145693504e+00 2.7965161472e+00 
45900 6.4432627252e+00 5.9147433806e-05 1.6145693504e+00 -2.7965161472e+00 1.6145693504e+00 2.7965161472e+00 
46000 6.4432630477e+00 7.0816355631e-05 1.6145693504e+00 -2.7965161472e+00 1.6145693504e+00 2.7965161472e+00 
46100 6.4432633670e+00 7.9683629217e-05 1.6145671573e+00 -2.7965123487e+00 1.6145671573e+00 2.7965123487e+00 
46200 6.4432636827e+00 8.8261678850e-05 1.6145646897e+00 -2.7965080746e+00 1.6145646897e+00 2.7965080746e+00 
46300 6.4432639944e+00 9.6550875031e-05 1.6145619564e+00 -2.7965033404e+00 1.6145619564e+00 2.7965033404e+00 
46400 6.4432643016e+00 1.0455178920e-04 1.6145589664e+00 -2.7964981616e+00 1.6145589664e+00 2.7964981616e+00 
46500 6.4432646042e+00 1.1226518920e-04 1.6145557286e+00 -2.7964925536e+00 1.6145557286e+00 2.7964925536e+00 
46600 6.4432649015e+00 1.1969203476e-04 1.6145522520e+00 -2.7964865319e+00 1.6145522520e+00 2.7964865319e+00 
46700 6.4432651935e+00 1.2683347280e-04 1.6145485453e+00 -2.7964801117e+00 1.6145485453e+00 2.7964801117e+00 
46800 6.4432654797e+00 1.3369083284e-04 1.6145446175e+00 -2.7964733085e+00 1.6145446175e+00 2.7964733085e+00 
46900 6.4432657598e+00 1.4026562229e-04 1.6145404773e+00 -2.7964661375e+00 1.6145404773e+00 2.7964661375e+00 
47000 6.4432660338e+00 1.4655952170e-04 1.6145361334e+00 -2.7964586138e+00 1.6145361334e+00 2.7964586138e+00 
47100 6.4432663013e+00 1.5257438005e-04 1.6145315947e+00 -2.7964507524e+00 1.6145315947e+00 2.7964507524e+00 
47200 6.4432665621e+00 1.5831220992e-04 1.6145268697e+00 -2.7964425684e+00 1.6145268697e+00 2.7964425684e+00 
47300 6.4432668161e+00 1.6377518270e-04 1.6145219669e+00 -2.7964340766e+00 1.6145219669e+00 2.7964340766e+00 
47400 6.4432670633e+00 1.6896562379e-04 1.6145168950e+00 -2.7964252918e+00 1.6145168950e+00 2.7964252918e+00 
47500 6.4432673033e+00 1.7388600770e-04 1.6145116623e+00 -2.7964162285e+00 1.6145116623e+00 2.7964162285e+00 
47600 6.4432675363e+00 1.7853895324e-04 1.6145062772e+00 -2.7964069012e+00 1.6145062772e+00 2.7964069012e+00 
47700 6.4432677620e+00 1.8292721861e-04 1.6145007480e+00 -2.7963973244e+00 1.6145007480e+00 2.7963973244e+00 
47800 6.4432679806e+00 1.8705369656e-04 1.6144950828e+00 -2.7963875121e+00 1.6144950828e+00 2.7963875121e+00 
47900 6.4432681918e+00 1.9092140947e-04 1.6144892899e+00 -2.7963774784e+00 1.6144892899e+00 2.7963774784e+00 
48000 6.4432683959e+00 1.9453350452e-04 1.6144833772e+00 -2.7963672372e+00 1.6144833772e+00 2.7963672372e+00 
48100 6.4432685927e+00 1.9789324876e-04 1.6144773525e+00 -2.7963568022e+00 1.6144773525e+00 2.7963568022e+00 
48200 6.4432687823e+00 2.0100402427e-04 1.6144712238e+00 -2.7963461870e+00 1.6144712238e+00 2.7963461870e+00 
48300 6.4432689648e+00 2.0386932328e-04 1.6144649988e+00 -2.7963354049e+00 1.6144649988e+00 2.7963354049e+00 
48400 6.4432691402e+00 2.0649274333e-04 1.6144586849e+00 -2.7963244690e+00 1.6144586849e+00 2.7963244690e+00 
48500 6.4432693087e+00 2.0887798246e-04 1.6144522898e+00 -2.7963133924e+00 1.6144522898e+00 2.7963133924e+00 
48600 6.4432694703e+00 2.1102883433e-04 1.6144458208e+00 -2.7963021877e+00 1.6144458208e+00 2.7963021877e+00 
48700 6.4432696252e+00 2.1294918352e-04 1.6144392852e+00 -2.7962908677e+00 1.6144392852e+00 2.7962908677e+00 
48800 6.4432697734e+00 2.1464300069e-04 1.6144326900e+00 -2.7962794445e+00 1.6144326900e+00 2.7962794445e+00 
48900 6.4432699152e+00 2.1611433787e-04 1.6144260424e+00 -2.7962679305e+00 1.6144260424e+00 2.7962679305e+00 
49000 6.4432700506e+00 2.1736732378e-04 1.6144193492e+00 -2.7962563375e+00 1.6144193492e+00 2.7962563375e+00 
49100 6.4432701799e+00 2.1840615911e-04 1.6144126171e+00 -2.7962446773e+00 1.6144126171e+00 2.7962446773e+00 
49200 6.4432703031e+00 2.1923511194e-04 1.6144058529e+00 -2.7962329612e+00 1.6144058529e+00 2.7962329612e+00 
49300 6.4432704206e+00 2.1985851311e-04 1.6143990629e+00 -2.7962212007e+00 1.6143990629e+00 2.7962212007e+00 
49400 6.4432705324e+00 2.2028075170e-04 1.6143922536e+00 -2.7962094066e+00 1.6143922536e+00 2.7962094066e+00 
49500 6.4432706388e+00 2.2050627050e-04 1.6143854312e+00 -2.7961975899e+00 1.6143854312e+00 2.7961975899e+00 
49600 6.4432707400e+00 2.2053956159e-04 1.6143786018e+00 -2.7961857610e+00 1.6143786018e+00 2.7961857610e+00 
49700 6.4432708361e+00 2.2038516191e-04 1.6143717713e+00 -2.7961739303e+00 1.6143717713e+00 2.7961739303e+00 
49800 6.4432709274e+00 2.2004764893e-04 1.6143649456e+00 -2.7961621078e+00 1.6143649456e+00 2.7961621078e+00 
49900 6.4432710141e+00 2.1953163633e-04 1.6143581303e+00 -2.7961503033e+00 1.6143581303e+00 2.7961503033e+00 
50000 6.4432710963e+00 2.1884176981e-04 1.6143513310e+00 -2.7961385265e+00 1.6143513310e+00 2.7961385265e+00 
50100 6.4432711743e+00 2.1798272287e-04 1.6143445530e+00 -2.7961267867e+00 1.6143445530e+00 2.7961267867e+00 
50200 6.4432712484e+00 2.1695919274e-04 1.6143378016e+00 -2.7961150929e+00 1.6143378016e+00 2.7961150929e+00 
50300 6.4432713186e+00 2.1577589631e-04 1.6143310818e+00 -2.7961034539e+00 1.6143310818e+00 2.7961034539e+00 
50400 6.4432713853e+00 2.1443756613e-04 1.6143243987e+00 -2.7960918784e+00 1.6143243987e+00 2.7960918784e+00 
50500 6.4432714486e+00 2.1294894656e-04 1.6143177570e+00 -2.7960803746e+00 1.6143177570e+00 2.7960803746e+00 
50600 6.4432715087e+00 2.1131478986e-04 1.6143111613e+00 -2.7960689507e+00 1.6143111613e+00 2.7960689507e+00 
50700 6.4432715659e+00 2.0953985248e-04 1.6143046163e+00 -2.7960576143e+00 1.6143046163e+00 2.7960576143e+00 
50800 6.4432716203e+00 2.0762889132e-04 1.6142981262e+00 -2.7960463731e+00 1.6142981262e+00 2.7960463731e+00 
50900 6.4432716722e+00 2.0558666014e-04 1.6142916953e+00 -2.7960352344e+00 1.6142916953e+00 2.7960352344e+00 
51000 6.4432717217e+00 2.0341790598e-04 1.6142853276e+00 -2.7960242053e+00 1.6142853276e+00 2.7960242053e+00 
51100 6.4432717690e+00 2.0112736576e-04 1.6142790270e+00 -2.7960132924e+00 1.6142790270e+00 2.7960132924e+00 
51200 6.4432718143e+00 1.9871976280e-04 1.6142727974e+00 -2.7960025024e+00 1.6142727974e+00 2.7960025024e+00 
51300 6.4432718578e+00 1.9619980359e-04 1.6142666423e+00 -2.7959918414e+00 1.6142666423e+00 2.7959918414e+00 
51400 6.4432718997e+00 1.9357217454e-04 1.6142605653e+00 -2.7959813157e+00 1.6142605653e+00 2.7959813157e+00 
51500 6.4432719401e+00 1.9084153882e-04 1.6142545696e+00 -2.7959709308e+00 1.6142545696e+00 2.7959709308e+00 
51600 6.4432719792e+00 1.8801253332e-04 1.6142486584e+00 -2.7959606925e+00 1.6142486584e+00 2.7959606925e+00 
51700 6.4432720171e+00 1.8508976566e-04 1.6142428349e+00 -2.7959506058e+00 1.6142428349e+00 2.7959506058e+00 
51800 6.4432720540e+00 1.8207781132e-04 1.6142371019e+00 -2.7959406759e+00 1.6142371019e+00 2.7959406759e+00 
51900 6.4432720901e+00 1.7898121078e-04 1.6142314621e+00 -2.7959309076e+00 1.6142314621e+00 2.7959309076e+00 
52000 6.4432721254e+00 1.7580446687e-04 1.6142259183e+00 -2.7959213054e+00 1.6142259183e+00 2.7959213054e+00 
52100 6.4432721601e+00 1.7255204208e-04 1.6142204728e+00 -2.7959118736e+00 1.6142204728e+00 2.7959118736e+00 
52200 6.4432721944e+00 1.6922835603e-04 1.6142151281e+00 -2.7959026162e+00 1.6142151281e+00 2.7959026162e+00 
52300 6.4432722283e+00 1.6583778299e-04 1.6142098863e+00 -2.7958935371e+00 1.6142098863e+00 2.7958935371e+00 
52400 6.4432722619e+00 1.6238464954e-04 1.6142047495e+00 -2.7958846399e+00 1.6142047495e+00 2.7958846399e+00 
52500 6.4432722954e+00 1.5887323225e-04 1.6141997196e+00 -2.7958759279e+00 1.6141997196e+00 2.7958759279e+00 
52600 6.4432723289e+00 1.5530775549e-04 1.6141947985e+00 -2.7958674043e+00 1.6141947985e+00 2.7958674043e+00 
52700 6.4432723624e+00 1.5169238931e-04 1.6141899878e+00 -2.7958590719e+00 1.6141899878e+00 2.7958590719e+00 
52800 6.4432723960e+00 1.4803124741e-04 1.6141852891e+00 -2.7958509335e+00 1.6141852891e+00 2.7958509335e+00 
52900 6.4432724298e+00 1.4432838521e-04 1.6141807038e+00 -2.7958429915e+00 1.6141807038e+00 2.7958429915e+00 
53000 6.4432724639e+00 1.4058779796e-04 1.6141762331e+00 -2.7958352481e+00 1.6141762331e+00 2.7958352481e+00 
53100 6.4432724983e+00 1.3681341904e-04 1.6141718783e+00 -2.7958277054e+00 1.6141718783e+00 2.7958277054e+00 
53200 6.4432725330e+00 1.3300911820e-04 1.6141676405e+00 -2.7958203652e+00 1.6141676405e+00 2.7958203652e+00 
53300 6.4432725682e+00 1.2917869999e-04 1.6141635204e+00 -2.7958132291e+00 1.6141635204e+00 2.7958132291e+00 
53400 6.4432726039e+00 1.2532590227e-04 1.6141595190e+00 -2.7958062984e+00 1.6141595190e+00 2.7958062984e+00 
53500 6.4432726401e+00 1.2145439475e-04 1.6141556369e+00 -2.7957995745e+00 1.6141556369e+00 2.7957995745e+00 
53600 6.4432726768e+00 1.1756777766e-04 1.6141518748e+00 -2.7957930582e+00 1.6141518748e+00 2.7957930582e+00 
53700 6.4432727141e+00 1.1366958047e-04 1.6141482330e+00 -2.7957867505e+00 1.6141482330e+00 2.7957867505e+00 
53800 6.4432727520e+00 1.0976326072e-04 1.6141447119e+00 -2.7957806519e+00 1.6141447119e+00 2.7957806519e+00 
53900 6.4432727906e+00 1.0585220294e-04 1.6141413119e+00 -2.7957747628e+00 1.6141413119e+00 2.7957747628e+00 
54000 6.4432728297e+00 1.0193971757e-04 1.6141380330e+00 -2.7957690836e+00 1.6141380330e+00 2.7957690836e+00 
54100 6.4432728694e+00 9.8029040094e-05 1.6141348753e+00 -2.7957636143e+00 1.6141348753e+00 2.7957636143e+00 
54200 6.4432729098e+00 9.4123330125e-05 1.6141318387e+00 -2.7957583548e+00 1.6141318387e+00 2.7957583548e+00 
54300 6.4432729509e+00 9.0225670647e-05 1.6141289231e+00 -2.7957533048e+00 1.6141289231e+00 2.7957533048e+00 
54400 6.4432729925e+00 8.6339067289e-05 1.6141261282e+00 -2.7957484639e+00 1.6141261282e+00 2.7957484639e+00 
54500 6.4432730348e+00 8.2466447713e-05 1.6141234538e+00 -2.7957438316e+00 1.6141234538e+00 2.7957438316e+00 
54600 6.4432730776e+00 7.8610661042e-05 1.6141208992e+00 -2.7957394070e+00 1.6141208992e+00 2.7957394070e+00 
54700 6.4432731210e+00 7.4774477386e-05 1.6141184641e+00 -2.7957351893e+00 1.6141184641e+00 2.7957351893e+00 
54800 6.4432731651e+00 7.0960587412e-05 1.6141161479e+00 -2.7957311774e+00 1.6141161479e+00 2.7957311774e+00 
54900 6.4432732096e+00 6.7171602026e-05 1.6141139497e+00 -2.7957273702e+00 1.6141139497e+00 2.7957273702e+00 
55000 6.4432732548e+00 6.6166560111e-05 1.6141139497e+00 -2.7957273702e+00 1.6141139497e+00 2.7957273702e+00 
55100 6.4432733005e+00 6.5053512575e-05 1.6141139497e+00 -2.7957273702e+00 1.6141139497e+00 2.7957273702e+00 
55200 6.4432733467e+00 6.3835370134e-05 1.6141139497e+00 -2.7957273702e+00 1.6141139497e+00 2.7957273702e+00 
55300 6.4432733932e+00 6.2515029657e-05 1.6141139497e+00 -2.7957273702e+00 1.6141139497e+00 2.7957273702e+00 
55400 6.4432734402e+00 6.1095373716e-05 1.6141139497e+00 -2.7957273702e+00 1.6141139497e+00 2.7957273702e+00 
55500 6.4432734874e+00 5.9579270123e-05 1.6141139497e+00 -2.7957273702e+00 1.6141139497e+00 2.7957273702e+00 
55600 6.4432735350e+00 5.7969571474e-05 1.6141139497e+00 -2.7957273702e+00 1.6141139497e+00 2.7957273702e+00 
55700 6.4432735829e+00 5.6269114662e-05 1.6141139497e+00 -2.7957273702e+00 1.6141139497e+00 2.7957273702e+00 
55800 6.4432736309e+00 5.4480720390e-05 1.6141139497e+00 -2.7957273702e+00 1.6141139497e+00 2.7957273702e+00 
55900 6.4432736792e+00 5.2607192661e-05 1.6141139497e+00 -2.7957273702e+00 1.6141139497e+00 2.7957273702e+00 
56000 6.4432737277e+00 5.0651318281e-05 1.6141139497e+00 -2.7957273702e+00 1.6141139497e+00 2.7957273702e+00 
56100 6.4432737762e+00 4.8615866324e-05 1.6141139497e+00 -2.7957273702e+00 1.6141139497e+00 2.7957273702e+00 
56200 6.4432738249e+00 4.6503587607e-05 1.6141139497e+00 -2.7957273702e+00 1.6141139497e+00 2.7957273702e+00 
56300 6.4432738736e+00 4.4317214152e-05 1.6141139497e+00 -2.7957273702e+00 1.6141139497e+00 2.7957273702e+00 
56400 6.4432739223e+00 4.2059458650e-05 1.6141139497e+00 -2.7957273702e+00 1.6141139497e+00 2.7957273702e+00 
56500 6.4432739710e+00 3.9733013888e-05 1.6141139497e+00 -2.7957273702e+00 1.6141139497e+00 2.7957273702e+00 
56600 6.4432740197e+00 3.7340552215e-05 1.6141139497e+00 -2.7957273702e+00 1.6141139497e+00 2.7957273702e+00 
56700 6.4432740682e+00 3.4884724965e-05 1.6141139497e+00 -2.7957273702e+00 1.6141139497e+00 2.7957273702e+00 
56800 6.4432741166e+00 3.2368161897e-05 1.6141139497e+00 -2.7957273702e+00 1.6141139497e+00 2.7957273702e+00 
56900 6.4432741649e+00 2.9793470622e-05 1.6141139497e+00 -2.7957273702e+00 1.6141139497e+00 2.7957273702e+00 
57000 6.4432742129e+00 2.7163236034e-05 1.6141139497e+00 -2.7957273702e+00 1.6141139497e+00 2.7957273702e+00 
57100 6.4432742607e+00 2.4480019734e-05 1.6141139497e+00 -2.7957273702e+00 1.6141139497e+00 2.7957273702e+00 
57200 6.4432743083e+00 2.1746359457e-05 1.6141139497e+00 -2.7957273702e+00 1.6141139497e+00 2.7957273702e+00 
57300 6.4432743555e+00 1.8964768495e-05 1.6141139497e+00 -2.7957273702e+00 1.6141139497e+00 2.7957273702e+00 
57400 6.4432744024e+00 1.6137735130e-05 1.6141139497e+00 -2.7957273702e+00 1.6141139497e+00 2.7957273702e+00 
57500 6.4432744490e+00 1.3267722051e-05 1.6141139497e+00 -2.7957273702e+00 1.6141139497e+00 2.7957273702e+00 
57600 6.4432744952e+00 1.0357165795e-05 1.6141139497e+00 -2.7957273702e+00 1.6141139497e+00 2.7957273702e+00 
57700 6.4432745410e+00 7.4084761747e-06 1.6141139497e+00 -2.7957273702e+00 1.6141139497e+00 2.7957273702e+00 
57800 6.4432745863e+00 4.4240357217e-06 1.6141139497e+00 -2.7957273702e+00 1.6141139497e+00 2.7957273702e+00 
57900 6.4432746312e+00 1.4061991230e-06 1.6141139497e+00 -2.7957273702e+00 1.6141139497e+00 2.7957273702e+00 
58000 6.4432746756e+00 -1.6427073216e-06 1.6141139497e+00 -2.7957273702e+00 1.6141139497e+00 2.7957273702e+00 
58100 6.4432747195e+00 -4.7203862537e-06 1.6141139497e+00 -2.7957273702e+00 1.6141139497e+00 2.7957273702e+00 
58200 6.4432747629e+00 -7.8245697823e-06 1.6141139497e+00 -2.7957273702e+00 1.6141139497e+00 2.7957273702e+00 
58300 6.4432748058e+00 -1.0953020021e-05 1.6141139497e+00 -2.7957273702e+00 1.6141139497e+00 2.7957273702e+00 
58400 6.4432748481e+00 -1.4103529600e-05 1.6141139497e+00 -2.7957273702e+00 1.6141139497e+00 2.7957273702e+00 
58500 6.4432748899e+00 -1.7273922183e-05 1.6141139497e+00 -2.7957273702e+00 1.6141139497e+00 2.7957273702e+00 
58600 6.4432749310e+00 -2.0462052963e-05 1.6141139497e+00 -2.7957273702e+00 1.6141139497e+00 2.7957273702e+00 
58700 6.4432749716e+00 -2.3665809150e-05 1.6141139497e+00 -2.7957273702e+00 1.6141139497e+00 2.7957273702e+00 
58800 6.4432750116e+00 -2.6883110450e-05 1.6141139497e+00 -2.7957273702e+00 1.6141139497e+00 2.7957273702e+00 
58900 6.4432750509e+00 -3.0111909522e-05 1.6141139497e+00 -2.7957273702e+00 1.6141139497e+00 2.7957273702e+00 
59000 6.4432750897e+00 -3.3350192439e-05 1.6141139497e+00 -2.7957273702e+00 1.6141139497e+00 2.7957273702e+00 
59100 6.4432751278e+00 -3.6595979113e-05 1.6141139497e+00 -2.7957273702e+00 1.6141139497e+00 2.7957273702e+00 
59200 6.4432751653e+00 -3.9847323730e-05 1.6141139497e+00 -2.7957273702e+00 1.6141139497e+00 2.7957273702e+00 
59300 6.4432752021e+00 -4.3102315144e-05 1.6141139497e+00 -2.7957273702e+00 1.6141139497e+00 2.7957273702e+00 
59400 6.4432752383e+00 -4.6359077281e-05 1.6141139497e+00 -2.7957273702e+00 1.6141139497e+00 2.7957273702e+00 
59500 6.4432752739e+00 -4.9615769500e-05 1.6141139497e+00 -2.7957273702e+00 1.6141139497e+00 2.7957273702e+00 
59600 6.4432753088e+00 -5.2870586969e-05 1.6141139497e+00 -2.7957273702e+00 1.6141139497e+00 2.7957273702e+00 
59700 6.4432753431e+00 -5.6121760988e-05 1.6141139497e+00 -2.7957273702e+00 1.6141139497e+00 2.7957273702e+00 
59800 6.4432753768e+00 -5.9367559333e-05 1.6141139497e+00 -2.7957273702e+00 1.6141139497e+00 2.7957273702e+00 
59900 6.4432754098e+00 -6.2606286545e-05 1.6141139497e+00 -2.7957273702e+00 1.6141139497e+00 2.7957273702e+00 
60000 6.4432754422e+00 -6.5836284227e-05 1.6141139497e+00 -2.7957273702e+00 1.6141139497e+00 2.7957273702e+00 
60100 6.4432754739e+00 -6.9055931312e-05 1.6141139497e+00 -2.7957273702e+00 1.6141139497e+00 2.7957273702e+00 
60200 6.4432755051e+00 -7.2263644310e-05 1.6141139497e+00 -2.7957273702e+00 1.6141139497e+00 2.7957273702e+00 
60300 6.4432755354e+00 -7.2492687411e-05 1.6141161882e+00 -2.7957312473e+00 1.6141161882e+00 2.7957312473e+00 
60400 6.4432755650e+00 -7.2679667258e-05 1.6141184338e+00 -2.7957351368e+00 1.6141184338e+00 2.7957351368e+00 
60500 6.4432755941e+00 -7.2824528139e-05 1.6141206852e+00 -2.7957390363e+00 1.6141206852e+00 2.7957390363e+00 
60600 6.4432756225e+00 -7.2927291162e-05 1.6141229411e+00 -2.7957429436e+00 1.6141229411e+00 2.7957429436e+00 
60700 6.4432756504e+00 -7.2988050657e-05 1.6141252001e+00 -2.7957468563e+00 1.6141252001e+00 2.7957468563e+00 
60800 6.4432756776e+00 -7.3006970667e-05 1.6141274610e+00 -2.7957507724e+00 1.6141274610e+00 2.7957507724e+00 
60900 6.4432757043e+00 -7.2984281538e-05 1.6141297225e+00 -2.7957546894e+00 1.6141297225e+00 2.7957546894e+00 
61000 6.4432757304e+00 -7.2920276615e-05 1.6141319833e+00 -2.7957586052e+00 1.6141319833e+00 2.7957586052e+00 
61100 6.4432757559e+00 -7.2815309014e-05 1.6141342421e+00 -2.7957625176e+00 1.6141342421e+00 2.7957625176e+00 
61200 6.4432757809e+00 -7.2669788498e-05 1.6141364977e+00 -2.7957664243e+00 1.6141364977e+00 2.7957664243e+00 
61300 6.4432758054e+00 -7.2484178428e-05 1.6141387487e+00 -2.7957703232e+00 1.6141387487e+00 2.7957703232e+00 
61400 6.4432758293e+00 -7.2258992817e-05 1.6141409940e+00 -2.7957742122e+00 1.6141409940e+00 2.7957742122e+00 
61500 6.4432758527e+00 -7.1994793438e-05 1.6141432323e+00 -2.7957780891e+00 1.6141432323e+00 2.7957780891e+00 
61600 6.4432758757e+00 -7.1692187042e-05 1.6141454624e+00 -2.7957819517e+00 1.6141454624e+00 2.7957819517e+00 
61700 6.4432758982e+00 -7.1351822651e-05 1.6141476832e+00 -2.7957857982e+00 1.6141476832e+00 2.7957857982e+00 
61800 6.4432759202e+00 -7.0974388896e-05 1.6141498934e+00 -2.7957896264e+00 1.6141498934e+00 2.7957896264e+00 
61900 6.4432759417e+00 -7.0560611489e-05 1.6141520919e+00 -2.7957934343e+00 1.6141520919e+00 2.7957934343e+00 
62000 6.4432759630e+00 -7.3006287208e-05 1.6141520919e+00 -2.7957934343e+00 1.6141520919e+00 2.7957934343e+00 
62100 6.4432759837e+00 -7.2420619601e-05 1.6141543533e+00 -2.7957973512e+00 1.6141543533e+00 2.7957973512e+00 
62200 6.4432760040e+00 -7.1804691444e-05 1.6141565966e+00 -2.7958012367e+00 1.6141565966e+00 2.7958012367e+00 
62300 6.4432760239e+00 -7.1159188826e-05 1.6141588209e+00 -2.7958050892e+00 1.6141588209e+00 2.7958050892e+00 
62400 6.4432760434e+00 -7.0484831240e-05 1.6141610251e+00 -2.7958089070e+00 1.6141610251e+00 2.7958089070e+00 
62500 6.4432760627e+00 -7.2674235449e-05 1.6141610251e+00 -2.7958089070e+00 1.6141610251e+00 2.7958089070e+00 
62600 6.4432760815e+00 -7.1843045552e-05 1.6141632762e+00 -2.7958128061e+00 1.6141632762e+00 2.7958128061e+00 
62700 6.4432761000e+00 -7.0989038809e-05 1.6141655016e+00 -2.7958166606e+00 1.6141655016e+00 2.7958166606e+00 
62800 6.4432761181e+00 -7.0112880419e-05 1.6141677006e+00 -2.7958204693e+00 1.6141677006e+00 2.7958204693e+00 
62900 6.4432761361e+00 -7.2091827236e-05 1.6141677006e+00 -2.7958204693e+00 1.6141677006e+00 2.7958204693e+00 
63000 6.4432761536e+00 -7.1072613956e-05 1.6141699337e+00 -2.7958243371e+00 1.6141699337e+00 2.7958243371e+00 
63100 6.4432761708e+00 -7.0037096906e-05 1.6141721352e+00 -2.7958281503e+00 1.6141721352e+00 2.7958281503e+00 
63200 6.4432761879e+00 -7.1859306720e-05 1.6141721352e+00 -2.7958281503e+00 1.6141721352e+00 2.7958281503e+00 
63300 6.4432762046e+00 -7.0692277644e-05 1.6141743611e+00 -2.7958320056e+00 1.6141743611e+00 2.7958320056e+00 
63400 6.4432762211e+00 -7.2414816029e-05 1.6141743611e+00 -2.7958320056e+00 1.6141743611e+00 2.7958320056e+00 
63500 6.4432762373e+00 -7.1125169755e-05 1.6141766042e+00 -2.7958358908e+00 1.6141766042e+00 2.7958358908e+00 
63600 6.4432762532e+00 -6.9829586331e-05 1.6141788073e+00 -2.7958397067e+00 1.6141788073e+00 2.7958397067e+00 
63700 6.4432762691e+00 -7.1393346525e-05 1.6141788073e+00 -2.7958397067e+00 1.6141788073e+00 2.7958397067e+00 
63800 6.4432762846e+00 -6.9986705871e-05 1.6141810187e+00 -2.7958435371e+00 1.6141810187e+00 2.7958435371e+00 
63900 6.4432763001e+00 -7.1450426506e-05 1.6141810187e+00 -2.7958435371e+00 1.6141810187e+00 2.7958435371e+00 
64000 6.4432763151e+00 -6.9941566921e-05 1.6141832320e+00 -2.7958473705e+00 1.6141832320e+00 2.7958473705e+00 
64100 6.4432763302e+00 -7.1305585646e-05 1.6141832320e+00 -2.7958473705e+00 1.6141832320e+00 2.7958473705e+00 
64200 6.4432763449e+00 -6.9703235252e-05 1.6141854407e+00 -2.7958511961e+00 1.6141854407e+00 2.7958511961e+00 
64300 6.4432763597e+00 -7.0968150417e-05 1.6141854407e+00 -2.7958511961e+00 1.6141854407e+00 2.7958511961e+00 
64400 6.4432763741e+00 -6.9280911626e-05 1.6141876389e+00 -2.7958550036e+00 1.6141876389e+00 2.7958550036e+00 
64500 6.4432763885e+00 -7.0447572574e-05 1.6141876389e+00 -2.7958550036e+00 1.6141876389e+00 2.7958550036e+00 
64600 6.4432764027e+00 -7.1574077381e-05 1.6141876389e+00 -2.7958550036e+00 1.6141876389e+00 2.7958550036e+00 
64700 6.4432764167e+00 -6.9724436682e-05 1.6141898560e+00 -2.7958588436e+00 1.6141898560e+00 2.7958588436e+00 
64800 6.4432764307e+00 -7.0754304712e-05 1.6141898560e+00 -2.7958588436e+00 1.6141898560e+00 2.7958588436e+00 
64900 6.4432764443e+00 -6.8842238633e-05 1.6141920476e+00 -2.7958626396e+00 1.6141920476e+00 2.7958626396e+00 
65000 6.4432764580e+00 -6.9776849943e-05 1.6141920476e+00 -2.7958626396e+00 1.6141920476e+00 2.7958626396e+00 
65100 6.4432764716e+00 -7.0672927826e-05 1.6141920476e+00 -2.7958626396e+00 1.6141920476e+00 2.7958626396e+00 
65200 6.4432764851e+00 -7.1530965343e-05 1.6141920476e+00 -2.7958626396e+00 1.6141920476e+00 2.7958626396e+00 
65300 6.4432764983e+00 -6.9416868398e-05 1.6141942633e+00 -2.7958664773e+00 1.6141942633e+00 2.7958664773e+00 
65400 6.4432765116e+00 -7.0182817552e-05 1.6141942633e+00 -2.7958664773e+00 1.6141942633e+00 2.7958664773e+00 
65500 6.4432765247e+00 -7.0911991523e-05 1.6141942633e+00 -2.7958664773e+00 1.6141942633e+00 2.7958664773e+00 
65600 6.4432765376e+00 -6.8695746829e-05 1.6141964598e+00 -2.7958702818e+00 1.6141964598e+00 2.7958702818e+00 
65700 6.4432765505e+00 -6.9335650501e-05 1.6141964598e+00 -2.7958702818e+00 1.6141964598e+00 2.7958702818e+00 
65800 6.4432765634e+00 -6.9940179701e-05 1.6141964598e+00 -2.7958702818e+00 1.6141964598e+00 2.7958702818e+00 
65900 6.4432765761e+00 -7.0509921556e-05 1.6141964598e+00 -2.7958702818e+00 1.6141964598e+00 2.7958702818e+00 
66000 6.4432765888e+00 -7.1045466986e-05 1.6141964598e+00 -2.7958702818e+00 1.6141964598e+00 2.7958702818e+00 
66100 6.4432766012e+00 -6.8632754393e-05 1.6141986605e+00 -2.7958740934e+00 1.6141986605e+00 2.7958740934e+00 
66200 6.4432766136e+00 -6.9084298660e-05 1.6141986605e+00 -2.7958740934e+00 1.6141986605e+00 2.7958740934e+00 
66300 6.4432766260e+00 -6.9503187348e-05 1.6141986605e+00 -2.7958740934e+00 1.6141986605e+00 2.7958740934e+00 
66400 6.4432766383e+00 -6.9890050773e-05 1.6141986605e+00 -2.7958740934e+00 1.6141986605e+00 2.7958740934e+00 
66500 6.4432766506e+00 -7.0245521147e-05 1.6141986605e+00 -2.7958740934e+00 1.6141986605e+00 2.7958740934e+00 
66600 6.4432766627e+00 -7.0570232369e-05 1.6141986605e+00 -2.7958740934e+00 1.6141986605e+00 2.7958740934e+00 
66700 6.4432766747e+00 -7.0864819802e-05 1.6141986605e+00 -2.7958740934e+00 1.6141986605e+00 2.7958740934e+00 
66800 6.4432766865e+00 -6.8222681305e-05 1.6142008555e+00 -2.7958778954e+00 1.6142008555e+00 2.7958778954e+00 
66900 6.4432766984e+00 -6.8441580856e-05 1.6142008555e+00 -2.7958778954e+00 1.6142008555e+00 2.7958778954e+00 
67000 6.4432767102e+00 -6.8632017243e-05 1.6142008555e+00 -2.7958778954e+00 1.6142008555e+00 2.7958778954e+00 
67100 6.4432767219e+00 -6.8794655679e-05 1.6142008555e+00 -2.7958778954e+00 1.6142008555e+00 2.7958778954e+00 
67200 6.4432767335e+00 -6.8930160885e-05 1.6142008555e+00 -2.7958778954e+00 1.6142008555e+00 2.7958778954e+00 
67300 6.4432767450e+00 -6.9039196862e-05 1.6142008555e+00 -2.7958778954e+00 1.6142008555e+00 2.7958778954e+00 
67400 6.4432767565e+00 -6.9122426666e-05 1.6142008555e+00 -2.7958778954e+00 1.6142008555e+00 2.7958778954e+00 
67500 6.4432767678e+00 -6.9180512187e-05 1.6142008555e+00 -2.7958778954e+00 1.6142008555e+00 2.7958778954e+00 
67600 6.4432767791e+00 -6.9214113915e-05 1.6142008555e+00 -2.7958778954e+00 1.6142008555e+00 2.7958778954e+00 
67700 6.4432767903e+00 -6.9223890721e-05 1.6142008555e+00 -2.7958778954e+00 1.6142008555e+00 2.7958778954e+00 
67800 6.4432768014e+00 -6.9210499633e-05 1.6142008555e+00 -2.7958778954e+00 1.6142008555e+00 2.7958778954e+00 
67900 6.4432768124e+00 -6.9174595594e-05 1.6142008555e+00 -2.7958778954e+00 1.6142008555e+00 2.7958778954e+00 
68000 6.4432768233e+00 -6.9116831255e-05 1.6142008555e+00 -2.7958778954e+00 1.6142008555e+00 2.7958778954e+00 
68100 6.4432768341e+00 -6.9037856733e-05 1.6142008555e+00 -2.7958778954e+00 1.6142008555e+00 2.7958778954e+00 
68200 6.4432768449e+00 -6.8938319398e-05 1.6142008555e+00 -2.7958778954e+00 1.6142008555e+00 2.7958778954e+00 
68300 6.4432768555e+00 -6.8818863638e-05 1.6142008555e+00 -2.7958778954e+00 1.6142008555e+00 2.7958778954e+00 
68400 6.4432768660e+00 -6.8680130643e-05 1.6142008555e+00 -2.7958778954e+00 1.6142008555e+00 2.7958778954e+00 
68500 6.4432768765e+00 -6.8522758177e-05 1.6142008555e+00 -2.7958778954e+00 1.6142008555e+00 2.7958778954e+00 
68600 6.4432768868e+00 -6.8347380359e-05 1.6142008555e+00 -2.7958778954e+00 1.6142008555e+00 2.7958778954e+00 
68700 6.4432768971e+00 -6.8154627449e-05 1.6142008555e+00 -2.7958778954e+00 1.6142008555e+00 2.7958778954e+00 
68800 6.4432769073e+00 -6.7945125620e-05 1.6142008555e+00 -2.7958778954e+00 1.6142008555e+00 2.7958778954e+00 
68900 6.4432769173e+00 -6.7719496753e-05 1.6142008555e+00 -2.7958778954e+00 1.6142008555e+00 2.7958778954e+00 
69000 6.4432769273e+00 -6.7478358217e-05 1.6142008555e+00 -2.7958778954e+00 1.6142008555e+00 2.7958778954e+00 
69100 6.4432769372e+00 -6.7222322662e-05 1.6142008555e+00 -2.7958778954e+00 1.6142008555e+00 2.7958778954e+00 
69200 6.4432769469e+00 -6.6951997810e-05 1.6142008555e+00 -2.7958778954e+00 1.6142008555e+00 2.7958778954e+00 
69300 6.4432769566e+00 -6.6667986251e-05 1.6142008555e+00 -2.7958778954e+00 1.6142008555e+00 2.7958778954e+00 
69400 6.4432769661e+00 -6.6370885243e-05 1.6142008555e+00 -2.7958778954e+00 1.6142008555e+00 2.7958778954e+00 
69500 6.4432769756e+00 -6.6061286509e-05 1.6142008555e+00 -2.7958778954e+00 1.6142008555e+00 2.7958778954e+00 
69600 6.4432769850e+00 -6.5739776041e-05 1.6142008555e+00 -2.7958778954e+00 1.6142008555e+00 2.7958778954e+00 
69700 6.4432769942e+00 -6.5406933917e-05 1.6142008555e+00 -2.7958778954e+00 1.6142008555e+00 2.7958778954e+00 
69800 6.4432770034e+00 -6.5063334104e-05 1.6142008555e+00 -2.7958778954e+00 1.6142008555e+00 2.7958778954e+00 
69900 6.4432770124e+00 -6.4709544278e-05 1.6142008555e+00 -2.7958778954e+00 1.6142008555e+00 2.7958778954e+00 
70000 6.4432770214e+00 -6.4346125645e-05 1.6142008555e+00 -2.7958778954e+00 1.6142008555e+00 2.7958778954e+00 
70100 6.4432770302e+00 -6.3973632767e-05 1.6142008555e+00 -2.7958778954e+00 1.6142008555e+00 2.7958778954e+00 
70200 6.4432770390e+00 -6.3592613386e-05 1.6142008555e+00 -2.7958778954e+00 1.6142008555e+00 2.7958778954e+00 
70300 6.4432770476e+00 -6.3203608256e-05 1.6142008555e+00 -2.7958778954e+00 1.6142008555e+00 2.7958778954e+00 
70400 6.4432770561e+00 -6.2807150995e-05 1.6142008555e+00 -2.7958778954e+00 1.6142008555e+00 2.7958778954e+00 
70500 6.4432770646e+00 -6.2403767907e-05 1.6142008555e+00 -2.7958778954e+00 1.6142008555e+00 2.7958778954e+00 
70600 6.4432770729e+00 -6.1993977847e-05 1.6142008555e+00 -2.7958778954e+00 1.6142008555e+00 2.7958778954e+00 
70700 6.4432770811e+00 -6.1578292066e-05 1.6142008555e+00 -2.7958778954e+00 1.6142008555e+00 2.7958778954e+00 
70800 6.4432770892e+00 -6.1157214068e-05 1.6142008555e+00 -2.7958778954e+00 1.6142008555e+00 2.7958778954e+00 
70900 6.4432770973e+00 -6.0731239479e-05 1.6142008555e+00 -2.7958778954e+00 1.6142008555e+00 2.7958778954e+00 
71000 6.4432771052e+00 -6.0300855908e-05 1.6142008555e+00 -2.7958778954e+00 1.6142008555e+00 2.7958778954e+00 
71100 6.4432771130e+00 -5.9866542828e-05 1.6142008555e+00 -2.7958778954e+00 1.6142008555e+00 2.7958778954e+00 
71200 6.4432771207e+00 -5.9428771453e-05 1.6142008555e+00 -2.7958778954e+00 1.6142008555e+00 2.7958778954e+00 
71300 6.4432771283e+00 -5.8988004613e-05 1.6142008555e+00 -2.7958778954e+00 1.6142008555e+00 2.7958778954e+00 
71400 6.4432771358e+00 -5.8544696667e-05 1.6142008555e+00 -2.7958778954e+00 1.6142008555e+00 2.7958778954e+00 
71500 6.4432771432e+00 -5.8099293376e-05 1.6142008555e+00 -2.7958778954e+00 1.6142008555e+00 2.7958778954e+00 
71600 6.4432771506e+00 -5.7652231817e-05 1.6142008555e+00 -2.7958778954e+00 1.6142008555e+00 2.7958778954e+00 
71700 6.4432771578e+00 -5.7203940290e-05 1.6142008555e+00 -2.7958778954e+00 1.6142008555e+00 2.7958778954e+00 
71800 6.4432771649e+00 -5.6754838229e-05 1.6142008555e+00 -2.7958778954e+00 1.6142008555e+00 2.7958778954e+00 
71900 6.4432771719e+00 -5.6305336119e-05 1.6142008555e+00 -2.7958778954e+00 1.6142008555e+00 2.7958778954e+00 
72000 6.4432771789e+00 -5.5855835437e-05 1.6142008555e+00 -2.7958778954e+00 1.6142008555e+00 2.7958778954e+00 
72100 6.4432771857e+00 -5.5406728558e-05 1.6142008555e+00 -2.7958778954e+00 1.6142008555e+00 2.7958778954e+00 
72200 6.4432771924e+00 -5.4958398713e-05 1.6142008555e+00 -2.7958778954e+00 1.6142008555e+00 2.7958778954e+00 
72300 6.4432771991e+00 -5.4511219923e-05 1.6142008555e+00 -2.7958778954e+00 1.6142008555e+00 2.7958778954e+00 
72400 6.4432772057e+00 -5.4065556950e-05 1.6142008555e+00 -2.7958778954e+00 1.6142008555e+00 2.7958778954e+00 
72500 6.4432772121e+00 -5.3621765255e-05 1.6142008555e+00 -2.7958778954e+00 1.6142008555e+00 2.7958778954e+00 
72600 6.4432772185e+00 -5.3180190952e-05 1.6142008555e+00 -2.7958778954e+00 1.6142008555e+00 2.7958778954e+00 
72700 6.4432772248e+00 -5.2741170784e-05 1.6142008555e+00 -2.7958778954e+00 1.6142008555e+00 2.7958778954e+00 
72800 6.4432772310e+00 -5.2305032086e-05 1.6142008555e+00 -2.7958778954e+00 1.6142008555e+00 2.7958778954e+00 
72900 6.4432772372e+00 -5.1872092773e-05 1.6142008555e+00 -2.7958778954e+00 1.6142008555e+00 2.7958778954e+00 
73000 6.4432772432e+00 -5.1442661321e-05 1.6142008555e+00 -2.7958778954e+00 1.6142008555e+00 2.7958778954e+00 
73100 6.4432772492e+00 -5.1017036758e-05 1.6142008555e+00 -2.7958778954e+00 1.6142008555e+00 2.7958778954e+00 
73200 6.4432772550e+00 -5.0595508654e-05 1.6142008555e+00 -2.7958778954e+00 1.6142008555e+00 2.7958778954e+00 
73300 6.4432772608e+00 -5.0178357135e-05 1.6142008555e+00 -2.7958778954e+00 1.6142008555e+00 2.7958778954e+00 
73400 6.4432772666e+00 -4.9765852879e-05 1.6142008555e+00 -2.7958778954e+00 1.6142008555e+00 2.7958778954e+00 
73500 6.4432772722e+00 -4.9358257134e-05 1.6142008555e+00 -2.7958778954e+00 1.6142008555e+00 2.7958778954e+00 
73600 6.4432772778e+00 -4.8955821745e-05 1.6142008555e+00 -2.7958778954e+00 1.6142008555e+00 2.7958778954e+00 
73700 6.4432772833e+00 -4.8558789161e-05 1.6142008555e+00 -2.7958778954e+00 1.6142008555e+00 2.7958778954e+00 
73800 6.4432772887e+00 -4.8167392476e-05 1.6142008555e+00 -2.7958778954e+00 1.6142008555e+00 2.7958778954e+00 
73900 6.4432772940e+00 -4.7781855464e-05 1.6142008555e+00 -2.7958778954e+00 1.6142008555e+00 2.7958778954e+00 
74000 6.4432772993e+00 -4.7402392615e-05 1.6142008555e+00 -2.7958778954e+00 1.6142008555e+00 2.7958778954e+00 
74100 6.4432773045e+00 -4.7029209184e-05 1.6142008555e+00 -2.7958778954e+00 1.6142008555e+00 2.7958778954e+00 
74200 6.4432773097e+00 -4.6662501240e-05 1.6142008555e+00 -2.7958778954e+00 1.6142008555e+00 2.7958778954e+00 
74300 6.4432773147e+00 -4.6302455715e-05 1.6142008555e+00 -2.7958778954e+00 1.6142008555e+00 2.7958778954e+00 
74400 6.4432773197e+00 -4.5949250482e-05 1.6142008555e+00 -2.7958778954e+00 1.6142008555e+00 2.7958778954e+00 
74500 6.4432773247e+00 -4.5603054396e-05 1.6142008555e+00 -2.7958778954e+00 1.6142008555e+00 2.7958778954e+00 
74600 6.4432773295e+00 -4.5264027388e-05 1.6142008555e+00 -2.7958778954e+00 1.6142008555e+00 2.7958778954e+00 
74700 6.4432773344e+00 -4.4932320516e-05 1.6142008555e+00 -2.7958778954e+00 1.6142008555e+00 2.7958778954e+00 
74800 6.4432773391e+00 -4.4608076066e-05 1.6142008555e+00 -2.7958778954e+00 1.6142008555e+00 2.7958778954e+00 
74900 6.4432773438e+00 -4.4291427616e-05 1.6142008555e+00 -2.7958778954e+00 1.6142008555e+00 2.7958778954e+00 
75000 6.4432773484e+00 -4.3982500141e-05 1.6142008555e+00 -2.7958778954e+00 1.6142008555e+00 2.7958778954e+00 
75100 6.4432773530e+00 -4.3681410089e-05 1.6142008555e+00 -2.7958778954e+00 1.6142008555e+00 2.7958778954e+00 
75200 6.4432773575e+00 -4.3388265485e-05 1.6142008555e+00 -2.7958778954e+00 1.6142008555e+00 2.7958778954e+00 
75300 6.4432773620e+00 -4.3103166030e-05 1.6142008555e+00 -2.7958778954e+00 1.6142008555e+00 2.7958778954e+00 
75400 6.4432773664e+00 -4.2826203200e-05 1.6142008555e+00 -2.7958778954e+00 1.6142008555e+00 2.7958778954e+00 
75500 6.4432773708e+00 -4.2557460359e-05 1.6142008555e+00 -2.7958778954e+00 1.6142008555e+00 2.7958778954e+00 
75600 6.4432773751e+00 -4.2297012865e-05 1.6142008555e+00 -2.7958778954e+00 1.6142008555e+00 2.7958778954e+00 
75700 6.4432773793e+00 -4.2044928185e-05 1.6142008555e+00 -2.7958778954e+00 1.6142008555e+00 2.7958778954e+00 
75800 6.4432773835e+00 -4.1801266011e-05 1.6142008555e+00 -2.7958778954e+00 1.6142008555e+00 2.7958778954e+00 
75900 6.4432773876e+00 -4.1566078383e-05 1.6142008555e+00 -2.7958778954e+00 1.6142008555e+00 2.7958778954e+00 
76000 6.4432773917e+00 -4.1339409808e-05 1.6142008555e+00 -2.7958778954e+00 1.6142008555e+00 2.7958778954e+00 
76100 6.4432773958e+00 -4.1121297390e-05 1.6142008555e+00 -2.7958778954e+00 1.6142008555e+00 2.7958778954e+00 
76200 6.4432773998e+00 -4.0911770959e-05 1.6142008555e+00 -2.7958778954e+00 1.6142008555e+00 2.7958778954e+00 
76300 6.4432774038e+00 -4.0710853195e-05 1.6142008555e+00 -2.7958778954e+00 1.6142008555e+00 2.7958778954e+00 
76400 6.4432774077e+00 -4.0518559774e-05 1.6142008555e+00 -2.7958778954e+00 1.6142008555e+00 2.7958778954e+00 
76500 6.4432774115e+00 -4.0334899488e-05 1.6142008555e+00 -2.7958778954e+00 1.6142008555e+00 2.7958778954e+00 
76600 6.4432774154e+00 -4.0159874405e-05 1.6142008555e+00 -2.7958778954e+00 1.6142008555e+00 2.7958778954e+00 
76700 6.4432774191e+00 -3.9993479988e-05 1.6142008555e+00 -2.7958778954e+00 1.6142008555e+00 2.7958778954e+00 
76800 6.4432774229e+00 -3.9835705251e-05 1.6142008555e+00 -2.7958778954e+00 1.6142008555e+00 2.7958778954e+00 
76900 6.4432774266e+00 -3.9686532896e-05 1.6142008555e+00 -2.7958778954e+00 1.6142008555e+00 2.7958778954e+00 
77000 6.4432774302e+00 -3.9545939463e-05 1.6142008555e+00 -2.7958778954e+00 1.6142008555e+00 2.7958778954e+00 
77100 6.4432774339e+00 -3.9413895479e-05 1.6142008555e+00 -2.7958778954e+00 1.6142008555e+00 2.7958778954e+00 
77200 6.4432774374e+00 -3.9290365599e-05 1.6142008555e+00 -2.7958778954e+00 1.6142008555e+00 2.7958778954e+00 
77300 6.4432774410e+00 -3.9175308763e-05 1.6142008555e+00 -2.7958778954e+00 1.6142008555e+00 2.7958778954e+00 
77400 6.4432774445e+00 -3.9068678347e-05 1.6142008555e+00 -2.7958778954e+00 1.6142008555e+00 2.7958778954e+00 
77500 6.4432774479e+00 -3.8970422309e-05 1.6142008555e+00 -2.7958778954e+00 1.6142008555e+00 2.7958778954e+00 
77600 6.4432774513e+00 -3.8880483352e-05 1.6142008555e+00 -2.7958778954e+00 1.6142008555e+00 2.7958778954e+00 
77700 6.4432774547e+00 -3.8798799066e-05 1.6142008555e+00 -2.7958778954e+00 1.6142008555e+00 2.7958778954e+00 
77800 6.4432774581e+00 -3.8725302096e-05 1.6142008555e+00 -2.7958778954e+00 1.6142008555e+00 2.7958778954e+00 
77900 6.4432774614e+00 -3.8659920284e-05 1.6142008555e+00 -2.7958778954e+00 1.6142008555e+00 2.7958778954e+00 
78000 6.4432774647e+00 -3.8602576830e-05 1.6142008555e+00 -2.7958778954e+00 1.6142008555e+00 2.7958778954e+00 
78100 6.4432774679e+00 -3.8553190455e-05 1.6142008555e+00 -2.7958778954e+00 1.6142008555e+00 2.7958778954e+00 
78200 6.4432774711e+00 -3.8511675541e-05 1.6142008555e+00 -2.7958778954e+00 1.6142008555e+00 2.7958778954e+00 
78300 6.4432774743e+00 -3.8477942301e-05 1.6142008555e+00 -2.7958778954e+00 1.6142008555e+00 2.7958778954e+00 
78400 6.4432774774e+00 -3.8451896926e-05 1.6142008555e+00 -2.7958778954e+00 1.6142008555e+00 2.7958778954e+00 
78500 6.4432774805e+00 -3.8433441747e-05 1.6142008555e+00 -2.7958778954e+00 1.6142008555e+00 2.7958778954e+00 
78600 6.4432774836e+00 -3.8422475383e-05 1.6142008555e+00 -2.7958778954e+00 1.6142008555e+00 2.7958778954e+00 
78700 6.4432774867e+00 -3.8418892906e-05 1.6142008555e+00 -2.7958778954e+00 1.6142008555e+00 2.7958778954e+00 
78800 6.4432774897e+00 -3.8422585982e-05 1.6142008555e+00 -2.7958778954e+00 1.6142008555e+00 2.7958778954e+00 
78900 6.4432774926e+00 -3.8433443039e-05 1.6142008555e+00 -2.7958778954e+00 1.6142008555e+00 2.7958778954e+00 
79000 6.4432774956e+00 -3.8451349406e-05 1.6142008555e+00 -2.7958778954e+00 1.6142008555e+00 2.7958778954e+00 
79100 6.4432774985e+00 -3.8476187479e-05 1.6142008555e+00 -2.7958778954e+00 1.6142008555e+00 2.7958778954e+00 
79200 6.4432775014e+00 -3.8507836858e-05 1.6142008555e+00 -2.7958778954e+00 1.6142008555e+00 2.7958778954e+00 
79300 6.4432775042e+00 -3.8546174509e-05 1.6142008555e+00 -2.7958778954e+00 1.6142008555e+00 2.7958778954e+00 
79400 6.4432775071e+00 -3.8591074906e-05 1.6142008555e+00 -2.7958778954e+00 1.6142008555e+00 2.7958778954e+00 
79500 6.4432775099e+00 -3.8642410180e-05 1.6142008555e+00 -2.7958778954e+00 1.6142008555e+00 2.7958778954e+00 
79600 6.4432775126e+00 -3.8700050273e-05 1.6142008555e+00 -2.7958778954e+00 1.6142008555e+00 2.7958778954e+00 
79700 6.4432775154e+00 -3.8763863067e-05 1.6142008555e+00 -2.7958778954e+00 1.6142008555e+00 2.7958778954e+00 
79800 6.4432775181e+00 -3.8833714544e-05 1.6142008555e+00 -2.7958778954e+00 1.6142008555e+00 2.7958778954e+00 
79900 6.4432775207e+00 -3.8909468915e-05 1.6142008555e+00 -2.7958778954e+00 1.6142008555e+00 2.7958778954e+00 
80000 6.4432775234e+00 -3.8990988776e-05 1.6142008555e+00 -2.7958778954e+00 1.6142008555e+00 2.7958778954e+00 
80100 6.4432775260e+00 -3.9078135231e-05 1.6142008555e+00 -2.7958778954e+00 1.6142008555e+00 2.7958778954e+00 
80200 6.4432775286e+00 -3.9170768034e-05 1.6142008555e+00 -2.7958778954e+00 1.6142008555e+00 2.7958778954e+00 
80300 6.4432775312e+00 -3.9268745731e-05 1.6142008555e+00 -2.7958778954e+00 1.6142008555e+00 2.7958778954e+00 
80400 6.4432775337e+00 -3.9371925784e-05 1.6142008555e+00 -2.7958778954e+00 1.6142008555e+00 2.7958778954e+00 
80500 6.4432775362e+00 -3.9480164705e-05 1.6142008555e+00 -2.7958778954e+00 1.6142008555e+00 2.7958778954e+00 
80600 6.4432775387e+00 -3.9593318188e-05 1.6142008555e+00 -2.7958778954e+00 1.6142008555e+00 2.7958778954e+00 
80700 6.4432775411e+00 -3.9711241235e-05 1.6142008555e+00 -2.7958778954e+00 1.6142008555e+00 2.7958778954e+00 
80800 6.4432775436e+00 -3.9833788280e-05 1.6142008555e+00 -2.7958778954e+00 1.6142008555e+00 2.7958778954e+00 
80900 6.4432775460e+00 -3.9960813309e-05 1.6142008555e+00 -2.7958778954e+00 1.6142008555e+00 2.7958778954e+00 
81000 6.4432775483e+00 -4.0092169986e-05 1.6142008555e+00 -2.7958778954e+00 1.6142008555e+00 2.7958778954e+00 
81100 6.4432775507e+00 -4.0227711769e-05 1.6142008555e+00 -2.7958778954e+00 1.6142008555e+00 2.7958778954e+00 
81200 6.4432775530e+00 -4.0367292022e-05 1.6142008555e+00 -2.7958778954e+00 1.6142008555e+00 2.7958778954e+00 
81300 6.4432775553e+00 -4.0510764136e-05 1.6142008555e+00 -2.7958778954e+00 1.6142008555e+00 2.7958778954e+00 
81400 6.4432775576e+00 -4.0657981634e-05 1.6142008555e+00 -2.7958778954e+00 1.6142008555e+00 2.7958778954e+00 
81500 6.4432775598e+00 -4.0808798279e-05 1.6142008555e+00 -2.7958778954e+00 1.6142008555e+00 2.7958778954e+00 
81600 6.4432775620e+00 -4.0963068186e-05 1.6142008555e+00 -2.7958778954e+00 1.6142008555e+00 2.7958778954e+00 
81700 6.4432775642e+00 -4.1120645918e-05 1.6142008555e+00 -2.7958778954e+00 1.6142008555e+00 2.7958778954e+00 
81800 6.4432775664e+00 -4.1281386596e-05 1.6142008555e+00 -2.7958778954e+00 1.6142008555e+00 2.7958778954e+00 
81900 6.4432775685e+00 -4.1445145987e-05 1.6142008555e+00 -2.7958778954e+00 1.6142008555e+00 2.7958778954e+00 
82000 6.4432775706e+00 -4.1611780609e-05 1.6142008555e+00 -2.7958778954e+00 1.6142008555e+00 2.7958778954e+00 
82100 6.4432775727e+00 -4.1781147815e-05 1.6142008555e+00 -2.7958778954e+00 1.6142008555e+00 2.7958778954e+00 
82200 6.4432775748e+00 -4.1953105894e-05 1.6142008555e+00 -2.7958778954e+00 1.6142008555e+00 2.7958778954e+00 
82300 6.4432775769e+00 -4.2127514148e-05 1.6142008555e+00 -2.7958778954e+00 1.6142008555e+00 2.7958778954e+00 
82400 6.4432775789e+00 -4.2304232989e-05 1.6142008555e+00 -2.7958778954e+00 1.6142008555e+00 2.7958778954e+00 
82500 6.4432775809e+00 -4.2483124006e-05 1.6142008555e+00 -2.7958778954e+00 1.6142008555e+00 2.7958778954e+00 
82600 6.4432775829e+00 -4.2664050063e-05 1.6142008555e+00 -2.7958778954e+00 1.6142008555e+00 2.7958778954e+00 
82700 6.4432775848e+00 -4.2846875362e-05 1.6142008555e+00 -2.7958778954e+00 1.6142008555e+00 2.7958778954e+00 
82800 6.4432775868e+00 -4.3031465520e-05 1.6142008555e+00 -2.7958778954e+00 1.6142008555e+00 2.7958778954e+00 
82900 6.4432775887e+00 -4.3217687645e-05 1.6142008555e+00 -2.7958778954e+00 1.6142008555e+00 2.7958778954e+00 
83000 6.4432775905e+00 -4.3405410402e-05 1.6142008555e+00 -2.7958778954e+00 1.6142008555e+00 2.7958778954e+00 
83100 6.4432775924e+00 -4.3594504083e-05 1.6142008555e+00 -2.7958778954e+00 1.6142008555e+00 2.7958778954e+00 
83200 6.4432775943e+00 -4.3784840661e-05 1.6142008555e+00 -2.7958778954e+00 1.6142008555e+00 2.7958778954e+00 
83300 6.4432775961e+00 -4.3976293864e-05 1.6142008555e+00 -2.7958778954e+00 1.6142008555e+00 2.7958778954e+00 
83400 6.4432775979e+00 -4.4168739221e-05 1.6142008555e+00 -2.7958778954e+00 1.6142008555e+00 2.7958778954e+00 
83500 6.4432775997e+00 -4.4362054125e-05 1.6142008555e+00 -2.7958778954e+00 1.6142008555e+00 2.7958778954e+00 
83600 6.4432776014e+00 -4.4556117885e-05 1.6142008555e+00 -2.7958778954e+00 1.6142008555e+00 2.7958778954e+00 
83700 6.4432776032e+00 -4.4750811771e-05 1.6142008555e+00 -2.7958778954e+00 1.6142008555e+00 2.7958778954e+00 
83800 6.4432776049e+00 -4.4946019069e-05 1.6142008555e+00 -2.7958778954e+00 1.6142008555e+00 2.7958778954e+00 
83900 6.4432776066e+00 -4.5141625119e-05 1.6142008555e+00 -2.7958778954e+00 1.6142008555e+00 2.7958778954e+00 
84000 6.4432776083e+00 -4.5337517361e-05 1.6142008555e+00 -2.7958778954e+00 1.6142008555e+00 2.7958778954e+00 
84100 6.4432776099e+00 -4.5533585381e-05 1.6142008555e+00 -2.7958778954e+00 1.6142008555e+00 2.7958778954e+00 
84200 6.4432776116e+00 -4.5729720931e-05 1.6142008555e+00 -2.7958778954e+00 1.6142008555e+00 2.7958778954e+00 
84300 6.4432776132e+00 -4.5925817983e-05 1.6142008555e+00 -2.7958778954e+00 1.6142008555e+00 2.7958778954e+00 
84400 6.4432776148e+00 -4.6121772747e-05 1.6142008555e+00 -2.7958778954e+00 1.6142008555e+00 2.7958778954e+00 
84500 6.4432776164e+00 -4.6317483712e-05 1.6142008555e+00 -2.7958778954e+00 1.6142008555e+00 2.7958778954e+00 
84600 6.4432776179e+00 -4.6512851662e-05 1.6142008555e+00 -2.7958778954e+00 1.6142008555e+00 2.7958778954e+00 
84700 6.4432776195e+00 -4.6707779708e-05 1.6142008555e+00 -2.7958778954e+00 1.6142008555e+00 2.7958778954e+00 
84800 6.4432776210e+00 -4.6902173315e-05 1.6142008555e+00 -2.7958778954e+00 1.6142008555e+00 2.7958778954e+00 
84900 6.4432776225e+00 -4.7095940309e-05 1.6142008555e+00 -2.7958778954e+00 1.6142008555e+00 2.7958778954e+00 
85000 6.4432776240e+00 -4.7288990907e-05 1.6142008555e+00 -2.7958778954e+00 1.6142008555e+00 2.7958778954e+00 
85100 6.4432776255e+00 -4.7481237727e-05 1.6142008555e+00 -2.7958778954e+00 1.6142008555e+00 2.7958778954e+00 
85200 6.4432776269e+00 -4.7672595803e-05 1.6142008555e+00 -2.7958778954e+00 1.6142008555e+00 2.7958778954e+00 
85300 6.4432776284e+00 -4.7862982593e-05 1.6142008555e+00 -2.7958778954e+00 1.6142008555e+00 2.7958778954e+00 
85400 6.4432776298e+00 -4.8052317998e-05 1.6142008555e+00 -2.7958778954e+00 1.6142008555e+00 2.7958778954e+00 
85500 6.4432776312e+00 -4.8240524354e-05 1.6142008555e+00 -2.7958778954e+00 1.6142008555e+00 2.7958778954e+00 
85600 6.4432776326e+00 -4.8427526451e-05 1.6142008555e+00 -2.7958778954e+00 1.6142008555e+00 2.7958778954e+00 
85700 6.4432776339e+00 -4.8613251527e-05 1.6142008555e+00 -2.7958778954e+00 1.6142008555e+00 2.7958778954e+00 
85800 6.4432776353e+00 -4.8797629273e-05 1.6142008555e+00 -2.7958778954e+00 1.6142008555e+00 2.7958778954e+00 
85900 6.4432776366e+00 -4.8980591829e-05 1.6142008555e+00 -2.7958778954e+00 1.6142008555e+00 2.7958778954e+00 
86000 6.4432776380e+00 -4.9162073784e-05 1.6142008555e+00 -2.7958778954e+00 1.6142008555e+00 2.7958778954e+00 
86100 6.4432776393e+00 -4.9342012173e-05 1.6142008555e+00 -2.7958778954e+00 1.6142008555e+00 2.7958778954e+00 
86200 6.4432776406e+00 -4.9520346464e-05 1.6142008555e+00 -2.7958778954e+00 1.6142008555e+00 2.7958778954e+00 
86300 6.4432776418e+00 -4.9697018555e-05 1.6142008555e+00 -2.7958778954e+00 1.6142008555e+00 2.7958778954e+00 
86400 6.4432776431e+00 -4.9871972757e-05 1.6142008555e+00 -2.7958778954e+00 1.6142008555e+00 2.7958778954e+00 
86500 6.4432776443e+00 -5.0045155800e-05 1.6142008555e+00 -2.7958778954e+00 1.6142008555e+00 2.7958778954e+00 
86600 6.4432776456e+00 -5.0216516792e-05 1.6142008555e+00 -2.7958778954e+00 1.6142008555e+00 2.7958778954e+00 
86700 6.4432776468e+00 -5.0386007230e-05 1.6142008555e+00 -2.7958778954e+00 1.6142008555e+00 2.7958778954e+00 
86800 6.4432776480e+00 -5.0553580966e-05 1.6142008555e+00 -2.7958778954e+00 1.6142008555e+00 2.7958778954e+00 
86900 6.4432776492e+00 -5.0719194204e-05 1.6142008555e+00 -2.7958778954e+00 1.6142008555e+00 2.7958778954e+00 
87000 6.4432776504e+00 -5.0882805462e-05 1.6142008555e+00 -2.7958778954e+00 1.6142008555e+00 2.7958778954e+00 
87100 6.4432776515e+00 -5.1044375569e-05 1.6142008555e+00 -2.7958778954e+00 1.6142008555e+00 2.7958778954e+00 
87200 6.4432776527e+00 -5.1203867634e-05 1.6142008555e+00 -2.7958778954e+00 1.6142008555e+00 2.7958778954e+00 
87300 6.4432776538e+00 -5.1361247022e-05 1.6142008555e+00 -2.7958778954e+00 1.6142008555e+00 2.7958778954e+00 
87400 6.4432776549e+00 -5.1516481335e-05 1.6142008555e+00 -2.7958778954e+00 1.6142008555e+00 2.7958778954e+00 
87500 6.4432776561e+00 -5.1669540378e-05 1.6142008555e+00 -2.7958778954e+00 1.6142008555e+00 2.7958778954e+00 
87600 6.4432776572e+00 -5.1820396139e-05 1.6142008555e+00 -2.7958778954e+00 1.6142008555e+00 2.7958778954e+00 
87700 6.4432776582e+00 -5.1969022761e-05 1.6142008555e+00 -2.7958778954e+00 1.6142008555e+00 2.7958778954e+00 
87800 6.4432776593e+00 -5.2115396507e-05 1.6142008555e+00 -2.7958778954e+00 1.6142008555e+00 2.7958778954e+00 
87900 6.4432776604e+00 -5.2259495735e-05 1.6142008555e+00 -2.7958778954e+00 1.6142008555e+00 2.7958778954e+00 
88000 6.4432776614e+00 -5.2401300863e-05 1.6142008555e+00 -2.7958778954e+00 1.6142008555e+00 2.7958778954e+00 
88100 6.4432776625e+00 -5.2540794345e-05 1.6142008555e+00 -2.7958778954e+00 1.6142008555e+00 2.7958778954e+00 
88200 6.4432776635e+00 -5.2677960622e-05 1.6142008555e+00 -2.7958778954e+00 1.6142008555e+00 2.7958778954e+00 
88300 6.4432776645e+00 -5.2812786107e-05 1.6142008555e+00 -2.7958778954e+00 1.6142008555e+00 2.7958778954e+00 
88400 6.4432776655e+00 -5.2945259137e-05 1.6142008555e+00 -2.7958778954e+00 1.6142008555e+00 2.7958778954e+00 
88500 6.4432776665e+00 -5.3075369948e-05 1.6142008555e+00 -2.7958778954e+00 1.6142008555e+00 2.7958778954e+00 
88600 6.4432776675e+00 -5.3203110630e-05 1.6142008555e+00 -2.7958778954e+00 1.6142008555e+00 2.7958778954e+00 
88700 6.4432776684e+00 -5.3328475092e-05 1.6142008555e+00 -2.7958778954e+00 1.6142008555e+00 2.7958778954e+00 
88800 6.4432776694e+00 -5.3451459037e-05 1.6142008555e+00 -2.7958778954e+00 1.6142008555e+00 2.7958778954e+00 
88900 6.4432776703e+00 -5.3572059900e-05 1.6142008555e+00 -2.7958778954e+00 1.6142008555e+00 2.7958778954e+00 
89000 6.4432776713e+00 -5.3690276837e-05 1.6142008555e+00 -2.7958778954e+00 1.6142008555e+00 2.7958778954e+00 
89100 6.4432776722e+00 -5.3806110667e-05 1.6142008555e+00 -2.7958778954e+00 1.6142008555e+00 2.7958778954e+00 
89200 6.4432776731e+00 -5.3919563842e-05 1.6142008555e+00 -2.7958778954e+00 1.6142008555e+00 2.7958778954e+00 
89300 6.4432776740e+00 -5.4030640405e-05 1.6142008555e+00 -2.7958778954e+00 1.6142008555e+00 2.7958778954e+00 
89400 6.4432776749e+00 -5.4139345948e-05 1.6142008555e+00 -2.7958778954e+00 1.6142008555e+00 2.7958778954e+00 
89500 6.4432776758e+00 -5.4245687577e-05 1.6142008555e+00 -2.7958778954e+00 1.6142008555e+00 2.7958778954e+00 
89600 6.4432776767e+00 -5.4349673865e-05 1.6142008555e+00 -2.7958778954e+00 1.6142008555e+00 2.7958778954e+00 
89700 6.4432776775e+00 -5.4451314822e-05 1.6142008555e+00 -2.7958778954e+00 1.6142008555e+00 2.7958778954e+00 
89800 6.4432776784e+00 -5.4550621839e-05 1.6142008555e+00 -2.7958778954e+00 1.6142008555e+00 2.7958778954e+00 
89900 6.4432776792e+00 -5.4647607662e-05 1.6142008555e+00 -2.7958778954e+00 1.6142008555e+00 2.7958778954e+00 
90000 6.4432776801e+00 -5.4742286336e-05 1.6142008555e+00 -2.7958778954e+00 1.6142008555e+00 2.7958778954e+00 
90100 6.4432776809e+00 -5.4834673185e-05 1.6142008555e+00 -2.7958778954e+00 1.6142008555e+00 2.7958778954e+00 
90200 6.4432776817e+00 -5.4924784746e-05 1.6142008555e+00 -2.7958778954e+00 1.6142008555e+00 2.7958778954e+00 
90300 6.4432776825e+00 -5.5012638745e-05 1.6142008555e+00 -2.7958778954e+00 1.6142008555e+00 2.7958778954e+00 
90400 6.4432776833e+00 -5.5098254050e-05 1.6142008555e+00 -2.7958778954e+00 1.6142008555e+00 2.7958778954e+00 
90500 6.4432776841e+00 -5.5181650632e-05 1.6142008555e+00 -2.7958778954e+00 1.6142008555e+00 2.7958778954e+00 
90600 6.4432776849e+00 -5.5262849520e-05 1.6142008555e+00 -2.7958778954e+00 1.6142008555e+00 2.7958778954e+00 
90700 6.4432776857e+00 -5.5341872764e-05 1.6142008555e+00 -2.7958778954e+00 1.6142008555e+00 2.7958778954e+00 
90800 6.4432776864e+00 -5.5418743390e-05 1.6142008555e+00 -2.7958778954e+00 1.6142008555e+00 2.7958778954e+00 
90900 6.4432776872e+00 -5.5493485367e-05 1.6142008555e+00 -2.7958778954e+00 1.6142008555e+00 2.7958778954e+00 
91000 6.4432776879e+00 -5.5566123558e-05 1.6142008555e+00 -2.7958778954e+00 1.6142008555e+00 2.7958778954e+00 
91100 6.4432776887e+00 -5.5636683686e-05 1.6142008555e+00 -2.7958778954e+00 1.6142008555e+00 2.7958778954e+00 
91200 6.4432776894e+00 -5.5705192291e-05 1.6142008555e+00 -2.7958778954e+00 1.6142008555e+00 2.7958778954e+00 
91300 6.4432776901e+00 -5.5771676690e-05 1.6142008555e+00 -2.7958778954e+00 1.6142008555e+00 2.7958778954e+00 
91400 6.4432776908e+00 -5.5836164946e-05 1.6142008555e+00 -2.7958778954e+00 1.6142008555e+00 2.7958778954e+00 
91500 6.4432776915e+00 -5.5898685811e-05 1.6142008555e+00 -2.7958778954e+00 1.6142008555e+00 2.7958778954e+00 
91600 6.4432776922e+00 -5.5959268706e-05 1.6142008555e+00 -2.7958778954e+00 1.6142008555e+00 2.7958778954e+00 
91700 6.4432776929e+00 -5.6017943672e-05 1.6142008555e+00 -2.7958778954e+00 1.6142008555e+00 2.7958778954e+00 
91800 6.4432776936e+00 -5.6074741341e-05 1.6142008555e+00 -2.7958778954e+00 1.6142008555e+00 2.7958778954e+00 
91900 6.4432776943e+00 -5.6129692885e-05 1.6142008555e+00 -2.7958778954e+00 1.6142008555e+00 2.7958778954e+00 
92000 6.4432776950e+00 -5.6182829996e-05 1.6142008555e+00 -2.7958778954e+00 1.6142008555e+00 2.7958778954e+00 
92100 6.4432776956e+00 -5.6234184835e-05 1.6142008555e+00 -2.7958778954e+00 1.6142008555e+00 2.7958778954e+00 
92200 6.4432776963e+00 -5.6283790003e-05 1.6142008555e+00 -2.7958778954e+00 1.6142008555e+00 2.7958778954e+00 
92300 6.4432776969e+00 -5.6331678507e-05 1.6142008555e+00 -2.7958778954e+00 1.6142008555e+00 2.7958778954e+00 
92400 6.4432776975e+00 -5.6377883721e-05 1.6142008555e+00 -2.7958778954e+00 1.6142008555e+00 2.7958778954e+00 
92500 6.4432776982e+00 -5.6422439353e-05 1.6142008555e+00 -2.7958778954e+00 1.6142008555e+00 2.7958778954e+00 
92600 6.4432776988e+00 -5.6465379413e-05 1.6142008555e+00 -2.7958778954e+00 1.6142008555e+00 2.7958778954e+00 
92700 6.4432776994e+00 -5.6506738175e-05 1.6142008555e+00 -2.7958778954e+00 1.6142008555e+00 2.7958778954e+00 
92800 6.4432777000e+00 -5.6546550151e-05 1.6142008555e+00 -2.7958778954e+00 1.6142008555e+00 2.7958778954e+00 
92900 6.4432777006e+00 -5.6584850054e-05 1.6142008555e+00 -2.7958778954e+00 1.6142008555e+00 2.7958778954e+00 
93000 6.4432777012e+00 -5.6621672767e-05 1.6142008555e+00 -2.7958778954e+00 1.6142008555e+00 2.7958778954e+00 
93100 6.4432777018e+00 -5.6657053314e-05 1.6142008555e+00 -2.7958778954e+00 1.6142008555e+00 2.7958778954e+00 
93200 6.4432777024e+00 -5.6691026830e-05 1.6142008555e+00 -2.7958778954e+00 1.6142008555e+00 2.7958778954e+00 
93300 6.4432777030e+00 -5.6723628527e-05 1.6142008555e+00 -2.7958778954e+00 1.6142008555e+00 2.7958778954e+00 
93400 6.4432777035e+00 -5.6754893671e-05 1.6142008555e+00 -2.7958778954e+00 1.6142008555e+00 2.7958778954e+00 
93500 6.4432777041e+00 -5.6784857550e-05 1.6142008555e+00 -2.7958778954e+00 1.6142008555e+00 2.7958778954e+00 
93600 6.4432777047e+00 -5.6813555447e-05 1.6142008555e+00 -2.7958778954e+00 1.6142008555e+00 2.7958778954e+00 
93700 6.4432777052e+00 -5.6841022613e-05 1.6142008555e+00 -2.7958778954e+00 1.6142008555e+00 2.7958778954e+00 
93800 6.4432777058e+00 -5.6867294239e-05 1.6142008555e+00 -2.7958778954e+00 1.6142008555e+00 2.7958778954e+00 
93900 6.4432777063e+00 -5.6892405437e-05 1.6142008555e+00 -2.7958778954e+00 1.6142008555e+00 2.7958778954e+00 
94000 6.4432777068e+00 -5.6916391207e-05 1.6142008555e+00 -2.7958778954e+00 1.6142008555e+00 2.7958778954e+00 
94100 6.4432777074e+00 -5.6939286414e-05 1.6142008555e+00 -2.7958778954e+00 1.6142008555e+00 2.7958778954e+00 
94200 6.4432777079e+00 -5.6961125772e-05 1.6142008555e+00 -2.7958778954e+00 1.6142008555e+00 2.7958778954e+00 
94300 6.4432777084e+00 -5.6981943810e-05 1.6142008555e+00 -2.7958778954e+00 1.6142008555e+00 2.7958778954e+00 
94400 6.4432777089e+00 -5.7001774857e-05 1.6142008555e+00 -2.7958778954e+00 1.6142008555e+00 2.7958778954e+00 
94500 6.4432777094e+00 -5.7020653020e-05 1.6142008555e+00 -2.7958778954e+00 1.6142008555e+00 2.7958778954e+00 
94600 6.4432777099e+00 -5.7038612162e-05 1.6142008555e+00 -2.7958778954e+00 1.6142008555e+00 2.7958778954e+00 
94700 6.4432777104e+00 -5.7055685881e-05 1.6142008555e+00 -2.7958778954e+00 1.6142008555e+00 2.7958778954e+00 
94800 6.4432777109e+00 -5.7071907488e-05 1.6142008555e+00 -2.7958778954e+00 1.6142008555e+00 2.7958778954e+00 
94900 6.4432777114e+00 -5.7087309997e-05 1.6142008555e+00 -2.7958778954e+00 1.6142008555e+00 2.7958778954e+00 
95000 6.4432777118e+00 -5.7101926097e-05 1.6142008555e+00 -2.7958778954e+00 1.6142008555e+00 2.7958778954e+00 
95100 6.4432777123e+00 -5.7115788145e-05 1.6142008555e+00 -2.7958778954e+00 1.6142008555e+00 2.7958778954e+00 
95200 6.4432777128e+00 -5.7128928138e-05 1.6142008555e+00 -2.7958778954e+00 1.6142008555e+00 2.7958778954e+00 
95300 6.4432777132e+00 -5.7141377704e-05 1.6142008555e+00 -2.7958778954e+00 1.6142008555e+00 2.7958778954e+00 
95400 6.4432777137e+00 -5.7153168087e-05 1.6142008555e+00 -2.7958778954e+00 1.6142008555e+00 2.7958778954e+00 
95500 6.4432777141e+00 -5.7164330128e-05 1.6142008555e+00 -2.7958778954e+00 1.6142008555e+00 2.7958778954e+00 
95600 6.4432777146e+00 -5.7174894255e-05 1.6142008555e+00 -2.7958778954e+00 1.6142008555e+00 2.7958778954e+00 
95700 6.4432777150e+00 -5.7184890470e-05 1.6142008555e+00 -2.7958778954e+00 1.6142008555e+00 2.7958778954e+00 
95800 6.4432777155e+00 -5.7194348333e-05 1.6142008555e+00 -2.7958778954e+00 1.6142008555e+00 2.7958778954e+00 
95900 6.4432777159e+00 -5.7203296952e-05 1.6142008555e+00 -2.7958778954e+00 1.6142008555e+00 2.7958778954e+00 
96000 6.4432777163e+00 -5.7211764969e-05 1.6142008555e+00 -2.7958778954e+00 1.6142008555e+00 2.7958778954e+00 
96100 6.4432777167e+00 -5.7219780559e-05 1.6142008555e+00 -2.7958778954e+00 1.6142008555e+00 2.7958778954e+00 
96200 6.4432777172e+00 -5.7227371405e-05 1.6142008555e+00 -2.7958778954e+00 1.6142008555e+00 2.7958778954e+00 
96300 6.4432777176e+00 -5.7234564704e-05 1.6142008555e+00 -2.7958778954e+00 1.6142008555e+00 2.7958778954e+00 
96400 6.4432777180e+00 -5.7241387141e-05 1.6142008555e+00 -2.7958778954e+00 1.6142008555e+00 2.7958778954e+00 
96500 6.4432777184e+00 -5.7247864900e-05 1.6142008555e+00 -2.7958778954e+00 1.6142008555e+00 2.7958778954e+00 
96600 6.4432777188e+00 -5.7254023643e-05 1.6142008555e+00 -2.7958778954e+00 1.6142008555e+00 2.7958778954e+00 
96700 6.4432777192e+00 -5.7259888505e-05 1.6142008555e+00 -2.7958778954e+00 1.6142008555e+00 2.7958778954e+00 
96800 6.4432777195e+00 -5.7265484095e-05 1.6142008555e+00 -2.7958778954e+00 1.6142008555e+00 2.7958778954e+00 
96900 6.4432777199e+00 -5.7270834479e-05 1.6142008555e+00 -2.7958778954e+00 1.6142008555e+00 2.7958778954e+00 
97000 6.4432777203e+00 -5.7275963182e-05 1.6142008555e+00 -2.7958778954e+00 1.6142008555e+00 2.7958778954e+00 
97100 6.4432777207e+00 -5.7280893185e-05 1.6142008555e+00 -2.7958778954e+00 1.6142008555e+00 2.7958778954e+00 
97200 6.4432777211e+00 -5.7285646917e-05 1.6142008555e+00 -2.7958778954e+00 1.6142008555e+00 2.7958778954e+00 
97300 6.4432777214e+00 -5.7290246254e-05 1.6142008555e+00 -2.7958778954e+00 1.6142008555e+00 2.7958778954e+00 
97400 6.4432777218e+00 -5.7294712505e-05 1.6142008555e+00 -2.7958778954e+00 1.6142008555e+00 2.7958778954e+00 
97500 6.4432777221e+00 -5.7299066431e-05 1.6142008555e+00 -2.7958778954e+00 1.6142008555e+00 2.7958778954e+00 
97600 6.4432777225e+00 -5.7303328223e-05 1.6142008555e+00 -2.7958778954e+00 1.6142008555e+00 2.7958778954e+00 
97700 6.4432777228e+00 -5.7307517512e-05 1.6142008555e+00 -2.7958778954e+00 1.6142008555e+00 2.7958778954e+00 
97800 6.4432777232e+00 -5.7311653360e-05 1.6142008555e+00 -2.7958778954e+00 1.6142008555e+00 2.7958778954e+00 
97900 6.4432777235e+00 -5.7315754271e-05 1.6142008555e+00 -2.7958778954e+00 1.6142008555e+00 2.7958778954e+00 
98000 6.4432777239e+00 -5.7319838176e-05 1.6142008555e+00 -2.7958778954e+00 1.6142008555e+00 2.7958778954e+00 
98100 6.4432777242e+00 -5.7323922443e-05 1.6142008555e+00 -2.7958778954e+00 1.6142008555e+00 2.7958778954e+00 
98200 6.4432777245e+00 -5.7328023881e-05 1.6142008555e+00 -2.7958778954e+00 1.6142008555e+00 2.7958778954e+00 
98300 6.4432777249e+00 -5.7332158731e-05 1.6142008555e+00 -2.7958778954e+00 1.6142008555e+00 2.7958778954e+00 
98400 6.4432777252e+00 -5.7336342669e-05 1.6142008555e+00 -2.7958778954e+00 1.6142008555e+00 2.7958778954e+00 
98500 6.4432777255e+00 -5.7340590823e-05 1.6142008555e+00 -2.7958778954e+00 1.6142008555e+00 2.7958778954e+00 
98600 6.4432777258e+00 -5.7344917756e-05 1.6142008555e+00 -2.7958778954e+00 1.6142008555e+00 2.7958778954e+00 
98700 6.4432777261e+00 -5.7349337479e-05 1.6142008555e+00 -2.7958778954e+00 1.6142008555e+00 2.7958778954e+00 
98800 6.4432777264e+00 -5.7353863453e-05 1.6142008555e+00 -2.7958778954e+00 1.6142008555e+00 2.7958778954e+00 
98900 6.4432777267e+00 -5.7358508591e-05 1.6142008555e+00 -2.7958778954e+00 1.6142008555e+00 2.7958778954e+00 
99000 6.4432777270e+00 -5.7363285263e-05 1.6142008555e+00 -2.7958778954e+00 1.6142008555e+00 2.7958778954e+00 
99100 6.4432777273e+00 -5.7368205302e-05 1.6142008555e+00 -2.7958778954e+00 1.6142008555e+00 2.7958778954e+00 
99200 6.4432777276e+00 -5.7373280003e-05 1.6142008555e+00 -2.7958778954e+00 1.6142008555e+00 2.7958778954e+00 
99300 6.4432777279e+00 -5.7378520141e-05 1.6142008555e+00 -2.7958778954e+00 1.6142008555e+00 2.7958778954e+00 
99400 6.4432777282e+00 -5.7383935951e-05 1.6142008555e+00 -2.7958778954e+00 1.6142008555e+00 2.7958778954e+00 
99500 6.4432777285e+00 -5.7389537167e-05 1.6142008555e+00 -2.7958778954e+00 1.6142008555e+00 2.7958778954e+00 
99600 6.4432777288e+00 -5.7395332996e-05 1.6142008555e+00 -2.7958778954e+00 1.6142008555e+00 2.7958778954e+00 
99700 6.4432777291e+00 -5.7401332147e-05 1.6142008555e+00 -2.7958778954e+00 1.6142008555e+00 2.7958778954e+00 
99800 6.4432777293e+00 -5.7407542825e-05 1.6142008555e+00 -2.7958778954e+00 1.6142008555e+00 2.7958778954e+00 
99900 6.4432777296e+00 -5.7413972743e-05 1.6142008555e+00 -2.7958778954e+00 1.6142008555e+00 2.7958778954e+00 
100000 6.4432777299e+00 -5.7420629128e-05 1.6142008555e+00 -2.7958778954e+00 1.6142008555e+00 2.7958778954e+00 
100100 6.4432777302e+00 -5.7427518723e-05 1.6142008555e+00 -2.7958778954e+00 1.6142008555e+00 2.7958778954e+00 
100200 6.4432777304e+00 -5.7434647803e-05 1.6142008555e+00 -2.7958778954e+00 1.6142008555e+00 2.7958778954e+00 
100300 6.4432777307e+00 -5.7442022172e-05 1.6142008555e+00 -2.7958778954e+00 1.6142008555e+00 2.7958778954e+00 
100400 6.4432777309e+00 -5.7449647181e-05 1.6142008555e+00 -2.7958778954e+00 1.6142008555e+00 2.7958778954e+00 
100500 6.4432777312e+00 -5.7457527731e-05 1.6142008555e+00 -2.7958778954e+00 1.6142008555e+00 2.7958778954e+00 
100600 6.4432777314e+00 -5.7465668277e-05 1.6142008555e+00 -2.7958778954e+00 1.6142008555e+00 2.7958778954e+00 
100700 6.4432777317e+00 -5.7474072844e-05 1.6142008555e+00 -2.7958778954e+00 1.6142008555e+00 2.7958778954e+00 
100800 6.4432777319e+00 -5.7482745031e-05 1.6142008555e+00 -2.7958778954e+00 1.6142008555e+00 2.7958778954e+00 
100900 6.4432777322e+00 -5.7491688019e-05 1.6142008555e+00 -2.7958778954e+00 1.6142008555e+00 2.7958778954e+00 
101000 6.4432777324e+00 -5.7500904579e-05 1.6142008555e+00 -2.7958778954e+00 1.6142008555e+00 2.7958778954e+00 
101100 6.4432777327e+00 -5.7510397085e-05 1.6142008555e+00 -2.7958778954e+00 1.6142008555e+00 2.7958778954e+00 
101200 6.4432777329e+00 -5.7520167517e-05 1.6142008555e+00 -2.7958778954e+00 1.6142008555e+00 2.7958778954e+00 
101300 6.4432777331e+00 -5.7530217477e-05 1.6142008555e+00 -2.7958778954e+00 1.6142008555e+00 2.7958778954e+00 
101400 6.4432777334e+00 -5.7540548188e-05 1.6142008555e+00 -2.7958778954e+00 1.6142008555e+00 2.7958778954e+00 
101500 6.4432777336e+00 -5.7551160510e-05 1.6142008555e+00 -2.7958778954e+00 1.6142008555e+00 2.7958778954e+00 
101600 6.4432777338e+00 -5.7562054951e-05 1.6142008555e+00 -2.7958778954e+00 1.6142008555e+00 2.7958778954e+00 
101700 6.4432777340e+00 -5.7573231666e-05 1.6142008555e+00 -2.7958778954e+00 1.6142008555e+00 2.7958778954e+00 
101800 6.4432777343e+00 -5.7584690481e-05 1.6142008555e+00 -2.7958778954e+00 1.6142008555e+00 2.7958778954e+00 
101900 6.4432777345e+00 -5.7596430891e-05 1.6142008555e+00 -2.7958778954e+00 1.6142008555e+00 2.7958778954e+00 
102000 6.4432777347e+00 -5.7608452069e-05 1.6142008555e+00 -2.7958778954e+00 1.6142008555e+00 2.7958778954e+00 
102100 6.4432777349e+00 -5.7620752883e-05 1.6142008555e+00 -2.7958778954e+00 1.6142008555e+00 2.7958778954e+00 
102200 6.4432777351e+00 -5.7633331899e-05 1.6142008555e+00 -2.7958778954e+00 1.6142008555e+00 2.7958778954e+00 
102300 6.4432777353e+00 -5.7646187391e-05 1.6142008555e+00 -2.7958778954e+00 1.6142008555e+00 2.7958778954e+00 
102400 6.4432777355e+00 -5.7659317356e-05 1.6142008555e+00 -2.7958778954e+00 1.6142008555e+00 2.7958778954e+00 
102500 6.4432777357e+00 -5.7672719516e-05 1.6142008555e+00 -2.7958778954e+00 1.6142008555e+00 2.7958778954e+00 
102600 6.4432777359e+00 -5.7686391329e-05 1.6142008555e+00 -2.7958778954e+00 1.6142008555e+00 2.7958778954e+00 
102700 6.4432777361e+00 -5.7700330001e-05 1.6142008555e+00 -2.7958778954e+00 1.6142008555e+00 2.7958778954e+00 
102800 6.4432777363e+00 -5.7714532496e-05 1.6142008555e+00 -2.7958778954e+00 1.6142008555e+00 2.7958778954e+00 
102900 6.4432777365e+00 -5.7728995536e-05 1.6142008555e+00 -2.7958778954e+00 1.6142008555e+00 2.7958778954e+00 
103000 6.4432777367e+00 -5.7743715623e-05 1.6142008555e+00 -2.7958778954e+00 1.6142008555e+00 2.7958778954e+00 
103100 6.4432777369e+00 -5.7758689045e-05 1.6142008555e+00 -2.7958778954e+00 1.6142008555e+00 2.7958778954e+00 
103200 6.4432777371e+00 -5.7773911873e-05 1.6142008555e+00 -2.7958778954e+00 1.6142008555e+00 2.7958778954e+00 
103300 6.4432777373e+00 -5.7789379986e-05 1.6142008555e+00 -2.7958778954e+00 1.6142008555e+00 2.7958778954e+00 
103400 6.4432777375e+00 -5.7805089070e-05 1.6142008555e+00 -2.7958778954e+00 1.6142008555e+00 2.7958778954e+00 
103500 6.4432777376e+00 -5.7821034632e-05 1.6142008555e+00 -2.7958778954e+00 1.6142008555e+00 2.7958778954e+00 
103600 6.4432777378e+00 -5.7837212007e-05 1.6142008555e+00 -2.7958778954e+00 1.6142008555e+00 2.7958778954e+00 
103700 6.4432777380e+00 -5.7853616364e-05 1.6142008555e+00 -2.7958778954e+00 1.6142008555e+00 2.7958778954e+00 
103800 6.4432777382e+00 -5.7870242721e-05 1.6142008555e+00 -2.7958778954e+00 1.6142008555e+00 2.7958778954e+00 
103900 6.4432777383e+00 -5.7887085944e-05 1.6142008555e+00 -2.7958778954e+00 1.6142008555e+00 2.7958778954e+00 
104000 6.4432777385e+00 -5.7904140766e-05 1.6142008555e+00 -2.7958778954e+00 1.6142008555e+00 2.7958778954e+00 
104100 6.4432777387e+00 -5.7921401789e-05 1.6142008555e+00 -2.7958778954e+00 1.6142008555e+00 2.7958778954e+00 
104200 6.4432777389e+00 -5.7938863492e-05 1.6142008555e+00 -2.7958778954e+00 1.6142008555e+00 2.7958778954e+00 
104300 6.4432777390e+00 -5.7956520242e-05 1.6142008555e+00 -2.7958778954e+00 1.6142008555e+00 2.7958778954e+00 
104400 6.4432777392e+00 -5.7974366302e-05 1.6142008555e+00 -2.7958778954e+00 1.6142008555e+00 2.7958778954e+00 
104500 6.4432777394e+00 -5.7992395833e-05 1.6142008555e+00 -2.7958778954e+00 1.6142008555e+00 2.7958778954e+00 
104600 6.4432777395e+00 -5.8010602912e-05 1.6142008555e+00 -2.7958778954e+00 1.6142008555e+00 2.7958778954e+00 
104700 6.4432777397e+00 -5.8028981530e-05 1.6142008555e+00 -2.7958778954e+00 1.6142008555e+00 2.7958778954e+00 
104800 6.4432777398e+00 -5.8047525604e-05 1.6142008555e+00 -2.7958778954e+00 1.6142008555e+00 2.7958778954e+00 
104900 6.4432777400e+00 -5.8066228986e-05 1.6142008555e+00 -2.7958778954e+00 1.6142008555e+00 2.7958778954e+00 
105000 6.4432777401e+00 -5.8085085465e-05 1.6142008555e+00 -2.7958778954e+00 1.6142008555e+00 2.7958778954e+00 
105100 6.4432777403e+00 -5.8104088779e-05 1.6142008555e+00 -2.7958778954e+00 1.6142008555e+00 2.7958778954e+00 
105200 6.4432777404e+00 -5.8123232618e-05 1.6142008555e+00 -2.7958778954e+00 1.6142008555e+00 2.7958778954e+00 
105300 6.4432777406e+00 -5.8142510638e-05 1.6142008555e+00 -2.7958778954e+00 1.6142008555e+00 2.7958778954e+00 
105400 6.4432777407e+00 -5.8161916455e-05 1.6142008555e+00 -2.7958778954e+00 1.6142008555e+00 2.7958778954e+00 
105500 6.4432777409e+00 -5.8181443665e-05 1.6142008555e+00 -2.7958778954e+00 1.6142008555e+00 2.7958778954e+00 
105600 6.4432777410e+00 -5.8201085843e-05 1.6142008555e+00 -2.7958778954e+00 1.6142008555e+00 2.7958778954e+00 
105700 6.4432777412e+00 -5.8220836549e-05 1.6142008555e+00 -2.7958778954e+00 1.6142008555e+00 2.7958778954e+00 
105800 6.4432777413e+00 -5.8240689339e-05 1.6142008555e+00 -2.7958778954e+00 1.6142008555e+00 2.7958778954e+00 
105900 6.4432777414e+00 -5.8260637765e-05 1.6142008555e+00 -2.7958778954e+00 1.6142008555e+00 2.7958778954e+00 
106000 6.4432777416e+00 -5.8280675386e-05 1.6142008555e+00 -2.7958778954e+00 1.6142008555e+00 2.7958778954e+00 
106100 6.4432777417e+00 -5.8300795769e-05 1.6142008555e+00 -2.7958778954e+00 1.6142008555e+00 2.7958778954e+00 
106200 6.4432777419e+00 -5.8320992496e-05 1.6142008555e+00 -2.7958778954e+00 1.6142008555e+00 2.7958778954e+00 
106300 6.4432777420e+00 -5.8341259173e-05 1.6142008555e+00 -2.7958778954e+00 1.6142008555e+00 2.7958778954e+00 
106400 6.4432777421e+00 -5.8361589435e-05 1.6142008555e+00 -2.7958778954e+00 1.6142008555e+00 2.7958778954e+00 
106500 6.4432777422e+00 -5.8381976938e-05 1.6142008555e+00 -2.7958778954e+00 1.6142008555e+00 2.7958778954e+00 
106600 6.4432777424e+00 -5.8402415382e-05 1.6142008555e+00 -2.7958778954e+00 1.6142008555e+00 2.7958778954e+00 
106700 6.4432777425e+00 -5.8422898509e-05 1.6142008555e+00 -2.7958778954e+00 1.6142008555e+00 2.7958778954e+00 
106800 6.4432777426e+00 -5.8443420103e-05 1.6142008555e+00 -2.7958778954e+00 1.6142008555e+00 2.7958778954e+00 
106900 6.4432777428e+00 -5.8463973997e-05 1.6142008555e+00 -2.7958778954e+00 1.6142008555e+00 2.7958778954e+00 
107000 6.4432777429e+00 -5.8484554082e-05 1.6142008555e+00 -2.7958778954e+00 1.6142008555e+00 2.7958778954e+00 
107100 6.4432777430e+00 -5.8505154305e-05 1.6142008555e+00 -2.7958778954e+00 1.6142008555e+00 2.7958778954e+00 
107200 6.4432777431e+00 -5.8525768672e-05 1.6142008555e+00 -2.7958778954e+00 1.6142008555e+00 2.7958778954e+00 
107300 6.4432777432e+00 -5.8546391262e-05 1.6142008555e+00 -2.7958778954e+00 1.6142008555e+00 2.7958778954e+00 
107400 6.4432777434e+00 -5.8567016217e-05 1.6142008555e+00 -2.7958778954e+00 1.6142008555e+00 2.7958778954e+00 
107500 6.4432777435e+00 -5.8587637758e-05 1.6142008555e+00 -2.7958778954e+00 1.6142008555e+00 2.7958778954e+00 
107600 6.4432777436e+00 -5.8608250177e-05 1.6142008555e+00 -2.7958778954e+00 1.6142008555e+00 2.7958778954e+00 
107700 6.4432777437e+00 -5.8628847850e-05 1.6142008555e+00 -2.7958778954e+00 1.6142008555e+00 2.7958778954e+00 
107800 6.4432777438e+00 -5.8649425233e-05 1.6142008555e+00 -2.7958778954e+00 1.6142008555e+00 2.7958778954e+00 
107900 6.4432777439e+00 -5.8669976867e-05 1.6142008555e+00 -2.7958778954e+00 1.6142008555e+00 2.7958778954e+00 
108000 6.4432777440e+00 -5.8690497385e-05 1.6142008555e+00 -2.7958778954e+00 1.6142008555e+00 2.7958778954e+00 
108100 6.4432777441e+00 -5.8710981511e-05 1.6142008555e+00 -2.7958778954e+00 1.6142008555e+00 2.7958778954e+00 
108200 6.4432777442e+00 -5.8731424056e-05 1.6142008555e+00 -2.7958778954e+00 1.6142008555e+00 2.7958778954e+00 
108300 6.4432777444e+00 -5.8751819933e-05 1.6142008555e+00 -2.7958778954e+00 1.6142008555e+00 2.7958778954e+00 
108400 6.4432777445e+00 -5.8772164152e-05 1.6142008555e+00 -2.7958778954e+00 1.6142008555e+00 2.7958778954e+00 
108500 6.4432777446e+00 -5.8792451822e-05 1.6142008555e+00 -2.7958778954e+00 1.6142008555e+00 2.7958778954e+00 
108600 6.4432777447e+00 -5.8812678153e-05 1.6142008555e+00 -2.7958778954e+00 1.6142008555e+00 2.7958778954e+00 
108700 6.4432777448e+00 -5.8832838462e-05 1.6142008555e+00 -2.7958778954e+00 1.6142008555e+00 2.7958778954e+00 
108800 6.4432777449e+00 -5.8852928168e-05 1.6142008555e+00 -2.7958778954e+00 1.6142008555e+00 2.7958778954e+00 
108900 6.4432777450e+00 -5.8872942796e-05 1.6142008555e+00 -2.7958778954e+00 1.6142008555e+00 2.7958778954e+00 
109000 6.4432777451e+00 -5.8892877986e-05 1.6142008555e+00 -2.7958778954e+00 1.6142008555e+00 2.7958778954e+00 
109100 6.4432777452e+00 -5.8912729480e-05 1.6142008555e+00 -2.7958778954e+00 1.6142008555e+00 2.7958778954e+00 
109200 6.4432777453e+00 -5.8932493136e-05 1.6142008555e+00 -2.7958778954e+00 1.6142008555e+00 2.7958778954e+00 
109300 6.4432777454e+00 -5.8952164921e-05 1.6142008555e+00 -2.7958778954e+00 1.6142008555e+00 2.7958778954e+00 
109400 6.4432777454e+00 -5.8971740914e-05 1.6142008555e+00 -2.7958778954e+00 1.6142008555e+00 2.7958778954e+00 
109500 6.4432777455e+00 -5.8991217310e-05 1.6142008555e+00 -2.7958778954e+00 1.6142008555e+00 2.7958778954e+00 
109600 6.4432777456e+00 -5.9010590418e-05 1.6142008555e+00 -2.7958778954e+00 1.6142008555e+00 2.7958778954e+00 
109700 6.4432777457e+00 -5.9029856660e-05 1.6142008555e+00 -2.7958778954e+00 1.6142008555e+00 2.7958778954e+00 
109800 6.4432777458e+00 -5.9049012573e-05 1.6142008555e+00 -2.7958778954e+00 1.6142008555e+00 2.7958778954e+00 
109900 6.4432777459e+00 -5.9068054810e-05 1.6142008555e+00 -2.7958778954e+00 1.6142008555e+00 2.7958778954e+00 
110000 6.4432777460e+00 -5.9086980142e-05 1.6142008555e+00 -2.7958778954e+00 1.6142008555e+00 2.7958778954e+00 
110100 6.4432777461e+00 -5.9105785453e-05 1.6142008555e+00 -2.7958778954e+00 1.6142008555e+00 2.7958778954e+00 
110200 6.4432777462e+00 -5.9124467740e-05 1.6142008555e+00 -2.7958778954e+00 1.6142008555e+00 2.7958778954e+00 
110300 6.4432777462e+00 -5.9143024125e-05 1.6142008555e+00 -2.7958778954e+00 1.6142008555e+00 2.7958778954e+00 
110400 6.4432777463e+00 -5.9161451838e-05 1.6142008555e+00 -2.7958778954e+00 1.6142008555e+00 2.7958778954e+00 
110500 6.4432777464e+00 -5.9179748224e-05 1.6142008555e+00 -2.7958778954e+00 1.6142008555e+00 2.7958778954e+00 
110600 6.4432777465e+00 -5.9197910750e-05 1.6142008555e+00 -2.7958778954e+00 1.6142008555e+00 2.7958778954e+00 
110700 6.4432777466e+00 -5.9215936991e-05 1.6142008555e+00 -2.7958778954e+00 1.6142008555e+00 2.7958778954e+00 
110800 6.4432777467e+00 -5.9233824638e-05 1.6142008555e+00 -2.7958778954e+00 1.6142008555e+00 2.7958778954e+00 
110900 6.4432777467e+00 -5.9251571496e-05 1.6142008555e+00 -2.7958778954e+00 1.6142008555e+00 2.7958778954e+00 
111000 6.4432777468e+00 -5.9269175483e-05 1.6142008555e+00 -2.7958778954e+00 1.6142008555e+00 2.7958778954e+00 
111100 6.4432777469e+00 -5.9286634631e-05 1.6142008555e+00 -2.7958778954e+00 1.6142008555e+00 2.7958778954e+00 
111200 6.4432777470e+00 -5.9303947077e-05 1.6142008555e+00 -2.7958778954e+00 1.6142008555e+00 2.7958778954e+00 
111300 6.4432777470e+00 -5.9321111075e-05 1.6142008555e+00 -2.7958778954e+00 1.6142008555e+00 2.7958778954e+00 
111400 6.4432777471e+00 -5.9338124985e-05 1.6142008555e+00 -2.7958778954e+00 1.6142008555e+00 2.7958778954e+00 
111500 6.4432777472e+00 -5.9354987278e-05 1.6142008555e+00 -2.7958778954e+00 1.6142008555e+00 2.7958778954e+00 
111600 6.4432777473e+00 -5.9371696527e-05 1.6142008555e+00 -2.7958778954e+00 1.6142008555e+00 2.7958778954e+00 
111700 6.4432777473e+00 -5.9388251416e-05 1.6142008555e+00 -2.7958778954e+00 1.6142008555e+00 2.7958778954e+00 
111800 6.4432777474e+00 -5.9404650734e-05 1.6142008555e+00 -2.7958778954e+00 1.6142008555e+00 2.7958778954e+00 
111900 6.4432777475e+00 -5.9420893371e-05 1.6142008555e+00 -2.7958778954e+00 1.6142008555e+00 2.7958778954e+00 
112000 6.4432777476e+00 -5.9436978319e-05 1.6142008555e+00 -2.7958778954e+00 1.6142008555e+00 2.7958778954e+00 
112100 6.4432777476e+00 -5.9452904672e-05 1.6142008555e+00 -2.7958778954e+00 1.6142008555e+00 2.7958778954e+00 
112200 6.4432777477e+00 -5.9468671624e-05 1.6142008555e+00 -2.7958778954e+00 1.6142008555e+00 2.7958778954e+00 
112300 6.4432777478e+00 -5.9484278467e-05 1.6142008555e+00 -2.7958778954e+00 1.6142008555e+00 2.7958778954e+00 
112400 6.4432777478e+00 -5.9499724587e-05 1.6142008555e+00 -2.7958778954e+00 1.6142008555e+00 2.7958778954e+00 
112500 6.4432777479e+00 -5.9515009466e-05 1.6142008555e+00 -2.7958778954e+00 1.6142008555e+00 2.7958778954e+00 
112600 6.4432777480e+00 -5.9530132685e-05 1.6142008555e+00 -2.7958778954e+00 1.6142008555e+00 2.7958778954e+00 
112700 6.4432777480e+00 -5.9545093905e-05 1.6142008555e+00 -2.7958778954e+00 1.6142008555e+00 2.7958778954e+00 
112800 6.4432777481e+00 -5.9559892886e-05 1.6142008555e+00 -2.7958778954e+00 1.6142008555e+00 2.7958778954e+00 
112900 6.4432777482e+00 -5.9574529475e-05 1.6142008555e+00 -2.7958778954e+00 1.6142008555e+00 2.7958778954e+00 
113000 6.4432777482e+00 -5.9589003600e-05 1.6142008555e+00 -2.7958778954e+00 1.6142008555e+00 2.7958778954e+00 
113100 6.4432777483e+00 -5.9603315279e-05 1.6142008555e+00 -2.7958778954e+00 1.6142008555e+00 2.7958778954e+00 
113200 6.4432777483e+00 -5.9617464610e-05 1.6142008555e+00 -2.7958778954e+00 1.6142008555e+00 2.7958778954e+00 
113300 6.4432777484e+00 -5.9631451777e-05 1.6142008555e+00 -2.7958778954e+00 1.6142008555e+00 2.7958778954e+00 
113400 6.4432777485e+00 -5.9645277034e-05 1.6142008555e+00 -2.7958778954e+00 1.6142008555e+00 2.7958778954e+00 
113500 6.4432777485e+00 -5.9658940721e-05 1.6142008555e+00 -2.7958778954e+00 1.6142008555e+00 2.7958778954e+00 
113600 6.4432777486e+00 -5.9672443249e-05 1.6142008555e+00 -2.7958778954e+00 1.6142008555e+00 2.7958778954e+00 
113700 6.4432777486e+00 -5.9685785099e-05 1.6142008555e+00 -2.7958778954e+00 1.6142008555e+00 2.7958778954e+00 
113800 6.4432777487e+00 -5.9698966835e-05 1.6142008555e+00 -2.7958778954e+00 1.6142008555e+00 2.7958778954e+00 
113900 6.4432777488e+00 -5.9711989079e-05 1.6142008555e+00 -2.7958778954e+00 1.6142008555e+00 2.7958778954e+00 
114000 6.4432777488e+00 -5.9724852528e-05 1.6142008555e+00 -2.7958778954e+00 1.6142008555e+00 2.7958778954e+00 
114100 6.4432777489e+00 -5.9737557940e-05 1.6142008555e+00 -2.7958778954e+00 1.6142008555e+00 2.7958778954e+00 
114200 6.4432777489e+00 -5.9750106137e-05 1.6142008555e+00 -2.7958778954e+00 1.6142008555e+00 2.7958778954e+00 
114300 6.4432777490e+00 -5.9762498008e-05 1.6142008555e+00 -2.7958778954e+00 1.6142008555e+00 2.7958778954e+00 
114400 6.4432777490e+00 -5.9774734494e-05 1.6142008555e+00 -2.7958778954e+00 1.6142008555e+00 2.7958778954e+00 
114500 6.4432777491e+00 -5.9786816601e-05 1.6142008555e+00 -2.7958778954e+00 1.6142008555e+00 2.7958778954e+00 
114600 6.4432777491e+00 -5.9798745387e-05 1.6142008555e+00 -2.7958778954e+00 1.6142008555e+00 2.7958778954e+00 
114700 6.4432777492e+00 -5.9810521967e-05 1.6142008555e+00 -2.7958778954e+00 1.6142008555e+00 2.7958778954e+00 
114800 6.4432777492e+00 -5.9822147503e-05 1.6142008555e+00 -2.7958778954e+00 1.6142008555e+00 2.7958778954e+00 
114900 6.4432777493e+00 -5.9833623209e-05 1.6142008555e+00 -2.7958778954e+00 1.6142008555e+00 2.7958778954e+00 
115000 6.4432777493e+00 -5.9844950350e-05 1.6142008555e+00 -2.7958778954e+00 1.6142008555e+00 2.7958778954e+00 
115100 6.4432777494e+00 -5.9856130235e-05 1.6142008555e+00 -2.7958778954e+00 1.6142008555e+00 2.7958778954e+00 
115200 6.4432777494e+00 -5.9861444669e-05 1.6142008555e+00 -2.7958778954e+00 1.6142008555e+00 2.7958778954e+00 
115200 6.4432777494e+00 -5.9861444669e-05 1.6142008555e+00 -2.7958778954e+00 1.6142008555e+00 2.7958778954e+00 
