# step Hamiltonian StressXX CellTensor1 CellTensor2 CellTensor3 CellTensor4 
0 7.2701191651e+00 -1.9308224488e-01 1.6570215472e+00 -2.8700455089e+00 1.6570215472e+00 2.8700455089e+00 
100 7.2579906683e+00 -1.9229795305e-01 1.6570215472e+00 -2.8700455089e+00 1.6570215472e+00 2.8700455089e+00 
200 7.2449583384e+00 -1.8565648032e-01 1.6628274400e+00 -2.8801016104e+00 1.6628274400e+00 2.8801016104e+00 
300 7.2324602908e+00 -1.7924997758e-01 1.6684131073e+00 -2.8897762698e+00 1.6684131073e+00 2.8897762698e+00 
400 7.2205007964e+00 -1.7307716174e-01 1.6737878511e+00 -2.8990855991e+00 1.6737878511e+00 2.8990855991e+00 
500 7.2090815238e+00 -1.6713642869e-01 1.6789607286e+00 -2.9080452858e+00 1.6789607286e+00 2.9080452858e+00 
600 7.1982016405e+00 -1.6142587291e-01 1.6839405582e+00 -2.9166706036e+00 1.6839405582e+00 2.9166706036e+00 
700 7.1878579298e+00 -1.5594330620e-01 1.6887359244e+00 -2.9249764217e+00 1.6887359244e+00 2.9249764217e+00 
800 7.1780449209e+00 -1.5068627503e-01 1.6933551834e+00 -2.9329772130e+00 1.6933551834e+00 2.9329772130e+00 
900 7.1687550292e+00 -1.4565207683e-01 1.6978064673e+00 -2.9406870627e+00 1.6978064673e+00 2.9406870627e+00 
1000 7.1599787068e+00 -1.4083777495e-01 1.7020976882e+00 -2.9481196754e+00 1.7020976882e+00 2.9481196754e+00 
1100 7.1517045995e+00 -1.3624021245e-01 1.7062365426e+00 -2.9552883815e+00 1.7062365426e+00 2.9552883815e+00 
1200 7.1439197093e+00 -1.3185602473e-01 1.7102305146e+00 -2.9622061440e+00 1.7102305146e+00 2.9622061440e+00 
1300 7.1366095605e+00 -1.2768165106e-01 1.7140868792e+00 -2.9688855634e+00 1.7140868792e+00 2.9688855634e+00 
1400 7.1297583670e+00 -1.2371334517e-01 1.7178127052e+00 -2.9753388833e+00 1.7178127052e+00 2.9753388833e+00 
1500 7.1233492008e+00 -1.1994718496e-01 1.7214148580e+00 -2.9815779950e+00 1.7214148580e+00 2.9815779950e+00 
1600 7.1173641578e+00 -1.1637908141e-01 1.7249000017e+00 -2.9876144409e+00 1.7249000017e+00 2.9876144409e+00 
1700 7.1117845226e+00 -1.1300478698e-01 1.7282746015e+00 -2.9934594192e+00 1.7282746015e+00 2.9934594192e+00 
1800 7.1065909279e+00 -1.0981990338e-01 1.7315449252e+00 -2.9991237860e+00 1.7315449252e+00 2.9991237860e+00 
1900 7.1017635099e+00 -1.0681988906e-01 1.7347170451e+00 -3.0046180588e+00 1.7347170451e+00 3.0046180588e+00 
2000 7.0972820578e+00 -1.0400006647e-01 1.7377968393e+00 -3.0099524189e+00 1.7377968393e+00 3.0099524189e+00 
2100 7.0931261555e+00 -1.0135562910e-01 1.7407899930e+00 -3.0151367132e+00 1.7407899930e+00 3.0151367132e+00 
2200 7.0892753174e+00 -9.8881648576e-02 1.7437019994e+00 -3.0201804563e+00 1.7437019994e+00 3.0201804563e+00 
2300 7.0857091146e+00 -9.6573081800e-02 1.7465381608e+00 -3.0250928318e+00 1.7465381608e+00 3.0250928318e+00 
2400 7.0824072938e+00 -9.4424778247e-02 1.7493035890e+00 -3.0298826941e+00 1.7493035890e+00 3.0298826941e+00 
2500 7.0793498865e+00 -9.2431487482e-02 1.7520032068e+00 -3.0345585692e+00 1.7520032068e+00 3.0345585692e+00 
2600 7.0765173092e+00 -9.0587866976e-02 1.7546417478e+00 -3.0391286564e+00 1.7546417478e+00 3.0391286564e+00 
2700 7.0738904549e+00 -8.8888490226e-02 1.7572237577e+00 -3.0436008286e+00 1.7572237577e+00 3.0436008286e+00 
2800 7.0714507743e+00 -8.7327855245e-02 1.7597535944e+00 -3.0479826343e+00 1.7597535944e+00 3.0479826343e+00 
2900 7.0691803485e+00 -8.5900393404e-02 1.7622354290e+00 -3.0522812980e+00 1.7622354290e+00 3.0522812980e+00 
3000 7.0670619520e+00 -8.4600478655e-02 1.7646732465e+00 -3.0565037217e+00 1.7646732465e+00 3.0565037217e+00 
3100 7.0650791069e+00 -8.3422437096e-02 1.7670708464e+00 -3.0606564865e+00 1.7670708464e+00 3.0606564865e+00 
3200 7.0632161285e+00 -8.2360556883e-02 1.7694318435e+00 -3.0647458535e+00 1.7694318435e+00 3.0647458535e+00 
3300 7.0614581618e+00 -8.1409098429e-02 1.7717596695e+00 -3.0687777664e+00 1.7717596695e+00 3.0687777664e+00 
3400 7.0597912107e+00 -8.0562304875e-02 1.7740575734e+00 -3.0727578527e+00 1.7740575734e+00 3.0727578527e+00 
3500 7.0582021588e+00 -7.9814412757e-02 1.7763286234e+00 -3.0766914266e+00 1.7763286234e+00 3.0766914266e+00 
3600 7.0566787833e+00 -7.9159662837e-02 1.7785757080e+00 -3.0805834914e+00 1.7785757080e+00 3.0805834914e+00 
3700 7.0552097616e+00 -7.8592311026e-02 1.7808015382e+00 -3.0844387423e+00 1.7808015382e+00 3.0844387423e+00 
3800 7.0537846726e+00 -7.8106639338e-02 1.7830086489e+00 -3.0882615702e+00 1.7830086489e+00 3.0882615702e+00 
3900 7.0523939901e+00 -7.7696966806e-02 1.7851994013e+00 -3.0920560647e+00 1.7851994013e+00 3.0920560647e+00 
4000 7.0510290734e+00 -7.7357660309e-02 1.7873759854e+00 -3.0958260190e+00 1.7873759854e+00 3.0958260190e+00 
4100 7.0496821505e+00 -7.7083145231e-02 1.7895404223e+00 -3.0995749337e+00 1.7895404223e+00 3.0995749337e+00 
4200 7.0483462983e+00 -7.6867915891e-02 1.7916945673e+00 -3.1033060221e+00 1.7916945673e+00 3.1033060221e+00 
4300 7.0470154190e+00 -7.6706545692e-02 1.7938401125e+00 -3.1070222156e+00 1.7938401125e+00 3.1070222156e+00 
4400 7.0456842119e+00 -7.6593696927e-02 1.7959785909e+00 -3.1107261687e+00 1.7959785909e+00 3.1107261687e+00 
4500 7.0443481433e+00 -7.6524130189e-02 1.7981113790e+00 -3.1144202661e+00 1.7981113790e+00 3.1144202661e+00 
4600 7.0430034132e+00 -7.6492713338e-02 1.8002397011e+00 -3.1181066282e+00 1.8002397011e+00 3.1181066282e+00 
4700 7.0416469200e+00 -7.6494429988e-02 1.8023646332e+00 -3.1217871185e+00 1.8023646332e+00 3.1217871185e+00 
4800 7.0402762240e+00 -7.6524387469e-02 1.8044871067e+00 -3.1254633504e+00 1.8044871067e+00 3.1254633504e+00 
4900 7.0388895085e+00 -7.6577824241e-02 1.8066079131e+00 -3.1291366948e+00 1.8066079131e+00 3.1291366948e+00 
5000 7.0374855406e+00 -7.6650116735e-02 1.8087277084e+00 -3.1328082880e+00 1.8087277084e+00 3.1328082880e+00 
5100 7.0360636317e+00 -7.6736785590e-02 1.8108470176e+00 -3.1364790392e+00 1.8108470176e+00 3.1364790392e+00 
5200 7.0346235965e+00 -7.6833501293e-02 1.8129662395e+00 -3.1401496392e+00 1.8129662395e+00 3.1401496392e+00 
5300 7.0331657129e+00 -7.6936089196e-02 1.8150856515e+00 -3.1438205686e+00 1.8150856515e+00 3.1438205686e+00 
5400 7.0316906818e+00 -7.7040533919e-02 1.8172054150e+00 -3.1474921065e+00 1.8172054150e+00 3.1474921065e+00 
5500 7.0301995873e+00 -7.7142983137e-02 1.8193255796e+00 -3.1511643395e+00 1.8193255796e+00 3.1511643395e+00 
5600 7.0286938573e+00 -7.7239750759e-02 1.8214460893e+00 -3.1548371699e+00 1.8214460893e+00 3.1548371699e+00 
5700 7.0271752253e+00 -7.7327319509e-02 1.8235667867e+00 -3.1585103255e+00 1.8235667867e+00 3.1585103255e+00 
5800 7.0256456929e+00 -7.7402342932e-02 1.8256874188e+00 -3.1621833681e+00 1.8256874188e+00 3.1621833681e+00 
5900 7.0241074937e+00 -7.7461646829e-02 1.8278076422e+00 -3.1658557028e+00 1.8278076422e+00 3.1658557028e+00 
6000 7.0225630582e+00 -7.7502230158e-02 1.8299270281e+00 -3.1695265869e+00 1.8299270281e+00 3.1695265869e+00 
6100 7.0210149800e+00 -7.7521265418e-02 1.8320450678e+00 -3.1731951392e+00 1.8320450678e+00 3.1731951392e+00 
6200 7.0194659840e+00 -7.7516098539e-02 1.8341611776e+00 -3.1768603488e+00 1.8341611776e+00 3.1768603488e+00 
6300 7.0179188950e+00 -7.7484248312e-02 1.8362747041e+00 -3.1805210841e+00 1.8362747041e+00 3.1805210841e+00 
6400 7.0163766094e+00 -7.7423405389e-02 1.8383849295e+00 -3.1841761017e+00 1.8383849295e+00 3.1841761017e+00 
6500 7.0148420670e+00 -7.7331430872e-02 1.8404910762e+00 -3.1878240549e+00 1.8404910762e+00 3.1878240549e+00 
6600 7.0133182255e+00 -7.7206354539e-02 1.8425923123e+00 -3.1914635026e+00 1.8425923123e+00 3.1914635026e+00 
6700 7.0118080361e+00 -7.7046372722e-02 1.8446877560e+00 -3.1950929175e+00 1.8446877560e+00 3.1950929175e+00 
6800 7.0103144213e+00 -7.6849845876e-02 1.8467764806e+00 -3.1987106946e+00 1.8467764806e+00 3.1987106946e+00 
6900 7.0088402534e+00 -7.6615295871e-02 1.8488575191e+00 -3.2023151590e+00 1.8488575191e+00 3.2023151590e+00 
7000 7.0073883359e+00 -7.6341403024e-02 1.8509298689e+00 -3.2059045742e+00 1.8509298689e+00 3.2059045742e+00 
7100 7.0059613856e+00 -7.6027002922e-02 1.8529924960e+00 -3.2094771492e+00 1.8529924960e+00 3.2094771492e+00 
7200 7.0045620165e+00 -7.5671083042e-02 1.8550443396e+00 -3.2130310465e+00 1.8550443396e+00 3.2130310465e+00 
7300 7.0031927258e+00 -7.5272779210e-02 1.8570843161e+00 -3.2165643893e+00 1.8570843161e+00 3.2165643893e+00 
7400 7.0018558807e+00 -7.4831371913e-02 1.8591113230e+00 -3.2200752683e+00 1.8591113230e+00 3.2200752683e+00 
7500 7.0005537070e+00 -7.4346282496e-02 1.8611242433e+00 -3.2235617486e+00 1.8611242433e+00 3.2235617486e+00 
7600 6.9992882794e+00 -7.3817069271e-02 1.8631219489e+00 -3.2270218761e+00 1.8631219489e+00 3.2270218761e+00 
7700 6.9980615131e+00 -7.3243423539e-02 1.8651033043e+00 -3.2304536845e+00 1.8651033043e+00 3.2304536845e+00 
7800 6.9968751562e+00 -7.2625165570e-02 1.8670671704e+00 -3.2338552002e+00 1.8670671704e+00 3.2338552002e+00 
7900 6.9957307846e+00 -7.1962240535e-02 1.8690124073e+00 -3.2372244495e+00 1.8690124073e+00 3.2372244495e+00 
8000 6.9946297965e+00 -7.1254714429e-02 1.8709378783e+00 -3.2405594630e+00 1.8709378783e+00 3.2405594630e+00 
8100 6.9935734100e+00 -7.0502769976e-02 1.8728424522e+00 -3.2438582818e+00 1.8728424522e+00 3.2438582818e+00 
8200 6.9925626601e+00 -6.9706702545e-02 1.8747250069e+00 -3.2471189622e+00 1.8747250069e+00 3.2471189622e+00 
8300 6.9915983981e+00 -6.8866916082e-02 1.8765844319e+00 -3.2503395808e+00 1.8765844319e+00 3.2503395808e+00 
8400 6.9906812913e+00 -6.7983919066e-02 1.8784196312e+00 -3.2535182392e+00 1.8784196312e+00 3.2535182392e+00 
8500 6.9898118238e+00 -6.7058320502e-02 1.8802295256e+00 -3.2566530683e+00 1.8802295256e+00 3.2566530683e+00 
8600 6.9889902986e+00 -6.6090825945e-02 1.8820130555e+00 -3.2597422326e+00 1.8820130555e+00 3.2597422326e+00 
8700 6.9882168398e+00 -6.5082233578e-02 1.8837691829e+00 -3.2627839345e+00 1.8837691829e+00 3.2627839345e+00 
8800 6.9874913968e+00 -6.4033430330e-02 1.8854968938e+00 -3.2657764176e+00 1.8854968938e+00 3.2657764176e+00 
8900 6.9868137479e+00 -6.2945388044e-02 1.8871952003e+00 -3.2687179707e+00 1.8871952003e+00 3.2687179707e+00 
9000 6.9861835058e+00 -6.1819159696e-02 1.8888631425e+00 -3.2716069314e+00 1.8888631425e+00 3.2716069314e+00 
9100 6.9856001229e+00 -6.0655875665e-02 1.8904997904e+00 -3.2744416887e+00 1.8904997904e+00 3.2744416887e+00 
9200 6.9850628975e+00 -5.9456740043e-02 1.8921042457e+00 -3.2772206867e+00 1.8921042457e+00 3.2772206867e+00 
9300 6.9845709811e+00 -5.8223027000e-02 1.8936756433e+00 -3.2799424272e+00 1.8936756433e+00 3.2799424272e+00 
9400 6.9841233851e+00 -5.6956077181e-02 1.8952131531e+00 -3.2826054724e+00 1.8952131531e+00 3.2826054724e+00 
9500 6.9837189889e+00 -5.5657294151e-02 1.8967159814e+00 -3.2852084473e+00 1.8967159814e+00 3.2852084473e+00 
9600 6.9833565480e+00 -5.4328140862e-02 1.8981833720e+00 -3.2877500424e+00 1.8981833720e+00 3.2877500424e+00 
9700 6.9830347026e+00 -5.2970136158e-02 1.8996146078e+00 -3.2902290156e+00 1.8996146078e+00 3.2902290156e+00 
9800 6.9827519864e+00 -5.1584851297e-02 1.9010090120e+00 -3.2926441945e+00 1.9010090120e+00 3.2926441945e+00 
9900 6.9825068356e+00 -5.0173906487e-02 1.9023659489e+00 -3.2949944780e+00 1.9023659489e+00 3.2949944780e+00 
10000 6.9822975983e+00 -4.8738967445e-02 1.9036848249e+00 -3.2972788384e+00 1.9036848249e+00 3.2972788384e+00 
10100 6.9821225444e+00 -4.7281741945e-02 1.9049650901e+00 -3.2994963227e+00 1.9049650901e+00 3.2994963227e+00 
10200 6.9819798745e+00 -4.5803976376e-02 1.9062062381e+00 -3.3016460541e+00 1.9062062381e+00 3.3016460541e+00 
10300 6.9818677304e+00 -4.4307452290e-02 1.9074078076e+00 -3.3037272335e+00 1.9074078076e+00 3.3037272335e+00 
10400 6.9817842044e+00 -4.2793982937e-02 1.9085693826e+00 -3.3057391404e+00 1.9085693826e+00 3.3057391404e+00 
10500 6.9817273494e+00 -4.1265409784e-02 1.9096905934e+00 -3.3076811344e+00 1.9096905934e+00 3.3076811344e+00 
10600 6.9816951882e+00 -3.9723599016e-02 1.9107711165e+00 -3.3095526555e+00 1.9107711165e+00 3.3095526555e+00 
10700 6.9816857238e+00 -3.8170438006e-02 1.9118106758e+00 -3.3113532250e+00 1.9118106758e+00 3.3113532250e+00 
10800 6.9816969486e+00 -3.6607831761e-02 1.9128090424e+00 -3.3130824467e+00 1.9128090424e+00 3.3130824467e+00 
10900 6.9817268537e+00 -3.5037699340e-02 1.9137660351e+00 -3.3147400065e+00 1.9137660351e+00 3.3147400065e+00 
11000 6.9817734385e+00 -3.3461970235e-02 1.9146815203e+00 -3.3163256735e+00 1.9146815203e+00 3.3163256735e+00 
11100 6.9818347193e+00 -3.1882580726e-02 1.9155554127e+00 -3.3178392996e+00 1.9155554127e+00 3.3178392996e+00 
11200 6.9819087381e+00 -3.0301470204e-02 1.9163876750e+00 -3.3192808200e+00 1.9163876750e+00 3.3192808200e+00 
11300 6.9819935710e+00 -2.8720577465e-02 1.9171783175e+00 -3.3206502531e+00 1.9171783175e+00 3.3206502531e+00 
11400 6.9820873365e+00 -2.7141836978e-02 1.9179273988e+00 -3.3219476999e+00 1.9179273988e+00 3.3219476999e+00 
11500 6.9821882026e+00 -2.5567175130e-02 1.9186350248e+00 -3.3231733441e+00 1.9186350248e+00 3.3231733441e+00 
11600 6.9822943947e+00 -2.3998506464e-02 1.9193013488e+00 -3.3243274512e+00 1.9193013488e+00 3.3243274512e+00 
11700 6.9824042019e+00 -2.2437729894e-02 1.9199265714e+00 -3.3254103684e+00 1.9199265714e+00 3.3254103684e+00 
11800 6.9825159837e+00 -2.0886724933e-02 1.9205109392e+00 -3.3264225232e+00 1.9205109392e+00 3.3264225232e+00 
11900 6.9826281758e+00 -1.9347347915e-02 1.9210547453e+00 -3.3273644230e+00 1.9210547453e+00 3.3273644230e+00 
12000 6.9827392954e+00 -1.7821428242e-02 1.9215583279e+00 -3.3282366536e+00 1.9215583279e+00 3.3282366536e+00 
12100 6.9828479459e+00 -1.6310764661e-02 1.9220220698e+00 -3.3290398782e+00 1.9220220698e+00 3.3290398782e+00 
12200 6.9829528214e+00 -1.4817121572e-02 1.9224463981e+00 -3.3297748363e+00 1.9224463981e+00 3.3297748363e+00 
12300 6.9830527105e+00 -1.3342225399e-02 1.9228317825e+00 -3.3304423416e+00 1.9228317825e+00 3.3304423416e+00 
12400 6.9831464988e+00 -1.1887761016e-02 1.9231787350e+00 -3.3310432810e+00 1.9231787350e+00 3.3310432810e+00 
12500 6.9832331721e+00 -1.0455368261e-02 1.9234878087e+00 -3.3315786124e+00 1.9234878087e+00 3.3315786124e+00 
12600 6.9833118182e+00 -9.0466385413e-03 1.9237595966e+00 -3.3320493628e+00 1.9237595966e+00 3.3320493628e+00 
12700 6.9833816279e+00 -7.6631115437e-03 1.9239947305e+00 -3.3324566267e+00 1.9239947305e+00 3.3324566267e+00 
12800 6.9834418960e+00 -6.3062720719e-03 1.9241938798e+00 -3.3328015634e+00 1.9241938798e+00 3.3328015634e+00 
12900 6.9834920213e+00 -4.9775470189e-03 1.9243577500e+00 -3.3330853950e+00 1.9243577500e+00 3.3330853950e+00 
13000 6.9835315064e+00 -3.6783024920e-03 1.9244870815e+00 -3.3333094037e+00 1.9244870815e+00 3.3333094037e+00 
13100 6.9835599562e+00 -2.4098411030e-03 1.9245826481e+00 -3.3334749299e+00 1.9245826481e+00 3.3334749299e+00 
13200 6.9835770769e+00 -1.1733994377e-03 1.9246452553e+00 -3.3335833687e+00 1.9246452553e+00 3.3335833687e+00 
13300 6.9835826734e+00 2.9854282787e-05 1.9246757389e+00 -3.3336361679e+00 1.9246757389e+00 3.3336361679e+00 
13400 6.9835766487e+00 1.1995636903e-03 1.9246757389e+00 -3.3336361679e+00 1.9246757389e+00 3.3336361679e+00 
13500 6.9835589949e+00 2.3332072022e-03 1.9246445763e+00 -3.3335821926e+00 1.9246445763e+00 3.3335821926e+00 
13600 6.9835297958e+00 3.4305889985e-03 1.9245839626e+00 -3.3334772066e+00 1.9245839626e+00 3.3334772066e+00 
13700 6.9834892203e+00 4.4908334528e-03 1.9244948378e+00 -3.3333228380e+00 1.9244948378e+00 3.3333228380e+00 
13800 6.9834375184e+00 5.5131417477e-03 1.9243781633e+00 -3.3331207519e+00 1.9243781633e+00 3.3331207519e+00 
13900 6.9833750161e+00 6.4967928567e-03 1.9242349204e+00 -3.3328726478e+00 1.9242349204e+00 3.3328726478e+00 
14000 6.9833021105e+00 7.4411442762e-03 1.9240661079e+00 -3.3325802560e+00 1.9240661079e+00 3.3325802560e+00 
14100 6.9832192641e+00 8.3456325074e-03 1.9238727408e+00 -3.3322453344e+00 1.9238727408e+00 3.3322453344e+00 
14200 6.9831269994e+00 9.2097732869e-03 1.9236558482e+00 -3.3318696654e+00 1.9236558482e+00 3.3318696654e+00 
14300 6.9830258926e+00 1.0033161566e-02 1.9234164711e+00 -3.3314550521e+00 1.9234164711e+00 3.3314550521e+00 
14400 6.9829165682e+00 1.0815471245e-02 1.9231556609e+00 -3.3310033155e+00 1.9231556609e+00 3.3310033155e+00 
14500 6.9827996921e+00 1.1556454658e-02 1.9228744770e+00 -3.3305162907e+00 1.9228744770e+00 3.3305162907e+00 
14600 6.9826759660e+00 1.2255941829e-02 1.9225739854e+00 -3.3299958240e+00 1.9225739854e+00 3.3299958240e+00 
14700 6.9825461208e+00 1.2913839487e-02 1.9222552563e+00 -3.3294437691e+00 1.9222552563e+00 3.3294437691e+00 
14800 6.9824109106e+00 1.3530129871e-02 1.9219193628e+00 -3.3288619844e+00 1.9219193628e+00 3.3288619844e+00 
14900 6.9822711063e+00 1.4104869312e-02 1.9215673783e+00 -3.3282523293e+00 1.9215673783e+00 3.3282523293e+00 
15000 6.9821274898e+00 1.4638186622e-02 1.9212003753e+00 -3.3276166615e+00 1.9212003753e+00 3.3276166615e+00 
15100 6.9819808477e+00 1.5130281293e-02 1.9208194232e+00 -3.3269568332e+00 1.9208194232e+00 3.3269568332e+00 
15200 6.9818319662e+00 1.5581421519e-02 1.9204255871e+00 -3.3262746889e+00 1.9204255871e+00 3.3262746889e+00 
15300 6.9816816249e+00 1.5991942055e-02 1.9200199251e+00 -3.3255720618e+00 1.9200199251e+00 3.3255720618e+00 
15400 6.9815305920e+00 1.6362241937e-02 1.9196034876e+00 -3.3248507710e+00 1.9196034876e+00 3.3248507710e+00 
15500 6.9813796189e+00 1.6692782061e-02 1.9191773153e+00 -3.3241126189e+00 1.9191773153e+00 3.3241126189e+00 
15600 6.9812294362e+00 1.6984082649e-02 1.9187424376e+00 -3.3233593885e+00 1.9187424376e+00 3.3233593885e+00 
15700 6.9810807484e+00 1.7236720611e-02 1.9182998709e+00 -3.3225928405e+00 1.9182998709e+00 3.3225928405e+00 
15800 6.9809342308e+00 1.7451326829e-02 1.9178506177e+00 -3.3218147111e+00 1.9178506177e+00 3.3218147111e+00 
15900 6.9807905252e+00 1.7628583359e-02 1.9173956647e+00 -3.3210267095e+00 1.9173956647e+00 3.3210267095e+00 
16000 6.9806502370e+00 1.7769220584e-02 1.9169359818e+00 -3.3202305154e+00 1.9169359818e+00 3.3202305154e+00 
16100 6.9805139324e+00 1.7874014323e-02 1.9164725207e+00 -3.3194277772e+00 1.9164725207e+00 3.3194277772e+00 
16200 6.9803821353e+00 1.7943782915e-02 1.9160062138e+00 -3.3186201099e+00 1.9160062138e+00 3.3186201099e+00 
16300 6.9802553261e+00 1.7979384288e-02 1.9155379728e+00 -3.3178090928e+00 1.9155379728e+00 3.3178090928e+00 
16400 6.9801339395e+00 1.7981713023e-02 1.9150686882e+00 -3.3169962680e+00 1.9150686882e+00 3.3169962680e+00 
16500 6.9800183632e+00 1.7951697437e-02 1.9145992278e+00 -3.3161831387e+00 1.9145992278e+00 3.3161831387e+00 
16600 6.9799089372e+00 1.7890296682e-02 1.9141304361e+00 -3.3153711677e+00 1.9141304361e+00 3.3153711677e+00 
16700 6.9798059533e+00 1.7798497878e-02 1.9136631334e+00 -3.3145617756e+00 1.9136631334e+00 3.3145617756e+00 
16800 6.9797096547e+00 1.7677313288e-02 1.9131981148e+00 -3.3137563398e+00 1.9131981148e+00 3.3137563398e+00 
16900 6.9796202367e+00 1.7527777545e-02 1.9127361501e+00 -3.3129561934e+00 1.9127361501e+00 3.3129561934e+00 
17000 6.9795378466e+00 1.7350944934e-02 1.9122779824e+00 -3.3121626237e+00 1.9122779824e+00 3.3121626237e+00 
17100 6.9794625852e+00 1.7147886743e-02 1.9118243282e+00 -3.3113768716e+00 1.9118243282e+00 3.3113768716e+00 
17200 6.9793945075e+00 1.6919688679e-02 1.9113758765e+00 -3.3106001305e+00 1.9113758765e+00 3.3106001305e+00 
17300 6.9793336244e+00 1.6667448362e-02 1.9109332887e+00 -3.3098335458e+00 1.9109332887e+00 3.3098335458e+00 
17400 6.9792799043e+00 1.6392272905e-02 1.9104971977e+00 -3.3090782141e+00 1.9104971977e+00 3.3090782141e+00 
17500 6.9792332751e+00 1.6095276563e-02 1.9100682084e+00 -3.3083351828e+00 1.9100682084e+00 3.3083351828e+00 
17600 6.9791936262e+00 1.5777578479e-02 1.9096468966e+00 -3.3076054494e+00 1.9096468966e+00 3.3076054494e+00 
17700 6.9791608110e+00 1.5440300512e-02 1.9092338095e+00 -3.3068899616e+00 1.9092338095e+00 3.3068899616e+00 
17800 6.9791346491e+00 1.5084565153e-02 1.9088294652e+00 -3.3061896167e+00 1.9088294652e+00 3.3061896167e+00 
17900 6.9791149292e+00 1.4711493532e-02 1.9084343528e+00 -3.3055052619e+00 1.9084343528e+00 3.3055052619e+00 
18000 6.9791014116e+00 1.4322203512e-02 1.9080489322e+00 -3.3048376939e+00 1.9080489322e+00 3.3048376939e+00 
18100 6.9790938308e+00 1.3917807870e-02 1.9076736343e+00 -3.3041876589e+00 1.9076736343e+00 3.3041876589e+00 
18200 6.9790918989e+00 1.3499412566e-02 1.9073088611e+00 -3.3035558532e+00 1.9073088611e+00 3.3035558532e+00 
18300 6.9790953078e+00 1.3068115101e-02 1.9069549857e+00 -3.3029429230e+00 1.9069549857e+00 3.3029429230e+00 
18400 6.9791037323e+00 1.2625002954e-02 1.9066123524e+00 -3.3023494648e+00 1.9066123524e+00 3.3023494648e+00 
18500 6.9791168332e+00 1.2171152104e-02 1.9062812773e+00 -3.3017760259e+00 1.9062812773e+00 3.3017760259e+00 
18600 6.9791342598e+00 1.1707625635e-02 1.9059620482e+00 -3.3012231047e+00 1.9059620482e+00 3.3012231047e+00 
18700 6.9791556527e+00 1.1235472413e-02 1.9056549247e+00 -3.3006911514e+00 1.9056549247e+00 3.3006911514e+00 
18800 6.9791806467e+00 1.0755725848e-02 1.9053601394e+00 -3.3001805682e+00 1.9053601394e+00 3.3001805682e+00 
18900 6.9792088729e+00 1.0269402717e-02 1.9050778972e+00 -3.2996917104e+00 1.9050778972e+00 3.2996917104e+00 
19000 6.9792399620e+00 9.7775020713e-03 1.9048083765e+00 -3.2992248867e+00 1.9048083765e+00 3.2992248867e+00 
19100 6.9792735459e+00 9.2810042038e-03 1.9045517291e+00 -3.2987803604e+00 1.9045517291e+00 3.2987803604e+00 
19200 6.9793092603e+00 8.7808696860e-03 1.9043080810e+00 -3.2983583496e+00 1.9043080810e+00 3.2983583496e+00 
19300 6.9793467471e+00 8.2780384684e-03 1.9040775329e+00 -3.2979590285e+00 1.9040775329e+00 3.2979590285e+00 
19400 6.9793856557e+00 7.7734290425e-03 1.9038601604e+00 -3.2975825284e+00 1.9038601604e+00 3.2975825284e+00 
19500 6.9794256455e+00 7.2679376625e-03 1.9036560149e+00 -3.2972289380e+00 1.9036560149e+00 3.2972289380e+00 
19600 6.9794663871e+00 6.7624376246e-03 1.9034651239e+00 -3.2968983051e+00 1.9034651239e+00 3.2968983051e+00 
19700 6.9795075643e+00 6.2577786016e-03 1.9032874918e+00 -3.2965906371e+00 1.9032874918e+00 3.2965906371e+00 
19800 6.9795488748e+00 5.7547860309e-03 1.9031231002e+00 -3.2963059026e+00 1.9031231002e+00 3.2963059026e+00 
19900 6.9795900321e+00 5.2542605551e-03 1.9029719090e+00 -3.2960440317e+00 1.9029719090e+00 3.2960440317e+00 
20000 6.9796307659e+00 4.7569775116e-03 1.9028338566e+00 -3.2958049179e+00 1.9028338566e+00 3.2958049179e+00 
20100 6.9796708235e+00 4.2636864720e-03 1.9027088607e+00 -3.2955884188e+00 1.9027088607e+00 3.2955884188e+00 
20200 6.9797099702e+00 3.7751108282e-03 1.9025968193e+00 -3.2953943574e+00 1.9025968193e+00 3.2953943574e+00 
20300 6.9797479899e+00 3.2919474243e-03 1.9024976107e+00 -3.2952225231e+00 1.9024976107e+00 3.2952225231e+00 
20400 6.9797846855e+00 2.8148662332e-03 1.9024110949e+00 -3.2950726733e+00 1.9024110949e+00 3.2950726733e+00 
20500 6.9798198793e+00 2.3445100770e-03 1.9023371139e+00 -3.2949445343e+00 1.9023371139e+00 3.2949445343e+00 
20600 6.9798534130e+00 1.8814943899e-03 1.9022754924e+00 -3.2948378028e+00 1.9022754924e+00 3.2948378028e+00 
20700 6.9798851476e+00 1.4264070214e-03 1.9022260388e+00 -3.2947521467e+00 1.9022260388e+00 3.2947521467e+00 
20800 6.9799149636e+00 9.7980808195e-04 1.9021885458e+00 -3.2946872069e+00 1.9021885458e+00 3.2946872069e+00 
20900 6.9799427604e+00 5.4222982646e-04 1.9021627911e+00 -3.2946425985e+00 1.9021627911e+00 3.2946425985e+00 
21000 6.9799684560e+00 1.1417657763e-04 1.9021485382e+00 -3.2946179116e+00 1.9021485382e+00 3.2946179116e+00 
21100 6.9799919867e+00 -3.0387531309e-04 1.9021455369e+00 -3.2946127133e+00 1.9021455369e+00 3.2946127133e+00 
21200 6.9800133064e+00 -7.1147746730e-04 1.9021535246e+00 -3.2946265484e+00 1.9021535246e+00 3.2946265484e+00 
21300 6.9800323862e+00 -1.1082094449e-03 1.9021722265e+00 -3.2946589411e+00 1.9021722265e+00 3.2946589411e+00 
21400 6.9800492132e+00 -1.4936786738e-03 1.9022013567e+00 -3.2947093960e+00 1.9022013567e+00 3.2947093960e+00 
21500 6.9800637902e+00 -1.8675203446e-03 1.9022406187e+00 -3.2947773998e+00 1.9022406187e+00 3.2947773998e+00 
21600 6.9800761346e+00 -2.2293972707e-03 1.9022897063e+00 -3.2948624220e+00 1.9022897063e+00 3.2948624220e+00 
21700 6.9800862776e+00 -2.5789997158e-03 1.9023483043e+00 -3.2949639168e+00 1.9023483043e+00 3.2949639168e+00 
21800 6.9800942635e+00 -2.9160451878e-03 1.9024160894e+00 -3.2950813239e+00 1.9024160894e+00 3.2950813239e+00 
21900 6.9801001480e+00 -3.2402782013e-03 1.9024927304e+00 -3.2952140702e+00 1.9024927304e+00 3.2952140702e+00 
22000 6.9801039982e+00 -3.5514700088e-03 1.9025778898e+00 -3.2953615706e+00 1.9025778898e+00 3.2953615706e+00 
22100 6.9801058909e+00 -3.8494183020e-03 1.9026712237e+00 -3.2955232296e+00 1.9026712237e+00 3.2955232296e+00 
22200 6.9801059118e+00 -4.1339468829e-03 1.9027723829e+00 -3.2956984424e+00 1.9027723829e+00 3.2956984424e+00 
22300 6.9801041545e+00 -4.4049053071e-03 1.9028810135e+00 -3.2958865961e+00 1.9028810135e+00 3.2958865961e+00 
22400 6.9801007196e+00 -4.6621684992e-03 1.9029967577e+00 -3.2960870710e+00 1.9029967577e+00 3.2960870710e+00 
22500 6.9800957133e+00 -4.9056363414e-03 1.9031192544e+00 -3.2962992416e+00 1.9031192544e+00 3.2962992416e+00 
22600 6.9800892469e+00 -5.1352332363e-03 1.9032481400e+00 -3.2965224779e+00 1.9032481400e+00 3.2965224779e+00 
22700 6.9800814357e+00 -5.3509076449e-03 1.9033830487e+00 -3.2967561466e+00 1.9033830487e+00 3.2967561466e+00 
22800 6.9800723977e+00 -5.5526316014e-03 1.9035236135e+00 -3.2969996120e+00 1.9035236135e+00 3.2969996120e+00 
22900 6.9800622533e+00 -5.7404002043e-03 1.9036694668e+00 -3.2972522372e+00 1.9036694668e+00 3.2972522372e+00 
23000 6.9800511239e+00 -5.9142310864e-03 1.9038202407e+00 -3.2975133854e+00 1.9038202407e+00 3.2975133854e+00 
23100 6.9800391314e+00 -6.0741638643e-03 1.9039755682e+00 -3.2977824205e+00 1.9039755682e+00 3.2977824205e+00 
23200 6.9800263971e+00 -6.2202595679e-03 1.9041350831e+00 -3.2980587083e+00 1.9041350831e+00 3.2980587083e+00 
23300 6.9800130414e+00 -6.3526000515e-03 1.9042984210e+00 -3.2983416179e+00 1.9042984210e+00 3.2983416179e+00 
23400 6.9799991825e+00 -6.4712873885e-03 1.9044652197e+00 -3.2986305218e+00 1.9044652197e+00 3.2986305218e+00 
23500 6.9799849364e+00 -6.5764432483e-03 1.9046351200e+00 -3.2989247978e+00 1.9046351200e+00 3.2989247978e+00 
23600 6.9799704157e+00 -6.6682082595e-03 1.9048077658e+00 -3.2992238289e+00 1.9048077658e+00 3.2992238289e+00 
23700 6.9799557295e+00 -6.7467413589e-03 1.9049828047e+00 -3.2995270053e+00 1.9049828047e+00 3.2995270053e+00 
23800 6.9799409826e+00 -6.8122191271e-03 1.9051598889e+00 -3.2998337240e+00 1.9051598889e+00 3.2998337240e+00 
23900 6.9799262751e+00 -6.8648351130e-03 1.9053386751e+00 -3.3001433908e+00 1.9053386751e+00 3.3001433908e+00 
24000 6.9799117022e+00 -6.9047991480e-03 1.9055188253e+00 -3.3004554201e+00 1.9055188253e+00 3.3004554201e+00 
24100 6.9798973537e+00 -6.9323366505e-03 1.9057000071e+00 -3.3007692363e+00 1.9057000071e+00 3.3007692363e+00 
24200 6.9798833134e+00 -6.9476879220e-03 1.9058818943e+00 -3.3010842741e+00 1.9058818943e+00 3.3010842741e+00 
24300 6.9798696597e+00 -6.9511074367e-03 1.9060641668e+00 -3.3013999794e+00 1.9060641668e+00 3.3013999794e+00 
24400 6.9798564643e+00 -6.9428631249e-03 1.9062465116e+00 -3.3017158099e+00 1.9062465116e+00 3.3017158099e+00 
24500 6.9798437929e+00 -6.9232356511e-03 1.9064286227e+00 -3.3020312356e+00 1.9064286227e+00 3.3020312356e+00 
24600 6.9798317048e+00 -6.8925176891e-03 1.9066102017e+00 -3.3023457395e+00 1.9066102017e+00 3.3023457395e+00 
24700 6.9798202528e+00 -6.8510131941e-03 1.9067909577e+00 -3.3026588182e+00 1.9067909577e+00 3.3026588182e+00 
24800 6.9798094832e+00 -6.7990366727e-03 1.9069706083e+00 -3.3029699821e+00 1.9069706083e+00 3.3029699821e+00 
24900 6.9797994358e+00 -6.7369124534e-03 1.9071488790e+00 -3.3032787561e+00 1.9071488790e+00 3.3032787561e+00 
25000 6.9797901441e+00 -6.6649739567e-03 1.9073255044e+00 -3.3035846802e+00 1.9073255044e+00 3.3035846802e+00 
25100 6.9797816354e+00 -6.5835629670e-03 1.9075002275e+00 -3.3038873094e+00 1.9075002275e+00 3.3038873094e+00 
25200 6.9797739305e+00 -6.4930289074e-03 1.9076728005e+00 -3.3041862147e+00 1.9076728005e+00 3.3041862147e+00 
25300 6.9797670445e+00 -6.3937281169e-03 1.9078429850e+00 -3.3044809828e+00 1.9078429850e+00 3.3044809828e+00 
25400 6.9797609866e+00 -6.2860231338e-03 1.9080105517e+00 -3.3047712170e+00 1.9080105517e+00 3.3047712170e+00 
25500 6.9797557604e+00 -6.1702819823e-03 1.9081752813e+00 -3.3050565369e+00 1.9081752813e+00 3.3050565369e+00 
25600 6.9797513641e+00 -6.0468774677e-03 1.9083369637e+00 -3.3053365791e+00 1.9083369637e+00 3.3053365791e+00 
25700 6.9797477909e+00 -5.9161864771e-03 1.9084953991e+00 -3.3056109972e+00 1.9084953991e+00 3.3056109972e+00 
25800 6.9797450292e+00 -5.7785892887e-03 1.9086503973e+00 -3.3058794619e+00 1.9086503973e+00 3.3058794619e+00 
25900 6.9797430628e+00 -5.6344688906e-03 1.9088017782e+00 -3.3061416614e+00 1.9088017782e+00 3.3061416614e+00 
26000 6.9797418712e+00 -5.4842103087e-03 1.9089493719e+00 -3.3063973012e+00 1.9089493719e+00 3.3063973012e+00 
26100 6.9797414304e+00 -5.3281999452e-03 1.9090930184e+00 -3.3066461043e+00 1.9090930184e+00 3.3066461043e+00 
26200 6.9797417124e+00 -5.1668249292e-03 1.9092325680e+00 -3.3068878113e+00 1.9092325680e+00 3.3068878113e+00 
26300 6.9797426863e+00 -5.0004724782e-03 1.9093678812e+00 -3.3071221806e+00 1.9093678812e+00 3.3071221806e+00 
26400 6.9797443182e+00 -4.8295292736e-03 1.9094988285e+00 -3.3073489879e+00 1.9094988285e+00 3.3073489879e+00 
26500 6.9797465717e+00 -4.6543808495e-03 1.9096252905e+00 -3.3075680266e+00 1.9096252905e+00 3.3075680266e+00 
26600 6.9797494082e+00 -4.4754109947e-03 1.9097471581e+00 -3.3077791075e+00 1.9097471581e+00 3.3077791075e+00 
26700 6.9797527873e+00 -4.2930011716e-03 1.9098643322e+00 -3.3079820589e+00 1.9098643322e+00 3.3079820589e+00 
26800 6.9797566669e+00 -4.1075299483e-03 1.9099767235e+00 -3.3081767264e+00 1.9099767235e+00 3.3081767264e+00 
26900 6.9797610039e+00 -3.9193724490e-03 1.9100842528e+00 -3.3083629726e+00 1.9100842528e+00 3.3083629726e+00 
27000 6.9797657542e+00 -3.7288998192e-03 1.9101868506e+00 -3.3085406771e+00 1.9101868506e+00 3.3085406771e+00 
27100 6.9797708733e+00 -3.5364787096e-03 1.9102844570e+00 -3.3087097365e+00 1.9102844570e+00 3.3087097365e+00 
27200 6.9797763163e+00 -3.3424707768e-03 1.9103770220e+00 -3.3088700637e+00 1.9103770220e+00 3.3088700637e+00 
27300 6.9797820384e+00 -3.1472322027e-03 1.9104645046e+00 -3.3090215880e+00 1.9104645046e+00 3.3090215880e+00 
27400 6.9797879951e+00 -2.9511132321e-03 1.9105468734e+00 -3.3091642550e+00 1.9105468734e+00 3.3091642550e+00 
27500 6.9797941423e+00 -2.7544577298e-03 1.9106241061e+00 -3.3092980260e+00 1.9106241061e+00 3.3092980260e+00 
27600 6.9798004370e+00 -2.5576027572e-03 1.9106961892e+00 -3.3094228776e+00 1.9106961892e+00 3.3094228776e+00 
27700 6.9798068371e+00 -2.3608781680e-03 1.9107631182e+00 -3.3095388019e+00 1.9107631182e+00 3.3095388019e+00 
27800 6.9798133016e+00 -2.1646062246e-03 1.9108248969e+00 -3.3096458059e+00 1.9108248969e+00 3.3096458059e+00 
27900 6.9798197911e+00 -1.9691012351e-03 1.9108815378e+00 -3.3097439108e+00 1.9108815378e+00 3.3097439108e+00 
28000 6.9798262680e+00 -1.7746692098e-03 1.9109330614e+00 -3.3098331523e+00 1.9109330614e+00 3.3098331523e+00 
28100 6.9798326960e+00 -1.5816075401e-03 1.9109794963e+00 -3.3099135797e+00 1.9109794963e+00 3.3099135797e+00 
28200 6.9798390412e+00 -1.3902046966e-03 1.9110208785e+00 -3.3099852559e+00 1.9110208785e+00 3.3099852559e+00 
28300 6.9798452715e+00 -1.2007399501e-03 1.9110572520e+00 -3.3100482566e+00 1.9110572520e+00 3.3100482566e+00 
28400 6.9798513569e+00 -1.0134831121e-03 1.9110886677e+00 -3.3101026702e+00 1.9110886677e+00 3.3101026702e+00 
28500 6.9798572699e+00 -8.2869429800e-04 1.9111151836e+00 -3.3101485971e+00 1.9111151836e+00 3.3101485971e+00 
28600 6.9798629851e+00 -6.4662371049e-04 1.9111368645e+00 -3.3101861496e+00 1.9111368645e+00 3.3101861496e+00 
28700 6.9798684795e+00 -4.6751144479e-04 1.9111537818e+00 -3.3102154512e+00 1.9111537818e+00 3.3102154512e+00 
28800 6.9798737326e+00 -2.9158731479e-04 1.9111660130e+00 -3.3102366361e+00 1.9111660130e+00 3.3102366361e+00 
28900 6.9798787260e+00 -1.1907070038e-04 1.9111736415e+00 -3.3102498491e+00 1.9111736415e+00 3.3102498491e+00 
29000 6.9798834441e+00 4.9829584326e-05 1.9111767566e+00 -3.3102552447e+00 1.9111767566e+00 3.3102552447e+00 
29100 6.9798878741e+00 2.1621957205e-04 1.9111767566e+00 -3.3102552447e+00 1.9111767566e+00 3.3102552447e+00 
29200 6.9798920044e+00 3.7727679160e-04 1.9111710999e+00 -3.3102454470e+00 1.9111710999e+00 3.3102454470e+00 
29300 6.9798958264e+00 5.3415646920e-04 1.9111612296e+00 -3.3102283511e+00 1.9111612296e+00 3.3102283511e+00 
29400 6.9798993337e+00 6.8669291692e-04 1.9111472550e+00 -3.3102041463e+00 1.9111472550e+00 3.3102041463e+00 
29500 6.9799025224e+00 8.3473136645e-04 1.9111292895e+00 -3.3101730293e+00 1.9111292895e+00 3.3101730293e+00 
29600 6.9799053903e+00 9.7812798015e-04 1.9111074509e+00 -3.3101352036e+00 1.9111074509e+00 3.3101352036e+00 
29700 6.9799079377e+00 1.1167498430e-03 1.9110818603e+00 -3.3100908795e+00 1.9110818603e+00 3.3100908795e+00 
29800 6.9799101667e+00 1.2504749363e-03 1.9110526427e+00 -3.3100402730e+00 1.9110526427e+00 3.3100402730e+00 
29900 6.9799120810e+00 1.3791920925e-03 1.9110199258e+00 -3.3099836058e+00 1.9110199258e+00 3.3099836058e+00 
30000 6.9799136866e+00 1.5028009335e-03 1.9109838407e+00 -3.3099211046e+00 1.9109838407e+00 3.3099211046e+00 
30100 6.9799149908e+00 1.6212117907e-03 1.9109445208e+00 -3.3098530004e+00 1.9109445208e+00 3.3098530004e+00 
30200 6.9799160024e+00 1.7343456093e-03 1.9109021018e+00 -3.3097795286e+00 1.9109021018e+00 3.3097795286e+00 
30300 6.9799167317e+00 1.8421338357e-03 1.9108567217e+00 -3.3097009280e+00 1.9108567217e+00 3.3097009280e+00 
30400 6.9799171903e+00 1.9445182900e-03 1.9108085201e+00 -3.3096174404e+00 1.9108085201e+00 3.3096174404e+00 
30500 6.9799173910e+00 2.0414510234e-03 1.9107576383e+00 -3.3095293104e+00 1.9107576383e+00 3.3095293104e+00 
30600 6.9799173474e+00 2.1328941610e-03 1.9107042186e+00 -3.3094367848e+00 1.9107042186e+00 3.3094367848e+00 
30700 6.9799170742e+00 2.2188197315e-03 1.9106484045e+00 -3.3093401120e+00 1.9106484045e+00 3.3093401120e+00 
30800 6.9799165867e+00 2.2992094828e-03 1.9105903402e+00 -3.3092395417e+00 1.9105903402e+00 3.3092395417e+00 
30900 6.9799159008e+00 2.3740546865e-03 1.9105301704e+00 -3.3091353245e+00 1.9105301704e+00 3.3091353245e+00 
31000 6.9799150332e+00 2.4433559298e-03 1.9104680400e+00 -3.3090277114e+00 1.9104680400e+00 3.3090277114e+00 
31100 6.9799140006e+00 2.5071228959e-03 1.9104040938e+00 -3.3089169534e+00 1.9104040938e+00 3.3089169534e+00 
31200 6.9799128201e+00 2.5653741354e-03 1.9103384766e+00 -3.3088033010e+00 1.9103384766e+00 3.3088033010e+00 
31300 6.9799115088e+00 2.6181368266e-03 1.9102713325e+00 -3.3086870041e+00 1.9102713325e+00 3.3086870041e+00 
31400 6.9799100842e+00 2.6654465272e-03 1.9102028050e+00 -3.3085683110e+00 1.9102028050e+00 3.3085683110e+00 
31500 6.9799085631e+00 2.7073469182e-03 1.9101330367e+00 -3.3084474688e+00 1.9101330367e+00 3.3084474688e+00 
31600 6.9799069627e+00 2.7438895390e-03 1.9100621691e+00 -3.3083247226e+00 1.9100621691e+00 3.3083247226e+00 
31700 6.9799052994e+00 2.7751335164e-03 1.9099903424e+00 -3.3082003149e+00 1.9099903424e+00 3.3082003149e+00 
31800 6.9799035897e+00 2.8011452870e-03 1.9099176950e+00 -3.3080744860e+00 1.9099176950e+00 3.3080744860e+00 
31900 6.9799018491e+00 2.8219983139e-03 1.9098443639e+00 -3.3079474728e+00 1.9098443639e+00 3.3079474728e+00 
32000 6.9799000930e+00 2.8377727984e-03 1.9097704840e+00 -3.3078195092e+00 1.9097704840e+00 3.3078195092e+00 
32100 6.9798983359e+00 2.8485553872e-03 1.9096961883e+00 -3.3076908252e+00 1.9096961883e+00 3.3076908252e+00 
32200 6.9798965918e+00 2.8544388764e-03 1.9096216075e+00 -3.3075616473e+00 1.9096216075e+00 3.3075616473e+00 
32300 6.9798948738e+00 2.8555219120e-03 1.9095468696e+00 -3.3074321976e+00 1.9095468696e+00 3.3074321976e+00 
32400 6.9798931942e+00 2.8519086882e-03 1.9094721005e+00 -3.3073026937e+00 1.9094721005e+00 3.3073026937e+00 
32500 6.9798915647e+00 2.8437086436e-03 1.9093974230e+00 -3.3071733485e+00 1.9093974230e+00 3.3071733485e+00 
32600 6.9798899959e+00 2.8310361565e-03 1.9093229574e+00 -3.3070443702e+00 1.9093229574e+00 3.3070443702e+00 
32700 6.9798884975e+00 2.8140102395e-03 1.9092488207e+00 -3.3069159617e+00 1.9092488207e+00 3.3069159617e+00 
32800 6.9798870785e+00 2.7927542335e-03 1.9091751270e+00 -3.3067883205e+00 1.9091751270e+00 3.3067883205e+00 
32900 6.9798857467e+00 2.7673955030e-03 1.9091019871e+00 -3.3066616385e+00 1.9091019871e+00 3.3066616385e+00 
33000 6.9798845092e+00 2.7380651318e-03 1.9090295086e+00 -3.3065361020e+00 1.9090295086e+00 3.3065361020e+00 
33100 6.9798833719e+00 2.7048976203e-03 1.9089577955e+00 -3.3064118913e+00 1.9089577955e+00 3.3064118913e+00 
33200 6.9798823400e+00 2.6680305845e-03 1.9088869484e+00 -3.3062891806e+00 1.9088869484e+00 3.3062891806e+00 
33300 6.9798814177e+00 2.6276044584e-03 1.9088170644e+00 -3.3061681379e+00 1.9088170644e+00 3.3061681379e+00 
33400 6.9798806082e+00 2.5837621980e-03 1.9087482367e+00 -3.3060489249e+00 1.9087482367e+00 3.3060489249e+00 
33500 6.9798799139e+00 2.5366489895e-03 1.9086805550e+00 -3.3059316967e+00 1.9086805550e+00 3.3059316967e+00 
33600 6.9798793363e+00 2.4864119609e-03 1.9086141051e+00 -3.3058166021e+00 1.9086141051e+00 3.3058166021e+00 
33700 6.9798788761e+00 2.4331998980e-03 1.9085489689e+00 -3.3057037828e+00 1.9085489689e+00 3.3057037828e+00 
33800 6.9798785332e+00 2.3771629644e-03 1.9084852245e+00 -3.3055933743e+00 1.9084852245e+00 3.3055933743e+00 
33900 6.9798783066e+00 2.3184524267e-03 1.9084229460e+00 -3.3054855048e+00 1.9084229460e+00 3.3054855048e+00 
34000 6.9798781948e+00 2.2572203850e-03 1.9083622037e+00 -3.3053802961e+00 1.9083622037e+00 3.3053802961e+00 
34100 6.9798781954e+00 2.1936195082e-03 1.9083030638e+00 -3.3052778627e+00 1.9083030638e+00 3.3052778627e+00 
34200 6.9798783056e+00 2.1278027760e-03 1.9082455884e+00 -3.3051783124e+00 1.9082455884e+00 3.3051783124e+00 
34300 6.9798785218e+00 2.0599232258e-03 1.9081898358e+00 -3.3050817461e+00 1.9081898358e+00 3.3050817461e+00 
34400 6.9798788399e+00 1.9901337074e-03 1.9081358602e+00 -3.3049882577e+00 1.9081358602e+00 3.3049882577e+00 
34500 6.9798792554e+00 1.9185866424e-03 1.9080837118e+00 -3.3048979340e+00 1.9080837118e+00 3.3048979340e+00 
34600 6.9798797634e+00 1.8454337917e-03 1.9080334368e+00 -3.3048108551e+00 1.9080334368e+00 3.3048108551e+00 
34700 6.9798803584e+00 1.7708260294e-03 1.9079850775e+00 -3.3047270942e+00 1.9079850775e+00 3.3047270942e+00 
34800 6.9798810347e+00 1.6949131237e-03 1.9079386720e+00 -3.3046467176e+00 1.9079386720e+00 3.3046467176e+00 
34900 6.9798817863e+00 1.6178435253e-03 1.9078942548e+00 -3.3045697847e+00 1.9078942548e+00 3.3045697847e+00 
35000 6.9798826071e+00 1.5397641627e-03 1.9078518563e+00 -3.3044963484e+00 1.9078518563e+00 3.3044963484e+00 
35100 6.9798834906e+00 1.4608202459e-03 1.9078115031e+00 -3.3044264546e+00 1.9078115031e+00 3.3044264546e+00 
35200 6.9798844302e+00 1.3811550766e-03 1.9077732179e+00 -3.3043601428e+00 1.9077732179e+00 3.3043601428e+00 
35300 6.9798854194e+00 1.3009098670e-03 1.9077370200e+00 -3.3042974461e+00 1.9077370200e+00 3.3042974461e+00 
35400 6.9798864514e+00 1.2202235657e-03 1.9077029244e+00 -3.3042383909e+00 1.9077029244e+00 3.3042383909e+00 
35500 6.9798875196e+00 1.1392326924e-03 1.9076709430e+00 -3.3041829975e+00 1.9076709430e+00 3.3041829975e+00 
35600 6.9798886173e+00 1.0580711791e-03 1.9076410839e+00 -3.3041312799e+00 1.9076410839e+00 3.3041312799e+00 
35700 6.9798897381e+00 9.7687022057e-04 1.9076133515e+00 -3.3040832460e+00 1.9076133515e+00 3.3040832460e+00 
35800 6.9798908754e+00 8.9575813185e-04 1.9075877470e+00 -3.3040388977e+00 1.9075877470e+00 3.3040388977e+00 
35900 6.9798920231e+00 8.1486021430e-04 1.9075642683e+00 -3.3039982313e+00 1.9075642683e+00 3.3039982313e+00 
36000 6.9798931750e+00 7.3429862920e-04 1.9075429096e+00 -3.3039612371e+00 1.9075429096e+00 3.3039612371e+00 
36100 6.9798943253e+00 6.5419227948e-04 1.9075236624e+00 -3.3039279000e+00 1.9075236624e+00 3.3039279000e+00 
36200 6.9798954684e+00 5.7465669933e-04 1.9075065148e+00 -3.3038981994e+00 1.9075065148e+00 3.3038981994e+00 
36300 6.9798965990e+00 4.9580395168e-04 1.9074914518e+00 -3.3038721095e+00 1.9074914518e+00 3.3038721095e+00 
36400 6.9798977119e+00 4.1774253346e-04 1.9074784555e+00 -3.3038495994e+00 1.9074784555e+00 3.3038495994e+00 
36500 6.9798988025e+00 3.4057728871e-04 1.9074675054e+00 -3.3038306332e+00 1.9074675054e+00 3.3038306332e+00 
36600 6.9798998663e+00 2.6440932937e-04 1.9074585780e+00 -3.3038151704e+00 1.9074585780e+00 3.3038151704e+00 
36700 6.9799008992e+00 1.8933596358e-04 1.9074516470e+00 -3.3038031657e+00 1.9074516470e+00 3.3038031657e+00 
36800 6.9799018976e+00 1.1545063173e-04 1.9074466840e+00 -3.3037945694e+00 1.9074466840e+00 3.3037945694e+00 
36900 6.9799028581e+00 4.2842849775e-05 1.9074436577e+00 -3.3037893277e+00 1.9074436577e+00 3.3037893277e+00 
37000 6.9799037774e+00 -2.7270323800e-05 1.9074436577e+00 -3.3037893277e+00 1.9074436577e+00 3.3037893277e+00 
37100 6.9799046533e+00 -9.7814296186e-05 1.9074436577e+00 -3.3037893277e+00 1.9074436577e+00 3.3037893277e+00 
37200 6.9799054832e+00 -1.6610016816e-04 1.9074462217e+00 -3.3037937687e+00 1.9074462217e+00 3.3037937687e+00 
37300 6.9799062654e+00 -2.3279032008e-04 1.9074505757e+00 -3.3038013100e+00 1.9074505757e+00 3.3038013100e+00 
37400 6.9799069982e+00 -2.9781546560e-04 1.9074566778e+00 -3.3038118792e+00 1.9074566778e+00 3.3038118792e+00 
37500 6.9799076804e+00 -3.6111043179e-04 1.9074644844e+00 -3.3038254007e+00 1.9074644844e+00 3.3038254007e+00 
37600 6.9799083112e+00 -4.2261416688e-04 1.9074739502e+00 -3.3038417958e+00 1.9074739502e+00 3.3038417958e+00 
37700 6.9799088900e+00 -4.8226974146e-04 1.9074850280e+00 -3.3038609832e+00 1.9074850280e+00 3.3038609832e+00 
37800 6.9799094167e+00 -5.4002434351e-04 1.9074976695e+00 -3.3038828790e+00 1.9074976695e+00 3.3038828790e+00 
37900 6.9799098913e+00 -5.9582926720e-04 1.9075118249e+00 -3.3039073967e+00 1.9075118249e+00 3.3039073967e+00 
38000 6.9799103143e+00 -6.4963989574e-04 1.9075274429e+00 -3.3039344479e+00 1.9075274429e+00 3.3039344479e+00 
38100 6.9799106862e+00 -7.0141567837e-04 1.9075444712e+00 -3.3039639418e+00 1.9075444712e+00 3.3039639418e+00 
38200 6.9799110081e+00 -7.5112010180e-04 1.9075628565e+00 -3.3039957862e+00 1.9075628565e+00 3.3039957862e+00 
38300 6.9799112812e+00 -7.9872065603e-04 1.9075825445e+00 -3.3040298867e+00 1.9075825445e+00 3.3040298867e+00 
38400 6.9799115068e+00 -8.4418879497e-04 1.9076034800e+00 -3.3040661480e+00 1.9076034800e+00 3.3040661480e+00 
38500 6.9799116866e+00 -8.8749989196e-04 1.9076256070e+00 -3.3041044731e+00 1.9076256070e+00 3.3041044731e+00 
38600 6.9799118223e+00 -9.2863319024e-04 1.9076488689e+00 -3.3041447640e+00 1.9076488689e+00 3.3041447640e+00 
38700 6.9799119160e+00 -9.6757174875e-04 1.9076732087e+00 -3.3041869217e+00 1.9076732087e+00 3.3041869217e+00 
38800 6.9799119698e+00 -1.0043023833e-03 1.9076985687e+00 -3.3042308466e+00 1.9076985687e+00 3.3042308466e+00 
38900 6.9799119860e+00 -1.0388156035e-03 1.9077248912e+00 -3.3042764384e+00 1.9077248912e+00 3.3042764384e+00 
39000 6.9799119669e+00 -1.0711055453e-03 1.9077521178e+00 -3.3043235963e+00 1.9077521178e+00 3.3043235963e+00 
39100 6.9799119150e+00 -1.1011698996e-03 1.9077801903e+00 -3.3043722193e+00 1.9077801903e+00 3.3043722193e+00 
39200 6.9799118328e+00 -1.1290098370e-03 1.9078090504e+00 -3.3044222064e+00 1.9078090504e+00 3.3044222064e+00 
39300 6.9799117230e+00 -1.1546299294e-03 1.9078386396e+00 -3.3044734564e+00 1.9078386396e+00 3.3044734564e+00 
39400 6.9799115881e+00 -1.1780380673e-03 1.9078688998e+00 -3.3045258687e+00 1.9078688998e+00 3.3045258687e+00 
39500 6.9799114308e+00 -1.1992453747e-03 1.9078997731e+00 -3.3045793427e+00 1.9078997731e+00 3.3045793427e+00 
39600 6.9799112538e+00 -1.2182661204e-03 1.9079312016e+00 -3.3046337785e+00 1.9079312016e+00 3.3046337785e+00 
39700 6.9799110596e+00 -1.2351176271e-03 1.9079631280e+00 -3.3046890767e+00 1.9079631280e+00 3.3046890767e+00 
39800 6.9799108509e+00 -1.2498201770e-03 1.9079954956e+00 -3.3047451389e+00 1.9079954956e+00 3.3047451389e+00 
39900 6.9799106303e+00 -1.2623969159e-03 1.9080282478e+00 -3.3048018675e+00 1.9080282478e+00 3.3048018675e+00 
40000 6.9799104002e+00 -1.2728737543e-03 1.9080613291e+00 -3.3048591660e+00 1.9080613291e+00 3.3048591660e+00 
40100 6.9799101631e+00 -1.2812792668e-03 1.9080946844e+00 -3.3049169390e+00 1.9080946844e+00 3.3049169390e+00 
40200 6.9799099213e+00 -1.2876445897e-03 1.9081282593e+00 -3.3049750925e+00 1.9081282593e+00 3.3049750925e+00 
40300 6.9799096771e+00 -1.2920033167e-03 1.9081620004e+00 -3.3050335338e+00 1.9081620004e+00 3.3050335338e+00 
40400 6.9799094326e+00 -1.2943913936e-03 1.9081958552e+00 -3.3050921720e+00 1.9081958552e+00 3.3050921720e+00 
40500 6.9799091900e+00 -1.2948470108e-03 1.9082297719e+00 -3.3051509175e+00 1.9082297719e+00 3.3051509175e+00 
40600 6.9799089511e+00 -1.2934104956e-03 1.9082637000e+00 -3.3052096826e+00 1.9082637000e+00 3.3052096826e+00 
40700 6.9799087177e+00 -1.2901242035e-03 1.9082975898e+00 -3.3052683815e+00 1.9082975898e+00 3.3052683815e+00 
40800 6.9799084915e+00 -1.2850324080e-03 1.9083313929e+00 -3.3053269302e+00 1.9083313929e+00 3.3053269302e+00 
40900 6.9799082741e+00 -1.2781811907e-03 1.9083650620e+00 -3.3053852468e+00 1.9083650620e+00 3.3053852468e+00 
41000 6.9799080669e+00 -1.2696183307e-03 1.9083985510e+00 -3.3054432515e+00 1.9083985510e+00 3.3054432515e+00 
41100 6.9799078711e+00 -1.2593931937e-03 1.9084318151e+00 -3.3055008665e+00 1.9084318151e+00 3.3055008665e+00 
41200 6.9799076879e+00 -1.2475566210e-03 1.9084648107e+00 -3.3055580166e+00 1.9084648107e+00 3.3055580166e+00 
41300 6.9799075182e+00 -1.2341608194e-03 1.9084974956e+00 -3.3056146285e+00 1.9084974956e+00 3.3056146285e+00 
41400 6.9799073630e+00 -1.2192592501e-03 1.9085298290e+00 -3.3056706316e+00 1.9085298290e+00 3.3056706316e+00 
41500 6.9799072230e+00 -1.2029065191e-03 1.9085617715e+00 -3.3057259576e+00 1.9085617715e+00 3.3057259576e+00 
41600 6.9799070986e+00 -1.1851582678e-03 1.9085932850e+00 -3.3057805406e+00 1.9085932850e+00 3.3057805406e+00 
41700 6.9799069905e+00 -1.1660710646e-03 1.9086243330e+00 -3.3058343174e+00 1.9086243330e+00 3.3058343174e+00 
41800 6.9799068989e+00 -1.1457022973e-03 1.9086548805e+00 -3.3058872272e+00 1.9086548805e+00 3.3058872272e+00 
41900 6.9799068239e+00 -1.1241100661e-03 1.9086848939e+00 -3.3059392120e+00 1.9086848939e+00 3.3059392120e+00 
42000 6.9799067658e+00 -1.1013530790e-03 1.9087143413e+00 -3.3059902162e+00 1.9087143413e+00 3.3059902162e+00 
42100 6.9799067243e+00 -1.0774905470e-03 1.9087431920e+00 -3.3060401871e+00 1.9087431920e+00 3.3060401871e+00 
42200 6.9799066995e+00 -1.0525820823e-03 1.9087714172e+00 -3.3060890746e+00 1.9087714172e+00 3.3060890746e+00 
42300 6.9799066910e+00 -1.0266875966e-03 1.9087989895e+00 -3.3061368312e+00 1.9087989895e+00 3.3061368312e+00 
42400 6.9799066985e+00 -9.9986720282e-04 1.9088258831e+00 -3.3061834123e+00 1.9088258831e+00 3.3061834123e+00 
42500 6.9799067215e+00 -9.7218111681e-04 1.9088520738e+00 -3.3062287760e+00 1.9088520738e+00 3.3062287760e+00 
42600 6.9799067596e+00 -9.4368956255e-04 1.9088775389e+00 -3.3062728829e+00 1.9088775389e+00 3.3062728829e+00 
42700 6.9799068121e+00 -9.1445267855e-04 1.9089022574e+00 -3.3063156965e+00 1.9089022574e+00 3.3063156965e+00 
42800 6.9799068784e+00 -8.8453042670e-04 1.9089262098e+00 -3.3063571833e+00 1.9089262098e+00 3.3063571833e+00 
42900 6.9799069577e+00 -8.5398250329e-04 1.9089493781e+00 -3.3063973120e+00 1.9089493781e+00 3.3063973120e+00 
43000 6.9799070493e+00 -8.2286825246e-04 1.9089717460e+00 -3.3064360543e+00 1.9089717460e+00 3.3064360543e+00 
43100 6.9799071523e+00 -7.9124658200e-04 1.9089932987e+00 -3.3064733847e+00 1.9089932987e+00 3.3064733847e+00 
43200 6.9799072659e+00 -7.5917588170e-04 1.9090140229e+00 -3.3065092801e+00 1.9090140229e+00 3.3065092801e+00 
43300 6.9799073892e+00 -7.2671394428e-04 1.9090339070e+00 -3.3065437202e+00 1.9090339070e+00 3.3065437202e+00 
43400 6.9799075212e+00 -6.9391788897e-04 1.9090529405e+00 -3.3065766874e+00 1.9090529405e+00 3.3065766874e+00 
43500 6.9799076611e+00 -6.6084408783e-04 1.9090711150e+00 -3.3066081664e+00 1.9090711150e+00 3.3066081664e+00 
43600 6.9799078079e+00 -6.2754809482e-04 1.9090884230e+00 -3.3066381448e+00 1.9090884230e+00 3.3066381448e+00 
43700 6.9799079606e+00 -5.9408457769e-04 1.9091048588e+00 -3.3066666125e+00 1.9091048588e+00 3.3066666125e+00 
43800 6.9799081183e+00 -5.6050725279e-04 1.9091204181e+00 -3.3066935619e+00 1.9091204181e+00 3.3066935619e+00 
43900 6.9799082801e+00 -5.2686882277e-04 1.9091350978e+00 -3.3067189880e+00 1.9091350978e+00 3.3067189880e+00 
44000 6.9799084450e+00 -4.9322091723e-04 1.9091488965e+00 -3.3067428879e+00 1.9091488965e+00 3.3067428879e+00 
44100 6.9799086121e+00 -4.5961403634e-04 1.9091618138e+00 -3.3067652614e+00 1.9091618138e+00 3.3067652614e+00 
44200 6.9799087805e+00 -4.2609749753e-04 1.9091738509e+00 -3.3067861102e+00 1.9091738509e+00 3.3067861102e+00 
44300 6.9799089494e+00 -3.9271938514e-04 1.9091850101e+00 -3.3068054385e+00 1.9091850101e+00 3.3068054385e+00 
44400 6.9799091180e+00 -3.5952650316e-04 1.9091952951e+00 -3.3068232527e+00 1.9091952951e+00 3.3068232527e+00 
44500 6.9799092854e+00 -3.2656433098e-04 1.9092047108e+00 -3.3068395611e+00 1.9092047108e+00 3.3068395611e+00 
44600 6.9799094510e+00 -2.9387698227e-04 1.9092132631e+00 -3.3068543742e+00 1.9092132631e+00 3.3068543742e+00 
44700 6.9799096139e+00 -2.6150716681e-04 1.9092209594e+00 -3.3068677046e+00 1.9092209594e+00 3.3068677046e+00 
44800 6.9799097736e+00 -2.2949615549e-04 1.9092278080e+00 -3.3068795666e+00 1.9092278080e+00 3.3068795666e+00 
44900 6.9799099295e+00 -1.9788374826e-04 1.9092338181e+00 -3.3068899766e+00 1.9092338181e+00 3.3068899766e+00 
45000 6.9799100809e+00 -1.6670824517e-04 1.9092390004e+00 -3.3068989525e+00 1.9092390004e+00 3.3068989525e+00 
45100 6.9799102274e+00 -1.3600642035e-04 1.9092433663e+00 -3.3069065144e+00 1.9092433663e+00 3.3069065144e+00 
45200 6.9799103685e+00 -1.0581349903e-04 1.9092469280e+00 -3.3069126836e+00 1.9092469280e+00 3.3069126836e+00 
45300 6.9799105038e+00 -7.6163137492e-05 1.9092496991e+00 -3.3069174832e+00 1.9092496991e+00 3.3069174832e+00 
45400 6.9799106329e+00 -4.7087405932e-05 1.9092516937e+00 -3.3069209379e+00 1.9092516937e+00 3.3069209379e+00 
45500 6.9799107555e+00 -1.9854976599e-05 1.9092516937e+00 -3.3069209379e+00 1.9092516937e+00 3.3069209379e+00 
45600 6.9799108713e+00 7.4852454328e-06 1.9092516937e+00 -3.3069209379e+00 1.9092516937e+00 3.3069209379e+00 
45700 6.9799109802e+00 3.4893266744e-05 1.9092516937e+00 -3.3069209379e+00 1.9092516937e+00 3.3069209379e+00 
45800 6.9799110820e+00 6.2330102099e-05 1.9092516937e+00 -3.3069209379e+00 1.9092516937e+00 3.3069209379e+00 
45900 6.9799111768e+00 8.9757803236e-05 1.9092516937e+00 -3.3069209379e+00 1.9092516937e+00 3.3069209379e+00 
46000 6.9799112642e+00 1.1477892544e-04 1.9092493431e+00 -3.3069168666e+00 1.9092493431e+00 3.3069168666e+00 
46100 6.9799113443e+00 1.3904696276e-04 1.9092463372e+00 -3.3069116603e+00 1.9092463372e+00 3.3069116603e+00 
46200 6.9799114171e+00 1.6254277637e-04 1.9092426958e+00 -3.3069053532e+00 1.9092426958e+00 3.3069053532e+00 
46300 6.9799114827e+00 1.8524884492e-04 1.9092384391e+00 -3.3068979803e+00 1.9092384391e+00 3.3068979803e+00 
46400 6.9799115413e+00 2.0714925509e-04 1.9092335877e+00 -3.3068895775e+00 1.9092335877e+00 3.3068895775e+00 
46500 6.9799115929e+00 2.2822968981e-04 1.9092281628e+00 -3.3068801812e+00 1.9092281628e+00 3.3068801812e+00 
46600 6.9799116377e+00 2.4847741414e-04 1.9092221858e+00 -3.3068698287e+00 1.9092221858e+00 3.3068698287e+00 
46700 6.9799116759e+00 2.6788125912e-04 1.9092156785e+00 -3.3068585578e+00 1.9092156785e+00 3.3068585578e+00 
46800 6.9799117078e+00 2.8643160336e-04 1.9092086630e+00 -3.3068464066e+00 1.9092086630e+00 3.3068464066e+00 
46900 6.9799117337e+00 3.0412035276e-04 1.9092011617e+00 -3.3068334139e+00 1.9092011617e+00 3.3068334139e+00 
47000 6.9799117538e+00 3.2094091813e-04 1.9091931971e+00 -3.3068196189e+00 1.9091931971e+00 3.3068196189e+00 
47100 6.9799117683e+00 3.3688819110e-04 1.9091847920e+00 -3.3068050607e+00 1.9091847920e+00 3.3068050607e+00 
47200 6.9799117778e+00 3.5195851810e-04 1.9091759692e+00 -3.3067897792e+00 1.9091759692e+00 3.3067897792e+00 
47300 6.9799117824e+00 3.6614967276e-04 1.9091667516e+00 -3.3067738139e+00 1.9091667516e+00 3.3067738139e+00 
47400 6.9799117826e+00 3.7946082660e-04 1.9091571624e+00 -3.3067572049e+00 1.9091571624e+00 3.3067572049e+00 
47500 6.9799117786e+00 3.9189251824e-04 1.9091472245e+00 -3.3067399919e+00 1.9091472245e+00 3.3067399919e+00 
47600 6.9799117710e+00 4.0344662115e-04 1.9091369609e+00 -3.3067222149e+00 1.9091369609e+00 3.3067222149e+00 
47700 6.9799117599e+00 4.1412631004e-04 1.9091263947e+00 -3.3067039137e+00 1.9091263947e+00 3.3067039137e+00 
47800 6.9799117459e+00 4.2393602596e-04 1.9091155488e+00 -3.3066851280e+00 1.9091155488e+00 3.3066851280e+00 
47900 6.9799117292e+00 4.3288144019e-04 1.9091044458e+00 -3.3066658972e+00 1.9091044458e+00 3.3066658972e+00 
48000 6.9799117103e+00 4.4096941709e-04 1.9090931086e+00 -3.3066462604e+00 1.9090931086e+00 3.3066462604e+00 
48100 6.9799116894e+00 4.4820797588e-04 1.9090815594e+00 -3.3066262567e+00 1.9090815594e+00 3.3066262567e+00 
48200 6.9799116671e+00 4.5460625144e-04 1.9090698206e+00 -3.3066059244e+00 1.9090698206e+00 3.3066059244e+00 
48300 6.9799116435e+00 4.6017445440e-04 1.9090579141e+00 -3.3065853018e+00 1.9090579141e+00 3.3065853018e+00 
48400 6.9799116191e+00 4.6492383030e-04 1.9090458617e+00 -3.3065644264e+00 1.9090458617e+00 3.3065644264e+00 
48500 6.9799115941e+00 4.6886661815e-04 1.9090336849e+00 -3.3065433355e+00 1.9090336849e+00 3.3065433355e+00 
48600 6.9799115689e+00 4.7201600843e-04 1.9090214047e+00 -3.3065220656e+00 1.9090214047e+00 3.3065220656e+00 
48700 6.9799115438e+00 4.7438610047e-04 1.9090090419e+00 -3.3065006527e+00 1.9090090419e+00 3.3065006527e+00 
48800 6.9799115190e+00 4.7599185943e-04 1.9089966170e+00 -3.3064791321e+00 1.9089966170e+00 3.3064791321e+00 
48900 6.9799114949e+00 4.7684907300e-04 1.9089841499e+00 -3.3064575385e+00 1.9089841499e+00 3.3064575385e+00 
49000 6.9799114715e+00 4.7697430765e-04 1.9089716603e+00 -3.3064359059e+00 1.9089716603e+00 3.3064359059e+00 
49100 6.9799114493e+00 4.7638486487e-04 1.9089591674e+00 -3.3064142675e+00 1.9089591674e+00 3.3064142675e+00 
49200 6.9799114283e+00 4.7509873711e-04 1.9089466898e+00 -3.3063926557e+00 1.9089466898e+00 3.3063926557e+00 
49300 6.9799114088e+00 4.7313456374e-04 1.9089342458e+00 -3.3063711020e+00 1.9089342458e+00 3.3063711020e+00 
49400 6.9799113909e+00 4.7051158706e-04 1.9089218532e+00 -3.3063496374e+00 1.9089218532e+00 3.3063496374e+00 
49500 6.9799113748e+00 4.6724960829e-04 1.9089095292e+00 -3.3063282916e+00 1.9089095292e+00 3.3063282916e+00 
49600 6.9799113606e+00 4.6336894384e-04 1.9088972905e+00 -3.3063070936e+00 1.9088972905e+00 3.3063070936e+00 
49700 6.9799113484e+00 4.5889038165e-04 1.9088851535e+00 -3.3062860716e+00 1.9088851535e+00 3.3062860716e+00 
49800 6.9799113383e+00 4.5383513796e-04 1.9088731336e+00 -3.3062652526e+00 1.9088731336e+00 3.3062652526e+00 
49900 6.9799113304e+00 4.4822481431e-04 1.9088612461e+00 -3.3062446629e+00 1.9088612461e+00 3.3062446629e+00 
50000 6.9799113247e+00 4.4208135501e-04 1.9088495055e+00 -3.3062243275e+00 1.9088495055e+00 3.3062243275e+00 
50100 6.9799113212e+00 4.3542700505e-04 1.9088379257e+00 -3.3062042708e+00 1.9088379257e+00 3.3062042708e+00 
50200 6.9799113200e+00 4.2828426852e-04 1.9088265202e+00 -3.3061845158e+00 1.9088265202e+00 3.3061845158e+00 
50300 6.9799113210e+00 4.2067586763e-04 1.9088153017e+00 -3.3061650848e+00 1.9088153017e+00 3.3061650848e+00 
50400 6.9799113243e+00 4.1262470227e-04 1.9088042824e+00 -3.3061459988e+00 1.9088042824e+00 3.3061459988e+00 
50500 6.9799113298e+00 4.0415381042e-04 1.9087934739e+00 -3.3061272780e+00 1.9087934739e+00 3.3061272780e+00 
50600 6.9799113375e+00 3.9528632903e-04 1.9087828873e+00 -3.3061089415e+00 1.9087828873e+00 3.3061089415e+00 
50700 6.9799113473e+00 3.8604545589e-04 1.9087725329e+00 -3.3060910071e+00 1.9087725329e+00 3.3060910071e+00 
50800 6.9799113591e+00 3.7645441217e-04 1.9087624205e+00 -3.3060734919e+00 1.9087624205e+00 3.3060734919e+00 
50900 6.9799113728e+00 3.6653640587e-04 1.9087525593e+00 -3.3060564118e+00 1.9087525593e+00 3.3060564118e+00 
51000 6.9799113885e+00 3.5631459610e-04 1.9087429579e+00 -3.3060397816e+00 1.9087429579e+00 3.3060397816e+00 
51100 6.9799114058e+00 3.4581205831e-04 1.9087336241e+00 -3.3060236151e+00 1.9087336241e+00 3.3060236151e+00 
51200 6.9799114248e+00 3.3505175049e-04 1.9087245655e+00 -3.3060079250e+00 1.9087245655e+00 3.3060079250e+00 
51300 6.9799114454e+00 3.2405648031e-04 1.9087157886e+00 -3.3059927231e+00 1.9087157886e+00 3.3059927231e+00 
51400 6.9799114673e+00 3.1284887328e-04 1.9087072998e+00 -3.3059780200e+00 1.9087072998e+00 3.3059780200e+00 
51500 6.9799114906e+00 3.0145134196e-04 1.9086991045e+00 -3.3059638253e+00 1.9086991045e+00 3.3059638253e+00 
51600 6.9799115149e+00 2.8988605624e-04 1.9086912077e+00 -3.3059501477e+00 1.9086912077e+00 3.3059501477e+00 
51700 6.9799115403e+00 2.7817491465e-04 1.9086836138e+00 -3.3059369948e+00 1.9086836138e+00 3.3059369948e+00 
51800 6.9799115666e+00 2.6633951682e-04 1.9086763268e+00 -3.3059243732e+00 1.9086763268e+00 3.3059243732e+00 
51900 6.9799115937e+00 2.5440113703e-04 1.9086693497e+00 -3.3059122885e+00 1.9086693497e+00 3.3059122885e+00 
52000 6.9799116213e+00 2.4238069890e-04 1.9086626853e+00 -3.3059007455e+00 1.9086626853e+00 3.3059007455e+00 
52100 6.9799116495e+00 2.3029875123e-04 1.9086563359e+00 -3.3058897479e+00 1.9086563359e+00 3.3058897479e+00 
52200 6.9799116780e+00 2.1817544499e-04 1.9086503029e+00 -3.3058792984e+00 1.9086503029e+00 3.3058792984e+00 
52300 6.9799117067e+00 2.0603051146e-04 1.9086445874e+00 -3.3058693990e+00 1.9086445874e+00 3.3058693990e+00 
52400 6.9799117355e+00 1.9388324155e-04 1.9086391901e+00 -3.3058600506e+00 1.9086391901e+00 3.3058600506e+00 
52500 6.9799117643e+00 1.8175246633e-04 1.9086341110e+00 -3.3058512534e+00 1.9086341110e+00 3.3058512534e+00 
52600 6.9799117929e+00 1.6965653865e-04 1.9086293497e+00 -3.3058430065e+00 1.9086293497e+00 3.3058430065e+00 
52700 6.9799118213e+00 1.5761331603e-04 1.9086249052e+00 -3.3058353085e+00 1.9086249052e+00 3.3058353085e+00 
52800 6.9799118493e+00 1.4564014467e-04 1.9086207763e+00 -3.3058281569e+00 1.9086207763e+00 3.3058281569e+00 
52900 6.9799118769e+00 1.3375384465e-04 1.9086169609e+00 -3.3058215485e+00 1.9086169609e+00 3.3058215485e+00 
53000 6.9799119039e+00 1.2197069630e-04 1.9086134570e+00 -3.3058154795e+00 1.9086134570e+00 3.3058154795e+00 
53100 6.9799119303e+00 1.1030642772e-04 1.9086102617e+00 -3.3058099452e+00 1.9086102617e+00 3.3058099452e+00 
53200 6.9799119559e+00 9.8776203511e-05 1.9086073720e+00 -3.3058049401e+00 1.9086073720e+00 3.3058049401e+00 
53300 6.9799119808e+00 8.7394614517e-05 1.9086047844e+00 -3.3058004581e+00 1.9086047844e+00 3.3058004581e+00 
53400 6.9799120047e+00 7.6175668864e-05 1.9086024949e+00 -3.3057964926e+00 1.9086024949e+00 3.3057964926e+00 
53500 6.9799120278e+00 6.5132784000e-05 1.9086004993e+00 -3.3057930361e+00 1.9086004993e+00 3.3057930361e+00 
53600 6.9799120500e+00 5.5994369503e-05 1.9086004993e+00 -3.3057930361e+00 1.9086004993e+00 3.3057930361e+00 
53700 6.9799120711e+00 4.6780647390e-05 1.9086004993e+00 -3.3057930361e+00 1.9086004993e+00 3.3057930361e+00 
53800 6.9799120911e+00 3.7507343998e-05 1.9086004993e+00 -3.3057930361e+00 1.9086004993e+00 3.3057930361e+00 
53900 6.9799121101e+00 2.8189823189e-05 1.9086004993e+00 -3.3057930361e+00 1.9086004993e+00 3.3057930361e+00 
54000 6.9799121278e+00 1.8843073936e-05 1.9086004993e+00 -3.3057930361e+00 1.9086004993e+00 3.3057930361e+00 
54100 6.9799121445e+00 9.4816987876e-06 1.9086004993e+00 -3.3057930361e+00 1.9086004993e+00 3.3057930361e+00 
54200 6.9799121600e+00 1.1990317377e-07 1.9086004993e+00 -3.3057930361e+00 1.9086004993e+00 3.3057930361e+00 
54300 6.9799121744e+00 -9.2285143939e-06 1.9086004993e+00 -3.3057930361e+00 1.9086004993e+00 3.3057930361e+00 
54400 6.9799121878e+00 -1.8550171289e-05 1.9086004993e+00 -3.3057930361e+00 1.9086004993e+00 3.3057930361e+00 
54500 6.9799122000e+00 -2.7832108899e-05 1.9086004993e+00 -3.3057930361e+00 1.9086004993e+00 3.3057930361e+00 
54600 6.9799122112e+00 -3.7061799881e-05 1.9086004993e+00 -3.3057930361e+00 1.9086004993e+00 3.3057930361e+00 
54700 6.9799122214e+00 -4.6227154641e-05 1.9086004993e+00 -3.3057930361e+00 1.9086004993e+00 3.3057930361e+00 
54800 6.9799122305e+00 -5.5316526951e-05 1.9086004993e+00 -3.3057930361e+00 1.9086004993e+00 3.3057930361e+00 
54900 6.9799122388e+00 -6.4318718809e-05 1.9086004993e+00 -3.3057930361e+00 1.9086004993e+00 3.3057930361e+00 
55000 6.9799122461e+00 -7.3222984459e-05 1.9086004993e+00 -3.3057930361e+00 1.9086004993e+00 3.3057930361e+00 
55100 6.9799122523e+00 -8.0090604104e-05 1.9086024175e+00 -3.3057963586e+00 1.9086024175e+00 3.3057963586e+00 
55200 6.9799122577e+00 -8.6648649625e-05 1.9086045157e+00 -3.3057999927e+00 1.9086045157e+00 3.3057999927e+00 
55300 6.9799122623e+00 -9.2894453829e-05 1.9086067856e+00 -3.3058039244e+00 1.9086067856e+00 3.3058039244e+00 
55400 6.9799122660e+00 -9.8825905413e-05 1.9086092192e+00 -3.3058081395e+00 1.9086092192e+00 3.3058081395e+00 
55500 6.9799122690e+00 -1.0444143891e-04 1.9086118082e+00 -3.3058126237e+00 1.9086118082e+00 3.3058126237e+00 
55600 6.9799122713e+00 -1.0974002405e-04 1.9086145442e+00 -3.3058173626e+00 1.9086145442e+00 3.3058173626e+00 
55700 6.9799122730e+00 -1.1472115446e-04 1.9086174191e+00 -3.3058223420e+00 1.9086174191e+00 3.3058223420e+00 
55800 6.9799122741e+00 -1.1938483593e-04 1.9086204244e+00 -3.3058275475e+00 1.9086204244e+00 3.3058275475e+00 
55900 6.9799122746e+00 -1.2373157407e-04 1.9086235519e+00 -3.3058329645e+00 1.9086235519e+00 3.3058329645e+00 
56000 6.9799122747e+00 -1.2776236153e-04 1.9086267933e+00 -3.3058385787e+00 1.9086267933e+00 3.3058385787e+00 
56100 6.9799122744e+00 -1.3147866475e-04 1.9086301403e+00 -3.3058443758e+00 1.9086301403e+00 3.3058443758e+00 
56200 6.9799122737e+00 -1.3488241026e-04 1.9086335846e+00 -3.3058503416e+00 1.9086335846e+00 3.3058503416e+00 
56300 6.9799122727e+00 -1.3797597068e-04 1.9086371181e+00 -3.3058564618e+00 1.9086371181e+00 3.3058564618e+00 
56400 6.9799122714e+00 -1.4076215020e-04 1.9086407326e+00 -3.3058627223e+00 1.9086407326e+00 3.3058627223e+00 
56500 6.9799122699e+00 -1.4324416990e-04 1.9086444201e+00 -3.3058691092e+00 1.9086444201e+00 3.3058691092e+00 
56600 6.9799122683e+00 -1.4542565266e-04 1.9086481726e+00 -3.3058756088e+00 1.9086481726e+00 3.3058756088e+00 
56700 6.9799122665e+00 -1.4731060784e-04 1.9086519823e+00 -3.3058822073e+00 1.9086519823e+00 3.3058822073e+00 
56800 6.9799122647e+00 -1.4890341567e-04 1.9086558413e+00 -3.3058888913e+00 1.9086558413e+00 3.3058888913e+00 
56900 6.9799122629e+00 -1.5020881156e-04 1.9086597420e+00 -3.3058956476e+00 1.9086597420e+00 3.3058956476e+00 
57000 6.9799122611e+00 -1.5123187004e-04 1.9086636770e+00 -3.3059024631e+00 1.9086636770e+00 3.3059024631e+00 
57100 6.9799122593e+00 -1.5197798872e-04 1.9086676387e+00 -3.3059093250e+00 1.9086676387e+00 3.3059093250e+00 
57200 6.9799122577e+00 -1.5245287200e-04 1.9086716200e+00 -3.3059162207e+00 1.9086716200e+00 3.3059162207e+00 
57300 6.9799122561e+00 -1.5266251481e-04 1.9086756136e+00 -3.3059231380e+00 1.9086756136e+00 3.3059231380e+00 
57400 6.9799122548e+00 -1.5261318613e-04 1.9086796128e+00 -3.3059300648e+00 1.9086796128e+00 3.3059300648e+00 
57500 6.9799122536e+00 -1.5231141261e-04 1.9086836107e+00 -3.3059369893e+00 1.9086836107e+00 3.3059369893e+00 
57600 6.9799122527e+00 -1.5176396211e-04 1.9086876007e+00 -3.3059439001e+00 1.9086876007e+00 3.3059439001e+00 
57700 6.9799122519e+00 -1.5097782721e-04 1.9086915763e+00 -3.3059507861e+00 1.9086915763e+00 3.3059507861e+00 
57800 6.9799122515e+00 -1.4996020889e-04 1.9086955313e+00 -3.3059576364e+00 1.9086955313e+00 3.3059576364e+00 
57900 6.9799122513e+00 -1.4871850010e-04 1.9086994596e+00 -3.3059644404e+00 1.9086994596e+00 3.3059644404e+00 
58000 6.9799122514e+00 -1.4726026958e-04 1.9087033554e+00 -3.3059711882e+00 1.9087033554e+00 3.3059711882e+00 
58100 6.9799122518e+00 -1.4559324566e-04 1.9087072130e+00 -3.3059778697e+00 1.9087072130e+00 3.3059778697e+00 
58200 6.9799122525e+00 -1.4372530026e-04 1.9087110270e+00 -3.3059844757e+00 1.9087110270e+00 3.3059844757e+00 
58300 6.9799122535e+00 -1.4166443304e-04 1.9087147919e+00 -3.3059909968e+00 1.9087147919e+00 3.3059909968e+00 
58400 6.9799122548e+00 -1.3941875571e-04 1.9087185029e+00 -3.3059974244e+00 1.9087185029e+00 3.3059974244e+00 
58500 6.9799122565e+00 -1.3699647653e-04 1.9087221551e+00 -3.3060037501e+00 1.9087221551e+00 3.3060037501e+00 
58600 6.9799122584e+00 -1.3440588502e-04 1.9087257438e+00 -3.3060099660e+00 1.9087257438e+00 3.3060099660e+00 
58700 6.9799122607e+00 -1.3165533696e-04 1.9087292646e+00 -3.3060160642e+00 1.9087292646e+00 3.3060160642e+00 
58800 6.9799122632e+00 -1.2875323958e-04 1.9087327134e+00 -3.3060220377e+00 1.9087327134e+00 3.3060220377e+00 
58900 6.9799122661e+00 -1.2570803700e-04 1.9087360861e+00 -3.3060278794e+00 1.9087360861e+00 3.3060278794e+00 
59000 6.9799122693e+00 -1.2252819607e-04 1.9087393791e+00 -3.3060335830e+00 1.9087393791e+00 3.3060335830e+00 
59100 6.9799122727e+00 -1.1922219235e-04 1.9087425888e+00 -3.3060391423e+00 1.9087425888e+00 3.3060391423e+00 
59200 6.9799122764e+00 -1.1579849656e-04 1.9087457118e+00 -3.3060445516e+00 1.9087457118e+00 3.3060445516e+00 
59300 6.9799122803e+00 -1.1226556127e-04 1.9087487452e+00 -3.3060498055e+00 1.9087487452e+00 3.3060498055e+00 
59400 6.9799122845e+00 -1.0863180793e-04 1.9087516860e+00 -3.3060548992e+00 1.9087516860e+00 3.3060548992e+00 
59500 6.9799122888e+00 -1.0490561431e-04 1.9087545316e+00 -3.3060598280e+00 1.9087545316e+00 3.3060598280e+00 
59600 6.9799122934e+00 -1.0109530227e-04 1.9087572796e+00 -3.3060645876e+00 1.9087572796e+00 3.3060645876e+00 
59700 6.9799122981e+00 -9.7209125908e-05 1.9087599278e+00 -3.3060691745e+00 1.9087599278e+00 3.3060691745e+00 
59800 6.9799123031e+00 -9.3255260086e-05 1.9087624742e+00 -3.3060735849e+00 1.9087624742e+00 3.3060735849e+00 
59900 6.9799123081e+00 -8.9241789408e-05 1.9087649171e+00 -3.3060778160e+00 1.9087649171e+00 3.3060778160e+00 
60000 6.9799123133e+00 -8.5176697527e-05 1.9087672547e+00 -3.3060818650e+00 1.9087672547e+00 3.3060818650e+00 
60100 6.9799123186e+00 -8.1067856905e-05 1.9087694859e+00 -3.3060857296e+00 1.9087694859e+00 3.3060857296e+00 
60200 6.9799123239e+00 -7.6923018995e-05 1.9087716095e+00 -3.3060894077e+00 1.9087716095e+00 3.3060894077e+00 
60300 6.9799123293e+00 -7.2749804825e-05 1.9087736245e+00 -3.3060928978e+00 1.9087736245e+00 3.3060928978e+00 
60400 6.9799123348e+00 -6.8555696028e-05 1.9087755302e+00 -3.3060961985e+00 1.9087755302e+00 3.3060961985e+00 
60500 6.9799123404e+00 -6.6152751314e-05 1.9087755302e+00 -3.3060961985e+00 1.9087755302e+00 3.3060961985e+00 
60600 6.9799123460e+00 -6.3642676253e-05 1.9087755302e+00 -3.3060961985e+00 1.9087755302e+00 3.3060961985e+00 
60700 6.9799123516e+00 -6.1032123473e-05 1.9087755302e+00 -3.3060961985e+00 1.9087755302e+00 3.3060961985e+00 
60800 6.9799123571e+00 -5.8327711582e-05 1.9087755302e+00 -3.3060961985e+00 1.9087755302e+00 3.3060961985e+00 
60900 6.9799123625e+00 -5.5536016241e-05 1.9087755302e+00 -3.3060961985e+00 1.9087755302e+00 3.3060961985e+00 
61000 6.9799123679e+00 -5.2663561535e-05 1.9087755302e+00 -3.3060961985e+00 1.9087755302e+00 3.3060961985e+00 
61100 6.9799123731e+00 -4.9716811638e-05 1.9087755302e+00 -3.3060961985e+00 1.9087755302e+00 3.3060961985e+00 
61200 6.9799123783e+00 -4.6702162795e-05 1.9087755302e+00 -3.3060961985e+00 1.9087755302e+00 3.3060961985e+00 
61300 6.9799123833e+00 -4.3625935600e-05 1.9087755302e+00 -3.3060961985e+00 1.9087755302e+00 3.3060961985e+00 
61400 6.9799123882e+00 -4.0494367603e-05 1.9087755302e+00 -3.3060961985e+00 1.9087755302e+00 3.3060961985e+00 
61500 6.9799123930e+00 -3.7313606229e-05 1.9087755302e+00 -3.3060961985e+00 1.9087755302e+00 3.3060961985e+00 
61600 6.9799123976e+00 -3.4089702024e-05 1.9087755302e+00 -3.3060961985e+00 1.9087755302e+00 3.3060961985e+00 
61700 6.9799124021e+00 -3.0828602212e-05 1.9087755302e+00 -3.3060961985e+00 1.9087755302e+00 3.3060961985e+00 
61800 6.9799124064e+00 -2.7536144587e-05 1.9087755302e+00 -3.3060961985e+00 1.9087755302e+00 3.3060961985e+00 
61900 6.9799124106e+00 -2.4218051731e-05 1.9087755302e+00 -3.3060961985e+00 1.9087755302e+00 3.3060961985e+00 
62000 6.9799124146e+00 -2.0879925553e-05 1.9087755302e+00 -3.3060961985e+00 1.9087755302e+00 3.3060961985e+00 
62100 6.9799124184e+00 -1.7527242154e-05 1.9087755302e+00 -3.3060961985e+00 1.9087755302e+00 3.3060961985e+00 
62200 6.9799124220e+00 -1.4165347028e-05 1.9087755302e+00 -3.3060961985e+00 1.9087755302e+00 3.3060961985e+00 
62300 6.9799124255e+00 -1.0799450565e-05 1.9087755302e+00 -3.3060961985e+00 1.9087755302e+00 3.3060961985e+00 
62400 6.9799124288e+00 -7.4346239054e-06 1.9087755302e+00 -3.3060961985e+00 1.9087755302e+00 3.3060961985e+00 
62500 6.9799124320e+00 -4.0757950948e-06 1.9087755302e+00 -3.3060961985e+00 1.9087755302e+00 3.3060961985e+00 
62600 6.9799124350e+00 -7.2774556273e-07 1.9087755302e+00 -3.3060961985e+00 1.9087755302e+00 3.3060961985e+00 
62700 6.9799124378e+00 2.6048930802e-06 1.9087755302e+00 -3.3060961985e+00 1.9087755302e+00 3.3060961985e+00 
62800 6.9799124404e+00 5.9176419376e-06 1.9087755302e+00 -3.3060961985e+00 1.9087755302e+00 3.3060961985e+00 
62900 6.9799124429e+00 9.2061774142e-06 1.9087755302e+00 -3.3060961985e+00 1.9087755302e+00 3.3060961985e+00 
63000 6.9799124453e+00 1.2466333488e-05 1.9087755302e+00 -3.3060961985e+00 1.9087755302e+00 3.3060961985e+00 
63100 6.9799124475e+00 1.5694103699e-05 1.9087755302e+00 -3.3060961985e+00 1.9087755302e+00 3.3060961985e+00 
63200 6.9799124496e+00 1.8885642842e-05 1.9087755302e+00 -3.3060961985e+00 1.9087755302e+00 3.3060961985e+00 
63300 6.9799124515e+00 2.2037268344e-05 1.9087755302e+00 -3.3060961985e+00 1.9087755302e+00 3.3060961985e+00 
63400 6.9799124533e+00 2.5145461393e-05 1.9087755302e+00 -3.3060961985e+00 1.9087755302e+00 3.3060961985e+00 
63500 6.9799124550e+00 2.8206867770e-05 1.9087755302e+00 -3.3060961985e+00 1.9087755302e+00 3.3060961985e+00 
63600 6.9799124565e+00 3.1218298407e-05 1.9087755302e+00 -3.3060961985e+00 1.9087755302e+00 3.3060961985e+00 
63700 6.9799124580e+00 3.4176729686e-05 1.9087755302e+00 -3.3060961985e+00 1.9087755302e+00 3.3060961985e+00 
63800 6.9799124593e+00 3.7079303476e-05 1.9087755302e+00 -3.3060961985e+00 1.9087755302e+00 3.3060961985e+00 
63900 6.9799124606e+00 3.9923326916e-05 1.9087755302e+00 -3.3060961985e+00 1.9087755302e+00 3.3060961985e+00 
64000 6.9799124617e+00 4.2706271961e-05 1.9087755302e+00 -3.3060961985e+00 1.9087755302e+00 3.3060961985e+00 
64100 6.9799124628e+00 4.5425774673e-05 1.9087755302e+00 -3.3060961985e+00 1.9087755302e+00 3.3060961985e+00 
64200 6.9799124638e+00 4.8079634297e-05 1.9087755302e+00 -3.3060961985e+00 1.9087755302e+00 3.3060961985e+00 
64300 6.9799124648e+00 5.0665812115e-05 1.9087755302e+00 -3.3060961985e+00 1.9087755302e+00 3.3060961985e+00 
64400 6.9799124657e+00 5.3182430064e-05 1.9087755302e+00 -3.3060961985e+00 1.9087755302e+00 3.3060961985e+00 
64500 6.9799124665e+00 5.5627769167e-05 1.9087755302e+00 -3.3060961985e+00 1.9087755302e+00 3.3060961985e+00 
64600 6.9799124673e+00 5.8000267768e-05 1.9087755302e+00 -3.3060961985e+00 1.9087755302e+00 3.3060961985e+00 
64700 6.9799124681e+00 6.0298519546e-05 1.9087755302e+00 -3.3060961985e+00 1.9087755302e+00 3.3060961985e+00 
64800 6.9799124688e+00 6.2521271376e-05 1.9087755302e+00 -3.3060961985e+00 1.9087755302e+00 3.3060961985e+00 
64900 6.9799124695e+00 6.4667421004e-05 1.9087755302e+00 -3.3060961985e+00 1.9087755302e+00 3.3060961985e+00 
65000 6.9799124702e+00 6.6736014552e-05 1.9087755302e+00 -3.3060961985e+00 1.9087755302e+00 3.3060961985e+00 
65100 6.9799124709e+00 6.8726243866e-05 1.9087755302e+00 -3.3060961985e+00 1.9087755302e+00 3.3060961985e+00 
65200 6.9799124715e+00 7.0637443715e-05 1.9087755302e+00 -3.3060961985e+00 1.9087755302e+00 3.3060961985e+00 
65300 6.9799124722e+00 7.2469088844e-05 1.9087755302e+00 -3.3060961985e+00 1.9087755302e+00 3.3060961985e+00 
65400 6.9799124727e+00 7.2312834688e-05 1.9087736318e+00 -3.3060929105e+00 1.9087736318e+00 3.3060929105e+00 
65500 6.9799124731e+00 7.2069895723e-05 1.9087717376e+00 -3.3060896296e+00 1.9087717376e+00 3.3060896296e+00 
65600 6.9799124736e+00 7.1742008503e-05 1.9087698498e+00 -3.3060863597e+00 1.9087698498e+00 3.3060863597e+00 
65700 6.9799124742e+00 7.1331026474e-05 1.9087679705e+00 -3.3060831047e+00 1.9087679705e+00 3.3060831047e+00 
65800 6.9799124747e+00 7.0838913470e-05 1.9087661020e+00 -3.3060798684e+00 1.9087661020e+00 3.3060798684e+00 
65900 6.9799124752e+00 7.0267737258e-05 1.9087642464e+00 -3.3060766544e+00 1.9087642464e+00 3.3060766544e+00 
66000 6.9799124759e+00 7.1469709792e-05 1.9087642464e+00 -3.3060766544e+00 1.9087642464e+00 3.3060766544e+00 
66100 6.9799124765e+00 7.0708561481e-05 1.9087623742e+00 -3.3060734117e+00 1.9087623742e+00 3.3060734117e+00 
66200 6.9799124772e+00 7.1737945016e-05 1.9087623742e+00 -3.3060734117e+00 1.9087623742e+00 3.3060734117e+00 
66300 6.9799124778e+00 7.0798226479e-05 1.9087604950e+00 -3.3060701569e+00 1.9087604950e+00 3.3060701569e+00 
66400 6.9799124785e+00 6.9793355486e-05 1.9087586405e+00 -3.3060669447e+00 1.9087586405e+00 3.3060669447e+00 
66500 6.9799124793e+00 7.0563355379e-05 1.9087586405e+00 -3.3060669447e+00 1.9087586405e+00 3.3060669447e+00 
66600 6.9799124801e+00 7.1255255410e-05 1.9087586405e+00 -3.3060669447e+00 1.9087586405e+00 3.3060669447e+00 
66700 6.9799124809e+00 6.9994241518e-05 1.9087567739e+00 -3.3060637118e+00 1.9087567739e+00 3.3060637118e+00 
66800 6.9799124818e+00 7.0523371368e-05 1.9087567739e+00 -3.3060637118e+00 1.9087567739e+00 3.3060637118e+00 
66900 6.9799124827e+00 7.0977968308e-05 1.9087567739e+00 -3.3060637118e+00 1.9087567739e+00 3.3060637118e+00 
67000 6.9799124835e+00 6.9490770476e-05 1.9087549147e+00 -3.3060604914e+00 1.9087549147e+00 3.3060604914e+00 
67100 6.9799124845e+00 6.9790529010e-05 1.9087549147e+00 -3.3060604914e+00 1.9087549147e+00 3.3060604914e+00 
67200 6.9799124855e+00 7.0020054596e-05 1.9087549147e+00 -3.3060604914e+00 1.9087549147e+00 3.3060604914e+00 
67300 6.9799124865e+00 7.0181075234e-05 1.9087549147e+00 -3.3060604914e+00 1.9087549147e+00 3.3060604914e+00 
67400 6.9799124876e+00 7.0275375729e-05 1.9087549147e+00 -3.3060604914e+00 1.9087549147e+00 3.3060604914e+00 
67500 6.9799124887e+00 7.0304793452e-05 1.9087549147e+00 -3.3060604914e+00 1.9087549147e+00 3.3060604914e+00 
67600 6.9799124898e+00 7.0271214113e-05 1.9087549147e+00 -3.3060604914e+00 1.9087549147e+00 3.3060604914e+00 
67700 6.9799124909e+00 7.0176567594e-05 1.9087549147e+00 -3.3060604914e+00 1.9087549147e+00 3.3060604914e+00 
67800 6.9799124920e+00 7.0022823824e-05 1.9087549147e+00 -3.3060604914e+00 1.9087549147e+00 3.3060604914e+00 
67900 6.9799124931e+00 6.9811988664e-05 1.9087549147e+00 -3.3060604914e+00 1.9087549147e+00 3.3060604914e+00 
68000 6.9799124943e+00 6.9546099906e-05 1.9087549147e+00 -3.3060604914e+00 1.9087549147e+00 3.3060604914e+00 
68100 6.9799124955e+00 6.9227223281e-05 1.9087549147e+00 -3.3060604914e+00 1.9087549147e+00 3.3060604914e+00 
68200 6.9799124966e+00 6.8857448546e-05 1.9087549147e+00 -3.3060604914e+00 1.9087549147e+00 3.3060604914e+00 
68300 6.9799124978e+00 6.8438885656e-05 1.9087549147e+00 -3.3060604914e+00 1.9087549147e+00 3.3060604914e+00 
68400 6.9799124990e+00 6.7973660972e-05 1.9087549147e+00 -3.3060604914e+00 1.9087549147e+00 3.3060604914e+00 
68500 6.9799125002e+00 6.7463913577e-05 1.9087549147e+00 -3.3060604914e+00 1.9087549147e+00 3.3060604914e+00 
68600 6.9799125013e+00 6.6911791647e-05 1.9087549147e+00 -3.3060604914e+00 1.9087549147e+00 3.3060604914e+00 
68700 6.9799125025e+00 6.6319448925e-05 1.9087549147e+00 -3.3060604914e+00 1.9087549147e+00 3.3060604914e+00 
68800 6.9799125037e+00 6.5689041271e-05 1.9087549147e+00 -3.3060604914e+00 1.9087549147e+00 3.3060604914e+00 
68900 6.9799125048e+00 6.5022723288e-05 1.9087549147e+00 -3.3060604914e+00 1.9087549147e+00 3.3060604914e+00 
69000 6.9799125060e+00 6.4322645073e-05 1.9087549147e+00 -3.3060604914e+00 1.9087549147e+00 3.3060604914e+00 
69100 6.9799125071e+00 6.3590949019e-05 1.9087549147e+00 -3.3060604914e+00 1.9087549147e+00 3.3060604914e+00 
69200 6.9799125082e+00 6.2829766769e-05 1.9087549147e+00 -3.3060604914e+00 1.9087549147e+00 3.3060604914e+00 
69300 6.9799125093e+00 6.2041216200e-05 1.9087549147e+00 -3.3060604914e+00 1.9087549147e+00 3.3060604914e+00 
69400 6.9799125104e+00 6.1227398581e-05 1.9087549147e+00 -3.3060604914e+00 1.9087549147e+00 3.3060604914e+00 
69500 6.9799125115e+00 6.0390395771e-05 1.9087549147e+00 -3.3060604914e+00 1.9087549147e+00 3.3060604914e+00 
69600 6.9799125125e+00 5.9532267566e-05 1.9087549147e+00 -3.3060604914e+00 1.9087549147e+00 3.3060604914e+00 
69700 6.9799125136e+00 5.8655049129e-05 1.9087549147e+00 -3.3060604914e+00 1.9087549147e+00 3.3060604914e+00 
69800 6.9799125146e+00 5.7760748522e-05 1.9087549147e+00 -3.3060604914e+00 1.9087549147e+00 3.3060604914e+00 
69900 6.9799125156e+00 5.6851344382e-05 1.9087549147e+00 -3.3060604914e+00 1.9087549147e+00 3.3060604914e+00 
70000 6.9799125166e+00 5.5928783652e-05 1.9087549147e+00 -3.3060604914e+00 1.9087549147e+00 3.3060604914e+00 
70100 6.9799125175e+00 5.4994979466e-05 1.9087549147e+00 -3.3060604914e+00 1.9087549147e+00 3.3060604914e+00 
70200 6.9799125184e+00 5.4051809116e-05 1.9087549147e+00 -3.3060604914e+00 1.9087549147e+00 3.3060604914e+00 
70300 6.9799125193e+00 5.3101112152e-05 1.9087549147e+00 -3.3060604914e+00 1.9087549147e+00 3.3060604914e+00 
70400 6.9799125202e+00 5.2144688560e-05 1.9087549147e+00 -3.3060604914e+00 1.9087549147e+00 3.3060604914e+00 
70500 6.9799125211e+00 5.1184297083e-05 1.9087549147e+00 -3.3060604914e+00 1.9087549147e+00 3.3060604914e+00 
70600 6.9799125219e+00 5.0221653640e-05 1.9087549147e+00 -3.3060604914e+00 1.9087549147e+00 3.3060604914e+00 
70700 6.9799125227e+00 4.9258429830e-05 1.9087549147e+00 -3.3060604914e+00 1.9087549147e+00 3.3060604914e+00 
70800 6.9799125235e+00 4.8296251590e-05 1.9087549147e+00 -3.3060604914e+00 1.9087549147e+00 3.3060604914e+00 
70900 6.9799125242e+00 4.7336697907e-05 1.9087549147e+00 -3.3060604914e+00 1.9087549147e+00 3.3060604914e+00 
71000 6.9799125250e+00 4.6381299691e-05 1.9087549147e+00 -3.3060604914e+00 1.9087549147e+00 3.3060604914e+00 
71100 6.9799125257e+00 4.5431538713e-05 1.9087549147e+00 -3.3060604914e+00 1.9087549147e+00 3.3060604914e+00 
71200 6.9799125264e+00 4.4488846658e-05 1.9087549147e+00 -3.3060604914e+00 1.9087549147e+00 3.3060604914e+00 
71300 6.9799125270e+00 4.3554604285e-05 1.9087549147e+00 -3.3060604914e+00 1.9087549147e+00 3.3060604914e+00 
71400 6.9799125277e+00 4.2630140695e-05 1.9087549147e+00 -3.3060604914e+00 1.9087549147e+00 3.3060604914e+00 
71500 6.9799125283e+00 4.1716732684e-05 1.9087549147e+00 -3.3060604914e+00 1.9087549147e+00 3.3060604914e+00 
71600 6.9799125289e+00 4.0815604196e-05 1.9087549147e+00 -3.3060604914e+00 1.9087549147e+00 3.3060604914e+00 
71700 6.9799125295e+00 3.9927925886e-05 1.9087549147e+00 -3.3060604914e+00 1.9087549147e+00 3.3060604914e+00 
71800 6.9799125300e+00 3.9054814760e-05 1.9087549147e+00 -3.3060604914e+00 1.9087549147e+00 3.3060604914e+00 
71900 6.9799125306e+00 3.8197333923e-05 1.9087549147e+00 -3.3060604914e+00 1.9087549147e+00 3.3060604914e+00 
72000 6.9799125311e+00 3.7356492396e-05 1.9087549147e+00 -3.3060604914e+00 1.9087549147e+00 3.3060604914e+00 
72100 6.9799125316e+00 3.6533245053e-05 1.9087549147e+00 -3.3060604914e+00 1.9087549147e+00 3.3060604914e+00 
72200 6.9799125321e+00 3.5728492612e-05 1.9087549147e+00 -3.3060604914e+00 1.9087549147e+00 3.3060604914e+00 
72300 6.9799125326e+00 3.4943081727e-05 1.9087549147e+00 -3.3060604914e+00 1.9087549147e+00 3.3060604914e+00 
72400 6.9799125331e+00 3.4177805157e-05 1.9087549147e+00 -3.3060604914e+00 1.9087549147e+00 3.3060604914e+00 
72500 6.9799125335e+00 3.3433402011e-05 1.9087549147e+00 -3.3060604914e+00 1.9087549147e+00 3.3060604914e+00 
72600 6.9799125340e+00 3.2710558080e-05 1.9087549147e+00 -3.3060604914e+00 1.9087549147e+00 3.3060604914e+00 
72700 6.9799125344e+00 3.2009906220e-05 1.9087549147e+00 -3.3060604914e+00 1.9087549147e+00 3.3060604914e+00 
72800 6.9799125349e+00 3.1332026832e-05 1.9087549147e+00 -3.3060604914e+00 1.9087549147e+00 3.3060604914e+00 
72900 6.9799125353e+00 3.0677448399e-05 1.9087549147e+00 -3.3060604914e+00 1.9087549147e+00 3.3060604914e+00 
73000 6.9799125357e+00 3.0046648080e-05 1.9087549147e+00 -3.3060604914e+00 1.9087549147e+00 3.3060604914e+00 
73100 6.9799125361e+00 2.9440052374e-05 1.9087549147e+00 -3.3060604914e+00 1.9087549147e+00 3.3060604914e+00 
73200 6.9799125365e+00 2.8858037864e-05 1.9087549147e+00 -3.3060604914e+00 1.9087549147e+00 3.3060604914e+00 
73300 6.9799125369e+00 2.8300931972e-05 1.9087549147e+00 -3.3060604914e+00 1.9087549147e+00 3.3060604914e+00 
73400 6.9799125372e+00 2.7769013820e-05 1.9087549147e+00 -3.3060604914e+00 1.9087549147e+00 3.3060604914e+00 
73500 6.9799125376e+00 2.7262515107e-05 1.9087549147e+00 -3.3060604914e+00 1.9087549147e+00 3.3060604914e+00 
73600 6.9799125380e+00 2.6781621050e-05 1.9087549147e+00 -3.3060604914e+00 1.9087549147e+00 3.3060604914e+00 
73700 6.9799125384e+00 2.6326471368e-05 1.9087549147e+00 -3.3060604914e+00 1.9087549147e+00 3.3060604914e+00 
73800 6.9799125387e+00 2.5897161317e-05 1.9087549147e+00 -3.3060604914e+00 1.9087549147e+00 3.3060604914e+00 
73900 6.9799125391e+00 2.5493742745e-05 1.9087549147e+00 -3.3060604914e+00 1.9087549147e+00 3.3060604914e+00 
74000 6.9799125394e+00 2.5116225214e-05 1.9087549147e+00 -3.3060604914e+00 1.9087549147e+00 3.3060604914e+00 
74100 6.9799125398e+00 2.4764577138e-05 1.9087549147e+00 -3.3060604914e+00 1.9087549147e+00 3.3060604914e+00 
74200 6.9799125401e+00 2.4438726950e-05 1.9087549147e+00 -3.3060604914e+00 1.9087549147e+00 3.3060604914e+00 
74300 6.9799125405e+00 2.4138564315e-05 1.9087549147e+00 -3.3060604914e+00 1.9087549147e+00 3.3060604914e+00 
74400 6.9799125408e+00 2.3863941361e-05 1.9087549147e+00 -3.3060604914e+00 1.9087549147e+00 3.3060604914e+00 
74500 6.9799125412e+00 2.3614673935e-05 1.9087549147e+00 -3.3060604914e+00 1.9087549147e+00 3.3060604914e+00 
74600 6.9799125415e+00 2.3390542879e-05 1.9087549147e+00 -3.3060604914e+00 1.9087549147e+00 3.3060604914e+00 
74700 6.9799125419e+00 2.3191295328e-05 1.9087549147e+00 -3.3060604914e+00 1.9087549147e+00 3.3060604914e+00 
74800 6.9799125422e+00 2.3016646027e-05 1.9087549147e+00 -3.3060604914e+00 1.9087549147e+00 3.3060604914e+00 
74900 6.9799125426e+00 2.2866278663e-05 1.9087549147e+00 -3.3060604914e+00 1.9087549147e+00 3.3060604914e+00 
75000 6.9799125429e+00 2.2739847200e-05 1.9087549147e+00 -3.3060604914e+00 1.9087549147e+00 3.3060604914e+00 
75100 6.9799125433e+00 2.2636977221e-05 1.9087549147e+00 -3.3060604914e+00 1.9087549147e+00 3.3060604914e+00 
75200 6.9799125436e+00 2.2557267313e-05 1.9087549147e+00 -3.3060604914e+00 1.9087549147e+00 3.3060604914e+00 
75300 6.9799125439e+00 2.2500290389e-05 1.9087549147e+00 -3.3060604914e+00 1.9087549147e+00 3.3060604914e+00 
75400 6.9799125443e+00 2.2465595095e-05 1.9087549147e+00 -3.3060604914e+00 1.9087549147e+00 3.3060604914e+00 
75500 6.9799125446e+00 2.2452707144e-05 1.9087549147e+00 -3.3060604914e+00 1.9087549147e+00 3.3060604914e+00 
75600 6.9799125450e+00 2.2461130689e-05 1.9087549147e+00 -3.3060604914e+00 1.9087549147e+00 3.3060604914e+00 
75700 6.9799125453e+00 2.2490349693e-05 1.9087549147e+00 -3.3060604914e+00 1.9087549147e+00 3.3060604914e+00 
75800 6.9799125456e+00 2.2539829266e-05 1.9087549147e+00 -3.3060604914e+00 1.9087549147e+00 3.3060604914e+00 
75900 6.9799125460e+00 2.2609017017e-05 1.9087549147e+00 -3.3060604914e+00 1.9087549147e+00 3.3060604914e+00 
76000 6.9799125463e+00 2.2697344398e-05 1.9087549147e+00 -3.3060604914e+00 1.9087549147e+00 3.3060604914e+00 
76100 6.9799125467e+00 2.2804228022e-05 1.9087549147e+00 -3.3060604914e+00 1.9087549147e+00 3.3060604914e+00 
76200 6.9799125470e+00 2.2929070970e-05 1.9087549147e+00 -3.3060604914e+00 1.9087549147e+00 3.3060604914e+00 
76300 6.9799125473e+00 2.3071264105e-05 1.9087549147e+00 -3.3060604914e+00 1.9087549147e+00 3.3060604914e+00 
76400 6.9799125477e+00 2.3230187332e-05 1.9087549147e+00 -3.3060604914e+00 1.9087549147e+00 3.3060604914e+00 
76500 6.9799125480e+00 2.3405210872e-05 1.9087549147e+00 -3.3060604914e+00 1.9087549147e+00 3.3060604914e+00 
76600 6.9799125483e+00 2.3595696507e-05 1.9087549147e+00 -3.3060604914e+00 1.9087549147e+00 3.3060604914e+00 
76700 6.9799125486e+00 2.3800998799e-05 1.9087549147e+00 -3.3060604914e+00 1.9087549147e+00 3.3060604914e+00 
76800 6.9799125490e+00 2.4020466282e-05 1.9087549147e+00 -3.3060604914e+00 1.9087549147e+00 3.3060604914e+00 
76900 6.9799125493e+00 2.4253442655e-05 1.9087549147e+00 -3.3060604914e+00 1.9087549147e+00 3.3060604914e+00 
77000 6.9799125496e+00 2.4499267926e-05 1.9087549147e+00 -3.3060604914e+00 1.9087549147e+00 3.3060604914e+00 
77100 6.9799125499e+00 2.4757279531e-05 1.9087549147e+00 -3.3060604914e+00 1.9087549147e+00 3.3060604914e+00 
77200 6.9799125502e+00 2.5026813452e-05 1.9087549147e+00 -3.3060604914e+00 1.9087549147e+00 3.3060604914e+00 
77300 6.9799125505e+00 2.5307205271e-05 1.9087549147e+00 -3.3060604914e+00 1.9087549147e+00 3.3060604914e+00 
77400 6.9799125508e+00 2.5597791223e-05 1.9087549147e+00 -3.3060604914e+00 1.9087549147e+00 3.3060604914e+00 
77500 6.9799125511e+00 2.5897909206e-05 1.9087549147e+00 -3.3060604914e+00 1.9087549147e+00 3.3060604914e+00 
77600 6.9799125514e+00 2.6206899769e-05 1.9087549147e+00 -3.3060604914e+00 1.9087549147e+00 3.3060604914e+00 
77700 6.9799125517e+00 2.6524107056e-05 1.9087549147e+00 -3.3060604914e+00 1.9087549147e+00 3.3060604914e+00 
77800 6.9799125520e+00 2.6848879742e-05 1.9087549147e+00 -3.3060604914e+00 1.9087549147e+00 3.3060604914e+00 
77900 6.9799125523e+00 2.7180571905e-05 1.9087549147e+00 -3.3060604914e+00 1.9087549147e+00 3.3060604914e+00 
78000 6.9799125526e+00 2.7518543894e-05 1.9087549147e+00 -3.3060604914e+00 1.9087549147e+00 3.3060604914e+00 
78100 6.9799125529e+00 2.7862163147e-05 1.9087549147e+00 -3.3060604914e+00 1.9087549147e+00 3.3060604914e+00 
78200 6.9799125531e+00 2.8210804988e-05 1.9087549147e+00 -3.3060604914e+00 1.9087549147e+00 3.3060604914e+00 
78300 6.9799125534e+00 2.8563853369e-05 1.9087549147e+00 -3.3060604914e+00 1.9087549147e+00 3.3060604914e+00 
78400 6.9799125537e+00 2.8920701609e-05 1.9087549147e+00 -3.3060604914e+00 1.9087549147e+00 3.3060604914e+00 
78500 6.9799125539e+00 2.9280753067e-05 1.9087549147e+00 -3.3060604914e+00 1.9087549147e+00 3.3060604914e+00 
78600 6.9799125542e+00 2.9643421804e-05 1.9087549147e+00 -3.3060604914e+00 1.9087549147e+00 3.3060604914e+00 
78700 6.9799125545e+00 3.0008133203e-05 1.9087549147e+00 -3.3060604914e+00 1.9087549147e+00 3.3060604914e+00 
78800 6.9799125547e+00 3.0374324545e-05 1.9087549147e+00 -3.3060604914e+00 1.9087549147e+00 3.3060604914e+00 
78900 6.9799125549e+00 3.0741445574e-05 1.9087549147e+00 -3.3060604914e+00 1.9087549147e+00 3.3060604914e+00 
79000 6.9799125552e+00 3.1108958998e-05 1.9087549147e+00 -3.3060604914e+00 1.9087549147e+00 3.3060604914e+00 
79100 6.9799125554e+00 3.1476340980e-05 1.9087549147e+00 -3.3060604914e+00 1.9087549147e+00 3.3060604914e+00 
79200 6.9799125556e+00 3.1843081580e-05 1.9087549147e+00 -3.3060604914e+00 1.9087549147e+00 3.3060604914e+00 
79300 6.9799125559e+00 3.2208685173e-05 1.9087549147e+00 -3.3060604914e+00 1.9087549147e+00 3.3060604914e+00 
79400 6.9799125561e+00 3.2572670833e-05 1.9087549147e+00 -3.3060604914e+00 1.9087549147e+00 3.3060604914e+00 
79500 6.9799125563e+00 3.2934572668e-05 1.9087549147e+00 -3.3060604914e+00 1.9087549147e+00 3.3060604914e+00 
79600 6.9799125565e+00 3.3293940151e-05 1.9087549147e+00 -3.3060604914e+00 1.9087549147e+00 3.3060604914e+00 
79700 6.9799125567e+00 3.3650338391e-05 1.9087549147e+00 -3.3060604914e+00 1.9087549147e+00 3.3060604914e+00 
79800 6.9799125569e+00 3.4003348386e-05 1.9087549147e+00 -3.3060604914e+00 1.9087549147e+00 3.3060604914e+00 
79900 6.9799125571e+00 3.4352567240e-05 1.9087549147e+00 -3.3060604914e+00 1.9087549147e+00 3.3060604914e+00 
80000 6.9799125573e+00 3.4697608360e-05 1.9087549147e+00 -3.3060604914e+00 1.9087549147e+00 3.3060604914e+00 
80100 6.9799125575e+00 3.5038101602e-05 1.9087549147e+00 -3.3060604914e+00 1.9087549147e+00 3.3060604914e+00 
80200 6.9799125577e+00 3.5373693410e-05 1.9087549147e+00 -3.3060604914e+00 1.9087549147e+00 3.3060604914e+00 
80300 6.9799125579e+00 3.5704046899e-05 1.9087549147e+00 -3.3060604914e+00 1.9087549147e+00 3.3060604914e+00 
80400 6.9799125581e+00 3.6028841943e-05 1.9087549147e+00 -3.3060604914e+00 1.9087549147e+00 3.3060604914e+00 
80500 6.9799125583e+00 3.6347775207e-05 1.9087549147e+00 -3.3060604914e+00 1.9087549147e+00 3.3060604914e+00 
80600 6.9799125585e+00 3.6660560167e-05 1.9087549147e+00 -3.3060604914e+00 1.9087549147e+00 3.3060604914e+00 
80700 6.9799125586e+00 3.6966927091e-05 1.9087549147e+00 -3.3060604914e+00 1.9087549147e+00 3.3060604914e+00 
80800 6.9799125588e+00 3.7266623011e-05 1.9087549147e+00 -3.3060604914e+00 1.9087549147e+00 3.3060604914e+00 
80900 6.9799125590e+00 3.7559411654e-05 1.9087549147e+00 -3.3060604914e+00 1.9087549147e+00 3.3060604914e+00 
81000 6.9799125591e+00 3.7845073367e-05 1.9087549147e+00 -3.3060604914e+00 1.9087549147e+00 3.3060604914e+00 
81100 6.9799125593e+00 3.8123404989e-05 1.9087549147e+00 -3.3060604914e+00 1.9087549147e+00 3.3060604914e+00 
81200 6.9799125595e+00 3.8394219738e-05 1.9087549147e+00 -3.3060604914e+00 1.9087549147e+00 3.3060604914e+00 
81300 6.9799125596e+00 3.8657347045e-05 1.9087549147e+00 -3.3060604914e+00 1.9087549147e+00 3.3060604914e+00 
81400 6.9799125598e+00 3.8912632378e-05 1.9087549147e+00 -3.3060604914e+00 1.9087549147e+00 3.3060604914e+00 
81500 6.9799125599e+00 3.9159937068e-05 1.9087549147e+00 -3.3060604914e+00 1.9087549147e+00 3.3060604914e+00 
81600 6.9799125601e+00 3.9399138064e-05 1.9087549147e+00 -3.3060604914e+00 1.9087549147e+00 3.3060604914e+00 
81700 6.9799125602e+00 3.9630127722e-05 1.9087549147e+00 -3.3060604914e+00 1.9087549147e+00 3.3060604914e+00 
81800 6.9799125604e+00 3.9852813551e-05 1.9087549147e+00 -3.3060604914e+00 1.9087549147e+00 3.3060604914e+00 
81900 6.9799125605e+00 4.0067117938e-05 1.9087549147e+00 -3.3060604914e+00 1.9087549147e+00 3.3060604914e+00 
82000 6.9799125607e+00 4.0272977882e-05 1.9087549147e+00 -3.3060604914e+00 1.9087549147e+00 3.3060604914e+00 
82100 6.9799125608e+00 4.0470344684e-05 1.9087549147e+00 -3.3060604914e+00 1.9087549147e+00 3.3060604914e+00 
82200 6.9799125610e+00 4.0659183635e-05 1.9087549147e+00 -3.3060604914e+00 1.9087549147e+00 3.3060604914e+00 
82300 6.9799125611e+00 4.0839473698e-05 1.9087549147e+00 -3.3060604914e+00 1.9087549147e+00 3.3060604914e+00 
82400 6.9799125612e+00 4.1011207169e-05 1.9087549147e+00 -3.3060604914e+00 1.9087549147e+00 3.3060604914e+00 
82500 6.9799125614e+00 4.1174389332e-05 1.9087549147e+00 -3.3060604914e+00 1.9087549147e+00 3.3060604914e+00 
82600 6.9799125615e+00 4.1329038097e-05 1.9087549147e+00 -3.3060604914e+00 1.9087549147e+00 3.3060604914e+00 
82700 6.9799125616e+00 4.1475183626e-05 1.9087549147e+00 -3.3060604914e+00 1.9087549147e+00 3.3060604914e+00 
82800 6.9799125618e+00 4.1612867973e-05 1.9087549147e+00 -3.3060604914e+00 1.9087549147e+00 3.3060604914e+00 
82900 6.9799125619e+00 4.1742144673e-05 1.9087549147e+00 -3.3060604914e+00 1.9087549147e+00 3.3060604914e+00 
83000 6.9799125620e+00 4.1863078371e-05 1.9087549147e+00 -3.3060604914e+00 1.9087549147e+00 3.3060604914e+00 
83100 6.9799125621e+00 4.1975744417e-05 1.9087549147e+00 -3.3060604914e+00 1.9087549147e+00 3.3060604914e+00 
83200 6.9799125623e+00 4.2080228456e-05 1.9087549147e+00 -3.3060604914e+00 1.9087549147e+00 3.3060604914e+00 
83300 6.9799125624e+00 4.2176626021e-05 1.9087549147e+00 -3.3060604914e+00 1.9087549147e+00 3.3060604914e+00 
83400 6.9799125625e+00 4.2265042124e-05 1.9087549147e+00 -3.3060604914e+00 1.9087549147e+00 3.3060604914e+00 
83500 6.9799125626e+00 4.2345590833e-05 1.9087549147e+00 -3.3060604914e+00 1.9087549147e+00 3.3060604914e+00 
83600 6.9799125628e+00 4.2418394852e-05 1.9087549147e+00 -3.3060604914e+00 1.9087549147e+00 3.3060604914e+00 
83700 6.9799125629e+00 4.2483585100e-05 1.9087549147e+00 -3.3060604914e+00 1.9087549147e+00 3.3060604914e+00 
83800 6.9799125630e+00 4.2541300291e-05 1.9087549147e+00 -3.3060604914e+00 1.9087549147e+00 3.3060604914e+00 
83900 6.9799125631e+00 4.2591686511e-05 1.9087549147e+00 -3.3060604914e+00 1.9087549147e+00 3.3060604914e+00 
84000 6.9799125632e+00 4.2634896789e-05 1.9087549147e+00 -3.3060604914e+00 1.9087549147e+00 3.3060604914e+00 
84100 6.9799125633e+00 4.2671090680e-05 1.9087549147e+00 -3.3060604914e+00 1.9087549147e+00 3.3060604914e+00 
84200 6.9799125635e+00 4.2700433842e-05 1.9087549147e+00 -3.3060604914e+00 1.9087549147e+00 3.3060604914e+00 
84300 6.9799125636e+00 4.2723097615e-05 1.9087549147e+00 -3.3060604914e+00 1.9087549147e+00 3.3060604914e+00 
84400 6.9799125637e+00 4.2739258612e-05 1.9087549147e+00 -3.3060604914e+00 1.9087549147e+00 3.3060604914e+00 
84500 6.9799125638e+00 4.2749098293e-05 1.9087549147e+00 -3.3060604914e+00 1.9087549147e+00 3.3060604914e+00 
84600 6.9799125639e+00 4.2752802567e-05 1.9087549147e+00 -3.3060604914e+00 1.9087549147e+00 3.3060604914e+00 
84700 6.9799125640e+00 4.2750561386e-05 1.9087549147e+00 -3.3060604914e+00 1.9087549147e+00 3.3060604914e+00 
84800 6.9799125641e+00 4.2742568339e-05 1.9087549147e+00 -3.3060604914e+00 1.9087549147e+00 3.3060604914e+00 
84900 6.9799125642e+00 4.2729020260e-05 1.9087549147e+00 -3.3060604914e+00 1.9087549147e+00 3.3060604914e+00 
85000 6.9799125643e+00 4.2710116840e-05 1.9087549147e+00 -3.3060604914e+00 1.9087549147e+00 3.3060604914e+00 
85100 6.9799125644e+00 4.2686060246e-05 1.9087549147e+00 -3.3060604914e+00 1.9087549147e+00 3.3060604914e+00 
85200 6.9799125645e+00 4.2657054735e-05 1.9087549147e+00 -3.3060604914e+00 1.9087549147e+00 3.3060604914e+00 
85300 6.9799125646e+00 4.2623306302e-05 1.9087549147e+00 -3.3060604914e+00 1.9087549147e+00 3.3060604914e+00 
85400 6.9799125647e+00 4.2585022298e-05 1.9087549147e+00 -3.3060604914e+00 1.9087549147e+00 3.3060604914e+00 
85500 6.9799125648e+00 4.2542411089e-05 1.9087549147e+00 -3.3060604914e+00 1.9087549147e+00 3.3060604914e+00 
85600 6.9799125649e+00 4.2495681712e-05 1.9087549147e+00 -3.3060604914e+00 1.9087549147e+00 3.3060604914e+00 
85700 6.9799125650e+00 4.2445043522e-05 1.9087549147e+00 -3.3060604914e+00 1.9087549147e+00 3.3060604914e+00 
85800 6.9799125651e+00 4.2390705885e-05 1.9087549147e+00 -3.3060604914e+00 1.9087549147e+00 3.3060604914e+00 
85900 6.9799125652e+00 4.2332877839e-05 1.9087549147e+00 -3.3060604914e+00 1.9087549147e+00 3.3060604914e+00 
86000 6.9799125653e+00 4.2271767794e-05 1.9087549147e+00 -3.3060604914e+00 1.9087549147e+00 3.3060604914e+00 
86100 6.9799125654e+00 4.2207583228e-05 1.9087549147e+00 -3.3060604914e+00 1.9087549147e+00 3.3060604914e+00 
86200 6.9799125655e+00 4.2140530394e-05 1.9087549147e+00 -3.3060604914e+00 1.9087549147e+00 3.3060604914e+00 
86300 6.9799125656e+00 4.2070814043e-05 1.9087549147e+00 -3.3060604914e+00 1.9087549147e+00 3.3060604914e+00 
86400 6.9799125657e+00 4.1998637144e-05 1.9087549147e+00 -3.3060604914e+00 1.9087549147e+00 3.3060604914e+00 
86500 6.9799125658e+00 4.1924200631e-05 1.9087549147e+00 -3.3060604914e+00 1.9087549147e+00 3.3060604914e+00 
86600 6.9799125659e+00 4.1847703154e-05 1.9087549147e+00 -3.3060604914e+00 1.9087549147e+00 3.3060604914e+00 
86700 6.9799125659e+00 4.1769340824e-05 1.9087549147e+00 -3.3060604914e+00 1.9087549147e+00 3.3060604914e+00 
86800 6.9799125660e+00 4.1689306999e-05 1.9087549147e+00 -3.3060604914e+00 1.9087549147e+00 3.3060604914e+00 
86900 6.9799125661e+00 4.1607792050e-05 1.9087549147e+00 -3.3060604914e+00 1.9087549147e+00 3.3060604914e+00 
87000 6.9799125662e+00 4.1524983169e-05 1.9087549147e+00 -3.3060604914e+00 1.9087549147e+00 3.3060604914e+00 
87100 6.9799125663e+00 4.1441064152e-05 1.9087549147e+00 -3.3060604914e+00 1.9087549147e+00 3.3060604914e+00 
87200 6.9799125664e+00 4.1356215221e-05 1.9087549147e+00 -3.3060604914e+00 1.9087549147e+00 3.3060604914e+00 
87300 6.9799125664e+00 4.1270612851e-05 1.9087549147e+00 -3.3060604914e+00 1.9087549147e+00 3.3060604914e+00 
87400 6.9799125665e+00 4.1184429597e-05 1.9087549147e+00 -3.3060604914e+00 1.9087549147e+00 3.3060604914e+00 
87500 6.9799125666e+00 4.1097833935e-05 1.9087549147e+00 -3.3060604914e+00 1.9087549147e+00 3.3060604914e+00 
87600 6.9799125667e+00 4.1010990127e-05 1.9087549147e+00 -3.3060604914e+00 1.9087549147e+00 3.3060604914e+00 
87700 6.9799125667e+00 4.0924058071e-05 1.9087549147e+00 -3.3060604914e+00 1.9087549147e+00 3.3060604914e+00 
87800 6.9799125668e+00 4.0837193199e-05 1.9087549147e+00 -3.3060604914e+00 1.9087549147e+00 3.3060604914e+00 
87900 6.9799125669e+00 4.0750546341e-05 1.9087549147e+00 -3.3060604914e+00 1.9087549147e+00 3.3060604914e+00 
88000 6.9799125670e+00 4.0664263632e-05 1.9087549147e+00 -3.3060604914e+00 1.9087549147e+00 3.3060604914e+00 
88100 6.9799125670e+00 4.0578486415e-05 1.9087549147e+00 -3.3060604914e+00 1.9087549147e+00 3.3060604914e+00 
88200 6.9799125671e+00 4.0493351160e-05 1.9087549147e+00 -3.3060604914e+00 1.9087549147e+00 3.3060604914e+00 
88300 6.9799125672e+00 4.0408989391e-05 1.9087549147e+00 -3.3060604914e+00 1.9087549147e+00 3.3060604914e+00 
88400 6.9799125672e+00 4.0325527616e-05 1.9087549147e+00 -3.3060604914e+00 1.9087549147e+00 3.3060604914e+00 
88500 6.9799125673e+00 4.0243087276e-05 1.9087549147e+00 -3.3060604914e+00 1.9087549147e+00 3.3060604914e+00 
88600 6.9799125674e+00 4.0161784697e-05 1.9087549147e+00 -3.3060604914e+00 1.9087549147e+00 3.3060604914e+00 
88700 6.9799125674e+00 4.0081731056e-05 1.9087549147e+00 -3.3060604914e+00 1.9087549147e+00 3.3060604914e+00 
88800 6.9799125675e+00 4.0003032354e-05 1.9087549147e+00 -3.3060604914e+00 1.9087549147e+00 3.3060604914e+00 
88900 6.9799125676e+00 3.9925789395e-05 1.9087549147e+00 -3.3060604914e+00 1.9087549147e+00 3.3060604914e+00 
89000 6.9799125676e+00 3.9850097776e-05 1.9087549147e+00 -3.3060604914e+00 1.9087549147e+00 3.3060604914e+00 
89100 6.9799125677e+00 3.9776047890e-05 1.9087549147e+00 -3.3060604914e+00 1.9087549147e+00 3.3060604914e+00 
89200 6.9799125677e+00 3.9703724927e-05 1.9087549147e+00 -3.3060604914e+00 1.9087549147e+00 3.3060604914e+00 
89300 6.9799125678e+00 3.9633208890e-05 1.9087549147e+00 -3.3060604914e+00 1.9087549147e+00 3.3060604914e+00 
89400 6.9799125679e+00 3.9564574610e-05 1.9087549147e+00 -3.3060604914e+00 1.9087549147e+00 3.3060604914e+00 
89500 6.9799125679e+00 3.9497891788e-05 1.9087549147e+00 -3.3060604914e+00 1.9087549147e+00 3.3060604914e+00 
89600 6.9799125680e+00 3.9433225023e-05 1.9087549147e+00 -3.3060604914e+00 1.9087549147e+00 3.3060604914e+00 
89700 6.9799125680e+00 3.9370633853e-05 1.9087549147e+00 -3.3060604914e+00 1.9087549147e+00 3.3060604914e+00 
89800 6.9799125681e+00 3.9310172812e-05 1.9087549147e+00 -3.3060604914e+00 1.9087549147e+00 3.3060604914e+00 
89900 6.9799125681e+00 3.9251891485e-05 1.9087549147e+00 -3.3060604914e+00 1.9087549147e+00 3.3060604914e+00 
90000 6.9799125682e+00 3.9195834557e-05 1.9087549147e+00 -3.3060604914e+00 1.9087549147e+00 3.3060604914e+00 
90100 6.9799125682e+00 3.9142041904e-05 1.9087549147e+00 -3.3060604914e+00 1.9087549147e+00 3.3060604914e+00 
90200 6.9799125683e+00 3.9090548644e-05 1.9087549147e+00 -3.3060604914e+00 1.9087549147e+00 3.3060604914e+00 
90300 6.9799125683e+00 3.9041385233e-05 1.9087549147e+00 -3.3060604914e+00 1.9087549147e+00 3.3060604914e+00 
90400 6.9799125684e+00 3.8994577537e-05 1.9087549147e+00 -3.3060604914e+00 1.9087549147e+00 3.3060604914e+00 
90500 6.9799125684e+00 3.8950146920e-05 1.9087549147e+00 -3.3060604914e+00 1.9087549147e+00 3.3060604914e+00 
90600 6.9799125685e+00 3.8908110355e-05 1.9087549147e+00 -3.3060604914e+00 1.9087549147e+00 3.3060604914e+00 
90700 6.9799125685e+00 3.8868480502e-05 1.9087549147e+00 -3.3060604914e+00 1.9087549147e+00 3.3060604914e+00 
90800 6.9799125686e+00 3.8831265817e-05 1.9087549147e+00 -3.3060604914e+00 1.9087549147e+00 3.3060604914e+00 
90900 6.9799125686e+00 3.8796470655e-05 1.9087549147e+00 -3.3060604914e+00 1.9087549147e+00 3.3060604914e+00 
91000 6.9799125687e+00 3.8764095381e-05 1.9087549147e+00 -3.3060604914e+00 1.9087549147e+00 3.3060604914e+00 
91100 6.9799125687e+00 3.8750014530e-05 1.9087549147e+00 -3.3060604914e+00 1.9087549147e+00 3.3060604914e+00 
91100 6.9799125687e+00 3.8750014530e-05 1.9087549147e+00 -3.3060604914e+00 1.9087549147e+00 3.3060604914e+00 
