# step Hamiltonian StressXX CellTensor1 CellTensor2 CellTensor3 CellTensor4 
0 5.0639950737e+00 1.7328353192e-02 1.6185780433e+00 -2.8034594071e+00 1.6185780433e+00 2.8034594071e+00 
100 5.0484267528e+00 1.5752097197e-02 1.6185780433e+00 -2.8034594071e+00 1.6185780433e+00 2.8034594071e+00 
200 5.0338641095e+00 1.3918960855e-02 1.6180914648e+00 -2.8026166283e+00 1.6180914648e+00 2.8026166283e+00 
300 5.0202503915e+00 1.2349388778e-02 1.6176613796e+00 -2.8018716989e+00 1.6176613796e+00 2.8018716989e+00 
400 5.0075215252e+00 1.1022619111e-02 1.6172796896e+00 -2.8012105924e+00 1.6172796896e+00 2.8012105924e+00 
500 4.9956177536e+00 9.9190719045e-03 1.6169389250e+00 -2.8006203709e+00 1.6169389250e+00 2.8006203709e+00 
600 4.9844833279e+00 9.0202900471e-03 1.6166322110e+00 -2.8000891265e+00 1.6166322110e+00 2.8000891265e+00 
700 4.9740662280e+00 8.3088854757e-03 1.6163532350e+00 -2.7996059260e+00 1.6163532350e+00 2.7996059260e+00 
800 4.9643179067e+00 7.7684898120e-03 1.6160962161e+00 -2.7991607563e+00 1.6160962161e+00 2.7991607563e+00 
900 4.9551930569e+00 7.3837086503e-03 1.6158558747e+00 -2.7987444727e+00 1.6158558747e+00 2.7987444727e+00 
1000 4.9466493967e+00 7.1400788390e-03 1.6156274034e+00 -2.7983487488e+00 1.6156274034e+00 2.7983487488e+00 
1100 4.9386474721e+00 7.0240281916e-03 1.6154064392e+00 -2.7979660276e+00 1.6154064392e+00 2.7979660276e+00 
1200 4.9311504737e+00 7.0228371541e-03 1.6151890366e+00 -2.7975894752e+00 1.6151890366e+00 2.7975894752e+00 
1300 4.9241240671e+00 7.1246020449e-03 1.6149716416e+00 -2.7972129361e+00 1.6149716416e+00 2.7972129361e+00 
1400 4.9175362346e+00 7.3181995563e-03 1.6147510669e+00 -2.7968308894e+00 1.6147510669e+00 2.7968308894e+00 
1500 4.9113571276e+00 7.5932522800e-03 1.6145244676e+00 -2.7964384080e+00 1.6145244676e+00 2.7964384080e+00 
1600 4.9055589280e+00 7.9400950798e-03 1.6142893189e+00 -2.7960311184e+00 1.6142893189e+00 2.7960311184e+00 
1700 4.9001157188e+00 8.3497421891e-03 1.6140433935e+00 -2.7956051632e+00 1.6140433935e+00 2.7956051632e+00 
1800 4.8950033618e+00 8.8138549545e-03 1.6137847413e+00 -2.7951571643e+00 1.6137847413e+00 2.7951571643e+00 
1900 4.8901993832e+00 9.3247101884e-03 1.6135116687e+00 -2.7946841888e+00 1.6135116687e+00 2.7946841888e+00 
2000 4.8856828657e+00 9.8751691218e-03 1.6132227203e+00 -2.7941837155e+00 1.6132227203e+00 2.7941837155e+00 
2100 4.8814343463e+00 1.0458646973e-02 1.6129166604e+00 -2.7936536042e+00 1.6129166604e+00 2.7936536042e+00 
2200 4.8774357212e+00 1.1069083166e-02 1.6125924559e+00 -2.7930920655e+00 1.6125924559e+00 2.7930920655e+00 
2300 4.8736701545e+00 1.1700912247e-02 1.6122492604e+00 -2.7924976334e+00 1.6122492604e+00 2.7924976334e+00 
2400 4.8701219943e+00 1.2349035546e-02 1.6118863986e+00 -2.7918691384e+00 1.6118863986e+00 2.7918691384e+00 
2500 4.8667766918e+00 1.3008793650e-02 1.6115033521e+00 -2.7912056825e+00 1.6115033521e+00 2.7912056825e+00 
2600 4.8636207262e+00 1.3675939731e-02 1.6110997461e+00 -2.7905066163e+00 1.6110997461e+00 2.7905066163e+00 
2700 4.8606415342e+00 1.4346613793e-02 1.6106753360e+00 -2.7897715165e+00 1.6106753360e+00 2.7897715165e+00 
2800 4.8578274435e+00 1.5017317881e-02 1.6102299963e+00 -2.7890001655e+00 1.6102299963e+00 2.7890001655e+00 
2900 4.8551676102e+00 1.5684892282e-02 1.6097637091e+00 -2.7881925324e+00 1.6097637091e+00 2.7881925324e+00 
3000 4.8526519608e+00 1.6346492769e-02 1.6092765538e+00 -2.7873487546e+00 1.6092765538e+00 2.7873487546e+00 
3100 4.8502711374e+00 1.6999568887e-02 1.6087686972e+00 -2.7864691212e+00 1.6087686972e+00 2.7864691212e+00 
3200 4.8480164467e+00 1.7641843314e-02 1.6082403852e+00 -2.7855540579e+00 1.6082403852e+00 2.7855540579e+00 
3300 4.8458798122e+00 1.8271292288e-02 1.6076919336e+00 -2.7846041118e+00 1.6076919336e+00 2.7846041118e+00 
3400 4.8438537298e+00 1.8886127095e-02 1.6071237210e+00 -2.7836199388e+00 1.6071237210e+00 2.7836199388e+00 
3500 4.8419312268e+00 1.9484776618e-02 1.6065361814e+00 -2.7826022904e+00 1.6065361814e+00 2.7826022904e+00 
3600 4.8401058223e+00 2.0065870904e-02 1.6059297976e+00 -2.7815520028e+00 1.6059297976e+00 2.7815520028e+00 
3700 4.8383714926e+00 2.0628225741e-02 1.6053050950e+00 -2.7804699863e+00 1.6053050950e+00 2.7804699863e+00 
3800 4.8367226367e+00 2.1170828209e-02 1.6046626362e+00 -2.7793572149e+00 1.6046626362e+00 2.7793572149e+00 
3900 4.8351540463e+00 2.1692823155e-02 1.6040030154e+00 -2.7782147181e+00 1.6040030154e+00 2.7782147181e+00 
4000 4.8336608763e+00 2.2193500572e-02 1.6033268540e+00 -2.7770435723e+00 1.6033268540e+00 2.7770435723e+00 
4100 4.8322386186e+00 2.2672283817e-02 1.6026347960e+00 -2.7758448927e+00 1.6026347960e+00 2.7758448927e+00 
4200 4.8308830774e+00 2.3128718642e-02 1.6019275040e+00 -2.7746198270e+00 1.6019275040e+00 2.7746198270e+00 
4300 4.8295903460e+00 2.3562462981e-02 1.6012056555e+00 -2.7733695486e+00 1.6012056555e+00 2.7733695486e+00 
4400 4.8283567860e+00 2.3973277454e-02 1.6004699393e+00 -2.7720952509e+00 1.6004699393e+00 2.7720952509e+00 
4500 4.8271790072e+00 2.4361016536e-02 1.5997210528e+00 -2.7707981414e+00 1.5997210528e+00 2.7707981414e+00 
4600 4.8260538498e+00 2.4725620349e-02 1.5989596987e+00 -2.7694794374e+00 1.5989596987e+00 2.7694794374e+00 
4700 4.8249783673e+00 2.5067107040e-02 1.5981865827e+00 -2.7681403612e+00 1.5981865827e+00 2.7681403612e+00 
4800 4.8239498112e+00 2.5385565700e-02 1.5974024109e+00 -2.7667821359e+00 1.5974024109e+00 2.7667821359e+00 
4900 4.8229656162e+00 2.5681149777e-02 1.5966078879e+00 -2.7654059816e+00 1.5966078879e+00 2.7654059816e+00 
5000 4.8220233870e+00 2.5954070960e-02 1.5958037145e+00 -2.7640131124e+00 1.5958037145e+00 2.7640131124e+00 
5100 4.8211208861e+00 2.6204593493e-02 1.5949905861e+00 -2.7626047327e+00 1.5949905861e+00 2.7626047327e+00 
5200 4.8202560220e+00 2.6433028884e-02 1.5941691912e+00 -2.7611820350e+00 1.5941691912e+00 2.7611820350e+00 
5300 4.8194268389e+00 2.6639730986e-02 1.5933402097e+00 -2.7597461969e+00 1.5933402097e+00 2.7597461969e+00 
5400 4.8186315067e+00 2.6825091417e-02 1.5925043116e+00 -2.7582983789e+00 1.5925043116e+00 2.7582983789e+00 
5500 4.8178683121e+00 2.6989535298e-02 1.5916621561e+00 -2.7568397228e+00 1.5916621561e+00 2.7568397228e+00 
5600 4.8171356499e+00 2.7133517284e-02 1.5908143902e+00 -2.7553713492e+00 1.5908143902e+00 2.7553713492e+00 
5700 4.8164320154e+00 2.7257517868e-02 1.5899616480e+00 -2.7538943564e+00 1.5899616480e+00 2.7538943564e+00 
5800 4.8157559972e+00 2.7362039936e-02 1.5891045497e+00 -2.7524098186e+00 1.5891045497e+00 2.7524098186e+00 
5900 4.8151062705e+00 2.7447605567e-02 1.5882437011e+00 -2.7509187851e+00 1.5882437011e+00 2.7509187851e+00 
6000 4.8144815906e+00 2.7514753044e-02 1.5873796928e+00 -2.7494222788e+00 1.5873796928e+00 2.7494222788e+00 
6100 4.8138807879e+00 2.7564034080e-02 1.5865130996e+00 -2.7479212954e+00 1.5865130996e+00 2.7479212954e+00 
6200 4.8133027616e+00 2.7596011233e-02 1.5856444804e+00 -2.7464168027e+00 1.5856444804e+00 2.7464168027e+00 
6300 4.8127464759e+00 2.7611255510e-02 1.5847743772e+00 -2.7449097398e+00 1.5847743772e+00 2.7449097398e+00 
6400 4.8122109544e+00 2.7610344134e-02 1.5839033155e+00 -2.7434010167e+00 1.5839033155e+00 2.7434010167e+00 
6500 4.8116952767e+00 2.7593858487e-02 1.5830318036e+00 -2.7418915139e+00 1.5830318036e+00 2.7418915139e+00 
6600 4.8111985741e+00 2.7562382191e-02 1.5821603327e+00 -2.7403820819e+00 1.5821603327e+00 2.7403820819e+00 
6700 4.8107200260e+00 2.7516499350e-02 1.5812893763e+00 -2.7388735413e+00 1.5812893763e+00 2.7388735413e+00 
6800 4.8102588570e+00 2.7456792914e-02 1.5804193909e+00 -2.7373666823e+00 1.5804193909e+00 2.7373666823e+00 
6900 4.8098143332e+00 2.7383843190e-02 1.5795508152e+00 -2.7358622651e+00 1.5795508152e+00 2.7358622651e+00 
7000 4.8093857597e+00 2.7298226464e-02 1.5786840708e+00 -2.7343610197e+00 1.5786840708e+00 2.7343610197e+00 
7100 4.8089724781e+00 2.7200513747e-02 1.5778195618e+00 -2.7328636461e+00 1.5778195618e+00 2.7328636461e+00 
7200 4.8085738637e+00 2.7091269634e-02 1.5769576750e+00 -2.7313708145e+00 1.5769576750e+00 2.7313708145e+00 
7300 4.8081893237e+00 2.6971051263e-02 1.5760987804e+00 -2.7298831654e+00 1.5760987804e+00 2.7298831654e+00 
7400 4.8078182946e+00 2.6840407384e-02 1.5752432309e+00 -2.7284013102e+00 1.5752432309e+00 2.7284013102e+00 
7500 4.8074602409e+00 2.6699877512e-02 1.5743913629e+00 -2.7269258315e+00 1.5743913629e+00 2.7269258315e+00 
7600 4.8071146528e+00 2.6549991182e-02 1.5735434962e+00 -2.7254572834e+00 1.5735434962e+00 2.7254572834e+00 
7700 4.8067810446e+00 2.6391267281e-02 1.5726999346e+00 -2.7239961918e+00 1.5726999346e+00 2.7239961918e+00 
7800 4.8064589539e+00 2.6224213466e-02 1.5718609659e+00 -2.7225430555e+00 1.5718609659e+00 2.7225430555e+00 
7900 4.8061479390e+00 2.6049325655e-02 1.5710268625e+00 -2.7210983459e+00 1.5710268625e+00 2.7210983459e+00 
8000 4.8058475789e+00 2.5867087592e-02 1.5701978814e+00 -2.7196625084e+00 1.5701978814e+00 2.7196625084e+00 
8100 4.8055574709e+00 2.5677970478e-02 1.5693742646e+00 -2.7182359624e+00 1.5693742646e+00 2.7182359624e+00 
8200 4.8052772305e+00 2.5482432670e-02 1.5685562399e+00 -2.7168191021e+00 1.5685562399e+00 2.7168191021e+00 
8300 4.8050064898e+00 2.5280919431e-02 1.5677440206e+00 -2.7154122970e+00 1.5677440206e+00 2.7154122970e+00 
8400 4.8047448967e+00 2.5073862740e-02 1.5669378064e+00 -2.7140158930e+00 1.5669378064e+00 2.7140158930e+00 
8500 4.8044921140e+00 2.4861681160e-02 1.5661377833e+00 -2.7126302124e+00 1.5661377833e+00 2.7126302124e+00 
8600 4.8042478187e+00 2.4644779740e-02 1.5653441245e+00 -2.7112555550e+00 1.5653441245e+00 2.7112555550e+00 
8700 4.8040117011e+00 2.4423549977e-02 1.5645569905e+00 -2.7098921989e+00 1.5645569905e+00 2.7098921989e+00 
8800 4.8037834643e+00 2.4198369803e-02 1.5637765294e+00 -2.7085404006e+00 1.5637765294e+00 2.7085404006e+00 
8900 4.8035628232e+00 2.3969603627e-02 1.5630028775e+00 -2.7072003962e+00 1.5630028775e+00 2.7072003962e+00 
9000 4.8033495042e+00 2.3737602397e-02 1.5622361597e+00 -2.7058724020e+00 1.5622361597e+00 2.7058724020e+00 
9100 4.8031432447e+00 2.3502703702e-02 1.5614764897e+00 -2.7045566150e+00 1.5614764897e+00 2.7045566150e+00 
9200 4.8029437922e+00 2.3265231900e-02 1.5607239707e+00 -2.7032532139e+00 1.5607239707e+00 2.7032532139e+00 
9300 4.8027509042e+00 2.3025498273e-02 1.5599786955e+00 -2.7019623592e+00 1.5599786955e+00 2.7019623592e+00 
9400 4.8025643475e+00 2.2783801207e-02 1.5592407469e+00 -2.7006841948e+00 1.5592407469e+00 2.7006841948e+00 
9500 4.8023838978e+00 2.2540426388e-02 1.5585101983e+00 -2.6994188476e+00 1.5585101983e+00 2.6994188476e+00 
9600 4.8022093396e+00 2.2295647022e-02 1.5577871141e+00 -2.6981664290e+00 1.5577871141e+00 2.6981664290e+00 
9700 4.8020404651e+00 2.2049724071e-02 1.5570715497e+00 -2.6969270351e+00 1.5570715497e+00 2.6969270351e+00 
9800 4.8018770749e+00 2.1802906501e-02 1.5563635523e+00 -2.6957007477e+00 1.5563635523e+00 2.6957007477e+00 
9900 4.8017189765e+00 2.1555431543e-02 1.5556631610e+00 -2.6944876343e+00 1.5556631610e+00 2.6944876343e+00 
10000 4.8015659851e+00 2.1307524967e-02 1.5549704072e+00 -2.6932877496e+00 1.5549704072e+00 2.6932877496e+00 
10100 4.8014179223e+00 2.1059401362e-02 1.5542853151e+00 -2.6921011352e+00 1.5542853151e+00 2.6921011352e+00 
10200 4.8012746166e+00 2.0811264429e-02 1.5536079018e+00 -2.6909278209e+00 1.5536079018e+00 2.6909278209e+00 
10300 4.8011359027e+00 2.0563307270e-02 1.5529381778e+00 -2.6897678250e+00 1.5529381778e+00 2.6897678250e+00 
10400 4.8010016214e+00 2.0315712694e-02 1.5522761474e+00 -2.6886211548e+00 1.5522761474e+00 2.6886211548e+00 
10500 4.8008716193e+00 2.0068653515e-02 1.5516218088e+00 -2.6874878070e+00 1.5516218088e+00 2.6874878070e+00 
10600 4.8007457486e+00 1.9822292861e-02 1.5509751545e+00 -2.6863677689e+00 1.5509751545e+00 2.6863677689e+00 
10700 4.8006238670e+00 1.9576784476e-02 1.5503361716e+00 -2.6852610181e+00 1.5503361716e+00 2.6852610181e+00 
10800 4.8005058373e+00 1.9332273033e-02 1.5497048423e+00 -2.6841675235e+00 1.5497048423e+00 2.6841675235e+00 
10900 4.8003915271e+00 1.9088894432e-02 1.5490811436e+00 -2.6830872458e+00 1.5490811436e+00 2.6830872458e+00 
11000 4.8002808091e+00 1.8846776111e-02 1.5484650485e+00 -2.6820201377e+00 1.5484650485e+00 2.6820201377e+00 
11100 4.8001735604e+00 1.8606037344e-02 1.5478565252e+00 -2.6809661444e+00 1.5478565252e+00 2.6809661444e+00 
11200 4.8000696627e+00 1.8366789539e-02 1.5472555382e+00 -2.6799252044e+00 1.5472555382e+00 2.6799252044e+00 
11300 4.7999690018e+00 1.8129136536e-02 1.5466620481e+00 -2.6788972495e+00 1.5466620481e+00 2.6788972495e+00 
11400 4.7998714677e+00 1.7893174897e-02 1.5460760122e+00 -2.6778822055e+00 1.5460760122e+00 2.6778822055e+00 
11500 4.7997769543e+00 1.7658994193e-02 1.5454973842e+00 -2.6768799923e+00 1.5454973842e+00 2.6768799923e+00 
11600 4.7996853595e+00 1.7426677284e-02 1.5449261148e+00 -2.6758905248e+00 1.5449261148e+00 2.6758905248e+00 
11700 4.7995965847e+00 1.7196300596e-02 1.5443621520e+00 -2.6749137126e+00 1.5443621520e+00 2.6749137126e+00 
11800 4.7995105349e+00 1.6967934392e-02 1.5438054411e+00 -2.6739494609e+00 1.5438054411e+00 2.6739494609e+00 
11900 4.7994271185e+00 1.6741643037e-02 1.5432559247e+00 -2.6729976706e+00 1.5432559247e+00 2.6729976706e+00 
12000 4.7993462471e+00 1.6517485253e-02 1.5427135434e+00 -2.6720582387e+00 1.5427135434e+00 2.6720582387e+00 
12100 4.7992678357e+00 1.6295514375e-02 1.5421782357e+00 -2.6711310585e+00 1.5421782357e+00 2.6711310585e+00 
12200 4.7991918020e+00 1.6075778596e-02 1.5416499380e+00 -2.6702160201e+00 1.5416499380e+00 2.6702160201e+00 
12300 4.7991180670e+00 1.5858321202e-02 1.5411285852e+00 -2.6693130105e+00 1.5411285852e+00 2.6693130105e+00 
12400 4.7990465543e+00 1.5643180809e-02 1.5406141103e+00 -2.6684219139e+00 1.5406141103e+00 2.6684219139e+00 
12500 4.7989771903e+00 1.5430391586e-02 1.5401064451e+00 -2.6675426121e+00 1.5401064451e+00 2.6675426121e+00 
12600 4.7989099040e+00 1.5219983472e-02 1.5396055202e+00 -2.6666749846e+00 1.5396055202e+00 2.6666749846e+00 
12700 4.7988446270e+00 1.5011982392e-02 1.5391112647e+00 -2.6658189090e+00 1.5391112647e+00 2.6658189090e+00 
12800 4.7987812931e+00 1.4806410459e-02 1.5386236070e+00 -2.6649742611e+00 1.5386236070e+00 2.6649742611e+00 
12900 4.7987198388e+00 1.4603286170e-02 1.5381424745e+00 -2.6641409151e+00 1.5381424745e+00 2.6641409151e+00 
13000 4.7986602027e+00 1.4402624605e-02 1.5376677936e+00 -2.6633187437e+00 1.5376677936e+00 2.6633187437e+00 
13100 4.7986023254e+00 1.4204437603e-02 1.5371994905e+00 -2.6625076189e+00 1.5371994905e+00 2.6625076189e+00 
13200 4.7985461499e+00 1.4008733946e-02 1.5367374904e+00 -2.6617074113e+00 1.5367374904e+00 2.6617074113e+00 
13300 4.7984916210e+00 1.3815519528e-02 1.5362817183e+00 -2.6609179909e+00 1.5362817183e+00 2.6609179909e+00 
13400 4.7984386856e+00 1.3624797524e-02 1.5358320988e+00 -2.6601392270e+00 1.5358320988e+00 2.6601392270e+00 
13500 4.7983872923e+00 1.3436568544e-02 1.5353885561e+00 -2.6593709885e+00 1.5353885561e+00 2.6593709885e+00 
13600 4.7983373916e+00 1.3250830789e-02 1.5349510144e+00 -2.6586131441e+00 1.5349510144e+00 2.6586131441e+00 
13700 4.7982889359e+00 1.3067580198e-02 1.5345193977e+00 -2.6578655621e+00 1.5345193977e+00 2.6578655621e+00 
13800 4.7982418790e+00 1.2886810588e-02 1.5340936300e+00 -2.6571281108e+00 1.5340936300e+00 2.6571281108e+00 
13900 4.7981961763e+00 1.2708513790e-02 1.5336736354e+00 -2.6564006587e+00 1.5336736354e+00 2.6564006587e+00 
14000 4.7981517851e+00 1.2532679777e-02 1.5332593379e+00 -2.6556830745e+00 1.5332593379e+00 2.6556830745e+00 
14100 4.7981086638e+00 1.2359296790e-02 1.5328506620e+00 -2.6549752271e+00 1.5328506620e+00 2.6549752271e+00 
14200 4.7980667725e+00 1.2188351458e-02 1.5324475323e+00 -2.6542769858e+00 1.5324475323e+00 2.6542769858e+00 
14300 4.7980260726e+00 1.2019828906e-02 1.5320498735e+00 -2.6535882206e+00 1.5320498735e+00 2.6535882206e+00 
14400 4.7979865268e+00 1.1853712870e-02 1.5316576109e+00 -2.6529088019e+00 1.5316576109e+00 2.6529088019e+00 
14500 4.7979480990e+00 1.1689985797e-02 1.5312706702e+00 -2.6522386010e+00 1.5312706702e+00 2.6522386010e+00 
14600 4.7979107546e+00 1.1528628944e-02 1.5308889774e+00 -2.6515774896e+00 1.5308889774e+00 2.6515774896e+00 
14700 4.7978744600e+00 1.1369622474e-02 1.5305124591e+00 -2.6509253407e+00 1.5305124591e+00 2.6509253407e+00 
14800 4.7978391828e+00 1.1212945545e-02 1.5301410422e+00 -2.6502820278e+00 1.5301410422e+00 2.6502820278e+00 
14900 4.7978048916e+00 1.1058576392e-02 1.5297746545e+00 -2.6496474257e+00 1.5297746545e+00 2.6496474257e+00 
15000 4.7977715563e+00 1.0906492417e-02 1.5294132241e+00 -2.6490214099e+00 1.5294132241e+00 2.6490214099e+00 
15100 4.7977391475e+00 1.0756670256e-02 1.5290566799e+00 -2.6484038572e+00 1.5290566799e+00 2.6484038572e+00 
15200 4.7977076371e+00 1.0609085861e-02 1.5287049513e+00 -2.6477946455e+00 1.5287049513e+00 2.6477946455e+00 
15300 4.7976769979e+00 1.0463714563e-02 1.5283579686e+00 -2.6471936538e+00 1.5283579686e+00 2.6471936538e+00 
15400 4.7976472033e+00 1.0320531144e-02 1.5280156625e+00 -2.6466007623e+00 1.5280156625e+00 2.6466007623e+00 
15500 4.7976182280e+00 1.0179509894e-02 1.5276779647e+00 -2.6460158525e+00 1.5276779647e+00 2.6460158525e+00 
15600 4.7975900474e+00 1.0040624676e-02 1.5273448075e+00 -2.6454388072e+00 1.5273448075e+00 2.6454388072e+00 
15700 4.7975626375e+00 9.9038489764e-03 1.5270161239e+00 -2.6448695105e+00 1.5270161239e+00 2.6448695105e+00 
15800 4.7975359754e+00 9.7691559628e-03 1.5266918477e+00 -2.6443078477e+00 1.5266918477e+00 2.6443078477e+00 
15900 4.7975100389e+00 9.6365185311e-03 1.5263719136e+00 -2.6437537057e+00 1.5263719136e+00 2.6437537057e+00 
16000 4.7974848063e+00 9.5059093537e-03 1.5260562571e+00 -2.6432069724e+00 1.5260562571e+00 2.6432069724e+00 
16100 4.7974602569e+00 9.3773009239e-03 1.5257448142e+00 -2.6426675376e+00 1.5257448142e+00 2.6426675376e+00 
16200 4.7974363706e+00 9.2506655977e-03 1.5254375221e+00 -2.6421352921e+00 1.5254375221e+00 2.6421352921e+00 
16300 4.7974131277e+00 9.1259756331e-03 1.5251343187e+00 -2.6416101283e+00 1.5251343187e+00 2.6416101283e+00 
16400 4.7973905096e+00 9.0032032273e-03 1.5248351425e+00 -2.6410919400e+00 1.5248351425e+00 2.6410919400e+00 
16500 4.7973684979e+00 8.8823205510e-03 1.5245399331e+00 -2.6405806223e+00 1.5245399331e+00 2.6405806223e+00 
16600 4.7973470751e+00 8.7632997811e-03 1.5242486309e+00 -2.6400760720e+00 1.5242486309e+00 2.6400760720e+00 
16700 4.7973262239e+00 8.6461131310e-03 1.5239611770e+00 -2.6395781873e+00 1.5239611770e+00 2.6395781873e+00 
16800 4.7973059279e+00 8.5307328791e-03 1.5236775134e+00 -2.6390868676e+00 1.5236775134e+00 2.6390868676e+00 
16900 4.7972861710e+00 8.4171313952e-03 1.5233975831e+00 -2.6386020140e+00 1.5233975831e+00 2.6386020140e+00 
17000 4.7972669378e+00 8.3052811648e-03 1.5231213296e+00 -2.6381235290e+00 1.5231213296e+00 2.6381235290e+00 
17100 4.7972482133e+00 8.1951548127e-03 1.5228486976e+00 -2.6376513165e+00 1.5228486976e+00 2.6376513165e+00 
17200 4.7972299828e+00 8.0867251236e-03 1.5225796323e+00 -2.6371852818e+00 1.5225796323e+00 2.6371852818e+00 
17300 4.7972122324e+00 7.9799650621e-03 1.5223140800e+00 -2.6367253317e+00 1.5223140800e+00 2.6367253317e+00 
17400 4.7971949483e+00 7.8748477909e-03 1.5220519877e+00 -2.6362713745e+00 1.5220519877e+00 2.6362713745e+00 
17500 4.7971781174e+00 7.7713466875e-03 1.5217933033e+00 -2.6358233199e+00 1.5217933033e+00 2.6358233199e+00 
17600 4.7971617268e+00 7.6694353595e-03 1.5215379752e+00 -2.6353810788e+00 1.5215379752e+00 2.6353810788e+00 
17700 4.7971457642e+00 7.5690876586e-03 1.5212859532e+00 -2.6349445637e+00 1.5212859532e+00 2.6349445637e+00 
17800 4.7971302176e+00 7.4702776939e-03 1.5210371873e+00 -2.6345136885e+00 1.5210371873e+00 2.6345136885e+00 
17900 4.7971150752e+00 7.3729798434e-03 1.5207916286e+00 -2.6340883685e+00 1.5207916286e+00 2.6340883685e+00 
18000 4.7971003258e+00 7.2771687644e-03 1.5205492291e+00 -2.6336685201e+00 1.5205492291e+00 2.6336685201e+00 
18100 4.7970859584e+00 7.1828194035e-03 1.5203099413e+00 -2.6332540615e+00 1.5203099413e+00 2.6332540615e+00 
18200 4.7970719625e+00 7.0899070050e-03 1.5200737186e+00 -2.6328449118e+00 1.5200737186e+00 2.6328449118e+00 
18300 4.7970583277e+00 6.9984071184e-03 1.5198405152e+00 -2.6324409918e+00 1.5198405152e+00 2.6324409918e+00 
18400 4.7970450440e+00 6.9082956055e-03 1.5196102861e+00 -2.6320422233e+00 1.5196102861e+00 2.6320422233e+00 
18500 4.7970321018e+00 6.8195486463e-03 1.5193829870e+00 -2.6316485296e+00 1.5193829870e+00 2.6316485296e+00 
18600 4.7970194916e+00 6.7321427439e-03 1.5191585741e+00 -2.6312598351e+00 1.5191585741e+00 2.6312598351e+00 
18700 4.7970072045e+00 6.6460547295e-03 1.5189370048e+00 -2.6308760658e+00 1.5189370048e+00 2.6308760658e+00 
18800 4.7969952314e+00 6.5612617653e-03 1.5187182368e+00 -2.6304971486e+00 1.5187182368e+00 2.6304971486e+00 
18900 4.7969835639e+00 6.4777413485e-03 1.5185022288e+00 -2.6301230117e+00 1.5185022288e+00 2.6301230117e+00 
19000 4.7969721936e+00 6.3954713130e-03 1.5182889400e+00 -2.6297535847e+00 1.5182889400e+00 2.6297535847e+00 
19100 4.7969611125e+00 6.3144298320e-03 1.5180783305e+00 -2.6293887982e+00 1.5180783305e+00 2.6293887982e+00 
19200 4.7969503127e+00 6.2345954187e-03 1.5178703608e+00 -2.6290285842e+00 1.5178703608e+00 2.6290285842e+00 
19300 4.7969397867e+00 6.1559469274e-03 1.5176649923e+00 -2.6286728755e+00 1.5176649923e+00 2.6286728755e+00 
19400 4.7969295270e+00 6.0784635541e-03 1.5174621870e+00 -2.6283216064e+00 1.5174621870e+00 2.6283216064e+00 
19500 4.7969195264e+00 6.0021248361e-03 1.5172619076e+00 -2.6279747123e+00 1.5172619076e+00 2.6279747123e+00 
19600 4.7969097781e+00 5.9269106516e-03 1.5170641172e+00 -2.6276321294e+00 1.5170641172e+00 2.6276321294e+00 
19700 4.7969002752e+00 5.8528012188e-03 1.5168687800e+00 -2.6272937953e+00 1.5168687800e+00 2.6272937953e+00 
19800 4.7968910112e+00 5.7797770947e-03 1.5166758603e+00 -2.6269596486e+00 1.5166758603e+00 2.6269596486e+00 
19900 4.7968819798e+00 5.7078191737e-03 1.5164853233e+00 -2.6266296289e+00 1.5164853233e+00 2.6266296289e+00 
20000 4.7968731746e+00 5.6369086853e-03 1.5162971348e+00 -2.6263036769e+00 1.5162971348e+00 2.6263036769e+00 
20100 4.7968645899e+00 5.5670271924e-03 1.5161112612e+00 -2.6259817343e+00 1.5161112612e+00 2.6259817343e+00 
20200 4.7968562196e+00 5.4981565884e-03 1.5159276693e+00 -2.6256637438e+00 1.5159276693e+00 2.6256637438e+00 
20300 4.7968480581e+00 5.4302790950e-03 1.5157463266e+00 -2.6253496491e+00 1.5157463266e+00 2.6253496491e+00 
20400 4.7968401000e+00 5.3633772590e-03 1.5155672013e+00 -2.6250393949e+00 1.5155672013e+00 2.6250393949e+00 
20500 4.7968323398e+00 5.2974339490e-03 1.5153902618e+00 -2.6247329268e+00 1.5153902618e+00 2.6247329268e+00 
20600 4.7968247724e+00 5.2324323528e-03 1.5152154774e+00 -2.6244301913e+00 1.5152154774e+00 2.6244301913e+00 
20700 4.7968173926e+00 5.1683559733e-03 1.5150428177e+00 -2.6241311359e+00 1.5150428177e+00 2.6241311359e+00 
20800 4.7968101957e+00 5.1051886250e-03 1.5148722529e+00 -2.6238357090e+00 1.5148722529e+00 2.6238357090e+00 
20900 4.7968031768e+00 5.0429144304e-03 1.5147037538e+00 -2.6235438599e+00 1.5147037538e+00 2.6235438599e+00 
21000 4.7967963312e+00 4.9815178163e-03 1.5145372914e+00 -2.6232555387e+00 1.5145372914e+00 2.6232555387e+00 
21100 4.7967896545e+00 4.9209835092e-03 1.5143728377e+00 -2.6229706964e+00 1.5143728377e+00 2.6229706964e+00 
21200 4.7967831423e+00 4.8612965318e-03 1.5142103646e+00 -2.6226892848e+00 1.5142103646e+00 2.6226892848e+00 
21300 4.7967767903e+00 4.8024421986e-03 1.5140498449e+00 -2.6224112566e+00 1.5140498449e+00 2.6224112566e+00 
21400 4.7967705944e+00 4.7444061116e-03 1.5138912518e+00 -2.6221365653e+00 1.5138912518e+00 2.6221365653e+00 
21500 4.7967645505e+00 4.6871741561e-03 1.5137345588e+00 -2.6218651650e+00 1.5137345588e+00 2.6218651650e+00 
21600 4.7967586547e+00 4.6307324962e-03 1.5135797399e+00 -2.6215970108e+00 1.5135797399e+00 2.6215970108e+00 
21700 4.7967529032e+00 4.5750675706e-03 1.5134267696e+00 -2.6213320585e+00 1.5134267696e+00 2.6213320585e+00 
21800 4.7967472923e+00 4.5201660878e-03 1.5132756228e+00 -2.6210702646e+00 1.5132756228e+00 2.6210702646e+00 
21900 4.7967418184e+00 4.4660150220e-03 1.5131262749e+00 -2.6208115864e+00 1.5131262749e+00 2.6208115864e+00 
22000 4.7967364780e+00 4.4126016084e-03 1.5129787015e+00 -2.6205559818e+00 1.5129787015e+00 2.6205559818e+00 
22100 4.7967312677e+00 4.3599133387e-03 1.5128328789e+00 -2.6203034096e+00 1.5128328789e+00 2.6203034096e+00 
22200 4.7967261841e+00 4.3079379567e-03 1.5126887835e+00 -2.6200538291e+00 1.5126887835e+00 2.6200538291e+00 
22300 4.7967212240e+00 4.2566634534e-03 1.5125463924e+00 -2.6198072004e+00 1.5125463924e+00 2.6198072004e+00 
22400 4.7967163843e+00 4.2060780632e-03 1.5124056827e+00 -2.6195634841e+00 1.5124056827e+00 2.6195634841e+00 
22500 4.7967116620e+00 4.1561702586e-03 1.5122666323e+00 -2.6193226417e+00 1.5122666323e+00 2.6193226417e+00 
22600 4.7967070540e+00 4.1069287464e-03 1.5121292191e+00 -2.6190846351e+00 1.5121292191e+00 2.6190846351e+00 
22700 4.7967025574e+00 4.0583424628e-03 1.5119934216e+00 -2.6188494269e+00 1.5119934216e+00 2.6188494269e+00 
22800 4.7966981695e+00 4.0104005690e-03 1.5118592186e+00 -2.6186169804e+00 1.5118592186e+00 2.6186169804e+00 
22900 4.7966938875e+00 3.9630924472e-03 1.5117265891e+00 -2.6183872594e+00 1.5117265891e+00 2.6183872594e+00 
23000 4.7966897087e+00 3.9164076955e-03 1.5115955126e+00 -2.6181602284e+00 1.5115955126e+00 2.6181602284e+00 
23100 4.7966856306e+00 3.8703361244e-03 1.5114659690e+00 -2.6179358522e+00 1.5114659690e+00 2.6179358522e+00 
23200 4.7966816506e+00 3.8248677520e-03 1.5113379383e+00 -2.6177140965e+00 1.5113379383e+00 2.6177140965e+00 
23300 4.7966777662e+00 3.7799927996e-03 1.5112114009e+00 -2.6174949273e+00 1.5112114009e+00 2.6174949273e+00 
23400 4.7966739751e+00 3.7357016882e-03 1.5110863376e+00 -2.6172783114e+00 1.5110863376e+00 2.6172783114e+00 
23500 4.7966702748e+00 3.6919850334e-03 1.5109627295e+00 -2.6170642159e+00 1.5109627295e+00 2.6170642159e+00 
23600 4.7966666633e+00 3.6488336422e-03 1.5108405579e+00 -2.6168526084e+00 1.5108405579e+00 2.6168526084e+00 
23700 4.7966631382e+00 3.6062385083e-03 1.5107198044e+00 -2.6166434573e+00 1.5107198044e+00 2.6166434573e+00 
23800 4.7966596974e+00 3.5641908085e-03 1.5106004510e+00 -2.6164367311e+00 1.5106004510e+00 2.6164367311e+00 
23900 4.7966563388e+00 3.5226818985e-03 1.5104824799e+00 -2.6162323991e+00 1.5104824799e+00 2.6162323991e+00 
24000 4.7966530603e+00 3.4817033092e-03 1.5103658736e+00 -2.6160304310e+00 1.5103658736e+00 2.6160304310e+00 
24100 4.7966498600e+00 3.4412467426e-03 1.5102506148e+00 -2.6158307970e+00 1.5102506148e+00 2.6158307970e+00 
24200 4.7966467360e+00 3.4013040684e-03 1.5101366865e+00 -2.6156334675e+00 1.5101366865e+00 2.6156334675e+00 
24300 4.7966436862e+00 3.3618673201e-03 1.5100240722e+00 -2.6154384137e+00 1.5100240722e+00 2.6154384137e+00 
24400 4.7966407090e+00 3.3229286914e-03 1.5099127552e+00 -2.6152456070e+00 1.5099127552e+00 2.6152456070e+00 
24500 4.7966378026e+00 3.2844805324e-03 1.5098027194e+00 -2.6150550195e+00 1.5098027194e+00 2.6150550195e+00 
24600 4.7966349651e+00 3.2465153464e-03 1.5096939489e+00 -2.6148666234e+00 1.5096939489e+00 2.6148666234e+00 
24700 4.7966321949e+00 3.2090257864e-03 1.5095864279e+00 -2.6146803915e+00 1.5095864279e+00 2.6146803915e+00 
24800 4.7966294904e+00 3.1720046514e-03 1.5094801409e+00 -2.6144962970e+00 1.5094801409e+00 2.6144962970e+00 
24900 4.7966268498e+00 3.1354448834e-03 1.5093750727e+00 -2.6143143135e+00 1.5093750727e+00 2.6143143135e+00 
25000 4.7966242718e+00 3.0993395640e-03 1.5092712082e+00 -2.6141344150e+00 1.5092712082e+00 2.6141344150e+00 
25100 4.7966217546e+00 3.0636819110e-03 1.5091685327e+00 -2.6139565757e+00 1.5091685327e+00 2.6139565757e+00 
25200 4.7966192969e+00 3.0284652759e-03 1.5090670315e+00 -2.6137807706e+00 1.5090670315e+00 2.6137807706e+00 
25300 4.7966168972e+00 2.9936831398e-03 1.5089666903e+00 -2.6136069745e+00 1.5089666903e+00 2.6136069745e+00 
25400 4.7966145541e+00 2.9593291114e-03 1.5088674949e+00 -2.6134351631e+00 1.5088674949e+00 2.6134351631e+00 
25500 4.7966122661e+00 2.9253969233e-03 1.5087694314e+00 -2.6132653121e+00 1.5087694314e+00 2.6132653121e+00 
25600 4.7966100321e+00 2.8918804295e-03 1.5086724860e+00 -2.6130973977e+00 1.5086724860e+00 2.6130973977e+00 
25700 4.7966078505e+00 2.8587736025e-03 1.5085766451e+00 -2.6129313964e+00 1.5085766451e+00 2.6129313964e+00 
25800 4.7966057203e+00 2.8260705304e-03 1.5084818954e+00 -2.6127672851e+00 1.5084818954e+00 2.6127672851e+00 
25900 4.7966036401e+00 2.7937654143e-03 1.5083882237e+00 -2.6126050410e+00 1.5083882237e+00 2.6126050410e+00 
26000 4.7966016087e+00 2.7618525656e-03 1.5082956170e+00 -2.6124446415e+00 1.5082956170e+00 2.6124446415e+00 
26100 4.7965996249e+00 2.7303264034e-03 1.5082040625e+00 -2.6122860645e+00 1.5082040625e+00 2.6122860645e+00 
26200 4.7965976877e+00 2.6991814520e-03 1.5081135476e+00 -2.6121292881e+00 1.5081135476e+00 2.6121292881e+00 
26300 4.7965957958e+00 2.6684123383e-03 1.5080240598e+00 -2.6119742907e+00 1.5080240598e+00 2.6119742907e+00 
26400 4.7965939481e+00 2.6380137896e-03 1.5079355869e+00 -2.6118210511e+00 1.5079355869e+00 2.6118210511e+00 
26500 4.7965921437e+00 2.6079806310e-03 1.5078481167e+00 -2.6116695482e+00 1.5078481167e+00 2.6116695482e+00 
26600 4.7965903815e+00 2.5783077833e-03 1.5077616373e+00 -2.6115197616e+00 1.5077616373e+00 2.6115197616e+00 
26700 4.7965886604e+00 2.5489902605e-03 1.5076761370e+00 -2.6113716706e+00 1.5076761370e+00 2.6113716706e+00 
26800 4.7965869795e+00 2.5200231678e-03 1.5075916040e+00 -2.6112252552e+00 1.5075916040e+00 2.6112252552e+00 
26900 4.7965853378e+00 2.4914016993e-03 1.5075080270e+00 -2.6110804956e+00 1.5075080270e+00 2.6110804956e+00 
27000 4.7965837343e+00 2.4631211361e-03 1.5074253946e+00 -2.6109373721e+00 1.5074253946e+00 2.6109373721e+00 
27100 4.7965821682e+00 2.4351768440e-03 1.5073436958e+00 -2.6107958655e+00 1.5073436958e+00 2.6107958655e+00 
27200 4.7965806386e+00 2.4075642717e-03 1.5072629194e+00 -2.6106559568e+00 1.5072629194e+00 2.6106559568e+00 
27300 4.7965791446e+00 2.3802789487e-03 1.5071830547e+00 -2.6105176270e+00 1.5071830547e+00 2.6105176270e+00 
27400 4.7965776853e+00 2.3533164834e-03 1.5071040909e+00 -2.6103808577e+00 1.5071040909e+00 2.6103808577e+00 
27500 4.7965762599e+00 2.3266725616e-03 1.5070260174e+00 -2.6102456305e+00 1.5070260174e+00 2.6102456305e+00 
27600 4.7965748676e+00 2.3003429442e-03 1.5069488239e+00 -2.6101119274e+00 1.5069488239e+00 2.6101119274e+00 
27700 4.7965735077e+00 2.2743234656e-03 1.5068725000e+00 -2.6099797306e+00 1.5068725000e+00 2.6099797306e+00 
27800 4.7965721793e+00 2.2486100321e-03 1.5067970356e+00 -2.6098490224e+00 1.5067970356e+00 2.6098490224e+00 
27900 4.7965708817e+00 2.2231986203e-03 1.5067224207e+00 -2.6097197855e+00 1.5067224207e+00 2.6097197855e+00 
28000 4.7965696142e+00 2.1980852750e-03 1.5066486453e+00 -2.6095920028e+00 1.5066486453e+00 2.6095920028e+00 
28100 4.7965683760e+00 2.1732661081e-03 1.5065756997e+00 -2.6094656573e+00 1.5065756997e+00 2.6094656573e+00 
28200 4.7965671665e+00 2.1487372971e-03 1.5065035743e+00 -2.6093407324e+00 1.5065035743e+00 2.6093407324e+00 
28300 4.7965659850e+00 2.1244950831e-03 1.5064322595e+00 -2.6092172115e+00 1.5064322595e+00 2.6092172115e+00 
28400 4.7965648308e+00 2.1005357696e-03 1.5063617459e+00 -2.6090950784e+00 1.5063617459e+00 2.6090950784e+00 
28500 4.7965637032e+00 2.0768557213e-03 1.5062920243e+00 -2.6089743171e+00 1.5062920243e+00 2.6089743171e+00 
28600 4.7965626018e+00 2.0534513624e-03 1.5062230854e+00 -2.6088549115e+00 1.5062230854e+00 2.6088549115e+00 
28700 4.7965615258e+00 2.0303191751e-03 1.5061549204e+00 -2.6087368462e+00 1.5061549204e+00 2.6087368462e+00 
28800 4.7965604746e+00 2.0074556989e-03 1.5060875201e+00 -2.6086201055e+00 1.5060875201e+00 2.6086201055e+00 
28900 4.7965594476e+00 1.9848575287e-03 1.5060208759e+00 -2.6085046743e+00 1.5060208759e+00 2.6085046743e+00 
29000 4.7965584444e+00 1.9625213138e-03 1.5059549790e+00 -2.6083905375e+00 1.5059549790e+00 2.6083905375e+00 
29100 4.7965574642e+00 1.9404437567e-03 1.5058898208e+00 -2.6082776801e+00 1.5058898208e+00 2.6082776801e+00 
29200 4.7965565067e+00 1.9186216119e-03 1.5058253927e+00 -2.6081660875e+00 1.5058253927e+00 2.6081660875e+00 
29300 4.7965555712e+00 1.8970516848e-03 1.5057616865e+00 -2.6080557452e+00 1.5057616865e+00 2.6080557452e+00 
29400 4.7965546572e+00 1.8757308302e-03 1.5056986939e+00 -2.6079466387e+00 1.5056986939e+00 2.6079466387e+00 
29500 4.7965537643e+00 1.8546559519e-03 1.5056364066e+00 -2.6078387539e+00 1.5056364066e+00 2.6078387539e+00 
29600 4.7965528919e+00 1.8338240011e-03 1.5055748166e+00 -2.6077320769e+00 1.5055748166e+00 2.6077320769e+00 
29700 4.7965520396e+00 1.8132319753e-03 1.5055139159e+00 -2.6076265938e+00 1.5055139159e+00 2.6076265938e+00 
29800 4.7965512069e+00 1.7928769180e-03 1.5054536966e+00 -2.6075222909e+00 1.5054536966e+00 2.6075222909e+00 
29900 4.7965503933e+00 1.7727559167e-03 1.5053941509e+00 -2.6074191548e+00 1.5053941509e+00 2.6074191548e+00 
30000 4.7965495984e+00 1.7528661029e-03 1.5053352712e+00 -2.6073171721e+00 1.5053352712e+00 2.6073171721e+00 
30100 4.7965488217e+00 1.7332046506e-03 1.5052770497e+00 -2.6072163296e+00 1.5052770497e+00 2.6072163296e+00 
30200 4.7965480629e+00 1.7137687755e-03 1.5052194792e+00 -2.6071166144e+00 1.5052194792e+00 2.6071166144e+00 
30300 4.7965473215e+00 1.6945557343e-03 1.5051625520e+00 -2.6070180137e+00 1.5051625520e+00 2.6070180137e+00 
30400 4.7965465970e+00 1.6755628237e-03 1.5051062609e+00 -2.6069205146e+00 1.5051062609e+00 2.6069205146e+00 
30500 4.7965458892e+00 1.6567873796e-03 1.5050505986e+00 -2.6068241048e+00 1.5050505986e+00 2.6068241048e+00 
30600 4.7965451977e+00 1.6382267764e-03 1.5049955580e+00 -2.6067287717e+00 1.5049955580e+00 2.6067287717e+00 
30700 4.7965445219e+00 1.6198784258e-03 1.5049411321e+00 -2.6066345031e+00 1.5049411321e+00 2.6066345031e+00 
30800 4.7965438617e+00 1.6017397768e-03 1.5048873137e+00 -2.6065412870e+00 1.5048873137e+00 2.6065412870e+00 
30900 4.7965432165e+00 1.5838083142e-03 1.5048340961e+00 -2.6064491114e+00 1.5048340961e+00 2.6064491114e+00 
31000 4.7965425862e+00 1.5660815582e-03 1.5047814724e+00 -2.6063579645e+00 1.5047814724e+00 2.6063579645e+00 
31100 4.7965419702e+00 1.5485570639e-03 1.5047294358e+00 -2.6062678345e+00 1.5047294358e+00 2.6062678345e+00 
31200 4.7965413684e+00 1.5312324202e-03 1.5046779798e+00 -2.6061787101e+00 1.5046779798e+00 2.6061787101e+00 
31300 4.7965407803e+00 1.5141052494e-03 1.5046270977e+00 -2.6060905797e+00 1.5046270977e+00 2.6060905797e+00 
31400 4.7965402057e+00 1.4971732066e-03 1.5045767830e+00 -2.6060034321e+00 1.5045767830e+00 2.6060034321e+00 
31500 4.7965396442e+00 1.4804339787e-03 1.5045270293e+00 -2.6059172561e+00 1.5045270293e+00 2.6059172561e+00 
31600 4.7965390956e+00 1.4638852844e-03 1.5044778303e+00 -2.6058320409e+00 1.5044778303e+00 2.6058320409e+00 
31700 4.7965385595e+00 1.4475248729e-03 1.5044291796e+00 -2.6057477754e+00 1.5044291796e+00 2.6057477754e+00 
31800 4.7965380356e+00 1.4313505240e-03 1.5043810711e+00 -2.6056644490e+00 1.5043810711e+00 2.6056644490e+00 
31900 4.7965375237e+00 1.4153600471e-03 1.5043334986e+00 -2.6055820511e+00 1.5043334986e+00 2.6055820511e+00 
32000 4.7965370235e+00 1.3995512805e-03 1.5042864561e+00 -2.6055005711e+00 1.5042864561e+00 2.6055005711e+00 
32100 4.7965365348e+00 1.3839220916e-03 1.5042399375e+00 -2.6054199986e+00 1.5042399375e+00 2.6054199986e+00 
32200 4.7965360571e+00 1.3684703756e-03 1.5041939371e+00 -2.6053403234e+00 1.5041939371e+00 2.6053403234e+00 
32300 4.7965355904e+00 1.3531940553e-03 1.5041484488e+00 -2.6052615354e+00 1.5041484488e+00 2.6052615354e+00 
32400 4.7965351344e+00 1.3380910808e-03 1.5041034670e+00 -2.6051836246e+00 1.5041034670e+00 2.6051836246e+00 
32500 4.7965346887e+00 1.3231594285e-03 1.5040589858e+00 -2.6051065810e+00 1.5040589858e+00 2.6051065810e+00 
32600 4.7965342532e+00 1.3083971013e-03 1.5040149998e+00 -2.6050303949e+00 1.5040149998e+00 2.6050303949e+00 
32700 4.7965338277e+00 1.2938021276e-03 1.5039715032e+00 -2.6049550566e+00 1.5039715032e+00 2.6049550566e+00 
32800 4.7965334118e+00 1.2793725612e-03 1.5039284905e+00 -2.6048805565e+00 1.5039284905e+00 2.6048805565e+00 
32900 4.7965330055e+00 1.2651064806e-03 1.5038859563e+00 -2.6048068852e+00 1.5038859563e+00 2.6048068852e+00 
33000 4.7965326084e+00 1.2510019886e-03 1.5038438953e+00 -2.6047340333e+00 1.5038438953e+00 2.6047340333e+00 
33100 4.7965322204e+00 1.2370572124e-03 1.5038023020e+00 -2.6046619916e+00 1.5038023020e+00 2.6046619916e+00 
33200 4.7965318412e+00 1.2232703024e-03 1.5037611712e+00 -2.6045907510e+00 1.5037611712e+00 2.6045907510e+00 
33300 4.7965314706e+00 1.2096394323e-03 1.5037204977e+00 -2.6045203024e+00 1.5037204977e+00 2.6045203024e+00 
33400 4.7965311085e+00 1.1961627988e-03 1.5036802763e+00 -2.6044506370e+00 1.5036802763e+00 2.6044506370e+00 
33500 4.7965307547e+00 1.1828386208e-03 1.5036405020e+00 -2.6043817458e+00 1.5036405020e+00 2.6043817458e+00 
33600 4.7965304089e+00 1.1696651394e-03 1.5036011697e+00 -2.6043136202e+00 1.5036011697e+00 2.6043136202e+00 
33700 4.7965300710e+00 1.1566406174e-03 1.5035622744e+00 -2.6042462516e+00 1.5035622744e+00 2.6042462516e+00 
33800 4.7965297408e+00 1.1437633391e-03 1.5035238112e+00 -2.6041796314e+00 1.5035238112e+00 2.6041796314e+00 
33900 4.7965294181e+00 1.1310316099e-03 1.5034857753e+00 -2.6041137512e+00 1.5034857753e+00 2.6041137512e+00 
34000 4.7965291027e+00 1.1184437556e-03 1.5034481618e+00 -2.6040486028e+00 1.5034481618e+00 2.6040486028e+00 
34100 4.7965287946e+00 1.1059981227e-03 1.5034109660e+00 -2.6039841778e+00 1.5034109660e+00 2.6039841778e+00 
34200 4.7965284935e+00 1.0936930778e-03 1.5033741832e+00 -2.6039204681e+00 1.5033741832e+00 2.6039204681e+00 
34300 4.7965281992e+00 1.0815270071e-03 1.5033378087e+00 -2.6038574656e+00 1.5033378087e+00 2.6038574656e+00 
34400 4.7965279116e+00 1.0694983165e-03 1.5033018380e+00 -2.6037951625e+00 1.5033018380e+00 2.6037951625e+00 
34500 4.7965276306e+00 1.0576054309e-03 1.5032662665e+00 -2.6037335509e+00 1.5032662665e+00 2.6037335509e+00 
34600 4.7965273560e+00 1.0458467943e-03 1.5032310897e+00 -2.6036726229e+00 1.5032310897e+00 2.6036726229e+00 
34700 4.7965270877e+00 1.0342208693e-03 1.5031963032e+00 -2.6036123709e+00 1.5031963032e+00 2.6036123709e+00 
34800 4.7965268254e+00 1.0227261369e-03 1.5031619026e+00 -2.6035527874e+00 1.5031619026e+00 2.6035527874e+00 
34900 4.7965265691e+00 1.0113610959e-03 1.5031278836e+00 -2.6034938647e+00 1.5031278836e+00 2.6034938647e+00 
35000 4.7965263187e+00 1.0001242634e-03 1.5030942418e+00 -2.6034355954e+00 1.5030942418e+00 2.6034355954e+00 
35100 4.7965260740e+00 9.8901417379e-04 1.5030609731e+00 -2.6033779723e+00 1.5030609731e+00 2.6033779723e+00 
35200 4.7965258348e+00 9.7802937892e-04 1.5030280732e+00 -2.6033209880e+00 1.5030280732e+00 2.6033209880e+00 
35300 4.7965256011e+00 9.6716844771e-04 1.5029955381e+00 -2.6032646355e+00 1.5029955381e+00 2.6032646355e+00 
35400 4.7965253727e+00 9.5642996594e-04 1.5029633635e+00 -2.6032089075e+00 1.5029633635e+00 2.6032089075e+00 
35500 4.7965251496e+00 9.4581253602e-04 1.5029315454e+00 -2.6031537970e+00 1.5029315454e+00 2.6031537970e+00 
35600 4.7965249315e+00 9.3531477677e-04 1.5029000800e+00 -2.6030992972e+00 1.5029000800e+00 2.6030992972e+00 
35700 4.7965247184e+00 9.2493532319e-04 1.5028689631e+00 -2.6030454012e+00 1.5028689631e+00 2.6030454012e+00 
35800 4.7965245101e+00 9.1467282623e-04 1.5028381909e+00 -2.6029921021e+00 1.5028381909e+00 2.6029921021e+00 
35900 4.7965243066e+00 9.0452595259e-04 1.5028077594e+00 -2.6029393934e+00 1.5028077594e+00 2.6029393934e+00 
36000 4.7965241077e+00 8.9449338452e-04 1.5027776650e+00 -2.6028872683e+00 1.5027776650e+00 2.6028872683e+00 
36100 4.7965239134e+00 8.8457381958e-04 1.5027479038e+00 -2.6028357203e+00 1.5027479038e+00 2.6028357203e+00 
36200 4.7965237234e+00 8.7476597047e-04 1.5027184720e+00 -2.6027847430e+00 1.5027184720e+00 2.6027847430e+00 
36300 4.7965235379e+00 8.6506856484e-04 1.5026893660e+00 -2.6027343299e+00 1.5026893660e+00 2.6027343299e+00 
36400 4.7965233565e+00 8.5548034505e-04 1.5026605821e+00 -2.6026844747e+00 1.5026605821e+00 2.6026844747e+00 
36500 4.7965231793e+00 8.4600006803e-04 1.5026321166e+00 -2.6026351711e+00 1.5026321166e+00 2.6026351711e+00 
36600 4.7965230061e+00 8.3662650506e-04 1.5026039661e+00 -2.6025864130e+00 1.5026039661e+00 2.6025864130e+00 
36700 4.7965228369e+00 8.2735844161e-04 1.5025761270e+00 -2.6025381942e+00 1.5025761270e+00 2.6025381942e+00 
36800 4.7965226715e+00 8.1819467714e-04 1.5025485957e+00 -2.6024905086e+00 1.5025485957e+00 2.6024905086e+00 
36900 4.7965225099e+00 8.0913402494e-04 1.5025213689e+00 -2.6024433504e+00 1.5025213689e+00 2.6024433504e+00 
37000 4.7965223520e+00 8.0017531195e-04 1.5024944431e+00 -2.6023967136e+00 1.5024944431e+00 2.6023967136e+00 
37100 4.7965221977e+00 7.9131737858e-04 1.5024678150e+00 -2.6023505923e+00 1.5024678150e+00 2.6023505923e+00 
37200 4.7965220469e+00 7.8255907857e-04 1.5024414811e+00 -2.6023049807e+00 1.5024414811e+00 2.6023049807e+00 
37300 4.7965218996e+00 7.7389927879e-04 1.5024154383e+00 -2.6022598732e+00 1.5024154383e+00 2.6022598732e+00 
37400 4.7965217556e+00 7.6533685913e-04 1.5023896832e+00 -2.6022152641e+00 1.5023896832e+00 2.6022152641e+00 
37500 4.7965216150e+00 7.5687071227e-04 1.5023642126e+00 -2.6021711477e+00 1.5023642126e+00 2.6021711477e+00 
37600 4.7965214775e+00 7.4849974358e-04 1.5023390234e+00 -2.6021275187e+00 1.5023390234e+00 2.6021275187e+00 
37700 4.7965213432e+00 7.4022287096e-04 1.5023141123e+00 -2.6020843714e+00 1.5023141123e+00 2.6020843714e+00 
37800 4.7965212119e+00 7.3203902465e-04 1.5022894763e+00 -2.6020417006e+00 1.5022894763e+00 2.6020417006e+00 
37900 4.7965210837e+00 7.2394714715e-04 1.5022651122e+00 -2.6019995008e+00 1.5022651122e+00 2.6019995008e+00 
38000 4.7965209583e+00 7.1594619300e-04 1.5022410171e+00 -2.6019577668e+00 1.5022410171e+00 2.6019577668e+00 
38100 4.7965208359e+00 7.0803512868e-04 1.5022171879e+00 -2.6019164934e+00 1.5022171879e+00 2.6019164934e+00 
38200 4.7965207162e+00 7.0021293246e-04 1.5021936216e+00 -2.6018756754e+00 1.5021936216e+00 2.6018756754e+00 
38300 4.7965205993e+00 6.9247859426e-04 1.5021703153e+00 -2.6018353078e+00 1.5021703153e+00 2.6018353078e+00 
38400 4.7965204851e+00 6.8483111552e-04 1.5021472661e+00 -2.6017953854e+00 1.5021472661e+00 2.6017953854e+00 
38500 4.7965203734e+00 6.7726950904e-04 1.5021244711e+00 -2.6017559032e+00 1.5021244711e+00 2.6017559032e+00 
38600 4.7965202644e+00 6.6979279886e-04 1.5021019274e+00 -2.6017168565e+00 1.5021019274e+00 2.6017168565e+00 
38700 4.7965201578e+00 6.6240002016e-04 1.5020796323e+00 -2.6016782402e+00 1.5020796323e+00 2.6016782402e+00 
38800 4.7965200537e+00 6.5509021909e-04 1.5020575829e+00 -2.6016400495e+00 1.5020575829e+00 2.6016400495e+00 
38900 4.7965199519e+00 6.4786245263e-04 1.5020357765e+00 -2.6016022798e+00 1.5020357765e+00 2.6016022798e+00 
39000 4.7965198525e+00 6.4071578853e-04 1.5020142105e+00 -2.6015649262e+00 1.5020142105e+00 2.6015649262e+00 
39100 4.7965197554e+00 6.3364930511e-04 1.5019928820e+00 -2.6015279841e+00 1.5019928820e+00 2.6015279841e+00 
39200 4.7965196605e+00 6.2666209121e-04 1.5019717884e+00 -2.6014914490e+00 1.5019717884e+00 2.6014914490e+00 
39300 4.7965195678e+00 6.1975324600e-04 1.5019509271e+00 -2.6014553162e+00 1.5019509271e+00 2.6014553162e+00 
39400 4.7965194772e+00 6.1292187891e-04 1.5019302956e+00 -2.6014195813e+00 1.5019302956e+00 2.6014195813e+00 
39500 4.7965193887e+00 6.0616710951e-04 1.5019098911e+00 -2.6013842398e+00 1.5019098911e+00 2.6013842398e+00 
39600 4.7965193022e+00 5.9948806735e-04 1.5018897113e+00 -2.6013492873e+00 1.5018897113e+00 2.6013492873e+00 
39700 4.7965192177e+00 5.9288389190e-04 1.5018697536e+00 -2.6013147195e+00 1.5018697536e+00 2.6013147195e+00 
39800 4.7965191352e+00 5.8635373242e-04 1.5018500154e+00 -2.6012805320e+00 1.5018500154e+00 2.6012805320e+00 
39900 4.7965190545e+00 5.7989674783e-04 1.5018304944e+00 -2.6012467206e+00 1.5018304944e+00 2.6012467206e+00 
40000 4.7965189757e+00 5.7351210661e-04 1.5018111881e+00 -2.6012132812e+00 1.5018111881e+00 2.6012132812e+00 
40100 4.7965188988e+00 5.6719898671e-04 1.5017920941e+00 -2.6011802094e+00 1.5017920941e+00 2.6011802094e+00 
40200 4.7965188235e+00 5.6095657542e-04 1.5017732101e+00 -2.6011475013e+00 1.5017732101e+00 2.6011475013e+00 
40300 4.7965187501e+00 5.5478406928e-04 1.5017545337e+00 -2.6011151528e+00 1.5017545337e+00 2.6011151528e+00 
40400 4.7965186783e+00 5.4868067397e-04 1.5017360625e+00 -2.6010831598e+00 1.5017360625e+00 2.6010831598e+00 
40500 4.7965186082e+00 5.4264560420e-04 1.5017177943e+00 -2.6010515184e+00 1.5017177943e+00 2.6010515184e+00 
40600 4.7965185397e+00 5.3667808361e-04 1.5016997269e+00 -2.6010202246e+00 1.5016997269e+00 2.6010202246e+00 
40700 4.7965184727e+00 5.3077734469e-04 1.5016818579e+00 -2.6009892747e+00 1.5016818579e+00 2.6009892747e+00 
40800 4.7965184073e+00 5.2494262865e-04 1.5016641852e+00 -2.6009586646e+00 1.5016641852e+00 2.6009586646e+00 
40900 4.7965183435e+00 5.1917318533e-04 1.5016467065e+00 -2.6009283907e+00 1.5016467065e+00 2.6009283907e+00 
41000 4.7965182811e+00 5.1346827315e-04 1.5016294197e+00 -2.6008984491e+00 1.5016294197e+00 2.6008984491e+00 
41100 4.7965182201e+00 5.0782715892e-04 1.5016123227e+00 -2.6008688362e+00 1.5016123227e+00 2.6008688362e+00 
41200 4.7965181606e+00 5.0224911783e-04 1.5015954134e+00 -2.6008395484e+00 1.5015954134e+00 2.6008395484e+00 
41300 4.7965181024e+00 4.9673343333e-04 1.5015786895e+00 -2.6008105819e+00 1.5015786895e+00 2.6008105819e+00 
41400 4.7965180456e+00 4.9127939702e-04 1.5015621492e+00 -2.6007819331e+00 1.5015621492e+00 2.6007819331e+00 
41500 4.7965179901e+00 4.8588630857e-04 1.5015457903e+00 -2.6007535987e+00 1.5015457903e+00 2.6007535987e+00 
41600 4.7965179359e+00 4.8055347565e-04 1.5015296108e+00 -2.6007255749e+00 1.5015296108e+00 2.6007255749e+00 
41700 4.7965178829e+00 4.7528021380e-04 1.5015136087e+00 -2.6006978585e+00 1.5015136087e+00 2.6006978585e+00 
41800 4.7965178312e+00 4.7006584638e-04 1.5014977820e+00 -2.6006704459e+00 1.5014977820e+00 2.6006704459e+00 
41900 4.7965177807e+00 4.6490970446e-04 1.5014821288e+00 -2.6006433337e+00 1.5014821288e+00 2.6006433337e+00 
42000 4.7965177313e+00 4.5981112674e-04 1.5014666471e+00 -2.6006165187e+00 1.5014666471e+00 2.6006165187e+00 
42100 4.7965176831e+00 4.5476945947e-04 1.5014513351e+00 -2.6005899975e+00 1.5014513351e+00 2.6005899975e+00 
42200 4.7965176360e+00 4.4978405635e-04 1.5014361908e+00 -2.6005637668e+00 1.5014361908e+00 2.6005637668e+00 
42300 4.7965175900e+00 4.4485427848e-04 1.5014212124e+00 -2.6005378234e+00 1.5014212124e+00 2.6005378234e+00 
42400 4.7965175451e+00 4.3997949423e-04 1.5014063979e+00 -2.6005121640e+00 1.5014063979e+00 2.6005121640e+00 
42500 4.7965175012e+00 4.3515907920e-04 1.5013917457e+00 -2.6004867856e+00 1.5013917457e+00 2.6004867856e+00 
42600 4.7965174584e+00 4.3039241611e-04 1.5013772539e+00 -2.6004616851e+00 1.5013772539e+00 2.6004616851e+00 
42700 4.7965174165e+00 4.2567889474e-04 1.5013629207e+00 -2.6004368592e+00 1.5013629207e+00 2.6004368592e+00 
42800 4.7965173756e+00 4.2101791185e-04 1.5013487443e+00 -2.6004123049e+00 1.5013487443e+00 2.6004123049e+00 
42900 4.7965173357e+00 4.1640887107e-04 1.5013347230e+00 -2.6003880193e+00 1.5013347230e+00 2.6003880193e+00 
43000 4.7965172967e+00 4.1185118290e-04 1.5013208550e+00 -2.6003639994e+00 1.5013208550e+00 2.6003639994e+00 
43100 4.7965172586e+00 4.0734426452e-04 1.5013071387e+00 -2.6003402421e+00 1.5013071387e+00 2.6003402421e+00 
43200 4.7965172215e+00 4.0288753981e-04 1.5012935724e+00 -2.6003167446e+00 1.5012935724e+00 2.6003167446e+00 
43300 4.7965171851e+00 3.9848043925e-04 1.5012801545e+00 -2.6002935039e+00 1.5012801545e+00 2.6002935039e+00 
43400 4.7965171497e+00 3.9412239982e-04 1.5012668831e+00 -2.6002705173e+00 1.5012668831e+00 2.6002705173e+00 
43500 4.7965171150e+00 3.8981286495e-04 1.5012537568e+00 -2.6002477819e+00 1.5012537568e+00 2.6002477819e+00 
43600 4.7965170812e+00 3.8555128444e-04 1.5012407739e+00 -2.6002252948e+00 1.5012407739e+00 2.6002252948e+00 
43700 4.7965170482e+00 3.8133711439e-04 1.5012279329e+00 -2.6002030534e+00 1.5012279329e+00 2.6002030534e+00 
43800 4.7965170159e+00 3.7716981713e-04 1.5012152320e+00 -2.6001810550e+00 1.5012152320e+00 2.6001810550e+00 
43900 4.7965169844e+00 3.7304886117e-04 1.5012026699e+00 -2.6001592967e+00 1.5012026699e+00 2.6001592967e+00 
44000 4.7965169537e+00 3.6897372107e-04 1.5011902449e+00 -2.6001377760e+00 1.5011902449e+00 2.6001377760e+00 
44100 4.7965169237e+00 3.6494387745e-04 1.5011779556e+00 -2.6001164902e+00 1.5011779556e+00 2.6001164902e+00 
44200 4.7965168944e+00 3.6095881687e-04 1.5011658003e+00 -2.6000954367e+00 1.5011658003e+00 2.6000954367e+00 
44300 4.7965168657e+00 3.5701803176e-04 1.5011537777e+00 -2.6000746130e+00 1.5011537777e+00 2.6000746130e+00 
44400 4.7965168378e+00 3.5312102040e-04 1.5011418863e+00 -2.6000540164e+00 1.5011418863e+00 2.6000540164e+00 
44500 4.7965168105e+00 3.4926728681e-04 1.5011301246e+00 -2.6000336445e+00 1.5011301246e+00 2.6000336445e+00 
44600 4.7965167838e+00 3.4545634069e-04 1.5011184911e+00 -2.6000134947e+00 1.5011184911e+00 2.6000134947e+00 
44700 4.7965167578e+00 3.4168769739e-04 1.5011069845e+00 -2.5999935647e+00 1.5011069845e+00 2.5999935647e+00 
44800 4.7965167324e+00 3.3796087779e-04 1.5010956033e+00 -2.5999738519e+00 1.5010956033e+00 2.5999738519e+00 
44900 4.7965167076e+00 3.3427540830e-04 1.5010843462e+00 -2.5999543540e+00 1.5010843462e+00 2.5999543540e+00 
45000 4.7965166834e+00 3.3063082074e-04 1.5010732117e+00 -2.5999350686e+00 1.5010732117e+00 2.5999350686e+00 
45100 4.7965166598e+00 3.2702665234e-04 1.5010621986e+00 -2.5999159933e+00 1.5010621986e+00 2.5999159933e+00 
45200 4.7965166367e+00 3.2346244560e-04 1.5010513054e+00 -2.5998971258e+00 1.5010513054e+00 2.5998971258e+00 
45300 4.7965166142e+00 3.1993774830e-04 1.5010405309e+00 -2.5998784638e+00 1.5010405309e+00 2.5998784638e+00 
45400 4.7965165922e+00 3.1645211341e-04 1.5010298737e+00 -2.5998600050e+00 1.5010298737e+00 2.5998600050e+00 
45500 4.7965165707e+00 3.1300509905e-04 1.5010193326e+00 -2.5998417471e+00 1.5010193326e+00 2.5998417471e+00 
45600 4.7965165498e+00 3.0959626837e-04 1.5010089062e+00 -2.5998236881e+00 1.5010089062e+00 2.5998236881e+00 
45700 4.7965165293e+00 3.0622518960e-04 1.5009985932e+00 -2.5998058256e+00 1.5009985932e+00 2.5998058256e+00 
45800 4.7965165094e+00 3.0289143588e-04 1.5009883925e+00 -2.5997881574e+00 1.5009883925e+00 2.5997881574e+00 
45900 4.7965164899e+00 2.9959458529e-04 1.5009783028e+00 -2.5997706815e+00 1.5009783028e+00 2.5997706815e+00 
46000 4.7965164709e+00 2.9633422074e-04 1.5009683228e+00 -2.5997533957e+00 1.5009683228e+00 2.5997533957e+00 
46100 4.7965164523e+00 2.9310992993e-04 1.5009584514e+00 -2.5997362979e+00 1.5009584514e+00 2.5997362979e+00 
46200 4.7965164342e+00 2.8992130533e-04 1.5009486873e+00 -2.5997193860e+00 1.5009486873e+00 2.5997193860e+00 
46300 4.7965164165e+00 2.8676794405e-04 1.5009390294e+00 -2.5997026580e+00 1.5009390294e+00 2.5997026580e+00 
46400 4.7965163992e+00 2.8364944788e-04 1.5009294765e+00 -2.5996861118e+00 1.5009294765e+00 2.5996861118e+00 
46500 4.7965163824e+00 2.8056542314e-04 1.5009200274e+00 -2.5996697455e+00 1.5009200274e+00 2.5996697455e+00 
46600 4.7965163660e+00 2.7751548070e-04 1.5009106809e+00 -2.5996535570e+00 1.5009106809e+00 2.5996535570e+00 
46700 4.7965163499e+00 2.7449923592e-04 1.5009014360e+00 -2.5996375443e+00 1.5009014360e+00 2.5996375443e+00 
46800 4.7965163343e+00 2.7151630856e-04 1.5008922916e+00 -2.5996217057e+00 1.5008922916e+00 2.5996217057e+00 
46900 4.7965163190e+00 2.6856632276e-04 1.5008832464e+00 -2.5996060390e+00 1.5008832464e+00 2.5996060390e+00 
47000 4.7965163041e+00 2.6564890696e-04 1.5008742995e+00 -2.5995905424e+00 1.5008742995e+00 2.5995905424e+00 
47100 4.7965162895e+00 2.6276369392e-04 1.5008654497e+00 -2.5995752141e+00 1.5008654497e+00 2.5995752141e+00 
47200 4.7965162754e+00 2.5991032058e-04 1.5008566959e+00 -2.5995600522e+00 1.5008566959e+00 2.5995600522e+00 
47300 4.7965162615e+00 2.5708842807e-04 1.5008480372e+00 -2.5995450549e+00 1.5008480372e+00 2.5995450549e+00 
47400 4.7965162480e+00 2.5429766166e-04 1.5008394724e+00 -2.5995302203e+00 1.5008394724e+00 2.5995302203e+00 
47500 4.7965162348e+00 2.5153767067e-04 1.5008310006e+00 -2.5995155466e+00 1.5008310006e+00 2.5995155466e+00 
47600 4.7965162220e+00 2.4880810847e-04 1.5008226207e+00 -2.5995010322e+00 1.5008226207e+00 2.5995010322e+00 
47700 4.7965162094e+00 2.4610863242e-04 1.5008143316e+00 -2.5994866751e+00 1.5008143316e+00 2.5994866751e+00 
47800 4.7965161972e+00 2.4343890381e-04 1.5008061325e+00 -2.5994724737e+00 1.5008061325e+00 2.5994724737e+00 
47900 4.7965161852e+00 2.4079858783e-04 1.5007980222e+00 -2.5994584263e+00 1.5007980222e+00 2.5994584263e+00 
48000 4.7965161736e+00 2.3818735351e-04 1.5007899999e+00 -2.5994445312e+00 1.5007899999e+00 2.5994445312e+00 
48100 4.7965161622e+00 2.3560487370e-04 1.5007820645e+00 -2.5994307867e+00 1.5007820645e+00 2.5994307867e+00 
48200 4.7965161511e+00 2.3305082499e-04 1.5007742151e+00 -2.5994171912e+00 1.5007742151e+00 2.5994171912e+00 
48300 4.7965161403e+00 2.3052488771e-04 1.5007664507e+00 -2.5994037429e+00 1.5007664507e+00 2.5994037429e+00 
48400 4.7965161298e+00 2.2802674585e-04 1.5007587705e+00 -2.5993904404e+00 1.5007587705e+00 2.5993904404e+00 
48500 4.7965161195e+00 2.2555608703e-04 1.5007511734e+00 -2.5993772819e+00 1.5007511734e+00 2.5993772819e+00 
48600 4.7965161095e+00 2.2311260248e-04 1.5007436587e+00 -2.5993642660e+00 1.5007436587e+00 2.5993642660e+00 
48700 4.7965160997e+00 2.2069598694e-04 1.5007362253e+00 -2.5993513909e+00 1.5007362253e+00 2.5993513909e+00 
48800 4.7965160902e+00 2.1830593870e-04 1.5007288724e+00 -2.5993386553e+00 1.5007288724e+00 2.5993386553e+00 
48900 4.7965160809e+00 2.1594215949e-04 1.5007215990e+00 -2.5993260575e+00 1.5007215990e+00 2.5993260575e+00 
49000 4.7965160718e+00 2.1360435447e-04 1.5007144044e+00 -2.5993135961e+00 1.5007144044e+00 2.5993135961e+00 
49100 4.7965160630e+00 2.1129223220e-04 1.5007072877e+00 -2.5993012696e+00 1.5007072877e+00 2.5993012696e+00 
49200 4.7965160543e+00 2.0900550456e-04 1.5007002479e+00 -2.5992890763e+00 1.5007002479e+00 2.5992890763e+00 
49300 4.7965160459e+00 2.0674388676e-04 1.5006932843e+00 -2.5992770151e+00 1.5006932843e+00 2.5992770151e+00 
49400 4.7965160377e+00 2.0450709728e-04 1.5006863961e+00 -2.5992650842e+00 1.5006863961e+00 2.5992650842e+00 
49500 4.7965160297e+00 2.0229485781e-04 1.5006795823e+00 -2.5992532824e+00 1.5006795823e+00 2.5992532824e+00 
49600 4.7965160219e+00 2.0010689327e-04 1.5006728422e+00 -2.5992416082e+00 1.5006728422e+00 2.5992416082e+00 
49700 4.7965160143e+00 1.9794293171e-04 1.5006661749e+00 -2.5992300602e+00 1.5006661749e+00 2.5992300602e+00 
49800 4.7965160069e+00 1.9580270430e-04 1.5006595798e+00 -2.5992186370e+00 1.5006595798e+00 2.5992186370e+00 
49900 4.7965159997e+00 1.9368594531e-04 1.5006530559e+00 -2.5992073374e+00 1.5006530559e+00 2.5992073374e+00 
50000 4.7965159927e+00 1.9159239204e-04 1.5006466025e+00 -2.5991961598e+00 1.5006466025e+00 2.5991961598e+00 
50100 4.7965159858e+00 1.8952178482e-04 1.5006402189e+00 -2.5991851029e+00 1.5006402189e+00 2.5991851029e+00 
50200 4.7965159791e+00 1.8747386695e-04 1.5006339042e+00 -2.5991741656e+00 1.5006339042e+00 2.5991741656e+00 
50300 4.7965159726e+00 1.8544838467e-04 1.5006276577e+00 -2.5991633463e+00 1.5006276577e+00 2.5991633463e+00 
50400 4.7965159663e+00 1.8344508712e-04 1.5006214787e+00 -2.5991526440e+00 1.5006214787e+00 2.5991526440e+00 
50500 4.7965159601e+00 1.8146372634e-04 1.5006153664e+00 -2.5991420571e+00 1.5006153664e+00 2.5991420571e+00 
50600 4.7965159541e+00 1.7950405719e-04 1.5006093201e+00 -2.5991315846e+00 1.5006093201e+00 2.5991315846e+00 
50700 4.7965159482e+00 1.7756583734e-04 1.5006033390e+00 -2.5991212252e+00 1.5006033390e+00 2.5991212252e+00 
50800 4.7965159425e+00 1.7564882725e-04 1.5005974225e+00 -2.5991109775e+00 1.5005974225e+00 2.5991109775e+00 
50900 4.7965159369e+00 1.7375279011e-04 1.5005915699e+00 -2.5991008405e+00 1.5005915699e+00 2.5991008405e+00 
51000 4.7965159315e+00 1.7187749181e-04 1.5005857804e+00 -2.5990908128e+00 1.5005857804e+00 2.5990908128e+00 
51100 4.7965159262e+00 1.7002270094e-04 1.5005800534e+00 -2.5990808934e+00 1.5005800534e+00 2.5990808934e+00 
51200 4.7965159210e+00 1.6818818873e-04 1.5005743882e+00 -2.5990710809e+00 1.5005743882e+00 2.5990710809e+00 
51300 4.7965159160e+00 1.6637372904e-04 1.5005687841e+00 -2.5990613743e+00 1.5005687841e+00 2.5990613743e+00 
51400 4.7965159111e+00 1.6457909828e-04 1.5005632404e+00 -2.5990517723e+00 1.5005632404e+00 2.5990517723e+00 
51500 4.7965159063e+00 1.6280407545e-04 1.5005577565e+00 -2.5990422739e+00 1.5005577565e+00 2.5990422739e+00 
51600 4.7965159017e+00 1.6104844207e-04 1.5005523317e+00 -2.5990328779e+00 1.5005523317e+00 2.5990328779e+00 
51700 4.7965158972e+00 1.5931198215e-04 1.5005469654e+00 -2.5990235832e+00 1.5005469654e+00 2.5990235832e+00 
51800 4.7965158928e+00 1.5759448217e-04 1.5005416569e+00 -2.5990143887e+00 1.5005416569e+00 2.5990143887e+00 
51900 4.7965158885e+00 1.5589573104e-04 1.5005364057e+00 -2.5990052933e+00 1.5005364057e+00 2.5990052933e+00 
52000 4.7965158843e+00 1.5421552011e-04 1.5005312110e+00 -2.5989962958e+00 1.5005312110e+00 2.5989962958e+00 
52100 4.7965158802e+00 1.5255364307e-04 1.5005260723e+00 -2.5989873954e+00 1.5005260723e+00 2.5989873954e+00 
52200 4.7965158763e+00 1.5090989600e-04 1.5005209890e+00 -2.5989785908e+00 1.5005209890e+00 2.5989785908e+00 
52300 4.7965158724e+00 1.4928407729e-04 1.5005159604e+00 -2.5989698810e+00 1.5005159604e+00 2.5989698810e+00 
52400 4.7965158687e+00 1.4767598763e-04 1.5005109860e+00 -2.5989612651e+00 1.5005109860e+00 2.5989612651e+00 
52500 4.7965158650e+00 1.4608542999e-04 1.5005060651e+00 -2.5989527419e+00 1.5005060651e+00 2.5989527419e+00 
52600 4.7965158615e+00 1.4451220958e-04 1.5005011973e+00 -2.5989443105e+00 1.5005011973e+00 2.5989443105e+00 
52700 4.7965158580e+00 1.4295613382e-04 1.5004963818e+00 -2.5989359699e+00 1.5004963818e+00 2.5989359699e+00 
52800 4.7965158547e+00 1.4141701236e-04 1.5004916182e+00 -2.5989277190e+00 1.5004916182e+00 2.5989277190e+00 
52900 4.7965158514e+00 1.3989465697e-04 1.5004869058e+00 -2.5989195570e+00 1.5004869058e+00 2.5989195570e+00 
53000 4.7965158482e+00 1.3838888160e-04 1.5004822442e+00 -2.5989114828e+00 1.5004822442e+00 2.5989114828e+00 
53100 4.7965158451e+00 1.3689950230e-04 1.5004776327e+00 -2.5989034955e+00 1.5004776327e+00 2.5989034955e+00 
53200 4.7965158421e+00 1.3542633722e-04 1.5004730708e+00 -2.5988955941e+00 1.5004730708e+00 2.5988955941e+00 
53300 4.7965158392e+00 1.3396920658e-04 1.5004685581e+00 -2.5988877777e+00 1.5004685581e+00 2.5988877777e+00 
53400 4.7965158363e+00 1.3252793265e-04 1.5004640938e+00 -2.5988800454e+00 1.5004640938e+00 2.5988800454e+00 
53500 4.7965158335e+00 1.3110233969e-04 1.5004596776e+00 -2.5988723963e+00 1.5004596776e+00 2.5988723963e+00 
53600 4.7965158308e+00 1.2969225400e-04 1.5004553089e+00 -2.5988648294e+00 1.5004553089e+00 2.5988648294e+00 
53700 4.7965158282e+00 1.2829750382e-04 1.5004509871e+00 -2.5988573439e+00 1.5004509871e+00 2.5988573439e+00 
53800 4.7965158257e+00 1.2691791936e-04 1.5004467118e+00 -2.5988499389e+00 1.5004467118e+00 2.5988499389e+00 
53900 4.7965158232e+00 1.2555333276e-04 1.5004424825e+00 -2.5988426135e+00 1.5004424825e+00 2.5988426135e+00 
54000 4.7965158208e+00 1.2420357804e-04 1.5004382986e+00 -2.5988353668e+00 1.5004382986e+00 2.5988353668e+00 
54100 4.7965158184e+00 1.2286849114e-04 1.5004341597e+00 -2.5988281980e+00 1.5004341597e+00 2.5988281980e+00 
54200 4.7965158162e+00 1.2154790984e-04 1.5004300652e+00 -2.5988211062e+00 1.5004300652e+00 2.5988211062e+00 
54300 4.7965158139e+00 1.2024167375e-04 1.5004260148e+00 -2.5988140907e+00 1.5004260148e+00 2.5988140907e+00 
54400 4.7965158118e+00 1.1894962432e-04 1.5004220079e+00 -2.5988071505e+00 1.5004220079e+00 2.5988071505e+00 
54500 4.7965158097e+00 1.1767160479e-04 1.5004180440e+00 -2.5988002848e+00 1.5004180440e+00 2.5988002848e+00 
54600 4.7965158077e+00 1.1640746016e-04 1.5004141227e+00 -2.5987934930e+00 1.5004141227e+00 2.5987934930e+00 
54700 4.7965158057e+00 1.1515703722e-04 1.5004102436e+00 -2.5987867740e+00 1.5004102436e+00 2.5987867740e+00 
54800 4.7965158038e+00 1.1392018445e-04 1.5004064060e+00 -2.5987801273e+00 1.5004064060e+00 2.5987801273e+00 
54900 4.7965158019e+00 1.1269675208e-04 1.5004026097e+00 -2.5987735519e+00 1.5004026097e+00 2.5987735519e+00 
55000 4.7965158001e+00 1.1148659202e-04 1.5003988542e+00 -2.5987670471e+00 1.5003988542e+00 2.5987670471e+00 
55100 4.7965157984e+00 1.1028955786e-04 1.5003951390e+00 -2.5987606121e+00 1.5003951390e+00 2.5987606121e+00 
55200 4.7965157967e+00 1.0910550484e-04 1.5003914636e+00 -2.5987542462e+00 1.5003914636e+00 2.5987542462e+00 
55300 4.7965157950e+00 1.0793428984e-04 1.5003878277e+00 -2.5987479486e+00 1.5003878277e+00 2.5987479486e+00 
55400 4.7965157934e+00 1.0677577136e-04 1.5003842308e+00 -2.5987417187e+00 1.5003842308e+00 2.5987417187e+00 
55500 4.7965157918e+00 1.0562980948e-04 1.5003806725e+00 -2.5987355555e+00 1.5003806725e+00 2.5987355555e+00 
55600 4.7965157903e+00 1.0449626589e-04 1.5003771524e+00 -2.5987294586e+00 1.5003771524e+00 2.5987294586e+00 
55700 4.7965157889e+00 1.0337500382e-04 1.5003736701e+00 -2.5987234270e+00 1.5003736701e+00 2.5987234270e+00 
55800 4.7965157874e+00 1.0226588804e-04 1.5003702251e+00 -2.5987174601e+00 1.5003702251e+00 2.5987174601e+00 
55900 4.7965157861e+00 1.0116878486e-04 1.5003668171e+00 -2.5987115572e+00 1.5003668171e+00 2.5987115572e+00 
56000 4.7965157847e+00 1.0008356209e-04 1.5003634457e+00 -2.5987057177e+00 1.5003634457e+00 2.5987057177e+00 
56100 4.7965157834e+00 9.9010089023e-05 1.5003601103e+00 -2.5986999408e+00 1.5003601103e+00 2.5986999408e+00 
56200 4.7965157822e+00 9.7948236443e-05 1.5003568108e+00 -2.5986942258e+00 1.5003568108e+00 2.5986942258e+00 
56300 4.7965157809e+00 9.6897876572e-05 1.5003535466e+00 -2.5986885721e+00 1.5003535466e+00 2.5986885721e+00 
56400 4.7965157798e+00 9.5858883078e-05 1.5003503175e+00 -2.5986829790e+00 1.5003503175e+00 2.5986829790e+00 
56500 4.7965157786e+00 9.4831131050e-05 1.5003471229e+00 -2.5986774459e+00 1.5003471229e+00 2.5986774459e+00 
56600 4.7965157775e+00 9.3814496981e-05 1.5003439626e+00 -2.5986719721e+00 1.5003439626e+00 2.5986719721e+00 
56700 4.7965157764e+00 9.2808858757e-05 1.5003408362e+00 -2.5986665569e+00 1.5003408362e+00 2.5986665569e+00 
56800 4.7965157754e+00 9.1814095630e-05 1.5003377433e+00 -2.5986611998e+00 1.5003377433e+00 2.5986611998e+00 
56900 4.7965157744e+00 9.0830088218e-05 1.5003346835e+00 -2.5986559001e+00 1.5003346835e+00 2.5986559001e+00 
57000 4.7965157734e+00 8.9856718471e-05 1.5003316565e+00 -2.5986506572e+00 1.5003316565e+00 2.5986506572e+00 
57100 4.7965157725e+00 8.8893869671e-05 1.5003286619e+00 -2.5986454705e+00 1.5003286619e+00 2.5986454705e+00 
57200 4.7965157715e+00 8.7941426410e-05 1.5003256994e+00 -2.5986403393e+00 1.5003256994e+00 2.5986403393e+00 
57300 4.7965157707e+00 8.6999274573e-05 1.5003227687e+00 -2.5986352632e+00 1.5003227687e+00 2.5986352632e+00 
57400 4.7965157698e+00 8.6067301325e-05 1.5003198694e+00 -2.5986302413e+00 1.5003198694e+00 2.5986302413e+00 
57500 4.7965157690e+00 8.5145395101e-05 1.5003170011e+00 -2.5986252733e+00 1.5003170011e+00 2.5986252733e+00 
57600 4.7965157682e+00 8.4233445581e-05 1.5003141635e+00 -2.5986203585e+00 1.5003141635e+00 2.5986203585e+00 
57700 4.7965157674e+00 8.3331343685e-05 1.5003113563e+00 -2.5986154963e+00 1.5003113563e+00 2.5986154963e+00 
57800 4.7965157667e+00 8.2438981553e-05 1.5003085792e+00 -2.5986106861e+00 1.5003085792e+00 2.5986106861e+00 
57900 4.7965157659e+00 8.1556252535e-05 1.5003058318e+00 -2.5986059275e+00 1.5003058318e+00 2.5986059275e+00 
58000 4.7965157652e+00 8.0683051174e-05 1.5003031138e+00 -2.5986012198e+00 1.5003031138e+00 2.5986012198e+00 
58100 4.7965157646e+00 7.9819273193e-05 1.5003004249e+00 -2.5985965625e+00 1.5003004249e+00 2.5985965625e+00 
58200 4.7965157639e+00 7.8964815482e-05 1.5002977648e+00 -2.5985919551e+00 1.5002977648e+00 2.5985919551e+00 
58300 4.7965157633e+00 7.8119576085e-05 1.5002951331e+00 -2.5985873969e+00 1.5002951331e+00 2.5985873969e+00 
58400 4.7965157627e+00 7.7283454183e-05 1.5002925297e+00 -2.5985828876e+00 1.5002925297e+00 2.5985828876e+00 
58500 4.7965157621e+00 7.6456350088e-05 1.5002899540e+00 -2.5985784265e+00 1.5002899540e+00 2.5985784265e+00 
58600 4.7965157615e+00 7.5638165221e-05 1.5002874060e+00 -2.5985740131e+00 1.5002874060e+00 2.5985740131e+00 
58700 4.7965157610e+00 7.4828802108e-05 1.5002848852e+00 -2.5985696470e+00 1.5002848852e+00 2.5985696470e+00 
58800 4.7965157605e+00 7.4028164362e-05 1.5002823914e+00 -2.5985653276e+00 1.5002823914e+00 2.5985653276e+00 
58900 4.7965157600e+00 7.3236156670e-05 1.5002799242e+00 -2.5985610544e+00 1.5002799242e+00 2.5985610544e+00 
59000 4.7965157595e+00 7.2452684783e-05 1.5002774835e+00 -2.5985568269e+00 1.5002774835e+00 2.5985568269e+00 
59100 4.7965157590e+00 7.1677655506e-05 1.5002750689e+00 -2.5985526446e+00 1.5002750689e+00 2.5985526446e+00 
59200 4.7965157586e+00 7.0910976681e-05 1.5002726800e+00 -2.5985485070e+00 1.5002726800e+00 2.5985485070e+00 
59300 4.7965157581e+00 7.0152557176e-05 1.5002703168e+00 -2.5985444137e+00 1.5002703168e+00 2.5985444137e+00 
59400 4.7965157579e+00 7.0664197001e-05 1.5002703168e+00 -2.5985444137e+00 1.5002703168e+00 2.5985444137e+00 
59500 4.7965157578e+00 7.1177705323e-05 1.5002703168e+00 -2.5985444137e+00 1.5002703168e+00 2.5985444137e+00 
59600 4.7965157574e+00 7.0412382079e-05 1.5002679446e+00 -2.5985403050e+00 1.5002679446e+00 2.5985403050e+00 
59700 4.7965157572e+00 7.0921058665e-05 1.5002679446e+00 -2.5985403050e+00 1.5002679446e+00 2.5985403050e+00 
59800 4.7965157568e+00 7.0155205070e-05 1.5002655810e+00 -2.5985362111e+00 1.5002655810e+00 2.5985362111e+00 
59900 4.7965157567e+00 7.0658425597e-05 1.5002655810e+00 -2.5985362111e+00 1.5002655810e+00 2.5985362111e+00 
60000 4.7965157566e+00 7.1162487066e-05 1.5002655810e+00 -2.5985362111e+00 1.5002655810e+00 2.5985362111e+00 
60100 4.7965157563e+00 7.0387093283e-05 1.5002632093e+00 -2.5985321033e+00 1.5002632093e+00 2.5985321033e+00 
60200 4.7965157562e+00 7.0884480051e-05 1.5002632093e+00 -2.5985321033e+00 1.5002632093e+00 2.5985321033e+00 
60300 4.7965157559e+00 7.0107225087e-05 1.5002608469e+00 -2.5985280115e+00 1.5002608469e+00 2.5985280115e+00 
60400 4.7965157558e+00 7.0597566164e-05 1.5002608469e+00 -2.5985280115e+00 1.5002608469e+00 2.5985280115e+00 
60500 4.7965157557e+00 7.1088035632e-05 1.5002608469e+00 -2.5985280115e+00 1.5002608469e+00 2.5985280115e+00 
60600 4.7965157554e+00 7.0299782068e-05 1.5002584777e+00 -2.5985239079e+00 1.5002584777e+00 2.5985239079e+00 
60700 4.7965157554e+00 7.0782310211e-05 1.5002584777e+00 -2.5985239079e+00 1.5002584777e+00 2.5985239079e+00 
60800 4.7965157551e+00 6.9991518553e-05 1.5002561187e+00 -2.5985198220e+00 1.5002561187e+00 2.5985198220e+00 
60900 4.7965157551e+00 7.0465917328e-05 1.5002561187e+00 -2.5985198220e+00 1.5002561187e+00 2.5985198220e+00 
61000 4.7965157551e+00 7.0939957873e-05 1.5002561187e+00 -2.5985198220e+00 1.5002561187e+00 2.5985198220e+00 
61100 4.7965157548e+00 7.0137539886e-05 1.5002537545e+00 -2.5985157270e+00 1.5002537545e+00 2.5985157270e+00 
61200 4.7965157548e+00 7.0602790957e-05 1.5002537545e+00 -2.5985157270e+00 1.5002537545e+00 2.5985157270e+00 
61300 4.7965157548e+00 7.1067398533e-05 1.5002537545e+00 -2.5985157270e+00 1.5002537545e+00 2.5985157270e+00 
61400 4.7965157546e+00 7.0253021704e-05 1.5002513860e+00 -2.5985116246e+00 1.5002513860e+00 2.5985116246e+00 
61500 4.7965157546e+00 7.0708320034e-05 1.5002513860e+00 -2.5985116246e+00 1.5002513860e+00 2.5985116246e+00 
61600 4.7965157547e+00 7.1162751891e-05 1.5002513860e+00 -2.5985116246e+00 1.5002513860e+00 2.5985116246e+00 
61700 4.7965157545e+00 7.0336307989e-05 1.5002490143e+00 -2.5985075167e+00 1.5002490143e+00 2.5985075167e+00 
61800 4.7965157545e+00 7.0781027861e-05 1.5002490143e+00 -2.5985075167e+00 1.5002490143e+00 2.5985075167e+00 
61900 4.7965157543e+00 6.9951779972e-05 1.5002466553e+00 -2.5985034309e+00 1.5002466553e+00 2.5985034309e+00 
62000 4.7965157544e+00 7.0386882312e-05 1.5002466553e+00 -2.5985034309e+00 1.5002466553e+00 2.5985034309e+00 
62100 4.7965157544e+00 7.0820975217e-05 1.5002466553e+00 -2.5985034309e+00 1.5002466553e+00 2.5985034309e+00 
62200 4.7965157543e+00 6.9980256167e-05 1.5002442950e+00 -2.5984993427e+00 1.5002442950e+00 2.5984993427e+00 
62300 4.7965157543e+00 7.0404437147e-05 1.5002442950e+00 -2.5984993427e+00 1.5002442950e+00 2.5984993427e+00 
62400 4.7965157544e+00 7.0827484426e-05 1.5002442950e+00 -2.5984993427e+00 1.5002442950e+00 2.5984993427e+00 
62500 4.7965157542e+00 6.9975516424e-05 1.5002419345e+00 -2.5984952541e+00 1.5002419345e+00 2.5984952541e+00 
62600 4.7965157543e+00 7.0388439734e-05 1.5002419345e+00 -2.5984952541e+00 1.5002419345e+00 2.5984952541e+00 
62700 4.7965157544e+00 7.0800140965e-05 1.5002419345e+00 -2.5984952541e+00 1.5002419345e+00 2.5984952541e+00 
62800 4.7965157543e+00 6.9937265160e-05 1.5002395748e+00 -2.5984911671e+00 1.5002395748e+00 2.5984911671e+00 
62900 4.7965157543e+00 7.0338699675e-05 1.5002395748e+00 -2.5984911671e+00 1.5002395748e+00 2.5984911671e+00 
63000 4.7965157544e+00 7.0738853677e-05 1.5002395748e+00 -2.5984911671e+00 1.5002395748e+00 2.5984911671e+00 
63100 4.7965157543e+00 6.9865506543e-05 1.5002372172e+00 -2.5984870837e+00 1.5002372172e+00 2.5984870837e+00 
63200 4.7965157544e+00 7.0255309593e-05 1.5002372172e+00 -2.5984870837e+00 1.5002372172e+00 2.5984870837e+00 
63300 4.7965157545e+00 7.0643798735e-05 1.5002372172e+00 -2.5984870837e+00 1.5002372172e+00 2.5984870837e+00 
63400 4.7965157546e+00 7.1030833227e-05 1.5002372172e+00 -2.5984870837e+00 1.5002372172e+00 2.5984870837e+00 
63500 4.7965157545e+00 7.0138990700e-05 1.5002348499e+00 -2.5984829834e+00 1.5002348499e+00 2.5984829834e+00 
63600 4.7965157546e+00 7.0515347060e-05 1.5002348499e+00 -2.5984829834e+00 1.5002348499e+00 2.5984829834e+00 
63700 4.7965157547e+00 7.0890266442e-05 1.5002348499e+00 -2.5984829834e+00 1.5002348499e+00 2.5984829834e+00 
63800 4.7965157546e+00 6.9988879703e-05 1.5002324873e+00 -2.5984788911e+00 1.5002324873e+00 2.5984788911e+00 
63900 4.7965157548e+00 7.0353184033e-05 1.5002324873e+00 -2.5984788911e+00 1.5002324873e+00 2.5984788911e+00 
64000 4.7965157549e+00 7.0716081066e-05 1.5002324873e+00 -2.5984788911e+00 1.5002324873e+00 2.5984788911e+00 
64100 4.7965157548e+00 6.9805857895e-05 1.5002301305e+00 -2.5984748090e+00 1.5002301305e+00 2.5984748090e+00 
64200 4.7965157549e+00 7.0158228821e-05 1.5002301305e+00 -2.5984748090e+00 1.5002301305e+00 2.5984748090e+00 
64300 4.7965157550e+00 7.0509232344e-05 1.5002301305e+00 -2.5984748090e+00 1.5002301305e+00 2.5984748090e+00 
64400 4.7965157552e+00 7.0858749487e-05 1.5002301305e+00 -2.5984748090e+00 1.5002301305e+00 2.5984748090e+00 
64500 4.7965157551e+00 6.9932541347e-05 1.5002277689e+00 -2.5984707186e+00 1.5002277689e+00 2.5984707186e+00 
64600 4.7965157552e+00 7.0271395052e-05 1.5002277689e+00 -2.5984707186e+00 1.5002277689e+00 2.5984707186e+00 
64700 4.7965157553e+00 7.0608837331e-05 1.5002277689e+00 -2.5984707186e+00 1.5002277689e+00 2.5984707186e+00 
64800 4.7965157555e+00 7.0944759203e-05 1.5002277689e+00 -2.5984707186e+00 1.5002277689e+00 2.5984707186e+00 
64900 4.7965157554e+00 7.0003410382e-05 1.5002254044e+00 -2.5984666232e+00 1.5002254044e+00 2.5984666232e+00 
65000 4.7965157555e+00 7.0328619314e-05 1.5002254044e+00 -2.5984666232e+00 1.5002254044e+00 2.5984666232e+00 
65100 4.7965157557e+00 7.0652409706e-05 1.5002254044e+00 -2.5984666232e+00 1.5002254044e+00 2.5984666232e+00 
65200 4.7965157558e+00 7.0974680310e-05 1.5002254044e+00 -2.5984666232e+00 1.5002254044e+00 2.5984666232e+00 
65300 4.7965157557e+00 7.0019174492e-05 1.5002230389e+00 -2.5984625261e+00 1.5002230389e+00 2.5984625261e+00 
65400 4.7965157559e+00 7.0330751539e-05 1.5002230389e+00 -2.5984625261e+00 1.5002230389e+00 2.5984625261e+00 
65500 4.7965157560e+00 7.0640931294e-05 1.5002230389e+00 -2.5984625261e+00 1.5002230389e+00 2.5984625261e+00 
65600 4.7965157562e+00 7.0949618500e-05 1.5002230389e+00 -2.5984625261e+00 1.5002230389e+00 2.5984625261e+00 
65700 4.7965157561e+00 6.9981035844e-05 1.5002206743e+00 -2.5984584304e+00 1.5002206743e+00 2.5984584304e+00 
65800 4.7965157562e+00 7.0279103054e-05 1.5002206743e+00 -2.5984584304e+00 1.5002206743e+00 2.5984584304e+00 
65900 4.7965157564e+00 7.0575815938e-05 1.5002206743e+00 -2.5984584304e+00 1.5002206743e+00 2.5984584304e+00 
66000 4.7965157565e+00 7.0871083892e-05 1.5002206743e+00 -2.5984584304e+00 1.5002206743e+00 2.5984584304e+00 
66100 4.7965157565e+00 6.9890567827e-05 1.5002183123e+00 -2.5984543393e+00 1.5002183123e+00 2.5984543393e+00 
66200 4.7965157566e+00 7.0175331957e-05 1.5002183123e+00 -2.5984543393e+00 1.5002183123e+00 2.5984543393e+00 
66300 4.7965157568e+00 7.0458801241e-05 1.5002183123e+00 -2.5984543393e+00 1.5002183123e+00 2.5984543393e+00 
66400 4.7965157569e+00 7.0740888684e-05 1.5002183123e+00 -2.5984543393e+00 1.5002183123e+00 2.5984543393e+00 
66500 4.7965157568e+00 6.9749620042e-05 1.5002159546e+00 -2.5984502557e+00 1.5002159546e+00 2.5984502557e+00 
66600 4.7965157570e+00 7.0021353250e-05 1.5002159546e+00 -2.5984502557e+00 1.5002159546e+00 2.5984502557e+00 
66700 4.7965157571e+00 7.0291863485e-05 1.5002159546e+00 -2.5984502557e+00 1.5002159546e+00 2.5984502557e+00 
66800 4.7965157573e+00 7.0561066543e-05 1.5002159546e+00 -2.5984502557e+00 1.5002159546e+00 2.5984502557e+00 
66900 4.7965157574e+00 7.0828884816e-05 1.5002159546e+00 -2.5984502557e+00 1.5002159546e+00 2.5984502557e+00 
67000 4.7965157574e+00 6.9821796040e-05 1.5002135940e+00 -2.5984461669e+00 1.5002135940e+00 2.5984461669e+00 
67100 4.7965157575e+00 7.0079270574e-05 1.5002135940e+00 -2.5984461669e+00 1.5002135940e+00 2.5984461669e+00 
67200 4.7965157577e+00 7.0335544104e-05 1.5002135940e+00 -2.5984461669e+00 1.5002135940e+00 2.5984461669e+00 
67300 4.7965157578e+00 7.0590539445e-05 1.5002135940e+00 -2.5984461669e+00 1.5002135940e+00 2.5984461669e+00 
67400 4.7965157580e+00 7.0844185519e-05 1.5002135940e+00 -2.5984461669e+00 1.5002135940e+00 2.5984461669e+00 
67500 4.7965157579e+00 6.9822714730e-05 1.5002112328e+00 -2.5984420773e+00 1.5002112328e+00 2.5984420773e+00 
67600 4.7965157580e+00 7.0066104267e-05 1.5002112328e+00 -2.5984420773e+00 1.5002112328e+00 2.5984420773e+00 
67700 4.7965157582e+00 7.0308345391e-05 1.5002112328e+00 -2.5984420773e+00 1.5002112328e+00 2.5984420773e+00 
67800 4.7965157583e+00 7.0549365799e-05 1.5002112328e+00 -2.5984420773e+00 1.5002112328e+00 2.5984420773e+00 
67900 4.7965157585e+00 7.0789098949e-05 1.5002112328e+00 -2.5984420773e+00 1.5002112328e+00 2.5984420773e+00 
68000 4.7965157584e+00 6.9754793928e-05 1.5002088735e+00 -2.5984379909e+00 1.5002088735e+00 2.5984379909e+00 
68100 4.7965157585e+00 6.9984412571e-05 1.5002088735e+00 -2.5984379909e+00 1.5002088735e+00 2.5984379909e+00 
68200 4.7965157587e+00 7.0212956258e-05 1.5002088735e+00 -2.5984379909e+00 1.5002088735e+00 2.5984379909e+00 
68300 4.7965157588e+00 7.0440356061e-05 1.5002088735e+00 -2.5984379909e+00 1.5002088735e+00 2.5984379909e+00 
68400 4.7965157590e+00 7.0666548561e-05 1.5002088735e+00 -2.5984379909e+00 1.5002088735e+00 2.5984379909e+00 
68500 4.7965157591e+00 7.0891475459e-05 1.5002088735e+00 -2.5984379909e+00 1.5002088735e+00 2.5984379909e+00 
68600 4.7965157590e+00 6.9840578444e-05 1.5002065108e+00 -2.5984338985e+00 1.5002065108e+00 2.5984338985e+00 
68700 4.7965157592e+00 7.0055445837e-05 1.5002065108e+00 -2.5984338985e+00 1.5002065108e+00 2.5984338985e+00 
68800 4.7965157593e+00 7.0269281810e-05 1.5002065108e+00 -2.5984338985e+00 1.5002065108e+00 2.5984338985e+00 
68900 4.7965157595e+00 7.0482023508e-05 1.5002065108e+00 -2.5984338985e+00 1.5002065108e+00 2.5984338985e+00 
69000 4.7965157596e+00 7.0693613139e-05 1.5002065108e+00 -2.5984338985e+00 1.5002065108e+00 2.5984338985e+00 
69100 4.7965157597e+00 7.0903997619e-05 1.5002065108e+00 -2.5984338985e+00 1.5002065108e+00 2.5984338985e+00 
69200 4.7965157597e+00 6.9838421846e-05 1.5002041477e+00 -2.5984298055e+00 1.5002041477e+00 2.5984298055e+00 
69300 4.7965157598e+00 7.0038880494e-05 1.5002041477e+00 -2.5984298055e+00 1.5002041477e+00 2.5984298055e+00 
69400 4.7965157599e+00 7.0238381672e-05 1.5002041477e+00 -2.5984298055e+00 1.5002041477e+00 2.5984298055e+00 
69500 4.7965157601e+00 7.0436866339e-05 1.5002041477e+00 -2.5984298055e+00 1.5002041477e+00 2.5984298055e+00 
69600 4.7965157602e+00 7.0634280225e-05 1.5002041477e+00 -2.5984298055e+00 1.5002041477e+00 2.5984298055e+00 
69700 4.7965157603e+00 7.0830573497e-05 1.5002041477e+00 -2.5984298055e+00 1.5002041477e+00 2.5984298055e+00 
69800 4.7965157603e+00 6.9752335661e-05 1.5002017870e+00 -2.5984257166e+00 1.5002017870e+00 2.5984257166e+00 
69900 4.7965157604e+00 6.9938888506e-05 1.5002017870e+00 -2.5984257166e+00 1.5002017870e+00 2.5984257166e+00 
70000 4.7965157605e+00 7.0124576297e-05 1.5002017870e+00 -2.5984257166e+00 1.5002017870e+00 2.5984257166e+00 
70100 4.7965157607e+00 7.0309342334e-05 1.5002017870e+00 -2.5984257166e+00 1.5002017870e+00 2.5984257166e+00 
70200 4.7965157608e+00 7.0493134491e-05 1.5002017870e+00 -2.5984257166e+00 1.5002017870e+00 2.5984257166e+00 
70300 4.7965157609e+00 7.0675904891e-05 1.5002017870e+00 -2.5984257166e+00 1.5002017870e+00 2.5984257166e+00 
70400 4.7965157611e+00 7.0857609602e-05 1.5002017870e+00 -2.5984257166e+00 1.5002017870e+00 2.5984257166e+00 
70500 4.7965157610e+00 6.9764381372e-05 1.5001994254e+00 -2.5984216262e+00 1.5001994254e+00 2.5984216262e+00 
70600 4.7965157611e+00 6.9936468572e-05 1.5001994254e+00 -2.5984216262e+00 1.5001994254e+00 2.5984216262e+00 
70700 4.7965157612e+00 7.0107760905e-05 1.5001994254e+00 -2.5984216262e+00 1.5001994254e+00 2.5984216262e+00 
70800 4.7965157613e+00 7.0278205935e-05 1.5001994254e+00 -2.5984216262e+00 1.5001994254e+00 2.5984216262e+00 
70900 4.7965157615e+00 7.0447755462e-05 1.5001994254e+00 -2.5984216262e+00 1.5001994254e+00 2.5984216262e+00 
71000 4.7965157616e+00 7.0616365217e-05 1.5001994254e+00 -2.5984216262e+00 1.5001994254e+00 2.5984216262e+00 
71100 4.7965157617e+00 7.0783994586e-05 1.5001994254e+00 -2.5984216262e+00 1.5001994254e+00 2.5984216262e+00 
71200 4.7965157616e+00 6.9678124367e-05 1.5001970662e+00 -2.5984175400e+00 1.5001970662e+00 2.5984175400e+00 
71300 4.7965157617e+00 6.9836323319e-05 1.5001970662e+00 -2.5984175400e+00 1.5001970662e+00 2.5984175400e+00 
71400 4.7965157618e+00 6.9993820691e-05 1.5001970662e+00 -2.5984175400e+00 1.5001970662e+00 2.5984175400e+00 
71500 4.7965157620e+00 7.0150566397e-05 1.5001970662e+00 -2.5984175400e+00 1.5001970662e+00 2.5984175400e+00 
71600 4.7965157621e+00 7.0306514377e-05 1.5001970662e+00 -2.5984175400e+00 1.5001970662e+00 2.5984175400e+00 
71700 4.7965157622e+00 7.0461622308e-05 1.5001970662e+00 -2.5984175400e+00 1.5001970662e+00 2.5984175400e+00 
71800 4.7965157623e+00 7.0615851341e-05 1.5001970662e+00 -2.5984175400e+00 1.5001970662e+00 2.5984175400e+00 
71900 4.7965157624e+00 7.0769165845e-05 1.5001970662e+00 -2.5984175400e+00 1.5001970662e+00 2.5984175400e+00 
72000 4.7965157623e+00 6.9649340708e-05 1.5001947075e+00 -2.5984134547e+00 1.5001947075e+00 2.5984134547e+00 
72100 4.7965157624e+00 6.9793371401e-05 1.5001947075e+00 -2.5984134547e+00 1.5001947075e+00 2.5984134547e+00 
72200 4.7965157626e+00 6.9936778974e-05 1.5001947075e+00 -2.5984134547e+00 1.5001947075e+00 2.5984134547e+00 
72300 4.7965157627e+00 7.0079516899e-05 1.5001947075e+00 -2.5984134547e+00 1.5001947075e+00 2.5984134547e+00 
72400 4.7965157628e+00 7.0221542377e-05 1.5001947075e+00 -2.5984134547e+00 1.5001947075e+00 2.5984134547e+00 
72500 4.7965157629e+00 7.0362816071e-05 1.5001947075e+00 -2.5984134547e+00 1.5001947075e+00 2.5984134547e+00 
72600 4.7965157630e+00 7.0503301858e-05 1.5001947075e+00 -2.5984134547e+00 1.5001947075e+00 2.5984134547e+00 
72700 4.7965157631e+00 7.0642966597e-05 1.5001947075e+00 -2.5984134547e+00 1.5001947075e+00 2.5984134547e+00 
72800 4.7965157632e+00 7.0781779920e-05 1.5001947075e+00 -2.5984134547e+00 1.5001947075e+00 2.5984134547e+00 
72900 4.7965157631e+00 6.9647318318e-05 1.5001923485e+00 -2.5984093687e+00 1.5001923485e+00 2.5984093687e+00 
73000 4.7965157632e+00 6.9776986830e-05 1.5001923485e+00 -2.5984093687e+00 1.5001923485e+00 2.5984093687e+00 
73100 4.7965157633e+00 6.9906108791e-05 1.5001923485e+00 -2.5984093687e+00 1.5001923485e+00 2.5984093687e+00 
73200 4.7965157634e+00 7.0034641423e-05 1.5001923485e+00 -2.5984093687e+00 1.5001923485e+00 2.5984093687e+00 
73300 4.7965157635e+00 7.0162545371e-05 1.5001923485e+00 -2.5984093687e+00 1.5001923485e+00 2.5984093687e+00 
73400 4.7965157636e+00 7.0289784452e-05 1.5001923485e+00 -2.5984093687e+00 1.5001923485e+00 2.5984093687e+00 
73500 4.7965157637e+00 7.0416325426e-05 1.5001923485e+00 -2.5984093687e+00 1.5001923485e+00 2.5984093687e+00 
73600 4.7965157638e+00 7.0542137787e-05 1.5001923485e+00 -2.5984093687e+00 1.5001923485e+00 2.5984093687e+00 
73700 4.7965157639e+00 7.0667193569e-05 1.5001923485e+00 -2.5984093687e+00 1.5001923485e+00 2.5984093687e+00 
73800 4.7965157640e+00 7.0791467163e-05 1.5001923485e+00 -2.5984093687e+00 1.5001923485e+00 2.5984093687e+00 
73900 4.7965157639e+00 6.9642388737e-05 1.5001899890e+00 -2.5984052820e+00 1.5001899890e+00 2.5984052820e+00 
74000 4.7965157640e+00 6.9757667706e-05 1.5001899890e+00 -2.5984052820e+00 1.5001899890e+00 2.5984052820e+00 
74100 4.7965157641e+00 6.9872481500e-05 1.5001899890e+00 -2.5984052820e+00 1.5001899890e+00 2.5984052820e+00 
74200 4.7965157642e+00 6.9986790728e-05 1.5001899890e+00 -2.5984052820e+00 1.5001899890e+00 2.5984052820e+00 
74300 4.7965157642e+00 7.0100559133e-05 1.5001899890e+00 -2.5984052820e+00 1.5001899890e+00 2.5984052820e+00 
74400 4.7965157643e+00 7.0213753366e-05 1.5001899890e+00 -2.5984052820e+00 1.5001899890e+00 2.5984052820e+00 
74500 4.7965157644e+00 7.0326342775e-05 1.5001899890e+00 -2.5984052820e+00 1.5001899890e+00 2.5984052820e+00 
74600 4.7965157645e+00 7.0438299215e-05 1.5001899890e+00 -2.5984052820e+00 1.5001899890e+00 2.5984052820e+00 
74700 4.7965157646e+00 7.0549596863e-05 1.5001899890e+00 -2.5984052820e+00 1.5001899890e+00 2.5984052820e+00 
74800 4.7965157647e+00 7.0660212060e-05 1.5001899890e+00 -2.5984052820e+00 1.5001899890e+00 2.5984052820e+00 
74900 4.7965157648e+00 7.0770123155e-05 1.5001899890e+00 -2.5984052820e+00 1.5001899890e+00 2.5984052820e+00 
75000 4.7965157647e+00 6.9607170373e-05 1.5001876303e+00 -2.5984011966e+00 1.5001876303e+00 2.5984011966e+00 
75100 4.7965157647e+00 6.9708255773e-05 1.5001876303e+00 -2.5984011966e+00 1.5001876303e+00 2.5984011966e+00 
75200 4.7965157648e+00 6.9808963971e-05 1.5001876303e+00 -2.5984011966e+00 1.5001876303e+00 2.5984011966e+00 
75300 4.7965157649e+00 6.9909258366e-05 1.5001876303e+00 -2.5984011966e+00 1.5001876303e+00 2.5984011966e+00 
75400 4.7965157650e+00 7.0009105246e-05 1.5001876303e+00 -2.5984011966e+00 1.5001876303e+00 2.5984011966e+00 
75500 4.7965157651e+00 7.0108473583e-05 1.5001876303e+00 -2.5984011966e+00 1.5001876303e+00 2.5984011966e+00 
75600 4.7965157652e+00 7.0207334834e-05 1.5001876303e+00 -2.5984011966e+00 1.5001876303e+00 2.5984011966e+00 
75700 4.7965157652e+00 7.0305662765e-05 1.5001876303e+00 -2.5984011966e+00 1.5001876303e+00 2.5984011966e+00 
75800 4.7965157653e+00 7.0403433283e-05 1.5001876303e+00 -2.5984011966e+00 1.5001876303e+00 2.5984011966e+00 
75900 4.7965157654e+00 7.0500624288e-05 1.5001876303e+00 -2.5984011966e+00 1.5001876303e+00 2.5984011966e+00 
76000 4.7965157655e+00 7.0597215527e-05 1.5001876303e+00 -2.5984011966e+00 1.5001876303e+00 2.5984011966e+00 
76100 4.7965157655e+00 7.0693188470e-05 1.5001876303e+00 -2.5984011966e+00 1.5001876303e+00 2.5984011966e+00 
76200 4.7965157656e+00 7.0788526182e-05 1.5001876303e+00 -2.5984011966e+00 1.5001876303e+00 2.5984011966e+00 
76300 4.7965157655e+00 6.9610766032e-05 1.5001852710e+00 -2.5983971102e+00 1.5001852710e+00 2.5983971102e+00 
76400 4.7965157656e+00 6.9697426498e-05 1.5001852710e+00 -2.5983971102e+00 1.5001852710e+00 2.5983971102e+00 
76500 4.7965157656e+00 6.9783790721e-05 1.5001852710e+00 -2.5983971102e+00 1.5001852710e+00 2.5983971102e+00 
76600 4.7965157657e+00 6.9869825449e-05 1.5001852710e+00 -2.5983971102e+00 1.5001852710e+00 2.5983971102e+00 
76700 4.7965157658e+00 6.9955500042e-05 1.5001852710e+00 -2.5983971102e+00 1.5001852710e+00 2.5983971102e+00 
76800 4.7965157658e+00 7.0040786277e-05 1.5001852710e+00 -2.5983971102e+00 1.5001852710e+00 2.5983971102e+00 
76900 4.7965157659e+00 7.0125658175e-05 1.5001852710e+00 -2.5983971102e+00 1.5001852710e+00 2.5983971102e+00 
77000 4.7965157660e+00 7.0210091840e-05 1.5001852710e+00 -2.5983971102e+00 1.5001852710e+00 2.5983971102e+00 
77100 4.7965157661e+00 7.0294065307e-05 1.5001852710e+00 -2.5983971102e+00 1.5001852710e+00 2.5983971102e+00 
77200 4.7965157661e+00 7.0377558406e-05 1.5001852710e+00 -2.5983971102e+00 1.5001852710e+00 2.5983971102e+00 
77300 4.7965157662e+00 7.0460552631e-05 1.5001852710e+00 -2.5983971102e+00 1.5001852710e+00 2.5983971102e+00 
77400 4.7965157663e+00 7.0543031029e-05 1.5001852710e+00 -2.5983971102e+00 1.5001852710e+00 2.5983971102e+00 
77500 4.7965157663e+00 7.0624978085e-05 1.5001852710e+00 -2.5983971102e+00 1.5001852710e+00 2.5983971102e+00 
77600 4.7965157664e+00 7.0706379627e-05 1.5001852710e+00 -2.5983971102e+00 1.5001852710e+00 2.5983971102e+00 
77700 4.7965157665e+00 7.0787222730e-05 1.5001852710e+00 -2.5983971102e+00 1.5001852710e+00 2.5983971102e+00 
77800 4.7965157663e+00 6.9595095002e-05 1.5001829117e+00 -2.5983930238e+00 1.5001829117e+00 2.5983930238e+00 
77900 4.7965157664e+00 6.9667425265e-05 1.5001829117e+00 -2.5983930238e+00 1.5001829117e+00 2.5983930238e+00 
78000 4.7965157664e+00 6.9739546219e-05 1.5001829117e+00 -2.5983930238e+00 1.5001829117e+00 2.5983930238e+00 
78100 4.7965157665e+00 6.9811427445e-05 1.5001829117e+00 -2.5983930238e+00 1.5001829117e+00 2.5983930238e+00 
78200 4.7965157665e+00 6.9883040892e-05 1.5001829117e+00 -2.5983930238e+00 1.5001829117e+00 2.5983930238e+00 
78300 4.7965157666e+00 6.9954360699e-05 1.5001829117e+00 -2.5983930238e+00 1.5001829117e+00 2.5983930238e+00 
78400 4.7965157667e+00 7.0025363040e-05 1.5001829117e+00 -2.5983930238e+00 1.5001829117e+00 2.5983930238e+00 
78500 4.7965157667e+00 7.0096025973e-05 1.5001829117e+00 -2.5983930238e+00 1.5001829117e+00 2.5983930238e+00 
78600 4.7965157668e+00 7.0166329305e-05 1.5001829117e+00 -2.5983930238e+00 1.5001829117e+00 2.5983930238e+00 
78700 4.7965157668e+00 7.0236254465e-05 1.5001829117e+00 -2.5983930238e+00 1.5001829117e+00 2.5983930238e+00 
78800 4.7965157669e+00 7.0305784392e-05 1.5001829117e+00 -2.5983930238e+00 1.5001829117e+00 2.5983930238e+00 
78900 4.7965157670e+00 7.0374903425e-05 1.5001829117e+00 -2.5983930238e+00 1.5001829117e+00 2.5983930238e+00 
79000 4.7965157670e+00 7.0443597204e-05 1.5001829117e+00 -2.5983930238e+00 1.5001829117e+00 2.5983930238e+00 
79100 4.7965157671e+00 7.0511852581e-05 1.5001829117e+00 -2.5983930238e+00 1.5001829117e+00 2.5983930238e+00 
79200 4.7965157671e+00 7.0579657534e-05 1.5001829117e+00 -2.5983930238e+00 1.5001829117e+00 2.5983930238e+00 
79300 4.7965157672e+00 7.0647001092e-05 1.5001829117e+00 -2.5983930238e+00 1.5001829117e+00 2.5983930238e+00 
79400 4.7965157672e+00 7.0713873258e-05 1.5001829117e+00 -2.5983930238e+00 1.5001829117e+00 2.5983930238e+00 
79500 4.7965157671e+00 6.9509204336e-05 1.5001805549e+00 -2.5983889416e+00 1.5001805549e+00 2.5983889416e+00 
79600 4.7965157671e+00 6.9567753150e-05 1.5001805549e+00 -2.5983889416e+00 1.5001805549e+00 2.5983889416e+00 
79700 4.7965157672e+00 6.9626186658e-05 1.5001805549e+00 -2.5983889416e+00 1.5001805549e+00 2.5983889416e+00 
79800 4.7965157672e+00 6.9684476487e-05 1.5001805549e+00 -2.5983889416e+00 1.5001805549e+00 2.5983889416e+00 
79900 4.7965157673e+00 6.9742596442e-05 1.5001805549e+00 -2.5983889416e+00 1.5001805549e+00 2.5983889416e+00 
80000 4.7965157673e+00 6.9800522341e-05 1.5001805549e+00 -2.5983889416e+00 1.5001805549e+00 2.5983889416e+00 
80100 4.7965157674e+00 6.9858231871e-05 1.5001805549e+00 -2.5983889416e+00 1.5001805549e+00 2.5983889416e+00 
80200 4.7965157674e+00 6.9915704452e-05 1.5001805549e+00 -2.5983889416e+00 1.5001805549e+00 2.5983889416e+00 
80300 4.7965157675e+00 6.9972921107e-05 1.5001805549e+00 -2.5983889416e+00 1.5001805549e+00 2.5983889416e+00 
80400 4.7965157675e+00 7.0029864350e-05 1.5001805549e+00 -2.5983889416e+00 1.5001805549e+00 2.5983889416e+00 
80500 4.7965157676e+00 7.0086518076e-05 1.5001805549e+00 -2.5983889416e+00 1.5001805549e+00 2.5983889416e+00 
80600 4.7965157676e+00 7.0142867467e-05 1.5001805549e+00 -2.5983889416e+00 1.5001805549e+00 2.5983889416e+00 
80700 4.7965157676e+00 7.0198898895e-05 1.5001805549e+00 -2.5983889416e+00 1.5001805549e+00 2.5983889416e+00 
80800 4.7965157677e+00 7.0254599842e-05 1.5001805549e+00 -2.5983889416e+00 1.5001805549e+00 2.5983889416e+00 
80900 4.7965157677e+00 7.0309958823e-05 1.5001805549e+00 -2.5983889416e+00 1.5001805549e+00 2.5983889416e+00 
81000 4.7965157678e+00 7.0364965309e-05 1.5001805549e+00 -2.5983889416e+00 1.5001805549e+00 2.5983889416e+00 
81100 4.7965157678e+00 7.0419609671e-05 1.5001805549e+00 -2.5983889416e+00 1.5001805549e+00 2.5983889416e+00 
81200 4.7965157679e+00 7.0473883105e-05 1.5001805549e+00 -2.5983889416e+00 1.5001805549e+00 2.5983889416e+00 
81300 4.7965157679e+00 7.0527777589e-05 1.5001805549e+00 -2.5983889416e+00 1.5001805549e+00 2.5983889416e+00 
81400 4.7965157680e+00 7.0581285821e-05 1.5001805549e+00 -2.5983889416e+00 1.5001805549e+00 2.5983889416e+00 
81500 4.7965157680e+00 7.0634401175e-05 1.5001805549e+00 -2.5983889416e+00 1.5001805549e+00 2.5983889416e+00 
81600 4.7965157680e+00 7.0687117656e-05 1.5001805549e+00 -2.5983889416e+00 1.5001805549e+00 2.5983889416e+00 
81700 4.7965157681e+00 7.0739429857e-05 1.5001805549e+00 -2.5983889416e+00 1.5001805549e+00 2.5983889416e+00 
81800 4.7965157679e+00 6.9519836546e-05 1.5001781972e+00 -2.5983848580e+00 1.5001781972e+00 2.5983848580e+00 
81900 4.7965157679e+00 6.9563969257e-05 1.5001781972e+00 -2.5983848580e+00 1.5001781972e+00 2.5983848580e+00 
82000 4.7965157680e+00 6.9608065613e-05 1.5001781972e+00 -2.5983848580e+00 1.5001781972e+00 2.5983848580e+00 
82100 4.7965157680e+00 6.9652100526e-05 1.5001781972e+00 -2.5983848580e+00 1.5001781972e+00 2.5983848580e+00 
82200 4.7965157680e+00 6.9658259168e-05 1.5001781972e+00 -2.5983848580e+00 1.5001781972e+00 2.5983848580e+00 
82200 4.7965157680e+00 6.9658259168e-05 1.5001781972e+00 -2.5983848580e+00 1.5001781972e+00 2.5983848580e+00 
