# step Hamiltonian StressXX CellTensor1 CellTensor2 CellTensor3 CellTensor4 
0 7.0773860016e+00 2.2169826101e-01 2.8237630504e+00 -4.8909010719e+00 2.8237630504e+00 4.8909010719e+00 
100 7.1233434279e+00 2.7939854064e-01 2.8237630504e+00 -4.8909010719e+00 2.8237630504e+00 4.8909010719e+00 
200 7.1641668968e+00 3.3213630051e-01 2.8188172245e+00 -4.8823346500e+00 2.8188172245e+00 4.8823346500e+00 
300 7.2010635315e+00 3.8002250668e-01 2.8129278685e+00 -4.8721339862e+00 2.8129278685e+00 4.8721339862e+00 
400 7.2345453582e+00 4.2364312718e-01 2.8061756505e+00 -4.8604388016e+00 2.8061756505e+00 4.8604388016e+00 
500 7.2650401826e+00 4.6353708749e-01 2.7986306365e+00 -4.8473704541e+00 2.7986306365e+00 4.8473704541e+00 
600 7.2928972128e+00 5.0019016469e-01 2.7903532349e+00 -4.8330335739e+00 2.7903532349e+00 4.8330335739e+00 
700 7.3183943947e+00 5.3403154252e-01 2.7813952019e+00 -4.8175178056e+00 2.7813952019e+00 4.8175178056e+00 
800 7.3417465210e+00 5.6543242116e-01 2.7718006776e+00 -4.8008996021e+00 2.7718006776e+00 4.8008996021e+00 
900 7.3631133133e+00 5.9470576213e-01 2.7616072253e+00 -4.7832440248e+00 2.7616072253e+00 4.7832440248e+00 
1000 7.3826068687e+00 6.2210612289e-01 2.7508468647e+00 -4.7646065335e+00 2.7508468647e+00 4.7646065335e+00 
1100 7.4002980856e+00 6.4782856546e-01 2.7395471051e+00 -4.7450347758e+00 2.7395471051e+00 4.7450347758e+00 
1200 7.4162219142e+00 6.7200582148e-01 2.7277320035e+00 -4.7245704194e+00 2.7277320035e+00 4.7245704194e+00 
1300 7.4303815484e+00 6.9470335706e-01 2.7154232842e+00 -4.7032510923e+00 2.7154232842e+00 4.7032510923e+00 
1400 7.4427520156e+00 7.1591288408e-01 2.7026415690e+00 -4.6811125122e+00 2.7026415690e+00 4.6811125122e+00 
1500 7.4532840658e+00 7.3554643435e-01 2.6894077522e+00 -4.6581908691e+00 2.6894077522e+00 4.6581908691e+00 
1600 7.4619097847e+00 7.5343543675e-01 2.6757445227e+00 -4.6345254614e+00 2.6757445227e+00 4.6345254614e+00 
1700 7.4685517644e+00 7.6934186117e-01 2.6616779477e+00 -4.6101614389e+00 2.6616779477e+00 4.6101614389e+00 
1800 7.4731375410e+00 7.8298980494e-01 2.6472389011e+00 -4.5851522764e+00 2.6472389011e+00 4.5851522764e+00 
1900 7.4756196810e+00 7.9412286102e-01 2.6324639467e+00 -4.5595613047e+00 2.6324639467e+00 4.5595613047e+00 
2000 7.4759989390e+00 8.0258220911e-01 2.6173951715e+00 -4.5334614206e+00 2.6173951715e+00 4.5334614206e+00 
2100 7.4743440381e+00 8.0838391175e-01 2.6020785303e+00 -4.5069322197e+00 2.6020785303e+00 4.5069322197e+00 
2200 7.4707994041e+00 8.1176138368e-01 2.5865606513e+00 -4.4800544650e+00 2.5865606513e+00 4.4800544650e+00 
2300 7.4655747972e+00 8.1314527530e-01 2.5708847075e+00 -4.4529029338e+00 2.5708847075e+00 4.4529029338e+00 
2400 7.4589184265e+00 8.1308193738e-01 2.5550865184e+00 -4.4255396675e+00 2.5550865184e+00 4.4255396675e+00 
2500 7.4510831022e+00 8.1212466360e-01 2.5391920902e+00 -4.3980097105e+00 2.5391920902e+00 4.3980097105e+00 
2600 7.4422972689e+00 8.1074265567e-01 2.5232171900e+00 -4.3703403716e+00 2.5232171900e+00 4.3703403716e+00 
2700 7.4327482544e+00 8.0927495153e-01 2.5071686945e+00 -4.3425435620e+00 2.5071686945e+00 4.3425435620e+00 
2800 7.4225781524e+00 8.0792890731e-01 2.4910469018e+00 -4.3146197979e+00 2.4910469018e+00 4.3146197979e+00 
2900 7.4118882518e+00 8.0680572677e-01 2.4748479581e+00 -4.2865624045e+00 2.4748479581e+00 4.2865624045e+00 
3000 7.4007471393e+00 8.0593397624e-01 2.4585658627e+00 -4.2583609879e+00 2.4585658627e+00 4.2583609879e+00 
3100 7.3891990313e+00 8.0529899344e-01 2.4421938690e+00 -4.2300038631e+00 2.4421938690e+00 4.2300038631e+00 
3200 7.3772706986e+00 8.0486369675e-01 2.4257253414e+00 -4.2014795365e+00 2.4257253414e+00 4.2014795365e+00 
3300 7.3649766098e+00 8.0458102173e-01 2.4091542168e+00 -4.1727775068e+00 2.4091542168e+00 4.1727775068e+00 
3400 7.3523225294e+00 8.0440006173e-01 2.3924752289e+00 -4.1438886523e+00 2.3924752289e+00 4.1438886523e+00 
3500 7.3393079915e+00 8.0426815861e-01 2.3756840130e+00 -4.1148054132e+00 2.3756840130e+00 4.1148054132e+00 
3600 7.3259280478e+00 8.0413070983e-01 2.3587771723e+00 -4.0855219062e+00 2.3587771723e+00 4.0855219062e+00 
3700 7.3121746012e+00 8.0392989137e-01 2.3417523516e+00 -4.0560340518e+00 2.3417523516e+00 4.0560340518e+00 
3800 7.2980375457e+00 8.0360305198e-01 2.3246083419e+00 -4.0263397558e+00 2.3246083419e+00 4.0263397558e+00 
3900 7.2835058662e+00 8.0308124555e-01 2.3073452246e+00 -3.9964391596e+00 2.3073452246e+00 3.9964391596e+00 
4000 7.2685687919e+00 8.0228820136e-01 2.2899645558e+00 -3.9663349582e+00 2.2899645558e+00 3.9663349582e+00 
4100 7.2532170612e+00 8.0113994052e-01 2.2724695809e+00 -3.9360327728e+00 2.2724695809e+00 3.9360327728e+00 
4200 7.2374443144e+00 7.9954519106e-01 2.2548654699e+00 -3.9055415581e+00 2.2548654699e+00 3.9055415581e+00 
4300 7.2212486020e+00 7.9740670232e-01 2.2371595548e+00 -3.8748740136e+00 2.2371595548e+00 3.8748740136e+00 
4400 7.2046339563e+00 7.9462349271e-01 2.2193615512e+00 -3.8440469670e+00 2.2193615512e+00 3.8440469670e+00 
4500 7.1876119442e+00 7.9109397176e-01 2.2014837401e+00 -3.8130816899e+00 2.2014837401e+00 3.8130816899e+00 
4600 7.1702030870e+00 7.8671976226e-01 2.1835410901e+00 -3.7820041085e+00 2.1835410901e+00 3.7820041085e+00 
4700 7.1524380173e+00 7.8140992491e-01 2.1655512982e+00 -3.7508448749e+00 2.1655512982e+00 3.7508448749e+00 
4800 7.1343582374e+00 7.7508518424e-01 2.1475347361e+00 -3.7196392739e+00 2.1475347361e+00 3.7196392739e+00 
4900 7.1160163678e+00 7.6768170269e-01 2.1295142948e+00 -3.6884269540e+00 2.1295142948e+00 3.6884269540e+00 
5000 7.0974758154e+00 7.5915397443e-01 2.1115151320e+00 -3.6572514897e+00 2.1115151320e+00 3.6572514897e+00 
5100 7.0788098517e+00 7.4947652130e-01 2.0935643361e+00 -3.6261597990e+00 2.0935643361e+00 3.6261597990e+00 
5200 7.0601001575e+00 7.3864425175e-01 2.0756905280e+00 -3.5952014554e+00 2.0756905280e+00 3.5952014554e+00 
5300 7.0414349524e+00 7.2667154915e-01 2.0579234319e+00 -3.5644279422e+00 2.0579234319e+00 3.5644279422e+00 
5400 7.0229068637e+00 7.1359033863e-01 2.0402934389e+00 -3.5338918985e+00 2.0402934389e+00 3.5338918985e+00 
5500 7.0046107048e+00 6.9944749637e-01 2.0228311918e+00 -3.5036463994e+00 2.0228311918e+00 3.5036463994e+00 
5600 6.9866413145e+00 6.8430199328e-01 2.0055672063e+00 -3.4737442993e+00 2.0055672063e+00 3.4737442993e+00 
5700 6.9690915761e+00 6.6822211248e-01 1.9885315387e+00 -3.4442376575e+00 1.9885315387e+00 3.4442376575e+00 
5800 6.9520506908e+00 6.5128297626e-01 1.9717535024e+00 -3.4151772462e+00 1.9717535024e+00 3.4151772462e+00 
5900 6.9356027369e+00 6.3356449844e-01 1.9552614279e+00 -3.3866121352e+00 1.9552614279e+00 3.3866121352e+00 
6000 6.9198255122e+00 6.1514977436e-01 1.9390824602e+00 -3.3585893412e+00 1.9390824602e+00 3.3585893412e+00 
6100 6.9047896401e+00 5.9612384938e-01 1.9232423861e+00 -3.3311535280e+00 1.9232423861e+00 3.3311535280e+00 
6200 6.8905579042e+00 5.7657277250e-01 1.9077654826e+00 -3.3043467448e+00 1.9077654826e+00 3.3043467448e+00 
6300 6.8771847817e+00 5.5658283712e-01 1.8926743841e+00 -3.2782081954e+00 1.8926743841e+00 3.2782081954e+00 
6400 6.8647161461e+00 5.3623992657e-01 1.8779899632e+00 -3.2527740324e+00 1.8779899632e+00 3.2527740324e+00 
6500 6.8531891164e+00 5.1562890609e-01 1.8637312266e+00 -3.2280771761e+00 1.8637312266e+00 3.2280771761e+00 
6600 6.8426320382e+00 4.9483302755e-01 1.8499152248e+00 -3.2041471591e+00 1.8499152248e+00 3.2041471591e+00 
6700 6.8330645807e+00 4.7393333473e-01 1.8365569794e+00 -3.1810099993e+00 1.8365569794e+00 3.1810099993e+00 
6800 6.8244979430e+00 4.5300807184e-01 1.8236694274e+00 -3.1586881044e+00 1.8236694274e+00 3.1586881044e+00 
6900 6.8169351570e+00 4.3213210732e-01 1.8112633867e+00 -3.1372002117e+00 1.8112633867e+00 3.1372002117e+00 
7000 6.8103714783e+00 4.1137638961e-01 1.7993475431e+00 -3.1165613651e+00 1.7993475431e+00 3.1165613651e+00 
7100 6.8047948545e+00 3.9080745223e-01 1.7879284588e+00 -3.0967829309e+00 1.7879284588e+00 3.0967829309e+00 
7200 6.8001864576e+00 3.7048698398e-01 1.7770106042e+00 -3.0778726521e+00 1.7770106042e+00 3.0778726521e+00 
7300 6.7965212683e+00 3.5047147680e-01 1.7665964115e+00 -3.0598347412e+00 1.7665964115e+00 3.0598347412e+00 
7400 6.7937686985e+00 3.3081196024e-01 1.7566863482e+00 -3.0426700081e+00 1.7566863482e+00 3.0426700081e+00 
7500 6.7918932381e+00 3.1155382739e-01 1.7472790103e+00 -3.0263760208e+00 1.7472790103e+00 3.0263760208e+00 
7600 6.7908551131e+00 2.9273675312e-01 1.7383712308e+00 -3.0109472942e+00 1.7383712308e+00 3.0109472942e+00 
7700 6.7906109420e+00 2.7439470222e-01 1.7299582036e+00 -2.9963755036e+00 1.7299582036e+00 2.9963755036e+00 
7800 6.7911143803e+00 2.5655602203e-01 1.7220336166e+00 -2.9826497163e+00 1.7220336166e+00 2.9826497163e+00 
7900 6.7923167432e+00 2.3924361157e-01 1.7145897942e+00 -2.9697566376e+00 1.7145897942e+00 2.9697566376e+00 
8000 6.7941675972e+00 2.2247515774e-01 1.7076178437e+00 -2.9576808653e+00 1.7076178437e+00 2.9576808653e+00 
8100 6.7966153172e+00 2.0626342784e-01 1.7011078050e+00 -2.9464051474e+00 1.7011078050e+00 2.9464051474e+00 
8200 6.7996076018e+00 1.9061660711e-01 1.6950487983e+00 -2.9359106399e+00 1.6950487983e+00 2.9359106399e+00 
8300 6.8030919457e+00 1.7553866999e-01 1.6894291703e+00 -2.9261771588e+00 1.6894291703e+00 2.9261771588e+00 
8400 6.8070160673e+00 1.6102977405e-01 1.6842366346e+00 -2.9171834231e+00 1.6842366346e+00 2.9171834231e+00 
8500 6.8113282903e+00 1.4708666638e-01 1.6794584052e+00 -2.9089072870e+00 1.6794584052e+00 2.9089072870e+00 
8600 6.8159778823e+00 1.3370309314e-01 1.6750813221e+00 -2.9013259567e+00 1.6750813221e+00 2.9013259567e+00 
8700 6.8209153498e+00 1.2087020394e-01 1.6710919673e+00 -2.8944161915e+00 1.6710919673e+00 2.8944161915e+00 
8800 6.8260926925e+00 1.0857694439e-01 1.6674767709e+00 -2.8881544877e+00 1.6674767709e+00 2.8881544877e+00 
8900 6.8314636204e+00 9.6810430854e-02 1.6642221066e+00 -2.8825172437e+00 1.6642221066e+00 2.8825172437e+00 
9000 6.8369837348e+00 8.5556303172e-02 1.6613143763e+00 -2.8774809071e+00 1.6613143763e+00 2.8774809071e+00 
9100 6.8426106776e+00 7.4799052047e-02 1.6587400842e+00 -2.8730221025e+00 1.6587400842e+00 2.8730221025e+00 
9200 6.8483042510e+00 6.4522318871e-02 1.6564859010e+00 -2.8691177425e+00 1.6564859010e+00 2.8691177425e+00 
9300 6.8540265104e+00 5.4709166818e-02 1.6545387168e+00 -2.8657451207e+00 1.6545387168e+00 2.8657451207e+00 
9400 6.8597418337e+00 4.5342322782e-02 1.6528856867e+00 -2.8628819885e+00 1.6528856867e+00 2.8628819885e+00 
9500 6.8654169687e+00 3.6404390426e-02 1.6515142656e+00 -2.8605066175e+00 1.6515142656e+00 2.8605066175e+00 
9600 6.8710210617e+00 2.7878035215e-02 1.6504122364e+00 -2.8585978469e+00 1.6504122364e+00 2.8585978469e+00 
9700 6.8765256684e+00 1.9746142668e-02 1.6495677306e+00 -2.8571351199e+00 1.6495677306e+00 2.8571351199e+00 
9800 6.8819047501e+00 1.1991951450e-02 1.6489692420e+00 -2.8560985073e+00 1.6489692420e+00 2.8560985073e+00 
9900 6.8871346557e+00 4.5991630857e-03 1.6486056358e+00 -2.8554687228e+00 1.6486056358e+00 2.8554687228e+00 
10000 6.8921940921e+00 -2.4479697433e-03 1.6484661513e+00 -2.8552271285e+00 1.6484661513e+00 2.8552271285e+00 
10100 6.8970640836e+00 -9.1645743228e-03 1.6485404017e+00 -2.8553557342e+00 1.6485404017e+00 2.8553557342e+00 
10200 6.9017279214e+00 -1.5565106443e-02 1.6488183698e+00 -2.8558371890e+00 1.6488183698e+00 2.8558371890e+00 
10300 6.9061711054e+00 -2.1663314385e-02 1.6492904002e+00 -2.8566547697e+00 1.6492904002e+00 2.8566547697e+00 
10400 6.9103812780e+00 -2.7472216462e-02 1.6499471903e+00 -2.8577923634e+00 1.6499471903e+00 2.8577923634e+00 
10500 6.9143481513e+00 -3.3004090341e-02 1.6507797784e+00 -2.8592344482e+00 1.6507797784e+00 2.8592344482e+00 
10600 6.9180634291e+00 -3.8270472473e-02 1.6517795307e+00 -2.8609660701e+00 1.6517795307e+00 2.8609660701e+00 
10700 6.9215207236e+00 -4.3282166089e-02 1.6529381279e+00 -2.8629728193e+00 1.6529381279e+00 2.8629728193e+00 
10800 6.9247154677e+00 -4.8049256376e-02 1.6542475500e+00 -2.8652408050e+00 1.6542475500e+00 2.8652408050e+00 
10900 6.9276448248e+00 -5.2581131547e-02 1.6557000618e+00 -2.8677566291e+00 1.6557000618e+00 2.8677566291e+00 
11000 6.9303075945e+00 -5.6886508679e-02 1.6572881975e+00 -2.8705073609e+00 1.6572881975e+00 2.8705073609e+00 
11100 6.9327041170e+00 -6.0973463301e-02 1.6590047462e+00 -2.8734805104e+00 1.6590047462e+00 2.8734805104e+00 
11200 6.9348361752e+00 -6.4849461842e-02 1.6608427369e+00 -2.8766640038e+00 1.6608427369e+00 2.8766640038e+00 
11300 6.9367068969e+00 -6.8521396157e-02 1.6627954249e+00 -2.8800461585e+00 1.6627954249e+00 2.8800461585e+00 
11400 6.9383206547e+00 -7.1995619441e-02 1.6648562776e+00 -2.8836156601e+00 1.6648562776e+00 2.8836156601e+00 
11500 6.9396829674e+00 -7.5277982957e-02 1.6670189623e+00 -2.8873615399e+00 1.6670189623e+00 2.8873615399e+00 
11600 6.9408004015e+00 -7.8373873057e-02 1.6692773335e+00 -2.8912731536e+00 1.6692773335e+00 2.8912731536e+00 
11700 6.9416804727e+00 -8.1288248082e-02 1.6716254220e+00 -2.8953401621e+00 1.6716254220e+00 2.8953401621e+00 
11800 6.9423315499e+00 -8.4025674769e-02 1.6740574239e+00 -2.8995525130e+00 1.6740574239e+00 2.8995525130e+00 
11900 6.9427627602e+00 -8.6590363866e-02 1.6765676914e+00 -2.9039004238e+00 1.6765676914e+00 2.9039004238e+00 
12000 6.9429838964e+00 -8.8986204709e-02 1.6791507233e+00 -2.9083743664e+00 1.6791507233e+00 2.9083743664e+00 
12100 6.9430053260e+00 -9.1216798564e-02 1.6818011576e+00 -2.9129650532e+00 1.6818011576e+00 2.9129650532e+00 
12200 6.9428379043e+00 -9.3285490561e-02 1.6845137634e+00 -2.9176634243e+00 1.6845137634e+00 2.9176634243e+00 
12300 6.9424928891e+00 -9.5195400114e-02 1.6872834352e+00 -2.9224606366e+00 1.6872834352e+00 2.9224606366e+00 
12400 6.9419818591e+00 -9.6949449724e-02 1.6901051865e+00 -2.9273480531e+00 1.6901051865e+00 2.9273480531e+00 
12500 6.9413166361e+00 -9.8550392101e-02 1.6929741447e+00 -2.9323172345e+00 1.6929741447e+00 2.9323172345e+00 
12600 6.9405092099e+00 -1.0000083558e-01 1.6958855472e+00 -2.9373599315e+00 1.6958855472e+00 2.9373599315e+00 
12700 6.9395716679e+00 -1.0130326781e-01 1.6988347368e+00 -2.9424680778e+00 1.6988347368e+00 2.9424680778e+00 
12800 6.9385161272e+00 -1.0246007766e-01 1.7018171590e+00 -2.9476337845e+00 1.7018171590e+00 2.9476337845e+00 
12900 6.9373546722e+00 -1.0347357548e-01 1.7048283588e+00 -2.9528493356e+00 1.7048283588e+00 2.9528493356e+00 
13000 6.9360992947e+00 -1.0434601164e-01 1.7078639787e+00 -2.9581071836e+00 1.7078639787e+00 2.9581071836e+00 
13100 6.9347618390e+00 -1.0507959339e-01 1.7109197567e+00 -2.9633999463e+00 1.7109197567e+00 2.9633999463e+00 
13200 6.9333539505e+00 -1.0567650017e-01 1.7139915247e+00 -2.9687204046e+00 1.7139915247e+00 2.9687204046e+00 
13300 6.9318870286e+00 -1.0613889738e-01 1.7170752075e+00 -2.9740614997e+00 1.7170752075e+00 2.9740614997e+00 
13400 6.9303721832e+00 -1.0646894864e-01 1.7201668216e+00 -2.9794163326e+00 1.7201668216e+00 2.9794163326e+00 
13500 6.9288201958e+00 -1.0666882668e-01 1.7232624753e+00 -2.9847781621e+00 1.7232624753e+00 2.9847781621e+00 
13600 6.9272414834e+00 -1.0674072288e-01 1.7263583676e+00 -2.9901404047e+00 1.7263583676e+00 2.9901404047e+00 
13700 6.9256460673e+00 -1.0668685560e-01 1.7294507882e+00 -2.9954966343e+00 1.7294507882e+00 2.9954966343e+00 
13800 6.9240435451e+00 -1.0650947728e-01 1.7325361177e+00 -3.0008405818e+00 1.7325361177e+00 3.0008405818e+00 
13900 6.9224430659e+00 -1.0621088049e-01 1.7356108275e+00 -3.0061661354e+00 1.7356108275e+00 3.0061661354e+00 
14000 6.9208533098e+00 -1.0579340297e-01 1.7386714800e+00 -3.0114673411e+00 1.7386714800e+00 3.0114673411e+00 
14100 6.9192824698e+00 -1.0525943173e-01 1.7417147289e+00 -3.0167384028e+00 1.7417147289e+00 3.0167384028e+00 
14200 6.9177382379e+00 -1.0461140629e-01 1.7447373196e+00 -3.0219736835e+00 1.7447373196e+00 3.0219736835e+00 
14300 6.9162277934e+00 -1.0385182117e-01 1.7477360895e+00 -3.0271677052e+00 1.7477360895e+00 3.0271677052e+00 
14400 6.9147577946e+00 -1.0298322767e-01 1.7507079682e+00 -3.0323151502e+00 1.7507079682e+00 3.0323151502e+00 
14500 6.9133343731e+00 -1.0200823505e-01 1.7536499785e+00 -3.0374108614e+00 1.7536499785e+00 3.0374108614e+00 
14600 6.9119631309e+00 -1.0092951107e-01 1.7565592359e+00 -3.0424498431e+00 1.7565592359e+00 3.0424498431e+00 
14700 6.9106491397e+00 -9.9749782165e-02 1.7594329499e+00 -3.0474272618e+00 1.7594329499e+00 3.0474272618e+00 
14800 6.9093969431e+00 -9.8471833095e-02 1.7622684239e+00 -3.0523384467e+00 1.7622684239e+00 3.0523384467e+00 
14900 6.9082105599e+00 -9.7098506253e-02 1.7650630552e+00 -3.0571788902e+00 1.7650630552e+00 3.0571788902e+00 
15000 6.9070934910e+00 -9.5632700659e-02 1.7678143361e+00 -3.0619442485e+00 1.7678143361e+00 3.0619442485e+00 
15100 6.9060487266e+00 -9.4077370677e-02 1.7705198535e+00 -3.0666303421e+00 1.7705198535e+00 3.0666303421e+00 
15200 6.9050787565e+00 -9.2435524504e-02 1.7731772895e+00 -3.0712331563e+00 1.7731772895e+00 3.0712331563e+00 
15300 6.9041855809e+00 -9.0710222483e-02 1.7757844213e+00 -3.0757488410e+00 1.7757844213e+00 3.0757488410e+00 
15400 6.9033707236e+00 -8.8904575248e-02 1.7783391215e+00 -3.0801737115e+00 1.7783391215e+00 3.0801737115e+00 
15500 6.9026352464e+00 -8.7021741758e-02 1.7808393582e+00 -3.0845042485e+00 1.7808393582e+00 3.0845042485e+00 
15600 6.9019797638e+00 -8.5064927234e-02 1.7832831949e+00 -3.0887370979e+00 1.7832831949e+00 3.0887370979e+00 
15700 6.9014044605e+00 -8.3037381023e-02 1.7856687909e+00 -3.0928690713e+00 1.7856687909e+00 3.0928690713e+00 
15800 6.9009091084e+00 -8.0942394396e-02 1.7879944007e+00 -3.0968971457e+00 1.7879944007e+00 3.0968971457e+00 
15900 6.9004930852e+00 -7.8783298318e-02 1.7902583745e+00 -3.1008184634e+00 1.7902583745e+00 3.1008184634e+00 
16000 6.9001553941e+00 -7.6563461170e-02 1.7924591579e+00 -3.1046303320e+00 1.7924591579e+00 3.1046303320e+00 
16100 6.8998946832e+00 -7.4286286455e-02 1.7945952916e+00 -3.1083302240e+00 1.7945952916e+00 3.1083302240e+00 
16200 6.8997092669e+00 -7.1955210468e-02 1.7966654115e+00 -3.1119157769e+00 1.7966654115e+00 3.1119157769e+00 
16300 6.8995971463e+00 -6.9573699950e-02 1.7986682486e+00 -3.1153847925e+00 1.7986682486e+00 3.1153847925e+00 
16400 6.8995560315e+00 -6.7145249706e-02 1.8006026285e+00 -3.1187352368e+00 1.8006026285e+00 3.1187352368e+00 
16500 6.8995833629e+00 -6.4673380192e-02 1.8024674715e+00 -3.1219652397e+00 1.8024674715e+00 3.1219652397e+00 
16600 6.8996763340e+00 -6.2161635055e-02 1.8042617923e+00 -3.1250730945e+00 1.8042617923e+00 3.1250730945e+00 
16700 6.8998319134e+00 -5.9613578626e-02 1.8059846997e+00 -3.1280572575e+00 1.8059846997e+00 3.1280572575e+00 
16800 6.9000468675e+00 -5.7032793343e-02 1.8076353961e+00 -3.1309163476e+00 1.8076353961e+00 3.1309163476e+00 
16900 6.9003177829e+00 -5.4422877097e-02 1.8092131778e+00 -3.1336491457e+00 1.8092131778e+00 3.1336491457e+00 
17000 6.9006410894e+00 -5.1787440491e-02 1.8107174343e+00 -3.1362545943e+00 1.8107174343e+00 3.1362545943e+00 
17100 6.9010130820e+00 -4.9130103987e-02 1.8121476478e+00 -3.1387317968e+00 1.8121476478e+00 3.1387317968e+00 
17200 6.9014299431e+00 -4.6454494937e-02 1.8135033934e+00 -3.1410800171e+00 1.8135033934e+00 3.1410800171e+00 
17300 6.9018877651e+00 -4.3764244481e-02 1.8147843383e+00 -3.1432986788e+00 1.8147843383e+00 3.1432986788e+00 
17400 6.9023825716e+00 -4.1062984289e-02 1.8159902416e+00 -3.1453873645e+00 1.8159902416e+00 3.1453873645e+00 
17500 6.9029103392e+00 -3.8354343150e-02 1.8171209537e+00 -3.1473458153e+00 1.8171209537e+00 3.1473458153e+00 
17600 6.9034670182e+00 -3.5641943382e-02 1.8181764160e+00 -3.1491739297e+00 1.8181764160e+00 3.1491739297e+00 
17700 6.9040485535e+00 -3.2929397057e-02 1.8191566604e+00 -3.1508717627e+00 1.8191566604e+00 3.1508717627e+00 
17800 6.9046509039e+00 -3.0220302039e-02 1.8200618085e+00 -3.1524395253e+00 1.8200618085e+00 3.1524395253e+00 
17900 6.9052700621e+00 -2.7518237810e-02 1.8208920715e+00 -3.1538775830e+00 1.8208920715e+00 3.1538775830e+00 
18000 6.9059020732e+00 -2.4826761109e-02 1.8216477489e+00 -3.1551864546e+00 1.8216477489e+00 3.1551864546e+00 
18100 6.9065430524e+00 -2.2149401345e-02 1.8223292283e+00 -3.1563668116e+00 1.8223292283e+00 3.1563668116e+00 
18200 6.9071892026e+00 -1.9489655819e-02 1.8229369844e+00 -3.1574194759e+00 1.8229369844e+00 3.1574194759e+00 
18300 6.9078368305e+00 -1.6850984735e-02 1.8234715780e+00 -3.1583454192e+00 1.8234715780e+00 3.1583454192e+00 
18400 6.9084823622e+00 -1.4236806022e-02 1.8239336552e+00 -3.1591457605e+00 1.8239336552e+00 3.1591457605e+00 
18500 6.9091223575e+00 -1.1650489968e-02 1.8243239467e+00 -3.1598217651e+00 1.8243239467e+00 3.1598217651e+00 
18600 6.9097535240e+00 -9.0953536770e-03 1.8246432658e+00 -3.1603748420e+00 1.8246432658e+00 3.1603748420e+00 
18700 6.9103727289e+00 -6.5746553790e-03 1.8248925079e+00 -3.1608065421e+00 1.8248925079e+00 3.1608065421e+00 
18800 6.9109770112e+00 -4.0915885981e-03 1.8250726491e+00 -3.1611185557e+00 1.8250726491e+00 3.1611185557e+00 
18900 6.9115635912e+00 -1.6492762087e-03 1.8251847441e+00 -3.1613127099e+00 1.8251847441e+00 3.1613127099e+00 
19000 6.9121298806e+00 7.4923559500e-04 1.8252299253e+00 -3.1613909662e+00 1.8252299253e+00 3.1613909662e+00 
19100 6.9126734899e+00 3.1009833892e-03 1.8252094010e+00 -3.1613554169e+00 1.8252094010e+00 3.1613554169e+00 
19200 6.9131922353e+00 5.4030926368e-03 1.8251244529e+00 -3.1612082826e+00 1.8251244529e+00 3.1612082826e+00 
19300 6.9136841445e+00 7.6527837980e-03 1.8249764351e+00 -3.1609519082e+00 1.8249764351e+00 3.1609519082e+00 
19400 6.9141474609e+00 9.8473783978e-03 1.8247667711e+00 -3.1605887595e+00 1.8247667711e+00 3.1605887595e+00 
19500 6.9145806467e+00 1.1984305013e-02 1.8244969520e+00 -3.1601214192e+00 1.8244969520e+00 3.1601214192e+00 
19600 6.9149823851e+00 1.4061105143e-02 1.8241685342e+00 -3.1595525829e+00 1.8241685342e+00 3.1595525829e+00 
19700 6.9153515803e+00 1.6075438916e-02 1.8237831365e+00 -3.1588850544e+00 1.8237831365e+00 3.1588850544e+00 
19800 6.9156873576e+00 1.8025090601e-02 1.8233424374e+00 -3.1581217411e+00 1.8233424374e+00 3.1581217411e+00 
19900 6.9159890611e+00 1.9907973880e-02 1.8228481727e+00 -3.1572656496e+00 1.8228481727e+00 3.1572656496e+00 
20000 6.9162562511e+00 2.1722136835e-02 1.8223021322e+00 -3.1563198796e+00 1.8223021322e+00 3.1563198796e+00 
20100 6.9164886996e+00 2.3465766623e-02 1.8217061566e+00 -3.1552876196e+00 1.8217061566e+00 3.1552876196e+00 
20200 6.9166863856e+00 2.5137193788e-02 1.8210621344e+00 -3.1541721405e+00 1.8210621344e+00 3.1541721405e+00 
20300 6.9168494881e+00 2.6734896189e-02 1.8203719985e+00 -3.1529767901e+00 1.8203719985e+00 3.1529767901e+00 
20400 6.9169783796e+00 2.8257502491e-02 1.8196377228e+00 -3.1517049873e+00 1.8196377228e+00 3.1517049873e+00 
20500 6.9170736174e+00 2.9703795209e-02 1.8188613185e+00 -3.1503602156e+00 1.8188613185e+00 3.1503602156e+00 
20600 6.9171359345e+00 3.1072713263e-02 1.8180448304e+00 -3.1489460167e+00 1.8180448304e+00 3.1489460167e+00 
20700 6.9171662298e+00 3.2363354025e-02 1.8171903334e+00 -3.1474659845e+00 1.8171903334e+00 3.1474659845e+00 
20800 6.9171655578e+00 3.3574974835e-02 1.8162999283e+00 -3.1459237577e+00 1.8162999283e+00 3.1459237577e+00 
20900 6.9171351165e+00 3.4706993975e-02 1.8153757383e+00 -3.1443230136e+00 1.8153757383e+00 3.1443230136e+00 
21000 6.9170762364e+00 3.5758991079e-02 1.8144199046e+00 -3.1426674610e+00 1.8144199046e+00 3.1426674610e+00 
21100 6.9169903677e+00 3.6730706987e-02 1.8134345827e+00 -3.1409608335e+00 1.8134345827e+00 3.1409608335e+00 
21200 6.9168790676e+00 3.7622043015e-02 1.8124219384e+00 -3.1392068820e+00 1.8124219384e+00 3.1392068820e+00 
21300 6.9167439877e+00 3.8433059670e-02 1.8113841433e+00 -3.1374093682e+00 1.8113841433e+00 3.1374093682e+00 
21400 6.9165868602e+00 3.9163974795e-02 1.8103233715e+00 -3.1355720575e+00 1.8103233715e+00 3.1355720575e+00 
21500 6.9164094852e+00 3.9815161160e-02 1.8092417947e+00 -3.1336987117e+00 1.8092417947e+00 3.1336987117e+00 
21600 6.9162137170e+00 4.0387143518e-02 1.8081415791e+00 -3.1317930823e+00 1.8081415791e+00 3.1317930823e+00 
21700 6.9160014507e+00 4.0880595140e-02 1.8070248805e+00 -3.1298589035e+00 1.8070248805e+00 3.1298589035e+00 
21800 6.9157746096e+00 4.1296333845e-02 1.8058938411e+00 -3.1278998858e+00 1.8058938411e+00 3.1278998858e+00 
21900 6.9155351319e+00 4.1635317565e-02 1.8047505852e+00 -3.1259197086e+00 1.8047505852e+00 3.1259197086e+00 
22000 6.9152849585e+00 4.1898639460e-02 1.8035972159e+00 -3.1239220143e+00 1.8035972159e+00 3.1239220143e+00 
22100 6.9150260205e+00 4.2087522624e-02 1.8024358108e+00 -3.1219104017e+00 1.8024358108e+00 3.1219104017e+00 
22200 6.9147602279e+00 4.2203314408e-02 1.8012684190e+00 -3.1198884198e+00 1.8012684190e+00 3.1198884198e+00 
22300 6.9144894583e+00 4.2247480407e-02 1.8000970573e+00 -3.1178595618e+00 1.8000970573e+00 3.1178595618e+00 
22400 6.9142155461e+00 4.2221598140e-02 1.7989237070e+00 -3.1158272595e+00 1.7989237070e+00 3.1158272595e+00 
22500 6.9139402733e+00 4.2127350463e-02 1.7977503109e+00 -3.1137948777e+00 1.7977503109e+00 3.1137948777e+00 
22600 6.9136653596e+00 4.1966518768e-02 1.7965787696e+00 -3.1117657088e+00 1.7965787696e+00 3.1117657088e+00 
22700 6.9133924545e+00 4.1740975983e-02 1.7954109397e+00 -3.1097429681e+00 1.7954109397e+00 3.1097429681e+00 
22800 6.9131231292e+00 4.1452679449e-02 1.7942486301e+00 -3.1077297887e+00 1.7942486301e+00 3.1077297887e+00 
22900 6.9128588701e+00 4.1103663681e-02 1.7930935998e+00 -3.1057292176e+00 1.7930935998e+00 3.1057292176e+00 
23000 6.9126010725e+00 4.0696033072e-02 1.7919475559e+00 -3.1037442113e+00 1.7919475559e+00 3.1037442113e+00 
23100 6.9123510354e+00 4.0231954582e-02 1.7908121507e+00 -3.1017776317e+00 1.7908121507e+00 3.1017776317e+00 
23200 6.9121099572e+00 3.9713650429e-02 1.7896889802e+00 -3.0998322434e+00 1.7896889802e+00 3.0998322434e+00 
23300 6.9118789321e+00 3.9143390844e-02 1.7885795823e+00 -3.0979107099e+00 1.7885795823e+00 3.0979107099e+00 
23400 6.9116589474e+00 3.8523486908e-02 1.7874854348e+00 -3.0960155909e+00 1.7874854348e+00 3.0960155909e+00 
23500 6.9114508817e+00 3.7856283503e-02 1.7864079543e+00 -3.0941493399e+00 1.7864079543e+00 3.0941493399e+00 
23600 6.9112555035e+00 3.7144152413e-02 1.7853484948e+00 -3.0923143021e+00 1.7853484948e+00 3.0923143021e+00 
23700 6.9110734710e+00 3.6389485609e-02 1.7843083465e+00 -3.0905127125e+00 1.7843083465e+00 3.0905127125e+00 
23800 6.9109053328e+00 3.5594688719e-02 1.7832887352e+00 -3.0887466940e+00 1.7832887352e+00 3.0887466940e+00 
23900 6.9107515286e+00 3.4762174731e-02 1.7822908215e+00 -3.0870182567e+00 1.7822908215e+00 3.0870182567e+00 
24000 6.9106123912e+00 3.3894357940e-02 1.7813157000e+00 -3.0853292966e+00 1.7813157000e+00 3.0853292966e+00 
24100 6.9104881487e+00 3.2993648140e-02 1.7803643992e+00 -3.0836815954e+00 1.7803643992e+00 3.0836815954e+00 
24200 6.9103789280e+00 3.2062445108e-02 1.7794378814e+00 -3.0820768196e+00 1.7794378814e+00 3.0820768196e+00 
24300 6.9102847578e+00 3.1103133356e-02 1.7785370425e+00 -3.0805165208e+00 1.7785370425e+00 3.0805165208e+00 
24400 6.9102055731e+00 3.0118077187e-02 1.7776627120e+00 -3.0790021359e+00 1.7776627120e+00 3.0790021359e+00 
24500 6.9101412191e+00 2.9109616046e-02 1.7768156536e+00 -3.0775349877e+00 1.7768156536e+00 3.0775349877e+00 
24600 6.9100914569e+00 2.8080060174e-02 1.7759965653e+00 -3.0761162851e+00 1.7759965653e+00 3.0761162851e+00 
24700 6.9100559678e+00 2.7031686572e-02 1.7752060802e+00 -3.0747471248e+00 1.7752060802e+00 3.0747471248e+00 
24800 6.9100343596e+00 2.5966735266e-02 1.7744447671e+00 -3.0734284918e+00 1.7744447671e+00 3.0734284918e+00 
24900 6.9100261718e+00 2.4887405875e-02 1.7737131312e+00 -3.0721612612e+00 1.7737131312e+00 3.0721612612e+00 
25000 6.9100308819e+00 2.3795854479e-02 1.7730116151e+00 -3.0709461998e+00 1.7730116151e+00 3.0709461998e+00 
25100 6.9100479109e+00 2.2694190780e-02 1.7723406000e+00 -3.0697839675e+00 1.7723406000e+00 3.0697839675e+00 
25200 6.9100766302e+00 2.1584475543e-02 1.7717004063e+00 -3.0686751195e+00 1.7717004063e+00 3.0686751195e+00 
25300 6.9101163674e+00 2.0468718324e-02 1.7710912955e+00 -3.0676201086e+00 1.7710912955e+00 3.0676201086e+00 
25400 6.9101664121e+00 1.9348875452e-02 1.7705134708e+00 -3.0666192869e+00 1.7705134708e+00 3.0666192869e+00 
25500 6.9102260230e+00 1.8226848282e-02 1.7699670790e+00 -3.0656729086e+00 1.7699670790e+00 3.0656729086e+00 
25600 6.9102944330e+00 1.7104481677e-02 1.7694522117e+00 -3.0647811323e+00 1.7694522117e+00 3.0647811323e+00 
25700 6.9103708556e+00 1.5983562737e-02 1.7689689067e+00 -3.0639440234e+00 1.7689689067e+00 3.0639440234e+00 
25800 6.9104544908e+00 1.4865819740e-02 1.7685171497e+00 -3.0631615573e+00 1.7685171497e+00 3.0631615573e+00 
25900 6.9105445304e+00 1.3752921296e-02 1.7680968758e+00 -3.0624336216e+00 1.7680968758e+00 3.0624336216e+00 
26000 6.9106401634e+00 1.2646475691e-02 1.7677079713e+00 -3.0617600193e+00 1.7677079713e+00 3.0617600193e+00 
26100 6.9107405815e+00 1.1548030417e-02 1.7673502751e+00 -3.0611404712e+00 1.7673502751e+00 3.0611404712e+00 
26200 6.9108449836e+00 1.0459071867e-02 1.7670235805e+00 -3.0605746196e+00 1.7670235805e+00 3.0605746196e+00 
26300 6.9109525804e+00 9.3810251913e-03 1.7667276371e+00 -3.0600620306e+00 1.7667276371e+00 3.0600620306e+00 
26400 6.9110625990e+00 8.3152542957e-03 1.7664621522e+00 -3.0596021973e+00 1.7664621522e+00 3.0596021973e+00 
26500 6.9111742867e+00 7.2630619680e-03 1.7662267928e+00 -3.0591945428e+00 1.7662267928e+00 3.0591945428e+00 
26600 6.9112869147e+00 6.2256901295e-03 1.7660211872e+00 -3.0588384236e+00 1.7660211872e+00 3.0588384236e+00 
26700 6.9113997814e+00 5.2043201932e-03 1.7658449270e+00 -3.0585331319e+00 1.7658449270e+00 3.0585331319e+00 
26800 6.9115122155e+00 4.2000735206e-03 1.7656975684e+00 -3.0582778993e+00 1.7656975684e+00 3.0582778993e+00 
26900 6.9116235785e+00 3.2140119663e-03 1.7655786345e+00 -3.0580718997e+00 1.7655786345e+00 3.0580718997e+00 
27000 6.9117332674e+00 2.2471385023e-03 1.7654876166e+00 -3.0579142522e+00 1.7654876166e+00 3.0579142522e+00 
27100 6.9118407164e+00 1.3003979107e-03 1.7654239763e+00 -3.0578040238e+00 1.7654239763e+00 3.0578040238e+00 
27200 6.9119453984e+00 3.7467753868e-04 1.7653871468e+00 -3.0577402333e+00 1.7653871468e+00 3.0577402333e+00 
27300 6.9120468270e+00 -5.2919189285e-04 1.7653765350e+00 -3.0577218532e+00 1.7653765350e+00 3.0577218532e+00 
27400 6.9121445569e+00 -1.4104354342e-03 1.7653915231e+00 -3.0577478133e+00 1.7653915231e+00 3.0577478133e+00 
27500 6.9122381849e+00 -2.2683330113e-03 1.7654314701e+00 -3.0578170035e+00 1.7654314701e+00 3.0578170035e+00 
27600 6.9123273504e+00 -3.1022184963e-03 1.7654957135e+00 -3.0579282764e+00 1.7654957135e+00 3.0579282764e+00 
27700 6.9124117355e+00 -3.9114787480e-03 1.7655835711e+00 -3.0580804502e+00 1.7655835711e+00 3.0580804502e+00 
27800 6.9124910647e+00 -4.6955526296e-03 1.7656943424e+00 -3.0582723117e+00 1.7656943424e+00 3.0582723117e+00 
27900 6.9125651050e+00 -5.4539300046e-03 1.7658273103e+00 -3.0585026188e+00 1.7658273103e+00 3.0585026188e+00 
28000 6.9126336648e+00 -6.1861507177e-03 1.7659817424e+00 -3.0587701031e+00 1.7659817424e+00 3.0587701031e+00 
28100 6.9126965933e+00 -6.8918035622e-03 1.7661568929e+00 -3.0590734727e+00 1.7661568929e+00 3.0590734727e+00 
28200 6.9127537797e+00 -7.5705252369e-03 1.7663520039e+00 -3.0594114147e+00 1.7663520039e+00 3.0594114147e+00 
28300 6.9128051516e+00 -8.2219992954e-03 1.7665663065e+00 -3.0597825978e+00 1.7665663065e+00 3.0597825978e+00 
28400 6.9128506738e+00 -8.8459550904e-03 1.7667990229e+00 -3.0601856745e+00 1.7667990229e+00 3.0601856745e+00 
28500 6.9128903467e+00 -9.4421667126e-03 1.7670493673e+00 -3.0606192837e+00 1.7670493673e+00 3.0606192837e+00 
28600 6.9129242048e+00 -1.0010451929e-02 1.7673165473e+00 -3.0610820530e+00 1.7673165473e+00 3.0610820530e+00 
28700 6.9129523147e+00 -1.0550671118e-02 1.7675997654e+00 -3.0615726010e+00 1.7675997654e+00 3.0615726010e+00 
28800 6.9129747733e+00 -1.1062726206e-02 1.7678982200e+00 -3.0620895397e+00 1.7678982200e+00 3.0620895397e+00 
28900 6.9129917060e+00 -1.1546559603e-02 1.7682111072e+00 -3.0626314761e+00 1.7682111072e+00 3.0626314761e+00 
29000 6.9130032642e+00 -1.2002153140e-02 1.7685376212e+00 -3.0631970150e+00 1.7685376212e+00 3.0631970150e+00 
29100 6.9130096235e+00 -1.2429527008e-02 1.7688769563e+00 -3.0637847606e+00 1.7688769563e+00 3.0637847606e+00 
29200 6.9130109817e+00 -1.2828738697e-02 1.7692283074e+00 -3.0643933186e+00 1.7692283074e+00 3.0643933186e+00 
29300 6.9130075564e+00 -1.3199881940e-02 1.7695908716e+00 -3.0650212982e+00 1.7695908716e+00 3.0650212982e+00 
29400 6.9129995826e+00 -1.3543085656e-02 1.7699638489e+00 -3.0656673139e+00 1.7699638489e+00 3.0656673139e+00 
29500 6.9129873112e+00 -1.3858512894e-02 1.7703464436e+00 -3.0663299872e+00 1.7703464436e+00 3.0663299872e+00 
29600 6.9129710063e+00 -1.4146359786e-02 1.7707378648e+00 -3.0670079487e+00 1.7707378648e+00 3.0670079487e+00 
29700 6.9129509430e+00 -1.4406854493e-02 1.7711373280e+00 -3.0676998392e+00 1.7711373280e+00 3.0676998392e+00 
29800 6.9129274059e+00 -1.4640256156e-02 1.7715440555e+00 -3.0684043119e+00 1.7715440555e+00 3.0684043119e+00 
29900 6.9129006865e+00 -1.4846853853e-02 1.7719572776e+00 -3.0691200337e+00 1.7719572776e+00 3.0691200337e+00 
30000 6.9128710812e+00 -1.5026965550e-02 1.7723762335e+00 -3.0698456866e+00 1.7723762335e+00 3.0698456866e+00 
30100 6.9128388899e+00 -1.5180937061e-02 1.7728001719e+00 -3.0705799693e+00 1.7728001719e+00 3.0705799693e+00 
30200 6.9128044135e+00 -1.5309141000e-02 1.7732283518e+00 -3.0713215987e+00 1.7732283518e+00 3.0713215987e+00 
30300 6.9127679528e+00 -1.5411975748e-02 1.7736600435e+00 -3.0720693108e+00 1.7736600435e+00 3.0720693108e+00 
30400 6.9127298061e+00 -1.5489864405e-02 1.7740945294e+00 -3.0728218624e+00 1.7740945294e+00 3.0728218624e+00 
30500 6.9126902682e+00 -1.5543253758e-02 1.7745311042e+00 -3.0735780321e+00 1.7745311042e+00 3.0735780321e+00 
30600 6.9126496286e+00 -1.5572613241e-02 1.7749690761e+00 -3.0743366216e+00 1.7749690761e+00 3.0743366216e+00 
30700 6.9126081703e+00 -1.5578433899e-02 1.7754077669e+00 -3.0750964565e+00 1.7754077669e+00 3.0750964565e+00 
30800 6.9125661681e+00 -1.5561227355e-02 1.7758465133e+00 -3.0758563875e+00 1.7758465133e+00 3.0758563875e+00 
30900 6.9125238879e+00 -1.5521524778e-02 1.7762846668e+00 -3.0766152916e+00 1.7762846668e+00 3.0766152916e+00 
31000 6.9124815853e+00 -1.5459875848e-02 1.7767215946e+00 -3.0773720727e+00 1.7767215946e+00 3.0773720727e+00 
31100 6.9124395050e+00 -1.5376847735e-02 1.7771566798e+00 -3.0781256624e+00 1.7771566798e+00 3.0781256624e+00 
31200 6.9123978793e+00 -1.5273024065e-02 1.7775893223e+00 -3.0788750213e+00 1.7775893223e+00 3.0788750213e+00 
31300 6.9123569278e+00 -1.5149003901e-02 1.7780189390e+00 -3.0796191391e+00 1.7780189390e+00 3.0796191391e+00 
31400 6.9123168567e+00 -1.5005400720e-02 1.7784449639e+00 -3.0803570360e+00 1.7784449639e+00 3.0803570360e+00 
31500 6.9122778583e+00 -1.4842841396e-02 1.7788668492e+00 -3.0810877627e+00 1.7788668492e+00 3.0810877627e+00 
31600 6.9122401100e+00 -1.4661965187e-02 1.7792840648e+00 -3.0818104014e+00 1.7792840648e+00 3.0818104014e+00 
31700 6.9122037749e+00 -1.4463422721e-02 1.7796960994e+00 -3.0825240662e+00 1.7796960994e+00 3.0825240662e+00 
31800 6.9121690006e+00 -1.4247874999e-02 1.7801024601e+00 -3.0832279036e+00 1.7801024601e+00 3.0832279036e+00 
31900 6.9121359197e+00 -1.4015992385e-02 1.7805026733e+00 -3.0839210932e+00 1.7805026733e+00 3.0839210932e+00 
32000 6.9121046495e+00 -1.3768453620e-02 1.7808962843e+00 -3.0846028474e+00 1.7808962843e+00 3.0846028474e+00 
32100 6.9120752918e+00 -1.3505944829e-02 1.7812828580e+00 -3.0852724126e+00 1.7812828580e+00 3.0852724126e+00 
32200 6.9120479333e+00 -1.3229158536e-02 1.7816619786e+00 -3.0859290689e+00 1.7816619786e+00 3.0859290689e+00 
32300 6.9120226460e+00 -1.2938792700e-02 1.7820332505e+00 -3.0865721306e+00 1.7820332505e+00 3.0865721306e+00 
32400 6.9119994866e+00 -1.2635549734e-02 1.7823962973e+00 -3.0872009462e+00 1.7823962973e+00 3.0872009462e+00 
32500 6.9119784979e+00 -1.2320135560e-02 1.7827507631e+00 -3.0878148989e+00 1.7827507631e+00 3.0878148989e+00 
32600 6.9119597082e+00 -1.1993258651e-02 1.7830963115e+00 -3.0884134063e+00 1.7830963115e+00 3.0884134063e+00 
32700 6.9119431326e+00 -1.1655629095e-02 1.7834326263e+00 -3.0889959207e+00 1.7834326263e+00 3.0889959207e+00 
32800 6.9119287727e+00 -1.1307957665e-02 1.7837594115e+00 -3.0895619291e+00 1.7837594115e+00 3.0895619291e+00 
32900 6.9119166180e+00 -1.0950954903e-02 1.7840763907e+00 -3.0901109532e+00 1.7840763907e+00 3.0901109532e+00 
33000 6.9119066458e+00 -1.0585330212e-02 1.7843833077e+00 -3.0906425491e+00 1.7843833077e+00 3.0906425491e+00 
33100 6.9118988221e+00 -1.0211790963e-02 1.7846799262e+00 -3.0911563075e+00 1.7846799262e+00 3.0911563075e+00 
33200 6.9118931024e+00 -9.8310416152e-03 1.7849660297e+00 -3.0916518533e+00 1.7849660297e+00 3.0916518533e+00 
33300 6.9118894320e+00 -9.4437828517e-03 1.7852414214e+00 -3.0921288456e+00 1.7852414214e+00 3.0921288456e+00 
33400 6.9118877474e+00 -9.0507107255e-03 1.7855059239e+00 -3.0925869774e+00 1.7855059239e+00 3.0925869774e+00 
33500 6.9118879762e+00 -8.6525158260e-03 1.7857593793e+00 -3.0930259751e+00 1.7857593793e+00 3.0930259751e+00 
33600 6.9118900387e+00 -8.2498824587e-03 1.7860016491e+00 -3.0934455987e+00 1.7860016491e+00 3.0934455987e+00 
33700 6.9118938480e+00 -7.8434878443e-03 1.7862326137e+00 -3.0938456410e+00 1.7862326137e+00 3.0938456410e+00 
33800 6.9118993111e+00 -7.4340013335e-03 1.7864521721e+00 -3.0942259273e+00 1.7864521721e+00 3.0942259273e+00 
33900 6.9119063296e+00 -7.0220836427e-03 1.7866602422e+00 -3.0945863153e+00 1.7866602422e+00 3.0945863153e+00 
34000 6.9119148007e+00 -6.6083861076e-03 1.7868567600e+00 -3.0949266942e+00 1.7868567600e+00 3.0949266942e+00 
34100 6.9119246174e+00 -6.1935499581e-03 1.7870416797e+00 -3.0952469845e+00 1.7870416797e+00 3.0952469845e+00 
34200 6.9119356699e+00 -5.7782056135e-03 1.7872149731e+00 -3.0955471375e+00 1.7872149731e+00 3.0955471375e+00 
34300 6.9119478459e+00 -5.3629720007e-03 1.7873766295e+00 -3.0958271345e+00 1.7873766295e+00 3.0958271345e+00 
34400 6.9119610317e+00 -4.9484558938e-03 1.7875266551e+00 -3.0960869865e+00 1.7875266551e+00 3.0960869865e+00 
34500 6.9119751122e+00 -4.5352512783e-03 1.7876650732e+00 -3.0963267337e+00 1.7876650732e+00 3.0963267337e+00 
34600 6.9119899727e+00 -4.1239387385e-03 1.7877919231e+00 -3.0965464442e+00 1.7877919231e+00 3.0965464442e+00 
34700 6.9120054983e+00 -3.7150848703e-03 1.7879072605e+00 -3.0967462144e+00 1.7879072605e+00 3.0967462144e+00 
34800 6.9120215756e+00 -3.3092417200e-03 1.7880111563e+00 -3.0969261671e+00 1.7880111563e+00 3.0969261671e+00 
34900 6.9120380926e+00 -2.9069462485e-03 1.7881036968e+00 -3.0970864521e+00 1.7881036968e+00 3.0970864521e+00 
35000 6.9120549396e+00 -2.5087198233e-03 1.7881849831e+00 -3.0972272441e+00 1.7881849831e+00 3.0972272441e+00 
35100 6.9120720093e+00 -2.1150677378e-03 1.7882551307e+00 -3.0973487433e+00 1.7882551307e+00 3.0973487433e+00 
35200 6.9120891980e+00 -1.7264787590e-03 1.7883142688e+00 -3.0974511734e+00 1.7883142688e+00 3.0974511734e+00 
35300 6.9121064055e+00 -1.3434247038e-03 1.7883625401e+00 -3.0975347818e+00 1.7883625401e+00 3.0975347818e+00 
35400 6.9121235355e+00 -9.6636004496e-04 1.7884001004e+00 -3.0975998382e+00 1.7884001004e+00 3.0975998382e+00 
35500 6.9121404964e+00 -5.9572154651e-04 1.7884271180e+00 -3.0976466339e+00 1.7884271180e+00 3.0976466339e+00 
35600 6.9121572011e+00 -2.3192792994e-04 1.7884437729e+00 -3.0976754811e+00 1.7884437729e+00 3.0976754811e+00 
35700 6.9121735677e+00 1.2462042930e-04 1.7884502570e+00 -3.0976867119e+00 1.7884502570e+00 3.0976867119e+00 
35800 6.9121895196e+00 4.7354177400e-04 1.7884467729e+00 -3.0976806773e+00 1.7884467729e+00 3.0976806773e+00 
35900 6.9122049858e+00 8.1447320622e-04 1.7884335340e+00 -3.0976577469e+00 1.7884335340e+00 3.0976577469e+00 
36000 6.9122199007e+00 1.1470708966e-03 1.7884107635e+00 -3.0976183072e+00 1.7884107635e+00 3.0976183072e+00 
36100 6.9122342049e+00 1.4710102619e-03 1.7883786940e+00 -3.0975627613e+00 1.7883786940e+00 3.0975627613e+00 
36200 6.9122478448e+00 1.7859861108e-03 1.7883375673e+00 -3.0974915276e+00 1.7883375673e+00 3.0974915276e+00 
36300 6.9122607725e+00 2.0917127578e-03 1.7882876333e+00 -3.0974050393e+00 1.7882876333e+00 3.0974050393e+00 
36400 6.9122729466e+00 2.3879241047e-03 1.7882291499e+00 -3.0973037432e+00 1.7882291499e+00 3.0973037432e+00 
36500 6.9122843313e+00 2.6743736906e-03 1.7881623825e+00 -3.0971880986e+00 1.7881623825e+00 3.0971880986e+00 
36600 6.9122948970e+00 2.9508347106e-03 1.7880876030e+00 -3.0970585768e+00 1.7880876030e+00 3.0970585768e+00 
36700 6.9123046199e+00 3.2171000022e-03 1.7880050900e+00 -3.0969156600e+00 1.7880050900e+00 3.0969156600e+00 
36800 6.9123134819e+00 3.4729820007e-03 1.7879151273e+00 -3.0967598402e+00 1.7879151273e+00 3.0967598402e+00 
36900 6.9123214705e+00 3.7183126641e-03 1.7878180044e+00 -3.0965916183e+00 1.7878180044e+00 3.0965916183e+00 
37000 6.9123285790e+00 3.9529433673e-03 1.7877140152e+00 -3.0964115037e+00 1.7877140152e+00 3.0964115037e+00 
37100 6.9123348056e+00 4.1767447662e-03 1.7876034577e+00 -3.0962200125e+00 1.7876034577e+00 3.0962200125e+00 
37200 6.9123401538e+00 4.3896066326e-03 1.7874866337e+00 -3.0960176675e+00 1.7874866337e+00 3.0960176675e+00 
37300 6.9123446319e+00 4.5914376599e-03 1.7873638480e+00 -3.0958049964e+00 1.7873638480e+00 3.0958049964e+00 
37400 6.9123482528e+00 4.7821652417e-03 1.7872354079e+00 -3.0955825317e+00 1.7872354079e+00 3.0955825317e+00 
37500 6.9123510337e+00 4.9617352217e-03 1.7871016230e+00 -3.0953508092e+00 1.7871016230e+00 3.0953508092e+00 
37600 6.9123529961e+00 5.1301116179e-03 1.7869628040e+00 -3.0951103678e+00 1.7869628040e+00 3.0951103678e+00 
37700 6.9123541649e+00 5.2872763210e-03 1.7868192632e+00 -3.0948617478e+00 1.7868192632e+00 3.0948617478e+00 
37800 6.9123545687e+00 5.4332287680e-03 1.7866713130e+00 -3.0946054906e+00 1.7866713130e+00 3.0946054906e+00 
37900 6.9123542393e+00 5.5679855916e-03 1.7865192663e+00 -3.0943421379e+00 1.7865192663e+00 3.0943421379e+00 
38000 6.9123532113e+00 5.6915802479e-03 1.7863634352e+00 -3.0940722305e+00 1.7863634352e+00 3.0940722305e+00 
38100 6.9123515218e+00 5.8040626207e-03 1.7862041312e+00 -3.0937963080e+00 1.7862041312e+00 3.0937963080e+00 
38200 6.9123492102e+00 5.9054986074e-03 1.7860416645e+00 -3.0935149073e+00 1.7860416645e+00 3.0935149073e+00 
38300 6.9123463177e+00 5.9959696832e-03 1.7858763434e+00 -3.0932285628e+00 1.7858763434e+00 3.0932285628e+00 
38400 6.9123428872e+00 6.0755724488e-03 1.7857084741e+00 -3.0929378047e+00 1.7857084741e+00 3.0929378047e+00 
38500 6.9123389629e+00 6.1444181602e-03 1.7855383602e+00 -3.0926431588e+00 1.7855383602e+00 3.0926431588e+00 
38600 6.9123345898e+00 6.2026322428e-03 1.7853663023e+00 -3.0923451458e+00 1.7853663023e+00 3.0923451458e+00 
38700 6.9123298137e+00 6.2503537909e-03 1.7851925976e+00 -3.0920442803e+00 1.7851925976e+00 3.0920442803e+00 
38800 6.9123246808e+00 6.2877350542e-03 1.7850175394e+00 -3.0917410707e+00 1.7850175394e+00 3.0917410707e+00 
38900 6.9123192372e+00 6.3149409120e-03 1.7848414170e+00 -3.0914360177e+00 1.7848414170e+00 3.0914360177e+00 
39000 6.9123135291e+00 6.3321483368e-03 1.7846645151e+00 -3.0911296146e+00 1.7846645151e+00 3.0911296146e+00 
39100 6.9123076020e+00 6.3395458482e-03 1.7844871136e+00 -3.0908223462e+00 1.7844871136e+00 3.0908223462e+00 
39200 6.9123015010e+00 6.3373329591e-03 1.7843094872e+00 -3.0905146883e+00 1.7843094872e+00 3.0905146883e+00 
39300 6.9122952700e+00 6.3257196150e-03 1.7841319051e+00 -3.0902071071e+00 1.7841319051e+00 3.0902071071e+00 
39400 6.9122889520e+00 6.3049256268e-03 1.7839546308e+00 -3.0899000590e+00 1.7839546308e+00 3.0899000590e+00 
39500 6.9122825886e+00 6.2751801007e-03 1.7837779217e+00 -3.0895939898e+00 1.7837779217e+00 3.0895939898e+00 
39600 6.9122762198e+00 6.2367208639e-03 1.7836020288e+00 -3.0892893343e+00 1.7836020288e+00 3.0892893343e+00 
39700 6.9122698840e+00 6.1897938887e-03 1.7834271967e+00 -3.0889865162e+00 1.7834271967e+00 3.0889865162e+00 
39800 6.9122636177e+00 6.1346527161e-03 1.7832536630e+00 -3.0886859471e+00 1.7832536630e+00 3.0886859471e+00 
39900 6.9122574555e+00 6.0715578799e-03 1.7830816585e+00 -3.0883880265e+00 1.7830816585e+00 3.0883880265e+00 
40000 6.9122514300e+00 6.0007763315e-03 1.7829114065e+00 -3.0880931415e+00 1.7829114065e+00 3.0880931415e+00 
40100 6.9122455714e+00 5.9225808690e-03 1.7827431233e+00 -3.0878016664e+00 1.7827431233e+00 3.0878016664e+00 
40200 6.9122399077e+00 5.8372495685e-03 1.7825770172e+00 -3.0875139623e+00 1.7825770172e+00 3.0875139623e+00 
40300 6.9122344646e+00 5.7450652209e-03 1.7824132891e+00 -3.0872303768e+00 1.7824132891e+00 3.0872303768e+00 
40400 6.9122292655e+00 5.6463147745e-03 1.7822521318e+00 -3.0869512442e+00 1.7822521318e+00 3.0869512442e+00 
40500 6.9122243312e+00 5.5412887839e-03 1.7820937302e+00 -3.0866768846e+00 1.7820937302e+00 3.0866768846e+00 
40600 6.9122196801e+00 5.4302808666e-03 1.7819382612e+00 -3.0864076043e+00 1.7819382612e+00 3.0864076043e+00 
40700 6.9122153283e+00 5.3135871683e-03 1.7817858933e+00 -3.0861436954e+00 1.7817858933e+00 3.0861436954e+00 
40800 6.9122112893e+00 5.1915058367e-03 1.7816367869e+00 -3.0858854355e+00 1.7816367869e+00 3.0858854355e+00 
40900 6.9122075743e+00 5.0643365059e-03 1.7814910940e+00 -3.0856330881e+00 1.7814910940e+00 3.0856330881e+00 
41000 6.9122041920e+00 4.9323797915e-03 1.7813489584e+00 -3.0853869019e+00 1.7813489584e+00 3.0853869019e+00 
41100 6.9122011488e+00 4.7959367959e-03 1.7812105151e+00 -3.0851471111e+00 1.7812105151e+00 3.0851471111e+00 
41200 6.9121984490e+00 4.6553086271e-03 1.7810758910e+00 -3.0849139353e+00 1.7810758910e+00 3.0849139353e+00 
41300 6.9121960946e+00 4.5107959285e-03 1.7809452045e+00 -3.0846875797e+00 1.7809452045e+00 3.0846875797e+00 
41400 6.9121940855e+00 4.3626984228e-03 1.7808185655e+00 -3.0844682345e+00 1.7808185655e+00 3.0844682345e+00 
41500 6.9121924195e+00 4.2113144684e-03 1.7806960755e+00 -3.0842560756e+00 1.7806960755e+00 3.0842560756e+00 
41600 6.9121910926e+00 4.0569406299e-03 1.7805778277e+00 -3.0840512644e+00 1.7805778277e+00 3.0840512644e+00 
41700 6.9121900989e+00 3.8998712634e-03 1.7804639069e+00 -3.0838539478e+00 1.7804639069e+00 3.0838539478e+00 
41800 6.9121894309e+00 3.7403981153e-03 1.7803543896e+00 -3.0836642583e+00 1.7803543896e+00 3.0836642583e+00 
41900 6.9121890795e+00 3.5788099365e-03 1.7802493442e+00 -3.0834823143e+00 1.7802493442e+00 3.0834823143e+00 
42000 6.9121890341e+00 3.4153921115e-03 1.7801488309e+00 -3.0833082201e+00 1.7801488309e+00 3.0833082201e+00 
42100 6.9121892827e+00 3.2504263028e-03 1.7800529018e+00 -3.0831420660e+00 1.7800529018e+00 3.0831420660e+00 
42200 6.9121898121e+00 3.0841901101e-03 1.7799616012e+00 -3.0829839287e+00 1.7799616012e+00 3.0829839287e+00 
42300 6.9121906082e+00 2.9169567461e-03 1.7798749654e+00 -3.0828338713e+00 1.7798749654e+00 3.0828338713e+00 
42400 6.9121916558e+00 2.7489947263e-03 1.7797930233e+00 -3.0826919433e+00 1.7797930233e+00 3.0826919433e+00 
42500 6.9121929388e+00 2.5805675760e-03 1.7797157959e+00 -3.0825581816e+00 1.7797157959e+00 3.0825581816e+00 
42600 6.9121944406e+00 2.4119335517e-03 1.7796432970e+00 -3.0824326098e+00 1.7796432970e+00 3.0824326098e+00 
42700 6.9121961439e+00 2.2433453785e-03 1.7795755329e+00 -3.0823152389e+00 1.7795755329e+00 3.0823152389e+00 
42800 6.9121980310e+00 2.0750500034e-03 1.7795125029e+00 -3.0822060678e+00 1.7795125029e+00 3.0822060678e+00 
42900 6.9122000839e+00 1.9072883633e-03 1.7794541994e+00 -3.0821050830e+00 1.7794541994e+00 3.0821050830e+00 
43000 6.9122022843e+00 1.7402951690e-03 1.7794006077e+00 -3.0820122595e+00 1.7794006077e+00 3.0820122595e+00 
43100 6.9122046139e+00 1.5742987038e-03 1.7793517068e+00 -3.0819275606e+00 1.7793517068e+00 3.0819275606e+00 
43200 6.9122070545e+00 1.4095206381e-03 1.7793074689e+00 -3.0818509385e+00 1.7793074689e+00 3.0818509385e+00 
43300 6.9122095878e+00 1.2461758575e-03 1.7792678604e+00 -3.0817823345e+00 1.7792678604e+00 3.0817823345e+00 
43400 6.9122121961e+00 1.0844723071e-03 1.7792328412e+00 -3.0817216794e+00 1.7792328412e+00 3.0817216794e+00 
43500 6.9122148615e+00 9.2461084901e-04 1.7792023654e+00 -3.0816688939e+00 1.7792023654e+00 3.0816688939e+00 
43600 6.9122175671e+00 7.6678513499e-04 1.7791763816e+00 -3.0816238886e+00 1.7791763816e+00 3.0816238886e+00 
43700 6.9122202960e+00 6.1118149251e-04 1.7791548328e+00 -3.0815865649e+00 1.7791548328e+00 3.0815865649e+00 
43800 6.9122230322e+00 4.5797882491e-04 1.7791376566e+00 -3.0815568150e+00 1.7791376566e+00 3.0815568150e+00 
43900 6.9122257602e+00 3.0734852489e-04 1.7791247859e+00 -3.0815345221e+00 1.7791247859e+00 3.0815345221e+00 
44000 6.9122284652e+00 1.5945440121e-04 1.7791161482e+00 -3.0815195613e+00 1.7791161482e+00 3.0815195613e+00 
44100 6.9122311331e+00 1.4452618341e-05 1.7791116670e+00 -3.0815117995e+00 1.7791116670e+00 3.0815117995e+00 
44200 6.9122337508e+00 -1.2700106641e-04 1.7791116670e+00 -3.0815117995e+00 1.7791116670e+00 3.0815117995e+00 
44300 6.9122363058e+00 -2.6579514688e-04 1.7791152362e+00 -3.0815179816e+00 1.7791152362e+00 3.0815179816e+00 
44400 6.9122387868e+00 -4.0127410184e-04 1.7791227061e+00 -3.0815309198e+00 1.7791227061e+00 3.0815309198e+00 
44500 6.9122411832e+00 -5.3331273162e-04 1.7791339834e+00 -3.0815504527e+00 1.7791339834e+00 3.0815504527e+00 
44600 6.9122434853e+00 -6.6179359837e-04 1.7791489714e+00 -3.0815764127e+00 1.7791489714e+00 3.0815764127e+00 
44700 6.9122456846e+00 -7.8660701557e-04 1.7791675700e+00 -3.0816086264e+00 1.7791675700e+00 3.0816086264e+00 
44800 6.9122477732e+00 -9.0765102683e-04 1.7791896761e+00 -3.0816469153e+00 1.7791896761e+00 3.0816469153e+00 
44900 6.9122497444e+00 -1.0248313744e-03 1.7792151836e+00 -3.0816910956e+00 1.7792151836e+00 3.0816910956e+00 
45000 6.9122515925e+00 -1.1380614575e-03 1.7792439838e+00 -3.0817409789e+00 1.7792439838e+00 3.0817409789e+00 
45100 6.9122533126e+00 -1.2472622812e-03 1.7792759655e+00 -3.0817963729e+00 1.7792759655e+00 3.0817963729e+00 
45200 6.9122549007e+00 -1.3523623958e-03 1.7793110153e+00 -3.0818570809e+00 1.7793110153e+00 3.0818570809e+00 
45300 6.9122563540e+00 -1.4532978272e-03 1.7793490178e+00 -3.0819229033e+00 1.7793490178e+00 3.0819229033e+00 
45400 6.9122576704e+00 -1.5500119983e-03 1.7793898559e+00 -3.0819936369e+00 1.7793898559e+00 3.0819936369e+00 
45500 6.9122588485e+00 -1.6424556431e-03 1.7794334107e+00 -3.0820690760e+00 1.7794334107e+00 3.0820690760e+00 
45600 6.9122598882e+00 -1.7305867110e-03 1.7794795620e+00 -3.0821490123e+00 1.7794795620e+00 3.0821490123e+00 
45700 6.9122607898e+00 -1.8143702655e-03 1.7795281884e+00 -3.0822332358e+00 1.7795281884e+00 3.0822332358e+00 
45800 6.9122615546e+00 -1.8937783736e-03 1.7795791676e+00 -3.0823215344e+00 1.7795791676e+00 3.0823215344e+00 
45900 6.9122621844e+00 -1.9687899897e-03 1.7796323765e+00 -3.0824136948e+00 1.7796323765e+00 3.0824136948e+00 
46000 6.9122626820e+00 -2.0393908321e-03 1.7796876913e+00 -3.0825095029e+00 1.7796876913e+00 3.0825095029e+00 
46100 6.9122630506e+00 -2.1055732528e-03 1.7797449879e+00 -3.0826087435e+00 1.7797449879e+00 3.0826087435e+00 
46200 6.9122632942e+00 -2.1673361020e-03 1.7798041420e+00 -3.0827112015e+00 1.7798041420e+00 3.0827112015e+00 
46300 6.9122634170e+00 -2.2246845867e-03 1.7798650293e+00 -3.0828166613e+00 1.7798650293e+00 3.0828166613e+00 
46400 6.9122634242e+00 -2.2776301232e-03 1.7799275255e+00 -3.0829249080e+00 1.7799275255e+00 3.0829249080e+00 
46500 6.9122633209e+00 -2.3261901854e-03 1.7799915069e+00 -3.0830357270e+00 1.7799915069e+00 3.0830357270e+00 
46600 6.9122631131e+00 -2.3703881481e-03 1.7800568500e+00 -3.0831489046e+00 1.7800568500e+00 3.0831489046e+00 
46700 6.9122628068e+00 -2.4102531249e-03 1.7801234322e+00 -3.0832642284e+00 1.7801234322e+00 3.0832642284e+00 
46800 6.9122624085e+00 -2.4458198033e-03 1.7801911317e+00 -3.0833814873e+00 1.7801911317e+00 3.0833814873e+00 
46900 6.9122619248e+00 -2.4771282753e-03 1.7802598276e+00 -3.0835004720e+00 1.7802598276e+00 3.0835004720e+00 
47000 6.9122613626e+00 -2.5042238640e-03 1.7803294001e+00 -3.0836209752e+00 1.7803294001e+00 3.0836209752e+00 
47100 6.9122607289e+00 -2.5271569473e-03 1.7803997309e+00 -3.0837427918e+00 1.7803997309e+00 3.0837427918e+00 
47200 6.9122600309e+00 -2.5459827792e-03 1.7804707030e+00 -3.0838657190e+00 1.7804707030e+00 3.0838657190e+00 
47300 6.9122592758e+00 -2.5607613070e-03 1.7805422010e+00 -3.0839895571e+00 1.7805422010e+00 3.0839895571e+00 
47400 6.9122584707e+00 -2.5715569875e-03 1.7806141111e+00 -3.0841141090e+00 1.7806141111e+00 3.0841141090e+00 
47500 6.9122576229e+00 -2.5784386000e-03 1.7806863214e+00 -3.0842391810e+00 1.7806863214e+00 3.0842391810e+00 
47600 6.9122567395e+00 -2.5814790581e-03 1.7807587220e+00 -3.0843645825e+00 1.7807587220e+00 3.0843645825e+00 
47700 6.9122558274e+00 -2.5807552195e-03 1.7808312051e+00 -3.0844901269e+00 1.7808312051e+00 3.0844901269e+00 
47800 6.9122548935e+00 -2.5763476947e-03 1.7809036648e+00 -3.0846156309e+00 1.7809036648e+00 3.0846156309e+00 
47900 6.9122539446e+00 -2.5683406544e-03 1.7809759979e+00 -3.0847409155e+00 1.7809759979e+00 3.0847409155e+00 
48000 6.9122529871e+00 -2.5568216364e-03 1.7810481033e+00 -3.0848658056e+00 1.7810481033e+00 3.0848658056e+00 
48100 6.9122520273e+00 -2.5418813518e-03 1.7811198823e+00 -3.0849901305e+00 1.7811198823e+00 3.0849901305e+00 
48200 6.9122510712e+00 -2.5236134906e-03 1.7811912391e+00 -3.0851137241e+00 1.7811912391e+00 3.0851137241e+00 
48300 6.9122501245e+00 -2.5021145280e-03 1.7812620801e+00 -3.0852364244e+00 1.7812620801e+00 3.0852364244e+00 
48400 6.9122491926e+00 -2.4774835300e-03 1.7813323149e+00 -3.0853580746e+00 1.7813323149e+00 3.0853580746e+00 
48500 6.9122482806e+00 -2.4498219603e-03 1.7814018556e+00 -3.0854785225e+00 1.7814018556e+00 3.0854785225e+00 
48600 6.9122473933e+00 -2.4192334871e-03 1.7814706171e+00 -3.0855976210e+00 1.7814706171e+00 3.0855976210e+00 
48700 6.9122465351e+00 -2.3858237912e-03 1.7815385174e+00 -3.0857152278e+00 1.7815385174e+00 3.0857152278e+00 
48800 6.9122457101e+00 -2.3497003754e-03 1.7816054775e+00 -3.0858312060e+00 1.7816054775e+00 3.0858312060e+00 
48900 6.9122449218e+00 -2.3109723749e-03 1.7816714212e+00 -3.0859454239e+00 1.7816714212e+00 3.0859454239e+00 
49000 6.9122441737e+00 -2.2697503694e-03 1.7817362757e+00 -3.0860577551e+00 1.7817362757e+00 3.0860577551e+00 
49100 6.9122434687e+00 -2.2261461968e-03 1.7817999709e+00 -3.0861680786e+00 1.7817999709e+00 3.0861680786e+00 
49200 6.9122428093e+00 -2.1802727693e-03 1.7818624403e+00 -3.0862762788e+00 1.7818624403e+00 3.0862762788e+00 
49300 6.9122421977e+00 -2.1322438917e-03 1.7819236203e+00 -3.0863822456e+00 1.7819236203e+00 3.0863822456e+00 
49400 6.9122416357e+00 -2.0821740811e-03 1.7819834505e+00 -3.0864858744e+00 1.7819834505e+00 3.0864858744e+00 
49500 6.9122411248e+00 -2.0301783904e-03 1.7820418737e+00 -3.0865870665e+00 1.7820418737e+00 3.0865870665e+00 
49600 6.9122406661e+00 -1.9763722342e-03 1.7820988362e+00 -3.0866857283e+00 1.7820988362e+00 3.0866857283e+00 
49700 6.9122402603e+00 -1.9208712171e-03 1.7821542871e+00 -3.0867817723e+00 1.7821542871e+00 3.0867817723e+00 
49800 6.9122399077e+00 -1.8637909655e-03 1.7822081792e+00 -3.0868751161e+00 1.7822081792e+00 3.0868751161e+00 
49900 6.9122396086e+00 -1.8052469631e-03 1.7822604683e+00 -3.0869656834e+00 1.7822604683e+00 3.0869656834e+00 
50000 6.9122393625e+00 -1.7453543891e-03 1.7823111134e+00 -3.0870534033e+00 1.7823111134e+00 3.0870534033e+00 
50100 6.9122391691e+00 -1.6842279601e-03 1.7823600769e+00 -3.0871382105e+00 1.7823600769e+00 3.0871382105e+00 
50200 6.9122390274e+00 -1.6219817765e-03 1.7824073242e+00 -3.0872200453e+00 1.7824073242e+00 3.0872200453e+00 
50300 6.9122389364e+00 -1.5587291716e-03 1.7824528242e+00 -3.0872988535e+00 1.7824528242e+00 3.0872988535e+00 
50400 6.9122388948e+00 -1.4945825657e-03 1.7824965486e+00 -3.0873745865e+00 1.7824965486e+00 3.0873745865e+00 
50500 6.9122389009e+00 -1.4296533238e-03 1.7825384726e+00 -3.0874472011e+00 1.7825384726e+00 3.0874472011e+00 
50600 6.9122389531e+00 -1.3640516177e-03 1.7825785744e+00 -3.0875166593e+00 1.7825785744e+00 3.0875166593e+00 
50700 6.9122390493e+00 -1.2978862928e-03 1.7826168352e+00 -3.0875829289e+00 1.7826168352e+00 3.0875829289e+00 
50800 6.9122391874e+00 -1.2312647383e-03 1.7826532393e+00 -3.0876459827e+00 1.7826532393e+00 3.0876459827e+00 
50900 6.9122393652e+00 -1.1642927638e-03 1.7826877740e+00 -3.0877057986e+00 1.7826877740e+00 3.0877057986e+00 
51000 6.9122395801e+00 -1.0970744783e-03 1.7827204296e+00 -3.0877623598e+00 1.7827204296e+00 3.0877623598e+00 
51100 6.9122398297e+00 -1.0297121764e-03 1.7827511994e+00 -3.0878156546e+00 1.7827511994e+00 3.0878156546e+00 
51200 6.9122401112e+00 -9.6230622702e-04 1.7827800793e+00 -3.0878656761e+00 1.7827800793e+00 3.0878656761e+00 
51300 6.9122404221e+00 -8.9495496871e-04 1.7828070683e+00 -3.0879124224e+00 1.7828070683e+00 3.0879124224e+00 
51400 6.9122407596e+00 -8.2775460908e-04 1.7828321680e+00 -3.0879558963e+00 1.7828321680e+00 3.0879558963e+00 
51500 6.9122411207e+00 -7.6079912946e-04 1.7828553826e+00 -3.0879961052e+00 1.7828553826e+00 3.0879961052e+00 
51600 6.9122415028e+00 -6.9418019464e-04 1.7828767192e+00 -3.0880330613e+00 1.7828767192e+00 3.0880330613e+00 
51700 6.9122419029e+00 -6.2798706767e-04 1.7828961872e+00 -3.0880667809e+00 1.7828961872e+00 3.0880667809e+00 
51800 6.9122423184e+00 -5.6230652976e-04 1.7829137987e+00 -3.0880972848e+00 1.7829137987e+00 3.0880972848e+00 
51900 6.9122427463e+00 -4.9722280543e-04 1.7829295680e+00 -3.0881245981e+00 1.7829295680e+00 3.0881245981e+00 
52000 6.9122431840e+00 -4.3281749271e-04 1.7829435120e+00 -3.0881487498e+00 1.7829435120e+00 3.0881487498e+00 
52100 6.9122436287e+00 -3.6916949859e-04 1.7829556497e+00 -3.0881697730e+00 1.7829556497e+00 3.0881697730e+00 
52200 6.9122440779e+00 -3.0635497963e-04 1.7829660025e+00 -3.0881877045e+00 1.7829660025e+00 3.0881877045e+00 
52300 6.9122445290e+00 -2.4444728771e-04 1.7829745937e+00 -3.0882025848e+00 1.7829745937e+00 3.0882025848e+00 
52400 6.9122449796e+00 -1.8351692099e-04 1.7829814487e+00 -3.0882144581e+00 1.7829814487e+00 3.0882144581e+00 
52500 6.9122454273e+00 -1.2363147992e-04 1.7829865951e+00 -3.0882233719e+00 1.7829865951e+00 3.0882233719e+00 
52600 6.9122458700e+00 -6.4855628453e-05 1.7829900620e+00 -3.0882293768e+00 1.7829900620e+00 3.0882293768e+00 
52700 6.9122463054e+00 -9.5067425448e-06 1.7829900620e+00 -3.0882293768e+00 1.7829900620e+00 3.0882293768e+00 
52800 6.9122467315e+00 4.6601239698e-05 1.7829900620e+00 -3.0882293768e+00 1.7829900620e+00 3.0882293768e+00 
52900 6.9122471468e+00 1.0338206171e-04 1.7829900620e+00 -3.0882293768e+00 1.7829900620e+00 3.0882293768e+00 
53000 6.9122475494e+00 1.5715491735e-04 1.7829871629e+00 -3.0882243554e+00 1.7829871629e+00 3.0882243554e+00 
53100 6.9122479378e+00 2.0953914103e-04 1.7829827559e+00 -3.0882167222e+00 1.7829827559e+00 3.0882167222e+00 
53200 6.9122483105e+00 2.6048826837e-04 1.7829768798e+00 -3.0882065445e+00 1.7829768798e+00 3.0882065445e+00 
53300 6.9122486663e+00 3.0995890203e-04 1.7829695749e+00 -3.0881938921e+00 1.7829695749e+00 3.0881938921e+00 
53400 6.9122490041e+00 3.5791071180e-04 1.7829608827e+00 -3.0881788368e+00 1.7829608827e+00 3.0881788368e+00 
53500 6.9122493229e+00 4.0430642995e-04 1.7829508457e+00 -3.0881614522e+00 1.7829508457e+00 3.0881614522e+00 
53600 6.9122496219e+00 4.4911184232e-04 1.7829395076e+00 -3.0881418140e+00 1.7829395076e+00 3.0881418140e+00 
53700 6.9122499003e+00 4.9229577493e-04 1.7829269129e+00 -3.0881199994e+00 1.7829269129e+00 3.0881199994e+00 
53800 6.9122501578e+00 5.3383007643e-04 1.7829131071e+00 -3.0880960870e+00 1.7829131071e+00 3.0880960870e+00 
53900 6.9122503938e+00 5.7368959636e-04 1.7828981364e+00 -3.0880701570e+00 1.7828981364e+00 3.0880701570e+00 
54000 6.9122506082e+00 6.1185215944e-04 1.7828820478e+00 -3.0880422906e+00 1.7828820478e+00 3.0880422906e+00 
54100 6.9122508008e+00 6.4829853588e-04 1.7828648887e+00 -3.0880125703e+00 1.7828648887e+00 3.0880125703e+00 
54200 6.9122509716e+00 6.8301240804e-04 1.7828467074e+00 -3.0879810793e+00 1.7828467074e+00 3.0879810793e+00 
54300 6.9122511208e+00 7.1598033326e-04 1.7828275523e+00 -3.0879479017e+00 1.7828275523e+00 3.0879479017e+00 
54400 6.9122512485e+00 7.4719170330e-04 1.7828074724e+00 -3.0879131224e+00 1.7828074724e+00 3.0879131224e+00 
54500 6.9122513553e+00 7.7663870035e-04 1.7827865170e+00 -3.0878768265e+00 1.7827865170e+00 3.0878768265e+00 
54600 6.9122514415e+00 8.0431624977e-04 1.7827647354e+00 -3.0878390997e+00 1.7827647354e+00 3.0878390997e+00 
54700 6.9122515076e+00 8.3022196968e-04 1.7827421774e+00 -3.0878000280e+00 1.7827421774e+00 3.0878000280e+00 
54800 6.9122515544e+00 8.5435611765e-04 1.7827188925e+00 -3.0877596973e+00 1.7827188925e+00 3.0877596973e+00 
54900 6.9122515825e+00 8.7672153445e-04 1.7826949303e+00 -3.0877181937e+00 1.7826949303e+00 3.0877181937e+00 
55000 6.9122515929e+00 8.9732358523e-04 1.7826703406e+00 -3.0876756031e+00 1.7826703406e+00 3.0876756031e+00 
55100 6.9122515862e+00 9.1617009805e-04 1.7826451727e+00 -3.0876320110e+00 1.7826451727e+00 3.0876320110e+00 
55200 6.9122515635e+00 9.3327130004e-04 1.7826194758e+00 -3.0875875027e+00 1.7826194758e+00 3.0875875027e+00 
55300 6.9122515258e+00 9.4863975133e-04 1.7825932989e+00 -3.0875421630e+00 1.7825932989e+00 3.0875421630e+00 
55400 6.9122514740e+00 9.6229027689e-04 1.7825666906e+00 -3.0874960760e+00 1.7825666906e+00 3.0874960760e+00 
55500 6.9122514093e+00 9.7423989635e-04 1.7825396990e+00 -3.0874493251e+00 1.7825396990e+00 3.0874493251e+00 
55600 6.9122513326e+00 9.8450775209e-04 1.7825123717e+00 -3.0874019930e+00 1.7825123717e+00 3.0874019930e+00 
55700 6.9122512452e+00 9.9311503562e-04 1.7824847561e+00 -3.0873541612e+00 1.7824847561e+00 3.0873541612e+00 
55800 6.9122511481e+00 1.0000849125e-03 1.7824568985e+00 -3.0873059106e+00 1.7824568985e+00 3.0873059106e+00 
55900 6.9122510425e+00 1.0054424460e-03 1.7824288451e+00 -3.0872573205e+00 1.7824288451e+00 3.0872573205e+00 
56000 6.9122509295e+00 1.0092145190e-03 1.7824006409e+00 -3.0872084694e+00 1.7824006409e+00 3.0872084694e+00 
56100 6.9122508102e+00 1.0114297561e-03 1.7823723304e+00 -3.0871594342e+00 1.7823723304e+00 3.0871594342e+00 
56200 6.9122506856e+00 1.0121184429e-03 1.7823439573e+00 -3.0871102907e+00 1.7823439573e+00 3.0871102907e+00 
56300 6.9122505570e+00 1.0113124464e-03 1.7823155645e+00 -3.0870611128e+00 1.7823155645e+00 3.0870611128e+00 
56400 6.9122504253e+00 1.0090451339e-03 1.7822871938e+00 -3.0870119734e+00 1.7822871938e+00 3.0870119734e+00 
56500 6.9122502916e+00 1.0053512907e-03 1.7822588863e+00 -3.0869629433e+00 1.7822588863e+00 3.0869629433e+00 
56600 6.9122501569e+00 1.0002670392e-03 1.7822306820e+00 -3.0869140920e+00 1.7822306820e+00 3.0869140920e+00 
56700 6.9122500222e+00 9.9382975599e-04 1.7822026198e+00 -3.0868654869e+00 1.7822026198e+00 3.0868654869e+00 
56800 6.9122498883e+00 9.8607799006e-04 1.7821747378e+00 -3.0868171939e+00 1.7821747378e+00 3.0868171939e+00 
56900 6.9122497561e+00 9.7705138038e-04 1.7821470729e+00 -3.0867692768e+00 1.7821470729e+00 3.0867692768e+00 
57000 6.9122496265e+00 9.6679057401e-04 1.7821196608e+00 -3.0867217976e+00 1.7821196608e+00 3.0867217976e+00 
57100 6.9122495002e+00 9.5533714426e-04 1.7820925361e+00 -3.0866748163e+00 1.7820925361e+00 3.0866748163e+00 
57200 6.9122493780e+00 9.4273350943e-04 1.7820657324e+00 -3.0866283909e+00 1.7820657324e+00 3.0866283909e+00 
57300 6.9122492605e+00 9.2902285195e-04 1.7820392818e+00 -3.0865825772e+00 1.7820392818e+00 3.0865825772e+00 
57400 6.9122491483e+00 9.1424903818e-04 1.7820132156e+00 -3.0865374292e+00 1.7820132156e+00 3.0865374292e+00 
57500 6.9122490419e+00 8.9845653902e-04 1.7819875635e+00 -3.0864929985e+00 1.7819875635e+00 3.0864929985e+00 
57600 6.9122489419e+00 8.8169035125e-04 1.7819623542e+00 -3.0864493347e+00 1.7819623542e+00 3.0864493347e+00 
57700 6.9122488487e+00 8.6399591994e-04 1.7819376150e+00 -3.0864064850e+00 1.7819376150e+00 3.0864064850e+00 
57800 6.9122487626e+00 8.4541906182e-04 1.7819133719e+00 -3.0863644947e+00 1.7819133719e+00 3.0863644947e+00 
57900 6.9122486840e+00 8.2600588981e-04 1.7818896497e+00 -3.0863234067e+00 1.7818896497e+00 3.0863234067e+00 
58000 6.9122486131e+00 8.0580273881e-04 1.7818664719e+00 -3.0862832617e+00 1.7818664719e+00 3.0862832617e+00 
58100 6.9122485501e+00 7.8485609275e-04 1.7818438608e+00 -3.0862440980e+00 1.7818438608e+00 3.0862440980e+00 
58200 6.9122484952e+00 7.6321251309e-04 1.7818218371e+00 -3.0862059519e+00 1.7818218371e+00 3.0862059519e+00 
58300 6.9122484484e+00 7.4091856873e-04 1.7818004205e+00 -3.0861688573e+00 1.7818004205e+00 3.0861688573e+00 
58400 6.9122484098e+00 7.1802076753e-04 1.7817796293e+00 -3.0861328458e+00 1.7817796293e+00 3.0861328458e+00 
58500 6.9122483794e+00 6.9456548940e-04 1.7817594803e+00 -3.0860979468e+00 1.7817594803e+00 3.0860979468e+00 
58600 6.9122483571e+00 6.7059892106e-04 1.7817399894e+00 -3.0860641875e+00 1.7817399894e+00 3.0860641875e+00 
58700 6.9122483428e+00 6.4616699258e-04 1.7817211707e+00 -3.0860315927e+00 1.7817211707e+00 3.0860315927e+00 
58800 6.9122483363e+00 6.2131531567e-04 1.7817030376e+00 -3.0860001850e+00 1.7817030376e+00 3.0860001850e+00 
58900 6.9122483375e+00 5.9608912383e-04 1.7816856016e+00 -3.0859699851e+00 1.7816856016e+00 3.0859699851e+00 
59000 6.9122483461e+00 5.7053321441e-04 1.7816688734e+00 -3.0859410110e+00 1.7816688734e+00 3.0859410110e+00 
59100 6.9122483619e+00 5.4469189255e-04 1.7816528622e+00 -3.0859132788e+00 1.7816528622e+00 3.0859132788e+00 
59200 6.9122483846e+00 5.1860891717e-04 1.7816375761e+00 -3.0858868024e+00 1.7816375761e+00 3.0858868024e+00 
59300 6.9122484138e+00 4.9232744891e-04 1.7816230218e+00 -3.0858615937e+00 1.7816230218e+00 3.0858615937e+00 
59400 6.9122484493e+00 4.6589000016e-04 1.7816092050e+00 -3.0858376623e+00 1.7816092050e+00 3.0858376623e+00 
59500 6.9122484906e+00 4.3933838710e-04 1.7815961301e+00 -3.0858150158e+00 1.7815961301e+00 3.0858150158e+00 
59600 6.9122485373e+00 4.1271368389e-04 1.7815838002e+00 -3.0857936598e+00 1.7815838002e+00 3.0857936598e+00 
59700 6.9122485891e+00 3.8605617892e-04 1.7815722174e+00 -3.0857735979e+00 1.7815722174e+00 3.0857735979e+00 
59800 6.9122486455e+00 3.5940533326e-04 1.7815613827e+00 -3.0857548316e+00 1.7815613827e+00 3.0857548316e+00 
59900 6.9122487061e+00 3.3279974117e-04 1.7815512959e+00 -3.0857373608e+00 1.7815512959e+00 3.0857373608e+00 
60000 6.9122487705e+00 3.0627709281e-04 1.7815419557e+00 -3.0857211832e+00 1.7815419557e+00 3.0857211832e+00 
60100 6.9122488383e+00 2.7987413912e-04 1.7815333599e+00 -3.0857062947e+00 1.7815333599e+00 3.0857062947e+00 
60200 6.9122489089e+00 2.5362665877e-04 1.7815255051e+00 -3.0856926897e+00 1.7815255051e+00 3.0856926897e+00 
60300 6.9122489820e+00 2.2756942740e-04 1.7815183868e+00 -3.0856803606e+00 1.7815183868e+00 3.0856803606e+00 
60400 6.9122490571e+00 2.0173618890e-04 1.7815119999e+00 -3.0856692981e+00 1.7815119999e+00 3.0856692981e+00 
60500 6.9122491338e+00 1.7615962887e-04 1.7815063379e+00 -3.0856594913e+00 1.7815063379e+00 3.0856594913e+00 
60600 6.9122492116e+00 1.5087135025e-04 1.7815013938e+00 -3.0856509278e+00 1.7815013938e+00 3.0856509278e+00 
60700 6.9122492902e+00 1.2590185103e-04 1.7814971594e+00 -3.0856435937e+00 1.7814971594e+00 3.0856435937e+00 
60800 6.9122493692e+00 1.0128050407e-04 1.7814936258e+00 -3.0856374733e+00 1.7814936258e+00 3.0856374733e+00 
60900 6.9122494481e+00 7.7035539010e-05 1.7814907833e+00 -3.0856325498e+00 1.7814907833e+00 3.0856325498e+00 
61000 6.9122495267e+00 5.3194026275e-05 1.7814886211e+00 -3.0856288049e+00 1.7814886211e+00 3.0856288049e+00 
61100 6.9122496045e+00 3.1638677823e-05 1.7814886211e+00 -3.0856288049e+00 1.7814886211e+00 3.0856288049e+00 
61200 6.9122496811e+00 9.7318446778e-06 1.7814886211e+00 -3.0856288049e+00 1.7814886211e+00 3.0856288049e+00 
61300 6.9122497563e+00 -1.2491605514e-05 1.7814886211e+00 -3.0856288049e+00 1.7814886211e+00 3.0856288049e+00 
61400 6.9122498298e+00 -3.4997394541e-05 1.7814886211e+00 -3.0856288049e+00 1.7814886211e+00 3.0856288049e+00 
61500 6.9122499015e+00 -5.7751857028e-05 1.7814886211e+00 -3.0856288049e+00 1.7814886211e+00 3.0856288049e+00 
61600 6.9122499711e+00 -8.0721962568e-05 1.7814886211e+00 -3.0856288049e+00 1.7814886211e+00 3.0856288049e+00 
61700 6.9122500381e+00 -1.0105791328e-04 1.7814908867e+00 -3.0856327290e+00 1.7814908867e+00 3.0856327290e+00 
61800 6.9122501025e+00 -1.2081796289e-04 1.7814937231e+00 -3.0856376417e+00 1.7814937231e+00 3.0856376417e+00 
61900 6.9122501640e+00 -1.3998580944e-04 1.7814971140e+00 -3.0856435149e+00 1.7814971140e+00 3.0856435149e+00 
62000 6.9122502226e+00 -1.5854636576e-04 1.7815010429e+00 -3.0856503200e+00 1.7815010429e+00 3.0856503200e+00 
62100 6.9122502781e+00 -1.7648575479e-04 1.7815054927e+00 -3.0856580272e+00 1.7815054927e+00 3.0856580272e+00 
62200 6.9122503303e+00 -1.9379130314e-04 1.7815104459e+00 -3.0856666066e+00 1.7815104459e+00 3.0856666066e+00 
62300 6.9122503792e+00 -2.1045153322e-04 1.7815158849e+00 -3.0856760271e+00 1.7815158849e+00 3.0856760271e+00 
62400 6.9122504246e+00 -2.2645615361e-04 1.7815217914e+00 -3.0856862575e+00 1.7815217914e+00 3.0856862575e+00 
62500 6.9122504667e+00 -2.4179604817e-04 1.7815281471e+00 -3.0856972659e+00 1.7815281471e+00 3.0856972659e+00 
62600 6.9122505053e+00 -2.5646326350e-04 1.7815349333e+00 -3.0857090200e+00 1.7815349333e+00 3.0857090200e+00 
62700 6.9122505404e+00 -2.7045099515e-04 1.7815421312e+00 -3.0857214870e+00 1.7815421312e+00 3.0857214870e+00 
62800 6.9122505721e+00 -2.8375357237e-04 1.7815497215e+00 -3.0857346339e+00 1.7815497215e+00 3.0857346339e+00 
62900 6.9122506003e+00 -2.9636644162e-04 1.7815576852e+00 -3.0857484274e+00 1.7815576852e+00 3.0857484274e+00 
63000 6.9122506252e+00 -3.0828614885e-04 1.7815660028e+00 -3.0857628339e+00 1.7815660028e+00 3.0857628339e+00 
63100 6.9122506467e+00 -3.1951032056e-04 1.7815746549e+00 -3.0857778198e+00 1.7815746549e+00 3.0857778198e+00 
63200 6.9122506650e+00 -3.3003764371e-04 1.7815836220e+00 -3.0857933513e+00 1.7815836220e+00 3.0857933513e+00 
63300 6.9122506802e+00 -3.3986784458e-04 1.7815928845e+00 -3.0858093944e+00 1.7815928845e+00 3.0858093944e+00 
63400 6.9122506924e+00 -3.4900166659e-04 1.7816024228e+00 -3.0858259152e+00 1.7816024228e+00 3.0858259152e+00 
63500 6.9122507017e+00 -3.5744084711e-04 1.7816122174e+00 -3.0858428800e+00 1.7816122174e+00 3.0858428800e+00 
63600 6.9122507082e+00 -3.6518809341e-04 1.7816222488e+00 -3.0858602549e+00 1.7816222488e+00 3.0858602549e+00 
63700 6.9122507121e+00 -3.7224705764e-04 1.7816324976e+00 -3.0858780063e+00 1.7816324976e+00 3.0858780063e+00 
63800 6.9122507136e+00 -3.7862231117e-04 1.7816429444e+00 -3.0858961007e+00 1.7816429444e+00 3.0858961007e+00 
63900 6.9122507127e+00 -3.8431931796e-04 1.7816535701e+00 -3.0859145049e+00 1.7816535701e+00 3.0859145049e+00 
64000 6.9122507096e+00 -3.8934440737e-04 1.7816643556e+00 -3.0859331859e+00 1.7816643556e+00 3.0859331859e+00 
64100 6.9122507046e+00 -3.9370474630e-04 1.7816752820e+00 -3.0859521110e+00 1.7816752820e+00 3.0859521110e+00 
64200 6.9122506978e+00 -3.9740831065e-04 1.7816863307e+00 -3.0859712480e+00 1.7816863307e+00 3.0859712480e+00 
64300 6.9122506893e+00 -4.0046385635e-04 1.7816974833e+00 -3.0859905648e+00 1.7816974833e+00 3.0859905648e+00 
64400 6.9122506794e+00 -4.0288088980e-04 1.7817087216e+00 -3.0860100301e+00 1.7817087216e+00 3.0860100301e+00 
64500 6.9122506682e+00 -4.0466963794e-04 1.7817200276e+00 -3.0860296127e+00 1.7817200276e+00 3.0860296127e+00 
64600 6.9122506559e+00 -4.0584101790e-04 1.7817313838e+00 -3.0860492822e+00 1.7817313838e+00 3.0860492822e+00 
64700 6.9122506426e+00 -4.0640660631e-04 1.7817427728e+00 -3.0860690085e+00 1.7817427728e+00 3.0860690085e+00 
64800 6.9122506286e+00 -4.0637860835e-04 1.7817541775e+00 -3.0860887621e+00 1.7817541775e+00 3.0860887621e+00 
64900 6.9122506139e+00 -4.0576982651e-04 1.7817655814e+00 -3.0861085142e+00 1.7817655814e+00 3.0861085142e+00 
65000 6.9122505989e+00 -4.0459362928e-04 1.7817769682e+00 -3.0861282366e+00 1.7817769682e+00 3.0861282366e+00 
65100 6.9122505835e+00 -4.0286391955e-04 1.7817883218e+00 -3.0861479018e+00 1.7817883218e+00 3.0861479018e+00 
65200 6.9122505680e+00 -4.0059510301e-04 1.7817996269e+00 -3.0861674827e+00 1.7817996269e+00 3.0861674827e+00 
65300 6.9122505526e+00 -3.9780205654e-04 1.7818108682e+00 -3.0861869532e+00 1.7818108682e+00 3.0861869532e+00 
65400 6.9122505372e+00 -3.9450009652e-04 1.7818220311e+00 -3.0862062879e+00 1.7818220311e+00 3.0862062879e+00 
65500 6.9122505222e+00 -3.9070494718e-04 1.7818331012e+00 -3.0862254619e+00 1.7818331012e+00 3.0862254619e+00 
65600 6.9122505076e+00 -3.8643270919e-04 1.7818440648e+00 -3.0862444514e+00 1.7818440648e+00 3.0862444514e+00 
65700 6.9122504935e+00 -3.8169982818e-04 1.7818549084e+00 -3.0862632331e+00 1.7818549084e+00 3.0862632331e+00 
65800 6.9122504801e+00 -3.7652306358e-04 1.7818656192e+00 -3.0862817847e+00 1.7818656192e+00 3.0862817847e+00 
65900 6.9122504673e+00 -3.7091945762e-04 1.7818761846e+00 -3.0863000846e+00 1.7818761846e+00 3.0863000846e+00 
66000 6.9122504554e+00 -3.6490630461e-04 1.7818865927e+00 -3.0863181120e+00 1.7818865927e+00 3.0863181120e+00 
66100 6.9122504444e+00 -3.5850112050e-04 1.7818968321e+00 -3.0863358470e+00 1.7818968321e+00 3.0863358470e+00 
66200 6.9122504344e+00 -3.5172161272e-04 1.7819068916e+00 -3.0863532707e+00 1.7819068916e+00 3.0863532707e+00 
66300 6.9122504254e+00 -3.4458565056e-04 1.7819167609e+00 -3.0863703647e+00 1.7819167609e+00 3.0863703647e+00 
66400 6.9122504175e+00 -3.3711123568e-04 1.7819264299e+00 -3.0863871119e+00 1.7819264299e+00 3.0863871119e+00 
66500 6.9122504107e+00 -3.2931647333e-04 1.7819358890e+00 -3.0864034957e+00 1.7819358890e+00 3.0864034957e+00 
66600 6.9122504051e+00 -3.2121954387e-04 1.7819451295e+00 -3.0864195005e+00 1.7819451295e+00 3.0864195005e+00 
66700 6.9122504006e+00 -3.1283867481e-04 1.7819541426e+00 -3.0864351118e+00 1.7819541426e+00 3.0864351118e+00 
66800 6.9122503974e+00 -3.0419211345e-04 1.7819629206e+00 -3.0864503157e+00 1.7819629206e+00 3.0864503157e+00 
66900 6.9122503954e+00 -2.9529809997e-04 1.7819714559e+00 -3.0864650993e+00 1.7819714559e+00 3.0864650993e+00 
67000 6.9122503946e+00 -2.8617484123e-04 1.7819797417e+00 -3.0864794506e+00 1.7819797417e+00 3.0864794506e+00 
67100 6.9122503950e+00 -2.7684048502e-04 1.7819877713e+00 -3.0864933584e+00 1.7819877713e+00 3.0864933584e+00 
67200 6.9122503966e+00 -2.6731309512e-04 1.7819955391e+00 -3.0865068126e+00 1.7819955391e+00 3.0865068126e+00 
67300 6.9122503994e+00 -2.5761062683e-04 1.7820030395e+00 -3.0865198036e+00 1.7820030395e+00 3.0865198036e+00 
67400 6.9122504033e+00 -2.4775090336e-04 1.7820102676e+00 -3.0865323231e+00 1.7820102676e+00 3.0865323231e+00 
67500 6.9122504084e+00 -2.3775159274e-04 1.7820172191e+00 -3.0865443634e+00 1.7820172191e+00 3.0865443634e+00 
67600 6.9122504145e+00 -2.2763018558e-04 1.7820238899e+00 -3.0865559176e+00 1.7820238899e+00 3.0865559176e+00 
67700 6.9122504217e+00 -2.1740397350e-04 1.7820302768e+00 -3.0865669800e+00 1.7820302768e+00 3.0865669800e+00 
67800 6.9122504299e+00 -2.0709002828e-04 1.7820363767e+00 -3.0865775453e+00 1.7820363767e+00 3.0865775453e+00 
67900 6.9122504390e+00 -1.9670518187e-04 1.7820421872e+00 -3.0865876094e+00 1.7820421872e+00 3.0865876094e+00 
68000 6.9122504490e+00 -1.8626600705e-04 1.7820477063e+00 -3.0865971687e+00 1.7820477063e+00 3.0865971687e+00 
68100 6.9122504598e+00 -1.7578879895e-04 1.7820529324e+00 -3.0866062208e+00 1.7820529324e+00 3.0866062208e+00 
68200 6.9122504713e+00 -1.6528955736e-04 1.7820578646e+00 -3.0866147636e+00 1.7820578646e+00 3.0866147636e+00 
68300 6.9122504836e+00 -1.5478396984e-04 1.7820625022e+00 -3.0866227962e+00 1.7820625022e+00 3.0866227962e+00 
68400 6.9122504965e+00 -1.4428739561e-04 1.7820668451e+00 -3.0866303182e+00 1.7820668451e+00 3.0866303182e+00 
68500 6.9122505100e+00 -1.3381485032e-04 1.7820708934e+00 -3.0866373301e+00 1.7820708934e+00 3.0866373301e+00 
68600 6.9122505240e+00 -1.2338099156e-04 1.7820746479e+00 -3.0866438330e+00 1.7820746479e+00 3.0866438330e+00 
68700 6.9122505384e+00 -1.1300010530e-04 1.7820781096e+00 -3.0866498289e+00 1.7820781096e+00 3.0866498289e+00 
68800 6.9122505532e+00 -1.0268609306e-04 1.7820812801e+00 -3.0866553203e+00 1.7820812801e+00 3.0866553203e+00 
68900 6.9122505683e+00 -9.2452459953e-05 1.7820841611e+00 -3.0866603104e+00 1.7820841611e+00 3.0866603104e+00 
69000 6.9122505836e+00 -8.2312303593e-05 1.7820867551e+00 -3.0866648033e+00 1.7820867551e+00 3.0866648033e+00 
69100 6.9122505991e+00 -7.2278303769e-05 1.7820890645e+00 -3.0866688033e+00 1.7820890645e+00 3.0866688033e+00 
69200 6.9122506146e+00 -6.2362712979e-05 1.7820910924e+00 -3.0866723158e+00 1.7820910924e+00 3.0866723158e+00 
69300 6.9122506303e+00 -5.4750927745e-05 1.7820910924e+00 -3.0866723158e+00 1.7820910924e+00 3.0866723158e+00 
69400 6.9122506460e+00 -4.6953460120e-05 1.7820910924e+00 -3.0866723158e+00 1.7820910924e+00 3.0866723158e+00 
69500 6.9122506615e+00 -3.8984742848e-05 1.7820910924e+00 -3.0866723158e+00 1.7820910924e+00 3.0866723158e+00 
69600 6.9122506768e+00 -3.0859009788e-05 1.7820910924e+00 -3.0866723158e+00 1.7820910924e+00 3.0866723158e+00 
69700 6.9122506919e+00 -2.2590285069e-05 1.7820910924e+00 -3.0866723158e+00 1.7820910924e+00 3.0866723158e+00 
69800 6.9122507067e+00 -1.4192372720e-05 1.7820910924e+00 -3.0866723158e+00 1.7820910924e+00 3.0866723158e+00 
69900 6.9122507213e+00 -5.6788467911e-06 1.7820910924e+00 -3.0866723158e+00 1.7820910924e+00 3.0866723158e+00 
70000 6.9122507355e+00 2.9369580238e-06 1.7820910924e+00 -3.0866723158e+00 1.7820910924e+00 3.0866723158e+00 
70100 6.9122507494e+00 1.1641955268e-05 1.7820910924e+00 -3.0866723158e+00 1.7820910924e+00 3.0866723158e+00 
70200 6.9122507629e+00 2.0423315126e-05 1.7820910924e+00 -3.0866723158e+00 1.7820910924e+00 3.0866723158e+00 
70300 6.9122507759e+00 2.9268472311e-05 1.7820910924e+00 -3.0866723158e+00 1.7820910924e+00 3.0866723158e+00 
70400 6.9122507886e+00 3.8165133494e-05 1.7820910924e+00 -3.0866723158e+00 1.7820910924e+00 3.0866723158e+00 
70500 6.9122508008e+00 4.7101284202e-05 1.7820910924e+00 -3.0866723158e+00 1.7820910924e+00 3.0866723158e+00 
70600 6.9122508126e+00 5.6065195283e-05 1.7820910924e+00 -3.0866723158e+00 1.7820910924e+00 3.0866723158e+00 
70700 6.9122508238e+00 6.5045428856e-05 1.7820910924e+00 -3.0866723158e+00 1.7820910924e+00 3.0866723158e+00 
70800 6.9122508346e+00 7.4030843782e-05 1.7820910924e+00 -3.0866723158e+00 1.7820910924e+00 3.0866723158e+00 
70900 6.9122508447e+00 8.0430073910e-05 1.7820890153e+00 -3.0866687182e+00 1.7820890153e+00 3.0866687182e+00 
71000 6.9122508543e+00 8.6573680004e-05 1.7820867587e+00 -3.0866648096e+00 1.7820867587e+00 3.0866648096e+00 
71100 6.9122508633e+00 9.2458056481e-05 1.7820843297e+00 -3.0866606025e+00 1.7820843297e+00 3.0866606025e+00 
71200 6.9122508717e+00 9.8080063017e-05 1.7820817356e+00 -3.0866561093e+00 1.7820817356e+00 3.0866561093e+00 
71300 6.9122508795e+00 1.0343701869e-04 1.7820789838e+00 -3.0866513430e+00 1.7820789838e+00 3.0866513430e+00 
71400 6.9122508867e+00 1.0852669552e-04 1.7820760816e+00 -3.0866463164e+00 1.7820760816e+00 3.0866463164e+00 
71500 6.9122508935e+00 1.1334731163e-04 1.7820730367e+00 -3.0866410424e+00 1.7820730367e+00 3.0866410424e+00 
71600 6.9122508996e+00 1.1789752380e-04 1.7820698565e+00 -3.0866355341e+00 1.7820698565e+00 3.0866355341e+00 
71700 6.9122509052e+00 1.2217641961e-04 1.7820665486e+00 -3.0866298047e+00 1.7820665486e+00 3.0866298047e+00 
71800 6.9122509103e+00 1.2618350917e-04 1.7820631207e+00 -3.0866238673e+00 1.7820631207e+00 3.0866238673e+00 
71900 6.9122509149e+00 1.2991871635e-04 1.7820595803e+00 -3.0866177352e+00 1.7820595803e+00 3.0866177352e+00 
72000 6.9122509190e+00 1.3338236966e-04 1.7820559351e+00 -3.0866114215e+00 1.7820559351e+00 3.0866114215e+00 
72100 6.9122509226e+00 1.3657519276e-04 1.7820521927e+00 -3.0866049396e+00 1.7820521927e+00 3.0866049396e+00 
72200 6.9122509258e+00 1.3949829455e-04 1.7820483608e+00 -3.0865983024e+00 1.7820483608e+00 3.0865983024e+00 
72300 6.9122509285e+00 1.4215315899e-04 1.7820444468e+00 -3.0865915232e+00 1.7820444468e+00 3.0865915232e+00 
72400 6.9122509309e+00 1.4454163456e-04 1.7820404583e+00 -3.0865846149e+00 1.7820404583e+00 3.0865846149e+00 
72500 6.9122509329e+00 1.4666592343e-04 1.7820364028e+00 -3.0865775906e+00 1.7820364028e+00 3.0865775906e+00 
72600 6.9122509345e+00 1.4852857040e-04 1.7820322877e+00 -3.0865704630e+00 1.7820322877e+00 3.0865704630e+00 
72700 6.9122509358e+00 1.5013245150e-04 1.7820281203e+00 -3.0865632448e+00 1.7820281203e+00 3.0865632448e+00 
72800 6.9122509368e+00 1.5148076247e-04 1.7820239079e+00 -3.0865559487e+00 1.7820239079e+00 3.0865559487e+00 
72900 6.9122509375e+00 1.5257700697e-04 1.7820196576e+00 -3.0865485871e+00 1.7820196576e+00 3.0865485871e+00 
73000 6.9122509381e+00 1.5342498456e-04 1.7820153766e+00 -3.0865411722e+00 1.7820153766e+00 3.0865411722e+00 
73100 6.9122509383e+00 1.5402877863e-04 1.7820110718e+00 -3.0865337160e+00 1.7820110718e+00 3.0865337160e+00 
73200 6.9122509385e+00 1.5439274409e-04 1.7820067500e+00 -3.0865262305e+00 1.7820067500e+00 3.0865262305e+00 
73300 6.9122509384e+00 1.5452149497e-04 1.7820024181e+00 -3.0865187273e+00 1.7820024181e+00 3.0865187273e+00 
73400 6.9122509382e+00 1.5441989191e-04 1.7819980824e+00 -3.0865112178e+00 1.7819980824e+00 3.0865112178e+00 
73500 6.9122509380e+00 1.5409302957e-04 1.7819937497e+00 -3.0865037132e+00 1.7819937497e+00 3.0865037132e+00 
73600 6.9122509376e+00 1.5354622403e-04 1.7819894261e+00 -3.0864962245e+00 1.7819894261e+00 3.0864962245e+00 
73700 6.9122509372e+00 1.5278500000e-04 1.7819851178e+00 -3.0864887623e+00 1.7819851178e+00 3.0864887623e+00 
73800 6.9122509367e+00 1.5181507819e-04 1.7819808308e+00 -3.0864813371e+00 1.7819808308e+00 3.0864813371e+00 
73900 6.9122509363e+00 1.5064236255e-04 1.7819765711e+00 -3.0864739591e+00 1.7819765711e+00 3.0864739591e+00 
74000 6.9122509358e+00 1.4927292753e-04 1.7819723443e+00 -3.0864666380e+00 1.7819723443e+00 3.0864666380e+00 
74100 6.9122509354e+00 1.4771300546e-04 1.7819681559e+00 -3.0864593834e+00 1.7819681559e+00 3.0864593834e+00 
74200 6.9122509351e+00 1.4596897391e-04 1.7819640112e+00 -3.0864522047e+00 1.7819640112e+00 3.0864522047e+00 
74300 6.9122509348e+00 1.4404734308e-04 1.7819599155e+00 -3.0864451107e+00 1.7819599155e+00 3.0864451107e+00 
74400 6.9122509346e+00 1.4195474336e-04 1.7819558737e+00 -3.0864381100e+00 1.7819558737e+00 3.0864381100e+00 
74500 6.9122509345e+00 1.3969791295e-04 1.7819518905e+00 -3.0864312111e+00 1.7819518905e+00 3.0864312111e+00 
74600 6.9122509345e+00 1.3728368559e-04 1.7819479707e+00 -3.0864244218e+00 1.7819479707e+00 3.0864244218e+00 
74700 6.9122509346e+00 1.3471897842e-04 1.7819441187e+00 -3.0864177498e+00 1.7819441187e+00 3.0864177498e+00 
74800 6.9122509349e+00 1.3201077999e-04 1.7819403386e+00 -3.0864112025e+00 1.7819403386e+00 3.0864112025e+00 
74900 6.9122509353e+00 1.2916613845e-04 1.7819366344e+00 -3.0864047867e+00 1.7819366344e+00 3.0864047867e+00 
75000 6.9122509359e+00 1.2619214987e-04 1.7819330101e+00 -3.0863985092e+00 1.7819330101e+00 3.0863985092e+00 
75100 6.9122509366e+00 1.2309594680e-04 1.7819294692e+00 -3.0863923762e+00 1.7819294692e+00 3.0863923762e+00 
75200 6.9122509375e+00 1.1988468697e-04 1.7819260152e+00 -3.0863863937e+00 1.7819260152e+00 3.0863863937e+00 
75300 6.9122509386e+00 1.1656554223e-04 1.7819226513e+00 -3.0863805673e+00 1.7819226513e+00 3.0863805673e+00 
75400 6.9122509398e+00 1.1314568776e-04 1.7819193806e+00 -3.0863749021e+00 1.7819193806e+00 3.0863749021e+00 
75500 6.9122509412e+00 1.0963229141e-04 1.7819162057e+00 -3.0863694032e+00 1.7819162057e+00 3.0863694032e+00 
75600 6.9122509428e+00 1.0603250338e-04 1.7819131295e+00 -3.0863640749e+00 1.7819131295e+00 3.0863640749e+00 
75700 6.9122509445e+00 1.0235344608e-04 1.7819101542e+00 -3.0863589217e+00 1.7819101542e+00 3.0863589217e+00 
75800 6.9122509464e+00 9.8602204334e-05 1.7819072822e+00 -3.0863539472e+00 1.7819072822e+00 3.0863539472e+00 
75900 6.9122509485e+00 9.4785815763e-05 1.7819045155e+00 -3.0863491550e+00 1.7819045155e+00 3.0863491550e+00 
76000 6.9122509507e+00 9.0911261507e-05 1.7819018558e+00 -3.0863445483e+00 1.7819018558e+00 3.0863445483e+00 
76100 6.9122509531e+00 8.6985457229e-05 1.7818993048e+00 -3.0863401299e+00 1.7818993048e+00 3.0863401299e+00 
76200 6.9122509556e+00 8.3015244395e-05 1.7818968640e+00 -3.0863359023e+00 1.7818968640e+00 3.0863359023e+00 
76300 6.9122509583e+00 7.9007381849e-05 1.7818945346e+00 -3.0863318677e+00 1.7818945346e+00 3.0863318677e+00 
76400 6.9122509611e+00 7.4968537728e-05 1.7818923177e+00 -3.0863280278e+00 1.7818923177e+00 3.0863280278e+00 
76500 6.9122509640e+00 7.0905281651e-05 1.7818902140e+00 -3.0863243842e+00 1.7818902140e+00 3.0863243842e+00 
76600 6.9122509671e+00 6.6824077230e-05 1.7818882244e+00 -3.0863209381e+00 1.7818882244e+00 3.0863209381e+00 
76700 6.9122509704e+00 6.5061686063e-05 1.7818882244e+00 -3.0863209381e+00 1.7818882244e+00 3.0863209381e+00 
76800 6.9122509737e+00 6.3165932803e-05 1.7818882244e+00 -3.0863209381e+00 1.7818882244e+00 3.0863209381e+00 
76900 6.9122509771e+00 6.1142621448e-05 1.7818882244e+00 -3.0863209381e+00 1.7818882244e+00 3.0863209381e+00 
77000 6.9122509806e+00 5.8997546410e-05 1.7818882244e+00 -3.0863209381e+00 1.7818882244e+00 3.0863209381e+00 
77100 6.9122509841e+00 5.6736486260e-05 1.7818882244e+00 -3.0863209381e+00 1.7818882244e+00 3.0863209381e+00 
77200 6.9122509877e+00 5.4365197653e-05 1.7818882244e+00 -3.0863209381e+00 1.7818882244e+00 3.0863209381e+00 
77300 6.9122509913e+00 5.1889409394e-05 1.7818882244e+00 -3.0863209381e+00 1.7818882244e+00 3.0863209381e+00 
77400 6.9122509949e+00 4.9314816697e-05 1.7818882244e+00 -3.0863209381e+00 1.7818882244e+00 3.0863209381e+00 
77500 6.9122509985e+00 4.6647075601e-05 1.7818882244e+00 -3.0863209381e+00 1.7818882244e+00 3.0863209381e+00 
77600 6.9122510021e+00 4.3891797576e-05 1.7818882244e+00 -3.0863209381e+00 1.7818882244e+00 3.0863209381e+00 
77700 6.9122510057e+00 4.1054544283e-05 1.7818882244e+00 -3.0863209381e+00 1.7818882244e+00 3.0863209381e+00 
77800 6.9122510092e+00 3.8140822548e-05 1.7818882244e+00 -3.0863209381e+00 1.7818882244e+00 3.0863209381e+00 
77900 6.9122510128e+00 3.5156079488e-05 1.7818882244e+00 -3.0863209381e+00 1.7818882244e+00 3.0863209381e+00 
78000 6.9122510163e+00 3.2105697851e-05 1.7818882244e+00 -3.0863209381e+00 1.7818882244e+00 3.0863209381e+00 
78100 6.9122510198e+00 2.8994991489e-05 1.7818882244e+00 -3.0863209381e+00 1.7818882244e+00 3.0863209381e+00 
78200 6.9122510232e+00 2.5829201094e-05 1.7818882244e+00 -3.0863209381e+00 1.7818882244e+00 3.0863209381e+00 
78300 6.9122510266e+00 2.2613490045e-05 1.7818882244e+00 -3.0863209381e+00 1.7818882244e+00 3.0863209381e+00 
78400 6.9122510300e+00 1.9352940492e-05 1.7818882244e+00 -3.0863209381e+00 1.7818882244e+00 3.0863209381e+00 
78500 6.9122510332e+00 1.6052549607e-05 1.7818882244e+00 -3.0863209381e+00 1.7818882244e+00 3.0863209381e+00 
78600 6.9122510364e+00 1.2717226032e-05 1.7818882244e+00 -3.0863209381e+00 1.7818882244e+00 3.0863209381e+00 
78700 6.9122510396e+00 9.3517865082e-06 1.7818882244e+00 -3.0863209381e+00 1.7818882244e+00 3.0863209381e+00 
78800 6.9122510427e+00 5.9609526933e-06 1.7818882244e+00 -3.0863209381e+00 1.7818882244e+00 3.0863209381e+00 
78900 6.9122510457e+00 2.5493481860e-06 1.7818882244e+00 -3.0863209381e+00 1.7818882244e+00 3.0863209381e+00 
79000 6.9122510486e+00 -8.7850431338e-07 1.7818882244e+00 -3.0863209381e+00 1.7818882244e+00 3.0863209381e+00 
79100 6.9122510515e+00 -4.3181855942e-06 1.7818882244e+00 -3.0863209381e+00 1.7818882244e+00 3.0863209381e+00 
79200 6.9122510542e+00 -7.7653823833e-06 1.7818882244e+00 -3.0863209381e+00 1.7818882244e+00 3.0863209381e+00 
79300 6.9122510569e+00 -1.1215889609e-05 1.7818882244e+00 -3.0863209381e+00 1.7818882244e+00 3.0863209381e+00 
79400 6.9122510595e+00 -1.4665612456e-05 1.7818882244e+00 -3.0863209381e+00 1.7818882244e+00 3.0863209381e+00 
79500 6.9122510621e+00 -1.8110568277e-05 1.7818882244e+00 -3.0863209381e+00 1.7818882244e+00 3.0863209381e+00 
79600 6.9122510645e+00 -2.1546888297e-05 1.7818882244e+00 -3.0863209381e+00 1.7818882244e+00 3.0863209381e+00 
79700 6.9122510669e+00 -2.4970819166e-05 1.7818882244e+00 -3.0863209381e+00 1.7818882244e+00 3.0863209381e+00 
79800 6.9122510691e+00 -2.8378724316e-05 1.7818882244e+00 -3.0863209381e+00 1.7818882244e+00 3.0863209381e+00 
79900 6.9122510713e+00 -3.1767085164e-05 1.7818882244e+00 -3.0863209381e+00 1.7818882244e+00 3.0863209381e+00 
80000 6.9122510734e+00 -3.5132502153e-05 1.7818882244e+00 -3.0863209381e+00 1.7818882244e+00 3.0863209381e+00 
80100 6.9122510755e+00 -3.8471695596e-05 1.7818882244e+00 -3.0863209381e+00 1.7818882244e+00 3.0863209381e+00 
80200 6.9122510774e+00 -4.1781506392e-05 1.7818882244e+00 -3.0863209381e+00 1.7818882244e+00 3.0863209381e+00 
80300 6.9122510793e+00 -4.5058896577e-05 1.7818882244e+00 -3.0863209381e+00 1.7818882244e+00 3.0863209381e+00 
80400 6.9122510811e+00 -4.8300949693e-05 1.7818882244e+00 -3.0863209381e+00 1.7818882244e+00 3.0863209381e+00 
80500 6.9122510829e+00 -5.1504871042e-05 1.7818882244e+00 -3.0863209381e+00 1.7818882244e+00 3.0863209381e+00 
80600 6.9122510845e+00 -5.4667987757e-05 1.7818882244e+00 -3.0863209381e+00 1.7818882244e+00 3.0863209381e+00 
80700 6.9122510861e+00 -5.7787748746e-05 1.7818882244e+00 -3.0863209381e+00 1.7818882244e+00 3.0863209381e+00 
80800 6.9122510877e+00 -6.0861724498e-05 1.7818882244e+00 -3.0863209381e+00 1.7818882244e+00 3.0863209381e+00 
80900 6.9122510892e+00 -6.3887606731e-05 1.7818882244e+00 -3.0863209381e+00 1.7818882244e+00 3.0863209381e+00 
81000 6.9122510906e+00 -6.6863207917e-05 1.7818882244e+00 -3.0863209381e+00 1.7818882244e+00 3.0863209381e+00 
81100 6.9122510919e+00 -6.9786460686e-05 1.7818882244e+00 -3.0863209381e+00 1.7818882244e+00 3.0863209381e+00 
81200 6.9122510933e+00 -7.2655417074e-05 1.7818882244e+00 -3.0863209381e+00 1.7818882244e+00 3.0863209381e+00 
81300 6.9122510943e+00 -7.2934730128e-05 1.7818902632e+00 -3.0863244693e+00 1.7818902632e+00 3.0863244693e+00 
81400 6.9122510954e+00 -7.3130457763e-05 1.7818923097e+00 -3.0863280140e+00 1.7818923097e+00 3.0863280140e+00 
81500 6.9122510963e+00 -7.3242997783e-05 1.7818943618e+00 -3.0863315683e+00 1.7818943618e+00 3.0863315683e+00 
81600 6.9122510972e+00 -7.3272908253e-05 1.7818964170e+00 -3.0863351280e+00 1.7818964170e+00 3.0863351280e+00 
81700 6.9122510981e+00 -7.3220901137e-05 1.7818984730e+00 -3.0863386892e+00 1.7818984730e+00 3.0863386892e+00 
81800 6.9122510989e+00 -7.3087835940e-05 1.7819005276e+00 -3.0863422478e+00 1.7819005276e+00 3.0863422478e+00 
81900 6.9122510997e+00 -7.2874713374e-05 1.7819025784e+00 -3.0863458000e+00 1.7819025784e+00 3.0863458000e+00 
82000 6.9122511005e+00 -7.2582669006e-05 1.7819046233e+00 -3.0863493417e+00 1.7819046233e+00 3.0863493417e+00 
82100 6.9122511012e+00 -7.2212966977e-05 1.7819066599e+00 -3.0863528693e+00 1.7819066599e+00 3.0863528693e+00 
82200 6.9122511019e+00 -7.1766993694e-05 1.7819086862e+00 -3.0863563790e+00 1.7819086862e+00 3.0863563790e+00 
82300 6.9122511026e+00 -7.1246251577e-05 1.7819107000e+00 -3.0863598669e+00 1.7819107000e+00 3.0863598669e+00 
82400 6.9122511032e+00 -7.0652352846e-05 1.7819126991e+00 -3.0863633296e+00 1.7819126991e+00 3.0863633296e+00 
82500 6.9122511040e+00 -7.2450538342e-05 1.7819126991e+00 -3.0863633296e+00 1.7819126991e+00 3.0863633296e+00 
82600 6.9122511047e+00 -7.1645245393e-05 1.7819147321e+00 -3.0863668507e+00 1.7819147321e+00 3.0863668507e+00 
82700 6.9122511053e+00 -7.0774975499e-05 1.7819167424e+00 -3.0863703327e+00 1.7819167424e+00 3.0863703327e+00 
82800 6.9122511059e+00 -6.9841566783e-05 1.7819187283e+00 -3.0863737725e+00 1.7819187283e+00 3.0863737725e+00 
82900 6.9122511067e+00 -7.1282166087e-05 1.7819187283e+00 -3.0863737725e+00 1.7819187283e+00 3.0863737725e+00 
83000 6.9122511073e+00 -7.0158819675e-05 1.7819207285e+00 -3.0863772368e+00 1.7819207285e+00 3.0863772368e+00 
83100 6.9122511081e+00 -7.1427332946e-05 1.7819207285e+00 -3.0863772368e+00 1.7819207285e+00 3.0863772368e+00 
83200 6.9122511087e+00 -7.0127327845e-05 1.7819227327e+00 -3.0863807082e+00 1.7819227327e+00 3.0863807082e+00 
83300 6.9122511095e+00 -7.1224868444e-05 1.7819227327e+00 -3.0863807082e+00 1.7819227327e+00 3.0863807082e+00 
83400 6.9122511101e+00 -6.9761808598e-05 1.7819247313e+00 -3.0863841698e+00 1.7819247313e+00 3.0863841698e+00 
83500 6.9122511109e+00 -7.0690294786e-05 1.7819247313e+00 -3.0863841698e+00 1.7819247313e+00 3.0863841698e+00 
83600 6.9122511117e+00 -7.1542812461e-05 1.7819247313e+00 -3.0863841698e+00 1.7819247313e+00 3.0863841698e+00 
83700 6.9122511123e+00 -6.9826006554e-05 1.7819267387e+00 -3.0863876468e+00 1.7819267387e+00 3.0863876468e+00 
83800 6.9122511132e+00 -7.0514327224e-05 1.7819267387e+00 -3.0863876468e+00 1.7819267387e+00 3.0863876468e+00 
83900 6.9122511140e+00 -7.1129462266e-05 1.7819267387e+00 -3.0863876468e+00 1.7819267387e+00 3.0863876468e+00 
84000 6.9122511147e+00 -6.9192681063e-05 1.7819287346e+00 -3.0863911038e+00 1.7819287346e+00 3.0863911038e+00 
84100 6.9122511155e+00 -6.9649877379e-05 1.7819287346e+00 -3.0863911038e+00 1.7819287346e+00 3.0863911038e+00 
84200 6.9122511164e+00 -7.0037259492e-05 1.7819287346e+00 -3.0863911038e+00 1.7819287346e+00 3.0863911038e+00 
84300 6.9122511173e+00 -7.0356361790e-05 1.7819287346e+00 -3.0863911038e+00 1.7819287346e+00 3.0863911038e+00 
84400 6.9122511182e+00 -7.0608757077e-05 1.7819287346e+00 -3.0863911038e+00 1.7819287346e+00 3.0863911038e+00 
84500 6.9122511191e+00 -7.0796053791e-05 1.7819287346e+00 -3.0863911038e+00 1.7819287346e+00 3.0863911038e+00 
84600 6.9122511198e+00 -6.8451434772e-05 1.7819307211e+00 -3.0863945445e+00 1.7819307211e+00 3.0863945445e+00 
84700 6.9122511207e+00 -6.8497873072e-05 1.7819307211e+00 -3.0863945445e+00 1.7819307211e+00 3.0863945445e+00 
84800 6.9122511217e+00 -6.8483386772e-05 1.7819307211e+00 -3.0863945445e+00 1.7819307211e+00 3.0863945445e+00 
84900 6.9122511226e+00 -6.8409742198e-05 1.7819307211e+00 -3.0863945445e+00 1.7819307211e+00 3.0863945445e+00 
85000 6.9122511236e+00 -6.8278727289e-05 1.7819307211e+00 -3.0863945445e+00 1.7819307211e+00 3.0863945445e+00 
85100 6.9122511245e+00 -6.8092148982e-05 1.7819307211e+00 -3.0863945445e+00 1.7819307211e+00 3.0863945445e+00 
85200 6.9122511255e+00 -6.7851830628e-05 1.7819307211e+00 -3.0863945445e+00 1.7819307211e+00 3.0863945445e+00 
85300 6.9122511264e+00 -6.7559609452e-05 1.7819307211e+00 -3.0863945445e+00 1.7819307211e+00 3.0863945445e+00 
85400 6.9122511274e+00 -6.7217334064e-05 1.7819307211e+00 -3.0863945445e+00 1.7819307211e+00 3.0863945445e+00 
85500 6.9122511284e+00 -6.6826862012e-05 1.7819307211e+00 -3.0863945445e+00 1.7819307211e+00 3.0863945445e+00 
85600 6.9122511293e+00 -6.6390057379e-05 1.7819307211e+00 -3.0863945445e+00 1.7819307211e+00 3.0863945445e+00 
85700 6.9122511303e+00 -6.5908788439e-05 1.7819307211e+00 -3.0863945445e+00 1.7819307211e+00 3.0863945445e+00 
85800 6.9122511313e+00 -6.5384925361e-05 1.7819307211e+00 -3.0863945445e+00 1.7819307211e+00 3.0863945445e+00 
85900 6.9122511322e+00 -6.4820337965e-05 1.7819307211e+00 -3.0863945445e+00 1.7819307211e+00 3.0863945445e+00 
86000 6.9122511332e+00 -6.4216893542e-05 1.7819307211e+00 -3.0863945445e+00 1.7819307211e+00 3.0863945445e+00 
86100 6.9122511342e+00 -6.3576454709e-05 1.7819307211e+00 -3.0863945445e+00 1.7819307211e+00 3.0863945445e+00 
86200 6.9122511351e+00 -6.2900877351e-05 1.7819307211e+00 -3.0863945445e+00 1.7819307211e+00 3.0863945445e+00 
86300 6.9122511361e+00 -6.2192008602e-05 1.7819307211e+00 -3.0863945445e+00 1.7819307211e+00 3.0863945445e+00 
86400 6.9122511370e+00 -6.1451684887e-05 1.7819307211e+00 -3.0863945445e+00 1.7819307211e+00 3.0863945445e+00 
86500 6.9122511379e+00 -6.0681730025e-05 1.7819307211e+00 -3.0863945445e+00 1.7819307211e+00 3.0863945445e+00 
86600 6.9122511389e+00 -5.9883953418e-05 1.7819307211e+00 -3.0863945445e+00 1.7819307211e+00 3.0863945445e+00 
86700 6.9122511398e+00 -5.9060148258e-05 1.7819307211e+00 -3.0863945445e+00 1.7819307211e+00 3.0863945445e+00 
86800 6.9122511407e+00 -5.8212089831e-05 1.7819307211e+00 -3.0863945445e+00 1.7819307211e+00 3.0863945445e+00 
86900 6.9122511416e+00 -5.7341533877e-05 1.7819307211e+00 -3.0863945445e+00 1.7819307211e+00 3.0863945445e+00 
87000 6.9122511425e+00 -5.6450215012e-05 1.7819307211e+00 -3.0863945445e+00 1.7819307211e+00 3.0863945445e+00 
87100 6.9122511434e+00 -5.5539845208e-05 1.7819307211e+00 -3.0863945445e+00 1.7819307211e+00 3.0863945445e+00 
87200 6.9122511443e+00 -5.4612112347e-05 1.7819307211e+00 -3.0863945445e+00 1.7819307211e+00 3.0863945445e+00 
87300 6.9122511451e+00 -5.3668678844e-05 1.7819307211e+00 -3.0863945445e+00 1.7819307211e+00 3.0863945445e+00 
87400 6.9122511460e+00 -5.2711180319e-05 1.7819307211e+00 -3.0863945445e+00 1.7819307211e+00 3.0863945445e+00 
87500 6.9122511468e+00 -5.1741224349e-05 1.7819307211e+00 -3.0863945445e+00 1.7819307211e+00 3.0863945445e+00 
87600 6.9122511476e+00 -5.0760389279e-05 1.7819307211e+00 -3.0863945445e+00 1.7819307211e+00 3.0863945445e+00 
87700 6.9122511484e+00 -4.9770223094e-05 1.7819307211e+00 -3.0863945445e+00 1.7819307211e+00 3.0863945445e+00 
87800 6.9122511492e+00 -4.8772242377e-05 1.7819307211e+00 -3.0863945445e+00 1.7819307211e+00 3.0863945445e+00 
87900 6.9122511500e+00 -4.7767931297e-05 1.7819307211e+00 -3.0863945445e+00 1.7819307211e+00 3.0863945445e+00 
88000 6.9122511508e+00 -4.6758740689e-05 1.7819307211e+00 -3.0863945445e+00 1.7819307211e+00 3.0863945445e+00 
88100 6.9122511515e+00 -4.5746087185e-05 1.7819307211e+00 -3.0863945445e+00 1.7819307211e+00 3.0863945445e+00 
88200 6.9122511522e+00 -4.4731352411e-05 1.7819307211e+00 -3.0863945445e+00 1.7819307211e+00 3.0863945445e+00 
88300 6.9122511530e+00 -4.3715882252e-05 1.7819307211e+00 -3.0863945445e+00 1.7819307211e+00 3.0863945445e+00 
88400 6.9122511537e+00 -4.2700986169e-05 1.7819307211e+00 -3.0863945445e+00 1.7819307211e+00 3.0863945445e+00 
88500 6.9122511544e+00 -4.1687936590e-05 1.7819307211e+00 -3.0863945445e+00 1.7819307211e+00 3.0863945445e+00 
88600 6.9122511550e+00 -4.0677968341e-05 1.7819307211e+00 -3.0863945445e+00 1.7819307211e+00 3.0863945445e+00 
88700 6.9122511557e+00 -3.9672278166e-05 1.7819307211e+00 -3.0863945445e+00 1.7819307211e+00 3.0863945445e+00 
88800 6.9122511563e+00 -3.8672024284e-05 1.7819307211e+00 -3.0863945445e+00 1.7819307211e+00 3.0863945445e+00 
88900 6.9122511570e+00 -3.7678326000e-05 1.7819307211e+00 -3.0863945445e+00 1.7819307211e+00 3.0863945445e+00 
89000 6.9122511576e+00 -3.6692263397e-05 1.7819307211e+00 -3.0863945445e+00 1.7819307211e+00 3.0863945445e+00 
89100 6.9122511582e+00 -3.5714877064e-05 1.7819307211e+00 -3.0863945445e+00 1.7819307211e+00 3.0863945445e+00 
89200 6.9122511588e+00 -3.4747167888e-05 1.7819307211e+00 -3.0863945445e+00 1.7819307211e+00 3.0863945445e+00 
89300 6.9122511594e+00 -3.3790096889e-05 1.7819307211e+00 -3.0863945445e+00 1.7819307211e+00 3.0863945445e+00 
89400 6.9122511600e+00 -3.2844585127e-05 1.7819307211e+00 -3.0863945445e+00 1.7819307211e+00 3.0863945445e+00 
89500 6.9122511605e+00 -3.1911513639e-05 1.7819307211e+00 -3.0863945445e+00 1.7819307211e+00 3.0863945445e+00 
89600 6.9122511611e+00 -3.0991723441e-05 1.7819307211e+00 -3.0863945445e+00 1.7819307211e+00 3.0863945445e+00 
89700 6.9122511616e+00 -3.0086015576e-05 1.7819307211e+00 -3.0863945445e+00 1.7819307211e+00 3.0863945445e+00 
89800 6.9122511621e+00 -2.9195151201e-05 1.7819307211e+00 -3.0863945445e+00 1.7819307211e+00 3.0863945445e+00 
89900 6.9122511627e+00 -2.8319851739e-05 1.7819307211e+00 -3.0863945445e+00 1.7819307211e+00 3.0863945445e+00 
90000 6.9122511632e+00 -2.7460799049e-05 1.7819307211e+00 -3.0863945445e+00 1.7819307211e+00 3.0863945445e+00 
90100 6.9122511637e+00 -2.6618635672e-05 1.7819307211e+00 -3.0863945445e+00 1.7819307211e+00 3.0863945445e+00 
90200 6.9122511642e+00 -2.5793965087e-05 1.7819307211e+00 -3.0863945445e+00 1.7819307211e+00 3.0863945445e+00 
90300 6.9122511646e+00 -2.4987352035e-05 1.7819307211e+00 -3.0863945445e+00 1.7819307211e+00 3.0863945445e+00 
90400 6.9122511651e+00 -2.4199322864e-05 1.7819307211e+00 -3.0863945445e+00 1.7819307211e+00 3.0863945445e+00 
90500 6.9122511656e+00 -2.3430365922e-05 1.7819307211e+00 -3.0863945445e+00 1.7819307211e+00 3.0863945445e+00 
90600 6.9122511660e+00 -2.2680931982e-05 1.7819307211e+00 -3.0863945445e+00 1.7819307211e+00 3.0863945445e+00 
90700 6.9122511665e+00 -2.1951434707e-05 1.7819307211e+00 -3.0863945445e+00 1.7819307211e+00 3.0863945445e+00 
90800 6.9122511669e+00 -2.1242251139e-05 1.7819307211e+00 -3.0863945445e+00 1.7819307211e+00 3.0863945445e+00 
90900 6.9122511673e+00 -2.0553722232e-05 1.7819307211e+00 -3.0863945445e+00 1.7819307211e+00 3.0863945445e+00 
91000 6.9122511678e+00 -1.9886153406e-05 1.7819307211e+00 -3.0863945445e+00 1.7819307211e+00 3.0863945445e+00 
91100 6.9122511682e+00 -1.9239815140e-05 1.7819307211e+00 -3.0863945445e+00 1.7819307211e+00 3.0863945445e+00 
91200 6.9122511686e+00 -1.8614943580e-05 1.7819307211e+00 -3.0863945445e+00 1.7819307211e+00 3.0863945445e+00 
91300 6.9122511690e+00 -1.8011741191e-05 1.7819307211e+00 -3.0863945445e+00 1.7819307211e+00 3.0863945445e+00 
91400 6.9122511694e+00 -1.7430377408e-05 1.7819307211e+00 -3.0863945445e+00 1.7819307211e+00 3.0863945445e+00 
91500 6.9122511698e+00 -1.6870989336e-05 1.7819307211e+00 -3.0863945445e+00 1.7819307211e+00 3.0863945445e+00 
91600 6.9122511702e+00 -1.6333682464e-05 1.7819307211e+00 -3.0863945445e+00 1.7819307211e+00 3.0863945445e+00 
91700 6.9122511706e+00 -1.5818531389e-05 1.7819307211e+00 -3.0863945445e+00 1.7819307211e+00 3.0863945445e+00 
91800 6.9122511710e+00 -1.5325580573e-05 1.7819307211e+00 -3.0863945445e+00 1.7819307211e+00 3.0863945445e+00 
91900 6.9122511714e+00 -1.4854845106e-05 1.7819307211e+00 -3.0863945445e+00 1.7819307211e+00 3.0863945445e+00 
92000 6.9122511718e+00 -1.4406311496e-05 1.7819307211e+00 -3.0863945445e+00 1.7819307211e+00 3.0863945445e+00 
92100 6.9122511721e+00 -1.3979938462e-05 1.7819307211e+00 -3.0863945445e+00 1.7819307211e+00 3.0863945445e+00 
92200 6.9122511725e+00 -1.3575657755e-05 1.7819307211e+00 -3.0863945445e+00 1.7819307211e+00 3.0863945445e+00 
92300 6.9122511729e+00 -1.3193374971e-05 1.7819307211e+00 -3.0863945445e+00 1.7819307211e+00 3.0863945445e+00 
92400 6.9122511732e+00 -1.2832970407e-05 1.7819307211e+00 -3.0863945445e+00 1.7819307211e+00 3.0863945445e+00 
92500 6.9122511736e+00 -1.2494299876e-05 1.7819307211e+00 -3.0863945445e+00 1.7819307211e+00 3.0863945445e+00 
92600 6.9122511740e+00 -1.2177195589e-05 1.7819307211e+00 -3.0863945445e+00 1.7819307211e+00 3.0863945445e+00 
92700 6.9122511743e+00 -1.1881466993e-05 1.7819307211e+00 -3.0863945445e+00 1.7819307211e+00 3.0863945445e+00 
92800 6.9122511747e+00 -1.1606901652e-05 1.7819307211e+00 -3.0863945445e+00 1.7819307211e+00 3.0863945445e+00 
92900 6.9122511750e+00 -1.1353266102e-05 1.7819307211e+00 -3.0863945445e+00 1.7819307211e+00 3.0863945445e+00 
93000 6.9122511754e+00 -1.1120306732e-05 1.7819307211e+00 -3.0863945445e+00 1.7819307211e+00 3.0863945445e+00 
93100 6.9122511757e+00 -1.0907750663e-05 1.7819307211e+00 -3.0863945445e+00 1.7819307211e+00 3.0863945445e+00 
93200 6.9122511761e+00 -1.0715306605e-05 1.7819307211e+00 -3.0863945445e+00 1.7819307211e+00 3.0863945445e+00 
93300 6.9122511764e+00 -1.0542665752e-05 1.7819307211e+00 -3.0863945445e+00 1.7819307211e+00 3.0863945445e+00 
93400 6.9122511768e+00 -1.0389502645e-05 1.7819307211e+00 -3.0863945445e+00 1.7819307211e+00 3.0863945445e+00 
93500 6.9122511771e+00 -1.0255476040e-05 1.7819307211e+00 -3.0863945445e+00 1.7819307211e+00 3.0863945445e+00 
93600 6.9122511774e+00 -1.0140229782e-05 1.7819307211e+00 -3.0863945445e+00 1.7819307211e+00 3.0863945445e+00 
93700 6.9122511778e+00 -1.0043393665e-05 1.7819307211e+00 -3.0863945445e+00 1.7819307211e+00 3.0863945445e+00 
93800 6.9122511781e+00 -9.9645842853e-06 1.7819307211e+00 -3.0863945445e+00 1.7819307211e+00 3.0863945445e+00 
93900 6.9122511784e+00 -9.9034059006e-06 1.7819307211e+00 -3.0863945445e+00 1.7819307211e+00 3.0863945445e+00 
94000 6.9122511788e+00 -9.8594512664e-06 1.7819307211e+00 -3.0863945445e+00 1.7819307211e+00 3.0863945445e+00 
94100 6.9122511791e+00 -9.8323024663e-06 1.7819307211e+00 -3.0863945445e+00 1.7819307211e+00 3.0863945445e+00 
94200 6.9122511794e+00 -9.8215317498e-06 1.7819307211e+00 -3.0863945445e+00 1.7819307211e+00 3.0863945445e+00 
94300 6.9122511797e+00 -9.8267023463e-06 1.7819307211e+00 -3.0863945445e+00 1.7819307211e+00 3.0863945445e+00 
94400 6.9122511800e+00 -9.8473692599e-06 1.7819307211e+00 -3.0863945445e+00 1.7819307211e+00 3.0863945445e+00 
94500 6.9122511804e+00 -9.8830800706e-06 1.7819307211e+00 -3.0863945445e+00 1.7819307211e+00 3.0863945445e+00 
94600 6.9122511807e+00 -9.9333757236e-06 1.7819307211e+00 -3.0863945445e+00 1.7819307211e+00 3.0863945445e+00 
94700 6.9122511810e+00 -9.9977912802e-06 1.7819307211e+00 -3.0863945445e+00 1.7819307211e+00 3.0863945445e+00 
94800 6.9122511813e+00 -1.0075856695e-05 1.7819307211e+00 -3.0863945445e+00 1.7819307211e+00 3.0863945445e+00 
94900 6.9122511816e+00 -1.0167097535e-05 1.7819307211e+00 -3.0863945445e+00 1.7819307211e+00 3.0863945445e+00 
95000 6.9122511819e+00 -1.0271035732e-05 1.7819307211e+00 -3.0863945445e+00 1.7819307211e+00 3.0863945445e+00 
95100 6.9122511822e+00 -1.0387190270e-05 1.7819307211e+00 -3.0863945445e+00 1.7819307211e+00 3.0863945445e+00 
95200 6.9122511825e+00 -1.0515077901e-05 1.7819307211e+00 -3.0863945445e+00 1.7819307211e+00 3.0863945445e+00 
95300 6.9122511828e+00 -1.0654213815e-05 1.7819307211e+00 -3.0863945445e+00 1.7819307211e+00 3.0863945445e+00 
95400 6.9122511831e+00 -1.0804112308e-05 1.7819307211e+00 -3.0863945445e+00 1.7819307211e+00 3.0863945445e+00 
95500 6.9122511834e+00 -1.0964287421e-05 1.7819307211e+00 -3.0863945445e+00 1.7819307211e+00 3.0863945445e+00 
95600 6.9122511837e+00 -1.1134253585e-05 1.7819307211e+00 -3.0863945445e+00 1.7819307211e+00 3.0863945445e+00 
95700 6.9122511840e+00 -1.1313526221e-05 1.7819307211e+00 -3.0863945445e+00 1.7819307211e+00 3.0863945445e+00 
95800 6.9122511842e+00 -1.1501622338e-05 1.7819307211e+00 -3.0863945445e+00 1.7819307211e+00 3.0863945445e+00 
95900 6.9122511845e+00 -1.1698061111e-05 1.7819307211e+00 -3.0863945445e+00 1.7819307211e+00 3.0863945445e+00 
96000 6.9122511848e+00 -1.1902364428e-05 1.7819307211e+00 -3.0863945445e+00 1.7819307211e+00 3.0863945445e+00 
96100 6.9122511851e+00 -1.2114057449e-05 1.7819307211e+00 -3.0863945445e+00 1.7819307211e+00 3.0863945445e+00 
96200 6.9122511853e+00 -1.2332669105e-05 1.7819307211e+00 -3.0863945445e+00 1.7819307211e+00 3.0863945445e+00 
96300 6.9122511856e+00 -1.2557732615e-05 1.7819307211e+00 -3.0863945445e+00 1.7819307211e+00 3.0863945445e+00 
96400 6.9122511859e+00 -1.2788785954e-05 1.7819307211e+00 -3.0863945445e+00 1.7819307211e+00 3.0863945445e+00 
96500 6.9122511861e+00 -1.3025372330e-05 1.7819307211e+00 -3.0863945445e+00 1.7819307211e+00 3.0863945445e+00 
96600 6.9122511864e+00 -1.3267040615e-05 1.7819307211e+00 -3.0863945445e+00 1.7819307211e+00 3.0863945445e+00 
96700 6.9122511866e+00 -1.3513345777e-05 1.7819307211e+00 -3.0863945445e+00 1.7819307211e+00 3.0863945445e+00 
96800 6.9122511869e+00 -1.3763849279e-05 1.7819307211e+00 -3.0863945445e+00 1.7819307211e+00 3.0863945445e+00 
96900 6.9122511871e+00 -1.4018119464e-05 1.7819307211e+00 -3.0863945445e+00 1.7819307211e+00 3.0863945445e+00 
97000 6.9122511874e+00 -1.4275731929e-05 1.7819307211e+00 -3.0863945445e+00 1.7819307211e+00 3.0863945445e+00 
97100 6.9122511876e+00 -1.4536269862e-05 1.7819307211e+00 -3.0863945445e+00 1.7819307211e+00 3.0863945445e+00 
97200 6.9122511879e+00 -1.4799324372e-05 1.7819307211e+00 -3.0863945445e+00 1.7819307211e+00 3.0863945445e+00 
97300 6.9122511881e+00 -1.5064494802e-05 1.7819307211e+00 -3.0863945445e+00 1.7819307211e+00 3.0863945445e+00 
97400 6.9122511883e+00 -1.5331389010e-05 1.7819307211e+00 -3.0863945445e+00 1.7819307211e+00 3.0863945445e+00 
97500 6.9122511885e+00 -1.5599623641e-05 1.7819307211e+00 -3.0863945445e+00 1.7819307211e+00 3.0863945445e+00 
97600 6.9122511888e+00 -1.5868824389e-05 1.7819307211e+00 -3.0863945445e+00 1.7819307211e+00 3.0863945445e+00 
97700 6.9122511890e+00 -1.6138626210e-05 1.7819307211e+00 -3.0863945445e+00 1.7819307211e+00 3.0863945445e+00 
97800 6.9122511892e+00 -1.6408673558e-05 1.7819307211e+00 -3.0863945445e+00 1.7819307211e+00 3.0863945445e+00 
97900 6.9122511894e+00 -1.6678620564e-05 1.7819307211e+00 -3.0863945445e+00 1.7819307211e+00 3.0863945445e+00 
98000 6.9122511896e+00 -1.6948131228e-05 1.7819307211e+00 -3.0863945445e+00 1.7819307211e+00 3.0863945445e+00 
98100 6.9122511899e+00 -1.7216879572e-05 1.7819307211e+00 -3.0863945445e+00 1.7819307211e+00 3.0863945445e+00 
98200 6.9122511901e+00 -1.7484549784e-05 1.7819307211e+00 -3.0863945445e+00 1.7819307211e+00 3.0863945445e+00 
98300 6.9122511903e+00 -1.7750836345e-05 1.7819307211e+00 -3.0863945445e+00 1.7819307211e+00 3.0863945445e+00 
98400 6.9122511905e+00 -1.8015444146e-05 1.7819307211e+00 -3.0863945445e+00 1.7819307211e+00 3.0863945445e+00 
98500 6.9122511907e+00 -1.8278088571e-05 1.7819307211e+00 -3.0863945445e+00 1.7819307211e+00 3.0863945445e+00 
98600 6.9122511909e+00 -1.8538495579e-05 1.7819307211e+00 -3.0863945445e+00 1.7819307211e+00 3.0863945445e+00 
98700 6.9122511911e+00 -1.8796401770e-05 1.7819307211e+00 -3.0863945445e+00 1.7819307211e+00 3.0863945445e+00 
98800 6.9122511913e+00 -1.9051554418e-05 1.7819307211e+00 -3.0863945445e+00 1.7819307211e+00 3.0863945445e+00 
98900 6.9122511914e+00 -1.9303711511e-05 1.7819307211e+00 -3.0863945445e+00 1.7819307211e+00 3.0863945445e+00 
99000 6.9122511916e+00 -1.9552641774e-05 1.7819307211e+00 -3.0863945445e+00 1.7819307211e+00 3.0863945445e+00 
99100 6.9122511918e+00 -1.9798124656e-05 1.7819307211e+00 -3.0863945445e+00 1.7819307211e+00 3.0863945445e+00 
99200 6.9122511920e+00 -2.0039950326e-05 1.7819307211e+00 -3.0863945445e+00 1.7819307211e+00 3.0863945445e+00 
99300 6.9122511922e+00 -2.0277919650e-05 1.7819307211e+00 -3.0863945445e+00 1.7819307211e+00 3.0863945445e+00 
99400 6.9122511924e+00 -2.0511844143e-05 1.7819307211e+00 -3.0863945445e+00 1.7819307211e+00 3.0863945445e+00 
99500 6.9122511925e+00 -2.0741545930e-05 1.7819307211e+00 -3.0863945445e+00 1.7819307211e+00 3.0863945445e+00 
99600 6.9122511927e+00 -2.0966857667e-05 1.7819307211e+00 -3.0863945445e+00 1.7819307211e+00 3.0863945445e+00 
99700 6.9122511929e+00 -2.1187622474e-05 1.7819307211e+00 -3.0863945445e+00 1.7819307211e+00 3.0863945445e+00 
99800 6.9122511930e+00 -2.1403693855e-05 1.7819307211e+00 -3.0863945445e+00 1.7819307211e+00 3.0863945445e+00 
99900 6.9122511932e+00 -2.1614935582e-05 1.7819307211e+00 -3.0863945445e+00 1.7819307211e+00 3.0863945445e+00 
100000 6.9122511934e+00 -2.1821221600e-05 1.7819307211e+00 -3.0863945445e+00 1.7819307211e+00 3.0863945445e+00 
100100 6.9122511935e+00 -2.2022435903e-05 1.7819307211e+00 -3.0863945445e+00 1.7819307211e+00 3.0863945445e+00 
100200 6.9122511937e+00 -2.2218472405e-05 1.7819307211e+00 -3.0863945445e+00 1.7819307211e+00 3.0863945445e+00 
100300 6.9122511938e+00 -2.2409234799e-05 1.7819307211e+00 -3.0863945445e+00 1.7819307211e+00 3.0863945445e+00 
100400 6.9122511940e+00 -2.2594636417e-05 1.7819307211e+00 -3.0863945445e+00 1.7819307211e+00 3.0863945445e+00 
100500 6.9122511942e+00 -2.2774600068e-05 1.7819307211e+00 -3.0863945445e+00 1.7819307211e+00 3.0863945445e+00 
100600 6.9122511943e+00 -2.2949057875e-05 1.7819307211e+00 -3.0863945445e+00 1.7819307211e+00 3.0863945445e+00 
100700 6.9122511945e+00 -2.3117951105e-05 1.7819307211e+00 -3.0863945445e+00 1.7819307211e+00 3.0863945445e+00 
100800 6.9122511946e+00 -2.3281229991e-05 1.7819307211e+00 -3.0863945445e+00 1.7819307211e+00 3.0863945445e+00 
100900 6.9122511948e+00 -2.3438853547e-05 1.7819307211e+00 -3.0863945445e+00 1.7819307211e+00 3.0863945445e+00 
101000 6.9122511949e+00 -2.3590789372e-05 1.7819307211e+00 -3.0863945445e+00 1.7819307211e+00 3.0863945445e+00 
101100 6.9122511951e+00 -2.3737013457e-05 1.7819307211e+00 -3.0863945445e+00 1.7819307211e+00 3.0863945445e+00 
101200 6.9122511952e+00 -2.3877509978e-05 1.7819307211e+00 -3.0863945445e+00 1.7819307211e+00 3.0863945445e+00 
101300 6.9122511953e+00 -2.4012271098e-05 1.7819307211e+00 -3.0863945445e+00 1.7819307211e+00 3.0863945445e+00 
101400 6.9122511955e+00 -2.4141296732e-05 1.7819307211e+00 -3.0863945445e+00 1.7819307211e+00 3.0863945445e+00 
101500 6.9122511956e+00 -2.4264594360e-05 1.7819307211e+00 -3.0863945445e+00 1.7819307211e+00 3.0863945445e+00 
101600 6.9122511957e+00 -2.4382178781e-05 1.7819307211e+00 -3.0863945445e+00 1.7819307211e+00 3.0863945445e+00 
101700 6.9122511959e+00 -2.4494071903e-05 1.7819307211e+00 -3.0863945445e+00 1.7819307211e+00 3.0863945445e+00 
101800 6.9122511960e+00 -2.4600302504e-05 1.7819307211e+00 -3.0863945445e+00 1.7819307211e+00 3.0863945445e+00 
101900 6.9122511962e+00 -2.4700906016e-05 1.7819307211e+00 -3.0863945445e+00 1.7819307211e+00 3.0863945445e+00 
102000 6.9122511963e+00 -2.4795924281e-05 1.7819307211e+00 -3.0863945445e+00 1.7819307211e+00 3.0863945445e+00 
102100 6.9122511964e+00 -2.4885405319e-05 1.7819307211e+00 -3.0863945445e+00 1.7819307211e+00 3.0863945445e+00 
102200 6.9122511965e+00 -2.4969403095e-05 1.7819307211e+00 -3.0863945445e+00 1.7819307211e+00 3.0863945445e+00 
102300 6.9122511967e+00 -2.5047977283e-05 1.7819307211e+00 -3.0863945445e+00 1.7819307211e+00 3.0863945445e+00 
102400 6.9122511968e+00 -2.5121193019e-05 1.7819307211e+00 -3.0863945445e+00 1.7819307211e+00 3.0863945445e+00 
102500 6.9122511969e+00 -2.5189120672e-05 1.7819307211e+00 -3.0863945445e+00 1.7819307211e+00 3.0863945445e+00 
102600 6.9122511970e+00 -2.5251835595e-05 1.7819307211e+00 -3.0863945445e+00 1.7819307211e+00 3.0863945445e+00 
102700 6.9122511972e+00 -2.5309417901e-05 1.7819307211e+00 -3.0863945445e+00 1.7819307211e+00 3.0863945445e+00 
102800 6.9122511973e+00 -2.5361952213e-05 1.7819307211e+00 -3.0863945445e+00 1.7819307211e+00 3.0863945445e+00 
102900 6.9122511974e+00 -2.5409527422e-05 1.7819307211e+00 -3.0863945445e+00 1.7819307211e+00 3.0863945445e+00 
103000 6.9122511975e+00 -2.5452236457e-05 1.7819307211e+00 -3.0863945445e+00 1.7819307211e+00 3.0863945445e+00 
103100 6.9122511976e+00 -2.5490176058e-05 1.7819307211e+00 -3.0863945445e+00 1.7819307211e+00 3.0863945445e+00 
103200 6.9122511978e+00 -2.5523446519e-05 1.7819307211e+00 -3.0863945445e+00 1.7819307211e+00 3.0863945445e+00 
103300 6.9122511979e+00 -2.5552151483e-05 1.7819307211e+00 -3.0863945445e+00 1.7819307211e+00 3.0863945445e+00 
103400 6.9122511980e+00 -2.5576397690e-05 1.7819307211e+00 -3.0863945445e+00 1.7819307211e+00 3.0863945445e+00 
103500 6.9122511981e+00 -2.5596294755e-05 1.7819307211e+00 -3.0863945445e+00 1.7819307211e+00 3.0863945445e+00 
103600 6.9122511982e+00 -2.5611954950e-05 1.7819307211e+00 -3.0863945445e+00 1.7819307211e+00 3.0863945445e+00 
103700 6.9122511983e+00 -2.5623492975e-05 1.7819307211e+00 -3.0863945445e+00 1.7819307211e+00 3.0863945445e+00 
103800 6.9122511984e+00 -2.5631025735e-05 1.7819307211e+00 -3.0863945445e+00 1.7819307211e+00 3.0863945445e+00 
103900 6.9122511985e+00 -2.5634672128e-05 1.7819307211e+00 -3.0863945445e+00 1.7819307211e+00 3.0863945445e+00 
104000 6.9122511986e+00 -2.5634552836e-05 1.7819307211e+00 -3.0863945445e+00 1.7819307211e+00 3.0863945445e+00 
104100 6.9122511987e+00 -2.5630790104e-05 1.7819307211e+00 -3.0863945445e+00 1.7819307211e+00 3.0863945445e+00 
104200 6.9122511988e+00 -2.5623507549e-05 1.7819307211e+00 -3.0863945445e+00 1.7819307211e+00 3.0863945445e+00 
104300 6.9122511990e+00 -2.5612829943e-05 1.7819307211e+00 -3.0863945445e+00 1.7819307211e+00 3.0863945445e+00 
104400 6.9122511991e+00 -2.5598883025e-05 1.7819307211e+00 -3.0863945445e+00 1.7819307211e+00 3.0863945445e+00 
104500 6.9122511992e+00 -2.5581793298e-05 1.7819307211e+00 -3.0863945445e+00 1.7819307211e+00 3.0863945445e+00 
104600 6.9122511993e+00 -2.5561687854e-05 1.7819307211e+00 -3.0863945445e+00 1.7819307211e+00 3.0863945445e+00 
104700 6.9122511994e+00 -2.5538694180e-05 1.7819307211e+00 -3.0863945445e+00 1.7819307211e+00 3.0863945445e+00 
104800 6.9122511994e+00 -2.5512939973e-05 1.7819307211e+00 -3.0863945445e+00 1.7819307211e+00 3.0863945445e+00 
104900 6.9122511995e+00 -2.5484552976e-05 1.7819307211e+00 -3.0863945445e+00 1.7819307211e+00 3.0863945445e+00 
105000 6.9122511996e+00 -2.5453660796e-05 1.7819307211e+00 -3.0863945445e+00 1.7819307211e+00 3.0863945445e+00 
105100 6.9122511997e+00 -2.5420390748e-05 1.7819307211e+00 -3.0863945445e+00 1.7819307211e+00 3.0863945445e+00 
105200 6.9122511998e+00 -2.5384869691e-05 1.7819307211e+00 -3.0863945445e+00 1.7819307211e+00 3.0863945445e+00 
105300 6.9122511999e+00 -2.5347223865e-05 1.7819307211e+00 -3.0863945445e+00 1.7819307211e+00 3.0863945445e+00 
105400 6.9122512000e+00 -2.5307578752e-05 1.7819307211e+00 -3.0863945445e+00 1.7819307211e+00 3.0863945445e+00 
105500 6.9122512001e+00 -2.5266058921e-05 1.7819307211e+00 -3.0863945445e+00 1.7819307211e+00 3.0863945445e+00 
105600 6.9122512002e+00 -2.5222787894e-05 1.7819307211e+00 -3.0863945445e+00 1.7819307211e+00 3.0863945445e+00 
105700 6.9122512003e+00 -2.5177888004e-05 1.7819307211e+00 -3.0863945445e+00 1.7819307211e+00 3.0863945445e+00 
105800 6.9122512004e+00 -2.5131480276e-05 1.7819307211e+00 -3.0863945445e+00 1.7819307211e+00 3.0863945445e+00 
105900 6.9122512005e+00 -2.5083684292e-05 1.7819307211e+00 -3.0863945445e+00 1.7819307211e+00 3.0863945445e+00 
106000 6.9122512005e+00 -2.5034618083e-05 1.7819307211e+00 -3.0863945445e+00 1.7819307211e+00 3.0863945445e+00 
106100 6.9122512006e+00 -2.4984397998e-05 1.7819307211e+00 -3.0863945445e+00 1.7819307211e+00 3.0863945445e+00 
106200 6.9122512007e+00 -2.4933138618e-05 1.7819307211e+00 -3.0863945445e+00 1.7819307211e+00 3.0863945445e+00 
106300 6.9122512008e+00 -2.4880952637e-05 1.7819307211e+00 -3.0863945445e+00 1.7819307211e+00 3.0863945445e+00 
106400 6.9122512009e+00 -2.4827950764e-05 1.7819307211e+00 -3.0863945445e+00 1.7819307211e+00 3.0863945445e+00 
106500 6.9122512010e+00 -2.4774241645e-05 1.7819307211e+00 -3.0863945445e+00 1.7819307211e+00 3.0863945445e+00 
106600 6.9122512010e+00 -2.4719931761e-05 1.7819307211e+00 -3.0863945445e+00 1.7819307211e+00 3.0863945445e+00 
106700 6.9122512011e+00 -2.4665125356e-05 1.7819307211e+00 -3.0863945445e+00 1.7819307211e+00 3.0863945445e+00 
106800 6.9122512012e+00 -2.4609924352e-05 1.7819307211e+00 -3.0863945445e+00 1.7819307211e+00 3.0863945445e+00 
106900 6.9122512013e+00 -2.4554428292e-05 1.7819307211e+00 -3.0863945445e+00 1.7819307211e+00 3.0863945445e+00 
107000 6.9122512013e+00 -2.4498734252e-05 1.7819307211e+00 -3.0863945445e+00 1.7819307211e+00 3.0863945445e+00 
107100 6.9122512014e+00 -2.4442936802e-05 1.7819307211e+00 -3.0863945445e+00 1.7819307211e+00 3.0863945445e+00 
107200 6.9122512015e+00 -2.4387127934e-05 1.7819307211e+00 -3.0863945445e+00 1.7819307211e+00 3.0863945445e+00 
107300 6.9122512016e+00 -2.4331397021e-05 1.7819307211e+00 -3.0863945445e+00 1.7819307211e+00 3.0863945445e+00 
107400 6.9122512016e+00 -2.4275830766e-05 1.7819307211e+00 -3.0863945445e+00 1.7819307211e+00 3.0863945445e+00 
107500 6.9122512017e+00 -2.4220513160e-05 1.7819307211e+00 -3.0863945445e+00 1.7819307211e+00 3.0863945445e+00 
107600 6.9122512018e+00 -2.4165525457e-05 1.7819307211e+00 -3.0863945445e+00 1.7819307211e+00 3.0863945445e+00 
107700 6.9122512018e+00 -2.4110946115e-05 1.7819307211e+00 -3.0863945445e+00 1.7819307211e+00 3.0863945445e+00 
107800 6.9122512019e+00 -2.4056850802e-05 1.7819307211e+00 -3.0863945445e+00 1.7819307211e+00 3.0863945445e+00 
107900 6.9122512020e+00 -2.4003312350e-05 1.7819307211e+00 -3.0863945445e+00 1.7819307211e+00 3.0863945445e+00 
108000 6.9122512021e+00 -2.3950400743e-05 1.7819307211e+00 -3.0863945445e+00 1.7819307211e+00 3.0863945445e+00 
108100 6.9122512021e+00 -2.3898183103e-05 1.7819307211e+00 -3.0863945445e+00 1.7819307211e+00 3.0863945445e+00 
108200 6.9122512022e+00 -2.3846723684e-05 1.7819307211e+00 -3.0863945445e+00 1.7819307211e+00 3.0863945445e+00 
108300 6.9122512023e+00 -2.3796083859e-05 1.7819307211e+00 -3.0863945445e+00 1.7819307211e+00 3.0863945445e+00 
108400 6.9122512023e+00 -2.3746322125e-05 1.7819307211e+00 -3.0863945445e+00 1.7819307211e+00 3.0863945445e+00 
108500 6.9122512024e+00 -2.3697494097e-05 1.7819307211e+00 -3.0863945445e+00 1.7819307211e+00 3.0863945445e+00 
108600 6.9122512024e+00 -2.3649652522e-05 1.7819307211e+00 -3.0863945445e+00 1.7819307211e+00 3.0863945445e+00 
108700 6.9122512025e+00 -2.3602847281e-05 1.7819307211e+00 -3.0863945445e+00 1.7819307211e+00 3.0863945445e+00 
108800 6.9122512026e+00 -2.3557125407e-05 1.7819307211e+00 -3.0863945445e+00 1.7819307211e+00 3.0863945445e+00 
108900 6.9122512026e+00 -2.3512531101e-05 1.7819307211e+00 -3.0863945445e+00 1.7819307211e+00 3.0863945445e+00 
109000 6.9122512027e+00 -2.3469105749e-05 1.7819307211e+00 -3.0863945445e+00 1.7819307211e+00 3.0863945445e+00 
109100 6.9122512027e+00 -2.3426887948e-05 1.7819307211e+00 -3.0863945445e+00 1.7819307211e+00 3.0863945445e+00 
109200 6.9122512028e+00 -2.3385913528e-05 1.7819307211e+00 -3.0863945445e+00 1.7819307211e+00 3.0863945445e+00 
109300 6.9122512029e+00 -2.3346215586e-05 1.7819307211e+00 -3.0863945445e+00 1.7819307211e+00 3.0863945445e+00 
109400 6.9122512029e+00 -2.3307824515e-05 1.7819307211e+00 -3.0863945445e+00 1.7819307211e+00 3.0863945445e+00 
109500 6.9122512030e+00 -2.3270768030e-05 1.7819307211e+00 -3.0863945445e+00 1.7819307211e+00 3.0863945445e+00 
109600 6.9122512030e+00 -2.3235071224e-05 1.7819307211e+00 -3.0863945445e+00 1.7819307211e+00 3.0863945445e+00 
109700 6.9122512031e+00 -2.3200756595e-05 1.7819307211e+00 -3.0863945445e+00 1.7819307211e+00 3.0863945445e+00 
109800 6.9122512031e+00 -2.3167844087e-05 1.7819307211e+00 -3.0863945445e+00 1.7819307211e+00 3.0863945445e+00 
109900 6.9122512032e+00 -2.3136351140e-05 1.7819307211e+00 -3.0863945445e+00 1.7819307211e+00 3.0863945445e+00 
110000 6.9122512032e+00 -2.3106292727e-05 1.7819307211e+00 -3.0863945445e+00 1.7819307211e+00 3.0863945445e+00 
110100 6.9122512033e+00 -2.3077681419e-05 1.7819307211e+00 -3.0863945445e+00 1.7819307211e+00 3.0863945445e+00 
110200 6.9122512034e+00 -2.3050527418e-05 1.7819307211e+00 -3.0863945445e+00 1.7819307211e+00 3.0863945445e+00 
110300 6.9122512034e+00 -2.3024838617e-05 1.7819307211e+00 -3.0863945445e+00 1.7819307211e+00 3.0863945445e+00 
110400 6.9122512035e+00 -2.3000620648e-05 1.7819307211e+00 -3.0863945445e+00 1.7819307211e+00 3.0863945445e+00 
110500 6.9122512035e+00 -2.2977876952e-05 1.7819307211e+00 -3.0863945445e+00 1.7819307211e+00 3.0863945445e+00 
110600 6.9122512036e+00 -2.2956608816e-05 1.7819307211e+00 -3.0863945445e+00 1.7819307211e+00 3.0863945445e+00 
110700 6.9122512036e+00 -2.2936815441e-05 1.7819307211e+00 -3.0863945445e+00 1.7819307211e+00 3.0863945445e+00 
110800 6.9122512036e+00 -2.2926374355e-05 1.7819307211e+00 -3.0863945445e+00 1.7819307211e+00 3.0863945445e+00 
110800 6.9122512036e+00 -2.2926374355e-05 1.7819307211e+00 -3.0863945445e+00 1.7819307211e+00 3.0863945445e+00 
