# step Hamiltonian StressXX CellTensor1 CellTensor2 CellTensor3 CellTensor4 
0 6.4145799985e+00 9.9396891847e-10 1.3731072612e+00 -2.3782915406e+00 1.3731072612e+00 2.3782915406e+00 
100 6.4104126630e+00 1.0610235895e-09 1.3731072612e+00 -2.3782915406e+00 1.3731072612e+00 2.3782915406e+00 
200 6.4064988168e+00 1.1052930002e-09 1.3731072612e+00 -2.3782915406e+00 1.3731072612e+00 2.3782915406e+00 
300 6.4028230408e+00 1.1325403366e-09 1.3731072612e+00 -2.3782915406e+00 1.3731072612e+00 2.3782915406e+00 
400 6.3993708536e+00 1.1472564124e-09 1.3731072612e+00 -2.3782915406e+00 1.3731072612e+00 2.3782915406e+00 
500 6.3961286550e+00 1.1529268308e-09 1.3731072612e+00 -2.3782915406e+00 1.3731072612e+00 2.3782915406e+00 
600 6.3930836717e+00 1.1522443081e-09 1.3731072612e+00 -2.3782915406e+00 1.3731072612e+00 2.3782915406e+00 
700 6.3902239077e+00 1.1472772934e-09 1.3731072612e+00 -2.3782915406e+00 1.3731072612e+00 2.3782915406e+00 
800 6.3875380965e+00 1.1396037747e-09 1.3731072612e+00 -2.3782915406e+00 1.3731072612e+00 2.3782915406e+00 
900 6.3850156569e+00 1.1304173597e-09 1.3731072612e+00 -2.3782915406e+00 1.3731072612e+00 2.3782915406e+00 
1000 6.3826466514e+00 1.1206112886e-09 1.3731072612e+00 -2.3782915406e+00 1.3731072612e+00 2.3782915406e+00 
1100 6.3804217470e+00 1.1108448870e-09 1.3731072612e+00 -2.3782915406e+00 1.3731072612e+00 2.3782915406e+00 
1200 6.3783321784e+00 1.1015960587e-09 1.3731072612e+00 -2.3782915406e+00 1.3731072612e+00 2.3782915406e+00 
1300 6.3763697133e+00 1.0932026820e-09 1.3731072612e+00 -2.3782915406e+00 1.3731072612e+00 2.3782915406e+00 
1400 6.3745266205e+00 1.0858951957e-09 1.3731072612e+00 -2.3782915406e+00 1.3731072612e+00 2.3782915406e+00 
1500 6.3727956387e+00 1.0798221942e-09 1.3731072612e+00 -2.3782915406e+00 1.3731072612e+00 2.3782915406e+00 
1600 6.3711699484e+00 1.0750704807e-09 1.3731072612e+00 -2.3782915406e+00 1.3731072612e+00 2.3782915406e+00 
1700 6.3696431452e+00 1.0716807321e-09 1.3731072612e+00 -2.3782915406e+00 1.3731072612e+00 2.3782915406e+00 
1800 6.3682092138e+00 1.0696596935e-09 1.3731072612e+00 -2.3782915406e+00 1.3731072612e+00 2.3782915406e+00 
1900 6.3668625051e+00 1.0689896317e-09 1.3731072612e+00 -2.3782915406e+00 1.3731072612e+00 2.3782915406e+00 
2000 6.3655977136e+00 1.0696356272e-09 1.3731072612e+00 -2.3782915406e+00 1.3731072612e+00 2.3782915406e+00 
2100 6.3644098563e+00 1.0715511660e-09 1.3731072612e+00 -2.3782915406e+00 1.3731072612e+00 2.3782915406e+00 
2200 6.3632942537e+00 1.0746823957e-09 1.3731072612e+00 -2.3782915406e+00 1.3731072612e+00 2.3782915406e+00 
2300 6.3622465106e+00 1.0789713355e-09 1.3731072612e+00 -2.3782915406e+00 1.3731072612e+00 2.3782915406e+00 
2400 6.3612624992e+00 1.0843582692e-09 1.3731072612e+00 -2.3782915406e+00 1.3731072612e+00 2.3782915406e+00 
2500 6.3603383430e+00 1.0907835038e-09 1.3731072612e+00 -2.3782915406e+00 1.3731072612e+00 2.3782915406e+00 
2600 6.3594704010e+00 1.0981886342e-09 1.3731072612e+00 -2.3782915406e+00 1.3731072612e+00 2.3782915406e+00 
2700 6.3586552539e+00 1.1065174294e-09 1.3731072612e+00 -2.3782915406e+00 1.3731072612e+00 2.3782915406e+00 
2800 6.3578896904e+00 1.1157164276e-09 1.3731072612e+00 -2.3782915406e+00 1.3731072612e+00 2.3782915406e+00 
2900 6.3571706942e+00 1.1257353101e-09 1.3731072612e+00 -2.3782915406e+00 1.3731072612e+00 2.3782915406e+00 
3000 6.3564954329e+00 1.1365271090e-09 1.3731072612e+00 -2.3782915406e+00 1.3731072612e+00 2.3782915406e+00 
3100 6.3558612462e+00 1.1480482903e-09 1.3731072612e+00 -2.3782915406e+00 1.3731072612e+00 2.3782915406e+00 
3200 6.3552656356e+00 1.1602587468e-09 1.3731072612e+00 -2.3782915406e+00 1.3731072612e+00 2.3782915406e+00 
3300 6.3547062545e+00 1.1731217252e-09 1.3731072612e+00 -2.3782915406e+00 1.3731072612e+00 2.3782915406e+00 
3400 6.3541808993e+00 1.1866037089e-09 1.3731072612e+00 -2.3782915406e+00 1.3731072612e+00 2.3782915406e+00 
3500 6.3536875003e+00 1.2006742688e-09 1.3731072612e+00 -2.3782915406e+00 1.3731072612e+00 2.3782915406e+00 
3600 6.3532241135e+00 1.2153058965e-09 1.3731072612e+00 -2.3782915406e+00 1.3731072612e+00 2.3782915406e+00 
3700 6.3527889135e+00 1.2304738273e-09 1.3731072612e+00 -2.3782915406e+00 1.3731072612e+00 2.3782915406e+00 
3800 6.3523801857e+00 1.2461558589e-09 1.3731072612e+00 -2.3782915406e+00 1.3731072612e+00 2.3782915406e+00 
3900 6.3519963198e+00 1.2623321709e-09 1.3731072612e+00 -2.3782915406e+00 1.3731072612e+00 2.3782915406e+00 
4000 6.3516358036e+00 1.2789851495e-09 1.3731072612e+00 -2.3782915406e+00 1.3731072612e+00 2.3782915406e+00 
4100 6.3512972167e+00 1.2960992182e-09 1.3731072612e+00 -2.3782915406e+00 1.3731072612e+00 2.3782915406e+00 
4200 6.3509792253e+00 1.3136606765e-09 1.3731072612e+00 -2.3782915406e+00 1.3731072612e+00 2.3782915406e+00 
4300 6.3506805765e+00 1.3316575483e-09 1.3731072612e+00 -2.3782915406e+00 1.3731072612e+00 2.3782915406e+00 
4400 6.3504000939e+00 1.3500794393e-09 1.3731072612e+00 -2.3782915406e+00 1.3731072612e+00 2.3782915406e+00 
4500 6.3501366723e+00 1.3689174048e-09 1.3731072612e+00 -2.3782915406e+00 1.3731072612e+00 2.3782915406e+00 
4600 6.3498892741e+00 1.3881638268e-09 1.3731072612e+00 -2.3782915406e+00 1.3731072612e+00 2.3782915406e+00 
4700 6.3496569245e+00 1.4078123008e-09 1.3731072612e+00 -2.3782915406e+00 1.3731072612e+00 2.3782915406e+00 
4800 6.3494387082e+00 1.4278575312e-09 1.3731072612e+00 -2.3782915406e+00 1.3731072612e+00 2.3782915406e+00 
4900 6.3492337654e+00 1.4482952364e-09 1.3731072612e+00 -2.3782915406e+00 1.3731072612e+00 2.3782915406e+00 
5000 6.3490412889e+00 1.4691220611e-09 1.3731072612e+00 -2.3782915406e+00 1.3731072612e+00 2.3782915406e+00 
5100 6.3488605202e+00 1.4903354963e-09 1.3731072612e+00 -2.3782915406e+00 1.3731072612e+00 2.3782915406e+00 
5200 6.3486907473e+00 1.5119338071e-09 1.3731072612e+00 -2.3782915406e+00 1.3731072612e+00 2.3782915406e+00 
5300 6.3485313012e+00 1.5339159667e-09 1.3731072612e+00 -2.3782915406e+00 1.3731072612e+00 2.3782915406e+00 
5400 6.3483815539e+00 1.5562815960e-09 1.3731072612e+00 -2.3782915406e+00 1.3731072612e+00 2.3782915406e+00 
5500 6.3482409153e+00 1.5790309099e-09 1.3731072612e+00 -2.3782915406e+00 1.3731072612e+00 2.3782915406e+00 
5600 6.3481088314e+00 1.6021646678e-09 1.3731072612e+00 -2.3782915406e+00 1.3731072612e+00 2.3782915406e+00 
5700 6.3479847819e+00 1.6256841292e-09 1.3731072612e+00 -2.3782915406e+00 1.3731072612e+00 2.3782915406e+00 
5800 6.3478682780e+00 1.6495910134e-09 1.3731072612e+00 -2.3782915406e+00 1.3731072612e+00 2.3782915406e+00 
5900 6.3477588608e+00 1.6738874640e-09 1.3731072612e+00 -2.3782915406e+00 1.3731072612e+00 2.3782915406e+00 
6000 6.3476560991e+00 1.6985760153e-09 1.3731072612e+00 -2.3782915406e+00 1.3731072612e+00 2.3782915406e+00 
6100 6.3475595882e+00 1.7236595634e-09 1.3731072612e+00 -2.3782915406e+00 1.3731072612e+00 2.3782915406e+00 
6200 6.3474689478e+00 1.7491413399e-09 1.3731072612e+00 -2.3782915406e+00 1.3731072612e+00 2.3782915406e+00 
6300 6.3473838208e+00 1.7750248882e-09 1.3731072612e+00 -2.3782915406e+00 1.3731072612e+00 2.3782915406e+00 
6400 6.3473038719e+00 1.8013140417e-09 1.3731072612e+00 -2.3782915406e+00 1.3731072612e+00 2.3782915406e+00 
6500 6.3472287861e+00 1.8280129055e-09 1.3731072612e+00 -2.3782915406e+00 1.3731072612e+00 2.3782915406e+00 
6600 6.3471582676e+00 1.8551258384e-09 1.3731072612e+00 -2.3782915406e+00 1.3731072612e+00 2.3782915406e+00 
6700 6.3470920385e+00 1.8826574386e-09 1.3731072612e+00 -2.3782915406e+00 1.3731072612e+00 2.3782915406e+00 
6800 6.3470298380e+00 1.9106125295e-09 1.3731072612e+00 -2.3782915406e+00 1.3731072612e+00 2.3782915406e+00 
6900 6.3469714210e+00 1.9389961474e-09 1.3731072612e+00 -2.3782915406e+00 1.3731072612e+00 2.3782915406e+00 
7000 6.3469165573e+00 1.9678135312e-09 1.3731072612e+00 -2.3782915406e+00 1.3731072612e+00 2.3782915406e+00 
7100 6.3468650309e+00 1.9970701127e-09 1.3731072612e+00 -2.3782915406e+00 1.3731072612e+00 2.3782915406e+00 
7200 6.3468166386e+00 2.0267715079e-09 1.3731072612e+00 -2.3782915406e+00 1.3731072612e+00 2.3782915406e+00 
7300 6.3467711900e+00 2.0569235096e-09 1.3731072612e+00 -2.3782915406e+00 1.3731072612e+00 2.3782915406e+00 
7400 6.3467285059e+00 2.0875320809e-09 1.3731072612e+00 -2.3782915406e+00 1.3731072612e+00 2.3782915406e+00 
7500 6.3466884181e+00 2.1186033494e-09 1.3731072612e+00 -2.3782915406e+00 1.3731072612e+00 2.3782915406e+00 
7600 6.3466507687e+00 2.1501436021e-09 1.3731072612e+00 -2.3782915406e+00 1.3731072612e+00 2.3782915406e+00 
7700 6.3466154095e+00 2.1821592811e-09 1.3731072612e+00 -2.3782915406e+00 1.3731072612e+00 2.3782915406e+00 
7800 6.3465822010e+00 2.2146569798e-09 1.3731072612e+00 -2.3782915406e+00 1.3731072612e+00 2.3782915406e+00 
7900 6.3465510126e+00 2.2476434398e-09 1.3731072612e+00 -2.3782915406e+00 1.3731072612e+00 2.3782915406e+00 
8000 6.3465217212e+00 2.2811255478e-09 1.3731072612e+00 -2.3782915406e+00 1.3731072612e+00 2.3782915406e+00 
8100 6.3464942116e+00 2.3151103339e-09 1.3731072612e+00 -2.3782915406e+00 1.3731072612e+00 2.3782915406e+00 
8200 6.3464683753e+00 2.3496049692e-09 1.3731072612e+00 -2.3782915406e+00 1.3731072612e+00 2.3782915406e+00 
8300 6.3464441105e+00 2.3846167646e-09 1.3731072612e+00 -2.3782915406e+00 1.3731072612e+00 2.3782915406e+00 
8400 6.3464213217e+00 2.4201531698e-09 1.3731072612e+00 -2.3782915406e+00 1.3731072612e+00 2.3782915406e+00 
8500 6.3463999190e+00 2.4562217717e-09 1.3731072612e+00 -2.3782915406e+00 1.3731072612e+00 2.3782915406e+00 
8600 6.3463798182e+00 2.4928302950e-09 1.3731072612e+00 -2.3782915406e+00 1.3731072612e+00 2.3782915406e+00 
8700 6.3463609401e+00 2.5299866005e-09 1.3731072612e+00 -2.3782915406e+00 1.3731072612e+00 2.3782915406e+00 
8800 6.3463432102e+00 2.5676986861e-09 1.3731072612e+00 -2.3782915406e+00 1.3731072612e+00 2.3782915406e+00 
8900 6.3463265589e+00 2.6059746868e-09 1.3731072612e+00 -2.3782915406e+00 1.3731072612e+00 2.3782915406e+00 
9000 6.3463109203e+00 2.6448228741e-09 1.3731072612e+00 -2.3782915406e+00 1.3731072612e+00 2.3782915406e+00 
9100 6.3462962330e+00 2.6842516576e-09 1.3731072612e+00 -2.3782915406e+00 1.3731072612e+00 2.3782915406e+00 
9200 6.3462824391e+00 2.7242695850e-09 1.3731072612e+00 -2.3782915406e+00 1.3731072612e+00 2.3782915406e+00 
9300 6.3462694842e+00 2.7648853431e-09 1.3731072612e+00 -2.3782915406e+00 1.3731072612e+00 2.3782915406e+00 
9400 6.3462573173e+00 2.8061077588e-09 1.3731072612e+00 -2.3782915406e+00 1.3731072612e+00 2.3782915406e+00 
9500 6.3462458904e+00 2.8479457999e-09 1.3731072612e+00 -2.3782915406e+00 1.3731072612e+00 2.3782915406e+00 
9600 6.3462351586e+00 2.8904085766e-09 1.3731072612e+00 -2.3782915406e+00 1.3731072612e+00 2.3782915406e+00 
9700 6.3462250796e+00 2.9335053427e-09 1.3731072612e+00 -2.3782915406e+00 1.3731072612e+00 2.3782915406e+00 
9800 6.3462156136e+00 2.9772454969e-09 1.3731072612e+00 -2.3782915406e+00 1.3731072612e+00 2.3782915406e+00 
9900 6.3462067234e+00 3.0216385841e-09 1.3731072612e+00 -2.3782915406e+00 1.3731072612e+00 2.3782915406e+00 
10000 6.3461983740e+00 3.0666942975e-09 1.3731072612e+00 -2.3782915406e+00 1.3731072612e+00 2.3782915406e+00 
10100 6.3461905324e+00 3.1124224801e-09 1.3731072612e+00 -2.3782915406e+00 1.3731072612e+00 2.3782915406e+00 
10200 6.3461831677e+00 3.1588331260e-09 1.3731072612e+00 -2.3782915406e+00 1.3731072612e+00 2.3782915406e+00 
10300 6.3461762511e+00 3.2059363826e-09 1.3731072612e+00 -2.3782915406e+00 1.3731072612e+00 2.3782915406e+00 
10400 6.3461697551e+00 3.2537425527e-09 1.3731072612e+00 -2.3782915406e+00 1.3731072612e+00 2.3782915406e+00 
10500 6.3461636542e+00 3.3022620959e-09 1.3731072612e+00 -2.3782915406e+00 1.3731072612e+00 2.3782915406e+00 
10600 6.3461579244e+00 3.3515056310e-09 1.3731072612e+00 -2.3782915406e+00 1.3731072612e+00 2.3782915406e+00 
10700 6.3461525431e+00 3.4014839381e-09 1.3731072612e+00 -2.3782915406e+00 1.3731072612e+00 2.3782915406e+00 
10800 6.3461474891e+00 3.4522079606e-09 1.3731072612e+00 -2.3782915406e+00 1.3731072612e+00 2.3782915406e+00 
10900 6.3461427425e+00 3.5036888073e-09 1.3731072612e+00 -2.3782915406e+00 1.3731072612e+00 2.3782915406e+00 
11000 6.3461382847e+00 3.5559377551e-09 1.3731072612e+00 -2.3782915406e+00 1.3731072612e+00 2.3782915406e+00 
11100 6.3461340979e+00 3.6089662508e-09 1.3731072612e+00 -2.3782915406e+00 1.3731072612e+00 2.3782915406e+00 
11200 6.3461301658e+00 3.6627859136e-09 1.3731072612e+00 -2.3782915406e+00 1.3731072612e+00 2.3782915406e+00 
11300 6.3461264728e+00 3.7174085381e-09 1.3731072612e+00 -2.3782915406e+00 1.3731072612e+00 2.3782915406e+00 
11400 6.3461230045e+00 3.7728460958e-09 1.3731072612e+00 -2.3782915406e+00 1.3731072612e+00 2.3782915406e+00 
11500 6.3461197471e+00 3.8291107384e-09 1.3731072612e+00 -2.3782915406e+00 1.3731072612e+00 2.3782915406e+00 
11600 6.3461166878e+00 3.8862147999e-09 1.3731072612e+00 -2.3782915406e+00 1.3731072612e+00 2.3782915406e+00 
11700 6.3461138145e+00 3.9441707996e-09 1.3731072612e+00 -2.3782915406e+00 1.3731072612e+00 2.3782915406e+00 
11800 6.3461111160e+00 4.0029914444e-09 1.3731072612e+00 -2.3782915406e+00 1.3731072612e+00 2.3782915406e+00 
11900 6.3461085817e+00 4.0626896320e-09 1.3731072612e+00 -2.3782915406e+00 1.3731072612e+00 2.3782915406e+00 
12000 6.3461062014e+00 4.1232784532e-09 1.3731072612e+00 -2.3782915406e+00 1.3731072612e+00 2.3782915406e+00 
12100 6.3461039659e+00 4.1847711949e-09 1.3731072612e+00 -2.3782915406e+00 1.3731072612e+00 2.3782915406e+00 
12200 6.3461018663e+00 4.2471813431e-09 1.3731072612e+00 -2.3782915406e+00 1.3731072612e+00 2.3782915406e+00 
12300 6.3460998945e+00 4.3105225856e-09 1.3731072612e+00 -2.3782915406e+00 1.3731072612e+00 2.3782915406e+00 
12400 6.3460980425e+00 4.3748088151e-09 1.3731072612e+00 -2.3782915406e+00 1.3731072612e+00 2.3782915406e+00 
12500 6.3460963032e+00 4.4400541323e-09 1.3731072612e+00 -2.3782915406e+00 1.3731072612e+00 2.3782915406e+00 
12600 6.3460946696e+00 4.5062728487e-09 1.3731072612e+00 -2.3782915406e+00 1.3731072612e+00 2.3782915406e+00 
12700 6.3460931353e+00 4.5734794901e-09 1.3731072612e+00 -2.3782915406e+00 1.3731072612e+00 2.3782915406e+00 
12800 6.3460916944e+00 4.6416887994e-09 1.3731072612e+00 -2.3782915406e+00 1.3731072612e+00 2.3782915406e+00 
12900 6.3460903411e+00 4.7109157398e-09 1.3731072612e+00 -2.3782915406e+00 1.3731072612e+00 2.3782915406e+00 
13000 6.3460890700e+00 4.7811754986e-09 1.3731072612e+00 -2.3782915406e+00 1.3731072612e+00 2.3782915406e+00 
13100 6.3460878762e+00 4.8524834900e-09 1.3731072612e+00 -2.3782915406e+00 1.3731072612e+00 2.3782915406e+00 
13200 6.3460867550e+00 4.9248553586e-09 1.3731072612e+00 -2.3782915406e+00 1.3731072612e+00 2.3782915406e+00 
13300 6.3460857020e+00 4.9983069829e-09 1.3731072612e+00 -2.3782915406e+00 1.3731072612e+00 2.3782915406e+00 
13400 6.3460847130e+00 5.0728544787e-09 1.3731072612e+00 -2.3782915406e+00 1.3731072612e+00 2.3782915406e+00 
13500 6.3460837841e+00 5.1485142026e-09 1.3731072612e+00 -2.3782915406e+00 1.3731072612e+00 2.3782915406e+00 
13600 6.3460829116e+00 5.2253027561e-09 1.3731072612e+00 -2.3782915406e+00 1.3731072612e+00 2.3782915406e+00 
13700 6.3460820922e+00 5.3032369882e-09 1.3731072612e+00 -2.3782915406e+00 1.3731072612e+00 2.3782915406e+00 
13800 6.3460813226e+00 5.3823340001e-09 1.3731072612e+00 -2.3782915406e+00 1.3731072612e+00 2.3782915406e+00 
13900 6.3460805998e+00 5.4626111484e-09 1.3731072612e+00 -2.3782915406e+00 1.3731072612e+00 2.3782915406e+00 
14000 6.3460799209e+00 5.5440860494e-09 1.3731072612e+00 -2.3782915406e+00 1.3731072612e+00 2.3782915406e+00 
14100 6.3460792832e+00 5.6267765820e-09 1.3731072612e+00 -2.3782915406e+00 1.3731072612e+00 2.3782915406e+00 
14200 6.3460786843e+00 5.7107008929e-09 1.3731072612e+00 -2.3782915406e+00 1.3731072612e+00 2.3782915406e+00 
14300 6.3460781218e+00 5.7958773996e-09 1.3731072612e+00 -2.3782915406e+00 1.3731072612e+00 2.3782915406e+00 
14400 6.3460775934e+00 5.8823247950e-09 1.3731072612e+00 -2.3782915406e+00 1.3731072612e+00 2.3782915406e+00 
14500 6.3460770972e+00 5.9700620513e-09 1.3731072612e+00 -2.3782915406e+00 1.3731072612e+00 2.3782915406e+00 
14600 6.3460766311e+00 6.0591084242e-09 1.3731072612e+00 -2.3782915406e+00 1.3731072612e+00 2.3782915406e+00 
14700 6.3460761933e+00 6.1494834571e-09 1.3731072612e+00 -2.3782915406e+00 1.3731072612e+00 2.3782915406e+00 
14800 6.3460757820e+00 6.2412069852e-09 1.3731072612e+00 -2.3782915406e+00 1.3731072612e+00 2.3782915406e+00 
14900 6.3460753958e+00 6.3342991407e-09 1.3731072612e+00 -2.3782915406e+00 1.3731072612e+00 2.3782915406e+00 
15000 6.3460750330e+00 6.4287803561e-09 1.3731072612e+00 -2.3782915406e+00 1.3731072612e+00 2.3782915406e+00 
15100 6.3460746922e+00 6.5246713695e-09 1.3731072612e+00 -2.3782915406e+00 1.3731072612e+00 2.3782915406e+00 
15200 6.3460743721e+00 6.6219932287e-09 1.3731072612e+00 -2.3782915406e+00 1.3731072612e+00 2.3782915406e+00 
15300 6.3460740714e+00 6.7207672962e-09 1.3731072612e+00 -2.3782915406e+00 1.3731072612e+00 2.3782915406e+00 
15400 6.3460737889e+00 6.8210152538e-09 1.3731072612e+00 -2.3782915406e+00 1.3731072612e+00 2.3782915406e+00 
15500 6.3460735236e+00 6.9227591070e-09 1.3731072612e+00 -2.3782915406e+00 1.3731072612e+00 2.3782915406e+00 
15600 6.3460732744e+00 7.0260211905e-09 1.3731072612e+00 -2.3782915406e+00 1.3731072612e+00 2.3782915406e+00 
15700 6.3460730403e+00 7.1308241725e-09 1.3731072612e+00 -2.3782915406e+00 1.3731072612e+00 2.3782915406e+00 
15800 6.3460728203e+00 7.2371910602e-09 1.3731072612e+00 -2.3782915406e+00 1.3731072612e+00 2.3782915406e+00 
15900 6.3460726137e+00 7.3451452044e-09 1.3731072612e+00 -2.3782915406e+00 1.3731072612e+00 2.3782915406e+00 
16000 6.3460724196e+00 7.4547103051e-09 1.3731072612e+00 -2.3782915406e+00 1.3731072612e+00 2.3782915406e+00 
16100 6.3460722372e+00 7.5659104163e-09 1.3731072612e+00 -2.3782915406e+00 1.3731072612e+00 2.3782915406e+00 
16200 6.3460720659e+00 7.6787699517e-09 1.3731072612e+00 -2.3782915406e+00 1.3731072612e+00 2.3782915406e+00 
16300 6.3460719050e+00 7.7933136898e-09 1.3731072612e+00 -2.3782915406e+00 1.3731072612e+00 2.3782915406e+00 
16400 6.3460717537e+00 7.9095667794e-09 1.3731072612e+00 -2.3782915406e+00 1.3731072612e+00 2.3782915406e+00 
16500 6.3460716116e+00 8.0275547452e-09 1.3731072612e+00 -2.3782915406e+00 1.3731072612e+00 2.3782915406e+00 
16600 6.3460714781e+00 8.1473034934e-09 1.3731072612e+00 -2.3782915406e+00 1.3731072612e+00 2.3782915406e+00 
16700 6.3460713527e+00 8.2688393174e-09 1.3731072612e+00 -2.3782915406e+00 1.3731072612e+00 2.3782915406e+00 
16800 6.3460712348e+00 8.3921889037e-09 1.3731072612e+00 -2.3782915406e+00 1.3731072612e+00 2.3782915406e+00 
16900 6.3460711240e+00 8.5173793377e-09 1.3731072612e+00 -2.3782915406e+00 1.3731072612e+00 2.3782915406e+00 
17000 6.3460710199e+00 8.6444381094e-09 1.3731072612e+00 -2.3782915406e+00 1.3731072612e+00 2.3782915406e+00 
17100 6.3460709221e+00 8.7733931201e-09 1.3731072612e+00 -2.3782915406e+00 1.3731072612e+00 2.3782915406e+00 
17200 6.3460708302e+00 8.9042726880e-09 1.3731072612e+00 -2.3782915406e+00 1.3731072612e+00 2.3782915406e+00 
17300 6.3460707437e+00 9.0371055545e-09 1.3731072612e+00 -2.3782915406e+00 1.3731072612e+00 2.3782915406e+00 
17400 6.3460706625e+00 9.1719208908e-09 1.3731072612e+00 -2.3782915406e+00 1.3731072612e+00 2.3782915406e+00 
17500 6.3460705861e+00 9.3087483044e-09 1.3731072612e+00 -2.3782915406e+00 1.3731072612e+00 2.3782915406e+00 
17600 6.3460705143e+00 9.4476178449e-09 1.3731072612e+00 -2.3782915406e+00 1.3731072612e+00 2.3782915406e+00 
17700 6.3460704468e+00 9.5885600115e-09 1.3731072612e+00 -2.3782915406e+00 1.3731072612e+00 2.3782915406e+00 
17800 6.3460703834e+00 9.7316057593e-09 1.3731072612e+00 -2.3782915406e+00 1.3731072612e+00 2.3782915406e+00 
17900 6.3460703237e+00 9.8767865064e-09 1.3731072612e+00 -2.3782915406e+00 1.3731072612e+00 2.3782915406e+00 
18000 6.3460702676e+00 1.0024134140e-08 1.3731072612e+00 -2.3782915406e+00 1.3731072612e+00 2.3782915406e+00 
18100 6.3460702148e+00 1.0173681025e-08 1.3731072612e+00 -2.3782915406e+00 1.3731072612e+00 2.3782915406e+00 
18200 6.3460701651e+00 1.0325460009e-08 1.3731072612e+00 -2.3782915406e+00 1.3731072612e+00 2.3782915406e+00 
18300 6.3460701184e+00 1.0479504432e-08 1.3731072612e+00 -2.3782915406e+00 1.3731072612e+00 2.3782915406e+00 
18400 6.3460700745e+00 1.0635848132e-08 1.3731072612e+00 -2.3782915406e+00 1.3731072612e+00 2.3782915406e+00 
18500 6.3460700331e+00 1.0794525453e-08 1.3731072612e+00 -2.3782915406e+00 1.3731072612e+00 2.3782915406e+00 
18600 6.3460699942e+00 1.0955571251e-08 1.3731072612e+00 -2.3782915406e+00 1.3731072612e+00 2.3782915406e+00 
18700 6.3460699576e+00 1.1119020907e-08 1.3731072612e+00 -2.3782915406e+00 1.3731072612e+00 2.3782915406e+00 
18800 6.3460699231e+00 1.1284910326e-08 1.3731072612e+00 -2.3782915406e+00 1.3731072612e+00 2.3782915406e+00 
18900 6.3460698906e+00 1.1453275955e-08 1.3731072612e+00 -2.3782915406e+00 1.3731072612e+00 2.3782915406e+00 
19000 6.3460698600e+00 1.1624154783e-08 1.3731072612e+00 -2.3782915406e+00 1.3731072612e+00 2.3782915406e+00 
19100 6.3460698312e+00 1.1797584353e-08 1.3731072612e+00 -2.3782915406e+00 1.3731072612e+00 2.3782915406e+00 
19200 6.3460698040e+00 1.1973602768e-08 1.3731072612e+00 -2.3782915406e+00 1.3731072612e+00 2.3782915406e+00 
19300 6.3460697784e+00 1.2152248704e-08 1.3731072612e+00 -2.3782915406e+00 1.3731072612e+00 2.3782915406e+00 
19400 6.3460697543e+00 1.2333561412e-08 1.3731072612e+00 -2.3782915406e+00 1.3731072612e+00 2.3782915406e+00 
19500 6.3460697315e+00 1.2517580733e-08 1.3731072612e+00 -2.3782915406e+00 1.3731072612e+00 2.3782915406e+00 
19600 6.3460697101e+00 1.2704347102e-08 1.3731072612e+00 -2.3782915406e+00 1.3731072612e+00 2.3782915406e+00 
19700 6.3460696898e+00 1.2893901559e-08 1.3731072612e+00 -2.3782915406e+00 1.3731072612e+00 2.3782915406e+00 
19800 6.3460696707e+00 1.3086285759e-08 1.3731072612e+00 -2.3782915406e+00 1.3731072612e+00 2.3782915406e+00 
19900 6.3460696526e+00 1.3281541979e-08 1.3731072612e+00 -2.3782915406e+00 1.3731072612e+00 2.3782915406e+00 
20000 6.3460696356e+00 1.3479713128e-08 1.3731072612e+00 -2.3782915406e+00 1.3731072612e+00 2.3782915406e+00 
20100 6.3460696194e+00 1.3680842758e-08 1.3731072612e+00 -2.3782915406e+00 1.3731072612e+00 2.3782915406e+00 
20200 6.3460696042e+00 1.3884975071e-08 1.3731072612e+00 -2.3782915406e+00 1.3731072612e+00 2.3782915406e+00 
20300 6.3460695897e+00 1.4092154933e-08 1.3731072612e+00 -2.3782915406e+00 1.3731072612e+00 2.3782915406e+00 
20400 6.3460695761e+00 1.4302427879e-08 1.3731072612e+00 -2.3782915406e+00 1.3731072612e+00 2.3782915406e+00 
20500 6.3460695631e+00 1.4515840124e-08 1.3731072612e+00 -2.3782915406e+00 1.3731072612e+00 2.3782915406e+00 
20600 6.3460695509e+00 1.4732438578e-08 1.3731072612e+00 -2.3782915406e+00 1.3731072612e+00 2.3782915406e+00 
20700 6.3460695393e+00 1.4952270849e-08 1.3731072612e+00 -2.3782915406e+00 1.3731072612e+00 2.3782915406e+00 
20800 6.3460695282e+00 1.5175385261e-08 1.3731072612e+00 -2.3782915406e+00 1.3731072612e+00 2.3782915406e+00 
20900 6.3460695177e+00 1.5401830859e-08 1.3731072612e+00 -2.3782915406e+00 1.3731072612e+00 2.3782915406e+00 
21000 6.3460695078e+00 1.5631657420e-08 1.3731072612e+00 -2.3782915406e+00 1.3731072612e+00 2.3782915406e+00 
21100 6.3460694983e+00 1.5864915469e-08 1.3731072612e+00 -2.3782915406e+00 1.3731072612e+00 2.3782915406e+00 
21200 6.3460694893e+00 1.6101656287e-08 1.3731072612e+00 -2.3782915406e+00 1.3731072612e+00 2.3782915406e+00 
21300 6.3460694807e+00 1.6341931919e-08 1.3731072612e+00 -2.3782915406e+00 1.3731072612e+00 2.3782915406e+00 
21400 6.3460694725e+00 1.6585795192e-08 1.3731072612e+00 -2.3782915406e+00 1.3731072612e+00 2.3782915406e+00 
21500 6.3460694647e+00 1.6833299722e-08 1.3731072612e+00 -2.3782915406e+00 1.3731072612e+00 2.3782915406e+00 
21600 6.3460694572e+00 1.7084499929e-08 1.3731072612e+00 -2.3782915406e+00 1.3731072612e+00 2.3782915406e+00 
21700 6.3460694501e+00 1.7339451044e-08 1.3731072612e+00 -2.3782915406e+00 1.3731072612e+00 2.3782915406e+00 
21800 6.3460694432e+00 1.7598209129e-08 1.3731072612e+00 -2.3782915406e+00 1.3731072612e+00 2.3782915406e+00 
21900 6.3460694367e+00 1.7860831082e-08 1.3731072612e+00 -2.3782915406e+00 1.3731072612e+00 2.3782915406e+00 
22000 6.3460694304e+00 1.8127374652e-08 1.3731072612e+00 -2.3782915406e+00 1.3731072612e+00 2.3782915406e+00 
22100 6.3460694243e+00 1.8397898457e-08 1.3731072612e+00 -2.3782915406e+00 1.3731072612e+00 2.3782915406e+00 
22200 6.3460694185e+00 1.8672461986e-08 1.3731072612e+00 -2.3782915406e+00 1.3731072612e+00 2.3782915406e+00 
22300 6.3460694129e+00 1.8951125622e-08 1.3731072612e+00 -2.3782915406e+00 1.3731072612e+00 2.3782915406e+00 
22400 6.3460694074e+00 1.9233950653e-08 1.3731072612e+00 -2.3782915406e+00 1.3731072612e+00 2.3782915406e+00 
22500 6.3460694022e+00 1.9520999282e-08 1.3731072612e+00 -2.3782915406e+00 1.3731072612e+00 2.3782915406e+00 
22600 6.3460693971e+00 1.9812334643e-08 1.3731072612e+00 -2.3782915406e+00 1.3731072612e+00 2.3782915406e+00 
22700 6.3460693922e+00 2.0108020817e-08 1.3731072612e+00 -2.3782915406e+00 1.3731072612e+00 2.3782915406e+00 
22800 6.3460693875e+00 2.0408122843e-08 1.3731072612e+00 -2.3782915406e+00 1.3731072612e+00 2.3782915406e+00 
22900 6.3460693828e+00 2.0712706734e-08 1.3731072612e+00 -2.3782915406e+00 1.3731072612e+00 2.3782915406e+00 
23000 6.3460693783e+00 2.1021839492e-08 1.3731072612e+00 -2.3782915406e+00 1.3731072612e+00 2.3782915406e+00 
23100 6.3460693740e+00 2.1335589120e-08 1.3731072612e+00 -2.3782915406e+00 1.3731072612e+00 2.3782915406e+00 
23200 6.3460693697e+00 2.1654024642e-08 1.3731072612e+00 -2.3782915406e+00 1.3731072612e+00 2.3782915406e+00 
23300 6.3460693655e+00 2.1977216114e-08 1.3731072612e+00 -2.3782915406e+00 1.3731072612e+00 2.3782915406e+00 
23400 6.3460693614e+00 2.2305234641e-08 1.3731072612e+00 -2.3782915406e+00 1.3731072612e+00 2.3782915406e+00 
23500 6.3460693574e+00 2.2638152392e-08 1.3731072612e+00 -2.3782915406e+00 1.3731072612e+00 2.3782915406e+00 
23600 6.3460693534e+00 2.2976042618e-08 1.3731072612e+00 -2.3782915406e+00 1.3731072612e+00 2.3782915406e+00 
23700 6.3460693495e+00 2.3318979667e-08 1.3731072612e+00 -2.3782915406e+00 1.3731072612e+00 2.3782915406e+00 
23800 6.3460693457e+00 2.3667038999e-08 1.3731072612e+00 -2.3782915406e+00 1.3731072612e+00 2.3782915406e+00 
23900 6.3460693419e+00 2.4020297206e-08 1.3731072612e+00 -2.3782915406e+00 1.3731072612e+00 2.3782915406e+00 
24000 6.3460693382e+00 2.4378832024e-08 1.3731072612e+00 -2.3782915406e+00 1.3731072612e+00 2.3782915406e+00 
24100 6.3460693345e+00 2.4742722357e-08 1.3731072612e+00 -2.3782915406e+00 1.3731072612e+00 2.3782915406e+00 
24200 6.3460693308e+00 2.5112048288e-08 1.3731072612e+00 -2.3782915406e+00 1.3731072612e+00 2.3782915406e+00 
24300 6.3460693272e+00 2.5486891102e-08 1.3731072612e+00 -2.3782915406e+00 1.3731072612e+00 2.3782915406e+00 
24400 6.3460693236e+00 2.5867333297e-08 1.3731072612e+00 -2.3782915406e+00 1.3731072612e+00 2.3782915406e+00 
24500 6.3460693201e+00 2.6253458613e-08 1.3731072612e+00 -2.3782915406e+00 1.3731072612e+00 2.3782915406e+00 
24600 6.3460693165e+00 2.6645352039e-08 1.3731072612e+00 -2.3782915406e+00 1.3731072612e+00 2.3782915406e+00 
24700 6.3460693130e+00 2.7043099840e-08 1.3731072612e+00 -2.3782915406e+00 1.3731072612e+00 2.3782915406e+00 
24800 6.3460693094e+00 2.7446789572e-08 1.3731072612e+00 -2.3782915406e+00 1.3731072612e+00 2.3782915406e+00 
24900 6.3460693059e+00 2.7856510104e-08 1.3731072612e+00 -2.3782915406e+00 1.3731072612e+00 2.3782915406e+00 
25000 6.3460693024e+00 2.8272351636e-08 1.3731072612e+00 -2.3782915406e+00 1.3731072612e+00 2.3782915406e+00 
25100 6.3460692988e+00 2.8694405718e-08 1.3731072612e+00 -2.3782915406e+00 1.3731072612e+00 2.3782915406e+00 
25200 6.3460692953e+00 2.9122765273e-08 1.3731072612e+00 -2.3782915406e+00 1.3731072612e+00 2.3782915406e+00 
25300 6.3460692918e+00 2.9557524617e-08 1.3731072612e+00 -2.3782915406e+00 1.3731072612e+00 2.3782915406e+00 
25400 6.3460692882e+00 2.9998779478e-08 1.3731072612e+00 -2.3782915406e+00 1.3731072612e+00 2.3782915406e+00 
25500 6.3460692847e+00 3.0446627019e-08 1.3731072612e+00 -2.3782915406e+00 1.3731072612e+00 2.3782915406e+00 
25600 6.3460692811e+00 3.0901165857e-08 1.3731072612e+00 -2.3782915406e+00 1.3731072612e+00 2.3782915406e+00 
25700 6.3460692775e+00 3.1362496092e-08 1.3731072612e+00 -2.3782915406e+00 1.3731072612e+00 2.3782915406e+00 
25800 6.3460692739e+00 3.1830719318e-08 1.3731072612e+00 -2.3782915406e+00 1.3731072612e+00 2.3782915406e+00 
25900 6.3460692703e+00 3.2305938655e-08 1.3731072612e+00 -2.3782915406e+00 1.3731072612e+00 2.3782915406e+00 
26000 6.3460692666e+00 3.2788258769e-08 1.3731072612e+00 -2.3782915406e+00 1.3731072612e+00 2.3782915406e+00 
26100 6.3460692629e+00 3.3277785893e-08 1.3731072612e+00 -2.3782915406e+00 1.3731072612e+00 2.3782915406e+00 
26200 6.3460692592e+00 3.3774627853e-08 1.3731072612e+00 -2.3782915406e+00 1.3731072612e+00 2.3782915406e+00 
26300 6.3460692554e+00 3.4278894092e-08 1.3731072612e+00 -2.3782915406e+00 1.3731072612e+00 2.3782915406e+00 
26400 6.3460692516e+00 3.4790695691e-08 1.3731072612e+00 -2.3782915406e+00 1.3731072612e+00 2.3782915406e+00 
26500 6.3460692478e+00 3.5310145401e-08 1.3731072612e+00 -2.3782915406e+00 1.3731072612e+00 2.3782915406e+00 
26600 6.3460692440e+00 3.5837357657e-08 1.3731072612e+00 -2.3782915406e+00 1.3731072612e+00 2.3782915406e+00 
26700 6.3460692401e+00 3.6372448615e-08 1.3731072612e+00 -2.3782915406e+00 1.3731072612e+00 2.3782915406e+00 
26800 6.3460692361e+00 3.6915536171e-08 1.3731072612e+00 -2.3782915406e+00 1.3731072612e+00 2.3782915406e+00 
26900 6.3460692322e+00 3.7466739986e-08 1.3731072612e+00 -2.3782915406e+00 1.3731072612e+00 2.3782915406e+00 
27000 6.3460692281e+00 3.8026181518e-08 1.3731072612e+00 -2.3782915406e+00 1.3731072612e+00 2.3782915406e+00 
27100 6.3460692241e+00 3.8593984047e-08 1.3731072612e+00 -2.3782915406e+00 1.3731072612e+00 2.3782915406e+00 
27200 6.3460692200e+00 3.9170272698e-08 1.3731072612e+00 -2.3782915406e+00 1.3731072612e+00 2.3782915406e+00 
27300 6.3460692158e+00 3.9755174476e-08 1.3731072612e+00 -2.3782915406e+00 1.3731072612e+00 2.3782915406e+00 
27400 6.3460692116e+00 4.0348818288e-08 1.3731072612e+00 -2.3782915406e+00 1.3731072612e+00 2.3782915406e+00 
27500 6.3460692073e+00 4.0951334976e-08 1.3731072612e+00 -2.3782915406e+00 1.3731072612e+00 2.3782915406e+00 
27600 6.3460692030e+00 4.1562857343e-08 1.3731072612e+00 -2.3782915406e+00 1.3731072612e+00 2.3782915406e+00 
27700 6.3460691986e+00 4.2183520185e-08 1.3731072612e+00 -2.3782915406e+00 1.3731072612e+00 2.3782915406e+00 
27800 6.3460691942e+00 4.2813460320e-08 1.3731072612e+00 -2.3782915406e+00 1.3731072612e+00 2.3782915406e+00 
27900 6.3460691897e+00 4.3452816617e-08 1.3731072612e+00 -2.3782915406e+00 1.3731072612e+00 2.3782915406e+00 
28000 6.3460691852e+00 4.4101730029e-08 1.3731072612e+00 -2.3782915406e+00 1.3731072612e+00 2.3782915406e+00 
28100 6.3460691806e+00 4.4760343622e-08 1.3731072612e+00 -2.3782915406e+00 1.3731072612e+00 2.3782915406e+00 
28200 6.3460691759e+00 4.5428802612e-08 1.3731072612e+00 -2.3782915406e+00 1.3731072612e+00 2.3782915406e+00 
28300 6.3460691712e+00 4.6107254390e-08 1.3731072612e+00 -2.3782915406e+00 1.3731072612e+00 2.3782915406e+00 
28400 6.3460691664e+00 4.6795848559e-08 1.3731072612e+00 -2.3782915406e+00 1.3731072612e+00 2.3782915406e+00 
28500 6.3460691616e+00 4.7494736969e-08 1.3731072612e+00 -2.3782915406e+00 1.3731072612e+00 2.3782915406e+00 
28600 6.3460691566e+00 4.8204073745e-08 1.3731072612e+00 -2.3782915406e+00 1.3731072612e+00 2.3782915406e+00 
28700 6.3460691516e+00 4.8924015327e-08 1.3731072612e+00 -2.3782915406e+00 1.3731072612e+00 2.3782915406e+00 
28800 6.3460691466e+00 4.9654720502e-08 1.3731072612e+00 -2.3782915406e+00 1.3731072612e+00 2.3782915406e+00 
28900 6.3460691414e+00 5.0396350441e-08 1.3731072612e+00 -2.3782915406e+00 1.3731072612e+00 2.3782915406e+00 
29000 6.3460691362e+00 5.1149068732e-08 1.3731072612e+00 -2.3782915406e+00 1.3731072612e+00 2.3782915406e+00 
29100 6.3460691310e+00 5.1913041420e-08 1.3731072612e+00 -2.3782915406e+00 1.3731072612e+00 2.3782915406e+00 
29200 6.3460691256e+00 5.2688437041e-08 1.3731072612e+00 -2.3782915406e+00 1.3731072612e+00 2.3782915406e+00 
29300 6.3460691202e+00 5.3475426660e-08 1.3731072612e+00 -2.3782915406e+00 1.3731072612e+00 2.3782915406e+00 
29400 6.3460691147e+00 5.4274183913e-08 1.3731072612e+00 -2.3782915406e+00 1.3731072612e+00 2.3782915406e+00 
29500 6.3460691091e+00 5.5084885040e-08 1.3731072612e+00 -2.3782915406e+00 1.3731072612e+00 2.3782915406e+00 
29600 6.3460691034e+00 5.5907708926e-08 1.3731072612e+00 -2.3782915406e+00 1.3731072612e+00 2.3782915406e+00 
29700 6.3460690977e+00 5.6742837145e-08 1.3731072612e+00 -2.3782915406e+00 1.3731072612e+00 2.3782915406e+00 
29800 6.3460690918e+00 5.7590453994e-08 1.3731072612e+00 -2.3782915406e+00 1.3731072612e+00 2.3782915406e+00 
29900 6.3460690859e+00 5.8450746538e-08 1.3731072612e+00 -2.3782915406e+00 1.3731072612e+00 2.3782915406e+00 
30000 6.3460690799e+00 5.9323904653e-08 1.3731072612e+00 -2.3782915406e+00 1.3731072612e+00 2.3782915406e+00 
30100 6.3460690738e+00 6.0210121064e-08 1.3731072612e+00 -2.3782915406e+00 1.3731072612e+00 2.3782915406e+00 
30200 6.3460690677e+00 6.1109591389e-08 1.3731072612e+00 -2.3782915406e+00 1.3731072612e+00 2.3782915406e+00 
30300 6.3460690614e+00 6.2022514188e-08 1.3731072612e+00 -2.3782915406e+00 1.3731072612e+00 2.3782915406e+00 
30400 6.3460690550e+00 6.2949091000e-08 1.3731072612e+00 -2.3782915406e+00 1.3731072612e+00 2.3782915406e+00 
30500 6.3460690486e+00 6.3889526392e-08 1.3731072612e+00 -2.3782915406e+00 1.3731072612e+00 2.3782915406e+00 
30600 6.3460690420e+00 6.4844028002e-08 1.3731072612e+00 -2.3782915406e+00 1.3731072612e+00 2.3782915406e+00 
30700 6.3460690354e+00 6.5812806591e-08 1.3731072612e+00 -2.3782915406e+00 1.3731072612e+00 2.3782915406e+00 
30800 6.3460690286e+00 6.6796076082e-08 1.3731072612e+00 -2.3782915406e+00 1.3731072612e+00 2.3782915406e+00 
30900 6.3460690218e+00 6.7794053615e-08 1.3731072612e+00 -2.3782915406e+00 1.3731072612e+00 2.3782915406e+00 
31000 6.3460690148e+00 6.8806959589e-08 1.3731072612e+00 -2.3782915406e+00 1.3731072612e+00 2.3782915406e+00 
31100 6.3460690078e+00 6.9835017718e-08 1.3731072612e+00 -2.3782915406e+00 1.3731072612e+00 2.3782915406e+00 
31200 6.3460690006e+00 7.0878455075e-08 1.3731072612e+00 -2.3782915406e+00 1.3731072612e+00 2.3782915406e+00 
31300 6.3460689934e+00 7.1937502146e-08 1.3731072612e+00 -2.3782915406e+00 1.3731072612e+00 2.3782915406e+00 
31400 6.3460689860e+00 7.3012392881e-08 1.3731072612e+00 -2.3782915406e+00 1.3731072612e+00 2.3782915406e+00 
31500 6.3460689785e+00 7.4103364744e-08 1.3731072612e+00 -2.3782915406e+00 1.3731072612e+00 2.3782915406e+00 
31600 6.3460689709e+00 7.5210658772e-08 1.3731072612e+00 -2.3782915406e+00 1.3731072612e+00 2.3782915406e+00 
31700 6.3460689632e+00 7.6334519620e-08 1.3731072612e+00 -2.3782915406e+00 1.3731072612e+00 2.3782915406e+00 
31800 6.3460689554e+00 7.7475195623e-08 1.3731072612e+00 -2.3782915406e+00 1.3731072612e+00 2.3782915406e+00 
31900 6.3460689475e+00 7.8632938850e-08 1.3731072612e+00 -2.3782915406e+00 1.3731072612e+00 2.3782915406e+00 
32000 6.3460689394e+00 7.9808005157e-08 1.3731072612e+00 -2.3782915406e+00 1.3731072612e+00 2.3782915406e+00 
32100 6.3460689313e+00 8.1000654247e-08 1.3731072612e+00 -2.3782915406e+00 1.3731072612e+00 2.3782915406e+00 
32200 6.3460689230e+00 8.2211149730e-08 1.3731072612e+00 -2.3782915406e+00 1.3731072612e+00 2.3782915406e+00 
32300 6.3460689146e+00 8.3439759176e-08 1.3731072612e+00 -2.3782915406e+00 1.3731072612e+00 2.3782915406e+00 
32400 6.3460689060e+00 8.4686754181e-08 1.3731072612e+00 -2.3782915406e+00 1.3731072612e+00 2.3782915406e+00 
32500 6.3460688974e+00 8.5952410425e-08 1.3731072612e+00 -2.3782915406e+00 1.3731072612e+00 2.3782915406e+00 
32600 6.3460688886e+00 8.7237007731e-08 1.3731072612e+00 -2.3782915406e+00 1.3731072612e+00 2.3782915406e+00 
32700 6.3460688796e+00 8.8540830134e-08 1.3731072612e+00 -2.3782915406e+00 1.3731072612e+00 2.3782915406e+00 
32800 6.3460688706e+00 8.9864165940e-08 1.3731072612e+00 -2.3782915406e+00 1.3731072612e+00 2.3782915406e+00 
32900 6.3460688614e+00 9.1207307791e-08 1.3731072612e+00 -2.3782915406e+00 1.3731072612e+00 2.3782915406e+00 
33000 6.3460688521e+00 9.2570552731e-08 1.3731072612e+00 -2.3782915406e+00 1.3731072612e+00 2.3782915406e+00 
33100 6.3460688426e+00 9.3954202273e-08 1.3731072612e+00 -2.3782915406e+00 1.3731072612e+00 2.3782915406e+00 
33200 6.3460688330e+00 9.5358562466e-08 1.3731072612e+00 -2.3782915406e+00 1.3731072612e+00 2.3782915406e+00 
33300 6.3460688232e+00 9.6783943965e-08 1.3731072612e+00 -2.3782915406e+00 1.3731072612e+00 2.3782915406e+00 
33400 6.3460688133e+00 9.8230662096e-08 1.3731072612e+00 -2.3782915406e+00 1.3731072612e+00 2.3782915406e+00 
33500 6.3460688033e+00 9.9699036934e-08 1.3731072612e+00 -2.3782915406e+00 1.3731072612e+00 2.3782915406e+00 
33600 6.3460687930e+00 1.0118939337e-07 1.3731072612e+00 -2.3782915406e+00 1.3731072612e+00 2.3782915406e+00 
33700 6.3460687827e+00 1.0270206118e-07 1.3731072612e+00 -2.3782915406e+00 1.3731072612e+00 2.3782915406e+00 
33800 6.3460687722e+00 1.0423737510e-07 1.3731072612e+00 -2.3782915406e+00 1.3731072612e+00 2.3782915406e+00 
33900 6.3460687615e+00 1.0579567493e-07 1.3731072612e+00 -2.3782915406e+00 1.3731072612e+00 2.3782915406e+00 
34000 6.3460687507e+00 1.0737730555e-07 1.3731072612e+00 -2.3782915406e+00 1.3731072612e+00 2.3782915406e+00 
34100 6.3460687397e+00 1.0898261706e-07 1.3731072612e+00 -2.3782915406e+00 1.3731072612e+00 2.3782915406e+00 
34200 6.3460687285e+00 1.1061196480e-07 1.3731072612e+00 -2.3782915406e+00 1.3731072612e+00 2.3782915406e+00 
34300 6.3460687172e+00 1.1226570950e-07 1.3731072612e+00 -2.3782915406e+00 1.3731072612e+00 2.3782915406e+00 
34400 6.3460687057e+00 1.1394421729e-07 1.3731072612e+00 -2.3782915406e+00 1.3731072612e+00 2.3782915406e+00 
34500 6.3460686941e+00 1.1564785982e-07 1.3731072612e+00 -2.3782915406e+00 1.3731072612e+00 2.3782915406e+00 
34600 6.3460686822e+00 1.1737701435e-07 1.3731072612e+00 -2.3782915406e+00 1.3731072612e+00 2.3782915406e+00 
34700 6.3460686702e+00 1.1913206380e-07 1.3731072612e+00 -2.3782915406e+00 1.3731072612e+00 2.3782915406e+00 
34800 6.3460686580e+00 1.2091339688e-07 1.3731072612e+00 -2.3782915406e+00 1.3731072612e+00 2.3782915406e+00 
34900 6.3460686456e+00 1.2272140814e-07 1.3731072612e+00 -2.3782915406e+00 1.3731072612e+00 2.3782915406e+00 
35000 6.3460686331e+00 1.2455649809e-07 1.3731072612e+00 -2.3782915406e+00 1.3731072612e+00 2.3782915406e+00 
35100 6.3460686203e+00 1.2641907324e-07 1.3731072612e+00 -2.3782915406e+00 1.3731072612e+00 2.3782915406e+00 
35200 6.3460686074e+00 1.2830954626e-07 1.3731072612e+00 -2.3782915406e+00 1.3731072612e+00 2.3782915406e+00 
35300 6.3460685943e+00 1.3022833603e-07 1.3731072612e+00 -2.3782915406e+00 1.3731072612e+00 2.3782915406e+00 
35400 6.3460685809e+00 1.3217586772e-07 1.3731072612e+00 -2.3782915406e+00 1.3731072612e+00 2.3782915406e+00 
35500 6.3460685674e+00 1.3415257293e-07 1.3731072612e+00 -2.3782915406e+00 1.3731072612e+00 2.3782915406e+00 
35600 6.3460685537e+00 1.3615888977e-07 1.3731072612e+00 -2.3782915406e+00 1.3731072612e+00 2.3782915406e+00 
35700 6.3460685397e+00 1.3819526293e-07 1.3731072612e+00 -2.3782915406e+00 1.3731072612e+00 2.3782915406e+00 
35800 6.3460685256e+00 1.4026214382e-07 1.3731072612e+00 -2.3782915406e+00 1.3731072612e+00 2.3782915406e+00 
35900 6.3460685112e+00 1.4235999064e-07 1.3731072612e+00 -2.3782915406e+00 1.3731072612e+00 2.3782915406e+00 
36000 6.3460684966e+00 1.4448926852e-07 1.3731072612e+00 -2.3782915406e+00 1.3731072612e+00 2.3782915406e+00 
36100 6.3460684818e+00 1.4665044958e-07 1.3731072612e+00 -2.3782915406e+00 1.3731072612e+00 2.3782915406e+00 
36200 6.3460684668e+00 1.4884401307e-07 1.3731072612e+00 -2.3782915406e+00 1.3731072612e+00 2.3782915406e+00 
36300 6.3460684516e+00 1.5107044547e-07 1.3731072612e+00 -2.3782915406e+00 1.3731072612e+00 2.3782915406e+00 
36400 6.3460684361e+00 1.5333024058e-07 1.3731072612e+00 -2.3782915406e+00 1.3731072612e+00 2.3782915406e+00 
36500 6.3460684204e+00 1.5562389968e-07 1.3731072612e+00 -2.3782915406e+00 1.3731072612e+00 2.3782915406e+00 
36600 6.3460684044e+00 1.5795193158e-07 1.3731072612e+00 -2.3782915406e+00 1.3731072612e+00 2.3782915406e+00 
36700 6.3460683883e+00 1.6031485277e-07 1.3731072612e+00 -2.3782915406e+00 1.3731072612e+00 2.3782915406e+00 
36800 6.3460683718e+00 1.6271318755e-07 1.3731072612e+00 -2.3782915406e+00 1.3731072612e+00 2.3782915406e+00 
36900 6.3460683552e+00 1.6514746810e-07 1.3731072612e+00 -2.3782915406e+00 1.3731072612e+00 2.3782915406e+00 
37000 6.3460683383e+00 1.6761823467e-07 1.3731072612e+00 -2.3782915406e+00 1.3731072612e+00 2.3782915406e+00 
37100 6.3460683211e+00 1.7012603562e-07 1.3731072612e+00 -2.3782915406e+00 1.3731072612e+00 2.3782915406e+00 
37200 6.3460683037e+00 1.7267142761e-07 1.3731072612e+00 -2.3782915406e+00 1.3731072612e+00 2.3782915406e+00 
37300 6.3460682860e+00 1.7525497571e-07 1.3731072612e+00 -2.3782915406e+00 1.3731072612e+00 2.3782915406e+00 
37400 6.3460682680e+00 1.7787725349e-07 1.3731072612e+00 -2.3782915406e+00 1.3731072612e+00 2.3782915406e+00 
37500 6.3460682498e+00 1.8053884320e-07 1.3731072612e+00 -2.3782915406e+00 1.3731072612e+00 2.3782915406e+00 
37600 6.3460682313e+00 1.8324033588e-07 1.3731072612e+00 -2.3782915406e+00 1.3731072612e+00 2.3782915406e+00 
37700 6.3460682125e+00 1.8598233148e-07 1.3731072612e+00 -2.3782915406e+00 1.3731072612e+00 2.3782915406e+00 
37800 6.3460681935e+00 1.8876543901e-07 1.3731072612e+00 -2.3782915406e+00 1.3731072612e+00 2.3782915406e+00 
37900 6.3460681741e+00 1.9159027669e-07 1.3731072612e+00 -2.3782915406e+00 1.3731072612e+00 2.3782915406e+00 
38000 6.3460681545e+00 1.9445747208e-07 1.3731072612e+00 -2.3782915406e+00 1.3731072612e+00 2.3782915406e+00 
38100 6.3460681345e+00 1.9736766219e-07 1.3731072612e+00 -2.3782915406e+00 1.3731072612e+00 2.3782915406e+00 
38200 6.3460681143e+00 2.0032149368e-07 1.3731072612e+00 -2.3782915406e+00 1.3731072612e+00 2.3782915406e+00 
38300 6.3460680938e+00 2.0331962296e-07 1.3731072612e+00 -2.3782915406e+00 1.3731072612e+00 2.3782915406e+00 
38400 6.3460680729e+00 2.0636271638e-07 1.3731072612e+00 -2.3782915406e+00 1.3731072612e+00 2.3782915406e+00 
38500 6.3460680518e+00 2.0945145033e-07 1.3731072612e+00 -2.3782915406e+00 1.3731072612e+00 2.3782915406e+00 
38600 6.3460680303e+00 2.1258651144e-07 1.3731072612e+00 -2.3782915406e+00 1.3731072612e+00 2.3782915406e+00 
38700 6.3460680085e+00 2.1576859670e-07 1.3731072612e+00 -2.3782915406e+00 1.3731072612e+00 2.3782915406e+00 
38800 6.3460679864e+00 2.1899841366e-07 1.3731072612e+00 -2.3782915406e+00 1.3731072612e+00 2.3782915406e+00 
38900 6.3460679639e+00 2.2227668055e-07 1.3731072612e+00 -2.3782915406e+00 1.3731072612e+00 2.3782915406e+00 
39000 6.3460679411e+00 2.2560412645e-07 1.3731072612e+00 -2.3782915406e+00 1.3731072612e+00 2.3782915406e+00 
39100 6.3460679180e+00 2.2898149147e-07 1.3731072612e+00 -2.3782915406e+00 1.3731072612e+00 2.3782915406e+00 
39200 6.3460678945e+00 2.3240952690e-07 1.3731072612e+00 -2.3782915406e+00 1.3731072612e+00 2.3782915406e+00 
39300 6.3460678707e+00 2.3588899542e-07 1.3731072612e+00 -2.3782915406e+00 1.3731072612e+00 2.3782915406e+00 
39400 6.3460678465e+00 2.3942067122e-07 1.3731072612e+00 -2.3782915406e+00 1.3731072612e+00 2.3782915406e+00 
39500 6.3460678219e+00 2.4300534019e-07 1.3731072612e+00 -2.3782915406e+00 1.3731072612e+00 2.3782915406e+00 
39600 6.3460677970e+00 2.4664380013e-07 1.3731072612e+00 -2.3782915406e+00 1.3731072612e+00 2.3782915406e+00 
39700 6.3460677717e+00 2.5033686090e-07 1.3731072612e+00 -2.3782915406e+00 1.3731072612e+00 2.3782915406e+00 
39800 6.3460677460e+00 2.5408534461e-07 1.3731072612e+00 -2.3782915406e+00 1.3731072612e+00 2.3782915406e+00 
39900 6.3460677200e+00 2.5789008580e-07 1.3731072612e+00 -2.3782915406e+00 1.3731072612e+00 2.3782915406e+00 
40000 6.3460676935e+00 2.6175193167e-07 1.3731072612e+00 -2.3782915406e+00 1.3731072612e+00 2.3782915406e+00 
40100 6.3460676667e+00 2.6567174222e-07 1.3731072612e+00 -2.3782915406e+00 1.3731072612e+00 2.3782915406e+00 
40200 6.3460676394e+00 2.6965039045e-07 1.3731072612e+00 -2.3782915406e+00 1.3731072612e+00 2.3782915406e+00 
40300 6.3460676117e+00 2.7368876260e-07 1.3731072612e+00 -2.3782915406e+00 1.3731072612e+00 2.3782915406e+00 
40400 6.3460675836e+00 2.7778775832e-07 1.3731072612e+00 -2.3782915406e+00 1.3731072612e+00 2.3782915406e+00 
40500 6.3460675551e+00 2.8194829089e-07 1.3731072612e+00 -2.3782915406e+00 1.3731072612e+00 2.3782915406e+00 
40600 6.3460675262e+00 2.8617128740e-07 1.3731072612e+00 -2.3782915406e+00 1.3731072612e+00 2.3782915406e+00 
40700 6.3460674968e+00 2.9045768898e-07 1.3731072612e+00 -2.3782915406e+00 1.3731072612e+00 2.3782915406e+00 
40800 6.3460674670e+00 2.9480845104e-07 1.3731072612e+00 -2.3782915406e+00 1.3731072612e+00 2.3782915406e+00 
40900 6.3460674368e+00 2.9922454344e-07 1.3731072612e+00 -2.3782915406e+00 1.3731072612e+00 2.3782915406e+00 
41000 6.3460674060e+00 3.0370695074e-07 1.3731072612e+00 -2.3782915406e+00 1.3731072612e+00 2.3782915406e+00 
41100 6.3460673749e+00 3.0825667241e-07 1.3731072612e+00 -2.3782915406e+00 1.3731072612e+00 2.3782915406e+00 
41200 6.3460673432e+00 3.1287472306e-07 1.3731072612e+00 -2.3782915406e+00 1.3731072612e+00 2.3782915406e+00 
41300 6.3460673111e+00 3.1756213270e-07 1.3731072612e+00 -2.3782915406e+00 1.3731072612e+00 2.3782915406e+00 
41400 6.3460672785e+00 3.2231994693e-07 1.3731072612e+00 -2.3782915406e+00 1.3731072612e+00 2.3782915406e+00 
41500 6.3460672454e+00 3.2714922721e-07 1.3731072612e+00 -2.3782915406e+00 1.3731072612e+00 2.3782915406e+00 
41600 6.3460672118e+00 3.3205105108e-07 1.3731072612e+00 -2.3782915406e+00 1.3731072612e+00 2.3782915406e+00 
41700 6.3460671777e+00 3.3702651242e-07 1.3731072612e+00 -2.3782915406e+00 1.3731072612e+00 2.3782915406e+00 
41800 6.3460671431e+00 3.4207672170e-07 1.3731072612e+00 -2.3782915406e+00 1.3731072612e+00 2.3782915406e+00 
41900 6.3460671080e+00 3.4720280623e-07 1.3731072612e+00 -2.3782915406e+00 1.3731072612e+00 2.3782915406e+00 
42000 6.3460670723e+00 3.5240591043e-07 1.3731072612e+00 -2.3782915406e+00 1.3731072612e+00 2.3782915406e+00 
42100 6.3460670361e+00 3.5768719606e-07 1.3731072612e+00 -2.3782915406e+00 1.3731072612e+00 2.3782915406e+00 
42200 6.3460669993e+00 3.6304784250e-07 1.3731072612e+00 -2.3782915406e+00 1.3731072612e+00 2.3782915406e+00 
42300 6.3460669621e+00 3.6848904706e-07 1.3731072612e+00 -2.3782915406e+00 1.3731072612e+00 2.3782915406e+00 
42400 6.3460669242e+00 3.7401202517e-07 1.3731072612e+00 -2.3782915406e+00 1.3731072612e+00 2.3782915406e+00 
42500 6.3460668858e+00 3.7961801074e-07 1.3731072612e+00 -2.3782915406e+00 1.3731072612e+00 2.3782915406e+00 
42600 6.3460668468e+00 3.8530825641e-07 1.3731072612e+00 -2.3782915406e+00 1.3731072612e+00 2.3782915406e+00 
42700 6.3460668072e+00 3.9108403380e-07 1.3731072612e+00 -2.3782915406e+00 1.3731072612e+00 2.3782915406e+00 
42800 6.3460667670e+00 3.9694663388e-07 1.3731072612e+00 -2.3782915406e+00 1.3731072612e+00 2.3782915406e+00 
42900 6.3460667262e+00 4.0289736720e-07 1.3731072612e+00 -2.3782915406e+00 1.3731072612e+00 2.3782915406e+00 
43000 6.3460666848e+00 4.0893756421e-07 1.3731072612e+00 -2.3782915406e+00 1.3731072612e+00 2.3782915406e+00 
43100 6.3460666427e+00 4.1506857556e-07 1.3731072612e+00 -2.3782915406e+00 1.3731072612e+00 2.3782915406e+00 
43200 6.3460666001e+00 4.2129177245e-07 1.3731072612e+00 -2.3782915406e+00 1.3731072612e+00 2.3782915406e+00 
43300 6.3460665567e+00 4.2760854686e-07 1.3731072612e+00 -2.3782915406e+00 1.3731072612e+00 2.3782915406e+00 
43400 6.3460665128e+00 4.3402031198e-07 1.3731072612e+00 -2.3782915406e+00 1.3731072612e+00 2.3782915406e+00 
43500 6.3460664682e+00 4.4052850241e-07 1.3731072612e+00 -2.3782915406e+00 1.3731072612e+00 2.3782915406e+00 
43600 6.3460664229e+00 4.4713457462e-07 1.3731072612e+00 -2.3782915406e+00 1.3731072612e+00 2.3782915406e+00 
43700 6.3460663769e+00 4.5384000715e-07 1.3731072612e+00 -2.3782915406e+00 1.3731072612e+00 2.3782915406e+00 
43800 6.3460663302e+00 4.6064630108e-07 1.3731072612e+00 -2.3782915406e+00 1.3731072612e+00 2.3782915406e+00 
43900 6.3460662828e+00 4.6755498027e-07 1.3731072612e+00 -2.3782915406e+00 1.3731072612e+00 2.3782915406e+00 
44000 6.3460662347e+00 4.7456759177e-07 1.3731072612e+00 -2.3782915406e+00 1.3731072612e+00 2.3782915406e+00 
44100 6.3460661859e+00 4.8168570615e-07 1.3731072612e+00 -2.3782915406e+00 1.3731072612e+00 2.3782915406e+00 
44200 6.3460661364e+00 4.8891091789e-07 1.3731072612e+00 -2.3782915406e+00 1.3731072612e+00 2.3782915406e+00 
44300 6.3460660861e+00 4.9624484569e-07 1.3731072612e+00 -2.3782915406e+00 1.3731072612e+00 2.3782915406e+00 
44400 6.3460660350e+00 5.0368913291e-07 1.3731072612e+00 -2.3782915406e+00 1.3731072612e+00 2.3782915406e+00 
44500 6.3460659832e+00 5.1124544791e-07 1.3731072612e+00 -2.3782915406e+00 1.3731072612e+00 2.3782915406e+00 
44600 6.3460659306e+00 5.1891548443e-07 1.3731072612e+00 -2.3782915406e+00 1.3731072612e+00 2.3782915406e+00 
44700 6.3460658772e+00 5.2670096200e-07 1.3731072612e+00 -2.3782915406e+00 1.3731072612e+00 2.3782915406e+00 
44800 6.3460658230e+00 5.3460362633e-07 1.3731072612e+00 -2.3782915406e+00 1.3731072612e+00 2.3782915406e+00 
44900 6.3460657679e+00 5.4262524970e-07 1.3731072612e+00 -2.3782915406e+00 1.3731072612e+00 2.3782915406e+00 
45000 6.3460657121e+00 5.5076763140e-07 1.3731072612e+00 -2.3782915406e+00 1.3731072612e+00 2.3782915406e+00 
45100 6.3460656554e+00 5.5903259809e-07 1.3731072612e+00 -2.3782915406e+00 1.3731072612e+00 2.3782915406e+00 
45200 6.3460655978e+00 5.6742200428e-07 1.3731072612e+00 -2.3782915406e+00 1.3731072612e+00 2.3782915406e+00 
45300 6.3460655394e+00 5.7593773273e-07 1.3731072612e+00 -2.3782915406e+00 1.3731072612e+00 2.3782915406e+00 
45400 6.3460654801e+00 5.8458169488e-07 1.3731072612e+00 -2.3782915406e+00 1.3731072612e+00 2.3782915406e+00 
45500 6.3460654199e+00 5.9335583130e-07 1.3731072612e+00 -2.3782915406e+00 1.3731072612e+00 2.3782915406e+00 
45600 6.3460653588e+00 6.0226211216e-07 1.3731072612e+00 -2.3782915406e+00 1.3731072612e+00 2.3782915406e+00 
45700 6.3460652968e+00 6.1130253763e-07 1.3731072612e+00 -2.3782915406e+00 1.3731072612e+00 2.3782915406e+00 
45800 6.3460652338e+00 6.2047913840e-07 1.3731072612e+00 -2.3782915406e+00 1.3731072612e+00 2.3782915406e+00 
45900 6.3460651699e+00 6.2979397611e-07 1.3731072612e+00 -2.3782915406e+00 1.3731072612e+00 2.3782915406e+00 
46000 6.3460651050e+00 6.3924914386e-07 1.3731072612e+00 -2.3782915406e+00 1.3731072612e+00 2.3782915406e+00 
46100 6.3460650391e+00 6.4884676666e-07 1.3731072612e+00 -2.3782915406e+00 1.3731072612e+00 2.3782915406e+00 
46200 6.3460649723e+00 6.5858900195e-07 1.3731072612e+00 -2.3782915406e+00 1.3731072612e+00 2.3782915406e+00 
46300 6.3460649044e+00 6.6847804008e-07 1.3731072612e+00 -2.3782915406e+00 1.3731072612e+00 2.3782915406e+00 
46400 6.3460648355e+00 6.7851610485e-07 1.3731072612e+00 -2.3782915406e+00 1.3731072612e+00 2.3782915406e+00 
46500 6.3460647656e+00 6.8870545397e-07 1.3731072612e+00 -2.3782915406e+00 1.3731072612e+00 2.3782915406e+00 
46600 6.3460646946e+00 6.9904837964e-07 1.3731072612e+00 -2.3782915406e+00 1.3731072612e+00 2.3782915406e+00 
46700 6.3460646225e+00 7.0954720905e-07 1.3731072612e+00 -2.3782915406e+00 1.3731072612e+00 2.3782915406e+00 
46800 6.3460645494e+00 7.2020430494e-07 1.3731072612e+00 -2.3782915406e+00 1.3731072612e+00 2.3782915406e+00 
46900 6.3460644751e+00 7.3102206611e-07 1.3731072612e+00 -2.3782915406e+00 1.3731072612e+00 2.3782915406e+00 
47000 6.3460643997e+00 7.4200292802e-07 1.3731072612e+00 -2.3782915406e+00 1.3731072612e+00 2.3782915406e+00 
47100 6.3460643232e+00 7.5314936336e-07 1.3731072612e+00 -2.3782915406e+00 1.3731072612e+00 2.3782915406e+00 
47200 6.3460642455e+00 7.6446388258e-07 1.3731072612e+00 -2.3782915406e+00 1.3731072612e+00 2.3782915406e+00 
47300 6.3460641667e+00 7.7594903450e-07 1.3731072612e+00 -2.3782915406e+00 1.3731072612e+00 2.3782915406e+00 
47400 6.3460640866e+00 7.8760740692e-07 1.3731072612e+00 -2.3782915406e+00 1.3731072612e+00 2.3782915406e+00 
47500 6.3460640054e+00 7.9944162718e-07 1.3731072612e+00 -2.3782915406e+00 1.3731072612e+00 2.3782915406e+00 
47600 6.3460639229e+00 8.1145436282e-07 1.3731072612e+00 -2.3782915406e+00 1.3731072612e+00 2.3782915406e+00 
47700 6.3460638392e+00 8.2364832216e-07 1.3731072612e+00 -2.3782915406e+00 1.3731072612e+00 2.3782915406e+00 
47800 6.3460637542e+00 8.3602625497e-07 1.3731072612e+00 -2.3782915406e+00 1.3731072612e+00 2.3782915406e+00 
47900 6.3460636679e+00 8.4859095307e-07 1.3731072612e+00 -2.3782915406e+00 1.3731072612e+00 2.3782915406e+00 
48000 6.3460635803e+00 8.6134525100e-07 1.3731072612e+00 -2.3782915406e+00 1.3731072612e+00 2.3782915406e+00 
48100 6.3460634914e+00 8.7429202670e-07 1.3731072612e+00 -2.3782915406e+00 1.3731072612e+00 2.3782915406e+00 
48200 6.3460634011e+00 8.8743420217e-07 1.3731072612e+00 -2.3782915406e+00 1.3731072612e+00 2.3782915406e+00 
48300 6.3460633095e+00 9.0077474412e-07 1.3731072612e+00 -2.3782915406e+00 1.3731072612e+00 2.3782915406e+00 
48400 6.3460632165e+00 9.1431666470e-07 1.3731072612e+00 -2.3782915406e+00 1.3731072612e+00 2.3782915406e+00 
48500 6.3460631221e+00 9.2806302221e-07 1.3731072612e+00 -2.3782915406e+00 1.3731072612e+00 2.3782915406e+00 
48600 6.3460630262e+00 9.4201692180e-07 1.3731072612e+00 -2.3782915406e+00 1.3731072612e+00 2.3782915406e+00 
48700 6.3460629289e+00 9.5618151616e-07 1.3731072612e+00 -2.3782915406e+00 1.3731072612e+00 2.3782915406e+00 
48800 6.3460628301e+00 9.7056000634e-07 1.3731072612e+00 -2.3782915406e+00 1.3731072612e+00 2.3782915406e+00 
48900 6.3460627299e+00 9.8515564242e-07 1.3731072612e+00 -2.3782915406e+00 1.3731072612e+00 2.3782915406e+00 
49000 6.3460626281e+00 9.9997172433e-07 1.3731072612e+00 -2.3782915406e+00 1.3731072612e+00 2.3782915406e+00 
49100 6.3460625247e+00 1.0150116026e-06 1.3731072612e+00 -2.3782915406e+00 1.3731072612e+00 2.3782915406e+00 
49200 6.3460624198e+00 1.0302786791e-06 1.3731072612e+00 -2.3782915406e+00 1.3731072612e+00 2.3782915406e+00 
49300 6.3460623133e+00 1.0457764079e-06 1.3731072612e+00 -2.3782915406e+00 1.3731072612e+00 2.3782915406e+00 
49400 6.3460622052e+00 1.0615082961e-06 1.3731072612e+00 -2.3782915406e+00 1.3731072612e+00 2.3782915406e+00 
49500 6.3460620955e+00 1.0774779047e-06 1.3731072612e+00 -2.3782915406e+00 1.3731072612e+00 2.3782915406e+00 
49600 6.3460619841e+00 1.0936888490e-06 1.3731072612e+00 -2.3782915406e+00 1.3731072612e+00 2.3782915406e+00 
49700 6.3460618710e+00 1.1101448003e-06 1.3731072612e+00 -2.3782915406e+00 1.3731072612e+00 2.3782915406e+00 
49800 6.3460617562e+00 1.1268494859e-06 1.3731072612e+00 -2.3782915406e+00 1.3731072612e+00 2.3782915406e+00 
49900 6.3460616396e+00 1.1438066904e-06 1.3731072612e+00 -2.3782915406e+00 1.3731072612e+00 2.3782915406e+00 
50000 6.3460615213e+00 1.1610202566e-06 1.3731072612e+00 -2.3782915406e+00 1.3731072612e+00 2.3782915406e+00 
50100 6.3460614012e+00 1.1784940865e-06 1.3731072612e+00 -2.3782915406e+00 1.3731072612e+00 2.3782915406e+00 
50200 6.3460612793e+00 1.1962321416e-06 1.3731072612e+00 -2.3782915406e+00 1.3731072612e+00 2.3782915406e+00 
50300 6.3460611555e+00 1.2142384448e-06 1.3731072612e+00 -2.3782915406e+00 1.3731072612e+00 2.3782915406e+00 
50400 6.3460610298e+00 1.2325170806e-06 1.3731072612e+00 -2.3782915406e+00 1.3731072612e+00 2.3782915406e+00 
50500 6.3460609022e+00 1.2510721961e-06 1.3731072612e+00 -2.3782915406e+00 1.3731072612e+00 2.3782915406e+00 
50600 6.3460607727e+00 1.2699080026e-06 1.3731072612e+00 -2.3782915406e+00 1.3731072612e+00 2.3782915406e+00 
50700 6.3460606413e+00 1.2890287760e-06 1.3731072612e+00 -2.3782915406e+00 1.3731072612e+00 2.3782915406e+00 
50800 6.3460605078e+00 1.3084388577e-06 1.3731072612e+00 -2.3782915406e+00 1.3731072612e+00 2.3782915406e+00 
50900 6.3460603723e+00 1.3281426564e-06 1.3731072612e+00 -2.3782915406e+00 1.3731072612e+00 2.3782915406e+00 
51000 6.3460602347e+00 1.3481446483e-06 1.3731072612e+00 -2.3782915406e+00 1.3731072612e+00 2.3782915406e+00 
51100 6.3460600951e+00 1.3684493787e-06 1.3731072612e+00 -2.3782915406e+00 1.3731072612e+00 2.3782915406e+00 
51200 6.3460599533e+00 1.3890614628e-06 1.3731072612e+00 -2.3782915406e+00 1.3731072612e+00 2.3782915406e+00 
51300 6.3460598094e+00 1.4099855868e-06 1.3731072612e+00 -2.3782915406e+00 1.3731072612e+00 2.3782915406e+00 
51400 6.3460596633e+00 1.4312265093e-06 1.3731072612e+00 -2.3782915406e+00 1.3731072612e+00 2.3782915406e+00 
51500 6.3460595150e+00 1.4527890622e-06 1.3731072612e+00 -2.3782915406e+00 1.3731072612e+00 2.3782915406e+00 
51600 6.3460593644e+00 1.4746781515e-06 1.3731072612e+00 -2.3782915406e+00 1.3731072612e+00 2.3782915406e+00 
51700 6.3460592115e+00 1.4968987594e-06 1.3731072612e+00 -2.3782915406e+00 1.3731072612e+00 2.3782915406e+00 
51800 6.3460590563e+00 1.5194559444e-06 1.3731072612e+00 -2.3782915406e+00 1.3731072612e+00 2.3782915406e+00 
51900 6.3460588987e+00 1.5423548433e-06 1.3731072612e+00 -2.3782915406e+00 1.3731072612e+00 2.3782915406e+00 
52000 6.3460587388e+00 1.5656006721e-06 1.3731072612e+00 -2.3782915406e+00 1.3731072612e+00 2.3782915406e+00 
52100 6.3460585764e+00 1.5891987273e-06 1.3731072612e+00 -2.3782915406e+00 1.3731072612e+00 2.3782915406e+00 
52200 6.3460584116e+00 1.6131543869e-06 1.3731072612e+00 -2.3782915406e+00 1.3731072612e+00 2.3782915406e+00 
52300 6.3460582442e+00 1.6374731122e-06 1.3731072612e+00 -2.3782915406e+00 1.3731072612e+00 2.3782915406e+00 
52400 6.3460580743e+00 1.6621604487e-06 1.3731072612e+00 -2.3782915406e+00 1.3731072612e+00 2.3782915406e+00 
52500 6.3460579018e+00 1.6872220276e-06 1.3731072612e+00 -2.3782915406e+00 1.3731072612e+00 2.3782915406e+00 
52600 6.3460577266e+00 1.7126635669e-06 1.3731072612e+00 -2.3782915406e+00 1.3731072612e+00 2.3782915406e+00 
52700 6.3460575489e+00 1.7384908731e-06 1.3731072612e+00 -2.3782915406e+00 1.3731072612e+00 2.3782915406e+00 
52800 6.3460573684e+00 1.7647098424e-06 1.3731072612e+00 -2.3782915406e+00 1.3731072612e+00 2.3782915406e+00 
52900 6.3460571851e+00 1.7913264622e-06 1.3731072612e+00 -2.3782915406e+00 1.3731072612e+00 2.3782915406e+00 
53000 6.3460569991e+00 1.8183468124e-06 1.3731072612e+00 -2.3782915406e+00 1.3731072612e+00 2.3782915406e+00 
53100 6.3460568102e+00 1.8457770667e-06 1.3731072612e+00 -2.3782915406e+00 1.3731072612e+00 2.3782915406e+00 
53200 6.3460566184e+00 1.8736234948e-06 1.3731072612e+00 -2.3782915406e+00 1.3731072612e+00 2.3782915406e+00 
53300 6.3460564238e+00 1.9018924629e-06 1.3731072612e+00 -2.3782915406e+00 1.3731072612e+00 2.3782915406e+00 
53400 6.3460562261e+00 1.9305904361e-06 1.3731072612e+00 -2.3782915406e+00 1.3731072612e+00 2.3782915406e+00 
53500 6.3460560255e+00 1.9597239792e-06 1.3731072612e+00 -2.3782915406e+00 1.3731072612e+00 2.3782915406e+00 
53600 6.3460558217e+00 1.9892997590e-06 1.3731072612e+00 -2.3782915406e+00 1.3731072612e+00 2.3782915406e+00 
53700 6.3460556149e+00 2.0193245454e-06 1.3731072612e+00 -2.3782915406e+00 1.3731072612e+00 2.3782915406e+00 
53800 6.3460554049e+00 2.0498052131e-06 1.3731072612e+00 -2.3782915406e+00 1.3731072612e+00 2.3782915406e+00 
53900 6.3460551918e+00 2.0807487433e-06 1.3731072612e+00 -2.3782915406e+00 1.3731072612e+00 2.3782915406e+00 
54000 6.3460549753e+00 2.1121622256e-06 1.3731072612e+00 -2.3782915406e+00 1.3731072612e+00 2.3782915406e+00 
54100 6.3460547556e+00 2.1440528593e-06 1.3731072612e+00 -2.3782915406e+00 1.3731072612e+00 2.3782915406e+00 
54200 6.3460545325e+00 2.1764279554e-06 1.3731072612e+00 -2.3782915406e+00 1.3731072612e+00 2.3782915406e+00 
54300 6.3460543060e+00 2.2092949382e-06 1.3731072612e+00 -2.3782915406e+00 1.3731072612e+00 2.3782915406e+00 
54400 6.3460540760e+00 2.2426613475e-06 1.3731072612e+00 -2.3782915406e+00 1.3731072612e+00 2.3782915406e+00 
54500 6.3460538426e+00 2.2765348396e-06 1.3731072612e+00 -2.3782915406e+00 1.3731072612e+00 2.3782915406e+00 
54600 6.3460536055e+00 2.3109231900e-06 1.3731072612e+00 -2.3782915406e+00 1.3731072612e+00 2.3782915406e+00 
54700 6.3460533649e+00 2.3458342948e-06 1.3731072612e+00 -2.3782915406e+00 1.3731072612e+00 2.3782915406e+00 
54800 6.3460531206e+00 2.3812761728e-06 1.3731072612e+00 -2.3782915406e+00 1.3731072612e+00 2.3782915406e+00 
54900 6.3460528725e+00 2.4172569671e-06 1.3731072612e+00 -2.3782915406e+00 1.3731072612e+00 2.3782915406e+00 
55000 6.3460526206e+00 2.4537849477e-06 1.3731072612e+00 -2.3782915406e+00 1.3731072612e+00 2.3782915406e+00 
55100 6.3460523649e+00 2.4908685129e-06 1.3731072612e+00 -2.3782915406e+00 1.3731072612e+00 2.3782915406e+00 
55200 6.3460521053e+00 2.5285161915e-06 1.3731072612e+00 -2.3782915406e+00 1.3731072612e+00 2.3782915406e+00 
55300 6.3460518417e+00 2.5667366450e-06 1.3731072612e+00 -2.3782915406e+00 1.3731072612e+00 2.3782915406e+00 
55400 6.3460515741e+00 2.6055386697e-06 1.3731072612e+00 -2.3782915406e+00 1.3731072612e+00 2.3782915406e+00 
55500 6.3460513024e+00 2.6449311987e-06 1.3731072612e+00 -2.3782915406e+00 1.3731072612e+00 2.3782915406e+00 
55600 6.3460510265e+00 2.6849233040e-06 1.3731072612e+00 -2.3782915406e+00 1.3731072612e+00 2.3782915406e+00 
55700 6.3460507464e+00 2.7255241989e-06 1.3731072612e+00 -2.3782915406e+00 1.3731072612e+00 2.3782915406e+00 
55800 6.3460504620e+00 2.7667432402e-06 1.3731072612e+00 -2.3782915406e+00 1.3731072612e+00 2.3782915406e+00 
55900 6.3460501733e+00 2.8085899304e-06 1.3731072612e+00 -2.3782915406e+00 1.3731072612e+00 2.3782915406e+00 
56000 6.3460498801e+00 2.8510739200e-06 1.3731072612e+00 -2.3782915406e+00 1.3731072612e+00 2.3782915406e+00 
56100 6.3460495825e+00 2.8942050099e-06 1.3731072612e+00 -2.3782915406e+00 1.3731072612e+00 2.3782915406e+00 
56200 6.3460492803e+00 2.9379931537e-06 1.3731072612e+00 -2.3782915406e+00 1.3731072612e+00 2.3782915406e+00 
56300 6.3460489734e+00 2.9824484604e-06 1.3731072612e+00 -2.3782915406e+00 1.3731072612e+00 2.3782915406e+00 
56400 6.3460486619e+00 3.0275811963e-06 1.3731072612e+00 -2.3782915406e+00 1.3731072612e+00 2.3782915406e+00 
56500 6.3460483456e+00 3.0734017883e-06 1.3731072612e+00 -2.3782915406e+00 1.3731072612e+00 2.3782915406e+00 
56600 6.3460480244e+00 3.1199208257e-06 1.3731072612e+00 -2.3782915406e+00 1.3731072612e+00 2.3782915406e+00 
56700 6.3460476983e+00 3.1671490631e-06 1.3731072612e+00 -2.3782915406e+00 1.3731072612e+00 2.3782915406e+00 
56800 6.3460473672e+00 3.2150974232e-06 1.3731072612e+00 -2.3782915406e+00 1.3731072612e+00 2.3782915406e+00 
56900 6.3460470310e+00 3.2637769990e-06 1.3731072612e+00 -2.3782915406e+00 1.3731072612e+00 2.3782915406e+00 
57000 6.3460466897e+00 3.3131990572e-06 1.3731072612e+00 -2.3782915406e+00 1.3731072612e+00 2.3782915406e+00 
57100 6.3460463431e+00 3.3633750401e-06 1.3731072612e+00 -2.3782915406e+00 1.3731072612e+00 2.3782915406e+00 
57200 6.3460459912e+00 3.4143165692e-06 1.3731072612e+00 -2.3782915406e+00 1.3731072612e+00 2.3782915406e+00 
57300 6.3460456339e+00 3.4660354475e-06 1.3731072612e+00 -2.3782915406e+00 1.3731072612e+00 2.3782915406e+00 
57400 6.3460452711e+00 3.5185436628e-06 1.3731072612e+00 -2.3782915406e+00 1.3731072612e+00 2.3782915406e+00 
57500 6.3460449027e+00 3.5718533902e-06 1.3731072612e+00 -2.3782915406e+00 1.3731072612e+00 2.3782915406e+00 
57600 6.3460445287e+00 3.6259769956e-06 1.3731072612e+00 -2.3782915406e+00 1.3731072612e+00 2.3782915406e+00 
57700 6.3460441489e+00 3.6809270382e-06 1.3731072612e+00 -2.3782915406e+00 1.3731072612e+00 2.3782915406e+00 
57800 6.3460437633e+00 3.7367162741e-06 1.3731072612e+00 -2.3782915406e+00 1.3731072612e+00 2.3782915406e+00 
57900 6.3460433718e+00 3.7933576591e-06 1.3731072612e+00 -2.3782915406e+00 1.3731072612e+00 2.3782915406e+00 
58000 6.3460429742e+00 3.8508643518e-06 1.3731072612e+00 -2.3782915406e+00 1.3731072612e+00 2.3782915406e+00 
58100 6.3460425705e+00 3.9092497174e-06 1.3731072612e+00 -2.3782915406e+00 1.3731072612e+00 2.3782915406e+00 
58200 6.3460421606e+00 3.9685273303e-06 1.3731072612e+00 -2.3782915406e+00 1.3731072612e+00 2.3782915406e+00 
58300 6.3460417444e+00 4.0287109779e-06 1.3731072612e+00 -2.3782915406e+00 1.3731072612e+00 2.3782915406e+00 
58400 6.3460413218e+00 4.0898146640e-06 1.3731072612e+00 -2.3782915406e+00 1.3731072612e+00 2.3782915406e+00 
58500 6.3460408927e+00 4.1518526118e-06 1.3731072612e+00 -2.3782915406e+00 1.3731072612e+00 2.3782915406e+00 
58600 6.3460404569e+00 4.2148392681e-06 1.3731072612e+00 -2.3782915406e+00 1.3731072612e+00 2.3782915406e+00 
58700 6.3460400145e+00 4.2787893062e-06 1.3731072612e+00 -2.3782915406e+00 1.3731072612e+00 2.3782915406e+00 
58800 6.3460395652e+00 4.3437176302e-06 1.3731072612e+00 -2.3782915406e+00 1.3731072612e+00 2.3782915406e+00 
58900 6.3460391091e+00 4.4096393781e-06 1.3731072612e+00 -2.3782915406e+00 1.3731072612e+00 2.3782915406e+00 
59000 6.3460386458e+00 4.4765699259e-06 1.3731072612e+00 -2.3782915406e+00 1.3731072612e+00 2.3782915406e+00 
59100 6.3460381755e+00 4.5445248912e-06 1.3731072612e+00 -2.3782915406e+00 1.3731072612e+00 2.3782915406e+00 
59200 6.3460376979e+00 4.6135201372e-06 1.3731072612e+00 -2.3782915406e+00 1.3731072612e+00 2.3782915406e+00 
59300 6.3460372129e+00 4.6835717768e-06 1.3731072612e+00 -2.3782915406e+00 1.3731072612e+00 2.3782915406e+00 
59400 6.3460367204e+00 4.7546961763e-06 1.3731072612e+00 -2.3782915406e+00 1.3731072612e+00 2.3782915406e+00 
59500 6.3460362203e+00 4.8269099595e-06 1.3731072612e+00 -2.3782915406e+00 1.3731072612e+00 2.3782915406e+00 
59600 6.3460357126e+00 4.9002300120e-06 1.3731072612e+00 -2.3782915406e+00 1.3731072612e+00 2.3782915406e+00 
59700 6.3460351969e+00 4.9746734856e-06 1.3731072612e+00 -2.3782915406e+00 1.3731072612e+00 2.3782915406e+00 
59800 6.3460346733e+00 5.0502578018e-06 1.3731072612e+00 -2.3782915406e+00 1.3731072612e+00 2.3782915406e+00 
59900 6.3460341416e+00 5.1270006571e-06 1.3731072612e+00 -2.3782915406e+00 1.3731072612e+00 2.3782915406e+00 
60000 6.3460336017e+00 5.2049200267e-06 1.3731072612e+00 -2.3782915406e+00 1.3731072612e+00 2.3782915406e+00 
60100 6.3460330535e+00 5.2840341695e-06 1.3731072612e+00 -2.3782915406e+00 1.3731072612e+00 2.3782915406e+00 
60200 6.3460324967e+00 5.3643616322e-06 1.3731072612e+00 -2.3782915406e+00 1.3731072612e+00 2.3782915406e+00 
60300 6.3460319314e+00 5.4459212543e-06 1.3731072612e+00 -2.3782915406e+00 1.3731072612e+00 2.3782915406e+00 
60400 6.3460313573e+00 5.5287321725e-06 1.3731072612e+00 -2.3782915406e+00 1.3731072612e+00 2.3782915406e+00 
60500 6.3460307743e+00 5.6128138259e-06 1.3731072612e+00 -2.3782915406e+00 1.3731072612e+00 2.3782915406e+00 
60600 6.3460301823e+00 5.6981859604e-06 1.3731072612e+00 -2.3782915406e+00 1.3731072612e+00 2.3782915406e+00 
60700 6.3460295811e+00 5.7848686341e-06 1.3731072612e+00 -2.3782915406e+00 1.3731072612e+00 2.3782915406e+00 
60800 6.3460289706e+00 5.8728822220e-06 1.3731072612e+00 -2.3782915406e+00 1.3731072612e+00 2.3782915406e+00 
60900 6.3460283507e+00 5.9622474211e-06 1.3731072612e+00 -2.3782915406e+00 1.3731072612e+00 2.3782915406e+00 
61000 6.3460277211e+00 6.0529852561e-06 1.3731072612e+00 -2.3782915406e+00 1.3731072612e+00 2.3782915406e+00 
61100 6.3460270818e+00 6.1451170839e-06 1.3731072612e+00 -2.3782915406e+00 1.3731072612e+00 2.3782915406e+00 
61200 6.3460264326e+00 6.2386645997e-06 1.3731072612e+00 -2.3782915406e+00 1.3731072612e+00 2.3782915406e+00 
61300 6.3460257733e+00 6.3336498420e-06 1.3731072612e+00 -2.3782915406e+00 1.3731072612e+00 2.3782915406e+00 
61400 6.3460251037e+00 6.4300951983e-06 1.3731072612e+00 -2.3782915406e+00 1.3731072612e+00 2.3782915406e+00 
61500 6.3460244238e+00 6.5280234109e-06 1.3731072612e+00 -2.3782915406e+00 1.3731072612e+00 2.3782915406e+00 
61600 6.3460237333e+00 6.6274575823e-06 1.3731072612e+00 -2.3782915406e+00 1.3731072612e+00 2.3782915406e+00 
61700 6.3460230321e+00 6.7284211813e-06 1.3731072612e+00 -2.3782915406e+00 1.3731072612e+00 2.3782915406e+00 
61800 6.3460223200e+00 6.8309380488e-06 1.3731072612e+00 -2.3782915406e+00 1.3731072612e+00 2.3782915406e+00 
61900 6.3460215969e+00 6.9350324041e-06 1.3731072612e+00 -2.3782915406e+00 1.3731072612e+00 2.3782915406e+00 
62000 6.3460208625e+00 7.0407288505e-06 1.3731072612e+00 -2.3782915406e+00 1.3731072612e+00 2.3782915406e+00 
62100 6.3460201166e+00 7.1480523819e-06 1.3731072612e+00 -2.3782915406e+00 1.3731072612e+00 2.3782915406e+00 
62200 6.3460193592e+00 7.2570283893e-06 1.3731072612e+00 -2.3782915406e+00 1.3731072612e+00 2.3782915406e+00 
62300 6.3460185900e+00 7.3676826668e-06 1.3731072612e+00 -2.3782915406e+00 1.3731072612e+00 2.3782915406e+00 
62400 6.3460178088e+00 7.4800414182e-06 1.3731072612e+00 -2.3782915406e+00 1.3731072612e+00 2.3782915406e+00 
62500 6.3460170155e+00 7.5941312642e-06 1.3731072612e+00 -2.3782915406e+00 1.3731072612e+00 2.3782915406e+00 
62600 6.3460162098e+00 7.7099792484e-06 1.3731072612e+00 -2.3782915406e+00 1.3731072612e+00 2.3782915406e+00 
62700 6.3460153915e+00 7.8276128448e-06 1.3731072612e+00 -2.3782915406e+00 1.3731072612e+00 2.3782915406e+00 
62800 6.3460145605e+00 7.9470599643e-06 1.3731072612e+00 -2.3782915406e+00 1.3731072612e+00 2.3782915406e+00 
62900 6.3460137165e+00 8.0683489622e-06 1.3731072612e+00 -2.3782915406e+00 1.3731072612e+00 2.3782915406e+00 
63000 6.3460128594e+00 8.1915086452e-06 1.3731072612e+00 -2.3782915406e+00 1.3731072612e+00 2.3782915406e+00 
63100 6.3460119889e+00 8.3165682788e-06 1.3731072612e+00 -2.3782915406e+00 1.3731072612e+00 2.3782915406e+00 
63200 6.3460111048e+00 8.4435575948e-06 1.3731072612e+00 -2.3782915406e+00 1.3731072612e+00 2.3782915406e+00 
63300 6.3460102070e+00 8.5725067987e-06 1.3731072612e+00 -2.3782915406e+00 1.3731072612e+00 2.3782915406e+00 
63400 6.3460092951e+00 8.7034465779e-06 1.3731072612e+00 -2.3782915406e+00 1.3731072612e+00 2.3782915406e+00 
63500 6.3460083689e+00 8.8364081088e-06 1.3731072612e+00 -2.3782915406e+00 1.3731072612e+00 2.3782915406e+00 
63600 6.3460074283e+00 8.9714230657e-06 1.3731072612e+00 -2.3782915406e+00 1.3731072612e+00 2.3782915406e+00 
63700 6.3460064730e+00 9.1085236278e-06 1.3731072612e+00 -2.3782915406e+00 1.3731072612e+00 2.3782915406e+00 
63800 6.3460055027e+00 9.2477424887e-06 1.3731072612e+00 -2.3782915406e+00 1.3731072612e+00 2.3782915406e+00 
63900 6.3460045173e+00 9.3891128636e-06 1.3731072612e+00 -2.3782915406e+00 1.3731072612e+00 2.3782915406e+00 
64000 6.3460035165e+00 9.5326684986e-06 1.3731072612e+00 -2.3782915406e+00 1.3731072612e+00 2.3782915406e+00 
64100 6.3460024999e+00 9.6784436790e-06 1.3731072612e+00 -2.3782915406e+00 1.3731072612e+00 2.3782915406e+00 
64200 6.3460014675e+00 9.8264732384e-06 1.3731072612e+00 -2.3782915406e+00 1.3731072612e+00 2.3782915406e+00 
64300 6.3460004189e+00 9.9767925673e-06 1.3731072612e+00 -2.3782915406e+00 1.3731072612e+00 2.3782915406e+00 
64400 6.3459993539e+00 1.0129437622e-05 1.3731072612e+00 -2.3782915406e+00 1.3731072612e+00 2.3782915406e+00 
64500 6.3459982721e+00 1.0284444936e-05 1.3731072612e+00 -2.3782915406e+00 1.3731072612e+00 2.3782915406e+00 
64600 6.3459971734e+00 1.0441851625e-05 1.3731072612e+00 -2.3782915406e+00 1.3731072612e+00 2.3782915406e+00 
64700 6.3459960575e+00 1.0601695401e-05 1.3731072612e+00 -2.3782915406e+00 1.3731072612e+00 2.3782915406e+00 
64800 6.3459949241e+00 1.0764014579e-05 1.3731072612e+00 -2.3782915406e+00 1.3731072612e+00 2.3782915406e+00 
64900 6.3459937728e+00 1.0928848089e-05 1.3731072612e+00 -2.3782915406e+00 1.3731072612e+00 2.3782915406e+00 
65000 6.3459926035e+00 1.1096235485e-05 1.3731072612e+00 -2.3782915406e+00 1.3731072612e+00 2.3782915406e+00 
65100 6.3459914158e+00 1.1266216954e-05 1.3731072612e+00 -2.3782915406e+00 1.3731072612e+00 2.3782915406e+00 
65200 6.3459902095e+00 1.1438833329e-05 1.3731072612e+00 -2.3782915406e+00 1.3731072612e+00 2.3782915406e+00 
65300 6.3459889842e+00 1.1614126098e-05 1.3731072612e+00 -2.3782915406e+00 1.3731072612e+00 2.3782915406e+00 
65400 6.3459877396e+00 1.1792137415e-05 1.3731072612e+00 -2.3782915406e+00 1.3731072612e+00 2.3782915406e+00 
65500 6.3459864754e+00 1.1972910110e-05 1.3731072612e+00 -2.3782915406e+00 1.3731072612e+00 2.3782915406e+00 
65600 6.3459851913e+00 1.2156487703e-05 1.3731072612e+00 -2.3782915406e+00 1.3731072612e+00 2.3782915406e+00 
65700 6.3459838870e+00 1.2342914412e-05 1.3731072612e+00 -2.3782915406e+00 1.3731072612e+00 2.3782915406e+00 
65800 6.3459825622e+00 1.2532235164e-05 1.3731072612e+00 -2.3782915406e+00 1.3731072612e+00 2.3782915406e+00 
65900 6.3459812165e+00 1.2724495613e-05 1.3731072612e+00 -2.3782915406e+00 1.3731072612e+00 2.3782915406e+00 
66000 6.3459798495e+00 1.2919742143e-05 1.3731072612e+00 -2.3782915406e+00 1.3731072612e+00 2.3782915406e+00 
66100 6.3459784610e+00 1.3118021886e-05 1.3731072612e+00 -2.3782915406e+00 1.3731072612e+00 2.3782915406e+00 
66200 6.3459770506e+00 1.3319382733e-05 1.3731072612e+00 -2.3782915406e+00 1.3731072612e+00 2.3782915406e+00 
66300 6.3459756180e+00 1.3523873346e-05 1.3731072612e+00 -2.3782915406e+00 1.3731072612e+00 2.3782915406e+00 
66400 6.3459741627e+00 1.3731543170e-05 1.3731072612e+00 -2.3782915406e+00 1.3731072612e+00 2.3782915406e+00 
66500 6.3459726844e+00 1.3942442449e-05 1.3731072612e+00 -2.3782915406e+00 1.3731072612e+00 2.3782915406e+00 
66600 6.3459711827e+00 1.4156622232e-05 1.3731072612e+00 -2.3782915406e+00 1.3731072612e+00 2.3782915406e+00 
66700 6.3459696573e+00 1.4374134397e-05 1.3731072612e+00 -2.3782915406e+00 1.3731072612e+00 2.3782915406e+00 
66800 6.3459681078e+00 1.4595031654e-05 1.3731072612e+00 -2.3782915406e+00 1.3731072612e+00 2.3782915406e+00 
66900 6.3459665338e+00 1.4819367567e-05 1.3731072612e+00 -2.3782915406e+00 1.3731072612e+00 2.3782915406e+00 
67000 6.3459649348e+00 1.5047196560e-05 1.3731072612e+00 -2.3782915406e+00 1.3731072612e+00 2.3782915406e+00 
67100 6.3459633105e+00 1.5278573941e-05 1.3731072612e+00 -2.3782915406e+00 1.3731072612e+00 2.3782915406e+00 
67200 6.3459616605e+00 1.5513555907e-05 1.3731072612e+00 -2.3782915406e+00 1.3731072612e+00 2.3782915406e+00 
67300 6.3459599843e+00 1.5752199564e-05 1.3731072612e+00 -2.3782915406e+00 1.3731072612e+00 2.3782915406e+00 
67400 6.3459582815e+00 1.5994562942e-05 1.3731072612e+00 -2.3782915406e+00 1.3731072612e+00 2.3782915406e+00 
67500 6.3459565517e+00 1.6240705008e-05 1.3731072612e+00 -2.3782915406e+00 1.3731072612e+00 2.3782915406e+00 
67600 6.3459547945e+00 1.6490685682e-05 1.3731072612e+00 -2.3782915406e+00 1.3731072612e+00 2.3782915406e+00 
67700 6.3459530093e+00 1.6744565854e-05 1.3731072612e+00 -2.3782915406e+00 1.3731072612e+00 2.3782915406e+00 
67800 6.3459511958e+00 1.7002407400e-05 1.3731072612e+00 -2.3782915406e+00 1.3731072612e+00 2.3782915406e+00 
67900 6.3459493534e+00 1.7264273195e-05 1.3731072612e+00 -2.3782915406e+00 1.3731072612e+00 2.3782915406e+00 
68000 6.3459474818e+00 1.7530227134e-05 1.3731072612e+00 -2.3782915406e+00 1.3731072612e+00 2.3782915406e+00 
68100 6.3459455803e+00 1.7800334146e-05 1.3731072612e+00 -2.3782915406e+00 1.3731072612e+00 2.3782915406e+00 
68200 6.3459436486e+00 1.8074660212e-05 1.3731072612e+00 -2.3782915406e+00 1.3731072612e+00 2.3782915406e+00 
68300 6.3459416862e+00 1.8353272383e-05 1.3731072612e+00 -2.3782915406e+00 1.3731072612e+00 2.3782915406e+00 
68400 6.3459396924e+00 1.8636238795e-05 1.3731072612e+00 -2.3782915406e+00 1.3731072612e+00 2.3782915406e+00 
68500 6.3459376669e+00 1.8923628690e-05 1.3731072612e+00 -2.3782915406e+00 1.3731072612e+00 2.3782915406e+00 
68600 6.3459356091e+00 1.9215512434e-05 1.3731072612e+00 -2.3782915406e+00 1.3731072612e+00 2.3782915406e+00 
68700 6.3459335184e+00 1.9511961532e-05 1.3731072612e+00 -2.3782915406e+00 1.3731072612e+00 2.3782915406e+00 
68800 6.3459313944e+00 1.9813048652e-05 1.3731072612e+00 -2.3782915406e+00 1.3731072612e+00 2.3782915406e+00 
68900 6.3459292364e+00 2.0118847639e-05 1.3731072612e+00 -2.3782915406e+00 1.3731072612e+00 2.3782915406e+00 
69000 6.3459270440e+00 2.0429433540e-05 1.3731072612e+00 -2.3782915406e+00 1.3731072612e+00 2.3782915406e+00 
69100 6.3459248165e+00 2.0744882619e-05 1.3731072612e+00 -2.3782915406e+00 1.3731072612e+00 2.3782915406e+00 
69200 6.3459225533e+00 2.1065272380e-05 1.3731072612e+00 -2.3782915406e+00 1.3731072612e+00 2.3782915406e+00 
69300 6.3459202540e+00 2.1390681585e-05 1.3731072612e+00 -2.3782915406e+00 1.3731072612e+00 2.3782915406e+00 
69400 6.3459179178e+00 2.1721190278e-05 1.3731072612e+00 -2.3782915406e+00 1.3731072612e+00 2.3782915406e+00 
69500 6.3459155442e+00 2.2056879804e-05 1.3731072612e+00 -2.3782915406e+00 1.3731072612e+00 2.3782915406e+00 
69600 6.3459131325e+00 2.2397832831e-05 1.3731072612e+00 -2.3782915406e+00 1.3731072612e+00 2.3782915406e+00 
69700 6.3459106822e+00 2.2744133370e-05 1.3731072612e+00 -2.3782915406e+00 1.3731072612e+00 2.3782915406e+00 
69800 6.3459081926e+00 2.3095866803e-05 1.3731072612e+00 -2.3782915406e+00 1.3731072612e+00 2.3782915406e+00 
69900 6.3459056629e+00 2.3453119898e-05 1.3731072612e+00 -2.3782915406e+00 1.3731072612e+00 2.3782915406e+00 
70000 6.3459030927e+00 2.3815980837e-05 1.3731072612e+00 -2.3782915406e+00 1.3731072612e+00 2.3782915406e+00 
70100 6.3459004811e+00 2.4184539239e-05 1.3731072612e+00 -2.3782915406e+00 1.3731072612e+00 2.3782915406e+00 
70200 6.3458978275e+00 2.4558886180e-05 1.3731072612e+00 -2.3782915406e+00 1.3731072612e+00 2.3782915406e+00 
70300 6.3458951313e+00 2.4939114223e-05 1.3731072612e+00 -2.3782915406e+00 1.3731072612e+00 2.3782915406e+00 
70400 6.3458923916e+00 2.5325317436e-05 1.3731072612e+00 -2.3782915406e+00 1.3731072612e+00 2.3782915406e+00 
70500 6.3458896079e+00 2.5717591424e-05 1.3731072612e+00 -2.3782915406e+00 1.3731072612e+00 2.3782915406e+00 
70600 6.3458867792e+00 2.6116033348e-05 1.3731072612e+00 -2.3782915406e+00 1.3731072612e+00 2.3782915406e+00 
70700 6.3458839049e+00 2.6520741952e-05 1.3731072612e+00 -2.3782915406e+00 1.3731072612e+00 2.3782915406e+00 
70800 6.3458809843e+00 2.6931817595e-05 1.3731072612e+00 -2.3782915406e+00 1.3731072612e+00 2.3782915406e+00 
70900 6.3458780165e+00 2.7349362269e-05 1.3731072612e+00 -2.3782915406e+00 1.3731072612e+00 2.3782915406e+00 
71000 6.3458750008e+00 2.7773479631e-05 1.3731072612e+00 -2.3782915406e+00 1.3731072612e+00 2.3782915406e+00 
71100 6.3458719363e+00 2.8204275030e-05 1.3731072612e+00 -2.3782915406e+00 1.3731072612e+00 2.3782915406e+00 
71200 6.3458688223e+00 2.8641855536e-05 1.3731072612e+00 -2.3782915406e+00 1.3731072612e+00 2.3782915406e+00 
71300 6.3458656579e+00 2.9086329963e-05 1.3731072612e+00 -2.3782915406e+00 1.3731072612e+00 2.3782915406e+00 
71400 6.3458624423e+00 2.9537808905e-05 1.3731072612e+00 -2.3782915406e+00 1.3731072612e+00 2.3782915406e+00 
71500 6.3458591746e+00 2.9996404761e-05 1.3731072612e+00 -2.3782915406e+00 1.3731072612e+00 2.3782915406e+00 
71600 6.3458558539e+00 3.0462231766e-05 1.3731072612e+00 -2.3782915406e+00 1.3731072612e+00 2.3782915406e+00 
71700 6.3458524794e+00 3.0935406019e-05 1.3731072612e+00 -2.3782915406e+00 1.3731072612e+00 2.3782915406e+00 
71800 6.3458490500e+00 3.1416045518e-05 1.3731072612e+00 -2.3782915406e+00 1.3731072612e+00 2.3782915406e+00 
71900 6.3458455650e+00 3.1904270188e-05 1.3731072612e+00 -2.3782915406e+00 1.3731072612e+00 2.3782915406e+00 
72000 6.3458420234e+00 3.2400201914e-05 1.3731072612e+00 -2.3782915406e+00 1.3731072612e+00 2.3782915406e+00 
72100 6.3458384242e+00 3.2903964573e-05 1.3731072612e+00 -2.3782915406e+00 1.3731072612e+00 2.3782915406e+00 
72200 6.3458347665e+00 3.3415684066e-05 1.3731072612e+00 -2.3782915406e+00 1.3731072612e+00 2.3782915406e+00 
72300 6.3458310492e+00 3.3935488354e-05 1.3731072612e+00 -2.3782915406e+00 1.3731072612e+00 2.3782915406e+00 
72400 6.3458272713e+00 3.4463507486e-05 1.3731072612e+00 -2.3782915406e+00 1.3731072612e+00 2.3782915406e+00 
72500 6.3458234319e+00 3.4999873641e-05 1.3731072612e+00 -2.3782915406e+00 1.3731072612e+00 2.3782915406e+00 
72600 6.3458195299e+00 3.5544721158e-05 1.3731072612e+00 -2.3782915406e+00 1.3731072612e+00 2.3782915406e+00 
72700 6.3458155642e+00 3.6098186572e-05 1.3731072612e+00 -2.3782915406e+00 1.3731072612e+00 2.3782915406e+00 
72800 6.3458115337e+00 3.6660408651e-05 1.3731072612e+00 -2.3782915406e+00 1.3731072612e+00 2.3782915406e+00 
72900 6.3458074374e+00 3.7231528432e-05 1.3731072612e+00 -2.3782915406e+00 1.3731072612e+00 2.3782915406e+00 
73000 6.3458032740e+00 3.7811689259e-05 1.3731072612e+00 -2.3782915406e+00 1.3731072612e+00 2.3782915406e+00 
73100 6.3457990426e+00 3.8401036820e-05 1.3731072612e+00 -2.3782915406e+00 1.3731072612e+00 2.3782915406e+00 
73200 6.3457947419e+00 3.8999719185e-05 1.3731072612e+00 -2.3782915406e+00 1.3731072612e+00 2.3782915406e+00 
73300 6.3457903707e+00 3.9607886846e-05 1.3731072612e+00 -2.3782915406e+00 1.3731072612e+00 2.3782915406e+00 
73400 6.3457859279e+00 4.0225692756e-05 1.3731072612e+00 -2.3782915406e+00 1.3731072612e+00 2.3782915406e+00 
73500 6.3457814121e+00 4.0853292370e-05 1.3731072612e+00 -2.3782915406e+00 1.3731072612e+00 2.3782915406e+00 
73600 6.3457768223e+00 4.1490843683e-05 1.3731072612e+00 -2.3782915406e+00 1.3731072612e+00 2.3782915406e+00 
73700 6.3457721570e+00 4.2138507276e-05 1.3731072612e+00 -2.3782915406e+00 1.3731072612e+00 2.3782915406e+00 
73800 6.3457674151e+00 4.2796446355e-05 1.3731072612e+00 -2.3782915406e+00 1.3731072612e+00 2.3782915406e+00 
73900 6.3457625951e+00 4.3464826793e-05 1.3731072612e+00 -2.3782915406e+00 1.3731072612e+00 2.3782915406e+00 
74000 6.3457576958e+00 4.4143817177e-05 1.3731072612e+00 -2.3782915406e+00 1.3731072612e+00 2.3782915406e+00 
74100 6.3457527158e+00 4.4833588846e-05 1.3731072612e+00 -2.3782915406e+00 1.3731072612e+00 2.3782915406e+00 
74200 6.3457476536e+00 4.5534315945e-05 1.3731072612e+00 -2.3782915406e+00 1.3731072612e+00 2.3782915406e+00 
74300 6.3457425080e+00 4.6246175460e-05 1.3731072612e+00 -2.3782915406e+00 1.3731072612e+00 2.3782915406e+00 
74400 6.3457372774e+00 4.6969347272e-05 1.3731072612e+00 -2.3782915406e+00 1.3731072612e+00 2.3782915406e+00 
74500 6.3457319604e+00 4.7704014200e-05 1.3731072612e+00 -2.3782915406e+00 1.3731072612e+00 2.3782915406e+00 
74600 6.3457265555e+00 4.8450362048e-05 1.3731072612e+00 -2.3782915406e+00 1.3731072612e+00 2.3782915406e+00 
74700 6.3457210612e+00 4.9208579657e-05 1.3731072612e+00 -2.3782915406e+00 1.3731072612e+00 2.3782915406e+00 
74800 6.3457154759e+00 4.9978858949e-05 1.3731072612e+00 -2.3782915406e+00 1.3731072612e+00 2.3782915406e+00 
74900 6.3457097981e+00 5.0761394981e-05 1.3731072612e+00 -2.3782915406e+00 1.3731072612e+00 2.3782915406e+00 
75000 6.3457040261e+00 5.1556385991e-05 1.3731072612e+00 -2.3782915406e+00 1.3731072612e+00 2.3782915406e+00 
75100 6.3456981583e+00 5.2364033455e-05 1.3731072612e+00 -2.3782915406e+00 1.3731072612e+00 2.3782915406e+00 
75200 6.3456921931e+00 5.3184542131e-05 1.3731072612e+00 -2.3782915406e+00 1.3731072612e+00 2.3782915406e+00 
75300 6.3456861288e+00 5.4018120121e-05 1.3731072612e+00 -2.3782915406e+00 1.3731072612e+00 2.3782915406e+00 
75400 6.3456799636e+00 5.4864978914e-05 1.3731072612e+00 -2.3782915406e+00 1.3731072612e+00 2.3782915406e+00 
75500 6.3456736958e+00 5.5725333450e-05 1.3731072612e+00 -2.3782915406e+00 1.3731072612e+00 2.3782915406e+00 
75600 6.3456673236e+00 5.6599402168e-05 1.3731072612e+00 -2.3782915406e+00 1.3731072612e+00 2.3782915406e+00 
75700 6.3456608451e+00 5.7487407064e-05 1.3731072612e+00 -2.3782915406e+00 1.3731072612e+00 2.3782915406e+00 
75800 6.3456542586e+00 5.8389573749e-05 1.3731072612e+00 -2.3782915406e+00 1.3731072612e+00 2.3782915406e+00 
75900 6.3456475621e+00 5.9306131502e-05 1.3731072612e+00 -2.3782915406e+00 1.3731072612e+00 2.3782915406e+00 
76000 6.3456407537e+00 6.0237313335e-05 1.3731072612e+00 -2.3782915406e+00 1.3731072612e+00 2.3782915406e+00 
76100 6.3456338315e+00 6.1183356043e-05 1.3731072612e+00 -2.3782915406e+00 1.3731072612e+00 2.3782915406e+00 
76200 6.3456267934e+00 6.2144500271e-05 1.3731072612e+00 -2.3782915406e+00 1.3731072612e+00 2.3782915406e+00 
76300 6.3456196374e+00 6.3120990571e-05 1.3731072612e+00 -2.3782915406e+00 1.3731072612e+00 2.3782915406e+00 
76400 6.3456123615e+00 6.4113075464e-05 1.3731072612e+00 -2.3782915406e+00 1.3731072612e+00 2.3782915406e+00 
76500 6.3456049635e+00 6.5121007504e-05 1.3731072612e+00 -2.3782915406e+00 1.3731072612e+00 2.3782915406e+00 
76600 6.3455974412e+00 6.6145043335e-05 1.3731072612e+00 -2.3782915406e+00 1.3731072612e+00 2.3782915406e+00 
76700 6.3455897926e+00 6.7185443762e-05 1.3731072612e+00 -2.3782915406e+00 1.3731072612e+00 2.3782915406e+00 
76800 6.3455820153e+00 6.8242473811e-05 1.3731072612e+00 -2.3782915406e+00 1.3731072612e+00 2.3782915406e+00 
76900 6.3455741071e+00 6.9316402796e-05 1.3731072612e+00 -2.3782915406e+00 1.3731072612e+00 2.3782915406e+00 
77000 6.3455660656e+00 7.0407504385e-05 1.3731072612e+00 -2.3782915406e+00 1.3731072612e+00 2.3782915406e+00 
77100 6.3455578886e+00 7.1516056667e-05 1.3731072612e+00 -2.3782915406e+00 1.3731072612e+00 2.3782915406e+00 
77200 6.3455495733e+00 7.2633705650e-05 1.3731046570e+00 -2.3782870301e+00 1.3731046570e+00 2.3782870301e+00 
77300 6.3455411175e+00 7.3768930705e-05 1.3731020121e+00 -2.3782824490e+00 1.3731020121e+00 2.3782824490e+00 
77400 6.3455325188e+00 7.4922009826e-05 1.3730993259e+00 -2.3782777964e+00 1.3730993259e+00 2.3782777964e+00 
77500 6.3455237746e+00 7.6093224936e-05 1.3730965977e+00 -2.3782730710e+00 1.3730965977e+00 2.3782730710e+00 
77600 6.3455148823e+00 7.7282861957e-05 1.3730938269e+00 -2.3782682717e+00 1.3730938269e+00 2.3782682717e+00 
77700 6.3455058392e+00 7.8491210880e-05 1.3730910127e+00 -2.3782633974e+00 1.3730910127e+00 2.3782633974e+00 
77800 6.3454966427e+00 7.9718565837e-05 1.3730881545e+00 -2.3782584468e+00 1.3730881545e+00 2.3782584468e+00 
77900 6.3454872901e+00 8.0965225167e-05 1.3730852516e+00 -2.3782534189e+00 1.3730852516e+00 2.3782534189e+00 
78000 6.3454777784e+00 8.2231491488e-05 1.3730823033e+00 -2.3782483123e+00 1.3730823033e+00 2.3782483123e+00 
78100 6.3454681050e+00 8.3517671755e-05 1.3730793089e+00 -2.3782431258e+00 1.3730793089e+00 2.3782431258e+00 
78200 6.3454582668e+00 8.4824077329e-05 1.3730762676e+00 -2.3782378582e+00 1.3730762676e+00 2.3782378582e+00 
78300 6.3454482610e+00 8.6151024038e-05 1.3730731788e+00 -2.3782325082e+00 1.3730731788e+00 2.3782325082e+00 
78400 6.3454380845e+00 8.7498832241e-05 1.3730700416e+00 -2.3782270745e+00 1.3730700416e+00 2.3782270745e+00 
78500 6.3454277342e+00 8.8867826885e-05 1.3730668554e+00 -2.3782215557e+00 1.3730668554e+00 2.3782215557e+00 
78600 6.3454172070e+00 9.0258337571e-05 1.3730636193e+00 -2.3782159506e+00 1.3730636193e+00 2.3782159506e+00 
78700 6.3454064997e+00 9.1670698605e-05 1.3730603325e+00 -2.3782102578e+00 1.3730603325e+00 2.3782102578e+00 
78800 6.3453956091e+00 9.3105249065e-05 1.3730569944e+00 -2.3782044759e+00 1.3730569944e+00 2.3782044759e+00 
78900 6.3453845318e+00 9.4562332851e-05 1.3730536039e+00 -2.3781986035e+00 1.3730536039e+00 2.3781986035e+00 
79000 6.3453732645e+00 9.6042298746e-05 1.3730501604e+00 -2.3781926392e+00 1.3730501604e+00 2.3781926392e+00 
79100 6.3453618037e+00 9.7545500469e-05 1.3730466630e+00 -2.3781865815e+00 1.3730466630e+00 2.3781865815e+00 
79200 6.3453501459e+00 9.9072296731e-05 1.3730431109e+00 -2.3781804290e+00 1.3730431109e+00 2.3781804290e+00 
79300 6.3453382875e+00 1.0062305129e-04 1.3730395031e+00 -2.3781741802e+00 1.3730395031e+00 2.3781741802e+00 
79400 6.3453262248e+00 1.0219813300e-04 1.3730358389e+00 -2.3781678335e+00 1.3730358389e+00 2.3781678335e+00 
79500 6.3453139543e+00 1.0379791586e-04 1.3730321172e+00 -2.3781613875e+00 1.3730321172e+00 2.3781613875e+00 
79600 6.3453014719e+00 1.0542277909e-04 1.3730283374e+00 -2.3781548405e+00 1.3730283374e+00 2.3781548405e+00 
79700 6.3452887740e+00 1.0707310715e-04 1.3730244983e+00 -2.3781481911e+00 1.3730244983e+00 2.3781481911e+00 
79800 6.3452758565e+00 1.0874928979e-04 1.3730205991e+00 -2.3781414375e+00 1.3730205991e+00 2.3781414375e+00 
79900 6.3452627154e+00 1.1045172213e-04 1.3730166389e+00 -2.3781345782e+00 1.3730166389e+00 2.3781345782e+00 
80000 6.3452493466e+00 1.1218080466e-04 1.3730126167e+00 -2.3781276115e+00 1.3730126167e+00 2.3781276115e+00 
80100 6.3452357460e+00 1.1393694334e-04 1.3730085315e+00 -2.3781205358e+00 1.3730085315e+00 2.3781205358e+00 
80200 6.3452219092e+00 1.1572054959e-04 1.3730043823e+00 -2.3781133492e+00 1.3730043823e+00 2.3781133492e+00 
80300 6.3452078319e+00 1.1753204038e-04 1.3730001682e+00 -2.3781060501e+00 1.3730001682e+00 2.3781060501e+00 
80400 6.3451935097e+00 1.1937183824e-04 1.3729958881e+00 -2.3780986367e+00 1.3729958881e+00 2.3780986367e+00 
80500 6.3451789381e+00 1.2124037129e-04 1.3729915409e+00 -2.3780911073e+00 1.3729915409e+00 2.3780911073e+00 
80600 6.3451641125e+00 1.2313807334e-04 1.3729871258e+00 -2.3780834599e+00 1.3729871258e+00 2.3780834599e+00 
80700 6.3451490281e+00 1.2506538383e-04 1.3729826414e+00 -2.3780756929e+00 1.3729826414e+00 2.3780756929e+00 
80800 6.3451336801e+00 1.2702274797e-04 1.3729780869e+00 -2.3780678042e+00 1.3729780869e+00 2.3780678042e+00 
80900 6.3451180637e+00 1.2901061669e-04 1.3729734611e+00 -2.3780597921e+00 1.3729734611e+00 2.3780597921e+00 
81000 6.3451021739e+00 1.3102944670e-04 1.3729687629e+00 -2.3780516546e+00 1.3729687629e+00 2.3780516546e+00 
81100 6.3450860056e+00 1.3307970053e-04 1.3729639912e+00 -2.3780433896e+00 1.3729639912e+00 2.3780433896e+00 
81200 6.3450695536e+00 1.3516184654e-04 1.3729591447e+00 -2.3780349954e+00 1.3729591447e+00 2.3780349954e+00 
81300 6.3450528126e+00 1.3727635894e-04 1.3729542224e+00 -2.3780264697e+00 1.3729542224e+00 2.3780264697e+00 
81400 6.3450357772e+00 1.3942371783e-04 1.3729492231e+00 -2.3780178107e+00 1.3729492231e+00 2.3780178107e+00 
81500 6.3450184418e+00 1.4160440919e-04 1.3729441456e+00 -2.3780090162e+00 1.3729441456e+00 2.3780090162e+00 
81600 6.3450008010e+00 1.4381892493e-04 1.3729389887e+00 -2.3780000840e+00 1.3729389887e+00 2.3780000840e+00 
81700 6.3449828489e+00 1.4606776285e-04 1.3729337510e+00 -2.3779910122e+00 1.3729337510e+00 2.3779910122e+00 
81800 6.3449645797e+00 1.4835142670e-04 1.3729284315e+00 -2.3779817985e+00 1.3729284315e+00 2.3779817985e+00 
81900 6.3449459874e+00 1.5067042616e-04 1.3729230287e+00 -2.3779724407e+00 1.3729230287e+00 2.3779724407e+00 
82000 6.3449270660e+00 1.5302527683e-04 1.3729175415e+00 -2.3779629365e+00 1.3729175415e+00 2.3779629365e+00 
82100 6.3449078092e+00 1.5541650024e-04 1.3729119685e+00 -2.3779532838e+00 1.3729119685e+00 2.3779532838e+00 
82200 6.3448882107e+00 1.5784462386e-04 1.3729063084e+00 -2.3779434803e+00 1.3729063084e+00 2.3779434803e+00 
82300 6.3448682641e+00 1.6031018103e-04 1.3729005599e+00 -2.3779335235e+00 1.3729005599e+00 2.3779335235e+00 
82400 6.3448479627e+00 1.6281371101e-04 1.3728947215e+00 -2.3779234111e+00 1.3728947215e+00 2.3779234111e+00 
82500 6.3448272997e+00 1.6535575891e-04 1.3728887919e+00 -2.3779131408e+00 1.3728887919e+00 2.3779131408e+00 
82600 6.3448062684e+00 1.6793687570e-04 1.3728827698e+00 -2.3779027101e+00 1.3728827698e+00 2.3779027101e+00 
82700 6.3447848618e+00 1.7055761813e-04 1.3728766536e+00 -2.3778921165e+00 1.3728766536e+00 2.3778921165e+00 
82800 6.3447630726e+00 1.7321854874e-04 1.3728704419e+00 -2.3778813575e+00 1.3728704419e+00 2.3778813575e+00 
82900 6.3447408936e+00 1.7592023576e-04 1.3728641333e+00 -2.3778704307e+00 1.3728641333e+00 2.3778704307e+00 
83000 6.3447183173e+00 1.7866325313e-04 1.3728577262e+00 -2.3778593334e+00 1.3728577262e+00 2.3778593334e+00 
83100 6.3446953361e+00 1.8144818037e-04 1.3728512192e+00 -2.3778480629e+00 1.3728512192e+00 2.3778480629e+00 
83200 6.3446719423e+00 1.8427560255e-04 1.3728446108e+00 -2.3778366168e+00 1.3728446108e+00 2.3778366168e+00 
83300 6.3446481280e+00 1.8714611023e-04 1.3728378993e+00 -2.3778249922e+00 1.3728378993e+00 2.3778249922e+00 
83400 6.3446238850e+00 1.9006029933e-04 1.3728310833e+00 -2.3778131865e+00 1.3728310833e+00 2.3778131865e+00 
83500 6.3445992051e+00 1.9301877110e-04 1.3728241611e+00 -2.3778011969e+00 1.3728241611e+00 2.3778011969e+00 
83600 6.3445740798e+00 1.9602213196e-04 1.3728171311e+00 -2.3777890206e+00 1.3728171311e+00 2.3777890206e+00 
83700 6.3445485007e+00 1.9907099346e-04 1.3728099917e+00 -2.3777766548e+00 1.3728099917e+00 2.3777766548e+00 
83800 6.3445224589e+00 2.0216597209e-04 1.3728027412e+00 -2.3777640966e+00 1.3728027412e+00 2.3777640966e+00 
83900 6.3444959454e+00 2.0530768922e-04 1.3727953780e+00 -2.3777513431e+00 1.3727953780e+00 2.3777513431e+00 
84000 6.3444689511e+00 2.0849677090e-04 1.3727879003e+00 -2.3777383913e+00 1.3727879003e+00 2.3777383913e+00 
84100 6.3444414667e+00 2.1173384777e-04 1.3727803064e+00 -2.3777252383e+00 1.3727803064e+00 2.3777252383e+00 
84200 6.3444134826e+00 2.1501955485e-04 1.3727725945e+00 -2.3777118809e+00 1.3727725945e+00 2.3777118809e+00 
84300 6.3443849891e+00 2.1835453140e-04 1.3727647629e+00 -2.3776983163e+00 1.3727647629e+00 2.3776983163e+00 
84400 6.3443559762e+00 2.2173942072e-04 1.3727568099e+00 -2.3776845411e+00 1.3727568099e+00 2.3776845411e+00 
84500 6.3443264339e+00 2.2517486993e-04 1.3727487334e+00 -2.3776705523e+00 1.3727487334e+00 2.3776705523e+00 
84600 6.3442963517e+00 2.2866152982e-04 1.3727405318e+00 -2.3776563468e+00 1.3727405318e+00 2.3776563468e+00 
84700 6.3442657190e+00 2.3220005454e-04 1.3727322032e+00 -2.3776419211e+00 1.3727322032e+00 2.3776419211e+00 
84800 6.3442345252e+00 2.3579110141e-04 1.3727237456e+00 -2.3776272722e+00 1.3727237456e+00 2.3776272722e+00 
84900 6.3442027590e+00 2.3943533067e-04 1.3727151572e+00 -2.3776123966e+00 1.3727151572e+00 2.3776123966e+00 
85000 6.3441704093e+00 2.4313340514e-04 1.3727064360e+00 -2.3775972910e+00 1.3727064360e+00 2.3775972910e+00 
85100 6.3441374646e+00 2.4688599000e-04 1.3726975800e+00 -2.3775819520e+00 1.3726975800e+00 2.3775819520e+00 
85200 6.3441039130e+00 2.5069375244e-04 1.3726885873e+00 -2.3775663761e+00 1.3726885873e+00 2.3775663761e+00 
85300 6.3440697427e+00 2.5455736131e-04 1.3726794558e+00 -2.3775505599e+00 1.3726794558e+00 2.3775505599e+00 
85400 6.3440349412e+00 2.5847748681e-04 1.3726701835e+00 -2.3775344999e+00 1.3726701835e+00 2.3775344999e+00 
85500 6.3439994962e+00 2.6245480010e-04 1.3726607684e+00 -2.3775181924e+00 1.3726607684e+00 2.3775181924e+00 
85600 6.3439633949e+00 2.6648997290e-04 1.3726512083e+00 -2.3775016339e+00 1.3726512083e+00 2.3775016339e+00 
85700 6.3439266240e+00 2.7058367707e-04 1.3726415012e+00 -2.3774848207e+00 1.3726415012e+00 2.3774848207e+00 
85800 6.3438891704e+00 2.7473658418e-04 1.3726316449e+00 -2.3774677491e+00 1.3726316449e+00 2.3774677491e+00 
85900 6.3438510204e+00 2.7894936503e-04 1.3726216373e+00 -2.3774504153e+00 1.3726216373e+00 2.3774504153e+00 
86000 6.3438121601e+00 2.8322268919e-04 1.3726114761e+00 -2.3774328157e+00 1.3726114761e+00 2.3774328157e+00 
86100 6.3437725751e+00 2.8755722443e-04 1.3726011592e+00 -2.3774149462e+00 1.3726011592e+00 2.3774149462e+00 
86200 6.3437322511e+00 2.9195363620e-04 1.3725906843e+00 -2.3773968032e+00 1.3725906843e+00 2.3773968032e+00 
86300 6.3436911731e+00 2.9641258705e-04 1.3725800492e+00 -2.3773783826e+00 1.3725800492e+00 2.3773783826e+00 
86400 6.3436493260e+00 3.0093473603e-04 1.3725692515e+00 -2.3773596806e+00 1.3725692515e+00 2.3773596806e+00 
86500 6.3436066943e+00 3.0552073804e-04 1.3725582891e+00 -2.3773406931e+00 1.3725582891e+00 2.3773406931e+00 
86600 6.3435632622e+00 3.1017124313e-04 1.3725471595e+00 -2.3773214160e+00 1.3725471595e+00 2.3773214160e+00 
86700 6.3435190134e+00 3.1488689584e-04 1.3725358604e+00 -2.3773018454e+00 1.3725358604e+00 2.3773018454e+00 
86800 6.3434739314e+00 3.1966833441e-04 1.3725243894e+00 -2.3772819771e+00 1.3725243894e+00 2.3772819771e+00 
86900 6.3434279993e+00 3.2451619002e-04 1.3725127442e+00 -2.3772618070e+00 1.3725127442e+00 2.3772618070e+00 
87000 6.3433812000e+00 3.2943108597e-04 1.3725009222e+00 -2.3772413307e+00 1.3725009222e+00 2.3772413307e+00 
87100 6.3433335156e+00 3.3441363676e-04 1.3724889211e+00 -2.3772205442e+00 1.3724889211e+00 2.3772205442e+00 
87200 6.3432849282e+00 3.3946444728e-04 1.3724767384e+00 -2.3771994431e+00 1.3724767384e+00 2.3771994431e+00 
87300 6.3432354194e+00 3.4458411174e-04 1.3724643716e+00 -2.3771780231e+00 1.3724643716e+00 2.3771780231e+00 
87400 6.3431849703e+00 3.4977321278e-04 1.3724518181e+00 -2.3771562799e+00 1.3724518181e+00 2.3771562799e+00 
87500 6.3431335617e+00 3.5503232033e-04 1.3724390755e+00 -2.3771342090e+00 1.3724390755e+00 2.3771342090e+00 
87600 6.3430811740e+00 3.6036199055e-04 1.3724261411e+00 -2.3771118061e+00 1.3724261411e+00 2.3771118061e+00 
87700 6.3430277869e+00 3.6576276470e-04 1.3724130125e+00 -2.3770890666e+00 1.3724130125e+00 2.3770890666e+00 
87800 6.3429733799e+00 3.7123516787e-04 1.3723996870e+00 -2.3770659862e+00 1.3723996870e+00 2.3770659862e+00 
87900 6.3429179321e+00 3.7677970777e-04 1.3723861620e+00 -2.3770425602e+00 1.3723861620e+00 2.3770425602e+00 
88000 6.3428614220e+00 3.8239687337e-04 1.3723724348e+00 -2.3770187840e+00 1.3723724348e+00 2.3770187840e+00 
88100 6.3428038275e+00 3.8808713353e-04 1.3723585029e+00 -2.3769946532e+00 1.3723585029e+00 2.3769946532e+00 
88200 6.3427451264e+00 3.9385093554e-04 1.3723443635e+00 -2.3769701630e+00 1.3723443635e+00 2.3769701630e+00 
88300 6.3426852955e+00 3.9968870361e-04 1.3723300139e+00 -2.3769453089e+00 1.3723300139e+00 2.3769453089e+00 
88400 6.3426243116e+00 4.0560083726e-04 1.3723154516e+00 -2.3769200861e+00 1.3723154516e+00 2.3769200861e+00 
88500 6.3425621505e+00 4.1158770968e-04 1.3723006736e+00 -2.3768944900e+00 1.3723006736e+00 2.3768944900e+00 
88600 6.3424987878e+00 4.1764966599e-04 1.3722856774e+00 -2.3768685157e+00 1.3722856774e+00 2.3768685157e+00 
88700 6.3424341984e+00 4.2378702140e-04 1.3722704601e+00 -2.3768421586e+00 1.3722704601e+00 2.3768421586e+00 
88800 6.3423683568e+00 4.3000005933e-04 1.3722550190e+00 -2.3768154139e+00 1.3722550190e+00 2.3768154139e+00 
88900 6.3423012366e+00 4.3628902946e-04 1.3722393514e+00 -2.3767882768e+00 1.3722393514e+00 2.3767882768e+00 
89000 6.3422328112e+00 4.4265414559e-04 1.3722234545e+00 -2.3767607425e+00 1.3722234545e+00 2.3767607425e+00 
89100 6.3421630531e+00 4.4909558354e-04 1.3722073254e+00 -2.3767328062e+00 1.3722073254e+00 2.3767328062e+00 
89200 6.3420919342e+00 4.5561347885e-04 1.3721909615e+00 -2.3767044630e+00 1.3721909615e+00 2.3767044630e+00 
89300 6.3420194261e+00 4.6220792445e-04 1.3721743598e+00 -2.3766757081e+00 1.3721743598e+00 2.3766757081e+00 
89400 6.3419454993e+00 4.6887896822e-04 1.3721575177e+00 -2.3766465366e+00 1.3721575177e+00 2.3766465366e+00 
89500 6.3418701239e+00 4.7562661036e-04 1.3721404323e+00 -2.3766169438e+00 1.3721404323e+00 2.3766169438e+00 
89600 6.3417932694e+00 4.8245080079e-04 1.3721231008e+00 -2.3765869247e+00 1.3721231008e+00 2.3765869247e+00 
89700 6.3417149043e+00 4.8935143631e-04 1.3721055203e+00 -2.3765564746e+00 1.3721055203e+00 2.3765564746e+00 
89800 6.3416349967e+00 4.9632835772e-04 1.3720876882e+00 -2.3765255885e+00 1.3720876882e+00 2.3765255885e+00 
89900 6.3415535137e+00 5.0338134678e-04 1.3720696017e+00 -2.3764942616e+00 1.3720696017e+00 2.3764942616e+00 
90000 6.3414704220e+00 5.1051012304e-04 1.3720512578e+00 -2.3764624892e+00 1.3720512578e+00 2.3764624892e+00 
90100 6.3413856871e+00 5.1771434058e-04 1.3720326540e+00 -2.3764302663e+00 1.3720326540e+00 2.3764302663e+00 
90200 6.3412992741e+00 5.2499358454e-04 1.3720137873e+00 -2.3763975883e+00 1.3720137873e+00 2.3763975883e+00 
90300 6.3412111471e+00 5.3234736758e-04 1.3719946551e+00 -2.3763644504e+00 1.3719946551e+00 2.3763644504e+00 
90400 6.3411212694e+00 5.3977512618e-04 1.3719752547e+00 -2.3763308479e+00 1.3719752547e+00 2.3763308479e+00 
90500 6.3410296036e+00 5.4727621671e-04 1.3719555833e+00 -2.3762967760e+00 1.3719555833e+00 2.3762967760e+00 
90600 6.3409361113e+00 5.5484991145e-04 1.3719356382e+00 -2.3762622301e+00 1.3719356382e+00 2.3762622301e+00 
90700 6.3408407532e+00 5.6249539438e-04 1.3719154168e+00 -2.3762272057e+00 1.3719154168e+00 2.3762272057e+00 
90800 6.3407434892e+00 5.7021175684e-04 1.3718949165e+00 -2.3761916981e+00 1.3718949165e+00 2.3761916981e+00 
90900 6.3406442782e+00 5.7799799296e-04 1.3718741347e+00 -2.3761557029e+00 1.3718741347e+00 2.3761557029e+00 
91000 6.3405430783e+00 5.8585299496e-04 1.3718530687e+00 -2.3761192156e+00 1.3718530687e+00 2.3761192156e+00 
91100 6.3404398465e+00 5.9377554826e-04 1.3718317162e+00 -2.3760822319e+00 1.3718317162e+00 2.3760822319e+00 
91200 6.3403345388e+00 6.0176432636e-04 1.3718100745e+00 -2.3760447474e+00 1.3718100745e+00 2.3760447474e+00 
91300 6.3402271103e+00 6.0981788554e-04 1.3717881414e+00 -2.3760067581e+00 1.3717881414e+00 2.3760067581e+00 
91400 6.3401175150e+00 6.1793465936e-04 1.3717659143e+00 -2.3759682597e+00 1.3717659143e+00 2.3759682597e+00 
91500 6.3400057058e+00 6.2611295295e-04 1.3717433910e+00 -2.3759292482e+00 1.3717433910e+00 2.3759292482e+00 
91600 6.3398916346e+00 6.3435093706e-04 1.3717205693e+00 -2.3758897198e+00 1.3717205693e+00 2.3758897198e+00 
91700 6.3397752523e+00 6.4264664190e-04 1.3716974469e+00 -2.3758496707e+00 1.3716974469e+00 2.3758496707e+00 
91800 6.3396565083e+00 6.5099795071e-04 1.3716740218e+00 -2.3758090971e+00 1.3716740218e+00 2.3758090971e+00 
91900 6.3395353511e+00 6.5940259314e-04 1.3716502918e+00 -2.3757679956e+00 1.3716502918e+00 2.3757679956e+00 
92000 6.3394117282e+00 6.6785813837e-04 1.3716262550e+00 -2.3757263627e+00 1.3716262550e+00 2.3757263627e+00 
92100 6.3392855854e+00 6.7636198790e-04 1.3716019096e+00 -2.3756841952e+00 1.3716019096e+00 2.3756841952e+00 
92200 6.3391568677e+00 6.8491136819e-04 1.3715772538e+00 -2.3756414900e+00 1.3715772538e+00 2.3756414900e+00 
92300 6.3390255186e+00 6.9350332292e-04 1.3715522858e+00 -2.3755982443e+00 1.3715522858e+00 2.3755982443e+00 
92400 6.3388914803e+00 7.0213470505e-04 1.3715270042e+00 -2.3755544552e+00 1.3715270042e+00 2.3755544552e+00 
92500 6.3387546938e+00 7.1080216856e-04 1.3715014074e+00 -2.3755101203e+00 1.3715014074e+00 2.3755101203e+00 
92600 6.3386150986e+00 7.1950215983e-04 1.3714754942e+00 -2.3754652374e+00 1.3714754942e+00 2.3754652374e+00 
92700 6.3384726329e+00 7.2823090885e-04 1.3714492634e+00 -2.3754198042e+00 1.3714492634e+00 2.3754198042e+00 
92800 6.3383272334e+00 7.3698441998e-04 1.3714227138e+00 -2.3753738189e+00 1.3714227138e+00 2.3753738189e+00 
92900 6.3381788354e+00 7.4575846247e-04 1.3713958445e+00 -2.3753272800e+00 1.3713958445e+00 2.3753272800e+00 
93000 6.3380273727e+00 7.5454856062e-04 1.3713686549e+00 -2.3752801861e+00 1.3713686549e+00 2.3752801861e+00 
93100 6.3378727776e+00 7.6334998360e-04 1.3713411442e+00 -2.3752325362e+00 1.3713411442e+00 2.3752325362e+00 
93200 6.3377149808e+00 7.7215773493e-04 1.3713133120e+00 -2.3751843295e+00 1.3713133120e+00 2.3751843295e+00 
93300 6.3375539113e+00 7.8096654156e-04 1.3712851582e+00 -2.3751355656e+00 1.3712851582e+00 2.3751355656e+00 
93400 6.3373894967e+00 7.8977084270e-04 1.3712566825e+00 -2.3750862444e+00 1.3712566825e+00 2.3750862444e+00 
93500 6.3372216629e+00 7.9856477810e-04 1.3712278853e+00 -2.3750363661e+00 1.3712278853e+00 2.3750363661e+00 
93600 6.3370503338e+00 8.0734217614e-04 1.3711987668e+00 -2.3749859314e+00 1.3711987668e+00 2.3749859314e+00 
93700 6.3368754319e+00 8.1609654135e-04 1.3711693276e+00 -2.3749349412e+00 1.3711693276e+00 2.3749349412e+00 
93800 6.3366968778e+00 8.2482104169e-04 1.3711395686e+00 -2.3748833971e+00 1.3711395686e+00 2.3748833971e+00 
93900 6.3365145904e+00 8.3350849530e-04 1.3711094908e+00 -2.3748313007e+00 1.3711094908e+00 2.3748313007e+00 
94000 6.3363284864e+00 8.4215135691e-04 1.3710790955e+00 -2.3747786546e+00 1.3710790955e+00 2.3747786546e+00 
94100 6.3361384809e+00 8.5074170381e-04 1.3710483843e+00 -2.3747254613e+00 1.3710483843e+00 2.3747254613e+00 
94200 6.3359444871e+00 8.5927122135e-04 1.3710173592e+00 -2.3746717242e+00 1.3710173592e+00 2.3746717242e+00 
94300 6.3357464161e+00 8.6773118810e-04 1.3709860223e+00 -2.3746174472e+00 1.3709860223e+00 2.3746174472e+00 
94400 6.3355441769e+00 8.7611246049e-04 1.3709543762e+00 -2.3745626345e+00 1.3709543762e+00 2.3745626345e+00 
94500 6.3353376765e+00 8.8440545701e-04 1.3709224237e+00 -2.3745072911e+00 1.3709224237e+00 2.3745072911e+00 
94600 6.3351268200e+00 8.9260014198e-04 1.3708901680e+00 -2.3744514225e+00 1.3708901680e+00 2.3744514225e+00 
94700 6.3349115100e+00 9.0068600888e-04 1.3708576126e+00 -2.3743950350e+00 1.3708576126e+00 2.3743950350e+00 
94800 6.3346916473e+00 9.0865206320e-04 1.3708247615e+00 -2.3743381353e+00 1.3708247615e+00 2.3743381353e+00 
94900 6.3344671300e+00 9.1648680478e-04 1.3707916191e+00 -2.3742807310e+00 1.3707916191e+00 2.3742807310e+00 
95000 6.3342378543e+00 9.2417820978e-04 1.3707581902e+00 -2.3742228303e+00 1.3707581902e+00 2.3742228303e+00 
95100 6.3340037139e+00 9.3171371214e-04 1.3707244798e+00 -2.3741644423e+00 1.3707244798e+00 2.3741644423e+00 
95200 6.3337646001e+00 9.3908018450e-04 1.3706904938e+00 -2.3741055767e+00 1.3706904938e+00 2.3741055767e+00 
95300 6.3335204020e+00 9.4626391880e-04 1.3706562382e+00 -2.3740462443e+00 1.3706562382e+00 2.3740462443e+00 
95400 6.3332710059e+00 9.5325060629e-04 1.3706217197e+00 -2.3739864565e+00 1.3706217197e+00 2.3739864565e+00 
95500 6.3330162959e+00 9.6002531714e-04 1.3705869455e+00 -2.3739262257e+00 1.3705869455e+00 2.3739262257e+00 
95600 6.3327561533e+00 9.6657247956e-04 1.3705519232e+00 -2.3738655654e+00 1.3705519232e+00 2.3738655654e+00 
95700 6.3324904568e+00 9.7287585852e-04 1.3705166612e+00 -2.3738044898e+00 1.3705166612e+00 2.3738044898e+00 
95800 6.3322190827e+00 9.7891853397e-04 1.3704811683e+00 -2.3737430143e+00 1.3704811683e+00 2.3737430143e+00 
95900 6.3319419044e+00 9.8468287865e-04 1.3704454541e+00 -2.3736811554e+00 1.3704454541e+00 2.3736811554e+00 
96000 6.3316587924e+00 9.9015053549e-04 1.3704095286e+00 -2.3736189307e+00 1.3704095286e+00 2.3736189307e+00 
96100 6.3313696148e+00 9.9530239462e-04 1.3703734026e+00 -2.3735563587e+00 1.3703734026e+00 2.3735563587e+00 
96200 6.3310742364e+00 1.0001185699e-03 1.3703370878e+00 -2.3734934596e+00 1.3703370878e+00 2.3734934596e+00 
96300 6.3307725194e+00 1.0045783751e-03 1.3703005963e+00 -2.3734302544e+00 1.3703005963e+00 2.3734302544e+00 
96400 6.3304643231e+00 1.0086603001e-03 1.3702639410e+00 -2.3733667656e+00 1.3702639410e+00 2.3733667656e+00 
96500 6.3301495034e+00 1.0123419857e-03 1.3702271359e+00 -2.3733030172e+00 1.3702271359e+00 2.3733030172e+00 
96600 6.3298279137e+00 1.0156001998e-03 1.3701901954e+00 -2.3732390344e+00 1.3701901954e+00 2.3732390344e+00 
96700 6.3294994040e+00 1.0184108115e-03 1.3701531350e+00 -2.3731748439e+00 1.3701531350e+00 2.3731748439e+00 
96800 6.3291638211e+00 1.0207487664e-03 1.3701159710e+00 -2.3731104741e+00 1.3701159710e+00 2.3731104741e+00 
96900 6.3288210089e+00 1.0225880607e-03 1.3700787207e+00 -2.3730459547e+00 1.3700787207e+00 2.3730459547e+00 
97000 6.3284708079e+00 1.0239017160e-03 1.3700414023e+00 -2.3729813173e+00 1.3700414023e+00 2.3729813173e+00 
97100 6.3281130553e+00 1.0246617531e-03 1.3700040349e+00 -2.3729165951e+00 1.3700040349e+00 2.3729165951e+00 
97200 6.3277475851e+00 1.0248391664e-03 1.3699666388e+00 -2.3728518231e+00 1.3699666388e+00 2.3728518231e+00 
97300 6.3273742279e+00 1.0244038980e-03 1.3699292352e+00 -2.3727870381e+00 1.3699292352e+00 2.3727870381e+00 
97400 6.3269928110e+00 1.0233248117e-03 1.3698918464e+00 -2.3727222789e+00 1.3698918464e+00 2.3727222789e+00 
97500 6.3266031580e+00 1.0215696677e-03 1.3698544960e+00 -2.3726575861e+00 1.3698544960e+00 2.3726575861e+00 
97600 6.3262050894e+00 1.0191050966e-03 1.3698172087e+00 -2.3725930025e+00 1.3698172087e+00 2.3725930025e+00 
97700 6.3257984220e+00 1.0158965744e-03 1.3697800102e+00 -2.3725285729e+00 1.3697800102e+00 2.3725285729e+00 
97800 6.3253829691e+00 1.0119083973e-03 1.3697429279e+00 -2.3724643445e+00 1.3697429279e+00 2.3724643445e+00 
97900 6.3249585405e+00 1.0071036573e-03 1.3697059902e+00 -2.3724003665e+00 1.3697059902e+00 2.3724003665e+00 
98000 6.3245249422e+00 1.0014442179e-03 1.3696692269e+00 -2.3723366905e+00 1.3696692269e+00 2.3723366905e+00 
98100 6.3240819769e+00 9.9489069086e-04 1.3696326692e+00 -2.3722733707e+00 1.3696326692e+00 2.3722733707e+00 
98200 6.3236294434e+00 9.8740241316e-04 1.3695963497e+00 -2.3722104635e+00 1.3695963497e+00 2.3722104635e+00 
98300 6.3231671369e+00 9.7893742511e-04 1.3695603026e+00 -2.3721480282e+00 1.3695603026e+00 2.3721480282e+00 
98400 6.3226948491e+00 9.6945244923e-04 1.3695245637e+00 -2.3720861265e+00 1.3695245637e+00 2.3720861265e+00 
98500 6.3222123678e+00 9.5890287023e-04 1.3694891701e+00 -2.3720248230e+00 1.3694891701e+00 2.3720248230e+00 
98600 6.3217194771e+00 9.4724271615e-04 1.3694541607e+00 -2.3719641850e+00 1.3694541607e+00 2.3719641850e+00 
98700 6.3212159576e+00 9.3442464083e-04 1.3694195762e+00 -2.3719042828e+00 1.3694195762e+00 2.3719042828e+00 
98800 6.3207015860e+00 9.2039990781e-04 1.3693854588e+00 -2.3718451898e+00 1.3693854588e+00 2.3718451898e+00 
98900 6.3201761354e+00 9.0511837588e-04 1.3693518526e+00 -2.3717869822e+00 1.3693518526e+00 2.3717869822e+00 
99000 6.3196393752e+00 8.8852848641e-04 1.3693188036e+00 -2.3717297396e+00 1.3693188036e+00 2.3717297396e+00 
99100 6.3190910710e+00 8.7057725264e-04 1.3692863595e+00 -2.3716735448e+00 1.3692863595e+00 2.3716735448e+00 
99200 6.3185309849e+00 8.5121025108e-04 1.3692545702e+00 -2.3716184841e+00 1.3692545702e+00 2.3716184841e+00 
99300 6.3179588753e+00 8.3037161528e-04 1.3692234873e+00 -2.3715646470e+00 1.3692234873e+00 2.3715646470e+00 
99400 6.3173744970e+00 8.0800403203e-04 1.3691931647e+00 -2.3715121267e+00 1.3691931647e+00 2.3715121267e+00 
99500 6.3167776014e+00 7.8404874045e-04 1.3691636583e+00 -2.3714610200e+00 1.3691636583e+00 2.3714610200e+00 
99600 6.3161679360e+00 7.5844553381e-04 1.3691350260e+00 -2.3714114274e+00 1.3691350260e+00 2.3714114274e+00 
99700 6.3155452452e+00 7.3113276471e-04 1.3691073281e+00 -2.3713634533e+00 1.3691073281e+00 2.3713634533e+00 
99800 6.3149092698e+00 7.0204735347e-04 1.3690806271e+00 -2.3713172058e+00 1.3690806271e+00 2.3713172058e+00 
99900 6.3142597475e+00 6.7112480032e-04 1.3690549878e+00 -2.3712727972e+00 1.3690549878e+00 2.3712727972e+00 
100000 6.3135964125e+00 6.3829920131e-04 1.3690304774e+00 -2.3712303439e+00 1.3690304774e+00 2.3712303439e+00 
100100 6.3129189958e+00 6.0350326841e-04 1.3690071653e+00 -2.3711899663e+00 1.3690071653e+00 2.3711899663e+00 
100200 6.3122272257e+00 5.6666835402e-04 1.3689851238e+00 -2.3711517892e+00 1.3689851238e+00 2.3711517892e+00 
100300 6.3115208273e+00 5.2772448003e-04 1.3689644272e+00 -2.3711159416e+00 1.3689644272e+00 2.3711159416e+00 
100400 6.3107995226e+00 4.8660037185e-04 1.3689451526e+00 -2.3710825571e+00 1.3689451526e+00 2.3710825571e+00 
100500 6.3100630315e+00 4.4322349761e-04 1.3689273798e+00 -2.3710517737e+00 1.3689273798e+00 2.3710517737e+00 
100600 6.3093110707e+00 3.9752011276e-04 1.3689111911e+00 -2.3710237341e+00 1.3689111911e+00 2.3710237341e+00 
100700 6.3085433550e+00 3.4941531049e-04 1.3688966716e+00 -2.3709985855e+00 1.3688966716e+00 2.3709985855e+00 
100800 6.3077595965e+00 2.9883307806e-04 1.3688839090e+00 -2.3709764800e+00 1.3688839090e+00 2.3709764800e+00 
100900 6.3069595057e+00 2.4569635945e-04 1.3688729938e+00 -2.3709575743e+00 1.3688729938e+00 2.3709575743e+00 
101000 6.3061427908e+00 1.8992712460e-04 1.3688640194e+00 -2.3709420302e+00 1.3688640194e+00 2.3709420302e+00 
101100 6.3053091585e+00 1.3144644540e-04 1.3688570820e+00 -2.3709300143e+00 1.3688570820e+00 2.3709300143e+00 
101200 6.3044583141e+00 7.0174578824e-05 1.3688522807e+00 -2.3709216982e+00 1.3688522807e+00 2.3709216982e+00 
101300 6.3035899613e+00 6.5554135989e-06 1.3688522807e+00 -2.3709216982e+00 1.3688522807e+00 2.3709216982e+00 
101400 6.3027038032e+00 -6.0482611903e-05 1.3688522807e+00 -2.3709216982e+00 1.3688522807e+00 2.3709216982e+00 
101500 6.3017995429e+00 -1.3107284082e-04 1.3688522807e+00 -2.3709216982e+00 1.3688522807e+00 2.3709216982e+00 
101600 6.3008768816e+00 -2.0431858987e-04 1.3688570684e+00 -2.3709299907e+00 1.3688570684e+00 2.3709299907e+00 
101700 6.2999355213e+00 -2.8076304243e-04 1.3688645315e+00 -2.3709429172e+00 1.3688645315e+00 2.3709429172e+00 
101800 6.2989751640e+00 -3.6048865726e-04 1.3688747868e+00 -2.3709606800e+00 1.3688747868e+00 2.3709606800e+00 
101900 6.2979955121e+00 -4.4357790707e-04 1.3688879542e+00 -2.3709834865e+00 1.3688879542e+00 2.3709834865e+00 
102000 6.2969962692e+00 -5.3011313039e-04 1.3689041563e+00 -2.3710115494e+00 1.3689041563e+00 2.3710115494e+00 
102100 6.2959771398e+00 -6.2017637435e-04 1.3689235191e+00 -2.3710450867e+00 1.3689235191e+00 2.3710450867e+00 
102200 6.2949378302e+00 -7.1384922856e-04 1.3689461711e+00 -2.3710843211e+00 1.3689461711e+00 2.3710843211e+00 
102300 6.2938780488e+00 -8.1121264988e-04 1.3689722441e+00 -2.3711294810e+00 1.3689722441e+00 2.3711294810e+00 
102400 6.2927975064e+00 -9.1234677807e-04 1.3690018728e+00 -2.3711807993e+00 1.3690018728e+00 2.3711807993e+00 
102500 6.2916959165e+00 -1.0173307424e-03 1.3690351945e+00 -2.3712385142e+00 1.3690351945e+00 2.3712385142e+00 
102600 6.2905729965e+00 -1.1262424592e-03 1.3690723497e+00 -2.3713028689e+00 1.3690723497e+00 2.3713028689e+00 
102700 6.2894284670e+00 -1.2391584205e-03 1.3691134815e+00 -2.3713741113e+00 1.3691134815e+00 2.3713741113e+00 
102800 6.2882620536e+00 -1.3561534739e-03 1.3691587358e+00 -2.3714524940e+00 1.3691587358e+00 2.3714524940e+00 
102900 6.2870734863e+00 -1.4773005938e-03 1.3692082611e+00 -2.3715382744e+00 1.3692082611e+00 2.3715382744e+00 
103000 6.2858625007e+00 -1.6026706447e-03 1.3692622087e+00 -2.3716317144e+00 1.3692622087e+00 2.3716317144e+00 
103100 6.2846288384e+00 -1.7323321358e-03 1.3693207323e+00 -2.3717330802e+00 1.3693207323e+00 2.3717330802e+00 
103200 6.2833722476e+00 -1.8663509686e-03 1.3693839880e+00 -2.3718426422e+00 1.3693839880e+00 2.3718426422e+00 
103300 6.2820924835e+00 -2.0047901774e-03 1.3694521342e+00 -2.3719606749e+00 1.3694521342e+00 2.3719606749e+00 
103400 6.2807893091e+00 -2.1477096627e-03 1.3695253316e+00 -2.3720874566e+00 1.3695253316e+00 2.3720874566e+00 
103500 6.2794624960e+00 -2.2951659187e-03 1.3696037431e+00 -2.3722232693e+00 1.3696037431e+00 2.3722232693e+00 
103600 6.2781118244e+00 -2.4472117558e-03 1.3696875334e+00 -2.3723683983e+00 1.3696875334e+00 2.3723683983e+00 
103700 6.2767370847e+00 -2.6038960180e-03 1.3697768690e+00 -2.3725231322e+00 1.3697768690e+00 2.3725231322e+00 
103800 6.2753380773e+00 -2.7652632965e-03 1.3698719183e+00 -2.3726877623e+00 1.3698719183e+00 2.3726877623e+00 
103900 6.2739146139e+00 -2.9313536407e-03 1.3699728510e+00 -2.3728625829e+00 1.3699728510e+00 2.3728625829e+00 
104000 6.2724665177e+00 -3.1022022665e-03 1.3700798382e+00 -2.3730478902e+00 1.3700798382e+00 2.3730478902e+00 
104100 6.2709936246e+00 -3.2778392644e-03 1.3701930522e+00 -2.3732439826e+00 1.3701930522e+00 2.3732439826e+00 
104200 6.2694957837e+00 -3.4582893072e-03 1.3703126663e+00 -2.3734511603e+00 1.3703126663e+00 2.3734511603e+00 
104300 6.2679728578e+00 -3.6435713593e-03 1.3704388544e+00 -2.3736697244e+00 1.3704388544e+00 2.3736697244e+00 
104400 6.2664247247e+00 -3.8336983881e-03 1.3705717910e+00 -2.3738999774e+00 1.3705717910e+00 2.3738999774e+00 
104500 6.2648512774e+00 -4.0286770802e-03 1.3707116510e+00 -2.3741422220e+00 1.3707116510e+00 2.3741422220e+00 
104600 6.2632524251e+00 -4.2285075618e-03 1.3708586093e+00 -2.3743967613e+00 1.3708586093e+00 2.3743967613e+00 
104700 6.2616280939e+00 -4.4331831267e-03 1.3710128406e+00 -2.3746638978e+00 1.3710128406e+00 2.3746638978e+00 
104800 6.2599782276e+00 -4.6426899718e-03 1.3711745193e+00 -2.3749439334e+00 1.3711745193e+00 2.3749439334e+00 
104900 6.2583027884e+00 -4.8570069430e-03 1.3713438188e+00 -2.3752371689e+00 1.3713438188e+00 2.3752371689e+00 
105000 6.2566017576e+00 -5.0761052922e-03 1.3715209120e+00 -2.3755439032e+00 1.3715209120e+00 2.3755439032e+00 
105100 6.2548751365e+00 -5.2999484472e-03 1.3717059700e+00 -2.3758644331e+00 1.3717059700e+00 2.3758644331e+00 
105200 6.2531229469e+00 -5.5284917961e-03 1.3718991628e+00 -2.3761990528e+00 1.3718991628e+00 2.3761990528e+00 
105300 6.2513452318e+00 -5.7616824885e-03 1.3721006582e+00 -2.3765480530e+00 1.3721006582e+00 2.3765480530e+00 
105400 6.2495420565e+00 -5.9994592543e-03 1.3723106220e+00 -2.3769117210e+00 1.3723106220e+00 2.3769117210e+00 
105500 6.2477135088e+00 -6.2417522420e-03 1.3725292175e+00 -2.3772903395e+00 1.3725292175e+00 2.3772903395e+00 
105600 6.2458596999e+00 -6.4884828782e-03 1.3727566051e+00 -2.3776841865e+00 1.3727566051e+00 2.3776841865e+00 
105700 6.2439807649e+00 -6.7395637506e-03 1.3729929423e+00 -2.3780935345e+00 1.3729929423e+00 2.3780935345e+00 
105800 6.2420768636e+00 -6.9948985147e-03 1.3732383829e+00 -2.3785186502e+00 1.3732383829e+00 2.3785186502e+00 
105900 6.2401481810e+00 -7.2543818265e-03 1.3734930771e+00 -2.3789597933e+00 1.3734930771e+00 2.3789597933e+00 
106000 6.2381949275e+00 -7.5178993027e-03 1.3737571706e+00 -2.3794172168e+00 1.3737571706e+00 2.3794172168e+00 
106100 6.2362173400e+00 -7.7853275097e-03 1.3740308052e+00 -2.3798911658e+00 1.3740308052e+00 2.3798911658e+00 
106200 6.2342156819e+00 -8.0565339818e-03 1.3743141174e+00 -2.3803818770e+00 1.3743141174e+00 2.3803818770e+00 
106300 6.2321902439e+00 -8.3313772715e-03 1.3746072389e+00 -2.3808895783e+00 1.3746072389e+00 2.3808895783e+00 
106400 6.2301413440e+00 -8.6097070306e-03 1.3749102958e+00 -2.3814144882e+00 1.3749102958e+00 2.3814144882e+00 
106500 6.2280693279e+00 -8.8913641252e-03 1.3752234084e+00 -2.3819568151e+00 1.3752234084e+00 2.3819568151e+00 
106600 6.2259745697e+00 -9.1761807833e-03 1.3755466908e+00 -2.3825167567e+00 1.3755466908e+00 2.3825167567e+00 
106700 6.2238574714e+00 -9.4639807769e-03 1.3758802510e+00 -2.3830944999e+00 1.3758802510e+00 2.3830944999e+00 
106800 6.2217184638e+00 -9.7545796387e-03 1.3762241899e+00 -2.3836902195e+00 1.3762241899e+00 2.3836902195e+00 
106900 6.2195580060e+00 -1.0047784912e-02 1.3765786016e+00 -2.3843040786e+00 1.3765786016e+00 2.3843040786e+00 
107000 6.2173765858e+00 -1.0343396439e-02 1.3769435727e+00 -2.3849362271e+00 1.3769435727e+00 2.3849362271e+00 
107100 6.2151747197e+00 -1.0641206675e-02 1.3773191824e+00 -2.3855868021e+00 1.3773191824e+00 2.3855868021e+00 
107200 6.2129529525e+00 -1.0941001046e-02 1.3777055018e+00 -2.3862559270e+00 1.3777055018e+00 2.3862559270e+00 
107300 6.2107118575e+00 -1.1242558334e-02 1.3781025942e+00 -2.3869437112e+00 1.3781025942e+00 2.3869437112e+00 
107400 6.2084520357e+00 -1.1545651094e-02 1.3785105142e+00 -2.3876502494e+00 1.3785105142e+00 2.3876502494e+00 
107500 6.2061741165e+00 -1.1850046102e-02 1.3789293081e+00 -2.3883756217e+00 1.3789293081e+00 2.3883756217e+00 
107600 6.2038787561e+00 -1.2155504839e-02 1.3793590133e+00 -2.3891198929e+00 1.3793590133e+00 2.3891198929e+00 
107700 6.2015666381e+00 -1.2461783990e-02 1.3797996582e+00 -2.3898831123e+00 1.3797996582e+00 2.3898831123e+00 
107800 6.1992384722e+00 -1.2768635980e-02 1.3802512623e+00 -2.3906653136e+00 1.3802512623e+00 2.3906653136e+00 
107900 6.1968949942e+00 -1.3075809533e-02 1.3807138357e+00 -2.3914665141e+00 1.3807138357e+00 2.3914665141e+00 
108000 6.1945369649e+00 -1.3383050246e-02 1.3811873790e+00 -2.3922867152e+00 1.3811873790e+00 2.3922867152e+00 
108100 6.1921651694e+00 -1.3690101190e-02 1.3816718836e+00 -2.3931259018e+00 1.3816718836e+00 2.3931259018e+00 
108200 6.1897804165e+00 -1.3996703524e-02 1.3821673311e+00 -2.3939840421e+00 1.3821673311e+00 2.3939840421e+00 
108300 6.1873835376e+00 -1.4302597121e-02 1.3826736938e+00 -2.3948610879e+00 1.3826736938e+00 2.3948610879e+00 
108400 6.1849753858e+00 -1.4607521214e-02 1.3831909340e+00 -2.3957569742e+00 1.3831909340e+00 2.3957569742e+00 
108500 6.1825568347e+00 -1.4911215039e-02 1.3837190046e+00 -2.3966716194e+00 1.3837190046e+00 2.3966716194e+00 
108600 6.1801287776e+00 -1.5213418494e-02 1.3842578489e+00 -2.3976049251e+00 1.3842578489e+00 2.3976049251e+00 
108700 6.1776921261e+00 -1.5513872788e-02 1.3848074006e+00 -2.3985567766e+00 1.3848074006e+00 2.3985567766e+00 
108800 6.1752478086e+00 -1.5812321101e-02 1.3853675839e+00 -2.3995270424e+00 1.3853675839e+00 2.3995270424e+00 
108900 6.1727967698e+00 -1.6108509236e-02 1.3859383135e+00 -2.4005155751e+00 1.3859383135e+00 2.4005155751e+00 
109000 6.1703399683e+00 -1.6402186253e-02 1.3865194950e+00 -2.4015222110e+00 1.3865194950e+00 2.4015222110e+00 
109100 6.1678783761e+00 -1.6693105110e-02 1.3871110248e+00 -2.4025467707e+00 1.3871110248e+00 2.4025467707e+00 
109200 6.1654129766e+00 -1.6981023276e-02 1.3877127903e+00 -2.4035890591e+00 1.3877127903e+00 2.4035890591e+00 
109300 6.1629447630e+00 -1.7265703333e-02 1.3883246702e+00 -2.4046488662e+00 1.3883246702e+00 2.4046488662e+00 
109400 6.1604747374e+00 -1.7546913556e-02 1.3889465345e+00 -2.4057259668e+00 1.3889465345e+00 2.4057259668e+00 
109500 6.1580039085e+00 -1.7824428474e-02 1.3895782450e+00 -2.4068201215e+00 1.3895782450e+00 2.4068201215e+00 
109600 6.1555332904e+00 -1.8098029396e-02 1.3902196554e+00 -2.4079310769e+00 1.3902196554e+00 2.4079310769e+00 
109700 6.1530639009e+00 -1.8367504919e-02 1.3908706116e+00 -2.4090585660e+00 1.3908706116e+00 2.4090585660e+00 
109800 6.1505967597e+00 -1.8632651401e-02 1.3915309519e+00 -2.4102023089e+00 1.3915309519e+00 2.4102023089e+00 
109900 6.1481328867e+00 -1.8893273400e-02 1.3922005074e+00 -2.4113620131e+00 1.3922005074e+00 2.4113620131e+00 
110000 6.1456733008e+00 -1.9149184080e-02 1.3928791024e+00 -2.4125373742e+00 1.3928791024e+00 2.4125373742e+00 
110100 6.1432190175e+00 -1.9400205581e-02 1.3935665547e+00 -2.4137280765e+00 1.3935665547e+00 2.4137280765e+00 
110200 6.1407710478e+00 -1.9646169348e-02 1.3942626758e+00 -2.4149337935e+00 1.3942626758e+00 2.4149337935e+00 
110300 6.1383303960e+00 -1.9886916422e-02 1.3949672712e+00 -2.4161541886e+00 1.3949672712e+00 2.4161541886e+00 
110400 6.1358980588e+00 -2.0122297698e-02 1.3956801413e+00 -2.4173889159e+00 1.3956801413e+00 2.4173889159e+00 
110500 6.1334750227e+00 -2.0352174127e-02 1.3964010812e+00 -2.4186376204e+00 1.3964010812e+00 2.4186376204e+00 
110600 6.1310622633e+00 -2.0576416892e-02 1.3971298812e+00 -2.4198999391e+00 1.3971298812e+00 2.4198999391e+00 
110700 6.1286607431e+00 -2.0794907531e-02 1.3978663276e+00 -2.4211755015e+00 1.3978663276e+00 2.4211755015e+00 
110800 6.1262714102e+00 -2.1007538029e-02 1.3986102024e+00 -2.4224639305e+00 1.3986102024e+00 2.4224639305e+00 
110900 6.1238951967e+00 -2.1214210858e-02 1.3993612843e+00 -2.4237648425e+00 1.3993612843e+00 2.4237648425e+00 
111000 6.1215330175e+00 -2.1414838984e-02 1.4001193489e+00 -2.4250778489e+00 1.4001193489e+00 2.4250778489e+00 
111100 6.1191857685e+00 -2.1609345835e-02 1.4008841690e+00 -2.4264025562e+00 1.4008841690e+00 2.4264025562e+00 
111200 6.1168543254e+00 -2.1797665223e-02 1.4016555149e+00 -2.4277385666e+00 1.4016555149e+00 2.4277385666e+00 
111300 6.1145395427e+00 -2.1979741236e-02 1.4024331554e+00 -2.4290854793e+00 1.4024331554e+00 2.4290854793e+00 
111400 6.1122422519e+00 -2.2155528095e-02 1.4032168571e+00 -2.4304428906e+00 1.4032168571e+00 2.4304428906e+00 
111500 6.1099632610e+00 -2.2324989966e-02 1.4040063860e+00 -2.4318103947e+00 1.4040063860e+00 2.4318103947e+00 
111600 6.1077033527e+00 -2.2488100755e-02 1.4048015069e+00 -2.4331875845e+00 1.4048015069e+00 2.4331875845e+00 
111700 6.1054632839e+00 -2.2644843859e-02 1.4056019842e+00 -2.4345740519e+00 1.4056019842e+00 2.4345740519e+00 
111800 6.1032437847e+00 -2.2795211900e-02 1.4064075823e+00 -2.4359693887e+00 1.4064075823e+00 2.4359693887e+00 
111900 6.1010455572e+00 -2.2939206424e-02 1.4072180657e+00 -2.4373731871e+00 1.4072180657e+00 2.4373731871e+00 
112000 6.0988692750e+00 -2.3076837582e-02 1.4080331995e+00 -2.4387850402e+00 1.4080331995e+00 2.4387850402e+00 
112100 6.0967155824e+00 -2.3208123788e-02 1.4088527496e+00 -2.4402045426e+00 1.4088527496e+00 2.4402045426e+00 
112200 6.0945850938e+00 -2.3333091357e-02 1.4096764830e+00 -2.4416312909e+00 1.4096764830e+00 2.4416312909e+00 
112300 6.0924783932e+00 -2.3451774126e-02 1.4105041684e+00 -2.4430648840e+00 1.4105041684e+00 2.4430648840e+00 
112400 6.0903960334e+00 -2.3564213067e-02 1.4113355760e+00 -2.4445049242e+00 1.4113355760e+00 2.4445049242e+00 
112500 6.0883385360e+00 -2.3670455880e-02 1.4121704779e+00 -2.4459510167e+00 1.4121704779e+00 2.4459510167e+00 
112600 6.0863063910e+00 -2.3770556581e-02 1.4130086485e+00 -2.4474027707e+00 1.4130086485e+00 2.4474027707e+00 
112700 6.0843000565e+00 -2.3864575083e-02 1.4138498646e+00 -2.4488597998e+00 1.4138498646e+00 2.4488597998e+00 
112800 6.0823199585e+00 -2.3952576776e-02 1.4146939057e+00 -2.4503217219e+00 1.4146939057e+00 2.4503217219e+00 
112900 6.0803664909e+00 -2.4034632096e-02 1.4155405541e+00 -2.4517881598e+00 1.4155405541e+00 2.4517881598e+00 
113000 6.0784400157e+00 -2.4110816102e-02 1.4163895948e+00 -2.4532587416e+00 1.4163895948e+00 2.4532587416e+00 
113100 6.0765408627e+00 -2.4181208052e-02 1.4172408165e+00 -2.4547331007e+00 1.4172408165e+00 2.4547331007e+00 
113200 6.0746693298e+00 -2.4245890982e-02 1.4180940107e+00 -2.4562108764e+00 1.4180940107e+00 2.4562108764e+00 
113300 6.0728256834e+00 -2.4304951295e-02 1.4189489725e+00 -2.4576917137e+00 1.4189489725e+00 2.4576917137e+00 
113400 6.0710101585e+00 -2.4358478350e-02 1.4198055007e+00 -2.4591752640e+00 1.4198055007e+00 2.4591752640e+00 
113500 6.0692229591e+00 -2.4406564070e-02 1.4206633974e+00 -2.4606611847e+00 1.4206633974e+00 2.4606611847e+00 
113600 6.0674642586e+00 -2.4449302551e-02 1.4215224686e+00 -2.4621491398e+00 1.4215224686e+00 2.4621491398e+00 
113700 6.0657342003e+00 -2.4486789689e-02 1.4223825242e+00 -2.4636387997e+00 1.4223825242e+00 2.4636387997e+00 
113800 6.0640328980e+00 -2.4519122820e-02 1.4232433777e+00 -2.4651298416e+00 1.4232433777e+00 2.4651298416e+00 
113900 6.0623604363e+00 -2.4546400371e-02 1.4241048464e+00 -2.4666219493e+00 1.4241048464e+00 2.4666219493e+00 
114000 6.0607168717e+00 -2.4568721527e-02 1.4249667519e+00 -2.4681148134e+00 1.4249667519e+00 2.4681148134e+00 
114100 6.0591022328e+00 -2.4586185920e-02 1.4258289193e+00 -2.4696081311e+00 1.4258289193e+00 2.4696081311e+00 
114200 6.0575165213e+00 -2.4598893322e-02 1.4266911778e+00 -2.4711016066e+00 1.4266911778e+00 2.4711016066e+00 
114300 6.0559597125e+00 -2.4606943371e-02 1.4275533605e+00 -2.4725949509e+00 1.4275533605e+00 2.4725949509e+00 
114400 6.0544317566e+00 -2.4610435298e-02 1.4284153044e+00 -2.4740878815e+00 1.4284153044e+00 2.4740878815e+00 
114500 6.0529325788e+00 -2.4609467690e-02 1.4292768503e+00 -2.4755801228e+00 1.4292768503e+00 2.4755801228e+00 
114600 6.0514620808e+00 -2.4604138252e-02 1.4301378429e+00 -2.4770714058e+00 1.4301378429e+00 2.4770714058e+00 
114700 6.0500201413e+00 -2.4594543601e-02 1.4309981307e+00 -2.4785614680e+00 1.4309981307e+00 2.4785614680e+00 
114800 6.0486066170e+00 -2.4580779077e-02 1.4318575660e+00 -2.4800500534e+00 1.4318575660e+00 2.4800500534e+00 
114900 6.0472213433e+00 -2.4562938561e-02 1.4327160045e+00 -2.4815369126e+00 1.4327160045e+00 2.4815369126e+00 
115000 6.0458641358e+00 -2.4541114323e-02 1.4335733058e+00 -2.4830218020e+00 1.4335733058e+00 2.4830218020e+00 
115100 6.0445347904e+00 -2.4515396885e-02 1.4344293330e+00 -2.4845044846e+00 1.4344293330e+00 2.4845044846e+00 
115200 6.0432330851e+00 -2.4485874894e-02 1.4352839526e+00 -2.4859847292e+00 1.4352839526e+00 2.4859847292e+00 
115300 6.0419587803e+00 -2.4452635019e-02 1.4361370347e+00 -2.4874623107e+00 1.4361370347e+00 2.4874623107e+00 
115400 6.0407116200e+00 -2.4415761862e-02 1.4369884523e+00 -2.4889370093e+00 1.4369884523e+00 2.4889370093e+00 
115500 6.0394913327e+00 -2.4375337887e-02 1.4378380822e+00 -2.4904086115e+00 1.4378380822e+00 2.4904086115e+00 
115600 6.0382976325e+00 -2.4331443354e-02 1.4386858039e+00 -2.4918769085e+00 1.4386858039e+00 2.4918769085e+00 
115700 6.0371302197e+00 -2.4284156284e-02 1.4395315002e+00 -2.4933416975e+00 1.4395315002e+00 2.4933416975e+00 
115800 6.0359887821e+00 -2.4233552422e-02 1.4403750569e+00 -2.4948027804e+00 1.4403750569e+00 2.4948027804e+00 
115900 6.0348729958e+00 -2.4179705221e-02 1.4412163624e+00 -2.4962599643e+00 1.4412163624e+00 2.4962599643e+00 
116000 6.0337825258e+00 -2.4122685840e-02 1.4420553082e+00 -2.4977130612e+00 1.4420553082e+00 2.4977130612e+00 
116100 6.0327170274e+00 -2.4062563146e-02 1.4428917885e+00 -2.4991618875e+00 1.4428917885e+00 2.4991618875e+00 
116200 6.0316761467e+00 -2.3999403733e-02 1.4437256999e+00 -2.5006062645e+00 1.4437256999e+00 2.5006062645e+00 
116300 6.0306595217e+00 -2.3933271950e-02 1.4445569418e+00 -2.5020460177e+00 1.4445569418e+00 2.5020460177e+00 
116400 6.0296667828e+00 -2.3864229937e-02 1.4453854158e+00 -2.5034809768e+00 1.4453854158e+00 2.5034809768e+00 
116500 6.0286975540e+00 -2.3792337669e-02 1.4462110261e+00 -2.5049109757e+00 1.4462110261e+00 2.5049109757e+00 
116600 6.0277514535e+00 -2.3717653009e-02 1.4470336789e+00 -2.5063358522e+00 1.4470336789e+00 2.5063358522e+00 
116700 6.0268280946e+00 -2.3640231769e-02 1.4478532829e+00 -2.5077554478e+00 1.4478532829e+00 2.5077554478e+00 
116800 6.0259270862e+00 -2.3560127774e-02 1.4486697486e+00 -2.5091696080e+00 1.4486697486e+00 2.5091696080e+00 
116900 6.0250480337e+00 -2.3477392936e-02 1.4494829889e+00 -2.5105781814e+00 1.4494829889e+00 2.5105781814e+00 
117000 6.0241905397e+00 -2.3392077331e-02 1.4502929183e+00 -2.5119810203e+00 1.4502929183e+00 2.5119810203e+00 
117100 6.0233542047e+00 -2.3304229274e-02 1.4510994534e+00 -2.5133779801e+00 1.4510994534e+00 2.5133779801e+00 
117200 6.0225386277e+00 -2.3213895411e-02 1.4519025127e+00 -2.5147689196e+00 1.4519025127e+00 2.5147689196e+00 
117300 6.0217434067e+00 -2.3121120804e-02 1.4527020162e+00 -2.5161537004e+00 1.4527020162e+00 2.5161537004e+00 
117400 6.0209681394e+00 -2.3025949018e-02 1.4534978859e+00 -2.5175321871e+00 1.4534978859e+00 2.5175321871e+00 
117500 6.0202124240e+00 -2.2928422215e-02 1.4542900453e+00 -2.5189042474e+00 1.4542900453e+00 2.5189042474e+00 
117600 6.0194758593e+00 -2.2828581248e-02 1.4550784194e+00 -2.5202697514e+00 1.4550784194e+00 2.5202697514e+00 
117700 6.0187580454e+00 -2.2726465752e-02 1.4558629349e+00 -2.5216285721e+00 1.4558629349e+00 2.5216285721e+00 
117800 6.0180585843e+00 -2.2622114241e-02 1.4566435199e+00 -2.5229805850e+00 1.4566435199e+00 2.5229805850e+00 
117900 6.0173770803e+00 -2.2515564198e-02 1.4574201040e+00 -2.5243256681e+00 1.4574201040e+00 2.5243256681e+00 
118000 6.0167131401e+00 -2.2406852173e-02 1.4581926181e+00 -2.5256637018e+00 1.4581926181e+00 2.5256637018e+00 
118100 6.0160663739e+00 -2.2296013871e-02 1.4589609946e+00 -2.5269945689e+00 1.4589609946e+00 2.5269945689e+00 
118200 6.0154363950e+00 -2.2183084246e-02 1.4597251672e+00 -2.5283181546e+00 1.4597251672e+00 2.5283181546e+00 
118300 6.0148228208e+00 -2.2068097589e-02 1.4604850707e+00 -2.5296343462e+00 1.4604850707e+00 2.5296343462e+00 
118400 6.0142252726e+00 -2.1951087615e-02 1.4612406416e+00 -2.5309430333e+00 1.4612406416e+00 2.5309430333e+00 
118500 6.0136433763e+00 -2.1832087549e-02 1.4619918172e+00 -2.5322441077e+00 1.4619918172e+00 2.5322441077e+00 
118600 6.0130767624e+00 -2.1711130208e-02 1.4627385364e+00 -2.5335374632e+00 1.4627385364e+00 2.5335374632e+00 
118700 6.0125250665e+00 -2.1588248080e-02 1.4634807389e+00 -2.5348229957e+00 1.4634807389e+00 2.5348229957e+00 
118800 6.0119879292e+00 -2.1463473403e-02 1.4642183660e+00 -2.5361006032e+00 1.4642183660e+00 2.5361006032e+00 
118900 6.0114649967e+00 -2.1336838238e-02 1.4649513599e+00 -2.5373701860e+00 1.4649513599e+00 2.5373701860e+00 
119000 6.0109559208e+00 -2.1208374538e-02 1.4656796641e+00 -2.5386316459e+00 1.4656796641e+00 2.5386316459e+00 
119100 6.0104603589e+00 -2.1078114216e-02 1.4664032233e+00 -2.5398848871e+00 1.4664032233e+00 2.5398848871e+00 
119200 6.0099779745e+00 -2.0946089210e-02 1.4671219831e+00 -2.5411298156e+00 1.4671219831e+00 2.5411298156e+00 
119300 6.0095084369e+00 -2.0812331540e-02 1.4678358906e+00 -2.5423663397e+00 1.4678358906e+00 2.5423663397e+00 
119400 6.0090514217e+00 -2.0676873367e-02 1.4685448938e+00 -2.5435943692e+00 1.4685448938e+00 2.5435943692e+00 
119500 6.0086066109e+00 -2.0539747045e-02 1.4692489418e+00 -2.5448138162e+00 1.4692489418e+00 2.5448138162e+00 
119600 6.0081736924e+00 -2.0400985169e-02 1.4699479852e+00 -2.5460245949e+00 1.4699479852e+00 2.5460245949e+00 
119700 6.0077523608e+00 -2.0260620620e-02 1.4706419754e+00 -2.5472266212e+00 1.4706419754e+00 2.5472266212e+00 
119800 6.0073423170e+00 -2.0118686606e-02 1.4713308651e+00 -2.5484198131e+00 1.4713308651e+00 2.5484198131e+00 
119900 6.0069432684e+00 -1.9975216702e-02 1.4720146081e+00 -2.5496040907e+00 1.4720146081e+00 2.5496040907e+00 
120000 6.0065549288e+00 -1.9830244879e-02 1.4726931595e+00 -2.5507793762e+00 1.4726931595e+00 2.5507793762e+00 
120100 6.0061770184e+00 -1.9683805540e-02 1.4733664754e+00 -2.5519455936e+00 1.4733664754e+00 2.5519455936e+00 
120200 6.0058092640e+00 -1.9535933541e-02 1.4740345133e+00 -2.5531026691e+00 1.4740345133e+00 2.5531026691e+00 
120300 6.0054513987e+00 -1.9386664216e-02 1.4746972317e+00 -2.5542505311e+00 1.4746972317e+00 2.5542505311e+00 
120400 6.0051031622e+00 -1.9236033396e-02 1.4753545905e+00 -2.5553891099e+00 1.4753545905e+00 2.5553891099e+00 
120500 6.0047643002e+00 -1.9084077424e-02 1.4760065507e+00 -2.5565183381e+00 1.4760065507e+00 2.5565183381e+00 
120600 6.0044345651e+00 -1.8930833169e-02 1.4766530746e+00 -2.5576381503e+00 1.4766530746e+00 2.5576381503e+00 
120700 6.0041137152e+00 -1.8776338033e-02 1.4772941257e+00 -2.5587484834e+00 1.4772941257e+00 2.5587484834e+00 
120800 6.0038015153e+00 -1.8620629959e-02 1.4779296689e+00 -2.5598492765e+00 1.4779296689e+00 2.5598492765e+00 
120900 6.0034977360e+00 -1.8463747431e-02 1.4785596702e+00 -2.5609404707e+00 1.4785596702e+00 2.5609404707e+00 
121000 6.0032021541e+00 -1.8305729475e-02 1.4791840970e+00 -2.5620220097e+00 1.4791840970e+00 2.5620220097e+00 
121100 6.0029145523e+00 -1.8146615657e-02 1.4798029180e+00 -2.5630938392e+00 1.4798029180e+00 2.5630938392e+00 
121200 6.0026347192e+00 -1.7986446076e-02 1.4804161034e+00 -2.5641559073e+00 1.4804161034e+00 2.5641559073e+00 
121300 6.0023624489e+00 -1.7825261354e-02 1.4810236243e+00 -2.5652081645e+00 1.4810236243e+00 2.5652081645e+00 
121400 6.0020975415e+00 -1.7663102628e-02 1.4816254536e+00 -2.5662505634e+00 1.4816254536e+00 2.5662505634e+00 
121500 6.0018398023e+00 -1.7500011535e-02 1.4822215653e+00 -2.5672830592e+00 1.4822215653e+00 2.5672830592e+00 
121600 6.0015890421e+00 -1.7336030194e-02 1.4828119350e+00 -2.5683056095e+00 1.4828119350e+00 2.5683056095e+00 
121700 6.0013450773e+00 -1.7171201194e-02 1.4833965394e+00 -2.5693181740e+00 1.4833965394e+00 2.5693181740e+00 
121800 6.0011077290e+00 -1.7005567567e-02 1.4839753569e+00 -2.5703207154e+00 1.4839753569e+00 2.5703207154e+00 
121900 6.0008768238e+00 -1.6839172772e-02 1.4845483672e+00 -2.5713131982e+00 1.4845483672e+00 2.5713131982e+00 
122000 6.0006521930e+00 -1.6672060667e-02 1.4851155513e+00 -2.5722955899e+00 1.4851155513e+00 2.5722955899e+00 
122100 6.0004336728e+00 -1.6504275488e-02 1.4856768918e+00 -2.5732678602e+00 1.4856768918e+00 2.5732678602e+00 
122200 6.0002211042e+00 -1.6335861818e-02 1.4862323727e+00 -2.5742299814e+00 1.4862323727e+00 2.5742299814e+00 
122300 6.0000143327e+00 -1.6166864561e-02 1.4867819795e+00 -2.5751819282e+00 1.4867819795e+00 2.5751819282e+00 
122400 5.9998132082e+00 -1.5997328916e-02 1.4873256991e+00 -2.5761236782e+00 1.4873256991e+00 2.5761236782e+00 
122500 5.9996175851e+00 -1.5827300338e-02 1.4878635198e+00 -2.5770552111e+00 1.4878635198e+00 2.5770552111e+00 
122600 5.9994273220e+00 -1.5656824515e-02 1.4883954316e+00 -2.5779765093e+00 1.4883954316e+00 2.5779765093e+00 
122700 5.9992422814e+00 -1.5485947330e-02 1.4889214258e+00 -2.5788875579e+00 1.4889214258e+00 2.5788875579e+00 
122800 5.9990623301e+00 -1.5314714831e-02 1.4894414951e+00 -2.5797883445e+00 1.4894414951e+00 2.5797883445e+00 
122900 5.9988873385e+00 -1.5143173194e-02 1.4899556340e+00 -2.5806788592e+00 1.4899556340e+00 2.5806788592e+00 
123000 5.9987171809e+00 -1.4971368692e-02 1.4904638382e+00 -2.5815590946e+00 1.4904638382e+00 2.5815590946e+00 
123100 5.9985517351e+00 -1.4799347655e-02 1.4909661050e+00 -2.5824290462e+00 1.4909661050e+00 2.5824290462e+00 
123200 5.9983908826e+00 -1.4627156441e-02 1.4914624331e+00 -2.5832887117e+00 1.4914624331e+00 2.5832887117e+00 
123300 5.9982345080e+00 -1.4454841393e-02 1.4919528229e+00 -2.5841380917e+00 1.4919528229e+00 2.5841380917e+00 
123400 5.9980824995e+00 -1.4282448809e-02 1.4924372760e+00 -2.5849771891e+00 1.4924372760e+00 2.5849771891e+00 
123500 5.9979347483e+00 -1.4110024903e-02 1.4929157956e+00 -2.5858060094e+00 1.4929157956e+00 2.5858060094e+00 
123600 5.9977911487e+00 -1.3937615771e-02 1.4933883865e+00 -2.5866245609e+00 1.4933883865e+00 2.5866245609e+00 
123700 5.9976515981e+00 -1.3765267350e-02 1.4938550549e+00 -2.5874328542e+00 1.4938550549e+00 2.5874328542e+00 
123800 5.9975159964e+00 -1.3593025390e-02 1.4943158082e+00 -2.5882309024e+00 1.4943158082e+00 2.5882309024e+00 
123900 5.9973842468e+00 -1.3420935413e-02 1.4947706557e+00 -2.5890187213e+00 1.4947706557e+00 2.5890187213e+00 
124000 5.9972562547e+00 -1.3249042678e-02 1.4952196077e+00 -2.5897963291e+00 1.4952196077e+00 2.5897963291e+00 
124100 5.9971319283e+00 -1.3077392148e-02 1.4956626763e+00 -2.5905637464e+00 1.4956626763e+00 2.5905637464e+00 
124200 5.9970111782e+00 -1.2906028456e-02 1.4960998748e+00 -2.5913209964e+00 1.4960998748e+00 2.5913209964e+00 
124300 5.9968939175e+00 -1.2734995868e-02 1.4965312180e+00 -2.5920681046e+00 1.4965312180e+00 2.5920681046e+00 
124400 5.9967800615e+00 -1.2564338253e-02 1.4969567219e+00 -2.5928050991e+00 1.4969567219e+00 2.5928050991e+00 
124500 5.9966695278e+00 -1.2394099049e-02 1.4973764042e+00 -2.5935320102e+00 1.4973764042e+00 2.5935320102e+00 
124600 5.9965622360e+00 -1.2224321231e-02 1.4977902838e+00 -2.5942488706e+00 1.4977902838e+00 2.5942488706e+00 
124700 5.9964581079e+00 -1.2055047279e-02 1.4981983808e+00 -2.5949557154e+00 1.4981983808e+00 2.5949557154e+00 
124800 5.9963570673e+00 -1.1886319151e-02 1.4986007170e+00 -2.5956525820e+00 1.4986007170e+00 2.5956525820e+00 
124900 5.9962590398e+00 -1.1718178248e-02 1.4989973150e+00 -2.5963395101e+00 1.4989973150e+00 2.5963395101e+00 
125000 5.9961639528e+00 -1.1550665390e-02 1.4993881992e+00 -2.5970165414e+00 1.4993881992e+00 2.5970165414e+00 
125100 5.9960717358e+00 -1.1383820785e-02 1.4997733950e+00 -2.5976837200e+00 1.4997733950e+00 2.5976837200e+00 
125200 5.9959823197e+00 -1.1217684005e-02 1.5001529290e+00 -2.5983410922e+00 1.5001529290e+00 2.5983410922e+00 
125300 5.9958956371e+00 -1.1052293958e-02 1.5005268293e+00 -2.5989887064e+00 1.5005268293e+00 2.5989887064e+00 
125400 5.9958116222e+00 -1.0887688863e-02 1.5008951248e+00 -2.5996266129e+00 1.5008951248e+00 2.5996266129e+00 
125500 5.9957302108e+00 -1.0723906229e-02 1.5012578459e+00 -2.6002548643e+00 1.5012578459e+00 2.6002548643e+00 
125600 5.9956513402e+00 -1.0560982829e-02 1.5016150241e+00 -2.6008735151e+00 1.5016150241e+00 2.6008735151e+00 
125700 5.9955749490e+00 -1.0398954678e-02 1.5019666919e+00 -2.6014826217e+00 1.5019666919e+00 2.6014826217e+00 
125800 5.9955009773e+00 -1.0237857017e-02 1.5023128832e+00 -2.6020822425e+00 1.5023128832e+00 2.6020822425e+00 
125900 5.9954293664e+00 -1.0077724287e-02 1.5026536326e+00 -2.6026724378e+00 1.5026536326e+00 2.6026724378e+00 
126000 5.9953600589e+00 -9.9185901166e-03 1.5029889760e+00 -2.6032532696e+00 1.5029889760e+00 2.6032532696e+00 
126100 5.9952929987e+00 -9.7604873006e-03 1.5033189502e+00 -2.6038248017e+00 1.5033189502e+00 2.6038248017e+00 
126200 5.9952281310e+00 -9.6034477857e-03 1.5036435932e+00 -2.6043870998e+00 1.5036435932e+00 2.6043870998e+00 
126300 5.9951654020e+00 -9.4475026549e-03 1.5039629437e+00 -2.6049402312e+00 1.5039629437e+00 2.6049402312e+00 
126400 5.9951047590e+00 -9.2926821141e-03 1.5042770416e+00 -2.6054842647e+00 1.5042770416e+00 2.6054842647e+00 
126500 5.9950461504e+00 -9.1390154788e-03 1.5045859275e+00 -2.6060192708e+00 1.5045859275e+00 2.6060192708e+00 
126600 5.9949895259e+00 -8.9865311627e-03 1.5048896430e+00 -2.6065453215e+00 1.5048896430e+00 2.6065453215e+00 
126700 5.9949348358e+00 -8.8352566675e-03 1.5051882307e+00 -2.6070624905e+00 1.5051882307e+00 2.6070624905e+00 
126800 5.9948820318e+00 -8.6852185729e-03 1.5054817336e+00 -2.6075708525e+00 1.5054817336e+00 2.6075708525e+00 
126900 5.9948310662e+00 -8.5364425291e-03 1.5057701960e+00 -2.6080704839e+00 1.5057701960e+00 2.6080704839e+00 
127000 5.9947818925e+00 -8.3889532489e-03 1.5060536625e+00 -2.6085614624e+00 1.5060536625e+00 2.6085614624e+00 
127100 5.9947344651e+00 -8.2427745023e-03 1.5063321789e+00 -2.6090438669e+00 1.5063321789e+00 2.6090438669e+00 
127200 5.9946887391e+00 -8.0979291111e-03 1.5066057913e+00 -2.6095177775e+00 1.5066057913e+00 2.6095177775e+00 
127300 5.9946446705e+00 -7.9544389451e-03 1.5068745468e+00 -2.6099832756e+00 1.5068745468e+00 2.6099832756e+00 
127400 5.9946022164e+00 -7.8123249191e-03 1.5071384928e+00 -2.6104404435e+00 1.5071384928e+00 2.6104404435e+00 
127500 5.9945613344e+00 -7.6716069915e-03 1.5073976776e+00 -2.6108893648e+00 1.5073976776e+00 2.6108893648e+00 
127600 5.9945219832e+00 -7.5323041629e-03 1.5076521500e+00 -2.6113301240e+00 1.5076521500e+00 2.6113301240e+00 
127700 5.9944841219e+00 -7.3944344766e-03 1.5079019594e+00 -2.6117628065e+00 1.5079019594e+00 2.6117628065e+00 
127800 5.9944477108e+00 -7.2580150195e-03 1.5081471555e+00 -2.6121874987e+00 1.5081471555e+00 2.6121874987e+00 
127900 5.9944127107e+00 -7.1230619245e-03 1.5083877888e+00 -2.6126042877e+00 1.5083877888e+00 2.6126042877e+00 
128000 5.9943790832e+00 -6.9895903732e-03 1.5086239101e+00 -2.6130132617e+00 1.5086239101e+00 2.6130132617e+00 
128100 5.9943467907e+00 -6.8576146000e-03 1.5088555705e+00 -2.6134145094e+00 1.5088555705e+00 2.6134145094e+00 
128200 5.9943157961e+00 -6.7271478966e-03 1.5090828217e+00 -2.6138081201e+00 1.5090828217e+00 2.6138081201e+00 
128300 5.9942860632e+00 -6.5982026179e-03 1.5093057159e+00 -2.6141941840e+00 1.5093057159e+00 2.6141941840e+00 
128400 5.9942575564e+00 -6.4707901884e-03 1.5095243052e+00 -2.6145727918e+00 1.5095243052e+00 2.6145727918e+00 
128500 5.9942302409e+00 -6.3449211094e-03 1.5097386423e+00 -2.6149440347e+00 1.5097386423e+00 2.6149440347e+00 
128600 5.9942040825e+00 -6.2206049668e-03 1.5099487803e+00 -2.6153080043e+00 1.5099487803e+00 2.6153080043e+00 
128700 5.9941790475e+00 -6.0978504402e-03 1.5101547723e+00 -2.6156647929e+00 1.5101547723e+00 2.6156647929e+00 
128800 5.9941551032e+00 -5.9766653125e-03 1.5103566716e+00 -2.6160144928e+00 1.5103566716e+00 2.6160144928e+00 
128900 5.9941322171e+00 -5.8570564794e-03 1.5105545321e+00 -2.6163571971e+00 1.5105545321e+00 2.6163571971e+00 
129000 5.9941103578e+00 -5.7390299609e-03 1.5107484073e+00 -2.6166929989e+00 1.5107484073e+00 2.6166929989e+00 
129100 5.9940894941e+00 -5.6225909123e-03 1.5109383512e+00 -2.6170219914e+00 1.5109383512e+00 2.6170219914e+00 
129200 5.9940695957e+00 -5.5077436366e-03 1.5111244179e+00 -2.6173442684e+00 1.5111244179e+00 2.6173442684e+00 
129300 5.9940506329e+00 -5.3944915968e-03 1.5113066615e+00 -2.6176599235e+00 1.5113066615e+00 2.6176599235e+00 
129400 5.9940325765e+00 -5.2828374294e-03 1.5114851361e+00 -2.6179690506e+00 1.5114851361e+00 2.6179690506e+00 
129500 5.9940153978e+00 -5.1727829577e-03 1.5116598960e+00 -2.6182717436e+00 1.5116598960e+00 2.6182717436e+00 
129600 5.9939990690e+00 -5.0643292063e-03 1.5118309953e+00 -2.6185680964e+00 1.5118309953e+00 2.6185680964e+00 
129700 5.9939835626e+00 -4.9574764154e-03 1.5119984884e+00 -2.6188582028e+00 1.5119984884e+00 2.6188582028e+00 
129800 5.9939688518e+00 -4.8522240564e-03 1.5121624292e+00 -2.6191421567e+00 1.5121624292e+00 2.6191421567e+00 
129900 5.9939549104e+00 -4.7485708465e-03 1.5123228720e+00 -2.6194200517e+00 1.5123228720e+00 2.6194200517e+00 
130000 5.9939417127e+00 -4.6465147653e-03 1.5124798706e+00 -2.6196919813e+00 1.5124798706e+00 2.6196919813e+00 
130100 5.9939292336e+00 -4.5460530707e-03 1.5126334790e+00 -2.6199580389e+00 1.5126334790e+00 2.6199580389e+00 
130200 5.9939174486e+00 -4.4471823152e-03 1.5127837510e+00 -2.6202183176e+00 1.5127837510e+00 2.6202183176e+00 
130300 5.9939063336e+00 -4.3498983626e-03 1.5129307401e+00 -2.6204729102e+00 1.5129307401e+00 2.6204729102e+00 
130400 5.9938958652e+00 -4.2541964057e-03 1.5130744997e+00 -2.6207219092e+00 1.5130744997e+00 2.6207219092e+00 
130500 5.9938860205e+00 -4.1600709827e-03 1.5132150831e+00 -2.6209654067e+00 1.5132150831e+00 2.6209654067e+00 
130600 5.9938767771e+00 -4.0675159951e-03 1.5133525432e+00 -2.6212034946e+00 1.5133525432e+00 2.6212034946e+00 
130700 5.9938681131e+00 -3.9765247255e-03 1.5134869328e+00 -2.6214362642e+00 1.5134869328e+00 2.6214362642e+00 
130800 5.9938600072e+00 -3.8870898549e-03 1.5136183043e+00 -2.6216638064e+00 1.5136183043e+00 2.6216638064e+00 
130900 5.9938524387e+00 -3.7992034812e-03 1.5137467100e+00 -2.6218862116e+00 1.5137467100e+00 2.6218862116e+00 
131000 5.9938453872e+00 -3.7128571368e-03 1.5138722018e+00 -2.6221035698e+00 1.5138722018e+00 2.6221035698e+00 
131100 5.9938388328e+00 -3.6280418072e-03 1.5139948313e+00 -2.6223159703e+00 1.5139948313e+00 2.6223159703e+00 
131200 5.9938327565e+00 -3.5447479486e-03 1.5141146498e+00 -2.6225235019e+00 1.5141146498e+00 2.6225235019e+00 
131300 5.9938271392e+00 -3.4629655068e-03 1.5142317080e+00 -2.6227262528e+00 1.5142317080e+00 2.6227262528e+00 
131400 5.9938219627e+00 -3.3826839347e-03 1.5143460568e+00 -2.6229243106e+00 1.5143460568e+00 2.6229243106e+00 
131500 5.9938172093e+00 -3.3038922115e-03 1.5144577461e+00 -2.6231177621e+00 1.5144577461e+00 2.6231177621e+00 
131600 5.9938128615e+00 -3.2265788599e-03 1.5145668258e+00 -2.6233066937e+00 1.5145668258e+00 2.6233066937e+00 
131700 5.9938089024e+00 -3.1507319652e-03 1.5146733452e+00 -2.6234911908e+00 1.5146733452e+00 2.6234911908e+00 
131800 5.9938053157e+00 -3.0763391928e-03 1.5147773534e+00 -2.6236713383e+00 1.5147773534e+00 2.6236713383e+00 
131900 5.9938020854e+00 -3.0033878066e-03 1.5148788988e+00 -2.6238472201e+00 1.5148788988e+00 2.6238472201e+00 
132000 5.9937991961e+00 -2.9318646867e-03 1.5149780295e+00 -2.6240189195e+00 1.5149780295e+00 2.6240189195e+00 
132100 5.9937966325e+00 -2.8617563475e-03 1.5150747932e+00 -2.6241865190e+00 1.5150747932e+00 2.6241865190e+00 
132200 5.9937943802e+00 -2.7930489550e-03 1.5151692369e+00 -2.6243501004e+00 1.5151692369e+00 2.6243501004e+00 
132300 5.9937924249e+00 -2.7257283450e-03 1.5152614074e+00 -2.6245097443e+00 1.5152614074e+00 2.6245097443e+00 
132400 5.9937907529e+00 -2.6597800398e-03 1.5153513508e+00 -2.6246655308e+00 1.5153513508e+00 2.6246655308e+00 
132500 5.9937893508e+00 -2.5951892657e-03 1.5154391128e+00 -2.6248175391e+00 1.5154391128e+00 2.6248175391e+00 
132600 5.9937882057e+00 -2.5319409703e-03 1.5155247386e+00 -2.6249658473e+00 1.5155247386e+00 2.6249658473e+00 
132700 5.9937873051e+00 -2.4700198387e-03 1.5156082728e+00 -2.6251105329e+00 1.5156082728e+00 2.6251105329e+00 
132800 5.9937866369e+00 -2.4094103108e-03 1.5156897596e+00 -2.6252516722e+00 1.5156897596e+00 2.6252516722e+00 
132900 5.9937861893e+00 -2.3500965971e-03 1.5157692426e+00 -2.6253893408e+00 1.5157692426e+00 2.6253893408e+00 
133000 5.9937859509e+00 -2.2920626952e-03 1.5158467649e+00 -2.6255236133e+00 1.5158467649e+00 2.6255236133e+00 
133100 5.9937859109e+00 -2.2352924054e-03 1.5159223689e+00 -2.6256545632e+00 1.5159223689e+00 2.6256545632e+00 
133200 5.9937860585e+00 -2.1797693467e-03 1.5159960966e+00 -2.6257822634e+00 1.5159960966e+00 2.6257822634e+00 
133300 5.9937863836e+00 -2.1254769717e-03 1.5160679895e+00 -2.6259067856e+00 1.5160679895e+00 2.6259067856e+00 
133400 5.9937868763e+00 -2.0723985820e-03 1.5161380884e+00 -2.6260282004e+00 1.5161380884e+00 2.6260282004e+00 
133500 5.9937875270e+00 -2.0205173431e-03 1.5162064336e+00 -2.6261465777e+00 1.5162064336e+00 2.6261465777e+00 
133600 5.9937883265e+00 -1.9698162984e-03 1.5162730647e+00 -2.6262619862e+00 1.5162730647e+00 2.6262619862e+00 
133700 5.9937892660e+00 -1.9202783839e-03 1.5163380210e+00 -2.6263744939e+00 1.5163380210e+00 2.6263744939e+00 
133800 5.9937903369e+00 -1.8718864420e-03 1.5164013411e+00 -2.6264841674e+00 1.5164013411e+00 2.6264841674e+00 
133900 5.9937915311e+00 -1.8246232349e-03 1.5164630628e+00 -2.6265910726e+00 1.5164630628e+00 2.6265910726e+00 
134000 5.9937928405e+00 -1.7784714580e-03 1.5165232237e+00 -2.6266952744e+00 1.5165232237e+00 2.6266952744e+00 
134100 5.9937942577e+00 -1.7334137528e-03 1.5165818606e+00 -2.6267968364e+00 1.5165818606e+00 2.6267968364e+00 
134200 5.9937957753e+00 -1.6894327198e-03 1.5166390096e+00 -2.6268958214e+00 1.5166390096e+00 2.6268958214e+00 
134300 5.9937973862e+00 -1.6465109303e-03 1.5166947066e+00 -2.6269922914e+00 1.5166947066e+00 2.6269922914e+00 
134400 5.9937990839e+00 -1.6046309388e-03 1.5167489865e+00 -2.6270863069e+00 1.5167489865e+00 2.6270863069e+00 
134500 5.9938008617e+00 -1.5637752947e-03 1.5168018838e+00 -2.6271779278e+00 1.5168018838e+00 2.6271779278e+00 
134600 5.9938027135e+00 -1.5239265531e-03 1.5168534326e+00 -2.6272672128e+00 1.5168534326e+00 2.6272672128e+00 
134700 5.9938046334e+00 -1.4850672864e-03 1.5169036660e+00 -2.6273542197e+00 1.5169036660e+00 2.6273542197e+00 
134800 5.9938066158e+00 -1.4471800945e-03 1.5169526169e+00 -2.6274390051e+00 1.5169526169e+00 2.6274390051e+00 
134900 5.9938086551e+00 -1.4102476153e-03 1.5170003174e+00 -2.6275216248e+00 1.5170003174e+00 2.6275216248e+00 
135000 5.9938107462e+00 -1.3742525346e-03 1.5170467991e+00 -2.6276021334e+00 1.5170467991e+00 2.6276021334e+00 
135100 5.9938128842e+00 -1.3391775960e-03 1.5170920930e+00 -2.6276805848e+00 1.5170920930e+00 2.6276805848e+00 
135200 5.9938150643e+00 -1.3050056096e-03 1.5171362295e+00 -2.6277570315e+00 1.5171362295e+00 2.6277570315e+00 
135300 5.9938172820e+00 -1.2717194617e-03 1.5171792386e+00 -2.6278315254e+00 1.5171792386e+00 2.6278315254e+00 
135400 5.9938195330e+00 -1.2393021229e-03 1.5172211494e+00 -2.6279041171e+00 1.5172211494e+00 2.6279041171e+00 
135500 5.9938218132e+00 -1.2077366568e-03 1.5172619908e+00 -2.6279748564e+00 1.5172619908e+00 2.6279748564e+00 
135600 5.9938241188e+00 -1.1770062276e-03 1.5173017908e+00 -2.6280437921e+00 1.5173017908e+00 2.6280437921e+00 
135700 5.9938264461e+00 -1.1470941081e-03 1.5173405771e+00 -2.6281109720e+00 1.5173405771e+00 2.6281109720e+00 
135800 5.9938287915e+00 -1.1179836868e-03 1.5173783768e+00 -2.6281764429e+00 1.5173783768e+00 2.6281764429e+00 
135900 5.9938311517e+00 -1.0896584750e-03 1.5174152163e+00 -2.6282402507e+00 1.5174152163e+00 2.6282402507e+00 
136000 5.9938335236e+00 -1.0621021136e-03 1.5174511215e+00 -2.6283024404e+00 1.5174511215e+00 2.6283024404e+00 
136100 5.9938359042e+00 -1.0352983793e-03 1.5174861179e+00 -2.6283630559e+00 1.5174861179e+00 2.6283630559e+00 
136200 5.9938382907e+00 -1.0092311910e-03 1.5175202303e+00 -2.6284221404e+00 1.5175202303e+00 2.6284221404e+00 
136300 5.9938406804e+00 -9.8388461507e-04 1.5175534831e+00 -2.6284797358e+00 1.5175534831e+00 2.6284797358e+00 
136400 5.9938430708e+00 -9.5924287140e-04 1.5175859000e+00 -2.6285358836e+00 1.5175859000e+00 2.6285358836e+00 
136500 5.9938454595e+00 -9.3529033822e-04 1.5176175043e+00 -2.6285906239e+00 1.5176175043e+00 2.6285906239e+00 
136600 5.9938478444e+00 -9.1201155710e-04 1.5176483188e+00 -2.6286439963e+00 1.5176483188e+00 2.6286439963e+00 
136700 5.9938502233e+00 -8.8939123759e-04 1.5176783658e+00 -2.6286960391e+00 1.5176783658e+00 2.6286960391e+00 
136800 5.9938525942e+00 -8.6741426154e-04 1.5177076670e+00 -2.6287467902e+00 1.5177076670e+00 2.6287467902e+00 
136900 5.9938549554e+00 -8.4606568714e-04 1.5177362435e+00 -2.6287962862e+00 1.5177362435e+00 2.6287962862e+00 
137000 5.9938573052e+00 -8.2533075274e-04 1.5177641162e+00 -2.6288445632e+00 1.5177641162e+00 2.6288445632e+00 
137100 5.9938596418e+00 -8.0519488036e-04 1.5177913053e+00 -2.6288916561e+00 1.5177913053e+00 2.6288916561e+00 
137200 5.9938619639e+00 -7.8564367898e-04 1.5178178306e+00 -2.6289375993e+00 1.5178178306e+00 2.6289375993e+00 
137300 5.9938642701e+00 -7.6666294751e-04 1.5178437114e+00 -2.6289824261e+00 1.5178437114e+00 2.6289824261e+00 
137400 5.9938665591e+00 -7.4823867764e-04 1.5178689665e+00 -2.6290261691e+00 1.5178689665e+00 2.6290261691e+00 
137500 5.9938688296e+00 -7.3035705630e-04 1.5178936142e+00 -2.6290688603e+00 1.5178936142e+00 2.6290688603e+00 
137600 5.9938710807e+00 -7.1300446797e-04 1.5179176725e+00 -2.6291105305e+00 1.5179176725e+00 2.6291105305e+00 
137700 5.9938733113e+00 -6.9616749678e-04 1.5179411588e+00 -2.6291512100e+00 1.5179411588e+00 2.6291512100e+00 
137800 5.9938755204e+00 -6.7983292834e-04 1.5179640902e+00 -2.6291909283e+00 1.5179640902e+00 2.6291909283e+00 
137900 5.9938777073e+00 -6.6398775134e-04 1.5179864832e+00 -2.6292297141e+00 1.5179864832e+00 2.6292297141e+00 
138000 5.9938798712e+00 -6.4861915900e-04 1.5180083539e+00 -2.6292675953e+00 1.5180083539e+00 2.6292675953e+00 
138100 5.9938820114e+00 -6.3371455028e-04 1.5180297181e+00 -2.6293045991e+00 1.5180297181e+00 2.6293045991e+00 
138200 5.9938841273e+00 -6.1926153087e-04 1.5180505911e+00 -2.6293407522e+00 1.5180505911e+00 2.6293407522e+00 
138300 5.9938862182e+00 -6.0524791404e-04 1.5180709877e+00 -2.6293760802e+00 1.5180709877e+00 2.6293760802e+00 
138400 5.9938882838e+00 -5.9166172126e-04 1.5180909225e+00 -2.6294106083e+00 1.5180909225e+00 2.6294106083e+00 
138500 5.9938903236e+00 -5.7849118265e-04 1.5181104096e+00 -2.6294443609e+00 1.5181104096e+00 2.6294443609e+00 
138600 5.9938923372e+00 -5.6572473727e-04 1.5181294627e+00 -2.6294773618e+00 1.5181294627e+00 2.6294773618e+00 
138700 5.9938943243e+00 -5.5335103325e-04 1.5181480950e+00 -2.6295096339e+00 1.5181480950e+00 2.6295096339e+00 
138800 5.9938962846e+00 -5.4135892770e-04 1.5181663196e+00 -2.6295411998e+00 1.5181663196e+00 2.6295411998e+00 
138900 5.9938982179e+00 -5.2973748653e-04 1.5181841490e+00 -2.6295720813e+00 1.5181841490e+00 2.6295720813e+00 
139000 5.9939001241e+00 -5.1847598409e-04 1.5182015954e+00 -2.6296022994e+00 1.5182015954e+00 2.6296022994e+00 
139100 5.9939020028e+00 -5.0756390266e-04 1.5182186708e+00 -2.6296318748e+00 1.5182186708e+00 2.6296318748e+00 
139200 5.9939038542e+00 -4.9699093182e-04 1.5182353866e+00 -2.6296608274e+00 1.5182353866e+00 2.6296608274e+00 
139300 5.9939056781e+00 -4.8674696765e-04 1.5182517540e+00 -2.6296891766e+00 1.5182517540e+00 2.6296891766e+00 
139400 5.9939074744e+00 -4.7682211187e-04 1.5182677839e+00 -2.6297169412e+00 1.5182677839e+00 2.6297169412e+00 
139500 5.9939092432e+00 -4.6720667078e-04 1.5182834867e+00 -2.6297441393e+00 1.5182834867e+00 2.6297441393e+00 
139600 5.9939109845e+00 -4.5789115412e-04 1.5182988728e+00 -2.6297707887e+00 1.5182988728e+00 2.6297707887e+00 
139700 5.9939126984e+00 -4.4886627384e-04 1.5183139519e+00 -2.6297969065e+00 1.5183139519e+00 2.6297969065e+00 
139800 5.9939143850e+00 -4.4012294271e-04 1.5183287337e+00 -2.6298225093e+00 1.5183287337e+00 2.6298225093e+00 
139900 5.9939160444e+00 -4.3165227288e-04 1.5183432273e+00 -2.6298476131e+00 1.5183432273e+00 2.6298476131e+00 
140000 5.9939176767e+00 -4.2344557431e-04 1.5183574419e+00 -2.6298722335e+00 1.5183574419e+00 2.6298722335e+00 
140100 5.9939192820e+00 -4.1549435313e-04 1.5183713862e+00 -2.6298963856e+00 1.5183713862e+00 2.6298963856e+00 
140200 5.9939208606e+00 -4.0779030990e-04 1.5183850684e+00 -2.6299200840e+00 1.5183850684e+00 2.6299200840e+00 
140300 5.9939224127e+00 -4.0032533779e-04 1.5183984969e+00 -2.6299433427e+00 1.5183984969e+00 2.6299433427e+00 
140400 5.9939239384e+00 -3.9309152070e-04 1.5184116794e+00 -2.6299661755e+00 1.5184116794e+00 2.6299661755e+00 
140500 5.9939254380e+00 -3.8608113128e-04 1.5184246236e+00 -2.6299885955e+00 1.5184246236e+00 2.6299885955e+00 
140600 5.9939269117e+00 -3.7928662890e-04 1.5184373368e+00 -2.6300106154e+00 1.5184373368e+00 2.6300106154e+00 
140700 5.9939283598e+00 -3.7270065755e-04 1.5184498262e+00 -2.6300322477e+00 1.5184498262e+00 2.6300322477e+00 
140800 5.9939297825e+00 -3.6631604370e-04 1.5184620986e+00 -2.6300535041e+00 1.5184620986e+00 2.6300535041e+00 
140900 5.9939311802e+00 -3.6012579407e-04 1.5184741607e+00 -2.6300743963e+00 1.5184741607e+00 2.6300743963e+00 
141000 5.9939325531e+00 -3.5412309338e-04 1.5184860189e+00 -2.6300949352e+00 1.5184860189e+00 2.6300949352e+00 
141100 5.9939339015e+00 -3.4830130202e-04 1.5184976793e+00 -2.6301151317e+00 1.5184976793e+00 2.6301151317e+00 
141200 5.9939352257e+00 -3.4265395372e-04 1.5185091479e+00 -2.6301349959e+00 1.5185091479e+00 2.6301349959e+00 
141300 5.9939365260e+00 -3.3717475316e-04 1.5185204305e+00 -2.6301545379e+00 1.5185204305e+00 2.6301545379e+00 
141400 5.9939378027e+00 -3.3185757351e-04 1.5185315326e+00 -2.6301737673e+00 1.5185315326e+00 2.6301737673e+00 
141500 5.9939390561e+00 -3.2669645401e-04 1.5185424595e+00 -2.6301926933e+00 1.5185424595e+00 2.6301926933e+00 
141600 5.9939402866e+00 -3.2168559746e-04 1.5185532164e+00 -2.6302113249e+00 1.5185532164e+00 2.6302113249e+00 
141700 5.9939414944e+00 -3.1681936767e-04 1.5185638083e+00 -2.6302296705e+00 1.5185638083e+00 2.6302296705e+00 
141800 5.9939426800e+00 -3.1209228701e-04 1.5185742399e+00 -2.6302477385e+00 1.5185742399e+00 2.6302477385e+00 
141900 5.9939438436e+00 -3.0749903375e-04 1.5185845157e+00 -2.6302655368e+00 1.5185845157e+00 2.6302655368e+00 
142000 5.9939449855e+00 -3.0303443954e-04 1.5185946402e+00 -2.6302830730e+00 1.5185946402e+00 2.6302830730e+00 
142100 5.9939461062e+00 -2.9869348683e-04 1.5186046177e+00 -2.6303003545e+00 1.5186046177e+00 2.6303003545e+00 
142200 5.9939472058e+00 -2.9447130625e-04 1.5186144522e+00 -2.6303173883e+00 1.5186144522e+00 2.6303173883e+00 
142300 5.9939482848e+00 -2.9036317397e-04 1.5186241476e+00 -2.6303341812e+00 1.5186241476e+00 2.6303341812e+00 
142400 5.9939493435e+00 -2.8636450917e-04 1.5186337077e+00 -2.6303507398e+00 1.5186337077e+00 2.6303507398e+00 
142500 5.9939503822e+00 -2.8247087132e-04 1.5186431361e+00 -2.6303670702e+00 1.5186431361e+00 2.6303670702e+00 
142600 5.9939514012e+00 -2.7867795763e-04 1.5186524362e+00 -2.6303831785e+00 1.5186524362e+00 2.6303831785e+00 
142700 5.9939524009e+00 -2.7498160043e-04 1.5186616114e+00 -2.6303990704e+00 1.5186616114e+00 2.6303990704e+00 
142800 5.9939533815e+00 -2.7137776449e-04 1.5186706648e+00 -2.6304147514e+00 1.5186706648e+00 2.6304147514e+00 
142900 5.9939543435e+00 -2.6786254451e-04 1.5186795995e+00 -2.6304302268e+00 1.5186795995e+00 2.6304302268e+00 
143000 5.9939552871e+00 -2.6443216242e-04 1.5186884184e+00 -2.6304455016e+00 1.5186884184e+00 2.6304455016e+00 
143100 5.9939562126e+00 -2.6108296485e-04 1.5186971244e+00 -2.6304605807e+00 1.5186971244e+00 2.6304605807e+00 
143200 5.9939571204e+00 -2.5781142051e-04 1.5187057200e+00 -2.6304754688e+00 1.5187057200e+00 2.6304754688e+00 
143300 5.9939580107e+00 -2.5461411764e-04 1.5187142079e+00 -2.6304901702e+00 1.5187142079e+00 2.6304901702e+00 
143400 5.9939588839e+00 -2.5148776146e-04 1.5187225905e+00 -2.6305046893e+00 1.5187225905e+00 2.6305046893e+00 
143500 5.9939597403e+00 -2.4842917158e-04 1.5187308700e+00 -2.6305190299e+00 1.5187308700e+00 2.6305190299e+00 
143600 5.9939605801e+00 -2.4543527955e-04 1.5187390489e+00 -2.6305331961e+00 1.5187390489e+00 2.6305331961e+00 
143700 5.9939614037e+00 -2.4250312630e-04 1.5187471291e+00 -2.6305471915e+00 1.5187471291e+00 2.6305471915e+00 
143800 5.9939622114e+00 -2.3962985967e-04 1.5187551128e+00 -2.6305610196e+00 1.5187551128e+00 2.6305610196e+00 
143900 5.9939630034e+00 -2.3681273194e-04 1.5187630018e+00 -2.6305746838e+00 1.5187630018e+00 2.6305746838e+00 
144000 5.9939637801e+00 -2.3404909739e-04 1.5187707981e+00 -2.6305881873e+00 1.5187707981e+00 2.6305881873e+00 
144100 5.9939645416e+00 -2.3133640991e-04 1.5187785033e+00 -2.6306015331e+00 1.5187785033e+00 2.6306015331e+00 
144200 5.9939652884e+00 -2.2867222053e-04 1.5187861192e+00 -2.6306147242e+00 1.5187861192e+00 2.6306147242e+00 
144300 5.9939660206e+00 -2.2605417514e-04 1.5187936473e+00 -2.6306277633e+00 1.5187936473e+00 2.6306277633e+00 
144400 5.9939667386e+00 -2.2348001207e-04 1.5188010892e+00 -2.6306406531e+00 1.5188010892e+00 2.6306406531e+00 
144500 5.9939674425e+00 -2.2094755982e-04 1.5188084463e+00 -2.6306533960e+00 1.5188084463e+00 2.6306533960e+00 
144600 5.9939681327e+00 -2.1845473475e-04 1.5188157200e+00 -2.6306659945e+00 1.5188157200e+00 2.6306659945e+00 
144700 5.9939688094e+00 -2.1599953882e-04 1.5188229117e+00 -2.6306784507e+00 1.5188229117e+00 2.6306784507e+00 
144800 5.9939694729e+00 -2.1358005736e-04 1.5188300224e+00 -2.6306907669e+00 1.5188300224e+00 2.6306907669e+00 
144900 5.9939701233e+00 -2.1119445686e-04 1.5188370535e+00 -2.6307029451e+00 1.5188370535e+00 2.6307029451e+00 
145000 5.9939707610e+00 -2.0884098281e-04 1.5188440060e+00 -2.6307149872e+00 1.5188440060e+00 2.6307149872e+00 
145100 5.9939713862e+00 -2.0651795753e-04 1.5188508810e+00 -2.6307268950e+00 1.5188508810e+00 2.6307268950e+00 
145200 5.9939719992e+00 -2.0422377808e-04 1.5188576795e+00 -2.6307386704e+00 1.5188576795e+00 2.6307386704e+00 
145300 5.9939726001e+00 -2.0195691419e-04 1.5188644025e+00 -2.6307503149e+00 1.5188644025e+00 2.6307503149e+00 
145400 5.9939731891e+00 -1.9971590618e-04 1.5188710508e+00 -2.6307618301e+00 1.5188710508e+00 2.6307618301e+00 
145500 5.9939737666e+00 -1.9749936296e-04 1.5188776252e+00 -2.6307732174e+00 1.5188776252e+00 2.6307732174e+00 
145600 5.9939743327e+00 -1.9530596003e-04 1.5188841267e+00 -2.6307844783e+00 1.5188841267e+00 2.6307844783e+00 
145700 5.9939748876e+00 -1.9313443755e-04 1.5188905560e+00 -2.6307956141e+00 1.5188905560e+00 2.6307956141e+00 
145800 5.9939754316e+00 -1.9098359839e-04 1.5188969138e+00 -2.6308066261e+00 1.5188969138e+00 2.6308066261e+00 
145900 5.9939759649e+00 -1.8885230629e-04 1.5189032007e+00 -2.6308175153e+00 1.5189032007e+00 2.6308175153e+00 
146000 5.9939764876e+00 -1.8673948393e-04 1.5189094174e+00 -2.6308282831e+00 1.5189094174e+00 2.6308282831e+00 
146100 5.9939769999e+00 -1.8464411117e-04 1.5189155646e+00 -2.6308389302e+00 1.5189155646e+00 2.6308389302e+00 
146200 5.9939775022e+00 -1.8256522326e-04 1.5189216427e+00 -2.6308494579e+00 1.5189216427e+00 2.6308494579e+00 
146300 5.9939779944e+00 -1.8050190902e-04 1.5189276524e+00 -2.6308598670e+00 1.5189276524e+00 2.6308598670e+00 
146400 5.9939784769e+00 -1.7845330920e-04 1.5189335942e+00 -2.6308701585e+00 1.5189335942e+00 2.6308701585e+00 
146500 5.9939789499e+00 -1.7641861471e-04 1.5189394685e+00 -2.6308803331e+00 1.5189394685e+00 2.6308803331e+00 
146600 5.9939794134e+00 -1.7439706503e-04 1.5189452758e+00 -2.6308903916e+00 1.5189452758e+00 2.6308903916e+00 
146700 5.9939798678e+00 -1.7238794654e-04 1.5189510165e+00 -2.6309003348e+00 1.5189510165e+00 2.6309003348e+00 
146800 5.9939803131e+00 -1.7039059092e-04 1.5189566911e+00 -2.6309101635e+00 1.5189566911e+00 2.6309101635e+00 
146900 5.9939807495e+00 -1.6840437364e-04 1.5189622999e+00 -2.6309198782e+00 1.5189622999e+00 2.6309198782e+00 
147000 5.9939811773e+00 -1.6642871237e-04 1.5189678433e+00 -2.6309294797e+00 1.5189678433e+00 2.6309294797e+00 
147100 5.9939815965e+00 -1.6446306552e-04 1.5189733217e+00 -2.6309389685e+00 1.5189733217e+00 2.6309389685e+00 
147200 5.9939820073e+00 -1.6250693077e-04 1.5189787353e+00 -2.6309483451e+00 1.5189787353e+00 2.6309483451e+00 
147300 5.9939824100e+00 -1.6055984364e-04 1.5189840845e+00 -2.6309576103e+00 1.5189840845e+00 2.6309576103e+00 
147400 5.9939828046e+00 -1.5862137603e-04 1.5189893696e+00 -2.6309667643e+00 1.5189893696e+00 2.6309667643e+00 
147500 5.9939831913e+00 -1.5669113495e-04 1.5189945909e+00 -2.6309758079e+00 1.5189945909e+00 2.6309758079e+00 
147600 5.9939835703e+00 -1.5476876110e-04 1.5189997486e+00 -2.6309847413e+00 1.5189997486e+00 2.6309847413e+00 
147700 5.9939839417e+00 -1.5285392759e-04 1.5190048431e+00 -2.6309935651e+00 1.5190048431e+00 2.6309935651e+00 
147800 5.9939843056e+00 -1.5094633863e-04 1.5190098745e+00 -2.6310022798e+00 1.5190098745e+00 2.6310022798e+00 
147900 5.9939846623e+00 -1.4904572833e-04 1.5190148430e+00 -2.6310108856e+00 1.5190148430e+00 2.6310108856e+00 
148000 5.9939850117e+00 -1.4715185943e-04 1.5190197490e+00 -2.6310193830e+00 1.5190197490e+00 2.6310193830e+00 
148100 5.9939853542e+00 -1.4526452216e-04 1.5190245927e+00 -2.6310277725e+00 1.5190245927e+00 2.6310277725e+00 
148200 5.9939856898e+00 -1.4338353300e-04 1.5190293742e+00 -2.6310360543e+00 1.5190293742e+00 2.6310360543e+00 
148300 5.9939860186e+00 -1.4150873363e-04 1.5190340938e+00 -2.6310442288e+00 1.5190340938e+00 2.6310442288e+00 
148400 5.9939863409e+00 -1.3963998976e-04 1.5190387516e+00 -2.6310522965e+00 1.5190387516e+00 2.6310522965e+00 
148500 5.9939866566e+00 -1.3777719007e-04 1.5190433480e+00 -2.6310602576e+00 1.5190433480e+00 2.6310602576e+00 
148600 5.9939869660e+00 -1.3592024520e-04 1.5190478830e+00 -2.6310681124e+00 1.5190478830e+00 2.6310681124e+00 
148700 5.9939872691e+00 -1.3406908665e-04 1.5190523568e+00 -2.6310758614e+00 1.5190523568e+00 2.6310758614e+00 
148800 5.9939875661e+00 -1.3222366583e-04 1.5190567697e+00 -2.6310835048e+00 1.5190567697e+00 2.6310835048e+00 
148900 5.9939878572e+00 -1.3038395309e-04 1.5190611219e+00 -2.6310910429e+00 1.5190611219e+00 2.6310910429e+00 
149000 5.9939881423e+00 -1.2854993677e-04 1.5190654135e+00 -2.6310984762e+00 1.5190654135e+00 2.6310984762e+00 
149100 5.9939884217e+00 -1.2672162224e-04 1.5190696447e+00 -2.6311058049e+00 1.5190696447e+00 2.6311058049e+00 
149200 5.9939886954e+00 -1.2489903109e-04 1.5190738158e+00 -2.6311130293e+00 1.5190738158e+00 2.6311130293e+00 
149300 5.9939889636e+00 -1.2308220016e-04 1.5190779268e+00 -2.6311201498e+00 1.5190779268e+00 2.6311201498e+00 
149400 5.9939892264e+00 -1.2127118078e-04 1.5190819780e+00 -2.6311271668e+00 1.5190819780e+00 2.6311271668e+00 
149500 5.9939894839e+00 -1.1946603789e-04 1.5190859696e+00 -2.6311340804e+00 1.5190859696e+00 2.6311340804e+00 
149600 5.9939897361e+00 -1.1766684927e-04 1.5190899018e+00 -2.6311408911e+00 1.5190899018e+00 2.6311408911e+00 
149700 5.9939899833e+00 -1.1587370477e-04 1.5190937747e+00 -2.6311475993e+00 1.5190937747e+00 2.6311475993e+00 
149800 5.9939902254e+00 -1.1408670552e-04 1.5190975886e+00 -2.6311542051e+00 1.5190975886e+00 2.6311542051e+00 
149900 5.9939904626e+00 -1.1230596325e-04 1.5191013437e+00 -2.6311607091e+00 1.5191013437e+00 2.6311607091e+00 
150000 5.9939906951e+00 -1.1053159956e-04 1.5191050402e+00 -2.6311671116e+00 1.5191050402e+00 2.6311671116e+00 
150100 5.9939909228e+00 -1.0876374521e-04 1.5191086782e+00 -2.6311734129e+00 1.5191086782e+00 2.6311734129e+00 
150200 5.9939911459e+00 -1.0700253949e-04 1.5191122581e+00 -2.6311796134e+00 1.5191122581e+00 2.6311796134e+00 
150300 5.9939913644e+00 -1.0524812956e-04 1.5191157799e+00 -2.6311857135e+00 1.5191157799e+00 2.6311857135e+00 
150400 5.9939915786e+00 -1.0350066985e-04 1.5191192441e+00 -2.6311917135e+00 1.5191192441e+00 2.6311917135e+00 
150500 5.9939917884e+00 -1.0176032139e-04 1.5191226507e+00 -2.6311976139e+00 1.5191226507e+00 2.6311976139e+00 
150600 5.9939919939e+00 -1.0002725132e-04 1.5191260000e+00 -2.6312034151e+00 1.5191260000e+00 2.6312034151e+00 
150700 5.9939921953e+00 -9.8301632250e-05 1.5191292923e+00 -2.6312091175e+00 1.5191292923e+00 2.6312091175e+00 
150800 5.9939923926e+00 -9.6583641743e-05 1.5191325277e+00 -2.6312147214e+00 1.5191325277e+00 2.6312147214e+00 
150900 5.9939925858e+00 -9.4873461791e-05 1.5191357066e+00 -2.6312202275e+00 1.5191357066e+00 2.6312202275e+00 
151000 5.9939927752e+00 -9.3171278298e-05 1.5191388292e+00 -2.6312256360e+00 1.5191388292e+00 2.6312256360e+00 
151100 5.9939929608e+00 -9.1477280596e-05 1.5191418958e+00 -2.6312309475e+00 1.5191418958e+00 2.6312309475e+00 
151200 5.9939931425e+00 -8.9791660961e-05 1.5191449066e+00 -2.6312361624e+00 1.5191449066e+00 2.6312361624e+00 
151300 5.9939933206e+00 -8.8114614165e-05 1.5191478620e+00 -2.6312412812e+00 1.5191478620e+00 2.6312412812e+00 
151400 5.9939934951e+00 -8.6446337033e-05 1.5191507621e+00 -2.6312463043e+00 1.5191507621e+00 2.6312463043e+00 
151500 5.9939936661e+00 -8.4787028022e-05 1.5191536073e+00 -2.6312512324e+00 1.5191536073e+00 2.6312512324e+00 
151600 5.9939938336e+00 -8.3136886811e-05 1.5191563979e+00 -2.6312560659e+00 1.5191563979e+00 2.6312560659e+00 
151700 5.9939939977e+00 -8.1496113907e-05 1.5191591342e+00 -2.6312608053e+00 1.5191591342e+00 2.6312608053e+00 
151800 5.9939941585e+00 -7.9864910275e-05 1.5191618165e+00 -2.6312654511e+00 1.5191618165e+00 2.6312654511e+00 
151900 5.9939943161e+00 -7.8243476975e-05 1.5191644451e+00 -2.6312700039e+00 1.5191644451e+00 2.6312700039e+00 
152000 5.9939944705e+00 -7.6632014807e-05 1.5191670203e+00 -2.6312744643e+00 1.5191670203e+00 2.6312744643e+00 
152100 5.9939946217e+00 -7.5030723991e-05 1.5191695425e+00 -2.6312788329e+00 1.5191695425e+00 2.6312788329e+00 
152200 5.9939947700e+00 -7.3439803848e-05 1.5191720119e+00 -2.6312831101e+00 1.5191720119e+00 2.6312831101e+00 
152300 5.9939949152e+00 -7.1859452482e-05 1.5191744290e+00 -2.6312872967e+00 1.5191744290e+00 2.6312872967e+00 
152400 5.9939950575e+00 -7.0289866505e-05 1.5191767941e+00 -2.6312913931e+00 1.5191767941e+00 2.6312913931e+00 
152500 5.9939951972e+00 -7.1447588435e-05 1.5191767941e+00 -2.6312913931e+00 1.5191767941e+00 2.6312913931e+00 
152600 5.9939953339e+00 -6.9806757742e-05 1.5191791456e+00 -2.6312954661e+00 1.5191791456e+00 2.6312954661e+00 
152700 5.9939954680e+00 -7.0878155273e-05 1.5191791456e+00 -2.6312954661e+00 1.5191791456e+00 2.6312954661e+00 
152800 5.9939955992e+00 -6.9173843873e-05 1.5191814784e+00 -2.6312995065e+00 1.5191814784e+00 2.6312995065e+00 
152900 5.9939957280e+00 -7.0160612475e-05 1.5191814784e+00 -2.6312995065e+00 1.5191814784e+00 2.6312995065e+00 
153000 5.9939958542e+00 -7.1111505733e-05 1.5191814784e+00 -2.6312995065e+00 1.5191814784e+00 2.6312995065e+00 
153100 5.9939959777e+00 -6.9278959988e-05 1.5191838189e+00 -2.6313035603e+00 1.5191838189e+00 2.6313035603e+00 
153200 5.9939960990e+00 -7.0147654008e-05 1.5191838189e+00 -2.6313035603e+00 1.5191838189e+00 2.6313035603e+00 
153300 5.9939962178e+00 -7.0981694118e-05 1.5191838189e+00 -2.6313035603e+00 1.5191838189e+00 2.6313035603e+00 
153400 5.9939963340e+00 -6.9038573273e-05 1.5191861551e+00 -2.6313076067e+00 1.5191861551e+00 2.6313076067e+00 
153500 5.9939964482e+00 -6.9792853121e-05 1.5191861551e+00 -2.6313076067e+00 1.5191861551e+00 2.6313076067e+00 
153600 5.9939965601e+00 -7.0513678858e-05 1.5191861551e+00 -2.6313076067e+00 1.5191861551e+00 2.6313076067e+00 
153700 5.9939966697e+00 -7.1201478271e-05 1.5191861551e+00 -2.6313076067e+00 1.5191861551e+00 2.6313076067e+00 
153800 5.9939967770e+00 -6.9105300333e-05 1.5191884985e+00 -2.6313116656e+00 1.5191884985e+00 2.6313116656e+00 
153900 5.9939968824e+00 -6.9716520152e-05 1.5191884985e+00 -2.6313116656e+00 1.5191884985e+00 2.6313116656e+00 
154000 5.9939969857e+00 -7.0295879773e-05 1.5191884985e+00 -2.6313116656e+00 1.5191884985e+00 2.6313116656e+00 
154100 5.9939970869e+00 -7.0843797607e-05 1.5191884985e+00 -2.6313116656e+00 1.5191884985e+00 2.6313116656e+00 
154200 5.9939971860e+00 -6.8623197171e-05 1.5191908301e+00 -2.6313157041e+00 1.5191908301e+00 2.6313157041e+00 
154300 5.9939972833e+00 -6.9097736089e-05 1.5191908301e+00 -2.6313157041e+00 1.5191908301e+00 2.6313157041e+00 
154400 5.9939973787e+00 -6.9541976449e-05 1.5191908301e+00 -2.6313157041e+00 1.5191908301e+00 2.6313157041e+00 
154500 5.9939974722e+00 -6.9956330192e-05 1.5191908301e+00 -2.6313157041e+00 1.5191908301e+00 2.6313157041e+00 
154600 5.9939975639e+00 -7.0341204567e-05 1.5191908301e+00 -2.6313157041e+00 1.5191908301e+00 2.6313157041e+00 
154700 5.9939976538e+00 -7.0697002384e-05 1.5191908301e+00 -2.6313157041e+00 1.5191908301e+00 2.6313157041e+00 
154800 5.9939977420e+00 -7.1024122244e-05 1.5191908301e+00 -2.6313157041e+00 1.5191908301e+00 2.6313157041e+00 
154900 5.9939978282e+00 -6.8578600787e-05 1.5191931677e+00 -2.6313197529e+00 1.5191931677e+00 2.6313197529e+00 
155000 5.9939979130e+00 -6.8837780950e-05 1.5191931677e+00 -2.6313197529e+00 1.5191931677e+00 2.6313197529e+00 
155100 5.9939979961e+00 -6.9069374802e-05 1.5191931677e+00 -2.6313197529e+00 1.5191931677e+00 2.6313197529e+00 
155200 5.9939980777e+00 -6.9273779474e-05 1.5191931677e+00 -2.6313197529e+00 1.5191931677e+00 2.6313197529e+00 
155300 5.9939981576e+00 -6.9451388475e-05 1.5191931677e+00 -2.6313197529e+00 1.5191931677e+00 2.6313197529e+00 
155400 5.9939982360e+00 -6.9602591873e-05 1.5191931677e+00 -2.6313197529e+00 1.5191931677e+00 2.6313197529e+00 
155500 5.9939983129e+00 -6.9727776461e-05 1.5191931677e+00 -2.6313197529e+00 1.5191931677e+00 2.6313197529e+00 
155600 5.9939983884e+00 -6.9827325920e-05 1.5191931677e+00 -2.6313197529e+00 1.5191931677e+00 2.6313197529e+00 
155700 5.9939984624e+00 -6.9901620981e-05 1.5191931677e+00 -2.6313197529e+00 1.5191931677e+00 2.6313197529e+00 
155800 5.9939985349e+00 -6.9951039554e-05 1.5191931677e+00 -2.6313197529e+00 1.5191931677e+00 2.6313197529e+00 
155900 5.9939986061e+00 -6.9975956878e-05 1.5191931677e+00 -2.6313197529e+00 1.5191931677e+00 2.6313197529e+00 
156000 5.9939986760e+00 -6.9976745635e-05 1.5191931677e+00 -2.6313197529e+00 1.5191931677e+00 2.6313197529e+00 
156100 5.9939987445e+00 -6.9953776081e-05 1.5191931677e+00 -2.6313197529e+00 1.5191931677e+00 2.6313197529e+00 
156200 5.9939988117e+00 -6.9907416146e-05 1.5191931677e+00 -2.6313197529e+00 1.5191931677e+00 2.6313197529e+00 
156300 5.9939988777e+00 -6.9838031545e-05 1.5191931677e+00 -2.6313197529e+00 1.5191931677e+00 2.6313197529e+00 
156400 5.9939989424e+00 -6.9745985871e-05 1.5191931677e+00 -2.6313197529e+00 1.5191931677e+00 2.6313197529e+00 
156500 5.9939990058e+00 -6.9631640680e-05 1.5191931677e+00 -2.6313197529e+00 1.5191931677e+00 2.6313197529e+00 
156600 5.9939990681e+00 -6.9495355581e-05 1.5191931677e+00 -2.6313197529e+00 1.5191931677e+00 2.6313197529e+00 
156700 5.9939991293e+00 -6.9337488301e-05 1.5191931677e+00 -2.6313197529e+00 1.5191931677e+00 2.6313197529e+00 
156800 5.9939991893e+00 -6.9158394756e-05 1.5191931677e+00 -2.6313197529e+00 1.5191931677e+00 2.6313197529e+00 
156900 5.9939992481e+00 -6.8958429117e-05 1.5191931677e+00 -2.6313197529e+00 1.5191931677e+00 2.6313197529e+00 
157000 5.9939993059e+00 -6.8737943855e-05 1.5191931677e+00 -2.6313197529e+00 1.5191931677e+00 2.6313197529e+00 
157100 5.9939993626e+00 -6.8497289801e-05 1.5191931677e+00 -2.6313197529e+00 1.5191931677e+00 2.6313197529e+00 
157200 5.9939994183e+00 -6.8236816180e-05 1.5191931677e+00 -2.6313197529e+00 1.5191931677e+00 2.6313197529e+00 
157300 5.9939994729e+00 -6.7956870652e-05 1.5191931677e+00 -2.6313197529e+00 1.5191931677e+00 2.6313197529e+00 
157400 5.9939995265e+00 -6.7657799348e-05 1.5191931677e+00 -2.6313197529e+00 1.5191931677e+00 2.6313197529e+00 
157500 5.9939995791e+00 -6.7339946888e-05 1.5191931677e+00 -2.6313197529e+00 1.5191931677e+00 2.6313197529e+00 
157600 5.9939996308e+00 -6.7003656413e-05 1.5191931677e+00 -2.6313197529e+00 1.5191931677e+00 2.6313197529e+00 
157700 5.9939996815e+00 -6.6649269595e-05 1.5191931677e+00 -2.6313197529e+00 1.5191931677e+00 2.6313197529e+00 
157800 5.9939997313e+00 -6.6277126650e-05 1.5191931677e+00 -2.6313197529e+00 1.5191931677e+00 2.6313197529e+00 
157900 5.9939997802e+00 -6.5887566350e-05 1.5191931677e+00 -2.6313197529e+00 1.5191931677e+00 2.6313197529e+00 
158000 5.9939998282e+00 -6.5480926025e-05 1.5191931677e+00 -2.6313197529e+00 1.5191931677e+00 2.6313197529e+00 
158100 5.9939998753e+00 -6.5057541560e-05 1.5191931677e+00 -2.6313197529e+00 1.5191931677e+00 2.6313197529e+00 
158200 5.9939999216e+00 -6.4617747397e-05 1.5191931677e+00 -2.6313197529e+00 1.5191931677e+00 2.6313197529e+00 
158300 5.9939999670e+00 -6.4161876520e-05 1.5191931677e+00 -2.6313197529e+00 1.5191931677e+00 2.6313197529e+00 
158400 5.9940000117e+00 -6.3690260451e-05 1.5191931677e+00 -2.6313197529e+00 1.5191931677e+00 2.6313197529e+00 
158500 5.9940000555e+00 -6.3203229235e-05 1.5191931677e+00 -2.6313197529e+00 1.5191931677e+00 2.6313197529e+00 
158600 5.9940000985e+00 -6.2701111418e-05 1.5191931677e+00 -2.6313197529e+00 1.5191931677e+00 2.6313197529e+00 
158700 5.9940001408e+00 -6.2184234030e-05 1.5191931677e+00 -2.6313197529e+00 1.5191931677e+00 2.6313197529e+00 
158800 5.9940001823e+00 -6.1652922563e-05 1.5191931677e+00 -2.6313197529e+00 1.5191931677e+00 2.6313197529e+00 
158900 5.9940002231e+00 -6.1107500944e-05 1.5191931677e+00 -2.6313197529e+00 1.5191931677e+00 2.6313197529e+00 
159000 5.9940002631e+00 -6.0548291510e-05 1.5191931677e+00 -2.6313197529e+00 1.5191931677e+00 2.6313197529e+00 
159100 5.9940003024e+00 -5.9975614973e-05 1.5191931677e+00 -2.6313197529e+00 1.5191931677e+00 2.6313197529e+00 
159200 5.9940003411e+00 -5.9389790392e-05 1.5191931677e+00 -2.6313197529e+00 1.5191931677e+00 2.6313197529e+00 
159300 5.9940003790e+00 -5.8791135137e-05 1.5191931677e+00 -2.6313197529e+00 1.5191931677e+00 2.6313197529e+00 
159400 5.9940004163e+00 -5.8179964858e-05 1.5191931677e+00 -2.6313197529e+00 1.5191931677e+00 2.6313197529e+00 
159500 5.9940004529e+00 -5.7556593443e-05 1.5191931677e+00 -2.6313197529e+00 1.5191931677e+00 2.6313197529e+00 
159600 5.9940004889e+00 -5.6921332979e-05 1.5191931677e+00 -2.6313197529e+00 1.5191931677e+00 2.6313197529e+00 
159700 5.9940005243e+00 -5.6274493716e-05 1.5191931677e+00 -2.6313197529e+00 1.5191931677e+00 2.6313197529e+00 
159800 5.9940005590e+00 -5.5616384023e-05 1.5191931677e+00 -2.6313197529e+00 1.5191931677e+00 2.6313197529e+00 
159900 5.9940005931e+00 -5.4947310346e-05 1.5191931677e+00 -2.6313197529e+00 1.5191931677e+00 2.6313197529e+00 
160000 5.9940006267e+00 -5.4267577167e-05 1.5191931677e+00 -2.6313197529e+00 1.5191931677e+00 2.6313197529e+00 
160100 5.9940006596e+00 -5.3577486960e-05 1.5191931677e+00 -2.6313197529e+00 1.5191931677e+00 2.6313197529e+00 
160200 5.9940006920e+00 -5.2877340144e-05 1.5191931677e+00 -2.6313197529e+00 1.5191931677e+00 2.6313197529e+00 
160300 5.9940007238e+00 -5.2167435040e-05 1.5191931677e+00 -2.6313197529e+00 1.5191931677e+00 2.6313197529e+00 
160400 5.9940007551e+00 -5.1448067828e-05 1.5191931677e+00 -2.6313197529e+00 1.5191931677e+00 2.6313197529e+00 
160500 5.9940007858e+00 -5.0719532497e-05 1.5191931677e+00 -2.6313197529e+00 1.5191931677e+00 2.6313197529e+00 
160600 5.9940008160e+00 -4.9982120804e-05 1.5191931677e+00 -2.6313197529e+00 1.5191931677e+00 2.6313197529e+00 
160700 5.9940008457e+00 -4.9236122222e-05 1.5191931677e+00 -2.6313197529e+00 1.5191931677e+00 2.6313197529e+00 
160800 5.9940008749e+00 -4.8481823900e-05 1.5191931677e+00 -2.6313197529e+00 1.5191931677e+00 2.6313197529e+00 
160900 5.9940009035e+00 -4.7719510617e-05 1.5191931677e+00 -2.6313197529e+00 1.5191931677e+00 2.6313197529e+00 
161000 5.9940009317e+00 -4.6949464734e-05 1.5191931677e+00 -2.6313197529e+00 1.5191931677e+00 2.6313197529e+00 
161100 5.9940009594e+00 -4.6171966151e-05 1.5191931677e+00 -2.6313197529e+00 1.5191931677e+00 2.6313197529e+00 
161200 5.9940009867e+00 -4.5387292259e-05 1.5191931677e+00 -2.6313197529e+00 1.5191931677e+00 2.6313197529e+00 
161300 5.9940010134e+00 -4.4595717900e-05 1.5191931677e+00 -2.6313197529e+00 1.5191931677e+00 2.6313197529e+00 
161400 5.9940010397e+00 -4.3797515323e-05 1.5191931677e+00 -2.6313197529e+00 1.5191931677e+00 2.6313197529e+00 
161500 5.9940010656e+00 -4.2992954135e-05 1.5191931677e+00 -2.6313197529e+00 1.5191931677e+00 2.6313197529e+00 
161600 5.9940010910e+00 -4.2182301271e-05 1.5191931677e+00 -2.6313197529e+00 1.5191931677e+00 2.6313197529e+00 
161700 5.9940011160e+00 -4.1365820936e-05 1.5191931677e+00 -2.6313197529e+00 1.5191931677e+00 2.6313197529e+00 
161800 5.9940011406e+00 -4.0543774585e-05 1.5191931677e+00 -2.6313197529e+00 1.5191931677e+00 2.6313197529e+00 
161900 5.9940011648e+00 -3.9716420860e-05 1.5191931677e+00 -2.6313197529e+00 1.5191931677e+00 2.6313197529e+00 
162000 5.9940011885e+00 -3.8884015570e-05 1.5191931677e+00 -2.6313197529e+00 1.5191931677e+00 2.6313197529e+00 
162100 5.9940012119e+00 -3.8046811644e-05 1.5191931677e+00 -2.6313197529e+00 1.5191931677e+00 2.6313197529e+00 
162200 5.9940012348e+00 -3.7205059098e-05 1.5191931677e+00 -2.6313197529e+00 1.5191931677e+00 2.6313197529e+00 
162300 5.9940012574e+00 -3.6359004996e-05 1.5191931677e+00 -2.6313197529e+00 1.5191931677e+00 2.6313197529e+00 
162400 5.9940012796e+00 -3.5508893421e-05 1.5191931677e+00 -2.6313197529e+00 1.5191931677e+00 2.6313197529e+00 
162500 5.9940013015e+00 -3.4654965436e-05 1.5191931677e+00 -2.6313197529e+00 1.5191931677e+00 2.6313197529e+00 
162600 5.9940013229e+00 -3.3797459055e-05 1.5191931677e+00 -2.6313197529e+00 1.5191931677e+00 2.6313197529e+00 
162700 5.9940013440e+00 -3.2936609213e-05 1.5191931677e+00 -2.6313197529e+00 1.5191931677e+00 2.6313197529e+00 
162800 5.9940013648e+00 -3.2072647736e-05 1.5191931677e+00 -2.6313197529e+00 1.5191931677e+00 2.6313197529e+00 
162900 5.9940013852e+00 -3.1205803313e-05 1.5191931677e+00 -2.6313197529e+00 1.5191931677e+00 2.6313197529e+00 
163000 5.9940014053e+00 -3.0336301466e-05 1.5191931677e+00 -2.6313197529e+00 1.5191931677e+00 2.6313197529e+00 
163100 5.9940014250e+00 -2.9464364535e-05 1.5191931677e+00 -2.6313197529e+00 1.5191931677e+00 2.6313197529e+00 
163200 5.9940014445e+00 -2.8590211639e-05 1.5191931677e+00 -2.6313197529e+00 1.5191931677e+00 2.6313197529e+00 
163300 5.9940014636e+00 -2.7714058670e-05 1.5191931677e+00 -2.6313197529e+00 1.5191931677e+00 2.6313197529e+00 
163400 5.9940014823e+00 -2.6836118258e-05 1.5191931677e+00 -2.6313197529e+00 1.5191931677e+00 2.6313197529e+00 
163500 5.9940015008e+00 -2.5956599762e-05 1.5191931677e+00 -2.6313197529e+00 1.5191931677e+00 2.6313197529e+00 
163600 5.9940015190e+00 -2.5075709244e-05 1.5191931677e+00 -2.6313197529e+00 1.5191931677e+00 2.6313197529e+00 
163700 5.9940015369e+00 -2.4193649461e-05 1.5191931677e+00 -2.6313197529e+00 1.5191931677e+00 2.6313197529e+00 
163800 5.9940015544e+00 -2.3310619842e-05 1.5191931677e+00 -2.6313197529e+00 1.5191931677e+00 2.6313197529e+00 
163900 5.9940015717e+00 -2.2426816479e-05 1.5191931677e+00 -2.6313197529e+00 1.5191931677e+00 2.6313197529e+00 
164000 5.9940015887e+00 -2.1542432115e-05 1.5191931677e+00 -2.6313197529e+00 1.5191931677e+00 2.6313197529e+00 
164100 5.9940016055e+00 -2.0657656134e-05 1.5191931677e+00 -2.6313197529e+00 1.5191931677e+00 2.6313197529e+00 
164200 5.9940016219e+00 -1.9772674547e-05 1.5191931677e+00 -2.6313197529e+00 1.5191931677e+00 2.6313197529e+00 
164300 5.9940016381e+00 -1.8887669992e-05 1.5191931677e+00 -2.6313197529e+00 1.5191931677e+00 2.6313197529e+00 
164400 5.9940016540e+00 -1.8002821724e-05 1.5191931677e+00 -2.6313197529e+00 1.5191931677e+00 2.6313197529e+00 
164500 5.9940016697e+00 -1.7118305612e-05 1.5191931677e+00 -2.6313197529e+00 1.5191931677e+00 2.6313197529e+00 
164600 5.9940016851e+00 -1.6234294133e-05 1.5191931677e+00 -2.6313197529e+00 1.5191931677e+00 2.6313197529e+00 
164700 5.9940017003e+00 -1.5350956375e-05 1.5191931677e+00 -2.6313197529e+00 1.5191931677e+00 2.6313197529e+00 
164800 5.9940017152e+00 -1.4468458035e-05 1.5191931677e+00 -2.6313197529e+00 1.5191931677e+00 2.6313197529e+00 
164900 5.9940017298e+00 -1.3586961419e-05 1.5191931677e+00 -2.6313197529e+00 1.5191931677e+00 2.6313197529e+00 
165000 5.9940017443e+00 -1.2706625451e-05 1.5191931677e+00 -2.6313197529e+00 1.5191931677e+00 2.6313197529e+00 
165100 5.9940017585e+00 -1.1827605666e-05 1.5191931677e+00 -2.6313197529e+00 1.5191931677e+00 2.6313197529e+00 
165200 5.9940017724e+00 -1.0950054229e-05 1.5191931677e+00 -2.6313197529e+00 1.5191931677e+00 2.6313197529e+00 
165300 5.9940017862e+00 -1.0074119931e-05 1.5191931677e+00 -2.6313197529e+00 1.5191931677e+00 2.6313197529e+00 
165400 5.9940017997e+00 -9.1999482051e-06 1.5191931677e+00 -2.6313197529e+00 1.5191931677e+00 2.6313197529e+00 
165500 5.9940018130e+00 -8.3276811327e-06 1.5191931677e+00 -2.6313197529e+00 1.5191931677e+00 2.6313197529e+00 
165600 5.9940018261e+00 -7.4574574551e-06 1.5191931677e+00 -2.6313197529e+00 1.5191931677e+00 2.6313197529e+00 
165700 5.9940018390e+00 -6.5894125872e-06 1.5191931677e+00 -2.6313197529e+00 1.5191931677e+00 2.6313197529e+00 
165800 5.9940018516e+00 -5.7236786293e-06 1.5191931677e+00 -2.6313197529e+00 1.5191931677e+00 2.6313197529e+00 
165900 5.9940018641e+00 -4.8603843840e-06 1.5191931677e+00 -2.6313197529e+00 1.5191931677e+00 2.6313197529e+00 
166000 5.9940018764e+00 -3.9996553728e-06 1.5191931677e+00 -2.6313197529e+00 1.5191931677e+00 2.6313197529e+00 
166100 5.9940018884e+00 -3.1416138495e-06 1.5191931677e+00 -2.6313197529e+00 1.5191931677e+00 2.6313197529e+00 
166200 5.9940019003e+00 -2.2863788239e-06 1.5191931677e+00 -2.6313197529e+00 1.5191931677e+00 2.6313197529e+00 
166300 5.9940019120e+00 -1.4340660794e-06 1.5191931677e+00 -2.6313197529e+00 1.5191931677e+00 2.6313197529e+00 
166400 5.9940019235e+00 -5.8478819210e-07 1.5191931677e+00 -2.6313197529e+00 1.5191931677e+00 2.6313197529e+00 
166500 5.9940019348e+00 2.6134544460e-07 1.5191931677e+00 -2.6313197529e+00 1.5191931677e+00 2.6313197529e+00 
166600 5.9940019460e+00 1.1042285985e-06 1.5191931677e+00 -2.6313197529e+00 1.5191931677e+00 2.6313197529e+00 
166700 5.9940019569e+00 1.9437581730e-06 1.5191931677e+00 -2.6313197529e+00 1.5191931677e+00 2.6313197529e+00 
166800 5.9940019677e+00 2.7798341845e-06 1.5191931677e+00 -2.6313197529e+00 1.5191931677e+00 2.6313197529e+00 
166900 5.9940019783e+00 3.6123597329e-06 1.5191931677e+00 -2.6313197529e+00 1.5191931677e+00 2.6313197529e+00 
167000 5.9940019888e+00 4.4412409805e-06 1.5191931677e+00 -2.6313197529e+00 1.5191931677e+00 2.6313197529e+00 
167100 5.9940019991e+00 5.2663871156e-06 1.5191931677e+00 -2.6313197529e+00 1.5191931677e+00 2.6313197529e+00 
167200 5.9940020092e+00 6.0877103343e-06 1.5191931677e+00 -2.6313197529e+00 1.5191931677e+00 2.6313197529e+00 
167300 5.9940020191e+00 6.9051258010e-06 1.5191931677e+00 -2.6313197529e+00 1.5191931677e+00 2.6313197529e+00 
167400 5.9940020289e+00 7.7185516256e-06 1.5191931677e+00 -2.6313197529e+00 1.5191931677e+00 2.6313197529e+00 
167500 5.9940020386e+00 8.5279088247e-06 1.5191931677e+00 -2.6313197529e+00 1.5191931677e+00 2.6313197529e+00 
167600 5.9940020481e+00 9.3331213004e-06 1.5191931677e+00 -2.6313197529e+00 1.5191931677e+00 2.6313197529e+00 
167700 5.9940020574e+00 1.0134115796e-05 1.5191931677e+00 -2.6313197529e+00 1.5191931677e+00 2.6313197529e+00 
167800 5.9940020666e+00 1.0930821873e-05 1.5191931677e+00 -2.6313197529e+00 1.5191931677e+00 2.6313197529e+00 
167900 5.9940020756e+00 1.1723171869e-05 1.5191931677e+00 -2.6313197529e+00 1.5191931677e+00 2.6313197529e+00 
168000 5.9940020845e+00 1.2511100869e-05 1.5191931677e+00 -2.6313197529e+00 1.5191931677e+00 2.6313197529e+00 
168100 5.9940020933e+00 1.3294546666e-05 1.5191931677e+00 -2.6313197529e+00 1.5191931677e+00 2.6313197529e+00 
168200 5.9940021019e+00 1.4073449728e-05 1.5191931677e+00 -2.6313197529e+00 1.5191931677e+00 2.6313197529e+00 
168300 5.9940021104e+00 1.4847753165e-05 1.5191931677e+00 -2.6313197529e+00 1.5191931677e+00 2.6313197529e+00 
168400 5.9940021188e+00 1.5617402682e-05 1.5191931677e+00 -2.6313197529e+00 1.5191931677e+00 2.6313197529e+00 
168500 5.9940021270e+00 1.6382346552e-05 1.5191931677e+00 -2.6313197529e+00 1.5191931677e+00 2.6313197529e+00 
168600 5.9940021351e+00 1.7142535575e-05 1.5191931677e+00 -2.6313197529e+00 1.5191931677e+00 2.6313197529e+00 
168700 5.9940021431e+00 1.7897923042e-05 1.5191931677e+00 -2.6313197529e+00 1.5191931677e+00 2.6313197529e+00 
168800 5.9940021509e+00 1.8648464688e-05 1.5191931677e+00 -2.6313197529e+00 1.5191931677e+00 2.6313197529e+00 
168900 5.9940021586e+00 1.9394118666e-05 1.5191931677e+00 -2.6313197529e+00 1.5191931677e+00 2.6313197529e+00 
169000 5.9940021662e+00 2.0134845501e-05 1.5191931677e+00 -2.6313197529e+00 1.5191931677e+00 2.6313197529e+00 
169100 5.9940021737e+00 2.0870608050e-05 1.5191931677e+00 -2.6313197529e+00 1.5191931677e+00 2.6313197529e+00 
169200 5.9940021811e+00 2.1601371466e-05 1.5191931677e+00 -2.6313197529e+00 1.5191931677e+00 2.6313197529e+00 
169300 5.9940021884e+00 2.2327103156e-05 1.5191931677e+00 -2.6313197529e+00 1.5191931677e+00 2.6313197529e+00 
169400 5.9940021955e+00 2.3047772742e-05 1.5191931677e+00 -2.6313197529e+00 1.5191931677e+00 2.6313197529e+00 
169500 5.9940022025e+00 2.3763352021e-05 1.5191931677e+00 -2.6313197529e+00 1.5191931677e+00 2.6313197529e+00 
169600 5.9940022094e+00 2.4473814924e-05 1.5191931677e+00 -2.6313197529e+00 1.5191931677e+00 2.6313197529e+00 
169700 5.9940022162e+00 2.5179137478e-05 1.5191931677e+00 -2.6313197529e+00 1.5191931677e+00 2.6313197529e+00 
169800 5.9940022230e+00 2.5879297759e-05 1.5191931677e+00 -2.6313197529e+00 1.5191931677e+00 2.6313197529e+00 
169900 5.9940022296e+00 2.6574275864e-05 1.5191931677e+00 -2.6313197529e+00 1.5191931677e+00 2.6313197529e+00 
170000 5.9940022361e+00 2.7264053858e-05 1.5191931677e+00 -2.6313197529e+00 1.5191931677e+00 2.6313197529e+00 
170100 5.9940022425e+00 2.7948615738e-05 1.5191931677e+00 -2.6313197529e+00 1.5191931677e+00 2.6313197529e+00 
170200 5.9940022487e+00 2.8627947396e-05 1.5191931677e+00 -2.6313197529e+00 1.5191931677e+00 2.6313197529e+00 
170300 5.9940022550e+00 2.9302036575e-05 1.5191931677e+00 -2.6313197529e+00 1.5191931677e+00 2.6313197529e+00 
170400 5.9940022611e+00 2.9970872829e-05 1.5191931677e+00 -2.6313197529e+00 1.5191931677e+00 2.6313197529e+00 
170500 5.9940022671e+00 3.0634447480e-05 1.5191931677e+00 -2.6313197529e+00 1.5191931677e+00 2.6313197529e+00 
170600 5.9940022730e+00 3.1292753587e-05 1.5191931677e+00 -2.6313197529e+00 1.5191931677e+00 2.6313197529e+00 
170700 5.9940022788e+00 3.1945785896e-05 1.5191931677e+00 -2.6313197529e+00 1.5191931677e+00 2.6313197529e+00 
170800 5.9940022846e+00 3.2593540804e-05 1.5191931677e+00 -2.6313197529e+00 1.5191931677e+00 2.6313197529e+00 
170900 5.9940022902e+00 3.3236016320e-05 1.5191931677e+00 -2.6313197529e+00 1.5191931677e+00 2.6313197529e+00 
171000 5.9940022958e+00 3.3873212024e-05 1.5191931677e+00 -2.6313197529e+00 1.5191931677e+00 2.6313197529e+00 
171100 5.9940023012e+00 3.4505129030e-05 1.5191931677e+00 -2.6313197529e+00 1.5191931677e+00 2.6313197529e+00 
171200 5.9940023066e+00 3.5131769943e-05 1.5191931677e+00 -2.6313197529e+00 1.5191931677e+00 2.6313197529e+00 
171300 5.9940023119e+00 3.5753138825e-05 1.5191931677e+00 -2.6313197529e+00 1.5191931677e+00 2.6313197529e+00 
171400 5.9940023172e+00 3.6369241151e-05 1.5191931677e+00 -2.6313197529e+00 1.5191931677e+00 2.6313197529e+00 
171500 5.9940023223e+00 3.6980083776e-05 1.5191931677e+00 -2.6313197529e+00 1.5191931677e+00 2.6313197529e+00 
171600 5.9940023274e+00 3.7585674895e-05 1.5191931677e+00 -2.6313197529e+00 1.5191931677e+00 2.6313197529e+00 
171700 5.9940023324e+00 3.8186024000e-05 1.5191931677e+00 -2.6313197529e+00 1.5191931677e+00 2.6313197529e+00 
171800 5.9940023373e+00 3.8781141852e-05 1.5191931677e+00 -2.6313197529e+00 1.5191931677e+00 2.6313197529e+00 
171900 5.9940023421e+00 3.9371040439e-05 1.5191931677e+00 -2.6313197529e+00 1.5191931677e+00 2.6313197529e+00 
172000 5.9940023469e+00 3.9955732938e-05 1.5191931677e+00 -2.6313197529e+00 1.5191931677e+00 2.6313197529e+00 
172100 5.9940023516e+00 4.0535233681e-05 1.5191931677e+00 -2.6313197529e+00 1.5191931677e+00 2.6313197529e+00 
172200 5.9940023562e+00 4.1109558116e-05 1.5191931677e+00 -2.6313197529e+00 1.5191931677e+00 2.6313197529e+00 
172300 5.9940023608e+00 4.1678722777e-05 1.5191931677e+00 -2.6313197529e+00 1.5191931677e+00 2.6313197529e+00 
172400 5.9940023652e+00 4.2242745245e-05 1.5191931677e+00 -2.6313197529e+00 1.5191931677e+00 2.6313197529e+00 
172500 5.9940023697e+00 4.2801644111e-05 1.5191931677e+00 -2.6313197529e+00 1.5191931677e+00 2.6313197529e+00 
172600 5.9940023740e+00 4.3355438946e-05 1.5191931677e+00 -2.6313197529e+00 1.5191931677e+00 2.6313197529e+00 
172700 5.9940023783e+00 4.3904150267e-05 1.5191931677e+00 -2.6313197529e+00 1.5191931677e+00 2.6313197529e+00 
172800 5.9940023825e+00 4.4447799498e-05 1.5191931677e+00 -2.6313197529e+00 1.5191931677e+00 2.6313197529e+00 
172900 5.9940023867e+00 4.4986408945e-05 1.5191931677e+00 -2.6313197529e+00 1.5191931677e+00 2.6313197529e+00 
173000 5.9940023907e+00 4.5520001757e-05 1.5191931677e+00 -2.6313197529e+00 1.5191931677e+00 2.6313197529e+00 
173100 5.9940023948e+00 4.6048601894e-05 1.5191931677e+00 -2.6313197529e+00 1.5191931677e+00 2.6313197529e+00 
173200 5.9940023987e+00 4.6572234103e-05 1.5191931677e+00 -2.6313197529e+00 1.5191931677e+00 2.6313197529e+00 
173300 5.9940024026e+00 4.7090923875e-05 1.5191931677e+00 -2.6313197529e+00 1.5191931677e+00 2.6313197529e+00 
173400 5.9940024065e+00 4.7604697425e-05 1.5191931677e+00 -2.6313197529e+00 1.5191931677e+00 2.6313197529e+00 
173500 5.9940024103e+00 4.8113581655e-05 1.5191931677e+00 -2.6313197529e+00 1.5191931677e+00 2.6313197529e+00 
173600 5.9940024140e+00 4.8617604127e-05 1.5191931677e+00 -2.6313197529e+00 1.5191931677e+00 2.6313197529e+00 
173700 5.9940024177e+00 4.9116793033e-05 1.5191931677e+00 -2.6313197529e+00 1.5191931677e+00 2.6313197529e+00 
173800 5.9940024213e+00 4.9611177166e-05 1.5191931677e+00 -2.6313197529e+00 1.5191931677e+00 2.6313197529e+00 
173900 5.9940024249e+00 5.0100785895e-05 1.5191931677e+00 -2.6313197529e+00 1.5191931677e+00 2.6313197529e+00 
174000 5.9940024284e+00 5.0585649132e-05 1.5191931677e+00 -2.6313197529e+00 1.5191931677e+00 2.6313197529e+00 
174100 5.9940024318e+00 5.1065797306e-05 1.5191931677e+00 -2.6313197529e+00 1.5191931677e+00 2.6313197529e+00 
174200 5.9940024352e+00 5.1541261341e-05 1.5191931677e+00 -2.6313197529e+00 1.5191931677e+00 2.6313197529e+00 
174300 5.9940024386e+00 5.2012072625e-05 1.5191931677e+00 -2.6313197529e+00 1.5191931677e+00 2.6313197529e+00 
174400 5.9940024419e+00 5.2478262983e-05 1.5191931677e+00 -2.6313197529e+00 1.5191931677e+00 2.6313197529e+00 
174500 5.9940024451e+00 5.2939864660e-05 1.5191931677e+00 -2.6313197529e+00 1.5191931677e+00 2.6313197529e+00 
174600 5.9940024483e+00 5.3396910286e-05 1.5191931677e+00 -2.6313197529e+00 1.5191931677e+00 2.6313197529e+00 
174700 5.9940024515e+00 5.3849432857e-05 1.5191931677e+00 -2.6313197529e+00 1.5191931677e+00 2.6313197529e+00 
174800 5.9940024546e+00 5.4297465713e-05 1.5191931677e+00 -2.6313197529e+00 1.5191931677e+00 2.6313197529e+00 
174900 5.9940024577e+00 5.4741042513e-05 1.5191931677e+00 -2.6313197529e+00 1.5191931677e+00 2.6313197529e+00 
175000 5.9940024607e+00 5.5180197210e-05 1.5191931677e+00 -2.6313197529e+00 1.5191931677e+00 2.6313197529e+00 
175100 5.9940024637e+00 5.5614964033e-05 1.5191931677e+00 -2.6313197529e+00 1.5191931677e+00 2.6313197529e+00 
175200 5.9940024666e+00 5.6045377463e-05 1.5191931677e+00 -2.6313197529e+00 1.5191931677e+00 2.6313197529e+00 
175300 5.9940024695e+00 5.6471472212e-05 1.5191931677e+00 -2.6313197529e+00 1.5191931677e+00 2.6313197529e+00 
175400 5.9940024723e+00 5.6893283204e-05 1.5191931677e+00 -2.6313197529e+00 1.5191931677e+00 2.6313197529e+00 
175500 5.9940024751e+00 5.7310845553e-05 1.5191931677e+00 -2.6313197529e+00 1.5191931677e+00 2.6313197529e+00 
175600 5.9940024779e+00 5.7724194544e-05 1.5191931677e+00 -2.6313197529e+00 1.5191931677e+00 2.6313197529e+00 
175700 5.9940024806e+00 5.8133365617e-05 1.5191931677e+00 -2.6313197529e+00 1.5191931677e+00 2.6313197529e+00 
175800 5.9940024833e+00 5.8538394340e-05 1.5191931677e+00 -2.6313197529e+00 1.5191931677e+00 2.6313197529e+00 
175900 5.9940024859e+00 5.8939316402e-05 1.5191931677e+00 -2.6313197529e+00 1.5191931677e+00 2.6313197529e+00 
176000 5.9940024885e+00 5.9336167587e-05 1.5191931677e+00 -2.6313197529e+00 1.5191931677e+00 2.6313197529e+00 
176100 5.9940024910e+00 5.9728983762e-05 1.5191931677e+00 -2.6313197529e+00 1.5191931677e+00 2.6313197529e+00 
176200 5.9940024936e+00 6.0117800857e-05 1.5191931677e+00 -2.6313197529e+00 1.5191931677e+00 2.6313197529e+00 
176300 5.9940024960e+00 6.0502654849e-05 1.5191931677e+00 -2.6313197529e+00 1.5191931677e+00 2.6313197529e+00 
176400 5.9940024985e+00 6.0883581749e-05 1.5191931677e+00 -2.6313197529e+00 1.5191931677e+00 2.6313197529e+00 
176500 5.9940025009e+00 6.1260617585e-05 1.5191931677e+00 -2.6313197529e+00 1.5191931677e+00 2.6313197529e+00 
176600 5.9940025033e+00 6.1633798387e-05 1.5191931677e+00 -2.6313197529e+00 1.5191931677e+00 2.6313197529e+00 
176700 5.9940025056e+00 6.2003160175e-05 1.5191931677e+00 -2.6313197529e+00 1.5191931677e+00 2.6313197529e+00 
176800 5.9940025079e+00 6.2368738939e-05 1.5191931677e+00 -2.6313197529e+00 1.5191931677e+00 2.6313197529e+00 
176900 5.9940025102e+00 6.2730570634e-05 1.5191931677e+00 -2.6313197529e+00 1.5191931677e+00 2.6313197529e+00 
177000 5.9940025124e+00 6.3088691162e-05 1.5191931677e+00 -2.6313197529e+00 1.5191931677e+00 2.6313197529e+00 
177100 5.9940025146e+00 6.3443136361e-05 1.5191931677e+00 -2.6313197529e+00 1.5191931677e+00 2.6313197529e+00 
177200 5.9940025168e+00 6.3793941989e-05 1.5191931677e+00 -2.6313197529e+00 1.5191931677e+00 2.6313197529e+00 
177300 5.9940025189e+00 6.4141143719e-05 1.5191931677e+00 -2.6313197529e+00 1.5191931677e+00 2.6313197529e+00 
177400 5.9940025210e+00 6.4484777124e-05 1.5191931677e+00 -2.6313197529e+00 1.5191931677e+00 2.6313197529e+00 
177500 5.9940025231e+00 6.4824877667e-05 1.5191931677e+00 -2.6313197529e+00 1.5191931677e+00 2.6313197529e+00 
177600 5.9940025251e+00 6.5161480689e-05 1.5191931677e+00 -2.6313197529e+00 1.5191931677e+00 2.6313197529e+00 
177700 5.9940025272e+00 6.5494621398e-05 1.5191931677e+00 -2.6313197529e+00 1.5191931677e+00 2.6313197529e+00 
177800 5.9940025291e+00 6.5824334867e-05 1.5191931677e+00 -2.6313197529e+00 1.5191931677e+00 2.6313197529e+00 
177900 5.9940025311e+00 6.6150656014e-05 1.5191931677e+00 -2.6313197529e+00 1.5191931677e+00 2.6313197529e+00 
178000 5.9940025330e+00 6.6473619601e-05 1.5191931677e+00 -2.6313197529e+00 1.5191931677e+00 2.6313197529e+00 
178100 5.9940025349e+00 6.6793260225e-05 1.5191931677e+00 -2.6313197529e+00 1.5191931677e+00 2.6313197529e+00 
178200 5.9940025368e+00 6.7109612300e-05 1.5191931677e+00 -2.6313197529e+00 1.5191931677e+00 2.6313197529e+00 
178300 5.9940025386e+00 6.7422710065e-05 1.5191931677e+00 -2.6313197529e+00 1.5191931677e+00 2.6313197529e+00 
178400 5.9940025404e+00 6.7732587562e-05 1.5191931677e+00 -2.6313197529e+00 1.5191931677e+00 2.6313197529e+00 
178500 5.9940025422e+00 6.8039278641e-05 1.5191931677e+00 -2.6313197529e+00 1.5191931677e+00 2.6313197529e+00 
178600 5.9940025440e+00 6.8342816943e-05 1.5191931677e+00 -2.6313197529e+00 1.5191931677e+00 2.6313197529e+00 
178700 5.9940025457e+00 6.8643235902e-05 1.5191931677e+00 -2.6313197529e+00 1.5191931677e+00 2.6313197529e+00 
178800 5.9940025474e+00 6.8940568732e-05 1.5191931677e+00 -2.6313197529e+00 1.5191931677e+00 2.6313197529e+00 
178900 5.9940025491e+00 6.9234848424e-05 1.5191931677e+00 -2.6313197529e+00 1.5191931677e+00 2.6313197529e+00 
179000 5.9940025508e+00 6.9526107742e-05 1.5191931677e+00 -2.6313197529e+00 1.5191931677e+00 2.6313197529e+00 
179100 5.9940025524e+00 6.9814379219e-05 1.5191931677e+00 -2.6313197529e+00 1.5191931677e+00 2.6313197529e+00 
179200 5.9940025540e+00 7.0099695144e-05 1.5191931677e+00 -2.6313197529e+00 1.5191931677e+00 2.6313197529e+00 
179300 5.9940025556e+00 7.0382087567e-05 1.5191931677e+00 -2.6313197529e+00 1.5191931677e+00 2.6313197529e+00 
179400 5.9940025572e+00 7.0661588291e-05 1.5191931677e+00 -2.6313197529e+00 1.5191931677e+00 2.6313197529e+00 
179500 5.9940025587e+00 7.0938228865e-05 1.5191931677e+00 -2.6313197529e+00 1.5191931677e+00 2.6313197529e+00 
179600 5.9940025600e+00 6.8472221611e-05 1.5191908329e+00 -2.6313157090e+00 1.5191908329e+00 2.6313157090e+00 
179700 5.9940025615e+00 6.8731431841e-05 1.5191908329e+00 -2.6313157090e+00 1.5191908329e+00 2.6313157090e+00 
179800 5.9940025630e+00 6.8987797109e-05 1.5191908329e+00 -2.6313157090e+00 1.5191908329e+00 2.6313157090e+00 
179900 5.9940025645e+00 6.9241360996e-05 1.5191908329e+00 -2.6313157090e+00 1.5191908329e+00 2.6313157090e+00 
180000 5.9940025659e+00 6.9492166379e-05 1.5191908329e+00 -2.6313157090e+00 1.5191908329e+00 2.6313157090e+00 
180100 5.9940025673e+00 6.9740255430e-05 1.5191908329e+00 -2.6313157090e+00 1.5191908329e+00 2.6313157090e+00 
180200 5.9940025687e+00 6.9985669626e-05 1.5191908329e+00 -2.6313157090e+00 1.5191908329e+00 2.6313157090e+00 
180300 5.9940025701e+00 7.0228449741e-05 1.5191908329e+00 -2.6313157090e+00 1.5191908329e+00 2.6313157090e+00 
180400 5.9940025714e+00 7.0468635864e-05 1.5191908329e+00 -2.6313157090e+00 1.5191908329e+00 2.6313157090e+00 
180500 5.9940025727e+00 7.0706267396e-05 1.5191908329e+00 -2.6313157090e+00 1.5191908329e+00 2.6313157090e+00 
180600 5.9940025740e+00 7.0941383050e-05 1.5191908329e+00 -2.6313157090e+00 1.5191908329e+00 2.6313157090e+00 
180700 5.9940025751e+00 6.8434075851e-05 1.5191884981e+00 -2.6313116650e+00 1.5191884981e+00 2.6313116650e+00 
180800 5.9940025764e+00 6.8652468848e-05 1.5191884981e+00 -2.6313116650e+00 1.5191884981e+00 2.6313116650e+00 
180900 5.9940025777e+00 6.8868380181e-05 1.5191884981e+00 -2.6313116650e+00 1.5191884981e+00 2.6313116650e+00 
181000 5.9940025789e+00 6.9081858965e-05 1.5191884981e+00 -2.6313116650e+00 1.5191884981e+00 2.6313116650e+00 
181100 5.9940025801e+00 6.9292953222e-05 1.5191884981e+00 -2.6313116650e+00 1.5191884981e+00 2.6313116650e+00 
181200 5.9940025813e+00 6.9501709897e-05 1.5191884981e+00 -2.6313116650e+00 1.5191884981e+00 2.6313116650e+00 
181300 5.9940025825e+00 6.9708174865e-05 1.5191884981e+00 -2.6313116650e+00 1.5191884981e+00 2.6313116650e+00 
181400 5.9940025837e+00 6.9912392947e-05 1.5191884981e+00 -2.6313116650e+00 1.5191884981e+00 2.6313116650e+00 
181500 5.9940025848e+00 7.0114407925e-05 1.5191884981e+00 -2.6313116650e+00 1.5191884981e+00 2.6313116650e+00 
181600 5.9940025859e+00 7.0314262547e-05 1.5191884981e+00 -2.6313116650e+00 1.5191884981e+00 2.6313116650e+00 
181700 5.9940025870e+00 7.0511998551e-05 1.5191884981e+00 -2.6313116650e+00 1.5191884981e+00 2.6313116650e+00 
181800 5.9940025881e+00 7.0707656678e-05 1.5191884981e+00 -2.6313116650e+00 1.5191884981e+00 2.6313116650e+00 
181900 5.9940025892e+00 7.0901276677e-05 1.5191884981e+00 -2.6313116650e+00 1.5191884981e+00 2.6313116650e+00 
182000 5.9940025901e+00 6.8354498278e-05 1.5191861646e+00 -2.6313076232e+00 1.5191861646e+00 2.6313076232e+00 
182100 5.9940025911e+00 6.8532359534e-05 1.5191861646e+00 -2.6313076232e+00 1.5191861646e+00 2.6313076232e+00 
182200 5.9940025922e+00 6.8708218316e-05 1.5191861646e+00 -2.6313076232e+00 1.5191861646e+00 2.6313076232e+00 
182300 5.9940025932e+00 6.8882123637e-05 1.5191861646e+00 -2.6313076232e+00 1.5191861646e+00 2.6313076232e+00 
182400 5.9940025942e+00 6.9054123167e-05 1.5191861646e+00 -2.6313076232e+00 1.5191861646e+00 2.6313076232e+00 
182500 5.9940025952e+00 6.9224263243e-05 1.5191861646e+00 -2.6313076232e+00 1.5191861646e+00 2.6313076232e+00 
182600 5.9940025962e+00 6.9392588897e-05 1.5191861646e+00 -2.6313076232e+00 1.5191861646e+00 2.6313076232e+00 
182700 5.9940025971e+00 6.9559143872e-05 1.5191861646e+00 -2.6313076232e+00 1.5191861646e+00 2.6313076232e+00 
182800 5.9940025981e+00 6.9723970648e-05 1.5191861646e+00 -2.6313076232e+00 1.5191861646e+00 2.6313076232e+00 
182900 5.9940025990e+00 6.9887110464e-05 1.5191861646e+00 -2.6313076232e+00 1.5191861646e+00 2.6313076232e+00 
183000 5.9940025999e+00 7.0048603332e-05 1.5191861646e+00 -2.6313076232e+00 1.5191861646e+00 2.6313076232e+00 
183100 5.9940026009e+00 7.0208488072e-05 1.5191861646e+00 -2.6313076232e+00 1.5191861646e+00 2.6313076232e+00 
183200 5.9940026018e+00 7.0366802323e-05 1.5191861646e+00 -2.6313076232e+00 1.5191861646e+00 2.6313076232e+00 
183300 5.9940026026e+00 7.0523582573e-05 1.5191861646e+00 -2.6313076232e+00 1.5191861646e+00 2.6313076232e+00 
183400 5.9940026035e+00 7.0678864175e-05 1.5191861646e+00 -2.6313076232e+00 1.5191861646e+00 2.6313076232e+00 
183500 5.9940026044e+00 7.0832681375e-05 1.5191861646e+00 -2.6313076232e+00 1.5191861646e+00 2.6313076232e+00 
183600 5.9940026050e+00 6.8249316254e-05 1.5191838333e+00 -2.6313035853e+00 1.5191838333e+00 2.6313035853e+00 
183700 5.9940026058e+00 6.8388516374e-05 1.5191838333e+00 -2.6313035853e+00 1.5191838333e+00 2.6313035853e+00 
183800 5.9940026067e+00 6.8526270666e-05 1.5191838333e+00 -2.6313035853e+00 1.5191838333e+00 2.6313035853e+00 
183900 5.9940026075e+00 6.8662622210e-05 1.5191838333e+00 -2.6313035853e+00 1.5191838333e+00 2.6313035853e+00 
184000 5.9940026083e+00 6.8797612658e-05 1.5191838333e+00 -2.6313035853e+00 1.5191838333e+00 2.6313035853e+00 
184100 5.9940026091e+00 6.8931282248e-05 1.5191838333e+00 -2.6313035853e+00 1.5191838333e+00 2.6313035853e+00 
184200 5.9940026098e+00 6.9063669843e-05 1.5191838333e+00 -2.6313035853e+00 1.5191838333e+00 2.6313035853e+00 
184300 5.9940026106e+00 6.9194812957e-05 1.5191838333e+00 -2.6313035853e+00 1.5191838333e+00 2.6313035853e+00 
184400 5.9940026113e+00 6.9324747779e-05 1.5191838333e+00 -2.6313035853e+00 1.5191838333e+00 2.6313035853e+00 
184500 5.9940026121e+00 6.9453509206e-05 1.5191838333e+00 -2.6313035853e+00 1.5191838333e+00 2.6313035853e+00 
184600 5.9940026128e+00 6.9581130867e-05 1.5191838333e+00 -2.6313035853e+00 1.5191838333e+00 2.6313035853e+00 
184700 5.9940026135e+00 6.9707645153e-05 1.5191838333e+00 -2.6313035853e+00 1.5191838333e+00 2.6313035853e+00 
184800 5.9940026143e+00 6.9833083250e-05 1.5191838333e+00 -2.6313035853e+00 1.5191838333e+00 2.6313035853e+00 
184900 5.9940026150e+00 6.9957475156e-05 1.5191838333e+00 -2.6313035853e+00 1.5191838333e+00 2.6313035853e+00 
185000 5.9940026157e+00 7.0080849717e-05 1.5191838333e+00 -2.6313035853e+00 1.5191838333e+00 2.6313035853e+00 
185100 5.9940026163e+00 7.0203234653e-05 1.5191838333e+00 -2.6313035853e+00 1.5191838333e+00 2.6313035853e+00 
185200 5.9940026170e+00 7.0324656586e-05 1.5191838333e+00 -2.6313035853e+00 1.5191838333e+00 2.6313035853e+00 
185300 5.9940026177e+00 7.0445141063e-05 1.5191838333e+00 -2.6313035853e+00 1.5191838333e+00 2.6313035853e+00 
185400 5.9940026183e+00 7.0564712593e-05 1.5191838333e+00 -2.6313035853e+00 1.5191838333e+00 2.6313035853e+00 
185500 5.9940026190e+00 7.0683394661e-05 1.5191838333e+00 -2.6313035853e+00 1.5191838333e+00 2.6313035853e+00 
185600 5.9940026196e+00 7.0801209767e-05 1.5191838333e+00 -2.6313035853e+00 1.5191838333e+00 2.6313035853e+00 
185700 5.9940026200e+00 6.8183644829e-05 1.5191815031e+00 -2.6312995492e+00 1.5191815031e+00 2.6312995492e+00 
185800 5.9940026206e+00 6.8288007915e-05 1.5191815031e+00 -2.6312995492e+00 1.5191815031e+00 2.6312995492e+00 
185900 5.9940026212e+00 6.8391488183e-05 1.5191815031e+00 -2.6312995492e+00 1.5191815031e+00 2.6312995492e+00 
186000 5.9940026218e+00 6.8494117476e-05 1.5191815031e+00 -2.6312995492e+00 1.5191815031e+00 2.6312995492e+00 
186100 5.9940026224e+00 6.8595926336e-05 1.5191815031e+00 -2.6312995492e+00 1.5191815031e+00 2.6312995492e+00 
186200 5.9940026230e+00 6.8696944042e-05 1.5191815031e+00 -2.6312995492e+00 1.5191815031e+00 2.6312995492e+00 
186300 5.9940026236e+00 6.8797198635e-05 1.5191815031e+00 -2.6312995492e+00 1.5191815031e+00 2.6312995492e+00 
186400 5.9940026242e+00 6.8896716951e-05 1.5191815031e+00 -2.6312995492e+00 1.5191815031e+00 2.6312995492e+00 
186500 5.9940026247e+00 6.8995524652e-05 1.5191815031e+00 -2.6312995492e+00 1.5191815031e+00 2.6312995492e+00 
186600 5.9940026253e+00 6.9093646254e-05 1.5191815031e+00 -2.6312995492e+00 1.5191815031e+00 2.6312995492e+00 
186700 5.9940026258e+00 6.9191105158e-05 1.5191815031e+00 -2.6312995492e+00 1.5191815031e+00 2.6312995492e+00 
186800 5.9940026263e+00 6.9287923682e-05 1.5191815031e+00 -2.6312995492e+00 1.5191815031e+00 2.6312995492e+00 
186900 5.9940026269e+00 6.9384123088e-05 1.5191815031e+00 -2.6312995492e+00 1.5191815031e+00 2.6312995492e+00 
187000 5.9940026274e+00 6.9479723608e-05 1.5191815031e+00 -2.6312995492e+00 1.5191815031e+00 2.6312995492e+00 
187100 5.9940026279e+00 6.9574744482e-05 1.5191815031e+00 -2.6312995492e+00 1.5191815031e+00 2.6312995492e+00 
187200 5.9940026284e+00 6.9669203978e-05 1.5191815031e+00 -2.6312995492e+00 1.5191815031e+00 2.6312995492e+00 
187300 5.9940026289e+00 6.9763119425e-05 1.5191815031e+00 -2.6312995492e+00 1.5191815031e+00 2.6312995492e+00 
187400 5.9940026294e+00 6.9856507238e-05 1.5191815031e+00 -2.6312995492e+00 1.5191815031e+00 2.6312995492e+00 
187500 5.9940026299e+00 6.9949382949e-05 1.5191815031e+00 -2.6312995492e+00 1.5191815031e+00 2.6312995492e+00 
187600 5.9940026304e+00 7.0041761231e-05 1.5191815031e+00 -2.6312995492e+00 1.5191815031e+00 2.6312995492e+00 
187700 5.9940026308e+00 7.0133655927e-05 1.5191815031e+00 -2.6312995492e+00 1.5191815031e+00 2.6312995492e+00 
187800 5.9940026313e+00 7.0225080078e-05 1.5191815031e+00 -2.6312995492e+00 1.5191815031e+00 2.6312995492e+00 
187900 5.9940026318e+00 7.0316045946e-05 1.5191815031e+00 -2.6312995492e+00 1.5191815031e+00 2.6312995492e+00 
188000 5.9940026322e+00 7.0406565041e-05 1.5191815031e+00 -2.6312995492e+00 1.5191815031e+00 2.6312995492e+00 
188100 5.9940026327e+00 7.0496648146e-05 1.5191815031e+00 -2.6312995492e+00 1.5191815031e+00 2.6312995492e+00 
188200 5.9940026331e+00 7.0586305346e-05 1.5191815031e+00 -2.6312995492e+00 1.5191815031e+00 2.6312995492e+00 
188300 5.9940026335e+00 7.0675546047e-05 1.5191815031e+00 -2.6312995492e+00 1.5191815031e+00 2.6312995492e+00 
188400 5.9940026340e+00 7.0764379003e-05 1.5191815031e+00 -2.6312995492e+00 1.5191815031e+00 2.6312995492e+00 
188500 5.9940026342e+00 6.8119702973e-05 1.5191791740e+00 -2.6312955152e+00 1.5191791740e+00 2.6312955152e+00 
188600 5.9940026346e+00 6.8195968203e-05 1.5191791740e+00 -2.6312955152e+00 1.5191791740e+00 2.6312955152e+00 
188700 5.9940026350e+00 6.8271770673e-05 1.5191791740e+00 -2.6312955152e+00 1.5191791740e+00 2.6312955152e+00 
188800 5.9940026354e+00 6.8347129800e-05 1.5191791740e+00 -2.6312955152e+00 1.5191791740e+00 2.6312955152e+00 
188900 5.9940026358e+00 6.8422064022e-05 1.5191791740e+00 -2.6312955152e+00 1.5191791740e+00 2.6312955152e+00 
189000 5.9940026362e+00 6.8496590831e-05 1.5191791740e+00 -2.6312955152e+00 1.5191791740e+00 2.6312955152e+00 
189100 5.9940026366e+00 6.8570726798e-05 1.5191791740e+00 -2.6312955152e+00 1.5191791740e+00 2.6312955152e+00 
189200 5.9940026369e+00 6.8644487600e-05 1.5191791740e+00 -2.6312955152e+00 1.5191791740e+00 2.6312955152e+00 
189300 5.9940026373e+00 6.8717888051e-05 1.5191791740e+00 -2.6312955152e+00 1.5191791740e+00 2.6312955152e+00 
189400 5.9940026377e+00 6.8790942119e-05 1.5191791740e+00 -2.6312955152e+00 1.5191791740e+00 2.6312955152e+00 
189500 5.9940026381e+00 6.8863662961e-05 1.5191791740e+00 -2.6312955152e+00 1.5191791740e+00 2.6312955152e+00 
189600 5.9940026384e+00 6.8936062943e-05 1.5191791740e+00 -2.6312955152e+00 1.5191791740e+00 2.6312955152e+00 
189700 5.9940026388e+00 6.9008153667e-05 1.5191791740e+00 -2.6312955152e+00 1.5191791740e+00 2.6312955152e+00 
189800 5.9940026391e+00 6.9079945994e-05 1.5191791740e+00 -2.6312955152e+00 1.5191791740e+00 2.6312955152e+00 
189900 5.9940026395e+00 6.9151450074e-05 1.5191791740e+00 -2.6312955152e+00 1.5191791740e+00 2.6312955152e+00 
190000 5.9940026398e+00 6.9222675361e-05 1.5191791740e+00 -2.6312955152e+00 1.5191791740e+00 2.6312955152e+00 
190100 5.9940026402e+00 6.9293630645e-05 1.5191791740e+00 -2.6312955152e+00 1.5191791740e+00 2.6312955152e+00 
190200 5.9940026405e+00 6.9364324070e-05 1.5191791740e+00 -2.6312955152e+00 1.5191791740e+00 2.6312955152e+00 
190300 5.9940026408e+00 6.9434763162e-05 1.5191791740e+00 -2.6312955152e+00 1.5191791740e+00 2.6312955152e+00 
190400 5.9940026411e+00 6.9504954845e-05 1.5191791740e+00 -2.6312955152e+00 1.5191791740e+00 2.6312955152e+00 
190500 5.9940026415e+00 6.9574905469e-05 1.5191791740e+00 -2.6312955152e+00 1.5191791740e+00 2.6312955152e+00 
190600 5.9940026418e+00 6.9644620829e-05 1.5191791740e+00 -2.6312955152e+00 1.5191791740e+00 2.6312955152e+00 
190700 5.9940026421e+00 6.9714106186e-05 1.5191791740e+00 -2.6312955152e+00 1.5191791740e+00 2.6312955152e+00 
190800 5.9940026424e+00 6.9783366292e-05 1.5191791740e+00 -2.6312955152e+00 1.5191791740e+00 2.6312955152e+00 
190900 5.9940026427e+00 6.9852405402e-05 1.5191791740e+00 -2.6312955152e+00 1.5191791740e+00 2.6312955152e+00 
191000 5.9940026430e+00 6.9921227303e-05 1.5191791740e+00 -2.6312955152e+00 1.5191791740e+00 2.6312955152e+00 
191100 5.9940026433e+00 6.9989835332e-05 1.5191791740e+00 -2.6312955152e+00 1.5191791740e+00 2.6312955152e+00 
191200 5.9940026436e+00 7.0058232392e-05 1.5191791740e+00 -2.6312955152e+00 1.5191791740e+00 2.6312955152e+00 
191300 5.9940026438e+00 7.0126420970e-05 1.5191791740e+00 -2.6312955152e+00 1.5191791740e+00 2.6312955152e+00 
191400 5.9940026441e+00 7.0194403163e-05 1.5191791740e+00 -2.6312955152e+00 1.5191791740e+00 2.6312955152e+00 
191500 5.9940026444e+00 7.0262180687e-05 1.5191791740e+00 -2.6312955152e+00 1.5191791740e+00 2.6312955152e+00 
191600 5.9940026447e+00 7.0329754901e-05 1.5191791740e+00 -2.6312955152e+00 1.5191791740e+00 2.6312955152e+00 
191700 5.9940026449e+00 7.0397126822e-05 1.5191791740e+00 -2.6312955152e+00 1.5191791740e+00 2.6312955152e+00 
191800 5.9940026452e+00 7.0464297142e-05 1.5191791740e+00 -2.6312955152e+00 1.5191791740e+00 2.6312955152e+00 
191900 5.9940026455e+00 7.0531266245e-05 1.5191791740e+00 -2.6312955152e+00 1.5191791740e+00 2.6312955152e+00 
192000 5.9940026457e+00 7.0598034222e-05 1.5191791740e+00 -2.6312955152e+00 1.5191791740e+00 2.6312955152e+00 
192100 5.9940026460e+00 7.0664600888e-05 1.5191791740e+00 -2.6312955152e+00 1.5191791740e+00 2.6312955152e+00 
192200 5.9940026462e+00 7.0730965796e-05 1.5191791740e+00 -2.6312955152e+00 1.5191791740e+00 2.6312955152e+00 
192300 5.9940026463e+00 6.8065312344e-05 1.5191768461e+00 -2.6312914831e+00 1.5191768461e+00 2.6312914831e+00 
192400 5.9940026465e+00 6.8119500556e-05 1.5191768461e+00 -2.6312914831e+00 1.5191768461e+00 2.6312914831e+00 
192500 5.9940026468e+00 6.8173406720e-05 1.5191768461e+00 -2.6312914831e+00 1.5191768461e+00 2.6312914831e+00 
192600 5.9940026470e+00 6.8227042511e-05 1.5191768461e+00 -2.6312914831e+00 1.5191768461e+00 2.6312914831e+00 
192700 5.9940026472e+00 6.8280418980e-05 1.5191768461e+00 -2.6312914831e+00 1.5191768461e+00 2.6312914831e+00 
192800 5.9940026475e+00 6.8333546567e-05 1.5191768461e+00 -2.6312914831e+00 1.5191768461e+00 2.6312914831e+00 
192900 5.9940026477e+00 6.8386435121e-05 1.5191768461e+00 -2.6312914831e+00 1.5191768461e+00 2.6312914831e+00 
193000 5.9940026479e+00 6.8439093916e-05 1.5191768461e+00 -2.6312914831e+00 1.5191768461e+00 2.6312914831e+00 
193100 5.9940026481e+00 6.8491531673e-05 1.5191768461e+00 -2.6312914831e+00 1.5191768461e+00 2.6312914831e+00 
193200 5.9940026484e+00 6.8543756573e-05 1.5191768461e+00 -2.6312914831e+00 1.5191768461e+00 2.6312914831e+00 
193300 5.9940026486e+00 6.8595776277e-05 1.5191768461e+00 -2.6312914831e+00 1.5191768461e+00 2.6312914831e+00 
193400 5.9940026488e+00 6.8647597942e-05 1.5191768461e+00 -2.6312914831e+00 1.5191768461e+00 2.6312914831e+00 
193500 5.9940026490e+00 6.8699228237e-05 1.5191768461e+00 -2.6312914831e+00 1.5191768461e+00 2.6312914831e+00 
193600 5.9940026492e+00 6.8750673366e-05 1.5191768461e+00 -2.6312914831e+00 1.5191768461e+00 2.6312914831e+00 
193700 5.9940026494e+00 6.8801939071e-05 1.5191768461e+00 -2.6312914831e+00 1.5191768461e+00 2.6312914831e+00 
193800 5.9940026496e+00 6.8853030661e-05 1.5191768461e+00 -2.6312914831e+00 1.5191768461e+00 2.6312914831e+00 
193900 5.9940026498e+00 6.8903953022e-05 1.5191768461e+00 -2.6312914831e+00 1.5191768461e+00 2.6312914831e+00 
194000 5.9940026500e+00 6.8954710633e-05 1.5191768461e+00 -2.6312914831e+00 1.5191768461e+00 2.6312914831e+00 
194100 5.9940026502e+00 6.9005307582e-05 1.5191768461e+00 -2.6312914831e+00 1.5191768461e+00 2.6312914831e+00 
194200 5.9940026504e+00 6.9055747576e-05 1.5191768461e+00 -2.6312914831e+00 1.5191768461e+00 2.6312914831e+00 
194300 5.9940026506e+00 6.9106033968e-05 1.5191768461e+00 -2.6312914831e+00 1.5191768461e+00 2.6312914831e+00 
194400 5.9940026508e+00 6.9156169755e-05 1.5191768461e+00 -2.6312914831e+00 1.5191768461e+00 2.6312914831e+00 
194500 5.9940026509e+00 6.9206157605e-05 1.5191768461e+00 -2.6312914831e+00 1.5191768461e+00 2.6312914831e+00 
194600 5.9940026511e+00 6.9255999864e-05 1.5191768461e+00 -2.6312914831e+00 1.5191768461e+00 2.6312914831e+00 
194700 5.9940026513e+00 6.9305698575e-05 1.5191768461e+00 -2.6312914831e+00 1.5191768461e+00 2.6312914831e+00 
194800 5.9940026515e+00 6.9355255482e-05 1.5191768461e+00 -2.6312914831e+00 1.5191768461e+00 2.6312914831e+00 
194900 5.9940026517e+00 6.9404672054e-05 1.5191768461e+00 -2.6312914831e+00 1.5191768461e+00 2.6312914831e+00 
195000 5.9940026518e+00 6.9453949489e-05 1.5191768461e+00 -2.6312914831e+00 1.5191768461e+00 2.6312914831e+00 
195100 5.9940026520e+00 6.9503088732e-05 1.5191768461e+00 -2.6312914831e+00 1.5191768461e+00 2.6312914831e+00 
195200 5.9940026522e+00 6.9552090485e-05 1.5191768461e+00 -2.6312914831e+00 1.5191768461e+00 2.6312914831e+00 
195300 5.9940026523e+00 6.9600955215e-05 1.5191768461e+00 -2.6312914831e+00 1.5191768461e+00 2.6312914831e+00 
195400 5.9940026525e+00 6.9649683172e-05 1.5191768461e+00 -2.6312914831e+00 1.5191768461e+00 2.6312914831e+00 
195500 5.9940026527e+00 6.9698274398e-05 1.5191768461e+00 -2.6312914831e+00 1.5191768461e+00 2.6312914831e+00 
195600 5.9940026528e+00 6.9746728735e-05 1.5191768461e+00 -2.6312914831e+00 1.5191768461e+00 2.6312914831e+00 
195700 5.9940026530e+00 6.9795045839e-05 1.5191768461e+00 -2.6312914831e+00 1.5191768461e+00 2.6312914831e+00 
195800 5.9940026531e+00 6.9843225191e-05 1.5191768461e+00 -2.6312914831e+00 1.5191768461e+00 2.6312914831e+00 
195900 5.9940026533e+00 6.9891266102e-05 1.5191768461e+00 -2.6312914831e+00 1.5191768461e+00 2.6312914831e+00 
196000 5.9940026534e+00 6.9939167729e-05 1.5191768461e+00 -2.6312914831e+00 1.5191768461e+00 2.6312914831e+00 
196100 5.9940026536e+00 6.9986929082e-05 1.5191768461e+00 -2.6312914831e+00 1.5191768461e+00 2.6312914831e+00 
196200 5.9940026537e+00 7.0034549032e-05 1.5191768461e+00 -2.6312914831e+00 1.5191768461e+00 2.6312914831e+00 
196300 5.9940026539e+00 7.0082026319e-05 1.5191768461e+00 -2.6312914831e+00 1.5191768461e+00 2.6312914831e+00 
196400 5.9940026540e+00 7.0129359568e-05 1.5191768461e+00 -2.6312914831e+00 1.5191768461e+00 2.6312914831e+00 
196500 5.9940026541e+00 7.0176547290e-05 1.5191768461e+00 -2.6312914831e+00 1.5191768461e+00 2.6312914831e+00 
196600 5.9940026543e+00 7.0223587894e-05 1.5191768461e+00 -2.6312914831e+00 1.5191768461e+00 2.6312914831e+00 
196700 5.9940026544e+00 7.0270479691e-05 1.5191768461e+00 -2.6312914831e+00 1.5191768461e+00 2.6312914831e+00 
196800 5.9940026545e+00 7.0317220908e-05 1.5191768461e+00 -2.6312914831e+00 1.5191768461e+00 2.6312914831e+00 
196900 5.9940026547e+00 7.0363809688e-05 1.5191768461e+00 -2.6312914831e+00 1.5191768461e+00 2.6312914831e+00 
197000 5.9940026548e+00 7.0410244108e-05 1.5191768461e+00 -2.6312914831e+00 1.5191768461e+00 2.6312914831e+00 
197100 5.9940026549e+00 7.0456522171e-05 1.5191768461e+00 -2.6312914831e+00 1.5191768461e+00 2.6312914831e+00 
197200 5.9940026551e+00 7.0502641830e-05 1.5191768461e+00 -2.6312914831e+00 1.5191768461e+00 2.6312914831e+00 
197300 5.9940026552e+00 7.0548600977e-05 1.5191768461e+00 -2.6312914831e+00 1.5191768461e+00 2.6312914831e+00 
197400 5.9940026553e+00 7.0594397466e-05 1.5191768461e+00 -2.6312914831e+00 1.5191768461e+00 2.6312914831e+00 
197500 5.9940026554e+00 7.0640029107e-05 1.5191768461e+00 -2.6312914831e+00 1.5191768461e+00 2.6312914831e+00 
197600 5.9940026556e+00 7.0685493675e-05 1.5191768461e+00 -2.6312914831e+00 1.5191768461e+00 2.6312914831e+00 
197700 5.9940026557e+00 7.0730788919e-05 1.5191768461e+00 -2.6312914831e+00 1.5191768461e+00 2.6312914831e+00 
197800 5.9940026556e+00 6.8044104933e-05 1.5191745182e+00 -2.6312874510e+00 1.5191745182e+00 2.6312874510e+00 
197900 5.9940026557e+00 6.8077283448e-05 1.5191745182e+00 -2.6312874510e+00 1.5191745182e+00 2.6312874510e+00 
198000 5.9940026558e+00 6.8110208270e-05 1.5191745182e+00 -2.6312874510e+00 1.5191745182e+00 2.6312874510e+00 
198100 5.9940026559e+00 6.8142890110e-05 1.5191745182e+00 -2.6312874510e+00 1.5191745182e+00 2.6312874510e+00 
198200 5.9940026560e+00 6.8175339240e-05 1.5191745182e+00 -2.6312874510e+00 1.5191745182e+00 2.6312874510e+00 
198300 5.9940026561e+00 6.8207565500e-05 1.5191745182e+00 -2.6312874510e+00 1.5191745182e+00 2.6312874510e+00 
198400 5.9940026563e+00 6.8239578312e-05 1.5191745182e+00 -2.6312874510e+00 1.5191745182e+00 2.6312874510e+00 
198500 5.9940026564e+00 6.8271386684e-05 1.5191745182e+00 -2.6312874510e+00 1.5191745182e+00 2.6312874510e+00 
198600 5.9940026565e+00 6.8302999226e-05 1.5191745182e+00 -2.6312874510e+00 1.5191745182e+00 2.6312874510e+00 
198700 5.9940026566e+00 6.8334424157e-05 1.5191745182e+00 -2.6312874510e+00 1.5191745182e+00 2.6312874510e+00 
198800 5.9940026567e+00 6.8365669315e-05 1.5191745182e+00 -2.6312874510e+00 1.5191745182e+00 2.6312874510e+00 
198900 5.9940026568e+00 6.8396742167e-05 1.5191745182e+00 -2.6312874510e+00 1.5191745182e+00 2.6312874510e+00 
199000 5.9940026569e+00 6.8427649816e-05 1.5191745182e+00 -2.6312874510e+00 1.5191745182e+00 2.6312874510e+00 
199100 5.9940026570e+00 6.8458399017e-05 1.5191745182e+00 -2.6312874510e+00 1.5191745182e+00 2.6312874510e+00 
199200 5.9940026571e+00 6.8488996180e-05 1.5191745182e+00 -2.6312874510e+00 1.5191745182e+00 2.6312874510e+00 
199300 5.9940026572e+00 6.8519447381e-05 1.5191745182e+00 -2.6312874510e+00 1.5191745182e+00 2.6312874510e+00 
199400 5.9940026573e+00 6.8549758375e-05 1.5191745182e+00 -2.6312874510e+00 1.5191745182e+00 2.6312874510e+00 
199500 5.9940026574e+00 6.8579934599e-05 1.5191745182e+00 -2.6312874510e+00 1.5191745182e+00 2.6312874510e+00 
199600 5.9940026574e+00 6.8609981186e-05 1.5191745182e+00 -2.6312874510e+00 1.5191745182e+00 2.6312874510e+00 
199700 5.9940026575e+00 6.8639902973e-05 1.5191745182e+00 -2.6312874510e+00 1.5191745182e+00 2.6312874510e+00 
199800 5.9940026576e+00 6.8669704509e-05 1.5191745182e+00 -2.6312874510e+00 1.5191745182e+00 2.6312874510e+00 
199900 5.9940026577e+00 6.8699390061e-05 1.5191745182e+00 -2.6312874510e+00 1.5191745182e+00 2.6312874510e+00 
200000 5.9940026578e+00 6.8728963633e-05 1.5191745182e+00 -2.6312874510e+00 1.5191745182e+00 2.6312874510e+00 
200100 5.9940026579e+00 6.8758428960e-05 1.5191745182e+00 -2.6312874510e+00 1.5191745182e+00 2.6312874510e+00 
200200 5.9940026580e+00 6.8787789527e-05 1.5191745182e+00 -2.6312874510e+00 1.5191745182e+00 2.6312874510e+00 
200300 5.9940026581e+00 6.8817048574e-05 1.5191745182e+00 -2.6312874510e+00 1.5191745182e+00 2.6312874510e+00 
200400 5.9940026581e+00 6.8846209105e-05 1.5191745182e+00 -2.6312874510e+00 1.5191745182e+00 2.6312874510e+00 
200500 5.9940026582e+00 6.8875273895e-05 1.5191745182e+00 -2.6312874510e+00 1.5191745182e+00 2.6312874510e+00 
200600 5.9940026583e+00 6.8904245497e-05 1.5191745182e+00 -2.6312874510e+00 1.5191745182e+00 2.6312874510e+00 
200700 5.9940026584e+00 6.8933126253e-05 1.5191745182e+00 -2.6312874510e+00 1.5191745182e+00 2.6312874510e+00 
200800 5.9940026585e+00 6.8961918299e-05 1.5191745182e+00 -2.6312874510e+00 1.5191745182e+00 2.6312874510e+00 
200900 5.9940026585e+00 6.8990623576e-05 1.5191745182e+00 -2.6312874510e+00 1.5191745182e+00 2.6312874510e+00 
201000 5.9940026586e+00 6.9019243831e-05 1.5191745182e+00 -2.6312874510e+00 1.5191745182e+00 2.6312874510e+00 
201100 5.9940026587e+00 6.9047780631e-05 1.5191745182e+00 -2.6312874510e+00 1.5191745182e+00 2.6312874510e+00 
201200 5.9940026588e+00 6.9076235369e-05 1.5191745182e+00 -2.6312874510e+00 1.5191745182e+00 2.6312874510e+00 
201300 5.9940026588e+00 6.9104609267e-05 1.5191745182e+00 -2.6312874510e+00 1.5191745182e+00 2.6312874510e+00 
201400 5.9940026589e+00 6.9132903385e-05 1.5191745182e+00 -2.6312874510e+00 1.5191745182e+00 2.6312874510e+00 
201500 5.9940026590e+00 6.9161118631e-05 1.5191745182e+00 -2.6312874510e+00 1.5191745182e+00 2.6312874510e+00 
201600 5.9940026591e+00 6.9189255764e-05 1.5191745182e+00 -2.6312874510e+00 1.5191745182e+00 2.6312874510e+00 
201700 5.9940026591e+00 6.9217315401e-05 1.5191745182e+00 -2.6312874510e+00 1.5191745182e+00 2.6312874510e+00 
201800 5.9940026592e+00 6.9245298024e-05 1.5191745182e+00 -2.6312874510e+00 1.5191745182e+00 2.6312874510e+00 
201900 5.9940026593e+00 6.9273203986e-05 1.5191745182e+00 -2.6312874510e+00 1.5191745182e+00 2.6312874510e+00 
202000 5.9940026593e+00 6.9301033518e-05 1.5191745182e+00 -2.6312874510e+00 1.5191745182e+00 2.6312874510e+00 
202100 5.9940026594e+00 6.9328786735e-05 1.5191745182e+00 -2.6312874510e+00 1.5191745182e+00 2.6312874510e+00 
202200 5.9940026595e+00 6.9356463637e-05 1.5191745182e+00 -2.6312874510e+00 1.5191745182e+00 2.6312874510e+00 
202300 5.9940026595e+00 6.9384064124e-05 1.5191745182e+00 -2.6312874510e+00 1.5191745182e+00 2.6312874510e+00 
202400 5.9940026596e+00 6.9411587992e-05 1.5191745182e+00 -2.6312874510e+00 1.5191745182e+00 2.6312874510e+00 
202500 5.9940026597e+00 6.9439034946e-05 1.5191745182e+00 -2.6312874510e+00 1.5191745182e+00 2.6312874510e+00 
202600 5.9940026597e+00 6.9466404598e-05 1.5191745182e+00 -2.6312874510e+00 1.5191745182e+00 2.6312874510e+00 
202700 5.9940026598e+00 6.9493696482e-05 1.5191745182e+00 -2.6312874510e+00 1.5191745182e+00 2.6312874510e+00 
202800 5.9940026598e+00 6.9520910047e-05 1.5191745182e+00 -2.6312874510e+00 1.5191745182e+00 2.6312874510e+00 
202900 5.9940026599e+00 6.9548044671e-05 1.5191745182e+00 -2.6312874510e+00 1.5191745182e+00 2.6312874510e+00 
203000 5.9940026600e+00 6.9575099666e-05 1.5191745182e+00 -2.6312874510e+00 1.5191745182e+00 2.6312874510e+00 
203100 5.9940026600e+00 6.9602074271e-05 1.5191745182e+00 -2.6312874510e+00 1.5191745182e+00 2.6312874510e+00 
203200 5.9940026601e+00 6.9628967672e-05 1.5191745182e+00 -2.6312874510e+00 1.5191745182e+00 2.6312874510e+00 
203300 5.9940026601e+00 6.9655778999e-05 1.5191745182e+00 -2.6312874510e+00 1.5191745182e+00 2.6312874510e+00 
203400 5.9940026602e+00 6.9682507325e-05 1.5191745182e+00 -2.6312874510e+00 1.5191745182e+00 2.6312874510e+00 
203500 5.9940026602e+00 6.9709151683e-05 1.5191745182e+00 -2.6312874510e+00 1.5191745182e+00 2.6312874510e+00 
203600 5.9940026603e+00 6.9735711056e-05 1.5191745182e+00 -2.6312874510e+00 1.5191745182e+00 2.6312874510e+00 
203700 5.9940026603e+00 6.9762184390e-05 1.5191745182e+00 -2.6312874510e+00 1.5191745182e+00 2.6312874510e+00 
203800 5.9940026604e+00 6.9788570598e-05 1.5191745182e+00 -2.6312874510e+00 1.5191745182e+00 2.6312874510e+00 
203900 5.9940026605e+00 6.9814868556e-05 1.5191745182e+00 -2.6312874510e+00 1.5191745182e+00 2.6312874510e+00 
204000 5.9940026605e+00 6.9841077113e-05 1.5191745182e+00 -2.6312874510e+00 1.5191745182e+00 2.6312874510e+00 
204100 5.9940026606e+00 6.9867195094e-05 1.5191745182e+00 -2.6312874510e+00 1.5191745182e+00 2.6312874510e+00 
204200 5.9940026606e+00 6.9893221301e-05 1.5191745182e+00 -2.6312874510e+00 1.5191745182e+00 2.6312874510e+00 
204300 5.9940026607e+00 6.9919154517e-05 1.5191745182e+00 -2.6312874510e+00 1.5191745182e+00 2.6312874510e+00 
204400 5.9940026607e+00 6.9944993508e-05 1.5191745182e+00 -2.6312874510e+00 1.5191745182e+00 2.6312874510e+00 
204500 5.9940026608e+00 6.9970737028e-05 1.5191745182e+00 -2.6312874510e+00 1.5191745182e+00 2.6312874510e+00 
204600 5.9940026608e+00 6.9995359824e-05 1.5191745182e+00 -2.6312874510e+00 1.5191745182e+00 2.6312874510e+00 
204600 5.9940026608e+00 6.9995359824e-05 1.5191745182e+00 -2.6312874510e+00 1.5191745182e+00 2.6312874510e+00 
