# step Hamiltonian StressXX CellTensor1 CellTensor2 CellTensor3 CellTensor4 
0 5.4563459093e+00 5.5395378229e-02 1.6387017056e+00 -2.8383146126e+00 1.6387017056e+00 2.8383146126e+00 
100 5.4598515241e+00 5.5617330281e-02 1.6387017056e+00 -2.8383146126e+00 1.6387017056e+00 2.8383146126e+00 
200 5.4628747480e+00 5.3884499091e-02 1.6370050051e+00 -2.8353758411e+00 1.6370050051e+00 2.8353758411e+00 
300 5.4655639132e+00 5.2039769558e-02 1.6353594554e+00 -2.8325256654e+00 1.6353594554e+00 2.8325256654e+00 
400 5.4679458918e+00 5.0103733900e-02 1.6337686332e+00 -2.8297702805e+00 1.6337686332e+00 2.8297702805e+00 
500 5.4700458883e+00 4.8095257819e-02 1.6322354942e+00 -2.8271148058e+00 1.6322354942e+00 2.8271148058e+00 
600 5.4718875163e+00 4.6031568623e-02 1.6307624219e+00 -2.8245633699e+00 1.6307624219e+00 2.8245633699e+00 
700 5.4734928733e+00 4.3928344210e-02 1.6293512745e+00 -2.8221191909e+00 1.6293512745e+00 2.8221191909e+00 
800 5.4748826157e+00 4.1799802079e-02 1.6280034288e+00 -2.8197846537e+00 1.6280034288e+00 2.8197846537e+00 
900 5.4760760304e+00 3.9658787644e-02 1.6267198227e+00 -2.8175613826e+00 1.6267198227e+00 2.8175613826e+00 
1000 5.4770911057e+00 3.7516861137e-02 1.6255009948e+00 -2.8154503107e+00 1.6255009948e+00 2.8154503107e+00 
1100 5.4779445996e+00 3.5384382529e-02 1.6243471222e+00 -2.8134517449e+00 1.6243471222e+00 2.8134517449e+00 
1200 5.4786521060e+00 3.3270593961e-02 1.6232580562e+00 -2.8115654272e+00 1.6232580562e+00 2.8115654272e+00 
1300 5.4792281178e+00 3.1183699280e-02 1.6222333550e+00 -2.8097905926e+00 1.6222333550e+00 2.8097905926e+00 
1400 5.4796860886e+00 2.9130940349e-02 1.6212723151e+00 -2.8081260227e+00 1.6212723151e+00 2.8081260227e+00 
1500 5.4800384909e+00 2.7118669910e-02 1.6203740006e+00 -2.8065700963e+00 1.6203740006e+00 2.8065700963e+00 
1600 5.4802968720e+00 2.5152420807e-02 1.6195372699e+00 -2.8051208362e+00 1.6195372699e+00 2.8051208362e+00 
1700 5.4804719074e+00 2.3236971505e-02 1.6187608009e+00 -2.8037759524e+00 1.6187608009e+00 2.8037759524e+00 
1800 5.4805734518e+00 2.1376407836e-02 1.6180431144e+00 -2.8025328831e+00 1.6180431144e+00 2.8025328831e+00 
1900 5.4806105873e+00 1.9574180996e-02 1.6173825958e+00 -2.8013888312e+00 1.6173825958e+00 2.8013888312e+00 
2000 5.4805916692e+00 1.7833161845e-02 1.6167775145e+00 -2.8003407996e+00 1.6167775145e+00 2.8003407996e+00 
2100 5.4805243700e+00 1.6155691590e-02 1.6162260426e+00 -2.7993856222e+00 1.6162260426e+00 2.7993856222e+00 
2200 5.4804157203e+00 1.4543628964e-02 1.6157262716e+00 -2.7985199935e+00 1.6157262716e+00 2.7985199935e+00 
2300 5.4802721487e+00 1.2998394052e-02 1.6152762277e+00 -2.7977404946e+00 1.6152762277e+00 2.7977404946e+00 
2400 5.4800995185e+00 1.1521008881e-02 1.6148738862e+00 -2.7970436187e+00 1.6148738862e+00 2.7970436187e+00 
2500 5.4799031635e+00 1.0112134976e-02 1.6145171839e+00 -2.7964257921e+00 1.6145171839e+00 2.7964257921e+00 
2600 5.4796879211e+00 8.7721080142e-03 1.6142040312e+00 -2.7958833958e+00 1.6142040312e+00 2.7958833958e+00 
2700 5.4794581644e+00 7.5009697714e-03 1.6139323226e+00 -2.7954127827e+00 1.6139323226e+00 2.7954127827e+00 
2800 5.4792178319e+00 6.2984975247e-03 1.6136999464e+00 -2.7950102953e+00 1.6136999464e+00 2.7950102953e+00 
2900 5.4789704567e+00 5.1642310804e-03 1.6135047933e+00 -2.7946722802e+00 1.6135047933e+00 2.7946722802e+00 
3000 5.4787191932e+00 4.0974975959e-03 1.6133447645e+00 -2.7943951022e+00 1.6133447645e+00 2.7943951022e+00 
3100 5.4784668427e+00 3.0974343556e-03 1.6132177785e+00 -2.7941751560e+00 1.6132177785e+00 2.7941751560e+00 
3200 5.4782158783e+00 2.1630096551e-03 1.6131217777e+00 -2.7940088777e+00 1.6131217777e+00 2.7940088777e+00 
3300 5.4779684679e+00 1.2930419415e-03 1.6130547339e+00 -2.7938927545e+00 1.6130547339e+00 2.7938927545e+00 
3400 5.4777264959e+00 4.8621734879e-04 1.6130146535e+00 -2.7938233333e+00 1.6130146535e+00 2.7938233333e+00 
3500 5.4774915847e+00 -2.5889424048e-04 1.6129995819e+00 -2.7937972284e+00 1.6129995819e+00 2.7937972284e+00 
3600 5.4772651139e+00 -9.4382448341e-04 1.6130076071e+00 -2.7938111285e+00 1.6130076071e+00 2.7938111285e+00 
3700 5.4770482397e+00 -1.5701931012e-03 1.6130368639e+00 -2.7938618027e+00 1.6130368639e+00 2.7938618027e+00 
3800 5.4768419123e+00 -2.1396955328e-03 1.6130855361e+00 -2.7939461054e+00 1.6130855361e+00 2.7939461054e+00 
3900 5.4766468932e+00 -2.6540916194e-03 1.6131518596e+00 -2.7940609811e+00 1.6131518596e+00 2.7940609811e+00 
4000 5.4764637709e+00 -3.1151952298e-03 1.6132341245e+00 -2.7942034681e+00 1.6132341245e+00 2.7942034681e+00 
4100 5.4762929768e+00 -3.5248647424e-03 1.6133306767e+00 -2.7943707014e+00 1.6133306767e+00 2.7943707014e+00 
4200 5.4761347987e+00 -3.8849943087e-03 1.6134399197e+00 -2.7945599160e+00 1.6134399197e+00 2.7945599160e+00 
4300 5.4759893952e+00 -4.1975058287e-03 1.6135603160e+00 -2.7947684484e+00 1.6135603160e+00 2.7947684484e+00 
4400 5.4758568084e+00 -4.4643415750e-03 1.6136903874e+00 -2.7949937387e+00 1.6136903874e+00 2.7949937387e+00 
4500 5.4757369757e+00 -4.6874574085e-03 1.6138287165e+00 -2.7952333317e+00 1.6138287165e+00 2.7952333317e+00 
4600 5.4756297418e+00 -4.8688165342e-03 1.6139739465e+00 -2.7954848775e+00 1.6139739465e+00 2.7954848775e+00 
4700 5.4755348693e+00 -5.0103837511e-03 1.6141247821e+00 -2.7957461323e+00 1.6141247821e+00 2.7957461323e+00 
4800 5.4754520488e+00 -5.1141201525e-03 1.6142799889e+00 -2.7960149584e+00 1.6142799889e+00 2.7960149584e+00 
4900 5.4753809087e+00 -5.1819782419e-03 1.6144383940e+00 -2.7962893241e+00 1.6144383940e+00 2.7962893241e+00 
5000 5.4753210236e+00 -5.2158974290e-03 1.6145988852e+00 -2.7965673031e+00 1.6145988852e+00 2.7965673031e+00 
5100 5.4752719232e+00 -5.2177998758e-03 1.6147604109e+00 -2.7968470738e+00 1.6147604109e+00 2.7968470738e+00 
5200 5.4752331000e+00 -5.1895866681e-03 1.6149219794e+00 -2.7971269186e+00 1.6149219794e+00 2.7971269186e+00 
5300 5.4752040160e+00 -5.1331342862e-03 1.6150826581e+00 -2.7974052223e+00 1.6150826581e+00 2.7974052223e+00 
5400 5.4751841103e+00 -5.0502913554e-03 1.6152415732e+00 -2.7976804712e+00 1.6152415732e+00 2.7976804712e+00 
5500 5.4751728044e+00 -4.9428756576e-03 1.6153979081e+00 -2.7979512512e+00 1.6153979081e+00 2.7979512512e+00 
5600 5.4751695086e+00 -4.8126713862e-03 1.6155509030e+00 -2.7982162462e+00 1.6155509030e+00 2.7982162462e+00 
5700 5.4751736266e+00 -4.6614266316e-03 1.6156998536e+00 -2.7984742362e+00 1.6156998536e+00 2.7984742362e+00 
5800 5.4751845610e+00 -4.4908510830e-03 1.6158441098e+00 -2.7987240954e+00 1.6158441098e+00 2.7987240954e+00 
5900 5.4752017168e+00 -4.3026139357e-03 1.6159830748e+00 -2.7989647898e+00 1.6159830748e+00 2.7989647898e+00 
6000 5.4752245060e+00 -4.0983419932e-03 1.6161162035e+00 -2.7991953754e+00 1.6161162035e+00 2.7991953754e+00 
6100 5.4752523508e+00 -3.8796179560e-03 1.6162430012e+00 -2.7994149954e+00 1.6162430012e+00 2.7994149954e+00 
6200 5.4752846866e+00 -3.6479788879e-03 1.6163630223e+00 -2.7996228781e+00 1.6163630223e+00 2.7996228781e+00 
6300 5.4753209649e+00 -3.4049148537e-03 1.6164758689e+00 -2.7998183341e+00 1.6164758689e+00 2.7998183341e+00 
6400 5.4753606558e+00 -3.1518677203e-03 1.6165811891e+00 -2.8000007541e+00 1.6165811891e+00 2.8000007541e+00 
6500 5.4754032499e+00 -2.8902301171e-03 1.6166786757e+00 -2.8001696058e+00 1.6166786757e+00 2.8001696058e+00 
6600 5.4754482598e+00 -2.6213445478e-03 1.6167680644e+00 -2.8003244316e+00 1.6167680644e+00 2.8003244316e+00 
6700 5.4754952221e+00 -2.3465026506e-03 1.6168491325e+00 -2.8004648457e+00 1.6168491325e+00 2.8004648457e+00 
6800 5.4755436981e+00 -2.0669446004e-03 1.6169216971e+00 -2.8005905313e+00 1.6169216971e+00 2.8005905313e+00 
6900 5.4755932749e+00 -1.7838586490e-03 1.6169856136e+00 -2.8007012378e+00 1.6169856136e+00 2.8007012378e+00 
7000 5.4756435660e+00 -1.4983807990e-03 1.6170407739e+00 -2.8007967783e+00 1.6170407739e+00 2.8007967783e+00 
7100 5.4756942117e+00 -1.2115946054e-03 1.6170871051e+00 -2.8008770262e+00 1.6170871051e+00 2.8008770262e+00 
7200 5.4757448792e+00 -9.2453110298e-04 1.6171245675e+00 -2.8009419130e+00 1.6171245675e+00 2.8009419130e+00 
7300 5.4757952630e+00 -6.3816885274e-04 1.6171531532e+00 -2.8009914250e+00 1.6171531532e+00 2.8009914250e+00 
7400 5.4758450842e+00 -3.5343410444e-04 1.6171728845e+00 -2.8010256005e+00 1.6171728845e+00 2.8010256005e+00 
7500 5.4758940904e+00 -7.1201070030e-05 1.6171838120e+00 -2.8010445276e+00 1.6171838120e+00 2.8010445276e+00 
7600 5.4759420555e+00 2.0770769613e-04 1.6171860134e+00 -2.8010483405e+00 1.6171860134e+00 2.8010483405e+00 
7700 5.4759887786e+00 4.8252081514e-04 1.6171795915e+00 -2.8010372175e+00 1.6171795915e+00 2.8010372175e+00 
7800 5.4760340835e+00 7.5251750406e-04 1.6171646730e+00 -2.8010113778e+00 1.6171646730e+00 2.8010113778e+00 
7900 5.4760778179e+00 1.0170269039e-03 1.6171414064e+00 -2.8009710790e+00 1.6171414064e+00 2.8009710790e+00 
8000 5.4761198524e+00 1.2754273197e-03 1.6171099613e+00 -2.8009166145e+00 1.6171099613e+00 2.8009166145e+00 
8100 5.4761600795e+00 1.5271453783e-03 1.6170705261e+00 -2.8008483106e+00 1.6170705261e+00 2.8008483106e+00 
8200 5.4761984125e+00 1.7716551080e-03 1.6170233068e+00 -2.8007665245e+00 1.6170233068e+00 2.8007665245e+00 
8300 5.4762347846e+00 2.0084769456e-03 1.6169685258e+00 -2.8006716409e+00 1.6169685258e+00 2.8006716409e+00 
8400 5.4762691473e+00 2.2371766761e-03 1.6169064199e+00 -2.8005640704e+00 1.6169064199e+00 2.8005640704e+00 
8500 5.4763014697e+00 2.4573643099e-03 1.6168372396e+00 -2.8004442466e+00 1.6168372396e+00 2.8004442466e+00 
8600 5.4763317369e+00 2.6686929031e-03 1.6167612473e+00 -2.8003126240e+00 1.6167612473e+00 2.8003126240e+00 
8700 5.4763599491e+00 2.8708573255e-03 1.6166787159e+00 -2.8001696755e+00 1.6166787159e+00 2.8001696755e+00 
8800 5.4763861199e+00 3.0635929821e-03 1.6165899280e+00 -2.8000158903e+00 1.6165899280e+00 2.8000158903e+00 
8900 5.4764102757e+00 3.2466744930e-03 1.6164951741e+00 -2.7998517718e+00 1.6164951741e+00 2.7998517718e+00 
9000 5.4764324542e+00 3.4199143368e-03 1.6163947519e+00 -2.7996778354e+00 1.6163947519e+00 2.7996778354e+00 
9100 5.4764527030e+00 3.5831614630e-03 1.6162889647e+00 -2.7994946066e+00 1.6162889647e+00 2.7994946066e+00 
9200 5.4764710788e+00 3.7362998768e-03 1.6161781207e+00 -2.7993026191e+00 1.6161781207e+00 2.7993026191e+00 
9300 5.4764876462e+00 3.8792472041e-03 1.6160625315e+00 -2.7991024127e+00 1.6160625315e+00 2.7991024127e+00 
9400 5.4765024763e+00 4.0119532382e-03 1.6159425114e+00 -2.7988945318e+00 1.6159425114e+00 2.7988945318e+00 
9500 5.4765156462e+00 4.1343984754e-03 1.6158183763e+00 -2.7986795236e+00 1.6158183763e+00 2.7986795236e+00 
9600 5.4765272376e+00 4.2465926421e-03 1.6156904429e+00 -2.7984579364e+00 1.6156904429e+00 2.7984579364e+00 
9700 5.4765373359e+00 4.3485732196e-03 1.6155590274e+00 -2.7982303181e+00 1.6155590274e+00 2.7982303181e+00 
9800 5.4765460295e+00 4.4404039689e-03 1.6154244451e+00 -2.7979972147e+00 1.6154244451e+00 2.7979972147e+00 
9900 5.4765534087e+00 4.5221734607e-03 1.6152870094e+00 -2.7977591690e+00 1.6152870094e+00 2.7977591690e+00 
10000 5.4765595651e+00 4.5939936144e-03 1.6151470309e+00 -2.7975167192e+00 1.6151470309e+00 2.7975167192e+00 
10100 5.4765645909e+00 4.6559982489e-03 1.6150048170e+00 -2.7972703976e+00 1.6150048170e+00 2.7972703976e+00 
10200 5.4765685778e+00 4.7083416490e-03 1.6148606710e+00 -2.7970207294e+00 1.6148606710e+00 2.7970207294e+00 
10300 5.4765716171e+00 4.7511971515e-03 1.6147148916e+00 -2.7967682319e+00 1.6147148916e+00 2.7967682319e+00 
10400 5.4765737986e+00 4.7847557522e-03 1.6145677719e+00 -2.7965134133e+00 1.6145677719e+00 2.7965134133e+00 
10500 5.4765752100e+00 4.8092247384e-03 1.6144195997e+00 -2.7962567714e+00 1.6144195997e+00 2.7962567714e+00 
10600 5.4765759368e+00 4.8248263480e-03 1.6142706561e+00 -2.7959987935e+00 1.6142706561e+00 2.7959987935e+00 
10700 5.4765760620e+00 4.8317964582e-03 1.6141212154e+00 -2.7957399547e+00 1.6141212154e+00 2.7957399547e+00 
10800 5.4765756652e+00 4.8303833068e-03 1.6139715451e+00 -2.7954807181e+00 1.6139715451e+00 2.7954807181e+00 
10900 5.4765748226e+00 4.8208462455e-03 1.6138219046e+00 -2.7952215332e+00 1.6138219046e+00 2.7952215332e+00 
11000 5.4765736070e+00 4.8034545301e-03 1.6136725458e+00 -2.7949628361e+00 1.6136725458e+00 2.7949628361e+00 
11100 5.4765720872e+00 4.7784861466e-03 1.6135237120e+00 -2.7947050484e+00 1.6135237120e+00 2.7947050484e+00 
11200 5.4765703278e+00 4.7462266758e-03 1.6133756381e+00 -2.7944485770e+00 1.6133756381e+00 2.7944485770e+00 
11300 5.4765683897e+00 4.7069681968e-03 1.6132285504e+00 -2.7941938136e+00 1.6132285504e+00 2.7941938136e+00 
11400 5.4765663290e+00 4.6610082312e-03 1.6130826660e+00 -2.7939411344e+00 1.6130826660e+00 2.7939411344e+00 
11500 5.4765641981e+00 4.6086487278e-03 1.6129381930e+00 -2.7936908998e+00 1.6129381930e+00 2.7936908998e+00 
11600 5.4765620447e+00 4.5501950888e-03 1.6127953301e+00 -2.7934434540e+00 1.6127953301e+00 2.7934434540e+00 
11700 5.4765599124e+00 4.4859552380e-03 1.6126542667e+00 -2.7931991249e+00 1.6126542667e+00 2.7931991249e+00 
11800 5.4765578405e+00 4.4162387314e-03 1.6125151826e+00 -2.7929582242e+00 1.6125151826e+00 2.7929582242e+00 
11900 5.4765558642e+00 4.3413559093e-03 1.6123782482e+00 -2.7927210469e+00 1.6123782482e+00 2.7927210469e+00 
12000 5.4765540146e+00 4.2616170910e-03 1.6122436242e+00 -2.7924878713e+00 1.6122436242e+00 2.7924878713e+00 
12100 5.4765523190e+00 4.1773318121e-03 1.6121114618e+00 -2.7922589594e+00 1.6121114618e+00 2.7922589594e+00 
12200 5.4765508006e+00 4.0888081023e-03 1.6119819027e+00 -2.7920345563e+00 1.6119819027e+00 2.7920345563e+00 
12300 5.4765494792e+00 3.9963518055e-03 1.6118550789e+00 -2.7918148910e+00 1.6118550789e+00 2.7918148910e+00 
12400 5.4765483709e+00 3.9002659401e-03 1.6117311130e+00 -2.7916001758e+00 1.6117311130e+00 2.7916001758e+00 
12500 5.4765474888e+00 3.8008501001e-03 1.6116101183e+00 -2.7913906069e+00 1.6116101183e+00 2.7913906069e+00 
12600 5.4765468424e+00 3.6983998951e-03 1.6114921989e+00 -2.7911863644e+00 1.6114921989e+00 2.7911863644e+00 
12700 5.4765464387e+00 3.5932064292e-03 1.6113774494e+00 -2.7909876126e+00 1.6113774494e+00 2.7909876126e+00 
12800 5.4765462818e+00 3.4855558183e-03 1.6112659559e+00 -2.7907945001e+00 1.6112659559e+00 2.7907945001e+00 
12900 5.4765463730e+00 3.3757287433e-03 1.6111577950e+00 -2.7906071600e+00 1.6111577950e+00 2.7906071600e+00 
13000 5.4765467116e+00 3.2640000408e-03 1.6110530352e+00 -2.7904257107e+00 1.6110530352e+00 2.7904257107e+00 
13100 5.4765472946e+00 3.1506383274e-03 1.6109517361e+00 -2.7902502554e+00 1.6109517361e+00 2.7902502554e+00 
13200 5.4765481171e+00 3.0359056590e-03 1.6108539490e+00 -2.7900808832e+00 1.6108539490e+00 2.7900808832e+00 
13300 5.4765491724e+00 2.9200572225e-03 1.6107597171e+00 -2.7899176688e+00 1.6107597171e+00 2.7899176688e+00 
13400 5.4765504523e+00 2.8033410597e-03 1.6106690757e+00 -2.7897606733e+00 1.6106690757e+00 2.7897606733e+00 
13500 5.4765519473e+00 2.6859978215e-03 1.6105820524e+00 -2.7896099444e+00 1.6105820524e+00 2.7896099444e+00 
13600 5.4765536466e+00 2.5682605520e-03 1.6104986671e+00 -2.7894655170e+00 1.6104986671e+00 2.7894655170e+00 
13700 5.4765555384e+00 2.4503545011e-03 1.6104189329e+00 -2.7893274132e+00 1.6104189329e+00 2.7893274132e+00 
13800 5.4765576102e+00 2.3324969636e-03 1.6103428553e+00 -2.7891956430e+00 1.6103428553e+00 2.7891956430e+00 
13900 5.4765598487e+00 2.2148971459e-03 1.6102704335e+00 -2.7890702047e+00 1.6102704335e+00 2.7890702047e+00 
14000 5.4765622403e+00 2.0977560559e-03 1.6102016599e+00 -2.7889510853e+00 1.6102016599e+00 2.7889510853e+00 
14100 5.4765647707e+00 1.9812664184e-03 1.6101365208e+00 -2.7888382611e+00 1.6101365208e+00 2.7888382611e+00 
14200 5.4765674256e+00 1.8656126119e-03 1.6100749964e+00 -2.7887316977e+00 1.6100749964e+00 2.7887316977e+00 
14300 5.4765701906e+00 1.7509706281e-03 1.6100170611e+00 -2.7886313509e+00 1.6100170611e+00 2.7886313509e+00 
14400 5.4765730513e+00 1.6375080510e-03 1.6099626840e+00 -2.7885371670e+00 1.6099626840e+00 2.7885371670e+00 
14500 5.4765759932e+00 1.5253840557e-03 1.6099118288e+00 -2.7884490833e+00 1.6099118288e+00 2.7884490833e+00 
14600 5.4765790024e+00 1.4147494262e-03 1.6098644543e+00 -2.7883670281e+00 1.6098644543e+00 2.7883670281e+00 
14700 5.4765820649e+00 1.3057465894e-03 1.6098205145e+00 -2.7882909222e+00 1.6098205145e+00 2.7882909222e+00 
14800 5.4765851675e+00 1.1985096663e-03 1.6097799590e+00 -2.7882206780e+00 1.6097799590e+00 2.7882206780e+00 
14900 5.4765882970e+00 1.0931645380e-03 1.6097427333e+00 -2.7881562011e+00 1.6097427333e+00 2.7881562011e+00 
15000 5.4765914412e+00 9.8982892660e-04 1.6097087787e+00 -2.7880973902e+00 1.6097087787e+00 2.7880973902e+00 
15100 5.4765945881e+00 8.8861248883e-04 1.6096780332e+00 -2.7880441374e+00 1.6096780332e+00 2.7880441374e+00 
15200 5.4765977264e+00 7.8961692269e-04 1.6096504311e+00 -2.7879963292e+00 1.6096504311e+00 2.7879963292e+00 
15300 5.4766008455e+00 6.9293608558e-04 1.6096259036e+00 -2.7879538462e+00 1.6096259036e+00 2.7879538462e+00 
15400 5.4766039355e+00 5.9865612315e-04 1.6096043789e+00 -2.7879165644e+00 1.6096043789e+00 2.7879165644e+00 
15500 5.4766069871e+00 5.0685560820e-04 1.6095857826e+00 -2.7878843546e+00 1.6095857826e+00 2.7878843546e+00 
15600 5.4766099918e+00 4.1760568863e-04 1.6095700377e+00 -2.7878570836e+00 1.6095700377e+00 2.7878570836e+00 
15700 5.4766129418e+00 3.3097024388e-04 1.6095570651e+00 -2.7878346145e+00 1.6095570651e+00 2.7878346145e+00 
15800 5.4766158301e+00 2.4700604896e-04 1.6095467837e+00 -2.7878168066e+00 1.6095467837e+00 2.7878168066e+00 
15900 5.4766186502e+00 1.6576294541e-04 1.6095391106e+00 -2.7878035163e+00 1.6095391106e+00 2.7878035163e+00 
16000 5.4766213965e+00 8.7284018562e-05 1.6095339612e+00 -2.7877945973e+00 1.6095339612e+00 2.7877945973e+00 
16100 5.4766240641e+00 1.1605780341e-05 1.6095312497e+00 -2.7877899009e+00 1.6095312497e+00 2.7877899009e+00 
16200 5.4766266486e+00 -6.0852122677e-05 1.6095312497e+00 -2.7877899009e+00 1.6095312497e+00 2.7877899009e+00 
16300 5.4766291470e+00 -1.3289729079e-04 1.6095312497e+00 -2.7877899009e+00 1.6095312497e+00 2.7877899009e+00 
16400 5.4766315558e+00 -1.9997252383e-04 1.6095353782e+00 -2.7877970516e+00 1.6095353782e+00 2.7877970516e+00 
16500 5.4766338727e+00 -2.6416426912e-04 1.6095415903e+00 -2.7878078113e+00 1.6095415903e+00 2.7878078113e+00 
16600 5.4766360960e+00 -3.2546591810e-04 1.6095497965e+00 -2.7878220248e+00 1.6095497965e+00 2.7878220248e+00 
16700 5.4766382245e+00 -3.8387625874e-04 1.6095599070e+00 -2.7878395367e+00 1.6095599070e+00 2.7878395367e+00 
16800 5.4766402576e+00 -4.3939926958e-04 1.6095718319e+00 -2.7878601912e+00 1.6095718319e+00 2.7878601912e+00 
16900 5.4766421952e+00 -4.9204391254e-04 1.6095854815e+00 -2.7878838330e+00 1.6095854815e+00 2.7878838330e+00 
17000 5.4766440376e+00 -5.4182392498e-04 1.6096007663e+00 -2.7879103071e+00 1.6096007663e+00 2.7879103071e+00 
17100 5.4766457856e+00 -5.8875761136e-04 1.6096175973e+00 -2.7879394593e+00 1.6096175973e+00 2.7879394593e+00 
17200 5.4766474403e+00 -6.3286763490e-04 1.6096358861e+00 -2.7879711364e+00 1.6096358861e+00 2.7879711364e+00 
17300 5.4766490031e+00 -6.7418080964e-04 1.6096555449e+00 -2.7880051864e+00 1.6096555449e+00 2.7880051864e+00 
17400 5.4766504761e+00 -7.1272789335e-04 1.6096764867e+00 -2.7880414587e+00 1.6096764867e+00 2.7880414587e+00 
17500 5.4766518613e+00 -7.4854338137e-04 1.6096986256e+00 -2.7880798044e+00 1.6096986256e+00 2.7880798044e+00 
17600 5.4766531611e+00 -7.8166530206e-04 1.6097218767e+00 -2.7881200765e+00 1.6097218767e+00 2.7881200765e+00 
17700 5.4766543781e+00 -8.1213501382e-04 1.6097461562e+00 -2.7881621299e+00 1.6097461562e+00 2.7881621299e+00 
17800 5.4766555152e+00 -8.3999700425e-04 1.6097713819e+00 -2.7882058220e+00 1.6097713819e+00 2.7882058220e+00 
17900 5.4766565753e+00 -8.6529869148e-04 1.6097974725e+00 -2.7882510123e+00 1.6097974725e+00 2.7882510123e+00 
18000 5.4766575617e+00 -8.8809022819e-04 1.6098243486e+00 -2.7882975630e+00 1.6098243486e+00 2.7882975630e+00 
18100 5.4766584774e+00 -9.0842430825e-04 1.6098519321e+00 -2.7883453391e+00 1.6098519321e+00 2.7883453391e+00 
18200 5.4766593259e+00 -9.2635597651e-04 1.6098801467e+00 -2.7883942083e+00 1.6098801467e+00 2.7883942083e+00 
18300 5.4766601106e+00 -9.4194244173e-04 1.6099089178e+00 -2.7884440412e+00 1.6099089178e+00 2.7884440412e+00 
18400 5.4766608347e+00 -9.5524289297e-04 1.6099381724e+00 -2.7884947116e+00 1.6099381724e+00 2.7884947116e+00 
18500 5.4766615019e+00 -9.6631831952e-04 1.6099678396e+00 -2.7885460967e+00 1.6099678396e+00 2.7885460967e+00 
18600 5.4766621154e+00 -9.7523133471e-04 1.6099978501e+00 -2.7885980765e+00 1.6099978501e+00 2.7885980765e+00 
18700 5.4766626787e+00 -9.8204600353e-04 1.6100281370e+00 -2.7886505348e+00 1.6100281370e+00 2.7886505348e+00 
18800 5.4766631950e+00 -9.8682767438e-04 1.6100586348e+00 -2.7887033587e+00 1.6100586348e+00 2.7887033587e+00 
18900 5.4766636678e+00 -9.8964281504e-04 1.6100892807e+00 -2.7887564388e+00 1.6100892807e+00 2.7887564388e+00 
19000 5.4766641003e+00 -9.9055885290e-04 1.6101200133e+00 -2.7888096693e+00 1.6101200133e+00 2.7888096693e+00 
19100 5.4766644954e+00 -9.8964401971e-04 1.6101507738e+00 -2.7888629481e+00 1.6101507738e+00 2.7888629481e+00 
19200 5.4766648563e+00 -9.8696720073e-04 1.6101815053e+00 -2.7889161766e+00 1.6101815053e+00 2.7889161766e+00 
19300 5.4766651859e+00 -9.8259778866e-04 1.6102121531e+00 -2.7889692601e+00 1.6102121531e+00 2.7889692601e+00 
19400 5.4766654870e+00 -9.7660554208e-04 1.6102426646e+00 -2.7890221077e+00 1.6102426646e+00 2.7890221077e+00 
19500 5.4766657623e+00 -9.6906044879e-04 1.6102729895e+00 -2.7890746319e+00 1.6102729895e+00 2.7890746319e+00 
19600 5.4766660144e+00 -9.6003259389e-04 1.6103030796e+00 -2.7891267494e+00 1.6103030796e+00 2.7891267494e+00 
19700 5.4766662456e+00 -9.4959203268e-04 1.6103328887e+00 -2.7891783804e+00 1.6103328887e+00 2.7891783804e+00 
19800 5.4766664583e+00 -9.3780866854e-04 1.6103623731e+00 -2.7892294489e+00 1.6103623731e+00 2.7892294489e+00 
19900 5.4766666546e+00 -9.2475213565e-04 1.6103914912e+00 -2.7892798828e+00 1.6103914912e+00 2.7892798828e+00 
20000 5.4766668366e+00 -9.1049168665e-04 1.6104202033e+00 -2.7893296136e+00 1.6104202033e+00 2.7893296136e+00 
20100 5.4766670061e+00 -8.9509608529e-04 1.6104484721e+00 -2.7893785767e+00 1.6104484721e+00 2.7893785767e+00 
20200 5.4766671650e+00 -8.7863350394e-04 1.6104762625e+00 -2.7894267110e+00 1.6104762625e+00 2.7894267110e+00 
20300 5.4766673147e+00 -8.6117142610e-04 1.6105035412e+00 -2.7894739592e+00 1.6105035412e+00 2.7894739592e+00 
20400 5.4766674568e+00 -8.4277655381e-04 1.6105302774e+00 -2.7895202676e+00 1.6105302774e+00 2.7895202676e+00 
20500 5.4766675926e+00 -8.2351471989e-04 1.6105564421e+00 -2.7895655861e+00 1.6105564421e+00 2.7895655861e+00 
20600 5.4766677234e+00 -8.0345080515e-04 1.6105820083e+00 -2.7896098681e+00 1.6105820083e+00 2.7896098681e+00 
20700 5.4766678503e+00 -7.8264866033e-04 1.6106069512e+00 -2.7896530705e+00 1.6106069512e+00 2.7896530705e+00 
20800 5.4766679743e+00 -7.6117103288e-04 1.6106312480e+00 -2.7896951537e+00 1.6106312480e+00 2.7896951537e+00 
20900 5.4766680961e+00 -7.3907949839e-04 1.6106548776e+00 -2.7897360815e+00 1.6106548776e+00 2.7897360815e+00 
21000 5.4766682167e+00 -7.1643439680e-04 1.6106778211e+00 -2.7897758208e+00 1.6106778211e+00 2.7897758208e+00 
21100 5.4766683367e+00 -6.9329477313e-04 1.6107000613e+00 -2.7898143420e+00 1.6107000613e+00 2.7898143420e+00 
21200 5.4766684566e+00 -6.6971832276e-04 1.6107215829e+00 -2.7898516184e+00 1.6107215829e+00 2.7898516184e+00 
21300 5.4766685769e+00 -6.4576134123e-04 1.6107423723e+00 -2.7898876268e+00 1.6107423723e+00 2.7898876268e+00 
21400 5.4766686980e+00 -6.2147867835e-04 1.6107624178e+00 -2.7899223466e+00 1.6107624178e+00 2.7899223466e+00 
21500 5.4766688202e+00 -5.9692369668e-04 1.6107817093e+00 -2.7899557604e+00 1.6107817093e+00 2.7899557604e+00 
21600 5.4766689439e+00 -5.7214823415e-04 1.6108002384e+00 -2.7899878537e+00 1.6108002384e+00 2.7899878537e+00 
21700 5.4766690690e+00 -5.4720257091e-04 1.6108179981e+00 -2.7900186145e+00 1.6108179981e+00 2.7900186145e+00 
21800 5.4766691958e+00 -5.2213540006e-04 1.6108349834e+00 -2.7900480339e+00 1.6108349834e+00 2.7900480339e+00 
21900 5.4766693244e+00 -4.9699380245e-04 1.6108511904e+00 -2.7900761052e+00 1.6108511904e+00 2.7900761052e+00 
22000 5.4766694546e+00 -4.7182322522e-04 1.6108666169e+00 -2.7901028247e+00 1.6108666169e+00 2.7901028247e+00 
22100 5.4766695865e+00 -4.4666746406e-04 1.6108812619e+00 -2.7901281906e+00 1.6108812619e+00 2.7901281906e+00 
22200 5.4766697201e+00 -4.2156864909e-04 1.6108951260e+00 -2.7901522039e+00 1.6108951260e+00 2.7901522039e+00 
22300 5.4766698551e+00 -3.9656723428e-04 1.6109082109e+00 -2.7901748677e+00 1.6109082109e+00 2.7901748677e+00 
22400 5.4766699915e+00 -3.7170199018e-04 1.6109205198e+00 -2.7901961872e+00 1.6109205198e+00 2.7901961872e+00 
22500 5.4766701290e+00 -3.4700999998e-04 1.6109320567e+00 -2.7902161698e+00 1.6109320567e+00 2.7902161698e+00 
22600 5.4766702675e+00 -3.2252665866e-04 1.6109428272e+00 -2.7902348248e+00 1.6109428272e+00 2.7902348248e+00 
22700 5.4766704069e+00 -2.9828567523e-04 1.6109528377e+00 -2.7902521635e+00 1.6109528377e+00 2.7902521635e+00 
22800 5.4766705467e+00 -2.7431907787e-04 1.6109620958e+00 -2.7902681990e+00 1.6109620958e+00 2.7902681990e+00 
22900 5.4766706869e+00 -2.5065722185e-04 1.6109706099e+00 -2.7902829459e+00 1.6109706099e+00 2.7902829459e+00 
23000 5.4766708272e+00 -2.2732880013e-04 1.6109783896e+00 -2.7902964207e+00 1.6109783896e+00 2.7902964207e+00 
23100 5.4766709674e+00 -2.0436085651e-04 1.6109854452e+00 -2.7903086414e+00 1.6109854452e+00 2.7903086414e+00 
23200 5.4766711072e+00 -1.8177880123e-04 1.6109917880e+00 -2.7903196273e+00 1.6109917880e+00 2.7903196273e+00 
23300 5.4766712463e+00 -1.5960642883e-04 1.6109974298e+00 -2.7903293993e+00 1.6109974298e+00 2.7903293993e+00 
23400 5.4766713846e+00 -1.3786593828e-04 1.6110023835e+00 -2.7903379793e+00 1.6110023835e+00 2.7903379793e+00 
23500 5.4766715218e+00 -1.1657795510e-04 1.6110066623e+00 -2.7903453905e+00 1.6110066623e+00 2.7903453905e+00 
23600 5.4766716577e+00 -9.5761555439e-05 1.6110102805e+00 -2.7903516574e+00 1.6110102805e+00 2.7903516574e+00 
23700 5.4766717921e+00 -7.5434292074e-05 1.6110132526e+00 -2.7903568052e+00 1.6110132526e+00 2.7903568052e+00 
23800 5.4766719248e+00 -5.5612221985e-05 1.6110155938e+00 -2.7903608603e+00 1.6110155938e+00 2.7903608603e+00 
23900 5.4766720556e+00 -3.8162498509e-05 1.6110155938e+00 -2.7903608603e+00 1.6110155938e+00 2.7903608603e+00 
24000 5.4766721842e+00 -2.0615558528e-05 1.6110155938e+00 -2.7903608603e+00 1.6110155938e+00 2.7903608603e+00 
24100 5.4766723105e+00 -2.9966473623e-06 1.6110155938e+00 -2.7903608603e+00 1.6110155938e+00 2.7903608603e+00 
24200 5.4766724344e+00 1.4669950515e-05 1.6110155938e+00 -2.7903608603e+00 1.6110155938e+00 2.7903608603e+00 
24300 5.4766725558e+00 3.2360905745e-05 1.6110155938e+00 -2.7903608603e+00 1.6110155938e+00 2.7903608603e+00 
24400 5.4766726746e+00 5.0053837157e-05 1.6110155938e+00 -2.7903608603e+00 1.6110155938e+00 2.7903608603e+00 
24500 5.4766727909e+00 6.7727303722e-05 1.6110155938e+00 -2.7903608603e+00 1.6110155938e+00 2.7903608603e+00 
24600 5.4766729045e+00 8.5360795457e-05 1.6110155938e+00 -2.7903608603e+00 1.6110155938e+00 2.7903608603e+00 
24700 5.4766730149e+00 1.0009083459e-04 1.6110129445e+00 -2.7903562716e+00 1.6110129445e+00 2.7903562716e+00 
24800 5.4766731224e+00 1.1423210864e-04 1.6110098381e+00 -2.7903508911e+00 1.6110098381e+00 2.7903508911e+00 
24900 5.4766732269e+00 1.2778271186e-04 1.6110062927e+00 -2.7903447503e+00 1.6110062927e+00 2.7903447503e+00 
25000 5.4766733284e+00 1.4074181527e-04 1.6110023268e+00 -2.7903378811e+00 1.6110023268e+00 2.7903378811e+00 
25100 5.4766734267e+00 1.5310962637e-04 1.6109979587e+00 -2.7903303153e+00 1.6109979587e+00 2.7903303153e+00 
25200 5.4766735220e+00 1.6488734865e-04 1.6109932067e+00 -2.7903220846e+00 1.6109932067e+00 2.7903220846e+00 
25300 5.4766736143e+00 1.7607714082e-04 1.6109880891e+00 -2.7903132207e+00 1.6109880891e+00 2.7903132207e+00 
25400 5.4766737034e+00 1.8668207608e-04 1.6109826242e+00 -2.7903037552e+00 1.6109826242e+00 2.7903037552e+00 
25500 5.4766737896e+00 1.9670610127e-04 1.6109768302e+00 -2.7902937197e+00 1.6109768302e+00 2.7902937197e+00 
25600 5.4766738727e+00 2.0615399608e-04 1.6109707250e+00 -2.7902831452e+00 1.6109707250e+00 2.7902831452e+00 
25700 5.4766739530e+00 2.1503133245e-04 1.6109643266e+00 -2.7902720628e+00 1.6109643266e+00 2.7902720628e+00 
25800 5.4766740303e+00 2.2334443411e-04 1.6109576526e+00 -2.7902605031e+00 1.6109576526e+00 2.7902605031e+00 
25900 5.4766741048e+00 2.3110033638e-04 1.6109507205e+00 -2.7902484965e+00 1.6109507205e+00 2.7902484965e+00 
26000 5.4766741766e+00 2.3830674634e-04 1.6109435477e+00 -2.7902360728e+00 1.6109435477e+00 2.7902360728e+00 
26100 5.4766742456e+00 2.4497200330e-04 1.6109361513e+00 -2.7902232617e+00 1.6109361513e+00 2.7902232617e+00 
26200 5.4766743121e+00 2.5110503984e-04 1.6109285479e+00 -2.7902100922e+00 1.6109285479e+00 2.7902100922e+00 
26300 5.4766743761e+00 2.5671534317e-04 1.6109207541e+00 -2.7901965930e+00 1.6109207541e+00 2.7901965930e+00 
26400 5.4766744376e+00 2.6181291721e-04 1.6109127861e+00 -2.7901827921e+00 1.6109127861e+00 2.7901827921e+00 
26500 5.4766744968e+00 2.6640824511e-04 1.6109046599e+00 -2.7901687171e+00 1.6109046599e+00 2.7901687171e+00 
26600 5.4766745537e+00 2.7051225249e-04 1.6108963910e+00 -2.7901543949e+00 1.6108963910e+00 2.7901543949e+00 
26700 5.4766746084e+00 2.7413627132e-04 1.6108879947e+00 -2.7901398521e+00 1.6108879947e+00 2.7901398521e+00 
26800 5.4766746612e+00 2.7729200454e-04 1.6108794858e+00 -2.7901251143e+00 1.6108794858e+00 2.7901251143e+00 
26900 5.4766747119e+00 2.7999149139e-04 1.6108708790e+00 -2.7901102068e+00 1.6108708790e+00 2.7901102068e+00 
27000 5.4766747608e+00 2.8224707356e-04 1.6108621883e+00 -2.7900951541e+00 1.6108621883e+00 2.7900951541e+00 
27100 5.4766748079e+00 2.8407136210e-04 1.6108534276e+00 -2.7900799801e+00 1.6108534276e+00 2.7900799801e+00 
27200 5.4766748533e+00 2.8547720521e-04 1.6108446101e+00 -2.7900647079e+00 1.6108446101e+00 2.7900647079e+00 
27300 5.4766748971e+00 2.8647765689e-04 1.6108357491e+00 -2.7900493600e+00 1.6108357491e+00 2.7900493600e+00 
27400 5.4766749394e+00 2.8708594645e-04 1.6108268569e+00 -2.7900339583e+00 1.6108268569e+00 2.7900339583e+00 
27500 5.4766749804e+00 2.8731544892e-04 1.6108179457e+00 -2.7900185237e+00 1.6108179457e+00 2.7900185237e+00 
27600 5.4766750200e+00 2.8717965641e-04 1.6108090274e+00 -2.7900030768e+00 1.6108090274e+00 2.7900030768e+00 
27700 5.4766750583e+00 2.8669215036e-04 1.6108001133e+00 -2.7899876371e+00 1.6108001133e+00 2.7899876371e+00 
27800 5.4766750955e+00 2.8586657481e-04 1.6107912142e+00 -2.7899722234e+00 1.6107912142e+00 2.7899722234e+00 
27900 5.4766751317e+00 2.8471661051e-04 1.6107823408e+00 -2.7899568541e+00 1.6107823408e+00 2.7899568541e+00 
28000 5.4766751668e+00 2.8325595011e-04 1.6107735029e+00 -2.7899415466e+00 1.6107735029e+00 2.7899415466e+00 
28100 5.4766752010e+00 2.8149827424e-04 1.6107647104e+00 -2.7899263174e+00 1.6107647104e+00 2.7899263174e+00 
28200 5.4766752343e+00 2.7945722859e-04 1.6107559724e+00 -2.7899111827e+00 1.6107559724e+00 2.7899111827e+00 
28300 5.4766752668e+00 2.7714640198e-04 1.6107472977e+00 -2.7898961577e+00 1.6107472977e+00 2.7898961577e+00 
28400 5.4766752985e+00 2.7457930537e-04 1.6107386946e+00 -2.7898812568e+00 1.6107386946e+00 2.7898812568e+00 
28500 5.4766753296e+00 2.7176935188e-04 1.6107301712e+00 -2.7898664939e+00 1.6107301712e+00 2.7898664939e+00 
28600 5.4766753600e+00 2.6872983772e-04 1.6107217350e+00 -2.7898518819e+00 1.6107217350e+00 2.7898518819e+00 
28700 5.4766753898e+00 2.6547392416e-04 1.6107133931e+00 -2.7898374333e+00 1.6107133931e+00 2.7898374333e+00 
28800 5.4766754191e+00 2.6201462039e-04 1.6107051523e+00 -2.7898231597e+00 1.6107051523e+00 2.7898231597e+00 
28900 5.4766754478e+00 2.5836476736e-04 1.6106970187e+00 -2.7898090720e+00 1.6106970187e+00 2.7898090720e+00 
29000 5.4766754762e+00 2.5453702254e-04 1.6106889985e+00 -2.7897951805e+00 1.6106889985e+00 2.7897951805e+00 
29100 5.4766755040e+00 2.5054384566e-04 1.6106810970e+00 -2.7897814947e+00 1.6106810970e+00 2.7897814947e+00 
29200 5.4766755315e+00 2.4639748526e-04 1.6106733194e+00 -2.7897680236e+00 1.6106733194e+00 2.7897680236e+00 
29300 5.4766755586e+00 2.4210996625e-04 1.6106656705e+00 -2.7897547753e+00 1.6106656705e+00 2.7897547753e+00 
29400 5.4766755853e+00 2.3769307830e-04 1.6106581547e+00 -2.7897417575e+00 1.6106581547e+00 2.7897417575e+00 
29500 5.4766756117e+00 2.3315836511e-04 1.6106507759e+00 -2.7897289772e+00 1.6106507759e+00 2.7897289772e+00 
29600 5.4766756378e+00 2.2851711453e-04 1.6106435379e+00 -2.7897164405e+00 1.6106435379e+00 2.7897164405e+00 
29700 5.4766756636e+00 2.2378034955e-04 1.6106364439e+00 -2.7897041534e+00 1.6106364439e+00 2.7897041534e+00 
29800 5.4766756892e+00 2.1895882006e-04 1.6106294970e+00 -2.7896921210e+00 1.6106294970e+00 2.7896921210e+00 
29900 5.4766757144e+00 2.1406299547e-04 1.6106226997e+00 -2.7896803477e+00 1.6106226997e+00 2.7896803477e+00 
30000 5.4766757394e+00 2.0910305803e-04 1.6106160544e+00 -2.7896688376e+00 1.6106160544e+00 2.7896688376e+00 
30100 5.4766757642e+00 2.0408889700e-04 1.6106095630e+00 -2.7896575942e+00 1.6106095630e+00 2.7896575942e+00 
30200 5.4766757887e+00 1.9903010352e-04 1.6106032272e+00 -2.7896466203e+00 1.6106032272e+00 2.7896466203e+00 
30300 5.4766758130e+00 1.9393596618e-04 1.6105970485e+00 -2.7896359184e+00 1.6105970485e+00 2.7896359184e+00 
30400 5.4766758370e+00 1.8881546734e-04 1.6105910278e+00 -2.7896254904e+00 1.6105910278e+00 2.7896254904e+00 
30500 5.4766758609e+00 1.8367728007e-04 1.6105851662e+00 -2.7896153377e+00 1.6105851662e+00 2.7896153377e+00 
30600 5.4766758844e+00 1.7852976579e-04 1.6105794640e+00 -2.7896054612e+00 1.6105794640e+00 2.7896054612e+00 
30700 5.4766759078e+00 1.7338097250e-04 1.6105739216e+00 -2.7895958615e+00 1.6105739216e+00 2.7895958615e+00 
30800 5.4766759309e+00 1.6823863368e-04 1.6105685390e+00 -2.7895865386e+00 1.6105685390e+00 2.7895865386e+00 
30900 5.4766759538e+00 1.6311016772e-04 1.6105633160e+00 -2.7895774922e+00 1.6105633160e+00 2.7895774922e+00 
31000 5.4766759765e+00 1.5800267793e-04 1.6105582523e+00 -2.7895687215e+00 1.6105582523e+00 2.7895687215e+00 
31100 5.4766759989e+00 1.5292295312e-04 1.6105533471e+00 -2.7895602254e+00 1.6105533471e+00 2.7895602254e+00 
31200 5.4766760210e+00 1.4787746864e-04 1.6105485995e+00 -2.7895520025e+00 1.6105485995e+00 2.7895520025e+00 
31300 5.4766760430e+00 1.4287238798e-04 1.6105440086e+00 -2.7895440508e+00 1.6105440086e+00 2.7895440508e+00 
31400 5.4766760646e+00 1.3791356480e-04 1.6105395731e+00 -2.7895363682e+00 1.6105395731e+00 2.7895363682e+00 
31500 5.4766760860e+00 1.3300654543e-04 1.6105352915e+00 -2.7895289523e+00 1.6105352915e+00 2.7895289523e+00 
31600 5.4766761072e+00 1.2815657177e-04 1.6105311622e+00 -2.7895218002e+00 1.6105311622e+00 2.7895218002e+00 
31700 5.4766761281e+00 1.2336858464e-04 1.6105271835e+00 -2.7895149089e+00 1.6105271835e+00 2.7895149089e+00 
31800 5.4766761487e+00 1.1864722748e-04 1.6105233535e+00 -2.7895082750e+00 1.6105233535e+00 2.7895082750e+00 
31900 5.4766761690e+00 1.1399685041e-04 1.6105196700e+00 -2.7895018950e+00 1.6105196700e+00 2.7895018950e+00 
32000 5.4766761891e+00 1.0942151463e-04 1.6105161308e+00 -2.7894957650e+00 1.6105161308e+00 2.7894957650e+00 
32100 5.4766762089e+00 1.0492499720e-04 1.6105127338e+00 -2.7894898811e+00 1.6105127338e+00 2.7894898811e+00 
32200 5.4766762283e+00 1.0051079596e-04 1.6105094763e+00 -2.7894842389e+00 1.6105094763e+00 2.7894842389e+00 
32300 5.4766762476e+00 9.6182134943e-05 1.6105063558e+00 -2.7894788341e+00 1.6105063558e+00 2.7894788341e+00 
32400 5.4766762665e+00 9.1941969843e-05 1.6105033697e+00 -2.7894736621e+00 1.6105033697e+00 2.7894736621e+00 
32500 5.4766762851e+00 8.7792993842e-05 1.6105005153e+00 -2.7894687180e+00 1.6105005153e+00 2.7894687180e+00 
32600 5.4766763034e+00 8.3737643610e-05 1.6104977896e+00 -2.7894639971e+00 1.6104977896e+00 2.7894639971e+00 
32700 5.4766763215e+00 7.9778105508e-05 1.6104951899e+00 -2.7894594942e+00 1.6104951899e+00 2.7894594942e+00 
32800 5.4766763392e+00 7.5916321959e-05 1.6104927131e+00 -2.7894552042e+00 1.6104927131e+00 2.7894552042e+00 
32900 5.4766763566e+00 7.2153997998e-05 1.6104903561e+00 -2.7894511219e+00 1.6104903561e+00 2.7894511219e+00 
33000 5.4766763738e+00 6.8492607957e-05 1.6104881160e+00 -2.7894472419e+00 1.6104881160e+00 2.7894472419e+00 
33100 5.4766763908e+00 6.7217932406e-05 1.6104881160e+00 -2.7894472419e+00 1.6104881160e+00 2.7894472419e+00 
33200 5.4766764075e+00 6.5943515874e-05 1.6104881160e+00 -2.7894472419e+00 1.6104881160e+00 2.7894472419e+00 
33300 5.4766764238e+00 6.4673056467e-05 1.6104881160e+00 -2.7894472419e+00 1.6104881160e+00 2.7894472419e+00 
33400 5.4766764399e+00 6.3410050926e-05 1.6104881160e+00 -2.7894472419e+00 1.6104881160e+00 2.7894472419e+00 
33500 5.4766764556e+00 6.2157798871e-05 1.6104881160e+00 -2.7894472419e+00 1.6104881160e+00 2.7894472419e+00 
33600 5.4766764711e+00 6.0919407145e-05 1.6104881160e+00 -2.7894472419e+00 1.6104881160e+00 2.7894472419e+00 
33700 5.4766764862e+00 5.9697794249e-05 1.6104881160e+00 -2.7894472419e+00 1.6104881160e+00 2.7894472419e+00 
33800 5.4766765010e+00 5.8495694855e-05 1.6104881160e+00 -2.7894472419e+00 1.6104881160e+00 2.7894472419e+00 
33900 5.4766765156e+00 5.7315664382e-05 1.6104881160e+00 -2.7894472419e+00 1.6104881160e+00 2.7894472419e+00 
34000 5.4766765298e+00 5.6160083644e-05 1.6104881160e+00 -2.7894472419e+00 1.6104881160e+00 2.7894472419e+00 
34100 5.4766765438e+00 5.5031163530e-05 1.6104881160e+00 -2.7894472419e+00 1.6104881160e+00 2.7894472419e+00 
34200 5.4766765575e+00 5.3930949735e-05 1.6104881160e+00 -2.7894472419e+00 1.6104881160e+00 2.7894472419e+00 
34300 5.4766765709e+00 5.2861327519e-05 1.6104881160e+00 -2.7894472419e+00 1.6104881160e+00 2.7894472419e+00 
34400 5.4766765840e+00 5.1824026492e-05 1.6104881160e+00 -2.7894472419e+00 1.6104881160e+00 2.7894472419e+00 
34500 5.4766765969e+00 5.0820625402e-05 1.6104881160e+00 -2.7894472419e+00 1.6104881160e+00 2.7894472419e+00 
34600 5.4766766095e+00 4.9852556946e-05 1.6104881160e+00 -2.7894472419e+00 1.6104881160e+00 2.7894472419e+00 
34700 5.4766766219e+00 4.8921112570e-05 1.6104881160e+00 -2.7894472419e+00 1.6104881160e+00 2.7894472419e+00 
34800 5.4766766340e+00 4.8027447263e-05 1.6104881160e+00 -2.7894472419e+00 1.6104881160e+00 2.7894472419e+00 
34900 5.4766766459e+00 4.7172584336e-05 1.6104881160e+00 -2.7894472419e+00 1.6104881160e+00 2.7894472419e+00 
35000 5.4766766575e+00 4.6357420182e-05 1.6104881160e+00 -2.7894472419e+00 1.6104881160e+00 2.7894472419e+00 
35100 5.4766766690e+00 4.5582729010e-05 1.6104881160e+00 -2.7894472419e+00 1.6104881160e+00 2.7894472419e+00 
35200 5.4766766802e+00 4.4849167538e-05 1.6104881160e+00 -2.7894472419e+00 1.6104881160e+00 2.7894472419e+00 
35300 5.4766766912e+00 4.4157279660e-05 1.6104881160e+00 -2.7894472419e+00 1.6104881160e+00 2.7894472419e+00 
35400 5.4766767019e+00 4.3507501054e-05 1.6104881160e+00 -2.7894472419e+00 1.6104881160e+00 2.7894472419e+00 
35500 5.4766767125e+00 4.2900163755e-05 1.6104881160e+00 -2.7894472419e+00 1.6104881160e+00 2.7894472419e+00 
35600 5.4766767229e+00 4.2335500667e-05 1.6104881160e+00 -2.7894472419e+00 1.6104881160e+00 2.7894472419e+00 
35700 5.4766767330e+00 4.1813650018e-05 1.6104881160e+00 -2.7894472419e+00 1.6104881160e+00 2.7894472419e+00 
35800 5.4766767430e+00 4.1334659756e-05 1.6104881160e+00 -2.7894472419e+00 1.6104881160e+00 2.7894472419e+00 
35900 5.4766767528e+00 4.0898491872e-05 1.6104881160e+00 -2.7894472419e+00 1.6104881160e+00 2.7894472419e+00 
36000 5.4766767624e+00 4.0505026667e-05 1.6104881160e+00 -2.7894472419e+00 1.6104881160e+00 2.7894472419e+00 
36100 5.4766767719e+00 4.0154066929e-05 1.6104881160e+00 -2.7894472419e+00 1.6104881160e+00 2.7894472419e+00 
36200 5.4766767811e+00 3.9845342051e-05 1.6104881160e+00 -2.7894472419e+00 1.6104881160e+00 2.7894472419e+00 
36300 5.4766767903e+00 3.9578512055e-05 1.6104881160e+00 -2.7894472419e+00 1.6104881160e+00 2.7894472419e+00 
36400 5.4766767992e+00 3.9353171552e-05 1.6104881160e+00 -2.7894472419e+00 1.6104881160e+00 2.7894472419e+00 
36500 5.4766768080e+00 3.9168853604e-05 1.6104881160e+00 -2.7894472419e+00 1.6104881160e+00 2.7894472419e+00 
36600 5.4766768166e+00 3.9025033507e-05 1.6104881160e+00 -2.7894472419e+00 1.6104881160e+00 2.7894472419e+00 
36700 5.4766768251e+00 3.8921132486e-05 1.6104881160e+00 -2.7894472419e+00 1.6104881160e+00 2.7894472419e+00 
36800 5.4766768334e+00 3.8856521304e-05 1.6104881160e+00 -2.7894472419e+00 1.6104881160e+00 2.7894472419e+00 
36900 5.4766768416e+00 3.8830523773e-05 1.6104881160e+00 -2.7894472419e+00 1.6104881160e+00 2.7894472419e+00 
37000 5.4766768496e+00 3.8842420182e-05 1.6104881160e+00 -2.7894472419e+00 1.6104881160e+00 2.7894472419e+00 
37100 5.4766768575e+00 3.8891450627e-05 1.6104881160e+00 -2.7894472419e+00 1.6104881160e+00 2.7894472419e+00 
37200 5.4766768653e+00 3.8976818250e-05 1.6104881160e+00 -2.7894472419e+00 1.6104881160e+00 2.7894472419e+00 
37300 5.4766768729e+00 3.9097692380e-05 1.6104881160e+00 -2.7894472419e+00 1.6104881160e+00 2.7894472419e+00 
37400 5.4766768804e+00 3.9253211590e-05 1.6104881160e+00 -2.7894472419e+00 1.6104881160e+00 2.7894472419e+00 
37500 5.4766768878e+00 3.9442486641e-05 1.6104881160e+00 -2.7894472419e+00 1.6104881160e+00 2.7894472419e+00 
37600 5.4766768951e+00 3.9664603348e-05 1.6104881160e+00 -2.7894472419e+00 1.6104881160e+00 2.7894472419e+00 
37700 5.4766769022e+00 3.9918625341e-05 1.6104881160e+00 -2.7894472419e+00 1.6104881160e+00 2.7894472419e+00 
37800 5.4766769093e+00 4.0203596737e-05 1.6104881160e+00 -2.7894472419e+00 1.6104881160e+00 2.7894472419e+00 
37900 5.4766769162e+00 4.0518544710e-05 1.6104881160e+00 -2.7894472419e+00 1.6104881160e+00 2.7894472419e+00 
38000 5.4766769230e+00 4.0862481973e-05 1.6104881160e+00 -2.7894472419e+00 1.6104881160e+00 2.7894472419e+00 
38100 5.4766769297e+00 4.1234409163e-05 1.6104881160e+00 -2.7894472419e+00 1.6104881160e+00 2.7894472419e+00 
38200 5.4766769362e+00 4.1633317130e-05 1.6104881160e+00 -2.7894472419e+00 1.6104881160e+00 2.7894472419e+00 
38300 5.4766769427e+00 4.2058189145e-05 1.6104881160e+00 -2.7894472419e+00 1.6104881160e+00 2.7894472419e+00 
38400 5.4766769491e+00 4.2508003000e-05 1.6104881160e+00 -2.7894472419e+00 1.6104881160e+00 2.7894472419e+00 
38500 5.4766769553e+00 4.2981733026e-05 1.6104881160e+00 -2.7894472419e+00 1.6104881160e+00 2.7894472419e+00 
38600 5.4766769615e+00 4.3478352026e-05 1.6104881160e+00 -2.7894472419e+00 1.6104881160e+00 2.7894472419e+00 
38700 5.4766769676e+00 4.3996833111e-05 1.6104881160e+00 -2.7894472419e+00 1.6104881160e+00 2.7894472419e+00 
38800 5.4766769735e+00 4.4536151448e-05 1.6104881160e+00 -2.7894472419e+00 1.6104881160e+00 2.7894472419e+00 
38900 5.4766769794e+00 4.5095285932e-05 1.6104881160e+00 -2.7894472419e+00 1.6104881160e+00 2.7894472419e+00 
39000 5.4766769852e+00 4.5673220763e-05 1.6104881160e+00 -2.7894472419e+00 1.6104881160e+00 2.7894472419e+00 
39100 5.4766769909e+00 4.6268946947e-05 1.6104881160e+00 -2.7894472419e+00 1.6104881160e+00 2.7894472419e+00 
39200 5.4766769965e+00 4.6881463708e-05 1.6104881160e+00 -2.7894472419e+00 1.6104881160e+00 2.7894472419e+00 
39300 5.4766770020e+00 4.7509779831e-05 1.6104881160e+00 -2.7894472419e+00 1.6104881160e+00 2.7894472419e+00 
39400 5.4766770074e+00 4.8152914909e-05 1.6104881160e+00 -2.7894472419e+00 1.6104881160e+00 2.7894472419e+00 
39500 5.4766770127e+00 4.8809900536e-05 1.6104881160e+00 -2.7894472419e+00 1.6104881160e+00 2.7894472419e+00 
39600 5.4766770179e+00 4.9479781405e-05 1.6104881160e+00 -2.7894472419e+00 1.6104881160e+00 2.7894472419e+00 
39700 5.4766770231e+00 5.0161616342e-05 1.6104881160e+00 -2.7894472419e+00 1.6104881160e+00 2.7894472419e+00 
39800 5.4766770282e+00 5.0854479268e-05 1.6104881160e+00 -2.7894472419e+00 1.6104881160e+00 2.7894472419e+00 
39900 5.4766770332e+00 5.1557460087e-05 1.6104881160e+00 -2.7894472419e+00 1.6104881160e+00 2.7894472419e+00 
40000 5.4766770381e+00 5.2269665513e-05 1.6104881160e+00 -2.7894472419e+00 1.6104881160e+00 2.7894472419e+00 
40100 5.4766770429e+00 5.2990219827e-05 1.6104881160e+00 -2.7894472419e+00 1.6104881160e+00 2.7894472419e+00 
40200 5.4766770477e+00 5.3718265564e-05 1.6104881160e+00 -2.7894472419e+00 1.6104881160e+00 2.7894472419e+00 
40300 5.4766770523e+00 5.4452964150e-05 1.6104881160e+00 -2.7894472419e+00 1.6104881160e+00 2.7894472419e+00 
40400 5.4766770569e+00 5.5193496468e-05 1.6104881160e+00 -2.7894472419e+00 1.6104881160e+00 2.7894472419e+00 
40500 5.4766770615e+00 5.5939063372e-05 1.6104881160e+00 -2.7894472419e+00 1.6104881160e+00 2.7894472419e+00 
40600 5.4766770659e+00 5.6688886140e-05 1.6104881160e+00 -2.7894472419e+00 1.6104881160e+00 2.7894472419e+00 
40700 5.4766770703e+00 5.7442206875e-05 1.6104881160e+00 -2.7894472419e+00 1.6104881160e+00 2.7894472419e+00 
40800 5.4766770746e+00 5.8198288851e-05 1.6104881160e+00 -2.7894472419e+00 1.6104881160e+00 2.7894472419e+00 
40900 5.4766770788e+00 5.8956416812e-05 1.6104881160e+00 -2.7894472419e+00 1.6104881160e+00 2.7894472419e+00 
41000 5.4766770830e+00 5.9715897220e-05 1.6104881160e+00 -2.7894472419e+00 1.6104881160e+00 2.7894472419e+00 
41100 5.4766770871e+00 6.0476058449e-05 1.6104881160e+00 -2.7894472419e+00 1.6104881160e+00 2.7894472419e+00 
41200 5.4766770911e+00 6.1236250947e-05 1.6104881160e+00 -2.7894472419e+00 1.6104881160e+00 2.7894472419e+00 
41300 5.4766770951e+00 6.1995847345e-05 1.6104881160e+00 -2.7894472419e+00 1.6104881160e+00 2.7894472419e+00 
41400 5.4766770990e+00 6.2754242528e-05 1.6104881160e+00 -2.7894472419e+00 1.6104881160e+00 2.7894472419e+00 
41500 5.4766771028e+00 6.3510853665e-05 1.6104881160e+00 -2.7894472419e+00 1.6104881160e+00 2.7894472419e+00 
41600 5.4766771066e+00 6.4265120201e-05 1.6104881160e+00 -2.7894472419e+00 1.6104881160e+00 2.7894472419e+00 
41700 5.4766771103e+00 6.5016503812e-05 1.6104881160e+00 -2.7894472419e+00 1.6104881160e+00 2.7894472419e+00 
41800 5.4766771140e+00 6.5764488332e-05 1.6104881160e+00 -2.7894472419e+00 1.6104881160e+00 2.7894472419e+00 
41900 5.4766771175e+00 6.6508579636e-05 1.6104881160e+00 -2.7894472419e+00 1.6104881160e+00 2.7894472419e+00 
42000 5.4766771211e+00 6.7248305503e-05 1.6104881160e+00 -2.7894472419e+00 1.6104881160e+00 2.7894472419e+00 
42100 5.4766771245e+00 6.7983215444e-05 1.6104881160e+00 -2.7894472419e+00 1.6104881160e+00 2.7894472419e+00 
42200 5.4766771280e+00 6.8712880501e-05 1.6104881160e+00 -2.7894472419e+00 1.6104881160e+00 2.7894472419e+00 
42300 5.4766771313e+00 6.9436893023e-05 1.6104881160e+00 -2.7894472419e+00 1.6104881160e+00 2.7894472419e+00 
42400 5.4766771346e+00 7.0154866422e-05 1.6104881160e+00 -2.7894472419e+00 1.6104881160e+00 2.7894472419e+00 
42500 5.4766771378e+00 7.0866434890e-05 1.6104881160e+00 -2.7894472419e+00 1.6104881160e+00 2.7894472419e+00 
42600 5.4766771408e+00 6.9208139288e-05 1.6104859158e+00 -2.7894434311e+00 1.6104859158e+00 2.7894434311e+00 
42700 5.4766771440e+00 6.9889553283e-05 1.6104859158e+00 -2.7894434311e+00 1.6104859158e+00 2.7894434311e+00 
42800 5.4766771471e+00 7.0563328113e-05 1.6104859158e+00 -2.7894434311e+00 1.6104859158e+00 2.7894434311e+00 
42900 5.4766771501e+00 7.1229215953e-05 1.6104859158e+00 -2.7894434311e+00 1.6104859158e+00 2.7894434311e+00 
43000 5.4766771529e+00 6.9511766814e-05 1.6104837044e+00 -2.7894396008e+00 1.6104837044e+00 2.7894396008e+00 
43100 5.4766771558e+00 7.0144795119e-05 1.6104837044e+00 -2.7894396008e+00 1.6104837044e+00 2.7894396008e+00 
43200 5.4766771587e+00 7.0769037766e-05 1.6104837044e+00 -2.7894396008e+00 1.6104837044e+00 2.7894396008e+00 
43300 5.4766771613e+00 6.9024470081e-05 1.6104815073e+00 -2.7894357953e+00 1.6104815073e+00 2.7894357953e+00 
43400 5.4766771641e+00 6.9614426210e-05 1.6104815073e+00 -2.7894357953e+00 1.6104815073e+00 2.7894357953e+00 
43500 5.4766771668e+00 7.0194958695e-05 1.6104815073e+00 -2.7894357953e+00 1.6104815073e+00 2.7894357953e+00 
43600 5.4766771695e+00 7.0766007151e-05 1.6104815073e+00 -2.7894357953e+00 1.6104815073e+00 2.7894357953e+00 
43700 5.4766771720e+00 6.8967732469e-05 1.6104793102e+00 -2.7894319899e+00 1.6104793102e+00 2.7894319899e+00 
43800 5.4766771746e+00 6.9503373919e-05 1.6104793102e+00 -2.7894319899e+00 1.6104793102e+00 2.7894319899e+00 
43900 5.4766771771e+00 7.0029162808e-05 1.6104793102e+00 -2.7894319899e+00 1.6104793102e+00 2.7894319899e+00 
44000 5.4766771796e+00 7.0545122476e-05 1.6104793102e+00 -2.7894319899e+00 1.6104793102e+00 2.7894319899e+00 
44100 5.4766771821e+00 7.1051285279e-05 1.6104793102e+00 -2.7894319899e+00 1.6104793102e+00 2.7894319899e+00 
44200 5.4766771843e+00 6.9178380624e-05 1.6104771043e+00 -2.7894281691e+00 1.6104771043e+00 2.7894281691e+00 
44300 5.4766771867e+00 6.9648709619e-05 1.6104771043e+00 -2.7894281691e+00 1.6104771043e+00 2.7894281691e+00 
44400 5.4766771891e+00 7.0109129968e-05 1.6104771043e+00 -2.7894281691e+00 1.6104771043e+00 2.7894281691e+00 
44500 5.4766771914e+00 7.0559744332e-05 1.6104771043e+00 -2.7894281691e+00 1.6104771043e+00 2.7894281691e+00 
44600 5.4766771936e+00 7.1000661045e-05 1.6104771043e+00 -2.7894281691e+00 1.6104771043e+00 2.7894281691e+00 
44700 5.4766771957e+00 6.9064362866e-05 1.6104749000e+00 -2.7894243511e+00 1.6104749000e+00 2.7894243511e+00 
44800 5.4766771979e+00 6.9469870658e-05 1.6104749000e+00 -2.7894243511e+00 1.6104749000e+00 2.7894243511e+00 
44900 5.4766772000e+00 6.9865777427e-05 1.6104749000e+00 -2.7894243511e+00 1.6104749000e+00 2.7894243511e+00 
45000 5.4766772022e+00 7.0252248763e-05 1.6104749000e+00 -2.7894243511e+00 1.6104749000e+00 2.7894243511e+00 
45100 5.4766772042e+00 7.0629452769e-05 1.6104749000e+00 -2.7894243511e+00 1.6104749000e+00 2.7894243511e+00 
45200 5.4766772063e+00 7.0997559764e-05 1.6104749000e+00 -2.7894243511e+00 1.6104749000e+00 2.7894243511e+00 
45300 5.4766772081e+00 6.8989207992e-05 1.6104726958e+00 -2.7894205333e+00 1.6104726958e+00 2.7894205333e+00 
45400 5.4766772101e+00 6.9323280533e-05 1.6104726958e+00 -2.7894205333e+00 1.6104726958e+00 2.7894205333e+00 
45500 5.4766772121e+00 6.9648518513e-05 1.6104726958e+00 -2.7894205333e+00 1.6104726958e+00 2.7894205333e+00 
45600 5.4766772140e+00 6.9965136262e-05 1.6104726958e+00 -2.7894205333e+00 1.6104726958e+00 2.7894205333e+00 
45700 5.4766772159e+00 7.0273347475e-05 1.6104726958e+00 -2.7894205333e+00 1.6104726958e+00 2.7894205333e+00 
45800 5.4766772178e+00 7.0573364988e-05 1.6104726958e+00 -2.7894205333e+00 1.6104726958e+00 2.7894205333e+00 
45900 5.4766772196e+00 7.0865400530e-05 1.6104726958e+00 -2.7894205333e+00 1.6104726958e+00 2.7894205333e+00 
46000 5.4766772212e+00 6.8786532247e-05 1.6104704956e+00 -2.7894167225e+00 1.6104704956e+00 2.7894167225e+00 
46100 5.4766772230e+00 6.9046905347e-05 1.6104704956e+00 -2.7894167225e+00 1.6104704956e+00 2.7894167225e+00 
46200 5.4766772247e+00 6.9299664643e-05 1.6104704956e+00 -2.7894167225e+00 1.6104704956e+00 2.7894167225e+00 
46300 5.4766772264e+00 6.9545053394e-05 1.6104704956e+00 -2.7894167225e+00 1.6104704956e+00 2.7894167225e+00 
46400 5.4766772281e+00 6.9783311340e-05 1.6104704956e+00 -2.7894167225e+00 1.6104704956e+00 2.7894167225e+00 
46500 5.4766772298e+00 7.0014674550e-05 1.6104704956e+00 -2.7894167225e+00 1.6104704956e+00 2.7894167225e+00 
46600 5.4766772314e+00 7.0239375277e-05 1.6104704956e+00 -2.7894167225e+00 1.6104704956e+00 2.7894167225e+00 
46700 5.4766772330e+00 7.0457641838e-05 1.6104704956e+00 -2.7894167225e+00 1.6104704956e+00 2.7894167225e+00 
46800 5.4766772346e+00 7.0669698489e-05 1.6104704956e+00 -2.7894167225e+00 1.6104704956e+00 2.7894167225e+00 
46900 5.4766772362e+00 7.0875765318e-05 1.6104704956e+00 -2.7894167225e+00 1.6104704956e+00 2.7894167225e+00 
47000 5.4766772375e+00 6.8712577509e-05 1.6104682952e+00 -2.7894129112e+00 1.6104682952e+00 2.7894129112e+00 
47100 5.4766772390e+00 6.8890977162e-05 1.6104682952e+00 -2.7894129112e+00 1.6104682952e+00 2.7894129112e+00 
47200 5.4766772405e+00 6.9063762946e-05 1.6104682952e+00 -2.7894129112e+00 1.6104682952e+00 2.7894129112e+00 
47300 5.4766772420e+00 6.9231175367e-05 1.6104682952e+00 -2.7894129112e+00 1.6104682952e+00 2.7894129112e+00 
47400 5.4766772434e+00 6.9393448921e-05 1.6104682952e+00 -2.7894129112e+00 1.6104682952e+00 2.7894129112e+00 
47500 5.4766772448e+00 6.9550812059e-05 1.6104682952e+00 -2.7894129112e+00 1.6104682952e+00 2.7894129112e+00 
47600 5.4766772462e+00 6.9703487158e-05 1.6104682952e+00 -2.7894129112e+00 1.6104682952e+00 2.7894129112e+00 
47700 5.4766772476e+00 6.9851690501e-05 1.6104682952e+00 -2.7894129112e+00 1.6104682952e+00 2.7894129112e+00 
47800 5.4766772489e+00 6.9995632272e-05 1.6104682952e+00 -2.7894129112e+00 1.6104682952e+00 2.7894129112e+00 
47900 5.4766772502e+00 7.0135516557e-05 1.6104682952e+00 -2.7894129112e+00 1.6104682952e+00 2.7894129112e+00 
48000 5.4766772515e+00 7.0271541348e-05 1.6104682952e+00 -2.7894129112e+00 1.6104682952e+00 2.7894129112e+00 
48100 5.4766772528e+00 7.0403898565e-05 1.6104682952e+00 -2.7894129112e+00 1.6104682952e+00 2.7894129112e+00 
48200 5.4766772541e+00 7.0532774077e-05 1.6104682952e+00 -2.7894129112e+00 1.6104682952e+00 2.7894129112e+00 
48300 5.4766772553e+00 7.0658347735e-05 1.6104682952e+00 -2.7894129112e+00 1.6104682952e+00 2.7894129112e+00 
48400 5.4766772565e+00 7.0780793412e-05 1.6104682952e+00 -2.7894129112e+00 1.6104682952e+00 2.7894129112e+00 
48500 5.4766772576e+00 6.8539966733e-05 1.6104660976e+00 -2.7894091050e+00 1.6104660976e+00 2.7894091050e+00 
48600 5.4766772587e+00 6.8640345496e-05 1.6104660976e+00 -2.7894091050e+00 1.6104660976e+00 2.7894091050e+00 
48700 5.4766772599e+00 6.8737824482e-05 1.6104660976e+00 -2.7894091050e+00 1.6104660976e+00 2.7894091050e+00 
48800 5.4766772611e+00 6.8832592070e-05 1.6104660976e+00 -2.7894091050e+00 1.6104660976e+00 2.7894091050e+00 
48900 5.4766772622e+00 6.8924829498e-05 1.6104660976e+00 -2.7894091050e+00 1.6104660976e+00 2.7894091050e+00 
49000 5.4766772633e+00 6.9014710946e-05 1.6104660976e+00 -2.7894091050e+00 1.6104660976e+00 2.7894091050e+00 
49100 5.4766772644e+00 6.9102403637e-05 1.6104660976e+00 -2.7894091050e+00 1.6104660976e+00 2.7894091050e+00 
49200 5.4766772655e+00 6.9188067929e-05 1.6104660976e+00 -2.7894091050e+00 1.6104660976e+00 2.7894091050e+00 
49300 5.4766772665e+00 6.9271857424e-05 1.6104660976e+00 -2.7894091050e+00 1.6104660976e+00 2.7894091050e+00 
49400 5.4766772676e+00 6.9353919074e-05 1.6104660976e+00 -2.7894091050e+00 1.6104660976e+00 2.7894091050e+00 
49500 5.4766772686e+00 6.9434393297e-05 1.6104660976e+00 -2.7894091050e+00 1.6104660976e+00 2.7894091050e+00 
49600 5.4766772696e+00 6.9513414094e-05 1.6104660976e+00 -2.7894091050e+00 1.6104660976e+00 2.7894091050e+00 
49700 5.4766772706e+00 6.9591109169e-05 1.6104660976e+00 -2.7894091050e+00 1.6104660976e+00 2.7894091050e+00 
49800 5.4766772716e+00 6.9667600059e-05 1.6104660976e+00 -2.7894091050e+00 1.6104660976e+00 2.7894091050e+00 
49900 5.4766772725e+00 6.9743002259e-05 1.6104660976e+00 -2.7894091050e+00 1.6104660976e+00 2.7894091050e+00 
50000 5.4766772735e+00 6.9817425354e-05 1.6104660976e+00 -2.7894091050e+00 1.6104660976e+00 2.7894091050e+00 
50100 5.4766772744e+00 6.9890973153e-05 1.6104660976e+00 -2.7894091050e+00 1.6104660976e+00 2.7894091050e+00 
50200 5.4766772753e+00 6.9963743823e-05 1.6104660976e+00 -2.7894091050e+00 1.6104660976e+00 2.7894091050e+00 
50300 5.4766772762e+00 7.0035830033e-05 1.6104660976e+00 -2.7894091050e+00 1.6104660976e+00 2.7894091050e+00 
50400 5.4766772771e+00 7.0107319088e-05 1.6104660976e+00 -2.7894091050e+00 1.6104660976e+00 2.7894091050e+00 
50500 5.4766772780e+00 7.0178293069e-05 1.6104660976e+00 -2.7894091050e+00 1.6104660976e+00 2.7894091050e+00 
50600 5.4766772788e+00 7.0248828982e-05 1.6104660976e+00 -2.7894091050e+00 1.6104660976e+00 2.7894091050e+00 
50700 5.4766772797e+00 7.0318998894e-05 1.6104660976e+00 -2.7894091050e+00 1.6104660976e+00 2.7894091050e+00 
50800 5.4766772805e+00 7.0388870083e-05 1.6104660976e+00 -2.7894091050e+00 1.6104660976e+00 2.7894091050e+00 
50900 5.4766772813e+00 7.0458505174e-05 1.6104660976e+00 -2.7894091050e+00 1.6104660976e+00 2.7894091050e+00 
51000 5.4766772821e+00 7.0527962291e-05 1.6104660976e+00 -2.7894091050e+00 1.6104660976e+00 2.7894091050e+00 
51100 5.4766772829e+00 7.0597295199e-05 1.6104660976e+00 -2.7894091050e+00 1.6104660976e+00 2.7894091050e+00 
51200 5.4766772837e+00 7.0666553441e-05 1.6104660976e+00 -2.7894091050e+00 1.6104660976e+00 2.7894091050e+00 
51300 5.4766772845e+00 7.0735782491e-05 1.6104660976e+00 -2.7894091050e+00 1.6104660976e+00 2.7894091050e+00 
51400 5.4766772851e+00 6.8446221022e-05 1.6104639015e+00 -2.7894053012e+00 1.6104639015e+00 2.7894053012e+00 
51500 5.4766772858e+00 6.8499213608e-05 1.6104639015e+00 -2.7894053012e+00 1.6104639015e+00 2.7894053012e+00 
51600 5.4766772865e+00 6.8552032585e-05 1.6104639015e+00 -2.7894053012e+00 1.6104639015e+00 2.7894053012e+00 
51700 5.4766772873e+00 6.8604746430e-05 1.6104639015e+00 -2.7894053012e+00 1.6104639015e+00 2.7894053012e+00 
51800 5.4766772880e+00 6.8657418805e-05 1.6104639015e+00 -2.7894053012e+00 1.6104639015e+00 2.7894053012e+00 
51900 5.4766772887e+00 6.8710108702e-05 1.6104639015e+00 -2.7894053012e+00 1.6104639015e+00 2.7894053012e+00 
52000 5.4766772894e+00 6.8762870594e-05 1.6104639015e+00 -2.7894053012e+00 1.6104639015e+00 2.7894053012e+00 
52100 5.4766772900e+00 6.8815754588e-05 1.6104639015e+00 -2.7894053012e+00 1.6104639015e+00 2.7894053012e+00 
52200 5.4766772907e+00 6.8868806572e-05 1.6104639015e+00 -2.7894053012e+00 1.6104639015e+00 2.7894053012e+00 
52300 5.4766772914e+00 6.8922068362e-05 1.6104639015e+00 -2.7894053012e+00 1.6104639015e+00 2.7894053012e+00 
52400 5.4766772920e+00 6.8975577855e-05 1.6104639015e+00 -2.7894053012e+00 1.6104639015e+00 2.7894053012e+00 
52500 5.4766772926e+00 6.9029369167e-05 1.6104639015e+00 -2.7894053012e+00 1.6104639015e+00 2.7894053012e+00 
52600 5.4766772933e+00 6.9083472786e-05 1.6104639015e+00 -2.7894053012e+00 1.6104639015e+00 2.7894053012e+00 
52700 5.4766772939e+00 6.9137915712e-05 1.6104639015e+00 -2.7894053012e+00 1.6104639015e+00 2.7894053012e+00 
52800 5.4766772945e+00 6.9192721597e-05 1.6104639015e+00 -2.7894053012e+00 1.6104639015e+00 2.7894053012e+00 
52900 5.4766772951e+00 6.9247910891e-05 1.6104639015e+00 -2.7894053012e+00 1.6104639015e+00 2.7894053012e+00 
53000 5.4766772957e+00 6.9303500972e-05 1.6104639015e+00 -2.7894053012e+00 1.6104639015e+00 2.7894053012e+00 
53100 5.4766772963e+00 6.9359506293e-05 1.6104639015e+00 -2.7894053012e+00 1.6104639015e+00 2.7894053012e+00 
53200 5.4766772968e+00 6.9415938508e-05 1.6104639015e+00 -2.7894053012e+00 1.6104639015e+00 2.7894053012e+00 
53300 5.4766772974e+00 6.9472806604e-05 1.6104639015e+00 -2.7894053012e+00 1.6104639015e+00 2.7894053012e+00 
53400 5.4766772980e+00 6.9530117040e-05 1.6104639015e+00 -2.7894053012e+00 1.6104639015e+00 2.7894053012e+00 
53500 5.4766772985e+00 6.9587873862e-05 1.6104639015e+00 -2.7894053012e+00 1.6104639015e+00 2.7894053012e+00 
53600 5.4766772990e+00 6.9646078840e-05 1.6104639015e+00 -2.7894053012e+00 1.6104639015e+00 2.7894053012e+00 
53700 5.4766772996e+00 6.9704731578e-05 1.6104639015e+00 -2.7894053012e+00 1.6104639015e+00 2.7894053012e+00 
53800 5.4766773001e+00 6.9763829644e-05 1.6104639015e+00 -2.7894053012e+00 1.6104639015e+00 2.7894053012e+00 
53900 5.4766773006e+00 6.9823368686e-05 1.6104639015e+00 -2.7894053012e+00 1.6104639015e+00 2.7894053012e+00 
54000 5.4766773011e+00 6.9883342539e-05 1.6104639015e+00 -2.7894053012e+00 1.6104639015e+00 2.7894053012e+00 
54100 5.4766773016e+00 6.9943743344e-05 1.6104639015e+00 -2.7894053012e+00 1.6104639015e+00 2.7894053012e+00 
54200 5.4766773021e+00 7.0004561656e-05 1.6104639015e+00 -2.7894053012e+00 1.6104639015e+00 2.7894053012e+00 
54300 5.4766773026e+00 7.0065786545e-05 1.6104639015e+00 -2.7894053012e+00 1.6104639015e+00 2.7894053012e+00 
54400 5.4766773030e+00 7.0127405706e-05 1.6104639015e+00 -2.7894053012e+00 1.6104639015e+00 2.7894053012e+00 
54500 5.4766773035e+00 7.0189405556e-05 1.6104639015e+00 -2.7894053012e+00 1.6104639015e+00 2.7894053012e+00 
54600 5.4766773040e+00 7.0251771329e-05 1.6104639015e+00 -2.7894053012e+00 1.6104639015e+00 2.7894053012e+00 
54700 5.4766773044e+00 7.0314487176e-05 1.6104639015e+00 -2.7894053012e+00 1.6104639015e+00 2.7894053012e+00 
54800 5.4766773049e+00 7.0377536252e-05 1.6104639015e+00 -2.7894053012e+00 1.6104639015e+00 2.7894053012e+00 
54900 5.4766773053e+00 7.0440900806e-05 1.6104639015e+00 -2.7894053012e+00 1.6104639015e+00 2.7894053012e+00 
55000 5.4766773057e+00 7.0504562267e-05 1.6104639015e+00 -2.7894053012e+00 1.6104639015e+00 2.7894053012e+00 
55100 5.4766773062e+00 7.0568501327e-05 1.6104639015e+00 -2.7894053012e+00 1.6104639015e+00 2.7894053012e+00 
55200 5.4766773066e+00 7.0632698021e-05 1.6104639015e+00 -2.7894053012e+00 1.6104639015e+00 2.7894053012e+00 
55300 5.4766773070e+00 7.0697131801e-05 1.6104639015e+00 -2.7894053012e+00 1.6104639015e+00 2.7894053012e+00 
55400 5.4766773074e+00 7.0761781616e-05 1.6104639015e+00 -2.7894053012e+00 1.6104639015e+00 2.7894053012e+00 
55500 5.4766773076e+00 6.8466960450e-05 1.6104617046e+00 -2.7894014960e+00 1.6104617046e+00 2.7894014960e+00 
55600 5.4766773080e+00 6.8515672089e-05 1.6104617046e+00 -2.7894014960e+00 1.6104617046e+00 2.7894014960e+00 
55700 5.4766773084e+00 6.8564276391e-05 1.6104617046e+00 -2.7894014960e+00 1.6104617046e+00 2.7894014960e+00 
55800 5.4766773088e+00 6.8612788853e-05 1.6104617046e+00 -2.7894014960e+00 1.6104617046e+00 2.7894014960e+00 
55900 5.4766773092e+00 6.8661223348e-05 1.6104617046e+00 -2.7894014960e+00 1.6104617046e+00 2.7894014960e+00 
56000 5.4766773095e+00 6.8709592193e-05 1.6104617046e+00 -2.7894014960e+00 1.6104617046e+00 2.7894014960e+00 
56100 5.4766773099e+00 6.8757906215e-05 1.6104617046e+00 -2.7894014960e+00 1.6104617046e+00 2.7894014960e+00 
56200 5.4766773103e+00 6.8806174826e-05 1.6104617046e+00 -2.7894014960e+00 1.6104617046e+00 2.7894014960e+00 
56300 5.4766773106e+00 6.8854406087e-05 1.6104617046e+00 -2.7894014960e+00 1.6104617046e+00 2.7894014960e+00 
56400 5.4766773110e+00 6.8902606775e-05 1.6104617046e+00 -2.7894014960e+00 1.6104617046e+00 2.7894014960e+00 
56500 5.4766773113e+00 6.8950782445e-05 1.6104617046e+00 -2.7894014960e+00 1.6104617046e+00 2.7894014960e+00 
56600 5.4766773116e+00 6.8998937494e-05 1.6104617046e+00 -2.7894014960e+00 1.6104617046e+00 2.7894014960e+00 
56700 5.4766773120e+00 6.9047075226e-05 1.6104617046e+00 -2.7894014960e+00 1.6104617046e+00 2.7894014960e+00 
56800 5.4766773123e+00 6.9095197908e-05 1.6104617046e+00 -2.7894014960e+00 1.6104617046e+00 2.7894014960e+00 
56900 5.4766773126e+00 6.9143306829e-05 1.6104617046e+00 -2.7894014960e+00 1.6104617046e+00 2.7894014960e+00 
57000 5.4766773129e+00 6.9191402360e-05 1.6104617046e+00 -2.7894014960e+00 1.6104617046e+00 2.7894014960e+00 
57100 5.4766773133e+00 6.9239484006e-05 1.6104617046e+00 -2.7894014960e+00 1.6104617046e+00 2.7894014960e+00 
57200 5.4766773136e+00 6.9287550465e-05 1.6104617046e+00 -2.7894014960e+00 1.6104617046e+00 2.7894014960e+00 
57300 5.4766773139e+00 6.9335599673e-05 1.6104617046e+00 -2.7894014960e+00 1.6104617046e+00 2.7894014960e+00 
57400 5.4766773142e+00 6.9383628863e-05 1.6104617046e+00 -2.7894014960e+00 1.6104617046e+00 2.7894014960e+00 
57500 5.4766773145e+00 6.9431634615e-05 1.6104617046e+00 -2.7894014960e+00 1.6104617046e+00 2.7894014960e+00 
57600 5.4766773148e+00 6.9479612893e-05 1.6104617046e+00 -2.7894014960e+00 1.6104617046e+00 2.7894014960e+00 
57700 5.4766773150e+00 6.9527559102e-05 1.6104617046e+00 -2.7894014960e+00 1.6104617046e+00 2.7894014960e+00 
57800 5.4766773153e+00 6.9575468133e-05 1.6104617046e+00 -2.7894014960e+00 1.6104617046e+00 2.7894014960e+00 
57900 5.4766773156e+00 6.9623334397e-05 1.6104617046e+00 -2.7894014960e+00 1.6104617046e+00 2.7894014960e+00 
58000 5.4766773159e+00 6.9671151880e-05 1.6104617046e+00 -2.7894014960e+00 1.6104617046e+00 2.7894014960e+00 
58100 5.4766773161e+00 6.9718914174e-05 1.6104617046e+00 -2.7894014960e+00 1.6104617046e+00 2.7894014960e+00 
58200 5.4766773164e+00 6.9766614518e-05 1.6104617046e+00 -2.7894014960e+00 1.6104617046e+00 2.7894014960e+00 
58300 5.4766773167e+00 6.9814245838e-05 1.6104617046e+00 -2.7894014960e+00 1.6104617046e+00 2.7894014960e+00 
58400 5.4766773169e+00 6.9861800779e-05 1.6104617046e+00 -2.7894014960e+00 1.6104617046e+00 2.7894014960e+00 
58500 5.4766773172e+00 6.9909271746e-05 1.6104617046e+00 -2.7894014960e+00 1.6104617046e+00 2.7894014960e+00 
58600 5.4766773174e+00 6.9956650930e-05 1.6104617046e+00 -2.7894014960e+00 1.6104617046e+00 2.7894014960e+00 
58700 5.4766773177e+00 7.0003930345e-05 1.6104617046e+00 -2.7894014960e+00 1.6104617046e+00 2.7894014960e+00 
58800 5.4766773179e+00 7.0051101853e-05 1.6104617046e+00 -2.7894014960e+00 1.6104617046e+00 2.7894014960e+00 
58900 5.4766773182e+00 7.0098157201e-05 1.6104617046e+00 -2.7894014960e+00 1.6104617046e+00 2.7894014960e+00 
59000 5.4766773184e+00 7.0145088040e-05 1.6104617046e+00 -2.7894014960e+00 1.6104617046e+00 2.7894014960e+00 
59100 5.4766773186e+00 7.0191885959e-05 1.6104617046e+00 -2.7894014960e+00 1.6104617046e+00 2.7894014960e+00 
59200 5.4766773189e+00 7.0238542504e-05 1.6104617046e+00 -2.7894014960e+00 1.6104617046e+00 2.7894014960e+00 
59300 5.4766773191e+00 7.0285049205e-05 1.6104617046e+00 -2.7894014960e+00 1.6104617046e+00 2.7894014960e+00 
59400 5.4766773193e+00 7.0331397599e-05 1.6104617046e+00 -2.7894014960e+00 1.6104617046e+00 2.7894014960e+00 
59500 5.4766773195e+00 7.0377579249e-05 1.6104617046e+00 -2.7894014960e+00 1.6104617046e+00 2.7894014960e+00 
59600 5.4766773197e+00 7.0423585765e-05 1.6104617046e+00 -2.7894014960e+00 1.6104617046e+00 2.7894014960e+00 
59700 5.4766773199e+00 7.0469408826e-05 1.6104617046e+00 -2.7894014960e+00 1.6104617046e+00 2.7894014960e+00 
59800 5.4766773202e+00 7.0515040192e-05 1.6104617046e+00 -2.7894014960e+00 1.6104617046e+00 2.7894014960e+00 
59900 5.4766773204e+00 7.0560471725e-05 1.6104617046e+00 -2.7894014960e+00 1.6104617046e+00 2.7894014960e+00 
60000 5.4766773206e+00 7.0605695406e-05 1.6104617046e+00 -2.7894014960e+00 1.6104617046e+00 2.7894014960e+00 
60100 5.4766773208e+00 7.0650703345e-05 1.6104617046e+00 -2.7894014960e+00 1.6104617046e+00 2.7894014960e+00 
60200 5.4766773210e+00 7.0695487796e-05 1.6104617046e+00 -2.7894014960e+00 1.6104617046e+00 2.7894014960e+00 
60300 5.4766773212e+00 7.0740041171e-05 1.6104617046e+00 -2.7894014960e+00 1.6104617046e+00 2.7894014960e+00 
60400 5.4766773212e+00 6.8425412684e-05 1.6104595083e+00 -2.7893976919e+00 1.6104595083e+00 2.7893976919e+00 
60500 5.4766773213e+00 6.8453181133e-05 1.6104595083e+00 -2.7893976919e+00 1.6104595083e+00 2.7893976919e+00 
60600 5.4766773215e+00 6.8480439045e-05 1.6104595083e+00 -2.7893976919e+00 1.6104595083e+00 2.7893976919e+00 
60700 5.4766773217e+00 6.8507217450e-05 1.6104595083e+00 -2.7893976919e+00 1.6104595083e+00 2.7893976919e+00 
60800 5.4766773219e+00 6.8533546136e-05 1.6104595083e+00 -2.7893976919e+00 1.6104595083e+00 2.7893976919e+00 
60900 5.4766773221e+00 6.8559453670e-05 1.6104595083e+00 -2.7893976919e+00 1.6104595083e+00 2.7893976919e+00 
61000 5.4766773222e+00 6.8584967424e-05 1.6104595083e+00 -2.7893976919e+00 1.6104595083e+00 2.7893976919e+00 
61100 5.4766773224e+00 6.8610113589e-05 1.6104595083e+00 -2.7893976919e+00 1.6104595083e+00 2.7893976919e+00 
61200 5.4766773226e+00 6.8634917205e-05 1.6104595083e+00 -2.7893976919e+00 1.6104595083e+00 2.7893976919e+00 
61300 5.4766773227e+00 6.8659402177e-05 1.6104595083e+00 -2.7893976919e+00 1.6104595083e+00 2.7893976919e+00 
61400 5.4766773229e+00 6.8683591308e-05 1.6104595083e+00 -2.7893976919e+00 1.6104595083e+00 2.7893976919e+00 
61500 5.4766773231e+00 6.8707506315e-05 1.6104595083e+00 -2.7893976919e+00 1.6104595083e+00 2.7893976919e+00 
61600 5.4766773232e+00 6.8731167855e-05 1.6104595083e+00 -2.7893976919e+00 1.6104595083e+00 2.7893976919e+00 
61700 5.4766773234e+00 6.8754595553e-05 1.6104595083e+00 -2.7893976919e+00 1.6104595083e+00 2.7893976919e+00 
61800 5.4766773235e+00 6.8777808025e-05 1.6104595083e+00 -2.7893976919e+00 1.6104595083e+00 2.7893976919e+00 
61900 5.4766773237e+00 6.8800822899e-05 1.6104595083e+00 -2.7893976919e+00 1.6104595083e+00 2.7893976919e+00 
62000 5.4766773239e+00 6.8823656847e-05 1.6104595083e+00 -2.7893976919e+00 1.6104595083e+00 2.7893976919e+00 
62100 5.4766773240e+00 6.8846325608e-05 1.6104595083e+00 -2.7893976919e+00 1.6104595083e+00 2.7893976919e+00 
62200 5.4766773241e+00 6.8868844011e-05 1.6104595083e+00 -2.7893976919e+00 1.6104595083e+00 2.7893976919e+00 
62300 5.4766773243e+00 6.8891226004e-05 1.6104595083e+00 -2.7893976919e+00 1.6104595083e+00 2.7893976919e+00 
62400 5.4766773244e+00 6.8913484676e-05 1.6104595083e+00 -2.7893976919e+00 1.6104595083e+00 2.7893976919e+00 
62500 5.4766773246e+00 6.8935632287e-05 1.6104595083e+00 -2.7893976919e+00 1.6104595083e+00 2.7893976919e+00 
62600 5.4766773247e+00 6.8957680290e-05 1.6104595083e+00 -2.7893976919e+00 1.6104595083e+00 2.7893976919e+00 
62700 5.4766773248e+00 6.8979639357e-05 1.6104595083e+00 -2.7893976919e+00 1.6104595083e+00 2.7893976919e+00 
62800 5.4766773250e+00 6.9001519403e-05 1.6104595083e+00 -2.7893976919e+00 1.6104595083e+00 2.7893976919e+00 
62900 5.4766773251e+00 6.9023329617e-05 1.6104595083e+00 -2.7893976919e+00 1.6104595083e+00 2.7893976919e+00 
63000 5.4766773252e+00 6.9045078478e-05 1.6104595083e+00 -2.7893976919e+00 1.6104595083e+00 2.7893976919e+00 
63100 5.4766773254e+00 6.9066773789e-05 1.6104595083e+00 -2.7893976919e+00 1.6104595083e+00 2.7893976919e+00 
63200 5.4766773255e+00 6.9088422693e-05 1.6104595083e+00 -2.7893976919e+00 1.6104595083e+00 2.7893976919e+00 
63300 5.4766773256e+00 6.9110031703e-05 1.6104595083e+00 -2.7893976919e+00 1.6104595083e+00 2.7893976919e+00 
63400 5.4766773257e+00 6.9131606726e-05 1.6104595083e+00 -2.7893976919e+00 1.6104595083e+00 2.7893976919e+00 
63500 5.4766773259e+00 6.9153153080e-05 1.6104595083e+00 -2.7893976919e+00 1.6104595083e+00 2.7893976919e+00 
63600 5.4766773260e+00 6.9174675529e-05 1.6104595083e+00 -2.7893976919e+00 1.6104595083e+00 2.7893976919e+00 
63700 5.4766773261e+00 6.9196178294e-05 1.6104595083e+00 -2.7893976919e+00 1.6104595083e+00 2.7893976919e+00 
63800 5.4766773262e+00 6.9217665085e-05 1.6104595083e+00 -2.7893976919e+00 1.6104595083e+00 2.7893976919e+00 
63900 5.4766773263e+00 6.9239139118e-05 1.6104595083e+00 -2.7893976919e+00 1.6104595083e+00 2.7893976919e+00 
64000 5.4766773264e+00 6.9260603139e-05 1.6104595083e+00 -2.7893976919e+00 1.6104595083e+00 2.7893976919e+00 
64100 5.4766773266e+00 6.9282059444e-05 1.6104595083e+00 -2.7893976919e+00 1.6104595083e+00 2.7893976919e+00 
64200 5.4766773267e+00 6.9303509905e-05 1.6104595083e+00 -2.7893976919e+00 1.6104595083e+00 2.7893976919e+00 
64300 5.4766773268e+00 6.9324955986e-05 1.6104595083e+00 -2.7893976919e+00 1.6104595083e+00 2.7893976919e+00 
64400 5.4766773269e+00 6.9346398763e-05 1.6104595083e+00 -2.7893976919e+00 1.6104595083e+00 2.7893976919e+00 
64500 5.4766773270e+00 6.9367838949e-05 1.6104595083e+00 -2.7893976919e+00 1.6104595083e+00 2.7893976919e+00 
64600 5.4766773271e+00 6.9389276908e-05 1.6104595083e+00 -2.7893976919e+00 1.6104595083e+00 2.7893976919e+00 
64700 5.4766773272e+00 6.9410712677e-05 1.6104595083e+00 -2.7893976919e+00 1.6104595083e+00 2.7893976919e+00 
64800 5.4766773273e+00 6.9432145985e-05 1.6104595083e+00 -2.7893976919e+00 1.6104595083e+00 2.7893976919e+00 
64900 5.4766773274e+00 6.9453576271e-05 1.6104595083e+00 -2.7893976919e+00 1.6104595083e+00 2.7893976919e+00 
65000 5.4766773275e+00 6.9475002697e-05 1.6104595083e+00 -2.7893976919e+00 1.6104595083e+00 2.7893976919e+00 
65100 5.4766773276e+00 6.9496424177e-05 1.6104595083e+00 -2.7893976919e+00 1.6104595083e+00 2.7893976919e+00 
65200 5.4766773277e+00 6.9517839379e-05 1.6104595083e+00 -2.7893976919e+00 1.6104595083e+00 2.7893976919e+00 
65300 5.4766773278e+00 6.9539246753e-05 1.6104595083e+00 -2.7893976919e+00 1.6104595083e+00 2.7893976919e+00 
65400 5.4766773279e+00 6.9560644541e-05 1.6104595083e+00 -2.7893976919e+00 1.6104595083e+00 2.7893976919e+00 
65500 5.4766773279e+00 6.9582030794e-05 1.6104595083e+00 -2.7893976919e+00 1.6104595083e+00 2.7893976919e+00 
65600 5.4766773280e+00 6.9603403386e-05 1.6104595083e+00 -2.7893976919e+00 1.6104595083e+00 2.7893976919e+00 
65700 5.4766773281e+00 6.9624760030e-05 1.6104595083e+00 -2.7893976919e+00 1.6104595083e+00 2.7893976919e+00 
65800 5.4766773282e+00 6.9646098292e-05 1.6104595083e+00 -2.7893976919e+00 1.6104595083e+00 2.7893976919e+00 
65900 5.4766773283e+00 6.9667415602e-05 1.6104595083e+00 -2.7893976919e+00 1.6104595083e+00 2.7893976919e+00 
66000 5.4766773284e+00 6.9688709271e-05 1.6104595083e+00 -2.7893976919e+00 1.6104595083e+00 2.7893976919e+00 
66100 5.4766773285e+00 6.9709976501e-05 1.6104595083e+00 -2.7893976919e+00 1.6104595083e+00 2.7893976919e+00 
66200 5.4766773285e+00 6.9731214395e-05 1.6104595083e+00 -2.7893976919e+00 1.6104595083e+00 2.7893976919e+00 
66300 5.4766773286e+00 6.9752419974e-05 1.6104595083e+00 -2.7893976919e+00 1.6104595083e+00 2.7893976919e+00 
66400 5.4766773287e+00 6.9773590186e-05 1.6104595083e+00 -2.7893976919e+00 1.6104595083e+00 2.7893976919e+00 
66500 5.4766773288e+00 6.9794721912e-05 1.6104595083e+00 -2.7893976919e+00 1.6104595083e+00 2.7893976919e+00 
66600 5.4766773289e+00 6.9815811986e-05 1.6104595083e+00 -2.7893976919e+00 1.6104595083e+00 2.7893976919e+00 
66700 5.4766773289e+00 6.9836857196e-05 1.6104595083e+00 -2.7893976919e+00 1.6104595083e+00 2.7893976919e+00 
66800 5.4766773290e+00 6.9857854298e-05 1.6104595083e+00 -2.7893976919e+00 1.6104595083e+00 2.7893976919e+00 
66900 5.4766773291e+00 6.9878800023e-05 1.6104595083e+00 -2.7893976919e+00 1.6104595083e+00 2.7893976919e+00 
67000 5.4766773292e+00 6.9899691091e-05 1.6104595083e+00 -2.7893976919e+00 1.6104595083e+00 2.7893976919e+00 
67100 5.4766773292e+00 6.9920524208e-05 1.6104595083e+00 -2.7893976919e+00 1.6104595083e+00 2.7893976919e+00 
67200 5.4766773293e+00 6.9941296085e-05 1.6104595083e+00 -2.7893976919e+00 1.6104595083e+00 2.7893976919e+00 
67300 5.4766773294e+00 6.9962003444e-05 1.6104595083e+00 -2.7893976919e+00 1.6104595083e+00 2.7893976919e+00 
67400 5.4766773294e+00 6.9982643013e-05 1.6104595083e+00 -2.7893976919e+00 1.6104595083e+00 2.7893976919e+00 
67500 5.4766773295e+00 7.0003211551e-05 1.6104595083e+00 -2.7893976919e+00 1.6104595083e+00 2.7893976919e+00 
67600 5.4766773296e+00 7.0023705841e-05 1.6104595083e+00 -2.7893976919e+00 1.6104595083e+00 2.7893976919e+00 
67700 5.4766773296e+00 7.0044122701e-05 1.6104595083e+00 -2.7893976919e+00 1.6104595083e+00 2.7893976919e+00 
67800 5.4766773297e+00 7.0064458989e-05 1.6104595083e+00 -2.7893976919e+00 1.6104595083e+00 2.7893976919e+00 
67900 5.4766773298e+00 7.0084711606e-05 1.6104595083e+00 -2.7893976919e+00 1.6104595083e+00 2.7893976919e+00 
68000 5.4766773298e+00 7.0104877504e-05 1.6104595083e+00 -2.7893976919e+00 1.6104595083e+00 2.7893976919e+00 
68100 5.4766773299e+00 7.0124953689e-05 1.6104595083e+00 -2.7893976919e+00 1.6104595083e+00 2.7893976919e+00 
68200 5.4766773300e+00 7.0144937227e-05 1.6104595083e+00 -2.7893976919e+00 1.6104595083e+00 2.7893976919e+00 
68300 5.4766773300e+00 7.0164825247e-05 1.6104595083e+00 -2.7893976919e+00 1.6104595083e+00 2.7893976919e+00 
68400 5.4766773301e+00 7.0184614939e-05 1.6104595083e+00 -2.7893976919e+00 1.6104595083e+00 2.7893976919e+00 
68500 5.4766773301e+00 7.0204303569e-05 1.6104595083e+00 -2.7893976919e+00 1.6104595083e+00 2.7893976919e+00 
68600 5.4766773302e+00 7.0223888471e-05 1.6104595083e+00 -2.7893976919e+00 1.6104595083e+00 2.7893976919e+00 
68700 5.4766773302e+00 7.0243367055e-05 1.6104595083e+00 -2.7893976919e+00 1.6104595083e+00 2.7893976919e+00 
68800 5.4766773303e+00 7.0262736812e-05 1.6104595083e+00 -2.7893976919e+00 1.6104595083e+00 2.7893976919e+00 
68900 5.4766773304e+00 7.0281995309e-05 1.6104595083e+00 -2.7893976919e+00 1.6104595083e+00 2.7893976919e+00 
69000 5.4766773304e+00 7.0301140198e-05 1.6104595083e+00 -2.7893976919e+00 1.6104595083e+00 2.7893976919e+00 
69100 5.4766773305e+00 7.0320169211e-05 1.6104595083e+00 -2.7893976919e+00 1.6104595083e+00 2.7893976919e+00 
69200 5.4766773305e+00 7.0339080170e-05 1.6104595083e+00 -2.7893976919e+00 1.6104595083e+00 2.7893976919e+00 
69300 5.4766773306e+00 7.0357870981e-05 1.6104595083e+00 -2.7893976919e+00 1.6104595083e+00 2.7893976919e+00 
69400 5.4766773306e+00 7.0376539638e-05 1.6104595083e+00 -2.7893976919e+00 1.6104595083e+00 2.7893976919e+00 
69500 5.4766773307e+00 7.0395084224e-05 1.6104595083e+00 -2.7893976919e+00 1.6104595083e+00 2.7893976919e+00 
69600 5.4766773307e+00 7.0413502910e-05 1.6104595083e+00 -2.7893976919e+00 1.6104595083e+00 2.7893976919e+00 
69700 5.4766773308e+00 7.0431793960e-05 1.6104595083e+00 -2.7893976919e+00 1.6104595083e+00 2.7893976919e+00 
69800 5.4766773308e+00 7.0437983545e-05 1.6104595083e+00 -2.7893976919e+00 1.6104595083e+00 2.7893976919e+00 
69800 5.4766773308e+00 7.0437983545e-05 1.6104595083e+00 -2.7893976919e+00 1.6104595083e+00 2.7893976919e+00 
