# step Hamiltonian StressXX CellTensor1 CellTensor2 CellTensor3 CellTensor4 
0 6.8947490330e+00 3.8189016810e-10 1.3731072612e+00 -2.3782915406e+00 1.3731072612e+00 2.3782915406e+00 
100 6.8894529118e+00 4.0286743484e-10 1.3731072612e+00 -2.3782915406e+00 1.3731072612e+00 2.3782915406e+00 
200 6.8844608921e+00 3.9815519928e-10 1.3731072612e+00 -2.3782915406e+00 1.3731072612e+00 2.3782915406e+00 
300 6.8797555124e+00 3.7463204657e-10 1.3731072612e+00 -2.3782915406e+00 1.3731072612e+00 2.3782915406e+00 
400 6.8753203141e+00 3.3762889998e-10 1.3731072612e+00 -2.3782915406e+00 1.3731072612e+00 2.3782915406e+00 
500 6.8711397833e+00 2.9125464432e-10 1.3731072612e+00 -2.3782915406e+00 1.3731072612e+00 2.3782915406e+00 
600 6.8671992971e+00 2.3865510076e-10 1.3731072612e+00 -2.3782915406e+00 1.3731072612e+00 2.3782915406e+00 
700 6.8634850723e+00 1.8221882677e-10 1.3731072612e+00 -2.3782915406e+00 1.3731072612e+00 2.3782915406e+00 
800 6.8599841170e+00 1.2374050577e-10 1.3731072612e+00 -2.3782915406e+00 1.3731072612e+00 2.3782915406e+00 
900 6.8566841854e+00 6.4550526702e-11 1.3731072612e+00 -2.3782915406e+00 1.3731072612e+00 2.3782915406e+00 
1000 6.8535737347e+00 5.6176221062e-12 1.3731072612e+00 -2.3782915406e+00 1.3731072612e+00 2.3782915406e+00 
1100 6.8506418850e+00 -5.2369950384e-11 1.3731072612e+00 -2.3782915406e+00 1.3731072612e+00 2.3782915406e+00 
1200 6.8478783812e+00 -1.0894030449e-10 1.3731072612e+00 -2.3782915406e+00 1.3731072612e+00 2.3782915406e+00 
1300 6.8452735567e+00 -1.6378740469e-10 1.3731072612e+00 -2.3782915406e+00 1.3731072612e+00 2.3782915406e+00 
1400 6.8428183004e+00 -2.1673133993e-10 1.3731072612e+00 -2.3782915406e+00 1.3731072612e+00 2.3782915406e+00 
1500 6.8405040241e+00 -2.6768716828e-10 1.3731072612e+00 -2.3782915406e+00 1.3731072612e+00 2.3782915406e+00 
1600 6.8383226327e+00 -3.1664055895e-10 1.3731072612e+00 -2.3782915406e+00 1.3731072612e+00 2.3782915406e+00 
1700 6.8362664960e+00 -3.6362881905e-10 1.3731072612e+00 -2.3782915406e+00 1.3731072612e+00 2.3782915406e+00 
1800 6.8343284220e+00 -4.0872617962e-10 1.3731072612e+00 -2.3782915406e+00 1.3731072612e+00 2.3782915406e+00 
1900 6.8325016315e+00 -4.5203244553e-10 1.3731072612e+00 -2.3782915406e+00 1.3731072612e+00 2.3782915406e+00 
2000 6.8307797347e+00 -4.9366429659e-10 1.3731072612e+00 -2.3782915406e+00 1.3731072612e+00 2.3782915406e+00 
2100 6.8291567086e+00 -5.3374867394e-10 1.3731072612e+00 -2.3782915406e+00 1.3731072612e+00 2.3782915406e+00 
2200 6.8276268761e+00 -5.7241780159e-10 1.3731072612e+00 -2.3782915406e+00 1.3731072612e+00 2.3782915406e+00 
2300 6.8261848861e+00 -6.0980548765e-10 1.3731072612e+00 -2.3782915406e+00 1.3731072612e+00 2.3782915406e+00 
2400 6.8248256946e+00 -6.4604442140e-10 1.3731072612e+00 -2.3782915406e+00 1.3731072612e+00 2.3782915406e+00 
2500 6.8235445474e+00 -6.8126424418e-10 1.3731072612e+00 -2.3782915406e+00 1.3731072612e+00 2.3782915406e+00 
2600 6.8223369632e+00 -7.1559021600e-10 1.3731072612e+00 -2.3782915406e+00 1.3731072612e+00 2.3782915406e+00 
2700 6.8211987180e+00 -7.4914234057e-10 1.3731072612e+00 -2.3782915406e+00 1.3731072612e+00 2.3782915406e+00 
2800 6.8201258305e+00 -7.8203483777e-10 1.3731072612e+00 -2.3782915406e+00 1.3731072612e+00 2.3782915406e+00 
2900 6.8191145478e+00 -8.1437587852e-10 1.3731072612e+00 -2.3782915406e+00 1.3731072612e+00 2.3782915406e+00 
3000 6.8181613326e+00 -8.4626751508e-10 1.3731072612e+00 -2.3782915406e+00 1.3731072612e+00 2.3782915406e+00 
3100 6.8172628507e+00 -8.7780575361e-10 1.3731072612e+00 -2.3782915406e+00 1.3731072612e+00 2.3782915406e+00 
3200 6.8164159592e+00 -9.0908072953e-10 1.3731072612e+00 -2.3782915406e+00 1.3731072612e+00 2.3782915406e+00 
3300 6.8156176959e+00 -9.4017695338e-10 1.3731072612e+00 -2.3782915406e+00 1.3731072612e+00 2.3782915406e+00 
3400 6.8148652687e+00 -9.7117360379e-10 1.3731072612e+00 -2.3782915406e+00 1.3731072612e+00 2.3782915406e+00 
3500 6.8141560455e+00 -1.0021448487e-09 1.3731072612e+00 -2.3782915406e+00 1.3731072612e+00 2.3782915406e+00 
3600 6.8134875456e+00 -1.0331601820e-09 1.3731072612e+00 -2.3782915406e+00 1.3731072612e+00 2.3782915406e+00 
3700 6.8128574307e+00 -1.0642847640e-09 1.3731072612e+00 -2.3782915406e+00 1.3731072612e+00 2.3782915406e+00 
3800 6.8122634968e+00 -1.0955797595e-09 1.3731072612e+00 -2.3782915406e+00 1.3731072612e+00 2.3782915406e+00 
3900 6.8117036663e+00 -1.1271026676e-09 1.3731072612e+00 -2.3782915406e+00 1.3731072612e+00 2.3782915406e+00 
4000 6.8111759811e+00 -1.1589076386e-09 1.3731072612e+00 -2.3782915406e+00 1.3731072612e+00 2.3782915406e+00 
4100 6.8106785953e+00 -1.1910457773e-09 1.3731072612e+00 -2.3782915406e+00 1.3731072612e+00 2.3782915406e+00 
4200 6.8102097693e+00 -1.2235654302e-09 1.3731072612e+00 -2.3782915406e+00 1.3731072612e+00 2.3782915406e+00 
4300 6.8097678630e+00 -1.2565124552e-09 1.3731072612e+00 -2.3782915406e+00 1.3731072612e+00 2.3782915406e+00 
4400 6.8093513308e+00 -1.2899304749e-09 1.3731072612e+00 -2.3782915406e+00 1.3731072612e+00 2.3782915406e+00 
4500 6.8089587156e+00 -1.3238611126e-09 1.3731072612e+00 -2.3782915406e+00 1.3731072612e+00 2.3782915406e+00 
4600 6.8085886443e+00 -1.3583442122e-09 1.3731072612e+00 -2.3782915406e+00 1.3731072612e+00 2.3782915406e+00 
4700 6.8082398223e+00 -1.3934180420e-09 1.3731072612e+00 -2.3782915406e+00 1.3731072612e+00 2.3782915406e+00 
4800 6.8079110295e+00 -1.4291194837e-09 1.3731072612e+00 -2.3782915406e+00 1.3731072612e+00 2.3782915406e+00 
4900 6.8076011158e+00 -1.4654842067e-09 1.3731072612e+00 -2.3782915406e+00 1.3731072612e+00 2.3782915406e+00 
5000 6.8073089972e+00 -1.5025468294e-09 1.3731072612e+00 -2.3782915406e+00 1.3731072612e+00 2.3782915406e+00 
5100 6.8070336519e+00 -1.5403410684e-09 1.3731072612e+00 -2.3782915406e+00 1.3731072612e+00 2.3782915406e+00 
5200 6.8067741168e+00 -1.5788998755e-09 1.3731072612e+00 -2.3782915406e+00 1.3731072612e+00 2.3782915406e+00 
5300 6.8065294841e+00 -1.6182555647e-09 1.3731072612e+00 -2.3782915406e+00 1.3731072612e+00 2.3782915406e+00 
5400 6.8062988981e+00 -1.6584399287e-09 1.3731072612e+00 -2.3782915406e+00 1.3731072612e+00 2.3782915406e+00 
5500 6.8060815521e+00 -1.6994843472e-09 1.3731072612e+00 -2.3782915406e+00 1.3731072612e+00 2.3782915406e+00 
5600 6.8058766861e+00 -1.7414198863e-09 1.3731072612e+00 -2.3782915406e+00 1.3731072612e+00 2.3782915406e+00 
5700 6.8056835833e+00 -1.7842773903e-09 1.3731072612e+00 -2.3782915406e+00 1.3731072612e+00 2.3782915406e+00 
5800 6.8055015683e+00 -1.8280875678e-09 1.3731072612e+00 -2.3782915406e+00 1.3731072612e+00 2.3782915406e+00 
5900 6.8053300046e+00 -1.8728810698e-09 1.3731072612e+00 -2.3782915406e+00 1.3731072612e+00 2.3782915406e+00 
6000 6.8051682919e+00 -1.9186885639e-09 1.3731072612e+00 -2.3782915406e+00 1.3731072612e+00 2.3782915406e+00 
6100 6.8050158646e+00 -1.9655408015e-09 1.3731072612e+00 -2.3782915406e+00 1.3731072612e+00 2.3782915406e+00 
6200 6.8048721896e+00 -2.0134686825e-09 1.3731072612e+00 -2.3782915406e+00 1.3731072612e+00 2.3782915406e+00 
6300 6.8047367643e+00 -2.0625033139e-09 1.3731072612e+00 -2.3782915406e+00 1.3731072612e+00 2.3782915406e+00 
6400 6.8046091150e+00 -2.1126760659e-09 1.3731072612e+00 -2.3782915406e+00 1.3731072612e+00 2.3782915406e+00 
6500 6.8044887953e+00 -2.1640186238e-09 1.3731072612e+00 -2.3782915406e+00 1.3731072612e+00 2.3782915406e+00 
6600 6.8043753841e+00 -2.2165630377e-09 1.3731072612e+00 -2.3782915406e+00 1.3731072612e+00 2.3782915406e+00 
6700 6.8042684850e+00 -2.2703417684e-09 1.3731072612e+00 -2.3782915406e+00 1.3731072612e+00 2.3782915406e+00 
6800 6.8041677238e+00 -2.3253877323e-09 1.3731072612e+00 -2.3782915406e+00 1.3731072612e+00 2.3782915406e+00 
6900 6.8040727483e+00 -2.3817343426e-09 1.3731072612e+00 -2.3782915406e+00 1.3731072612e+00 2.3782915406e+00 
7000 6.8039832262e+00 -2.4394155500e-09 1.3731072612e+00 -2.3782915406e+00 1.3731072612e+00 2.3782915406e+00 
7100 6.8038988443e+00 -2.4984658806e-09 1.3731072612e+00 -2.3782915406e+00 1.3731072612e+00 2.3782915406e+00 
7200 6.8038193075e+00 -2.5589204730e-09 1.3731072612e+00 -2.3782915406e+00 1.3731072612e+00 2.3782915406e+00 
7300 6.8037443376e+00 -2.6208151141e-09 1.3731072612e+00 -2.3782915406e+00 1.3731072612e+00 2.3782915406e+00 
7400 6.8036736723e+00 -2.6841862735e-09 1.3731072612e+00 -2.3782915406e+00 1.3731072612e+00 2.3782915406e+00 
7500 6.8036070646e+00 -2.7490711372e-09 1.3731072612e+00 -2.3782915406e+00 1.3731072612e+00 2.3782915406e+00 
7600 6.8035442813e+00 -2.8155076399e-09 1.3731072612e+00 -2.3782915406e+00 1.3731072612e+00 2.3782915406e+00 
7700 6.8034851030e+00 -2.8835344982e-09 1.3731072612e+00 -2.3782915406e+00 1.3731072612e+00 2.3782915406e+00 
7800 6.8034293226e+00 -2.9531912408e-09 1.3731072612e+00 -2.3782915406e+00 1.3731072612e+00 2.3782915406e+00 
7900 6.8033767449e+00 -3.0245182408e-09 1.3731072612e+00 -2.3782915406e+00 1.3731072612e+00 2.3782915406e+00 
8000 6.8033271862e+00 -3.0975567456e-09 1.3731072612e+00 -2.3782915406e+00 1.3731072612e+00 2.3782915406e+00 
8100 6.8032804730e+00 -3.1723489080e-09 1.3731072612e+00 -2.3782915406e+00 1.3731072612e+00 2.3782915406e+00 
8200 6.8032364419e+00 -3.2489378167e-09 1.3731072612e+00 -2.3782915406e+00 1.3731072612e+00 2.3782915406e+00 
8300 6.8031949390e+00 -3.3273675258e-09 1.3731072612e+00 -2.3782915406e+00 1.3731072612e+00 2.3782915406e+00 
8400 6.8031558191e+00 -3.4076830861e-09 1.3731072612e+00 -2.3782915406e+00 1.3731072612e+00 2.3782915406e+00 
8500 6.8031189453e+00 -3.4899305749e-09 1.3731072612e+00 -2.3782915406e+00 1.3731072612e+00 2.3782915406e+00 
8600 6.8030841887e+00 -3.5741571266e-09 1.3731072612e+00 -2.3782915406e+00 1.3731072612e+00 2.3782915406e+00 
8700 6.8030514277e+00 -3.6604109635e-09 1.3731072612e+00 -2.3782915406e+00 1.3731072612e+00 2.3782915406e+00 
8800 6.8030205477e+00 -3.7487414268e-09 1.3731072612e+00 -2.3782915406e+00 1.3731072612e+00 2.3782915406e+00 
8900 6.8029914407e+00 -3.8391990078e-09 1.3731072612e+00 -2.3782915406e+00 1.3731072612e+00 2.3782915406e+00 
9000 6.8029640049e+00 -3.9318353796e-09 1.3731072612e+00 -2.3782915406e+00 1.3731072612e+00 2.3782915406e+00 
9100 6.8029381443e+00 -4.0267034290e-09 1.3731072612e+00 -2.3782915406e+00 1.3731072612e+00 2.3782915406e+00 
9200 6.8029137685e+00 -4.1238572889e-09 1.3731072612e+00 -2.3782915406e+00 1.3731072612e+00 2.3782915406e+00 
9300 6.8028907922e+00 -4.2233523713e-09 1.3731072612e+00 -2.3782915406e+00 1.3731072612e+00 2.3782915406e+00 
9400 6.8028691351e+00 -4.3252454013e-09 1.3731072612e+00 -2.3782915406e+00 1.3731072612e+00 2.3782915406e+00 
9500 6.8028487213e+00 -4.4295944500e-09 1.3731072612e+00 -2.3782915406e+00 1.3731072612e+00 2.3782915406e+00 
9600 6.8028294796e+00 -4.5364589703e-09 1.3731072612e+00 -2.3782915406e+00 1.3731072612e+00 2.3782915406e+00 
9700 6.8028113426e+00 -4.6458998315e-09 1.3731072612e+00 -2.3782915406e+00 1.3731072612e+00 2.3782915406e+00 
9800 6.8027942468e+00 -4.7579793553e-09 1.3731072612e+00 -2.3782915406e+00 1.3731072612e+00 2.3782915406e+00 
9900 6.8027781326e+00 -4.8727613526e-09 1.3731072612e+00 -2.3782915406e+00 1.3731072612e+00 2.3782915406e+00 
10000 6.8027629434e+00 -4.9903111609e-09 1.3731072612e+00 -2.3782915406e+00 1.3731072612e+00 2.3782915406e+00 
10100 6.8027486263e+00 -5.1106956822e-09 1.3731072612e+00 -2.3782915406e+00 1.3731072612e+00 2.3782915406e+00 
10200 6.8027351310e+00 -5.2339834225e-09 1.3731072612e+00 -2.3782915406e+00 1.3731072612e+00 2.3782915406e+00 
10300 6.8027224105e+00 -5.3602445307e-09 1.3731072612e+00 -2.3782915406e+00 1.3731072612e+00 2.3782915406e+00 
10400 6.8027104203e+00 -5.4895508402e-09 1.3731072612e+00 -2.3782915406e+00 1.3731072612e+00 2.3782915406e+00 
10500 6.8026991183e+00 -5.6219759096e-09 1.3731072612e+00 -2.3782915406e+00 1.3731072612e+00 2.3782915406e+00 
10600 6.8026884651e+00 -5.7575950656e-09 1.3731072612e+00 -2.3782915406e+00 1.3731072612e+00 2.3782915406e+00 
10700 6.8026784234e+00 -5.8964854465e-09 1.3731072612e+00 -2.3782915406e+00 1.3731072612e+00 2.3782915406e+00 
10800 6.8026689581e+00 -6.0387260463e-09 1.3731072612e+00 -2.3782915406e+00 1.3731072612e+00 2.3782915406e+00 
10900 6.8026600361e+00 -6.1843977602e-09 1.3731072612e+00 -2.3782915406e+00 1.3731072612e+00 2.3782915406e+00 
11000 6.8026516263e+00 -6.3335834310e-09 1.3731072612e+00 -2.3782915406e+00 1.3731072612e+00 2.3782915406e+00 
11100 6.8026436991e+00 -6.4863678969e-09 1.3731072612e+00 -2.3782915406e+00 1.3731072612e+00 2.3782915406e+00 
11200 6.8026362268e+00 -6.6428380394e-09 1.3731072612e+00 -2.3782915406e+00 1.3731072612e+00 2.3782915406e+00 
11300 6.8026291835e+00 -6.8030828340e-09 1.3731072612e+00 -2.3782915406e+00 1.3731072612e+00 2.3782915406e+00 
11400 6.8026225443e+00 -6.9671934004e-09 1.3731072612e+00 -2.3782915406e+00 1.3731072612e+00 2.3782915406e+00 
11500 6.8026162861e+00 -7.1352630548e-09 1.3731072612e+00 -2.3782915406e+00 1.3731072612e+00 2.3782915406e+00 
11600 6.8026103870e+00 -7.3073873635e-09 1.3731072612e+00 -2.3782915406e+00 1.3731072612e+00 2.3782915406e+00 
11700 6.8026048264e+00 -7.4836641971e-09 1.3731072612e+00 -2.3782915406e+00 1.3731072612e+00 2.3782915406e+00 
11800 6.8025995849e+00 -7.6641937864e-09 1.3731072612e+00 -2.3782915406e+00 1.3731072612e+00 2.3782915406e+00 
11900 6.8025946441e+00 -7.8490787803e-09 1.3731072612e+00 -2.3782915406e+00 1.3731072612e+00 2.3782915406e+00 
12000 6.8025899867e+00 -8.0384243037e-09 1.3731072612e+00 -2.3782915406e+00 1.3731072612e+00 2.3782915406e+00 
12100 6.8025855965e+00 -8.2323380177e-09 1.3731072612e+00 -2.3782915406e+00 1.3731072612e+00 2.3782915406e+00 
12200 6.8025814581e+00 -8.4309301806e-09 1.3731072612e+00 -2.3782915406e+00 1.3731072612e+00 2.3782915406e+00 
12300 6.8025775571e+00 -8.6343137117e-09 1.3731072612e+00 -2.3782915406e+00 1.3731072612e+00 2.3782915406e+00 
12400 6.8025738798e+00 -8.8426042552e-09 1.3731072612e+00 -2.3782915406e+00 1.3731072612e+00 2.3782915406e+00 
12500 6.8025704133e+00 -9.0559202458e-09 1.3731072612e+00 -2.3782915406e+00 1.3731072612e+00 2.3782915406e+00 
12600 6.8025671456e+00 -9.2743829768e-09 1.3731072612e+00 -2.3782915406e+00 1.3731072612e+00 2.3782915406e+00 
12700 6.8025640653e+00 -9.4981166690e-09 1.3731072612e+00 -2.3782915406e+00 1.3731072612e+00 2.3782915406e+00 
12800 6.8025611615e+00 -9.7272485411e-09 1.3731072612e+00 -2.3782915406e+00 1.3731072612e+00 2.3782915406e+00 
12900 6.8025584241e+00 -9.9619088835e-09 1.3731072612e+00 -2.3782915406e+00 1.3731072612e+00 2.3782915406e+00 
13000 6.8025558436e+00 -1.0202231131e-08 1.3731072612e+00 -2.3782915406e+00 1.3731072612e+00 2.3782915406e+00 
13100 6.8025534109e+00 -1.0448351940e-08 1.3731072612e+00 -2.3782915406e+00 1.3731072612e+00 2.3782915406e+00 
13200 6.8025511176e+00 -1.0700411265e-08 1.3731072612e+00 -2.3782915406e+00 1.3731072612e+00 2.3782915406e+00 
13300 6.8025489556e+00 -1.0958552440e-08 1.3731072612e+00 -2.3782915406e+00 1.3731072612e+00 2.3782915406e+00 
13400 6.8025469174e+00 -1.1222922260e-08 1.3731072612e+00 -2.3782915406e+00 1.3731072612e+00 2.3782915406e+00 
13500 6.8025449959e+00 -1.1493671063e-08 1.3731072612e+00 -2.3782915406e+00 1.3731072612e+00 2.3782915406e+00 
13600 6.8025431843e+00 -1.1770952818e-08 1.3731072612e+00 -2.3782915406e+00 1.3731072612e+00 2.3782915406e+00 
13700 6.8025414764e+00 -1.2054925210e-08 1.3731072612e+00 -2.3782915406e+00 1.3731072612e+00 2.3782915406e+00 
13800 6.8025398661e+00 -1.2345749732e-08 1.3731072612e+00 -2.3782915406e+00 1.3731072612e+00 2.3782915406e+00 
13900 6.8025383479e+00 -1.2643591778e-08 1.3731072612e+00 -2.3782915406e+00 1.3731072612e+00 2.3782915406e+00 
14000 6.8025369165e+00 -1.2948620734e-08 1.3731072612e+00 -2.3782915406e+00 1.3731072612e+00 2.3782915406e+00 
14100 6.8025355669e+00 -1.3261010075e-08 1.3731072612e+00 -2.3782915406e+00 1.3731072612e+00 2.3782915406e+00 
14200 6.8025342943e+00 -1.3580937469e-08 1.3731072612e+00 -2.3782915406e+00 1.3731072612e+00 2.3782915406e+00 
14300 6.8025330944e+00 -1.3908584870e-08 1.3731072612e+00 -2.3782915406e+00 1.3731072612e+00 2.3782915406e+00 
14400 6.8025319629e+00 -1.4244138629e-08 1.3731072612e+00 -2.3782915406e+00 1.3731072612e+00 2.3782915406e+00 
14500 6.8025308959e+00 -1.4587789596e-08 1.3731072612e+00 -2.3782915406e+00 1.3731072612e+00 2.3782915406e+00 
14600 6.8025298897e+00 -1.4939733230e-08 1.3731072612e+00 -2.3782915406e+00 1.3731072612e+00 2.3782915406e+00 
14700 6.8025289408e+00 -1.5300169712e-08 1.3731072612e+00 -2.3782915406e+00 1.3731072612e+00 2.3782915406e+00 
14800 6.8025280459e+00 -1.5669304054e-08 1.3731072612e+00 -2.3782915406e+00 1.3731072612e+00 2.3782915406e+00 
14900 6.8025272019e+00 -1.6047346224e-08 1.3731072612e+00 -2.3782915406e+00 1.3731072612e+00 2.3782915406e+00 
15000 6.8025264058e+00 -1.6434511257e-08 1.3731072612e+00 -2.3782915406e+00 1.3731072612e+00 2.3782915406e+00 
15100 6.8025256549e+00 -1.6831019384e-08 1.3731072612e+00 -2.3782915406e+00 1.3731072612e+00 2.3782915406e+00 
15200 6.8025249466e+00 -1.7237096155e-08 1.3731072612e+00 -2.3782915406e+00 1.3731072612e+00 2.3782915406e+00 
15300 6.8025242784e+00 -1.7652972567e-08 1.3731072612e+00 -2.3782915406e+00 1.3731072612e+00 2.3782915406e+00 
15400 6.8025236480e+00 -1.8078885197e-08 1.3731072612e+00 -2.3782915406e+00 1.3731072612e+00 2.3782915406e+00 
15500 6.8025230532e+00 -1.8515076337e-08 1.3731072612e+00 -2.3782915406e+00 1.3731072612e+00 2.3782915406e+00 
15600 6.8025224920e+00 -1.8961794130e-08 1.3731072612e+00 -2.3782915406e+00 1.3731072612e+00 2.3782915406e+00 
15700 6.8025219624e+00 -1.9419292714e-08 1.3731072612e+00 -2.3782915406e+00 1.3731072612e+00 2.3782915406e+00 
15800 6.8025214626e+00 -1.9887832366e-08 1.3731072612e+00 -2.3782915406e+00 1.3731072612e+00 2.3782915406e+00 
15900 6.8025209908e+00 -2.0367679651e-08 1.3731072612e+00 -2.3782915406e+00 1.3731072612e+00 2.3782915406e+00 
16000 6.8025205454e+00 -2.0859107573e-08 1.3731072612e+00 -2.3782915406e+00 1.3731072612e+00 2.3782915406e+00 
16100 6.8025201250e+00 -2.1362395730e-08 1.3731072612e+00 -2.3782915406e+00 1.3731072612e+00 2.3782915406e+00 
16200 6.8025197280e+00 -2.1877830476e-08 1.3731072612e+00 -2.3782915406e+00 1.3731072612e+00 2.3782915406e+00 
16300 6.8025193531e+00 -2.2405705082e-08 1.3731072612e+00 -2.3782915406e+00 1.3731072612e+00 2.3782915406e+00 
16400 6.8025189990e+00 -2.2946319904e-08 1.3731072612e+00 -2.3782915406e+00 1.3731072612e+00 2.3782915406e+00 
16500 6.8025186645e+00 -2.3499982557e-08 1.3731072612e+00 -2.3782915406e+00 1.3731072612e+00 2.3782915406e+00 
16600 6.8025183485e+00 -2.4067008086e-08 1.3731072612e+00 -2.3782915406e+00 1.3731072612e+00 2.3782915406e+00 
16700 6.8025180498e+00 -2.4647719146e-08 1.3731072612e+00 -2.3782915406e+00 1.3731072612e+00 2.3782915406e+00 
16800 6.8025177675e+00 -2.5242446193e-08 1.3731072612e+00 -2.3782915406e+00 1.3731072612e+00 2.3782915406e+00 
16900 6.8025175005e+00 -2.5851527662e-08 1.3731072612e+00 -2.3782915406e+00 1.3731072612e+00 2.3782915406e+00 
17000 6.8025172481e+00 -2.6475310168e-08 1.3731072612e+00 -2.3782915406e+00 1.3731072612e+00 2.3782915406e+00 
17100 6.8025170093e+00 -2.7114148703e-08 1.3731072612e+00 -2.3782915406e+00 1.3731072612e+00 2.3782915406e+00 
17200 6.8025167834e+00 -2.7768406833e-08 1.3731072612e+00 -2.3782915406e+00 1.3731072612e+00 2.3782915406e+00 
17300 6.8025165695e+00 -2.8438456913e-08 1.3731072612e+00 -2.3782915406e+00 1.3731072612e+00 2.3782915406e+00 
17400 6.8025163670e+00 -2.9124680294e-08 1.3731072612e+00 -2.3782915406e+00 1.3731072612e+00 2.3782915406e+00 
17500 6.8025161752e+00 -2.9827467544e-08 1.3731072612e+00 -2.3782915406e+00 1.3731072612e+00 2.3782915406e+00 
17600 6.8025159934e+00 -3.0547218667e-08 1.3731072612e+00 -2.3782915406e+00 1.3731072612e+00 2.3782915406e+00 
17700 6.8025158211e+00 -3.1284343337e-08 1.3731072612e+00 -2.3782915406e+00 1.3731072612e+00 2.3782915406e+00 
17800 6.8025156576e+00 -3.2039261127e-08 1.3731072612e+00 -2.3782915406e+00 1.3731072612e+00 2.3782915406e+00 
17900 6.8025155025e+00 -3.2812401751e-08 1.3731072612e+00 -2.3782915406e+00 1.3731072612e+00 2.3782915406e+00 
18000 6.8025153553e+00 -3.3604205308e-08 1.3731072612e+00 -2.3782915406e+00 1.3731072612e+00 2.3782915406e+00 
18100 6.8025152154e+00 -3.4415122534e-08 1.3731072612e+00 -2.3782915406e+00 1.3731072612e+00 2.3782915406e+00 
18200 6.8025150825e+00 -3.5245615060e-08 1.3731072612e+00 -2.3782915406e+00 1.3731072612e+00 2.3782915406e+00 
18300 6.8025149561e+00 -3.6096155675e-08 1.3731072612e+00 -2.3782915406e+00 1.3731072612e+00 2.3782915406e+00 
18400 6.8025148357e+00 -3.6967228596e-08 1.3731072612e+00 -2.3782915406e+00 1.3731072612e+00 2.3782915406e+00 
18500 6.8025147211e+00 -3.7859329744e-08 1.3731072612e+00 -2.3782915406e+00 1.3731072612e+00 2.3782915406e+00 
18600 6.8025146118e+00 -3.8772967029e-08 1.3731072612e+00 -2.3782915406e+00 1.3731072612e+00 2.3782915406e+00 
18700 6.8025145076e+00 -3.9708660638e-08 1.3731072612e+00 -2.3782915406e+00 1.3731072612e+00 2.3782915406e+00 
18800 6.8025144080e+00 -4.0666943333e-08 1.3731072612e+00 -2.3782915406e+00 1.3731072612e+00 2.3782915406e+00 
18900 6.8025143129e+00 -4.1648360757e-08 1.3731072612e+00 -2.3782915406e+00 1.3731072612e+00 2.3782915406e+00 
19000 6.8025142219e+00 -4.2653471743e-08 1.3731072612e+00 -2.3782915406e+00 1.3731072612e+00 2.3782915406e+00 
19100 6.8025141347e+00 -4.3682848635e-08 1.3731072612e+00 -2.3782915406e+00 1.3731072612e+00 2.3782915406e+00 
19200 6.8025140511e+00 -4.4737077616e-08 1.3731072612e+00 -2.3782915406e+00 1.3731072612e+00 2.3782915406e+00 
19300 6.8025139709e+00 -4.5816759040e-08 1.3731072612e+00 -2.3782915406e+00 1.3731072612e+00 2.3782915406e+00 
19400 6.8025138938e+00 -4.6922507778e-08 1.3731072612e+00 -2.3782915406e+00 1.3731072612e+00 2.3782915406e+00 
19500 6.8025138196e+00 -4.8054953569e-08 1.3731072612e+00 -2.3782915406e+00 1.3731072612e+00 2.3782915406e+00 
19600 6.8025137482e+00 -4.9214741376e-08 1.3731072612e+00 -2.3782915406e+00 1.3731072612e+00 2.3782915406e+00 
19700 6.8025136792e+00 -5.0402531764e-08 1.3731072612e+00 -2.3782915406e+00 1.3731072612e+00 2.3782915406e+00 
19800 6.8025136126e+00 -5.1619001266e-08 1.3731072612e+00 -2.3782915406e+00 1.3731072612e+00 2.3782915406e+00 
19900 6.8025135481e+00 -5.2864842780e-08 1.3731072612e+00 -2.3782915406e+00 1.3731072612e+00 2.3782915406e+00 
20000 6.8025134857e+00 -5.4140765958e-08 1.3731072612e+00 -2.3782915406e+00 1.3731072612e+00 2.3782915406e+00 
20100 6.8025134251e+00 -5.5447497615e-08 1.3731072612e+00 -2.3782915406e+00 1.3731072612e+00 2.3782915406e+00 
20200 6.8025133661e+00 -5.6785782147e-08 1.3731072612e+00 -2.3782915406e+00 1.3731072612e+00 2.3782915406e+00 
20300 6.8025133087e+00 -5.8156381951e-08 1.3731072612e+00 -2.3782915406e+00 1.3731072612e+00 2.3782915406e+00 
20400 6.8025132528e+00 -5.9560077866e-08 1.3731072612e+00 -2.3782915406e+00 1.3731072612e+00 2.3782915406e+00 
20500 6.8025131981e+00 -6.0997669619e-08 1.3731072612e+00 -2.3782915406e+00 1.3731072612e+00 2.3782915406e+00 
20600 6.8025131446e+00 -6.2469976279e-08 1.3731072612e+00 -2.3782915406e+00 1.3731072612e+00 2.3782915406e+00 
20700 6.8025130921e+00 -6.3977836731e-08 1.3731072612e+00 -2.3782915406e+00 1.3731072612e+00 2.3782915406e+00 
20800 6.8025130406e+00 -6.5522110152e-08 1.3731072612e+00 -2.3782915406e+00 1.3731072612e+00 2.3782915406e+00 
20900 6.8025129900e+00 -6.7103676504e-08 1.3731072612e+00 -2.3782915406e+00 1.3731072612e+00 2.3782915406e+00 
21000 6.8025129401e+00 -6.8723437039e-08 1.3731072612e+00 -2.3782915406e+00 1.3731072612e+00 2.3782915406e+00 
21100 6.8025128908e+00 -7.0382314812e-08 1.3731072612e+00 -2.3782915406e+00 1.3731072612e+00 2.3782915406e+00 
21200 6.8025128421e+00 -7.2081255213e-08 1.3731072612e+00 -2.3782915406e+00 1.3731072612e+00 2.3782915406e+00 
21300 6.8025127938e+00 -7.3821226506e-08 1.3731072612e+00 -2.3782915406e+00 1.3731072612e+00 2.3782915406e+00 
21400 6.8025127460e+00 -7.5603220383e-08 1.3731072612e+00 -2.3782915406e+00 1.3731072612e+00 2.3782915406e+00 
21500 6.8025126984e+00 -7.7428252533e-08 1.3731072612e+00 -2.3782915406e+00 1.3731072612e+00 2.3782915406e+00 
21600 6.8025126511e+00 -7.9297363225e-08 1.3731072612e+00 -2.3782915406e+00 1.3731072612e+00 2.3782915406e+00 
21700 6.8025126039e+00 -8.1211617900e-08 1.3731072612e+00 -2.3782915406e+00 1.3731072612e+00 2.3782915406e+00 
21800 6.8025125569e+00 -8.3172107786e-08 1.3731072612e+00 -2.3782915406e+00 1.3731072612e+00 2.3782915406e+00 
21900 6.8025125098e+00 -8.5179950521e-08 1.3731072612e+00 -2.3782915406e+00 1.3731072612e+00 2.3782915406e+00 
22000 6.8025124627e+00 -8.7236290791e-08 1.3731072612e+00 -2.3782915406e+00 1.3731072612e+00 2.3782915406e+00 
22100 6.8025124155e+00 -8.9342300990e-08 1.3731072612e+00 -2.3782915406e+00 1.3731072612e+00 2.3782915406e+00 
22200 6.8025123681e+00 -9.1499181891e-08 1.3731072612e+00 -2.3782915406e+00 1.3731072612e+00 2.3782915406e+00 
22300 6.8025123204e+00 -9.3708163332e-08 1.3731072612e+00 -2.3782915406e+00 1.3731072612e+00 2.3782915406e+00 
22400 6.8025122725e+00 -9.5970504924e-08 1.3731072612e+00 -2.3782915406e+00 1.3731072612e+00 2.3782915406e+00 
22500 6.8025122242e+00 -9.8287496769e-08 1.3731072612e+00 -2.3782915406e+00 1.3731072612e+00 2.3782915406e+00 
22600 6.8025121756e+00 -1.0066046021e-07 1.3731072612e+00 -2.3782915406e+00 1.3731072612e+00 2.3782915406e+00 
22700 6.8025121264e+00 -1.0309074856e-07 1.3731072612e+00 -2.3782915406e+00 1.3731072612e+00 2.3782915406e+00 
22800 6.8025120768e+00 -1.0557974793e-07 1.3731072612e+00 -2.3782915406e+00 1.3731072612e+00 2.3782915406e+00 
22900 6.8025120266e+00 -1.0812887798e-07 1.3731072612e+00 -2.3782915406e+00 1.3731072612e+00 2.3782915406e+00 
23000 6.8025119757e+00 -1.1073959273e-07 1.3731072612e+00 -2.3782915406e+00 1.3731072612e+00 2.3782915406e+00 
23100 6.8025119243e+00 -1.1341338144e-07 1.3731072612e+00 -2.3782915406e+00 1.3731072612e+00 2.3782915406e+00 
23200 6.8025118721e+00 -1.1615176942e-07 1.3731072612e+00 -2.3782915406e+00 1.3731072612e+00 2.3782915406e+00 
23300 6.8025118191e+00 -1.1895631892e-07 1.3731072612e+00 -2.3782915406e+00 1.3731072612e+00 2.3782915406e+00 
23400 6.8025117654e+00 -1.2182863003e-07 1.3731072612e+00 -2.3782915406e+00 1.3731072612e+00 2.3782915406e+00 
23500 6.8025117108e+00 -1.2477034160e-07 1.3731072612e+00 -2.3782915406e+00 1.3731072612e+00 2.3782915406e+00 
23600 6.8025116553e+00 -1.2778313217e-07 1.3731072612e+00 -2.3782915406e+00 1.3731072612e+00 2.3782915406e+00 
23700 6.8025115988e+00 -1.3086872095e-07 1.3731072612e+00 -2.3782915406e+00 1.3731072612e+00 2.3782915406e+00 
23800 6.8025115414e+00 -1.3402886880e-07 1.3731072612e+00 -2.3782915406e+00 1.3731072612e+00 2.3782915406e+00 
23900 6.8025114829e+00 -1.3726537922e-07 1.3731072612e+00 -2.3782915406e+00 1.3731072612e+00 2.3782915406e+00 
24000 6.8025114233e+00 -1.4058009943e-07 1.3731072612e+00 -2.3782915406e+00 1.3731072612e+00 2.3782915406e+00 
24100 6.8025113626e+00 -1.4397492140e-07 1.3731072612e+00 -2.3782915406e+00 1.3731072612e+00 2.3782915406e+00 
24200 6.8025113008e+00 -1.4745178294e-07 1.3731072612e+00 -2.3782915406e+00 1.3731072612e+00 2.3782915406e+00 
24300 6.8025112377e+00 -1.5101266882e-07 1.3731072612e+00 -2.3782915406e+00 1.3731072612e+00 2.3782915406e+00 
24400 6.8025111734e+00 -1.5465961191e-07 1.3731072612e+00 -2.3782915406e+00 1.3731072612e+00 2.3782915406e+00 
24500 6.8025111077e+00 -1.5839469434e-07 1.3731072612e+00 -2.3782915406e+00 1.3731072612e+00 2.3782915406e+00 
24600 6.8025110407e+00 -1.6222004873e-07 1.3731072612e+00 -2.3782915406e+00 1.3731072612e+00 2.3782915406e+00 
24700 6.8025109723e+00 -1.6613785936e-07 1.3731072612e+00 -2.3782915406e+00 1.3731072612e+00 2.3782915406e+00 
24800 6.8025109025e+00 -1.7015036348e-07 1.3731072612e+00 -2.3782915406e+00 1.3731072612e+00 2.3782915406e+00 
24900 6.8025108311e+00 -1.7425985257e-07 1.3731072612e+00 -2.3782915406e+00 1.3731072612e+00 2.3782915406e+00 
25000 6.8025107582e+00 -1.7846867366e-07 1.3731072612e+00 -2.3782915406e+00 1.3731072612e+00 2.3782915406e+00 
25100 6.8025106837e+00 -1.8277923068e-07 1.3731072612e+00 -2.3782915406e+00 1.3731072612e+00 2.3782915406e+00 
25200 6.8025106076e+00 -1.8719398585e-07 1.3731072612e+00 -2.3782915406e+00 1.3731072612e+00 2.3782915406e+00 
25300 6.8025105298e+00 -1.9171546112e-07 1.3731072612e+00 -2.3782915406e+00 1.3731072612e+00 2.3782915406e+00 
25400 6.8025104502e+00 -1.9634623956e-07 1.3731072612e+00 -2.3782915406e+00 1.3731072612e+00 2.3782915406e+00 
25500 6.8025103689e+00 -2.0108896690e-07 1.3731072612e+00 -2.3782915406e+00 1.3731072612e+00 2.3782915406e+00 
25600 6.8025102857e+00 -2.0594635305e-07 1.3731072612e+00 -2.3782915406e+00 1.3731072612e+00 2.3782915406e+00 
25700 6.8025102007e+00 -2.1092117364e-07 1.3731072612e+00 -2.3782915406e+00 1.3731072612e+00 2.3782915406e+00 
25800 6.8025101136e+00 -2.1601627162e-07 1.3731072612e+00 -2.3782915406e+00 1.3731072612e+00 2.3782915406e+00 
25900 6.8025100246e+00 -2.2123455893e-07 1.3731072612e+00 -2.3782915406e+00 1.3731072612e+00 2.3782915406e+00 
26000 6.8025099335e+00 -2.2657901814e-07 1.3731072612e+00 -2.3782915406e+00 1.3731072612e+00 2.3782915406e+00 
26100 6.8025098404e+00 -2.3205270419e-07 1.3731072612e+00 -2.3782915406e+00 1.3731072612e+00 2.3782915406e+00 
26200 6.8025097450e+00 -2.3765874614e-07 1.3731072612e+00 -2.3782915406e+00 1.3731072612e+00 2.3782915406e+00 
26300 6.8025096474e+00 -2.4340034901e-07 1.3731072612e+00 -2.3782915406e+00 1.3731072612e+00 2.3782915406e+00 
26400 6.8025095476e+00 -2.4928079557e-07 1.3731072612e+00 -2.3782915406e+00 1.3731072612e+00 2.3782915406e+00 
26500 6.8025094454e+00 -2.5530344827e-07 1.3731072612e+00 -2.3782915406e+00 1.3731072612e+00 2.3782915406e+00 
26600 6.8025093408e+00 -2.6147175120e-07 1.3731072612e+00 -2.3782915406e+00 1.3731072612e+00 2.3782915406e+00 
26700 6.8025092337e+00 -2.6778923202e-07 1.3731072612e+00 -2.3782915406e+00 1.3731072612e+00 2.3782915406e+00 
26800 6.8025091241e+00 -2.7425950407e-07 1.3731072612e+00 -2.3782915406e+00 1.3731072612e+00 2.3782915406e+00 
26900 6.8025090119e+00 -2.8088626837e-07 1.3731072612e+00 -2.3782915406e+00 1.3731072612e+00 2.3782915406e+00 
27000 6.8025088970e+00 -2.8767331586e-07 1.3731072612e+00 -2.3782915406e+00 1.3731072612e+00 2.3782915406e+00 
27100 6.8025087794e+00 -2.9462452948e-07 1.3731072612e+00 -2.3782915406e+00 1.3731072612e+00 2.3782915406e+00 
27200 6.8025086590e+00 -3.0174388652e-07 1.3731072612e+00 -2.3782915406e+00 1.3731072612e+00 2.3782915406e+00 
27300 6.8025085357e+00 -3.0903546083e-07 1.3731072612e+00 -2.3782915406e+00 1.3731072612e+00 2.3782915406e+00 
27400 6.8025084095e+00 -3.1650342523e-07 1.3731072612e+00 -2.3782915406e+00 1.3731072612e+00 2.3782915406e+00 
27500 6.8025082803e+00 -3.2415205392e-07 1.3731072612e+00 -2.3782915406e+00 1.3731072612e+00 2.3782915406e+00 
27600 6.8025081479e+00 -3.3198572491e-07 1.3731072612e+00 -2.3782915406e+00 1.3731072612e+00 2.3782915406e+00 
27700 6.8025080124e+00 -3.4000892260e-07 1.3731072612e+00 -2.3782915406e+00 1.3731072612e+00 2.3782915406e+00 
27800 6.8025078737e+00 -3.4822624036e-07 1.3731072612e+00 -2.3782915406e+00 1.3731072612e+00 2.3782915406e+00 
27900 6.8025077316e+00 -3.5664238318e-07 1.3731072612e+00 -2.3782915406e+00 1.3731072612e+00 2.3782915406e+00 
28000 6.8025075861e+00 -3.6526217040e-07 1.3731072612e+00 -2.3782915406e+00 1.3731072612e+00 2.3782915406e+00 
28100 6.8025074371e+00 -3.7409053850e-07 1.3731072612e+00 -2.3782915406e+00 1.3731072612e+00 2.3782915406e+00 
28200 6.8025072845e+00 -3.8313254397e-07 1.3731072612e+00 -2.3782915406e+00 1.3731072612e+00 2.3782915406e+00 
28300 6.8025071282e+00 -3.9239336623e-07 1.3731072612e+00 -2.3782915406e+00 1.3731072612e+00 2.3782915406e+00 
28400 6.8025069682e+00 -4.0187831063e-07 1.3731072612e+00 -2.3782915406e+00 1.3731072612e+00 2.3782915406e+00 
28500 6.8025068043e+00 -4.1159281151e-07 1.3731072612e+00 -2.3782915406e+00 1.3731072612e+00 2.3782915406e+00 
28600 6.8025066364e+00 -4.2154243542e-07 1.3731072612e+00 -2.3782915406e+00 1.3731072612e+00 2.3782915406e+00 
28700 6.8025064645e+00 -4.3173288424e-07 1.3731072612e+00 -2.3782915406e+00 1.3731072612e+00 2.3782915406e+00 
28800 6.8025062884e+00 -4.4216999861e-07 1.3731072612e+00 -2.3782915406e+00 1.3731072612e+00 2.3782915406e+00 
28900 6.8025061081e+00 -4.5285976120e-07 1.3731072612e+00 -2.3782915406e+00 1.3731072612e+00 2.3782915406e+00 
29000 6.8025059235e+00 -4.6380830029e-07 1.3731072612e+00 -2.3782915406e+00 1.3731072612e+00 2.3782915406e+00 
29100 6.8025057343e+00 -4.7502189326e-07 1.3731072612e+00 -2.3782915406e+00 1.3731072612e+00 2.3782915406e+00 
29200 6.8025055406e+00 -4.8650697025e-07 1.3731072612e+00 -2.3782915406e+00 1.3731072612e+00 2.3782915406e+00 
29300 6.8025053422e+00 -4.9827011793e-07 1.3731072612e+00 -2.3782915406e+00 1.3731072612e+00 2.3782915406e+00 
29400 6.8025051390e+00 -5.1031808327e-07 1.3731072612e+00 -2.3782915406e+00 1.3731072612e+00 2.3782915406e+00 
29500 6.8025049308e+00 -5.2265777754e-07 1.3731072612e+00 -2.3782915406e+00 1.3731072612e+00 2.3782915406e+00 
29600 6.8025047177e+00 -5.3529628024e-07 1.3731072612e+00 -2.3782915406e+00 1.3731072612e+00 2.3782915406e+00 
29700 6.8025044993e+00 -5.4824084331e-07 1.3731072612e+00 -2.3782915406e+00 1.3731072612e+00 2.3782915406e+00 
29800 6.8025042757e+00 -5.6149889529e-07 1.3731072612e+00 -2.3782915406e+00 1.3731072612e+00 2.3782915406e+00 
29900 6.8025040466e+00 -5.7507804564e-07 1.3731072612e+00 -2.3782915406e+00 1.3731072612e+00 2.3782915406e+00 
30000 6.8025038120e+00 -5.8898608924e-07 1.3731072612e+00 -2.3782915406e+00 1.3731072612e+00 2.3782915406e+00 
30100 6.8025035717e+00 -6.0323101085e-07 1.3731072612e+00 -2.3782915406e+00 1.3731072612e+00 2.3782915406e+00 
30200 6.8025033255e+00 -6.1782098982e-07 1.3731072612e+00 -2.3782915406e+00 1.3731072612e+00 2.3782915406e+00 
30300 6.8025030734e+00 -6.3276440483e-07 1.3731072612e+00 -2.3782915406e+00 1.3731072612e+00 2.3782915406e+00 
30400 6.8025028152e+00 -6.4806983879e-07 1.3731072612e+00 -2.3782915406e+00 1.3731072612e+00 2.3782915406e+00 
30500 6.8025025506e+00 -6.6374608384e-07 1.3731072612e+00 -2.3782915406e+00 1.3731072612e+00 2.3782915406e+00 
30600 6.8025022797e+00 -6.7980214651e-07 1.3731072612e+00 -2.3782915406e+00 1.3731072612e+00 2.3782915406e+00 
30700 6.8025020022e+00 -6.9624725293e-07 1.3731072612e+00 -2.3782915406e+00 1.3731072612e+00 2.3782915406e+00 
30800 6.8025017179e+00 -7.1309085424e-07 1.3731072612e+00 -2.3782915406e+00 1.3731072612e+00 2.3782915406e+00 
30900 6.8025014268e+00 -7.3034263214e-07 1.3731072612e+00 -2.3782915406e+00 1.3731072612e+00 2.3782915406e+00 
31000 6.8025011285e+00 -7.4801250451e-07 1.3731072612e+00 -2.3782915406e+00 1.3731072612e+00 2.3782915406e+00 
31100 6.8025008230e+00 -7.6611063125e-07 1.3731072612e+00 -2.3782915406e+00 1.3731072612e+00 2.3782915406e+00 
31200 6.8025005101e+00 -7.8464742018e-07 1.3731072612e+00 -2.3782915406e+00 1.3731072612e+00 2.3782915406e+00 
31300 6.8025001896e+00 -8.0363353315e-07 1.3731072612e+00 -2.3782915406e+00 1.3731072612e+00 2.3782915406e+00 
31400 6.8024998613e+00 -8.2307989231e-07 1.3731072612e+00 -2.3782915406e+00 1.3731072612e+00 2.3782915406e+00 
31500 6.8024995250e+00 -8.4299768647e-07 1.3731072612e+00 -2.3782915406e+00 1.3731072612e+00 2.3782915406e+00 
31600 6.8024991805e+00 -8.6339837768e-07 1.3731072612e+00 -2.3782915406e+00 1.3731072612e+00 2.3782915406e+00 
31700 6.8024988276e+00 -8.8429370792e-07 1.3731072612e+00 -2.3782915406e+00 1.3731072612e+00 2.3782915406e+00 
31800 6.8024984662e+00 -9.0569570603e-07 1.3731072612e+00 -2.3782915406e+00 1.3731072612e+00 2.3782915406e+00 
31900 6.8024980959e+00 -9.2761669474e-07 1.3731072612e+00 -2.3782915406e+00 1.3731072612e+00 2.3782915406e+00 
32000 6.8024977167e+00 -9.5006929793e-07 1.3731072612e+00 -2.3782915406e+00 1.3731072612e+00 2.3782915406e+00 
32100 6.8024973282e+00 -9.7306644799e-07 1.3731072612e+00 -2.3782915406e+00 1.3731072612e+00 2.3782915406e+00 
32200 6.8024969302e+00 -9.9662139350e-07 1.3731072612e+00 -2.3782915406e+00 1.3731072612e+00 2.3782915406e+00 
32300 6.8024965226e+00 -1.0207477069e-06 1.3731072612e+00 -2.3782915406e+00 1.3731072612e+00 2.3782915406e+00 
32400 6.8024961050e+00 -1.0454592927e-06 1.3731072612e+00 -2.3782915406e+00 1.3731072612e+00 2.3782915406e+00 
32500 6.8024956773e+00 -1.0707703954e-06 1.3731072612e+00 -2.3782915406e+00 1.3731072612e+00 2.3782915406e+00 
32600 6.8024952391e+00 -1.0966956079e-06 1.3731072612e+00 -2.3782915406e+00 1.3731072612e+00 2.3782915406e+00 
32700 6.8024947903e+00 -1.1232498803e-06 1.3731072612e+00 -2.3782915406e+00 1.3731072612e+00 2.3782915406e+00 
32800 6.8024943305e+00 -1.1504485287e-06 1.3731072612e+00 -2.3782915406e+00 1.3731072612e+00 2.3782915406e+00 
32900 6.8024938595e+00 -1.1783072440e-06 1.3731072612e+00 -2.3782915406e+00 1.3731072612e+00 2.3782915406e+00 
33000 6.8024933771e+00 -1.2068421011e-06 1.3731072612e+00 -2.3782915406e+00 1.3731072612e+00 2.3782915406e+00 
33100 6.8024928829e+00 -1.2360695690e-06 1.3731072612e+00 -2.3782915406e+00 1.3731072612e+00 2.3782915406e+00 
33200 6.8024923766e+00 -1.2660065197e-06 1.3731072612e+00 -2.3782915406e+00 1.3731072612e+00 2.3782915406e+00 
33300 6.8024918580e+00 -1.2966702388e-06 1.3731072612e+00 -2.3782915406e+00 1.3731072612e+00 2.3782915406e+00 
33400 6.8024913268e+00 -1.3280784355e-06 1.3731072612e+00 -2.3782915406e+00 1.3731072612e+00 2.3782915406e+00 
33500 6.8024907826e+00 -1.3602492529e-06 1.3731072612e+00 -2.3782915406e+00 1.3731072612e+00 2.3782915406e+00 
33600 6.8024902251e+00 -1.3932012791e-06 1.3731072612e+00 -2.3782915406e+00 1.3731072612e+00 2.3782915406e+00 
33700 6.8024896540e+00 -1.4269535579e-06 1.3731072612e+00 -2.3782915406e+00 1.3731072612e+00 2.3782915406e+00 
33800 6.8024890690e+00 -1.4615256002e-06 1.3731072612e+00 -2.3782915406e+00 1.3731072612e+00 2.3782915406e+00 
33900 6.8024884697e+00 -1.4969373956e-06 1.3731072612e+00 -2.3782915406e+00 1.3731072612e+00 2.3782915406e+00 
34000 6.8024878558e+00 -1.5332094244e-06 1.3731072612e+00 -2.3782915406e+00 1.3731072612e+00 2.3782915406e+00 
34100 6.8024872269e+00 -1.5703626693e-06 1.3731072612e+00 -2.3782915406e+00 1.3731072612e+00 2.3782915406e+00 
34200 6.8024865826e+00 -1.6084186284e-06 1.3731072612e+00 -2.3782915406e+00 1.3731072612e+00 2.3782915406e+00 
34300 6.8024859226e+00 -1.6473993277e-06 1.3731072612e+00 -2.3782915406e+00 1.3731072612e+00 2.3782915406e+00 
34400 6.8024852465e+00 -1.6873273342e-06 1.3731072612e+00 -2.3782915406e+00 1.3731072612e+00 2.3782915406e+00 
34500 6.8024845539e+00 -1.7282257693e-06 1.3731072612e+00 -2.3782915406e+00 1.3731072612e+00 2.3782915406e+00 
34600 6.8024838443e+00 -1.7701183230e-06 1.3731072612e+00 -2.3782915406e+00 1.3731072612e+00 2.3782915406e+00 
34700 6.8024831174e+00 -1.8130292673e-06 1.3731072612e+00 -2.3782915406e+00 1.3731072612e+00 2.3782915406e+00 
34800 6.8024823728e+00 -1.8569834712e-06 1.3731072612e+00 -2.3782915406e+00 1.3731072612e+00 2.3782915406e+00 
34900 6.8024816099e+00 -1.9020064155e-06 1.3731072612e+00 -2.3782915406e+00 1.3731072612e+00 2.3782915406e+00 
35000 6.8024808285e+00 -1.9481242079e-06 1.3731072612e+00 -2.3782915406e+00 1.3731072612e+00 2.3782915406e+00 
35100 6.8024800279e+00 -1.9953635985e-06 1.3731072612e+00 -2.3782915406e+00 1.3731072612e+00 2.3782915406e+00 
35200 6.8024792077e+00 -2.0437519961e-06 1.3731072612e+00 -2.3782915406e+00 1.3731072612e+00 2.3782915406e+00 
35300 6.8024783675e+00 -2.0933174844e-06 1.3731072612e+00 -2.3782915406e+00 1.3731072612e+00 2.3782915406e+00 
35400 6.8024775067e+00 -2.1440888389e-06 1.3731072612e+00 -2.3782915406e+00 1.3731072612e+00 2.3782915406e+00 
35500 6.8024766248e+00 -2.1960955440e-06 1.3731072612e+00 -2.3782915406e+00 1.3731072612e+00 2.3782915406e+00 
35600 6.8024757214e+00 -2.2493678112e-06 1.3731072612e+00 -2.3782915406e+00 1.3731072612e+00 2.3782915406e+00 
35700 6.8024747959e+00 -2.3039365964e-06 1.3731072612e+00 -2.3782915406e+00 1.3731072612e+00 2.3782915406e+00 
35800 6.8024738477e+00 -2.3598336193e-06 1.3731072612e+00 -2.3782915406e+00 1.3731072612e+00 2.3782915406e+00 
35900 6.8024728763e+00 -2.4170913820e-06 1.3731072612e+00 -2.3782915406e+00 1.3731072612e+00 2.3782915406e+00 
36000 6.8024718811e+00 -2.4757431890e-06 1.3731072612e+00 -2.3782915406e+00 1.3731072612e+00 2.3782915406e+00 
36100 6.8024708615e+00 -2.5358231667e-06 1.3731072612e+00 -2.3782915406e+00 1.3731072612e+00 2.3782915406e+00 
36200 6.8024698170e+00 -2.5973662845e-06 1.3731072612e+00 -2.3782915406e+00 1.3731072612e+00 2.3782915406e+00 
36300 6.8024687469e+00 -2.6604083756e-06 1.3731072612e+00 -2.3782915406e+00 1.3731072612e+00 2.3782915406e+00 
36400 6.8024676505e+00 -2.7249861588e-06 1.3731072612e+00 -2.3782915406e+00 1.3731072612e+00 2.3782915406e+00 
36500 6.8024665273e+00 -2.7911372607e-06 1.3731072612e+00 -2.3782915406e+00 1.3731072612e+00 2.3782915406e+00 
36600 6.8024653766e+00 -2.8589002383e-06 1.3731072612e+00 -2.3782915406e+00 1.3731072612e+00 2.3782915406e+00 
36700 6.8024641976e+00 -2.9283146026e-06 1.3731072612e+00 -2.3782915406e+00 1.3731072612e+00 2.3782915406e+00 
36800 6.8024629898e+00 -2.9994208426e-06 1.3731072612e+00 -2.3782915406e+00 1.3731072612e+00 2.3782915406e+00 
36900 6.8024617523e+00 -3.0722604495e-06 1.3731072612e+00 -2.3782915406e+00 1.3731072612e+00 2.3782915406e+00 
37000 6.8024604844e+00 -3.1468759422e-06 1.3731072612e+00 -2.3782915406e+00 1.3731072612e+00 2.3782915406e+00 
37100 6.8024591854e+00 -3.2233108934e-06 1.3731072612e+00 -2.3782915406e+00 1.3731072612e+00 2.3782915406e+00 
37200 6.8024578546e+00 -3.3016099555e-06 1.3731072612e+00 -2.3782915406e+00 1.3731072612e+00 2.3782915406e+00 
37300 6.8024564911e+00 -3.3818188883e-06 1.3731072612e+00 -2.3782915406e+00 1.3731072612e+00 2.3782915406e+00 
37400 6.8024550941e+00 -3.4639845870e-06 1.3731072612e+00 -2.3782915406e+00 1.3731072612e+00 2.3782915406e+00 
37500 6.8024536628e+00 -3.5481551103e-06 1.3731072612e+00 -2.3782915406e+00 1.3731072612e+00 2.3782915406e+00 
37600 6.8024521963e+00 -3.6343797105e-06 1.3731072612e+00 -2.3782915406e+00 1.3731072612e+00 2.3782915406e+00 
37700 6.8024506938e+00 -3.7227088628e-06 1.3731072612e+00 -2.3782915406e+00 1.3731072612e+00 2.3782915406e+00 
37800 6.8024491544e+00 -3.8131942973e-06 1.3731072612e+00 -2.3782915406e+00 1.3731072612e+00 2.3782915406e+00 
37900 6.8024475772e+00 -3.9058890298e-06 1.3731072612e+00 -2.3782915406e+00 1.3731072612e+00 2.3782915406e+00 
38000 6.8024459612e+00 -4.0008473947e-06 1.3731072612e+00 -2.3782915406e+00 1.3731072612e+00 2.3782915406e+00 
38100 6.8024443054e+00 -4.0981250786e-06 1.3731072612e+00 -2.3782915406e+00 1.3731072612e+00 2.3782915406e+00 
38200 6.8024426089e+00 -4.1977791544e-06 1.3731072612e+00 -2.3782915406e+00 1.3731072612e+00 2.3782915406e+00 
38300 6.8024408707e+00 -4.2998681166e-06 1.3731072612e+00 -2.3782915406e+00 1.3731072612e+00 2.3782915406e+00 
38400 6.8024390897e+00 -4.4044519171e-06 1.3731072612e+00 -2.3782915406e+00 1.3731072612e+00 2.3782915406e+00 
38500 6.8024372649e+00 -4.5115920027e-06 1.3731072612e+00 -2.3782915406e+00 1.3731072612e+00 2.3782915406e+00 
38600 6.8024353952e+00 -4.6213513528e-06 1.3731072612e+00 -2.3782915406e+00 1.3731072612e+00 2.3782915406e+00 
38700 6.8024334794e+00 -4.7337945186e-06 1.3731072612e+00 -2.3782915406e+00 1.3731072612e+00 2.3782915406e+00 
38800 6.8024315164e+00 -4.8489876631e-06 1.3731072612e+00 -2.3782915406e+00 1.3731072612e+00 2.3782915406e+00 
38900 6.8024295051e+00 -4.9669986020e-06 1.3731072612e+00 -2.3782915406e+00 1.3731072612e+00 2.3782915406e+00 
39000 6.8024274442e+00 -5.0878968464e-06 1.3731072612e+00 -2.3782915406e+00 1.3731072612e+00 2.3782915406e+00 
39100 6.8024253325e+00 -5.2117536456e-06 1.3731072612e+00 -2.3782915406e+00 1.3731072612e+00 2.3782915406e+00 
39200 6.8024231687e+00 -5.3386420317e-06 1.3731072612e+00 -2.3782915406e+00 1.3731072612e+00 2.3782915406e+00 
39300 6.8024209516e+00 -5.4686368655e-06 1.3731072612e+00 -2.3782915406e+00 1.3731072612e+00 2.3782915406e+00 
39400 6.8024186798e+00 -5.6018148828e-06 1.3731072612e+00 -2.3782915406e+00 1.3731072612e+00 2.3782915406e+00 
39500 6.8024163519e+00 -5.7382547431e-06 1.3731072612e+00 -2.3782915406e+00 1.3731072612e+00 2.3782915406e+00 
39600 6.8024139666e+00 -5.8780370785e-06 1.3731072612e+00 -2.3782915406e+00 1.3731072612e+00 2.3782915406e+00 
39700 6.8024115224e+00 -6.0212445447e-06 1.3731072612e+00 -2.3782915406e+00 1.3731072612e+00 2.3782915406e+00 
39800 6.8024090178e+00 -6.1679618726e-06 1.3731072612e+00 -2.3782915406e+00 1.3731072612e+00 2.3782915406e+00 
39900 6.8024064514e+00 -6.3182759223e-06 1.3731072612e+00 -2.3782915406e+00 1.3731072612e+00 2.3782915406e+00 
40000 6.8024038215e+00 -6.4722757376e-06 1.3731072612e+00 -2.3782915406e+00 1.3731072612e+00 2.3782915406e+00 
40100 6.8024011267e+00 -6.6300526022e-06 1.3731072612e+00 -2.3782915406e+00 1.3731072612e+00 2.3782915406e+00 
40200 6.8023983653e+00 -6.7917000980e-06 1.3731072612e+00 -2.3782915406e+00 1.3731072612e+00 2.3782915406e+00 
40300 6.8023955355e+00 -6.9573141640e-06 1.3731072612e+00 -2.3782915406e+00 1.3731072612e+00 2.3782915406e+00 
40400 6.8023926358e+00 -7.1269931577e-06 1.3731072612e+00 -2.3782915406e+00 1.3731072612e+00 2.3782915406e+00 
40500 6.8023896643e+00 -7.3008379173e-06 1.3731072612e+00 -2.3782915406e+00 1.3731072612e+00 2.3782915406e+00 
40600 6.8023866193e+00 -7.4789518266e-06 1.3731072612e+00 -2.3782915406e+00 1.3731072612e+00 2.3782915406e+00 
40700 6.8023834989e+00 -7.6614408805e-06 1.3731072612e+00 -2.3782915406e+00 1.3731072612e+00 2.3782915406e+00 
40800 6.8023803012e+00 -7.8484137533e-06 1.3731072612e+00 -2.3782915406e+00 1.3731072612e+00 2.3782915406e+00 
40900 6.8023770243e+00 -8.0399818684e-06 1.3731072612e+00 -2.3782915406e+00 1.3731072612e+00 2.3782915406e+00 
41000 6.8023736661e+00 -8.2362594694e-06 1.3731072612e+00 -2.3782915406e+00 1.3731072612e+00 2.3782915406e+00 
41100 6.8023702248e+00 -8.4373636945e-06 1.3731072612e+00 -2.3782915406e+00 1.3731072612e+00 2.3782915406e+00 
41200 6.8023666981e+00 -8.6434146511e-06 1.3731072612e+00 -2.3782915406e+00 1.3731072612e+00 2.3782915406e+00 
41300 6.8023630839e+00 -8.8545354945e-06 1.3731072612e+00 -2.3782915406e+00 1.3731072612e+00 2.3782915406e+00 
41400 6.8023593801e+00 -9.0708525069e-06 1.3731072612e+00 -2.3782915406e+00 1.3731072612e+00 2.3782915406e+00 
41500 6.8023555843e+00 -9.2924951797e-06 1.3731072612e+00 -2.3782915406e+00 1.3731072612e+00 2.3782915406e+00 
41600 6.8023516943e+00 -9.5195962976e-06 1.3731072612e+00 -2.3782915406e+00 1.3731072612e+00 2.3782915406e+00 
41700 6.8023477077e+00 -9.7522920253e-06 1.3731072612e+00 -2.3782915406e+00 1.3731072612e+00 2.3782915406e+00 
41800 6.8023436220e+00 -9.9907219965e-06 1.3731072612e+00 -2.3782915406e+00 1.3731072612e+00 2.3782915406e+00 
41900 6.8023394348e+00 -1.0235029405e-05 1.3731072612e+00 -2.3782915406e+00 1.3731072612e+00 2.3782915406e+00 
42000 6.8023351435e+00 -1.0485361099e-05 1.3731072612e+00 -2.3782915406e+00 1.3731072612e+00 2.3782915406e+00 
42100 6.8023307455e+00 -1.0741867677e-05 1.3731072612e+00 -2.3782915406e+00 1.3731072612e+00 2.3782915406e+00 
42200 6.8023262380e+00 -1.1004703590e-05 1.3731072612e+00 -2.3782915406e+00 1.3731072612e+00 2.3782915406e+00 
42300 6.8023216184e+00 -1.1274027237e-05 1.3731072612e+00 -2.3782915406e+00 1.3731072612e+00 2.3782915406e+00 
42400 6.8023168837e+00 -1.1550001077e-05 1.3731072612e+00 -2.3782915406e+00 1.3731072612e+00 2.3782915406e+00 
42500 6.8023120311e+00 -1.1832791735e-05 1.3731072612e+00 -2.3782915406e+00 1.3731072612e+00 2.3782915406e+00 
42600 6.8023070577e+00 -1.2122570108e-05 1.3731072612e+00 -2.3782915406e+00 1.3731072612e+00 2.3782915406e+00 
42700 6.8023019602e+00 -1.2419511485e-05 1.3731072612e+00 -2.3782915406e+00 1.3731072612e+00 2.3782915406e+00 
42800 6.8022967357e+00 -1.2723795664e-05 1.3731072612e+00 -2.3782915406e+00 1.3731072612e+00 2.3782915406e+00 
42900 6.8022913808e+00 -1.3035607067e-05 1.3731072612e+00 -2.3782915406e+00 1.3731072612e+00 2.3782915406e+00 
43000 6.8022858923e+00 -1.3355134869e-05 1.3731072612e+00 -2.3782915406e+00 1.3731072612e+00 2.3782915406e+00 
43100 6.8022802668e+00 -1.3682573126e-05 1.3731072612e+00 -2.3782915406e+00 1.3731072612e+00 2.3782915406e+00 
43200 6.8022745008e+00 -1.4018120901e-05 1.3731072612e+00 -2.3782915406e+00 1.3731072612e+00 2.3782915406e+00 
43300 6.8022685908e+00 -1.4361982404e-05 1.3731072612e+00 -2.3782915406e+00 1.3731072612e+00 2.3782915406e+00 
43400 6.8022625331e+00 -1.4714367131e-05 1.3731072612e+00 -2.3782915406e+00 1.3731072612e+00 2.3782915406e+00 
43500 6.8022563239e+00 -1.5075490000e-05 1.3731072612e+00 -2.3782915406e+00 1.3731072612e+00 2.3782915406e+00 
43600 6.8022499594e+00 -1.5445571507e-05 1.3731072612e+00 -2.3782915406e+00 1.3731072612e+00 2.3782915406e+00 
43700 6.8022434357e+00 -1.5824837871e-05 1.3731072612e+00 -2.3782915406e+00 1.3731072612e+00 2.3782915406e+00 
43800 6.8022367486e+00 -1.6213521192e-05 1.3731072612e+00 -2.3782915406e+00 1.3731072612e+00 2.3782915406e+00 
43900 6.8022298941e+00 -1.6611859609e-05 1.3731072612e+00 -2.3782915406e+00 1.3731072612e+00 2.3782915406e+00 
44000 6.8022228678e+00 -1.7020097468e-05 1.3731072612e+00 -2.3782915406e+00 1.3731072612e+00 2.3782915406e+00 
44100 6.8022156655e+00 -1.7438485489e-05 1.3731072612e+00 -2.3782915406e+00 1.3731072612e+00 2.3782915406e+00 
44200 6.8022082825e+00 -1.7867280941e-05 1.3731072612e+00 -2.3782915406e+00 1.3731072612e+00 2.3782915406e+00 
44300 6.8022007143e+00 -1.8306747821e-05 1.3731072612e+00 -2.3782915406e+00 1.3731072612e+00 2.3782915406e+00 
44400 6.8021929561e+00 -1.8757157042e-05 1.3731072612e+00 -2.3782915406e+00 1.3731072612e+00 2.3782915406e+00 
44500 6.8021850031e+00 -1.9218786619e-05 1.3731072612e+00 -2.3782915406e+00 1.3731072612e+00 2.3782915406e+00 
44600 6.8021768504e+00 -1.9691921868e-05 1.3731072612e+00 -2.3782915406e+00 1.3731072612e+00 2.3782915406e+00 
44700 6.8021684927e+00 -2.0176855609e-05 1.3731072612e+00 -2.3782915406e+00 1.3731072612e+00 2.3782915406e+00 
44800 6.8021599249e+00 -2.0673888368e-05 1.3731072612e+00 -2.3782915406e+00 1.3731072612e+00 2.3782915406e+00 
44900 6.8021511416e+00 -2.1183328598e-05 1.3731072612e+00 -2.3782915406e+00 1.3731072612e+00 2.3782915406e+00 
45000 6.8021421372e+00 -2.1705492897e-05 1.3731072612e+00 -2.3782915406e+00 1.3731072612e+00 2.3782915406e+00 
45100 6.8021329061e+00 -2.2240706233e-05 1.3731072612e+00 -2.3782915406e+00 1.3731072612e+00 2.3782915406e+00 
45200 6.8021234425e+00 -2.2789302181e-05 1.3731072612e+00 -2.3782915406e+00 1.3731072612e+00 2.3782915406e+00 
45300 6.8021137403e+00 -2.3351623163e-05 1.3731072612e+00 -2.3782915406e+00 1.3731072612e+00 2.3782915406e+00 
45400 6.8021037935e+00 -2.3928020696e-05 1.3731072612e+00 -2.3782915406e+00 1.3731072612e+00 2.3782915406e+00 
45500 6.8020935957e+00 -2.4518855649e-05 1.3731072612e+00 -2.3782915406e+00 1.3731072612e+00 2.3782915406e+00 
45600 6.8020831405e+00 -2.5124498507e-05 1.3731072612e+00 -2.3782915406e+00 1.3731072612e+00 2.3782915406e+00 
45700 6.8020724213e+00 -2.5745329641e-05 1.3731072612e+00 -2.3782915406e+00 1.3731072612e+00 2.3782915406e+00 
45800 6.8020614312e+00 -2.6381739591e-05 1.3731072612e+00 -2.3782915406e+00 1.3731072612e+00 2.3782915406e+00 
45900 6.8020501633e+00 -2.7034129353e-05 1.3731072612e+00 -2.3782915406e+00 1.3731072612e+00 2.3782915406e+00 
46000 6.8020386104e+00 -2.7702910678e-05 1.3731072612e+00 -2.3782915406e+00 1.3731072612e+00 2.3782915406e+00 
46100 6.8020267651e+00 -2.8388506378e-05 1.3731072612e+00 -2.3782915406e+00 1.3731072612e+00 2.3782915406e+00 
46200 6.8020146199e+00 -2.9091350645e-05 1.3731072612e+00 -2.3782915406e+00 1.3731072612e+00 2.3782915406e+00 
46300 6.8020021671e+00 -2.9811889377e-05 1.3731072612e+00 -2.3782915406e+00 1.3731072612e+00 2.3782915406e+00 
46400 6.8019893985e+00 -3.0550580511e-05 1.3731072612e+00 -2.3782915406e+00 1.3731072612e+00 2.3782915406e+00 
46500 6.8019763062e+00 -3.1307894377e-05 1.3731072612e+00 -2.3782915406e+00 1.3731072612e+00 2.3782915406e+00 
46600 6.8019628816e+00 -3.2084314054e-05 1.3731072612e+00 -2.3782915406e+00 1.3731072612e+00 2.3782915406e+00 
46700 6.8019491162e+00 -3.2880335736e-05 1.3731072612e+00 -2.3782915406e+00 1.3731072612e+00 2.3782915406e+00 
46800 6.8019350010e+00 -3.3696469122e-05 1.3731072612e+00 -2.3782915406e+00 1.3731072612e+00 2.3782915406e+00 
46900 6.8019205271e+00 -3.4533237801e-05 1.3731072612e+00 -2.3782915406e+00 1.3731072612e+00 2.3782915406e+00 
47000 6.8019056851e+00 -3.5391179666e-05 1.3731072612e+00 -2.3782915406e+00 1.3731072612e+00 2.3782915406e+00 
47100 6.8018904654e+00 -3.6270847328e-05 1.3731072612e+00 -2.3782915406e+00 1.3731072612e+00 2.3782915406e+00 
47200 6.8018748581e+00 -3.7172808555e-05 1.3731072612e+00 -2.3782915406e+00 1.3731072612e+00 2.3782915406e+00 
47300 6.8018588533e+00 -3.8097646713e-05 1.3731072612e+00 -2.3782915406e+00 1.3731072612e+00 2.3782915406e+00 
47400 6.8018424404e+00 -3.9045961234e-05 1.3731072612e+00 -2.3782915406e+00 1.3731072612e+00 2.3782915406e+00 
47500 6.8018256088e+00 -4.0018368086e-05 1.3731072612e+00 -2.3782915406e+00 1.3731072612e+00 2.3782915406e+00 
47600 6.8018083476e+00 -4.1015500275e-05 1.3731072612e+00 -2.3782915406e+00 1.3731072612e+00 2.3782915406e+00 
47700 6.8017906456e+00 -4.2038008345e-05 1.3731072612e+00 -2.3782915406e+00 1.3731072612e+00 2.3782915406e+00 
47800 6.8017724913e+00 -4.3086560909e-05 1.3731072612e+00 -2.3782915406e+00 1.3731072612e+00 2.3782915406e+00 
47900 6.8017538727e+00 -4.4161845187e-05 1.3731072612e+00 -2.3782915406e+00 1.3731072612e+00 2.3782915406e+00 
48000 6.8017347777e+00 -4.5264567576e-05 1.3731072612e+00 -2.3782915406e+00 1.3731072612e+00 2.3782915406e+00 
48100 6.8017151938e+00 -4.6395454221e-05 1.3731072612e+00 -2.3782915406e+00 1.3731072612e+00 2.3782915406e+00 
48200 6.8016951081e+00 -4.7555251618e-05 1.3731072612e+00 -2.3782915406e+00 1.3731072612e+00 2.3782915406e+00 
48300 6.8016745076e+00 -4.8744727235e-05 1.3731072612e+00 -2.3782915406e+00 1.3731072612e+00 2.3782915406e+00 
48400 6.8016533785e+00 -4.9964670150e-05 1.3731072612e+00 -2.3782915406e+00 1.3731072612e+00 2.3782915406e+00 
48500 6.8016317071e+00 -5.1215891716e-05 1.3731072612e+00 -2.3782915406e+00 1.3731072612e+00 2.3782915406e+00 
48600 6.8016094790e+00 -5.2499226244e-05 1.3731072612e+00 -2.3782915406e+00 1.3731072612e+00 2.3782915406e+00 
48700 6.8015866796e+00 -5.3815531711e-05 1.3731072612e+00 -2.3782915406e+00 1.3731072612e+00 2.3782915406e+00 
48800 6.8015632937e+00 -5.5165690495e-05 1.3731072612e+00 -2.3782915406e+00 1.3731072612e+00 2.3782915406e+00 
48900 6.8015393058e+00 -5.6550610130e-05 1.3731072612e+00 -2.3782915406e+00 1.3731072612e+00 2.3782915406e+00 
49000 6.8015147001e+00 -5.7971224093e-05 1.3731072612e+00 -2.3782915406e+00 1.3731072612e+00 2.3782915406e+00 
49100 6.8014894602e+00 -5.9428492615e-05 1.3731072612e+00 -2.3782915406e+00 1.3731072612e+00 2.3782915406e+00 
49200 6.8014635693e+00 -6.0923403518e-05 1.3731072612e+00 -2.3782915406e+00 1.3731072612e+00 2.3782915406e+00 
49300 6.8014370101e+00 -6.2456973088e-05 1.3731072612e+00 -2.3782915406e+00 1.3731072612e+00 2.3782915406e+00 
49400 6.8014097649e+00 -6.4030246974e-05 1.3731072612e+00 -2.3782915406e+00 1.3731072612e+00 2.3782915406e+00 
49500 6.8013818154e+00 -6.5644301116e-05 1.3731072612e+00 -2.3782915406e+00 1.3731072612e+00 2.3782915406e+00 
49600 6.8013531430e+00 -6.7300242715e-05 1.3731072612e+00 -2.3782915406e+00 1.3731072612e+00 2.3782915406e+00 
49700 6.8013237283e+00 -6.8999211230e-05 1.3731072612e+00 -2.3782915406e+00 1.3731072612e+00 2.3782915406e+00 
49800 6.8012935517e+00 -7.0742379410e-05 1.3731072612e+00 -2.3782915406e+00 1.3731072612e+00 2.3782915406e+00 
49900 6.8012625925e+00 -7.2519188216e-05 1.3731098372e+00 -2.3782960024e+00 1.3731098372e+00 2.3782960024e+00 
50000 6.8012308301e+00 -7.4341656777e-05 1.3731124779e+00 -2.3783005762e+00 1.3731124779e+00 2.3783005762e+00 
50100 6.8011982430e+00 -7.6211013100e-05 1.3731151849e+00 -2.3783052649e+00 1.3731151849e+00 2.3783052649e+00 
50200 6.8011648092e+00 -7.8128519439e-05 1.3731179600e+00 -2.3783100716e+00 1.3731179600e+00 2.3783100716e+00 
50300 6.8011305059e+00 -8.0095473404e-05 1.3731208050e+00 -2.3783149991e+00 1.3731208050e+00 2.3783149991e+00 
50400 6.8010953100e+00 -8.2113209108e-05 1.3731237215e+00 -2.3783200508e+00 1.3731237215e+00 2.3783200508e+00 
50500 6.8010591975e+00 -8.4183098341e-05 1.3731267115e+00 -2.3783252296e+00 1.3731267115e+00 2.3783252296e+00 
50600 6.8010221437e+00 -8.6306551781e-05 1.3731297769e+00 -2.3783305390e+00 1.3731297769e+00 2.3783305390e+00 
50700 6.8009841233e+00 -8.8485020243e-05 1.3731329196e+00 -2.3783359823e+00 1.3731329196e+00 2.3783359823e+00 
50800 6.8009451104e+00 -9.0719995968e-05 1.3731361416e+00 -2.3783415630e+00 1.3731361416e+00 2.3783415630e+00 
50900 6.8009050782e+00 -9.3013013949e-05 1.3731394450e+00 -2.3783472846e+00 1.3731394450e+00 2.3783472846e+00 
51000 6.8008639993e+00 -9.5365653308e-05 1.3731428319e+00 -2.3783531509e+00 1.3731428319e+00 2.3783531509e+00 
51100 6.8008218453e+00 -9.7779538702e-05 1.3731463044e+00 -2.3783591655e+00 1.3731463044e+00 2.3783591655e+00 
51200 6.8007785874e+00 -1.0025634180e-04 1.3731498648e+00 -2.3783653323e+00 1.3731498648e+00 2.3783653323e+00 
51300 6.8007341955e+00 -1.0279778277e-04 1.3731535154e+00 -2.3783716553e+00 1.3731535154e+00 2.3783716553e+00 
51400 6.8006886391e+00 -1.0540563187e-04 1.3731572586e+00 -2.3783781386e+00 1.3731572586e+00 2.3783781386e+00 
51500 6.8006418865e+00 -1.0808171104e-04 1.3731610967e+00 -2.3783847864e+00 1.3731610967e+00 2.3783847864e+00 
51600 6.8005939053e+00 -1.1082789558e-04 1.3731650322e+00 -2.3783916029e+00 1.3731650322e+00 2.3783916029e+00 
51700 6.8005446623e+00 -1.1364611588e-04 1.3731690677e+00 -2.3783985926e+00 1.3731690677e+00 2.3783985926e+00 
51800 6.8004941230e+00 -1.1653835919e-04 1.3731732058e+00 -2.3784057600e+00 1.3731732058e+00 2.3784057600e+00 
51900 6.8004422522e+00 -1.1950667148e-04 1.3731774491e+00 -2.3784131097e+00 1.3731774491e+00 2.3784131097e+00 
52000 6.8003890136e+00 -1.2255315937e-04 1.3731818006e+00 -2.3784206467e+00 1.3731818006e+00 2.3784206467e+00 
52100 6.8003343701e+00 -1.2567999206e-04 1.3731862630e+00 -2.3784283758e+00 1.3731862630e+00 2.3784283758e+00 
52200 6.8002782831e+00 -1.2888940342e-04 1.3731908392e+00 -2.3784363020e+00 1.3731908392e+00 2.3784363020e+00 
52300 6.8002207133e+00 -1.3218369410e-04 1.3731955323e+00 -2.3784444306e+00 1.3731955323e+00 2.3784444306e+00 
52400 6.8001616202e+00 -1.3556523373e-04 1.3732003453e+00 -2.3784527670e+00 1.3732003453e+00 2.3784527670e+00 
52500 6.8001009620e+00 -1.3903646317e-04 1.3732052814e+00 -2.3784613166e+00 1.3732052814e+00 2.3784613166e+00 
52600 6.8000386958e+00 -1.4259989691e-04 1.3732103439e+00 -2.3784700851e+00 1.3732103439e+00 2.3784700851e+00 
52700 6.7999747775e+00 -1.4625812546e-04 1.3732155361e+00 -2.3784790782e+00 1.3732155361e+00 2.3784790782e+00 
52800 6.7999091618e+00 -1.5001381793e-04 1.3732208615e+00 -2.3784883021e+00 1.3732208615e+00 2.3784883021e+00 
52900 6.7998418020e+00 -1.5386972461e-04 1.3732263236e+00 -2.3784977628e+00 1.3732263236e+00 2.3784977628e+00 
53000 6.7997726501e+00 -1.5782867968e-04 1.3732319261e+00 -2.3785074666e+00 1.3732319261e+00 2.3785074666e+00 
53100 6.7997016567e+00 -1.6189360407e-04 1.3732376727e+00 -2.3785174200e+00 1.3732376727e+00 2.3785174200e+00 
53200 6.7996287710e+00 -1.6606750833e-04 1.3732435673e+00 -2.3785276297e+00 1.3732435673e+00 2.3785276297e+00 
53300 6.7995539407e+00 -1.7035349566e-04 1.3732496139e+00 -2.3785381027e+00 1.3732496139e+00 2.3785381027e+00 
53400 6.7994771122e+00 -1.7475476508e-04 1.3732558164e+00 -2.3785488458e+00 1.3732558164e+00 2.3785488458e+00 
53500 6.7993982302e+00 -1.7927461460e-04 1.3732621792e+00 -2.3785598665e+00 1.3732621792e+00 2.3785598665e+00 
53600 6.7993172377e+00 -1.8391644467e-04 1.3732687066e+00 -2.3785711722e+00 1.3732687066e+00 2.3785711722e+00 
53700 6.7992340763e+00 -1.8868376162e-04 1.3732754029e+00 -2.3785827705e+00 1.3732754029e+00 2.3785827705e+00 
53800 6.7991486858e+00 -1.9358018128e-04 1.3732822727e+00 -2.3785946695e+00 1.3732822727e+00 2.3785946695e+00 
53900 6.7990610042e+00 -1.9860943276e-04 1.3732893208e+00 -2.3786068771e+00 1.3732893208e+00 2.3786068771e+00 
54000 6.7989709679e+00 -2.0377536232e-04 1.3732965520e+00 -2.3786194019e+00 1.3732965520e+00 2.3786194019e+00 
54100 6.7988785112e+00 -2.0908193740e-04 1.3733039712e+00 -2.3786322523e+00 1.3733039712e+00 2.3786322523e+00 
54200 6.7987835666e+00 -2.1453325082e-04 1.3733115836e+00 -2.3786454373e+00 1.3733115836e+00 2.3786454373e+00 
54300 6.7986860649e+00 -2.2013352513e-04 1.3733193944e+00 -2.3786589661e+00 1.3733193944e+00 2.3786589661e+00 
54400 6.7985859346e+00 -2.2588711707e-04 1.3733274090e+00 -2.3786728479e+00 1.3733274090e+00 2.3786728479e+00 
54500 6.7984831022e+00 -2.3179852228e-04 1.3733356331e+00 -2.3786870924e+00 1.3733356331e+00 2.3786870924e+00 
54600 6.7983774920e+00 -2.3787238014e-04 1.3733440724e+00 -2.3787017096e+00 1.3733440724e+00 2.3787017096e+00 
54700 6.7982690264e+00 -2.4411347874e-04 1.3733527327e+00 -2.3787167098e+00 1.3733527327e+00 2.3787167098e+00 
54800 6.7981576251e+00 -2.5052676018e-04 1.3733616202e+00 -2.3787321034e+00 1.3733616202e+00 2.3787321034e+00 
54900 6.7980432059e+00 -2.5711732590e-04 1.3733707412e+00 -2.3787479013e+00 1.3733707412e+00 2.3787479013e+00 
55000 6.7979256839e+00 -2.6389044230e-04 1.3733801020e+00 -2.3787641148e+00 1.3733801020e+00 2.3787641148e+00 
55100 6.7978049718e+00 -2.7085154659e-04 1.3733897093e+00 -2.3787807552e+00 1.3733897093e+00 2.3787807552e+00 
55200 6.7976809799e+00 -2.7800625278e-04 1.3733995700e+00 -2.3787978344e+00 1.3733995700e+00 2.3787978344e+00 
55300 6.7975536157e+00 -2.8536035795e-04 1.3734096912e+00 -2.3788153647e+00 1.3734096912e+00 2.3788153647e+00 
55400 6.7974227842e+00 -2.9291984876e-04 1.3734200799e+00 -2.3788333586e+00 1.3734200799e+00 2.3788333586e+00 
55500 6.7972883875e+00 -3.0069090812e-04 1.3734307438e+00 -2.3788518290e+00 1.3734307438e+00 2.3788518290e+00 
55600 6.7971503247e+00 -3.0867992224e-04 1.3734416905e+00 -2.3788707893e+00 1.3734416905e+00 2.3788707893e+00 
55700 6.7970084923e+00 -3.1689348784e-04 1.3734529280e+00 -2.3788902531e+00 1.3734529280e+00 2.3788902531e+00 
55800 6.7968627835e+00 -3.2533841961e-04 1.3734644644e+00 -2.3789102348e+00 1.3734644644e+00 2.3789102348e+00 
55900 6.7967130885e+00 -3.3402175808e-04 1.3734763081e+00 -2.3789307487e+00 1.3734763081e+00 2.3789307487e+00 
56000 6.7965592942e+00 -3.4295077762e-04 1.3734884679e+00 -2.3789518100e+00 1.3734884679e+00 2.3789518100e+00 
56100 6.7964012844e+00 -3.5213299484e-04 1.3735009526e+00 -2.3789734341e+00 1.3735009526e+00 2.3789734341e+00 
56200 6.7962389393e+00 -3.6157617725e-04 1.3735137714e+00 -2.3789956370e+00 1.3735137714e+00 2.3789956370e+00 
56300 6.7960721356e+00 -3.7128835225e-04 1.3735269339e+00 -2.3790184350e+00 1.3735269339e+00 2.3790184350e+00 
56400 6.7959007466e+00 -3.8127781647e-04 1.3735404498e+00 -2.3790418452e+00 1.3735404498e+00 2.3790418452e+00 
56500 6.7957246415e+00 -3.9155314540e-04 1.3735543292e+00 -2.3790658851e+00 1.3735543292e+00 2.3790658851e+00 
56600 6.7955436862e+00 -4.0212320343e-04 1.3735685825e+00 -2.3790905725e+00 1.3735685825e+00 2.3790905725e+00 
56700 6.7953577422e+00 -4.1299715418e-04 1.3735832204e+00 -2.3791159262e+00 1.3735832204e+00 2.3791159262e+00 
56800 6.7951666673e+00 -4.2418447126e-04 1.3735982540e+00 -2.3791419651e+00 1.3735982540e+00 2.3791419651e+00 
56900 6.7949703148e+00 -4.3569494940e-04 1.3736136947e+00 -2.3791687091e+00 1.3736136947e+00 2.3791687091e+00 
57000 6.7947685341e+00 -4.4753871595e-04 1.3736295541e+00 -2.3791961785e+00 1.3736295541e+00 2.3791961785e+00 
57100 6.7945611700e+00 -4.5972624284e-04 1.3736458445e+00 -2.3792243943e+00 1.3736458445e+00 2.3792243943e+00 
57200 6.7943480626e+00 -4.7226835886e-04 1.3736625784e+00 -2.3792533782e+00 1.3736625784e+00 2.3792533782e+00 
57300 6.7941290476e+00 -4.8517626249e-04 1.3736797685e+00 -2.3792831524e+00 1.3736797685e+00 2.3792831524e+00 
57400 6.7939039558e+00 -4.9846153510e-04 1.3736974283e+00 -2.3793137400e+00 1.3736974283e+00 2.3793137400e+00 
57500 6.7936726131e+00 -5.1213615459e-04 1.3737155714e+00 -2.3793451648e+00 1.3737155714e+00 2.3793451648e+00 
57600 6.7934348403e+00 -5.2621250955e-04 1.3737342120e+00 -2.3793774512e+00 1.3737342120e+00 2.3793774512e+00 
57700 6.7931904530e+00 -5.4070341386e-04 1.3737533647e+00 -2.3794106246e+00 1.3737533647e+00 2.3794106246e+00 
57800 6.7929392613e+00 -5.5562212177e-04 1.3737730445e+00 -2.3794447111e+00 1.3737730445e+00 2.3794447111e+00 
57900 6.7926810701e+00 -5.7098234350e-04 1.3737932670e+00 -2.3794797376e+00 1.3737932670e+00 2.3794797376e+00 
58000 6.7924156782e+00 -5.8679826133e-04 1.3738140483e+00 -2.3795157318e+00 1.3738140483e+00 2.3795157318e+00 
58100 6.7921428789e+00 -6.0308454623e-04 1.3738354049e+00 -2.3795527225e+00 1.3738354049e+00 2.3795527225e+00 
58200 6.7918624594e+00 -6.1985637499e-04 1.3738573539e+00 -2.3795907393e+00 1.3738573539e+00 2.3795907393e+00 
58300 6.7915742008e+00 -6.3712944787e-04 1.3738799129e+00 -2.3796298127e+00 1.3738799129e+00 2.3796298127e+00 
58400 6.7912778778e+00 -6.5492000687e-04 1.3739031002e+00 -2.3796699743e+00 1.3739031002e+00 2.3796699743e+00 
58500 6.7909732585e+00 -6.7324485448e-04 1.3739269346e+00 -2.3797112566e+00 1.3739269346e+00 2.3797112566e+00 
58600 6.7906601047e+00 -6.9212137296e-04 1.3739514354e+00 -2.3797536933e+00 1.3739514354e+00 2.3797536933e+00 
58700 6.7903381709e+00 -7.1156754431e-04 1.3739766227e+00 -2.3797973190e+00 1.3739766227e+00 2.3797973190e+00 
58800 6.7900072049e+00 -7.3160197063e-04 1.3740025173e+00 -2.3798421697e+00 1.3740025173e+00 2.3798421697e+00 
58900 6.7896669471e+00 -7.5224389520e-04 1.3740291404e+00 -2.3798882822e+00 1.3740291404e+00 2.3798882822e+00 
59000 6.7893171306e+00 -7.7351322403e-04 1.3740565141e+00 -2.3799356950e+00 1.3740565141e+00 2.3799356950e+00 
59100 6.7889574808e+00 -7.9543054802e-04 1.3740846613e+00 -2.3799844473e+00 1.3740846613e+00 2.3799844473e+00 
59200 6.7885877153e+00 -8.1801716566e-04 1.3741136054e+00 -2.3800345799e+00 1.3741136054e+00 2.3800345799e+00 
59300 6.7882075439e+00 -8.4129510629e-04 1.3741433708e+00 -2.3800861351e+00 1.3741433708e+00 2.3800861351e+00 
59400 6.7878166679e+00 -8.6528715391e-04 1.3741739825e+00 -2.3801391562e+00 1.3741739825e+00 2.3801391562e+00 
59500 6.7874147805e+00 -8.9001687153e-04 1.3742054665e+00 -2.3801936881e+00 1.3742054665e+00 2.3801936881e+00 
59600 6.7870015660e+00 -9.1550862601e-04 1.3742378496e+00 -2.3802497772e+00 1.3742378496e+00 2.3802497772e+00 
59700 6.7865767000e+00 -9.4178761346e-04 1.3742711595e+00 -2.3803074716e+00 1.3742711595e+00 2.3803074716e+00 
59800 6.7861398493e+00 -9.6887988508e-04 1.3743054246e+00 -2.3803668205e+00 1.3743054246e+00 2.3803668205e+00 
59900 6.7856906710e+00 -9.9681237343e-04 1.3743406745e+00 -2.3804278752e+00 1.3743406745e+00 2.3804278752e+00 
60000 6.7852288132e+00 -1.0256129192e-03 1.3743769398e+00 -2.3804906885e+00 1.3743769398e+00 2.3804906885e+00 
60100 6.7847539140e+00 -1.0553102983e-03 1.3744142519e+00 -2.3805553149e+00 1.3744142519e+00 2.3805553149e+00 
60200 6.7842656016e+00 -1.0859342493e-03 1.3744526434e+00 -2.3806218109e+00 1.3744526434e+00 2.3806218109e+00 
60300 6.7837634944e+00 -1.1175155014e-03 1.3744921478e+00 -2.3806902346e+00 1.3744921478e+00 2.3806902346e+00 
60400 6.7832472001e+00 -1.1500858021e-03 1.3745327999e+00 -2.3807606461e+00 1.3745327999e+00 2.3807606461e+00 
60500 6.7827163161e+00 -1.1836779457e-03 1.3745746357e+00 -2.3808331078e+00 1.3745746357e+00 2.3808331078e+00 
60600 6.7821704289e+00 -1.2183258017e-03 1.3746176920e+00 -2.3809076836e+00 1.3746176920e+00 2.3809076836e+00 
60700 6.7816091139e+00 -1.2540643427e-03 1.3746620073e+00 -2.3809844400e+00 1.3746620073e+00 2.3809844400e+00 
60800 6.7810319356e+00 -1.2909296737e-03 1.3747076212e+00 -2.3810634454e+00 1.3747076212e+00 2.3810634454e+00 
60900 6.7804384468e+00 -1.3289590592e-03 1.3747545743e+00 -2.3811447706e+00 1.3747545743e+00 2.3811447706e+00 
61000 6.7798281888e+00 -1.3681909523e-03 1.3748029090e+00 -2.3812284888e+00 1.3748029090e+00 2.3812284888e+00 
61100 6.7792006909e+00 -1.4086650218e-03 1.3748526688e+00 -2.3813146753e+00 1.3748526688e+00 2.3813146753e+00 
61200 6.7785554705e+00 -1.4504221795e-03 1.3749038988e+00 -2.3814034083e+00 1.3749038988e+00 2.3814034083e+00 
61300 6.7778920327e+00 -1.4935046074e-03 1.3749566455e+00 -2.3814947682e+00 1.3749566455e+00 2.3814947682e+00 
61400 6.7772098702e+00 -1.5379557830e-03 1.3750109568e+00 -2.3815888381e+00 1.3750109568e+00 2.3815888381e+00 
61500 6.7765084630e+00 -1.5838205047e-03 1.3750668824e+00 -2.3816857041e+00 1.3750668824e+00 2.3816857041e+00 
61600 6.7757872783e+00 -1.6311449161e-03 1.3751244735e+00 -2.3817854548e+00 1.3751244735e+00 2.3817854548e+00 
61700 6.7750457702e+00 -1.6799765283e-03 1.3751837829e+00 -2.3818881817e+00 1.3751837829e+00 2.3818881817e+00 
61800 6.7742833799e+00 -1.7303642418e-03 1.3752448652e+00 -2.3819939794e+00 1.3752448652e+00 2.3819939794e+00 
61900 6.7734995351e+00 -1.7823583660e-03 1.3753077768e+00 -2.3821029455e+00 1.3753077768e+00 2.3821029455e+00 
62000 6.7726936502e+00 -1.8360106370e-03 1.3753725759e+00 -2.3822151808e+00 1.3753725759e+00 2.3822151808e+00 
62100 6.7718651258e+00 -1.8913742339e-03 1.3754393224e+00 -2.3823307890e+00 1.3754393224e+00 2.3823307890e+00 
62200 6.7710133491e+00 -1.9485037914e-03 1.3755080782e+00 -2.3824498777e+00 1.3755080782e+00 2.3824498777e+00 
62300 6.7701376934e+00 -2.0074554116e-03 1.3755789073e+00 -2.3825725573e+00 1.3755789073e+00 2.3825725573e+00 
62400 6.7692375182e+00 -2.0682866707e-03 1.3756518756e+00 -2.3826989421e+00 1.3756518756e+00 2.3826989421e+00 
62500 6.7683121690e+00 -2.1310566246e-03 1.3757270511e+00 -2.3828291498e+00 1.3757270511e+00 2.3828291498e+00 
62600 6.7673609774e+00 -2.1958258092e-03 1.3758045038e+00 -2.3829633019e+00 1.3758045038e+00 2.3829633019e+00 
62700 6.7663832611e+00 -2.2626562378e-03 1.3758843061e+00 -2.3831015235e+00 1.3758843061e+00 2.3831015235e+00 
62800 6.7653783239e+00 -2.3316113937e-03 1.3759665325e+00 -2.3832439438e+00 1.3759665325e+00 2.3832439438e+00 
62900 6.7643454555e+00 -2.4027562182e-03 1.3760512597e+00 -2.3833906955e+00 1.3760512597e+00 2.3833906955e+00 
63000 6.7632839320e+00 -2.4761570936e-03 1.3761385668e+00 -2.3835419159e+00 1.3761385668e+00 2.3835419159e+00 
63100 6.7621930156e+00 -2.5518818207e-03 1.3762285353e+00 -2.3836977460e+00 1.3762285353e+00 2.3836977460e+00 
63200 6.7610719551e+00 -2.6299995900e-03 1.3763212492e+00 -2.3838583312e+00 1.3763212492e+00 2.3838583312e+00 
63300 6.7599199856e+00 -2.7105809468e-03 1.3764167949e+00 -2.3840238211e+00 1.3764167949e+00 2.3840238211e+00 
63400 6.7587363293e+00 -2.7936977496e-03 1.3765152612e+00 -2.3841943698e+00 1.3765152612e+00 2.3841943698e+00 
63500 6.7575201951e+00 -2.8794231204e-03 1.3766167396e+00 -2.3843701356e+00 1.3766167396e+00 2.3843701356e+00 
63600 6.7562707794e+00 -2.9678313879e-03 1.3767213243e+00 -2.3845512815e+00 1.3767213243e+00 2.3845512815e+00 
63700 6.7549872664e+00 -3.0589980219e-03 1.3768291119e+00 -2.3847379751e+00 1.3768291119e+00 2.3847379751e+00 
63800 6.7536688281e+00 -3.1529995587e-03 1.3769402019e+00 -2.3849303886e+00 1.3769402019e+00 2.3849303886e+00 
63900 6.7523146251e+00 -3.2499135177e-03 1.3770546964e+00 -2.3851286990e+00 1.3770546964e+00 2.3851286990e+00 
64000 6.7509238070e+00 -3.3498183072e-03 1.3771727005e+00 -2.3853330880e+00 1.3771727005e+00 2.3853330880e+00 
64100 6.7494955130e+00 -3.4527931205e-03 1.3772943217e+00 -2.3855437421e+00 1.3772943217e+00 2.3855437421e+00 
64200 6.7480288722e+00 -3.5589178205e-03 1.3774196705e+00 -2.3857608527e+00 1.3774196705e+00 2.3857608527e+00 
64300 6.7465230049e+00 -3.6682728135e-03 1.3775488604e+00 -2.3859846161e+00 1.3775488604e+00 2.3859846161e+00 
64400 6.7449770228e+00 -3.7809389101e-03 1.3776820075e+00 -2.3862152336e+00 1.3776820075e+00 2.3862152336e+00 
64500 6.7433900298e+00 -3.8969971746e-03 1.3778192308e+00 -2.3864529113e+00 1.3778192308e+00 2.3864529113e+00 
64600 6.7417611235e+00 -4.0165287612e-03 1.3779606522e+00 -2.3866978605e+00 1.3779606522e+00 2.3866978605e+00 
64700 6.7400893952e+00 -4.1396147367e-03 1.3781063966e+00 -2.3869502971e+00 1.3781063966e+00 2.3869502971e+00 
64800 6.7383739321e+00 -4.2663358904e-03 1.3782565914e+00 -2.3872104422e+00 1.3782565914e+00 2.3872104422e+00 
64900 6.7366138172e+00 -4.3967725289e-03 1.3784113672e+00 -2.3874785218e+00 1.3784113672e+00 2.3874785218e+00 
65000 6.7348081315e+00 -4.5310042578e-03 1.3785708573e+00 -2.3877547666e+00 1.3785708573e+00 2.3877547666e+00 
65100 6.7329559547e+00 -4.6691097486e-03 1.3787351975e+00 -2.3880394123e+00 1.3787351975e+00 2.3880394123e+00 
65200 6.7310563668e+00 -4.8111664912e-03 1.3789045268e+00 -2.3883326993e+00 1.3789045268e+00 2.3883326993e+00 
65300 6.7291084496e+00 -4.9572505320e-03 1.3790789866e+00 -2.3886348725e+00 1.3790789866e+00 2.3886348725e+00 
65400 6.7271112881e+00 -5.1074361972e-03 1.3792587210e+00 -2.3889461816e+00 1.3792587210e+00 2.3889461816e+00 
65500 6.7250639723e+00 -5.2617958023e-03 1.3794438766e+00 -2.3892668805e+00 1.3794438766e+00 2.3892668805e+00 
65600 6.7229655988e+00 -5.4203993475e-03 1.3796346027e+00 -2.3895972277e+00 1.3796346027e+00 2.3895972277e+00 
65700 6.7208152730e+00 -5.5833141995e-03 1.3798310506e+00 -2.3899374856e+00 1.3798310506e+00 2.3899374856e+00 
65800 6.7186121106e+00 -5.7506047600e-03 1.3800333743e+00 -2.3902879205e+00 1.3800333743e+00 2.3902879205e+00 
65900 6.7163552397e+00 -5.9223321220e-03 1.3802417298e+00 -2.3906488027e+00 1.3802417298e+00 2.3906488027e+00 
66000 6.7140438032e+00 -6.0985537149e-03 1.3804562750e+00 -2.3910204060e+00 1.3804562750e+00 2.3910204060e+00 
66100 6.7116769611e+00 -6.2793229386e-03 1.3806771700e+00 -2.3914030072e+00 1.3806771700e+00 2.3914030072e+00 
66200 6.7092538923e+00 -6.4646887880e-03 1.3809045763e+00 -2.3917968866e+00 1.3809045763e+00 2.3917968866e+00 
66300 6.7067737974e+00 -6.6546954704e-03 1.3811386574e+00 -2.3922023268e+00 1.3811386574e+00 2.3922023268e+00 
66400 6.7042359013e+00 -6.8493820151e-03 1.3813795777e+00 -2.3926196132e+00 1.3813795777e+00 2.3926196132e+00 
66500 6.7016394556e+00 -7.0487818787e-03 1.3816275033e+00 -2.3930490329e+00 1.3816275033e+00 2.3930490329e+00 
66600 6.6989837412e+00 -7.2529225480e-03 1.3818826010e+00 -2.3934908750e+00 1.3818826010e+00 2.3934908750e+00 
66700 6.6962680714e+00 -7.4618251406e-03 1.3821450383e+00 -2.3939454298e+00 1.3821450383e+00 2.3939454298e+00 
66800 6.6934917943e+00 -7.6755040080e-03 1.3824149835e+00 -2.3944129886e+00 1.3824149835e+00 2.3944129886e+00 
66900 6.6906542962e+00 -7.8939663419e-03 1.3826926049e+00 -2.3948938430e+00 1.3826926049e+00 2.3948938430e+00 
67000 6.6877550039e+00 -8.1172117870e-03 1.3829780711e+00 -2.3953882848e+00 1.3829780711e+00 2.3953882848e+00 
67100 6.6847933885e+00 -8.3452320627e-03 1.3832715500e+00 -2.3958966053e+00 1.3832715500e+00 2.3958966053e+00 
67200 6.6817689679e+00 -8.5780105975e-03 1.3835732093e+00 -2.3964190946e+00 1.3835732093e+00 2.3964190946e+00 
67300 6.6786813101e+00 -8.8155221776e-03 1.3838832157e+00 -2.3969560414e+00 1.3838832157e+00 2.3969560414e+00 
67400 6.6755300360e+00 -9.0577326145e-03 1.3842017347e+00 -2.3975077324e+00 1.3842017347e+00 2.3975077324e+00 
67500 6.6723148233e+00 -9.3045984343e-03 1.3845289301e+00 -2.3980744515e+00 1.3845289301e+00 2.3980744515e+00 
67600 6.6690354088e+00 -9.5560665915e-03 1.3848649640e+00 -2.3986564794e+00 1.3848649640e+00 2.3986564794e+00 
67700 6.6656915919e+00 -9.8120742115e-03 1.3852099964e+00 -2.3992540928e+00 1.3852099964e+00 2.3992540928e+00 
67800 6.6622832377e+00 -1.0072548365e-02 1.3855641843e+00 -2.3998675643e+00 1.3855641843e+00 2.3998675643e+00 
67900 6.6588102800e+00 -1.0337405877e-02 1.3859276820e+00 -2.4004971608e+00 1.3859276820e+00 2.4004971608e+00 
68000 6.6552727244e+00 -1.0606553178e-02 1.3863006405e+00 -2.4011431438e+00 1.3863006405e+00 2.4011431438e+00 
68100 6.6516706510e+00 -1.0879886187e-02 1.3866832069e+00 -2.4018057683e+00 1.3866832069e+00 2.4018057683e+00 
68200 6.6480042174e+00 -1.1157290257e-02 1.3870755243e+00 -2.4024852819e+00 1.3870755243e+00 2.4024852819e+00 
68300 6.6442736616e+00 -1.1438640150e-02 1.3874777312e+00 -2.4031819249e+00 1.3874777312e+00 2.4031819249e+00 
68400 6.6404793042e+00 -1.1723800072e-02 1.3878899615e+00 -2.4038959286e+00 1.3878899615e+00 2.4038959286e+00 
68500 6.6366215513e+00 -1.2012623766e-02 1.3883123435e+00 -2.4046275157e+00 1.3883123435e+00 2.4046275157e+00 
68600 6.6327008964e+00 -1.2304954647e-02 1.3887450000e+00 -2.4053768988e+00 1.3887450000e+00 2.4053768988e+00 
68700 6.6287179230e+00 -1.2600626006e-02 1.3891880478e+00 -2.4061442801e+00 1.3891880478e+00 2.4061442801e+00 
68800 6.6246733063e+00 -1.2899461268e-02 1.3896415973e+00 -2.4069298509e+00 1.3896415973e+00 2.4069298509e+00 
68900 6.6205678148e+00 -1.3201274308e-02 1.3901057522e+00 -2.4077337908e+00 1.3901057522e+00 2.4077337908e+00 
69000 6.6164023122e+00 -1.3505869830e-02 1.3905806091e+00 -2.4085562670e+00 1.3905806091e+00 2.4085562670e+00 
69100 6.6121777582e+00 -1.3813043804e-02 1.3910662572e+00 -2.4093974341e+00 1.3910662572e+00 2.4093974341e+00 
69200 6.6078952099e+00 -1.4122583962e-02 1.3915627779e+00 -2.4102574333e+00 1.3915627779e+00 2.4102574333e+00 
69300 6.6035558223e+00 -1.4434270356e-02 1.3920702449e+00 -2.4111363918e+00 1.3920702449e+00 2.4111363918e+00 
69400 6.5991608487e+00 -1.4747875963e-02 1.3925887232e+00 -2.4120344227e+00 1.3925887232e+00 2.4120344227e+00 
69500 6.5947116413e+00 -1.5063167358e-02 1.3931182697e+00 -2.4129516242e+00 1.3931182697e+00 2.4129516242e+00 
69600 6.5902096501e+00 -1.5379905424e-02 1.3936589324e+00 -2.4138880794e+00 1.3936589324e+00 2.4138880794e+00 
69700 6.5856564234e+00 -1.5697846120e-02 1.3942107504e+00 -2.4148438561e+00 1.3942107504e+00 2.4148438561e+00 
69800 6.5810536060e+00 -1.6016741287e-02 1.3947737536e+00 -2.4158190062e+00 1.3947737536e+00 2.4158190062e+00 
69900 6.5764029389e+00 -1.6336339492e-02 1.3953479628e+00 -2.4168135658e+00 1.3953479628e+00 2.4168135658e+00 
70000 6.5717062571e+00 -1.6656386913e-02 1.3959333896e+00 -2.4178275547e+00 1.3959333896e+00 2.4178275547e+00 
70100 6.5669654878e+00 -1.6976628241e-02 1.3965300360e+00 -2.4188609766e+00 1.3965300360e+00 2.4188609766e+00 
70200 6.5621826485e+00 -1.7296807613e-02 1.3971378947e+00 -2.4199138188e+00 1.3971378947e+00 2.4199138188e+00 
70300 6.5573598439e+00 -1.7616669556e-02 1.3977569490e+00 -2.4209860523e+00 1.3977569490e+00 2.4209860523e+00 
70400 6.5524992632e+00 -1.7935959942e-02 1.3983871728e+00 -2.4220776319e+00 1.3983871728e+00 2.4220776319e+00 
70500 6.5476031769e+00 -1.8254426938e-02 1.3990285306e+00 -2.4231884962e+00 1.3990285306e+00 2.4231884962e+00 
70600 6.5426739328e+00 -1.8571821961e-02 1.3996809778e+00 -2.4243185679e+00 1.3996809778e+00 2.4243185679e+00 
70700 6.5377139523e+00 -1.8887900611e-02 1.4003444607e+00 -2.4254677540e+00 1.4003444607e+00 2.4254677540e+00 
70800 6.5327257260e+00 -1.9202423589e-02 1.4010189167e+00 -2.4266359461e+00 1.4010189167e+00 2.4266359461e+00 
70900 6.5277118089e+00 -1.9515157582e-02 1.4017042747e+00 -2.4278230209e+00 1.4017042747e+00 2.4278230209e+00 
71000 6.5226748158e+00 -1.9825876120e-02 1.4024004547e+00 -2.4290288402e+00 1.4024004547e+00 2.4290288402e+00 
71100 6.5176174162e+00 -2.0134360385e-02 1.4031073691e+00 -2.4302532518e+00 1.4031073691e+00 2.4302532518e+00 
71200 6.5125423284e+00 -2.0440399980e-02 1.4038249220e+00 -2.4314960899e+00 1.4038249220e+00 2.4314960899e+00 
71300 6.5074523142e+00 -2.0743793633e-02 1.4045530102e+00 -2.4327571755e+00 1.4045530102e+00 2.4327571755e+00 
71400 6.5023501730e+00 -2.1044349855e-02 1.4052915231e+00 -2.4340363174e+00 1.4052915231e+00 2.4340363174e+00 
71500 6.4972387358e+00 -2.1341887517e-02 1.4060403434e+00 -2.4353333123e+00 1.4060403434e+00 2.4353333123e+00 
71600 6.4921208588e+00 -2.1636236375e-02 1.4067993475e+00 -2.4366479459e+00 1.4067993475e+00 2.4366479459e+00 
71700 6.4869994173e+00 -2.1927237509e-02 1.4075684055e+00 -2.4379799934e+00 1.4075684055e+00 2.4379799934e+00 
71800 6.4818772993e+00 -2.2214743690e-02 1.4083473822e+00 -2.4393292206e+00 1.4083473822e+00 2.4393292206e+00 
71900 6.4767573988e+00 -2.2498619674e-02 1.4091361370e+00 -2.4406953840e+00 1.4091361370e+00 2.4406953840e+00 
72000 6.4716426095e+00 -2.2778742407e-02 1.4099345248e+00 -2.4420782323e+00 1.4099345248e+00 2.4420782323e+00 
72100 6.4665358181e+00 -2.3055001154e-02 1.4107423962e+00 -2.4434775067e+00 1.4107423962e+00 2.4434775067e+00 
72200 6.4614398981e+00 -2.3327297548e-02 1.4115595981e+00 -2.4448929418e+00 1.4115595981e+00 2.4448929418e+00 
72300 6.4563577027e+00 -2.3595545557e-02 1.4123859738e+00 -2.4463242665e+00 1.4123859738e+00 2.4463242665e+00 
72400 6.4512920594e+00 -2.3859671373e-02 1.4132213641e+00 -2.4477712049e+00 1.4132213641e+00 2.4477712049e+00 
72500 6.4462457627e+00 -2.4119613222e-02 1.4140656071e+00 -2.4492334767e+00 1.4140656071e+00 2.4492334767e+00 
72600 6.4412215686e+00 -2.4375321106e-02 1.4149185391e+00 -2.4507107983e+00 1.4149185391e+00 2.4507107983e+00 
72700 6.4362221887e+00 -2.4626756466e-02 1.4157799948e+00 -2.4522028833e+00 1.4157799948e+00 2.4522028833e+00 
72800 6.4312502841e+00 -2.4873891789e-02 1.4166498078e+00 -2.4537094436e+00 1.4166498078e+00 2.4537094436e+00 
72900 6.4263084597e+00 -2.5116710145e-02 1.4175278109e+00 -2.4552301896e+00 1.4175278109e+00 2.4552301896e+00 
73000 6.4213992595e+00 -2.5355204671e-02 1.4184138367e+00 -2.4567648314e+00 1.4184138367e+00 2.4567648314e+00 
73100 6.4165251611e+00 -2.5589378001e-02 1.4193077178e+00 -2.4583130788e+00 1.4193077178e+00 2.4583130788e+00 
73200 6.4116885709e+00 -2.5819241657e-02 1.4202092871e+00 -2.4598746426e+00 1.4202092871e+00 2.4598746426e+00 
73300 6.4068918197e+00 -2.6044815389e-02 1.4211183783e+00 -2.4614492347e+00 1.4211183783e+00 2.4614492347e+00 
73400 6.4021371585e+00 -2.6266126493e-02 1.4220348259e+00 -2.4630365686e+00 1.4220348259e+00 2.4630365686e+00 
73500 6.3974267547e+00 -2.6483209092e-02 1.4229584660e+00 -2.4646363602e+00 1.4229584660e+00 2.4646363602e+00 
73600 6.3927626886e+00 -2.6696103404e-02 1.4238891360e+00 -2.4662483279e+00 1.4238891360e+00 2.4662483279e+00 
73700 6.3881469500e+00 -2.6904854986e-02 1.4248266749e+00 -2.4678721930e+00 1.4248266749e+00 2.4678721930e+00 
73800 6.3835814356e+00 -2.7109513977e-02 1.4257709240e+00 -2.4695076803e+00 1.4257709240e+00 2.4695076803e+00 
73900 6.3790679463e+00 -2.7310134333e-02 1.4267217262e+00 -2.4711545181e+00 1.4267217262e+00 2.4711545181e+00 
74000 6.3746081851e+00 -2.7506773068e-02 1.4276789271e+00 -2.4728124387e+00 1.4276789271e+00 2.4728124387e+00 
74100 6.3702037558e+00 -2.7699489498e-02 1.4286423743e+00 -2.4744811781e+00 1.4286423743e+00 2.4744811781e+00 
74200 6.3658561608e+00 -2.7888344502e-02 1.4296119178e+00 -2.4761604768e+00 1.4296119178e+00 2.4761604768e+00 
74300 6.3615668006e+00 -2.8073399801e-02 1.4305874103e+00 -2.4778500794e+00 1.4305874103e+00 2.4778500794e+00 
74400 6.3573369728e+00 -2.8254717258e-02 1.4315687068e+00 -2.4795497346e+00 1.4315687068e+00 2.4795497346e+00 
74500 6.3531678719e+00 -2.8432358205e-02 1.4325556647e+00 -2.4812591959e+00 1.4325556647e+00 2.4812591959e+00 
74600 6.3490605893e+00 -2.8606382798e-02 1.4335481440e+00 -2.4829782206e+00 1.4335481440e+00 2.4829782206e+00 
74700 6.3450161132e+00 -2.8776849410e-02 1.4345460072e+00 -2.4847065703e+00 1.4345460072e+00 2.4847065703e+00 
74800 6.3410353295e+00 -2.8943814056e-02 1.4355491190e+00 -2.4864440109e+00 1.4355491190e+00 2.4864440109e+00 
74900 6.3371190227e+00 -2.9107329858e-02 1.4365573464e+00 -2.4881903120e+00 1.4365573464e+00 2.4881903120e+00 
75000 6.3332678770e+00 -2.9267446548e-02 1.4375705586e+00 -2.4899452470e+00 1.4375705586e+00 2.4899452470e+00 
75100 6.3294824774e+00 -2.9424210018e-02 1.4385886269e+00 -2.4917085929e+00 1.4385886269e+00 2.4917085929e+00 
75200 6.3257633121e+00 -2.9577661911e-02 1.4396114243e+00 -2.4934801300e+00 1.4396114243e+00 2.4934801300e+00 
75300 6.3221107736e+00 -2.9727839251e-02 1.4406388257e+00 -2.4952596415e+00 1.4406388257e+00 2.4952596415e+00 
75400 6.3185251617e+00 -2.9874774126e-02 1.4416707077e+00 -2.4970469135e+00 1.4416707077e+00 2.4970469135e+00 
75500 6.3150066850e+00 -3.0018493408e-02 1.4427069481e+00 -2.4988417346e+00 1.4427069481e+00 2.4988417346e+00 
75600 6.3115554640e+00 -3.0159018524e-02 1.4437474262e+00 -2.5006438955e+00 1.4437474262e+00 2.5006438955e+00 
75700 6.3081715337e+00 -3.0296365262e-02 1.4447920221e+00 -2.5024531886e+00 1.4447920221e+00 2.5024531886e+00 
75800 6.3048548464e+00 -3.0430543628e-02 1.4458406168e+00 -2.5042694080e+00 1.4458406168e+00 2.5042694080e+00 
75900 6.3016052747e+00 -3.0561557743e-02 1.4468930922e+00 -2.5060923488e+00 1.4468930922e+00 2.5060923488e+00 
76000 6.2984226146e+00 -3.0689405773e-02 1.4479493303e+00 -2.5079218069e+00 1.4479493303e+00 2.5079218069e+00 
76100 6.2953065886e+00 -3.0814079911e-02 1.4490092136e+00 -2.5097575786e+00 1.4490092136e+00 2.5097575786e+00 
76200 6.2922568496e+00 -3.0935566387e-02 1.4500726246e+00 -2.5115994605e+00 1.4500726246e+00 2.5115994605e+00 
76300 6.2892729832e+00 -3.1053845515e-02 1.4511394455e+00 -2.5134472485e+00 1.4511394455e+00 2.5134472485e+00 
76400 6.2863545123e+00 -3.1168891776e-02 1.4522095584e+00 -2.5153007383e+00 1.4522095584e+00 2.5153007383e+00 
76500 6.2835008996e+00 -3.1280673936e-02 1.4532828445e+00 -2.5171597244e+00 1.4532828445e+00 2.5171597244e+00 
76600 6.2807115517e+00 -3.1389155183e-02 1.4543591846e+00 -2.5190240002e+00 1.4543591846e+00 2.5190240002e+00 
76700 6.2779858222e+00 -3.1494293305e-02 1.4554384583e+00 -2.5208933571e+00 1.4554384583e+00 2.5208933571e+00 
76800 6.2753230155e+00 -3.1596040884e-02 1.4565205444e+00 -2.5227675851e+00 1.4565205444e+00 2.5227675851e+00 
76900 6.2727223900e+00 -3.1694345521e-02 1.4576053200e+00 -2.5246464716e+00 1.4576053200e+00 2.5246464716e+00 
77000 6.2701831618e+00 -3.1789150073e-02 1.4586926611e+00 -2.5265298016e+00 1.4586926611e+00 2.5265298016e+00 
77100 6.2677045079e+00 -3.1880392920e-02 1.4597824419e+00 -2.5284173573e+00 1.4597824419e+00 2.5284173573e+00 
77200 6.2652855696e+00 -3.1968008241e-02 1.4608745349e+00 -2.5303089179e+00 1.4608745349e+00 2.5303089179e+00 
77300 6.2629254558e+00 -3.2051926312e-02 1.4619688108e+00 -2.5322042593e+00 1.4619688108e+00 2.5322042593e+00 
77400 6.2606232462e+00 -3.2132073810e-02 1.4630651382e+00 -2.5341031541e+00 1.4630651382e+00 2.5341031541e+00 
77500 6.2583779946e+00 -3.2208374134e-02 1.4641633835e+00 -2.5360053709e+00 1.4641633835e+00 2.5360053709e+00 
77600 6.2561887318e+00 -3.2280747734e-02 1.4652634112e+00 -2.5379106746e+00 1.4652634112e+00 2.5379106746e+00 
77700 6.2540544685e+00 -3.2349112445e-02 1.4663650830e+00 -2.5398188262e+00 1.4663650830e+00 2.5398188262e+00 
77800 6.2519741983e+00 -3.2413383831e-02 1.4674682587e+00 -2.5417295825e+00 1.4674682587e+00 2.5417295825e+00 
77900 6.2499469006e+00 -3.2473475532e-02 1.4685727952e+00 -2.5436426959e+00 1.4685727952e+00 2.5436426959e+00 
78000 6.2479715430e+00 -3.2529299612e-02 1.4696785472e+00 -2.5455579146e+00 1.4696785472e+00 2.5455579146e+00 
78100 6.2460470841e+00 -3.2580766909e-02 1.4707853668e+00 -2.5474749823e+00 1.4707853668e+00 2.5474749823e+00 
78200 6.2441724758e+00 -3.2627787384e-02 1.4718931033e+00 -2.5493936382e+00 1.4718931033e+00 2.5493936382e+00 
78300 6.2423466656e+00 -3.2670270475e-02 1.4730016036e+00 -2.5513136171e+00 1.4730016036e+00 2.5513136171e+00 
78400 6.2405685990e+00 -3.2708125436e-02 1.4741107119e+00 -2.5532346491e+00 1.4741107119e+00 2.5532346491e+00 
78500 6.2388372215e+00 -3.2741261685e-02 1.4752202699e+00 -2.5551564598e+00 1.4752202699e+00 2.5551564598e+00 
78600 6.2371514807e+00 -3.2769589137e-02 1.4763301165e+00 -2.5570787705e+00 1.4763301165e+00 2.5570787705e+00 
78700 6.2355103280e+00 -3.2793018539e-02 1.4774400881e+00 -2.5590012978e+00 1.4774400881e+00 2.5590012978e+00 
78800 6.2339127203e+00 -3.2811461789e-02 1.4785500188e+00 -2.5609237541e+00 1.4785500188e+00 2.5609237541e+00 
78900 6.2323576220e+00 -3.2824832258e-02 1.4796597399e+00 -2.5628458474e+00 1.4796597399e+00 2.5628458474e+00 
79000 6.2308440063e+00 -3.2833045096e-02 1.4807690804e+00 -2.5647672815e+00 1.4807690804e+00 2.5647672815e+00 
79100 6.2293708565e+00 -3.2836017531e-02 1.4818778670e+00 -2.5666877563e+00 1.4818778670e+00 2.5666877563e+00 
79200 6.2279371675e+00 -3.2833669156e-02 1.4829859241e+00 -2.5686069675e+00 1.4829859241e+00 2.5686069675e+00 
79300 6.2265419470e+00 -3.2825922212e-02 1.4840930739e+00 -2.5705246072e+00 1.4840930739e+00 2.5705246072e+00 
79400 6.2251842165e+00 -3.2812701851e-02 1.4851991365e+00 -2.5724403638e+00 1.4851991365e+00 2.5724403638e+00 
79500 6.2238630122e+00 -3.2793936396e-02 1.4863039300e+00 -2.5743539222e+00 1.4863039300e+00 2.5743539222e+00 
79600 6.2225773861e+00 -3.2769557584e-02 1.4874072706e+00 -2.5762649642e+00 1.4874072706e+00 2.5762649642e+00 
79700 6.2213264069e+00 -3.2739500798e-02 1.4885089729e+00 -2.5781731685e+00 1.4885089729e+00 2.5781731685e+00 
79800 6.2201091601e+00 -3.2703705286e-02 1.4896088497e+00 -2.5800782110e+00 1.4896088497e+00 2.5800782110e+00 
79900 6.2189247494e+00 -3.2662114371e-02 1.4907067123e+00 -2.5819797649e+00 1.4907067123e+00 2.5819797649e+00 
80000 6.2177722967e+00 -3.2614675645e-02 1.4918023709e+00 -2.5838775013e+00 1.4918023709e+00 2.5838775013e+00 
80100 6.2166509427e+00 -3.2561341145e-02 1.4928956342e+00 -2.5857710889e+00 1.4928956342e+00 2.5857710889e+00 
80200 6.2155598473e+00 -3.2502067530e-02 1.4939863100e+00 -2.5876601947e+00 1.4939863100e+00 2.5876601947e+00 
80300 6.2144981897e+00 -3.2436816227e-02 1.4950742051e+00 -2.5895444844e+00 1.4950742051e+00 2.5895444844e+00 
80400 6.2134651691e+00 -3.2365553579e-02 1.4961591257e+00 -2.5914236220e+00 1.4961591257e+00 2.5914236220e+00 
80500 6.2124600042e+00 -3.2288250968e-02 1.4972408773e+00 -2.5932972707e+00 1.4972408773e+00 2.5932972707e+00 
80600 6.2114819339e+00 -3.2204884935e-02 1.4983192651e+00 -2.5951650930e+00 1.4983192651e+00 2.5951650930e+00 
80700 6.2105302170e+00 -3.2115437276e-02 1.4993940938e+00 -2.5970267510e+00 1.4993940938e+00 2.5970267510e+00 
80800 6.2096041320e+00 -3.2019895136e-02 1.5004651684e+00 -2.5988819066e+00 1.5004651684e+00 2.5988819066e+00 
80900 6.2087029776e+00 -3.1918251080e-02 1.5015322937e+00 -2.6007302219e+00 1.5015322937e+00 2.6007302219e+00 
81000 6.2078260722e+00 -3.1810503156e-02 1.5025952749e+00 -2.6025713594e+00 1.5025952749e+00 2.6025713594e+00 
81100 6.2069727536e+00 -3.1696654949e-02 1.5036539178e+00 -2.6044049827e+00 1.5036539178e+00 2.6044049827e+00 
81200 6.2061423792e+00 -3.1576715611e-02 1.5047080286e+00 -2.6062307560e+00 1.5047080286e+00 2.6062307560e+00 
81300 6.2053343255e+00 -3.1450699890e-02 1.5057574143e+00 -2.6080483455e+00 1.5057574143e+00 2.6080483455e+00 
81400 6.2045479877e+00 -3.1318628144e-02 1.5068018831e+00 -2.6098574185e+00 1.5068018831e+00 2.6098574185e+00 
81500 6.2037827797e+00 -3.1180526335e-02 1.5078412442e+00 -2.6116576447e+00 1.5078412442e+00 2.6116576447e+00 
81600 6.2030381337e+00 -3.1036426025e-02 1.5088753082e+00 -2.6134486962e+00 1.5088753082e+00 2.6134486962e+00 
81700 6.2023134997e+00 -3.0886364350e-02 1.5099038872e+00 -2.6152302473e+00 1.5099038872e+00 2.6152302473e+00 
81800 6.2016083452e+00 -3.0730383985e-02 1.5109267950e+00 -2.6170019755e+00 1.5109267950e+00 2.6170019755e+00 
81900 6.2009221548e+00 -3.0568533104e-02 1.5119438473e+00 -2.6187635616e+00 1.5119438473e+00 2.6187635616e+00 
82000 6.2002544296e+00 -3.0400865320e-02 1.5129548616e+00 -2.6205146898e+00 1.5129548616e+00 2.6205146898e+00 
82100 6.1996046874e+00 -3.0227439623e-02 1.5139596578e+00 -2.6222550480e+00 1.5139596578e+00 2.6222550480e+00 
82200 6.1989724612e+00 -3.0048320306e-02 1.5149580582e+00 -2.6239843282e+00 1.5149580582e+00 2.6239843282e+00 
82300 6.1983572999e+00 -2.9863576878e-02 1.5159498876e+00 -2.6257022270e+00 1.5159498876e+00 2.6257022270e+00 
82400 6.1977587671e+00 -2.9673283972e-02 1.5169349732e+00 -2.6274084454e+00 1.5169349732e+00 2.6274084454e+00 
82500 6.1971764407e+00 -2.9477521245e-02 1.5179131453e+00 -2.6291026892e+00 1.5179131453e+00 2.6291026892e+00 
82600 6.1966099127e+00 -2.9276373265e-02 1.5188842372e+00 -2.6307846696e+00 1.5188842372e+00 2.6307846696e+00 
82700 6.1960587886e+00 -2.9069929394e-02 1.5198480851e+00 -2.6324541032e+00 1.5198480851e+00 2.6324541032e+00 
82800 6.1955226869e+00 -2.8858283662e-02 1.5208045286e+00 -2.6341107119e+00 1.5208045286e+00 2.6341107119e+00 
82900 6.1950012388e+00 -2.8641534636e-02 1.5217534106e+00 -2.6357542238e+00 1.5217534106e+00 2.6357542238e+00 
83000 6.1944940874e+00 -2.8419785277e-02 1.5226945777e+00 -2.6373843730e+00 1.5226945777e+00 2.6373843730e+00 
83100 6.1940008876e+00 -2.8193142800e-02 1.5236278800e+00 -2.6390009000e+00 1.5236278800e+00 2.6390009000e+00 
83200 6.1935213054e+00 -2.7961718517e-02 1.5245531714e+00 -2.6406035516e+00 1.5245531714e+00 2.6406035516e+00 
83300 6.1930550176e+00 -2.7725627682e-02 1.5254703096e+00 -2.6421920817e+00 1.5254703096e+00 2.6421920817e+00 
83400 6.1926017112e+00 -2.7484989331e-02 1.5263791565e+00 -2.6437662507e+00 1.5263791565e+00 2.6437662507e+00 
83500 6.1921610833e+00 -2.7239926113e-02 1.5272795779e+00 -2.6453258263e+00 1.5272795779e+00 2.6453258263e+00 
83600 6.1917328401e+00 -2.6990564119e-02 1.5281714439e+00 -2.6468705836e+00 1.5281714439e+00 2.6468705836e+00 
83700 6.1913166972e+00 -2.6737032711e-02 1.5290546289e+00 -2.6484003049e+00 1.5290546289e+00 2.6484003049e+00 
83800 6.1909123785e+00 -2.6479464338e-02 1.5299290117e+00 -2.6499147802e+00 1.5299290117e+00 2.6499147802e+00 
83900 6.1905196164e+00 -2.6217994363e-02 1.5307944753e+00 -2.6514138072e+00 1.5307944753e+00 2.6514138072e+00 
84000 6.1901381511e+00 -2.5952760870e-02 1.5316509077e+00 -2.6528971915e+00 1.5316509077e+00 2.6528971915e+00 
84100 6.1897677301e+00 -2.5683904489e-02 1.5324982010e+00 -2.6543647466e+00 1.5324982010e+00 2.6543647466e+00 
84200 6.1894081082e+00 -2.5411568199e-02 1.5333362524e+00 -2.6558162942e+00 1.5333362524e+00 2.6558162942e+00 
84300 6.1890590469e+00 -2.5135897146e-02 1.5341649635e+00 -2.6572516639e+00 1.5341649635e+00 2.6572516639e+00 
84400 6.1887203143e+00 -2.4857038450e-02 1.5349842408e+00 -2.6586706940e+00 1.5349842408e+00 2.6586706940e+00 
84500 6.1883916844e+00 -2.4575141016e-02 1.5357939958e+00 -2.6600732307e+00 1.5357939958e+00 2.6600732307e+00 
84600 6.1880729372e+00 -2.4290355342e-02 1.5365941446e+00 -2.6614591290e+00 1.5365941446e+00 2.6614591290e+00 
84700 6.1877638582e+00 -2.4002833330e-02 1.5373846083e+00 -2.6628282523e+00 1.5373846083e+00 2.6628282523e+00 
84800 6.1874642380e+00 -2.3712728096e-02 1.5381653128e+00 -2.6641804722e+00 1.5381653128e+00 2.6641804722e+00 
84900 6.1871738723e+00 -2.3420193778e-02 1.5389361892e+00 -2.6655156694e+00 1.5389361892e+00 2.6655156694e+00 
85000 6.1868925616e+00 -2.3125385352e-02 1.5396971735e+00 -2.6668337327e+00 1.5396971735e+00 2.6668337327e+00 
85100 6.1866201106e+00 -2.2828458442e-02 1.5404482063e+00 -2.6681345598e+00 1.5404482063e+00 2.6681345598e+00 
85200 6.1863563285e+00 -2.2529569138e-02 1.5411892338e+00 -2.6694180570e+00 1.5411892338e+00 2.6694180570e+00 
85300 6.1861010284e+00 -2.2228873810e-02 1.5419202066e+00 -2.6706841391e+00 1.5419202066e+00 2.6706841391e+00 
85400 6.1858540272e+00 -2.1926528928e-02 1.5426410806e+00 -2.6719327295e+00 1.5426410806e+00 2.6719327295e+00 
85500 6.1856151454e+00 -2.1622690888e-02 1.5433518167e+00 -2.6731637604e+00 1.5433518167e+00 2.6731637604e+00 
85600 6.1853842069e+00 -2.1317515832e-02 1.5440523804e+00 -2.6743771724e+00 1.5440523804e+00 2.6743771724e+00 
85700 6.1851610391e+00 -2.1011159476e-02 1.5447427424e+00 -2.6755729145e+00 1.5447427424e+00 2.6755729145e+00 
85800 6.1849454722e+00 -2.0703776947e-02 1.5454228784e+00 -2.6767509445e+00 1.5454228784e+00 2.6767509445e+00 
85900 6.1847373393e+00 -2.0395522611e-02 1.5460927685e+00 -2.6779112283e+00 1.5460927685e+00 2.6779112283e+00 
86000 6.1845364765e+00 -2.0086549918e-02 1.5467523982e+00 -2.6790537404e+00 1.5467523982e+00 2.6790537404e+00 
86100 6.1843427226e+00 -1.9777011240e-02 1.5474017573e+00 -2.6801784633e+00 1.5474017573e+00 2.6801784633e+00 
86200 6.1841559186e+00 -1.9467057718e-02 1.5480408406e+00 -2.6812853880e+00 1.5480408406e+00 2.6812853880e+00 
86300 6.1839759082e+00 -1.9156839118e-02 1.5486696474e+00 -2.6823745135e+00 1.5486696474e+00 2.6823745135e+00 
86400 6.1838025374e+00 -1.8846503683e-02 1.5492881820e+00 -2.6834458468e+00 1.5492881820e+00 2.6834458468e+00 
86500 6.1836356542e+00 -1.8536197992e-02 1.5498964528e+00 -2.6844994028e+00 1.5498964528e+00 2.6844994028e+00 
86600 6.1834751090e+00 -1.8226066831e-02 1.5504944731e+00 -2.6855352042e+00 1.5504944731e+00 2.6855352042e+00 
86700 6.1833207541e+00 -1.7916253056e-02 1.5510822603e+00 -2.6865532816e+00 1.5510822603e+00 2.6865532816e+00 
86800 6.1831724438e+00 -1.7606897475e-02 1.5516598366e+00 -2.6875536730e+00 1.5516598366e+00 2.6875536730e+00 
86900 6.1830300343e+00 -1.7298138721e-02 1.5522272280e+00 -2.6885364238e+00 1.5522272280e+00 2.6885364238e+00 
87000 6.1828933836e+00 -1.6990113147e-02 1.5527844651e+00 -2.6895015868e+00 1.5527844651e+00 2.6895015868e+00 
87100 6.1827623517e+00 -1.6682954706e-02 1.5533315826e+00 -2.6904492221e+00 1.5533315826e+00 2.6904492221e+00 
87200 6.1826368000e+00 -1.6376794855e-02 1.5538686191e+00 -2.6913793966e+00 1.5538686191e+00 2.6913793966e+00 
87300 6.1825165920e+00 -1.6071762456e-02 1.5543956174e+00 -2.6922921843e+00 1.5543956174e+00 2.6922921843e+00 
87400 6.1824015926e+00 -1.5767983677e-02 1.5549126239e+00 -2.6931876659e+00 1.5549126239e+00 2.6931876659e+00 
87500 6.1822916684e+00 -1.5465581911e-02 1.5554196890e+00 -2.6940659285e+00 1.5554196890e+00 2.6940659285e+00 
87600 6.1821866877e+00 -1.5164677690e-02 1.5559168669e+00 -2.6949270659e+00 1.5559168669e+00 2.6949270659e+00 
87700 6.1820865203e+00 -1.4865388611e-02 1.5564042152e+00 -2.6957711779e+00 1.5564042152e+00 2.6957711779e+00 
87800 6.1819910377e+00 -1.4567829263e-02 1.5568817952e+00 -2.6965983706e+00 1.5568817952e+00 2.6965983706e+00 
87900 6.1819001128e+00 -1.4272111161e-02 1.5573496714e+00 -2.6974087560e+00 1.5573496714e+00 2.6974087560e+00 
88000 6.1818136202e+00 -1.3978342688e-02 1.5578079118e+00 -2.6982024516e+00 1.5578079118e+00 2.6982024516e+00 
88100 6.1817314359e+00 -1.3686629036e-02 1.5582565875e+00 -2.6989795809e+00 1.5582565875e+00 2.6989795809e+00 
88200 6.1816534377e+00 -1.3397072162e-02 1.5586957730e+00 -2.6997402723e+00 1.5586957730e+00 2.6997402723e+00 
88300 6.1815795048e+00 -1.3109770739e-02 1.5591255453e+00 -2.7004846599e+00 1.5591255453e+00 2.7004846599e+00 
88400 6.1815095178e+00 -1.2824820120e-02 1.5595459849e+00 -2.7012128825e+00 1.5595459849e+00 2.7012128825e+00 
88500 6.1814433592e+00 -1.2542312301e-02 1.5599571745e+00 -2.7019250839e+00 1.5599571745e+00 2.7019250839e+00 
88600 6.1813809127e+00 -1.2262335898e-02 1.5603592000e+00 -2.7026214125e+00 1.5603592000e+00 2.7026214125e+00 
88700 6.1813220639e+00 -1.1984976116e-02 1.5607521496e+00 -2.7033020211e+00 1.5607521496e+00 2.7033020211e+00 
88800 6.1812666998e+00 -1.1710314736e-02 1.5611361141e+00 -2.7039670671e+00 1.5611361141e+00 2.7039670671e+00 
88900 6.1812147090e+00 -1.1438430097e-02 1.5615111865e+00 -2.7046167117e+00 1.5615111865e+00 2.7046167117e+00 
89000 6.1811659817e+00 -1.1169397091e-02 1.5618774624e+00 -2.7052511201e+00 1.5618774624e+00 2.7052511201e+00 
89100 6.1811204099e+00 -1.0903287154e-02 1.5622350392e+00 -2.7058704613e+00 1.5622350392e+00 2.7058704613e+00 
89200 6.1810778870e+00 -1.0640168271e-02 1.5625840166e+00 -2.7064749078e+00 1.5625840166e+00 2.7064749078e+00 
89300 6.1810383082e+00 -1.0380104973e-02 1.5629244960e+00 -2.7070646355e+00 1.5629244960e+00 2.7070646355e+00 
89400 6.1810015702e+00 -1.0123158353e-02 1.5632565809e+00 -2.7076398234e+00 1.5632565809e+00 2.7076398234e+00 
89500 6.1809675717e+00 -9.8693860754e-03 1.5635803764e+00 -2.7082006536e+00 1.5635803764e+00 2.7082006536e+00 
89600 6.1809362128e+00 -9.6188423926e-03 1.5638959891e+00 -2.7087473109e+00 1.5638959891e+00 2.7087473109e+00 
89700 6.1809073955e+00 -9.3715781661e-03 1.5642035274e+00 -2.7092799828e+00 1.5642035274e+00 2.7092799828e+00 
89800 6.1808810234e+00 -9.1276408909e-03 1.5645031008e+00 -2.7097988593e+00 1.5645031008e+00 2.7097988593e+00 
89900 6.1808570019e+00 -8.8870747236e-03 1.5647948205e+00 -2.7103041324e+00 1.5647948205e+00 2.7103041324e+00 
90000 6.1808352381e+00 -8.6499205137e-03 1.5650787984e+00 -2.7107959966e+00 1.5650787984e+00 2.7107959966e+00 
90100 6.1808156411e+00 -8.4162158386e-03 1.5653551479e+00 -2.7112746480e+00 1.5653551479e+00 2.7112746480e+00 
90200 6.1807981215e+00 -8.1859950416e-03 1.5656239832e+00 -2.7117402845e+00 1.5656239832e+00 2.7117402845e+00 
90300 6.1807825920e+00 -7.9592892729e-03 1.5658854197e+00 -2.7121931057e+00 1.5658854197e+00 2.7121931057e+00 
90400 6.1807689667e+00 -7.7361265334e-03 1.5661395732e+00 -2.7126333124e+00 1.5661395732e+00 2.7126333124e+00 
90500 6.1807571620e+00 -7.5165317217e-03 1.5663865604e+00 -2.7130611069e+00 1.5663865604e+00 2.7130611069e+00 
90600 6.1807470958e+00 -7.3005266833e-03 1.5666264987e+00 -2.7134766923e+00 1.5666264987e+00 2.7134766923e+00 
90700 6.1807386880e+00 -7.0881302624e-03 1.5668595060e+00 -2.7138802727e+00 1.5668595060e+00 2.7138802727e+00 
90800 6.1807318603e+00 -6.8793583558e-03 1.5670857005e+00 -2.7142720531e+00 1.5670857005e+00 2.7142720531e+00 
90900 6.1807265362e+00 -6.6742239695e-03 1.5673052009e+00 -2.7146522390e+00 1.5673052009e+00 2.7146522390e+00 
91000 6.1807226412e+00 -6.4727372768e-03 1.5675181261e+00 -2.7150210362e+00 1.5675181261e+00 2.7150210362e+00 
91100 6.1807201026e+00 -6.2749056783e-03 1.5677245952e+00 -2.7153786511e+00 1.5677245952e+00 2.7153786511e+00 
91200 6.1807188495e+00 -6.0807338643e-03 1.5679247272e+00 -2.7157252900e+00 1.5679247272e+00 2.7157252900e+00 
91300 6.1807188130e+00 -5.8902238777e-03 1.5681186415e+00 -2.7160611593e+00 1.5681186415e+00 2.7160611593e+00 
91400 6.1807199260e+00 -5.7033751795e-03 1.5683064570e+00 -2.7163864654e+00 1.5683064570e+00 2.7163864654e+00 
91500 6.1807221232e+00 -5.5201847148e-03 1.5684882928e+00 -2.7167014143e+00 1.5684882928e+00 2.7167014143e+00 
91600 6.1807253413e+00 -5.3406469802e-03 1.5686642676e+00 -2.7170062116e+00 1.5686642676e+00 2.7170062116e+00 
91700 6.1807295188e+00 -5.1647540925e-03 1.5688344998e+00 -2.7173010624e+00 1.5688344998e+00 2.7173010624e+00 
91800 6.1807345960e+00 -4.9924958582e-03 1.5689991075e+00 -2.7175861713e+00 1.5689991075e+00 2.7175861713e+00 
91900 6.1807405150e+00 -4.8238598435e-03 1.5691582083e+00 -2.7178617419e+00 1.5691582083e+00 2.7178617419e+00 
92000 6.1807472200e+00 -4.6588314455e-03 1.5693119194e+00 -2.7181279773e+00 1.5693119194e+00 2.7181279773e+00 
92100 6.1807546568e+00 -4.4973939632e-03 1.5694603572e+00 -2.7183850791e+00 1.5694603572e+00 2.7183850791e+00 
92200 6.1807627729e+00 -4.3395286701e-03 1.5696036377e+00 -2.7186332483e+00 1.5696036377e+00 2.7186332483e+00 
92300 6.1807715180e+00 -4.1852148856e-03 1.5697418762e+00 -2.7188726843e+00 1.5697418762e+00 2.7188726843e+00 
92400 6.1807808431e+00 -4.0344300480e-03 1.5698751871e+00 -2.7191035856e+00 1.5698751871e+00 2.7191035856e+00 
92500 6.1807907012e+00 -3.8871497868e-03 1.5700036841e+00 -2.7193261489e+00 1.5700036841e+00 2.7193261489e+00 
92600 6.1808010472e+00 -3.7433479951e-03 1.5701274800e+00 -2.7195405697e+00 1.5701274800e+00 2.7195405697e+00 
92700 6.1808118375e+00 -3.6029969019e-03 1.5702466867e+00 -2.7197470419e+00 1.5702466867e+00 2.7197470419e+00 
92800 6.1808230302e+00 -3.4660671445e-03 1.5703614152e+00 -2.7199457574e+00 1.5703614152e+00 2.7199457574e+00 
92900 6.1808345853e+00 -3.3325278401e-03 1.5704717754e+00 -2.7201369069e+00 1.5704717754e+00 2.7201369069e+00 
93000 6.1808464641e+00 -3.2023466574e-03 1.5705778762e+00 -2.7203206788e+00 1.5705778762e+00 2.7203206788e+00 
93100 6.1808586299e+00 -3.0754898874e-03 1.5706798253e+00 -2.7204972599e+00 1.5706798253e+00 2.7204972599e+00 
93200 6.1808710474e+00 -2.9519225137e-03 1.5707777295e+00 -2.7206668349e+00 1.5707777295e+00 2.7206668349e+00 
93300 6.1808836830e+00 -2.8316082825e-03 1.5708716942e+00 -2.7208295865e+00 1.5708716942e+00 2.7208295865e+00 
93400 6.1808965045e+00 -2.7145097712e-03 1.5709618236e+00 -2.7209856952e+00 1.5709618236e+00 2.7209856952e+00 
93500 6.1809094814e+00 -2.6005884570e-03 1.5710482208e+00 -2.7211353396e+00 1.5710482208e+00 2.7211353396e+00 
93600 6.1809225846e+00 -2.4898047837e-03 1.5711309876e+00 -2.7212786958e+00 1.5711309876e+00 2.7212786958e+00 
93700 6.1809357864e+00 -2.3821182285e-03 1.5712102243e+00 -2.7214159379e+00 1.5712102243e+00 2.7214159379e+00 
93800 6.1809490608e+00 -2.2774873672e-03 1.5712860301e+00 -2.7215472374e+00 1.5712860301e+00 2.7215472374e+00 
93900 6.1809623828e+00 -2.1758699384e-03 1.5713585028e+00 -2.7216727637e+00 1.5713585028e+00 2.7216727637e+00 
94000 6.1809757292e+00 -2.0772229069e-03 1.5714277386e+00 -2.7217926836e+00 1.5714277386e+00 2.7217926836e+00 
94100 6.1809890778e+00 -1.9815025255e-03 1.5714938325e+00 -2.7219071617e+00 1.5714938325e+00 2.7219071617e+00 
94200 6.1810024078e+00 -1.8886643961e-03 1.5715568781e+00 -2.7220163599e+00 1.5715568781e+00 2.7220163599e+00 
94300 6.1810156999e+00 -1.7986635291e-03 1.5716169675e+00 -2.7221204377e+00 1.5716169675e+00 2.7221204377e+00 
94400 6.1810289356e+00 -1.7114544018e-03 1.5716741912e+00 -2.7222195521e+00 1.5716741912e+00 2.7222195521e+00 
94500 6.1810420980e+00 -1.6269910152e-03 1.5717286383e+00 -2.7223138573e+00 1.5717286383e+00 2.7223138573e+00 
94600 6.1810551712e+00 -1.5452269498e-03 1.5717803966e+00 -2.7224035053e+00 1.5717803966e+00 2.7224035053e+00 
94700 6.1810681403e+00 -1.4661154196e-03 1.5718295522e+00 -2.7224886453e+00 1.5718295522e+00 2.7224886453e+00 
94800 6.1810809918e+00 -1.3896093253e-03 1.5718761897e+00 -2.7225694237e+00 1.5718761897e+00 2.7225694237e+00 
94900 6.1810937130e+00 -1.3156613053e-03 1.5719203921e+00 -2.7226459846e+00 1.5719203921e+00 2.7226459846e+00 
95000 6.1811062922e+00 -1.2442237855e-03 1.5719622412e+00 -2.7227184693e+00 1.5719622412e+00 2.7227184693e+00 
95100 6.1811187190e+00 -1.1752490285e-03 1.5720018168e+00 -2.7227870163e+00 1.5720018168e+00 2.7227870163e+00 
95200 6.1811309835e+00 -1.1086891795e-03 1.5720391976e+00 -2.7228517618e+00 1.5720391976e+00 2.7228517618e+00 
95300 6.1811430772e+00 -1.0444963128e-03 1.5720744605e+00 -2.7229128389e+00 1.5720744605e+00 2.7229128389e+00 
95400 6.1811549920e+00 -9.8262247488e-04 1.5721076810e+00 -2.7229703784e+00 1.5721076810e+00 2.7229703784e+00 
95500 6.1811667210e+00 -9.2301972752e-04 1.5721389328e+00 -2.7230245082e+00 1.5721389328e+00 2.7230245082e+00 
95600 6.1811782580e+00 -8.6564018833e-04 1.5721682885e+00 -2.7230753537e+00 1.5721682885e+00 2.7230753537e+00 
95700 6.1811895975e+00 -8.1043607037e-04 1.5721958187e+00 -2.7231230374e+00 1.5721958187e+00 2.7231230374e+00 
95800 6.1812007348e+00 -7.5735972001e-04 1.5722215928e+00 -2.7231676794e+00 1.5722215928e+00 2.7231676794e+00 
95900 6.1812116658e+00 -7.0636365331e-04 1.5722456785e+00 -2.7232093971e+00 1.5722456785e+00 2.7232093971e+00 
96000 6.1812223873e+00 -6.5740059099e-04 1.5722681421e+00 -2.7232483052e+00 1.5722681421e+00 2.7232483052e+00 
96100 6.1812328966e+00 -6.1042349183e-04 1.5722890482e+00 -2.7232845157e+00 1.5722890482e+00 2.7232845157e+00 
96200 6.1812431915e+00 -5.6538558462e-04 1.5723084602e+00 -2.7233181382e+00 1.5723084602e+00 2.7233181382e+00 
96300 6.1812532705e+00 -5.2224039859e-04 1.5723264397e+00 -2.7233492797e+00 1.5723264397e+00 2.7233492797e+00 
96400 6.1812631327e+00 -4.8094179252e-04 1.5723430470e+00 -2.7233780443e+00 1.5723430470e+00 2.7233780443e+00 
96500 6.1812727776e+00 -4.4144398226e-04 1.5723583408e+00 -2.7234045340e+00 1.5723583408e+00 2.7234045340e+00 
96600 6.1812822051e+00 -4.0370156691e-04 1.5723723785e+00 -2.7234288479e+00 1.5723723785e+00 2.7234288479e+00 
96700 6.1812914157e+00 -3.6766955364e-04 1.5723852158e+00 -2.7234510829e+00 1.5723852158e+00 2.7234510829e+00 
96800 6.1813004103e+00 -3.3330338105e-04 1.5723969073e+00 -2.7234713331e+00 1.5723969073e+00 2.7234713331e+00 
96900 6.1813091902e+00 -3.0055894120e-04 1.5724075059e+00 -2.7234896904e+00 1.5724075059e+00 2.7234896904e+00 
97000 6.1813177570e+00 -2.6939260039e-04 1.5724170632e+00 -2.7235062441e+00 1.5724170632e+00 2.7235062441e+00 
97100 6.1813261126e+00 -2.3976121847e-04 1.5724256294e+00 -2.7235210812e+00 1.5724256294e+00 2.7235210812e+00 
97200 6.1813342594e+00 -2.1162216704e-04 1.5724332533e+00 -2.7235342863e+00 1.5724332533e+00 2.7235342863e+00 
97300 6.1813421998e+00 -1.8493334631e-04 1.5724399825e+00 -2.7235459415e+00 1.5724399825e+00 2.7235459415e+00 
97400 6.1813499368e+00 -1.5965320073e-04 1.5724458629e+00 -2.7235561267e+00 1.5724458629e+00 2.7235561267e+00 
97500 6.1813574734e+00 -1.3574073344e-04 1.5724509395e+00 -2.7235649196e+00 1.5724509395e+00 2.7235649196e+00 
97600 6.1813648128e+00 -1.1315551957e-04 1.5724552557e+00 -2.7235723955e+00 1.5724552557e+00 2.7235723955e+00 
97700 6.1813719586e+00 -9.1857718354e-05 1.5724588538e+00 -2.7235786276e+00 1.5724588538e+00 2.7235786276e+00 
97800 6.1813789144e+00 -7.1808084232e-05 1.5724617746e+00 -2.7235836866e+00 1.5724617746e+00 2.7235836866e+00 
97900 6.1813856841e+00 -5.2967976732e-05 1.5724640579e+00 -2.7235876414e+00 1.5724640579e+00 2.7235876414e+00 
98000 6.1813922715e+00 -3.7472819378e-05 1.5724640579e+00 -2.7235876414e+00 1.5724640579e+00 2.7235876414e+00 
98100 6.1813986806e+00 -2.2398624931e-05 1.5724640579e+00 -2.7235876414e+00 1.5724640579e+00 2.7235876414e+00 
98200 6.1814049155e+00 -7.7512964511e-06 1.5724640579e+00 -2.7235876414e+00 1.5724640579e+00 2.7235876414e+00 
98300 6.1814109807e+00 6.4639510247e-06 1.5724640579e+00 -2.7235876414e+00 1.5724640579e+00 2.7235876414e+00 
98400 6.1814168803e+00 2.0242557636e-05 1.5724640579e+00 -2.7235876414e+00 1.5724640579e+00 2.7235876414e+00 
98500 6.1814226189e+00 3.3580587097e-05 1.5724640579e+00 -2.7235876414e+00 1.5724640579e+00 2.7235876414e+00 
98600 6.1814282006e+00 4.6474696289e-05 1.5724640579e+00 -2.7235876414e+00 1.5724640579e+00 2.7235876414e+00 
98700 6.1814336301e+00 5.8922106023e-05 1.5724640579e+00 -2.7235876414e+00 1.5724640579e+00 2.7235876414e+00 
98800 6.1814389117e+00 7.0920572956e-05 1.5724640579e+00 -2.7235876414e+00 1.5724640579e+00 2.7235876414e+00 
98900 6.1814440495e+00 7.9556021911e-05 1.5724618028e+00 -2.7235837355e+00 1.5724618028e+00 2.7235837355e+00 
99000 6.1814490481e+00 8.7368943171e-05 1.5724592732e+00 -2.7235793540e+00 1.5724592732e+00 2.7235793540e+00 
99100 6.1814539119e+00 9.4390115460e-05 1.5724564951e+00 -2.7235745422e+00 1.5724564951e+00 2.7235745422e+00 
99200 6.1814586451e+00 1.0064967448e-04 1.5724534937e+00 -2.7235693437e+00 1.5724534937e+00 2.7235693437e+00 
99300 6.1814632521e+00 1.0617711425e-04 1.5724502933e+00 -2.7235638004e+00 1.5724502933e+00 2.7235638004e+00 
99400 6.1814677371e+00 1.1100128913e-04 1.5724469171e+00 -2.7235579527e+00 1.5724469171e+00 2.7235579527e+00 
99500 6.1814721043e+00 1.1515041636e-04 1.5724433876e+00 -2.7235518393e+00 1.5724433876e+00 2.7235518393e+00 
99600 6.1814763578e+00 1.1865207915e-04 1.5724397261e+00 -2.7235454974e+00 1.5724397261e+00 2.7235454974e+00 
99700 6.1814805016e+00 1.2153323031e-04 1.5724359532e+00 -2.7235389626e+00 1.5724359532e+00 2.7235389626e+00 
99800 6.1814845396e+00 1.2382019643e-04 1.5724320887e+00 -2.7235322691e+00 1.5724320887e+00 2.7235322691e+00 
99900 6.1814884758e+00 1.2553868241e-04 1.5724281515e+00 -2.7235254496e+00 1.5724281515e+00 2.7235254496e+00 
100000 6.1814923138e+00 1.2671377650e-04 1.5724241596e+00 -2.7235185355e+00 1.5724241596e+00 2.7235185355e+00 
100100 6.1814960575e+00 1.2736995572e-04 1.5724201304e+00 -2.7235115567e+00 1.5724201304e+00 2.7235115567e+00 
100200 6.1814997103e+00 1.2753109171e-04 1.5724160803e+00 -2.7235045416e+00 1.5724160803e+00 2.7235045416e+00 
100300 6.1815032758e+00 1.2722045684e-04 1.5724120250e+00 -2.7234975177e+00 1.5724120250e+00 2.7234975177e+00 
100400 6.1815067573e+00 1.2646073072e-04 1.5724079796e+00 -2.7234905109e+00 1.5724079796e+00 2.7234905109e+00 
100500 6.1815101581e+00 1.2527400703e-04 1.5724039584e+00 -2.7234835459e+00 1.5724039584e+00 2.7234835459e+00 
100600 6.1815134813e+00 1.2368180056e-04 1.5723999748e+00 -2.7234766463e+00 1.5723999748e+00 2.7234766463e+00 
100700 6.1815167302e+00 1.2170505454e-04 1.5723960420e+00 -2.7234698343e+00 1.5723960420e+00 2.7234698343e+00 
100800 6.1815199075e+00 1.1936414821e-04 1.5723921719e+00 -2.7234631312e+00 1.5723921719e+00 2.7234631312e+00 
100900 6.1815230161e+00 1.1667890462e-04 1.5723883763e+00 -2.7234565569e+00 1.5723883763e+00 2.7234565569e+00 
101000 6.1815260588e+00 1.1366859855e-04 1.5723846660e+00 -2.7234501306e+00 1.5723846660e+00 2.7234501306e+00 
101100 6.1815290381e+00 1.1035196469e-04 1.5723810515e+00 -2.7234438701e+00 1.5723810515e+00 2.7234438701e+00 
101200 6.1815319567e+00 1.0674720588e-04 1.5723775424e+00 -2.7234377922e+00 1.5723775424e+00 2.7234377922e+00 
101300 6.1815348169e+00 1.0287200155e-04 1.5723741480e+00 -2.7234319128e+00 1.5723741480e+00 2.7234319128e+00 
101400 6.1815376209e+00 9.8743516248e-05 1.5723708768e+00 -2.7234262469e+00 1.5723708768e+00 2.7234262469e+00 
101500 6.1815403711e+00 9.4378408245e-05 1.5723677368e+00 -2.7234208083e+00 1.5723677368e+00 2.7234208083e+00 
101600 6.1815430694e+00 8.9792838241e-05 1.5723647356e+00 -2.7234156102e+00 1.5723647356e+00 2.7234156102e+00 
101700 6.1815457180e+00 8.5002478119e-05 1.5723618803e+00 -2.7234106646e+00 1.5723618803e+00 2.7234106646e+00 
101800 6.1815483185e+00 8.0022519761e-05 1.5723591773e+00 -2.7234059828e+00 1.5723591773e+00 2.7234059828e+00 
101900 6.1815508730e+00 7.4867683879e-05 1.5723566326e+00 -2.7234015753e+00 1.5723566326e+00 2.7234015753e+00 
102000 6.1815533829e+00 6.9552228864e-05 1.5723542519e+00 -2.7233974517e+00 1.5723542519e+00 2.7233974517e+00 
102100 6.1815558502e+00 6.6950155156e-05 1.5723542519e+00 -2.7233974517e+00 1.5723542519e+00 2.7233974517e+00 
102200 6.1815582761e+00 6.4005563572e-05 1.5723542519e+00 -2.7233974517e+00 1.5723542519e+00 2.7233974517e+00 
102300 6.1815606621e+00 6.0724895249e-05 1.5723542519e+00 -2.7233974517e+00 1.5723542519e+00 2.7233974517e+00 
102400 6.1815630094e+00 5.7114623830e-05 1.5723542519e+00 -2.7233974517e+00 1.5723542519e+00 2.7233974517e+00 
102500 6.1815653193e+00 5.3181251857e-05 1.5723542519e+00 -2.7233974517e+00 1.5723542519e+00 2.7233974517e+00 
102600 6.1815675930e+00 4.8931307386e-05 1.5723542519e+00 -2.7233974517e+00 1.5723542519e+00 2.7233974517e+00 
102700 6.1815698316e+00 4.4371340824e-05 1.5723542519e+00 -2.7233974517e+00 1.5723542519e+00 2.7233974517e+00 
102800 6.1815720362e+00 3.9507921962e-05 1.5723542519e+00 -2.7233974517e+00 1.5723542519e+00 2.7233974517e+00 
102900 6.1815742077e+00 3.4347637202e-05 1.5723542519e+00 -2.7233974517e+00 1.5723542519e+00 2.7233974517e+00 
103000 6.1815763469e+00 2.8897086953e-05 1.5723542519e+00 -2.7233974517e+00 1.5723542519e+00 2.7233974517e+00 
103100 6.1815784548e+00 2.3162883178e-05 1.5723542519e+00 -2.7233974517e+00 1.5723542519e+00 2.7233974517e+00 
103200 6.1815805321e+00 1.7151647081e-05 1.5723542519e+00 -2.7233974517e+00 1.5723542519e+00 2.7233974517e+00 
103300 6.1815825795e+00 1.0870006952e-05 1.5723542519e+00 -2.7233974517e+00 1.5723542519e+00 2.7233974517e+00 
103400 6.1815845977e+00 4.3245960847e-06 1.5723542519e+00 -2.7233974517e+00 1.5723542519e+00 2.7233974517e+00 
103500 6.1815865872e+00 -2.4779491523e-06 1.5723542519e+00 -2.7233974517e+00 1.5723542519e+00 2.7233974517e+00 
103600 6.1815885488e+00 -9.5309911783e-06 1.5723542519e+00 -2.7233974517e+00 1.5723542519e+00 2.7233974517e+00 
103700 6.1815904828e+00 -1.6827892974e-05 1.5723542519e+00 -2.7233974517e+00 1.5723542519e+00 2.7233974517e+00 
103800 6.1815923897e+00 -2.4362019760e-05 1.5723542519e+00 -2.7233974517e+00 1.5723542519e+00 2.7233974517e+00 
103900 6.1815942701e+00 -3.2126740642e-05 1.5723542519e+00 -2.7233974517e+00 1.5723542519e+00 2.7233974517e+00 
104000 6.1815961242e+00 -4.0115430159e-05 1.5723542519e+00 -2.7233974517e+00 1.5723542519e+00 2.7233974517e+00 
104100 6.1815979526e+00 -4.8321469822e-05 1.5723542519e+00 -2.7233974517e+00 1.5723542519e+00 2.7233974517e+00 
104200 6.1815997554e+00 -5.6738249579e-05 1.5723542519e+00 -2.7233974517e+00 1.5723542519e+00 2.7233974517e+00 
104300 6.1816015330e+00 -6.5359169261e-05 1.5723542519e+00 -2.7233974517e+00 1.5723542519e+00 2.7233974517e+00 
104400 6.1816032857e+00 -7.4177639996e-05 1.5723542519e+00 -2.7233974517e+00 1.5723542519e+00 2.7233974517e+00 
104500 6.1816050134e+00 -8.0136935861e-05 1.5723566107e+00 -2.7234015373e+00 1.5723566107e+00 2.7234015373e+00 
104600 6.1816067167e+00 -8.6019036707e-05 1.5723591590e+00 -2.7234059511e+00 1.5723591590e+00 2.7234059511e+00 
104700 6.1816083956e+00 -9.1819002829e-05 1.5723618943e+00 -2.7234106889e+00 1.5723618943e+00 2.7234106889e+00 
104800 6.1816100504e+00 -9.7532138524e-05 1.5723648141e+00 -2.7234157461e+00 1.5723648141e+00 2.7234157461e+00 
104900 6.1816116813e+00 -1.0315398601e-04 1.5723679156e+00 -2.7234211180e+00 1.5723679156e+00 2.7234211180e+00 
105000 6.1816132884e+00 -1.0868031948e-04 1.5723711958e+00 -2.7234267995e+00 1.5723711958e+00 2.7234267995e+00 
105100 6.1816148718e+00 -1.1410713932e-04 1.5723746517e+00 -2.7234327853e+00 1.5723746517e+00 2.7234327853e+00 
105200 6.1816164317e+00 -1.1943066635e-04 1.5723782802e+00 -2.7234390701e+00 1.5723782802e+00 2.7234390701e+00 
105300 6.1816179682e+00 -1.2464733630e-04 1.5723820780e+00 -2.7234456480e+00 1.5723820780e+00 2.7234456480e+00 
105400 6.1816194815e+00 -1.2975379432e-04 1.5723860416e+00 -2.7234525132e+00 1.5723860416e+00 2.7234525132e+00 
105500 6.1816209716e+00 -1.3474688966e-04 1.5723901677e+00 -2.7234596597e+00 1.5723901677e+00 2.7234596597e+00 
105600 6.1816224387e+00 -1.3962367046e-04 1.5723944524e+00 -2.7234670812e+00 1.5723944524e+00 2.7234670812e+00 
105700 6.1816238829e+00 -1.4438137864e-04 1.5723988923e+00 -2.7234747712e+00 1.5723988923e+00 2.7234747712e+00 
105800 6.1816253043e+00 -1.4901744490e-04 1.5724034834e+00 -2.7234827233e+00 1.5724034834e+00 2.7234827233e+00 
105900 6.1816267030e+00 -1.5352948383e-04 1.5724082219e+00 -2.7234909306e+00 1.5724082219e+00 2.7234909306e+00 
106000 6.1816280791e+00 -1.5791528917e-04 1.5724131039e+00 -2.7234993865e+00 1.5724131039e+00 2.7234993865e+00 
106100 6.1816294328e+00 -1.6217282914e-04 1.5724181254e+00 -2.7235080839e+00 1.5724181254e+00 2.7235080839e+00 
106200 6.1816307641e+00 -1.6630024183e-04 1.5724232822e+00 -2.7235170157e+00 1.5724232822e+00 2.7235170157e+00 
106300 6.1816320731e+00 -1.7029583082e-04 1.5724285702e+00 -2.7235261748e+00 1.5724285702e+00 2.7235261748e+00 
106400 6.1816333601e+00 -1.7415806076e-04 1.5724339852e+00 -2.7235355540e+00 1.5724339852e+00 2.7235355540e+00 
106500 6.1816346251e+00 -1.7788555310e-04 1.5724395231e+00 -2.7235451458e+00 1.5724395231e+00 2.7235451458e+00 
106600 6.1816358682e+00 -1.8147708197e-04 1.5724451795e+00 -2.7235549429e+00 1.5724451795e+00 2.7235549429e+00 
106700 6.1816370896e+00 -1.8493157005e-04 1.5724509500e+00 -2.7235649378e+00 1.5724509500e+00 2.7235649378e+00 
106800 6.1816382895e+00 -1.8824808459e-04 1.5724568304e+00 -2.7235751229e+00 1.5724568304e+00 2.7235751229e+00 
106900 6.1816394680e+00 -1.9142583354e-04 1.5724628162e+00 -2.7235854906e+00 1.5724628162e+00 2.7235854906e+00 
107000 6.1816406252e+00 -1.9446416164e-04 1.5724689030e+00 -2.7235960333e+00 1.5724689030e+00 2.7235960333e+00 
107100 6.1816417613e+00 -1.9736254678e-04 1.5724750864e+00 -2.7236067433e+00 1.5724750864e+00 2.7236067433e+00 
107200 6.1816428765e+00 -2.0012059625e-04 1.5724813619e+00 -2.7236176128e+00 1.5724813619e+00 2.7236176128e+00 
107300 6.1816439709e+00 -2.0273804319e-04 1.5724877251e+00 -2.7236286342e+00 1.5724877251e+00 2.7236286342e+00 
107400 6.1816450448e+00 -2.0521474305e-04 1.5724941716e+00 -2.7236397997e+00 1.5724941716e+00 2.7236397997e+00 
107500 6.1816460984e+00 -2.0755067015e-04 1.5725006967e+00 -2.7236511016e+00 1.5725006967e+00 2.7236511016e+00 
107600 6.1816471318e+00 -2.0974591430e-04 1.5725072961e+00 -2.7236625321e+00 1.5725072961e+00 2.7236625321e+00 
107700 6.1816481453e+00 -2.1180067748e-04 1.5725139652e+00 -2.7236740834e+00 1.5725139652e+00 2.7236740834e+00 
107800 6.1816491390e+00 -2.1371527056e-04 1.5725206997e+00 -2.7236857479e+00 1.5725206997e+00 2.7236857479e+00 
107900 6.1816501132e+00 -2.1549011013e-04 1.5725274950e+00 -2.7236975177e+00 1.5725274950e+00 2.7236975177e+00 
108000 6.1816510682e+00 -2.1712571535e-04 1.5725343467e+00 -2.7237093852e+00 1.5725343467e+00 2.7237093852e+00 
108100 6.1816520041e+00 -2.1862270489e-04 1.5725412504e+00 -2.7237213427e+00 1.5725412504e+00 2.7237213427e+00 
108200 6.1816529212e+00 -2.1998179383e-04 1.5725482017e+00 -2.7237333827e+00 1.5725482017e+00 2.7237333827e+00 
108300 6.1816538198e+00 -2.2120379078e-04 1.5725551961e+00 -2.7237454974e+00 1.5725551961e+00 2.7237454974e+00 
108400 6.1816547000e+00 -2.2228959486e-04 1.5725622294e+00 -2.7237576794e+00 1.5725622294e+00 2.7237576794e+00 
108500 6.1816555623e+00 -2.2324019286e-04 1.5725692972e+00 -2.7237699211e+00 1.5725692972e+00 2.7237699211e+00 
108600 6.1816564067e+00 -2.2405665640e-04 1.5725763951e+00 -2.7237822151e+00 1.5725763951e+00 2.7237822151e+00 
108700 6.1816572337e+00 -2.2474013912e-04 1.5725835190e+00 -2.7237945540e+00 1.5725835190e+00 2.7237945540e+00 
108800 6.1816580434e+00 -2.2529187393e-04 1.5725906646e+00 -2.7238069305e+00 1.5725906646e+00 2.7238069305e+00 
108900 6.1816588362e+00 -2.2571317032e-04 1.5725978276e+00 -2.7238193374e+00 1.5725978276e+00 2.7238193374e+00 
109000 6.1816596123e+00 -2.2600541164e-04 1.5726050041e+00 -2.7238317673e+00 1.5726050041e+00 2.7238317673e+00 
109100 6.1816603720e+00 -2.2617005249e-04 1.5726121898e+00 -2.7238442133e+00 1.5726121898e+00 2.7238442133e+00 
109200 6.1816611157e+00 -2.2620861613e-04 1.5726193807e+00 -2.7238566684e+00 1.5726193807e+00 2.7238566684e+00 
109300 6.1816618435e+00 -2.2612269186e-04 1.5726265728e+00 -2.7238691254e+00 1.5726265728e+00 2.7238691254e+00 
109400 6.1816625558e+00 -2.2591393255e-04 1.5726337622e+00 -2.7238815777e+00 1.5726337622e+00 2.7238815777e+00 
109500 6.1816632529e+00 -2.2558405209e-04 1.5726409448e+00 -2.7238940185e+00 1.5726409448e+00 2.7238940185e+00 
109600 6.1816639351e+00 -2.2513482292e-04 1.5726481170e+00 -2.7239064410e+00 1.5726481170e+00 2.7239064410e+00 
109700 6.1816646026e+00 -2.2456807363e-04 1.5726552748e+00 -2.7239188387e+00 1.5726552748e+00 2.7239188387e+00 
109800 6.1816652558e+00 -2.2388568647e-04 1.5726624146e+00 -2.7239312052e+00 1.5726624146e+00 2.7239312052e+00 
109900 6.1816658950e+00 -2.2308959504e-04 1.5726695326e+00 -2.7239435340e+00 1.5726695326e+00 2.7239435340e+00 
110000 6.1816665205e+00 -2.2218178189e-04 1.5726766253e+00 -2.7239558190e+00 1.5726766253e+00 2.7239558190e+00 
110100 6.1816671325e+00 -2.2116427620e-04 1.5726836892e+00 -2.7239680538e+00 1.5726836892e+00 2.7239680538e+00 
110200 6.1816677314e+00 -2.2003915145e-04 1.5726907206e+00 -2.7239802327e+00 1.5726907206e+00 2.7239802327e+00 
110300 6.1816683174e+00 -2.1880852320e-04 1.5726977162e+00 -2.7239923494e+00 1.5726977162e+00 2.7239923494e+00 
110400 6.1816688908e+00 -2.1747454675e-04 1.5727046727e+00 -2.7240043984e+00 1.5727046727e+00 2.7240043984e+00 
110500 6.1816694520e+00 -2.1603941499e-04 1.5727115867e+00 -2.7240163739e+00 1.5727115867e+00 2.7240163739e+00 
110600 6.1816700013e+00 -2.1450535616e-04 1.5727184551e+00 -2.7240282703e+00 1.5727184551e+00 2.7240282703e+00 
110700 6.1816705388e+00 -2.1287463164e-04 1.5727252747e+00 -2.7240400821e+00 1.5727252747e+00 2.7240400821e+00 
110800 6.1816710649e+00 -2.1114953386e-04 1.5727320424e+00 -2.7240518041e+00 1.5727320424e+00 2.7240518041e+00 
110900 6.1816715799e+00 -2.0933238410e-04 1.5727387552e+00 -2.7240634311e+00 1.5727387552e+00 2.7240634311e+00 
111000 6.1816720840e+00 -2.0742553042e-04 1.5727454103e+00 -2.7240749579e+00 1.5727454103e+00 2.7240749579e+00 
111100 6.1816725776e+00 -2.0543134557e-04 1.5727520046e+00 -2.7240863797e+00 1.5727520046e+00 2.7240863797e+00 
111200 6.1816730609e+00 -2.0335222491e-04 1.5727585356e+00 -2.7240976917e+00 1.5727585356e+00 2.7240976917e+00 
111300 6.1816735341e+00 -2.0119058438e-04 1.5727650004e+00 -2.7241088891e+00 1.5727650004e+00 2.7241088891e+00 
111400 6.1816739975e+00 -1.9894885851e-04 1.5727713965e+00 -2.7241199674e+00 1.5727713965e+00 2.7241199674e+00 
111500 6.1816744515e+00 -1.9662949839e-04 1.5727777213e+00 -2.7241309223e+00 1.5727777213e+00 2.7241309223e+00 
111600 6.1816748961e+00 -1.9423496973e-04 1.5727839723e+00 -2.7241417494e+00 1.5727839723e+00 2.7241417494e+00 
111700 6.1816753317e+00 -1.9176775094e-04 1.5727901472e+00 -2.7241524446e+00 1.5727901472e+00 2.7241524446e+00 
111800 6.1816757586e+00 -1.8923033115e-04 1.5727962436e+00 -2.7241630039e+00 1.5727962436e+00 2.7241630039e+00 
111900 6.1816761769e+00 -1.8662520840e-04 1.5728022594e+00 -2.7241734235e+00 1.5728022594e+00 2.7241734235e+00 
112000 6.1816765869e+00 -1.8395488769e-04 1.5728081923e+00 -2.7241836996e+00 1.5728081923e+00 2.7241836996e+00 
112100 6.1816769888e+00 -1.8122187923e-04 1.5728140402e+00 -2.7241938285e+00 1.5728140402e+00 2.7241938285e+00 
112200 6.1816773828e+00 -1.7842869656e-04 1.5728198013e+00 -2.7242038070e+00 1.5728198013e+00 2.7242038070e+00 
112300 6.1816777692e+00 -1.7557785481e-04 1.5728254736e+00 -2.7242136317e+00 1.5728254736e+00 2.7242136317e+00 
112400 6.1816781482e+00 -1.7267186890e-04 1.5728310552e+00 -2.7242232993e+00 1.5728310552e+00 2.7242232993e+00 
112500 6.1816785199e+00 -1.6971325186e-04 1.5728365444e+00 -2.7242328069e+00 1.5728365444e+00 2.7242328069e+00 
112600 6.1816788846e+00 -1.6670451309e-04 1.5728419395e+00 -2.7242421515e+00 1.5728419395e+00 2.7242421515e+00 
112700 6.1816792425e+00 -1.6364815668e-04 1.5728472390e+00 -2.7242513305e+00 1.5728472390e+00 2.7242513305e+00 
112800 6.1816795937e+00 -1.6054667983e-04 1.5728524413e+00 -2.7242603411e+00 1.5728524413e+00 2.7242603411e+00 
112900 6.1816799385e+00 -1.5740257116e-04 1.5728575450e+00 -2.7242691810e+00 1.5728575450e+00 2.7242691810e+00 
113000 6.1816802770e+00 -1.5421830916e-04 1.5728625487e+00 -2.7242778476e+00 1.5728625487e+00 2.7242778476e+00 
113100 6.1816806094e+00 -1.5099636064e-04 1.5728674512e+00 -2.7242863390e+00 1.5728674512e+00 2.7242863390e+00 
113200 6.1816809358e+00 -1.4773917922e-04 1.5728722512e+00 -2.7242946529e+00 1.5728722512e+00 2.7242946529e+00 
113300 6.1816812565e+00 -1.4444920381e-04 1.5728769477e+00 -2.7243027874e+00 1.5728769477e+00 2.7243027874e+00 
113400 6.1816815715e+00 -1.4112885716e-04 1.5728815396e+00 -2.7243107408e+00 1.5728815396e+00 2.7243107408e+00 
113500 6.1816818810e+00 -1.3778054447e-04 1.5728860259e+00 -2.7243185113e+00 1.5728860259e+00 2.7243185113e+00 
113600 6.1816821853e+00 -1.3440665195e-04 1.5728904057e+00 -2.7243260975e+00 1.5728904057e+00 2.7243260975e+00 
113700 6.1816824843e+00 -1.3100954548e-04 1.5728946783e+00 -2.7243334979e+00 1.5728946783e+00 2.7243334979e+00 
113800 6.1816827783e+00 -1.2759156932e-04 1.5728988429e+00 -2.7243407112e+00 1.5728988429e+00 2.7243407112e+00 
113900 6.1816830673e+00 -1.2415504477e-04 1.5729028989e+00 -2.7243477362e+00 1.5729028989e+00 2.7243477362e+00 
114000 6.1816833516e+00 -1.2070226893e-04 1.5729068456e+00 -2.7243545721e+00 1.5729068456e+00 2.7243545721e+00 
114100 6.1816836311e+00 -1.1723551353e-04 1.5729106825e+00 -2.7243612178e+00 1.5729106825e+00 2.7243612178e+00 
114200 6.1816839061e+00 -1.1375702366e-04 1.5729144092e+00 -2.7243676727e+00 1.5729144092e+00 2.7243676727e+00 
114300 6.1816841767e+00 -1.1026901671e-04 1.5729180253e+00 -2.7243739360e+00 1.5729180253e+00 2.7243739360e+00 
114400 6.1816844429e+00 -1.0677368120e-04 1.5729215306e+00 -2.7243800073e+00 1.5729215306e+00 2.7243800073e+00 
114500 6.1816847049e+00 -1.0327317575e-04 1.5729249247e+00 -2.7243858860e+00 1.5729249247e+00 2.7243858860e+00 
114600 6.1816849627e+00 -9.9769628024e-05 1.5729282075e+00 -2.7243915721e+00 1.5729282075e+00 2.7243915721e+00 
114700 6.1816852164e+00 -9.6265133722e-05 1.5729313790e+00 -2.7243970652e+00 1.5729313790e+00 2.7243970652e+00 
114800 6.1816854662e+00 -9.2761755650e-05 1.5729344390e+00 -2.7244023654e+00 1.5729344390e+00 2.7244023654e+00 
114900 6.1816857122e+00 -8.9261522773e-05 1.5729373877e+00 -2.7244074727e+00 1.5729373877e+00 2.7244074727e+00 
115000 6.1816859543e+00 -8.5766429346e-05 1.5729402251e+00 -2.7244123872e+00 1.5729402251e+00 2.7244123872e+00 
115100 6.1816861927e+00 -8.2278434073e-05 1.5729429515e+00 -2.7244171093e+00 1.5729429515e+00 2.7244171093e+00 
115200 6.1816864275e+00 -7.8799459277e-05 1.5729455669e+00 -2.7244216394e+00 1.5729455669e+00 2.7244216394e+00 
115300 6.1816866587e+00 -7.5331390170e-05 1.5729480717e+00 -2.7244259779e+00 1.5729480717e+00 2.7244259779e+00 
115400 6.1816868864e+00 -7.1876074090e-05 1.5729504663e+00 -2.7244301254e+00 1.5729504663e+00 2.7244301254e+00 
115500 6.1816871106e+00 -6.8435319834e-05 1.5729527511e+00 -2.7244340828e+00 1.5729527511e+00 2.7244340828e+00 
115600 6.1816873317e+00 -6.7815930199e-05 1.5729527511e+00 -2.7244340828e+00 1.5729527511e+00 2.7244340828e+00 
115700 6.1816875494e+00 -6.7089805564e-05 1.5729527511e+00 -2.7244340828e+00 1.5729527511e+00 2.7244340828e+00 
115800 6.1816877639e+00 -6.6258810455e-05 1.5729527511e+00 -2.7244340828e+00 1.5729527511e+00 2.7244340828e+00 
115900 6.1816879751e+00 -6.5324807452e-05 1.5729527511e+00 -2.7244340828e+00 1.5729527511e+00 2.7244340828e+00 
116000 6.1816881831e+00 -6.4289657393e-05 1.5729527511e+00 -2.7244340828e+00 1.5729527511e+00 2.7244340828e+00 
116100 6.1816883880e+00 -6.3155219538e-05 1.5729527511e+00 -2.7244340828e+00 1.5729527511e+00 2.7244340828e+00 
116200 6.1816885899e+00 -6.1923351695e-05 1.5729527511e+00 -2.7244340828e+00 1.5729527511e+00 2.7244340828e+00 
116300 6.1816887887e+00 -6.0595910323e-05 1.5729527511e+00 -2.7244340828e+00 1.5729527511e+00 2.7244340828e+00 
116400 6.1816889845e+00 -5.9174750587e-05 1.5729527511e+00 -2.7244340828e+00 1.5729527511e+00 2.7244340828e+00 
116500 6.1816891773e+00 -5.7661726392e-05 1.5729527511e+00 -2.7244340828e+00 1.5729527511e+00 2.7244340828e+00 
116600 6.1816893673e+00 -5.6058690374e-05 1.5729527511e+00 -2.7244340828e+00 1.5729527511e+00 2.7244340828e+00 
116700 6.1816895544e+00 -5.4367493872e-05 1.5729527511e+00 -2.7244340828e+00 1.5729527511e+00 2.7244340828e+00 
116800 6.1816897386e+00 -5.2589986856e-05 1.5729527511e+00 -2.7244340828e+00 1.5729527511e+00 2.7244340828e+00 
116900 6.1816899201e+00 -5.0728017834e-05 1.5729527511e+00 -2.7244340828e+00 1.5729527511e+00 2.7244340828e+00 
117000 6.1816900988e+00 -4.8783433737e-05 1.5729527511e+00 -2.7244340828e+00 1.5729527511e+00 2.7244340828e+00 
117100 6.1816902748e+00 -4.6758079761e-05 1.5729527511e+00 -2.7244340828e+00 1.5729527511e+00 2.7244340828e+00 
117200 6.1816904481e+00 -4.4653799191e-05 1.5729527511e+00 -2.7244340828e+00 1.5729527511e+00 2.7244340828e+00 
117300 6.1816906187e+00 -4.2472433207e-05 1.5729527511e+00 -2.7244340828e+00 1.5729527511e+00 2.7244340828e+00 
117400 6.1816907867e+00 -4.0215820645e-05 1.5729527511e+00 -2.7244340828e+00 1.5729527511e+00 2.7244340828e+00 
117500 6.1816909521e+00 -3.7885797762e-05 1.5729527511e+00 -2.7244340828e+00 1.5729527511e+00 2.7244340828e+00 
117600 6.1816911149e+00 -3.5484197957e-05 1.5729527511e+00 -2.7244340828e+00 1.5729527511e+00 2.7244340828e+00 
117700 6.1816912752e+00 -3.3012851479e-05 1.5729527511e+00 -2.7244340828e+00 1.5729527511e+00 2.7244340828e+00 
117800 6.1816914330e+00 -3.0473585118e-05 1.5729527511e+00 -2.7244340828e+00 1.5729527511e+00 2.7244340828e+00 
117900 6.1816915884e+00 -2.7868221872e-05 1.5729527511e+00 -2.7244340828e+00 1.5729527511e+00 2.7244340828e+00 
118000 6.1816917412e+00 -2.5198580600e-05 1.5729527511e+00 -2.7244340828e+00 1.5729527511e+00 2.7244340828e+00 
118100 6.1816918916e+00 -2.2466475651e-05 1.5729527511e+00 -2.7244340828e+00 1.5729527511e+00 2.7244340828e+00 
118200 6.1816920397e+00 -1.9673716491e-05 1.5729527511e+00 -2.7244340828e+00 1.5729527511e+00 2.7244340828e+00 
118300 6.1816921853e+00 -1.6822107301e-05 1.5729527511e+00 -2.7244340828e+00 1.5729527511e+00 2.7244340828e+00 
118400 6.1816923286e+00 -1.3913446569e-05 1.5729527511e+00 -2.7244340828e+00 1.5729527511e+00 2.7244340828e+00 
118500 6.1816924696e+00 -1.0949526672e-05 1.5729527511e+00 -2.7244340828e+00 1.5729527511e+00 2.7244340828e+00 
118600 6.1816926083e+00 -7.9321334378e-06 1.5729527511e+00 -2.7244340828e+00 1.5729527511e+00 2.7244340828e+00 
118700 6.1816927447e+00 -4.8630457025e-06 1.5729527511e+00 -2.7244340828e+00 1.5729527511e+00 2.7244340828e+00 
118800 6.1816928789e+00 -1.7440348588e-06 1.5729527511e+00 -2.7244340828e+00 1.5729527511e+00 2.7244340828e+00 
118900 6.1816930109e+00 1.4231356007e-06 1.5729527511e+00 -2.7244340828e+00 1.5729527511e+00 2.7244340828e+00 
119000 6.1816931406e+00 4.6367105615e-06 1.5729527511e+00 -2.7244340828e+00 1.5729527511e+00 2.7244340828e+00 
119100 6.1816932682e+00 7.8949437540e-06 1.5729527511e+00 -2.7244340828e+00 1.5729527511e+00 2.7244340828e+00 
119200 6.1816933936e+00 1.1196098238e-05 1.5729527511e+00 -2.7244340828e+00 1.5729527511e+00 2.7244340828e+00 
119300 6.1816935170e+00 1.4538446880e-05 1.5729527511e+00 -2.7244340828e+00 1.5729527511e+00 2.7244340828e+00 
119400 6.1816936382e+00 1.7920272852e-05 1.5729527511e+00 -2.7244340828e+00 1.5729527511e+00 2.7244340828e+00 
119500 6.1816937574e+00 2.1339870113e-05 1.5729527511e+00 -2.7244340828e+00 1.5729527511e+00 2.7244340828e+00 
119600 6.1816938745e+00 2.4795543898e-05 1.5729527511e+00 -2.7244340828e+00 1.5729527511e+00 2.7244340828e+00 
119700 6.1816939896e+00 2.8285611223e-05 1.5729527511e+00 -2.7244340828e+00 1.5729527511e+00 2.7244340828e+00 
119800 6.1816941027e+00 3.1808401369e-05 1.5729527511e+00 -2.7244340828e+00 1.5729527511e+00 2.7244340828e+00 
119900 6.1816942138e+00 3.5362256369e-05 1.5729527511e+00 -2.7244340828e+00 1.5729527511e+00 2.7244340828e+00 
120000 6.1816943230e+00 3.8945531503e-05 1.5729527511e+00 -2.7244340828e+00 1.5729527511e+00 2.7244340828e+00 
120100 6.1816944303e+00 4.2556595789e-05 1.5729527511e+00 -2.7244340828e+00 1.5729527511e+00 2.7244340828e+00 
120200 6.1816945357e+00 4.6193832458e-05 1.5729527511e+00 -2.7244340828e+00 1.5729527511e+00 2.7244340828e+00 
120300 6.1816946392e+00 4.9855639434e-05 1.5729527511e+00 -2.7244340828e+00 1.5729527511e+00 2.7244340828e+00 
120400 6.1816947409e+00 5.3540429815e-05 1.5729527511e+00 -2.7244340828e+00 1.5729527511e+00 2.7244340828e+00 
120500 6.1816948407e+00 5.7246632328e-05 1.5729527511e+00 -2.7244340828e+00 1.5729527511e+00 2.7244340828e+00 
120600 6.1816949388e+00 6.0972691810e-05 1.5729527511e+00 -2.7244340828e+00 1.5729527511e+00 2.7244340828e+00 
120700 6.1816950351e+00 6.4717069649e-05 1.5729527511e+00 -2.7244340828e+00 1.5729527511e+00 2.7244340828e+00 
120800 6.1816951297e+00 6.8478244235e-05 1.5729527511e+00 -2.7244340828e+00 1.5729527511e+00 2.7244340828e+00 
120900 6.1816952225e+00 7.2254711399e-05 1.5729527511e+00 -2.7244340828e+00 1.5729527511e+00 2.7244340828e+00 
121000 6.1816953134e+00 7.3084078255e-05 1.5729504543e+00 -2.7244301046e+00 1.5729504543e+00 2.7244301046e+00 
121100 6.1816954027e+00 7.3875256858e-05 1.5729481311e+00 -2.7244260808e+00 1.5729481311e+00 2.7244260808e+00 
121200 6.1816954902e+00 7.4627954240e-05 1.5729457828e+00 -2.7244220134e+00 1.5729457828e+00 2.7244220134e+00 
121300 6.1816955762e+00 7.5341939532e-05 1.5729434106e+00 -2.7244179046e+00 1.5729434106e+00 2.7244179046e+00 
121400 6.1816956605e+00 7.6017041475e-05 1.5729410157e+00 -2.7244137564e+00 1.5729410157e+00 2.7244137564e+00 
121500 6.1816957432e+00 7.6653146013e-05 1.5729385993e+00 -2.7244095711e+00 1.5729385993e+00 2.7244095711e+00 
121600 6.1816958244e+00 7.7250193957e-05 1.5729361626e+00 -2.7244053508e+00 1.5729361626e+00 2.7244053508e+00 
121700 6.1816959040e+00 7.7808178682e-05 1.5729337070e+00 -2.7244010975e+00 1.5729337070e+00 2.7244010975e+00 
121800 6.1816959821e+00 7.8327143899e-05 1.5729312337e+00 -2.7243968136e+00 1.5729312337e+00 2.7243968136e+00 
121900 6.1816960588e+00 7.8807181473e-05 1.5729287438e+00 -2.7243925010e+00 1.5729287438e+00 2.7243925010e+00 
122000 6.1816961339e+00 7.9248429298e-05 1.5729262387e+00 -2.7243881620e+00 1.5729262387e+00 2.7243881620e+00 
122100 6.1816962077e+00 7.9651069231e-05 1.5729237196e+00 -2.7243837988e+00 1.5729237196e+00 2.7243837988e+00 
122200 6.1816962800e+00 8.0015325071e-05 1.5729211877e+00 -2.7243794133e+00 1.5729211877e+00 2.7243794133e+00 
122300 6.1816963509e+00 8.0341460575e-05 1.5729186441e+00 -2.7243750078e+00 1.5729186441e+00 2.7243750078e+00 
122400 6.1816964205e+00 8.0629777560e-05 1.5729160902e+00 -2.7243705843e+00 1.5729160902e+00 2.7243705843e+00 
122500 6.1816964888e+00 8.0880614002e-05 1.5729135272e+00 -2.7243661450e+00 1.5729135272e+00 2.7243661450e+00 
122600 6.1816965557e+00 8.1094342234e-05 1.5729109561e+00 -2.7243616918e+00 1.5729109561e+00 2.7243616918e+00 
122700 6.1816966213e+00 8.1271367150e-05 1.5729083783e+00 -2.7243572268e+00 1.5729083783e+00 2.7243572268e+00 
122800 6.1816966857e+00 8.1412124475e-05 1.5729057948e+00 -2.7243527521e+00 1.5729057948e+00 2.7243527521e+00 
122900 6.1816967489e+00 8.1517079079e-05 1.5729032069e+00 -2.7243482697e+00 1.5729032069e+00 2.7243482697e+00 
123000 6.1816968108e+00 8.1586723312e-05 1.5729006156e+00 -2.7243437814e+00 1.5729006156e+00 2.7243437814e+00 
123100 6.1816968716e+00 8.1621575416e-05 1.5728980220e+00 -2.7243392893e+00 1.5728980220e+00 2.7243392893e+00 
123200 6.1816969311e+00 8.1622177954e-05 1.5728954274e+00 -2.7243347953e+00 1.5728954274e+00 2.7243347953e+00 
123300 6.1816969896e+00 8.1589096293e-05 1.5728928328e+00 -2.7243303012e+00 1.5728928328e+00 2.7243303012e+00 
123400 6.1816970469e+00 8.1522917109e-05 1.5728902392e+00 -2.7243258090e+00 1.5728902392e+00 2.7243258090e+00 
123500 6.1816971031e+00 8.1424246957e-05 1.5728876477e+00 -2.7243213204e+00 1.5728876477e+00 2.7243213204e+00 
123600 6.1816971582e+00 8.1293710870e-05 1.5728850593e+00 -2.7243168372e+00 1.5728850593e+00 2.7243168372e+00 
123700 6.1816972123e+00 8.1131950977e-05 1.5728824751e+00 -2.7243123612e+00 1.5728824751e+00 2.7243123612e+00 
123800 6.1816972654e+00 8.0939625194e-05 1.5728798960e+00 -2.7243078941e+00 1.5728798960e+00 2.7243078941e+00 
123900 6.1816973175e+00 8.0717405923e-05 1.5728773230e+00 -2.7243034376e+00 1.5728773230e+00 2.7243034376e+00 
124000 6.1816973685e+00 8.0465978808e-05 1.5728747571e+00 -2.7242989933e+00 1.5728747571e+00 2.7242989933e+00 
124100 6.1816974186e+00 8.0186041509e-05 1.5728721992e+00 -2.7242945628e+00 1.5728721992e+00 2.7242945628e+00 
124200 6.1816974678e+00 7.9878302524e-05 1.5728696502e+00 -2.7242901478e+00 1.5728696502e+00 2.7242901478e+00 
124300 6.1816975160e+00 7.9543480047e-05 1.5728671109e+00 -2.7242857496e+00 1.5728671109e+00 2.7242857496e+00 
124400 6.1816975633e+00 7.9182300850e-05 1.5728645823e+00 -2.7242813700e+00 1.5728645823e+00 2.7242813700e+00 
124500 6.1816976098e+00 7.8795499210e-05 1.5728620652e+00 -2.7242770101e+00 1.5728620652e+00 2.7242770101e+00 
124600 6.1816976554e+00 7.8383815857e-05 1.5728595603e+00 -2.7242726716e+00 1.5728595603e+00 2.7242726716e+00 
124700 6.1816977001e+00 7.7947996979e-05 1.5728570686e+00 -2.7242683558e+00 1.5728570686e+00 2.7242683558e+00 
124800 6.1816977440e+00 7.7488793222e-05 1.5728545906e+00 -2.7242640639e+00 1.5728545906e+00 2.7242640639e+00 
124900 6.1816977871e+00 7.7006958763e-05 1.5728521273e+00 -2.7242597973e+00 1.5728521273e+00 2.7242597973e+00 
125000 6.1816978294e+00 7.6503250384e-05 1.5728496793e+00 -2.7242555573e+00 1.5728496793e+00 2.7242555573e+00 
125100 6.1816978709e+00 7.5978426592e-05 1.5728472473e+00 -2.7242513449e+00 1.5728472473e+00 2.7242513449e+00 
125200 6.1816979116e+00 7.5433246764e-05 1.5728448320e+00 -2.7242471615e+00 1.5728448320e+00 2.7242471615e+00 
125300 6.1816979517e+00 7.4868470331e-05 1.5728424340e+00 -2.7242430080e+00 1.5728424340e+00 2.7242430080e+00 
125400 6.1816979910e+00 7.4284855974e-05 1.5728400540e+00 -2.7242388857e+00 1.5728400540e+00 2.7242388857e+00 
125500 6.1816980296e+00 7.3683160872e-05 1.5728376925e+00 -2.7242347955e+00 1.5728376925e+00 2.7242347955e+00 
125600 6.1816980675e+00 7.3064139966e-05 1.5728353501e+00 -2.7242307384e+00 1.5728353501e+00 2.7242307384e+00 
125700 6.1816981047e+00 7.2428545241e-05 1.5728330275e+00 -2.7242267154e+00 1.5728330275e+00 2.7242267154e+00 
125800 6.1816981412e+00 7.1777125062e-05 1.5728307250e+00 -2.7242227273e+00 1.5728307250e+00 2.7242227273e+00 
125900 6.1816981771e+00 7.1110623515e-05 1.5728284432e+00 -2.7242187752e+00 1.5728284432e+00 2.7242187752e+00 
126000 6.1816982124e+00 7.0429779794e-05 1.5728261826e+00 -2.7242148597e+00 1.5728261826e+00 2.7242148597e+00 
126100 6.1816982473e+00 7.2622082948e-05 1.5728261826e+00 -2.7242148597e+00 1.5728261826e+00 2.7242148597e+00 
126200 6.1816982813e+00 7.1812566998e-05 1.5728238739e+00 -2.7242108610e+00 1.5728238739e+00 2.7242108610e+00 
126300 6.1816983148e+00 7.0994627728e-05 1.5728215910e+00 -2.7242069069e+00 1.5728215910e+00 2.7242069069e+00 
126400 6.1816983476e+00 7.0168816741e-05 1.5728193341e+00 -2.7242029978e+00 1.5728193341e+00 2.7242029978e+00 
126500 6.1816983801e+00 7.2211775829e-05 1.5728193341e+00 -2.7242029978e+00 1.5728193341e+00 2.7242029978e+00 
126600 6.1816984119e+00 7.1270069839e-05 1.5728170385e+00 -2.7241990217e+00 1.5728170385e+00 2.7241990217e+00 
126700 6.1816984431e+00 7.0325867621e-05 1.5728147728e+00 -2.7241950974e+00 1.5728147728e+00 2.7241950974e+00 
126800 6.1816984739e+00 7.2262101945e-05 1.5728147728e+00 -2.7241950974e+00 1.5728147728e+00 2.7241950974e+00 
126900 6.1816985041e+00 7.1212034437e-05 1.5728124756e+00 -2.7241911185e+00 1.5728124756e+00 2.7241911185e+00 
127000 6.1816985337e+00 7.0164373185e-05 1.5728102117e+00 -2.7241871974e+00 1.5728102117e+00 2.7241871974e+00 
127100 6.1816985630e+00 7.1995300517e-05 1.5728102117e+00 -2.7241871974e+00 1.5728102117e+00 2.7241871974e+00 
127200 6.1816985917e+00 7.0851365579e-05 1.5728079230e+00 -2.7241832332e+00 1.5728079230e+00 2.7241832332e+00 
127300 6.1816986198e+00 6.9714293889e-05 1.5728056706e+00 -2.7241793319e+00 1.5728056706e+00 2.7241793319e+00 
127400 6.1816986477e+00 7.1441702312e-05 1.5728056706e+00 -2.7241793319e+00 1.5728056706e+00 2.7241793319e+00 
127500 6.1816986749e+00 7.0217518253e-05 1.5728033995e+00 -2.7241753982e+00 1.5728033995e+00 2.7241753982e+00 
127600 6.1816987019e+00 7.1882386823e-05 1.5728033995e+00 -2.7241753982e+00 1.5728033995e+00 2.7241753982e+00 
127700 6.1816987282e+00 7.0578098044e-05 1.5728011143e+00 -2.7241714401e+00 1.5728011143e+00 2.7241714401e+00 
127800 6.1816987543e+00 7.2181345282e-05 1.5728011143e+00 -2.7241714401e+00 1.5728011143e+00 2.7241714401e+00 
127900 6.1816987797e+00 7.0803690373e-05 1.5727988196e+00 -2.7241674657e+00 1.5727988196e+00 2.7241674657e+00 
128000 6.1816988048e+00 6.9444093377e-05 1.5727965687e+00 -2.7241635670e+00 1.5727965687e+00 2.7241635670e+00 
128100 6.1816988296e+00 7.0948759202e-05 1.5727965687e+00 -2.7241635670e+00 1.5727965687e+00 2.7241635670e+00 
128200 6.1816988538e+00 6.9523727307e-05 1.5727943132e+00 -2.7241596604e+00 1.5727943132e+00 2.7241596604e+00 
128300 6.1816988778e+00 7.0969447841e-05 1.5727943132e+00 -2.7241596604e+00 1.5727943132e+00 2.7241596604e+00 
128400 6.1816989013e+00 6.9485187543e-05 1.5727920571e+00 -2.7241557526e+00 1.5727920571e+00 2.7241557526e+00 
128500 6.1816989245e+00 7.0873107811e-05 1.5727920571e+00 -2.7241557526e+00 1.5727920571e+00 2.7241557526e+00 
128600 6.1816989472e+00 6.9335569672e-05 1.5727898040e+00 -2.7241518501e+00 1.5727898040e+00 2.7241518501e+00 
128700 6.1816989697e+00 7.0666878259e-05 1.5727898040e+00 -2.7241518501e+00 1.5727898040e+00 2.7241518501e+00 
128800 6.1816989919e+00 7.1978382773e-05 1.5727898040e+00 -2.7241518501e+00 1.5727898040e+00 2.7241518501e+00 
128900 6.1816990134e+00 7.0320117856e-05 1.5727875157e+00 -2.7241478868e+00 1.5727875157e+00 2.7241478868e+00 
129000 6.1816990349e+00 7.1576748689e-05 1.5727875157e+00 -2.7241478868e+00 1.5727875157e+00 2.7241478868e+00 
129100 6.1816990558e+00 6.9880638122e-05 1.5727852403e+00 -2.7241439455e+00 1.5727852403e+00 2.7241439455e+00 
129200 6.1816990765e+00 7.1083637826e-05 1.5727852403e+00 -2.7241439455e+00 1.5727852403e+00 2.7241439455e+00 
129300 6.1816990968e+00 6.9354683996e-05 1.5727829805e+00 -2.7241400314e+00 1.5727829805e+00 2.7241400314e+00 
129400 6.1816991169e+00 7.0505335533e-05 1.5727829805e+00 -2.7241400314e+00 1.5727829805e+00 2.7241400314e+00 
129500 6.1816991367e+00 7.1638341008e-05 1.5727829805e+00 -2.7241400314e+00 1.5727829805e+00 2.7241400314e+00 
129600 6.1816991559e+00 6.9817653891e-05 1.5727807030e+00 -2.7241360868e+00 1.5727807030e+00 2.7241360868e+00 
129700 6.1816991751e+00 7.0900183057e-05 1.5727807030e+00 -2.7241360868e+00 1.5727807030e+00 2.7241360868e+00 
129800 6.1816991937e+00 6.9059845468e-05 1.5727784491e+00 -2.7241321828e+00 1.5727784491e+00 2.7241321828e+00 
129900 6.1816992123e+00 7.0093223910e-05 1.5727784491e+00 -2.7241321828e+00 1.5727784491e+00 2.7241321828e+00 
130000 6.1816992306e+00 7.1110529655e-05 1.5727784491e+00 -2.7241321828e+00 1.5727784491e+00 2.7241321828e+00 
130100 6.1816992483e+00 6.9197335075e-05 1.5727761884e+00 -2.7241282672e+00 1.5727761884e+00 2.7241282672e+00 
130200 6.1816992660e+00 7.0167420829e-05 1.5727761884e+00 -2.7241282672e+00 1.5727761884e+00 2.7241282672e+00 
130300 6.1816992834e+00 7.1122411590e-05 1.5727761884e+00 -2.7241282672e+00 1.5727761884e+00 2.7241282672e+00 
130400 6.1816993003e+00 6.9147380554e-05 1.5727739273e+00 -2.7241243510e+00 1.5727739273e+00 2.7241243510e+00 
130500 6.1816993172e+00 7.0057081844e-05 1.5727739273e+00 -2.7241243510e+00 1.5727739273e+00 2.7241243510e+00 
130600 6.1816993338e+00 7.0952644031e-05 1.5727739273e+00 -2.7241243510e+00 1.5727739273e+00 2.7241243510e+00 
130700 6.1816993499e+00 6.8926087218e-05 1.5727716717e+00 -2.7241204441e+00 1.5727716717e+00 2.7241204441e+00 
130800 6.1816993659e+00 6.9778288998e-05 1.5727716717e+00 -2.7241204441e+00 1.5727716717e+00 2.7241204441e+00 
130900 6.1816993817e+00 7.0617286802e-05 1.5727716717e+00 -2.7241204441e+00 1.5727716717e+00 2.7241204441e+00 
131000 6.1816993973e+00 7.1443466273e-05 1.5727716717e+00 -2.7241204441e+00 1.5727716717e+00 2.7241204441e+00 
131100 6.1816994124e+00 6.9328708809e-05 1.5727694004e+00 -2.7241165101e+00 1.5727694004e+00 2.7241165101e+00 
131200 6.1816994275e+00 7.0114003846e-05 1.5727694004e+00 -2.7241165101e+00 1.5727694004e+00 2.7241165101e+00 
131300 6.1816994423e+00 7.0887361987e-05 1.5727694004e+00 -2.7241165101e+00 1.5727694004e+00 2.7241165101e+00 
131400 6.1816994567e+00 6.8743448636e-05 1.5727671468e+00 -2.7241126068e+00 1.5727671468e+00 2.7241126068e+00 
131500 6.1816994710e+00 6.9477794194e-05 1.5727671468e+00 -2.7241126068e+00 1.5727671468e+00 2.7241126068e+00 
131600 6.1816994851e+00 7.0201067760e-05 1.5727671468e+00 -2.7241126068e+00 1.5727671468e+00 2.7241126068e+00 
131700 6.1816994990e+00 7.0913631973e-05 1.5727671468e+00 -2.7241126068e+00 1.5727671468e+00 2.7241126068e+00 
131800 6.1816995125e+00 6.8709056652e-05 1.5727648924e+00 -2.7241087020e+00 1.5727648924e+00 2.7241087020e+00 
131900 6.1816995260e+00 6.9385007222e-05 1.5727648924e+00 -2.7241087020e+00 1.5727648924e+00 2.7241087020e+00 
132000 6.1816995392e+00 7.0051063903e-05 1.5727648924e+00 -2.7241087020e+00 1.5727648924e+00 2.7241087020e+00 
132100 6.1816995522e+00 7.0707573309e-05 1.5727648924e+00 -2.7241087020e+00 1.5727648924e+00 2.7241087020e+00 
132200 6.1816995651e+00 7.1354871857e-05 1.5727648924e+00 -2.7241087020e+00 1.5727648924e+00 2.7241087020e+00 
132300 6.1816995775e+00 6.9068417411e-05 1.5727626240e+00 -2.7241047730e+00 1.5727626240e+00 2.7241047730e+00 
132400 6.1816995899e+00 6.9681920950e-05 1.5727626240e+00 -2.7241047730e+00 1.5727626240e+00 2.7241047730e+00 
132500 6.1816996021e+00 7.0286951747e-05 1.5727626240e+00 -2.7241047730e+00 1.5727626240e+00 2.7241047730e+00 
132600 6.1816996141e+00 7.0883832024e-05 1.5727626240e+00 -2.7241047730e+00 1.5727626240e+00 2.7241047730e+00 
132700 6.1816996258e+00 6.8567311267e-05 1.5727603705e+00 -2.7241008698e+00 1.5727603705e+00 2.7241008698e+00 
132800 6.1816996374e+00 6.9132582822e-05 1.5727603705e+00 -2.7241008698e+00 1.5727603705e+00 2.7241008698e+00 
132900 6.1816996488e+00 6.9690401667e-05 1.5727603705e+00 -2.7241008698e+00 1.5727603705e+00 2.7241008698e+00 
133000 6.1816996601e+00 7.0241076203e-05 1.5727603705e+00 -2.7241008698e+00 1.5727603705e+00 2.7241008698e+00 
133100 6.1816996712e+00 7.0784905136e-05 1.5727603705e+00 -2.7241008698e+00 1.5727603705e+00 2.7241008698e+00 
133200 6.1816996819e+00 6.8420669871e-05 1.5727581202e+00 -2.7240969721e+00 1.5727581202e+00 2.7240969721e+00 
133300 6.1816996926e+00 6.8935453054e-05 1.5727581202e+00 -2.7240969721e+00 1.5727581202e+00 2.7240969721e+00 
133400 6.1816997032e+00 6.9444020257e-05 1.5727581202e+00 -2.7240969721e+00 1.5727581202e+00 2.7240969721e+00 
133500 6.1816997136e+00 6.9946657635e-05 1.5727581202e+00 -2.7240969721e+00 1.5727581202e+00 2.7240969721e+00 
133600 6.1816997238e+00 7.0443641950e-05 1.5727581202e+00 -2.7240969721e+00 1.5727581202e+00 2.7240969721e+00 
133700 6.1816997339e+00 7.0935240792e-05 1.5727581202e+00 -2.7240969721e+00 1.5727581202e+00 2.7240969721e+00 
133800 6.1816997436e+00 6.8514044804e-05 1.5727558650e+00 -2.7240930661e+00 1.5727558650e+00 2.7240930661e+00 
133900 6.1816997533e+00 6.8979391909e-05 1.5727558650e+00 -2.7240930661e+00 1.5727558650e+00 2.7240930661e+00 
134000 6.1816997629e+00 6.9439892358e-05 1.5727558650e+00 -2.7240930661e+00 1.5727558650e+00 2.7240930661e+00 
134100 6.1816997723e+00 6.9895803159e-05 1.5727558650e+00 -2.7240930661e+00 1.5727558650e+00 2.7240930661e+00 
134200 6.1816997816e+00 7.0347372387e-05 1.5727558650e+00 -2.7240930661e+00 1.5727558650e+00 2.7240930661e+00 
134300 6.1816997907e+00 7.0794839376e-05 1.5727558650e+00 -2.7240930661e+00 1.5727558650e+00 2.7240930661e+00 
134400 6.1816997995e+00 6.8336523682e-05 1.5727536144e+00 -2.7240891679e+00 1.5727536144e+00 2.7240891679e+00 
134500 6.1816998084e+00 6.8760254102e-05 1.5727536144e+00 -2.7240891679e+00 1.5727536144e+00 2.7240891679e+00 
134600 6.1816998171e+00 6.9180339359e-05 1.5727536144e+00 -2.7240891679e+00 1.5727536144e+00 2.7240891679e+00 
134700 6.1816998256e+00 6.9597009820e-05 1.5727536144e+00 -2.7240891679e+00 1.5727536144e+00 2.7240891679e+00 
134800 6.1816998340e+00 7.0010487309e-05 1.5727536144e+00 -2.7240891679e+00 1.5727536144e+00 2.7240891679e+00 
134900 6.1816998423e+00 7.0420985296e-05 1.5727536144e+00 -2.7240891679e+00 1.5727536144e+00 2.7240891679e+00 
135000 6.1816998505e+00 7.0828709086e-05 1.5727536144e+00 -2.7240891679e+00 1.5727536144e+00 2.7240891679e+00 
135100 6.1816998583e+00 6.8330559726e-05 1.5727513626e+00 -2.7240852677e+00 1.5727513626e+00 2.7240852677e+00 
135200 6.1816998662e+00 6.8717094887e-05 1.5727513626e+00 -2.7240852677e+00 1.5727513626e+00 2.7240852677e+00 
135300 6.1816998740e+00 6.9101214098e-05 1.5727513626e+00 -2.7240852677e+00 1.5727513626e+00 2.7240852677e+00 
135400 6.1816998817e+00 6.9483115869e-05 1.5727513626e+00 -2.7240852677e+00 1.5727513626e+00 2.7240852677e+00 
135500 6.1816998892e+00 6.9862990696e-05 1.5727513626e+00 -2.7240852677e+00 1.5727513626e+00 2.7240852677e+00 
135600 6.1816998966e+00 7.0241021218e-05 1.5727513626e+00 -2.7240852677e+00 1.5727513626e+00 2.7240852677e+00 
135700 6.1816999039e+00 7.0617382410e-05 1.5727513626e+00 -2.7240852677e+00 1.5727513626e+00 2.7240852677e+00 
135800 6.1816999111e+00 7.0992241754e-05 1.5727513626e+00 -2.7240852677e+00 1.5727513626e+00 2.7240852677e+00 
135900 6.1816999180e+00 6.8455764378e-05 1.5727491057e+00 -2.7240813586e+00 1.5727491057e+00 2.7240813586e+00 
136000 6.1816999250e+00 6.8811830905e-05 1.5727491057e+00 -2.7240813586e+00 1.5727491057e+00 2.7240813586e+00 
136100 6.1816999318e+00 6.9166643863e-05 1.5727491057e+00 -2.7240813586e+00 1.5727491057e+00 2.7240813586e+00 
136200 6.1816999386e+00 6.9520366575e-05 1.5727491057e+00 -2.7240813586e+00 1.5727491057e+00 2.7240813586e+00 
136300 6.1816999452e+00 6.9873154963e-05 1.5727491057e+00 -2.7240813586e+00 1.5727491057e+00 2.7240813586e+00 
136400 6.1816999518e+00 7.0225157706e-05 1.5727491057e+00 -2.7240813586e+00 1.5727491057e+00 2.7240813586e+00 
136500 6.1816999582e+00 7.0576516408e-05 1.5727491057e+00 -2.7240813586e+00 1.5727491057e+00 2.7240813586e+00 
136600 6.1816999646e+00 7.0927365774e-05 1.5727491057e+00 -2.7240813586e+00 1.5727491057e+00 2.7240813586e+00 
136700 6.1816999706e+00 6.8370501274e-05 1.5727468508e+00 -2.7240774530e+00 1.5727468508e+00 2.7240774530e+00 
136800 6.1816999768e+00 6.8704461087e-05 1.5727468508e+00 -2.7240774530e+00 1.5727468508e+00 2.7240774530e+00 
136900 6.1816999828e+00 6.9038065187e-05 1.5727468508e+00 -2.7240774530e+00 1.5727468508e+00 2.7240774530e+00 
137000 6.1816999888e+00 6.9371446357e-05 1.5727468508e+00 -2.7240774530e+00 1.5727468508e+00 2.7240774530e+00 
137100 6.1816999947e+00 6.9704730520e-05 1.5727468508e+00 -2.7240774530e+00 1.5727468508e+00 2.7240774530e+00 
137200 6.1817000005e+00 7.0038036895e-05 1.5727468508e+00 -2.7240774530e+00 1.5727468508e+00 2.7240774530e+00 
137300 6.1817000062e+00 7.0371478157e-05 1.5727468508e+00 -2.7240774530e+00 1.5727468508e+00 2.7240774530e+00 
137400 6.1817000118e+00 7.0705160600e-05 1.5727468508e+00 -2.7240774530e+00 1.5727468508e+00 2.7240774530e+00 
137500 6.1817000173e+00 7.1039184295e-05 1.5727468508e+00 -2.7240774530e+00 1.5727468508e+00 2.7240774530e+00 
137600 6.1817000225e+00 6.8461731095e-05 1.5727445924e+00 -2.7240735413e+00 1.5727445924e+00 2.7240735413e+00 
137700 6.1817000279e+00 6.8780438904e-05 1.5727445924e+00 -2.7240735413e+00 1.5727445924e+00 2.7240735413e+00 
137800 6.1817000332e+00 6.9099541405e-05 1.5727445924e+00 -2.7240735413e+00 1.5727445924e+00 2.7240735413e+00 
137900 6.1817000384e+00 6.9419139419e-05 1.5727445924e+00 -2.7240735413e+00 1.5727445924e+00 2.7240735413e+00 
138000 6.1817000435e+00 6.9739327538e-05 1.5727445924e+00 -2.7240735413e+00 1.5727445924e+00 2.7240735413e+00 
138100 6.1817000486e+00 7.0060194281e-05 1.5727445924e+00 -2.7240735413e+00 1.5727445924e+00 2.7240735413e+00 
138200 6.1817000535e+00 7.0381822242e-05 1.5727445924e+00 -2.7240735413e+00 1.5727445924e+00 2.7240735413e+00 
138300 6.1817000584e+00 7.0704288257e-05 1.5727445924e+00 -2.7240735413e+00 1.5727445924e+00 2.7240735413e+00 
138400 6.1817000633e+00 7.1027663533e-05 1.5727445924e+00 -2.7240735413e+00 1.5727445924e+00 2.7240735413e+00 
138500 6.1817000678e+00 6.8440576145e-05 1.5727423343e+00 -2.7240696302e+00 1.5727423343e+00 2.7240696302e+00 
138600 6.1817000725e+00 6.8749689355e-05 1.5727423343e+00 -2.7240696302e+00 1.5727423343e+00 2.7240696302e+00 
138700 6.1817000771e+00 6.9059682352e-05 1.5727423343e+00 -2.7240696302e+00 1.5727423343e+00 2.7240696302e+00 
138800 6.1817000817e+00 6.9370629448e-05 1.5727423343e+00 -2.7240696302e+00 1.5727423343e+00 2.7240696302e+00 
138900 6.1817000862e+00 6.9682599300e-05 1.5727423343e+00 -2.7240696302e+00 1.5727423343e+00 2.7240696302e+00 
139000 6.1817000906e+00 6.9995655059e-05 1.5727423343e+00 -2.7240696302e+00 1.5727423343e+00 2.7240696302e+00 
139100 6.1817000950e+00 7.0309854515e-05 1.5727423343e+00 -2.7240696302e+00 1.5727423343e+00 2.7240696302e+00 
139200 6.1817000993e+00 7.0625250248e-05 1.5727423343e+00 -2.7240696302e+00 1.5727423343e+00 2.7240696302e+00 
139300 6.1817001035e+00 7.0941889765e-05 1.5727423343e+00 -2.7240696302e+00 1.5727423343e+00 2.7240696302e+00 
139400 6.1817001075e+00 6.8351894621e-05 1.5727400789e+00 -2.7240657238e+00 1.5727400789e+00 2.7240657238e+00 
139500 6.1817001116e+00 6.8654891184e-05 1.5727400789e+00 -2.7240657238e+00 1.5727400789e+00 2.7240657238e+00 
139600 6.1817001156e+00 6.8959034487e-05 1.5727400789e+00 -2.7240657238e+00 1.5727400789e+00 2.7240657238e+00 
139700 6.1817001196e+00 6.9264377245e-05 1.5727400789e+00 -2.7240657238e+00 1.5727400789e+00 2.7240657238e+00 
139800 6.1817001236e+00 6.9570967045e-05 1.5727400789e+00 -2.7240657238e+00 1.5727400789e+00 2.7240657238e+00 
139900 6.1817001274e+00 6.9878846479e-05 1.5727400789e+00 -2.7240657238e+00 1.5727400789e+00 2.7240657238e+00 
140000 6.1817001313e+00 7.0188053293e-05 1.5727400789e+00 -2.7240657238e+00 1.5727400789e+00 2.7240657238e+00 
140100 6.1817001350e+00 7.0498620529e-05 1.5727400789e+00 -2.7240657238e+00 1.5727400789e+00 2.7240657238e+00 
140200 6.1817001388e+00 7.0810576659e-05 1.5727400789e+00 -2.7240657238e+00 1.5727400789e+00 2.7240657238e+00 
140300 6.1817001422e+00 6.8221406644e-05 1.5727378277e+00 -2.7240618246e+00 1.5727378277e+00 2.7240618246e+00 
140400 6.1817001458e+00 6.8519984393e-05 1.5727378277e+00 -2.7240618246e+00 1.5727378277e+00 2.7240618246e+00 
140500 6.1817001494e+00 6.8819800286e-05 1.5727378277e+00 -2.7240618246e+00 1.5727378277e+00 2.7240618246e+00 
140600 6.1817001529e+00 6.9120889915e-05 1.5727378277e+00 -2.7240618246e+00 1.5727378277e+00 2.7240618246e+00 
140700 6.1817001564e+00 6.9423284225e-05 1.5727378277e+00 -2.7240618246e+00 1.5727378277e+00 2.7240618246e+00 
140800 6.1817001598e+00 6.9727009637e-05 1.5727378277e+00 -2.7240618246e+00 1.5727378277e+00 2.7240618246e+00 
140900 6.1817001631e+00 7.0032088201e-05 1.5727378277e+00 -2.7240618246e+00 1.5727378277e+00 2.7240618246e+00 
141000 6.1817001665e+00 7.0338537725e-05 1.5727378277e+00 -2.7240618246e+00 1.5727378277e+00 2.7240618246e+00 
141100 6.1817001697e+00 7.0646371910e-05 1.5727378277e+00 -2.7240618246e+00 1.5727378277e+00 2.7240618246e+00 
141200 6.1817001730e+00 7.0955600486e-05 1.5727378277e+00 -2.7240618246e+00 1.5727378277e+00 2.7240618246e+00 
141300 6.1817001759e+00 6.8357744963e-05 1.5727355719e+00 -2.7240579175e+00 1.5727355719e+00 2.7240579175e+00 
141400 6.1817001791e+00 6.8653518375e-05 1.5727355719e+00 -2.7240579175e+00 1.5727355719e+00 2.7240579175e+00 
141500 6.1817001822e+00 6.8950482324e-05 1.5727355719e+00 -2.7240579175e+00 1.5727355719e+00 2.7240579175e+00 
141600 6.1817001852e+00 6.9248656027e-05 1.5727355719e+00 -2.7240579175e+00 1.5727355719e+00 2.7240579175e+00 
141700 6.1817001882e+00 6.9548054609e-05 1.5727355719e+00 -2.7240579175e+00 1.5727355719e+00 2.7240579175e+00 
141800 6.1817001912e+00 6.9848689243e-05 1.5727355719e+00 -2.7240579175e+00 1.5727355719e+00 2.7240579175e+00 
141900 6.1817001941e+00 7.0150567273e-05 1.5727355719e+00 -2.7240579175e+00 1.5727355719e+00 2.7240579175e+00 
142000 6.1817001970e+00 7.0453692348e-05 1.5727355719e+00 -2.7240579175e+00 1.5727355719e+00 2.7240579175e+00 
142100 6.1817001998e+00 7.0758064550e-05 1.5727355719e+00 -2.7240579175e+00 1.5727355719e+00 2.7240579175e+00 
142200 6.1817002024e+00 6.8163289962e-05 1.5727333224e+00 -2.7240540212e+00 1.5727333224e+00 2.7240540212e+00 
142300 6.1817002052e+00 6.8453929855e-05 1.5727333224e+00 -2.7240540212e+00 1.5727333224e+00 2.7240540212e+00 
142400 6.1817002079e+00 6.8745587098e-05 1.5727333224e+00 -2.7240540212e+00 1.5727333224e+00 2.7240540212e+00 
142500 6.1817002106e+00 6.9038272766e-05 1.5727333224e+00 -2.7240540212e+00 1.5727333224e+00 2.7240540212e+00 
142600 6.1817002133e+00 6.9331994228e-05 1.5727333224e+00 -2.7240540212e+00 1.5727333224e+00 2.7240540212e+00 
142700 6.1817002159e+00 6.9626755278e-05 1.5727333224e+00 -2.7240540212e+00 1.5727333224e+00 2.7240540212e+00 
142800 6.1817002184e+00 6.9922556253e-05 1.5727333224e+00 -2.7240540212e+00 1.5727333224e+00 2.7240540212e+00 
142900 6.1817002210e+00 7.0219394167e-05 1.5727333224e+00 -2.7240540212e+00 1.5727333224e+00 2.7240540212e+00 
143000 6.1817002235e+00 7.0517262829e-05 1.5727333224e+00 -2.7240540212e+00 1.5727333224e+00 2.7240540212e+00 
143100 6.1817002260e+00 7.0816152969e-05 1.5727333224e+00 -2.7240540212e+00 1.5727333224e+00 2.7240540212e+00 
143200 6.1817002282e+00 6.8213277398e-05 1.5727310710e+00 -2.7240501217e+00 1.5727310710e+00 2.7240501217e+00 
143300 6.1817002306e+00 6.8497943907e-05 1.5727310710e+00 -2.7240501217e+00 1.5727310710e+00 2.7240501217e+00 
143400 6.1817002330e+00 6.8783376785e-05 1.5727310710e+00 -2.7240501217e+00 1.5727310710e+00 2.7240501217e+00 
143500 6.1817002353e+00 6.9069579657e-05 1.5727310710e+00 -2.7240501217e+00 1.5727310710e+00 2.7240501217e+00 
143600 6.1817002376e+00 6.9356552890e-05 1.5727310710e+00 -2.7240501217e+00 1.5727310710e+00 2.7240501217e+00 
143700 6.1817002399e+00 6.9644293726e-05 1.5727310710e+00 -2.7240501217e+00 1.5727310710e+00 2.7240501217e+00 
143800 6.1817002421e+00 6.9932796387e-05 1.5727310710e+00 -2.7240501217e+00 1.5727310710e+00 2.7240501217e+00 
143900 6.1817002443e+00 7.0222052210e-05 1.5727310710e+00 -2.7240501217e+00 1.5727310710e+00 2.7240501217e+00 
144000 6.1817002465e+00 7.0512049748e-05 1.5727310710e+00 -2.7240501217e+00 1.5727310710e+00 2.7240501217e+00 
144100 6.1817002487e+00 7.0802774902e-05 1.5727310710e+00 -2.7240501217e+00 1.5727310710e+00 2.7240501217e+00 
144200 6.1817002506e+00 6.8191979907e-05 1.5727288201e+00 -2.7240462229e+00 1.5727288201e+00 2.7240462229e+00 
144300 6.1817002527e+00 6.8467883386e-05 1.5727288201e+00 -2.7240462229e+00 1.5727288201e+00 2.7240462229e+00 
144400 6.1817002547e+00 6.8744247396e-05 1.5727288201e+00 -2.7240462229e+00 1.5727288201e+00 2.7240462229e+00 
144500 6.1817002568e+00 6.9021072324e-05 1.5727288201e+00 -2.7240462229e+00 1.5727288201e+00 2.7240462229e+00 
144600 6.1817002588e+00 6.9298355697e-05 1.5727288201e+00 -2.7240462229e+00 1.5727288201e+00 2.7240462229e+00 
144700 6.1817002608e+00 6.9576092276e-05 1.5727288201e+00 -2.7240462229e+00 1.5727288201e+00 2.7240462229e+00 
144800 6.1817002627e+00 6.9854274188e-05 1.5727288201e+00 -2.7240462229e+00 1.5727288201e+00 2.7240462229e+00 
144900 6.1817002646e+00 7.0132891028e-05 1.5727288201e+00 -2.7240462229e+00 1.5727288201e+00 2.7240462229e+00 
145000 6.1817002665e+00 7.0411929965e-05 1.5727288201e+00 -2.7240462229e+00 1.5727288201e+00 2.7240462229e+00 
145100 6.1817002684e+00 7.0691375860e-05 1.5727288201e+00 -2.7240462229e+00 1.5727288201e+00 2.7240462229e+00 
145200 6.1817002703e+00 7.0971211364e-05 1.5727288201e+00 -2.7240462229e+00 1.5727288201e+00 2.7240462229e+00 
145300 6.1817002719e+00 6.8342276772e-05 1.5727265638e+00 -2.7240423149e+00 1.5727265638e+00 2.7240423149e+00 
145400 6.1817002737e+00 6.8606567514e-05 1.5727265638e+00 -2.7240423149e+00 1.5727265638e+00 2.7240423149e+00 
145500 6.1817002754e+00 6.8870973230e-05 1.5727265638e+00 -2.7240423149e+00 1.5727265638e+00 2.7240423149e+00 
145600 6.1817002772e+00 6.9135492848e-05 1.5727265638e+00 -2.7240423149e+00 1.5727265638e+00 2.7240423149e+00 
145700 6.1817002789e+00 6.9400122833e-05 1.5727265638e+00 -2.7240423149e+00 1.5727265638e+00 2.7240423149e+00 
145800 6.1817002806e+00 6.9664857297e-05 1.5727265638e+00 -2.7240423149e+00 1.5727265638e+00 2.7240423149e+00 
145900 6.1817002823e+00 6.9929688095e-05 1.5727265638e+00 -2.7240423149e+00 1.5727265638e+00 2.7240423149e+00 
146000 6.1817002839e+00 7.0194604935e-05 1.5727265638e+00 -2.7240423149e+00 1.5727265638e+00 2.7240423149e+00 
146100 6.1817002856e+00 7.0459595468e-05 1.5727265638e+00 -2.7240423149e+00 1.5727265638e+00 2.7240423149e+00 
146200 6.1817002872e+00 7.0724645391e-05 1.5727265638e+00 -2.7240423149e+00 1.5727265638e+00 2.7240423149e+00 
146300 6.1817002886e+00 6.8090698635e-05 1.5727243153e+00 -2.7240384204e+00 1.5727243153e+00 2.7240384204e+00 
146400 6.1817002901e+00 6.8339609588e-05 1.5727243153e+00 -2.7240384204e+00 1.5727243153e+00 2.7240384204e+00 
146500 6.1817002917e+00 6.8588316649e-05 1.5727243153e+00 -2.7240384204e+00 1.5727243153e+00 2.7240384204e+00 
146600 6.1817002932e+00 6.8836822645e-05 1.5727243153e+00 -2.7240384204e+00 1.5727243153e+00 2.7240384204e+00 
146700 6.1817002947e+00 6.9085128160e-05 1.5727243153e+00 -2.7240384204e+00 1.5727243153e+00 2.7240384204e+00 
146800 6.1817002962e+00 6.9333231625e-05 1.5727243153e+00 -2.7240384204e+00 1.5727243153e+00 2.7240384204e+00 
146900 6.1817002976e+00 6.9581129426e-05 1.5727243153e+00 -2.7240384204e+00 1.5727243153e+00 2.7240384204e+00 
147000 6.1817002991e+00 6.9828815985e-05 1.5727243153e+00 -2.7240384204e+00 1.5727243153e+00 2.7240384204e+00 
147100 6.1817003005e+00 7.0076283861e-05 1.5727243153e+00 -2.7240384204e+00 1.5727243153e+00 2.7240384204e+00 
147200 6.1817003019e+00 7.0323523838e-05 1.5727243153e+00 -2.7240384204e+00 1.5727243153e+00 2.7240384204e+00 
147300 6.1817003033e+00 7.0570525016e-05 1.5727243153e+00 -2.7240384204e+00 1.5727243153e+00 2.7240384204e+00 
147400 6.1817003046e+00 7.0817274898e-05 1.5727243153e+00 -2.7240384204e+00 1.5727243153e+00 2.7240384204e+00 
147500 6.1817003058e+00 6.8160916525e-05 1.5727220639e+00 -2.7240345209e+00 1.5727220639e+00 2.7240345209e+00 
147600 6.1817003071e+00 6.8390891180e-05 1.5727220639e+00 -2.7240345209e+00 1.5727220639e+00 2.7240345209e+00 
147700 6.1817003084e+00 6.8620358462e-05 1.5727220639e+00 -2.7240345209e+00 1.5727220639e+00 2.7240345209e+00 
147800 6.1817003097e+00 6.8849324351e-05 1.5727220639e+00 -2.7240345209e+00 1.5727220639e+00 2.7240345209e+00 
147900 6.1817003110e+00 6.9077792886e-05 1.5727220639e+00 -2.7240345209e+00 1.5727220639e+00 2.7240345209e+00 
148000 6.1817003122e+00 6.9305766247e-05 1.5727220639e+00 -2.7240345209e+00 1.5727220639e+00 2.7240345209e+00 
148100 6.1817003135e+00 6.9533244849e-05 1.5727220639e+00 -2.7240345209e+00 1.5727220639e+00 2.7240345209e+00 
148200 6.1817003147e+00 6.9760227416e-05 1.5727220639e+00 -2.7240345209e+00 1.5727220639e+00 2.7240345209e+00 
148300 6.1817003159e+00 6.9986711065e-05 1.5727220639e+00 -2.7240345209e+00 1.5727220639e+00 2.7240345209e+00 
148400 6.1817003171e+00 7.0212691396e-05 1.5727220639e+00 -2.7240345209e+00 1.5727220639e+00 2.7240345209e+00 
148500 6.1817003182e+00 7.0438162558e-05 1.5727220639e+00 -2.7240345209e+00 1.5727220639e+00 2.7240345209e+00 
148600 6.1817003194e+00 7.0663117333e-05 1.5727220639e+00 -2.7240345209e+00 1.5727220639e+00 2.7240345209e+00 
148700 6.1817003205e+00 7.0887547217e-05 1.5727220639e+00 -2.7240345209e+00 1.5727220639e+00 2.7240345209e+00 
148800 6.1817003215e+00 6.8205712507e-05 1.5727198102e+00 -2.7240306174e+00 1.5727198102e+00 2.7240306174e+00 
148900 6.1817003226e+00 6.8412816613e-05 1.5727198102e+00 -2.7240306174e+00 1.5727198102e+00 2.7240306174e+00 
149000 6.1817003237e+00 6.8619153272e-05 1.5727198102e+00 -2.7240306174e+00 1.5727198102e+00 2.7240306174e+00 
149100 6.1817003248e+00 6.8824733582e-05 1.5727198102e+00 -2.7240306174e+00 1.5727198102e+00 2.7240306174e+00 
149200 6.1817003258e+00 6.9029566950e-05 1.5727198102e+00 -2.7240306174e+00 1.5727198102e+00 2.7240306174e+00 
149300 6.1817003269e+00 6.9233661161e-05 1.5727198102e+00 -2.7240306174e+00 1.5727198102e+00 2.7240306174e+00 
149400 6.1817003279e+00 6.9437022457e-05 1.5727198102e+00 -2.7240306174e+00 1.5727198102e+00 2.7240306174e+00 
149500 6.1817003289e+00 6.9639655603e-05 1.5727198102e+00 -2.7240306174e+00 1.5727198102e+00 2.7240306174e+00 
149600 6.1817003300e+00 6.9841563961e-05 1.5727198102e+00 -2.7240306174e+00 1.5727198102e+00 2.7240306174e+00 
149700 6.1817003310e+00 7.0042749561e-05 1.5727198102e+00 -2.7240306174e+00 1.5727198102e+00 2.7240306174e+00 
149800 6.1817003319e+00 7.0243213169e-05 1.5727198102e+00 -2.7240306174e+00 1.5727198102e+00 2.7240306174e+00 
149900 6.1817003329e+00 7.0442954348e-05 1.5727198102e+00 -2.7240306174e+00 1.5727198102e+00 2.7240306174e+00 
150000 6.1817003339e+00 7.0641971538e-05 1.5727198102e+00 -2.7240306174e+00 1.5727198102e+00 2.7240306174e+00 
150100 6.1817003348e+00 7.0840262107e-05 1.5727198102e+00 -2.7240306174e+00 1.5727198102e+00 2.7240306174e+00 
150200 6.1817003355e+00 6.8134023778e-05 1.5727175581e+00 -2.7240267166e+00 1.5727175581e+00 2.7240267166e+00 
150300 6.1817003365e+00 6.8314614056e-05 1.5727175581e+00 -2.7240267166e+00 1.5727175581e+00 2.7240267166e+00 
150400 6.1817003374e+00 6.8494254179e-05 1.5727175581e+00 -2.7240267166e+00 1.5727175581e+00 2.7240267166e+00 
150500 6.1817003383e+00 6.8672961875e-05 1.5727175581e+00 -2.7240267166e+00 1.5727175581e+00 2.7240267166e+00 
150600 6.1817003392e+00 6.8850753350e-05 1.5727175581e+00 -2.7240267166e+00 1.5727175581e+00 2.7240267166e+00 
150700 6.1817003400e+00 6.9027643339e-05 1.5727175581e+00 -2.7240267166e+00 1.5727175581e+00 2.7240267166e+00 
150800 6.1817003409e+00 6.9203645175e-05 1.5727175581e+00 -2.7240267166e+00 1.5727175581e+00 2.7240267166e+00 
150900 6.1817003417e+00 6.9378770850e-05 1.5727175581e+00 -2.7240267166e+00 1.5727175581e+00 2.7240267166e+00 
151000 6.1817003426e+00 6.9553031075e-05 1.5727175581e+00 -2.7240267166e+00 1.5727175581e+00 2.7240267166e+00 
151100 6.1817003434e+00 6.9726435337e-05 1.5727175581e+00 -2.7240267166e+00 1.5727175581e+00 2.7240267166e+00 
151200 6.1817003442e+00 6.9898991955e-05 1.5727175581e+00 -2.7240267166e+00 1.5727175581e+00 2.7240267166e+00 
151300 6.1817003450e+00 7.0070708147e-05 1.5727175581e+00 -2.7240267166e+00 1.5727175581e+00 2.7240267166e+00 
151400 6.1817003458e+00 7.0241590075e-05 1.5727175581e+00 -2.7240267166e+00 1.5727175581e+00 2.7240267166e+00 
151500 6.1817003466e+00 7.0411642902e-05 1.5727175581e+00 -2.7240267166e+00 1.5727175581e+00 2.7240267166e+00 
151600 6.1817003474e+00 7.0580870849e-05 1.5727175581e+00 -2.7240267166e+00 1.5727175581e+00 2.7240267166e+00 
151700 6.1817003481e+00 7.0749277247e-05 1.5727175581e+00 -2.7240267166e+00 1.5727175581e+00 2.7240267166e+00 
151800 6.1817003487e+00 6.8016788636e-05 1.5727153088e+00 -2.7240228207e+00 1.5727153088e+00 2.7240228207e+00 
151900 6.1817003494e+00 6.8167343943e-05 1.5727153088e+00 -2.7240228207e+00 1.5727153088e+00 2.7240228207e+00 
152000 6.1817003502e+00 6.8316873283e-05 1.5727153088e+00 -2.7240228207e+00 1.5727153088e+00 2.7240228207e+00 
152100 6.1817003509e+00 6.8465400898e-05 1.5727153088e+00 -2.7240228207e+00 1.5727153088e+00 2.7240228207e+00 
152200 6.1817003516e+00 6.8612949617e-05 1.5727153088e+00 -2.7240228207e+00 1.5727153088e+00 2.7240228207e+00 
152300 6.1817003523e+00 6.8759540912e-05 1.5727153088e+00 -2.7240228207e+00 1.5727153088e+00 2.7240228207e+00 
152400 6.1817003530e+00 6.8905194946e-05 1.5727153088e+00 -2.7240228207e+00 1.5727153088e+00 2.7240228207e+00 
152500 6.1817003537e+00 6.9049930627e-05 1.5727153088e+00 -2.7240228207e+00 1.5727153088e+00 2.7240228207e+00 
152600 6.1817003544e+00 6.9193765648e-05 1.5727153088e+00 -2.7240228207e+00 1.5727153088e+00 2.7240228207e+00 
152700 6.1817003551e+00 6.9336716553e-05 1.5727153088e+00 -2.7240228207e+00 1.5727153088e+00 2.7240228207e+00 
152800 6.1817003557e+00 6.9478798767e-05 1.5727153088e+00 -2.7240228207e+00 1.5727153088e+00 2.7240228207e+00 
152900 6.1817003564e+00 6.9620026654e-05 1.5727153088e+00 -2.7240228207e+00 1.5727153088e+00 2.7240228207e+00 
153000 6.1817003570e+00 6.9760413560e-05 1.5727153088e+00 -2.7240228207e+00 1.5727153088e+00 2.7240228207e+00 
153100 6.1817003577e+00 6.9899971857e-05 1.5727153088e+00 -2.7240228207e+00 1.5727153088e+00 2.7240228207e+00 
153200 6.1817003583e+00 7.0038712990e-05 1.5727153088e+00 -2.7240228207e+00 1.5727153088e+00 2.7240228207e+00 
153300 6.1817003589e+00 7.0176647516e-05 1.5727153088e+00 -2.7240228207e+00 1.5727153088e+00 2.7240228207e+00 
153400 6.1817003595e+00 7.0313785155e-05 1.5727153088e+00 -2.7240228207e+00 1.5727153088e+00 2.7240228207e+00 
153500 6.1817003601e+00 7.0450134816e-05 1.5727153088e+00 -2.7240228207e+00 1.5727153088e+00 2.7240228207e+00 
153600 6.1817003607e+00 7.0585704653e-05 1.5727153088e+00 -2.7240228207e+00 1.5727153088e+00 2.7240228207e+00 
153700 6.1817003613e+00 7.0720502099e-05 1.5727153088e+00 -2.7240228207e+00 1.5727153088e+00 2.7240228207e+00 
153800 6.1817003617e+00 6.7955631221e-05 1.5727130605e+00 -2.7240189264e+00 1.5727130605e+00 2.7240189264e+00 
153900 6.1817003623e+00 6.8072695085e-05 1.5727130605e+00 -2.7240189264e+00 1.5727130605e+00 2.7240189264e+00 
154000 6.1817003628e+00 6.8188795455e-05 1.5727130605e+00 -2.7240189264e+00 1.5727130605e+00 2.7240189264e+00 
154100 6.1817003634e+00 6.8303961223e-05 1.5727130605e+00 -2.7240189264e+00 1.5727130605e+00 2.7240189264e+00 
154200 6.1817003639e+00 6.8418219972e-05 1.5727130605e+00 -2.7240189264e+00 1.5727130605e+00 2.7240189264e+00 
154300 6.1817003645e+00 6.8531598024e-05 1.5727130605e+00 -2.7240189264e+00 1.5727130605e+00 2.7240189264e+00 
154400 6.1817003650e+00 6.8644120483e-05 1.5727130605e+00 -2.7240189264e+00 1.5727130605e+00 2.7240189264e+00 
154500 6.1817003655e+00 6.8755811267e-05 1.5727130605e+00 -2.7240189264e+00 1.5727130605e+00 2.7240189264e+00 
154600 6.1817003661e+00 6.8866693155e-05 1.5727130605e+00 -2.7240189264e+00 1.5727130605e+00 2.7240189264e+00 
154700 6.1817003666e+00 6.8976787817e-05 1.5727130605e+00 -2.7240189264e+00 1.5727130605e+00 2.7240189264e+00 
154800 6.1817003671e+00 6.9086115863e-05 1.5727130605e+00 -2.7240189264e+00 1.5727130605e+00 2.7240189264e+00 
154900 6.1817003676e+00 6.9194696868e-05 1.5727130605e+00 -2.7240189264e+00 1.5727130605e+00 2.7240189264e+00 
155000 6.1817003681e+00 6.9302549414e-05 1.5727130605e+00 -2.7240189264e+00 1.5727130605e+00 2.7240189264e+00 
155100 6.1817003686e+00 6.9409691132e-05 1.5727130605e+00 -2.7240189264e+00 1.5727130605e+00 2.7240189264e+00 
155200 6.1817003691e+00 6.9516138720e-05 1.5727130605e+00 -2.7240189264e+00 1.5727130605e+00 2.7240189264e+00 
155300 6.1817003695e+00 6.9621907996e-05 1.5727130605e+00 -2.7240189264e+00 1.5727130605e+00 2.7240189264e+00 
155400 6.1817003700e+00 6.9727013926e-05 1.5727130605e+00 -2.7240189264e+00 1.5727130605e+00 2.7240189264e+00 
155500 6.1817003705e+00 6.9831470647e-05 1.5727130605e+00 -2.7240189264e+00 1.5727130605e+00 2.7240189264e+00 
155600 6.1817003709e+00 6.9935291515e-05 1.5727130605e+00 -2.7240189264e+00 1.5727130605e+00 2.7240189264e+00 
155700 6.1817003714e+00 7.0038489128e-05 1.5727130605e+00 -2.7240189264e+00 1.5727130605e+00 2.7240189264e+00 
155800 6.1817003718e+00 7.0141075357e-05 1.5727130605e+00 -2.7240189264e+00 1.5727130605e+00 2.7240189264e+00 
155900 6.1817003723e+00 7.0243061373e-05 1.5727130605e+00 -2.7240189264e+00 1.5727130605e+00 2.7240189264e+00 
156000 6.1817003727e+00 7.0344457692e-05 1.5727130605e+00 -2.7240189264e+00 1.5727130605e+00 2.7240189264e+00 
156100 6.1817003731e+00 7.0445274184e-05 1.5727130605e+00 -2.7240189264e+00 1.5727130605e+00 2.7240189264e+00 
156200 6.1817003736e+00 7.0545520114e-05 1.5727130605e+00 -2.7240189264e+00 1.5727130605e+00 2.7240189264e+00 
156300 6.1817003740e+00 7.0645204164e-05 1.5727130605e+00 -2.7240189264e+00 1.5727130605e+00 2.7240189264e+00 
156400 6.1817003744e+00 7.0744334466e-05 1.5727130605e+00 -2.7240189264e+00 1.5727130605e+00 2.7240189264e+00 
156500 6.1817003746e+00 6.7943033769e-05 1.5727108113e+00 -2.7240150309e+00 1.5727108113e+00 2.7240150309e+00 
156600 6.1817003750e+00 6.8024864674e-05 1.5727108113e+00 -2.7240150309e+00 1.5727108113e+00 2.7240150309e+00 
156700 6.1817003754e+00 6.8105953679e-05 1.5727108113e+00 -2.7240150309e+00 1.5727108113e+00 2.7240150309e+00 
156800 6.1817003758e+00 6.8186330924e-05 1.5727108113e+00 -2.7240150309e+00 1.5727108113e+00 2.7240150309e+00 
156900 6.1817003762e+00 6.8266025357e-05 1.5727108113e+00 -2.7240150309e+00 1.5727108113e+00 2.7240150309e+00 
157000 6.1817003766e+00 6.8345064764e-05 1.5727108113e+00 -2.7240150309e+00 1.5727108113e+00 2.7240150309e+00 
157100 6.1817003770e+00 6.8423475793e-05 1.5727108113e+00 -2.7240150309e+00 1.5727108113e+00 2.7240150309e+00 
157200 6.1817003773e+00 6.8501283986e-05 1.5727108113e+00 -2.7240150309e+00 1.5727108113e+00 2.7240150309e+00 
157300 6.1817003777e+00 6.8578513816e-05 1.5727108113e+00 -2.7240150309e+00 1.5727108113e+00 2.7240150309e+00 
157400 6.1817003781e+00 6.8655188703e-05 1.5727108113e+00 -2.7240150309e+00 1.5727108113e+00 2.7240150309e+00 
157500 6.1817003784e+00 6.8731331047e-05 1.5727108113e+00 -2.7240150309e+00 1.5727108113e+00 2.7240150309e+00 
157600 6.1817003788e+00 6.8806962262e-05 1.5727108113e+00 -2.7240150309e+00 1.5727108113e+00 2.7240150309e+00 
157700 6.1817003791e+00 6.8882102795e-05 1.5727108113e+00 -2.7240150309e+00 1.5727108113e+00 2.7240150309e+00 
157800 6.1817003795e+00 6.8956772159e-05 1.5727108113e+00 -2.7240150309e+00 1.5727108113e+00 2.7240150309e+00 
157900 6.1817003798e+00 6.9030988956e-05 1.5727108113e+00 -2.7240150309e+00 1.5727108113e+00 2.7240150309e+00 
158000 6.1817003802e+00 6.9104770907e-05 1.5727108113e+00 -2.7240150309e+00 1.5727108113e+00 2.7240150309e+00 
158100 6.1817003805e+00 6.9178134878e-05 1.5727108113e+00 -2.7240150309e+00 1.5727108113e+00 2.7240150309e+00 
158200 6.1817003808e+00 6.9251096902e-05 1.5727108113e+00 -2.7240150309e+00 1.5727108113e+00 2.7240150309e+00 
158300 6.1817003811e+00 6.9323672208e-05 1.5727108113e+00 -2.7240150309e+00 1.5727108113e+00 2.7240150309e+00 
158400 6.1817003815e+00 6.9395875248e-05 1.5727108113e+00 -2.7240150309e+00 1.5727108113e+00 2.7240150309e+00 
158500 6.1817003818e+00 6.9467719715e-05 1.5727108113e+00 -2.7240150309e+00 1.5727108113e+00 2.7240150309e+00 
158600 6.1817003821e+00 6.9539218575e-05 1.5727108113e+00 -2.7240150309e+00 1.5727108113e+00 2.7240150309e+00 
158700 6.1817003824e+00 6.9610384085e-05 1.5727108113e+00 -2.7240150309e+00 1.5727108113e+00 2.7240150309e+00 
158800 6.1817003827e+00 6.9681227816e-05 1.5727108113e+00 -2.7240150309e+00 1.5727108113e+00 2.7240150309e+00 
158900 6.1817003830e+00 6.9751760682e-05 1.5727108113e+00 -2.7240150309e+00 1.5727108113e+00 2.7240150309e+00 
159000 6.1817003833e+00 6.9821992959e-05 1.5727108113e+00 -2.7240150309e+00 1.5727108113e+00 2.7240150309e+00 
159100 6.1817003836e+00 6.9891934305e-05 1.5727108113e+00 -2.7240150309e+00 1.5727108113e+00 2.7240150309e+00 
159200 6.1817003839e+00 6.9961593783e-05 1.5727108113e+00 -2.7240150309e+00 1.5727108113e+00 2.7240150309e+00 
159300 6.1817003842e+00 7.0030979887e-05 1.5727108113e+00 -2.7240150309e+00 1.5727108113e+00 2.7240150309e+00 
159400 6.1817003844e+00 7.0100100558e-05 1.5727108113e+00 -2.7240150309e+00 1.5727108113e+00 2.7240150309e+00 
159500 6.1817003847e+00 7.0168963201e-05 1.5727108113e+00 -2.7240150309e+00 1.5727108113e+00 2.7240150309e+00 
159600 6.1817003850e+00 7.0237574713e-05 1.5727108113e+00 -2.7240150309e+00 1.5727108113e+00 2.7240150309e+00 
159700 6.1817003853e+00 7.0305941500e-05 1.5727108113e+00 -2.7240150309e+00 1.5727108113e+00 2.7240150309e+00 
159800 6.1817003855e+00 7.0374069490e-05 1.5727108113e+00 -2.7240150309e+00 1.5727108113e+00 2.7240150309e+00 
159900 6.1817003858e+00 7.0441964161e-05 1.5727108113e+00 -2.7240150309e+00 1.5727108113e+00 2.7240150309e+00 
160000 6.1817003861e+00 7.0509630554e-05 1.5727108113e+00 -2.7240150309e+00 1.5727108113e+00 2.7240150309e+00 
160100 6.1817003863e+00 7.0577073292e-05 1.5727108113e+00 -2.7240150309e+00 1.5727108113e+00 2.7240150309e+00 
160200 6.1817003866e+00 7.0644296595e-05 1.5727108113e+00 -2.7240150309e+00 1.5727108113e+00 2.7240150309e+00 
160300 6.1817003868e+00 7.0711304302e-05 1.5727108113e+00 -2.7240150309e+00 1.5727108113e+00 2.7240150309e+00 
160400 6.1817003869e+00 6.7879564762e-05 1.5727085633e+00 -2.7240111371e+00 1.5727085633e+00 2.7240111371e+00 
160500 6.1817003871e+00 6.7929944316e-05 1.5727085633e+00 -2.7240111371e+00 1.5727085633e+00 2.7240111371e+00 
160600 6.1817003874e+00 6.7979908315e-05 1.5727085633e+00 -2.7240111371e+00 1.5727085633e+00 2.7240111371e+00 
160700 6.1817003876e+00 6.8029483183e-05 1.5727085633e+00 -2.7240111371e+00 1.5727085633e+00 2.7240111371e+00 
160800 6.1817003878e+00 6.8078694278e-05 1.5727085633e+00 -2.7240111371e+00 1.5727085633e+00 2.7240111371e+00 
160900 6.1817003881e+00 6.8127565909e-05 1.5727085633e+00 -2.7240111371e+00 1.5727085633e+00 2.7240111371e+00 
161000 6.1817003883e+00 6.8176121372e-05 1.5727085633e+00 -2.7240111371e+00 1.5727085633e+00 2.7240111371e+00 
161100 6.1817003885e+00 6.8224382945e-05 1.5727085633e+00 -2.7240111371e+00 1.5727085633e+00 2.7240111371e+00 
161200 6.1817003887e+00 6.8272371932e-05 1.5727085633e+00 -2.7240111371e+00 1.5727085633e+00 2.7240111371e+00 
161300 6.1817003890e+00 6.8320108680e-05 1.5727085633e+00 -2.7240111371e+00 1.5727085633e+00 2.7240111371e+00 
161400 6.1817003892e+00 6.8367612595e-05 1.5727085633e+00 -2.7240111371e+00 1.5727085633e+00 2.7240111371e+00 
161500 6.1817003894e+00 6.8414902169e-05 1.5727085633e+00 -2.7240111371e+00 1.5727085633e+00 2.7240111371e+00 
161600 6.1817003896e+00 6.8461994994e-05 1.5727085633e+00 -2.7240111371e+00 1.5727085633e+00 2.7240111371e+00 
161700 6.1817003898e+00 6.8508907800e-05 1.5727085633e+00 -2.7240111371e+00 1.5727085633e+00 2.7240111371e+00 
161800 6.1817003900e+00 6.8555656451e-05 1.5727085633e+00 -2.7240111371e+00 1.5727085633e+00 2.7240111371e+00 
161900 6.1817003902e+00 6.8602255992e-05 1.5727085633e+00 -2.7240111371e+00 1.5727085633e+00 2.7240111371e+00 
162000 6.1817003904e+00 6.8648720650e-05 1.5727085633e+00 -2.7240111371e+00 1.5727085633e+00 2.7240111371e+00 
162100 6.1817003906e+00 6.8695063867e-05 1.5727085633e+00 -2.7240111371e+00 1.5727085633e+00 2.7240111371e+00 
162200 6.1817003908e+00 6.8741298318e-05 1.5727085633e+00 -2.7240111371e+00 1.5727085633e+00 2.7240111371e+00 
162300 6.1817003910e+00 6.8787435928e-05 1.5727085633e+00 -2.7240111371e+00 1.5727085633e+00 2.7240111371e+00 
162400 6.1817003912e+00 6.8833487896e-05 1.5727085633e+00 -2.7240111371e+00 1.5727085633e+00 2.7240111371e+00 
162500 6.1817003914e+00 6.8879464715e-05 1.5727085633e+00 -2.7240111371e+00 1.5727085633e+00 2.7240111371e+00 
162600 6.1817003916e+00 6.8925376189e-05 1.5727085633e+00 -2.7240111371e+00 1.5727085633e+00 2.7240111371e+00 
162700 6.1817003918e+00 6.8971231456e-05 1.5727085633e+00 -2.7240111371e+00 1.5727085633e+00 2.7240111371e+00 
162800 6.1817003920e+00 6.9017039011e-05 1.5727085633e+00 -2.7240111371e+00 1.5727085633e+00 2.7240111371e+00 
162900 6.1817003921e+00 6.9062806713e-05 1.5727085633e+00 -2.7240111371e+00 1.5727085633e+00 2.7240111371e+00 
163000 6.1817003923e+00 6.9108541821e-05 1.5727085633e+00 -2.7240111371e+00 1.5727085633e+00 2.7240111371e+00 
163100 6.1817003925e+00 6.9154251000e-05 1.5727085633e+00 -2.7240111371e+00 1.5727085633e+00 2.7240111371e+00 
163200 6.1817003927e+00 6.9199940346e-05 1.5727085633e+00 -2.7240111371e+00 1.5727085633e+00 2.7240111371e+00 
163300 6.1817003928e+00 6.9245615405e-05 1.5727085633e+00 -2.7240111371e+00 1.5727085633e+00 2.7240111371e+00 
163400 6.1817003930e+00 6.9291281186e-05 1.5727085633e+00 -2.7240111371e+00 1.5727085633e+00 2.7240111371e+00 
163500 6.1817003932e+00 6.9336942184e-05 1.5727085633e+00 -2.7240111371e+00 1.5727085633e+00 2.7240111371e+00 
163600 6.1817003933e+00 6.9382602397e-05 1.5727085633e+00 -2.7240111371e+00 1.5727085633e+00 2.7240111371e+00 
163700 6.1817003935e+00 6.9428265340e-05 1.5727085633e+00 -2.7240111371e+00 1.5727085633e+00 2.7240111371e+00 
163800 6.1817003937e+00 6.9473934069e-05 1.5727085633e+00 -2.7240111371e+00 1.5727085633e+00 2.7240111371e+00 
163900 6.1817003938e+00 6.9519611191e-05 1.5727085633e+00 -2.7240111371e+00 1.5727085633e+00 2.7240111371e+00 
164000 6.1817003940e+00 6.9565298888e-05 1.5727085633e+00 -2.7240111371e+00 1.5727085633e+00 2.7240111371e+00 
164100 6.1817003941e+00 6.9610998926e-05 1.5727085633e+00 -2.7240111371e+00 1.5727085633e+00 2.7240111371e+00 
164200 6.1817003943e+00 6.9656712675e-05 1.5727085633e+00 -2.7240111371e+00 1.5727085633e+00 2.7240111371e+00 
164300 6.1817003944e+00 6.9702441124e-05 1.5727085633e+00 -2.7240111371e+00 1.5727085633e+00 2.7240111371e+00 
164400 6.1817003946e+00 6.9748184900e-05 1.5727085633e+00 -2.7240111371e+00 1.5727085633e+00 2.7240111371e+00 
164500 6.1817003947e+00 6.9793944279e-05 1.5727085633e+00 -2.7240111371e+00 1.5727085633e+00 2.7240111371e+00 
164600 6.1817003949e+00 6.9839719202e-05 1.5727085633e+00 -2.7240111371e+00 1.5727085633e+00 2.7240111371e+00 
164700 6.1817003950e+00 6.9885509291e-05 1.5727085633e+00 -2.7240111371e+00 1.5727085633e+00 2.7240111371e+00 
164800 6.1817003952e+00 6.9931313862e-05 1.5727085633e+00 -2.7240111371e+00 1.5727085633e+00 2.7240111371e+00 
164900 6.1817003953e+00 6.9977131941e-05 1.5727085633e+00 -2.7240111371e+00 1.5727085633e+00 2.7240111371e+00 
165000 6.1817003954e+00 7.0022962278e-05 1.5727085633e+00 -2.7240111371e+00 1.5727085633e+00 2.7240111371e+00 
165100 6.1817003956e+00 7.0068803356e-05 1.5727085633e+00 -2.7240111371e+00 1.5727085633e+00 2.7240111371e+00 
165200 6.1817003957e+00 7.0114653412e-05 1.5727085633e+00 -2.7240111371e+00 1.5727085633e+00 2.7240111371e+00 
165300 6.1817003958e+00 7.0160510442e-05 1.5727085633e+00 -2.7240111371e+00 1.5727085633e+00 2.7240111371e+00 
165400 6.1817003960e+00 7.0206372222e-05 1.5727085633e+00 -2.7240111371e+00 1.5727085633e+00 2.7240111371e+00 
165500 6.1817003961e+00 7.0252236311e-05 1.5727085633e+00 -2.7240111371e+00 1.5727085633e+00 2.7240111371e+00 
165600 6.1817003962e+00 7.0298100071e-05 1.5727085633e+00 -2.7240111371e+00 1.5727085633e+00 2.7240111371e+00 
165700 6.1817003964e+00 7.0343960676e-05 1.5727085633e+00 -2.7240111371e+00 1.5727085633e+00 2.7240111371e+00 
165800 6.1817003965e+00 7.0389815119e-05 1.5727085633e+00 -2.7240111371e+00 1.5727085633e+00 2.7240111371e+00 
165900 6.1817003966e+00 7.0435660236e-05 1.5727085633e+00 -2.7240111371e+00 1.5727085633e+00 2.7240111371e+00 
166000 6.1817003967e+00 7.0481492700e-05 1.5727085633e+00 -2.7240111371e+00 1.5727085633e+00 2.7240111371e+00 
166100 6.1817003969e+00 7.0527309043e-05 1.5727085633e+00 -2.7240111371e+00 1.5727085633e+00 2.7240111371e+00 
166200 6.1817003970e+00 7.0573105669e-05 1.5727085633e+00 -2.7240111371e+00 1.5727085633e+00 2.7240111371e+00 
166300 6.1817003971e+00 7.0618878849e-05 1.5727085633e+00 -2.7240111371e+00 1.5727085633e+00 2.7240111371e+00 
166400 6.1817003972e+00 7.0664624749e-05 1.5727085633e+00 -2.7240111371e+00 1.5727085633e+00 2.7240111371e+00 
166500 6.1817003973e+00 7.0710339425e-05 1.5727085633e+00 -2.7240111371e+00 1.5727085633e+00 2.7240111371e+00 
166600 6.1817003974e+00 7.0756018842e-05 1.5727085633e+00 -2.7240111371e+00 1.5727085633e+00 2.7240111371e+00 
166700 6.1817003973e+00 6.7901286775e-05 1.5727063138e+00 -2.7240072408e+00 1.5727063138e+00 2.7240072408e+00 
166800 6.1817003975e+00 6.7930665485e-05 1.5727063138e+00 -2.7240072408e+00 1.5727063138e+00 2.7240072408e+00 
166900 6.1817003976e+00 6.7959786926e-05 1.5727063138e+00 -2.7240072408e+00 1.5727063138e+00 2.7240072408e+00 
167000 6.1817003977e+00 6.7988670746e-05 1.5727063138e+00 -2.7240072408e+00 1.5727063138e+00 2.7240072408e+00 
167100 6.1817003978e+00 6.8017335775e-05 1.5727063138e+00 -2.7240072408e+00 1.5727063138e+00 2.7240072408e+00 
167200 6.1817003979e+00 6.8045800046e-05 1.5727063138e+00 -2.7240072408e+00 1.5727063138e+00 2.7240072408e+00 
167300 6.1817003980e+00 6.8074080805e-05 1.5727063138e+00 -2.7240072408e+00 1.5727063138e+00 2.7240072408e+00 
167400 6.1817003981e+00 6.8102194529e-05 1.5727063138e+00 -2.7240072408e+00 1.5727063138e+00 2.7240072408e+00 
167500 6.1817003982e+00 6.8130156937e-05 1.5727063138e+00 -2.7240072408e+00 1.5727063138e+00 2.7240072408e+00 
167600 6.1817003983e+00 6.8157983012e-05 1.5727063138e+00 -2.7240072408e+00 1.5727063138e+00 2.7240072408e+00 
167700 6.1817003984e+00 6.8185687008e-05 1.5727063138e+00 -2.7240072408e+00 1.5727063138e+00 2.7240072408e+00 
167800 6.1817003985e+00 6.8213282476e-05 1.5727063138e+00 -2.7240072408e+00 1.5727063138e+00 2.7240072408e+00 
167900 6.1817003986e+00 6.8240782272e-05 1.5727063138e+00 -2.7240072408e+00 1.5727063138e+00 2.7240072408e+00 
168000 6.1817003987e+00 6.8268198572e-05 1.5727063138e+00 -2.7240072408e+00 1.5727063138e+00 2.7240072408e+00 
168100 6.1817003988e+00 6.8295542894e-05 1.5727063138e+00 -2.7240072408e+00 1.5727063138e+00 2.7240072408e+00 
168200 6.1817003989e+00 6.8322826108e-05 1.5727063138e+00 -2.7240072408e+00 1.5727063138e+00 2.7240072408e+00 
168300 6.1817003990e+00 6.8350058453e-05 1.5727063138e+00 -2.7240072408e+00 1.5727063138e+00 2.7240072408e+00 
168400 6.1817003990e+00 6.8377249557e-05 1.5727063138e+00 -2.7240072408e+00 1.5727063138e+00 2.7240072408e+00 
168500 6.1817003991e+00 6.8404408448e-05 1.5727063138e+00 -2.7240072408e+00 1.5727063138e+00 2.7240072408e+00 
168600 6.1817003992e+00 6.8431543570e-05 1.5727063138e+00 -2.7240072408e+00 1.5727063138e+00 2.7240072408e+00 
168700 6.1817003993e+00 6.8458662799e-05 1.5727063138e+00 -2.7240072408e+00 1.5727063138e+00 2.7240072408e+00 
168800 6.1817003994e+00 6.8485773460e-05 1.5727063138e+00 -2.7240072408e+00 1.5727063138e+00 2.7240072408e+00 
168900 6.1817003995e+00 6.8512882343e-05 1.5727063138e+00 -2.7240072408e+00 1.5727063138e+00 2.7240072408e+00 
169000 6.1817003996e+00 6.8539995717e-05 1.5727063138e+00 -2.7240072408e+00 1.5727063138e+00 2.7240072408e+00 
169100 6.1817003997e+00 6.8567119346e-05 1.5727063138e+00 -2.7240072408e+00 1.5727063138e+00 2.7240072408e+00 
169200 6.1817003997e+00 6.8594258497e-05 1.5727063138e+00 -2.7240072408e+00 1.5727063138e+00 2.7240072408e+00 
169300 6.1817003998e+00 6.8621417975e-05 1.5727063138e+00 -2.7240072408e+00 1.5727063138e+00 2.7240072408e+00 
169400 6.1817003999e+00 6.8648602114e-05 1.5727063138e+00 -2.7240072408e+00 1.5727063138e+00 2.7240072408e+00 
169500 6.1817004000e+00 6.8675814805e-05 1.5727063138e+00 -2.7240072408e+00 1.5727063138e+00 2.7240072408e+00 
169600 6.1817004001e+00 6.8703059512e-05 1.5727063138e+00 -2.7240072408e+00 1.5727063138e+00 2.7240072408e+00 
169700 6.1817004001e+00 6.8730339281e-05 1.5727063138e+00 -2.7240072408e+00 1.5727063138e+00 2.7240072408e+00 
169800 6.1817004002e+00 6.8757656758e-05 1.5727063138e+00 -2.7240072408e+00 1.5727063138e+00 2.7240072408e+00 
169900 6.1817004003e+00 6.8785014201e-05 1.5727063138e+00 -2.7240072408e+00 1.5727063138e+00 2.7240072408e+00 
170000 6.1817004004e+00 6.8812413497e-05 1.5727063138e+00 -2.7240072408e+00 1.5727063138e+00 2.7240072408e+00 
170100 6.1817004004e+00 6.8839856171e-05 1.5727063138e+00 -2.7240072408e+00 1.5727063138e+00 2.7240072408e+00 
170200 6.1817004005e+00 6.8867343408e-05 1.5727063138e+00 -2.7240072408e+00 1.5727063138e+00 2.7240072408e+00 
170300 6.1817004006e+00 6.8894876058e-05 1.5727063138e+00 -2.7240072408e+00 1.5727063138e+00 2.7240072408e+00 
170400 6.1817004006e+00 6.8922454651e-05 1.5727063138e+00 -2.7240072408e+00 1.5727063138e+00 2.7240072408e+00 
170500 6.1817004007e+00 6.8950079420e-05 1.5727063138e+00 -2.7240072408e+00 1.5727063138e+00 2.7240072408e+00 
170600 6.1817004008e+00 6.8977750296e-05 1.5727063138e+00 -2.7240072408e+00 1.5727063138e+00 2.7240072408e+00 
170700 6.1817004008e+00 6.9005466943e-05 1.5727063138e+00 -2.7240072408e+00 1.5727063138e+00 2.7240072408e+00 
170800 6.1817004009e+00 6.9033228751e-05 1.5727063138e+00 -2.7240072408e+00 1.5727063138e+00 2.7240072408e+00 
170900 6.1817004010e+00 6.9061034856e-05 1.5727063138e+00 -2.7240072408e+00 1.5727063138e+00 2.7240072408e+00 
171000 6.1817004010e+00 6.9088884155e-05 1.5727063138e+00 -2.7240072408e+00 1.5727063138e+00 2.7240072408e+00 
171100 6.1817004011e+00 6.9116775318e-05 1.5727063138e+00 -2.7240072408e+00 1.5727063138e+00 2.7240072408e+00 
171200 6.1817004012e+00 6.9144706791e-05 1.5727063138e+00 -2.7240072408e+00 1.5727063138e+00 2.7240072408e+00 
171300 6.1817004012e+00 6.9172676816e-05 1.5727063138e+00 -2.7240072408e+00 1.5727063138e+00 2.7240072408e+00 
171400 6.1817004013e+00 6.9200683445e-05 1.5727063138e+00 -2.7240072408e+00 1.5727063138e+00 2.7240072408e+00 
171500 6.1817004014e+00 6.9228724537e-05 1.5727063138e+00 -2.7240072408e+00 1.5727063138e+00 2.7240072408e+00 
171600 6.1817004014e+00 6.9256797785e-05 1.5727063138e+00 -2.7240072408e+00 1.5727063138e+00 2.7240072408e+00 
171700 6.1817004015e+00 6.9284900719e-05 1.5727063138e+00 -2.7240072408e+00 1.5727063138e+00 2.7240072408e+00 
171800 6.1817004015e+00 6.9313030710e-05 1.5727063138e+00 -2.7240072408e+00 1.5727063138e+00 2.7240072408e+00 
171900 6.1817004016e+00 6.9341184993e-05 1.5727063138e+00 -2.7240072408e+00 1.5727063138e+00 2.7240072408e+00 
172000 6.1817004017e+00 6.9369360669e-05 1.5727063138e+00 -2.7240072408e+00 1.5727063138e+00 2.7240072408e+00 
172100 6.1817004017e+00 6.9397554717e-05 1.5727063138e+00 -2.7240072408e+00 1.5727063138e+00 2.7240072408e+00 
172200 6.1817004018e+00 6.9425764001e-05 1.5727063138e+00 -2.7240072408e+00 1.5727063138e+00 2.7240072408e+00 
172300 6.1817004018e+00 6.9453985281e-05 1.5727063138e+00 -2.7240072408e+00 1.5727063138e+00 2.7240072408e+00 
172400 6.1817004019e+00 6.9482215224e-05 1.5727063138e+00 -2.7240072408e+00 1.5727063138e+00 2.7240072408e+00 
172500 6.1817004019e+00 6.9510450404e-05 1.5727063138e+00 -2.7240072408e+00 1.5727063138e+00 2.7240072408e+00 
172600 6.1817004020e+00 6.9538687325e-05 1.5727063138e+00 -2.7240072408e+00 1.5727063138e+00 2.7240072408e+00 
172700 6.1817004020e+00 6.9566922414e-05 1.5727063138e+00 -2.7240072408e+00 1.5727063138e+00 2.7240072408e+00 
172800 6.1817004021e+00 6.9595152040e-05 1.5727063138e+00 -2.7240072408e+00 1.5727063138e+00 2.7240072408e+00 
172900 6.1817004021e+00 6.9623372516e-05 1.5727063138e+00 -2.7240072408e+00 1.5727063138e+00 2.7240072408e+00 
173000 6.1817004022e+00 6.9651580105e-05 1.5727063138e+00 -2.7240072408e+00 1.5727063138e+00 2.7240072408e+00 
173100 6.1817004022e+00 6.9679771036e-05 1.5727063138e+00 -2.7240072408e+00 1.5727063138e+00 2.7240072408e+00 
173200 6.1817004023e+00 6.9707941499e-05 1.5727063138e+00 -2.7240072408e+00 1.5727063138e+00 2.7240072408e+00 
173300 6.1817004023e+00 6.9736087661e-05 1.5727063138e+00 -2.7240072408e+00 1.5727063138e+00 2.7240072408e+00 
173400 6.1817004024e+00 6.9764205668e-05 1.5727063138e+00 -2.7240072408e+00 1.5727063138e+00 2.7240072408e+00 
173500 6.1817004024e+00 6.9789484605e-05 1.5727063138e+00 -2.7240072408e+00 1.5727063138e+00 2.7240072408e+00 
173500 6.1817004024e+00 6.9789484605e-05 1.5727063138e+00 -2.7240072408e+00 1.5727063138e+00 2.7240072408e+00 
