# step Hamiltonian StressXX CellTensor1 CellTensor2 CellTensor3 CellTensor4 
0 5.1072023958e+00 -3.3090008895e-01 1.6122881582e+00 -2.7925650064e+00 1.6122881582e+00 2.7925650064e+00 
100 5.1070427705e+00 -3.3217877571e-01 1.6122881582e+00 -2.7925650064e+00 1.6122881582e+00 2.7925650064e+00 
200 5.1027081311e+00 -3.2307879230e-01 1.6226005289e+00 -2.8104265564e+00 1.6226005289e+00 2.8104265564e+00 
300 5.0986408052e+00 -3.1465171085e-01 1.6325662336e+00 -2.8276876633e+00 1.6325662336e+00 2.8276876633e+00 
400 5.0948128935e+00 -3.0683891869e-01 1.6422123797e+00 -2.8443952785e+00 1.6422123797e+00 2.8443952785e+00 
500 5.0912009876e+00 -2.9958615964e-01 1.6515634296e+00 -2.8605917720e+00 1.6515634296e+00 2.8605917720e+00 
600 5.0877854049e+00 -2.9284322693e-01 1.6606414601e+00 -2.8763153820e+00 1.6606414601e+00 2.8763153820e+00 
700 5.0845495438e+00 -2.8656368471e-01 1.6694663933e+00 -2.8916006147e+00 1.6694663933e+00 2.8916006147e+00 
800 5.0814793387e+00 -2.8070461418e-01 1.6780562026e+00 -2.9064786009e+00 1.6780562026e+00 2.9064786009e+00 
900 5.0785628028e+00 -2.7522638080e-01 1.6864270976e+00 -2.9209774163e+00 1.6864270976e+00 2.9209774163e+00 
1000 5.0757896428e+00 -2.7009241978e-01 1.6945936903e+00 -2.9351223698e+00 1.6945936903e+00 2.9351223698e+00 
1100 5.0731509367e+00 -2.6526903744e-01 1.7025691456e+00 -2.9489362636e+00 1.7025691456e+00 2.9489362636e+00 
1200 5.0706388648e+00 -2.6072522652e-01 1.7103653168e+00 -2.9624396281e+00 1.7103653168e+00 2.9624396281e+00 
1300 5.0682464873e+00 -2.5643249380e-01 1.7179928689e+00 -2.9756509360e+00 1.7179928689e+00 2.9756509360e+00 
1400 5.0659675602e+00 -2.5236469858e-01 1.7254613909e+00 -2.9885867956e+00 1.7254613909e+00 2.9885867956e+00 
1500 5.0637963859e+00 -2.4849790095e-01 1.7327794976e+00 -3.0012621282e+00 1.7327794976e+00 3.0012621282e+00 
1600 5.0617276917e+00 -2.4481021893e-01 1.7399549225e+00 -3.0136903286e+00 1.7399549225e+00 3.0136903286e+00 
1700 5.0597565338e+00 -2.4128169357e-01 1.7469946026e+00 -3.0258834123e+00 1.7469946026e+00 3.0258834123e+00 
1800 5.0578782215e+00 -2.3789416142e-01 1.7539047564e+00 -3.0378521497e+00 1.7539047564e+00 3.0378521497e+00 
1900 5.0560882599e+00 -2.3463113376e-01 1.7606909539e+00 -3.0496061886e+00 1.7606909539e+00 3.0496061886e+00 
2000 5.0543823067e+00 -2.3147768212e-01 1.7673581820e+00 -3.0611541664e+00 1.7673581820e+00 3.0611541664e+00 
2100 5.0527561420e+00 -2.2842032966e-01 1.7739109031e+00 -3.0725038122e+00 1.7739109031e+00 3.0725038122e+00 
2200 5.0512056489e+00 -2.2544694806e-01 1.7803531095e+00 -3.0836620410e+00 1.7803531095e+00 3.0836620410e+00 
2300 5.0497268016e+00 -2.2254665964e-01 1.7866883724e+00 -3.0946350383e+00 1.7866883724e+00 3.0946350383e+00 
2400 5.0483156612e+00 -2.1970974435e-01 1.7929198872e+00 -3.1054283385e+00 1.7929198872e+00 3.1054283385e+00 
2500 5.0469683763e+00 -2.1692755155e-01 1.7990505141e+00 -3.1160468958e+00 1.7990505141e+00 3.1160468958e+00 
2600 5.0456811881e+00 -2.1419241626e-01 1.8050828157e+00 -3.1264951487e+00 1.8050828157e+00 3.1264951487e+00 
2700 5.0444504383e+00 -2.1149757975e-01 1.8110190910e+00 -3.1367770791e+00 1.8110190910e+00 3.1367770791e+00 
2800 5.0432725794e+00 -2.0883711432e-01 1.8168614056e+00 -3.1468962649e+00 1.8168614056e+00 3.1468962649e+00 
2900 5.0421441856e+00 -2.0620585214e-01 1.8226116205e+00 -3.1568559291e+00 1.8226116205e+00 3.1568559291e+00 
3000 5.0410619650e+00 -2.0359931795e-01 1.8282714162e+00 -3.1666589829e+00 1.8282714162e+00 3.1666589829e+00 
3100 5.0400227710e+00 -2.0101366569e-01 1.8338423163e+00 -3.1763080650e+00 1.8338423163e+00 3.1763080650e+00 
3200 5.0390236140e+00 -1.9844561875e-01 1.8393257074e+00 -3.1858055770e+00 1.8393257074e+00 3.1858055770e+00 
3300 5.0380616713e+00 -1.9589241383e-01 1.8447228575e+00 -3.1951537151e+00 1.8447228575e+00 3.1951537151e+00 
3400 5.0371342962e+00 -1.9335174842e-01 1.8500349323e+00 -3.2043544985e+00 1.8500349323e+00 3.2043544985e+00 
3500 5.0362390255e+00 -1.9082173163e-01 1.8552630097e+00 -3.2134097942e+00 1.8552630097e+00 3.2134097942e+00 
3600 5.0353735851e+00 -1.8830083840e-01 1.8604080927e+00 -3.2223213395e+00 1.8604080927e+00 3.2223213395e+00 
3700 5.0345358940e+00 -1.8578786699e-01 1.8654711211e+00 -3.2310907617e+00 1.8654711211e+00 3.2310907617e+00 
3800 5.0337240663e+00 -1.8328189963e-01 1.8704529806e+00 -3.2397195956e+00 1.8704529806e+00 3.2397195956e+00 
3900 5.0329364110e+00 -1.8078226622e-01 1.8753545127e+00 -3.2482092982e+00 1.8753545127e+00 3.2482092982e+00 
4000 5.0321714307e+00 -1.7828851110e-01 1.8801765212e+00 -3.2565612618e+00 1.8801765212e+00 3.2565612618e+00 
4100 5.0314278172e+00 -1.7580036259e-01 1.8849197794e+00 -3.2647768261e+00 1.8849197794e+00 3.2647768261e+00 
4200 5.0307044466e+00 -1.7331770540e-01 1.8895850356e+00 -3.2728572868e+00 1.8895850356e+00 3.2728572868e+00 
4300 5.0300003725e+00 -1.7084055562e-01 1.8941730176e+00 -3.2808039048e+00 1.8941730176e+00 3.2808039048e+00 
4400 5.0293148165e+00 -1.6836903833e-01 1.8986844372e+00 -3.2886179127e+00 1.8986844372e+00 3.2886179127e+00 
4500 5.0286471597e+00 -1.6590336759e-01 1.9031199930e+00 -3.2963005207e+00 1.9031199930e+00 3.2963005207e+00 
4600 5.0279969309e+00 -1.6344382872e-01 1.9074803736e+00 -3.3038529215e+00 1.9074803736e+00 3.3038529215e+00 
4700 5.0273637948e+00 -1.6099076276e-01 1.9117662598e+00 -3.3112762941e+00 1.9117662598e+00 3.3112762941e+00 
4800 5.0267475399e+00 -1.5854455293e-01 1.9159783261e+00 -3.3185718071e+00 1.9159783261e+00 3.3185718071e+00 
4900 5.0261480650e+00 -1.5610561303e-01 1.9201172428e+00 -3.3257406210e+00 1.9201172428e+00 3.3257406210e+00 
5000 5.0255653653e+00 -1.5367437755e-01 1.9241836762e+00 -3.3327838902e+00 1.9241836762e+00 3.3327838902e+00 
5100 5.0249995196e+00 -1.5125129337e-01 1.9281782901e+00 -3.3397027646e+00 1.9281782901e+00 3.3397027646e+00 
5200 5.0244506755e+00 -1.4883681304e-01 1.9321017465e+00 -3.3464983903e+00 1.9321017465e+00 3.3464983903e+00 
5300 5.0239190366e+00 -1.4643138921e-01 1.9359547052e+00 -3.3531719106e+00 1.9359547052e+00 3.3531719106e+00 
5400 5.0234048489e+00 -1.4403547048e-01 1.9397378250e+00 -3.3597244663e+00 1.9397378250e+00 3.3597244663e+00 
5500 5.0229083878e+00 -1.4164949814e-01 1.9434517633e+00 -3.3661571961e+00 1.9434517633e+00 3.3661571961e+00 
5600 5.0224299462e+00 -1.3927390393e-01 1.9470971762e+00 -3.3724712365e+00 1.9470971762e+00 3.3724712365e+00 
5700 5.0219698224e+00 -1.3690910864e-01 1.9506747189e+00 -3.3786677221e+00 1.9506747189e+00 3.3786677221e+00 
5800 5.0215283095e+00 -1.3455552138e-01 1.9541850449e+00 -3.3847477851e+00 1.9541850449e+00 3.3847477851e+00 
5900 5.0211056856e+00 -1.3221353947e-01 1.9576288068e+00 -3.3907125557e+00 1.9576288068e+00 3.3907125557e+00 
6000 5.0207022042e+00 -1.2988354878e-01 1.9610066557e+00 -3.3965631616e+00 1.9610066557e+00 3.3965631616e+00 
6100 5.0203180863e+00 -1.2756592458e-01 1.9643192412e+00 -3.4023007280e+00 1.9643192412e+00 3.4023007280e+00 
6200 5.0199535132e+00 -1.2526103258e-01 1.9675672115e+00 -3.4079263776e+00 1.9675672115e+00 3.4079263776e+00 
6300 5.0196086200e+00 -1.2296923031e-01 1.9707512133e+00 -3.4134412306e+00 1.9707512133e+00 3.4134412306e+00 
6400 5.0192834909e+00 -1.2069086863e-01 1.9738718920e+00 -3.4188464045e+00 1.9738718920e+00 3.4188464045e+00 
6500 5.0189781542e+00 -1.1842629332e-01 1.9769298912e+00 -3.4241430146e+00 1.9769298912e+00 3.4241430146e+00 
6600 5.0186925798e+00 -1.1617584679e-01 1.9799258536e+00 -3.4293321737e+00 1.9799258536e+00 3.4293321737e+00 
6700 5.0184266762e+00 -1.1393986970e-01 1.9828604205e+00 -3.4344149926e+00 1.9828604205e+00 3.4344149926e+00 
6800 5.0181802893e+00 -1.1171870265e-01 1.9857342321e+00 -3.4393925803e+00 1.9857342321e+00 3.4393925803e+00 
6900 5.0179532018e+00 -1.0951268769e-01 1.9885479279e+00 -3.4442660444e+00 1.9885479279e+00 3.4442660444e+00 
7000 5.0177451333e+00 -1.0732216981e-01 1.9913021468e+00 -3.4490364915e+00 1.9913021468e+00 3.4490364915e+00 
7100 5.0175557413e+00 -1.0514749824e-01 1.9939975274e+00 -3.4537050277e+00 1.9939975274e+00 3.4537050277e+00 
7200 5.0173846226e+00 -1.0298902761e-01 1.9966347082e+00 -3.4582727588e+00 1.9966347082e+00 3.4582727588e+00 
7300 5.0172313158e+00 -1.0084711902e-01 1.9992143281e+00 -3.4627407915e+00 1.9992143281e+00 3.4627407915e+00 
7400 5.0170953041e+00 -9.8722140827e-02 2.0017370265e+00 -3.4671102333e+00 2.0017370265e+00 3.4671102333e+00 
7500 5.0169760184e+00 -9.6614469329e-02 2.0042034440e+00 -3.4713821937e+00 2.0042034440e+00 3.4713821937e+00 
7600 5.0168728409e+00 -9.4524489242e-02 2.0066142225e+00 -3.4755577846e+00 2.0066142225e+00 3.4755577846e+00 
7700 5.0167851098e+00 -9.2452593987e-02 2.0089700057e+00 -3.4796381207e+00 2.0089700057e+00 3.4796381207e+00 
7800 5.0167121230e+00 -9.0399185802e-02 2.0112714393e+00 -3.4836243206e+00 2.0112714393e+00 3.4836243206e+00 
7900 5.0166531431e+00 -8.8364675668e-02 2.0135191717e+00 -3.4875175075e+00 2.0135191717e+00 3.4875175075e+00 
8000 5.0166074024e+00 -8.6349483064e-02 2.0157138543e+00 -3.4913188091e+00 2.0157138543e+00 3.4913188091e+00 
8100 5.0165741076e+00 -8.4354035555e-02 2.0178561415e+00 -3.4950293594e+00 2.0178561415e+00 3.4950293594e+00 
8200 5.0165524448e+00 -8.2378768215e-02 2.0199466915e+00 -3.4986502982e+00 2.0199466915e+00 3.4986502982e+00 
8300 5.0165415849e+00 -8.0424122905e-02 2.0219861665e+00 -3.5021827725e+00 2.0219861665e+00 3.5021827725e+00 
8400 5.0165406883e+00 -7.8490547407e-02 2.0239752328e+00 -3.5056279365e+00 2.0239752328e+00 3.5056279365e+00 
8500 5.0165489103e+00 -7.6578494427e-02 2.0259145616e+00 -3.5089869525e+00 2.0259145616e+00 3.5089869525e+00 
8600 5.0165654056e+00 -7.4688420482e-02 2.0278048286e+00 -3.5122609910e+00 2.0278048286e+00 3.5122609910e+00 
8700 5.0165893332e+00 -7.2820784679e-02 2.0296467148e+00 -3.5154512315e+00 2.0296467148e+00 3.5154512315e+00 
8800 5.0166198612e+00 -7.0976047394e-02 2.0314409065e+00 -3.5185588626e+00 2.0314409065e+00 3.5185588626e+00 
8900 5.0166561709e+00 -6.9154668875e-02 2.0331880951e+00 -3.5215850821e+00 2.0331880951e+00 3.5215850821e+00 
9000 5.0166974608e+00 -6.7357107767e-02 2.0348889781e+00 -3.5245310979e+00 2.0348889781e+00 3.5245310979e+00 
9100 5.0167429511e+00 -6.5583819584e-02 2.0365442584e+00 -3.5273981274e+00 2.0365442584e+00 3.5273981274e+00 
9200 5.0167918864e+00 -6.3835255125e-02 2.0381546446e+00 -3.5301873981e+00 2.0381546446e+00 3.5301873981e+00 
9300 5.0168435400e+00 -6.2111858868e-02 2.0397208512e+00 -3.5329001475e+00 2.0397208512e+00 3.5329001475e+00 
9400 5.0168972160e+00 -6.0414067332e-02 2.0412435983e+00 -3.5355376228e+00 2.0412435983e+00 3.5355376228e+00 
9500 5.0169522528e+00 -5.8742307427e-02 2.0427236118e+00 -3.5381010814e+00 2.0427236118e+00 3.5381010814e+00 
9600 5.0170080246e+00 -5.7096994814e-02 2.0441616231e+00 -3.5405917901e+00 2.0441616231e+00 3.5405917901e+00 
9700 5.0170639441e+00 -5.5478532267e-02 2.0455583691e+00 -3.5430110251e+00 2.0455583691e+00 3.5430110251e+00 
9800 5.0171194641e+00 -5.3887308063e-02 2.0469145919e+00 -3.5453600719e+00 2.0469145919e+00 3.5453600719e+00 
9900 5.0171740786e+00 -5.2323694399e-02 2.0482310386e+00 -3.5476402245e+00 2.0482310386e+00 3.5476402245e+00 
10000 5.0172273237e+00 -5.0788045865e-02 2.0495084611e+00 -3.5498527852e+00 2.0495084611e+00 3.5498527852e+00 
10100 5.0172787789e+00 -4.9280697950e-02 2.0507476158e+00 -3.5519990641e+00 2.0507476158e+00 3.5519990641e+00 
10200 5.0173280670e+00 -4.7801965629e-02 2.0519492631e+00 -3.5540803783e+00 2.0519492631e+00 3.5540803783e+00 
10300 5.0173748543e+00 -4.6352142003e-02 2.0531141673e+00 -3.5560980515e+00 2.0531141673e+00 3.5560980515e+00 
10400 5.0174188503e+00 -4.4931497030e-02 2.0542430959e+00 -3.5580534133e+00 2.0542430959e+00 3.5580534133e+00 
10500 5.0174598075e+00 -4.3540276330e-02 2.0553368195e+00 -3.5599477981e+00 2.0553368195e+00 3.5599477981e+00 
10600 5.0174975200e+00 -4.2178700088e-02 2.0563961110e+00 -3.5617825447e+00 2.0563961110e+00 3.5617825447e+00 
10700 5.0175318234e+00 -4.0846962048e-02 2.0574217452e+00 -3.5635589952e+00 2.0574217452e+00 3.5635589952e+00 
10800 5.0175625925e+00 -3.9545228612e-02 2.0584144985e+00 -3.5652784944e+00 2.0584144985e+00 3.5652784944e+00 
10900 5.0175897408e+00 -3.8273638048e-02 2.0593751481e+00 -3.5669423884e+00 2.0593751481e+00 3.5669423884e+00 
11000 5.0176132181e+00 -3.7032299795e-02 2.0603044716e+00 -3.5685520239e+00 2.0603044716e+00 3.5685520239e+00 
11100 5.0176330089e+00 -3.5821293891e-02 2.0612032463e+00 -3.5701087474e+00 2.0612032463e+00 3.5701087474e+00 
11200 5.0176491306e+00 -3.4640670515e-02 2.0620722487e+00 -3.5716139036e+00 2.0620722487e+00 3.5716139036e+00 
11300 5.0176616310e+00 -3.3490449630e-02 2.0629122537e+00 -3.5730688350e+00 2.0629122537e+00 3.5730688350e+00 
11400 5.0176705864e+00 -3.2370620759e-02 2.0637240344e+00 -3.5744748804e+00 2.0637240344e+00 3.5744748804e+00 
11500 5.0176760989e+00 -3.1281142861e-02 2.0645083609e+00 -3.5758333738e+00 2.0645083609e+00 3.5758333738e+00 
11600 5.0176782945e+00 -3.0221944327e-02 2.0652660003e+00 -3.5771456436e+00 2.0652660003e+00 3.5771456436e+00 
11700 5.0176773200e+00 -2.9192923087e-02 2.0659977154e+00 -3.5784130114e+00 2.0659977154e+00 3.5784130114e+00 
11800 5.0176733411e+00 -2.8193946821e-02 2.0667042647e+00 -3.5796367908e+00 2.0667042647e+00 3.5796367908e+00 
11900 5.0176665395e+00 -2.7224853285e-02 2.0673864015e+00 -3.5808182862e+00 2.0673864015e+00 3.5808182862e+00 
12000 5.0176571107e+00 -2.6285450727e-02 2.0680448729e+00 -3.5819587922e+00 2.0680448729e+00 3.5819587922e+00 
12100 5.0176452613e+00 -2.5375518411e-02 2.0686804200e+00 -3.5830595920e+00 2.0686804200e+00 3.5830595920e+00 
12200 5.0176312070e+00 -2.4494807226e-02 2.0692937765e+00 -3.5841219566e+00 2.0692937765e+00 3.5841219566e+00 
12300 5.0176151697e+00 -2.3643040389e-02 2.0698856686e+00 -3.5851471439e+00 2.0698856686e+00 3.5851471439e+00 
12400 5.0175973759e+00 -2.2819914223e-02 2.0704568143e+00 -3.5861363973e+00 2.0704568143e+00 3.5861363973e+00 
12500 5.0175780538e+00 -2.2025099018e-02 2.0710079228e+00 -3.5870909452e+00 2.0710079228e+00 3.5870909452e+00 
12600 5.0175574321e+00 -2.1258239960e-02 2.0715396939e+00 -3.5880119997e+00 2.0715396939e+00 3.5880119997e+00 
12700 5.0175357371e+00 -2.0518958118e-02 2.0720528175e+00 -3.5889007558e+00 2.0720528175e+00 3.5889007558e+00 
12800 5.0175131920e+00 -1.9806851497e-02 2.0725479732e+00 -3.5897583906e+00 2.0725479732e+00 3.5897583906e+00 
12900 5.0174900140e+00 -1.9121496134e-02 2.0730258297e+00 -3.5905860624e+00 2.0730258297e+00 3.5905860624e+00 
13000 5.0174664139e+00 -1.8462447246e-02 2.0734870445e+00 -3.5913849100e+00 2.0734870445e+00 3.5913849100e+00 
13100 5.0174425940e+00 -1.7829240407e-02 2.0739322633e+00 -3.5921560515e+00 2.0739322633e+00 3.5921560515e+00 
13200 5.0174187470e+00 -1.7221392760e-02 2.0743621196e+00 -3.5929005844e+00 2.0743621196e+00 3.5929005844e+00 
13300 5.0173950551e+00 -1.6638404256e-02 2.0747772344e+00 -3.5936195843e+00 2.0747772344e+00 3.5936195843e+00 
13400 5.0173716889e+00 -1.6079758907e-02 2.0751782157e+00 -3.5943141044e+00 2.0751782157e+00 3.5943141044e+00 
13500 5.0173488068e+00 -1.5544926056e-02 2.0755656586e+00 -3.5949851751e+00 2.0755656586e+00 3.5949851751e+00 
13600 5.0173265542e+00 -1.5033361646e-02 2.0759401443e+00 -3.5956338034e+00 2.0759401443e+00 3.5956338034e+00 
13700 5.0173050629e+00 -1.4544509502e-02 2.0763022404e+00 -3.5962609723e+00 2.0763022404e+00 3.5962609723e+00 
13800 5.0172844512e+00 -1.4077802597e-02 2.0766525006e+00 -3.5968676407e+00 2.0766525006e+00 3.5968676407e+00 
13900 5.0172648234e+00 -1.3632664320e-02 2.0769914640e+00 -3.5974547426e+00 2.0769914640e+00 3.5974547426e+00 
14000 5.0172462696e+00 -1.3208509721e-02 2.0773196556e+00 -3.5980231871e+00 2.0773196556e+00 3.5980231871e+00 
14100 5.0172288662e+00 -1.2804746743e-02 2.0776375857e+00 -3.5985738581e+00 2.0776375857e+00 3.5985738581e+00 
14200 5.0172126756e+00 -1.2420777438e-02 2.0779457497e+00 -3.5991076138e+00 2.0779457497e+00 3.5991076138e+00 
14300 5.0171977469e+00 -1.2055999146e-02 2.0782446284e+00 -3.5996252869e+00 2.0782446284e+00 3.5996252869e+00 
14400 5.0171841160e+00 -1.1709805657e-02 2.0785346876e+00 -3.6001276842e+00 2.0785346876e+00 3.6001276842e+00 
14500 5.0171718061e+00 -1.1381588339e-02 2.0788163781e+00 -3.6006155865e+00 2.0788163781e+00 3.6006155865e+00 
14600 5.0171608285e+00 -1.1070737230e-02 2.0790901358e+00 -3.6010897487e+00 2.0790901358e+00 3.6010897487e+00 
14700 5.0171511831e+00 -1.0776642096e-02 2.0793563814e+00 -3.6015508996e+00 2.0793563814e+00 3.6015508996e+00 
14800 5.0171428588e+00 -1.0498693458e-02 2.0796155209e+00 -3.6019997424e+00 2.0796155209e+00 3.6019997424e+00 
14900 5.0171358348e+00 -1.0236283573e-02 2.0798679451e+00 -3.6024369539e+00 2.0798679451e+00 3.6024369539e+00 
15000 5.0171300809e+00 -9.9888073756e-03 2.0801140301e+00 -3.6028631856e+00 2.0801140301e+00 3.6028631856e+00 
15100 5.0171255585e+00 -9.7556633889e-03 2.0803541371e+00 -3.6032790632e+00 2.0803541371e+00 3.6032790632e+00 
15200 5.0171222217e+00 -9.5362545827e-03 2.0805886127e+00 -3.6036851868e+00 2.0805886127e+00 3.6036851868e+00 
15300 5.0171200177e+00 -9.3299891970e-03 2.0808177889e+00 -3.6040821317e+00 2.0808177889e+00 3.6040821317e+00 
15400 5.0171188878e+00 -9.1362815229e-03 2.0810419834e+00 -3.6044704480e+00 2.0810419834e+00 3.6044704480e+00 
15500 5.0171187685e+00 -8.9545526412e-03 2.0812614995e+00 -3.6048506609e+00 2.0812614995e+00 3.6048506609e+00 
15600 5.0171195922e+00 -8.7842311205e-03 2.0814766264e+00 -3.6052232716e+00 2.0814766264e+00 3.6052232716e+00 
15700 5.0171212879e+00 -8.6247536746e-03 2.0816876395e+00 -3.6055887572e+00 2.0816876395e+00 3.6055887572e+00 
15800 5.0171237822e+00 -8.4755657789e-03 2.0818948007e+00 -3.6059475708e+00 2.0818948007e+00 3.6059475708e+00 
15900 5.0171269999e+00 -8.3361222481e-03 2.0820983581e+00 -3.6063001427e+00 2.0820983581e+00 3.6063001427e+00 
16000 5.0171308649e+00 -8.2058877738e-03 2.0822985470e+00 -3.6066468798e+00 2.0822985470e+00 3.6066468798e+00 
16100 5.0171353009e+00 -8.0843374250e-03 2.0824955892e+00 -3.6069881671e+00 2.0824955892e+00 3.6069881671e+00 
16200 5.0171402320e+00 -7.9709571107e-03 2.0826896944e+00 -3.6073243671e+00 2.0826896944e+00 3.6073243671e+00 
16300 5.0171455833e+00 -7.8652440064e-03 2.0828810594e+00 -3.6076558210e+00 2.0828810594e+00 3.6076558210e+00 
16400 5.0171512815e+00 -7.7667069451e-03 2.0830698691e+00 -3.6079828490e+00 2.0830698691e+00 3.6079828490e+00 
16500 5.0171572554e+00 -7.6748667739e-03 2.0832562964e+00 -3.6083057506e+00 2.0832562964e+00 3.6083057506e+00 
16600 5.0171634364e+00 -7.5892566774e-03 2.0834405028e+00 -3.6086248053e+00 2.0834405028e+00 3.6086248053e+00 
16700 5.0171697589e+00 -7.5094224682e-03 2.0836226382e+00 -3.6089402732e+00 2.0836226382e+00 3.6089402732e+00 
16800 5.0171761608e+00 -7.4349228467e-03 2.0838028419e+00 -3.6092523952e+00 2.0838028419e+00 3.6092523952e+00 
16900 5.0171825834e+00 -7.3653296301e-03 2.0839812424e+00 -3.6095613939e+00 2.0839812424e+00 3.6095613939e+00 
17000 5.0171889721e+00 -7.3002279519e-03 2.0841579579e+00 -3.6098674740e+00 2.0841579579e+00 3.6098674740e+00 
17100 5.0171952764e+00 -7.2392164334e-03 2.0843330965e+00 -3.6101708230e+00 2.0843330965e+00 3.6101708230e+00 
17200 5.0172014500e+00 -7.1819073272e-03 2.0845067567e+00 -3.6104716114e+00 2.0845067567e+00 3.6104716114e+00 
17300 5.0172074510e+00 -7.1279266344e-03 2.0846790279e+00 -3.6107699937e+00 2.0846790279e+00 3.6107699937e+00 
17400 5.0172132422e+00 -7.0769141964e-03 2.0848499900e+00 -3.6110661088e+00 2.0848499900e+00 3.6110661088e+00 
17500 5.0172187905e+00 -7.0285237613e-03 2.0850197147e+00 -3.6113600806e+00 2.0850197147e+00 3.6113600806e+00 
17600 5.0172240674e+00 -6.9824230265e-03 2.0851882651e+00 -3.6116520185e+00 2.0851882651e+00 3.6116520185e+00 
17700 5.0172290489e+00 -6.9382936585e-03 2.0853556964e+00 -3.6119420180e+00 2.0853556964e+00 3.6119420180e+00 
17800 5.0172337152e+00 -6.8958312901e-03 2.0855220562e+00 -3.6122301616e+00 2.0855220562e+00 3.6122301616e+00 
17900 5.0172380506e+00 -6.8547454954e-03 2.0856873846e+00 -3.6125165189e+00 2.0856873846e+00 3.6125165189e+00 
18000 5.0172420435e+00 -6.8147597451e-03 2.0858517150e+00 -3.6128011474e+00 2.0858517150e+00 3.6128011474e+00 
18100 5.0172456861e+00 -6.7756113408e-03 2.0860150739e+00 -3.6130840933e+00 2.0860150739e+00 3.6130840933e+00 
18200 5.0172489744e+00 -6.7370513296e-03 2.0861774816e+00 -3.6133653918e+00 2.0861774816e+00 3.6133653918e+00 
18300 5.0172519076e+00 -6.6988444010e-03 2.0863389525e+00 -3.6136450675e+00 2.0863389525e+00 3.6136450675e+00 
18400 5.0172544883e+00 -6.6607687643e-03 2.0864994952e+00 -3.6139231357e+00 2.0864994952e+00 3.6139231357e+00 
18500 5.0172567220e+00 -6.6226160101e-03 2.0866591131e+00 -3.6141996020e+00 2.0866591131e+00 3.6141996020e+00 
18600 5.0172586167e+00 -6.5841909532e-03 2.0868178046e+00 -3.6144744637e+00 2.0868178046e+00 3.6144744637e+00 
18700 5.0172601831e+00 -6.5453114610e-03 2.0869755633e+00 -3.6147477098e+00 2.0869755633e+00 3.6147477098e+00 
18800 5.0172614341e+00 -6.5058082652e-03 2.0871323786e+00 -3.6150193218e+00 2.0871323786e+00 3.6150193218e+00 
18900 5.0172623843e+00 -6.4655247594e-03 2.0872882357e+00 -3.6152892743e+00 2.0872882357e+00 3.6152892743e+00 
19000 5.0172630500e+00 -6.4243167816e-03 2.0874431162e+00 -3.6155575352e+00 2.0874431162e+00 3.6155575352e+00 
19100 5.0172634492e+00 -6.3820523839e-03 2.0875969981e+00 -3.6158240665e+00 2.0875969981e+00 3.6158240665e+00 
19200 5.0172636005e+00 -6.3386115886e-03 2.0877498564e+00 -3.6160888249e+00 2.0877498564e+00 3.6160888249e+00 
19300 5.0172635240e+00 -6.2938861322e-03 2.0879016631e+00 -3.6163517618e+00 2.0879016631e+00 3.6163517618e+00 
19400 5.0172632399e+00 -6.2477791975e-03 2.0880523877e+00 -3.6166128244e+00 2.0880523877e+00 3.6166128244e+00 
19500 5.0172627692e+00 -6.2002051349e-03 2.0882019973e+00 -3.6168719558e+00 2.0882019973e+00 3.6168719558e+00 
19600 5.0172621331e+00 -6.1510891731e-03 2.0883504571e+00 -3.6171290956e+00 2.0883504571e+00 3.6171290956e+00 
19700 5.0172613526e+00 -6.1003671199e-03 2.0884977303e+00 -3.6173841803e+00 2.0884977303e+00 3.6173841803e+00 
19800 5.0172604488e+00 -6.0479850538e-03 2.0886437788e+00 -3.6176371437e+00 2.0886437788e+00 3.6176371437e+00 
19900 5.0172594421e+00 -5.9938990080e-03 2.0887885630e+00 -3.6178879174e+00 2.0887885630e+00 3.6178879174e+00 
20000 5.0172583528e+00 -5.9380746456e-03 2.0889320425e+00 -3.6181364312e+00 2.0889320425e+00 3.6181364312e+00 
20100 5.0172572003e+00 -5.8804869282e-03 2.0890741760e+00 -3.6183826136e+00 2.0890741760e+00 3.6183826136e+00 
20200 5.0172560033e+00 -5.8211197780e-03 2.0892149214e+00 -3.6186263918e+00 2.0892149214e+00 3.6186263918e+00 
20300 5.0172547795e+00 -5.7599657346e-03 2.0893542365e+00 -3.6188676927e+00 2.0893542365e+00 3.6188676927e+00 
20400 5.0172535459e+00 -5.6970256060e-03 2.0894920789e+00 -3.6191064426e+00 2.0894920789e+00 3.6191064426e+00 
20500 5.0172523181e+00 -5.6323081160e-03 2.0896284059e+00 -3.6193425680e+00 2.0896284059e+00 3.6193425680e+00 
20600 5.0172511108e+00 -5.5658295477e-03 2.0897631756e+00 -3.6195759959e+00 2.0897631756e+00 3.6195759959e+00 
20700 5.0172499374e+00 -5.4976133842e-03 2.0898963459e+00 -3.6198066536e+00 2.0898963459e+00 3.6198066536e+00 
20800 5.0172488100e+00 -5.4276899466e-03 2.0900278756e+00 -3.6200344698e+00 2.0900278756e+00 3.6200344698e+00 
20900 5.0172477397e+00 -5.3560960314e-03 2.0901577243e+00 -3.6202593743e+00 2.0901577243e+00 3.6202593743e+00 
21000 5.0172467361e+00 -5.2828745460e-03 2.0902858522e+00 -3.6204812984e+00 2.0902858522e+00 3.6204812984e+00 
21100 5.0172458076e+00 -5.2080741447e-03 2.0904122208e+00 -3.6207001751e+00 2.0904122208e+00 3.6207001751e+00 
21200 5.0172449614e+00 -5.1317488653e-03 2.0905367925e+00 -3.6209159397e+00 2.0905367925e+00 3.6209159397e+00 
21300 5.0172442035e+00 -5.0539577660e-03 2.0906595313e+00 -3.6211285295e+00 2.0906595313e+00 3.6211285295e+00 
21400 5.0172435385e+00 -4.9747645655e-03 2.0907804024e+00 -3.6213378844e+00 2.0907804024e+00 3.6213378844e+00 
21500 5.0172429700e+00 -4.8942372840e-03 2.0908993726e+00 -3.6215439469e+00 2.0908993726e+00 3.6215439469e+00 
21600 5.0172425004e+00 -4.8124478887e-03 2.0910164103e+00 -3.6217466622e+00 2.0910164103e+00 3.6217466622e+00 
21700 5.0172421312e+00 -4.7294719421e-03 2.0911314858e+00 -3.6219459787e+00 2.0911314858e+00 3.6219459787e+00 
21800 5.0172418626e+00 -4.6453882549e-03 2.0912445708e+00 -3.6221418477e+00 2.0912445708e+00 3.6221418477e+00 
21900 5.0172416941e+00 -4.5602785437e-03 2.0913556394e+00 -3.6223342241e+00 2.0913556394e+00 3.6223342241e+00 
22000 5.0172416242e+00 -4.4742270946e-03 2.0914646672e+00 -3.6225230658e+00 2.0914646672e+00 3.6225230658e+00 
22100 5.0172416506e+00 -4.3873204319e-03 2.0915716320e+00 -3.6227083344e+00 2.0915716320e+00 3.6227083344e+00 
22200 5.0172417704e+00 -4.2996469940e-03 2.0916765139e+00 -3.6228899950e+00 2.0916765139e+00 3.6228899950e+00 
22300 5.0172419798e+00 -4.2112968161e-03 2.0917792946e+00 -3.6230680165e+00 2.0917792946e+00 3.6230680165e+00 
22400 5.0172422746e+00 -4.1223612202e-03 2.0918799585e+00 -3.6232423714e+00 2.0918799585e+00 3.6232423714e+00 
22500 5.0172426499e+00 -4.0329325133e-03 2.0919784917e+00 -3.6234130360e+00 2.0919784917e+00 3.6234130360e+00 
22600 5.0172431007e+00 -3.9431036936e-03 2.0920748828e+00 -3.6235799903e+00 2.0920748828e+00 3.6235799903e+00 
22700 5.0172436213e+00 -3.8529681657e-03 2.0921691226e+00 -3.6237432184e+00 2.0921691226e+00 3.6237432184e+00 
22800 5.0172442058e+00 -3.7626194644e-03 2.0922612040e+00 -3.6239027080e+00 2.0922612040e+00 3.6239027080e+00 
22900 5.0172448481e+00 -3.6721509888e-03 2.0923511222e+00 -3.6240584509e+00 2.0923511222e+00 3.6240584509e+00 
23000 5.0172455421e+00 -3.5816557450e-03 2.0924388746e+00 -3.6242104425e+00 2.0924388746e+00 3.6242104425e+00 
23100 5.0172462814e+00 -3.4912260998e-03 2.0925244608e+00 -3.6243586822e+00 2.0925244608e+00 3.6243586822e+00 
23200 5.0172470596e+00 -3.4009535439e-03 2.0926078828e+00 -3.6245031733e+00 2.0926078828e+00 3.6245031733e+00 
23300 5.0172478703e+00 -3.3109284663e-03 2.0926891444e+00 -3.6246439226e+00 2.0926891444e+00 3.6246439226e+00 
23400 5.0172487074e+00 -3.2212399382e-03 2.0927682519e+00 -3.6247809408e+00 2.0927682519e+00 3.6247809408e+00 
23500 5.0172495647e+00 -3.1319755093e-03 2.0928452136e+00 -3.6249142424e+00 2.0928452136e+00 3.6249142424e+00 
23600 5.0172504363e+00 -3.0432210137e-03 2.0929200399e+00 -3.6250438452e+00 2.0929200399e+00 3.6250438452e+00 
23700 5.0172513163e+00 -2.9550603874e-03 2.0929927430e+00 -3.6251697708e+00 2.0929927430e+00 3.6251697708e+00 
23800 5.0172521995e+00 -2.8675754971e-03 2.0930633376e+00 -3.6252920441e+00 2.0930633376e+00 3.6252920441e+00 
23900 5.0172530804e+00 -2.7808459794e-03 2.0931318398e+00 -3.6254106935e+00 2.0931318398e+00 3.6254106935e+00 
24000 5.0172539543e+00 -2.6949490927e-03 2.0931982681e+00 -3.6255257506e+00 2.0931982681e+00 3.6255257506e+00 
24100 5.0172548165e+00 -2.6099595780e-03 2.0932626423e+00 -3.6256372501e+00 2.0932626423e+00 3.6256372501e+00 
24200 5.0172556630e+00 -2.5259495334e-03 2.0933249846e+00 -3.6257452300e+00 2.0933249846e+00 3.6257452300e+00 
24300 5.0172564897e+00 -2.4429882974e-03 2.0933853183e+00 -3.6258497311e+00 2.0933853183e+00 3.6258497311e+00 
24400 5.0172572933e+00 -2.3611423447e-03 2.0934436687e+00 -3.6259507970e+00 2.0934436687e+00 3.6259507970e+00 
24500 5.0172580706e+00 -2.2804751920e-03 2.0935000627e+00 -3.6260484743e+00 2.0935000627e+00 3.6260484743e+00 
24600 5.0172588190e+00 -2.2010473151e-03 2.0935545286e+00 -3.6261428119e+00 2.0935545286e+00 3.6261428119e+00 
24700 5.0172595360e+00 -2.1229160759e-03 2.0936070960e+00 -3.6262338614e+00 2.0936070960e+00 3.6262338614e+00 
24800 5.0172602199e+00 -2.0461356607e-03 2.0936577962e+00 -3.6263216767e+00 2.0936577962e+00 3.6263216767e+00 
24900 5.0172608689e+00 -1.9707570274e-03 2.0937066615e+00 -3.6264063138e+00 2.0937066615e+00 3.6264063138e+00 
25000 5.0172614818e+00 -1.8968278641e-03 2.0937537255e+00 -3.6264878311e+00 2.0937537255e+00 3.6264878311e+00 
25100 5.0172620578e+00 -1.8243925562e-03 2.0937990229e+00 -3.6265662886e+00 2.0937990229e+00 3.6265662886e+00 
25200 5.0172625964e+00 -1.7534921634e-03 2.0938425897e+00 -3.6266417483e+00 2.0938425897e+00 3.6266417483e+00 
25300 5.0172630973e+00 -1.6841644063e-03 2.0938844624e+00 -3.6267142740e+00 2.0938844624e+00 3.6267142740e+00 
25400 5.0172635606e+00 -1.6164436610e-03 2.0939246788e+00 -3.6267839309e+00 2.0939246788e+00 3.6267839309e+00 
25500 5.0172639867e+00 -1.5503609629e-03 2.0939632773e+00 -3.6268507855e+00 2.0939632773e+00 3.6268507855e+00 
25600 5.0172643762e+00 -1.4859440189e-03 2.0940002972e+00 -3.6269149058e+00 2.0940002972e+00 3.6269149058e+00 
25700 5.0172647299e+00 -1.4232172267e-03 2.0940357783e+00 -3.6269763609e+00 2.0940357783e+00 3.6269763609e+00 
25800 5.0172650489e+00 -1.3622017031e-03 2.0940697610e+00 -3.6270352207e+00 2.0940697610e+00 3.6270352207e+00 
25900 5.0172653345e+00 -1.3029153180e-03 2.0941022863e+00 -3.6270915562e+00 2.0941022863e+00 3.6270915562e+00 
26000 5.0172655881e+00 -1.2453727365e-03 2.0941333956e+00 -3.6271454389e+00 2.0941333956e+00 3.6271454389e+00 
26100 5.0172658114e+00 -1.1895854671e-03 2.0941631304e+00 -3.6271969412e+00 2.0941631304e+00 3.6271969412e+00 
26200 5.0172660059e+00 -1.1355619162e-03 2.0941915329e+00 -3.6272461358e+00 2.0941915329e+00 3.6272461358e+00 
26300 5.0172661737e+00 -1.0833074484e-03 2.0942186451e+00 -3.6272930955e+00 2.0942186451e+00 3.6272930955e+00 
26400 5.0172663164e+00 -1.0328244524e-03 2.0942445094e+00 -3.6273378938e+00 2.0942445094e+00 3.6273378938e+00 
26500 5.0172664361e+00 -9.8411241206e-04 2.0942691681e+00 -3.6273806039e+00 2.0942691681e+00 3.6273806039e+00 
26600 5.0172665348e+00 -9.3716798211e-04 2.0942926635e+00 -3.6274212992e+00 2.0942926635e+00 3.6274212992e+00 
26700 5.0172666146e+00 -8.9198506831e-04 2.0943150379e+00 -3.6274600527e+00 2.0943150379e+00 3.6274600527e+00 
26800 5.0172666773e+00 -8.4855491170e-04 2.0943363333e+00 -3.6274969375e+00 2.0943363333e+00 3.6274969375e+00 
26900 5.0172667251e+00 -8.0686617659e-04 2.0943565917e+00 -3.6275320260e+00 2.0943565917e+00 3.6275320260e+00 
27000 5.0172667599e+00 -7.6690504182e-04 2.0943758546e+00 -3.6275653903e+00 2.0943758546e+00 3.6275653903e+00 
27100 5.0172667836e+00 -7.2865529503e-04 2.0943941633e+00 -3.6275971019e+00 2.0943941633e+00 3.6275971019e+00 
27200 5.0172667981e+00 -6.9209842968e-04 2.0944115587e+00 -3.6276272316e+00 2.0944115587e+00 3.6276272316e+00 
27300 5.0172668052e+00 -6.5721374428e-04 2.0944280812e+00 -3.6276558495e+00 2.0944280812e+00 3.6276558495e+00 
27400 5.0172668067e+00 -6.2397844370e-04 2.0944437708e+00 -3.6276830246e+00 2.0944437708e+00 3.6276830246e+00 
27500 5.0172668041e+00 -5.9236774214e-04 2.0944586669e+00 -3.6277088254e+00 2.0944586669e+00 3.6277088254e+00 
27600 5.0172667991e+00 -5.6235496747e-04 2.0944728082e+00 -3.6277333189e+00 2.0944728082e+00 3.6277333189e+00 
27700 5.0172667930e+00 -5.3391166661e-04 2.0944862329e+00 -3.6277565712e+00 2.0944862329e+00 3.6277565712e+00 
27800 5.0172667871e+00 -5.0700771176e-04 2.0944989786e+00 -3.6277786473e+00 2.0944989786e+00 3.6277786473e+00 
27900 5.0172667828e+00 -4.8161140703e-04 2.0945110819e+00 -3.6277996109e+00 2.0945110819e+00 3.6277996109e+00 
28000 5.0172667810e+00 -4.5768959534e-04 2.0945225789e+00 -3.6278195243e+00 2.0945225789e+00 3.6278195243e+00 
28100 5.0172667827e+00 -4.3520776526e-04 2.0945335048e+00 -3.6278384485e+00 2.0945335048e+00 3.6278384485e+00 
28200 5.0172667889e+00 -4.1413015757e-04 2.0945438939e+00 -3.6278564430e+00 2.0945438939e+00 3.6278564430e+00 
28300 5.0172668003e+00 -3.9441987123e-04 2.0945537799e+00 -3.6278735659e+00 2.0945537799e+00 3.6278735659e+00 
28400 5.0172668174e+00 -3.7603896862e-04 2.0945631953e+00 -3.6278898739e+00 2.0945631953e+00 3.6278898739e+00 
28500 5.0172668408e+00 -3.5894857977e-04 2.0945721718e+00 -3.6279054217e+00 2.0945721718e+00 3.6279054217e+00 
28600 5.0172668710e+00 -3.4310900539e-04 2.0945807404e+00 -3.6279202629e+00 2.0945807404e+00 3.6279202629e+00 
28700 5.0172669082e+00 -3.2847981847e-04 2.0945889308e+00 -3.6279344491e+00 2.0945889308e+00 3.6279344491e+00 
28800 5.0172669527e+00 -3.1501996437e-04 2.0945967719e+00 -3.6279480303e+00 2.0945967719e+00 3.6279480303e+00 
28900 5.0172670044e+00 -3.0268785904e-04 2.0946042917e+00 -3.6279610551e+00 2.0946042917e+00 3.6279610551e+00 
29000 5.0172670636e+00 -2.9144148539e-04 2.0946115172e+00 -3.6279735699e+00 2.0946115172e+00 3.6279735699e+00 
29100 5.0172671300e+00 -2.8123848751e-04 2.0946184741e+00 -3.6279856196e+00 2.0946184741e+00 3.6279856196e+00 
29200 5.0172672036e+00 -2.7203626278e-04 2.0946251875e+00 -3.6279972475e+00 2.0946251875e+00 3.6279972475e+00 
29300 5.0172672841e+00 -2.6379205145e-04 2.0946316811e+00 -3.6280084949e+00 2.0946316811e+00 3.6280084949e+00 
29400 5.0172673712e+00 -2.5646302391e-04 2.0946379780e+00 -3.6280194014e+00 2.0946379780e+00 3.6280194014e+00 
29500 5.0172674647e+00 -2.5000636523e-04 2.0946440999e+00 -3.6280300048e+00 2.0946440999e+00 3.6280300048e+00 
29600 5.0172675642e+00 -2.4437935712e-04 2.0946500677e+00 -3.6280403413e+00 2.0946500677e+00 3.6280403413e+00 
29700 5.0172676691e+00 -2.3953945702e-04 2.0946559011e+00 -3.6280504451e+00 2.0946559011e+00 3.6280504451e+00 
29800 5.0172677791e+00 -2.3544437436e-04 2.0946616190e+00 -3.6280603487e+00 2.0946616190e+00 3.6280603487e+00 
29900 5.0172678937e+00 -2.3205214393e-04 2.0946672391e+00 -3.6280700830e+00 2.0946672391e+00 3.6280700830e+00 
30000 5.0172680122e+00 -2.2932119614e-04 2.0946727782e+00 -3.6280796771e+00 2.0946727782e+00 3.6280796771e+00 
30100 5.0172681343e+00 -2.2721042435e-04 2.0946782521e+00 -3.6280891582e+00 2.0946782521e+00 3.6280891582e+00 
30200 5.0172682594e+00 -2.2567924901e-04 2.0946836756e+00 -3.6280985520e+00 2.0946836756e+00 3.6280985520e+00 
30300 5.0172683869e+00 -2.2468767874e-04 2.0946890626e+00 -3.6281078824e+00 2.0946890626e+00 3.6281078824e+00 
30400 5.0172685162e+00 -2.2419636818e-04 2.0946944259e+00 -3.6281171719e+00 2.0946944259e+00 3.6281171719e+00 
30500 5.0172686468e+00 -2.2416667274e-04 2.0946997774e+00 -3.6281264410e+00 2.0946997774e+00 3.6281264410e+00 
30600 5.0172687783e+00 -2.2456070006e-04 2.0947051282e+00 -3.6281357089e+00 2.0947051282e+00 3.6281357089e+00 
30700 5.0172689100e+00 -2.2534135841e-04 2.0947104884e+00 -3.6281449930e+00 2.0947104884e+00 3.6281449930e+00 
30800 5.0172690414e+00 -2.2647240173e-04 2.0947158672e+00 -3.6281543094e+00 2.0947158672e+00 3.6281543094e+00 
30900 5.0172691722e+00 -2.2791847164e-04 2.0947212730e+00 -3.6281636726e+00 2.0947212730e+00 3.6281636726e+00 
31000 5.0172693018e+00 -2.2964513618e-04 2.0947267133e+00 -3.6281730955e+00 2.0947267133e+00 3.6281730955e+00 
31100 5.0172694297e+00 -2.3161892544e-04 2.0947321948e+00 -3.6281825897e+00 2.0947321948e+00 3.6281825897e+00 
31200 5.0172695557e+00 -2.3380736407e-04 2.0947377234e+00 -3.6281921655e+00 2.0947377234e+00 3.6281921655e+00 
31300 5.0172696794e+00 -2.3617900073e-04 2.0947433043e+00 -3.6282018318e+00 2.0947433043e+00 3.6282018318e+00 
31400 5.0172698003e+00 -2.3870343441e-04 2.0947489417e+00 -3.6282115961e+00 2.0947489417e+00 3.6282115961e+00 
31500 5.0172699182e+00 -2.4135133785e-04 2.0947546394e+00 -3.6282214648e+00 2.0947546394e+00 3.6282214648e+00 
31600 5.0172700328e+00 -2.4409447795e-04 2.0947604002e+00 -3.6282314428e+00 2.0947604002e+00 3.6282314428e+00 
31700 5.0172701440e+00 -2.4690573328e-04 2.0947662265e+00 -3.6282415343e+00 2.0947662265e+00 3.6282415343e+00 
31800 5.0172702514e+00 -2.4975910877e-04 2.0947721199e+00 -3.6282517420e+00 2.0947721199e+00 3.6282517420e+00 
31900 5.0172703550e+00 -2.5262974758e-04 2.0947780814e+00 -3.6282620676e+00 2.0947780814e+00 3.6282620676e+00 
32000 5.0172704545e+00 -2.5549394031e-04 2.0947841114e+00 -3.6282725118e+00 2.0947841114e+00 3.6282725118e+00 
32100 5.0172705500e+00 -2.5832913151e-04 2.0947902097e+00 -3.6282830745e+00 2.0947902097e+00 3.6282830745e+00 
32200 5.0172706413e+00 -2.6111392365e-04 2.0947963757e+00 -3.6282937543e+00 2.0947963757e+00 3.6282937543e+00 
32300 5.0172707284e+00 -2.6382807854e-04 2.0948026082e+00 -3.6283045492e+00 2.0948026082e+00 3.6283045492e+00 
32400 5.0172708112e+00 -2.6645251641e-04 2.0948089054e+00 -3.6283154563e+00 2.0948089054e+00 3.6283154563e+00 
32500 5.0172708899e+00 -2.6896931255e-04 2.0948152652e+00 -3.6283264718e+00 2.0948152652e+00 3.6283264718e+00 
32600 5.0172709645e+00 -2.7136169178e-04 2.0948216851e+00 -3.6283375914e+00 2.0948216851e+00 3.6283375914e+00 
32700 5.0172710349e+00 -2.7361402066e-04 2.0948281621e+00 -3.6283488098e+00 2.0948281621e+00 3.6283488098e+00 
32800 5.0172711014e+00 -2.7571179765e-04 2.0948346928e+00 -3.6283601214e+00 2.0948346928e+00 3.6283601214e+00 
32900 5.0172711639e+00 -2.7764164130e-04 2.0948412735e+00 -3.6283715196e+00 2.0948412735e+00 3.6283715196e+00 
33000 5.0172712228e+00 -2.7939127644e-04 2.0948479003e+00 -3.6283829975e+00 2.0948479003e+00 3.6283829975e+00 
33100 5.0172712780e+00 -2.8094951862e-04 2.0948545689e+00 -3.6283945478e+00 2.0948545689e+00 3.6283945478e+00 
33200 5.0172713298e+00 -2.8230625680e-04 2.0948612746e+00 -3.6284061624e+00 2.0948612746e+00 3.6284061624e+00 
33300 5.0172713782e+00 -2.8345243434e-04 2.0948680126e+00 -3.6284178331e+00 2.0948680126e+00 3.6284178331e+00 
33400 5.0172714236e+00 -2.8438002854e-04 2.0948747781e+00 -3.6284295511e+00 2.0948747781e+00 3.6284295511e+00 
33500 5.0172714660e+00 -2.8508202863e-04 2.0948815656e+00 -3.6284413074e+00 2.0948815656e+00 3.6284413074e+00 
33600 5.0172715058e+00 -2.8555241243e-04 2.0948883698e+00 -3.6284530927e+00 2.0948883698e+00 3.6284530927e+00 
33700 5.0172715429e+00 -2.8578612177e-04 2.0948951853e+00 -3.6284648975e+00 2.0948951853e+00 3.6284648975e+00 
33800 5.0172715778e+00 -2.8577903664e-04 2.0949020063e+00 -3.6284767118e+00 2.0949020063e+00 3.6284767118e+00 
33900 5.0172716104e+00 -2.8552794836e-04 2.0949088271e+00 -3.6284885258e+00 2.0949088271e+00 3.6284885258e+00 
34000 5.0172716412e+00 -2.8503053166e-04 2.0949156419e+00 -3.6285003294e+00 2.0949156419e+00 3.6285003294e+00 
34100 5.0172716701e+00 -2.8428531587e-04 2.0949224449e+00 -3.6285121124e+00 2.0949224449e+00 3.6285121124e+00 
34200 5.0172716975e+00 -2.8329165537e-04 2.0949292300e+00 -3.6285238646e+00 2.0949292300e+00 3.6285238646e+00 
34300 5.0172717235e+00 -2.8204969916e-04 2.0949359913e+00 -3.6285355756e+00 2.0949359913e+00 3.6285355756e+00 
34400 5.0172717483e+00 -2.8056035994e-04 2.0949427230e+00 -3.6285472353e+00 2.0949427230e+00 3.6285472353e+00 
34500 5.0172717721e+00 -2.7882528251e-04 2.0949494192e+00 -3.6285588333e+00 2.0949494192e+00 3.6285588333e+00 
34600 5.0172717949e+00 -2.7684681178e-04 2.0949560739e+00 -3.6285703596e+00 2.0949560739e+00 3.6285703596e+00 
34700 5.0172718170e+00 -2.7462796032e-04 2.0949626813e+00 -3.6285818041e+00 2.0949626813e+00 3.6285818041e+00 
34800 5.0172718386e+00 -2.7217237568e-04 2.0949692358e+00 -3.6285931568e+00 2.0949692358e+00 3.6285931568e+00 
34900 5.0172718597e+00 -2.6948430737e-04 2.0949757317e+00 -3.6286044079e+00 2.0949757317e+00 3.6286044079e+00 
35000 5.0172718804e+00 -2.6656857379e-04 2.0949821634e+00 -3.6286155479e+00 2.0949821634e+00 3.6286155479e+00 
35100 5.0172719009e+00 -2.6343052902e-04 2.0949885255e+00 -3.6286265674e+00 2.0949885255e+00 3.6286265674e+00 
35200 5.0172719213e+00 -2.6007602960e-04 2.0949948126e+00 -3.6286374570e+00 2.0949948126e+00 3.6286374570e+00 
35300 5.0172719416e+00 -2.5651140144e-04 2.0950010197e+00 -3.6286482080e+00 2.0950010197e+00 3.6286482080e+00 
35400 5.0172719620e+00 -2.5274340673e-04 2.0950071417e+00 -3.6286588116e+00 2.0950071417e+00 3.6286588116e+00 
35500 5.0172719825e+00 -2.4877921121e-04 2.0950131737e+00 -3.6286692594e+00 2.0950131737e+00 3.6286692594e+00 
35600 5.0172720032e+00 -2.4462635157e-04 2.0950191112e+00 -3.6286795433e+00 2.0950191112e+00 3.6286795433e+00 
35700 5.0172720241e+00 -2.4029270326e-04 2.0950249494e+00 -3.6286896556e+00 2.0950249494e+00 3.6286896556e+00 
35800 5.0172720453e+00 -2.3578644860e-04 2.0950306843e+00 -3.6286995886e+00 2.0950306843e+00 3.6286995886e+00 
35900 5.0172720667e+00 -2.3111604538e-04 2.0950363116e+00 -3.6287093353e+00 2.0950363116e+00 3.6287093353e+00 
36000 5.0172720884e+00 -2.2629019597e-04 2.0950418274e+00 -3.6287188890e+00 2.0950418274e+00 3.6287188890e+00 
36100 5.0172721105e+00 -2.2131781690e-04 2.0950472280e+00 -3.6287282431e+00 2.0950472280e+00 3.6287282431e+00 
36200 5.0172721328e+00 -2.1620800906e-04 2.0950525099e+00 -3.6287373917e+00 2.0950525099e+00 3.6287373917e+00 
36300 5.0172721555e+00 -2.1097002858e-04 2.0950576699e+00 -3.6287463290e+00 2.0950576699e+00 3.6287463290e+00 
36400 5.0172721785e+00 -2.0561325827e-04 2.0950627048e+00 -3.6287550498e+00 2.0950627048e+00 3.6287550498e+00 
36500 5.0172722017e+00 -2.0014717992e-04 2.0950676119e+00 -3.6287635491e+00 2.0950676119e+00 3.6287635491e+00 
36600 5.0172722253e+00 -1.9458134720e-04 2.0950723886e+00 -3.6287718225e+00 2.0950723886e+00 3.6287718225e+00 
36700 5.0172722490e+00 -1.8892535947e-04 2.0950770323e+00 -3.6287798658e+00 2.0950770323e+00 3.6287798658e+00 
36800 5.0172722730e+00 -1.8318883632e-04 2.0950815411e+00 -3.6287876752e+00 2.0950815411e+00 3.6287876752e+00 
36900 5.0172722972e+00 -1.7738139300e-04 2.0950859130e+00 -3.6287952476e+00 2.0950859130e+00 3.6287952476e+00 
37000 5.0172723214e+00 -1.7151261668e-04 2.0950901463e+00 -3.6288025798e+00 2.0950901463e+00 3.6288025798e+00 
37100 5.0172723458e+00 -1.6559204367e-04 2.0950942395e+00 -3.6288096694e+00 2.0950942395e+00 3.6288096694e+00 
37200 5.0172723702e+00 -1.5962913745e-04 2.0950981914e+00 -3.6288165143e+00 2.0950981914e+00 3.6288165143e+00 
37300 5.0172723947e+00 -1.5363326772e-04 2.0951020010e+00 -3.6288231127e+00 2.0951020010e+00 3.6288231127e+00 
37400 5.0172724191e+00 -1.4761369035e-04 2.0951056675e+00 -3.6288294633e+00 2.0951056675e+00 3.6288294633e+00 
37500 5.0172724434e+00 -1.4157952830e-04 2.0951091903e+00 -3.6288355650e+00 2.0951091903e+00 3.6288355650e+00 
37600 5.0172724676e+00 -1.3553975350e-04 2.0951125691e+00 -3.6288414173e+00 2.0951125691e+00 3.6288414173e+00 
37700 5.0172724917e+00 -1.2950316970e-04 2.0951158038e+00 -3.6288470199e+00 2.0951158038e+00 3.6288470199e+00 
37800 5.0172725155e+00 -1.2347839633e-04 2.0951188944e+00 -3.6288523729e+00 2.0951188944e+00 3.6288523729e+00 
37900 5.0172725391e+00 -1.1747385328e-04 2.0951218412e+00 -3.6288574770e+00 2.0951218412e+00 3.6288574770e+00 
38000 5.0172725624e+00 -1.1149774674e-04 2.0951246447e+00 -3.6288623328e+00 2.0951246447e+00 3.6288623328e+00 
38100 5.0172725854e+00 -1.0555805595e-04 2.0951273056e+00 -3.6288669416e+00 2.0951273056e+00 3.6288669416e+00 
38200 5.0172726081e+00 -9.9662520994e-05 2.0951298247e+00 -3.6288713048e+00 2.0951298247e+00 3.6288713048e+00 
38300 5.0172726303e+00 -9.3818631496e-05 2.0951322031e+00 -3.6288754244e+00 2.0951322031e+00 3.6288754244e+00 
38400 5.0172726522e+00 -8.8033616340e-05 2.0951344421e+00 -3.6288793024e+00 2.0951344421e+00 3.6288793024e+00 
38500 5.0172726736e+00 -8.2314434306e-05 2.0951365430e+00 -3.6288829413e+00 2.0951365430e+00 3.6288829413e+00 
38600 5.0172726945e+00 -7.6667765671e-05 2.0951385074e+00 -3.6288863438e+00 2.0951385074e+00 3.6288863438e+00 
38700 5.0172727149e+00 -7.1100004723e-05 2.0951403371e+00 -3.6288895128e+00 2.0951403371e+00 3.6288895128e+00 
38800 5.0172727349e+00 -6.5617253202e-05 2.0951420339e+00 -3.6288924517e+00 2.0951420339e+00 3.6288924517e+00 
38900 5.0172727544e+00 -6.1018663443e-05 2.0951420339e+00 -3.6288924517e+00 2.0951420339e+00 3.6288924517e+00 
39000 5.0172727733e+00 -5.6459428949e-05 2.0951420339e+00 -3.6288924517e+00 2.0951420339e+00 3.6288924517e+00 
39100 5.0172727917e+00 -5.1945285556e-05 2.0951420339e+00 -3.6288924517e+00 2.0951420339e+00 3.6288924517e+00 
39200 5.0172728095e+00 -4.7481709537e-05 2.0951420339e+00 -3.6288924517e+00 2.0951420339e+00 3.6288924517e+00 
39300 5.0172728268e+00 -4.3073915185e-05 2.0951420339e+00 -3.6288924517e+00 2.0951420339e+00 3.6288924517e+00 
39400 5.0172728435e+00 -3.8726852957e-05 2.0951420339e+00 -3.6288924517e+00 2.0951420339e+00 3.6288924517e+00 
39500 5.0172728596e+00 -3.4445208153e-05 2.0951420339e+00 -3.6288924517e+00 2.0951420339e+00 3.6288924517e+00 
39600 5.0172728752e+00 -3.0233400141e-05 2.0951420339e+00 -3.6288924517e+00 2.0951420339e+00 3.6288924517e+00 
39700 5.0172728903e+00 -2.6095582100e-05 2.0951420339e+00 -3.6288924517e+00 2.0951420339e+00 3.6288924517e+00 
39800 5.0172729048e+00 -2.2035641264e-05 2.0951420339e+00 -3.6288924517e+00 2.0951420339e+00 3.6288924517e+00 
39900 5.0172729188e+00 -1.8057199693e-05 2.0951420339e+00 -3.6288924517e+00 2.0951420339e+00 3.6288924517e+00 
40000 5.0172729323e+00 -1.4163615506e-05 2.0951420339e+00 -3.6288924517e+00 2.0951420339e+00 3.6288924517e+00 
40100 5.0172729453e+00 -1.0357984609e-05 2.0951420339e+00 -3.6288924517e+00 2.0951420339e+00 3.6288924517e+00 
40200 5.0172729579e+00 -6.6431428555e-06 2.0951420339e+00 -3.6288924517e+00 2.0951420339e+00 3.6288924517e+00 
40300 5.0172729700e+00 -3.0216686753e-06 2.0951420339e+00 -3.6288924517e+00 2.0951420339e+00 3.6288924517e+00 
40400 5.0172729817e+00 5.0411389205e-07 2.0951420339e+00 -3.6288924517e+00 2.0951420339e+00 3.6288924517e+00 
40500 5.0172729929e+00 3.9321317426e-06 2.0951420339e+00 -3.6288924517e+00 2.0951420339e+00 3.6288924517e+00 
40600 5.0172730038e+00 7.2605588698e-06 2.0951420339e+00 -3.6288924517e+00 2.0951420339e+00 3.6288924517e+00 
40700 5.0172730143e+00 1.0487812155e-05 2.0951420339e+00 -3.6288924517e+00 2.0951420339e+00 3.6288924517e+00 
40800 5.0172730244e+00 1.3612546791e-05 2.0951420339e+00 -3.6288924517e+00 2.0951420339e+00 3.6288924517e+00 
40900 5.0172730343e+00 1.6633651398e-05 2.0951420339e+00 -3.6288924517e+00 2.0951420339e+00 3.6288924517e+00 
41000 5.0172730438e+00 1.9550242793e-05 2.0951420339e+00 -3.6288924517e+00 2.0951420339e+00 3.6288924517e+00 
41100 5.0172730530e+00 2.2361660489e-05 2.0951420339e+00 -3.6288924517e+00 2.0951420339e+00 3.6288924517e+00 
41200 5.0172730619e+00 2.5067460901e-05 2.0951420339e+00 -3.6288924517e+00 2.0951420339e+00 3.6288924517e+00 
41300 5.0172730706e+00 2.7667411306e-05 2.0951420339e+00 -3.6288924517e+00 2.0951420339e+00 3.6288924517e+00 
41400 5.0172730791e+00 3.0161483562e-05 2.0951420339e+00 -3.6288924517e+00 2.0951420339e+00 3.6288924517e+00 
41500 5.0172730874e+00 3.2549847609e-05 2.0951420339e+00 -3.6288924517e+00 2.0951420339e+00 3.6288924517e+00 
41600 5.0172730954e+00 3.4832864778e-05 2.0951420339e+00 -3.6288924517e+00 2.0951420339e+00 3.6288924517e+00 
41700 5.0172731033e+00 3.7011080918e-05 2.0951420339e+00 -3.6288924517e+00 2.0951420339e+00 3.6288924517e+00 
41800 5.0172731110e+00 3.9085219365e-05 2.0951420339e+00 -3.6288924517e+00 2.0951420339e+00 3.6288924517e+00 
41900 5.0172731186e+00 4.1056173772e-05 2.0951420339e+00 -3.6288924517e+00 2.0951420339e+00 3.6288924517e+00 
42000 5.0172731260e+00 4.2925000828e-05 2.0951420339e+00 -3.6288924517e+00 2.0951420339e+00 3.6288924517e+00 
42100 5.0172731333e+00 4.4692912860e-05 2.0951420339e+00 -3.6288924517e+00 2.0951420339e+00 3.6288924517e+00 
42200 5.0172731405e+00 4.6361270363e-05 2.0951420339e+00 -3.6288924517e+00 2.0951420339e+00 3.6288924517e+00 
42300 5.0172731476e+00 4.7931574464e-05 2.0951420339e+00 -3.6288924517e+00 2.0951420339e+00 3.6288924517e+00 
42400 5.0172731545e+00 4.9405459340e-05 2.0951420339e+00 -3.6288924517e+00 2.0951420339e+00 3.6288924517e+00 
42500 5.0172731614e+00 5.0784684598e-05 2.0951420339e+00 -3.6288924517e+00 2.0951420339e+00 3.6288924517e+00 
42600 5.0172731683e+00 5.2071127653e-05 2.0951420339e+00 -3.6288924517e+00 2.0951420339e+00 3.6288924517e+00 
42700 5.0172731750e+00 5.3266776099e-05 2.0951420339e+00 -3.6288924517e+00 2.0951420339e+00 3.6288924517e+00 
42800 5.0172731817e+00 5.4373720110e-05 2.0951420339e+00 -3.6288924517e+00 2.0951420339e+00 3.6288924517e+00 
42900 5.0172731883e+00 5.5394144864e-05 2.0951420339e+00 -3.6288924517e+00 2.0951420339e+00 3.6288924517e+00 
43000 5.0172731949e+00 5.6330323023e-05 2.0951420339e+00 -3.6288924517e+00 2.0951420339e+00 3.6288924517e+00 
43100 5.0172732014e+00 5.7184607274e-05 2.0951420339e+00 -3.6288924517e+00 2.0951420339e+00 3.6288924517e+00 
43200 5.0172732078e+00 5.7959422944e-05 2.0951420339e+00 -3.6288924517e+00 2.0951420339e+00 3.6288924517e+00 
43300 5.0172732142e+00 5.8657260716e-05 2.0951420339e+00 -3.6288924517e+00 2.0951420339e+00 3.6288924517e+00 
43400 5.0172732206e+00 5.9280669426e-05 2.0951420339e+00 -3.6288924517e+00 2.0951420339e+00 3.6288924517e+00 
43500 5.0172732269e+00 5.9832249000e-05 2.0951420339e+00 -3.6288924517e+00 2.0951420339e+00 3.6288924517e+00 
43600 5.0172732331e+00 6.0314643490e-05 2.0951420339e+00 -3.6288924517e+00 2.0951420339e+00 3.6288924517e+00 
43700 5.0172732393e+00 6.0730534269e-05 2.0951420339e+00 -3.6288924517e+00 2.0951420339e+00 3.6288924517e+00 
43800 5.0172732454e+00 6.1082633355e-05 2.0951420339e+00 -3.6288924517e+00 2.0951420339e+00 3.6288924517e+00 
43900 5.0172732515e+00 6.1373676900e-05 2.0951420339e+00 -3.6288924517e+00 2.0951420339e+00 3.6288924517e+00 
44000 5.0172732576e+00 6.1606418838e-05 2.0951420339e+00 -3.6288924517e+00 2.0951420339e+00 3.6288924517e+00 
44100 5.0172732635e+00 6.1783624700e-05 2.0951420339e+00 -3.6288924517e+00 2.0951420339e+00 3.6288924517e+00 
44200 5.0172732694e+00 6.1908065627e-05 2.0951420339e+00 -3.6288924517e+00 2.0951420339e+00 3.6288924517e+00 
44300 5.0172732753e+00 6.1982512541e-05 2.0951420339e+00 -3.6288924517e+00 2.0951420339e+00 3.6288924517e+00 
44400 5.0172732811e+00 6.2009730533e-05 2.0951420339e+00 -3.6288924517e+00 2.0951420339e+00 3.6288924517e+00 
44500 5.0172732868e+00 6.1992473437e-05 2.0951420339e+00 -3.6288924517e+00 2.0951420339e+00 3.6288924517e+00 
44600 5.0172732925e+00 6.1933478608e-05 2.0951420339e+00 -3.6288924517e+00 2.0951420339e+00 3.6288924517e+00 
44700 5.0172732980e+00 6.1835461906e-05 2.0951420339e+00 -3.6288924517e+00 2.0951420339e+00 3.6288924517e+00 
44800 5.0172733035e+00 6.1701112900e-05 2.0951420339e+00 -3.6288924517e+00 2.0951420339e+00 3.6288924517e+00 
44900 5.0172733090e+00 6.1533090269e-05 2.0951420339e+00 -3.6288924517e+00 2.0951420339e+00 3.6288924517e+00 
45000 5.0172733143e+00 6.1334017444e-05 2.0951420339e+00 -3.6288924517e+00 2.0951420339e+00 3.6288924517e+00 
45100 5.0172733196e+00 6.1106478441e-05 2.0951420339e+00 -3.6288924517e+00 2.0951420339e+00 3.6288924517e+00 
45200 5.0172733247e+00 6.0853013939e-05 2.0951420339e+00 -3.6288924517e+00 2.0951420339e+00 3.6288924517e+00 
45300 5.0172733298e+00 6.0576117568e-05 2.0951420339e+00 -3.6288924517e+00 2.0951420339e+00 3.6288924517e+00 
45400 5.0172733348e+00 6.0278232419e-05 2.0951420339e+00 -3.6288924517e+00 2.0951420339e+00 3.6288924517e+00 
45500 5.0172733398e+00 5.9961747778e-05 2.0951420339e+00 -3.6288924517e+00 2.0951420339e+00 3.6288924517e+00 
45600 5.0172733446e+00 5.9628996083e-05 2.0951420339e+00 -3.6288924517e+00 2.0951420339e+00 3.6288924517e+00 
45700 5.0172733493e+00 5.9282250108e-05 2.0951420339e+00 -3.6288924517e+00 2.0951420339e+00 3.6288924517e+00 
45800 5.0172733540e+00 5.8923720348e-05 2.0951420339e+00 -3.6288924517e+00 2.0951420339e+00 3.6288924517e+00 
45900 5.0172733585e+00 5.8555552642e-05 2.0951420339e+00 -3.6288924517e+00 2.0951420339e+00 3.6288924517e+00 
46000 5.0172733630e+00 5.8179826002e-05 2.0951420339e+00 -3.6288924517e+00 2.0951420339e+00 3.6288924517e+00 
46100 5.0172733673e+00 5.7798550657e-05 2.0951420339e+00 -3.6288924517e+00 2.0951420339e+00 3.6288924517e+00 
46200 5.0172733716e+00 5.7413666305e-05 2.0951420339e+00 -3.6288924517e+00 2.0951420339e+00 3.6288924517e+00 
46300 5.0172733758e+00 5.7027040579e-05 2.0951420339e+00 -3.6288924517e+00 2.0951420339e+00 3.6288924517e+00 
46400 5.0172733799e+00 5.6640467709e-05 2.0951420339e+00 -3.6288924517e+00 2.0951420339e+00 3.6288924517e+00 
46500 5.0172733839e+00 5.6255667382e-05 2.0951420339e+00 -3.6288924517e+00 2.0951420339e+00 3.6288924517e+00 
46600 5.0172733878e+00 5.5874283808e-05 2.0951420339e+00 -3.6288924517e+00 2.0951420339e+00 3.6288924517e+00 
46700 5.0172733916e+00 5.5497884971e-05 2.0951420339e+00 -3.6288924517e+00 2.0951420339e+00 3.6288924517e+00 
46800 5.0172733954e+00 5.5127962054e-05 2.0951420339e+00 -3.6288924517e+00 2.0951420339e+00 3.6288924517e+00 
46900 5.0172733990e+00 5.4765929069e-05 2.0951420339e+00 -3.6288924517e+00 2.0951420339e+00 3.6288924517e+00 
47000 5.0172734026e+00 5.4413122645e-05 2.0951420339e+00 -3.6288924517e+00 2.0951420339e+00 3.6288924517e+00 
47100 5.0172734061e+00 5.4070801984e-05 2.0951420339e+00 -3.6288924517e+00 2.0951420339e+00 3.6288924517e+00 
47200 5.0172734095e+00 5.3740148999e-05 2.0951420339e+00 -3.6288924517e+00 2.0951420339e+00 3.6288924517e+00 
47300 5.0172734128e+00 5.3422268598e-05 2.0951420339e+00 -3.6288924517e+00 2.0951420339e+00 3.6288924517e+00 
47400 5.0172734161e+00 5.3118189117e-05 2.0951420339e+00 -3.6288924517e+00 2.0951420339e+00 3.6288924517e+00 
47500 5.0172734193e+00 5.2828862914e-05 2.0951420339e+00 -3.6288924517e+00 2.0951420339e+00 3.6288924517e+00 
47600 5.0172734224e+00 5.2555167093e-05 2.0951420339e+00 -3.6288924517e+00 2.0951420339e+00 3.6288924517e+00 
47700 5.0172734254e+00 5.2297904362e-05 2.0951420339e+00 -3.6288924517e+00 2.0951420339e+00 3.6288924517e+00 
47800 5.0172734284e+00 5.2057804031e-05 2.0951420339e+00 -3.6288924517e+00 2.0951420339e+00 3.6288924517e+00 
47900 5.0172734313e+00 5.1835523115e-05 2.0951420339e+00 -3.6288924517e+00 2.0951420339e+00 3.6288924517e+00 
48000 5.0172734342e+00 5.1631647561e-05 2.0951420339e+00 -3.6288924517e+00 2.0951420339e+00 3.6288924517e+00 
48100 5.0172734370e+00 5.1446693587e-05 2.0951420339e+00 -3.6288924517e+00 2.0951420339e+00 3.6288924517e+00 
48200 5.0172734397e+00 5.1281109118e-05 2.0951420339e+00 -3.6288924517e+00 2.0951420339e+00 3.6288924517e+00 
48300 5.0172734424e+00 5.1135275313e-05 2.0951420339e+00 -3.6288924517e+00 2.0951420339e+00 3.6288924517e+00 
48400 5.0172734450e+00 5.1009508196e-05 2.0951420339e+00 -3.6288924517e+00 2.0951420339e+00 3.6288924517e+00 
48500 5.0172734476e+00 5.0904060354e-05 2.0951420339e+00 -3.6288924517e+00 2.0951420339e+00 3.6288924517e+00 
48600 5.0172734501e+00 5.0819122715e-05 2.0951420339e+00 -3.6288924517e+00 2.0951420339e+00 3.6288924517e+00 
48700 5.0172734526e+00 5.0754826409e-05 2.0951420339e+00 -3.6288924517e+00 2.0951420339e+00 3.6288924517e+00 
48800 5.0172734550e+00 5.0711244669e-05 2.0951420339e+00 -3.6288924517e+00 2.0951420339e+00 3.6288924517e+00 
48900 5.0172734574e+00 5.0688394812e-05 2.0951420339e+00 -3.6288924517e+00 2.0951420339e+00 3.6288924517e+00 
49000 5.0172734597e+00 5.0686240254e-05 2.0951420339e+00 -3.6288924517e+00 2.0951420339e+00 3.6288924517e+00 
49100 5.0172734621e+00 5.0704692581e-05 2.0951420339e+00 -3.6288924517e+00 2.0951420339e+00 3.6288924517e+00 
49200 5.0172734643e+00 5.0743613658e-05 2.0951420339e+00 -3.6288924517e+00 2.0951420339e+00 3.6288924517e+00 
49300 5.0172734666e+00 5.0802817760e-05 2.0951420339e+00 -3.6288924517e+00 2.0951420339e+00 3.6288924517e+00 
49400 5.0172734687e+00 5.0882073743e-05 2.0951420339e+00 -3.6288924517e+00 2.0951420339e+00 3.6288924517e+00 
49500 5.0172734709e+00 5.0981107234e-05 2.0951420339e+00 -3.6288924517e+00 2.0951420339e+00 3.6288924517e+00 
49600 5.0172734730e+00 5.1099602834e-05 2.0951420339e+00 -3.6288924517e+00 2.0951420339e+00 3.6288924517e+00 
49700 5.0172734751e+00 5.1237206336e-05 2.0951420339e+00 -3.6288924517e+00 2.0951420339e+00 3.6288924517e+00 
49800 5.0172734772e+00 5.1393526948e-05 2.0951420339e+00 -3.6288924517e+00 2.0951420339e+00 3.6288924517e+00 
49900 5.0172734792e+00 5.1568139506e-05 2.0951420339e+00 -3.6288924517e+00 2.0951420339e+00 3.6288924517e+00 
50000 5.0172734812e+00 5.1760586709e-05 2.0951420339e+00 -3.6288924517e+00 2.0951420339e+00 3.6288924517e+00 
50100 5.0172734832e+00 5.1970381317e-05 2.0951420339e+00 -3.6288924517e+00 2.0951420339e+00 3.6288924517e+00 
50200 5.0172734851e+00 5.2197008356e-05 2.0951420339e+00 -3.6288924517e+00 2.0951420339e+00 3.6288924517e+00 
50300 5.0172734871e+00 5.2439927299e-05 2.0951420339e+00 -3.6288924517e+00 2.0951420339e+00 3.6288924517e+00 
50400 5.0172734890e+00 5.2698574217e-05 2.0951420339e+00 -3.6288924517e+00 2.0951420339e+00 3.6288924517e+00 
50500 5.0172734908e+00 5.2972363922e-05 2.0951420339e+00 -3.6288924517e+00 2.0951420339e+00 3.6288924517e+00 
50600 5.0172734927e+00 5.3260692072e-05 2.0951420339e+00 -3.6288924517e+00 2.0951420339e+00 3.6288924517e+00 
50700 5.0172734945e+00 5.3562937236e-05 2.0951420339e+00 -3.6288924517e+00 2.0951420339e+00 3.6288924517e+00 
50800 5.0172734963e+00 5.3878462934e-05 2.0951420339e+00 -3.6288924517e+00 2.0951420339e+00 3.6288924517e+00 
50900 5.0172734980e+00 5.4206619643e-05 2.0951420339e+00 -3.6288924517e+00 2.0951420339e+00 3.6288924517e+00 
51000 5.0172734998e+00 5.4546746738e-05 2.0951420339e+00 -3.6288924517e+00 2.0951420339e+00 3.6288924517e+00 
51100 5.0172735015e+00 5.4898174415e-05 2.0951420339e+00 -3.6288924517e+00 2.0951420339e+00 3.6288924517e+00 
51200 5.0172735032e+00 5.5260225546e-05 2.0951420339e+00 -3.6288924517e+00 2.0951420339e+00 3.6288924517e+00 
51300 5.0172735048e+00 5.5632217500e-05 2.0951420339e+00 -3.6288924517e+00 2.0951420339e+00 3.6288924517e+00 
51400 5.0172735065e+00 5.6013463897e-05 2.0951420339e+00 -3.6288924517e+00 2.0951420339e+00 3.6288924517e+00 
51500 5.0172735081e+00 5.6403276321e-05 2.0951420339e+00 -3.6288924517e+00 2.0951420339e+00 3.6288924517e+00 
51600 5.0172735097e+00 5.6800965972e-05 2.0951420339e+00 -3.6288924517e+00 2.0951420339e+00 3.6288924517e+00 
51700 5.0172735113e+00 5.7205845252e-05 2.0951420339e+00 -3.6288924517e+00 2.0951420339e+00 3.6288924517e+00 
51800 5.0172735128e+00 5.7617229318e-05 2.0951420339e+00 -3.6288924517e+00 2.0951420339e+00 3.6288924517e+00 
51900 5.0172735143e+00 5.8034437535e-05 2.0951420339e+00 -3.6288924517e+00 2.0951420339e+00 3.6288924517e+00 
52000 5.0172735158e+00 5.8456794903e-05 2.0951420339e+00 -3.6288924517e+00 2.0951420339e+00 3.6288924517e+00 
52100 5.0172735173e+00 5.8883633410e-05 2.0951420339e+00 -3.6288924517e+00 2.0951420339e+00 3.6288924517e+00 
52200 5.0172735188e+00 5.9314293313e-05 2.0951420339e+00 -3.6288924517e+00 2.0951420339e+00 3.6288924517e+00 
52300 5.0172735202e+00 5.9748124364e-05 2.0951420339e+00 -3.6288924517e+00 2.0951420339e+00 3.6288924517e+00 
52400 5.0172735216e+00 6.0184486973e-05 2.0951420339e+00 -3.6288924517e+00 2.0951420339e+00 3.6288924517e+00 
52500 5.0172735230e+00 6.0622753305e-05 2.0951420339e+00 -3.6288924517e+00 2.0951420339e+00 3.6288924517e+00 
52600 5.0172735244e+00 6.1062308306e-05 2.0951420339e+00 -3.6288924517e+00 2.0951420339e+00 3.6288924517e+00 
52700 5.0172735257e+00 6.1502550674e-05 2.0951420339e+00 -3.6288924517e+00 2.0951420339e+00 3.6288924517e+00 
52800 5.0172735270e+00 6.1942893764e-05 2.0951420339e+00 -3.6288924517e+00 2.0951420339e+00 3.6288924517e+00 
52900 5.0172735283e+00 6.2382766414e-05 2.0951420339e+00 -3.6288924517e+00 2.0951420339e+00 3.6288924517e+00 
53000 5.0172735296e+00 6.2821613735e-05 2.0951420339e+00 -3.6288924517e+00 2.0951420339e+00 3.6288924517e+00 
53100 5.0172735308e+00 6.3258897810e-05 2.0951420339e+00 -3.6288924517e+00 2.0951420339e+00 3.6288924517e+00 
53200 5.0172735321e+00 6.3694098350e-05 2.0951420339e+00 -3.6288924517e+00 2.0951420339e+00 3.6288924517e+00 
53300 5.0172735333e+00 6.4126713275e-05 2.0951420339e+00 -3.6288924517e+00 2.0951420339e+00 3.6288924517e+00 
53400 5.0172735345e+00 6.4556259242e-05 2.0951420339e+00 -3.6288924517e+00 2.0951420339e+00 3.6288924517e+00 
53500 5.0172735356e+00 6.4982272112e-05 2.0951420339e+00 -3.6288924517e+00 2.0951420339e+00 3.6288924517e+00 
53600 5.0172735368e+00 6.5404307355e-05 2.0951420339e+00 -3.6288924517e+00 2.0951420339e+00 3.6288924517e+00 
53700 5.0172735379e+00 6.5821940400e-05 2.0951420339e+00 -3.6288924517e+00 2.0951420339e+00 3.6288924517e+00 
53800 5.0172735390e+00 6.6234766921e-05 2.0951420339e+00 -3.6288924517e+00 2.0951420339e+00 3.6288924517e+00 
53900 5.0172735401e+00 6.6642403086e-05 2.0951420339e+00 -3.6288924517e+00 2.0951420339e+00 3.6288924517e+00 
54000 5.0172735412e+00 6.7044485729e-05 2.0951420339e+00 -3.6288924517e+00 2.0951420339e+00 3.6288924517e+00 
54100 5.0172735422e+00 6.7440672489e-05 2.0951420339e+00 -3.6288924517e+00 2.0951420339e+00 3.6288924517e+00 
54200 5.0172735433e+00 6.7830641884e-05 2.0951420339e+00 -3.6288924517e+00 2.0951420339e+00 3.6288924517e+00 
54300 5.0172735443e+00 6.8214093346e-05 2.0951420339e+00 -3.6288924517e+00 2.0951420339e+00 3.6288924517e+00 
54400 5.0172735453e+00 6.8590747204e-05 2.0951420339e+00 -3.6288924517e+00 2.0951420339e+00 3.6288924517e+00 
54500 5.0172735463e+00 6.8960344620e-05 2.0951420339e+00 -3.6288924517e+00 2.0951420339e+00 3.6288924517e+00 
54600 5.0172735472e+00 6.9322647484e-05 2.0951420339e+00 -3.6288924517e+00 2.0951420339e+00 3.6288924517e+00 
54700 5.0172735482e+00 6.9677438262e-05 2.0951420339e+00 -3.6288924517e+00 2.0951420339e+00 3.6288924517e+00 
54800 5.0172735491e+00 7.0024519813e-05 2.0951420339e+00 -3.6288924517e+00 2.0951420339e+00 3.6288924517e+00 
54900 5.0172735500e+00 7.0363715154e-05 2.0951420339e+00 -3.6288924517e+00 2.0951420339e+00 3.6288924517e+00 
55000 5.0172735509e+00 7.0694867197e-05 2.0951420339e+00 -3.6288924517e+00 2.0951420339e+00 3.6288924517e+00 
55100 5.0172735518e+00 7.1017838449e-05 2.0951420339e+00 -3.6288924517e+00 2.0951420339e+00 3.6288924517e+00 
55200 5.0172735525e+00 7.0473650036e-05 2.0951403391e+00 -3.6288895162e+00 2.0951403391e+00 3.6288895162e+00 
55300 5.0172735534e+00 7.0771017166e-05 2.0951403391e+00 -3.6288895162e+00 2.0951403391e+00 3.6288895162e+00 
55400 5.0172735541e+00 7.0203967203e-05 2.0951386501e+00 -3.6288865909e+00 2.0951386501e+00 3.6288865909e+00 
55500 5.0172735549e+00 7.0475342395e-05 2.0951386501e+00 -3.6288865909e+00 2.0951386501e+00 3.6288865909e+00 
55600 5.0172735557e+00 7.0738055849e-05 2.0951386501e+00 -3.6288865909e+00 2.0951386501e+00 3.6288865909e+00 
55700 5.0172735564e+00 7.0136634814e-05 2.0951369620e+00 -3.6288836670e+00 2.0951369620e+00 3.6288836670e+00 
55800 5.0172735572e+00 7.0373204638e-05 2.0951369620e+00 -3.6288836670e+00 2.0951369620e+00 3.6288836670e+00 
55900 5.0172735580e+00 7.0601133947e-05 2.0951369620e+00 -3.6288836670e+00 2.0951369620e+00 3.6288836670e+00 
56000 5.0172735587e+00 7.0820497807e-05 2.0951369620e+00 -3.6288836670e+00 2.0951369620e+00 3.6288836670e+00 
56100 5.0172735593e+00 7.0174896339e-05 2.0951352719e+00 -3.6288807396e+00 2.0951352719e+00 3.6288807396e+00 
56200 5.0172735601e+00 7.0368518501e-05 2.0951352719e+00 -3.6288807396e+00 2.0951352719e+00 3.6288807396e+00 
56300 5.0172735608e+00 7.0553810023e-05 2.0951352719e+00 -3.6288807396e+00 2.0951352719e+00 3.6288807396e+00 
56400 5.0172735615e+00 7.0730911172e-05 2.0951352719e+00 -3.6288807396e+00 2.0951352719e+00 3.6288807396e+00 
56500 5.0172735621e+00 7.0044563636e-05 2.0951335839e+00 -3.6288778159e+00 2.0951335839e+00 3.6288778159e+00 
56600 5.0172735628e+00 7.0196867931e-05 2.0951335839e+00 -3.6288778159e+00 2.0951335839e+00 3.6288778159e+00 
56700 5.0172735634e+00 7.0341394035e-05 2.0951335839e+00 -3.6288778159e+00 2.0951335839e+00 3.6288778159e+00 
56800 5.0172735641e+00 7.0478335174e-05 2.0951335839e+00 -3.6288778159e+00 2.0951335839e+00 3.6288778159e+00 
56900 5.0172735648e+00 7.0607890040e-05 2.0951335839e+00 -3.6288778159e+00 2.0951335839e+00 3.6288778159e+00 
57000 5.0172735654e+00 7.0730262389e-05 2.0951335839e+00 -3.6288778159e+00 2.0951335839e+00 3.6288778159e+00 
57100 5.0172735659e+00 6.9990257290e-05 2.0951318959e+00 -3.6288748923e+00 2.0951318959e+00 3.6288748923e+00 
57200 5.0172735666e+00 7.0090023617e-05 2.0951318959e+00 -3.6288748923e+00 2.0951318959e+00 3.6288748923e+00 
57300 5.0172735672e+00 7.0183186898e-05 2.0951318959e+00 -3.6288748923e+00 2.0951318959e+00 3.6288748923e+00 
57400 5.0172735678e+00 7.0269988395e-05 2.0951318959e+00 -3.6288748923e+00 2.0951318959e+00 3.6288748923e+00 
57500 5.0172735684e+00 7.0350671000e-05 2.0951318959e+00 -3.6288748923e+00 2.0951318959e+00 3.6288748923e+00 
57600 5.0172735690e+00 7.0425478862e-05 2.0951318959e+00 -3.6288748923e+00 2.0951318959e+00 3.6288748923e+00 
57700 5.0172735696e+00 7.0494657004e-05 2.0951318959e+00 -3.6288748923e+00 2.0951318959e+00 3.6288748923e+00 
57800 5.0172735701e+00 7.0558450947e-05 2.0951318959e+00 -3.6288748923e+00 2.0951318959e+00 3.6288748923e+00 
57900 5.0172735707e+00 7.0617106332e-05 2.0951318959e+00 -3.6288748923e+00 2.0951318959e+00 3.6288748923e+00 
58000 5.0172735712e+00 7.0670868545e-05 2.0951318959e+00 -3.6288748923e+00 2.0951318959e+00 3.6288748923e+00 
58100 5.0172735718e+00 7.0719982340e-05 2.0951318959e+00 -3.6288748923e+00 2.0951318959e+00 3.6288748923e+00 
58200 5.0172735722e+00 6.9909408405e-05 2.0951302082e+00 -3.6288719691e+00 2.0951302082e+00 3.6288719691e+00 
58300 5.0172735727e+00 6.9941086066e-05 2.0951302082e+00 -3.6288719691e+00 2.0951302082e+00 3.6288719691e+00 
58400 5.0172735733e+00 6.9968784089e-05 2.0951302082e+00 -3.6288719691e+00 2.0951302082e+00 3.6288719691e+00 
58500 5.0172735738e+00 6.9992762493e-05 2.0951302082e+00 -3.6288719691e+00 2.0951302082e+00 3.6288719691e+00 
58600 5.0172735743e+00 7.0013277568e-05 2.0951302082e+00 -3.6288719691e+00 2.0951302082e+00 3.6288719691e+00 
58700 5.0172735748e+00 7.0030581610e-05 2.0951302082e+00 -3.6288719691e+00 2.0951302082e+00 3.6288719691e+00 
58800 5.0172735753e+00 7.0044922643e-05 2.0951302082e+00 -3.6288719691e+00 2.0951302082e+00 3.6288719691e+00 
58900 5.0172735758e+00 7.0056544182e-05 2.0951302082e+00 -3.6288719691e+00 2.0951302082e+00 3.6288719691e+00 
59000 5.0172735763e+00 7.0065684966e-05 2.0951302082e+00 -3.6288719691e+00 2.0951302082e+00 3.6288719691e+00 
59100 5.0172735767e+00 7.0072578737e-05 2.0951302082e+00 -3.6288719691e+00 2.0951302082e+00 3.6288719691e+00 
59200 5.0172735772e+00 7.0077454009e-05 2.0951302082e+00 -3.6288719691e+00 2.0951302082e+00 3.6288719691e+00 
59300 5.0172735776e+00 7.0080533851e-05 2.0951302082e+00 -3.6288719691e+00 2.0951302082e+00 3.6288719691e+00 
59400 5.0172735781e+00 7.0082035687e-05 2.0951302082e+00 -3.6288719691e+00 2.0951302082e+00 3.6288719691e+00 
59500 5.0172735785e+00 7.0082171105e-05 2.0951302082e+00 -3.6288719691e+00 2.0951302082e+00 3.6288719691e+00 
59600 5.0172735790e+00 7.0081145682e-05 2.0951302082e+00 -3.6288719691e+00 2.0951302082e+00 3.6288719691e+00 
59700 5.0172735794e+00 7.0079158817e-05 2.0951302082e+00 -3.6288719691e+00 2.0951302082e+00 3.6288719691e+00 
59800 5.0172735798e+00 7.0076403575e-05 2.0951302082e+00 -3.6288719691e+00 2.0951302082e+00 3.6288719691e+00 
59900 5.0172735802e+00 7.0073066558e-05 2.0951302082e+00 -3.6288719691e+00 2.0951302082e+00 3.6288719691e+00 
60000 5.0172735806e+00 7.0069327778e-05 2.0951302082e+00 -3.6288719691e+00 2.0951302082e+00 3.6288719691e+00 
60100 5.0172735810e+00 7.0065360540e-05 2.0951302082e+00 -3.6288719691e+00 2.0951302082e+00 3.6288719691e+00 
60200 5.0172735814e+00 7.0061331357e-05 2.0951302082e+00 -3.6288719691e+00 2.0951302082e+00 3.6288719691e+00 
60300 5.0172735818e+00 7.0057399859e-05 2.0951302082e+00 -3.6288719691e+00 2.0951302082e+00 3.6288719691e+00 
60400 5.0172735822e+00 7.0053718730e-05 2.0951302082e+00 -3.6288719691e+00 2.0951302082e+00 3.6288719691e+00 
60500 5.0172735826e+00 7.0050433644e-05 2.0951302082e+00 -3.6288719691e+00 2.0951302082e+00 3.6288719691e+00 
60600 5.0172735830e+00 7.0047683235e-05 2.0951302082e+00 -3.6288719691e+00 2.0951302082e+00 3.6288719691e+00 
60700 5.0172735833e+00 7.0045599067e-05 2.0951302082e+00 -3.6288719691e+00 2.0951302082e+00 3.6288719691e+00 
60800 5.0172735837e+00 7.0044305612e-05 2.0951302082e+00 -3.6288719691e+00 2.0951302082e+00 3.6288719691e+00 
60900 5.0172735840e+00 7.0043920259e-05 2.0951302082e+00 -3.6288719691e+00 2.0951302082e+00 3.6288719691e+00 
61000 5.0172735844e+00 7.0044553322e-05 2.0951302082e+00 -3.6288719691e+00 2.0951302082e+00 3.6288719691e+00 
61100 5.0172735847e+00 7.0046308062e-05 2.0951302082e+00 -3.6288719691e+00 2.0951302082e+00 3.6288719691e+00 
61200 5.0172735851e+00 7.0049280728e-05 2.0951302082e+00 -3.6288719691e+00 2.0951302082e+00 3.6288719691e+00 
61300 5.0172735854e+00 7.0053560609e-05 2.0951302082e+00 -3.6288719691e+00 2.0951302082e+00 3.6288719691e+00 
61400 5.0172735857e+00 7.0059230083e-05 2.0951302082e+00 -3.6288719691e+00 2.0951302082e+00 3.6288719691e+00 
61500 5.0172735861e+00 7.0066364701e-05 2.0951302082e+00 -3.6288719691e+00 2.0951302082e+00 3.6288719691e+00 
61600 5.0172735864e+00 7.0075033266e-05 2.0951302082e+00 -3.6288719691e+00 2.0951302082e+00 3.6288719691e+00 
61700 5.0172735867e+00 7.0085297923e-05 2.0951302082e+00 -3.6288719691e+00 2.0951302082e+00 3.6288719691e+00 
61800 5.0172735870e+00 7.0097214267e-05 2.0951302082e+00 -3.6288719691e+00 2.0951302082e+00 3.6288719691e+00 
61900 5.0172735873e+00 7.0110831454e-05 2.0951302082e+00 -3.6288719691e+00 2.0951302082e+00 3.6288719691e+00 
62000 5.0172735876e+00 7.0126192318e-05 2.0951302082e+00 -3.6288719691e+00 2.0951302082e+00 3.6288719691e+00 
62100 5.0172735879e+00 7.0143333512e-05 2.0951302082e+00 -3.6288719691e+00 2.0951302082e+00 3.6288719691e+00 
62200 5.0172735882e+00 7.0162285640e-05 2.0951302082e+00 -3.6288719691e+00 2.0951302082e+00 3.6288719691e+00 
62300 5.0172735885e+00 7.0183073399e-05 2.0951302082e+00 -3.6288719691e+00 2.0951302082e+00 3.6288719691e+00 
62400 5.0172735887e+00 7.0205715743e-05 2.0951302082e+00 -3.6288719691e+00 2.0951302082e+00 3.6288719691e+00 
62500 5.0172735890e+00 7.0230226036e-05 2.0951302082e+00 -3.6288719691e+00 2.0951302082e+00 3.6288719691e+00 
62600 5.0172735893e+00 7.0256612221e-05 2.0951302082e+00 -3.6288719691e+00 2.0951302082e+00 3.6288719691e+00 
62700 5.0172735896e+00 7.0284876989e-05 2.0951302082e+00 -3.6288719691e+00 2.0951302082e+00 3.6288719691e+00 
62800 5.0172735898e+00 7.0315017957e-05 2.0951302082e+00 -3.6288719691e+00 2.0951302082e+00 3.6288719691e+00 
62900 5.0172735901e+00 7.0347027854e-05 2.0951302082e+00 -3.6288719691e+00 2.0951302082e+00 3.6288719691e+00 
63000 5.0172735903e+00 7.0380894700e-05 2.0951302082e+00 -3.6288719691e+00 2.0951302082e+00 3.6288719691e+00 
63100 5.0172735906e+00 7.0416602001e-05 2.0951302082e+00 -3.6288719691e+00 2.0951302082e+00 3.6288719691e+00 
63200 5.0172735908e+00 7.0454128935e-05 2.0951302082e+00 -3.6288719691e+00 2.0951302082e+00 3.6288719691e+00 
63300 5.0172735911e+00 7.0493450555e-05 2.0951302082e+00 -3.6288719691e+00 2.0951302082e+00 3.6288719691e+00 
63400 5.0172735913e+00 7.0534537979e-05 2.0951302082e+00 -3.6288719691e+00 2.0951302082e+00 3.6288719691e+00 
63500 5.0172735915e+00 7.0577358597e-05 2.0951302082e+00 -3.6288719691e+00 2.0951302082e+00 3.6288719691e+00 
63600 5.0172735918e+00 7.0621876260e-05 2.0951302082e+00 -3.6288719691e+00 2.0951302082e+00 3.6288719691e+00 
63700 5.0172735920e+00 7.0668051494e-05 2.0951302082e+00 -3.6288719691e+00 2.0951302082e+00 3.6288719691e+00 
63800 5.0172735922e+00 7.0715841691e-05 2.0951302082e+00 -3.6288719691e+00 2.0951302082e+00 3.6288719691e+00 
63900 5.0172735923e+00 6.9909963422e-05 2.0951285206e+00 -3.6288690460e+00 2.0951285206e+00 3.6288690460e+00 
64000 5.0172735926e+00 6.9951975245e-05 2.0951285206e+00 -3.6288690460e+00 2.0951285206e+00 3.6288690460e+00 
64100 5.0172735928e+00 6.9995399441e-05 2.0951285206e+00 -3.6288690460e+00 2.0951285206e+00 3.6288690460e+00 
64200 5.0172735930e+00 7.0040204299e-05 2.0951285206e+00 -3.6288690460e+00 2.0951285206e+00 3.6288690460e+00 
64300 5.0172735932e+00 7.0086354667e-05 2.0951285206e+00 -3.6288690460e+00 2.0951285206e+00 3.6288690460e+00 
64400 5.0172735934e+00 7.0133812188e-05 2.0951285206e+00 -3.6288690460e+00 2.0951285206e+00 3.6288690460e+00 
64500 5.0172735936e+00 7.0182535564e-05 2.0951285206e+00 -3.6288690460e+00 2.0951285206e+00 3.6288690460e+00 
64600 5.0172735938e+00 7.0232480796e-05 2.0951285206e+00 -3.6288690460e+00 2.0951285206e+00 3.6288690460e+00 
64700 5.0172735940e+00 7.0283601410e-05 2.0951285206e+00 -3.6288690460e+00 2.0951285206e+00 3.6288690460e+00 
64800 5.0172735942e+00 7.0335848713e-05 2.0951285206e+00 -3.6288690460e+00 2.0951285206e+00 3.6288690460e+00 
64900 5.0172735944e+00 7.0389171997e-05 2.0951285206e+00 -3.6288690460e+00 2.0951285206e+00 3.6288690460e+00 
65000 5.0172735946e+00 7.0443518774e-05 2.0951285206e+00 -3.6288690460e+00 2.0951285206e+00 3.6288690460e+00 
65100 5.0172735948e+00 7.0498834985e-05 2.0951285206e+00 -3.6288690460e+00 2.0951285206e+00 3.6288690460e+00 
65200 5.0172735950e+00 7.0555065210e-05 2.0951285206e+00 -3.6288690460e+00 2.0951285206e+00 3.6288690460e+00 
65300 5.0172735951e+00 7.0612152872e-05 2.0951285206e+00 -3.6288690460e+00 2.0951285206e+00 3.6288690460e+00 
65400 5.0172735953e+00 7.0670040428e-05 2.0951285206e+00 -3.6288690460e+00 2.0951285206e+00 3.6288690460e+00 
65500 5.0172735955e+00 7.0728669563e-05 2.0951285206e+00 -3.6288690460e+00 2.0951285206e+00 3.6288690460e+00 
65600 5.0172735956e+00 6.9932584038e-05 2.0951268326e+00 -3.6288661224e+00 2.0951268326e+00 3.6288661224e+00 
65700 5.0172735957e+00 6.9983648589e-05 2.0951268326e+00 -3.6288661224e+00 2.0951268326e+00 3.6288661224e+00 
65800 5.0172735959e+00 7.0035218918e-05 2.0951268326e+00 -3.6288661224e+00 2.0951268326e+00 3.6288661224e+00 
65900 5.0172735961e+00 7.0087256796e-05 2.0951268326e+00 -3.6288661224e+00 2.0951268326e+00 3.6288661224e+00 
66000 5.0172735962e+00 7.0139722743e-05 2.0951268326e+00 -3.6288661224e+00 2.0951268326e+00 3.6288661224e+00 
66100 5.0172735964e+00 7.0192576245e-05 2.0951268326e+00 -3.6288661224e+00 2.0951268326e+00 3.6288661224e+00 
66200 5.0172735965e+00 7.0245775947e-05 2.0951268326e+00 -3.6288661224e+00 2.0951268326e+00 3.6288661224e+00 
66300 5.0172735967e+00 7.0299279843e-05 2.0951268326e+00 -3.6288661224e+00 2.0951268326e+00 3.6288661224e+00 
66400 5.0172735969e+00 7.0353045457e-05 2.0951268326e+00 -3.6288661224e+00 2.0951268326e+00 3.6288661224e+00 
66500 5.0172735970e+00 7.0407030012e-05 2.0951268326e+00 -3.6288661224e+00 2.0951268326e+00 3.6288661224e+00 
66600 5.0172735972e+00 7.0461190589e-05 2.0951268326e+00 -3.6288661224e+00 2.0951268326e+00 3.6288661224e+00 
66700 5.0172735973e+00 7.0515484283e-05 2.0951268326e+00 -3.6288661224e+00 2.0951268326e+00 3.6288661224e+00 
66800 5.0172735975e+00 7.0569868347e-05 2.0951268326e+00 -3.6288661224e+00 2.0951268326e+00 3.6288661224e+00 
66900 5.0172735976e+00 7.0624300321e-05 2.0951268326e+00 -3.6288661224e+00 2.0951268326e+00 3.6288661224e+00 
67000 5.0172735977e+00 7.0678738169e-05 2.0951268326e+00 -3.6288661224e+00 2.0951268326e+00 3.6288661224e+00 
67100 5.0172735979e+00 7.0733140386e-05 2.0951268326e+00 -3.6288661224e+00 2.0951268326e+00 3.6288661224e+00 
67200 5.0172735979e+00 6.9932010580e-05 2.0951251446e+00 -3.6288631987e+00 2.0951251446e+00 3.6288631987e+00 
67300 5.0172735980e+00 6.9977348527e-05 2.0951251446e+00 -3.6288631987e+00 2.0951251446e+00 3.6288631987e+00 
67400 5.0172735982e+00 7.0022472628e-05 2.0951251446e+00 -3.6288631987e+00 2.0951251446e+00 3.6288631987e+00 
67500 5.0172735983e+00 7.0067365972e-05 2.0951251446e+00 -3.6288631987e+00 2.0951251446e+00 3.6288631987e+00 
67600 5.0172735984e+00 7.0112011353e-05 2.0951251446e+00 -3.6288631987e+00 2.0951251446e+00 3.6288631987e+00 
67700 5.0172735985e+00 7.0156391396e-05 2.0951251446e+00 -3.6288631987e+00 2.0951251446e+00 3.6288631987e+00 
67800 5.0172735987e+00 7.0200488674e-05 2.0951251446e+00 -3.6288631987e+00 2.0951251446e+00 3.6288631987e+00 
67900 5.0172735988e+00 7.0244285830e-05 2.0951251446e+00 -3.6288631987e+00 2.0951251446e+00 3.6288631987e+00 
68000 5.0172735989e+00 7.0287765673e-05 2.0951251446e+00 -3.6288631987e+00 2.0951251446e+00 3.6288631987e+00 
68100 5.0172735990e+00 7.0330911288e-05 2.0951251446e+00 -3.6288631987e+00 2.0951251446e+00 3.6288631987e+00 
68200 5.0172735992e+00 7.0373706112e-05 2.0951251446e+00 -3.6288631987e+00 2.0951251446e+00 3.6288631987e+00 
68300 5.0172735993e+00 7.0416134016e-05 2.0951251446e+00 -3.6288631987e+00 2.0951251446e+00 3.6288631987e+00 
68400 5.0172735994e+00 7.0458179385e-05 2.0951251446e+00 -3.6288631987e+00 2.0951251446e+00 3.6288631987e+00 
68500 5.0172735995e+00 7.0499827177e-05 2.0951251446e+00 -3.6288631987e+00 2.0951251446e+00 3.6288631987e+00 
68600 5.0172735996e+00 7.0541062984e-05 2.0951251446e+00 -3.6288631987e+00 2.0951251446e+00 3.6288631987e+00 
68700 5.0172735997e+00 7.0581873081e-05 2.0951251446e+00 -3.6288631987e+00 2.0951251446e+00 3.6288631987e+00 
68800 5.0172735998e+00 7.0622244477e-05 2.0951251446e+00 -3.6288631987e+00 2.0951251446e+00 3.6288631987e+00 
68900 5.0172735999e+00 7.0662164949e-05 2.0951251446e+00 -3.6288631987e+00 2.0951251446e+00 3.6288631987e+00 
69000 5.0172736000e+00 7.0701623080e-05 2.0951251446e+00 -3.6288631987e+00 2.0951251446e+00 3.6288631987e+00 
69100 5.0172736001e+00 7.0740608285e-05 2.0951251446e+00 -3.6288631987e+00 2.0951251446e+00 3.6288631987e+00 
69200 5.0172736001e+00 6.9923560911e-05 2.0951234564e+00 -3.6288602746e+00 2.0951234564e+00 3.6288602746e+00 
69300 5.0172736002e+00 6.9952699780e-05 2.0951234564e+00 -3.6288602746e+00 2.0951234564e+00 3.6288602746e+00 
69400 5.0172736003e+00 6.9981281163e-05 2.0951234564e+00 -3.6288602746e+00 2.0951234564e+00 3.6288602746e+00 
69500 5.0172736004e+00 7.0009319406e-05 2.0951234564e+00 -3.6288602746e+00 2.0951234564e+00 3.6288602746e+00 
69600 5.0172736005e+00 7.0036828439e-05 2.0951234564e+00 -3.6288602746e+00 2.0951234564e+00 3.6288602746e+00 
69700 5.0172736006e+00 7.0063821838e-05 2.0951234564e+00 -3.6288602746e+00 2.0951234564e+00 3.6288602746e+00 
69800 5.0172736007e+00 7.0090312872e-05 2.0951234564e+00 -3.6288602746e+00 2.0951234564e+00 3.6288602746e+00 
69900 5.0172736008e+00 7.0116314557e-05 2.0951234564e+00 -3.6288602746e+00 2.0951234564e+00 3.6288602746e+00 
70000 5.0172736009e+00 7.0141839695e-05 2.0951234564e+00 -3.6288602746e+00 2.0951234564e+00 3.6288602746e+00 
70100 5.0172736010e+00 7.0166900911e-05 2.0951234564e+00 -3.6288602746e+00 2.0951234564e+00 3.6288602746e+00 
70200 5.0172736011e+00 7.0191510687e-05 2.0951234564e+00 -3.6288602746e+00 2.0951234564e+00 3.6288602746e+00 
70300 5.0172736012e+00 7.0215681388e-05 2.0951234564e+00 -3.6288602746e+00 2.0951234564e+00 3.6288602746e+00 
70400 5.0172736012e+00 7.0239425283e-05 2.0951234564e+00 -3.6288602746e+00 2.0951234564e+00 3.6288602746e+00 
70500 5.0172736013e+00 7.0262754567e-05 2.0951234564e+00 -3.6288602746e+00 2.0951234564e+00 3.6288602746e+00 
70600 5.0172736014e+00 7.0285681373e-05 2.0951234564e+00 -3.6288602746e+00 2.0951234564e+00 3.6288602746e+00 
70700 5.0172736015e+00 7.0308217789e-05 2.0951234564e+00 -3.6288602746e+00 2.0951234564e+00 3.6288602746e+00 
70800 5.0172736016e+00 7.0330375865e-05 2.0951234564e+00 -3.6288602746e+00 2.0951234564e+00 3.6288602746e+00 
70900 5.0172736017e+00 7.0352167614e-05 2.0951234564e+00 -3.6288602746e+00 2.0951234564e+00 3.6288602746e+00 
71000 5.0172736017e+00 7.0373605022e-05 2.0951234564e+00 -3.6288602746e+00 2.0951234564e+00 3.6288602746e+00 
71100 5.0172736018e+00 7.0394700046e-05 2.0951234564e+00 -3.6288602746e+00 2.0951234564e+00 3.6288602746e+00 
71200 5.0172736019e+00 7.0415464611e-05 2.0951234564e+00 -3.6288602746e+00 2.0951234564e+00 3.6288602746e+00 
71300 5.0172736020e+00 7.0435910607e-05 2.0951234564e+00 -3.6288602746e+00 2.0951234564e+00 3.6288602746e+00 
71400 5.0172736020e+00 7.0456049889e-05 2.0951234564e+00 -3.6288602746e+00 2.0951234564e+00 3.6288602746e+00 
71500 5.0172736021e+00 7.0475894263e-05 2.0951234564e+00 -3.6288602746e+00 2.0951234564e+00 3.6288602746e+00 
71600 5.0172736022e+00 7.0495455479e-05 2.0951234564e+00 -3.6288602746e+00 2.0951234564e+00 3.6288602746e+00 
71700 5.0172736022e+00 7.0514745231e-05 2.0951234564e+00 -3.6288602746e+00 2.0951234564e+00 3.6288602746e+00 
71800 5.0172736023e+00 7.0533775130e-05 2.0951234564e+00 -3.6288602746e+00 2.0951234564e+00 3.6288602746e+00 
71900 5.0172736024e+00 7.0552556710e-05 2.0951234564e+00 -3.6288602746e+00 2.0951234564e+00 3.6288602746e+00 
72000 5.0172736025e+00 7.0571101407e-05 2.0951234564e+00 -3.6288602746e+00 2.0951234564e+00 3.6288602746e+00 
72100 5.0172736025e+00 7.0589420542e-05 2.0951234564e+00 -3.6288602746e+00 2.0951234564e+00 3.6288602746e+00 
72200 5.0172736026e+00 7.0607525320e-05 2.0951234564e+00 -3.6288602746e+00 2.0951234564e+00 3.6288602746e+00 
72300 5.0172736026e+00 7.0625426809e-05 2.0951234564e+00 -3.6288602746e+00 2.0951234564e+00 3.6288602746e+00 
72400 5.0172736027e+00 7.0643135925e-05 2.0951234564e+00 -3.6288602746e+00 2.0951234564e+00 3.6288602746e+00 
72500 5.0172736028e+00 7.0660663428e-05 2.0951234564e+00 -3.6288602746e+00 2.0951234564e+00 3.6288602746e+00 
72600 5.0172736028e+00 7.0678019894e-05 2.0951234564e+00 -3.6288602746e+00 2.0951234564e+00 3.6288602746e+00 
72700 5.0172736029e+00 7.0695215717e-05 2.0951234564e+00 -3.6288602746e+00 2.0951234564e+00 3.6288602746e+00 
72800 5.0172736030e+00 7.0712261081e-05 2.0951234564e+00 -3.6288602746e+00 2.0951234564e+00 3.6288602746e+00 
72900 5.0172736029e+00 6.9873954804e-05 2.0951217688e+00 -3.6288573517e+00 2.0951217688e+00 3.6288573517e+00 
73000 5.0172736030e+00 6.9881860277e-05 2.0951217688e+00 -3.6288573517e+00 2.0951217688e+00 3.6288573517e+00 
73100 5.0172736030e+00 6.9889586544e-05 2.0951217688e+00 -3.6288573517e+00 2.0951217688e+00 3.6288573517e+00 
73200 5.0172736031e+00 6.9897164266e-05 2.0951217688e+00 -3.6288573517e+00 2.0951217688e+00 3.6288573517e+00 
73300 5.0172736031e+00 6.9904622528e-05 2.0951217688e+00 -3.6288573517e+00 2.0951217688e+00 3.6288573517e+00 
73400 5.0172736032e+00 6.9911988886e-05 2.0951217688e+00 -3.6288573517e+00 2.0951217688e+00 3.6288573517e+00 
73500 5.0172736032e+00 6.9919289404e-05 2.0951217688e+00 -3.6288573517e+00 2.0951217688e+00 3.6288573517e+00 
73600 5.0172736033e+00 6.9926548714e-05 2.0951217688e+00 -3.6288573517e+00 2.0951217688e+00 3.6288573517e+00 
73700 5.0172736034e+00 6.9933790045e-05 2.0951217688e+00 -3.6288573517e+00 2.0951217688e+00 3.6288573517e+00 
73800 5.0172736034e+00 6.9941035273e-05 2.0951217688e+00 -3.6288573517e+00 2.0951217688e+00 3.6288573517e+00 
73900 5.0172736035e+00 6.9948304954e-05 2.0951217688e+00 -3.6288573517e+00 2.0951217688e+00 3.6288573517e+00 
74000 5.0172736035e+00 6.9955618373e-05 2.0951217688e+00 -3.6288573517e+00 2.0951217688e+00 3.6288573517e+00 
74100 5.0172736036e+00 6.9962993566e-05 2.0951217688e+00 -3.6288573517e+00 2.0951217688e+00 3.6288573517e+00 
74200 5.0172736036e+00 6.9970147511e-05 2.0951217688e+00 -3.6288573517e+00 2.0951217688e+00 3.6288573517e+00 
74200 5.0172736036e+00 6.9970147511e-05 2.0951217688e+00 -3.6288573517e+00 2.0951217688e+00 3.6288573517e+00 
