# step Hamiltonian StressXX CellTensor1 CellTensor2 CellTensor3 CellTensor4 
0 5.2079601276e+00 4.7977697652e-02 1.6185780433e+00 -2.8034594071e+00 1.6185780433e+00 2.8034594071e+00 
100 5.2039045883e+00 4.7998428697e-02 1.6185780433e+00 -2.8034594071e+00 1.6185780433e+00 2.8034594071e+00 
200 5.2000092372e+00 4.6618306892e-02 1.6170955355e+00 -2.8008916281e+00 1.6170955355e+00 2.8008916281e+00 
300 5.1963485321e+00 4.5367990151e-02 1.6156543289e+00 -2.7983953851e+00 1.6156543289e+00 2.7983953851e+00 
400 5.1929062479e+00 4.4236408697e-02 1.6142505195e+00 -2.7959639159e+00 1.6142505195e+00 2.7959639159e+00 
500 5.1896673198e+00 4.3213256978e-02 1.6128805294e+00 -2.7935910234e+00 1.6128805294e+00 2.7935910234e+00 
600 5.1866177641e+00 4.2288949956e-02 1.6115410852e+00 -2.7912710380e+00 1.6115410852e+00 2.7912710380e+00 
700 5.1837446053e+00 4.1454581231e-02 1.6102291978e+00 -2.7889987825e+00 1.6102291978e+00 2.7889987825e+00 
800 5.1810358060e+00 4.0701882983e-02 1.6089421434e+00 -2.7867695387e+00 1.6089421434e+00 2.7867695387e+00 
900 5.1784802025e+00 4.0023187660e-02 1.6076774445e+00 -2.7845790161e+00 1.6076774445e+00 2.7845790161e+00 
1000 5.1760674436e+00 3.9411391399e-02 1.6064328535e+00 -2.7824233211e+00 1.6064328535e+00 2.7824233211e+00 
1100 5.1737879333e+00 3.8859919129e-02 1.6052063356e+00 -2.7802989299e+00 1.6052063356e+00 2.7802989299e+00 
1200 5.1716327773e+00 3.8362691339e-02 1.6039960541e+00 -2.7782026608e+00 1.6039960541e+00 2.7782026608e+00 
1300 5.1695937323e+00 3.7914092460e-02 1.6028003553e+00 -2.7761316498e+00 1.6028003553e+00 2.7761316498e+00 
1400 5.1676631597e+00 3.7508940846e-02 1.6016177556e+00 -2.7740833270e+00 1.6016177556e+00 2.7740833270e+00 
1500 5.1658339804e+00 3.7142460299e-02 1.6004469279e+00 -2.7720553940e+00 1.6004469279e+00 2.7720553940e+00 
1600 5.1640996349e+00 3.6810253124e-02 1.5992866905e+00 -2.7700458038e+00 1.5992866905e+00 2.7700458038e+00 
1700 5.1624540437e+00 3.6508274655e-02 1.5981359952e+00 -2.7680527410e+00 1.5981359952e+00 2.7680527410e+00 
1800 5.1608915721e+00 3.6232809218e-02 1.5969939170e+00 -2.7660746037e+00 1.5969939170e+00 2.7660746037e+00 
1900 5.1594069968e+00 3.5980447495e-02 1.5958596448e+00 -2.7641099866e+00 1.5958596448e+00 2.7641099866e+00 
2000 5.1579954745e+00 3.5748065226e-02 1.5947324715e+00 -2.7621576651e+00 1.5947324715e+00 2.7621576651e+00 
2100 5.1566525134e+00 3.5532803212e-02 1.5936117859e+00 -2.7602165807e+00 1.5936117859e+00 2.7602165807e+00 
2200 5.1553739461e+00 3.5332048568e-02 1.5924970647e+00 -2.7582858269e+00 1.5924970647e+00 2.7582858269e+00 
2300 5.1541559048e+00 3.5143417162e-02 1.5913878650e+00 -2.7563646368e+00 1.5913878650e+00 2.7563646368e+00 
2400 5.1529947984e+00 3.4964737204e-02 1.5902838177e+00 -2.7544523707e+00 1.5902838177e+00 2.7544523707e+00 
2500 5.1518872912e+00 3.4794033915e-02 1.5891846206e+00 -2.7525485055e+00 1.5891846206e+00 2.7525485055e+00 
2600 5.1508302831e+00 3.4629515226e-02 1.5880900330e+00 -2.7506526242e+00 1.5880900330e+00 2.7506526242e+00 
2700 5.1498208915e+00 3.4469558456e-02 1.5869998697e+00 -2.7487644059e+00 1.5869998697e+00 2.7487644059e+00 
2800 5.1488564343e+00 3.4312697902e-02 1.5859139961e+00 -2.7468836177e+00 1.5859139961e+00 2.7468836177e+00 
2900 5.1479344149e+00 3.4157613304e-02 1.5848323235e+00 -2.7450101058e+00 1.5848323235e+00 2.7450101058e+00 
3000 5.1470525074e+00 3.4003119114e-02 1.5837548045e+00 -2.7431437881e+00 1.5837548045e+00 2.7431437881e+00 
3100 5.1462085437e+00 3.3848154529e-02 1.5826814289e+00 -2.7412846470e+00 1.5826814289e+00 2.7412846470e+00 
3200 5.1454005017e+00 3.3691774233e-02 1.5816122200e+00 -2.7394327229e+00 1.5816122200e+00 2.7394327229e+00 
3300 5.1446264936e+00 3.3533139793e-02 1.5805472311e+00 -2.7375881080e+00 1.5805472311e+00 2.7375881080e+00 
3400 5.1438847560e+00 3.3371511686e-02 1.5794865419e+00 -2.7357509405e+00 1.5794865419e+00 2.7357509405e+00 
3500 5.1431736404e+00 3.3206241872e-02 1.5784302560e+00 -2.7339213995e+00 1.5784302560e+00 2.7339213995e+00 
3600 5.1424916048e+00 3.3036766919e-02 1.5773784974e+00 -2.7320997002e+00 1.5773784974e+00 2.7320997002e+00 
3700 5.1418372053e+00 3.2862601597e-02 1.5763314085e+00 -2.7302860891e+00 1.5763314085e+00 2.7302860891e+00 
3800 5.1412090891e+00 3.2683332933e-02 1.5752891475e+00 -2.7284808400e+00 1.5752891475e+00 2.7284808400e+00 
3900 5.1406059875e+00 3.2498614680e-02 1.5742518857e+00 -2.7266842500e+00 1.5742518857e+00 2.7266842500e+00 
4000 5.1400267100e+00 3.2308162165e-02 1.5732198062e+00 -2.7248966359e+00 1.5732198062e+00 2.7248966359e+00 
4100 5.1394701384e+00 3.2111747497e-02 1.5721931015e+00 -2.7231183311e+00 1.5721931015e+00 2.7231183311e+00 
4200 5.1389352216e+00 3.1909195097e-02 1.5711719715e+00 -2.7213496821e+00 1.5711719715e+00 2.7213496821e+00 
4300 5.1384209709e+00 3.1700377523e-02 1.5701566226e+00 -2.7195910462e+00 1.5701566226e+00 2.7195910462e+00 
4400 5.1379264553e+00 3.1485211583e-02 1.5691472654e+00 -2.7178427882e+00 1.5691472654e+00 2.7178427882e+00 
4500 5.1374507975e+00 3.1263654686e-02 1.5681441137e+00 -2.7161052785e+00 1.5681441137e+00 2.7161052785e+00 
4600 5.1369931702e+00 3.1035701447e-02 1.5671473832e+00 -2.7143788907e+00 1.5671473832e+00 2.7143788907e+00 
4700 5.1365527925e+00 3.0801380492e-02 1.5661572903e+00 -2.7126639994e+00 1.5661572903e+00 2.7126639994e+00 
4800 5.1361289269e+00 3.0560751476e-02 1.5651740508e+00 -2.7109609786e+00 1.5651740508e+00 2.7109609786e+00 
4900 5.1357208758e+00 3.0313902279e-02 1.5641978791e+00 -2.7092701996e+00 1.5641978791e+00 2.7092701996e+00 
5000 5.1353279795e+00 3.0060946380e-02 1.5632289872e+00 -2.7075920298e+00 1.5632289872e+00 2.7075920298e+00 
5100 5.1349496130e+00 2.9802020392e-02 1.5622675842e+00 -2.7059268308e+00 1.5622675842e+00 2.7059268308e+00 
5200 5.1345851841e+00 2.9537281743e-02 1.5613138748e+00 -2.7042749576e+00 1.5613138748e+00 2.7042749576e+00 
5300 5.1342341308e+00 2.9266906498e-02 1.5603680593e+00 -2.7026367571e+00 1.5603680593e+00 2.7026367571e+00 
5400 5.1338959199e+00 2.8991087320e-02 1.5594303326e+00 -2.7010125670e+00 1.5594303326e+00 2.7010125670e+00 
5500 5.1335700445e+00 2.8710031543e-02 1.5585008841e+00 -2.6994027149e+00 1.5585008841e+00 2.6994027149e+00 
5600 5.1332560226e+00 2.8423959371e-02 1.5575798964e+00 -2.6978075174e+00 1.5575798964e+00 2.6978075174e+00 
5700 5.1329533955e+00 2.8133102180e-02 1.5566675457e+00 -2.6962272797e+00 1.5566675457e+00 2.6962272797e+00 
5800 5.1326617264e+00 2.7837700929e-02 1.5557640009e+00 -2.6946622941e+00 1.5557640009e+00 2.6946622941e+00 
5900 5.1323805987e+00 2.7538004664e-02 1.5548694233e+00 -2.6931128403e+00 1.5548694233e+00 2.6931128403e+00 
6000 5.1321096151e+00 2.7234269125e-02 1.5539839667e+00 -2.6915791844e+00 1.5539839667e+00 2.6915791844e+00 
6100 5.1318483963e+00 2.6926755428e-02 1.5531077765e+00 -2.6900615786e+00 1.5531077765e+00 2.6900615786e+00 
6200 5.1315965796e+00 2.6615728846e-02 1.5522409903e+00 -2.6885602608e+00 1.5522409903e+00 2.6885602608e+00 
6300 5.1313538186e+00 2.6301457662e-02 1.5513837369e+00 -2.6870754543e+00 1.5513837369e+00 2.6870754543e+00 
6400 5.1311197814e+00 2.5984212099e-02 1.5505361367e+00 -2.6856073678e+00 1.5505361367e+00 2.6856073678e+00 
6500 5.1308941504e+00 2.5664263334e-02 1.5496983017e+00 -2.6841561949e+00 1.5496983017e+00 2.6841561949e+00 
6600 5.1306766213e+00 2.5341882568e-02 1.5488703348e+00 -2.6827221143e+00 1.5488703348e+00 2.6827221143e+00 
6700 5.1304669022e+00 2.5017340175e-02 1.5480523306e+00 -2.6813052893e+00 1.5480523306e+00 2.6813052893e+00 
6800 5.1302647129e+00 2.4690904910e-02 1.5472443746e+00 -2.6799058685e+00 1.5472443746e+00 2.6799058685e+00 
6900 5.1300697845e+00 2.4362843184e-02 1.5464465439e+00 -2.6785239852e+00 1.5464465439e+00 2.6785239852e+00 
7000 5.1298818586e+00 2.4033418390e-02 1.5456589068e+00 -2.6771597577e+00 1.5456589068e+00 2.6771597577e+00 
7100 5.1297006870e+00 2.3702890292e-02 1.5448815230e+00 -2.6758132895e+00 1.5448815230e+00 2.6758132895e+00 
7200 5.1295260307e+00 2.3371514470e-02 1.5441144439e+00 -2.6744846695e+00 1.5441144439e+00 2.6744846695e+00 
7300 5.1293576599e+00 2.3039541808e-02 1.5433577123e+00 -2.6731739719e+00 1.5433577123e+00 2.6731739719e+00 
7400 5.1291953533e+00 2.2707218041e-02 1.5426113628e+00 -2.6718812567e+00 1.5426113628e+00 2.6718812567e+00 
7500 5.1290388977e+00 2.2374783340e-02 1.5418754221e+00 -2.6706065699e+00 1.5418754221e+00 2.6706065699e+00 
7600 5.1288880878e+00 2.2042471952e-02 1.5411499086e+00 -2.6693499437e+00 1.5411499086e+00 2.6693499437e+00 
7700 5.1287427255e+00 2.1710511870e-02 1.5404348332e+00 -2.6681113969e+00 1.5404348332e+00 2.6681113969e+00 
7800 5.1286026200e+00 2.1379124555e-02 1.5397301992e+00 -2.6668909350e+00 1.5397301992e+00 2.6668909350e+00 
7900 5.1284675871e+00 2.1048524688e-02 1.5390360023e+00 -2.6656885507e+00 1.5390360023e+00 2.6656885507e+00 
8000 5.1283374492e+00 2.0718919964e-02 1.5383522313e+00 -2.6645042245e+00 1.5383522313e+00 2.6645042245e+00 
8100 5.1282120347e+00 2.0390510913e-02 1.5376788677e+00 -2.6633379246e+00 1.5376788677e+00 2.6633379246e+00 
8200 5.1280911780e+00 2.0063490762e-02 1.5370158865e+00 -2.6621896074e+00 1.5370158865e+00 2.6621896074e+00 
8300 5.1279747194e+00 1.9738045321e-02 1.5363632559e+00 -2.6610592181e+00 1.5363632559e+00 2.6610592181e+00 
8400 5.1278625044e+00 1.9414352899e-02 1.5357209381e+00 -2.6599466911e+00 1.5357209381e+00 2.6599466911e+00 
8500 5.1277543840e+00 1.9092584244e-02 1.5350888890e+00 -2.6588519499e+00 1.5350888890e+00 2.6588519499e+00 
8600 5.1276502140e+00 1.8772902517e-02 1.5344670588e+00 -2.6577749083e+00 1.5344670588e+00 2.6577749083e+00 
8700 5.1275498553e+00 1.8455463275e-02 1.5338553918e+00 -2.6567154701e+00 1.5338553918e+00 2.6567154701e+00 
8800 5.1274531734e+00 1.8140414488e-02 1.5332538274e+00 -2.6556735300e+00 1.5332538274e+00 2.6556735300e+00 
8900 5.1273600383e+00 1.7827896569e-02 1.5326622996e+00 -2.6546489737e+00 1.5326622996e+00 2.6546489737e+00 
9000 5.1272703246e+00 1.7518042426e-02 1.5320807374e+00 -2.6536416784e+00 1.5320807374e+00 2.6536416784e+00 
9100 5.1271839109e+00 1.7210977526e-02 1.5315090654e+00 -2.6526515135e+00 1.5315090654e+00 2.6526515135e+00 
9200 5.1271006800e+00 1.6906819981e-02 1.5309472037e+00 -2.6516783406e+00 1.5309472037e+00 2.6516783406e+00 
9300 5.1270205185e+00 1.6605680642e-02 1.5303950683e+00 -2.6507220140e+00 1.5303950683e+00 2.6507220140e+00 
9400 5.1269433169e+00 1.6307663211e-02 1.5298525712e+00 -2.6497823814e+00 1.5298525712e+00 2.6497823814e+00 
9500 5.1268689696e+00 1.6012864361e-02 1.5293196206e+00 -2.6488592839e+00 1.5293196206e+00 2.6488592839e+00 
9600 5.1267973743e+00 1.5721373866e-02 1.5287961215e+00 -2.6479525568e+00 1.5287961215e+00 2.6479525568e+00 
9700 5.1267284322e+00 1.5433274747e-02 1.5282819753e+00 -2.6470620295e+00 1.5282819753e+00 2.6470620295e+00 
9800 5.1266620479e+00 1.5148643416e-02 1.5277770808e+00 -2.6461875265e+00 1.5277770808e+00 2.6461875265e+00 
9900 5.1265981294e+00 1.4867549835e-02 1.5272813336e+00 -2.6453288672e+00 1.5272813336e+00 2.6453288672e+00 
10000 5.1265365876e+00 1.4590057678e-02 1.5267946269e+00 -2.6444858666e+00 1.5267946269e+00 2.6444858666e+00 
10100 5.1264773366e+00 1.4316224500e-02 1.5263168516e+00 -2.6436583354e+00 1.5263168516e+00 2.6436583354e+00 
10200 5.1264202933e+00 1.4046101908e-02 1.5258478962e+00 -2.6428460808e+00 1.5258478962e+00 2.6428460808e+00 
10300 5.1263653777e+00 1.3779735740e-02 1.5253876473e+00 -2.6420489063e+00 1.5253876473e+00 2.6420489063e+00 
10400 5.1263125124e+00 1.3517166243e-02 1.5249359898e+00 -2.6412666126e+00 1.5249359898e+00 2.6412666126e+00 
10500 5.1262616226e+00 1.3258428255e-02 1.5244928069e+00 -2.6404989973e+00 1.5244928069e+00 2.6404989973e+00 
10600 5.1262126364e+00 1.3003551388e-02 1.5240579804e+00 -2.6397458557e+00 1.5240579804e+00 2.6397458557e+00 
10700 5.1261654841e+00 1.2752560214e-02 1.5236313908e+00 -2.6390069809e+00 1.5236313908e+00 2.6390069809e+00 
10800 5.1261200986e+00 1.2505474449e-02 1.5232129177e+00 -2.6382821641e+00 1.5232129177e+00 2.6382821641e+00 
10900 5.1260764152e+00 1.2262309136e-02 1.5228024395e+00 -2.6375711951e+00 1.5228024395e+00 2.6375711951e+00 
11000 5.1260343714e+00 1.2023074836e-02 1.5223998341e+00 -2.6368738622e+00 1.5223998341e+00 2.6368738622e+00 
11100 5.1259939069e+00 1.1787777806e-02 1.5220049788e+00 -2.6361899526e+00 1.5220049788e+00 2.6361899526e+00 
11200 5.1259549636e+00 1.1556420180e-02 1.5216177502e+00 -2.6355192530e+00 1.5216177502e+00 2.6355192530e+00 
11300 5.1259174856e+00 1.1329000157e-02 1.5212380247e+00 -2.6348615492e+00 1.5212380247e+00 2.6348615492e+00 
11400 5.1258814187e+00 1.1105512171e-02 1.5208656787e+00 -2.6342166270e+00 1.5208656787e+00 2.6342166270e+00 
11500 5.1258467109e+00 1.0885947075e-02 1.5205005884e+00 -2.6335842720e+00 1.5205005884e+00 2.6335842720e+00 
11600 5.1258133119e+00 1.0670292309e-02 1.5201426299e+00 -2.6329642698e+00 1.5201426299e+00 2.6329642698e+00 
11700 5.1257811735e+00 1.0458532073e-02 1.5197916799e+00 -2.6323564066e+00 1.5197916799e+00 2.6323564066e+00 
11800 5.1257502489e+00 1.0250647493e-02 1.5194476151e+00 -2.6317604688e+00 1.5194476151e+00 2.6317604688e+00 
11900 5.1257204932e+00 1.0046616790e-02 1.5191103126e+00 -2.6311762438e+00 1.5191103126e+00 2.6311762438e+00 
12000 5.1256918631e+00 9.8464154347e-03 1.5187796503e+00 -2.6306035198e+00 1.5187796503e+00 2.6306035198e+00 
12100 5.1256643169e+00 9.6500163094e-03 1.5184555063e+00 -2.6300420860e+00 1.5184555063e+00 2.6300420860e+00 
12200 5.1256378144e+00 9.4573898597e-03 1.5181377598e+00 -2.6294917328e+00 1.5181377598e+00 2.6294917328e+00 
12300 5.1256123170e+00 9.2685042446e-03 1.5178262905e+00 -2.6289522521e+00 1.5178262905e+00 2.6289522521e+00 
12400 5.1255877873e+00 9.0833254826e-03 1.5175209791e+00 -2.6284234373e+00 1.5175209791e+00 2.6284234373e+00 
12500 5.1255641893e+00 8.9018175932e-03 1.5172217072e+00 -2.6279050832e+00 1.5172217072e+00 2.6279050832e+00 
12600 5.1255414887e+00 8.7239427350e-03 1.5169283575e+00 -2.6273969866e+00 1.5169283575e+00 2.6273969866e+00 
12700 5.1255196520e+00 8.5496613392e-03 1.5166408137e+00 -2.6268989461e+00 1.5166408137e+00 2.6268989461e+00 
12800 5.1254986472e+00 8.3789322392e-03 1.5163589606e+00 -2.6264107623e+00 1.5163589606e+00 2.6264107623e+00 
12900 5.1254784434e+00 8.2117127962e-03 1.5160826844e+00 -2.6259322379e+00 1.5160826844e+00 2.6259322379e+00 
13000 5.1254590109e+00 8.0479590202e-03 1.5158118724e+00 -2.6254631778e+00 1.5158118724e+00 2.6254631778e+00 
13100 5.1254403210e+00 7.8876256874e-03 1.5155464132e+00 -2.6250033889e+00 1.5155464132e+00 2.6250033889e+00 
13200 5.1254223464e+00 7.7306664530e-03 1.5152861969e+00 -2.6245526810e+00 1.5152861969e+00 2.6245526810e+00 
13300 5.1254050603e+00 7.5770339603e-03 1.5150311147e+00 -2.6241108657e+00 1.5150311147e+00 2.6241108657e+00 
13400 5.1253884373e+00 7.4266799453e-03 1.5147810596e+00 -2.6236777575e+00 1.5147810596e+00 2.6236777575e+00 
13500 5.1253724528e+00 7.2795553376e-03 1.5145359258e+00 -2.6232531734e+00 1.5145359258e+00 2.6232531734e+00 
13600 5.1253570831e+00 7.1356103575e-03 1.5142956092e+00 -2.6228369328e+00 1.5142956092e+00 2.6228369328e+00 
13700 5.1253423055e+00 6.9947946082e-03 1.5140600071e+00 -2.6224288580e+00 1.5140600071e+00 2.6224288580e+00 
13800 5.1253280981e+00 6.8570571655e-03 1.5138290183e+00 -2.6220287737e+00 1.5138290183e+00 2.6220287737e+00 
13900 5.1253144396e+00 6.7223466626e-03 1.5136025434e+00 -2.6216365076e+00 1.5136025434e+00 2.6216365076e+00 
14000 5.1253013099e+00 6.5906113718e-03 1.5133804844e+00 -2.6212518901e+00 1.5133804844e+00 2.6212518901e+00 
14100 5.1252886893e+00 6.4617992819e-03 1.5131627449e+00 -2.6208747543e+00 1.5131627449e+00 2.6208747543e+00 
14200 5.1252765590e+00 6.3358581728e-03 1.5129492303e+00 -2.6205049361e+00 1.5129492303e+00 2.6205049361e+00 
14300 5.1252649009e+00 6.2127356859e-03 1.5127398475e+00 -2.6201422744e+00 1.5127398475e+00 2.6201422744e+00 
14400 5.1252536976e+00 6.0923793913e-03 1.5125345050e+00 -2.6197866108e+00 1.5125345050e+00 2.6197866108e+00 
14500 5.1252429321e+00 5.9747368518e-03 1.5123331131e+00 -2.6194377898e+00 1.5123331131e+00 2.6194377898e+00 
14600 5.1252325884e+00 5.8597556834e-03 1.5121355836e+00 -2.6190956587e+00 1.5121355836e+00 2.6190956587e+00 
14700 5.1252226509e+00 5.7473836125e-03 1.5119418301e+00 -2.6187600679e+00 1.5119418301e+00 2.6187600679e+00 
14800 5.1252131045e+00 5.6375685303e-03 1.5117517678e+00 -2.6184308703e+00 1.5117517678e+00 2.6184308703e+00 
14900 5.1252039348e+00 5.5302585442e-03 1.5115653135e+00 -2.6181079220e+00 1.5115653135e+00 2.6181079220e+00 
15000 5.1251951280e+00 5.4254020257e-03 1.5113823857e+00 -2.6177910817e+00 1.5113823857e+00 2.6177910817e+00 
15100 5.1251866705e+00 5.3229476562e-03 1.5112029045e+00 -2.6174802111e+00 1.5112029045e+00 2.6174802111e+00 
15200 5.1251785496e+00 5.2228444694e-03 1.5110267917e+00 -2.6171751748e+00 1.5110267917e+00 2.6171751748e+00 
15300 5.1251707527e+00 5.1250418915e-03 1.5108539706e+00 -2.6168758399e+00 1.5108539706e+00 2.6168758399e+00 
15400 5.1251632680e+00 5.0294897785e-03 1.5106843663e+00 -2.6165820767e+00 1.5106843663e+00 2.6165820767e+00 
15500 5.1251560838e+00 4.9361384511e-03 1.5105179054e+00 -2.6162937579e+00 1.5105179054e+00 2.6162937579e+00 
15600 5.1251491892e+00 4.8449387273e-03 1.5103545161e+00 -2.6160107594e+00 1.5103545161e+00 2.6160107594e+00 
15700 5.1251425733e+00 4.7558419521e-03 1.5101941282e+00 -2.6157329593e+00 1.5101941282e+00 2.6157329593e+00 
15800 5.1251362259e+00 4.6688000259e-03 1.5100366730e+00 -2.6154602388e+00 1.5100366730e+00 2.6154602388e+00 
15900 5.1251301370e+00 4.5837654302e-03 1.5098820833e+00 -2.6151924817e+00 1.5098820833e+00 2.6151924817e+00 
16000 5.1251242972e+00 4.5006912506e-03 1.5097302937e+00 -2.6149295744e+00 1.5097302937e+00 2.6149295744e+00 
16100 5.1251186971e+00 4.4195311990e-03 1.5095812400e+00 -2.6146714059e+00 1.5095812400e+00 2.6146714059e+00 
16200 5.1251133279e+00 4.3402396332e-03 1.5094348597e+00 -2.6144178677e+00 1.5094348597e+00 2.6144178677e+00 
16300 5.1251081810e+00 4.2627715745e-03 1.5092910916e+00 -2.6141688541e+00 1.5092910916e+00 2.6141688541e+00 
16400 5.1251032481e+00 4.1870827235e-03 1.5091498761e+00 -2.6139242617e+00 1.5091498761e+00 2.6139242617e+00 
16500 5.1250985215e+00 4.1131294753e-03 1.5090111551e+00 -2.6136839897e+00 1.5090111551e+00 2.6136839897e+00 
16600 5.1250939932e+00 4.0408689310e-03 1.5088748715e+00 -2.6134479397e+00 1.5088748715e+00 2.6134479397e+00 
16700 5.1250896561e+00 3.9702589100e-03 1.5087409701e+00 -2.6132160157e+00 1.5087409701e+00 2.6132160157e+00 
16800 5.1250855029e+00 3.9012579586e-03 1.5086093968e+00 -2.6129881240e+00 1.5086093968e+00 2.6129881240e+00 
16900 5.1250815268e+00 3.8338253589e-03 1.5084800988e+00 -2.6127641734e+00 1.5084800988e+00 2.6127641734e+00 
17000 5.1250777212e+00 3.7679211353e-03 1.5083530249e+00 -2.6125440748e+00 1.5083530249e+00 2.6125440748e+00 
17100 5.1250740796e+00 3.7035060601e-03 1.5082281247e+00 -2.6123277415e+00 1.5082281247e+00 2.6123277415e+00 
17200 5.1250705961e+00 3.6405416579e-03 1.5081053497e+00 -2.6121150888e+00 1.5081053497e+00 2.6121150888e+00 
17300 5.1250672645e+00 3.5789902087e-03 1.5079846521e+00 -2.6119060345e+00 1.5079846521e+00 2.6119060345e+00 
17400 5.1250640793e+00 3.5188147496e-03 1.5078659857e+00 -2.6117004982e+00 1.5078659857e+00 2.6117004982e+00 
17500 5.1250610349e+00 3.4599790763e-03 1.5077493052e+00 -2.6114984018e+00 1.5077493052e+00 2.6114984018e+00 
17600 5.1250581260e+00 3.4024477428e-03 1.5076345668e+00 -2.6112996690e+00 1.5076345668e+00 2.6112996690e+00 
17700 5.1250553474e+00 3.3461860603e-03 1.5075217276e+00 -2.6111042258e+00 1.5075217276e+00 2.6111042258e+00 
17800 5.1250526943e+00 3.2911600954e-03 1.5074107460e+00 -2.6109119999e+00 1.5074107460e+00 2.6109119999e+00 
17900 5.1250501618e+00 3.2373366674e-03 1.5073015813e+00 -2.6107229211e+00 1.5073015813e+00 2.6107229211e+00 
18000 5.1250477454e+00 3.1846833450e-03 1.5071941941e+00 -2.6105369210e+00 1.5071941941e+00 2.6105369210e+00 
18100 5.1250454407e+00 3.1331684416e-03 1.5070885459e+00 -2.6103539330e+00 1.5070885459e+00 2.6103539330e+00 
18200 5.1250432433e+00 3.0827610105e-03 1.5069845994e+00 -2.6101738924e+00 1.5069845994e+00 2.6101738924e+00 
18300 5.1250411492e+00 3.0334308397e-03 1.5068823181e+00 -2.6099967360e+00 1.5068823181e+00 2.6099967360e+00 
18400 5.1250391544e+00 2.9851484449e-03 1.5067816667e+00 -2.6098224026e+00 1.5067816667e+00 2.6098224026e+00 
18500 5.1250372550e+00 2.9378850634e-03 1.5066826107e+00 -2.6096508326e+00 1.5066826107e+00 2.6096508326e+00 
18600 5.1250354474e+00 2.8916126463e-03 1.5065851166e+00 -2.6094819678e+00 1.5065851166e+00 2.6094819678e+00 
18700 5.1250337281e+00 2.8463038511e-03 1.5064891518e+00 -2.6093157520e+00 1.5064891518e+00 2.6093157520e+00 
18800 5.1250320935e+00 2.8019320330e-03 1.5063946847e+00 -2.6091521301e+00 1.5063946847e+00 2.6091521301e+00 
18900 5.1250305403e+00 2.7584712364e-03 1.5063016844e+00 -2.6089910489e+00 1.5063016844e+00 2.6089910489e+00 
19000 5.1250290655e+00 2.7158961859e-03 1.5062101209e+00 -2.6088324563e+00 1.5062101209e+00 2.6088324563e+00 
19100 5.1250276658e+00 2.6741822767e-03 1.5061199652e+00 -2.6086763021e+00 1.5061199652e+00 2.6086763021e+00 
19200 5.1250263384e+00 2.6333055650e-03 1.5060311889e+00 -2.6085225369e+00 1.5060311889e+00 2.6085225369e+00 
19300 5.1250250803e+00 2.5932427578e-03 1.5059437644e+00 -2.6083711133e+00 1.5059437644e+00 2.6083711133e+00 
19400 5.1250238889e+00 2.5539712028e-03 1.5058576650e+00 -2.6082219847e+00 1.5058576650e+00 2.6082219847e+00 
19500 5.1250227615e+00 2.5154688776e-03 1.5057728646e+00 -2.6080751061e+00 1.5057728646e+00 2.6080751061e+00 
19600 5.1250216954e+00 2.4777143791e-03 1.5056893378e+00 -2.6079304335e+00 1.5056893378e+00 2.6079304335e+00 
19700 5.1250206883e+00 2.4406869127e-03 1.5056070602e+00 -2.6077879244e+00 1.5056070602e+00 2.6077879244e+00 
19800 5.1250197377e+00 2.4043662811e-03 1.5055260076e+00 -2.6076475374e+00 1.5055260076e+00 2.6076475374e+00 
19900 5.1250188413e+00 2.3687328727e-03 1.5054461570e+00 -2.6075092319e+00 1.5054461570e+00 2.6075092319e+00 
20000 5.1250179971e+00 2.3337676512e-03 1.5053674855e+00 -2.6073729690e+00 1.5053674855e+00 2.6073729690e+00 
20100 5.1250172027e+00 2.2994521431e-03 1.5052899713e+00 -2.6072387105e+00 1.5052899713e+00 2.6072387105e+00 
20200 5.1250164562e+00 2.2657684271e-03 1.5052135929e+00 -2.6071064192e+00 1.5052135929e+00 2.6071064192e+00 
20300 5.1250157555e+00 2.2326991219e-03 1.5051383295e+00 -2.6069760592e+00 1.5051383295e+00 2.6069760592e+00 
20400 5.1250150989e+00 2.2002273751e-03 1.5050641609e+00 -2.6068475954e+00 1.5050641609e+00 2.6068475954e+00 
20500 5.1250144843e+00 2.1683368513e-03 1.5049910674e+00 -2.6067209936e+00 1.5049910674e+00 2.6067209936e+00 
20600 5.1250139102e+00 2.1370117207e-03 1.5049190297e+00 -2.6065962208e+00 1.5049190297e+00 2.6065962208e+00 
20700 5.1250133747e+00 2.1062366472e-03 1.5048480294e+00 -2.6064732446e+00 1.5048480294e+00 2.6064732446e+00 
20800 5.1250128762e+00 2.0759967773e-03 1.5047780483e+00 -2.6063520337e+00 1.5047780483e+00 2.6063520337e+00 
20900 5.1250124132e+00 2.0462777283e-03 1.5047090686e+00 -2.6062325575e+00 1.5047090686e+00 2.6062325575e+00 
21000 5.1250119840e+00 2.0170655768e-03 1.5046410733e+00 -2.6061147862e+00 1.5046410733e+00 2.6061147862e+00 
21100 5.1250115873e+00 1.9883468476e-03 1.5045740457e+00 -2.6059986909e+00 1.5045740457e+00 2.6059986909e+00 
21200 5.1250112217e+00 1.9601085019e-03 1.5045079694e+00 -2.6058842435e+00 1.5045079694e+00 2.6058842435e+00 
21300 5.1250108857e+00 1.9323379267e-03 1.5044428287e+00 -2.6057714165e+00 1.5044428287e+00 2.6057714165e+00 
21400 5.1250105781e+00 1.9050229230e-03 1.5043786081e+00 -2.6056601831e+00 1.5043786081e+00 2.6056601831e+00 
21500 5.1250102976e+00 1.8781516954e-03 1.5043152927e+00 -2.6055505175e+00 1.5043152927e+00 2.6055505175e+00 
21600 5.1250100430e+00 1.8517128409e-03 1.5042528676e+00 -2.6054423941e+00 1.5042528676e+00 2.6054423941e+00 
21700 5.1250098131e+00 1.8256953378e-03 1.5041913188e+00 -2.6053357884e+00 1.5041913188e+00 2.6053357884e+00 
21800 5.1250096068e+00 1.8000885360e-03 1.5041306323e+00 -2.6052306763e+00 1.5041306323e+00 2.6052306763e+00 
21900 5.1250094231e+00 1.7748821452e-03 1.5040707945e+00 -2.6051270342e+00 1.5040707945e+00 2.6051270342e+00 
22000 5.1250092608e+00 1.7500662257e-03 1.5040117922e+00 -2.6050248394e+00 1.5040117922e+00 2.6050248394e+00 
22100 5.1250091190e+00 1.7256311775e-03 1.5039536127e+00 -2.6049240694e+00 1.5039536127e+00 2.6049240694e+00 
22200 5.1250089967e+00 1.7015677306e-03 1.5038962432e+00 -2.6048247026e+00 1.5038962432e+00 2.6048247026e+00 
22300 5.1250088931e+00 1.6778669346e-03 1.5038396716e+00 -2.6047267176e+00 1.5038396716e+00 2.6047267176e+00 
22400 5.1250088071e+00 1.6545201496e-03 1.5037838858e+00 -2.6046300939e+00 1.5037838858e+00 2.6046300939e+00 
22500 5.1250087380e+00 1.6315190362e-03 1.5037288743e+00 -2.6045348111e+00 1.5037288743e+00 2.6045348111e+00 
22600 5.1250086849e+00 1.6088555462e-03 1.5036746255e+00 -2.6044408494e+00 1.5036746255e+00 2.6044408494e+00 
22700 5.1250086470e+00 1.5865219135e-03 1.5036211284e+00 -2.6043481896e+00 1.5036211284e+00 2.6043481896e+00 
22800 5.1250086236e+00 1.5645106448e-03 1.5035683720e+00 -2.6042568129e+00 1.5035683720e+00 2.6042568129e+00 
22900 5.1250086140e+00 1.5428145108e-03 1.5035163457e+00 -2.6041667007e+00 1.5035163457e+00 2.6041667007e+00 
23000 5.1250086174e+00 1.5214265379e-03 1.5034650391e+00 -2.6040778351e+00 1.5034650391e+00 2.6040778351e+00 
23100 5.1250086332e+00 1.5003399989e-03 1.5034144420e+00 -2.6039901984e+00 1.5034144420e+00 2.6039901984e+00 
23200 5.1250086607e+00 1.4795484055e-03 1.5033645446e+00 -2.6039037735e+00 1.5033645446e+00 2.6039037735e+00 
23300 5.1250086994e+00 1.4590454994e-03 1.5033153369e+00 -2.6038185433e+00 1.5033153369e+00 2.6038185433e+00 
23400 5.1250087485e+00 1.4388252451e-03 1.5032668096e+00 -2.6037344915e+00 1.5032668096e+00 2.6037344915e+00 
23500 5.1250088076e+00 1.4188818214e-03 1.5032189532e+00 -2.6036516019e+00 1.5032189532e+00 2.6036516019e+00 
23600 5.1250088761e+00 1.3992096141e-03 1.5031717587e+00 -2.6035698586e+00 1.5031717587e+00 2.6035698586e+00 
23700 5.1250089534e+00 1.3798032090e-03 1.5031252170e+00 -2.6034892460e+00 1.5031252170e+00 2.6034892460e+00 
23800 5.1250090391e+00 1.3606573838e-03 1.5030793194e+00 -2.6034097491e+00 1.5030793194e+00 2.6034097491e+00 
23900 5.1250091327e+00 1.3417671016e-03 1.5030340573e+00 -2.6033313528e+00 1.5030340573e+00 2.6033313528e+00 
24000 5.1250092336e+00 1.3231275043e-03 1.5029894223e+00 -2.6032540426e+00 1.5029894223e+00 2.6032540426e+00 
24100 5.1250093416e+00 1.3047339051e-03 1.5029454060e+00 -2.6031778041e+00 1.5029454060e+00 2.6031778041e+00 
24200 5.1250094561e+00 1.2865817828e-03 1.5029020003e+00 -2.6031026233e+00 1.5029020003e+00 2.6031026233e+00 
24300 5.1250095767e+00 1.2686667748e-03 1.5028591972e+00 -2.6030284862e+00 1.5028591972e+00 2.6030284862e+00 
24400 5.1250097030e+00 1.2509846715e-03 1.5028169890e+00 -2.6029553794e+00 1.5028169890e+00 2.6029553794e+00 
24500 5.1250098347e+00 1.2335314099e-03 1.5027753679e+00 -2.6028832895e+00 1.5027753679e+00 2.6028832895e+00 
24600 5.1250099714e+00 1.2163030680e-03 1.5027343263e+00 -2.6028122034e+00 1.5027343263e+00 2.6028122034e+00 
24700 5.1250101128e+00 1.1992958593e-03 1.5026938568e+00 -2.6027421082e+00 1.5026938568e+00 2.6027421082e+00 
24800 5.1250102585e+00 1.1825061268e-03 1.5026539521e+00 -2.6026729912e+00 1.5026539521e+00 2.6026729912e+00 
24900 5.1250104082e+00 1.1659303383e-03 1.5026146050e+00 -2.6026048401e+00 1.5026146050e+00 2.6026048401e+00 
25000 5.1250105616e+00 1.1495650809e-03 1.5025758085e+00 -2.6025376425e+00 1.5025758085e+00 2.6025376425e+00 
25100 5.1250107184e+00 1.1334070561e-03 1.5025375555e+00 -2.6024713864e+00 1.5025375555e+00 2.6024713864e+00 
25200 5.1250108783e+00 1.1174530748e-03 1.5024998392e+00 -2.6024060599e+00 1.5024998392e+00 2.6024060599e+00 
25300 5.1250110412e+00 1.1017000532e-03 1.5024626529e+00 -2.6023416513e+00 1.5024626529e+00 2.6023416513e+00 
25400 5.1250112067e+00 1.0861450075e-03 1.5024259899e+00 -2.6022781491e+00 1.5024259899e+00 2.6022781491e+00 
25500 5.1250113745e+00 1.0707850502e-03 1.5023898437e+00 -2.6022155420e+00 1.5023898437e+00 2.6022155420e+00 
25600 5.1250115445e+00 1.0556173854e-03 1.5023542078e+00 -2.6021538188e+00 1.5023542078e+00 2.6021538188e+00 
25700 5.1250117165e+00 1.0406393049e-03 1.5023190758e+00 -2.6020929684e+00 1.5023190758e+00 2.6020929684e+00 
25800 5.1250118902e+00 1.0258481845e-03 1.5022844415e+00 -2.6020329801e+00 1.5022844415e+00 2.6020329801e+00 
25900 5.1250120654e+00 1.0112414799e-03 1.5022502987e+00 -2.6019738430e+00 1.5022502987e+00 2.6019738430e+00 
26000 5.1250122419e+00 9.9681672312e-04 1.5022166413e+00 -2.6019155466e+00 1.5022166413e+00 2.6019155466e+00 
26100 5.1250124197e+00 9.8257151894e-04 1.5021834632e+00 -2.6018580805e+00 1.5021834632e+00 2.6018580805e+00 
26200 5.1250125983e+00 9.6850354164e-04 1.5021507585e+00 -2.6018014344e+00 1.5021507585e+00 2.6018014344e+00 
26300 5.1250127779e+00 9.5461053166e-04 1.5021185214e+00 -2.6017455981e+00 1.5021185214e+00 2.6017455981e+00 
26400 5.1250129580e+00 9.4089029240e-04 1.5020867460e+00 -2.6016905615e+00 1.5020867460e+00 2.6016905615e+00 
26500 5.1250131387e+00 9.2734068730e-04 1.5020554267e+00 -2.6016363149e+00 1.5020554267e+00 2.6016363149e+00 
26600 5.1250133198e+00 9.1395963685e-04 1.5020245578e+00 -2.6015828483e+00 1.5020245578e+00 2.6015828483e+00 
26700 5.1250135011e+00 9.0074511587e-04 1.5019941336e+00 -2.6015301521e+00 1.5019941336e+00 2.6015301521e+00 
26800 5.1250136826e+00 8.8769515078e-04 1.5019641487e+00 -2.6014782168e+00 1.5019641487e+00 2.6014782168e+00 
26900 5.1250138640e+00 8.7480781707e-04 1.5019345977e+00 -2.6014270328e+00 1.5019345977e+00 2.6014270328e+00 
27000 5.1250140453e+00 8.6208123684e-04 1.5019054751e+00 -2.6013765910e+00 1.5019054751e+00 2.6013765910e+00 
27100 5.1250142263e+00 8.4951357644e-04 1.5018767756e+00 -2.6013268820e+00 1.5018767756e+00 2.6013268820e+00 
27200 5.1250144070e+00 8.3710304418e-04 1.5018484939e+00 -2.6012778968e+00 1.5018484939e+00 2.6012778968e+00 
27300 5.1250145873e+00 8.2484788825e-04 1.5018206249e+00 -2.6012296263e+00 1.5018206249e+00 2.6012296263e+00 
27400 5.1250147671e+00 8.1274639459e-04 1.5017931634e+00 -2.6011820615e+00 1.5017931634e+00 2.6011820615e+00 
27500 5.1250149463e+00 8.0079688496e-04 1.5017661043e+00 -2.6011351937e+00 1.5017661043e+00 2.6011351937e+00 
27600 5.1250151247e+00 7.8899771505e-04 1.5017394425e+00 -2.6010890142e+00 1.5017394425e+00 2.6010890142e+00 
27700 5.1250153024e+00 7.7734727266e-04 1.5017131732e+00 -2.6010435143e+00 1.5017131732e+00 2.6010435143e+00 
27800 5.1250154792e+00 7.6584397607e-04 1.5016872912e+00 -2.6009986855e+00 1.5016872912e+00 2.6009986855e+00 
27900 5.1250156552e+00 7.5448627232e-04 1.5016617918e+00 -2.6009545193e+00 1.5016617918e+00 2.6009545193e+00 
28000 5.1250158301e+00 7.4327263572e-04 1.5016366702e+00 -2.6009110073e+00 1.5016366702e+00 2.6009110073e+00 
28100 5.1250160040e+00 7.3220156638e-04 1.5016119215e+00 -2.6008681413e+00 1.5016119215e+00 2.6008681413e+00 
28200 5.1250161768e+00 7.2127158878e-04 1.5015875411e+00 -2.6008259131e+00 1.5015875411e+00 2.6008259131e+00 
28300 5.1250163485e+00 7.1048125046e-04 1.5015635242e+00 -2.6007843146e+00 1.5015635242e+00 2.6007843146e+00 
28400 5.1250165190e+00 6.9982912079e-04 1.5015398662e+00 -2.6007433378e+00 1.5015398662e+00 2.6007433378e+00 
28500 5.1250166882e+00 6.8931378973e-04 1.5015165625e+00 -2.6007029747e+00 1.5015165625e+00 2.6007029747e+00 
28600 5.1250168561e+00 6.7893386673e-04 1.5014936087e+00 -2.6006632174e+00 1.5014936087e+00 2.6006632174e+00 
28700 5.1250170227e+00 6.6868797969e-04 1.5014710001e+00 -2.6006240583e+00 1.5014710001e+00 2.6006240583e+00 
28800 5.1250171880e+00 6.5857477390e-04 1.5014487324e+00 -2.6005854895e+00 1.5014487324e+00 2.6005854895e+00 
28900 5.1250173518e+00 6.4859291113e-04 1.5014268011e+00 -2.6005475034e+00 1.5014268011e+00 2.6005475034e+00 
29000 5.1250175142e+00 6.3874106873e-04 1.5014052020e+00 -2.6005100926e+00 1.5014052020e+00 2.6005100926e+00 
29100 5.1250176752e+00 6.2901793879e-04 1.5013839306e+00 -2.6004732494e+00 1.5013839306e+00 2.6004732494e+00 
29200 5.1250178346e+00 6.1942222734e-04 1.5013629827e+00 -2.6004369666e+00 1.5013629827e+00 2.6004369666e+00 
29300 5.1250179926e+00 6.0995265363e-04 1.5013423541e+00 -2.6004012368e+00 1.5013423541e+00 2.6004012368e+00 
29400 5.1250181490e+00 6.0060794941e-04 1.5013220405e+00 -2.6003660528e+00 1.5013220405e+00 2.6003660528e+00 
29500 5.1250183038e+00 5.9138685831e-04 1.5013020380e+00 -2.6003314072e+00 1.5013020380e+00 2.6003314072e+00 
29600 5.1250184571e+00 5.8228813522e-04 1.5012823422e+00 -2.6002972932e+00 1.5012823422e+00 2.6002972932e+00 
29700 5.1250186088e+00 5.7331054572e-04 1.5012629492e+00 -2.6002637036e+00 1.5012629492e+00 2.6002637036e+00 
29800 5.1250187589e+00 5.6445286556e-04 1.5012438550e+00 -2.6002306314e+00 1.5012438550e+00 2.6002306314e+00 
29900 5.1250189074e+00 5.5571388020e-04 1.5012250555e+00 -2.6001980697e+00 1.5012250555e+00 2.6001980697e+00 
30000 5.1250190542e+00 5.4709238429e-04 1.5012065469e+00 -2.6001660118e+00 1.5012065469e+00 2.6001660118e+00 
30100 5.1250191994e+00 5.3858718134e-04 1.5011883252e+00 -2.6001344509e+00 1.5011883252e+00 2.6001344509e+00 
30200 5.1250193430e+00 5.3019708328e-04 1.5011703865e+00 -2.6001033802e+00 1.5011703865e+00 2.6001033802e+00 
30300 5.1250194849e+00 5.2192091010e-04 1.5011527271e+00 -2.6000727932e+00 1.5011527271e+00 2.6000727932e+00 
30400 5.1250196252e+00 5.1375748957e-04 1.5011353431e+00 -2.6000426833e+00 1.5011353431e+00 2.6000426833e+00 
30500 5.1250197638e+00 5.0570565691e-04 1.5011182308e+00 -2.6000130440e+00 1.5011182308e+00 2.6000130440e+00 
30600 5.1250199008e+00 4.9776425455e-04 1.5011013866e+00 -2.5999838689e+00 1.5011013866e+00 2.5999838689e+00 
30700 5.1250200361e+00 4.8993213185e-04 1.5010848066e+00 -2.5999551516e+00 1.5010848066e+00 2.5999551516e+00 
30800 5.1250201697e+00 4.8220814491e-04 1.5010684874e+00 -2.5999268858e+00 1.5010684874e+00 2.5999268858e+00 
30900 5.1250203017e+00 4.7459115637e-04 1.5010524253e+00 -2.5998990654e+00 1.5010524253e+00 2.5998990654e+00 
31000 5.1250204320e+00 4.6708003524e-04 1.5010366167e+00 -2.5998716841e+00 1.5010366167e+00 2.5998716841e+00 
31100 5.1250205606e+00 4.5967365671e-04 1.5010210581e+00 -2.5998447359e+00 1.5010210581e+00 2.5998447359e+00 
31200 5.1250206876e+00 4.5237090206e-04 1.5010057461e+00 -2.5998182147e+00 1.5010057461e+00 2.5998182147e+00 
31300 5.1250208130e+00 4.4517065854e-04 1.5009906772e+00 -2.5997921146e+00 1.5009906772e+00 2.5997921146e+00 
31400 5.1250209367e+00 4.3807181923e-04 1.5009758480e+00 -2.5997664297e+00 1.5009758480e+00 2.5997664297e+00 
31500 5.1250210588e+00 4.3107328300e-04 1.5009612551e+00 -2.5997411541e+00 1.5009612551e+00 2.5997411541e+00 
31600 5.1250211793e+00 4.2417395441e-04 1.5009468952e+00 -2.5997162820e+00 1.5009468952e+00 2.5997162820e+00 
31700 5.1250212981e+00 4.1737274368e-04 1.5009327651e+00 -2.5996918078e+00 1.5009327651e+00 2.5996918078e+00 
31800 5.1250214153e+00 4.1066856663e-04 1.5009188613e+00 -2.5996677258e+00 1.5009188613e+00 2.5996677258e+00 
31900 5.1250215310e+00 4.0406034466e-04 1.5009051807e+00 -2.5996440304e+00 1.5009051807e+00 2.5996440304e+00 
32000 5.1250216450e+00 3.9754700472e-04 1.5008917202e+00 -2.5996207161e+00 1.5008917202e+00 2.5996207161e+00 
32100 5.1250217575e+00 3.9112747932e-04 1.5008784765e+00 -2.5995977774e+00 1.5008784765e+00 2.5995977774e+00 
32200 5.1250218684e+00 3.8480070652e-04 1.5008654466e+00 -2.5995752088e+00 1.5008654466e+00 2.5995752088e+00 
32300 5.1250219777e+00 3.7856562994e-04 1.5008526273e+00 -2.5995530052e+00 1.5008526273e+00 2.5995530052e+00 
32400 5.1250220855e+00 3.7242119877e-04 1.5008400157e+00 -2.5995311612e+00 1.5008400157e+00 2.5995311612e+00 
32500 5.1250221917e+00 3.6636636784e-04 1.5008276086e+00 -2.5995096715e+00 1.5008276086e+00 2.5995096715e+00 
32600 5.1250222964e+00 3.6040009757e-04 1.5008154031e+00 -2.5994885310e+00 1.5008154031e+00 2.5994885310e+00 
32700 5.1250223996e+00 3.5452135412e-04 1.5008033963e+00 -2.5994677346e+00 1.5008033963e+00 2.5994677346e+00 
32800 5.1250225013e+00 3.4872910932e-04 1.5007915853e+00 -2.5994472773e+00 1.5007915853e+00 2.5994472773e+00 
32900 5.1250226015e+00 3.4302234081e-04 1.5007799671e+00 -2.5994271541e+00 1.5007799671e+00 2.5994271541e+00 
33000 5.1250227003e+00 3.3740003204e-04 1.5007685390e+00 -2.5994073600e+00 1.5007685390e+00 2.5994073600e+00 
33100 5.1250227976e+00 3.3186117236e-04 1.5007572981e+00 -2.5993878902e+00 1.5007572981e+00 2.5993878902e+00 
33200 5.1250228934e+00 3.2640475706e-04 1.5007462417e+00 -2.5993687399e+00 1.5007462417e+00 2.5993687399e+00 
33300 5.1250229878e+00 3.2102978744e-04 1.5007353669e+00 -2.5993499043e+00 1.5007353669e+00 2.5993499043e+00 
33400 5.1250230808e+00 3.1573527091e-04 1.5007246712e+00 -2.5993313787e+00 1.5007246712e+00 2.5993313787e+00 
33500 5.1250231724e+00 3.1052022099e-04 1.5007141518e+00 -2.5993131585e+00 1.5007141518e+00 2.5993131585e+00 
33600 5.1250232626e+00 3.0538365745e-04 1.5007038061e+00 -2.5992952392e+00 1.5007038061e+00 2.5992952392e+00 
33700 5.1250233515e+00 3.0032460634e-04 1.5006936314e+00 -2.5992776162e+00 1.5006936314e+00 2.5992776162e+00 
33800 5.1250234389e+00 2.9534210009e-04 1.5006836252e+00 -2.5992602849e+00 1.5006836252e+00 2.5992602849e+00 
33900 5.1250235251e+00 2.9043517756e-04 1.5006737850e+00 -2.5992432411e+00 1.5006737850e+00 2.5992432411e+00 
34000 5.1250236099e+00 2.8560288413e-04 1.5006641081e+00 -2.5992264804e+00 1.5006641081e+00 2.5992264804e+00 
34100 5.1250236934e+00 2.8084427177e-04 1.5006545923e+00 -2.5992099984e+00 1.5006545923e+00 2.5992099984e+00 
34200 5.1250237756e+00 2.7615839911e-04 1.5006452349e+00 -2.5991937910e+00 1.5006452349e+00 2.5991937910e+00 
34300 5.1250238565e+00 2.7154433153e-04 1.5006360336e+00 -2.5991778538e+00 1.5006360336e+00 2.5991778538e+00 
34400 5.1250239361e+00 2.6700114121e-04 1.5006269859e+00 -2.5991621829e+00 1.5006269859e+00 2.5991621829e+00 
34500 5.1250240145e+00 2.6252790722e-04 1.5006180896e+00 -2.5991467740e+00 1.5006180896e+00 2.5991467740e+00 
34600 5.1250240917e+00 2.5812371556e-04 1.5006093423e+00 -2.5991316232e+00 1.5006093423e+00 2.5991316232e+00 
34700 5.1250241676e+00 2.5378765928e-04 1.5006007417e+00 -2.5991167265e+00 1.5006007417e+00 2.5991167265e+00 
34800 5.1250242424e+00 2.4951883851e-04 1.5005922855e+00 -2.5991020799e+00 1.5005922855e+00 2.5991020799e+00 
34900 5.1250243159e+00 2.4531636052e-04 1.5005839715e+00 -2.5990876797e+00 1.5005839715e+00 2.5990876797e+00 
35000 5.1250243883e+00 2.4117933982e-04 1.5005757975e+00 -2.5990735218e+00 1.5005757975e+00 2.5990735218e+00 
35100 5.1250244595e+00 2.3710689819e-04 1.5005677613e+00 -2.5990596027e+00 1.5005677613e+00 2.5990596027e+00 
35200 5.1250245296e+00 2.3309816475e-04 1.5005598607e+00 -2.5990459185e+00 1.5005598607e+00 2.5990459185e+00 
35300 5.1250245985e+00 2.2915227601e-04 1.5005520937e+00 -2.5990324656e+00 1.5005520937e+00 2.5990324656e+00 
35400 5.1250246663e+00 2.2526837595e-04 1.5005444581e+00 -2.5990192404e+00 1.5005444581e+00 2.5990192404e+00 
35500 5.1250247331e+00 2.2144561602e-04 1.5005369519e+00 -2.5990062392e+00 1.5005369519e+00 2.5990062392e+00 
35600 5.1250247987e+00 2.1768315527e-04 1.5005295730e+00 -2.5989934587e+00 1.5005295730e+00 2.5989934587e+00 
35700 5.1250248633e+00 2.1398016031e-04 1.5005223194e+00 -2.5989808952e+00 1.5005223194e+00 2.5989808952e+00 
35800 5.1250249268e+00 2.1033580541e-04 1.5005151893e+00 -2.5989685453e+00 1.5005151893e+00 2.5989685453e+00 
35900 5.1250249893e+00 2.0674927253e-04 1.5005081805e+00 -2.5989564058e+00 1.5005081805e+00 2.5989564058e+00 
36000 5.1250250507e+00 2.0321975134e-04 1.5005012912e+00 -2.5989444731e+00 1.5005012912e+00 2.5989444731e+00 
36100 5.1250251112e+00 1.9974643929e-04 1.5004945194e+00 -2.5989327442e+00 1.5004945194e+00 2.5989327442e+00 
36200 5.1250251706e+00 1.9632854161e-04 1.5004878634e+00 -2.5989212156e+00 1.5004878634e+00 2.5989212156e+00 
36300 5.1250252291e+00 1.9296527136e-04 1.5004813213e+00 -2.5989098843e+00 1.5004813213e+00 2.5989098843e+00 
36400 5.1250252866e+00 1.8965584944e-04 1.5004748912e+00 -2.5988987470e+00 1.5004748912e+00 2.5988987470e+00 
36500 5.1250253431e+00 1.8639950462e-04 1.5004685713e+00 -2.5988878007e+00 1.5004685713e+00 2.5988878007e+00 
36600 5.1250253987e+00 1.8319547359e-04 1.5004623599e+00 -2.5988770423e+00 1.5004623599e+00 2.5988770423e+00 
36700 5.1250254534e+00 1.8004300092e-04 1.5004562553e+00 -2.5988664687e+00 1.5004562553e+00 2.5988664687e+00 
36800 5.1250255072e+00 1.7694133914e-04 1.5004502557e+00 -2.5988560771e+00 1.5004502557e+00 2.5988560771e+00 
36900 5.1250255600e+00 1.7388974870e-04 1.5004443594e+00 -2.5988458645e+00 1.5004443594e+00 2.5988458645e+00 
37000 5.1250256120e+00 1.7088749800e-04 1.5004385648e+00 -2.5988358279e+00 1.5004385648e+00 2.5988358279e+00 
37100 5.1250256631e+00 1.6793386340e-04 1.5004328703e+00 -2.5988259646e+00 1.5004328703e+00 2.5988259646e+00 
37200 5.1250257134e+00 1.6502812922e-04 1.5004272741e+00 -2.5988162718e+00 1.5004272741e+00 2.5988162718e+00 
37300 5.1250257628e+00 1.6216958775e-04 1.5004217747e+00 -2.5988067466e+00 1.5004217747e+00 2.5988067466e+00 
37400 5.1250258114e+00 1.5935753922e-04 1.5004163706e+00 -2.5987973863e+00 1.5004163706e+00 2.5987973863e+00 
37500 5.1250258591e+00 1.5659129182e-04 1.5004110601e+00 -2.5987881884e+00 1.5004110601e+00 2.5987881884e+00 
37600 5.1250259061e+00 1.5387016170e-04 1.5004058419e+00 -2.5987791501e+00 1.5004058419e+00 2.5987791501e+00 
37700 5.1250259522e+00 1.5119347291e-04 1.5004007142e+00 -2.5987702688e+00 1.5004007142e+00 2.5987702688e+00 
37800 5.1250259976e+00 1.4856055746e-04 1.5003956758e+00 -2.5987615420e+00 1.5003956758e+00 2.5987615420e+00 
37900 5.1250260422e+00 1.4597075525e-04 1.5003907251e+00 -2.5987529671e+00 1.5003907251e+00 2.5987529671e+00 
38000 5.1250260860e+00 1.4342341407e-04 1.5003858607e+00 -2.5987445417e+00 1.5003858607e+00 2.5987445417e+00 
38100 5.1250261291e+00 1.4091788959e-04 1.5003810811e+00 -2.5987362632e+00 1.5003810811e+00 2.5987362632e+00 
38200 5.1250261714e+00 1.3845354531e-04 1.5003763851e+00 -2.5987281294e+00 1.5003763851e+00 2.5987281294e+00 
38300 5.1250262131e+00 1.3602975255e-04 1.5003717711e+00 -2.5987201378e+00 1.5003717711e+00 2.5987201378e+00 
38400 5.1250262540e+00 1.3364589044e-04 1.5003672379e+00 -2.5987122861e+00 1.5003672379e+00 2.5987122861e+00 
38500 5.1250262942e+00 1.3130134588e-04 1.5003627841e+00 -2.5987045719e+00 1.5003627841e+00 2.5987045719e+00 
38600 5.1250263337e+00 1.2899551346e-04 1.5003584085e+00 -2.5986969931e+00 1.5003584085e+00 2.5986969931e+00 
38700 5.1250263726e+00 1.2672779552e-04 1.5003541097e+00 -2.5986895473e+00 1.5003541097e+00 2.5986895473e+00 
38800 5.1250264108e+00 1.2449760203e-04 1.5003498864e+00 -2.5986822324e+00 1.5003498864e+00 2.5986822324e+00 
38900 5.1250264483e+00 1.2230435059e-04 1.5003457375e+00 -2.5986750462e+00 1.5003457375e+00 2.5986750462e+00 
39000 5.1250264852e+00 1.2014746639e-04 1.5003416616e+00 -2.5986679866e+00 1.5003416616e+00 2.5986679866e+00 
39100 5.1250265214e+00 1.1802638216e-04 1.5003376576e+00 -2.5986610514e+00 1.5003376576e+00 2.5986610514e+00 
39200 5.1250265570e+00 1.1594053813e-04 1.5003337243e+00 -2.5986542387e+00 1.5003337243e+00 2.5986542387e+00 
39300 5.1250265921e+00 1.1388938198e-04 1.5003298604e+00 -2.5986475464e+00 1.5003298604e+00 2.5986475464e+00 
39400 5.1250266265e+00 1.1187236880e-04 1.5003260650e+00 -2.5986409724e+00 1.5003260650e+00 2.5986409724e+00 
39500 5.1250266603e+00 1.0988896105e-04 1.5003223367e+00 -2.5986345149e+00 1.5003223367e+00 2.5986345149e+00 
39600 5.1250266935e+00 1.0793862848e-04 1.5003186745e+00 -2.5986281718e+00 1.5003186745e+00 2.5986281718e+00 
39700 5.1250267261e+00 1.0602084811e-04 1.5003150773e+00 -2.5986219413e+00 1.5003150773e+00 2.5986219413e+00 
39800 5.1250267582e+00 1.0413510416e-04 1.5003115440e+00 -2.5986158215e+00 1.5003115440e+00 2.5986158215e+00 
39900 5.1250267897e+00 1.0228088799e-04 1.5003080736e+00 -2.5986098105e+00 1.5003080736e+00 2.5986098105e+00 
40000 5.1250268207e+00 1.0045769808e-04 1.5003046649e+00 -2.5986039065e+00 1.5003046649e+00 2.5986039065e+00 
40100 5.1250268512e+00 9.8665039927e-05 1.5003013170e+00 -2.5985981077e+00 1.5003013170e+00 2.5985981077e+00 
40200 5.1250268811e+00 9.6902426017e-05 1.5002980288e+00 -2.5985924125e+00 1.5002980288e+00 2.5985924125e+00 
40300 5.1250269105e+00 9.5169375758e-05 1.5002947994e+00 -2.5985868189e+00 1.5002947994e+00 2.5985868189e+00 
40400 5.1250269394e+00 9.3465415419e-05 1.5002916277e+00 -2.5985813254e+00 1.5002916277e+00 2.5985813254e+00 
40500 5.1250269677e+00 9.1790078069e-05 1.5002885128e+00 -2.5985759302e+00 1.5002885128e+00 2.5985759302e+00 
40600 5.1250269956e+00 9.0142903522e-05 1.5002854537e+00 -2.5985706317e+00 1.5002854537e+00 2.5985706317e+00 
40700 5.1250270230e+00 8.8523438260e-05 1.5002824495e+00 -2.5985654283e+00 1.5002824495e+00 2.5985654283e+00 
40800 5.1250270499e+00 8.6931235388e-05 1.5002794993e+00 -2.5985603184e+00 1.5002794993e+00 2.5985603184e+00 
40900 5.1250270764e+00 8.5365854556e-05 1.5002766022e+00 -2.5985553003e+00 1.5002766022e+00 2.5985553003e+00 
41000 5.1250271024e+00 8.3826861900e-05 1.5002737571e+00 -2.5985503726e+00 1.5002737571e+00 2.5985503726e+00 
41100 5.1250271279e+00 8.2313829976e-05 1.5002709634e+00 -2.5985455338e+00 1.5002709634e+00 2.5985455338e+00 
41200 5.1250271530e+00 8.0826337696e-05 1.5002682201e+00 -2.5985407822e+00 1.5002682201e+00 2.5985407822e+00 
41300 5.1250271777e+00 7.9363970256e-05 1.5002655264e+00 -2.5985361166e+00 1.5002655264e+00 2.5985361166e+00 
41400 5.1250272019e+00 7.7926319077e-05 1.5002628814e+00 -2.5985315353e+00 1.5002628814e+00 2.5985315353e+00 
41500 5.1250272257e+00 7.6512981728e-05 1.5002602843e+00 -2.5985270370e+00 1.5002602843e+00 2.5985270370e+00 
41600 5.1250272491e+00 7.5123561869e-05 1.5002577343e+00 -2.5985226203e+00 1.5002577343e+00 2.5985226203e+00 
41700 5.1250272721e+00 7.3757669178e-05 1.5002552306e+00 -2.5985182838e+00 1.5002552306e+00 2.5985182838e+00 
41800 5.1250272946e+00 7.2414919280e-05 1.5002527725e+00 -2.5985140261e+00 1.5002527725e+00 2.5985140261e+00 
41900 5.1250273168e+00 7.1094933684e-05 1.5002503590e+00 -2.5985098459e+00 1.5002503590e+00 2.5985098459e+00 
42000 5.1250273386e+00 6.9797339711e-05 1.5002479896e+00 -2.5985057420e+00 1.5002479896e+00 2.5985057420e+00 
42100 5.1250273602e+00 7.0521464465e-05 1.5002479896e+00 -2.5985057420e+00 1.5002479896e+00 2.5985057420e+00 
42200 5.1250273815e+00 7.1244170540e-05 1.5002479896e+00 -2.5985057420e+00 1.5002479896e+00 2.5985057420e+00 
42300 5.1250274021e+00 6.9924028622e-05 1.5002456152e+00 -2.5985016294e+00 1.5002456152e+00 2.5985016294e+00 
42400 5.1250274226e+00 7.0629255657e-05 1.5002456152e+00 -2.5985016294e+00 1.5002456152e+00 2.5985016294e+00 
42500 5.1250274428e+00 7.1332508673e-05 1.5002456152e+00 -2.5985016294e+00 1.5002456152e+00 2.5985016294e+00 
42600 5.1250274624e+00 6.9989865789e-05 1.5002432378e+00 -2.5984975117e+00 1.5002432378e+00 2.5984975117e+00 
42700 5.1250274818e+00 7.0674574428e-05 1.5002432378e+00 -2.5984975117e+00 1.5002432378e+00 2.5984975117e+00 
42800 5.1250275009e+00 7.1356816547e-05 1.5002432378e+00 -2.5984975117e+00 1.5002432378e+00 2.5984975117e+00 
42900 5.1250275195e+00 6.9992009994e-05 1.5002408597e+00 -2.5984933925e+00 1.5002408597e+00 2.5984933925e+00 
43000 5.1250275379e+00 7.0654780147e-05 1.5002408597e+00 -2.5984933925e+00 1.5002408597e+00 2.5984933925e+00 
43100 5.1250275560e+00 7.1314653362e-05 1.5002408597e+00 -2.5984933925e+00 1.5002408597e+00 2.5984933925e+00 
43200 5.1250275736e+00 6.9928289306e-05 1.5002384829e+00 -2.5984892758e+00 1.5002384829e+00 2.5984892758e+00 
43300 5.1250275911e+00 7.0567899025e-05 1.5002384829e+00 -2.5984892758e+00 1.5002384829e+00 2.5984892758e+00 
43400 5.1250276083e+00 7.1204242086e-05 1.5002384829e+00 -2.5984892758e+00 1.5002384829e+00 2.5984892758e+00 
43500 5.1250276249e+00 6.9797172903e-05 1.5002361098e+00 -2.5984851655e+00 1.5002361098e+00 2.5984851655e+00 
43600 5.1250276415e+00 7.0412594023e-05 1.5002361098e+00 -2.5984851655e+00 1.5002361098e+00 2.5984851655e+00 
43700 5.1250276578e+00 7.1024437543e-05 1.5002361098e+00 -2.5984851655e+00 1.5002361098e+00 2.5984851655e+00 
43800 5.1250276735e+00 6.9597738309e-05 1.5002337427e+00 -2.5984810656e+00 1.5002337427e+00 2.5984810656e+00 
43900 5.1250276893e+00 7.0188130460e-05 1.5002337427e+00 -2.5984810656e+00 1.5002337427e+00 2.5984810656e+00 
44000 5.1250277047e+00 7.0774690487e-05 1.5002337427e+00 -2.5984810656e+00 1.5002337427e+00 2.5984810656e+00 
44100 5.1250277197e+00 6.9329635065e-05 1.5002313839e+00 -2.5984769800e+00 1.5002313839e+00 2.5984769800e+00 
44200 5.1250277346e+00 6.9894338315e-05 1.5002313839e+00 -2.5984769800e+00 1.5002313839e+00 2.5984769800e+00 
44300 5.1250277492e+00 7.0455008615e-05 1.5002313839e+00 -2.5984769800e+00 1.5002313839e+00 2.5984769800e+00 
44400 5.1250277636e+00 7.1011481579e-05 1.5002313839e+00 -2.5984769800e+00 1.5002313839e+00 2.5984769800e+00 
44500 5.1250277775e+00 6.9529225811e-05 1.5002290172e+00 -2.5984728808e+00 1.5002290172e+00 2.5984728808e+00 
44600 5.1250277914e+00 7.0063137813e-05 1.5002290172e+00 -2.5984728808e+00 1.5002290172e+00 2.5984728808e+00 
44700 5.1250278050e+00 7.0592723910e-05 1.5002290172e+00 -2.5984728808e+00 1.5002290172e+00 2.5984728808e+00 
44800 5.1250278184e+00 7.1117842704e-05 1.5002290172e+00 -2.5984728808e+00 1.5002290172e+00 2.5984728808e+00 
44900 5.1250278314e+00 6.9600947444e-05 1.5002266470e+00 -2.5984687754e+00 1.5002266470e+00 2.5984687754e+00 
45000 5.1250278443e+00 7.0103012259e-05 1.5002266470e+00 -2.5984687754e+00 1.5002266470e+00 2.5984687754e+00 
45100 5.1250278570e+00 7.0600548249e-05 1.5002266470e+00 -2.5984687754e+00 1.5002266470e+00 2.5984687754e+00 
45200 5.1250278695e+00 7.1093435372e-05 1.5002266470e+00 -2.5984687754e+00 1.5002266470e+00 2.5984687754e+00 
45300 5.1250278815e+00 6.9544853961e-05 1.5002242776e+00 -2.5984646715e+00 1.5002242776e+00 2.5984646715e+00 
45400 5.1250278936e+00 7.0014391133e-05 1.5002242776e+00 -2.5984646715e+00 1.5002242776e+00 2.5984646715e+00 
45500 5.1250279054e+00 7.0479279269e-05 1.5002242776e+00 -2.5984646715e+00 1.5002242776e+00 2.5984646715e+00 
45600 5.1250279171e+00 7.0939417929e-05 1.5002242776e+00 -2.5984646715e+00 1.5002242776e+00 2.5984646715e+00 
45700 5.1250279283e+00 6.9362423843e-05 1.5002219133e+00 -2.5984605764e+00 1.5002219133e+00 2.5984605764e+00 
45800 5.1250279395e+00 6.9799098137e-05 1.5002219133e+00 -2.5984605764e+00 1.5002219133e+00 2.5984605764e+00 
45900 5.1250279505e+00 7.0231078129e-05 1.5002219133e+00 -2.5984605764e+00 1.5002219133e+00 2.5984605764e+00 
46000 5.1250279614e+00 7.0658281144e-05 1.5002219133e+00 -2.5984605764e+00 1.5002219133e+00 2.5984605764e+00 
46100 5.1250279720e+00 7.1080629149e-05 1.5002219133e+00 -2.5984605764e+00 1.5002219133e+00 2.5984605764e+00 
46200 5.1250279823e+00 6.9461721012e-05 1.5002195443e+00 -2.5984564732e+00 1.5002195443e+00 2.5984564732e+00 
46300 5.1250279925e+00 6.9860431572e-05 1.5002195443e+00 -2.5984564732e+00 1.5002195443e+00 2.5984564732e+00 
46400 5.1250280026e+00 7.0254406957e-05 1.5002195443e+00 -2.5984564732e+00 1.5002195443e+00 2.5984564732e+00 
46500 5.1250280125e+00 7.0643584759e-05 1.5002195443e+00 -2.5984564732e+00 1.5002195443e+00 2.5984564732e+00 
46600 5.1250280223e+00 7.1027906663e-05 1.5002195443e+00 -2.5984564732e+00 1.5002195443e+00 2.5984564732e+00 
46700 5.1250280317e+00 6.9372504285e-05 1.5002171770e+00 -2.5984523730e+00 1.5002171770e+00 2.5984523730e+00 
46800 5.1250280411e+00 6.9733254298e-05 1.5002171770e+00 -2.5984523730e+00 1.5002171770e+00 2.5984523730e+00 
46900 5.1250280503e+00 7.0089323903e-05 1.5002171770e+00 -2.5984523730e+00 1.5002171770e+00 2.5984523730e+00 
47000 5.1250280594e+00 7.0440668243e-05 1.5002171770e+00 -2.5984523730e+00 1.5002171770e+00 2.5984523730e+00 
47100 5.1250280683e+00 7.0787246017e-05 1.5002171770e+00 -2.5984523730e+00 1.5002171770e+00 2.5984523730e+00 
47200 5.1250280769e+00 6.9101100763e-05 1.5002148178e+00 -2.5984482867e+00 1.5002148178e+00 2.5984482867e+00 
47300 5.1250280855e+00 6.9424380814e-05 1.5002148178e+00 -2.5984482867e+00 1.5002148178e+00 2.5984482867e+00 
47400 5.1250280940e+00 6.9743116491e-05 1.5002148178e+00 -2.5984482867e+00 1.5002148178e+00 2.5984482867e+00 
47500 5.1250281023e+00 7.0057277823e-05 1.5002148178e+00 -2.5984482867e+00 1.5002148178e+00 2.5984482867e+00 
47600 5.1250281105e+00 7.0366837871e-05 1.5002148178e+00 -2.5984482867e+00 1.5002148178e+00 2.5984482867e+00 
47700 5.1250281185e+00 7.0671772675e-05 1.5002148178e+00 -2.5984482867e+00 1.5002148178e+00 2.5984482867e+00 
47800 5.1250281264e+00 7.0972061190e-05 1.5002148178e+00 -2.5984482867e+00 1.5002148178e+00 2.5984482867e+00 
47900 5.1250281339e+00 6.9234473461e-05 1.5002124524e+00 -2.5984441897e+00 1.5002124524e+00 2.5984441897e+00 
48000 5.1250281415e+00 6.9511727613e-05 1.5002124524e+00 -2.5984441897e+00 1.5002124524e+00 2.5984441897e+00 
48100 5.1250281490e+00 6.9784615449e-05 1.5002124524e+00 -2.5984441897e+00 1.5002124524e+00 2.5984441897e+00 
48200 5.1250281564e+00 7.0053124720e-05 1.5002124524e+00 -2.5984441897e+00 1.5002124524e+00 2.5984441897e+00 
48300 5.1250281636e+00 7.0317245585e-05 1.5002124524e+00 -2.5984441897e+00 1.5002124524e+00 2.5984441897e+00 
48400 5.1250281707e+00 7.0576970563e-05 1.5002124524e+00 -2.5984441897e+00 1.5002124524e+00 2.5984441897e+00 
48500 5.1250281777e+00 7.0832294477e-05 1.5002124524e+00 -2.5984441897e+00 1.5002124524e+00 2.5984441897e+00 
48600 5.1250281844e+00 6.9054004964e-05 1.5002100916e+00 -2.5984401008e+00 1.5002100916e+00 2.5984401008e+00 
48700 5.1250281911e+00 6.9286857388e-05 1.5002100916e+00 -2.5984401008e+00 1.5002100916e+00 2.5984401008e+00 
48800 5.1250281977e+00 6.9515632061e-05 1.5002100916e+00 -2.5984401008e+00 1.5002100916e+00 2.5984401008e+00 
48900 5.1250282042e+00 6.9740330221e-05 1.5002100916e+00 -2.5984401008e+00 1.5002100916e+00 2.5984401008e+00 
49000 5.1250282106e+00 6.9960954944e-05 1.5002100916e+00 -2.5984401008e+00 1.5002100916e+00 2.5984401008e+00 
49100 5.1250282169e+00 7.0177511094e-05 1.5002100916e+00 -2.5984401008e+00 1.5002100916e+00 2.5984401008e+00 
49200 5.1250282231e+00 7.0390005281e-05 1.5002100916e+00 -2.5984401008e+00 1.5002100916e+00 2.5984401008e+00 
49300 5.1250282292e+00 7.0598445815e-05 1.5002100916e+00 -2.5984401008e+00 1.5002100916e+00 2.5984401008e+00 
49400 5.1250282352e+00 7.0802842661e-05 1.5002100916e+00 -2.5984401008e+00 1.5002100916e+00 2.5984401008e+00 
49500 5.1250282408e+00 6.8974838069e-05 1.5002077319e+00 -2.5984360135e+00 1.5002077319e+00 2.5984360135e+00 
49600 5.1250282466e+00 6.9157527060e-05 1.5002077319e+00 -2.5984360135e+00 1.5002077319e+00 2.5984360135e+00 
49700 5.1250282522e+00 6.9336537118e-05 1.5002077319e+00 -2.5984360135e+00 1.5002077319e+00 2.5984360135e+00 
49800 5.1250282578e+00 6.9511882110e-05 1.5002077319e+00 -2.5984360135e+00 1.5002077319e+00 2.5984360135e+00 
49900 5.1250282633e+00 6.9683577130e-05 1.5002077319e+00 -2.5984360135e+00 1.5002077319e+00 2.5984360135e+00 
50000 5.1250282687e+00 6.9851638465e-05 1.5002077319e+00 -2.5984360135e+00 1.5002077319e+00 2.5984360135e+00 
50100 5.1250282740e+00 7.0016083563e-05 1.5002077319e+00 -2.5984360135e+00 1.5002077319e+00 2.5984360135e+00 
50200 5.1250282792e+00 7.0176930992e-05 1.5002077319e+00 -2.5984360135e+00 1.5002077319e+00 2.5984360135e+00 
50300 5.1250282843e+00 7.0334200413e-05 1.5002077319e+00 -2.5984360135e+00 1.5002077319e+00 2.5984360135e+00 
50400 5.1250282893e+00 7.0487912539e-05 1.5002077319e+00 -2.5984360135e+00 1.5002077319e+00 2.5984360135e+00 
50500 5.1250282942e+00 7.0638089102e-05 1.5002077319e+00 -2.5984360135e+00 1.5002077319e+00 2.5984360135e+00 
50600 5.1250282991e+00 7.0784752823e-05 1.5002077319e+00 -2.5984360135e+00 1.5002077319e+00 2.5984360135e+00 
50700 5.1250283036e+00 6.8900069054e-05 1.5002053727e+00 -2.5984319273e+00 1.5002053727e+00 2.5984319273e+00 
50800 5.1250283083e+00 6.9026126175e-05 1.5002053727e+00 -2.5984319273e+00 1.5002053727e+00 2.5984319273e+00 
50900 5.1250283129e+00 6.9149069445e-05 1.5002053727e+00 -2.5984319273e+00 1.5002053727e+00 2.5984319273e+00 
51000 5.1250283175e+00 6.9268922912e-05 1.5002053727e+00 -2.5984319273e+00 1.5002053727e+00 2.5984319273e+00 
51100 5.1250283219e+00 6.9385711243e-05 1.5002053727e+00 -2.5984319273e+00 1.5002053727e+00 2.5984319273e+00 
51200 5.1250283263e+00 6.9499459698e-05 1.5002053727e+00 -2.5984319273e+00 1.5002053727e+00 2.5984319273e+00 
51300 5.1250283306e+00 6.9610194099e-05 1.5002053727e+00 -2.5984319273e+00 1.5002053727e+00 2.5984319273e+00 
51400 5.1250283348e+00 6.9717940821e-05 1.5002053727e+00 -2.5984319273e+00 1.5002053727e+00 2.5984319273e+00 
51500 5.1250283390e+00 6.9822726758e-05 1.5002053727e+00 -2.5984319273e+00 1.5002053727e+00 2.5984319273e+00 
51600 5.1250283431e+00 6.9924579307e-05 1.5002053727e+00 -2.5984319273e+00 1.5002053727e+00 2.5984319273e+00 
51700 5.1250283471e+00 7.0023526343e-05 1.5002053727e+00 -2.5984319273e+00 1.5002053727e+00 2.5984319273e+00 
51800 5.1250283510e+00 7.0119596199e-05 1.5002053727e+00 -2.5984319273e+00 1.5002053727e+00 2.5984319273e+00 
51900 5.1250283549e+00 7.0212817641e-05 1.5002053727e+00 -2.5984319273e+00 1.5002053727e+00 2.5984319273e+00 
52000 5.1250283587e+00 7.0303219850e-05 1.5002053727e+00 -2.5984319273e+00 1.5002053727e+00 2.5984319273e+00 
52100 5.1250283625e+00 7.0390832396e-05 1.5002053727e+00 -2.5984319273e+00 1.5002053727e+00 2.5984319273e+00 
52200 5.1250283662e+00 7.0475685222e-05 1.5002053727e+00 -2.5984319273e+00 1.5002053727e+00 2.5984319273e+00 
52300 5.1250283698e+00 7.0557808617e-05 1.5002053727e+00 -2.5984319273e+00 1.5002053727e+00 2.5984319273e+00 
52400 5.1250283734e+00 7.0637233200e-05 1.5002053727e+00 -2.5984319273e+00 1.5002053727e+00 2.5984319273e+00 
52500 5.1250283769e+00 7.0713989898e-05 1.5002053727e+00 -2.5984319273e+00 1.5002053727e+00 2.5984319273e+00 
52600 5.1250283801e+00 6.8762263978e-05 1.5002030159e+00 -2.5984278452e+00 1.5002030159e+00 2.5984278452e+00 
52700 5.1250283835e+00 6.8820140267e-05 1.5002030159e+00 -2.5984278452e+00 1.5002030159e+00 2.5984278452e+00 
52800 5.1250283868e+00 6.8875767977e-05 1.5002030159e+00 -2.5984278452e+00 1.5002030159e+00 2.5984278452e+00 
52900 5.1250283901e+00 6.8929176801e-05 1.5002030159e+00 -2.5984278452e+00 1.5002030159e+00 2.5984278452e+00 
53000 5.1250283933e+00 6.8980396438e-05 1.5002030159e+00 -2.5984278452e+00 1.5002030159e+00 2.5984278452e+00 
53100 5.1250283965e+00 6.9029456585e-05 1.5002030159e+00 -2.5984278452e+00 1.5002030159e+00 2.5984278452e+00 
53200 5.1250283996e+00 6.9076386930e-05 1.5002030159e+00 -2.5984278452e+00 1.5002030159e+00 2.5984278452e+00 
53300 5.1250284027e+00 6.9121217143e-05 1.5002030159e+00 -2.5984278452e+00 1.5002030159e+00 2.5984278452e+00 
53400 5.1250284057e+00 6.9163976870e-05 1.5002030159e+00 -2.5984278452e+00 1.5002030159e+00 2.5984278452e+00 
53500 5.1250284087e+00 6.9204695719e-05 1.5002030159e+00 -2.5984278452e+00 1.5002030159e+00 2.5984278452e+00 
53600 5.1250284116e+00 6.9243403261e-05 1.5002030159e+00 -2.5984278452e+00 1.5002030159e+00 2.5984278452e+00 
53700 5.1250284145e+00 6.9280129015e-05 1.5002030159e+00 -2.5984278452e+00 1.5002030159e+00 2.5984278452e+00 
53800 5.1250284173e+00 6.9314902443e-05 1.5002030159e+00 -2.5984278452e+00 1.5002030159e+00 2.5984278452e+00 
53900 5.1250284200e+00 6.9347752943e-05 1.5002030159e+00 -2.5984278452e+00 1.5002030159e+00 2.5984278452e+00 
54000 5.1250284228e+00 6.9378709841e-05 1.5002030159e+00 -2.5984278452e+00 1.5002030159e+00 2.5984278452e+00 
54100 5.1250284254e+00 6.9407802382e-05 1.5002030159e+00 -2.5984278452e+00 1.5002030159e+00 2.5984278452e+00 
54200 5.1250284281e+00 6.9435059728e-05 1.5002030159e+00 -2.5984278452e+00 1.5002030159e+00 2.5984278452e+00 
54300 5.1250284307e+00 6.9460510945e-05 1.5002030159e+00 -2.5984278452e+00 1.5002030159e+00 2.5984278452e+00 
54400 5.1250284332e+00 6.9484184997e-05 1.5002030159e+00 -2.5984278452e+00 1.5002030159e+00 2.5984278452e+00 
54500 5.1250284357e+00 6.9506110744e-05 1.5002030159e+00 -2.5984278452e+00 1.5002030159e+00 2.5984278452e+00 
54600 5.1250284382e+00 6.9526316931e-05 1.5002030159e+00 -2.5984278452e+00 1.5002030159e+00 2.5984278452e+00 
54700 5.1250284406e+00 6.9544832182e-05 1.5002030159e+00 -2.5984278452e+00 1.5002030159e+00 2.5984278452e+00 
54800 5.1250284430e+00 6.9561684994e-05 1.5002030159e+00 -2.5984278452e+00 1.5002030159e+00 2.5984278452e+00 
54900 5.1250284454e+00 6.9576903732e-05 1.5002030159e+00 -2.5984278452e+00 1.5002030159e+00 2.5984278452e+00 
55000 5.1250284477e+00 6.9590516620e-05 1.5002030159e+00 -2.5984278452e+00 1.5002030159e+00 2.5984278452e+00 
55100 5.1250284499e+00 6.9602551738e-05 1.5002030159e+00 -2.5984278452e+00 1.5002030159e+00 2.5984278452e+00 
55200 5.1250284522e+00 6.9613037014e-05 1.5002030159e+00 -2.5984278452e+00 1.5002030159e+00 2.5984278452e+00 
55300 5.1250284544e+00 6.9622000220e-05 1.5002030159e+00 -2.5984278452e+00 1.5002030159e+00 2.5984278452e+00 
55400 5.1250284565e+00 6.9629468965e-05 1.5002030159e+00 -2.5984278452e+00 1.5002030159e+00 2.5984278452e+00 
55500 5.1250284586e+00 6.9635470689e-05 1.5002030159e+00 -2.5984278452e+00 1.5002030159e+00 2.5984278452e+00 
55600 5.1250284607e+00 6.9640032662e-05 1.5002030159e+00 -2.5984278452e+00 1.5002030159e+00 2.5984278452e+00 
55700 5.1250284628e+00 6.9643181971e-05 1.5002030159e+00 -2.5984278452e+00 1.5002030159e+00 2.5984278452e+00 
55800 5.1250284648e+00 6.9644945524e-05 1.5002030159e+00 -2.5984278452e+00 1.5002030159e+00 2.5984278452e+00 
55900 5.1250284668e+00 6.9645350038e-05 1.5002030159e+00 -2.5984278452e+00 1.5002030159e+00 2.5984278452e+00 
56000 5.1250284688e+00 6.9644422038e-05 1.5002030159e+00 -2.5984278452e+00 1.5002030159e+00 2.5984278452e+00 
56100 5.1250284707e+00 6.9642187853e-05 1.5002030159e+00 -2.5984278452e+00 1.5002030159e+00 2.5984278452e+00 
56200 5.1250284726e+00 6.9638673607e-05 1.5002030159e+00 -2.5984278452e+00 1.5002030159e+00 2.5984278452e+00 
56300 5.1250284744e+00 6.9633905222e-05 1.5002030159e+00 -2.5984278452e+00 1.5002030159e+00 2.5984278452e+00 
56400 5.1250284763e+00 6.9627908406e-05 1.5002030159e+00 -2.5984278452e+00 1.5002030159e+00 2.5984278452e+00 
56500 5.1250284781e+00 6.9620708657e-05 1.5002030159e+00 -2.5984278452e+00 1.5002030159e+00 2.5984278452e+00 
56600 5.1250284799e+00 6.9612331250e-05 1.5002030159e+00 -2.5984278452e+00 1.5002030159e+00 2.5984278452e+00 
56700 5.1250284816e+00 6.9602801243e-05 1.5002030159e+00 -2.5984278452e+00 1.5002030159e+00 2.5984278452e+00 
56800 5.1250284833e+00 6.9592143469e-05 1.5002030159e+00 -2.5984278452e+00 1.5002030159e+00 2.5984278452e+00 
56900 5.1250284850e+00 6.9580382529e-05 1.5002030159e+00 -2.5984278452e+00 1.5002030159e+00 2.5984278452e+00 
57000 5.1250284867e+00 6.9567542797e-05 1.5002030159e+00 -2.5984278452e+00 1.5002030159e+00 2.5984278452e+00 
57100 5.1250284883e+00 6.9553648410e-05 1.5002030159e+00 -2.5984278452e+00 1.5002030159e+00 2.5984278452e+00 
57200 5.1250284899e+00 6.9538723268e-05 1.5002030159e+00 -2.5984278452e+00 1.5002030159e+00 2.5984278452e+00 
57300 5.1250284915e+00 6.9522791033e-05 1.5002030159e+00 -2.5984278452e+00 1.5002030159e+00 2.5984278452e+00 
57400 5.1250284931e+00 6.9505875122e-05 1.5002030159e+00 -2.5984278452e+00 1.5002030159e+00 2.5984278452e+00 
57500 5.1250284946e+00 6.9487998709e-05 1.5002030159e+00 -2.5984278452e+00 1.5002030159e+00 2.5984278452e+00 
57600 5.1250284961e+00 6.9469184719e-05 1.5002030159e+00 -2.5984278452e+00 1.5002030159e+00 2.5984278452e+00 
57700 5.1250284976e+00 6.9449455829e-05 1.5002030159e+00 -2.5984278452e+00 1.5002030159e+00 2.5984278452e+00 
57800 5.1250284990e+00 6.9428834467e-05 1.5002030159e+00 -2.5984278452e+00 1.5002030159e+00 2.5984278452e+00 
57900 5.1250285005e+00 6.9407342804e-05 1.5002030159e+00 -2.5984278452e+00 1.5002030159e+00 2.5984278452e+00 
58000 5.1250285019e+00 6.9385002756e-05 1.5002030159e+00 -2.5984278452e+00 1.5002030159e+00 2.5984278452e+00 
58100 5.1250285033e+00 6.9361835987e-05 1.5002030159e+00 -2.5984278452e+00 1.5002030159e+00 2.5984278452e+00 
58200 5.1250285047e+00 6.9337863900e-05 1.5002030159e+00 -2.5984278452e+00 1.5002030159e+00 2.5984278452e+00 
58300 5.1250285060e+00 6.9313107639e-05 1.5002030159e+00 -2.5984278452e+00 1.5002030159e+00 2.5984278452e+00 
58400 5.1250285073e+00 6.9287588091e-05 1.5002030159e+00 -2.5984278452e+00 1.5002030159e+00 2.5984278452e+00 
58500 5.1250285086e+00 6.9261325879e-05 1.5002030159e+00 -2.5984278452e+00 1.5002030159e+00 2.5984278452e+00 
58600 5.1250285099e+00 6.9234341363e-05 1.5002030159e+00 -2.5984278452e+00 1.5002030159e+00 2.5984278452e+00 
58700 5.1250285112e+00 6.9206654644e-05 1.5002030159e+00 -2.5984278452e+00 1.5002030159e+00 2.5984278452e+00 
58800 5.1250285124e+00 6.9178285557e-05 1.5002030159e+00 -2.5984278452e+00 1.5002030159e+00 2.5984278452e+00 
58900 5.1250285137e+00 6.9149253673e-05 1.5002030159e+00 -2.5984278452e+00 1.5002030159e+00 2.5984278452e+00 
59000 5.1250285149e+00 6.9119578300e-05 1.5002030159e+00 -2.5984278452e+00 1.5002030159e+00 2.5984278452e+00 
59100 5.1250285160e+00 6.9089278482e-05 1.5002030159e+00 -2.5984278452e+00 1.5002030159e+00 2.5984278452e+00 
59200 5.1250285172e+00 6.9058372996e-05 1.5002030159e+00 -2.5984278452e+00 1.5002030159e+00 2.5984278452e+00 
59300 5.1250285184e+00 6.9026880357e-05 1.5002030159e+00 -2.5984278452e+00 1.5002030159e+00 2.5984278452e+00 
59400 5.1250285195e+00 6.8994818813e-05 1.5002030159e+00 -2.5984278452e+00 1.5002030159e+00 2.5984278452e+00 
59500 5.1250285206e+00 6.8962206349e-05 1.5002030159e+00 -2.5984278452e+00 1.5002030159e+00 2.5984278452e+00 
59600 5.1250285217e+00 6.8929060685e-05 1.5002030159e+00 -2.5984278452e+00 1.5002030159e+00 2.5984278452e+00 
59700 5.1250285228e+00 6.8895399279e-05 1.5002030159e+00 -2.5984278452e+00 1.5002030159e+00 2.5984278452e+00 
59800 5.1250285238e+00 6.8861239325e-05 1.5002030159e+00 -2.5984278452e+00 1.5002030159e+00 2.5984278452e+00 
59900 5.1250285249e+00 6.8826597753e-05 1.5002030159e+00 -2.5984278452e+00 1.5002030159e+00 2.5984278452e+00 
60000 5.1250285259e+00 6.8791491231e-05 1.5002030159e+00 -2.5984278452e+00 1.5002030159e+00 2.5984278452e+00 
60100 5.1250285269e+00 6.8755936168e-05 1.5002030159e+00 -2.5984278452e+00 1.5002030159e+00 2.5984278452e+00 
60200 5.1250285279e+00 6.8719948713e-05 1.5002030159e+00 -2.5984278452e+00 1.5002030159e+00 2.5984278452e+00 
60300 5.1250285289e+00 6.8683544752e-05 1.5002030159e+00 -2.5984278452e+00 1.5002030159e+00 2.5984278452e+00 
60400 5.1250285299e+00 6.8646739916e-05 1.5002030159e+00 -2.5984278452e+00 1.5002030159e+00 2.5984278452e+00 
60500 5.1250285308e+00 6.8609549577e-05 1.5002030159e+00 -2.5984278452e+00 1.5002030159e+00 2.5984278452e+00 
60600 5.1250285318e+00 6.8571988852e-05 1.5002030159e+00 -2.5984278452e+00 1.5002030159e+00 2.5984278452e+00 
60700 5.1250285327e+00 6.8534072605e-05 1.5002030159e+00 -2.5984278452e+00 1.5002030159e+00 2.5984278452e+00 
60800 5.1250285336e+00 6.8495815442e-05 1.5002030159e+00 -2.5984278452e+00 1.5002030159e+00 2.5984278452e+00 
60900 5.1250285345e+00 6.8457231722e-05 1.5002030159e+00 -2.5984278452e+00 1.5002030159e+00 2.5984278452e+00 
61000 5.1250285354e+00 6.8418335550e-05 1.5002030159e+00 -2.5984278452e+00 1.5002030159e+00 2.5984278452e+00 
61100 5.1250285362e+00 6.8379140785e-05 1.5002030159e+00 -2.5984278452e+00 1.5002030159e+00 2.5984278452e+00 
61200 5.1250285371e+00 6.8339661036e-05 1.5002030159e+00 -2.5984278452e+00 1.5002030159e+00 2.5984278452e+00 
61300 5.1250285379e+00 6.8299909670e-05 1.5002030159e+00 -2.5984278452e+00 1.5002030159e+00 2.5984278452e+00 
61400 5.1250285387e+00 6.8259899806e-05 1.5002030159e+00 -2.5984278452e+00 1.5002030159e+00 2.5984278452e+00 
61500 5.1250285396e+00 6.8219644325e-05 1.5002030159e+00 -2.5984278452e+00 1.5002030159e+00 2.5984278452e+00 
61600 5.1250285404e+00 6.8179155865e-05 1.5002030159e+00 -2.5984278452e+00 1.5002030159e+00 2.5984278452e+00 
61700 5.1250285412e+00 6.8138446827e-05 1.5002030159e+00 -2.5984278452e+00 1.5002030159e+00 2.5984278452e+00 
61800 5.1250285419e+00 6.8097529376e-05 1.5002030159e+00 -2.5984278452e+00 1.5002030159e+00 2.5984278452e+00 
61900 5.1250285427e+00 6.8056415443e-05 1.5002030159e+00 -2.5984278452e+00 1.5002030159e+00 2.5984278452e+00 
62000 5.1250285434e+00 6.8015116724e-05 1.5002030159e+00 -2.5984278452e+00 1.5002030159e+00 2.5984278452e+00 
62100 5.1250285442e+00 6.7973644689e-05 1.5002030159e+00 -2.5984278452e+00 1.5002030159e+00 2.5984278452e+00 
62200 5.1250285449e+00 6.7932010578e-05 1.5002030159e+00 -2.5984278452e+00 1.5002030159e+00 2.5984278452e+00 
62300 5.1250285456e+00 6.7890225404e-05 1.5002030159e+00 -2.5984278452e+00 1.5002030159e+00 2.5984278452e+00 
62400 5.1250285463e+00 6.7848299959e-05 1.5002030159e+00 -2.5984278452e+00 1.5002030159e+00 2.5984278452e+00 
62500 5.1250285470e+00 6.7806244812e-05 1.5002030159e+00 -2.5984278452e+00 1.5002030159e+00 2.5984278452e+00 
62600 5.1250285477e+00 6.7764070313e-05 1.5002030159e+00 -2.5984278452e+00 1.5002030159e+00 2.5984278452e+00 
62700 5.1250285484e+00 6.7721786595e-05 1.5002030159e+00 -2.5984278452e+00 1.5002030159e+00 2.5984278452e+00 
62800 5.1250285491e+00 6.7679403578e-05 1.5002030159e+00 -2.5984278452e+00 1.5002030159e+00 2.5984278452e+00 
62900 5.1250285497e+00 6.7636930968e-05 1.5002030159e+00 -2.5984278452e+00 1.5002030159e+00 2.5984278452e+00 
63000 5.1250285504e+00 6.7594378262e-05 1.5002030159e+00 -2.5984278452e+00 1.5002030159e+00 2.5984278452e+00 
63100 5.1250285510e+00 6.7551754750e-05 1.5002030159e+00 -2.5984278452e+00 1.5002030159e+00 2.5984278452e+00 
63200 5.1250285516e+00 6.7509069517e-05 1.5002030159e+00 -2.5984278452e+00 1.5002030159e+00 2.5984278452e+00 
63300 5.1250285522e+00 6.7466331445e-05 1.5002030159e+00 -2.5984278452e+00 1.5002030159e+00 2.5984278452e+00 
63400 5.1250285529e+00 6.7423549215e-05 1.5002030159e+00 -2.5984278452e+00 1.5002030159e+00 2.5984278452e+00 
63500 5.1250285535e+00 6.7380731313e-05 1.5002030159e+00 -2.5984278452e+00 1.5002030159e+00 2.5984278452e+00 
63600 5.1250285540e+00 6.7337886028e-05 1.5002030159e+00 -2.5984278452e+00 1.5002030159e+00 2.5984278452e+00 
63700 5.1250285546e+00 6.7295021456e-05 1.5002030159e+00 -2.5984278452e+00 1.5002030159e+00 2.5984278452e+00 
63800 5.1250285552e+00 6.7252145504e-05 1.5002030159e+00 -2.5984278452e+00 1.5002030159e+00 2.5984278452e+00 
63900 5.1250285558e+00 6.7209265891e-05 1.5002030159e+00 -2.5984278452e+00 1.5002030159e+00 2.5984278452e+00 
64000 5.1250285563e+00 6.7166390151e-05 1.5002030159e+00 -2.5984278452e+00 1.5002030159e+00 2.5984278452e+00 
64100 5.1250285569e+00 6.7123525635e-05 1.5002030159e+00 -2.5984278452e+00 1.5002030159e+00 2.5984278452e+00 
64200 5.1250285574e+00 6.7080679512e-05 1.5002030159e+00 -2.5984278452e+00 1.5002030159e+00 2.5984278452e+00 
64300 5.1250285579e+00 6.7037858777e-05 1.5002030159e+00 -2.5984278452e+00 1.5002030159e+00 2.5984278452e+00 
64400 5.1250285584e+00 6.6995070248e-05 1.5002030159e+00 -2.5984278452e+00 1.5002030159e+00 2.5984278452e+00 
64500 5.1250285590e+00 6.6952320570e-05 1.5002030159e+00 -2.5984278452e+00 1.5002030159e+00 2.5984278452e+00 
64600 5.1250285595e+00 6.6909616220e-05 1.5002030159e+00 -2.5984278452e+00 1.5002030159e+00 2.5984278452e+00 
64700 5.1250285600e+00 6.6866963504e-05 1.5002030159e+00 -2.5984278452e+00 1.5002030159e+00 2.5984278452e+00 
64800 5.1250285605e+00 6.6824368566e-05 1.5002030159e+00 -2.5984278452e+00 1.5002030159e+00 2.5984278452e+00 
64900 5.1250285609e+00 6.6781837386e-05 1.5002030159e+00 -2.5984278452e+00 1.5002030159e+00 2.5984278452e+00 
65000 5.1250285614e+00 6.6739375783e-05 1.5002030159e+00 -2.5984278452e+00 1.5002030159e+00 2.5984278452e+00 
65100 5.1250285619e+00 6.6696989422e-05 1.5002030159e+00 -2.5984278452e+00 1.5002030159e+00 2.5984278452e+00 
65200 5.1250285623e+00 6.6654683809e-05 1.5002030159e+00 -2.5984278452e+00 1.5002030159e+00 2.5984278452e+00 
65300 5.1250285628e+00 6.6612464299e-05 1.5002030159e+00 -2.5984278452e+00 1.5002030159e+00 2.5984278452e+00 
65400 5.1250285632e+00 6.6570336097e-05 1.5002030159e+00 -2.5984278452e+00 1.5002030159e+00 2.5984278452e+00 
65500 5.1250285637e+00 6.6528304260e-05 1.5002030159e+00 -2.5984278452e+00 1.5002030159e+00 2.5984278452e+00 
65600 5.1250285641e+00 6.6486373699e-05 1.5002030159e+00 -2.5984278452e+00 1.5002030159e+00 2.5984278452e+00 
65700 5.1250285646e+00 6.6444549183e-05 1.5002030159e+00 -2.5984278452e+00 1.5002030159e+00 2.5984278452e+00 
65800 5.1250285650e+00 6.6402835341e-05 1.5002030159e+00 -2.5984278452e+00 1.5002030159e+00 2.5984278452e+00 
65900 5.1250285654e+00 6.6361236662e-05 1.5002030159e+00 -2.5984278452e+00 1.5002030159e+00 2.5984278452e+00 
66000 5.1250285658e+00 6.6319757501e-05 1.5002030159e+00 -2.5984278452e+00 1.5002030159e+00 2.5984278452e+00 
66100 5.1250285662e+00 6.6278402079e-05 1.5002030159e+00 -2.5984278452e+00 1.5002030159e+00 2.5984278452e+00 
66200 5.1250285666e+00 6.6237174485e-05 1.5002030159e+00 -2.5984278452e+00 1.5002030159e+00 2.5984278452e+00 
66300 5.1250285670e+00 6.6196078682e-05 1.5002030159e+00 -2.5984278452e+00 1.5002030159e+00 2.5984278452e+00 
66400 5.1250285674e+00 6.6155118505e-05 1.5002030159e+00 -2.5984278452e+00 1.5002030159e+00 2.5984278452e+00 
66500 5.1250285678e+00 6.6114297663e-05 1.5002030159e+00 -2.5984278452e+00 1.5002030159e+00 2.5984278452e+00 
66600 5.1250285681e+00 6.6073619747e-05 1.5002030159e+00 -2.5984278452e+00 1.5002030159e+00 2.5984278452e+00 
66700 5.1250285685e+00 6.6033088224e-05 1.5002030159e+00 -2.5984278452e+00 1.5002030159e+00 2.5984278452e+00 
66800 5.1250285689e+00 6.5992706447e-05 1.5002030159e+00 -2.5984278452e+00 1.5002030159e+00 2.5984278452e+00 
66900 5.1250285692e+00 6.5952477654e-05 1.5002030159e+00 -2.5984278452e+00 1.5002030159e+00 2.5984278452e+00 
67000 5.1250285696e+00 6.5912404967e-05 1.5002030159e+00 -2.5984278452e+00 1.5002030159e+00 2.5984278452e+00 
67100 5.1250285699e+00 6.5872491400e-05 1.5002030159e+00 -2.5984278452e+00 1.5002030159e+00 2.5984278452e+00 
67200 5.1250285703e+00 6.5832739857e-05 1.5002030159e+00 -2.5984278452e+00 1.5002030159e+00 2.5984278452e+00 
67300 5.1250285706e+00 6.5793153136e-05 1.5002030159e+00 -2.5984278452e+00 1.5002030159e+00 2.5984278452e+00 
67400 5.1250285709e+00 6.5753733930e-05 1.5002030159e+00 -2.5984278452e+00 1.5002030159e+00 2.5984278452e+00 
67500 5.1250285713e+00 6.5714484830e-05 1.5002030159e+00 -2.5984278452e+00 1.5002030159e+00 2.5984278452e+00 
67600 5.1250285716e+00 6.5675408326e-05 1.5002030159e+00 -2.5984278452e+00 1.5002030159e+00 2.5984278452e+00 
67700 5.1250285719e+00 6.5636506810e-05 1.5002030159e+00 -2.5984278452e+00 1.5002030159e+00 2.5984278452e+00 
67800 5.1250285722e+00 6.5597782580e-05 1.5002030159e+00 -2.5984278452e+00 1.5002030159e+00 2.5984278452e+00 
67900 5.1250285725e+00 6.5559237834e-05 1.5002030159e+00 -2.5984278452e+00 1.5002030159e+00 2.5984278452e+00 
68000 5.1250285728e+00 6.5520874684e-05 1.5002030159e+00 -2.5984278452e+00 1.5002030159e+00 2.5984278452e+00 
68100 5.1250285731e+00 6.5482695147e-05 1.5002030159e+00 -2.5984278452e+00 1.5002030159e+00 2.5984278452e+00 
68200 5.1250285734e+00 6.5444701155e-05 1.5002030159e+00 -2.5984278452e+00 1.5002030159e+00 2.5984278452e+00 
68300 5.1250285737e+00 6.5406894549e-05 1.5002030159e+00 -2.5984278452e+00 1.5002030159e+00 2.5984278452e+00 
68400 5.1250285740e+00 6.5369277089e-05 1.5002030159e+00 -2.5984278452e+00 1.5002030159e+00 2.5984278452e+00 
68500 5.1250285743e+00 6.5331850452e-05 1.5002030159e+00 -2.5984278452e+00 1.5002030159e+00 2.5984278452e+00 
68600 5.1250285746e+00 6.5294616230e-05 1.5002030159e+00 -2.5984278452e+00 1.5002030159e+00 2.5984278452e+00 
68700 5.1250285749e+00 6.5257575939e-05 1.5002030159e+00 -2.5984278452e+00 1.5002030159e+00 2.5984278452e+00 
68800 5.1250285751e+00 6.5220731017e-05 1.5002030159e+00 -2.5984278452e+00 1.5002030159e+00 2.5984278452e+00 
68900 5.1250285754e+00 6.5184082827e-05 1.5002030159e+00 -2.5984278452e+00 1.5002030159e+00 2.5984278452e+00 
69000 5.1250285757e+00 6.5147632653e-05 1.5002030159e+00 -2.5984278452e+00 1.5002030159e+00 2.5984278452e+00 
69100 5.1250285759e+00 6.5111381712e-05 1.5002030159e+00 -2.5984278452e+00 1.5002030159e+00 2.5984278452e+00 
69200 5.1250285762e+00 6.5075331148e-05 1.5002030159e+00 -2.5984278452e+00 1.5002030159e+00 2.5984278452e+00 
69300 5.1250285764e+00 6.5039482036e-05 1.5002030159e+00 -2.5984278452e+00 1.5002030159e+00 2.5984278452e+00 
69400 5.1250285767e+00 6.5003835383e-05 1.5002030159e+00 -2.5984278452e+00 1.5002030159e+00 2.5984278452e+00 
69500 5.1250285769e+00 6.4968392131e-05 1.5002030159e+00 -2.5984278452e+00 1.5002030159e+00 2.5984278452e+00 
69600 5.1250285772e+00 6.4933153155e-05 1.5002030159e+00 -2.5984278452e+00 1.5002030159e+00 2.5984278452e+00 
69700 5.1250285774e+00 6.4898119271e-05 1.5002030159e+00 -2.5984278452e+00 1.5002030159e+00 2.5984278452e+00 
69800 5.1250285776e+00 6.4863291230e-05 1.5002030159e+00 -2.5984278452e+00 1.5002030159e+00 2.5984278452e+00 
69900 5.1250285779e+00 6.4828669726e-05 1.5002030159e+00 -2.5984278452e+00 1.5002030159e+00 2.5984278452e+00 
70000 5.1250285781e+00 6.4794255392e-05 1.5002030159e+00 -2.5984278452e+00 1.5002030159e+00 2.5984278452e+00 
70100 5.1250285783e+00 6.4760048806e-05 1.5002030159e+00 -2.5984278452e+00 1.5002030159e+00 2.5984278452e+00 
70200 5.1250285785e+00 6.4726050489e-05 1.5002030159e+00 -2.5984278452e+00 1.5002030159e+00 2.5984278452e+00 
70300 5.1250285788e+00 6.4692260909e-05 1.5002030159e+00 -2.5984278452e+00 1.5002030159e+00 2.5984278452e+00 
70400 5.1250285790e+00 6.4658680480e-05 1.5002030159e+00 -2.5984278452e+00 1.5002030159e+00 2.5984278452e+00 
70500 5.1250285792e+00 6.4625309566e-05 1.5002030159e+00 -2.5984278452e+00 1.5002030159e+00 2.5984278452e+00 
70600 5.1250285794e+00 6.4592148478e-05 1.5002030159e+00 -2.5984278452e+00 1.5002030159e+00 2.5984278452e+00 
70700 5.1250285796e+00 6.4559197482e-05 1.5002030159e+00 -2.5984278452e+00 1.5002030159e+00 2.5984278452e+00 
70800 5.1250285798e+00 6.4526456795e-05 1.5002030159e+00 -2.5984278452e+00 1.5002030159e+00 2.5984278452e+00 
70900 5.1250285800e+00 6.4493926584e-05 1.5002030159e+00 -2.5984278452e+00 1.5002030159e+00 2.5984278452e+00 
71000 5.1250285802e+00 6.4461606978e-05 1.5002030159e+00 -2.5984278452e+00 1.5002030159e+00 2.5984278452e+00 
71100 5.1250285804e+00 6.4429498056e-05 1.5002030159e+00 -2.5984278452e+00 1.5002030159e+00 2.5984278452e+00 
71200 5.1250285806e+00 6.4397599856e-05 1.5002030159e+00 -2.5984278452e+00 1.5002030159e+00 2.5984278452e+00 
71300 5.1250285808e+00 6.4365912376e-05 1.5002030159e+00 -2.5984278452e+00 1.5002030159e+00 2.5984278452e+00 
71400 5.1250285810e+00 6.4334435573e-05 1.5002030159e+00 -2.5984278452e+00 1.5002030159e+00 2.5984278452e+00 
71500 5.1250285811e+00 6.4303169363e-05 1.5002030159e+00 -2.5984278452e+00 1.5002030159e+00 2.5984278452e+00 
71600 5.1250285813e+00 6.4272113626e-05 1.5002030159e+00 -2.5984278452e+00 1.5002030159e+00 2.5984278452e+00 
71700 5.1250285815e+00 6.4241268203e-05 1.5002030159e+00 -2.5984278452e+00 1.5002030159e+00 2.5984278452e+00 
71800 5.1250285817e+00 6.4210632902e-05 1.5002030159e+00 -2.5984278452e+00 1.5002030159e+00 2.5984278452e+00 
71900 5.1250285819e+00 6.4180207493e-05 1.5002030159e+00 -2.5984278452e+00 1.5002030159e+00 2.5984278452e+00 
72000 5.1250285820e+00 6.4149991712e-05 1.5002030159e+00 -2.5984278452e+00 1.5002030159e+00 2.5984278452e+00 
72100 5.1250285822e+00 6.4119985265e-05 1.5002030159e+00 -2.5984278452e+00 1.5002030159e+00 2.5984278452e+00 
72200 5.1250285824e+00 6.4090187823e-05 1.5002030159e+00 -2.5984278452e+00 1.5002030159e+00 2.5984278452e+00 
72300 5.1250285825e+00 6.4060599027e-05 1.5002030159e+00 -2.5984278452e+00 1.5002030159e+00 2.5984278452e+00 
72400 5.1250285827e+00 6.4031218489e-05 1.5002030159e+00 -2.5984278452e+00 1.5002030159e+00 2.5984278452e+00 
72500 5.1250285828e+00 6.4002045789e-05 1.5002030159e+00 -2.5984278452e+00 1.5002030159e+00 2.5984278452e+00 
72600 5.1250285830e+00 6.3973080483e-05 1.5002030159e+00 -2.5984278452e+00 1.5002030159e+00 2.5984278452e+00 
72700 5.1250285832e+00 6.3944322096e-05 1.5002030159e+00 -2.5984278452e+00 1.5002030159e+00 2.5984278452e+00 
72800 5.1250285833e+00 6.3915770127e-05 1.5002030159e+00 -2.5984278452e+00 1.5002030159e+00 2.5984278452e+00 
72900 5.1250285835e+00 6.3887424052e-05 1.5002030159e+00 -2.5984278452e+00 1.5002030159e+00 2.5984278452e+00 
73000 5.1250285836e+00 6.3859283318e-05 1.5002030159e+00 -2.5984278452e+00 1.5002030159e+00 2.5984278452e+00 
73100 5.1250285838e+00 6.3831347352e-05 1.5002030159e+00 -2.5984278452e+00 1.5002030159e+00 2.5984278452e+00 
73200 5.1250285839e+00 6.3803615554e-05 1.5002030159e+00 -2.5984278452e+00 1.5002030159e+00 2.5984278452e+00 
73300 5.1250285840e+00 6.3776087305e-05 1.5002030159e+00 -2.5984278452e+00 1.5002030159e+00 2.5984278452e+00 
73400 5.1250285842e+00 6.3748761963e-05 1.5002030159e+00 -2.5984278452e+00 1.5002030159e+00 2.5984278452e+00 
73500 5.1250285843e+00 6.3721638865e-05 1.5002030159e+00 -2.5984278452e+00 1.5002030159e+00 2.5984278452e+00 
73600 5.1250285845e+00 6.3694717325e-05 1.5002030159e+00 -2.5984278452e+00 1.5002030159e+00 2.5984278452e+00 
73700 5.1250285846e+00 6.3667996644e-05 1.5002030159e+00 -2.5984278452e+00 1.5002030159e+00 2.5984278452e+00 
73800 5.1250285847e+00 6.3641476099e-05 1.5002030159e+00 -2.5984278452e+00 1.5002030159e+00 2.5984278452e+00 
73900 5.1250285849e+00 6.3615154949e-05 1.5002030159e+00 -2.5984278452e+00 1.5002030159e+00 2.5984278452e+00 
74000 5.1250285850e+00 6.3589032439e-05 1.5002030159e+00 -2.5984278452e+00 1.5002030159e+00 2.5984278452e+00 
74100 5.1250285851e+00 6.3563107793e-05 1.5002030159e+00 -2.5984278452e+00 1.5002030159e+00 2.5984278452e+00 
74200 5.1250285852e+00 6.3537380222e-05 1.5002030159e+00 -2.5984278452e+00 1.5002030159e+00 2.5984278452e+00 
74300 5.1250285854e+00 6.3511848920e-05 1.5002030159e+00 -2.5984278452e+00 1.5002030159e+00 2.5984278452e+00 
74400 5.1250285855e+00 6.3486513067e-05 1.5002030159e+00 -2.5984278452e+00 1.5002030159e+00 2.5984278452e+00 
74500 5.1250285856e+00 6.3461371828e-05 1.5002030159e+00 -2.5984278452e+00 1.5002030159e+00 2.5984278452e+00 
74600 5.1250285857e+00 6.3436424354e-05 1.5002030159e+00 -2.5984278452e+00 1.5002030159e+00 2.5984278452e+00 
74700 5.1250285858e+00 6.3411669782e-05 1.5002030159e+00 -2.5984278452e+00 1.5002030159e+00 2.5984278452e+00 
74800 5.1250285860e+00 6.3387107240e-05 1.5002030159e+00 -2.5984278452e+00 1.5002030159e+00 2.5984278452e+00 
74900 5.1250285861e+00 6.3362735839e-05 1.5002030159e+00 -2.5984278452e+00 1.5002030159e+00 2.5984278452e+00 
75000 5.1250285862e+00 6.3338554683e-05 1.5002030159e+00 -2.5984278452e+00 1.5002030159e+00 2.5984278452e+00 
75100 5.1250285863e+00 6.3314562861e-05 1.5002030159e+00 -2.5984278452e+00 1.5002030159e+00 2.5984278452e+00 
75200 5.1250285864e+00 6.3290759455e-05 1.5002030159e+00 -2.5984278452e+00 1.5002030159e+00 2.5984278452e+00 
75300 5.1250285865e+00 6.3267143533e-05 1.5002030159e+00 -2.5984278452e+00 1.5002030159e+00 2.5984278452e+00 
75400 5.1250285866e+00 6.3243714158e-05 1.5002030159e+00 -2.5984278452e+00 1.5002030159e+00 2.5984278452e+00 
75500 5.1250285867e+00 6.3220470379e-05 1.5002030159e+00 -2.5984278452e+00 1.5002030159e+00 2.5984278452e+00 
75600 5.1250285868e+00 6.3197411241e-05 1.5002030159e+00 -2.5984278452e+00 1.5002030159e+00 2.5984278452e+00 
75700 5.1250285869e+00 6.3174535778e-05 1.5002030159e+00 -2.5984278452e+00 1.5002030159e+00 2.5984278452e+00 
75800 5.1250285870e+00 6.3151843017e-05 1.5002030159e+00 -2.5984278452e+00 1.5002030159e+00 2.5984278452e+00 
75900 5.1250285871e+00 6.3129331977e-05 1.5002030159e+00 -2.5984278452e+00 1.5002030159e+00 2.5984278452e+00 
76000 5.1250285872e+00 6.3107001671e-05 1.5002030159e+00 -2.5984278452e+00 1.5002030159e+00 2.5984278452e+00 
76100 5.1250285873e+00 6.3084851104e-05 1.5002030159e+00 -2.5984278452e+00 1.5002030159e+00 2.5984278452e+00 
76200 5.1250285874e+00 6.3062879277e-05 1.5002030159e+00 -2.5984278452e+00 1.5002030159e+00 2.5984278452e+00 
76300 5.1250285875e+00 6.3041085184e-05 1.5002030159e+00 -2.5984278452e+00 1.5002030159e+00 2.5984278452e+00 
76400 5.1250285876e+00 6.3019467813e-05 1.5002030159e+00 -2.5984278452e+00 1.5002030159e+00 2.5984278452e+00 
76500 5.1250285877e+00 6.2998026148e-05 1.5002030159e+00 -2.5984278452e+00 1.5002030159e+00 2.5984278452e+00 
76600 5.1250285878e+00 6.2976759169e-05 1.5002030159e+00 -2.5984278452e+00 1.5002030159e+00 2.5984278452e+00 
76700 5.1250285879e+00 6.2955665848e-05 1.5002030159e+00 -2.5984278452e+00 1.5002030159e+00 2.5984278452e+00 
76800 5.1250285879e+00 6.2934745158e-05 1.5002030159e+00 -2.5984278452e+00 1.5002030159e+00 2.5984278452e+00 
76900 5.1250285880e+00 6.2913996064e-05 1.5002030159e+00 -2.5984278452e+00 1.5002030159e+00 2.5984278452e+00 
77000 5.1250285881e+00 6.2893417531e-05 1.5002030159e+00 -2.5984278452e+00 1.5002030159e+00 2.5984278452e+00 
77100 5.1250285882e+00 6.2873008519e-05 1.5002030159e+00 -2.5984278452e+00 1.5002030159e+00 2.5984278452e+00 
77200 5.1250285883e+00 6.2852767986e-05 1.5002030159e+00 -2.5984278452e+00 1.5002030159e+00 2.5984278452e+00 
77300 5.1250285884e+00 6.2832694886e-05 1.5002030159e+00 -2.5984278452e+00 1.5002030159e+00 2.5984278452e+00 
77400 5.1250285884e+00 6.2812788173e-05 1.5002030159e+00 -2.5984278452e+00 1.5002030159e+00 2.5984278452e+00 
77500 5.1250285885e+00 6.2793046797e-05 1.5002030159e+00 -2.5984278452e+00 1.5002030159e+00 2.5984278452e+00 
77600 5.1250285886e+00 6.2773469709e-05 1.5002030159e+00 -2.5984278452e+00 1.5002030159e+00 2.5984278452e+00 
77700 5.1250285887e+00 6.2754055856e-05 1.5002030159e+00 -2.5984278452e+00 1.5002030159e+00 2.5984278452e+00 
77800 5.1250285888e+00 6.2734804184e-05 1.5002030159e+00 -2.5984278452e+00 1.5002030159e+00 2.5984278452e+00 
77900 5.1250285888e+00 6.2715713640e-05 1.5002030159e+00 -2.5984278452e+00 1.5002030159e+00 2.5984278452e+00 
78000 5.1250285889e+00 6.2696783170e-05 1.5002030159e+00 -2.5984278452e+00 1.5002030159e+00 2.5984278452e+00 
78100 5.1250285890e+00 6.2678011718e-05 1.5002030159e+00 -2.5984278452e+00 1.5002030159e+00 2.5984278452e+00 
78200 5.1250285890e+00 6.2659398228e-05 1.5002030159e+00 -2.5984278452e+00 1.5002030159e+00 2.5984278452e+00 
78300 5.1250285891e+00 6.2640941645e-05 1.5002030159e+00 -2.5984278452e+00 1.5002030159e+00 2.5984278452e+00 
78400 5.1250285892e+00 6.2622640915e-05 1.5002030159e+00 -2.5984278452e+00 1.5002030159e+00 2.5984278452e+00 
78500 5.1250285893e+00 6.2604494982e-05 1.5002030159e+00 -2.5984278452e+00 1.5002030159e+00 2.5984278452e+00 
78600 5.1250285893e+00 6.2586502792e-05 1.5002030159e+00 -2.5984278452e+00 1.5002030159e+00 2.5984278452e+00 
78700 5.1250285894e+00 6.2568663293e-05 1.5002030159e+00 -2.5984278452e+00 1.5002030159e+00 2.5984278452e+00 
78800 5.1250285895e+00 6.2550975431e-05 1.5002030159e+00 -2.5984278452e+00 1.5002030159e+00 2.5984278452e+00 
78900 5.1250285895e+00 6.2533438156e-05 1.5002030159e+00 -2.5984278452e+00 1.5002030159e+00 2.5984278452e+00 
79000 5.1250285896e+00 6.2516050417e-05 1.5002030159e+00 -2.5984278452e+00 1.5002030159e+00 2.5984278452e+00 
79100 5.1250285897e+00 6.2498811168e-05 1.5002030159e+00 -2.5984278452e+00 1.5002030159e+00 2.5984278452e+00 
79200 5.1250285897e+00 6.2481719361e-05 1.5002030159e+00 -2.5984278452e+00 1.5002030159e+00 2.5984278452e+00 
79300 5.1250285898e+00 6.2464773951e-05 1.5002030159e+00 -2.5984278452e+00 1.5002030159e+00 2.5984278452e+00 
79400 5.1250285898e+00 6.2447973896e-05 1.5002030159e+00 -2.5984278452e+00 1.5002030159e+00 2.5984278452e+00 
79500 5.1250285899e+00 6.2431318155e-05 1.5002030159e+00 -2.5984278452e+00 1.5002030159e+00 2.5984278452e+00 
79600 5.1250285900e+00 6.2414805691e-05 1.5002030159e+00 -2.5984278452e+00 1.5002030159e+00 2.5984278452e+00 
79700 5.1250285900e+00 6.2398435467e-05 1.5002030159e+00 -2.5984278452e+00 1.5002030159e+00 2.5984278452e+00 
79800 5.1250285901e+00 6.2382206450e-05 1.5002030159e+00 -2.5984278452e+00 1.5002030159e+00 2.5984278452e+00 
79900 5.1250285901e+00 6.2366117610e-05 1.5002030159e+00 -2.5984278452e+00 1.5002030159e+00 2.5984278452e+00 
80000 5.1250285902e+00 6.2350167919e-05 1.5002030159e+00 -2.5984278452e+00 1.5002030159e+00 2.5984278452e+00 
80100 5.1250285902e+00 6.2334356353e-05 1.5002030159e+00 -2.5984278452e+00 1.5002030159e+00 2.5984278452e+00 
80200 5.1250285903e+00 6.2318681888e-05 1.5002030159e+00 -2.5984278452e+00 1.5002030159e+00 2.5984278452e+00 
80300 5.1250285904e+00 6.2303143508e-05 1.5002030159e+00 -2.5984278452e+00 1.5002030159e+00 2.5984278452e+00 
80400 5.1250285904e+00 6.2287740198e-05 1.5002030159e+00 -2.5984278452e+00 1.5002030159e+00 2.5984278452e+00 
80500 5.1250285905e+00 6.2272470944e-05 1.5002030159e+00 -2.5984278452e+00 1.5002030159e+00 2.5984278452e+00 
80600 5.1250285905e+00 6.2257334739e-05 1.5002030159e+00 -2.5984278452e+00 1.5002030159e+00 2.5984278452e+00 
80700 5.1250285906e+00 6.2242330579e-05 1.5002030159e+00 -2.5984278452e+00 1.5002030159e+00 2.5984278452e+00 
80800 5.1250285906e+00 6.2227457462e-05 1.5002030159e+00 -2.5984278452e+00 1.5002030159e+00 2.5984278452e+00 
80900 5.1250285907e+00 6.2212714390e-05 1.5002030159e+00 -2.5984278452e+00 1.5002030159e+00 2.5984278452e+00 
81000 5.1250285907e+00 6.2208609499e-05 1.5002030159e+00 -2.5984278452e+00 1.5002030159e+00 2.5984278452e+00 
81000 5.1250285907e+00 6.2208609500e-05 1.5002030159e+00 -2.5984278452e+00 1.5002030159e+00 2.5984278452e+00 
