# step Hamiltonian StressXX CellTensor1 CellTensor2 CellTensor3 CellTensor4 
0 4.1732263583e+00 -6.1292014398e-01 1.6122881582e+00 -2.7925650064e+00 1.6122881582e+00 2.7925650064e+00 
100 4.1806236941e+00 -6.1321901961e-01 1.6122881582e+00 -2.7925650064e+00 1.6122881582e+00 2.7925650064e+00 
200 4.1740473722e+00 -5.9154742285e-01 1.6313421481e+00 -2.8255674850e+00 1.6313421481e+00 2.8255674850e+00 
300 4.1688304124e+00 -5.7182208656e-01 1.6495060602e+00 -2.8570283037e+00 1.6495060602e+00 2.8570283037e+00 
400 4.1647128285e+00 -5.5386905555e-01 1.6668692314e+00 -2.8871021983e+00 1.6668692314e+00 2.8871021983e+00 
500 4.1614725480e+00 -5.3752891898e-01 1.6835106105e+00 -2.9159259125e+00 1.6835106105e+00 2.9159259125e+00 
600 4.1589196817e+00 -5.2265528923e-01 1.6995001292e+00 -2.9436205712e+00 1.6995001292e+00 2.9436205712e+00 
700 4.1568919221e+00 -5.0911348271e-01 1.7148998445e+00 -2.9702936606e+00 1.7148998445e+00 2.9702936606e+00 
800 4.1552507982e+00 -4.9677938063e-01 1.7297649003e+00 -2.9960406925e+00 1.7297649003e+00 2.9960406925e+00 
900 4.1538785858e+00 -4.8553844708e-01 1.7441443417e+00 -3.0209466155e+00 1.7441443417e+00 3.0209466155e+00 
1000 4.1526757234e+00 -4.7528488310e-01 1.7580818101e+00 -3.0450870190e+00 1.7580818101e+00 3.0450870190e+00 
1100 4.1515586203e+00 -4.6592089730e-01 1.7716161427e+00 -3.0685291706e+00 1.7716161427e+00 3.0685291706e+00 
1200 4.1504577725e+00 -4.5735607608e-01 1.7847818903e+00 -3.0913329145e+00 1.7847818903e+00 3.0913329145e+00 
1300 4.1493161218e+00 -4.4950683841e-01 1.7976097712e+00 -3.1135514558e+00 1.7976097712e+00 3.1135514558e+00 
1400 4.1480876110e+00 -4.4229596196e-01 1.8101270683e+00 -3.1352320504e+00 1.8101270683e+00 3.1352320504e+00 
1500 4.1467358972e+00 -4.3565216898e-01 1.8223579821e+00 -3.1564166146e+00 1.8223579821e+00 3.1564166146e+00 
1600 4.1452331979e+00 -4.2950976171e-01 1.8343239436e+00 -3.1771422679e+00 1.8343239436e+00 3.1771422679e+00 
1700 4.1435592486e+00 -4.2380829816e-01 1.8460438951e+00 -3.1974418194e+00 1.8460438951e+00 3.1974418194e+00 
1800 4.1417003567e+00 -4.1849230028e-01 1.8575345426e+00 -3.2173442047e+00 1.8575345426e+00 3.2173442047e+00 
1900 4.1396485421e+00 -4.1351098744e-01 1.8688105841e+00 -3.2368748813e+00 1.8688105841e+00 3.2368748813e+00 
2000 4.1374007544e+00 -4.0881802914e-01 1.8798849163e+00 -3.2560561875e+00 1.8798849163e+00 3.2560561875e+00 
2100 4.1349581611e+00 -4.0437131174e-01 1.8907688238e+00 -3.2749076683e+00 1.8907688238e+00 3.2749076683e+00 
2200 4.1323255031e+00 -4.0013271490e-01 1.9014721504e+00 -3.2934463737e+00 1.9014721504e+00 3.2934463737e+00 
2300 4.1295105108e+00 -3.9606789427e-01 1.9120034564e+00 -3.3116871307e+00 1.9120034564e+00 3.3116871307e+00 
2400 4.1265233800e+00 -3.9214606785e-01 1.9223701623e+00 -3.3296427921e+00 1.9223701623e+00 3.3296427921e+00 
2500 4.1233763023e+00 -3.8833980407e-01 1.9325786803e+00 -3.3473244639e+00 1.9325786803e+00 3.3473244639e+00 
2600 4.1200830476e+00 -3.8462481060e-01 1.9426345335e+00 -3.3647417125e+00 1.9426345335e+00 3.3647417125e+00 
2700 4.1166585947e+00 -3.8097972323e-01 1.9525424657e+00 -3.3819027545e+00 1.9525424657e+00 3.3819027545e+00 
2800 4.1131188077e+00 -3.7738589496e-01 1.9623065404e+00 -3.3988146280e+00 1.9623065404e+00 3.3988146280e+00 
2900 4.1094801534e+00 -3.7382718590e-01 1.9719302307e+00 -3.4154833485e+00 1.9719302307e+00 3.4154833485e+00 
3000 4.1057594563e+00 -3.7028975466e-01 1.9814165004e+00 -3.4319140496e+00 1.9814165004e+00 3.4319140496e+00 
3100 4.1019736876e+00 -3.6676185262e-01 1.9907678767e+00 -3.4481111085e+00 1.9907678767e+00 3.4481111085e+00 
3200 4.0981397856e+00 -3.6323362228e-01 1.9999865153e+00 -3.4640782590e+00 1.9999865153e+00 3.4640782590e+00 
3300 4.0942745014e+00 -3.5969690120e-01 2.0090742580e+00 -3.4798186910e+00 2.0090742580e+00 3.4798186910e+00 
3400 4.0903942689e+00 -3.5614503283e-01 2.0180326832e+00 -3.4953351387e+00 2.0180326832e+00 3.4953351387e+00 
3500 4.0865150944e+00 -3.5257268590e-01 2.0268631510e+00 -3.5106299574e+00 2.0268631510e+00 3.5106299574e+00 
3600 4.0826524637e+00 -3.4897568331e-01 2.0355668408e+00 -3.5257051904e+00 2.0355668408e+00 3.5257051904e+00 
3700 4.0788212633e+00 -3.4535084184e-01 2.0441447852e+00 -3.5405626259e+00 2.0441447852e+00 3.5405626259e+00 
3800 4.0750357138e+00 -3.4169582350e-01 2.0525978977e+00 -3.5552038464e+00 2.0525978977e+00 3.5552038464e+00 
3900 4.0713093132e+00 -3.3800899925e-01 2.0609269968e+00 -3.5696302692e+00 2.0609269968e+00 3.5696302692e+00 
4000 4.0676547888e+00 -3.3428932539e-01 2.0691328253e+00 -3.5838431810e+00 2.0691328253e+00 3.5838431810e+00 
4100 4.0640840562e+00 -3.3053623310e-01 2.0772160664e+00 -3.5978437654e+00 2.0772160664e+00 3.5978437654e+00 
4200 4.0606081840e+00 -3.2674953081e-01 2.0851773575e+00 -3.6116331259e+00 2.0851773575e+00 3.6116331259e+00 
4300 4.0572373637e+00 -3.2292931935e-01 2.0930172995e+00 -3.6252123038e+00 2.0930172995e+00 3.6252123038e+00 
4400 4.0539808852e+00 -3.1907591942e-01 2.1007364656e+00 -3.6385822918e+00 2.1007364656e+00 3.6385822918e+00 
4500 4.0508471152e+00 -3.1518981082e-01 2.1083354073e+00 -3.6517440448e+00 2.1083354073e+00 3.6517440448e+00 
4600 4.0478434813e+00 -3.1127158257e-01 2.1158146583e+00 -3.6646984877e+00 2.1158146583e+00 3.6646984877e+00 
4700 4.0449764594e+00 -3.0732189333e-01 2.1231747387e+00 -3.6774465208e+00 2.1231747387e+00 3.6774465208e+00 
4800 4.0422515656e+00 -3.0334144097e-01 2.1304161563e+00 -3.6899890239e+00 2.1304161563e+00 3.6899890239e+00 
4900 4.0396733530e+00 -2.9933094061e-01 2.1375394083e+00 -3.7023268584e+00 2.1375394083e+00 3.7023268584e+00 
5000 4.0372454120e+00 -2.9529110985e-01 2.1445449826e+00 -3.7144608690e+00 2.1445449826e+00 3.7144608690e+00 
5100 4.0349703766e+00 -2.9122266055e-01 2.1514333576e+00 -3.7263918845e+00 2.1514333576e+00 3.7263918845e+00 
5200 4.0328499346e+00 -2.8712629603e-01 2.1582050030e+00 -3.7381207183e+00 2.1582050030e+00 3.7381207183e+00 
5300 4.0308848428e+00 -2.8300271281e-01 2.1648603795e+00 -3.7496481686e+00 2.1648603795e+00 3.7496481686e+00 
5400 4.0290749476e+00 -2.7885260623e-01 2.1713999396e+00 -3.7609750190e+00 2.1713999396e+00 3.7609750190e+00 
5500 4.0274192102e+00 -2.7467667896e-01 2.1778241277e+00 -3.7721020392e+00 2.1778241277e+00 3.7721020392e+00 
5600 4.0259157369e+00 -2.7047565191e-01 2.1841333805e+00 -3.7830299855e+00 2.1841333805e+00 3.7830299855e+00 
5700 4.0245618142e+00 -2.6625027679e-01 2.1903281278e+00 -3.7937596026e+00 2.1903281278e+00 3.7937596026e+00 
5800 4.0233539479e+00 -2.6200134979e-01 2.1964087937e+00 -3.8042916248e+00 2.1964087937e+00 3.8042916248e+00 
5900 4.0222879077e+00 -2.5772972602e-01 2.2023757978e+00 -3.8146267791e+00 2.2023757978e+00 3.8146267791e+00 
6000 4.0213587751e+00 -2.5343633416e-01 2.2082295568e+00 -3.8247657872e+00 2.2082295568e+00 3.8247657872e+00 
6100 4.0205609949e+00 -2.4912219097e-01 2.2139704866e+00 -3.8347093692e+00 2.2139704866e+00 3.8347093692e+00 
6200 4.0198884310e+00 -2.4478841553e-01 2.2195990041e+00 -3.8444582476e+00 2.2195990041e+00 3.8444582476e+00 
6300 4.0193344247e+00 -2.4043624272e-01 2.2251155303e+00 -3.8540131512e+00 2.2251155303e+00 3.8540131512e+00 
6400 4.0188918554e+00 -2.3606703589e-01 2.2305204925e+00 -3.8633748204e+00 2.2305204925e+00 3.8633748204e+00 
6500 4.0185532040e+00 -2.3168229846e-01 2.2358143277e+00 -3.8725440119e+00 2.2358143277e+00 3.8725440119e+00 
6600 4.0183106182e+00 -2.2728368432e-01 2.2409974856e+00 -3.8815215046e+00 2.2409974856e+00 3.8815215046e+00 
6700 4.0181559783e+00 -2.2287300688e-01 2.2460704321e+00 -3.8903081058e+00 2.2460704321e+00 3.8903081058e+00 
6800 4.0180809647e+00 -2.1845224663e-01 2.2510336531e+00 -3.8989046567e+00 2.2510336531e+00 3.8989046567e+00 
6900 4.0180771252e+00 -2.1402355716e-01 2.2558876578e+00 -3.9073120395e+00 2.2558876578e+00 3.9073120395e+00 
7000 4.0181359424e+00 -2.0958926942e-01 2.2606329829e+00 -3.9155311837e+00 2.2606329829e+00 3.9155311837e+00 
7100 4.0182489005e+00 -2.0515189433e-01 2.2652701964e+00 -3.9235630730e+00 2.2652701964e+00 3.9235630730e+00 
7200 4.0184075509e+00 -2.0071412345e-01 2.2697999012e+00 -3.9314087519e+00 2.2697999012e+00 3.9314087519e+00 
7300 4.0186035764e+00 -1.9627882783e-01 2.2742227395e+00 -3.9390693326e+00 2.2742227395e+00 3.9390693326e+00 
7400 4.0188288528e+00 -1.9184905479e-01 2.2785393963e+00 -3.9465460015e+00 2.2785393963e+00 3.9465460015e+00 
7500 4.0190755085e+00 -1.8742802284e-01 2.2827506034e+00 -3.9538400261e+00 2.2827506034e+00 3.9538400261e+00 
7600 4.0193359809e+00 -1.8301911445e-01 2.2868571427e+00 -3.9609527608e+00 2.2868571427e+00 3.9609527608e+00 
7700 4.0196030694e+00 -1.7862586685e-01 2.2908598500e+00 -3.9678856532e+00 2.2908598500e+00 3.9678856532e+00 
7800 4.0198699837e+00 -1.7425196082e-01 2.2947596182e+00 -3.9746402498e+00 2.2947596182e+00 3.9746402498e+00 
7900 4.0201303891e+00 -1.6990120750e-01 2.2985574001e+00 -3.9812182011e+00 2.2985574001e+00 3.9812182011e+00 
8000 4.0203784457e+00 -1.6557753320e-01 2.3022542115e+00 -3.9876212663e+00 2.3022542115e+00 3.9876212663e+00 
8100 4.0206088432e+00 -1.6128496254e-01 2.3058511333e+00 -3.9938513177e+00 2.3058511333e+00 3.9938513177e+00 
8200 4.0208168302e+00 -1.5702759972e-01 2.3093493139e+00 -3.9999103441e+00 2.3093493139e+00 3.9999103441e+00 
8300 4.0209982372e+00 -1.5280960834e-01 2.3127499703e+00 -4.0058004538e+00 2.3127499703e+00 4.0058004538e+00 
8400 4.0211494939e+00 -1.4863518978e-01 2.3160543901e+00 -4.0115238768e+00 2.3160543901e+00 4.0115238768e+00 
8500 4.0212676407e+00 -1.4450856039e-01 2.3192639319e+00 -4.0170829661e+00 2.3192639319e+00 4.0170829661e+00 
8600 4.0213503332e+00 -1.4043392775e-01 2.3223800254e+00 -4.0224801986e+00 2.3223800254e+00 4.0224801986e+00 
8700 4.0213958404e+00 -1.3641546623e-01 2.3254041722e+00 -4.0277181744e+00 2.3254041722e+00 4.0277181744e+00 
8800 4.0214030370e+00 -1.3245729207e-01 2.3283379441e+00 -4.0327996163e+00 2.3283379441e+00 4.0327996163e+00 
8900 4.0213713891e+00 -1.2856343835e-01 2.3311829827e+00 -4.0377273678e+00 2.3311829827e+00 4.0377273678e+00 
9000 4.0213009334e+00 -1.2473783011e-01 2.3339409978e+00 -4.0425043900e+00 2.3339409978e+00 4.0425043900e+00 
9100 4.0211922517e+00 -1.2098425987e-01 2.3366137647e+00 -4.0471337581e+00 2.3366137647e+00 4.0471337581e+00 
9200 4.0210464384e+00 -1.1730636398e-01 2.3392031224e+00 -4.0516186572e+00 2.3392031224e+00 4.0516186572e+00 
9300 4.0208650643e+00 -1.1370759993e-01 2.3417109700e+00 -4.0559623766e+00 2.3417109700e+00 4.0559623766e+00 
9400 4.0206501351e+00 -1.1019122499e-01 2.3441392634e+00 -4.0601683042e+00 2.3441392634e+00 4.0601683042e+00 
9500 4.0204040457e+00 -1.0676027650e-01 2.3464900116e+00 -4.0642399195e+00 2.3464900116e+00 4.0642399195e+00 
9600 4.0201295320e+00 -1.0341755384e-01 2.3487652718e+00 -4.0681807859e+00 2.3487652718e+00 4.0681807859e+00 
9700 4.0198296193e+00 -1.0016560253e-01 2.3509671456e+00 -4.0719945432e+00 2.3509671456e+00 4.0719945432e+00 
9800 4.0195075687e+00 -9.7006700474e-02 2.3530977734e+00 -4.0756848987e+00 2.3530977734e+00 4.0756848987e+00 
9900 4.0191668233e+00 -9.3942846507e-02 2.3551593292e+00 -4.0792556182e+00 2.3551593292e+00 4.0792556182e+00 
10000 4.0188109524e+00 -9.0975751379e-02 2.3571540158e+00 -4.0827105167e+00 2.3571540158e+00 4.0827105167e+00 
10100 4.0184435977e+00 -8.8106831210e-02 2.3590840585e+00 -4.0860534486e+00 2.3590840585e+00 4.0860534486e+00 
10200 4.0180684196e+00 -8.5337203426e-02 2.3609516995e+00 -4.0892882978e+00 2.3609516995e+00 4.0892882978e+00 
10300 4.0176890459e+00 -8.2667685160e-02 2.3627591927e+00 -4.0924189679e+00 2.3627591927e+00 4.0924189679e+00 
10400 4.0173090227e+00 -8.0098794060e-02 2.3645087972e+00 -4.0954493716e+00 2.3645087972e+00 4.0954493716e+00 
10500 4.0169317689e+00 -7.7630751395e-02 2.3662027716e+00 -4.0983834214e+00 2.3662027716e+00 4.0983834214e+00 
10600 4.0165605344e+00 -7.5263487346e-02 2.3678433689e+00 -4.1012250192e+00 2.3678433689e+00 4.1012250192e+00 
10700 4.0161983622e+00 -7.2996648320e-02 2.3694328300e+00 -4.1039780467e+00 2.3694328300e+00 4.1039780467e+00 
10800 4.0158480561e+00 -7.0829606117e-02 2.3709733791e+00 -4.1066463560e+00 2.3709733791e+00 4.1066463560e+00 
10900 4.0155121526e+00 -6.8761468740e-02 2.3724672179e+00 -4.1092337606e+00 2.3724672179e+00 4.1092337606e+00 
11000 4.0151928983e+00 -6.6791092674e-02 2.3739165206e+00 -4.1117440266e+00 2.3739165206e+00 4.1117440266e+00 
11100 4.0148922330e+00 -6.4917096380e-02 2.3753234295e+00 -4.1141808643e+00 2.3753234295e+00 4.1141808643e+00 
11200 4.0146117777e+00 -6.3137874820e-02 2.3766900501e+00 -4.1165479206e+00 2.3766900501e+00 4.1165479206e+00 
11300 4.0143528285e+00 -6.1451614781e-02 2.3780184469e+00 -4.1188487714e+00 2.3780184469e+00 4.1188487714e+00 
11400 4.0141163550e+00 -5.9856310793e-02 2.3793106400e+00 -4.1210869154e+00 2.3793106400e+00 4.1210869154e+00 
11500 4.0139030044e+00 -5.8349781439e-02 2.3805686006e+00 -4.1232657671e+00 2.3805686006e+00 4.1232657671e+00 
11600 4.0137131096e+00 -5.6929685875e-02 2.3817942486e+00 -4.1253886518e+00 2.3817942486e+00 4.1253886518e+00 
11700 4.0135467021e+00 -5.5593540372e-02 2.3829894494e+00 -4.1274588002e+00 2.3829894494e+00 4.1274588002e+00 
11800 4.0134035280e+00 -5.4338734740e-02 2.3841560108e+00 -4.1294793439e+00 2.3841560108e+00 4.1294793439e+00 
11900 4.0132830678e+00 -5.3162548475e-02 2.3852956817e+00 -4.1314533117e+00 2.3852956817e+00 4.1314533117e+00 
12000 4.0131845592e+00 -5.2062166523e-02 2.3864101491e+00 -4.1333836259e+00 2.3864101491e+00 4.1333836259e+00 
12100 4.0131070217e+00 -5.1034694547e-02 2.3875010372e+00 -4.1352730996e+00 2.3875010372e+00 4.1352730996e+00 
12200 4.0130492833e+00 -5.0077173607e-02 2.3885699059e+00 -4.1371244344e+00 2.3885699059e+00 4.1371244344e+00 
12300 4.0130100078e+00 -4.9186594194e-02 2.3896182494e+00 -4.1389402186e+00 2.3896182494e+00 4.1389402186e+00 
12400 4.0129877240e+00 -4.8359909559e-02 2.3906474959e+00 -4.1407229258e+00 2.3906474959e+00 4.1407229258e+00 
12500 4.0129808538e+00 -4.7594048297e-02 2.3916590067e+00 -4.1424749140e+00 2.3916590067e+00 4.1424749140e+00 
12600 4.0129877405e+00 -4.6885926166e-02 2.3926540764e+00 -4.1441984253e+00 2.3926540764e+00 4.1441984253e+00 
12700 4.0130066769e+00 -4.6232457124e-02 2.3936339323e+00 -4.1458955855e+00 2.3936339323e+00 4.1458955855e+00 
12800 4.0130359316e+00 -4.5630563592e-02 2.3945997351e+00 -4.1475684049e+00 2.3945997351e+00 4.1475684049e+00 
12900 4.0130737739e+00 -4.5077185934e-02 2.3955525788e+00 -4.1492187787e+00 2.3955525788e+00 4.1492187787e+00 
13000 4.0131184978e+00 -4.4569291194e-02 2.3964934919e+00 -4.1508484880e+00 2.3964934919e+00 4.1508484880e+00 
13100 4.0131684425e+00 -4.4103881088e-02 2.3974234375e+00 -4.1524592011e+00 2.3974234375e+00 4.1524592011e+00 
13200 4.0132220125e+00 -4.3677999293e-02 2.3983433147e+00 -4.1540524750e+00 2.3983433147e+00 4.1540524750e+00 
13300 4.0132776942e+00 -4.3288738063e-02 2.3992539592e+00 -4.1556297575e+00 2.3992539592e+00 4.1556297575e+00 
13400 4.0133340704e+00 -4.2933244203e-02 2.4001561448e+00 -4.1571923889e+00 2.4001561448e+00 4.1571923889e+00 
13500 4.0133898326e+00 -4.2608724434e-02 2.4010505847e+00 -4.1587416043e+00 2.4010505847e+00 4.1587416043e+00 
13600 4.0134437906e+00 -4.2312450195e-02 2.4019379327e+00 -4.1602785361e+00 2.4019379327e+00 4.1602785361e+00 
13700 4.0134948799e+00 -4.2041761916e-02 2.4028187847e+00 -4.1618042164e+00 2.4028187847e+00 4.1618042164e+00 
13800 4.0135421667e+00 -4.1794072789e-02 2.4036936803e+00 -4.1633195801e+00 2.4036936803e+00 4.1633195801e+00 
13900 4.0135848506e+00 -4.1566872092e-02 2.4045631045e+00 -4.1648254671e+00 2.4045631045e+00 4.1648254671e+00 
14000 4.0136222654e+00 -4.1357728081e-02 2.4054274894e+00 -4.1663226256e+00 2.4054274894e+00 4.1663226256e+00 
14100 4.0136538781e+00 -4.1164290505e-02 2.4062872159e+00 -4.1678117155e+00 2.4062872159e+00 4.1678117155e+00 
14200 4.0136792855e+00 -4.0984292751e-02 2.4071426152e+00 -4.1692933105e+00 2.4071426152e+00 4.1692933105e+00 
14300 4.0136982101e+00 -4.0815553673e-02 2.4079939712e+00 -4.1707679024e+00 2.4079939712e+00 4.1707679024e+00 
14400 4.0137104941e+00 -4.0655979113e-02 2.4088415220e+00 -4.1722359036e+00 2.4088415220e+00 4.1722359036e+00 
14500 4.0137160920e+00 -4.0503563150e-02 2.4096854620e+00 -4.1736976504e+00 2.4096854620e+00 4.1736976504e+00 
14600 4.0137150630e+00 -4.0356389103e-02 2.4105259434e+00 -4.1751534070e+00 2.4105259434e+00 4.1751534070e+00 
14700 4.0137075618e+00 -4.0212630295e-02 2.4113630786e+00 -4.1766033677e+00 2.4113630786e+00 4.1766033677e+00 
14800 4.0136938292e+00 -4.0070550612e-02 2.4121969420e+00 -4.1780476614e+00 2.4121969420e+00 4.1780476614e+00 
14900 4.0136741824e+00 -3.9928504869e-02 2.4130275717e+00 -4.1794863543e+00 2.4130275717e+00 4.1794863543e+00 
15000 4.0136490044e+00 -3.9784938986e-02 2.4138549719e+00 -4.1809194534e+00 2.4138549719e+00 4.1809194534e+00 
15100 4.0136187341e+00 -3.9638390013e-02 2.4146791142e+00 -4.1823469098e+00 2.4146791142e+00 4.1823469098e+00 
15200 4.0135838561e+00 -3.9487485988e-02 2.4154999403e+00 -4.1837686224e+00 2.4154999403e+00 4.1837686224e+00 
15300 4.0135448903e+00 -3.9330945651e-02 2.4163173635e+00 -4.1851844408e+00 2.4163173635e+00 4.1851844408e+00 
15400 4.0135023826e+00 -3.9167578024e-02 2.4171312705e+00 -4.1865941691e+00 2.4171312705e+00 4.1865941691e+00 
15500 4.0134568954e+00 -3.8996281859e-02 2.4179415237e+00 -4.1879975688e+00 2.4179415237e+00 4.1879975688e+00 
15600 4.0134089987e+00 -3.8816044955e-02 2.4187479627e+00 -4.1893943621e+00 2.4187479627e+00 4.1893943621e+00 
15700 4.0133592620e+00 -3.8625943359e-02 2.4195504066e+00 -4.1907842357e+00 2.4195504066e+00 4.1907842357e+00 
15800 4.0133082467e+00 -3.8425140443e-02 2.4203486555e+00 -4.1921668433e+00 2.4203486555e+00 4.1921668433e+00 
15900 4.0132564988e+00 -3.8212885875e-02 2.4211424923e+00 -4.1935418091e+00 2.4211424923e+00 4.1935418091e+00 
16000 4.0132045432e+00 -3.7988514460e-02 2.4219316851e+00 -4.1949087310e+00 2.4219316851e+00 4.1949087310e+00 
16100 4.0131528780e+00 -3.7751444882e-02 2.4227159880e+00 -4.1962671836e+00 2.4227159880e+00 4.1962671836e+00 
16200 4.0131019696e+00 -3.7501178321e-02 2.4234951439e+00 -4.1976167211e+00 2.4234951439e+00 4.1976167211e+00 
16300 4.0130522492e+00 -3.7237296973e-02 2.4242688853e+00 -4.1989568806e+00 2.4242688853e+00 4.1989568806e+00 
16400 4.0130041089e+00 -3.6959462436e-02 2.4250369368e+00 -4.2002871847e+00 2.4250369368e+00 4.2002871847e+00 
16500 4.0129578998e+00 -3.6667414004e-02 2.4257990158e+00 -4.2016071443e+00 2.4257990158e+00 4.2016071443e+00 
16600 4.0129139299e+00 -3.6360966839e-02 2.4265548352e+00 -4.2029162619e+00 2.4265548352e+00 4.2029162619e+00 
16700 4.0128724631e+00 -3.6040010026e-02 2.4273041040e+00 -4.2042140335e+00 2.4273041040e+00 4.2042140335e+00 
16800 4.0128337188e+00 -3.5704504529e-02 2.4280465294e+00 -4.2054999521e+00 2.4280465294e+00 4.2054999521e+00 
16900 4.0127978715e+00 -3.5354481024e-02 2.4287818182e+00 -4.2067735096e+00 2.4287818182e+00 4.2067735096e+00 
17000 4.0127650524e+00 -3.4990037624e-02 2.4295096779e+00 -4.2080341995e+00 2.4295096779e+00 4.2080341995e+00 
17100 4.0127353495e+00 -3.4611337503e-02 2.4302298183e+00 -4.2092815194e+00 2.4302298183e+00 4.2092815194e+00 
17200 4.0127088102e+00 -3.4218606402e-02 2.4309419532e+00 -4.2105149732e+00 2.4309419532e+00 4.2105149732e+00 
17300 4.0126854425e+00 -3.3812130039e-02 2.4316458009e+00 -4.2117340731e+00 2.4316458009e+00 4.2117340731e+00 
17400 4.0126652179e+00 -3.3392251414e-02 2.4323410860e+00 -4.2129383422e+00 2.4323410860e+00 4.2129383422e+00 
17500 4.0126480740e+00 -3.2959368017e-02 2.4330275403e+00 -4.2141273160e+00 2.4330275403e+00 4.2141273160e+00 
17600 4.0126339171e+00 -3.2513928947e-02 2.4337049041e+00 -4.2153005446e+00 2.4337049041e+00 4.2153005446e+00 
17700 4.0126226256e+00 -3.2056431939e-02 2.4343729271e+00 -4.2164575943e+00 2.4343729271e+00 4.2164575943e+00 
17800 4.0126140533e+00 -3.1587420315e-02 2.4350313693e+00 -4.2175980496e+00 2.4350313693e+00 4.2175980496e+00 
17900 4.0126080323e+00 -3.1107479852e-02 2.4356800020e+00 -4.2187215145e+00 2.4356800020e+00 4.2187215145e+00 
18000 4.0126043769e+00 -3.0617235598e-02 2.4363186089e+00 -4.2198276140e+00 2.4363186089e+00 4.2198276140e+00 
18100 4.0126028868e+00 -3.0117348610e-02 2.4369469863e+00 -4.2209159956e+00 2.4369469863e+00 4.2209159956e+00 
18200 4.0126033502e+00 -2.9608512661e-02 2.4375649444e+00 -4.2219863304e+00 2.4375649444e+00 4.2219863304e+00 
18300 4.0126055475e+00 -2.9091450889e-02 2.4381723075e+00 -4.2230383142e+00 2.4381723075e+00 4.2230383142e+00 
18400 4.0126092543e+00 -2.8566912431e-02 2.4387689150e+00 -4.2240716687e+00 2.4387689150e+00 4.2240716687e+00 
18500 4.0126142442e+00 -2.8035669027e-02 2.4393546215e+00 -4.2250861421e+00 2.4393546215e+00 4.2250861421e+00 
18600 4.0126202921e+00 -2.7498511615e-02 2.4399292974e+00 -4.2260815100e+00 2.4399292974e+00 4.2260815100e+00 
18700 4.0126271764e+00 -2.6956246935e-02 2.4404928295e+00 -4.2270575763e+00 2.4404928295e+00 4.2270575763e+00 
18800 4.0126346820e+00 -2.6409694142e-02 2.4410451209e+00 -4.2280141730e+00 2.4410451209e+00 4.2280141730e+00 
18900 4.0126426021e+00 -2.5859681444e-02 2.4415860915e+00 -4.2289511615e+00 2.4415860915e+00 4.2289511615e+00 
19000 4.0126507402e+00 -2.5307042780e-02 2.4421156779e+00 -4.2298684320e+00 2.4421156779e+00 4.2298684320e+00 
19100 4.0126589122e+00 -2.4752614546e-02 2.4426338339e+00 -4.2307659045e+00 2.4426338339e+00 4.2307659045e+00 
19200 4.0126669477e+00 -2.4197232384e-02 2.4431405302e+00 -4.2316435283e+00 2.4431405302e+00 4.2316435283e+00 
19300 4.0126746909e+00 -2.3641728045e-02 2.4436357544e+00 -4.2325012818e+00 2.4436357544e+00 4.2325012818e+00 
19400 4.0126820022e+00 -2.3086926333e-02 2.4441195112e+00 -4.2333391732e+00 2.4441195112e+00 4.2333391732e+00 
19500 4.0126887583e+00 -2.2533642150e-02 2.4445918218e+00 -4.2341572391e+00 2.4445918218e+00 4.2341572391e+00 
19600 4.0126948531e+00 -2.1982677642e-02 2.4450527239e+00 -4.2349555450e+00 2.4450527239e+00 4.2349555450e+00 
19700 4.0127001979e+00 -2.1434819469e-02 2.4455022715e+00 -4.2357341842e+00 2.4455022715e+00 4.2357341842e+00 
19800 4.0127047208e+00 -2.0890836195e-02 2.4459405344e+00 -4.2364932779e+00 2.4459405344e+00 4.2364932779e+00 
19900 4.0127083674e+00 -2.0351475814e-02 2.4463675980e+00 -4.2372329737e+00 2.4463675980e+00 4.2372329737e+00 
20000 4.0127110997e+00 -1.9817463426e-02 2.4467835627e+00 -4.2379534458e+00 2.4467835627e+00 4.2379534458e+00 
20100 4.0127128956e+00 -1.9289499052e-02 2.4471885436e+00 -4.2386548932e+00 2.4471885436e+00 4.2386548932e+00 
20200 4.0127137486e+00 -1.8768255619e-02 2.4475826697e+00 -4.2393375396e+00 2.4475826697e+00 4.2393375396e+00 
20300 4.0127136660e+00 -1.8254377095e-02 2.4479660836e+00 -4.2400016320e+00 2.4479660836e+00 4.2400016320e+00 
20400 4.0127126688e+00 -1.7748476799e-02 2.4483389409e+00 -4.2406474398e+00 2.4483389409e+00 4.2406474398e+00 
20500 4.0127107899e+00 -1.7251135879e-02 2.4487014094e+00 -4.2412752536e+00 2.4487014094e+00 4.2412752536e+00 
20600 4.0127080732e+00 -1.6762901962e-02 2.4490536685e+00 -4.2418853844e+00 2.4490536685e+00 4.2418853844e+00 
20700 4.0127045721e+00 -1.6284287977e-02 2.4493959087e+00 -4.2424781618e+00 2.4493959087e+00 4.2424781618e+00 
20800 4.0127003483e+00 -1.5815771157e-02 2.4497283306e+00 -4.2430539334e+00 2.4497283306e+00 4.2430539334e+00 
20900 4.0126954703e+00 -1.5357792212e-02 2.4500511444e+00 -4.2436130632e+00 2.4500511444e+00 4.2436130632e+00 
21000 4.0126900122e+00 -1.4910754672e-02 2.4503645688e+00 -4.2441559303e+00 2.4503645688e+00 4.2441559303e+00 
21100 4.0126840523e+00 -1.4475024409e-02 2.4506688310e+00 -4.2446829277e+00 2.4506688310e+00 4.2446829277e+00 
21200 4.0126776715e+00 -1.4050929315e-02 2.4509641649e+00 -4.2451944612e+00 2.4509641649e+00 4.2451944612e+00 
21300 4.0126709525e+00 -1.3638759151e-02 2.4512508114e+00 -4.2456909474e+00 2.4512508114e+00 4.2456909474e+00 
21400 4.0126639782e+00 -1.3238765554e-02 2.4515290166e+00 -4.2461728130e+00 2.4515290166e+00 4.2461728130e+00 
21500 4.0126568307e+00 -1.2851162188e-02 2.4517990320e+00 -4.2466404933e+00 2.4517990320e+00 4.2466404933e+00 
21600 4.0126495901e+00 -1.2476125054e-02 2.4520611128e+00 -4.2470944306e+00 2.4520611128e+00 4.2470944306e+00 
21700 4.0126423338e+00 -1.2113792928e-02 2.4523155180e+00 -4.2475350733e+00 2.4523155180e+00 4.2475350733e+00 
21800 4.0126351353e+00 -1.1764267939e-02 2.4525625090e+00 -4.2479628743e+00 2.4525625090e+00 4.2479628743e+00 
21900 4.0126280636e+00 -1.1427616267e-02 2.4528023491e+00 -4.2483782896e+00 2.4528023491e+00 4.2483782896e+00 
22000 4.0126211826e+00 -1.1103868963e-02 2.4530353030e+00 -4.2487817776e+00 2.4530353030e+00 4.2487817776e+00 
22100 4.0126145504e+00 -1.0793022869e-02 2.4532616357e+00 -4.2491737972e+00 2.4532616357e+00 4.2491737972e+00 
22200 4.0126082189e+00 -1.0495041644e-02 2.4534816119e+00 -4.2495548072e+00 2.4534816119e+00 4.2495548072e+00 
22300 4.0126022336e+00 -1.0209856881e-02 2.4536954956e+00 -4.2499252646e+00 2.4536954956e+00 4.2499252646e+00 
22400 4.0125966331e+00 -9.9373693034e-03 2.4539035491e+00 -4.2502856239e+00 2.4539035491e+00 4.2502856239e+00 
22500 4.0125914493e+00 -9.6774500366e-03 2.4541060327e+00 -4.2506363359e+00 2.4541060327e+00 4.2506363359e+00 
22600 4.0125867071e+00 -9.4299419453e-03 2.4543032039e+00 -4.2509778464e+00 2.4543032039e+00 4.2509778464e+00 
22700 4.0125824249e+00 -9.1946610263e-03 2.4544953168e+00 -4.2513105956e+00 2.4544953168e+00 4.2513105956e+00 
22800 4.0125786142e+00 -8.9713978502e-03 2.4546826217e+00 -4.2516350172e+00 2.4546826217e+00 4.2516350172e+00 
22900 4.0125752801e+00 -8.7599190425e-03 2.4548653644e+00 -4.2519515369e+00 2.4548653644e+00 4.2519515369e+00 
23000 4.0125724219e+00 -8.5599687978e-03 2.4550437861e+00 -4.2522605724e+00 2.4550437861e+00 4.2522605724e+00 
23100 4.0125700330e+00 -8.3712704179e-03 2.4552181225e+00 -4.2525625319e+00 2.4552181225e+00 4.2525625319e+00 
23200 4.0125681017e+00 -8.1935278676e-03 2.4553886037e+00 -4.2528578138e+00 2.4553886037e+00 4.2528578138e+00 
23300 4.0125666113e+00 -8.0264273406e-03 2.4555554534e+00 -4.2531468061e+00 2.4555554534e+00 4.2531468061e+00 
23400 4.0125655411e+00 -7.8696388290e-03 2.4557188893e+00 -4.2534298853e+00 2.4557188893e+00 4.2534298853e+00 
23500 4.0125648664e+00 -7.7228176915e-03 2.4558791219e+00 -4.2537074164e+00 2.4558791219e+00 4.2537074164e+00 
23600 4.0125645594e+00 -7.5856062116e-03 2.4560363548e+00 -4.2539797517e+00 2.4560363548e+00 4.2539797517e+00 
23700 4.0125645899e+00 -7.4576351433e-03 2.4561907842e+00 -4.2542472313e+00 2.4561907842e+00 4.2542472313e+00 
23800 4.0125649252e+00 -7.3385252375e-03 2.4563425988e+00 -4.2545101819e+00 2.4563425988e+00 4.2545101819e+00 
23900 4.0125655315e+00 -7.2278887453e-03 2.4564919794e+00 -4.2547689167e+00 2.4564919794e+00 4.2547689167e+00 
24000 4.0125663736e+00 -7.1253308925e-03 2.4566390990e+00 -4.2550237353e+00 2.4566390990e+00 4.2550237353e+00 
24100 4.0125674163e+00 -7.0304513238e-03 2.4567841224e+00 -4.2552749231e+00 2.4567841224e+00 4.2552749231e+00 
24200 4.0125686240e+00 -6.9428455100e-03 2.4569272061e+00 -4.2555227515e+00 2.4569272061e+00 4.2555227515e+00 
24300 4.0125699618e+00 -6.8621061179e-03 2.4570684987e+00 -4.2557674775e+00 2.4570684987e+00 4.2557674775e+00 
24400 4.0125713956e+00 -6.7878243383e-03 2.4572081402e+00 -4.2560093435e+00 2.4572081402e+00 4.2560093435e+00 
24500 4.0125728926e+00 -6.7195911692e-03 2.4573462621e+00 -4.2562485778e+00 2.4573462621e+00 4.2562485778e+00 
24600 4.0125744218e+00 -6.6569986540e-03 2.4574829879e+00 -4.2564853938e+00 2.4574829879e+00 4.2564853938e+00 
24700 4.0125759538e+00 -6.5996410698e-03 2.4576184326e+00 -4.2567199909e+00 2.4576184326e+00 4.2567199909e+00 
24800 4.0125774616e+00 -6.5471160670e-03 2.4577527029e+00 -4.2569525538e+00 2.4577527029e+00 4.2569525538e+00 
24900 4.0125789205e+00 -6.4990257561e-03 2.4578858972e+00 -4.2571832532e+00 2.4578858972e+00 4.2571832532e+00 
25000 4.0125803083e+00 -6.4549777426e-03 2.4580181060e+00 -4.2574122456e+00 2.4580181060e+00 4.2574122456e+00 
25100 4.0125816055e+00 -6.4145861077e-03 2.4581494117e+00 -4.2576396737e+00 2.4581494117e+00 4.2576396737e+00 
25200 4.0125827954e+00 -6.3774723341e-03 2.4582798888e+00 -4.2578656666e+00 2.4582798888e+00 4.2578656666e+00 
25300 4.0125838639e+00 -6.3432661774e-03 2.4584096041e+00 -4.2580903400e+00 2.4584096041e+00 4.2580903400e+00 
25400 4.0125847999e+00 -6.3116064812e-03 2.4585386168e+00 -4.2583137966e+00 2.4585386168e+00 4.2583137966e+00 
25500 4.0125855947e+00 -6.2821419362e-03 2.4586669788e+00 -4.2585361262e+00 2.4586669788e+00 4.2585361262e+00 
25600 4.0125862425e+00 -6.2545317843e-03 2.4587947350e+00 -4.2587574063e+00 2.4587947350e+00 4.2587574063e+00 
25700 4.0125867400e+00 -6.2284464651e-03 2.4589219230e+00 -4.2589777025e+00 2.4589219230e+00 4.2589777025e+00 
25800 4.0125870863e+00 -6.2035682086e-03 2.4590485740e+00 -4.2591970685e+00 2.4590485740e+00 4.2591970685e+00 
25900 4.0125872826e+00 -6.1795915707e-03 2.4591747127e+00 -4.2594155471e+00 2.4591747127e+00 4.2594155471e+00 
26000 4.0125873324e+00 -6.1562239152e-03 2.4593003574e+00 -4.2596331700e+00 2.4593003574e+00 4.2596331700e+00 
26100 4.0125872410e+00 -6.1331858401e-03 2.4594255205e+00 -4.2598499590e+00 2.4594255205e+00 4.2598499590e+00 
26200 4.0125870154e+00 -6.1102115507e-03 2.4595502089e+00 -4.2600659257e+00 2.4595502089e+00 4.2600659257e+00 
26300 4.0125866640e+00 -6.0870491801e-03 2.4596744240e+00 -4.2602810724e+00 2.4596744240e+00 4.2602810724e+00 
26400 4.0125861967e+00 -6.0634610562e-03 2.4597981619e+00 -4.2604953928e+00 2.4597981619e+00 4.2604953928e+00 
26500 4.0125856241e+00 -6.0392239187e-03 2.4599214141e+00 -4.2607088719e+00 2.4599214141e+00 4.2607088719e+00 
26600 4.0125849579e+00 -6.0141290852e-03 2.4600441675e+00 -4.2609214870e+00 2.4600441675e+00 4.2609214870e+00 
26700 4.0125842104e+00 -5.9879825685e-03 2.4601664047e+00 -4.2611332081e+00 2.4601664047e+00 4.2611332081e+00 
26800 4.0125833942e+00 -5.9606051452e-03 2.4602881045e+00 -4.2613439982e+00 2.4602881045e+00 4.2613439982e+00 
26900 4.0125825221e+00 -5.9318323786e-03 2.4604092418e+00 -4.2615538142e+00 2.4604092418e+00 4.2615538142e+00 
27000 4.0125816071e+00 -5.9015145953e-03 2.4605297884e+00 -4.2617626071e+00 2.4605297884e+00 4.2617626071e+00 
27100 4.0125806617e+00 -5.8695168188e-03 2.4606497131e+00 -4.2619703226e+00 2.4606497131e+00 4.2619703226e+00 
27200 4.0125796985e+00 -5.8357186593e-03 2.4607689816e+00 -4.2621769019e+00 2.4607689816e+00 4.2621769019e+00 
27300 4.0125787293e+00 -5.8000141636e-03 2.4608875577e+00 -4.2623822816e+00 2.4608875577e+00 4.2623822816e+00 
27400 4.0125777654e+00 -5.7623116251e-03 2.4610054026e+00 -4.2625863950e+00 2.4610054026e+00 4.2625863950e+00 
27500 4.0125768176e+00 -5.7225333562e-03 2.4611224758e+00 -4.2627891718e+00 2.4611224758e+00 4.2627891718e+00 
27600 4.0125758956e+00 -5.6806154246e-03 2.4612387353e+00 -4.2629905392e+00 2.4612387353e+00 4.2629905392e+00 
27700 4.0125750083e+00 -5.6365073552e-03 2.4613541378e+00 -4.2631904221e+00 2.4613541378e+00 4.2631904221e+00 
27800 4.0125741638e+00 -5.5901717999e-03 2.4614686388e+00 -4.2633887437e+00 2.4614686388e+00 4.2633887437e+00 
27900 4.0125733689e+00 -5.5415841765e-03 2.4615821933e+00 -4.2635854258e+00 2.4615821933e+00 4.2635854258e+00 
28000 4.0125726296e+00 -5.4907322789e-03 2.4616947556e+00 -4.2637803894e+00 2.4616947556e+00 4.2637803894e+00 
28100 4.0125719509e+00 -5.4376158604e-03 2.4618062798e+00 -4.2639735550e+00 2.4618062798e+00 4.2639735550e+00 
28200 4.0125713366e+00 -5.3822461929e-03 2.4619167202e+00 -4.2641648434e+00 2.4619167202e+00 4.2641648434e+00 
28300 4.0125707895e+00 -5.3246456023e-03 2.4620260311e+00 -4.2643541754e+00 2.4620260311e+00 4.2643541754e+00 
28400 4.0125703114e+00 -5.2648469841e-03 2.4621341673e+00 -4.2645414729e+00 2.4621341673e+00 4.2645414729e+00 
28500 4.0125699033e+00 -5.2028932994e-03 2.4622410844e+00 -4.2647266587e+00 2.4622410844e+00 4.2647266587e+00 
28600 4.0125695650e+00 -5.1388370549e-03 2.4623467388e+00 -4.2649096575e+00 2.4623467388e+00 4.2649096575e+00 
28700 4.0125692957e+00 -5.0727397680e-03 2.4624510879e+00 -4.2650903954e+00 2.4624510879e+00 4.2650903954e+00 
28800 4.0125690936e+00 -5.0046714198e-03 2.4625540905e+00 -4.2652688011e+00 2.4625540905e+00 4.2652688011e+00 
28900 4.0125689564e+00 -4.9347098968e-03 2.4626557066e+00 -4.2654448054e+00 2.4626557066e+00 4.2654448054e+00 
29000 4.0125688810e+00 -4.8629404249e-03 2.4627558981e+00 -4.2656183422e+00 2.4627558981e+00 4.2656183422e+00 
29100 4.0125688637e+00 -4.7894549971e-03 2.4628546284e+00 -4.2657893481e+00 2.4628546284e+00 4.2657893481e+00 
29200 4.0125689005e+00 -4.7143517966e-03 2.4629518629e+00 -4.2659577631e+00 2.4629518629e+00 4.2659577631e+00 
29300 4.0125689867e+00 -4.6377346176e-03 2.4630475688e+00 -4.2661235306e+00 2.4630475688e+00 4.2661235306e+00 
29400 4.0125691177e+00 -4.5597122855e-03 2.4631417157e+00 -4.2662865978e+00 2.4631417157e+00 4.2662865978e+00 
29500 4.0125692883e+00 -4.4803980794e-03 2.4632342751e+00 -4.2664469155e+00 2.4632342751e+00 4.2664469155e+00 
29600 4.0125694934e+00 -4.3999091573e-03 2.4633252211e+00 -4.2666044385e+00 2.4633252211e+00 4.2666044385e+00 
29700 4.0125697276e+00 -4.3183659867e-03 2.4634145300e+00 -4.2667591260e+00 2.4634145300e+00 4.2667591260e+00 
29800 4.0125699856e+00 -4.2358917826e-03 2.4635021805e+00 -4.2669109412e+00 2.4635021805e+00 4.2669109412e+00 
29900 4.0125702622e+00 -4.1526119535e-03 2.4635881540e+00 -4.2670598516e+00 2.4635881540e+00 4.2670598516e+00 
30000 4.0125705523e+00 -4.0686535583e-03 2.4636724342e+00 -4.2672058293e+00 2.4636724342e+00 4.2672058293e+00 
30100 4.0125708510e+00 -3.9841447750e-03 2.4637550076e+00 -4.2673488506e+00 2.4637550076e+00 4.2673488506e+00 
30200 4.0125711536e+00 -3.8992143825e-03 2.4638358632e+00 -4.2674888966e+00 2.4638358632e+00 4.2674888966e+00 
30300 4.0125714557e+00 -3.8139912574e-03 2.4639149926e+00 -4.2676259526e+00 2.4639149926e+00 4.2676259526e+00 
30400 4.0125717532e+00 -3.7286038866e-03 2.4639923899e+00 -4.2677600088e+00 2.4639923899e+00 4.2677600088e+00 
30500 4.0125720424e+00 -3.6431798974e-03 2.4640680522e+00 -4.2678910596e+00 2.4640680522e+00 4.2678910596e+00 
30600 4.0125723198e+00 -3.5578456060e-03 2.4641419786e+00 -4.2680191041e+00 2.4641419786e+00 4.2680191041e+00 
30700 4.0125725827e+00 -3.4727255851e-03 2.4642141714e+00 -4.2681441456e+00 2.4642141714e+00 4.2681441456e+00 
30800 4.0125728283e+00 -3.3879422524e-03 2.4642846349e+00 -4.2682661919e+00 2.4642846349e+00 4.2682661919e+00 
30900 4.0125730546e+00 -3.3036154794e-03 2.4643533761e+00 -4.2683852552e+00 2.4643533761e+00 4.2683852552e+00 
31000 4.0125732599e+00 -3.2198622230e-03 2.4644204044e+00 -4.2685013517e+00 2.4644204044e+00 4.2685013517e+00 
31100 4.0125734427e+00 -3.1367961791e-03 2.4644857317e+00 -4.2686145018e+00 2.4644857317e+00 4.2686145018e+00 
31200 4.0125736023e+00 -3.0545274593e-03 2.4645493719e+00 -4.2687247299e+00 2.4645493719e+00 4.2687247299e+00 
31300 4.0125737380e+00 -2.9731622914e-03 2.4646113415e+00 -4.2688320643e+00 2.4646113415e+00 4.2688320643e+00 
31400 4.0125738498e+00 -2.8928027428e-03 2.4646716588e+00 -4.2689365370e+00 2.4646716588e+00 4.2689365370e+00 
31500 4.0125739377e+00 -2.8135464692e-03 2.4647303444e+00 -4.2690381834e+00 2.4647303444e+00 4.2690381834e+00 
31600 4.0125740024e+00 -2.7354864862e-03 2.4647874207e+00 -4.2691370426e+00 2.4647874207e+00 4.2691370426e+00 
31700 4.0125740444e+00 -2.6587109660e-03 2.4648429123e+00 -4.2692331567e+00 2.4648429123e+00 4.2692331567e+00 
31800 4.0125740650e+00 -2.5833030576e-03 2.4648968451e+00 -4.2693265712e+00 2.4648968451e+00 4.2693265712e+00 
31900 4.0125740654e+00 -2.5093407311e-03 2.4649492472e+00 -4.2694173342e+00 2.4649492472e+00 4.2694173342e+00 
32000 4.0125740471e+00 -2.4368966461e-03 2.4650001478e+00 -4.2695054967e+00 2.4650001478e+00 4.2695054967e+00 
32100 4.0125740116e+00 -2.3660380430e-03 2.4650495779e+00 -4.2695911121e+00 2.4650495779e+00 4.2695911121e+00 
32200 4.0125739608e+00 -2.2968266575e-03 2.4650975698e+00 -4.2696742364e+00 2.4650975698e+00 4.2696742364e+00 
32300 4.0125738965e+00 -2.2293186577e-03 2.4651441568e+00 -4.2697549276e+00 2.4651441568e+00 4.2697549276e+00 
32400 4.0125738207e+00 -2.1635646032e-03 2.4651893738e+00 -4.2698332457e+00 2.4651893738e+00 4.2698332457e+00 
32500 4.0125737354e+00 -2.0996094256e-03 2.4652332562e+00 -4.2699092523e+00 2.4652332562e+00 4.2699092523e+00 
32600 4.0125736424e+00 -2.0374924296e-03 2.4652758408e+00 -4.2699830109e+00 2.4652758408e+00 4.2699830109e+00 
32700 4.0125735438e+00 -1.9772473144e-03 2.4653171647e+00 -4.2700545860e+00 2.4653171647e+00 4.2700545860e+00 
32800 4.0125734414e+00 -1.9189022139e-03 2.4653572661e+00 -4.2701240436e+00 2.4653572661e+00 4.2701240436e+00 
32900 4.0125733372e+00 -1.8624797560e-03 2.4653961835e+00 -4.2701914506e+00 2.4653961835e+00 4.2701914506e+00 
33000 4.0125732329e+00 -1.8079971387e-03 2.4654339560e+00 -4.2702568745e+00 2.4654339560e+00 4.2702568745e+00 
33100 4.0125731300e+00 -1.7554662239e-03 2.4654706230e+00 -4.2703203837e+00 2.4654706230e+00 4.2703203837e+00 
33200 4.0125730302e+00 -1.7048936456e-03 2.4655062241e+00 -4.2703820466e+00 2.4655062241e+00 4.2703820466e+00 
33300 4.0125729349e+00 -1.6562809346e-03 2.4655407992e+00 -4.2704419323e+00 2.4655407992e+00 4.2704419323e+00 
33400 4.0125728452e+00 -1.6096246553e-03 2.4655743878e+00 -4.2705001095e+00 2.4655743878e+00 4.2705001095e+00 
33500 4.0125727623e+00 -1.5649165571e-03 2.4656070299e+00 -4.2705566472e+00 2.4656070299e+00 4.2705566472e+00 
33600 4.0125726871e+00 -1.5221437364e-03 2.4656387649e+00 -4.2706116138e+00 2.4656387649e+00 4.2706116138e+00 
33700 4.0125726204e+00 -1.4812888103e-03 2.4656696320e+00 -4.2706650774e+00 2.4656696320e+00 4.2706650774e+00 
33800 4.0125725628e+00 -1.4423300994e-03 2.4656996704e+00 -4.2707171053e+00 2.4656996704e+00 4.2707171053e+00 
33900 4.0125725148e+00 -1.4052418205e-03 2.4657289183e+00 -4.2707677642e+00 2.4657289183e+00 4.2707677642e+00 
34000 4.0125724767e+00 -1.3699942868e-03 2.4657574138e+00 -4.2708171199e+00 2.4657574138e+00 4.2708171199e+00 
34100 4.0125724486e+00 -1.3365541141e-03 2.4657851943e+00 -4.2708652371e+00 2.4657851943e+00 4.2708652371e+00 
34200 4.0125724305e+00 -1.3048844347e-03 2.4658122963e+00 -4.2709121792e+00 2.4658122963e+00 4.2709121792e+00 
34300 4.0125724224e+00 -1.2749451149e-03 2.4658387559e+00 -4.2709580085e+00 2.4658387559e+00 4.2709580085e+00 
34400 4.0125724240e+00 -1.2466929772e-03 2.4658646081e+00 -4.2710027858e+00 2.4658646081e+00 4.2710027858e+00 
34500 4.0125724349e+00 -1.2200820251e-03 2.4658898872e+00 -4.2710465705e+00 2.4658898872e+00 4.2710465705e+00 
34600 4.0125724547e+00 -1.1950636711e-03 2.4659146264e+00 -4.2710894201e+00 2.4659146264e+00 4.2710894201e+00 
34700 4.0125724828e+00 -1.1715869651e-03 2.4659388581e+00 -4.2711313906e+00 2.4659388581e+00 4.2711313906e+00 
34800 4.0125725186e+00 -1.1495988235e-03 2.4659626135e+00 -4.2711725362e+00 2.4659626135e+00 4.2711725362e+00 
34900 4.0125725616e+00 -1.1290442590e-03 2.4659859229e+00 -4.2712129092e+00 2.4659859229e+00 4.2712129092e+00 
35000 4.0125726108e+00 -1.1098666078e-03 2.4660088153e+00 -4.2712525600e+00 2.4660088153e+00 4.2712525600e+00 
35100 4.0125726656e+00 -1.0920077564e-03 2.4660313186e+00 -4.2712915369e+00 2.4660313186e+00 4.2712915369e+00 
35200 4.0125727251e+00 -1.0754083648e-03 2.4660534596e+00 -4.2713298863e+00 2.4660534596e+00 4.2713298863e+00 
35300 4.0125727886e+00 -1.0600080876e-03 2.4660752639e+00 -4.2713676524e+00 2.4660752639e+00 4.2713676524e+00 
35400 4.0125728553e+00 -1.0457457903e-03 2.4660967557e+00 -4.2714048773e+00 2.4660967557e+00 4.2714048773e+00 
35500 4.0125729244e+00 -1.0325597618e-03 2.4661179582e+00 -4.2714416011e+00 2.4661179582e+00 4.2714416011e+00 
35600 4.0125729951e+00 -1.0203879216e-03 2.4661388932e+00 -4.2714778615e+00 2.4661388932e+00 4.2714778615e+00 
35700 4.0125730666e+00 -1.0091680218e-03 2.4661595812e+00 -4.2715136942e+00 2.4661595812e+00 4.2715136942e+00 
35800 4.0125731382e+00 -9.9883784285e-04 2.4661800415e+00 -4.2715491325e+00 2.4661800415e+00 4.2715491325e+00 
35900 4.0125732093e+00 -9.8933538278e-04 2.4662002922e+00 -4.2715842078e+00 2.4662002922e+00 4.2715842078e+00 
36000 4.0125732793e+00 -9.8059904000e-04 2.4662203502e+00 -4.2716189491e+00 2.4662203502e+00 4.2716189491e+00 
36100 4.0125733476e+00 -9.7256778842e-04 2.4662402308e+00 -4.2716533834e+00 2.4662402308e+00 4.2716533834e+00 
36200 4.0125734136e+00 -9.6518134523e-04 2.4662599484e+00 -4.2716875354e+00 2.4662599484e+00 4.2716875354e+00 
36300 4.0125734770e+00 -9.5838033081e-04 2.4662795162e+00 -4.2717214277e+00 2.4662795162e+00 4.2717214277e+00 
36400 4.0125735373e+00 -9.5210642037e-04 2.4662989459e+00 -4.2717550809e+00 2.4662989459e+00 4.2717550809e+00 
36500 4.0125735943e+00 -9.4630248742e-04 2.4663182482e+00 -4.2717885136e+00 2.4663182482e+00 4.2717885136e+00 
36600 4.0125736476e+00 -9.4091273850e-04 2.4663374328e+00 -4.2718217422e+00 2.4663374328e+00 4.2718217422e+00 
36700 4.0125736971e+00 -9.3588283940e-04 2.4663565079e+00 -4.2718547813e+00 2.4663565079e+00 4.2718547813e+00 
36800 4.0125737427e+00 -9.3116003235e-04 2.4663754809e+00 -4.2718876435e+00 2.4663754809e+00 4.2718876435e+00 
36900 4.0125737842e+00 -9.2669324443e-04 2.4663943580e+00 -4.2719203396e+00 2.4663943580e+00 4.2719203396e+00 
37000 4.0125738217e+00 -9.2243318694e-04 2.4664131445e+00 -4.2719528787e+00 2.4664131445e+00 4.2719528787e+00 
37100 4.0125738552e+00 -9.1833244578e-04 2.4664318444e+00 -4.2719852679e+00 2.4664318444e+00 4.2719852679e+00 
37200 4.0125738847e+00 -9.1434556278e-04 2.4664504610e+00 -4.2720175128e+00 2.4664504610e+00 4.2720175128e+00 
37300 4.0125739104e+00 -9.1042910813e-04 2.4664689967e+00 -4.2720496176e+00 2.4664689967e+00 4.2720496176e+00 
37400 4.0125739325e+00 -9.0654174379e-04 2.4664874528e+00 -4.2720815845e+00 2.4664874528e+00 4.2720815845e+00 
37500 4.0125739511e+00 -9.0264427817e-04 2.4665058300e+00 -4.2721134148e+00 2.4665058300e+00 4.2721134148e+00 
37600 4.0125739666e+00 -8.9869971203e-04 2.4665241281e+00 -4.2721451080e+00 2.4665241281e+00 4.2721451080e+00 
37700 4.0125739791e+00 -8.9467327578e-04 2.4665423461e+00 -4.2721766624e+00 2.4665423461e+00 4.2721766624e+00 
37800 4.0125739889e+00 -8.9053245840e-04 2.4665604823e+00 -4.2722080752e+00 2.4665604823e+00 4.2722080752e+00 
37900 4.0125739963e+00 -8.8624702807e-04 2.4665785344e+00 -4.2722393424e+00 2.4665785344e+00 4.2722393424e+00 
38000 4.0125740016e+00 -8.8178904476e-04 2.4665964995e+00 -4.2722704590e+00 2.4665964995e+00 4.2722704590e+00 
38100 4.0125740052e+00 -8.7713286500e-04 2.4666143742e+00 -4.2723014187e+00 2.4666143742e+00 4.2723014187e+00 
38200 4.0125740072e+00 -8.7225513905e-04 2.4666321543e+00 -4.2723322148e+00 2.4666321543e+00 4.2723322148e+00 
38300 4.0125740081e+00 -8.6713480072e-04 2.4666498354e+00 -4.2723628394e+00 2.4666498354e+00 4.2723628394e+00 
38400 4.0125740082e+00 -8.6175305014e-04 2.4666674126e+00 -4.2723932840e+00 2.4666674126e+00 4.2723932840e+00 
38500 4.0125740076e+00 -8.5609332974e-04 2.4666848806e+00 -4.2724235394e+00 2.4666848806e+00 4.2724235394e+00 
38600 4.0125740067e+00 -8.5014129374e-04 2.4667022337e+00 -4.2724535959e+00 2.4667022337e+00 4.2724535959e+00 
38700 4.0125740058e+00 -8.4388477143e-04 2.4667194661e+00 -4.2724834433e+00 2.4667194661e+00 4.2724834433e+00 
38800 4.0125740050e+00 -8.3731372464e-04 2.4667365715e+00 -4.2725130707e+00 2.4667365715e+00 4.2725130707e+00 
38900 4.0125740047e+00 -8.3042019965e-04 2.4667535436e+00 -4.2725424673e+00 2.4667535436e+00 4.2725424673e+00 
39000 4.0125740049e+00 -8.2319827386e-04 2.4667703759e+00 -4.2725716216e+00 2.4667703759e+00 4.2725716216e+00 
39100 4.0125740059e+00 -8.1564399770e-04 2.4667870617e+00 -4.2726005222e+00 2.4667870617e+00 4.2726005222e+00 
39200 4.0125740078e+00 -8.0775533188e-04 2.4668035942e+00 -4.2726291574e+00 2.4668035942e+00 4.2726291574e+00 
39300 4.0125740108e+00 -7.9953208061e-04 2.4668199667e+00 -4.2726575155e+00 2.4668199667e+00 4.2726575155e+00 
39400 4.0125740149e+00 -7.9097582096e-04 2.4668361725e+00 -4.2726855847e+00 2.4668361725e+00 4.2726855847e+00 
39500 4.0125740201e+00 -7.8208982873e-04 2.4668522047e+00 -4.2727133533e+00 2.4668522047e+00 4.2727133533e+00 
39600 4.0125740267e+00 -7.7287900124e-04 2.4668680567e+00 -4.2727408097e+00 2.4668680567e+00 4.2727408097e+00 
39700 4.0125740345e+00 -7.6334977742e-04 2.4668837219e+00 -4.2727679426e+00 2.4668837219e+00 4.2727679426e+00 
39800 4.0125740437e+00 -7.5351005541e-04 2.4668991938e+00 -4.2727947409e+00 2.4668991938e+00 4.2727947409e+00 
39900 4.0125740541e+00 -7.4336910819e-04 2.4669144663e+00 -4.2728211935e+00 2.4669144663e+00 4.2728211935e+00 
40000 4.0125740657e+00 -7.3293749746e-04 2.4669295331e+00 -4.2728472899e+00 2.4669295331e+00 4.2728472899e+00 
40100 4.0125740786e+00 -7.2222698618e-04 2.4669443883e+00 -4.2728730200e+00 2.4669443883e+00 4.2728730200e+00 
40200 4.0125740926e+00 -7.1125045007e-04 2.4669590264e+00 -4.2728983740e+00 2.4669590264e+00 4.2728983740e+00 
40300 4.0125741077e+00 -7.0002178841e-04 2.4669734420e+00 -4.2729233424e+00 2.4669734420e+00 4.2729233424e+00 
40400 4.0125741237e+00 -6.8855583441e-04 2.4669876299e+00 -4.2729479166e+00 2.4669876299e+00 4.2729479166e+00 
40500 4.0125741406e+00 -6.7686826563e-04 2.4670015853e+00 -4.2729720880e+00 2.4670015853e+00 4.2729720880e+00 
40600 4.0125741583e+00 -6.6497551447e-04 2.4670153037e+00 -4.2729958491e+00 2.4670153037e+00 4.2729958491e+00 
40700 4.0125741766e+00 -6.5289467930e-04 2.4670287811e+00 -4.2730191925e+00 2.4670287811e+00 4.2730191925e+00 
40800 4.0125741955e+00 -6.4064343628e-04 2.4670420135e+00 -4.2730421118e+00 2.4670420135e+00 4.2730421118e+00 
40900 4.0125742148e+00 -6.2823995237e-04 2.4670549975e+00 -4.2730646008e+00 2.4670549975e+00 4.2730646008e+00 
41000 4.0125742344e+00 -6.1570279957e-04 2.4670677301e+00 -4.2730866543e+00 2.4670677301e+00 4.2730866543e+00 
41100 4.0125742542e+00 -6.0305087075e-04 2.4670802086e+00 -4.2731082676e+00 2.4670802086e+00 4.2731082676e+00 
41200 4.0125742740e+00 -5.9030329730e-04 2.4670924305e+00 -4.2731294367e+00 2.4670924305e+00 4.2731294367e+00 
41300 4.0125742939e+00 -5.7747936875e-04 2.4671043941e+00 -4.2731501581e+00 2.4671043941e+00 4.2731501581e+00 
41400 4.0125743135e+00 -5.6459845471e-04 2.4671160977e+00 -4.2731704294e+00 2.4671160977e+00 4.2731704294e+00 
41500 4.0125743330e+00 -5.5167992908e-04 2.4671275402e+00 -4.2731902483e+00 2.4671275402e+00 4.2731902483e+00 
41600 4.0125743521e+00 -5.3874309697e-04 2.4671387208e+00 -4.2732096137e+00 2.4671387208e+00 4.2732096137e+00 
41700 4.0125743708e+00 -5.2580712430e-04 2.4671496392e+00 -4.2732285249e+00 2.4671496392e+00 4.2732285249e+00 
41800 4.0125743890e+00 -5.1289097035e-04 2.4671602954e+00 -4.2732469820e+00 2.4671602954e+00 4.2732469820e+00 
41900 4.0125744066e+00 -5.0001332328e-04 2.4671706897e+00 -4.2732649855e+00 2.4671706897e+00 4.2732649855e+00 
42000 4.0125744237e+00 -4.8719253886e-04 2.4671808231e+00 -4.2732825370e+00 2.4671808231e+00 4.2732825370e+00 
42100 4.0125744401e+00 -4.7444658240e-04 2.4671906965e+00 -4.2732996384e+00 2.4671906965e+00 4.2732996384e+00 
42200 4.0125744558e+00 -4.6179297406e-04 2.4672003117e+00 -4.2733162922e+00 2.4672003117e+00 4.2733162922e+00 
42300 4.0125744708e+00 -4.4924873755e-04 2.4672096703e+00 -4.2733325019e+00 2.4672096703e+00 4.2733325019e+00 
42400 4.0125744851e+00 -4.3683035236e-04 2.4672187747e+00 -4.2733482712e+00 2.4672187747e+00 4.2733482712e+00 
42500 4.0125744986e+00 -4.2455370940e-04 2.4672276274e+00 -4.2733636045e+00 2.4672276274e+00 4.2733636045e+00 
42600 4.0125745113e+00 -4.1243407036e-04 2.4672362313e+00 -4.2733785068e+00 2.4672362313e+00 4.2733785068e+00 
42700 4.0125745234e+00 -4.0048603051e-04 2.4672445895e+00 -4.2733929837e+00 2.4672445895e+00 4.2733929837e+00 
42800 4.0125745347e+00 -3.8872348519e-04 2.4672527056e+00 -4.2734070411e+00 2.4672527056e+00 4.2734070411e+00 
42900 4.0125745453e+00 -3.7715959974e-04 2.4672605832e+00 -4.2734206856e+00 2.4672605832e+00 4.2734206856e+00 
43000 4.0125745553e+00 -3.6580678322e-04 2.4672682265e+00 -4.2734339242e+00 2.4672682265e+00 4.2734339242e+00 
43100 4.0125745646e+00 -3.5467666541e-04 2.4672756397e+00 -4.2734467642e+00 2.4672756397e+00 4.2734467642e+00 
43200 4.0125745733e+00 -3.4378007751e-04 2.4672828273e+00 -4.2734592136e+00 2.4672828273e+00 4.2734592136e+00 
43300 4.0125745814e+00 -3.3312703615e-04 2.4672897941e+00 -4.2734712804e+00 2.4672897941e+00 4.2734712804e+00 
43400 4.0125745890e+00 -3.2272673087e-04 2.4672965450e+00 -4.2734829732e+00 2.4672965450e+00 4.2734829732e+00 
43500 4.0125745962e+00 -3.1258751484e-04 2.4673030851e+00 -4.2734943010e+00 2.4673030851e+00 4.2734943010e+00 
43600 4.0125746029e+00 -3.0271689891e-04 2.4673094197e+00 -4.2735052729e+00 2.4673094197e+00 4.2735052729e+00 
43700 4.0125746093e+00 -2.9312154866e-04 2.4673155542e+00 -4.2735158982e+00 2.4673155542e+00 4.2735158982e+00 
43800 4.0125746153e+00 -2.8380728467e-04 2.4673214943e+00 -4.2735261868e+00 2.4673214943e+00 4.2735261868e+00 
43900 4.0125746211e+00 -2.7477908559e-04 2.4673272456e+00 -4.2735361484e+00 2.4673272456e+00 4.2735361484e+00 
44000 4.0125746266e+00 -2.6604109412e-04 2.4673328140e+00 -4.2735457930e+00 2.4673328140e+00 4.2735457930e+00 
44100 4.0125746320e+00 -2.5759662573e-04 2.4673382053e+00 -4.2735551310e+00 2.4673382053e+00 4.2735551310e+00 
44200 4.0125746372e+00 -2.4944817989e-04 2.4673434254e+00 -4.2735641725e+00 2.4673434254e+00 4.2735641725e+00 
44300 4.0125746423e+00 -2.4159745387e-04 2.4673484804e+00 -4.2735729280e+00 2.4673484804e+00 4.2735729280e+00 
44400 4.0125746473e+00 -2.3404535880e-04 2.4673533763e+00 -4.2735814080e+00 2.4673533763e+00 4.2735814080e+00 
44500 4.0125746524e+00 -2.2679203803e-04 2.4673581191e+00 -4.2735896228e+00 2.4673581191e+00 4.2735896228e+00 
44600 4.0125746574e+00 -2.1983688745e-04 2.4673627150e+00 -4.2735975831e+00 2.4673627150e+00 4.2735975831e+00 
44700 4.0125746624e+00 -2.1317857783e-04 2.4673671699e+00 -4.2736052992e+00 2.4673671699e+00 4.2736052992e+00 
44800 4.0125746675e+00 -2.0681507892e-04 2.4673714899e+00 -4.2736127816e+00 2.4673714899e+00 4.2736127816e+00 
44900 4.0125746727e+00 -2.0074368519e-04 2.4673756809e+00 -4.2736200406e+00 2.4673756809e+00 4.2736200406e+00 
45000 4.0125746780e+00 -1.9496104306e-04 2.4673797488e+00 -4.2736270865e+00 2.4673797488e+00 4.2736270865e+00 
45100 4.0125746834e+00 -1.8946317954e-04 2.4673836996e+00 -4.2736339294e+00 2.4673836996e+00 4.2736339294e+00 
45200 4.0125746889e+00 -1.8424553203e-04 2.4673875389e+00 -4.2736405794e+00 2.4673875389e+00 4.2736405794e+00 
45300 4.0125746945e+00 -1.7930297922e-04 2.4673912726e+00 -4.2736470462e+00 2.4673912726e+00 4.2736470462e+00 
45400 4.0125747002e+00 -1.7462987293e-04 2.4673949060e+00 -4.2736533395e+00 2.4673949060e+00 4.2736533395e+00 
45500 4.0125747061e+00 -1.7022007072e-04 2.4673984448e+00 -4.2736594688e+00 2.4673984448e+00 4.2736594688e+00 
45600 4.0125747121e+00 -1.6606696916e-04 2.4674018941e+00 -4.2736654433e+00 2.4674018941e+00 4.2736654433e+00 
45700 4.0125747182e+00 -1.6216353761e-04 2.4674052594e+00 -4.2736712721e+00 2.4674052594e+00 4.2736712721e+00 
45800 4.0125747244e+00 -1.5850235240e-04 2.4674085455e+00 -4.2736769638e+00 2.4674085455e+00 4.2736769638e+00 
45900 4.0125747307e+00 -1.5507563128e-04 2.4674117574e+00 -4.2736825270e+00 2.4674117574e+00 4.2736825270e+00 
46000 4.0125747370e+00 -1.5187526793e-04 2.4674148999e+00 -4.2736879699e+00 2.4674148999e+00 4.2736879699e+00 
46100 4.0125747435e+00 -1.4889286657e-04 2.4674179775e+00 -4.2736933005e+00 2.4674179775e+00 4.2736933005e+00 
46200 4.0125747499e+00 -1.4611977638e-04 2.4674209947e+00 -4.2736985264e+00 2.4674209947e+00 4.2736985264e+00 
46300 4.0125747565e+00 -1.4354712574e-04 2.4674239557e+00 -4.2737036550e+00 2.4674239557e+00 4.2737036550e+00 
46400 4.0125747630e+00 -1.4116585614e-04 2.4674268645e+00 -4.2737086933e+00 2.4674268645e+00 4.2737086933e+00 
46500 4.0125747696e+00 -1.3896675558e-04 2.4674297251e+00 -4.2737136480e+00 2.4674297251e+00 4.2737136480e+00 
46600 4.0125747761e+00 -1.3694049156e-04 2.4674325411e+00 -4.2737185255e+00 2.4674325411e+00 4.2737185255e+00 
46700 4.0125747826e+00 -1.3507764331e-04 2.4674353161e+00 -4.2737233318e+00 2.4674353161e+00 4.2737233318e+00 
46800 4.0125747890e+00 -1.3336873337e-04 2.4674380533e+00 -4.2737280728e+00 2.4674380533e+00 4.2737280728e+00 
46900 4.0125747954e+00 -1.3180425838e-04 2.4674407559e+00 -4.2737327538e+00 2.4674407559e+00 4.2737327538e+00 
47000 4.0125748017e+00 -1.3037471891e-04 2.4674434267e+00 -4.2737373799e+00 2.4674434267e+00 4.2737373799e+00 
47100 4.0125748080e+00 -1.2907064843e-04 2.4674460686e+00 -4.2737419558e+00 2.4674460686e+00 4.2737419558e+00 
47200 4.0125748141e+00 -1.2788264118e-04 2.4674486841e+00 -4.2737464859e+00 2.4674486841e+00 4.2737464859e+00 
47300 4.0125748201e+00 -1.2680137903e-04 2.4674512755e+00 -4.2737509744e+00 2.4674512755e+00 4.2737509744e+00 
47400 4.0125748259e+00 -1.2581765715e-04 2.4674538450e+00 -4.2737554248e+00 2.4674538450e+00 4.2737554248e+00 
47500 4.0125748317e+00 -1.2492240850e-04 2.4674563945e+00 -4.2737598408e+00 2.4674563945e+00 4.2737598408e+00 
47600 4.0125748373e+00 -1.2410672715e-04 2.4674589259e+00 -4.2737642253e+00 2.4674589259e+00 4.2737642253e+00 
47700 4.0125748427e+00 -1.2336189021e-04 2.4674614408e+00 -4.2737685812e+00 2.4674614408e+00 4.2737685812e+00 
47800 4.0125748480e+00 -1.2267937862e-04 2.4674639406e+00 -4.2737729109e+00 2.4674639406e+00 4.2737729109e+00 
47900 4.0125748531e+00 -1.2205089647e-04 2.4674664265e+00 -4.2737772167e+00 2.4674664265e+00 4.2737772167e+00 
48000 4.0125748581e+00 -1.2146838904e-04 2.4674688997e+00 -4.2737815004e+00 2.4674688997e+00 4.2737815004e+00 
48100 4.0125748629e+00 -1.2092405947e-04 2.4674713611e+00 -4.2737857637e+00 2.4674713611e+00 4.2737857637e+00 
48200 4.0125748675e+00 -1.2041038404e-04 2.4674738115e+00 -4.2737900078e+00 2.4674738115e+00 4.2737900078e+00 
48300 4.0125748720e+00 -1.1992012608e-04 2.4674762514e+00 -4.2737942339e+00 2.4674762514e+00 4.2737942339e+00 
48400 4.0125748763e+00 -1.1944634847e-04 2.4674786814e+00 -4.2737984428e+00 2.4674786814e+00 4.2737984428e+00 
48500 4.0125748805e+00 -1.1898242476e-04 2.4674811019e+00 -4.2738026351e+00 2.4674811019e+00 4.2738026351e+00 
48600 4.0125748845e+00 -1.1852204896e-04 2.4674835129e+00 -4.2738068111e+00 2.4674835129e+00 4.2738068111e+00 
48700 4.0125748884e+00 -1.1805924391e-04 2.4674859145e+00 -4.2738109710e+00 2.4674859145e+00 4.2738109710e+00 
48800 4.0125748922e+00 -1.1758836836e-04 2.4674883068e+00 -4.2738151145e+00 2.4674883068e+00 4.2738151145e+00 
48900 4.0125748958e+00 -1.1710412262e-04 2.4674906896e+00 -4.2738192416e+00 2.4674906896e+00 4.2738192416e+00 
49000 4.0125748993e+00 -1.1660155308e-04 2.4674930625e+00 -4.2738233516e+00 2.4674930625e+00 4.2738233516e+00 
49100 4.0125749027e+00 -1.1607605524e-04 2.4674954253e+00 -4.2738274440e+00 2.4674954253e+00 4.2738274440e+00 
49200 4.0125749060e+00 -1.1552337572e-04 2.4674977774e+00 -4.2738315180e+00 2.4674977774e+00 4.2738315180e+00 
49300 4.0125749092e+00 -1.1493961287e-04 2.4675001183e+00 -4.2738355726e+00 2.4675001183e+00 4.2738355726e+00 
49400 4.0125749124e+00 -1.1432121633e-04 2.4675024474e+00 -4.2738396066e+00 2.4675024474e+00 4.2738396066e+00 
49500 4.0125749154e+00 -1.1366498539e-04 2.4675047639e+00 -4.2738436190e+00 2.4675047639e+00 4.2738436190e+00 
49600 4.0125749184e+00 -1.1296806630e-04 2.4675070671e+00 -4.2738476083e+00 2.4675070671e+00 4.2738476083e+00 
49700 4.0125749213e+00 -1.1222794852e-04 2.4675093563e+00 -4.2738515732e+00 2.4675093563e+00 4.2738515732e+00 
49800 4.0125749241e+00 -1.1144245993e-04 2.4675116304e+00 -4.2738555121e+00 2.4675116304e+00 4.2738555121e+00 
49900 4.0125749269e+00 -1.1060976117e-04 2.4675138886e+00 -4.2738594234e+00 2.4675138886e+00 4.2738594234e+00 
50000 4.0125749297e+00 -1.0972833901e-04 2.4675161299e+00 -4.2738633055e+00 2.4675161299e+00 4.2738633055e+00 
50100 4.0125749324e+00 -1.0879699890e-04 2.4675183533e+00 -4.2738671566e+00 2.4675183533e+00 4.2738671566e+00 
50200 4.0125749351e+00 -1.0781485671e-04 2.4675205579e+00 -4.2738709750e+00 2.4675205579e+00 4.2738709750e+00 
50300 4.0125749377e+00 -1.0678132973e-04 2.4675227426e+00 -4.2738747590e+00 2.4675227426e+00 4.2738747590e+00 
50400 4.0125749404e+00 -1.0569612701e-04 2.4675249063e+00 -4.2738785067e+00 2.4675249063e+00 4.2738785067e+00 
50500 4.0125749430e+00 -1.0455923898e-04 2.4675270481e+00 -4.2738822163e+00 2.4675270481e+00 4.2738822163e+00 
50600 4.0125749456e+00 -1.0337092660e-04 2.4675291668e+00 -4.2738858860e+00 2.4675291668e+00 4.2738858860e+00 
50700 4.0125749482e+00 -1.0213170991e-04 2.4675312614e+00 -4.2738895140e+00 2.4675312614e+00 4.2738895140e+00 
50800 4.0125749507e+00 -1.0084235614e-04 2.4675333309e+00 -4.2738930985e+00 2.4675333309e+00 4.2738930985e+00 
50900 4.0125749533e+00 -9.9503867366e-05 2.4675353743e+00 -4.2738966378e+00 2.4675353743e+00 4.2738966378e+00 
51000 4.0125749559e+00 -9.8117467889e-05 2.4675373906e+00 -4.2739001300e+00 2.4675373906e+00 4.2739001300e+00 
51100 4.0125749584e+00 -9.6684591232e-05 2.4675393787e+00 -4.2739035737e+00 2.4675393787e+00 4.2739035737e+00 
51200 4.0125749609e+00 -9.5206866901e-05 2.4675413379e+00 -4.2739069670e+00 2.4675413379e+00 4.2739069670e+00 
51300 4.0125749635e+00 -9.3686106977e-05 2.4675432671e+00 -4.2739103084e+00 2.4675432671e+00 4.2739103084e+00 
51400 4.0125749660e+00 -9.2124292513e-05 2.4675451654e+00 -4.2739135965e+00 2.4675451654e+00 4.2739135965e+00 
51500 4.0125749685e+00 -9.0523559881e-05 2.4675470321e+00 -4.2739168297e+00 2.4675470321e+00 4.2739168297e+00 
51600 4.0125749710e+00 -8.8886187030e-05 2.4675488664e+00 -4.2739200068e+00 2.4675488664e+00 4.2739200068e+00 
51700 4.0125749734e+00 -8.7214579771e-05 2.4675506675e+00 -4.2739231264e+00 2.4675506675e+00 4.2739231264e+00 
51800 4.0125749759e+00 -8.5511258083e-05 2.4675524348e+00 -4.2739261873e+00 2.4675524348e+00 4.2739261873e+00 
51900 4.0125749783e+00 -8.3778842515e-05 2.4675541675e+00 -4.2739291885e+00 2.4675541675e+00 4.2739291885e+00 
52000 4.0125749808e+00 -8.2020040733e-05 2.4675558651e+00 -4.2739321288e+00 2.4675558651e+00 4.2739321288e+00 
52100 4.0125749832e+00 -8.0237634213e-05 2.4675575271e+00 -4.2739350075e+00 2.4675575271e+00 4.2739350075e+00 
52200 4.0125749855e+00 -7.8434465177e-05 2.4675591529e+00 -4.2739378235e+00 2.4675591529e+00 4.2739378235e+00 
52300 4.0125749879e+00 -7.6613423724e-05 2.4675607422e+00 -4.2739405763e+00 2.4675607422e+00 4.2739405763e+00 
52400 4.0125749902e+00 -7.4777435321e-05 2.4675622946e+00 -4.2739432651e+00 2.4675622946e+00 4.2739432651e+00 
52500 4.0125749925e+00 -7.2929448523e-05 2.4675638098e+00 -4.2739458896e+00 2.4675638098e+00 4.2739458896e+00 
52600 4.0125749947e+00 -7.1072423104e-05 2.4675652876e+00 -4.2739484491e+00 2.4675652876e+00 4.2739484491e+00 
52700 4.0125749969e+00 -6.9209318528e-05 2.4675667277e+00 -4.2739509435e+00 2.4675667277e+00 4.2739509435e+00 
52800 4.0125749992e+00 -6.7928719955e-05 2.4675667277e+00 -4.2739509435e+00 2.4675667277e+00 4.2739509435e+00 
52900 4.0125750014e+00 -6.6646541496e-05 2.4675667277e+00 -4.2739509435e+00 2.4675667277e+00 4.2739509435e+00 
53000 4.0125750036e+00 -6.5365540965e-05 2.4675667277e+00 -4.2739509435e+00 2.4675667277e+00 4.2739509435e+00 
53100 4.0125750057e+00 -6.4088384194e-05 2.4675667277e+00 -4.2739509435e+00 2.4675667277e+00 4.2739509435e+00 
53200 4.0125750078e+00 -6.2817642775e-05 2.4675667277e+00 -4.2739509435e+00 2.4675667277e+00 4.2739509435e+00 
53300 4.0125750098e+00 -6.1555791874e-05 2.4675667277e+00 -4.2739509435e+00 2.4675667277e+00 4.2739509435e+00 
53400 4.0125750118e+00 -6.0305208121e-05 2.4675667277e+00 -4.2739509435e+00 2.4675667277e+00 4.2739509435e+00 
53500 4.0125750137e+00 -5.9068167608e-05 2.4675667277e+00 -4.2739509435e+00 2.4675667277e+00 4.2739509435e+00 
53600 4.0125750156e+00 -5.7846844012e-05 2.4675667277e+00 -4.2739509435e+00 2.4675667277e+00 4.2739509435e+00 
53700 4.0125750174e+00 -5.6643306845e-05 2.4675667277e+00 -4.2739509435e+00 2.4675667277e+00 4.2739509435e+00 
53800 4.0125750192e+00 -5.5459519871e-05 2.4675667277e+00 -4.2739509435e+00 2.4675667277e+00 4.2739509435e+00 
53900 4.0125750209e+00 -5.4297339689e-05 2.4675667277e+00 -4.2739509435e+00 2.4675667277e+00 4.2739509435e+00 
54000 4.0125750226e+00 -5.3158514490e-05 2.4675667277e+00 -4.2739509435e+00 2.4675667277e+00 4.2739509435e+00 
54100 4.0125750243e+00 -5.2044683026e-05 2.4675667277e+00 -4.2739509435e+00 2.4675667277e+00 4.2739509435e+00 
54200 4.0125750259e+00 -5.0957373760e-05 2.4675667277e+00 -4.2739509435e+00 2.4675667277e+00 4.2739509435e+00 
54300 4.0125750275e+00 -4.9898004256e-05 2.4675667277e+00 -4.2739509435e+00 2.4675667277e+00 4.2739509435e+00 
54400 4.0125750290e+00 -4.8867880772e-05 2.4675667277e+00 -4.2739509435e+00 2.4675667277e+00 4.2739509435e+00 
54500 4.0125750305e+00 -4.7868198091e-05 2.4675667277e+00 -4.2739509435e+00 2.4675667277e+00 4.2739509435e+00 
54600 4.0125750320e+00 -4.6900039586e-05 2.4675667277e+00 -4.2739509435e+00 2.4675667277e+00 4.2739509435e+00 
54700 4.0125750334e+00 -4.5964377509e-05 2.4675667277e+00 -4.2739509435e+00 2.4675667277e+00 4.2739509435e+00 
54800 4.0125750348e+00 -4.5062073543e-05 2.4675667277e+00 -4.2739509435e+00 2.4675667277e+00 4.2739509435e+00 
54900 4.0125750362e+00 -4.4193879573e-05 2.4675667277e+00 -4.2739509435e+00 2.4675667277e+00 4.2739509435e+00 
55000 4.0125750376e+00 -4.3360438704e-05 2.4675667277e+00 -4.2739509435e+00 2.4675667277e+00 4.2739509435e+00 
55100 4.0125750389e+00 -4.2562286530e-05 2.4675667277e+00 -4.2739509435e+00 2.4675667277e+00 4.2739509435e+00 
55200 4.0125750402e+00 -4.1799852606e-05 2.4675667277e+00 -4.2739509435e+00 2.4675667277e+00 4.2739509435e+00 
55300 4.0125750415e+00 -4.1073462195e-05 2.4675667277e+00 -4.2739509435e+00 2.4675667277e+00 4.2739509435e+00 
55400 4.0125750427e+00 -4.0383338198e-05 2.4675667277e+00 -4.2739509435e+00 2.4675667277e+00 4.2739509435e+00 
55500 4.0125750440e+00 -3.9729603339e-05 2.4675667277e+00 -4.2739509435e+00 2.4675667277e+00 4.2739509435e+00 
55600 4.0125750452e+00 -3.9112282537e-05 2.4675667277e+00 -4.2739509435e+00 2.4675667277e+00 4.2739509435e+00 
55700 4.0125750464e+00 -3.8531305495e-05 2.4675667277e+00 -4.2739509435e+00 2.4675667277e+00 4.2739509435e+00 
55800 4.0125750476e+00 -3.7986509486e-05 2.4675667277e+00 -4.2739509435e+00 2.4675667277e+00 4.2739509435e+00 
55900 4.0125750487e+00 -3.7477642323e-05 2.4675667277e+00 -4.2739509435e+00 2.4675667277e+00 4.2739509435e+00 
56000 4.0125750499e+00 -3.7004365487e-05 2.4675667277e+00 -4.2739509435e+00 2.4675667277e+00 4.2739509435e+00 
56100 4.0125750510e+00 -3.6566257447e-05 2.4675667277e+00 -4.2739509435e+00 2.4675667277e+00 4.2739509435e+00 
56200 4.0125750522e+00 -3.6162817123e-05 2.4675667277e+00 -4.2739509435e+00 2.4675667277e+00 4.2739509435e+00 
56300 4.0125750533e+00 -3.5793467463e-05 2.4675667277e+00 -4.2739509435e+00 2.4675667277e+00 4.2739509435e+00 
56400 4.0125750544e+00 -3.5457559191e-05 2.4675667277e+00 -4.2739509435e+00 2.4675667277e+00 4.2739509435e+00 
56500 4.0125750555e+00 -3.5154374641e-05 2.4675667277e+00 -4.2739509435e+00 2.4675667277e+00 4.2739509435e+00 
56600 4.0125750566e+00 -3.4883131689e-05 2.4675667277e+00 -4.2739509435e+00 2.4675667277e+00 4.2739509435e+00 
56700 4.0125750576e+00 -3.4642987792e-05 2.4675667277e+00 -4.2739509435e+00 2.4675667277e+00 4.2739509435e+00 
56800 4.0125750587e+00 -3.4433044083e-05 2.4675667277e+00 -4.2739509435e+00 2.4675667277e+00 4.2739509435e+00 
56900 4.0125750597e+00 -3.4252349539e-05 2.4675667277e+00 -4.2739509435e+00 2.4675667277e+00 4.2739509435e+00 
57000 4.0125750607e+00 -3.4099905183e-05 2.4675667277e+00 -4.2739509435e+00 2.4675667277e+00 4.2739509435e+00 
57100 4.0125750618e+00 -3.3974668331e-05 2.4675667277e+00 -4.2739509435e+00 2.4675667277e+00 4.2739509435e+00 
57200 4.0125750628e+00 -3.3875556842e-05 2.4675667277e+00 -4.2739509435e+00 2.4675667277e+00 4.2739509435e+00 
57300 4.0125750638e+00 -3.3801453398e-05 2.4675667277e+00 -4.2739509435e+00 2.4675667277e+00 4.2739509435e+00 
57400 4.0125750647e+00 -3.3751209742e-05 2.4675667277e+00 -4.2739509435e+00 2.4675667277e+00 4.2739509435e+00 
57500 4.0125750657e+00 -3.3723650929e-05 2.4675667277e+00 -4.2739509435e+00 2.4675667277e+00 4.2739509435e+00 
57600 4.0125750667e+00 -3.3717579527e-05 2.4675667277e+00 -4.2739509435e+00 2.4675667277e+00 4.2739509435e+00 
57700 4.0125750676e+00 -3.3731779760e-05 2.4675667277e+00 -4.2739509435e+00 2.4675667277e+00 4.2739509435e+00 
57800 4.0125750685e+00 -3.3765021632e-05 2.4675667277e+00 -4.2739509435e+00 2.4675667277e+00 4.2739509435e+00 
57900 4.0125750694e+00 -3.3816064932e-05 2.4675667277e+00 -4.2739509435e+00 2.4675667277e+00 4.2739509435e+00 
58000 4.0125750704e+00 -3.3883663205e-05 2.4675667277e+00 -4.2739509435e+00 2.4675667277e+00 4.2739509435e+00 
58100 4.0125750712e+00 -3.3966567600e-05 2.4675667277e+00 -4.2739509435e+00 2.4675667277e+00 4.2739509435e+00 
58200 4.0125750721e+00 -3.4063530633e-05 2.4675667277e+00 -4.2739509435e+00 2.4675667277e+00 4.2739509435e+00 
58300 4.0125750730e+00 -3.4173309838e-05 2.4675667277e+00 -4.2739509435e+00 2.4675667277e+00 4.2739509435e+00 
58400 4.0125750738e+00 -3.4294671298e-05 2.4675667277e+00 -4.2739509435e+00 2.4675667277e+00 4.2739509435e+00 
58500 4.0125750746e+00 -3.4426393052e-05 2.4675667277e+00 -4.2739509435e+00 2.4675667277e+00 4.2739509435e+00 
58600 4.0125750755e+00 -3.4567268363e-05 2.4675667277e+00 -4.2739509435e+00 2.4675667277e+00 4.2739509435e+00 
58700 4.0125750763e+00 -3.4716108852e-05 2.4675667277e+00 -4.2739509435e+00 2.4675667277e+00 4.2739509435e+00 
58800 4.0125750771e+00 -3.4871747480e-05 2.4675667277e+00 -4.2739509435e+00 2.4675667277e+00 4.2739509435e+00 
58900 4.0125750778e+00 -3.5033041377e-05 2.4675667277e+00 -4.2739509435e+00 2.4675667277e+00 4.2739509435e+00 
59000 4.0125750786e+00 -3.5198874520e-05 2.4675667277e+00 -4.2739509435e+00 2.4675667277e+00 4.2739509435e+00 
59100 4.0125750793e+00 -3.5368160236e-05 2.4675667277e+00 -4.2739509435e+00 2.4675667277e+00 4.2739509435e+00 
59200 4.0125750801e+00 -3.5539843561e-05 2.4675667277e+00 -4.2739509435e+00 2.4675667277e+00 4.2739509435e+00 
59300 4.0125750808e+00 -3.5712903399e-05 2.4675667277e+00 -4.2739509435e+00 2.4675667277e+00 4.2739509435e+00 
59400 4.0125750815e+00 -3.5886354549e-05 2.4675667277e+00 -4.2739509435e+00 2.4675667277e+00 4.2739509435e+00 
59500 4.0125750822e+00 -3.6059249522e-05 2.4675667277e+00 -4.2739509435e+00 2.4675667277e+00 4.2739509435e+00 
59600 4.0125750829e+00 -3.6230680221e-05 2.4675667277e+00 -4.2739509435e+00 2.4675667277e+00 4.2739509435e+00 
59700 4.0125750835e+00 -3.6399779405e-05 2.4675667277e+00 -4.2739509435e+00 2.4675667277e+00 4.2739509435e+00 
59800 4.0125750842e+00 -3.6565722032e-05 2.4675667277e+00 -4.2739509435e+00 2.4675667277e+00 4.2739509435e+00 
59900 4.0125750848e+00 -3.6727726371e-05 2.4675667277e+00 -4.2739509435e+00 2.4675667277e+00 4.2739509435e+00 
60000 4.0125750854e+00 -3.6885054988e-05 2.4675667277e+00 -4.2739509435e+00 2.4675667277e+00 4.2739509435e+00 
60100 4.0125750861e+00 -3.7037015554e-05 2.4675667277e+00 -4.2739509435e+00 2.4675667277e+00 4.2739509435e+00 
60200 4.0125750867e+00 -3.7182961453e-05 2.4675667277e+00 -4.2739509435e+00 2.4675667277e+00 4.2739509435e+00 
60300 4.0125750873e+00 -3.7322292279e-05 2.4675667277e+00 -4.2739509435e+00 2.4675667277e+00 4.2739509435e+00 
60400 4.0125750879e+00 -3.7454454120e-05 2.4675667277e+00 -4.2739509435e+00 2.4675667277e+00 4.2739509435e+00 
60500 4.0125750884e+00 -3.7578939728e-05 2.4675667277e+00 -4.2739509435e+00 2.4675667277e+00 4.2739509435e+00 
60600 4.0125750890e+00 -3.7695288502e-05 2.4675667277e+00 -4.2739509435e+00 2.4675667277e+00 4.2739509435e+00 
60700 4.0125750896e+00 -3.7803086347e-05 2.4675667277e+00 -4.2739509435e+00 2.4675667277e+00 4.2739509435e+00 
60800 4.0125750901e+00 -3.7901965372e-05 2.4675667277e+00 -4.2739509435e+00 2.4675667277e+00 4.2739509435e+00 
60900 4.0125750906e+00 -3.7991603468e-05 2.4675667277e+00 -4.2739509435e+00 2.4675667277e+00 4.2739509435e+00 
61000 4.0125750912e+00 -3.8071723733e-05 2.4675667277e+00 -4.2739509435e+00 2.4675667277e+00 4.2739509435e+00 
61100 4.0125750917e+00 -3.8142093787e-05 2.4675667277e+00 -4.2739509435e+00 2.4675667277e+00 4.2739509435e+00 
61200 4.0125750922e+00 -3.8202524962e-05 2.4675667277e+00 -4.2739509435e+00 2.4675667277e+00 4.2739509435e+00 
61300 4.0125750927e+00 -3.8252871375e-05 2.4675667277e+00 -4.2739509435e+00 2.4675667277e+00 4.2739509435e+00 
61400 4.0125750932e+00 -3.8293028889e-05 2.4675667277e+00 -4.2739509435e+00 2.4675667277e+00 4.2739509435e+00 
61500 4.0125750937e+00 -3.8322933984e-05 2.4675667277e+00 -4.2739509435e+00 2.4675667277e+00 4.2739509435e+00 
61600 4.0125750942e+00 -3.8342562536e-05 2.4675667277e+00 -4.2739509435e+00 2.4675667277e+00 4.2739509435e+00 
61700 4.0125750947e+00 -3.8351928490e-05 2.4675667277e+00 -4.2739509435e+00 2.4675667277e+00 4.2739509435e+00 
61800 4.0125750952e+00 -3.8351082478e-05 2.4675667277e+00 -4.2739509435e+00 2.4675667277e+00 4.2739509435e+00 
61900 4.0125750956e+00 -3.8340110340e-05 2.4675667277e+00 -4.2739509435e+00 2.4675667277e+00 4.2739509435e+00 
62000 4.0125750961e+00 -3.8319131597e-05 2.4675667277e+00 -4.2739509435e+00 2.4675667277e+00 4.2739509435e+00 
62100 4.0125750965e+00 -3.8288297865e-05 2.4675667277e+00 -4.2739509435e+00 2.4675667277e+00 4.2739509435e+00 
62200 4.0125750970e+00 -3.8247791198e-05 2.4675667277e+00 -4.2739509435e+00 2.4675667277e+00 4.2739509435e+00 
62300 4.0125750974e+00 -3.8197822415e-05 2.4675667277e+00 -4.2739509435e+00 2.4675667277e+00 4.2739509435e+00 
62400 4.0125750979e+00 -3.8138629364e-05 2.4675667277e+00 -4.2739509435e+00 2.4675667277e+00 4.2739509435e+00 
62500 4.0125750983e+00 -3.8070475180e-05 2.4675667277e+00 -4.2739509435e+00 2.4675667277e+00 4.2739509435e+00 
62600 4.0125750987e+00 -3.7993646483e-05 2.4675667277e+00 -4.2739509435e+00 2.4675667277e+00 4.2739509435e+00 
62700 4.0125750991e+00 -3.7908451609e-05 2.4675667277e+00 -4.2739509435e+00 2.4675667277e+00 4.2739509435e+00 
62800 4.0125750995e+00 -3.7815218784e-05 2.4675667277e+00 -4.2739509435e+00 2.4675667277e+00 4.2739509435e+00 
62900 4.0125750999e+00 -3.7714294318e-05 2.4675667277e+00 -4.2739509435e+00 2.4675667277e+00 4.2739509435e+00 
63000 4.0125751003e+00 -3.7606040796e-05 2.4675667277e+00 -4.2739509435e+00 2.4675667277e+00 4.2739509435e+00 
63100 4.0125751007e+00 -3.7490835277e-05 2.4675667277e+00 -4.2739509435e+00 2.4675667277e+00 4.2739509435e+00 
63200 4.0125751011e+00 -3.7369067506e-05 2.4675667277e+00 -4.2739509435e+00 2.4675667277e+00 4.2739509435e+00 
63300 4.0125751015e+00 -3.7241138135e-05 2.4675667277e+00 -4.2739509435e+00 2.4675667277e+00 4.2739509435e+00 
63400 4.0125751019e+00 -3.7107456994e-05 2.4675667277e+00 -4.2739509435e+00 2.4675667277e+00 4.2739509435e+00 
63500 4.0125751023e+00 -3.6968441358e-05 2.4675667277e+00 -4.2739509435e+00 2.4675667277e+00 4.2739509435e+00 
63600 4.0125751026e+00 -3.6824514279e-05 2.4675667277e+00 -4.2739509435e+00 2.4675667277e+00 4.2739509435e+00 
63700 4.0125751030e+00 -3.6676102929e-05 2.4675667277e+00 -4.2739509435e+00 2.4675667277e+00 4.2739509435e+00 
63800 4.0125751033e+00 -3.6523637008e-05 2.4675667277e+00 -4.2739509435e+00 2.4675667277e+00 4.2739509435e+00 
63900 4.0125751037e+00 -3.6367547182e-05 2.4675667277e+00 -4.2739509435e+00 2.4675667277e+00 4.2739509435e+00 
64000 4.0125751040e+00 -3.6208263588e-05 2.4675667277e+00 -4.2739509435e+00 2.4675667277e+00 4.2739509435e+00 
64100 4.0125751044e+00 -3.6046214365e-05 2.4675667277e+00 -4.2739509435e+00 2.4675667277e+00 4.2739509435e+00 
64200 4.0125751047e+00 -3.5881824275e-05 2.4675667277e+00 -4.2739509435e+00 2.4675667277e+00 4.2739509435e+00 
64300 4.0125751050e+00 -3.5715513363e-05 2.4675667277e+00 -4.2739509435e+00 2.4675667277e+00 4.2739509435e+00 
64400 4.0125751054e+00 -3.5547695676e-05 2.4675667277e+00 -4.2739509435e+00 2.4675667277e+00 4.2739509435e+00 
64500 4.0125751057e+00 -3.5378778065e-05 2.4675667277e+00 -4.2739509435e+00 2.4675667277e+00 4.2739509435e+00 
64600 4.0125751060e+00 -3.5209159027e-05 2.4675667277e+00 -4.2739509435e+00 2.4675667277e+00 4.2739509435e+00 
64700 4.0125751063e+00 -3.5039227639e-05 2.4675667277e+00 -4.2739509435e+00 2.4675667277e+00 4.2739509435e+00 
64800 4.0125751066e+00 -3.4869362539e-05 2.4675667277e+00 -4.2739509435e+00 2.4675667277e+00 4.2739509435e+00 
64900 4.0125751069e+00 -3.4699931002e-05 2.4675667277e+00 -4.2739509435e+00 2.4675667277e+00 4.2739509435e+00 
65000 4.0125751072e+00 -3.4531288060e-05 2.4675667277e+00 -4.2739509435e+00 2.4675667277e+00 4.2739509435e+00 
65100 4.0125751075e+00 -3.4363775709e-05 2.4675667277e+00 -4.2739509435e+00 2.4675667277e+00 4.2739509435e+00 
65200 4.0125751078e+00 -3.4197722187e-05 2.4675667277e+00 -4.2739509435e+00 2.4675667277e+00 4.2739509435e+00 
65300 4.0125751080e+00 -3.4033441313e-05 2.4675667277e+00 -4.2739509435e+00 2.4675667277e+00 4.2739509435e+00 
65400 4.0125751083e+00 -3.3871231916e-05 2.4675667277e+00 -4.2739509435e+00 2.4675667277e+00 4.2739509435e+00 
65500 4.0125751086e+00 -3.3711377311e-05 2.4675667277e+00 -4.2739509435e+00 2.4675667277e+00 4.2739509435e+00 
65600 4.0125751089e+00 -3.3554144864e-05 2.4675667277e+00 -4.2739509435e+00 2.4675667277e+00 4.2739509435e+00 
65700 4.0125751091e+00 -3.3399785618e-05 2.4675667277e+00 -4.2739509435e+00 2.4675667277e+00 4.2739509435e+00 
65800 4.0125751094e+00 -3.3248533992e-05 2.4675667277e+00 -4.2739509435e+00 2.4675667277e+00 4.2739509435e+00 
65900 4.0125751096e+00 -3.3100607536e-05 2.4675667277e+00 -4.2739509435e+00 2.4675667277e+00 4.2739509435e+00 
66000 4.0125751099e+00 -3.2956206767e-05 2.4675667277e+00 -4.2739509435e+00 2.4675667277e+00 4.2739509435e+00 
66100 4.0125751101e+00 -3.2815515049e-05 2.4675667277e+00 -4.2739509435e+00 2.4675667277e+00 4.2739509435e+00 
66200 4.0125751104e+00 -3.2678698560e-05 2.4675667277e+00 -4.2739509435e+00 2.4675667277e+00 4.2739509435e+00 
66300 4.0125751106e+00 -3.2545906297e-05 2.4675667277e+00 -4.2739509435e+00 2.4675667277e+00 4.2739509435e+00 
66400 4.0125751108e+00 -3.2417270152e-05 2.4675667277e+00 -4.2739509435e+00 2.4675667277e+00 4.2739509435e+00 
66500 4.0125751111e+00 -3.2292905025e-05 2.4675667277e+00 -4.2739509435e+00 2.4675667277e+00 4.2739509435e+00 
66600 4.0125751113e+00 -3.2172909029e-05 2.4675667277e+00 -4.2739509435e+00 2.4675667277e+00 4.2739509435e+00 
66700 4.0125751115e+00 -3.2057363693e-05 2.4675667277e+00 -4.2739509435e+00 2.4675667277e+00 4.2739509435e+00 
66800 4.0125751117e+00 -3.1946334265e-05 2.4675667277e+00 -4.2739509435e+00 2.4675667277e+00 4.2739509435e+00 
66900 4.0125751120e+00 -3.1839870018e-05 2.4675667277e+00 -4.2739509435e+00 2.4675667277e+00 4.2739509435e+00 
67000 4.0125751122e+00 -3.1738004629e-05 2.4675667277e+00 -4.2739509435e+00 2.4675667277e+00 4.2739509435e+00 
67100 4.0125751124e+00 -3.1640756589e-05 2.4675667277e+00 -4.2739509435e+00 2.4675667277e+00 4.2739509435e+00 
67200 4.0125751126e+00 -3.1548129637e-05 2.4675667277e+00 -4.2739509435e+00 2.4675667277e+00 4.2739509435e+00 
67300 4.0125751128e+00 -3.1460113258e-05 2.4675667277e+00 -4.2739509435e+00 2.4675667277e+00 4.2739509435e+00 
67400 4.0125751130e+00 -3.1376683179e-05 2.4675667277e+00 -4.2739509435e+00 2.4675667277e+00 4.2739509435e+00 
67500 4.0125751132e+00 -3.1297801920e-05 2.4675667277e+00 -4.2739509435e+00 2.4675667277e+00 4.2739509435e+00 
67600 4.0125751134e+00 -3.1223419363e-05 2.4675667277e+00 -4.2739509435e+00 2.4675667277e+00 4.2739509435e+00 
67700 4.0125751136e+00 -3.1153473340e-05 2.4675667277e+00 -4.2739509435e+00 2.4675667277e+00 4.2739509435e+00 
67800 4.0125751138e+00 -3.1087890248e-05 2.4675667277e+00 -4.2739509435e+00 2.4675667277e+00 4.2739509435e+00 
67900 4.0125751140e+00 -3.1026585675e-05 2.4675667277e+00 -4.2739509435e+00 2.4675667277e+00 4.2739509435e+00 
68000 4.0125751142e+00 -3.0969465054e-05 2.4675667277e+00 -4.2739509435e+00 2.4675667277e+00 4.2739509435e+00 
68100 4.0125751144e+00 -3.0916424309e-05 2.4675667277e+00 -4.2739509435e+00 2.4675667277e+00 4.2739509435e+00 
68200 4.0125751145e+00 -3.0867350538e-05 2.4675667277e+00 -4.2739509435e+00 2.4675667277e+00 4.2739509435e+00 
68300 4.0125751147e+00 -3.0822122674e-05 2.4675667277e+00 -4.2739509435e+00 2.4675667277e+00 4.2739509435e+00 
68400 4.0125751149e+00 -3.0780612168e-05 2.4675667277e+00 -4.2739509435e+00 2.4675667277e+00 4.2739509435e+00 
68500 4.0125751151e+00 -3.0742683679e-05 2.4675667277e+00 -4.2739509435e+00 2.4675667277e+00 4.2739509435e+00 
68600 4.0125751152e+00 -3.0708195744e-05 2.4675667277e+00 -4.2739509435e+00 2.4675667277e+00 4.2739509435e+00 
68700 4.0125751154e+00 -3.0677001463e-05 2.4675667277e+00 -4.2739509435e+00 2.4675667277e+00 4.2739509435e+00 
68800 4.0125751156e+00 -3.0648949172e-05 2.4675667277e+00 -4.2739509435e+00 2.4675667277e+00 4.2739509435e+00 
68900 4.0125751157e+00 -3.0623883113e-05 2.4675667277e+00 -4.2739509435e+00 2.4675667277e+00 4.2739509435e+00 
69000 4.0125751159e+00 -3.0601644089e-05 2.4675667277e+00 -4.2739509435e+00 2.4675667277e+00 4.2739509435e+00 
69100 4.0125751161e+00 -3.0582070110e-05 2.4675667277e+00 -4.2739509435e+00 2.4675667277e+00 4.2739509435e+00 
69200 4.0125751162e+00 -3.0564997033e-05 2.4675667277e+00 -4.2739509435e+00 2.4675667277e+00 4.2739509435e+00 
69300 4.0125751164e+00 -3.0550259178e-05 2.4675667277e+00 -4.2739509435e+00 2.4675667277e+00 4.2739509435e+00 
69400 4.0125751165e+00 -3.0537689937e-05 2.4675667277e+00 -4.2739509435e+00 2.4675667277e+00 4.2739509435e+00 
69500 4.0125751167e+00 -3.0527122356e-05 2.4675667277e+00 -4.2739509435e+00 2.4675667277e+00 4.2739509435e+00 
69600 4.0125751168e+00 -3.0518389705e-05 2.4675667277e+00 -4.2739509435e+00 2.4675667277e+00 4.2739509435e+00 
69700 4.0125751170e+00 -3.0511326029e-05 2.4675667277e+00 -4.2739509435e+00 2.4675667277e+00 4.2739509435e+00 
69800 4.0125751171e+00 -3.0505766668e-05 2.4675667277e+00 -4.2739509435e+00 2.4675667277e+00 4.2739509435e+00 
69900 4.0125751172e+00 -3.0501548769e-05 2.4675667277e+00 -4.2739509435e+00 2.4675667277e+00 4.2739509435e+00 
70000 4.0125751174e+00 -3.0498511761e-05 2.4675667277e+00 -4.2739509435e+00 2.4675667277e+00 4.2739509435e+00 
70100 4.0125751175e+00 -3.0496497810e-05 2.4675667277e+00 -4.2739509435e+00 2.4675667277e+00 4.2739509435e+00 
70200 4.0125751176e+00 -3.0495352256e-05 2.4675667277e+00 -4.2739509435e+00 2.4675667277e+00 4.2739509435e+00 
70300 4.0125751178e+00 -3.0494924017e-05 2.4675667277e+00 -4.2739509435e+00 2.4675667277e+00 4.2739509435e+00 
70400 4.0125751179e+00 -3.0495065968e-05 2.4675667277e+00 -4.2739509435e+00 2.4675667277e+00 4.2739509435e+00 
70500 4.0125751180e+00 -3.0495635296e-05 2.4675667277e+00 -4.2739509435e+00 2.4675667277e+00 4.2739509435e+00 
70600 4.0125751182e+00 -3.0496493823e-05 2.4675667277e+00 -4.2739509435e+00 2.4675667277e+00 4.2739509435e+00 
70700 4.0125751183e+00 -3.0497508313e-05 2.4675667277e+00 -4.2739509435e+00 2.4675667277e+00 4.2739509435e+00 
70800 4.0125751184e+00 -3.0498550737e-05 2.4675667277e+00 -4.2739509435e+00 2.4675667277e+00 4.2739509435e+00 
70900 4.0125751185e+00 -3.0499498523e-05 2.4675667277e+00 -4.2739509435e+00 2.4675667277e+00 4.2739509435e+00 
71000 4.0125751187e+00 -3.0500234774e-05 2.4675667277e+00 -4.2739509435e+00 2.4675667277e+00 4.2739509435e+00 
71100 4.0125751188e+00 -3.0500648464e-05 2.4675667277e+00 -4.2739509435e+00 2.4675667277e+00 4.2739509435e+00 
71200 4.0125751189e+00 -3.0500634596e-05 2.4675667277e+00 -4.2739509435e+00 2.4675667277e+00 4.2739509435e+00 
71300 4.0125751190e+00 -3.0500094344e-05 2.4675667277e+00 -4.2739509435e+00 2.4675667277e+00 4.2739509435e+00 
71400 4.0125751191e+00 -3.0498935172e-05 2.4675667277e+00 -4.2739509435e+00 2.4675667277e+00 4.2739509435e+00 
71500 4.0125751192e+00 -3.0497070915e-05 2.4675667277e+00 -4.2739509435e+00 2.4675667277e+00 4.2739509435e+00 
71600 4.0125751193e+00 -3.0494421848e-05 2.4675667277e+00 -4.2739509435e+00 2.4675667277e+00 4.2739509435e+00 
71700 4.0125751194e+00 -3.0490914726e-05 2.4675667277e+00 -4.2739509435e+00 2.4675667277e+00 4.2739509435e+00 
71800 4.0125751196e+00 -3.0486482793e-05 2.4675667277e+00 -4.2739509435e+00 2.4675667277e+00 4.2739509435e+00 
71900 4.0125751197e+00 -3.0481065790e-05 2.4675667277e+00 -4.2739509435e+00 2.4675667277e+00 4.2739509435e+00 
72000 4.0125751198e+00 -3.0474609905e-05 2.4675667277e+00 -4.2739509435e+00 2.4675667277e+00 4.2739509435e+00 
72100 4.0125751199e+00 -3.0467067748e-05 2.4675667277e+00 -4.2739509435e+00 2.4675667277e+00 4.2739509435e+00 
72200 4.0125751200e+00 -3.0458398271e-05 2.4675667277e+00 -4.2739509435e+00 2.4675667277e+00 4.2739509435e+00 
72300 4.0125751201e+00 -3.0448566673e-05 2.4675667277e+00 -4.2739509435e+00 2.4675667277e+00 4.2739509435e+00 
72400 4.0125751202e+00 -3.0437544306e-05 2.4675667277e+00 -4.2739509435e+00 2.4675667277e+00 4.2739509435e+00 
72500 4.0125751203e+00 -3.0425308545e-05 2.4675667277e+00 -4.2739509435e+00 2.4675667277e+00 4.2739509435e+00 
72600 4.0125751203e+00 -3.0411842648e-05 2.4675667277e+00 -4.2739509435e+00 2.4675667277e+00 4.2739509435e+00 
72700 4.0125751204e+00 -3.0397135600e-05 2.4675667277e+00 -4.2739509435e+00 2.4675667277e+00 4.2739509435e+00 
72800 4.0125751205e+00 -3.0381181955e-05 2.4675667277e+00 -4.2739509435e+00 2.4675667277e+00 4.2739509435e+00 
72900 4.0125751206e+00 -3.0363981633e-05 2.4675667277e+00 -4.2739509435e+00 2.4675667277e+00 4.2739509435e+00 
73000 4.0125751207e+00 -3.0345539748e-05 2.4675667277e+00 -4.2739509435e+00 2.4675667277e+00 4.2739509435e+00 
73100 4.0125751208e+00 -3.0325866384e-05 2.4675667277e+00 -4.2739509435e+00 2.4675667277e+00 4.2739509435e+00 
73200 4.0125751209e+00 -3.0304976394e-05 2.4675667277e+00 -4.2739509435e+00 2.4675667277e+00 4.2739509435e+00 
73300 4.0125751210e+00 -3.0282889171e-05 2.4675667277e+00 -4.2739509435e+00 2.4675667277e+00 4.2739509435e+00 
73400 4.0125751211e+00 -3.0259628417e-05 2.4675667277e+00 -4.2739509435e+00 2.4675667277e+00 4.2739509435e+00 
73500 4.0125751211e+00 -3.0235221904e-05 2.4675667277e+00 -4.2739509435e+00 2.4675667277e+00 4.2739509435e+00 
73600 4.0125751212e+00 -3.0209701228e-05 2.4675667277e+00 -4.2739509435e+00 2.4675667277e+00 4.2739509435e+00 
73700 4.0125751213e+00 -3.0183101568e-05 2.4675667277e+00 -4.2739509435e+00 2.4675667277e+00 4.2739509435e+00 
73800 4.0125751214e+00 -3.0155461428e-05 2.4675667277e+00 -4.2739509435e+00 2.4675667277e+00 4.2739509435e+00 
73900 4.0125751215e+00 -3.0126822389e-05 2.4675667277e+00 -4.2739509435e+00 2.4675667277e+00 4.2739509435e+00 
74000 4.0125751215e+00 -3.0097228841e-05 2.4675667277e+00 -4.2739509435e+00 2.4675667277e+00 4.2739509435e+00 
74100 4.0125751216e+00 -3.0066727738e-05 2.4675667277e+00 -4.2739509435e+00 2.4675667277e+00 4.2739509435e+00 
74200 4.0125751217e+00 -3.0035368340e-05 2.4675667277e+00 -4.2739509435e+00 2.4675667277e+00 4.2739509435e+00 
74300 4.0125751218e+00 -3.0003201947e-05 2.4675667277e+00 -4.2739509435e+00 2.4675667277e+00 4.2739509435e+00 
74400 4.0125751218e+00 -2.9970281661e-05 2.4675667277e+00 -4.2739509435e+00 2.4675667277e+00 4.2739509435e+00 
74500 4.0125751219e+00 -2.9936662121e-05 2.4675667277e+00 -4.2739509435e+00 2.4675667277e+00 4.2739509435e+00 
74600 4.0125751220e+00 -2.9902399261e-05 2.4675667277e+00 -4.2739509435e+00 2.4675667277e+00 4.2739509435e+00 
74700 4.0125751221e+00 -2.9867550073e-05 2.4675667277e+00 -4.2739509435e+00 2.4675667277e+00 4.2739509435e+00 
74800 4.0125751221e+00 -2.9832172356e-05 2.4675667277e+00 -4.2739509435e+00 2.4675667277e+00 4.2739509435e+00 
74900 4.0125751222e+00 -2.9796324491e-05 2.4675667277e+00 -4.2739509435e+00 2.4675667277e+00 4.2739509435e+00 
75000 4.0125751223e+00 -2.9760065210e-05 2.4675667277e+00 -4.2739509435e+00 2.4675667277e+00 4.2739509435e+00 
75100 4.0125751223e+00 -2.9723453387e-05 2.4675667277e+00 -4.2739509435e+00 2.4675667277e+00 4.2739509435e+00 
75200 4.0125751224e+00 -2.9686547802e-05 2.4675667277e+00 -4.2739509435e+00 2.4675667277e+00 4.2739509435e+00 
75300 4.0125751225e+00 -2.9649406962e-05 2.4675667277e+00 -4.2739509435e+00 2.4675667277e+00 4.2739509435e+00 
75400 4.0125751225e+00 -2.9612088882e-05 2.4675667277e+00 -4.2739509435e+00 2.4675667277e+00 4.2739509435e+00 
75500 4.0125751226e+00 -2.9574650915e-05 2.4675667277e+00 -4.2739509435e+00 2.4675667277e+00 4.2739509435e+00 
75600 4.0125751226e+00 -2.9537149548e-05 2.4675667277e+00 -4.2739509435e+00 2.4675667277e+00 4.2739509435e+00 
75700 4.0125751227e+00 -2.9499640263e-05 2.4675667277e+00 -4.2739509435e+00 2.4675667277e+00 4.2739509435e+00 
75800 4.0125751228e+00 -2.9462177344e-05 2.4675667277e+00 -4.2739509435e+00 2.4675667277e+00 4.2739509435e+00 
75900 4.0125751228e+00 -2.9424813750e-05 2.4675667277e+00 -4.2739509435e+00 2.4675667277e+00 4.2739509435e+00 
76000 4.0125751229e+00 -2.9387600954e-05 2.4675667277e+00 -4.2739509435e+00 2.4675667277e+00 4.2739509435e+00 
76100 4.0125751229e+00 -2.9350588825e-05 2.4675667277e+00 -4.2739509435e+00 2.4675667277e+00 4.2739509435e+00 
76200 4.0125751230e+00 -2.9313825501e-05 2.4675667277e+00 -4.2739509435e+00 2.4675667277e+00 4.2739509435e+00 
76300 4.0125751230e+00 -2.9277357274e-05 2.4675667277e+00 -4.2739509435e+00 2.4675667277e+00 4.2739509435e+00 
76400 4.0125751231e+00 -2.9241228498e-05 2.4675667277e+00 -4.2739509435e+00 2.4675667277e+00 4.2739509435e+00 
76500 4.0125751232e+00 -2.9205481488e-05 2.4675667277e+00 -4.2739509435e+00 2.4675667277e+00 4.2739509435e+00 
76600 4.0125751232e+00 -2.9170156442e-05 2.4675667277e+00 -4.2739509435e+00 2.4675667277e+00 4.2739509435e+00 
76700 4.0125751233e+00 -2.9135291369e-05 2.4675667277e+00 -4.2739509435e+00 2.4675667277e+00 4.2739509435e+00 
76800 4.0125751233e+00 -2.9100922041e-05 2.4675667277e+00 -4.2739509435e+00 2.4675667277e+00 4.2739509435e+00 
76900 4.0125751234e+00 -2.9067081914e-05 2.4675667277e+00 -4.2739509435e+00 2.4675667277e+00 4.2739509435e+00 
77000 4.0125751234e+00 -2.9033802113e-05 2.4675667277e+00 -4.2739509435e+00 2.4675667277e+00 4.2739509435e+00 
77100 4.0125751235e+00 -2.9002809620e-05 2.4675667277e+00 -4.2739509435e+00 2.4675667277e+00 4.2739509435e+00 
77100 4.0125751235e+00 -2.9002809619e-05 2.4675667277e+00 -4.2739509435e+00 2.4675667277e+00 4.2739509435e+00 
