# step Hamiltonian StressXX CellTensor1 CellTensor2 CellTensor3 CellTensor4 
0 5.7465715112e+00 5.1253753519e-02 2.2220832177e+00 -3.8487610317e+00 2.2220832177e+00 3.8487610317e+00 
100 5.7251633318e+00 5.9129131650e-02 2.2220832177e+00 -3.8487610317e+00 2.2220832177e+00 3.8487610317e+00 
200 5.7041529569e+00 6.5873031644e-02 2.2207528619e+00 -3.8464567878e+00 2.2207528619e+00 3.8464567878e+00 
300 5.6836270312e+00 7.1933225588e-02 2.2192699032e+00 -3.8438882280e+00 2.2192699032e+00 3.8438882280e+00 
400 5.6636119790e+00 7.7364248338e-02 2.2176494499e+00 -3.8410815206e+00 2.2176494499e+00 3.8410815206e+00 
500 5.6441286295e+00 8.2214082168e-02 2.2159053939e+00 -3.8380607269e+00 2.2159053939e+00 3.8380607269e+00 
600 5.6251930405e+00 8.6525262340e-02 2.2140505628e+00 -3.8348480654e+00 2.2140505628e+00 3.8348480654e+00 
700 5.6068171735e+00 9.0335787239e-02 2.2120968467e+00 -3.8314641298e+00 2.2120968467e+00 3.8314641298e+00 
800 5.5890094478e+00 9.3679863547e-02 2.2100553024e+00 -3.8279280713e+00 2.2100553024e+00 3.8279280713e+00 
900 5.5717751977e+00 9.6588513739e-02 2.2079362406e+00 -3.8242577485e+00 2.2079362406e+00 3.8242577485e+00 
1000 5.5551170536e+00 9.9090069691e-02 2.2057492990e+00 -3.8204698546e+00 2.2057492990e+00 3.8204698546e+00 
1100 5.5390352624e+00 1.0121057288e-01 2.2035035036e+00 -3.8165800228e+00 2.2035035036e+00 3.8165800228e+00 
1200 5.5235279612e+00 1.0297409849e-01 2.2012073199e+00 -3.8126029161e+00 2.2012073199e+00 3.8126029161e+00 
1300 5.5085914128e+00 1.0440301793e-01 2.1988686978e+00 -3.8085523038e+00 2.1988686978e+00 3.8085523038e+00 
1400 5.4942202131e+00 1.0551821182e-01 2.1964951088e+00 -3.8044411270e+00 2.1964951088e+00 3.8044411270e+00 
1500 5.4804074746e+00 1.0633924332e-01 2.1940935792e+00 -3.8002815558e+00 2.1940935792e+00 3.8002815558e+00 
1600 5.4671449930e+00 1.0688449985e-01 2.1916707189e+00 -3.7960850386e+00 2.1916707189e+00 3.7960850386e+00 
1700 5.4544233975e+00 1.0717130975e-01 2.1892327464e+00 -3.7918623464e+00 2.1892327464e+00 3.7918623464e+00 
1800 5.4422322903e+00 1.0721603913e-01 2.1867855119e+00 -3.7876236119e+00 2.1867855119e+00 3.7876236119e+00 
1900 5.4305603754e+00 1.0703417308e-01 2.1843345174e+00 -3.7833783649e+00 2.1843345174e+00 3.7833783649e+00 
2000 5.4193955786e+00 1.0664038451e-01 2.1818849352e+00 -3.7791355640e+00 2.1818849352e+00 3.7791355640e+00 
2100 5.4087251602e+00 1.0604859339e-01 2.1794416245e+00 -3.7749036258e+00 2.1794416245e+00 3.7749036258e+00 
2200 5.3985358201e+00 1.0527201815e-01 2.1770091473e+00 -3.7706904517e+00 2.1770091473e+00 3.7706904517e+00 
2300 5.3888137966e+00 1.0432322116e-01 2.1745917824e+00 -3.7665034528e+00 2.1745917824e+00 3.7665034528e+00 
2400 5.3795449588e+00 1.0321414922e-01 2.1721935387e+00 -3.7623495729e+00 2.1721935387e+00 3.7623495729e+00 
2500 5.3707148930e+00 1.0195617013e-01 2.1698181676e+00 -3.7582353095e+00 2.1698181676e+00 3.7582353095e+00 
2600 5.3623089833e+00 1.0056010610e-01 2.1674691747e+00 -3.7541667344e+00 2.1674691747e+00 3.7541667344e+00 
2700 5.3543124863e+00 9.9036264351e-02 2.1651498303e+00 -3.7501495121e+00 2.1651498303e+00 3.7501495121e+00 
2800 5.3467106004e+00 9.7394465550e-02 2.1628631800e+00 -3.7461889176e+00 2.1628631800e+00 3.7461889176e+00 
2900 5.3394885294e+00 9.5644070166e-02 2.1606120540e+00 -3.7422898530e+00 2.1606120540e+00 3.7422898530e+00 
3000 5.3326315411e+00 9.3794003117e-02 2.1583990764e+00 -3.7384568633e+00 2.1583990764e+00 3.7384568633e+00 
3100 5.3261250198e+00 9.1852776816e-02 2.1562266734e+00 -3.7346941510e+00 2.1562266734e+00 3.7346941510e+00 
3200 5.3199545152e+00 8.9828512766e-02 2.1540970819e+00 -3.7310055903e+00 2.1540970819e+00 3.7310055903e+00 
3300 5.3141057848e+00 8.7728961804e-02 2.1520123568e+00 -3.7273947404e+00 2.1520123568e+00 3.7273947404e+00 
3400 5.3085648327e+00 8.5561523069e-02 2.1499743782e+00 -3.7238648581e+00 2.1499743782e+00 3.7238648581e+00 
3500 5.3033179435e+00 8.3333261773e-02 2.1479848589e+00 -3.7204189095e+00 2.1479848589e+00 3.7204189095e+00 
3600 5.2983517115e+00 8.1050925820e-02 2.1460453501e+00 -3.7170595818e+00 2.1460453501e+00 3.7170595818e+00 
3700 5.2936530667e+00 7.8720961344e-02 2.1441572486e+00 -3.7137892941e+00 2.1441572486e+00 3.7137892941e+00 
3800 5.2892092959e+00 7.6349527191e-02 2.1423218021e+00 -3.7106102075e+00 2.1423218021e+00 3.7106102075e+00 
3900 5.2850080611e+00 7.3942508419e-02 2.1405401152e+00 -3.7075242352e+00 2.1405401152e+00 3.7075242352e+00 
4000 5.2810374134e+00 7.1505528841e-02 2.1388131549e+00 -3.7045330522e+00 2.1388131549e+00 3.7045330522e+00 
4100 5.2772858049e+00 6.9043962670e-02 2.1371417558e+00 -3.7016381041e+00 2.1371417558e+00 3.7016381041e+00 
4200 5.2737420967e+00 6.6562945309e-02 2.1355266253e+00 -3.6988406159e+00 2.1355266253e+00 3.6988406159e+00 
4300 5.2703955646e+00 6.4067383336e-02 2.1339683482e+00 -3.6961416009e+00 2.1339683482e+00 3.6961416009e+00 
4400 5.2672359024e+00 6.1561963723e-02 2.1324673919e+00 -3.6935418682e+00 2.1324673919e+00 3.6935418682e+00 
4500 5.2642532222e+00 5.9051162344e-02 2.1310241104e+00 -3.6910420313e+00 2.1310241104e+00 3.6910420313e+00 
4600 5.2614380535e+00 5.6539251813e-02 2.1296387493e+00 -3.6886425155e+00 2.1296387493e+00 3.6886425155e+00 
4700 5.2587813400e+00 5.4030308709e-02 2.1283114496e+00 -3.6863435651e+00 2.1283114496e+00 3.6863435651e+00 
4800 5.2562744346e+00 5.1528220214e-02 2.1270422525e+00 -3.6841452512e+00 2.1270422525e+00 3.6841452512e+00 
4900 5.2539090929e+00 4.9036690227e-02 2.1258311029e+00 -3.6820474786e+00 2.1258311029e+00 3.6820474786e+00 
5000 5.2516774659e+00 4.6559244988e-02 2.1246778539e+00 -3.6800499926e+00 2.1246778539e+00 3.6800499926e+00 
5100 5.2495720905e+00 4.4099238257e-02 2.1235822704e+00 -3.6781523863e+00 2.1235822704e+00 3.6781523863e+00 
5200 5.2475858802e+00 4.1659856087e-02 2.1225440331e+00 -3.6763541067e+00 2.1225440331e+00 3.6763541067e+00 
5300 5.2457121139e+00 3.9244121231e-02 2.1215627427e+00 -3.6746544618e+00 2.1215627427e+00 3.6746544618e+00 
5400 5.2439444249e+00 3.6854897219e-02 2.1206379228e+00 -3.6730526267e+00 2.1206379228e+00 3.6730526267e+00 
5500 5.2422767884e+00 3.4494892146e-02 2.1197690244e+00 -3.6715476505e+00 2.1197690244e+00 3.6715476505e+00 
5600 5.2407035092e+00 3.2166662197e-02 2.1189554290e+00 -3.6701384620e+00 2.1189554290e+00 3.6701384620e+00 
5700 5.2392192090e+00 2.9872614943e-02 2.1181964527e+00 -3.6688238764e+00 2.1181964527e+00 3.6688238764e+00 
5800 5.2378188130e+00 2.7615012447e-02 2.1174913491e+00 -3.6676026012e+00 2.1174913491e+00 3.6676026012e+00 
5900 5.2364975369e+00 2.5395974195e-02 2.1168393135e+00 -3.6664732424e+00 2.1168393135e+00 3.6664732424e+00 
6000 5.2352508734e+00 2.3217479884e-02 2.1162394859e+00 -3.6654343105e+00 2.1162394859e+00 3.6654343105e+00 
6100 5.2340745790e+00 2.1081372103e-02 2.1156909545e+00 -3.6644842262e+00 2.1156909545e+00 3.6644842262e+00 
6200 5.2329646610e+00 1.8989358905e-02 2.1151927592e+00 -3.6636213267e+00 2.1151927592e+00 3.6636213267e+00 
6300 5.2319173640e+00 1.6943016319e-02 2.1147438950e+00 -3.6628438711e+00 2.1147438950e+00 3.6628438711e+00 
6400 5.2309291574e+00 1.4943790798e-02 2.1143433150e+00 -3.6621500462e+00 2.1143433150e+00 3.6621500462e+00 
6500 5.2299967229e+00 1.2993001641e-02 2.1139899340e+00 -3.6615379724e+00 2.1139899340e+00 3.6615379724e+00 
6600 5.2291169421e+00 1.1091843392e-02 2.1136826315e+00 -3.6610057089e+00 2.1136826315e+00 3.6610057089e+00 
6700 5.2282868845e+00 9.2413882303e-03 2.1134202550e+00 -3.6605512594e+00 2.1134202550e+00 3.6605512594e+00 
6800 5.2275037962e+00 7.4425883790e-03 2.1132016229e+00 -3.6601725776e+00 2.1132016229e+00 3.6601725776e+00 
6900 5.2267650889e+00 5.6962785292e-03 2.1130255279e+00 -3.6598675721e+00 2.1130255279e+00 3.6598675721e+00 
7000 5.2260683289e+00 4.0031782975e-03 2.1128907397e+00 -3.6596341121e+00 2.1128907397e+00 3.6596341121e+00 
7100 5.2254112270e+00 2.3638947253e-03 2.1127960082e+00 -3.6594700322e+00 2.1127960082e+00 3.6594700322e+00 
7200 5.2247916293e+00 7.7892482645e-04 2.1127400661e+00 -3.6593731377e+00 2.1127400661e+00 3.6593731377e+00 
7300 5.2242075070e+00 -7.5134180779e-04 2.1127216321e+00 -3.6593412091e+00 2.1127216321e+00 3.6593412091e+00 
7400 5.2236569485e+00 -2.2266203431e-03 2.1127394135e+00 -3.6593720074e+00 2.1127394135e+00 3.6593720074e+00 
7500 5.2231381509e+00 -3.6467279699e-03 2.1127921088e+00 -3.6594632783e+00 2.1127921088e+00 3.6594632783e+00 
7600 5.2226494119e+00 -5.0115811012e-03 2.1128784106e+00 -3.6596127574e+00 2.1128784106e+00 3.6596127574e+00 
7700 5.2221891229e+00 -6.3211924992e-03 2.1129970078e+00 -3.6598181737e+00 2.1129970078e+00 3.6598181737e+00 
7800 5.2217557622e+00 -7.5756683282e-03 2.1131465884e+00 -3.6600772549e+00 2.1131465884e+00 3.6600772549e+00 
7900 5.2213478885e+00 -8.7752051338e-03 2.1133258418e+00 -3.6603877309e+00 2.1133258418e+00 3.6603877309e+00 
8000 5.2209641351e+00 -9.9200867494e-03 2.1135334612e+00 -3.6607473383e+00 2.1135334612e+00 3.6607473383e+00 
8100 5.2206032045e+00 -1.1010681130e-02 2.1137681457e+00 -3.6611538237e+00 2.1137681457e+00 3.6611538237e+00 
8200 5.2202638636e+00 -1.2047437119e-02 2.1140286025e+00 -3.6616049482e+00 2.1140286025e+00 3.6616049482e+00 
8300 5.2199449388e+00 -1.3030881144e-02 2.1143135492e+00 -3.6620984903e+00 2.1143135492e+00 3.6620984903e+00 
8400 5.2196453125e+00 -1.3961613854e-02 2.1146217153e+00 -3.6626322497e+00 2.1146217153e+00 3.6626322497e+00 
8500 5.2193639184e+00 -1.4840306694e-02 2.1149518447e+00 -3.6632040507e+00 2.1149518447e+00 3.6632040507e+00 
8600 5.2190997389e+00 -1.5667698435e-02 2.1153026971e+00 -3.6638117448e+00 2.1153026971e+00 3.6638117448e+00 
8700 5.2188518017e+00 -1.6444591641e-02 2.1156730497e+00 -3.6644532142e+00 2.1156730497e+00 3.6644532142e+00 
8800 5.2186191772e+00 -1.7171849109e-02 2.1160616989e+00 -3.6651263745e+00 2.1160616989e+00 3.6651263745e+00 
8900 5.2184009760e+00 -1.7850390267e-02 2.1164674621e+00 -3.6658291769e+00 2.1164674621e+00 3.6658291769e+00 
9000 5.2181963467e+00 -1.8481187544e-02 2.1168891785e+00 -3.6665596112e+00 2.1168891785e+00 3.6665596112e+00 
9100 5.2180044740e+00 -1.9065262721e-02 2.1173257111e+00 -3.6673157078e+00 2.1173257111e+00 3.6673157078e+00 
9200 5.2178245773e+00 -1.9603683267e-02 2.1177759474e+00 -3.6680955400e+00 2.1177759474e+00 3.6680955400e+00 
9300 5.2176559088e+00 -2.0097558674e-02 2.1182388009e+00 -3.6688972257e+00 2.1182388009e+00 3.6688972257e+00 
9400 5.2174977527e+00 -2.0548036788e-02 2.1187132117e+00 -3.6697189293e+00 2.1187132117e+00 3.6697189293e+00 
9500 5.2173494239e+00 -2.0956300164e-02 2.1191981480e+00 -3.6705588637e+00 2.1191981480e+00 3.6705588637e+00 
9600 5.2172102668e+00 -2.1323562426e-02 2.1196926066e+00 -3.6714152911e+00 2.1196926066e+00 3.6714152911e+00 
9700 5.2170796552e+00 -2.1651064665e-02 2.1201956137e+00 -3.6722865248e+00 2.1201956137e+00 3.6722865248e+00 
9800 5.2169569907e+00 -2.1940071874e-02 2.1207062254e+00 -3.6731709302e+00 2.1207062254e+00 3.6731709302e+00 
9900 5.2168417029e+00 -2.2191869423e-02 2.1212235286e+00 -3.6740669257e+00 2.1212235286e+00 3.6740669257e+00 
10000 5.2167332485e+00 -2.2407759591e-02 2.1217466413e+00 -3.6749729836e+00 2.1217466413e+00 3.6749729836e+00 
10100 5.2166311109e+00 -2.2589058161e-02 2.1222747131e+00 -3.6758876307e+00 2.1222747131e+00 3.6758876307e+00 
10200 5.2165347996e+00 -2.2737091080e-02 2.1228069251e+00 -3.6768094489e+00 2.1228069251e+00 3.6768094489e+00 
10300 5.2164438503e+00 -2.2853191199e-02 2.1233424907e+00 -3.6777370757e+00 2.1233424907e+00 3.6777370757e+00 
10400 5.2163578240e+00 -2.2938695099e-02 2.1238806553e+00 -3.6786692042e+00 2.1238806553e+00 3.6786692042e+00 
10500 5.2162763069e+00 -2.2994940000e-02 2.1244206966e+00 -3.6796045832e+00 2.1244206966e+00 3.6796045832e+00 
10600 5.2161989104e+00 -2.3023260782e-02 2.1249619246e+00 -3.6805420175e+00 2.1249619246e+00 3.6805420175e+00 
10700 5.2161252699e+00 -2.3024987091e-02 2.1255036811e+00 -3.6814803673e+00 2.1255036811e+00 3.6814803673e+00 
10800 5.2160550453e+00 -2.3001440572e-02 2.1260453401e+00 -3.6824185482e+00 2.1260453401e+00 3.6824185482e+00 
10900 5.2159879199e+00 -2.2953932207e-02 2.1265863073e+00 -3.6833555309e+00 2.1265863073e+00 3.6833555309e+00 
11000 5.2159236005e+00 -2.2883759770e-02 2.1271260197e+00 -3.6842903403e+00 2.1271260197e+00 3.6842903403e+00 
11100 5.2158618167e+00 -2.2792205413e-02 2.1276639457e+00 -3.6852220553e+00 2.1276639457e+00 3.6852220553e+00 
11200 5.2158023202e+00 -2.2680533372e-02 2.1281995838e+00 -3.6861498079e+00 2.1281995838e+00 3.6861498079e+00 
11300 5.2157448846e+00 -2.2549987807e-02 2.1287324634e+00 -3.6870727823e+00 2.1287324634e+00 3.6870727823e+00 
11400 5.2156893048e+00 -2.2401790769e-02 2.1292621430e+00 -3.6879902142e+00 2.1292621430e+00 3.6879902142e+00 
11500 5.2156353959e+00 -2.2237140309e-02 2.1297882105e+00 -3.6889013899e+00 2.1297882105e+00 3.6889013899e+00 
11600 5.2155829931e+00 -2.2057208714e-02 2.1303102823e+00 -3.6898056448e+00 2.1303102823e+00 3.6898056448e+00 
11700 5.2155319506e+00 -2.1863140882e-02 2.1308280027e+00 -3.6907023629e+00 2.1308280027e+00 3.6907023629e+00 
11800 5.2154821412e+00 -2.1656052837e-02 2.1313410431e+00 -3.6915909750e+00 2.1313410431e+00 3.6915909750e+00 
11900 5.2154334550e+00 -2.1437030376e-02 2.1318491015e+00 -3.6924709579e+00 2.1318491015e+00 3.6924709579e+00 
12000 5.2153857990e+00 -2.1207127852e-02 2.1323519015e+00 -3.6933418329e+00 2.1323519015e+00 3.6933418329e+00 
12100 5.2153390962e+00 -2.0967367092e-02 2.1328491916e+00 -3.6942031647e+00 2.1328491916e+00 3.6942031647e+00 
12200 5.2152932843e+00 -2.0718736445e-02 2.1333407447e+00 -3.6950545597e+00 2.1333407447e+00 3.6950545597e+00 
12300 5.2152483153e+00 -2.0462189967e-02 2.1338263568e+00 -3.6958956645e+00 2.1338263568e+00 3.6958956645e+00 
12400 5.2152041544e+00 -2.0198646723e-02 2.1343058465e+00 -3.6967261651e+00 2.1343058465e+00 3.6967261651e+00 
12500 5.2151607788e+00 -1.9928990222e-02 2.1347790541e+00 -3.6975457846e+00 2.1347790541e+00 3.6975457846e+00 
12600 5.2151181770e+00 -1.9654067970e-02 2.1352458405e+00 -3.6983542824e+00 2.1352458405e+00 3.6983542824e+00 
12700 5.2150763478e+00 -1.9374691139e-02 2.1357060866e+00 -3.6991514521e+00 2.1357060866e+00 3.6991514521e+00 
12800 5.2150352993e+00 -1.9091634356e-02 2.1361596925e+00 -3.6999371205e+00 2.1361596925e+00 3.6999371205e+00 
12900 5.2149950480e+00 -1.8805635591e-02 2.1366065762e+00 -3.7007111458e+00 2.1366065762e+00 3.7007111458e+00 
13000 5.2149556175e+00 -1.8517396158e-02 2.1370466732e+00 -3.7014734161e+00 2.1370466732e+00 3.7014734161e+00 
13100 5.2149170382e+00 -1.8227580817e-02 2.1374799352e+00 -3.7022238479e+00 2.1374799352e+00 3.7022238479e+00 
13200 5.2148793457e+00 -1.7936817962e-02 2.1379063295e+00 -3.7029623845e+00 2.1379063295e+00 3.7029623845e+00 
13300 5.2148425803e+00 -1.7645699910e-02 2.1383258382e+00 -3.7036889949e+00 2.1383258382e+00 3.7036889949e+00 
13400 5.2148067862e+00 -1.7354783268e-02 2.1387384569e+00 -3.7044036715e+00 2.1387384569e+00 3.7044036715e+00 
13500 5.2147720102e+00 -1.7064589384e-02 2.1391441945e+00 -3.7051064296e+00 2.1391441945e+00 3.7051064296e+00 
13600 5.2147383013e+00 -1.6775604872e-02 2.1395430718e+00 -3.7057973053e+00 2.1395430718e+00 3.7057973053e+00 
13700 5.2147057097e+00 -1.6488282206e-02 2.1399351209e+00 -3.7064763542e+00 2.1399351209e+00 3.7064763542e+00 
13800 5.2146742862e+00 -1.6203040380e-02 2.1403203843e+00 -3.7071436501e+00 2.1403203843e+00 3.7071436501e+00 
13900 5.2146440813e+00 -1.5920265621e-02 2.1406989145e+00 -3.7077992837e+00 2.1406989145e+00 3.7077992837e+00 
14000 5.2146151448e+00 -1.5640312168e-02 2.1410707727e+00 -3.7084433609e+00 2.1410707727e+00 3.7084433609e+00 
14100 5.2145875251e+00 -1.5363503091e-02 2.1414360282e+00 -3.7090760019e+00 2.1414360282e+00 3.7090760019e+00 
14200 5.2145612684e+00 -1.5090131151e-02 2.1417947578e+00 -3.7096973399e+00 2.1417947578e+00 3.7096973399e+00 
14300 5.2145364184e+00 -1.4820459713e-02 2.1421470452e+00 -3.7103075195e+00 2.1421470452e+00 3.7103075195e+00 
14400 5.2145130159e+00 -1.4554723680e-02 2.1424929798e+00 -3.7109066959e+00 2.1424929798e+00 3.7109066959e+00 
14500 5.2144910982e+00 -1.4293130459e-02 2.1428326568e+00 -3.7114950336e+00 2.1428326568e+00 3.7114950336e+00 
14600 5.2144706988e+00 -1.4035860962e-02 2.1431661756e+00 -3.7120727052e+00 2.1431661756e+00 3.7120727052e+00 
14700 5.2144518470e+00 -1.3783070616e-02 2.1434936401e+00 -3.7126398904e+00 2.1434936401e+00 3.7126398904e+00 
14800 5.2144345678e+00 -1.3534890397e-02 2.1438151576e+00 -3.7131967751e+00 2.1438151576e+00 3.7131967751e+00 
14900 5.2144188814e+00 -1.3291427873e-02 2.1441308384e+00 -3.7137435501e+00 2.1441308384e+00 3.7137435501e+00 
15000 5.2144048033e+00 -1.3052768263e-02 2.1444407949e+00 -3.7142804106e+00 2.1444407949e+00 3.7142804106e+00 
15100 5.2143923439e+00 -1.2818975492e-02 2.1447451418e+00 -3.7148075549e+00 2.1447451418e+00 3.7148075549e+00 
15200 5.2143815086e+00 -1.2590093255e-02 2.1450439949e+00 -3.7153251836e+00 2.1450439949e+00 3.7153251836e+00 
15300 5.2143722976e+00 -1.2366146082e-02 2.1453374709e+00 -3.7158334990e+00 2.1453374709e+00 3.7158334990e+00 
15400 5.2143647060e+00 -1.2147140390e-02 2.1456256872e+00 -3.7163327042e+00 2.1456256872e+00 3.7163327042e+00 
15500 5.2143587238e+00 -1.1933065536e-02 2.1459087609e+00 -3.7168230024e+00 2.1459087609e+00 3.7168230024e+00 
15600 5.2143543358e+00 -1.1723894862e-02 2.1461868092e+00 -3.7173045960e+00 2.1461868092e+00 3.7173045960e+00 
15700 5.2143515219e+00 -1.1519586719e-02 2.1464599481e+00 -3.7177776865e+00 2.1464599481e+00 3.7177776865e+00 
15800 5.2143502571e+00 -1.1320085490e-02 2.1467282929e+00 -3.7182424734e+00 2.1467282929e+00 3.7182424734e+00 
15900 5.2143505117e+00 -1.1125322583e-02 2.1469919573e+00 -3.7186991535e+00 2.1469919573e+00 3.7186991535e+00 
16000 5.2143522514e+00 -1.0935217417e-02 2.1472510535e+00 -3.7191479212e+00 2.1472510535e+00 3.7191479212e+00 
16100 5.2143554377e+00 -1.0749678383e-02 2.1475056914e+00 -3.7195889671e+00 2.1475056914e+00 3.7195889671e+00 
16200 5.2143600278e+00 -1.0568603790e-02 2.1477559792e+00 -3.7200224782e+00 2.1477559792e+00 3.7200224782e+00 
16300 5.2143659752e+00 -1.0391882774e-02 2.1480020222e+00 -3.7204486371e+00 2.1480020222e+00 3.7204486371e+00 
16400 5.2143732297e+00 -1.0219396203e-02 2.1482439232e+00 -3.7208676220e+00 2.1482439232e+00 3.7208676220e+00 
16500 5.2143817376e+00 -1.0051017542e-02 2.1484817822e+00 -3.7212796059e+00 2.1484817822e+00 3.7212796059e+00 
16600 5.2143914424e+00 -9.8866136973e-03 2.1487156962e+00 -3.7216847569e+00 2.1487156962e+00 3.7216847569e+00 
16700 5.2144022848e+00 -9.7260458370e-03 2.1489457590e+00 -3.7220832373e+00 2.1489457590e+00 3.7220832373e+00 
16800 5.2144142028e+00 -9.5691701784e-03 2.1491720611e+00 -3.7224752040e+00 2.1491720611e+00 3.7224752040e+00 
16900 5.2144271325e+00 -9.4158387519e-03 2.1493946895e+00 -3.7228608077e+00 2.1493946895e+00 3.7228608077e+00 
17000 5.2144410079e+00 -9.2659001349e-03 2.1496137279e+00 -3.7232401933e+00 2.1496137279e+00 3.7232401933e+00 
17100 5.2144557618e+00 -9.1192001570e-03 2.1498292562e+00 -3.7236134994e+00 2.1498292562e+00 3.7236134994e+00 
17200 5.2144713255e+00 -8.9755825767e-03 2.1500413510e+00 -3.7239808583e+00 2.1500413510e+00 3.7239808583e+00 
17300 5.2144876294e+00 -8.8348897282e-03 2.1502500848e+00 -3.7243423959e+00 2.1502500848e+00 3.7243423959e+00 
17400 5.2145046034e+00 -8.6969631395e-03 2.1504555268e+00 -3.7246982317e+00 2.1504555268e+00 3.7246982317e+00 
17500 5.2145221770e+00 -8.5616441214e-03 2.1506577420e+00 -3.7250484789e+00 2.1506577420e+00 3.7250484789e+00 
17600 5.2145402797e+00 -8.4287743268e-03 2.1508567922e+00 -3.7253932439e+00 2.1508567922e+00 3.7253932439e+00 
17700 5.2145588413e+00 -8.2981962813e-03 2.1510527351e+00 -3.7257326270e+00 2.1510527351e+00 3.7257326270e+00 
17800 5.2145777920e+00 -8.1697538851e-03 2.1512456249e+00 -3.7260667218e+00 2.1512456249e+00 3.7260667218e+00 
17900 5.2145970630e+00 -8.0432928859e-03 2.1514355119e+00 -3.7263956158e+00 2.1514355119e+00 3.7263956158e+00 
18000 5.2146165862e+00 -7.9186613238e-03 2.1516224431e+00 -3.7267193902e+00 2.1516224431e+00 3.7267193902e+00 
18100 5.2146362953e+00 -7.7957099488e-03 2.1518064618e+00 -3.7270381199e+00 2.1518064618e+00 3.7270381199e+00 
18200 5.2146561249e+00 -7.6742926096e-03 2.1519876077e+00 -3.7273518738e+00 2.1519876077e+00 3.7273518738e+00 
18300 5.2146760119e+00 -7.5542666166e-03 2.1521659173e+00 -3.7276607150e+00 2.1521659173e+00 3.7276607150e+00 
18400 5.2146958946e+00 -7.4354930774e-03 2.1523414235e+00 -3.7279647007e+00 2.1523414235e+00 3.7279647007e+00 
18500 5.2147157137e+00 -7.3178372073e-03 2.1525141561e+00 -3.7282638824e+00 2.1525141561e+00 3.7282638824e+00 
18600 5.2147354121e+00 -7.2011686127e-03 2.1526841418e+00 -3.7285583063e+00 2.1526841418e+00 3.7285583063e+00 
18700 5.2147549351e+00 -7.0853615514e-03 2.1528514042e+00 -3.7288480133e+00 2.1528514042e+00 3.7288480133e+00 
18800 5.2147742306e+00 -6.9702951671e-03 2.1530159639e+00 -3.7291330390e+00 2.1530159639e+00 3.7291330390e+00 
18900 5.2147932489e+00 -6.8558537007e-03 2.1531778388e+00 -3.7294134145e+00 2.1531778388e+00 3.7294134145e+00 
19000 5.2148119434e+00 -6.7419266788e-03 2.1533370439e+00 -3.7296891658e+00 2.1533370439e+00 3.7296891658e+00 
19100 5.2148302703e+00 -6.6284090789e-03 2.1534935918e+00 -3.7299603148e+00 2.1534935918e+00 3.7299603148e+00 
19200 5.2148481885e+00 -6.5152014736e-03 2.1536474926e+00 -3.7302268788e+00 2.1536474926e+00 3.7302268788e+00 
19300 5.2148656602e+00 -6.4022101530e-03 2.1537987541e+00 -3.7304888713e+00 2.1537987541e+00 3.7304888713e+00 
19400 5.2148826503e+00 -6.2893472271e-03 2.1539473818e+00 -3.7307463021e+00 2.1539473818e+00 3.7307463021e+00 
19500 5.2148991270e+00 -6.1765307079e-03 2.1540933793e+00 -3.7309991772e+00 2.1540933793e+00 3.7309991772e+00 
19600 5.2149150616e+00 -6.0636845730e-03 2.1542367482e+00 -3.7312474994e+00 2.1542367482e+00 3.7312474994e+00 
19700 5.2149304282e+00 -5.9507388099e-03 2.1543774883e+00 -3.7314912684e+00 2.1543774883e+00 3.7314912684e+00 
19800 5.2149452043e+00 -5.8376294433e-03 2.1545155978e+00 -3.7317304812e+00 2.1545155978e+00 3.7317304812e+00 
19900 5.2149593702e+00 -5.7242985452e-03 2.1546510736e+00 -3.7319651320e+00 2.1546510736e+00 3.7319651320e+00 
20000 5.2149729093e+00 -5.6106942282e-03 2.1547839108e+00 -3.7321952128e+00 2.1547839108e+00 3.7321952128e+00 
20100 5.2149858080e+00 -5.4967706236e-03 2.1549141037e+00 -3.7324207135e+00 2.1549141037e+00 3.7324207135e+00 
20200 5.2149980554e+00 -5.3824878444e-03 2.1550416453e+00 -3.7326416221e+00 2.1550416453e+00 3.7326416221e+00 
20300 5.2150096437e+00 -5.2678119339e-03 2.1551665278e+00 -3.7328579249e+00 2.1551665278e+00 3.7328579249e+00 
20400 5.2150205676e+00 -5.1527148008e-03 2.1552887425e+00 -3.7330696070e+00 2.1552887425e+00 3.7330696070e+00 
20500 5.2150308247e+00 -5.0371741413e-03 2.1554082801e+00 -3.7332766523e+00 2.1554082801e+00 3.7332766523e+00 
20600 5.2150404150e+00 -4.9211733491e-03 2.1555251309e+00 -3.7334790436e+00 2.1555251309e+00 3.7334790436e+00 
20700 5.2150493412e+00 -4.8047014135e-03 2.1556392844e+00 -3.7336767634e+00 2.1556392844e+00 3.7336767634e+00 
20800 5.2150576080e+00 -4.6877528070e-03 2.1557507303e+00 -3.7338697933e+00 2.1557507303e+00 3.7338697933e+00 
20900 5.2150652228e+00 -4.5703273621e-03 2.1558594579e+00 -3.7340581151e+00 2.1558594579e+00 3.7340581151e+00 
21000 5.2150721948e+00 -4.4524301393e-03 2.1559654566e+00 -3.7342417101e+00 2.1559654566e+00 3.7342417101e+00 
21100 5.2150785353e+00 -4.3340712850e-03 2.1560687158e+00 -3.7344205603e+00 2.1560687158e+00 3.7344205603e+00 
21200 5.2150842577e+00 -4.2152658822e-03 2.1561692252e+00 -3.7345946478e+00 2.1561692252e+00 3.7345946478e+00 
21300 5.2150893769e+00 -4.0960337925e-03 2.1562669749e+00 -3.7347639552e+00 2.1562669749e+00 3.7347639552e+00 
21400 5.2150939096e+00 -3.9763994918e-03 2.1563619554e+00 -3.7349284662e+00 2.1563619554e+00 3.7349284662e+00 
21500 5.2150978740e+00 -3.8563918988e-03 2.1564541576e+00 -3.7350881651e+00 2.1564541576e+00 3.7350881651e+00 
21600 5.2151012896e+00 -3.7360441978e-03 2.1565435733e+00 -3.7352430377e+00 2.1565435733e+00 3.7352430377e+00 
21700 5.2151041772e+00 -3.6153936567e-03 2.1566301950e+00 -3.7353930709e+00 2.1566301950e+00 3.7353930709e+00 
21800 5.2151065587e+00 -3.4944814390e-03 2.1567140160e+00 -3.7355382531e+00 2.1567140160e+00 3.7355382531e+00 
21900 5.2151084570e+00 -3.3733524130e-03 2.1567950305e+00 -3.7356785744e+00 2.1567950305e+00 3.7356785744e+00 
22000 5.2151098959e+00 -3.2520549559e-03 2.1568732339e+00 -3.7358140266e+00 2.1568732339e+00 3.7358140266e+00 
22100 5.2151108998e+00 -3.1306407562e-03 2.1569486225e+00 -3.7359446035e+00 2.1569486225e+00 3.7359446035e+00 
22200 5.2151114938e+00 -3.0091646121e-03 2.1570211940e+00 -3.7360703010e+00 2.1570211940e+00 3.7360703010e+00 
22300 5.2151117034e+00 -2.8876842288e-03 2.1570909471e+00 -3.7361911170e+00 2.1570909471e+00 3.7361911170e+00 
22400 5.2151115545e+00 -2.7662600134e-03 2.1571578822e+00 -3.7363070519e+00 2.1571578822e+00 3.7363070519e+00 
22500 5.2151110732e+00 -2.6449548692e-03 2.1572220006e+00 -3.7364181083e+00 2.1572220006e+00 3.7364181083e+00 
22600 5.2151102858e+00 -2.5238339891e-03 2.1572833056e+00 -3.7365242916e+00 2.1572833056e+00 3.7365242916e+00 
22700 5.2151092185e+00 -2.4029646488e-03 2.1573418015e+00 -3.7366256095e+00 2.1573418015e+00 3.7366256095e+00 
22800 5.2151078976e+00 -2.2824159998e-03 2.1573974945e+00 -3.7367220725e+00 2.1573974945e+00 3.7367220725e+00 
22900 5.2151063489e+00 -2.1622588638e-03 2.1574503921e+00 -3.7368136940e+00 2.1574503921e+00 3.7368136940e+00 
23000 5.2151045982e+00 -2.0425655274e-03 2.1575005038e+00 -3.7369004899e+00 2.1575005038e+00 3.7369004899e+00 
23100 5.2151026709e+00 -1.9234095386e-03 2.1575478403e+00 -3.7369824792e+00 2.1575478403e+00 3.7369824792e+00 
23200 5.2151005917e+00 -1.8048655050e-03 2.1575924144e+00 -3.7370596838e+00 2.1575924144e+00 3.7370596838e+00 
23300 5.2150983850e+00 -1.6870088940e-03 2.1576342405e+00 -3.7371321287e+00 2.1576342405e+00 3.7371321287e+00 
23400 5.2150960744e+00 -1.5699158361e-03 2.1576733346e+00 -3.7371998416e+00 2.1576733346e+00 3.7371998416e+00 
23500 5.2150936830e+00 -1.4536629300e-03 2.1577097145e+00 -3.7372628535e+00 2.1577097145e+00 3.7372628535e+00 
23600 5.2150912331e+00 -1.3383270520e-03 2.1577433999e+00 -3.7373211983e+00 2.1577433999e+00 3.7373211983e+00 
23700 5.2150887461e+00 -1.2239851682e-03 2.1577744122e+00 -3.7373749131e+00 2.1577744122e+00 3.7373749131e+00 
23800 5.2150862427e+00 -1.1107141504e-03 2.1578027744e+00 -3.7374240380e+00 2.1578027744e+00 3.7374240380e+00 
23900 5.2150837424e+00 -9.9859059671e-04 2.1578285116e+00 -3.7374686162e+00 2.1578285116e+00 3.7374686162e+00 
24000 5.2150812642e+00 -8.8769065545e-04 2.1578516505e+00 -3.7375086938e+00 2.1578516505e+00 3.7375086938e+00 
24100 5.2150788257e+00 -7.7808985451e-04 2.1578722194e+00 -3.7375443202e+00 2.1578722194e+00 3.7375443202e+00 
24200 5.2150764438e+00 -6.6986293494e-04 2.1578902485e+00 -3.7375755475e+00 2.1578902485e+00 3.7375755475e+00 
24300 5.2150741342e+00 -5.6308368974e-04 2.1579057697e+00 -3.7376024311e+00 2.1579057697e+00 3.7376024311e+00 
24400 5.2150719116e+00 -4.5782480770e-04 2.1579188168e+00 -3.7376250292e+00 2.1579188168e+00 3.7376250292e+00 
24500 5.2150697896e+00 -3.5415772271e-04 2.1579294248e+00 -3.7376434029e+00 2.1579294248e+00 3.7376434029e+00 
24600 5.2150677808e+00 -2.5215246853e-04 2.1579376307e+00 -3.7376576160e+00 2.1579376307e+00 3.7376576160e+00 
24700 5.2150658967e+00 -1.5187753930e-04 2.1579434732e+00 -3.7376677354e+00 2.1579434732e+00 3.7376677354e+00 
24800 5.2150641476e+00 -5.3399755850e-05 2.1579469922e+00 -3.7376738306e+00 2.1579469922e+00 3.7376738306e+00 
24900 5.2150625427e+00 4.2584584651e-05 2.1579469922e+00 -3.7376738306e+00 2.1579469922e+00 3.7376738306e+00 
25000 5.2150610906e+00 1.3778042632e-04 2.1579469922e+00 -3.7376738306e+00 2.1579469922e+00 3.7376738306e+00 
25100 5.2150597984e+00 2.3048424753e-04 2.1579437998e+00 -3.7376683012e+00 2.1579437998e+00 3.7376683012e+00 
25200 5.2150586721e+00 3.2114277383e-04 2.1579384595e+00 -3.7376590514e+00 2.1579384595e+00 3.7376590514e+00 
25300 5.2150577170e+00 4.0969935474e-04 2.1579310185e+00 -3.7376461633e+00 2.1579310185e+00 3.7376461633e+00 
25400 5.2150569372e+00 4.9609968637e-04 2.1579215256e+00 -3.7376297212e+00 2.1579215256e+00 3.7376297212e+00 
25500 5.2150563359e+00 5.8029190158e-04 2.1579100308e+00 -3.7376098115e+00 2.1579100308e+00 3.7376098115e+00 
25600 5.2150559153e+00 6.6222665371e-04 2.1578965851e+00 -3.7375865229e+00 2.1578965851e+00 3.7375865229e+00 
25700 5.2150556769e+00 7.4185719390e-04 2.1578812409e+00 -3.7375599459e+00 2.1578812409e+00 3.7375599459e+00 
25800 5.2150556210e+00 8.1913944185e-04 2.1578640514e+00 -3.7375301729e+00 2.1578640514e+00 3.7375301729e+00 
25900 5.2150557473e+00 8.9403205028e-04 2.1578450711e+00 -3.7374972980e+00 2.1578450711e+00 3.7374972980e+00 
26000 5.2150560546e+00 9.6649646274e-04 2.1578243553e+00 -3.7374614172e+00 2.1578243553e+00 3.7374614172e+00 
26100 5.2150565409e+00 1.0364969653e-03 2.1578019602e+00 -3.7374226277e+00 2.1578019602e+00 3.7374226277e+00 
26200 5.2150572037e+00 1.1040007315e-03 2.1577779428e+00 -3.7373810284e+00 2.1577779428e+00 3.7373810284e+00 
26300 5.2150580396e+00 1.1689778615e-03 2.1577523610e+00 -3.7373367193e+00 2.1577523610e+00 3.7373367193e+00 
26400 5.2150590446e+00 1.2314014146e-03 2.1577252732e+00 -3.7372898019e+00 2.1577252732e+00 3.7372898019e+00 
26500 5.2150602141e+00 1.2912474356e-03 2.1576967385e+00 -3.7372403784e+00 2.1576967385e+00 3.7372403784e+00 
26600 5.2150615431e+00 1.3484949753e-03 2.1576668167e+00 -3.7371885523e+00 2.1576668167e+00 3.7371885523e+00 
26700 5.2150630259e+00 1.4031261049e-03 2.1576355678e+00 -3.7371344277e+00 2.1576355678e+00 3.7371344277e+00 
26800 5.2150646564e+00 1.4551259246e-03 2.1576030526e+00 -3.7370781096e+00 2.1576030526e+00 3.7370781096e+00 
26900 5.2150664281e+00 1.5044825662e-03 2.1575693318e+00 -3.7370197034e+00 2.1575693318e+00 3.7370197034e+00 
27000 5.2150683341e+00 1.5511871902e-03 2.1575344666e+00 -3.7369593153e+00 2.1575344666e+00 3.7369593153e+00 
27100 5.2150703673e+00 1.5952339777e-03 2.1574985186e+00 -3.7368970514e+00 2.1574985186e+00 3.7368970514e+00 
27200 5.2150725202e+00 1.6366201162e-03 2.1574615492e+00 -3.7368330185e+00 2.1574615492e+00 3.7368330185e+00 
27300 5.2150747849e+00 1.6753457808e-03 2.1574236200e+00 -3.7367673232e+00 2.1574236200e+00 3.7367673232e+00 
27400 5.2150771537e+00 1.7114141099e-03 2.1573847926e+00 -3.7367000723e+00 2.1573847926e+00 3.7367000723e+00 
27500 5.2150796183e+00 1.7448311765e-03 2.1573451287e+00 -3.7366313723e+00 2.1573451287e+00 3.7366313723e+00 
27600 5.2150821706e+00 1.7756059538e-03 2.1573046895e+00 -3.7365613296e+00 2.1573046895e+00 3.7365613296e+00 
27700 5.2150848022e+00 1.8037502771e-03 2.1572635363e+00 -3.7364900501e+00 2.1572635363e+00 3.7364900501e+00 
27800 5.2150875048e+00 1.8292788010e-03 2.1572217299e+00 -3.7364176395e+00 2.1572217299e+00 3.7364176395e+00 
27900 5.2150902700e+00 1.8522089517e-03 2.1571793311e+00 -3.7363442026e+00 2.1571793311e+00 3.7363442026e+00 
28000 5.2150930895e+00 1.8725608765e-03 2.1571364000e+00 -3.7362698437e+00 2.1571364000e+00 3.7362698437e+00 
28100 5.2150959550e+00 1.8903573880e-03 2.1570929963e+00 -3.7361946662e+00 2.1570929963e+00 3.7361946662e+00 
28200 5.2150988582e+00 1.9056239056e-03 2.1570491792e+00 -3.7361187728e+00 2.1570491792e+00 3.7361187728e+00 
28300 5.2151017910e+00 1.9183883930e-03 2.1570050073e+00 -3.7360422649e+00 2.1570050073e+00 3.7360422649e+00 
28400 5.2151047456e+00 1.9286812923e-03 2.1569605387e+00 -3.7359652429e+00 2.1569605387e+00 3.7359652429e+00 
28500 5.2151077140e+00 1.9365354554e-03 2.1569158305e+00 -3.7358878061e+00 2.1569158305e+00 3.7358878061e+00 
28600 5.2151106888e+00 1.9419860718e-03 2.1568709394e+00 -3.7358100524e+00 2.1568709394e+00 3.7358100524e+00 
28700 5.2151136624e+00 1.9450705944e-03 2.1568259209e+00 -3.7357320782e+00 2.1568259209e+00 3.7357320782e+00 
28800 5.2151166278e+00 1.9458286620e-03 2.1567808301e+00 -3.7356539785e+00 2.1567808301e+00 3.7356539785e+00 
28900 5.2151195779e+00 1.9443020199e-03 2.1567357207e+00 -3.7355758467e+00 2.1567357207e+00 3.7355758467e+00 
29000 5.2151225062e+00 1.9405344379e-03 2.1566906457e+00 -3.7354977746e+00 2.1566906457e+00 3.7354977746e+00 
29100 5.2151254064e+00 1.9345716272e-03 2.1566456572e+00 -3.7354198521e+00 2.1566456572e+00 3.7354198521e+00 
29200 5.2151282722e+00 1.9264611540e-03 2.1566008059e+00 -3.7353421675e+00 2.1566008059e+00 3.7353421675e+00 
29300 5.2151310980e+00 1.9162523530e-03 2.1565561418e+00 -3.7352648069e+00 2.1565561418e+00 3.7352648069e+00 
29400 5.2151338784e+00 1.9039962388e-03 2.1565117134e+00 -3.7351878547e+00 2.1565117134e+00 3.7351878547e+00 
29500 5.2151366081e+00 1.8897454158e-03 2.1564675683e+00 -3.7351113931e+00 2.1564675683e+00 3.7351113931e+00 
29600 5.2151392824e+00 1.8735539877e-03 2.1564237526e+00 -3.7350355022e+00 2.1564237526e+00 3.7350355022e+00 
29700 5.2151418969e+00 1.8554774655e-03 2.1563803116e+00 -3.7349602601e+00 2.1563803116e+00 3.7349602601e+00 
29800 5.2151444474e+00 1.8355726754e-03 2.1563372887e+00 -3.7348857424e+00 2.1563372887e+00 3.7348857424e+00 
29900 5.2151469302e+00 1.8138976656e-03 2.1562947266e+00 -3.7348120226e+00 2.1562947266e+00 3.7348120226e+00 
30000 5.2151493418e+00 1.7905116132e-03 2.1562526662e+00 -3.7347391718e+00 2.1562526662e+00 3.7347391718e+00 
30100 5.2151516791e+00 1.7654747308e-03 2.1562111473e+00 -3.7346672590e+00 2.1562111473e+00 3.7346672590e+00 
30200 5.2151539394e+00 1.7388481729e-03 2.1561702081e+00 -3.7345963503e+00 2.1561702081e+00 3.7345963503e+00 
30300 5.2151561203e+00 1.7106939428e-03 2.1561298857e+00 -3.7345265097e+00 2.1561298857e+00 3.7345265097e+00 
30400 5.2151582197e+00 1.6810747994e-03 2.1560902153e+00 -3.7344577986e+00 2.1560902153e+00 3.7344577986e+00 
30500 5.2151602359e+00 1.6500541645e-03 2.1560512311e+00 -3.7343902760e+00 2.1560512311e+00 3.7343902760e+00 
30600 5.2151621673e+00 1.6176960312e-03 2.1560129655e+00 -3.7343239981e+00 2.1560129655e+00 3.7343239981e+00 
30700 5.2151640130e+00 1.5840648726e-03 2.1559754497e+00 -3.7342590188e+00 2.1559754497e+00 3.7342590188e+00 
30800 5.2151657720e+00 1.5492255508e-03 2.1559387132e+00 -3.7341953893e+00 2.1559387132e+00 3.7341953893e+00 
30900 5.2151674440e+00 1.5132432285e-03 2.1559027841e+00 -3.7341331582e+00 2.1559027841e+00 3.7341331582e+00 
31000 5.2151690285e+00 1.4761832799e-03 2.1558676888e+00 -3.7340723714e+00 2.1558676888e+00 3.7340723714e+00 
31100 5.2151705258e+00 1.4381112042e-03 2.1558334525e+00 -3.7340130724e+00 2.1558334525e+00 3.7340130724e+00 
31200 5.2151719361e+00 1.3990925396e-03 2.1558000986e+00 -3.7339553018e+00 2.1558000986e+00 3.7339553018e+00 
31300 5.2151732600e+00 1.3591927794e-03 2.1557676492e+00 -3.7338990978e+00 2.1557676492e+00 3.7338990978e+00 
31400 5.2151744984e+00 1.3184772891e-03 2.1557361247e+00 -3.7338444957e+00 2.1557361247e+00 3.7338444957e+00 
31500 5.2151756522e+00 1.2770112256e-03 2.1557055441e+00 -3.7337915286e+00 2.1557055441e+00 3.7337915286e+00 
31600 5.2151767227e+00 1.2348594580e-03 2.1556759249e+00 -3.7337402265e+00 2.1556759249e+00 3.7337402265e+00 
31700 5.2151777114e+00 1.1920864900e-03 2.1556472829e+00 -3.7336906171e+00 2.1556472829e+00 3.7336906171e+00 
31800 5.2151786200e+00 1.1487563848e-03 2.1556196326e+00 -3.7336427255e+00 2.1556196326e+00 3.7336427255e+00 
31900 5.2151794503e+00 1.1049326915e-03 2.1555929871e+00 -3.7335965740e+00 2.1555929871e+00 3.7335965740e+00 
32000 5.2151802044e+00 1.0606783738e-03 2.1555673577e+00 -3.7335521826e+00 2.1555673577e+00 3.7335521826e+00 
32100 5.2151808843e+00 1.0160557406e-03 2.1555427545e+00 -3.7335095687e+00 2.1555427545e+00 3.7335095687e+00 
32200 5.2151814925e+00 9.7112637933e-04 2.1555191861e+00 -3.7334687470e+00 2.1555191861e+00 3.7334687470e+00 
32300 5.2151820313e+00 9.2595109085e-04 2.1554966596e+00 -3.7334297300e+00 2.1554966596e+00 3.7334297300e+00 
32400 5.2151825032e+00 8.8058982718e-04 2.1554751808e+00 -3.7333925276e+00 2.1554751808e+00 3.7333925276e+00 
32500 5.2151829110e+00 8.3510163137e-04 2.1554547540e+00 -3.7333571474e+00 2.1554547540e+00 3.7333571474e+00 
32600 5.2151832574e+00 7.8954457975e-04 2.1554353822e+00 -3.7333235945e+00 2.1554353822e+00 3.7333235945e+00 
32700 5.2151835451e+00 7.4397572668e-04 2.1554170671e+00 -3.7332918717e+00 2.1554170671e+00 3.7332918717e+00 
32800 5.2151837771e+00 6.9845105169e-04 2.1553998088e+00 -3.7332619795e+00 2.1553998088e+00 3.7332619795e+00 
32900 5.2151839563e+00 6.5302540913e-04 2.1553836065e+00 -3.7332339162e+00 2.1553836065e+00 3.7332339162e+00 
33000 5.2151840855e+00 6.0775248033e-04 2.1553684578e+00 -3.7332076779e+00 2.1553684578e+00 3.7332076779e+00 
33100 5.2151841679e+00 5.6268472825e-04 2.1553543592e+00 -3.7331832585e+00 2.1553543592e+00 3.7331832585e+00 
33200 5.2151842065e+00 5.1787335466e-04 2.1553413061e+00 -3.7331606498e+00 2.1553413061e+00 3.7331606498e+00 
33300 5.2151842041e+00 4.7336825990e-04 2.1553292924e+00 -3.7331398414e+00 2.1553292924e+00 3.7331398414e+00 
33400 5.2151841639e+00 4.2921800513e-04 2.1553183110e+00 -3.7331208212e+00 2.1553183110e+00 3.7331208212e+00 
33500 5.2151840888e+00 3.8546977716e-04 2.1553083538e+00 -3.7331035748e+00 2.1553083538e+00 3.7331035748e+00 
33600 5.2151839819e+00 3.4216935574e-04 2.1552994115e+00 -3.7330880863e+00 2.1552994115e+00 3.7330880863e+00 
33700 5.2151838459e+00 2.9936108350e-04 2.1552914737e+00 -3.7330743375e+00 2.1552914737e+00 3.7330743375e+00 
33800 5.2151836839e+00 2.5708783830e-04 2.1552845289e+00 -3.7330623088e+00 2.1552845289e+00 3.7330623088e+00 
33900 5.2151834987e+00 2.1539100810e-04 2.1552785647e+00 -3.7330519786e+00 2.1552785647e+00 3.7330519786e+00 
34000 5.2151832930e+00 1.7431046835e-04 2.1552735679e+00 -3.7330433239e+00 2.1552735679e+00 3.7330433239e+00 
34100 5.2151830697e+00 1.3388456180e-04 2.1552695241e+00 -3.7330363198e+00 2.1552695241e+00 3.7330363198e+00 
34200 5.2151828313e+00 9.4150080749e-05 2.1552664181e+00 -3.7330309401e+00 2.1552664181e+00 3.7330309401e+00 
34300 5.2151825804e+00 5.5142251741e-05 2.1552642339e+00 -3.7330271569e+00 2.1552642339e+00 3.7330271569e+00 
34400 5.2151823196e+00 1.7553656829e-05 2.1552642339e+00 -3.7330271569e+00 2.1552642339e+00 3.7330271569e+00 
34500 5.2151820511e+00 -1.9694142353e-05 2.1552642339e+00 -3.7330271569e+00 2.1552642339e+00 3.7330271569e+00 
34600 5.2151817774e+00 -5.6564312086e-05 2.1552642339e+00 -3.7330271569e+00 2.1552642339e+00 3.7330271569e+00 
34700 5.2151815008e+00 -9.3021679143e-05 2.1552642339e+00 -3.7330271569e+00 2.1552642339e+00 3.7330271569e+00 
34800 5.2151812233e+00 -1.2792147208e-04 2.1552663920e+00 -3.7330308947e+00 2.1552663920e+00 3.7330308947e+00 
34900 5.2151809470e+00 -1.6191693440e-04 2.1552693596e+00 -3.7330360348e+00 2.1552693596e+00 3.7330360348e+00 
35000 5.2151806737e+00 -1.9498402309e-04 2.1552731159e+00 -3.7330425409e+00 2.1552731159e+00 3.7330425409e+00 
35100 5.2151804053e+00 -2.2710030150e-04 2.1552776393e+00 -3.7330503757e+00 2.1552776393e+00 3.7330503757e+00 
35200 5.2151801435e+00 -2.5824493472e-04 2.1552829078e+00 -3.7330595010e+00 2.1552829078e+00 3.7330595010e+00 
35300 5.2151798899e+00 -2.8839868299e-04 2.1552888988e+00 -3.7330698777e+00 2.1552888988e+00 3.7330698777e+00 
35400 5.2151796460e+00 -3.1754389326e-04 2.1552955893e+00 -3.7330814660e+00 2.1552955893e+00 3.7330814660e+00 
35500 5.2151794132e+00 -3.4566448870e-04 2.1553029559e+00 -3.7330942253e+00 2.1553029559e+00 3.7330942253e+00 
35600 5.2151791927e+00 -3.7274595657e-04 2.1553109748e+00 -3.7331081145e+00 2.1553109748e+00 3.7331081145e+00 
35700 5.2151789858e+00 -3.9877533418e-04 2.1553196220e+00 -3.7331230918e+00 2.1553196220e+00 3.7331230918e+00 
35800 5.2151787933e+00 -4.2374119322e-04 2.1553288729e+00 -3.7331391149e+00 2.1553288729e+00 3.7331391149e+00 
35900 5.2151786164e+00 -4.4763362241e-04 2.1553387030e+00 -3.7331561411e+00 2.1553387030e+00 3.7331561411e+00 
36000 5.2151784558e+00 -4.7044420859e-04 2.1553490873e+00 -3.7331741273e+00 2.1553490873e+00 3.7331741273e+00 
36100 5.2151783122e+00 -4.9216601621e-04 2.1553600007e+00 -3.7331930299e+00 2.1553600007e+00 3.7331930299e+00 
36200 5.2151781863e+00 -5.1279356546e-04 2.1553714180e+00 -3.7332128052e+00 2.1553714180e+00 3.7332128052e+00 
36300 5.2151780786e+00 -5.3232280890e-04 2.1553833137e+00 -3.7332334092e+00 2.1553833137e+00 3.7332334092e+00 
36400 5.2151779895e+00 -5.5075110674e-04 2.1553956624e+00 -3.7332547977e+00 2.1553956624e+00 3.7332547977e+00 
36500 5.2151779194e+00 -5.6807720098e-04 2.1554084385e+00 -3.7332769266e+00 2.1554084385e+00 3.7332769266e+00 
36600 5.2151778685e+00 -5.8430118815e-04 2.1554216165e+00 -3.7332997515e+00 2.1554216165e+00 3.7332997515e+00 
36700 5.2151778369e+00 -5.9942449098e-04 2.1554351707e+00 -3.7333232281e+00 2.1554351707e+00 3.7333232281e+00 
36800 5.2151778247e+00 -6.1344982906e-04 2.1554490757e+00 -3.7333473123e+00 2.1554490757e+00 3.7333473123e+00 
36900 5.2151778318e+00 -6.2638118831e-04 2.1554633059e+00 -3.7333719597e+00 2.1554633059e+00 3.7333719597e+00 
37000 5.2151778582e+00 -6.3822378962e-04 2.1554778360e+00 -3.7333971266e+00 2.1554778360e+00 3.7333971266e+00 
37100 5.2151779037e+00 -6.4898405651e-04 2.1554926407e+00 -3.7334227691e+00 2.1554926407e+00 3.7334227691e+00 
37200 5.2151779680e+00 -6.5866958204e-04 2.1555076950e+00 -3.7334488438e+00 2.1555076950e+00 3.7334488438e+00 
37300 5.2151780508e+00 -6.6728909484e-04 2.1555229737e+00 -3.7334753074e+00 2.1555229737e+00 3.7334753074e+00 
37400 5.2151781517e+00 -6.7485242453e-04 2.1555384523e+00 -3.7335021171e+00 2.1555384523e+00 3.7335021171e+00 
37500 5.2151782702e+00 -6.8137046644e-04 2.1555541063e+00 -3.7335292305e+00 2.1555541063e+00 3.7335292305e+00 
37600 5.2151784059e+00 -6.8685514574e-04 2.1555699113e+00 -3.7335566056e+00 2.1555699113e+00 3.7335566056e+00 
37700 5.2151785582e+00 -6.9131938109e-04 2.1555858434e+00 -3.7335842009e+00 2.1555858434e+00 3.7335842009e+00 
37800 5.2151787265e+00 -6.9477704774e-04 2.1556018790e+00 -3.7336119753e+00 2.1556018790e+00 3.7336119753e+00 
37900 5.2151789101e+00 -6.9724294036e-04 2.1556179946e+00 -3.7336398884e+00 2.1556179946e+00 3.7336398884e+00 
38000 5.2151791084e+00 -6.9873273538e-04 2.1556341673e+00 -3.7336679003e+00 2.1556341673e+00 3.7336679003e+00 
38100 5.2151793206e+00 -6.9926295315e-04 2.1556503745e+00 -3.7336959719e+00 2.1556503745e+00 3.7336959719e+00 
38200 5.2151795460e+00 -6.9885091977e-04 2.1556665938e+00 -3.7337240646e+00 2.1556665938e+00 3.7337240646e+00 
38300 5.2151797838e+00 -6.9751472887e-04 2.1556828034e+00 -3.7337521405e+00 2.1556828034e+00 3.7337521405e+00 
38400 5.2151800331e+00 -6.9527320315e-04 2.1556989820e+00 -3.7337801626e+00 2.1556989820e+00 3.7337801626e+00 
38500 5.2151802933e+00 -6.9214585591e-04 2.1557151084e+00 -3.7338080944e+00 2.1557151084e+00 3.7338080944e+00 
38600 5.2151805633e+00 -6.8815285260e-04 2.1557311621e+00 -3.7338359003e+00 2.1557311621e+00 3.7338359003e+00 
38700 5.2151808424e+00 -6.8331497228e-04 2.1557471232e+00 -3.7338635456e+00 2.1557471232e+00 3.7338635456e+00 
38800 5.2151811297e+00 -6.7765356935e-04 2.1557629719e+00 -3.7338909963e+00 2.1557629719e+00 3.7338909963e+00 
38900 5.2151814244e+00 -6.7119053525e-04 2.1557786891e+00 -3.7339182195e+00 2.1557786891e+00 3.7339182195e+00 
39000 5.2151817255e+00 -6.6394826047e-04 2.1557942564e+00 -3.7339451828e+00 2.1557942564e+00 3.7339451828e+00 
39100 5.2151820321e+00 -6.5594959665e-04 2.1558096556e+00 -3.7339718549e+00 2.1558096556e+00 3.7339718549e+00 
39200 5.2151823436e+00 -6.4721781914e-04 2.1558248691e+00 -3.7339982055e+00 2.1558248691e+00 3.7339982055e+00 
39300 5.2151826589e+00 -6.3777658969e-04 2.1558398801e+00 -3.7340242052e+00 2.1558398801e+00 3.7340242052e+00 
39400 5.2151829772e+00 -6.2764991963e-04 2.1558546719e+00 -3.7340498255e+00 2.1558546719e+00 3.7340498255e+00 
39500 5.2151832978e+00 -6.1686213339e-04 2.1558692288e+00 -3.7340750387e+00 2.1558692288e+00 3.7340750387e+00 
39600 5.2151836197e+00 -6.0543783248e-04 2.1558835354e+00 -3.7340998185e+00 2.1558835354e+00 3.7340998185e+00 
39700 5.2151839422e+00 -5.9340185993e-04 2.1558975769e+00 -3.7341241391e+00 2.1558975769e+00 3.7341241391e+00 
39800 5.2151842645e+00 -5.8077926524e-04 2.1559113392e+00 -3.7341479762e+00 2.1559113392e+00 3.7341479762e+00 
39900 5.2151845859e+00 -5.6759526994e-04 2.1559248087e+00 -3.7341713060e+00 2.1559248087e+00 3.7341713060e+00 
40000 5.2151849056e+00 -5.5387523358e-04 2.1559379723e+00 -3.7341941060e+00 2.1559379723e+00 3.7341941060e+00 
40100 5.2151852230e+00 -5.3964462052e-04 2.1559508177e+00 -3.7342163549e+00 2.1559508177e+00 3.7342163549e+00 
40200 5.2151855373e+00 -5.2492896719e-04 2.1559633329e+00 -3.7342380319e+00 2.1559633329e+00 3.7342380319e+00 
40300 5.2151858478e+00 -5.0975385013e-04 2.1559755068e+00 -3.7342591177e+00 2.1559755068e+00 3.7342591177e+00 
40400 5.2151861541e+00 -4.9414485464e-04 2.1559873287e+00 -3.7342795938e+00 2.1559873287e+00 3.7342795938e+00 
40500 5.2151864555e+00 -4.7812754424e-04 2.1559987886e+00 -3.7342994428e+00 2.1559987886e+00 3.7342994428e+00 
40600 5.2151867514e+00 -4.6172743077e-04 2.1560098769e+00 -3.7343186484e+00 2.1560098769e+00 3.7343186484e+00 
40700 5.2151870414e+00 -4.4496994527e-04 2.1560205848e+00 -3.7343371950e+00 2.1560205848e+00 3.7343371950e+00 
40800 5.2151873249e+00 -4.2788040974e-04 2.1560309041e+00 -3.7343550685e+00 2.1560309041e+00 3.7343550685e+00 
40900 5.2151876016e+00 -4.1048400958e-04 2.1560408269e+00 -3.7343722554e+00 2.1560408269e+00 3.7343722554e+00 
41000 5.2151878709e+00 -3.9280576687e-04 2.1560503463e+00 -3.7343887435e+00 2.1560503463e+00 3.7343887435e+00 
41100 5.2151881325e+00 -3.7487051454e-04 2.1560594557e+00 -3.7344045215e+00 2.1560594557e+00 3.7344045215e+00 
41200 5.2151883861e+00 -3.5670287131e-04 2.1560681491e+00 -3.7344195789e+00 2.1560681491e+00 3.7344195789e+00 
41300 5.2151886314e+00 -3.3832721750e-04 2.1560764212e+00 -3.7344339066e+00 2.1560764212e+00 3.7344339066e+00 
41400 5.2151888681e+00 -3.1976767176e-04 2.1560842671e+00 -3.7344474961e+00 2.1560842671e+00 3.7344474961e+00 
41500 5.2151890959e+00 -3.0104806861e-04 2.1560916826e+00 -3.7344603400e+00 2.1560916826e+00 3.7344603400e+00 
41600 5.2151893147e+00 -2.8219193689e-04 2.1560986639e+00 -3.7344724321e+00 2.1560986639e+00 3.7344724321e+00 
41700 5.2151895243e+00 -2.6322247907e-04 2.1561052080e+00 -3.7344837667e+00 2.1561052080e+00 3.7344837667e+00 
41800 5.2151897245e+00 -2.4416255151e-04 2.1561113121e+00 -3.7344943394e+00 2.1561113121e+00 3.7344943394e+00 
41900 5.2151899153e+00 -2.2503464555e-04 2.1561169742e+00 -3.7345041464e+00 2.1561169742e+00 3.7345041464e+00 
42000 5.2151900966e+00 -2.0586086954e-04 2.1561221927e+00 -3.7345131851e+00 2.1561221927e+00 3.7345131851e+00 
42100 5.2151902683e+00 -1.8666293172e-04 2.1561269666e+00 -3.7345214537e+00 2.1561269666e+00 3.7345214537e+00 
42200 5.2151904305e+00 -1.6746212407e-04 2.1561312953e+00 -3.7345289512e+00 2.1561312953e+00 3.7345289512e+00 
42300 5.2151905831e+00 -1.4827930699e-04 2.1561351787e+00 -3.7345356774e+00 2.1561351787e+00 3.7345356774e+00 
42400 5.2151907263e+00 -1.2913489490e-04 2.1561386172e+00 -3.7345416332e+00 2.1561386172e+00 3.7345416332e+00 
42500 5.2151908601e+00 -1.1004884271e-04 2.1561416118e+00 -3.7345468199e+00 2.1561416118e+00 3.7345468199e+00 
42600 5.2151909846e+00 -9.1040633201e-05 2.1561441638e+00 -3.7345512401e+00 2.1561441638e+00 3.7345512401e+00 
42700 5.2151910999e+00 -7.2129265238e-05 2.1561462750e+00 -3.7345548968e+00 2.1561462750e+00 3.7345548968e+00 
42800 5.2151912062e+00 -5.3333242890e-05 2.1561479476e+00 -3.7345577939e+00 2.1561479476e+00 3.7345577939e+00 
42900 5.2151913037e+00 -3.5305487088e-05 2.1561479476e+00 -3.7345577939e+00 2.1561479476e+00 3.7345577939e+00 
43000 5.2151913925e+00 -1.7211838923e-05 2.1561479476e+00 -3.7345577939e+00 2.1561479476e+00 3.7345577939e+00 
43100 5.2151914729e+00 9.3022913312e-07 2.1561479476e+00 -3.7345577939e+00 2.1561479476e+00 3.7345577939e+00 
43200 5.2151915450e+00 1.9103824074e-05 2.1561479476e+00 -3.7345577939e+00 2.1561479476e+00 3.7345577939e+00 
43300 5.2151916093e+00 3.7292624803e-05 2.1561479476e+00 -3.7345577939e+00 2.1561479476e+00 3.7345577939e+00 
43400 5.2151916659e+00 5.5480874109e-05 2.1561479476e+00 -3.7345577939e+00 2.1561479476e+00 3.7345577939e+00 
43500 5.2151917152e+00 7.3653370267e-05 2.1561479476e+00 -3.7345577939e+00 2.1561479476e+00 3.7345577939e+00 
43600 5.2151917574e+00 9.0918443055e-05 2.1561462396e+00 -3.7345548356e+00 2.1561462396e+00 3.7345548356e+00 
43700 5.2151917928e+00 1.0792585280e-04 2.1561441313e+00 -3.7345511838e+00 2.1561441313e+00 3.7345511838e+00 
43800 5.2151918216e+00 1.2466243094e-04 2.1561416285e+00 -3.7345468489e+00 2.1561416285e+00 3.7345468489e+00 
43900 5.2151918444e+00 1.4111556977e-04 2.1561387377e+00 -3.7345418418e+00 2.1561387377e+00 3.7345418418e+00 
44000 5.2151918612e+00 1.5727322381e-04 2.1561354652e+00 -3.7345361738e+00 2.1561354652e+00 3.7345361738e+00 
44100 5.2151918726e+00 1.7312391063e-04 2.1561318181e+00 -3.7345298568e+00 2.1561318181e+00 3.7345298568e+00 
44200 5.2151918788e+00 1.8865671083e-04 2.1561278035e+00 -3.7345229032e+00 2.1561278035e+00 3.7345229032e+00 
44300 5.2151918802e+00 2.0386126751e-04 2.1561234286e+00 -3.7345153257e+00 2.1561234286e+00 3.7345153257e+00 
44400 5.2151918772e+00 2.1872778502e-04 2.1561187011e+00 -3.7345071374e+00 2.1561187011e+00 3.7345071374e+00 
44500 5.2151918699e+00 2.3324702707e-04 2.1561136288e+00 -3.7344983520e+00 2.1561136288e+00 3.7344983520e+00 
44600 5.2151918589e+00 2.4741031434e-04 2.1561082198e+00 -3.7344889834e+00 2.1561082198e+00 3.7344889834e+00 
44700 5.2151918444e+00 2.6120952140e-04 2.1561024824e+00 -3.7344790459e+00 2.1561024824e+00 3.7344790459e+00 
44800 5.2151918268e+00 2.7463707308e-04 2.1560964250e+00 -3.7344685541e+00 2.1560964250e+00 3.7344685541e+00 
44900 5.2151918064e+00 2.8768594038e-04 2.1560900561e+00 -3.7344575229e+00 2.1560900561e+00 3.7344575229e+00 
45000 5.2151917836e+00 3.0034963577e-04 2.1560833847e+00 -3.7344459676e+00 2.1560833847e+00 3.7344459676e+00 
45100 5.2151917586e+00 3.1262220803e-04 2.1560764195e+00 -3.7344339036e+00 2.1560764195e+00 3.7344339036e+00 
45200 5.2151917318e+00 3.2449823655e-04 2.1560691697e+00 -3.7344213466e+00 2.1560691697e+00 3.7344213466e+00 
45300 5.2151917034e+00 3.3597282526e-04 2.1560616445e+00 -3.7344083125e+00 2.1560616445e+00 3.7344083125e+00 
45400 5.2151916739e+00 3.4704159604e-04 2.1560538531e+00 -3.7343948175e+00 2.1560538531e+00 3.7343948175e+00 
45500 5.2151916434e+00 3.5770068175e-04 2.1560458051e+00 -3.7343808778e+00 2.1560458051e+00 3.7343808778e+00 
45600 5.2151916122e+00 3.6794671881e-04 2.1560375098e+00 -3.7343665099e+00 2.1560375098e+00 3.7343665099e+00 
45700 5.2151915807e+00 3.7777683945e-04 2.1560289768e+00 -3.7343517305e+00 2.1560289768e+00 3.7343517305e+00 
45800 5.2151915491e+00 3.8718866354e-04 2.1560202159e+00 -3.7343365561e+00 2.1560202159e+00 3.7343365561e+00 
45900 5.2151915176e+00 3.9618029018e-04 2.1560112367e+00 -3.7343210036e+00 2.1560112367e+00 3.7343210036e+00 
46000 5.2151914864e+00 4.0475028879e-04 2.1560020489e+00 -3.7343050899e+00 2.1560020489e+00 3.7343050899e+00 
46100 5.2151914559e+00 4.1289769011e-04 2.1559926623e+00 -3.7342888318e+00 2.1559926623e+00 3.7342888318e+00 
46200 5.2151914262e+00 4.2062197673e-04 2.1559830867e+00 -3.7342722464e+00 2.1559830867e+00 3.7342722464e+00 
46300 5.2151913974e+00 4.2792307344e-04 2.1559733320e+00 -3.7342553507e+00 2.1559733320e+00 3.7342553507e+00 
46400 5.2151913699e+00 4.3480133735e-04 2.1559634078e+00 -3.7342381616e+00 2.1559634078e+00 3.7342381616e+00 
46500 5.2151913437e+00 4.4125754774e-04 2.1559533241e+00 -3.7342206962e+00 2.1559533241e+00 3.7342206962e+00 
46600 5.2151913190e+00 4.4729289569e-04 2.1559430907e+00 -3.7342029713e+00 2.1559430907e+00 3.7342029713e+00 
46700 5.2151912960e+00 4.5290897358e-04 2.1559327172e+00 -3.7341850039e+00 2.1559327172e+00 3.7341850039e+00 
46800 5.2151912749e+00 4.5810776432e-04 2.1559222134e+00 -3.7341668108e+00 2.1559222134e+00 3.7341668108e+00 
46900 5.2151912556e+00 4.6289163050e-04 2.1559115890e+00 -3.7341484088e+00 2.1559115890e+00 3.7341484088e+00 
47000 5.2151912384e+00 4.6726330341e-04 2.1559008536e+00 -3.7341298146e+00 2.1559008536e+00 3.7341298146e+00 
47100 5.2151912233e+00 4.7122587184e-04 2.1558900168e+00 -3.7341110446e+00 2.1558900168e+00 3.7341110446e+00 
47200 5.2151912104e+00 4.7478277086e-04 2.1558790880e+00 -3.7340921154e+00 2.1558790880e+00 3.7340921154e+00 
47300 5.2151911999e+00 4.7793777045e-04 2.1558680767e+00 -3.7340730432e+00 2.1558680767e+00 3.7340730432e+00 
47400 5.2151911916e+00 4.8069496414e-04 2.1558569921e+00 -3.7340538442e+00 2.1558569921e+00 3.7340538442e+00 
47500 5.2151911858e+00 4.8305875744e-04 2.1558458435e+00 -3.7340345343e+00 2.1558458435e+00 3.7340345343e+00 
47600 5.2151911824e+00 4.8503385639e-04 2.1558346401e+00 -3.7340151293e+00 2.1558346401e+00 3.7340151293e+00 
47700 5.2151911814e+00 4.8662525596e-04 2.1558233908e+00 -3.7339956450e+00 2.1558233908e+00 3.7339956450e+00 
47800 5.2151911829e+00 4.8783822845e-04 2.1558121045e+00 -3.7339760965e+00 2.1558121045e+00 3.7339760965e+00 
47900 5.2151911869e+00 4.8867831192e-04 2.1558007900e+00 -3.7339564993e+00 2.1558007900e+00 3.7339564993e+00 
48000 5.2151911933e+00 4.8915129863e-04 2.1557894560e+00 -3.7339368682e+00 2.1557894560e+00 3.7339368682e+00 
48100 5.2151912022e+00 4.8926322345e-04 2.1557781109e+00 -3.7339172180e+00 2.1557781109e+00 3.7339172180e+00 
48200 5.2151912135e+00 4.8902035230e-04 2.1557667632e+00 -3.7338975632e+00 2.1557667632e+00 3.7338975632e+00 
48300 5.2151912271e+00 4.8842917071e-04 2.1557554211e+00 -3.7338779180e+00 2.1557554211e+00 3.7338779180e+00 
48400 5.2151912431e+00 4.8749637237e-04 2.1557440926e+00 -3.7338582965e+00 2.1557440926e+00 3.7338582965e+00 
48500 5.2151912614e+00 4.8622884774e-04 2.1557327857e+00 -3.7338387124e+00 2.1557327857e+00 3.7338387124e+00 
48600 5.2151912818e+00 4.8463367280e-04 2.1557215081e+00 -3.7338191790e+00 2.1557215081e+00 3.7338191790e+00 
48700 5.2151913045e+00 4.8271809778e-04 2.1557102675e+00 -3.7337997097e+00 2.1557102675e+00 3.7337997097e+00 
48800 5.2151913292e+00 4.8048953612e-04 2.1556990712e+00 -3.7337803172e+00 2.1556990712e+00 3.7337803172e+00 
48900 5.2151913559e+00 4.7795555338e-04 2.1556879266e+00 -3.7337610142e+00 2.1556879266e+00 3.7337610142e+00 
49000 5.2151913845e+00 4.7512385645e-04 2.1556768407e+00 -3.7337418128e+00 2.1556768407e+00 3.7337418128e+00 
49100 5.2151914150e+00 4.7200228266e-04 2.1556658204e+00 -3.7337227251e+00 2.1556658204e+00 3.7337227251e+00 
49200 5.2151914472e+00 4.6859878924e-04 2.1556548725e+00 -3.7337037627e+00 2.1556548725e+00 3.7337037627e+00 
49300 5.2151914810e+00 4.6492144276e-04 2.1556440034e+00 -3.7336849370e+00 2.1556440034e+00 3.7336849370e+00 
49400 5.2151915164e+00 4.6097840877e-04 2.1556332196e+00 -3.7336662589e+00 2.1556332196e+00 3.7336662589e+00 
49500 5.2151915532e+00 4.5677794162e-04 2.1556225272e+00 -3.7336477391e+00 2.1556225272e+00 3.7336477391e+00 
49600 5.2151915914e+00 4.5232837440e-04 2.1556119322e+00 -3.7336293880e+00 2.1556119322e+00 3.7336293880e+00 
49700 5.2151916307e+00 4.4763810905e-04 2.1556014403e+00 -3.7336112155e+00 2.1556014403e+00 3.7336112155e+00 
49800 5.2151916712e+00 4.4271560660e-04 2.1555910572e+00 -3.7335932314e+00 2.1555910572e+00 3.7335932314e+00 
49900 5.2151917127e+00 4.3756937774e-04 2.1555807882e+00 -3.7335754450e+00 2.1555807882e+00 3.7335754450e+00 
50000 5.2151917551e+00 4.3220797333e-04 2.1555706385e+00 -3.7335578652e+00 2.1555706385e+00 3.7335578652e+00 
50100 5.2151917982e+00 4.2663997533e-04 2.1555606132e+00 -3.7335405008e+00 2.1555606132e+00 3.7335405008e+00 
50200 5.2151918421e+00 4.2087398773e-04 2.1555507169e+00 -3.7335233600e+00 2.1555507169e+00 3.7335233600e+00 
50300 5.2151918865e+00 4.1491862782e-04 2.1555409543e+00 -3.7335064507e+00 2.1555409543e+00 3.7335064507e+00 
50400 5.2151919313e+00 4.0878251755e-04 2.1555313299e+00 -3.7334897807e+00 2.1555313299e+00 3.7334897807e+00 
50500 5.2151919765e+00 4.0247427516e-04 2.1555218477e+00 -3.7334733571e+00 2.1555218477e+00 3.7334733571e+00 
50600 5.2151920220e+00 3.9600250698e-04 2.1555125118e+00 -3.7334571869e+00 2.1555125118e+00 3.7334571869e+00 
50700 5.2151920676e+00 3.8937579941e-04 2.1555033260e+00 -3.7334412766e+00 2.1555033260e+00 3.7334412766e+00 
50800 5.2151921132e+00 3.8260271120e-04 2.1554942939e+00 -3.7334256325e+00 2.1554942939e+00 3.7334256325e+00 
50900 5.2151921588e+00 3.7569176582e-04 2.1554854189e+00 -3.7334102604e+00 2.1554854189e+00 3.7334102604e+00 
51000 5.2151922042e+00 3.6865144415e-04 2.1554767041e+00 -3.7333951660e+00 2.1554767041e+00 3.7333951660e+00 
51100 5.2151922494e+00 3.6149017732e-04 2.1554681526e+00 -3.7333803544e+00 2.1554681526e+00 3.7333803544e+00 
51200 5.2151922942e+00 3.5421633976e-04 2.1554597672e+00 -3.7333658304e+00 2.1554597672e+00 3.7333658304e+00 
51300 5.2151923387e+00 3.4683824254e-04 2.1554515504e+00 -3.7333515986e+00 2.1554515504e+00 3.7333515986e+00 
51400 5.2151923826e+00 3.3936412681e-04 2.1554435048e+00 -3.7333376632e+00 2.1554435048e+00 3.7333376632e+00 
51500 5.2151924260e+00 3.3180215759e-04 2.1554356326e+00 -3.7333240281e+00 2.1554356326e+00 3.7333240281e+00 
51600 5.2151924687e+00 3.2416041767e-04 2.1554279357e+00 -3.7333106967e+00 2.1554279357e+00 3.7333106967e+00 
51700 5.2151925107e+00 3.1644690179e-04 2.1554204161e+00 -3.7332976724e+00 2.1554204161e+00 3.7332976724e+00 
51800 5.2151925520e+00 3.0866951099e-04 2.1554130754e+00 -3.7332849579e+00 2.1554130754e+00 3.7332849579e+00 
51900 5.2151925923e+00 3.0083604727e-04 2.1554059151e+00 -3.7332725558e+00 2.1554059151e+00 3.7332725558e+00 
52000 5.2151926318e+00 2.9295420835e-04 2.1553989364e+00 -3.7332604685e+00 2.1553989364e+00 3.7332604685e+00 
52100 5.2151926704e+00 2.8503158269e-04 2.1553921406e+00 -3.7332486978e+00 2.1553921406e+00 3.7332486978e+00 
52200 5.2151927079e+00 2.7707564483e-04 2.1553855285e+00 -3.7332372453e+00 2.1553855285e+00 3.7332372453e+00 
52300 5.2151927444e+00 2.6909375074e-04 2.1553791010e+00 -3.7332261126e+00 2.1553791010e+00 3.7332261126e+00 
52400 5.2151927799e+00 2.6109313358e-04 2.1553728587e+00 -3.7332153004e+00 2.1553728587e+00 3.7332153004e+00 
52500 5.2151928142e+00 2.5308089956e-04 2.1553668019e+00 -3.7332048098e+00 2.1553668019e+00 3.7332048098e+00 
52600 5.2151928474e+00 2.4506402405e-04 2.1553609309e+00 -3.7331946410e+00 2.1553609309e+00 3.7331946410e+00 
52700 5.2151928794e+00 2.3704934787e-04 2.1553552459e+00 -3.7331847943e+00 2.1553552459e+00 3.7331847943e+00 
52800 5.2151929102e+00 2.2904357388e-04 2.1553497469e+00 -3.7331752696e+00 2.1553497469e+00 3.7331752696e+00 
52900 5.2151929399e+00 2.2105326362e-04 2.1553444335e+00 -3.7331660666e+00 2.1553444335e+00 3.7331660666e+00 
53000 5.2151929683e+00 2.1308483430e-04 2.1553393055e+00 -3.7331571846e+00 2.1553393055e+00 3.7331571846e+00 
53100 5.2151929955e+00 2.0514455591e-04 2.1553343623e+00 -3.7331486228e+00 2.1553343623e+00 3.7331486228e+00 
53200 5.2151930215e+00 1.9723854856e-04 2.1553296033e+00 -3.7331403799e+00 2.1553296033e+00 3.7331403799e+00 
53300 5.2151930462e+00 1.8937278002e-04 2.1553250277e+00 -3.7331324548e+00 2.1553250277e+00 3.7331324548e+00 
53400 5.2151930698e+00 1.8155306341e-04 2.1553206345e+00 -3.7331248456e+00 2.1553206345e+00 3.7331248456e+00 
53500 5.2151930921e+00 1.7378505518e-04 2.1553164228e+00 -3.7331175507e+00 2.1553164228e+00 3.7331175507e+00 
53600 5.2151931132e+00 1.6607425314e-04 2.1553123913e+00 -3.7331105678e+00 2.1553123913e+00 3.7331105678e+00 
53700 5.2151931331e+00 1.5842599482e-04 2.1553085386e+00 -3.7331038948e+00 2.1553085386e+00 3.7331038948e+00 
53800 5.2151931518e+00 1.5084545593e-04 2.1553048633e+00 -3.7330975291e+00 2.1553048633e+00 3.7330975291e+00 
53900 5.2151931694e+00 1.4333764898e-04 2.1553013639e+00 -3.7330914680e+00 2.1553013639e+00 3.7330914680e+00 
54000 5.2151931858e+00 1.3590742217e-04 2.1552980387e+00 -3.7330857085e+00 2.1552980387e+00 3.7330857085e+00 
54100 5.2151932012e+00 1.2855945835e-04 2.1552948858e+00 -3.7330802476e+00 2.1552948858e+00 3.7330802476e+00 
54200 5.2151932154e+00 1.2129827426e-04 2.1552919034e+00 -3.7330750819e+00 2.1552919034e+00 3.7330750819e+00 
54300 5.2151932286e+00 1.1412821985e-04 2.1552890895e+00 -3.7330702080e+00 2.1552890895e+00 3.7330702080e+00 
54400 5.2151932408e+00 1.0705347775e-04 2.1552864418e+00 -3.7330656221e+00 2.1552864418e+00 3.7330656221e+00 
54500 5.2151932520e+00 1.0007806305e-04 2.1552839583e+00 -3.7330613206e+00 2.1552839583e+00 3.7330613206e+00 
54600 5.2151932622e+00 9.3205823039e-05 2.1552816366e+00 -3.7330572993e+00 2.1552816366e+00 3.7330572993e+00 
54700 5.2151932715e+00 8.6440437252e-05 2.1552794744e+00 -3.7330535541e+00 2.1552794744e+00 3.7330535541e+00 
54800 5.2151932799e+00 7.9785417581e-05 2.1552774691e+00 -3.7330500808e+00 2.1552774691e+00 3.7330500808e+00 
54900 5.2151932875e+00 7.3244108596e-05 2.1552756181e+00 -3.7330468749e+00 2.1552756181e+00 3.7330468749e+00 
55000 5.2151932943e+00 6.6819687919e-05 2.1552739189e+00 -3.7330439318e+00 2.1552739189e+00 3.7330439318e+00 
55100 5.2151933004e+00 6.1313011924e-05 2.1552739189e+00 -3.7330439318e+00 2.1552739189e+00 3.7330439318e+00 
55200 5.2151933057e+00 5.5860591282e-05 2.1552739189e+00 -3.7330439318e+00 2.1552739189e+00 3.7330439318e+00 
55300 5.2151933103e+00 5.0466717818e-05 2.1552739189e+00 -3.7330439318e+00 2.1552739189e+00 3.7330439318e+00 
55400 5.2151933143e+00 4.5135432974e-05 2.1552739189e+00 -3.7330439318e+00 2.1552739189e+00 3.7330439318e+00 
55500 5.2151933177e+00 3.9870535322e-05 2.1552739189e+00 -3.7330439318e+00 2.1552739189e+00 3.7330439318e+00 
55600 5.2151933204e+00 3.4675588043e-05 2.1552739189e+00 -3.7330439318e+00 2.1552739189e+00 3.7330439318e+00 
55700 5.2151933227e+00 2.9553926359e-05 2.1552739189e+00 -3.7330439318e+00 2.1552739189e+00 3.7330439318e+00 
55800 5.2151933245e+00 2.4508664973e-05 2.1552739189e+00 -3.7330439318e+00 2.1552739189e+00 3.7330439318e+00 
55900 5.2151933258e+00 1.9542705381e-05 2.1552739189e+00 -3.7330439318e+00 2.1552739189e+00 3.7330439318e+00 
56000 5.2151933268e+00 1.4658743176e-05 2.1552739189e+00 -3.7330439318e+00 2.1552739189e+00 3.7330439318e+00 
56100 5.2151933274e+00 9.8592752202e-06 2.1552739189e+00 -3.7330439318e+00 2.1552739189e+00 3.7330439318e+00 
56200 5.2151933277e+00 5.1466067593e-06 2.1552739189e+00 -3.7330439318e+00 2.1552739189e+00 3.7330439318e+00 
56300 5.2151933277e+00 5.2285840452e-07 2.1552739189e+00 -3.7330439318e+00 2.1552739189e+00 3.7330439318e+00 
56400 5.2151933276e+00 -4.0100269739e-06 2.1552739189e+00 -3.7330439318e+00 2.1552739189e+00 3.7330439318e+00 
56500 5.2151933272e+00 -8.4502774870e-06 2.1552739189e+00 -3.7330439318e+00 2.1552739189e+00 3.7330439318e+00 
56600 5.2151933267e+00 -1.2796285585e-05 2.1552739189e+00 -3.7330439318e+00 2.1552739189e+00 3.7330439318e+00 
56700 5.2151933260e+00 -1.7046601574e-05 2.1552739189e+00 -3.7330439318e+00 2.1552739189e+00 3.7330439318e+00 
56800 5.2151933253e+00 -2.1199927233e-05 2.1552739189e+00 -3.7330439318e+00 2.1552739189e+00 3.7330439318e+00 
56900 5.2151933246e+00 -2.5255109619e-05 2.1552739189e+00 -3.7330439318e+00 2.1552739189e+00 3.7330439318e+00 
57000 5.2151933238e+00 -2.9211134992e-05 2.1552739189e+00 -3.7330439318e+00 2.1552739189e+00 3.7330439318e+00 
57100 5.2151933230e+00 -3.3067122900e-05 2.1552739189e+00 -3.7330439318e+00 2.1552739189e+00 3.7330439318e+00 
57200 5.2151933223e+00 -3.6822320442e-05 2.1552739189e+00 -3.7330439318e+00 2.1552739189e+00 3.7330439318e+00 
57300 5.2151933217e+00 -4.0476096659e-05 2.1552739189e+00 -3.7330439318e+00 2.1552739189e+00 3.7330439318e+00 
57400 5.2151933211e+00 -4.4027937107e-05 2.1552739189e+00 -3.7330439318e+00 2.1552739189e+00 3.7330439318e+00 
57500 5.2151933207e+00 -4.7477438589e-05 2.1552739189e+00 -3.7330439318e+00 2.1552739189e+00 3.7330439318e+00 
57600 5.2151933204e+00 -5.0824304065e-05 2.1552739189e+00 -3.7330439318e+00 2.1552739189e+00 3.7330439318e+00 
57700 5.2151933203e+00 -5.4068337691e-05 2.1552739189e+00 -3.7330439318e+00 2.1552739189e+00 3.7330439318e+00 
57800 5.2151933204e+00 -5.7209440048e-05 2.1552739189e+00 -3.7330439318e+00 2.1552739189e+00 3.7330439318e+00 
57900 5.2151933206e+00 -6.0247603557e-05 2.1552739189e+00 -3.7330439318e+00 2.1552739189e+00 3.7330439318e+00 
58000 5.2151933211e+00 -6.3182908010e-05 2.1552739189e+00 -3.7330439318e+00 2.1552739189e+00 3.7330439318e+00 
58100 5.2151933218e+00 -6.6015516294e-05 2.1552739189e+00 -3.7330439318e+00 2.1552739189e+00 3.7330439318e+00 
58200 5.2151933227e+00 -6.8745670277e-05 2.1552739189e+00 -3.7330439318e+00 2.1552739189e+00 3.7330439318e+00 
58300 5.2151933238e+00 -7.1373686839e-05 2.1552739189e+00 -3.7330439318e+00 2.1552739189e+00 3.7330439318e+00 
58400 5.2151933251e+00 -7.3047949243e-05 2.1552755747e+00 -3.7330467997e+00 2.1552755747e+00 3.7330467997e+00 
58500 5.2151933267e+00 -7.4593679574e-05 2.1552772694e+00 -3.7330497349e+00 2.1552772694e+00 3.7330497349e+00 
58600 5.2151933285e+00 -7.6011922950e-05 2.1552789999e+00 -3.7330527322e+00 2.1552789999e+00 3.7330527322e+00 
58700 5.2151933305e+00 -7.7303826878e-05 2.1552807632e+00 -3.7330557865e+00 2.1552807632e+00 3.7330557865e+00 
58800 5.2151933328e+00 -7.8470638279e-05 2.1552825566e+00 -3.7330588927e+00 2.1552825566e+00 3.7330588927e+00 
58900 5.2151933354e+00 -7.9513700517e-05 2.1552843770e+00 -3.7330620458e+00 2.1552843770e+00 3.7330620458e+00 
59000 5.2151933382e+00 -8.0434450379e-05 2.1552862217e+00 -3.7330652408e+00 2.1552862217e+00 3.7330652408e+00 
59100 5.2151933413e+00 -8.1234414904e-05 2.1552880876e+00 -3.7330684727e+00 2.1552880876e+00 3.7330684727e+00 
59200 5.2151933447e+00 -8.1915208356e-05 2.1552899722e+00 -3.7330717368e+00 2.1552899722e+00 3.7330717368e+00 
59300 5.2151933483e+00 -8.2478529020e-05 2.1552918725e+00 -3.7330750283e+00 2.1552918725e+00 3.7330750283e+00 
59400 5.2151933522e+00 -8.2926156012e-05 2.1552937859e+00 -3.7330783424e+00 2.1552937859e+00 3.7330783424e+00 
59500 5.2151933563e+00 -8.3259946095e-05 2.1552957097e+00 -3.7330816745e+00 2.1552957097e+00 3.7330816745e+00 
59600 5.2151933606e+00 -8.3481830456e-05 2.1552976412e+00 -3.7330850200e+00 2.1552976412e+00 3.7330850200e+00 
59700 5.2151933652e+00 -8.3593811402e-05 2.1552995779e+00 -3.7330883744e+00 2.1552995779e+00 3.7330883744e+00 
59800 5.2151933701e+00 -8.3597959165e-05 2.1553015171e+00 -3.7330917333e+00 2.1553015171e+00 3.7330917333e+00 
59900 5.2151933751e+00 -8.3496408582e-05 2.1553034565e+00 -3.7330950924e+00 2.1553034565e+00 3.7330950924e+00 
60000 5.2151933804e+00 -8.3291355834e-05 2.1553053935e+00 -3.7330984473e+00 2.1553053935e+00 3.7330984473e+00 
60100 5.2151933858e+00 -8.2985055162e-05 2.1553073257e+00 -3.7331017941e+00 2.1553073257e+00 3.7331017941e+00 
60200 5.2151933915e+00 -8.2579815582e-05 2.1553092509e+00 -3.7331051285e+00 2.1553092509e+00 3.7331051285e+00 
60300 5.2151933973e+00 -8.2077997616e-05 2.1553111666e+00 -3.7331084466e+00 2.1553111666e+00 3.7331084466e+00 
60400 5.2151934033e+00 -8.1482010014e-05 2.1553130707e+00 -3.7331117446e+00 2.1553130707e+00 3.7331117446e+00 
60500 5.2151934095e+00 -8.0794306487e-05 2.1553149609e+00 -3.7331150186e+00 2.1553149609e+00 3.7331150186e+00 
60600 5.2151934158e+00 -8.0017382495e-05 2.1553168352e+00 -3.7331182650e+00 2.1553168352e+00 3.7331182650e+00 
60700 5.2151934223e+00 -7.9153771979e-05 2.1553186915e+00 -3.7331214802e+00 2.1553186915e+00 3.7331214802e+00 
60800 5.2151934289e+00 -7.8206044197e-05 2.1553205278e+00 -3.7331246607e+00 2.1553205278e+00 3.7331246607e+00 
60900 5.2151934356e+00 -7.7176800487e-05 2.1553223420e+00 -3.7331278031e+00 2.1553223420e+00 3.7331278031e+00 
61000 5.2151934423e+00 -7.6068671187e-05 2.1553241324e+00 -3.7331309041e+00 2.1553241324e+00 3.7331309041e+00 
61100 5.2151934492e+00 -7.4884312438e-05 2.1553258971e+00 -3.7331339606e+00 2.1553258971e+00 3.7331339606e+00 
61200 5.2151934562e+00 -7.3626403143e-05 2.1553276343e+00 -3.7331369695e+00 2.1553276343e+00 3.7331369695e+00 
61300 5.2151934632e+00 -7.2297641871e-05 2.1553293423e+00 -3.7331399278e+00 2.1553293423e+00 3.7331399278e+00 
61400 5.2151934702e+00 -7.0900743872e-05 2.1553310194e+00 -3.7331428328e+00 2.1553310194e+00 3.7331428328e+00 
61500 5.2151934773e+00 -6.9438438072e-05 2.1553326642e+00 -3.7331456816e+00 2.1553326642e+00 3.7331456816e+00 
61600 5.2151934845e+00 -6.8742190604e-05 2.1553326642e+00 -3.7331456816e+00 2.1553326642e+00 3.7331456816e+00 
61700 5.2151934917e+00 -6.7974890877e-05 2.1553326642e+00 -3.7331456816e+00 2.1553326642e+00 3.7331456816e+00 
61800 5.2151934989e+00 -6.7139237431e-05 2.1553326642e+00 -3.7331456816e+00 2.1553326642e+00 3.7331456816e+00 
61900 5.2151935061e+00 -6.6237880690e-05 2.1553326642e+00 -3.7331456816e+00 2.1553326642e+00 3.7331456816e+00 
62000 5.2151935132e+00 -6.5273422417e-05 2.1553326642e+00 -3.7331456816e+00 2.1553326642e+00 3.7331456816e+00 
62100 5.2151935203e+00 -6.4248415346e-05 2.1553326642e+00 -3.7331456816e+00 2.1553326642e+00 3.7331456816e+00 
62200 5.2151935274e+00 -6.3165362904e-05 2.1553326642e+00 -3.7331456816e+00 2.1553326642e+00 3.7331456816e+00 
62300 5.2151935343e+00 -6.2026719082e-05 2.1553326642e+00 -3.7331456816e+00 2.1553326642e+00 3.7331456816e+00 
62400 5.2151935412e+00 -6.0834888405e-05 2.1553326642e+00 -3.7331456816e+00 2.1553326642e+00 3.7331456816e+00 
62500 5.2151935480e+00 -5.9592226002e-05 2.1553326642e+00 -3.7331456816e+00 2.1553326642e+00 3.7331456816e+00 
62600 5.2151935548e+00 -5.8301037788e-05 2.1553326642e+00 -3.7331456816e+00 2.1553326642e+00 3.7331456816e+00 
62700 5.2151935614e+00 -5.6963580721e-05 2.1553326642e+00 -3.7331456816e+00 2.1553326642e+00 3.7331456816e+00 
62800 5.2151935679e+00 -5.5582063146e-05 2.1553326642e+00 -3.7331456816e+00 2.1553326642e+00 3.7331456816e+00 
62900 5.2151935742e+00 -5.4158645211e-05 2.1553326642e+00 -3.7331456816e+00 2.1553326642e+00 3.7331456816e+00 
63000 5.2151935805e+00 -5.2695439350e-05 2.1553326642e+00 -3.7331456816e+00 2.1553326642e+00 3.7331456816e+00 
63100 5.2151935866e+00 -5.1194510836e-05 2.1553326642e+00 -3.7331456816e+00 2.1553326642e+00 3.7331456816e+00 
63200 5.2151935926e+00 -4.9657878384e-05 2.1553326642e+00 -3.7331456816e+00 2.1553326642e+00 3.7331456816e+00 
63300 5.2151935984e+00 -4.8087514791e-05 2.1553326642e+00 -3.7331456816e+00 2.1553326642e+00 3.7331456816e+00 
63400 5.2151936041e+00 -4.6485347632e-05 2.1553326642e+00 -3.7331456816e+00 2.1553326642e+00 3.7331456816e+00 
63500 5.2151936097e+00 -4.4853260003e-05 2.1553326642e+00 -3.7331456816e+00 2.1553326642e+00 3.7331456816e+00 
63600 5.2151936150e+00 -4.3193091263e-05 2.1553326642e+00 -3.7331456816e+00 2.1553326642e+00 3.7331456816e+00 
63700 5.2151936203e+00 -4.1506637841e-05 2.1553326642e+00 -3.7331456816e+00 2.1553326642e+00 3.7331456816e+00 
63800 5.2151936253e+00 -3.9795654040e-05 2.1553326642e+00 -3.7331456816e+00 2.1553326642e+00 3.7331456816e+00 
63900 5.2151936303e+00 -3.8061852856e-05 2.1553326642e+00 -3.7331456816e+00 2.1553326642e+00 3.7331456816e+00 
64000 5.2151936350e+00 -3.6306906834e-05 2.1553326642e+00 -3.7331456816e+00 2.1553326642e+00 3.7331456816e+00 
64100 5.2151936396e+00 -3.4532448910e-05 2.1553326642e+00 -3.7331456816e+00 2.1553326642e+00 3.7331456816e+00 
64200 5.2151936440e+00 -3.2740073276e-05 2.1553326642e+00 -3.7331456816e+00 2.1553326642e+00 3.7331456816e+00 
64300 5.2151936483e+00 -3.0931336213e-05 2.1553326642e+00 -3.7331456816e+00 2.1553326642e+00 3.7331456816e+00 
64400 5.2151936523e+00 -2.9107756975e-05 2.1553326642e+00 -3.7331456816e+00 2.1553326642e+00 3.7331456816e+00 
64500 5.2151936563e+00 -2.7270818627e-05 2.1553326642e+00 -3.7331456816e+00 2.1553326642e+00 3.7331456816e+00 
64600 5.2151936600e+00 -2.5421968874e-05 2.1553326642e+00 -3.7331456816e+00 2.1553326642e+00 3.7331456816e+00 
64700 5.2151936637e+00 -2.3562620899e-05 2.1553326642e+00 -3.7331456816e+00 2.1553326642e+00 3.7331456816e+00 
64800 5.2151936671e+00 -2.1694154200e-05 2.1553326642e+00 -3.7331456816e+00 2.1553326642e+00 3.7331456816e+00 
64900 5.2151936704e+00 -1.9817915357e-05 2.1553326642e+00 -3.7331456816e+00 2.1553326642e+00 3.7331456816e+00 
65000 5.2151936736e+00 -1.7935218841e-05 2.1553326642e+00 -3.7331456816e+00 2.1553326642e+00 3.7331456816e+00 
65100 5.2151936766e+00 -1.6047347771e-05 2.1553326642e+00 -3.7331456816e+00 2.1553326642e+00 3.7331456816e+00 
65200 5.2151936794e+00 -1.4155554652e-05 2.1553326642e+00 -3.7331456816e+00 2.1553326642e+00 3.7331456816e+00 
65300 5.2151936822e+00 -1.2261062106e-05 2.1553326642e+00 -3.7331456816e+00 2.1553326642e+00 3.7331456816e+00 
65400 5.2151936847e+00 -1.0365063559e-05 2.1553326642e+00 -3.7331456816e+00 2.1553326642e+00 3.7331456816e+00 
65500 5.2151936872e+00 -8.4687239125e-06 2.1553326642e+00 -3.7331456816e+00 2.1553326642e+00 3.7331456816e+00 
65600 5.2151936895e+00 -6.5731802095e-06 2.1553326642e+00 -3.7331456816e+00 2.1553326642e+00 3.7331456816e+00 
65700 5.2151936917e+00 -4.6795422201e-06 2.1553326642e+00 -3.7331456816e+00 2.1553326642e+00 3.7331456816e+00 
65800 5.2151936938e+00 -2.7888930526e-06 2.1553326642e+00 -3.7331456816e+00 2.1553326642e+00 3.7331456816e+00 
65900 5.2151936958e+00 -9.0228971772e-07 2.1553326642e+00 -3.7331456816e+00 2.1553326642e+00 3.7331456816e+00 
66000 5.2151936977e+00 9.7923633151e-07 2.1553326642e+00 -3.7331456816e+00 2.1553326642e+00 3.7331456816e+00 
66100 5.2151936995e+00 2.8546787209e-06 2.1553326642e+00 -3.7331456816e+00 2.1553326642e+00 3.7331456816e+00 
66200 5.2151937011e+00 4.7230556323e-06 2.1553326642e+00 -3.7331456816e+00 2.1553326642e+00 3.7331456816e+00 
66300 5.2151937027e+00 6.5834093899e-06 2.1553326642e+00 -3.7331456816e+00 2.1553326642e+00 3.7331456816e+00 
66400 5.2151937042e+00 8.4348060228e-06 2.1553326642e+00 -3.7331456816e+00 2.1553326642e+00 3.7331456816e+00 
66500 5.2151937056e+00 1.0276334865e-05 2.1553326642e+00 -3.7331456816e+00 2.1553326642e+00 3.7331456816e+00 
66600 5.2151937070e+00 1.2107108209e-05 2.1553326642e+00 -3.7331456816e+00 2.1553326642e+00 3.7331456816e+00 
66700 5.2151937082e+00 1.3926260932e-05 2.1553326642e+00 -3.7331456816e+00 2.1553326642e+00 3.7331456816e+00 
66800 5.2151937094e+00 1.5732950222e-05 2.1553326642e+00 -3.7331456816e+00 2.1553326642e+00 3.7331456816e+00 
66900 5.2151937106e+00 1.7526355253e-05 2.1553326642e+00 -3.7331456816e+00 2.1553326642e+00 3.7331456816e+00 
67000 5.2151937117e+00 1.9305676947e-05 2.1553326642e+00 -3.7331456816e+00 2.1553326642e+00 3.7331456816e+00 
67100 5.2151937127e+00 2.1070137723e-05 2.1553326642e+00 -3.7331456816e+00 2.1553326642e+00 3.7331456816e+00 
67200 5.2151937137e+00 2.2818981282e-05 2.1553326642e+00 -3.7331456816e+00 2.1553326642e+00 3.7331456816e+00 
67300 5.2151937146e+00 2.4551472417e-05 2.1553326642e+00 -3.7331456816e+00 2.1553326642e+00 3.7331456816e+00 
67400 5.2151937156e+00 2.6266896831e-05 2.1553326642e+00 -3.7331456816e+00 2.1553326642e+00 3.7331456816e+00 
67500 5.2151937164e+00 2.7964561002e-05 2.1553326642e+00 -3.7331456816e+00 2.1553326642e+00 3.7331456816e+00 
67600 5.2151937173e+00 2.9643792029e-05 2.1553326642e+00 -3.7331456816e+00 2.1553326642e+00 3.7331456816e+00 
67700 5.2151937181e+00 3.1303937537e-05 2.1553326642e+00 -3.7331456816e+00 2.1553326642e+00 3.7331456816e+00 
67800 5.2151937190e+00 3.2944365560e-05 2.1553326642e+00 -3.7331456816e+00 2.1553326642e+00 3.7331456816e+00 
67900 5.2151937198e+00 3.4564464474e-05 2.1553326642e+00 -3.7331456816e+00 2.1553326642e+00 3.7331456816e+00 
68000 5.2151937206e+00 3.6163642920e-05 2.1553326642e+00 -3.7331456816e+00 2.1553326642e+00 3.7331456816e+00 
68100 5.2151937213e+00 3.7741329752e-05 2.1553326642e+00 -3.7331456816e+00 2.1553326642e+00 3.7331456816e+00 
68200 5.2151937221e+00 3.9296973996e-05 2.1553326642e+00 -3.7331456816e+00 2.1553326642e+00 3.7331456816e+00 
68300 5.2151937229e+00 4.0830044812e-05 2.1553326642e+00 -3.7331456816e+00 2.1553326642e+00 3.7331456816e+00 
68400 5.2151937237e+00 4.2340031488e-05 2.1553326642e+00 -3.7331456816e+00 2.1553326642e+00 3.7331456816e+00 
68500 5.2151937245e+00 4.3826443400e-05 2.1553326642e+00 -3.7331456816e+00 2.1553326642e+00 3.7331456816e+00 
68600 5.2151937253e+00 4.5288810043e-05 2.1553326642e+00 -3.7331456816e+00 2.1553326642e+00 3.7331456816e+00 
68700 5.2151937261e+00 4.6726680988e-05 2.1553326642e+00 -3.7331456816e+00 2.1553326642e+00 3.7331456816e+00 
68800 5.2151937269e+00 4.8139625931e-05 2.1553326642e+00 -3.7331456816e+00 2.1553326642e+00 3.7331456816e+00 
68900 5.2151937277e+00 4.9527234660e-05 2.1553326642e+00 -3.7331456816e+00 2.1553326642e+00 3.7331456816e+00 
69000 5.2151937286e+00 5.0889117104e-05 2.1553326642e+00 -3.7331456816e+00 2.1553326642e+00 3.7331456816e+00 
69100 5.2151937294e+00 5.2224903317e-05 2.1553326642e+00 -3.7331456816e+00 2.1553326642e+00 3.7331456816e+00 
69200 5.2151937303e+00 5.3534243511e-05 2.1553326642e+00 -3.7331456816e+00 2.1553326642e+00 3.7331456816e+00 
69300 5.2151937312e+00 5.4816808056e-05 2.1553326642e+00 -3.7331456816e+00 2.1553326642e+00 3.7331456816e+00 
69400 5.2151937321e+00 5.6072287505e-05 2.1553326642e+00 -3.7331456816e+00 2.1553326642e+00 3.7331456816e+00 
69500 5.2151937330e+00 5.7300392586e-05 2.1553326642e+00 -3.7331456816e+00 2.1553326642e+00 3.7331456816e+00 
69600 5.2151937340e+00 5.8500854215e-05 2.1553326642e+00 -3.7331456816e+00 2.1553326642e+00 3.7331456816e+00 
69700 5.2151937350e+00 5.9673423502e-05 2.1553326642e+00 -3.7331456816e+00 2.1553326642e+00 3.7331456816e+00 
69800 5.2151937360e+00 6.0817871738e-05 2.1553326642e+00 -3.7331456816e+00 2.1553326642e+00 3.7331456816e+00 
69900 5.2151937370e+00 6.1933990389e-05 2.1553326642e+00 -3.7331456816e+00 2.1553326642e+00 3.7331456816e+00 
70000 5.2151937381e+00 6.3021591068e-05 2.1553326642e+00 -3.7331456816e+00 2.1553326642e+00 3.7331456816e+00 
70100 5.2151937391e+00 6.4080505517e-05 2.1553326642e+00 -3.7331456816e+00 2.1553326642e+00 3.7331456816e+00 
70200 5.2151937402e+00 6.5110585576e-05 2.1553326642e+00 -3.7331456816e+00 2.1553326642e+00 3.7331456816e+00 
70300 5.2151937413e+00 6.6111703128e-05 2.1553326642e+00 -3.7331456816e+00 2.1553326642e+00 3.7331456816e+00 
70400 5.2151937425e+00 6.7083750056e-05 2.1553326642e+00 -3.7331456816e+00 2.1553326642e+00 3.7331456816e+00 
70500 5.2151937436e+00 6.8026638168e-05 2.1553326642e+00 -3.7331456816e+00 2.1553326642e+00 3.7331456816e+00 
70600 5.2151937448e+00 6.8940299123e-05 2.1553326642e+00 -3.7331456816e+00 2.1553326642e+00 3.7331456816e+00 
70700 5.2151937460e+00 6.9824684359e-05 2.1553326642e+00 -3.7331456816e+00 2.1553326642e+00 3.7331456816e+00 
70800 5.2151937472e+00 7.0679764973e-05 2.1553326642e+00 -3.7331456816e+00 2.1553326642e+00 3.7331456816e+00 
70900 5.2151937485e+00 7.1505531623e-05 2.1553326642e+00 -3.7331456816e+00 2.1553326642e+00 3.7331456816e+00 
71000 5.2151937496e+00 7.1448423137e-05 2.1553310054e+00 -3.7331428085e+00 2.1553310054e+00 3.7331428085e+00 
71100 5.2151937507e+00 7.1355428751e-05 2.1553293479e+00 -3.7331399377e+00 2.1553293479e+00 3.7331399377e+00 
71200 5.2151937519e+00 7.1226191402e-05 2.1553276926e+00 -3.7331370706e+00 2.1553276926e+00 3.7331370706e+00 
71300 5.2151937531e+00 7.1060442555e-05 2.1553260403e+00 -3.7331342086e+00 2.1553260403e+00 3.7331342086e+00 
71400 5.2151937542e+00 7.0858000048e-05 2.1553243918e+00 -3.7331313534e+00 2.1553243918e+00 3.7331313534e+00 
71500 5.2151937554e+00 7.0618765790e-05 2.1553227480e+00 -3.7331285063e+00 2.1553227480e+00 3.7331285063e+00 
71600 5.2151937567e+00 7.1185737903e-05 2.1553227480e+00 -3.7331285063e+00 2.1553227480e+00 3.7331285063e+00 
71700 5.2151937579e+00 7.0870087163e-05 2.1553210966e+00 -3.7331256460e+00 2.1553210966e+00 3.7331256460e+00 
71800 5.2151937591e+00 7.0518608694e-05 2.1553194525e+00 -3.7331227983e+00 2.1553194525e+00 3.7331227983e+00 
71900 5.2151937605e+00 7.0973266405e-05 2.1553194525e+00 -3.7331227983e+00 2.1553194525e+00 3.7331227983e+00 
72000 5.2151937617e+00 7.0547752446e-05 2.1553178061e+00 -3.7331199466e+00 2.1553178061e+00 3.7331199466e+00 
72100 5.2151937630e+00 7.0929995685e-05 2.1553178061e+00 -3.7331199466e+00 2.1553178061e+00 3.7331199466e+00 
72200 5.2151937642e+00 7.0433042800e-05 2.1553161606e+00 -3.7331170965e+00 2.1553161606e+00 3.7331170965e+00 
72300 5.2151937655e+00 7.0743873211e-05 2.1553161606e+00 -3.7331170965e+00 2.1553161606e+00 3.7331170965e+00 
72400 5.2151937668e+00 7.0178324029e-05 2.1553145195e+00 -3.7331142540e+00 2.1553145195e+00 3.7331142540e+00 
72500 5.2151937681e+00 7.0419023474e-05 2.1553145195e+00 -3.7331142540e+00 2.1553145195e+00 3.7331142540e+00 
72600 5.2151937694e+00 7.0628598885e-05 2.1553145195e+00 -3.7331142540e+00 2.1553145195e+00 3.7331142540e+00 
72700 5.2151937707e+00 7.0807887604e-05 2.1553145195e+00 -3.7331142540e+00 2.1553145195e+00 3.7331142540e+00 
72800 5.2151937719e+00 7.0112424477e-05 2.1553128768e+00 -3.7331114089e+00 2.1553128768e+00 3.7331114089e+00 
72900 5.2151937732e+00 7.0226422947e-05 2.1553128768e+00 -3.7331114089e+00 2.1553128768e+00 3.7331114089e+00 
73000 5.2151937744e+00 7.0311793375e-05 2.1553128768e+00 -3.7331114089e+00 2.1553128768e+00 3.7331114089e+00 
73100 5.2151937757e+00 7.0369417098e-05 2.1553128768e+00 -3.7331114089e+00 2.1553128768e+00 3.7331114089e+00 
73200 5.2151937770e+00 7.0400168707e-05 2.1553128768e+00 -3.7331114089e+00 2.1553128768e+00 3.7331114089e+00 
73300 5.2151937782e+00 7.0404915508e-05 2.1553128768e+00 -3.7331114089e+00 2.1553128768e+00 3.7331114089e+00 
73400 5.2151937794e+00 7.0384517050e-05 2.1553128768e+00 -3.7331114089e+00 2.1553128768e+00 3.7331114089e+00 
73500 5.2151937806e+00 7.0339824670e-05 2.1553128768e+00 -3.7331114089e+00 2.1553128768e+00 3.7331114089e+00 
73600 5.2151937818e+00 7.0271681088e-05 2.1553128768e+00 -3.7331114089e+00 2.1553128768e+00 3.7331114089e+00 
73700 5.2151937830e+00 7.0180920039e-05 2.1553128768e+00 -3.7331114089e+00 2.1553128768e+00 3.7331114089e+00 
73800 5.2151937841e+00 7.0068365919e-05 2.1553128768e+00 -3.7331114089e+00 2.1553128768e+00 3.7331114089e+00 
73900 5.2151937853e+00 6.9934833481e-05 2.1553128768e+00 -3.7331114089e+00 2.1553128768e+00 3.7331114089e+00 
74000 5.2151937864e+00 6.9781127555e-05 2.1553128768e+00 -3.7331114089e+00 2.1553128768e+00 3.7331114089e+00 
74100 5.2151937875e+00 6.9608042782e-05 2.1553128768e+00 -3.7331114089e+00 2.1553128768e+00 3.7331114089e+00 
74200 5.2151937886e+00 6.9416363396e-05 2.1553128768e+00 -3.7331114089e+00 2.1553128768e+00 3.7331114089e+00 
74300 5.2151937896e+00 6.9206863020e-05 2.1553128768e+00 -3.7331114089e+00 2.1553128768e+00 3.7331114089e+00 
74400 5.2151937907e+00 6.8980304480e-05 2.1553128768e+00 -3.7331114089e+00 2.1553128768e+00 3.7331114089e+00 
74500 5.2151937917e+00 6.8737439650e-05 2.1553128768e+00 -3.7331114089e+00 2.1553128768e+00 3.7331114089e+00 
74600 5.2151937926e+00 6.8479009321e-05 2.1553128768e+00 -3.7331114089e+00 2.1553128768e+00 3.7331114089e+00 
74700 5.2151937936e+00 6.8205743073e-05 2.1553128768e+00 -3.7331114089e+00 2.1553128768e+00 3.7331114089e+00 
74800 5.2151937946e+00 6.7918359170e-05 2.1553128768e+00 -3.7331114089e+00 2.1553128768e+00 3.7331114089e+00 
74900 5.2151937955e+00 6.7617564500e-05 2.1553128768e+00 -3.7331114089e+00 2.1553128768e+00 3.7331114089e+00 
75000 5.2151937964e+00 6.7304054473e-05 2.1553128768e+00 -3.7331114089e+00 2.1553128768e+00 3.7331114089e+00 
75100 5.2151937972e+00 6.6978513000e-05 2.1553128768e+00 -3.7331114089e+00 2.1553128768e+00 3.7331114089e+00 
75200 5.2151937981e+00 6.6641612435e-05 2.1553128768e+00 -3.7331114089e+00 2.1553128768e+00 3.7331114089e+00 
75300 5.2151937989e+00 6.6294013537e-05 2.1553128768e+00 -3.7331114089e+00 2.1553128768e+00 3.7331114089e+00 
75400 5.2151937997e+00 6.5936365477e-05 2.1553128768e+00 -3.7331114089e+00 2.1553128768e+00 3.7331114089e+00 
75500 5.2151938005e+00 6.5569305812e-05 2.1553128768e+00 -3.7331114089e+00 2.1553128768e+00 3.7331114089e+00 
75600 5.2151938012e+00 6.5193460502e-05 2.1553128768e+00 -3.7331114089e+00 2.1553128768e+00 3.7331114089e+00 
75700 5.2151938020e+00 6.4809443904e-05 2.1553128768e+00 -3.7331114089e+00 2.1553128768e+00 3.7331114089e+00 
75800 5.2151938027e+00 6.4417858802e-05 2.1553128768e+00 -3.7331114089e+00 2.1553128768e+00 3.7331114089e+00 
75900 5.2151938034e+00 6.4019296432e-05 2.1553128768e+00 -3.7331114089e+00 2.1553128768e+00 3.7331114089e+00 
76000 5.2151938040e+00 6.3614336504e-05 2.1553128768e+00 -3.7331114089e+00 2.1553128768e+00 3.7331114089e+00 
76100 5.2151938047e+00 6.3203547253e-05 2.1553128768e+00 -3.7331114089e+00 2.1553128768e+00 3.7331114089e+00 
76200 5.2151938053e+00 6.2787485461e-05 2.1553128768e+00 -3.7331114089e+00 2.1553128768e+00 3.7331114089e+00 
76300 5.2151938059e+00 6.2366696527e-05 2.1553128768e+00 -3.7331114089e+00 2.1553128768e+00 3.7331114089e+00 
76400 5.2151938065e+00 6.1941714489e-05 2.1553128768e+00 -3.7331114089e+00 2.1553128768e+00 3.7331114089e+00 
76500 5.2151938071e+00 6.1513062102e-05 2.1553128768e+00 -3.7331114089e+00 2.1553128768e+00 3.7331114089e+00 
76600 5.2151938076e+00 6.1081250865e-05 2.1553128768e+00 -3.7331114089e+00 2.1553128768e+00 3.7331114089e+00 
76700 5.2151938082e+00 6.0646781109e-05 2.1553128768e+00 -3.7331114089e+00 2.1553128768e+00 3.7331114089e+00 
76800 5.2151938087e+00 6.0210142031e-05 2.1553128768e+00 -3.7331114089e+00 2.1553128768e+00 3.7331114089e+00 
76900 5.2151938092e+00 5.9771811758e-05 2.1553128768e+00 -3.7331114089e+00 2.1553128768e+00 3.7331114089e+00 
77000 5.2151938097e+00 5.9332257416e-05 2.1553128768e+00 -3.7331114089e+00 2.1553128768e+00 3.7331114089e+00 
77100 5.2151938101e+00 5.8891935190e-05 2.1553128768e+00 -3.7331114089e+00 2.1553128768e+00 3.7331114089e+00 
77200 5.2151938106e+00 5.8451290380e-05 2.1553128768e+00 -3.7331114089e+00 2.1553128768e+00 3.7331114089e+00 
77300 5.2151938110e+00 5.8010757455e-05 2.1553128768e+00 -3.7331114089e+00 2.1553128768e+00 3.7331114089e+00 
77400 5.2151938115e+00 5.7570760147e-05 2.1553128768e+00 -3.7331114089e+00 2.1553128768e+00 3.7331114089e+00 
77500 5.2151938119e+00 5.7131711476e-05 2.1553128768e+00 -3.7331114089e+00 2.1553128768e+00 3.7331114089e+00 
77600 5.2151938123e+00 5.6694013835e-05 2.1553128768e+00 -3.7331114089e+00 2.1553128768e+00 3.7331114089e+00 
77700 5.2151938127e+00 5.6258059038e-05 2.1553128768e+00 -3.7331114089e+00 2.1553128768e+00 3.7331114089e+00 
77800 5.2151938131e+00 5.5824228391e-05 2.1553128768e+00 -3.7331114089e+00 2.1553128768e+00 3.7331114089e+00 
77900 5.2151938135e+00 5.5392892746e-05 2.1553128768e+00 -3.7331114089e+00 2.1553128768e+00 3.7331114089e+00 
78000 5.2151938138e+00 5.4964412561e-05 2.1553128768e+00 -3.7331114089e+00 2.1553128768e+00 3.7331114089e+00 
78100 5.2151938142e+00 5.4539137962e-05 2.1553128768e+00 -3.7331114089e+00 2.1553128768e+00 3.7331114089e+00 
78200 5.2151938145e+00 5.4117408795e-05 2.1553128768e+00 -3.7331114089e+00 2.1553128768e+00 3.7331114089e+00 
78300 5.2151938149e+00 5.3699554686e-05 2.1553128768e+00 -3.7331114089e+00 2.1553128768e+00 3.7331114089e+00 
78400 5.2151938152e+00 5.3285895106e-05 2.1553128768e+00 -3.7331114089e+00 2.1553128768e+00 3.7331114089e+00 
78500 5.2151938156e+00 5.2876739413e-05 2.1553128768e+00 -3.7331114089e+00 2.1553128768e+00 3.7331114089e+00 
78600 5.2151938159e+00 5.2472386921e-05 2.1553128768e+00 -3.7331114089e+00 2.1553128768e+00 3.7331114089e+00 
78700 5.2151938162e+00 5.2073126945e-05 2.1553128768e+00 -3.7331114089e+00 2.1553128768e+00 3.7331114089e+00 
78800 5.2151938165e+00 5.1679238860e-05 2.1553128768e+00 -3.7331114089e+00 2.1553128768e+00 3.7331114089e+00 
78900 5.2151938168e+00 5.1290992160e-05 2.1553128768e+00 -3.7331114089e+00 2.1553128768e+00 3.7331114089e+00 
79000 5.2151938171e+00 5.0908646502e-05 2.1553128768e+00 -3.7331114089e+00 2.1553128768e+00 3.7331114089e+00 
79100 5.2151938174e+00 5.0532451776e-05 2.1553128768e+00 -3.7331114089e+00 2.1553128768e+00 3.7331114089e+00 
79200 5.2151938177e+00 5.0162648141e-05 2.1553128768e+00 -3.7331114089e+00 2.1553128768e+00 3.7331114089e+00 
79300 5.2151938180e+00 4.9799466096e-05 2.1553128768e+00 -3.7331114089e+00 2.1553128768e+00 3.7331114089e+00 
79400 5.2151938183e+00 4.9443126528e-05 2.1553128768e+00 -3.7331114089e+00 2.1553128768e+00 3.7331114089e+00 
79500 5.2151938186e+00 4.9093840765e-05 2.1553128768e+00 -3.7331114089e+00 2.1553128768e+00 3.7331114089e+00 
79600 5.2151938189e+00 4.8751810638e-05 2.1553128768e+00 -3.7331114089e+00 2.1553128768e+00 3.7331114089e+00 
79700 5.2151938192e+00 4.8417228538e-05 2.1553128768e+00 -3.7331114089e+00 2.1553128768e+00 3.7331114089e+00 
79800 5.2151938195e+00 4.8090277469e-05 2.1553128768e+00 -3.7331114089e+00 2.1553128768e+00 3.7331114089e+00 
79900 5.2151938198e+00 4.7771131110e-05 2.1553128768e+00 -3.7331114089e+00 2.1553128768e+00 3.7331114089e+00 
80000 5.2151938201e+00 4.7459953879e-05 2.1553128768e+00 -3.7331114089e+00 2.1553128768e+00 3.7331114089e+00 
80100 5.2151938204e+00 4.7156900990e-05 2.1553128768e+00 -3.7331114089e+00 2.1553128768e+00 3.7331114089e+00 
80200 5.2151938207e+00 4.6862118511e-05 2.1553128768e+00 -3.7331114089e+00 2.1553128768e+00 3.7331114089e+00 
80300 5.2151938210e+00 4.6575743451e-05 2.1553128768e+00 -3.7331114089e+00 2.1553128768e+00 3.7331114089e+00 
80400 5.2151938213e+00 4.6297903795e-05 2.1553128768e+00 -3.7331114089e+00 2.1553128768e+00 3.7331114089e+00 
80500 5.2151938216e+00 4.6028718597e-05 2.1553128768e+00 -3.7331114089e+00 2.1553128768e+00 3.7331114089e+00 
80600 5.2151938219e+00 4.5768298044e-05 2.1553128768e+00 -3.7331114089e+00 2.1553128768e+00 3.7331114089e+00 
80700 5.2151938222e+00 4.5516743524e-05 2.1553128768e+00 -3.7331114089e+00 2.1553128768e+00 3.7331114089e+00 
80800 5.2151938224e+00 4.5274147707e-05 2.1553128768e+00 -3.7331114089e+00 2.1553128768e+00 3.7331114089e+00 
80900 5.2151938227e+00 4.5040594620e-05 2.1553128768e+00 -3.7331114089e+00 2.1553128768e+00 3.7331114089e+00 
81000 5.2151938230e+00 4.4816159732e-05 2.1553128768e+00 -3.7331114089e+00 2.1553128768e+00 3.7331114089e+00 
81100 5.2151938233e+00 4.4600910023e-05 2.1553128768e+00 -3.7331114089e+00 2.1553128768e+00 3.7331114089e+00 
81200 5.2151938236e+00 4.4394904086e-05 2.1553128768e+00 -3.7331114089e+00 2.1553128768e+00 3.7331114089e+00 
81300 5.2151938239e+00 4.4198192213e-05 2.1553128768e+00 -3.7331114089e+00 2.1553128768e+00 3.7331114089e+00 
81400 5.2151938242e+00 4.4010816470e-05 2.1553128768e+00 -3.7331114089e+00 2.1553128768e+00 3.7331114089e+00 
81500 5.2151938245e+00 4.3832810817e-05 2.1553128768e+00 -3.7331114089e+00 2.1553128768e+00 3.7331114089e+00 
81600 5.2151938248e+00 4.3664201181e-05 2.1553128768e+00 -3.7331114089e+00 2.1553128768e+00 3.7331114089e+00 
81700 5.2151938251e+00 4.3505005571e-05 2.1553128768e+00 -3.7331114089e+00 2.1553128768e+00 3.7331114089e+00 
81800 5.2151938254e+00 4.3355234171e-05 2.1553128768e+00 -3.7331114089e+00 2.1553128768e+00 3.7331114089e+00 
81900 5.2151938257e+00 4.3214889467e-05 2.1553128768e+00 -3.7331114089e+00 2.1553128768e+00 3.7331114089e+00 
82000 5.2151938260e+00 4.3083966328e-05 2.1553128768e+00 -3.7331114089e+00 2.1553128768e+00 3.7331114089e+00 
82100 5.2151938263e+00 4.2962452140e-05 2.1553128768e+00 -3.7331114089e+00 2.1553128768e+00 3.7331114089e+00 
82200 5.2151938266e+00 4.2850326920e-05 2.1553128768e+00 -3.7331114089e+00 2.1553128768e+00 3.7331114089e+00 
82300 5.2151938269e+00 4.2747563419e-05 2.1553128768e+00 -3.7331114089e+00 2.1553128768e+00 3.7331114089e+00 
82400 5.2151938272e+00 4.2654127272e-05 2.1553128768e+00 -3.7331114089e+00 2.1553128768e+00 3.7331114089e+00 
82500 5.2151938275e+00 4.2569977092e-05 2.1553128768e+00 -3.7331114089e+00 2.1553128768e+00 3.7331114089e+00 
82600 5.2151938278e+00 4.2495064634e-05 2.1553128768e+00 -3.7331114089e+00 2.1553128768e+00 3.7331114089e+00 
82700 5.2151938281e+00 4.2429334897e-05 2.1553128768e+00 -3.7331114089e+00 2.1553128768e+00 3.7331114089e+00 
82800 5.2151938284e+00 4.2372726275e-05 2.1553128768e+00 -3.7331114089e+00 2.1553128768e+00 3.7331114089e+00 
82900 5.2151938287e+00 4.2325170694e-05 2.1553128768e+00 -3.7331114089e+00 2.1553128768e+00 3.7331114089e+00 
83000 5.2151938290e+00 4.2286593756e-05 2.1553128768e+00 -3.7331114089e+00 2.1553128768e+00 3.7331114089e+00 
83100 5.2151938292e+00 4.2256914859e-05 2.1553128768e+00 -3.7331114089e+00 2.1553128768e+00 3.7331114089e+00 
83200 5.2151938295e+00 4.2236047386e-05 2.1553128768e+00 -3.7331114089e+00 2.1553128768e+00 3.7331114089e+00 
83300 5.2151938298e+00 4.2223898825e-05 2.1553128768e+00 -3.7331114089e+00 2.1553128768e+00 3.7331114089e+00 
83400 5.2151938301e+00 4.2220370925e-05 2.1553128768e+00 -3.7331114089e+00 2.1553128768e+00 3.7331114089e+00 
83500 5.2151938304e+00 4.2225359868e-05 2.1553128768e+00 -3.7331114089e+00 2.1553128768e+00 3.7331114089e+00 
83600 5.2151938307e+00 4.2238756405e-05 2.1553128768e+00 -3.7331114089e+00 2.1553128768e+00 3.7331114089e+00 
83700 5.2151938309e+00 4.2260446035e-05 2.1553128768e+00 -3.7331114089e+00 2.1553128768e+00 3.7331114089e+00 
83800 5.2151938312e+00 4.2290309151e-05 2.1553128768e+00 -3.7331114089e+00 2.1553128768e+00 3.7331114089e+00 
83900 5.2151938315e+00 4.2328221217e-05 2.1553128768e+00 -3.7331114089e+00 2.1553128768e+00 3.7331114089e+00 
84000 5.2151938317e+00 4.2374052936e-05 2.1553128768e+00 -3.7331114089e+00 2.1553128768e+00 3.7331114089e+00 
84100 5.2151938320e+00 4.2427670413e-05 2.1553128768e+00 -3.7331114089e+00 2.1553128768e+00 3.7331114089e+00 
84200 5.2151938323e+00 4.2488935317e-05 2.1553128768e+00 -3.7331114089e+00 2.1553128768e+00 3.7331114089e+00 
84300 5.2151938325e+00 4.2557705082e-05 2.1553128768e+00 -3.7331114089e+00 2.1553128768e+00 3.7331114089e+00 
84400 5.2151938328e+00 4.2633833047e-05 2.1553128768e+00 -3.7331114089e+00 2.1553128768e+00 3.7331114089e+00 
84500 5.2151938330e+00 4.2717168660e-05 2.1553128768e+00 -3.7331114089e+00 2.1553128768e+00 3.7331114089e+00 
84600 5.2151938333e+00 4.2807557629e-05 2.1553128768e+00 -3.7331114089e+00 2.1553128768e+00 3.7331114089e+00 
84700 5.2151938335e+00 4.2904842120e-05 2.1553128768e+00 -3.7331114089e+00 2.1553128768e+00 3.7331114089e+00 
84800 5.2151938338e+00 4.3008860937e-05 2.1553128768e+00 -3.7331114089e+00 2.1553128768e+00 3.7331114089e+00 
84900 5.2151938340e+00 4.3119449682e-05 2.1553128768e+00 -3.7331114089e+00 2.1553128768e+00 3.7331114089e+00 
85000 5.2151938342e+00 4.3236440951e-05 2.1553128768e+00 -3.7331114089e+00 2.1553128768e+00 3.7331114089e+00 
85100 5.2151938345e+00 4.3359664514e-05 2.1553128768e+00 -3.7331114089e+00 2.1553128768e+00 3.7331114089e+00 
85200 5.2151938347e+00 4.3488947486e-05 2.1553128768e+00 -3.7331114089e+00 2.1553128768e+00 3.7331114089e+00 
85300 5.2151938349e+00 4.3624114524e-05 2.1553128768e+00 -3.7331114089e+00 2.1553128768e+00 3.7331114089e+00 
85400 5.2151938351e+00 4.3764987998e-05 2.1553128768e+00 -3.7331114089e+00 2.1553128768e+00 3.7331114089e+00 
85500 5.2151938353e+00 4.3911388171e-05 2.1553128768e+00 -3.7331114089e+00 2.1553128768e+00 3.7331114089e+00 
85600 5.2151938355e+00 4.4063133391e-05 2.1553128768e+00 -3.7331114089e+00 2.1553128768e+00 3.7331114089e+00 
85700 5.2151938358e+00 4.4220040252e-05 2.1553128768e+00 -3.7331114089e+00 2.1553128768e+00 3.7331114089e+00 
85800 5.2151938360e+00 4.4381923800e-05 2.1553128768e+00 -3.7331114089e+00 2.1553128768e+00 3.7331114089e+00 
85900 5.2151938362e+00 4.4548597690e-05 2.1553128768e+00 -3.7331114089e+00 2.1553128768e+00 3.7331114089e+00 
86000 5.2151938364e+00 4.4719874372e-05 2.1553128768e+00 -3.7331114089e+00 2.1553128768e+00 3.7331114089e+00 
86100 5.2151938365e+00 4.4895565278e-05 2.1553128768e+00 -3.7331114089e+00 2.1553128768e+00 3.7331114089e+00 
86200 5.2151938367e+00 4.5075480977e-05 2.1553128768e+00 -3.7331114089e+00 2.1553128768e+00 3.7331114089e+00 
86300 5.2151938369e+00 4.5259431370e-05 2.1553128768e+00 -3.7331114089e+00 2.1553128768e+00 3.7331114089e+00 
86400 5.2151938371e+00 4.5447225852e-05 2.1553128768e+00 -3.7331114089e+00 2.1553128768e+00 3.7331114089e+00 
86500 5.2151938373e+00 4.5638673493e-05 2.1553128768e+00 -3.7331114089e+00 2.1553128768e+00 3.7331114089e+00 
86600 5.2151938374e+00 4.5833583190e-05 2.1553128768e+00 -3.7331114089e+00 2.1553128768e+00 3.7331114089e+00 
86700 5.2151938376e+00 4.6031763848e-05 2.1553128768e+00 -3.7331114089e+00 2.1553128768e+00 3.7331114089e+00 
86800 5.2151938378e+00 4.6233024547e-05 2.1553128768e+00 -3.7331114089e+00 2.1553128768e+00 3.7331114089e+00 
86900 5.2151938379e+00 4.6437174697e-05 2.1553128768e+00 -3.7331114089e+00 2.1553128768e+00 3.7331114089e+00 
87000 5.2151938381e+00 4.6644024207e-05 2.1553128768e+00 -3.7331114089e+00 2.1553128768e+00 3.7331114089e+00 
87100 5.2151938383e+00 4.6853383630e-05 2.1553128768e+00 -3.7331114089e+00 2.1553128768e+00 3.7331114089e+00 
87200 5.2151938384e+00 4.7065064339e-05 2.1553128768e+00 -3.7331114089e+00 2.1553128768e+00 3.7331114089e+00 
87300 5.2151938386e+00 4.7278878664e-05 2.1553128768e+00 -3.7331114089e+00 2.1553128768e+00 3.7331114089e+00 
87400 5.2151938387e+00 4.7494640040e-05 2.1553128768e+00 -3.7331114089e+00 2.1553128768e+00 3.7331114089e+00 
87500 5.2151938388e+00 4.7712163172e-05 2.1553128768e+00 -3.7331114089e+00 2.1553128768e+00 3.7331114089e+00 
87600 5.2151938390e+00 4.7931264158e-05 2.1553128768e+00 -3.7331114089e+00 2.1553128768e+00 3.7331114089e+00 
87700 5.2151938391e+00 4.8151760639e-05 2.1553128768e+00 -3.7331114089e+00 2.1553128768e+00 3.7331114089e+00 
87800 5.2151938393e+00 4.8373471946e-05 2.1553128768e+00 -3.7331114089e+00 2.1553128768e+00 3.7331114089e+00 
87900 5.2151938394e+00 4.8596219217e-05 2.1553128768e+00 -3.7331114089e+00 2.1553128768e+00 3.7331114089e+00 
88000 5.2151938395e+00 4.8819825532e-05 2.1553128768e+00 -3.7331114089e+00 2.1553128768e+00 3.7331114089e+00 
88100 5.2151938396e+00 4.9044116050e-05 2.1553128768e+00 -3.7331114089e+00 2.1553128768e+00 3.7331114089e+00 
88200 5.2151938398e+00 4.9268918116e-05 2.1553128768e+00 -3.7331114089e+00 2.1553128768e+00 3.7331114089e+00 
88300 5.2151938399e+00 4.9494061393e-05 2.1553128768e+00 -3.7331114089e+00 2.1553128768e+00 3.7331114089e+00 
88400 5.2151938400e+00 4.9719377976e-05 2.1553128768e+00 -3.7331114089e+00 2.1553128768e+00 3.7331114089e+00 
88500 5.2151938401e+00 4.9944702499e-05 2.1553128768e+00 -3.7331114089e+00 2.1553128768e+00 3.7331114089e+00 
88600 5.2151938402e+00 5.0169872244e-05 2.1553128768e+00 -3.7331114089e+00 2.1553128768e+00 3.7331114089e+00 
88700 5.2151938404e+00 5.0394727242e-05 2.1553128768e+00 -3.7331114089e+00 2.1553128768e+00 3.7331114089e+00 
88800 5.2151938405e+00 5.0619110386e-05 2.1553128768e+00 -3.7331114089e+00 2.1553128768e+00 3.7331114089e+00 
88900 5.2151938406e+00 5.0842867509e-05 2.1553128768e+00 -3.7331114089e+00 2.1553128768e+00 3.7331114089e+00 
89000 5.2151938407e+00 5.1065847489e-05 2.1553128768e+00 -3.7331114089e+00 2.1553128768e+00 3.7331114089e+00 
89100 5.2151938408e+00 5.1287902324e-05 2.1553128768e+00 -3.7331114089e+00 2.1553128768e+00 3.7331114089e+00 
89200 5.2151938409e+00 5.1508887225e-05 2.1553128768e+00 -3.7331114089e+00 2.1553128768e+00 3.7331114089e+00 
89300 5.2151938410e+00 5.1728660691e-05 2.1553128768e+00 -3.7331114089e+00 2.1553128768e+00 3.7331114089e+00 
89400 5.2151938411e+00 5.1947084586e-05 2.1553128768e+00 -3.7331114089e+00 2.1553128768e+00 3.7331114089e+00 
89500 5.2151938412e+00 5.2164024206e-05 2.1553128768e+00 -3.7331114089e+00 2.1553128768e+00 3.7331114089e+00 
89600 5.2151938413e+00 5.2379348341e-05 2.1553128768e+00 -3.7331114089e+00 2.1553128768e+00 3.7331114089e+00 
89700 5.2151938414e+00 5.2592929347e-05 2.1553128768e+00 -3.7331114089e+00 2.1553128768e+00 3.7331114089e+00 
89800 5.2151938415e+00 5.2804643198e-05 2.1553128768e+00 -3.7331114089e+00 2.1553128768e+00 3.7331114089e+00 
89900 5.2151938416e+00 5.3014369542e-05 2.1553128768e+00 -3.7331114089e+00 2.1553128768e+00 3.7331114089e+00 
90000 5.2151938417e+00 5.3221991741e-05 2.1553128768e+00 -3.7331114089e+00 2.1553128768e+00 3.7331114089e+00 
90100 5.2151938418e+00 5.3427396923e-05 2.1553128768e+00 -3.7331114089e+00 2.1553128768e+00 3.7331114089e+00 
90200 5.2151938419e+00 5.3630476024e-05 2.1553128768e+00 -3.7331114089e+00 2.1553128768e+00 3.7331114089e+00 
90300 5.2151938420e+00 5.3831123828e-05 2.1553128768e+00 -3.7331114089e+00 2.1553128768e+00 3.7331114089e+00 
90400 5.2151938421e+00 5.4029238976e-05 2.1553128768e+00 -3.7331114089e+00 2.1553128768e+00 3.7331114089e+00 
90500 5.2151938422e+00 5.4224724022e-05 2.1553128768e+00 -3.7331114089e+00 2.1553128768e+00 3.7331114089e+00 
90600 5.2151938423e+00 5.4417485438e-05 2.1553128768e+00 -3.7331114089e+00 2.1553128768e+00 3.7331114089e+00 
90700 5.2151938423e+00 5.4607433648e-05 2.1553128768e+00 -3.7331114089e+00 2.1553128768e+00 3.7331114089e+00 
90800 5.2151938424e+00 5.4794483027e-05 2.1553128768e+00 -3.7331114089e+00 2.1553128768e+00 3.7331114089e+00 
90900 5.2151938425e+00 5.4978551930e-05 2.1553128768e+00 -3.7331114089e+00 2.1553128768e+00 3.7331114089e+00 
91000 5.2151938426e+00 5.5159562687e-05 2.1553128768e+00 -3.7331114089e+00 2.1553128768e+00 3.7331114089e+00 
91100 5.2151938427e+00 5.5337441606e-05 2.1553128768e+00 -3.7331114089e+00 2.1553128768e+00 3.7331114089e+00 
91200 5.2151938428e+00 5.5512118982e-05 2.1553128768e+00 -3.7331114089e+00 2.1553128768e+00 3.7331114089e+00 
91300 5.2151938429e+00 5.5683529089e-05 2.1553128768e+00 -3.7331114089e+00 2.1553128768e+00 3.7331114089e+00 
91400 5.2151938430e+00 5.5851610171e-05 2.1553128768e+00 -3.7331114089e+00 2.1553128768e+00 3.7331114089e+00 
91500 5.2151938430e+00 5.6016304428e-05 2.1553128768e+00 -3.7331114089e+00 2.1553128768e+00 3.7331114089e+00 
91600 5.2151938431e+00 5.6177558006e-05 2.1553128768e+00 -3.7331114089e+00 2.1553128768e+00 3.7331114089e+00 
91700 5.2151938432e+00 5.6335320983e-05 2.1553128768e+00 -3.7331114089e+00 2.1553128768e+00 3.7331114089e+00 
91800 5.2151938433e+00 5.6489547335e-05 2.1553128768e+00 -3.7331114089e+00 2.1553128768e+00 3.7331114089e+00 
91900 5.2151938434e+00 5.6640194918e-05 2.1553128768e+00 -3.7331114089e+00 2.1553128768e+00 3.7331114089e+00 
92000 5.2151938435e+00 5.6787225436e-05 2.1553128768e+00 -3.7331114089e+00 2.1553128768e+00 3.7331114089e+00 
92100 5.2151938435e+00 5.6930604421e-05 2.1553128768e+00 -3.7331114089e+00 2.1553128768e+00 3.7331114089e+00 
92200 5.2151938436e+00 5.7070301180e-05 2.1553128768e+00 -3.7331114089e+00 2.1553128768e+00 3.7331114089e+00 
92300 5.2151938437e+00 5.7206288774e-05 2.1553128768e+00 -3.7331114089e+00 2.1553128768e+00 3.7331114089e+00 
92400 5.2151938438e+00 5.7338543964e-05 2.1553128768e+00 -3.7331114089e+00 2.1553128768e+00 3.7331114089e+00 
92500 5.2151938439e+00 5.7467047178e-05 2.1553128768e+00 -3.7331114089e+00 2.1553128768e+00 3.7331114089e+00 
92600 5.2151938439e+00 5.7591782450e-05 2.1553128768e+00 -3.7331114089e+00 2.1553128768e+00 3.7331114089e+00 
92700 5.2151938440e+00 5.7712737402e-05 2.1553128768e+00 -3.7331114089e+00 2.1553128768e+00 3.7331114089e+00 
92800 5.2151938441e+00 5.7829903150e-05 2.1553128768e+00 -3.7331114089e+00 2.1553128768e+00 3.7331114089e+00 
92900 5.2151938442e+00 5.7943274287e-05 2.1553128768e+00 -3.7331114089e+00 2.1553128768e+00 3.7331114089e+00 
93000 5.2151938442e+00 5.8052848797e-05 2.1553128768e+00 -3.7331114089e+00 2.1553128768e+00 3.7331114089e+00 
93100 5.2151938443e+00 5.8158628025e-05 2.1553128768e+00 -3.7331114089e+00 2.1553128768e+00 3.7331114089e+00 
93200 5.2151938444e+00 5.8260616596e-05 2.1553128768e+00 -3.7331114089e+00 2.1553128768e+00 3.7331114089e+00 
93300 5.2151938445e+00 5.8358822358e-05 2.1553128768e+00 -3.7331114089e+00 2.1553128768e+00 3.7331114089e+00 
93400 5.2151938445e+00 5.8453256317e-05 2.1553128768e+00 -3.7331114089e+00 2.1553128768e+00 3.7331114089e+00 
93500 5.2151938446e+00 5.8543932572e-05 2.1553128768e+00 -3.7331114089e+00 2.1553128768e+00 3.7331114089e+00 
93600 5.2151938447e+00 5.8630868247e-05 2.1553128768e+00 -3.7331114089e+00 2.1553128768e+00 3.7331114089e+00 
93700 5.2151938448e+00 5.8714083418e-05 2.1553128768e+00 -3.7331114089e+00 2.1553128768e+00 3.7331114089e+00 
93800 5.2151938448e+00 5.8793601041e-05 2.1553128768e+00 -3.7331114089e+00 2.1553128768e+00 3.7331114089e+00 
93900 5.2151938449e+00 5.8869446877e-05 2.1553128768e+00 -3.7331114089e+00 2.1553128768e+00 3.7331114089e+00 
94000 5.2151938450e+00 5.8941649432e-05 2.1553128768e+00 -3.7331114089e+00 2.1553128768e+00 3.7331114089e+00 
94100 5.2151938450e+00 5.9010239857e-05 2.1553128768e+00 -3.7331114089e+00 2.1553128768e+00 3.7331114089e+00 
94200 5.2151938451e+00 5.9075251890e-05 2.1553128768e+00 -3.7331114089e+00 2.1553128768e+00 3.7331114089e+00 
94300 5.2151938452e+00 5.9136721773e-05 2.1553128768e+00 -3.7331114089e+00 2.1553128768e+00 3.7331114089e+00 
94400 5.2151938452e+00 5.9194688169e-05 2.1553128768e+00 -3.7331114089e+00 2.1553128768e+00 3.7331114089e+00 
94500 5.2151938453e+00 5.9249192079e-05 2.1553128768e+00 -3.7331114089e+00 2.1553128768e+00 3.7331114089e+00 
94600 5.2151938454e+00 5.9300276775e-05 2.1553128768e+00 -3.7331114089e+00 2.1553128768e+00 3.7331114089e+00 
94700 5.2151938454e+00 5.9347987716e-05 2.1553128768e+00 -3.7331114089e+00 2.1553128768e+00 3.7331114089e+00 
94800 5.2151938455e+00 5.9392372438e-05 2.1553128768e+00 -3.7331114089e+00 2.1553128768e+00 3.7331114089e+00 
94900 5.2151938456e+00 5.9433480509e-05 2.1553128768e+00 -3.7331114089e+00 2.1553128768e+00 3.7331114089e+00 
95000 5.2151938456e+00 5.9471363429e-05 2.1553128768e+00 -3.7331114089e+00 2.1553128768e+00 3.7331114089e+00 
95100 5.2151938457e+00 5.9506074549e-05 2.1553128768e+00 -3.7331114089e+00 2.1553128768e+00 3.7331114089e+00 
95200 5.2151938458e+00 5.9537668979e-05 2.1553128768e+00 -3.7331114089e+00 2.1553128768e+00 3.7331114089e+00 
95300 5.2151938458e+00 5.9566203515e-05 2.1553128768e+00 -3.7331114089e+00 2.1553128768e+00 3.7331114089e+00 
95400 5.2151938459e+00 5.9591736549e-05 2.1553128768e+00 -3.7331114089e+00 2.1553128768e+00 3.7331114089e+00 
95500 5.2151938459e+00 5.9614327998e-05 2.1553128768e+00 -3.7331114089e+00 2.1553128768e+00 3.7331114089e+00 
95600 5.2151938460e+00 5.9634039195e-05 2.1553128768e+00 -3.7331114089e+00 2.1553128768e+00 3.7331114089e+00 
95700 5.2151938461e+00 5.9650932830e-05 2.1553128768e+00 -3.7331114089e+00 2.1553128768e+00 3.7331114089e+00 
95800 5.2151938461e+00 5.9665072852e-05 2.1553128768e+00 -3.7331114089e+00 2.1553128768e+00 3.7331114089e+00 
95900 5.2151938462e+00 5.9676524394e-05 2.1553128768e+00 -3.7331114089e+00 2.1553128768e+00 3.7331114089e+00 
96000 5.2151938462e+00 5.9685353686e-05 2.1553128768e+00 -3.7331114089e+00 2.1553128768e+00 3.7331114089e+00 
96100 5.2151938463e+00 5.9691627977e-05 2.1553128768e+00 -3.7331114089e+00 2.1553128768e+00 3.7331114089e+00 
96200 5.2151938463e+00 5.9695415440e-05 2.1553128768e+00 -3.7331114089e+00 2.1553128768e+00 3.7331114089e+00 
96300 5.2151938464e+00 5.9696785114e-05 2.1553128768e+00 -3.7331114089e+00 2.1553128768e+00 3.7331114089e+00 
96400 5.2151938464e+00 5.9695806803e-05 2.1553128768e+00 -3.7331114089e+00 2.1553128768e+00 3.7331114089e+00 
96500 5.2151938465e+00 5.9692551015e-05 2.1553128768e+00 -3.7331114089e+00 2.1553128768e+00 3.7331114089e+00 
96600 5.2151938465e+00 5.9687088861e-05 2.1553128768e+00 -3.7331114089e+00 2.1553128768e+00 3.7331114089e+00 
96700 5.2151938466e+00 5.9679491996e-05 2.1553128768e+00 -3.7331114089e+00 2.1553128768e+00 3.7331114089e+00 
96800 5.2151938466e+00 5.9669832536e-05 2.1553128768e+00 -3.7331114089e+00 2.1553128768e+00 3.7331114089e+00 
96900 5.2151938467e+00 5.9658182980e-05 2.1553128768e+00 -3.7331114089e+00 2.1553128768e+00 3.7331114089e+00 
97000 5.2151938467e+00 5.9644616140e-05 2.1553128768e+00 -3.7331114089e+00 2.1553128768e+00 3.7331114089e+00 
97100 5.2151938468e+00 5.9629205064e-05 2.1553128768e+00 -3.7331114089e+00 2.1553128768e+00 3.7331114089e+00 
97200 5.2151938468e+00 5.9612743325e-05 2.1553128768e+00 -3.7331114089e+00 2.1553128768e+00 3.7331114089e+00 
97200 5.2151938468e+00 5.9612743325e-05 2.1553128768e+00 -3.7331114089e+00 2.1553128768e+00 3.7331114089e+00 
