# step Hamiltonian StressXX CellTensor1 CellTensor2 CellTensor3 CellTensor4 
0 5.6280432606e+00 1.3772213157e-01 2.2220832177e+00 -3.8487610317e+00 2.2220832177e+00 3.8487610317e+00 
100 5.6323780637e+00 1.4340577192e-01 2.2220832177e+00 -3.8487610317e+00 2.2220832177e+00 3.8487610317e+00 
200 5.6359043577e+00 1.4842124404e-01 2.2188571681e+00 -3.8431733499e+00 2.2188571681e+00 3.8431733499e+00 
300 5.6391159191e+00 1.5311220711e-01 2.2155134670e+00 -3.8373818898e+00 2.2155134670e+00 3.8373818898e+00 
400 5.6420864100e+00 1.5757616724e-01 2.2120589102e+00 -3.8313984218e+00 2.2120589102e+00 3.8313984218e+00 
500 5.6448634559e+00 1.6187958972e-01 2.2084981142e+00 -3.8252309421e+00 2.2084981142e+00 3.8252309421e+00 
600 5.6474761657e+00 1.6606664821e-01 2.2048342047e+00 -3.8188848648e+00 2.2048342047e+00 3.8188848648e+00 
700 5.6499405872e+00 1.7016548189e-01 2.2010693118e+00 -3.8123638790e+00 2.2010693118e+00 3.8123638790e+00 
800 5.6522636869e+00 1.7419269556e-01 2.1972049268e+00 -3.8056705678e+00 2.1972049268e+00 3.8056705678e+00 
900 5.6544462700e+00 1.7815661363e-01 2.1932421597e+00 -3.7988068540e+00 2.1932421597e+00 3.7988068540e+00 
1000 5.6564851270e+00 1.8205964531e-01 2.1891819258e+00 -3.7917743225e+00 2.1891819258e+00 3.7917743225e+00 
1100 5.6583746175e+00 1.8590001293e-01 2.1850250784e+00 -3.7845744517e+00 2.1850250784e+00 3.7845744517e+00 
1200 5.6601078350e+00 1.8967302183e-01 2.1807725054e+00 -3.7772087791e+00 2.1807725054e+00 3.7772087791e+00 
1300 5.6616774628e+00 1.9337199914e-01 2.1764251960e+00 -3.7696790183e+00 2.1764251960e+00 3.7696790183e+00 
1400 5.6630763956e+00 1.9698899243e-01 2.1719842880e+00 -3.7619871400e+00 2.1719842880e+00 3.7619871400e+00 
1500 5.6642981857e+00 2.0051529371e-01 2.1674510991e+00 -3.7541354265e+00 2.1674510991e+00 3.7541354265e+00 
1600 5.6653373540e+00 2.0394183583e-01 2.1628271465e+00 -3.7461265058e+00 2.1628271465e+00 3.7461265058e+00 
1700 5.6661895981e+00 2.0725949509e-01 2.1581141583e+00 -3.7379633707e+00 2.1581141583e+00 3.7379633707e+00 
1800 5.6668519193e+00 2.1045932447e-01 2.1533140771e+00 -3.7296493861e+00 2.1533140771e+00 3.7296493861e+00 
1900 5.6673226877e+00 2.1353273492e-01 2.1484290596e+00 -3.7211882877e+00 2.1484290596e+00 3.7211882877e+00 
2000 5.6676016579e+00 2.1647163703e-01 2.1434614712e+00 -3.7125841722e+00 2.1434614712e+00 3.7125841722e+00 
2100 5.6676899461e+00 2.1926855198e-01 2.1384138778e+00 -3.7038414839e+00 2.1384138778e+00 3.7038414839e+00 
2200 5.6675899767e+00 2.2191669790e-01 2.1332890344e+00 -3.6949649947e+00 2.1332890344e+00 3.6949649947e+00 
2300 5.6673054056e+00 2.2441005582e-01 2.1280898725e+00 -3.6859597822e+00 2.1280898725e+00 3.6859597822e+00 
2400 5.6668410256e+00 2.2674341839e-01 2.1228194851e+00 -3.6768312036e+00 2.1228194851e+00 3.6768312036e+00 
2500 5.6662026588e+00 2.2891242331e-01 2.1174811107e+00 -3.6675848679e+00 2.1174811107e+00 3.6675848679e+00 
2600 5.6653970392e+00 2.3091357302e-01 2.1120781161e+00 -3.6582266066e+00 2.1120781161e+00 3.6582266066e+00 
2700 5.6644316904e+00 2.3274424188e-01 2.1066139785e+00 -3.6487624428e+00 2.1066139785e+00 3.6487624428e+00 
2800 5.6633148000e+00 2.3440267170e-01 2.1010922679e+00 -3.6391985595e+00 2.1010922679e+00 3.6391985595e+00 
2900 5.6620550953e+00 2.3588795671e-01 2.0955166280e+00 -3.6295412679e+00 2.0955166280e+00 3.6295412679e+00 
3000 5.6606617204e+00 2.3720001872e-01 2.0898907582e+00 -3.6197969755e+00 2.0898907582e+00 3.6197969755e+00 
3100 5.6591441181e+00 2.3833957361e-01 2.0842183953e+00 -3.6099721547e+00 2.0842183953e+00 3.6099721547e+00 
3200 5.6575119187e+00 2.3930809009e-01 2.0785032960e+00 -3.6000733124e+00 2.0785032960e+00 3.6000733124e+00 
3300 5.6557748355e+00 2.4010774195e-01 2.0727492201e+00 -3.5901069605e+00 2.0727492201e+00 3.5901069605e+00 
3400 5.6539425697e+00 2.4074135494e-01 2.0669599137e+00 -3.5800795878e+00 2.0669599137e+00 3.5800795878e+00 
3500 5.6520247238e+00 2.4121234950e-01 2.0611390948e+00 -3.5699976336e+00 2.0611390948e+00 3.5699976336e+00 
3600 5.6500307258e+00 2.4152468053e-01 2.0552904382e+00 -3.5598674633e+00 2.0552904382e+00 3.5598674633e+00 
3700 5.6479697629e+00 2.4168277551e-01 2.0494175633e+00 -3.5496953456e+00 2.0494175633e+00 3.5496953456e+00 
3800 5.6458507251e+00 2.4169147188e-01 2.0435240218e+00 -3.5394874323e+00 2.0435240218e+00 3.5394874323e+00 
3900 5.6436821589e+00 2.4155595501e-01 2.0376132872e+00 -3.5292497395e+00 2.0376132872e+00 3.5292497395e+00 
4000 5.6414722304e+00 2.4128169739e-01 2.0316887454e+00 -3.5189881322e+00 2.0316887454e+00 3.5189881322e+00 
4100 5.6392286962e+00 2.4087440012e-01 2.0257536872e+00 -3.5087083098e+00 2.0257536872e+00 3.5087083098e+00 
4200 5.6369588837e+00 2.4033993723e-01 2.0198113006e+00 -3.4984157943e+00 2.0198113006e+00 3.4984157943e+00 
4300 5.6346696776e+00 2.3968430337e-01 2.0138646659e+00 -3.4881159209e+00 2.0138646659e+00 3.4881159209e+00 
4400 5.6323675137e+00 2.3891356539e-01 2.0079167510e+00 -3.4778138302e+00 2.0079167510e+00 3.4778138302e+00 
4500 5.6300583776e+00 2.3803381799e-01 2.0019704080e+00 -3.4675144620e+00 2.0019704080e+00 3.4675144620e+00 
4600 5.6277478090e+00 2.3705114363e-01 1.9960283707e+00 -3.4572225514e+00 1.9960283707e+00 3.4572225514e+00 
4700 5.6254409101e+00 2.3597157682e-01 1.9900932532e+00 -3.4469426264e+00 1.9900932532e+00 3.4469426264e+00 
4800 5.6231423565e+00 2.3480107261e-01 1.9841675494e+00 -3.4366790063e+00 1.9841675494e+00 3.4366790063e+00 
4900 5.6208564122e+00 2.3354547939e-01 1.9782536329e+00 -3.4264358024e+00 1.9782536329e+00 3.4264358024e+00 
5000 5.6185869456e+00 2.3221051557e-01 1.9723537578e+00 -3.4162169189e+00 1.9723537578e+00 3.4162169189e+00 
5100 5.6163374473e+00 2.3080175014e-01 1.9664700601e+00 -3.4060260557e+00 1.9664700601e+00 3.4060260557e+00 
5200 5.6141110497e+00 2.2932458673e-01 1.9606045599e+00 -3.3958667113e+00 1.9606045599e+00 3.3958667113e+00 
5300 5.6119105461e+00 2.2778425088e-01 1.9547591630e+00 -3.3857421869e+00 1.9547591630e+00 3.3857421869e+00 
5400 5.6097384109e+00 2.2618578035e-01 1.9489356641e+00 -3.3756555910e+00 1.9489356641e+00 3.3756555910e+00 
5500 5.6075968196e+00 2.2453401797e-01 1.9431357497e+00 -3.3656098444e+00 1.9431357497e+00 3.3656098444e+00 
5600 5.6054876683e+00 2.2283360701e-01 1.9373610009e+00 -3.3556076861e+00 1.9373610009e+00 3.3556076861e+00 
5700 5.6034125934e+00 2.2108898846e-01 1.9316128973e+00 -3.3456516786e+00 1.9316128973e+00 3.3456516786e+00 
5800 5.6013729900e+00 2.1930440022e-01 1.9258928202e+00 -3.3357442146e+00 1.9258928202e+00 3.3357442146e+00 
5900 5.5993700300e+00 2.1748387785e-01 1.9202020564e+00 -3.3258875225e+00 1.9202020564e+00 3.3258875225e+00 
6000 5.5974046791e+00 2.1563125652e-01 1.9145418015e+00 -3.3160836735e+00 1.9145418015e+00 3.3160836735e+00 
6100 5.5954777137e+00 2.1375017423e-01 1.9089131640e+00 -3.3063345873e+00 1.9089131640e+00 3.3063345873e+00 
6200 5.5935897359e+00 2.1184407575e-01 1.9033171688e+00 -3.2966420392e+00 1.9033171688e+00 3.2966420392e+00 
6300 5.5917411885e+00 2.0991621743e-01 1.8977547606e+00 -3.2870076657e+00 1.8977547606e+00 3.2870076657e+00 
6400 5.5899323684e+00 2.0796967250e-01 1.8922268082e+00 -3.2774329713e+00 1.8922268082e+00 3.2774329713e+00 
6500 5.5881634399e+00 2.0600733681e-01 1.8867341074e+00 -3.2679193344e+00 1.8867341074e+00 3.2679193344e+00 
6600 5.5864344467e+00 2.0403193494e-01 1.8812773846e+00 -3.2584680133e+00 1.8812773846e+00 3.2584680133e+00 
6700 5.5847453226e+00 2.0204602643e-01 1.8758573005e+00 -3.2490801523e+00 1.8758573005e+00 3.2490801523e+00 
6800 5.5830959029e+00 2.0005201222e-01 1.8704744531e+00 -3.2397567871e+00 1.8704744531e+00 3.2397567871e+00 
6900 5.5814859333e+00 1.9805214109e-01 1.8651293810e+00 -3.2304988507e+00 1.8651293810e+00 3.2304988507e+00 
7000 5.5799150795e+00 1.9604851612e-01 1.8598225666e+00 -3.2213071785e+00 1.8598225666e+00 3.2213071785e+00 
7100 5.5783829354e+00 1.9404310105e-01 1.8545544390e+00 -3.2121825137e+00 1.8545544390e+00 3.2121825137e+00 
7200 5.5768890307e+00 1.9203772659e-01 1.8493253767e+00 -3.2031255121e+00 1.8493253767e+00 3.2031255121e+00 
7300 5.5754328385e+00 1.9003409658e-01 1.8441357109e+00 -3.1941367473e+00 1.8441357109e+00 3.1941367473e+00 
7400 5.5740137814e+00 1.8803379395e-01 1.8389857277e+00 -3.1852167147e+00 1.8389857277e+00 3.1852167147e+00 
7500 5.5726312383e+00 1.8603828657e-01 1.8338756709e+00 -3.1763658368e+00 1.8338756709e+00 3.1763658368e+00 
7600 5.5712845496e+00 1.8404893287e-01 1.8288057447e+00 -3.1675844669e+00 1.8288057447e+00 3.1675844669e+00 
7700 5.5699730227e+00 1.8206698729e-01 1.8237761154e+00 -3.1588728935e+00 1.8237761154e+00 3.1588728935e+00 
7800 5.5686959366e+00 1.8009360547e-01 1.8187869145e+00 -3.1502313440e+00 1.8187869145e+00 3.1502313440e+00 
7900 5.5674525467e+00 1.7812984933e-01 1.8138382403e+00 -3.1416599889e+00 1.8138382403e+00 3.1416599889e+00 
8000 5.5662420888e+00 1.7617669187e-01 1.8089301603e+00 -3.1331589451e+00 1.8089301603e+00 3.1331589451e+00 
8100 5.5650637828e+00 1.7423502178e-01 1.8040627133e+00 -3.1247282795e+00 1.8040627133e+00 3.1247282795e+00 
8200 5.5639168363e+00 1.7230564788e-01 1.7992359110e+00 -3.1163680126e+00 1.7992359110e+00 3.1163680126e+00 
8300 5.5628004479e+00 1.7038930337e-01 1.7944497399e+00 -3.1080781211e+00 1.7944497399e+00 3.1080781211e+00 
8400 5.5617138099e+00 1.6848664984e-01 1.7897041634e+00 -3.0998585415e+00 1.7897041634e+00 3.0998585415e+00 
8500 5.5606561115e+00 1.6659828116e-01 1.7849991233e+00 -3.0917091730e+00 1.7849991233e+00 3.0917091730e+00 
8600 5.5596265409e+00 1.6472472719e-01 1.7803345411e+00 -3.0836298797e+00 1.7803345411e+00 3.0836298797e+00 
8700 5.5586242877e+00 1.6286645730e-01 1.7757103203e+00 -3.0756204943e+00 1.7757103203e+00 3.0756204943e+00 
8800 5.5576485450e+00 1.6102388374e-01 1.7711263471e+00 -3.0676808197e+00 1.7711263471e+00 3.0676808197e+00 
8900 5.5566985116e+00 1.5919736491e-01 1.7665824921e+00 -3.0598106320e+00 1.7665824921e+00 3.0598106320e+00 
9000 5.5557733932e+00 1.5738720837e-01 1.7620786119e+00 -3.0520096827e+00 1.7620786119e+00 3.0520096827e+00 
9100 5.5548724046e+00 1.5559367388e-01 1.7576145501e+00 -3.0442777008e+00 1.7576145501e+00 3.0442777008e+00 
9200 5.5539947707e+00 1.5381697617e-01 1.7531901385e+00 -3.0366143952e+00 1.7531901385e+00 3.0366143952e+00 
9300 5.5531397278e+00 1.5205728765e-01 1.7488051986e+00 -3.0290194565e+00 1.7488051986e+00 3.0290194565e+00 
9400 5.5523065254e+00 1.5031474101e-01 1.7444595422e+00 -3.0214925588e+00 1.7444595422e+00 3.0214925588e+00 
9500 5.5514944264e+00 1.4858943170e-01 1.7401529730e+00 -3.0140333621e+00 1.7401529730e+00 3.0140333621e+00 
9600 5.5507027086e+00 1.4688142030e-01 1.7358852872e+00 -3.0066415135e+00 1.7358852872e+00 3.0066415135e+00 
9700 5.5499306654e+00 1.4519073477e-01 1.7316562747e+00 -2.9993166491e+00 1.7316562747e+00 2.9993166491e+00 
9800 5.5491776063e+00 1.4351737269e-01 1.7274657199e+00 -2.9920583953e+00 1.7274657199e+00 2.9920583953e+00 
9900 5.5484428580e+00 1.4186130330e-01 1.7233134027e+00 -2.9848663708e+00 1.7233134027e+00 2.9848663708e+00 
10000 5.5477257645e+00 1.4022246954e-01 1.7191990988e+00 -2.9777401875e+00 1.7191990988e+00 2.9777401875e+00 
10100 5.5470256879e+00 1.3860078995e-01 1.7151225815e+00 -2.9706794523e+00 1.7151225815e+00 2.9706794523e+00 
10200 5.5463420083e+00 1.3699616055e-01 1.7110836211e+00 -2.9636837678e+00 1.7110836211e+00 2.9636837678e+00 
10300 5.5456741248e+00 1.3540845659e-01 1.7070819869e+00 -2.9567527339e+00 1.7070819869e+00 2.9567527339e+00 
10400 5.5450214552e+00 1.3383753426e-01 1.7031174467e+00 -2.9498859490e+00 1.7031174467e+00 2.9498859490e+00 
10500 5.5443834363e+00 1.3228323233e-01 1.6991897683e+00 -2.9430830103e+00 1.6991897683e+00 2.9430830103e+00 
10600 5.5437595241e+00 1.3074537369e-01 1.6952987194e+00 -2.9363435159e+00 1.6952987194e+00 2.9363435159e+00 
10700 5.5431491937e+00 1.2922376690e-01 1.6914440684e+00 -2.9296670647e+00 1.6914440684e+00 2.9296670647e+00 
10800 5.5425519396e+00 1.2771820760e-01 1.6876255852e+00 -2.9230532577e+00 1.6876255852e+00 2.9230532577e+00 
10900 5.5419672752e+00 1.2622847988e-01 1.6838430408e+00 -2.9165016987e+00 1.6838430408e+00 2.9165016987e+00 
11000 5.5413947331e+00 1.2475435765e-01 1.6800962087e+00 -2.9100119950e+00 1.6800962087e+00 2.9100119950e+00 
11100 5.5408338648e+00 1.2329560585e-01 1.6763848644e+00 -2.9035837582e+00 1.6763848644e+00 2.9035837582e+00 
11200 5.5402842403e+00 1.2185198173e-01 1.6727087865e+00 -2.8972166044e+00 1.6727087865e+00 2.8972166044e+00 
11300 5.5397454484e+00 1.2042323593e-01 1.6690677563e+00 -2.8909101552e+00 1.6690677563e+00 2.8909101552e+00 
11400 5.5392170959e+00 1.1900911365e-01 1.6654615587e+00 -2.8846640378e+00 1.6654615587e+00 2.8846640378e+00 
11500 5.5386988076e+00 1.1760935569e-01 1.6618899821e+00 -2.8784778856e+00 1.6618899821e+00 2.8784778856e+00 
11600 5.5381902260e+00 1.1622369943e-01 1.6583528186e+00 -2.8723513387e+00 1.6583528186e+00 2.8723513387e+00 
11700 5.5376910108e+00 1.1485187984e-01 1.6548498643e+00 -2.8662840439e+00 1.6548498643e+00 2.8662840439e+00 
11800 5.5372008387e+00 1.1349363034e-01 1.6513809196e+00 -2.8602756554e+00 1.6513809196e+00 2.8602756554e+00 
11900 5.5367194027e+00 1.1214868369e-01 1.6479457888e+00 -2.8543258344e+00 1.6479457888e+00 2.8543258344e+00 
12000 5.5362464123e+00 1.1081677280e-01 1.6445442810e+00 -2.8484342500e+00 1.6445442810e+00 2.8484342500e+00 
12100 5.5357815922e+00 1.0949763152e-01 1.6411762095e+00 -2.8426005790e+00 1.6411762095e+00 2.8426005790e+00 
12200 5.5353246827e+00 1.0819099533e-01 1.6378413920e+00 -2.8368245057e+00 1.6378413920e+00 2.8368245057e+00 
12300 5.5348754387e+00 1.0689660209e-01 1.6345396511e+00 -2.8311057227e+00 1.6345396511e+00 2.8311057227e+00 
12400 5.5344336294e+00 1.0561419262e-01 1.6312708136e+00 -2.8254439301e+00 1.6312708136e+00 2.8254439301e+00 
12500 5.5339990379e+00 1.0434351134e-01 1.6280347111e+00 -2.8198388361e+00 1.6280347111e+00 2.8198388361e+00 
12600 5.5335714607e+00 1.0308430682e-01 1.6248311795e+00 -2.8142901566e+00 1.6248311795e+00 2.8142901566e+00 
12700 5.5331507068e+00 1.0183633231e-01 1.6216600593e+00 -2.8087976153e+00 1.6216600593e+00 2.8087976153e+00 
12800 5.5327365979e+00 1.0059934623e-01 1.6185211954e+00 -2.8033609435e+00 1.6185211954e+00 2.8033609435e+00 
12900 5.5323289673e+00 9.9373112578e-02 1.6154144368e+00 -2.7979798799e+00 1.6154144368e+00 2.7979798799e+00 
13000 5.5319276598e+00 9.8157401390e-02 1.6123396371e+00 -2.7926541705e+00 1.6123396371e+00 2.7926541705e+00 
13100 5.5315325308e+00 9.6951989070e-02 1.6092966536e+00 -2.7873835685e+00 1.6092966536e+00 2.7873835685e+00 
13200 5.5311434462e+00 9.5756658748e-02 1.6062853478e+00 -2.7821678339e+00 1.6062853478e+00 2.7821678339e+00 
13300 5.5307602815e+00 9.4571200569e-02 1.6033055850e+00 -2.7770067332e+00 1.6033055850e+00 2.7770067332e+00 
13400 5.5303829217e+00 9.3395411964e-02 1.6003572339e+00 -2.7719000394e+00 1.6003572339e+00 2.7719000394e+00 
13500 5.5300112605e+00 9.2229097885e-02 1.5974401671e+00 -2.7668475315e+00 1.5974401671e+00 2.7668475315e+00 
13600 5.5296451999e+00 9.1072070999e-02 1.5945542603e+00 -2.7618489943e+00 1.5945542603e+00 2.7618489943e+00 
13700 5.5292846497e+00 8.9924151863e-02 1.5916993923e+00 -2.7569042179e+00 1.5916993923e+00 2.7569042179e+00 
13800 5.5289295272e+00 8.8785169060e-02 1.5888754450e+00 -2.7520129976e+00 1.5888754450e+00 2.7520129976e+00 
13900 5.5285797563e+00 8.7654959308e-02 1.5860823027e+00 -2.7471751333e+00 1.5860823027e+00 2.7471751333e+00 
14000 5.5282352675e+00 8.6533367541e-02 1.5833198527e+00 -2.7423904294e+00 1.5833198527e+00 2.7423904294e+00 
14100 5.5278959971e+00 8.5420246965e-02 1.5805879841e+00 -2.7376586944e+00 1.5805879841e+00 2.7376586944e+00 
14200 5.5275618872e+00 8.4315459077e-02 1.5778865886e+00 -2.7329797401e+00 1.5778865886e+00 2.7329797401e+00 
14300 5.5272328846e+00 8.3218873672e-02 1.5752155594e+00 -2.7283533817e+00 1.5752155594e+00 2.7283533817e+00 
14400 5.5269089410e+00 8.2130368819e-02 1.5725747914e+00 -2.7237794374e+00 1.5725747914e+00 2.7237794374e+00 
14500 5.5265900123e+00 8.1049830810e-02 1.5699641810e+00 -2.7192577276e+00 1.5699641810e+00 2.7192577276e+00 
14600 5.5262760582e+00 7.9977154092e-02 1.5673836259e+00 -2.7147880749e+00 1.5673836259e+00 2.7147880749e+00 
14700 5.5259670419e+00 7.8912241180e-02 1.5648330243e+00 -2.7103703035e+00 1.5648330243e+00 2.7103703035e+00 
14800 5.5256629298e+00 7.7855002541e-02 1.5623122757e+00 -2.7060042387e+00 1.5623122757e+00 2.7060042387e+00 
14900 5.5253636907e+00 7.6805356465e-02 1.5598212796e+00 -2.7016897070e+00 1.5598212796e+00 2.7016897070e+00 
15000 5.5250692963e+00 7.5763228918e-02 1.5573599361e+00 -2.6974265349e+00 1.5573599361e+00 2.6974265349e+00 
15100 5.5247797200e+00 7.4728553379e-02 1.5549281451e+00 -2.6932145495e+00 1.5549281451e+00 2.6932145495e+00 
15200 5.5244949372e+00 7.3701270655e-02 1.5525258066e+00 -2.6890535771e+00 1.5525258066e+00 2.6890535771e+00 
15300 5.5242149244e+00 7.2681328690e-02 1.5501528199e+00 -2.6849434435e+00 1.5501528199e+00 2.6849434435e+00 
15400 5.5239396597e+00 7.1668682354e-02 1.5478090838e+00 -2.6808839736e+00 1.5478090838e+00 2.6808839736e+00 
15500 5.5236691220e+00 7.0663293223e-02 1.5454944964e+00 -2.6768749905e+00 1.5454944964e+00 2.6768749905e+00 
15600 5.5234032906e+00 6.9665129348e-02 1.5432089545e+00 -2.6729163160e+00 1.5432089545e+00 2.6729163160e+00 
15700 5.5231421456e+00 6.8674165010e-02 1.5409523540e+00 -2.6690077692e+00 1.5409523540e+00 2.6690077692e+00 
15800 5.5228856670e+00 6.7690380473e-02 1.5387245892e+00 -2.6651491673e+00 1.5387245892e+00 2.6651491673e+00 
15900 5.5226338349e+00 6.6713761721e-02 1.5365255527e+00 -2.6613403244e+00 1.5365255527e+00 2.6613403244e+00 
16000 5.5223866293e+00 6.5744300194e-02 1.5343551355e+00 -2.6575810515e+00 1.5343551355e+00 2.6575810515e+00 
16100 5.5221440297e+00 6.4781992518e-02 1.5322132266e+00 -2.6538711565e+00 1.5322132266e+00 2.6538711565e+00 
16200 5.5219060149e+00 6.3826840223e-02 1.5300997128e+00 -2.6502104432e+00 1.5300997128e+00 2.6502104432e+00 
16300 5.5216725633e+00 6.2878849470e-02 1.5280144788e+00 -2.6465987119e+00 1.5280144788e+00 2.6465987119e+00 
16400 5.5214436523e+00 6.1938030761e-02 1.5259574067e+00 -2.6430357585e+00 1.5259574067e+00 2.6430357585e+00 
16500 5.5212192582e+00 6.1004398658e-02 1.5239283761e+00 -2.6395213746e+00 1.5239283761e+00 2.6395213746e+00 
16600 5.5209993565e+00 6.0077971497e-02 1.5219272641e+00 -2.6360553469e+00 1.5219272641e+00 2.6360553469e+00 
16700 5.5207839214e+00 5.9158771098e-02 1.5199539448e+00 -2.6326374576e+00 1.5199539448e+00 2.6326374576e+00 
16800 5.5205729257e+00 5.8246822485e-02 1.5180082895e+00 -2.6292674837e+00 1.5180082895e+00 2.6292674837e+00 
16900 5.5203663410e+00 5.7342153598e-02 1.5160901663e+00 -2.6259451969e+00 1.5160901663e+00 2.6259451969e+00 
17000 5.5201641376e+00 5.6444795012e-02 1.5141994404e+00 -2.6226703636e+00 1.5141994404e+00 2.6226703636e+00 
17100 5.5199662841e+00 5.5554779660e-02 1.5123359739e+00 -2.6194427448e+00 1.5123359739e+00 2.6194427448e+00 
17200 5.5197727478e+00 5.4672142559e-02 1.5104996253e+00 -2.6162620958e+00 1.5104996253e+00 2.6162620958e+00 
17300 5.5195834943e+00 5.3796920534e-02 1.5086902500e+00 -2.6131281659e+00 1.5086902500e+00 2.6131281659e+00 
17400 5.5193984879e+00 5.2929151959e-02 1.5069077002e+00 -2.6100406990e+00 1.5069077002e+00 2.6100406990e+00 
17500 5.5192176911e+00 5.2068876495e-02 1.5051518242e+00 -2.6069994327e+00 1.5051518242e+00 2.6069994327e+00 
17600 5.5190410650e+00 5.1216134834e-02 1.5034224674e+00 -2.6040040988e+00 1.5034224674e+00 2.6040040988e+00 
17700 5.5188685690e+00 5.0370968455e-02 1.5017194713e+00 -2.6010544229e+00 1.5017194713e+00 2.6010544229e+00 
17800 5.5187001612e+00 4.9533419381e-02 1.5000426740e+00 -2.5981501249e+00 1.5000426740e+00 2.5981501249e+00 
17900 5.5185357980e+00 4.8703529950e-02 1.4983919102e+00 -2.5952909181e+00 1.4983919102e+00 2.5952909181e+00 
18000 5.5183754342e+00 4.7881342585e-02 1.4967670110e+00 -2.5924765101e+00 1.4967670110e+00 2.5924765101e+00 
18100 5.5182190234e+00 4.7066899581e-02 1.4951678040e+00 -2.5897066024e+00 1.4951678040e+00 2.5897066024e+00 
18200 5.5180665177e+00 4.6260242897e-02 1.4935941133e+00 -2.5869808901e+00 1.4935941133e+00 2.5869808901e+00 
18300 5.5179178678e+00 4.5461413952e-02 1.4920457596e+00 -2.5842990628e+00 1.4920457596e+00 2.5842990628e+00 
18400 5.5177730230e+00 4.4670453439e-02 1.4905225600e+00 -2.5816608037e+00 1.4905225600e+00 2.5816608037e+00 
18500 5.5176319315e+00 4.3887401139e-02 1.4890243284e+00 -2.5790657904e+00 1.4890243284e+00 2.5790657904e+00 
18600 5.5174945403e+00 4.3112295752e-02 1.4875508751e+00 -2.5765136945e+00 1.4875508751e+00 2.5765136945e+00 
18700 5.5173607951e+00 4.2345174729e-02 1.4861020074e+00 -2.5740041820e+00 1.4861020074e+00 2.5740041820e+00 
18800 5.5172306407e+00 4.1586074122e-02 1.4846775290e+00 -2.5715369132e+00 1.4846775290e+00 2.5715369132e+00 
18900 5.5171040207e+00 4.0835028438e-02 1.4832772408e+00 -2.5691115428e+00 1.4832772408e+00 2.5691115428e+00 
19000 5.5169808781e+00 4.0092070499e-02 1.4819009402e+00 -2.5667277202e+00 1.4819009402e+00 2.5667277202e+00 
19100 5.5168611546e+00 3.9357231323e-02 1.4805484218e+00 -2.5643850897e+00 1.4805484218e+00 2.5643850897e+00 
19200 5.5167447915e+00 3.8630540002e-02 1.4792194772e+00 -2.5620832901e+00 1.4792194772e+00 2.5620832901e+00 
19300 5.5166317293e+00 3.7912023593e-02 1.4779138950e+00 -2.5598219554e+00 1.4779138950e+00 2.5598219554e+00 
19400 5.5165219078e+00 3.7201707025e-02 1.4766314612e+00 -2.5576007149e+00 1.4766314612e+00 2.5576007149e+00 
19500 5.5164152662e+00 3.6499613001e-02 1.4753719590e+00 -2.5554191930e+00 1.4753719590e+00 2.5554191930e+00 
19600 5.5163117434e+00 3.5805761924e-02 1.4741351689e+00 -2.5532770097e+00 1.4741351689e+00 2.5532770097e+00 
19700 5.5162112778e+00 3.5120171819e-02 1.4729208690e+00 -2.5511737807e+00 1.4729208690e+00 2.5511737807e+00 
19800 5.5161138075e+00 3.4442858272e-02 1.4717288352e+00 -2.5491091175e+00 1.4717288352e+00 2.5491091175e+00 
19900 5.5160192705e+00 3.3773834371e-02 1.4705588408e+00 -2.5470826278e+00 1.4705588408e+00 2.5470826278e+00 
20000 5.5159276043e+00 3.3113110660e-02 1.4694106570e+00 -2.5450939152e+00 1.4694106570e+00 2.5450939152e+00 
20100 5.5158387466e+00 3.2460695098e-02 1.4682840531e+00 -2.5431425800e+00 1.4682840531e+00 2.5431425800e+00 
20200 5.5157526351e+00 3.1816593024e-02 1.4671787963e+00 -2.5412282190e+00 1.4671787963e+00 2.5412282190e+00 
20300 5.5156692074e+00 3.1180807134e-02 1.4660946520e+00 -2.5393504260e+00 1.4660946520e+00 2.5393504260e+00 
20400 5.5155884013e+00 3.0553337460e-02 1.4650313838e+00 -2.5375087915e+00 1.4650313838e+00 2.5375087915e+00 
20500 5.5155101549e+00 2.9934181357e-02 1.4639887540e+00 -2.5357029036e+00 1.4639887540e+00 2.5357029036e+00 
20600 5.5154344062e+00 2.9323333499e-02 1.4629665229e+00 -2.5339323475e+00 1.4629665229e+00 2.5339323475e+00 
20700 5.5153610940e+00 2.8720785880e-02 1.4619644500e+00 -2.5321967062e+00 1.4619644500e+00 2.5321967062e+00 
20800 5.5152901572e+00 2.8126527816e-02 1.4609822931e+00 -2.5304955607e+00 1.4609822931e+00 2.5304955607e+00 
20900 5.5152215352e+00 2.7540545960e-02 1.4600198093e+00 -2.5288284897e+00 1.4600198093e+00 2.5288284897e+00 
21000 5.5151551680e+00 2.6962824318e-02 1.4590767543e+00 -2.5271950706e+00 1.4590767543e+00 2.5271950706e+00 
21100 5.5150909959e+00 2.6393344269e-02 1.4581528832e+00 -2.5255948789e+00 1.4581528832e+00 2.5255948789e+00 
21200 5.5150289601e+00 2.5832084593e-02 1.4572479503e+00 -2.5240274891e+00 1.4572479503e+00 2.5240274891e+00 
21300 5.5149690023e+00 2.5279021503e-02 1.4563617090e+00 -2.5224924742e+00 1.4563617090e+00 2.5224924742e+00 
21400 5.5149110649e+00 2.4734128676e-02 1.4554939126e+00 -2.5209894067e+00 1.4554939126e+00 2.5209894067e+00 
21500 5.5148550911e+00 2.4197377295e-02 1.4546443137e+00 -2.5195178583e+00 1.4546443137e+00 2.5195178583e+00 
21600 5.5148010249e+00 2.3668736090e-02 1.4538126647e+00 -2.5180773999e+00 1.4538126647e+00 2.5180773999e+00 
21700 5.5147488109e+00 2.3148171384e-02 1.4529987178e+00 -2.5166676026e+00 1.4529987178e+00 2.5166676026e+00 
21800 5.5146983949e+00 2.2635647140e-02 1.4522022252e+00 -2.5152880369e+00 1.4522022252e+00 2.5152880369e+00 
21900 5.5146497233e+00 2.2131125014e-02 1.4514229390e+00 -2.5139382737e+00 1.4514229390e+00 2.5139382737e+00 
22000 5.5146027435e+00 2.1634564408e-02 1.4506606117e+00 -2.5126178841e+00 1.4506606117e+00 2.5126178841e+00 
22100 5.5145574040e+00 2.1145922527e-02 1.4499149959e+00 -2.5113264396e+00 1.4499149959e+00 2.5113264396e+00 
22200 5.5145136539e+00 2.0665154435e-02 1.4491858446e+00 -2.5100635124e+00 1.4491858446e+00 2.5100635124e+00 
22300 5.5144714437e+00 2.0192213116e-02 1.4484729112e+00 -2.5088286756e+00 1.4484729112e+00 2.5088286756e+00 
22400 5.5144307246e+00 1.9727049539e-02 1.4477759499e+00 -2.5076215031e+00 1.4477759499e+00 2.5076215031e+00 
22500 5.5143914488e+00 1.9269612714e-02 1.4470947152e+00 -2.5064415702e+00 1.4470947152e+00 2.5064415702e+00 
22600 5.5143535699e+00 1.8819849761e-02 1.4464289629e+00 -2.5052884533e+00 1.4464289629e+00 2.5052884533e+00 
22700 5.5143170421e+00 1.8377705975e-02 1.4457784491e+00 -2.5041617304e+00 1.4457784491e+00 2.5041617304e+00 
22800 5.5142818208e+00 1.7943124890e-02 1.4451429313e+00 -2.5030609813e+00 1.4451429313e+00 2.5030609813e+00 
22900 5.5142478626e+00 1.7516048347e-02 1.4445221678e+00 -2.5019857874e+00 1.4445221678e+00 2.5019857874e+00 
23000 5.5142151250e+00 1.7096416560e-02 1.4439159181e+00 -2.5009357321e+00 1.4439159181e+00 2.5009357321e+00 
23100 5.5141835666e+00 1.6684168185e-02 1.4433239430e+00 -2.4999104010e+00 1.4433239430e+00 2.4999104010e+00 
23200 5.5141531470e+00 1.6279240386e-02 1.4427460043e+00 -2.4989093819e+00 1.4427460043e+00 2.4989093819e+00 
23300 5.5141238270e+00 1.5881568902e-02 1.4421818655e+00 -2.4979322649e+00 1.4421818655e+00 2.4979322649e+00 
23400 5.5140955684e+00 1.5491088117e-02 1.4416312915e+00 -2.4969786426e+00 1.4416312915e+00 2.4969786426e+00 
23500 5.5140683339e+00 1.5107731125e-02 1.4410940485e+00 -2.4960481105e+00 1.4410940485e+00 2.4960481105e+00 
23600 5.5140420875e+00 1.4731429799e-02 1.4405699046e+00 -2.4951402665e+00 1.4405699046e+00 2.4951402665e+00 
23700 5.5140167940e+00 1.4362114855e-02 1.4400586292e+00 -2.4942547116e+00 1.4400586292e+00 2.4942547116e+00 
23800 5.5139924193e+00 1.3999715920e-02 1.4395599937e+00 -2.4933910497e+00 1.4395599937e+00 2.4933910497e+00 
23900 5.5139689305e+00 1.3644161596e-02 1.4390737713e+00 -2.4925488877e+00 1.4390737713e+00 2.4925488877e+00 
24000 5.5139462955e+00 1.3295379525e-02 1.4385997368e+00 -2.4917278359e+00 1.4385997368e+00 2.4917278359e+00 
24100 5.5139244831e+00 1.2953296453e-02 1.4381376671e+00 -2.4909275077e+00 1.4381376671e+00 2.4909275077e+00 
24200 5.5139034634e+00 1.2617838292e-02 1.4376873409e+00 -2.4901475199e+00 1.4376873409e+00 2.4901475199e+00 
24300 5.5138832072e+00 1.2288930184e-02 1.4372485391e+00 -2.4893874928e+00 1.4372485391e+00 2.4893874928e+00 
24400 5.5138636862e+00 1.1966496559e-02 1.4368210445e+00 -2.4886470504e+00 1.4368210445e+00 2.4886470504e+00 
24500 5.5138448733e+00 1.1650461197e-02 1.4364046419e+00 -2.4879258201e+00 1.4364046419e+00 2.4879258201e+00 
24600 5.5138267421e+00 1.1340747286e-02 1.4359991186e+00 -2.4872234330e+00 1.4359991186e+00 2.4872234330e+00 
24700 5.5138092671e+00 1.1037277479e-02 1.4356042636e+00 -2.4865395242e+00 1.4356042636e+00 2.4865395242e+00 
24800 5.5137924238e+00 1.0739973952e-02 1.4352198685e+00 -2.4858737323e+00 1.4352198685e+00 2.4858737323e+00 
24900 5.5137761884e+00 1.0448758459e-02 1.4348457270e+00 -2.4852257002e+00 1.4348457270e+00 2.4852257002e+00 
25000 5.5137605381e+00 1.0163552382e-02 1.4344816350e+00 -2.4845950744e+00 1.4344816350e+00 2.4845950744e+00 
25100 5.5137454507e+00 9.8842767908e-03 1.4341273909e+00 -2.4839815055e+00 1.4341273909e+00 2.4839815055e+00 
25200 5.5137309050e+00 9.6108524876e-03 1.4337827953e+00 -2.4833846484e+00 1.4337827953e+00 2.4833846484e+00 
25300 5.5137168805e+00 9.3432000609e-03 1.4334476511e+00 -2.4828041617e+00 1.4334476511e+00 2.4828041617e+00 
25400 5.5137033574e+00 9.0812399330e-03 1.4331217639e+00 -2.4822397085e+00 1.4331217639e+00 2.4822397085e+00 
25500 5.5136903166e+00 8.8248924075e-03 1.4328049413e+00 -2.4816909558e+00 1.4328049413e+00 2.4816909558e+00 
25600 5.5136777399e+00 8.5740777151e-03 1.4324969938e+00 -2.4811575749e+00 1.4324969938e+00 2.4811575749e+00 
25700 5.5136656097e+00 8.3287160590e-03 1.4321977338e+00 -2.4806392415e+00 1.4321977338e+00 2.4806392415e+00 
25800 5.5136539089e+00 8.0887276575e-03 1.4319069767e+00 -2.4801356354e+00 1.4319069767e+00 2.4801356354e+00 
25900 5.5136426213e+00 7.8540327862e-03 1.4316245400e+00 -2.4796464406e+00 1.4316245400e+00 2.4796464406e+00 
26000 5.5136317313e+00 7.6245518189e-03 1.4313502439e+00 -2.4791713458e+00 1.4313502439e+00 2.4791713458e+00 
26100 5.5136212237e+00 7.4002052667e-03 1.4310839109e+00 -2.4787100435e+00 1.4310839109e+00 2.4787100435e+00 
26200 5.5136110841e+00 7.1809138162e-03 1.4308253662e+00 -2.4782622310e+00 1.4308253662e+00 2.4782622310e+00 
26300 5.5136012985e+00 6.9665983659e-03 1.4305744375e+00 -2.4778276097e+00 1.4305744375e+00 2.4778276097e+00 
26400 5.5135918537e+00 6.7571800616e-03 1.4303309548e+00 -2.4774058854e+00 1.4303309548e+00 2.4774058854e+00 
26500 5.5135827368e+00 6.5525803310e-03 1.4300947510e+00 -2.4769967683e+00 1.4300947510e+00 2.4769967683e+00 
26600 5.5135739355e+00 6.3527209157e-03 1.4298656611e+00 -2.4765999730e+00 1.4298656611e+00 2.4765999730e+00 
26700 5.5135654380e+00 6.1575239035e-03 1.4296435228e+00 -2.4762152183e+00 1.4296435228e+00 2.4762152183e+00 
26800 5.5135572329e+00 5.9669117583e-03 1.4294281765e+00 -2.4758422275e+00 1.4294281765e+00 2.4758422275e+00 
26900 5.5135493093e+00 5.7808073492e-03 1.4292194649e+00 -2.4754807283e+00 1.4292194649e+00 2.4754807283e+00 
27000 5.5135416568e+00 5.5991339787e-03 1.4290172331e+00 -2.4751304527e+00 1.4290172331e+00 2.4751304527e+00 
27100 5.5135342655e+00 5.4218154089e-03 1.4288213290e+00 -2.4747911368e+00 1.4288213290e+00 2.4747911368e+00 
27200 5.5135271255e+00 5.2487758876e-03 1.4286316029e+00 -2.4744625215e+00 1.4286316029e+00 2.4744625215e+00 
27300 5.5135202279e+00 5.0799401721e-03 1.4284479074e+00 -2.4741443516e+00 1.4284479074e+00 2.4741443516e+00 
27400 5.5135135636e+00 4.9152335530e-03 1.4282700978e+00 -2.4738363764e+00 1.4282700978e+00 2.4738363764e+00 
27500 5.5135071242e+00 4.7545818761e-03 1.4280980318e+00 -2.4735383493e+00 1.4280980318e+00 2.4735383493e+00 
27600 5.5135009016e+00 4.5979115633e-03 1.4279315695e+00 -2.4732500281e+00 1.4279315695e+00 2.4732500281e+00 
27700 5.5134948879e+00 4.4451496333e-03 1.4277705735e+00 -2.4729711749e+00 1.4277705735e+00 2.4729711749e+00 
27800 5.5134890757e+00 4.2962237197e-03 1.4276149089e+00 -2.4727015558e+00 1.4276149089e+00 2.4727015558e+00 
27900 5.5134834577e+00 4.1510620898e-03 1.4274644429e+00 -2.4724409411e+00 1.4274644429e+00 2.4724409411e+00 
28000 5.5134780270e+00 4.0095936611e-03 1.4273190455e+00 -2.4721891055e+00 1.4273190455e+00 2.4721891055e+00 
28100 5.5134727771e+00 3.8717480175e-03 1.4271785889e+00 -2.4719458275e+00 1.4271785889e+00 2.4719458275e+00 
28200 5.5134677014e+00 3.7374554245e-03 1.4270429476e+00 -2.4717108899e+00 1.4270429476e+00 2.4717108899e+00 
28300 5.5134627940e+00 3.6066468432e-03 1.4269119986e+00 -2.4714840795e+00 1.4269119986e+00 2.4714840795e+00 
28400 5.5134580490e+00 3.4792539438e-03 1.4267856210e+00 -2.4712651871e+00 1.4267856210e+00 2.4712651871e+00 
28500 5.5134534607e+00 3.3552091177e-03 1.4266636965e+00 -2.4710540076e+00 1.4266636965e+00 2.4710540076e+00 
28600 5.5134490237e+00 3.2344454893e-03 1.4265461087e+00 -2.4708503397e+00 1.4265461087e+00 2.4708503397e+00 
28700 5.5134447328e+00 3.1168969270e-03 1.4264327439e+00 -2.4706539860e+00 1.4264327439e+00 2.4706539860e+00 
28800 5.5134405829e+00 3.0024980524e-03 1.4263234904e+00 -2.4704647533e+00 1.4263234904e+00 2.4704647533e+00 
28900 5.5134365694e+00 2.8911842501e-03 1.4262182386e+00 -2.4702824519e+00 1.4262182386e+00 2.4702824519e+00 
29000 5.5134326875e+00 2.7828916760e-03 1.4261168814e+00 -2.4701068961e+00 1.4261168814e+00 2.4701068961e+00 
29100 5.5134289329e+00 2.6775572646e-03 1.4260193136e+00 -2.4699379038e+00 1.4260193136e+00 2.4699379038e+00 
29200 5.5134253011e+00 2.5751187363e-03 1.4259254325e+00 -2.4697752968e+00 1.4259254325e+00 2.4697752968e+00 
29300 5.5134217882e+00 2.4755146034e-03 1.4258351370e+00 -2.4696189005e+00 1.4258351370e+00 2.4696189005e+00 
29400 5.5134183900e+00 2.3786841760e-03 1.4257483286e+00 -2.4694685439e+00 1.4257483286e+00 2.4694685439e+00 
29500 5.5134151029e+00 2.2845675664e-03 1.4256649106e+00 -2.4693240598e+00 1.4256649106e+00 2.4693240598e+00 
29600 5.5134119231e+00 2.1931056938e-03 1.4255847885e+00 -2.4691852842e+00 1.4255847885e+00 2.4691852842e+00 
29700 5.5134088470e+00 2.1042402878e-03 1.4255078697e+00 -2.4690520569e+00 1.4255078697e+00 2.4690520569e+00 
29800 5.5134058713e+00 2.0179138915e-03 1.4254340636e+00 -2.4689242210e+00 1.4254340636e+00 2.4689242210e+00 
29900 5.5134029926e+00 1.9340698638e-03 1.4253632818e+00 -2.4688016233e+00 1.4253632818e+00 2.4688016233e+00 
30000 5.5134002077e+00 1.8526523815e-03 1.4252954375e+00 -2.4686841136e+00 1.4252954375e+00 2.4686841136e+00 
30100 5.5133975136e+00 1.7736064410e-03 1.4252304461e+00 -2.4685715452e+00 1.4252304461e+00 2.4685715452e+00 
30200 5.5133949073e+00 1.6968778583e-03 1.4251682248e+00 -2.4684637747e+00 1.4251682248e+00 2.4684637747e+00 
30300 5.5133923858e+00 1.6224132701e-03 1.4251086927e+00 -2.4683606621e+00 1.4251086927e+00 2.4683606621e+00 
30400 5.5133899465e+00 1.5501601337e-03 1.4250517706e+00 -2.4682620702e+00 1.4250517706e+00 2.4682620702e+00 
30500 5.5133875867e+00 1.4800667258e-03 1.4249973814e+00 -2.4681678652e+00 1.4249973814e+00 2.4681678652e+00 
30600 5.5133853036e+00 1.4120821420e-03 1.4249454494e+00 -2.4680779164e+00 1.4249454494e+00 2.4680779164e+00 
30700 5.5133830950e+00 1.3461562951e-03 1.4248959011e+00 -2.4679920962e+00 1.4248959011e+00 2.4679920962e+00 
30800 5.5133809582e+00 1.2822399132e-03 1.4248486643e+00 -2.4679102797e+00 1.4248486643e+00 2.4679102797e+00 
30900 5.5133788910e+00 1.2202845375e-03 1.4248036689e+00 -2.4678323454e+00 1.4248036689e+00 2.4678323454e+00 
31000 5.5133768910e+00 1.1602425193e-03 1.4247608462e+00 -2.4677581743e+00 1.4247608462e+00 2.4677581743e+00 
31100 5.5133749562e+00 1.1020670176e-03 1.4247201293e+00 -2.4676876506e+00 1.4247201293e+00 2.4676876506e+00 
31200 5.5133730843e+00 1.0457119948e-03 1.4246814529e+00 -2.4676206610e+00 1.4246814529e+00 2.4676206610e+00 
31300 5.5133712733e+00 9.9113221368e-04 1.4246447532e+00 -2.4675570953e+00 1.4246447532e+00 2.4675570953e+00 
31400 5.5133695211e+00 9.3828323275e-04 1.4246099681e+00 -2.4674968457e+00 1.4246099681e+00 2.4674968457e+00 
31500 5.5133678259e+00 8.8712140226e-04 1.4245770370e+00 -2.4674398074e+00 1.4245770370e+00 2.4674398074e+00 
31600 5.5133661857e+00 8.3760385922e-04 1.4245459008e+00 -2.4673858779e+00 1.4245459008e+00 2.4673858779e+00 
31700 5.5133645988e+00 7.8968852251e-04 1.4245165019e+00 -2.4673349576e+00 1.4245165019e+00 2.4673349576e+00 
31800 5.5133630633e+00 7.4333408758e-04 1.4244887842e+00 -2.4672869491e+00 1.4244887842e+00 2.4672869491e+00 
31900 5.5133615775e+00 6.9850002089e-04 1.4244626931e+00 -2.4672417579e+00 1.4244626931e+00 2.4672417579e+00 
32000 5.5133601398e+00 6.5514655414e-04 1.4244381751e+00 -2.4671992915e+00 1.4244381751e+00 2.4671992915e+00 
32100 5.5133587486e+00 6.1323467822e-04 1.4244151785e+00 -2.4671594603e+00 1.4244151785e+00 2.4671594603e+00 
32200 5.5133574023e+00 5.7272613701e-04 1.4243936527e+00 -2.4671221765e+00 1.4243936527e+00 2.4671221765e+00 
32300 5.5133560993e+00 5.3358342083e-04 1.4243735486e+00 -2.4670873551e+00 1.4243735486e+00 2.4670873551e+00 
32400 5.5133548383e+00 4.9576975982e-04 1.4243548181e+00 -2.4670549130e+00 1.4243548181e+00 2.4670549130e+00 
32500 5.5133536177e+00 4.5924911706e-04 1.4243374149e+00 -2.4670247697e+00 1.4243374149e+00 2.4670247697e+00 
32600 5.5133524362e+00 4.2398618154e-04 1.4243212934e+00 -2.4669968465e+00 1.4243212934e+00 2.4669968465e+00 
32700 5.5133512925e+00 3.8994636092e-04 1.4243064096e+00 -2.4669710670e+00 1.4243064096e+00 2.4669710670e+00 
32800 5.5133501852e+00 3.5709577416e-04 1.4242927207e+00 -2.4669473570e+00 1.4242927207e+00 2.4669473570e+00 
32900 5.5133491130e+00 3.2540124400e-04 1.4242801848e+00 -2.4669256443e+00 1.4242801848e+00 2.4669256443e+00 
33000 5.5133480749e+00 2.9483028926e-04 1.4242687614e+00 -2.4669058584e+00 1.4242687614e+00 2.4669058584e+00 
33100 5.5133470694e+00 2.6535111709e-04 1.4242584112e+00 -2.4668879313e+00 1.4242584112e+00 2.4668879313e+00 
33200 5.5133460956e+00 2.3693261502e-04 1.4242490958e+00 -2.4668717966e+00 1.4242490958e+00 2.4668717966e+00 
33300 5.5133451522e+00 2.0954434291e-04 1.4242407780e+00 -2.4668573897e+00 1.4242407780e+00 2.4668573897e+00 
33400 5.5133442382e+00 1.8315652482e-04 1.4242334217e+00 -2.4668446482e+00 1.4242334217e+00 2.4668446482e+00 
33500 5.5133433526e+00 1.5774004078e-04 1.4242269917e+00 -2.4668335111e+00 1.4242269917e+00 2.4668335111e+00 
33600 5.5133424943e+00 1.3326641848e-04 1.4242214539e+00 -2.4668239194e+00 1.4242214539e+00 2.4668239194e+00 
33700 5.5133416623e+00 1.0970782482e-04 1.4242167754e+00 -2.4668158159e+00 1.4242167754e+00 2.4668158159e+00 
33800 5.5133408557e+00 8.7037057488e-05 1.4242129238e+00 -2.4668091449e+00 1.4242129238e+00 2.4668091449e+00 
33900 5.5133400736e+00 6.5227536373e-05 1.4242098682e+00 -2.4668038524e+00 1.4242098682e+00 2.4668038524e+00 
34000 5.5133393151e+00 4.5973602251e-05 1.4242098682e+00 -2.4668038524e+00 1.4242098682e+00 2.4668038524e+00 
34100 5.5133385791e+00 2.6981049686e-05 1.4242098682e+00 -2.4668038524e+00 1.4242098682e+00 2.4668038524e+00 
34200 5.5133378648e+00 8.2446967080e-06 1.4242098682e+00 -2.4668038524e+00 1.4242098682e+00 2.4668038524e+00 
34300 5.5133371715e+00 -1.0240576196e-05 1.4242098682e+00 -2.4668038524e+00 1.4242098682e+00 2.4668038524e+00 
34400 5.5133364986e+00 -2.8479827116e-05 1.4242098682e+00 -2.4668038524e+00 1.4242098682e+00 2.4668038524e+00 
34500 5.5133358452e+00 -4.6478053541e-05 1.4242098682e+00 -2.4668038524e+00 1.4242098682e+00 2.4668038524e+00 
34600 5.5133352107e+00 -6.4240193006e-05 1.4242098682e+00 -2.4668038524e+00 1.4242098682e+00 2.4668038524e+00 
34700 5.5133345945e+00 -8.1771123559e-05 1.4242098682e+00 -2.4668038524e+00 1.4242098682e+00 2.4668038524e+00 
34800 5.5133339954e+00 -9.6915894775e-05 1.4242127390e+00 -2.4668088247e+00 1.4242127390e+00 2.4668088247e+00 
34900 5.5133334130e+00 -1.1143303582e-04 1.4242161414e+00 -2.4668147179e+00 1.4242161414e+00 2.4668147179e+00 
35000 5.5133328466e+00 -1.2534286421e-04 1.4242200535e+00 -2.4668214938e+00 1.4242200535e+00 2.4668214938e+00 
35100 5.5133322957e+00 -1.3866517947e-04 1.4242244539e+00 -2.4668291156e+00 1.4242244539e+00 2.4668291156e+00 
35200 5.5133317596e+00 -1.5141927198e-04 1.4242293220e+00 -2.4668375474e+00 1.4242293220e+00 2.4668375474e+00 
35300 5.5133312377e+00 -1.6362393178e-04 1.4242346378e+00 -2.4668467547e+00 1.4242346378e+00 2.4668467547e+00 
35400 5.5133307296e+00 -1.7529745735e-04 1.4242403821e+00 -2.4668567040e+00 1.4242403821e+00 2.4668567040e+00 
35500 5.5133302346e+00 -1.8645766433e-04 1.4242465362e+00 -2.4668673632e+00 1.4242465362e+00 2.4668673632e+00 
35600 5.5133297523e+00 -1.9712189427e-04 1.4242530820e+00 -2.4668787009e+00 1.4242530820e+00 2.4668787009e+00 
35700 5.5133292822e+00 -2.0730702330e-04 1.4242600022e+00 -2.4668906871e+00 1.4242600022e+00 2.4668906871e+00 
35800 5.5133288237e+00 -2.1702947072e-04 1.4242672799e+00 -2.4669032924e+00 1.4242672799e+00 2.4669032924e+00 
35900 5.5133283765e+00 -2.2630520761e-04 1.4242748989e+00 -2.4669164889e+00 1.4242748989e+00 2.4669164889e+00 
36000 5.5133279400e+00 -2.3514976536e-04 1.4242828435e+00 -2.4669302493e+00 1.4242828435e+00 2.4669302493e+00 
36100 5.5133275139e+00 -2.4357824412e-04 1.4242910986e+00 -2.4669445475e+00 1.4242910986e+00 2.4669445475e+00 
36200 5.5133270978e+00 -2.5160532123e-04 1.4242996494e+00 -2.4669593580e+00 1.4242996494e+00 2.4669593580e+00 
36300 5.5133266912e+00 -2.5924525957e-04 1.4243084820e+00 -2.4669746565e+00 1.4243084820e+00 2.4669746565e+00 
36400 5.5133262938e+00 -2.6651191585e-04 1.4243175828e+00 -2.4669904195e+00 1.4243175828e+00 2.4669904195e+00 
36500 5.5133259052e+00 -2.7341874885e-04 1.4243269386e+00 -2.4670066242e+00 1.4243269386e+00 2.4670066242e+00 
36600 5.5133255250e+00 -2.7997882753e-04 1.4243365368e+00 -2.4670232487e+00 1.4243365368e+00 2.4670232487e+00 
36700 5.5133251530e+00 -2.8620483917e-04 1.4243463652e+00 -2.4670402720e+00 1.4243463652e+00 2.4670402720e+00 
36800 5.5133247889e+00 -2.9210909732e-04 1.4243564121e+00 -2.4670576738e+00 1.4243564121e+00 2.4670576738e+00 
36900 5.5133244322e+00 -2.9770354979e-04 1.4243666661e+00 -2.4670754344e+00 1.4243666661e+00 2.4670754344e+00 
37000 5.5133240828e+00 -3.0299978643e-04 1.4243771165e+00 -2.4670935350e+00 1.4243771165e+00 2.4670935350e+00 
37100 5.5133237403e+00 -3.0800904699e-04 1.4243877528e+00 -2.4671119575e+00 1.4243877528e+00 2.4671119575e+00 
37200 5.5133234045e+00 -3.1274222873e-04 1.4243985648e+00 -2.4671306844e+00 1.4243985648e+00 2.4671306844e+00 
37300 5.5133230751e+00 -3.1720989407e-04 1.4244095428e+00 -2.4671496990e+00 1.4244095428e+00 2.4671496990e+00 
37400 5.5133227519e+00 -3.2142227809e-04 1.4244206776e+00 -2.4671689850e+00 1.4244206776e+00 2.4671689850e+00 
37500 5.5133224346e+00 -3.2538929598e-04 1.4244319602e+00 -2.4671885270e+00 1.4244319602e+00 2.4671885270e+00 
37600 5.5133221230e+00 -3.2912055036e-04 1.4244433819e+00 -2.4672083100e+00 1.4244433819e+00 2.4672083100e+00 
37700 5.5133218169e+00 -3.3262533853e-04 1.4244549346e+00 -2.4672283197e+00 1.4244549346e+00 2.4672283197e+00 
37800 5.5133215162e+00 -3.3591265967e-04 1.4244666101e+00 -2.4672485424e+00 1.4244666101e+00 2.4672485424e+00 
37900 5.5133212205e+00 -3.3899122185e-04 1.4244784009e+00 -2.4672689647e+00 1.4244784009e+00 2.4672689647e+00 
38000 5.5133209297e+00 -3.4186944905e-04 1.4244902997e+00 -2.4672895740e+00 1.4244902997e+00 2.4672895740e+00 
38100 5.5133206437e+00 -3.4455548802e-04 1.4245022995e+00 -2.4673103582e+00 1.4245022995e+00 2.4673103582e+00 
38200 5.5133203623e+00 -3.4705721505e-04 1.4245143934e+00 -2.4673313054e+00 1.4245143934e+00 2.4673313054e+00 
38300 5.5133200852e+00 -3.4938224268e-04 1.4245265750e+00 -2.4673524046e+00 1.4245265750e+00 2.4673524046e+00 
38400 5.5133198124e+00 -3.5153792629e-04 1.4245388381e+00 -2.4673736450e+00 1.4245388381e+00 2.4673736450e+00 
38500 5.5133195438e+00 -3.5353137057e-04 1.4245511768e+00 -2.4673950162e+00 1.4245511768e+00 2.4673950162e+00 
38600 5.5133192791e+00 -3.5536943593e-04 1.4245635853e+00 -2.4674165084e+00 1.4245635853e+00 2.4674165084e+00 
38700 5.5133190182e+00 -3.5705874478e-04 1.4245760583e+00 -2.4674381121e+00 1.4245760583e+00 2.4674381121e+00 
38800 5.5133187611e+00 -3.5860568776e-04 1.4245885904e+00 -2.4674598184e+00 1.4245885904e+00 2.4674598184e+00 
38900 5.5133185076e+00 -3.6001642979e-04 1.4246011767e+00 -2.4674816185e+00 1.4246011767e+00 2.4674816185e+00 
39000 5.5133182575e+00 -3.6129691612e-04 1.4246138124e+00 -2.4675035042e+00 1.4246138124e+00 2.4675035042e+00 
39100 5.5133180109e+00 -3.6245287818e-04 1.4246264929e+00 -2.4675254676e+00 1.4246264929e+00 2.4675254676e+00 
39200 5.5133177675e+00 -3.6348983941e-04 1.4246392139e+00 -2.4675475010e+00 1.4246392139e+00 2.4675475010e+00 
39300 5.5133175273e+00 -3.6441312093e-04 1.4246519712e+00 -2.4675695972e+00 1.4246519712e+00 2.4675695972e+00 
39400 5.5133172902e+00 -3.6522784717e-04 1.4246647608e+00 -2.4675917494e+00 1.4246647608e+00 2.4675917494e+00 
39500 5.5133170562e+00 -3.6593895138e-04 1.4246775788e+00 -2.4676139509e+00 1.4246775788e+00 2.4676139509e+00 
39600 5.5133168250e+00 -3.6655118095e-04 1.4246904217e+00 -2.4676361955e+00 1.4246904217e+00 2.4676361955e+00 
39700 5.5133165967e+00 -3.6706910283e-04 1.4247032860e+00 -2.4676584770e+00 1.4247032860e+00 2.4676584770e+00 
39800 5.5133163712e+00 -3.6749710864e-04 1.4247161683e+00 -2.4676807899e+00 1.4247161683e+00 2.4676807899e+00 
39900 5.5133161484e+00 -3.6783941981e-04 1.4247290655e+00 -2.4677031285e+00 1.4247290655e+00 2.4677031285e+00 
40000 5.5133159282e+00 -3.6810009259e-04 1.4247419746e+00 -2.4677254878e+00 1.4247419746e+00 2.4677254878e+00 
40100 5.5133157106e+00 -3.6828302295e-04 1.4247548928e+00 -2.4677478626e+00 1.4247548928e+00 2.4677478626e+00 
40200 5.5133154956e+00 -3.6839195138e-04 1.4247678172e+00 -2.4677702485e+00 1.4247678172e+00 2.4677702485e+00 
40300 5.5133152830e+00 -3.6843046765e-04 1.4247807454e+00 -2.4677926407e+00 1.4247807454e+00 2.4677926407e+00 
40400 5.5133150728e+00 -3.6840201539e-04 1.4247936748e+00 -2.4678150351e+00 1.4247936748e+00 2.4678150351e+00 
40500 5.5133148651e+00 -3.6830989661e-04 1.4248066031e+00 -2.4678374275e+00 1.4248066031e+00 2.4678374275e+00 
40600 5.5133146596e+00 -3.6815727617e-04 1.4248195280e+00 -2.4678598141e+00 1.4248195280e+00 2.4678598141e+00 
40700 5.5133144564e+00 -3.6794718606e-04 1.4248324475e+00 -2.4678821913e+00 1.4248324475e+00 2.4678821913e+00 
40800 5.5133142555e+00 -3.6768252972e-04 1.4248453594e+00 -2.4679045555e+00 1.4248453594e+00 2.4679045555e+00 
40900 5.5133140568e+00 -3.6736608611e-04 1.4248582620e+00 -2.4679269033e+00 1.4248582620e+00 2.4679269033e+00 
41000 5.5133138602e+00 -3.6700051381e-04 1.4248711533e+00 -2.4679492318e+00 1.4248711533e+00 2.4679492318e+00 
41100 5.5133136658e+00 -3.6658835501e-04 1.4248840317e+00 -2.4679715378e+00 1.4248840317e+00 2.4679715378e+00 
41200 5.5133134734e+00 -3.6613203934e-04 1.4248968955e+00 -2.4679938186e+00 1.4248968955e+00 2.4679938186e+00 
41300 5.5133132832e+00 -3.6563388769e-04 1.4249097432e+00 -2.4680160715e+00 1.4249097432e+00 2.4680160715e+00 
41400 5.5133130949e+00 -3.6509611591e-04 1.4249225733e+00 -2.4680382938e+00 1.4249225733e+00 2.4680382938e+00 
41500 5.5133129087e+00 -3.6452083841e-04 1.4249353844e+00 -2.4680604833e+00 1.4249353844e+00 2.4680604833e+00 
41600 5.5133127245e+00 -3.6391007173e-04 1.4249481752e+00 -2.4680826376e+00 1.4249481752e+00 2.4680826376e+00 
41700 5.5133125422e+00 -3.6326573792e-04 1.4249609445e+00 -2.4681047546e+00 1.4249609445e+00 2.4681047546e+00 
41800 5.5133123619e+00 -3.6258966795e-04 1.4249736910e+00 -2.4681268323e+00 1.4249736910e+00 2.4681268323e+00 
41900 5.5133121835e+00 -3.6188360498e-04 1.4249864137e+00 -2.4681488687e+00 1.4249864137e+00 2.4681488687e+00 
42000 5.5133120070e+00 -3.6114920754e-04 1.4249991115e+00 -2.4681708619e+00 1.4249991115e+00 2.4681708619e+00 
42100 5.5133118324e+00 -3.6038805266e-04 1.4250117835e+00 -2.4681928103e+00 1.4250117835e+00 2.4681928103e+00 
42200 5.5133116596e+00 -3.5960163887e-04 1.4250244286e+00 -2.4682147123e+00 1.4250244286e+00 2.4682147123e+00 
42300 5.5133114887e+00 -3.5879138921e-04 1.4250370460e+00 -2.4682365663e+00 1.4250370460e+00 2.4682365663e+00 
42400 5.5133113196e+00 -3.5795865408e-04 1.4250496348e+00 -2.4682583708e+00 1.4250496348e+00 2.4682583708e+00 
42500 5.5133111523e+00 -3.5710471403e-04 1.4250621944e+00 -2.4682801246e+00 1.4250621944e+00 2.4682801246e+00 
42600 5.5133109869e+00 -3.5623078251e-04 1.4250747238e+00 -2.4683018262e+00 1.4250747238e+00 2.4683018262e+00 
42700 5.5133108232e+00 -3.5533800850e-04 1.4250872225e+00 -2.4683234746e+00 1.4250872225e+00 2.4683234746e+00 
42800 5.5133106612e+00 -3.5442747910e-04 1.4250996898e+00 -2.4683450685e+00 1.4250996898e+00 2.4683450685e+00 
42900 5.5133105010e+00 -3.5350022206e-04 1.4251121250e+00 -2.4683666069e+00 1.4251121250e+00 2.4683666069e+00 
43000 5.5133103426e+00 -3.5255720818e-04 1.4251245275e+00 -2.4683880888e+00 1.4251245275e+00 2.4683880888e+00 
43100 5.5133101859e+00 -3.5159935370e-04 1.4251368969e+00 -2.4684095132e+00 1.4251368969e+00 2.4684095132e+00 
43200 5.5133100308e+00 -3.5062752257e-04 1.4251492325e+00 -2.4684308791e+00 1.4251492325e+00 2.4684308791e+00 
43300 5.5133098775e+00 -3.4964252873e-04 1.4251615340e+00 -2.4684521859e+00 1.4251615340e+00 2.4684521859e+00 
43400 5.5133097259e+00 -3.4864513824e-04 1.4251738008e+00 -2.4684734326e+00 1.4251738008e+00 2.4684734326e+00 
43500 5.5133095760e+00 -3.4763607139e-04 1.4251860325e+00 -2.4684946185e+00 1.4251860325e+00 2.4684946185e+00 
43600 5.5133094278e+00 -3.4661600473e-04 1.4251982287e+00 -2.4685157429e+00 1.4251982287e+00 2.4685157429e+00 
43700 5.5133092812e+00 -3.4558557306e-04 1.4252103889e+00 -2.4685368051e+00 1.4252103889e+00 2.4685368051e+00 
43800 5.5133091362e+00 -3.4454537134e-04 1.4252225130e+00 -2.4685578046e+00 1.4252225130e+00 2.4685578046e+00 
43900 5.5133089929e+00 -3.4349595652e-04 1.4252346004e+00 -2.4685787406e+00 1.4252346004e+00 2.4685787406e+00 
44000 5.5133088513e+00 -3.4243784937e-04 1.4252466509e+00 -2.4685996127e+00 1.4252466509e+00 2.4685996127e+00 
44100 5.5133087112e+00 -3.4137153619e-04 1.4252586642e+00 -2.4686204204e+00 1.4252586642e+00 2.4686204204e+00 
44200 5.5133085728e+00 -3.4029747051e-04 1.4252706400e+00 -2.4686411631e+00 1.4252706400e+00 2.4686411631e+00 
44300 5.5133084360e+00 -3.3921607469e-04 1.4252825780e+00 -2.4686618403e+00 1.4252825780e+00 2.4686618403e+00 
44400 5.5133083007e+00 -3.3812774151e-04 1.4252944780e+00 -2.4686824517e+00 1.4252944780e+00 2.4686824517e+00 
44500 5.5133081671e+00 -3.3703283568e-04 1.4253063397e+00 -2.4687029967e+00 1.4253063397e+00 2.4687029967e+00 
44600 5.5133080350e+00 -3.3593169530e-04 1.4253181629e+00 -2.4687234751e+00 1.4253181629e+00 2.4687234751e+00 
44700 5.5133079045e+00 -3.3482463329e-04 1.4253299474e+00 -2.4687438864e+00 1.4253299474e+00 2.4687438864e+00 
44800 5.5133077755e+00 -3.3371193873e-04 1.4253416929e+00 -2.4687642302e+00 1.4253416929e+00 2.4687642302e+00 
44900 5.5133076481e+00 -3.3259387820e-04 1.4253533993e+00 -2.4687845063e+00 1.4253533993e+00 2.4687845063e+00 
45000 5.5133075223e+00 -3.3147069703e-04 1.4253650664e+00 -2.4688047143e+00 1.4253650664e+00 2.4688047143e+00 
45100 5.5133073979e+00 -3.3034262053e-04 1.4253766940e+00 -2.4688248539e+00 1.4253766940e+00 2.4688248539e+00 
45200 5.5133072751e+00 -3.2920985516e-04 1.4253882819e+00 -2.4688449247e+00 1.4253882819e+00 2.4688449247e+00 
45300 5.5133071538e+00 -3.2807258967e-04 1.4253998300e+00 -2.4688649266e+00 1.4253998300e+00 2.4688649266e+00 
45400 5.5133070340e+00 -3.2693099619e-04 1.4254113381e+00 -2.4688848593e+00 1.4254113381e+00 2.4688848593e+00 
45500 5.5133069157e+00 -3.2578523126e-04 1.4254228061e+00 -2.4689047224e+00 1.4254228061e+00 2.4689047224e+00 
45600 5.5133067989e+00 -3.2463543685e-04 1.4254342337e+00 -2.4689245157e+00 1.4254342337e+00 2.4689245157e+00 
45700 5.5133066835e+00 -3.2348174133e-04 1.4254456210e+00 -2.4689442390e+00 1.4254456210e+00 2.4689442390e+00 
45800 5.5133065696e+00 -3.2232426038e-04 1.4254569677e+00 -2.4689638921e+00 1.4254569677e+00 2.4689638921e+00 
45900 5.5133064572e+00 -3.2116309788e-04 1.4254682737e+00 -2.4689834747e+00 1.4254682737e+00 2.4689834747e+00 
46000 5.5133063462e+00 -3.1999834678e-04 1.4254795389e+00 -2.4690029865e+00 1.4254795389e+00 2.4690029865e+00 
46100 5.5133062366e+00 -3.1883008990e-04 1.4254907632e+00 -2.4690224275e+00 1.4254907632e+00 2.4690224275e+00 
46200 5.5133061285e+00 -3.1765840071e-04 1.4255019463e+00 -2.4690417974e+00 1.4255019463e+00 2.4690417974e+00 
46300 5.5133060218e+00 -3.1648334407e-04 1.4255130883e+00 -2.4690610959e+00 1.4255130883e+00 2.4690610959e+00 
46400 5.5133059165e+00 -3.1530497697e-04 1.4255241890e+00 -2.4690803228e+00 1.4255241890e+00 2.4690803228e+00 
46500 5.5133058126e+00 -3.1412334918e-04 1.4255352483e+00 -2.4690994781e+00 1.4255352483e+00 2.4690994781e+00 
46600 5.5133057100e+00 -3.1293850391e-04 1.4255462661e+00 -2.4691185614e+00 1.4255462661e+00 2.4691185614e+00 
46700 5.5133056089e+00 -3.1175047844e-04 1.4255572422e+00 -2.4691375725e+00 1.4255572422e+00 2.4691375725e+00 
46800 5.5133055091e+00 -3.1055930468e-04 1.4255681765e+00 -2.4691565114e+00 1.4255681765e+00 2.4691565114e+00 
46900 5.5133054107e+00 -3.0936500977e-04 1.4255790690e+00 -2.4691753777e+00 1.4255790690e+00 2.4691753777e+00 
47000 5.5133053136e+00 -3.0816761659e-04 1.4255899195e+00 -2.4691941714e+00 1.4255899195e+00 2.4691941714e+00 
47100 5.5133052178e+00 -3.0696714426e-04 1.4256007280e+00 -2.4692128921e+00 1.4256007280e+00 2.4692128921e+00 
47200 5.5133051234e+00 -3.0576360863e-04 1.4256114942e+00 -2.4692315398e+00 1.4256114942e+00 2.4692315398e+00 
47300 5.5133050303e+00 -3.0455702275e-04 1.4256222182e+00 -2.4692501143e+00 1.4256222182e+00 2.4692501143e+00 
47400 5.5133049384e+00 -3.0334739727e-04 1.4256328997e+00 -2.4692686153e+00 1.4256328997e+00 2.4692686153e+00 
47500 5.5133048479e+00 -3.0213474085e-04 1.4256435388e+00 -2.4692870427e+00 1.4256435388e+00 2.4692870427e+00 
47600 5.5133047586e+00 -3.0091906058e-04 1.4256541352e+00 -2.4693053963e+00 1.4256541352e+00 2.4693053963e+00 
47700 5.5133046707e+00 -2.9970036230e-04 1.4256646890e+00 -2.4693236759e+00 1.4256646890e+00 2.4693236759e+00 
47800 5.5133045839e+00 -2.9847865095e-04 1.4256751999e+00 -2.4693418813e+00 1.4256751999e+00 2.4693418813e+00 
47900 5.5133044985e+00 -2.9725393092e-04 1.4256856679e+00 -2.4693600124e+00 1.4256856679e+00 2.4693600124e+00 
48000 5.5133044142e+00 -2.9602620630e-04 1.4256960928e+00 -2.4693780689e+00 1.4256960928e+00 2.4693780689e+00 
48100 5.5133043312e+00 -2.9479548120e-04 1.4257064747e+00 -2.4693960508e+00 1.4257064747e+00 2.4693960508e+00 
48200 5.5133042494e+00 -2.9356175999e-04 1.4257168132e+00 -2.4694139577e+00 1.4257168132e+00 2.4694139577e+00 
48300 5.5133041688e+00 -2.9232504755e-04 1.4257271085e+00 -2.4694317896e+00 1.4257271085e+00 2.4694317896e+00 
48400 5.5133040894e+00 -2.9108534951e-04 1.4257373603e+00 -2.4694495463e+00 1.4257373603e+00 2.4694495463e+00 
48500 5.5133040111e+00 -2.8984267243e-04 1.4257475685e+00 -2.4694672275e+00 1.4257475685e+00 2.4694672275e+00 
48600 5.5133039340e+00 -2.8859702405e-04 1.4257577331e+00 -2.4694848331e+00 1.4257577331e+00 2.4694848331e+00 
48700 5.5133038581e+00 -2.8734841337e-04 1.4257678540e+00 -2.4695023629e+00 1.4257678540e+00 2.4695023629e+00 
48800 5.5133037834e+00 -2.8609685094e-04 1.4257779310e+00 -2.4695198167e+00 1.4257779310e+00 2.4695198167e+00 
48900 5.5133037097e+00 -2.8484234891e-04 1.4257879640e+00 -2.4695371944e+00 1.4257879640e+00 2.4695371944e+00 
49000 5.5133036372e+00 -2.8358492121e-04 1.4257979529e+00 -2.4695544958e+00 1.4257979529e+00 2.4695544958e+00 
49100 5.5133035658e+00 -2.8232458367e-04 1.4258078977e+00 -2.4695717207e+00 1.4258078977e+00 2.4695717207e+00 
49200 5.5133034955e+00 -2.8106135412e-04 1.4258177983e+00 -2.4695888689e+00 1.4258177983e+00 2.4695888689e+00 
49300 5.5133034262e+00 -2.7979525251e-04 1.4258276544e+00 -2.4696059403e+00 1.4258276544e+00 2.4696059403e+00 
49400 5.5133033581e+00 -2.7852630098e-04 1.4258374661e+00 -2.4696229346e+00 1.4258374661e+00 2.4696229346e+00 
49500 5.5133032910e+00 -2.7725452393e-04 1.4258472332e+00 -2.4696398518e+00 1.4258472332e+00 2.4696398518e+00 
49600 5.5133032250e+00 -2.7597994813e-04 1.4258569557e+00 -2.4696566916e+00 1.4258569557e+00 2.4696566916e+00 
49700 5.5133031600e+00 -2.7470260270e-04 1.4258666334e+00 -2.4696734538e+00 1.4258666334e+00 2.4696734538e+00 
49800 5.5133030960e+00 -2.7342251925e-04 1.4258762662e+00 -2.4696901384e+00 1.4258762662e+00 2.4696901384e+00 
49900 5.5133030331e+00 -2.7213973184e-04 1.4258858541e+00 -2.4697067451e+00 1.4258858541e+00 2.4697067451e+00 
50000 5.5133029711e+00 -2.7085427706e-04 1.4258953970e+00 -2.4697232738e+00 1.4258953970e+00 2.4697232738e+00 
50100 5.5133029102e+00 -2.6956619401e-04 1.4259048947e+00 -2.4697397243e+00 1.4259048947e+00 2.4697397243e+00 
50200 5.5133028502e+00 -2.6827552437e-04 1.4259143471e+00 -2.4697560965e+00 1.4259143471e+00 2.4697560965e+00 
50300 5.5133027912e+00 -2.6698231234e-04 1.4259237543e+00 -2.4697723901e+00 1.4259237543e+00 2.4697723901e+00 
50400 5.5133027331e+00 -2.6568660469e-04 1.4259331160e+00 -2.4697886051e+00 1.4259331160e+00 2.4697886051e+00 
50500 5.5133026761e+00 -2.6438845075e-04 1.4259424323e+00 -2.4698047414e+00 1.4259424323e+00 2.4698047414e+00 
50600 5.5133026199e+00 -2.6308790235e-04 1.4259517029e+00 -2.4698207986e+00 1.4259517029e+00 2.4698207986e+00 
50700 5.5133025647e+00 -2.6178501387e-04 1.4259609279e+00 -2.4698367768e+00 1.4259609279e+00 2.4698367768e+00 
50800 5.5133025103e+00 -2.6047984217e-04 1.4259701072e+00 -2.4698526757e+00 1.4259701072e+00 2.4698526757e+00 
50900 5.5133024569e+00 -2.5917244655e-04 1.4259792406e+00 -2.4698684953e+00 1.4259792406e+00 2.4698684953e+00 
51000 5.5133024044e+00 -2.5786288876e-04 1.4259883282e+00 -2.4698842354e+00 1.4259883282e+00 2.4698842354e+00 
51100 5.5133023527e+00 -2.5655123295e-04 1.4259973697e+00 -2.4698998958e+00 1.4259973697e+00 2.4698998958e+00 
51200 5.5133023020e+00 -2.5523754559e-04 1.4260063652e+00 -2.4699154765e+00 1.4260063652e+00 2.4699154765e+00 
51300 5.5133022520e+00 -2.5392189546e-04 1.4260153146e+00 -2.4699309773e+00 1.4260153146e+00 2.4699309773e+00 
51400 5.5133022030e+00 -2.5260435360e-04 1.4260242178e+00 -2.4699463981e+00 1.4260242178e+00 2.4699463981e+00 
51500 5.5133021547e+00 -2.5128499323e-04 1.4260330748e+00 -2.4699617388e+00 1.4260330748e+00 2.4699617388e+00 
51600 5.5133021073e+00 -2.4996388973e-04 1.4260418854e+00 -2.4699769993e+00 1.4260418854e+00 2.4699769993e+00 
51700 5.5133020607e+00 -2.4864112053e-04 1.4260506497e+00 -2.4699921794e+00 1.4260506497e+00 2.4699921794e+00 
51800 5.5133020149e+00 -2.4731676512e-04 1.4260593675e+00 -2.4700072792e+00 1.4260593675e+00 2.4700072792e+00 
51900 5.5133019699e+00 -2.4599090490e-04 1.4260680389e+00 -2.4700222984e+00 1.4260680389e+00 2.4700222984e+00 
52000 5.5133019257e+00 -2.4466362320e-04 1.4260766637e+00 -2.4700372370e+00 1.4260766637e+00 2.4700372370e+00 
52100 5.5133018822e+00 -2.4333500513e-04 1.4260852419e+00 -2.4700520949e+00 1.4260852419e+00 2.4700520949e+00 
52200 5.5133018395e+00 -2.4200513758e-04 1.4260937735e+00 -2.4700668720e+00 1.4260937735e+00 2.4700668720e+00 
52300 5.5133017975e+00 -2.4067410909e-04 1.4261022584e+00 -2.4700815683e+00 1.4261022584e+00 2.4700815683e+00 
52400 5.5133017563e+00 -2.3934200984e-04 1.4261106966e+00 -2.4700961837e+00 1.4261106966e+00 2.4700961837e+00 
52500 5.5133017158e+00 -2.3800893151e-04 1.4261190880e+00 -2.4701107180e+00 1.4261190880e+00 2.4701107180e+00 
52600 5.5133016761e+00 -2.3667496724e-04 1.4261274326e+00 -2.4701251714e+00 1.4261274326e+00 2.4701251714e+00 
52700 5.5133016370e+00 -2.3534021158e-04 1.4261357305e+00 -2.4701395437e+00 1.4261357305e+00 2.4701395437e+00 
52800 5.5133015987e+00 -2.3400476034e-04 1.4261439814e+00 -2.4701538348e+00 1.4261439814e+00 2.4701538348e+00 
52900 5.5133015610e+00 -2.3266871060e-04 1.4261521856e+00 -2.4701680447e+00 1.4261521856e+00 2.4701680447e+00 
53000 5.5133015240e+00 -2.3133216056e-04 1.4261603428e+00 -2.4701821735e+00 1.4261603428e+00 2.4701821735e+00 
53100 5.5133014877e+00 -2.2999520949e-04 1.4261684531e+00 -2.4701962209e+00 1.4261684531e+00 2.4701962209e+00 
53200 5.5133014520e+00 -2.2865795770e-04 1.4261765165e+00 -2.4702101872e+00 1.4261765165e+00 2.4702101872e+00 
53300 5.5133014170e+00 -2.2732050636e-04 1.4261845330e+00 -2.4702240721e+00 1.4261845330e+00 2.4702240721e+00 
53400 5.5133013826e+00 -2.2598295753e-04 1.4261925025e+00 -2.4702378758e+00 1.4261925025e+00 2.4702378758e+00 
53500 5.5133013488e+00 -2.2464541400e-04 1.4262004251e+00 -2.4702515981e+00 1.4262004251e+00 2.4702515981e+00 
53600 5.5133013157e+00 -2.2330797928e-04 1.4262083008e+00 -2.4702652392e+00 1.4262083008e+00 2.4702652392e+00 
53700 5.5133012831e+00 -2.2197075746e-04 1.4262161295e+00 -2.4702787989e+00 1.4262161295e+00 2.4702787989e+00 
53800 5.5133012512e+00 -2.2063385319e-04 1.4262239114e+00 -2.4702922774e+00 1.4262239114e+00 2.4702922774e+00 
53900 5.5133012199e+00 -2.1929737158e-04 1.4262316463e+00 -2.4703056747e+00 1.4262316463e+00 2.4703056747e+00 
54000 5.5133011891e+00 -2.1796141813e-04 1.4262393343e+00 -2.4703189907e+00 1.4262393343e+00 2.4703189907e+00 
54100 5.5133011590e+00 -2.1662609865e-04 1.4262469754e+00 -2.4703322255e+00 1.4262469754e+00 2.4703322255e+00 
54200 5.5133011293e+00 -2.1529151919e-04 1.4262545697e+00 -2.4703453792e+00 1.4262545697e+00 2.4703453792e+00 
54300 5.5133011003e+00 -2.1395778600e-04 1.4262621171e+00 -2.4703584518e+00 1.4262621171e+00 2.4703584518e+00 
54400 5.5133010718e+00 -2.1262500541e-04 1.4262696178e+00 -2.4703714433e+00 1.4262696178e+00 2.4703714433e+00 
54500 5.5133010438e+00 -2.1129328379e-04 1.4262770717e+00 -2.4703843538e+00 1.4262770717e+00 2.4703843538e+00 
54600 5.5133010164e+00 -2.0996272749e-04 1.4262844788e+00 -2.4703971834e+00 1.4262844788e+00 2.4703971834e+00 
54700 5.5133009894e+00 -2.0863344274e-04 1.4262918393e+00 -2.4704099321e+00 1.4262918393e+00 2.4704099321e+00 
54800 5.5133009630e+00 -2.0730553563e-04 1.4262991532e+00 -2.4704226001e+00 1.4262991532e+00 2.4704226001e+00 
54900 5.5133009371e+00 -2.0597911201e-04 1.4263064204e+00 -2.4704351873e+00 1.4263064204e+00 2.4704351873e+00 
55000 5.5133009117e+00 -2.0465427744e-04 1.4263136411e+00 -2.4704476940e+00 1.4263136411e+00 2.4704476940e+00 
55100 5.5133008868e+00 -2.0333113714e-04 1.4263208154e+00 -2.4704601202e+00 1.4263208154e+00 2.4704601202e+00 
55200 5.5133008624e+00 -2.0200979592e-04 1.4263279432e+00 -2.4704724659e+00 1.4263279432e+00 2.4704724659e+00 
55300 5.5133008384e+00 -2.0069035811e-04 1.4263350247e+00 -2.4704847314e+00 1.4263350247e+00 2.4704847314e+00 
55400 5.5133008149e+00 -1.9937292752e-04 1.4263420599e+00 -2.4704969167e+00 1.4263420599e+00 2.4704969167e+00 
55500 5.5133007919e+00 -1.9805760741e-04 1.4263490488e+00 -2.4705090219e+00 1.4263490488e+00 2.4705090219e+00 
55600 5.5133007693e+00 -1.9674450035e-04 1.4263559917e+00 -2.4705210472e+00 1.4263559917e+00 2.4705210472e+00 
55700 5.5133007471e+00 -1.9543370829e-04 1.4263628884e+00 -2.4705329928e+00 1.4263628884e+00 2.4705329928e+00 
55800 5.5133007254e+00 -1.9412533240e-04 1.4263697392e+00 -2.4705448587e+00 1.4263697392e+00 2.4705448587e+00 
55900 5.5133007042e+00 -1.9281947309e-04 1.4263765441e+00 -2.4705566451e+00 1.4263765441e+00 2.4705566451e+00 
56000 5.5133006833e+00 -1.9151622993e-04 1.4263833031e+00 -2.4705683521e+00 1.4263833031e+00 2.4705683521e+00 
56100 5.5133006628e+00 -1.9021570162e-04 1.4263900165e+00 -2.4705799800e+00 1.4263900165e+00 2.4705799800e+00 
56200 5.5133006428e+00 -1.8891798593e-04 1.4263966842e+00 -2.4705915288e+00 1.4263966842e+00 2.4705915288e+00 
56300 5.5133006232e+00 -1.8762317969e-04 1.4264033065e+00 -2.4706029989e+00 1.4264033065e+00 2.4706029989e+00 
56400 5.5133006039e+00 -1.8633137870e-04 1.4264098832e+00 -2.4706143902e+00 1.4264098832e+00 2.4706143902e+00 
56500 5.5133005851e+00 -1.8504267774e-04 1.4264164147e+00 -2.4706257031e+00 1.4264164147e+00 2.4706257031e+00 
56600 5.5133005666e+00 -1.8375717051e-04 1.4264229010e+00 -2.4706369376e+00 1.4264229010e+00 2.4706369376e+00 
56700 5.5133005485e+00 -1.8247494956e-04 1.4264293422e+00 -2.4706480941e+00 1.4264293422e+00 2.4706480941e+00 
56800 5.5133005307e+00 -1.8119610634e-04 1.4264357384e+00 -2.4706591727e+00 1.4264357384e+00 2.4706591727e+00 
56900 5.5133005133e+00 -1.7992073108e-04 1.4264420898e+00 -2.4706701736e+00 1.4264420898e+00 2.4706701736e+00 
57000 5.5133004963e+00 -1.7864891282e-04 1.4264483964e+00 -2.4706810970e+00 1.4264483964e+00 2.4706810970e+00 
57100 5.5133004796e+00 -1.7738073933e-04 1.4264546584e+00 -2.4706919431e+00 1.4264546584e+00 2.4706919431e+00 
57200 5.5133004633e+00 -1.7611629713e-04 1.4264608760e+00 -2.4707027122e+00 1.4264608760e+00 2.4707027122e+00 
57300 5.5133004473e+00 -1.7485567144e-04 1.4264670492e+00 -2.4707134045e+00 1.4264670492e+00 2.4707134045e+00 
57400 5.5133004316e+00 -1.7359894613e-04 1.4264731782e+00 -2.4707240202e+00 1.4264731782e+00 2.4707240202e+00 
57500 5.5133004163e+00 -1.7234620376e-04 1.4264792631e+00 -2.4707345596e+00 1.4264792631e+00 2.4707345596e+00 
57600 5.5133004013e+00 -1.7109752548e-04 1.4264853040e+00 -2.4707450228e+00 1.4264853040e+00 2.4707450228e+00 
57700 5.5133003865e+00 -1.6985299108e-04 1.4264913012e+00 -2.4707554103e+00 1.4264913012e+00 2.4707554103e+00 
57800 5.5133003721e+00 -1.6861267891e-04 1.4264972547e+00 -2.4707657221e+00 1.4264972547e+00 2.4707657221e+00 
57900 5.5133003580e+00 -1.6737666592e-04 1.4265031648e+00 -2.4707759585e+00 1.4265031648e+00 2.4707759585e+00 
58000 5.5133003442e+00 -1.6614502760e-04 1.4265090315e+00 -2.4707861199e+00 1.4265090315e+00 2.4707861199e+00 
58100 5.5133003307e+00 -1.6491783796e-04 1.4265148549e+00 -2.4707962065e+00 1.4265148549e+00 2.4707962065e+00 
58200 5.5133003175e+00 -1.6369516956e-04 1.4265206354e+00 -2.4708062185e+00 1.4265206354e+00 2.4708062185e+00 
58300 5.5133003045e+00 -1.6247709346e-04 1.4265263730e+00 -2.4708161563e+00 1.4265263730e+00 2.4708161563e+00 
58400 5.5133002918e+00 -1.6126367923e-04 1.4265320678e+00 -2.4708260201e+00 1.4265320678e+00 2.4708260201e+00 
58500 5.5133002794e+00 -1.6005499491e-04 1.4265377201e+00 -2.4708358102e+00 1.4265377201e+00 2.4708358102e+00 
58600 5.5133002673e+00 -1.5885110703e-04 1.4265433300e+00 -2.4708455268e+00 1.4265433300e+00 2.4708455268e+00 
58700 5.5133002554e+00 -1.5765208060e-04 1.4265488977e+00 -2.4708551703e+00 1.4265488977e+00 2.4708551703e+00 
58800 5.5133002438e+00 -1.5645797908e-04 1.4265544234e+00 -2.4708647411e+00 1.4265544234e+00 2.4708647411e+00 
58900 5.5133002324e+00 -1.5526886440e-04 1.4265599072e+00 -2.4708742392e+00 1.4265599072e+00 2.4708742392e+00 
59000 5.5133002213e+00 -1.5408479694e-04 1.4265653492e+00 -2.4708836652e+00 1.4265653492e+00 2.4708836652e+00 
59100 5.5133002104e+00 -1.5290583554e-04 1.4265707498e+00 -2.4708930192e+00 1.4265707498e+00 2.4708930192e+00 
59200 5.5133001997e+00 -1.5173203748e-04 1.4265761090e+00 -2.4709023016e+00 1.4265761090e+00 2.4709023016e+00 
59300 5.5133001893e+00 -1.5056345848e-04 1.4265814270e+00 -2.4709115128e+00 1.4265814270e+00 2.4709115128e+00 
59400 5.5133001791e+00 -1.4940015273e-04 1.4265867041e+00 -2.4709206529e+00 1.4265867041e+00 2.4709206529e+00 
59500 5.5133001692e+00 -1.4824217286e-04 1.4265919404e+00 -2.4709297225e+00 1.4265919404e+00 2.4709297225e+00 
59600 5.5133001594e+00 -1.4708956993e-04 1.4265971361e+00 -2.4709387216e+00 1.4265971361e+00 2.4709387216e+00 
59700 5.5133001499e+00 -1.4594239348e-04 1.4266022913e+00 -2.4709476508e+00 1.4266022913e+00 2.4709476508e+00 
59800 5.5133001406e+00 -1.4480069149e-04 1.4266074064e+00 -2.4709565103e+00 1.4266074064e+00 2.4709565103e+00 
59900 5.5133001315e+00 -1.4366451041e-04 1.4266124814e+00 -2.4709653005e+00 1.4266124814e+00 2.4709653005e+00 
60000 5.5133001226e+00 -1.4253389513e-04 1.4266175166e+00 -2.4709740216e+00 1.4266175166e+00 2.4709740216e+00 
60100 5.5133001139e+00 -1.4140888905e-04 1.4266225121e+00 -2.4709826741e+00 1.4266225121e+00 2.4709826741e+00 
60200 5.5133001054e+00 -1.4028953400e-04 1.4266274682e+00 -2.4709912583e+00 1.4266274682e+00 2.4709912583e+00 
60300 5.5133000971e+00 -1.3917587034e-04 1.4266323850e+00 -2.4709997745e+00 1.4266323850e+00 2.4709997745e+00 
60400 5.5133000889e+00 -1.3806793690e-04 1.4266372628e+00 -2.4710082231e+00 1.4266372628e+00 2.4710082231e+00 
60500 5.5133000810e+00 -1.3696577100e-04 1.4266421017e+00 -2.4710166043e+00 1.4266421017e+00 2.4710166043e+00 
60600 5.5133000732e+00 -1.3586940850e-04 1.4266469020e+00 -2.4710249187e+00 1.4266469020e+00 2.4710249187e+00 
60700 5.5133000657e+00 -1.3477888375e-04 1.4266516638e+00 -2.4710331664e+00 1.4266516638e+00 2.4710331664e+00 
60800 5.5133000583e+00 -1.3369422966e-04 1.4266563874e+00 -2.4710413480e+00 1.4266563874e+00 2.4710413480e+00 
60900 5.5133000510e+00 -1.3261547765e-04 1.4266610730e+00 -2.4710494637e+00 1.4266610730e+00 2.4710494637e+00 
61000 5.5133000440e+00 -1.3154265774e-04 1.4266657208e+00 -2.4710575138e+00 1.4266657208e+00 2.4710575138e+00 
61100 5.5133000371e+00 -1.3047579847e-04 1.4266703309e+00 -2.4710654988e+00 1.4266703309e+00 2.4710654988e+00 
61200 5.5133000303e+00 -1.2941492699e-04 1.4266749037e+00 -2.4710734190e+00 1.4266749037e+00 2.4710734190e+00 
61300 5.5133000238e+00 -1.2836006903e-04 1.4266794392e+00 -2.4710812748e+00 1.4266794392e+00 2.4710812748e+00 
61400 5.5133000173e+00 -1.2731124893e-04 1.4266839378e+00 -2.4710890666e+00 1.4266839378e+00 2.4710890666e+00 
61500 5.5133000111e+00 -1.2626848966e-04 1.4266883996e+00 -2.4710967946e+00 1.4266883996e+00 2.4710967946e+00 
61600 5.5133000049e+00 -1.2523181282e-04 1.4266928248e+00 -2.4711044593e+00 1.4266928248e+00 2.4711044593e+00 
61700 5.5132999990e+00 -1.2420123865e-04 1.4266972137e+00 -2.4711120611e+00 1.4266972137e+00 2.4711120611e+00 
61800 5.5132999931e+00 -1.2317678607e-04 1.4267015664e+00 -2.4711196003e+00 1.4267015664e+00 2.4711196003e+00 
61900 5.5132999874e+00 -1.2215847268e-04 1.4267058833e+00 -2.4711270773e+00 1.4267058833e+00 2.4711270773e+00 
62000 5.5132999819e+00 -1.2114631479e-04 1.4267101644e+00 -2.4711344925e+00 1.4267101644e+00 2.4711344925e+00 
62100 5.5132999765e+00 -1.2014032740e-04 1.4267144101e+00 -2.4711418461e+00 1.4267144101e+00 2.4711418461e+00 
62200 5.5132999712e+00 -1.1914052426e-04 1.4267186205e+00 -2.4711491387e+00 1.4267186205e+00 2.4711491387e+00 
62300 5.5132999660e+00 -1.1814691788e-04 1.4267227958e+00 -2.4711563706e+00 1.4267227958e+00 2.4711563706e+00 
62400 5.5132999610e+00 -1.1715951950e-04 1.4267269363e+00 -2.4711635422e+00 1.4267269363e+00 2.4711635422e+00 
62500 5.5132999561e+00 -1.1617833918e-04 1.4267310422e+00 -2.4711706538e+00 1.4267310422e+00 2.4711706538e+00 
62600 5.5132999513e+00 -1.1520338577e-04 1.4267351137e+00 -2.4711777058e+00 1.4267351137e+00 2.4711777058e+00 
62700 5.5132999466e+00 -1.1423466694e-04 1.4267391510e+00 -2.4711846987e+00 1.4267391510e+00 2.4711846987e+00 
62800 5.5132999421e+00 -1.1327218919e-04 1.4267431543e+00 -2.4711916327e+00 1.4267431543e+00 2.4711916327e+00 
62900 5.5132999377e+00 -1.1231595788e-04 1.4267471239e+00 -2.4711985082e+00 1.4267471239e+00 2.4711985082e+00 
63000 5.5132999334e+00 -1.1136597725e-04 1.4267510600e+00 -2.4712053257e+00 1.4267510600e+00 2.4712053257e+00 
63100 5.5132999291e+00 -1.1042225044e-04 1.4267549628e+00 -2.4712120855e+00 1.4267549628e+00 2.4712120855e+00 
63200 5.5132999250e+00 -1.0948477948e-04 1.4267588325e+00 -2.4712187881e+00 1.4267588325e+00 2.4712187881e+00 
63300 5.5132999210e+00 -1.0855356535e-04 1.4267626694e+00 -2.4712254337e+00 1.4267626694e+00 2.4712254337e+00 
63400 5.5132999172e+00 -1.0762860798e-04 1.4267664735e+00 -2.4712320227e+00 1.4267664735e+00 2.4712320227e+00 
63500 5.5132999134e+00 -1.0670990624e-04 1.4267702453e+00 -2.4712385556e+00 1.4267702453e+00 2.4712385556e+00 
63600 5.5132999097e+00 -1.0579745803e-04 1.4267739849e+00 -2.4712450327e+00 1.4267739849e+00 2.4712450327e+00 
63700 5.5132999061e+00 -1.0489126022e-04 1.4267776925e+00 -2.4712514544e+00 1.4267776925e+00 2.4712514544e+00 
63800 5.5132999026e+00 -1.0399130873e-04 1.4267813683e+00 -2.4712578211e+00 1.4267813683e+00 2.4712578211e+00 
63900 5.5132998992e+00 -1.0309759851e-04 1.4267850125e+00 -2.4712641332e+00 1.4267850125e+00 2.4712641332e+00 
64000 5.5132998959e+00 -1.0221012358e-04 1.4267886255e+00 -2.4712703910e+00 1.4267886255e+00 2.4712703910e+00 
64100 5.5132998926e+00 -1.0132887704e-04 1.4267922073e+00 -2.4712765949e+00 1.4267922073e+00 2.4712765949e+00 
64200 5.5132998895e+00 -1.0045385108e-04 1.4267957582e+00 -2.4712827453e+00 1.4267957582e+00 2.4712827453e+00 
64300 5.5132998865e+00 -9.9585037038e-05 1.4267992785e+00 -2.4712888425e+00 1.4267992785e+00 2.4712888425e+00 
64400 5.5132998835e+00 -9.8722425367e-05 1.4268027683e+00 -2.4712948871e+00 1.4268027683e+00 2.4712948871e+00 
64500 5.5132998806e+00 -9.7866005686e-05 1.4268062279e+00 -2.4713008792e+00 1.4268062279e+00 2.4713008792e+00 
64600 5.5132998778e+00 -9.7015766789e-05 1.4268096574e+00 -2.4713068194e+00 1.4268096574e+00 2.4713068194e+00 
64700 5.5132998751e+00 -9.6171696669e-05 1.4268130572e+00 -2.4713127079e+00 1.4268130572e+00 2.4713127079e+00 
64800 5.5132998724e+00 -9.5333782528e-05 1.4268164273e+00 -2.4713185452e+00 1.4268164273e+00 2.4713185452e+00 
64900 5.5132998699e+00 -9.4502010805e-05 1.4268197681e+00 -2.4713243316e+00 1.4268197681e+00 2.4713243316e+00 
65000 5.5132998674e+00 -9.3676367184e-05 1.4268230797e+00 -2.4713300675e+00 1.4268230797e+00 2.4713300675e+00 
65100 5.5132998649e+00 -9.2856836625e-05 1.4268263624e+00 -2.4713357533e+00 1.4268263624e+00 2.4713357533e+00 
65200 5.5132998626e+00 -9.2043403370e-05 1.4268296164e+00 -2.4713413893e+00 1.4268296164e+00 2.4713413893e+00 
65300 5.5132998603e+00 -9.1236050967e-05 1.4268328418e+00 -2.4713469760e+00 1.4268328418e+00 2.4713469760e+00 
65400 5.5132998581e+00 -9.0434762287e-05 1.4268360390e+00 -2.4713525136e+00 1.4268360390e+00 2.4713525136e+00 
65500 5.5132998559e+00 -8.9639519544e-05 1.4268392081e+00 -2.4713580026e+00 1.4268392081e+00 2.4713580026e+00 
65600 5.5132998538e+00 -8.8850304310e-05 1.4268423493e+00 -2.4713634433e+00 1.4268423493e+00 2.4713634433e+00 
65700 5.5132998518e+00 -8.8067097529e-05 1.4268454628e+00 -2.4713688361e+00 1.4268454628e+00 2.4713688361e+00 
65800 5.5132998498e+00 -8.7289879539e-05 1.4268485489e+00 -2.4713741813e+00 1.4268485489e+00 2.4713741813e+00 
65900 5.5132998479e+00 -8.6518630093e-05 1.4268516077e+00 -2.4713794794e+00 1.4268516077e+00 2.4713794794e+00 
66000 5.5132998461e+00 -8.5753328365e-05 1.4268546395e+00 -2.4713847306e+00 1.4268546395e+00 2.4713847306e+00 
66100 5.5132998443e+00 -8.4993952976e-05 1.4268576445e+00 -2.4713899354e+00 1.4268576445e+00 2.4713899354e+00 
66200 5.5132998426e+00 -8.4240482006e-05 1.4268606229e+00 -2.4713950941e+00 1.4268606229e+00 2.4713950941e+00 
66300 5.5132998409e+00 -8.3492893011e-05 1.4268635748e+00 -2.4714002070e+00 1.4268635748e+00 2.4714002070e+00 
66400 5.5132998393e+00 -8.2751163043e-05 1.4268665006e+00 -2.4714052746e+00 1.4268665006e+00 2.4714052746e+00 
66500 5.5132998377e+00 -8.2015268661e-05 1.4268694003e+00 -2.4714102971e+00 1.4268694003e+00 2.4714102971e+00 
66600 5.5132998362e+00 -8.1285185946e-05 1.4268722743e+00 -2.4714152749e+00 1.4268722743e+00 2.4714152749e+00 
66700 5.5132998347e+00 -8.0560890522e-05 1.4268751226e+00 -2.4714202085e+00 1.4268751226e+00 2.4714202085e+00 
66800 5.5132998333e+00 -7.9842357571e-05 1.4268779456e+00 -2.4714250980e+00 1.4268779456e+00 2.4714250980e+00 
66900 5.5132998319e+00 -7.9129561839e-05 1.4268807434e+00 -2.4714299439e+00 1.4268807434e+00 2.4714299439e+00 
67000 5.5132998306e+00 -7.8422477664e-05 1.4268835162e+00 -2.4714347466e+00 1.4268835162e+00 2.4714347466e+00 
67100 5.5132998294e+00 -7.7721078983e-05 1.4268862643e+00 -2.4714395063e+00 1.4268862643e+00 2.4714395063e+00 
67200 5.5132998281e+00 -7.7025339347e-05 1.4268889877e+00 -2.4714442235e+00 1.4268889877e+00 2.4714442235e+00 
67300 5.5132998269e+00 -7.6335231935e-05 1.4268916868e+00 -2.4714488984e+00 1.4268916868e+00 2.4714488984e+00 
67400 5.5132998258e+00 -7.5650729575e-05 1.4268943617e+00 -2.4714535314e+00 1.4268943617e+00 2.4714535314e+00 
67500 5.5132998247e+00 -7.4971804746e-05 1.4268970126e+00 -2.4714581229e+00 1.4268970126e+00 2.4714581229e+00 
67600 5.5132998236e+00 -7.4298429603e-05 1.4268996397e+00 -2.4714626732e+00 1.4268996397e+00 2.4714626732e+00 
67700 5.5132998226e+00 -7.3630575983e-05 1.4269022431e+00 -2.4714671826e+00 1.4269022431e+00 2.4714671826e+00 
67800 5.5132998216e+00 -7.2968215423e-05 1.4269048232e+00 -2.4714716514e+00 1.4269048232e+00 2.4714716514e+00 
67900 5.5132998207e+00 -7.2311319169e-05 1.4269073801e+00 -2.4714760800e+00 1.4269073801e+00 2.4714760800e+00 
68000 5.5132998198e+00 -7.1659858191e-05 1.4269099139e+00 -2.4714804688e+00 1.4269099139e+00 2.4714804688e+00 
68100 5.5132998189e+00 -7.1013803197e-05 1.4269124250e+00 -2.4714848180e+00 1.4269124250e+00 2.4714848180e+00 
68200 5.5132998181e+00 -7.0373124644e-05 1.4269149133e+00 -2.4714891280e+00 1.4269149133e+00 2.4714891280e+00 
68300 5.5132998175e+00 -7.1630608371e-05 1.4269149133e+00 -2.4714891280e+00 1.4269149133e+00 2.4714891280e+00 
68400 5.5132998168e+00 -7.0954272633e-05 1.4269174233e+00 -2.4714934754e+00 1.4269174233e+00 2.4714934754e+00 
68500 5.5132998160e+00 -7.0284186356e-05 1.4269199096e+00 -2.4714977818e+00 1.4269199096e+00 2.4714977818e+00 
68600 5.5132998156e+00 -7.1510784464e-05 1.4269199096e+00 -2.4714977818e+00 1.4269199096e+00 2.4714977818e+00 
68700 5.5132998149e+00 -7.0806809661e-05 1.4269224154e+00 -2.4715021219e+00 1.4269224154e+00 2.4715021219e+00 
68800 5.5132998143e+00 -7.0109922419e-05 1.4269248965e+00 -2.4715064193e+00 1.4269248965e+00 2.4715064193e+00 
68900 5.5132998139e+00 -7.1305908058e-05 1.4269248965e+00 -2.4715064193e+00 1.4269248965e+00 2.4715064193e+00 
69000 5.5132998133e+00 -7.0576882692e-05 1.4269273951e+00 -2.4715107470e+00 1.4269273951e+00 2.4715107470e+00 
69100 5.5132998130e+00 -7.1754176673e-05 1.4269273951e+00 -2.4715107470e+00 1.4269273951e+00 2.4715107470e+00 
69200 5.5132998124e+00 -7.0994392328e-05 1.4269299094e+00 -2.4715151018e+00 1.4269299094e+00 2.4715151018e+00 
69300 5.5132998119e+00 -7.0243325474e-05 1.4269323970e+00 -2.4715194106e+00 1.4269323970e+00 2.4715194106e+00 
69400 5.5132998117e+00 -7.1390405797e-05 1.4269323970e+00 -2.4715194106e+00 1.4269323970e+00 2.4715194106e+00 
69500 5.5132998112e+00 -7.0610287973e-05 1.4269348986e+00 -2.4715237434e+00 1.4269348986e+00 2.4715237434e+00 
69600 5.5132998110e+00 -7.1739020197e-05 1.4269348986e+00 -2.4715237434e+00 1.4269348986e+00 2.4715237434e+00 
69700 5.5132998106e+00 -7.0931190960e-05 1.4269374123e+00 -2.4715280973e+00 1.4269374123e+00 2.4715280973e+00 
69800 5.5132998102e+00 -7.0133575099e-05 1.4269398977e+00 -2.4715324022e+00 1.4269398977e+00 2.4715324022e+00 
69900 5.5132998101e+00 -7.1232699185e-05 1.4269398977e+00 -2.4715324022e+00 1.4269398977e+00 2.4715324022e+00 
70000 5.5132998097e+00 -7.0409006111e-05 1.4269423937e+00 -2.4715367254e+00 1.4269423937e+00 2.4715367254e+00 
70100 5.5132998097e+00 -7.1490233494e-05 1.4269423937e+00 -2.4715367254e+00 1.4269423937e+00 2.4715367254e+00 
70200 5.5132998093e+00 -7.0641745793e-05 1.4269448987e+00 -2.4715410642e+00 1.4269448987e+00 2.4715410642e+00 
70300 5.5132998093e+00 -7.1705187385e-05 1.4269448987e+00 -2.4715410642e+00 1.4269448987e+00 2.4715410642e+00 
70400 5.5132998090e+00 -7.0833170134e-05 1.4269474113e+00 -2.4715454161e+00 1.4269474113e+00 2.4715454161e+00 
70500 5.5132998088e+00 -6.9973408164e-05 1.4269498933e+00 -2.4715497150e+00 1.4269498933e+00 2.4715497150e+00 
70600 5.5132998088e+00 -7.1008179660e-05 1.4269498933e+00 -2.4715497150e+00 1.4269498933e+00 2.4715497150e+00 
70700 5.5132998086e+00 -7.0126396480e-05 1.4269523814e+00 -2.4715540245e+00 1.4269523814e+00 2.4715540245e+00 
70800 5.5132998086e+00 -7.1143944920e-05 1.4269523814e+00 -2.4715540245e+00 1.4269523814e+00 2.4715540245e+00 
70900 5.5132998084e+00 -7.0241331744e-05 1.4269548742e+00 -2.4715583423e+00 1.4269548742e+00 2.4715583423e+00 
71000 5.5132998085e+00 -7.1241800466e-05 1.4269548742e+00 -2.4715583423e+00 1.4269548742e+00 2.4715583423e+00 
71100 5.5132998083e+00 -7.0319526449e-05 1.4269573705e+00 -2.4715626660e+00 1.4269573705e+00 2.4715626660e+00 
71200 5.5132998084e+00 -7.1303071479e-05 1.4269573705e+00 -2.4715626660e+00 1.4269573705e+00 2.4715626660e+00 
71300 5.5132998083e+00 -7.0362281870e-05 1.4269598690e+00 -2.4715669934e+00 1.4269598690e+00 2.4715669934e+00 
71400 5.5132998084e+00 -7.1329069948e-05 1.4269598690e+00 -2.4715669934e+00 1.4269598690e+00 2.4715669934e+00 
71500 5.5132998083e+00 -7.0370884588e-05 1.4269623683e+00 -2.4715713224e+00 1.4269623683e+00 2.4715713224e+00 
71600 5.5132998085e+00 -7.1321091442e-05 1.4269623683e+00 -2.4715713224e+00 1.4269623683e+00 2.4715713224e+00 
71700 5.5132998084e+00 -7.0346603591e-05 1.4269648674e+00 -2.4715756509e+00 1.4269648674e+00 2.4715756509e+00 
71800 5.5132998086e+00 -7.1280412422e-05 1.4269648674e+00 -2.4715756509e+00 1.4269648674e+00 2.4715756509e+00 
71900 5.5132998085e+00 -7.0290687852e-05 1.4269673650e+00 -2.4715799769e+00 1.4269673650e+00 2.4715799769e+00 
72000 5.5132998087e+00 -7.1208288014e-05 1.4269673650e+00 -2.4715799769e+00 1.4269673650e+00 2.4715799769e+00 
72100 5.5132998087e+00 -7.0204364344e-05 1.4269698601e+00 -2.4715842985e+00 1.4269698601e+00 2.4715842985e+00 
72200 5.5132998089e+00 -7.1105950189e-05 1.4269698601e+00 -2.4715842985e+00 1.4269698601e+00 2.4715842985e+00 
72300 5.5132998089e+00 -7.0088836430e-05 1.4269723516e+00 -2.4715886139e+00 1.4269723516e+00 2.4715886139e+00 
72400 5.5132998092e+00 -7.0974606315e-05 1.4269723516e+00 -2.4715886139e+00 1.4269723516e+00 2.4715886139e+00 
72500 5.5132998092e+00 -6.9945282599e-05 1.4269748385e+00 -2.4715929214e+00 1.4269748385e+00 2.4715929214e+00 
72600 5.5132998094e+00 -7.0815438010e-05 1.4269748385e+00 -2.4715929214e+00 1.4269748385e+00 2.4715929214e+00 
72700 5.5132998095e+00 -6.9774855473e-05 1.4269773198e+00 -2.4715972191e+00 1.4269773198e+00 2.4715972191e+00 
72800 5.5132998097e+00 -7.0629600280e-05 1.4269773198e+00 -2.4715972191e+00 1.4269773198e+00 2.4715972191e+00 
72900 5.5132998100e+00 -7.1479065003e-05 1.4269773198e+00 -2.4715972191e+00 1.4269773198e+00 2.4715972191e+00 
73000 5.5132998101e+00 -7.0399960128e-05 1.4269798243e+00 -2.4716015571e+00 1.4269798243e+00 2.4716015571e+00 
73100 5.5132998104e+00 -7.1234101469e-05 1.4269798243e+00 -2.4716015571e+00 1.4269798243e+00 2.4716015571e+00 
73200 5.5132998105e+00 -7.0146349188e-05 1.4269823203e+00 -2.4716058803e+00 1.4269823203e+00 2.4716058803e+00 
73300 5.5132998108e+00 -7.0965396473e-05 1.4269823203e+00 -2.4716058803e+00 1.4269823203e+00 2.4716058803e+00 
73400 5.5132998109e+00 -6.9869863806e-05 1.4269848069e+00 -2.4716101871e+00 1.4269848069e+00 2.4716101871e+00 
73500 5.5132998112e+00 -7.0674044346e-05 1.4269848069e+00 -2.4716101871e+00 1.4269848069e+00 2.4716101871e+00 
73600 5.5132998115e+00 -7.1473226338e-05 1.4269848069e+00 -2.4716101871e+00 1.4269848069e+00 2.4716101871e+00 
73700 5.5132998116e+00 -7.0344200370e-05 1.4269873112e+00 -2.4716145248e+00 1.4269873112e+00 2.4716145248e+00 
73800 5.5132998120e+00 -7.1128630763e-05 1.4269873112e+00 -2.4716145248e+00 1.4269873112e+00 2.4716145248e+00 
73900 5.5132998121e+00 -6.9994216642e-05 1.4269898035e+00 -2.4716188415e+00 1.4269898035e+00 2.4716188415e+00 
74000 5.5132998125e+00 -7.0764139489e-05 1.4269898035e+00 -2.4716188415e+00 1.4269898035e+00 2.4716188415e+00 
74100 5.5132998126e+00 -6.9625114206e-05 1.4269922830e+00 -2.4716231361e+00 1.4269922830e+00 2.4716231361e+00 
74200 5.5132998130e+00 -7.0380768806e-05 1.4269922830e+00 -2.4716231361e+00 1.4269922830e+00 2.4716231361e+00 
74300 5.5132998133e+00 -7.1131718582e-05 1.4269922830e+00 -2.4716231361e+00 1.4269922830e+00 2.4716231361e+00 
74400 5.5132998135e+00 -6.9963871421e-05 1.4269947753e+00 -2.4716274530e+00 1.4269947753e+00 2.4716274530e+00 
74500 5.5132998138e+00 -7.0700682601e-05 1.4269947753e+00 -2.4716274530e+00 1.4269947753e+00 2.4716274530e+00 
74600 5.5132998142e+00 -7.1432870729e-05 1.4269947753e+00 -2.4716274530e+00 1.4269947753e+00 2.4716274530e+00 
74700 5.5132998144e+00 -7.0238210539e-05 1.4269972783e+00 -2.4716317882e+00 1.4269972783e+00 2.4716317882e+00 
74800 5.5132998148e+00 -7.0956411519e-05 1.4269972783e+00 -2.4716317882e+00 1.4269972783e+00 2.4716317882e+00 
74900 5.5132998149e+00 -6.9760684700e-05 1.4269997645e+00 -2.4716360945e+00 1.4269997645e+00 2.4716360945e+00 
75000 5.5132998153e+00 -7.0465161833e-05 1.4269997645e+00 -2.4716360945e+00 1.4269997645e+00 2.4716360945e+00 
75100 5.5132998157e+00 -7.1165217551e-05 1.4269997645e+00 -2.4716360945e+00 1.4269997645e+00 2.4716360945e+00 
75200 5.5132998159e+00 -6.9945781418e-05 1.4270022580e+00 -2.4716404134e+00 1.4270022580e+00 2.4716404134e+00 
75300 5.5132998163e+00 -7.0632271816e-05 1.4270022580e+00 -2.4716404134e+00 1.4270022580e+00 2.4716404134e+00 
75400 5.5132998167e+00 -7.1314430095e-05 1.4270022580e+00 -2.4716404134e+00 1.4270022580e+00 2.4716404134e+00 
75500 5.5132998169e+00 -7.0073143083e-05 1.4270047568e+00 -2.4716447413e+00 1.4270047568e+00 2.4716447413e+00 
75600 5.5132998173e+00 -7.0741910015e-05 1.4270047568e+00 -2.4716447413e+00 1.4270047568e+00 2.4716447413e+00 
75700 5.5132998175e+00 -6.9502742502e-05 1.4270072354e+00 -2.4716490345e+00 1.4270072354e+00 2.4716490345e+00 
75800 5.5132998179e+00 -7.0158393058e-05 1.4270072354e+00 -2.4716490345e+00 1.4270072354e+00 2.4716490345e+00 
75900 5.5132998183e+00 -7.0809919920e-05 1.4270072354e+00 -2.4716490345e+00 1.4270072354e+00 2.4716490345e+00 
76000 5.5132998185e+00 -6.9551742660e-05 1.4270097165e+00 -2.4716533319e+00 1.4270097165e+00 2.4716533319e+00 
76100 5.5132998190e+00 -7.0190326101e-05 1.4270097165e+00 -2.4716533319e+00 1.4270097165e+00 2.4716533319e+00 
76200 5.5132998194e+00 -7.0824876732e-05 1.4270097165e+00 -2.4716533319e+00 1.4270097165e+00 2.4716533319e+00 
76300 5.5132998196e+00 -6.9549386528e-05 1.4270121981e+00 -2.4716576301e+00 1.4270121981e+00 2.4716576301e+00 
76400 5.5132998200e+00 -7.0171178401e-05 1.4270121981e+00 -2.4716576301e+00 1.4270121981e+00 2.4716576301e+00 
76500 5.5132998204e+00 -7.0789031827e-05 1.4270121981e+00 -2.4716576301e+00 1.4270121981e+00 2.4716576301e+00 
76600 5.5132998206e+00 -6.9497878950e-05 1.4270146784e+00 -2.4716619262e+00 1.4270146784e+00 2.4716619262e+00 
76700 5.5132998211e+00 -7.0103167603e-05 1.4270146784e+00 -2.4716619262e+00 1.4270146784e+00 2.4716619262e+00 
76800 5.5132998215e+00 -7.0704614639e-05 1.4270146784e+00 -2.4716619262e+00 1.4270146784e+00 2.4716619262e+00 
76900 5.5132998219e+00 -7.1302196605e-05 1.4270146784e+00 -2.4716619262e+00 1.4270146784e+00 2.4716619262e+00 
77000 5.5132998221e+00 -6.9977003769e-05 1.4270171767e+00 -2.4716662533e+00 1.4270171767e+00 2.4716662533e+00 
77100 5.5132998225e+00 -7.0562145896e-05 1.4270171767e+00 -2.4716662533e+00 1.4270171767e+00 2.4716662533e+00 
77200 5.5132998230e+00 -7.1143531777e-05 1.4270171767e+00 -2.4716662533e+00 1.4270171767e+00 2.4716662533e+00 
77300 5.5132998232e+00 -6.9806498169e-05 1.4270196694e+00 -2.4716705709e+00 1.4270196694e+00 2.4716705709e+00 
77400 5.5132998236e+00 -7.0375671841e-05 1.4270196694e+00 -2.4716705709e+00 1.4270196694e+00 2.4716705709e+00 
77500 5.5132998240e+00 -7.0941197136e-05 1.4270196694e+00 -2.4716705709e+00 1.4270196694e+00 2.4716705709e+00 
77600 5.5132998242e+00 -6.9593833464e-05 1.4270221551e+00 -2.4716748761e+00 1.4270221551e+00 2.4716748761e+00 
77700 5.5132998247e+00 -7.0147374970e-05 1.4270221551e+00 -2.4716748761e+00 1.4270221551e+00 2.4716748761e+00 
77800 5.5132998251e+00 -7.0697374785e-05 1.4270221551e+00 -2.4716748761e+00 1.4270221551e+00 2.4716748761e+00 
77900 5.5132998255e+00 -7.1243812025e-05 1.4270221551e+00 -2.4716748761e+00 1.4270221551e+00 2.4716748761e+00 
78000 5.5132998257e+00 -6.9869272793e-05 1.4270246513e+00 -2.4716791998e+00 1.4270246513e+00 2.4716791998e+00 
78100 5.5132998262e+00 -7.0403886186e-05 1.4270246513e+00 -2.4716791998e+00 1.4270246513e+00 2.4716791998e+00 
78200 5.5132998266e+00 -7.0935051812e-05 1.4270246513e+00 -2.4716791998e+00 1.4270246513e+00 2.4716791998e+00 
78300 5.5132998268e+00 -6.9553644123e-05 1.4270271368e+00 -2.4716835046e+00 1.4270271368e+00 2.4716835046e+00 
78400 5.5132998272e+00 -7.0073233228e-05 1.4270271368e+00 -2.4716835046e+00 1.4270271368e+00 2.4716835046e+00 
78500 5.5132998276e+00 -7.0589486132e-05 1.4270271368e+00 -2.4716835046e+00 1.4270271368e+00 2.4716835046e+00 
78600 5.5132998281e+00 -7.1102383249e-05 1.4270271368e+00 -2.4716835046e+00 1.4270271368e+00 2.4716835046e+00 
78700 5.5132998283e+00 -6.9698268323e-05 1.4270296280e+00 -2.4716878197e+00 1.4270296280e+00 2.4716878197e+00 
78800 5.5132998287e+00 -7.0199768050e-05 1.4270296280e+00 -2.4716878197e+00 1.4270296280e+00 2.4716878197e+00 
78900 5.5132998291e+00 -7.0698029483e-05 1.4270296280e+00 -2.4716878197e+00 1.4270296280e+00 2.4716878197e+00 
79000 5.5132998295e+00 -7.1193034572e-05 1.4270296280e+00 -2.4716878197e+00 1.4270296280e+00 2.4716878197e+00 
79100 5.5132998297e+00 -6.9768660777e-05 1.4270321225e+00 -2.4716921402e+00 1.4270321225e+00 2.4716921402e+00 
79200 5.5132998301e+00 -7.0252465722e-05 1.4270321225e+00 -2.4716921402e+00 1.4270321225e+00 2.4716921402e+00 
79300 5.5132998306e+00 -7.0733135838e-05 1.4270321225e+00 -2.4716921402e+00 1.4270321225e+00 2.4716921402e+00 
79400 5.5132998307e+00 -6.9306907120e-05 1.4270346008e+00 -2.4716964328e+00 1.4270346008e+00 2.4716964328e+00 
79500 5.5132998312e+00 -6.9776645460e-05 1.4270346008e+00 -2.4716964328e+00 1.4270346008e+00 2.4716964328e+00 
79600 5.5132998316e+00 -7.0243364791e-05 1.4270346008e+00 -2.4716964328e+00 1.4270346008e+00 2.4716964328e+00 
79700 5.5132998320e+00 -7.0707046734e-05 1.4270346008e+00 -2.4716964328e+00 1.4270346008e+00 2.4716964328e+00 
79800 5.5132998324e+00 -7.1167675503e-05 1.4270346008e+00 -2.4716964328e+00 1.4270346008e+00 2.4716964328e+00 
79900 5.5132998326e+00 -6.9709761147e-05 1.4270370944e+00 -2.4717007517e+00 1.4270370944e+00 2.4717007517e+00 
80000 5.5132998330e+00 -7.0159604085e-05 1.4270370944e+00 -2.4717007517e+00 1.4270370944e+00 2.4717007517e+00 
80100 5.5132998334e+00 -7.0606520840e-05 1.4270370944e+00 -2.4717007517e+00 1.4270370944e+00 2.4717007517e+00 
80200 5.5132998338e+00 -7.1050495879e-05 1.4270370944e+00 -2.4717007517e+00 1.4270370944e+00 2.4717007517e+00 
80300 5.5132998340e+00 -6.9579169256e-05 1.4270395838e+00 -2.4717050636e+00 1.4270395838e+00 2.4717050636e+00 
80400 5.5132998344e+00 -7.0012589711e-05 1.4270395838e+00 -2.4717050636e+00 1.4270395838e+00 2.4717050636e+00 
80500 5.5132998348e+00 -7.0443195588e-05 1.4270395838e+00 -2.4717050636e+00 1.4270395838e+00 2.4717050636e+00 
80600 5.5132998352e+00 -7.0870971419e-05 1.4270395838e+00 -2.4717050636e+00 1.4270395838e+00 2.4717050636e+00 
80700 5.5132998353e+00 -6.9388366362e-05 1.4270420669e+00 -2.4717093645e+00 1.4270420669e+00 2.4717093645e+00 
80800 5.5132998357e+00 -6.9805822822e-05 1.4270420669e+00 -2.4717093645e+00 1.4270420669e+00 2.4717093645e+00 
80900 5.5132998361e+00 -7.0220575893e-05 1.4270420669e+00 -2.4717093645e+00 1.4270420669e+00 2.4717093645e+00 
81000 5.5132998365e+00 -7.0632610033e-05 1.4270420669e+00 -2.4717093645e+00 1.4270420669e+00 2.4717093645e+00 
81100 5.5132998369e+00 -7.1041911998e-05 1.4270420669e+00 -2.4717093645e+00 1.4270420669e+00 2.4717093645e+00 
81200 5.5132998371e+00 -6.9536302650e-05 1.4270445561e+00 -2.4717136758e+00 1.4270445561e+00 2.4717136758e+00 
81300 5.5132998374e+00 -6.9935476005e-05 1.4270445561e+00 -2.4717136758e+00 1.4270445561e+00 2.4717136758e+00 
81400 5.5132998378e+00 -7.0332049842e-05 1.4270445561e+00 -2.4717136758e+00 1.4270445561e+00 2.4717136758e+00 
81500 5.5132998382e+00 -7.0726010159e-05 1.4270445561e+00 -2.4717136758e+00 1.4270445561e+00 2.4717136758e+00 
81600 5.5132998383e+00 -6.9213659534e-05 1.4270470341e+00 -2.4717179679e+00 1.4270470341e+00 2.4717179679e+00 
81700 5.5132998387e+00 -6.9597747026e-05 1.4270470341e+00 -2.4717179679e+00 1.4270470341e+00 2.4717179679e+00 
81800 5.5132998391e+00 -6.9979350688e-05 1.4270470341e+00 -2.4717179679e+00 1.4270470341e+00 2.4717179679e+00 
81900 5.5132998395e+00 -7.0358455819e-05 1.4270470341e+00 -2.4717179679e+00 1.4270470341e+00 2.4717179679e+00 
82000 5.5132998399e+00 -7.0735049882e-05 1.4270470341e+00 -2.4717179679e+00 1.4270470341e+00 2.4717179679e+00 
82100 5.5132998400e+00 -6.9205167162e-05 1.4270495125e+00 -2.4717222606e+00 1.4270495125e+00 2.4717222606e+00 
82200 5.5132998403e+00 -6.9572096764e-05 1.4270495125e+00 -2.4717222606e+00 1.4270495125e+00 2.4717222606e+00 
82300 5.5132998407e+00 -6.9936648617e-05 1.4270495125e+00 -2.4717222606e+00 1.4270495125e+00 2.4717222606e+00 
82400 5.5132998411e+00 -7.0298808990e-05 1.4270495125e+00 -2.4717222606e+00 1.4270495125e+00 2.4717222606e+00 
82500 5.5132998414e+00 -7.0658566212e-05 1.4270495125e+00 -2.4717222606e+00 1.4270495125e+00 2.4717222606e+00 
82600 5.5132998418e+00 -7.1015910533e-05 1.4270495125e+00 -2.4717222606e+00 1.4270495125e+00 2.4717222606e+00 
82700 5.5132998419e+00 -6.9459287516e-05 1.4270520007e+00 -2.4717265703e+00 1.4270520007e+00 2.4717265703e+00 
82800 5.5132998423e+00 -6.9807153090e-05 1.4270520007e+00 -2.4717265703e+00 1.4270520007e+00 2.4717265703e+00 
82900 5.5132998426e+00 -7.0152746764e-05 1.4270520007e+00 -2.4717265703e+00 1.4270520007e+00 2.4717265703e+00 
83000 5.5132998430e+00 -7.0496056736e-05 1.4270520007e+00 -2.4717265703e+00 1.4270520007e+00 2.4717265703e+00 
83100 5.5132998433e+00 -7.0837073089e-05 1.4270520007e+00 -2.4717265703e+00 1.4270520007e+00 2.4717265703e+00 
83200 5.5132998434e+00 -6.9269032001e-05 1.4270544827e+00 -2.4717308691e+00 1.4270544827e+00 2.4717308691e+00 
83300 5.5132998438e+00 -6.9600819328e-05 1.4270544827e+00 -2.4717308691e+00 1.4270544827e+00 2.4717308691e+00 
83400 5.5132998441e+00 -6.9930452895e-05 1.4270544827e+00 -2.4717308691e+00 1.4270544827e+00 2.4717308691e+00 
83500 5.5132998444e+00 -7.0257920618e-05 1.4270544827e+00 -2.4717308691e+00 1.4270544827e+00 2.4717308691e+00 
83600 5.5132998448e+00 -7.0583212263e-05 1.4270544827e+00 -2.4717308691e+00 1.4270544827e+00 2.4717308691e+00 
83700 5.5132998451e+00 -7.0906319328e-05 1.4270544827e+00 -2.4717308691e+00 1.4270544827e+00 2.4717308691e+00 
83800 5.5132998452e+00 -6.9318587746e-05 1.4270569670e+00 -2.4717351722e+00 1.4270569670e+00 2.4717351722e+00 
83900 5.5132998455e+00 -6.9632683230e-05 1.4270569670e+00 -2.4717351722e+00 1.4270569670e+00 2.4717351722e+00 
84000 5.5132998459e+00 -6.9944737568e-05 1.4270569670e+00 -2.4717351722e+00 1.4270569670e+00 2.4717351722e+00 
84100 5.5132998462e+00 -7.0254739571e-05 1.4270569670e+00 -2.4717351722e+00 1.4270569670e+00 2.4717351722e+00 
84200 5.5132998465e+00 -7.0562679788e-05 1.4270569670e+00 -2.4717351722e+00 1.4270569670e+00 2.4717351722e+00 
84300 5.5132998468e+00 -7.0868550396e-05 1.4270569670e+00 -2.4717351722e+00 1.4270569670e+00 2.4717351722e+00 
84400 5.5132998469e+00 -6.9264688925e-05 1.4270594501e+00 -2.4717394729e+00 1.4270594501e+00 2.4717394729e+00 
84500 5.5132998472e+00 -6.9561782187e-05 1.4270594501e+00 -2.4717394729e+00 1.4270594501e+00 2.4717394729e+00 
84600 5.5132998475e+00 -6.9856950662e-05 1.4270594501e+00 -2.4717394729e+00 1.4270594501e+00 2.4717394729e+00 
84700 5.5132998479e+00 -7.0150183495e-05 1.4270594501e+00 -2.4717394729e+00 1.4270594501e+00 2.4717394729e+00 
84800 5.5132998482e+00 -7.0441471495e-05 1.4270594501e+00 -2.4717394729e+00 1.4270594501e+00 2.4717394729e+00 
84900 5.5132998485e+00 -7.0730807030e-05 1.4270594501e+00 -2.4717394729e+00 1.4270594501e+00 2.4717394729e+00 
85000 5.5132998485e+00 -6.9114211770e-05 1.4270619283e+00 -2.4717437653e+00 1.4270619283e+00 2.4717437653e+00 
85100 5.5132998488e+00 -6.9395013703e-05 1.4270619283e+00 -2.4717437653e+00 1.4270619283e+00 2.4717437653e+00 
85200 5.5132998491e+00 -6.9674007872e-05 1.4270619283e+00 -2.4717437653e+00 1.4270619283e+00 2.4717437653e+00 
85300 5.5132998494e+00 -6.9951183394e-05 1.4270619283e+00 -2.4717437653e+00 1.4270619283e+00 2.4717437653e+00 
85400 5.5132998497e+00 -7.0226531000e-05 1.4270619283e+00 -2.4717437653e+00 1.4270619283e+00 2.4717437653e+00 
85500 5.5132998500e+00 -7.0500042936e-05 1.4270619283e+00 -2.4717437653e+00 1.4270619283e+00 2.4717437653e+00 
85600 5.5132998503e+00 -7.0771712860e-05 1.4270619283e+00 -2.4717437653e+00 1.4270619283e+00 2.4717437653e+00 
85700 5.5132998504e+00 -6.9136435330e-05 1.4270644079e+00 -2.4717480601e+00 1.4270644079e+00 2.4717480601e+00 
85800 5.5132998506e+00 -6.9399793392e-05 1.4270644079e+00 -2.4717480601e+00 1.4270644079e+00 2.4717480601e+00 
85900 5.5132998509e+00 -6.9661457293e-05 1.4270644079e+00 -2.4717480601e+00 1.4270644079e+00 2.4717480601e+00 
86000 5.5132998512e+00 -6.9921416930e-05 1.4270644079e+00 -2.4717480601e+00 1.4270644079e+00 2.4717480601e+00 
86100 5.5132998515e+00 -7.0179663712e-05 1.4270644079e+00 -2.4717480601e+00 1.4270644079e+00 2.4717480601e+00 
86200 5.5132998518e+00 -7.0436190462e-05 1.4270644079e+00 -2.4717480601e+00 1.4270644079e+00 2.4717480601e+00 
86300 5.5132998520e+00 -7.0690991318e-05 1.4270644079e+00 -2.4717480601e+00 1.4270644079e+00 2.4717480601e+00 
86400 5.5132998523e+00 -7.0944061648e-05 1.4270644079e+00 -2.4717480601e+00 1.4270644079e+00 2.4717480601e+00 
86500 5.5132998523e+00 -6.9285628448e-05 1.4270668935e+00 -2.4717523654e+00 1.4270668935e+00 2.4717523654e+00 
86600 5.5132998526e+00 -6.9530603324e-05 1.4270668935e+00 -2.4717523654e+00 1.4270668935e+00 2.4717523654e+00 
86700 5.5132998529e+00 -6.9774000059e-05 1.4270668935e+00 -2.4717523654e+00 1.4270668935e+00 2.4717523654e+00 
86800 5.5132998532e+00 -7.0015809622e-05 1.4270668935e+00 -2.4717523654e+00 1.4270668935e+00 2.4717523654e+00 
86900 5.5132998534e+00 -7.0256024361e-05 1.4270668935e+00 -2.4717523654e+00 1.4270668935e+00 2.4717523654e+00 
87000 5.5132998537e+00 -7.0494637915e-05 1.4270668935e+00 -2.4717523654e+00 1.4270668935e+00 2.4717523654e+00 
87100 5.5132998539e+00 -7.0731645125e-05 1.4270668935e+00 -2.4717523654e+00 1.4270668935e+00 2.4717523654e+00 
87200 5.5132998539e+00 -6.9062968020e-05 1.4270693718e+00 -2.4717566578e+00 1.4270693718e+00 2.4717566578e+00 
87300 5.5132998542e+00 -6.9292140457e-05 1.4270693718e+00 -2.4717566578e+00 1.4270693718e+00 2.4717566578e+00 
87400 5.5132998545e+00 -6.9519856724e-05 1.4270693718e+00 -2.4717566578e+00 1.4270693718e+00 2.4717566578e+00 
87500 5.5132998547e+00 -6.9746107205e-05 1.4270693718e+00 -2.4717566578e+00 1.4270693718e+00 2.4717566578e+00 
87600 5.5132998550e+00 -6.9970883647e-05 1.4270693718e+00 -2.4717566578e+00 1.4270693718e+00 2.4717566578e+00 
87700 5.5132998552e+00 -7.0194179066e-05 1.4270693718e+00 -2.4717566578e+00 1.4270693718e+00 2.4717566578e+00 
87800 5.5132998554e+00 -7.0415987673e-05 1.4270693718e+00 -2.4717566578e+00 1.4270693718e+00 2.4717566578e+00 
87900 5.5132998557e+00 -7.0636304783e-05 1.4270693718e+00 -2.4717566578e+00 1.4270693718e+00 2.4717566578e+00 
88000 5.5132998559e+00 -7.0855126751e-05 1.4270693718e+00 -2.4717566578e+00 1.4270693718e+00 2.4717566578e+00 
88100 5.5132998559e+00 -6.9165024050e-05 1.4270718543e+00 -2.4717609577e+00 1.4270718543e+00 2.4717609577e+00 
88200 5.5132998562e+00 -6.9376229701e-05 1.4270718543e+00 -2.4717609577e+00 1.4270718543e+00 2.4717609577e+00 
88300 5.5132998564e+00 -6.9586094270e-05 1.4270718543e+00 -2.4717609577e+00 1.4270718543e+00 2.4717609577e+00 
88400 5.5132998566e+00 -6.9794609064e-05 1.4270718543e+00 -2.4717609577e+00 1.4270718543e+00 2.4717609577e+00 
88500 5.5132998568e+00 -7.0001766629e-05 1.4270718543e+00 -2.4717609577e+00 1.4270718543e+00 2.4717609577e+00 
88600 5.5132998571e+00 -7.0207560671e-05 1.4270718543e+00 -2.4717609577e+00 1.4270718543e+00 2.4717609577e+00 
88700 5.5132998573e+00 -7.0411985976e-05 1.4270718543e+00 -2.4717609577e+00 1.4270718543e+00 2.4717609577e+00 
88800 5.5132998575e+00 -7.0615038347e-05 1.4270718543e+00 -2.4717609577e+00 1.4270718543e+00 2.4717609577e+00 
88900 5.5132998577e+00 -7.0816714522e-05 1.4270718543e+00 -2.4717609577e+00 1.4270718543e+00 2.4717609577e+00 
89000 5.5132998577e+00 -6.9110593501e-05 1.4270743355e+00 -2.4717652553e+00 1.4270743355e+00 2.4717652553e+00 
89100 5.5132998579e+00 -6.9304894757e-05 1.4270743355e+00 -2.4717652553e+00 1.4270743355e+00 2.4717652553e+00 
89200 5.5132998582e+00 -6.9497974452e-05 1.4270743355e+00 -2.4717652553e+00 1.4270743355e+00 2.4717652553e+00 
89300 5.5132998584e+00 -6.9689823974e-05 1.4270743355e+00 -2.4717652553e+00 1.4270743355e+00 2.4717652553e+00 
89400 5.5132998586e+00 -6.9880435884e-05 1.4270743355e+00 -2.4717652553e+00 1.4270743355e+00 2.4717652553e+00 
89500 5.5132998588e+00 -7.0069803843e-05 1.4270743355e+00 -2.4717652553e+00 1.4270743355e+00 2.4717652553e+00 
89600 5.5132998590e+00 -7.0257922539e-05 1.4270743355e+00 -2.4717652553e+00 1.4270743355e+00 2.4717652553e+00 
89700 5.5132998592e+00 -7.0444787618e-05 1.4270743355e+00 -2.4717652553e+00 1.4270743355e+00 2.4717652553e+00 
89800 5.5132998594e+00 -7.0630395619e-05 1.4270743355e+00 -2.4717652553e+00 1.4270743355e+00 2.4717652553e+00 
89900 5.5132998596e+00 -7.0814743914e-05 1.4270743355e+00 -2.4717652553e+00 1.4270743355e+00 2.4717652553e+00 
90000 5.5132998596e+00 -6.9091438534e-05 1.4270768166e+00 -2.4717695527e+00 1.4270768166e+00 2.4717695527e+00 
90100 5.5132998598e+00 -6.9268646684e-05 1.4270768166e+00 -2.4717695527e+00 1.4270768166e+00 2.4717695527e+00 
90200 5.5132998600e+00 -6.9444751054e-05 1.4270768166e+00 -2.4717695527e+00 1.4270768166e+00 2.4717695527e+00 
90300 5.5132998602e+00 -6.9619743292e-05 1.4270768166e+00 -2.4717695527e+00 1.4270768166e+00 2.4717695527e+00 
90400 5.5132998604e+00 -6.9793616147e-05 1.4270768166e+00 -2.4717695527e+00 1.4270768166e+00 2.4717695527e+00 
90500 5.5132998606e+00 -6.9966363391e-05 1.4270768166e+00 -2.4717695527e+00 1.4270768166e+00 2.4717695527e+00 
90600 5.5132998607e+00 -7.0137979760e-05 1.4270768166e+00 -2.4717695527e+00 1.4270768166e+00 2.4717695527e+00 
90700 5.5132998609e+00 -7.0308460882e-05 1.4270768166e+00 -2.4717695527e+00 1.4270768166e+00 2.4717695527e+00 
90800 5.5132998611e+00 -7.0477803222e-05 1.4270768166e+00 -2.4717695527e+00 1.4270768166e+00 2.4717695527e+00 
90900 5.5132998613e+00 -7.0646004025e-05 1.4270768166e+00 -2.4717695527e+00 1.4270768166e+00 2.4717695527e+00 
91000 5.5132998615e+00 -7.0813061262e-05 1.4270768166e+00 -2.4717695527e+00 1.4270768166e+00 2.4717695527e+00 
91100 5.5132998614e+00 -6.9072600189e-05 1.4270792977e+00 -2.4717738500e+00 1.4270792977e+00 2.4717738500e+00 
91200 5.5132998616e+00 -6.9232751246e-05 1.4270792977e+00 -2.4717738500e+00 1.4270792977e+00 2.4717738500e+00 
91300 5.5132998618e+00 -6.9391915865e-05 1.4270792977e+00 -2.4717738500e+00 1.4270792977e+00 2.4717738500e+00 
91400 5.5132998620e+00 -6.9550085934e-05 1.4270792977e+00 -2.4717738500e+00 1.4270792977e+00 2.4717738500e+00 
91500 5.5132998621e+00 -6.9707254364e-05 1.4270792977e+00 -2.4717738500e+00 1.4270792977e+00 2.4717738500e+00 
91600 5.5132998623e+00 -6.9863415020e-05 1.4270792977e+00 -2.4717738500e+00 1.4270792977e+00 2.4717738500e+00 
91700 5.5132998625e+00 -7.0018562662e-05 1.4270792977e+00 -2.4717738500e+00 1.4270792977e+00 2.4717738500e+00 
91800 5.5132998627e+00 -7.0172692884e-05 1.4270792977e+00 -2.4717738500e+00 1.4270792977e+00 2.4717738500e+00 
91900 5.5132998628e+00 -7.0325802062e-05 1.4270792977e+00 -2.4717738500e+00 1.4270792977e+00 2.4717738500e+00 
92000 5.5132998630e+00 -7.0477887295e-05 1.4270792977e+00 -2.4717738500e+00 1.4270792977e+00 2.4717738500e+00 
92100 5.5132998632e+00 -7.0628946364e-05 1.4270792977e+00 -2.4717738500e+00 1.4270792977e+00 2.4717738500e+00 
92200 5.5132998633e+00 -7.0778977678e-05 1.4270792977e+00 -2.4717738500e+00 1.4270792977e+00 2.4717738500e+00 
92300 5.5132998632e+00 -6.9022498454e-05 1.4270817775e+00 -2.4717781452e+00 1.4270817775e+00 2.4717781452e+00 
92400 5.5132998634e+00 -6.9165858579e-05 1.4270817775e+00 -2.4717781452e+00 1.4270817775e+00 2.4717781452e+00 
92500 5.5132998636e+00 -6.9308348801e-05 1.4270817775e+00 -2.4717781452e+00 1.4270817775e+00 2.4717781452e+00 
92600 5.5132998637e+00 -6.9449961135e-05 1.4270817775e+00 -2.4717781452e+00 1.4270817775e+00 2.4717781452e+00 
92700 5.5132998639e+00 -6.9590688548e-05 1.4270817775e+00 -2.4717781452e+00 1.4270817775e+00 2.4717781452e+00 
92800 5.5132998640e+00 -6.9730524903e-05 1.4270817775e+00 -2.4717781452e+00 1.4270817775e+00 2.4717781452e+00 
92900 5.5132998642e+00 -6.9869464899e-05 1.4270817775e+00 -2.4717781452e+00 1.4270817775e+00 2.4717781452e+00 
93000 5.5132998643e+00 -7.0007504015e-05 1.4270817775e+00 -2.4717781452e+00 1.4270817775e+00 2.4717781452e+00 
93100 5.5132998645e+00 -7.0144638461e-05 1.4270817775e+00 -2.4717781452e+00 1.4270817775e+00 2.4717781452e+00 
93200 5.5132998646e+00 -7.0280865129e-05 1.4270817775e+00 -2.4717781452e+00 1.4270817775e+00 2.4717781452e+00 
93300 5.5132998648e+00 -7.0416181546e-05 1.4270817775e+00 -2.4717781452e+00 1.4270817775e+00 2.4717781452e+00 
93400 5.5132998649e+00 -7.0550585831e-05 1.4270817775e+00 -2.4717781452e+00 1.4270817775e+00 2.4717781452e+00 
93500 5.5132998651e+00 -7.0684076654e-05 1.4270817775e+00 -2.4717781452e+00 1.4270817775e+00 2.4717781452e+00 
93600 5.5132998652e+00 -7.0816653201e-05 1.4270817775e+00 -2.4717781452e+00 1.4270817775e+00 2.4717781452e+00 
93700 5.5132998651e+00 -6.9041791778e-05 1.4270842587e+00 -2.4717824427e+00 1.4270842587e+00 2.4717824427e+00 
93800 5.5132998653e+00 -6.9167923701e-05 1.4270842587e+00 -2.4717824427e+00 1.4270842587e+00 2.4717824427e+00 
93900 5.5132998654e+00 -6.9293300959e-05 1.4270842587e+00 -2.4717824427e+00 1.4270842587e+00 2.4717824427e+00 
94000 5.5132998655e+00 -6.9417915934e-05 1.4270842587e+00 -2.4717824427e+00 1.4270842587e+00 2.4717824427e+00 
94100 5.5132998657e+00 -6.9541761884e-05 1.4270842587e+00 -2.4717824427e+00 1.4270842587e+00 2.4717824427e+00 
94200 5.5132998658e+00 -6.9664832879e-05 1.4270842587e+00 -2.4717824427e+00 1.4270842587e+00 2.4717824427e+00 
94300 5.5132998659e+00 -6.9787123754e-05 1.4270842587e+00 -2.4717824427e+00 1.4270842587e+00 2.4717824427e+00 
94400 5.5132998661e+00 -6.9908630060e-05 1.4270842587e+00 -2.4717824427e+00 1.4270842587e+00 2.4717824427e+00 
94500 5.5132998662e+00 -7.0029348012e-05 1.4270842587e+00 -2.4717824427e+00 1.4270842587e+00 2.4717824427e+00 
94600 5.5132998663e+00 -7.0149274452e-05 1.4270842587e+00 -2.4717824427e+00 1.4270842587e+00 2.4717824427e+00 
94700 5.5132998665e+00 -7.0268406802e-05 1.4270842587e+00 -2.4717824427e+00 1.4270842587e+00 2.4717824427e+00 
94800 5.5132998666e+00 -7.0386743026e-05 1.4270842587e+00 -2.4717824427e+00 1.4270842587e+00 2.4717824427e+00 
94900 5.5132998667e+00 -7.0504281597e-05 1.4270842587e+00 -2.4717824427e+00 1.4270842587e+00 2.4717824427e+00 
95000 5.5132998668e+00 -7.0621021454e-05 1.4270842587e+00 -2.4717824427e+00 1.4270842587e+00 2.4717824427e+00 
95100 5.5132998670e+00 -7.0736961978e-05 1.4270842587e+00 -2.4717824427e+00 1.4270842587e+00 2.4717824427e+00 
95200 5.5132998668e+00 -6.8947699986e-05 1.4270867371e+00 -2.4717867354e+00 1.4270867371e+00 2.4717867354e+00 
95300 5.5132998670e+00 -6.9057431446e-05 1.4270867371e+00 -2.4717867354e+00 1.4270867371e+00 2.4717867354e+00 
95400 5.5132998671e+00 -6.9166523180e-05 1.4270867371e+00 -2.4717867354e+00 1.4270867371e+00 2.4717867354e+00 
95500 5.5132998672e+00 -6.9274967526e-05 1.4270867371e+00 -2.4717867354e+00 1.4270867371e+00 2.4717867354e+00 
95600 5.5132998673e+00 -6.9382757642e-05 1.4270867371e+00 -2.4717867354e+00 1.4270867371e+00 2.4717867354e+00 
95700 5.5132998674e+00 -6.9489887453e-05 1.4270867371e+00 -2.4717867354e+00 1.4270867371e+00 2.4717867354e+00 
95800 5.5132998675e+00 -6.9596351602e-05 1.4270867371e+00 -2.4717867354e+00 1.4270867371e+00 2.4717867354e+00 
95900 5.5132998677e+00 -6.9702145407e-05 1.4270867371e+00 -2.4717867354e+00 1.4270867371e+00 2.4717867354e+00 
96000 5.5132998678e+00 -6.9807264814e-05 1.4270867371e+00 -2.4717867354e+00 1.4270867371e+00 2.4717867354e+00 
96100 5.5132998679e+00 -6.9911706357e-05 1.4270867371e+00 -2.4717867354e+00 1.4270867371e+00 2.4717867354e+00 
96200 5.5132998680e+00 -7.0015467119e-05 1.4270867371e+00 -2.4717867354e+00 1.4270867371e+00 2.4717867354e+00 
96300 5.5132998681e+00 -7.0118544697e-05 1.4270867371e+00 -2.4717867354e+00 1.4270867371e+00 2.4717867354e+00 
96400 5.5132998682e+00 -7.0220937168e-05 1.4270867371e+00 -2.4717867354e+00 1.4270867371e+00 2.4717867354e+00 
96500 5.5132998683e+00 -7.0322643050e-05 1.4270867371e+00 -2.4717867354e+00 1.4270867371e+00 2.4717867354e+00 
96600 5.5132998684e+00 -7.0423661282e-05 1.4270867371e+00 -2.4717867354e+00 1.4270867371e+00 2.4717867354e+00 
96700 5.5132998685e+00 -7.0523991185e-05 1.4270867371e+00 -2.4717867354e+00 1.4270867371e+00 2.4717867354e+00 
96800 5.5132998686e+00 -7.0623632443e-05 1.4270867371e+00 -2.4717867354e+00 1.4270867371e+00 2.4717867354e+00 
96900 5.5132998687e+00 -7.0722585071e-05 1.4270867371e+00 -2.4717867354e+00 1.4270867371e+00 2.4717867354e+00 
97000 5.5132998686e+00 -6.8916807283e-05 1.4270892149e+00 -2.4717910272e+00 1.4270892149e+00 2.4717910272e+00 
97100 5.5132998687e+00 -6.9009774894e-05 1.4270892149e+00 -2.4717910272e+00 1.4270892149e+00 2.4717910272e+00 
97200 5.5132998688e+00 -6.9102214790e-05 1.4270892149e+00 -2.4717910272e+00 1.4270892149e+00 2.4717910272e+00 
97300 5.5132998689e+00 -6.9194119596e-05 1.4270892149e+00 -2.4717910272e+00 1.4270892149e+00 2.4717910272e+00 
97400 5.5132998690e+00 -6.9285482683e-05 1.4270892149e+00 -2.4717910272e+00 1.4270892149e+00 2.4717910272e+00 
97500 5.5132998691e+00 -6.9376298122e-05 1.4270892149e+00 -2.4717910272e+00 1.4270892149e+00 2.4717910272e+00 
97600 5.5132998692e+00 -6.9466560635e-05 1.4270892149e+00 -2.4717910272e+00 1.4270892149e+00 2.4717910272e+00 
97700 5.5132998693e+00 -6.9556265562e-05 1.4270892149e+00 -2.4717910272e+00 1.4270892149e+00 2.4717910272e+00 
97800 5.5132998694e+00 -6.9645408815e-05 1.4270892149e+00 -2.4717910272e+00 1.4270892149e+00 2.4717910272e+00 
97900 5.5132998695e+00 -6.9733986844e-05 1.4270892149e+00 -2.4717910272e+00 1.4270892149e+00 2.4717910272e+00 
98000 5.5132998696e+00 -6.9821996600e-05 1.4270892149e+00 -2.4717910272e+00 1.4270892149e+00 2.4717910272e+00 
98100 5.5132998697e+00 -6.9909435504e-05 1.4270892149e+00 -2.4717910272e+00 1.4270892149e+00 2.4717910272e+00 
98200 5.5132998698e+00 -6.9996301415e-05 1.4270892149e+00 -2.4717910272e+00 1.4270892149e+00 2.4717910272e+00 
98300 5.5132998698e+00 -7.0082592601e-05 1.4270892149e+00 -2.4717910272e+00 1.4270892149e+00 2.4717910272e+00 
98400 5.5132998699e+00 -7.0168307711e-05 1.4270892149e+00 -2.4717910272e+00 1.4270892149e+00 2.4717910272e+00 
98500 5.5132998700e+00 -7.0253445748e-05 1.4270892149e+00 -2.4717910272e+00 1.4270892149e+00 2.4717910272e+00 
98600 5.5132998701e+00 -7.0338006047e-05 1.4270892149e+00 -2.4717910272e+00 1.4270892149e+00 2.4717910272e+00 
98700 5.5132998702e+00 -7.0421988248e-05 1.4270892149e+00 -2.4717910272e+00 1.4270892149e+00 2.4717910272e+00 
98800 5.5132998703e+00 -7.0505392280e-05 1.4270892149e+00 -2.4717910272e+00 1.4270892149e+00 2.4717910272e+00 
98900 5.5132998704e+00 -7.0588218333e-05 1.4270892149e+00 -2.4717910272e+00 1.4270892149e+00 2.4717910272e+00 
99000 5.5132998704e+00 -7.0670466843e-05 1.4270892149e+00 -2.4717910272e+00 1.4270892149e+00 2.4717910272e+00 
99100 5.5132998705e+00 -7.0752138478e-05 1.4270892149e+00 -2.4717910272e+00 1.4270892149e+00 2.4717910272e+00 
99200 5.5132998704e+00 -6.8928369458e-05 1.4270916938e+00 -2.4717953208e+00 1.4270916938e+00 2.4717953208e+00 
99300 5.5132998704e+00 -6.9004279390e-05 1.4270916938e+00 -2.4717953208e+00 1.4270916938e+00 2.4717953208e+00 
99400 5.5132998705e+00 -6.9079774792e-05 1.4270916938e+00 -2.4717953208e+00 1.4270916938e+00 2.4717953208e+00 
99500 5.5132998706e+00 -6.9154848575e-05 1.4270916938e+00 -2.4717953208e+00 1.4270916938e+00 2.4717953208e+00 
99600 5.5132998707e+00 -6.9229494324e-05 1.4270916938e+00 -2.4717953208e+00 1.4270916938e+00 2.4717953208e+00 
99700 5.5132998708e+00 -6.9303706252e-05 1.4270916938e+00 -2.4717953208e+00 1.4270916938e+00 2.4717953208e+00 
99800 5.5132998708e+00 -6.9377479162e-05 1.4270916938e+00 -2.4717953208e+00 1.4270916938e+00 2.4717953208e+00 
99900 5.5132998709e+00 -6.9450808411e-05 1.4270916938e+00 -2.4717953208e+00 1.4270916938e+00 2.4717953208e+00 
100000 5.5132998710e+00 -6.9523689875e-05 1.4270916938e+00 -2.4717953208e+00 1.4270916938e+00 2.4717953208e+00 
100100 5.5132998711e+00 -6.9596119915e-05 1.4270916938e+00 -2.4717953208e+00 1.4270916938e+00 2.4717953208e+00 
100200 5.5132998711e+00 -6.9668095347e-05 1.4270916938e+00 -2.4717953208e+00 1.4270916938e+00 2.4717953208e+00 
100300 5.5132998712e+00 -6.9739613412e-05 1.4270916938e+00 -2.4717953208e+00 1.4270916938e+00 2.4717953208e+00 
100400 5.5132998713e+00 -6.9810671749e-05 1.4270916938e+00 -2.4717953208e+00 1.4270916938e+00 2.4717953208e+00 
100500 5.5132998713e+00 -6.9881268368e-05 1.4270916938e+00 -2.4717953208e+00 1.4270916938e+00 2.4717953208e+00 
100600 5.5132998714e+00 -6.9951401626e-05 1.4270916938e+00 -2.4717953208e+00 1.4270916938e+00 2.4717953208e+00 
100700 5.5132998715e+00 -7.0021070202e-05 1.4270916938e+00 -2.4717953208e+00 1.4270916938e+00 2.4717953208e+00 
100800 5.5132998716e+00 -7.0090273079e-05 1.4270916938e+00 -2.4717953208e+00 1.4270916938e+00 2.4717953208e+00 
100900 5.5132998716e+00 -7.0159009519e-05 1.4270916938e+00 -2.4717953208e+00 1.4270916938e+00 2.4717953208e+00 
101000 5.5132998717e+00 -7.0227279046e-05 1.4270916938e+00 -2.4717953208e+00 1.4270916938e+00 2.4717953208e+00 
101100 5.5132998718e+00 -7.0295081426e-05 1.4270916938e+00 -2.4717953208e+00 1.4270916938e+00 2.4717953208e+00 
101200 5.5132998718e+00 -7.0362416650e-05 1.4270916938e+00 -2.4717953208e+00 1.4270916938e+00 2.4717953208e+00 
101300 5.5132998719e+00 -7.0429284921e-05 1.4270916938e+00 -2.4717953208e+00 1.4270916938e+00 2.4717953208e+00 
101400 5.5132998720e+00 -7.0495686634e-05 1.4270916938e+00 -2.4717953208e+00 1.4270916938e+00 2.4717953208e+00 
101500 5.5132998720e+00 -7.0561622363e-05 1.4270916938e+00 -2.4717953208e+00 1.4270916938e+00 2.4717953208e+00 
101600 5.5132998721e+00 -7.0627092852e-05 1.4270916938e+00 -2.4717953208e+00 1.4270916938e+00 2.4717953208e+00 
101700 5.5132998722e+00 -7.0692098992e-05 1.4270916938e+00 -2.4717953208e+00 1.4270916938e+00 2.4717953208e+00 
101800 5.5132998722e+00 -7.0756641823e-05 1.4270916938e+00 -2.4717953208e+00 1.4270916938e+00 2.4717953208e+00 
101900 5.5132998720e+00 -6.8915710397e-05 1.4270941729e+00 -2.4717996146e+00 1.4270941729e+00 2.4717996146e+00 
102000 5.5132998721e+00 -6.8974719343e-05 1.4270941729e+00 -2.4717996146e+00 1.4270941729e+00 2.4717996146e+00 
102100 5.5132998722e+00 -6.9033427980e-05 1.4270941729e+00 -2.4717996146e+00 1.4270941729e+00 2.4717996146e+00 
102200 5.5132998722e+00 -6.9091829306e-05 1.4270941729e+00 -2.4717996146e+00 1.4270941729e+00 2.4717996146e+00 
102300 5.5132998723e+00 -6.9149916929e-05 1.4270941729e+00 -2.4717996146e+00 1.4270941729e+00 2.4717996146e+00 
102400 5.5132998723e+00 -6.9207685033e-05 1.4270941729e+00 -2.4717996146e+00 1.4270941729e+00 2.4717996146e+00 
102500 5.5132998724e+00 -6.9265128339e-05 1.4270941729e+00 -2.4717996146e+00 1.4270941729e+00 2.4717996146e+00 
102600 5.5132998724e+00 -6.9322242075e-05 1.4270941729e+00 -2.4717996146e+00 1.4270941729e+00 2.4717996146e+00 
102700 5.5132998725e+00 -6.9379021945e-05 1.4270941729e+00 -2.4717996146e+00 1.4270941729e+00 2.4717996146e+00 
102800 5.5132998726e+00 -6.9435464095e-05 1.4270941729e+00 -2.4717996146e+00 1.4270941729e+00 2.4717996146e+00 
102900 5.5132998726e+00 -6.9491565091e-05 1.4270941729e+00 -2.4717996146e+00 1.4270941729e+00 2.4717996146e+00 
103000 5.5132998727e+00 -6.9547321891e-05 1.4270941729e+00 -2.4717996146e+00 1.4270941729e+00 2.4717996146e+00 
103100 5.5132998727e+00 -6.9602731817e-05 1.4270941729e+00 -2.4717996146e+00 1.4270941729e+00 2.4717996146e+00 
103200 5.5132998728e+00 -6.9657792534e-05 1.4270941729e+00 -2.4717996146e+00 1.4270941729e+00 2.4717996146e+00 
103300 5.5132998728e+00 -6.9712502029e-05 1.4270941729e+00 -2.4717996146e+00 1.4270941729e+00 2.4717996146e+00 
103400 5.5132998729e+00 -6.9766858587e-05 1.4270941729e+00 -2.4717996146e+00 1.4270941729e+00 2.4717996146e+00 
103500 5.5132998729e+00 -6.9820860772e-05 1.4270941729e+00 -2.4717996146e+00 1.4270941729e+00 2.4717996146e+00 
103600 5.5132998730e+00 -6.9874507410e-05 1.4270941729e+00 -2.4717996146e+00 1.4270941729e+00 2.4717996146e+00 
103700 5.5132998730e+00 -6.9927797571e-05 1.4270941729e+00 -2.4717996146e+00 1.4270941729e+00 2.4717996146e+00 
103800 5.5132998731e+00 -6.9980730549e-05 1.4270941729e+00 -2.4717996146e+00 1.4270941729e+00 2.4717996146e+00 
103900 5.5132998731e+00 -7.0033305851e-05 1.4270941729e+00 -2.4717996146e+00 1.4270941729e+00 2.4717996146e+00 
104000 5.5132998732e+00 -7.0085523181e-05 1.4270941729e+00 -2.4717996146e+00 1.4270941729e+00 2.4717996146e+00 
104100 5.5132998732e+00 -7.0137382423e-05 1.4270941729e+00 -2.4717996146e+00 1.4270941729e+00 2.4717996146e+00 
104200 5.5132998733e+00 -7.0188883633e-05 1.4270941729e+00 -2.4717996146e+00 1.4270941729e+00 2.4717996146e+00 
104300 5.5132998733e+00 -7.0240027021e-05 1.4270941729e+00 -2.4717996146e+00 1.4270941729e+00 2.4717996146e+00 
104400 5.5132998734e+00 -7.0290812944e-05 1.4270941729e+00 -2.4717996146e+00 1.4270941729e+00 2.4717996146e+00 
104500 5.5132998734e+00 -7.0341241895e-05 1.4270941729e+00 -2.4717996146e+00 1.4270941729e+00 2.4717996146e+00 
104600 5.5132998735e+00 -7.0391314489e-05 1.4270941729e+00 -2.4717996146e+00 1.4270941729e+00 2.4717996146e+00 
104700 5.5132998735e+00 -7.0441031456e-05 1.4270941729e+00 -2.4717996146e+00 1.4270941729e+00 2.4717996146e+00 
104800 5.5132998736e+00 -7.0490393634e-05 1.4270941729e+00 -2.4717996146e+00 1.4270941729e+00 2.4717996146e+00 
104900 5.5132998736e+00 -7.0539401956e-05 1.4270941729e+00 -2.4717996146e+00 1.4270941729e+00 2.4717996146e+00 
105000 5.5132998737e+00 -7.0588057445e-05 1.4270941729e+00 -2.4717996146e+00 1.4270941729e+00 2.4717996146e+00 
105100 5.5132998737e+00 -7.0636361207e-05 1.4270941729e+00 -2.4717996146e+00 1.4270941729e+00 2.4717996146e+00 
105200 5.5132998737e+00 -7.0684314423e-05 1.4270941729e+00 -2.4717996146e+00 1.4270941729e+00 2.4717996146e+00 
105300 5.5132998738e+00 -7.0731918341e-05 1.4270941729e+00 -2.4717996146e+00 1.4270941729e+00 2.4717996146e+00 
105400 5.5132998736e+00 -6.8874802405e-05 1.4270966511e+00 -2.4718039070e+00 1.4270966511e+00 2.4718039070e+00 
105500 5.5132998736e+00 -6.8917102621e-05 1.4270966511e+00 -2.4718039070e+00 1.4270966511e+00 2.4718039070e+00 
105600 5.5132998737e+00 -6.8959216724e-05 1.4270966511e+00 -2.4718039070e+00 1.4270966511e+00 2.4718039070e+00 
105700 5.5132998737e+00 -6.9001137688e-05 1.4270966511e+00 -2.4718039070e+00 1.4270966511e+00 2.4718039070e+00 
105800 5.5132998737e+00 -6.9024526632e-05 1.4270966511e+00 -2.4718039070e+00 1.4270966511e+00 2.4718039070e+00 
105800 5.5132998737e+00 -6.9024526632e-05 1.4270966511e+00 -2.4718039070e+00 1.4270966511e+00 2.4718039070e+00 
