# step Hamiltonian StressXX CellTensor1 CellTensor2 CellTensor3 CellTensor4 
0 5.8447657319e+00 5.3827902453e-02 1.6387017056e+00 -2.8383146126e+00 1.6387017056e+00 2.8383146126e+00 
100 5.8474469304e+00 5.5052655511e-02 1.6387017056e+00 -2.8383146126e+00 1.6387017056e+00 2.8383146126e+00 
200 5.8497047876e+00 5.4327987588e-02 1.6370222285e+00 -2.8354056729e+00 1.6370222285e+00 2.8354056729e+00 
300 5.8516828389e+00 5.3376736343e-02 1.6353631551e+00 -2.8325320735e+00 1.6353631551e+00 2.8325320735e+00 
400 5.8534088048e+00 5.2227586161e-02 1.6337314732e+00 -2.8297059175e+00 1.6337314732e+00 2.8297059175e+00 
500 5.8549076793e+00 5.0906797707e-02 1.6321333201e+00 -2.8269378351e+00 1.6321333201e+00 2.8269378351e+00 
600 5.8562019939e+00 4.9438374267e-02 1.6305740515e+00 -2.8242371027e+00 1.6305740515e+00 2.8242371027e+00 
700 5.8573120601e+00 4.7844220351e-02 1.6290583060e+00 -2.8216117545e+00 1.6290583060e+00 2.8216117545e+00 
800 5.8582561896e+00 4.6144292425e-02 1.6275900643e+00 -2.8190686853e+00 1.6275900643e+00 2.8190686853e+00 
900 5.8590508943e+00 4.4356741704e-02 1.6261727053e+00 -2.8166137475e+00 1.6261727053e+00 2.8166137475e+00 
1000 5.8597110682e+00 4.2498049027e-02 1.6248090575e+00 -2.8142518402e+00 1.6248090575e+00 2.8142518402e+00 
1100 5.8602501521e+00 4.0583151885e-02 1.6235014472e+00 -2.8119869926e+00 1.6235014472e+00 2.8119869926e+00 
1200 5.8606802820e+00 3.8625563747e-02 1.6222517427e+00 -2.8098224410e+00 1.6222517427e+00 2.8098224410e+00 
1300 5.8610124235e+00 3.6637485875e-02 1.6210613961e+00 -2.8077607003e+00 1.6210613961e+00 2.8077607003e+00 
1400 5.8612564928e+00 3.4629911846e-02 1.6199314813e+00 -2.8058036304e+00 1.6199314813e+00 2.8058036304e+00 
1500 5.8614214654e+00 3.2612725067e-02 1.6188627293e+00 -2.8039524975e+00 1.6188627293e+00 2.8039524975e+00 
1600 5.8615154734e+00 3.0594789544e-02 1.6178555611e+00 -2.8022080311e+00 1.6178555611e+00 2.8022080311e+00 
1700 5.8615458933e+00 2.8584034230e-02 1.6169101180e+00 -2.8005704756e+00 1.6169101180e+00 2.8005704756e+00 
1800 5.8615194243e+00 2.6587531269e-02 1.6160262893e+00 -2.7990396395e+00 1.6160262893e+00 2.7990396395e+00 
1900 5.8614421579e+00 2.4611568438e-02 1.6152037385e+00 -2.7976149397e+00 1.6152037385e+00 2.7976149397e+00 
2000 5.8613196408e+00 2.2661716148e-02 1.6144419265e+00 -2.7962954426e+00 1.6144419265e+00 2.7962954426e+00 
2100 5.8611569301e+00 2.0742889292e-02 1.6137401337e+00 -2.7950799019e+00 1.6137401337e+00 2.7950799019e+00 
2200 5.8609586429e+00 1.8859404278e-02 1.6130974803e+00 -2.7939667935e+00 1.6130974803e+00 2.7939667935e+00 
2300 5.8607290008e+00 1.7015031554e-02 1.6125129445e+00 -2.7929543478e+00 1.6125129445e+00 2.7929543478e+00 
2400 5.8604718681e+00 1.5213043915e-02 1.6119853797e+00 -2.7920405786e+00 1.6119853797e+00 2.7920405786e+00 
2500 5.8601907870e+00 1.3456260896e-02 1.6115135298e+00 -2.7912233107e+00 1.6115135298e+00 2.7912233107e+00 
2600 5.8598890085e+00 1.1747089512e-02 1.6110960440e+00 -2.7905002041e+00 1.6110960440e+00 2.7905002041e+00 
2700 5.8595695188e+00 1.0087561618e-02 1.6107314895e+00 -2.7898687772e+00 1.6107314895e+00 2.7898687772e+00 
2800 5.8592350642e+00 8.4793681357e-03 1.6104183636e+00 -2.7893264272e+00 1.6104183636e+00 2.7893264272e+00 
2900 5.8588881719e+00 6.9238903843e-03 1.6101551048e+00 -2.7888704496e+00 1.6101551048e+00 2.7888704496e+00 
3000 5.8585311690e+00 5.4222287327e-03 1.6099401026e+00 -2.7884980549e+00 1.6099401026e+00 2.7884980549e+00 
3100 5.8581661990e+00 3.9752287917e-03 1.6097717071e+00 -2.7882063853e+00 1.6097717071e+00 2.7882063853e+00 
3200 5.8577952368e+00 2.5835053338e-03 1.6096482369e+00 -2.7879925286e+00 1.6096482369e+00 2.7879925286e+00 
3300 5.8574201013e+00 1.2474641281e-03 1.6095679869e+00 -2.7878535316e+00 1.6095679869e+00 2.7878535316e+00 
3400 5.8570424675e+00 -3.2678139288e-05 1.6095292356e+00 -2.7877864123e+00 1.6095292356e+00 2.7877864123e+00 
3500 5.8566638795e+00 -1.2580297685e-03 1.6095292356e+00 -2.7877864123e+00 1.6095292356e+00 2.7877864123e+00 
3600 5.8562857502e+00 -2.4263569978e-03 1.6095683164e+00 -2.7878541023e+00 1.6095683164e+00 2.7878541023e+00 
3700 5.8559093792e+00 -3.5390969512e-03 1.6096436899e+00 -2.7879846530e+00 1.6096436899e+00 2.7879846530e+00 
3800 5.8555359570e+00 -4.5966230139e-03 1.6097536253e+00 -2.7881750667e+00 1.6097536253e+00 2.7881750667e+00 
3900 5.8551665714e+00 -5.5994215841e-03 1.6098964015e+00 -2.7884223624e+00 1.6098964015e+00 2.7884223624e+00 
4000 5.8548022131e+00 -6.5480806733e-03 1.6100703110e+00 -2.7887235823e+00 1.6100703110e+00 2.7887235823e+00 
4100 5.8544437819e+00 -7.4432795231e-03 1.6102736629e+00 -2.7890757982e+00 1.6102736629e+00 2.7890757982e+00 
4200 5.8540920907e+00 -8.2857791476e-03 1.6105047869e+00 -2.7894761167e+00 1.6105047869e+00 2.7894761167e+00 
4300 5.8537478707e+00 -9.0764137162e-03 1.6107620354e+00 -2.7899216842e+00 1.6107620354e+00 2.7899216842e+00 
4400 5.8534117753e+00 -9.8160826995e-03 1.6110437865e+00 -2.7904096914e+00 1.6110437865e+00 2.7904096914e+00 
4500 5.8530843838e+00 -1.0505743706e-02 1.6113484459e+00 -2.7909373769e+00 1.6113484459e+00 2.7909373769e+00 
4600 5.8527662055e+00 -1.1146405946e-02 1.6116744491e+00 -2.7915020312e+00 1.6116744491e+00 2.7915020312e+00 
4700 5.8524576830e+00 -1.1739124261e-02 1.6120202635e+00 -2.7921009993e+00 1.6120202635e+00 2.7921009993e+00 
4800 5.8521591952e+00 -1.2284993670e-02 1.6123843894e+00 -2.7927316838e+00 1.6123843894e+00 2.7927316838e+00 
4900 5.8518710607e+00 -1.2785144371e-02 1.6127653618e+00 -2.7933915473e+00 1.6127653618e+00 2.7933915473e+00 
5000 5.8515935408e+00 -1.3240737167e-02 1.6131617514e+00 -2.7940781142e+00 1.6131617514e+00 2.7940781142e+00 
5100 5.8513268425e+00 -1.3652959266e-02 1.6135721658e+00 -2.7947889729e+00 1.6135721658e+00 2.7947889729e+00 
5200 5.8510711210e+00 -1.4023020422e-02 1.6139952506e+00 -2.7955217772e+00 1.6139952506e+00 2.7955217772e+00 
5300 5.8508264828e+00 -1.4352149378e-02 1.6144296896e+00 -2.7962742476e+00 1.6144296896e+00 2.7962742476e+00 
5400 5.8505929885e+00 -1.4641590593e-02 1.6148742059e+00 -2.7970441725e+00 1.6148742059e+00 2.7970441725e+00 
5500 5.8503706550e+00 -1.4892601204e-02 1.6153275625e+00 -2.7978294090e+00 1.6153275625e+00 2.7978294090e+00 
5600 5.8501594584e+00 -1.5106448224e-02 1.6157885621e+00 -2.7986278839e+00 1.6157885621e+00 2.7986278839e+00 
5700 5.8499593367e+00 -1.5284405934e-02 1.6162560483e+00 -2.7994375937e+00 1.6162560483e+00 2.7994375937e+00 
5800 5.8497701922e+00 -1.5427753457e-02 1.6167289050e+00 -2.8002566056e+00 1.6167289050e+00 2.8002566056e+00 
5900 5.8495918937e+00 -1.5537772495e-02 1.6172060571e+00 -2.8010830573e+00 1.6172060571e+00 2.8010830573e+00 
6000 5.8494242796e+00 -1.5615745215e-02 1.6176864703e+00 -2.8019151573e+00 1.6176864703e+00 2.8019151573e+00 
6100 5.8492671596e+00 -1.5662952265e-02 1.6181691510e+00 -2.8027511848e+00 1.6181691510e+00 2.8027511848e+00 
6200 5.8491203175e+00 -1.5680670913e-02 1.6186531466e+00 -2.8035894897e+00 1.6186531466e+00 2.8035894897e+00 
6300 5.8489835137e+00 -1.5670173293e-02 1.6191375447e+00 -2.8044284919e+00 1.6191375447e+00 2.8044284919e+00 
6400 5.8488564868e+00 -1.5632724752e-02 1.6196214738e+00 -2.8052666816e+00 1.6196214738e+00 2.8052666816e+00 
6500 5.8487389565e+00 -1.5569582286e-02 1.6201041020e+00 -2.8061026182e+00 1.6201041020e+00 2.8061026182e+00 
6600 5.8486306255e+00 -1.5481993063e-02 1.6205846375e+00 -2.8069349302e+00 1.6205846375e+00 2.8069349302e+00 
6700 5.8485311816e+00 -1.5371193017e-02 1.6210623279e+00 -2.8077623142e+00 1.6210623279e+00 2.8077623142e+00 
6800 5.8484403000e+00 -1.5238405517e-02 1.6215364596e+00 -2.8085835344e+00 1.6215364596e+00 2.8085835344e+00 
6900 5.8483576450e+00 -1.5084840103e-02 1.6220063578e+00 -2.8093974220e+00 1.6220063578e+00 2.8093974220e+00 
7000 5.8482828719e+00 -1.4911691279e-02 1.6224713856e+00 -2.8102028737e+00 1.6224713856e+00 2.8102028737e+00 
7100 5.8482156293e+00 -1.4720137372e-02 1.6229309437e+00 -2.8109988516e+00 1.6229309437e+00 2.8109988516e+00 
7200 5.8481555606e+00 -1.4511339441e-02 1.6233844695e+00 -2.8117843814e+00 1.6233844695e+00 2.8117843814e+00 
7300 5.8481023056e+00 -1.4286440238e-02 1.6238314371e+00 -2.8125585520e+00 1.6238314371e+00 2.8125585520e+00 
7400 5.8480555024e+00 -1.4046563229e-02 1.6242713561e+00 -2.8133205140e+00 1.6242713561e+00 2.8133205140e+00 
7500 5.8480147889e+00 -1.3792811656e-02 1.6247037711e+00 -2.8140694788e+00 1.6247037711e+00 2.8140694788e+00 
7600 5.8479798040e+00 -1.3526267650e-02 1.6251282611e+00 -2.8148047171e+00 1.6251282611e+00 2.8148047171e+00 
7700 5.8479501893e+00 -1.3247991395e-02 1.6255444389e+00 -2.8155255581e+00 1.6255444389e+00 2.8155255581e+00 
7800 5.8479255906e+00 -1.2959020335e-02 1.6259519499e+00 -2.8162313879e+00 1.6259519499e+00 2.8162313879e+00 
7900 5.8479056585e+00 -1.2660368429e-02 1.6263504718e+00 -2.8169216481e+00 1.6263504718e+00 2.8169216481e+00 
8000 5.8478900501e+00 -1.2353025454e-02 1.6267397137e+00 -2.8175958348e+00 1.6267397137e+00 2.8175958348e+00 
8100 5.8478784295e+00 -1.2037956350e-02 1.6271194150e+00 -2.8182534968e+00 1.6271194150e+00 2.8182534968e+00 
8200 5.8478704694e+00 -1.1716100617e-02 1.6274893452e+00 -2.8188942347e+00 1.6274893452e+00 2.8188942347e+00 
8300 5.8478658515e+00 -1.1388371754e-02 1.6278493025e+00 -2.8195176990e+00 1.6278493025e+00 2.8195176990e+00 
8400 5.8478642673e+00 -1.1055656744e-02 1.6281991131e+00 -2.8201235888e+00 1.6281991131e+00 2.8201235888e+00 
8500 5.8478654192e+00 -1.0718815589e-02 1.6285386306e+00 -2.8207116503e+00 1.6285386306e+00 2.8207116503e+00 
8600 5.8478690205e+00 -1.0378680889e-02 1.6288677348e+00 -2.8212816754e+00 1.6288677348e+00 2.8212816754e+00 
8700 5.8478747963e+00 -1.0036057468e-02 1.6291863309e+00 -2.8218335001e+00 1.6291863309e+00 2.8218335001e+00 
8800 5.8478824840e+00 -9.6917220504e-03 1.6294943489e+00 -2.8223670029e+00 1.6294943489e+00 2.8223670029e+00 
8900 5.8478918334e+00 -9.3464229781e-03 1.6297917422e+00 -2.8228821033e+00 1.6297917422e+00 2.8228821033e+00 
9000 5.8479026071e+00 -9.0008799816e-03 1.6300784874e+00 -2.8233787605e+00 1.6300784874e+00 2.8233787605e+00 
9100 5.8479145808e+00 -8.6557839936e-03 1.6303545825e+00 -2.8238569712e+00 1.6303545825e+00 2.8238569712e+00 
9200 5.8479275432e+00 -8.3117970119e-03 1.6306200468e+00 -2.8243167689e+00 1.6306200468e+00 2.8243167689e+00 
9300 5.8479412965e+00 -7.9695520083e-03 1.6308749196e+00 -2.8247582215e+00 1.6308749196e+00 2.8247582215e+00 
9400 5.8479556559e+00 -7.6296528845e-03 1.6311192593e+00 -2.8251814303e+00 1.6311192593e+00 2.8251814303e+00 
9500 5.8479704498e+00 -7.2926744738e-03 1.6313531427e+00 -2.8255865283e+00 1.6313531427e+00 2.8255865283e+00 
9600 5.8479855197e+00 -6.9591625891e-03 1.6315766640e+00 -2.8259736784e+00 1.6315766640e+00 2.8259736784e+00 
9700 5.8480007200e+00 -6.6296341155e-03 1.6317899336e+00 -2.8263430722e+00 1.6317899336e+00 2.8263430722e+00 
9800 5.8480159176e+00 -6.3045771476e-03 1.6319930777e+00 -2.8266949282e+00 1.6319930777e+00 2.8266949282e+00 
9900 5.8480309920e+00 -5.9844511706e-03 1.6321862373e+00 -2.8270294904e+00 1.6321862373e+00 2.8270294904e+00 
10000 5.8480458347e+00 -5.6696872835e-03 1.6323695670e+00 -2.8273470267e+00 1.6323695670e+00 2.8273470267e+00 
10100 5.8480603488e+00 -5.3606884650e-03 1.6325432344e+00 -2.8276478275e+00 1.6325432344e+00 2.8276478275e+00 
10200 5.8480744489e+00 -5.0578298787e-03 1.6327074192e+00 -2.8279322040e+00 1.6327074192e+00 2.8279322040e+00 
10300 5.8480880604e+00 -4.7614592190e-03 1.6328623126e+00 -2.8282004871e+00 1.6328623126e+00 2.8282004871e+00 
10400 5.8481011194e+00 -4.4718970934e-03 1.6330081157e+00 -2.8284530256e+00 1.6330081157e+00 2.8284530256e+00 
10500 5.8481135716e+00 -4.1894374429e-03 1.6331450397e+00 -2.8286901849e+00 1.6331450397e+00 2.8286901849e+00 
10600 5.8481253727e+00 -3.9143479965e-03 1.6332733043e+00 -2.8289123457e+00 1.6332733043e+00 2.8289123457e+00 
10700 5.8481364870e+00 -3.6468707589e-03 1.6333931371e+00 -2.8291199022e+00 1.6333931371e+00 2.8291199022e+00 
10800 5.8481468875e+00 -3.3872225313e-03 1.6335047732e+00 -2.8293132616e+00 1.6335047732e+00 2.8293132616e+00 
10900 5.8481565551e+00 -3.1355954604e-03 1.6336084539e+00 -2.8294928419e+00 1.6336084539e+00 2.8294928419e+00 
11000 5.8481654783e+00 -2.8921576171e-03 1.6337044263e+00 -2.8296590709e+00 1.6337044263e+00 2.8296590709e+00 
11100 5.8481736521e+00 -2.6570536006e-03 1.6337929424e+00 -2.8298123853e+00 1.6337929424e+00 2.8298123853e+00 
11200 5.8481810784e+00 -2.4304051677e-03 1.6338742586e+00 -2.8299532291e+00 1.6338742586e+00 2.8299532291e+00 
11300 5.8481877643e+00 -2.2123118837e-03 1.6339486347e+00 -2.8300820522e+00 1.6339486347e+00 2.8300820522e+00 
11400 5.8481937228e+00 -2.0028517949e-03 1.6340163335e+00 -2.8301993100e+00 1.6340163335e+00 2.8301993100e+00 
11500 5.8481989713e+00 -1.8020821186e-03 1.6340776200e+00 -2.8303054614e+00 1.6340776200e+00 2.8303054614e+00 
11600 5.8482035316e+00 -1.6100399507e-03 1.6341327610e+00 -2.8304009684e+00 1.6341327610e+00 2.8304009684e+00 
11700 5.8482074292e+00 -1.4267429866e-03 1.6341820241e+00 -2.8304862945e+00 1.6341820241e+00 2.8304862945e+00 
11800 5.8482106929e+00 -1.2521902564e-03 1.6342256774e+00 -2.8305619043e+00 1.6342256774e+00 2.8305619043e+00 
11900 5.8482133544e+00 -1.0863628688e-03 1.6342639890e+00 -2.8306282619e+00 1.6342639890e+00 2.8306282619e+00 
12000 5.8482154476e+00 -9.2922476494e-04 1.6342972261e+00 -2.8306858303e+00 1.6342972261e+00 2.8306858303e+00 
12100 5.8482170086e+00 -7.8072347842e-04 1.6343256551e+00 -2.8307350707e+00 1.6343256551e+00 2.8307350707e+00 
12200 5.8482180747e+00 -6.4079090017e-04 1.6343495403e+00 -2.8307764412e+00 1.6343495403e+00 2.8307764412e+00 
12300 5.8482186846e+00 -5.0934404624e-04 1.6343691442e+00 -2.8308103961e+00 1.6343691442e+00 2.8308103961e+00 
12400 5.8482188776e+00 -3.8628582675e-04 1.6343847265e+00 -2.8308373855e+00 1.6343847265e+00 2.8308373855e+00 
12500 5.8482186936e+00 -2.7150581414e-04 1.6343965440e+00 -2.8308578540e+00 1.6343965440e+00 2.8308578540e+00 
12600 5.8482181724e+00 -1.6488100905e-04 1.6344048500e+00 -2.8308722404e+00 1.6344048500e+00 2.8308722404e+00 
12700 5.8482173538e+00 -6.6276602318e-05 1.6344098941e+00 -2.8308809770e+00 1.6344098941e+00 2.8308809770e+00 
12800 5.8482162766e+00 2.2142830950e-05 1.6344098941e+00 -2.8308809770e+00 1.6344098941e+00 2.8308809770e+00 
12900 5.8482149798e+00 1.0599158207e-04 1.6344098941e+00 -2.8308809770e+00 1.6344098941e+00 2.8308809770e+00 
13000 5.8482135008e+00 1.8149178355e-04 1.6344066516e+00 -2.8308753608e+00 1.6344066516e+00 2.8308753608e+00 
13100 5.8482118761e+00 2.4961264720e-04 1.6344010994e+00 -2.8308657441e+00 1.6344010994e+00 2.8308657441e+00 
13200 5.8482101406e+00 3.1053691158e-04 1.6343934632e+00 -2.8308525178e+00 1.6343934632e+00 2.8308525178e+00 
13300 5.8482083281e+00 3.6445471704e-04 1.6343839631e+00 -2.8308360632e+00 1.6343839631e+00 2.8308360632e+00 
13400 5.8482064703e+00 4.1156291191e-04 1.6343728135e+00 -2.8308167515e+00 1.6343728135e+00 2.8308167515e+00 
13500 5.8482045975e+00 4.5206437330e-04 1.6343602227e+00 -2.8307949436e+00 1.6343602227e+00 2.8307949436e+00 
13600 5.8482027380e+00 4.8616734324e-04 1.6343463927e+00 -2.8307709893e+00 1.6343463927e+00 2.8307709893e+00 
13700 5.8482009181e+00 5.1408478120e-04 1.6343315193e+00 -2.8307452278e+00 1.6343315193e+00 2.8307452278e+00 
13800 5.8481991624e+00 5.3603373369e-04 1.6343157916e+00 -2.8307179867e+00 1.6343157916e+00 2.8307179867e+00 
13900 5.8481974932e+00 5.5223472176e-04 1.6342993923e+00 -2.8306895823e+00 1.6342993923e+00 2.8306895823e+00 
14000 5.8481959308e+00 5.6291114686e-04 1.6342824972e+00 -2.8306603191e+00 1.6342824972e+00 2.8306603191e+00 
14100 5.8481944935e+00 5.6828871578e-04 1.6342652753e+00 -2.8306304898e+00 1.6342652753e+00 2.8306304898e+00 
14200 5.8481931977e+00 5.6859488505e-04 1.6342478886e+00 -2.8306003752e+00 1.6342478886e+00 2.8306003752e+00 
14300 5.8481920574e+00 5.6405832527e-04 1.6342304924e+00 -2.8305702442e+00 1.6342304924e+00 2.8305702442e+00 
14400 5.8481910850e+00 5.5490840560e-04 1.6342132348e+00 -2.8305403531e+00 1.6342132348e+00 2.8305403531e+00 
14500 5.8481902906e+00 5.4137469878e-04 1.6341962570e+00 -2.8305109467e+00 1.6341962570e+00 2.8305109467e+00 
14600 5.8481896828e+00 5.2368650686e-04 1.6341796931e+00 -2.8304822572e+00 1.6341796931e+00 2.8304822572e+00 
14700 5.8481892680e+00 5.0207240768e-04 1.6341636702e+00 -2.8304545047e+00 1.6341636702e+00 2.8304545047e+00 
14800 5.8481890510e+00 4.7675982224e-04 1.6341483085e+00 -2.8304278974e+00 1.6341483085e+00 2.8304278974e+00 
14900 5.8481890349e+00 4.4797460307e-04 1.6341337211e+00 -2.8304026313e+00 1.6341337211e+00 2.8304026313e+00 
15000 5.8481892212e+00 4.1594064329e-04 1.6341200143e+00 -2.8303788905e+00 1.6341200143e+00 2.8303788905e+00 
15100 5.8481896100e+00 3.8087950655e-04 1.6341072876e+00 -2.8303568471e+00 1.6341072876e+00 2.8303568471e+00 
15200 5.8481901997e+00 3.4301007759e-04 1.6340956336e+00 -2.8303366617e+00 1.6340956336e+00 2.8303366617e+00 
15300 5.8481909878e+00 3.0254823312e-04 1.6340851382e+00 -2.8303184832e+00 1.6340851382e+00 2.8303184832e+00 
15400 5.8481919702e+00 2.5970653305e-04 1.6340758807e+00 -2.8303024489e+00 1.6340758807e+00 2.8303024489e+00 
15500 5.8481931418e+00 2.1469393153e-04 1.6340679342e+00 -2.8302886850e+00 1.6340679342e+00 2.8302886850e+00 
15600 5.8481944967e+00 1.6771550773e-04 1.6340613649e+00 -2.8302773066e+00 1.6340613649e+00 2.8302773066e+00 
15700 5.8481960278e+00 1.1897221578e-04 1.6340562330e+00 -2.8302684180e+00 1.6340562330e+00 2.8302684180e+00 
15800 5.8481977273e+00 6.8660653771e-05 1.6340525926e+00 -2.8302621126e+00 1.6340525926e+00 2.8302621126e+00 
15900 5.8481995867e+00 1.9374799999e-05 1.6340525926e+00 -2.8302621126e+00 1.6340525926e+00 2.8302621126e+00 
16000 5.8482015966e+00 -3.2892511653e-05 1.6340525926e+00 -2.8302621126e+00 1.6340525926e+00 2.8302621126e+00 
16100 5.8482037478e+00 -8.8011997285e-05 1.6340525926e+00 -2.8302621126e+00 1.6340525926e+00 2.8302621126e+00 
16200 5.8482060302e+00 -1.4277488594e-04 1.6340552857e+00 -2.8302667772e+00 1.6340552857e+00 2.8302667772e+00 
16300 5.8482084334e+00 -1.9819371336e-04 1.6340596544e+00 -2.8302743440e+00 1.6340596544e+00 2.8302743440e+00 
16400 5.8482109467e+00 -2.5410193353e-04 1.6340657189e+00 -2.8302848480e+00 1.6340657189e+00 2.8302848480e+00 
16500 5.8482135593e+00 -3.1033847557e-04 1.6340734940e+00 -2.8302983149e+00 1.6340734940e+00 2.8302983149e+00 
16600 5.8482162605e+00 -3.6674783932e-04 1.6340829899e+00 -2.8303147622e+00 1.6340829899e+00 2.8303147622e+00 
16700 5.8482190392e+00 -4.2318017626e-04 1.6340942117e+00 -2.8303341990e+00 1.6340942117e+00 2.8303341990e+00 
16800 5.8482218848e+00 -4.7949135612e-04 1.6341071602e+00 -2.8303566265e+00 1.6341071602e+00 2.8303566265e+00 
16900 5.8482247864e+00 -5.3554301981e-04 1.6341218316e+00 -2.8303820380e+00 1.6341218316e+00 2.8303820380e+00 
17000 5.8482277335e+00 -5.9120261914e-04 1.6341382179e+00 -2.8304104199e+00 1.6341382179e+00 2.8304104199e+00 
17100 5.8482307159e+00 -6.4634344386e-04 1.6341563070e+00 -2.8304417513e+00 1.6341563070e+00 2.8304417513e+00 
17200 5.8482337235e+00 -7.0084463659e-04 1.6341760831e+00 -2.8304760045e+00 1.6341760831e+00 2.8304760045e+00 
17300 5.8482367466e+00 -7.5459119610e-04 1.6341975265e+00 -2.8305131456e+00 1.6341975265e+00 2.8305131456e+00 
17400 5.8482397760e+00 -8.0747396944e-04 1.6342206141e+00 -2.8305531344e+00 1.6342206141e+00 2.8305531344e+00 
17500 5.8482428027e+00 -8.5938963357e-04 1.6342453193e+00 -2.8305959251e+00 1.6342453193e+00 2.8305959251e+00 
17600 5.8482458182e+00 -9.1024066680e-04 1.6342716126e+00 -2.8306414663e+00 1.6342716126e+00 2.8306414663e+00 
17700 5.8482488144e+00 -9.5993531073e-04 1.6342994612e+00 -2.8306897015e+00 1.6342994612e+00 2.8306897015e+00 
17800 5.8482517839e+00 -1.0083875230e-03 1.6343288296e+00 -2.8307405692e+00 1.6343288296e+00 2.8307405692e+00 
17900 5.8482547196e+00 -1.0555169215e-03 1.6343596799e+00 -2.8307940035e+00 1.6343596799e+00 2.8307940035e+00 
18000 5.8482576148e+00 -1.1012487206e-03 1.6343919715e+00 -2.8308499341e+00 1.6343919715e+00 2.8308499341e+00 
18100 5.8482604636e+00 -1.1455136591e-03 1.6344256615e+00 -2.8309082869e+00 1.6344256615e+00 2.8309082869e+00 
18200 5.8482632605e+00 -1.1882479219e-03 1.6344607049e+00 -2.8309689839e+00 1.6344607049e+00 2.8309689839e+00 
18300 5.8482660004e+00 -1.2293930543e-03 1.6344970549e+00 -2.8310319439e+00 1.6344970549e+00 2.8310319439e+00 
18400 5.8482686787e+00 -1.2688958700e-03 1.6345346627e+00 -2.8310970826e+00 1.6345346627e+00 2.8310970826e+00 
18500 5.8482712917e+00 -1.3067083534e-03 1.6345734781e+00 -2.8311643127e+00 1.6345734781e+00 2.8311643127e+00 
18600 5.8482738357e+00 -1.3427875565e-03 1.6346134492e+00 -2.8312335447e+00 1.6346134492e+00 2.8312335447e+00 
18700 5.8482763078e+00 -1.3770954903e-03 1.6346545229e+00 -2.8313046865e+00 1.6346545229e+00 2.8313046865e+00 
18800 5.8482787055e+00 -1.4095990123e-03 1.6346966450e+00 -2.8313776441e+00 1.6346966450e+00 2.8313776441e+00 
18900 5.8482810268e+00 -1.4402697090e-03 1.6347397602e+00 -2.8314523218e+00 1.6347397602e+00 2.8314523218e+00 
19000 5.8482832700e+00 -1.4690837746e-03 1.6347838123e+00 -2.8315286224e+00 1.6347838123e+00 2.8315286224e+00 
19100 5.8482854341e+00 -1.4960218867e-03 1.6348287446e+00 -2.8316064473e+00 1.6348287446e+00 2.8316064473e+00 
19200 5.8482875182e+00 -1.5210690785e-03 1.6348744995e+00 -2.8316856971e+00 1.6348744995e+00 2.8316856971e+00 
19300 5.8482895220e+00 -1.5442146077e-03 1.6349210192e+00 -2.8317662716e+00 1.6349210192e+00 2.8317662716e+00 
19400 5.8482914456e+00 -1.5654518237e-03 1.6349682454e+00 -2.8318480697e+00 1.6349682454e+00 2.8318480697e+00 
19500 5.8482932892e+00 -1.5847780321e-03 1.6350161197e+00 -2.8319309905e+00 1.6350161197e+00 2.8319309905e+00 
19600 5.8482950536e+00 -1.6021943575e-03 1.6350645836e+00 -2.8320149324e+00 1.6350645836e+00 2.8320149324e+00 
19700 5.8482967397e+00 -1.6177056047e-03 1.6351135787e+00 -2.8320997944e+00 1.6351135787e+00 2.8320997944e+00 
19800 5.8482983488e+00 -1.6313201185e-03 1.6351630466e+00 -2.8321854754e+00 1.6351630466e+00 2.8321854754e+00 
19900 5.8482998823e+00 -1.6430496431e-03 1.6352129294e+00 -2.8322718748e+00 1.6352129294e+00 2.8322718748e+00 
20000 5.8483013420e+00 -1.6529091795e-03 1.6352631692e+00 -2.8323588929e+00 1.6352631692e+00 2.8323588929e+00 
20100 5.8483027299e+00 -1.6609168441e-03 1.6353137090e+00 -2.8324464304e+00 1.6353137090e+00 2.8324464304e+00 
20200 5.8483040479e+00 -1.6670937256e-03 1.6353644921e+00 -2.8325343892e+00 1.6353644921e+00 2.8325343892e+00 
20300 5.8483052984e+00 -1.6714637428e-03 1.6354154625e+00 -2.8326226725e+00 1.6354154625e+00 2.8326226725e+00 
20400 5.8483064838e+00 -1.6740535023e-03 1.6354665649e+00 -2.8327111844e+00 1.6354665649e+00 2.8327111844e+00 
20500 5.8483076065e+00 -1.6748921569e-03 1.6355177448e+00 -2.8327998307e+00 1.6355177448e+00 2.8327998307e+00 
20600 5.8483086692e+00 -1.6740112646e-03 1.6355689488e+00 -2.8328885186e+00 1.6355689488e+00 2.8328885186e+00 
20700 5.8483096744e+00 -1.6714446482e-03 1.6356201243e+00 -2.8329771571e+00 1.6356201243e+00 2.8329771571e+00 
20800 5.8483106250e+00 -1.6672282567e-03 1.6356712197e+00 -2.8330656570e+00 1.6356712197e+00 2.8330656570e+00 
20900 5.8483115236e+00 -1.6614000270e-03 1.6357221846e+00 -2.8331539308e+00 1.6357221846e+00 2.8331539308e+00 
21000 5.8483123731e+00 -1.6539997481e-03 1.6357729698e+00 -2.8332418933e+00 1.6357729698e+00 2.8332418933e+00 
21100 5.8483131762e+00 -1.6450689263e-03 1.6358235272e+00 -2.8333294613e+00 1.6358235272e+00 2.8333294613e+00 
21200 5.8483139356e+00 -1.6346506521e-03 1.6358738100e+00 -2.8334165537e+00 1.6358738100e+00 2.8334165537e+00 
21300 5.8483146540e+00 -1.6227894693e-03 1.6359237729e+00 -2.8335030919e+00 1.6359237729e+00 2.8335030919e+00 
21400 5.8483153342e+00 -1.6095312465e-03 1.6359733717e+00 -2.8335889996e+00 1.6359733717e+00 2.8335889996e+00 
21500 5.8483159788e+00 -1.5949230500e-03 1.6360225638e+00 -2.8336742028e+00 1.6360225638e+00 2.8336742028e+00 
21600 5.8483165903e+00 -1.5790130195e-03 1.6360713080e+00 -2.8337586302e+00 1.6360713080e+00 2.8337586302e+00 
21700 5.8483171712e+00 -1.5618502468e-03 1.6361195644e+00 -2.8338422129e+00 1.6361195644e+00 2.8338422129e+00 
21800 5.8483177240e+00 -1.5434846560e-03 1.6361672950e+00 -2.8339248846e+00 1.6361672950e+00 2.8339248846e+00 
21900 5.8483182509e+00 -1.5239668870e-03 1.6362144629e+00 -2.8340065818e+00 1.6362144629e+00 2.8340065818e+00 
22000 5.8483187542e+00 -1.5033481820e-03 1.6362610330e+00 -2.8340872436e+00 1.6362610330e+00 2.8340872436e+00 
22100 5.8483192360e+00 -1.4816802742e-03 1.6363069718e+00 -2.8341668119e+00 1.6363069718e+00 2.8341668119e+00 
22200 5.8483196984e+00 -1.4590152802e-03 1.6363522471e+00 -2.8342452311e+00 1.6363522471e+00 2.8342452311e+00 
22300 5.8483201432e+00 -1.4354055949e-03 1.6363968286e+00 -2.8343224485e+00 1.6363968286e+00 2.8343224485e+00 
22400 5.8483205723e+00 -1.4109037896e-03 1.6364406876e+00 -2.8343984144e+00 1.6364406876e+00 2.8343984144e+00 
22500 5.8483209874e+00 -1.3855625134e-03 1.6364837967e+00 -2.8344730816e+00 1.6364837967e+00 2.8344730816e+00 
22600 5.8483213900e+00 -1.3594343979e-03 1.6365261304e+00 -2.8345464057e+00 1.6365261304e+00 2.8345464057e+00 
22700 5.8483217817e+00 -1.3325719646e-03 1.6365676647e+00 -2.8346183453e+00 1.6365676647e+00 2.8346183453e+00 
22800 5.8483221638e+00 -1.3050275364e-03 1.6366083773e+00 -2.8346888615e+00 1.6366083773e+00 2.8346888615e+00 
22900 5.8483225375e+00 -1.2768531522e-03 1.6366482473e+00 -2.8347579185e+00 1.6366482473e+00 2.8347579185e+00 
23000 5.8483229040e+00 -1.2481004840e-03 1.6366872556e+00 -2.8348254829e+00 1.6366872556e+00 2.8348254829e+00 
23100 5.8483232643e+00 -1.2188207591e-03 1.6367253846e+00 -2.8348915242e+00 1.6367253846e+00 2.8348915242e+00 
23200 5.8483236195e+00 -1.1890646838e-03 1.6367626183e+00 -2.8349560148e+00 1.6367626183e+00 2.8349560148e+00 
23300 5.8483239701e+00 -1.1588823724e-03 1.6367989421e+00 -2.8350189295e+00 1.6367989421e+00 2.8350189295e+00 
23400 5.8483243172e+00 -1.1283232777e-03 1.6368343431e+00 -2.8350802459e+00 1.6368343431e+00 2.8350802459e+00 
23500 5.8483246612e+00 -1.0974361269e-03 1.6368688099e+00 -2.8351399440e+00 1.6368688099e+00 2.8351399440e+00 
23600 5.8483250027e+00 -1.0662688592e-03 1.6369023324e+00 -2.8351980068e+00 1.6369023324e+00 2.8351980068e+00 
23700 5.8483253422e+00 -1.0348685680e-03 1.6369349022e+00 -2.8352544193e+00 1.6369349022e+00 2.8352544193e+00 
23800 5.8483256801e+00 -1.0032814460e-03 1.6369665123e+00 -2.8353091696e+00 1.6369665123e+00 2.8353091696e+00 
23900 5.8483260167e+00 -9.7155273333e-04 1.6369971569e+00 -2.8353622476e+00 1.6369971569e+00 2.8353622476e+00 
24000 5.8483263522e+00 -9.3972667013e-04 1.6370268318e+00 -2.8354136461e+00 1.6370268318e+00 2.8354136461e+00 
24100 5.8483266868e+00 -9.0784645125e-04 1.6370555342e+00 -2.8354633600e+00 1.6370555342e+00 2.8354633600e+00 
24200 5.8483270207e+00 -8.7595418493e-04 1.6370832623e+00 -2.8355113865e+00 1.6370832623e+00 2.8355113865e+00 
24300 5.8483273538e+00 -8.4409085452e-04 1.6371100158e+00 -2.8355577250e+00 1.6371100158e+00 2.8355577250e+00 
24400 5.8483276862e+00 -8.1229628346e-04 1.6371357958e+00 -2.8356023772e+00 1.6371357958e+00 2.8356023772e+00 
24500 5.8483280179e+00 -7.8060910338e-04 1.6371606043e+00 -2.8356453469e+00 1.6371606043e+00 2.8356453469e+00 
24600 5.8483283487e+00 -7.4906672532e-04 1.6371844447e+00 -2.8356866396e+00 1.6371844447e+00 2.8356866396e+00 
24700 5.8483286787e+00 -7.1770531401e-04 1.6372073215e+00 -2.8357262633e+00 1.6372073215e+00 2.8357262633e+00 
24800 5.8483290075e+00 -6.8655976517e-04 1.6372292401e+00 -2.8357642275e+00 1.6372292401e+00 2.8357642275e+00 
24900 5.8483293350e+00 -6.5566368569e-04 1.6372502073e+00 -2.8358005437e+00 1.6372502073e+00 2.8358005437e+00 
25000 5.8483296611e+00 -6.2504937673e-04 1.6372702306e+00 -2.8358352252e+00 1.6372702306e+00 2.8358352252e+00 
25100 5.8483299855e+00 -5.9474781963e-04 1.6372893188e+00 -2.8358682869e+00 1.6372893188e+00 2.8358682869e+00 
25200 5.8483303080e+00 -5.6478866453e-04 1.6373074814e+00 -2.8358997454e+00 1.6373074814e+00 2.8358997454e+00 
25300 5.8483306284e+00 -5.3520022164e-04 1.6373247289e+00 -2.8359296190e+00 1.6373247289e+00 2.8359296190e+00 
25400 5.8483309463e+00 -5.0600945518e-04 1.6373410727e+00 -2.8359579272e+00 1.6373410727e+00 2.8359579272e+00 
25500 5.8483312616e+00 -4.7724197978e-04 1.6373565249e+00 -2.8359846912e+00 1.6373565249e+00 2.8359846912e+00 
25600 5.8483315739e+00 -4.4892205929e-04 1.6373710985e+00 -2.8360099334e+00 1.6373710985e+00 2.8360099334e+00 
25700 5.8483318830e+00 -4.2107260803e-04 1.6373848071e+00 -2.8360336775e+00 1.6373848071e+00 2.8360336775e+00 
25800 5.8483321887e+00 -3.9371519426e-04 1.6373976652e+00 -2.8360559483e+00 1.6373976652e+00 2.8360559483e+00 
25900 5.8483324907e+00 -3.6687004589e-04 1.6374096878e+00 -2.8360767721e+00 1.6374096878e+00 2.8360767721e+00 
26000 5.8483327887e+00 -3.4055605825e-04 1.6374208906e+00 -2.8360961759e+00 1.6374208906e+00 2.8360961759e+00 
26100 5.8483330826e+00 -3.1479080393e-04 1.6374312898e+00 -2.8361141878e+00 1.6374312898e+00 2.8361141878e+00 
26200 5.8483333720e+00 -2.8959054459e-04 1.6374409021e+00 -2.8361308368e+00 1.6374409021e+00 2.8361308368e+00 
26300 5.8483336569e+00 -2.6497024457e-04 1.6374497449e+00 -2.8361461530e+00 1.6374497449e+00 2.8361461530e+00 
26400 5.8483339369e+00 -2.4094358629e-04 1.6374578358e+00 -2.8361601669e+00 1.6374578358e+00 2.8361601669e+00 
26500 5.8483342119e+00 -2.1752298738e-04 1.6374651931e+00 -2.8361729101e+00 1.6374651931e+00 2.8361729101e+00 
26600 5.8483344818e+00 -1.9471961938e-04 1.6374718352e+00 -2.8361844145e+00 1.6374718352e+00 2.8361844145e+00 
26700 5.8483347464e+00 -1.7254342795e-04 1.6374777809e+00 -2.8361947128e+00 1.6374777809e+00 2.8361947128e+00 
26800 5.8483350056e+00 -1.5100315450e-04 1.6374830495e+00 -2.8362038382e+00 1.6374830495e+00 2.8362038382e+00 
26900 5.8483352592e+00 -1.3010635923e-04 1.6374876603e+00 -2.8362118244e+00 1.6374876603e+00 2.8362118244e+00 
27000 5.8483355071e+00 -1.0985944532e-04 1.6374916331e+00 -2.8362187054e+00 1.6374916331e+00 2.8362187054e+00 
27100 5.8483357493e+00 -9.0267684428e-05 1.6374949876e+00 -2.8362245156e+00 1.6374949876e+00 2.8362245156e+00 
27200 5.8483359858e+00 -7.1335243125e-05 1.6374977438e+00 -2.8362292896e+00 1.6374977438e+00 2.8362292896e+00 
27300 5.8483362164e+00 -5.3065210473e-05 1.6374999220e+00 -2.8362330623e+00 1.6374999220e+00 2.8362330623e+00 
27400 5.8483364412e+00 -3.7298313533e-05 1.6374999220e+00 -2.8362330623e+00 1.6374999220e+00 2.8362330623e+00 
27500 5.8483366600e+00 -2.1599334629e-05 1.6374999220e+00 -2.8362330623e+00 1.6374999220e+00 2.8362330623e+00 
27600 5.8483368729e+00 -5.9874571319e-06 1.6374999220e+00 -2.8362330623e+00 1.6374999220e+00 2.8362330623e+00 
27700 5.8483370799e+00 9.5190460125e-06 1.6374999220e+00 -2.8362330623e+00 1.6374999220e+00 2.8362330623e+00 
27800 5.8483372812e+00 2.4902800907e-05 1.6374999220e+00 -2.8362330623e+00 1.6374999220e+00 2.8362330623e+00 
27900 5.8483374767e+00 4.0147320586e-05 1.6374999220e+00 -2.8362330623e+00 1.6374999220e+00 2.8362330623e+00 
28000 5.8483376667e+00 5.5236992196e-05 1.6374999220e+00 -2.8362330623e+00 1.6374999220e+00 2.8362330623e+00 
28100 5.8483378511e+00 7.0157063507e-05 1.6374999220e+00 -2.8362330623e+00 1.6374999220e+00 2.8362330623e+00 
28200 5.8483380301e+00 8.4893628805e-05 1.6374999220e+00 -2.8362330623e+00 1.6374999220e+00 2.8362330623e+00 
28300 5.8483382035e+00 9.6491643357e-05 1.6374973298e+00 -2.8362285725e+00 1.6374973298e+00 2.8362285725e+00 
28400 5.8483383715e+00 1.0745889508e-04 1.6374943835e+00 -2.8362234694e+00 1.6374943835e+00 2.8362234694e+00 
28500 5.8483385344e+00 1.1780265790e-04 1.6374911023e+00 -2.8362177862e+00 1.6374911023e+00 2.8362177862e+00 
28600 5.8483386921e+00 1.2753087785e-04 1.6374875053e+00 -2.8362115559e+00 1.6374875053e+00 2.8362115559e+00 
28700 5.8483388448e+00 1.3665213906e-04 1.6374836112e+00 -2.8362048111e+00 1.6374836112e+00 2.8362048111e+00 
28800 5.8483389927e+00 1.4517562977e-04 1.6374794386e+00 -2.8361975839e+00 1.6374794386e+00 2.8361975839e+00 
28900 5.8483391359e+00 1.5311110849e-04 1.6374750057e+00 -2.8361899059e+00 1.6374750057e+00 2.8361899059e+00 
29000 5.8483392746e+00 1.6046887032e-04 1.6374703304e+00 -2.8361818082e+00 1.6374703304e+00 2.8361818082e+00 
29100 5.8483394089e+00 1.6725971352e-04 1.6374654305e+00 -2.8361733213e+00 1.6374654305e+00 2.8361733213e+00 
29200 5.8483395389e+00 1.7349490636e-04 1.6374603233e+00 -2.8361644753e+00 1.6374603233e+00 2.8361644753e+00 
29300 5.8483396648e+00 1.7918615432e-04 1.6374550256e+00 -2.8361552994e+00 1.6374550256e+00 2.8361552994e+00 
29400 5.8483397868e+00 1.8434556760e-04 1.6374495541e+00 -2.8361458226e+00 1.6374495541e+00 2.8361458226e+00 
29500 5.8483399050e+00 1.8898562915e-04 1.6374439251e+00 -2.8361360728e+00 1.6374439251e+00 2.8361360728e+00 
29600 5.8483400196e+00 1.9311916302e-04 1.6374381543e+00 -2.8361260775e+00 1.6374381543e+00 2.8361260775e+00 
29700 5.8483401307e+00 1.9675930334e-04 1.6374322573e+00 -2.8361158637e+00 1.6374322573e+00 2.8361158637e+00 
29800 5.8483402385e+00 1.9991946376e-04 1.6374262492e+00 -2.8361054572e+00 1.6374262492e+00 2.8361054572e+00 
29900 5.8483403431e+00 2.0261330741e-04 1.6374201445e+00 -2.8360948836e+00 1.6374201445e+00 2.8360948836e+00 
30000 5.8483404446e+00 2.0485471759e-04 1.6374139575e+00 -2.8360841675e+00 1.6374139575e+00 2.8360841675e+00 
30100 5.8483405433e+00 2.0665776895e-04 1.6374077021e+00 -2.8360733327e+00 1.6374077021e+00 2.8360733327e+00 
30200 5.8483406393e+00 2.0803669939e-04 1.6374013916e+00 -2.8360624026e+00 1.6374013916e+00 2.8360624026e+00 
30300 5.8483407326e+00 2.0900588262e-04 1.6373950389e+00 -2.8360513995e+00 1.6373950389e+00 2.8360513995e+00 
30400 5.8483408235e+00 2.0957980142e-04 1.6373886567e+00 -2.8360403451e+00 1.6373886567e+00 2.8360403451e+00 
30500 5.8483409120e+00 2.0977302164e-04 1.6373822569e+00 -2.8360292603e+00 1.6373822569e+00 2.8360292603e+00 
30600 5.8483409983e+00 2.0960016688e-04 1.6373758511e+00 -2.8360181652e+00 1.6373758511e+00 2.8360181652e+00 
30700 5.8483410825e+00 2.0907589401e-04 1.6373694506e+00 -2.8360070793e+00 1.6373694506e+00 2.8360070793e+00 
30800 5.8483411647e+00 2.0821486941e-04 1.6373630661e+00 -2.8359960210e+00 1.6373630661e+00 2.8359960210e+00 
30900 5.8483412450e+00 2.0703174599e-04 1.6373567079e+00 -2.8359850082e+00 1.6373567079e+00 2.8359850082e+00 
31000 5.8483413235e+00 2.0554114103e-04 1.6373503858e+00 -2.8359740579e+00 1.6373503858e+00 2.8359740579e+00 
31100 5.8483414003e+00 2.0375761481e-04 1.6373441091e+00 -2.8359631865e+00 1.6373441091e+00 2.8359631865e+00 
31200 5.8483414755e+00 2.0169565008e-04 1.6373378869e+00 -2.8359524093e+00 1.6373378869e+00 2.8359524093e+00 
31300 5.8483415492e+00 1.9936963231e-04 1.6373317277e+00 -2.8359417412e+00 1.6373317277e+00 2.8359417412e+00 
31400 5.8483416215e+00 1.9679383078e-04 1.6373256394e+00 -2.8359311961e+00 1.6373256394e+00 2.8359311961e+00 
31500 5.8483416924e+00 1.9398238051e-04 1.6373196298e+00 -2.8359207871e+00 1.6373196298e+00 2.8359207871e+00 
31600 5.8483417620e+00 1.9094926503e-04 1.6373137061e+00 -2.8359105268e+00 1.6373137061e+00 2.8359105268e+00 
31700 5.8483418304e+00 1.8770829991e-04 1.6373078749e+00 -2.8359004269e+00 1.6373078749e+00 2.8359004269e+00 
31800 5.8483418976e+00 1.8427311720e-04 1.6373021427e+00 -2.8358904984e+00 1.6373021427e+00 2.8358904984e+00 
31900 5.8483419637e+00 1.8065715065e-04 1.6372965153e+00 -2.8358807516e+00 1.6372965153e+00 2.8358807516e+00 
32000 5.8483420287e+00 1.7687362177e-04 1.6372909984e+00 -2.8358711960e+00 1.6372909984e+00 2.8358711960e+00 
32100 5.8483420927e+00 1.7293552664e-04 1.6372855970e+00 -2.8358618405e+00 1.6372855970e+00 2.8358618405e+00 
32200 5.8483421557e+00 1.6885562367e-04 1.6372803158e+00 -2.8358526933e+00 1.6372803158e+00 2.8358526933e+00 
32300 5.8483422177e+00 1.6464642199e-04 1.6372751592e+00 -2.8358437618e+00 1.6372751592e+00 2.8358437618e+00 
32400 5.8483422789e+00 1.6032017076e-04 1.6372701312e+00 -2.8358350529e+00 1.6372701312e+00 2.8358350529e+00 
32500 5.8483423391e+00 1.5588884918e-04 1.6372652352e+00 -2.8358265729e+00 1.6372652352e+00 2.8358265729e+00 
32600 5.8483423985e+00 1.5136415734e-04 1.6372604746e+00 -2.8358183272e+00 1.6372604746e+00 2.8358183272e+00 
32700 5.8483424571e+00 1.4675750776e-04 1.6372558521e+00 -2.8358103208e+00 1.6372558521e+00 2.8358103208e+00 
32800 5.8483425148e+00 1.4208001773e-04 1.6372513703e+00 -2.8358025581e+00 1.6372513703e+00 2.8358025581e+00 
32900 5.8483425717e+00 1.3734250237e-04 1.6372470313e+00 -2.8357950428e+00 1.6372470313e+00 2.8357950428e+00 
33000 5.8483426279e+00 1.3255546837e-04 1.6372428370e+00 -2.8357877780e+00 1.6372428370e+00 2.8357877780e+00 
33100 5.8483426832e+00 1.2772910850e-04 1.6372387889e+00 -2.8357807665e+00 1.6372387889e+00 2.8357807665e+00 
33200 5.8483427378e+00 1.2287329675e-04 1.6372348881e+00 -2.8357740102e+00 1.6372348881e+00 2.8357740102e+00 
33300 5.8483427917e+00 1.1799758418e-04 1.6372311357e+00 -2.8357675107e+00 1.6372311357e+00 2.8357675107e+00 
33400 5.8483428447e+00 1.1311119542e-04 1.6372275321e+00 -2.8357612691e+00 1.6372275321e+00 2.8357612691e+00 
33500 5.8483428971e+00 1.0822302576e-04 1.6372240777e+00 -2.8357552860e+00 1.6372240777e+00 2.8357552860e+00 
33600 5.8483429486e+00 1.0334163897e-04 1.6372207727e+00 -2.8357495615e+00 1.6372207727e+00 2.8357495615e+00 
33700 5.8483429995e+00 9.8475265590e-05 1.6372176167e+00 -2.8357440951e+00 1.6372176167e+00 2.8357440951e+00 
33800 5.8483430496e+00 9.3631801917e-05 1.6372146093e+00 -2.8357388861e+00 1.6372146093e+00 2.8357388861e+00 
33900 5.8483430989e+00 8.8818809491e-05 1.6372117498e+00 -2.8357339334e+00 1.6372117498e+00 2.8357339334e+00 
34000 5.8483431475e+00 8.4043515147e-05 1.6372090373e+00 -2.8357292352e+00 1.6372090373e+00 2.8357292352e+00 
34100 5.8483431954e+00 7.9312811611e-05 1.6372064706e+00 -2.8357247896e+00 1.6372064706e+00 2.8357247896e+00 
34200 5.8483432425e+00 7.4633258575e-05 1.6372040484e+00 -2.8357205942e+00 1.6372040484e+00 2.8357205942e+00 
34300 5.8483432889e+00 7.0011084294e-05 1.6372017691e+00 -2.8357166464e+00 1.6372017691e+00 2.8357166464e+00 
34400 5.8483433347e+00 6.7880012555e-05 1.6372017691e+00 -2.8357166464e+00 1.6372017691e+00 2.8357166464e+00 
34500 5.8483433797e+00 6.5676104480e-05 1.6372017691e+00 -2.8357166464e+00 1.6372017691e+00 2.8357166464e+00 
34600 5.8483434239e+00 6.3406245382e-05 1.6372017691e+00 -2.8357166464e+00 1.6372017691e+00 2.8357166464e+00 
34700 5.8483434674e+00 6.1077142089e-05 1.6372017691e+00 -2.8357166464e+00 1.6372017691e+00 2.8357166464e+00 
34800 5.8483435101e+00 5.8695320503e-05 1.6372017691e+00 -2.8357166464e+00 1.6372017691e+00 2.8357166464e+00 
34900 5.8483435520e+00 5.6267123469e-05 1.6372017691e+00 -2.8357166464e+00 1.6372017691e+00 2.8357166464e+00 
35000 5.8483435931e+00 5.3798709005e-05 1.6372017691e+00 -2.8357166464e+00 1.6372017691e+00 2.8357166464e+00 
35100 5.8483436335e+00 5.1296048832e-05 1.6372017691e+00 -2.8357166464e+00 1.6372017691e+00 2.8357166464e+00 
35200 5.8483436731e+00 4.8764927222e-05 1.6372017691e+00 -2.8357166464e+00 1.6372017691e+00 2.8357166464e+00 
35300 5.8483437120e+00 4.6210940162e-05 1.6372017691e+00 -2.8357166464e+00 1.6372017691e+00 2.8357166464e+00 
35400 5.8483437501e+00 4.3639494781e-05 1.6372017691e+00 -2.8357166464e+00 1.6372017691e+00 2.8357166464e+00 
35500 5.8483437875e+00 4.1055809091e-05 1.6372017691e+00 -2.8357166464e+00 1.6372017691e+00 2.8357166464e+00 
35600 5.8483438241e+00 3.8464911972e-05 1.6372017691e+00 -2.8357166464e+00 1.6372017691e+00 2.8357166464e+00 
35700 5.8483438600e+00 3.5871643441e-05 1.6372017691e+00 -2.8357166464e+00 1.6372017691e+00 2.8357166464e+00 
35800 5.8483438952e+00 3.3280655152e-05 1.6372017691e+00 -2.8357166464e+00 1.6372017691e+00 2.8357166464e+00 
35900 5.8483439297e+00 3.0696411154e-05 1.6372017691e+00 -2.8357166464e+00 1.6372017691e+00 2.8357166464e+00 
36000 5.8483439635e+00 2.8123188872e-05 1.6372017691e+00 -2.8357166464e+00 1.6372017691e+00 2.8357166464e+00 
36100 5.8483439966e+00 2.5565080312e-05 1.6372017691e+00 -2.8357166464e+00 1.6372017691e+00 2.8357166464e+00 
36200 5.8483440290e+00 2.3025993473e-05 1.6372017691e+00 -2.8357166464e+00 1.6372017691e+00 2.8357166464e+00 
36300 5.8483440607e+00 2.0509653966e-05 1.6372017691e+00 -2.8357166464e+00 1.6372017691e+00 2.8357166464e+00 
36400 5.8483440918e+00 1.8019606827e-05 1.6372017691e+00 -2.8357166464e+00 1.6372017691e+00 2.8357166464e+00 
36500 5.8483441222e+00 1.5559218500e-05 1.6372017691e+00 -2.8357166464e+00 1.6372017691e+00 2.8357166464e+00 
36600 5.8483441520e+00 1.3131679005e-05 1.6372017691e+00 -2.8357166464e+00 1.6372017691e+00 2.8357166464e+00 
36700 5.8483441811e+00 1.0740004261e-05 1.6372017691e+00 -2.8357166464e+00 1.6372017691e+00 2.8357166464e+00 
36800 5.8483442097e+00 8.3870385743e-06 1.6372017691e+00 -2.8357166464e+00 1.6372017691e+00 2.8357166464e+00 
36900 5.8483442376e+00 6.0754572538e-06 1.6372017691e+00 -2.8357166464e+00 1.6372017691e+00 2.8357166464e+00 
37000 5.8483442649e+00 3.8077693780e-06 1.6372017691e+00 -2.8357166464e+00 1.6372017691e+00 2.8357166464e+00 
37100 5.8483442917e+00 1.5863206746e-06 1.6372017691e+00 -2.8357166464e+00 1.6372017691e+00 2.8357166464e+00 
37200 5.8483443178e+00 -5.8670346596e-07 1.6372017691e+00 -2.8357166464e+00 1.6372017691e+00 2.8357166464e+00 
37300 5.8483443435e+00 -2.7092748829e-06 1.6372017691e+00 -2.8357166464e+00 1.6372017691e+00 2.8357166464e+00 
37400 5.8483443686e+00 -4.7795194296e-06 1.6372017691e+00 -2.8357166464e+00 1.6372017691e+00 2.8357166464e+00 
37500 5.8483443931e+00 -6.7957136624e-06 1.6372017691e+00 -2.8357166464e+00 1.6372017691e+00 2.8357166464e+00 
37600 5.8483444171e+00 -8.7562814528e-06 1.6372017691e+00 -2.8357166464e+00 1.6372017691e+00 2.8357166464e+00 
37700 5.8483444407e+00 -1.0659790519e-05 1.6372017691e+00 -2.8357166464e+00 1.6372017691e+00 2.8357166464e+00 
37800 5.8483444637e+00 -1.2504948888e-05 1.6372017691e+00 -2.8357166464e+00 1.6372017691e+00 2.8357166464e+00 
37900 5.8483444863e+00 -1.4290601297e-05 1.6372017691e+00 -2.8357166464e+00 1.6372017691e+00 2.8357166464e+00 
38000 5.8483445083e+00 -1.6015725538e-05 1.6372017691e+00 -2.8357166464e+00 1.6372017691e+00 2.8357166464e+00 
38100 5.8483445300e+00 -1.7679428766e-05 1.6372017691e+00 -2.8357166464e+00 1.6372017691e+00 2.8357166464e+00 
38200 5.8483445511e+00 -1.9280943756e-05 1.6372017691e+00 -2.8357166464e+00 1.6372017691e+00 2.8357166464e+00 
38300 5.8483445719e+00 -2.0819625124e-05 1.6372017691e+00 -2.8357166464e+00 1.6372017691e+00 2.8357166464e+00 
38400 5.8483445922e+00 -2.2294945541e-05 1.6372017691e+00 -2.8357166464e+00 1.6372017691e+00 2.8357166464e+00 
38500 5.8483446121e+00 -2.3706491904e-05 1.6372017691e+00 -2.8357166464e+00 1.6372017691e+00 2.8357166464e+00 
38600 5.8483446316e+00 -2.5053961505e-05 1.6372017691e+00 -2.8357166464e+00 1.6372017691e+00 2.8357166464e+00 
38700 5.8483446507e+00 -2.6337158188e-05 1.6372017691e+00 -2.8357166464e+00 1.6372017691e+00 2.8357166464e+00 
38800 5.8483446694e+00 -2.7555988509e-05 1.6372017691e+00 -2.8357166464e+00 1.6372017691e+00 2.8357166464e+00 
38900 5.8483446878e+00 -2.8710457890e-05 1.6372017691e+00 -2.8357166464e+00 1.6372017691e+00 2.8357166464e+00 
39000 5.8483447058e+00 -2.9800666783e-05 1.6372017691e+00 -2.8357166464e+00 1.6372017691e+00 2.8357166464e+00 
39100 5.8483447234e+00 -3.0826806860e-05 1.6372017691e+00 -2.8357166464e+00 1.6372017691e+00 2.8357166464e+00 
39200 5.8483447407e+00 -3.1789157196e-05 1.6372017691e+00 -2.8357166464e+00 1.6372017691e+00 2.8357166464e+00 
39300 5.8483447577e+00 -3.2688080504e-05 1.6372017691e+00 -2.8357166464e+00 1.6372017691e+00 2.8357166464e+00 
39400 5.8483447743e+00 -3.3524019372e-05 1.6372017691e+00 -2.8357166464e+00 1.6372017691e+00 2.8357166464e+00 
39500 5.8483447906e+00 -3.4297492549e-05 1.6372017691e+00 -2.8357166464e+00 1.6372017691e+00 2.8357166464e+00 
39600 5.8483448066e+00 -3.5009091251e-05 1.6372017691e+00 -2.8357166464e+00 1.6372017691e+00 2.8357166464e+00 
39700 5.8483448224e+00 -3.5659475526e-05 1.6372017691e+00 -2.8357166464e+00 1.6372017691e+00 2.8357166464e+00 
39800 5.8483448378e+00 -3.6249370641e-05 1.6372017691e+00 -2.8357166464e+00 1.6372017691e+00 2.8357166464e+00 
39900 5.8483448529e+00 -3.6779563531e-05 1.6372017691e+00 -2.8357166464e+00 1.6372017691e+00 2.8357166464e+00 
40000 5.8483448678e+00 -3.7250899288e-05 1.6372017691e+00 -2.8357166464e+00 1.6372017691e+00 2.8357166464e+00 
40100 5.8483448824e+00 -3.7664277712e-05 1.6372017691e+00 -2.8357166464e+00 1.6372017691e+00 2.8357166464e+00 
40200 5.8483448967e+00 -3.8020649903e-05 1.6372017691e+00 -2.8357166464e+00 1.6372017691e+00 2.8357166464e+00 
40300 5.8483449108e+00 -3.8321014926e-05 1.6372017691e+00 -2.8357166464e+00 1.6372017691e+00 2.8357166464e+00 
40400 5.8483449246e+00 -3.8566416529e-05 1.6372017691e+00 -2.8357166464e+00 1.6372017691e+00 2.8357166464e+00 
40500 5.8483449381e+00 -3.8757939932e-05 1.6372017691e+00 -2.8357166464e+00 1.6372017691e+00 2.8357166464e+00 
40600 5.8483449515e+00 -3.8896708663e-05 1.6372017691e+00 -2.8357166464e+00 1.6372017691e+00 2.8357166464e+00 
40700 5.8483449646e+00 -3.8983881481e-05 1.6372017691e+00 -2.8357166464e+00 1.6372017691e+00 2.8357166464e+00 
40800 5.8483449774e+00 -3.9020649360e-05 1.6372017691e+00 -2.8357166464e+00 1.6372017691e+00 2.8357166464e+00 
40900 5.8483449901e+00 -3.9008232544e-05 1.6372017691e+00 -2.8357166464e+00 1.6372017691e+00 2.8357166464e+00 
41000 5.8483450025e+00 -3.8947877669e-05 1.6372017691e+00 -2.8357166464e+00 1.6372017691e+00 2.8357166464e+00 
41100 5.8483450147e+00 -3.8840854966e-05 1.6372017691e+00 -2.8357166464e+00 1.6372017691e+00 2.8357166464e+00 
41200 5.8483450267e+00 -3.8688455538e-05 1.6372017691e+00 -2.8357166464e+00 1.6372017691e+00 2.8357166464e+00 
41300 5.8483450385e+00 -3.8491988705e-05 1.6372017691e+00 -2.8357166464e+00 1.6372017691e+00 2.8357166464e+00 
41400 5.8483450501e+00 -3.8252779434e-05 1.6372017691e+00 -2.8357166464e+00 1.6372017691e+00 2.8357166464e+00 
41500 5.8483450615e+00 -3.7972165841e-05 1.6372017691e+00 -2.8357166464e+00 1.6372017691e+00 2.8357166464e+00 
41600 5.8483450727e+00 -3.7651496773e-05 1.6372017691e+00 -2.8357166464e+00 1.6372017691e+00 2.8357166464e+00 
41700 5.8483450837e+00 -3.7292129468e-05 1.6372017691e+00 -2.8357166464e+00 1.6372017691e+00 2.8357166464e+00 
41800 5.8483450945e+00 -3.6895427286e-05 1.6372017691e+00 -2.8357166464e+00 1.6372017691e+00 2.8357166464e+00 
41900 5.8483451052e+00 -3.6462757537e-05 1.6372017691e+00 -2.8357166464e+00 1.6372017691e+00 2.8357166464e+00 
42000 5.8483451156e+00 -3.5995489370e-05 1.6372017691e+00 -2.8357166464e+00 1.6372017691e+00 2.8357166464e+00 
42100 5.8483451259e+00 -3.5494991744e-05 1.6372017691e+00 -2.8357166464e+00 1.6372017691e+00 2.8357166464e+00 
42200 5.8483451360e+00 -3.4962631485e-05 1.6372017691e+00 -2.8357166464e+00 1.6372017691e+00 2.8357166464e+00 
42300 5.8483451460e+00 -3.4399771417e-05 1.6372017691e+00 -2.8357166464e+00 1.6372017691e+00 2.8357166464e+00 
42400 5.8483451558e+00 -3.3807768565e-05 1.6372017691e+00 -2.8357166464e+00 1.6372017691e+00 2.8357166464e+00 
42500 5.8483451654e+00 -3.3187972450e-05 1.6372017691e+00 -2.8357166464e+00 1.6372017691e+00 2.8357166464e+00 
42600 5.8483451748e+00 -3.2541723447e-05 1.6372017691e+00 -2.8357166464e+00 1.6372017691e+00 2.8357166464e+00 
42700 5.8483451841e+00 -3.1870351221e-05 1.6372017691e+00 -2.8357166464e+00 1.6372017691e+00 2.8357166464e+00 
42800 5.8483451932e+00 -3.1175173252e-05 1.6372017691e+00 -2.8357166464e+00 1.6372017691e+00 2.8357166464e+00 
42900 5.8483452022e+00 -3.0457493416e-05 1.6372017691e+00 -2.8357166464e+00 1.6372017691e+00 2.8357166464e+00 
43000 5.8483452111e+00 -2.9718600655e-05 1.6372017691e+00 -2.8357166464e+00 1.6372017691e+00 2.8357166464e+00 
43100 5.8483452197e+00 -2.8959767709e-05 1.6372017691e+00 -2.8357166464e+00 1.6372017691e+00 2.8357166464e+00 
43200 5.8483452283e+00 -2.8182249931e-05 1.6372017691e+00 -2.8357166464e+00 1.6372017691e+00 2.8357166464e+00 
43300 5.8483452367e+00 -2.7387284161e-05 1.6372017691e+00 -2.8357166464e+00 1.6372017691e+00 2.8357166464e+00 
43400 5.8483452449e+00 -2.6576087679e-05 1.6372017691e+00 -2.8357166464e+00 1.6372017691e+00 2.8357166464e+00 
43500 5.8483452530e+00 -2.5749857223e-05 1.6372017691e+00 -2.8357166464e+00 1.6372017691e+00 2.8357166464e+00 
43600 5.8483452610e+00 -2.4909768074e-05 1.6372017691e+00 -2.8357166464e+00 1.6372017691e+00 2.8357166464e+00 
43700 5.8483452688e+00 -2.4056973208e-05 1.6372017691e+00 -2.8357166464e+00 1.6372017691e+00 2.8357166464e+00 
43800 5.8483452765e+00 -2.3192602514e-05 1.6372017691e+00 -2.8357166464e+00 1.6372017691e+00 2.8357166464e+00 
43900 5.8483452841e+00 -2.2317762067e-05 1.6372017691e+00 -2.8357166464e+00 1.6372017691e+00 2.8357166464e+00 
44000 5.8483452915e+00 -2.1433533481e-05 1.6372017691e+00 -2.8357166464e+00 1.6372017691e+00 2.8357166464e+00 
44100 5.8483452988e+00 -2.0540973301e-05 1.6372017691e+00 -2.8357166464e+00 1.6372017691e+00 2.8357166464e+00 
44200 5.8483453060e+00 -1.9641112470e-05 1.6372017691e+00 -2.8357166464e+00 1.6372017691e+00 2.8357166464e+00 
44300 5.8483453131e+00 -1.8734955843e-05 1.6372017691e+00 -2.8357166464e+00 1.6372017691e+00 2.8357166464e+00 
44400 5.8483453200e+00 -1.7823481766e-05 1.6372017691e+00 -2.8357166464e+00 1.6372017691e+00 2.8357166464e+00 
44500 5.8483453269e+00 -1.6907641700e-05 1.6372017691e+00 -2.8357166464e+00 1.6372017691e+00 2.8357166464e+00 
44600 5.8483453336e+00 -1.5988359910e-05 1.6372017691e+00 -2.8357166464e+00 1.6372017691e+00 2.8357166464e+00 
44700 5.8483453402e+00 -1.5066533187e-05 1.6372017691e+00 -2.8357166464e+00 1.6372017691e+00 2.8357166464e+00 
44800 5.8483453467e+00 -1.4143030642e-05 1.6372017691e+00 -2.8357166464e+00 1.6372017691e+00 2.8357166464e+00 
44900 5.8483453530e+00 -1.3218693526e-05 1.6372017691e+00 -2.8357166464e+00 1.6372017691e+00 2.8357166464e+00 
45000 5.8483453593e+00 -1.2294335115e-05 1.6372017691e+00 -2.8357166464e+00 1.6372017691e+00 2.8357166464e+00 
45100 5.8483453654e+00 -1.1370740628e-05 1.6372017691e+00 -2.8357166464e+00 1.6372017691e+00 2.8357166464e+00 
45200 5.8483453715e+00 -1.0448667189e-05 1.6372017691e+00 -2.8357166464e+00 1.6372017691e+00 2.8357166464e+00 
45300 5.8483453774e+00 -9.5288438394e-06 1.6372017691e+00 -2.8357166464e+00 1.6372017691e+00 2.8357166464e+00 
45400 5.8483453833e+00 -8.6119715779e-06 1.6372017691e+00 -2.8357166464e+00 1.6372017691e+00 2.8357166464e+00 
45500 5.8483453890e+00 -7.6987234496e-06 1.6372017691e+00 -2.8357166464e+00 1.6372017691e+00 2.8357166464e+00 
45600 5.8483453946e+00 -6.7897446642e-06 1.6372017691e+00 -2.8357166464e+00 1.6372017691e+00 2.8357166464e+00 
45700 5.8483454002e+00 -5.8856527522e-06 1.6372017691e+00 -2.8357166464e+00 1.6372017691e+00 2.8357166464e+00 
45800 5.8483454056e+00 -4.9870377549e-06 1.6372017691e+00 -2.8357166464e+00 1.6372017691e+00 2.8357166464e+00 
45900 5.8483454110e+00 -4.0944624486e-06 1.6372017691e+00 -2.8357166464e+00 1.6372017691e+00 2.8357166464e+00 
46000 5.8483454162e+00 -3.2084625892e-06 1.6372017691e+00 -2.8357166464e+00 1.6372017691e+00 2.8357166464e+00 
46100 5.8483454214e+00 -2.3295471998e-06 1.6372017691e+00 -2.8357166464e+00 1.6372017691e+00 2.8357166464e+00 
46200 5.8483454265e+00 -1.4581988783e-06 1.6372017691e+00 -2.8357166464e+00 1.6372017691e+00 2.8357166464e+00 
46300 5.8483454315e+00 -5.9487412502e-07 1.6372017691e+00 -2.8357166464e+00 1.6372017691e+00 2.8357166464e+00 
46400 5.8483454364e+00 2.5999629381e-07 1.6372017691e+00 -2.8357166464e+00 1.6372017691e+00 2.8357166464e+00 
46500 5.8483454412e+00 1.1060069657e-06 1.6372017691e+00 -2.8357166464e+00 1.6372017691e+00 2.8357166464e+00 
46600 5.8483454459e+00 1.9427774336e-06 1.6372017691e+00 -2.8357166464e+00 1.6372017691e+00 2.8357166464e+00 
46700 5.8483454506e+00 2.7699517699e-06 1.6372017691e+00 -2.8357166464e+00 1.6372017691e+00 2.8357166464e+00 
46800 5.8483454551e+00 3.5871981382e-06 1.6372017691e+00 -2.8357166464e+00 1.6372017691e+00 2.8357166464e+00 
46900 5.8483454596e+00 4.3942083321e-06 1.6372017691e+00 -2.8357166464e+00 1.6372017691e+00 2.8357166464e+00 
47000 5.8483454641e+00 5.1906973054e-06 1.6372017691e+00 -2.8357166464e+00 1.6372017691e+00 2.8357166464e+00 
47100 5.8483454684e+00 5.9764026766e-06 1.6372017691e+00 -2.8357166464e+00 1.6372017691e+00 2.8357166464e+00 
47200 5.8483454727e+00 6.7510842391e-06 1.6372017691e+00 -2.8357166464e+00 1.6372017691e+00 2.8357166464e+00 
47300 5.8483454769e+00 7.5145234366e-06 1.6372017691e+00 -2.8357166464e+00 1.6372017691e+00 2.8357166464e+00 
47400 5.8483454810e+00 8.2665228392e-06 1.6372017691e+00 -2.8357166464e+00 1.6372017691e+00 2.8357166464e+00 
47500 5.8483454850e+00 9.0069056163e-06 1.6372017691e+00 -2.8357166464e+00 1.6372017691e+00 2.8357166464e+00 
47600 5.8483454890e+00 9.7355149831e-06 1.6372017691e+00 -2.8357166464e+00 1.6372017691e+00 2.8357166464e+00 
47700 5.8483454929e+00 1.0452213660e-05 1.6372017691e+00 -2.8357166464e+00 1.6372017691e+00 2.8357166464e+00 
47800 5.8483454968e+00 1.1156883311e-05 1.6372017691e+00 -2.8357166464e+00 1.6372017691e+00 2.8357166464e+00 
47900 5.8483455006e+00 1.1849423979e-05 1.6372017691e+00 -2.8357166464e+00 1.6372017691e+00 2.8357166464e+00 
48000 5.8483455043e+00 1.2529753525e-05 1.6372017691e+00 -2.8357166464e+00 1.6372017691e+00 2.8357166464e+00 
48100 5.8483455080e+00 1.3197807054e-05 1.6372017691e+00 -2.8357166464e+00 1.6372017691e+00 2.8357166464e+00 
48200 5.8483455116e+00 1.3853536347e-05 1.6372017691e+00 -2.8357166464e+00 1.6372017691e+00 2.8357166464e+00 
48300 5.8483455151e+00 1.4496909281e-05 1.6372017691e+00 -2.8357166464e+00 1.6372017691e+00 2.8357166464e+00 
48400 5.8483455186e+00 1.5127909261e-05 1.6372017691e+00 -2.8357166464e+00 1.6372017691e+00 2.8357166464e+00 
48500 5.8483455220e+00 1.5746534643e-05 1.6372017691e+00 -2.8357166464e+00 1.6372017691e+00 2.8357166464e+00 
48600 5.8483455253e+00 1.6352798165e-05 1.6372017691e+00 -2.8357166464e+00 1.6372017691e+00 2.8357166464e+00 
48700 5.8483455287e+00 1.6946726372e-05 1.6372017691e+00 -2.8357166464e+00 1.6372017691e+00 2.8357166464e+00 
48800 5.8483455319e+00 1.7528359047e-05 1.6372017691e+00 -2.8357166464e+00 1.6372017691e+00 2.8357166464e+00 
48900 5.8483455351e+00 1.8097748653e-05 1.6372017691e+00 -2.8357166464e+00 1.6372017691e+00 2.8357166464e+00 
49000 5.8483455382e+00 1.8654959764e-05 1.6372017691e+00 -2.8357166464e+00 1.6372017691e+00 2.8357166464e+00 
49100 5.8483455413e+00 1.9200068516e-05 1.6372017691e+00 -2.8357166464e+00 1.6372017691e+00 2.8357166464e+00 
49200 5.8483455444e+00 1.9733162052e-05 1.6372017691e+00 -2.8357166464e+00 1.6372017691e+00 2.8357166464e+00 
49300 5.8483455474e+00 2.0254337979e-05 1.6372017691e+00 -2.8357166464e+00 1.6372017691e+00 2.8357166464e+00 
49400 5.8483455503e+00 2.0763703827e-05 1.6372017691e+00 -2.8357166464e+00 1.6372017691e+00 2.8357166464e+00 
49500 5.8483455532e+00 2.1261376520e-05 1.6372017691e+00 -2.8357166464e+00 1.6372017691e+00 2.8357166464e+00 
49600 5.8483455560e+00 2.1747481856e-05 1.6372017691e+00 -2.8357166464e+00 1.6372017691e+00 2.8357166464e+00 
49700 5.8483455588e+00 2.2222153981e-05 1.6372017691e+00 -2.8357166464e+00 1.6372017691e+00 2.8357166464e+00 
49800 5.8483455616e+00 2.2685534891e-05 1.6372017691e+00 -2.8357166464e+00 1.6372017691e+00 2.8357166464e+00 
49900 5.8483455643e+00 2.3137773929e-05 1.6372017691e+00 -2.8357166464e+00 1.6372017691e+00 2.8357166464e+00 
50000 5.8483455669e+00 2.3579027294e-05 1.6372017691e+00 -2.8357166464e+00 1.6372017691e+00 2.8357166464e+00 
50100 5.8483455695e+00 2.4009457562e-05 1.6372017691e+00 -2.8357166464e+00 1.6372017691e+00 2.8357166464e+00 
50200 5.8483455721e+00 2.4429233218e-05 1.6372017691e+00 -2.8357166464e+00 1.6372017691e+00 2.8357166464e+00 
50300 5.8483455747e+00 2.4838528196e-05 1.6372017691e+00 -2.8357166464e+00 1.6372017691e+00 2.8357166464e+00 
50400 5.8483455771e+00 2.5237521421e-05 1.6372017691e+00 -2.8357166464e+00 1.6372017691e+00 2.8357166464e+00 
50500 5.8483455796e+00 2.5626396381e-05 1.6372017691e+00 -2.8357166464e+00 1.6372017691e+00 2.8357166464e+00 
50600 5.8483455820e+00 2.6005340692e-05 1.6372017691e+00 -2.8357166464e+00 1.6372017691e+00 2.8357166464e+00 
50700 5.8483455844e+00 2.6374545681e-05 1.6372017691e+00 -2.8357166464e+00 1.6372017691e+00 2.8357166464e+00 
50800 5.8483455867e+00 2.6734205982e-05 1.6372017691e+00 -2.8357166464e+00 1.6372017691e+00 2.8357166464e+00 
50900 5.8483455890e+00 2.7084519140e-05 1.6372017691e+00 -2.8357166464e+00 1.6372017691e+00 2.8357166464e+00 
51000 5.8483455912e+00 2.7425685226e-05 1.6372017691e+00 -2.8357166464e+00 1.6372017691e+00 2.8357166464e+00 
51100 5.8483455935e+00 2.7757906471e-05 1.6372017691e+00 -2.8357166464e+00 1.6372017691e+00 2.8357166464e+00 
51200 5.8483455957e+00 2.8081386896e-05 1.6372017691e+00 -2.8357166464e+00 1.6372017691e+00 2.8357166464e+00 
51300 5.8483455978e+00 2.8396331975e-05 1.6372017691e+00 -2.8357166464e+00 1.6372017691e+00 2.8357166464e+00 
51400 5.8483455999e+00 2.8702948292e-05 1.6372017691e+00 -2.8357166464e+00 1.6372017691e+00 2.8357166464e+00 
51500 5.8483456020e+00 2.9001443213e-05 1.6372017691e+00 -2.8357166464e+00 1.6372017691e+00 2.8357166464e+00 
51600 5.8483456040e+00 2.9292024582e-05 1.6372017691e+00 -2.8357166464e+00 1.6372017691e+00 2.8357166464e+00 
51700 5.8483456060e+00 2.9574900409e-05 1.6372017691e+00 -2.8357166464e+00 1.6372017691e+00 2.8357166464e+00 
51800 5.8483456080e+00 2.9850278591e-05 1.6372017691e+00 -2.8357166464e+00 1.6372017691e+00 2.8357166464e+00 
51900 5.8483456100e+00 3.0118366627e-05 1.6372017691e+00 -2.8357166464e+00 1.6372017691e+00 2.8357166464e+00 
52000 5.8483456119e+00 3.0379371357e-05 1.6372017691e+00 -2.8357166464e+00 1.6372017691e+00 2.8357166464e+00 
52100 5.8483456138e+00 3.0633498699e-05 1.6372017691e+00 -2.8357166464e+00 1.6372017691e+00 2.8357166464e+00 
52200 5.8483456156e+00 3.0880953414e-05 1.6372017691e+00 -2.8357166464e+00 1.6372017691e+00 2.8357166464e+00 
52300 5.8483456175e+00 3.1121938875e-05 1.6372017691e+00 -2.8357166464e+00 1.6372017691e+00 2.8357166464e+00 
52400 5.8483456193e+00 3.1356656836e-05 1.6372017691e+00 -2.8357166464e+00 1.6372017691e+00 2.8357166464e+00 
52500 5.8483456210e+00 3.1585307238e-05 1.6372017691e+00 -2.8357166464e+00 1.6372017691e+00 2.8357166464e+00 
52600 5.8483456228e+00 3.1808087995e-05 1.6372017691e+00 -2.8357166464e+00 1.6372017691e+00 2.8357166464e+00 
52700 5.8483456245e+00 3.2025194816e-05 1.6372017691e+00 -2.8357166464e+00 1.6372017691e+00 2.8357166464e+00 
52800 5.8483456262e+00 3.2236821029e-05 1.6372017691e+00 -2.8357166464e+00 1.6372017691e+00 2.8357166464e+00 
52900 5.8483456278e+00 3.2443157405e-05 1.6372017691e+00 -2.8357166464e+00 1.6372017691e+00 2.8357166464e+00 
53000 5.8483456294e+00 3.2644392015e-05 1.6372017691e+00 -2.8357166464e+00 1.6372017691e+00 2.8357166464e+00 
53100 5.8483456310e+00 3.2840710074e-05 1.6372017691e+00 -2.8357166464e+00 1.6372017691e+00 2.8357166464e+00 
53200 5.8483456326e+00 3.3032293814e-05 1.6372017691e+00 -2.8357166464e+00 1.6372017691e+00 2.8357166464e+00 
53300 5.8483456342e+00 3.3219322345e-05 1.6372017691e+00 -2.8357166464e+00 1.6372017691e+00 2.8357166464e+00 
53400 5.8483456357e+00 3.3401971553e-05 1.6372017691e+00 -2.8357166464e+00 1.6372017691e+00 2.8357166464e+00 
53500 5.8483456372e+00 3.3580413982e-05 1.6372017691e+00 -2.8357166464e+00 1.6372017691e+00 2.8357166464e+00 
53600 5.8483456387e+00 3.3754818745e-05 1.6372017691e+00 -2.8357166464e+00 1.6372017691e+00 2.8357166464e+00 
53700 5.8483456401e+00 3.3925351426e-05 1.6372017691e+00 -2.8357166464e+00 1.6372017691e+00 2.8357166464e+00 
53800 5.8483456416e+00 3.4092174005e-05 1.6372017691e+00 -2.8357166464e+00 1.6372017691e+00 2.8357166464e+00 
53900 5.8483456430e+00 3.4255444785e-05 1.6372017691e+00 -2.8357166464e+00 1.6372017691e+00 2.8357166464e+00 
54000 5.8483456444e+00 3.4415318329e-05 1.6372017691e+00 -2.8357166464e+00 1.6372017691e+00 2.8357166464e+00 
54100 5.8483456457e+00 3.4571945403e-05 1.6372017691e+00 -2.8357166464e+00 1.6372017691e+00 2.8357166464e+00 
54200 5.8483456471e+00 3.4725472927e-05 1.6372017691e+00 -2.8357166464e+00 1.6372017691e+00 2.8357166464e+00 
54300 5.8483456484e+00 3.4876043941e-05 1.6372017691e+00 -2.8357166464e+00 1.6372017691e+00 2.8357166464e+00 
54400 5.8483456497e+00 3.5023797560e-05 1.6372017691e+00 -2.8357166464e+00 1.6372017691e+00 2.8357166464e+00 
54500 5.8483456510e+00 3.5168868959e-05 1.6372017691e+00 -2.8357166464e+00 1.6372017691e+00 2.8357166464e+00 
54600 5.8483456522e+00 3.5311389350e-05 1.6372017691e+00 -2.8357166464e+00 1.6372017691e+00 2.8357166464e+00 
54700 5.8483456535e+00 3.5451485964e-05 1.6372017691e+00 -2.8357166464e+00 1.6372017691e+00 2.8357166464e+00 
54800 5.8483456547e+00 3.5589282055e-05 1.6372017691e+00 -2.8357166464e+00 1.6372017691e+00 2.8357166464e+00 
54900 5.8483456559e+00 3.5724896890e-05 1.6372017691e+00 -2.8357166464e+00 1.6372017691e+00 2.8357166464e+00 
55000 5.8483456571e+00 3.5858445759e-05 1.6372017691e+00 -2.8357166464e+00 1.6372017691e+00 2.8357166464e+00 
55100 5.8483456582e+00 3.5990039986e-05 1.6372017691e+00 -2.8357166464e+00 1.6372017691e+00 2.8357166464e+00 
55200 5.8483456594e+00 3.6119786941e-05 1.6372017691e+00 -2.8357166464e+00 1.6372017691e+00 2.8357166464e+00 
55300 5.8483456605e+00 3.6247790067e-05 1.6372017691e+00 -2.8357166464e+00 1.6372017691e+00 2.8357166464e+00 
55400 5.8483456616e+00 3.6374148906e-05 1.6372017691e+00 -2.8357166464e+00 1.6372017691e+00 2.8357166464e+00 
55500 5.8483456627e+00 3.6498959123e-05 1.6372017691e+00 -2.8357166464e+00 1.6372017691e+00 2.8357166464e+00 
55600 5.8483456638e+00 3.6622312550e-05 1.6372017691e+00 -2.8357166464e+00 1.6372017691e+00 2.8357166464e+00 
55700 5.8483456648e+00 3.6744297217e-05 1.6372017691e+00 -2.8357166464e+00 1.6372017691e+00 2.8357166464e+00 
55800 5.8483456659e+00 3.6864997405e-05 1.6372017691e+00 -2.8357166464e+00 1.6372017691e+00 2.8357166464e+00 
55900 5.8483456669e+00 3.6984493684e-05 1.6372017691e+00 -2.8357166464e+00 1.6372017691e+00 2.8357166464e+00 
56000 5.8483456679e+00 3.7102862967e-05 1.6372017691e+00 -2.8357166464e+00 1.6372017691e+00 2.8357166464e+00 
56100 5.8483456689e+00 3.7220178567e-05 1.6372017691e+00 -2.8357166464e+00 1.6372017691e+00 2.8357166464e+00 
56200 5.8483456699e+00 3.7336510249e-05 1.6372017691e+00 -2.8357166464e+00 1.6372017691e+00 2.8357166464e+00 
56300 5.8483456708e+00 3.7451924292e-05 1.6372017691e+00 -2.8357166464e+00 1.6372017691e+00 2.8357166464e+00 
56400 5.8483456718e+00 3.7566483554e-05 1.6372017691e+00 -2.8357166464e+00 1.6372017691e+00 2.8357166464e+00 
56500 5.8483456727e+00 3.7680247528e-05 1.6372017691e+00 -2.8357166464e+00 1.6372017691e+00 2.8357166464e+00 
56600 5.8483456736e+00 3.7793272422e-05 1.6372017691e+00 -2.8357166464e+00 1.6372017691e+00 2.8357166464e+00 
56700 5.8483456745e+00 3.7905611217e-05 1.6372017691e+00 -2.8357166464e+00 1.6372017691e+00 2.8357166464e+00 
56800 5.8483456754e+00 3.8017313747e-05 1.6372017691e+00 -2.8357166464e+00 1.6372017691e+00 2.8357166464e+00 
56900 5.8483456763e+00 3.8128426763e-05 1.6372017691e+00 -2.8357166464e+00 1.6372017691e+00 2.8357166464e+00 
57000 5.8483456771e+00 3.8238994013e-05 1.6372017691e+00 -2.8357166464e+00 1.6372017691e+00 2.8357166464e+00 
57100 5.8483456780e+00 3.8349056321e-05 1.6372017691e+00 -2.8357166464e+00 1.6372017691e+00 2.8357166464e+00 
57200 5.8483456788e+00 3.8458651653e-05 1.6372017691e+00 -2.8357166464e+00 1.6372017691e+00 2.8357166464e+00 
57300 5.8483456796e+00 3.8567815204e-05 1.6372017691e+00 -2.8357166464e+00 1.6372017691e+00 2.8357166464e+00 
57400 5.8483456804e+00 3.8676579476e-05 1.6372017691e+00 -2.8357166464e+00 1.6372017691e+00 2.8357166464e+00 
57500 5.8483456812e+00 3.8784974354e-05 1.6372017691e+00 -2.8357166464e+00 1.6372017691e+00 2.8357166464e+00 
57600 5.8483456820e+00 3.8893027186e-05 1.6372017691e+00 -2.8357166464e+00 1.6372017691e+00 2.8357166464e+00 
57700 5.8483456828e+00 3.9000762869e-05 1.6372017691e+00 -2.8357166464e+00 1.6372017691e+00 2.8357166464e+00 
57800 5.8483456836e+00 3.9108203925e-05 1.6372017691e+00 -2.8357166464e+00 1.6372017691e+00 2.8357166464e+00 
57900 5.8483456843e+00 3.9215370578e-05 1.6372017691e+00 -2.8357166464e+00 1.6372017691e+00 2.8357166464e+00 
58000 5.8483456850e+00 3.9322280848e-05 1.6372017691e+00 -2.8357166464e+00 1.6372017691e+00 2.8357166464e+00 
58100 5.8483456858e+00 3.9428950619e-05 1.6372017691e+00 -2.8357166464e+00 1.6372017691e+00 2.8357166464e+00 
58200 5.8483456865e+00 3.9535393724e-05 1.6372017691e+00 -2.8357166464e+00 1.6372017691e+00 2.8357166464e+00 
58300 5.8483456872e+00 3.9641622030e-05 1.6372017691e+00 -2.8357166464e+00 1.6372017691e+00 2.8357166464e+00 
58400 5.8483456879e+00 3.9747645510e-05 1.6372017691e+00 -2.8357166464e+00 1.6372017691e+00 2.8357166464e+00 
58500 5.8483456885e+00 3.9853472327e-05 1.6372017691e+00 -2.8357166464e+00 1.6372017691e+00 2.8357166464e+00 
58600 5.8483456892e+00 3.9959108912e-05 1.6372017691e+00 -2.8357166464e+00 1.6372017691e+00 2.8357166464e+00 
58700 5.8483456899e+00 4.0064560044e-05 1.6372017691e+00 -2.8357166464e+00 1.6372017691e+00 2.8357166464e+00 
58800 5.8483456905e+00 4.0169828922e-05 1.6372017691e+00 -2.8357166464e+00 1.6372017691e+00 2.8357166464e+00 
58900 5.8483456912e+00 4.0274917248e-05 1.6372017691e+00 -2.8357166464e+00 1.6372017691e+00 2.8357166464e+00 
59000 5.8483456918e+00 4.0379825296e-05 1.6372017691e+00 -2.8357166464e+00 1.6372017691e+00 2.8357166464e+00 
59100 5.8483456924e+00 4.0484551992e-05 1.6372017691e+00 -2.8357166464e+00 1.6372017691e+00 2.8357166464e+00 
59200 5.8483456930e+00 4.0589094984e-05 1.6372017691e+00 -2.8357166464e+00 1.6372017691e+00 2.8357166464e+00 
59300 5.8483456936e+00 4.0693450712e-05 1.6372017691e+00 -2.8357166464e+00 1.6372017691e+00 2.8357166464e+00 
59400 5.8483456942e+00 4.0797614486e-05 1.6372017691e+00 -2.8357166464e+00 1.6372017691e+00 2.8357166464e+00 
59500 5.8483456948e+00 4.0901580548e-05 1.6372017691e+00 -2.8357166464e+00 1.6372017691e+00 2.8357166464e+00 
59600 5.8483456954e+00 4.1005342143e-05 1.6372017691e+00 -2.8357166464e+00 1.6372017691e+00 2.8357166464e+00 
59700 5.8483456959e+00 4.1108891588e-05 1.6372017691e+00 -2.8357166464e+00 1.6372017691e+00 2.8357166464e+00 
59800 5.8483456965e+00 4.1212220334e-05 1.6372017691e+00 -2.8357166464e+00 1.6372017691e+00 2.8357166464e+00 
59900 5.8483456970e+00 4.1315319033e-05 1.6372017691e+00 -2.8357166464e+00 1.6372017691e+00 2.8357166464e+00 
60000 5.8483456976e+00 4.1418177596e-05 1.6372017691e+00 -2.8357166464e+00 1.6372017691e+00 2.8357166464e+00 
60100 5.8483456981e+00 4.1520785257e-05 1.6372017691e+00 -2.8357166464e+00 1.6372017691e+00 2.8357166464e+00 
60200 5.8483456986e+00 4.1623130635e-05 1.6372017691e+00 -2.8357166464e+00 1.6372017691e+00 2.8357166464e+00 
60300 5.8483456991e+00 4.1725201786e-05 1.6372017691e+00 -2.8357166464e+00 1.6372017691e+00 2.8357166464e+00 
60400 5.8483456996e+00 4.1826986260e-05 1.6372017691e+00 -2.8357166464e+00 1.6372017691e+00 2.8357166464e+00 
60500 5.8483457001e+00 4.1928471160e-05 1.6372017691e+00 -2.8357166464e+00 1.6372017691e+00 2.8357166464e+00 
60600 5.8483457006e+00 4.2029643189e-05 1.6372017691e+00 -2.8357166464e+00 1.6372017691e+00 2.8357166464e+00 
60700 5.8483457011e+00 4.2130488704e-05 1.6372017691e+00 -2.8357166464e+00 1.6372017691e+00 2.8357166464e+00 
60800 5.8483457016e+00 4.2230993768e-05 1.6372017691e+00 -2.8357166464e+00 1.6372017691e+00 2.8357166464e+00 
60900 5.8483457021e+00 4.2331144191e-05 1.6372017691e+00 -2.8357166464e+00 1.6372017691e+00 2.8357166464e+00 
61000 5.8483457025e+00 4.2430925583e-05 1.6372017691e+00 -2.8357166464e+00 1.6372017691e+00 2.8357166464e+00 
61100 5.8483457030e+00 4.2530323394e-05 1.6372017691e+00 -2.8357166464e+00 1.6372017691e+00 2.8357166464e+00 
61200 5.8483457034e+00 4.2629322955e-05 1.6372017691e+00 -2.8357166464e+00 1.6372017691e+00 2.8357166464e+00 
61300 5.8483457039e+00 4.2727909529e-05 1.6372017691e+00 -2.8357166464e+00 1.6372017691e+00 2.8357166464e+00 
61400 5.8483457043e+00 4.2826068335e-05 1.6372017691e+00 -2.8357166464e+00 1.6372017691e+00 2.8357166464e+00 
61500 5.8483457047e+00 4.2923784600e-05 1.6372017691e+00 -2.8357166464e+00 1.6372017691e+00 2.8357166464e+00 
61600 5.8483457051e+00 4.3021043587e-05 1.6372017691e+00 -2.8357166464e+00 1.6372017691e+00 2.8357166464e+00 
61700 5.8483457056e+00 4.3117830629e-05 1.6372017691e+00 -2.8357166464e+00 1.6372017691e+00 2.8357166464e+00 
61800 5.8483457060e+00 4.3214131169e-05 1.6372017691e+00 -2.8357166464e+00 1.6372017691e+00 2.8357166464e+00 
61900 5.8483457064e+00 4.3309930779e-05 1.6372017691e+00 -2.8357166464e+00 1.6372017691e+00 2.8357166464e+00 
62000 5.8483457068e+00 4.3405215204e-05 1.6372017691e+00 -2.8357166464e+00 1.6372017691e+00 2.8357166464e+00 
62100 5.8483457072e+00 4.3499970377e-05 1.6372017691e+00 -2.8357166464e+00 1.6372017691e+00 2.8357166464e+00 
62200 5.8483457075e+00 4.3594182455e-05 1.6372017691e+00 -2.8357166464e+00 1.6372017691e+00 2.8357166464e+00 
62300 5.8483457079e+00 4.3687837838e-05 1.6372017691e+00 -2.8357166464e+00 1.6372017691e+00 2.8357166464e+00 
62400 5.8483457083e+00 4.3780923194e-05 1.6372017691e+00 -2.8357166464e+00 1.6372017691e+00 2.8357166464e+00 
62500 5.8483457087e+00 4.3873425480e-05 1.6372017691e+00 -2.8357166464e+00 1.6372017691e+00 2.8357166464e+00 
62600 5.8483457090e+00 4.3965331967e-05 1.6372017691e+00 -2.8357166464e+00 1.6372017691e+00 2.8357166464e+00 
62700 5.8483457094e+00 4.4056630255e-05 1.6372017691e+00 -2.8357166464e+00 1.6372017691e+00 2.8357166464e+00 
62800 5.8483457097e+00 4.4147308288e-05 1.6372017691e+00 -2.8357166464e+00 1.6372017691e+00 2.8357166464e+00 
62900 5.8483457101e+00 4.4237354378e-05 1.6372017691e+00 -2.8357166464e+00 1.6372017691e+00 2.8357166464e+00 
63000 5.8483457104e+00 4.4326757212e-05 1.6372017691e+00 -2.8357166464e+00 1.6372017691e+00 2.8357166464e+00 
63100 5.8483457108e+00 4.4415505872e-05 1.6372017691e+00 -2.8357166464e+00 1.6372017691e+00 2.8357166464e+00 
63200 5.8483457111e+00 4.4503589843e-05 1.6372017691e+00 -2.8357166464e+00 1.6372017691e+00 2.8357166464e+00 
63300 5.8483457114e+00 4.4590999026e-05 1.6372017691e+00 -2.8357166464e+00 1.6372017691e+00 2.8357166464e+00 
63400 5.8483457117e+00 4.4677723748e-05 1.6372017691e+00 -2.8357166464e+00 1.6372017691e+00 2.8357166464e+00 
63500 5.8483457121e+00 4.4763754771e-05 1.6372017691e+00 -2.8357166464e+00 1.6372017691e+00 2.8357166464e+00 
63600 5.8483457124e+00 4.4849083299e-05 1.6372017691e+00 -2.8357166464e+00 1.6372017691e+00 2.8357166464e+00 
63700 5.8483457127e+00 4.4933700984e-05 1.6372017691e+00 -2.8357166464e+00 1.6372017691e+00 2.8357166464e+00 
63800 5.8483457130e+00 4.5017599933e-05 1.6372017691e+00 -2.8357166464e+00 1.6372017691e+00 2.8357166464e+00 
63900 5.8483457133e+00 4.5100772712e-05 1.6372017691e+00 -2.8357166464e+00 1.6372017691e+00 2.8357166464e+00 
64000 5.8483457136e+00 4.5183212350e-05 1.6372017691e+00 -2.8357166464e+00 1.6372017691e+00 2.8357166464e+00 
64100 5.8483457139e+00 4.5264912337e-05 1.6372017691e+00 -2.8357166464e+00 1.6372017691e+00 2.8357166464e+00 
64200 5.8483457141e+00 4.5345866636e-05 1.6372017691e+00 -2.8357166464e+00 1.6372017691e+00 2.8357166464e+00 
64300 5.8483457144e+00 4.5426069669e-05 1.6372017691e+00 -2.8357166464e+00 1.6372017691e+00 2.8357166464e+00 
64400 5.8483457147e+00 4.5505516333e-05 1.6372017691e+00 -2.8357166464e+00 1.6372017691e+00 2.8357166464e+00 
64500 5.8483457150e+00 4.5584201985e-05 1.6372017691e+00 -2.8357166464e+00 1.6372017691e+00 2.8357166464e+00 
64600 5.8483457152e+00 4.5662122451e-05 1.6372017691e+00 -2.8357166464e+00 1.6372017691e+00 2.8357166464e+00 
64700 5.8483457155e+00 4.5739274015e-05 1.6372017691e+00 -2.8357166464e+00 1.6372017691e+00 2.8357166464e+00 
64800 5.8483457158e+00 4.5815653422e-05 1.6372017691e+00 -2.8357166464e+00 1.6372017691e+00 2.8357166464e+00 
64900 5.8483457160e+00 4.5891257869e-05 1.6372017691e+00 -2.8357166464e+00 1.6372017691e+00 2.8357166464e+00 
65000 5.8483457163e+00 4.5966085008e-05 1.6372017691e+00 -2.8357166464e+00 1.6372017691e+00 2.8357166464e+00 
65100 5.8483457165e+00 4.6040132934e-05 1.6372017691e+00 -2.8357166464e+00 1.6372017691e+00 2.8357166464e+00 
65200 5.8483457168e+00 4.6113400178e-05 1.6372017691e+00 -2.8357166464e+00 1.6372017691e+00 2.8357166464e+00 
65300 5.8483457170e+00 4.6185885712e-05 1.6372017691e+00 -2.8357166464e+00 1.6372017691e+00 2.8357166464e+00 
65400 5.8483457173e+00 4.6257588928e-05 1.6372017691e+00 -2.8357166464e+00 1.6372017691e+00 2.8357166464e+00 
65500 5.8483457175e+00 4.6328509640e-05 1.6372017691e+00 -2.8357166464e+00 1.6372017691e+00 2.8357166464e+00 
65600 5.8483457177e+00 4.6398648073e-05 1.6372017691e+00 -2.8357166464e+00 1.6372017691e+00 2.8357166464e+00 
65700 5.8483457179e+00 4.6468004857e-05 1.6372017691e+00 -2.8357166464e+00 1.6372017691e+00 2.8357166464e+00 
65800 5.8483457182e+00 4.6536581016e-05 1.6372017691e+00 -2.8357166464e+00 1.6372017691e+00 2.8357166464e+00 
65900 5.8483457184e+00 4.6604377961e-05 1.6372017691e+00 -2.8357166464e+00 1.6372017691e+00 2.8357166464e+00 
66000 5.8483457186e+00 4.6671397481e-05 1.6372017691e+00 -2.8357166464e+00 1.6372017691e+00 2.8357166464e+00 
66100 5.8483457188e+00 4.6737641729e-05 1.6372017691e+00 -2.8357166464e+00 1.6372017691e+00 2.8357166464e+00 
66200 5.8483457190e+00 4.6803113221e-05 1.6372017691e+00 -2.8357166464e+00 1.6372017691e+00 2.8357166464e+00 
66300 5.8483457192e+00 4.6867814819e-05 1.6372017691e+00 -2.8357166464e+00 1.6372017691e+00 2.8357166464e+00 
66400 5.8483457195e+00 4.6931749721e-05 1.6372017691e+00 -2.8357166464e+00 1.6372017691e+00 2.8357166464e+00 
66500 5.8483457197e+00 4.6994921454e-05 1.6372017691e+00 -2.8357166464e+00 1.6372017691e+00 2.8357166464e+00 
66600 5.8483457199e+00 4.7057333863e-05 1.6372017691e+00 -2.8357166464e+00 1.6372017691e+00 2.8357166464e+00 
66700 5.8483457201e+00 4.7118991097e-05 1.6372017691e+00 -2.8357166464e+00 1.6372017691e+00 2.8357166464e+00 
66800 5.8483457202e+00 4.7179897602e-05 1.6372017691e+00 -2.8357166464e+00 1.6372017691e+00 2.8357166464e+00 
66900 5.8483457204e+00 4.7240058106e-05 1.6372017691e+00 -2.8357166464e+00 1.6372017691e+00 2.8357166464e+00 
67000 5.8483457206e+00 4.7299477614e-05 1.6372017691e+00 -2.8357166464e+00 1.6372017691e+00 2.8357166464e+00 
67100 5.8483457208e+00 4.7358161389e-05 1.6372017691e+00 -2.8357166464e+00 1.6372017691e+00 2.8357166464e+00 
67200 5.8483457210e+00 4.7416114949e-05 1.6372017691e+00 -2.8357166464e+00 1.6372017691e+00 2.8357166464e+00 
67300 5.8483457212e+00 4.7473344050e-05 1.6372017691e+00 -2.8357166464e+00 1.6372017691e+00 2.8357166464e+00 
67400 5.8483457213e+00 4.7529854675e-05 1.6372017691e+00 -2.8357166464e+00 1.6372017691e+00 2.8357166464e+00 
67500 5.8483457215e+00 4.7585653027e-05 1.6372017691e+00 -2.8357166464e+00 1.6372017691e+00 2.8357166464e+00 
67600 5.8483457217e+00 4.7640745516e-05 1.6372017691e+00 -2.8357166464e+00 1.6372017691e+00 2.8357166464e+00 
67700 5.8483457219e+00 4.7695138743e-05 1.6372017691e+00 -2.8357166464e+00 1.6372017691e+00 2.8357166464e+00 
67800 5.8483457220e+00 4.7748839499e-05 1.6372017691e+00 -2.8357166464e+00 1.6372017691e+00 2.8357166464e+00 
67900 5.8483457222e+00 4.7801854745e-05 1.6372017691e+00 -2.8357166464e+00 1.6372017691e+00 2.8357166464e+00 
68000 5.8483457224e+00 4.7854191607e-05 1.6372017691e+00 -2.8357166464e+00 1.6372017691e+00 2.8357166464e+00 
68100 5.8483457225e+00 4.7905857360e-05 1.6372017691e+00 -2.8357166464e+00 1.6372017691e+00 2.8357166464e+00 
68200 5.8483457227e+00 4.7956859423e-05 1.6372017691e+00 -2.8357166464e+00 1.6372017691e+00 2.8357166464e+00 
68300 5.8483457228e+00 4.8007205343e-05 1.6372017691e+00 -2.8357166464e+00 1.6372017691e+00 2.8357166464e+00 
68400 5.8483457230e+00 4.8056902792e-05 1.6372017691e+00 -2.8357166464e+00 1.6372017691e+00 2.8357166464e+00 
68500 5.8483457231e+00 4.8105959546e-05 1.6372017691e+00 -2.8357166464e+00 1.6372017691e+00 2.8357166464e+00 
68600 5.8483457233e+00 4.8154383488e-05 1.6372017691e+00 -2.8357166464e+00 1.6372017691e+00 2.8357166464e+00 
68700 5.8483457234e+00 4.8202182587e-05 1.6372017691e+00 -2.8357166464e+00 1.6372017691e+00 2.8357166464e+00 
68800 5.8483457236e+00 4.8249364896e-05 1.6372017691e+00 -2.8357166464e+00 1.6372017691e+00 2.8357166464e+00 
68900 5.8483457237e+00 4.8295938536e-05 1.6372017691e+00 -2.8357166464e+00 1.6372017691e+00 2.8357166464e+00 
69000 5.8483457239e+00 4.8341911692e-05 1.6372017691e+00 -2.8357166464e+00 1.6372017691e+00 2.8357166464e+00 
69100 5.8483457240e+00 4.8387292602e-05 1.6372017691e+00 -2.8357166464e+00 1.6372017691e+00 2.8357166464e+00 
69200 5.8483457241e+00 4.8432089549e-05 1.6372017691e+00 -2.8357166464e+00 1.6372017691e+00 2.8357166464e+00 
69300 5.8483457243e+00 4.8476310850e-05 1.6372017691e+00 -2.8357166464e+00 1.6372017691e+00 2.8357166464e+00 
69400 5.8483457244e+00 4.8519964849e-05 1.6372017691e+00 -2.8357166464e+00 1.6372017691e+00 2.8357166464e+00 
69500 5.8483457245e+00 4.8563059912e-05 1.6372017691e+00 -2.8357166464e+00 1.6372017691e+00 2.8357166464e+00 
69600 5.8483457247e+00 4.8605604413e-05 1.6372017691e+00 -2.8357166464e+00 1.6372017691e+00 2.8357166464e+00 
69700 5.8483457248e+00 4.8647606731e-05 1.6372017691e+00 -2.8357166464e+00 1.6372017691e+00 2.8357166464e+00 
69800 5.8483457249e+00 4.8689075239e-05 1.6372017691e+00 -2.8357166464e+00 1.6372017691e+00 2.8357166464e+00 
69900 5.8483457250e+00 4.8730018300e-05 1.6372017691e+00 -2.8357166464e+00 1.6372017691e+00 2.8357166464e+00 
70000 5.8483457252e+00 4.8770444260e-05 1.6372017691e+00 -2.8357166464e+00 1.6372017691e+00 2.8357166464e+00 
70100 5.8483457253e+00 4.8810361437e-05 1.6372017691e+00 -2.8357166464e+00 1.6372017691e+00 2.8357166464e+00 
70200 5.8483457254e+00 4.8849778117e-05 1.6372017691e+00 -2.8357166464e+00 1.6372017691e+00 2.8357166464e+00 
70300 5.8483457255e+00 4.8888702554e-05 1.6372017691e+00 -2.8357166464e+00 1.6372017691e+00 2.8357166464e+00 
70400 5.8483457256e+00 4.8927142952e-05 1.6372017691e+00 -2.8357166464e+00 1.6372017691e+00 2.8357166464e+00 
70500 5.8483457257e+00 4.8965107466e-05 1.6372017691e+00 -2.8357166464e+00 1.6372017691e+00 2.8357166464e+00 
70600 5.8483457259e+00 4.9002604199e-05 1.6372017691e+00 -2.8357166464e+00 1.6372017691e+00 2.8357166464e+00 
70700 5.8483457260e+00 4.9039641191e-05 1.6372017691e+00 -2.8357166464e+00 1.6372017691e+00 2.8357166464e+00 
70800 5.8483457261e+00 4.9076226416e-05 1.6372017691e+00 -2.8357166464e+00 1.6372017691e+00 2.8357166464e+00 
70900 5.8483457262e+00 4.9112367782e-05 1.6372017691e+00 -2.8357166464e+00 1.6372017691e+00 2.8357166464e+00 
71000 5.8483457263e+00 4.9148073117e-05 1.6372017691e+00 -2.8357166464e+00 1.6372017691e+00 2.8357166464e+00 
71100 5.8483457264e+00 4.9183350171e-05 1.6372017691e+00 -2.8357166464e+00 1.6372017691e+00 2.8357166464e+00 
71200 5.8483457265e+00 4.9218206615e-05 1.6372017691e+00 -2.8357166464e+00 1.6372017691e+00 2.8357166464e+00 
71300 5.8483457266e+00 4.9252650027e-05 1.6372017691e+00 -2.8357166464e+00 1.6372017691e+00 2.8357166464e+00 
71400 5.8483457267e+00 4.9286687898e-05 1.6372017691e+00 -2.8357166464e+00 1.6372017691e+00 2.8357166464e+00 
71500 5.8483457268e+00 4.9320327626e-05 1.6372017691e+00 -2.8357166464e+00 1.6372017691e+00 2.8357166464e+00 
71600 5.8483457269e+00 4.9353576507e-05 1.6372017691e+00 -2.8357166464e+00 1.6372017691e+00 2.8357166464e+00 
71700 5.8483457270e+00 4.9386441742e-05 1.6372017691e+00 -2.8357166464e+00 1.6372017691e+00 2.8357166464e+00 
71800 5.8483457271e+00 4.9418930425e-05 1.6372017691e+00 -2.8357166464e+00 1.6372017691e+00 2.8357166464e+00 
71900 5.8483457272e+00 4.9451049550e-05 1.6372017691e+00 -2.8357166464e+00 1.6372017691e+00 2.8357166464e+00 
72000 5.8483457273e+00 4.9482806000e-05 1.6372017691e+00 -2.8357166464e+00 1.6372017691e+00 2.8357166464e+00 
72100 5.8483457274e+00 4.9514206545e-05 1.6372017691e+00 -2.8357166464e+00 1.6372017691e+00 2.8357166464e+00 
72200 5.8483457274e+00 4.9545257851e-05 1.6372017691e+00 -2.8357166464e+00 1.6372017691e+00 2.8357166464e+00 
72300 5.8483457275e+00 4.9575966466e-05 1.6372017691e+00 -2.8357166464e+00 1.6372017691e+00 2.8357166464e+00 
72400 5.8483457276e+00 4.9606338822e-05 1.6372017691e+00 -2.8357166464e+00 1.6372017691e+00 2.8357166464e+00 
72500 5.8483457277e+00 4.9636381240e-05 1.6372017691e+00 -2.8357166464e+00 1.6372017691e+00 2.8357166464e+00 
72600 5.8483457278e+00 4.9666099920e-05 1.6372017691e+00 -2.8357166464e+00 1.6372017691e+00 2.8357166464e+00 
72700 5.8483457279e+00 4.9695500944e-05 1.6372017691e+00 -2.8357166464e+00 1.6372017691e+00 2.8357166464e+00 
72800 5.8483457279e+00 4.9724590279e-05 1.6372017691e+00 -2.8357166464e+00 1.6372017691e+00 2.8357166464e+00 
72900 5.8483457280e+00 4.9753373765e-05 1.6372017691e+00 -2.8357166464e+00 1.6372017691e+00 2.8357166464e+00 
73000 5.8483457281e+00 4.9781857131e-05 1.6372017691e+00 -2.8357166464e+00 1.6372017691e+00 2.8357166464e+00 
73100 5.8483457282e+00 4.9810045977e-05 1.6372017691e+00 -2.8357166464e+00 1.6372017691e+00 2.8357166464e+00 
73200 5.8483457283e+00 4.9837945791e-05 1.6372017691e+00 -2.8357166464e+00 1.6372017691e+00 2.8357166464e+00 
73300 5.8483457283e+00 4.9865561934e-05 1.6372017691e+00 -2.8357166464e+00 1.6372017691e+00 2.8357166464e+00 
73400 5.8483457284e+00 4.9892899651e-05 1.6372017691e+00 -2.8357166464e+00 1.6372017691e+00 2.8357166464e+00 
73500 5.8483457285e+00 4.9919964065e-05 1.6372017691e+00 -2.8357166464e+00 1.6372017691e+00 2.8357166464e+00 
73600 5.8483457286e+00 4.9946760180e-05 1.6372017691e+00 -2.8357166464e+00 1.6372017691e+00 2.8357166464e+00 
73700 5.8483457286e+00 4.9973292880e-05 1.6372017691e+00 -2.8357166464e+00 1.6372017691e+00 2.8357166464e+00 
73800 5.8483457287e+00 4.9999566936e-05 1.6372017691e+00 -2.8357166464e+00 1.6372017691e+00 2.8357166464e+00 
73900 5.8483457288e+00 5.0025586991e-05 1.6372017691e+00 -2.8357166464e+00 1.6372017691e+00 2.8357166464e+00 
74000 5.8483457288e+00 5.0051357583e-05 1.6372017691e+00 -2.8357166464e+00 1.6372017691e+00 2.8357166464e+00 
74100 5.8483457289e+00 5.0076883126e-05 1.6372017691e+00 -2.8357166464e+00 1.6372017691e+00 2.8357166464e+00 
74200 5.8483457290e+00 5.0102167924e-05 1.6372017691e+00 -2.8357166464e+00 1.6372017691e+00 2.8357166464e+00 
74300 5.8483457290e+00 5.0127216165e-05 1.6372017691e+00 -2.8357166464e+00 1.6372017691e+00 2.8357166464e+00 
74400 5.8483457291e+00 5.0152031925e-05 1.6372017691e+00 -2.8357166464e+00 1.6372017691e+00 2.8357166464e+00 
74500 5.8483457292e+00 5.0176619172e-05 1.6372017691e+00 -2.8357166464e+00 1.6372017691e+00 2.8357166464e+00 
74600 5.8483457292e+00 5.0200981761e-05 1.6372017691e+00 -2.8357166464e+00 1.6372017691e+00 2.8357166464e+00 
74700 5.8483457293e+00 5.0225123442e-05 1.6372017691e+00 -2.8357166464e+00 1.6372017691e+00 2.8357166464e+00 
74800 5.8483457294e+00 5.0249047857e-05 1.6372017691e+00 -2.8357166464e+00 1.6372017691e+00 2.8357166464e+00 
74900 5.8483457294e+00 5.0272758544e-05 1.6372017691e+00 -2.8357166464e+00 1.6372017691e+00 2.8357166464e+00 
75000 5.8483457295e+00 5.0296258937e-05 1.6372017691e+00 -2.8357166464e+00 1.6372017691e+00 2.8357166464e+00 
75100 5.8483457295e+00 5.0319552373e-05 1.6372017691e+00 -2.8357166464e+00 1.6372017691e+00 2.8357166464e+00 
75200 5.8483457296e+00 5.0342642083e-05 1.6372017691e+00 -2.8357166464e+00 1.6372017691e+00 2.8357166464e+00 
75300 5.8483457297e+00 5.0365531205e-05 1.6372017691e+00 -2.8357166464e+00 1.6372017691e+00 2.8357166464e+00 
75400 5.8483457297e+00 5.0388222782e-05 1.6372017691e+00 -2.8357166464e+00 1.6372017691e+00 2.8357166464e+00 
75500 5.8483457298e+00 5.0410719760e-05 1.6372017691e+00 -2.8357166464e+00 1.6372017691e+00 2.8357166464e+00 
75600 5.8483457298e+00 5.0433024993e-05 1.6372017691e+00 -2.8357166464e+00 1.6372017691e+00 2.8357166464e+00 
75700 5.8483457299e+00 5.0455141250e-05 1.6372017691e+00 -2.8357166464e+00 1.6372017691e+00 2.8357166464e+00 
75800 5.8483457299e+00 5.0477071209e-05 1.6372017691e+00 -2.8357166464e+00 1.6372017691e+00 2.8357166464e+00 
75900 5.8483457300e+00 5.0498817462e-05 1.6372017691e+00 -2.8357166464e+00 1.6372017691e+00 2.8357166464e+00 
76000 5.8483457300e+00 5.0520382518e-05 1.6372017691e+00 -2.8357166464e+00 1.6372017691e+00 2.8357166464e+00 
76100 5.8483457301e+00 5.0541768805e-05 1.6372017691e+00 -2.8357166464e+00 1.6372017691e+00 2.8357166464e+00 
76200 5.8483457301e+00 5.0562978670e-05 1.6372017691e+00 -2.8357166464e+00 1.6372017691e+00 2.8357166464e+00 
76300 5.8483457302e+00 5.0584014384e-05 1.6372017691e+00 -2.8357166464e+00 1.6372017691e+00 2.8357166464e+00 
76400 5.8483457302e+00 5.0604878145e-05 1.6372017691e+00 -2.8357166464e+00 1.6372017691e+00 2.8357166464e+00 
76500 5.8483457302e+00 5.0609445308e-05 1.6372017691e+00 -2.8357166464e+00 1.6372017691e+00 2.8357166464e+00 
76500 5.8483457302e+00 5.0609445308e-05 1.6372017691e+00 -2.8357166464e+00 1.6372017691e+00 2.8357166464e+00 
