# step Hamiltonian StressXX CellTensor1 CellTensor2 CellTensor3 CellTensor4 
0 5.5522144044e+00 -8.5871306072e-02 1.6387017056e+00 -2.8383146126e+00 1.6387017056e+00 2.8383146126e+00 
100 5.5525686969e+00 -8.6914875831e-02 1.6387017056e+00 -2.8383146126e+00 1.6387017056e+00 2.8383146126e+00 
200 5.5526535523e+00 -8.5477429637e-02 1.6413543629e+00 -2.8429091498e+00 1.6413543629e+00 2.8429091498e+00 
300 5.5527535624e+00 -8.4078219324e-02 1.6439589191e+00 -2.8474203735e+00 1.6439589191e+00 2.8474203735e+00 
400 5.5528659682e+00 -8.2715090031e-02 1.6465167684e+00 -2.8518506984e+00 1.6465167684e+00 2.8518506984e+00 
500 5.5529881795e+00 -8.1386014140e-02 1.6490292265e+00 -2.8562024035e+00 1.6490292265e+00 2.8562024035e+00 
600 5.5531177766e+00 -8.0089081629e-02 1.6514975358e+00 -2.8604776406e+00 1.6514975358e+00 2.8604776406e+00 
700 5.5532525108e+00 -7.8822491234e-02 1.6539228695e+00 -2.8646784417e+00 1.6539228695e+00 2.8646784417e+00 
800 5.5533903043e+00 -7.7584542350e-02 1.6563063358e+00 -2.8688067266e+00 1.6563063358e+00 2.8688067266e+00 
900 5.5535292489e+00 -7.6373627635e-02 1.6586489822e+00 -2.8728643091e+00 1.6586489822e+00 2.8728643091e+00 
1000 5.5536676045e+00 -7.5188226289e-02 1.6609517983e+00 -2.8768529036e+00 1.6609517983e+00 2.8768529036e+00 
1100 5.5538037960e+00 -7.4026897931e-02 1.6632157195e+00 -2.8807741302e+00 1.6632157195e+00 2.8807741302e+00 
1200 5.5539364103e+00 -7.2888277075e-02 1.6654416299e+00 -2.8846295201e+00 1.6654416299e+00 2.8846295201e+00 
1300 5.5540641922e+00 -7.1771068130e-02 1.6676303652e+00 -2.8884205209e+00 1.6676303652e+00 2.8884205209e+00 
1400 5.5541860394e+00 -7.0674040910e-02 1.6697827152e+00 -2.8921485004e+00 1.6697827152e+00 2.8921485004e+00 
1500 5.5543009976e+00 -6.9596026603e-02 1.6718994263e+00 -2.8958147515e+00 1.6718994263e+00 2.8958147515e+00 
1600 5.5544082545e+00 -6.8535914173e-02 1.6739812037e+00 -2.8994204957e+00 1.6739812037e+00 2.8994204957e+00 
1700 5.5545071339e+00 -6.7492647148e-02 1.6760287137e+00 -2.9029668871e+00 1.6760287137e+00 2.9029668871e+00 
1800 5.5545970888e+00 -6.6465220775e-02 1.6780425856e+00 -2.9064550156e+00 1.6780425856e+00 2.9064550156e+00 
1900 5.5546776946e+00 -6.5452679497e-02 1.6800234138e+00 -2.9098859106e+00 1.6800234138e+00 2.9098859106e+00 
2000 5.5547486419e+00 -6.4454114729e-02 1.6819717591e+00 -2.9132605436e+00 1.6819717591e+00 2.9132605436e+00 
2100 5.5548097296e+00 -6.3468662900e-02 1.6838881509e+00 -2.9165798316e+00 1.6838881509e+00 2.9165798316e+00 
2200 5.5548608566e+00 -6.2495503731e-02 1.6857730887e+00 -2.9198446396e+00 1.6857730887e+00 2.9198446396e+00 
2300 5.5549020149e+00 -6.1533858729e-02 1.6876270435e+00 -2.9230557836e+00 1.6876270435e+00 2.9230557836e+00 
2400 5.5549332817e+00 -6.0582989864e-02 1.6894504596e+00 -2.9262140329e+00 1.6894504596e+00 2.9262140329e+00 
2500 5.5549548120e+00 -5.9642198406e-02 1.6912437556e+00 -2.9293201126e+00 1.6912437556e+00 2.9293201126e+00 
2600 5.5549668307e+00 -5.8710823909e-02 1.6930073261e+00 -2.9323747063e+00 1.6930073261e+00 2.9323747063e+00 
2700 5.5549696259e+00 -5.7788243307e-02 1.6947415429e+00 -2.9353784579e+00 1.6947415429e+00 2.9353784579e+00 
2800 5.5549635409e+00 -5.6873870109e-02 1.6964467564e+00 -2.9383319743e+00 1.6964467564e+00 2.9383319743e+00 
2900 5.5549489677e+00 -5.5967153684e-02 1.6981232967e+00 -2.9412358273e+00 1.6981232967e+00 2.9412358273e+00 
3000 5.5549263399e+00 -5.5067578600e-02 1.6997714749e+00 -2.9440905558e+00 1.6997714749e+00 2.9440905558e+00 
3100 5.5548961265e+00 -5.4174664021e-02 1.7013915843e+00 -2.9468966676e+00 1.7013915843e+00 2.9468966676e+00 
3200 5.5548588248e+00 -5.3287963138e-02 1.7029839016e+00 -2.9496546421e+00 1.7029839016e+00 2.9496546421e+00 
3300 5.5548149554e+00 -5.2407062623e-02 1.7045486879e+00 -2.9523649314e+00 1.7045486879e+00 2.9523649314e+00 
3400 5.5547650558e+00 -5.1531582098e-02 1.7060861896e+00 -2.9550279626e+00 1.7060861896e+00 2.9550279626e+00 
3500 5.5547096754e+00 -5.0661173606e-02 1.7075966402e+00 -2.9576441397e+00 1.7075966402e+00 2.9576441397e+00 
3600 5.5546493704e+00 -4.9795521080e-02 1.7090802606e+00 -2.9602138455e+00 1.7090802606e+00 2.9602138455e+00 
3700 5.5545846989e+00 -4.8934339800e-02 1.7105372603e+00 -2.9627374431e+00 1.7105372603e+00 2.9627374431e+00 
3800 5.5545162172e+00 -4.8077375827e-02 1.7119678387e+00 -2.9652152776e+00 1.7119678387e+00 2.9652152776e+00 
3900 5.5544444751e+00 -4.7224405417e-02 1.7133721859e+00 -2.9676476782e+00 1.7133721859e+00 2.9676476782e+00 
4000 5.5543700129e+00 -4.6375234413e-02 1.7147504833e+00 -2.9700349594e+00 1.7147504833e+00 2.9700349594e+00 
4100 5.5542933577e+00 -4.5529697593e-02 1.7161029053e+00 -2.9723774230e+00 1.7161029053e+00 2.9723774230e+00 
4200 5.5542150210e+00 -4.4687658000e-02 1.7174296194e+00 -2.9746753593e+00 1.7174296194e+00 2.9746753593e+00 
4300 5.5541354956e+00 -4.3849006223e-02 1.7187307876e+00 -2.9769290487e+00 1.7187307876e+00 2.9769290487e+00 
4400 5.5540552535e+00 -4.3013659654e-02 1.7200065670e+00 -2.9791387634e+00 1.7200065670e+00 2.9791387634e+00 
4500 5.5539747445e+00 -4.2181561699e-02 1.7212571107e+00 -2.9813047686e+00 1.7212571107e+00 2.9813047686e+00 
4600 5.5538943938e+00 -4.1352680959e-02 1.7224825686e+00 -2.9834273240e+00 1.7224825686e+00 2.9834273240e+00 
4700 5.5538146011e+00 -4.0527010372e-02 1.7236830882e+00 -2.9855066849e+00 1.7236830882e+00 2.9855066849e+00 
4800 5.5537357398e+00 -3.9704566321e-02 1.7248588151e+00 -2.9875431037e+00 1.7248588151e+00 2.9875431037e+00 
4900 5.5536581555e+00 -3.8885387710e-02 1.7260098943e+00 -2.9895368312e+00 1.7260098943e+00 2.9895368312e+00 
5000 5.5535821663e+00 -3.8069535009e-02 1.7271364699e+00 -2.9914881175e+00 1.7271364699e+00 2.9914881175e+00 
5100 5.5535080618e+00 -3.7257089267e-02 1.7282386868e+00 -2.9933972132e+00 1.7282386868e+00 2.9933972132e+00 
5200 5.5534361037e+00 -3.6448151102e-02 1.7293166907e+00 -2.9952643707e+00 1.7293166907e+00 2.9952643707e+00 
5300 5.5533665252e+00 -3.5642839667e-02 1.7303706287e+00 -2.9970898448e+00 1.7303706287e+00 2.9970898448e+00 
5400 5.5532995318e+00 -3.4841291589e-02 1.7314006500e+00 -2.9988738941e+00 1.7314006500e+00 2.9988738941e+00 
5500 5.5532353018e+00 -3.4043659899e-02 1.7324069066e+00 -3.0006167815e+00 1.7324069066e+00 3.0006167815e+00 
5600 5.5531739867e+00 -3.3250112937e-02 1.7333895532e+00 -3.0023187754e+00 1.7333895532e+00 3.0023187754e+00 
5700 5.5531157119e+00 -3.2460833252e-02 1.7343487483e+00 -3.0039801502e+00 1.7343487483e+00 3.0039801502e+00 
5800 5.5530605780e+00 -3.1676016489e-02 1.7352846544e+00 -3.0056011871e+00 1.7352846544e+00 3.0056011871e+00 
5900 5.5530086612e+00 -3.0895870275e-02 1.7361974382e+00 -3.0071821748e+00 1.7361974382e+00 3.0071821748e+00 
6000 5.5529600149e+00 -3.0120613092e-02 1.7370872709e+00 -3.0087234104e+00 1.7370872709e+00 3.0087234104e+00 
6100 5.5529146708e+00 -2.9350473162e-02 1.7379543292e+00 -3.0102251994e+00 1.7379543292e+00 3.0102251994e+00 
6200 5.5528726395e+00 -2.8585687329e-02 1.7387987947e+00 -3.0116878565e+00 1.7387987947e+00 3.0116878565e+00 
6300 5.5528339128e+00 -2.7826499949e-02 1.7396208547e+00 -3.0131117062e+00 1.7396208547e+00 3.0131117062e+00 
6400 5.5527984641e+00 -2.7073161789e-02 1.7404207023e+00 -3.0144970829e+00 1.7404207023e+00 3.0144970829e+00 
6500 5.5527662502e+00 -2.6325928937e-02 1.7411985365e+00 -3.0158443313e+00 1.7411985365e+00 3.0158443313e+00 
6600 5.5527372125e+00 -2.5585061731e-02 1.7419545627e+00 -3.0171538071e+00 1.7419545627e+00 3.0171538071e+00 
6700 5.5527112786e+00 -2.4850823702e-02 1.7426889923e+00 -3.0184258764e+00 1.7426889923e+00 3.0184258764e+00 
6800 5.5526883631e+00 -2.4123480540e-02 1.7434020431e+00 -3.0196609167e+00 1.7434020431e+00 3.0196609167e+00 
6900 5.5526683696e+00 -2.3403299079e-02 1.7440939396e+00 -3.0208593166e+00 1.7440939396e+00 3.0208593166e+00 
7000 5.5526511916e+00 -2.2690546310e-02 1.7447649126e+00 -3.0220214759e+00 1.7447649126e+00 3.0220214759e+00 
7100 5.5526367138e+00 -2.1985488420e-02 1.7454151995e+00 -3.0231478059e+00 1.7454151995e+00 3.0231478059e+00 
7200 5.5526248138e+00 -2.1288389863e-02 1.7460450442e+00 -3.0242387289e+00 1.7460450442e+00 3.0242387289e+00 
7300 5.5526153628e+00 -2.0599512455e-02 1.7466546971e+00 -3.0252946787e+00 1.7466546971e+00 3.0252946787e+00 
7400 5.5526082268e+00 -1.9919114511e-02 1.7472444150e+00 -3.0263161001e+00 1.7472444150e+00 3.0263161001e+00 
7500 5.5526032682e+00 -1.9247450008e-02 1.7478144611e+00 -3.0273034489e+00 1.7478144611e+00 3.0273034489e+00 
7600 5.5526003465e+00 -1.8584767788e-02 1.7483651048e+00 -3.0282571917e+00 1.7483651048e+00 3.0282571917e+00 
7700 5.5525993193e+00 -1.7931310802e-02 1.7488966216e+00 -3.0291778058e+00 1.7488966216e+00 3.0291778058e+00 
7800 5.5526000436e+00 -1.7287315379e-02 1.7494092931e+00 -3.0300657788e+00 1.7494092931e+00 3.0300657788e+00 
7900 5.5526023762e+00 -1.6653010552e-02 1.7499034064e+00 -3.0309216082e+00 1.7499034064e+00 3.0309216082e+00 
8000 5.5526061751e+00 -1.6028617411e-02 1.7503792545e+00 -3.0317458013e+00 1.7503792545e+00 3.0317458013e+00 
8100 5.5526112998e+00 -1.5414348497e-02 1.7508371357e+00 -3.0325388749e+00 1.7508371357e+00 3.0325388749e+00 
8200 5.5526176123e+00 -1.4810407248e-02 1.7512773536e+00 -3.0333013545e+00 1.7512773536e+00 3.0333013545e+00 
8300 5.5526249777e+00 -1.4216987476e-02 1.7517002164e+00 -3.0340337745e+00 1.7517002164e+00 3.0340337745e+00 
8400 5.5526332646e+00 -1.3634272890e-02 1.7521060375e+00 -3.0347366771e+00 1.7521060375e+00 3.0347366771e+00 
8500 5.5526423461e+00 -1.3062436660e-02 1.7524951343e+00 -3.0354106126e+00 1.7524951343e+00 3.0354106126e+00 
8600 5.5526520997e+00 -1.2501641025e-02 1.7528678286e+00 -3.0360561381e+00 1.7528678286e+00 3.0360561381e+00 
8700 5.5526624079e+00 -1.1952036941e-02 1.7532244460e+00 -3.0366738176e+00 1.7532244460e+00 3.0366738176e+00 
8800 5.5526731589e+00 -1.1413763773e-02 1.7535653158e+00 -3.0372642214e+00 1.7535653158e+00 3.0372642214e+00 
8900 5.5526842465e+00 -1.0886949025e-02 1.7538907704e+00 -3.0378279252e+00 1.7538907704e+00 3.0378279252e+00 
9000 5.5526955702e+00 -1.0371708111e-02 1.7542011452e+00 -3.0383655101e+00 1.7542011452e+00 3.0383655101e+00 
9100 5.5527070360e+00 -9.8681441724e-03 1.7544967783e+00 -3.0388775617e+00 1.7544967783e+00 3.0388775617e+00 
9200 5.5527185558e+00 -9.3763479242e-03 1.7547780102e+00 -3.0393646696e+00 1.7547780102e+00 3.0393646696e+00 
9300 5.5527300482e+00 -8.8963975501e-03 1.7550451831e+00 -3.0398274268e+00 1.7550451831e+00 3.0398274268e+00 
9400 5.5527414379e+00 -8.4283586289e-03 1.7552986413e+00 -3.0402664293e+00 1.7552986413e+00 3.0402664293e+00 
9500 5.5527526560e+00 -7.9722840996e-03 1.7555387301e+00 -3.0406822752e+00 1.7555387301e+00 3.0406822752e+00 
9600 5.5527636402e+00 -7.5282142623e-03 1.7557657959e+00 -3.0410755647e+00 1.7557657959e+00 3.0410755647e+00 
9700 5.5527743341e+00 -7.0961768127e-03 1.7559801858e+00 -3.0414468989e+00 1.7559801858e+00 3.0414468989e+00 
9800 5.5527846879e+00 -6.6761869110e-03 1.7561822471e+00 -3.0417968793e+00 1.7561822471e+00 3.0417968793e+00 
9900 5.5527946574e+00 -6.2682472814e-03 1.7563723272e+00 -3.0421261078e+00 1.7563723272e+00 3.0421261078e+00 
10000 5.5528042046e+00 -5.8723483427e-03 1.7565507733e+00 -3.0424351854e+00 1.7565507733e+00 3.0424351854e+00 
10100 5.5528132968e+00 -5.4884683682e-03 1.7567179316e+00 -3.0427247121e+00 1.7567179316e+00 3.0427247121e+00 
10200 5.5528219072e+00 -5.1165736729e-03 1.7568741476e+00 -3.0429952861e+00 1.7568741476e+00 3.0429952861e+00 
10300 5.5528300139e+00 -4.7566188271e-03 1.7570197654e+00 -3.0432475036e+00 1.7570197654e+00 3.0432475036e+00 
10400 5.5528376000e+00 -4.4085468945e-03 1.7571551276e+00 -3.0434819578e+00 1.7571551276e+00 3.0434819578e+00 
10500 5.5528446535e+00 -4.0722896935e-03 1.7572805747e+00 -3.0436992385e+00 1.7572805747e+00 3.0436992385e+00 
10600 5.5528511667e+00 -3.7477680798e-03 1.7573964450e+00 -3.0438999318e+00 1.7573964450e+00 3.0438999318e+00 
10700 5.5528571361e+00 -3.4348922497e-03 1.7575030745e+00 -3.0440846195e+00 1.7575030745e+00 3.0440846195e+00 
10800 5.5528625621e+00 -3.1335620609e-03 1.7576007962e+00 -3.0442538785e+00 1.7576007962e+00 3.0442538785e+00 
10900 5.5528674486e+00 -2.8436673708e-03 1.7576899402e+00 -3.0444082803e+00 1.7576899402e+00 3.0444082803e+00 
11000 5.5528718029e+00 -2.5650883897e-03 1.7577708330e+00 -3.0445483907e+00 1.7577708330e+00 3.0445483907e+00 
11100 5.5528756354e+00 -2.2976960480e-03 1.7578437977e+00 -3.0446747694e+00 1.7578437977e+00 3.0446747694e+00 
11200 5.5528789589e+00 -2.0413523753e-03 1.7579091536e+00 -3.0447879692e+00 1.7579091536e+00 3.0447879692e+00 
11300 5.5528817890e+00 -1.7959108904e-03 1.7579672159e+00 -3.0448885360e+00 1.7579672159e+00 3.0448885360e+00 
11400 5.5528841431e+00 -1.5612170006e-03 1.7580182953e+00 -3.0449770081e+00 1.7580182953e+00 3.0449770081e+00 
11500 5.5528860409e+00 -1.3371084082e-03 1.7580626983e+00 -3.0450539163e+00 1.7580626983e+00 3.0450539163e+00 
11600 5.5528875032e+00 -1.1234155239e-03 1.7581007263e+00 -3.0451197828e+00 1.7581007263e+00 3.0451197828e+00 
11700 5.5528885526e+00 -9.1996188514e-04 1.7581326761e+00 -3.0451751214e+00 1.7581326761e+00 3.0451751214e+00 
11800 5.5528892126e+00 -7.2656457739e-04 1.7581588392e+00 -3.0452204373e+00 1.7581588392e+00 3.0452204373e+00 
11900 5.5528895075e+00 -5.4303465858e-04 1.7581795019e+00 -3.0452562261e+00 1.7581795019e+00 3.0452562261e+00 
12000 5.5528894624e+00 -3.6917758414e-04 1.7581949450e+00 -3.0452829744e+00 1.7581949450e+00 3.0452829744e+00 
12100 5.5528891028e+00 -2.0479363206e-04 1.7582054438e+00 -3.0453011588e+00 1.7582054438e+00 3.0453011588e+00 
12200 5.5528884543e+00 -4.9678326699e-05 1.7582112677e+00 -3.0453112461e+00 1.7582112677e+00 3.0453112461e+00 
12300 5.5528875422e+00 9.5259915028e-05 1.7582112677e+00 -3.0453112461e+00 1.7582112677e+00 3.0453112461e+00 
12400 5.5528863927e+00 2.3248637733e-04 1.7582085587e+00 -3.0453065540e+00 1.7582085587e+00 3.0453065540e+00 
12500 5.5528850310e+00 3.6108165898e-04 1.7582019473e+00 -3.0452951026e+00 1.7582019473e+00 3.0452951026e+00 
12600 5.5528834820e+00 4.8126509093e-04 1.7581916788e+00 -3.0452773171e+00 1.7581916788e+00 3.0452773171e+00 
12700 5.5528817700e+00 5.9325869188e-04 1.7581779924e+00 -3.0452536117e+00 1.7581779924e+00 3.0452536117e+00 
12800 5.5528799187e+00 6.9728677264e-04 1.7581611211e+00 -3.0452243896e+00 1.7581611211e+00 3.0452243896e+00 
12900 5.5528779508e+00 7.9357554820e-04 1.7581412911e+00 -3.0451900431e+00 1.7581412911e+00 3.0451900431e+00 
13000 5.5528758883e+00 8.8235275793e-04 1.7581187226e+00 -3.0451509532e+00 1.7581187226e+00 3.0451509532e+00 
13100 5.5528737521e+00 9.6384729483e-04 1.7580936289e+00 -3.0451074898e+00 1.7580936289e+00 3.0451074898e+00 
13200 5.5528715621e+00 1.0382888442e-03 1.7580662173e+00 -3.0450600114e+00 1.7580662173e+00 3.0450600114e+00 
13300 5.5528693372e+00 1.1059075321e-03 1.7580366881e+00 -3.0450088654e+00 1.7580366881e+00 3.0450088654e+00 
13400 5.5528670950e+00 1.1669335847e-03 1.7580052353e+00 -3.0449543875e+00 1.7580052353e+00 3.0449543875e+00 
13500 5.5528648520e+00 1.2215969980e-03 1.7579720462e+00 -3.0448969024e+00 1.7579720462e+00 3.0448969024e+00 
13600 5.5528626236e+00 1.2701272190e-03 1.7579373019e+00 -3.0448367233e+00 1.7579373019e+00 3.0448367233e+00 
13700 5.5528604238e+00 1.3127528379e-03 1.7579011765e+00 -3.0447741524e+00 1.7579011765e+00 3.0447741524e+00 
13800 5.5528582655e+00 1.3497012931e-03 1.7578638380e+00 -3.0447094802e+00 1.7578638380e+00 3.0447094802e+00 
13900 5.5528561603e+00 1.3811985866e-03 1.7578254477e+00 -3.0446429863e+00 1.7578254477e+00 3.0446429863e+00 
14000 5.5528541187e+00 1.4074690131e-03 1.7577861607e+00 -3.0445749393e+00 1.7577861607e+00 3.0445749393e+00 
14100 5.5528521500e+00 1.4287348999e-03 1.7577461256e+00 -3.0445055964e+00 1.7577461256e+00 3.0445055964e+00 
14200 5.5528502622e+00 1.4452163602e-03 1.7577054847e+00 -3.0444352042e+00 1.7577054847e+00 3.0444352042e+00 
14300 5.5528484623e+00 1.4571310579e-03 1.7576643740e+00 -3.0443639983e+00 1.7576643740e+00 3.0443639983e+00 
14400 5.5528467562e+00 1.4646939855e-03 1.7576229233e+00 -3.0442922038e+00 1.7576229233e+00 3.0442922038e+00 
14500 5.5528451488e+00 1.4681172539e-03 1.7575812566e+00 -3.0442200349e+00 1.7575812566e+00 3.0442200349e+00 
14600 5.5528436438e+00 1.4676098941e-03 1.7575394915e+00 -3.0441476956e+00 1.7575394915e+00 3.0441476956e+00 
14700 5.5528422440e+00 1.4633776719e-03 1.7574977398e+00 -3.0440753796e+00 1.7574977398e+00 3.0440753796e+00 
14800 5.5528409515e+00 1.4556229142e-03 1.7574561076e+00 -3.0440032704e+00 1.7574561076e+00 3.0440032704e+00 
14900 5.5528397673e+00 1.4445443467e-03 1.7574146950e+00 -3.0439315416e+00 1.7574146950e+00 3.0439315416e+00 
15000 5.5528386917e+00 1.4303369448e-03 1.7573735966e+00 -3.0438603571e+00 1.7573735966e+00 3.0438603571e+00 
15100 5.5528377242e+00 1.4131917944e-03 1.7573329014e+00 -3.0437898711e+00 1.7573329014e+00 3.0437898711e+00 
15200 5.5528368637e+00 1.3932959648e-03 1.7572926931e+00 -3.0437202283e+00 1.7572926931e+00 3.0437202283e+00 
15300 5.5528361084e+00 1.3708323934e-03 1.7572530500e+00 -3.0436515644e+00 1.7572530500e+00 3.0436515644e+00 
15400 5.5528354560e+00 1.3459797798e-03 1.7572140452e+00 -3.0435840061e+00 1.7572140452e+00 3.0435840061e+00 
15500 5.5528349035e+00 1.3189124917e-03 1.7571757467e+00 -3.0435176710e+00 1.7571757467e+00 3.0435176710e+00 
15600 5.5528344477e+00 1.2898004812e-03 1.7571382175e+00 -3.0434526686e+00 1.7571382175e+00 3.0434526686e+00 
15700 5.5528340848e+00 1.2588092102e-03 1.7571015158e+00 -3.0433890995e+00 1.7571015158e+00 3.0433890995e+00 
15800 5.5528338107e+00 1.2260995867e-03 1.7570656954e+00 -3.0433270566e+00 1.7570656954e+00 3.0433270566e+00 
15900 5.5528336212e+00 1.1918279098e-03 1.7570308049e+00 -3.0432666246e+00 1.7570308049e+00 3.0432666246e+00 
16000 5.5528335115e+00 1.1561458249e-03 1.7569968891e+00 -3.0432078806e+00 1.7569968891e+00 3.0432078806e+00 
16100 5.5528334769e+00 1.1192002867e-03 1.7569639880e+00 -3.0431508943e+00 1.7569639880e+00 3.0431508943e+00 
16200 5.5528335124e+00 1.0811335316e-03 1.7569321377e+00 -3.0430957279e+00 1.7569321377e+00 3.0430957279e+00 
16300 5.5528336129e+00 1.0420830582e-03 1.7569013701e+00 -3.0430424369e+00 1.7569013701e+00 3.0430424369e+00 
16400 5.5528337733e+00 1.0021816159e-03 1.7568717133e+00 -3.0429910699e+00 1.7568717133e+00 3.0429910699e+00 
16500 5.5528339884e+00 9.6155720049e-04 1.7568431917e+00 -3.0429416689e+00 1.7568431917e+00 3.0429416689e+00 
16600 5.5528342531e+00 9.2033305859e-04 1.7568158257e+00 -3.0428942696e+00 1.7568158257e+00 3.0428942696e+00 
16700 5.5528345623e+00 8.7862769755e-04 1.7567896325e+00 -3.0428489018e+00 1.7567896325e+00 3.0428489018e+00 
16800 5.5528349109e+00 8.3655490319e-04 1.7567646260e+00 -3.0428055891e+00 1.7567646260e+00 3.0428055891e+00 
16900 5.5528352940e+00 7.9422376348e-04 1.7567408165e+00 -3.0427643499e+00 1.7567408165e+00 3.0427643499e+00 
17000 5.5528357068e+00 7.5173869860e-04 1.7567182115e+00 -3.0427251969e+00 1.7567182115e+00 3.0427251969e+00 
17100 5.5528361446e+00 7.0919949673e-04 1.7566968154e+00 -3.0426881378e+00 1.7566968154e+00 3.0426881378e+00 
17200 5.5528366030e+00 6.6670135544e-04 1.7566766299e+00 -3.0426531754e+00 1.7566766299e+00 3.0426531754e+00 
17300 5.5528370777e+00 6.2433492829e-04 1.7566576537e+00 -3.0426203077e+00 1.7566576537e+00 3.0426203077e+00 
17400 5.5528375645e+00 5.8218637651e-04 1.7566398832e+00 -3.0425895283e+00 1.7566398832e+00 3.0425895283e+00 
17500 5.5528380597e+00 5.4033742523e-04 1.7566233122e+00 -3.0425608265e+00 1.7566233122e+00 3.0425608265e+00 
17600 5.5528385595e+00 4.9886542420e-04 1.7566079322e+00 -3.0425341876e+00 1.7566079322e+00 3.0425341876e+00 
17700 5.5528390604e+00 4.5784341268e-04 1.7565937326e+00 -3.0425095930e+00 1.7565937326e+00 3.0425095930e+00 
17800 5.5528395595e+00 4.1734018811e-04 1.7565807004e+00 -3.0424870207e+00 1.7565807004e+00 3.0424870207e+00 
17900 5.5528400536e+00 3.7742037845e-04 1.7565688211e+00 -3.0424664452e+00 1.7565688211e+00 3.0424664452e+00 
18000 5.5528405400e+00 3.3814451792e-04 1.7565580780e+00 -3.0424478376e+00 1.7565580780e+00 3.0424478376e+00 
18100 5.5528410165e+00 2.9956912576e-04 1.7565484528e+00 -3.0424311662e+00 1.7565484528e+00 3.0424311662e+00 
18200 5.5528414806e+00 2.6174678791e-04 1.7565399256e+00 -3.0424163967e+00 1.7565399256e+00 3.0424163967e+00 
18300 5.5528419304e+00 2.2472624136e-04 1.7565324750e+00 -3.0424034918e+00 1.7565324750e+00 3.0424034918e+00 
18400 5.5528423643e+00 1.8855246082e-04 1.7565260781e+00 -3.0423924121e+00 1.7565260781e+00 3.0423924121e+00 
18500 5.5528427807e+00 1.5326674766e-04 1.7565207109e+00 -3.0423831159e+00 1.7565207109e+00 3.0423831159e+00 
18600 5.5528431782e+00 1.1890682075e-04 1.7565163481e+00 -3.0423755593e+00 1.7565163481e+00 3.0423755593e+00 
18700 5.5528435559e+00 8.5506909109e-05 1.7565129634e+00 -3.0423696967e+00 1.7565129634e+00 3.0423696967e+00 
18800 5.5528439128e+00 5.3097846070e-05 1.7565105294e+00 -3.0423654809e+00 1.7565105294e+00 3.0423654809e+00 
18900 5.5528442483e+00 2.2910265232e-05 1.7565105294e+00 -3.0423654809e+00 1.7565105294e+00 3.0423654809e+00 
19000 5.5528445618e+00 -6.9388155144e-06 1.7565105294e+00 -3.0423654809e+00 1.7565105294e+00 3.0423654809e+00 
19100 5.5528448531e+00 -3.6408625921e-05 1.7565105294e+00 -3.0423654809e+00 1.7565105294e+00 3.0423654809e+00 
19200 5.5528451222e+00 -6.5460823455e-05 1.7565105294e+00 -3.0423654809e+00 1.7565105294e+00 3.0423654809e+00 
19300 5.5528453691e+00 -9.4059451518e-05 1.7565105294e+00 -3.0423654809e+00 1.7565105294e+00 3.0423654809e+00 
19400 5.5528455938e+00 -1.2004007062e-04 1.7565132068e+00 -3.0423701184e+00 1.7565132068e+00 3.0423701184e+00 
19500 5.5528457965e+00 -1.4490122557e-04 1.7565166238e+00 -3.0423760368e+00 1.7565166238e+00 3.0423760368e+00 
19600 5.5528459777e+00 -1.6863571712e-04 1.7565207485e+00 -3.0423831810e+00 1.7565207485e+00 3.0423831810e+00 
19700 5.5528461380e+00 -1.9123885563e-04 1.7565255488e+00 -3.0423914953e+00 1.7565255488e+00 3.0423914953e+00 
19800 5.5528462778e+00 -2.1270836125e-04 1.7565309925e+00 -3.0424009240e+00 1.7565309925e+00 3.0424009240e+00 
19900 5.5528463981e+00 -2.3304426417e-04 1.7565370473e+00 -3.0424114112e+00 1.7565370473e+00 3.0424114112e+00 
20000 5.5528464994e+00 -2.5224880556e-04 1.7565436809e+00 -3.0424229010e+00 1.7565436809e+00 3.0424229010e+00 
20100 5.5528465827e+00 -2.7032633878e-04 1.7565508612e+00 -3.0424353376e+00 1.7565508612e+00 3.0424353376e+00 
20200 5.5528466488e+00 -2.8728323147e-04 1.7565585560e+00 -3.0424486654e+00 1.7565585560e+00 3.0424486654e+00 
20300 5.5528466987e+00 -3.0312776832e-04 1.7565667334e+00 -3.0424628292e+00 1.7565667334e+00 3.0424628292e+00 
20400 5.5528467334e+00 -3.1787005474e-04 1.7565753618e+00 -3.0424777740e+00 1.7565753618e+00 3.0424777740e+00 
20500 5.5528467538e+00 -3.3152192155e-04 1.7565844099e+00 -3.0424934457e+00 1.7565844099e+00 3.0424934457e+00 
20600 5.5528467610e+00 -3.4409683078e-04 1.7565938464e+00 -3.0425097903e+00 1.7565938464e+00 3.0425097903e+00 
20700 5.5528467560e+00 -3.5560978263e-04 1.7566036409e+00 -3.0425267547e+00 1.7566036409e+00 3.0425267547e+00 
20800 5.5528467399e+00 -3.6607722377e-04 1.7566137630e+00 -3.0425442867e+00 1.7566137630e+00 3.0425442867e+00 
20900 5.5528467136e+00 -3.7551695693e-04 1.7566241829e+00 -3.0425623346e+00 1.7566241829e+00 3.0425623346e+00 
21000 5.5528466782e+00 -3.8394805204e-04 1.7566348715e+00 -3.0425808479e+00 1.7566348715e+00 3.0425808479e+00 
21100 5.5528466346e+00 -3.9139075884e-04 1.7566458001e+00 -3.0425997766e+00 1.7566458001e+00 3.0425997766e+00 
21200 5.5528465840e+00 -3.9786642112e-04 1.7566569404e+00 -3.0426190722e+00 1.7566569404e+00 3.0426190722e+00 
21300 5.5528465271e+00 -4.0339739258e-04 1.7566682649e+00 -3.0426386869e+00 1.7566682649e+00 3.0426386869e+00 
21400 5.5528464649e+00 -4.0800695453e-04 1.7566797468e+00 -3.0426585741e+00 1.7566797468e+00 3.0426585741e+00 
21500 5.5528463984e+00 -4.1171923525e-04 1.7566913598e+00 -3.0426786885e+00 1.7566913598e+00 3.0426786885e+00 
21600 5.5528463283e+00 -4.1455913127e-04 1.7567030785e+00 -3.0426989857e+00 1.7567030785e+00 3.0426989857e+00 
21700 5.5528462555e+00 -4.1655223056e-04 1.7567148778e+00 -3.0427194228e+00 1.7567148778e+00 3.0427194228e+00 
21800 5.5528461807e+00 -4.1772473759e-04 1.7567267338e+00 -3.0427399580e+00 1.7567267338e+00 3.0427399580e+00 
21900 5.5528461047e+00 -4.1810340042e-04 1.7567386231e+00 -3.0427605509e+00 1.7567386231e+00 3.0427605509e+00 
22000 5.5528460281e+00 -4.1771543980e-04 1.7567505231e+00 -3.0427811623e+00 1.7567505231e+00 3.0427811623e+00 
22100 5.5528459515e+00 -4.1658848033e-04 1.7567624120e+00 -3.0428017544e+00 1.7567624120e+00 3.0428017544e+00 
22200 5.5528458756e+00 -4.1475048365e-04 1.7567742687e+00 -3.0428222909e+00 1.7567742687e+00 3.0428222909e+00 
22300 5.5528458008e+00 -4.1222968379e-04 1.7567860731e+00 -3.0428427366e+00 1.7567860731e+00 3.0428427366e+00 
22400 5.5528457276e+00 -4.0905452461e-04 1.7567978056e+00 -3.0428630579e+00 1.7567978056e+00 3.0428630579e+00 
22500 5.5528456565e+00 -4.0525359940e-04 1.7568094476e+00 -3.0428832225e+00 1.7568094476e+00 3.0428832225e+00 
22600 5.5528455878e+00 -4.0085559264e-04 1.7568209814e+00 -3.0429031997e+00 1.7568209814e+00 3.0429031997e+00 
22700 5.5528455220e+00 -3.9588922390e-04 1.7568323900e+00 -3.0429229599e+00 1.7568323900e+00 3.0429229599e+00 
22800 5.5528454592e+00 -3.9038319394e-04 1.7568436572e+00 -3.0429424751e+00 1.7568436572e+00 3.0429424751e+00 
22900 5.5528453997e+00 -3.8436613297e-04 1.7568547675e+00 -3.0429617189e+00 1.7568547675e+00 3.0429617189e+00 
23000 5.5528453439e+00 -3.7786655113e-04 1.7568657066e+00 -3.0429806659e+00 1.7568657066e+00 3.0429806659e+00 
23100 5.5528452917e+00 -3.7091279103e-04 1.7568764606e+00 -3.0429992924e+00 1.7568764606e+00 3.0429992924e+00 
23200 5.5528452434e+00 -3.6353298264e-04 1.7568870166e+00 -3.0430175759e+00 1.7568870166e+00 3.0430175759e+00 
23300 5.5528451990e+00 -3.5575500016e-04 1.7568973626e+00 -3.0430354957e+00 1.7568973626e+00 3.0430354957e+00 
23400 5.5528451587e+00 -3.4760642113e-04 1.7569074871e+00 -3.0430530319e+00 1.7569074871e+00 3.0430530319e+00 
23500 5.5528451224e+00 -3.3911448767e-04 1.7569173797e+00 -3.0430701663e+00 1.7569173797e+00 3.0430701663e+00 
23600 5.5528450901e+00 -3.3030606982e-04 1.7569270305e+00 -3.0430868821e+00 1.7569270305e+00 3.0430868821e+00 
23700 5.5528450619e+00 -3.2120763095e-04 1.7569364306e+00 -3.0431031635e+00 1.7569364306e+00 3.0431031635e+00 
23800 5.5528450376e+00 -3.1184519530e-04 1.7569455718e+00 -3.0431189965e+00 1.7569455718e+00 3.0431189965e+00 
23900 5.5528450171e+00 -3.0224431750e-04 1.7569544464e+00 -3.0431343678e+00 1.7569544464e+00 3.0431343678e+00 
24000 5.5528450005e+00 -2.9243005416e-04 1.7569630478e+00 -3.0431492658e+00 1.7569630478e+00 3.0431492658e+00 
24100 5.5528449876e+00 -2.8242693742e-04 1.7569713698e+00 -3.0431636800e+00 1.7569713698e+00 3.0431636800e+00 
24200 5.5528449781e+00 -2.7225895047e-04 1.7569794072e+00 -3.0431776011e+00 1.7569794072e+00 3.0431776011e+00 
24300 5.5528449721e+00 -2.6194950503e-04 1.7569871551e+00 -3.0431910209e+00 1.7569871551e+00 3.0431910209e+00 
24400 5.5528449693e+00 -2.5152142062e-04 1.7569946096e+00 -3.0432039325e+00 1.7569946096e+00 3.0432039325e+00 
24500 5.5528449695e+00 -2.4099690578e-04 1.7570017673e+00 -3.0432163300e+00 1.7570017673e+00 3.0432163300e+00 
24600 5.5528449727e+00 -2.3039754109e-04 1.7570086255e+00 -3.0432282088e+00 1.7570086255e+00 3.0432282088e+00 
24700 5.5528449785e+00 -2.1974426387e-04 1.7570151821e+00 -3.0432395650e+00 1.7570151821e+00 3.0432395650e+00 
24800 5.5528449868e+00 -2.0905735478e-04 1.7570214354e+00 -3.0432503961e+00 1.7570214354e+00 3.0432503961e+00 
24900 5.5528449974e+00 -1.9835642591e-04 1.7570273846e+00 -3.0432607004e+00 1.7570273846e+00 3.0432607004e+00 
25000 5.5528450101e+00 -1.8766041068e-04 1.7570330293e+00 -3.0432704773e+00 1.7570330293e+00 3.0432704773e+00 
25100 5.5528450248e+00 -1.7698755526e-04 1.7570383695e+00 -3.0432797269e+00 1.7570383695e+00 3.0432797269e+00 
25200 5.5528450412e+00 -1.6635541150e-04 1.7570434061e+00 -3.0432884504e+00 1.7570434061e+00 3.0432884504e+00 
25300 5.5528450590e+00 -1.5578083150e-04 1.7570481400e+00 -3.0432966499e+00 1.7570481400e+00 3.0432966499e+00 
25400 5.5528450783e+00 -1.4527996349e-04 1.7570525731e+00 -3.0433043281e+00 1.7570525731e+00 3.0433043281e+00 
25500 5.5528450986e+00 -1.3486824923e-04 1.7570567073e+00 -3.0433114888e+00 1.7570567073e+00 3.0433114888e+00 
25600 5.5528451200e+00 -1.2456042265e-04 1.7570605452e+00 -3.0433181362e+00 1.7570605452e+00 3.0433181362e+00 
25700 5.5528451421e+00 -1.1437050994e-04 1.7570640897e+00 -3.0433242756e+00 1.7570640897e+00 3.0433242756e+00 
25800 5.5528451649e+00 -1.0431183081e-04 1.7570673443e+00 -3.0433299127e+00 1.7570673443e+00 3.0433299127e+00 
25900 5.5528451881e+00 -9.4397000939e-05 1.7570703127e+00 -3.0433350540e+00 1.7570703127e+00 3.0433350540e+00 
26000 5.5528452117e+00 -8.4637935657e-05 1.7570729989e+00 -3.0433397067e+00 1.7570729989e+00 3.0433397067e+00 
26100 5.5528452354e+00 -7.5045854679e-05 1.7570754074e+00 -3.0433438783e+00 1.7570754074e+00 3.0433438783e+00 
26200 5.5528452592e+00 -6.5631287918e-05 1.7570775429e+00 -3.0433475772e+00 1.7570775429e+00 3.0433475772e+00 
26300 5.5528452830e+00 -5.7888518702e-05 1.7570775429e+00 -3.0433475772e+00 1.7570775429e+00 3.0433475772e+00 
26400 5.5528453065e+00 -5.0142414405e-05 1.7570775429e+00 -3.0433475772e+00 1.7570775429e+00 3.0433475772e+00 
26500 5.5528453296e+00 -4.2404743393e-05 1.7570775429e+00 -3.0433475772e+00 1.7570775429e+00 3.0433475772e+00 
26600 5.5528453523e+00 -3.4686810623e-05 1.7570775429e+00 -3.0433475772e+00 1.7570775429e+00 3.0433475772e+00 
26700 5.5528453745e+00 -2.6999457484e-05 1.7570775429e+00 -3.0433475772e+00 1.7570775429e+00 3.0433475772e+00 
26800 5.5528453961e+00 -1.9353062387e-05 1.7570775429e+00 -3.0433475772e+00 1.7570775429e+00 3.0433475772e+00 
26900 5.5528454170e+00 -1.1757542082e-05 1.7570775429e+00 -3.0433475772e+00 1.7570775429e+00 3.0433475772e+00 
27000 5.5528454371e+00 -4.2223536612e-06 1.7570775429e+00 -3.0433475772e+00 1.7570775429e+00 3.0433475772e+00 
27100 5.5528454566e+00 3.2435027657e-06 1.7570775429e+00 -3.0433475772e+00 1.7570775429e+00 3.0433475772e+00 
27200 5.5528454752e+00 1.0631480781e-05 1.7570775429e+00 -3.0433475772e+00 1.7570775429e+00 3.0433475772e+00 
27300 5.5528454930e+00 1.7933483741e-05 1.7570775429e+00 -3.0433475772e+00 1.7570775429e+00 3.0433475772e+00 
27400 5.5528455099e+00 2.5141860315e-05 1.7570775429e+00 -3.0433475772e+00 1.7570775429e+00 3.0433475772e+00 
27500 5.5528455260e+00 3.2249399457e-05 1.7570775429e+00 -3.0433475772e+00 1.7570775429e+00 3.0433475772e+00 
27600 5.5528455412e+00 3.9249324883e-05 1.7570775429e+00 -3.0433475772e+00 1.7570775429e+00 3.0433475772e+00 
27700 5.5528455555e+00 4.6135289043e-05 1.7570775429e+00 -3.0433475772e+00 1.7570775429e+00 3.0433475772e+00 
27800 5.5528455690e+00 5.2901366658e-05 1.7570775429e+00 -3.0433475772e+00 1.7570775429e+00 3.0433475772e+00 
27900 5.5528455815e+00 5.9542047817e-05 1.7570775429e+00 -3.0433475772e+00 1.7570775429e+00 3.0433475772e+00 
28000 5.5528455932e+00 6.6052230680e-05 1.7570775429e+00 -3.0433475772e+00 1.7570775429e+00 3.0433475772e+00 
28100 5.5528456041e+00 7.2427213803e-05 1.7570775429e+00 -3.0433475772e+00 1.7570775429e+00 3.0433475772e+00 
28200 5.5528456139e+00 7.7024160937e-05 1.7570754819e+00 -3.0433440074e+00 1.7570754819e+00 3.0433440074e+00 
28300 5.5528456229e+00 8.1363918143e-05 1.7570732901e+00 -3.0433402110e+00 1.7570732901e+00 3.0433402110e+00 
28400 5.5528456310e+00 8.5448067298e-05 1.7570709747e+00 -3.0433362008e+00 1.7570709747e+00 3.0433362008e+00 
28500 5.5528456384e+00 8.9278569609e-05 1.7570685432e+00 -3.0433319892e+00 1.7570685432e+00 3.0433319892e+00 
28600 5.5528456449e+00 9.2857748290e-05 1.7570660026e+00 -3.0433275888e+00 1.7570660026e+00 3.0433275888e+00 
28700 5.5528456507e+00 9.6188271273e-05 1.7570633602e+00 -3.0433230120e+00 1.7570633602e+00 3.0433230120e+00 
28800 5.5528456559e+00 9.9273133950e-05 1.7570606230e+00 -3.0433182711e+00 1.7570606230e+00 3.0433182711e+00 
28900 5.5528456603e+00 1.0211564199e-04 1.7570577981e+00 -3.0433133781e+00 1.7570577981e+00 3.0433133781e+00 
29000 5.5528456642e+00 1.0471939430e-04 1.7570548922e+00 -3.0433083450e+00 1.7570548922e+00 3.0433083450e+00 
29100 5.5528456674e+00 1.0708826602e-04 1.7570519122e+00 -3.0433031835e+00 1.7570519122e+00 3.0433031835e+00 
29200 5.5528456701e+00 1.0922639180e-04 1.7570488648e+00 -3.0432979053e+00 1.7570488648e+00 3.0432979053e+00 
29300 5.5528456723e+00 1.1113814913e-04 1.7570457566e+00 -3.0432925217e+00 1.7570457566e+00 3.0432925217e+00 
29400 5.5528456740e+00 1.1282814194e-04 1.7570425940e+00 -3.0432870438e+00 1.7570425940e+00 3.0432870438e+00 
29500 5.5528456753e+00 1.1430118443e-04 1.7570393832e+00 -3.0432814827e+00 1.7570393832e+00 3.0432814827e+00 
29600 5.5528456763e+00 1.1556228509e-04 1.7570361306e+00 -3.0432758489e+00 1.7570361306e+00 3.0432758489e+00 
29700 5.5528456768e+00 1.1661663100e-04 1.7570328420e+00 -3.0432701529e+00 1.7570328420e+00 3.0432701529e+00 
29800 5.5528456771e+00 1.1746957243e-04 1.7570295234e+00 -3.0432644050e+00 1.7570295234e+00 3.0432644050e+00 
29900 5.5528456771e+00 1.1812660772e-04 1.7570261806e+00 -3.0432586150e+00 1.7570261806e+00 3.0432586150e+00 
30000 5.5528456768e+00 1.1859336841e-04 1.7570228191e+00 -3.0432527927e+00 1.7570228191e+00 3.0432527927e+00 
30100 5.5528456764e+00 1.1887560482e-04 1.7570194442e+00 -3.0432469473e+00 1.7570194442e+00 3.0432469473e+00 
30200 5.5528456758e+00 1.1897917184e-04 1.7570160613e+00 -3.0432410880e+00 1.7570160613e+00 3.0432410880e+00 
30300 5.5528456750e+00 1.1891001514e-04 1.7570126755e+00 -3.0432352235e+00 1.7570126755e+00 3.0432352235e+00 
30400 5.5528456742e+00 1.1867415768e-04 1.7570092916e+00 -3.0432293625e+00 1.7570092916e+00 3.0432293625e+00 
30500 5.5528456733e+00 1.1827768668e-04 1.7570059145e+00 -3.0432235131e+00 1.7570059145e+00 3.0432235131e+00 
30600 5.5528456723e+00 1.1772674087e-04 1.7570025486e+00 -3.0432176832e+00 1.7570025486e+00 3.0432176832e+00 
30700 5.5528456713e+00 1.1702749820e-04 1.7569991984e+00 -3.0432118804e+00 1.7569991984e+00 3.0432118804e+00 
30800 5.5528456702e+00 1.1618616384e-04 1.7569958681e+00 -3.0432061122e+00 1.7569958681e+00 3.0432061122e+00 
30900 5.5528456692e+00 1.1520895874e-04 1.7569925617e+00 -3.0432003853e+00 1.7569925617e+00 3.0432003853e+00 
31000 5.5528456683e+00 1.1410210840e-04 1.7569892831e+00 -3.0431947067e+00 1.7569892831e+00 3.0431947067e+00 
31100 5.5528456673e+00 1.1287183222e-04 1.7569860360e+00 -3.0431890825e+00 1.7569860360e+00 3.0431890825e+00 
31200 5.5528456665e+00 1.1152433314e-04 1.7569828239e+00 -3.0431835190e+00 1.7569828239e+00 3.0431835190e+00 
31300 5.5528456657e+00 1.1006578773e-04 1.7569796502e+00 -3.0431780220e+00 1.7569796502e+00 3.0431780220e+00 
31400 5.5528456650e+00 1.0850233672e-04 1.7569765179e+00 -3.0431725967e+00 1.7569765179e+00 3.0431725967e+00 
31500 5.5528456644e+00 1.0684007592e-04 1.7569734302e+00 -3.0431672486e+00 1.7569734302e+00 3.0431672486e+00 
31600 5.5528456639e+00 1.0508504753e-04 1.7569703897e+00 -3.0431619824e+00 1.7569703897e+00 3.0431619824e+00 
31700 5.5528456635e+00 1.0324323190e-04 1.7569673992e+00 -3.0431568026e+00 1.7569673992e+00 3.0431568026e+00 
31800 5.5528456633e+00 1.0132053969e-04 1.7569644611e+00 -3.0431517137e+00 1.7569644611e+00 3.0431517137e+00 
31900 5.5528456631e+00 9.9322804479e-05 1.7569615777e+00 -3.0431467195e+00 1.7569615777e+00 3.0431467195e+00 
32000 5.5528456631e+00 9.7255775654e-05 1.7569587511e+00 -3.0431418238e+00 1.7569587511e+00 3.0431418238e+00 
32100 5.5528456633e+00 9.5125111875e-05 1.7569559834e+00 -3.0431370299e+00 1.7569559834e+00 3.0431370299e+00 
32200 5.5528456635e+00 9.2936374809e-05 1.7569532763e+00 -3.0431323411e+00 1.7569532763e+00 3.0431323411e+00 
32300 5.5528456639e+00 9.0695023322e-05 1.7569506315e+00 -3.0431277601e+00 1.7569506315e+00 3.0431277601e+00 
32400 5.5528456644e+00 8.8406408046e-05 1.7569480505e+00 -3.0431232897e+00 1.7569480505e+00 3.0431232897e+00 
32500 5.5528456650e+00 8.6075766320e-05 1.7569455345e+00 -3.0431189320e+00 1.7569455345e+00 3.0431189320e+00 
32600 5.5528456657e+00 8.3708217539e-05 1.7569430850e+00 -3.0431146892e+00 1.7569430850e+00 3.0431146892e+00 
32700 5.5528456666e+00 8.1308758842e-05 1.7569407028e+00 -3.0431105631e+00 1.7569407028e+00 3.0431105631e+00 
32800 5.5528456675e+00 7.8882261192e-05 1.7569383888e+00 -3.0431065552e+00 1.7569383888e+00 3.0431065552e+00 
32900 5.5528456686e+00 7.6433465806e-05 1.7569361439e+00 -3.0431026670e+00 1.7569361439e+00 3.0431026670e+00 
33000 5.5528456698e+00 7.3966980928e-05 1.7569339688e+00 -3.0430988994e+00 1.7569339688e+00 3.0430988994e+00 
33100 5.5528456710e+00 7.1487278970e-05 1.7569318638e+00 -3.0430952535e+00 1.7569318638e+00 3.0430952535e+00 
33200 5.5528456724e+00 6.8998693958e-05 1.7569298293e+00 -3.0430917297e+00 1.7569298293e+00 3.0430917297e+00 
33300 5.5528456740e+00 6.8067184618e-05 1.7569298293e+00 -3.0430917297e+00 1.7569298293e+00 3.0430917297e+00 
33400 5.5528456756e+00 6.7087861422e-05 1.7569298293e+00 -3.0430917297e+00 1.7569298293e+00 3.0430917297e+00 
33500 5.5528456773e+00 6.6064344569e-05 1.7569298293e+00 -3.0430917297e+00 1.7569298293e+00 3.0430917297e+00 
33600 5.5528456790e+00 6.5000178101e-05 1.7569298293e+00 -3.0430917297e+00 1.7569298293e+00 3.0430917297e+00 
33700 5.5528456807e+00 6.3898827490e-05 1.7569298293e+00 -3.0430917297e+00 1.7569298293e+00 3.0430917297e+00 
33800 5.5528456825e+00 6.2763677421e-05 1.7569298293e+00 -3.0430917297e+00 1.7569298293e+00 3.0430917297e+00 
33900 5.5528456843e+00 6.1598029783e-05 1.7569298293e+00 -3.0430917297e+00 1.7569298293e+00 3.0430917297e+00 
34000 5.5528456861e+00 6.0405101864e-05 1.7569298293e+00 -3.0430917297e+00 1.7569298293e+00 3.0430917297e+00 
34100 5.5528456880e+00 5.9188024733e-05 1.7569298293e+00 -3.0430917297e+00 1.7569298293e+00 3.0430917297e+00 
34200 5.5528456898e+00 5.7949841818e-05 1.7569298293e+00 -3.0430917297e+00 1.7569298293e+00 3.0430917297e+00 
34300 5.5528456916e+00 5.6693507671e-05 1.7569298293e+00 -3.0430917297e+00 1.7569298293e+00 3.0430917297e+00 
34400 5.5528456935e+00 5.5421886903e-05 1.7569298293e+00 -3.0430917297e+00 1.7569298293e+00 3.0430917297e+00 
34500 5.5528456953e+00 5.4137753312e-05 1.7569298293e+00 -3.0430917297e+00 1.7569298293e+00 3.0430917297e+00 
34600 5.5528456971e+00 5.2843789166e-05 1.7569298293e+00 -3.0430917297e+00 1.7569298293e+00 3.0430917297e+00 
34700 5.5528456989e+00 5.1542584657e-05 1.7569298293e+00 -3.0430917297e+00 1.7569298293e+00 3.0430917297e+00 
34800 5.5528457006e+00 5.0236637522e-05 1.7569298293e+00 -3.0430917297e+00 1.7569298293e+00 3.0430917297e+00 
34900 5.5528457024e+00 4.8928352805e-05 1.7569298293e+00 -3.0430917297e+00 1.7569298293e+00 3.0430917297e+00 
35000 5.5528457041e+00 4.7620042784e-05 1.7569298293e+00 -3.0430917297e+00 1.7569298293e+00 3.0430917297e+00 
35100 5.5528457057e+00 4.6313927025e-05 1.7569298293e+00 -3.0430917297e+00 1.7569298293e+00 3.0430917297e+00 
35200 5.5528457074e+00 4.5012132593e-05 1.7569298293e+00 -3.0430917297e+00 1.7569298293e+00 3.0430917297e+00 
35300 5.5528457090e+00 4.3716694383e-05 1.7569298293e+00 -3.0430917297e+00 1.7569298293e+00 3.0430917297e+00 
35400 5.5528457105e+00 4.2429555585e-05 1.7569298293e+00 -3.0430917297e+00 1.7569298293e+00 3.0430917297e+00 
35500 5.5528457121e+00 4.1152568265e-05 1.7569298293e+00 -3.0430917297e+00 1.7569298293e+00 3.0430917297e+00 
35600 5.5528457135e+00 3.9887494074e-05 1.7569298293e+00 -3.0430917297e+00 1.7569298293e+00 3.0430917297e+00 
35700 5.5528457150e+00 3.8636005057e-05 1.7569298293e+00 -3.0430917297e+00 1.7569298293e+00 3.0430917297e+00 
35800 5.5528457164e+00 3.7399684573e-05 1.7569298293e+00 -3.0430917297e+00 1.7569298293e+00 3.0430917297e+00 
35900 5.5528457177e+00 3.6180028319e-05 1.7569298293e+00 -3.0430917297e+00 1.7569298293e+00 3.0430917297e+00 
36000 5.5528457190e+00 3.4978445444e-05 1.7569298293e+00 -3.0430917297e+00 1.7569298293e+00 3.0430917297e+00 
36100 5.5528457203e+00 3.3796259753e-05 1.7569298293e+00 -3.0430917297e+00 1.7569298293e+00 3.0430917297e+00 
36200 5.5528457215e+00 3.2634711003e-05 1.7569298293e+00 -3.0430917297e+00 1.7569298293e+00 3.0430917297e+00 
36300 5.5528457226e+00 3.1494956265e-05 1.7569298293e+00 -3.0430917297e+00 1.7569298293e+00 3.0430917297e+00 
36400 5.5528457238e+00 3.0378071383e-05 1.7569298293e+00 -3.0430917297e+00 1.7569298293e+00 3.0430917297e+00 
36500 5.5528457248e+00 2.9285052470e-05 1.7569298293e+00 -3.0430917297e+00 1.7569298293e+00 3.0430917297e+00 
36600 5.5528457259e+00 2.8216817509e-05 1.7569298293e+00 -3.0430917297e+00 1.7569298293e+00 3.0430917297e+00 
36700 5.5528457269e+00 2.7174207972e-05 1.7569298293e+00 -3.0430917297e+00 1.7569298293e+00 3.0430917297e+00 
36800 5.5528457278e+00 2.6157990528e-05 1.7569298293e+00 -3.0430917297e+00 1.7569298293e+00 3.0430917297e+00 
36900 5.5528457287e+00 2.5168858781e-05 1.7569298293e+00 -3.0430917297e+00 1.7569298293e+00 3.0430917297e+00 
37000 5.5528457296e+00 2.4207435060e-05 1.7569298293e+00 -3.0430917297e+00 1.7569298293e+00 3.0430917297e+00 
37100 5.5528457304e+00 2.3274272252e-05 1.7569298293e+00 -3.0430917297e+00 1.7569298293e+00 3.0430917297e+00 
37200 5.5528457312e+00 2.2369855675e-05 1.7569298293e+00 -3.0430917297e+00 1.7569298293e+00 3.0430917297e+00 
37300 5.5528457320e+00 2.1494604965e-05 1.7569298293e+00 -3.0430917297e+00 1.7569298293e+00 3.0430917297e+00 
37400 5.5528457327e+00 2.0648876020e-05 1.7569298293e+00 -3.0430917297e+00 1.7569298293e+00 3.0430917297e+00 
37500 5.5528457335e+00 1.9832962944e-05 1.7569298293e+00 -3.0430917297e+00 1.7569298293e+00 3.0430917297e+00 
37600 5.5528457341e+00 1.9047100023e-05 1.7569298293e+00 -3.0430917297e+00 1.7569298293e+00 3.0430917297e+00 
37700 5.5528457348e+00 1.8291463715e-05 1.7569298293e+00 -3.0430917297e+00 1.7569298293e+00 3.0430917297e+00 
37800 5.5528457354e+00 1.7566174656e-05 1.7569298293e+00 -3.0430917297e+00 1.7569298293e+00 3.0430917297e+00 
37900 5.5528457360e+00 1.6871299666e-05 1.7569298293e+00 -3.0430917297e+00 1.7569298293e+00 3.0430917297e+00 
38000 5.5528457366e+00 1.6206853773e-05 1.7569298293e+00 -3.0430917297e+00 1.7569298293e+00 3.0430917297e+00 
38100 5.5528457371e+00 1.5572802229e-05 1.7569298293e+00 -3.0430917297e+00 1.7569298293e+00 3.0430917297e+00 
38200 5.5528457376e+00 1.4969062532e-05 1.7569298293e+00 -3.0430917297e+00 1.7569298293e+00 3.0430917297e+00 
38300 5.5528457382e+00 1.4395506437e-05 1.7569298293e+00 -3.0430917297e+00 1.7569298293e+00 3.0430917297e+00 
38400 5.5528457386e+00 1.3851961975e-05 1.7569298293e+00 -3.0430917297e+00 1.7569298293e+00 3.0430917297e+00 
38500 5.5528457391e+00 1.3338215438e-05 1.7569298293e+00 -3.0430917297e+00 1.7569298293e+00 3.0430917297e+00 
38600 5.5528457396e+00 1.2854013375e-05 1.7569298293e+00 -3.0430917297e+00 1.7569298293e+00 3.0430917297e+00 
38700 5.5528457400e+00 1.2399064561e-05 1.7569298293e+00 -3.0430917297e+00 1.7569298293e+00 3.0430917297e+00 
38800 5.5528457405e+00 1.1973041945e-05 1.7569298293e+00 -3.0430917297e+00 1.7569298293e+00 3.0430917297e+00 
38900 5.5528457409e+00 1.1575584592e-05 1.7569298293e+00 -3.0430917297e+00 1.7569298293e+00 3.0430917297e+00 
39000 5.5528457413e+00 1.1206299588e-05 1.7569298293e+00 -3.0430917297e+00 1.7569298293e+00 3.0430917297e+00 
39100 5.5528457417e+00 1.0864763930e-05 1.7569298293e+00 -3.0430917297e+00 1.7569298293e+00 3.0430917297e+00 
39200 5.5528457421e+00 1.0550526382e-05 1.7569298293e+00 -3.0430917297e+00 1.7569298293e+00 3.0430917297e+00 
39300 5.5528457425e+00 1.0263109313e-05 1.7569298293e+00 -3.0430917297e+00 1.7569298293e+00 3.0430917297e+00 
39400 5.5528457428e+00 1.0002010495e-05 1.7569298293e+00 -3.0430917297e+00 1.7569298293e+00 3.0430917297e+00 
39500 5.5528457432e+00 9.7667048748e-06 1.7569298293e+00 -3.0430917297e+00 1.7569298293e+00 3.0430917297e+00 
39600 5.5528457436e+00 9.5566463078e-06 1.7569298293e+00 -3.0430917297e+00 1.7569298293e+00 3.0430917297e+00 
39700 5.5528457439e+00 9.3712692676e-06 1.7569298293e+00 -3.0430917297e+00 1.7569298293e+00 3.0430917297e+00 
39800 5.5528457443e+00 9.2099905025e-06 1.7569298293e+00 -3.0430917297e+00 1.7569298293e+00 3.0430917297e+00 
39900 5.5528457446e+00 9.0722106752e-06 1.7569298293e+00 -3.0430917297e+00 1.7569298293e+00 3.0430917297e+00 
40000 5.5528457450e+00 8.9573159424e-06 1.7569298293e+00 -3.0430917297e+00 1.7569298293e+00 3.0430917297e+00 
40100 5.5528457453e+00 8.8646795156e-06 1.7569298293e+00 -3.0430917297e+00 1.7569298293e+00 3.0430917297e+00 
40200 5.5528457456e+00 8.7936631639e-06 1.7569298293e+00 -3.0430917297e+00 1.7569298293e+00 3.0430917297e+00 
40300 5.5528457460e+00 8.7436186912e-06 1.7569298293e+00 -3.0430917297e+00 1.7569298293e+00 3.0430917297e+00 
40400 5.5528457463e+00 8.7138893585e-06 1.7569298293e+00 -3.0430917297e+00 1.7569298293e+00 3.0430917297e+00 
40500 5.5528457466e+00 8.7038112732e-06 1.7569298293e+00 -3.0430917297e+00 1.7569298293e+00 3.0430917297e+00 
40600 5.5528457470e+00 8.7127147282e-06 1.7569298293e+00 -3.0430917297e+00 1.7569298293e+00 3.0430917297e+00 
40700 5.5528457473e+00 8.7399255023e-06 1.7569298293e+00 -3.0430917297e+00 1.7569298293e+00 3.0430917297e+00 
40800 5.5528457476e+00 8.7847661170e-06 1.7569298293e+00 -3.0430917297e+00 1.7569298293e+00 3.0430917297e+00 
40900 5.5528457479e+00 8.8465570478e-06 1.7569298293e+00 -3.0430917297e+00 1.7569298293e+00 3.0430917297e+00 
41000 5.5528457483e+00 8.9246178870e-06 1.7569298293e+00 -3.0430917297e+00 1.7569298293e+00 3.0430917297e+00 
41100 5.5528457486e+00 9.0182684701e-06 1.7569298293e+00 -3.0430917297e+00 1.7569298293e+00 3.0430917297e+00 
41200 5.5528457489e+00 9.1268299542e-06 1.7569298293e+00 -3.0430917297e+00 1.7569298293e+00 3.0430917297e+00 
41300 5.5528457492e+00 9.2496258477e-06 1.7569298293e+00 -3.0430917297e+00 1.7569298293e+00 3.0430917297e+00 
41400 5.5528457495e+00 9.3859830028e-06 1.7569298293e+00 -3.0430917297e+00 1.7569298293e+00 3.0430917297e+00 
41500 5.5528457498e+00 9.5352325622e-06 1.7569298293e+00 -3.0430917297e+00 1.7569298293e+00 3.0430917297e+00 
41600 5.5528457501e+00 9.6967108538e-06 1.7569298293e+00 -3.0430917297e+00 1.7569298293e+00 3.0430917297e+00 
41700 5.5528457505e+00 9.8697602583e-06 1.7569298293e+00 -3.0430917297e+00 1.7569298293e+00 3.0430917297e+00 
41800 5.5528457508e+00 1.0053730012e-05 1.7569298293e+00 -3.0430917297e+00 1.7569298293e+00 3.0430917297e+00 
41900 5.5528457511e+00 1.0247976987e-05 1.7569298293e+00 -3.0430917297e+00 1.7569298293e+00 3.0430917297e+00 
42000 5.5528457514e+00 1.0451866417e-05 1.7569298293e+00 -3.0430917297e+00 1.7569298293e+00 3.0430917297e+00 
42100 5.5528457517e+00 1.0664772582e-05 1.7569298293e+00 -3.0430917297e+00 1.7569298293e+00 3.0430917297e+00 
42200 5.5528457520e+00 1.0886079462e-05 1.7569298293e+00 -3.0430917297e+00 1.7569298293e+00 3.0430917297e+00 
42300 5.5528457523e+00 1.1115181330e-05 1.7569298293e+00 -3.0430917297e+00 1.7569298293e+00 3.0430917297e+00 
42400 5.5528457526e+00 1.1351483323e-05 1.7569298293e+00 -3.0430917297e+00 1.7569298293e+00 3.0430917297e+00 
42500 5.5528457528e+00 1.1594401971e-05 1.7569298293e+00 -3.0430917297e+00 1.7569298293e+00 3.0430917297e+00 
42600 5.5528457531e+00 1.1843365674e-05 1.7569298293e+00 -3.0430917297e+00 1.7569298293e+00 3.0430917297e+00 
42700 5.5528457534e+00 1.2097815159e-05 1.7569298293e+00 -3.0430917297e+00 1.7569298293e+00 3.0430917297e+00 
42800 5.5528457537e+00 1.2357203887e-05 1.7569298293e+00 -3.0430917297e+00 1.7569298293e+00 3.0430917297e+00 
42900 5.5528457540e+00 1.2620998423e-05 1.7569298293e+00 -3.0430917297e+00 1.7569298293e+00 3.0430917297e+00 
43000 5.5528457542e+00 1.2888678784e-05 1.7569298293e+00 -3.0430917297e+00 1.7569298293e+00 3.0430917297e+00 
43100 5.5528457545e+00 1.3159738739e-05 1.7569298293e+00 -3.0430917297e+00 1.7569298293e+00 3.0430917297e+00 
43200 5.5528457548e+00 1.3433686075e-05 1.7569298293e+00 -3.0430917297e+00 1.7569298293e+00 3.0430917297e+00 
43300 5.5528457550e+00 1.3710042843e-05 1.7569298293e+00 -3.0430917297e+00 1.7569298293e+00 3.0430917297e+00 
43400 5.5528457553e+00 1.3988345551e-05 1.7569298293e+00 -3.0430917297e+00 1.7569298293e+00 3.0430917297e+00 
43500 5.5528457556e+00 1.4268145355e-05 1.7569298293e+00 -3.0430917297e+00 1.7569298293e+00 3.0430917297e+00 
43600 5.5528457558e+00 1.4549008183e-05 1.7569298293e+00 -3.0430917297e+00 1.7569298293e+00 3.0430917297e+00 
43700 5.5528457561e+00 1.4830514865e-05 1.7569298293e+00 -3.0430917297e+00 1.7569298293e+00 3.0430917297e+00 
43800 5.5528457563e+00 1.5112261212e-05 1.7569298293e+00 -3.0430917297e+00 1.7569298293e+00 3.0430917297e+00 
43900 5.5528457565e+00 1.5393858073e-05 1.7569298293e+00 -3.0430917297e+00 1.7569298293e+00 3.0430917297e+00 
44000 5.5528457568e+00 1.5674931376e-05 1.7569298293e+00 -3.0430917297e+00 1.7569298293e+00 3.0430917297e+00 
44100 5.5528457570e+00 1.5955122126e-05 1.7569298293e+00 -3.0430917297e+00 1.7569298293e+00 3.0430917297e+00 
44200 5.5528457572e+00 1.6234086393e-05 1.7569298293e+00 -3.0430917297e+00 1.7569298293e+00 3.0430917297e+00 
44300 5.5528457575e+00 1.6511495266e-05 1.7569298293e+00 -3.0430917297e+00 1.7569298293e+00 3.0430917297e+00 
44400 5.5528457577e+00 1.6787034800e-05 1.7569298293e+00 -3.0430917297e+00 1.7569298293e+00 3.0430917297e+00 
44500 5.5528457579e+00 1.7060405919e-05 1.7569298293e+00 -3.0430917297e+00 1.7569298293e+00 3.0430917297e+00 
44600 5.5528457581e+00 1.7331324321e-05 1.7569298293e+00 -3.0430917297e+00 1.7569298293e+00 3.0430917297e+00 
44700 5.5528457583e+00 1.7599520347e-05 1.7569298293e+00 -3.0430917297e+00 1.7569298293e+00 3.0430917297e+00 
44800 5.5528457585e+00 1.7864738842e-05 1.7569298293e+00 -3.0430917297e+00 1.7569298293e+00 3.0430917297e+00 
44900 5.5528457587e+00 1.8126738991e-05 1.7569298293e+00 -3.0430917297e+00 1.7569298293e+00 3.0430917297e+00 
45000 5.5528457589e+00 1.8385294145e-05 1.7569298293e+00 -3.0430917297e+00 1.7569298293e+00 3.0430917297e+00 
45100 5.5528457591e+00 1.8640191627e-05 1.7569298293e+00 -3.0430917297e+00 1.7569298293e+00 3.0430917297e+00 
45200 5.5528457593e+00 1.8891232522e-05 1.7569298293e+00 -3.0430917297e+00 1.7569298293e+00 3.0430917297e+00 
45300 5.5528457595e+00 1.9138231460e-05 1.7569298293e+00 -3.0430917297e+00 1.7569298293e+00 3.0430917297e+00 
45400 5.5528457596e+00 1.9381016375e-05 1.7569298293e+00 -3.0430917297e+00 1.7569298293e+00 3.0430917297e+00 
45500 5.5528457598e+00 1.9619428264e-05 1.7569298293e+00 -3.0430917297e+00 1.7569298293e+00 3.0430917297e+00 
45600 5.5528457600e+00 1.9853320930e-05 1.7569298293e+00 -3.0430917297e+00 1.7569298293e+00 3.0430917297e+00 
45700 5.5528457602e+00 2.0082560707e-05 1.7569298293e+00 -3.0430917297e+00 1.7569298293e+00 3.0430917297e+00 
45800 5.5528457603e+00 2.0307026189e-05 1.7569298293e+00 -3.0430917297e+00 1.7569298293e+00 3.0430917297e+00 
45900 5.5528457605e+00 2.0526607940e-05 1.7569298293e+00 -3.0430917297e+00 1.7569298293e+00 3.0430917297e+00 
46000 5.5528457607e+00 2.0741208203e-05 1.7569298293e+00 -3.0430917297e+00 1.7569298293e+00 3.0430917297e+00 
46100 5.5528457608e+00 2.0950740593e-05 1.7569298293e+00 -3.0430917297e+00 1.7569298293e+00 3.0430917297e+00 
46200 5.5528457610e+00 2.1155129794e-05 1.7569298293e+00 -3.0430917297e+00 1.7569298293e+00 3.0430917297e+00 
46300 5.5528457611e+00 2.1354311246e-05 1.7569298293e+00 -3.0430917297e+00 1.7569298293e+00 3.0430917297e+00 
46400 5.5528457613e+00 2.1548230822e-05 1.7569298293e+00 -3.0430917297e+00 1.7569298293e+00 3.0430917297e+00 
46500 5.5528457614e+00 2.1736844511e-05 1.7569298293e+00 -3.0430917297e+00 1.7569298293e+00 3.0430917297e+00 
46600 5.5528457615e+00 2.1920118089e-05 1.7569298293e+00 -3.0430917297e+00 1.7569298293e+00 3.0430917297e+00 
46700 5.5528457617e+00 2.2098026789e-05 1.7569298293e+00 -3.0430917297e+00 1.7569298293e+00 3.0430917297e+00 
46800 5.5528457618e+00 2.2270554975e-05 1.7569298293e+00 -3.0430917297e+00 1.7569298293e+00 3.0430917297e+00 
46900 5.5528457619e+00 2.2437695803e-05 1.7569298293e+00 -3.0430917297e+00 1.7569298293e+00 3.0430917297e+00 
47000 5.5528457621e+00 2.2599450892e-05 1.7569298293e+00 -3.0430917297e+00 1.7569298293e+00 3.0430917297e+00 
47100 5.5528457622e+00 2.2755829987e-05 1.7569298293e+00 -3.0430917297e+00 1.7569298293e+00 3.0430917297e+00 
47200 5.5528457623e+00 2.2906850627e-05 1.7569298293e+00 -3.0430917297e+00 1.7569298293e+00 3.0430917297e+00 
47300 5.5528457625e+00 2.3052537812e-05 1.7569298293e+00 -3.0430917297e+00 1.7569298293e+00 3.0430917297e+00 
47400 5.5528457626e+00 2.3192923668e-05 1.7569298293e+00 -3.0430917297e+00 1.7569298293e+00 3.0430917297e+00 
47500 5.5528457627e+00 2.3328047121e-05 1.7569298293e+00 -3.0430917297e+00 1.7569298293e+00 3.0430917297e+00 
47600 5.5528457628e+00 2.3457953563e-05 1.7569298293e+00 -3.0430917297e+00 1.7569298293e+00 3.0430917297e+00 
47700 5.5528457629e+00 2.3582694533e-05 1.7569298293e+00 -3.0430917297e+00 1.7569298293e+00 3.0430917297e+00 
47800 5.5528457630e+00 2.3702327389e-05 1.7569298293e+00 -3.0430917297e+00 1.7569298293e+00 3.0430917297e+00 
47900 5.5528457632e+00 2.3816914989e-05 1.7569298293e+00 -3.0430917297e+00 1.7569298293e+00 3.0430917297e+00 
48000 5.5528457633e+00 2.3926525376e-05 1.7569298293e+00 -3.0430917297e+00 1.7569298293e+00 3.0430917297e+00 
48100 5.5528457634e+00 2.4031231470e-05 1.7569298293e+00 -3.0430917297e+00 1.7569298293e+00 3.0430917297e+00 
48200 5.5528457635e+00 2.4131110755e-05 1.7569298293e+00 -3.0430917297e+00 1.7569298293e+00 3.0430917297e+00 
48300 5.5528457636e+00 2.4226244979e-05 1.7569298293e+00 -3.0430917297e+00 1.7569298293e+00 3.0430917297e+00 
48400 5.5528457637e+00 2.4316719858e-05 1.7569298293e+00 -3.0430917297e+00 1.7569298293e+00 3.0430917297e+00 
48500 5.5528457638e+00 2.4402624786e-05 1.7569298293e+00 -3.0430917297e+00 1.7569298293e+00 3.0430917297e+00 
48600 5.5528457639e+00 2.4484052541e-05 1.7569298293e+00 -3.0430917297e+00 1.7569298293e+00 3.0430917297e+00 
48700 5.5528457640e+00 2.4561099013e-05 1.7569298293e+00 -3.0430917297e+00 1.7569298293e+00 3.0430917297e+00 
48800 5.5528457641e+00 2.4633862923e-05 1.7569298293e+00 -3.0430917297e+00 1.7569298293e+00 3.0430917297e+00 
48900 5.5528457642e+00 2.4702445560e-05 1.7569298293e+00 -3.0430917297e+00 1.7569298293e+00 3.0430917297e+00 
49000 5.5528457643e+00 2.4766950519e-05 1.7569298293e+00 -3.0430917297e+00 1.7569298293e+00 3.0430917297e+00 
49100 5.5528457644e+00 2.4827483439e-05 1.7569298293e+00 -3.0430917297e+00 1.7569298293e+00 3.0430917297e+00 
49200 5.5528457644e+00 2.4884151763e-05 1.7569298293e+00 -3.0430917297e+00 1.7569298293e+00 3.0430917297e+00 
49300 5.5528457645e+00 2.4937064494e-05 1.7569298293e+00 -3.0430917297e+00 1.7569298293e+00 3.0430917297e+00 
49400 5.5528457646e+00 2.4986331957e-05 1.7569298293e+00 -3.0430917297e+00 1.7569298293e+00 3.0430917297e+00 
49500 5.5528457647e+00 2.5032065578e-05 1.7569298293e+00 -3.0430917297e+00 1.7569298293e+00 3.0430917297e+00 
49600 5.5528457648e+00 2.5074377656e-05 1.7569298293e+00 -3.0430917297e+00 1.7569298293e+00 3.0430917297e+00 
49700 5.5528457649e+00 2.5113381161e-05 1.7569298293e+00 -3.0430917297e+00 1.7569298293e+00 3.0430917297e+00 
49800 5.5528457650e+00 2.5149189515e-05 1.7569298293e+00 -3.0430917297e+00 1.7569298293e+00 3.0430917297e+00 
49900 5.5528457650e+00 2.5181916407e-05 1.7569298293e+00 -3.0430917297e+00 1.7569298293e+00 3.0430917297e+00 
50000 5.5528457651e+00 2.5211675593e-05 1.7569298293e+00 -3.0430917297e+00 1.7569298293e+00 3.0430917297e+00 
50100 5.5528457652e+00 2.5238580718e-05 1.7569298293e+00 -3.0430917297e+00 1.7569298293e+00 3.0430917297e+00 
50200 5.5528457653e+00 2.5262745134e-05 1.7569298293e+00 -3.0430917297e+00 1.7569298293e+00 3.0430917297e+00 
50300 5.5528457654e+00 2.5284281740e-05 1.7569298293e+00 -3.0430917297e+00 1.7569298293e+00 3.0430917297e+00 
50400 5.5528457654e+00 2.5303302814e-05 1.7569298293e+00 -3.0430917297e+00 1.7569298293e+00 3.0430917297e+00 
50500 5.5528457655e+00 2.5319919862e-05 1.7569298293e+00 -3.0430917297e+00 1.7569298293e+00 3.0430917297e+00 
50600 5.5528457656e+00 2.5334243470e-05 1.7569298293e+00 -3.0430917297e+00 1.7569298293e+00 3.0430917297e+00 
50700 5.5528457657e+00 2.5346383167e-05 1.7569298293e+00 -3.0430917297e+00 1.7569298293e+00 3.0430917297e+00 
50800 5.5528457657e+00 2.5356447292e-05 1.7569298293e+00 -3.0430917297e+00 1.7569298293e+00 3.0430917297e+00 
50900 5.5528457658e+00 2.5364542868e-05 1.7569298293e+00 -3.0430917297e+00 1.7569298293e+00 3.0430917297e+00 
51000 5.5528457659e+00 2.5370775483e-05 1.7569298293e+00 -3.0430917297e+00 1.7569298293e+00 3.0430917297e+00 
51100 5.5528457659e+00 2.5375249184e-05 1.7569298293e+00 -3.0430917297e+00 1.7569298293e+00 3.0430917297e+00 
51200 5.5528457660e+00 2.5378066368e-05 1.7569298293e+00 -3.0430917297e+00 1.7569298293e+00 3.0430917297e+00 
51300 5.5528457661e+00 2.5379327689e-05 1.7569298293e+00 -3.0430917297e+00 1.7569298293e+00 3.0430917297e+00 
51400 5.5528457661e+00 2.5379131961e-05 1.7569298293e+00 -3.0430917297e+00 1.7569298293e+00 3.0430917297e+00 
51500 5.5528457662e+00 2.5377576081e-05 1.7569298293e+00 -3.0430917297e+00 1.7569298293e+00 3.0430917297e+00 
51600 5.5528457663e+00 2.5374754945e-05 1.7569298293e+00 -3.0430917297e+00 1.7569298293e+00 3.0430917297e+00 
51700 5.5528457663e+00 2.5370761385e-05 1.7569298293e+00 -3.0430917297e+00 1.7569298293e+00 3.0430917297e+00 
51800 5.5528457664e+00 2.5365686090e-05 1.7569298293e+00 -3.0430917297e+00 1.7569298293e+00 3.0430917297e+00 
51900 5.5528457664e+00 2.5359617562e-05 1.7569298293e+00 -3.0430917297e+00 1.7569298293e+00 3.0430917297e+00 
52000 5.5528457665e+00 2.5352642051e-05 1.7569298293e+00 -3.0430917297e+00 1.7569298293e+00 3.0430917297e+00 
52100 5.5528457666e+00 2.5344843516e-05 1.7569298293e+00 -3.0430917297e+00 1.7569298293e+00 3.0430917297e+00 
52200 5.5528457666e+00 2.5336303574e-05 1.7569298293e+00 -3.0430917297e+00 1.7569298293e+00 3.0430917297e+00 
52300 5.5528457667e+00 2.5327101471e-05 1.7569298293e+00 -3.0430917297e+00 1.7569298293e+00 3.0430917297e+00 
52400 5.5528457667e+00 2.5317314047e-05 1.7569298293e+00 -3.0430917297e+00 1.7569298293e+00 3.0430917297e+00 
52500 5.5528457668e+00 2.5307015711e-05 1.7569298293e+00 -3.0430917297e+00 1.7569298293e+00 3.0430917297e+00 
52600 5.5528457668e+00 2.5296278415e-05 1.7569298293e+00 -3.0430917297e+00 1.7569298293e+00 3.0430917297e+00 
52700 5.5528457669e+00 2.5285171645e-05 1.7569298293e+00 -3.0430917297e+00 1.7569298293e+00 3.0430917297e+00 
52800 5.5528457669e+00 2.5273762405e-05 1.7569298293e+00 -3.0430917297e+00 1.7569298293e+00 3.0430917297e+00 
52900 5.5528457670e+00 2.5262115208e-05 1.7569298293e+00 -3.0430917297e+00 1.7569298293e+00 3.0430917297e+00 
53000 5.5528457670e+00 2.5250292074e-05 1.7569298293e+00 -3.0430917297e+00 1.7569298293e+00 3.0430917297e+00 
53100 5.5528457671e+00 2.5238352534e-05 1.7569298293e+00 -3.0430917297e+00 1.7569298293e+00 3.0430917297e+00 
53200 5.5528457671e+00 2.5226353632e-05 1.7569298293e+00 -3.0430917297e+00 1.7569298293e+00 3.0430917297e+00 
53300 5.5528457672e+00 2.5220829320e-05 1.7569298293e+00 -3.0430917297e+00 1.7569298293e+00 3.0430917297e+00 
53300 5.5528457672e+00 2.5220829320e-05 1.7569298293e+00 -3.0430917297e+00 1.7569298293e+00 3.0430917297e+00 
