# step Hamiltonian StressXX CellTensor1 CellTensor2 CellTensor3 CellTensor4 
0 7.2580193872e+00 -8.3465759952e-03 1.6122881582e+00 -2.7925650064e+00 1.6122881582e+00 2.7925650064e+00 
100 7.2412303705e+00 -6.3173417110e-03 1.6122881582e+00 -2.7925650064e+00 1.6122881582e+00 2.7925650064e+00 
200 7.2245944186e+00 -4.3254168573e-03 1.6124840744e+00 -2.7929043433e+00 1.6124840744e+00 2.7929043433e+00 
300 7.2081391257e+00 -2.6467120331e-03 1.6126181991e+00 -2.7931366540e+00 1.6126181991e+00 2.7931366540e+00 
400 7.1918876839e+00 -1.2650439702e-03 1.6127002624e+00 -2.7932787918e+00 1.6127002624e+00 2.7932787918e+00 
500 7.1758616795e+00 -1.6438885257e-04 1.6127394838e+00 -2.7933467253e+00 1.6127394838e+00 2.7933467253e+00 
600 7.1600810733e+00 6.7108834306e-04 1.6127445804e+00 -2.7933555529e+00 1.6127445804e+00 2.7933555529e+00 
700 7.1445641890e+00 1.2570012902e-03 1.6127237746e+00 -2.7933195163e+00 1.6127237746e+00 2.7933195163e+00 
800 7.1293277108e+00 1.6087076989e-03 1.6126848034e+00 -2.7932520161e+00 1.6126848034e+00 2.7932520161e+00 
900 7.1143866896e+00 1.7412737442e-03 1.6126349270e+00 -2.7931656276e+00 1.6126349270e+00 2.7931656276e+00 
1000 7.0997545566e+00 1.6694385483e-03 1.6125809388e+00 -2.7930721174e+00 1.6125809388e+00 2.7930721174e+00 
1100 7.0854431453e+00 1.4075796311e-03 1.6125291762e+00 -2.7929824618e+00 1.6125291762e+00 2.7929824618e+00 
1200 7.0714627211e+00 9.6968012263e-04 1.6124855313e+00 -2.7929068666e+00 1.6124855313e+00 2.7929068666e+00 
1300 7.0578220173e+00 3.6929841470e-04 1.6124554635e+00 -2.7928547877e+00 1.6124554635e+00 2.7928547877e+00 
1400 7.0445282776e+00 -3.8045919768e-04 1.6124440121e+00 -2.7928349533e+00 1.6124440121e+00 2.7928349533e+00 
1500 7.0315873046e+00 -1.2669624574e-03 1.6124558097e+00 -2.7928553873e+00 1.6124558097e+00 2.7928553873e+00 
1600 7.0190035134e+00 -2.2780773590e-03 1.6124950966e+00 -2.7929234342e+00 1.6124950966e+00 2.7929234342e+00 
1700 7.0067799894e+00 -3.4021824367e-03 1.6125657354e+00 -2.7930457842e+00 1.6125657354e+00 2.7930457842e+00 
1800 6.9949185500e+00 -4.6281810331e-03 1.6126712262e+00 -2.7932284998e+00 1.6126712262e+00 2.7932284998e+00 
1900 6.9834198102e+00 -5.9455095443e-03 1.6128147226e+00 -2.7934770428e+00 1.6128147226e+00 2.7934770428e+00 
2000 6.9722832497e+00 -7.3441417213e-03 1.6129990470e+00 -2.7937963021e+00 1.6129990470e+00 2.7937963021e+00 
2100 6.9615072824e+00 -8.8145891765e-03 1.6132267073e+00 -2.7941906211e+00 1.6132267073e+00 2.7941906211e+00 
2200 6.9510893279e+00 -1.0347898301e-02 1.6134999125e+00 -2.7946638264e+00 1.6134999125e+00 2.7946638264e+00 
2300 6.9410258825e+00 -1.1935643845e-02 1.6138205893e+00 -2.7952192550e+00 1.6138205893e+00 2.7952192550e+00 
2400 6.9313125916e+00 -1.3569919452e-02 1.6141903980e+00 -2.7958597825e+00 1.6141903980e+00 2.7958597825e+00 
2500 6.9219443214e+00 -1.5243325456e-02 1.6146107483e+00 -2.7965878506e+00 1.6146107483e+00 2.7965878506e+00 
2600 6.9129152299e+00 -1.6948954274e-02 1.6150828147e+00 -2.7974054935e+00 1.6150828147e+00 2.7974054935e+00 
2700 6.9042188372e+00 -1.8680373728e-02 1.6156075516e+00 -2.7983143645e+00 1.6156075516e+00 2.7983143645e+00 
2800 6.8958480939e+00 -2.0431608631e-02 1.6161857083e+00 -2.7993157613e+00 1.6161857083e+00 2.7993157613e+00 
2900 6.8877954484e+00 -2.2197120972e-02 1.6168178430e+00 -2.8004106506e+00 1.6168178430e+00 2.8004106506e+00 
3000 6.8800529112e+00 -2.3971789006e-02 1.6175043362e+00 -2.8015996918e+00 1.6175043362e+00 2.8015996918e+00 
3100 6.8726121186e+00 -2.5750885557e-02 1.6182454044e+00 -2.8028832595e+00 1.6182454044e+00 2.8028832595e+00 
3200 6.8654643919e+00 -2.7530055820e-02 1.6190411117e+00 -2.8042614650e+00 1.6190411117e+00 2.8042614650e+00 
3300 6.8586007959e+00 -2.9305294909e-02 1.6198913824e+00 -2.8057341771e+00 1.6198913824e+00 2.8057341771e+00 
3400 6.8520121935e+00 -3.1072925394e-02 1.6207960116e+00 -2.8073010408e+00 1.6207960116e+00 2.8073010408e+00 
3500 6.8456892975e+00 -3.2829575034e-02 1.6217546759e+00 -2.8089614961e+00 1.6217546759e+00 2.8089614961e+00 
3600 6.8396227204e+00 -3.4572154900e-02 1.6227669433e+00 -2.8107147947e+00 1.6227669433e+00 2.8107147947e+00 
3700 6.8338030200e+00 -3.6297838037e-02 1.6238322822e+00 -2.8125600158e+00 1.6238322822e+00 2.8125600158e+00 
3800 6.8282207430e+00 -3.8004038810e-02 1.6249500700e+00 -2.8144960811e+00 1.6249500700e+00 2.8144960811e+00 
3900 6.8228664649e+00 -3.9688393047e-02 1.6261196012e+00 -2.8165217684e+00 1.6261196012e+00 2.8165217684e+00 
4000 6.8177308274e+00 -4.1348739070e-02 1.6273400942e+00 -2.8186357244e+00 1.6273400942e+00 2.8186357244e+00 
4100 6.8128045727e+00 -4.2983099686e-02 1.6286106988e+00 -2.8208364760e+00 1.6286106988e+00 2.8208364760e+00 
4200 6.8080785744e+00 -4.4589665190e-02 1.6299305016e+00 -2.8231224416e+00 1.6299305016e+00 2.8231224416e+00 
4300 6.8035438664e+00 -4.6166777423e-02 1.6312985322e+00 -2.8254919401e+00 1.6312985322e+00 2.8254919401e+00 
4400 6.7991916686e+00 -4.7712914894e-02 1.6327137682e+00 -2.8279432007e+00 1.6327137682e+00 2.8279432007e+00 
4500 6.7950134092e+00 -4.9226678986e-02 1.6341751396e+00 -2.8304743702e+00 1.6341751396e+00 2.8304743702e+00 
4600 6.7910007456e+00 -5.0706781235e-02 1.6356815336e+00 -2.8330835212e+00 1.6356815336e+00 2.8330835212e+00 
4700 6.7871455821e+00 -5.2152031667e-02 1.6372317982e+00 -2.8357686582e+00 1.6372317982e+00 2.8357686582e+00 
4800 6.7834400849e+00 -5.3561328170e-02 1.6388247455e+00 -2.8385277238e+00 1.6388247455e+00 2.8385277238e+00 
4900 6.7798766952e+00 -5.4933646879e-02 1.6404591551e+00 -2.8413586045e+00 1.6404591551e+00 2.8413586045e+00 
5000 6.7764481401e+00 -5.6268033521e-02 1.6421337772e+00 -2.8442591350e+00 1.6421337772e+00 2.8442591350e+00 
5100 6.7731474408e+00 -5.7563595693e-02 1.6438473345e+00 -2.8472271033e+00 1.6438473345e+00 2.8472271033e+00 
5200 6.7699679197e+00 -5.8819496026e-02 1.6455985253e+00 -2.8502602546e+00 1.6455985253e+00 2.8502602546e+00 
5300 6.7669032044e+00 -6.0034946174e-02 1.6473860248e+00 -2.8533562946e+00 1.6473860248e+00 2.8533562946e+00 
5400 6.7639472315e+00 -6.1209201602e-02 1.6492084877e+00 -2.8565128931e+00 1.6492084877e+00 2.8565128931e+00 
5500 6.7610942467e+00 -6.2341557101e-02 1.6510645499e+00 -2.8597276869e+00 1.6510645499e+00 2.8597276869e+00 
5600 6.7583388054e+00 -6.3431342990e-02 1.6529528293e+00 -2.8629982828e+00 1.6529528293e+00 2.8629982828e+00 
5700 6.7556757702e+00 -6.4477921955e-02 1.6548719282e+00 -2.8663222597e+00 1.6548719282e+00 2.8663222597e+00 
5800 6.7531003084e+00 -6.5480686467e-02 1.6568204342e+00 -2.8696971711e+00 1.6568204342e+00 2.8696971711e+00 
5900 6.7506078867e+00 -6.6439056739e-02 1.6587969214e+00 -2.8731205473e+00 1.6587969214e+00 2.8731205473e+00 
6000 6.7481942667e+00 -6.7352479173e-02 1.6607999517e+00 -2.8765898975e+00 1.6607999517e+00 2.8765898975e+00 
6100 6.7458554975e+00 -6.8220425238e-02 1.6628280758e+00 -2.8801027115e+00 1.6628280758e+00 2.8801027115e+00 
6200 6.7435879087e+00 -6.9042390762e-02 1.6648798343e+00 -2.8836564616e+00 1.6648798343e+00 2.8836564616e+00 
6300 6.7413881018e+00 -6.9817895560e-02 1.6669537589e+00 -2.8872486043e+00 1.6669537589e+00 2.8872486043e+00 
6400 6.7392529415e+00 -7.0546483396e-02 1.6690483730e+00 -2.8908765823e+00 1.6690483730e+00 2.8908765823e+00 
6500 6.7371795456e+00 -7.1227722207e-02 1.6711621929e+00 -2.8945378257e+00 1.6711621929e+00 2.8945378257e+00 
6600 6.7351652750e+00 -7.1861204577e-02 1.6732937287e+00 -2.8982297540e+00 1.6732937287e+00 2.8982297540e+00 
6700 6.7332077232e+00 -7.2446548414e-02 1.6754414853e+00 -2.9019497777e+00 1.6754414853e+00 2.9019497777e+00 
6800 6.7313047046e+00 -7.2983397808e-02 1.6776039634e+00 -2.9056952996e+00 1.6776039634e+00 2.9056952996e+00 
6900 6.7294542437e+00 -7.3471424034e-02 1.6797796601e+00 -2.9094637169e+00 1.6797796601e+00 2.9094637169e+00 
7000 6.7276545630e+00 -7.3910326667e-02 1.6819670704e+00 -2.9132524226e+00 1.6819670704e+00 2.9132524226e+00 
7100 6.7259040715e+00 -7.4299834809e-02 1.6841646876e+00 -2.9170588073e+00 1.6841646876e+00 2.9170588073e+00 
7200 6.7242013525e+00 -7.4639708367e-02 1.6863710049e+00 -2.9208802609e+00 1.6863710049e+00 2.9208802609e+00 
7300 6.7225451521e+00 -7.4929739399e-02 1.6885845158e+00 -2.9247141743e+00 1.6885845158e+00 2.9247141743e+00 
7400 6.7209343665e+00 -7.5169753478e-02 1.6908037156e+00 -2.9285579410e+00 1.6908037156e+00 2.9285579410e+00 
7500 6.7193680307e+00 -7.5359611078e-02 1.6930271021e+00 -2.9324089594e+00 1.6930271021e+00 2.9324089594e+00 
7600 6.7178453068e+00 -7.5499208946e-02 1.6952531769e+00 -2.9362646340e+00 1.6952531769e+00 2.9362646340e+00 
7700 6.7163654718e+00 -7.5588481473e-02 1.6974804464e+00 -2.9401223781e+00 1.6974804464e+00 2.9401223781e+00 
7800 6.7149279069e+00 -7.5627402014e-02 1.6997074230e+00 -2.9439796147e+00 1.6997074230e+00 2.9439796147e+00 
7900 6.7135320860e+00 -7.5615984184e-02 1.7019326259e+00 -2.9478337792e+00 1.7019326259e+00 2.9478337792e+00 
8000 6.7121775647e+00 -7.5554283088e-02 1.7041545827e+00 -2.9516823211e+00 1.7041545827e+00 2.9516823211e+00 
8100 6.7108639703e+00 -7.5442396498e-02 1.7063718299e+00 -2.9555227060e+00 1.7063718299e+00 2.9555227060e+00 
8200 6.7095909912e+00 -7.5280465956e-02 1.7085829150e+00 -2.9593524177e+00 1.7085829150e+00 2.9593524177e+00 
8300 6.7083583672e+00 -7.5068677796e-02 1.7107863966e+00 -2.9631689599e+00 1.7107863966e+00 2.9631689599e+00 
8400 6.7071658802e+00 -7.4807264094e-02 1.7129808466e+00 -2.9669698587e+00 1.7129808466e+00 2.9669698587e+00 
8500 6.7060133449e+00 -7.4496503520e-02 1.7151648505e+00 -2.9707526644e+00 1.7151648505e+00 2.9707526644e+00 
8600 6.7049006009e+00 -7.4136722103e-02 1.7173370092e+00 -2.9745149536e+00 1.7173370092e+00 2.9745149536e+00 
8700 6.7038275040e+00 -7.3728293898e-02 1.7194959399e+00 -2.9782543313e+00 1.7194959399e+00 2.9782543313e+00 
8800 6.7027939186e+00 -7.3271641554e-02 1.7216402775e+00 -2.9819684330e+00 1.7216402775e+00 2.9819684330e+00 
8900 6.7017997111e+00 -7.2767236784e-02 1.7237686756e+00 -2.9856549266e+00 1.7237686756e+00 2.9856549266e+00 
9000 6.7008447427e+00 -7.2215600732e-02 1.7258798077e+00 -2.9893115147e+00 1.7258798077e+00 2.9893115147e+00 
9100 6.6999288635e+00 -7.1617304235e-02 1.7279723686e+00 -2.9929359365e+00 1.7279723686e+00 2.9929359365e+00 
9200 6.6990519064e+00 -7.0972967978e-02 1.7300450754e+00 -2.9965259700e+00 1.7300450754e+00 2.9965259700e+00 
9300 6.6982136826e+00 -7.0283262555e-02 1.7320966687e+00 -3.0000794338e+00 1.7320966687e+00 3.0000794338e+00 
9400 6.6974139764e+00 -6.9548908415e-02 1.7341259136e+00 -3.0035941891e+00 1.7341259136e+00 3.0035941891e+00 
9500 6.6966525410e+00 -6.8770675709e-02 1.7361316012e+00 -3.0070681419e+00 1.7361316012e+00 3.0070681419e+00 
9600 6.6959290948e+00 -6.7949384033e-02 1.7381125494e+00 -3.0104992449e+00 1.7381125494e+00 3.0104992449e+00 
9700 6.6952433183e+00 -6.7085902072e-02 1.7400676042e+00 -3.0138854991e+00 1.7400676042e+00 3.0138854991e+00 
9800 6.6945948513e+00 -6.6181147138e-02 1.7419956407e+00 -3.0172249562e+00 1.7419956407e+00 3.0172249562e+00 
9900 6.6939832902e+00 -6.5236084614e-02 1.7438955640e+00 -3.0205157199e+00 1.7438955640e+00 3.0205157199e+00 
10000 6.6934081864e+00 -6.4251727290e-02 1.7457663106e+00 -3.0237559480e+00 1.7457663106e+00 3.0237559480e+00 
10100 6.6928690451e+00 -6.3229134619e-02 1.7476068491e+00 -3.0269438543e+00 1.7476068491e+00 3.0269438543e+00 
10200 6.6923653236e+00 -6.2169411857e-02 1.7494161814e+00 -3.0300777098e+00 1.7494161814e+00 3.0300777098e+00 
10300 6.6918964312e+00 -6.1073709127e-02 1.7511933436e+00 -3.0331558450e+00 1.7511933436e+00 3.0331558450e+00 
10400 6.6914617289e+00 -5.9943220383e-02 1.7529374067e+00 -3.0361766510e+00 1.7529374067e+00 3.0361766510e+00 
10500 6.6910605294e+00 -5.8779182285e-02 1.7546474779e+00 -3.0391385812e+00 1.7546474779e+00 3.0391385812e+00 
10600 6.6906920976e+00 -5.7582872982e-02 1.7563227012e+00 -3.0420401529e+00 1.7563227012e+00 3.0420401529e+00 
10700 6.6903556517e+00 -5.6355610817e-02 1.7579622582e+00 -3.0448799489e+00 1.7579622582e+00 3.0448799489e+00 
10800 6.6900503642e+00 -5.5098752938e-02 1.7595653690e+00 -3.0476566183e+00 1.7595653690e+00 3.0476566183e+00 
10900 6.6897753631e+00 -5.3813693830e-02 1.7611312931e+00 -3.0503688785e+00 1.7611312931e+00 3.0503688785e+00 
11000 6.6895297343e+00 -5.2501863765e-02 1.7626593299e+00 -3.0530155158e+00 1.7626593299e+00 3.0530155158e+00 
11100 6.6893125232e+00 -5.1164727169e-02 1.7641488194e+00 -3.0555953873e+00 1.7641488194e+00 3.0555953873e+00 
11200 6.6891227371e+00 -4.9803780911e-02 1.7655991429e+00 -3.0581074213e+00 1.7655991429e+00 3.0581074213e+00 
11300 6.6889593477e+00 -4.8420552522e-02 1.7670097237e+00 -3.0605506190e+00 1.7670097237e+00 3.0605506190e+00 
11400 6.6888212939e+00 -4.7016598327e-02 1.7683800276e+00 -3.0629240549e+00 1.7683800276e+00 3.0629240549e+00 
11500 6.6887074846e+00 -4.5593501512e-02 1.7697095632e+00 -3.0652268782e+00 1.7697095632e+00 3.0652268782e+00 
11600 6.6886168020e+00 -4.4152870117e-02 1.7709978828e+00 -3.0674583131e+00 1.7709978828e+00 3.0674583131e+00 
11700 6.6885481044e+00 -4.2696334956e-02 1.7722445824e+00 -3.0696176601e+00 1.7722445824e+00 3.0696176601e+00 
11800 6.6885002303e+00 -4.1225547475e-02 1.7734493023e+00 -3.0717042963e+00 1.7734493023e+00 3.0717042963e+00 
11900 6.6884720010e+00 -3.9742177538e-02 1.7746117276e+00 -3.0737176760e+00 1.7746117276e+00 3.0737176760e+00 
12000 6.6884622248e+00 -3.8247911151e-02 1.7757315882e+00 -3.0756573314e+00 1.7757315882e+00 3.0756573314e+00 
12100 6.6884697004e+00 -3.6744448129e-02 1.7768086591e+00 -3.0775228729e+00 1.7768086591e+00 3.0775228729e+00 
12200 6.6884932206e+00 -3.5233499692e-02 1.7778427606e+00 -3.0793139892e+00 1.7778427606e+00 3.0793139892e+00 
12300 6.6885315757e+00 -3.3716786021e-02 1.7788337585e+00 -3.0810304480e+00 1.7788337585e+00 3.0810304480e+00 
12400 6.6885835579e+00 -3.2196033744e-02 1.7797815643e+00 -3.0826720958e+00 1.7797815643e+00 3.0826720958e+00 
12500 6.6886479642e+00 -3.0672973385e-02 1.7806861349e+00 -3.0842388579e+00 1.7806861349e+00 3.0842388579e+00 
12600 6.6887236006e+00 -2.9149336759e-02 1.7815474726e+00 -3.0857307387e+00 1.7815474726e+00 3.0857307387e+00 
12700 6.6888092857e+00 -2.7626854322e-02 1.7823656256e+00 -3.0871478212e+00 1.7823656256e+00 3.0871478212e+00 
12800 6.6889038539e+00 -2.6107252492e-02 1.7831406870e+00 -3.0884902669e+00 1.7831406870e+00 3.0884902669e+00 
12900 6.6890061591e+00 -2.4592250923e-02 1.7838727952e+00 -3.0897583155e+00 1.7838727952e+00 3.0897583155e+00 
13000 6.6891150781e+00 -2.3083559758e-02 1.7845621334e+00 -3.0909522843e+00 1.7845621334e+00 3.0909522843e+00 
13100 6.6892295139e+00 -2.1582876854e-02 1.7852089294e+00 -3.0920725679e+00 1.7852089294e+00 3.0920725679e+00 
13200 6.6893483987e+00 -2.0091884988e-02 1.7858134551e+00 -3.0931196371e+00 1.7858134551e+00 3.0931196371e+00 
13300 6.6894706969e+00 -1.8612249051e-02 1.7863760262e+00 -3.0940940388e+00 1.7863760262e+00 3.0940940388e+00 
13400 6.6895954081e+00 -1.7145613231e-02 1.7868970014e+00 -3.0949963944e+00 1.7868970014e+00 3.0949963944e+00 
13500 6.6897215696e+00 -1.5693598202e-02 1.7873767823e+00 -3.0958273992e+00 1.7873767823e+00 3.0958273992e+00 
13600 6.6898482589e+00 -1.4257798315e-02 1.7878158123e+00 -3.0965878215e+00 1.7878158123e+00 3.0965878215e+00 
13700 6.6899745962e+00 -1.2839778803e-02 1.7882145762e+00 -3.0972785008e+00 1.7882145762e+00 3.0972785008e+00 
13800 6.6900997463e+00 -1.1441073012e-02 1.7885735994e+00 -3.0979003472e+00 1.7885735994e+00 3.0979003472e+00 
13900 6.6902229205e+00 -1.0063179655e-02 1.7888934468e+00 -3.0984543392e+00 1.7888934468e+00 3.0984543392e+00 
14000 6.6903433783e+00 -8.7075601101e-03 1.7891747224e+00 -3.0989415229e+00 1.7891747224e+00 3.0989415229e+00 
14100 6.6904604290e+00 -7.3756357621e-03 1.7894180681e+00 -3.0993630099e+00 1.7894180681e+00 3.0993630099e+00 
14200 6.6905734329e+00 -6.0687853996e-03 1.7896241624e+00 -3.0997199757e+00 1.7896241624e+00 3.0997199757e+00 
14300 6.6906818020e+00 -4.7883426771e-03 1.7897937198e+00 -3.1000136578e+00 1.7897937198e+00 3.1000136578e+00 
14400 6.6907850011e+00 -3.5355936497e-03 1.7899274895e+00 -3.1002453537e+00 1.7899274895e+00 3.1002453537e+00 
14500 6.6908825483e+00 -2.3117743904e-03 1.7900262540e+00 -3.1004164188e+00 1.7900262540e+00 3.1004164188e+00 
14600 6.6909740152e+00 -1.1180686987e-03 1.7900908281e+00 -3.1005282645e+00 1.7900908281e+00 3.1005282645e+00 
14700 6.6910590269e+00 4.4394090277e-05 1.7901220576e+00 -3.1005823555e+00 1.7901220576e+00 3.1005823555e+00 
14800 6.6911372652e+00 1.1760555744e-03 1.7901220576e+00 -3.1005823555e+00 1.7901220576e+00 3.1005823555e+00 
14900 6.6912084583e+00 2.2728330728e-03 1.7900892092e+00 -3.1005254605e+00 1.7900892092e+00 3.1005254605e+00 
15000 6.6912723902e+00 3.3353284516e-03 1.7900257258e+00 -3.1004155040e+00 1.7900257258e+00 3.1004155040e+00 
15100 6.6913288965e+00 4.3626496963e-03 1.7899325624e+00 -3.1002541401e+00 1.7899325624e+00 3.1002541401e+00 
15200 6.6913778631e+00 5.3539684058e-03 1.7898106974e+00 -3.1000430639e+00 1.7898106974e+00 3.1000430639e+00 
15300 6.6914192255e+00 6.3085212020e-03 1.7896611315e+00 -3.0997840081e+00 1.7896611315e+00 3.0997840081e+00 
15400 6.6914529667e+00 7.2256109815e-03 1.7894848854e+00 -3.0994787408e+00 1.7894848854e+00 3.0994787408e+00 
15500 6.6914791158e+00 8.1046080046e-03 1.7892829984e+00 -3.0991290623e+00 1.7892829984e+00 3.0991290623e+00 
15600 6.6914977464e+00 8.9449508154e-03 1.7890565267e+00 -3.0987368019e+00 1.7890565267e+00 3.0987368019e+00 
15700 6.6915089744e+00 9.7461469887e-03 1.7888065418e+00 -3.0983038153e+00 1.7888065418e+00 3.0983038153e+00 
15800 6.6915129559e+00 1.0507773699e-02 1.7885341284e+00 -3.0978319814e+00 1.7885341284e+00 3.0978319814e+00 
15900 6.6915098849e+00 1.1229478108e-02 1.7882403826e+00 -3.0973231988e+00 1.7882403826e+00 3.0973231988e+00 
16000 6.6914999908e+00 1.1910977569e-02 1.7879264106e+00 -3.0967793833e+00 1.7879264106e+00 3.0967793833e+00 
16100 6.6914835364e+00 1.2552059645e-02 1.7875933262e+00 -3.0962024642e+00 1.7875933262e+00 3.0962024642e+00 
16200 6.6914608146e+00 1.3152581942e-02 1.7872422494e+00 -3.0955943815e+00 1.7872422494e+00 3.0955943815e+00 
16300 6.6914321462e+00 1.3712471756e-02 1.7868743046e+00 -3.0949570823e+00 1.7868743046e+00 3.0949570823e+00 
16400 6.6913978772e+00 1.4231725536e-02 1.7864906184e+00 -3.0942925183e+00 1.7864906184e+00 3.0942925183e+00 
16500 6.6913583755e+00 1.4710408160e-02 1.7860923181e+00 -3.0936026419e+00 1.7860923181e+00 3.0936026419e+00 
16600 6.6913140286e+00 1.5148652038e-02 1.7856805296e+00 -3.0928894034e+00 1.7856805296e+00 3.0928894034e+00 
16700 6.6912652406e+00 1.5546656034e-02 1.7852563762e+00 -3.0921547480e+00 1.7852563762e+00 3.0921547480e+00 
16800 6.6912124294e+00 1.5904684218e-02 1.7848209758e+00 -3.0914006126e+00 1.7848209758e+00 3.0914006126e+00 
16900 6.6911560237e+00 1.6223064452e-02 1.7843754403e+00 -3.0906289224e+00 1.7843754403e+00 3.0906289224e+00 
17000 6.6910964605e+00 1.6502186820e-02 1.7839208730e+00 -3.0898415887e+00 1.7839208730e+00 3.0898415887e+00 
17100 6.6910341820e+00 1.6742501902e-02 1.7834583672e+00 -3.0890405053e+00 1.7834583672e+00 3.0890405053e+00 
17200 6.6909696332e+00 1.6944518904e-02 1.7829890048e+00 -3.0882275457e+00 1.7829890048e+00 3.0882275457e+00 
17300 6.6909032594e+00 1.7108803657e-02 1.7825138542e+00 -3.0874045607e+00 1.7825138542e+00 3.0874045607e+00 
17400 6.6908355032e+00 1.7235976486e-02 1.7820339691e+00 -3.0865733753e+00 1.7820339691e+00 3.0865733753e+00 
17500 6.6907668024e+00 1.7326709960e-02 1.7815503870e+00 -3.0857357865e+00 1.7815503870e+00 3.0857357865e+00 
17600 6.6906975877e+00 1.7381726546e-02 1.7810641273e+00 -3.0848935601e+00 1.7810641273e+00 3.0848935601e+00 
17700 6.6906282802e+00 1.7401796155e-02 1.7805761906e+00 -3.0840484288e+00 1.7805761906e+00 3.0840484288e+00 
17800 6.6905592898e+00 1.7387733608e-02 1.7800875566e+00 -3.0832020900e+00 1.7800875566e+00 3.0832020900e+00 
17900 6.6904910128e+00 1.7340396035e-02 1.7795991835e+00 -3.0823562029e+00 1.7795991835e+00 3.0823562029e+00 
18000 6.6904238302e+00 1.7260680196e-02 1.7791120062e+00 -3.0815123872e+00 1.7791120062e+00 3.0815123872e+00 
18100 6.6903581062e+00 1.7149519772e-02 1.7786269357e+00 -3.0806722204e+00 1.7786269357e+00 3.0806722204e+00 
18200 6.6902941867e+00 1.7007882591e-02 1.7781448575e+00 -3.0798372365e+00 1.7781448575e+00 3.0798372365e+00 
18300 6.6902323976e+00 1.6836767851e-02 1.7776666310e+00 -3.0790089239e+00 1.7776666310e+00 3.0790089239e+00 
18400 6.6901730442e+00 1.6637203303e-02 1.7771930884e+00 -3.0781887239e+00 1.7771930884e+00 3.0781887239e+00 
18500 6.6901164094e+00 1.6410242447e-02 1.7767250336e+00 -3.0773780293e+00 1.7767250336e+00 3.0773780293e+00 
18600 6.6900627536e+00 1.6156961712e-02 1.7762632421e+00 -3.0765781829e+00 1.7762632421e+00 3.0765781829e+00 
18700 6.6900123136e+00 1.5878457667e-02 1.7758084595e+00 -3.0757904764e+00 1.7758084595e+00 3.0757904764e+00 
18800 6.6899653020e+00 1.5575844248e-02 1.7753614014e+00 -3.0750161490e+00 1.7753614014e+00 3.0750161490e+00 
18900 6.6899219071e+00 1.5250250013e-02 1.7749227526e+00 -3.0742563870e+00 1.7749227526e+00 3.0742563870e+00 
19000 6.6898822923e+00 1.4902815451e-02 1.7744931667e+00 -3.0735123225e+00 1.7744931667e+00 3.0735123225e+00 
19100 6.6898465964e+00 1.4534690330e-02 1.7740732658e+00 -3.0727850327e+00 1.7740732658e+00 3.0727850327e+00 
19200 6.6898149333e+00 1.4147031110e-02 1.7736636398e+00 -3.0720755397e+00 1.7736636398e+00 3.0720755397e+00 
19300 6.6897873925e+00 1.3740998412e-02 1.7732648466e+00 -3.0713848095e+00 1.7732648466e+00 3.0713848095e+00 
19400 6.6897640391e+00 1.3317754569e-02 1.7728774115e+00 -3.0707137524e+00 1.7728774115e+00 3.0707137524e+00 
19500 6.6897449147e+00 1.2878461244e-02 1.7725018276e+00 -3.0700632220e+00 1.7725018276e+00 3.0700632220e+00 
19600 6.6897300376e+00 1.2424277139e-02 1.7721385552e+00 -3.0694340157e+00 1.7721385552e+00 3.0694340157e+00 
19700 6.6897194036e+00 1.1956355778e-02 1.7717880220e+00 -3.0688268744e+00 1.7717880220e+00 3.0688268744e+00 
19800 6.6897129869e+00 1.1475843398e-02 1.7714506234e+00 -3.0682424829e+00 1.7714506234e+00 3.0682424829e+00 
19900 6.6897107409e+00 1.0983876916e-02 1.7711267224e+00 -3.0676814698e+00 1.7711267224e+00 3.0676814698e+00 
20000 6.6897125990e+00 1.0481582002e-02 1.7708166498e+00 -3.0671444084e+00 1.7708166498e+00 3.0671444084e+00 
20100 6.6897184759e+00 9.9700712520e-03 1.7705207047e+00 -3.0666318164e+00 1.7705207047e+00 3.0666318164e+00 
20200 6.6897282688e+00 9.4504424518e-03 1.7702391546e+00 -3.0661441573e+00 1.7702391546e+00 3.0661441573e+00 
20300 6.6897418581e+00 8.9237769509e-03 1.7699722357e+00 -3.0656818402e+00 1.7699722357e+00 3.0656818402e+00 
20400 6.6897591090e+00 8.3911381323e-03 1.7697201536e+00 -3.0652452213e+00 1.7697201536e+00 3.0652452213e+00 
20500 6.6897798727e+00 7.8535699846e-03 1.7694830837e+00 -3.0648346040e+00 1.7694830837e+00 3.0648346040e+00 
20600 6.6898039876e+00 7.3120957755e-03 1.7692611712e+00 -3.0644502404e+00 1.7692611712e+00 3.0644502404e+00 
20700 6.6898312807e+00 6.7677168237e-03 1.7690545326e+00 -3.0640923318e+00 1.7690545326e+00 3.0640923318e+00 
20800 6.6898615688e+00 6.2214113702e-03 1.7688632554e+00 -3.0637610301e+00 1.7688632554e+00 3.0637610301e+00 
20900 6.6898946598e+00 5.6741335456e-03 1.7686873993e+00 -3.0634564384e+00 1.7686873993e+00 3.0634564384e+00 
21000 6.6899303543e+00 5.1268124324e-03 1.7685269965e+00 -3.0631786126e+00 1.7685269965e+00 3.0631786126e+00 
21100 6.6899684465e+00 4.5803512198e-03 1.7683820527e+00 -3.0629275625e+00 1.7683820527e+00 3.0629275625e+00 
21200 6.6900087260e+00 4.0356264479e-03 1.7682525474e+00 -3.0627032528e+00 1.7682525474e+00 3.0627032528e+00 
21300 6.6900509786e+00 3.4934873399e-03 1.7681384353e+00 -3.0625056047e+00 1.7681384353e+00 3.0625056047e+00 
21400 6.6900949875e+00 2.9547552184e-03 1.7680396462e+00 -3.0623344970e+00 1.7680396462e+00 3.0623344970e+00 
21500 6.6901405352e+00 2.4202230022e-03 1.7679560866e+00 -3.0621897676e+00 1.7679560866e+00 3.0621897676e+00 
21600 6.6901874038e+00 1.8906547831e-03 1.7678876402e+00 -3.0620712148e+00 1.7678876402e+00 3.0620712148e+00 
21700 6.6902353765e+00 1.3667854758e-03 1.7678341683e+00 -3.0619785988e+00 1.7678341683e+00 3.0619785988e+00 
21800 6.6902842389e+00 8.4932054046e-04 1.7677955114e+00 -3.0619116431e+00 1.7677955114e+00 3.0619116431e+00 
21900 6.6903337794e+00 3.3893577394e-04 1.7677714894e+00 -3.0618700358e+00 1.7677714894e+00 3.0618700358e+00 
22000 6.6903837909e+00 -1.6372283476e-04 1.7677619029e+00 -3.0618534315e+00 1.7677619029e+00 3.0618534315e+00 
22100 6.6904340710e+00 -6.5803918667e-04 1.7677665337e+00 -3.0618614523e+00 1.7677665337e+00 3.0618614523e+00 
22200 6.6904844233e+00 -1.1434270968e-03 1.7677851459e+00 -3.0618936895e+00 1.7677851459e+00 3.0618936895e+00 
22300 6.6905346577e+00 -1.6193302629e-03 1.7678174866e+00 -3.0619497054e+00 1.7678174866e+00 3.0619497054e+00 
22400 6.6905845918e+00 -2.0852221821e-03 1.7678632871e+00 -3.0620290341e+00 1.7678632871e+00 3.0620290341e+00 
22500 6.6906340508e+00 -2.5406060187e-03 1.7679222632e+00 -3.0621311837e+00 1.7679222632e+00 3.0621311837e+00 
22600 6.6906828684e+00 -2.9850144261e-03 1.7679941166e+00 -3.0622556374e+00 1.7679941166e+00 3.0622556374e+00 
22700 6.6907308875e+00 -3.4180093260e-03 1.7680785354e+00 -3.0624018550e+00 1.7680785354e+00 3.0624018550e+00 
22800 6.6907779600e+00 -3.8391816474e-03 1.7681751951e+00 -3.0625692746e+00 1.7681751951e+00 3.0625692746e+00 
22900 6.6908239480e+00 -4.2481510284e-03 1.7682837596e+00 -3.0627573138e+00 1.7682837596e+00 3.0627573138e+00 
23000 6.6908687234e+00 -4.6445654832e-03 1.7684038817e+00 -3.0629653714e+00 1.7684038817e+00 3.0629653714e+00 
23100 6.6909121684e+00 -5.0281010374e-03 1.7685352042e+00 -3.0631928286e+00 1.7685352042e+00 3.0631928286e+00 
23200 6.6909541756e+00 -5.3984613337e-03 1.7686773605e+00 -3.0634390505e+00 1.7686773605e+00 3.0634390505e+00 
23300 6.6909946485e+00 -5.7553772094e-03 1.7688299756e+00 -3.0637033877e+00 1.7688299756e+00 3.0637033877e+00 
23400 6.6910335007e+00 -6.0986062503e-03 1.7689926669e+00 -3.0639851773e+00 1.7689926669e+00 3.0639851773e+00 
23500 6.6910706570e+00 -6.4279323205e-03 1.7691650448e+00 -3.0642837446e+00 1.7691650448e+00 3.0642837446e+00 
23600 6.6911060522e+00 -6.7431650713e-03 1.7693467136e+00 -3.0645984042e+00 1.7693467136e+00 3.0645984042e+00 
23700 6.6911396319e+00 -7.0441394319e-03 1.7695372723e+00 -3.0649284615e+00 1.7695372723e+00 3.0649284615e+00 
23800 6.6911713520e+00 -7.3307150817e-03 1.7697363150e+00 -3.0652732136e+00 1.7697363150e+00 3.0652732136e+00 
23900 6.6912011783e+00 -7.6027759080e-03 1.7699434323e+00 -3.0656319512e+00 1.7699434323e+00 3.0656319512e+00 
24000 6.6912290865e+00 -7.8602294491e-03 1.7701582112e+00 -3.0660039592e+00 1.7701582112e+00 3.0660039592e+00 
24100 6.6912550621e+00 -8.1030063251e-03 1.7703802363e+00 -3.0663885181e+00 1.7703802363e+00 3.0663885181e+00 
24200 6.6912790996e+00 -8.3310596579e-03 1.7706090906e+00 -3.0667849053e+00 1.7706090906e+00 3.0667849053e+00 
24300 6.6913012025e+00 -8.5443644812e-03 1.7708443555e+00 -3.0671923960e+00 1.7708443555e+00 3.0671923960e+00 
24400 6.6913213828e+00 -8.7429171423e-03 1.7710856121e+00 -3.0676102648e+00 1.7710856121e+00 3.0676102648e+00 
24500 6.6913396606e+00 -8.9267346967e-03 1.7713324415e+00 -3.0680377858e+00 1.7713324415e+00 3.0680377858e+00 
24600 6.6913560639e+00 -9.0958542967e-03 1.7715844255e+00 -3.0684742348e+00 1.7715844255e+00 3.0684742348e+00 
24700 6.6913706275e+00 -9.2503325742e-03 1.7718411469e+00 -3.0689188894e+00 1.7718411469e+00 3.0689188894e+00 
24800 6.6913833936e+00 -9.3902450210e-03 1.7721021906e+00 -3.0693710304e+00 1.7721021906e+00 3.0693710304e+00 
24900 6.6913944102e+00 -9.5156853644e-03 1.7723671437e+00 -3.0698299426e+00 1.7723671437e+00 3.0698299426e+00 
25000 6.6914037313e+00 -9.6267649415e-03 1.7726355961e+00 -3.0702949158e+00 1.7726355961e+00 3.0702949158e+00 
25100 6.6914114164e+00 -9.7236120722e-03 1.7729071413e+00 -3.0707652458e+00 1.7729071413e+00 3.0707652458e+00 
25200 6.6914175296e+00 -9.8063714311e-03 1.7731813762e+00 -3.0712402347e+00 1.7731813762e+00 3.0712402347e+00 
25300 6.6914221394e+00 -9.8752034199e-03 1.7734579025e+00 -3.0717191923e+00 1.7734579025e+00 3.0717191923e+00 
25400 6.6914253182e+00 -9.9302835405e-03 1.7737363265e+00 -3.0722014366e+00 1.7737363265e+00 3.0722014366e+00 
25500 6.6914271416e+00 -9.9718017701e-03 1.7740162594e+00 -3.0726862947e+00 1.7740162594e+00 3.0726862947e+00 
25600 6.6914276882e+00 -9.9999619377e-03 1.7742973184e+00 -3.0731731032e+00 1.7742973184e+00 3.0731731032e+00 
25700 6.6914270389e+00 -1.0014981104e-02 1.7745791265e+00 -3.0736612091e+00 1.7745791265e+00 3.0736612091e+00 
25800 6.6914252764e+00 -1.0017088944e-02 1.7748613130e+00 -3.0741499705e+00 1.7748613130e+00 3.0741499705e+00 
25900 6.6914224849e+00 -1.0006527134e-02 1.7751435141e+00 -3.0746387571e+00 1.7751435141e+00 3.0746387571e+00 
26000 6.6914187495e+00 -9.9835487431e-03 1.7754253727e+00 -3.0751269506e+00 1.7754253727e+00 3.0751269506e+00 
26100 6.6914141560e+00 -9.9484176281e-03 1.7757065395e+00 -3.0756139458e+00 1.7757065395e+00 3.0756139458e+00 
26200 6.6914087900e+00 -9.9014078356e-03 1.7759866725e+00 -3.0760991503e+00 1.7759866725e+00 3.0760991503e+00 
26300 6.6914027370e+00 -9.8428030081e-03 1.7762654377e+00 -3.0765819859e+00 1.7762654377e+00 3.0765819859e+00 
26400 6.6913960818e+00 -9.7728957968e-03 1.7765425094e+00 -3.0770618882e+00 1.7765425094e+00 3.0770618882e+00 
26500 6.6913889081e+00 -9.6919872815e-03 1.7768175704e+00 -3.0775383076e+00 1.7768175704e+00 3.0775383076e+00 
26600 6.6913812981e+00 -9.6003863955e-03 1.7770903118e+00 -3.0780107096e+00 1.7770903118e+00 3.0780107096e+00 
26700 6.6913733325e+00 -9.4984093596e-03 1.7773604339e+00 -3.0784785750e+00 1.7773604339e+00 3.0784785750e+00 
26800 6.6913650897e+00 -9.3863791218e-03 1.7776276461e+00 -3.0789414000e+00 1.7776276461e+00 3.0789414000e+00 
26900 6.6913566460e+00 -9.2646248056e-03 1.7778916669e+00 -3.0793986974e+00 1.7778916669e+00 3.0793986974e+00 
27000 6.6913480750e+00 -9.1334811661e-03 1.7781522241e+00 -3.0798499958e+00 1.7781522241e+00 3.0798499958e+00 
27100 6.6913394474e+00 -8.9932880539e-03 1.7784090554e+00 -3.0802948405e+00 1.7784090554e+00 3.0802948405e+00 
27200 6.6913308310e+00 -8.8443898877e-03 1.7786619078e+00 -3.0807327938e+00 1.7786619078e+00 3.0807327938e+00 
27300 6.6913222904e+00 -8.6871351355e-03 1.7789105384e+00 -3.0811634346e+00 1.7789105384e+00 3.0811634346e+00 
27400 6.6913138866e+00 -8.5218758046e-03 1.7791547141e+00 -3.0815863593e+00 1.7791547141e+00 3.0815863593e+00 
27500 6.6913056774e+00 -8.3489669404e-03 1.7793942117e+00 -3.0820011814e+00 1.7793942117e+00 3.0820011814e+00 
27600 6.6912977165e+00 -8.1687661342e-03 1.7796288183e+00 -3.0824075318e+00 1.7796288183e+00 3.0824075318e+00 
27700 6.6912900541e+00 -7.9816330413e-03 1.7798583308e+00 -3.0828050592e+00 1.7798583308e+00 3.0828050592e+00 
27800 6.6912827366e+00 -7.7879289069e-03 1.7800825565e+00 -3.0831934295e+00 1.7800825565e+00 3.0831934295e+00 
27900 6.6912758064e+00 -7.5880161029e-03 1.7803013129e+00 -3.0835723267e+00 1.7803013129e+00 3.0835723267e+00 
28000 6.6912693018e+00 -7.3822576740e-03 1.7805144276e+00 -3.0839414522e+00 1.7805144276e+00 3.0839414522e+00 
28100 6.6912632573e+00 -7.1710168931e-03 1.7807217385e+00 -3.0843005252e+00 1.7807217385e+00 3.0843005252e+00 
28200 6.6912577035e+00 -6.9546568273e-03 1.7809230937e+00 -3.0846492826e+00 1.7809230937e+00 3.0846492826e+00 
28300 6.6912526669e+00 -6.7335399132e-03 1.7811183515e+00 -3.0849874791e+00 1.7811183515e+00 3.0849874791e+00 
28400 6.6912481702e+00 -6.5080275426e-03 1.7813073805e+00 -3.0853148869e+00 1.7813073805e+00 3.0853148869e+00 
28500 6.6912442321e+00 -6.2784796583e-03 1.7814900592e+00 -3.0856312957e+00 1.7814900592e+00 3.0856312957e+00 
28600 6.6912408676e+00 -6.0452543597e-03 1.7816662764e+00 -3.0859365128e+00 1.7816662764e+00 3.0859365128e+00 
28700 6.6912380879e+00 -5.8087075190e-03 1.7818359308e+00 -3.0862303629e+00 1.7818359308e+00 3.0862303629e+00 
28800 6.6912359009e+00 -5.5691924075e-03 1.7819989311e+00 -3.0865126877e+00 1.7819989311e+00 3.0865126877e+00 
28900 6.6912343105e+00 -5.3270593320e-03 1.7821551959e+00 -3.0867833462e+00 1.7821551959e+00 3.0867833462e+00 
29000 6.6912333177e+00 -5.0826552819e-03 1.7823046535e+00 -3.0870422144e+00 1.7823046535e+00 3.0870422144e+00 
29100 6.6912329200e+00 -4.8363235864e-03 1.7824472420e+00 -3.0872891850e+00 1.7824472420e+00 3.0872891850e+00 
29200 6.6912331117e+00 -4.5884035821e-03 1.7825829090e+00 -3.0875241671e+00 1.7825829090e+00 3.0875241671e+00 
29300 6.6912338844e+00 -4.3392302913e-03 1.7827116115e+00 -3.0877470864e+00 1.7827116115e+00 3.0877470864e+00 
29400 6.6912352268e+00 -4.0891341105e-03 1.7828333160e+00 -3.0879578848e+00 1.7828333160e+00 3.0879578848e+00 
29500 6.6912371250e+00 -3.8384405094e-03 1.7829479980e+00 -3.0881565198e+00 1.7829479980e+00 3.0881565198e+00 
29600 6.6912395625e+00 -3.5874697408e-03 1.7830556422e+00 -3.0883429650e+00 1.7830556422e+00 3.0883429650e+00 
29700 6.6912425207e+00 -3.3365365604e-03 1.7831562421e+00 -3.0885172091e+00 1.7831562421e+00 3.0885172091e+00 
29800 6.6912459790e+00 -3.0859499578e-03 1.7832497999e+00 -3.0886792560e+00 1.7832497999e+00 3.0886792560e+00 
29900 6.6912499146e+00 -2.8360128977e-03 1.7833363266e+00 -3.0888291247e+00 1.7833363266e+00 3.0888291247e+00 
30000 6.6912543031e+00 -2.5870220722e-03 1.7834158415e+00 -3.0889668485e+00 1.7834158415e+00 3.0889668485e+00 
30100 6.6912591187e+00 -2.3392676632e-03 1.7834883719e+00 -3.0890924749e+00 1.7834883719e+00 3.0890924749e+00 
30200 6.6912643341e+00 -2.0930331159e-03 1.7835539536e+00 -3.0892060656e+00 1.7835539536e+00 3.0892060656e+00 
30300 6.6912699208e+00 -1.8485949229e-03 1.7836126298e+00 -3.0893076959e+00 1.7836126298e+00 3.0893076959e+00 
30400 6.6912758496e+00 -1.6062224190e-03 1.7836644517e+00 -3.0893974540e+00 1.7836644517e+00 3.0893974540e+00 
30500 6.6912820901e+00 -1.3661775872e-03 1.7837094778e+00 -3.0894754415e+00 1.7837094778e+00 3.0894754415e+00 
30600 6.6912886116e+00 -1.1287148747e-03 1.7837477739e+00 -3.0895417723e+00 1.7837477739e+00 3.0895417723e+00 
30700 6.6912953828e+00 -8.9408102054e-04 1.7837794129e+00 -3.0895965726e+00 1.7837794129e+00 3.0895965726e+00 
30800 6.6913023722e+00 -6.6251489395e-04 1.7838044744e+00 -3.0896399804e+00 1.7838044744e+00 3.0896399804e+00 
30900 6.6913095482e+00 -4.3424734323e-04 1.7838230447e+00 -3.0896721451e+00 1.7838230447e+00 3.0896721451e+00 
31000 6.6913168793e+00 -2.0950105597e-04 1.7838352165e+00 -3.0896932273e+00 1.7838352165e+00 3.0896932273e+00 
31100 6.6913243340e+00 1.1509569925e-05 1.7838410887e+00 -3.0897033983e+00 1.7838410887e+00 3.0897033983e+00 
31200 6.6913318816e+00 2.2897436733e-04 1.7838410887e+00 -3.0897033983e+00 1.7838410887e+00 3.0897033983e+00 
31300 6.6913394913e+00 4.4189405341e-04 1.7838346707e+00 -3.0896922819e+00 1.7838346707e+00 3.0896922819e+00 
31400 6.6913471334e+00 6.5048615652e-04 1.7838222846e+00 -3.0896708287e+00 1.7838222846e+00 3.0896708287e+00 
31500 6.6913547786e+00 8.5457047971e-04 1.7838040517e+00 -3.0896392484e+00 1.7838040517e+00 3.0896392484e+00 
31600 6.6913623989e+00 1.0539755971e-03 1.7837800982e+00 -3.0895977596e+00 1.7837800982e+00 3.0895977596e+00 
31700 6.6913699668e+00 1.2485389170e-03 1.7837505550e+00 -3.0895465892e+00 1.7837505550e+00 3.0895465892e+00 
31800 6.6913774563e+00 1.4381067335e-03 1.7837155575e+00 -3.0894859718e+00 1.7837155575e+00 3.0894859718e+00 
31900 6.6913848423e+00 1.6225342675e-03 1.7836752455e+00 -3.0894161495e+00 1.7836752455e+00 3.0894161495e+00 
32000 6.6913921011e+00 1.8016856968e-03 1.7836297628e+00 -3.0893373711e+00 1.7836297628e+00 3.0893373711e+00 
32100 6.6913992102e+00 1.9754341751e-03 1.7835792569e+00 -3.0892498923e+00 1.7835792569e+00 3.0892498923e+00 
32200 6.6914061486e+00 2.1436618402e-03 1.7835238788e+00 -3.0891539747e+00 1.7835238788e+00 3.0891539747e+00 
32300 6.6914128967e+00 2.3062598114e-03 1.7834637829e+00 -3.0890498855e+00 1.7834637829e+00 3.0890498855e+00 
32400 6.6914194363e+00 2.4631281762e-03 1.7833991266e+00 -3.0889378974e+00 1.7833991266e+00 3.0889378974e+00 
32500 6.6914257508e+00 2.6141759664e-03 1.7833300699e+00 -3.0888182877e+00 1.7833300699e+00 3.0888182877e+00 
32600 6.6914318253e+00 2.7593211239e-03 1.7832567756e+00 -3.0886913383e+00 1.7832567756e+00 3.0886913383e+00 
32700 6.6914376462e+00 2.8984904550e-03 1.7831794087e+00 -3.0885573349e+00 1.7831794087e+00 3.0885573349e+00 
32800 6.6914432017e+00 3.0316195760e-03 1.7830981362e+00 -3.0884165668e+00 1.7830981362e+00 3.0884165668e+00 
32900 6.6914484813e+00 3.1586528476e-03 1.7830131270e+00 -3.0882693265e+00 1.7830131270e+00 3.0882693265e+00 
33000 6.6914534765e+00 3.2795432989e-03 1.7829245515e+00 -3.0881159092e+00 1.7829245515e+00 3.0881159092e+00 
33100 6.6914581800e+00 3.3942525429e-03 1.7828325814e+00 -3.0879566123e+00 1.7828325814e+00 3.0879566123e+00 
33200 6.6914625862e+00 3.5027506811e-03 1.7827373895e+00 -3.0877917352e+00 1.7827373895e+00 3.0877917352e+00 
33300 6.6914666910e+00 3.6050161990e-03 1.7826391496e+00 -3.0876215787e+00 1.7826391496e+00 3.0876215787e+00 
33400 6.6914704919e+00 3.7010358526e-03 1.7825380360e+00 -3.0874464448e+00 1.7825380360e+00 3.0874464448e+00 
33500 6.6914739876e+00 3.7908045455e-03 1.7824342234e+00 -3.0872666360e+00 1.7824342234e+00 3.0872666360e+00 
33600 6.6914771784e+00 3.8743251972e-03 1.7823278866e+00 -3.0870824553e+00 1.7823278866e+00 3.0870824553e+00 
33700 6.6914800658e+00 3.9516086031e-03 1.7822192004e+00 -3.0868942054e+00 1.7822192004e+00 3.0868942054e+00 
33800 6.6914826529e+00 4.0226732859e-03 1.7821083396e+00 -3.0867021887e+00 1.7821083396e+00 3.0867021887e+00 
33900 6.6914849437e+00 4.0875453391e-03 1.7819954780e+00 -3.0865067068e+00 1.7819954780e+00 3.0865067068e+00 
34000 6.6914869436e+00 4.1462582629e-03 1.7818807891e+00 -3.0863080598e+00 1.7818807891e+00 3.0863080598e+00 
34100 6.6914886589e+00 4.1988527926e-03 1.7817644454e+00 -3.0861065465e+00 1.7817644454e+00 3.0861065465e+00 
34200 6.6914900972e+00 4.2453767197e-03 1.7816466182e+00 -3.0859024638e+00 1.7816466182e+00 3.0859024638e+00 
34300 6.6914912669e+00 4.2858847067e-03 1.7815274776e+00 -3.0856961062e+00 1.7815274776e+00 3.0856961062e+00 
34400 6.6914921773e+00 4.3204380948e-03 1.7814071921e+00 -3.0854877657e+00 1.7814071921e+00 3.0854877657e+00 
34500 6.6914928386e+00 4.3491047064e-03 1.7812859287e+00 -3.0852777314e+00 1.7812859287e+00 3.0852777314e+00 
34600 6.6914932616e+00 4.3719586407e-03 1.7811638525e+00 -3.0850662891e+00 1.7811638525e+00 3.0850662891e+00 
34700 6.6914934579e+00 4.3890800657e-03 1.7810411263e+00 -3.0848537211e+00 1.7810411263e+00 3.0848537211e+00 
34800 6.6914934397e+00 4.4005550031e-03 1.7809179110e+00 -3.0846403060e+00 1.7809179110e+00 3.0846403060e+00 
34900 6.6914932195e+00 4.4064751104e-03 1.7807943651e+00 -3.0844263181e+00 1.7807943651e+00 3.0844263181e+00 
35000 6.6914928104e+00 4.4069374581e-03 1.7806706443e+00 -3.0842120275e+00 1.7806706443e+00 3.0842120275e+00 
35100 6.6914922260e+00 4.4020443027e-03 1.7805469020e+00 -3.0839976995e+00 1.7805469020e+00 3.0839976995e+00 
35200 6.6914914797e+00 4.3919028572e-03 1.7804232885e+00 -3.0837835946e+00 1.7804232885e+00 3.0837835946e+00 
35300 6.6914905856e+00 4.3766250578e-03 1.7802999512e+00 -3.0835699682e+00 1.7802999512e+00 3.0835699682e+00 
35400 6.6914895575e+00 4.3563273286e-03 1.7801770344e+00 -3.0833570700e+00 1.7801770344e+00 3.0833570700e+00 
35500 6.6914884097e+00 4.3311303436e-03 1.7800546792e+00 -3.0831451447e+00 1.7800546792e+00 3.0831451447e+00 
35600 6.6914871560e+00 4.3011587876e-03 1.7799330234e+00 -3.0829344306e+00 1.7799330234e+00 3.0829344306e+00 
35700 6.6914858105e+00 4.2665411146e-03 1.7798122011e+00 -3.0827251603e+00 1.7798122011e+00 3.0827251603e+00 
35800 6.6914843869e+00 4.2274093065e-03 1.7796923432e+00 -3.0825175602e+00 1.7796923432e+00 3.0825175602e+00 
35900 6.6914828989e+00 4.1838986304e-03 1.7795735765e+00 -3.0823118503e+00 1.7795735765e+00 3.0823118503e+00 
36000 6.6914813597e+00 4.1361473957e-03 1.7794560244e+00 -3.0821082441e+00 1.7794560244e+00 3.0821082441e+00 
36100 6.6914797824e+00 4.0842967122e-03 1.7793398062e+00 -3.0819069483e+00 1.7793398062e+00 3.0819069483e+00 
36200 6.6914781797e+00 4.0284902474e-03 1.7792250375e+00 -3.0817081630e+00 1.7792250375e+00 3.0817081630e+00 
36300 6.6914765637e+00 3.9688739861e-03 1.7791118295e+00 -3.0815120811e+00 1.7791118295e+00 3.0815120811e+00 
36400 6.6914749461e+00 3.9055959904e-03 1.7790002898e+00 -3.0813188887e+00 1.7790002898e+00 3.0813188887e+00 
36500 6.6914733383e+00 3.8388061619e-03 1.7788905216e+00 -3.0811287644e+00 1.7788905216e+00 3.0811287644e+00 
36600 6.6914717510e+00 3.7686560056e-03 1.7787826238e+00 -3.0809418800e+00 1.7787826238e+00 3.0809418800e+00 
36700 6.6914701944e+00 3.6952983961e-03 1.7786766912e+00 -3.0807583995e+00 1.7786766912e+00 3.0807583995e+00 
36800 6.6914686779e+00 3.6188873472e-03 1.7785728145e+00 -3.0805784797e+00 1.7785728145e+00 3.0805784797e+00 
36900 6.6914672106e+00 3.5395777831e-03 1.7784710798e+00 -3.0804022699e+00 1.7784710798e+00 3.0804022699e+00 
37000 6.6914658007e+00 3.4575253142e-03 1.7783715689e+00 -3.0802299120e+00 1.7783715689e+00 3.0802299120e+00 
37100 6.6914644559e+00 3.3728860161e-03 1.7782743593e+00 -3.0800615402e+00 1.7782743593e+00 3.0800615402e+00 
37200 6.6914631833e+00 3.2858162120e-03 1.7781795242e+00 -3.0798972810e+00 1.7781795242e+00 3.0798972810e+00 
37300 6.6914619891e+00 3.1964722596e-03 1.7780871323e+00 -3.0797372535e+00 1.7780871323e+00 3.0797372535e+00 
37400 6.6914608789e+00 3.1050103428e-03 1.7779972480e+00 -3.0795815692e+00 1.7779972480e+00 3.0795815692e+00 
37500 6.6914598578e+00 3.0115862668e-03 1.7779099310e+00 -3.0794303318e+00 1.7779099310e+00 3.0794303318e+00 
37600 6.6914589300e+00 2.9163552595e-03 1.7778252371e+00 -3.0792836377e+00 1.7778252371e+00 3.0792836377e+00 
37700 6.6914580992e+00 2.8194717767e-03 1.7777432175e+00 -3.0791415755e+00 1.7777432175e+00 3.0791415755e+00 
37800 6.6914573682e+00 2.7210893135e-03 1.7776639189e+00 -3.0790042263e+00 1.7776639189e+00 3.0790042263e+00 
37900 6.6914567395e+00 2.6213602199e-03 1.7775873839e+00 -3.0788716638e+00 1.7775873839e+00 3.0788716638e+00 
38000 6.6914562146e+00 2.5204355237e-03 1.7775136507e+00 -3.0787439542e+00 1.7775136507e+00 3.0787439542e+00 
38100 6.6914557946e+00 2.4184647574e-03 1.7774427534e+00 -3.0786211565e+00 1.7774427534e+00 3.0786211565e+00 
38200 6.6914554800e+00 2.3155957918e-03 1.7773747217e+00 -3.0785033221e+00 1.7773747217e+00 3.0785033221e+00 
38300 6.6914552707e+00 2.2119746759e-03 1.7773095812e+00 -3.0783904955e+00 1.7773095812e+00 3.0783904955e+00 
38400 6.6914551659e+00 2.1077454818e-03 1.7772473534e+00 -3.0782827137e+00 1.7772473534e+00 3.0782827137e+00 
38500 6.6914551644e+00 2.0030501569e-03 1.7771880557e+00 -3.0781800071e+00 1.7771880557e+00 3.0781800071e+00 
38600 6.6914552646e+00 1.8980283817e-03 1.7771317015e+00 -3.0780823988e+00 1.7771317015e+00 3.0780823988e+00 
38700 6.6914554641e+00 1.7928174341e-03 1.7770783003e+00 -3.0779899052e+00 1.7770783003e+00 3.0779899052e+00 
38800 6.6914557605e+00 1.6875520599e-03 1.7770278577e+00 -3.0779025361e+00 1.7770278577e+00 3.0779025361e+00 
38900 6.6914561506e+00 1.5823643501e-03 1.7769803755e+00 -3.0778202944e+00 1.7769803755e+00 3.0778202944e+00 
39000 6.6914566310e+00 1.4773836242e-03 1.7769358517e+00 -3.0777431770e+00 1.7769358517e+00 3.0777431770e+00 
39100 6.6914571979e+00 1.3727363201e-03 1.7768942808e+00 -3.0776711740e+00 1.7768942808e+00 3.0776711740e+00 
39200 6.6914578472e+00 1.2685458907e-03 1.7768556535e+00 -3.0776042696e+00 1.7768556535e+00 3.0776042696e+00 
39300 6.6914585746e+00 1.1649327064e-03 1.7768199573e+00 -3.0775424419e+00 1.7768199573e+00 3.0775424419e+00 
39400 6.6914593753e+00 1.0620139646e-03 1.7767871760e+00 -3.0774856630e+00 1.7767871760e+00 3.0774856630e+00 
39500 6.6914602446e+00 9.5990360505e-04 1.7767572903e+00 -3.0774338995e+00 1.7767572903e+00 3.0774338995e+00 
39600 6.6914611773e+00 8.5871223211e-04 1.7767302775e+00 -3.0773871121e+00 1.7767302775e+00 3.0773871121e+00 
39700 6.6914621683e+00 7.5854704277e-04 1.7767061121e+00 -3.0773452562e+00 1.7767061121e+00 3.0773452562e+00 
39800 6.6914632123e+00 6.5951176124e-04 1.7766847651e+00 -3.0773082822e+00 1.7766847651e+00 3.0773082822e+00 
39900 6.6914643039e+00 5.6170657965e-04 1.7766662050e+00 -3.0772761351e+00 1.7766662050e+00 3.0772761351e+00 
40000 6.6914654375e+00 4.6522810474e-04 1.7766503971e+00 -3.0772487551e+00 1.7766503971e+00 3.0772487551e+00 
40100 6.6914666078e+00 3.7016931070e-04 1.7766373043e+00 -3.0772260777e+00 1.7766373043e+00 3.0772260777e+00 
40200 6.6914678091e+00 2.7661949783e-04 1.7766268866e+00 -3.0772080337e+00 1.7766268866e+00 3.0772080337e+00 
40300 6.6914690361e+00 1.8466425710e-04 1.7766191016e+00 -3.0771945498e+00 1.7766191016e+00 3.0771945498e+00 
40400 6.6914702833e+00 9.4385440345e-05 1.7766139046e+00 -3.0771855482e+00 1.7766139046e+00 3.0771855482e+00 
40500 6.6914715453e+00 5.8611361560e-06 1.7766112483e+00 -3.0771809473e+00 1.7766112483e+00 3.0771809473e+00 
40600 6.6914728170e+00 -8.0629145295e-05 1.7766112483e+00 -3.0771809473e+00 1.7766112483e+00 3.0771809473e+00 
40700 6.6914740932e+00 -1.6543075064e-04 1.7766135174e+00 -3.0771848776e+00 1.7766135174e+00 3.0771848776e+00 
40800 6.6914753690e+00 -2.4826609787e-04 1.7766181732e+00 -3.0771929417e+00 1.7766181732e+00 3.0771929417e+00 
40900 6.6914766396e+00 -3.2907229914e-04 1.7766251603e+00 -3.0772050436e+00 1.7766251603e+00 3.0772050436e+00 
41000 6.6914779003e+00 -4.0779026979e-04 1.7766344214e+00 -3.0772210844e+00 1.7766344214e+00 3.0772210844e+00 
41100 6.6914791467e+00 -4.8436472144e-04 1.7766458979e+00 -3.0772409623e+00 1.7766458979e+00 3.0772409623e+00 
41200 6.6914803746e+00 -5.5874415035e-04 1.7766595294e+00 -3.0772645727e+00 1.7766595294e+00 3.0772645727e+00 
41300 6.6914815801e+00 -6.3088082121e-04 1.7766752540e+00 -3.0772918085e+00 1.7766752540e+00 3.0772918085e+00 
41400 6.6914827593e+00 -7.0073074648e-04 1.7766930086e+00 -3.0773225603e+00 1.7766930086e+00 3.0773225603e+00 
41500 6.6914839089e+00 -7.6825366146e-04 1.7767127287e+00 -3.0773567165e+00 1.7767127287e+00 3.0773567165e+00 
41600 6.6914850255e+00 -8.3341299516e-04 1.7767343488e+00 -3.0773941637e+00 1.7767343488e+00 3.0773941637e+00 
41700 6.6914861062e+00 -8.9617583726e-04 1.7767578024e+00 -3.0774347864e+00 1.7767578024e+00 3.0774347864e+00 
41800 6.6914871482e+00 -9.5651290114e-04 1.7767830218e+00 -3.0774784678e+00 1.7767830218e+00 3.0774784678e+00 
41900 6.6914881491e+00 -1.0143984833e-03 1.7768099389e+00 -3.0775250895e+00 1.7768099389e+00 3.0775250895e+00 
42000 6.6914891068e+00 -1.0698104190e-03 1.7768384845e+00 -3.0775745319e+00 1.7768384845e+00 3.0775745319e+00 
42100 6.6914900192e+00 -1.1227300350e-03 1.7768685889e+00 -3.0776266743e+00 1.7768685889e+00 3.0776266743e+00 
42200 6.6914908849e+00 -1.1731420984e-03 1.7769001819e+00 -3.0776813950e+00 1.7769001819e+00 3.0776813950e+00 
42300 6.6914917025e+00 -1.2210347628e-03 1.7769331929e+00 -3.0777385718e+00 1.7769331929e+00 3.0777385718e+00 
42400 6.6914924708e+00 -1.2663995115e-03 1.7769675510e+00 -3.0777980817e+00 1.7769675510e+00 3.0777980817e+00 
42500 6.6914931890e+00 -1.3092310975e-03 1.7770031848e+00 -3.0778598013e+00 1.7770031848e+00 3.0778598013e+00 
42600 6.6914938566e+00 -1.3495274817e-03 1.7770400231e+00 -3.0779236071e+00 1.7770400231e+00 3.0779236071e+00 
42700 6.6914944732e+00 -1.3872897673e-03 1.7770779945e+00 -3.0779893754e+00 1.7770779945e+00 3.0779893754e+00 
42800 6.6914950388e+00 -1.4225221331e-03 1.7771170275e+00 -3.0780569826e+00 1.7771170275e+00 3.0780569826e+00 
42900 6.6914955534e+00 -1.4552317638e-03 1.7771570510e+00 -3.0781263053e+00 1.7771570510e+00 3.0781263053e+00 
43000 6.6914960176e+00 -1.4854287785e-03 1.7771979938e+00 -3.0781972204e+00 1.7771979938e+00 3.0781972204e+00 
43100 6.6914964318e+00 -1.5131261569e-03 1.7772397853e+00 -3.0782696053e+00 1.7772397853e+00 3.0782696053e+00 
43200 6.6914967969e+00 -1.5383396644e-03 1.7772823550e+00 -3.0783433383e+00 1.7772823550e+00 3.0783433383e+00 
43300 6.6914971138e+00 -1.5610877749e-03 1.7773256330e+00 -3.0784182980e+00 1.7773256330e+00 3.0784182980e+00 
43400 6.6914973838e+00 -1.5813915921e-03 1.7773695500e+00 -3.0784943644e+00 1.7773695500e+00 3.0784943644e+00 
43500 6.6914976081e+00 -1.5992747699e-03 1.7774140370e+00 -3.0785714182e+00 1.7774140370e+00 3.0785714182e+00 
43600 6.6914977883e+00 -1.6147634306e-03 1.7774590260e+00 -3.0786493414e+00 1.7774590260e+00 3.0786493414e+00 
43700 6.6914979259e+00 -1.6278860831e-03 1.7775044496e+00 -3.0787280174e+00 1.7775044496e+00 3.0787280174e+00 
43800 6.6914980228e+00 -1.6386735391e-03 1.7775502411e+00 -3.0788073306e+00 1.7775502411e+00 3.0788073306e+00 
43900 6.6914980809e+00 -1.6471588289e-03 1.7775963349e+00 -3.0788871674e+00 1.7775963349e+00 3.0788871674e+00 
44000 6.6914981021e+00 -1.6533771161e-03 1.7776426662e+00 -3.0789674155e+00 1.7776426662e+00 3.0789674155e+00 
44100 6.6914980885e+00 -1.6573656119e-03 1.7776891711e+00 -3.0790479645e+00 1.7776891711e+00 3.0790479645e+00 
44200 6.6914980422e+00 -1.6591634889e-03 1.7777357871e+00 -3.0791287057e+00 1.7777357871e+00 3.0791287057e+00 
44300 6.6914979655e+00 -1.6588117938e-03 1.7777824524e+00 -3.0792095323e+00 1.7777824524e+00 3.0792095323e+00 
44400 6.6914978606e+00 -1.6563533609e-03 1.7778291065e+00 -3.0792903397e+00 1.7778291065e+00 3.0792903397e+00 
44500 6.6914977299e+00 -1.6518327240e-03 1.7778756903e+00 -3.0793710252e+00 1.7778756903e+00 3.0793710252e+00 
44600 6.6914975756e+00 -1.6452960293e-03 1.7779221458e+00 -3.0794514884e+00 1.7779221458e+00 3.0794514884e+00 
44700 6.6914974001e+00 -1.6367909478e-03 1.7779684162e+00 -3.0795316310e+00 1.7779684162e+00 3.0795316310e+00 
44800 6.6914972058e+00 -1.6263665878e-03 1.7780144462e+00 -3.0796113573e+00 1.7780144462e+00 3.0796113573e+00 
44900 6.6914969950e+00 -1.6140734073e-03 1.7780601818e+00 -3.0796905738e+00 1.7780601818e+00 3.0796905738e+00 
45000 6.6914967700e+00 -1.5999631274e-03 1.7781055706e+00 -3.0797691896e+00 1.7781055706e+00 3.0797691896e+00 
45100 6.6914965331e+00 -1.5840886451e-03 1.7781505615e+00 -3.0798471160e+00 1.7781505615e+00 3.0798471160e+00 
45200 6.6914962866e+00 -1.5665039475e-03 1.7781951048e+00 -3.0799242673e+00 1.7781951048e+00 3.0799242673e+00 
45300 6.6914960325e+00 -1.5472640253e-03 1.7782391526e+00 -3.0800005603e+00 1.7782391526e+00 3.0800005603e+00 
45400 6.6914957732e+00 -1.5264247885e-03 1.7782826583e+00 -3.0800759144e+00 1.7782826583e+00 3.0800759144e+00 
45500 6.6914955106e+00 -1.5040429813e-03 1.7783255770e+00 -3.0801502517e+00 1.7783255770e+00 3.0801502517e+00 
45600 6.6914952468e+00 -1.4801760986e-03 1.7783678653e+00 -3.0802234973e+00 1.7783678653e+00 3.0802234973e+00 
45700 6.6914949837e+00 -1.4548823029e-03 1.7784094816e+00 -3.0802955788e+00 1.7784094816e+00 3.0802955788e+00 
45800 6.6914947230e+00 -1.4282203427e-03 1.7784503858e+00 -3.0803664269e+00 1.7784503858e+00 3.0803664269e+00 
45900 6.6914944666e+00 -1.4002494709e-03 1.7784905395e+00 -3.0804359751e+00 1.7784905395e+00 3.0804359751e+00 
46000 6.6914942162e+00 -1.3710293654e-03 1.7785299058e+00 -3.0805041597e+00 1.7785299058e+00 3.0805041597e+00 
46100 6.6914939731e+00 -1.3406200497e-03 1.7785684499e+00 -3.0805709199e+00 1.7785684499e+00 3.0805709199e+00 
46200 6.6914937390e+00 -1.3090818157e-03 1.7786061382e+00 -3.0806361980e+00 1.7786061382e+00 3.0806361980e+00 
46300 6.6914935151e+00 -1.2764751467e-03 1.7786429391e+00 -3.0806999390e+00 1.7786429391e+00 3.0806999390e+00 
46400 6.6914933027e+00 -1.2428606426e-03 1.7786788226e+00 -3.0807620911e+00 1.7786788226e+00 3.0807620911e+00 
46500 6.6914931028e+00 -1.2082989457e-03 1.7787137605e+00 -3.0808226052e+00 1.7787137605e+00 3.0808226052e+00 
46600 6.6914929165e+00 -1.1728506686e-03 1.7787477261e+00 -3.0808814354e+00 1.7787477261e+00 3.0808814354e+00 
46700 6.6914927447e+00 -1.1365763228e-03 1.7787806946e+00 -3.0809385386e+00 1.7787806946e+00 3.0809385386e+00 
46800 6.6914925882e+00 -1.0995362492e-03 1.7788126429e+00 -3.0809938747e+00 1.7788126429e+00 3.0809938747e+00 
46900 6.6914924476e+00 -1.0617905504e-03 1.7788435495e+00 -3.0810474064e+00 1.7788435495e+00 3.0810474064e+00 
47000 6.6914923234e+00 -1.0233990238e-03 1.7788733945e+00 -3.0810990995e+00 1.7788733945e+00 3.0810990995e+00 
47100 6.6914922162e+00 -9.8442109717e-04 1.7789021600e+00 -3.0811489228e+00 1.7789021600e+00 3.0811489228e+00 
47200 6.6914921263e+00 -9.4491576522e-04 1.7789298294e+00 -3.0811968476e+00 1.7789298294e+00 3.0811968476e+00 
47300 6.6914920539e+00 -9.0494152820e-04 1.7789563880e+00 -3.0812428485e+00 1.7789563880e+00 3.0812428485e+00 
47400 6.6914919991e+00 -8.6455633216e-04 1.7789818227e+00 -3.0812869026e+00 1.7789818227e+00 3.0812869026e+00 
47500 6.6914919620e+00 -8.2381751092e-04 1.7790061219e+00 -3.0813289901e+00 1.7790061219e+00 3.0813289901e+00 
47600 6.6914919425e+00 -7.8278172988e-04 1.7790292758e+00 -3.0813690939e+00 1.7790292758e+00 3.0813690939e+00 
47700 6.6914919406e+00 -7.4150493161e-04 1.7790512761e+00 -3.0814071995e+00 1.7790512761e+00 3.0814071995e+00 
47800 6.6914919559e+00 -7.0004228327e-04 1.7790721161e+00 -3.0814432954e+00 1.7790721161e+00 3.0814432954e+00 
47900 6.6914919881e+00 -6.5844812595e-04 1.7790917905e+00 -3.0814773724e+00 1.7790917905e+00 3.0814773724e+00 
48000 6.6914920368e+00 -6.1677592586e-04 1.7791102957e+00 -3.0815094244e+00 1.7791102957e+00 3.0815094244e+00 
48100 6.6914921017e+00 -5.7507822735e-04 1.7791276295e+00 -3.0815394475e+00 1.7791276295e+00 3.0815394475e+00 
48200 6.6914921820e+00 -5.3340660803e-04 1.7791437914e+00 -3.0815674406e+00 1.7791437914e+00 3.0815674406e+00 
48300 6.6914922774e+00 -4.9181163564e-04 1.7791587819e+00 -3.0815934050e+00 1.7791587819e+00 3.0815934050e+00 
48400 6.6914923870e+00 -4.5034282698e-04 1.7791726034e+00 -3.0816173445e+00 1.7791726034e+00 3.0816173445e+00 
48500 6.6914925102e+00 -4.0904860874e-04 1.7791852594e+00 -3.0816392653e+00 1.7791852594e+00 3.0816392653e+00 
48600 6.6914926463e+00 -3.6797628035e-04 1.7791967548e+00 -3.0816591760e+00 1.7791967548e+00 3.0816591760e+00 
48700 6.6914927945e+00 -3.2717197878e-04 1.7792070959e+00 -3.0816770873e+00 1.7792070959e+00 3.0816770873e+00 
48800 6.6914929538e+00 -2.8668064530e-04 1.7792162902e+00 -3.0816930123e+00 1.7792162902e+00 3.0816930123e+00 
48900 6.6914931236e+00 -2.4654599427e-04 1.7792243466e+00 -3.0817069664e+00 1.7792243466e+00 3.0817069664e+00 
49000 6.6914933029e+00 -2.0681048385e-04 1.7792312751e+00 -3.0817189668e+00 1.7792312751e+00 3.0817189668e+00 
49100 6.6914934908e+00 -1.6751528877e-04 1.7792370869e+00 -3.0817290332e+00 1.7792370869e+00 3.0817290332e+00 
49200 6.6914936864e+00 -1.2870027501e-04 1.7792417944e+00 -3.0817371868e+00 1.7792417944e+00 3.0817371868e+00 
49300 6.6914938888e+00 -9.0403976501e-05 1.7792454111e+00 -3.0817434511e+00 1.7792454111e+00 3.0817434511e+00 
49400 6.6914940971e+00 -5.2663573788e-05 1.7792479516e+00 -3.0817478514e+00 1.7792479516e+00 3.0817478514e+00 
49500 6.6914943103e+00 -1.7345991775e-05 1.7792479516e+00 -3.0817478514e+00 1.7792479516e+00 3.0817478514e+00 
49600 6.6914945274e+00 1.8621315616e-05 1.7792479516e+00 -3.0817478514e+00 1.7792479516e+00 3.0817478514e+00 
49700 6.6914947477e+00 5.5194002984e-05 1.7792479516e+00 -3.0817478514e+00 1.7792479516e+00 3.0817478514e+00 
49800 6.6914949704e+00 9.2328416400e-05 1.7792479516e+00 -3.0817478514e+00 1.7792479516e+00 3.0817478514e+00 
49900 6.6914951944e+00 1.2677089169e-04 1.7792453570e+00 -3.0817433575e+00 1.7792453570e+00 3.0817433575e+00 
50000 6.6914954189e+00 1.6046428994e-04 1.7792417945e+00 -3.0817371871e+00 1.7792417945e+00 3.0817371871e+00 
50100 6.6914956430e+00 1.9338130747e-04 1.7792372852e+00 -3.0817293766e+00 1.7792372852e+00 3.0817293766e+00 
50200 6.6914958661e+00 2.2549609674e-04 1.7792318508e+00 -3.0817199640e+00 1.7792318508e+00 3.0817199640e+00 
50300 6.6914960872e+00 2.5678427063e-04 1.7792255139e+00 -3.0817089882e+00 1.7792255139e+00 3.0817089882e+00 
50400 6.6914963058e+00 2.8722290470e-04 1.7792182977e+00 -3.0816964894e+00 1.7792182977e+00 3.0816964894e+00 
50500 6.6914965210e+00 3.1679053791e-04 1.7792102261e+00 -3.0816825090e+00 1.7792102261e+00 3.0816825090e+00 
50600 6.6914967322e+00 3.4546717140e-04 1.7792013236e+00 -3.0816670893e+00 1.7792013236e+00 3.0816670893e+00 
50700 6.6914969388e+00 3.7323426571e-04 1.7791916151e+00 -3.0816502737e+00 1.7791916151e+00 3.0816502737e+00 
50800 6.6914971402e+00 4.0007473618e-04 1.7791811262e+00 -3.0816321065e+00 1.7791811262e+00 3.0816321065e+00 
50900 6.6914973358e+00 4.2597294682e-04 1.7791698830e+00 -3.0816126327e+00 1.7791698830e+00 3.0816126327e+00 
51000 6.6914975253e+00 4.5091470248e-04 1.7791579119e+00 -3.0815918981e+00 1.7791579119e+00 3.0815918981e+00 
51100 6.6914977081e+00 4.7488723944e-04 1.7791452398e+00 -3.0815699494e+00 1.7791452398e+00 3.0815699494e+00 
51200 6.6914978838e+00 4.9787921452e-04 1.7791318939e+00 -3.0815468335e+00 1.7791318939e+00 3.0815468335e+00 
51300 6.6914980521e+00 5.1988069261e-04 1.7791179017e+00 -3.0815225984e+00 1.7791179017e+00 3.0815225984e+00 
51400 6.6914982127e+00 5.4088313276e-04 1.7791032911e+00 -3.0814972921e+00 1.7791032911e+00 3.0814972921e+00 
51500 6.6914983652e+00 5.6087937283e-04 1.7790880901e+00 -3.0814709632e+00 1.7790880901e+00 3.0814709632e+00 
51600 6.6914985096e+00 5.7986361277e-04 1.7790723270e+00 -3.0814436607e+00 1.7790723270e+00 3.0814436607e+00 
51700 6.6914986455e+00 5.9783139655e-04 1.7790560302e+00 -3.0814154339e+00 1.7790560302e+00 3.0814154339e+00 
51800 6.6914987729e+00 6.1477959276e-04 1.7790392283e+00 -3.0813863321e+00 1.7790392283e+00 3.0813863321e+00 
51900 6.6914988917e+00 6.3070637399e-04 1.7790219499e+00 -3.0813564051e+00 1.7790219499e+00 3.0813564051e+00 
52000 6.6914990019e+00 6.4561119497e-04 1.7790042238e+00 -3.0813257024e+00 1.7790042238e+00 3.0813257024e+00 
52100 6.6914991033e+00 6.5949476957e-04 1.7789860785e+00 -3.0812942739e+00 1.7789860785e+00 3.0812942739e+00 
52200 6.6914991962e+00 6.7235904668e-04 1.7789675428e+00 -3.0812621692e+00 1.7789675428e+00 3.0812621692e+00 
52300 6.6914992805e+00 6.8420718494e-04 1.7789486454e+00 -3.0812294379e+00 1.7789486454e+00 3.0812294379e+00 
52400 6.6914993563e+00 6.9504352662e-04 1.7789294148e+00 -3.0811961295e+00 1.7789294148e+00 3.0811961295e+00 
52500 6.6914994238e+00 7.0487357032e-04 1.7789098794e+00 -3.0811622932e+00 1.7789098794e+00 3.0811622932e+00 
52600 6.6914994832e+00 7.1370394291e-04 1.7788900675e+00 -3.0811279779e+00 1.7788900675e+00 3.0811279779e+00 
52700 6.6914995347e+00 7.2154237049e-04 1.7788700071e+00 -3.0810932324e+00 1.7788700071e+00 3.0810932324e+00 
52800 6.6914995784e+00 7.2839764861e-04 1.7788497263e+00 -3.0810581049e+00 1.7788497263e+00 3.0810581049e+00 
52900 6.6914996148e+00 7.3427961164e-04 1.7788292525e+00 -3.0810226432e+00 1.7788292525e+00 3.0810226432e+00 
53000 6.6914996439e+00 7.3919910147e-04 1.7788086131e+00 -3.0809868948e+00 1.7788086131e+00 3.0809868948e+00 
53100 6.6914996663e+00 7.4316793551e-04 1.7787878352e+00 -3.0809509065e+00 1.7787878352e+00 3.0809509065e+00 
53200 6.6914996821e+00 7.4619887410e-04 1.7787669455e+00 -3.0809147245e+00 1.7787669455e+00 3.0809147245e+00 
53300 6.6914996917e+00 7.4830558729e-04 1.7787459704e+00 -3.0808783945e+00 1.7787459704e+00 3.0808783945e+00 
53400 6.6914996954e+00 7.4950262121e-04 1.7787249358e+00 -3.0808419615e+00 1.7787249358e+00 3.0808419615e+00 
53500 6.6914996937e+00 7.4980536382e-04 1.7787038673e+00 -3.0808054698e+00 1.7787038673e+00 3.0808054698e+00 
53600 6.6914996870e+00 7.4923001041e-04 1.7786827900e+00 -3.0807689629e+00 1.7786827900e+00 3.0807689629e+00 
53700 6.6914996755e+00 7.4779352860e-04 1.7786617287e+00 -3.0807324836e+00 1.7786617287e+00 3.0807324836e+00 
53800 6.6914996597e+00 7.4551362310e-04 1.7786407075e+00 -3.0806960738e+00 1.7786407075e+00 3.0806960738e+00 
53900 6.6914996401e+00 7.4240870016e-04 1.7786197502e+00 -3.0806597746e+00 1.7786197502e+00 3.0806597746e+00 
54000 6.6914996169e+00 7.3849783184e-04 1.7785988798e+00 -3.0806236262e+00 1.7785988798e+00 3.0806236262e+00 
54100 6.6914995906e+00 7.3380072012e-04 1.7785781192e+00 -3.0805876677e+00 1.7785781192e+00 3.0805876677e+00 
54200 6.6914995616e+00 7.2833766079e-04 1.7785574904e+00 -3.0805519375e+00 1.7785574904e+00 3.0805519375e+00 
54300 6.6914995303e+00 7.2212950745e-04 1.7785370149e+00 -3.0805164730e+00 1.7785370149e+00 3.0805164730e+00 
54400 6.6914994970e+00 7.1519763525e-04 1.7785167137e+00 -3.0804813103e+00 1.7785167137e+00 3.0804813103e+00 
54500 6.6914994622e+00 7.0756390492e-04 1.7784966072e+00 -3.0804464847e+00 1.7784966072e+00 3.0804464847e+00 
54600 6.6914994262e+00 6.9925062659e-04 1.7784767150e+00 -3.0804120305e+00 1.7784767150e+00 3.0804120305e+00 
54700 6.6914993894e+00 6.9028052395e-04 1.7784570564e+00 -3.0803779807e+00 1.7784570564e+00 3.0803779807e+00 
54800 6.6914993522e+00 6.8067669844e-04 1.7784376497e+00 -3.0803443674e+00 1.7784376497e+00 3.0803443674e+00 
54900 6.6914993148e+00 6.7046259364e-04 1.7784185128e+00 -3.0803112213e+00 1.7784185128e+00 3.0803112213e+00 
55000 6.6914992776e+00 6.5966195998e-04 1.7783996629e+00 -3.0802785722e+00 1.7783996629e+00 3.0802785722e+00 
55100 6.6914992408e+00 6.4829881961e-04 1.7783811164e+00 -3.0802464488e+00 1.7783811164e+00 3.0802464488e+00 
55200 6.6914992049e+00 6.3639743168e-04 1.7783628892e+00 -3.0802148784e+00 1.7783628892e+00 3.0802148784e+00 
55300 6.6914991701e+00 6.2398225797e-04 1.7783449964e+00 -3.0801838872e+00 1.7783449964e+00 3.0801838872e+00 
55400 6.6914991365e+00 6.1107792886e-04 1.7783274526e+00 -3.0801535003e+00 1.7783274526e+00 3.0801535003e+00 
55500 6.6914991046e+00 5.9770920976e-04 1.7783102713e+00 -3.0801237416e+00 1.7783102713e+00 3.0801237416e+00 
55600 6.6914990744e+00 5.8390096802e-04 1.7782934658e+00 -3.0800946336e+00 1.7782934658e+00 3.0800946336e+00 
55700 6.6914990462e+00 5.6967814033e-04 1.7782770484e+00 -3.0800661978e+00 1.7782770484e+00 3.0800661978e+00 
55800 6.6914990202e+00 5.5506570062e-04 1.7782610307e+00 -3.0800384543e+00 1.7782610307e+00 3.0800384543e+00 
55900 6.6914989965e+00 5.4008862857e-04 1.7782454238e+00 -3.0800114223e+00 1.7782454238e+00 3.0800114223e+00 
56000 6.6914989753e+00 5.2477187865e-04 1.7782302378e+00 -3.0799851194e+00 1.7782302378e+00 3.0799851194e+00 
56100 6.6914989567e+00 5.0914034985e-04 1.7782154824e+00 -3.0799595623e+00 1.7782154824e+00 3.0799595623e+00 
56200 6.6914989409e+00 4.9321885598e-04 1.7782011663e+00 -3.0799347662e+00 1.7782011663e+00 3.0799347662e+00 
56300 6.6914989278e+00 4.7703209674e-04 1.7781872979e+00 -3.0799107453e+00 1.7781872979e+00 3.0799107453e+00 
56400 6.6914989176e+00 4.6060462936e-04 1.7781738845e+00 -3.0798875126e+00 1.7781738845e+00 3.0798875126e+00 
56500 6.6914989104e+00 4.4396084105e-04 1.7781609328e+00 -3.0798650797e+00 1.7781609328e+00 3.0798650797e+00 
56600 6.6914989061e+00 4.2712492217e-04 1.7781484492e+00 -3.0798434573e+00 1.7781484492e+00 3.0798434573e+00 
56700 6.6914989047e+00 4.1012084013e-04 1.7781364388e+00 -3.0798226548e+00 1.7781364388e+00 3.0798226548e+00 
56800 6.6914989064e+00 3.9297231412e-04 1.7781249065e+00 -3.0798026802e+00 1.7781249065e+00 3.0798026802e+00 
56900 6.6914989110e+00 3.7570279057e-04 1.7781138563e+00 -3.0797835407e+00 1.7781138563e+00 3.0797835407e+00 
57000 6.6914989186e+00 3.5833541946e-04 1.7781032917e+00 -3.0797652423e+00 1.7781032917e+00 3.0797652423e+00 
57100 6.6914989290e+00 3.4089303148e-04 1.7780932153e+00 -3.0797477896e+00 1.7780932153e+00 3.0797477896e+00 
57200 6.6914989422e+00 3.2339811593e-04 1.7780836294e+00 -3.0797311863e+00 1.7780836294e+00 3.0797311863e+00 
57300 6.6914989582e+00 3.0587279962e-04 1.7780745354e+00 -3.0797154350e+00 1.7780745354e+00 3.0797154350e+00 
57400 6.6914989769e+00 2.8833882648e-04 1.7780659342e+00 -3.0797005372e+00 1.7780659342e+00 3.0797005372e+00 
57500 6.6914989982e+00 2.7081753813e-04 1.7780578260e+00 -3.0796864934e+00 1.7780578260e+00 3.0796864934e+00 
57600 6.6914990219e+00 2.5332985527e-04 1.7780502104e+00 -3.0796733029e+00 1.7780502104e+00 3.0796733029e+00 
57700 6.6914990479e+00 2.3589626004e-04 1.7780430866e+00 -3.0796609641e+00 1.7780430866e+00 3.0796609641e+00 
57800 6.6914990762e+00 2.1853677914e-04 1.7780364531e+00 -3.0796494744e+00 1.7780364531e+00 3.0796494744e+00 
57900 6.6914991066e+00 2.0127096797e-04 1.7780303076e+00 -3.0796388302e+00 1.7780303076e+00 3.0796388302e+00 
58000 6.6914991389e+00 1.8411789557e-04 1.7780246477e+00 -3.0796290269e+00 1.7780246477e+00 3.0796290269e+00 
58100 6.6914991731e+00 1.6709613049e-04 1.7780194701e+00 -3.0796200590e+00 1.7780194701e+00 3.0796200590e+00 
58200 6.6914992089e+00 1.5022372755e-04 1.7780147711e+00 -3.0796119202e+00 1.7780147711e+00 3.0796119202e+00 
58300 6.6914992462e+00 1.3351821552e-04 1.7780105467e+00 -3.0796046032e+00 1.7780105467e+00 3.0796046032e+00 
58400 6.6914992849e+00 1.1699658564e-04 1.7780067920e+00 -3.0795980999e+00 1.7780067920e+00 3.0795980999e+00 
58500 6.6914993248e+00 1.0067528109e-04 1.7780035018e+00 -3.0795924012e+00 1.7780035018e+00 3.0795924012e+00 
58600 6.6914993657e+00 8.4570187255e-05 1.7780006707e+00 -3.0795874976e+00 1.7780006707e+00 3.0795874976e+00 
58700 6.6914994075e+00 6.8696622992e-05 1.7779982925e+00 -3.0795833783e+00 1.7779982925e+00 3.0795833783e+00 
58800 6.6914994501e+00 5.5465662467e-05 1.7779982925e+00 -3.0795833783e+00 1.7779982925e+00 3.0795833783e+00 
58900 6.6914994932e+00 4.1970537645e-05 1.7779982925e+00 -3.0795833783e+00 1.7779982925e+00 3.0795833783e+00 
59000 6.6914995367e+00 2.8230278766e-05 1.7779982925e+00 -3.0795833783e+00 1.7779982925e+00 3.0795833783e+00 
59100 6.6914995803e+00 1.4263579370e-05 1.7779982925e+00 -3.0795833783e+00 1.7779982925e+00 3.0795833783e+00 
59200 6.6914996240e+00 8.8793956009e-08 1.7779982925e+00 -3.0795833783e+00 1.7779982925e+00 3.0795833783e+00 
59300 6.6914996678e+00 -1.4276064104e-05 1.7779982925e+00 -3.0795833783e+00 1.7779982925e+00 3.0795833783e+00 
59400 6.6914997113e+00 -2.8813324474e-05 1.7779982925e+00 -3.0795833783e+00 1.7779982925e+00 3.0795833783e+00 
59500 6.6914997547e+00 -4.3505661584e-05 1.7779982925e+00 -3.0795833783e+00 1.7779982925e+00 3.0795833783e+00 
59600 6.6914997976e+00 -5.8336096145e-05 1.7779982925e+00 -3.0795833783e+00 1.7779982925e+00 3.0795833783e+00 
59700 6.6914998402e+00 -7.3287996498e-05 1.7779982925e+00 -3.0795833783e+00 1.7779982925e+00 3.0795833783e+00 
59800 6.6914998819e+00 -8.5788938277e-05 1.7780003534e+00 -3.0795869480e+00 1.7780003534e+00 3.0795869480e+00 
59900 6.6914999229e+00 -9.7921249387e-05 1.7780027660e+00 -3.0795911266e+00 1.7780027660e+00 3.0795911266e+00 
60000 6.6914999630e+00 -1.0967737915e-04 1.7780055196e+00 -3.0795958962e+00 1.7780055196e+00 3.0795958962e+00 
60100 6.6915000021e+00 -1.2105037840e-04 1.7780086039e+00 -3.0796012383e+00 1.7780086039e+00 3.0796012383e+00 
60200 6.6915000401e+00 -1.3203389645e-04 1.7780120080e+00 -3.0796071344e+00 1.7780120080e+00 3.0796071344e+00 
60300 6.6915000770e+00 -1.4262217748e-04 1.7780157210e+00 -3.0796135654e+00 1.7780157210e+00 3.0796135654e+00 
60400 6.6915001127e+00 -1.5281005616e-04 1.7780197317e+00 -3.0796205122e+00 1.7780197317e+00 3.0796205122e+00 
60500 6.6915001471e+00 -1.6259295269e-04 1.7780240289e+00 -3.0796279551e+00 1.7780240289e+00 3.0796279551e+00 
60600 6.6915001802e+00 -1.7196686720e-04 1.7780286012e+00 -3.0796358746e+00 1.7780286012e+00 3.0796358746e+00 
60700 6.6915002118e+00 -1.8092837353e-04 1.7780334371e+00 -3.0796442506e+00 1.7780334371e+00 3.0796442506e+00 
60800 6.6915002420e+00 -1.8947461249e-04 1.7780385250e+00 -3.0796530631e+00 1.7780385250e+00 3.0796530631e+00 
60900 6.6915002708e+00 -1.9760328447e-04 1.7780438532e+00 -3.0796622918e+00 1.7780438532e+00 3.0796622918e+00 
61000 6.6915002980e+00 -2.0531264156e-04 1.7780494099e+00 -3.0796719164e+00 1.7780494099e+00 3.0796719164e+00 
61100 6.6915003238e+00 -2.1260147914e-04 1.7780551835e+00 -3.0796819164e+00 1.7780551835e+00 3.0796819164e+00 
61200 6.6915003480e+00 -2.1946912696e-04 1.7780611620e+00 -3.0796922715e+00 1.7780611620e+00 3.0796922715e+00 
61300 6.6915003707e+00 -2.2591543977e-04 1.7780673335e+00 -3.0797029610e+00 1.7780673335e+00 3.0797029610e+00 
61400 6.6915003918e+00 -2.3194078741e-04 1.7780736864e+00 -3.0797139644e+00 1.7780736864e+00 3.0797139644e+00 
61500 6.6915004114e+00 -2.3754604457e-04 1.7780802086e+00 -3.0797252613e+00 1.7780802086e+00 3.0797252613e+00 
61600 6.6915004296e+00 -2.4273258004e-04 1.7780868885e+00 -3.0797368311e+00 1.7780868885e+00 3.0797368311e+00 
61700 6.6915004462e+00 -2.4750224563e-04 1.7780937142e+00 -3.0797486535e+00 1.7780937142e+00 3.0797486535e+00 
61800 6.6915004614e+00 -2.5185736466e-04 1.7781006739e+00 -3.0797607082e+00 1.7781006739e+00 3.0797607082e+00 
61900 6.6915004751e+00 -2.5580072016e-04 1.7781077561e+00 -3.0797729750e+00 1.7781077561e+00 3.0797729750e+00 
62000 6.6915004875e+00 -2.5933554267e-04 1.7781149492e+00 -3.0797854337e+00 1.7781149492e+00 3.0797854337e+00 
62100 6.6915004985e+00 -2.6246549777e-04 1.7781222416e+00 -3.0797980646e+00 1.7781222416e+00 3.0797980646e+00 
62200 6.6915005082e+00 -2.6519467333e-04 1.7781296221e+00 -3.0798108478e+00 1.7781296221e+00 3.0798108478e+00 
62300 6.6915005167e+00 -2.6752756646e-04 1.7781370792e+00 -3.0798237640e+00 1.7781370792e+00 3.0798237640e+00 
62400 6.6915005239e+00 -2.6946907024e-04 1.7781446019e+00 -3.0798367937e+00 1.7781446019e+00 3.0798367937e+00 
62500 6.6915005301e+00 -2.7102446020e-04 1.7781521791e+00 -3.0798499179e+00 1.7781521791e+00 3.0798499179e+00 
62600 6.6915005351e+00 -2.7219938063e-04 1.7781598001e+00 -3.0798631178e+00 1.7781598001e+00 3.0798631178e+00 
62700 6.6915005391e+00 -2.7299983065e-04 1.7781674541e+00 -3.0798763748e+00 1.7781674541e+00 3.0798763748e+00 
62800 6.6915005422e+00 -2.7343215019e-04 1.7781751305e+00 -3.0798896708e+00 1.7781751305e+00 3.0798896708e+00 
62900 6.6915005444e+00 -2.7350300575e-04 1.7781828191e+00 -3.0799029878e+00 1.7781828191e+00 3.0799029878e+00 
63000 6.6915005457e+00 -2.7321937609e-04 1.7781905096e+00 -3.0799163082e+00 1.7781905096e+00 3.0799163082e+00 
63100 6.6915005463e+00 -2.7258853780e-04 1.7781981921e+00 -3.0799296147e+00 1.7781981921e+00 3.0799296147e+00 
63200 6.6915005462e+00 -2.7161805078e-04 1.7782058569e+00 -3.0799428904e+00 1.7782058569e+00 3.0799428904e+00 
63300 6.6915005455e+00 -2.7031574364e-04 1.7782134943e+00 -3.0799561188e+00 1.7782134943e+00 3.0799561188e+00 
63400 6.6915005443e+00 -2.6868969910e-04 1.7782210951e+00 -3.0799692837e+00 1.7782210951e+00 3.0799692837e+00 
63500 6.6915005425e+00 -2.6674823933e-04 1.7782286501e+00 -3.0799823694e+00 1.7782286501e+00 3.0799823694e+00 
63600 6.6915005404e+00 -2.6449991123e-04 1.7782361505e+00 -3.0799953605e+00 1.7782361505e+00 3.0799953605e+00 
63700 6.6915005379e+00 -2.6195347184e-04 1.7782435876e+00 -3.0800082420e+00 1.7782435876e+00 3.0800082420e+00 
63800 6.6915005351e+00 -2.5911787369e-04 1.7782509531e+00 -3.0800209995e+00 1.7782509531e+00 3.0800209995e+00 
63900 6.6915005320e+00 -2.5600225014e-04 1.7782582389e+00 -3.0800336188e+00 1.7782582389e+00 3.0800336188e+00 
64000 6.6915005289e+00 -2.5261590096e-04 1.7782654370e+00 -3.0800460863e+00 1.7782654370e+00 3.0800460863e+00 
64100 6.6915005256e+00 -2.4896827776e-04 1.7782725399e+00 -3.0800583888e+00 1.7782725399e+00 3.0800583888e+00 
64200 6.6915005223e+00 -2.4506896970e-04 1.7782795402e+00 -3.0800705137e+00 1.7782795402e+00 3.0800705137e+00 
64300 6.6915005190e+00 -2.4092768919e-04 1.7782864308e+00 -3.0800824486e+00 1.7782864308e+00 3.0800824486e+00 
64400 6.6915005157e+00 -2.3655425778e-04 1.7782932050e+00 -3.0800941818e+00 1.7782932050e+00 3.0800941818e+00 
64500 6.6915005126e+00 -2.3195859212e-04 1.7782998561e+00 -3.0801057019e+00 1.7782998561e+00 3.0801057019e+00 
64600 6.6915005096e+00 -2.2715069013e-04 1.7783063781e+00 -3.0801169982e+00 1.7783063781e+00 3.0801169982e+00 
64700 6.6915005068e+00 -2.2214061734e-04 1.7783127648e+00 -3.0801280603e+00 1.7783127648e+00 3.0801280603e+00 
64800 6.6915005043e+00 -2.1693849332e-04 1.7783190106e+00 -3.0801388784e+00 1.7783190106e+00 3.0801388784e+00 
64900 6.6915005020e+00 -2.1155447840e-04 1.7783251102e+00 -3.0801494432e+00 1.7783251102e+00 3.0801494432e+00 
65000 6.6915005001e+00 -2.0599876055e-04 1.7783310583e+00 -3.0801597456e+00 1.7783310583e+00 3.0801597456e+00 
65100 6.6915004985e+00 -2.0028154247e-04 1.7783368502e+00 -3.0801697775e+00 1.7783368502e+00 3.0801697775e+00 
65200 6.6915004973e+00 -1.9441302893e-04 1.7783424814e+00 -3.0801795310e+00 1.7783424814e+00 3.0801795310e+00 
65300 6.6915004964e+00 -1.8840341429e-04 1.7783479475e+00 -3.0801889986e+00 1.7783479475e+00 3.0801889986e+00 
65400 6.6915004960e+00 -1.8226287035e-04 1.7783532446e+00 -3.0801981735e+00 1.7783532446e+00 3.0801981735e+00 
65500 6.6915004960e+00 -1.7600153440e-04 1.7783583691e+00 -3.0802070494e+00 1.7783583691e+00 3.0802070494e+00 
65600 6.6915004965e+00 -1.6962949757e-04 1.7783633176e+00 -3.0802156203e+00 1.7783633176e+00 3.0802156203e+00 
65700 6.6915004974e+00 -1.6315679339e-04 1.7783680868e+00 -3.0802238809e+00 1.7783680868e+00 3.0802238809e+00 
65800 6.6915004988e+00 -1.5659338673e-04 1.7783726741e+00 -3.0802318263e+00 1.7783726741e+00 3.0802318263e+00 
65900 6.6915005006e+00 -1.4994916297e-04 1.7783770768e+00 -3.0802394520e+00 1.7783770768e+00 3.0802394520e+00 
66000 6.6915005030e+00 -1.4323391747e-04 1.7783812927e+00 -3.0802467542e+00 1.7783812927e+00 3.0802467542e+00 
66100 6.6915005058e+00 -1.3645734538e-04 1.7783853198e+00 -3.0802537293e+00 1.7783853198e+00 3.0802537293e+00 
66200 6.6915005091e+00 -1.2962903174e-04 1.7783891563e+00 -3.0802603744e+00 1.7783891563e+00 3.0802603744e+00 
66300 6.6915005128e+00 -1.2275844190e-04 1.7783928009e+00 -3.0802666870e+00 1.7783928009e+00 3.0802666870e+00 
66400 6.6915005170e+00 -1.1585491225e-04 1.7783962523e+00 -3.0802726650e+00 1.7783962523e+00 3.0802726650e+00 
66500 6.6915005217e+00 -1.0892764133e-04 1.7783995096e+00 -3.0802783068e+00 1.7783995096e+00 3.0802783068e+00 
66600 6.6915005268e+00 -1.0198568124e-04 1.7784025721e+00 -3.0802836112e+00 1.7784025721e+00 3.0802836112e+00 
66700 6.6915005323e+00 -9.5037929346e-05 1.7784054394e+00 -3.0802885776e+00 1.7784054394e+00 3.0802885776e+00 
66800 6.6915005382e+00 -8.8093120433e-05 1.7784081114e+00 -3.0802932056e+00 1.7784081114e+00 3.0802932056e+00 
66900 6.6915005445e+00 -8.1159819102e-05 1.7784105882e+00 -3.0802974955e+00 1.7784105882e+00 3.0802974955e+00 
67000 6.6915005511e+00 -7.4246412580e-05 1.7784128700e+00 -3.0803014477e+00 1.7784128700e+00 3.0803014477e+00 
67100 6.6915005581e+00 -6.7361103833e-05 1.7784149574e+00 -3.0803050632e+00 1.7784149574e+00 3.0803050632e+00 
67200 6.6915005656e+00 -6.2858910555e-05 1.7784149574e+00 -3.0803050632e+00 1.7784149574e+00 3.0803050632e+00 
67300 6.6915005733e+00 -5.8182195438e-05 1.7784149574e+00 -3.0803050632e+00 1.7784149574e+00 3.0803050632e+00 
67400 6.6915005812e+00 -5.3339058410e-05 1.7784149574e+00 -3.0803050632e+00 1.7784149574e+00 3.0803050632e+00 
67500 6.6915005894e+00 -4.8337507390e-05 1.7784149574e+00 -3.0803050632e+00 1.7784149574e+00 3.0803050632e+00 
67600 6.6915005977e+00 -4.3185456094e-05 1.7784149574e+00 -3.0803050632e+00 1.7784149574e+00 3.0803050632e+00 
67700 6.6915006062e+00 -3.7890721965e-05 1.7784149574e+00 -3.0803050632e+00 1.7784149574e+00 3.0803050632e+00 
67800 6.6915006148e+00 -3.2461024175e-05 1.7784149574e+00 -3.0803050632e+00 1.7784149574e+00 3.0803050632e+00 
67900 6.6915006236e+00 -2.6903981702e-05 1.7784149574e+00 -3.0803050632e+00 1.7784149574e+00 3.0803050632e+00 
68000 6.6915006325e+00 -2.1227111481e-05 1.7784149574e+00 -3.0803050632e+00 1.7784149574e+00 3.0803050632e+00 
68100 6.6915006414e+00 -1.5437826650e-05 1.7784149574e+00 -3.0803050632e+00 1.7784149574e+00 3.0803050632e+00 
68200 6.6915006504e+00 -9.5434348556e-06 1.7784149574e+00 -3.0803050632e+00 1.7784149574e+00 3.0803050632e+00 
68300 6.6915006595e+00 -3.5511366174e-06 1.7784149574e+00 -3.0803050632e+00 1.7784149574e+00 3.0803050632e+00 
68400 6.6915006686e+00 2.5319761948e-06 1.7784149574e+00 -3.0803050632e+00 1.7784149574e+00 3.0803050632e+00 
68500 6.6915006776e+00 8.6989218695e-06 1.7784149574e+00 -3.0803050632e+00 1.7784149574e+00 3.0803050632e+00 
68600 6.6915006867e+00 1.4942830253e-05 1.7784149574e+00 -3.0803050632e+00 1.7784149574e+00 3.0803050632e+00 
68700 6.6915006957e+00 2.1256944109e-05 1.7784149574e+00 -3.0803050632e+00 1.7784149574e+00 3.0803050632e+00 
68800 6.6915007047e+00 2.7634620400e-05 1.7784149574e+00 -3.0803050632e+00 1.7784149574e+00 3.0803050632e+00 
68900 6.6915007136e+00 3.4069331515e-05 1.7784149574e+00 -3.0803050632e+00 1.7784149574e+00 3.0803050632e+00 
69000 6.6915007224e+00 4.0554666429e-05 1.7784149574e+00 -3.0803050632e+00 1.7784149574e+00 3.0803050632e+00 
69100 6.6915007311e+00 4.7084331800e-05 1.7784149574e+00 -3.0803050632e+00 1.7784149574e+00 3.0803050632e+00 
69200 6.6915007397e+00 5.3652153020e-05 1.7784149574e+00 -3.0803050632e+00 1.7784149574e+00 3.0803050632e+00 
69300 6.6915007482e+00 6.0252075189e-05 1.7784149574e+00 -3.0803050632e+00 1.7784149574e+00 3.0803050632e+00 
69400 6.6915007565e+00 6.6878164035e-05 1.7784149574e+00 -3.0803050632e+00 1.7784149574e+00 3.0803050632e+00 
69500 6.6915007646e+00 7.3524606788e-05 1.7784149574e+00 -3.0803050632e+00 1.7784149574e+00 3.0803050632e+00 
69600 6.6915007724e+00 7.7623613842e-05 1.7784128903e+00 -3.0803014828e+00 1.7784128903e+00 3.0803014828e+00 
69700 6.6915007800e+00 8.1566822661e-05 1.7784107079e+00 -3.0802977028e+00 1.7784107079e+00 3.0802977028e+00 
69800 6.6915007873e+00 8.5351884861e-05 1.7784084147e+00 -3.0802937308e+00 1.7784084147e+00 3.0802937308e+00 
69900 6.6915007944e+00 8.8976708332e-05 1.7784060150e+00 -3.0802895744e+00 1.7784060150e+00 3.0802895744e+00 
70000 6.6915008012e+00 9.2439454237e-05 1.7784035134e+00 -3.0802852416e+00 1.7784035134e+00 3.0802852416e+00 
70100 6.6915008078e+00 9.5738533799e-05 1.7784009145e+00 -3.0802807401e+00 1.7784009145e+00 3.0802807401e+00 
70200 6.6915008140e+00 9.8872604857e-05 1.7783982228e+00 -3.0802760779e+00 1.7783982228e+00 3.0802760779e+00 
70300 6.6915008201e+00 1.0184056823e-04 1.7783954429e+00 -3.0802712631e+00 1.7783954429e+00 3.0802712631e+00 
70400 6.6915008258e+00 1.0464156386e-04 1.7783925797e+00 -3.0802663038e+00 1.7783925797e+00 3.0802663038e+00 
70500 6.6915008312e+00 1.0727496678e-04 1.7783896376e+00 -3.0802612080e+00 1.7783896376e+00 3.0802612080e+00 
70600 6.6915008364e+00 1.0974038288e-04 1.7783866216e+00 -3.0802559841e+00 1.7783866216e+00 3.0802559841e+00 
70700 6.6915008413e+00 1.1203764446e-04 1.7783835362e+00 -3.0802506400e+00 1.7783835362e+00 3.0802506400e+00 
70800 6.6915008459e+00 1.1416680571e-04 1.7783803862e+00 -3.0802451841e+00 1.7783803862e+00 3.0802451841e+00 
70900 6.6915008503e+00 1.1612813791e-04 1.7783771763e+00 -3.0802396244e+00 1.7783771763e+00 3.0802396244e+00 
71000 6.6915008544e+00 1.1792212450e-04 1.7783739113e+00 -3.0802339693e+00 1.7783739113e+00 3.0802339693e+00 
71100 6.6915008582e+00 1.1954945611e-04 1.7783705959e+00 -3.0802282268e+00 1.7783705959e+00 3.0802282268e+00 
71200 6.6915008617e+00 1.2101102528e-04 1.7783672347e+00 -3.0802224050e+00 1.7783672347e+00 3.0802224050e+00 
71300 6.6915008650e+00 1.2230792115e-04 1.7783638324e+00 -3.0802165120e+00 1.7783638324e+00 3.0802165120e+00 
71400 6.6915008681e+00 1.2344142403e-04 1.7783603936e+00 -3.0802105559e+00 1.7783603936e+00 3.0802105559e+00 
71500 6.6915008709e+00 1.2441299980e-04 1.7783569229e+00 -3.0802045445e+00 1.7783569229e+00 3.0802045445e+00 
71600 6.6915008735e+00 1.2522429426e-04 1.7783534250e+00 -3.0801984859e+00 1.7783534250e+00 3.0801984859e+00 
71700 6.6915008759e+00 1.2587712731e-04 1.7783499042e+00 -3.0801923877e+00 1.7783499042e+00 3.0801923877e+00 
71800 6.6915008780e+00 1.2637348714e-04 1.7783463650e+00 -3.0801862577e+00 1.7783463650e+00 3.0801862577e+00 
71900 6.6915008800e+00 1.2671552420e-04 1.7783428119e+00 -3.0801801035e+00 1.7783428119e+00 3.0801801035e+00 
72000 6.6915008818e+00 1.2690554524e-04 1.7783392492e+00 -3.0801739327e+00 1.7783392492e+00 3.0801739327e+00 
72100 6.6915008834e+00 1.2694600720e-04 1.7783356811e+00 -3.0801677525e+00 1.7783356811e+00 3.0801677525e+00 
72200 6.6915008848e+00 1.2683951104e-04 1.7783321118e+00 -3.0801615704e+00 1.7783321118e+00 3.0801615704e+00 
72300 6.6915008861e+00 1.2658879555e-04 1.7783285456e+00 -3.0801553935e+00 1.7783285456e+00 3.0801553935e+00 
72400 6.6915008872e+00 1.2619673112e-04 1.7783249864e+00 -3.0801492288e+00 1.7783249864e+00 3.0801492288e+00 
72500 6.6915008882e+00 1.2566631343e-04 1.7783214382e+00 -3.0801430832e+00 1.7783214382e+00 3.0801430832e+00 
72600 6.6915008891e+00 1.2500065720e-04 1.7783179049e+00 -3.0801369633e+00 1.7783179049e+00 3.0801369633e+00 
72700 6.6915008899e+00 1.2420298984e-04 1.7783143903e+00 -3.0801308759e+00 1.7783143903e+00 3.0801308759e+00 
72800 6.6915008906e+00 1.2327664509e-04 1.7783108982e+00 -3.0801248273e+00 1.7783108982e+00 3.0801248273e+00 
72900 6.6915008912e+00 1.2222505675e-04 1.7783074321e+00 -3.0801188238e+00 1.7783074321e+00 3.0801188238e+00 
73000 6.6915008917e+00 1.2105175231e-04 1.7783039955e+00 -3.0801128715e+00 1.7783039955e+00 3.0801128715e+00 
73100 6.6915008922e+00 1.1976034665e-04 1.7783005919e+00 -3.0801069764e+00 1.7783005919e+00 3.0801069764e+00 
73200 6.6915008926e+00 1.1835453575e-04 1.7782972247e+00 -3.0801011441e+00 1.7782972247e+00 3.0801011441e+00 
73300 6.6915008930e+00 1.1683809041e-04 1.7782938969e+00 -3.0800953803e+00 1.7782938969e+00 3.0800953803e+00 
73400 6.6915008934e+00 1.1521485000e-04 1.7782906118e+00 -3.0800896903e+00 1.7782906118e+00 3.0800896903e+00 
73500 6.6915008937e+00 1.1348871630e-04 1.7782873723e+00 -3.0800840793e+00 1.7782873723e+00 3.0800840793e+00 
73600 6.6915008941e+00 1.1166364736e-04 1.7782841814e+00 -3.0800785524e+00 1.7782841814e+00 3.0800785524e+00 
73700 6.6915008944e+00 1.0974365135e-04 1.7782810417e+00 -3.0800731144e+00 1.7782810417e+00 3.0800731144e+00 
73800 6.6915008948e+00 1.0773278057e-04 1.7782779561e+00 -3.0800677699e+00 1.7782779561e+00 3.0800677699e+00 
73900 6.6915008951e+00 1.0563512548e-04 1.7782749269e+00 -3.0800625233e+00 1.7782749269e+00 3.0800625233e+00 
74000 6.6915008955e+00 1.0345480881e-04 1.7782719568e+00 -3.0800573788e+00 1.7782719568e+00 3.0800573788e+00 
74100 6.6915008959e+00 1.0119597969e-04 1.7782690479e+00 -3.0800523405e+00 1.7782690479e+00 3.0800523405e+00 
74200 6.6915008964e+00 9.8862807987e-05 1.7782662026e+00 -3.0800474122e+00 1.7782662026e+00 3.0800474122e+00 
74300 6.6915008969e+00 9.6459478610e-05 1.7782634228e+00 -3.0800425976e+00 1.7782634228e+00 3.0800425976e+00 
74400 6.6915008974e+00 9.3990185975e-05 1.7782607106e+00 -3.0800378999e+00 1.7782607106e+00 3.0800378999e+00 
74500 6.6915008980e+00 9.1459128544e-05 1.7782580679e+00 -3.0800333225e+00 1.7782580679e+00 3.0800333225e+00 
74600 6.6915008987e+00 8.8870503479e-05 1.7782554963e+00 -3.0800288684e+00 1.7782554963e+00 3.0800288684e+00 
74700 6.6915008994e+00 8.6228501385e-05 1.7782529975e+00 -3.0800245403e+00 1.7782529975e+00 3.0800245403e+00 
74800 6.6915009002e+00 8.3537301196e-05 1.7782505730e+00 -3.0800203409e+00 1.7782505730e+00 3.0800203409e+00 
74900 6.6915009010e+00 8.0801065144e-05 1.7782482241e+00 -3.0800162726e+00 1.7782482241e+00 3.0800162726e+00 
75000 6.6915009019e+00 7.8023933867e-05 1.7782459522e+00 -3.0800123375e+00 1.7782459522e+00 3.0800123375e+00 
75100 6.6915009029e+00 7.5210021639e-05 1.7782437583e+00 -3.0800085376e+00 1.7782437583e+00 3.0800085376e+00 
75200 6.6915009040e+00 7.2363411717e-05 1.7782416436e+00 -3.0800048748e+00 1.7782416436e+00 3.0800048748e+00 
75300 6.6915009051e+00 6.9488151831e-05 1.7782396089e+00 -3.0800013506e+00 1.7782396089e+00 3.0800013506e+00 
75400 6.6915009065e+00 6.9010764652e-05 1.7782396089e+00 -3.0800013506e+00 1.7782396089e+00 3.0800013506e+00 
75500 6.6915009079e+00 6.8432418543e-05 1.7782396089e+00 -3.0800013506e+00 1.7782396089e+00 3.0800013506e+00 
75600 6.6915009094e+00 6.7756481074e-05 1.7782396089e+00 -3.0800013506e+00 1.7782396089e+00 3.0800013506e+00 
75700 6.6915009109e+00 6.6986293221e-05 1.7782396089e+00 -3.0800013506e+00 1.7782396089e+00 3.0800013506e+00 
75800 6.6915009124e+00 6.6125168383e-05 1.7782396089e+00 -3.0800013506e+00 1.7782396089e+00 3.0800013506e+00 
75900 6.6915009141e+00 6.5176391418e-05 1.7782396089e+00 -3.0800013506e+00 1.7782396089e+00 3.0800013506e+00 
76000 6.6915009157e+00 6.4143217725e-05 1.7782396089e+00 -3.0800013506e+00 1.7782396089e+00 3.0800013506e+00 
76100 6.6915009174e+00 6.3028872354e-05 1.7782396089e+00 -3.0800013506e+00 1.7782396089e+00 3.0800013506e+00 
76200 6.6915009192e+00 6.1836549159e-05 1.7782396089e+00 -3.0800013506e+00 1.7782396089e+00 3.0800013506e+00 
76300 6.6915009210e+00 6.0569409972e-05 1.7782396089e+00 -3.0800013506e+00 1.7782396089e+00 3.0800013506e+00 
76400 6.6915009228e+00 5.9230583831e-05 1.7782396089e+00 -3.0800013506e+00 1.7782396089e+00 3.0800013506e+00 
76500 6.6915009246e+00 5.7823166197e-05 1.7782396089e+00 -3.0800013506e+00 1.7782396089e+00 3.0800013506e+00 
76600 6.6915009265e+00 5.6350218245e-05 1.7782396089e+00 -3.0800013506e+00 1.7782396089e+00 3.0800013506e+00 
76700 6.6915009284e+00 5.4814766145e-05 1.7782396089e+00 -3.0800013506e+00 1.7782396089e+00 3.0800013506e+00 
76800 6.6915009303e+00 5.3219800390e-05 1.7782396089e+00 -3.0800013506e+00 1.7782396089e+00 3.0800013506e+00 
76900 6.6915009323e+00 5.1568275151e-05 1.7782396089e+00 -3.0800013506e+00 1.7782396089e+00 3.0800013506e+00 
77000 6.6915009342e+00 4.9863107632e-05 1.7782396089e+00 -3.0800013506e+00 1.7782396089e+00 3.0800013506e+00 
77100 6.6915009362e+00 4.8107177460e-05 1.7782396089e+00 -3.0800013506e+00 1.7782396089e+00 3.0800013506e+00 
77200 6.6915009382e+00 4.6303326125e-05 1.7782396089e+00 -3.0800013506e+00 1.7782396089e+00 3.0800013506e+00 
77300 6.6915009402e+00 4.4454356393e-05 1.7782396089e+00 -3.0800013506e+00 1.7782396089e+00 3.0800013506e+00 
77400 6.6915009422e+00 4.2563031762e-05 1.7782396089e+00 -3.0800013506e+00 1.7782396089e+00 3.0800013506e+00 
77500 6.6915009442e+00 4.0632075958e-05 1.7782396089e+00 -3.0800013506e+00 1.7782396089e+00 3.0800013506e+00 
77600 6.6915009462e+00 3.8664172404e-05 1.7782396089e+00 -3.0800013506e+00 1.7782396089e+00 3.0800013506e+00 
77700 6.6915009482e+00 3.6661963756e-05 1.7782396089e+00 -3.0800013506e+00 1.7782396089e+00 3.0800013506e+00 
77800 6.6915009501e+00 3.4628051417e-05 1.7782396089e+00 -3.0800013506e+00 1.7782396089e+00 3.0800013506e+00 
77900 6.6915009521e+00 3.2564995102e-05 1.7782396089e+00 -3.0800013506e+00 1.7782396089e+00 3.0800013506e+00 
78000 6.6915009541e+00 3.0475312392e-05 1.7782396089e+00 -3.0800013506e+00 1.7782396089e+00 3.0800013506e+00 
78100 6.6915009560e+00 2.8361478341e-05 1.7782396089e+00 -3.0800013506e+00 1.7782396089e+00 3.0800013506e+00 
78200 6.6915009579e+00 2.6225925044e-05 1.7782396089e+00 -3.0800013506e+00 1.7782396089e+00 3.0800013506e+00 
78300 6.6915009598e+00 2.4071041284e-05 1.7782396089e+00 -3.0800013506e+00 1.7782396089e+00 3.0800013506e+00 
78400 6.6915009617e+00 2.1899172163e-05 1.7782396089e+00 -3.0800013506e+00 1.7782396089e+00 3.0800013506e+00 
78500 6.6915009635e+00 1.9712618744e-05 1.7782396089e+00 -3.0800013506e+00 1.7782396089e+00 3.0800013506e+00 
78600 6.6915009653e+00 1.7513637731e-05 1.7782396089e+00 -3.0800013506e+00 1.7782396089e+00 3.0800013506e+00 
78700 6.6915009671e+00 1.5304441150e-05 1.7782396089e+00 -3.0800013506e+00 1.7782396089e+00 3.0800013506e+00 
78800 6.6915009689e+00 1.3087196053e-05 1.7782396089e+00 -3.0800013506e+00 1.7782396089e+00 3.0800013506e+00 
78900 6.6915009706e+00 1.0864024236e-05 1.7782396089e+00 -3.0800013506e+00 1.7782396089e+00 3.0800013506e+00 
79000 6.6915009723e+00 8.6370019835e-06 1.7782396089e+00 -3.0800013506e+00 1.7782396089e+00 3.0800013506e+00 
79100 6.6915009739e+00 6.4081598065e-06 1.7782396089e+00 -3.0800013506e+00 1.7782396089e+00 3.0800013506e+00 
79200 6.6915009755e+00 4.1794822276e-06 1.7782396089e+00 -3.0800013506e+00 1.7782396089e+00 3.0800013506e+00 
79300 6.6915009771e+00 1.9529075683e-06 1.7782396089e+00 -3.0800013506e+00 1.7782396089e+00 3.0800013506e+00 
79400 6.6915009786e+00 -2.6967226084e-07 1.7782396089e+00 -3.0800013506e+00 1.7782396089e+00 3.0800013506e+00 
79500 6.6915009801e+00 -2.4864119176e-06 1.7782396089e+00 -3.0800013506e+00 1.7782396089e+00 3.0800013506e+00 
79600 6.6915009816e+00 -4.6955127960e-06 1.7782396089e+00 -3.0800013506e+00 1.7782396089e+00 3.0800013506e+00 
79700 6.6915009830e+00 -6.8952231748e-06 1.7782396089e+00 -3.0800013506e+00 1.7782396089e+00 3.0800013506e+00 
79800 6.6915009844e+00 -9.0838383199e-06 1.7782396089e+00 -3.0800013506e+00 1.7782396089e+00 3.0800013506e+00 
79900 6.6915009857e+00 -1.1259700608e-05 1.7782396089e+00 -3.0800013506e+00 1.7782396089e+00 3.0800013506e+00 
80000 6.6915009870e+00 -1.3421199603e-05 1.7782396089e+00 -3.0800013506e+00 1.7782396089e+00 3.0800013506e+00 
80100 6.6915009882e+00 -1.5566772119e-05 1.7782396089e+00 -3.0800013506e+00 1.7782396089e+00 3.0800013506e+00 
80200 6.6915009894e+00 -1.7694902287e-05 1.7782396089e+00 -3.0800013506e+00 1.7782396089e+00 3.0800013506e+00 
80300 6.6915009906e+00 -1.9804121550e-05 1.7782396089e+00 -3.0800013506e+00 1.7782396089e+00 3.0800013506e+00 
80400 6.6915009917e+00 -2.1893008699e-05 1.7782396089e+00 -3.0800013506e+00 1.7782396089e+00 3.0800013506e+00 
80500 6.6915009928e+00 -2.3960189847e-05 1.7782396089e+00 -3.0800013506e+00 1.7782396089e+00 3.0800013506e+00 
80600 6.6915009939e+00 -2.6004338405e-05 1.7782396089e+00 -3.0800013506e+00 1.7782396089e+00 3.0800013506e+00 
80700 6.6915009949e+00 -2.8024175024e-05 1.7782396089e+00 -3.0800013506e+00 1.7782396089e+00 3.0800013506e+00 
80800 6.6915009959e+00 -3.0018467525e-05 1.7782396089e+00 -3.0800013506e+00 1.7782396089e+00 3.0800013506e+00 
80900 6.6915009968e+00 -3.1986030808e-05 1.7782396089e+00 -3.0800013506e+00 1.7782396089e+00 3.0800013506e+00 
81000 6.6915009977e+00 -3.3925726733e-05 1.7782396089e+00 -3.0800013506e+00 1.7782396089e+00 3.0800013506e+00 
81100 6.6915009986e+00 -3.5836463992e-05 1.7782396089e+00 -3.0800013506e+00 1.7782396089e+00 3.0800013506e+00 
81200 6.6915009994e+00 -3.7717197944e-05 1.7782396089e+00 -3.0800013506e+00 1.7782396089e+00 3.0800013506e+00 
81300 6.6915010002e+00 -3.9566930453e-05 1.7782396089e+00 -3.0800013506e+00 1.7782396089e+00 3.0800013506e+00 
81400 6.6915010010e+00 -4.1384709672e-05 1.7782396089e+00 -3.0800013506e+00 1.7782396089e+00 3.0800013506e+00 
81500 6.6915010017e+00 -4.3169629840e-05 1.7782396089e+00 -3.0800013506e+00 1.7782396089e+00 3.0800013506e+00 
81600 6.6915010024e+00 -4.4920831030e-05 1.7782396089e+00 -3.0800013506e+00 1.7782396089e+00 3.0800013506e+00 
81700 6.6915010031e+00 -4.6637498895e-05 1.7782396089e+00 -3.0800013506e+00 1.7782396089e+00 3.0800013506e+00 
81800 6.6915010038e+00 -4.8318864383e-05 1.7782396089e+00 -3.0800013506e+00 1.7782396089e+00 3.0800013506e+00 
81900 6.6915010044e+00 -4.9964203425e-05 1.7782396089e+00 -3.0800013506e+00 1.7782396089e+00 3.0800013506e+00 
82000 6.6915010050e+00 -5.1572836627e-05 1.7782396089e+00 -3.0800013506e+00 1.7782396089e+00 3.0800013506e+00 
82100 6.6915010056e+00 -5.3144128906e-05 1.7782396089e+00 -3.0800013506e+00 1.7782396089e+00 3.0800013506e+00 
82200 6.6915010062e+00 -5.4677489130e-05 1.7782396089e+00 -3.0800013506e+00 1.7782396089e+00 3.0800013506e+00 
82300 6.6915010067e+00 -5.6172369727e-05 1.7782396089e+00 -3.0800013506e+00 1.7782396089e+00 3.0800013506e+00 
82400 6.6915010072e+00 -5.7628266281e-05 1.7782396089e+00 -3.0800013506e+00 1.7782396089e+00 3.0800013506e+00 
82500 6.6915010077e+00 -5.9044717098e-05 1.7782396089e+00 -3.0800013506e+00 1.7782396089e+00 3.0800013506e+00 
82600 6.6915010082e+00 -6.0421302757e-05 1.7782396089e+00 -3.0800013506e+00 1.7782396089e+00 3.0800013506e+00 
82700 6.6915010087e+00 -6.1757645640e-05 1.7782396089e+00 -3.0800013506e+00 1.7782396089e+00 3.0800013506e+00 
82800 6.6915010092e+00 -6.3053409434e-05 1.7782396089e+00 -3.0800013506e+00 1.7782396089e+00 3.0800013506e+00 
82900 6.6915010096e+00 -6.4308298639e-05 1.7782396089e+00 -3.0800013506e+00 1.7782396089e+00 3.0800013506e+00 
83000 6.6915010101e+00 -6.5522058014e-05 1.7782396089e+00 -3.0800013506e+00 1.7782396089e+00 3.0800013506e+00 
83100 6.6915010105e+00 -6.6694472054e-05 1.7782396089e+00 -3.0800013506e+00 1.7782396089e+00 3.0800013506e+00 
83200 6.6915010109e+00 -6.7825364409e-05 1.7782396089e+00 -3.0800013506e+00 1.7782396089e+00 3.0800013506e+00 
83300 6.6915010114e+00 -6.8914597296e-05 1.7782396089e+00 -3.0800013506e+00 1.7782396089e+00 3.0800013506e+00 
83400 6.6915010118e+00 -6.9962070907e-05 1.7782396089e+00 -3.0800013506e+00 1.7782396089e+00 3.0800013506e+00 
83500 6.6915010122e+00 -7.0967722785e-05 1.7782396089e+00 -3.0800013506e+00 1.7782396089e+00 3.0800013506e+00 
83600 6.6915010124e+00 -6.9457693833e-05 1.7782416044e+00 -3.0800048069e+00 1.7782416044e+00 3.0800048069e+00 
83700 6.6915010128e+00 -7.0358399875e-05 1.7782416044e+00 -3.0800048069e+00 1.7782416044e+00 3.0800048069e+00 
83800 6.6915010132e+00 -7.1216250478e-05 1.7782416044e+00 -3.0800048069e+00 1.7782416044e+00 3.0800048069e+00 
83900 6.6915010134e+00 -6.9548903796e-05 1.7782436068e+00 -3.0800082752e+00 1.7782436068e+00 3.0800082752e+00 
84000 6.6915010138e+00 -7.0300169073e-05 1.7782436068e+00 -3.0800082752e+00 1.7782436068e+00 3.0800082752e+00 
84100 6.6915010142e+00 -7.1008037321e-05 1.7782436068e+00 -3.0800082752e+00 1.7782436068e+00 3.0800082752e+00 
84200 6.6915010144e+00 -6.9197594676e-05 1.7782456034e+00 -3.0800117334e+00 1.7782456034e+00 3.0800117334e+00 
84300 6.6915010148e+00 -6.9798329235e-05 1.7782456034e+00 -3.0800117334e+00 1.7782456034e+00 3.0800117334e+00 
84400 6.6915010152e+00 -7.0355593856e-05 1.7782456034e+00 -3.0800117334e+00 1.7782456034e+00 3.0800117334e+00 
84500 6.6915010155e+00 -7.0869837972e-05 1.7782456034e+00 -3.0800117334e+00 1.7782456034e+00 3.0800117334e+00 
84600 6.6915010158e+00 -6.8871149000e-05 1.7782475961e+00 -3.0800151848e+00 1.7782475961e+00 3.0800151848e+00 
84700 6.6915010162e+00 -6.9279569657e-05 1.7782475961e+00 -3.0800151848e+00 1.7782475961e+00 3.0800151848e+00 
84800 6.6915010165e+00 -6.9645405921e-05 1.7782475961e+00 -3.0800151848e+00 1.7782475961e+00 3.0800151848e+00 
84900 6.6915010169e+00 -6.9969267035e-05 1.7782475961e+00 -3.0800151848e+00 1.7782475961e+00 3.0800151848e+00 
85000 6.6915010173e+00 -7.0251783255e-05 1.7782475961e+00 -3.0800151848e+00 1.7782475961e+00 3.0800151848e+00 
85100 6.6915010177e+00 -7.0493604982e-05 1.7782475961e+00 -3.0800151848e+00 1.7782475961e+00 3.0800151848e+00 
85200 6.6915010181e+00 -7.0695401907e-05 1.7782475961e+00 -3.0800151848e+00 1.7782475961e+00 3.0800151848e+00 
85300 6.6915010185e+00 -7.0857862154e-05 1.7782475961e+00 -3.0800151848e+00 1.7782475961e+00 3.0800151848e+00 
85400 6.6915010188e+00 -6.8511728612e-05 1.7782495884e+00 -3.0800186357e+00 1.7782495884e+00 3.0800186357e+00 
85500 6.6915010192e+00 -6.8576420355e-05 1.7782495884e+00 -3.0800186357e+00 1.7782495884e+00 3.0800186357e+00 
85600 6.6915010196e+00 -6.8602879431e-05 1.7782495884e+00 -3.0800186357e+00 1.7782495884e+00 3.0800186357e+00 
85700 6.6915010200e+00 -6.8591921450e-05 1.7782495884e+00 -3.0800186357e+00 1.7782495884e+00 3.0800186357e+00 
85800 6.6915010205e+00 -6.8544374905e-05 1.7782495884e+00 -3.0800186357e+00 1.7782495884e+00 3.0800186357e+00 
85900 6.6915010209e+00 -6.8461080312e-05 1.7782495884e+00 -3.0800186357e+00 1.7782495884e+00 3.0800186357e+00 
86000 6.6915010213e+00 -6.8342889337e-05 1.7782495884e+00 -3.0800186357e+00 1.7782495884e+00 3.0800186357e+00 
86100 6.6915010217e+00 -6.8190663938e-05 1.7782495884e+00 -3.0800186357e+00 1.7782495884e+00 3.0800186357e+00 
86200 6.6915010222e+00 -6.8005275519e-05 1.7782495884e+00 -3.0800186357e+00 1.7782495884e+00 3.0800186357e+00 
86300 6.6915010226e+00 -6.7787604091e-05 1.7782495884e+00 -3.0800186357e+00 1.7782495884e+00 3.0800186357e+00 
86400 6.6915010231e+00 -6.7538537417e-05 1.7782495884e+00 -3.0800186357e+00 1.7782495884e+00 3.0800186357e+00 
86500 6.6915010235e+00 -6.7258970205e-05 1.7782495884e+00 -3.0800186357e+00 1.7782495884e+00 3.0800186357e+00 
86600 6.6915010239e+00 -6.6949803267e-05 1.7782495884e+00 -3.0800186357e+00 1.7782495884e+00 3.0800186357e+00 
86700 6.6915010244e+00 -6.6611942719e-05 1.7782495884e+00 -3.0800186357e+00 1.7782495884e+00 3.0800186357e+00 
86800 6.6915010248e+00 -6.6246299175e-05 1.7782495884e+00 -3.0800186357e+00 1.7782495884e+00 3.0800186357e+00 
86900 6.6915010253e+00 -6.5853786949e-05 1.7782495884e+00 -3.0800186357e+00 1.7782495884e+00 3.0800186357e+00 
87000 6.6915010257e+00 -6.5435323273e-05 1.7782495884e+00 -3.0800186357e+00 1.7782495884e+00 3.0800186357e+00 
87100 6.6915010262e+00 -6.4991827522e-05 1.7782495884e+00 -3.0800186357e+00 1.7782495884e+00 3.0800186357e+00 
87200 6.6915010266e+00 -6.4524220453e-05 1.7782495884e+00 -3.0800186357e+00 1.7782495884e+00 3.0800186357e+00 
87300 6.6915010270e+00 -6.4033423450e-05 1.7782495884e+00 -3.0800186357e+00 1.7782495884e+00 3.0800186357e+00 
87400 6.6915010275e+00 -6.3520357780e-05 1.7782495884e+00 -3.0800186357e+00 1.7782495884e+00 3.0800186357e+00 
87500 6.6915010279e+00 -6.2985943870e-05 1.7782495884e+00 -3.0800186357e+00 1.7782495884e+00 3.0800186357e+00 
87600 6.6915010284e+00 -6.2431100582e-05 1.7782495884e+00 -3.0800186357e+00 1.7782495884e+00 3.0800186357e+00 
87700 6.6915010288e+00 -6.1856744513e-05 1.7782495884e+00 -3.0800186357e+00 1.7782495884e+00 3.0800186357e+00 
87800 6.6915010292e+00 -6.1263789309e-05 1.7782495884e+00 -3.0800186357e+00 1.7782495884e+00 3.0800186357e+00 
87900 6.6915010297e+00 -6.0653144964e-05 1.7782495884e+00 -3.0800186357e+00 1.7782495884e+00 3.0800186357e+00 
88000 6.6915010301e+00 -6.0025717185e-05 1.7782495884e+00 -3.0800186357e+00 1.7782495884e+00 3.0800186357e+00 
88100 6.6915010305e+00 -5.9382406719e-05 1.7782495884e+00 -3.0800186357e+00 1.7782495884e+00 3.0800186357e+00 
88200 6.6915010309e+00 -5.8724108723e-05 1.7782495884e+00 -3.0800186357e+00 1.7782495884e+00 3.0800186357e+00 
88300 6.6915010313e+00 -5.8051712141e-05 1.7782495884e+00 -3.0800186357e+00 1.7782495884e+00 3.0800186357e+00 
88400 6.6915010317e+00 -5.7366099095e-05 1.7782495884e+00 -3.0800186357e+00 1.7782495884e+00 3.0800186357e+00 
88500 6.6915010321e+00 -5.6668144297e-05 1.7782495884e+00 -3.0800186357e+00 1.7782495884e+00 3.0800186357e+00 
88600 6.6915010325e+00 -5.5958714464e-05 1.7782495884e+00 -3.0800186357e+00 1.7782495884e+00 3.0800186357e+00 
88700 6.6915010329e+00 -5.5238667764e-05 1.7782495884e+00 -3.0800186357e+00 1.7782495884e+00 3.0800186357e+00 
88800 6.6915010333e+00 -5.4508853271e-05 1.7782495884e+00 -3.0800186357e+00 1.7782495884e+00 3.0800186357e+00 
88900 6.6915010337e+00 -5.3770110421e-05 1.7782495884e+00 -3.0800186357e+00 1.7782495884e+00 3.0800186357e+00 
89000 6.6915010341e+00 -5.3023268514e-05 1.7782495884e+00 -3.0800186357e+00 1.7782495884e+00 3.0800186357e+00 
89100 6.6915010344e+00 -5.2269146211e-05 1.7782495884e+00 -3.0800186357e+00 1.7782495884e+00 3.0800186357e+00 
89200 6.6915010348e+00 -5.1508551058e-05 1.7782495884e+00 -3.0800186357e+00 1.7782495884e+00 3.0800186357e+00 
89300 6.6915010352e+00 -5.0742279021e-05 1.7782495884e+00 -3.0800186357e+00 1.7782495884e+00 3.0800186357e+00 
89400 6.6915010355e+00 -4.9971114032e-05 1.7782495884e+00 -3.0800186357e+00 1.7782495884e+00 3.0800186357e+00 
89500 6.6915010358e+00 -4.9195827573e-05 1.7782495884e+00 -3.0800186357e+00 1.7782495884e+00 3.0800186357e+00 
89600 6.6915010362e+00 -4.8417178253e-05 1.7782495884e+00 -3.0800186357e+00 1.7782495884e+00 3.0800186357e+00 
89700 6.6915010365e+00 -4.7635911421e-05 1.7782495884e+00 -3.0800186357e+00 1.7782495884e+00 3.0800186357e+00 
89800 6.6915010368e+00 -4.6852758790e-05 1.7782495884e+00 -3.0800186357e+00 1.7782495884e+00 3.0800186357e+00 
89900 6.6915010372e+00 -4.6068438071e-05 1.7782495884e+00 -3.0800186357e+00 1.7782495884e+00 3.0800186357e+00 
90000 6.6915010375e+00 -4.5283652637e-05 1.7782495884e+00 -3.0800186357e+00 1.7782495884e+00 3.0800186357e+00 
90100 6.6915010378e+00 -4.4499091196e-05 1.7782495884e+00 -3.0800186357e+00 1.7782495884e+00 3.0800186357e+00 
90200 6.6915010381e+00 -4.3715427492e-05 1.7782495884e+00 -3.0800186357e+00 1.7782495884e+00 3.0800186357e+00 
90300 6.6915010384e+00 -4.2933320007e-05 1.7782495884e+00 -3.0800186357e+00 1.7782495884e+00 3.0800186357e+00 
90400 6.6915010386e+00 -4.2153411701e-05 1.7782495884e+00 -3.0800186357e+00 1.7782495884e+00 3.0800186357e+00 
90500 6.6915010389e+00 -4.1376329748e-05 1.7782495884e+00 -3.0800186357e+00 1.7782495884e+00 3.0800186357e+00 
90600 6.6915010392e+00 -4.0602685310e-05 1.7782495884e+00 -3.0800186357e+00 1.7782495884e+00 3.0800186357e+00 
90700 6.6915010395e+00 -3.9833073311e-05 1.7782495884e+00 -3.0800186357e+00 1.7782495884e+00 3.0800186357e+00 
90800 6.6915010397e+00 -3.9068072253e-05 1.7782495884e+00 -3.0800186357e+00 1.7782495884e+00 3.0800186357e+00 
90900 6.6915010400e+00 -3.8308244021e-05 1.7782495884e+00 -3.0800186357e+00 1.7782495884e+00 3.0800186357e+00 
91000 6.6915010402e+00 -3.7554133710e-05 1.7782495884e+00 -3.0800186357e+00 1.7782495884e+00 3.0800186357e+00 
91100 6.6915010405e+00 -3.6806269505e-05 1.7782495884e+00 -3.0800186357e+00 1.7782495884e+00 3.0800186357e+00 
91200 6.6915010407e+00 -3.6065162525e-05 1.7782495884e+00 -3.0800186357e+00 1.7782495884e+00 3.0800186357e+00 
91300 6.6915010409e+00 -3.5331306721e-05 1.7782495884e+00 -3.0800186357e+00 1.7782495884e+00 3.0800186357e+00 
91400 6.6915010412e+00 -3.4605178787e-05 1.7782495884e+00 -3.0800186357e+00 1.7782495884e+00 3.0800186357e+00 
91500 6.6915010414e+00 -3.3887238063e-05 1.7782495884e+00 -3.0800186357e+00 1.7782495884e+00 3.0800186357e+00 
91600 6.6915010416e+00 -3.3177926484e-05 1.7782495884e+00 -3.0800186357e+00 1.7782495884e+00 3.0800186357e+00 
91700 6.6915010418e+00 -3.2477668538e-05 1.7782495884e+00 -3.0800186357e+00 1.7782495884e+00 3.0800186357e+00 
91800 6.6915010420e+00 -3.1786871221e-05 1.7782495884e+00 -3.0800186357e+00 1.7782495884e+00 3.0800186357e+00 
91900 6.6915010422e+00 -3.1105924039e-05 1.7782495884e+00 -3.0800186357e+00 1.7782495884e+00 3.0800186357e+00 
92000 6.6915010424e+00 -3.0435198996e-05 1.7782495884e+00 -3.0800186357e+00 1.7782495884e+00 3.0800186357e+00 
92100 6.6915010426e+00 -2.9775050622e-05 1.7782495884e+00 -3.0800186357e+00 1.7782495884e+00 3.0800186357e+00 
92200 6.6915010428e+00 -2.9125816000e-05 1.7782495884e+00 -3.0800186357e+00 1.7782495884e+00 3.0800186357e+00 
92300 6.6915010430e+00 -2.8487814812e-05 1.7782495884e+00 -3.0800186357e+00 1.7782495884e+00 3.0800186357e+00 
92400 6.6915010432e+00 -2.7861349409e-05 1.7782495884e+00 -3.0800186357e+00 1.7782495884e+00 3.0800186357e+00 
92500 6.6915010434e+00 -2.7246704877e-05 1.7782495884e+00 -3.0800186357e+00 1.7782495884e+00 3.0800186357e+00 
92600 6.6915010435e+00 -2.6644149137e-05 1.7782495884e+00 -3.0800186357e+00 1.7782495884e+00 3.0800186357e+00 
92700 6.6915010437e+00 -2.6053933037e-05 1.7782495884e+00 -3.0800186357e+00 1.7782495884e+00 3.0800186357e+00 
92800 6.6915010439e+00 -2.5476290490e-05 1.7782495884e+00 -3.0800186357e+00 1.7782495884e+00 3.0800186357e+00 
92900 6.6915010440e+00 -2.4911438588e-05 1.7782495884e+00 -3.0800186357e+00 1.7782495884e+00 3.0800186357e+00 
93000 6.6915010442e+00 -2.4359577753e-05 1.7782495884e+00 -3.0800186357e+00 1.7782495884e+00 3.0800186357e+00 
93100 6.6915010444e+00 -2.3820891892e-05 1.7782495884e+00 -3.0800186357e+00 1.7782495884e+00 3.0800186357e+00 
93200 6.6915010445e+00 -2.3295548568e-05 1.7782495884e+00 -3.0800186357e+00 1.7782495884e+00 3.0800186357e+00 
93300 6.6915010447e+00 -2.2783699175e-05 1.7782495884e+00 -3.0800186357e+00 1.7782495884e+00 3.0800186357e+00 
93400 6.6915010448e+00 -2.2285479144e-05 1.7782495884e+00 -3.0800186357e+00 1.7782495884e+00 3.0800186357e+00 
93500 6.6915010450e+00 -2.1801008129e-05 1.7782495884e+00 -3.0800186357e+00 1.7782495884e+00 3.0800186357e+00 
93600 6.6915010451e+00 -2.1330390226e-05 1.7782495884e+00 -3.0800186357e+00 1.7782495884e+00 3.0800186357e+00 
93700 6.6915010453e+00 -2.0873714202e-05 1.7782495884e+00 -3.0800186357e+00 1.7782495884e+00 3.0800186357e+00 
93800 6.6915010454e+00 -2.0431053735e-05 1.7782495884e+00 -3.0800186357e+00 1.7782495884e+00 3.0800186357e+00 
93900 6.6915010456e+00 -2.0002467640e-05 1.7782495884e+00 -3.0800186357e+00 1.7782495884e+00 3.0800186357e+00 
94000 6.6915010457e+00 -1.9588000134e-05 1.7782495884e+00 -3.0800186357e+00 1.7782495884e+00 3.0800186357e+00 
94100 6.6915010459e+00 -1.9187681098e-05 1.7782495884e+00 -3.0800186357e+00 1.7782495884e+00 3.0800186357e+00 
94200 6.6915010460e+00 -1.8801526345e-05 1.7782495884e+00 -3.0800186357e+00 1.7782495884e+00 3.0800186357e+00 
94300 6.6915010462e+00 -1.8429537898e-05 1.7782495884e+00 -3.0800186357e+00 1.7782495884e+00 3.0800186357e+00 
94400 6.6915010463e+00 -1.8071704268e-05 1.7782495884e+00 -3.0800186357e+00 1.7782495884e+00 3.0800186357e+00 
94500 6.6915010464e+00 -1.7728000764e-05 1.7782495884e+00 -3.0800186357e+00 1.7782495884e+00 3.0800186357e+00 
94600 6.6915010466e+00 -1.7398389782e-05 1.7782495884e+00 -3.0800186357e+00 1.7782495884e+00 3.0800186357e+00 
94700 6.6915010467e+00 -1.7082821108e-05 1.7782495884e+00 -3.0800186357e+00 1.7782495884e+00 3.0800186357e+00 
94800 6.6915010468e+00 -1.6781232238e-05 1.7782495884e+00 -3.0800186357e+00 1.7782495884e+00 3.0800186357e+00 
94900 6.6915010470e+00 -1.6493548694e-05 1.7782495884e+00 -3.0800186357e+00 1.7782495884e+00 3.0800186357e+00 
95000 6.6915010471e+00 -1.6219684336e-05 1.7782495884e+00 -3.0800186357e+00 1.7782495884e+00 3.0800186357e+00 
95100 6.6915010472e+00 -1.5959541709e-05 1.7782495884e+00 -3.0800186357e+00 1.7782495884e+00 3.0800186357e+00 
95200 6.6915010474e+00 -1.5713012360e-05 1.7782495884e+00 -3.0800186357e+00 1.7782495884e+00 3.0800186357e+00 
95300 6.6915010475e+00 -1.5479977179e-05 1.7782495884e+00 -3.0800186357e+00 1.7782495884e+00 3.0800186357e+00 
95400 6.6915010476e+00 -1.5260306740e-05 1.7782495884e+00 -3.0800186357e+00 1.7782495884e+00 3.0800186357e+00 
95500 6.6915010477e+00 -1.5053861642e-05 1.7782495884e+00 -3.0800186357e+00 1.7782495884e+00 3.0800186357e+00 
95600 6.6915010479e+00 -1.4860492848e-05 1.7782495884e+00 -3.0800186357e+00 1.7782495884e+00 3.0800186357e+00 
95700 6.6915010480e+00 -1.4680042045e-05 1.7782495884e+00 -3.0800186357e+00 1.7782495884e+00 3.0800186357e+00 
95800 6.6915010481e+00 -1.4512341994e-05 1.7782495884e+00 -3.0800186357e+00 1.7782495884e+00 3.0800186357e+00 
95900 6.6915010482e+00 -1.4357216864e-05 1.7782495884e+00 -3.0800186357e+00 1.7782495884e+00 3.0800186357e+00 
96000 6.6915010484e+00 -1.4214482600e-05 1.7782495884e+00 -3.0800186357e+00 1.7782495884e+00 3.0800186357e+00 
96100 6.6915010485e+00 -1.4083947281e-05 1.7782495884e+00 -3.0800186357e+00 1.7782495884e+00 3.0800186357e+00 
96200 6.6915010486e+00 -1.3965411460e-05 1.7782495884e+00 -3.0800186357e+00 1.7782495884e+00 3.0800186357e+00 
96300 6.6915010487e+00 -1.3858668529e-05 1.7782495884e+00 -3.0800186357e+00 1.7782495884e+00 3.0800186357e+00 
96400 6.6915010489e+00 -1.3763505066e-05 1.7782495884e+00 -3.0800186357e+00 1.7782495884e+00 3.0800186357e+00 
96500 6.6915010490e+00 -1.3679701202e-05 1.7782495884e+00 -3.0800186357e+00 1.7782495884e+00 3.0800186357e+00 
96600 6.6915010491e+00 -1.3607030951e-05 1.7782495884e+00 -3.0800186357e+00 1.7782495884e+00 3.0800186357e+00 
96700 6.6915010492e+00 -1.3545262587e-05 1.7782495884e+00 -3.0800186357e+00 1.7782495884e+00 3.0800186357e+00 
96800 6.6915010493e+00 -1.3494158982e-05 1.7782495884e+00 -3.0800186357e+00 1.7782495884e+00 3.0800186357e+00 
96900 6.6915010494e+00 -1.3453477951e-05 1.7782495884e+00 -3.0800186357e+00 1.7782495884e+00 3.0800186357e+00 
97000 6.6915010496e+00 -1.3422972610e-05 1.7782495884e+00 -3.0800186357e+00 1.7782495884e+00 3.0800186357e+00 
97100 6.6915010497e+00 -1.3402391708e-05 1.7782495884e+00 -3.0800186357e+00 1.7782495884e+00 3.0800186357e+00 
97200 6.6915010498e+00 -1.3391479975e-05 1.7782495884e+00 -3.0800186357e+00 1.7782495884e+00 3.0800186357e+00 
97300 6.6915010499e+00 -1.3389978460e-05 1.7782495884e+00 -3.0800186357e+00 1.7782495884e+00 3.0800186357e+00 
97400 6.6915010500e+00 -1.3397624867e-05 1.7782495884e+00 -3.0800186357e+00 1.7782495884e+00 3.0800186357e+00 
97500 6.6915010501e+00 -1.3414153882e-05 1.7782495884e+00 -3.0800186357e+00 1.7782495884e+00 3.0800186357e+00 
97600 6.6915010502e+00 -1.3439297500e-05 1.7782495884e+00 -3.0800186357e+00 1.7782495884e+00 3.0800186357e+00 
97700 6.6915010504e+00 -1.3472785357e-05 1.7782495884e+00 -3.0800186357e+00 1.7782495884e+00 3.0800186357e+00 
97800 6.6915010505e+00 -1.3514345043e-05 1.7782495884e+00 -3.0800186357e+00 1.7782495884e+00 3.0800186357e+00 
97900 6.6915010506e+00 -1.3563702417e-05 1.7782495884e+00 -3.0800186357e+00 1.7782495884e+00 3.0800186357e+00 
98000 6.6915010507e+00 -1.3620581919e-05 1.7782495884e+00 -3.0800186357e+00 1.7782495884e+00 3.0800186357e+00 
98100 6.6915010508e+00 -1.3684706872e-05 1.7782495884e+00 -3.0800186357e+00 1.7782495884e+00 3.0800186357e+00 
98200 6.6915010509e+00 -1.3755799787e-05 1.7782495884e+00 -3.0800186357e+00 1.7782495884e+00 3.0800186357e+00 
98300 6.6915010510e+00 -1.3833582647e-05 1.7782495884e+00 -3.0800186357e+00 1.7782495884e+00 3.0800186357e+00 
98400 6.6915010511e+00 -1.3917777206e-05 1.7782495884e+00 -3.0800186357e+00 1.7782495884e+00 3.0800186357e+00 
98500 6.6915010512e+00 -1.4008105268e-05 1.7782495884e+00 -3.0800186357e+00 1.7782495884e+00 3.0800186357e+00 
98600 6.6915010513e+00 -1.4104288968e-05 1.7782495884e+00 -3.0800186357e+00 1.7782495884e+00 3.0800186357e+00 
98700 6.6915010514e+00 -1.4206051037e-05 1.7782495884e+00 -3.0800186357e+00 1.7782495884e+00 3.0800186357e+00 
98800 6.6915010515e+00 -1.4313115066e-05 1.7782495884e+00 -3.0800186357e+00 1.7782495884e+00 3.0800186357e+00 
98900 6.6915010516e+00 -1.4425205771e-05 1.7782495884e+00 -3.0800186357e+00 1.7782495884e+00 3.0800186357e+00 
99000 6.6915010517e+00 -1.4542049241e-05 1.7782495884e+00 -3.0800186357e+00 1.7782495884e+00 3.0800186357e+00 
99100 6.6915010518e+00 -1.4663373188e-05 1.7782495884e+00 -3.0800186357e+00 1.7782495884e+00 3.0800186357e+00 
99200 6.6915010519e+00 -1.4788907169e-05 1.7782495884e+00 -3.0800186357e+00 1.7782495884e+00 3.0800186357e+00 
99300 6.6915010520e+00 -1.4918382835e-05 1.7782495884e+00 -3.0800186357e+00 1.7782495884e+00 3.0800186357e+00 
99400 6.6915010520e+00 -1.5051534149e-05 1.7782495884e+00 -3.0800186357e+00 1.7782495884e+00 3.0800186357e+00 
99500 6.6915010521e+00 -1.5188097609e-05 1.7782495884e+00 -3.0800186357e+00 1.7782495884e+00 3.0800186357e+00 
99600 6.6915010522e+00 -1.5327812448e-05 1.7782495884e+00 -3.0800186357e+00 1.7782495884e+00 3.0800186357e+00 
99700 6.6915010523e+00 -1.5470420840e-05 1.7782495884e+00 -3.0800186357e+00 1.7782495884e+00 3.0800186357e+00 
99800 6.6915010524e+00 -1.5615668101e-05 1.7782495884e+00 -3.0800186357e+00 1.7782495884e+00 3.0800186357e+00 
99900 6.6915010525e+00 -1.5763302875e-05 1.7782495884e+00 -3.0800186357e+00 1.7782495884e+00 3.0800186357e+00 
100000 6.6915010526e+00 -1.5913077313e-05 1.7782495884e+00 -3.0800186357e+00 1.7782495884e+00 3.0800186357e+00 
100100 6.6915010526e+00 -1.6064747248e-05 1.7782495884e+00 -3.0800186357e+00 1.7782495884e+00 3.0800186357e+00 
100200 6.6915010527e+00 -1.6218072362e-05 1.7782495884e+00 -3.0800186357e+00 1.7782495884e+00 3.0800186357e+00 
100300 6.6915010528e+00 -1.6372816344e-05 1.7782495884e+00 -3.0800186357e+00 1.7782495884e+00 3.0800186357e+00 
100400 6.6915010529e+00 -1.6528747041e-05 1.7782495884e+00 -3.0800186357e+00 1.7782495884e+00 3.0800186357e+00 
100500 6.6915010530e+00 -1.6685636603e-05 1.7782495884e+00 -3.0800186357e+00 1.7782495884e+00 3.0800186357e+00 
100600 6.6915010530e+00 -1.6843261618e-05 1.7782495884e+00 -3.0800186357e+00 1.7782495884e+00 3.0800186357e+00 
100700 6.6915010531e+00 -1.7001403242e-05 1.7782495884e+00 -3.0800186357e+00 1.7782495884e+00 3.0800186357e+00 
100800 6.6915010532e+00 -1.7159847319e-05 1.7782495884e+00 -3.0800186357e+00 1.7782495884e+00 3.0800186357e+00 
100900 6.6915010533e+00 -1.7318384499e-05 1.7782495884e+00 -3.0800186357e+00 1.7782495884e+00 3.0800186357e+00 
101000 6.6915010533e+00 -1.7476810339e-05 1.7782495884e+00 -3.0800186357e+00 1.7782495884e+00 3.0800186357e+00 
101100 6.6915010534e+00 -1.7634925412e-05 1.7782495884e+00 -3.0800186357e+00 1.7782495884e+00 3.0800186357e+00 
101200 6.6915010535e+00 -1.7792535385e-05 1.7782495884e+00 -3.0800186357e+00 1.7782495884e+00 3.0800186357e+00 
101300 6.6915010535e+00 -1.7949451116e-05 1.7782495884e+00 -3.0800186357e+00 1.7782495884e+00 3.0800186357e+00 
101400 6.6915010536e+00 -1.8105488729e-05 1.7782495884e+00 -3.0800186357e+00 1.7782495884e+00 3.0800186357e+00 
101500 6.6915010537e+00 -1.8260469677e-05 1.7782495884e+00 -3.0800186357e+00 1.7782495884e+00 3.0800186357e+00 
101600 6.6915010537e+00 -1.8414220824e-05 1.7782495884e+00 -3.0800186357e+00 1.7782495884e+00 3.0800186357e+00 
101700 6.6915010538e+00 -1.8566574480e-05 1.7782495884e+00 -3.0800186357e+00 1.7782495884e+00 3.0800186357e+00 
101800 6.6915010539e+00 -1.8717368460e-05 1.7782495884e+00 -3.0800186357e+00 1.7782495884e+00 3.0800186357e+00 
101900 6.6915010539e+00 -1.8866446143e-05 1.7782495884e+00 -3.0800186357e+00 1.7782495884e+00 3.0800186357e+00 
102000 6.6915010540e+00 -1.9013656478e-05 1.7782495884e+00 -3.0800186357e+00 1.7782495884e+00 3.0800186357e+00 
102100 6.6915010540e+00 -1.9158854040e-05 1.7782495884e+00 -3.0800186357e+00 1.7782495884e+00 3.0800186357e+00 
102200 6.6915010541e+00 -1.9301899040e-05 1.7782495884e+00 -3.0800186357e+00 1.7782495884e+00 3.0800186357e+00 
102300 6.6915010542e+00 -1.9442657346e-05 1.7782495884e+00 -3.0800186357e+00 1.7782495884e+00 3.0800186357e+00 
102400 6.6915010542e+00 -1.9581000495e-05 1.7782495884e+00 -3.0800186357e+00 1.7782495884e+00 3.0800186357e+00 
102500 6.6915010543e+00 -1.9716805701e-05 1.7782495884e+00 -3.0800186357e+00 1.7782495884e+00 3.0800186357e+00 
102600 6.6915010543e+00 -1.9849955843e-05 1.7782495884e+00 -3.0800186357e+00 1.7782495884e+00 3.0800186357e+00 
102700 6.6915010544e+00 -1.9980339474e-05 1.7782495884e+00 -3.0800186357e+00 1.7782495884e+00 3.0800186357e+00 
102800 6.6915010544e+00 -2.0107850793e-05 1.7782495884e+00 -3.0800186357e+00 1.7782495884e+00 3.0800186357e+00 
102900 6.6915010545e+00 -2.0232389636e-05 1.7782495884e+00 -3.0800186357e+00 1.7782495884e+00 3.0800186357e+00 
103000 6.6915010545e+00 -2.0353861455e-05 1.7782495884e+00 -3.0800186357e+00 1.7782495884e+00 3.0800186357e+00 
103100 6.6915010546e+00 -2.0472177280e-05 1.7782495884e+00 -3.0800186357e+00 1.7782495884e+00 3.0800186357e+00 
103200 6.6915010546e+00 -2.0587253689e-05 1.7782495884e+00 -3.0800186357e+00 1.7782495884e+00 3.0800186357e+00 
103300 6.6915010547e+00 -2.0699012771e-05 1.7782495884e+00 -3.0800186357e+00 1.7782495884e+00 3.0800186357e+00 
103400 6.6915010547e+00 -2.0807382080e-05 1.7782495884e+00 -3.0800186357e+00 1.7782495884e+00 3.0800186357e+00 
103500 6.6915010548e+00 -2.0912294593e-05 1.7782495884e+00 -3.0800186357e+00 1.7782495884e+00 3.0800186357e+00 
103600 6.6915010548e+00 -2.1013688642e-05 1.7782495884e+00 -3.0800186357e+00 1.7782495884e+00 3.0800186357e+00 
103700 6.6915010549e+00 -2.1111507872e-05 1.7782495884e+00 -3.0800186357e+00 1.7782495884e+00 3.0800186357e+00 
103800 6.6915010549e+00 -2.1205701173e-05 1.7782495884e+00 -3.0800186357e+00 1.7782495884e+00 3.0800186357e+00 
103900 6.6915010550e+00 -2.1296222610e-05 1.7782495884e+00 -3.0800186357e+00 1.7782495884e+00 3.0800186357e+00 
104000 6.6915010550e+00 -2.1383031359e-05 1.7782495884e+00 -3.0800186357e+00 1.7782495884e+00 3.0800186357e+00 
104100 6.6915010551e+00 -2.1451418862e-05 1.7782495884e+00 -3.0800186357e+00 1.7782495884e+00 3.0800186357e+00 
104100 6.6915010551e+00 -2.1451418863e-05 1.7782495884e+00 -3.0800186357e+00 1.7782495884e+00 3.0800186357e+00 
