# step Hamiltonian StressXX CellTensor1 CellTensor2 CellTensor3 CellTensor4 
0 5.0009450241e+00 6.6270658770e-02 2.2220832177e+00 -3.8487610317e+00 2.2220832177e+00 3.8487610317e+00 
100 4.9977626181e+00 7.2123711189e-02 2.2220832177e+00 -3.8487610317e+00 2.2220832177e+00 3.8487610317e+00 
200 4.9945040587e+00 7.7128069215e-02 2.2204605304e+00 -3.8459504548e+00 2.2204605304e+00 3.8459504548e+00 
300 4.9912688388e+00 8.1736974570e-02 2.2187239986e+00 -3.8429426935e+00 2.2187239986e+00 3.8429426935e+00 
400 4.9880655397e+00 8.5977592085e-02 2.2168822721e+00 -3.8397527296e+00 2.2168822721e+00 3.8397527296e+00 
500 4.9849014740e+00 8.9874270241e-02 2.2149433994e+00 -3.8363945037e+00 2.2149433994e+00 3.8363945037e+00 
600 4.9817828528e+00 9.3448883642e-02 2.2129148930e+00 -3.8328810276e+00 2.2129148930e+00 3.8328810276e+00 
700 4.9787149322e+00 9.6721140605e-02 2.2108037859e+00 -3.8292244827e+00 2.2108037859e+00 3.8292244827e+00 
800 4.9757021415e+00 9.9708857406e-02 2.2086166815e+00 -3.8254363068e+00 2.2086166815e+00 3.8254363068e+00 
900 4.9727481934e+00 1.0242820123e-01 2.2063597970e+00 -3.8215272681e+00 2.2063597970e+00 3.8215272681e+00 
1000 4.9698561789e+00 1.0489390415e-01 2.2040390009e+00 -3.8175075314e+00 2.2040390009e+00 3.8175075314e+00 
1100 4.9670286487e+00 1.0711945070e-01 2.2016598459e+00 -3.8133867141e+00 2.2016598459e+00 3.8133867141e+00 
1200 4.9642676819e+00 1.0911724145e-01 2.1992275968e+00 -3.8091739351e+00 2.1992275968e+00 3.8091739351e+00 
1300 4.9615749449e+00 1.1089873512e-01 2.1967472555e+00 -3.8048778578e+00 2.1967472555e+00 3.8048778578e+00 
1400 4.9589517409e+00 1.1247457156e-01 2.1942235816e+00 -3.8005067265e+00 2.1942235816e+00 3.8005067265e+00 
1500 4.9563990523e+00 1.1385467786e-01 2.1916611114e+00 -3.7960683979e+00 2.1916611114e+00 3.7960683979e+00 
1600 4.9539175763e+00 1.1504835945e-01 2.1890641734e+00 -3.7915703693e+00 2.1890641734e+00 3.7915703693e+00 
1700 4.9515077559e+00 1.1606437828e-01 2.1864369020e+00 -3.7870198018e+00 2.1864369020e+00 3.7870198018e+00 
1800 4.9491698059e+00 1.1691101956e-01 2.1837832496e+00 -3.7824235411e+00 2.1837832496e+00 3.7824235411e+00 
1900 4.9469037360e+00 1.1759614860e-01 2.1811069972e+00 -3.7777881359e+00 2.1811069972e+00 3.7777881359e+00 
2000 4.9447093700e+00 1.1812725925e-01 2.1784117627e+00 -3.7731198529e+00 2.1784117627e+00 3.7731198529e+00 
2100 4.9425863641e+00 1.1851151479e-01 2.1757010097e+00 -3.7684246909e+00 2.1757010097e+00 3.7684246909e+00 
2200 4.9405342218e+00 1.1875578269e-01 2.1729780538e+00 -3.7637083929e+00 2.1729780538e+00 3.7637083929e+00 
2300 4.9385523084e+00 1.1886666383e-01 2.1702460690e+00 -3.7589764564e+00 2.1702460690e+00 3.7589764564e+00 
2400 4.9366398632e+00 1.1885051716e-01 2.1675080930e+00 -3.7542341428e+00 2.1675080930e+00 3.7542341428e+00 
2500 4.9347960122e+00 1.1871348044e-01 2.1647670322e+00 -3.7494864862e+00 2.1647670322e+00 3.7494864862e+00 
2600 4.9330197781e+00 1.1846148758e-01 2.1620256659e+00 -3.7447383005e+00 2.1620256659e+00 3.7447383005e+00 
2700 4.9313100911e+00 1.1810028323e-01 2.1592866503e+00 -3.7399941865e+00 2.1592866503e+00 3.7399941865e+00 
2800 4.9296657985e+00 1.1763543497e-01 2.1565525223e+00 -3.7352585378e+00 2.1565525223e+00 3.7352585378e+00 
2900 4.9280856739e+00 1.1707234348e-01 2.1538257024e+00 -3.7305355471e+00 2.1538257024e+00 3.7305355471e+00 
3000 4.9265684254e+00 1.1641625104e-01 2.1511084980e+00 -3.7258292111e+00 2.1511084980e+00 3.7258292111e+00 
3100 4.9251127046e+00 1.1567224864e-01 2.1484031065e+00 -3.7211433356e+00 2.1484031065e+00 3.7211433356e+00 
3200 4.9237171140e+00 1.1484528191e-01 2.1457116176e+00 -3.7164815401e+00 2.1457116176e+00 3.7164815401e+00 
3300 4.9223802147e+00 1.1394015608e-01 2.1430360163e+00 -3.7118472626e+00 2.1430360163e+00 3.7118472626e+00 
3400 4.9211005336e+00 1.1296154014e-01 2.1403781848e+00 -3.7072437635e+00 2.1403781848e+00 3.7072437635e+00 
3500 4.9198765696e+00 1.1191397037e-01 2.1377399057e+00 -3.7026741301e+00 2.1377399057e+00 3.7026741301e+00 
3600 4.9187068006e+00 1.1080185327e-01 2.1351228637e+00 -3.6981412803e+00 2.1351228637e+00 3.6981412803e+00 
3700 4.9175896894e+00 1.0962946811e-01 2.1325286480e+00 -3.6936479670e+00 2.1325286480e+00 3.6936479670e+00 
3800 4.9165236888e+00 1.0840096908e-01 2.1299587548e+00 -3.6891967814e+00 2.1299587548e+00 3.6891967814e+00 
3900 4.9155072475e+00 1.0712038721e-01 2.1274145891e+00 -3.6847901572e+00 2.1274145891e+00 3.6847901572e+00 
4000 4.9145388143e+00 1.0579163203e-01 2.1248974673e+00 -3.6804303743e+00 2.1248974673e+00 3.6804303743e+00 
4100 4.9136168431e+00 1.0441849303e-01 2.1224086189e+00 -3.6761195624e+00 2.1224086189e+00 3.6761195624e+00 
4200 4.9127397968e+00 1.0300464105e-01 2.1199491892e+00 -3.6718597051e+00 2.1199491892e+00 3.6718597051e+00 
4300 4.9119061508e+00 1.0155362954e-01 2.1175202407e+00 -3.6676526430e+00 2.1175202407e+00 3.6676526430e+00 
4400 4.9111143967e+00 1.0006889573e-01 2.1151227562e+00 -3.6635000780e+00 2.1151227562e+00 3.6635000780e+00 
4500 4.9103630451e+00 9.8553761789e-02 2.1127576400e+00 -3.6594035766e+00 2.1127576400e+00 3.6594035766e+00 
4600 4.9096506283e+00 9.7011435953e-02 2.1104257206e+00 -3.6553645737e+00 2.1104257206e+00 3.6553645737e+00 
4700 4.9089757028e+00 9.5445013612e-02 2.1081277528e+00 -3.6513843767e+00 2.1081277528e+00 3.6513843767e+00 
4800 4.9083368510e+00 9.3857478439e-02 2.1058644195e+00 -3.6474641685e+00 2.1058644195e+00 3.6474641685e+00 
4900 4.9077326832e+00 9.2251703521e-02 2.1036363343e+00 -3.6436050117e+00 2.1036363343e+00 3.6436050117e+00 
5000 4.9071618392e+00 9.0630452511e-02 2.1014440433e+00 -3.6398078523e+00 2.1014440433e+00 3.6398078523e+00 
5100 4.9066229889e+00 8.8996380823e-02 2.0992880274e+00 -3.6360735232e+00 2.0992880274e+00 3.6360735232e+00 
5200 4.9061148340e+00 8.7352036859e-02 2.0971687044e+00 -3.6324027480e+00 2.0971687044e+00 3.6324027480e+00 
5300 4.9056361081e+00 8.5699863287e-02 2.0950864311e+00 -3.6287961450e+00 2.0950864311e+00 3.6287961450e+00 
5400 4.9051855778e+00 8.4042198366e-02 2.0930415058e+00 -3.6252542304e+00 2.0930415058e+00 3.6252542304e+00 
5500 4.9047620426e+00 8.2381277320e-02 2.0910341699e+00 -3.6217774226e+00 2.0910341699e+00 3.6217774226e+00 
5600 4.9043643351e+00 8.0719233777e-02 2.0890646102e+00 -3.6183660452e+00 2.0890646102e+00 3.6183660452e+00 
5700 4.9039913213e+00 7.9058101257e-02 2.0871329615e+00 -3.6150203314e+00 2.0871329615e+00 3.6150203314e+00 
5800 4.9036419004e+00 7.7399814716e-02 2.0852393079e+00 -3.6117404273e+00 2.0852393079e+00 3.6117404273e+00 
5900 4.9033150044e+00 7.5746212159e-02 2.0833836858e+00 -3.6085263955e+00 2.0833836858e+00 3.6085263955e+00 
6000 4.9030095980e+00 7.4099036302e-02 2.0815660853e+00 -3.6053782190e+00 2.0815660853e+00 3.6053782190e+00 
6100 4.9027246781e+00 7.2459936296e-02 2.0797864524e+00 -3.6022958045e+00 2.0797864524e+00 3.6022958045e+00 
6200 4.9024592732e+00 7.0830469506e-02 2.0780446916e+00 -3.5992789862e+00 2.0780446916e+00 3.5992789862e+00 
6300 4.9022124432e+00 6.9212103353e-02 2.0763406671e+00 -3.5963275292e+00 2.0763406671e+00 3.5963275292e+00 
6400 4.9019832783e+00 6.7606217203e-02 2.0746742056e+00 -3.5934411332e+00 2.0746742056e+00 3.5934411332e+00 
6500 4.9017708991e+00 6.6014104307e-02 2.0730450977e+00 -3.5906194356e+00 2.0730450977e+00 3.5906194356e+00 
6600 4.9015744552e+00 6.4436973802e-02 2.0714531003e+00 -3.5878620153e+00 2.0714531003e+00 3.5878620153e+00 
6700 4.9013931250e+00 6.2875952746e-02 2.0698979383e+00 -3.5851683956e+00 2.0698979383e+00 3.5851683956e+00 
6800 4.9012261148e+00 6.1332088205e-02 2.0683793065e+00 -3.5825380482e+00 2.0683793065e+00 3.5825380482e+00 
6900 4.9010726586e+00 5.9806349384e-02 2.0668968715e+00 -3.5799703955e+00 2.0668968715e+00 3.5799703955e+00 
7000 4.9009320166e+00 5.8299629783e-02 2.0654502738e+00 -3.5774648147e+00 2.0654502738e+00 3.5774648147e+00 
7100 4.9008034752e+00 5.6812749404e-02 2.0640391290e+00 -3.5750206403e+00 2.0640391290e+00 3.5750206403e+00 
7200 4.9006863464e+00 5.5346456975e-02 2.0626630303e+00 -3.5726371674e+00 2.0626630303e+00 3.5726371674e+00 
7300 4.9005799666e+00 5.3901432210e-02 2.0613215496e+00 -3.5703136547e+00 2.0613215496e+00 3.5703136547e+00 
7400 4.9004836965e+00 5.2478288082e-02 2.0600142395e+00 -3.5680493271e+00 2.0600142395e+00 3.5680493271e+00 
7500 4.9003969202e+00 5.1077573122e-02 2.0587406348e+00 -3.5658433790e+00 2.0587406348e+00 3.5658433790e+00 
7600 4.9003190449e+00 4.9699773731e-02 2.0575002541e+00 -3.5636949768e+00 2.0575002541e+00 3.5636949768e+00 
7700 4.9002495001e+00 4.8345316498e-02 2.0562926016e+00 -3.5616032612e+00 2.0562926016e+00 3.5616032612e+00 
7800 4.9001877373e+00 4.7014570525e-02 2.0551171680e+00 -3.5595673505e+00 2.0551171680e+00 3.5595673505e+00 
7900 4.9001332292e+00 4.5707849759e-02 2.0539734326e+00 -3.5575863426e+00 2.0539734326e+00 3.5575863426e+00 
8000 4.9000854696e+00 4.4425415307e-02 2.0528608641e+00 -3.5556593175e+00 2.0528608641e+00 3.5556593175e+00 
8100 4.9000439726e+00 4.3167477762e-02 2.0517789225e+00 -3.5537853397e+00 2.0517789225e+00 3.5537853397e+00 
8200 4.9000082724e+00 4.1934199500e-02 2.0507270600e+00 -3.5519634604e+00 2.0507270600e+00 3.5519634604e+00 
8300 4.8999779228e+00 4.0725696975e-02 2.0497047223e+00 -3.5501927195e+00 2.0497047223e+00 3.5501927195e+00 
8400 4.8999524966e+00 3.9542042983e-02 2.0487113498e+00 -3.5484721479e+00 2.0487113498e+00 3.5484721479e+00 
8500 4.8999315857e+00 3.8383268912e-02 2.0477463789e+00 -3.5468007692e+00 2.0477463789e+00 3.5468007692e+00 
8600 4.8999148002e+00 3.7249366958e-02 2.0468092428e+00 -3.5451776020e+00 2.0468092428e+00 3.5451776020e+00 
8700 4.8999017682e+00 3.6140292312e-02 2.0458993728e+00 -3.5436016609e+00 2.0458993728e+00 3.5436016609e+00 
8800 4.8998921357e+00 3.5055965316e-02 2.0450161991e+00 -3.5420719592e+00 2.0450161991e+00 3.5420719592e+00 
8900 4.8998855658e+00 3.3996273573e-02 2.0441591517e+00 -3.5405875096e+00 2.0441591517e+00 3.5405875096e+00 
9000 4.8998817389e+00 3.2961074026e-02 2.0433276615e+00 -3.5391473262e+00 2.0433276615e+00 3.5391473262e+00 
9100 4.8998803517e+00 3.1950194986e-02 2.0425211608e+00 -3.5377504260e+00 2.0425211608e+00 3.5377504260e+00 
9200 4.8998811176e+00 3.0963438114e-02 2.0417390843e+00 -3.5363958298e+00 2.0417390843e+00 3.5363958298e+00 
9300 4.8998837656e+00 3.0000580361e-02 2.0409808699e+00 -3.5350825639e+00 2.0409808699e+00 3.5350825639e+00 
9400 4.8998880407e+00 2.9061375846e-02 2.0402459590e+00 -3.5338096610e+00 2.0402459590e+00 3.5338096610e+00 
9500 4.8998937029e+00 2.8145557689e-02 2.0395337977e+00 -3.5325761614e+00 2.0395337977e+00 3.5325761614e+00 
9600 4.8999005274e+00 2.7252839786e-02 2.0388438369e+00 -3.5313811141e+00 2.0388438369e+00 3.5313811141e+00 
9700 4.8999083037e+00 2.6382918526e-02 2.0381755328e+00 -3.5302235776e+00 2.0381755328e+00 3.5302235776e+00 
9800 4.8999168358e+00 2.5535474452e-02 2.0375283481e+00 -3.5291026208e+00 2.0375283481e+00 3.5291026208e+00 
9900 4.8999259415e+00 2.4710173861e-02 2.0369017515e+00 -3.5280173237e+00 2.0369017515e+00 3.5280173237e+00 
10000 4.8999354519e+00 2.3906670340e-02 2.0362952189e+00 -3.5269667784e+00 2.0362952189e+00 3.5269667784e+00 
10100 4.8999452116e+00 2.3124606252e-02 2.0357082333e+00 -3.5259500894e+00 2.0357082333e+00 3.5259500894e+00 
10200 4.8999550776e+00 2.2363614145e-02 2.0351402852e+00 -3.5249663745e+00 2.0351402852e+00 3.5249663745e+00 
10300 4.8999649193e+00 2.1623318113e-02 2.0345908733e+00 -3.5240147651e+00 2.0345908733e+00 3.5240147651e+00 
10400 4.8999746182e+00 2.0903335084e-02 2.0340595041e+00 -3.5230944068e+00 2.0340595041e+00 3.5230944068e+00 
10500 4.8999840669e+00 2.0203276051e-02 2.0335456928e+00 -3.5222044595e+00 2.0335456928e+00 3.5222044595e+00 
10600 4.8999931696e+00 1.9522747243e-02 2.0330489631e+00 -3.5213440983e+00 2.0330489631e+00 3.5213440983e+00 
10700 4.9000018409e+00 1.8861351224e-02 2.0325688473e+00 -3.5205125134e+00 2.0325688473e+00 3.5205125134e+00 
10800 4.9000100055e+00 1.8218687947e-02 2.0321048868e+00 -3.5197089102e+00 2.0321048868e+00 3.5197089102e+00 
10900 4.9000175982e+00 1.7594355733e-02 2.0316566319e+00 -3.5189325100e+00 2.0316566319e+00 3.5189325100e+00 
11000 4.9000245630e+00 1.6987952197e-02 2.0312236421e+00 -3.5181825497e+00 2.0312236421e+00 3.5181825497e+00 
11100 4.9000308529e+00 1.6399075117e-02 2.0308054861e+00 -3.5174582822e+00 2.0308054861e+00 3.5174582822e+00 
11200 4.9000364291e+00 1.5827323238e-02 2.0304017416e+00 -3.5167589762e+00 2.0304017416e+00 3.5167589762e+00 
11300 4.9000412611e+00 1.5272297032e-02 2.0300119956e+00 -3.5160839164e+00 2.0300119956e+00 3.5160839164e+00 
11400 4.9000453260e+00 1.4733599391e-02 2.0296358445e+00 -3.5154324036e+00 2.0296358445e+00 3.5154324036e+00 
11500 4.9000486076e+00 1.4210836272e-02 2.0292728937e+00 -3.5148037543e+00 2.0292728937e+00 3.5148037543e+00 
11600 4.9000510969e+00 1.3703617291e-02 2.0289227577e+00 -3.5141973010e+00 2.0289227577e+00 3.5141973010e+00 
11700 4.9000527908e+00 1.3211556266e-02 2.0285850604e+00 -3.5136123921e+00 2.0285850604e+00 3.5136123921e+00 
11800 4.9000536920e+00 1.2734271709e-02 2.0282594343e+00 -3.5130483912e+00 2.0282594343e+00 3.5130483912e+00 
11900 4.9000538086e+00 1.2271387275e-02 2.0279455213e+00 -3.5125046778e+00 2.0279455213e+00 3.5125046778e+00 
12000 4.9000531537e+00 1.1822532160e-02 2.0276429717e+00 -3.5119806465e+00 2.0276429717e+00 3.5119806465e+00 
12100 4.9000517448e+00 1.1387341463e-02 2.0273514448e+00 -3.5114757072e+00 2.0273514448e+00 3.5114757072e+00 
12200 4.9000496035e+00 1.0965456502e-02 2.0270706085e+00 -3.5109892844e+00 2.0270706085e+00 3.5109892844e+00 
12300 4.9000467550e+00 1.0556525089e-02 2.0268001390e+00 -3.5105208176e+00 2.0268001390e+00 3.5105208176e+00 
12400 4.9000432278e+00 1.0160201771e-02 2.0265397212e+00 -3.5100697606e+00 2.0265397212e+00 3.5100697606e+00 
12500 4.9000390536e+00 9.7761480345e-03 2.0262890478e+00 -3.5096355815e+00 2.0262890478e+00 3.5096355815e+00 
12600 4.9000342662e+00 9.4040324720e-03 2.0260478197e+00 -3.5092177623e+00 2.0260478197e+00 3.5092177623e+00 
12700 4.9000289017e+00 9.0435309210e-03 2.0258157459e+00 -3.5088157987e+00 2.0258157459e+00 3.5088157987e+00 
12800 4.9000229983e+00 8.6943265697e-03 2.0255925429e+00 -3.5084291997e+00 2.0255925429e+00 3.5084291997e+00 
12900 4.9000165953e+00 8.3561100359e-03 2.0253779347e+00 -3.5080574875e+00 2.0253779347e+00 3.5080574875e+00 
13000 4.9000097333e+00 8.0285794173e-03 2.0251716530e+00 -3.5077001971e+00 2.0251716530e+00 3.5077001971e+00 
13100 4.9000024540e+00 7.7114403189e-03 2.0249734365e+00 -3.5073568761e+00 2.0249734365e+00 3.5073568761e+00 
13200 4.8999947993e+00 7.4044058550e-03 2.0247830311e+00 -3.5070270842e+00 2.0247830311e+00 3.5070270842e+00 
13300 4.8999868118e+00 7.1071966312e-03 2.0246001894e+00 -3.5067103931e+00 2.0246001894e+00 3.5067103931e+00 
13400 4.8999785339e+00 6.8195407056e-03 2.0244246710e+00 -3.5064063862e+00 2.0244246710e+00 3.5064063862e+00 
13500 4.8999700078e+00 6.5411735319e-03 2.0242562417e+00 -3.5061146582e+00 2.0242562417e+00 3.5061146582e+00 
13600 4.8999612756e+00 6.2718378854e-03 2.0240946741e+00 -3.5058348148e+00 2.0240946741e+00 3.5058348148e+00 
13700 4.8999523784e+00 6.0112837743e-03 2.0239397466e+00 -3.5055664726e+00 2.0239397466e+00 3.5055664726e+00 
13800 4.8999433567e+00 5.7592683360e-03 2.0237912439e+00 -3.5053092583e+00 2.0237912439e+00 3.5053092583e+00 
13900 4.8999342500e+00 5.5155557222e-03 2.0236489565e+00 -3.5050628093e+00 2.0236489565e+00 3.5050628093e+00 
14000 4.8999250966e+00 5.2799169716e-03 2.0235126805e+00 -3.5048267724e+00 2.0235126805e+00 3.5048267724e+00 
14100 4.8999159338e+00 5.0521298734e-03 2.0233822178e+00 -3.5046008043e+00 2.0233822178e+00 3.5046008043e+00 
14200 4.8999067970e+00 4.8319788219e-03 2.0232573754e+00 -3.5043845709e+00 2.0232573754e+00 3.5043845709e+00 
14300 4.8998977204e+00 4.6192546636e-03 2.0231379657e+00 -3.5041777473e+00 2.0231379657e+00 3.5041777473e+00 
14400 4.8998887365e+00 4.4137545376e-03 2.0230238061e+00 -3.5039800171e+00 2.0230238061e+00 3.5039800171e+00 
14500 4.8998798762e+00 4.2152817108e-03 2.0229147190e+00 -3.5037910727e+00 2.0229147190e+00 3.5037910727e+00 
14600 4.8998711684e+00 4.0236454085e-03 2.0228105316e+00 -3.5036106148e+00 2.0228105316e+00 3.5036106148e+00 
14700 4.8998626402e+00 3.8386606418e-03 2.0227110756e+00 -3.5034383520e+00 2.0227110756e+00 3.5034383520e+00 
14800 4.8998543171e+00 3.6601480318e-03 2.0226161874e+00 -3.5032740007e+00 2.0226161874e+00 3.5032740007e+00 
14900 4.8998462222e+00 3.4879336325e-03 2.0225257075e+00 -3.5031172850e+00 2.0225257075e+00 3.5031172850e+00 
15000 4.8998383771e+00 3.3218487524e-03 2.0224394809e+00 -3.5029679362e+00 2.0224394809e+00 3.5029679362e+00 
15100 4.8998308012e+00 3.1617297754e-03 2.0223573567e+00 -3.5028256928e+00 2.0223573567e+00 3.5028256928e+00 
15200 4.8998235121e+00 3.0074179828e-03 2.0222791878e+00 -3.5026903003e+00 2.0222791878e+00 3.5026903003e+00 
15300 4.8998165251e+00 2.8587593751e-03 2.0222048311e+00 -3.5025615108e+00 2.0222048311e+00 3.5025615108e+00 
15400 4.8998098541e+00 2.7156044964e-03 2.0221341473e+00 -3.5024390828e+00 2.0221341473e+00 3.5024390828e+00 
15500 4.8998035108e+00 2.5778082597e-03 2.0220670007e+00 -3.5023227815e+00 2.0220670007e+00 3.5023227815e+00 
15600 4.8997975049e+00 2.4452297755e-03 2.0220032591e+00 -3.5022123778e+00 2.0220032591e+00 3.5022123778e+00 
15700 4.8997918445e+00 2.3177321825e-03 2.0219427939e+00 -3.5021076490e+00 2.0219427939e+00 3.5021076490e+00 
15800 4.8997865360e+00 2.1951824821e-03 2.0218854796e+00 -3.5020083778e+00 2.0218854796e+00 3.5020083778e+00 
15900 4.8997815838e+00 2.0774513760e-03 2.0218311944e+00 -3.5019143530e+00 2.0218311944e+00 3.5019143530e+00 
16000 4.8997769909e+00 1.9644131083e-03 2.0217798191e+00 -3.5018253684e+00 2.0217798191e+00 3.5018253684e+00 
16100 4.8997727584e+00 1.8559453109e-03 2.0217312380e+00 -3.5017412235e+00 2.0217312380e+00 3.5017412235e+00 
16200 4.8997688863e+00 1.7519288540e-03 2.0216853383e+00 -3.5016617228e+00 2.0216853383e+00 3.5016617228e+00 
16300 4.8997653727e+00 1.6522477005e-03 2.0216420100e+00 -3.5015866760e+00 2.0216420100e+00 3.5015866760e+00 
16400 4.8997622146e+00 1.5567887661e-03 2.0216011461e+00 -3.5015158977e+00 2.0216011461e+00 3.5015158977e+00 
16500 4.8997594077e+00 1.4654417832e-03 2.0215626424e+00 -3.5014492073e+00 2.0215626424e+00 3.5014492073e+00 
16600 4.8997569463e+00 1.3780991704e-03 2.0215263972e+00 -3.5013864289e+00 2.0215263972e+00 3.5013864289e+00 
16700 4.8997548236e+00 1.2946559069e-03 2.0214923117e+00 -3.5013273910e+00 2.0214923117e+00 3.5013273910e+00 
16800 4.8997530319e+00 1.2150094121e-03 2.0214602895e+00 -3.5012719269e+00 2.0214602895e+00 3.5012719269e+00 
16900 4.8997515625e+00 1.1390594305e-03 2.0214302368e+00 -3.5012198742e+00 2.0214302368e+00 3.5012198742e+00 
17000 4.8997504055e+00 1.0667079214e-03 2.0214020623e+00 -3.5011710745e+00 2.0214020623e+00 3.5011710745e+00 
17100 4.8997495507e+00 9.9785895414e-04 2.0213756770e+00 -3.5011253738e+00 2.0213756770e+00 3.5011253738e+00 
17200 4.8997489867e+00 9.3241860830e-04 2.0213509944e+00 -3.5010826222e+00 2.0213509944e+00 3.5010826222e+00 
17300 4.8997487018e+00 8.7029487924e-04 2.0213279302e+00 -3.5010426739e+00 2.0213279302e+00 3.5010426739e+00 
17400 4.8997486836e+00 8.1139758853e-04 2.0213064024e+00 -3.5010053867e+00 2.0213064024e+00 3.5010053867e+00 
17500 4.8997489191e+00 7.5563829942e-04 2.0212863314e+00 -3.5009706226e+00 2.0212863314e+00 3.5009706226e+00 
17600 4.8997493951e+00 7.0293023735e-04 2.0212676394e+00 -3.5009382471e+00 2.0212676394e+00 3.5009382471e+00 
17700 4.8997500981e+00 6.5318821516e-04 2.0212502510e+00 -3.5009081296e+00 2.0212502510e+00 3.5009081296e+00 
17800 4.8997510140e+00 6.0632856314e-04 2.0212340930e+00 -3.5008801431e+00 2.0212340930e+00 3.5008801431e+00 
17900 4.8997521289e+00 5.6226906362e-04 2.0212190941e+00 -3.5008541642e+00 2.0212190941e+00 3.5008541642e+00 
18000 4.8997534287e+00 5.2092889015e-04 2.0212051850e+00 -3.5008300729e+00 2.0212051850e+00 3.5008300729e+00 
18100 4.8997548990e+00 4.8222855096e-04 2.0211922984e+00 -3.5008077526e+00 2.0211922984e+00 3.5008077526e+00 
18200 4.8997565256e+00 4.4608983679e-04 2.0211803691e+00 -3.5007870905e+00 2.0211803691e+00 3.5007870905e+00 
18300 4.8997582945e+00 4.1243577265e-04 2.0211693337e+00 -3.5007679767e+00 2.0211693337e+00 3.5007679767e+00 
18400 4.8997601916e+00 3.8119057369e-04 2.0211591308e+00 -3.5007503048e+00 2.0211591308e+00 3.5007503048e+00 
18500 4.8997622031e+00 3.5227960486e-04 2.0211497008e+00 -3.5007339715e+00 2.0211497008e+00 3.5007339715e+00 
18600 4.8997643152e+00 3.2562934407e-04 2.0211409860e+00 -3.5007188770e+00 2.0211409860e+00 3.5007188770e+00 
18700 4.8997665147e+00 3.0116734910e-04 2.0211329304e+00 -3.5007049243e+00 2.0211329304e+00 3.5007049243e+00 
18800 4.8997687885e+00 2.7882222766e-04 2.0211254800e+00 -3.5006920198e+00 2.0211254800e+00 3.5006920198e+00 
18900 4.8997711239e+00 2.5852361076e-04 2.0211185823e+00 -3.5006800726e+00 2.0211185823e+00 3.5006800726e+00 
19000 4.8997735087e+00 2.4020212900e-04 2.0211121867e+00 -3.5006689952e+00 2.0211121867e+00 3.5006689952e+00 
19100 4.8997759308e+00 2.2378939188e-04 2.0211062444e+00 -3.5006587028e+00 2.0211062444e+00 3.5006587028e+00 
19200 4.8997783788e+00 2.0921796973e-04 2.0211007081e+00 -3.5006491136e+00 2.0211007081e+00 3.5006491136e+00 
19300 4.8997808418e+00 1.9642137822e-04 2.0210955322e+00 -3.5006401488e+00 2.0210955322e+00 3.5006401488e+00 
19400 4.8997833093e+00 1.8533406529e-04 2.0210906730e+00 -3.5006317323e+00 2.0210906730e+00 3.5006317323e+00 
19500 4.8997857713e+00 1.7589140035e-04 2.0210860880e+00 -3.5006237908e+00 2.0210860880e+00 3.5006237908e+00 
19600 4.8997882183e+00 1.6802966559e-04 2.0210817366e+00 -3.5006162540e+00 2.0210817366e+00 3.5006162540e+00 
19700 4.8997906414e+00 1.6168604921e-04 2.0210775796e+00 -3.5006090540e+00 2.0210775796e+00 3.5006090540e+00 
19800 4.8997930322e+00 1.5679864053e-04 2.0210735796e+00 -3.5006021258e+00 2.0210735796e+00 3.5006021258e+00 
19900 4.8997953830e+00 1.5330642669e-04 2.0210697006e+00 -3.5005954070e+00 2.0210697006e+00 3.5005954070e+00 
20000 4.8997976865e+00 1.5114929099e-04 2.0210659079e+00 -3.5005888378e+00 2.0210659079e+00 3.5005888378e+00 
20100 4.8997999359e+00 1.5026801253e-04 2.0210621685e+00 -3.5005823611e+00 2.0210621685e+00 3.5005823611e+00 
20200 4.8998021251e+00 1.5060426720e-04 2.0210584510e+00 -3.5005759221e+00 2.0210584510e+00 3.5005759221e+00 
20300 4.8998042486e+00 1.5210062980e-04 2.0210547251e+00 -3.5005694687e+00 2.0210547251e+00 3.5005694687e+00 
20400 4.8998063013e+00 1.5470057708e-04 2.0210509622e+00 -3.5005629512e+00 2.0210509622e+00 3.5005629512e+00 
20500 4.8998082788e+00 1.5834849188e-04 2.0210471350e+00 -3.5005563222e+00 2.0210471350e+00 3.5005563222e+00 
20600 4.8998101771e+00 1.6298966787e-04 2.0210432175e+00 -3.5005495369e+00 2.0210432175e+00 3.5005495369e+00 
20700 4.8998119927e+00 1.6857031509e-04 2.0210391852e+00 -3.5005425528e+00 2.0210391852e+00 3.5005425528e+00 
20800 4.8998137228e+00 1.7503756601e-04 2.0210350148e+00 -3.5005353295e+00 2.0210350148e+00 3.5005353295e+00 
20900 4.8998153650e+00 1.8233948205e-04 2.0210306844e+00 -3.5005278290e+00 2.0210306844e+00 3.5005278290e+00 
21000 4.8998169173e+00 1.9042506059e-04 2.0210261733e+00 -3.5005200156e+00 2.0210261733e+00 3.5005200156e+00 
21100 4.8998183782e+00 1.9924424210e-04 2.0210214622e+00 -3.5005118558e+00 2.0210214622e+00 3.5005118558e+00 
21200 4.8998197467e+00 2.0874791760e-04 2.0210165329e+00 -3.5005033180e+00 2.0210165329e+00 3.5005033180e+00 
21300 4.8998210222e+00 2.1888793618e-04 2.0210113685e+00 -3.5004943729e+00 2.0210113685e+00 3.5004943729e+00 
21400 4.8998222047e+00 2.2961711257e-04 2.0210059532e+00 -3.5004849933e+00 2.0210059532e+00 3.5004849933e+00 
21500 4.8998232941e+00 2.4088923473e-04 2.0210002724e+00 -3.5004751540e+00 2.0210002724e+00 3.5004751540e+00 
21600 4.8998242912e+00 2.5265907119e-04 2.0209943128e+00 -3.5004648316e+00 2.0209943128e+00 3.5004648316e+00 
21700 4.8998251969e+00 2.6488237844e-04 2.0209880619e+00 -3.5004540048e+00 2.0209880619e+00 3.5004540048e+00 
21800 4.8998260124e+00 2.7751590786e-04 2.0209815087e+00 -3.5004426541e+00 2.0209815087e+00 3.5004426541e+00 
21900 4.8998267392e+00 2.9051741258e-04 2.0209746428e+00 -3.5004307621e+00 2.0209746428e+00 3.5004307621e+00 
22000 4.8998273792e+00 3.0384565385e-04 2.0209674552e+00 -3.5004183129e+00 2.0209674552e+00 3.5004183129e+00 
22100 4.8998279345e+00 3.1746040710e-04 2.0209599379e+00 -3.5004052925e+00 2.0209599379e+00 3.5004052925e+00 
22200 4.8998284074e+00 3.3132246751e-04 2.0209520837e+00 -3.5003916887e+00 2.0209520837e+00 3.5003916887e+00 
22300 4.8998288005e+00 3.4539365524e-04 2.0209438865e+00 -3.5003774907e+00 2.0209438865e+00 3.5003774907e+00 
22400 4.8998291164e+00 3.5963681999e-04 2.0209353412e+00 -3.5003626897e+00 2.0209353412e+00 3.5003626897e+00 
22500 4.8998293581e+00 3.7401584512e-04 2.0209264434e+00 -3.5003472783e+00 2.0209264434e+00 3.5003472783e+00 
22600 4.8998295288e+00 3.8849565118e-04 2.0209171898e+00 -3.5003312507e+00 2.0209171898e+00 3.5003312507e+00 
22700 4.8998296314e+00 4.0304219886e-04 2.0209075780e+00 -3.5003146025e+00 2.0209075780e+00 3.5003146025e+00 
22800 4.8998296694e+00 4.1762249125e-04 2.0208976062e+00 -3.5002973308e+00 2.0208976062e+00 3.5002973308e+00 
22900 4.8998296462e+00 4.3220457555e-04 2.0208872736e+00 -3.5002794342e+00 2.0208872736e+00 3.5002794342e+00 
23000 4.8998295652e+00 4.4675754408e-04 2.0208765802e+00 -3.5002609127e+00 2.0208765802e+00 3.5002609127e+00 
23100 4.8998294300e+00 4.6125153459e-04 2.0208655266e+00 -3.5002417674e+00 2.0208655266e+00 3.5002417674e+00 
23200 4.8998292440e+00 4.7565772994e-04 2.0208541144e+00 -3.5002220008e+00 2.0208541144e+00 3.5002220008e+00 
23300 4.8998290109e+00 4.8994835702e-04 2.0208423457e+00 -3.5002016168e+00 2.0208423457e+00 3.5002016168e+00 
23400 4.8998287343e+00 5.0409668504e-04 2.0208302233e+00 -3.5001806202e+00 2.0208302233e+00 3.5001806202e+00 
23500 4.8998284177e+00 5.1807702305e-04 2.0208177508e+00 -3.5001590172e+00 2.0208177508e+00 3.5001590172e+00 
23600 4.8998280646e+00 5.3186471678e-04 2.0208049323e+00 -3.5001368150e+00 2.0208049323e+00 3.5001368150e+00 
23700 4.8998276787e+00 5.4543614476e-04 2.0207917726e+00 -3.5001140217e+00 2.0207917726e+00 3.5001140217e+00 
23800 4.8998272633e+00 5.5876871374e-04 2.0207782770e+00 -3.5000906466e+00 2.0207782770e+00 3.5000906466e+00 
23900 4.8998268218e+00 5.7184085337e-04 2.0207644515e+00 -3.5000667001e+00 2.0207644515e+00 3.5000667001e+00 
24000 4.8998263576e+00 5.8463201023e-04 2.0207503024e+00 -3.5000421931e+00 2.0207503024e+00 3.5000421931e+00 
24100 4.8998258739e+00 5.9712264114e-04 2.0207358367e+00 -3.5000171378e+00 2.0207358367e+00 3.5000171378e+00 
24200 4.8998253738e+00 6.0929420572e-04 2.0207210618e+00 -3.4999915469e+00 2.0207210618e+00 3.4999915469e+00 
24300 4.8998248605e+00 6.2112915840e-04 2.0207059857e+00 -3.4999654343e+00 2.0207059857e+00 3.4999654343e+00 
24400 4.8998243367e+00 6.3261093965e-04 2.0206906166e+00 -3.4999388143e+00 2.0206906166e+00 3.4999388143e+00 
24500 4.8998238054e+00 6.4372396658e-04 2.0206749632e+00 -3.4999117019e+00 2.0206749632e+00 3.4999117019e+00 
24600 4.8998232692e+00 6.5445362295e-04 2.0206590348e+00 -3.4998841131e+00 2.0206590348e+00 3.4998841131e+00 
24700 4.8998227307e+00 6.6478624848e-04 2.0206428408e+00 -3.4998560642e+00 2.0206428408e+00 3.4998560642e+00 
24800 4.8998221924e+00 6.7470912759e-04 2.0206263909e+00 -3.4998275722e+00 2.0206263909e+00 3.4998275722e+00 
24900 4.8998216566e+00 6.8421047749e-04 2.0206096954e+00 -3.4997986547e+00 2.0206096954e+00 3.4997986547e+00 
25000 4.8998211255e+00 6.9327943578e-04 2.0205927646e+00 -3.4997693298e+00 2.0205927646e+00 3.4997693298e+00 
25100 4.8998206010e+00 7.0190604738e-04 2.0205756093e+00 -3.4997396159e+00 2.0205756093e+00 3.4997396159e+00 
25200 4.8998200852e+00 7.1008125101e-04 2.0205582404e+00 -3.4997095320e+00 2.0205582404e+00 3.4997095320e+00 
25300 4.8998195797e+00 7.1779686505e-04 2.0205406690e+00 -3.4996790975e+00 2.0205406690e+00 3.4996790975e+00 
25400 4.8998190862e+00 7.2504557297e-04 2.0205229065e+00 -3.4996483320e+00 2.0205229065e+00 3.4996483320e+00 
25500 4.8998186062e+00 7.3182090822e-04 2.0205049645e+00 -3.4996172555e+00 2.0205049645e+00 3.4996172555e+00 
25600 4.8998181411e+00 7.3811723868e-04 2.0204868547e+00 -3.4995858884e+00 2.0204868547e+00 3.4995858884e+00 
25700 4.8998176919e+00 7.4392975068e-04 2.0204685889e+00 -3.4995542511e+00 2.0204685889e+00 3.4995542511e+00 
25800 4.8998172599e+00 7.4925443252e-04 2.0204501791e+00 -3.4995223644e+00 2.0204501791e+00 3.4995223644e+00 
25900 4.8998168460e+00 7.5408805768e-04 2.0204316374e+00 -3.4994902491e+00 2.0204316374e+00 3.4994902491e+00 
26000 4.8998164510e+00 7.5842816757e-04 2.0204129758e+00 -3.4994579264e+00 2.0204129758e+00 3.4994579264e+00 
26100 4.8998160756e+00 7.6227305395e-04 2.0203942067e+00 -3.4994254174e+00 2.0203942067e+00 3.4994254174e+00 
26200 4.8998157203e+00 7.6562174104e-04 2.0203753423e+00 -3.4993927432e+00 2.0203753423e+00 3.4993927432e+00 
26300 4.8998153857e+00 7.6847396726e-04 2.0203563948e+00 -3.4993599252e+00 2.0203563948e+00 3.4993599252e+00 
26400 4.8998150721e+00 7.7083016671e-04 2.0203373766e+00 -3.4993269846e+00 2.0203373766e+00 3.4993269846e+00 
26500 4.8998147797e+00 7.7269145034e-04 2.0203182998e+00 -3.4992939427e+00 2.0203182998e+00 3.4992939427e+00 
26600 4.8998145086e+00 7.7405958692e-04 2.0202991768e+00 -3.4992608208e+00 2.0202991768e+00 3.4992608208e+00 
26700 4.8998142590e+00 7.7493698374e-04 2.0202800198e+00 -3.4992276398e+00 2.0202800198e+00 3.4992276398e+00 
26800 4.8998140307e+00 7.7532666715e-04 2.0202608409e+00 -3.4991944210e+00 2.0202608409e+00 3.4991944210e+00 
26900 4.8998138236e+00 7.7523226282e-04 2.0202416521e+00 -3.4991611851e+00 2.0202416521e+00 3.4991611851e+00 
27000 4.8998136375e+00 7.7465797596e-04 2.0202224656e+00 -3.4991279529e+00 2.0202224656e+00 3.4991279529e+00 
27100 4.8998134721e+00 7.7360857134e-04 2.0202032930e+00 -3.4990947451e+00 2.0202032930e+00 3.4990947451e+00 
27200 4.8998133270e+00 7.7208935317e-04 2.0201841462e+00 -3.4990615819e+00 2.0201841462e+00 3.4990615819e+00 
27300 4.8998132017e+00 7.7010614490e-04 2.0201650369e+00 -3.4990284835e+00 2.0201650369e+00 3.4990284835e+00 
27400 4.8998130959e+00 7.6766526897e-04 2.0201459764e+00 -3.4989954699e+00 2.0201459764e+00 3.4989954699e+00 
27500 4.8998130089e+00 7.6477352649e-04 2.0201269762e+00 -3.4989625605e+00 2.0201269762e+00 3.4989625605e+00 
27600 4.8998129401e+00 7.6143817685e-04 2.0201080474e+00 -3.4989297749e+00 2.0201080474e+00 3.4989297749e+00 
27700 4.8998128889e+00 7.5766691741e-04 2.0200892010e+00 -3.4988971319e+00 2.0200892010e+00 3.4988971319e+00 
27800 4.8998128545e+00 7.5346786305e-04 2.0200704477e+00 -3.4988646502e+00 2.0200704477e+00 3.4988646502e+00 
27900 4.8998128364e+00 7.4884952591e-04 2.0200517982e+00 -3.4988323483e+00 2.0200517982e+00 3.4988323483e+00 
28000 4.8998128336e+00 7.4382079507e-04 2.0200332628e+00 -3.4988002441e+00 2.0200332628e+00 3.4988002441e+00 
28100 4.8998128455e+00 7.3839091632e-04 2.0200148517e+00 -3.4987683552e+00 2.0200148517e+00 3.4987683552e+00 
28200 4.8998128712e+00 7.3256947203e-04 2.0199965749e+00 -3.4987366988e+00 2.0199965749e+00 3.4987366988e+00 
28300 4.8998129100e+00 7.2636636114e-04 2.0199784420e+00 -3.4987052917e+00 2.0199784420e+00 3.4987052917e+00 
28400 4.8998129610e+00 7.1979177919e-04 2.0199604624e+00 -3.4986741502e+00 2.0199604624e+00 3.4986741502e+00 
28500 4.8998130233e+00 7.1285619862e-04 2.0199426455e+00 -3.4986432903e+00 2.0199426455e+00 3.4986432903e+00 
28600 4.8998130962e+00 7.0557034912e-04 2.0199250000e+00 -3.4986127276e+00 2.0199250000e+00 3.4986127276e+00 
28700 4.8998131788e+00 6.9794519819e-04 2.0199075348e+00 -3.4985824769e+00 2.0199075348e+00 3.4985824769e+00 
28800 4.8998132702e+00 6.8999193192e-04 2.0198902582e+00 -3.4985525529e+00 2.0198902582e+00 3.4985525529e+00 
28900 4.8998133697e+00 6.8172193593e-04 2.0198731783e+00 -3.4985229696e+00 2.0198731783e+00 3.4985229696e+00 
29000 4.8998134764e+00 6.7314677657e-04 2.0198563029e+00 -3.4984937406e+00 2.0198563029e+00 3.4984937406e+00 
29100 4.8998135896e+00 6.6427818233e-04 2.0198396397e+00 -3.4984648791e+00 2.0198396397e+00 3.4984648791e+00 
29200 4.8998137084e+00 6.5512802556e-04 2.0198231959e+00 -3.4984363976e+00 2.0198231959e+00 3.4984363976e+00 
29300 4.8998138321e+00 6.4570830434e-04 2.0198069785e+00 -3.4984083082e+00 2.0198069785e+00 3.4984083082e+00 
29400 4.8998139600e+00 6.3603112482e-04 2.0197909941e+00 -3.4983806224e+00 2.0197909941e+00 3.4983806224e+00 
29500 4.8998140912e+00 6.2610868362e-04 2.0197752491e+00 -3.4983533513e+00 2.0197752491e+00 3.4983533513e+00 
29600 4.8998142252e+00 6.1595325078e-04 2.0197597497e+00 -3.4983265055e+00 2.0197597497e+00 3.4983265055e+00 
29700 4.8998143612e+00 6.0557715281e-04 2.0197445015e+00 -3.4983000949e+00 2.0197445015e+00 3.4983000949e+00 
29800 4.8998144985e+00 5.9499275625e-04 2.0197295101e+00 -3.4982741290e+00 2.0197295101e+00 3.4982741290e+00 
29900 4.8998146367e+00 5.8421245146e-04 2.0197147806e+00 -3.4982486168e+00 2.0197147806e+00 3.4982486168e+00 
30000 4.8998147750e+00 5.7324863679e-04 2.0197003179e+00 -3.4982235666e+00 2.0197003179e+00 3.4982235666e+00 
30100 4.8998149130e+00 5.6211370316e-04 2.0196861265e+00 -3.4981989864e+00 2.0196861265e+00 3.4981989864e+00 
30200 4.8998150501e+00 5.5082001893e-04 2.0196722106e+00 -3.4981748834e+00 2.0196722106e+00 3.4981748834e+00 
30300 4.8998151857e+00 5.3937991525e-04 2.0196585743e+00 -3.4981512646e+00 2.0196585743e+00 3.4981512646e+00 
30400 4.8998153196e+00 5.2780567168e-04 2.0196452210e+00 -3.4981281361e+00 2.0196452210e+00 3.4981281361e+00 
30500 4.8998154511e+00 5.1610950233e-04 2.0196321542e+00 -3.4981055038e+00 2.0196321542e+00 3.4981055038e+00 
30600 4.8998155799e+00 5.0430354231e-04 2.0196193769e+00 -3.4980833728e+00 2.0196193769e+00 3.4980833728e+00 
30700 4.8998157057e+00 4.9239983468e-04 2.0196068918e+00 -3.4980617480e+00 2.0196068918e+00 3.4980617480e+00 
30800 4.8998158281e+00 4.8041031768e-04 2.0195947014e+00 -3.4980406335e+00 2.0195947014e+00 3.4980406335e+00 
30900 4.8998159468e+00 4.6834681256e-04 2.0195828077e+00 -3.4980200329e+00 2.0195828077e+00 3.4980200329e+00 
31000 4.8998160616e+00 4.5622101170e-04 2.0195712125e+00 -3.4979999496e+00 2.0195712125e+00 3.4979999496e+00 
31100 4.8998161721e+00 4.4404446719e-04 2.0195599175e+00 -3.4979803861e+00 2.0195599175e+00 3.4979803861e+00 
31200 4.8998162783e+00 4.3182857991e-04 2.0195489240e+00 -3.4979613447e+00 2.0195489240e+00 3.4979613447e+00 
31300 4.8998163799e+00 4.1958458895e-04 2.0195382328e+00 -3.4979428270e+00 2.0195382328e+00 3.4979428270e+00 
31400 4.8998164767e+00 4.0732356159e-04 2.0195278446e+00 -3.4979248342e+00 2.0195278446e+00 3.4979248342e+00 
31500 4.8998165686e+00 3.9505638356e-04 2.0195177600e+00 -3.4979073671e+00 2.0195177600e+00 3.4979073671e+00 
31600 4.8998166556e+00 3.8279374992e-04 2.0195079791e+00 -3.4978904260e+00 2.0195079791e+00 3.4978904260e+00 
31700 4.8998167376e+00 3.7054615626e-04 2.0194985017e+00 -3.4978740107e+00 2.0194985017e+00 3.4978740107e+00 
31800 4.8998168145e+00 3.5832389042e-04 2.0194893275e+00 -3.4978581205e+00 2.0194893275e+00 3.4978581205e+00 
31900 4.8998168863e+00 3.4613702457e-04 2.0194804558e+00 -3.4978427544e+00 2.0194804558e+00 3.4978427544e+00 
32000 4.8998169529e+00 3.3399540787e-04 2.0194718859e+00 -3.4978279108e+00 2.0194718859e+00 3.4978279108e+00 
32100 4.8998170145e+00 3.2190865942e-04 2.0194636165e+00 -3.4978135878e+00 2.0194636165e+00 3.4978135878e+00 
32200 4.8998170710e+00 3.0988616175e-04 2.0194556464e+00 -3.4977997831e+00 2.0194556464e+00 3.4977997831e+00 
32300 4.8998171226e+00 2.9793705475e-04 2.0194479738e+00 -3.4977864939e+00 2.0194479738e+00 3.4977864939e+00 
32400 4.8998171692e+00 2.8607022996e-04 2.0194405972e+00 -3.4977737171e+00 2.0194405972e+00 3.4977737171e+00 
32500 4.8998172110e+00 2.7429432536e-04 2.0194335143e+00 -3.4977614492e+00 2.0194335143e+00 3.4977614492e+00 
32600 4.8998172480e+00 2.6261772063e-04 2.0194267229e+00 -3.4977496862e+00 2.0194267229e+00 3.4977496862e+00 
32700 4.8998172805e+00 2.5104853269e-04 2.0194202206e+00 -3.4977384239e+00 2.0194202206e+00 3.4977384239e+00 
32800 4.8998173085e+00 2.3959461181e-04 2.0194140048e+00 -3.4977276578e+00 2.0194140048e+00 3.4977276578e+00 
32900 4.8998173322e+00 2.2826353806e-04 2.0194080725e+00 -3.4977173827e+00 2.0194080725e+00 3.4977173827e+00 
33000 4.8998173516e+00 2.1706261821e-04 2.0194024207e+00 -3.4977075936e+00 2.0194024207e+00 3.4977075936e+00 
33100 4.8998173671e+00 2.0599888297e-04 2.0193970463e+00 -3.4976982849e+00 2.0193970463e+00 3.4976982849e+00 
33200 4.8998173788e+00 1.9507908472e-04 2.0193919458e+00 -3.4976894505e+00 2.0193919458e+00 3.4976894505e+00 
33300 4.8998173867e+00 1.8430969555e-04 2.0193871157e+00 -3.4976810845e+00 2.0193871157e+00 3.4976810845e+00 
33400 4.8998173912e+00 1.7369690578e-04 2.0193825522e+00 -3.4976731803e+00 2.0193825522e+00 3.4976731803e+00 
33500 4.8998173924e+00 1.6324662271e-04 2.0193782514e+00 -3.4976657312e+00 2.0193782514e+00 3.4976657312e+00 
33600 4.8998173904e+00 1.5296446995e-04 2.0193742094e+00 -3.4976587302e+00 2.0193742094e+00 3.4976587302e+00 
33700 4.8998173856e+00 1.4285578688e-04 2.0193704220e+00 -3.4976521702e+00 2.0193704220e+00 3.4976521702e+00 
33800 4.8998173780e+00 1.3292562868e-04 2.0193668849e+00 -3.4976460437e+00 2.0193668849e+00 3.4976460437e+00 
33900 4.8998173679e+00 1.2317876655e-04 2.0193635936e+00 -3.4976403431e+00 2.0193635936e+00 3.4976403431e+00 
34000 4.8998173554e+00 1.1361968838e-04 2.0193605437e+00 -3.4976350604e+00 2.0193605437e+00 3.4976350604e+00 
34100 4.8998173408e+00 1.0425259966e-04 2.0193577304e+00 -3.4976301877e+00 2.0193577304e+00 3.4976301877e+00 
34200 4.8998173243e+00 9.5081424753e-05 2.0193551491e+00 -3.4976257167e+00 2.0193551491e+00 3.4976257167e+00 
34300 4.8998173059e+00 8.6109808520e-05 2.0193527948e+00 -3.4976216390e+00 2.0193527948e+00 3.4976216390e+00 
34400 4.8998172860e+00 7.7341118162e-05 2.0193506627e+00 -3.4976179461e+00 2.0193506627e+00 3.4976179461e+00 
34500 4.8998172647e+00 6.8778445433e-05 2.0193487477e+00 -3.4976146292e+00 2.0193487477e+00 3.4976146292e+00 
34600 4.8998172423e+00 6.1345401145e-05 2.0193487477e+00 -3.4976146292e+00 2.0193487477e+00 3.4976146292e+00 
34700 4.8998172187e+00 5.4015559600e-05 2.0193487477e+00 -3.4976146292e+00 2.0193487477e+00 3.4976146292e+00 
34800 4.8998171942e+00 4.6794196911e-05 2.0193487477e+00 -3.4976146292e+00 2.0193487477e+00 3.4976146292e+00 
34900 4.8998171690e+00 3.9686247176e-05 2.0193487477e+00 -3.4976146292e+00 2.0193487477e+00 3.4976146292e+00 
35000 4.8998171432e+00 3.2696311365e-05 2.0193487477e+00 -3.4976146292e+00 2.0193487477e+00 3.4976146292e+00 
35100 4.8998171169e+00 2.5828666215e-05 2.0193487477e+00 -3.4976146292e+00 2.0193487477e+00 3.4976146292e+00 
35200 4.8998170903e+00 1.9087273110e-05 2.0193487477e+00 -3.4976146292e+00 2.0193487477e+00 3.4976146292e+00 
35300 4.8998170636e+00 1.2475786947e-05 2.0193487477e+00 -3.4976146292e+00 2.0193487477e+00 3.4976146292e+00 
35400 4.8998170369e+00 5.9975649682e-06 2.0193487477e+00 -3.4976146292e+00 2.0193487477e+00 3.4976146292e+00 
35500 4.8998170103e+00 -3.4432445037e-07 2.0193487477e+00 -3.4976146292e+00 2.0193487477e+00 3.4976146292e+00 
35600 4.8998169840e+00 -6.5470930740e-06 2.0193487477e+00 -3.4976146292e+00 2.0193487477e+00 3.4976146292e+00 
35700 4.8998169579e+00 -1.2608224143e-05 2.0193487477e+00 -3.4976146292e+00 2.0193487477e+00 3.4976146292e+00 
35800 4.8998169324e+00 -1.8525463791e-05 2.0193487477e+00 -3.4976146292e+00 2.0193487477e+00 3.4976146292e+00 
35900 4.8998169073e+00 -2.4296812545e-05 2.0193487477e+00 -3.4976146292e+00 2.0193487477e+00 3.4976146292e+00 
36000 4.8998168829e+00 -2.9920516915e-05 2.0193487477e+00 -3.4976146292e+00 2.0193487477e+00 3.4976146292e+00 
36100 4.8998168592e+00 -3.5395061093e-05 2.0193487477e+00 -3.4976146292e+00 2.0193487477e+00 3.4976146292e+00 
36200 4.8998168363e+00 -4.0719158749e-05 2.0193487477e+00 -3.4976146292e+00 2.0193487477e+00 3.4976146292e+00 
36300 4.8998168143e+00 -4.5891744950e-05 2.0193487477e+00 -3.4976146292e+00 2.0193487477e+00 3.4976146292e+00 
36400 4.8998167931e+00 -5.0911968181e-05 2.0193487477e+00 -3.4976146292e+00 2.0193487477e+00 3.4976146292e+00 
36500 4.8998167729e+00 -5.5779182521e-05 2.0193487477e+00 -3.4976146292e+00 2.0193487477e+00 3.4976146292e+00 
36600 4.8998167537e+00 -6.0492939911e-05 2.0193487477e+00 -3.4976146292e+00 2.0193487477e+00 3.4976146292e+00 
36700 4.8998167355e+00 -6.5052982564e-05 2.0193487477e+00 -3.4976146292e+00 2.0193487477e+00 3.4976146292e+00 
36800 4.8998167184e+00 -6.9459235528e-05 2.0193487477e+00 -3.4976146292e+00 2.0193487477e+00 3.4976146292e+00 
36900 4.8998167023e+00 -7.3711799362e-05 2.0193487477e+00 -3.4976146292e+00 2.0193487477e+00 3.4976146292e+00 
37000 4.8998166873e+00 -7.6824612488e-05 2.0193505728e+00 -3.4976177905e+00 2.0193505728e+00 3.4976177905e+00 
37100 4.8998166733e+00 -7.9738848487e-05 2.0193524751e+00 -3.4976210852e+00 2.0193524751e+00 3.4976210852e+00 
37200 4.8998166604e+00 -8.2456933219e-05 2.0193544494e+00 -3.4976245049e+00 2.0193544494e+00 3.4976245049e+00 
37300 4.8998166486e+00 -8.4981439962e-05 2.0193564911e+00 -3.4976280412e+00 2.0193564911e+00 3.4976280412e+00 
37400 4.8998166379e+00 -8.7315083117e-05 2.0193585953e+00 -3.4976316857e+00 2.0193585953e+00 3.4976316857e+00 
37500 4.8998166283e+00 -8.9460711836e-05 2.0193607572e+00 -3.4976354303e+00 2.0193607572e+00 3.4976354303e+00 
37600 4.8998166197e+00 -9.1421303666e-05 2.0193629723e+00 -3.4976392669e+00 2.0193629723e+00 3.4976392669e+00 
37700 4.8998166123e+00 -9.3199958186e-05 2.0193652359e+00 -3.4976431876e+00 2.0193652359e+00 3.4976431876e+00 
37800 4.8998166058e+00 -9.4799890649e-05 2.0193675436e+00 -3.4976471846e+00 2.0193675436e+00 3.4976471846e+00 
37900 4.8998166004e+00 -9.6224425599e-05 2.0193698908e+00 -3.4976512502e+00 2.0193698908e+00 3.4976512502e+00 
38000 4.8998165960e+00 -9.7476990583e-05 2.0193722734e+00 -3.4976553769e+00 2.0193722734e+00 3.4976553769e+00 
38100 4.8998165925e+00 -9.8561109801e-05 2.0193746869e+00 -3.4976595572e+00 2.0193746869e+00 3.4976595572e+00 
38200 4.8998165900e+00 -9.9480397861e-05 2.0193771273e+00 -3.4976637841e+00 2.0193771273e+00 3.4976637841e+00 
38300 4.8998165884e+00 -1.0023855354e-04 2.0193795904e+00 -3.4976680504e+00 2.0193795904e+00 3.4976680504e+00 
38400 4.8998165876e+00 -1.0083935360e-04 2.0193820724e+00 -3.4976723492e+00 2.0193820724e+00 3.4976723492e+00 
38500 4.8998165877e+00 -1.0128664667e-04 2.0193845691e+00 -3.4976766738e+00 2.0193845691e+00 3.4976766738e+00 
38600 4.8998165886e+00 -1.0158434719e-04 2.0193870770e+00 -3.4976810175e+00 2.0193870770e+00 3.4976810175e+00 
38700 4.8998165902e+00 -1.0173642940e-04 2.0193895922e+00 -3.4976853740e+00 2.0193895922e+00 3.4976853740e+00 
38800 4.8998165925e+00 -1.0174692144e-04 2.0193921112e+00 -3.4976897370e+00 2.0193921112e+00 3.4976897370e+00 
38900 4.8998165955e+00 -1.0161989951e-04 2.0193946305e+00 -3.4976941005e+00 2.0193946305e+00 3.4976941005e+00 
39000 4.8998165991e+00 -1.0135948212e-04 2.0193971466e+00 -3.4976984585e+00 2.0193971466e+00 3.4976984585e+00 
39100 4.8998166033e+00 -1.0096982442e-04 2.0193996562e+00 -3.4977028054e+00 2.0193996562e+00 3.4977028054e+00 
39200 4.8998166080e+00 -1.0045511265e-04 2.0194021562e+00 -3.4977071355e+00 2.0194021562e+00 3.4977071355e+00 
39300 4.8998166132e+00 -9.9819558691e-05 2.0194046435e+00 -3.4977114435e+00 2.0194046435e+00 3.4977114435e+00 
39400 4.8998166189e+00 -9.9067394677e-05 2.0194071150e+00 -3.4977157243e+00 2.0194071150e+00 3.4977157243e+00 
39500 4.8998166249e+00 -9.8202867781e-05 2.0194095679e+00 -3.4977199728e+00 2.0194095679e+00 3.4977199728e+00 
39600 4.8998166314e+00 -9.7230235059e-05 2.0194119993e+00 -3.4977241843e+00 2.0194119993e+00 3.4977241843e+00 
39700 4.8998166381e+00 -9.6153758458e-05 2.0194144067e+00 -3.4977283540e+00 2.0194144067e+00 3.4977283540e+00 
39800 4.8998166452e+00 -9.4977699917e-05 2.0194167875e+00 -3.4977324775e+00 2.0194167875e+00 3.4977324775e+00 
39900 4.8998166525e+00 -9.3706316567e-05 2.0194191391e+00 -3.4977365506e+00 2.0194191391e+00 3.4977365506e+00 
40000 4.8998166599e+00 -9.2343856139e-05 2.0194214592e+00 -3.4977405692e+00 2.0194214592e+00 3.4977405692e+00 
40100 4.8998166676e+00 -9.0894552404e-05 2.0194237456e+00 -3.4977445294e+00 2.0194237456e+00 3.4977445294e+00 
40200 4.8998166754e+00 -8.9362620819e-05 2.0194259961e+00 -3.4977484274e+00 2.0194259961e+00 3.4977484274e+00 
40300 4.8998166833e+00 -8.7752254267e-05 2.0194282087e+00 -3.4977522597e+00 2.0194282087e+00 3.4977522597e+00 
40400 4.8998166912e+00 -8.6067618937e-05 2.0194303814e+00 -3.4977560229e+00 2.0194303814e+00 3.4977560229e+00 
40500 4.8998166992e+00 -8.4312850355e-05 2.0194325124e+00 -3.4977597139e+00 2.0194325124e+00 3.4977597139e+00 
40600 4.8998167072e+00 -8.2492049548e-05 2.0194345999e+00 -3.4977633296e+00 2.0194345999e+00 3.4977633296e+00 
40700 4.8998167151e+00 -8.0609279339e-05 2.0194366424e+00 -3.4977668672e+00 2.0194366424e+00 3.4977668672e+00 
40800 4.8998167230e+00 -7.8668560788e-05 2.0194386382e+00 -3.4977703241e+00 2.0194386382e+00 3.4977703241e+00 
40900 4.8998167308e+00 -7.6673869781e-05 2.0194405860e+00 -3.4977736978e+00 2.0194405860e+00 3.4977736978e+00 
41000 4.8998167385e+00 -7.4629133750e-05 2.0194424844e+00 -3.4977769859e+00 2.0194424844e+00 3.4977769859e+00 
41100 4.8998167460e+00 -7.2538228534e-05 2.0194443321e+00 -3.4977801863e+00 2.0194443321e+00 3.4977801863e+00 
41200 4.8998167535e+00 -7.0404975399e-05 2.0194461281e+00 -3.4977832971e+00 2.0194461281e+00 3.4977832971e+00 
41300 4.8998167608e+00 -6.9174769076e-05 2.0194461281e+00 -3.4977832971e+00 2.0194461281e+00 3.4977832971e+00 
41400 4.8998167680e+00 -6.7884433304e-05 2.0194461281e+00 -3.4977832971e+00 2.0194461281e+00 3.4977832971e+00 
41500 4.8998167749e+00 -6.6537645992e-05 2.0194461281e+00 -3.4977832971e+00 2.0194461281e+00 3.4977832971e+00 
41600 4.8998167816e+00 -6.5138000495e-05 2.0194461281e+00 -3.4977832971e+00 2.0194461281e+00 3.4977832971e+00 
41700 4.8998167881e+00 -6.3689005181e-05 2.0194461281e+00 -3.4977832971e+00 2.0194461281e+00 3.4977832971e+00 
41800 4.8998167943e+00 -6.2194083177e-05 2.0194461281e+00 -3.4977832971e+00 2.0194461281e+00 3.4977832971e+00 
41900 4.8998168002e+00 -6.0656572201e-05 2.0194461281e+00 -3.4977832971e+00 2.0194461281e+00 3.4977832971e+00 
42000 4.8998168059e+00 -5.9079724570e-05 2.0194461281e+00 -3.4977832971e+00 2.0194461281e+00 3.4977832971e+00 
42100 4.8998168113e+00 -5.7466707305e-05 2.0194461281e+00 -3.4977832971e+00 2.0194461281e+00 3.4977832971e+00 
42200 4.8998168164e+00 -5.5820602342e-05 2.0194461281e+00 -3.4977832971e+00 2.0194461281e+00 3.4977832971e+00 
42300 4.8998168212e+00 -5.4144406871e-05 2.0194461281e+00 -3.4977832971e+00 2.0194461281e+00 3.4977832971e+00 
42400 4.8998168258e+00 -5.2441033743e-05 2.0194461281e+00 -3.4977832971e+00 2.0194461281e+00 3.4977832971e+00 
42500 4.8998168300e+00 -5.0713311992e-05 2.0194461281e+00 -3.4977832971e+00 2.0194461281e+00 3.4977832971e+00 
42600 4.8998168340e+00 -4.8963987425e-05 2.0194461281e+00 -3.4977832971e+00 2.0194461281e+00 3.4977832971e+00 
42700 4.8998168377e+00 -4.7195723277e-05 2.0194461281e+00 -3.4977832971e+00 2.0194461281e+00 3.4977832971e+00 
42800 4.8998168410e+00 -4.5411100984e-05 2.0194461281e+00 -3.4977832971e+00 2.0194461281e+00 3.4977832971e+00 
42900 4.8998168441e+00 -4.3612620947e-05 2.0194461281e+00 -3.4977832971e+00 2.0194461281e+00 3.4977832971e+00 
43000 4.8998168470e+00 -4.1802703415e-05 2.0194461281e+00 -3.4977832971e+00 2.0194461281e+00 3.4977832971e+00 
43100 4.8998168495e+00 -3.9983689398e-05 2.0194461281e+00 -3.4977832971e+00 2.0194461281e+00 3.4977832971e+00 
43200 4.8998168518e+00 -3.8157841620e-05 2.0194461281e+00 -3.4977832971e+00 2.0194461281e+00 3.4977832971e+00 
43300 4.8998168539e+00 -3.6327345529e-05 2.0194461281e+00 -3.4977832971e+00 2.0194461281e+00 3.4977832971e+00 
43400 4.8998168556e+00 -3.4494310335e-05 2.0194461281e+00 -3.4977832971e+00 2.0194461281e+00 3.4977832971e+00 
43500 4.8998168572e+00 -3.2660770089e-05 2.0194461281e+00 -3.4977832971e+00 2.0194461281e+00 3.4977832971e+00 
43600 4.8998168585e+00 -3.0828684790e-05 2.0194461281e+00 -3.4977832971e+00 2.0194461281e+00 3.4977832971e+00 
43700 4.8998168596e+00 -2.8999941511e-05 2.0194461281e+00 -3.4977832971e+00 2.0194461281e+00 3.4977832971e+00 
43800 4.8998168604e+00 -2.7176355556e-05 2.0194461281e+00 -3.4977832971e+00 2.0194461281e+00 3.4977832971e+00 
43900 4.8998168611e+00 -2.5359671632e-05 2.0194461281e+00 -3.4977832971e+00 2.0194461281e+00 3.4977832971e+00 
44000 4.8998168616e+00 -2.3551565045e-05 2.0194461281e+00 -3.4977832971e+00 2.0194461281e+00 3.4977832971e+00 
44100 4.8998168619e+00 -2.1753642889e-05 2.0194461281e+00 -3.4977832971e+00 2.0194461281e+00 3.4977832971e+00 
44200 4.8998168620e+00 -1.9967445262e-05 2.0194461281e+00 -3.4977832971e+00 2.0194461281e+00 3.4977832971e+00 
44300 4.8998168619e+00 -1.8194446492e-05 2.0194461281e+00 -3.4977832971e+00 2.0194461281e+00 3.4977832971e+00 
44400 4.8998168617e+00 -1.6436056360e-05 2.0194461281e+00 -3.4977832971e+00 2.0194461281e+00 3.4977832971e+00 
44500 4.8998168614e+00 -1.4693621314e-05 2.0194461281e+00 -3.4977832971e+00 2.0194461281e+00 3.4977832971e+00 
44600 4.8998168609e+00 -1.2968425720e-05 2.0194461281e+00 -3.4977832971e+00 2.0194461281e+00 3.4977832971e+00 
44700 4.8998168603e+00 -1.1261693075e-05 2.0194461281e+00 -3.4977832971e+00 2.0194461281e+00 3.4977832971e+00 
44800 4.8998168596e+00 -9.5745872381e-06 2.0194461281e+00 -3.4977832971e+00 2.0194461281e+00 3.4977832971e+00 
44900 4.8998168588e+00 -7.9082136514e-06 2.0194461281e+00 -3.4977832971e+00 2.0194461281e+00 3.4977832971e+00 
45000 4.8998168579e+00 -6.2636205613e-06 2.0194461281e+00 -3.4977832971e+00 2.0194461281e+00 3.4977832971e+00 
45100 4.8998168570e+00 -4.6418002263e-06 2.0194461281e+00 -3.4977832971e+00 2.0194461281e+00 3.4977832971e+00 
45200 4.8998168559e+00 -3.0436901198e-06 2.0194461281e+00 -3.4977832971e+00 2.0194461281e+00 3.4977832971e+00 
45300 4.8998168548e+00 -1.4701741333e-06 2.0194461281e+00 -3.4977832971e+00 2.0194461281e+00 3.4977832971e+00 
45400 4.8998168537e+00 7.7916253215e-08 2.0194461281e+00 -3.4977832971e+00 2.0194461281e+00 3.4977832971e+00 
45500 4.8998168525e+00 1.5998007772e-06 2.0194461281e+00 -3.4977832971e+00 2.0194461281e+00 3.4977832971e+00 
45600 4.8998168513e+00 3.0947492393e-06 2.0194461281e+00 -3.4977832971e+00 2.0194461281e+00 3.4977832971e+00 
45700 4.8998168500e+00 4.5620803455e-06 2.0194461281e+00 -3.4977832971e+00 2.0194461281e+00 3.4977832971e+00 
45800 4.8998168488e+00 6.0011605721e-06 2.0194461281e+00 -3.4977832971e+00 2.0194461281e+00 3.4977832971e+00 
45900 4.8998168475e+00 7.4114030186e-06 2.0194461281e+00 -3.4977832971e+00 2.0194461281e+00 3.4977832971e+00 
46000 4.8998168462e+00 8.7922663061e-06 2.0194461281e+00 -3.4977832971e+00 2.0194461281e+00 3.4977832971e+00 
46100 4.8998168450e+00 1.0143253459e-05 2.0194461281e+00 -3.4977832971e+00 2.0194461281e+00 3.4977832971e+00 
46200 4.8998168437e+00 1.1463910825e-05 2.0194461281e+00 -3.4977832971e+00 2.0194461281e+00 3.4977832971e+00 
46300 4.8998168425e+00 1.2753826983e-05 2.0194461281e+00 -3.4977832971e+00 2.0194461281e+00 3.4977832971e+00 
46400 4.8998168412e+00 1.4012631685e-05 2.0194461281e+00 -3.4977832971e+00 2.0194461281e+00 3.4977832971e+00 
46500 4.8998168400e+00 1.5239994801e-05 2.0194461281e+00 -3.4977832971e+00 2.0194461281e+00 3.4977832971e+00 
46600 4.8998168389e+00 1.6435625273e-05 2.0194461281e+00 -3.4977832971e+00 2.0194461281e+00 3.4977832971e+00 
46700 4.8998168377e+00 1.7599270093e-05 2.0194461281e+00 -3.4977832971e+00 2.0194461281e+00 3.4977832971e+00 
46800 4.8998168366e+00 1.8730713287e-05 2.0194461281e+00 -3.4977832971e+00 2.0194461281e+00 3.4977832971e+00 
46900 4.8998168356e+00 1.9829774907e-05 2.0194461281e+00 -3.4977832971e+00 2.0194461281e+00 3.4977832971e+00 
47000 4.8998168346e+00 2.0896310055e-05 2.0194461281e+00 -3.4977832971e+00 2.0194461281e+00 3.4977832971e+00 
47100 4.8998168336e+00 2.1930207892e-05 2.0194461281e+00 -3.4977832971e+00 2.0194461281e+00 3.4977832971e+00 
47200 4.8998168327e+00 2.2931390685e-05 2.0194461281e+00 -3.4977832971e+00 2.0194461281e+00 3.4977832971e+00 
47300 4.8998168319e+00 2.3899812843e-05 2.0194461281e+00 -3.4977832971e+00 2.0194461281e+00 3.4977832971e+00 
47400 4.8998168311e+00 2.4835459988e-05 2.0194461281e+00 -3.4977832971e+00 2.0194461281e+00 3.4977832971e+00 
47500 4.8998168303e+00 2.5738348017e-05 2.0194461281e+00 -3.4977832971e+00 2.0194461281e+00 3.4977832971e+00 
47600 4.8998168297e+00 2.6608522194e-05 2.0194461281e+00 -3.4977832971e+00 2.0194461281e+00 3.4977832971e+00 
47700 4.8998168290e+00 2.7446056238e-05 2.0194461281e+00 -3.4977832971e+00 2.0194461281e+00 3.4977832971e+00 
47800 4.8998168284e+00 2.8251051425e-05 2.0194461281e+00 -3.4977832971e+00 2.0194461281e+00 3.4977832971e+00 
47900 4.8998168279e+00 2.9023635717e-05 2.0194461281e+00 -3.4977832971e+00 2.0194461281e+00 3.4977832971e+00 
48000 4.8998168275e+00 2.9763962876e-05 2.0194461281e+00 -3.4977832971e+00 2.0194461281e+00 3.4977832971e+00 
48100 4.8998168271e+00 3.0472211608e-05 2.0194461281e+00 -3.4977832971e+00 2.0194461281e+00 3.4977832971e+00 
48200 4.8998168267e+00 3.1148584709e-05 2.0194461281e+00 -3.4977832971e+00 2.0194461281e+00 3.4977832971e+00 
48300 4.8998168264e+00 3.1793308223e-05 2.0194461281e+00 -3.4977832971e+00 2.0194461281e+00 3.4977832971e+00 
48400 4.8998168262e+00 3.2406630608e-05 2.0194461281e+00 -3.4977832971e+00 2.0194461281e+00 3.4977832971e+00 
48500 4.8998168260e+00 3.2988821917e-05 2.0194461281e+00 -3.4977832971e+00 2.0194461281e+00 3.4977832971e+00 
48600 4.8998168258e+00 3.3540172983e-05 2.0194461281e+00 -3.4977832971e+00 2.0194461281e+00 3.4977832971e+00 
48700 4.8998168257e+00 3.4060994610e-05 2.0194461281e+00 -3.4977832971e+00 2.0194461281e+00 3.4977832971e+00 
48800 4.8998168257e+00 3.4551616797e-05 2.0194461281e+00 -3.4977832971e+00 2.0194461281e+00 3.4977832971e+00 
48900 4.8998168257e+00 3.5012387924e-05 2.0194461281e+00 -3.4977832971e+00 2.0194461281e+00 3.4977832971e+00 
49000 4.8998168257e+00 3.5443674003e-05 2.0194461281e+00 -3.4977832971e+00 2.0194461281e+00 3.4977832971e+00 
49100 4.8998168258e+00 3.5845857900e-05 2.0194461281e+00 -3.4977832971e+00 2.0194461281e+00 3.4977832971e+00 
49200 4.8998168260e+00 3.6219338574e-05 2.0194461281e+00 -3.4977832971e+00 2.0194461281e+00 3.4977832971e+00 
49300 4.8998168261e+00 3.6564530328e-05 2.0194461281e+00 -3.4977832971e+00 2.0194461281e+00 3.4977832971e+00 
49400 4.8998168263e+00 3.6881862076e-05 2.0194461281e+00 -3.4977832971e+00 2.0194461281e+00 3.4977832971e+00 
49500 4.8998168265e+00 3.7171776608e-05 2.0194461281e+00 -3.4977832971e+00 2.0194461281e+00 3.4977832971e+00 
49600 4.8998168268e+00 3.7434729863e-05 2.0194461281e+00 -3.4977832971e+00 2.0194461281e+00 3.4977832971e+00 
49700 4.8998168271e+00 3.7671190218e-05 2.0194461281e+00 -3.4977832971e+00 2.0194461281e+00 3.4977832971e+00 
49800 4.8998168274e+00 3.7881637784e-05 2.0194461281e+00 -3.4977832971e+00 2.0194461281e+00 3.4977832971e+00 
49900 4.8998168278e+00 3.8066563709e-05 2.0194461281e+00 -3.4977832971e+00 2.0194461281e+00 3.4977832971e+00 
50000 4.8998168281e+00 3.8226469487e-05 2.0194461281e+00 -3.4977832971e+00 2.0194461281e+00 3.4977832971e+00 
50100 4.8998168285e+00 3.8361866283e-05 2.0194461281e+00 -3.4977832971e+00 2.0194461281e+00 3.4977832971e+00 
50200 4.8998168289e+00 3.8473274260e-05 2.0194461281e+00 -3.4977832971e+00 2.0194461281e+00 3.4977832971e+00 
50300 4.8998168293e+00 3.8561221923e-05 2.0194461281e+00 -3.4977832971e+00 2.0194461281e+00 3.4977832971e+00 
50400 4.8998168297e+00 3.8626245460e-05 2.0194461281e+00 -3.4977832971e+00 2.0194461281e+00 3.4977832971e+00 
50500 4.8998168302e+00 3.8668888107e-05 2.0194461281e+00 -3.4977832971e+00 2.0194461281e+00 3.4977832971e+00 
50600 4.8998168306e+00 3.8689699507e-05 2.0194461281e+00 -3.4977832971e+00 2.0194461281e+00 3.4977832971e+00 
50700 4.8998168311e+00 3.8689235093e-05 2.0194461281e+00 -3.4977832971e+00 2.0194461281e+00 3.4977832971e+00 
50800 4.8998168315e+00 3.8668055469e-05 2.0194461281e+00 -3.4977832971e+00 2.0194461281e+00 3.4977832971e+00 
50900 4.8998168320e+00 3.8626725808e-05 2.0194461281e+00 -3.4977832971e+00 2.0194461281e+00 3.4977832971e+00 
51000 4.8998168324e+00 3.8565815256e-05 2.0194461281e+00 -3.4977832971e+00 2.0194461281e+00 3.4977832971e+00 
51100 4.8998168329e+00 3.8485896342e-05 2.0194461281e+00 -3.4977832971e+00 2.0194461281e+00 3.4977832971e+00 
51200 4.8998168334e+00 3.8387544416e-05 2.0194461281e+00 -3.4977832971e+00 2.0194461281e+00 3.4977832971e+00 
51300 4.8998168338e+00 3.8271337071e-05 2.0194461281e+00 -3.4977832971e+00 2.0194461281e+00 3.4977832971e+00 
51400 4.8998168343e+00 3.8137853590e-05 2.0194461281e+00 -3.4977832971e+00 2.0194461281e+00 3.4977832971e+00 
51500 4.8998168347e+00 3.7987674413e-05 2.0194461281e+00 -3.4977832971e+00 2.0194461281e+00 3.4977832971e+00 
51600 4.8998168351e+00 3.7821380586e-05 2.0194461281e+00 -3.4977832971e+00 2.0194461281e+00 3.4977832971e+00 
51700 4.8998168356e+00 3.7639553259e-05 2.0194461281e+00 -3.4977832971e+00 2.0194461281e+00 3.4977832971e+00 
51800 4.8998168360e+00 3.7442773157e-05 2.0194461281e+00 -3.4977832971e+00 2.0194461281e+00 3.4977832971e+00 
51900 4.8998168364e+00 3.7231620086e-05 2.0194461281e+00 -3.4977832971e+00 2.0194461281e+00 3.4977832971e+00 
52000 4.8998168368e+00 3.7006672445e-05 2.0194461281e+00 -3.4977832971e+00 2.0194461281e+00 3.4977832971e+00 
52100 4.8998168372e+00 3.6768506749e-05 2.0194461281e+00 -3.4977832971e+00 2.0194461281e+00 3.4977832971e+00 
52200 4.8998168376e+00 3.6517697158e-05 2.0194461281e+00 -3.4977832971e+00 2.0194461281e+00 3.4977832971e+00 
52300 4.8998168379e+00 3.6254815026e-05 2.0194461281e+00 -3.4977832971e+00 2.0194461281e+00 3.4977832971e+00 
52400 4.8998168383e+00 3.5980428455e-05 2.0194461281e+00 -3.4977832971e+00 2.0194461281e+00 3.4977832971e+00 
52500 4.8998168386e+00 3.5695101869e-05 2.0194461281e+00 -3.4977832971e+00 2.0194461281e+00 3.4977832971e+00 
52600 4.8998168389e+00 3.5399395591e-05 2.0194461281e+00 -3.4977832971e+00 2.0194461281e+00 3.4977832971e+00 
52700 4.8998168392e+00 3.5093865436e-05 2.0194461281e+00 -3.4977832971e+00 2.0194461281e+00 3.4977832971e+00 
52800 4.8998168395e+00 3.4779062320e-05 2.0194461281e+00 -3.4977832971e+00 2.0194461281e+00 3.4977832971e+00 
52900 4.8998168398e+00 3.4455531875e-05 2.0194461281e+00 -3.4977832971e+00 2.0194461281e+00 3.4977832971e+00 
53000 4.8998168400e+00 3.4123814082e-05 2.0194461281e+00 -3.4977832971e+00 2.0194461281e+00 3.4977832971e+00 
53100 4.8998168403e+00 3.3784442910e-05 2.0194461281e+00 -3.4977832971e+00 2.0194461281e+00 3.4977832971e+00 
53200 4.8998168405e+00 3.3437945975e-05 2.0194461281e+00 -3.4977832971e+00 2.0194461281e+00 3.4977832971e+00 
53300 4.8998168407e+00 3.3084844210e-05 2.0194461281e+00 -3.4977832971e+00 2.0194461281e+00 3.4977832971e+00 
53400 4.8998168409e+00 3.2725651543e-05 2.0194461281e+00 -3.4977832971e+00 2.0194461281e+00 3.4977832971e+00 
53500 4.8998168411e+00 3.2360874594e-05 2.0194461281e+00 -3.4977832971e+00 2.0194461281e+00 3.4977832971e+00 
53600 4.8998168413e+00 3.1991012376e-05 2.0194461281e+00 -3.4977832971e+00 2.0194461281e+00 3.4977832971e+00 
53700 4.8998168415e+00 3.1616556019e-05 2.0194461281e+00 -3.4977832971e+00 2.0194461281e+00 3.4977832971e+00 
53800 4.8998168416e+00 3.1237988506e-05 2.0194461281e+00 -3.4977832971e+00 2.0194461281e+00 3.4977832971e+00 
53900 4.8998168417e+00 3.0855784420e-05 2.0194461281e+00 -3.4977832971e+00 2.0194461281e+00 3.4977832971e+00 
54000 4.8998168419e+00 3.0470409686e-05 2.0194461281e+00 -3.4977832971e+00 2.0194461281e+00 3.4977832971e+00 
54100 4.8998168420e+00 3.0082321369e-05 2.0194461281e+00 -3.4977832971e+00 2.0194461281e+00 3.4977832971e+00 
54200 4.8998168421e+00 2.9691967430e-05 2.0194461281e+00 -3.4977832971e+00 2.0194461281e+00 3.4977832971e+00 
54300 4.8998168422e+00 2.9299786550e-05 2.0194461281e+00 -3.4977832971e+00 2.0194461281e+00 3.4977832971e+00 
54400 4.8998168422e+00 2.8906207927e-05 2.0194461281e+00 -3.4977832971e+00 2.0194461281e+00 3.4977832971e+00 
54500 4.8998168423e+00 2.8511651092e-05 2.0194461281e+00 -3.4977832971e+00 2.0194461281e+00 3.4977832971e+00 
54600 4.8998168424e+00 2.8116525760e-05 2.0194461281e+00 -3.4977832971e+00 2.0194461281e+00 3.4977832971e+00 
54700 4.8998168424e+00 2.7721231670e-05 2.0194461281e+00 -3.4977832971e+00 2.0194461281e+00 3.4977832971e+00 
54800 4.8998168424e+00 2.7326158449e-05 2.0194461281e+00 -3.4977832971e+00 2.0194461281e+00 3.4977832971e+00 
54900 4.8998168425e+00 2.6931685479e-05 2.0194461281e+00 -3.4977832971e+00 2.0194461281e+00 3.4977832971e+00 
55000 4.8998168425e+00 2.6538181791e-05 2.0194461281e+00 -3.4977832971e+00 2.0194461281e+00 3.4977832971e+00 
55100 4.8998168425e+00 2.6146005960e-05 2.0194461281e+00 -3.4977832971e+00 2.0194461281e+00 3.4977832971e+00 
55200 4.8998168425e+00 2.5755506013e-05 2.0194461281e+00 -3.4977832971e+00 2.0194461281e+00 3.4977832971e+00 
55300 4.8998168425e+00 2.5367019350e-05 2.0194461281e+00 -3.4977832971e+00 2.0194461281e+00 3.4977832971e+00 
55400 4.8998168425e+00 2.4980872685e-05 2.0194461281e+00 -3.4977832971e+00 2.0194461281e+00 3.4977832971e+00 
55500 4.8998168425e+00 2.4597381985e-05 2.0194461281e+00 -3.4977832971e+00 2.0194461281e+00 3.4977832971e+00 
55600 4.8998168425e+00 2.4216852423e-05 2.0194461281e+00 -3.4977832971e+00 2.0194461281e+00 3.4977832971e+00 
55700 4.8998168425e+00 2.3839578359e-05 2.0194461281e+00 -3.4977832971e+00 2.0194461281e+00 3.4977832971e+00 
55800 4.8998168424e+00 2.3465843308e-05 2.0194461281e+00 -3.4977832971e+00 2.0194461281e+00 3.4977832971e+00 
55900 4.8998168424e+00 2.3095919933e-05 2.0194461281e+00 -3.4977832971e+00 2.0194461281e+00 3.4977832971e+00 
56000 4.8998168424e+00 2.2730070050e-05 2.0194461281e+00 -3.4977832971e+00 2.0194461281e+00 3.4977832971e+00 
56100 4.8998168424e+00 2.2368544630e-05 2.0194461281e+00 -3.4977832971e+00 2.0194461281e+00 3.4977832971e+00 
56200 4.8998168423e+00 2.2011583832e-05 2.0194461281e+00 -3.4977832971e+00 2.0194461281e+00 3.4977832971e+00 
56300 4.8998168423e+00 2.1659417026e-05 2.0194461281e+00 -3.4977832971e+00 2.0194461281e+00 3.4977832971e+00 
56400 4.8998168423e+00 2.1312262839e-05 2.0194461281e+00 -3.4977832971e+00 2.0194461281e+00 3.4977832971e+00 
56500 4.8998168422e+00 2.0970329205e-05 2.0194461281e+00 -3.4977832971e+00 2.0194461281e+00 3.4977832971e+00 
56600 4.8998168422e+00 2.0633813424e-05 2.0194461281e+00 -3.4977832971e+00 2.0194461281e+00 3.4977832971e+00 
56700 4.8998168422e+00 2.0302902231e-05 2.0194461281e+00 -3.4977832971e+00 2.0194461281e+00 3.4977832971e+00 
56800 4.8998168421e+00 1.9977771882e-05 2.0194461281e+00 -3.4977832971e+00 2.0194461281e+00 3.4977832971e+00 
56900 4.8998168421e+00 1.9658588225e-05 2.0194461281e+00 -3.4977832971e+00 2.0194461281e+00 3.4977832971e+00 
57000 4.8998168421e+00 1.9345506809e-05 2.0194461281e+00 -3.4977832971e+00 2.0194461281e+00 3.4977832971e+00 
57100 4.8998168420e+00 1.9038672985e-05 2.0194461281e+00 -3.4977832971e+00 2.0194461281e+00 3.4977832971e+00 
57200 4.8998168420e+00 1.8738222009e-05 2.0194461281e+00 -3.4977832971e+00 2.0194461281e+00 3.4977832971e+00 
57300 4.8998168420e+00 1.8444279173e-05 2.0194461281e+00 -3.4977832971e+00 2.0194461281e+00 3.4977832971e+00 
57400 4.8998168420e+00 1.8156959914e-05 2.0194461281e+00 -3.4977832971e+00 2.0194461281e+00 3.4977832971e+00 
57500 4.8998168419e+00 1.7876369961e-05 2.0194461281e+00 -3.4977832971e+00 2.0194461281e+00 3.4977832971e+00 
57600 4.8998168419e+00 1.7602605468e-05 2.0194461281e+00 -3.4977832971e+00 2.0194461281e+00 3.4977832971e+00 
57700 4.8998168419e+00 1.7335753162e-05 2.0194461281e+00 -3.4977832971e+00 2.0194461281e+00 3.4977832971e+00 
57800 4.8998168419e+00 1.7075890487e-05 2.0194461281e+00 -3.4977832971e+00 2.0194461281e+00 3.4977832971e+00 
57900 4.8998168419e+00 1.6823085770e-05 2.0194461281e+00 -3.4977832971e+00 2.0194461281e+00 3.4977832971e+00 
58000 4.8998168418e+00 1.6577398384e-05 2.0194461281e+00 -3.4977832971e+00 2.0194461281e+00 3.4977832971e+00 
58100 4.8998168418e+00 1.6338878901e-05 2.0194461281e+00 -3.4977832971e+00 2.0194461281e+00 3.4977832971e+00 
58200 4.8998168418e+00 1.6107569290e-05 2.0194461281e+00 -3.4977832971e+00 2.0194461281e+00 3.4977832971e+00 
58300 4.8998168418e+00 1.5883503067e-05 2.0194461281e+00 -3.4977832971e+00 2.0194461281e+00 3.4977832971e+00 
58400 4.8998168418e+00 1.5666705498e-05 2.0194461281e+00 -3.4977832971e+00 2.0194461281e+00 3.4977832971e+00 
58500 4.8998168418e+00 1.5457193772e-05 2.0194461281e+00 -3.4977832971e+00 2.0194461281e+00 3.4977832971e+00 
58600 4.8998168418e+00 1.5254977197e-05 2.0194461281e+00 -3.4977832971e+00 2.0194461281e+00 3.4977832971e+00 
58700 4.8998168418e+00 1.5060057392e-05 2.0194461281e+00 -3.4977832971e+00 2.0194461281e+00 3.4977832971e+00 
58800 4.8998168418e+00 1.4872428478e-05 2.0194461281e+00 -3.4977832971e+00 2.0194461281e+00 3.4977832971e+00 
58900 4.8998168418e+00 1.4692077281e-05 2.0194461281e+00 -3.4977832971e+00 2.0194461281e+00 3.4977832971e+00 
59000 4.8998168419e+00 1.4518983537e-05 2.0194461281e+00 -3.4977832971e+00 2.0194461281e+00 3.4977832971e+00 
59100 4.8998168419e+00 1.4353120085e-05 2.0194461281e+00 -3.4977832971e+00 2.0194461281e+00 3.4977832971e+00 
59200 4.8998168419e+00 1.4194453087e-05 2.0194461281e+00 -3.4977832971e+00 2.0194461281e+00 3.4977832971e+00 
59300 4.8998168419e+00 1.4042942227e-05 2.0194461281e+00 -3.4977832971e+00 2.0194461281e+00 3.4977832971e+00 
59400 4.8998168419e+00 1.3898540918e-05 2.0194461281e+00 -3.4977832971e+00 2.0194461281e+00 3.4977832971e+00 
59500 4.8998168420e+00 1.3761196522e-05 2.0194461281e+00 -3.4977832971e+00 2.0194461281e+00 3.4977832971e+00 
59600 4.8998168420e+00 1.3630850552e-05 2.0194461281e+00 -3.4977832971e+00 2.0194461281e+00 3.4977832971e+00 
59700 4.8998168420e+00 1.3507438891e-05 2.0194461281e+00 -3.4977832971e+00 2.0194461281e+00 3.4977832971e+00 
59800 4.8998168420e+00 1.3390892004e-05 2.0194461281e+00 -3.4977832971e+00 2.0194461281e+00 3.4977832971e+00 
59900 4.8998168421e+00 1.3281135150e-05 2.0194461281e+00 -3.4977832971e+00 2.0194461281e+00 3.4977832971e+00 
60000 4.8998168421e+00 1.3178088591e-05 2.0194461281e+00 -3.4977832971e+00 2.0194461281e+00 3.4977832971e+00 
60100 4.8998168421e+00 1.3081667814e-05 2.0194461281e+00 -3.4977832971e+00 2.0194461281e+00 3.4977832971e+00 
60200 4.8998168422e+00 1.2991783741e-05 2.0194461281e+00 -3.4977832971e+00 2.0194461281e+00 3.4977832971e+00 
60300 4.8998168422e+00 1.2908342931e-05 2.0194461281e+00 -3.4977832971e+00 2.0194461281e+00 3.4977832971e+00 
60400 4.8998168422e+00 1.2831247814e-05 2.0194461281e+00 -3.4977832971e+00 2.0194461281e+00 3.4977832971e+00 
60500 4.8998168423e+00 1.2760396876e-05 2.0194461281e+00 -3.4977832971e+00 2.0194461281e+00 3.4977832971e+00 
60600 4.8998168423e+00 1.2695684880e-05 2.0194461281e+00 -3.4977832971e+00 2.0194461281e+00 3.4977832971e+00 
60700 4.8998168423e+00 1.2637003082e-05 2.0194461281e+00 -3.4977832971e+00 2.0194461281e+00 3.4977832971e+00 
60800 4.8998168424e+00 1.2584239417e-05 2.0194461281e+00 -3.4977832971e+00 2.0194461281e+00 3.4977832971e+00 
60900 4.8998168424e+00 1.2537278727e-05 2.0194461281e+00 -3.4977832971e+00 2.0194461281e+00 3.4977832971e+00 
61000 4.8998168424e+00 1.2496002938e-05 2.0194461281e+00 -3.4977832971e+00 2.0194461281e+00 3.4977832971e+00 
61100 4.8998168425e+00 1.2460291287e-05 2.0194461281e+00 -3.4977832971e+00 2.0194461281e+00 3.4977832971e+00 
61200 4.8998168425e+00 1.2430020494e-05 2.0194461281e+00 -3.4977832971e+00 2.0194461281e+00 3.4977832971e+00 
61300 4.8998168426e+00 1.2405064978e-05 2.0194461281e+00 -3.4977832971e+00 2.0194461281e+00 3.4977832971e+00 
61400 4.8998168426e+00 1.2385297036e-05 2.0194461281e+00 -3.4977832971e+00 2.0194461281e+00 3.4977832971e+00 
61500 4.8998168426e+00 1.2370587039e-05 2.0194461281e+00 -3.4977832971e+00 2.0194461281e+00 3.4977832971e+00 
61600 4.8998168427e+00 1.2360803625e-05 2.0194461281e+00 -3.4977832971e+00 2.0194461281e+00 3.4977832971e+00 
61700 4.8998168427e+00 1.2355813872e-05 2.0194461281e+00 -3.4977832971e+00 2.0194461281e+00 3.4977832971e+00 
61800 4.8998168427e+00 1.2355483482e-05 2.0194461281e+00 -3.4977832971e+00 2.0194461281e+00 3.4977832971e+00 
61900 4.8998168428e+00 1.2356082471e-05 2.0194461281e+00 -3.4977832971e+00 2.0194461281e+00 3.4977832971e+00 
61900 4.8998168428e+00 1.2356082471e-05 2.0194461281e+00 -3.4977832971e+00 2.0194461281e+00 3.4977832971e+00 
