# step Hamiltonian StressXX CellTensor1 CellTensor2 CellTensor3 CellTensor4 
0 6.3308367893e+00 3.2154391723e-02 1.6185780433e+00 -2.8034594071e+00 1.6185780433e+00 2.8034594071e+00 
100 6.3294281015e+00 3.4541033680e-02 1.6185780433e+00 -2.8034594071e+00 1.6185780433e+00 2.8034594071e+00 
200 6.3279073788e+00 3.5623541066e-02 1.6175111428e+00 -2.8016114811e+00 1.6175111428e+00 2.8016114811e+00 
300 6.3263313784e+00 3.6456349777e-02 1.6164100840e+00 -2.7997043914e+00 1.6164100840e+00 2.7997043914e+00 
400 6.3247140047e+00 3.7057263815e-02 1.6152825203e+00 -2.7977513937e+00 1.6152825203e+00 2.7977513937e+00 
500 6.3230677168e+00 3.7443231847e-02 1.6141355731e+00 -2.7957648229e+00 1.6141355731e+00 2.7957648229e+00 
600 6.3214036239e+00 3.7630373407e-02 1.6129758581e+00 -2.7937561376e+00 1.6129758581e+00 2.7937561376e+00 
700 6.3197315774e+00 3.7634005249e-02 1.6118095098e+00 -2.7917359631e+00 1.6118095098e+00 2.7917359631e+00 
800 6.3180602597e+00 3.7468667715e-02 1.6106422050e+00 -2.7897141319e+00 1.6106422050e+00 2.7897141319e+00 
900 6.3163972701e+00 3.7148150994e-02 1.6094791858e+00 -2.7876997236e+00 1.6094791858e+00 2.7876997236e+00 
1000 6.3147492070e+00 3.6685521189e-02 1.6083252813e+00 -2.7857011022e+00 1.6083252813e+00 2.7857011022e+00 
1100 6.3131217459e+00 3.6093146123e-02 1.6071849279e+00 -2.7837259523e+00 1.6071849279e+00 2.7837259523e+00 
1200 6.3115197151e+00 3.5382720856e-02 1.6060621903e+00 -2.7817813136e+00 1.6060621903e+00 2.7817813136e+00 
1300 6.3099471661e+00 3.4565292850e-02 1.6049607798e+00 -2.7798736148e+00 1.6049607798e+00 2.7798736148e+00 
1400 6.3084074420e+00 3.3651286783e-02 1.6038840736e+00 -2.7780087049e+00 1.6038840736e+00 2.7780087049e+00 
1500 6.3069032411e+00 3.2650528976e-02 1.6028351319e+00 -2.7761918847e+00 1.6028351319e+00 2.7761918847e+00 
1600 6.3054366777e+00 3.1572271425e-02 1.6018167156e+00 -2.7744279359e+00 1.6018167156e+00 2.7744279359e+00 
1700 6.3040093389e+00 3.0425215419e-02 1.6008313023e+00 -2.7727211499e+00 1.6008313023e+00 2.7727211499e+00 
1800 6.3026223386e+00 2.9217534738e-02 1.5998811021e+00 -2.7710753549e+00 1.5998811021e+00 2.7710753549e+00 
1900 6.3012763677e+00 2.7956898405e-02 1.5989680732e+00 -2.7694939425e+00 1.5989680732e+00 2.7694939425e+00 
2000 6.2999717414e+00 2.6650492995e-02 1.5980939360e+00 -2.7679798924e+00 1.5980939360e+00 2.7679798924e+00 
2100 6.2987084432e+00 2.5305044469e-02 1.5972601873e+00 -2.7665357973e+00 1.5972601873e+00 2.7665357973e+00 
2200 6.2974861664e+00 2.3926839537e-02 1.5964681137e+00 -2.7651638857e+00 1.5964681137e+00 2.7651638857e+00 
2300 6.2963043517e+00 2.2521746508e-02 1.5957188045e+00 -2.7638660440e+00 1.5957188045e+00 2.7638660440e+00 
2400 6.2951622232e+00 2.1095235639e-02 1.5950131637e+00 -2.7626438382e+00 1.5950131637e+00 2.7626438382e+00 
2500 6.2940588211e+00 1.9652398944e-02 1.5943519222e+00 -2.7614985344e+00 1.5943519222e+00 2.7614985344e+00 
2600 6.2929930316e+00 1.8197969464e-02 1.5937356488e+00 -2.7604311176e+00 1.5937356488e+00 2.7604311176e+00 
2700 6.2919636148e+00 1.6736339961e-02 1.5931647611e+00 -2.7594423111e+00 1.5931647611e+00 2.7594423111e+00 
2800 6.2909692306e+00 1.5271581051e-02 1.5926395355e+00 -2.7585325936e+00 1.5926395355e+00 2.7585325936e+00 
2900 6.2900084610e+00 1.3807458729e-02 1.5921601170e+00 -2.7577022165e+00 1.5921601170e+00 2.7577022165e+00 
3000 6.2890798320e+00 1.2347451303e-02 1.5917265290e+00 -2.7569512200e+00 1.5917265290e+00 2.7569512200e+00 
3100 6.2881818323e+00 1.0894765711e-02 1.5913386813e+00 -2.7562794480e+00 1.5913386813e+00 2.7562794480e+00 
3200 6.2873129303e+00 9.4523532173e-03 1.5909963791e+00 -2.7556865632e+00 1.5909963791e+00 2.7556865632e+00 
3300 6.2864715899e+00 8.0229244820e-03 1.5906993307e+00 -2.7551720603e+00 1.5906993307e+00 2.7551720603e+00 
3400 6.2856562837e+00 6.6089640045e-03 1.5904471550e+00 -2.7547352792e+00 1.5904471550e+00 2.7547352792e+00 
3500 6.2848655052e+00 5.2127439339e-03 1.5902393889e+00 -2.7543754178e+00 1.5902393889e+00 2.7543754178e+00 
3600 6.2840977796e+00 3.8363372517e-03 1.5900754936e+00 -2.7540915429e+00 1.5900754936e+00 2.7540915429e+00 
3700 6.2833516726e+00 2.4816303309e-03 1.5899548614e+00 -2.7538826016e+00 1.5899548614e+00 2.7538826016e+00 
3800 6.2826257982e+00 1.1503348758e-03 1.5898768211e+00 -2.7537474319e+00 1.5898768211e+00 2.7537474319e+00 
3900 6.2819188258e+00 -1.5600074765e-04 1.5898406444e+00 -2.7536847720e+00 1.5898406444e+00 2.7536847720e+00 
4000 6.2812294852e+00 -1.4359807807e-03 1.5898455506e+00 -2.7536932697e+00 1.5898455506e+00 2.7536932697e+00 
4100 6.2805565711e+00 -2.6883519279e-03 1.5898907118e+00 -2.7537714913e+00 1.5898907118e+00 2.7537714913e+00 
4200 6.2798989469e+00 -3.9119937859e-03 1.5899752577e+00 -2.7539179291e+00 1.5899752577e+00 2.7539179291e+00 
4300 6.2792555468e+00 -5.1059098297e-03 1.5900982799e+00 -2.7541310098e+00 1.5900982799e+00 2.7541310098e+00 
4400 6.2786253779e+00 -6.2692189388e-03 1.5902588359e+00 -2.7544091009e+00 1.5902588359e+00 2.7544091009e+00 
4500 6.2780075213e+00 -7.4011474457e-03 1.5904559531e+00 -2.7547505180e+00 1.5904559531e+00 2.7547505180e+00 
4600 6.2774011320e+00 -8.5010216869e-03 1.5906886325e+00 -2.7551535306e+00 1.5906886325e+00 2.7551535306e+00 
4700 6.2768054390e+00 -9.5682610368e-03 1.5909558520e+00 -2.7556163683e+00 1.5909558520e+00 2.7556163683e+00 
4800 6.2762197446e+00 -1.0602371404e-02 1.5912565694e+00 -2.7561372261e+00 1.5912565694e+00 2.7561372261e+00 
4900 6.2756434229e+00 -1.1602939171e-02 1.5915897257e+00 -2.7567142697e+00 1.5915897257e+00 2.7567142697e+00 
5000 6.2750759180e+00 -1.2569625548e-02 1.5919542474e+00 -2.7573456399e+00 1.5919542474e+00 2.7573456399e+00 
5100 6.2745167422e+00 -1.3502161332e-02 1.5923490498e+00 -2.7580294576e+00 1.5923490498e+00 2.7580294576e+00 
5200 6.2739654736e+00 -1.4400342041e-02 1.5927730385e+00 -2.7587638276e+00 1.5927730385e+00 2.7587638276e+00 
5300 6.2734217529e+00 -1.5264023404e-02 1.5932251124e+00 -2.7595468426e+00 1.5932251124e+00 2.7595468426e+00 
5400 6.2728852812e+00 -1.6093117183e-02 1.5937041655e+00 -2.7603765868e+00 1.5937041655e+00 2.7603765868e+00 
5500 6.2723558165e+00 -1.6887587316e-02 1.5942090888e+00 -2.7612511396e+00 1.5942090888e+00 2.7612511396e+00 
5600 6.2718331702e+00 -1.7647446353e-02 1.5947387722e+00 -2.7621685782e+00 1.5947387722e+00 2.7621685782e+00 
5700 6.2713172044e+00 -1.8372752160e-02 1.5952921062e+00 -2.7631269809e+00 1.5952921062e+00 2.7631269809e+00 
5800 6.2708078276e+00 -1.9063604891e-02 1.5958679838e+00 -2.7641244301e+00 1.5958679838e+00 2.7641244301e+00 
5900 6.2703049918e+00 -1.9720144188e-02 1.5964653011e+00 -2.7651590141e+00 1.5964653011e+00 2.7651590141e+00 
6000 6.2698086887e+00 -2.0342546605e-02 1.5970829599e+00 -2.7662288304e+00 1.5970829599e+00 2.7662288304e+00 
6100 6.2693189459e+00 -2.0931023240e-02 1.5977198679e+00 -2.7673319874e+00 1.5977198679e+00 2.7673319874e+00 
6200 6.2688358238e+00 -2.1485817544e-02 1.5983749406e+00 -2.7684666066e+00 1.5983749406e+00 2.7684666066e+00 
6300 6.2683594118e+00 -2.2007203313e-02 1.5990471021e+00 -2.7696308245e+00 1.5990471021e+00 2.7696308245e+00 
6400 6.2678898247e+00 -2.2495482834e-02 1.5997352864e+00 -2.7708227946e+00 1.5997352864e+00 2.7708227946e+00 
6500 6.2674271997e+00 -2.2950985170e-02 1.6004384380e+00 -2.7720406890e+00 1.6004384380e+00 2.7720406890e+00 
6600 6.2669716930e+00 -2.3374064587e-02 1.6011555133e+00 -2.7732826999e+00 1.6011555133e+00 2.7732826999e+00 
6700 6.2665234761e+00 -2.3765099090e-02 1.6018854811e+00 -2.7745470412e+00 1.6018854811e+00 2.7745470412e+00 
6800 6.2660827337e+00 -2.4124489074e-02 1.6026273236e+00 -2.7758319500e+00 1.6026273236e+00 2.7758319500e+00 
6900 6.2656496596e+00 -2.4452656065e-02 1.6033800368e+00 -2.7771356876e+00 1.6033800368e+00 2.7771356876e+00 
7000 6.2652244550e+00 -2.4750041558e-02 1.6041426319e+00 -2.7784565410e+00 1.6041426319e+00 2.7784565410e+00 
7100 6.2648073248e+00 -2.5017105929e-02 1.6049141351e+00 -2.7797928238e+00 1.6049141351e+00 2.7797928238e+00 
7200 6.2643984759e+00 -2.5254327408e-02 1.6056935889e+00 -2.7811428774e+00 1.6056935889e+00 2.7811428774e+00 
7300 6.2639981141e+00 -2.5462201132e-02 1.6064800524e+00 -2.7825050721e+00 1.6064800524e+00 2.7825050721e+00 
7400 6.2636064426e+00 -2.5641238236e-02 1.6072726017e+00 -2.7838778078e+00 1.6072726017e+00 2.7838778078e+00 
7500 6.2632236592e+00 -2.5791965004e-02 1.6080703307e+00 -2.7852595149e+00 1.6080703307e+00 2.7852595149e+00 
7600 6.2628499548e+00 -2.5914922054e-02 1.6088723512e+00 -2.7866486552e+00 1.6088723512e+00 2.7866486552e+00 
7700 6.2624855116e+00 -2.6010663563e-02 1.6096777937e+00 -2.7880437225e+00 1.6096777937e+00 2.7880437225e+00 
7800 6.2621305012e+00 -2.6079756526e-02 1.6104858075e+00 -2.7894432435e+00 1.6104858075e+00 2.7894432435e+00 
7900 6.2617850837e+00 -2.6122780038e-02 1.6112955614e+00 -2.7908457783e+00 1.6112955614e+00 2.7908457783e+00 
8000 6.2614494057e+00 -2.6140324601e-02 1.6121062435e+00 -2.7922499209e+00 1.6121062435e+00 2.7922499209e+00 
8100 6.2611235996e+00 -2.6132991448e-02 1.6129170621e+00 -2.7936542999e+00 1.6129170621e+00 2.7936542999e+00 
8200 6.2608077827e+00 -2.6101391888e-02 1.6137272456e+00 -2.7950575790e+00 1.6137272456e+00 2.7950575790e+00 
8300 6.2605020557e+00 -2.6046146660e-02 1.6145360431e+00 -2.7964584573e+00 1.6145360431e+00 2.7964584573e+00 
8400 6.2602065027e+00 -2.5967885296e-02 1.6153427242e+00 -2.7978556700e+00 1.6153427242e+00 2.7978556700e+00 
8500 6.2599211903e+00 -2.5867245498e-02 1.6161465796e+00 -2.7992479883e+00 1.6161465796e+00 2.7992479883e+00 
8600 6.2596461670e+00 -2.5744872516e-02 1.6169469209e+00 -2.8006342202e+00 1.6169469209e+00 2.8006342202e+00 
8700 6.2593814632e+00 -2.5601418533e-02 1.6177430814e+00 -2.8020132106e+00 1.6177430814e+00 2.8020132106e+00 
8800 6.2591270905e+00 -2.5437542051e-02 1.6185344155e+00 -2.8033838414e+00 1.6185344155e+00 2.8033838414e+00 
8900 6.2588830423e+00 -2.5253907284e-02 1.6193202993e+00 -2.8047450320e+00 1.6193202993e+00 2.8047450320e+00 
9000 6.2586492930e+00 -2.5051183543e-02 1.6201001306e+00 -2.8060957395e+00 1.6201001306e+00 2.8060957395e+00 
9100 6.2584257988e+00 -2.4830044631e-02 1.6208733289e+00 -2.8074349583e+00 1.6208733289e+00 2.8074349583e+00 
9200 6.2582124977e+00 -2.4591168232e-02 1.6216393357e+00 -2.8087617210e+00 1.6216393357e+00 2.8087617210e+00 
9300 6.2580093094e+00 -2.4335235295e-02 1.6223976142e+00 -2.8100750978e+00 1.6223976142e+00 2.8100750978e+00 
9400 6.2578161364e+00 -2.4062929428e-02 1.6231476495e+00 -2.8113741970e+00 1.6231476495e+00 2.8113741970e+00 
9500 6.2576328637e+00 -2.3774936279e-02 1.6238889486e+00 -2.8126581649e+00 1.6238889486e+00 2.8126581649e+00 
9600 6.2574593602e+00 -2.3471942925e-02 1.6246210406e+00 -2.8139261854e+00 1.6246210406e+00 2.8139261854e+00 
9700 6.2572954784e+00 -2.3154637249e-02 1.6253434762e+00 -2.8151774805e+00 1.6253434762e+00 2.8151774805e+00 
9800 6.2571410557e+00 -2.2823707331e-02 1.6260558280e+00 -2.8164113101e+00 1.6260558280e+00 2.8164113101e+00 
9900 6.2569959148e+00 -2.2479840818e-02 1.6267576904e+00 -2.8176269714e+00 1.6267576904e+00 2.8176269714e+00 
10000 6.2568598646e+00 -2.2123724316e-02 1.6274486794e+00 -2.8188237994e+00 1.6274486794e+00 2.8188237994e+00 
10100 6.2567327011e+00 -2.1756042762e-02 1.6281284324e+00 -2.8200011662e+00 1.6281284324e+00 2.8200011662e+00 
10200 6.2566142080e+00 -2.1377478811e-02 1.6287966085e+00 -2.8211584811e+00 1.6287966085e+00 2.8211584811e+00 
10300 6.2565041577e+00 -2.0988712217e-02 1.6294528879e+00 -2.8222951904e+00 1.6294528879e+00 2.8222951904e+00 
10400 6.2564023121e+00 -2.0590419220e-02 1.6300969720e+00 -2.8234107768e+00 1.6300969720e+00 2.8234107768e+00 
10500 6.2563084238e+00 -2.0183271927e-02 1.6307285832e+00 -2.8245047594e+00 1.6307285832e+00 2.8245047594e+00 
10600 6.2562222367e+00 -1.9767937713e-02 1.6313474645e+00 -2.8255766932e+00 1.6313474645e+00 2.8255766932e+00 
10700 6.2561434871e+00 -1.9345078610e-02 1.6319533795e+00 -2.8266261689e+00 1.6319533795e+00 2.8266261689e+00 
10800 6.2560719048e+00 -1.8915350709e-02 1.6325461124e+00 -2.8276528124e+00 1.6325461124e+00 2.8276528124e+00 
10900 6.2560072136e+00 -1.8479403568e-02 1.6331254673e+00 -2.8286562844e+00 1.6331254673e+00 2.8286562844e+00 
11000 6.2559491328e+00 -1.8037879630e-02 1.6336912679e+00 -2.8296362800e+00 1.6336912679e+00 2.8296362800e+00 
11100 6.2558973777e+00 -1.7591413637e-02 1.6342433580e+00 -2.8305925280e+00 1.6342433580e+00 2.8305925280e+00 
11200 6.2558516608e+00 -1.7140632072e-02 1.6347816004e+00 -2.8315247911e+00 1.6347816004e+00 2.8315247911e+00 
11300 6.2558116926e+00 -1.6686152595e-02 1.6353058767e+00 -2.8324328644e+00 1.6353058767e+00 2.8324328644e+00 
11400 6.2557771825e+00 -1.6228583496e-02 1.6358160877e+00 -2.8333165758e+00 1.6358160877e+00 2.8333165758e+00 
11500 6.2557478396e+00 -1.5768523165e-02 1.6363121521e+00 -2.8341757846e+00 1.6363121521e+00 2.8341757846e+00 
11600 6.2557233739e+00 -1.5306559567e-02 1.6367940069e+00 -2.8350103815e+00 1.6367940069e+00 2.8350103815e+00 
11700 6.2557034965e+00 -1.4843269735e-02 1.6372616066e+00 -2.8358202880e+00 1.6372616066e+00 2.8358202880e+00 
11800 6.2556879210e+00 -1.4379219282e-02 1.6377149232e+00 -2.8366054552e+00 1.6377149232e+00 2.8366054552e+00 
11900 6.2556763639e+00 -1.3914961921e-02 1.6381539453e+00 -2.8373658638e+00 1.6381539453e+00 2.8373658638e+00 
12000 6.2556685454e+00 -1.3451039009e-02 1.6385786783e+00 -2.8381015231e+00 1.6385786783e+00 2.8381015231e+00 
12100 6.2556641902e+00 -1.2987979107e-02 1.6389891438e+00 -2.8388124702e+00 1.6389891438e+00 2.8388124702e+00 
12200 6.2556630281e+00 -1.2526297558e-02 1.6393853790e+00 -2.8394987696e+00 1.6393853790e+00 2.8394987696e+00 
12300 6.2556647943e+00 -1.2066496086e-02 1.6397674363e+00 -2.8401605123e+00 1.6397674363e+00 2.8401605123e+00 
12400 6.2556692307e+00 -1.1609062415e-02 1.6401353832e+00 -2.8407978151e+00 1.6401353832e+00 2.8407978151e+00 
12500 6.2556760856e+00 -1.1154469913e-02 1.6404893016e+00 -2.8414108196e+00 1.6404893016e+00 2.8414108196e+00 
12600 6.2556851147e+00 -1.0703177248e-02 1.6408292872e+00 -2.8419996920e+00 1.6408292872e+00 2.8419996920e+00 
12700 6.2556960814e+00 -1.0255628083e-02 1.6411554494e+00 -2.8425646216e+00 1.6411554494e+00 2.8425646216e+00 
12800 6.2557087573e+00 -9.8122507794e-03 1.6414679108e+00 -2.8431058205e+00 1.6414679108e+00 2.8431058205e+00 
12900 6.2557229223e+00 -9.3734581333e-03 1.6417668063e+00 -2.8436235228e+00 1.6417668063e+00 2.8436235228e+00 
13000 6.2557383651e+00 -8.9396471343e-03 1.6420522832e+00 -2.8441179832e+00 1.6420522832e+00 2.8441179832e+00 
13100 6.2557548838e+00 -8.5111987486e-03 1.6423245003e+00 -2.8445894771e+00 1.6423245003e+00 2.8445894771e+00 
13200 6.2557722853e+00 -8.0884777287e-03 1.6425836276e+00 -2.8450382988e+00 1.6425836276e+00 2.8450382988e+00 
13300 6.2557903863e+00 -7.6718324488e-03 1.6428298458e+00 -2.8454647612e+00 1.6428298458e+00 2.8454647612e+00 
13400 6.2558090131e+00 -7.2615947662e-03 1.6430633458e+00 -2.8458691950e+00 1.6430633458e+00 2.8458691950e+00 
13500 6.2558280016e+00 -6.8580799091e-03 1.6432843281e+00 -2.8462519475e+00 1.6432843281e+00 2.8462519475e+00 
13600 6.2558471977e+00 -6.4615863913e-03 1.6434930024e+00 -2.8466133821e+00 1.6434930024e+00 2.8466133821e+00 
13700 6.2558664570e+00 -6.0723959528e-03 1.6436895872e+00 -2.8469538769e+00 1.6436895872e+00 2.8469538769e+00 
13800 6.2558856450e+00 -5.6907735277e-03 1.6438743091e+00 -2.8472738247e+00 1.6438743091e+00 2.8472738247e+00 
13900 6.2559046369e+00 -5.3169672378e-03 1.6440474025e+00 -2.8475736311e+00 1.6440474025e+00 2.8475736311e+00 
14000 6.2559233179e+00 -4.9512084135e-03 1.6442091087e+00 -2.8478537145e+00 1.6442091087e+00 2.8478537145e+00 
14100 6.2559415825e+00 -4.5937116396e-03 1.6443596760e+00 -2.8481145048e+00 1.6443596760e+00 2.8481145048e+00 
14200 6.2559593348e+00 -4.2446748280e-03 1.6444993589e+00 -2.8483564426e+00 1.6444993589e+00 2.8483564426e+00 
14300 6.2559764883e+00 -3.9042793148e-03 1.6446284173e+00 -2.8485799784e+00 1.6446284173e+00 2.8485799784e+00 
14400 6.2559929654e+00 -3.5726899833e-03 1.6447471167e+00 -2.8487855717e+00 1.6447471167e+00 2.8487855717e+00 
14500 6.2560086978e+00 -3.2500554106e-03 1.6448557269e+00 -2.8489736902e+00 1.6448557269e+00 2.8489736902e+00 
14600 6.2560236255e+00 -2.9365080389e-03 1.6449545225e+00 -2.8491448091e+00 1.6449545225e+00 2.8491448091e+00 
14700 6.2560376970e+00 -2.6321643693e-03 1.6450437813e+00 -2.8492994099e+00 1.6450437813e+00 2.8492994099e+00 
14800 6.2560508690e+00 -2.3371251786e-03 1.6451237848e+00 -2.8494379801e+00 1.6451237848e+00 2.8494379801e+00 
14900 6.2560631060e+00 -2.0514757577e-03 1.6451948172e+00 -2.8495610118e+00 1.6451948172e+00 2.8495610118e+00 
15000 6.2560743799e+00 -1.7752861713e-03 1.6452571651e+00 -2.8496690015e+00 1.6452571651e+00 2.8496690015e+00 
15100 6.2560846699e+00 -1.5086115371e-03 1.6453111171e+00 -2.8497624490e+00 1.6453111171e+00 2.8497624490e+00 
15200 6.2560939619e+00 -1.2514923251e-03 1.6453569631e+00 -2.8498418566e+00 1.6453569631e+00 2.8498418566e+00 
15300 6.2561022486e+00 -1.0039546745e-03 1.6453949942e+00 -2.8499077285e+00 1.6453949942e+00 2.8499077285e+00 
15400 6.2561095284e+00 -7.6601072825e-04 1.6454255023e+00 -2.8499605701e+00 1.6454255023e+00 2.8499605701e+00 
15500 6.2561158057e+00 -5.3765898365e-04 1.6454487794e+00 -2.8500008871e+00 1.6454487794e+00 2.8500008871e+00 
15600 6.2561210903e+00 -3.1888465852e-04 1.6454651172e+00 -2.8500291850e+00 1.6454651172e+00 2.8500291850e+00 
15700 6.2561253969e+00 -1.0966007136e-04 1.6454748070e+00 -2.8500459683e+00 1.6454748070e+00 2.8500459683e+00 
15800 6.2561287450e+00 9.0054965449e-05 1.6454781392e+00 -2.8500517398e+00 1.6454781392e+00 2.8500517398e+00 
15900 6.2561311581e+00 2.8031274032e-04 1.6454754027e+00 -2.8500470001e+00 1.6454754027e+00 2.8500470001e+00 
16000 6.2561326640e+00 4.6117722640e-04 1.6454668850e+00 -2.8500322471e+00 1.6454668850e+00 2.8500322471e+00 
16100 6.2561332935e+00 6.3272365574e-04 1.6454528715e+00 -2.8500079749e+00 1.6454528715e+00 2.8500079749e+00 
16200 6.2561330812e+00 7.9503808487e-04 1.6454336451e+00 -2.8499746738e+00 1.6454336451e+00 2.8499746738e+00 
16300 6.2561320639e+00 9.4821695296e-04 1.6454094862e+00 -2.8499328294e+00 1.6454094862e+00 2.8499328294e+00 
16400 6.2561302812e+00 1.0923666336e-03 1.6453806723e+00 -2.8498829222e+00 1.6453806723e+00 2.8498829222e+00 
16500 6.2561277748e+00 1.2276029814e-03 1.6453474775e+00 -2.8498254271e+00 1.6453474775e+00 2.8498254271e+00 
16600 6.2561245880e+00 1.3540508747e-03 1.6453101723e+00 -2.8497608127e+00 1.6453101723e+00 2.8497608127e+00 
16700 6.2561207658e+00 1.4718437547e-03 1.6452690237e+00 -2.8496895412e+00 1.6452690237e+00 2.8496895412e+00 
16800 6.2561163541e+00 1.5811231633e-03 1.6452242943e+00 -2.8496120676e+00 1.6452242943e+00 2.8496120676e+00 
16900 6.2561113998e+00 1.6820382800e-03 1.6451762427e+00 -2.8495288397e+00 1.6451762427e+00 2.8495288397e+00 
17000 6.2561059504e+00 1.7747454584e-03 1.6451251226e+00 -2.8494402972e+00 1.6451251226e+00 2.8494402972e+00 
17100 6.2561000535e+00 1.8594077642e-03 1.6450711834e+00 -2.8493468717e+00 1.6450711834e+00 2.8493468717e+00 
17200 6.2560937570e+00 1.9361945158e-03 1.6450146692e+00 -2.8492489862e+00 1.6450146692e+00 2.8492489862e+00 
17300 6.2560871084e+00 2.0052808267e-03 1.6449558192e+00 -2.8491470550e+00 1.6449558192e+00 2.8491470550e+00 
17400 6.2560801548e+00 2.0668471531e-03 1.6448948671e+00 -2.8490414830e+00 1.6448948671e+00 2.8490414830e+00 
17500 6.2560729426e+00 2.1210788455e-03 1.6448320414e+00 -2.8489326656e+00 1.6448320414e+00 2.8489326656e+00 
17600 6.2560655174e+00 2.1681657061e-03 1.6447675648e+00 -2.8488209888e+00 1.6447675648e+00 2.8488209888e+00 
17700 6.2560579238e+00 2.2083015527e-03 1.6447016542e+00 -2.8487068284e+00 1.6447016542e+00 2.8487068284e+00 
17800 6.2560502052e+00 2.2416837892e-03 1.6446345209e+00 -2.8485905500e+00 1.6446345209e+00 2.8485905500e+00 
17900 6.2560424034e+00 2.2685129846e-03 1.6445663699e+00 -2.8484725091e+00 1.6445663699e+00 2.8484725091e+00 
18000 6.2560345590e+00 2.2889924596e-03 1.6444974004e+00 -2.8483530505e+00 1.6444974004e+00 2.8483530505e+00 
18100 6.2560267109e+00 2.3033278829e-03 1.6444278054e+00 -2.8482325084e+00 1.6444278054e+00 2.8482325084e+00 
18200 6.2560188960e+00 2.3117268763e-03 1.6443577716e+00 -2.8481112062e+00 1.6443577716e+00 2.8481112062e+00 
18300 6.2560111499e+00 2.3143986308e-03 1.6442874794e+00 -2.8479894566e+00 1.6442874794e+00 2.8479894566e+00 
18400 6.2560035057e+00 2.3115535319e-03 1.6442171030e+00 -2.8478675610e+00 1.6442171030e+00 2.8478675610e+00 
18500 6.2559959950e+00 2.3034027971e-03 1.6441468100e+00 -2.8477458100e+00 1.6441468100e+00 2.8477458100e+00 
18600 6.2559886471e+00 2.2901581237e-03 1.6440767619e+00 -2.8476244832e+00 1.6440767619e+00 2.8476244832e+00 
18700 6.2559814892e+00 2.2720313486e-03 1.6440071137e+00 -2.8475038489e+00 1.6440071137e+00 2.8475038489e+00 
18800 6.2559745467e+00 2.2492341197e-03 1.6439380137e+00 -2.8473841643e+00 1.6439380137e+00 2.8473841643e+00 
18900 6.2559678425e+00 2.2219775799e-03 1.6438696043e+00 -2.8472656756e+00 1.6438696043e+00 2.8472656756e+00 
19000 6.2559613976e+00 2.1904720623e-03 1.6438020210e+00 -2.8471486179e+00 1.6438020210e+00 2.8471486179e+00 
19100 6.2559552310e+00 2.1549267992e-03 1.6437353932e+00 -2.8470332152e+00 1.6437353932e+00 2.8470332152e+00 
19200 6.2559493592e+00 2.1155496422e-03 1.6436698440e+00 -2.8469196806e+00 1.6436698440e+00 2.8469196806e+00 
19300 6.2559437971e+00 2.0725467963e-03 1.6436054899e+00 -2.8468082161e+00 1.6436054899e+00 2.8468082161e+00 
19400 6.2559385572e+00 2.0261225650e-03 1.6435424415e+00 -2.8466990131e+00 1.6435424415e+00 2.8466990131e+00 
19500 6.2559336501e+00 1.9764791096e-03 1.6434808030e+00 -2.8465922521e+00 1.6434808030e+00 2.8465922521e+00 
19600 6.2559290845e+00 1.9238162201e-03 1.6434206725e+00 -2.8464881030e+00 1.6434206725e+00 2.8464881030e+00 
19700 6.2559248671e+00 1.8683310990e-03 1.6433621420e+00 -2.8463867252e+00 1.6433621420e+00 2.8463867252e+00 
19800 6.2559210030e+00 1.8102181573e-03 1.6433052976e+00 -2.8462882677e+00 1.6433052976e+00 2.8462882677e+00 
19900 6.2559174952e+00 1.7496688233e-03 1.6432502193e+00 -2.8461928694e+00 1.6432502193e+00 2.8461928694e+00 
20000 6.2559143453e+00 1.6868713628e-03 1.6431969815e+00 -2.8461006589e+00 1.6431969815e+00 2.8461006589e+00 
20100 6.2559115530e+00 1.6220107124e-03 1.6431456529e+00 -2.8460117550e+00 1.6431456529e+00 2.8460117550e+00 
20200 6.2559091167e+00 1.5552683232e-03 1.6430962962e+00 -2.8459262668e+00 1.6430962962e+00 2.8459262668e+00 
20300 6.2559070332e+00 1.4868220176e-03 1.6430489691e+00 -2.8458442938e+00 1.6430489691e+00 2.8458442938e+00 
20400 6.2559052980e+00 1.4168458563e-03 1.6430037235e+00 -2.8457659261e+00 1.6430037235e+00 2.8457659261e+00 
20500 6.2559039053e+00 1.3455100173e-03 1.6429606061e+00 -2.8456912446e+00 1.6429606061e+00 2.8456912446e+00 
20600 6.2559028482e+00 1.2729806850e-03 1.6429196586e+00 -2.8456203214e+00 1.6429196586e+00 2.8456203214e+00 
20700 6.2559021184e+00 1.1994199509e-03 1.6428809173e+00 -2.8455532195e+00 1.6428809173e+00 2.8455532195e+00 
20800 6.2559017070e+00 1.1249857234e-03 1.6428444139e+00 -2.8454899938e+00 1.6428444139e+00 2.8454899938e+00 
20900 6.2559016038e+00 1.0498316487e-03 1.6428101750e+00 -2.8454306903e+00 1.6428101750e+00 2.8454306903e+00 
21000 6.2559017981e+00 9.7410704092e-04 1.6427782228e+00 -2.8453753475e+00 1.6427782228e+00 2.8453753475e+00 
21100 6.2559022782e+00 8.9795682189e-04 1.6427485748e+00 -2.8453239955e+00 1.6427485748e+00 2.8453239955e+00 
21200 6.2559030319e+00 8.2152146978e-04 1.6427212439e+00 -2.8452766571e+00 1.6427212439e+00 2.8452766571e+00 
21300 6.2559040463e+00 7.4493697671e-04 1.6426962391e+00 -2.8452333475e+00 1.6426962391e+00 2.8452333475e+00 
21400 6.2559053082e+00 6.6833481493e-04 1.6426735649e+00 -2.8451940747e+00 1.6426735649e+00 2.8451940747e+00 
21500 6.2559068039e+00 5.9184191093e-04 1.6426532221e+00 -2.8451588398e+00 1.6426532221e+00 2.8451588398e+00 
21600 6.2559085194e+00 5.1558062759e-04 1.6426352073e+00 -2.8451276373e+00 1.6426352073e+00 2.8451276373e+00 
21700 6.2559104404e+00 4.3966875375e-04 1.6426195136e+00 -2.8451004550e+00 1.6426195136e+00 2.8451004550e+00 
21800 6.2559125526e+00 3.6421950098e-04 1.6426061304e+00 -2.8450772748e+00 1.6426061304e+00 2.8450772748e+00 
21900 6.2559148413e+00 2.8934150727e-04 1.6425950438e+00 -2.8450580722e+00 1.6425950438e+00 2.8450580722e+00 
22000 6.2559172922e+00 2.1513884722e-04 1.6425862364e+00 -2.8450428172e+00 1.6425862364e+00 2.8450428172e+00 
22100 6.2559198906e+00 1.4171104853e-04 1.6425796876e+00 -2.8450314744e+00 1.6425796876e+00 2.8450314744e+00 
22200 6.2559226223e+00 6.9153114426e-05 1.6425753739e+00 -2.8450240029e+00 1.6425753739e+00 2.8450240029e+00 
22300 6.2559254728e+00 2.3867568608e-07 1.6425753739e+00 -2.8450240029e+00 1.6425753739e+00 2.8450240029e+00 
22400 6.2559284280e+00 -7.0389677253e-05 1.6425753739e+00 -2.8450240029e+00 1.6425753739e+00 2.8450240029e+00 
22500 6.2559314750e+00 -1.4262740716e-04 1.6425753739e+00 -2.8450240029e+00 1.6425753739e+00 2.8450240029e+00 
22600 6.2559345995e+00 -2.1083826086e-04 1.6425797155e+00 -2.8450315227e+00 1.6425797155e+00 2.8450315227e+00 
22700 6.2559377887e+00 -2.7777123712e-04 1.6425861334e+00 -2.8450426389e+00 1.6425861334e+00 2.8450426389e+00 
22800 6.2559410298e+00 -3.4335769860e-04 1.6425945887e+00 -2.8450572839e+00 1.6425945887e+00 2.8450572839e+00 
22900 6.2559443105e+00 -4.0753323462e-04 1.6426050404e+00 -2.8450753868e+00 1.6426050404e+00 2.8450753868e+00 
23000 6.2559476190e+00 -4.7023760164e-04 1.6426174455e+00 -2.8450968731e+00 1.6426174455e+00 2.8450968731e+00 
23100 6.2559509440e+00 -5.3141466021e-04 1.6426317592e+00 -2.8451216651e+00 1.6426317592e+00 2.8451216651e+00 
23200 6.2559542745e+00 -5.9101230875e-04 1.6426479350e+00 -2.8451496823e+00 1.6426479350e+00 2.8451496823e+00 
23300 6.2559576002e+00 -6.4898241442e-04 1.6426659246e+00 -2.8451808413e+00 1.6426659246e+00 2.8451808413e+00 
23400 6.2559609114e+00 -7.0528074119e-04 1.6426856786e+00 -2.8452150562e+00 1.6426856786e+00 2.8452150562e+00 
23500 6.2559641988e+00 -7.5986687536e-04 1.6427071459e+00 -2.8452522387e+00 1.6427071459e+00 2.8452522387e+00 
23600 6.2559674538e+00 -8.1270414890e-04 1.6427302745e+00 -2.8452922985e+00 1.6427302745e+00 2.8452922985e+00 
23700 6.2559706682e+00 -8.6375956057e-04 1.6427550109e+00 -2.8453351433e+00 1.6427550109e+00 2.8453351433e+00 
23800 6.2559738345e+00 -9.1300369516e-04 1.6427813010e+00 -2.8453806790e+00 1.6427813010e+00 2.8453806790e+00 
23900 6.2559769458e+00 -9.6041064105e-04 1.6428090894e+00 -2.8454288100e+00 1.6428090894e+00 2.8454288100e+00 
24000 6.2559799957e+00 -1.0059579062e-03 1.6428383202e+00 -2.8454794393e+00 1.6428383202e+00 2.8454794393e+00 
24100 6.2559829784e+00 -1.0496263326e-03 1.6428689368e+00 -2.8455324687e+00 1.6428689368e+00 2.8455324687e+00 
24200 6.2559858887e+00 -1.0914000102e-03 1.6429008818e+00 -2.8455877991e+00 1.6429008818e+00 2.8455877991e+00 
24300 6.2559887219e+00 -1.1312661886e-03 1.6429340976e+00 -2.8456453305e+00 1.6429340976e+00 2.8456453305e+00 
24400 6.2559914738e+00 -1.1692151890e-03 1.6429685259e+00 -2.8457049621e+00 1.6429685259e+00 2.8457049621e+00 
24500 6.2559941410e+00 -1.2052403150e-03 1.6430041084e+00 -2.8457665929e+00 1.6430041084e+00 2.8457665929e+00 
24600 6.2559967203e+00 -1.2393377625e-03 1.6430407865e+00 -2.8458301212e+00 1.6430407865e+00 2.8458301212e+00 
24700 6.2559992091e+00 -1.2715065294e-03 1.6430785014e+00 -2.8458954453e+00 1.6430785014e+00 2.8458954453e+00 
24800 6.2560016054e+00 -1.3017483253e-03 1.6431171944e+00 -2.8459624635e+00 1.6431171944e+00 2.8459624635e+00 
24900 6.2560039077e+00 -1.3300674801e-03 1.6431568067e+00 -2.8460310740e+00 1.6431568067e+00 2.8460310740e+00 
25000 6.2560061146e+00 -1.3564708534e-03 1.6431972798e+00 -2.8461011755e+00 1.6431972798e+00 2.8461011755e+00 
25100 6.2560082256e+00 -1.3809677436e-03 1.6432385553e+00 -2.8461726668e+00 1.6432385553e+00 2.8461726668e+00 
25200 6.2560102404e+00 -1.4035697966e-03 1.6432805752e+00 -2.8462454473e+00 1.6432805752e+00 2.8462454473e+00 
25300 6.2560121589e+00 -1.4242909156e-03 1.6433232817e+00 -2.8463194172e+00 1.6433232817e+00 2.8463194172e+00 
25400 6.2560139817e+00 -1.4431471707e-03 1.6433666176e+00 -2.8463944771e+00 1.6433666176e+00 2.8463944771e+00 
25500 6.2560157096e+00 -1.4601567086e-03 1.6434105260e+00 -2.8464705288e+00 1.6434105260e+00 2.8464705288e+00 
25600 6.2560173437e+00 -1.4753396636e-03 1.6434549508e+00 -2.8465474748e+00 1.6434549508e+00 2.8465474748e+00 
25700 6.2560188855e+00 -1.4887180685e-03 1.6434998363e+00 -2.8466252188e+00 1.6434998363e+00 2.8466252188e+00 
25800 6.2560203365e+00 -1.5003157666e-03 1.6435451276e+00 -2.8467036656e+00 1.6435451276e+00 2.8467036656e+00 
25900 6.2560216989e+00 -1.5101583237e-03 1.6435907705e+00 -2.8467827214e+00 1.6435907705e+00 2.8467827214e+00 
26000 6.2560229747e+00 -1.5182729419e-03 1.6436367116e+00 -2.8468622936e+00 1.6436367116e+00 2.8468622936e+00 
26100 6.2560241664e+00 -1.5246883734e-03 1.6436828982e+00 -2.8469422912e+00 1.6436828982e+00 2.8469422912e+00 
26200 6.2560252765e+00 -1.5294348359e-03 1.6437292786e+00 -2.8470226245e+00 1.6437292786e+00 2.8470226245e+00 
26300 6.2560263079e+00 -1.5325439282e-03 1.6437758022e+00 -2.8471032056e+00 1.6437758022e+00 2.8471032056e+00 
26400 6.2560272633e+00 -1.5340485477e-03 1.6438224190e+00 -2.8471839483e+00 1.6438224190e+00 2.8471839483e+00 
26500 6.2560281459e+00 -1.5339828082e-03 1.6438690802e+00 -2.8472647679e+00 1.6438690802e+00 2.8472647679e+00 
26600 6.2560289587e+00 -1.5323819595e-03 1.6439157381e+00 -2.8473455818e+00 1.6439157381e+00 2.8473455818e+00 
26700 6.2560297050e+00 -1.5292823079e-03 1.6439623460e+00 -2.8474263090e+00 1.6439623460e+00 2.8474263090e+00 
26800 6.2560303880e+00 -1.5247211377e-03 1.6440088583e+00 -2.8475068707e+00 1.6440088583e+00 2.8475068707e+00 
26900 6.2560310110e+00 -1.5187366344e-03 1.6440552306e+00 -2.8475871898e+00 1.6440552306e+00 2.8475871898e+00 
27000 6.2560315774e+00 -1.5113678092e-03 1.6441014195e+00 -2.8476671915e+00 1.6441014195e+00 2.8476671915e+00 
27100 6.2560320905e+00 -1.5026544241e-03 1.6441473831e+00 -2.8477468027e+00 1.6441473831e+00 2.8477468027e+00 
27200 6.2560325537e+00 -1.4926369200e-03 1.6441930804e+00 -2.8478259527e+00 1.6441930804e+00 2.8478259527e+00 
27300 6.2560329704e+00 -1.4813563441e-03 1.6442384718e+00 -2.8479045729e+00 1.6442384718e+00 2.8479045729e+00 
27400 6.2560333439e+00 -1.4688542807e-03 1.6442835189e+00 -2.8479825967e+00 1.6442835189e+00 2.8479825967e+00 
27500 6.2560336774e+00 -1.4551727822e-03 1.6443281845e+00 -2.8480599599e+00 1.6443281845e+00 2.8480599599e+00 
27600 6.2560339741e+00 -1.4403543026e-03 1.6443724330e+00 -2.8481366005e+00 1.6443724330e+00 2.8481366005e+00 
27700 6.2560342373e+00 -1.4244416312e-03 1.6444162296e+00 -2.8482124585e+00 1.6444162296e+00 2.8482124585e+00 
27800 6.2560344700e+00 -1.4074778294e-03 1.6444595413e+00 -2.8482874765e+00 1.6444595413e+00 2.8482874765e+00 
27900 6.2560346751e+00 -1.3895061681e-03 1.6445023360e+00 -2.8483615992e+00 1.6445023360e+00 2.8483615992e+00 
28000 6.2560348557e+00 -1.3705700669e-03 1.6445445832e+00 -2.8484347735e+00 1.6445445832e+00 2.8484347735e+00 
28100 6.2560350145e+00 -1.3507130352e-03 1.6445862536e+00 -2.8485069487e+00 1.6445862536e+00 2.8485069487e+00 
28200 6.2560351541e+00 -1.3299786143e-03 1.6446273192e+00 -2.8485780764e+00 1.6446273192e+00 2.8485780764e+00 
28300 6.2560352773e+00 -1.3084103221e-03 1.6446677534e+00 -2.8486481105e+00 1.6446677534e+00 2.8486481105e+00 
28400 6.2560353865e+00 -1.2860515984e-03 1.6447075309e+00 -2.8487170071e+00 1.6447075309e+00 2.8487170071e+00 
28500 6.2560354840e+00 -1.2629457528e-03 1.6447466277e+00 -2.8487847248e+00 1.6447466277e+00 2.8487847248e+00 
28600 6.2560355720e+00 -1.2391359138e-03 1.6447850212e+00 -2.8488512243e+00 1.6447850212e+00 2.8488512243e+00 
28700 6.2560356528e+00 -1.2146649793e-03 1.6448226900e+00 -2.8489164685e+00 1.6448226900e+00 2.8489164685e+00 
28800 6.2560357281e+00 -1.1895755698e-03 1.6448596140e+00 -2.8489804228e+00 1.6448596140e+00 2.8489804228e+00 
28900 6.2560358000e+00 -1.1639099821e-03 1.6448957745e+00 -2.8490430547e+00 1.6448957745e+00 2.8490430547e+00 
29000 6.2560358701e+00 -1.1377101454e-03 1.6449311541e+00 -2.8491043339e+00 1.6449311541e+00 2.8491043339e+00 
29100 6.2560359400e+00 -1.1110175791e-03 1.6449657365e+00 -2.8491642324e+00 1.6449657365e+00 2.8491642324e+00 
29200 6.2560360112e+00 -1.0838733521e-03 1.6449995069e+00 -2.8492227244e+00 1.6449995069e+00 2.8492227244e+00 
29300 6.2560360850e+00 -1.0563180437e-03 1.6450324515e+00 -2.8492797861e+00 1.6450324515e+00 2.8492797861e+00 
29400 6.2560361627e+00 -1.0283917065e-03 1.6450645579e+00 -2.8493353960e+00 1.6450645579e+00 2.8493353960e+00 
29500 6.2560362453e+00 -1.0001338308e-03 1.6450958149e+00 -2.8493895347e+00 1.6450958149e+00 2.8493895347e+00 
29600 6.2560363338e+00 -9.7158331067e-04 1.6451262124e+00 -2.8494421847e+00 1.6451262124e+00 2.8494421847e+00 
29700 6.2560364291e+00 -9.4277841188e-04 1.6451557416e+00 -2.8494933309e+00 1.6451557416e+00 2.8494933309e+00 
29800 6.2560365318e+00 -9.1375674116e-04 1.6451843949e+00 -2.8495429597e+00 1.6451843949e+00 2.8495429597e+00 
29900 6.2560366427e+00 -8.8455521742e-04 1.6452121656e+00 -2.8495910601e+00 1.6452121656e+00 2.8495910601e+00 
30000 6.2560367623e+00 -8.5521004453e-04 1.6452390484e+00 -2.8496376224e+00 1.6452390484e+00 2.8496376224e+00 
30100 6.2560368909e+00 -8.2575668564e-04 1.6452650389e+00 -2.8496826393e+00 1.6452650389e+00 2.8496826393e+00 
30200 6.2560370289e+00 -7.9622983925e-04 1.6452901339e+00 -2.8497261051e+00 1.6452901339e+00 2.8497261051e+00 
30300 6.2560371766e+00 -7.6666341675e-04 1.6453143312e+00 -2.8497680161e+00 1.6453143312e+00 2.8497680161e+00 
30400 6.2560373341e+00 -7.3709052166e-04 1.6453376297e+00 -2.8498083702e+00 1.6453376297e+00 2.8498083702e+00 
30500 6.2560375015e+00 -7.0754343031e-04 1.6453600291e+00 -2.8498471671e+00 1.6453600291e+00 2.8498471671e+00 
30600 6.2560376786e+00 -6.7805357422e-04 1.6453815303e+00 -2.8498844083e+00 1.6453815303e+00 2.8498844083e+00 
30700 6.2560378656e+00 -6.4865152385e-04 1.6454021351e+00 -2.8499200969e+00 1.6454021351e+00 2.8499200969e+00 
30800 6.2560380621e+00 -6.1936697394e-04 1.6454218462e+00 -2.8499542374e+00 1.6454218462e+00 2.8499542374e+00 
30900 6.2560382681e+00 -5.9022873033e-04 1.6454406671e+00 -2.8499868363e+00 1.6454406671e+00 2.8499868363e+00 
31000 6.2560384831e+00 -5.6126469819e-04 1.6454586024e+00 -2.8500179012e+00 1.6454586024e+00 2.8500179012e+00 
31100 6.2560387070e+00 -5.3250187173e-04 1.6454756574e+00 -2.8500474413e+00 1.6454756574e+00 2.8500474413e+00 
31200 6.2560389392e+00 -5.0396632528e-04 1.6454918382e+00 -2.8500754673e+00 1.6454918382e+00 2.8500754673e+00 
31300 6.2560391795e+00 -4.7568320578e-04 1.6455071518e+00 -2.8501019912e+00 1.6455071518e+00 2.8501019912e+00 
31400 6.2560394272e+00 -4.4767672656e-04 1.6455216058e+00 -2.8501270263e+00 1.6455216058e+00 2.8501270263e+00 
31500 6.2560396821e+00 -4.1997016254e-04 1.6455352087e+00 -2.8501505872e+00 1.6455352087e+00 2.8501505872e+00 
31600 6.2560399435e+00 -3.9258584665e-04 1.6455479696e+00 -2.8501726897e+00 1.6455479696e+00 2.8501726897e+00 
31700 6.2560402108e+00 -3.6554516751e-04 1.6455598984e+00 -2.8501933509e+00 1.6455598984e+00 2.8501933509e+00 
31800 6.2560404837e+00 -3.3886856839e-04 1.6455710054e+00 -2.8502125888e+00 1.6455710054e+00 2.8502125888e+00 
31900 6.2560407613e+00 -3.1257554735e-04 1.6455813018e+00 -2.8502304227e+00 1.6455813018e+00 2.8502304227e+00 
32000 6.2560410433e+00 -2.8668465850e-04 1.6455907992e+00 -2.8502468727e+00 1.6455907992e+00 2.8502468727e+00 
32100 6.2560413289e+00 -2.6121351451e-04 1.6455995099e+00 -2.8502619601e+00 1.6455995099e+00 2.8502619601e+00 
32200 6.2560416177e+00 -2.3617879008e-04 1.6456074467e+00 -2.8502757069e+00 1.6456074467e+00 2.8502757069e+00 
32300 6.2560419089e+00 -2.1159622659e-04 1.6456146227e+00 -2.8502881362e+00 1.6456146227e+00 2.8502881362e+00 
32400 6.2560422020e+00 -1.8748063774e-04 1.6456210518e+00 -2.8502992717e+00 1.6456210518e+00 2.8502992717e+00 
32500 6.2560424964e+00 -1.6384591620e-04 1.6456267482e+00 -2.8503091381e+00 1.6456267482e+00 2.8503091381e+00 
32600 6.2560427915e+00 -1.4070504120e-04 1.6456317264e+00 -2.8503177607e+00 1.6456317264e+00 2.8503177607e+00 
32700 6.2560430868e+00 -1.1807008707e-04 1.6456360015e+00 -2.8503251654e+00 1.6456360015e+00 2.8503251654e+00 
32800 6.2560433816e+00 -9.5952232689e-05 1.6456395889e+00 -2.8503313789e+00 1.6456395889e+00 2.8503313789e+00 
32900 6.2560436755e+00 -7.4361771757e-05 1.6456425042e+00 -2.8503364284e+00 1.6456425042e+00 2.8503364284e+00 
33000 6.2560439680e+00 -5.3308123920e-05 1.6456447636e+00 -2.8503403417e+00 1.6456447636e+00 2.8503403417e+00 
33100 6.2560442584e+00 -3.4851507721e-05 1.6456447636e+00 -2.8503403417e+00 1.6456447636e+00 2.8503403417e+00 
33200 6.2560445463e+00 -1.6172536178e-05 1.6456447636e+00 -2.8503403417e+00 1.6456447636e+00 2.8503403417e+00 
33300 6.2560448312e+00 2.7057820390e-06 1.6456447636e+00 -2.8503403417e+00 1.6456447636e+00 2.8503403417e+00 
33400 6.2560451127e+00 2.1760955001e-05 1.6456447636e+00 -2.8503403417e+00 1.6456447636e+00 2.8503403417e+00 
33500 6.2560453905e+00 4.0971010680e-05 1.6456447636e+00 -2.8503403417e+00 1.6456447636e+00 2.8503403417e+00 
33600 6.2560456643e+00 6.0314499690e-05 1.6456447636e+00 -2.8503403417e+00 1.6456447636e+00 2.8503403417e+00 
33700 6.2560459336e+00 7.9770497593e-05 1.6456447636e+00 -2.8503403417e+00 1.6456447636e+00 2.8503403417e+00 
33800 6.2560461979e+00 9.6248035028e-05 1.6456423399e+00 -2.8503361438e+00 1.6456423399e+00 2.8503361438e+00 
33900 6.2560464571e+00 1.1214273912e-04 1.6456394156e+00 -2.8503310787e+00 1.6456394156e+00 2.8503310787e+00 
34000 6.2560467108e+00 1.2745308663e-04 1.6456360083e+00 -2.8503251771e+00 1.6456360083e+00 2.8503251771e+00 
34100 6.2560469587e+00 1.4217826625e-04 1.6456321358e+00 -2.8503184698e+00 1.6456321358e+00 2.8503184698e+00 
34200 6.2560472007e+00 1.5631816021e-04 1.6456278160e+00 -2.8503109876e+00 1.6456278160e+00 2.8503109876e+00 
34300 6.2560474366e+00 1.6987332558e-04 1.6456230665e+00 -2.8503027612e+00 1.6456230665e+00 2.8503027612e+00 
34400 6.2560476661e+00 1.8284497531e-04 1.6456179051e+00 -2.8502938215e+00 1.6456179051e+00 2.8502938215e+00 
34500 6.2560478892e+00 1.9523495884e-04 1.6456123496e+00 -2.8502841991e+00 1.6456123496e+00 2.8502841991e+00 
34600 6.2560481056e+00 2.0704574264e-04 1.6456064176e+00 -2.8502739246e+00 1.6456064176e+00 2.8502739246e+00 
34700 6.2560483154e+00 2.1828039035e-04 1.6456001268e+00 -2.8502630285e+00 1.6456001268e+00 2.8502630285e+00 
34800 6.2560485184e+00 2.2894254289e-04 1.6455934945e+00 -2.8502515411e+00 1.6455934945e+00 2.8502515411e+00 
34900 6.2560487146e+00 2.3903639828e-04 1.6455865383e+00 -2.8502394926e+00 1.6455865383e+00 2.8502394926e+00 
35000 6.2560489040e+00 2.4856669139e-04 1.6455792753e+00 -2.8502269128e+00 1.6455792753e+00 2.8502269128e+00 
35100 6.2560490865e+00 2.5753867362e-04 1.6455717228e+00 -2.8502138314e+00 1.6455717228e+00 2.8502138314e+00 
35200 6.2560492622e+00 2.6595809243e-04 1.6455638976e+00 -2.8502002777e+00 1.6455638976e+00 2.8502002777e+00 
35300 6.2560494311e+00 2.7383117091e-04 1.6455558165e+00 -2.8501862809e+00 1.6455558165e+00 2.8501862809e+00 
35400 6.2560495933e+00 2.8116458727e-04 1.6455474962e+00 -2.8501718697e+00 1.6455474962e+00 2.8501718697e+00 
35500 6.2560497488e+00 2.8796545435e-04 1.6455389530e+00 -2.8501570725e+00 1.6455389530e+00 2.8501570725e+00 
35600 6.2560498978e+00 2.9424129925e-04 1.6455302032e+00 -2.8501419173e+00 1.6455302032e+00 2.8501419173e+00 
35700 6.2560500403e+00 3.0000004286e-04 1.6455212625e+00 -2.8501264317e+00 1.6455212625e+00 2.8501264317e+00 
35800 6.2560501765e+00 3.0524997965e-04 1.6455121469e+00 -2.8501106429e+00 1.6455121469e+00 2.8501106429e+00 
35900 6.2560503065e+00 3.0999975742e-04 1.6455028717e+00 -2.8500945778e+00 1.6455028717e+00 2.8500945778e+00 
36000 6.2560504304e+00 3.1425835733e-04 1.6454934521e+00 -2.8500782625e+00 1.6454934521e+00 2.8500782625e+00 
36100 6.2560505484e+00 3.1803507392e-04 1.6454839030e+00 -2.8500617231e+00 1.6454839030e+00 2.8500617231e+00 
36200 6.2560506606e+00 3.2133949546e-04 1.6454742392e+00 -2.8500449848e+00 1.6454742392e+00 2.8500449848e+00 
36300 6.2560507674e+00 3.2418148438e-04 1.6454644748e+00 -2.8500280725e+00 1.6454644748e+00 2.8500280725e+00 
36400 6.2560508687e+00 3.2657115797e-04 1.6454546241e+00 -2.8500110105e+00 1.6454546241e+00 2.8500110105e+00 
36500 6.2560509648e+00 3.2851886933e-04 1.6454447007e+00 -2.8499938226e+00 1.6454447007e+00 2.8499938226e+00 
36600 6.2560510560e+00 3.3003518848e-04 1.6454347180e+00 -2.8499765321e+00 1.6454347180e+00 2.8499765321e+00 
36700 6.2560511423e+00 3.3113088388e-04 1.6454246892e+00 -2.8499591617e+00 1.6454246892e+00 2.8499591617e+00 
36800 6.2560512241e+00 3.3181690408e-04 1.6454146270e+00 -2.8499417335e+00 1.6454146270e+00 2.8499417335e+00 
36900 6.2560513015e+00 3.3210435979e-04 1.6454045440e+00 -2.8499242691e+00 1.6454045440e+00 2.8499242691e+00 
37000 6.2560513747e+00 3.3200450618e-04 1.6453944521e+00 -2.8499067895e+00 1.6453944521e+00 2.8499067895e+00 
37100 6.2560514439e+00 3.3152872557e-04 1.6453843632e+00 -2.8498893150e+00 1.6453843632e+00 2.8498893150e+00 
37200 6.2560515094e+00 3.3068851041e-04 1.6453742887e+00 -2.8498718655e+00 1.6453742887e+00 2.8498718655e+00 
37300 6.2560515713e+00 3.2949544664e-04 1.6453642397e+00 -2.8498544601e+00 1.6453642397e+00 2.8498544601e+00 
37400 6.2560516298e+00 3.2796119737e-04 1.6453542268e+00 -2.8498371173e+00 1.6453542268e+00 2.8498371173e+00 
37500 6.2560516852e+00 3.2609748699e-04 1.6453442606e+00 -2.8498198553e+00 1.6453442606e+00 2.8498198553e+00 
37600 6.2560517377e+00 3.2391608565e-04 1.6453343509e+00 -2.8498026912e+00 1.6453343509e+00 2.8498026912e+00 
37700 6.2560517874e+00 3.2142879404e-04 1.6453245074e+00 -2.8497856418e+00 1.6453245074e+00 2.8497856418e+00 
37800 6.2560518345e+00 3.1864742871e-04 1.6453147395e+00 -2.8497687232e+00 1.6453147395e+00 2.8497687232e+00 
37900 6.2560518793e+00 3.1558380770e-04 1.6453050560e+00 -2.8497519510e+00 1.6453050560e+00 2.8497519510e+00 
38000 6.2560519218e+00 3.1224973655e-04 1.6452954656e+00 -2.8497353399e+00 1.6452954656e+00 2.8497353399e+00 
38100 6.2560519624e+00 3.0865699485e-04 1.6452859764e+00 -2.8497189042e+00 1.6452859764e+00 2.8497189042e+00 
38200 6.2560520011e+00 3.0481732311e-04 1.6452765964e+00 -2.8497026575e+00 1.6452765964e+00 2.8497026575e+00 
38300 6.2560520381e+00 3.0074241006e-04 1.6452673330e+00 -2.8496866128e+00 1.6452673330e+00 2.8496866128e+00 
38400 6.2560520736e+00 2.9644388041e-04 1.6452581934e+00 -2.8496707825e+00 1.6452581934e+00 2.8496707825e+00 
38500 6.2560521077e+00 2.9193328305e-04 1.6452491844e+00 -2.8496551784e+00 1.6452491844e+00 2.8496551784e+00 
38600 6.2560521406e+00 2.8722207963e-04 1.6452403124e+00 -2.8496398117e+00 1.6452403124e+00 2.8496398117e+00 
38700 6.2560521723e+00 2.8232163364e-04 1.6452315835e+00 -2.8496246928e+00 1.6452315835e+00 2.8496246928e+00 
38800 6.2560522032e+00 2.7724319984e-04 1.6452230035e+00 -2.8496098318e+00 1.6452230035e+00 2.8496098318e+00 
38900 6.2560522331e+00 2.7199791422e-04 1.6452145778e+00 -2.8495952381e+00 1.6452145778e+00 2.8495952381e+00 
39000 6.2560522624e+00 2.6659678435e-04 1.6452063115e+00 -2.8495809204e+00 1.6452063115e+00 2.8495809204e+00 
39100 6.2560522910e+00 2.6105068012e-04 1.6451982092e+00 -2.8495668869e+00 1.6451982092e+00 2.8495668869e+00 
39200 6.2560523191e+00 2.5537032500e-04 1.6451902755e+00 -2.8495531454e+00 1.6451902755e+00 2.8495531454e+00 
39300 6.2560523468e+00 2.4956628767e-04 1.6451825144e+00 -2.8495397027e+00 1.6451825144e+00 2.8495397027e+00 
39400 6.2560523742e+00 2.4364897408e-04 1.6451749297e+00 -2.8495265655e+00 1.6451749297e+00 2.8495265655e+00 
39500 6.2560524013e+00 2.3762861999e-04 1.6451675247e+00 -2.8495137398e+00 1.6451675247e+00 2.8495137398e+00 
39600 6.2560524282e+00 2.3151528383e-04 1.6451603027e+00 -2.8495012309e+00 1.6451603027e+00 2.8495012309e+00 
39700 6.2560524549e+00 2.2531884008e-04 1.6451532665e+00 -2.8494890437e+00 1.6451532665e+00 2.8494890437e+00 
39800 6.2560524816e+00 2.1904897302e-04 1.6451464185e+00 -2.8494771827e+00 1.6451464185e+00 2.8494771827e+00 
39900 6.2560525083e+00 2.1271517087e-04 1.6451397611e+00 -2.8494656517e+00 1.6451397611e+00 2.8494656517e+00 
40000 6.2560525350e+00 2.0632672036e-04 1.6451332961e+00 -2.8494544541e+00 1.6451332961e+00 2.8494544541e+00 
40100 6.2560525618e+00 1.9989270171e-04 1.6451270253e+00 -2.8494435927e+00 1.6451270253e+00 2.8494435927e+00 
40200 6.2560525887e+00 1.9342198395e-04 1.6451209500e+00 -2.8494330700e+00 1.6451209500e+00 2.8494330700e+00 
40300 6.2560526157e+00 1.8692322069e-04 1.6451150714e+00 -2.8494228879e+00 1.6451150714e+00 2.8494228879e+00 
40400 6.2560526429e+00 1.8040484623e-04 1.6451093902e+00 -2.8494130479e+00 1.6451093902e+00 2.8494130479e+00 
40500 6.2560526702e+00 1.7387507206e-04 1.6451039071e+00 -2.8494035509e+00 1.6451039071e+00 2.8494035509e+00 
40600 6.2560526977e+00 1.6734188368e-04 1.6450986225e+00 -2.8493943977e+00 1.6450986225e+00 2.8493943977e+00 
40700 6.2560527254e+00 1.6081303791e-04 1.6450935365e+00 -2.8493855883e+00 1.6450935365e+00 2.8493855883e+00 
40800 6.2560527534e+00 1.5429606035e-04 1.6450886488e+00 -2.8493771227e+00 1.6450886488e+00 2.8493771227e+00 
40900 6.2560527815e+00 1.4779824340e-04 1.6450839592e+00 -2.8493690001e+00 1.6450839592e+00 2.8493690001e+00 
41000 6.2560528098e+00 1.4132664443e-04 1.6450794671e+00 -2.8493612195e+00 1.6450794671e+00 2.8493612195e+00 
41100 6.2560528382e+00 1.3488808442e-04 1.6450751717e+00 -2.8493537796e+00 1.6450751717e+00 2.8493537796e+00 
41200 6.2560528669e+00 1.2848914683e-04 1.6450710719e+00 -2.8493466786e+00 1.6450710719e+00 2.8493466786e+00 
41300 6.2560528957e+00 1.2213617682e-04 1.6450671666e+00 -2.8493399145e+00 1.6450671666e+00 2.8493399145e+00 
41400 6.2560529247e+00 1.1583528078e-04 1.6450634544e+00 -2.8493334848e+00 1.6450634544e+00 2.8493334848e+00 
41500 6.2560529538e+00 1.0959232614e-04 1.6450599337e+00 -2.8493273867e+00 1.6450599337e+00 2.8493273867e+00 
41600 6.2560529830e+00 1.0341294144e-04 1.6450566028e+00 -2.8493216174e+00 1.6450566028e+00 2.8493216174e+00 
41700 6.2560530123e+00 9.7302516775e-05 1.6450534597e+00 -2.8493161733e+00 1.6450534597e+00 2.8493161733e+00 
41800 6.2560530417e+00 9.1266204369e-05 1.6450505022e+00 -2.8493110509e+00 1.6450505022e+00 2.8493110509e+00 
41900 6.2560530711e+00 8.5308919531e-05 1.6450477283e+00 -2.8493062462e+00 1.6450477283e+00 2.8493062462e+00 
42000 6.2560531005e+00 7.9435341801e-05 1.6450451354e+00 -2.8493017552e+00 1.6450451354e+00 2.8493017552e+00 
42100 6.2560531299e+00 7.3649916347e-05 1.6450427210e+00 -2.8492975734e+00 1.6450427210e+00 2.8492975734e+00 
42200 6.2560531593e+00 6.7956855606e-05 1.6450404824e+00 -2.8492936961e+00 1.6450404824e+00 2.8492936961e+00 
42300 6.2560531888e+00 6.4979925759e-05 1.6450404824e+00 -2.8492936961e+00 1.6450404824e+00 2.8492936961e+00 
42400 6.2560532182e+00 6.1904978701e-05 1.6450404824e+00 -2.8492936961e+00 1.6450404824e+00 2.8492936961e+00 
42500 6.2560532474e+00 5.8738200232e-05 1.6450404824e+00 -2.8492936961e+00 1.6450404824e+00 2.8492936961e+00 
42600 6.2560532764e+00 5.5485664581e-05 1.6450404824e+00 -2.8492936961e+00 1.6450404824e+00 2.8492936961e+00 
42700 6.2560533052e+00 5.2153333042e-05 1.6450404824e+00 -2.8492936961e+00 1.6450404824e+00 2.8492936961e+00 
42800 6.2560533338e+00 4.8747052735e-05 1.6450404824e+00 -2.8492936961e+00 1.6450404824e+00 2.8492936961e+00 
42900 6.2560533621e+00 4.5272555446e-05 1.6450404824e+00 -2.8492936961e+00 1.6450404824e+00 2.8492936961e+00 
43000 6.2560533902e+00 4.1735456580e-05 1.6450404824e+00 -2.8492936961e+00 1.6450404824e+00 2.8492936961e+00 
43100 6.2560534180e+00 3.8141254215e-05 1.6450404824e+00 -2.8492936961e+00 1.6450404824e+00 2.8492936961e+00 
43200 6.2560534455e+00 3.4495328252e-05 1.6450404824e+00 -2.8492936961e+00 1.6450404824e+00 2.8492936961e+00 
43300 6.2560534726e+00 3.0802939656e-05 1.6450404824e+00 -2.8492936961e+00 1.6450404824e+00 2.8492936961e+00 
43400 6.2560534995e+00 2.7069229810e-05 1.6450404824e+00 -2.8492936961e+00 1.6450404824e+00 2.8492936961e+00 
43500 6.2560535259e+00 2.3299219953e-05 1.6450404824e+00 -2.8492936961e+00 1.6450404824e+00 2.8492936961e+00 
43600 6.2560535520e+00 1.9497810696e-05 1.6450404824e+00 -2.8492936961e+00 1.6450404824e+00 2.8492936961e+00 
43700 6.2560535777e+00 1.5669781666e-05 1.6450404824e+00 -2.8492936961e+00 1.6450404824e+00 2.8492936961e+00 
43800 6.2560536029e+00 1.1819791206e-05 1.6450404824e+00 -2.8492936961e+00 1.6450404824e+00 2.8492936961e+00 
43900 6.2560536278e+00 7.9523761746e-06 1.6450404824e+00 -2.8492936961e+00 1.6450404824e+00 2.8492936961e+00 
44000 6.2560536522e+00 4.0719518413e-06 1.6450404824e+00 -2.8492936961e+00 1.6450404824e+00 2.8492936961e+00 
44100 6.2560536762e+00 1.8281185328e-07 1.6450404824e+00 -2.8492936961e+00 1.6450404824e+00 2.8492936961e+00 
44200 6.2560536997e+00 -3.7108717027e-06 1.6450404824e+00 -2.8492936961e+00 1.6450404824e+00 2.8492936961e+00 
44300 6.2560537228e+00 -7.6050481709e-06 1.6450404824e+00 -2.8492936961e+00 1.6450404824e+00 2.8492936961e+00 
44400 6.2560537454e+00 -1.1495788098e-05 1.6450404824e+00 -2.8492936961e+00 1.6450404824e+00 2.8492936961e+00 
44500 6.2560537676e+00 -1.5379282946e-05 1.6450404824e+00 -2.8492936961e+00 1.6450404824e+00 2.8492936961e+00 
44600 6.2560537893e+00 -1.9251844709e-05 1.6450404824e+00 -2.8492936961e+00 1.6450404824e+00 2.8492936961e+00 
44700 6.2560538105e+00 -2.3109905477e-05 1.6450404824e+00 -2.8492936961e+00 1.6450404824e+00 2.8492936961e+00 
44800 6.2560538312e+00 -2.6950016903e-05 1.6450404824e+00 -2.8492936961e+00 1.6450404824e+00 2.8492936961e+00 
44900 6.2560538515e+00 -3.0768849615e-05 1.6450404824e+00 -2.8492936961e+00 1.6450404824e+00 2.8492936961e+00 
45000 6.2560538713e+00 -3.4563192550e-05 1.6450404824e+00 -2.8492936961e+00 1.6450404824e+00 2.8492936961e+00 
45100 6.2560538906e+00 -3.8329952234e-05 1.6450404824e+00 -2.8492936961e+00 1.6450404824e+00 2.8492936961e+00 
45200 6.2560539094e+00 -4.2066151970e-05 1.6450404824e+00 -2.8492936961e+00 1.6450404824e+00 2.8492936961e+00 
45300 6.2560539278e+00 -4.5768930987e-05 1.6450404824e+00 -2.8492936961e+00 1.6450404824e+00 2.8492936961e+00 
45400 6.2560539457e+00 -4.9435543512e-05 1.6450404824e+00 -2.8492936961e+00 1.6450404824e+00 2.8492936961e+00 
45500 6.2560539631e+00 -5.3063357796e-05 1.6450404824e+00 -2.8492936961e+00 1.6450404824e+00 2.8492936961e+00 
45600 6.2560539801e+00 -5.6649855054e-05 1.6450404824e+00 -2.8492936961e+00 1.6450404824e+00 2.8492936961e+00 
45700 6.2560539966e+00 -6.0192628383e-05 1.6450404824e+00 -2.8492936961e+00 1.6450404824e+00 2.8492936961e+00 
45800 6.2560540127e+00 -6.3689381596e-05 1.6450404824e+00 -2.8492936961e+00 1.6450404824e+00 2.8492936961e+00 
45900 6.2560540283e+00 -6.7137928025e-05 1.6450404824e+00 -2.8492936961e+00 1.6450404824e+00 2.8492936961e+00 
46000 6.2560540436e+00 -7.0536189251e-05 1.6450404824e+00 -2.8492936961e+00 1.6450404824e+00 2.8492936961e+00 
46100 6.2560540584e+00 -7.3882193809e-05 1.6450404824e+00 -2.8492936961e+00 1.6450404824e+00 2.8492936961e+00 
46200 6.2560540725e+00 -7.4326574868e-05 1.6450427280e+00 -2.8492975856e+00 1.6450427280e+00 2.8492975856e+00 
46300 6.2560540863e+00 -7.4678770696e-05 1.6450449872e+00 -2.8493014985e+00 1.6450449872e+00 2.8493014985e+00 
46400 6.2560540996e+00 -7.4940284736e-05 1.6450472570e+00 -2.8493054299e+00 1.6450472570e+00 2.8493054299e+00 
46500 6.2560541125e+00 -7.5112717169e-05 1.6450495347e+00 -2.8493093751e+00 1.6450495347e+00 2.8493093751e+00 
46600 6.2560541251e+00 -7.5197758740e-05 1.6450518177e+00 -2.8493133294e+00 1.6450518177e+00 2.8493133294e+00 
46700 6.2560541372e+00 -7.5197184755e-05 1.6450541033e+00 -2.8493172881e+00 1.6450541033e+00 2.8493172881e+00 
46800 6.2560541491e+00 -7.5112849194e-05 1.6450563888e+00 -2.8493212468e+00 1.6450563888e+00 2.8493212468e+00 
46900 6.2560541605e+00 -7.4946678982e-05 1.6450586718e+00 -2.8493252010e+00 1.6450586718e+00 2.8493252010e+00 
47000 6.2560541716e+00 -7.4700668371e-05 1.6450609498e+00 -2.8493291465e+00 1.6450609498e+00 2.8493291465e+00 
47100 6.2560541824e+00 -7.4376873479e-05 1.6450632202e+00 -2.8493330791e+00 1.6450632202e+00 2.8493330791e+00 
47200 6.2560541929e+00 -7.3977406965e-05 1.6450654808e+00 -2.8493369946e+00 1.6450654808e+00 2.8493369946e+00 
47300 6.2560542031e+00 -7.3504432843e-05 1.6450677293e+00 -2.8493408890e+00 1.6450677293e+00 2.8493408890e+00 
47400 6.2560542130e+00 -7.2960161420e-05 1.6450699634e+00 -2.8493447586e+00 1.6450699634e+00 2.8493447586e+00 
47500 6.2560542226e+00 -7.2346844386e-05 1.6450721809e+00 -2.8493485995e+00 1.6450721809e+00 2.8493485995e+00 
47600 6.2560542319e+00 -7.1666770034e-05 1.6450743798e+00 -2.8493524081e+00 1.6450743798e+00 2.8493524081e+00 
47700 6.2560542410e+00 -7.0922258630e-05 1.6450765580e+00 -2.8493561809e+00 1.6450765580e+00 2.8493561809e+00 
47800 6.2560542499e+00 -7.0115657898e-05 1.6450787136e+00 -2.8493599144e+00 1.6450787136e+00 2.8493599144e+00 
47900 6.2560542587e+00 -7.1951301177e-05 1.6450787136e+00 -2.8493599144e+00 1.6450787136e+00 2.8493599144e+00 
48000 6.2560542671e+00 -7.0941748671e-05 1.6450809005e+00 -2.8493637022e+00 1.6450809005e+00 2.8493637022e+00 
48100 6.2560542754e+00 -6.9880141566e-05 1.6450830567e+00 -2.8493674368e+00 1.6450830567e+00 2.8493674368e+00 
48200 6.2560542836e+00 -7.1461610322e-05 1.6450830567e+00 -2.8493674368e+00 1.6450830567e+00 2.8493674368e+00 
48300 6.2560542914e+00 -7.0217157977e-05 1.6450852286e+00 -2.8493711988e+00 1.6450852286e+00 2.8493711988e+00 
48400 6.2560542992e+00 -7.1636215712e-05 1.6450852286e+00 -2.8493711988e+00 1.6450852286e+00 2.8493711988e+00 
48500 6.2560543067e+00 -7.0223337954e-05 1.6450874059e+00 -2.8493749700e+00 1.6450874059e+00 2.8493749700e+00 
48600 6.2560543143e+00 -7.1481444960e-05 1.6450874059e+00 -2.8493749700e+00 1.6450874059e+00 2.8493749700e+00 
48700 6.2560543214e+00 -6.9914540831e-05 1.6450895785e+00 -2.8493787330e+00 1.6450895785e+00 2.8493787330e+00 
48800 6.2560543287e+00 -7.1013729340e-05 1.6450895785e+00 -2.8493787330e+00 1.6450895785e+00 2.8493787330e+00 
48900 6.2560543356e+00 -6.9307120719e-05 1.6450917369e+00 -2.8493824713e+00 1.6450917369e+00 2.8493824713e+00 
49000 6.2560543425e+00 -7.0249959350e-05 1.6450917369e+00 -2.8493824713e+00 1.6450917369e+00 2.8493824713e+00 
49100 6.2560543494e+00 -7.1124837501e-05 1.6450917369e+00 -2.8493824713e+00 1.6450917369e+00 2.8493824713e+00 
49200 6.2560543560e+00 -6.9191954179e-05 1.6450938986e+00 -2.8493862156e+00 1.6450938986e+00 2.8493862156e+00 
49300 6.2560543626e+00 -6.9915169745e-05 1.6450938986e+00 -2.8493862156e+00 1.6450938986e+00 2.8493862156e+00 
49400 6.2560543691e+00 -7.0572976301e-05 1.6450938986e+00 -2.8493862156e+00 1.6450938986e+00 2.8493862156e+00 
49500 6.2560543756e+00 -7.1166402305e-05 1.6450938986e+00 -2.8493862156e+00 1.6450938986e+00 2.8493862156e+00 
49600 6.2560543817e+00 -6.8954219468e-05 1.6450960616e+00 -2.8493899620e+00 1.6450960616e+00 2.8493899620e+00 
49700 6.2560543880e+00 -6.9403567602e-05 1.6450960616e+00 -2.8493899620e+00 1.6450960616e+00 2.8493899620e+00 
49800 6.2560543942e+00 -6.9791509189e-05 1.6450960616e+00 -2.8493899620e+00 1.6450960616e+00 2.8493899620e+00 
49900 6.2560544003e+00 -7.0119199678e-05 1.6450960616e+00 -2.8493899620e+00 1.6450960616e+00 2.8493899620e+00 
50000 6.2560544063e+00 -7.0387814117e-05 1.6450960616e+00 -2.8493899620e+00 1.6450960616e+00 2.8493899620e+00 
50100 6.2560544123e+00 -7.0598545754e-05 1.6450960616e+00 -2.8493899620e+00 1.6450960616e+00 2.8493899620e+00 
50200 6.2560544182e+00 -7.0752604639e-05 1.6450960616e+00 -2.8493899620e+00 1.6450960616e+00 2.8493899620e+00 
50300 6.2560544238e+00 -6.8124908315e-05 1.6450982120e+00 -2.8493936866e+00 1.6450982120e+00 2.8493936866e+00 
50400 6.2560544296e+00 -6.8150911815e-05 1.6450982120e+00 -2.8493936866e+00 1.6450982120e+00 2.8493936866e+00 
50500 6.2560544353e+00 -6.8123697367e-05 1.6450982120e+00 -2.8493936866e+00 1.6450982120e+00 2.8493936866e+00 
50600 6.2560544410e+00 -6.8044558568e-05 1.6450982120e+00 -2.8493936866e+00 1.6450982120e+00 2.8493936866e+00 
50700 6.2560544466e+00 -6.7914798155e-05 1.6450982120e+00 -2.8493936866e+00 1.6450982120e+00 2.8493936866e+00 
50800 6.2560544521e+00 -6.7735726750e-05 1.6450982120e+00 -2.8493936866e+00 1.6450982120e+00 2.8493936866e+00 
50900 6.2560544576e+00 -6.7508661612e-05 1.6450982120e+00 -2.8493936866e+00 1.6450982120e+00 2.8493936866e+00 
51000 6.2560544631e+00 -6.7234925431e-05 1.6450982120e+00 -2.8493936866e+00 1.6450982120e+00 2.8493936866e+00 
51100 6.2560544685e+00 -6.6915845135e-05 1.6450982120e+00 -2.8493936866e+00 1.6450982120e+00 2.8493936866e+00 
51200 6.2560544738e+00 -6.6552750718e-05 1.6450982120e+00 -2.8493936866e+00 1.6450982120e+00 2.8493936866e+00 
51300 6.2560544791e+00 -6.6146974103e-05 1.6450982120e+00 -2.8493936866e+00 1.6450982120e+00 2.8493936866e+00 
51400 6.2560544844e+00 -6.5699848018e-05 1.6450982120e+00 -2.8493936866e+00 1.6450982120e+00 2.8493936866e+00 
51500 6.2560544896e+00 -6.5212704897e-05 1.6450982120e+00 -2.8493936866e+00 1.6450982120e+00 2.8493936866e+00 
51600 6.2560544948e+00 -6.4686875823e-05 1.6450982120e+00 -2.8493936866e+00 1.6450982120e+00 2.8493936866e+00 
51700 6.2560544999e+00 -6.4123689468e-05 1.6450982120e+00 -2.8493936866e+00 1.6450982120e+00 2.8493936866e+00 
51800 6.2560545049e+00 -6.3524471087e-05 1.6450982120e+00 -2.8493936866e+00 1.6450982120e+00 2.8493936866e+00 
51900 6.2560545099e+00 -6.2890541517e-05 1.6450982120e+00 -2.8493936866e+00 1.6450982120e+00 2.8493936866e+00 
52000 6.2560545149e+00 -6.2223216216e-05 1.6450982120e+00 -2.8493936866e+00 1.6450982120e+00 2.8493936866e+00 
52100 6.2560545198e+00 -6.1523804315e-05 1.6450982120e+00 -2.8493936866e+00 1.6450982120e+00 2.8493936866e+00 
52200 6.2560545247e+00 -6.0793607718e-05 1.6450982120e+00 -2.8493936866e+00 1.6450982120e+00 2.8493936866e+00 
52300 6.2560545295e+00 -6.0033920202e-05 1.6450982120e+00 -2.8493936866e+00 1.6450982120e+00 2.8493936866e+00 
52400 6.2560545343e+00 -5.9246026562e-05 1.6450982120e+00 -2.8493936866e+00 1.6450982120e+00 2.8493936866e+00 
52500 6.2560545390e+00 -5.8431201781e-05 1.6450982120e+00 -2.8493936866e+00 1.6450982120e+00 2.8493936866e+00 
52600 6.2560545437e+00 -5.7590710220e-05 1.6450982120e+00 -2.8493936866e+00 1.6450982120e+00 2.8493936866e+00 
52700 6.2560545483e+00 -5.6725804849e-05 1.6450982120e+00 -2.8493936866e+00 1.6450982120e+00 2.8493936866e+00 
52800 6.2560545528e+00 -5.5837726479e-05 1.6450982120e+00 -2.8493936866e+00 1.6450982120e+00 2.8493936866e+00 
52900 6.2560545574e+00 -5.4927703060e-05 1.6450982120e+00 -2.8493936866e+00 1.6450982120e+00 2.8493936866e+00 
53000 6.2560545618e+00 -5.3996948966e-05 1.6450982120e+00 -2.8493936866e+00 1.6450982120e+00 2.8493936866e+00 
53100 6.2560545662e+00 -5.3046664340e-05 1.6450982120e+00 -2.8493936866e+00 1.6450982120e+00 2.8493936866e+00 
53200 6.2560545706e+00 -5.2078034444e-05 1.6450982120e+00 -2.8493936866e+00 1.6450982120e+00 2.8493936866e+00 
53300 6.2560545749e+00 -5.1092229052e-05 1.6450982120e+00 -2.8493936866e+00 1.6450982120e+00 2.8493936866e+00 
53400 6.2560545791e+00 -5.0090401858e-05 1.6450982120e+00 -2.8493936866e+00 1.6450982120e+00 2.8493936866e+00 
53500 6.2560545833e+00 -4.9073689916e-05 1.6450982120e+00 -2.8493936866e+00 1.6450982120e+00 2.8493936866e+00 
53600 6.2560545875e+00 -4.8043213115e-05 1.6450982120e+00 -2.8493936866e+00 1.6450982120e+00 2.8493936866e+00 
53700 6.2560545916e+00 -4.7000073665e-05 1.6450982120e+00 -2.8493936866e+00 1.6450982120e+00 2.8493936866e+00 
53800 6.2560545956e+00 -4.5945355623e-05 1.6450982120e+00 -2.8493936866e+00 1.6450982120e+00 2.8493936866e+00 
53900 6.2560545996e+00 -4.4880124436e-05 1.6450982120e+00 -2.8493936866e+00 1.6450982120e+00 2.8493936866e+00 
54000 6.2560546035e+00 -4.3805426523e-05 1.6450982120e+00 -2.8493936866e+00 1.6450982120e+00 2.8493936866e+00 
54100 6.2560546074e+00 -4.2722288864e-05 1.6450982120e+00 -2.8493936866e+00 1.6450982120e+00 2.8493936866e+00 
54200 6.2560546112e+00 -4.1631718642e-05 1.6450982120e+00 -2.8493936866e+00 1.6450982120e+00 2.8493936866e+00 
54300 6.2560546149e+00 -4.0534702874e-05 1.6450982120e+00 -2.8493936866e+00 1.6450982120e+00 2.8493936866e+00 
54400 6.2560546186e+00 -3.9432208106e-05 1.6450982120e+00 -2.8493936866e+00 1.6450982120e+00 2.8493936866e+00 
54500 6.2560546223e+00 -3.8325180108e-05 1.6450982120e+00 -2.8493936866e+00 1.6450982120e+00 2.8493936866e+00 
54600 6.2560546259e+00 -3.7214543600e-05 1.6450982120e+00 -2.8493936866e+00 1.6450982120e+00 2.8493936866e+00 
54700 6.2560546294e+00 -3.6101202005e-05 1.6450982120e+00 -2.8493936866e+00 1.6450982120e+00 2.8493936866e+00 
54800 6.2560546329e+00 -3.4986037225e-05 1.6450982120e+00 -2.8493936866e+00 1.6450982120e+00 2.8493936866e+00 
54900 6.2560546363e+00 -3.3869909442e-05 1.6450982120e+00 -2.8493936866e+00 1.6450982120e+00 2.8493936866e+00 
55000 6.2560546397e+00 -3.2753656939e-05 1.6450982120e+00 -2.8493936866e+00 1.6450982120e+00 2.8493936866e+00 
55100 6.2560546430e+00 -3.1638095945e-05 1.6450982120e+00 -2.8493936866e+00 1.6450982120e+00 2.8493936866e+00 
55200 6.2560546463e+00 -3.0524020503e-05 1.6450982120e+00 -2.8493936866e+00 1.6450982120e+00 2.8493936866e+00 
55300 6.2560546495e+00 -2.9412202370e-05 1.6450982120e+00 -2.8493936866e+00 1.6450982120e+00 2.8493936866e+00 
55400 6.2560546526e+00 -2.8303390915e-05 1.6450982120e+00 -2.8493936866e+00 1.6450982120e+00 2.8493936866e+00 
55500 6.2560546557e+00 -2.7198313068e-05 1.6450982120e+00 -2.8493936866e+00 1.6450982120e+00 2.8493936866e+00 
55600 6.2560546588e+00 -2.6097673266e-05 1.6450982120e+00 -2.8493936866e+00 1.6450982120e+00 2.8493936866e+00 
55700 6.2560546618e+00 -2.5002153428e-05 1.6450982120e+00 -2.8493936866e+00 1.6450982120e+00 2.8493936866e+00 
55800 6.2560546647e+00 -2.3912412964e-05 1.6450982120e+00 -2.8493936866e+00 1.6450982120e+00 2.8493936866e+00 
55900 6.2560546676e+00 -2.2829088775e-05 1.6450982120e+00 -2.8493936866e+00 1.6450982120e+00 2.8493936866e+00 
56000 6.2560546705e+00 -2.1752795294e-05 1.6450982120e+00 -2.8493936866e+00 1.6450982120e+00 2.8493936866e+00 
56100 6.2560546733e+00 -2.0684124544e-05 1.6450982120e+00 -2.8493936866e+00 1.6450982120e+00 2.8493936866e+00 
56200 6.2560546760e+00 -1.9623646208e-05 1.6450982120e+00 -2.8493936866e+00 1.6450982120e+00 2.8493936866e+00 
56300 6.2560546787e+00 -1.8571907713e-05 1.6450982120e+00 -2.8493936866e+00 1.6450982120e+00 2.8493936866e+00 
56400 6.2560546814e+00 -1.7529434345e-05 1.6450982120e+00 -2.8493936866e+00 1.6450982120e+00 2.8493936866e+00 
56500 6.2560546840e+00 -1.6496729365e-05 1.6450982120e+00 -2.8493936866e+00 1.6450982120e+00 2.8493936866e+00 
56600 6.2560546865e+00 -1.5474274156e-05 1.6450982120e+00 -2.8493936866e+00 1.6450982120e+00 2.8493936866e+00 
56700 6.2560546891e+00 -1.4462528378e-05 1.6450982120e+00 -2.8493936866e+00 1.6450982120e+00 2.8493936866e+00 
56800 6.2560546915e+00 -1.3461930137e-05 1.6450982120e+00 -2.8493936866e+00 1.6450982120e+00 2.8493936866e+00 
56900 6.2560546940e+00 -1.2472896168e-05 1.6450982120e+00 -2.8493936866e+00 1.6450982120e+00 2.8493936866e+00 
57000 6.2560546964e+00 -1.1495822039e-05 1.6450982120e+00 -2.8493936866e+00 1.6450982120e+00 2.8493936866e+00 
57100 6.2560546987e+00 -1.0531082368e-05 1.6450982120e+00 -2.8493936866e+00 1.6450982120e+00 2.8493936866e+00 
57200 6.2560547010e+00 -9.5790310423e-06 1.6450982120e+00 -2.8493936866e+00 1.6450982120e+00 2.8493936866e+00 
57300 6.2560547033e+00 -8.6400014635e-06 1.6450982120e+00 -2.8493936866e+00 1.6450982120e+00 2.8493936866e+00 
57400 6.2560547055e+00 -7.7143068002e-06 1.6450982120e+00 -2.8493936866e+00 1.6450982120e+00 2.8493936866e+00 
57500 6.2560547077e+00 -6.8022402429e-06 1.6450982120e+00 -2.8493936866e+00 1.6450982120e+00 2.8493936866e+00 
57600 6.2560547098e+00 -5.9040752891e-06 1.6450982120e+00 -2.8493936866e+00 1.6450982120e+00 2.8493936866e+00 
57700 6.2560547120e+00 -5.0200660262e-06 1.6450982120e+00 -2.8493936866e+00 1.6450982120e+00 2.8493936866e+00 
57800 6.2560547140e+00 -4.1504474193e-06 1.6450982120e+00 -2.8493936866e+00 1.6450982120e+00 2.8493936866e+00 
57900 6.2560547161e+00 -3.2954356252e-06 1.6450982120e+00 -2.8493936866e+00 1.6450982120e+00 2.8493936866e+00 
58000 6.2560547181e+00 -2.4552283039e-06 1.6450982120e+00 -2.8493936866e+00 1.6450982120e+00 2.8493936866e+00 
58100 6.2560547201e+00 -1.6300049360e-06 1.6450982120e+00 -2.8493936866e+00 1.6450982120e+00 2.8493936866e+00 
58200 6.2560547220e+00 -8.1992715960e-07 1.6450982120e+00 -2.8493936866e+00 1.6450982120e+00 2.8493936866e+00 
58300 6.2560547239e+00 -2.5139104376e-08 1.6450982120e+00 -2.8493936866e+00 1.6450982120e+00 2.8493936866e+00 
58400 6.2560547258e+00 7.5423225971e-07 1.6450982120e+00 -2.8493936866e+00 1.6450982120e+00 2.8493936866e+00 
58500 6.2560547276e+00 1.5180767780e-06 1.6450982120e+00 -2.8493936866e+00 1.6450982120e+00 2.8493936866e+00 
58600 6.2560547295e+00 2.2663007395e-06 1.6450982120e+00 -2.8493936866e+00 1.6450982120e+00 2.8493936866e+00 
58700 6.2560547313e+00 2.9988265291e-06 1.6450982120e+00 -2.8493936866e+00 1.6450982120e+00 2.8493936866e+00 
58800 6.2560547330e+00 3.7155922491e-06 1.6450982120e+00 -2.8493936866e+00 1.6450982120e+00 2.8493936866e+00 
58900 6.2560547348e+00 4.4165513494e-06 1.6450982120e+00 -2.8493936866e+00 1.6450982120e+00 2.8493936866e+00 
59000 6.2560547365e+00 5.1016722506e-06 1.6450982120e+00 -2.8493936866e+00 1.6450982120e+00 2.8493936866e+00 
59100 6.2560547381e+00 5.7709379575e-06 1.6450982120e+00 -2.8493936866e+00 1.6450982120e+00 2.8493936866e+00 
59200 6.2560547398e+00 6.4243456831e-06 1.6450982120e+00 -2.8493936866e+00 1.6450982120e+00 2.8493936866e+00 
59300 6.2560547414e+00 7.0619064552e-06 1.6450982120e+00 -2.8493936866e+00 1.6450982120e+00 2.8493936866e+00 
59400 6.2560547430e+00 7.6836447254e-06 1.6450982120e+00 -2.8493936866e+00 1.6450982120e+00 2.8493936866e+00 
59500 6.2560547446e+00 8.2895979861e-06 1.6450982120e+00 -2.8493936866e+00 1.6450982120e+00 2.8493936866e+00 
59600 6.2560547462e+00 8.8798163628e-06 1.6450982120e+00 -2.8493936866e+00 1.6450982120e+00 2.8493936866e+00 
59700 6.2560547477e+00 9.4543622318e-06 1.6450982120e+00 -2.8493936866e+00 1.6450982120e+00 2.8493936866e+00 
59800 6.2560547492e+00 1.0013309820e-05 1.6450982120e+00 -2.8493936866e+00 1.6450982120e+00 2.8493936866e+00 
59900 6.2560547507e+00 1.0556744809e-05 1.6450982120e+00 -2.8493936866e+00 1.6450982120e+00 2.8493936866e+00 
60000 6.2560547522e+00 1.1084763938e-05 1.6450982120e+00 -2.8493936866e+00 1.6450982120e+00 2.8493936866e+00 
60100 6.2560547536e+00 1.1597474611e-05 1.6450982120e+00 -2.8493936866e+00 1.6450982120e+00 2.8493936866e+00 
60200 6.2560547551e+00 1.2094994498e-05 1.6450982120e+00 -2.8493936866e+00 1.6450982120e+00 2.8493936866e+00 
60300 6.2560547565e+00 1.2577451144e-05 1.6450982120e+00 -2.8493936866e+00 1.6450982120e+00 2.8493936866e+00 
60400 6.2560547578e+00 1.3044981578e-05 1.6450982120e+00 -2.8493936866e+00 1.6450982120e+00 2.8493936866e+00 
60500 6.2560547592e+00 1.3497731917e-05 1.6450982120e+00 -2.8493936866e+00 1.6450982120e+00 2.8493936866e+00 
60600 6.2560547606e+00 1.3935856982e-05 1.6450982120e+00 -2.8493936866e+00 1.6450982120e+00 2.8493936866e+00 
60700 6.2560547619e+00 1.4359519910e-05 1.6450982120e+00 -2.8493936866e+00 1.6450982120e+00 2.8493936866e+00 
60800 6.2560547632e+00 1.4768891768e-05 1.6450982120e+00 -2.8493936866e+00 1.6450982120e+00 2.8493936866e+00 
60900 6.2560547645e+00 1.5164151174e-05 1.6450982120e+00 -2.8493936866e+00 1.6450982120e+00 2.8493936866e+00 
61000 6.2560547658e+00 1.5545483924e-05 1.6450982120e+00 -2.8493936866e+00 1.6450982120e+00 2.8493936866e+00 
61100 6.2560547670e+00 1.5913082608e-05 1.6450982120e+00 -2.8493936866e+00 1.6450982120e+00 2.8493936866e+00 
61200 6.2560547683e+00 1.6267146251e-05 1.6450982120e+00 -2.8493936866e+00 1.6450982120e+00 2.8493936866e+00 
61300 6.2560547695e+00 1.6607879937e-05 1.6450982120e+00 -2.8493936866e+00 1.6450982120e+00 2.8493936866e+00 
61400 6.2560547707e+00 1.6935494448e-05 1.6450982120e+00 -2.8493936866e+00 1.6450982120e+00 2.8493936866e+00 
61500 6.2560547719e+00 1.7250205917e-05 1.6450982120e+00 -2.8493936866e+00 1.6450982120e+00 2.8493936866e+00 
61600 6.2560547731e+00 1.7552235465e-05 1.6450982120e+00 -2.8493936866e+00 1.6450982120e+00 2.8493936866e+00 
61700 6.2560547742e+00 1.7841808854e-05 1.6450982120e+00 -2.8493936866e+00 1.6450982120e+00 2.8493936866e+00 
61800 6.2560547754e+00 1.8119156146e-05 1.6450982120e+00 -2.8493936866e+00 1.6450982120e+00 2.8493936866e+00 
61900 6.2560547765e+00 1.8384511369e-05 1.6450982120e+00 -2.8493936866e+00 1.6450982120e+00 2.8493936866e+00 
62000 6.2560547776e+00 1.8638112178e-05 1.6450982120e+00 -2.8493936866e+00 1.6450982120e+00 2.8493936866e+00 
62100 6.2560547787e+00 1.8880199536e-05 1.6450982120e+00 -2.8493936866e+00 1.6450982120e+00 2.8493936866e+00 
62200 6.2560547798e+00 1.9111017387e-05 1.6450982120e+00 -2.8493936866e+00 1.6450982120e+00 2.8493936866e+00 
62300 6.2560547809e+00 1.9330812347e-05 1.6450982120e+00 -2.8493936866e+00 1.6450982120e+00 2.8493936866e+00 
62400 6.2560547820e+00 1.9539833394e-05 1.6450982120e+00 -2.8493936866e+00 1.6450982120e+00 2.8493936866e+00 
62500 6.2560547830e+00 1.9738331564e-05 1.6450982120e+00 -2.8493936866e+00 1.6450982120e+00 2.8493936866e+00 
62600 6.2560547840e+00 1.9926559657e-05 1.6450982120e+00 -2.8493936866e+00 1.6450982120e+00 2.8493936866e+00 
62700 6.2560547851e+00 2.0104771947e-05 1.6450982120e+00 -2.8493936866e+00 1.6450982120e+00 2.8493936866e+00 
62800 6.2560547861e+00 2.0273223904e-05 1.6450982120e+00 -2.8493936866e+00 1.6450982120e+00 2.8493936866e+00 
62900 6.2560547871e+00 2.0432171911e-05 1.6450982120e+00 -2.8493936866e+00 1.6450982120e+00 2.8493936866e+00 
63000 6.2560547880e+00 2.0581872999e-05 1.6450982120e+00 -2.8493936866e+00 1.6450982120e+00 2.8493936866e+00 
63100 6.2560547890e+00 2.0722584585e-05 1.6450982120e+00 -2.8493936866e+00 1.6450982120e+00 2.8493936866e+00 
63200 6.2560547900e+00 2.0854564216e-05 1.6450982120e+00 -2.8493936866e+00 1.6450982120e+00 2.8493936866e+00 
63300 6.2560547909e+00 2.0978069322e-05 1.6450982120e+00 -2.8493936866e+00 1.6450982120e+00 2.8493936866e+00 
63400 6.2560547918e+00 2.1093356973e-05 1.6450982120e+00 -2.8493936866e+00 1.6450982120e+00 2.8493936866e+00 
63500 6.2560547927e+00 2.1200683644e-05 1.6450982120e+00 -2.8493936866e+00 1.6450982120e+00 2.8493936866e+00 
63600 6.2560547936e+00 2.1300304992e-05 1.6450982120e+00 -2.8493936866e+00 1.6450982120e+00 2.8493936866e+00 
63700 6.2560547945e+00 2.1392475633e-05 1.6450982120e+00 -2.8493936866e+00 1.6450982120e+00 2.8493936866e+00 
63800 6.2560547954e+00 2.1477448929e-05 1.6450982120e+00 -2.8493936866e+00 1.6450982120e+00 2.8493936866e+00 
63900 6.2560547963e+00 2.1555476789e-05 1.6450982120e+00 -2.8493936866e+00 1.6450982120e+00 2.8493936866e+00 
64000 6.2560547971e+00 2.1626809458e-05 1.6450982120e+00 -2.8493936866e+00 1.6450982120e+00 2.8493936866e+00 
64100 6.2560547980e+00 2.1691695339e-05 1.6450982120e+00 -2.8493936866e+00 1.6450982120e+00 2.8493936866e+00 
64200 6.2560547988e+00 2.1750380801e-05 1.6450982120e+00 -2.8493936866e+00 1.6450982120e+00 2.8493936866e+00 
64300 6.2560547996e+00 2.1803110008e-05 1.6450982120e+00 -2.8493936866e+00 1.6450982120e+00 2.8493936866e+00 
64400 6.2560548004e+00 2.1850124743e-05 1.6450982120e+00 -2.8493936866e+00 1.6450982120e+00 2.8493936866e+00 
64500 6.2560548012e+00 2.1891664250e-05 1.6450982120e+00 -2.8493936866e+00 1.6450982120e+00 2.8493936866e+00 
64600 6.2560548020e+00 2.1927965080e-05 1.6450982120e+00 -2.8493936866e+00 1.6450982120e+00 2.8493936866e+00 
64700 6.2560548028e+00 2.1959260937e-05 1.6450982120e+00 -2.8493936866e+00 1.6450982120e+00 2.8493936866e+00 
64800 6.2560548036e+00 2.1985782540e-05 1.6450982120e+00 -2.8493936866e+00 1.6450982120e+00 2.8493936866e+00 
64900 6.2560548043e+00 2.2007757491e-05 1.6450982120e+00 -2.8493936866e+00 1.6450982120e+00 2.8493936866e+00 
65000 6.2560548051e+00 2.2025410142e-05 1.6450982120e+00 -2.8493936866e+00 1.6450982120e+00 2.8493936866e+00 
65100 6.2560548058e+00 2.2038961478e-05 1.6450982120e+00 -2.8493936866e+00 1.6450982120e+00 2.8493936866e+00 
65200 6.2560548065e+00 2.2048629004e-05 1.6450982120e+00 -2.8493936866e+00 1.6450982120e+00 2.8493936866e+00 
65300 6.2560548072e+00 2.2054626631e-05 1.6450982120e+00 -2.8493936866e+00 1.6450982120e+00 2.8493936866e+00 
65400 6.2560548079e+00 2.2057164587e-05 1.6450982120e+00 -2.8493936866e+00 1.6450982120e+00 2.8493936866e+00 
65500 6.2560548086e+00 2.2056449307e-05 1.6450982120e+00 -2.8493936866e+00 1.6450982120e+00 2.8493936866e+00 
65600 6.2560548093e+00 2.2052683364e-05 1.6450982120e+00 -2.8493936866e+00 1.6450982120e+00 2.8493936866e+00 
65700 6.2560548100e+00 2.2046065365e-05 1.6450982120e+00 -2.8493936866e+00 1.6450982120e+00 2.8493936866e+00 
65800 6.2560548106e+00 2.2036789901e-05 1.6450982120e+00 -2.8493936866e+00 1.6450982120e+00 2.8493936866e+00 
65900 6.2560548113e+00 2.2025047456e-05 1.6450982120e+00 -2.8493936866e+00 1.6450982120e+00 2.8493936866e+00 
66000 6.2560548119e+00 2.2011024357e-05 1.6450982120e+00 -2.8493936866e+00 1.6450982120e+00 2.8493936866e+00 
66100 6.2560548126e+00 2.1994902711e-05 1.6450982120e+00 -2.8493936866e+00 1.6450982120e+00 2.8493936866e+00 
66200 6.2560548132e+00 2.1976860354e-05 1.6450982120e+00 -2.8493936866e+00 1.6450982120e+00 2.8493936866e+00 
66300 6.2560548138e+00 2.1957070811e-05 1.6450982120e+00 -2.8493936866e+00 1.6450982120e+00 2.8493936866e+00 
66400 6.2560548144e+00 2.1935703248e-05 1.6450982120e+00 -2.8493936866e+00 1.6450982120e+00 2.8493936866e+00 
66500 6.2560548150e+00 2.1912922442e-05 1.6450982120e+00 -2.8493936866e+00 1.6450982120e+00 2.8493936866e+00 
66600 6.2560548156e+00 2.1888888752e-05 1.6450982120e+00 -2.8493936866e+00 1.6450982120e+00 2.8493936866e+00 
66700 6.2560548162e+00 2.1863758092e-05 1.6450982120e+00 -2.8493936866e+00 1.6450982120e+00 2.8493936866e+00 
66800 6.2560548168e+00 2.1837681913e-05 1.6450982120e+00 -2.8493936866e+00 1.6450982120e+00 2.8493936866e+00 
66900 6.2560548173e+00 2.1810807194e-05 1.6450982120e+00 -2.8493936866e+00 1.6450982120e+00 2.8493936866e+00 
67000 6.2560548179e+00 2.1783276425e-05 1.6450982120e+00 -2.8493936866e+00 1.6450982120e+00 2.8493936866e+00 
67100 6.2560548184e+00 2.1755227610e-05 1.6450982120e+00 -2.8493936866e+00 1.6450982120e+00 2.8493936866e+00 
67200 6.2560548190e+00 2.1726794262e-05 1.6450982120e+00 -2.8493936866e+00 1.6450982120e+00 2.8493936866e+00 
67300 6.2560548195e+00 2.1698105407e-05 1.6450982120e+00 -2.8493936866e+00 1.6450982120e+00 2.8493936866e+00 
67400 6.2560548200e+00 2.1669285603e-05 1.6450982120e+00 -2.8493936866e+00 1.6450982120e+00 2.8493936866e+00 
67500 6.2560548206e+00 2.1640454940e-05 1.6450982120e+00 -2.8493936866e+00 1.6450982120e+00 2.8493936866e+00 
67600 6.2560548211e+00 2.1611729065e-05 1.6450982120e+00 -2.8493936866e+00 1.6450982120e+00 2.8493936866e+00 
67700 6.2560548216e+00 2.1583219205e-05 1.6450982120e+00 -2.8493936866e+00 1.6450982120e+00 2.8493936866e+00 
67800 6.2560548221e+00 2.1555032184e-05 1.6450982120e+00 -2.8493936866e+00 1.6450982120e+00 2.8493936866e+00 
67900 6.2560548226e+00 2.1527270462e-05 1.6450982120e+00 -2.8493936866e+00 1.6450982120e+00 2.8493936866e+00 
68000 6.2560548230e+00 2.1500032159e-05 1.6450982120e+00 -2.8493936866e+00 1.6450982120e+00 2.8493936866e+00 
68100 6.2560548235e+00 2.1473411095e-05 1.6450982120e+00 -2.8493936866e+00 1.6450982120e+00 2.8493936866e+00 
68200 6.2560548240e+00 2.1447496828e-05 1.6450982120e+00 -2.8493936866e+00 1.6450982120e+00 2.8493936866e+00 
68300 6.2560548244e+00 2.1422374697e-05 1.6450982120e+00 -2.8493936866e+00 1.6450982120e+00 2.8493936866e+00 
68400 6.2560548249e+00 2.1398125870e-05 1.6450982120e+00 -2.8493936866e+00 1.6450982120e+00 2.8493936866e+00 
68500 6.2560548254e+00 2.1374827379e-05 1.6450982120e+00 -2.8493936866e+00 1.6450982120e+00 2.8493936866e+00 
68600 6.2560548258e+00 2.1352552192e-05 1.6450982120e+00 -2.8493936866e+00 1.6450982120e+00 2.8493936866e+00 
68700 6.2560548262e+00 2.1331369250e-05 1.6450982120e+00 -2.8493936866e+00 1.6450982120e+00 2.8493936866e+00 
68800 6.2560548267e+00 2.1311343524e-05 1.6450982120e+00 -2.8493936866e+00 1.6450982120e+00 2.8493936866e+00 
68900 6.2560548271e+00 2.1292536085e-05 1.6450982120e+00 -2.8493936866e+00 1.6450982120e+00 2.8493936866e+00 
69000 6.2560548275e+00 2.1275004154e-05 1.6450982120e+00 -2.8493936866e+00 1.6450982120e+00 2.8493936866e+00 
69100 6.2560548279e+00 2.1258801165e-05 1.6450982120e+00 -2.8493936866e+00 1.6450982120e+00 2.8493936866e+00 
69200 6.2560548283e+00 2.1243976837e-05 1.6450982120e+00 -2.8493936866e+00 1.6450982120e+00 2.8493936866e+00 
69300 6.2560548287e+00 2.1230577231e-05 1.6450982120e+00 -2.8493936866e+00 1.6450982120e+00 2.8493936866e+00 
69400 6.2560548291e+00 2.1218644827e-05 1.6450982120e+00 -2.8493936866e+00 1.6450982120e+00 2.8493936866e+00 
69500 6.2560548295e+00 2.1208218591e-05 1.6450982120e+00 -2.8493936866e+00 1.6450982120e+00 2.8493936866e+00 
69600 6.2560548299e+00 2.1199334040e-05 1.6450982120e+00 -2.8493936866e+00 1.6450982120e+00 2.8493936866e+00 
69700 6.2560548303e+00 2.1192023326e-05 1.6450982120e+00 -2.8493936866e+00 1.6450982120e+00 2.8493936866e+00 
69800 6.2560548306e+00 2.1186315299e-05 1.6450982120e+00 -2.8493936866e+00 1.6450982120e+00 2.8493936866e+00 
69900 6.2560548310e+00 2.1182235594e-05 1.6450982120e+00 -2.8493936866e+00 1.6450982120e+00 2.8493936866e+00 
70000 6.2560548314e+00 2.1179806694e-05 1.6450982120e+00 -2.8493936866e+00 1.6450982120e+00 2.8493936866e+00 
70100 6.2560548317e+00 2.1179048020e-05 1.6450982120e+00 -2.8493936866e+00 1.6450982120e+00 2.8493936866e+00 
70200 6.2560548321e+00 2.1179976000e-05 1.6450982120e+00 -2.8493936866e+00 1.6450982120e+00 2.8493936866e+00 
70300 6.2560548324e+00 2.1182604150e-05 1.6450982120e+00 -2.8493936866e+00 1.6450982120e+00 2.8493936866e+00 
70400 6.2560548328e+00 2.1186943155e-05 1.6450982120e+00 -2.8493936866e+00 1.6450982120e+00 2.8493936866e+00 
70500 6.2560548331e+00 2.1193000951e-05 1.6450982120e+00 -2.8493936866e+00 1.6450982120e+00 2.8493936866e+00 
70600 6.2560548334e+00 2.1200782800e-05 1.6450982120e+00 -2.8493936866e+00 1.6450982120e+00 2.8493936866e+00 
70700 6.2560548338e+00 2.1210291372e-05 1.6450982120e+00 -2.8493936866e+00 1.6450982120e+00 2.8493936866e+00 
70800 6.2560548341e+00 2.1221526834e-05 1.6450982120e+00 -2.8493936866e+00 1.6450982120e+00 2.8493936866e+00 
70900 6.2560548344e+00 2.1234486912e-05 1.6450982120e+00 -2.8493936866e+00 1.6450982120e+00 2.8493936866e+00 
71000 6.2560548347e+00 2.1249166999e-05 1.6450982120e+00 -2.8493936866e+00 1.6450982120e+00 2.8493936866e+00 
71100 6.2560548350e+00 2.1265560212e-05 1.6450982120e+00 -2.8493936866e+00 1.6450982120e+00 2.8493936866e+00 
71200 6.2560548354e+00 2.1283657487e-05 1.6450982120e+00 -2.8493936866e+00 1.6450982120e+00 2.8493936866e+00 
71300 6.2560548357e+00 2.1303447655e-05 1.6450982120e+00 -2.8493936866e+00 1.6450982120e+00 2.8493936866e+00 
71400 6.2560548360e+00 2.1324917524e-05 1.6450982120e+00 -2.8493936866e+00 1.6450982120e+00 2.8493936866e+00 
71500 6.2560548362e+00 2.1348051956e-05 1.6450982120e+00 -2.8493936866e+00 1.6450982120e+00 2.8493936866e+00 
71600 6.2560548365e+00 2.1372833953e-05 1.6450982120e+00 -2.8493936866e+00 1.6450982120e+00 2.8493936866e+00 
71700 6.2560548368e+00 2.1399244731e-05 1.6450982120e+00 -2.8493936866e+00 1.6450982120e+00 2.8493936866e+00 
71800 6.2560548371e+00 2.1427263803e-05 1.6450982120e+00 -2.8493936866e+00 1.6450982120e+00 2.8493936866e+00 
71900 6.2560548374e+00 2.1456869051e-05 1.6450982120e+00 -2.8493936866e+00 1.6450982120e+00 2.8493936866e+00 
72000 6.2560548377e+00 2.1488036813e-05 1.6450982120e+00 -2.8493936866e+00 1.6450982120e+00 2.8493936866e+00 
72100 6.2560548379e+00 2.1520741949e-05 1.6450982120e+00 -2.8493936866e+00 1.6450982120e+00 2.8493936866e+00 
72200 6.2560548382e+00 2.1554957929e-05 1.6450982120e+00 -2.8493936866e+00 1.6450982120e+00 2.8493936866e+00 
72300 6.2560548385e+00 2.1590656896e-05 1.6450982120e+00 -2.8493936866e+00 1.6450982120e+00 2.8493936866e+00 
72400 6.2560548387e+00 2.1627809748e-05 1.6450982120e+00 -2.8493936866e+00 1.6450982120e+00 2.8493936866e+00 
72500 6.2560548390e+00 2.1666386212e-05 1.6450982120e+00 -2.8493936866e+00 1.6450982120e+00 2.8493936866e+00 
72600 6.2560548392e+00 2.1706354909e-05 1.6450982120e+00 -2.8493936866e+00 1.6450982120e+00 2.8493936866e+00 
72700 6.2560548395e+00 2.1747683434e-05 1.6450982120e+00 -2.8493936866e+00 1.6450982120e+00 2.8493936866e+00 
72800 6.2560548397e+00 2.1790338421e-05 1.6450982120e+00 -2.8493936866e+00 1.6450982120e+00 2.8493936866e+00 
72900 6.2560548400e+00 2.1834285612e-05 1.6450982120e+00 -2.8493936866e+00 1.6450982120e+00 2.8493936866e+00 
73000 6.2560548402e+00 2.1879489929e-05 1.6450982120e+00 -2.8493936866e+00 1.6450982120e+00 2.8493936866e+00 
73100 6.2560548405e+00 2.1925915538e-05 1.6450982120e+00 -2.8493936866e+00 1.6450982120e+00 2.8493936866e+00 
73200 6.2560548407e+00 2.1973525910e-05 1.6450982120e+00 -2.8493936866e+00 1.6450982120e+00 2.8493936866e+00 
73300 6.2560548409e+00 2.2022283892e-05 1.6450982120e+00 -2.8493936866e+00 1.6450982120e+00 2.8493936866e+00 
73400 6.2560548412e+00 2.2072151772e-05 1.6450982120e+00 -2.8493936866e+00 1.6450982120e+00 2.8493936866e+00 
73500 6.2560548414e+00 2.2123091329e-05 1.6450982120e+00 -2.8493936866e+00 1.6450982120e+00 2.8493936866e+00 
73600 6.2560548416e+00 2.2175063905e-05 1.6450982120e+00 -2.8493936866e+00 1.6450982120e+00 2.8493936866e+00 
73700 6.2560548418e+00 2.2228030456e-05 1.6450982120e+00 -2.8493936866e+00 1.6450982120e+00 2.8493936866e+00 
73800 6.2560548420e+00 2.2281951616e-05 1.6450982120e+00 -2.8493936866e+00 1.6450982120e+00 2.8493936866e+00 
73900 6.2560548422e+00 2.2336787745e-05 1.6450982120e+00 -2.8493936866e+00 1.6450982120e+00 2.8493936866e+00 
74000 6.2560548425e+00 2.2392498994e-05 1.6450982120e+00 -2.8493936866e+00 1.6450982120e+00 2.8493936866e+00 
74100 6.2560548427e+00 2.2449045347e-05 1.6450982120e+00 -2.8493936866e+00 1.6450982120e+00 2.8493936866e+00 
74200 6.2560548429e+00 2.2506386680e-05 1.6450982120e+00 -2.8493936866e+00 1.6450982120e+00 2.8493936866e+00 
74300 6.2560548431e+00 2.2564482811e-05 1.6450982120e+00 -2.8493936866e+00 1.6450982120e+00 2.8493936866e+00 
74400 6.2560548433e+00 2.2623293545e-05 1.6450982120e+00 -2.8493936866e+00 1.6450982120e+00 2.8493936866e+00 
74500 6.2560548435e+00 2.2682778722e-05 1.6450982120e+00 -2.8493936866e+00 1.6450982120e+00 2.8493936866e+00 
74600 6.2560548437e+00 2.2742898269e-05 1.6450982120e+00 -2.8493936866e+00 1.6450982120e+00 2.8493936866e+00 
74700 6.2560548439e+00 2.2803612231e-05 1.6450982120e+00 -2.8493936866e+00 1.6450982120e+00 2.8493936866e+00 
74800 6.2560548440e+00 2.2864880831e-05 1.6450982120e+00 -2.8493936866e+00 1.6450982120e+00 2.8493936866e+00 
74900 6.2560548442e+00 2.2926664497e-05 1.6450982120e+00 -2.8493936866e+00 1.6450982120e+00 2.8493936866e+00 
75000 6.2560548444e+00 2.2988923908e-05 1.6450982120e+00 -2.8493936866e+00 1.6450982120e+00 2.8493936866e+00 
75100 6.2560548446e+00 2.3051620031e-05 1.6450982120e+00 -2.8493936866e+00 1.6450982120e+00 2.8493936866e+00 
75200 6.2560548448e+00 2.3114714158e-05 1.6450982120e+00 -2.8493936866e+00 1.6450982120e+00 2.8493936866e+00 
75300 6.2560548449e+00 2.3178167945e-05 1.6450982120e+00 -2.8493936866e+00 1.6450982120e+00 2.8493936866e+00 
75400 6.2560548451e+00 2.3241943437e-05 1.6450982120e+00 -2.8493936866e+00 1.6450982120e+00 2.8493936866e+00 
75500 6.2560548453e+00 2.3306003111e-05 1.6450982120e+00 -2.8493936866e+00 1.6450982120e+00 2.8493936866e+00 
75600 6.2560548455e+00 2.3370309896e-05 1.6450982120e+00 -2.8493936866e+00 1.6450982120e+00 2.8493936866e+00 
75700 6.2560548456e+00 2.3434827212e-05 1.6450982120e+00 -2.8493936866e+00 1.6450982120e+00 2.8493936866e+00 
75800 6.2560548458e+00 2.3499518992e-05 1.6450982120e+00 -2.8493936866e+00 1.6450982120e+00 2.8493936866e+00 
75900 6.2560548460e+00 2.3564349712e-05 1.6450982120e+00 -2.8493936866e+00 1.6450982120e+00 2.8493936866e+00 
76000 6.2560548461e+00 2.3629284415e-05 1.6450982120e+00 -2.8493936866e+00 1.6450982120e+00 2.8493936866e+00 
76100 6.2560548463e+00 2.3694288733e-05 1.6450982120e+00 -2.8493936866e+00 1.6450982120e+00 2.8493936866e+00 
76200 6.2560548464e+00 2.3759328912e-05 1.6450982120e+00 -2.8493936866e+00 1.6450982120e+00 2.8493936866e+00 
76300 6.2560548466e+00 2.3824371830e-05 1.6450982120e+00 -2.8493936866e+00 1.6450982120e+00 2.8493936866e+00 
76400 6.2560548467e+00 2.3889385027e-05 1.6450982120e+00 -2.8493936866e+00 1.6450982120e+00 2.8493936866e+00 
76500 6.2560548469e+00 2.3954336702e-05 1.6450982120e+00 -2.8493936866e+00 1.6450982120e+00 2.8493936866e+00 
76600 6.2560548470e+00 2.4019195756e-05 1.6450982120e+00 -2.8493936866e+00 1.6450982120e+00 2.8493936866e+00 
76700 6.2560548472e+00 2.4083931787e-05 1.6450982120e+00 -2.8493936866e+00 1.6450982120e+00 2.8493936866e+00 
76800 6.2560548473e+00 2.4148515116e-05 1.6450982120e+00 -2.8493936866e+00 1.6450982120e+00 2.8493936866e+00 
76900 6.2560548475e+00 2.4212916797e-05 1.6450982120e+00 -2.8493936866e+00 1.6450982120e+00 2.8493936866e+00 
77000 6.2560548476e+00 2.4277108631e-05 1.6450982120e+00 -2.8493936866e+00 1.6450982120e+00 2.8493936866e+00 
77100 6.2560548477e+00 2.4341063168e-05 1.6450982120e+00 -2.8493936866e+00 1.6450982120e+00 2.8493936866e+00 
77200 6.2560548479e+00 2.4404753732e-05 1.6450982120e+00 -2.8493936866e+00 1.6450982120e+00 2.8493936866e+00 
77300 6.2560548480e+00 2.4468154419e-05 1.6450982120e+00 -2.8493936866e+00 1.6450982120e+00 2.8493936866e+00 
77400 6.2560548481e+00 2.4531240104e-05 1.6450982120e+00 -2.8493936866e+00 1.6450982120e+00 2.8493936866e+00 
77500 6.2560548483e+00 2.4593986455e-05 1.6450982120e+00 -2.8493936866e+00 1.6450982120e+00 2.8493936866e+00 
77600 6.2560548484e+00 2.4656369930e-05 1.6450982120e+00 -2.8493936866e+00 1.6450982120e+00 2.8493936866e+00 
77700 6.2560548485e+00 2.4718367788e-05 1.6450982120e+00 -2.8493936866e+00 1.6450982120e+00 2.8493936866e+00 
77800 6.2560548487e+00 2.4779958086e-05 1.6450982120e+00 -2.8493936866e+00 1.6450982120e+00 2.8493936866e+00 
77900 6.2560548488e+00 2.4841119690e-05 1.6450982120e+00 -2.8493936866e+00 1.6450982120e+00 2.8493936866e+00 
78000 6.2560548489e+00 2.4901832266e-05 1.6450982120e+00 -2.8493936866e+00 1.6450982120e+00 2.8493936866e+00 
78100 6.2560548490e+00 2.4962076286e-05 1.6450982120e+00 -2.8493936866e+00 1.6450982120e+00 2.8493936866e+00 
78200 6.2560548492e+00 2.5021833031e-05 1.6450982120e+00 -2.8493936866e+00 1.6450982120e+00 2.8493936866e+00 
78300 6.2560548493e+00 2.5081084582e-05 1.6450982120e+00 -2.8493936866e+00 1.6450982120e+00 2.8493936866e+00 
78400 6.2560548494e+00 2.5139813822e-05 1.6450982120e+00 -2.8493936866e+00 1.6450982120e+00 2.8493936866e+00 
78500 6.2560548495e+00 2.5198004434e-05 1.6450982120e+00 -2.8493936866e+00 1.6450982120e+00 2.8493936866e+00 
78600 6.2560548496e+00 2.5255640893e-05 1.6450982120e+00 -2.8493936866e+00 1.6450982120e+00 2.8493936866e+00 
78700 6.2560548497e+00 2.5312708470e-05 1.6450982120e+00 -2.8493936866e+00 1.6450982120e+00 2.8493936866e+00 
78800 6.2560548498e+00 2.5369193212e-05 1.6450982120e+00 -2.8493936866e+00 1.6450982120e+00 2.8493936866e+00 
78900 6.2560548499e+00 2.5425081951e-05 1.6450982120e+00 -2.8493936866e+00 1.6450982120e+00 2.8493936866e+00 
79000 6.2560548500e+00 2.5480362292e-05 1.6450982120e+00 -2.8493936866e+00 1.6450982120e+00 2.8493936866e+00 
79100 6.2560548502e+00 2.5535022599e-05 1.6450982120e+00 -2.8493936866e+00 1.6450982120e+00 2.8493936866e+00 
79200 6.2560548503e+00 2.5589051997e-05 1.6450982120e+00 -2.8493936866e+00 1.6450982120e+00 2.8493936866e+00 
79300 6.2560548504e+00 2.5642440360e-05 1.6450982120e+00 -2.8493936866e+00 1.6450982120e+00 2.8493936866e+00 
79400 6.2560548505e+00 2.5695178297e-05 1.6450982120e+00 -2.8493936866e+00 1.6450982120e+00 2.8493936866e+00 
79500 6.2560548506e+00 2.5747257152e-05 1.6450982120e+00 -2.8493936866e+00 1.6450982120e+00 2.8493936866e+00 
79600 6.2560548507e+00 2.5798668983e-05 1.6450982120e+00 -2.8493936866e+00 1.6450982120e+00 2.8493936866e+00 
79700 6.2560548508e+00 2.5849406559e-05 1.6450982120e+00 -2.8493936866e+00 1.6450982120e+00 2.8493936866e+00 
79800 6.2560548509e+00 2.5899463346e-05 1.6450982120e+00 -2.8493936866e+00 1.6450982120e+00 2.8493936866e+00 
79900 6.2560548510e+00 2.5948833496e-05 1.6450982120e+00 -2.8493936866e+00 1.6450982120e+00 2.8493936866e+00 
80000 6.2560548510e+00 2.5997511836e-05 1.6450982120e+00 -2.8493936866e+00 1.6450982120e+00 2.8493936866e+00 
80100 6.2560548511e+00 2.6045493853e-05 1.6450982120e+00 -2.8493936866e+00 1.6450982120e+00 2.8493936866e+00 
80200 6.2560548512e+00 2.6092775682e-05 1.6450982120e+00 -2.8493936866e+00 1.6450982120e+00 2.8493936866e+00 
80300 6.2560548513e+00 2.6139354094e-05 1.6450982120e+00 -2.8493936866e+00 1.6450982120e+00 2.8493936866e+00 
80400 6.2560548514e+00 2.6185226486e-05 1.6450982120e+00 -2.8493936866e+00 1.6450982120e+00 2.8493936866e+00 
80500 6.2560548515e+00 2.6230390858e-05 1.6450982120e+00 -2.8493936866e+00 1.6450982120e+00 2.8493936866e+00 
80600 6.2560548516e+00 2.6274845808e-05 1.6450982120e+00 -2.8493936866e+00 1.6450982120e+00 2.8493936866e+00 
80700 6.2560548517e+00 2.6318590515e-05 1.6450982120e+00 -2.8493936866e+00 1.6450982120e+00 2.8493936866e+00 
80800 6.2560548518e+00 2.6361624721e-05 1.6450982120e+00 -2.8493936866e+00 1.6450982120e+00 2.8493936866e+00 
80900 6.2560548518e+00 2.6403948722e-05 1.6450982120e+00 -2.8493936866e+00 1.6450982120e+00 2.8493936866e+00 
81000 6.2560548519e+00 2.6445563349e-05 1.6450982120e+00 -2.8493936866e+00 1.6450982120e+00 2.8493936866e+00 
81100 6.2560548520e+00 2.6486469956e-05 1.6450982120e+00 -2.8493936866e+00 1.6450982120e+00 2.8493936866e+00 
81200 6.2560548521e+00 2.6526670404e-05 1.6450982120e+00 -2.8493936866e+00 1.6450982120e+00 2.8493936866e+00 
81300 6.2560548522e+00 2.6566167045e-05 1.6450982120e+00 -2.8493936866e+00 1.6450982120e+00 2.8493936866e+00 
81400 6.2560548522e+00 2.6604962707e-05 1.6450982120e+00 -2.8493936866e+00 1.6450982120e+00 2.8493936866e+00 
81500 6.2560548523e+00 2.6643060677e-05 1.6450982120e+00 -2.8493936866e+00 1.6450982120e+00 2.8493936866e+00 
81600 6.2560548524e+00 2.6680464694e-05 1.6450982120e+00 -2.8493936866e+00 1.6450982120e+00 2.8493936866e+00 
81700 6.2560548525e+00 2.6717178920e-05 1.6450982120e+00 -2.8493936866e+00 1.6450982120e+00 2.8493936866e+00 
81800 6.2560548525e+00 2.6753207934e-05 1.6450982120e+00 -2.8493936866e+00 1.6450982120e+00 2.8493936866e+00 
81900 6.2560548526e+00 2.6788556715e-05 1.6450982120e+00 -2.8493936866e+00 1.6450982120e+00 2.8493936866e+00 
82000 6.2560548527e+00 2.6823230626e-05 1.6450982120e+00 -2.8493936866e+00 1.6450982120e+00 2.8493936866e+00 
82100 6.2560548527e+00 2.6857235398e-05 1.6450982120e+00 -2.8493936866e+00 1.6450982120e+00 2.8493936866e+00 
82200 6.2560548528e+00 2.6890577115e-05 1.6450982120e+00 -2.8493936866e+00 1.6450982120e+00 2.8493936866e+00 
82300 6.2560548529e+00 2.6923262195e-05 1.6450982120e+00 -2.8493936866e+00 1.6450982120e+00 2.8493936866e+00 
82400 6.2560548530e+00 2.6955297388e-05 1.6450982120e+00 -2.8493936866e+00 1.6450982120e+00 2.8493936866e+00 
82500 6.2560548530e+00 2.6986689742e-05 1.6450982120e+00 -2.8493936866e+00 1.6450982120e+00 2.8493936866e+00 
82600 6.2560548531e+00 2.7017446599e-05 1.6450982120e+00 -2.8493936866e+00 1.6450982120e+00 2.8493936866e+00 
82700 6.2560548532e+00 2.7047575584e-05 1.6450982120e+00 -2.8493936866e+00 1.6450982120e+00 2.8493936866e+00 
82800 6.2560548532e+00 2.7077084578e-05 1.6450982120e+00 -2.8493936866e+00 1.6450982120e+00 2.8493936866e+00 
82900 6.2560548533e+00 2.7105981713e-05 1.6450982120e+00 -2.8493936866e+00 1.6450982120e+00 2.8493936866e+00 
83000 6.2560548533e+00 2.7134275356e-05 1.6450982120e+00 -2.8493936866e+00 1.6450982120e+00 2.8493936866e+00 
83100 6.2560548534e+00 2.7161974091e-05 1.6450982120e+00 -2.8493936866e+00 1.6450982120e+00 2.8493936866e+00 
83200 6.2560548535e+00 2.7189086708e-05 1.6450982120e+00 -2.8493936866e+00 1.6450982120e+00 2.8493936866e+00 
83300 6.2560548535e+00 2.7215622189e-05 1.6450982120e+00 -2.8493936866e+00 1.6450982120e+00 2.8493936866e+00 
83400 6.2560548536e+00 2.7241589691e-05 1.6450982120e+00 -2.8493936866e+00 1.6450982120e+00 2.8493936866e+00 
83500 6.2560548537e+00 2.7266998538e-05 1.6450982120e+00 -2.8493936866e+00 1.6450982120e+00 2.8493936866e+00 
83600 6.2560548537e+00 2.7291858204e-05 1.6450982120e+00 -2.8493936866e+00 1.6450982120e+00 2.8493936866e+00 
83700 6.2560548538e+00 2.7316178297e-05 1.6450982120e+00 -2.8493936866e+00 1.6450982120e+00 2.8493936866e+00 
83800 6.2560548538e+00 2.7339968554e-05 1.6450982120e+00 -2.8493936866e+00 1.6450982120e+00 2.8493936866e+00 
83900 6.2560548539e+00 2.7363238823e-05 1.6450982120e+00 -2.8493936866e+00 1.6450982120e+00 2.8493936866e+00 
84000 6.2560548539e+00 2.7385999049e-05 1.6450982120e+00 -2.8493936866e+00 1.6450982120e+00 2.8493936866e+00 
84100 6.2560548540e+00 2.7408259268e-05 1.6450982120e+00 -2.8493936866e+00 1.6450982120e+00 2.8493936866e+00 
84200 6.2560548540e+00 2.7430029588e-05 1.6450982120e+00 -2.8493936866e+00 1.6450982120e+00 2.8493936866e+00 
84300 6.2560548541e+00 2.7451320185e-05 1.6450982120e+00 -2.8493936866e+00 1.6450982120e+00 2.8493936866e+00 
84400 6.2560548541e+00 2.7472141283e-05 1.6450982120e+00 -2.8493936866e+00 1.6450982120e+00 2.8493936866e+00 
84500 6.2560548542e+00 2.7492503153e-05 1.6450982120e+00 -2.8493936866e+00 1.6450982120e+00 2.8493936866e+00 
84600 6.2560548543e+00 2.7512416090e-05 1.6450982120e+00 -2.8493936866e+00 1.6450982120e+00 2.8493936866e+00 
84700 6.2560548543e+00 2.7531890414e-05 1.6450982120e+00 -2.8493936866e+00 1.6450982120e+00 2.8493936866e+00 
84800 6.2560548544e+00 2.7550936454e-05 1.6450982120e+00 -2.8493936866e+00 1.6450982120e+00 2.8493936866e+00 
84900 6.2560548544e+00 2.7569564537e-05 1.6450982120e+00 -2.8493936866e+00 1.6450982120e+00 2.8493936866e+00 
85000 6.2560548544e+00 2.7584896680e-05 1.6450982120e+00 -2.8493936866e+00 1.6450982120e+00 2.8493936866e+00 
85000 6.2560548544e+00 2.7584896680e-05 1.6450982120e+00 -2.8493936866e+00 1.6450982120e+00 2.8493936866e+00 
