# step Hamiltonian StressXX CellTensor1 CellTensor2 CellTensor3 CellTensor4 
0 7.4649682818e+00 -1.5498910991e-01 1.6122881582e+00 -2.7925650064e+00 1.6122881582e+00 2.7925650064e+00 
100 7.4473429187e+00 -1.5407935223e-01 1.6122881582e+00 -2.7925650064e+00 1.6122881582e+00 2.7925650064e+00 
200 7.4292384288e+00 -1.4837796562e-01 1.6170687935e+00 -2.8008453097e+00 1.6170687935e+00 2.8008453097e+00 
300 7.4116301366e+00 -1.4284119773e-01 1.6216588248e+00 -2.8087954771e+00 1.6216588248e+00 2.8087954771e+00 
400 7.3945184943e+00 -1.3747139001e-01 1.6260649822e+00 -2.8164271655e+00 1.6260649822e+00 2.8164271655e+00 
500 7.3779029707e+00 -1.3227033548e-01 1.6302939275e+00 -2.8237519136e+00 1.6302939275e+00 2.8237519136e+00 
600 7.3617820956e+00 -1.2723929983e-01 1.6343522464e+00 -2.8307811282e+00 1.6343522464e+00 2.8307811282e+00 
700 7.3461535057e+00 -1.2237904464e-01 1.6382464402e+00 -2.8375260698e+00 1.6382464402e+00 2.8375260698e+00 
800 7.3310139909e+00 -1.1768985228e-01 1.6419829184e+00 -2.8439978398e+00 1.6419829184e+00 2.8439978398e+00 
900 7.3163595413e+00 -1.1317155193e-01 1.6455679913e+00 -2.8502073683e+00 1.6455679913e+00 2.8502073683e+00 
1000 7.3021853947e+00 -1.0882354651e-01 1.6490078639e+00 -2.8561654024e+00 1.6490078639e+00 2.8561654024e+00 
1100 7.2884860835e+00 -1.0464483993e-01 1.6523086295e+00 -2.8618824960e+00 1.6523086295e+00 2.8618824960e+00 
1200 7.2752554822e+00 -1.0063406457e-01 1.6554762641e+00 -2.8673690001e+00 1.6554762641e+00 2.8673690001e+00 
1300 7.2624868541e+00 -9.6789508594e-02 1.6585166218e+00 -2.8726350542e+00 1.6585166218e+00 2.8726350542e+00 
1400 7.2501728970e+00 -9.3109142985e-02 1.6614354301e+00 -2.8776905784e+00 1.6614354301e+00 2.8776905784e+00 
1500 7.2383057893e+00 -8.9590648007e-02 1.6642382857e+00 -2.8825452667e+00 1.6642382857e+00 2.8825452667e+00 
1600 7.2268772349e+00 -8.6231439041e-02 1.6669306513e+00 -2.8872085807e+00 1.6669306513e+00 2.8872085807e+00 
1700 7.2158785064e+00 -8.3028691618e-02 1.6695178527e+00 -2.8916897449e+00 1.6695178527e+00 2.8916897449e+00 
1800 7.2053004888e+00 -7.9979365562e-02 1.6720050759e+00 -2.8959977419e+00 1.6720050759e+00 2.8959977419e+00 
1900 7.1951337211e+00 -7.7080228177e-02 1.6743973654e+00 -2.9001413090e+00 1.6743973654e+00 2.9001413090e+00 
2000 7.1853684367e+00 -7.4327876414e-02 1.6766996225e+00 -2.9041289353e+00 1.6766996225e+00 2.9041289353e+00 
2100 7.1759946037e+00 -7.1718757977e-02 1.6789166037e+00 -2.9079688593e+00 1.6789166037e+00 2.9079688593e+00 
2200 7.1670019627e+00 -6.9249191351e-02 1.6810529202e+00 -2.9116690681e+00 1.6810529202e+00 2.9116690681e+00 
2300 7.1583800641e+00 -6.6915384739e-02 1.6831130373e+00 -2.9152372954e+00 1.6831130373e+00 2.9152372954e+00 
2400 7.1501183036e+00 -6.4713453900e-02 1.6851012739e+00 -2.9186810224e+00 1.6851012739e+00 2.9186810224e+00 
2500 7.1422059569e+00 -6.2639438907e-02 1.6870218033e+00 -2.9220074768e+00 1.6870218033e+00 2.9220074768e+00 
2600 7.1346322123e+00 -6.0689319835e-02 1.6888786529e+00 -2.9252236347e+00 1.6888786529e+00 2.9252236347e+00 
2700 7.1273862025e+00 -5.8859031406e-02 1.6906757053e+00 -2.9283362207e+00 1.6906757053e+00 2.9283362207e+00 
2800 7.1204570348e+00 -5.7144476614e-02 1.6924166992e+00 -2.9313517106e+00 1.6924166992e+00 2.9313517106e+00 
2900 7.1138338194e+00 -5.5541539366e-02 1.6941052304e+00 -2.9342763324e+00 1.6941052304e+00 2.9342763324e+00 
3000 7.1075056969e+00 -5.4046096174e-02 1.6957447533e+00 -2.9371160695e+00 1.6957447533e+00 2.9371160695e+00 
3100 7.1014618639e+00 -5.2654026935e-02 1.6973385826e+00 -2.9398766628e+00 1.6973385826e+00 2.9398766628e+00 
3200 7.0956915971e+00 -5.1361224840e-02 1.6988898948e+00 -2.9425636142e+00 1.6988898948e+00 2.9425636142e+00 
3300 7.0901842766e+00 -5.0163605449e-02 1.7004017301e+00 -2.9451821898e+00 1.7004017301e+00 2.9451821898e+00 
3400 7.0849294064e+00 -4.9057114981e-02 1.7018769948e+00 -2.9477374231e+00 1.7018769948e+00 2.9477374231e+00 
3500 7.0799166350e+00 -4.8037737850e-02 1.7033184630e+00 -2.9502341194e+00 1.7033184630e+00 2.9502341194e+00 
3600 7.0751357731e+00 -4.7101503499e-02 1.7047287794e+00 -2.9526768591e+00 1.7047287794e+00 2.9526768591e+00 
3700 7.0705768111e+00 -4.6244492568e-02 1.7061104614e+00 -2.9550700025e+00 1.7061104614e+00 2.9550700025e+00 
3800 7.0662299345e+00 -4.5462842436e-02 1.7074659015e+00 -2.9574176936e+00 1.7074659015e+00 2.9574176936e+00 
3900 7.0620855375e+00 -4.4752752175e-02 1.7087973701e+00 -2.9597238649e+00 1.7087973701e+00 2.9597238649e+00 
4000 7.0581342367e+00 -4.4110486957e-02 1.7101070182e+00 -2.9619922419e+00 1.7101070182e+00 2.9619922419e+00 
4100 7.0543668817e+00 -4.3532381954e-02 1.7113968798e+00 -2.9642263477e+00 1.7113968798e+00 2.9642263477e+00 
4200 7.0507745657e+00 -4.3014845755e-02 1.7126688749e+00 -2.9664295079e+00 1.7126688749e+00 2.9664295079e+00 
4300 7.0473486342e+00 -4.2554363346e-02 1.7139248123e+00 -2.9686048553e+00 1.7139248123e+00 2.9686048553e+00 
4400 7.0440806924e+00 -4.2147498678e-02 1.7151663924e+00 -2.9707553350e+00 1.7151663924e+00 2.9707553350e+00 
4500 7.0409626121e+00 -4.1790896858e-02 1.7163952098e+00 -2.9728837092e+00 1.7163952098e+00 2.9728837092e+00 
4600 7.0379865365e+00 -4.1481285989e-02 1.7176127567e+00 -2.9749925624e+00 1.7176127567e+00 2.9749925624e+00 
4700 7.0351448846e+00 -4.1215478684e-02 1.7188204254e+00 -2.9770843059e+00 1.7188204254e+00 2.9770843059e+00 
4800 7.0324303541e+00 -4.0990373296e-02 1.7200195113e+00 -2.9791611836e+00 1.7200195113e+00 2.9791611836e+00 
4900 7.0298359237e+00 -4.0802954857e-02 1.7212112159e+00 -2.9812252765e+00 1.7212112159e+00 2.9812252765e+00 
5000 7.0273548541e+00 -4.0650295788e-02 1.7223966496e+00 -2.9832785078e+00 1.7223966496e+00 2.9832785078e+00 
5100 7.0249806879e+00 -4.0529556366e-02 1.7235768346e+00 -2.9853226482e+00 1.7235768346e+00 2.9853226482e+00 
5200 7.0227072492e+00 -4.0437984993e-02 1.7247527079e+00 -2.9873593206e+00 1.7247527079e+00 2.9873593206e+00 
5300 7.0205286421e+00 -4.0372918267e-02 1.7259251242e+00 -2.9893900052e+00 1.7259251242e+00 2.9893900052e+00 
5400 7.0184392482e+00 -4.0331780893e-02 1.7270948585e+00 -2.9914160443e+00 1.7270948585e+00 2.9914160443e+00 
5500 7.0164337235e+00 -4.0312085425e-02 1.7282626091e+00 -2.9934386478e+00 1.7282626091e+00 2.9934386478e+00 
5600 7.0145069950e+00 -4.0311431874e-02 1.7294290006e+00 -2.9954588971e+00 1.7294290006e+00 2.9954588971e+00 
5700 7.0126542562e+00 -4.0327507190e-02 1.7305945864e+00 -2.9974777509e+00 1.7305945864e+00 2.9974777509e+00 
5800 7.0108709620e+00 -4.0358084619e-02 1.7317598514e+00 -2.9994960492e+00 1.7317598514e+00 2.9994960492e+00 
5900 7.0091528236e+00 -4.0401022969e-02 1.7329252153e+00 -3.0015145187e+00 1.7329252153e+00 3.0015145187e+00 
6000 7.0074958026e+00 -4.0454265772e-02 1.7340910345e+00 -3.0035337767e+00 1.7340910345e+00 3.0035337767e+00 
6100 7.0058961043e+00 -4.0515840367e-02 1.7352576053e+00 -3.0055543366e+00 1.7352576053e+00 3.0055543366e+00 
6200 7.0043501712e+00 -4.0583856911e-02 1.7364251662e+00 -3.0075766114e+00 1.7364251662e+00 3.0075766114e+00 
6300 7.0028546761e+00 -4.0656507314e-02 1.7375939009e+00 -3.0096009193e+00 1.7375939009e+00 3.0096009193e+00 
6400 7.0014065144e+00 -4.0732064123e-02 1.7387639403e+00 -3.0116274870e+00 1.7387639403e+00 3.0116274870e+00 
6500 7.0000027969e+00 -4.0808879351e-02 1.7399353654e+00 -3.0136564547e+00 1.7399353654e+00 3.0136564547e+00 
6600 6.9986408415e+00 -4.0885383256e-02 1.7411082095e+00 -3.0156878804e+00 1.7411082095e+00 3.0156878804e+00 
6700 6.9973181656e+00 -4.0960083081e-02 1.7422824610e+00 -3.0177217435e+00 1.7422824610e+00 3.0177217435e+00 
6800 6.9960324776e+00 -4.1031561760e-02 1.7434580650e+00 -3.0197579494e+00 1.7434580650e+00 3.0197579494e+00 
6900 6.9947816691e+00 -4.1098476587e-02 1.7446349265e+00 -3.0217963334e+00 1.7446349265e+00 3.0217963334e+00 
7000 6.9935638062e+00 -4.1159557860e-02 1.7458129122e+00 -3.0238366644e+00 1.7458129122e+00 3.0238366644e+00 
7100 6.9923771213e+00 -4.1213607503e-02 1.7469918525e+00 -3.0258786490e+00 1.7469918525e+00 3.0258786490e+00 
7200 6.9912200048e+00 -4.1259497663e-02 1.7481715444e+00 -3.0279219353e+00 1.7481715444e+00 3.0279219353e+00 
7300 6.9900909966e+00 -4.1296169293e-02 1.7493517529e+00 -3.0299661163e+00 1.7493517529e+00 3.0299661163e+00 
7400 6.9889887781e+00 -4.1322630720e-02 1.7505322133e+00 -3.0320107337e+00 1.7505322133e+00 3.0320107337e+00 
7500 6.9879121637e+00 -4.1337956200e-02 1.7517126335e+00 -3.0340552814e+00 1.7517126335e+00 3.0340552814e+00 
7600 6.9868600930e+00 -4.1341284462e-02 1.7528926956e+00 -3.0360992089e+00 1.7528926956e+00 3.0360992089e+00 
7700 6.9858316222e+00 -4.1331817248e-02 1.7540720580e+00 -3.0381419246e+00 1.7540720580e+00 3.0381419246e+00 
7800 6.9848259172e+00 -4.1308817845e-02 1.7552503574e+00 -3.0401827991e+00 1.7552503574e+00 3.0401827991e+00 
7900 6.9838422451e+00 -4.1271609613e-02 1.7564272103e+00 -3.0422211681e+00 1.7564272103e+00 3.0422211681e+00 
8000 6.9828799670e+00 -4.1219574510e-02 1.7576022151e+00 -3.0442563361e+00 1.7576022151e+00 3.0442563361e+00 
8100 6.9819385305e+00 -4.1152151621e-02 1.7587749536e+00 -3.0462875787e+00 1.7587749536e+00 3.0462875787e+00 
8200 6.9810174630e+00 -4.1068835684e-02 1.7599449928e+00 -3.0483141460e+00 1.7599449928e+00 3.0483141460e+00 
8300 6.9801163642e+00 -4.0969175616e-02 1.7611118863e+00 -3.0503352650e+00 1.7611118863e+00 3.0503352650e+00 
8400 6.9792348999e+00 -4.0852773047e-02 1.7622751765e+00 -3.0523501426e+00 1.7622751765e+00 3.0523501426e+00 
8500 6.9783727951e+00 -4.0719280857e-02 1.7634343952e+00 -3.0543579684e+00 1.7634343952e+00 3.0543579684e+00 
8600 6.9775298281e+00 -4.0568401720e-02 1.7645890660e+00 -3.0563579167e+00 1.7645890660e+00 3.0563579167e+00 
8700 6.9767058246e+00 -4.0399886648e-02 1.7657387048e+00 -3.0583491497e+00 1.7657387048e+00 3.0583491497e+00 
8800 6.9759006516e+00 -4.0213533550e-02 1.7668828222e+00 -3.0603308191e+00 1.7668828222e+00 3.0603308191e+00 
8900 6.9751142124e+00 -4.0009185795e-02 1.7680209239e+00 -3.0623020691e+00 1.7680209239e+00 3.0623020691e+00 
9000 6.9743464407e+00 -3.9786730788e-02 1.7691525126e+00 -3.0642620382e+00 1.7691525126e+00 3.0642620382e+00 
9100 6.9735972968e+00 -3.9546098551e-02 1.7702770890e+00 -3.0662098616e+00 1.7702770890e+00 3.0662098616e+00 
9200 6.9728667616e+00 -3.9287260317e-02 1.7713941530e+00 -3.0681446732e+00 1.7713941530e+00 3.0681446732e+00 
9300 6.9721548331e+00 -3.9010227135e-02 1.7725032047e+00 -3.0700656072e+00 1.7725032047e+00 3.0700656072e+00 
9400 6.9714615222e+00 -3.8715048487e-02 1.7736037461e+00 -3.0719718007e+00 1.7736037461e+00 3.0719718007e+00 
9500 6.9707868483e+00 -3.8401810915e-02 1.7746952812e+00 -3.0738623951e+00 1.7746952812e+00 3.0738623951e+00 
9600 6.9701308359e+00 -3.8070636664e-02 1.7757773180e+00 -3.0757365377e+00 1.7757773180e+00 3.0757365377e+00 
9700 6.9694935116e+00 -3.7721682336e-02 1.7768493686e+00 -3.0775933839e+00 1.7768493686e+00 3.0775933839e+00 
9800 6.9688749005e+00 -3.7355137558e-02 1.7779109509e+00 -3.0794320983e+00 1.7779109509e+00 3.0794320983e+00 
9900 6.9682750234e+00 -3.6971223663e-02 1.7789615889e+00 -3.0812518566e+00 1.7789615889e+00 3.0812518566e+00 
10000 6.9676938945e+00 -3.6570192388e-02 1.7800008137e+00 -3.0830518468e+00 1.7800008137e+00 3.0830518468e+00 
10100 6.9671315186e+00 -3.6152324580e-02 1.7810281646e+00 -3.0848312707e+00 1.7810281646e+00 3.0848312707e+00 
10200 6.9665878892e+00 -3.5717928926e-02 1.7820431894e+00 -3.0865893453e+00 1.7820431894e+00 3.0865893453e+00 
10300 6.9660629864e+00 -3.5267340688e-02 1.7830454455e+00 -3.0883253039e+00 1.7830454455e+00 3.0883253039e+00 
10400 6.9655567754e+00 -3.4800920460e-02 1.7840345005e+00 -3.0900383973e+00 1.7840345005e+00 3.0900383973e+00 
10500 6.9650692047e+00 -3.4319052936e-02 1.7850099326e+00 -3.0917278952e+00 1.7850099326e+00 3.0917278952e+00 
10600 6.9646002053e+00 -3.3822145695e-02 1.7859713315e+00 -3.0933930870e+00 1.7859713315e+00 3.0933930870e+00 
10700 6.9641496890e+00 -3.3310628002e-02 1.7869182989e+00 -3.0950332826e+00 1.7869182989e+00 3.0950332826e+00 
10800 6.9637175478e+00 -3.2784949618e-02 1.7878504490e+00 -3.0966478140e+00 1.7878504490e+00 3.0966478140e+00 
10900 6.9633036534e+00 -3.2245579632e-02 1.7887674091e+00 -3.0982360355e+00 1.7887674091e+00 3.0982360355e+00 
11000 6.9629078564e+00 -3.1693005305e-02 1.7896688199e+00 -3.0997973249e+00 1.7896688199e+00 3.0997973249e+00 
11100 6.9625299858e+00 -3.1127730931e-02 1.7905543362e+00 -3.1013310840e+00 1.7905543362e+00 3.1013310840e+00 
11200 6.9621698490e+00 -3.0550276705e-02 1.7914236270e+00 -3.1028367399e+00 1.7914236270e+00 3.1028367399e+00 
11300 6.9618272320e+00 -2.9961177617e-02 1.7922763762e+00 -3.1043137447e+00 1.7922763762e+00 3.1043137447e+00 
11400 6.9615018988e+00 -2.9360982352e-02 1.7931122825e+00 -3.1057615770e+00 1.7931122825e+00 3.1057615770e+00 
11500 6.9611935923e+00 -2.8750252209e-02 1.7939310605e+00 -3.1071797420e+00 1.7939310605e+00 3.1071797420e+00 
11600 6.9609020342e+00 -2.8129560027e-02 1.7947324400e+00 -3.1085677720e+00 1.7947324400e+00 3.1085677720e+00 
11700 6.9606269258e+00 -2.7499489139e-02 1.7955161670e+00 -3.1099252271e+00 1.7955161670e+00 3.1099252271e+00 
11800 6.9603679482e+00 -2.6860632322e-02 1.7962820037e+00 -3.1112516951e+00 1.7962820037e+00 3.1112516951e+00 
11900 6.9601247635e+00 -2.6213590778e-02 1.7970297286e+00 -3.1125467926e+00 1.7970297286e+00 3.1125467926e+00 
12000 6.9598970151e+00 -2.5558973115e-02 1.7977591367e+00 -3.1138101646e+00 1.7977591367e+00 3.1138101646e+00 
12100 6.9596843288e+00 -2.4897394348e-02 1.7984700400e+00 -3.1150414852e+00 1.7984700400e+00 3.1150414852e+00 
12200 6.9594863137e+00 -2.4229474917e-02 1.7991622670e+00 -3.1162404575e+00 1.7991622670e+00 3.1162404575e+00 
12300 6.9593025632e+00 -2.3555839710e-02 1.7998356634e+00 -3.1174068142e+00 1.7998356634e+00 3.1174068142e+00 
12400 6.9591326563e+00 -2.2877117102e-02 1.8004900916e+00 -3.1185403172e+00 1.8004900916e+00 3.1185403172e+00 
12500 6.9589761581e+00 -2.2193938017e-02 1.8011254315e+00 -3.1196407581e+00 1.8011254315e+00 3.1196407581e+00 
12600 6.9588326220e+00 -2.1506934986e-02 1.8017415796e+00 -3.1207079581e+00 1.8017415796e+00 3.1207079581e+00 
12700 6.9587015900e+00 -2.0816741236e-02 1.8023384500e+00 -3.1217417678e+00 1.8023384500e+00 3.1217417678e+00 
12800 6.9585825943e+00 -2.0123989779e-02 1.8029159734e+00 -3.1227420677e+00 1.8029159734e+00 3.1227420677e+00 
12900 6.9584751588e+00 -1.9429312524e-02 1.8034740978e+00 -3.1237087675e+00 1.8034740978e+00 3.1237087675e+00 
13000 6.9583788002e+00 -1.8733339401e-02 1.8040127881e+00 -3.1246418064e+00 1.8040127881e+00 3.1246418064e+00 
13100 6.9582930293e+00 -1.8036697496e-02 1.8045320260e+00 -3.1255411529e+00 1.8045320260e+00 3.1255411529e+00 
13200 6.9582173523e+00 -1.7340010202e-02 1.8050318101e+00 -3.1264068044e+00 1.8050318101e+00 3.1264068044e+00 
13300 6.9581512723e+00 -1.6643896391e-02 1.8055121557e+00 -3.1272387873e+00 1.8055121557e+00 3.1272387873e+00 
13400 6.9580942906e+00 -1.5948969590e-02 1.8059730942e+00 -3.1280371563e+00 1.8059730942e+00 3.1280371563e+00 
13500 6.9580459078e+00 -1.5255837185e-02 1.8064146739e+00 -3.1288019947e+00 1.8064146739e+00 3.1288019947e+00 
13600 6.9580056255e+00 -1.4565099634e-02 1.8068369588e+00 -3.1295334136e+00 1.8068369588e+00 3.1295334136e+00 
13700 6.9579729472e+00 -1.3877349700e-02 1.8072400289e+00 -3.1302315515e+00 1.8072400289e+00 3.1302315515e+00 
13800 6.9579473796e+00 -1.3193171697e-02 1.8076239801e+00 -3.1308965746e+00 1.8076239801e+00 3.1308965746e+00 
13900 6.9579284341e+00 -1.2513140763e-02 1.8079889237e+00 -3.1315286754e+00 1.8079889237e+00 3.1315286754e+00 
14000 6.9579156279e+00 -1.1837822144e-02 1.8083349861e+00 -3.1321280731e+00 1.8083349861e+00 3.1321280731e+00 
14100 6.9579084847e+00 -1.1167770501e-02 1.8086623088e+00 -3.1326950125e+00 1.8086623088e+00 3.1326950125e+00 
14200 6.9579065365e+00 -1.0503529239e-02 1.8089710477e+00 -3.1332297640e+00 1.8089710477e+00 3.1332297640e+00 
14300 6.9579093243e+00 -9.8456298529e-03 1.8092613732e+00 -3.1337326226e+00 1.8092613732e+00 3.1337326226e+00 
14400 6.9579163990e+00 -9.1945912985e-03 1.8095334698e+00 -3.1342039077e+00 1.8095334698e+00 3.1342039077e+00 
14500 6.9579273227e+00 -8.5509193872e-03 1.8097875355e+00 -3.1346439623e+00 1.8097875355e+00 3.1346439623e+00 
14600 6.9579416691e+00 -7.9151062019e-03 1.8100237816e+00 -3.1350531526e+00 1.8100237816e+00 3.1350531526e+00 
14700 6.9579590249e+00 -7.2876295395e-03 1.8102424324e+00 -3.1354318670e+00 1.8102424324e+00 3.1354318670e+00 
14800 6.9579789901e+00 -6.6689523775e-03 1.8104437249e+00 -3.1357805158e+00 1.8104437249e+00 3.1357805158e+00 
14900 6.9580011793e+00 -6.0595223678e-03 1.8106279081e+00 -3.1360995305e+00 1.8106279081e+00 3.1360995305e+00 
15000 6.9580252216e+00 -5.4597713576e-03 1.8107952428e+00 -3.1363893626e+00 1.8107952428e+00 3.1363893626e+00 
15100 6.9580507618e+00 -4.8701149376e-03 1.8109460010e+00 -3.1366504835e+00 1.8109460010e+00 3.1366504835e+00 
15200 6.9580774605e+00 -4.2909520198e-03 1.8110804660e+00 -3.1368833837e+00 1.8110804660e+00 3.1368833837e+00 
15300 6.9581049949e+00 -3.7226644444e-03 1.8111989311e+00 -3.1370885713e+00 1.8111989311e+00 3.1370885713e+00 
15400 6.9581330591e+00 -3.1656166171e-03 1.8113017001e+00 -3.1372665724e+00 1.8113017001e+00 3.1372665724e+00 
15500 6.9581613641e+00 -2.6201551774e-03 1.8113890859e+00 -3.1374179291e+00 1.8113890859e+00 3.1374179291e+00 
15600 6.9581896385e+00 -2.0866086980e-03 1.8114614109e+00 -3.1375431996e+00 1.8114614109e+00 3.1375431996e+00 
15700 6.9582176285e+00 -1.5652874174e-03 1.8115190058e+00 -3.1376429569e+00 1.8115190058e+00 3.1376429569e+00 
15800 6.9582450979e+00 -1.0564830039e-03 1.8115622097e+00 -3.1377177882e+00 1.8115622097e+00 3.1377177882e+00 
15900 6.9582718282e+00 -5.6046835409e-04 1.8115913692e+00 -3.1377682940e+00 1.8115913692e+00 3.1377682940e+00 
16000 6.9582976188e+00 -7.7497423270e-05 1.8116068382e+00 -3.1377950871e+00 1.8116068382e+00 3.1377950871e+00 
16100 6.9583222867e+00 3.9219490905e-04 1.8116089771e+00 -3.1377987918e+00 1.8116089771e+00 3.1377987918e+00 
16200 6.9583456664e+00 8.4839294038e-04 1.8115981526e+00 -3.1377800432e+00 1.8115981526e+00 3.1377800432e+00 
16300 6.9583676098e+00 1.2909002123e-03 1.8115747371e+00 -3.1377394863e+00 1.8115747371e+00 3.1377394863e+00 
16400 6.9583879859e+00 1.7195395433e-03 1.8115391080e+00 -3.1376777749e+00 1.8115391080e+00 3.1376777749e+00 
16500 6.9584066803e+00 2.1341530278e-03 1.8114916474e+00 -3.1375955708e+00 1.8114916474e+00 3.1375955708e+00 
16600 6.9584235954e+00 2.5346020010e-03 1.8114327418e+00 -3.1374935433e+00 1.8114327418e+00 3.1374935433e+00 
16700 6.9584386492e+00 2.9207669708e-03 1.8113627810e+00 -3.1373723676e+00 1.8113627810e+00 3.1373723676e+00 
16800 6.9584517755e+00 3.2925475156e-03 1.8112821581e+00 -3.1372327247e+00 1.8112821581e+00 3.1372327247e+00 
16900 6.9584629234e+00 3.6498621503e-03 1.8111912689e+00 -3.1370753000e+00 1.8111912689e+00 3.1370753000e+00 
17000 6.9584720561e+00 3.9926481592e-03 1.8110905112e+00 -3.1369007826e+00 1.8110905112e+00 3.1369007826e+00 
17100 6.9584791511e+00 4.3208613982e-03 1.8109802846e+00 -3.1367098645e+00 1.8109802846e+00 3.1367098645e+00 
17200 6.9584841993e+00 4.6344760658e-03 1.8108609897e+00 -3.1365032397e+00 1.8108609897e+00 3.1365032397e+00 
17300 6.9584872042e+00 4.9334844444e-03 1.8107330279e+00 -3.1362816033e+00 1.8107330279e+00 3.1362816033e+00 
17400 6.9584881814e+00 5.2178966119e-03 1.8105968007e+00 -3.1360456508e+00 1.8105968007e+00 3.1360456508e+00 
17500 6.9584871581e+00 5.4877401265e-03 1.8104527093e+00 -3.1357960772e+00 1.8104527093e+00 3.1357960772e+00 
17600 6.9584841721e+00 5.7430596838e-03 1.8103011543e+00 -3.1355335763e+00 1.8103011543e+00 3.1355335763e+00 
17700 6.9584792712e+00 5.9839167481e-03 1.8101425350e+00 -3.1352588395e+00 1.8101425350e+00 3.1352588395e+00 
17800 6.9584725126e+00 6.2103891601e-03 1.8099772489e+00 -3.1349725557e+00 1.8099772489e+00 3.1349725557e+00 
17900 6.9584639620e+00 6.4225707201e-03 1.8098056918e+00 -3.1346754100e+00 1.8098056918e+00 3.1346754100e+00 
18000 6.9584536928e+00 6.6205707511e-03 1.8096282565e+00 -3.1343680831e+00 1.8096282565e+00 3.1343680831e+00 
18100 6.9584417856e+00 6.8045136395e-03 1.8094453334e+00 -3.1340512509e+00 1.8094453334e+00 3.1340512509e+00 
18200 6.9584283273e+00 6.9745383591e-03 1.8092573090e+00 -3.1337255832e+00 1.8092573090e+00 3.1337255832e+00 
18300 6.9584134104e+00 7.1307979754e-03 1.8090645665e+00 -3.1333917434e+00 1.8090645665e+00 3.1333917434e+00 
18400 6.9583971323e+00 7.2734591362e-03 1.8088674849e+00 -3.1330503880e+00 1.8088674849e+00 3.1330503880e+00 
18500 6.9583795945e+00 7.4027015458e-03 1.8086664385e+00 -3.1327021655e+00 1.8086664385e+00 3.1327021655e+00 
18600 6.9583609018e+00 7.5187174282e-03 1.8084617971e+00 -3.1323477161e+00 1.8084617971e+00 3.1323477161e+00 
18700 6.9583411621e+00 7.6217109777e-03 1.8082539250e+00 -3.1319876711e+00 1.8082539250e+00 3.1319876711e+00 
18800 6.9583204851e+00 7.7118978009e-03 1.8080431813e+00 -3.1316226523e+00 1.8080431813e+00 3.1316226523e+00 
18900 6.9582989820e+00 7.7895043498e-03 1.8078299191e+00 -3.1312532713e+00 1.8078299191e+00 3.1312532713e+00 
19000 6.9582767648e+00 7.8547673489e-03 1.8076144854e+00 -3.1308801292e+00 1.8076144854e+00 3.1308801292e+00 
19100 6.9582539457e+00 7.9079332175e-03 1.8073972209e+00 -3.1305038160e+00 1.8073972209e+00 3.1305038160e+00 
19200 6.9582306364e+00 7.9492574878e-03 1.8071784595e+00 -3.1301249102e+00 1.8071784595e+00 3.1301249102e+00 
19300 6.9582069479e+00 7.9790042217e-03 1.8069585284e+00 -3.1297439783e+00 1.8069585284e+00 3.1297439783e+00 
19400 6.9581829895e+00 7.9974454271e-03 1.8067377474e+00 -3.1293615744e+00 1.8067377474e+00 3.1293615744e+00 
19500 6.9581588687e+00 8.0048604743e-03 1.8065164291e+00 -3.1289782399e+00 1.8065164291e+00 3.1289782399e+00 
19600 6.9581346904e+00 8.0015355157e-03 1.8062948785e+00 -3.1285945030e+00 1.8062948785e+00 3.1285945030e+00 
19700 6.9581105569e+00 7.9877629084e-03 1.8060733927e+00 -3.1282108784e+00 1.8060733927e+00 3.1282108784e+00 
19800 6.9580865669e+00 7.9638406414e-03 1.8058522611e+00 -3.1278278671e+00 1.8058522611e+00 3.1278278671e+00 
19900 6.9580628159e+00 7.9300717695e-03 1.8056317647e+00 -3.1274459562e+00 1.8056317647e+00 3.1274459562e+00 
20000 6.9580393952e+00 7.8867638539e-03 1.8054121764e+00 -3.1270656181e+00 1.8054121764e+00 3.1270656181e+00 
20100 6.9580163919e+00 7.8342284108e-03 1.8051937608e+00 -3.1266873111e+00 1.8051937608e+00 3.1266873111e+00 
20200 6.9579938886e+00 7.7727803696e-03 1.8049767738e+00 -3.1263114786e+00 1.8049767738e+00 3.1263114786e+00 
20300 6.9579719631e+00 7.7027375409e-03 1.8047614628e+00 -3.1259385491e+00 1.8047614628e+00 3.1259385491e+00 
20400 6.9579506886e+00 7.6244200957e-03 1.8045480666e+00 -3.1255689360e+00 1.8045480666e+00 3.1255689360e+00 
20500 6.9579301327e+00 7.5381500562e-03 1.8043368150e+00 -3.1252030376e+00 1.8043368150e+00 3.1252030376e+00 
20600 6.9579103581e+00 7.4442507993e-03 1.8041279293e+00 -3.1248412369e+00 1.8041279293e+00 3.1248412369e+00 
20700 6.9578914222e+00 7.3430465731e-03 1.8039216216e+00 -3.1244839015e+00 1.8039216216e+00 3.1244839015e+00 
20800 6.9578733769e+00 7.2348620271e-03 1.8037180954e+00 -3.1241313837e+00 1.8037180954e+00 3.1241313837e+00 
20900 6.9578562685e+00 7.1200217568e-03 1.8035175449e+00 -3.1237840202e+00 1.8035175449e+00 3.1237840202e+00 
21000 6.9578401381e+00 6.9988498629e-03 1.8033201559e+00 -3.1234421323e+00 1.8033201559e+00 3.1234421323e+00 
21100 6.9578250213e+00 6.8716695260e-03 1.8031261048e+00 -3.1231060260e+00 1.8031261048e+00 3.1231060260e+00 
21200 6.9578109483e+00 6.7388025955e-03 1.8029355594e+00 -3.1227759917e+00 1.8029355594e+00 3.1227759917e+00 
21300 6.9577979438e+00 6.6005691958e-03 1.8027486785e+00 -3.1224523044e+00 1.8027486785e+00 3.1224523044e+00 
21400 6.9577860275e+00 6.4572873473e-03 1.8025656120e+00 -3.1221352239e+00 1.8025656120e+00 3.1221352239e+00 
21500 6.9577752137e+00 6.3092726035e-03 1.8023865011e+00 -3.1218249949e+00 1.8023865011e+00 3.1218249949e+00 
21600 6.9577655119e+00 6.1568377046e-03 1.8022114785e+00 -3.1215218467e+00 1.8022114785e+00 3.1215218467e+00 
21700 6.9577569265e+00 6.0002922468e-03 1.8020406677e+00 -3.1212259938e+00 1.8020406677e+00 3.1212259938e+00 
21800 6.9577494576e+00 5.8399423680e-03 1.8018741843e+00 -3.1209376360e+00 1.8018741843e+00 3.1209376360e+00 
21900 6.9577431002e+00 5.6760904493e-03 1.8017121348e+00 -3.1206569581e+00 1.8017121348e+00 3.1206569581e+00 
22000 6.9577378455e+00 5.5090348327e-03 1.8015546178e+00 -3.1203841306e+00 1.8015546178e+00 3.1203841306e+00 
22100 6.9577336801e+00 5.3390695544e-03 1.8014017232e+00 -3.1201193095e+00 1.8014017232e+00 3.1201193095e+00 
22200 6.9577305872e+00 5.1664840940e-03 1.8012535332e+00 -3.1198626368e+00 1.8012535332e+00 3.1198626368e+00 
22300 6.9577285458e+00 4.9915631387e-03 1.8011101215e+00 -3.1196142405e+00 1.8011101215e+00 3.1196142405e+00 
22400 6.9577275317e+00 4.8145863628e-03 1.8009715542e+00 -3.1193742349e+00 1.8009715542e+00 3.1193742349e+00 
22500 6.9577275175e+00 4.6358282226e-03 1.8008378895e+00 -3.1191427208e+00 1.8008378895e+00 3.1191427208e+00 
22600 6.9577284729e+00 4.4555577652e-03 1.8007091779e+00 -3.1189197859e+00 1.8007091779e+00 3.1189197859e+00 
22700 6.9577303645e+00 4.2740384519e-03 1.8005854626e+00 -3.1187055046e+00 1.8005854626e+00 3.1187055046e+00 
22800 6.9577331568e+00 4.0915279959e-03 1.8004667792e+00 -3.1184999390e+00 1.8004667792e+00 3.1184999390e+00 
22900 6.9577368120e+00 3.9082782128e-03 1.8003531563e+00 -3.1183031383e+00 1.8003531563e+00 3.1183031383e+00 
23000 6.9577412902e+00 3.7245348849e-03 1.8002446154e+00 -3.1181151400e+00 1.8002446154e+00 3.1181151400e+00 
23100 6.9577465498e+00 3.5405376389e-03 1.8001411712e+00 -3.1179359693e+00 1.8001411712e+00 3.1179359693e+00 
23200 6.9577525478e+00 3.3565198346e-03 1.8000428315e+00 -3.1177656400e+00 1.8000428315e+00 3.1177656400e+00 
23300 6.9577592399e+00 3.1727084672e-03 1.7999495979e+00 -3.1176041546e+00 1.7999495979e+00 3.1176041546e+00 
23400 6.9577665809e+00 2.9893240805e-03 1.7998614653e+00 -3.1174515046e+00 1.7998614653e+00 3.1174515046e+00 
23500 6.9577745247e+00 2.8065806916e-03 1.7997784228e+00 -3.1173076707e+00 1.7997784228e+00 3.1173076707e+00 
23600 6.9577830245e+00 2.6246857265e-03 1.7997004532e+00 -3.1171726233e+00 1.7997004532e+00 3.1171726233e+00 
23700 6.9577920337e+00 2.4438399665e-03 1.7996275336e+00 -3.1170463229e+00 1.7996275336e+00 3.1170463229e+00 
23800 6.9578015049e+00 2.2642375041e-03 1.7995596356e+00 -3.1169287200e+00 1.7995596356e+00 3.1169287200e+00 
23900 6.9578113914e+00 2.0860657092e-03 1.7994967250e+00 -3.1168197558e+00 1.7994967250e+00 3.1168197558e+00 
24000 6.9578216463e+00 1.9095052043e-03 1.7994387629e+00 -3.1167193624e+00 1.7994387629e+00 3.1167193624e+00 
24100 6.9578322235e+00 1.7347298492e-03 1.7993857048e+00 -3.1166274631e+00 1.7993857048e+00 3.1166274631e+00 
24200 6.9578430773e+00 1.5619067333e-03 1.7993375016e+00 -3.1165439728e+00 1.7993375016e+00 3.1165439728e+00 
24300 6.9578541629e+00 1.3911961774e-03 1.7992940995e+00 -3.1164687981e+00 1.7992940995e+00 3.1164687981e+00 
24400 6.9578654364e+00 1.2227517421e-03 1.7992554402e+00 -3.1164018381e+00 1.7992554402e+00 3.1164018381e+00 
24500 6.9578768550e+00 1.0567202446e-03 1.7992214609e+00 -3.1163429843e+00 1.7992214609e+00 3.1163429843e+00 
24600 6.9578883772e+00 8.9324178245e-04 1.7991920949e+00 -3.1162921210e+00 1.7991920949e+00 3.1162921210e+00 
24700 6.9578999628e+00 7.3244976395e-04 1.7991672716e+00 -3.1162491257e+00 1.7991672716e+00 3.1162491257e+00 
24800 6.9579115728e+00 5.7447094516e-04 1.7991469164e+00 -3.1162138694e+00 1.7991469164e+00 3.1162138694e+00 
24900 6.9579231701e+00 4.1942547327e-04 1.7991309513e+00 -3.1161862171e+00 1.7991309513e+00 3.1161862171e+00 
25000 6.9579347191e+00 2.6742693568e-04 1.7991192950e+00 -3.1161660278e+00 1.7991192950e+00 3.1161660278e+00 
25100 6.9579461858e+00 1.1858241481e-04 1.7991118628e+00 -3.1161531549e+00 1.7991118628e+00 3.1161531549e+00 
25200 6.9579575380e+00 -2.7007451811e-05 1.7991085672e+00 -3.1161474468e+00 1.7991085672e+00 3.1161474468e+00 
25300 6.9579687457e+00 -1.7012397033e-04 1.7991085672e+00 -3.1161474468e+00 1.7991085672e+00 3.1161474468e+00 
25400 6.9579797802e+00 -3.0890407347e-04 1.7991132952e+00 -3.1161556359e+00 1.7991132952e+00 3.1161556359e+00 
25500 6.9579906148e+00 -4.4416639482e-04 1.7991218801e+00 -3.1161705054e+00 1.7991218801e+00 3.1161705054e+00 
25600 6.9580012250e+00 -5.7583534217e-04 1.7991342241e+00 -3.1161918858e+00 1.7991342241e+00 3.1161918858e+00 
25700 6.9580115880e+00 -7.0384139861e-04 1.7991502273e+00 -3.1162196041e+00 1.7991502273e+00 3.1162196041e+00 
25800 6.9580216830e+00 -8.2812103578e-04 1.7991697877e+00 -3.1162534837e+00 1.7991697877e+00 3.1162534837e+00 
25900 6.9580314913e+00 -9.4861662348e-04 1.7991928017e+00 -3.1162933452e+00 1.7991928017e+00 3.1162933452e+00 
26000 6.9580409959e+00 -1.0652763359e-03 1.7992191641e+00 -3.1163390061e+00 1.7992191641e+00 3.1163390061e+00 
26100 6.9580501818e+00 -1.1780540548e-03 1.7992487680e+00 -3.1163902816e+00 1.7992487680e+00 3.1163902816e+00 
26200 6.9580590361e+00 -1.2869092691e-03 1.7992815055e+00 -3.1164469846e+00 1.7992815055e+00 3.1164469846e+00 
26300 6.9580675474e+00 -1.3918069726e-03 1.7993172674e+00 -3.1165089260e+00 1.7993172674e+00 3.1165089260e+00 
26400 6.9580757063e+00 -1.4927175581e-03 1.7993559435e+00 -3.1165759150e+00 1.7993559435e+00 3.1165759150e+00 
26500 6.9580835052e+00 -1.5896167097e-03 1.7993974229e+00 -3.1166477594e+00 1.7993974229e+00 3.1166477594e+00 
26600 6.9580909381e+00 -1.6824852925e-03 1.7994415938e+00 -3.1167242658e+00 1.7994415938e+00 3.1167242658e+00 
26700 6.9580980009e+00 -1.7713092404e-03 1.7994883442e+00 -3.1168052399e+00 1.7994883442e+00 3.1168052399e+00 
26800 6.9581046908e+00 -1.8560794415e-03 1.7995375615e+00 -3.1168904866e+00 1.7995375615e+00 3.1168904866e+00 
26900 6.9581110067e+00 -1.9367916220e-03 1.7995891328e+00 -3.1169798107e+00 1.7995891328e+00 3.1169798107e+00 
27000 6.9581169490e+00 -2.0134462285e-03 1.7996429451e+00 -3.1170730163e+00 1.7996429451e+00 3.1170730163e+00 
27100 6.9581225196e+00 -2.0860483084e-03 1.7996988855e+00 -3.1171699080e+00 1.7996988855e+00 3.1171699080e+00 
27200 6.9581277214e+00 -2.1546073893e-03 1.7997568413e+00 -3.1172702904e+00 1.7997568413e+00 3.1172702904e+00 
27300 6.9581325589e+00 -2.2191373568e-03 1.7998166999e+00 -3.1173739686e+00 1.7998166999e+00 3.1173739686e+00 
27400 6.9581370376e+00 -2.2796563314e-03 1.7998783493e+00 -3.1174807484e+00 1.7998783493e+00 3.1174807484e+00 
27500 6.9581411641e+00 -2.3361865440e-03 1.7999416777e+00 -3.1175904365e+00 1.7999416777e+00 3.1175904365e+00 
27600 6.9581449463e+00 -2.3887542112e-03 1.8000065743e+00 -3.1177028406e+00 1.8000065743e+00 3.1177028406e+00 
27700 6.9581483925e+00 -2.4373894091e-03 1.8000729287e+00 -3.1178177699e+00 1.8000729287e+00 3.1178177699e+00 
27800 6.9581515125e+00 -2.4821259472e-03 1.8001406317e+00 -3.1179350348e+00 1.8001406317e+00 3.1179350348e+00 
27900 6.9581543164e+00 -2.5230012406e-03 1.8002095747e+00 -3.1180544476e+00 1.8002095747e+00 3.1180544476e+00 
28000 6.9581568152e+00 -2.5600561834e-03 1.8002796503e+00 -3.1181758222e+00 1.8002796503e+00 3.1181758222e+00 
28100 6.9581590206e+00 -2.5933350203e-03 1.8003507524e+00 -3.1182989746e+00 1.8003507524e+00 3.1182989746e+00 
28200 6.9581609447e+00 -2.6228852188e-03 1.8004227759e+00 -3.1184237230e+00 1.8004227759e+00 3.1184237230e+00 
28300 6.9581626001e+00 -2.6487573411e-03 1.8004956173e+00 -3.1185498879e+00 1.8004956173e+00 3.1185498879e+00 
28400 6.9581639999e+00 -2.6710049162e-03 1.8005691741e+00 -3.1186772921e+00 1.8005691741e+00 3.1186772921e+00 
28500 6.9581651574e+00 -2.6896843116e-03 1.8006433457e+00 -3.1188057611e+00 1.8006433457e+00 3.1188057611e+00 
28600 6.9581660863e+00 -2.7048546058e-03 1.8007180330e+00 -3.1189351233e+00 1.8007180330e+00 3.1189351233e+00 
28700 6.9581668003e+00 -2.7165774607e-03 1.8007931384e+00 -3.1190652097e+00 1.8007931384e+00 3.1190652097e+00 
28800 6.9581673135e+00 -2.7249169946e-03 1.8008685662e+00 -3.1191958544e+00 1.8008685662e+00 3.1191958544e+00 
28900 6.9581676398e+00 -2.7299396555e-03 1.8009442224e+00 -3.1193268947e+00 1.8009442224e+00 3.1193268947e+00 
29000 6.9581677932e+00 -2.7317140955e-03 1.8010200148e+00 -3.1194581711e+00 1.8010200148e+00 3.1194581711e+00 
29100 6.9581677876e+00 -2.7303110451e-03 1.8010958533e+00 -3.1195895272e+00 1.8010958533e+00 3.1195895272e+00 
29200 6.9581676370e+00 -2.7258031890e-03 1.8011716496e+00 -3.1197208103e+00 1.8011716496e+00 3.1197208103e+00 
29300 6.9581673548e+00 -2.7182650422e-03 1.8012473177e+00 -3.1198518712e+00 1.8012473177e+00 3.1198518712e+00 
29400 6.9581669547e+00 -2.7077728275e-03 1.8013227733e+00 -3.1199825642e+00 1.8013227733e+00 3.1199825642e+00 
29500 6.9581664497e+00 -2.6944043537e-03 1.8013979345e+00 -3.1201127472e+00 1.8013979345e+00 3.1201127472e+00 
29600 6.9581658528e+00 -2.6782388950e-03 1.8014727215e+00 -3.1202422821e+00 1.8014727215e+00 3.1202422821e+00 
29700 6.9581651766e+00 -2.6593570717e-03 1.8015470567e+00 -3.1203710344e+00 1.8015470567e+00 3.1203710344e+00 
29800 6.9581644332e+00 -2.6378407322e-03 1.8016208648e+00 -3.1204988738e+00 1.8016208648e+00 3.1204988738e+00 
29900 6.9581636344e+00 -2.6137728362e-03 1.8016940727e+00 -3.1206256737e+00 1.8016940727e+00 3.1206256737e+00 
30000 6.9581627915e+00 -2.5872373390e-03 1.8017666097e+00 -3.1207513115e+00 1.8017666097e+00 3.1207513115e+00 
30100 6.9581619155e+00 -2.5583190783e-03 1.8018384075e+00 -3.1208756688e+00 1.8018384075e+00 3.1208756688e+00 
30200 6.9581610167e+00 -2.5271036617e-03 1.8019093998e+00 -3.1209986312e+00 1.8019093998e+00 3.1209986312e+00 
30300 6.9581601051e+00 -2.4936773558e-03 1.8019795232e+00 -3.1211200884e+00 1.8019795232e+00 3.1211200884e+00 
30400 6.9581591900e+00 -2.4581269778e-03 1.8020487164e+00 -3.1212399345e+00 1.8020487164e+00 3.1212399345e+00 
30500 6.9581582802e+00 -2.4205397881e-03 1.8021169205e+00 -3.1213580675e+00 1.8021169205e+00 3.1213580675e+00 
30600 6.9581573842e+00 -2.3810033850e-03 1.8021840792e+00 -3.1214743897e+00 1.8021840792e+00 3.1214743897e+00 
30700 6.9581565096e+00 -2.3396056016e-03 1.8022501384e+00 -3.1215888076e+00 1.8022501384e+00 3.1215888076e+00 
30800 6.9581556636e+00 -2.2964344039e-03 1.8023150467e+00 -3.1217012321e+00 1.8023150467e+00 3.1217012321e+00 
30900 6.9581548530e+00 -2.2515777919e-03 1.8023787550e+00 -3.1218115781e+00 1.8023787550e+00 3.1218115781e+00 
31000 6.9581540837e+00 -2.2051237023e-03 1.8024412166e+00 -3.1219197648e+00 1.8024412166e+00 3.1219197648e+00 
31100 6.9581533613e+00 -2.1571599128e-03 1.8025023874e+00 -3.1220257158e+00 1.8025023874e+00 3.1220257158e+00 
31200 6.9581526907e+00 -2.1077739496e-03 1.8025622257e+00 -3.1221293587e+00 1.8025622257e+00 3.1221293587e+00 
31300 6.9581520765e+00 -2.0570529965e-03 1.8026206921e+00 -3.1222306254e+00 1.8026206921e+00 3.1222306254e+00 
31400 6.9581515225e+00 -2.0050838062e-03 1.8026777496e+00 -3.1223294521e+00 1.8026777496e+00 3.1223294521e+00 
31500 6.9581510320e+00 -1.9519526144e-03 1.8027333640e+00 -3.1224257789e+00 1.8027333640e+00 3.1224257789e+00 
31600 6.9581506080e+00 -1.8977450560e-03 1.8027875029e+00 -3.1225195503e+00 1.8027875029e+00 3.1225195503e+00 
31700 6.9581502527e+00 -1.8425460834e-03 1.8028401368e+00 -3.1226107149e+00 1.8028401368e+00 3.1226107149e+00 
31800 6.9581499680e+00 -1.7864398876e-03 1.8028912383e+00 -3.1226992252e+00 1.8028912383e+00 3.1226992252e+00 
31900 6.9581497554e+00 -1.7295098220e-03 1.8029407822e+00 -3.1227850379e+00 1.8029407822e+00 3.1227850379e+00 
32000 6.9581496158e+00 -1.6718383280e-03 1.8029887460e+00 -3.1228681136e+00 1.8029887460e+00 3.1228681136e+00 
32100 6.9581495496e+00 -1.6135068636e-03 1.8030351092e+00 -3.1229484170e+00 1.8030351092e+00 3.1229484170e+00 
32200 6.9581495571e+00 -1.5545958347e-03 1.8030798536e+00 -3.1230259165e+00 1.8030798536e+00 3.1230259165e+00 
32300 6.9581496378e+00 -1.4951845285e-03 1.8031229632e+00 -3.1231005846e+00 1.8031229632e+00 3.1231005846e+00 
32400 6.9581497912e+00 -1.4353510496e-03 1.8031644243e+00 -3.1231723974e+00 1.8031644243e+00 3.1231723974e+00 
32500 6.9581500161e+00 -1.3751722594e-03 1.8032042254e+00 -3.1232413348e+00 1.8032042254e+00 3.1232413348e+00 
32600 6.9581503114e+00 -1.3147237170e-03 1.8032423569e+00 -3.1233073804e+00 1.8032423569e+00 3.1233073804e+00 
32700 6.9581506752e+00 -1.2540796238e-03 1.8032788114e+00 -3.1233705216e+00 1.8032788114e+00 3.1233705216e+00 
32800 6.9581511058e+00 -1.1933127696e-03 1.8033135837e+00 -3.1234307490e+00 1.8033135837e+00 3.1234307490e+00 
32900 6.9581516008e+00 -1.1324944830e-03 1.8033466705e+00 -3.1234880570e+00 1.8033466705e+00 3.1234880570e+00 
33000 6.9581521580e+00 -1.0716945827e-03 1.8033780704e+00 -3.1235424432e+00 1.8033780704e+00 3.1235424432e+00 
33100 6.9581527745e+00 -1.0109813323e-03 1.8034077840e+00 -3.1235939087e+00 1.8034077840e+00 3.1235939087e+00 
33200 6.9581534476e+00 -9.5042139845e-04 1.8034358138e+00 -3.1236424577e+00 1.8034358138e+00 3.1236424577e+00 
33300 6.9581541744e+00 -8.9007980993e-04 1.8034621642e+00 -3.1236880979e+00 1.8034621642e+00 3.1236880979e+00 
33400 6.9581549516e+00 -8.3001992111e-04 1.8034868412e+00 -3.1237308398e+00 1.8034868412e+00 3.1237308398e+00 
33500 6.9581557760e+00 -7.7030337695e-04 1.8035098528e+00 -3.1237706970e+00 1.8035098528e+00 3.1237706970e+00 
33600 6.9581566441e+00 -7.1099008115e-04 1.8035312085e+00 -3.1238076862e+00 1.8035312085e+00 3.1238076862e+00 
33700 6.9581575526e+00 -6.5213816667e-04 1.8035509196e+00 -3.1238418268e+00 1.8035509196e+00 3.1238418268e+00 
33800 6.9581584979e+00 -5.9380396895e-04 1.8035689989e+00 -3.1238731411e+00 1.8035689989e+00 3.1238731411e+00 
33900 6.9581594765e+00 -5.3604200172e-04 1.8035854609e+00 -3.1239016540e+00 1.8035854609e+00 3.1239016540e+00 
34000 6.9581604847e+00 -4.7890493530e-04 1.8036003213e+00 -3.1239273931e+00 1.8036003213e+00 3.1239273931e+00 
34100 6.9581615189e+00 -4.2244357746e-04 1.8036135977e+00 -3.1239503885e+00 1.8036135977e+00 3.1239503885e+00 
34200 6.9581625756e+00 -3.6670685682e-04 1.8036253088e+00 -3.1239706726e+00 1.8036253088e+00 3.1239706726e+00 
34300 6.9581636512e+00 -3.1174180861e-04 1.8036354746e+00 -3.1239882803e+00 1.8036354746e+00 3.1239882803e+00 
34400 6.9581647421e+00 -2.5759356300e-04 1.8036441166e+00 -3.1240032488e+00 1.8036441166e+00 3.1240032488e+00 
34500 6.9581658449e+00 -2.0430533579e-04 1.8036512576e+00 -3.1240156172e+00 1.8036512576e+00 3.1240156172e+00 
34600 6.9581669561e+00 -1.5191842138e-04 1.8036569212e+00 -3.1240254270e+00 1.8036569212e+00 3.1240254270e+00 
34700 6.9581680725e+00 -1.0047218823e-04 1.8036611326e+00 -3.1240327214e+00 1.8036611326e+00 3.1240327214e+00 
34800 6.9581691908e+00 -5.0004076467e-05 1.8036639179e+00 -3.1240375455e+00 1.8036639179e+00 3.1240375455e+00 
34900 6.9581703078e+00 -2.1533266228e-06 1.8036639179e+00 -3.1240375455e+00 1.8036639179e+00 3.1240375455e+00 
35000 6.9581714205e+00 4.6227814804e-05 1.8036639179e+00 -3.1240375455e+00 1.8036639179e+00 3.1240375455e+00 
35100 6.9581725262e+00 9.5082358781e-05 1.8036639179e+00 -3.1240375455e+00 1.8036639179e+00 3.1240375455e+00 
35200 6.9581736220e+00 1.4130441219e-04 1.8036612821e+00 -3.1240329802e+00 1.8036612821e+00 3.1240329802e+00 
35300 6.9581747052e+00 1.8638995862e-04 1.8036573649e+00 -3.1240261955e+00 1.8036573649e+00 3.1240261955e+00 
35400 6.9581757735e+00 2.3031305580e-04 1.8036521979e+00 -3.1240172460e+00 1.8036521979e+00 3.1240172460e+00 
35500 6.9581768243e+00 2.7304964574e-04 1.8036458133e+00 -3.1240061875e+00 1.8036458133e+00 3.1240061875e+00 
35600 6.9581778556e+00 3.1457754036e-04 1.8036382439e+00 -3.1239930769e+00 1.8036382439e+00 3.1239930769e+00 
35700 6.9581788653e+00 3.5487640549e-04 1.8036295233e+00 -3.1239779723e+00 1.8036295233e+00 3.1239779723e+00 
35800 6.9581798516e+00 3.9392774283e-04 1.8036196854e+00 -3.1239609327e+00 1.8036196854e+00 3.1239609327e+00 
35900 6.9581808126e+00 4.3171487043e-04 1.8036087650e+00 -3.1239420179e+00 1.8036087650e+00 3.1239420179e+00 
36000 6.9581817469e+00 4.6822290127e-04 1.8035967969e+00 -3.1239212886e+00 1.8035967969e+00 3.1239212886e+00 
36100 6.9581826530e+00 5.0343872044e-04 1.8035838167e+00 -3.1238988062e+00 1.8035838167e+00 3.1238988062e+00 
36200 6.9581835298e+00 5.3735096063e-04 1.8035698601e+00 -3.1238746326e+00 1.8035698601e+00 3.1238746326e+00 
36300 6.9581843761e+00 5.6994997621e-04 1.8035549632e+00 -3.1238488305e+00 1.8035549632e+00 3.1238488305e+00 
36400 6.9581851910e+00 6.0122781584e-04 1.8035391625e+00 -3.1238214629e+00 1.8035391625e+00 3.1238214629e+00 
36500 6.9581859737e+00 6.3117819375e-04 1.8035224945e+00 -3.1237925931e+00 1.8035224945e+00 3.1237925931e+00 
36600 6.9581867236e+00 6.5979645974e-04 1.8035049961e+00 -3.1237622849e+00 1.8035049961e+00 3.1237622849e+00 
36700 6.9581874402e+00 6.8707956792e-04 1.8034867040e+00 -3.1237306022e+00 1.8034867040e+00 3.1237306022e+00 
36800 6.9581881233e+00 7.1302604430e-04 1.8034676554e+00 -3.1236976090e+00 1.8034676554e+00 3.1236976090e+00 
36900 6.9581887725e+00 7.3763595322e-04 1.8034478873e+00 -3.1236633695e+00 1.8034478873e+00 3.1236633695e+00 
37000 6.9581893879e+00 7.6091086290e-04 1.8034274366e+00 -3.1236279479e+00 1.8034274366e+00 3.1236279479e+00 
37100 6.9581899695e+00 7.8285380980e-04 1.8034063404e+00 -3.1235914082e+00 1.8034063404e+00 3.1235914082e+00 
37200 6.9581905175e+00 8.0346926224e-04 1.8033846356e+00 -3.1235538144e+00 1.8033846356e+00 3.1235538144e+00 
37300 6.9581910323e+00 8.2276308312e-04 1.8033623589e+00 -3.1235152301e+00 1.8033623589e+00 3.1235152301e+00 
37400 6.9581915141e+00 8.4074249183e-04 1.8033395470e+00 -3.1234757188e+00 1.8033395470e+00 3.1234757188e+00 
37500 6.9581919637e+00 8.5741602549e-04 1.8033162364e+00 -3.1234353435e+00 1.8033162364e+00 3.1234353435e+00 
37600 6.9581923815e+00 8.7279349953e-04 1.8032924631e+00 -3.1233941670e+00 1.8032924631e+00 3.1233941670e+00 
37700 6.9581927683e+00 8.8688596764e-04 1.8032682632e+00 -3.1233522515e+00 1.8032682632e+00 3.1233522515e+00 
37800 6.9581931249e+00 8.9970568122e-04 1.8032436722e+00 -3.1233096586e+00 1.8032436722e+00 3.1233096586e+00 
37900 6.9581934522e+00 9.1126604839e-04 1.8032187253e+00 -3.1232664495e+00 1.8032187253e+00 3.1232664495e+00 
38000 6.9581937512e+00 9.2158159254e-04 1.8031934576e+00 -3.1232226845e+00 1.8031934576e+00 3.1232226845e+00 
38100 6.9581940227e+00 9.3066791055e-04 1.8031679035e+00 -3.1231784235e+00 1.8031679035e+00 3.1231784235e+00 
38200 6.9581942679e+00 9.3854163075e-04 1.8031420971e+00 -3.1231337255e+00 1.8031420971e+00 3.1231337255e+00 
38300 6.9581944880e+00 9.4522037063e-04 1.8031160720e+00 -3.1230886487e+00 1.8031160720e+00 3.1230886487e+00 
38400 6.9581946840e+00 9.5072269433e-04 1.8030898614e+00 -3.1230432505e+00 1.8030898614e+00 3.1230432505e+00 
38500 6.9581948572e+00 9.5506807011e-04 1.8030634977e+00 -3.1229975873e+00 1.8030634977e+00 3.1229975873e+00 
38600 6.9581950088e+00 9.5827682766e-04 1.8030370132e+00 -3.1229517148e+00 1.8030370132e+00 3.1229517148e+00 
38700 6.9581951400e+00 9.6037011548e-04 1.8030104393e+00 -3.1229056874e+00 1.8030104393e+00 3.1229056874e+00 
38800 6.9581952522e+00 9.6136985823e-04 1.8029838069e+00 -3.1228595588e+00 1.8029838069e+00 3.1228595588e+00 
38900 6.9581953466e+00 9.6129871419e-04 1.8029571465e+00 -3.1228133816e+00 1.8029571465e+00 3.1228133816e+00 
39000 6.9581954244e+00 9.6018003294e-04 1.8029304876e+00 -3.1227672070e+00 1.8029304876e+00 3.1227672070e+00 
39100 6.9581954870e+00 9.5803781308e-04 1.8029038594e+00 -3.1227210856e+00 1.8029038594e+00 3.1227210856e+00 
39200 6.9581955357e+00 9.5489666035e-04 1.8028772901e+00 -3.1226750663e+00 1.8028772901e+00 3.1226750663e+00 
39300 6.9581955717e+00 9.5078174590e-04 1.8028508076e+00 -3.1226291972e+00 1.8028508076e+00 3.1226291972e+00 
39400 6.9581955963e+00 9.4571876495e-04 1.8028244388e+00 -3.1225835252e+00 1.8028244388e+00 3.1225835252e+00 
39500 6.9581956106e+00 9.3973389579e-04 1.8027982101e+00 -3.1225380957e+00 1.8027982101e+00 3.1225380957e+00 
39600 6.9581956161e+00 9.3285375923e-04 1.8027721469e+00 -3.1224929530e+00 1.8027721469e+00 3.1224929530e+00 
39700 6.9581956137e+00 9.2510537842e-04 1.8027462742e+00 -3.1224481402e+00 1.8027462742e+00 3.1224481402e+00 
39800 6.9581956047e+00 9.1651613923e-04 1.8027206161e+00 -3.1224036989e+00 1.8027206161e+00 3.1224036989e+00 
39900 6.9581955902e+00 9.0711375112e-04 1.8026951958e+00 -3.1223596697e+00 1.8026951958e+00 3.1223596697e+00 
40000 6.9581955713e+00 8.9692620851e-04 1.8026700359e+00 -3.1223160915e+00 1.8026700359e+00 3.1223160915e+00 
40100 6.9581955489e+00 8.8598175283e-04 1.8026451583e+00 -3.1222730021e+00 1.8026451583e+00 3.1222730021e+00 
40200 6.9581955242e+00 8.7430883513e-04 1.8026205838e+00 -3.1222304379e+00 1.8026205838e+00 3.1222304379e+00 
40300 6.9581954980e+00 8.6193607934e-04 1.8025963328e+00 -3.1221884340e+00 1.8025963328e+00 3.1221884340e+00 
40400 6.9581954714e+00 8.4889224618e-04 1.8025724247e+00 -3.1221470239e+00 1.8025724247e+00 3.1221470239e+00 
40500 6.9581954450e+00 8.3520619787e-04 1.8025488781e+00 -3.1221062399e+00 1.8025488781e+00 3.1221062399e+00 
40600 6.9581954197e+00 8.2090686340e-04 1.8025257107e+00 -3.1220661130e+00 1.8025257107e+00 3.1220661130e+00 
40700 6.9581953964e+00 8.0602320472e-04 1.8025029398e+00 -3.1220266725e+00 1.8025029398e+00 3.1220266725e+00 
40800 6.9581953756e+00 7.9058418355e-04 1.8024805814e+00 -3.1219879466e+00 1.8024805814e+00 3.1219879466e+00 
40900 6.9581953581e+00 7.7461872911e-04 1.8024586510e+00 -3.1219499620e+00 1.8024586510e+00 3.1219499620e+00 
41000 6.9581953443e+00 7.5815570651e-04 1.8024371632e+00 -3.1219127441e+00 1.8024371632e+00 3.1219127441e+00 
41100 6.9581953350e+00 7.4122388614e-04 1.8024161318e+00 -3.1218763167e+00 1.8024161318e+00 3.1218763167e+00 
41200 6.9581953305e+00 7.2385191371e-04 1.8023955699e+00 -3.1218407024e+00 1.8023955699e+00 3.1218407024e+00 
41300 6.9581953313e+00 7.0606828131e-04 1.8023754897e+00 -3.1218059224e+00 1.8023754897e+00 3.1218059224e+00 
41400 6.9581953378e+00 6.8790129920e-04 1.8023559025e+00 -3.1217719965e+00 1.8023559025e+00 3.1217719965e+00 
41500 6.9581953504e+00 6.6937906859e-04 1.8023368192e+00 -3.1217389432e+00 1.8023368192e+00 3.1217389432e+00 
41600 6.9581953692e+00 6.5052945522e-04 1.8023182495e+00 -3.1217067795e+00 1.8023182495e+00 3.1217067795e+00 
41700 6.9581953946e+00 6.3138006386e-04 1.8023002025e+00 -3.1216755212e+00 1.8023002025e+00 3.1216755212e+00 
41800 6.9581954267e+00 6.1195821373e-04 1.8022826865e+00 -3.1216451827e+00 1.8022826865e+00 3.1216451827e+00 
41900 6.9581954657e+00 5.9229091481e-04 1.8022657093e+00 -3.1216157772e+00 1.8022657093e+00 3.1216157772e+00 
42000 6.9581955116e+00 5.7240484506e-04 1.8022492774e+00 -3.1215873164e+00 1.8022492774e+00 3.1215873164e+00 
42100 6.9581955645e+00 5.5232632858e-04 1.8022333972e+00 -3.1215598110e+00 1.8022333972e+00 3.1215598110e+00 
42200 6.9581956245e+00 5.3208131461e-04 1.8022180738e+00 -3.1215332702e+00 1.8022180738e+00 3.1215332702e+00 
42300 6.9581956915e+00 5.1169535756e-04 1.8022033120e+00 -3.1215077019e+00 1.8022033120e+00 3.1215077019e+00 
42400 6.9581957654e+00 4.9119359785e-04 1.8021891156e+00 -3.1214831131e+00 1.8021891156e+00 3.1214831131e+00 
42500 6.9581958462e+00 4.7060074375e-04 1.8021754879e+00 -3.1214595093e+00 1.8021754879e+00 3.1214595093e+00 
42600 6.9581959336e+00 4.4994105404e-04 1.8021624315e+00 -3.1214368949e+00 1.8021624315e+00 3.1214368949e+00 
42700 6.9581960276e+00 4.2923832172e-04 1.8021499481e+00 -3.1214152731e+00 1.8021499481e+00 3.1214152731e+00 
42800 6.9581961280e+00 4.0851585846e-04 1.8021380391e+00 -3.1213946460e+00 1.8021380391e+00 3.1213946460e+00 
42900 6.9581962344e+00 3.8779648004e-04 1.8021267049e+00 -3.1213750146e+00 1.8021267049e+00 3.1213750146e+00 
43000 6.9581963468e+00 3.6710249273e-04 1.8021159455e+00 -3.1213563788e+00 1.8021159455e+00 3.1213563788e+00 
43100 6.9581964647e+00 3.4645568041e-04 1.8021057602e+00 -3.1213387373e+00 1.8021057602e+00 3.1213387373e+00 
43200 6.9581965880e+00 3.2587729276e-04 1.8020961477e+00 -3.1213220879e+00 1.8020961477e+00 3.1213220879e+00 
43300 6.9581967162e+00 3.0538803409e-04 1.8020871061e+00 -3.1213064274e+00 1.8020871061e+00 3.1213064274e+00 
43400 6.9581968492e+00 2.8500805329e-04 1.8020786329e+00 -3.1212917514e+00 1.8020786329e+00 3.1212917514e+00 
43500 6.9581969865e+00 2.6475693438e-04 1.8020707252e+00 -3.1212780548e+00 1.8020707252e+00 3.1212780548e+00 
43600 6.9581971279e+00 2.4465368811e-04 1.8020633793e+00 -3.1212653313e+00 1.8020633793e+00 3.1212653313e+00 
43700 6.9581972729e+00 2.2471674423e-04 1.8020565911e+00 -3.1212535739e+00 1.8020565911e+00 3.1212535739e+00 
43800 6.9581974212e+00 2.0496394465e-04 1.8020503561e+00 -3.1212427746e+00 1.8020503561e+00 3.1212427746e+00 
43900 6.9581975724e+00 1.8541253742e-04 1.8020446691e+00 -3.1212329244e+00 1.8020446691e+00 3.1212329244e+00 
44000 6.9581977262e+00 1.6607917143e-04 1.8020395246e+00 -3.1212240139e+00 1.8020395246e+00 3.1212240139e+00 
44100 6.9581978821e+00 1.4697989197e-04 1.8020349165e+00 -3.1212160325e+00 1.8020349165e+00 3.1212160325e+00 
44200 6.9581980399e+00 1.2813013697e-04 1.8020308384e+00 -3.1212089689e+00 1.8020308384e+00 3.1212089689e+00 
44300 6.9581981992e+00 1.0954473404e-04 1.8020272832e+00 -3.1212028112e+00 1.8020272832e+00 3.1212028112e+00 
44400 6.9581983595e+00 9.1237898224e-05 1.8020242437e+00 -3.1211975466e+00 1.8020242437e+00 3.1211975466e+00 
44500 6.9581985205e+00 7.3223230482e-05 1.8020217122e+00 -3.1211931619e+00 1.8020217122e+00 3.1211931619e+00 
44600 6.9581986819e+00 5.5513716842e-05 1.8020196805e+00 -3.1211896429e+00 1.8020196805e+00 3.1211896429e+00 
44700 6.9581988433e+00 3.9909588179e-05 1.8020196805e+00 -3.1211896429e+00 1.8020196805e+00 3.1211896429e+00 
44800 6.9581990043e+00 2.4084019566e-05 1.8020196805e+00 -3.1211896429e+00 1.8020196805e+00 3.1211896429e+00 
44900 6.9581991646e+00 8.0561375910e-06 1.8020196805e+00 -3.1211896429e+00 1.8020196805e+00 3.1211896429e+00 
45000 6.9581993240e+00 -8.1552452010e-06 1.8020196805e+00 -3.1211896429e+00 1.8020196805e+00 3.1211896429e+00 
45100 6.9581994820e+00 -2.4531637367e-05 1.8020196805e+00 -3.1211896429e+00 1.8020196805e+00 3.1211896429e+00 
45200 6.9581996386e+00 -4.1054875260e-05 1.8020196805e+00 -3.1211896429e+00 1.8020196805e+00 3.1211896429e+00 
45300 6.9581997934e+00 -5.7707129341e-05 1.8020196805e+00 -3.1211896429e+00 1.8020196805e+00 3.1211896429e+00 
45400 6.9581999461e+00 -7.4470910120e-05 1.8020196805e+00 -3.1211896429e+00 1.8020196805e+00 3.1211896429e+00 
45500 6.9582000965e+00 -8.8931014828e-05 1.8020217468e+00 -3.1211932218e+00 1.8020217468e+00 3.1211932218e+00 
45600 6.9582002442e+00 -1.0299049467e-04 1.8020242144e+00 -3.1211974957e+00 1.8020242144e+00 3.1211974957e+00 
45700 6.9582003891e+00 -1.1664295794e-04 1.8020270720e+00 -3.1212024453e+00 1.8020270720e+00 3.1212024453e+00 
45800 6.9582005310e+00 -1.2988259108e-04 1.8020303084e+00 -3.1212080510e+00 1.8020303084e+00 3.1212080510e+00 
45900 6.9582006698e+00 -1.4270415186e-04 1.8020339122e+00 -3.1212142929e+00 1.8020339122e+00 3.1212142929e+00 
46000 6.9582008051e+00 -1.5510296219e-04 1.8020378717e+00 -3.1212211510e+00 1.8020378717e+00 3.1212211510e+00 
46100 6.9582009370e+00 -1.6707490042e-04 1.8020421753e+00 -3.1212286050e+00 1.8020421753e+00 3.1212286050e+00 
46200 6.9582010652e+00 -1.7861639332e-04 1.8020468110e+00 -3.1212366343e+00 1.8020468110e+00 3.1212366343e+00 
46300 6.9582011896e+00 -1.8972440757e-04 1.8020517669e+00 -3.1212452182e+00 1.8020517669e+00 3.1212452182e+00 
46400 6.9582013102e+00 -2.0039644091e-04 1.8020570311e+00 -3.1212543359e+00 1.8020570311e+00 3.1212543359e+00 
46500 6.9582014268e+00 -2.1063051292e-04 1.8020625913e+00 -3.1212639665e+00 1.8020625913e+00 3.1212639665e+00 
46600 6.9582015394e+00 -2.2042515551e-04 1.8020684354e+00 -3.1212740889e+00 1.8020684354e+00 3.1212740889e+00 
46700 6.9582016479e+00 -2.2977940297e-04 1.8020745513e+00 -3.1212846819e+00 1.8020745513e+00 3.1212846819e+00 
46800 6.9582017524e+00 -2.3869278186e-04 1.8020809267e+00 -3.1212957245e+00 1.8020809267e+00 3.1212957245e+00 
46900 6.9582018526e+00 -2.4716530043e-04 1.8020875495e+00 -3.1213071953e+00 1.8020875495e+00 3.1213071953e+00 
47000 6.9582019487e+00 -2.5519743798e-04 1.8020944072e+00 -3.1213190733e+00 1.8020944072e+00 3.1213190733e+00 
47100 6.9582020407e+00 -2.6279013376e-04 1.8021014878e+00 -3.1213313372e+00 1.8021014878e+00 3.1213313372e+00 
47200 6.9582021286e+00 -2.6994477577e-04 1.8021087790e+00 -3.1213439660e+00 1.8021087790e+00 3.1213439660e+00 
47300 6.9582022123e+00 -2.7666318931e-04 1.8021162687e+00 -3.1213569385e+00 1.8021162687e+00 3.1213569385e+00 
47400 6.9582022920e+00 -2.8294762527e-04 1.8021239448e+00 -3.1213702339e+00 1.8021239448e+00 3.1213702339e+00 
47500 6.9582023677e+00 -2.8880074830e-04 1.8021317952e+00 -3.1213838312e+00 1.8021317952e+00 3.1213838312e+00 
47600 6.9582024394e+00 -2.9422562477e-04 1.8021398079e+00 -3.1213977097e+00 1.8021398079e+00 3.1213977097e+00 
47700 6.9582025073e+00 -2.9922571063e-04 1.8021479712e+00 -3.1214118488e+00 1.8021479712e+00 3.1214118488e+00 
47800 6.9582025714e+00 -3.0380483903e-04 1.8021562731e+00 -3.1214262282e+00 1.8021562731e+00 3.1214262282e+00 
47900 6.9582026318e+00 -3.0796720793e-04 1.8021647020e+00 -3.1214408275e+00 1.8021647020e+00 3.1214408275e+00 
48000 6.9582026886e+00 -3.1171736753e-04 1.8021732464e+00 -3.1214556268e+00 1.8021732464e+00 3.1214556268e+00 
48100 6.9582027420e+00 -3.1506020762e-04 1.8021818948e+00 -3.1214706062e+00 1.8021818948e+00 3.1214706062e+00 
48200 6.9582027919e+00 -3.1800094491e-04 1.8021906359e+00 -3.1214857462e+00 1.8021906359e+00 3.1214857462e+00 
48300 6.9582028387e+00 -3.2054511022e-04 1.8021994585e+00 -3.1215010275e+00 1.8021994585e+00 3.1215010275e+00 
48400 6.9582028823e+00 -3.2269853565e-04 1.8022083517e+00 -3.1215164309e+00 1.8022083517e+00 3.1215164309e+00 
48500 6.9582029229e+00 -3.2446734177e-04 1.8022173045e+00 -3.1215319377e+00 1.8022173045e+00 3.1215319377e+00 
48600 6.9582029606e+00 -3.2585792467e-04 1.8022263064e+00 -3.1215475295e+00 1.8022263064e+00 3.1215475295e+00 
48700 6.9582029956e+00 -3.2687694320e-04 1.8022353469e+00 -3.1215631880e+00 1.8022353469e+00 3.1215631880e+00 
48800 6.9582030281e+00 -3.2753130596e-04 1.8022444155e+00 -3.1215788954e+00 1.8022444155e+00 3.1215788954e+00 
48900 6.9582030581e+00 -3.2782815859e-04 1.8022535023e+00 -3.1215946341e+00 1.8022535023e+00 3.1215946341e+00 
49000 6.9582030858e+00 -3.2777487083e-04 1.8022625973e+00 -3.1216103870e+00 1.8022625973e+00 3.1216103870e+00 
49100 6.9582031113e+00 -3.2737902387e-04 1.8022716907e+00 -3.1216261373e+00 1.8022716907e+00 3.1216261373e+00 
49200 6.9582031349e+00 -3.2664839755e-04 1.8022807731e+00 -3.1216418685e+00 1.8022807731e+00 3.1216418685e+00 
49300 6.9582031565e+00 -3.2559095779e-04 1.8022898352e+00 -3.1216575645e+00 1.8022898352e+00 3.1216575645e+00 
49400 6.9582031764e+00 -3.2421484401e-04 1.8022988679e+00 -3.1216732096e+00 1.8022988679e+00 3.1216732096e+00 
49500 6.9582031947e+00 -3.2252835666e-04 1.8023078624e+00 -3.1216887885e+00 1.8023078624e+00 3.1216887885e+00 
49600 6.9582032116e+00 -3.2053994488e-04 1.8023168100e+00 -3.1217042863e+00 1.8023168100e+00 3.1217042863e+00 
49700 6.9582032272e+00 -3.1825819428e-04 1.8023257025e+00 -3.1217196885e+00 1.8023257025e+00 3.1217196885e+00 
49800 6.9582032415e+00 -3.1569181477e-04 1.8023345316e+00 -3.1217349810e+00 1.8023345316e+00 3.1217349810e+00 
49900 6.9582032548e+00 -3.1284962866e-04 1.8023432895e+00 -3.1217501500e+00 1.8023432895e+00 3.1217501500e+00 
50000 6.9582032672e+00 -3.0974055873e-04 1.8023519684e+00 -3.1217651825e+00 1.8023519684e+00 3.1217651825e+00 
50100 6.9582032787e+00 -3.0637361664e-04 1.8023605611e+00 -3.1217800654e+00 1.8023605611e+00 3.1217800654e+00 
50200 6.9582032896e+00 -3.0275789135e-04 1.8023690604e+00 -3.1217947865e+00 1.8023690604e+00 3.1217947865e+00 
50300 6.9582032998e+00 -2.9890253781e-04 1.8023774593e+00 -3.1218093339e+00 1.8023774593e+00 3.1218093339e+00 
50400 6.9582033096e+00 -2.9481676576e-04 1.8023857512e+00 -3.1218236959e+00 1.8023857512e+00 3.1218236959e+00 
50500 6.9582033190e+00 -2.9050982878e-04 1.8023939297e+00 -3.1218378615e+00 1.8023939297e+00 3.1218378615e+00 
50600 6.9582033282e+00 -2.8599101346e-04 1.8024019887e+00 -3.1218518201e+00 1.8024019887e+00 3.1218518201e+00 
50700 6.9582033371e+00 -2.8126962886e-04 1.8024099223e+00 -3.1218655615e+00 1.8024099223e+00 3.1218655615e+00 
50800 6.9582033460e+00 -2.7635499611e-04 1.8024177249e+00 -3.1218790760e+00 1.8024177249e+00 3.1218790760e+00 
50900 6.9582033548e+00 -2.7125643822e-04 1.8024253911e+00 -3.1218923543e+00 1.8024253911e+00 3.1218923543e+00 
51000 6.9582033638e+00 -2.6598327020e-04 1.8024329159e+00 -3.1219053876e+00 1.8024329159e+00 3.1219053876e+00 
51100 6.9582033728e+00 -2.6054478927e-04 1.8024402944e+00 -3.1219181675e+00 1.8024402944e+00 3.1219181675e+00 
51200 6.9582033820e+00 -2.5495026541e-04 1.8024475219e+00 -3.1219306860e+00 1.8024475219e+00 3.1219306860e+00 
51300 6.9582033915e+00 -2.4920893212e-04 1.8024545943e+00 -3.1219429356e+00 1.8024545943e+00 3.1219429356e+00 
51400 6.9582034014e+00 -2.4332997736e-04 1.8024615073e+00 -3.1219549094e+00 1.8024615073e+00 3.1219549094e+00 
51500 6.9582034115e+00 -2.3732253483e-04 1.8024682573e+00 -3.1219666006e+00 1.8024682573e+00 3.1219666006e+00 
51600 6.9582034221e+00 -2.3119567546e-04 1.8024748405e+00 -3.1219780032e+00 1.8024748405e+00 3.1219780032e+00 
51700 6.9582034331e+00 -2.2495839908e-04 1.8024812538e+00 -3.1219891113e+00 1.8024812538e+00 3.1219891113e+00 
51800 6.9582034446e+00 -2.1861962647e-04 1.8024874941e+00 -3.1219999197e+00 1.8024874941e+00 3.1219999197e+00 
51900 6.9582034566e+00 -2.1218819160e-04 1.8024935584e+00 -3.1220104235e+00 1.8024935584e+00 3.1220104235e+00 
52000 6.9582034691e+00 -2.0567283411e-04 1.8024994444e+00 -3.1220206183e+00 1.8024994444e+00 3.1220206183e+00 
52100 6.9582034822e+00 -1.9908219213e-04 1.8025051496e+00 -3.1220305001e+00 1.8025051496e+00 3.1220305001e+00 
52200 6.9582034958e+00 -1.9242479529e-04 1.8025106720e+00 -3.1220400651e+00 1.8025106720e+00 3.1220400651e+00 
52300 6.9582035100e+00 -1.8570905800e-04 1.8025160097e+00 -3.1220493103e+00 1.8025160097e+00 3.1220493103e+00 
52400 6.9582035248e+00 -1.7894327308e-04 1.8025211611e+00 -3.1220582327e+00 1.8025211611e+00 3.1220582327e+00 
52500 6.9582035401e+00 -1.7213560558e-04 1.8025261248e+00 -3.1220668301e+00 1.8025261248e+00 3.1220668301e+00 
52600 6.9582035560e+00 -1.6529408687e-04 1.8025308996e+00 -3.1220751004e+00 1.8025308996e+00 3.1220751004e+00 
52700 6.9582035725e+00 -1.5842660906e-04 1.8025354847e+00 -3.1220830419e+00 1.8025354847e+00 3.1220830419e+00 
52800 6.9582035895e+00 -1.5154091965e-04 1.8025398792e+00 -3.1220906535e+00 1.8025398792e+00 3.1220906535e+00 
52900 6.9582036070e+00 -1.4464461640e-04 1.8025440828e+00 -3.1220979343e+00 1.8025440828e+00 3.1220979343e+00 
53000 6.9582036251e+00 -1.3774514263e-04 1.8025480950e+00 -3.1221048836e+00 1.8025480950e+00 3.1221048836e+00 
53100 6.9582036437e+00 -1.3084978257e-04 1.8025519159e+00 -3.1221115015e+00 1.8025519159e+00 3.1221115015e+00 
53200 6.9582036627e+00 -1.2396565719e-04 1.8025555454e+00 -3.1221177882e+00 1.8025555454e+00 3.1221177882e+00 
53300 6.9582036822e+00 -1.1709972012e-04 1.8025589840e+00 -3.1221237440e+00 1.8025589840e+00 3.1221237440e+00 
53400 6.9582037021e+00 -1.1025875398e-04 1.8025622322e+00 -3.1221293700e+00 1.8025622322e+00 3.1221293700e+00 
53500 6.9582037225e+00 -1.0344936688e-04 1.8025652906e+00 -3.1221346673e+00 1.8025652906e+00 3.1221346673e+00 
53600 6.9582037432e+00 -9.6677989185e-05 1.8025681601e+00 -3.1221396374e+00 1.8025681601e+00 3.1221396374e+00 
53700 6.9582037642e+00 -8.9950870629e-05 1.8025708418e+00 -3.1221442822e+00 1.8025708418e+00 3.1221442822e+00 
53800 6.9582037856e+00 -8.3274077566e-05 1.8025733368e+00 -3.1221486038e+00 1.8025733368e+00 3.1221486038e+00 
53900 6.9582038072e+00 -7.6653490561e-05 1.8025756467e+00 -3.1221526046e+00 1.8025756467e+00 3.1221526046e+00 
54000 6.9582038291e+00 -7.0094802202e-05 1.8025777729e+00 -3.1221562873e+00 1.8025777729e+00 3.1221562873e+00 
54100 6.9582038513e+00 -6.5857447883e-05 1.8025777729e+00 -3.1221562873e+00 1.8025777729e+00 3.1221562873e+00 
54200 6.9582038736e+00 -6.1496020932e-05 1.8025777729e+00 -3.1221562873e+00 1.8025777729e+00 3.1221562873e+00 
54300 6.9582038961e+00 -5.7017266772e-05 1.8025777729e+00 -3.1221562873e+00 1.8025777729e+00 3.1221562873e+00 
54400 6.9582039186e+00 -5.2427852014e-05 1.8025777729e+00 -3.1221562873e+00 1.8025777729e+00 3.1221562873e+00 
54500 6.9582039411e+00 -4.7734361369e-05 1.8025777729e+00 -3.1221562873e+00 1.8025777729e+00 3.1221562873e+00 
54600 6.9582039636e+00 -4.2943294690e-05 1.8025777729e+00 -3.1221562873e+00 1.8025777729e+00 3.1221562873e+00 
54700 6.9582039861e+00 -3.8061064127e-05 1.8025777729e+00 -3.1221562873e+00 1.8025777729e+00 3.1221562873e+00 
54800 6.9582040086e+00 -3.3093991381e-05 1.8025777729e+00 -3.1221562873e+00 1.8025777729e+00 3.1221562873e+00 
54900 6.9582040309e+00 -2.8048305105e-05 1.8025777729e+00 -3.1221562873e+00 1.8025777729e+00 3.1221562873e+00 
55000 6.9582040532e+00 -2.2930138408e-05 1.8025777729e+00 -3.1221562873e+00 1.8025777729e+00 3.1221562873e+00 
55100 6.9582040753e+00 -1.7745526476e-05 1.8025777729e+00 -3.1221562873e+00 1.8025777729e+00 3.1221562873e+00 
55200 6.9582040972e+00 -1.2500404315e-05 1.8025777729e+00 -3.1221562873e+00 1.8025777729e+00 3.1221562873e+00 
55300 6.9582041190e+00 -7.2006046147e-06 1.8025777729e+00 -3.1221562873e+00 1.8025777729e+00 3.1221562873e+00 
55400 6.9582041405e+00 -1.8518557130e-06 1.8025777729e+00 -3.1221562873e+00 1.8025777729e+00 3.1221562873e+00 
55500 6.9582041618e+00 3.5402203009e-06 1.8025777729e+00 -3.1221562873e+00 1.8025777729e+00 3.1221562873e+00 
55600 6.9582041829e+00 8.9701093862e-06 1.8025777729e+00 -3.1221562873e+00 1.8025777729e+00 3.1221562873e+00 
55700 6.9582042036e+00 1.4432407222e-05 1.8025777729e+00 -3.1221562873e+00 1.8025777729e+00 3.1221562873e+00 
55800 6.9582042241e+00 1.9921820777e-05 1.8025777729e+00 -3.1221562873e+00 1.8025777729e+00 3.1221562873e+00 
55900 6.9582042443e+00 2.5433169755e-05 1.8025777729e+00 -3.1221562873e+00 1.8025777729e+00 3.1221562873e+00 
56000 6.9582042641e+00 3.0961387930e-05 1.8025777729e+00 -3.1221562873e+00 1.8025777729e+00 3.1221562873e+00 
56100 6.9582042836e+00 3.6501524373e-05 1.8025777729e+00 -3.1221562873e+00 1.8025777729e+00 3.1221562873e+00 
56200 6.9582043027e+00 4.2048744576e-05 1.8025777729e+00 -3.1221562873e+00 1.8025777729e+00 3.1221562873e+00 
56300 6.9582043214e+00 4.7598331441e-05 1.8025777729e+00 -3.1221562873e+00 1.8025777729e+00 3.1221562873e+00 
56400 6.9582043398e+00 5.3145686187e-05 1.8025777729e+00 -3.1221562873e+00 1.8025777729e+00 3.1221562873e+00 
56500 6.9582043578e+00 5.8686329149e-05 1.8025777729e+00 -3.1221562873e+00 1.8025777729e+00 3.1221562873e+00 
56600 6.9582043754e+00 6.4215900436e-05 1.8025777729e+00 -3.1221562873e+00 1.8025777729e+00 3.1221562873e+00 
56700 6.9582043926e+00 6.9730160541e-05 1.8025777729e+00 -3.1221562873e+00 1.8025777729e+00 3.1221562873e+00 
56800 6.9582044093e+00 7.5224990801e-05 1.8025777729e+00 -3.1221562873e+00 1.8025777729e+00 3.1221562873e+00 
56900 6.9582044255e+00 7.8277173473e-05 1.8025756863e+00 -3.1221526732e+00 1.8025756863e+00 3.1221526732e+00 
57000 6.9582044412e+00 8.1191056956e-05 1.8025735151e+00 -3.1221489125e+00 1.8025735151e+00 3.1221489125e+00 
57100 6.9582044564e+00 8.3966389184e-05 1.8025712630e+00 -3.1221450118e+00 1.8025712630e+00 3.1221450118e+00 
57200 6.9582044712e+00 8.6603080919e-05 1.8025689339e+00 -3.1221409777e+00 1.8025689339e+00 3.1221409777e+00 
57300 6.9582044855e+00 8.9101201799e-05 1.8025665317e+00 -3.1221368169e+00 1.8025665317e+00 3.1221368169e+00 
57400 6.9582044994e+00 9.1460976325e-05 1.8025640602e+00 -3.1221325361e+00 1.8025640602e+00 3.1221325361e+00 
57500 6.9582045128e+00 9.3682779784e-05 1.8025615232e+00 -3.1221281420e+00 1.8025615232e+00 3.1221281420e+00 
57600 6.9582045258e+00 9.5767134116e-05 1.8025589246e+00 -3.1221236411e+00 1.8025589246e+00 3.1221236411e+00 
57700 6.9582045383e+00 9.7714703727e-05 1.8025562682e+00 -3.1221190400e+00 1.8025562682e+00 3.1221190400e+00 
57800 6.9582045504e+00 9.9526291273e-05 1.8025535578e+00 -3.1221143454e+00 1.8025535578e+00 3.1221143454e+00 
57900 6.9582045620e+00 1.0120283337e-04 1.8025507971e+00 -3.1221095637e+00 1.8025507971e+00 3.1221095637e+00 
58000 6.9582045732e+00 1.0274539629e-04 1.8025479898e+00 -3.1221047015e+00 1.8025479898e+00 3.1221047015e+00 
58100 6.9582045840e+00 1.0415517165e-04 1.8025451398e+00 -3.1220997651e+00 1.8025451398e+00 3.1220997651e+00 
58200 6.9582045944e+00 1.0543347202e-04 1.8025422507e+00 -3.1220947610e+00 1.8025422507e+00 3.1220947610e+00 
58300 6.9582046045e+00 1.0658172654e-04 1.8025393261e+00 -3.1220896955e+00 1.8025393261e+00 3.1220896955e+00 
58400 6.9582046141e+00 1.0760147655e-04 1.8025363697e+00 -3.1220845748e+00 1.8025363697e+00 3.1220845748e+00 
58500 6.9582046234e+00 1.0849437114e-04 1.8025333850e+00 -3.1220794051e+00 1.8025333850e+00 3.1220794051e+00 
58600 6.9582046323e+00 1.0926216276e-04 1.8025303755e+00 -3.1220741925e+00 1.8025303755e+00 3.1220741925e+00 
58700 6.9582046408e+00 1.0990670277e-04 1.8025273447e+00 -3.1220689430e+00 1.8025273447e+00 3.1220689430e+00 
58800 6.9582046491e+00 1.1042993707e-04 1.8025242960e+00 -3.1220636626e+00 1.8025242960e+00 3.1220636626e+00 
58900 6.9582046570e+00 1.1083390163e-04 1.8025212328e+00 -3.1220583570e+00 1.8025212328e+00 3.1220583570e+00 
59000 6.9582046646e+00 1.1112071812e-04 1.8025181584e+00 -3.1220530319e+00 1.8025181584e+00 3.1220530319e+00 
59100 6.9582046719e+00 1.1129258953e-04 1.8025150760e+00 -3.1220476931e+00 1.8025150760e+00 3.1220476931e+00 
59200 6.9582046790e+00 1.1135179578e-04 1.8025119889e+00 -3.1220423460e+00 1.8025119889e+00 3.1220423460e+00 
59300 6.9582046857e+00 1.1130068939e-04 1.8025089001e+00 -3.1220369960e+00 1.8025089001e+00 3.1220369960e+00 
59400 6.9582046923e+00 1.1114169118e-04 1.8025058127e+00 -3.1220316485e+00 1.8025058127e+00 3.1220316485e+00 
59500 6.9582046986e+00 1.1087728592e-04 1.8025027297e+00 -3.1220263087e+00 1.8025027297e+00 3.1220263087e+00 
59600 6.9582047047e+00 1.1051001816e-04 1.8024996541e+00 -3.1220209815e+00 1.8024996541e+00 3.1220209815e+00 
59700 6.9582047106e+00 1.1004248797e-04 1.8024965886e+00 -3.1220156720e+00 1.8024965886e+00 3.1220156720e+00 
59800 6.9582047163e+00 1.0947734676e-04 1.8024935361e+00 -3.1220103849e+00 1.8024935361e+00 3.1220103849e+00 
59900 6.9582047218e+00 1.0881729318e-04 1.8024904993e+00 -3.1220051249e+00 1.8024904993e+00 3.1220051249e+00 
60000 6.9582047271e+00 1.0806506902e-04 1.8024874808e+00 -3.1219998967e+00 1.8024874808e+00 3.1219998967e+00 
60100 6.9582047323e+00 1.0722345519e-04 1.8024844831e+00 -3.1219947046e+00 1.8024844831e+00 3.1219947046e+00 
60200 6.9582047374e+00 1.0629526776e-04 1.8024815088e+00 -3.1219895529e+00 1.8024815088e+00 3.1219895529e+00 
60300 6.9582047423e+00 1.0528335400e-04 1.8024785602e+00 -3.1219844458e+00 1.8024785602e+00 3.1219844458e+00 
60400 6.9582047472e+00 1.0419058857e-04 1.8024756397e+00 -3.1219793873e+00 1.8024756397e+00 3.1219793873e+00 
60500 6.9582047519e+00 1.0301986969e-04 1.8024727495e+00 -3.1219743813e+00 1.8024727495e+00 3.1219743813e+00 
60600 6.9582047565e+00 1.0177411543e-04 1.8024698917e+00 -3.1219694316e+00 1.8024698917e+00 3.1219694316e+00 
60700 6.9582047610e+00 1.0045626004e-04 1.8024670686e+00 -3.1219645417e+00 1.8024670686e+00 3.1219645417e+00 
60800 6.9582047655e+00 9.9069250364e-05 1.8024642819e+00 -3.1219597151e+00 1.8024642819e+00 3.1219597151e+00 
60900 6.9582047699e+00 9.7616042286e-05 1.8024615338e+00 -3.1219549552e+00 1.8024615338e+00 3.1219549552e+00 
61000 6.9582047743e+00 9.6099597334e-05 1.8024588259e+00 -3.1219502650e+00 1.8024588259e+00 3.1219502650e+00 
61100 6.9582047786e+00 9.4522879258e-05 1.8024561601e+00 -3.1219456477e+00 1.8024561601e+00 3.1219456477e+00 
61200 6.9582047828e+00 9.2888850770e-05 1.8024535381e+00 -3.1219411062e+00 1.8024535381e+00 3.1219411062e+00 
61300 6.9582047871e+00 9.1200470311e-05 1.8024509613e+00 -3.1219366432e+00 1.8024509613e+00 3.1219366432e+00 
61400 6.9582047913e+00 8.9460688914e-05 1.8024484314e+00 -3.1219322612e+00 1.8024484314e+00 3.1219322612e+00 
61500 6.9582047955e+00 8.7672447150e-05 1.8024459498e+00 -3.1219279629e+00 1.8024459498e+00 3.1219279629e+00 
61600 6.9582047996e+00 8.5838672176e-05 1.8024435177e+00 -3.1219237505e+00 1.8024435177e+00 3.1219237505e+00 
61700 6.9582048038e+00 8.3962274827e-05 1.8024411366e+00 -3.1219196262e+00 1.8024411366e+00 3.1219196262e+00 
61800 6.9582048080e+00 8.2046146821e-05 1.8024388074e+00 -3.1219155920e+00 1.8024388074e+00 3.1219155920e+00 
61900 6.9582048122e+00 8.0093158053e-05 1.8024365315e+00 -3.1219116499e+00 1.8024365315e+00 3.1219116499e+00 
62000 6.9582048163e+00 7.8106153961e-05 1.8024343097e+00 -3.1219078016e+00 1.8024343097e+00 3.1219078016e+00 
62100 6.9582048205e+00 7.6087952993e-05 1.8024321430e+00 -3.1219040488e+00 1.8024321430e+00 3.1219040488e+00 
62200 6.9582048247e+00 7.4041344160e-05 1.8024300323e+00 -3.1219003930e+00 1.8024300323e+00 3.1219003930e+00 
62300 6.9582048289e+00 7.1969084660e-05 1.8024279783e+00 -3.1218968355e+00 1.8024279783e+00 3.1218968355e+00 
62400 6.9582048331e+00 6.9873897626e-05 1.8024259819e+00 -3.1218933775e+00 1.8024259819e+00 3.1218933775e+00 
62500 6.9582048375e+00 7.0006391795e-05 1.8024259819e+00 -3.1218933775e+00 1.8024259819e+00 3.1218933775e+00 
62600 6.9582048419e+00 7.0065148147e-05 1.8024259819e+00 -3.1218933775e+00 1.8024259819e+00 3.1218933775e+00 
62700 6.9582048463e+00 7.0052240877e-05 1.8024259819e+00 -3.1218933775e+00 1.8024259819e+00 3.1218933775e+00 
62800 6.9582048507e+00 6.9969746417e-05 1.8024259819e+00 -3.1218933775e+00 1.8024259819e+00 3.1218933775e+00 
62900 6.9582048551e+00 6.9819741890e-05 1.8024259819e+00 -3.1218933775e+00 1.8024259819e+00 3.1218933775e+00 
63000 6.9582048595e+00 6.9604303630e-05 1.8024259819e+00 -3.1218933775e+00 1.8024259819e+00 3.1218933775e+00 
63100 6.9582048639e+00 6.9325505694e-05 1.8024259819e+00 -3.1218933775e+00 1.8024259819e+00 3.1218933775e+00 
63200 6.9582048683e+00 6.8985418427e-05 1.8024259819e+00 -3.1218933775e+00 1.8024259819e+00 3.1218933775e+00 
63300 6.9582048727e+00 6.8586107045e-05 1.8024259819e+00 -3.1218933775e+00 1.8024259819e+00 3.1218933775e+00 
63400 6.9582048771e+00 6.8129630258e-05 1.8024259819e+00 -3.1218933775e+00 1.8024259819e+00 3.1218933775e+00 
63500 6.9582048815e+00 6.7618038908e-05 1.8024259819e+00 -3.1218933775e+00 1.8024259819e+00 3.1218933775e+00 
63600 6.9582048859e+00 6.7053374669e-05 1.8024259819e+00 -3.1218933775e+00 1.8024259819e+00 3.1218933775e+00 
63700 6.9582048903e+00 6.6437668736e-05 1.8024259819e+00 -3.1218933775e+00 1.8024259819e+00 3.1218933775e+00 
63800 6.9582048947e+00 6.5772940586e-05 1.8024259819e+00 -3.1218933775e+00 1.8024259819e+00 3.1218933775e+00 
63900 6.9582048991e+00 6.5061196750e-05 1.8024259819e+00 -3.1218933775e+00 1.8024259819e+00 3.1218933775e+00 
64000 6.9582049034e+00 6.4304429611e-05 1.8024259819e+00 -3.1218933775e+00 1.8024259819e+00 3.1218933775e+00 
64100 6.9582049077e+00 6.3504616264e-05 1.8024259819e+00 -3.1218933775e+00 1.8024259819e+00 3.1218933775e+00 
64200 6.9582049121e+00 6.2663717385e-05 1.8024259819e+00 -3.1218933775e+00 1.8024259819e+00 3.1218933775e+00 
64300 6.9582049164e+00 6.1783676135e-05 1.8024259819e+00 -3.1218933775e+00 1.8024259819e+00 3.1218933775e+00 
64400 6.9582049206e+00 6.0866417112e-05 1.8024259819e+00 -3.1218933775e+00 1.8024259819e+00 3.1218933775e+00 
64500 6.9582049249e+00 5.9913845323e-05 1.8024259819e+00 -3.1218933775e+00 1.8024259819e+00 3.1218933775e+00 
64600 6.9582049291e+00 5.8927845204e-05 1.8024259819e+00 -3.1218933775e+00 1.8024259819e+00 3.1218933775e+00 
64700 6.9582049333e+00 5.7910279653e-05 1.8024259819e+00 -3.1218933775e+00 1.8024259819e+00 3.1218933775e+00 
64800 6.9582049375e+00 5.6862989123e-05 1.8024259819e+00 -3.1218933775e+00 1.8024259819e+00 3.1218933775e+00 
64900 6.9582049416e+00 5.5787790734e-05 1.8024259819e+00 -3.1218933775e+00 1.8024259819e+00 3.1218933775e+00 
65000 6.9582049457e+00 5.4686477421e-05 1.8024259819e+00 -3.1218933775e+00 1.8024259819e+00 3.1218933775e+00 
65100 6.9582049497e+00 5.3560817123e-05 1.8024259819e+00 -3.1218933775e+00 1.8024259819e+00 3.1218933775e+00 
65200 6.9582049537e+00 5.2412551996e-05 1.8024259819e+00 -3.1218933775e+00 1.8024259819e+00 3.1218933775e+00 
65300 6.9582049577e+00 5.1243397678e-05 1.8024259819e+00 -3.1218933775e+00 1.8024259819e+00 3.1218933775e+00 
65400 6.9582049616e+00 5.0055042566e-05 1.8024259819e+00 -3.1218933775e+00 1.8024259819e+00 3.1218933775e+00 
65500 6.9582049655e+00 4.8849147151e-05 1.8024259819e+00 -3.1218933775e+00 1.8024259819e+00 3.1218933775e+00 
65600 6.9582049693e+00 4.7627343370e-05 1.8024259819e+00 -3.1218933775e+00 1.8024259819e+00 3.1218933775e+00 
65700 6.9582049731e+00 4.6391233999e-05 1.8024259819e+00 -3.1218933775e+00 1.8024259819e+00 3.1218933775e+00 
65800 6.9582049768e+00 4.5142392080e-05 1.8024259819e+00 -3.1218933775e+00 1.8024259819e+00 3.1218933775e+00 
65900 6.9582049805e+00 4.3882360388e-05 1.8024259819e+00 -3.1218933775e+00 1.8024259819e+00 3.1218933775e+00 
66000 6.9582049841e+00 4.2612650916e-05 1.8024259819e+00 -3.1218933775e+00 1.8024259819e+00 3.1218933775e+00 
66100 6.9582049877e+00 4.1334744410e-05 1.8024259819e+00 -3.1218933775e+00 1.8024259819e+00 3.1218933775e+00 
66200 6.9582049912e+00 4.0050089931e-05 1.8024259819e+00 -3.1218933775e+00 1.8024259819e+00 3.1218933775e+00 
66300 6.9582049946e+00 3.8760104446e-05 1.8024259819e+00 -3.1218933775e+00 1.8024259819e+00 3.1218933775e+00 
66400 6.9582049980e+00 3.7466172462e-05 1.8024259819e+00 -3.1218933775e+00 1.8024259819e+00 3.1218933775e+00 
66500 6.9582050014e+00 3.6169645682e-05 1.8024259819e+00 -3.1218933775e+00 1.8024259819e+00 3.1218933775e+00 
66600 6.9582050047e+00 3.4871842705e-05 1.8024259819e+00 -3.1218933775e+00 1.8024259819e+00 3.1218933775e+00 
66700 6.9582050079e+00 3.3574048735e-05 1.8024259819e+00 -3.1218933775e+00 1.8024259819e+00 3.1218933775e+00 
66800 6.9582050110e+00 3.2277515357e-05 1.8024259819e+00 -3.1218933775e+00 1.8024259819e+00 3.1218933775e+00 
66900 6.9582050142e+00 3.0983460314e-05 1.8024259819e+00 -3.1218933775e+00 1.8024259819e+00 3.1218933775e+00 
67000 6.9582050172e+00 2.9693067326e-05 1.8024259819e+00 -3.1218933775e+00 1.8024259819e+00 3.1218933775e+00 
67100 6.9582050202e+00 2.8407485942e-05 1.8024259819e+00 -3.1218933775e+00 1.8024259819e+00 3.1218933775e+00 
67200 6.9582050231e+00 2.7127831410e-05 1.8024259819e+00 -3.1218933775e+00 1.8024259819e+00 3.1218933775e+00 
67300 6.9582050260e+00 2.5855184600e-05 1.8024259819e+00 -3.1218933775e+00 1.8024259819e+00 3.1218933775e+00 
67400 6.9582050288e+00 2.4590591930e-05 1.8024259819e+00 -3.1218933775e+00 1.8024259819e+00 3.1218933775e+00 
67500 6.9582050316e+00 2.3335065331e-05 1.8024259819e+00 -3.1218933775e+00 1.8024259819e+00 3.1218933775e+00 
67600 6.9582050343e+00 2.2089582248e-05 1.8024259819e+00 -3.1218933775e+00 1.8024259819e+00 3.1218933775e+00 
67700 6.9582050369e+00 2.0855085653e-05 1.8024259819e+00 -3.1218933775e+00 1.8024259819e+00 3.1218933775e+00 
67800 6.9582050395e+00 1.9632484099e-05 1.8024259819e+00 -3.1218933775e+00 1.8024259819e+00 3.1218933775e+00 
67900 6.9582050420e+00 1.8422651791e-05 1.8024259819e+00 -3.1218933775e+00 1.8024259819e+00 3.1218933775e+00 
68000 6.9582050445e+00 1.7226428689e-05 1.8024259819e+00 -3.1218933775e+00 1.8024259819e+00 3.1218933775e+00 
68100 6.9582050469e+00 1.6044620629e-05 1.8024259819e+00 -3.1218933775e+00 1.8024259819e+00 3.1218933775e+00 
68200 6.9582050493e+00 1.4877999475e-05 1.8024259819e+00 -3.1218933775e+00 1.8024259819e+00 3.1218933775e+00 
68300 6.9582050516e+00 1.3727303296e-05 1.8024259819e+00 -3.1218933775e+00 1.8024259819e+00 3.1218933775e+00 
68400 6.9582050539e+00 1.2593236561e-05 1.8024259819e+00 -3.1218933775e+00 1.8024259819e+00 3.1218933775e+00 
68500 6.9582050561e+00 1.1476470355e-05 1.8024259819e+00 -3.1218933775e+00 1.8024259819e+00 3.1218933775e+00 
68600 6.9582050583e+00 1.0377642632e-05 1.8024259819e+00 -3.1218933775e+00 1.8024259819e+00 3.1218933775e+00 
68700 6.9582050604e+00 9.2973584683e-06 1.8024259819e+00 -3.1218933775e+00 1.8024259819e+00 3.1218933775e+00 
68800 6.9582050625e+00 8.2361903606e-06 1.8024259819e+00 -3.1218933775e+00 1.8024259819e+00 3.1218933775e+00 
68900 6.9582050645e+00 7.1946785153e-06 1.8024259819e+00 -3.1218933775e+00 1.8024259819e+00 3.1218933775e+00 
69000 6.9582050665e+00 6.1733311881e-06 1.8024259819e+00 -3.1218933775e+00 1.8024259819e+00 3.1218933775e+00 
69100 6.9582050684e+00 5.1726250151e-06 1.8024259819e+00 -3.1218933775e+00 1.8024259819e+00 3.1218933775e+00 
69200 6.9582050703e+00 4.1930054014e-06 1.8024259819e+00 -3.1218933775e+00 1.8024259819e+00 3.1218933775e+00 
69300 6.9582050722e+00 3.2348868570e-06 1.8024259819e+00 -3.1218933775e+00 1.8024259819e+00 3.1218933775e+00 
69400 6.9582050740e+00 2.2986534462e-06 1.8024259819e+00 -3.1218933775e+00 1.8024259819e+00 3.1218933775e+00 
69500 6.9582050758e+00 1.3846591584e-06 1.8024259819e+00 -3.1218933775e+00 1.8024259819e+00 3.1218933775e+00 
69600 6.9582050776e+00 4.9322836405e-07 1.8024259819e+00 -3.1218933775e+00 1.8024259819e+00 3.1218933775e+00 
69700 6.9582050793e+00 -3.7534375059e-07 1.8024259819e+00 -3.1218933775e+00 1.8024259819e+00 3.1218933775e+00 
69800 6.9582050810e+00 -1.2207907258e-06 1.8024259819e+00 -3.1218933775e+00 1.8024259819e+00 3.1218933775e+00 
69900 6.9582050826e+00 -2.0428743486e-06 1.8024259819e+00 -3.1218933775e+00 1.8024259819e+00 3.1218933775e+00 
70000 6.9582050842e+00 -2.8413841723e-06 1.8024259819e+00 -3.1218933775e+00 1.8024259819e+00 3.1218933775e+00 
70100 6.9582050858e+00 -3.6161370212e-06 1.8024259819e+00 -3.1218933775e+00 1.8024259819e+00 3.1218933775e+00 
70200 6.9582050874e+00 -4.3669764698e-06 1.8024259819e+00 -3.1218933775e+00 1.8024259819e+00 3.1218933775e+00 
70300 6.9582050889e+00 -5.0937723317e-06 1.8024259819e+00 -3.1218933775e+00 1.8024259819e+00 3.1218933775e+00 
70400 6.9582050904e+00 -5.7964201220e-06 1.8024259819e+00 -3.1218933775e+00 1.8024259819e+00 3.1218933775e+00 
70500 6.9582050919e+00 -6.4748405239e-06 1.8024259819e+00 -3.1218933775e+00 1.8024259819e+00 3.1218933775e+00 
70600 6.9582050934e+00 -7.1289788312e-06 1.8024259819e+00 -3.1218933775e+00 1.8024259819e+00 3.1218933775e+00 
70700 6.9582050948e+00 -7.7588043868e-06 1.8024259819e+00 -3.1218933775e+00 1.8024259819e+00 3.1218933775e+00 
70800 6.9582050962e+00 -8.3643100295e-06 1.8024259819e+00 -3.1218933775e+00 1.8024259819e+00 3.1218933775e+00 
70900 6.9582050976e+00 -8.9455115068e-06 1.8024259819e+00 -3.1218933775e+00 1.8024259819e+00 3.1218933775e+00 
71000 6.9582050990e+00 -9.5024469040e-06 1.8024259819e+00 -3.1218933775e+00 1.8024259819e+00 3.1218933775e+00 
71100 6.9582051003e+00 -1.0035176051e-05 1.8024259819e+00 -3.1218933775e+00 1.8024259819e+00 3.1218933775e+00 
71200 6.9582051017e+00 -1.0543779931e-05 1.8024259819e+00 -3.1218933775e+00 1.8024259819e+00 3.1218933775e+00 
71300 6.9582051030e+00 -1.1028360102e-05 1.8024259819e+00 -3.1218933775e+00 1.8024259819e+00 3.1218933775e+00 
71400 6.9582051043e+00 -1.1489038066e-05 1.8024259819e+00 -3.1218933775e+00 1.8024259819e+00 3.1218933775e+00 
71500 6.9582051056e+00 -1.1925954697e-05 1.8024259819e+00 -3.1218933775e+00 1.8024259819e+00 3.1218933775e+00 
71600 6.9582051068e+00 -1.2339269608e-05 1.8024259819e+00 -3.1218933775e+00 1.8024259819e+00 3.1218933775e+00 
71700 6.9582051081e+00 -1.2729160565e-05 1.8024259819e+00 -3.1218933775e+00 1.8024259819e+00 3.1218933775e+00 
71800 6.9582051093e+00 -1.3095822860e-05 1.8024259819e+00 -3.1218933775e+00 1.8024259819e+00 3.1218933775e+00 
71900 6.9582051105e+00 -1.3439468709e-05 1.8024259819e+00 -3.1218933775e+00 1.8024259819e+00 3.1218933775e+00 
72000 6.9582051118e+00 -1.3760326633e-05 1.8024259819e+00 -3.1218933775e+00 1.8024259819e+00 3.1218933775e+00 
72100 6.9582051129e+00 -1.4058640861e-05 1.8024259819e+00 -3.1218933775e+00 1.8024259819e+00 3.1218933775e+00 
72200 6.9582051141e+00 -1.4334670693e-05 1.8024259819e+00 -3.1218933775e+00 1.8024259819e+00 3.1218933775e+00 
72300 6.9582051153e+00 -1.4588689915e-05 1.8024259819e+00 -3.1218933775e+00 1.8024259819e+00 3.1218933775e+00 
72400 6.9582051165e+00 -1.4820986177e-05 1.8024259819e+00 -3.1218933775e+00 1.8024259819e+00 3.1218933775e+00 
72500 6.9582051176e+00 -1.5031860383e-05 1.8024259819e+00 -3.1218933775e+00 1.8024259819e+00 3.1218933775e+00 
72600 6.9582051188e+00 -1.5221626095e-05 1.8024259819e+00 -3.1218933775e+00 1.8024259819e+00 3.1218933775e+00 
72700 6.9582051199e+00 -1.5390608926e-05 1.8024259819e+00 -3.1218933775e+00 1.8024259819e+00 3.1218933775e+00 
72800 6.9582051210e+00 -1.5539145946e-05 1.8024259819e+00 -3.1218933775e+00 1.8024259819e+00 3.1218933775e+00 
72900 6.9582051221e+00 -1.5667585082e-05 1.8024259819e+00 -3.1218933775e+00 1.8024259819e+00 3.1218933775e+00 
73000 6.9582051232e+00 -1.5776284532e-05 1.8024259819e+00 -3.1218933775e+00 1.8024259819e+00 3.1218933775e+00 
73100 6.9582051243e+00 -1.5865612181e-05 1.8024259819e+00 -3.1218933775e+00 1.8024259819e+00 3.1218933775e+00 
73200 6.9582051254e+00 -1.5935945014e-05 1.8024259819e+00 -3.1218933775e+00 1.8024259819e+00 3.1218933775e+00 
73300 6.9582051265e+00 -1.5987668546e-05 1.8024259819e+00 -3.1218933775e+00 1.8024259819e+00 3.1218933775e+00 
73400 6.9582051275e+00 -1.6021176260e-05 1.8024259819e+00 -3.1218933775e+00 1.8024259819e+00 3.1218933775e+00 
73500 6.9582051286e+00 -1.6036869026e-05 1.8024259819e+00 -3.1218933775e+00 1.8024259819e+00 3.1218933775e+00 
73600 6.9582051296e+00 -1.6035154565e-05 1.8024259819e+00 -3.1218933775e+00 1.8024259819e+00 3.1218933775e+00 
73700 6.9582051306e+00 -1.6016446892e-05 1.8024259819e+00 -3.1218933775e+00 1.8024259819e+00 3.1218933775e+00 
73800 6.9582051317e+00 -1.5981165766e-05 1.8024259819e+00 -3.1218933775e+00 1.8024259819e+00 3.1218933775e+00 
73900 6.9582051327e+00 -1.5929736175e-05 1.8024259819e+00 -3.1218933775e+00 1.8024259819e+00 3.1218933775e+00 
74000 6.9582051337e+00 -1.5862587792e-05 1.8024259819e+00 -3.1218933775e+00 1.8024259819e+00 3.1218933775e+00 
74100 6.9582051347e+00 -1.5780154467e-05 1.8024259819e+00 -3.1218933775e+00 1.8024259819e+00 3.1218933775e+00 
74200 6.9582051357e+00 -1.5682873713e-05 1.8024259819e+00 -3.1218933775e+00 1.8024259819e+00 3.1218933775e+00 
74300 6.9582051367e+00 -1.5571186214e-05 1.8024259819e+00 -3.1218933775e+00 1.8024259819e+00 3.1218933775e+00 
74400 6.9582051376e+00 -1.5445535323e-05 1.8024259819e+00 -3.1218933775e+00 1.8024259819e+00 3.1218933775e+00 
74500 6.9582051386e+00 -1.5306366584e-05 1.8024259819e+00 -3.1218933775e+00 1.8024259819e+00 3.1218933775e+00 
74600 6.9582051396e+00 -1.5154127266e-05 1.8024259819e+00 -3.1218933775e+00 1.8024259819e+00 3.1218933775e+00 
74700 6.9582051405e+00 -1.4989265885e-05 1.8024259819e+00 -3.1218933775e+00 1.8024259819e+00 3.1218933775e+00 
74800 6.9582051414e+00 -1.4812231768e-05 1.8024259819e+00 -3.1218933775e+00 1.8024259819e+00 3.1218933775e+00 
74900 6.9582051424e+00 -1.4623474599e-05 1.8024259819e+00 -3.1218933775e+00 1.8024259819e+00 3.1218933775e+00 
75000 6.9582051433e+00 -1.4423443986e-05 1.8024259819e+00 -3.1218933775e+00 1.8024259819e+00 3.1218933775e+00 
75100 6.9582051442e+00 -1.4212589051e-05 1.8024259819e+00 -3.1218933775e+00 1.8024259819e+00 3.1218933775e+00 
75200 6.9582051451e+00 -1.3991358004e-05 1.8024259819e+00 -3.1218933775e+00 1.8024259819e+00 3.1218933775e+00 
75300 6.9582051460e+00 -1.3760197745e-05 1.8024259819e+00 -3.1218933775e+00 1.8024259819e+00 3.1218933775e+00 
75400 6.9582051469e+00 -1.3519553481e-05 1.8024259819e+00 -3.1218933775e+00 1.8024259819e+00 3.1218933775e+00 
75500 6.9582051477e+00 -1.3269868344e-05 1.8024259819e+00 -3.1218933775e+00 1.8024259819e+00 3.1218933775e+00 
75600 6.9582051486e+00 -1.3011583016e-05 1.8024259819e+00 -3.1218933775e+00 1.8024259819e+00 3.1218933775e+00 
75700 6.9582051494e+00 -1.2745135383e-05 1.8024259819e+00 -3.1218933775e+00 1.8024259819e+00 3.1218933775e+00 
75800 6.9582051503e+00 -1.2470960171e-05 1.8024259819e+00 -3.1218933775e+00 1.8024259819e+00 3.1218933775e+00 
75900 6.9582051511e+00 -1.2189488641e-05 1.8024259819e+00 -3.1218933775e+00 1.8024259819e+00 3.1218933775e+00 
76000 6.9582051519e+00 -1.1901148232e-05 1.8024259819e+00 -3.1218933775e+00 1.8024259819e+00 3.1218933775e+00 
76100 6.9582051527e+00 -1.1606362275e-05 1.8024259819e+00 -3.1218933775e+00 1.8024259819e+00 3.1218933775e+00 
76200 6.9582051535e+00 -1.1305549680e-05 1.8024259819e+00 -3.1218933775e+00 1.8024259819e+00 3.1218933775e+00 
76300 6.9582051543e+00 -1.0999124645e-05 1.8024259819e+00 -3.1218933775e+00 1.8024259819e+00 3.1218933775e+00 
76400 6.9582051551e+00 -1.0687496388e-05 1.8024259819e+00 -3.1218933775e+00 1.8024259819e+00 3.1218933775e+00 
76500 6.9582051559e+00 -1.0371068868e-05 1.8024259819e+00 -3.1218933775e+00 1.8024259819e+00 3.1218933775e+00 
76600 6.9582051566e+00 -1.0050240540e-05 1.8024259819e+00 -3.1218933775e+00 1.8024259819e+00 3.1218933775e+00 
76700 6.9582051574e+00 -9.7254041106e-06 1.8024259819e+00 -3.1218933775e+00 1.8024259819e+00 3.1218933775e+00 
76800 6.9582051581e+00 -9.3969462937e-06 1.8024259819e+00 -3.1218933775e+00 1.8024259819e+00 3.1218933775e+00 
76900 6.9582051588e+00 -9.0652476013e-06 1.8024259819e+00 -3.1218933775e+00 1.8024259819e+00 3.1218933775e+00 
77000 6.9582051595e+00 -8.7306821307e-06 1.8024259819e+00 -3.1218933775e+00 1.8024259819e+00 3.1218933775e+00 
77100 6.9582051602e+00 -8.3936173615e-06 1.8024259819e+00 -3.1218933775e+00 1.8024259819e+00 3.1218933775e+00 
77200 6.9582051609e+00 -8.0544139728e-06 1.8024259819e+00 -3.1218933775e+00 1.8024259819e+00 3.1218933775e+00 
77300 6.9582051616e+00 -7.7134256586e-06 1.8024259819e+00 -3.1218933775e+00 1.8024259819e+00 3.1218933775e+00 
77400 6.9582051623e+00 -7.3709989692e-06 1.8024259819e+00 -3.1218933775e+00 1.8024259819e+00 3.1218933775e+00 
77500 6.9582051630e+00 -7.0274731534e-06 1.8024259819e+00 -3.1218933775e+00 1.8024259819e+00 3.1218933775e+00 
77600 6.9582051636e+00 -6.6831800117e-06 1.8024259819e+00 -3.1218933775e+00 1.8024259819e+00 3.1218933775e+00 
77700 6.9582051643e+00 -6.3384437650e-06 1.8024259819e+00 -3.1218933775e+00 1.8024259819e+00 3.1218933775e+00 
77800 6.9582051649e+00 -5.9935809292e-06 1.8024259819e+00 -3.1218933775e+00 1.8024259819e+00 3.1218933775e+00 
77900 6.9582051655e+00 -5.6489001990e-06 1.8024259819e+00 -3.1218933775e+00 1.8024259819e+00 3.1218933775e+00 
78000 6.9582051662e+00 -5.3047023500e-06 1.8024259819e+00 -3.1218933775e+00 1.8024259819e+00 3.1218933775e+00 
78100 6.9582051668e+00 -4.9612801431e-06 1.8024259819e+00 -3.1218933775e+00 1.8024259819e+00 3.1218933775e+00 
78200 6.9582051674e+00 -4.6189182368e-06 1.8024259819e+00 -3.1218933775e+00 1.8024259819e+00 3.1218933775e+00 
78300 6.9582051679e+00 -4.2778931228e-06 1.8024259819e+00 -3.1218933775e+00 1.8024259819e+00 3.1218933775e+00 
78400 6.9582051685e+00 -3.9384730539e-06 1.8024259819e+00 -3.1218933775e+00 1.8024259819e+00 3.1218933775e+00 
78500 6.9582051691e+00 -3.6009179958e-06 1.8024259819e+00 -3.1218933775e+00 1.8024259819e+00 3.1218933775e+00 
78600 6.9582051697e+00 -3.2654795680e-06 1.8024259819e+00 -3.1218933775e+00 1.8024259819e+00 3.1218933775e+00 
78700 6.9582051702e+00 -2.9324010247e-06 1.8024259819e+00 -3.1218933775e+00 1.8024259819e+00 3.1218933775e+00 
78800 6.9582051707e+00 -2.6019172238e-06 1.8024259819e+00 -3.1218933775e+00 1.8024259819e+00 3.1218933775e+00 
78900 6.9582051713e+00 -2.2742545971e-06 1.8024259819e+00 -3.1218933775e+00 1.8024259819e+00 3.1218933775e+00 
79000 6.9582051718e+00 -1.9496311482e-06 1.8024259819e+00 -3.1218933775e+00 1.8024259819e+00 3.1218933775e+00 
79100 6.9582051723e+00 -1.6282564522e-06 1.8024259819e+00 -3.1218933775e+00 1.8024259819e+00 3.1218933775e+00 
79200 6.9582051728e+00 -1.3103316563e-06 1.8024259819e+00 -3.1218933775e+00 1.8024259819e+00 3.1218933775e+00 
79300 6.9582051733e+00 -9.9604949627e-07 1.8024259819e+00 -3.1218933775e+00 1.8024259819e+00 3.1218933775e+00 
79400 6.9582051738e+00 -6.8559432495e-07 1.8024259819e+00 -3.1218933775e+00 1.8024259819e+00 3.1218933775e+00 
79500 6.9582051743e+00 -3.7914212535e-07 1.8024259819e+00 -3.1218933775e+00 1.8024259819e+00 3.1218933775e+00 
79600 6.9582051748e+00 -7.6860562359e-08 1.8024259819e+00 -3.1218933775e+00 1.8024259819e+00 3.1218933775e+00 
79700 6.9582051753e+00 2.2109097708e-07 1.8024259819e+00 -3.1218933775e+00 1.8024259819e+00 3.1218933775e+00 
79800 6.9582051757e+00 5.1456133475e-07 1.8024259819e+00 -3.1218933775e+00 1.8024259819e+00 3.1218933775e+00 
79900 6.9582051762e+00 8.0340753059e-07 1.8024259819e+00 -3.1218933775e+00 1.8024259819e+00 3.1218933775e+00 
80000 6.9582051766e+00 1.0874946832e-06 1.8024259819e+00 -3.1218933775e+00 1.8024259819e+00 3.1218933775e+00 
80100 6.9582051771e+00 1.3666959525e-06 1.8024259819e+00 -3.1218933775e+00 1.8024259819e+00 3.1218933775e+00 
80200 6.9582051775e+00 1.6408924619e-06 1.8024259819e+00 -3.1218933775e+00 1.8024259819e+00 3.1218933775e+00 
80300 6.9582051779e+00 1.9099732109e-06 1.8024259819e+00 -3.1218933775e+00 1.8024259819e+00 3.1218933775e+00 
80400 6.9582051784e+00 2.1738349914e-06 1.8024259819e+00 -3.1218933775e+00 1.8024259819e+00 3.1218933775e+00 
80500 6.9582051788e+00 2.4323822931e-06 1.8024259819e+00 -3.1218933775e+00 1.8024259819e+00 3.1218933775e+00 
80600 6.9582051792e+00 2.6855272112e-06 1.8024259819e+00 -3.1218933775e+00 1.8024259819e+00 3.1218933775e+00 
80700 6.9582051796e+00 2.9331893333e-06 1.8024259819e+00 -3.1218933775e+00 1.8024259819e+00 3.1218933775e+00 
80800 6.9582051800e+00 3.1752956355e-06 1.8024259819e+00 -3.1218933775e+00 1.8024259819e+00 3.1218933775e+00 
80900 6.9582051804e+00 3.4117803751e-06 1.8024259819e+00 -3.1218933775e+00 1.8024259819e+00 3.1218933775e+00 
81000 6.9582051808e+00 3.6425849678e-06 1.8024259819e+00 -3.1218933775e+00 1.8024259819e+00 3.1218933775e+00 
81100 6.9582051811e+00 3.8676578679e-06 1.8024259819e+00 -3.1218933775e+00 1.8024259819e+00 3.1218933775e+00 
81200 6.9582051815e+00 4.0869544455e-06 1.8024259819e+00 -3.1218933775e+00 1.8024259819e+00 3.1218933775e+00 
81300 6.9582051819e+00 4.3004368573e-06 1.8024259819e+00 -3.1218933775e+00 1.8024259819e+00 3.1218933775e+00 
81400 6.9582051823e+00 4.5080739117e-06 1.8024259819e+00 -3.1218933775e+00 1.8024259819e+00 3.1218933775e+00 
81500 6.9582051826e+00 4.7098409424e-06 1.8024259819e+00 -3.1218933775e+00 1.8024259819e+00 3.1218933775e+00 
81600 6.9582051830e+00 4.9057196583e-06 1.8024259819e+00 -3.1218933775e+00 1.8024259819e+00 3.1218933775e+00 
81700 6.9582051833e+00 5.0956980127e-06 1.8024259819e+00 -3.1218933775e+00 1.8024259819e+00 3.1218933775e+00 
81800 6.9582051837e+00 5.2797700522e-06 1.8024259819e+00 -3.1218933775e+00 1.8024259819e+00 3.1218933775e+00 
81900 6.9582051840e+00 5.4579357762e-06 1.8024259819e+00 -3.1218933775e+00 1.8024259819e+00 3.1218933775e+00 
82000 6.9582051843e+00 5.6302009845e-06 1.8024259819e+00 -3.1218933775e+00 1.8024259819e+00 3.1218933775e+00 
82100 6.9582051847e+00 5.7965771288e-06 1.8024259819e+00 -3.1218933775e+00 1.8024259819e+00 3.1218933775e+00 
82200 6.9582051850e+00 5.9570811628e-06 1.8024259819e+00 -3.1218933775e+00 1.8024259819e+00 3.1218933775e+00 
82300 6.9582051853e+00 6.1117353857e-06 1.8024259819e+00 -3.1218933775e+00 1.8024259819e+00 3.1218933775e+00 
82400 6.9582051856e+00 6.2605672848e-06 1.8024259819e+00 -3.1218933775e+00 1.8024259819e+00 3.1218933775e+00 
82500 6.9582051860e+00 6.4036093839e-06 1.8024259819e+00 -3.1218933775e+00 1.8024259819e+00 3.1218933775e+00 
82600 6.9582051863e+00 6.5408990816e-06 1.8024259819e+00 -3.1218933775e+00 1.8024259819e+00 3.1218933775e+00 
82700 6.9582051866e+00 6.6724784945e-06 1.8024259819e+00 -3.1218933775e+00 1.8024259819e+00 3.1218933775e+00 
82800 6.9582051869e+00 6.7983942969e-06 1.8024259819e+00 -3.1218933775e+00 1.8024259819e+00 3.1218933775e+00 
82900 6.9582051872e+00 6.9186975639e-06 1.8024259819e+00 -3.1218933775e+00 1.8024259819e+00 3.1218933775e+00 
83000 6.9582051875e+00 7.0334436055e-06 1.8024259819e+00 -3.1218933775e+00 1.8024259819e+00 3.1218933775e+00 
83100 6.9582051878e+00 7.1426918135e-06 1.8024259819e+00 -3.1218933775e+00 1.8024259819e+00 3.1218933775e+00 
83200 6.9582051881e+00 7.2465054931e-06 1.8024259819e+00 -3.1218933775e+00 1.8024259819e+00 3.1218933775e+00 
83300 6.9582051884e+00 7.3449517072e-06 1.8024259819e+00 -3.1218933775e+00 1.8024259819e+00 3.1218933775e+00 
83400 6.9582051886e+00 7.4381011162e-06 1.8024259819e+00 -3.1218933775e+00 1.8024259819e+00 3.1218933775e+00 
83500 6.9582051889e+00 7.5260278138e-06 1.8024259819e+00 -3.1218933775e+00 1.8024259819e+00 3.1218933775e+00 
83600 6.9582051892e+00 7.6088091754e-06 1.8024259819e+00 -3.1218933775e+00 1.8024259819e+00 3.1218933775e+00 
83700 6.9582051895e+00 7.6865256896e-06 1.8024259819e+00 -3.1218933775e+00 1.8024259819e+00 3.1218933775e+00 
83800 6.9582051897e+00 7.7592608104e-06 1.8024259819e+00 -3.1218933775e+00 1.8024259819e+00 3.1218933775e+00 
83900 6.9582051900e+00 7.8271007910e-06 1.8024259819e+00 -3.1218933775e+00 1.8024259819e+00 3.1218933775e+00 
84000 6.9582051903e+00 7.8901345362e-06 1.8024259819e+00 -3.1218933775e+00 1.8024259819e+00 3.1218933775e+00 
84100 6.9582051905e+00 7.9484534385e-06 1.8024259819e+00 -3.1218933775e+00 1.8024259819e+00 3.1218933775e+00 
84200 6.9582051908e+00 8.0021512377e-06 1.8024259819e+00 -3.1218933775e+00 1.8024259819e+00 3.1218933775e+00 
84300 6.9582051911e+00 8.0513238571e-06 1.8024259819e+00 -3.1218933775e+00 1.8024259819e+00 3.1218933775e+00 
84400 6.9582051913e+00 8.0960692554e-06 1.8024259819e+00 -3.1218933775e+00 1.8024259819e+00 3.1218933775e+00 
84500 6.9582051916e+00 8.1364872871e-06 1.8024259819e+00 -3.1218933775e+00 1.8024259819e+00 3.1218933775e+00 
84600 6.9582051918e+00 8.1726795417e-06 1.8024259819e+00 -3.1218933775e+00 1.8024259819e+00 3.1218933775e+00 
84700 6.9582051921e+00 8.2047492122e-06 1.8024259819e+00 -3.1218933775e+00 1.8024259819e+00 3.1218933775e+00 
84800 6.9582051923e+00 8.2328009421e-06 1.8024259819e+00 -3.1218933775e+00 1.8024259819e+00 3.1218933775e+00 
84900 6.9582051925e+00 8.2569406902e-06 1.8024259819e+00 -3.1218933775e+00 1.8024259819e+00 3.1218933775e+00 
85000 6.9582051928e+00 8.2772755896e-06 1.8024259819e+00 -3.1218933775e+00 1.8024259819e+00 3.1218933775e+00 
85100 6.9582051930e+00 8.2939138094e-06 1.8024259819e+00 -3.1218933775e+00 1.8024259819e+00 3.1218933775e+00 
85200 6.9582051932e+00 8.3069644250e-06 1.8024259819e+00 -3.1218933775e+00 1.8024259819e+00 3.1218933775e+00 
85300 6.9582051935e+00 8.3165372848e-06 1.8024259819e+00 -3.1218933775e+00 1.8024259819e+00 3.1218933775e+00 
85400 6.9582051937e+00 8.3227428767e-06 1.8024259819e+00 -3.1218933775e+00 1.8024259819e+00 3.1218933775e+00 
85500 6.9582051939e+00 8.3256922071e-06 1.8024259819e+00 -3.1218933775e+00 1.8024259819e+00 3.1218933775e+00 
85600 6.9582051941e+00 8.3254966723e-06 1.8024259819e+00 -3.1218933775e+00 1.8024259819e+00 3.1218933775e+00 
85700 6.9582051943e+00 8.3222679454e-06 1.8024259819e+00 -3.1218933775e+00 1.8024259819e+00 3.1218933775e+00 
85800 6.9582051946e+00 8.3161178376e-06 1.8024259819e+00 -3.1218933775e+00 1.8024259819e+00 3.1218933775e+00 
85900 6.9582051948e+00 8.3071582117e-06 1.8024259819e+00 -3.1218933775e+00 1.8024259819e+00 3.1218933775e+00 
86000 6.9582051950e+00 8.2955008380e-06 1.8024259819e+00 -3.1218933775e+00 1.8024259819e+00 3.1218933775e+00 
86100 6.9582051952e+00 8.2812573038e-06 1.8024259819e+00 -3.1218933775e+00 1.8024259819e+00 3.1218933775e+00 
86200 6.9582051954e+00 8.2645389052e-06 1.8024259819e+00 -3.1218933775e+00 1.8024259819e+00 3.1218933775e+00 
86300 6.9582051956e+00 8.2454565309e-06 1.8024259819e+00 -3.1218933775e+00 1.8024259819e+00 3.1218933775e+00 
86400 6.9582051958e+00 8.2241205733e-06 1.8024259819e+00 -3.1218933775e+00 1.8024259819e+00 3.1218933775e+00 
86500 6.9582051960e+00 8.2006408191e-06 1.8024259819e+00 -3.1218933775e+00 1.8024259819e+00 3.1218933775e+00 
86600 6.9582051962e+00 8.1751263591e-06 1.8024259819e+00 -3.1218933775e+00 1.8024259819e+00 3.1218933775e+00 
86700 6.9582051964e+00 8.1476854981e-06 1.8024259819e+00 -3.1218933775e+00 1.8024259819e+00 3.1218933775e+00 
86800 6.9582051966e+00 8.1184256607e-06 1.8024259819e+00 -3.1218933775e+00 1.8024259819e+00 3.1218933775e+00 
86900 6.9582051968e+00 8.0874533088e-06 1.8024259819e+00 -3.1218933775e+00 1.8024259819e+00 3.1218933775e+00 
87000 6.9582051969e+00 8.0548738510e-06 1.8024259819e+00 -3.1218933775e+00 1.8024259819e+00 3.1218933775e+00 
87100 6.9582051971e+00 8.0207915727e-06 1.8024259819e+00 -3.1218933775e+00 1.8024259819e+00 3.1218933775e+00 
87200 6.9582051973e+00 7.9853095482e-06 1.8024259819e+00 -3.1218933775e+00 1.8024259819e+00 3.1218933775e+00 
87300 6.9582051975e+00 7.9485295775e-06 1.8024259819e+00 -3.1218933775e+00 1.8024259819e+00 3.1218933775e+00 
87400 6.9582051977e+00 7.9105521082e-06 1.8024259819e+00 -3.1218933775e+00 1.8024259819e+00 3.1218933775e+00 
87500 6.9582051978e+00 7.8714761660e-06 1.8024259819e+00 -3.1218933775e+00 1.8024259819e+00 3.1218933775e+00 
87600 6.9582051980e+00 7.8313992951e-06 1.8024259819e+00 -3.1218933775e+00 1.8024259819e+00 3.1218933775e+00 
87700 6.9582051982e+00 7.7904174957e-06 1.8024259819e+00 -3.1218933775e+00 1.8024259819e+00 3.1218933775e+00 
87800 6.9582051983e+00 7.7486251644e-06 1.8024259819e+00 -3.1218933775e+00 1.8024259819e+00 3.1218933775e+00 
87900 6.9582051985e+00 7.7061150305e-06 1.8024259819e+00 -3.1218933775e+00 1.8024259819e+00 3.1218933775e+00 
88000 6.9582051987e+00 7.6629781224e-06 1.8024259819e+00 -3.1218933775e+00 1.8024259819e+00 3.1218933775e+00 
88100 6.9582051988e+00 7.6193037003e-06 1.8024259819e+00 -3.1218933775e+00 1.8024259819e+00 3.1218933775e+00 
88200 6.9582051990e+00 7.5751792154e-06 1.8024259819e+00 -3.1218933775e+00 1.8024259819e+00 3.1218933775e+00 
88300 6.9582051991e+00 7.5306902687e-06 1.8024259819e+00 -3.1218933775e+00 1.8024259819e+00 3.1218933775e+00 
88400 6.9582051993e+00 7.4859205664e-06 1.8024259819e+00 -3.1218933775e+00 1.8024259819e+00 3.1218933775e+00 
88500 6.9582051994e+00 7.4409518845e-06 1.8024259819e+00 -3.1218933775e+00 1.8024259819e+00 3.1218933775e+00 
88600 6.9582051996e+00 7.3958640377e-06 1.8024259819e+00 -3.1218933775e+00 1.8024259819e+00 3.1218933775e+00 
88700 6.9582051997e+00 7.3507348348e-06 1.8024259819e+00 -3.1218933775e+00 1.8024259819e+00 3.1218933775e+00 
88800 6.9582051999e+00 7.3056400646e-06 1.8024259819e+00 -3.1218933775e+00 1.8024259819e+00 3.1218933775e+00 
88900 6.9582052000e+00 7.2606534535e-06 1.8024259819e+00 -3.1218933775e+00 1.8024259819e+00 3.1218933775e+00 
89000 6.9582052002e+00 7.2158466580e-06 1.8024259819e+00 -3.1218933775e+00 1.8024259819e+00 3.1218933775e+00 
89100 6.9582052003e+00 7.1712892303e-06 1.8024259819e+00 -3.1218933775e+00 1.8024259819e+00 3.1218933775e+00 
89200 6.9582052005e+00 7.1270486085e-06 1.8024259819e+00 -3.1218933775e+00 1.8024259819e+00 3.1218933775e+00 
89300 6.9582052006e+00 7.0831900927e-06 1.8024259819e+00 -3.1218933775e+00 1.8024259819e+00 3.1218933775e+00 
89400 6.9582052007e+00 7.0397768403e-06 1.8024259819e+00 -3.1218933775e+00 1.8024259819e+00 3.1218933775e+00 
89500 6.9582052009e+00 6.9968698466e-06 1.8024259819e+00 -3.1218933775e+00 1.8024259819e+00 3.1218933775e+00 
89600 6.9582052010e+00 6.9545279418e-06 1.8024259819e+00 -3.1218933775e+00 1.8024259819e+00 3.1218933775e+00 
89700 6.9582052011e+00 6.9128077811e-06 1.8024259819e+00 -3.1218933775e+00 1.8024259819e+00 3.1218933775e+00 
89800 6.9582052012e+00 6.8717638450e-06 1.8024259819e+00 -3.1218933775e+00 1.8024259819e+00 3.1218933775e+00 
89900 6.9582052014e+00 6.8314484353e-06 1.8024259819e+00 -3.1218933775e+00 1.8024259819e+00 3.1218933775e+00 
90000 6.9582052015e+00 6.7919116753e-06 1.8024259819e+00 -3.1218933775e+00 1.8024259819e+00 3.1218933775e+00 
90100 6.9582052016e+00 6.7532015124e-06 1.8024259819e+00 -3.1218933775e+00 1.8024259819e+00 3.1218933775e+00 
90200 6.9582052017e+00 6.7153637243e-06 1.8024259819e+00 -3.1218933775e+00 1.8024259819e+00 3.1218933775e+00 
90300 6.9582052019e+00 6.6784419321e-06 1.8024259819e+00 -3.1218933775e+00 1.8024259819e+00 3.1218933775e+00 
90400 6.9582052020e+00 6.6424775893e-06 1.8024259819e+00 -3.1218933775e+00 1.8024259819e+00 3.1218933775e+00 
90500 6.9582052021e+00 6.6075100206e-06 1.8024259819e+00 -3.1218933775e+00 1.8024259819e+00 3.1218933775e+00 
90600 6.9582052022e+00 6.5735764143e-06 1.8024259819e+00 -3.1218933775e+00 1.8024259819e+00 3.1218933775e+00 
90700 6.9582052023e+00 6.5407118387e-06 1.8024259819e+00 -3.1218933775e+00 1.8024259819e+00 3.1218933775e+00 
90800 6.9582052024e+00 6.5089492719e-06 1.8024259819e+00 -3.1218933775e+00 1.8024259819e+00 3.1218933775e+00 
90900 6.9582052025e+00 6.4783196062e-06 1.8024259819e+00 -3.1218933775e+00 1.8024259819e+00 3.1218933775e+00 
91000 6.9582052027e+00 6.4488516737e-06 1.8024259819e+00 -3.1218933775e+00 1.8024259819e+00 3.1218933775e+00 
91100 6.9582052028e+00 6.4205722712e-06 1.8024259819e+00 -3.1218933775e+00 1.8024259819e+00 3.1218933775e+00 
91200 6.9582052029e+00 6.3935061708e-06 1.8024259819e+00 -3.1218933775e+00 1.8024259819e+00 3.1218933775e+00 
91300 6.9582052030e+00 6.3676761602e-06 1.8024259819e+00 -3.1218933775e+00 1.8024259819e+00 3.1218933775e+00 
91400 6.9582052031e+00 6.3431030591e-06 1.8024259819e+00 -3.1218933775e+00 1.8024259819e+00 3.1218933775e+00 
91500 6.9582052032e+00 6.3198057459e-06 1.8024259819e+00 -3.1218933775e+00 1.8024259819e+00 3.1218933775e+00 
91600 6.9582052033e+00 6.2978011925e-06 1.8024259819e+00 -3.1218933775e+00 1.8024259819e+00 3.1218933775e+00 
91700 6.9582052034e+00 6.2771044854e-06 1.8024259819e+00 -3.1218933775e+00 1.8024259819e+00 3.1218933775e+00 
91800 6.9582052035e+00 6.2577288671e-06 1.8024259819e+00 -3.1218933775e+00 1.8024259819e+00 3.1218933775e+00 
91900 6.9582052036e+00 6.2396857534e-06 1.8024259819e+00 -3.1218933775e+00 1.8024259819e+00 3.1218933775e+00 
92000 6.9582052037e+00 6.2229847877e-06 1.8024259819e+00 -3.1218933775e+00 1.8024259819e+00 3.1218933775e+00 
92100 6.9582052038e+00 6.2076338545e-06 1.8024259819e+00 -3.1218933775e+00 1.8024259819e+00 3.1218933775e+00 
92200 6.9582052038e+00 6.1936391238e-06 1.8024259819e+00 -3.1218933775e+00 1.8024259819e+00 3.1218933775e+00 
92300 6.9582052039e+00 6.1810050903e-06 1.8024259819e+00 -3.1218933775e+00 1.8024259819e+00 3.1218933775e+00 
92400 6.9582052040e+00 6.1697345988e-06 1.8024259819e+00 -3.1218933775e+00 1.8024259819e+00 3.1218933775e+00 
92500 6.9582052041e+00 6.1598288969e-06 1.8024259819e+00 -3.1218933775e+00 1.8024259819e+00 3.1218933775e+00 
92600 6.9582052042e+00 6.1512876609e-06 1.8024259819e+00 -3.1218933775e+00 1.8024259819e+00 3.1218933775e+00 
92700 6.9582052043e+00 6.1441090369e-06 1.8024259819e+00 -3.1218933775e+00 1.8024259819e+00 3.1218933775e+00 
92800 6.9582052044e+00 6.1382896866e-06 1.8024259819e+00 -3.1218933775e+00 1.8024259819e+00 3.1218933775e+00 
92900 6.9582052045e+00 6.1338248205e-06 1.8024259819e+00 -3.1218933775e+00 1.8024259819e+00 3.1218933775e+00 
93000 6.9582052046e+00 6.1307082408e-06 1.8024259819e+00 -3.1218933775e+00 1.8024259819e+00 3.1218933775e+00 
93100 6.9582052046e+00 6.1289323822e-06 1.8024259819e+00 -3.1218933775e+00 1.8024259819e+00 3.1218933775e+00 
93200 6.9582052047e+00 6.1284883552e-06 1.8024259819e+00 -3.1218933775e+00 1.8024259819e+00 3.1218933775e+00 
93300 6.9582052048e+00 6.1293659840e-06 1.8024259819e+00 -3.1218933775e+00 1.8024259819e+00 3.1218933775e+00 
93400 6.9582052049e+00 6.1315538519e-06 1.8024259819e+00 -3.1218933775e+00 1.8024259819e+00 3.1218933775e+00 
93500 6.9582052050e+00 6.1350393438e-06 1.8024259819e+00 -3.1218933775e+00 1.8024259819e+00 3.1218933775e+00 
93600 6.9582052050e+00 6.1398086823e-06 1.8024259819e+00 -3.1218933775e+00 1.8024259819e+00 3.1218933775e+00 
93700 6.9582052051e+00 6.1458469780e-06 1.8024259819e+00 -3.1218933775e+00 1.8024259819e+00 3.1218933775e+00 
93800 6.9582052052e+00 6.1531382679e-06 1.8024259819e+00 -3.1218933775e+00 1.8024259819e+00 3.1218933775e+00 
93900 6.9582052053e+00 6.1616655578e-06 1.8024259819e+00 -3.1218933775e+00 1.8024259819e+00 3.1218933775e+00 
94000 6.9582052053e+00 6.1714108705e-06 1.8024259819e+00 -3.1218933775e+00 1.8024259819e+00 3.1218933775e+00 
94100 6.9582052054e+00 6.1823552807e-06 1.8024259819e+00 -3.1218933775e+00 1.8024259819e+00 3.1218933775e+00 
94200 6.9582052055e+00 6.1944789615e-06 1.8024259819e+00 -3.1218933775e+00 1.8024259819e+00 3.1218933775e+00 
94300 6.9582052056e+00 6.2077612284e-06 1.8024259819e+00 -3.1218933775e+00 1.8024259819e+00 3.1218933775e+00 
94400 6.9582052056e+00 6.2221805757e-06 1.8024259819e+00 -3.1218933775e+00 1.8024259819e+00 3.1218933775e+00 
94500 6.9582052057e+00 6.2377147295e-06 1.8024259819e+00 -3.1218933775e+00 1.8024259819e+00 3.1218933775e+00 
94600 6.9582052058e+00 6.2543406775e-06 1.8024259819e+00 -3.1218933775e+00 1.8024259819e+00 3.1218933775e+00 
94700 6.9582052058e+00 6.2720347120e-06 1.8024259819e+00 -3.1218933775e+00 1.8024259819e+00 3.1218933775e+00 
94800 6.9582052059e+00 6.2907724840e-06 1.8024259819e+00 -3.1218933775e+00 1.8024259819e+00 3.1218933775e+00 
94900 6.9582052060e+00 6.3105290304e-06 1.8024259819e+00 -3.1218933775e+00 1.8024259819e+00 3.1218933775e+00 
95000 6.9582052060e+00 6.3312788197e-06 1.8024259819e+00 -3.1218933775e+00 1.8024259819e+00 3.1218933775e+00 
95100 6.9582052061e+00 6.3529957906e-06 1.8024259819e+00 -3.1218933775e+00 1.8024259819e+00 3.1218933775e+00 
95200 6.9582052062e+00 6.3756533971e-06 1.8024259819e+00 -3.1218933775e+00 1.8024259819e+00 3.1218933775e+00 
95300 6.9582052062e+00 6.3992246387e-06 1.8024259819e+00 -3.1218933775e+00 1.8024259819e+00 3.1218933775e+00 
95400 6.9582052063e+00 6.4236821052e-06 1.8024259819e+00 -3.1218933775e+00 1.8024259819e+00 3.1218933775e+00 
95500 6.9582052063e+00 6.4489980153e-06 1.8024259819e+00 -3.1218933775e+00 1.8024259819e+00 3.1218933775e+00 
95600 6.9582052064e+00 6.4751442547e-06 1.8024259819e+00 -3.1218933775e+00 1.8024259819e+00 3.1218933775e+00 
95700 6.9582052065e+00 6.5020924064e-06 1.8024259819e+00 -3.1218933775e+00 1.8024259819e+00 3.1218933775e+00 
95800 6.9582052065e+00 6.5298137990e-06 1.8024259819e+00 -3.1218933775e+00 1.8024259819e+00 3.1218933775e+00 
95900 6.9582052066e+00 6.5582795322e-06 1.8024259819e+00 -3.1218933775e+00 1.8024259819e+00 3.1218933775e+00 
96000 6.9582052066e+00 6.5874605081e-06 1.8024259819e+00 -3.1218933775e+00 1.8024259819e+00 3.1218933775e+00 
96100 6.9582052067e+00 6.6173274876e-06 1.8024259819e+00 -3.1218933775e+00 1.8024259819e+00 3.1218933775e+00 
96200 6.9582052068e+00 6.6478511028e-06 1.8024259819e+00 -3.1218933775e+00 1.8024259819e+00 3.1218933775e+00 
96300 6.9582052068e+00 6.6790018951e-06 1.8024259819e+00 -3.1218933775e+00 1.8024259819e+00 3.1218933775e+00 
96400 6.9582052069e+00 6.7107503584e-06 1.8024259819e+00 -3.1218933775e+00 1.8024259819e+00 3.1218933775e+00 
96500 6.9582052069e+00 6.7430669538e-06 1.8024259819e+00 -3.1218933775e+00 1.8024259819e+00 3.1218933775e+00 
96600 6.9582052070e+00 6.7759221624e-06 1.8024259819e+00 -3.1218933775e+00 1.8024259819e+00 3.1218933775e+00 
96700 6.9582052070e+00 6.8092864903e-06 1.8024259819e+00 -3.1218933775e+00 1.8024259819e+00 3.1218933775e+00 
96800 6.9582052071e+00 6.8431305183e-06 1.8024259819e+00 -3.1218933775e+00 1.8024259819e+00 3.1218933775e+00 
96900 6.9582052071e+00 6.8774249175e-06 1.8024259819e+00 -3.1218933775e+00 1.8024259819e+00 3.1218933775e+00 
97000 6.9582052072e+00 6.9121404889e-06 1.8024259819e+00 -3.1218933775e+00 1.8024259819e+00 3.1218933775e+00 
97100 6.9582052072e+00 6.9472481820e-06 1.8024259819e+00 -3.1218933775e+00 1.8024259819e+00 3.1218933775e+00 
97200 6.9582052073e+00 6.9827191276e-06 1.8024259819e+00 -3.1218933775e+00 1.8024259819e+00 3.1218933775e+00 
97300 6.9582052073e+00 7.0185246541e-06 1.8024259819e+00 -3.1218933775e+00 1.8024259819e+00 3.1218933775e+00 
97400 6.9582052074e+00 7.0546363219e-06 1.8024259819e+00 -3.1218933775e+00 1.8024259819e+00 3.1218933775e+00 
97500 6.9582052074e+00 7.0910259393e-06 1.8024259819e+00 -3.1218933775e+00 1.8024259819e+00 3.1218933775e+00 
97600 6.9582052075e+00 7.1049210587e-06 1.8024259819e+00 -3.1218933775e+00 1.8024259819e+00 3.1218933775e+00 
97600 6.9582052075e+00 7.1049210581e-06 1.8024259819e+00 -3.1218933775e+00 1.8024259819e+00 3.1218933775e+00 
