# step Hamiltonian StressXX CellTensor1 CellTensor2 CellTensor3 CellTensor4 
0 6.8407389564e+00 1.9560677472e-01 2.8237630504e+00 -4.8909010719e+00 2.8237630504e+00 4.8909010719e+00 
100 6.8779291262e+00 2.3844386861e-01 2.8237630504e+00 -4.8909010719e+00 2.8237630504e+00 4.8909010719e+00 
200 6.9119410493e+00 2.7797803076e-01 2.8195420100e+00 -4.8835900154e+00 2.8195420100e+00 4.8835900154e+00 
300 6.9435791552e+00 3.1434752301e-01 2.8146139598e+00 -4.8750543821e+00 2.8146139598e+00 4.8750543821e+00 
400 6.9731093087e+00 3.4797255845e-01 2.8090316069e+00 -4.8653854632e+00 2.8090316069e+00 4.8653854632e+00 
500 7.0007402947e+00 3.7922292741e-01 2.8028400710e+00 -4.8546614085e+00 2.8028400710e+00 4.8546614085e+00 
600 7.0266313734e+00 4.0841972766e-01 2.7960778227e+00 -4.8429488509e+00 2.7960778227e+00 4.8429488509e+00 
700 7.0508996759e+00 4.3583797530e-01 2.7887775706e+00 -4.8303044433e+00 2.7887775706e+00 4.8303044433e+00 
800 7.0736271156e+00 4.6170968563e-01 2.7809670899e+00 -4.8167762939e+00 2.7809670899e+00 4.8167762939e+00 
900 7.0948666181e+00 4.8622704802e-01 2.7726699889e+00 -4.8024052935e+00 2.7726699889e+00 4.8024052935e+00 
1000 7.1146475895e+00 5.0954539611e-01 2.7639064151e+00 -4.7872263383e+00 2.7639064151e+00 4.7872263383e+00 
1100 7.1329806323e+00 5.3178577680e-01 2.7546937077e+00 -4.7712694611e+00 2.7546937077e+00 4.7712694611e+00 
1200 7.1498615952e+00 5.5303704337e-01 2.7450470068e+00 -4.7545608850e+00 2.7450470068e+00 4.7545608850e+00 
1300 7.1652751013e+00 5.7335754353e-01 2.7349798285e+00 -4.7371240206e+00 2.7349798285e+00 4.7371240206e+00 
1400 7.1791977478e+00 5.9277664434e-01 2.7245046160e+00 -4.7189804203e+00 2.7245046160e+00 4.7189804203e+00 
1500 7.1916012037e+00 6.1129652636e-01 2.7136332712e+00 -4.7001506988e+00 2.7136332712e+00 4.7001506988e+00 
1600 7.2024554391e+00 6.2889485841e-01 2.7023776625e+00 -4.6806554127e+00 2.7023776625e+00 4.6806554127e+00 
1700 7.2117322829e+00 6.4552906597e-01 2.6907500947e+00 -4.6605158746e+00 2.6907500947e+00 4.6605158746e+00 
1800 7.2194093990e+00 6.6114283413e-01 2.6787637105e+00 -4.6397548480e+00 2.6787637105e+00 4.6397548480e+00 
1900 7.2254745850e+00 6.7567513207e-01 2.6664327822e+00 -4.6183970537e+00 2.6664327822e+00 4.6183970537e+00 
2000 7.2299300441e+00 6.8907136157e-01 2.6537728441e+00 -4.5964693977e+00 2.6537728441e+00 4.5964693977e+00 
2100 7.2327960193e+00 7.0129530915e-01 2.6408006194e+00 -4.5740008455e+00 2.6408006194e+00 4.5740008455e+00 
2200 7.2341130217e+00 7.1233972064e-01 2.6275337214e+00 -4.5510219041e+00 2.6275337214e+00 4.5510219041e+00 
2300 7.2339419456e+00 7.2223296410e-01 2.6139901453e+00 -4.5275637421e+00 2.6139901453e+00 4.5275637421e+00 
2400 7.2323617109e+00 7.3103977802e-01 2.6001876176e+00 -4.5036570629e+00 2.6001876176e+00 4.5036570629e+00 
2500 7.2294646339e+00 7.3885552043e-01 2.5861429100e+00 -4.4793309158e+00 2.5861429100e+00 4.4793309158e+00 
2600 7.2253503044e+00 7.4579514497e-01 2.5718712403e+00 -4.4546116587e+00 2.5718712403e+00 4.4546116587e+00 
2700 7.2201191065e+00 7.5197954651e-01 2.5573858645e+00 -4.4295222518e+00 2.5573858645e+00 4.4295222518e+00 
2800 7.2138665124e+00 7.5752233958e-01 2.5426979192e+00 -4.4040819843e+00 2.5426979192e+00 4.4040819843e+00 
2900 7.2066789490e+00 7.6251949717e-01 2.5278165143e+00 -4.3783066350e+00 2.5278165143e+00 4.3783066350e+00 
3000 7.1986315528e+00 7.6704303593e-01 2.5127490309e+00 -4.3522089881e+00 2.5127490309e+00 4.3522089881e+00 
3100 7.1897876877e+00 7.7113870322e-01 2.4975015519e+00 -4.3257995799e+00 2.4975015519e+00 4.3257995799e+00 
3200 7.1801998348e+00 7.7482682001e-01 2.4820793532e+00 -4.2990875482e+00 2.4820793532e+00 4.2990875482e+00 
3300 7.1699113718e+00 7.7810515952e-01 2.4664873939e+00 -4.2720814824e+00 2.4664873939e+00 4.2720814824e+00 
3400 7.1589588065e+00 7.8095285438e-01 2.4507307661e+00 -4.2447902025e+00 2.4507307661e+00 4.2447902025e+00 
3500 7.1473741359e+00 7.8333461462e-01 2.4348150824e+00 -4.2172234298e+00 2.4348150824e+00 4.2172234298e+00 
3600 7.1351871093e+00 7.8520483855e-01 2.4187467916e+00 -4.1893923337e+00 2.4187467916e+00 4.1893923337e+00 
3700 7.1224272677e+00 7.8651142096e-01 2.4025334226e+00 -4.1613099548e+00 2.4025334226e+00 4.1613099548e+00 
3800 7.1091256845e+00 7.8719919176e-01 2.3861837599e+00 -4.1329915084e+00 2.3861837599e+00 4.1329915084e+00 
3900 7.0953163722e+00 7.8721296841e-01 2.3697079555e+00 -4.1044545780e+00 2.3697079555e+00 4.1044545780e+00 
4000 7.0810373340e+00 7.8650021016e-01 2.3531175810e+00 -4.0757192064e+00 2.3531175810e+00 4.0757192064e+00 
4100 7.0663312566e+00 7.8501324861e-01 2.3364256272e+00 -4.0468078944e+00 2.3364256272e+00 4.0468078944e+00 
4200 7.0512458474e+00 7.8271105797e-01 2.3196464562e+00 -4.0177455177e+00 2.3196464562e+00 4.0177455177e+00 
4300 7.0358338359e+00 7.7956053207e-01 2.3027957137e+00 -3.9885591755e+00 2.3027957137e+00 3.9885591755e+00 
4400 7.0201526717e+00 7.7553725415e-01 2.2858902094e+00 -3.9592779832e+00 2.2858902094e+00 3.9592779832e+00 
4500 7.0042639665e+00 7.7062577799e-01 2.2689477755e+00 -3.9299328268e+00 2.2689477755e+00 3.9299328268e+00 
4600 6.9882327385e+00 7.6481947435e-01 2.2519871110e+00 -3.9005560942e+00 2.2519871110e+00 3.9005560942e+00 
4700 6.9721265218e+00 7.5812002841e-01 2.2350276224e+00 -3.8711813983e+00 2.2350276224e+00 3.8711813983e+00 
4800 6.9560144074e+00 7.5053669296e-01 2.2180892657e+00 -3.8418433039e+00 2.2180892657e+00 3.8418433039e+00 
4900 6.9399660699e+00 7.4208540637e-01 2.2011923975e+00 -3.8125770697e+00 2.2011923975e+00 3.8125770697e+00 
5000 6.9240508291e+00 7.3278787408e-01 2.1843576362e+00 -3.7834184078e+00 2.1843576362e+00 3.7834184078e+00 
5100 6.9083367795e+00 7.2267069130e-01 2.1676057369e+00 -3.7544032671e+00 2.1676057369e+00 3.7544032671e+00 
5200 6.8928900087e+00 7.1176455870e-01 2.1509574777e+00 -3.7255676363e+00 2.1509574777e+00 3.7255676363e+00 
5300 6.8777739124e+00 7.0010361686e-01 2.1344335573e+00 -3.6969473667e+00 2.1344335573e+00 3.6969473667e+00 
5400 6.8630486095e+00 6.8772490318e-01 2.1180545017e+00 -3.6685780101e+00 2.1180545017e+00 3.6685780101e+00 
5500 6.8487704484e+00 6.7466791965e-01 2.1018405762e+00 -3.6404946674e+00 2.1018405762e+00 3.6404946674e+00 
5600 6.8349915988e+00 6.6097429010e-01 2.0858117035e+00 -3.6127318455e+00 2.0858117035e+00 3.6127318455e+00 
5700 6.8217597190e+00 6.4668748243e-01 2.0699873830e+00 -3.5853233184e+00 2.0699873830e+00 3.5853233184e+00 
5800 6.8091176904e+00 6.3185257171e-01 2.0543866125e+00 -3.5583019913e+00 2.0543866125e+00 3.5583019913e+00 
5900 6.7971034118e+00 6.1651602345e-01 2.0390278106e+00 -3.5316997660e+00 2.0390278106e+00 3.5316997660e+00 
6000 6.7857496497e+00 6.0072548064e-01 2.0239287399e+00 -3.5055474084e+00 2.0239287399e+00 3.5055474084e+00 
6100 6.7750839391e+00 5.8452954348e-01 2.0091064315e+00 -3.4798744172e+00 2.0091064315e+00 3.4798744172e+00 
6200 6.7651285343e+00 5.6797753466e-01 1.9945771112e+00 -3.4547088962e+00 1.9945771112e+00 3.4547088962e+00 
6300 6.7559004065e+00 5.5111924729e-01 1.9803561283e+00 -3.4300774313e+00 1.9803561283e+00 3.4300774313e+00 
6400 6.7474112889e+00 5.3400467567e-01 1.9664578884e+00 -3.4060049737e+00 1.9664578884e+00 3.4060049737e+00 
6500 6.7396677663e+00 5.1668373114e-01 1.9528957907e+00 -3.3825147314e+00 1.9528957907e+00 3.3825147314e+00 
6600 6.7326714092e+00 4.9920594724e-01 1.9396821714e+00 -3.3596280714e+00 1.9396821714e+00 3.3596280714e+00 
6700 6.7264189504e+00 4.8162017930e-01 1.9268282539e+00 -3.3373644333e+00 1.9268282539e+00 3.3373644333e+00 
6800 6.7209025014e+00 4.6397430440e-01 1.9143441071e+00 -3.3157412567e+00 1.9143441071e+00 3.3157412567e+00 
6900 6.7161098058e+00 4.4631492745e-01 1.9022386118e+00 -3.2947739238e+00 1.9022386118e+00 3.2947739238e+00 
7000 6.7120245252e+00 4.2868709961e-01 1.8905194370e+00 -3.2744757175e+00 1.8905194370e+00 3.2744757175e+00 
7100 6.7086265554e+00 4.1113405446e-01 1.8791930253e+00 -3.2548577970e+00 1.8791930253e+00 3.2548577970e+00 
7200 6.7058923652e+00 3.9369696682e-01 1.8682645886e+00 -3.2359291895e+00 1.8682645886e+00 3.2359291895e+00 
7300 6.7037953553e+00 3.7641473879e-01 1.8577381135e+00 -3.2176967997e+00 1.8577381135e+00 3.2176967997e+00 
7400 6.7023062301e+00 3.5932381607e-01 1.8476163763e+00 -3.2001654366e+00 1.8476163763e+00 3.2001654366e+00 
7500 6.7013933776e+00 3.4245803739e-01 1.8379009676e+00 -3.1833378552e+00 1.8379009676e+00 3.1833378552e+00 
7600 6.7010232527e+00 3.2584851847e-01 1.8285923258e+00 -3.1672148146e+00 1.8285923258e+00 3.1672148146e+00 
7700 6.7011607568e+00 3.0952357125e-01 1.8196897781e+00 -3.1517951497e+00 1.8196897781e+00 3.1517951497e+00 
7800 6.7017696107e+00 2.9350865821e-01 1.8111915897e+00 -3.1370758556e+00 1.8111915897e+00 3.1370758556e+00 
7900 6.7028127161e+00 2.7782638056e-01 1.8030950185e+00 -3.1230521829e+00 1.8030950185e+00 3.1230521829e+00 
8000 6.7042525000e+00 2.6249649891e-01 1.7953963758e+00 -3.1097177427e+00 1.7953963758e+00 3.1097177427e+00 
8100 6.7060512411e+00 2.4753598359e-01 1.7880910910e+00 -3.0970646182e+00 1.7880910910e+00 3.0970646182e+00 
8200 6.7081713741e+00 2.3295909226e-01 1.7811737796e+00 -3.0850834833e+00 1.7811737796e+00 3.0850834833e+00 
8300 6.7105757694e+00 2.1877747124e-01 1.7746383135e+00 -3.0737637240e+00 1.7746383135e+00 3.0737637240e+00 
8400 6.7132279883e+00 2.0500027724e-01 1.7684778925e+00 -3.0630935619e+00 1.7684778925e+00 3.0630935619e+00 
8500 6.7160925109e+00 1.9163431593e-01 1.7626851164e+00 -3.0530601793e+00 1.7626851164e+00 3.0530601793e+00 
8600 6.7191349375e+00 1.7868419380e-01 1.7572520553e+00 -3.0436498415e+00 1.7572520553e+00 3.0436498415e+00 
8700 6.7223221633e+00 1.6615247967e-01 1.7521703205e+00 -3.0348480186e+00 1.7521703205e+00 3.0348480186e+00 
8800 6.7256225267e+00 1.5403987265e-01 1.7474311310e+00 -3.0266395017e+00 1.7474311310e+00 3.0266395017e+00 
8900 6.7290059327e+00 1.4234537344e-01 1.7430253794e+00 -3.0190085159e+00 1.7430253794e+00 3.0190085159e+00 
9000 6.7324439509e+00 1.3106645603e-01 1.7389436928e+00 -3.0119388274e+00 1.7389436928e+00 3.0119388274e+00 
9100 6.7359098925e+00 1.2019923742e-01 1.7351764917e+00 -3.0054138436e+00 1.7351764917e+00 3.0054138436e+00 
9200 6.7393788639e+00 1.0973864317e-01 1.7317140436e+00 -2.9994167077e+00 1.7317140436e+00 2.9994167077e+00 
9300 6.7428278026e+00 9.9678566873e-02 1.7285465138e+00 -2.9939303851e+00 1.7285465138e+00 2.9939303851e+00 
9400 6.7462354937e+00 9.0012022090e-02 1.7256640108e+00 -2.9889377436e+00 1.7256640108e+00 2.9889377436e+00 
9500 6.7495825713e+00 8.0731285679e-02 1.7230566286e+00 -2.9844216250e+00 1.7230566286e+00 2.9844216250e+00 
9600 6.7528515044e+00 7.1828031492e-02 1.7207144836e+00 -2.9803649110e+00 1.7207144836e+00 2.9803649110e+00 
9700 6.7560265714e+00 6.3293453975e-02 1.7186277489e+00 -2.9767505804e+00 1.7186277489e+00 2.9767505804e+00 
9800 6.7590938220e+00 5.5118381293e-02 1.7167866830e+00 -2.9735617607e+00 1.7167866830e+00 2.9735617607e+00 
9900 6.7620410302e+00 4.7293377875e-02 1.7151816559e+00 -2.9707817722e+00 1.7151816559e+00 2.9707817722e+00 
10000 6.7648576393e+00 3.9808836457e-02 1.7138031711e+00 -2.9683941665e+00 1.7138031711e+00 2.9683941665e+00 
10100 6.7675346995e+00 3.2655059852e-02 1.7126418844e+00 -2.9663827589e+00 1.7126418844e+00 2.9663827589e+00 
10200 6.7700648001e+00 2.5822332824e-02 1.7116886194e+00 -2.9647316556e+00 1.7116886194e+00 2.9647316556e+00 
10300 6.7724419974e+00 1.9300984510e-02 1.7109343808e+00 -2.9634252759e+00 1.7109343808e+00 2.9634252759e+00 
10400 6.7746617385e+00 1.3081441955e-02 1.7103703637e+00 -2.9624483697e+00 1.7103703637e+00 2.9624483697e+00 
10500 6.7767207832e+00 7.1542753324e-03 1.7099879625e+00 -2.9617860313e+00 1.7099879625e+00 2.9617860313e+00 
10600 6.7786171240e+00 1.5102354914e-03 1.7097787759e+00 -2.9614237096e+00 1.7097787759e+00 2.9614237096e+00 
10700 6.7803499044e+00 -3.8597155243e-03 1.7097346115e+00 -2.9613472145e+00 1.7097346115e+00 2.9613472145e+00 
10800 6.7819193378e+00 -8.9643803422e-03 1.7098474874e+00 -2.9615427214e+00 1.7098474874e+00 2.9615427214e+00 
10900 6.7833266262e+00 -1.3812307867e-02 1.7101096339e+00 -2.9619967724e+00 1.7101096339e+00 2.9619967724e+00 
11000 6.7845738791e+00 -1.8411780008e-02 1.7105134925e+00 -2.9626962761e+00 1.7105134925e+00 2.9626962761e+00 
11100 6.7856640349e+00 -2.2770802931e-02 1.7110517153e+00 -2.9636285052e+00 1.7110517153e+00 2.9636285052e+00 
11200 6.7866007819e+00 -2.6897102267e-02 1.7117171621e+00 -2.9647810929e+00 1.7117171621e+00 2.9647810929e+00 
11300 6.7873884834e+00 -3.0798121758e-02 1.7125028982e+00 -2.9661420277e+00 1.7125028982e+00 2.9661420277e+00 
11400 6.7880321027e+00 -3.4481024829e-02 1.7134021905e+00 -2.9676996478e+00 1.7134021905e+00 2.9676996478e+00 
11500 6.7885371325e+00 -3.7952698655e-02 1.7144085041e+00 -2.9694426340e+00 1.7144085041e+00 2.9694426340e+00 
11600 6.7889095253e+00 -4.1219760286e-02 1.7155154976e+00 -2.9713600030e+00 1.7155154976e+00 2.9713600030e+00 
11700 6.7891556272e+00 -4.4288564478e-02 1.7167170189e+00 -2.9734410989e+00 1.7167170189e+00 2.9734410989e+00 
11800 6.7892821151e+00 -4.7165212865e-02 1.7180071006e+00 -2.9756755861e+00 1.7180071006e+00 2.9756755861e+00 
11900 6.7892959356e+00 -4.9855564197e-02 1.7193799555e+00 -2.9780534405e+00 1.7193799555e+00 2.9780534405e+00 
12000 6.7892042479e+00 -5.2365245361e-02 1.7208299714e+00 -2.9805649416e+00 1.7208299714e+00 2.9805649416e+00 
12100 6.7890143697e+00 -5.4699662948e-02 1.7223517067e+00 -2.9832006645e+00 1.7223517067e+00 2.9832006645e+00 
12200 6.7887337257e+00 -5.6864015176e-02 1.7239398858e+00 -2.9859514715e+00 1.7239398858e+00 2.9859514715e+00 
12300 6.7883697997e+00 -5.8863303985e-02 1.7255893944e+00 -2.9888085042e+00 1.7255893944e+00 2.9888085042e+00 
12400 6.7879300895e+00 -6.0702347142e-02 1.7272952751e+00 -2.9917631761e+00 1.7272952751e+00 2.9917631761e+00 
12500 6.7874220655e+00 -6.2385790255e-02 1.7290527230e+00 -2.9948071652e+00 1.7290527230e+00 2.9948071652e+00 
12600 6.7868531314e+00 -6.3918118562e-02 1.7308570817e+00 -2.9979324062e+00 1.7308570817e+00 2.9979324062e+00 
12700 6.7862305885e+00 -6.5303668430e-02 1.7327038393e+00 -3.0011310842e+00 1.7327038393e+00 3.0011310842e+00 
12800 6.7855616033e+00 -6.6546638475e-02 1.7345886246e+00 -3.0043956280e+00 1.7345886246e+00 3.0043956280e+00 
12900 6.7848531772e+00 -6.7651100271e-02 1.7365072031e+00 -3.0077187035e+00 1.7365072031e+00 3.0077187035e+00 
13000 6.7841121195e+00 -6.8621008579e-02 1.7384554742e+00 -3.0110932080e+00 1.7384554742e+00 3.0110932080e+00 
13100 6.7833450230e+00 -6.9460211089e-02 1.7404294671e+00 -3.0145122641e+00 1.7404294671e+00 3.0145122641e+00 
13200 6.7825582426e+00 -7.0172457646e-02 1.7424253386e+00 -3.0179692148e+00 1.7424253386e+00 3.0179692148e+00 
13300 6.7817578756e+00 -7.0761408938e-02 1.7444393691e+00 -3.0214576181e+00 1.7444393691e+00 3.0214576181e+00 
13400 6.7809497456e+00 -7.1230644667e-02 1.7464679609e+00 -3.0249712420e+00 1.7464679609e+00 3.0249712420e+00 
13500 6.7801393877e+00 -7.1583671175e-02 1.7485076344e+00 -3.0285040602e+00 1.7485076344e+00 3.0285040602e+00 
13600 6.7793320369e+00 -7.1823928555e-02 1.7505550267e+00 -3.0320502478e+00 1.7505550267e+00 3.0320502478e+00 
13700 6.7785326180e+00 -7.1954797246e-02 1.7526068886e+00 -3.0356041767e+00 1.7526068886e+00 3.0356041767e+00 
13800 6.7777457378e+00 -7.1979604131e-02 1.7546600822e+00 -3.0391604124e+00 1.7546600822e+00 3.0391604124e+00 
13900 6.7769756792e+00 -7.1901628147e-02 1.7567115796e+00 -3.0427137101e+00 1.7567115796e+00 3.0427137101e+00 
14000 6.7762263976e+00 -7.1724105440e-02 1.7587584601e+00 -3.0462590111e+00 1.7587584601e+00 3.0462590111e+00 
14100 6.7755015180e+00 -7.1450234064e-02 1.7607979086e+00 -3.0497914396e+00 1.7607979086e+00 3.0497914396e+00 
14200 6.7748043352e+00 -7.1083178267e-02 1.7628272142e+00 -3.0533063000e+00 1.7628272142e+00 3.0533063000e+00 
14300 6.7741378143e+00 -7.0626072365e-02 1.7648437678e+00 -3.0567990733e+00 1.7648437678e+00 3.0567990733e+00 
14400 6.7735045932e+00 -7.0082024234e-02 1.7668450612e+00 -3.0602654151e+00 1.7668450612e+00 3.0602654151e+00 
14500 6.7729069866e+00 -6.9454118440e-02 1.7688286851e+00 -3.0637011525e+00 1.7688286851e+00 3.0637011525e+00 
14600 6.7723469908e+00 -6.8745419027e-02 1.7707923278e+00 -3.0671022815e+00 1.7707923278e+00 3.0671022815e+00 
14700 6.7718262903e+00 -6.7958971969e-02 1.7727337741e+00 -3.0704649651e+00 1.7727337741e+00 3.0704649651e+00 
14800 6.7713462649e+00 -6.7097807331e-02 1.7746509037e+00 -3.0737855309e+00 1.7746509037e+00 3.0737855309e+00 
14900 6.7709079979e+00 -6.6164941120e-02 1.7765416898e+00 -3.0770604686e+00 1.7765416898e+00 3.0770604686e+00 
15000 6.7705122856e+00 -6.5163376873e-02 1.7784041986e+00 -3.0802864283e+00 1.7784041986e+00 3.0802864283e+00 
15100 6.7701596474e+00 -6.4096106974e-02 1.7802365872e+00 -3.0834602186e+00 1.7802365872e+00 3.0834602186e+00 
15200 6.7698503363e+00 -6.2966113727e-02 1.7820371035e+00 -3.0865788042e+00 1.7820371035e+00 3.0865788042e+00 
15300 6.7695843508e+00 -6.1776370187e-02 1.7838040843e+00 -3.0896393048e+00 1.7838040843e+00 3.0896393048e+00 
15400 6.7693614465e+00 -6.0529840762e-02 1.7855359549e+00 -3.0926389926e+00 1.7855359549e+00 3.0926389926e+00 
15500 6.7691811492e+00 -5.9229481603e-02 1.7872312276e+00 -3.0955752911e+00 1.7872312276e+00 3.0955752911e+00 
15600 6.7690427677e+00 -5.7878240773e-02 1.7888885013e+00 -3.0984457733e+00 1.7888885013e+00 3.0984457733e+00 
15700 6.7689454070e+00 -5.6479058219e-02 1.7905064600e+00 -3.1012481601e+00 1.7905064600e+00 3.1012481601e+00 
15800 6.7688879828e+00 -5.5034865545e-02 1.7920838725e+00 -3.1039803185e+00 1.7920838725e+00 3.1039803185e+00 
15900 6.7688692348e+00 -5.3548585592e-02 1.7936195907e+00 -3.1066402605e+00 1.7936195907e+00 3.1066402605e+00 
16000 6.7688877412e+00 -5.2023131832e-02 1.7951125496e+00 -3.1092261412e+00 1.7951125496e+00 3.1092261412e+00 
16100 6.7689419331e+00 -5.0461407573e-02 1.7965617658e+00 -3.1117362574e+00 1.7965617658e+00 3.1117362574e+00 
16200 6.7690301089e+00 -4.8866304995e-02 1.7979663370e+00 -3.1141690460e+00 1.7979663370e+00 3.1141690460e+00 
16300 6.7691504486e+00 -4.7240703998e-02 1.7993254408e+00 -3.1165230827e+00 1.7993254408e+00 3.1165230827e+00 
16400 6.7693010285e+00 -4.5587470892e-02 1.8006383340e+00 -3.1187970805e+00 1.8006383340e+00 3.1187970805e+00 
16500 6.7694798353e+00 -4.3909456900e-02 1.8019043519e+00 -3.1209898879e+00 1.8019043519e+00 3.1209898879e+00 
16600 6.7696847803e+00 -4.2209496517e-02 1.8031229072e+00 -3.1231004876e+00 1.8031229072e+00 3.1231004876e+00 
16700 6.7699137136e+00 -4.0490405691e-02 1.8042934891e+00 -3.1251279949e+00 1.8042934891e+00 3.1251279949e+00 
16800 6.7701644376e+00 -3.8754979853e-02 1.8054156624e+00 -3.1270716561e+00 1.8054156624e+00 3.1270716561e+00 
16900 6.7704347206e+00 -3.7005991805e-02 1.8064890667e+00 -3.1289308468e+00 1.8064890667e+00 3.1289308468e+00 
17000 6.7707223103e+00 -3.5246189446e-02 1.8075134152e+00 -3.1307050704e+00 1.8075134152e+00 3.1307050704e+00 
17100 6.7710249457e+00 -3.3478293372e-02 1.8084884939e+00 -3.1323939563e+00 1.8084884939e+00 3.1323939563e+00 
17200 6.7713403707e+00 -3.1704994339e-02 1.8094141605e+00 -3.1339972579e+00 1.8094141605e+00 3.1339972579e+00 
17300 6.7716663447e+00 -2.9928950603e-02 1.8102903433e+00 -3.1355148510e+00 1.8102903433e+00 3.1355148510e+00 
17400 6.7720006552e+00 -2.8152785150e-02 1.8111170401e+00 -3.1369467320e+00 1.8111170401e+00 3.1369467320e+00 
17500 6.7723411280e+00 -2.6379082815e-02 1.8118943173e+00 -3.1382930155e+00 1.8118943173e+00 3.1382930155e+00 
17600 6.7726856377e+00 -2.4610387316e-02 1.8126223081e+00 -3.1395539326e+00 1.8126223081e+00 3.1395539326e+00 
17700 6.7730321175e+00 -2.2849198203e-02 1.8133012119e+00 -3.1407298284e+00 1.8133012119e+00 3.1407298284e+00 
17800 6.7733785683e+00 -2.1097967747e-02 1.8139312926e+00 -3.1418211602e+00 1.8139312926e+00 3.1418211602e+00 
17900 6.7737230675e+00 -1.9359097773e-02 1.8145128773e+00 -3.1428284945e+00 1.8145128773e+00 3.1428284945e+00 
18000 6.7740637760e+00 -1.7634936456e-02 1.8150463551e+00 -3.1437525051e+00 1.8150463551e+00 3.1437525051e+00 
18100 6.7743989462e+00 -1.5927775100e-02 1.8155321753e+00 -3.1445939703e+00 1.8155321753e+00 3.1445939703e+00 
18200 6.7747269280e+00 -1.4239844918e-02 1.8159708460e+00 -3.1453537703e+00 1.8159708460e+00 3.1453537703e+00 
18300 6.7750461743e+00 -1.2573313817e-02 1.8163629326e+00 -3.1460328842e+00 1.8163629326e+00 3.1460328842e+00 
18400 6.7753552465e+00 -1.0930283230e-02 1.8167090560e+00 -3.1466323875e+00 1.8167090560e+00 3.1466323875e+00 
18500 6.7756528182e+00 -9.3127849928e-03 1.8170098907e+00 -3.1471534486e+00 1.8170098907e+00 3.1471534486e+00 
18600 6.7759376788e+00 -7.7227782938e-03 1.8172661635e+00 -3.1475973261e+00 1.8172661635e+00 3.1475973261e+00 
18700 6.7762087362e+00 -6.1621467184e-03 1.8174786511e+00 -3.1479653653e+00 1.8174786511e+00 3.1479653653e+00 
18800 6.7764650190e+00 -4.6326954023e-03 1.8176481783e+00 -3.1482589951e+00 1.8176481783e+00 3.1482589951e+00 
18900 6.7767056773e+00 -3.1361483140e-03 1.8177756163e+00 -3.1484797242e+00 1.8177756163e+00 3.1484797242e+00 
19000 6.7769299837e+00 -1.6741456872e-03 1.8178618803e+00 -3.1486291379e+00 1.8178618803e+00 3.1486291379e+00 
19100 6.7771373324e+00 -2.4824161832e-04 1.8179079277e+00 -3.1487088942e+00 1.8179079277e+00 3.1487088942e+00 
19200 6.7773272392e+00 1.1400981522e-03 1.8179147553e+00 -3.1487207201e+00 1.8179147553e+00 3.1487207201e+00 
19300 6.7774993390e+00 2.4894982588e-03 1.8178833981e+00 -3.1486664078e+00 1.8178833981e+00 3.1486664078e+00 
19400 6.7776533844e+00 3.7986755157e-03 1.8178149261e+00 -3.1485478108e+00 1.8178149261e+00 3.1485478108e+00 
19500 6.7777892421e+00 5.0664404926e-03 1.8177104424e+00 -3.1483668398e+00 1.8177104424e+00 3.1483668398e+00 
19600 6.7779068901e+00 6.2916988511e-03 1.8175710810e+00 -3.1481254586e+00 1.8175710810e+00 3.1481254586e+00 
19700 6.7780064134e+00 7.4734524285e-03 1.8173980039e+00 -3.1478256803e+00 1.8173980039e+00 3.1478256803e+00 
19800 6.7780879998e+00 8.6108000630e-03 1.8171923992e+00 -3.1474695625e+00 1.8171923992e+00 3.1474695625e+00 
19900 6.7781519346e+00 9.7029381502e-03 1.8169554784e+00 -3.1470592037e+00 1.8169554784e+00 3.1470592037e+00 
20000 6.7781985955e+00 1.0749160928e-02 1.8166884740e+00 -3.1465967386e+00 1.8166884740e+00 3.1465967386e+00 
20100 6.7782284469e+00 1.1748860486e-02 1.8163926371e+00 -3.1460843340e+00 1.8163926371e+00 3.1460843340e+00 
20200 6.7782420335e+00 1.2701526496e-02 1.8160692348e+00 -3.1455241848e+00 1.8160692348e+00 3.1455241848e+00 
20300 6.7782399744e+00 1.3606745668e-02 1.8157195478e+00 -3.1449185090e+00 1.8157195478e+00 3.1449185090e+00 
20400 6.7782229562e+00 1.4464200928e-02 1.8153448677e+00 -3.1442695441e+00 1.8153448677e+00 3.1442695441e+00 
20500 6.7781917263e+00 1.5273670333e-02 1.8149464951e+00 -3.1435795426e+00 1.8149464951e+00 3.1435795426e+00 
20600 6.7781470861e+00 1.6035025712e-02 1.8145257367e+00 -3.1428507677e+00 1.8145257367e+00 3.1428507677e+00 
20700 6.7780898837e+00 1.6748231066e-02 1.8140839030e+00 -3.1420854891e+00 1.8140839030e+00 3.1420854891e+00 
20800 6.7780210074e+00 1.7413340702e-02 1.8136223058e+00 -3.1412859794e+00 1.8136223058e+00 3.1412859794e+00 
20900 6.7779413782e+00 1.8030497152e-02 1.8131422562e+00 -3.1404545091e+00 1.8131422562e+00 3.1404545091e+00 
21000 6.7778519429e+00 1.8599928858e-02 1.8126450621e+00 -3.1395933437e+00 1.8126450621e+00 3.1395933437e+00 
21100 6.7777536675e+00 1.9121947650e-02 1.8121320259e+00 -3.1387047389e+00 1.8121320259e+00 3.1387047389e+00 
21200 6.7776475303e+00 1.9596946032e-02 1.8116044424e+00 -3.1377909374e+00 1.8116044424e+00 3.1377909374e+00 
21300 6.7775345152e+00 2.0025394290e-02 1.8110635967e+00 -3.1368541651e+00 1.8110635967e+00 3.1368541651e+00 
21400 6.7774156058e+00 2.0407837436e-02 1.8105107620e+00 -3.1358966274e+00 1.8105107620e+00 3.1358966274e+00 
21500 6.7772917787e+00 2.0744892014e-02 1.8099471979e+00 -3.1349205057e+00 1.8099471979e+00 3.1349205057e+00 
21600 6.7771639985e+00 2.1037242771e-02 1.8093741481e+00 -3.1339279544e+00 1.8093741481e+00 3.1339279544e+00 
21700 6.7770332115e+00 2.1285639225e-02 1.8087928389e+00 -3.1329210973e+00 1.8087928389e+00 3.1329210973e+00 
21800 6.7769003412e+00 2.1490892143e-02 1.8082044773e+00 -3.1319020252e+00 1.8082044773e+00 3.1319020252e+00 
21900 6.7767662834e+00 2.1653869940e-02 1.8076102493e+00 -3.1308727921e+00 1.8076102493e+00 3.1308727921e+00 
22000 6.7766319014e+00 2.1775495029e-02 1.8070113184e+00 -3.1298354133e+00 1.8070113184e+00 3.1298354133e+00 
22100 6.7764980225e+00 2.1856740131e-02 1.8064088240e+00 -3.1287918623e+00 1.8064088240e+00 3.1287918623e+00 
22200 6.7763654342e+00 2.1898624564e-02 1.8058038801e+00 -3.1277440688e+00 1.8058038801e+00 3.1277440688e+00 
22300 6.7762348809e+00 2.1902210523e-02 1.8051975739e+00 -3.1266939158e+00 1.8051975739e+00 3.1266939158e+00 
22400 6.7761070614e+00 2.1868599381e-02 1.8045909649e+00 -3.1256432381e+00 1.8045909649e+00 3.1256432381e+00 
22500 6.7759826262e+00 2.1798928002e-02 1.8039850831e+00 -3.1245938201e+00 1.8039850831e+00 3.1245938201e+00 
22600 6.7758621760e+00 2.1694365105e-02 1.8033809287e+00 -3.1235473940e+00 1.8033809287e+00 3.1235473940e+00 
22700 6.7757462599e+00 2.1556107674e-02 1.8027794707e+00 -3.1225056381e+00 1.8027794707e+00 3.1225056381e+00 
22800 6.7756353741e+00 2.1385377431e-02 1.8021816462e+00 -3.1214701756e+00 1.8021816462e+00 3.1214701756e+00 
22900 6.7755299617e+00 2.1183417388e-02 1.8015883596e+00 -3.1204425732e+00 1.8015883596e+00 3.1204425732e+00 
23000 6.7754304119e+00 2.0951488482e-02 1.8010004821e+00 -3.1194243395e+00 1.8010004821e+00 3.1194243395e+00 
23100 6.7753370603e+00 2.0690866300e-02 1.8004188509e+00 -3.1184169247e+00 1.8004188509e+00 3.1184169247e+00 
23200 6.7752501891e+00 2.0402837915e-02 1.7998442689e+00 -3.1174217195e+00 1.7998442689e+00 3.1174217195e+00 
23300 6.7751700279e+00 2.0088698816e-02 1.7992775042e+00 -3.1164400541e+00 1.7992775042e+00 3.1164400541e+00 
23400 6.7750967546e+00 1.9749749963e-02 1.7987192896e+00 -3.1154731981e+00 1.7987192896e+00 3.1154731981e+00 
23500 6.7750304971e+00 1.9387294956e-02 1.7981703227e+00 -3.1145223596e+00 1.7981703227e+00 3.1145223596e+00 
23600 6.7749713341e+00 1.9002637324e-02 1.7976312657e+00 -3.1135886855e+00 1.7976312657e+00 3.1135886855e+00 
23700 6.7749192977e+00 1.8597077943e-02 1.7971027450e+00 -3.1126732608e+00 1.7971027450e+00 3.1126732608e+00 
23800 6.7748743750e+00 1.8171912575e-02 1.7965853515e+00 -3.1117771090e+00 1.7965853515e+00 3.1117771090e+00 
23900 6.7748365105e+00 1.7728429540e-02 1.7960796405e+00 -3.1109011918e+00 1.7960796405e+00 3.1109011918e+00 
24000 6.7748056083e+00 1.7267907512e-02 1.7955861319e+00 -3.1100464098e+00 1.7955861319e+00 3.1100464098e+00 
24100 6.7747815348e+00 1.6791613444e-02 1.7951053101e+00 -3.1092136021e+00 1.7951053101e+00 3.1092136021e+00 
24200 6.7747641213e+00 1.6300800619e-02 1.7946376249e+00 -3.1084035475e+00 1.7946376249e+00 3.1084035475e+00 
24300 6.7747531667e+00 1.5796706828e-02 1.7941834911e+00 -3.1076169647e+00 1.7941834911e+00 3.1076169647e+00 
24400 6.7747484406e+00 1.5280552667e-02 1.7937432892e+00 -3.1068545126e+00 1.7937432892e+00 3.1068545126e+00 
24500 6.7747496857e+00 1.4753539956e-02 1.7933173657e+00 -3.1061167915e+00 1.7933173657e+00 3.1061167915e+00 
24600 6.7747566211e+00 1.4216850276e-02 1.7929060337e+00 -3.1054043436e+00 1.7929060337e+00 3.1054043436e+00 
24700 6.7747689451e+00 1.3671643622e-02 1.7925095733e+00 -3.1047176540e+00 1.7925095733e+00 3.1047176540e+00 
24800 6.7747863378e+00 1.3119057157e-02 1.7921282320e+00 -3.1040571514e+00 1.7921282320e+00 3.1040571514e+00 
24900 6.7748084645e+00 1.2560204086e-02 1.7917622255e+00 -3.1034232096e+00 1.7917622255e+00 3.1034232096e+00 
25000 6.7748349782e+00 1.1996172624e-02 1.7914117383e+00 -3.1028161480e+00 1.7914117383e+00 3.1028161480e+00 
25100 6.7748655222e+00 1.1428025061e-02 1.7910769242e+00 -3.1022362329e+00 1.7910769242e+00 3.1022362329e+00 
25200 6.7748997331e+00 1.0856796929e-02 1.7907579070e+00 -3.1016836790e+00 1.7907579070e+00 3.1016836790e+00 
25300 6.7749372433e+00 1.0283496255e-02 1.7904547814e+00 -3.1011586501e+00 1.7904547814e+00 3.1011586501e+00 
25400 6.7749776832e+00 9.7091028960e-03 1.7901676136e+00 -3.1006612608e+00 1.7901676136e+00 3.1006612608e+00 
25500 6.7750206838e+00 9.1345679648e-03 1.7898964418e+00 -3.1001915775e+00 1.7898964418e+00 3.1001915775e+00 
25600 6.7750658791e+00 8.5608133241e-03 1.7896412776e+00 -3.0997496201e+00 1.7896412776e+00 3.0997496201e+00 
25700 6.7751129076e+00 7.9887311602e-03 1.7894021061e+00 -3.0993353630e+00 1.7894021061e+00 3.0993353630e+00 
25800 6.7751614149e+00 7.4191836238e-03 1.7891788873e+00 -3.0989487366e+00 1.7891788873e+00 3.0989487366e+00 
25900 6.7752110553e+00 6.8530025367e-03 1.7889715564e+00 -3.0985896290e+00 1.7889715564e+00 3.0985896290e+00 
26000 6.7752614930e+00 6.2909891609e-03 1.7887800251e+00 -3.0982578871e+00 1.7887800251e+00 3.0982578871e+00 
26100 6.7753124045e+00 5.7339140253e-03 1.7886041822e+00 -3.0979533182e+00 1.7886041822e+00 3.0979533182e+00 
26200 6.7753634792e+00 5.1825168076e-03 1.7884438944e+00 -3.0976756916e+00 1.7884438944e+00 3.0976756916e+00 
26300 6.7754144208e+00 4.6375062680e-03 1.7882990074e+00 -3.0974247399e+00 1.7882990074e+00 3.0974247399e+00 
26400 6.7754649488e+00 4.0995602312e-03 1.7881693465e+00 -3.0972001606e+00 1.7881693465e+00 3.0972001606e+00 
26500 6.7755147986e+00 3.5693256134e-03 1.7880547176e+00 -3.0970016176e+00 1.7880547176e+00 3.0970016176e+00 
26600 6.7755637229e+00 3.0474184929e-03 1.7879549082e+00 -3.0968287427e+00 1.7879549082e+00 3.0968287427e+00 
26700 6.7756114922e+00 2.5344242199e-03 1.7878696881e+00 -3.0966811371e+00 1.7878696881e+00 3.0966811371e+00 
26800 6.7756578949e+00 2.0308975644e-03 1.7877988103e+00 -3.0965583731e+00 1.7877988103e+00 3.0965583731e+00 
26900 6.7757027382e+00 1.5373628995e-03 1.7877420117e+00 -3.0964599951e+00 1.7877420117e+00 3.0964599951e+00 
27000 6.7757458478e+00 1.0543144169e-03 1.7876990146e+00 -3.0963855219e+00 1.7876990146e+00 3.0963855219e+00 
27100 6.7757870681e+00 5.8221637460e-04 1.7876695266e+00 -3.0963344472e+00 1.7876695266e+00 3.0963344472e+00 
27200 6.7758262626e+00 1.2150337291e-04 1.7876532424e+00 -3.0963062422e+00 1.7876532424e+00 3.0963062422e+00 
27300 6.7758633130e+00 -3.2741934170e-04 1.7876498440e+00 -3.0963003560e+00 1.7876498440e+00 3.0963003560e+00 
27400 6.7758981196e+00 -7.6417554717e-04 1.7876590018e+00 -3.0963162178e+00 1.7876590018e+00 3.0963162178e+00 
27500 6.7759306005e+00 -1.1884176921e-03 1.7876803755e+00 -3.0963532381e+00 1.7876803755e+00 3.0963532381e+00 
27600 6.7759606916e+00 -1.5998265194e-03 1.7877136147e+00 -3.0964108101e+00 1.7877136147e+00 3.0964108101e+00 
27700 6.7759883455e+00 -1.9981106680e-03 1.7877583599e+00 -3.0964883111e+00 1.7877583599e+00 3.0964883111e+00 
27800 6.7760135315e+00 -2.3830062550e-03 1.7878142434e+00 -3.0965851040e+00 1.7878142434e+00 3.0965851040e+00 
27900 6.7760362345e+00 -2.7542764384e-03 1.7878808896e+00 -3.0967005386e+00 1.7878808896e+00 3.0967005386e+00 
28000 6.7760564546e+00 -3.1117109613e-03 1.7879579164e+00 -3.0968339530e+00 1.7879579164e+00 3.0968339530e+00 
28100 6.7760742059e+00 -3.4551256804e-03 1.7880449357e+00 -3.0969846748e+00 1.7880449357e+00 3.0969846748e+00 
28200 6.7760895162e+00 -3.7843620772e-03 1.7881415540e+00 -3.0971520226e+00 1.7881415540e+00 3.0971520226e+00 
28300 6.7761024259e+00 -4.0992867550e-03 1.7882473733e+00 -3.0973353071e+00 1.7882473733e+00 3.0973353071e+00 
28400 6.7761129870e+00 -4.3997909213e-03 1.7883619920e+00 -3.0975338325e+00 1.7883619920e+00 3.0975338325e+00 
28500 6.7761212624e+00 -4.6857898565e-03 1.7884850052e+00 -3.0977468975e+00 1.7884850052e+00 3.0977468975e+00 
28600 6.7761273248e+00 -4.9572223706e-03 1.7886160056e+00 -3.0979737970e+00 1.7886160056e+00 3.0979737970e+00 
28700 6.7761312560e+00 -5.2140502476e-03 1.7887545844e+00 -3.0982138225e+00 1.7887545844e+00 3.0982138225e+00 
28800 6.7761331458e+00 -5.4562576791e-03 1.7889003317e+00 -3.0984662642e+00 1.7889003317e+00 3.0984662642e+00 
28900 6.7761330911e+00 -5.6838506867e-03 1.7890528370e+00 -3.0987304111e+00 1.7890528370e+00 3.0987304111e+00 
29000 6.7761311949e+00 -5.8968565357e-03 1.7892116902e+00 -3.0990055529e+00 1.7892116902e+00 3.0990055529e+00 
29100 6.7761275657e+00 -6.0953231388e-03 1.7893764819e+00 -3.0992909806e+00 1.7893764819e+00 3.0992909806e+00 
29200 6.7761223161e+00 -6.2793184522e-03 1.7895468044e+00 -3.0995859877e+00 1.7895468044e+00 3.0995859877e+00 
29300 6.7761155625e+00 -6.4489298631e-03 1.7897222516e+00 -3.0998898713e+00 1.7897222516e+00 3.0998898713e+00 
29400 6.7761074238e+00 -6.6042635711e-03 1.7899024203e+00 -3.1002019326e+00 1.7899024203e+00 3.1002019326e+00 
29500 6.7760980208e+00 -6.7454439617e-03 1.7900869102e+00 -3.1005214784e+00 1.7900869102e+00 3.1005214784e+00 
29600 6.7760874753e+00 -6.8726129757e-03 1.7902753246e+00 -3.1008478217e+00 1.7902753246e+00 3.1008478217e+00 
29700 6.7760759096e+00 -6.9859294718e-03 1.7904672709e+00 -3.1011802825e+00 1.7904672709e+00 3.1011802825e+00 
29800 6.7760634455e+00 -7.0855685854e-03 1.7906623612e+00 -3.1015181888e+00 1.7906623612e+00 3.1015181888e+00 
29900 6.7760502035e+00 -7.1717210834e-03 1.7908602125e+00 -3.1018608774e+00 1.7908602125e+00 3.1018608774e+00 
30000 6.7760363029e+00 -7.2445927157e-03 1.7910604475e+00 -3.1022076944e+00 1.7910604475e+00 3.1022076944e+00 
30100 6.7760218602e+00 -7.3044035634e-03 1.7912626944e+00 -3.1025579963e+00 1.7912626944e+00 3.1025579963e+00 
30200 6.7760069895e+00 -7.3513873855e-03 1.7914665880e+00 -3.1029111505e+00 1.7914665880e+00 3.1029111505e+00 
30300 6.7759918011e+00 -7.3857909638e-03 1.7916717699e+00 -3.1032665359e+00 1.7916717699e+00 3.1032665359e+00 
30400 6.7759764020e+00 -7.4078734473e-03 1.7918778883e+00 -3.1036235435e+00 1.7918778883e+00 3.1036235435e+00 
30500 6.7759608946e+00 -7.4179056955e-03 1.7920845993e+00 -3.1039815774e+00 1.7920845993e+00 3.1039815774e+00 
30600 6.7759453770e+00 -7.4161696230e-03 1.7922915663e+00 -3.1043400548e+00 1.7922915663e+00 3.1043400548e+00 
30700 6.7759299420e+00 -7.4029575446e-03 1.7924984610e+00 -3.1046984069e+00 1.7924984610e+00 3.1046984069e+00 
30800 6.7759146777e+00 -7.3785715219e-03 1.7927049633e+00 -3.1050560793e+00 1.7927049633e+00 3.1050560793e+00 
30900 6.7758996665e+00 -7.3433227121e-03 1.7929107616e+00 -3.1054125324e+00 1.7929107616e+00 3.1054125324e+00 
31000 6.7758849852e+00 -7.2975307200e-03 1.7931155532e+00 -3.1057672420e+00 1.7931155532e+00 3.1057672420e+00 
31100 6.7758707048e+00 -7.2415229525e-03 1.7933190445e+00 -3.1061196993e+00 1.7933190445e+00 3.1061196993e+00 
31200 6.7758568907e+00 -7.1756339782e-03 1.7935209511e+00 -3.1064694117e+00 1.7935209511e+00 3.1064694117e+00 
31300 6.7758436021e+00 -7.1002048907e-03 1.7937209980e+00 -3.1068159032e+00 1.7937209980e+00 3.1068159032e+00 
31400 6.7758308921e+00 -7.0155826773e-03 1.7939189200e+00 -3.1071587141e+00 1.7939189200e+00 3.1071587141e+00 
31500 6.7758188082e+00 -6.9221195936e-03 1.7941144614e+00 -3.1074974018e+00 1.7941144614e+00 3.1074974018e+00 
31600 6.7758073915e+00 -6.8201725441e-03 1.7943073768e+00 -3.1078315409e+00 1.7943073768e+00 3.1078315409e+00 
31700 6.7757966776e+00 -6.7101024701e-03 1.7944974304e+00 -3.1081607235e+00 1.7944974304e+00 3.1081607235e+00 
31800 6.7757866962e+00 -6.5922737447e-03 1.7946843969e+00 -3.1084845590e+00 1.7946843969e+00 3.1084845590e+00 
31900 6.7757774710e+00 -6.4670535758e-03 1.7948680611e+00 -3.1088026748e+00 1.7948680611e+00 3.1088026748e+00 
32000 6.7757690207e+00 -6.3348114178e-03 1.7950482182e+00 -3.1091147159e+00 1.7950482182e+00 3.1091147159e+00 
32100 6.7757613582e+00 -6.1959183922e-03 1.7952246735e+00 -3.1094203454e+00 1.7952246735e+00 3.1094203454e+00 
32200 6.7757544915e+00 -6.0507467183e-03 1.7953972429e+00 -3.1097192444e+00 1.7953972429e+00 3.1097192444e+00 
32300 6.7757484235e+00 -5.8996691527e-03 1.7955657527e+00 -3.1100111120e+00 1.7955657527e+00 3.1100111120e+00 
32400 6.7757431525e+00 -5.7430584414e-03 1.7957300396e+00 -3.1102956653e+00 1.7957300396e+00 3.1102956653e+00 
32500 6.7757386722e+00 -5.5812867811e-03 1.7958899507e+00 -3.1105726395e+00 1.7958899507e+00 3.1105726395e+00 
32600 6.7757349721e+00 -5.4147252931e-03 1.7960453435e+00 -3.1108417877e+00 1.7960453435e+00 3.1108417877e+00 
32700 6.7757320379e+00 -5.2437435092e-03 1.7961960859e+00 -3.1111028811e+00 1.7961960859e+00 3.1111028811e+00 
32800 6.7757298513e+00 -5.0687088700e-03 1.7963420558e+00 -3.1113557085e+00 1.7963420558e+00 3.1113557085e+00 
32900 6.7757283910e+00 -4.8899862356e-03 1.7964831419e+00 -3.1116000767e+00 1.7964831419e+00 3.1116000767e+00 
33000 6.7757276323e+00 -4.7079374106e-03 1.7966192424e+00 -3.1118358098e+00 1.7966192424e+00 3.1118358098e+00 
33100 6.7757275477e+00 -4.5229206824e-03 1.7967502662e+00 -3.1120627495e+00 1.7967502662e+00 3.1120627495e+00 
33200 6.7757281074e+00 -4.3352903734e-03 1.7968761316e+00 -3.1122807548e+00 1.7968761316e+00 3.1122807548e+00 
33300 6.7757292790e+00 -4.1453964081e-03 1.7969967670e+00 -3.1124897015e+00 1.7969967670e+00 3.1124897015e+00 
33400 6.7757310286e+00 -3.9535838951e-03 1.7971121106e+00 -3.1126894824e+00 1.7971121106e+00 3.1126894824e+00 
33500 6.7757333203e+00 -3.7601927242e-03 1.7972221100e+00 -3.1128800069e+00 1.7972221100e+00 3.1128800069e+00 
33600 6.7757361170e+00 -3.5655571789e-03 1.7973267222e+00 -3.1130612007e+00 1.7973267222e+00 3.1130612007e+00 
33700 6.7757393805e+00 -3.3700055648e-03 1.7974259137e+00 -3.1132330053e+00 1.7974259137e+00 3.1132330053e+00 
33800 6.7757430717e+00 -3.1738598544e-03 1.7975196598e+00 -3.1133953784e+00 1.7975196598e+00 3.1133953784e+00 
33900 6.7757471511e+00 -2.9774353480e-03 1.7976079450e+00 -3.1135482928e+00 1.7976079450e+00 3.1135482928e+00 
34000 6.7757515786e+00 -2.7810403510e-03 1.7976907622e+00 -3.1136917364e+00 1.7976907622e+00 3.1136917364e+00 
34100 6.7757563144e+00 -2.5849758683e-03 1.7977681131e+00 -3.1138257121e+00 1.7977681131e+00 3.1138257121e+00 
34200 6.7757613187e+00 -2.3895353156e-03 1.7978400076e+00 -3.1139502371e+00 1.7978400076e+00 3.1139502371e+00 
34300 6.7757665519e+00 -2.1950042475e-03 1.7979064638e+00 -3.1140653425e+00 1.7979064638e+00 3.1140653425e+00 
34400 6.7757719753e+00 -2.0016601036e-03 1.7979675074e+00 -3.1141710733e+00 1.7979675074e+00 3.1141710733e+00 
34500 6.7757775508e+00 -1.8097719710e-03 1.7980231723e+00 -3.1142674875e+00 1.7980231723e+00 3.1142674875e+00 
34600 6.7757832413e+00 -1.6196003650e-03 1.7980734992e+00 -3.1143546564e+00 1.7980734992e+00 3.1143546564e+00 
34700 6.7757890109e+00 -1.4313970266e-03 1.7981185365e+00 -3.1144326632e+00 1.7981185365e+00 3.1144326632e+00 
34800 6.7757948249e+00 -1.2454047386e-03 1.7981583393e+00 -3.1145016037e+00 1.7981583393e+00 3.1145016037e+00 
34900 6.7758006499e+00 -1.0618571576e-03 1.7981929694e+00 -3.1145615848e+00 1.7981929694e+00 3.1145615848e+00 
35000 6.7758064543e+00 -8.8097866495e-04 1.7982224951e+00 -3.1146127249e+00 1.7982224951e+00 3.1146127249e+00 
35100 6.7758122079e+00 -7.0298423441e-04 1.7982469910e+00 -3.1146551530e+00 1.7982469910e+00 3.1146551530e+00 
35200 6.7758178823e+00 -5.2807931709e-04 1.7982665374e+00 -3.1146890084e+00 1.7982665374e+00 3.1146890084e+00 
35300 6.7758234511e+00 -3.5645974383e-04 1.7982812205e+00 -3.1147144401e+00 1.7982812205e+00 3.1147144401e+00 
35400 6.7758288895e+00 -1.8831164453e-04 1.7982911316e+00 -3.1147316067e+00 1.7982911316e+00 3.1147316067e+00 
35500 6.7758341747e+00 -2.3811384412e-05 1.7982963674e+00 -3.1147406755e+00 1.7982963674e+00 3.1147406755e+00 
35600 6.7758392859e+00 1.3610932705e-04 1.7982963674e+00 -3.1147406755e+00 1.7982963674e+00 3.1147406755e+00 
35700 6.7758442043e+00 2.9284387662e-04 1.7982925831e+00 -3.1147341207e+00 1.7982925831e+00 3.1147341207e+00 
35800 6.7758489132e+00 4.4545982414e-04 1.7982844408e+00 -3.1147200179e+00 1.7982844408e+00 3.1147200179e+00 
35900 6.7758533978e+00 5.9382020253e-04 1.7982720551e+00 -3.1146985653e+00 1.7982720551e+00 3.1146985653e+00 
36000 6.7758576454e+00 7.3779788126e-04 1.7982555443e+00 -3.1146699677e+00 1.7982555443e+00 3.1146699677e+00 
36100 6.7758616450e+00 8.7727553388e-04 1.7982350301e+00 -3.1146344360e+00 1.7982350301e+00 3.1146344360e+00 
36200 6.7758653879e+00 1.0121455906e-03 1.7982106374e+00 -3.1145921867e+00 1.7982106374e+00 3.1145921867e+00 
36300 6.7758688669e+00 1.1423101766e-03 1.7981824944e+00 -3.1145434415e+00 1.7981824944e+00 3.1145434415e+00 
36400 6.7758720769e+00 1.2676810352e-03 1.7981507315e+00 -3.1144884267e+00 1.7981507315e+00 3.1144884267e+00 
36500 6.7758750146e+00 1.3881794388e-03 1.7981154821e+00 -3.1144273729e+00 1.7981154821e+00 3.1144273729e+00 
36600 6.7758776782e+00 1.5037360851e-03 1.7980768813e+00 -3.1143605143e+00 1.7980768813e+00 3.1143605143e+00 
36700 6.7758800679e+00 1.6142909811e-03 1.7980350663e+00 -3.1142880886e+00 1.7980350663e+00 3.1142880886e+00 
36800 6.7758821851e+00 1.7197933145e-03 1.7979901761e+00 -3.1142103365e+00 1.7979901761e+00 3.1142103365e+00 
36900 6.7758840329e+00 1.8202013134e-03 1.7979423509e+00 -3.1141275008e+00 1.7979423509e+00 3.1141275008e+00 
37000 6.7758856156e+00 1.9154820944e-03 1.7978917321e+00 -3.1140398265e+00 1.7978917321e+00 3.1140398265e+00 
37100 6.7758869391e+00 2.0056114995e-03 1.7978384621e+00 -3.1139475602e+00 1.7978384621e+00 3.1139475602e+00 
37200 6.7758880103e+00 2.0905739237e-03 1.7977826840e+00 -3.1138509496e+00 1.7977826840e+00 3.1138509496e+00 
37300 6.7758888372e+00 2.1703621312e-03 1.7977245412e+00 -3.1137502433e+00 1.7977245412e+00 3.1137502433e+00 
37400 6.7758894289e+00 2.2449770638e-03 1.7976641774e+00 -3.1136456902e+00 1.7976641774e+00 3.1136456902e+00 
37500 6.7758897953e+00 2.3144276394e-03 1.7976017362e+00 -3.1135375389e+00 1.7976017362e+00 3.1135375389e+00 
37600 6.7758899471e+00 2.3787305433e-03 1.7975373612e+00 -3.1134260381e+00 1.7975373612e+00 3.1134260381e+00 
37700 6.7758898960e+00 2.4379100111e-03 1.7974711952e+00 -3.1133114353e+00 1.7974711952e+00 3.1133114353e+00 
37800 6.7758896538e+00 2.4919976048e-03 1.7974033807e+00 -3.1131939770e+00 1.7974033807e+00 3.1131939770e+00 
37900 6.7758892333e+00 2.5410319827e-03 1.7973340589e+00 -3.1130739083e+00 1.7973340589e+00 3.1130739083e+00 
38000 6.7758886473e+00 2.5850586632e-03 1.7972633705e+00 -3.1129514723e+00 1.7972633705e+00 3.1129514723e+00 
38100 6.7758879092e+00 2.6241297831e-03 1.7971914544e+00 -3.1128269100e+00 1.7971914544e+00 3.1128269100e+00 
38200 6.7758870325e+00 2.6583038510e-03 1.7971184485e+00 -3.1127004601e+00 1.7971184485e+00 3.1127004601e+00 
38300 6.7758860309e+00 2.6876454973e-03 1.7970444889e+00 -3.1125723582e+00 1.7970444889e+00 3.1125723582e+00 
38400 6.7758849180e+00 2.7122252194e-03 1.7969697098e+00 -3.1124428370e+00 1.7969697098e+00 3.1124428370e+00 
38500 6.7758837075e+00 2.7321191245e-03 1.7968942437e+00 -3.1123121259e+00 1.7968942437e+00 3.1123121259e+00 
38600 6.7758824129e+00 2.7474086696e-03 1.7968182208e+00 -3.1121804505e+00 1.7968182208e+00 3.1121804505e+00 
38700 6.7758810476e+00 2.7581803995e-03 1.7967417693e+00 -3.1120480326e+00 1.7967417693e+00 3.1120480326e+00 
38800 6.7758796246e+00 2.7645256832e-03 1.7966650148e+00 -3.1119150898e+00 1.7966650148e+00 3.1119150898e+00 
38900 6.7758781569e+00 2.7665404488e-03 1.7965880804e+00 -3.1117818356e+00 1.7965880804e+00 3.1117818356e+00 
39000 6.7758766567e+00 2.7643249192e-03 1.7965110867e+00 -3.1116484785e+00 1.7965110867e+00 3.1116484785e+00 
39100 6.7758751361e+00 2.7579833460e-03 1.7964341513e+00 -3.1115152226e+00 1.7964341513e+00 3.1115152226e+00 
39200 6.7758736065e+00 2.7476237451e-03 1.7963573892e+00 -3.1113822666e+00 1.7963573892e+00 3.1113822666e+00 
39300 6.7758720788e+00 2.7333576326e-03 1.7962809121e+00 -3.1112498043e+00 1.7962809121e+00 3.1112498043e+00 
39400 6.7758705636e+00 2.7152997621e-03 1.7962048288e+00 -3.1111180243e+00 1.7962048288e+00 3.1111180243e+00 
39500 6.7758690705e+00 2.6935678635e-03 1.7961292450e+00 -3.1109871092e+00 1.7961292450e+00 3.1109871092e+00 
39600 6.7758676088e+00 2.6682823846e-03 1.7960542629e+00 -3.1108572365e+00 1.7960542629e+00 3.1108572365e+00 
39700 6.7758661870e+00 2.6395662343e-03 1.7959799816e+00 -3.1107285776e+00 1.7959799816e+00 3.1107285776e+00 
39800 6.7758648129e+00 2.6075445294e-03 1.7959064967e+00 -3.1106012980e+00 1.7959064967e+00 3.1106012980e+00 
39900 6.7758634937e+00 2.5723443442e-03 1.7958339003e+00 -3.1104755573e+00 1.7958339003e+00 3.1104755573e+00 
40000 6.7758622360e+00 2.5340944638e-03 1.7957622810e+00 -3.1103515091e+00 1.7957622810e+00 3.1103515091e+00 
40100 6.7758610454e+00 2.4929251415e-03 1.7956917239e+00 -3.1102293005e+00 1.7956917239e+00 3.1102293005e+00 
40200 6.7758599272e+00 2.4489678602e-03 1.7956223103e+00 -3.1101090726e+00 1.7956223103e+00 3.1101090726e+00 
40300 6.7758588857e+00 2.4023550980e-03 1.7955541180e+00 -3.1099909600e+00 1.7955541180e+00 3.1099909600e+00 
40400 6.7758579246e+00 2.3532200991e-03 1.7954872211e+00 -3.1098750912e+00 1.7954872211e+00 3.1098750912e+00 
40500 6.7758570470e+00 2.3016966493e-03 1.7954216899e+00 -3.1097615880e+00 1.7954216899e+00 3.1097615880e+00 
40600 6.7758562554e+00 2.2479188569e-03 1.7953575913e+00 -3.1096505658e+00 1.7953575913e+00 3.1096505658e+00 
40700 6.7758555514e+00 2.1920209388e-03 1.7952949880e+00 -3.1095421337e+00 1.7952949880e+00 3.1095421337e+00 
40800 6.7758549362e+00 2.1341370124e-03 1.7952339393e+00 -3.1094363943e+00 1.7952339393e+00 3.1094363943e+00 
40900 6.7758544104e+00 2.0744008936e-03 1.7951745006e+00 -3.1093334435e+00 1.7951745006e+00 3.1093334435e+00 
41000 6.7758539739e+00 2.0129458997e-03 1.7951167238e+00 -3.1092333711e+00 1.7951167238e+00 3.1092333711e+00 
41100 6.7758536263e+00 1.9499046599e-03 1.7950606568e+00 -3.1091362603e+00 1.7950606568e+00 3.1091362603e+00 
41200 6.7758533663e+00 1.8854089307e-03 1.7950063440e+00 -3.1090421878e+00 1.7950063440e+00 3.1090421878e+00 
41300 6.7758531926e+00 1.8195894186e-03 1.7949538261e+00 -3.1089512241e+00 1.7949538261e+00 3.1089512241e+00 
41400 6.7758531030e+00 1.7525756084e-03 1.7949031401e+00 -3.1088634334e+00 1.7949031401e+00 3.1088634334e+00 
41500 6.7758530952e+00 1.6844955989e-03 1.7948543194e+00 -3.1087788735e+00 1.7948543194e+00 3.1087788735e+00 
41600 6.7758531664e+00 1.6154759445e-03 1.7948073940e+00 -3.1086975961e+00 1.7948073940e+00 3.1086975961e+00 
41700 6.7758533135e+00 1.5456415037e-03 1.7947623900e+00 -3.1086196470e+00 1.7947623900e+00 3.1086196470e+00 
41800 6.7758535329e+00 1.4751152944e-03 1.7947193304e+00 -3.1085450655e+00 1.7947193304e+00 3.1085450655e+00 
41900 6.7758538211e+00 1.4040183557e-03 1.7946782345e+00 -3.1084738855e+00 1.7946782345e+00 3.1084738855e+00 
42000 6.7758541741e+00 1.3324696165e-03 1.7946391185e+00 -3.1084061345e+00 1.7946391185e+00 3.1084061345e+00 
42100 6.7758545876e+00 1.2605857710e-03 1.7946019950e+00 -3.1083418348e+00 1.7946019950e+00 3.1083418348e+00 
42200 6.7758550574e+00 1.1884811609e-03 1.7945668736e+00 -3.1082810026e+00 1.7945668736e+00 3.1082810026e+00 
42300 6.7758555791e+00 1.1162676637e-03 1.7945337604e+00 -3.1082236488e+00 1.7945337604e+00 3.1082236488e+00 
42400 6.7758561479e+00 1.0440545889e-03 1.7945026586e+00 -3.1081697789e+00 1.7945026586e+00 3.1081697789e+00 
42500 6.7758567594e+00 9.7194857950e-04 1.7944735683e+00 -3.1081193931e+00 1.7944735683e+00 3.1081193931e+00 
42600 6.7758574089e+00 9.0005352116e-04 1.7944464866e+00 -3.1080724863e+00 1.7944464866e+00 3.1080724863e+00 
42700 6.7758580916e+00 8.2847045733e-04 1.7944214078e+00 -3.1080290485e+00 1.7944214078e+00 3.1080290485e+00 
42800 6.7758588030e+00 7.5729751101e-04 1.7943983233e+00 -3.1079890649e+00 1.7943983233e+00 3.1079890649e+00 
42900 6.7758595383e+00 6.8662981297e-04 1.7943772216e+00 -3.1079525157e+00 1.7943772216e+00 3.1079525157e+00 
43000 6.7758602930e+00 6.1655943622e-04 1.7943580888e+00 -3.1079193768e+00 1.7943580888e+00 3.1079193768e+00 
43100 6.7758610627e+00 5.4717533676e-04 1.7943409083e+00 -3.1078896193e+00 1.7943409083e+00 3.1078896193e+00 
43200 6.7758618431e+00 4.7856330050e-04 1.7943256611e+00 -3.1078632104e+00 1.7943256611e+00 3.1078632104e+00 
43300 6.7758626299e+00 4.1080589618e-04 1.7943123257e+00 -3.1078401127e+00 1.7943123257e+00 3.1078401127e+00 
43400 6.7758634190e+00 3.4398243431e-04 1.7943008782e+00 -3.1078202851e+00 1.7943008782e+00 3.1078202851e+00 
43500 6.7758642067e+00 2.7816893186e-04 1.7942912928e+00 -3.1078036827e+00 1.7942912928e+00 3.1078036827e+00 
43600 6.7758649891e+00 2.1343808279e-04 1.7942835413e+00 -3.1077902567e+00 1.7942835413e+00 3.1077902567e+00 
43700 6.7758657628e+00 1.4985923410e-04 1.7942775936e+00 -3.1077799550e+00 1.7942775936e+00 3.1077799550e+00 
43800 6.7758665245e+00 8.7498367357e-05 1.7942734176e+00 -3.1077727219e+00 1.7942734176e+00 3.1077727219e+00 
43900 6.7758672711e+00 2.6418085693e-05 1.7942709793e+00 -3.1077684987e+00 1.7942709793e+00 3.1077684987e+00 
44000 6.7758679997e+00 -3.2465296653e-05 1.7942709793e+00 -3.1077684987e+00 1.7942709793e+00 3.1077684987e+00 
44100 6.7758687078e+00 -9.1886009922e-05 1.7942709793e+00 -3.1077684987e+00 1.7942709793e+00 3.1077684987e+00 
44200 6.7758693930e+00 -1.4877687115e-04 1.7942735398e+00 -3.1077729337e+00 1.7942735398e+00 3.1077729337e+00 
44300 6.7758700530e+00 -2.0417080592e-04 1.7942776857e+00 -3.1077801146e+00 1.7942776857e+00 3.1077801146e+00 
44400 6.7758706861e+00 -2.5802211154e-04 1.7942833752e+00 -3.1077899691e+00 1.7942833752e+00 3.1077899691e+00 
44500 6.7758712905e+00 -3.1028843760e-04 1.7942905653e+00 -3.1078024227e+00 1.7942905653e+00 3.1078024227e+00 
44600 6.7758718647e+00 -3.6093076530e-04 1.7942992119e+00 -3.1078173990e+00 1.7942992119e+00 3.1078173990e+00 
44700 6.7758724077e+00 -4.0991338249e-04 1.7943092696e+00 -3.1078348195e+00 1.7943092696e+00 3.1078348195e+00 
44800 6.7758729183e+00 -4.5720385468e-04 1.7943206922e+00 -3.1078546040e+00 1.7943206922e+00 3.1078546040e+00 
44900 6.7758733960e+00 -5.0277299204e-04 1.7943334325e+00 -3.1078766709e+00 1.7943334325e+00 3.1078766709e+00 
45000 6.7758738401e+00 -5.4659481260e-04 1.7943474426e+00 -3.1079009370e+00 1.7943474426e+00 3.1079009370e+00 
45100 6.7758742503e+00 -5.8864650180e-04 1.7943626736e+00 -3.1079273179e+00 1.7943626736e+00 3.1079273179e+00 
45200 6.7758746266e+00 -6.2890836857e-04 1.7943790763e+00 -3.1079557282e+00 1.7943790763e+00 3.1079557282e+00 
45300 6.7758749690e+00 -6.6736379798e-04 1.7943966007e+00 -3.1079860814e+00 1.7943966007e+00 3.1079860814e+00 
45400 6.7758752777e+00 -7.0399920071e-04 1.7944151965e+00 -3.1080182903e+00 1.7944151965e+00 3.1080182903e+00 
45500 6.7758755533e+00 -7.3880395950e-04 1.7944348130e+00 -3.1080522669e+00 1.7944348130e+00 3.1080522669e+00 
45600 6.7758757962e+00 -7.7177037267e-04 1.7944553990e+00 -3.1080879230e+00 1.7944553990e+00 3.1080879230e+00 
45700 6.7758760074e+00 -8.0289359487e-04 1.7944769033e+00 -3.1081251696e+00 1.7944769033e+00 3.1081251696e+00 
45800 6.7758761876e+00 -8.3217157521e-04 1.7944992746e+00 -3.1081639178e+00 1.7944992746e+00 3.1081639178e+00 
45900 6.7758763380e+00 -8.5960499303e-04 1.7945224614e+00 -3.1082040785e+00 1.7945224614e+00 3.1082040785e+00 
46000 6.7758764595e+00 -8.8519719122e-04 1.7945464123e+00 -3.1082455626e+00 1.7945464123e+00 3.1082455626e+00 
46100 6.7758765535e+00 -9.0895410750e-04 1.7945710759e+00 -3.1082882812e+00 1.7945710759e+00 3.1082882812e+00 
46200 6.7758766214e+00 -9.3088420360e-04 1.7945964010e+00 -3.1083321457e+00 1.7945964010e+00 3.1083321457e+00 
46300 6.7758766645e+00 -9.5099839262e-04 1.7946223368e+00 -3.1083770678e+00 1.7946223368e+00 3.1083770678e+00 
46400 6.7758766842e+00 -9.6930996468e-04 1.7946488327e+00 -3.1084229600e+00 1.7946488327e+00 3.1084229600e+00 
46500 6.7758766823e+00 -9.8583451088e-04 1.7946758383e+00 -3.1084697351e+00 1.7946758383e+00 3.1084697351e+00 
46600 6.7758766602e+00 -1.0005898460e-03 1.7947033039e+00 -3.1085173069e+00 1.7947033039e+00 3.1085173069e+00 
46700 6.7758766195e+00 -1.0135959297e-03 1.7947311802e+00 -3.1085655900e+00 1.7947311802e+00 3.1085655900e+00 
46800 6.7758765619e+00 -1.0248747867e-03 1.7947594184e+00 -3.1086145000e+00 1.7947594184e+00 3.1086145000e+00 
46900 6.7758764891e+00 -1.0344504260e-03 1.7947879703e+00 -3.1086639534e+00 1.7947879703e+00 3.1086639534e+00 
47000 6.7758764027e+00 -1.0423487587e-03 1.7948167886e+00 -3.1087138681e+00 1.7948167886e+00 3.1087138681e+00 
47100 6.7758763044e+00 -1.0485975160e-03 1.7948458264e+00 -3.1087641631e+00 1.7948458264e+00 3.1087641631e+00 
47200 6.7758761957e+00 -1.0532261657e-03 1.7948750378e+00 -3.1088147587e+00 1.7948750378e+00 3.1088147587e+00 
47300 6.7758760784e+00 -1.0562658285e-03 1.7949043777e+00 -3.1088655769e+00 1.7949043777e+00 3.1088655769e+00 
47400 6.7758759539e+00 -1.0577491941e-03 1.7949338018e+00 -3.1089165410e+00 1.7949338018e+00 3.1089165410e+00 
47500 6.7758758238e+00 -1.0577104368e-03 1.7949632667e+00 -3.1089675757e+00 1.7949632667e+00 3.1089675757e+00 
47600 6.7758756896e+00 -1.0561851310e-03 1.7949927301e+00 -3.1090186078e+00 1.7949927301e+00 3.1090186078e+00 
47700 6.7758755527e+00 -1.0532101671e-03 1.7950221505e+00 -3.1090695654e+00 1.7950221505e+00 3.1090695654e+00 
47800 6.7758754145e+00 -1.0488236667e-03 1.7950514876e+00 -3.1091203787e+00 1.7950514876e+00 3.1091203787e+00 
47900 6.7758752762e+00 -1.0430648990e-03 1.7950807020e+00 -3.1091709795e+00 1.7950807020e+00 3.1091709795e+00 
48000 6.7758751393e+00 -1.0359741963e-03 1.7951097555e+00 -3.1092213016e+00 1.7951097555e+00 3.1092213016e+00 
48100 6.7758750047e+00 -1.0275928715e-03 1.7951386110e+00 -3.1092712809e+00 1.7951386110e+00 3.1092712809e+00 
48200 6.7758748736e+00 -1.0179631348e-03 1.7951672326e+00 -3.1093208550e+00 1.7951672326e+00 3.1093208550e+00 
48300 6.7758747471e+00 -1.0071280114e-03 1.7951955856e+00 -3.1093699637e+00 1.7951955856e+00 3.1093699637e+00 
48400 6.7758746259e+00 -9.9513126072e-04 1.7952236363e+00 -3.1094185490e+00 1.7952236363e+00 3.1094185490e+00 
48500 6.7758745111e+00 -9.8201729520e-04 1.7952513524e+00 -3.1094665548e+00 1.7952513524e+00 3.1094665548e+00 
48600 6.7758744034e+00 -9.6783110104e-04 1.7952787029e+00 -3.1095139272e+00 1.7952787029e+00 3.1095139272e+00 
48700 6.7758743034e+00 -9.5261815951e-04 1.7953056579e+00 -3.1095606146e+00 1.7953056579e+00 3.1095606146e+00 
48800 6.7758742117e+00 -9.3642436947e-04 1.7953321888e+00 -3.1096065674e+00 1.7953321888e+00 3.1096065674e+00 
48900 6.7758741290e+00 -9.1929597106e-04 1.7953582682e+00 -3.1096517384e+00 1.7953582682e+00 3.1096517384e+00 
49000 6.7758740555e+00 -9.0127947076e-04 1.7953838703e+00 -3.1096960825e+00 1.7953838703e+00 3.1096960825e+00 
49100 6.7758739918e+00 -8.8242156765e-04 1.7954089703e+00 -3.1097395569e+00 1.7954089703e+00 3.1097395569e+00 
49200 6.7758739380e+00 -8.6276908129e-04 1.7954335447e+00 -3.1097821211e+00 1.7954335447e+00 3.1097821211e+00 
49300 6.7758738943e+00 -8.4236888091e-04 1.7954575715e+00 -3.1098237368e+00 1.7954575715e+00 3.1098237368e+00 
49400 6.7758738610e+00 -8.2126781630e-04 1.7954810299e+00 -3.1098643679e+00 1.7954810299e+00 3.1098643679e+00 
49500 6.7758738381e+00 -7.9951265026e-04 1.7955039004e+00 -3.1099039807e+00 1.7955039004e+00 3.1099039807e+00 
49600 6.7758738255e+00 -7.7714999277e-04 1.7955261647e+00 -3.1099425436e+00 1.7955261647e+00 3.1099425436e+00 
49700 6.7758738232e+00 -7.5422623689e-04 1.7955478061e+00 -3.1099800275e+00 1.7955478061e+00 3.1099800275e+00 
49800 6.7758738311e+00 -7.3078749645e-04 1.7955688088e+00 -3.1100164053e+00 1.7955688088e+00 3.1100164053e+00 
49900 6.7758738490e+00 -7.0687954560e-04 1.7955891586e+00 -3.1100516522e+00 1.7955891586e+00 3.1100516522e+00 
50000 6.7758738766e+00 -6.8254776026e-04 1.7956088424e+00 -3.1100857455e+00 1.7956088424e+00 3.1100857455e+00 
50100 6.7758739137e+00 -6.5783706147e-04 1.7956278484e+00 -3.1101186650e+00 1.7956278484e+00 3.1101186650e+00 
50200 6.7758739599e+00 -6.3279186074e-04 1.7956461662e+00 -3.1101503923e+00 1.7956461662e+00 3.1101503923e+00 
50300 6.7758740149e+00 -6.0745600738e-04 1.7956637864e+00 -3.1101809114e+00 1.7956637864e+00 3.1101809114e+00 
50400 6.7758740782e+00 -5.8187273791e-04 1.7956807010e+00 -3.1102102083e+00 1.7956807010e+00 3.1102102083e+00 
50500 6.7758741494e+00 -5.5608462749e-04 1.7956969030e+00 -3.1102382710e+00 1.7956969030e+00 3.1102382710e+00 
50600 6.7758742281e+00 -5.3013354347e-04 1.7957123868e+00 -3.1102650898e+00 1.7957123868e+00 3.1102650898e+00 
50700 6.7758743137e+00 -5.0406060102e-04 1.7957271480e+00 -3.1102906568e+00 1.7957271480e+00 3.1102906568e+00 
50800 6.7758744058e+00 -4.7790612088e-04 1.7957411830e+00 -3.1103149662e+00 1.7957411830e+00 3.1103149662e+00 
50900 6.7758745037e+00 -4.5170958936e-04 1.7957544896e+00 -3.1103380140e+00 1.7957544896e+00 3.1103380140e+00 
51000 6.7758746070e+00 -4.2550962030e-04 1.7957670668e+00 -3.1103597983e+00 1.7957670668e+00 3.1103597983e+00 
51100 6.7758747152e+00 -3.9934391934e-04 1.7957789144e+00 -3.1103803189e+00 1.7957789144e+00 3.1103803189e+00 
51200 6.7758748275e+00 -3.7324925030e-04 1.7957900334e+00 -3.1103995775e+00 1.7957900334e+00 3.1103995775e+00 
51300 6.7758749436e+00 -3.4726140373e-04 1.7958004257e+00 -3.1104175776e+00 1.7958004257e+00 3.1104175776e+00 
51400 6.7758750628e+00 -3.2141516759e-04 1.7958100944e+00 -3.1104343243e+00 1.7958100944e+00 3.1104343243e+00 
51500 6.7758751847e+00 -2.9574430011e-04 1.7958190435e+00 -3.1104498245e+00 1.7958190435e+00 3.1104498245e+00 
51600 6.7758753085e+00 -2.7028150482e-04 1.7958272777e+00 -3.1104640866e+00 1.7958272777e+00 3.1104640866e+00 
51700 6.7758754339e+00 -2.4505840764e-04 1.7958348030e+00 -3.1104771208e+00 1.7958348030e+00 3.1104771208e+00 
51800 6.7758755603e+00 -2.2010553617e-04 1.7958416260e+00 -3.1104889385e+00 1.7958416260e+00 3.1104889385e+00 
51900 6.7758756872e+00 -1.9545230100e-04 1.7958477542e+00 -3.1104995529e+00 1.7958477542e+00 3.1104995529e+00 
52000 6.7758758142e+00 -1.7112697917e-04 1.7958531960e+00 -3.1105089783e+00 1.7958531960e+00 3.1105089783e+00 
52100 6.7758759406e+00 -1.4715669967e-04 1.7958579605e+00 -3.1105172307e+00 1.7958579605e+00 3.1105172307e+00 
52200 6.7758760662e+00 -1.2356743089e-04 1.7958620576e+00 -3.1105243271e+00 1.7958620576e+00 3.1105243271e+00 
52300 6.7758761906e+00 -1.0038397024e-04 1.7958654979e+00 -3.1105302860e+00 1.7958654979e+00 3.1105302860e+00 
52400 6.7758763132e+00 -7.7629935555e-05 1.7958682928e+00 -3.1105351268e+00 1.7958682928e+00 3.1105351268e+00 
52500 6.7758764337e+00 -5.5327758592e-05 1.7958704541e+00 -3.1105388704e+00 1.7958704541e+00 3.1105388704e+00 
52600 6.7758765519e+00 -3.5286864110e-05 1.7958704541e+00 -3.1105388704e+00 1.7958704541e+00 3.1105388704e+00 
52700 6.7758766672e+00 -1.5044564875e-05 1.7958704541e+00 -3.1105388704e+00 1.7958704541e+00 3.1105388704e+00 
52800 6.7758767795e+00 5.3683170580e-06 1.7958704541e+00 -3.1105388704e+00 1.7958704541e+00 3.1105388704e+00 
52900 6.7758768886e+00 2.5921615595e-05 1.7958704541e+00 -3.1105388704e+00 1.7958704541e+00 3.1105388704e+00 
53000 6.7758769942e+00 4.6585840288e-05 1.7958704541e+00 -3.1105388704e+00 1.7958704541e+00 3.1105388704e+00 
53100 6.7758770962e+00 6.7332194674e-05 1.7958704541e+00 -3.1105388704e+00 1.7958704541e+00 3.1105388704e+00 
53200 6.7758771946e+00 8.8132593267e-05 1.7958704541e+00 -3.1105388704e+00 1.7958704541e+00 3.1105388704e+00 
53300 6.7758772887e+00 1.0611088714e-04 1.7958680004e+00 -3.1105346203e+00 1.7958680004e+00 3.1105346203e+00 
53400 6.7758773788e+00 1.2349061370e-04 1.7958650461e+00 -3.1105295033e+00 1.7958650461e+00 3.1105295033e+00 
53500 6.7758774646e+00 1.4026108550e-04 1.7958616079e+00 -3.1105235482e+00 1.7958616079e+00 3.1105235482e+00 
53600 6.7758775461e+00 1.5641276015e-04 1.7958577028e+00 -3.1105167843e+00 1.7958577028e+00 3.1105167843e+00 
53700 6.7758776233e+00 1.7193722681e-04 1.7958533479e+00 -3.1105092416e+00 1.7958533479e+00 3.1105092416e+00 
53800 6.7758776962e+00 1.8682719123e-04 1.7958485609e+00 -3.1105009501e+00 1.7958485609e+00 3.1105009501e+00 
53900 6.7758777647e+00 2.0107645954e-04 1.7958433592e+00 -3.1104919406e+00 1.7958433592e+00 3.1104919406e+00 
54000 6.7758778290e+00 2.1467992083e-04 1.7958377609e+00 -3.1104822440e+00 1.7958377609e+00 3.1104822440e+00 
54100 6.7758778889e+00 2.2763352848e-04 1.7958317837e+00 -3.1104718912e+00 1.7958317837e+00 3.1104718912e+00 
54200 6.7758779447e+00 2.3993428043e-04 1.7958254459e+00 -3.1104609138e+00 1.7958254459e+00 3.1104609138e+00 
54300 6.7758779964e+00 2.5158019836e-04 1.7958187656e+00 -3.1104493431e+00 1.7958187656e+00 3.1104493431e+00 
54400 6.7758780441e+00 2.6257030584e-04 1.7958117609e+00 -3.1104372108e+00 1.7958117609e+00 3.1104372108e+00 
54500 6.7758780880e+00 2.7290460554e-04 1.7958044503e+00 -3.1104245484e+00 1.7958044503e+00 3.1104245484e+00 
54600 6.7758781281e+00 2.8258405555e-04 1.7957968519e+00 -3.1104113876e+00 1.7957968519e+00 3.1104113876e+00 
54700 6.7758781646e+00 2.9161054484e-04 1.7957889840e+00 -3.1103977600e+00 1.7957889840e+00 3.1103977600e+00 
54800 6.7758781977e+00 2.9998686792e-04 1.7957808647e+00 -3.1103836970e+00 1.7957808647e+00 3.1103836970e+00 
54900 6.7758782275e+00 3.0771669886e-04 1.7957725122e+00 -3.1103692299e+00 1.7957725122e+00 3.1103692299e+00 
55000 6.7758782542e+00 3.1480456453e-04 1.7957639444e+00 -3.1103543901e+00 1.7957639444e+00 3.1103543901e+00 
55100 6.7758782781e+00 3.2125581727e-04 1.7957551792e+00 -3.1103392083e+00 1.7957551792e+00 3.1103392083e+00 
55200 6.7758782992e+00 3.2707660702e-04 1.7957462343e+00 -3.1103237154e+00 1.7957462343e+00 3.1103237154e+00 
55300 6.7758783179e+00 3.3227385296e-04 1.7957371274e+00 -3.1103079416e+00 1.7957371274e+00 3.1103079416e+00 
55400 6.7758783342e+00 3.3685521460e-04 1.7957278756e+00 -3.1102919172e+00 1.7957278756e+00 3.1102919172e+00 
55500 6.7758783483e+00 3.4082906263e-04 1.7957184963e+00 -3.1102756717e+00 1.7957184963e+00 3.1102756717e+00 
55600 6.7758783606e+00 3.4420444931e-04 1.7957090062e+00 -3.1102592344e+00 1.7957090062e+00 3.1102592344e+00 
55700 6.7758783711e+00 3.4699107862e-04 1.7956994222e+00 -3.1102426343e+00 1.7956994222e+00 3.1102426343e+00 
55800 6.7758783801e+00 3.4919927615e-04 1.7956897605e+00 -3.1102258997e+00 1.7956897605e+00 3.1102258997e+00 
55900 6.7758783878e+00 3.5083995889e-04 1.7956800372e+00 -3.1102090586e+00 1.7956800372e+00 3.1102090586e+00 
56000 6.7758783943e+00 3.5192460472e-04 1.7956702682e+00 -3.1101921382e+00 1.7956702682e+00 3.1101921382e+00 
56100 6.7758783999e+00 3.5246522200e-04 1.7956604690e+00 -3.1101751654e+00 1.7956604690e+00 3.1101751654e+00 
56200 6.7758784047e+00 3.5247431899e-04 1.7956506546e+00 -3.1101581664e+00 1.7956506546e+00 3.1101581664e+00 
56300 6.7758784089e+00 3.5196487333e-04 1.7956408400e+00 -3.1101411670e+00 1.7956408400e+00 3.1101411670e+00 
56400 6.7758784126e+00 3.5095030159e-04 1.7956310394e+00 -3.1101241919e+00 1.7956310394e+00 3.1101241919e+00 
56500 6.7758784161e+00 3.4944442887e-04 1.7956212671e+00 -3.1101072658e+00 1.7956212671e+00 3.1101072658e+00 
56600 6.7758784194e+00 3.4746145860e-04 1.7956115366e+00 -3.1100904121e+00 1.7956115366e+00 3.1100904121e+00 
56700 6.7758784227e+00 3.4501594244e-04 1.7956018614e+00 -3.1100736540e+00 1.7956018614e+00 3.1100736540e+00 
56800 6.7758784262e+00 3.4212275052e-04 1.7955922541e+00 -3.1100570138e+00 1.7955922541e+00 3.1100570138e+00 
56900 6.7758784300e+00 3.3879704186e-04 1.7955827274e+00 -3.1100405130e+00 1.7955827274e+00 3.1100405130e+00 
57000 6.7758784341e+00 3.3505423507e-04 1.7955732932e+00 -3.1100241726e+00 1.7955732932e+00 3.1100241726e+00 
57100 6.7758784388e+00 3.3090997949e-04 1.7955639632e+00 -3.1100080125e+00 1.7955639632e+00 3.1100080125e+00 
57200 6.7758784440e+00 3.2638012659e-04 1.7955547486e+00 -3.1099920523e+00 1.7955547486e+00 3.1099920523e+00 
57300 6.7758784499e+00 3.2148070186e-04 1.7955456600e+00 -3.1099763105e+00 1.7955456600e+00 3.1099763105e+00 
57400 6.7758784565e+00 3.1622787704e-04 1.7955367079e+00 -3.1099608049e+00 1.7955367079e+00 3.1099608049e+00 
57500 6.7758784640e+00 3.1063794298e-04 1.7955279019e+00 -3.1099455525e+00 1.7955279019e+00 3.1099455525e+00 
57600 6.7758784723e+00 3.0472728279e-04 1.7955192516e+00 -3.1099305697e+00 1.7955192516e+00 3.1099305697e+00 
57700 6.7758784816e+00 2.9851234568e-04 1.7955107658e+00 -3.1099158720e+00 1.7955107658e+00 3.1099158720e+00 
57800 6.7758784918e+00 2.9200962125e-04 1.7955024531e+00 -3.1099014739e+00 1.7955024531e+00 3.1099014739e+00 
57900 6.7758785030e+00 2.8523561443e-04 1.7954943214e+00 -3.1098873894e+00 1.7954943214e+00 3.1098873894e+00 
58000 6.7758785152e+00 2.7820682094e-04 1.7954863783e+00 -3.1098736316e+00 1.7954863783e+00 3.1098736316e+00 
58100 6.7758785284e+00 2.7093970344e-04 1.7954786309e+00 -3.1098602127e+00 1.7954786309e+00 3.1098602127e+00 
58200 6.7758785426e+00 2.6345066824e-04 1.7954710859e+00 -3.1098471443e+00 1.7954710859e+00 3.1098471443e+00 
58300 6.7758785579e+00 2.5575604275e-04 1.7954637494e+00 -3.1098344370e+00 1.7954637494e+00 3.1098344370e+00 
58400 6.7758785741e+00 2.4787205355e-04 1.7954566271e+00 -3.1098221009e+00 1.7954566271e+00 3.1098221009e+00 
58500 6.7758785913e+00 2.3981480517e-04 1.7954497243e+00 -3.1098101450e+00 1.7954497243e+00 3.1098101450e+00 
58600 6.7758786095e+00 2.3160025955e-04 1.7954430459e+00 -3.1097985776e+00 1.7954430459e+00 3.1097985776e+00 
58700 6.7758786287e+00 2.2324421626e-04 1.7954365963e+00 -3.1097874065e+00 1.7954365963e+00 3.1097874065e+00 
58800 6.7758786487e+00 2.1476229339e-04 1.7954303793e+00 -3.1097766384e+00 1.7954303793e+00 3.1097766384e+00 
58900 6.7758786696e+00 2.0616990924e-04 1.7954243985e+00 -3.1097662793e+00 1.7954243985e+00 3.1097662793e+00 
59000 6.7758786913e+00 1.9748226469e-04 1.7954186569e+00 -3.1097563347e+00 1.7954186569e+00 3.1097563347e+00 
59100 6.7758787137e+00 1.8871432640e-04 1.7954131573e+00 -3.1097468091e+00 1.7954131573e+00 3.1097468091e+00 
59200 6.7758787369e+00 1.7988081070e-04 1.7954079019e+00 -3.1097377064e+00 1.7954079019e+00 3.1097377064e+00 
59300 6.7758787607e+00 1.7099616826e-04 1.7954028924e+00 -3.1097290297e+00 1.7954028924e+00 3.1097290297e+00 
59400 6.7758787851e+00 1.6207456957e-04 1.7953981304e+00 -3.1097207816e+00 1.7953981304e+00 3.1097207816e+00 
59500 6.7758788101e+00 1.5312989115e-04 1.7953936167e+00 -3.1097129638e+00 1.7953936167e+00 3.1097129638e+00 
59600 6.7758788355e+00 1.4417570250e-04 1.7953893522e+00 -3.1097055774e+00 1.7953893522e+00 3.1097055774e+00 
59700 6.7758788613e+00 1.3522525394e-04 1.7953853371e+00 -3.1096986230e+00 1.7953853371e+00 3.1096986230e+00 
59800 6.7758788875e+00 1.2629146504e-04 1.7953815711e+00 -3.1096921002e+00 1.7953815711e+00 3.1096921002e+00 
59900 6.7758789139e+00 1.1738691400e-04 1.7953780540e+00 -3.1096860084e+00 1.7953780540e+00 3.1096860084e+00 
60000 6.7758789406e+00 1.0852382767e-04 1.7953747849e+00 -3.1096803461e+00 1.7953747849e+00 3.1096803461e+00 
60100 6.7758789674e+00 9.9714072354e-05 1.7953717626e+00 -3.1096751113e+00 1.7953717626e+00 3.1096751113e+00 
60200 6.7758789944e+00 9.0969145406e-05 1.7953689856e+00 -3.1096703014e+00 1.7953689856e+00 3.1096703014e+00 
60300 6.7758790214e+00 8.2300167546e-05 1.7953664522e+00 -3.1096659133e+00 1.7953664522e+00 3.1096659133e+00 
60400 6.7758790483e+00 7.3717875905e-05 1.7953641601e+00 -3.1096619435e+00 1.7953641601e+00 3.1096619435e+00 
60500 6.7758790752e+00 6.5232617811e-05 1.7953621071e+00 -3.1096583875e+00 1.7953621071e+00 3.1096583875e+00 
60600 6.7758791020e+00 5.8965505324e-05 1.7953621071e+00 -3.1096583875e+00 1.7953621071e+00 3.1096583875e+00 
60700 6.7758791286e+00 5.2556629828e-05 1.7953621071e+00 -3.1096583875e+00 1.7953621071e+00 3.1096583875e+00 
60800 6.7758791549e+00 4.6017695853e-05 1.7953621071e+00 -3.1096583875e+00 1.7953621071e+00 3.1096583875e+00 
60900 6.7758791809e+00 3.9360237994e-05 1.7953621071e+00 -3.1096583875e+00 1.7953621071e+00 3.1096583875e+00 
61000 6.7758792065e+00 3.2595611244e-05 1.7953621071e+00 -3.1096583875e+00 1.7953621071e+00 3.1096583875e+00 
61100 6.7758792318e+00 2.5734981819e-05 1.7953621071e+00 -3.1096583875e+00 1.7953621071e+00 3.1096583875e+00 
61200 6.7758792566e+00 1.8789318450e-05 1.7953621071e+00 -3.1096583875e+00 1.7953621071e+00 3.1096583875e+00 
61300 6.7758792809e+00 1.1769384138e-05 1.7953621071e+00 -3.1096583875e+00 1.7953621071e+00 3.1096583875e+00 
61400 6.7758793047e+00 4.6857283925e-06 1.7953621071e+00 -3.1096583875e+00 1.7953621071e+00 3.1096583875e+00 
61500 6.7758793281e+00 -2.4513200503e-06 1.7953621071e+00 -3.1096583875e+00 1.7953621071e+00 3.1096583875e+00 
61600 6.7758793509e+00 -9.6316600687e-06 1.7953621071e+00 -3.1096583875e+00 1.7953621071e+00 3.1096583875e+00 
61700 6.7758793732e+00 -1.6845424495e-05 1.7953621071e+00 -3.1096583875e+00 1.7953621071e+00 3.1096583875e+00 
61800 6.7758793949e+00 -2.4082986029e-05 1.7953621071e+00 -3.1096583875e+00 1.7953621071e+00 3.1096583875e+00 
61900 6.7758794161e+00 -3.1334962666e-05 1.7953621071e+00 -3.1096583875e+00 1.7953621071e+00 3.1096583875e+00 
62000 6.7758794367e+00 -3.8592222685e-05 1.7953621071e+00 -3.1096583875e+00 1.7953621071e+00 3.1096583875e+00 
62100 6.7758794568e+00 -4.5845889191e-05 1.7953621071e+00 -3.1096583875e+00 1.7953621071e+00 3.1096583875e+00 
62200 6.7758794762e+00 -5.3087344199e-05 1.7953621071e+00 -3.1096583875e+00 1.7953621071e+00 3.1096583875e+00 
62300 6.7758794951e+00 -6.0308232303e-05 1.7953621071e+00 -3.1096583875e+00 1.7953621071e+00 3.1096583875e+00 
62400 6.7758795134e+00 -6.7500463899e-05 1.7953621071e+00 -3.1096583875e+00 1.7953621071e+00 3.1096583875e+00 
62500 6.7758795312e+00 -7.4656217985e-05 1.7953621071e+00 -3.1096583875e+00 1.7953621071e+00 3.1096583875e+00 
62600 6.7758795481e+00 -7.9352079507e-05 1.7953641863e+00 -3.1096619887e+00 1.7953641863e+00 3.1096619887e+00 
62700 6.7758795645e+00 -8.3829990215e-05 1.7953663962e+00 -3.1096658164e+00 1.7953663962e+00 3.1096658164e+00 
62800 6.7758795803e+00 -8.8088579099e-05 1.7953687308e+00 -3.1096698601e+00 1.7953687308e+00 3.1096698601e+00 
62900 6.7758795955e+00 -9.2126836215e-05 1.7953711840e+00 -3.1096741092e+00 1.7953711840e+00 3.1096741092e+00 
63000 6.7758796101e+00 -9.5944104970e-05 1.7953737497e+00 -3.1096785531e+00 1.7953737497e+00 3.1096785531e+00 
63100 6.7758796241e+00 -9.9540074063e-05 1.7953764217e+00 -3.1096831811e+00 1.7953764217e+00 3.1096831811e+00 
63200 6.7758796376e+00 -1.0291476916e-04 1.7953791938e+00 -3.1096879825e+00 1.7953791938e+00 3.1096879825e+00 
63300 6.7758796506e+00 -1.0606854428e-04 1.7953820599e+00 -3.1096929468e+00 1.7953820599e+00 3.1096929468e+00 
63400 6.7758796631e+00 -1.0900207292e-04 1.7953850138e+00 -3.1096980631e+00 1.7953850138e+00 3.1096980631e+00 
63500 6.7758796751e+00 -1.1171633899e-04 1.7953880495e+00 -3.1097033210e+00 1.7953880495e+00 3.1097033210e+00 
63600 6.7758796866e+00 -1.1421262746e-04 1.7953911607e+00 -3.1097087097e+00 1.7953911607e+00 3.1097087097e+00 
63700 6.7758796977e+00 -1.1649251485e-04 1.7953943414e+00 -3.1097142189e+00 1.7953943414e+00 3.1097142189e+00 
63800 6.7758797083e+00 -1.1855785956e-04 1.7953975856e+00 -3.1097198380e+00 1.7953975856e+00 3.1097198380e+00 
63900 6.7758797186e+00 -1.2041079199e-04 1.7954008873e+00 -3.1097255568e+00 1.7954008873e+00 3.1097255568e+00 
64000 6.7758797285e+00 -1.2205370456e-04 1.7954042406e+00 -3.1097313649e+00 1.7954042406e+00 3.1097313649e+00 
64100 6.7758797381e+00 -1.2348924152e-04 1.7954076397e+00 -3.1097372522e+00 1.7954076397e+00 3.1097372522e+00 
64200 6.7758797473e+00 -1.2472028880e-04 1.7954110787e+00 -3.1097432088e+00 1.7954110787e+00 3.1097432088e+00 
64300 6.7758797563e+00 -1.2574996361e-04 1.7954145520e+00 -3.1097492248e+00 1.7954145520e+00 3.1097492248e+00 
64400 6.7758797650e+00 -1.2658160406e-04 1.7954180540e+00 -3.1097552904e+00 1.7954180540e+00 3.1097552904e+00 
64500 6.7758797734e+00 -1.2721875868e-04 1.7954215791e+00 -3.1097613961e+00 1.7954215791e+00 3.1097613961e+00 
64600 6.7758797816e+00 -1.2766517595e-04 1.7954251220e+00 -3.1097675325e+00 1.7954251220e+00 3.1097675325e+00 
64700 6.7758797896e+00 -1.2792479372e-04 1.7954286773e+00 -3.1097736904e+00 1.7954286773e+00 3.1097736904e+00 
64800 6.7758797975e+00 -1.2800172867e-04 1.7954322398e+00 -3.1097798609e+00 1.7954322398e+00 3.1097798609e+00 
64900 6.7758798051e+00 -1.2790026581e-04 1.7954358045e+00 -3.1097860350e+00 1.7954358045e+00 3.1097860350e+00 
65000 6.7758798127e+00 -1.2762484792e-04 1.7954393663e+00 -3.1097922043e+00 1.7954393663e+00 3.1097922043e+00 
65100 6.7758798201e+00 -1.2718006505e-04 1.7954429204e+00 -3.1097983602e+00 1.7954429204e+00 3.1097983602e+00 
65200 6.7758798274e+00 -1.2657064412e-04 1.7954464622e+00 -3.1098044947e+00 1.7954464622e+00 3.1098044947e+00 
65300 6.7758798346e+00 -1.2580143854e-04 1.7954499869e+00 -3.1098105998e+00 1.7954499869e+00 3.1098105998e+00 
65400 6.7758798418e+00 -1.2487741786e-04 1.7954534903e+00 -3.1098166678e+00 1.7954534903e+00 3.1098166678e+00 
65500 6.7758798489e+00 -1.2380365761e-04 1.7954569679e+00 -3.1098226912e+00 1.7954569679e+00 3.1098226912e+00 
65600 6.7758798560e+00 -1.2258532914e-04 1.7954604156e+00 -3.1098286627e+00 1.7954604156e+00 3.1098286627e+00 
65700 6.7758798631e+00 -1.2122768965e-04 1.7954638293e+00 -3.1098345755e+00 1.7954638293e+00 3.1098345755e+00 
65800 6.7758798702e+00 -1.1973607231e-04 1.7954672053e+00 -3.1098404229e+00 1.7954672053e+00 3.1098404229e+00 
65900 6.7758798772e+00 -1.1811587650e-04 1.7954705397e+00 -3.1098461982e+00 1.7954705397e+00 3.1098461982e+00 
66000 6.7758798843e+00 -1.1637255822e-04 1.7954738289e+00 -3.1098518954e+00 1.7954738289e+00 3.1098518954e+00 
66100 6.7758798914e+00 -1.1451162065e-04 1.7954770697e+00 -3.1098575085e+00 1.7954770697e+00 3.1098575085e+00 
66200 6.7758798986e+00 -1.1253860489e-04 1.7954802586e+00 -3.1098630318e+00 1.7954802586e+00 3.1098630318e+00 
66300 6.7758799058e+00 -1.1045908084e-04 1.7954833925e+00 -3.1098684600e+00 1.7954833925e+00 3.1098684600e+00 
66400 6.7758799130e+00 -1.0827863829e-04 1.7954864685e+00 -3.1098737878e+00 1.7954864685e+00 3.1098737878e+00 
66500 6.7758799202e+00 -1.0600287822e-04 1.7954894838e+00 -3.1098790104e+00 1.7954894838e+00 3.1098790104e+00 
66600 6.7758799275e+00 -1.0363740423e-04 1.7954924358e+00 -3.1098841233e+00 1.7954924358e+00 3.1098841233e+00 
66700 6.7758799349e+00 -1.0118781429e-04 1.7954953218e+00 -3.1098891221e+00 1.7954953218e+00 3.1098891221e+00 
66800 6.7758799423e+00 -9.8659692556e-05 1.7954981396e+00 -3.1098940027e+00 1.7954981396e+00 3.1098940027e+00 
66900 6.7758799498e+00 -9.6058601591e-05 1.7955008870e+00 -3.1098987614e+00 1.7955008870e+00 3.1098987614e+00 
67000 6.7758799573e+00 -9.3390074635e-05 1.7955035620e+00 -3.1099033946e+00 1.7955035620e+00 3.1099033946e+00 
67100 6.7758799649e+00 -9.0659608213e-05 1.7955061627e+00 -3.1099078991e+00 1.7955061627e+00 3.1099078991e+00 
67200 6.7758799725e+00 -8.7872654958e-05 1.7955086873e+00 -3.1099122719e+00 1.7955086873e+00 3.1099122719e+00 
67300 6.7758799802e+00 -8.5034616667e-05 1.7955111343e+00 -3.1099165102e+00 1.7955111343e+00 3.1099165102e+00 
67400 6.7758799879e+00 -8.2150837612e-05 1.7955135023e+00 -3.1099206117e+00 1.7955135023e+00 3.1099206117e+00 
67500 6.7758799957e+00 -7.9226598082e-05 1.7955157900e+00 -3.1099245740e+00 1.7955157900e+00 3.1099245740e+00 
67600 6.7758800034e+00 -7.6267108223e-05 1.7955179962e+00 -3.1099283953e+00 1.7955179962e+00 3.1099283953e+00 
67700 6.7758800113e+00 -7.3277502070e-05 1.7955201200e+00 -3.1099320739e+00 1.7955201200e+00 3.1099320739e+00 
67800 6.7758800191e+00 -7.0262831893e-05 1.7955221606e+00 -3.1099356083e+00 1.7955221606e+00 3.1099356083e+00 
67900 6.7758800271e+00 -6.9500902844e-05 1.7955221606e+00 -3.1099356083e+00 1.7955221606e+00 3.1099356083e+00 
68000 6.7758800351e+00 -6.8639432479e-05 1.7955221606e+00 -3.1099356083e+00 1.7955221606e+00 3.1099356083e+00 
68100 6.7758800431e+00 -6.7682576072e-05 1.7955221606e+00 -3.1099356083e+00 1.7955221606e+00 3.1099356083e+00 
68200 6.7758800511e+00 -6.6634490240e-05 1.7955221606e+00 -3.1099356083e+00 1.7955221606e+00 3.1099356083e+00 
68300 6.7758800590e+00 -6.5499327733e-05 1.7955221606e+00 -3.1099356083e+00 1.7955221606e+00 3.1099356083e+00 
68400 6.7758800670e+00 -6.4281232359e-05 1.7955221606e+00 -3.1099356083e+00 1.7955221606e+00 3.1099356083e+00 
68500 6.7758800748e+00 -6.2984334043e-05 1.7955221606e+00 -3.1099356083e+00 1.7955221606e+00 3.1099356083e+00 
68600 6.7758800827e+00 -6.1612744039e-05 1.7955221606e+00 -3.1099356083e+00 1.7955221606e+00 3.1099356083e+00 
68700 6.7758800904e+00 -6.0170550271e-05 1.7955221606e+00 -3.1099356083e+00 1.7955221606e+00 3.1099356083e+00 
68800 6.7758800982e+00 -5.8661812844e-05 1.7955221606e+00 -3.1099356083e+00 1.7955221606e+00 3.1099356083e+00 
68900 6.7758801058e+00 -5.7090559694e-05 1.7955221606e+00 -3.1099356083e+00 1.7955221606e+00 3.1099356083e+00 
69000 6.7758801134e+00 -5.5460782381e-05 1.7955221606e+00 -3.1099356083e+00 1.7955221606e+00 3.1099356083e+00 
69100 6.7758801210e+00 -5.3776432063e-05 1.7955221606e+00 -3.1099356083e+00 1.7955221606e+00 3.1099356083e+00 
69200 6.7758801284e+00 -5.2041415598e-05 1.7955221606e+00 -3.1099356083e+00 1.7955221606e+00 3.1099356083e+00 
69300 6.7758801358e+00 -5.0259591818e-05 1.7955221606e+00 -3.1099356083e+00 1.7955221606e+00 3.1099356083e+00 
69400 6.7758801430e+00 -4.8434767968e-05 1.7955221606e+00 -3.1099356083e+00 1.7955221606e+00 3.1099356083e+00 
69500 6.7758801502e+00 -4.6570696280e-05 1.7955221606e+00 -3.1099356083e+00 1.7955221606e+00 3.1099356083e+00 
69600 6.7758801573e+00 -4.4671070733e-05 1.7955221606e+00 -3.1099356083e+00 1.7955221606e+00 3.1099356083e+00 
69700 6.7758801643e+00 -4.2739523954e-05 1.7955221606e+00 -3.1099356083e+00 1.7955221606e+00 3.1099356083e+00 
69800 6.7758801712e+00 -4.0779624294e-05 1.7955221606e+00 -3.1099356083e+00 1.7955221606e+00 3.1099356083e+00 
69900 6.7758801780e+00 -3.8794873046e-05 1.7955221606e+00 -3.1099356083e+00 1.7955221606e+00 3.1099356083e+00 
70000 6.7758801847e+00 -3.6788701842e-05 1.7955221606e+00 -3.1099356083e+00 1.7955221606e+00 3.1099356083e+00 
70100 6.7758801913e+00 -3.4764470189e-05 1.7955221606e+00 -3.1099356083e+00 1.7955221606e+00 3.1099356083e+00 
70200 6.7758801977e+00 -3.2725463179e-05 1.7955221606e+00 -3.1099356083e+00 1.7955221606e+00 3.1099356083e+00 
70300 6.7758802041e+00 -3.0674889346e-05 1.7955221606e+00 -3.1099356083e+00 1.7955221606e+00 3.1099356083e+00 
70400 6.7758802104e+00 -2.8615878685e-05 1.7955221606e+00 -3.1099356083e+00 1.7955221606e+00 3.1099356083e+00 
70500 6.7758802165e+00 -2.6551480818e-05 1.7955221606e+00 -3.1099356083e+00 1.7955221606e+00 3.1099356083e+00 
70600 6.7758802226e+00 -2.4484663320e-05 1.7955221606e+00 -3.1099356083e+00 1.7955221606e+00 3.1099356083e+00 
70700 6.7758802285e+00 -2.2418310188e-05 1.7955221606e+00 -3.1099356083e+00 1.7955221606e+00 3.1099356083e+00 
70800 6.7758802343e+00 -2.0355220476e-05 1.7955221606e+00 -3.1099356083e+00 1.7955221606e+00 3.1099356083e+00 
70900 6.7758802400e+00 -1.8298107043e-05 1.7955221606e+00 -3.1099356083e+00 1.7955221606e+00 3.1099356083e+00 
71000 6.7758802457e+00 -1.6249595492e-05 1.7955221606e+00 -3.1099356083e+00 1.7955221606e+00 3.1099356083e+00 
71100 6.7758802512e+00 -1.4212223209e-05 1.7955221606e+00 -3.1099356083e+00 1.7955221606e+00 3.1099356083e+00 
71200 6.7758802566e+00 -1.2188438566e-05 1.7955221606e+00 -3.1099356083e+00 1.7955221606e+00 3.1099356083e+00 
71300 6.7758802619e+00 -1.0180600254e-05 1.7955221606e+00 -3.1099356083e+00 1.7955221606e+00 3.1099356083e+00 
71400 6.7758802670e+00 -8.1909767583e-06 1.7955221606e+00 -3.1099356083e+00 1.7955221606e+00 3.1099356083e+00 
71500 6.7758802721e+00 -6.2217459457e-06 1.7955221606e+00 -3.1099356083e+00 1.7955221606e+00 3.1099356083e+00 
71600 6.7758802771e+00 -4.2749948070e-06 1.7955221606e+00 -3.1099356083e+00 1.7955221606e+00 3.1099356083e+00 
71700 6.7758802820e+00 -2.3527193044e-06 1.7955221606e+00 -3.1099356083e+00 1.7955221606e+00 3.1099356083e+00 
71800 6.7758802869e+00 -4.5682435042e-07 1.7955221606e+00 -3.1099356083e+00 1.7955221606e+00 3.1099356083e+00 
71900 6.7758802916e+00 1.4108760959e-06 1.7955221606e+00 -3.1099356083e+00 1.7955221606e+00 3.1099356083e+00 
72000 6.7758802962e+00 3.2486588100e-06 1.7955221606e+00 -3.1099356083e+00 1.7955221606e+00 3.1099356083e+00 
72100 6.7758803008e+00 5.0548909815e-06 1.7955221606e+00 -3.1099356083e+00 1.7955221606e+00 3.1099356083e+00 
72200 6.7758803052e+00 6.8280297783e-06 1.7955221606e+00 -3.1099356083e+00 1.7955221606e+00 3.1099356083e+00 
72300 6.7758803096e+00 8.5666218066e-06 1.7955221606e+00 -3.1099356083e+00 1.7955221606e+00 3.1099356083e+00 
72400 6.7758803139e+00 1.0269302461e-05 1.7955221606e+00 -3.1099356083e+00 1.7955221606e+00 3.1099356083e+00 
72500 6.7758803181e+00 1.1934795188e-05 1.7955221606e+00 -3.1099356083e+00 1.7955221606e+00 3.1099356083e+00 
72600 6.7758803223e+00 1.3561910655e-05 1.7955221606e+00 -3.1099356083e+00 1.7955221606e+00 3.1099356083e+00 
72700 6.7758803264e+00 1.5149545807e-05 1.7955221606e+00 -3.1099356083e+00 1.7955221606e+00 3.1099356083e+00 
72800 6.7758803304e+00 1.6696682865e-05 1.7955221606e+00 -3.1099356083e+00 1.7955221606e+00 3.1099356083e+00 
72900 6.7758803344e+00 1.8202388216e-05 1.7955221606e+00 -3.1099356083e+00 1.7955221606e+00 3.1099356083e+00 
73000 6.7758803383e+00 1.9665811242e-05 1.7955221606e+00 -3.1099356083e+00 1.7955221606e+00 3.1099356083e+00 
73100 6.7758803421e+00 2.1086183049e-05 1.7955221606e+00 -3.1099356083e+00 1.7955221606e+00 3.1099356083e+00 
73200 6.7758803459e+00 2.2462815154e-05 1.7955221606e+00 -3.1099356083e+00 1.7955221606e+00 3.1099356083e+00 
73300 6.7758803496e+00 2.3795098077e-05 1.7955221606e+00 -3.1099356083e+00 1.7955221606e+00 3.1099356083e+00 
73400 6.7758803533e+00 2.5082499880e-05 1.7955221606e+00 -3.1099356083e+00 1.7955221606e+00 3.1099356083e+00 
73500 6.7758803569e+00 2.6324564640e-05 1.7955221606e+00 -3.1099356083e+00 1.7955221606e+00 3.1099356083e+00 
73600 6.7758803605e+00 2.7520910869e-05 1.7955221606e+00 -3.1099356083e+00 1.7955221606e+00 3.1099356083e+00 
73700 6.7758803640e+00 2.8671229874e-05 1.7955221606e+00 -3.1099356083e+00 1.7955221606e+00 3.1099356083e+00 
73800 6.7758803675e+00 2.9775284067e-05 1.7955221606e+00 -3.1099356083e+00 1.7955221606e+00 3.1099356083e+00 
73900 6.7758803710e+00 3.0832905239e-05 1.7955221606e+00 -3.1099356083e+00 1.7955221606e+00 3.1099356083e+00 
74000 6.7758803744e+00 3.1843992772e-05 1.7955221606e+00 -3.1099356083e+00 1.7955221606e+00 3.1099356083e+00 
74100 6.7758803778e+00 3.2808511826e-05 1.7955221606e+00 -3.1099356083e+00 1.7955221606e+00 3.1099356083e+00 
74200 6.7758803811e+00 3.3726491485e-05 1.7955221606e+00 -3.1099356083e+00 1.7955221606e+00 3.1099356083e+00 
74300 6.7758803844e+00 3.4598022870e-05 1.7955221606e+00 -3.1099356083e+00 1.7955221606e+00 3.1099356083e+00 
74400 6.7758803877e+00 3.5423257227e-05 1.7955221606e+00 -3.1099356083e+00 1.7955221606e+00 3.1099356083e+00 
74500 6.7758803909e+00 3.6202403973e-05 1.7955221606e+00 -3.1099356083e+00 1.7955221606e+00 3.1099356083e+00 
74600 6.7758803941e+00 3.6935728749e-05 1.7955221606e+00 -3.1099356083e+00 1.7955221606e+00 3.1099356083e+00 
74700 6.7758803973e+00 3.7623551421e-05 1.7955221606e+00 -3.1099356083e+00 1.7955221606e+00 3.1099356083e+00 
74800 6.7758804005e+00 3.8266244090e-05 1.7955221606e+00 -3.1099356083e+00 1.7955221606e+00 3.1099356083e+00 
74900 6.7758804036e+00 3.8864229065e-05 1.7955221606e+00 -3.1099356083e+00 1.7955221606e+00 3.1099356083e+00 
75000 6.7758804067e+00 3.9417976861e-05 1.7955221606e+00 -3.1099356083e+00 1.7955221606e+00 3.1099356083e+00 
75100 6.7758804098e+00 3.9928004149e-05 1.7955221606e+00 -3.1099356083e+00 1.7955221606e+00 3.1099356083e+00 
75200 6.7758804128e+00 4.0394871734e-05 1.7955221606e+00 -3.1099356083e+00 1.7955221606e+00 3.1099356083e+00 
75300 6.7758804158e+00 4.0819182513e-05 1.7955221606e+00 -3.1099356083e+00 1.7955221606e+00 3.1099356083e+00 
75400 6.7758804188e+00 4.1201579443e-05 1.7955221606e+00 -3.1099356083e+00 1.7955221606e+00 3.1099356083e+00 
75500 6.7758804218e+00 4.1542743506e-05 1.7955221606e+00 -3.1099356083e+00 1.7955221606e+00 3.1099356083e+00 
75600 6.7758804247e+00 4.1843391698e-05 1.7955221606e+00 -3.1099356083e+00 1.7955221606e+00 3.1099356083e+00 
75700 6.7758804277e+00 4.2104275003e-05 1.7955221606e+00 -3.1099356083e+00 1.7955221606e+00 3.1099356083e+00 
75800 6.7758804306e+00 4.2326176395e-05 1.7955221606e+00 -3.1099356083e+00 1.7955221606e+00 3.1099356083e+00 
75900 6.7758804334e+00 4.2509908849e-05 1.7955221606e+00 -3.1099356083e+00 1.7955221606e+00 3.1099356083e+00 
76000 6.7758804363e+00 4.2656313374e-05 1.7955221606e+00 -3.1099356083e+00 1.7955221606e+00 3.1099356083e+00 
76100 6.7758804391e+00 4.2766257052e-05 1.7955221606e+00 -3.1099356083e+00 1.7955221606e+00 3.1099356083e+00 
76200 6.7758804419e+00 4.2840631113e-05 1.7955221606e+00 -3.1099356083e+00 1.7955221606e+00 3.1099356083e+00 
76300 6.7758804447e+00 4.2880349020e-05 1.7955221606e+00 -3.1099356083e+00 1.7955221606e+00 3.1099356083e+00 
76400 6.7758804475e+00 4.2886344584e-05 1.7955221606e+00 -3.1099356083e+00 1.7955221606e+00 3.1099356083e+00 
76500 6.7758804502e+00 4.2859570112e-05 1.7955221606e+00 -3.1099356083e+00 1.7955221606e+00 3.1099356083e+00 
76600 6.7758804529e+00 4.2800994569e-05 1.7955221606e+00 -3.1099356083e+00 1.7955221606e+00 3.1099356083e+00 
76700 6.7758804556e+00 4.2711601782e-05 1.7955221606e+00 -3.1099356083e+00 1.7955221606e+00 3.1099356083e+00 
76800 6.7758804583e+00 4.2592388667e-05 1.7955221606e+00 -3.1099356083e+00 1.7955221606e+00 3.1099356083e+00 
76900 6.7758804609e+00 4.2444363500e-05 1.7955221606e+00 -3.1099356083e+00 1.7955221606e+00 3.1099356083e+00 
77000 6.7758804636e+00 4.2268544206e-05 1.7955221606e+00 -3.1099356083e+00 1.7955221606e+00 3.1099356083e+00 
77100 6.7758804662e+00 4.2065956703e-05 1.7955221606e+00 -3.1099356083e+00 1.7955221606e+00 3.1099356083e+00 
77200 6.7758804687e+00 4.1837633266e-05 1.7955221606e+00 -3.1099356083e+00 1.7955221606e+00 3.1099356083e+00 
77300 6.7758804713e+00 4.1584610943e-05 1.7955221606e+00 -3.1099356083e+00 1.7955221606e+00 3.1099356083e+00 
77400 6.7758804738e+00 4.1307929998e-05 1.7955221606e+00 -3.1099356083e+00 1.7955221606e+00 3.1099356083e+00 
77500 6.7758804763e+00 4.1008632405e-05 1.7955221606e+00 -3.1099356083e+00 1.7955221606e+00 3.1099356083e+00 
77600 6.7758804788e+00 4.0687760367e-05 1.7955221606e+00 -3.1099356083e+00 1.7955221606e+00 3.1099356083e+00 
77700 6.7758804812e+00 4.0346354906e-05 1.7955221606e+00 -3.1099356083e+00 1.7955221606e+00 3.1099356083e+00 
77800 6.7758804836e+00 3.9985454460e-05 1.7955221606e+00 -3.1099356083e+00 1.7955221606e+00 3.1099356083e+00 
77900 6.7758804860e+00 3.9606093555e-05 1.7955221606e+00 -3.1099356083e+00 1.7955221606e+00 3.1099356083e+00 
78000 6.7758804884e+00 3.9209301499e-05 1.7955221606e+00 -3.1099356083e+00 1.7955221606e+00 3.1099356083e+00 
78100 6.7758804907e+00 3.8796101125e-05 1.7955221606e+00 -3.1099356083e+00 1.7955221606e+00 3.1099356083e+00 
78200 6.7758804931e+00 3.8367507602e-05 1.7955221606e+00 -3.1099356083e+00 1.7955221606e+00 3.1099356083e+00 
78300 6.7758804953e+00 3.7924527243e-05 1.7955221606e+00 -3.1099356083e+00 1.7955221606e+00 3.1099356083e+00 
78400 6.7758804976e+00 3.7468156410e-05 1.7955221606e+00 -3.1099356083e+00 1.7955221606e+00 3.1099356083e+00 
78500 6.7758804998e+00 3.6999380433e-05 1.7955221606e+00 -3.1099356083e+00 1.7955221606e+00 3.1099356083e+00 
78600 6.7758805021e+00 3.6519172583e-05 1.7955221606e+00 -3.1099356083e+00 1.7955221606e+00 3.1099356083e+00 
78700 6.7758805042e+00 3.6028493099e-05 1.7955221606e+00 -3.1099356083e+00 1.7955221606e+00 3.1099356083e+00 
78800 6.7758805064e+00 3.5528288246e-05 1.7955221606e+00 -3.1099356083e+00 1.7955221606e+00 3.1099356083e+00 
78900 6.7758805085e+00 3.5019489430e-05 1.7955221606e+00 -3.1099356083e+00 1.7955221606e+00 3.1099356083e+00 
79000 6.7758805106e+00 3.4503012364e-05 1.7955221606e+00 -3.1099356083e+00 1.7955221606e+00 3.1099356083e+00 
79100 6.7758805127e+00 3.3979756254e-05 1.7955221606e+00 -3.1099356083e+00 1.7955221606e+00 3.1099356083e+00 
79200 6.7758805148e+00 3.3450603070e-05 1.7955221606e+00 -3.1099356083e+00 1.7955221606e+00 3.1099356083e+00 
79300 6.7758805168e+00 3.2916416819e-05 1.7955221606e+00 -3.1099356083e+00 1.7955221606e+00 3.1099356083e+00 
79400 6.7758805188e+00 3.2378042905e-05 1.7955221606e+00 -3.1099356083e+00 1.7955221606e+00 3.1099356083e+00 
79500 6.7758805208e+00 3.1836307498e-05 1.7955221606e+00 -3.1099356083e+00 1.7955221606e+00 3.1099356083e+00 
79600 6.7758805227e+00 3.1292016973e-05 1.7955221606e+00 -3.1099356083e+00 1.7955221606e+00 3.1099356083e+00 
79700 6.7758805247e+00 3.0745957373e-05 1.7955221606e+00 -3.1099356083e+00 1.7955221606e+00 3.1099356083e+00 
79800 6.7758805266e+00 3.0198893928e-05 1.7955221606e+00 -3.1099356083e+00 1.7955221606e+00 3.1099356083e+00 
79900 6.7758805284e+00 2.9651570618e-05 1.7955221606e+00 -3.1099356083e+00 1.7955221606e+00 3.1099356083e+00 
80000 6.7758805303e+00 2.9104709759e-05 1.7955221606e+00 -3.1099356083e+00 1.7955221606e+00 3.1099356083e+00 
80100 6.7758805321e+00 2.8559011659e-05 1.7955221606e+00 -3.1099356083e+00 1.7955221606e+00 3.1099356083e+00 
80200 6.7758805339e+00 2.8015154291e-05 1.7955221606e+00 -3.1099356083e+00 1.7955221606e+00 3.1099356083e+00 
80300 6.7758805357e+00 2.7473793014e-05 1.7955221606e+00 -3.1099356083e+00 1.7955221606e+00 3.1099356083e+00 
80400 6.7758805375e+00 2.6935560335e-05 1.7955221606e+00 -3.1099356083e+00 1.7955221606e+00 3.1099356083e+00 
80500 6.7758805392e+00 2.6401065710e-05 1.7955221606e+00 -3.1099356083e+00 1.7955221606e+00 3.1099356083e+00 
80600 6.7758805409e+00 2.5870895378e-05 1.7955221606e+00 -3.1099356083e+00 1.7955221606e+00 3.1099356083e+00 
80700 6.7758805426e+00 2.5345612234e-05 1.7955221606e+00 -3.1099356083e+00 1.7955221606e+00 3.1099356083e+00 
80800 6.7758805443e+00 2.4825755735e-05 1.7955221606e+00 -3.1099356083e+00 1.7955221606e+00 3.1099356083e+00 
80900 6.7758805459e+00 2.4311841846e-05 1.7955221606e+00 -3.1099356083e+00 1.7955221606e+00 3.1099356083e+00 
81000 6.7758805475e+00 2.3804363024e-05 1.7955221606e+00 -3.1099356083e+00 1.7955221606e+00 3.1099356083e+00 
81100 6.7758805491e+00 2.3303788214e-05 1.7955221606e+00 -3.1099356083e+00 1.7955221606e+00 3.1099356083e+00 
81200 6.7758805507e+00 2.2810562904e-05 1.7955221606e+00 -3.1099356083e+00 1.7955221606e+00 3.1099356083e+00 
81300 6.7758805523e+00 2.2325109190e-05 1.7955221606e+00 -3.1099356083e+00 1.7955221606e+00 3.1099356083e+00 
81400 6.7758805538e+00 2.1847825888e-05 1.7955221606e+00 -3.1099356083e+00 1.7955221606e+00 3.1099356083e+00 
81500 6.7758805553e+00 2.1379088659e-05 1.7955221606e+00 -3.1099356083e+00 1.7955221606e+00 3.1099356083e+00 
81600 6.7758805569e+00 2.0919250175e-05 1.7955221606e+00 -3.1099356083e+00 1.7955221606e+00 3.1099356083e+00 
81700 6.7758805583e+00 2.0468640301e-05 1.7955221606e+00 -3.1099356083e+00 1.7955221606e+00 3.1099356083e+00 
81800 6.7758805598e+00 2.0027566314e-05 1.7955221606e+00 -3.1099356083e+00 1.7955221606e+00 3.1099356083e+00 
81900 6.7758805612e+00 1.9596313143e-05 1.7955221606e+00 -3.1099356083e+00 1.7955221606e+00 3.1099356083e+00 
82000 6.7758805627e+00 1.9175143621e-05 1.7955221606e+00 -3.1099356083e+00 1.7955221606e+00 3.1099356083e+00 
82100 6.7758805641e+00 1.8764298783e-05 1.7955221606e+00 -3.1099356083e+00 1.7955221606e+00 3.1099356083e+00 
82200 6.7758805655e+00 1.8363998168e-05 1.7955221606e+00 -3.1099356083e+00 1.7955221606e+00 3.1099356083e+00 
82300 6.7758805669e+00 1.7974440142e-05 1.7955221606e+00 -3.1099356083e+00 1.7955221606e+00 3.1099356083e+00 
82400 6.7758805682e+00 1.7595802256e-05 1.7955221606e+00 -3.1099356083e+00 1.7955221606e+00 3.1099356083e+00 
82500 6.7758805696e+00 1.7228241604e-05 1.7955221606e+00 -3.1099356083e+00 1.7955221606e+00 3.1099356083e+00 
82600 6.7758805709e+00 1.6871895209e-05 1.7955221606e+00 -3.1099356083e+00 1.7955221606e+00 3.1099356083e+00 
82700 6.7758805722e+00 1.6526880424e-05 1.7955221606e+00 -3.1099356083e+00 1.7955221606e+00 3.1099356083e+00 
82800 6.7758805735e+00 1.6193295346e-05 1.7955221606e+00 -3.1099356083e+00 1.7955221606e+00 3.1099356083e+00 
82900 6.7758805748e+00 1.5871219256e-05 1.7955221606e+00 -3.1099356083e+00 1.7955221606e+00 3.1099356083e+00 
83000 6.7758805761e+00 1.5560713045e-05 1.7955221606e+00 -3.1099356083e+00 1.7955221606e+00 3.1099356083e+00 
83100 6.7758805773e+00 1.5261819686e-05 1.7955221606e+00 -3.1099356083e+00 1.7955221606e+00 3.1099356083e+00 
83200 6.7758805786e+00 1.4974564699e-05 1.7955221606e+00 -3.1099356083e+00 1.7955221606e+00 3.1099356083e+00 
83300 6.7758805798e+00 1.4698956625e-05 1.7955221606e+00 -3.1099356083e+00 1.7955221606e+00 3.1099356083e+00 
83400 6.7758805810e+00 1.4434987518e-05 1.7955221606e+00 -3.1099356083e+00 1.7955221606e+00 3.1099356083e+00 
83500 6.7758805822e+00 1.4182633438e-05 1.7955221606e+00 -3.1099356083e+00 1.7955221606e+00 3.1099356083e+00 
83600 6.7758805834e+00 1.3941854960e-05 1.7955221606e+00 -3.1099356083e+00 1.7955221606e+00 3.1099356083e+00 
83700 6.7758805846e+00 1.3712597685e-05 1.7955221606e+00 -3.1099356083e+00 1.7955221606e+00 3.1099356083e+00 
83800 6.7758805857e+00 1.3494792752e-05 1.7955221606e+00 -3.1099356083e+00 1.7955221606e+00 3.1099356083e+00 
83900 6.7758805869e+00 1.3288357367e-05 1.7955221606e+00 -3.1099356083e+00 1.7955221606e+00 3.1099356083e+00 
84000 6.7758805880e+00 1.3093195322e-05 1.7955221606e+00 -3.1099356083e+00 1.7955221606e+00 3.1099356083e+00 
84100 6.7758805891e+00 1.2909197532e-05 1.7955221606e+00 -3.1099356083e+00 1.7955221606e+00 3.1099356083e+00 
84200 6.7758805902e+00 1.2736242563e-05 1.7955221606e+00 -3.1099356083e+00 1.7955221606e+00 3.1099356083e+00 
84300 6.7758805913e+00 1.2574197166e-05 1.7955221606e+00 -3.1099356083e+00 1.7955221606e+00 3.1099356083e+00 
84400 6.7758805924e+00 1.2422916805e-05 1.7955221606e+00 -3.1099356083e+00 1.7955221606e+00 3.1099356083e+00 
84500 6.7758805935e+00 1.2282246210e-05 1.7955221606e+00 -3.1099356083e+00 1.7955221606e+00 3.1099356083e+00 
84600 6.7758805946e+00 1.2152019890e-05 1.7955221606e+00 -3.1099356083e+00 1.7955221606e+00 3.1099356083e+00 
84700 6.7758805956e+00 1.2032062674e-05 1.7955221606e+00 -3.1099356083e+00 1.7955221606e+00 3.1099356083e+00 
84800 6.7758805967e+00 1.1922190248e-05 1.7955221606e+00 -3.1099356083e+00 1.7955221606e+00 3.1099356083e+00 
84900 6.7758805977e+00 1.1822209670e-05 1.7955221606e+00 -3.1099356083e+00 1.7955221606e+00 3.1099356083e+00 
85000 6.7758805987e+00 1.1731919909e-05 1.7955221606e+00 -3.1099356083e+00 1.7955221606e+00 3.1099356083e+00 
85100 6.7758805997e+00 1.1651112351e-05 1.7955221606e+00 -3.1099356083e+00 1.7955221606e+00 3.1099356083e+00 
85200 6.7758806007e+00 1.1579571317e-05 1.7955221606e+00 -3.1099356083e+00 1.7955221606e+00 3.1099356083e+00 
85300 6.7758806017e+00 1.1517074590e-05 1.7955221606e+00 -3.1099356083e+00 1.7955221606e+00 3.1099356083e+00 
85400 6.7758806027e+00 1.1463393896e-05 1.7955221606e+00 -3.1099356083e+00 1.7955221606e+00 3.1099356083e+00 
85500 6.7758806036e+00 1.1418295420e-05 1.7955221606e+00 -3.1099356083e+00 1.7955221606e+00 3.1099356083e+00 
85600 6.7758806046e+00 1.1381540286e-05 1.7955221606e+00 -3.1099356083e+00 1.7955221606e+00 3.1099356083e+00 
85700 6.7758806055e+00 1.1352885050e-05 1.7955221606e+00 -3.1099356083e+00 1.7955221606e+00 3.1099356083e+00 
85800 6.7758806065e+00 1.1332082173e-05 1.7955221606e+00 -3.1099356083e+00 1.7955221606e+00 3.1099356083e+00 
85900 6.7758806074e+00 1.1318880486e-05 1.7955221606e+00 -3.1099356083e+00 1.7955221606e+00 3.1099356083e+00 
86000 6.7758806083e+00 1.1313025655e-05 1.7955221606e+00 -3.1099356083e+00 1.7955221606e+00 3.1099356083e+00 
86100 6.7758806092e+00 1.1314260632e-05 1.7955221606e+00 -3.1099356083e+00 1.7955221606e+00 3.1099356083e+00 
86200 6.7758806101e+00 1.1322326086e-05 1.7955221606e+00 -3.1099356083e+00 1.7955221606e+00 3.1099356083e+00 
86300 6.7758806110e+00 1.1336960854e-05 1.7955221606e+00 -3.1099356083e+00 1.7955221606e+00 3.1099356083e+00 
86400 6.7758806119e+00 1.1357902341e-05 1.7955221606e+00 -3.1099356083e+00 1.7955221606e+00 3.1099356083e+00 
86500 6.7758806127e+00 1.1384886947e-05 1.7955221606e+00 -3.1099356083e+00 1.7955221606e+00 3.1099356083e+00 
86600 6.7758806136e+00 1.1417650465e-05 1.7955221606e+00 -3.1099356083e+00 1.7955221606e+00 3.1099356083e+00 
86700 6.7758806144e+00 1.1455928461e-05 1.7955221606e+00 -3.1099356083e+00 1.7955221606e+00 3.1099356083e+00 
86800 6.7758806153e+00 1.1499456667e-05 1.7955221606e+00 -3.1099356083e+00 1.7955221606e+00 3.1099356083e+00 
86900 6.7758806161e+00 1.1547971334e-05 1.7955221606e+00 -3.1099356083e+00 1.7955221606e+00 3.1099356083e+00 
87000 6.7758806169e+00 1.1601209610e-05 1.7955221606e+00 -3.1099356083e+00 1.7955221606e+00 3.1099356083e+00 
87100 6.7758806177e+00 1.1658909853e-05 1.7955221606e+00 -3.1099356083e+00 1.7955221606e+00 3.1099356083e+00 
87200 6.7758806185e+00 1.1720811993e-05 1.7955221606e+00 -3.1099356083e+00 1.7955221606e+00 3.1099356083e+00 
87300 6.7758806193e+00 1.1786657835e-05 1.7955221606e+00 -3.1099356083e+00 1.7955221606e+00 3.1099356083e+00 
87400 6.7758806201e+00 1.1856191378e-05 1.7955221606e+00 -3.1099356083e+00 1.7955221606e+00 3.1099356083e+00 
87500 6.7758806209e+00 1.1929159103e-05 1.7955221606e+00 -3.1099356083e+00 1.7955221606e+00 3.1099356083e+00 
87600 6.7758806216e+00 1.2005310261e-05 1.7955221606e+00 -3.1099356083e+00 1.7955221606e+00 3.1099356083e+00 
87700 6.7758806224e+00 1.2084397153e-05 1.7955221606e+00 -3.1099356083e+00 1.7955221606e+00 3.1099356083e+00 
87800 6.7758806231e+00 1.2166175380e-05 1.7955221606e+00 -3.1099356083e+00 1.7955221606e+00 3.1099356083e+00 
87900 6.7758806239e+00 1.2250404090e-05 1.7955221606e+00 -3.1099356083e+00 1.7955221606e+00 3.1099356083e+00 
88000 6.7758806246e+00 1.2336846227e-05 1.7955221606e+00 -3.1099356083e+00 1.7955221606e+00 3.1099356083e+00 
88100 6.7758806253e+00 1.2425268739e-05 1.7955221606e+00 -3.1099356083e+00 1.7955221606e+00 3.1099356083e+00 
88200 6.7758806260e+00 1.2515442803e-05 1.7955221606e+00 -3.1099356083e+00 1.7955221606e+00 3.1099356083e+00 
88300 6.7758806267e+00 1.2607144012e-05 1.7955221606e+00 -3.1099356083e+00 1.7955221606e+00 3.1099356083e+00 
88400 6.7758806274e+00 1.2700152570e-05 1.7955221606e+00 -3.1099356083e+00 1.7955221606e+00 3.1099356083e+00 
88500 6.7758806281e+00 1.2794253468e-05 1.7955221606e+00 -3.1099356083e+00 1.7955221606e+00 3.1099356083e+00 
88600 6.7758806288e+00 1.2889236643e-05 1.7955221606e+00 -3.1099356083e+00 1.7955221606e+00 3.1099356083e+00 
88700 6.7758806294e+00 1.2984897130e-05 1.7955221606e+00 -3.1099356083e+00 1.7955221606e+00 3.1099356083e+00 
88800 6.7758806301e+00 1.3081035210e-05 1.7955221606e+00 -3.1099356083e+00 1.7955221606e+00 3.1099356083e+00 
88900 6.7758806308e+00 1.3177456528e-05 1.7955221606e+00 -3.1099356083e+00 1.7955221606e+00 3.1099356083e+00 
89000 6.7758806314e+00 1.3273972218e-05 1.7955221606e+00 -3.1099356083e+00 1.7955221606e+00 3.1099356083e+00 
89100 6.7758806321e+00 1.3370399012e-05 1.7955221606e+00 -3.1099356083e+00 1.7955221606e+00 3.1099356083e+00 
89200 6.7758806327e+00 1.3466559321e-05 1.7955221606e+00 -3.1099356083e+00 1.7955221606e+00 3.1099356083e+00 
89300 6.7758806333e+00 1.3562281339e-05 1.7955221606e+00 -3.1099356083e+00 1.7955221606e+00 3.1099356083e+00 
89400 6.7758806339e+00 1.3657399103e-05 1.7955221606e+00 -3.1099356083e+00 1.7955221606e+00 3.1099356083e+00 
89500 6.7758806345e+00 1.3751752560e-05 1.7955221606e+00 -3.1099356083e+00 1.7955221606e+00 3.1099356083e+00 
89600 6.7758806351e+00 1.3845187628e-05 1.7955221606e+00 -3.1099356083e+00 1.7955221606e+00 3.1099356083e+00 
89700 6.7758806357e+00 1.3937556228e-05 1.7955221606e+00 -3.1099356083e+00 1.7955221606e+00 3.1099356083e+00 
89800 6.7758806363e+00 1.4028716327e-05 1.7955221606e+00 -3.1099356083e+00 1.7955221606e+00 3.1099356083e+00 
89900 6.7758806369e+00 1.4118531958e-05 1.7955221606e+00 -3.1099356083e+00 1.7955221606e+00 3.1099356083e+00 
90000 6.7758806375e+00 1.4206873235e-05 1.7955221606e+00 -3.1099356083e+00 1.7955221606e+00 3.1099356083e+00 
90100 6.7758806381e+00 1.4293616365e-05 1.7955221606e+00 -3.1099356083e+00 1.7955221606e+00 3.1099356083e+00 
90200 6.7758806386e+00 1.4378643635e-05 1.7955221606e+00 -3.1099356083e+00 1.7955221606e+00 3.1099356083e+00 
90300 6.7758806392e+00 1.4461843410e-05 1.7955221606e+00 -3.1099356083e+00 1.7955221606e+00 3.1099356083e+00 
90400 6.7758806397e+00 1.4543110113e-05 1.7955221606e+00 -3.1099356083e+00 1.7955221606e+00 3.1099356083e+00 
90500 6.7758806403e+00 1.4622344194e-05 1.7955221606e+00 -3.1099356083e+00 1.7955221606e+00 3.1099356083e+00 
90600 6.7758806408e+00 1.4699452097e-05 1.7955221606e+00 -3.1099356083e+00 1.7955221606e+00 3.1099356083e+00 
90700 6.7758806413e+00 1.4774346214e-05 1.7955221606e+00 -3.1099356083e+00 1.7955221606e+00 3.1099356083e+00 
90800 6.7758806419e+00 1.4846944843e-05 1.7955221606e+00 -3.1099356083e+00 1.7955221606e+00 3.1099356083e+00 
90900 6.7758806424e+00 1.4917172127e-05 1.7955221606e+00 -3.1099356083e+00 1.7955221606e+00 3.1099356083e+00 
91000 6.7758806429e+00 1.4984957992e-05 1.7955221606e+00 -3.1099356083e+00 1.7955221606e+00 3.1099356083e+00 
91100 6.7758806434e+00 1.5050238077e-05 1.7955221606e+00 -3.1099356083e+00 1.7955221606e+00 3.1099356083e+00 
91200 6.7758806439e+00 1.5112953657e-05 1.7955221606e+00 -3.1099356083e+00 1.7955221606e+00 3.1099356083e+00 
91300 6.7758806444e+00 1.5173051565e-05 1.7955221606e+00 -3.1099356083e+00 1.7955221606e+00 3.1099356083e+00 
91400 6.7758806449e+00 1.5230484104e-05 1.7955221606e+00 -3.1099356083e+00 1.7955221606e+00 3.1099356083e+00 
91500 6.7758806454e+00 1.5285208965e-05 1.7955221606e+00 -3.1099356083e+00 1.7955221606e+00 3.1099356083e+00 
91600 6.7758806458e+00 1.5337189109e-05 1.7955221606e+00 -3.1099356083e+00 1.7955221606e+00 3.1099356083e+00 
91700 6.7758806463e+00 1.5386392687e-05 1.7955221606e+00 -3.1099356083e+00 1.7955221606e+00 3.1099356083e+00 
91800 6.7758806468e+00 1.5432792919e-05 1.7955221606e+00 -3.1099356083e+00 1.7955221606e+00 3.1099356083e+00 
91900 6.7758806472e+00 1.5476367995e-05 1.7955221606e+00 -3.1099356083e+00 1.7955221606e+00 3.1099356083e+00 
92000 6.7758806477e+00 1.5517100955e-05 1.7955221606e+00 -3.1099356083e+00 1.7955221606e+00 3.1099356083e+00 
92100 6.7758806481e+00 1.5554979575e-05 1.7955221606e+00 -3.1099356083e+00 1.7955221606e+00 3.1099356083e+00 
92200 6.7758806486e+00 1.5589996251e-05 1.7955221606e+00 -3.1099356083e+00 1.7955221606e+00 3.1099356083e+00 
92300 6.7758806490e+00 1.5622147862e-05 1.7955221606e+00 -3.1099356083e+00 1.7955221606e+00 3.1099356083e+00 
92400 6.7758806495e+00 1.5651435658e-05 1.7955221606e+00 -3.1099356083e+00 1.7955221606e+00 3.1099356083e+00 
92500 6.7758806499e+00 1.5677865123e-05 1.7955221606e+00 -3.1099356083e+00 1.7955221606e+00 3.1099356083e+00 
92600 6.7758806503e+00 1.5701445852e-05 1.7955221606e+00 -3.1099356083e+00 1.7955221606e+00 3.1099356083e+00 
92700 6.7758806507e+00 1.5722191406e-05 1.7955221606e+00 -3.1099356083e+00 1.7955221606e+00 3.1099356083e+00 
92800 6.7758806512e+00 1.5740119191e-05 1.7955221606e+00 -3.1099356083e+00 1.7955221606e+00 3.1099356083e+00 
92900 6.7758806516e+00 1.5755250312e-05 1.7955221606e+00 -3.1099356083e+00 1.7955221606e+00 3.1099356083e+00 
93000 6.7758806520e+00 1.5767609440e-05 1.7955221606e+00 -3.1099356083e+00 1.7955221606e+00 3.1099356083e+00 
93100 6.7758806524e+00 1.5777224673e-05 1.7955221606e+00 -3.1099356083e+00 1.7955221606e+00 3.1099356083e+00 
93200 6.7758806528e+00 1.5784127395e-05 1.7955221606e+00 -3.1099356083e+00 1.7955221606e+00 3.1099356083e+00 
93300 6.7758806532e+00 1.5788352138e-05 1.7955221606e+00 -3.1099356083e+00 1.7955221606e+00 3.1099356083e+00 
93400 6.7758806536e+00 1.5789936444e-05 1.7955221606e+00 -3.1099356083e+00 1.7955221606e+00 3.1099356083e+00 
93500 6.7758806539e+00 1.5788920715e-05 1.7955221606e+00 -3.1099356083e+00 1.7955221606e+00 3.1099356083e+00 
93600 6.7758806543e+00 1.5785348089e-05 1.7955221606e+00 -3.1099356083e+00 1.7955221606e+00 3.1099356083e+00 
93700 6.7758806547e+00 1.5779264282e-05 1.7955221606e+00 -3.1099356083e+00 1.7955221606e+00 3.1099356083e+00 
93800 6.7758806551e+00 1.5770717458e-05 1.7955221606e+00 -3.1099356083e+00 1.7955221606e+00 3.1099356083e+00 
93900 6.7758806554e+00 1.5759758090e-05 1.7955221606e+00 -3.1099356083e+00 1.7955221606e+00 3.1099356083e+00 
94000 6.7758806558e+00 1.5746438817e-05 1.7955221606e+00 -3.1099356083e+00 1.7955221606e+00 3.1099356083e+00 
94100 6.7758806562e+00 1.5730814312e-05 1.7955221606e+00 -3.1099356083e+00 1.7955221606e+00 3.1099356083e+00 
94200 6.7758806565e+00 1.5712941140e-05 1.7955221606e+00 -3.1099356083e+00 1.7955221606e+00 3.1099356083e+00 
94300 6.7758806569e+00 1.5692877625e-05 1.7955221606e+00 -3.1099356083e+00 1.7955221606e+00 3.1099356083e+00 
94400 6.7758806572e+00 1.5670683720e-05 1.7955221606e+00 -3.1099356083e+00 1.7955221606e+00 3.1099356083e+00 
94500 6.7758806576e+00 1.5646420864e-05 1.7955221606e+00 -3.1099356083e+00 1.7955221606e+00 3.1099356083e+00 
94600 6.7758806579e+00 1.5620151870e-05 1.7955221606e+00 -3.1099356083e+00 1.7955221606e+00 3.1099356083e+00 
94700 6.7758806582e+00 1.5591940776e-05 1.7955221606e+00 -3.1099356083e+00 1.7955221606e+00 3.1099356083e+00 
94800 6.7758806586e+00 1.5561852734e-05 1.7955221606e+00 -3.1099356083e+00 1.7955221606e+00 3.1099356083e+00 
94900 6.7758806589e+00 1.5529953875e-05 1.7955221606e+00 -3.1099356083e+00 1.7955221606e+00 3.1099356083e+00 
95000 6.7758806592e+00 1.5496311190e-05 1.7955221606e+00 -3.1099356083e+00 1.7955221606e+00 3.1099356083e+00 
95100 6.7758806596e+00 1.5460992413e-05 1.7955221606e+00 -3.1099356083e+00 1.7955221606e+00 3.1099356083e+00 
95200 6.7758806599e+00 1.5424065901e-05 1.7955221606e+00 -3.1099356083e+00 1.7955221606e+00 3.1099356083e+00 
95300 6.7758806602e+00 1.5385600518e-05 1.7955221606e+00 -3.1099356083e+00 1.7955221606e+00 3.1099356083e+00 
95400 6.7758806605e+00 1.5345665524e-05 1.7955221606e+00 -3.1099356083e+00 1.7955221606e+00 3.1099356083e+00 
95500 6.7758806608e+00 1.5304330465e-05 1.7955221606e+00 -3.1099356083e+00 1.7955221606e+00 3.1099356083e+00 
95600 6.7758806611e+00 1.5261665060e-05 1.7955221606e+00 -3.1099356083e+00 1.7955221606e+00 3.1099356083e+00 
95700 6.7758806614e+00 1.5217739111e-05 1.7955221606e+00 -3.1099356083e+00 1.7955221606e+00 3.1099356083e+00 
95800 6.7758806617e+00 1.5172622383e-05 1.7955221606e+00 -3.1099356083e+00 1.7955221606e+00 3.1099356083e+00 
95900 6.7758806620e+00 1.5126384524e-05 1.7955221606e+00 -3.1099356083e+00 1.7955221606e+00 3.1099356083e+00 
96000 6.7758806623e+00 1.5079094954e-05 1.7955221606e+00 -3.1099356083e+00 1.7955221606e+00 3.1099356083e+00 
96100 6.7758806626e+00 1.5030822783e-05 1.7955221606e+00 -3.1099356083e+00 1.7955221606e+00 3.1099356083e+00 
96200 6.7758806629e+00 1.4981636715e-05 1.7955221606e+00 -3.1099356083e+00 1.7955221606e+00 3.1099356083e+00 
96300 6.7758806631e+00 1.4931604968e-05 1.7955221606e+00 -3.1099356083e+00 1.7955221606e+00 3.1099356083e+00 
96400 6.7758806634e+00 1.4880795189e-05 1.7955221606e+00 -3.1099356083e+00 1.7955221606e+00 3.1099356083e+00 
96500 6.7758806637e+00 1.4829274364e-05 1.7955221606e+00 -3.1099356083e+00 1.7955221606e+00 3.1099356083e+00 
96600 6.7758806640e+00 1.4777108766e-05 1.7955221606e+00 -3.1099356083e+00 1.7955221606e+00 3.1099356083e+00 
96700 6.7758806642e+00 1.4724363852e-05 1.7955221606e+00 -3.1099356083e+00 1.7955221606e+00 3.1099356083e+00 
96800 6.7758806645e+00 1.4671104213e-05 1.7955221606e+00 -3.1099356083e+00 1.7955221606e+00 3.1099356083e+00 
96900 6.7758806648e+00 1.4617393501e-05 1.7955221606e+00 -3.1099356083e+00 1.7955221606e+00 3.1099356083e+00 
97000 6.7758806650e+00 1.4563294365e-05 1.7955221606e+00 -3.1099356083e+00 1.7955221606e+00 3.1099356083e+00 
97100 6.7758806653e+00 1.4508868393e-05 1.7955221606e+00 -3.1099356083e+00 1.7955221606e+00 3.1099356083e+00 
97200 6.7758806655e+00 1.4454176045e-05 1.7955221606e+00 -3.1099356083e+00 1.7955221606e+00 3.1099356083e+00 
97300 6.7758806658e+00 1.4399276621e-05 1.7955221606e+00 -3.1099356083e+00 1.7955221606e+00 3.1099356083e+00 
97400 6.7758806660e+00 1.4344228180e-05 1.7955221606e+00 -3.1099356083e+00 1.7955221606e+00 3.1099356083e+00 
97500 6.7758806663e+00 1.4289087518e-05 1.7955221606e+00 -3.1099356083e+00 1.7955221606e+00 3.1099356083e+00 
97600 6.7758806665e+00 1.4233910111e-05 1.7955221606e+00 -3.1099356083e+00 1.7955221606e+00 3.1099356083e+00 
97700 6.7758806667e+00 1.4178750080e-05 1.7955221606e+00 -3.1099356083e+00 1.7955221606e+00 3.1099356083e+00 
97800 6.7758806670e+00 1.4123660142e-05 1.7955221606e+00 -3.1099356083e+00 1.7955221606e+00 3.1099356083e+00 
97900 6.7758806672e+00 1.4068691588e-05 1.7955221606e+00 -3.1099356083e+00 1.7955221606e+00 3.1099356083e+00 
98000 6.7758806674e+00 1.4013894250e-05 1.7955221606e+00 -3.1099356083e+00 1.7955221606e+00 3.1099356083e+00 
98100 6.7758806677e+00 1.3959316454e-05 1.7955221606e+00 -3.1099356083e+00 1.7955221606e+00 3.1099356083e+00 
98200 6.7758806679e+00 1.3905005015e-05 1.7955221606e+00 -3.1099356083e+00 1.7955221606e+00 3.1099356083e+00 
98300 6.7758806681e+00 1.3851005204e-05 1.7955221606e+00 -3.1099356083e+00 1.7955221606e+00 3.1099356083e+00 
98400 6.7758806683e+00 1.3797360728e-05 1.7955221606e+00 -3.1099356083e+00 1.7955221606e+00 3.1099356083e+00 
98500 6.7758806686e+00 1.3744113715e-05 1.7955221606e+00 -3.1099356083e+00 1.7955221606e+00 3.1099356083e+00 
98600 6.7758806688e+00 1.3691304693e-05 1.7955221606e+00 -3.1099356083e+00 1.7955221606e+00 3.1099356083e+00 
98700 6.7758806690e+00 1.3638972583e-05 1.7955221606e+00 -3.1099356083e+00 1.7955221606e+00 3.1099356083e+00 
98800 6.7758806692e+00 1.3587154690e-05 1.7955221606e+00 -3.1099356083e+00 1.7955221606e+00 3.1099356083e+00 
98900 6.7758806694e+00 1.3535886692e-05 1.7955221606e+00 -3.1099356083e+00 1.7955221606e+00 3.1099356083e+00 
99000 6.7758806696e+00 1.3485202639e-05 1.7955221606e+00 -3.1099356083e+00 1.7955221606e+00 3.1099356083e+00 
99100 6.7758806698e+00 1.3435134944e-05 1.7955221606e+00 -3.1099356083e+00 1.7955221606e+00 3.1099356083e+00 
99200 6.7758806700e+00 1.3385714393e-05 1.7955221606e+00 -3.1099356083e+00 1.7955221606e+00 3.1099356083e+00 
99300 6.7758806702e+00 1.3336970139e-05 1.7955221606e+00 -3.1099356083e+00 1.7955221606e+00 3.1099356083e+00 
99400 6.7758806704e+00 1.3288929712e-05 1.7955221606e+00 -3.1099356083e+00 1.7955221606e+00 3.1099356083e+00 
99500 6.7758806706e+00 1.3241619020e-05 1.7955221606e+00 -3.1099356083e+00 1.7955221606e+00 3.1099356083e+00 
99600 6.7758806708e+00 1.3195062368e-05 1.7955221606e+00 -3.1099356083e+00 1.7955221606e+00 3.1099356083e+00 
99700 6.7758806710e+00 1.3149282456e-05 1.7955221606e+00 -3.1099356083e+00 1.7955221606e+00 3.1099356083e+00 
99800 6.7758806712e+00 1.3104300399e-05 1.7955221606e+00 -3.1099356083e+00 1.7955221606e+00 3.1099356083e+00 
99900 6.7758806714e+00 1.3060135743e-05 1.7955221606e+00 -3.1099356083e+00 1.7955221606e+00 3.1099356083e+00 
100000 6.7758806716e+00 1.3016806479e-05 1.7955221606e+00 -3.1099356083e+00 1.7955221606e+00 3.1099356083e+00 
100100 6.7758806717e+00 1.2974329056e-05 1.7955221606e+00 -3.1099356083e+00 1.7955221606e+00 3.1099356083e+00 
100200 6.7758806719e+00 1.2932718412e-05 1.7955221606e+00 -3.1099356083e+00 1.7955221606e+00 3.1099356083e+00 
100300 6.7758806721e+00 1.2891987985e-05 1.7955221606e+00 -3.1099356083e+00 1.7955221606e+00 3.1099356083e+00 
100400 6.7758806723e+00 1.2852149744e-05 1.7955221606e+00 -3.1099356083e+00 1.7955221606e+00 3.1099356083e+00 
100500 6.7758806724e+00 1.2813214210e-05 1.7955221606e+00 -3.1099356083e+00 1.7955221606e+00 3.1099356083e+00 
100600 6.7758806726e+00 1.2775190474e-05 1.7955221606e+00 -3.1099356083e+00 1.7955221606e+00 3.1099356083e+00 
100700 6.7758806728e+00 1.2738086235e-05 1.7955221606e+00 -3.1099356083e+00 1.7955221606e+00 3.1099356083e+00 
100800 6.7758806730e+00 1.2701907825e-05 1.7955221606e+00 -3.1099356083e+00 1.7955221606e+00 3.1099356083e+00 
100900 6.7758806731e+00 1.2666660237e-05 1.7955221606e+00 -3.1099356083e+00 1.7955221606e+00 3.1099356083e+00 
101000 6.7758806733e+00 1.2632347152e-05 1.7955221606e+00 -3.1099356083e+00 1.7955221606e+00 3.1099356083e+00 
101100 6.7758806734e+00 1.2598970977e-05 1.7955221606e+00 -3.1099356083e+00 1.7955221606e+00 3.1099356083e+00 
101200 6.7758806736e+00 1.2566532869e-05 1.7955221606e+00 -3.1099356083e+00 1.7955221606e+00 3.1099356083e+00 
101300 6.7758806738e+00 1.2535032775e-05 1.7955221606e+00 -3.1099356083e+00 1.7955221606e+00 3.1099356083e+00 
101400 6.7758806739e+00 1.2504469467e-05 1.7955221606e+00 -3.1099356083e+00 1.7955221606e+00 3.1099356083e+00 
101500 6.7758806741e+00 1.2474840560e-05 1.7955221606e+00 -3.1099356083e+00 1.7955221606e+00 3.1099356083e+00 
101600 6.7758806742e+00 1.2446142578e-05 1.7955221606e+00 -3.1099356083e+00 1.7955221606e+00 3.1099356083e+00 
101700 6.7758806744e+00 1.2418370954e-05 1.7955221606e+00 -3.1099356083e+00 1.7955221606e+00 3.1099356083e+00 
101800 6.7758806745e+00 1.2391520087e-05 1.7955221606e+00 -3.1099356083e+00 1.7955221606e+00 3.1099356083e+00 
101900 6.7758806747e+00 1.2365583381e-05 1.7955221606e+00 -3.1099356083e+00 1.7955221606e+00 3.1099356083e+00 
102000 6.7758806748e+00 1.2340553270e-05 1.7955221606e+00 -3.1099356083e+00 1.7955221606e+00 3.1099356083e+00 
102100 6.7758806750e+00 1.2316421259e-05 1.7955221606e+00 -3.1099356083e+00 1.7955221606e+00 3.1099356083e+00 
102200 6.7758806751e+00 1.2293177965e-05 1.7955221606e+00 -3.1099356083e+00 1.7955221606e+00 3.1099356083e+00 
102300 6.7758806753e+00 1.2270813154e-05 1.7955221606e+00 -3.1099356083e+00 1.7955221606e+00 3.1099356083e+00 
102400 6.7758806754e+00 1.2249315775e-05 1.7955221606e+00 -3.1099356083e+00 1.7955221606e+00 3.1099356083e+00 
102500 6.7758806755e+00 1.2228673997e-05 1.7955221606e+00 -3.1099356083e+00 1.7955221606e+00 3.1099356083e+00 
102600 6.7758806757e+00 1.2208875254e-05 1.7955221606e+00 -3.1099356083e+00 1.7955221606e+00 3.1099356083e+00 
102700 6.7758806758e+00 1.2189906279e-05 1.7955221606e+00 -3.1099356083e+00 1.7955221606e+00 3.1099356083e+00 
102800 6.7758806759e+00 1.2171753134e-05 1.7955221606e+00 -3.1099356083e+00 1.7955221606e+00 3.1099356083e+00 
102900 6.7758806761e+00 1.2154401263e-05 1.7955221606e+00 -3.1099356083e+00 1.7955221606e+00 3.1099356083e+00 
103000 6.7758806762e+00 1.2137835511e-05 1.7955221606e+00 -3.1099356083e+00 1.7955221606e+00 3.1099356083e+00 
103100 6.7758806763e+00 1.2122040179e-05 1.7955221606e+00 -3.1099356083e+00 1.7955221606e+00 3.1099356083e+00 
103200 6.7758806765e+00 1.2106999049e-05 1.7955221606e+00 -3.1099356083e+00 1.7955221606e+00 3.1099356083e+00 
103300 6.7758806766e+00 1.2092695425e-05 1.7955221606e+00 -3.1099356083e+00 1.7955221606e+00 3.1099356083e+00 
103400 6.7758806767e+00 1.2079112167e-05 1.7955221606e+00 -3.1099356083e+00 1.7955221606e+00 3.1099356083e+00 
103500 6.7758806768e+00 1.2066231730e-05 1.7955221606e+00 -3.1099356083e+00 1.7955221606e+00 3.1099356083e+00 
103600 6.7758806770e+00 1.2054036192e-05 1.7955221606e+00 -3.1099356083e+00 1.7955221606e+00 3.1099356083e+00 
103700 6.7758806771e+00 1.2042507302e-05 1.7955221606e+00 -3.1099356083e+00 1.7955221606e+00 3.1099356083e+00 
103800 6.7758806772e+00 1.2031626496e-05 1.7955221606e+00 -3.1099356083e+00 1.7955221606e+00 3.1099356083e+00 
103900 6.7758806773e+00 1.2021374948e-05 1.7955221606e+00 -3.1099356083e+00 1.7955221606e+00 3.1099356083e+00 
104000 6.7758806774e+00 1.2011733595e-05 1.7955221606e+00 -3.1099356083e+00 1.7955221606e+00 3.1099356083e+00 
104100 6.7758806776e+00 1.2002683170e-05 1.7955221606e+00 -3.1099356083e+00 1.7955221606e+00 3.1099356083e+00 
104200 6.7758806777e+00 1.1994204231e-05 1.7955221606e+00 -3.1099356083e+00 1.7955221606e+00 3.1099356083e+00 
104300 6.7758806778e+00 1.1986277198e-05 1.7955221606e+00 -3.1099356083e+00 1.7955221606e+00 3.1099356083e+00 
104400 6.7758806779e+00 1.1978882383e-05 1.7955221606e+00 -3.1099356083e+00 1.7955221606e+00 3.1099356083e+00 
104500 6.7758806780e+00 1.1972000014e-05 1.7955221606e+00 -3.1099356083e+00 1.7955221606e+00 3.1099356083e+00 
104600 6.7758806781e+00 1.1965610270e-05 1.7955221606e+00 -3.1099356083e+00 1.7955221606e+00 3.1099356083e+00 
104700 6.7758806782e+00 1.1959693308e-05 1.7955221606e+00 -3.1099356083e+00 1.7955221606e+00 3.1099356083e+00 
104800 6.7758806783e+00 1.1954229286e-05 1.7955221606e+00 -3.1099356083e+00 1.7955221606e+00 3.1099356083e+00 
104900 6.7758806784e+00 1.1949198402e-05 1.7955221606e+00 -3.1099356083e+00 1.7955221606e+00 3.1099356083e+00 
105000 6.7758806785e+00 1.1944580901e-05 1.7955221606e+00 -3.1099356083e+00 1.7955221606e+00 3.1099356083e+00 
105100 6.7758806786e+00 1.1940357115e-05 1.7955221606e+00 -3.1099356083e+00 1.7955221606e+00 3.1099356083e+00 
105200 6.7758806787e+00 1.1936507483e-05 1.7955221606e+00 -3.1099356083e+00 1.7955221606e+00 3.1099356083e+00 
105300 6.7758806788e+00 1.1933012576e-05 1.7955221606e+00 -3.1099356083e+00 1.7955221606e+00 3.1099356083e+00 
105400 6.7758806789e+00 1.1929853119e-05 1.7955221606e+00 -3.1099356083e+00 1.7955221606e+00 3.1099356083e+00 
105500 6.7758806790e+00 1.1927010009e-05 1.7955221606e+00 -3.1099356083e+00 1.7955221606e+00 3.1099356083e+00 
105600 6.7758806791e+00 1.1924464335e-05 1.7955221606e+00 -3.1099356083e+00 1.7955221606e+00 3.1099356083e+00 
105700 6.7758806792e+00 1.1922197411e-05 1.7955221606e+00 -3.1099356083e+00 1.7955221606e+00 3.1099356083e+00 
105800 6.7758806793e+00 1.1920190780e-05 1.7955221606e+00 -3.1099356083e+00 1.7955221606e+00 3.1099356083e+00 
105900 6.7758806794e+00 1.1918426239e-05 1.7955221606e+00 -3.1099356083e+00 1.7955221606e+00 3.1099356083e+00 
106000 6.7758806795e+00 1.1916885858e-05 1.7955221606e+00 -3.1099356083e+00 1.7955221606e+00 3.1099356083e+00 
106100 6.7758806796e+00 1.1915551993e-05 1.7955221606e+00 -3.1099356083e+00 1.7955221606e+00 3.1099356083e+00 
106200 6.7758806797e+00 1.1914407298e-05 1.7955221606e+00 -3.1099356083e+00 1.7955221606e+00 3.1099356083e+00 
106300 6.7758806798e+00 1.1913434756e-05 1.7955221606e+00 -3.1099356083e+00 1.7955221606e+00 3.1099356083e+00 
106400 6.7758806799e+00 1.1912617673e-05 1.7955221606e+00 -3.1099356083e+00 1.7955221606e+00 3.1099356083e+00 
106500 6.7758806800e+00 1.1911939702e-05 1.7955221606e+00 -3.1099356083e+00 1.7955221606e+00 3.1099356083e+00 
106600 6.7758806801e+00 1.1911384854e-05 1.7955221606e+00 -3.1099356083e+00 1.7955221606e+00 3.1099356083e+00 
106700 6.7758806801e+00 1.1910937511e-05 1.7955221606e+00 -3.1099356083e+00 1.7955221606e+00 3.1099356083e+00 
106800 6.7758806802e+00 1.1910582428e-05 1.7955221606e+00 -3.1099356083e+00 1.7955221606e+00 3.1099356083e+00 
106900 6.7758806803e+00 1.1910304760e-05 1.7955221606e+00 -3.1099356083e+00 1.7955221606e+00 3.1099356083e+00 
107000 6.7758806804e+00 1.1910090047e-05 1.7955221606e+00 -3.1099356083e+00 1.7955221606e+00 3.1099356083e+00 
107100 6.7758806805e+00 1.1909924247e-05 1.7955221606e+00 -3.1099356083e+00 1.7955221606e+00 3.1099356083e+00 
107200 6.7758806806e+00 1.1909793720e-05 1.7955221606e+00 -3.1099356083e+00 1.7955221606e+00 3.1099356083e+00 
107300 6.7758806806e+00 1.1909685255e-05 1.7955221606e+00 -3.1099356083e+00 1.7955221606e+00 3.1099356083e+00 
107400 6.7758806807e+00 1.1909586064e-05 1.7955221606e+00 -3.1099356083e+00 1.7955221606e+00 3.1099356083e+00 
107500 6.7758806808e+00 1.1909483791e-05 1.7955221606e+00 -3.1099356083e+00 1.7955221606e+00 3.1099356083e+00 
107600 6.7758806809e+00 1.1909366512e-05 1.7955221606e+00 -3.1099356083e+00 1.7955221606e+00 3.1099356083e+00 
107700 6.7758806810e+00 1.1909222745e-05 1.7955221606e+00 -3.1099356083e+00 1.7955221606e+00 3.1099356083e+00 
107800 6.7758806810e+00 1.1909041449e-05 1.7955221606e+00 -3.1099356083e+00 1.7955221606e+00 3.1099356083e+00 
107900 6.7758806811e+00 1.1908812029e-05 1.7955221606e+00 -3.1099356083e+00 1.7955221606e+00 3.1099356083e+00 
108000 6.7758806812e+00 1.1908524330e-05 1.7955221606e+00 -3.1099356083e+00 1.7955221606e+00 3.1099356083e+00 
108100 6.7758806813e+00 1.1908168650e-05 1.7955221606e+00 -3.1099356083e+00 1.7955221606e+00 3.1099356083e+00 
108200 6.7758806813e+00 1.1907735730e-05 1.7955221606e+00 -3.1099356083e+00 1.7955221606e+00 3.1099356083e+00 
108300 6.7758806814e+00 1.1907216755e-05 1.7955221606e+00 -3.1099356083e+00 1.7955221606e+00 3.1099356083e+00 
108400 6.7758806815e+00 1.1906603358e-05 1.7955221606e+00 -3.1099356083e+00 1.7955221606e+00 3.1099356083e+00 
108500 6.7758806815e+00 1.1905887616e-05 1.7955221606e+00 -3.1099356083e+00 1.7955221606e+00 3.1099356083e+00 
108600 6.7758806816e+00 1.1905062047e-05 1.7955221606e+00 -3.1099356083e+00 1.7955221606e+00 3.1099356083e+00 
108700 6.7758806817e+00 1.1904119604e-05 1.7955221606e+00 -3.1099356083e+00 1.7955221606e+00 3.1099356083e+00 
108800 6.7758806817e+00 1.1903053679e-05 1.7955221606e+00 -3.1099356083e+00 1.7955221606e+00 3.1099356083e+00 
108900 6.7758806818e+00 1.1901858098e-05 1.7955221606e+00 -3.1099356083e+00 1.7955221606e+00 3.1099356083e+00 
109000 6.7758806819e+00 1.1900527105e-05 1.7955221606e+00 -3.1099356083e+00 1.7955221606e+00 3.1099356083e+00 
109100 6.7758806819e+00 1.1899055374e-05 1.7955221606e+00 -3.1099356083e+00 1.7955221606e+00 3.1099356083e+00 
109200 6.7758806820e+00 1.1897437999e-05 1.7955221606e+00 -3.1099356083e+00 1.7955221606e+00 3.1099356083e+00 
109300 6.7758806821e+00 1.1895670479e-05 1.7955221606e+00 -3.1099356083e+00 1.7955221606e+00 3.1099356083e+00 
109400 6.7758806821e+00 1.1893748720e-05 1.7955221606e+00 -3.1099356083e+00 1.7955221606e+00 3.1099356083e+00 
109500 6.7758806822e+00 1.1891669031e-05 1.7955221606e+00 -3.1099356083e+00 1.7955221606e+00 3.1099356083e+00 
109600 6.7758806823e+00 1.1889428111e-05 1.7955221606e+00 -3.1099356083e+00 1.7955221606e+00 3.1099356083e+00 
109700 6.7758806823e+00 1.1887023050e-05 1.7955221606e+00 -3.1099356083e+00 1.7955221606e+00 3.1099356083e+00 
109800 6.7758806824e+00 1.1884451304e-05 1.7955221606e+00 -3.1099356083e+00 1.7955221606e+00 3.1099356083e+00 
109900 6.7758806824e+00 1.1881710711e-05 1.7955221606e+00 -3.1099356083e+00 1.7955221606e+00 3.1099356083e+00 
110000 6.7758806825e+00 1.1878799464e-05 1.7955221606e+00 -3.1099356083e+00 1.7955221606e+00 3.1099356083e+00 
110100 6.7758806826e+00 1.1875716118e-05 1.7955221606e+00 -3.1099356083e+00 1.7955221606e+00 3.1099356083e+00 
110200 6.7758806826e+00 1.1872459566e-05 1.7955221606e+00 -3.1099356083e+00 1.7955221606e+00 3.1099356083e+00 
110300 6.7758806827e+00 1.1869029036e-05 1.7955221606e+00 -3.1099356083e+00 1.7955221606e+00 3.1099356083e+00 
110400 6.7758806827e+00 1.1865424095e-05 1.7955221606e+00 -3.1099356083e+00 1.7955221606e+00 3.1099356083e+00 
110500 6.7758806828e+00 1.1861644616e-05 1.7955221606e+00 -3.1099356083e+00 1.7955221606e+00 3.1099356083e+00 
110600 6.7758806828e+00 1.1857690792e-05 1.7955221606e+00 -3.1099356083e+00 1.7955221606e+00 3.1099356083e+00 
110700 6.7758806829e+00 1.1853563106e-05 1.7955221606e+00 -3.1099356083e+00 1.7955221606e+00 3.1099356083e+00 
110800 6.7758806830e+00 1.1849262334e-05 1.7955221606e+00 -3.1099356083e+00 1.7955221606e+00 3.1099356083e+00 
110900 6.7758806830e+00 1.1844789534e-05 1.7955221606e+00 -3.1099356083e+00 1.7955221606e+00 3.1099356083e+00 
111000 6.7758806831e+00 1.1840146032e-05 1.7955221606e+00 -3.1099356083e+00 1.7955221606e+00 3.1099356083e+00 
111100 6.7758806831e+00 1.1835333418e-05 1.7955221606e+00 -3.1099356083e+00 1.7955221606e+00 3.1099356083e+00 
111200 6.7758806832e+00 1.1830353525e-05 1.7955221606e+00 -3.1099356083e+00 1.7955221606e+00 3.1099356083e+00 
111300 6.7758806832e+00 1.1825208434e-05 1.7955221606e+00 -3.1099356083e+00 1.7955221606e+00 3.1099356083e+00 
111400 6.7758806833e+00 1.1819900449e-05 1.7955221606e+00 -3.1099356083e+00 1.7955221606e+00 3.1099356083e+00 
111500 6.7758806833e+00 1.1814432096e-05 1.7955221606e+00 -3.1099356083e+00 1.7955221606e+00 3.1099356083e+00 
111600 6.7758806834e+00 1.1808806113e-05 1.7955221606e+00 -3.1099356083e+00 1.7955221606e+00 3.1099356083e+00 
111700 6.7758806834e+00 1.1807891520e-05 1.7955221606e+00 -3.1099356083e+00 1.7955221606e+00 3.1099356083e+00 
111700 6.7758806834e+00 1.1807891521e-05 1.7955221606e+00 -3.1099356083e+00 1.7955221606e+00 3.1099356083e+00 
