# step Hamiltonian StressXX CellTensor1 CellTensor2 CellTensor3 CellTensor4 
0 6.6979611714e+00 -3.6732572705e-01 1.8044970380e+00 -3.1254805519e+00 1.8044970380e+00 3.1254805519e+00 
100 6.6781230057e+00 -3.6864054178e-01 1.8044970380e+00 -3.1254805519e+00 1.8044970380e+00 3.1254805519e+00 
200 6.6557263287e+00 -3.5946847750e-01 1.8147211160e+00 -3.1431891745e+00 1.8147211160e+00 3.1431891745e+00 
300 6.6351213824e+00 -3.5065396645e-01 1.8246343109e+00 -3.1603593317e+00 1.8246343109e+00 3.1603593317e+00 
400 6.6162748841e+00 -3.4220467986e-01 1.8342515838e+00 -3.1770169370e+00 1.8342515838e+00 3.1770169370e+00 
500 6.5991417663e+00 -3.3412751723e-01 1.8435876330e+00 -3.1931874486e+00 1.8435876330e+00 3.1931874486e+00 
600 6.5836662074e+00 -3.2642862032e-01 1.8526569036e+00 -3.2088958861e+00 1.8526569036e+00 3.2088958861e+00 
700 6.5697827403e+00 -3.1911336969e-01 1.8614735955e+00 -3.2241668443e+00 1.8614735955e+00 3.2241668443e+00 
800 6.5574174204e+00 -3.1218636478e-01 1.8700516691e+00 -3.2390245037e+00 1.8700516691e+00 3.2390245037e+00 
900 6.5464890288e+00 -3.0565138965e-01 1.8784048494e+00 -3.2534926363e+00 1.8784048494e+00 3.2534926363e+00 
1000 6.5369102951e+00 -2.9951136674e-01 1.8865466267e+00 -3.2675946083e+00 1.8865466267e+00 3.2675946083e+00 
1100 6.5285891192e+00 -2.9376830169e-01 1.8944902557e+00 -3.2813533774e+00 1.8944902557e+00 3.2813533774e+00 
1200 6.5214297770e+00 -2.8842322242e-01 1.9022487506e+00 -3.2947914848e+00 1.9022487506e+00 3.2947914848e+00 
1300 6.5153340947e+00 -2.8347611569e-01 1.9098348784e+00 -3.3079310434e+00 1.9098348784e+00 3.3079310434e+00 
1400 6.5102025774e+00 -2.7892586452e-01 1.9172611486e+00 -3.3207937208e+00 1.9172611486e+00 3.3207937208e+00 
1500 6.5059354807e+00 -2.7477018957e-01 1.9245398016e+00 -3.3334007176e+00 1.9245398016e+00 3.3334007176e+00 
1600 6.5024338149e+00 -2.7100559746e-01 1.9316827930e+00 -3.3457727417e+00 1.9316827930e+00 3.3457727417e+00 
1700 6.4996002722e+00 -2.6762733858e-01 1.9387017774e+00 -3.3579299792e+00 1.9387017774e+00 3.3579299792e+00 
1800 6.4973400717e+00 -2.6462937659e-01 1.9456080892e+00 -3.3698920621e+00 1.9456080892e+00 3.3698920621e+00 
1900 6.4955617151e+00 -2.6200437152e-01 1.9524127228e+00 -3.3816780332e+00 1.9524127228e+00 3.3816780332e+00 
2000 6.4941776514e+00 -2.5974367752e-01 1.9591263117e+00 -3.3933063102e+00 1.9591263117e+00 3.3933063102e+00 
2100 6.4931048469e+00 -2.5783735643e-01 1.9657591067e+00 -3.4047946482e+00 1.9657591067e+00 3.4047946482e+00 
2200 6.4922652622e+00 -2.5627420720e-01 1.9723209546e+00 -3.4161601023e+00 1.9723209546e+00 3.4161601023e+00 
2300 6.4915862352e+00 -2.5504181121e-01 1.9788212769e+00 -3.4274189908e+00 1.9788212769e+00 3.4274189908e+00 
2400 6.4910007746e+00 -2.5412659280e-01 1.9852690495e+00 -3.4385868605e+00 1.9852690495e+00 3.4385868605e+00 
2500 6.4904477661e+00 -2.5351389414e-01 1.9916727836e+00 -3.4496784532e+00 1.9916727836e+00 3.4496784532e+00 
2600 6.4898720970e+00 -2.5318806299e-01 1.9980405083e+00 -3.4607076759e+00 1.9980405083e+00 3.4607076759e+00 
2700 6.4892247033e+00 -2.5313255178e-01 2.0043797555e+00 -3.4716875741e+00 2.0043797555e+00 3.4716875741e+00 
2800 6.4884625476e+00 -2.5333002615e-01 2.0106975463e+00 -3.4826303089e+00 2.0106975463e+00 3.4826303089e+00 
2900 6.4875485325e+00 -2.5376248088e-01 2.0170003813e+00 -3.4935471392e+00 2.0170003813e+00 3.4935471392e+00 
3000 6.4864513573e+00 -2.5441136124e-01 2.0232942317e+00 -3.5044484080e+00 2.0232942317e+00 3.5044484080e+00 
3100 6.4851453255e+00 -2.5525768749e-01 2.0295845356e+00 -3.5153435339e+00 2.0295845356e+00 3.5153435339e+00 
3200 6.4836101100e+00 -2.5628218055e-01 2.0358761950e+00 -3.5262410077e+00 2.0358761950e+00 3.5262410077e+00 
3300 6.4818304824e+00 -2.5746538675e-01 2.0421735777e+00 -3.5371483944e+00 2.0421735777e+00 3.5371483944e+00 
3400 6.4797960149e+00 -2.5878779998e-01 2.0484805204e+00 -3.5480723396e+00 2.0484805204e+00 3.5480723396e+00 
3500 6.4775007588e+00 -2.6022997938e-01 2.0548003361e+00 -3.5590185815e+00 2.0548003361e+00 3.5590185815e+00 
3600 6.4749429087e+00 -2.6177266118e-01 2.0611358233e+00 -3.5699919673e+00 2.0611358233e+00 3.5699919673e+00 
3700 6.4721244555e+00 -2.6339686359e-01 2.0674892781e+00 -3.5809964738e+00 2.0674892781e+00 3.5809964738e+00 
3800 6.4690508343e+00 -2.6508398343e-01 2.0738625084e+00 -3.5920352324e+00 2.0738625084e+00 3.5920352324e+00 
3900 6.4657305721e+00 -2.6681588400e-01 2.0802568502e+00 -3.6031105574e+00 2.0802568502e+00 3.6031105574e+00 
4000 6.4621749389e+00 -2.6857497357e-01 2.0866731866e+00 -3.6142239780e+00 2.0866731866e+00 3.6142239780e+00 
4100 6.4583976056e+00 -2.7034427408e-01 2.0931119668e+00 -3.6253762724e+00 2.0931119668e+00 3.6253762724e+00 
4200 6.4544143114e+00 -2.7210747998e-01 2.0995732280e+00 -3.6365675051e+00 2.0995732280e+00 3.6365675051e+00 
4300 6.4502425450e+00 -2.7384900734e-01 2.1060566175e+00 -3.6477970651e+00 2.1060566175e+00 3.6477970651e+00 
4400 6.4459012380e+00 -2.7555403331e-01 2.1125614158e+00 -3.6590637063e+00 2.1125614158e+00 3.6590637063e+00 
4500 6.4414104762e+00 -2.7720852638e-01 2.1190865605e+00 -3.6703655884e+00 2.1190865605e+00 3.6703655884e+00 
4600 6.4367912264e+00 -2.7879926781e-01 2.1256306700e+00 -3.6817003186e+00 2.1256306700e+00 3.6817003186e+00 
4700 6.4320650817e+00 -2.8031386492e-01 2.1321920683e+00 -3.6930649937e+00 2.1321920683e+00 3.6930649937e+00 
4800 6.4272540250e+00 -2.8174075670e-01 2.1387688082e+00 -3.7044562414e+00 2.1387688082e+00 3.7044562414e+00 
4900 6.4223802106e+00 -2.8306921252e-01 2.1453586957e+00 -3.7158702615e+00 2.1453586957e+00 3.7158702615e+00 
5000 6.4174657640e+00 -2.8428932457e-01 2.1519593133e+00 -3.7273028665e+00 2.1519593133e+00 3.7273028665e+00 
5100 6.4125326004e+00 -2.8539199482e-01 2.1585680422e+00 -3.7387495208e+00 2.1585680422e+00 3.7387495208e+00 
5200 6.4076022601e+00 -2.8636891704e-01 2.1651820848e+00 -3.7502053786e+00 2.1651820848e+00 3.7502053786e+00 
5300 6.4026957611e+00 -2.8721255483e-01 2.1717984856e+00 -3.7616653209e+00 2.1717984856e+00 3.7616653209e+00 
5400 6.3978334680e+00 -2.8791611603e-01 2.1784141513e+00 -3.7731239900e+00 2.1784141513e+00 3.7731239900e+00 
5500 6.3930349771e+00 -2.8847352446e-01 2.1850258703e+00 -3.7845758232e+00 2.1850258703e+00 3.7845758232e+00 
5600 6.3883190149e+00 -2.8887938929e-01 2.1916303307e+00 -3.7960150842e+00 2.1916303307e+00 3.7960150842e+00 
5700 6.3837033518e+00 -2.8912897291e-01 2.1982241375e+00 -3.8074358926e+00 2.1982241375e+00 3.8074358926e+00 
5800 6.3792047282e+00 -2.8921815750e-01 2.2048038284e+00 -3.8188322515e+00 2.2048038284e+00 3.8188322515e+00 
5900 6.3748387926e+00 -2.8914341111e-01 2.2113658890e+00 -3.8301980738e+00 2.2113658890e+00 3.8301980738e+00 
6000 6.3706200511e+00 -2.8890175338e-01 2.2179067663e+00 -3.8415272057e+00 2.2179067663e+00 3.8415272057e+00 
6100 6.3665618274e+00 -2.8849072150e-01 2.2244228818e+00 -3.8528134489e+00 2.2244228818e+00 3.8528134489e+00 
6200 6.3626762321e+00 -2.8790833666e-01 2.2309106429e+00 -3.8640505806e+00 2.2309106429e+00 3.8640505806e+00 
6300 6.3589741411e+00 -2.8715307129e-01 2.2373664534e+00 -3.8752323724e+00 2.2373664534e+00 3.8752323724e+00 
6400 6.3554651814e+00 -2.8622381740e-01 2.2437867237e+00 -3.8863526067e+00 2.2437867237e+00 3.8863526067e+00 
6500 6.3521577247e+00 -2.8511985621e-01 2.2501678791e+00 -3.8974050921e+00 2.2501678791e+00 3.8974050921e+00 
6600 6.3490588876e+00 -2.8384082928e-01 2.2565063678e+00 -3.9083836767e+00 2.2565063678e+00 3.9083836767e+00 
6700 6.3461745372e+00 -2.8238671129e-01 2.2627986682e+00 -3.9192822606e+00 2.2627986682e+00 3.9192822606e+00 
6800 6.3435093028e+00 -2.8075778463e-01 2.2690412947e+00 -3.9300948068e+00 2.2690412947e+00 3.9300948068e+00 
6900 6.3410665921e+00 -2.7895461588e-01 2.2752308035e+00 -3.9408153506e+00 2.2752308035e+00 3.9408153506e+00 
7000 6.3388486121e+00 -2.7697803426e-01 2.2813637977e+00 -3.9514380081e+00 2.2813637977e+00 3.9514380081e+00 
7100 6.3368563933e+00 -2.7482911216e-01 2.2874369313e+00 -3.9619569841e+00 2.2874369313e+00 3.9619569841e+00 
7200 6.3350898185e+00 -2.7250914775e-01 2.2934469132e+00 -3.9723665781e+00 2.2934469132e+00 3.9723665781e+00 
7300 6.3335476541e+00 -2.7001964972e-01 2.2993905105e+00 -3.9826611906e+00 2.2993905105e+00 3.9826611906e+00 
7400 6.3322275849e+00 -2.6736232417e-01 2.3052645513e+00 -3.9928353277e+00 2.3052645513e+00 3.9928353277e+00 
7500 6.3311262511e+00 -2.6453906362e-01 2.3110659274e+00 -4.0028836059e+00 2.3110659274e+00 4.0028836059e+00 
7600 6.3302392882e+00 -2.6155193815e-01 2.3167915967e+00 -4.0128007560e+00 2.3167915967e+00 4.0128007560e+00 
7700 6.3295613694e+00 -2.5840318868e-01 2.3224385847e+00 -4.0225816262e+00 2.3224385847e+00 4.0225816262e+00 
7800 6.3290862501e+00 -2.5509522226e-01 2.3280039871e+00 -4.0322211859e+00 2.3280039871e+00 4.0322211859e+00 
7900 6.3288068140e+00 -2.5163060946e-01 2.3334849710e+00 -4.0417145284e+00 2.3334849710e+00 4.0417145284e+00 
8000 6.3287151223e+00 -2.4801208366e-01 2.3388787766e+00 -4.0510568739e+00 2.3388787766e+00 4.0510568739e+00 
8100 6.3288024642e+00 -2.4424254224e-01 2.3441827192e+00 -4.0602435719e+00 2.3441827192e+00 4.0602435719e+00 
8200 6.3290594094e+00 -2.4032504966e-01 2.3493941902e+00 -4.0692701045e+00 2.3493941902e+00 4.0692701045e+00 
8300 6.3294758630e+00 -2.3626284216e-01 2.3545106594e+00 -4.0781320890e+00 2.3545106594e+00 4.0781320890e+00 
8400 6.3300411222e+00 -2.3205933416e-01 2.3595296762e+00 -4.0868252811e+00 2.3595296762e+00 4.0868252811e+00 
8500 6.3307439346e+00 -2.2771812608e-01 2.3644488721e+00 -4.0953455783e+00 2.3644488721e+00 4.0953455783e+00 
8600 6.3315725595e+00 -2.2324301359e-01 2.3692659621e+00 -4.1036890231e+00 2.3692659621e+00 4.1036890231e+00 
8700 6.3325148303e+00 -2.1863799794e-01 2.3739787478e+00 -4.1118518073e+00 2.3739787478e+00 4.1118518073e+00 
8800 6.3335582195e+00 -2.1390729745e-01 2.3785851189e+00 -4.1198302761e+00 2.3785851189e+00 4.1198302761e+00 
8900 6.3346899056e+00 -2.0905535965e-01 2.3830830569e+00 -4.1276209332e+00 2.3830830569e+00 4.1276209332e+00 
9000 6.3358968423e+00 -2.0408687419e-01 2.3874706373e+00 -4.1352204454e+00 2.3874706373e+00 4.1352204454e+00 
9100 6.3371658295e+00 -1.9900678593e-01 2.3917460336e+00 -4.1426256489e+00 2.3917460336e+00 4.1426256489e+00 
9200 6.3384835862e+00 -1.9382030825e-01 2.3959075201e+00 -4.1498335551e+00 2.3959075201e+00 4.1498335551e+00 
9300 6.3398368253e+00 -1.8853293609e-01 2.3999534766e+00 -4.1568413573e+00 2.3999534766e+00 4.1568413573e+00 
9400 6.3412123303e+00 -1.8315045850e-01 2.4038823919e+00 -4.1636464382e+00 2.4038823919e+00 4.1636464382e+00 
9500 6.3425970333e+00 -1.7767897032e-01 2.4076928686e+00 -4.1702463774e+00 2.4076928686e+00 4.1702463774e+00 
9600 6.3439780938e+00 -1.7212488271e-01 2.4113836276e+00 -4.1766389595e+00 2.4113836276e+00 4.1766389595e+00 
9700 6.3453429788e+00 -1.6649493205e-01 2.4149535133e+00 -4.1828221830e+00 2.4149535133e+00 4.1828221830e+00 
9800 6.3466795436e+00 -1.6079618695e-01 2.4184014986e+00 -4.1887942687e+00 2.4184014986e+00 4.1887942687e+00 
9900 6.3479761114e+00 -1.5503605293e-01 2.4217266904e+00 -4.1945536698e+00 2.4217266904e+00 4.1945536698e+00 
10000 6.3492215538e+00 -1.4922227436e-01 2.4249283350e+00 -4.2000990809e+00 2.4249283350e+00 4.2000990809e+00 
10100 6.3504053684e+00 -1.4336293338e-01 2.4280058237e+00 -4.2054294477e+00 2.4280058237e+00 4.2054294477e+00 
10200 6.3515177559e+00 -1.3746644531e-01 2.4309586986e+00 -4.2105439771e+00 2.4309586986e+00 4.2105439771e+00 
10300 6.3525496933e+00 -1.3154155036e-01 2.4337866582e+00 -4.2154421469e+00 2.4337866582e+00 4.2154421469e+00 
10400 6.3534930038e+00 -1.2559730126e-01 2.4364895629e+00 -4.2201237151e+00 2.4364895629e+00 4.2201237151e+00 
10500 6.3543404226e+00 -1.1964304655e-01 2.4390674402e+00 -4.2245887295e+00 2.4390674402e+00 4.2245887295e+00 
10600 6.3550856563e+00 -1.1368840946e-01 2.4415204900e+00 -4.2288375364e+00 2.4415204900e+00 4.2288375364e+00 
10700 6.3557234362e+00 -1.0774326211e-01 2.4438490894e+00 -4.2328707888e+00 2.4438490894e+00 4.2328707888e+00 
10800 6.3562495647e+00 -1.0181769511e-01 2.4460537968e+00 -4.2366894541e+00 2.4460537968e+00 4.2366894541e+00 
10900 6.3566609516e+00 -9.5921982543e-02 2.4481353561e+00 -4.2402948206e+00 2.4481353561e+00 4.2402948206e+00 
11000 6.3569556428e+00 -9.0066542499e-02 2.4500946997e+00 -4.2436885032e+00 2.4500946997e+00 4.2436885032e+00 
11100 6.3571328375e+00 -8.4261893388e-02 2.4519329510e+00 -4.2468724479e+00 2.4519329510e+00 4.2468724479e+00 
11200 6.3571928942e+00 -7.8518606382e-02 2.4536514264e+00 -4.2498489345e+00 2.4536514264e+00 4.2498489345e+00 
11300 6.3571373259e+00 -7.2847254413e-02 2.4552516360e+00 -4.2526205790e+00 2.4552516360e+00 4.2526205790e+00 
11400 6.3569687822e+00 -6.7258358262e-02 2.4567352841e+00 -4.2551903328e+00 2.4567352841e+00 4.2551903328e+00 
11500 6.3566910185e+00 -6.1762330366e-02 2.4581042676e+00 -4.2575614817e+00 2.4581042676e+00 4.2575614817e+00 
11600 6.3563088534e+00 -5.6369417020e-02 2.4593606746e+00 -4.2597376425e+00 2.4593606746e+00 4.2597376425e+00 
11700 6.3558281125e+00 -5.1089639749e-02 2.4605067812e+00 -4.2617227575e+00 2.4605067812e+00 4.2617227575e+00 
11800 6.3552555600e+00 -4.5932736641e-02 2.4615450476e+00 -4.2635210876e+00 2.4615450476e+00 4.2635210876e+00 
11900 6.3545988189e+00 -4.0908104462e-02 2.4624781128e+00 -4.2651372039e+00 2.4624781128e+00 4.2651372039e+00 
12000 6.3538662790e+00 -3.6024742393e-02 2.4633087883e+00 -4.2665759760e+00 2.4633087883e+00 4.2665759760e+00 
12100 6.3530669960e+00 -3.1291198208e-02 2.4640400511e+00 -4.2678425604e+00 2.4640400511e+00 4.2678425604e+00 
12200 6.3522105815e+00 -2.6715517648e-02 2.4646750355e+00 -4.2689423857e+00 2.4646750355e+00 4.2689423857e+00 
12300 6.3513070849e+00 -2.2305197736e-02 2.4652170238e+00 -4.2698811368e+00 2.4652170238e+00 4.2698811368e+00 
12400 6.3503668710e+00 -1.8067144651e-02 2.4656694358e+00 -4.2706647376e+00 2.4656694358e+00 4.2706647376e+00 
12500 6.3494004925e+00 -1.4007636724e-02 2.4660358189e+00 -4.2712993317e+00 2.4660358189e+00 4.2712993317e+00 
12600 6.3484185612e+00 -1.0132292989e-02 2.4663198356e+00 -4.2717912630e+00 2.4663198356e+00 4.2717912630e+00 
12700 6.3474316197e+00 -6.4460476171e-03 2.4665252517e+00 -4.2721470540e+00 2.4665252517e+00 4.2721470540e+00 
12800 6.3464500141e+00 -2.9531304405e-03 2.4666559234e+00 -4.2723733842e+00 2.4666559234e+00 4.2723733842e+00 
12900 6.3454837718e+00 3.4294635788e-04 2.4667157847e+00 -4.2724770669e+00 2.4667157847e+00 4.2724770669e+00 
13000 6.3445424850e+00 3.4393954139e-03 2.4667088332e+00 -4.2724650266e+00 2.4667088332e+00 4.2724650266e+00 
13100 6.3436352021e+00 6.3341553667e-03 2.4666391173e+00 -4.2723442750e+00 2.4666391173e+00 4.2723442750e+00 
13200 6.3427703284e+00 9.0258863040e-03 2.4665107219e+00 -4.2721218878e+00 2.4665107219e+00 4.2721218878e+00 
13300 6.3419555383e+00 1.1513959807e-02 2.4663277554e+00 -4.2718049805e+00 2.4663277554e+00 4.2718049805e+00 
13400 6.3411976993e+00 1.3798444010e-02 2.4660943360e+00 -4.2714006862e+00 2.4660943360e+00 4.2714006862e+00 
13500 6.3405028096e+00 1.5880084138e-02 2.4658145782e+00 -4.2709161314e+00 2.4658145782e+00 4.2709161314e+00 
13600 6.3398759491e+00 1.7760279044e-02 2.4654925803e+00 -4.2703584148e+00 2.4654925803e+00 4.2703584148e+00 
13700 6.3393212452e+00 1.9441054276e-02 2.4651324120e+00 -4.2697345850e+00 2.4651324120e+00 4.2697345850e+00 
13800 6.3388418534e+00 2.0925032222e-02 2.4647381018e+00 -4.2690516197e+00 2.4647381018e+00 4.2690516197e+00 
13900 6.3384399510e+00 2.2215399868e-02 2.4643136261e+00 -4.2683164062e+00 2.4643136261e+00 4.2683164062e+00 
14000 6.3381167467e+00 2.3315874698e-02 2.4638628977e+00 -4.2675357217e+00 2.4638628977e+00 4.2675357217e+00 
14100 6.3378725016e+00 2.4230669228e-02 2.4633897559e+00 -4.2667162161e+00 2.4633897559e+00 4.2667162161e+00 
14200 6.3377065641e+00 2.4964454624e-02 2.4628979567e+00 -4.2658643949e+00 2.4628979567e+00 4.2658643949e+00 
14300 6.3376174154e+00 2.5522323819e-02 2.4623911635e+00 -4.2649866034e+00 2.4623911635e+00 4.2649866034e+00 
14400 6.3376027255e+00 2.5909754505e-02 2.4618729390e+00 -4.2640890122e+00 2.4618729390e+00 4.2640890122e+00 
14500 6.3376594178e+00 2.6132572303e-02 2.4613467374e+00 -4.2631776042e+00 2.4613467374e+00 4.2631776042e+00 
14600 6.3377837415e+00 2.6196914386e-02 2.4608158973e+00 -4.2622581621e+00 2.4608158973e+00 4.2622581621e+00 
14700 6.3379713492e+00 2.6109193779e-02 2.4602836354e+00 -4.2613362575e+00 2.4602836354e+00 4.2613362575e+00 
14800 6.3382173794e+00 2.5876064517e-02 2.4597530410e+00 -4.2604172410e+00 2.4597530410e+00 4.2604172410e+00 
14900 6.3385165415e+00 2.5504387791e-02 2.4592270707e+00 -4.2595062337e+00 2.4592270707e+00 4.2595062337e+00 
15000 6.3388632024e+00 2.5001199195e-02 2.4587085441e+00 -4.2586081194e+00 2.4587085441e+00 4.2586081194e+00 
15100 6.3392514731e+00 2.4373677147e-02 2.4582001402e+00 -4.2577275381e+00 2.4582001402e+00 4.2577275381e+00 
15200 6.3396752931e+00 2.3629112528e-02 2.4577043942e+00 -4.2568688808e+00 2.4577043942e+00 4.2568688808e+00 
15300 6.3401285137e+00 2.2774879582e-02 2.4572236948e+00 -4.2560362850e+00 2.4572236948e+00 4.2560362850e+00 
15400 6.3406049766e+00 2.1818408074e-02 2.4567602823e+00 -4.2552336310e+00 2.4567602823e+00 4.2552336310e+00 
15500 6.3410985880e+00 2.0767156731e-02 2.4563162473e+00 -4.2544645398e+00 2.4563162473e+00 4.2544645398e+00 
15600 6.3416033877e+00 1.9628587946e-02 2.4558935297e+00 -4.2537323715e+00 2.4558935297e+00 4.2537323715e+00 
15700 6.3421136123e+00 1.8410143745e-02 2.4554939185e+00 -4.2530402244e+00 2.4554939185e+00 4.2530402244e+00 
15800 6.3426237515e+00 1.7119223007e-02 2.4551190514e+00 -4.2523909357e+00 2.4551190514e+00 4.2523909357e+00 
15900 6.3431285975e+00 1.5763159928e-02 2.4547704162e+00 -4.2517870818e+00 2.4547704162e+00 4.2517870818e+00 
16000 6.3436232882e+00 1.4349203720e-02 2.4544493512e+00 -4.2512309810e+00 2.4544493512e+00 4.2512309810e+00 
16100 6.3441033420e+00 1.2884499527e-02 2.4541570470e+00 -4.2507246952e+00 2.4541570470e+00 4.2507246952e+00 
16200 6.3445646865e+00 1.1376070575e-02 2.4538945481e+00 -4.2502700338e+00 2.4538945481e+00 4.2502700338e+00 
16300 6.3450036801e+00 9.8308015247e-03 2.4536627555e+00 -4.2498685572e+00 2.4536627555e+00 4.2498685572e+00 
16400 6.3454171264e+00 8.2554230373e-03 2.4534624291e+00 -4.2495215817e+00 2.4534624291e+00 4.2495215817e+00 
16500 6.3458022825e+00 6.6564975496e-03 2.4532941908e+00 -4.2492301844e+00 2.4532941908e+00 4.2492301844e+00 
16600 6.3461568615e+00 5.0404062460e-03 2.4531585276e+00 -4.2489952088e+00 2.4531585276e+00 4.2489952088e+00 
16700 6.3464790292e+00 3.4133372259e-03 2.4530557953e+00 -4.2488172713e+00 2.4530557953e+00 4.2488172713e+00 
16800 6.3467673959e+00 1.7812748562e-03 2.4529862225e+00 -4.2486967676e+00 2.4529862225e+00 4.2486967676e+00 
16900 6.3470210030e+00 1.4999029692e-04 2.4529499143e+00 -4.2486338799e+00 2.4529499143e+00 4.2486338799e+00 
17000 6.3472393068e+00 -1.4749668164e-03 2.4529468569e+00 -4.2486285845e+00 2.4529468569e+00 4.2486285845e+00 
17100 6.3474221575e+00 -3.0882755528e-03 2.4529769222e+00 -4.2486806590e+00 2.4529769222e+00 4.2486806590e+00 
17200 6.3475697760e+00 -4.6848497533e-03 2.4530398720e+00 -4.2487896913e+00 2.4530398720e+00 4.2487896913e+00 
17300 6.3476827280e+00 -6.2598430151e-03 2.4531353633e+00 -4.2489550871e+00 2.4531353633e+00 4.2489550871e+00 
17400 6.3477618965e+00 -7.8086526261e-03 2.4532629530e+00 -4.2491760790e+00 2.4532629530e+00 4.2491760790e+00 
17500 6.3478084521e+00 -9.3269224884e-03 2.4534221031e+00 -4.2494517349e+00 2.4534221031e+00 4.2494517349e+00 
17600 6.3478238231e+00 -1.0810545074e-02 2.4536121854e+00 -4.2497809671e+00 2.4536121854e+00 4.2497809671e+00 
17700 6.3478096644e+00 -1.2255662458e-02 2.4538324872e+00 -4.2501625412e+00 2.4538324872e+00 4.2501625412e+00 
17800 6.3477678270e+00 -1.3658666484e-02 2.4540822164e+00 -4.2505950847e+00 2.4540822164e+00 4.2505950847e+00 
17900 6.3477003268e+00 -1.5016198103e-02 2.4543605063e+00 -4.2510770969e+00 2.4543605063e+00 4.2510770969e+00 
18000 6.3476093142e+00 -1.6325145961e-02 2.4546664212e+00 -4.2516069571e+00 2.4546664212e+00 4.2516069571e+00 
18100 6.3474970449e+00 -1.7582644274e-02 2.4549989616e+00 -4.2521829340e+00 2.4549989616e+00 4.2521829340e+00 
18200 6.3473658510e+00 -1.8786070053e-02 2.4553570691e+00 -4.2528031944e+00 2.4553570691e+00 4.2528031944e+00 
18300 6.3472181142e+00 -1.9933039746e-02 2.4557396317e+00 -4.2534658123e+00 2.4557396317e+00 4.2534658123e+00 
18400 6.3470562393e+00 -2.1021405347e-02 2.4561454889e+00 -4.2541687775e+00 2.4561454889e+00 4.2541687775e+00 
18500 6.3468826303e+00 -2.2049250030e-02 2.4565734361e+00 -4.2549100039e+00 2.4565734361e+00 4.2549100039e+00 
18600 6.3466996677e+00 -2.3014883364e-02 2.4570222304e+00 -4.2556873384e+00 2.4570222304e+00 4.2556873384e+00 
18700 6.3465096872e+00 -2.3916836175e-02 2.4574905944e+00 -4.2564985686e+00 2.4574905944e+00 4.2564985686e+00 
18800 6.3463149612e+00 -2.4753855082e-02 2.4579772214e+00 -4.2573414313e+00 2.4579772214e+00 4.2573414313e+00 
18900 6.3461176810e+00 -2.5524896784e-02 2.4584807798e+00 -4.2582136200e+00 2.4584807798e+00 4.2582136200e+00 
19000 6.3459199417e+00 -2.6229122128e-02 2.4589999173e+00 -4.2591127926e+00 2.4589999173e+00 4.2591127926e+00 
19100 6.3457237289e+00 -2.6865890006e-02 2.4595332657e+00 -4.2600365790e+00 2.4595332657e+00 4.2600365790e+00 
19200 6.3455309063e+00 -2.7434751118e-02 2.4600794442e+00 -4.2609825880e+00 2.4600794442e+00 4.2609825880e+00 
19300 6.3453432068e+00 -2.7935441646e-02 2.4606370641e+00 -4.2619484140e+00 2.4606370641e+00 4.2619484140e+00 
19400 6.3451622236e+00 -2.8367876864e-02 2.4612047325e+00 -4.2629316445e+00 2.4612047325e+00 4.2629316445e+00 
19500 6.3449894041e+00 -2.8732144715e-02 2.4617810556e+00 -4.2639298654e+00 2.4617810556e+00 4.2639298654e+00 
19600 6.3448260455e+00 -2.9028499385e-02 2.4623646428e+00 -4.2649406681e+00 2.4623646428e+00 4.2649406681e+00 
19700 6.3446732910e+00 -2.9257354892e-02 2.4629541099e+00 -4.2659616550e+00 2.4629541099e+00 4.2659616550e+00 
19800 6.3445321286e+00 -2.9419278712e-02 2.4635480822e+00 -4.2669904452e+00 2.4635480822e+00 4.2669904452e+00 
19900 6.3444033904e+00 -2.9514985453e-02 2.4641451979e+00 -4.2680246800e+00 2.4641451979e+00 4.2680246800e+00 
20000 6.3442877540e+00 -2.9545330603e-02 2.4647441111e+00 -4.2690620281e+00 2.4647441111e+00 4.2690620281e+00 
20100 6.3441857443e+00 -2.9511304343e-02 2.4653434944e+00 -4.2701001904e+00 2.4653434944e+00 4.2701001904e+00 
20200 6.3440977375e+00 -2.9414025446e-02 2.4659420418e+00 -4.2711369048e+00 2.4659420418e+00 4.2711369048e+00 
20300 6.3440239646e+00 -2.9254735258e-02 2.4665384712e+00 -4.2721699510e+00 2.4665384712e+00 4.2721699510e+00 
20400 6.3439645176e+00 -2.9034791774e-02 2.4671315272e+00 -4.2731971541e+00 2.4671315272e+00 4.2731971541e+00 
20500 6.3439193550e+00 -2.8755663797e-02 2.4677199828e+00 -4.2742163890e+00 2.4677199828e+00 4.2742163890e+00 
20600 6.3438883091e+00 -2.8418925182e-02 2.4683026420e+00 -4.2752255844e+00 2.4683026420e+00 4.2752255844e+00 
20700 6.3438710936e+00 -2.8026249167e-02 2.4688783418e+00 -4.2762227258e+00 2.4688783418e+00 4.2762227258e+00 
20800 6.3438673112e+00 -2.7579402779e-02 2.4694459543e+00 -4.2772058594e+00 2.4694459543e+00 4.2772058594e+00 
20900 6.3438764631e+00 -2.7080241311e-02 2.4700043881e+00 -4.2781730951e+00 2.4700043881e+00 4.2781730951e+00 
21000 6.3438979573e+00 -2.6530702867e-02 2.4705525904e+00 -4.2791226094e+00 2.4705525904e+00 4.2791226094e+00 
21100 6.3439311181e+00 -2.5932802959e-02 2.4710895485e+00 -4.2800526481e+00 2.4710895485e+00 4.2800526481e+00 
21200 6.3439751961e+00 -2.5288629153e-02 2.4716142911e+00 -4.2809615290e+00 2.4716142911e+00 4.2809615290e+00 
21300 6.3440293770e+00 -2.4600335760e-02 2.4721258900e+00 -4.2818476442e+00 2.4721258900e+00 4.2818476442e+00 
21400 6.3440927925e+00 -2.3870138551e-02 2.4726234610e+00 -4.2827094624e+00 2.4726234610e+00 4.2827094624e+00 
21500 6.3441645292e+00 -2.3100309502e-02 2.4731061652e+00 -4.2835455306e+00 2.4731061652e+00 4.2835455306e+00 
21600 6.3442436387e+00 -2.2293171544e-02 2.4735732102e+00 -4.2843544762e+00 2.4735732102e+00 4.2843544762e+00 
21700 6.3443291472e+00 -2.1451093330e-02 2.4740238507e+00 -4.2851350086e+00 2.4740238507e+00 4.2851350086e+00 
21800 6.3444200648e+00 -2.0576483994e-02 2.4744573898e+00 -4.2858859203e+00 2.4744573898e+00 4.2858859203e+00 
21900 6.3445153947e+00 -1.9671787913e-02 2.4748731791e+00 -4.2866060885e+00 2.4748731791e+00 4.2866060885e+00 
22000 6.3446141419e+00 -1.8739479445e-02 2.4752706200e+00 -4.2872944763e+00 2.4752706200e+00 4.2872944763e+00 
22100 6.3447153221e+00 -1.7782057671e-02 2.4756491636e+00 -4.2879501330e+00 2.4756491636e+00 4.2879501330e+00 
22200 6.3448179690e+00 -1.6802041099e-02 2.4760083115e+00 -4.2885721956e+00 2.4760083115e+00 4.2885721956e+00 
22300 6.3449211427e+00 -1.5801962367e-02 2.4763476162e+00 -4.2891598885e+00 2.4763476162e+00 4.2891598885e+00 
22400 6.3450239363e+00 -1.4784362919e-02 2.4766666809e+00 -4.2897125248e+00 2.4766666809e+00 4.2897125248e+00 
22500 6.3451254825e+00 -1.3751787670e-02 2.4769651599e+00 -4.2902295056e+00 2.4769651599e+00 4.2902295056e+00 
22600 6.3452249598e+00 -1.2706779653e-02 2.4772427586e+00 -4.2907103206e+00 2.4772427586e+00 4.2907103206e+00 
22700 6.3453215980e+00 -1.1651874667e-02 2.4774992332e+00 -4.2911545477e+00 2.4774992332e+00 4.2911545477e+00 
22800 6.3454146825e+00 -1.0589595916e-02 2.4777343909e+00 -4.2915618527e+00 2.4777343909e+00 4.2915618527e+00 
22900 6.3455035588e+00 -9.5224486615e-03 2.4779480891e+00 -4.2919319889e+00 2.4779480891e+00 4.2919319889e+00 
23000 6.3455876362e+00 -8.4529148922e-03 2.4781402354e+00 -4.2922647960e+00 2.4781402354e+00 4.2922647960e+00 
23100 6.3456663900e+00 -7.3834480196e-03 2.4783107870e+00 -4.2925601999e+00 2.4783107870e+00 4.2925601999e+00 
23200 6.3457393646e+00 -6.3164676180e-03 2.4784597497e+00 -4.2928182111e+00 2.4784597497e+00 4.2928182111e+00 
23300 6.3458061739e+00 -5.2543542193e-03 2.4785871781e+00 -4.2930389235e+00 2.4785871781e+00 4.2930389235e+00 
23400 6.3458665033e+00 -4.1994441785e-03 2.4786931738e+00 -4.2932225134e+00 2.4786931738e+00 4.2932225134e+00 
23500 6.3459201089e+00 -3.1540246257e-03 2.4787778852e+00 -4.2933692378e+00 2.4787778852e+00 4.2933692378e+00 
23600 6.3459668178e+00 -2.1203285220e-03 2.4788415060e+00 -4.2934794323e+00 2.4788415060e+00 4.2934794323e+00 
23700 6.3460065268e+00 -1.1005298372e-03 2.4788842746e+00 -4.2935535098e+00 2.4788842746e+00 4.2935535098e+00 
23800 6.3460392006e+00 -9.6738865723e-05 2.4789064728e+00 -4.2935919580e+00 2.4789064728e+00 4.2935919580e+00 
23900 6.3460648702e+00 8.8900229890e-04 2.4789084240e+00 -4.2935953377e+00 2.4789084240e+00 4.2935953377e+00 
24000 6.3460836294e+00 1.8547241139e-03 2.4788904927e+00 -4.2935642798e+00 2.4788904927e+00 4.2935642798e+00 
24100 6.3460956323e+00 2.7985337432e-03 2.4788530824e+00 -4.2934994833e+00 2.4788530824e+00 4.2934994833e+00 
24200 6.3461010893e+00 3.7186190007e-03 2.4787966345e+00 -4.2934017126e+00 2.4787966345e+00 4.2934017126e+00 
24300 6.3461002633e+00 4.6132520648e-03 2.4787216263e+00 -4.2932717946e+00 2.4787216263e+00 4.2932717946e+00 
24400 6.3460934651e+00 5.4807929466e-03 2.4786285698e+00 -4.2931106160e+00 2.4786285698e+00 4.2931106160e+00 
24500 6.3460810489e+00 6.3196926973e-03 2.4785180096e+00 -4.2929191202e+00 2.4785180096e+00 4.2929191202e+00 
24600 6.3460634073e+00 7.1284963386e-03 2.4783905214e+00 -4.2926983040e+00 2.4783905214e+00 4.2926983040e+00 
24700 6.3460409661e+00 7.9058455054e-03 2.4782467098e+00 -4.2924492150e+00 2.4782467098e+00 4.2924492150e+00 
24800 6.3460141793e+00 8.6504807870e-03 2.4780872067e+00 -4.2921729475e+00 2.4780872067e+00 4.2921729475e+00 
24900 6.3459835233e+00 9.3612437579e-03 2.4779126692e+00 -4.2918706398e+00 2.4779126692e+00 4.2918706398e+00 
25000 6.3459494918e+00 1.0037078689e-02 2.4777237779e+00 -4.2915434704e+00 2.4777237779e+00 4.2915434704e+00 
25100 6.3459125904e+00 1.0677033934e-02 2.4775212343e+00 -4.2911926546e+00 2.4775212343e+00 4.2911926546e+00 
25200 6.3458733313e+00 1.1280262984e-02 2.4773057593e+00 -4.2908194409e+00 2.4773057593e+00 4.2908194409e+00 
25300 6.3458322279e+00 1.1846025189e-02 2.4770780908e+00 -4.2904251075e+00 2.4770780908e+00 4.2904251075e+00 
25400 6.3457897899e+00 1.2373686147e-02 2.4768389817e+00 -4.2900109585e+00 2.4768389817e+00 4.2900109585e+00 
25500 6.3457465188e+00 1.2862717757e-02 2.4765891981e+00 -4.2895783205e+00 2.4765891981e+00 4.2895783205e+00 
25600 6.3457029026e+00 1.3312697940e-02 2.4763295165e+00 -4.2891285388e+00 2.4763295165e+00 4.2891285388e+00 
25700 6.3456594122e+00 1.3723310040e-02 2.4760607223e+00 -4.2886629737e+00 2.4760607223e+00 4.2886629737e+00 
25800 6.3456164973e+00 1.4094341900e-02 2.4757836077e+00 -4.2881829970e+00 2.4757836077e+00 4.2881829970e+00 
25900 6.3455745827e+00 1.4425684624e-02 2.4754989691e+00 -4.2876899885e+00 2.4754989691e+00 4.2876899885e+00 
26000 6.3455340649e+00 1.4717331046e-02 2.4752076056e+00 -4.2871853321e+00 2.4752076056e+00 4.2871853321e+00 
26100 6.3454953097e+00 1.4969373901e-02 2.4749103166e+00 -4.2866704126e+00 2.4749103166e+00 4.2866704126e+00 
26200 6.3454586498e+00 1.5182003715e-02 2.4746079002e+00 -4.2861466120e+00 2.4746079002e+00 4.2861466120e+00 
26300 6.3454243824e+00 1.5355506437e-02 2.4743011508e+00 -4.2856153065e+00 2.4743011508e+00 4.2856153065e+00 
26400 6.3453927680e+00 1.5490260816e-02 2.4739908575e+00 -4.2850778626e+00 2.4739908575e+00 4.2850778626e+00 
26500 6.3453640293e+00 1.5586735544e-02 2.4736778018e+00 -4.2845356344e+00 2.4736778018e+00 4.2845356344e+00 
26600 6.3453383504e+00 1.5645486178e-02 2.4733627567e+00 -4.2839899601e+00 2.4733627567e+00 4.2839899601e+00 
26700 6.3453158767e+00 1.5667151864e-02 2.4730464838e+00 -4.2834421594e+00 2.4730464838e+00 4.2834421594e+00 
26800 6.3452967149e+00 1.5652451873e-02 2.4727297324e+00 -4.2828935299e+00 2.4727297324e+00 4.2828935299e+00 
26900 6.3452809336e+00 1.5602181969e-02 2.4724132377e+00 -4.2823453450e+00 2.4724132377e+00 4.2823453450e+00 
27000 6.3452685643e+00 1.5517210635e-02 2.4720977190e+00 -4.2817988506e+00 2.4720977190e+00 4.2817988506e+00 
27100 6.3452596026e+00 1.5398475155e-02 2.4717838786e+00 -4.2812552631e+00 2.4717838786e+00 4.2812552631e+00 
27200 6.3452540095e+00 1.5246977597e-02 2.4714724001e+00 -4.2807157665e+00 2.4714724001e+00 4.2807157665e+00 
27300 6.3452517140e+00 1.5063780685e-02 2.4711639471e+00 -4.2801815103e+00 2.4711639471e+00 4.2801815103e+00 
27400 6.3452526143e+00 1.4850003609e-02 2.4708591622e+00 -4.2796536073e+00 2.4708591622e+00 4.2796536073e+00 
27500 6.3452565808e+00 1.4606817756e-02 2.4705586655e+00 -4.2791331317e+00 2.4705586655e+00 4.2791331317e+00 
27600 6.3452634584e+00 1.4335442413e-02 2.4702630536e+00 -4.2786211170e+00 2.4702630536e+00 4.2786211170e+00 
27700 6.3452730692e+00 1.4037140426e-02 2.4699728991e+00 -4.2781185545e+00 2.4699728991e+00 4.2781185545e+00 
27800 6.3452852153e+00 1.3713213861e-02 2.4696887488e+00 -4.2776263918e+00 2.4696887488e+00 4.2776263918e+00 
27900 6.3452996818e+00 1.3364999651e-02 2.4694111236e+00 -4.2771455308e+00 2.4694111236e+00 4.2771455308e+00 
28000 6.3453162393e+00 1.2993865271e-02 2.4691405174e+00 -4.2766768272e+00 2.4691405174e+00 4.2766768272e+00 
28100 6.3453346476e+00 1.2601204439e-02 2.4688773969e+00 -4.2762210890e+00 2.4688773969e+00 4.2762210890e+00 
28200 6.3453546580e+00 1.2188432858e-02 2.4686222002e+00 -4.2757790754e+00 2.4686222002e+00 4.2757790754e+00 
28300 6.3453760165e+00 1.1756984013e-02 2.4683753372e+00 -4.2753514961e+00 2.4683753372e+00 4.2753514961e+00 
28400 6.3453984663e+00 1.1308305037e-02 2.4681371887e+00 -4.2749390109e+00 2.4681371887e+00 4.2749390109e+00 
28500 6.3454217511e+00 1.0843852649e-02 2.4679081064e+00 -4.2745422287e+00 2.4679081064e+00 4.2745422287e+00 
28600 6.3454456170e+00 1.0365089183e-02 2.4676884124e+00 -4.2741617076e+00 2.4676884124e+00 4.2741617076e+00 
28700 6.3454698155e+00 9.8734787113e-03 2.4674783992e+00 -4.2737979541e+00 2.4674783992e+00 4.2737979541e+00 
28800 6.3454941053e+00 9.3704832683e-03 2.4672783297e+00 -4.2734514235e+00 2.4672783297e+00 4.2734514235e+00 
28900 6.3455182549e+00 8.8575591939e-03 2.4670884370e+00 -4.2731225197e+00 2.4670884370e+00 4.2731225197e+00 
29000 6.3455420439e+00 8.3361535889e-03 2.4669089248e+00 -4.2728115953e+00 2.4669089248e+00 4.2728115953e+00 
29100 6.3455652653e+00 7.8077008983e-03 2.4667399672e+00 -4.2725189522e+00 2.4667399672e+00 4.2725189522e+00 
29200 6.3455877266e+00 7.2736196250e-03 2.4665817094e+00 -4.2722448417e+00 2.4665817094e+00 4.2722448417e+00 
29300 6.3456092510e+00 6.7353091786e-03 2.4664342675e+00 -4.2719894649e+00 2.4664342675e+00 4.2719894649e+00 
29400 6.3456296788e+00 6.1941468644e-03 2.4662977294e+00 -4.2717529739e+00 2.4662977294e+00 4.2717529739e+00 
29500 6.3456488680e+00 5.6514850154e-03 2.4661721546e+00 -4.2715354721e+00 2.4661721546e+00 4.2715354721e+00 
29600 6.3456666947e+00 5.1086482706e-03 2.4660575754e+00 -4.2713370150e+00 2.4660575754e+00 4.2713370150e+00 
29700 6.3456830540e+00 4.5669310026e-03 2.4659539969e+00 -4.2711576118e+00 2.4659539969e+00 4.2711576118e+00 
29800 6.3456978596e+00 4.0275948949e-03 2.4658613978e+00 -4.2709972254e+00 2.4658613978e+00 4.2709972254e+00 
29900 6.3457110444e+00 3.4918666717e-03 2.4657797312e+00 -4.2708557746e+00 2.4657797312e+00 4.2708557746e+00 
30000 6.3457225595e+00 2.9609359806e-03 2.4657089249e+00 -4.2707331347e+00 2.4657089249e+00 4.2707331347e+00 
30100 6.3457323748e+00 2.4359534272e-03 2.4656488829e+00 -4.2706291388e+00 2.4656488829e+00 4.2706291388e+00 
30200 6.3457404777e+00 1.9180287635e-03 2.4655994853e+00 -4.2705435796e+00 2.4655994853e+00 4.2705435796e+00 
30300 6.3457468725e+00 1.4082292286e-03 2.4655605896e+00 -4.2704762103e+00 2.4655605896e+00 4.2704762103e+00 
30400 6.3457515800e+00 9.0757803932e-04 2.4655320316e+00 -4.2704267465e+00 2.4655320316e+00 4.2704267465e+00 
30500 6.3457546362e+00 4.1705303212e-04 2.4655136263e+00 -4.2703948676e+00 2.4655136263e+00 4.2703948676e+00 
30600 6.3457560913e+00 -6.2414547998e-05 2.4655051686e+00 -4.2703802184e+00 2.4655051686e+00 4.2703802184e+00 
30700 6.3457560095e+00 -5.3043310130e-04 2.4655051686e+00 -4.2703802184e+00 2.4655051686e+00 4.2703802184e+00 
30800 6.3457544649e+00 -9.8519110102e-04 2.4655159257e+00 -4.2703988502e+00 2.4655159257e+00 4.2703988502e+00 
30900 6.3457515433e+00 -1.4263875549e-03 2.4655359051e+00 -4.2704334556e+00 2.4655359051e+00 4.2704334556e+00 
31000 6.3457473397e+00 -1.8532867914e-03 2.4655648317e+00 -4.2704835579e+00 2.4655648317e+00 4.2704835579e+00 
31100 6.3457419571e+00 -2.2652036469e-03 2.4656024152e+00 -4.2705486544e+00 2.4656024152e+00 4.2705486544e+00 
31200 6.3457355050e+00 -2.6615038416e-03 2.4656483515e+00 -4.2706282184e+00 2.4656483515e+00 4.2706282184e+00 
31300 6.3457280983e+00 -3.0416042289e-03 2.4657023234e+00 -4.2707217004e+00 2.4657023234e+00 4.2707217004e+00 
31400 6.3457198557e+00 -3.4049729195e-03 2.4657640019e+00 -4.2708285307e+00 2.4657640019e+00 4.2708285307e+00 
31500 6.3457108983e+00 -3.7511292854e-03 2.4658330472e+00 -4.2709481207e+00 2.4658330472e+00 4.2709481207e+00 
31600 6.3457013489e+00 -4.0796438478e-03 2.4659091097e+00 -4.2710798648e+00 2.4659091097e+00 4.2710798648e+00 
31700 6.3456913300e+00 -4.3901380525e-03 2.4659918310e+00 -4.2712231424e+00 2.4659918310e+00 4.2712231424e+00 
31800 6.3456809634e+00 -4.6822839367e-03 2.4660808452e+00 -4.2713773195e+00 2.4660808452e+00 4.2713773195e+00 
31900 6.3456703684e+00 -4.9558036919e-03 2.4661757795e+00 -4.2715417505e+00 2.4661757795e+00 4.2715417505e+00 
32000 6.3456596611e+00 -5.2104691273e-03 2.4662762557e+00 -4.2717157803e+00 2.4662762557e+00 4.2717157803e+00 
32100 6.3456489537e+00 -5.4461010361e-03 2.4663818908e+00 -4.2718987457e+00 2.4663818908e+00 4.2718987457e+00 
32200 6.3456383530e+00 -5.6625684719e-03 2.4664922983e+00 -4.2720899771e+00 2.4664922983e+00 4.2720899771e+00 
32300 6.3456279602e+00 -5.8597879363e-03 2.4666070891e+00 -4.2722888006e+00 2.4666070891e+00 4.2722888006e+00 
32400 6.3456178699e+00 -6.0377224841e-03 2.4667258724e+00 -4.2724945393e+00 2.4667258724e+00 4.2724945393e+00 
32500 6.3456081697e+00 -6.1963807493e-03 2.4668482567e+00 -4.2727065152e+00 2.4668482567e+00 4.2727065152e+00 
32600 6.3455989394e+00 -6.3358158960e-03 2.4669738509e+00 -4.2729240506e+00 2.4669738509e+00 4.2729240506e+00 
32700 6.3455902510e+00 -6.4561244987e-03 2.4671022647e+00 -4.2731464699e+00 2.4671022647e+00 4.2731464699e+00 
32800 6.3455821680e+00 -6.5574453557e-03 2.4672331101e+00 -4.2733731008e+00 2.4672331101e+00 4.2733731008e+00 
32900 6.3455747453e+00 -6.6399582395e-03 2.4673660020e+00 -4.2736032763e+00 2.4673660020e+00 4.2736032763e+00 
33000 6.3455680294e+00 -6.7038825885e-03 2.4675005588e+00 -4.2738363356e+00 2.4675005588e+00 4.2738363356e+00 
33100 6.3455620577e+00 -6.7494761438e-03 2.4676364036e+00 -4.2740716257e+00 2.4676364036e+00 4.2740716257e+00 
33200 6.3455568591e+00 -6.7770335349e-03 2.4677731648e+00 -4.2743085031e+00 2.4677731648e+00 4.2743085031e+00 
33300 6.3455524539e+00 -6.7868848172e-03 2.4679104768e+00 -4.2745463344e+00 2.4679104768e+00 4.2745463344e+00 
33400 6.3455488540e+00 -6.7793939672e-03 2.4680479808e+00 -4.2747844982e+00 2.4680479808e+00 4.2747844982e+00 
33500 6.3455460633e+00 -6.7549573366e-03 2.4681853253e+00 -4.2750223859e+00 2.4681853253e+00 4.2750223859e+00 
33600 6.3455440776e+00 -6.7140020708e-03 2.4683221671e+00 -4.2752594029e+00 2.4683221671e+00 4.2752594029e+00 
33700 6.3455428855e+00 -6.6569844941e-03 2.4684581717e+00 -4.2754949697e+00 2.4684581717e+00 4.2754949697e+00 
33800 6.3455424685e+00 -6.5843884665e-03 2.4685930139e+00 -4.2757285232e+00 2.4685930139e+00 4.2757285232e+00 
33900 6.3455428018e+00 -6.4967237141e-03 2.4687263783e+00 -4.2759595171e+00 2.4687263783e+00 4.2759595171e+00 
34000 6.3455438544e+00 -6.3945241379e-03 2.4688579599e+00 -4.2761874232e+00 2.4688579599e+00 4.2761874232e+00 
34100 6.3455455899e+00 -6.2783461038e-03 2.4689874647e+00 -4.2764117321e+00 2.4689874647e+00 4.2764117321e+00 
34200 6.3455479670e+00 -6.1487667176e-03 2.4691146100e+00 -4.2766319542e+00 2.4691146100e+00 4.2766319542e+00 
34300 6.3455509404e+00 -6.0063820878e-03 2.4692391246e+00 -4.2768476198e+00 2.4692391246e+00 4.2768476198e+00 
34400 6.3455544608e+00 -5.8518055809e-03 2.4693607497e+00 -4.2770582808e+00 2.4693607497e+00 4.2770582808e+00 
34500 6.3455584761e+00 -5.6856660706e-03 2.4694792390e+00 -4.2772635101e+00 2.4694792390e+00 4.2772635101e+00 
34600 6.3455629316e+00 -5.5086061869e-03 2.4695943586e+00 -4.2774629031e+00 2.4695943586e+00 4.2774629031e+00 
34700 6.3455677711e+00 -5.3212805657e-03 2.4697058880e+00 -4.2776560777e+00 2.4697058880e+00 4.2776560777e+00 
34800 6.3455729370e+00 -5.1243541045e-03 2.4698136198e+00 -4.2778426748e+00 2.4698136198e+00 4.2778426748e+00 
34900 6.3455783710e+00 -4.9185002262e-03 2.4699173602e+00 -4.2780223584e+00 2.4699173602e+00 4.2780223584e+00 
35000 6.3455840149e+00 -4.7043991548e-03 2.4700169290e+00 -4.2781948166e+00 2.4700169290e+00 4.2781948166e+00 
35100 6.3455898112e+00 -4.4827362067e-03 2.4701121597e+00 -4.2783597611e+00 2.4701121597e+00 4.2783597611e+00 
35200 6.3455957030e+00 -4.2542000999e-03 2.4702028998e+00 -4.2785169275e+00 2.4702028998e+00 4.2785169275e+00 
35300 6.3456016354e+00 -4.0194812852e-03 2.4702890107e+00 -4.2786660758e+00 2.4702890107e+00 4.2786660758e+00 
35400 6.3456075552e+00 -3.7792703021e-03 2.4703703676e+00 -4.2788069902e+00 2.4703703676e+00 4.2788069902e+00 
35500 6.3456134115e+00 -3.5342561633e-03 2.4704468600e+00 -4.2789394789e+00 2.4704468600e+00 4.2789394789e+00 
35600 6.3456191565e+00 -3.2851247701e-03 2.4705183910e+00 -4.2790633743e+00 2.4705183910e+00 4.2790633743e+00 
35700 6.3456247452e+00 -3.0325573618e-03 2.4705848779e+00 -4.2791785329e+00 2.4705848779e+00 4.2791785329e+00 
35800 6.3456301360e+00 -2.7772290030e-03 2.4706462514e+00 -4.2792848349e+00 2.4706462514e+00 4.2792848349e+00 
35900 6.3456352912e+00 -2.5198071111e-03 2.4707024561e+00 -4.2793821844e+00 2.4707024561e+00 4.2793821844e+00 
36000 6.3456401767e+00 -2.2609500264e-03 2.4707534500e+00 -4.2794705084e+00 2.4707534500e+00 4.2794705084e+00 
36100 6.3456447624e+00 -2.0013056289e-03 2.4707992044e+00 -4.2795497574e+00 2.4707992044e+00 4.2795497574e+00 
36200 6.3456490223e+00 -1.7415100026e-03 2.4708397037e+00 -4.2796199042e+00 2.4708397037e+00 4.2796199042e+00 
36300 6.3456529347e+00 -1.4821861521e-03 2.4708749450e+00 -4.2796809439e+00 2.4708749450e+00 4.2796809439e+00 
36400 6.3456564819e+00 -1.2239427719e-03 2.4709049382e+00 -4.2797328937e+00 2.4709049382e+00 4.2797328937e+00 
36500 6.3456596506e+00 -9.6737307150e-04 2.4709297054e+00 -4.2797757916e+00 2.4709297054e+00 4.2797757916e+00 
36600 6.3456624315e+00 -7.1305365909e-04 2.4709492805e+00 -4.2798096967e+00 2.4709492805e+00 4.2798096967e+00 
36700 6.3456648193e+00 -4.6154348474e-04 2.4709637092e+00 -4.2798346881e+00 2.4709637092e+00 4.2798346881e+00 
36800 6.3456668127e+00 -2.1338284548e-04 2.4709730486e+00 -4.2798508643e+00 2.4709730486e+00 4.2798508643e+00 
36900 6.3456684141e+00 3.0907546048e-05 2.4709773664e+00 -4.2798583429e+00 2.4709773664e+00 4.2798583429e+00 
37000 6.3456696298e+00 2.7106940583e-04 2.4709773664e+00 -4.2798583429e+00 2.4709773664e+00 4.2798583429e+00 
37100 6.3456704687e+00 5.0614363902e-04 2.4709718813e+00 -4.2798488425e+00 2.4709718813e+00 4.2798488425e+00 
37200 6.3456709435e+00 7.3591139651e-04 2.4709616395e+00 -4.2798311032e+00 2.4709616395e+00 4.2798311032e+00 
37300 6.3456710694e+00 9.5993828890e-04 2.4709467483e+00 -4.2798053109e+00 2.4709467483e+00 4.2798053109e+00 
37400 6.3456708644e+00 1.1778131698e-03 2.4709273239e+00 -4.2797716668e+00 2.4709273239e+00 4.2797716668e+00 
37500 6.3456703487e+00 1.3891486614e-03 2.4709034905e+00 -4.2797303861e+00 2.4709034905e+00 4.2797303861e+00 
37600 6.3456695445e+00 1.5935816109e-03 2.4708753804e+00 -4.2796816980e+00 2.4708753804e+00 4.2796816980e+00 
37700 6.3456684759e+00 1.7907734759e-03 2.4708431332e+00 -4.2796258442e+00 2.4708431332e+00 4.2796258442e+00 
37800 6.3456671681e+00 1.9804106408e-03 2.4708068951e+00 -4.2795630781e+00 2.4708068951e+00 4.2795630781e+00 
37900 6.3456656477e+00 2.1622046632e-03 2.4707668191e+00 -4.2794936643e+00 2.4707668191e+00 4.2794936643e+00 
38000 6.3456639419e+00 2.3358924518e-03 2.4707230635e+00 -4.2794178773e+00 2.4707230635e+00 4.2794178773e+00 
38100 6.3456620785e+00 2.5012363751e-03 2.4706757922e+00 -4.2793360011e+00 2.4706757922e+00 4.2793360011e+00 
38200 6.3456600855e+00 2.6580243032e-03 2.4706251739e+00 -4.2792483276e+00 2.4706251739e+00 4.2792483276e+00 
38300 6.3456579908e+00 2.8060695841e-03 2.4705713815e+00 -4.2791551565e+00 2.4705713815e+00 4.2791551565e+00 
38400 6.3456558219e+00 2.9452109533e-03 2.4705145919e+00 -4.2790567939e+00 2.4705145919e+00 4.2790567939e+00 
38500 6.3456536058e+00 3.0753123816e-03 2.4704549849e+00 -4.2789535516e+00 2.4704549849e+00 4.2789535516e+00 
38600 6.3456513687e+00 3.1962628599e-03 2.4703927433e+00 -4.2788457460e+00 2.4703927433e+00 4.2788457460e+00 
38700 6.3456491357e+00 3.3079761249e-03 2.4703280522e+00 -4.2787336977e+00 2.4703280522e+00 4.2787336977e+00 
38800 6.3456469306e+00 3.4103903259e-03 2.4702610983e+00 -4.2786177302e+00 2.4702610983e+00 4.2786177302e+00 
38900 6.3456447761e+00 3.5034676361e-03 2.4701920697e+00 -4.2784981691e+00 2.4701920697e+00 4.2784981691e+00 
39000 6.3456426928e+00 3.5871938106e-03 2.4701211551e+00 -4.2783753415e+00 2.4701211551e+00 4.2783753415e+00 
39100 6.3456407001e+00 3.6615776921e-03 2.4700485438e+00 -4.2782495750e+00 2.4700485438e+00 4.2782495750e+00 
39200 6.3456388153e+00 3.7266506689e-03 2.4699744246e+00 -4.2781211968e+00 2.4699744246e+00 4.2781211968e+00 
39300 6.3456370539e+00 3.7824660855e-03 2.4698989859e+00 -4.2779905332e+00 2.4698989859e+00 4.2779905332e+00 
39400 6.3456354295e+00 3.8290986110e-03 2.4698224151e+00 -4.2778579086e+00 2.4698224151e+00 4.2778579086e+00 
39500 6.3456339535e+00 3.8666435649e-03 2.4697448978e+00 -4.2777236447e+00 2.4697448978e+00 4.2777236447e+00 
39600 6.3456326355e+00 3.8952162069e-03 2.4696666180e+00 -4.2775880601e+00 2.4696666180e+00 4.2775880601e+00 
39700 6.3456314828e+00 3.9149509898e-03 2.4695877572e+00 -4.2774514693e+00 2.4695877572e+00 4.2774514693e+00 
39800 6.3456305011e+00 3.9260007808e-03 2.4695084944e+00 -4.2773141820e+00 2.4695084944e+00 4.2773141820e+00 
39900 6.3456296936e+00 3.9285360538e-03 2.4694290053e+00 -4.2771765029e+00 2.4694290053e+00 4.2771765029e+00 
40000 6.3456290622e+00 3.9227440549e-03 2.4693494623e+00 -4.2770387304e+00 2.4693494623e+00 4.2770387304e+00 
40100 6.3456286063e+00 3.9088279440e-03 2.4692700341e+00 -4.2769011566e+00 2.4692700341e+00 4.2769011566e+00 
40200 6.3456283241e+00 3.8870059169e-03 2.4691908850e+00 -4.2767640664e+00 2.4691908850e+00 4.2767640664e+00 
40300 6.3456282119e+00 3.8575103090e-03 2.4691121753e+00 -4.2766277372e+00 2.4691121753e+00 4.2766277372e+00 
40400 6.3456282645e+00 3.8205866843e-03 2.4690340604e+00 -4.2764924382e+00 2.4690340604e+00 4.2764924382e+00 
40500 6.3456284752e+00 3.7764929131e-03 2.4689566907e+00 -4.2763584300e+00 2.4689566907e+00 4.2763584300e+00 
40600 6.3456288361e+00 3.7254982401e-03 2.4688802116e+00 -4.2762259643e+00 2.4688802116e+00 4.2762259643e+00 
40700 6.3456293381e+00 3.6678823465e-03 2.4688047628e+00 -4.2760952832e+00 2.4688047628e+00 4.2760952832e+00 
40800 6.3456299713e+00 3.6039344084e-03 2.4687304786e+00 -4.2759666192e+00 2.4687304786e+00 4.2759666192e+00 
40900 6.3456307246e+00 3.5339521544e-03 2.4686574873e+00 -4.2758401946e+00 2.4686574873e+00 4.2758401946e+00 
41000 6.3456315864e+00 3.4582409246e-03 2.4685859113e+00 -4.2757162212e+00 2.4685859113e+00 4.2757162212e+00 
41100 6.3456325444e+00 3.3771127336e-03 2.4685158666e+00 -4.2755949003e+00 2.4685158666e+00 4.2755949003e+00 
41200 6.3456335861e+00 3.2908853408e-03 2.4684474632e+00 -4.2754764222e+00 2.4684474632e+00 4.2754764222e+00 
41300 6.3456346986e+00 3.1998813280e-03 2.4683808045e+00 -4.2753609659e+00 2.4683808045e+00 4.2753609659e+00 
41400 6.3456358688e+00 3.1044271894e-03 2.4683159874e+00 -4.2752486993e+00 2.4683159874e+00 4.2752486993e+00 
41500 6.3456370836e+00 3.0048524339e-03 2.4682531021e+00 -4.2751397788e+00 2.4682531021e+00 4.2751397788e+00 
41600 6.3456383302e+00 2.9014887025e-03 2.4681922324e+00 -4.2750343493e+00 2.4681922324e+00 4.2750343493e+00 
41700 6.3456395959e+00 2.7946689029e-03 2.4681334550e+00 -4.2749325439e+00 2.4681334550e+00 4.2749325439e+00 
41800 6.3456408685e+00 2.6847263630e-03 2.4680768402e+00 -4.2748344842e+00 2.4680768402e+00 4.2748344842e+00 
41900 6.3456421359e+00 2.5719940043e-03 2.4680224513e+00 -4.2747402800e+00 2.4680224513e+00 4.2747402800e+00 
42000 6.3456433871e+00 2.4568035375e-03 2.4679703452e+00 -4.2746500294e+00 2.4679703452e+00 4.2746500294e+00 
42100 6.3456446115e+00 2.3394846822e-03 2.4679205716e+00 -4.2745638190e+00 2.4679205716e+00 4.2745638190e+00 
42200 6.3456457990e+00 2.2203644105e-03 2.4678731738e+00 -4.2744817237e+00 2.4678731738e+00 4.2744817237e+00 
42300 6.3456469407e+00 2.0997662170e-03 2.4678281886e+00 -4.2744038070e+00 2.4678281886e+00 4.2744038070e+00 
42400 6.3456480282e+00 1.9780094164e-03 2.4677856459e+00 -4.2743301209e+00 2.4677856459e+00 4.2743301209e+00 
42500 6.3456490542e+00 1.8554084684e-03 2.4677455694e+00 -4.2742607064e+00 2.4677455694e+00 4.2742607064e+00 
42600 6.3456500123e+00 1.7322723326e-03 2.4677079763e+00 -4.2741955932e+00 2.4677079763e+00 4.2741955932e+00 
42700 6.3456508970e+00 1.6089038531e-03 2.4676728776e+00 -4.2741348004e+00 2.4676728776e+00 4.2741348004e+00 
42800 6.3456517036e+00 1.4855991732e-03 2.4676402780e+00 -4.2740783364e+00 2.4676402780e+00 4.2740783364e+00 
42900 6.3456524286e+00 1.3626471818e-03 2.4676101765e+00 -4.2740261989e+00 2.4676101765e+00 4.2740261989e+00 
43000 6.3456530694e+00 1.2403289919e-03 2.4675825659e+00 -4.2739783760e+00 2.4675825659e+00 4.2739783760e+00 
43100 6.3456536241e+00 1.1189174500e-03 2.4675574334e+00 -4.2739348453e+00 2.4675574334e+00 4.2739348453e+00 
43200 6.3456540920e+00 9.9867667966e-04 2.4675347609e+00 -4.2738955753e+00 2.4675347609e+00 4.2738955753e+00 
43300 6.3456544731e+00 8.7986165601e-04 2.4675145246e+00 -4.2738605250e+00 2.4675145246e+00 4.2738605250e+00 
43400 6.3456547683e+00 7.6271781438e-04 2.4674966957e+00 -4.2738296445e+00 2.4674966957e+00 4.2738296445e+00 
43500 6.3456549793e+00 6.4748069108e-04 2.4674812404e+00 -4.2738028752e+00 2.4674812404e+00 4.2738028752e+00 
43600 6.3456551085e+00 5.3437559727e-04 2.4674681202e+00 -4.2737801502e+00 2.4674681202e+00 4.2737801502e+00 
43700 6.3456551589e+00 4.2361732544e-04 2.4674572918e+00 -4.2737613948e+00 2.4674572918e+00 4.2737613948e+00 
43800 6.3456551342e+00 3.1540988848e-04 2.4674487077e+00 -4.2737465268e+00 2.4674487077e+00 4.2737465268e+00 
43900 6.3456550387e+00 2.0994629101e-04 2.4674423163e+00 -4.2737354565e+00 2.4674423163e+00 4.2737354565e+00 
44000 6.3456548772e+00 1.0740833260e-04 2.4674380619e+00 -4.2737280878e+00 2.4674380619e+00 4.2737280878e+00 
44100 6.3456546548e+00 7.9664426549e-06 2.4674358854e+00 -4.2737243180e+00 2.4674358854e+00 4.2737243180e+00 
44200 6.3456543769e+00 -8.8157625097e-05 2.4674358854e+00 -4.2737243180e+00 2.4674358854e+00 4.2737243180e+00 
44300 6.3456540495e+00 -1.8094123548e-04 2.4674376718e+00 -4.2737274121e+00 2.4674376718e+00 4.2737274121e+00 
44400 6.3456536786e+00 -2.7018688152e-04 2.4674413384e+00 -4.2737337629e+00 2.4674413384e+00 4.2737337629e+00 
44500 6.3456532702e+00 -3.5577065459e-04 2.4674468135e+00 -4.2737432459e+00 2.4674468135e+00 4.2737432459e+00 
44600 6.3456528308e+00 -4.3758038655e-04 2.4674540228e+00 -4.2737557328e+00 2.4674540228e+00 4.2737557328e+00 
44700 6.3456523664e+00 -5.1551563695e-04 2.4674628898e+00 -4.2737710909e+00 2.4674628898e+00 4.2737710909e+00 
44800 6.3456518834e+00 -5.8948765291e-04 2.4674733361e+00 -4.2737891844e+00 2.4674733361e+00 4.2737891844e+00 
44900 6.3456513879e+00 -6.5941930249e-04 2.4674852813e+00 -4.2738098741e+00 2.4674852813e+00 4.2738098741e+00 
45000 6.3456508859e+00 -7.2524498235e-04 2.4674986434e+00 -4.2738330181e+00 2.4674986434e+00 4.2738330181e+00 
45100 6.3456503830e+00 -7.8691050058e-04 2.4675133394e+00 -4.2738584722e+00 2.4675133394e+00 4.2738584722e+00 
45200 6.3456498848e+00 -8.4437293560e-04 2.4675292849e+00 -4.2738860905e+00 2.4675292849e+00 4.2738860905e+00 
45300 6.3456493966e+00 -8.9760047203e-04 2.4675463946e+00 -4.2739157254e+00 2.4675463946e+00 4.2739157254e+00 
45400 6.3456489232e+00 -9.4657221436e-04 2.4675645827e+00 -4.2739472282e+00 2.4675645827e+00 4.2739472282e+00 
45500 6.3456484692e+00 -9.9127797964e-04 2.4675837630e+00 -4.2739804495e+00 2.4675837630e+00 4.2739804495e+00 
45600 6.3456480386e+00 -1.0317180699e-03 2.4676038490e+00 -4.2740152395e+00 2.4676038490e+00 4.2740152395e+00 
45700 6.3456476352e+00 -1.0679030254e-03 2.4676247543e+00 -4.2740514485e+00 2.4676247543e+00 4.2740514485e+00 
45800 6.3456472623e+00 -1.0998533599e-03 2.4676463926e+00 -4.2740889272e+00 2.4676463926e+00 4.2740889272e+00 
45900 6.3456469228e+00 -1.1275992785e-03 2.4676686782e+00 -4.2741275268e+00 2.4676686782e+00 4.2741275268e+00 
46000 6.3456466190e+00 -1.1511803798e-03 2.4676915256e+00 -4.2741670998e+00 2.4676915256e+00 4.2741670998e+00 
46100 6.3456463528e+00 -1.1706453424e-03 2.4677148507e+00 -4.2742075001e+00 2.4677148507e+00 4.2742075001e+00 
46200 6.3456461258e+00 -1.1860515984e-03 2.4677385700e+00 -4.2742485830e+00 2.4677385700e+00 4.2742485830e+00 
46300 6.3456459391e+00 -1.1974649927e-03 2.4677626012e+00 -4.2742902062e+00 2.4677626012e+00 4.2742902062e+00 
46400 6.3456457931e+00 -1.2049594318e-03 2.4677868634e+00 -4.2743322296e+00 2.4677868634e+00 4.2743322296e+00 
46500 6.3456456882e+00 -1.2086165205e-03 2.4678112772e+00 -4.2743745156e+00 2.4678112772e+00 4.2743745156e+00 
46600 6.3456456241e+00 -1.2085251895e-03 2.4678357648e+00 -4.2744169294e+00 2.4678357648e+00 4.2744169294e+00 
46700 6.3456456001e+00 -1.2047813147e-03 2.4678602504e+00 -4.2744593397e+00 2.4678602504e+00 4.2744593397e+00 
46800 6.3456456154e+00 -1.1974873277e-03 2.4678846599e+00 -4.2745016181e+00 2.4678846599e+00 4.2745016181e+00 
46900 6.3456456685e+00 -1.1867518208e-03 2.4679089213e+00 -4.2745436402e+00 2.4679089213e+00 4.2745436402e+00 
47000 6.3456457579e+00 -1.1726891459e-03 2.4679329650e+00 -4.2745852851e+00 2.4679329650e+00 4.2745852851e+00 
47100 6.3456458816e+00 -1.1554190088e-03 2.4679567236e+00 -4.2746264362e+00 2.4679567236e+00 4.2746264362e+00 
47200 6.3456460376e+00 -1.1350660604e-03 2.4679801321e+00 -4.2746669808e+00 2.4679801321e+00 4.2746669808e+00 
47300 6.3456462233e+00 -1.1117594846e-03 2.4680031279e+00 -4.2747068108e+00 2.4680031279e+00 4.2747068108e+00 
47400 6.3456464363e+00 -1.0856325857e-03 2.4680256514e+00 -4.2747458227e+00 2.4680256514e+00 4.2747458227e+00 
47500 6.3456466738e+00 -1.0568223743e-03 2.4680476454e+00 -4.2747839174e+00 2.4680476454e+00 4.2747839174e+00 
47600 6.3456469330e+00 -1.0254691542e-03 2.4680690555e+00 -4.2748210008e+00 2.4680690555e+00 4.2748210008e+00 
47700 6.3456472110e+00 -9.9171611013e-04 2.4680898303e+00 -4.2748569837e+00 2.4680898303e+00 4.2748569837e+00 
47800 6.3456475046e+00 -9.5570889829e-04 2.4681099211e+00 -4.2748917820e+00 2.4681099211e+00 4.2748917820e+00 
47900 6.3456478110e+00 -9.1759523950e-04 2.4681292823e+00 -4.2749253165e+00 2.4681292823e+00 4.2749253165e+00 
48000 6.3456481271e+00 -8.7752451666e-04 2.4681478712e+00 -4.2749575134e+00 2.4681478712e+00 4.2749575134e+00 
48100 6.3456484499e+00 -8.3564737699e-04 2.4681656482e+00 -4.2749883041e+00 2.4681656482e+00 4.2749883041e+00 
48200 6.3456487764e+00 -7.9211533987e-04 2.4681825767e+00 -4.2750176252e+00 2.4681825767e+00 4.2750176252e+00 
48300 6.3456491038e+00 -7.4708041127e-04 2.4681986232e+00 -4.2750454186e+00 2.4681986232e+00 4.2750454186e+00 
48400 6.3456494295e+00 -7.0069470528e-04 2.4682137574e+00 -4.2750716317e+00 2.4682137574e+00 4.2750716317e+00 
48500 6.3456497507e+00 -6.5311007372e-04 2.4682279518e+00 -4.2750962171e+00 2.4682279518e+00 4.2750962171e+00 
48600 6.3456500650e+00 -6.0447774434e-04 2.4682411821e+00 -4.2751191328e+00 2.4682411821e+00 4.2751191328e+00 
48700 6.3456503701e+00 -5.5494796839e-04 2.4682534272e+00 -4.2751403419e+00 2.4682534272e+00 4.2751403419e+00 
48800 6.3456506639e+00 -5.0466967819e-04 2.4682646690e+00 -4.2751598132e+00 2.4682646690e+00 4.2751598132e+00 
48900 6.3456509444e+00 -4.5379015525e-04 2.4682748921e+00 -4.2751775202e+00 2.4682748921e+00 4.2751775202e+00 
49000 6.3456512100e+00 -4.0245470956e-04 2.4682840846e+00 -4.2751934420e+00 2.4682840846e+00 4.2751934420e+00 
49100 6.3456514591e+00 -3.5080637062e-04 2.4682922371e+00 -4.2752075626e+00 2.4682922371e+00 4.2752075626e+00 
49200 6.3456516905e+00 -2.9898559058e-04 2.4682993434e+00 -4.2752198710e+00 2.4682993434e+00 4.2752198710e+00 
49300 6.3456519030e+00 -2.4712996007e-04 2.4683053999e+00 -4.2752303612e+00 2.4683053999e+00 4.2752303612e+00 
49400 6.3456520957e+00 -1.9537393717e-04 2.4683104060e+00 -4.2752390320e+00 2.4683104060e+00 4.2752390320e+00 
49500 6.3456522682e+00 -1.4384858974e-04 2.4683143636e+00 -4.2752458868e+00 2.4683143636e+00 4.2752458868e+00 
49600 6.3456524198e+00 -9.2681351606e-05 2.4683172775e+00 -4.2752509339e+00 2.4683172775e+00 4.2752509339e+00 
49700 6.3456525505e+00 -4.1995792875e-05 2.4683191549e+00 -4.2752541856e+00 2.4683191549e+00 4.2752541856e+00 
49800 6.3456526601e+00 7.7578014885e-06 2.4683191549e+00 -4.2752541856e+00 2.4683191549e+00 4.2752541856e+00 
49900 6.3456527489e+00 5.7181730967e-05 2.4683191549e+00 -4.2752541856e+00 2.4683191549e+00 4.2752541856e+00 
50000 6.3456528173e+00 1.0616874954e-04 2.4683191549e+00 -4.2752541856e+00 2.4683191549e+00 4.2752541856e+00 
50100 6.3456528658e+00 1.5377907311e-04 2.4683170043e+00 -4.2752504606e+00 2.4683170043e+00 4.2752504606e+00 
50200 6.3456528951e+00 2.0035491715e-04 2.4683138892e+00 -4.2752450652e+00 2.4683138892e+00 4.2752450652e+00 
50300 6.3456529060e+00 2.4579989160e-04 2.4683098307e+00 -4.2752380356e+00 2.4683098307e+00 4.2752380356e+00 
50400 6.3456528995e+00 2.9002266477e-04 2.4683048516e+00 -4.2752294115e+00 2.4683048516e+00 4.2752294115e+00 
50500 6.3456528767e+00 3.3293707372e-04 2.4682989767e+00 -4.2752192359e+00 2.4682989767e+00 4.2752192359e+00 
50600 6.3456528387e+00 3.7446221962e-04 2.4682922324e+00 -4.2752075545e+00 2.4682922324e+00 4.2752075545e+00 
50700 6.3456527870e+00 4.1452254798e-04 2.4682846470e+00 -4.2751944161e+00 2.4682846470e+00 4.2751944161e+00 
50800 6.3456527228e+00 4.5304791399e-04 2.4682762500e+00 -4.2751798721e+00 2.4682762500e+00 4.2751798721e+00 
50900 6.3456526475e+00 4.8997363308e-04 2.4682670726e+00 -4.2751639764e+00 2.4682670726e+00 4.2751639764e+00 
51000 6.3456525626e+00 5.2524051690e-04 2.4682571471e+00 -4.2751467850e+00 2.4682571471e+00 4.2751467850e+00 
51100 6.3456524696e+00 5.5879489490e-04 2.4682465072e+00 -4.2751283561e+00 2.4682465072e+00 4.2751283561e+00 
51200 6.3456523698e+00 5.9058862182e-04 2.4682351876e+00 -4.2751087499e+00 2.4682351876e+00 4.2751087499e+00 
51300 6.3456522649e+00 6.2057907129e-04 2.4682232238e+00 -4.2750880280e+00 2.4682232238e+00 4.2750880280e+00 
51400 6.3456521562e+00 6.4872911596e-04 2.4682106524e+00 -4.2750662538e+00 2.4682106524e+00 4.2750662538e+00 
51500 6.3456520452e+00 6.7500709444e-04 2.4681975108e+00 -4.2750434917e+00 2.4681975108e+00 4.2750434917e+00 
51600 6.3456519333e+00 6.9938676534e-04 2.4681838367e+00 -4.2750198075e+00 2.4681838367e+00 4.2750198075e+00 
51700 6.3456518216e+00 7.2184724898e-04 2.4681696686e+00 -4.2749952678e+00 2.4681696686e+00 4.2749952678e+00 
51800 6.3456517116e+00 7.4237295700e-04 2.4681550455e+00 -4.2749699398e+00 2.4681550455e+00 4.2749699398e+00 
51900 6.3456516044e+00 7.6095351048e-04 2.4681400065e+00 -4.2749438915e+00 2.4681400065e+00 4.2749438915e+00 
52000 6.3456515011e+00 7.7758364688e-04 2.4681245910e+00 -4.2749171910e+00 2.4681245910e+00 4.2749171910e+00 
52100 6.3456514026e+00 7.9226311633e-04 2.4681088385e+00 -4.2748899069e+00 2.4681088385e+00 4.2748899069e+00 
52200 6.3456513100e+00 8.0499656788e-04 2.4680927885e+00 -4.2748621075e+00 2.4680927885e+00 4.2748621075e+00 
52300 6.3456512239e+00 8.1579342597e-04 2.4680764805e+00 -4.2748338611e+00 2.4680764805e+00 4.2748338611e+00 
52400 6.3456511452e+00 8.2466775790e-04 2.4680599536e+00 -4.2748052357e+00 2.4680599536e+00 4.2748052357e+00 
52500 6.3456510744e+00 8.3163813273e-04 2.4680432468e+00 -4.2747762987e+00 2.4680432468e+00 4.2747762987e+00 
52600 6.3456510120e+00 8.3672747206e-04 2.4680263987e+00 -4.2747471169e+00 2.4680263987e+00 4.2747471169e+00 
52700 6.3456509583e+00 8.3996289347e-04 2.4680094474e+00 -4.2747177564e+00 2.4680094474e+00 4.2747177564e+00 
52800 6.3456509138e+00 8.4137554693e-04 2.4679924304e+00 -4.2746882821e+00 2.4679924304e+00 4.2746882821e+00 
52900 6.3456508786e+00 8.4100044502e-04 2.4679753846e+00 -4.2746587580e+00 2.4679753846e+00 4.2746587580e+00 
53000 6.3456508527e+00 8.3887628724e-04 2.4679583464e+00 -4.2746292469e+00 2.4679583464e+00 4.2746292469e+00 
53100 6.3456508361e+00 8.3504527921e-04 2.4679413511e+00 -4.2745998101e+00 2.4679413511e+00 4.2745998101e+00 
53200 6.3456508288e+00 8.2955294729e-04 2.4679244332e+00 -4.2745705076e+00 2.4679244332e+00 4.2745705076e+00 
53300 6.3456508305e+00 8.2244794904e-04 2.4679076266e+00 -4.2745413976e+00 2.4679076266e+00 4.2745413976e+00 
53400 6.3456508409e+00 8.1378188033e-04 2.4678909637e+00 -4.2745125367e+00 2.4678909637e+00 4.2745125367e+00 
53500 6.3456508598e+00 8.0360907949e-04 2.4678744763e+00 -4.2744839797e+00 2.4678744763e+00 4.2744839797e+00 
53600 6.3456508868e+00 7.9198642912e-04 2.4678581950e+00 -4.2744557795e+00 2.4678581950e+00 4.2744557795e+00 
53700 6.3456509212e+00 7.7897315610e-04 2.4678421489e+00 -4.2744279870e+00 2.4678421489e+00 4.2744279870e+00 
53800 6.3456509627e+00 7.6463063035e-04 2.4678263665e+00 -4.2744006510e+00 2.4678263665e+00 4.2744006510e+00 
53900 6.3456510105e+00 7.4902216296e-04 2.4678108745e+00 -4.2743738181e+00 2.4678108745e+00 4.2743738181e+00 
54000 6.3456510642e+00 7.3221280401e-04 2.4677956987e+00 -4.2743475328e+00 2.4677956987e+00 4.2743475328e+00 
54100 6.3456511231e+00 7.1426914079e-04 2.4677808633e+00 -4.2743218373e+00 2.4677808633e+00 4.2743218373e+00 
54200 6.3456511865e+00 6.9525909683e-04 2.4677663915e+00 -4.2742967712e+00 2.4677663915e+00 4.2742967712e+00 
54300 6.3456512537e+00 6.7525173228e-04 2.4677523047e+00 -4.2742723722e+00 2.4677523047e+00 4.2742723722e+00 
54400 6.3456513241e+00 6.5431704596e-04 2.4677386232e+00 -4.2742486751e+00 2.4677386232e+00 4.2742486751e+00 
54500 6.3456513969e+00 6.3252577981e-04 2.4677253658e+00 -4.2742257126e+00 2.4677253658e+00 4.2742257126e+00 
54600 6.3456514715e+00 6.0994922583e-04 2.4677125498e+00 -4.2742035147e+00 2.4677125498e+00 4.2742035147e+00 
54700 6.3456515472e+00 5.8665903629e-04 2.4677001912e+00 -4.2741821090e+00 2.4677001912e+00 4.2741821090e+00 
54800 6.3456516233e+00 5.6272703730e-04 2.4676883045e+00 -4.2741615206e+00 2.4676883045e+00 4.2741615206e+00 
54900 6.3456516992e+00 5.3822504632e-04 2.4676769026e+00 -4.2741417719e+00 2.4676769026e+00 4.2741417719e+00 
55000 6.3456517743e+00 5.1322469391e-04 2.4676659971e+00 -4.2741228831e+00 2.4676659971e+00 4.2741228831e+00 
55100 6.3456518481e+00 4.8779725006e-04 2.4676555981e+00 -4.2741048715e+00 2.4676555981e+00 4.2741048715e+00 
55200 6.3456519200e+00 4.6201345543e-04 2.4676457143e+00 -4.2740877522e+00 2.4676457143e+00 4.2740877522e+00 
55300 6.3456519894e+00 4.3594335777e-04 2.4676363529e+00 -4.2740715378e+00 2.4676363529e+00 4.2740715378e+00 
55400 6.3456520561e+00 4.0965615396e-04 2.4676275197e+00 -4.2740562382e+00 2.4676275197e+00 4.2740562382e+00 
55500 6.3456521195e+00 3.8322003764e-04 2.4676192191e+00 -4.2740418611e+00 2.4676192191e+00 4.2740418611e+00 
55600 6.3456521794e+00 3.5670205296e-04 2.4676114541e+00 -4.2740284118e+00 2.4676114541e+00 4.2740284118e+00 
55700 6.3456522353e+00 3.3016795455e-04 2.4676042264e+00 -4.2740158931e+00 2.4676042264e+00 4.2740158931e+00 
55800 6.3456522871e+00 3.0368207385e-04 2.4675975364e+00 -4.2740043056e+00 2.4675975364e+00 4.2740043056e+00 
55900 6.3456523345e+00 2.7730719209e-04 2.4675913830e+00 -4.2739936476e+00 2.4675913830e+00 4.2739936476e+00 
56000 6.3456523775e+00 2.5110442003e-04 2.4675857640e+00 -4.2739839153e+00 2.4675857640e+00 4.2739839153e+00 
56100 6.3456524158e+00 2.2513308461e-04 2.4675806759e+00 -4.2739751025e+00 2.4675806759e+00 4.2739751025e+00 
56200 6.3456524494e+00 1.9945062252e-04 2.4675761141e+00 -4.2739672012e+00 2.4675761141e+00 4.2739672012e+00 
56300 6.3456524784e+00 1.7411248104e-04 2.4675720727e+00 -4.2739602012e+00 2.4675720727e+00 4.2739602012e+00 
56400 6.3456525027e+00 1.4917202591e-04 2.4675685447e+00 -4.2739540905e+00 2.4675685447e+00 4.2739540905e+00 
56500 6.3456525225e+00 1.2468045661e-04 2.4675655220e+00 -4.2739488551e+00 2.4675655220e+00 4.2739488551e+00 
56600 6.3456525378e+00 1.0068672872e-04 2.4675629956e+00 -4.2739444793e+00 2.4675629956e+00 4.2739444793e+00 
56700 6.3456525488e+00 7.7237483792e-05 2.4675609554e+00 -4.2739409456e+00 2.4675609554e+00 4.2739409456e+00 
56800 6.3456525556e+00 5.4376986366e-05 2.4675593904e+00 -4.2739382348e+00 2.4675593904e+00 4.2739382348e+00 
56900 6.3456525586e+00 3.2576065417e-05 2.4675593904e+00 -4.2739382348e+00 2.4675593904e+00 4.2739382348e+00 
57000 6.3456525578e+00 1.1279761156e-05 2.4675593904e+00 -4.2739382348e+00 2.4675593904e+00 4.2739382348e+00 
57100 6.3456525536e+00 -9.4736731334e-06 2.4675593904e+00 -4.2739382348e+00 2.4675593904e+00 4.2739382348e+00 
57200 6.3456525463e+00 -2.9648241177e-05 2.4675593904e+00 -4.2739382348e+00 2.4675593904e+00 4.2739382348e+00 
57300 6.3456525363e+00 -4.9210236558e-05 2.4675593904e+00 -4.2739382348e+00 2.4675593904e+00 4.2739382348e+00 
57400 6.3456525238e+00 -6.8128268900e-05 2.4675593904e+00 -4.2739382348e+00 2.4675593904e+00 4.2739382348e+00 
57500 6.3456525092e+00 -8.6373283532e-05 2.4675593904e+00 -4.2739382348e+00 2.4675593904e+00 4.2739382348e+00 
57600 6.3456524926e+00 -1.0323722654e-04 2.4675611405e+00 -4.2739412662e+00 2.4675611405e+00 4.2739412662e+00 
57700 6.3456524745e+00 -1.1922808185e-04 2.4675632324e+00 -4.2739448895e+00 2.4675632324e+00 4.2739448895e+00 
57800 6.3456524553e+00 -1.3432722675e-04 2.4675656483e+00 -4.2739490739e+00 2.4675656483e+00 4.2739490739e+00 
57900 6.3456524351e+00 -1.4851864103e-04 2.4675683702e+00 -4.2739537883e+00 2.4675683702e+00 4.2739537883e+00 
58000 6.3456524144e+00 -1.6178888819e-04 2.4675713796e+00 -4.2739590008e+00 2.4675713796e+00 4.2739590008e+00 
58100 6.3456523934e+00 -1.7412709086e-04 2.4675746579e+00 -4.2739646790e+00 2.4675746579e+00 4.2739646790e+00 
58200 6.3456523725e+00 -1.8552490042e-04 2.4675781862e+00 -4.2739707902e+00 2.4675781862e+00 4.2739707902e+00 
58300 6.3456523519e+00 -1.9597646120e-04 2.4675819455e+00 -4.2739773014e+00 2.4675819455e+00 4.2739773014e+00 
58400 6.3456523319e+00 -2.0547836932e-04 2.4675859165e+00 -4.2739841794e+00 2.4675859165e+00 4.2739841794e+00 
58500 6.3456523127e+00 -2.1402962653e-04 2.4675900801e+00 -4.2739913909e+00 2.4675900801e+00 4.2739913909e+00 
58600 6.3456522945e+00 -2.2163158916e-04 2.4675944169e+00 -4.2739989025e+00 2.4675944169e+00 4.2739989025e+00 
58700 6.3456522776e+00 -2.2828791252e-04 2.4675989077e+00 -4.2740066809e+00 2.4675989077e+00 4.2740066809e+00 
58800 6.3456522622e+00 -2.3400449091e-04 2.4676035334e+00 -4.2740146928e+00 2.4676035334e+00 4.2740146928e+00 
58900 6.3456522483e+00 -2.3878939347e-04 2.4676082750e+00 -4.2740229054e+00 2.4676082750e+00 4.2740229054e+00 
59000 6.3456522362e+00 -2.4265279627e-04 2.4676131134e+00 -4.2740312859e+00 2.4676131134e+00 4.2740312859e+00 
59100 6.3456522259e+00 -2.4560691062e-04 2.4676180302e+00 -4.2740398020e+00 2.4676180302e+00 4.2740398020e+00 
59200 6.3456522175e+00 -2.4766590817e-04 2.4676230068e+00 -4.2740484217e+00 2.4676230068e+00 4.2740484217e+00 
59300 6.3456522111e+00 -2.4884584280e-04 2.4676280251e+00 -4.2740571137e+00 2.4676280251e+00 4.2740571137e+00 
59400 6.3456522067e+00 -2.4916456971e-04 2.4676330673e+00 -4.2740658470e+00 2.4676330673e+00 4.2740658470e+00 
59500 6.3456522044e+00 -2.4864166188e-04 2.4676381160e+00 -4.2740745916e+00 2.4676381160e+00 4.2740745916e+00 
59600 6.3456522041e+00 -2.4729832427e-04 2.4676431540e+00 -4.2740833177e+00 2.4676431540e+00 4.2740833177e+00 
59700 6.3456522058e+00 -2.4515730583e-04 2.4676481648e+00 -4.2740919967e+00 2.4676481648e+00 4.2740919967e+00 
59800 6.3456522095e+00 -2.4224280984e-04 2.4676531323e+00 -4.2741006006e+00 2.4676531323e+00 4.2741006006e+00 
59900 6.3456522151e+00 -2.3858040257e-04 2.4676580406e+00 -4.2741091021e+00 2.4676580406e+00 4.2741091021e+00 
60000 6.3456522225e+00 -2.3419692075e-04 2.4676628748e+00 -4.2741174751e+00 2.4676628748e+00 4.2741174751e+00 
60100 6.3456522317e+00 -2.2912037786e-04 2.4676676201e+00 -4.2741256942e+00 2.4676676201e+00 4.2741256942e+00 
60200 6.3456522425e+00 -2.2337986979e-04 2.4676722626e+00 -4.2741337352e+00 2.4676722626e+00 4.2741337352e+00 
60300 6.3456522548e+00 -2.1700547978e-04 2.4676767887e+00 -4.2741415747e+00 2.4676767887e+00 4.2741415747e+00 
60400 6.3456522685e+00 -2.1002818318e-04 2.4676811856e+00 -4.2741491904e+00 2.4676811856e+00 4.2741491904e+00 
60500 6.3456522834e+00 -2.0247975205e-04 2.4676854412e+00 -4.2741565613e+00 2.4676854412e+00 4.2741565613e+00 
60600 6.3456522994e+00 -1.9439265998e-04 2.4676895438e+00 -4.2741636672e+00 2.4676895438e+00 4.2741636672e+00 
60700 6.3456523164e+00 -1.8579998729e-04 2.4676934826e+00 -4.2741704894e+00 2.4676934826e+00 4.2741704894e+00 
60800 6.3456523342e+00 -1.7673532676e-04 2.4676972473e+00 -4.2741770099e+00 2.4676972473e+00 4.2741770099e+00 
60900 6.3456523526e+00 -1.6723269031e-04 2.4677008282e+00 -4.2741832124e+00 2.4677008282e+00 4.2741832124e+00 
61000 6.3456523715e+00 -1.5732641661e-04 2.4677042167e+00 -4.2741890813e+00 2.4677042167e+00 4.2741890813e+00 
61100 6.3456523907e+00 -1.4705107997e-04 2.4677074044e+00 -4.2741946026e+00 2.4677074044e+00 4.2741946026e+00 
61200 6.3456524101e+00 -1.3644140064e-04 2.4677103839e+00 -4.2741997633e+00 2.4677103839e+00 4.2741997633e+00 
61300 6.3456524295e+00 -1.2553215674e-04 2.4677131484e+00 -4.2742045516e+00 2.4677131484e+00 4.2742045516e+00 
61400 6.3456524489e+00 -1.1435809794e-04 2.4677156919e+00 -4.2742089570e+00 2.4677156919e+00 4.2742089570e+00 
61500 6.3456524680e+00 -1.0295386115e-04 2.4677180090e+00 -4.2742129703e+00 2.4677180090e+00 4.2742129703e+00 
61600 6.3456524867e+00 -9.1353888324e-05 2.4677200950e+00 -4.2742165834e+00 2.4677200950e+00 4.2742165834e+00 
61700 6.3456525049e+00 -7.9592346495e-05 2.4677219460e+00 -4.2742197894e+00 2.4677219460e+00 4.2742197894e+00 
61800 6.3456525225e+00 -6.7703050294e-05 2.4677235587e+00 -4.2742225826e+00 2.4677235587e+00 4.2742225826e+00 
61900 6.3456525395e+00 -5.6253415164e-05 2.4677235587e+00 -4.2742225826e+00 2.4677235587e+00 4.2742225826e+00 
62000 6.3456525557e+00 -4.4660332910e-05 2.4677235587e+00 -4.2742225826e+00 2.4677235587e+00 4.2742225826e+00 
62100 6.3456525709e+00 -3.2953723981e-05 2.4677235587e+00 -4.2742225826e+00 2.4677235587e+00 4.2742225826e+00 
62200 6.3456525852e+00 -2.1163045686e-05 2.4677235587e+00 -4.2742225826e+00 2.4677235587e+00 4.2742225826e+00 
62300 6.3456525985e+00 -9.3172312505e-06 2.4677235587e+00 -4.2742225826e+00 2.4677235587e+00 4.2742225826e+00 
62400 6.3456526108e+00 2.5553682767e-06 2.4677235587e+00 -4.2742225826e+00 2.4677235587e+00 4.2742225826e+00 
62500 6.3456526220e+00 1.4427039131e-05 2.4677235587e+00 -4.2742225826e+00 2.4677235587e+00 4.2742225826e+00 
62600 6.3456526321e+00 2.6270756961e-05 2.4677235587e+00 -4.2742225826e+00 2.4677235587e+00 4.2742225826e+00 
62700 6.3456526411e+00 3.8060235847e-05 2.4677235587e+00 -4.2742225826e+00 2.4677235587e+00 4.2742225826e+00 
62800 6.3456526491e+00 4.9769974255e-05 2.4677235587e+00 -4.2742225826e+00 2.4677235587e+00 4.2742225826e+00 
62900 6.3456526560e+00 6.1375297821e-05 2.4677235587e+00 -4.2742225826e+00 2.4677235587e+00 4.2742225826e+00 
63000 6.3456526619e+00 7.2852399001e-05 2.4677235587e+00 -4.2742225826e+00 2.4677235587e+00 4.2742225826e+00 
63100 6.3456526667e+00 8.3603624936e-05 2.4677220825e+00 -4.2742200259e+00 2.4677220825e+00 4.2742200259e+00 
63200 6.3456526704e+00 9.4083422112e-05 2.4677203886e+00 -4.2742170919e+00 2.4677203886e+00 4.2742170919e+00 
63300 6.3456526733e+00 1.0427060073e-04 2.4677184823e+00 -4.2742137902e+00 2.4677184823e+00 4.2742137902e+00 
63400 6.3456526752e+00 1.1414514991e-04 2.4677163696e+00 -4.2742101309e+00 2.4677163696e+00 4.2742101309e+00 
63500 6.3456526762e+00 1.2368826080e-04 2.4677140569e+00 -4.2742061250e+00 2.4677140569e+00 4.2742061250e+00 
63600 6.3456526765e+00 1.3288234636e-04 2.4677115507e+00 -4.2742017843e+00 2.4677115507e+00 4.2742017843e+00 
63700 6.3456526760e+00 1.4171105771e-04 2.4677088583e+00 -4.2741971209e+00 2.4677088583e+00 4.2741971209e+00 
63800 6.3456526749e+00 1.5015929698e-04 2.4677059870e+00 -4.2741921476e+00 2.4677059870e+00 4.2741921476e+00 
63900 6.3456526732e+00 1.5821322695e-04 2.4677029445e+00 -4.2741868779e+00 2.4677029445e+00 4.2741868779e+00 
64000 6.3456526710e+00 1.6586027738e-04 2.4676997388e+00 -4.2741813255e+00 2.4676997388e+00 4.2741813255e+00 
64100 6.3456526683e+00 1.7308914803e-04 2.4676963782e+00 -4.2741755047e+00 2.4676963782e+00 4.2741755047e+00 
64200 6.3456526653e+00 1.7988980861e-04 2.4676928711e+00 -4.2741694303e+00 2.4676928711e+00 4.2741694303e+00 
64300 6.3456526620e+00 1.8625349556e-04 2.4676892262e+00 -4.2741631171e+00 2.4676892262e+00 4.2741631171e+00 
64400 6.3456526585e+00 1.9217270580e-04 2.4676854524e+00 -4.2741565806e+00 2.4676854524e+00 4.2741565806e+00 
64500 6.3456526549e+00 1.9764118766e-04 2.4676815586e+00 -4.2741498364e+00 2.4676815586e+00 4.2741498364e+00 
64600 6.3456526512e+00 2.0265392875e-04 2.4676775540e+00 -4.2741429002e+00 2.4676775540e+00 4.2741429002e+00 
64700 6.3456526475e+00 2.0720714125e-04 2.4676734478e+00 -4.2741357881e+00 2.4676734478e+00 4.2741357881e+00 
64800 6.3456526438e+00 2.1129824444e-04 2.4676692494e+00 -4.2741285162e+00 2.4676692494e+00 4.2741285162e+00 
64900 6.3456526403e+00 2.1492584468e-04 2.4676649681e+00 -4.2741211008e+00 2.4676649681e+00 4.2741211008e+00 
65000 6.3456526370e+00 2.1808971295e-04 2.4676606132e+00 -4.2741135580e+00 2.4676606132e+00 4.2741135580e+00 
65100 6.3456526340e+00 2.2079076004e-04 2.4676561943e+00 -4.2741059041e+00 2.4676561943e+00 4.2741059041e+00 
65200 6.3456526312e+00 2.2303100943e-04 2.4676517206e+00 -4.2740981554e+00 2.4676517206e+00 4.2740981554e+00 
65300 6.3456526287e+00 2.2481356821e-04 2.4676472015e+00 -4.2740903281e+00 2.4676472015e+00 4.2740903281e+00 
65400 6.3456526266e+00 2.2614259578e-04 2.4676426463e+00 -4.2740824383e+00 2.4676426463e+00 4.2740824383e+00 
65500 6.3456526249e+00 2.2702327088e-04 2.4676380641e+00 -4.2740745017e+00 2.4676380641e+00 4.2740745017e+00 
65600 6.3456526236e+00 2.2746175672e-04 2.4676334641e+00 -4.2740665343e+00 2.4676334641e+00 4.2740665343e+00 
65700 6.3456526228e+00 2.2746516449e-04 2.4676288552e+00 -4.2740585514e+00 2.4676288552e+00 4.2740585514e+00 
65800 6.3456526224e+00 2.2704151544e-04 2.4676242462e+00 -4.2740505684e+00 2.4676242462e+00 4.2740505684e+00 
65900 6.3456526225e+00 2.2619970150e-04 2.4676196458e+00 -4.2740426003e+00 2.4676196458e+00 4.2740426003e+00 
66000 6.3456526230e+00 2.2494944465e-04 2.4676150625e+00 -4.2740346617e+00 2.4676150625e+00 4.2740346617e+00 
66100 6.3456526240e+00 2.2330125521e-04 2.4676105044e+00 -4.2740267670e+00 2.4676105044e+00 4.2740267670e+00 
66200 6.3456526255e+00 2.2126638904e-04 2.4676059798e+00 -4.2740189300e+00 2.4676059798e+00 4.2740189300e+00 
66300 6.3456526274e+00 2.1885680400e-04 2.4676014964e+00 -4.2740111645e+00 2.4676014964e+00 4.2740111645e+00 
66400 6.3456526297e+00 2.1608511551e-04 2.4675970618e+00 -4.2740034836e+00 2.4675970618e+00 4.2740034836e+00 
66500 6.3456526325e+00 2.1296455158e-04 2.4675926833e+00 -4.2739958999e+00 2.4675926833e+00 4.2739958999e+00 
66600 6.3456526357e+00 2.0950890731e-04 2.4675883681e+00 -4.2739884257e+00 2.4675883681e+00 4.2739884257e+00 
66700 6.3456526392e+00 2.0573249905e-04 2.4675841229e+00 -4.2739810728e+00 2.4675841229e+00 4.2739810728e+00 
66800 6.3456526431e+00 2.0165011823e-04 2.4675799542e+00 -4.2739738523e+00 2.4675799542e+00 4.2739738523e+00 
66900 6.3456526472e+00 1.9727698512e-04 2.4675758682e+00 -4.2739667752e+00 2.4675758682e+00 4.2739667752e+00 
67000 6.3456526517e+00 1.9262870252e-04 2.4675718708e+00 -4.2739598515e+00 2.4675718708e+00 4.2739598515e+00 
67100 6.3456526564e+00 1.8772120958e-04 2.4675679676e+00 -4.2739530910e+00 2.4675679676e+00 4.2739530910e+00 
67200 6.3456526614e+00 1.8257073579e-04 2.4675641638e+00 -4.2739465027e+00 2.4675641638e+00 4.2739465027e+00 
67300 6.3456526665e+00 1.7719375530e-04 2.4675604644e+00 -4.2739400951e+00 2.4675604644e+00 4.2739400951e+00 
67400 6.3456526717e+00 1.7160694167e-04 2.4675568739e+00 -4.2739338762e+00 2.4675568739e+00 4.2739338762e+00 
67500 6.3456526771e+00 1.6582712305e-04 2.4675533967e+00 -4.2739278534e+00 2.4675533967e+00 4.2739278534e+00 
67600 6.3456526825e+00 1.5987123812e-04 2.4675500365e+00 -4.2739220335e+00 2.4675500365e+00 4.2739220335e+00 
67700 6.3456526879e+00 1.5375629259e-04 2.4675467971e+00 -4.2739164226e+00 2.4675467971e+00 4.2739164226e+00 
67800 6.3456526934e+00 1.4749931658e-04 2.4675436815e+00 -4.2739110262e+00 2.4675436815e+00 4.2739110262e+00 
67900 6.3456526988e+00 1.4111732286e-04 2.4675406927e+00 -4.2739058495e+00 2.4675406927e+00 4.2739058495e+00 
68000 6.3456527042e+00 1.3462726609e-04 2.4675378332e+00 -4.2739008968e+00 2.4675378332e+00 4.2739008968e+00 
68100 6.3456527095e+00 1.2804600303e-04 2.4675351053e+00 -4.2738961718e+00 2.4675351053e+00 4.2738961718e+00 
68200 6.3456527146e+00 1.2139025394e-04 2.4675325106e+00 -4.2738916778e+00 2.4675325106e+00 4.2738916778e+00 
68300 6.3456527196e+00 1.1467656508e-04 2.4675300509e+00 -4.2738874174e+00 2.4675300509e+00 4.2738874174e+00 
68400 6.3456527244e+00 1.0792127262e-04 2.4675277272e+00 -4.2738833926e+00 2.4675277272e+00 4.2738833926e+00 
68500 6.3456527291e+00 1.0114046764e-04 2.4675255404e+00 -4.2738796049e+00 2.4675255404e+00 4.2738796049e+00 
68600 6.3456527335e+00 9.4349962670e-05 2.4675234909e+00 -4.2738760552e+00 2.4675234909e+00 4.2738760552e+00 
68700 6.3456527377e+00 8.7565259577e-05 2.4675215791e+00 -4.2738727438e+00 2.4675215791e+00 4.2738727438e+00 
68800 6.3456527417e+00 8.0801518945e-05 2.4675198047e+00 -4.2738696705e+00 2.4675198047e+00 4.2738696705e+00 
68900 6.3456527454e+00 7.4073530876e-05 2.4675181674e+00 -4.2738668346e+00 2.4675181674e+00 4.2738668346e+00 
69000 6.3456527489e+00 6.7395687464e-05 2.4675166665e+00 -4.2738642348e+00 2.4675166665e+00 4.2738642348e+00 
69100 6.3456527522e+00 6.1313874678e-05 2.4675166665e+00 -4.2738642348e+00 2.4675166665e+00 4.2738642348e+00 
69200 6.3456527551e+00 5.5269981255e-05 2.4675166665e+00 -4.2738642348e+00 2.4675166665e+00 4.2738642348e+00 
69300 6.3456527578e+00 4.9276752333e-05 2.4675166665e+00 -4.2738642348e+00 2.4675166665e+00 4.2738642348e+00 
69400 6.3456527602e+00 4.3346511886e-05 2.4675166665e+00 -4.2738642348e+00 2.4675166665e+00 4.2738642348e+00 
69500 6.3456527624e+00 3.7491142737e-05 2.4675166665e+00 -4.2738642348e+00 2.4675166665e+00 4.2738642348e+00 
69600 6.3456527642e+00 3.1722068213e-05 2.4675166665e+00 -4.2738642348e+00 2.4675166665e+00 4.2738642348e+00 
69700 6.3456527658e+00 2.6050235432e-05 2.4675166665e+00 -4.2738642348e+00 2.4675166665e+00 4.2738642348e+00 
69800 6.3456527672e+00 2.0486100213e-05 2.4675166665e+00 -4.2738642348e+00 2.4675166665e+00 4.2738642348e+00 
69900 6.3456527684e+00 1.5039613656e-05 2.4675166665e+00 -4.2738642348e+00 2.4675166665e+00 4.2738642348e+00 
70000 6.3456527693e+00 9.7202102843e-06 2.4675166665e+00 -4.2738642348e+00 2.4675166665e+00 4.2738642348e+00 
70100 6.3456527700e+00 4.5367978173e-06 2.4675166665e+00 -4.2738642348e+00 2.4675166665e+00 4.2738642348e+00 
70200 6.3456527706e+00 -5.0225147038e-07 2.4675166665e+00 -4.2738642348e+00 2.4675166665e+00 4.2738642348e+00 
70300 6.3456527710e+00 -5.3891078473e-06 2.4675166665e+00 -4.2738642348e+00 2.4675166665e+00 4.2738642348e+00 
70400 6.3456527713e+00 -1.0116489667e-05 2.4675166665e+00 -4.2738642348e+00 2.4675166665e+00 4.2738642348e+00 
70500 6.3456527714e+00 -1.4677667410e-05 2.4675166665e+00 -4.2738642348e+00 2.4675166665e+00 4.2738642348e+00 
70600 6.3456527714e+00 -1.9066466243e-05 2.4675166665e+00 -4.2738642348e+00 2.4675166665e+00 4.2738642348e+00 
70700 6.3456527714e+00 -2.3277267136e-05 2.4675166665e+00 -4.2738642348e+00 2.4675166665e+00 4.2738642348e+00 
70800 6.3456527713e+00 -2.7305006569e-05 2.4675166665e+00 -4.2738642348e+00 2.4675166665e+00 4.2738642348e+00 
70900 6.3456527711e+00 -3.1145174867e-05 2.4675166665e+00 -4.2738642348e+00 2.4675166665e+00 4.2738642348e+00 
71000 6.3456527709e+00 -3.4793813217e-05 2.4675166665e+00 -4.2738642348e+00 2.4675166665e+00 4.2738642348e+00 
71100 6.3456527707e+00 -3.8247509377e-05 2.4675166665e+00 -4.2738642348e+00 2.4675166665e+00 4.2738642348e+00 
71200 6.3456527705e+00 -4.1503392165e-05 2.4675166665e+00 -4.2738642348e+00 2.4675166665e+00 4.2738642348e+00 
71300 6.3456527703e+00 -4.4559124741e-05 2.4675166665e+00 -4.2738642348e+00 2.4675166665e+00 4.2738642348e+00 
71400 6.3456527701e+00 -4.7412896751e-05 2.4675166665e+00 -4.2738642348e+00 2.4675166665e+00 4.2738642348e+00 
71500 6.3456527700e+00 -5.0063415381e-05 2.4675166665e+00 -4.2738642348e+00 2.4675166665e+00 4.2738642348e+00 
71600 6.3456527699e+00 -5.2509895348e-05 2.4675166665e+00 -4.2738642348e+00 2.4675166665e+00 4.2738642348e+00 
71700 6.3456527699e+00 -5.4752047921e-05 2.4675166665e+00 -4.2738642348e+00 2.4675166665e+00 4.2738642348e+00 
71800 6.3456527699e+00 -5.6790068984e-05 2.4675166665e+00 -4.2738642348e+00 2.4675166665e+00 4.2738642348e+00 
71900 6.3456527700e+00 -5.8624626259e-05 2.4675166665e+00 -4.2738642348e+00 2.4675166665e+00 4.2738642348e+00 
72000 6.3456527702e+00 -6.0256845624e-05 2.4675166665e+00 -4.2738642348e+00 2.4675166665e+00 4.2738642348e+00 
72100 6.3456527705e+00 -6.1688296752e-05 2.4675166665e+00 -4.2738642348e+00 2.4675166665e+00 4.2738642348e+00 
72200 6.3456527708e+00 -6.2920977959e-05 2.4675166665e+00 -4.2738642348e+00 2.4675166665e+00 4.2738642348e+00 
72300 6.3456527713e+00 -6.3957300435e-05 2.4675166665e+00 -4.2738642348e+00 2.4675166665e+00 4.2738642348e+00 
72400 6.3456527718e+00 -6.4800071861e-05 2.4675166665e+00 -4.2738642348e+00 2.4675166665e+00 4.2738642348e+00 
72500 6.3456527725e+00 -6.5452479467e-05 2.4675166665e+00 -4.2738642348e+00 2.4675166665e+00 4.2738642348e+00 
72600 6.3456527732e+00 -6.5918072623e-05 2.4675166665e+00 -4.2738642348e+00 2.4675166665e+00 4.2738642348e+00 
72700 6.3456527740e+00 -6.6200744989e-05 2.4675166665e+00 -4.2738642348e+00 2.4675166665e+00 4.2738642348e+00 
72800 6.3456527749e+00 -6.6304716261e-05 2.4675166665e+00 -4.2738642348e+00 2.4675166665e+00 4.2738642348e+00 
72900 6.3456527759e+00 -6.6234513646e-05 2.4675166665e+00 -4.2738642348e+00 2.4675166665e+00 4.2738642348e+00 
73000 6.3456527770e+00 -6.5994953015e-05 2.4675166665e+00 -4.2738642348e+00 2.4675166665e+00 4.2738642348e+00 
73100 6.3456527781e+00 -6.5591119872e-05 2.4675166665e+00 -4.2738642348e+00 2.4675166665e+00 4.2738642348e+00 
73200 6.3456527793e+00 -6.5028350141e-05 2.4675166665e+00 -4.2738642348e+00 2.4675166665e+00 4.2738642348e+00 
73300 6.3456527806e+00 -6.4312210873e-05 2.4675166665e+00 -4.2738642348e+00 2.4675166665e+00 4.2738642348e+00 
73400 6.3456527819e+00 -6.3448480850e-05 2.4675166665e+00 -4.2738642348e+00 2.4675166665e+00 4.2738642348e+00 
73500 6.3456527832e+00 -6.2443131213e-05 2.4675166665e+00 -4.2738642348e+00 2.4675166665e+00 4.2738642348e+00 
73600 6.3456527847e+00 -6.1302306115e-05 2.4675166665e+00 -4.2738642348e+00 2.4675166665e+00 4.2738642348e+00 
73700 6.3456527861e+00 -6.0032303437e-05 2.4675166665e+00 -4.2738642348e+00 2.4675166665e+00 4.2738642348e+00 
73800 6.3456527875e+00 -5.8639555672e-05 2.4675166665e+00 -4.2738642348e+00 2.4675166665e+00 4.2738642348e+00 
73900 6.3456527890e+00 -5.7130610955e-05 2.4675166665e+00 -4.2738642348e+00 2.4675166665e+00 4.2738642348e+00 
74000 6.3456527905e+00 -5.5512114306e-05 2.4675166665e+00 -4.2738642348e+00 2.4675166665e+00 4.2738642348e+00 
74100 6.3456527920e+00 -5.3790789146e-05 2.4675166665e+00 -4.2738642348e+00 2.4675166665e+00 4.2738642348e+00 
74200 6.3456527935e+00 -5.1973419088e-05 2.4675166665e+00 -4.2738642348e+00 2.4675166665e+00 4.2738642348e+00 
74300 6.3456527950e+00 -5.0066830067e-05 2.4675166665e+00 -4.2738642348e+00 2.4675166665e+00 4.2738642348e+00 
74400 6.3456527965e+00 -4.8077872851e-05 2.4675166665e+00 -4.2738642348e+00 2.4675166665e+00 4.2738642348e+00 
74500 6.3456527979e+00 -4.6013405919e-05 2.4675166665e+00 -4.2738642348e+00 2.4675166665e+00 4.2738642348e+00 
74600 6.3456527993e+00 -4.3880278785e-05 2.4675166665e+00 -4.2738642348e+00 2.4675166665e+00 4.2738642348e+00 
74700 6.3456528007e+00 -4.1685315806e-05 2.4675166665e+00 -4.2738642348e+00 2.4675166665e+00 4.2738642348e+00 
74800 6.3456528021e+00 -3.9435300444e-05 2.4675166665e+00 -4.2738642348e+00 2.4675166665e+00 4.2738642348e+00 
74900 6.3456528034e+00 -3.7136960051e-05 2.4675166665e+00 -4.2738642348e+00 2.4675166665e+00 4.2738642348e+00 
75000 6.3456528047e+00 -3.4796951204e-05 2.4675166665e+00 -4.2738642348e+00 2.4675166665e+00 4.2738642348e+00 
75100 6.3456528059e+00 -3.2421845598e-05 2.4675166665e+00 -4.2738642348e+00 2.4675166665e+00 4.2738642348e+00 
75200 6.3456528071e+00 -3.0018116498e-05 2.4675166665e+00 -4.2738642348e+00 2.4675166665e+00 4.2738642348e+00 
75300 6.3456528082e+00 -2.7592125815e-05 2.4675166665e+00 -4.2738642348e+00 2.4675166665e+00 4.2738642348e+00 
75400 6.3456528093e+00 -2.5150111776e-05 2.4675166665e+00 -4.2738642348e+00 2.4675166665e+00 4.2738642348e+00 
75500 6.3456528103e+00 -2.2698177235e-05 2.4675166665e+00 -4.2738642348e+00 2.4675166665e+00 4.2738642348e+00 
75600 6.3456528113e+00 -2.0242278623e-05 2.4675166665e+00 -4.2738642348e+00 2.4675166665e+00 4.2738642348e+00 
75700 6.3456528122e+00 -1.7788215532e-05 2.4675166665e+00 -4.2738642348e+00 2.4675166665e+00 4.2738642348e+00 
75800 6.3456528131e+00 -1.5341620973e-05 2.4675166665e+00 -4.2738642348e+00 2.4675166665e+00 4.2738642348e+00 
75900 6.3456528139e+00 -1.2907952304e-05 2.4675166665e+00 -4.2738642348e+00 2.4675166665e+00 4.2738642348e+00 
76000 6.3456528147e+00 -1.0492482804e-05 2.4675166665e+00 -4.2738642348e+00 2.4675166665e+00 4.2738642348e+00 
76100 6.3456528154e+00 -8.1002939455e-06 2.4675166665e+00 -4.2738642348e+00 2.4675166665e+00 4.2738642348e+00 
76200 6.3456528161e+00 -5.7362683233e-06 2.4675166665e+00 -4.2738642348e+00 2.4675166665e+00 4.2738642348e+00 
76300 6.3456528167e+00 -3.4050832656e-06 2.4675166665e+00 -4.2738642348e+00 2.4675166665e+00 4.2738642348e+00 
76400 6.3456528173e+00 -1.1112051154e-06 2.4675166665e+00 -4.2738642348e+00 2.4675166665e+00 4.2738642348e+00 
76500 6.3456528179e+00 1.1411158325e-06 2.4675166665e+00 -4.2738642348e+00 2.4675166665e+00 4.2738642348e+00 
76600 6.3456528184e+00 3.3478497148e-06 2.4675166665e+00 -4.2738642348e+00 2.4675166665e+00 4.2738642348e+00 
76700 6.3456528188e+00 5.5051908297e-06 2.4675166665e+00 -4.2738642348e+00 2.4675166665e+00 4.2738642348e+00 
76800 6.3456528193e+00 7.6095607437e-06 2.4675166665e+00 -4.2738642348e+00 2.4675166665e+00 4.2738642348e+00 
76900 6.3456528197e+00 9.6576107230e-06 2.4675166665e+00 -4.2738642348e+00 2.4675166665e+00 4.2738642348e+00 
77000 6.3456528201e+00 1.1646223577e-05 2.4675166665e+00 -4.2738642348e+00 2.4675166665e+00 4.2738642348e+00 
77100 6.3456528205e+00 1.3572514847e-05 2.4675166665e+00 -4.2738642348e+00 2.4675166665e+00 4.2738642348e+00 
77200 6.3456528208e+00 1.5433833453e-05 2.4675166665e+00 -4.2738642348e+00 2.4675166665e+00 4.2738642348e+00 
77300 6.3456528212e+00 1.7227761663e-05 2.4675166665e+00 -4.2738642348e+00 2.4675166665e+00 4.2738642348e+00 
77400 6.3456528215e+00 1.8952114594e-05 2.4675166665e+00 -4.2738642348e+00 2.4675166665e+00 4.2738642348e+00 
77500 6.3456528218e+00 2.0604939088e-05 2.4675166665e+00 -4.2738642348e+00 2.4675166665e+00 4.2738642348e+00 
77600 6.3456528221e+00 2.2184512067e-05 2.4675166665e+00 -4.2738642348e+00 2.4675166665e+00 4.2738642348e+00 
77700 6.3456528225e+00 2.3689338402e-05 2.4675166665e+00 -4.2738642348e+00 2.4675166665e+00 4.2738642348e+00 
77800 6.3456528228e+00 2.5118148217e-05 2.4675166665e+00 -4.2738642348e+00 2.4675166665e+00 4.2738642348e+00 
77900 6.3456528231e+00 2.6469893792e-05 2.4675166665e+00 -4.2738642348e+00 2.4675166665e+00 4.2738642348e+00 
78000 6.3456528234e+00 2.7743745942e-05 2.4675166665e+00 -4.2738642348e+00 2.4675166665e+00 4.2738642348e+00 
78100 6.3456528237e+00 2.8939090002e-05 2.4675166665e+00 -4.2738642348e+00 2.4675166665e+00 4.2738642348e+00 
78200 6.3456528240e+00 3.0055521355e-05 2.4675166665e+00 -4.2738642348e+00 2.4675166665e+00 4.2738642348e+00 
78300 6.3456528244e+00 3.1092840616e-05 2.4675166665e+00 -4.2738642348e+00 2.4675166665e+00 4.2738642348e+00 
78400 6.3456528247e+00 3.2051048397e-05 2.4675166665e+00 -4.2738642348e+00 2.4675166665e+00 4.2738642348e+00 
78500 6.3456528251e+00 3.2930339756e-05 2.4675166665e+00 -4.2738642348e+00 2.4675166665e+00 4.2738642348e+00 
78600 6.3456528254e+00 3.3731098299e-05 2.4675166665e+00 -4.2738642348e+00 2.4675166665e+00 4.2738642348e+00 
78700 6.3456528258e+00 3.4453889987e-05 2.4675166665e+00 -4.2738642348e+00 2.4675166665e+00 4.2738642348e+00 
78800 6.3456528262e+00 3.5099456678e-05 2.4675166665e+00 -4.2738642348e+00 2.4675166665e+00 4.2738642348e+00 
78900 6.3456528266e+00 3.5668709392e-05 2.4675166665e+00 -4.2738642348e+00 2.4675166665e+00 4.2738642348e+00 
79000 6.3456528270e+00 3.6162721344e-05 2.4675166665e+00 -4.2738642348e+00 2.4675166665e+00 4.2738642348e+00 
79100 6.3456528274e+00 3.6582720789e-05 2.4675166665e+00 -4.2738642348e+00 2.4675166665e+00 4.2738642348e+00 
79200 6.3456528279e+00 3.6930083660e-05 2.4675166665e+00 -4.2738642348e+00 2.4675166665e+00 4.2738642348e+00 
79300 6.3456528283e+00 3.7206326060e-05 2.4675166665e+00 -4.2738642348e+00 2.4675166665e+00 4.2738642348e+00 
79400 6.3456528288e+00 3.7413096596e-05 2.4675166665e+00 -4.2738642348e+00 2.4675166665e+00 4.2738642348e+00 
79500 6.3456528292e+00 3.7552168617e-05 2.4675166665e+00 -4.2738642348e+00 2.4675166665e+00 4.2738642348e+00 
79600 6.3456528297e+00 3.7625432331e-05 2.4675166665e+00 -4.2738642348e+00 2.4675166665e+00 4.2738642348e+00 
79700 6.3456528302e+00 3.7634886885e-05 2.4675166665e+00 -4.2738642348e+00 2.4675166665e+00 4.2738642348e+00 
79800 6.3456528307e+00 3.7582632355e-05 2.4675166665e+00 -4.2738642348e+00 2.4675166665e+00 4.2738642348e+00 
79900 6.3456528312e+00 3.7470861737e-05 2.4675166665e+00 -4.2738642348e+00 2.4675166665e+00 4.2738642348e+00 
80000 6.3456528317e+00 3.7301852909e-05 2.4675166665e+00 -4.2738642348e+00 2.4675166665e+00 4.2738642348e+00 
80100 6.3456528322e+00 3.7077960610e-05 2.4675166665e+00 -4.2738642348e+00 2.4675166665e+00 4.2738642348e+00 
80200 6.3456528327e+00 3.6801608444e-05 2.4675166665e+00 -4.2738642348e+00 2.4675166665e+00 4.2738642348e+00 
80300 6.3456528332e+00 3.6475280964e-05 2.4675166665e+00 -4.2738642348e+00 2.4675166665e+00 4.2738642348e+00 
80400 6.3456528337e+00 3.6101515758e-05 2.4675166665e+00 -4.2738642348e+00 2.4675166665e+00 4.2738642348e+00 
80500 6.3456528342e+00 3.5682895689e-05 2.4675166665e+00 -4.2738642348e+00 2.4675166665e+00 4.2738642348e+00 
80600 6.3456528347e+00 3.5222041201e-05 2.4675166665e+00 -4.2738642348e+00 2.4675166665e+00 4.2738642348e+00 
80700 6.3456528352e+00 3.4721602733e-05 2.4675166665e+00 -4.2738642348e+00 2.4675166665e+00 4.2738642348e+00 
80800 6.3456528357e+00 3.4184253304e-05 2.4675166665e+00 -4.2738642348e+00 2.4675166665e+00 4.2738642348e+00 
80900 6.3456528362e+00 3.3612681212e-05 2.4675166665e+00 -4.2738642348e+00 2.4675166665e+00 4.2738642348e+00 
81000 6.3456528367e+00 3.3009582907e-05 2.4675166665e+00 -4.2738642348e+00 2.4675166665e+00 4.2738642348e+00 
81100 6.3456528371e+00 3.2377656048e-05 2.4675166665e+00 -4.2738642348e+00 2.4675166665e+00 4.2738642348e+00 
81200 6.3456528376e+00 3.1719592729e-05 2.4675166665e+00 -4.2738642348e+00 2.4675166665e+00 4.2738642348e+00 
81300 6.3456528380e+00 3.1038072933e-05 2.4675166665e+00 -4.2738642348e+00 2.4675166665e+00 4.2738642348e+00 
81400 6.3456528385e+00 3.0335758157e-05 2.4675166665e+00 -4.2738642348e+00 2.4675166665e+00 4.2738642348e+00 
81500 6.3456528389e+00 2.9615285291e-05 2.4675166665e+00 -4.2738642348e+00 2.4675166665e+00 4.2738642348e+00 
81600 6.3456528393e+00 2.8879260719e-05 2.4675166665e+00 -4.2738642348e+00 2.4675166665e+00 4.2738642348e+00 
81700 6.3456528398e+00 2.8130254642e-05 2.4675166665e+00 -4.2738642348e+00 2.4675166665e+00 4.2738642348e+00 
81800 6.3456528402e+00 2.7370795668e-05 2.4675166665e+00 -4.2738642348e+00 2.4675166665e+00 4.2738642348e+00 
81900 6.3456528405e+00 2.6603365631e-05 2.4675166665e+00 -4.2738642348e+00 2.4675166665e+00 4.2738642348e+00 
82000 6.3456528409e+00 2.5830394701e-05 2.4675166665e+00 -4.2738642348e+00 2.4675166665e+00 4.2738642348e+00 
82100 6.3456528413e+00 2.5054256719e-05 2.4675166665e+00 -4.2738642348e+00 2.4675166665e+00 4.2738642348e+00 
82200 6.3456528416e+00 2.4277264826e-05 2.4675166665e+00 -4.2738642348e+00 2.4675166665e+00 4.2738642348e+00 
82300 6.3456528420e+00 2.3501667356e-05 2.4675166665e+00 -4.2738642348e+00 2.4675166665e+00 4.2738642348e+00 
82400 6.3456528423e+00 2.2729644008e-05 2.4675166665e+00 -4.2738642348e+00 2.4675166665e+00 4.2738642348e+00 
82500 6.3456528426e+00 2.1963302272e-05 2.4675166665e+00 -4.2738642348e+00 2.4675166665e+00 4.2738642348e+00 
82600 6.3456528429e+00 2.1204674163e-05 2.4675166665e+00 -4.2738642348e+00 2.4675166665e+00 4.2738642348e+00 
82700 6.3456528432e+00 2.0455713213e-05 2.4675166665e+00 -4.2738642348e+00 2.4675166665e+00 4.2738642348e+00 
82800 6.3456528435e+00 1.9718291750e-05 2.4675166665e+00 -4.2738642348e+00 2.4675166665e+00 4.2738642348e+00 
82900 6.3456528438e+00 1.8994198455e-05 2.4675166665e+00 -4.2738642348e+00 2.4675166665e+00 4.2738642348e+00 
83000 6.3456528440e+00 1.8285136175e-05 2.4675166665e+00 -4.2738642348e+00 2.4675166665e+00 4.2738642348e+00 
83100 6.3456528443e+00 1.7592720050e-05 2.4675166665e+00 -4.2738642348e+00 2.4675166665e+00 4.2738642348e+00 
83200 6.3456528445e+00 1.6918475861e-05 2.4675166665e+00 -4.2738642348e+00 2.4675166665e+00 4.2738642348e+00 
83300 6.3456528448e+00 1.6263838687e-05 2.4675166665e+00 -4.2738642348e+00 2.4675166665e+00 4.2738642348e+00 
83400 6.3456528450e+00 1.5630151809e-05 2.4675166665e+00 -4.2738642348e+00 2.4675166665e+00 4.2738642348e+00 
83500 6.3456528452e+00 1.5018665866e-05 2.4675166665e+00 -4.2738642348e+00 2.4675166665e+00 4.2738642348e+00 
83600 6.3456528454e+00 1.4430538271e-05 2.4675166665e+00 -4.2738642348e+00 2.4675166665e+00 4.2738642348e+00 
83700 6.3456528456e+00 1.3866832890e-05 2.4675166665e+00 -4.2738642348e+00 2.4675166665e+00 4.2738642348e+00 
83800 6.3456528459e+00 1.3328519946e-05 2.4675166665e+00 -4.2738642348e+00 2.4675166665e+00 4.2738642348e+00 
83900 6.3456528461e+00 1.2816476161e-05 2.4675166665e+00 -4.2738642348e+00 2.4675166665e+00 4.2738642348e+00 
84000 6.3456528463e+00 1.2331485142e-05 2.4675166665e+00 -4.2738642348e+00 2.4675166665e+00 4.2738642348e+00 
84100 6.3456528465e+00 1.1874237965e-05 2.4675166665e+00 -4.2738642348e+00 2.4675166665e+00 4.2738642348e+00 
84200 6.3456528466e+00 1.1445334005e-05 2.4675166665e+00 -4.2738642348e+00 2.4675166665e+00 4.2738642348e+00 
84300 6.3456528468e+00 1.1045281938e-05 2.4675166665e+00 -4.2738642348e+00 2.4675166665e+00 4.2738642348e+00 
84400 6.3456528470e+00 1.0674500992e-05 2.4675166665e+00 -4.2738642348e+00 2.4675166665e+00 4.2738642348e+00 
84500 6.3456528472e+00 1.0333322321e-05 2.4675166665e+00 -4.2738642348e+00 2.4675166665e+00 4.2738642348e+00 
84600 6.3456528474e+00 1.0021990619e-05 2.4675166665e+00 -4.2738642348e+00 2.4675166665e+00 4.2738642348e+00 
84700 6.3456528476e+00 9.7406658907e-06 2.4675166665e+00 -4.2738642348e+00 2.4675166665e+00 4.2738642348e+00 
84800 6.3456528478e+00 9.4894253552e-06 2.4675166665e+00 -4.2738642348e+00 2.4675166665e+00 4.2738642348e+00 
84900 6.3456528480e+00 9.2682655632e-06 2.4675166665e+00 -4.2738642348e+00 2.4675166665e+00 4.2738642348e+00 
85000 6.3456528482e+00 9.0771046082e-06 2.4675166665e+00 -4.2738642348e+00 2.4675166665e+00 4.2738642348e+00 
85100 6.3456528484e+00 8.9157844918e-06 2.4675166665e+00 -4.2738642348e+00 2.4675166665e+00 4.2738642348e+00 
85200 6.3456528485e+00 8.7840736277e-06 2.4675166665e+00 -4.2738642348e+00 2.4675166665e+00 4.2738642348e+00 
85300 6.3456528487e+00 8.6816694278e-06 2.4675166665e+00 -4.2738642348e+00 2.4675166665e+00 4.2738642348e+00 
85400 6.3456528489e+00 8.6082010511e-06 2.4675166665e+00 -4.2738642348e+00 2.4675166665e+00 4.2738642348e+00 
85500 6.3456528491e+00 8.5632321941e-06 2.4675166665e+00 -4.2738642348e+00 2.4675166665e+00 4.2738642348e+00 
85600 6.3456528493e+00 8.5462639922e-06 2.4675166665e+00 -4.2738642348e+00 2.4675166665e+00 4.2738642348e+00 
85700 6.3456528495e+00 8.5567380069e-06 2.4675166665e+00 -4.2738642348e+00 2.4675166665e+00 4.2738642348e+00 
85800 6.3456528497e+00 8.5940392782e-06 2.4675166665e+00 -4.2738642348e+00 2.4675166665e+00 4.2738642348e+00 
85900 6.3456528499e+00 8.6574994136e-06 2.4675166665e+00 -4.2738642348e+00 2.4675166665e+00 4.2738642348e+00 
86000 6.3456528501e+00 8.7463997717e-06 2.4675166665e+00 -4.2738642348e+00 2.4675166665e+00 4.2738642348e+00 
86100 6.3456528503e+00 8.8599746297e-06 2.4675166665e+00 -4.2738642348e+00 2.4675166665e+00 4.2738642348e+00 
86200 6.3456528505e+00 8.9974144405e-06 2.4675166665e+00 -4.2738642348e+00 2.4675166665e+00 4.2738642348e+00 
86300 6.3456528507e+00 9.1578690662e-06 2.4675166665e+00 -4.2738642348e+00 2.4675166665e+00 4.2738642348e+00 
86400 6.3456528509e+00 9.3404510456e-06 2.4675166665e+00 -4.2738642348e+00 2.4675166665e+00 4.2738642348e+00 
86500 6.3456528510e+00 9.5442388804e-06 2.4675166665e+00 -4.2738642348e+00 2.4675166665e+00 4.2738642348e+00 
86600 6.3456528512e+00 9.7682802804e-06 2.4675166665e+00 -4.2738642348e+00 2.4675166665e+00 4.2738642348e+00 
86700 6.3456528514e+00 1.0011595450e-05 2.4675166665e+00 -4.2738642348e+00 2.4675166665e+00 4.2738642348e+00 
86800 6.3456528516e+00 1.0273180296e-05 2.4675166665e+00 -4.2738642348e+00 2.4675166665e+00 4.2738642348e+00 
86900 6.3456528518e+00 1.0552009657e-05 2.4675166665e+00 -4.2738642348e+00 2.4675166665e+00 4.2738642348e+00 
87000 6.3456528520e+00 1.0847040489e-05 2.4675166665e+00 -4.2738642348e+00 2.4675166665e+00 4.2738642348e+00 
87100 6.3456528522e+00 1.1157214980e-05 2.4675166665e+00 -4.2738642348e+00 2.4675166665e+00 4.2738642348e+00 
87200 6.3456528524e+00 1.1481463664e-05 2.4675166665e+00 -4.2738642348e+00 2.4675166665e+00 4.2738642348e+00 
87300 6.3456528526e+00 1.1818708442e-05 2.4675166665e+00 -4.2738642348e+00 2.4675166665e+00 4.2738642348e+00 
87400 6.3456528527e+00 1.2167865562e-05 2.4675166665e+00 -4.2738642348e+00 2.4675166665e+00 4.2738642348e+00 
87500 6.3456528529e+00 1.2527848542e-05 2.4675166665e+00 -4.2738642348e+00 2.4675166665e+00 4.2738642348e+00 
87600 6.3456528531e+00 1.2897570989e-05 2.4675166665e+00 -4.2738642348e+00 2.4675166665e+00 4.2738642348e+00 
87700 6.3456528533e+00 1.3275949385e-05 2.4675166665e+00 -4.2738642348e+00 2.4675166665e+00 4.2738642348e+00 
87800 6.3456528535e+00 1.3661905733e-05 2.4675166665e+00 -4.2738642348e+00 2.4675166665e+00 4.2738642348e+00 
87900 6.3456528536e+00 1.4054370190e-05 2.4675166665e+00 -4.2738642348e+00 2.4675166665e+00 4.2738642348e+00 
88000 6.3456528538e+00 1.4452283558e-05 2.4675166665e+00 -4.2738642348e+00 2.4675166665e+00 4.2738642348e+00 
88100 6.3456528540e+00 1.4854599692e-05 2.4675166665e+00 -4.2738642348e+00 2.4675166665e+00 4.2738642348e+00 
88200 6.3456528541e+00 1.5260287819e-05 2.4675166665e+00 -4.2738642348e+00 2.4675166665e+00 4.2738642348e+00 
88300 6.3456528543e+00 1.5668334740e-05 2.4675166665e+00 -4.2738642348e+00 2.4675166665e+00 4.2738642348e+00 
88400 6.3456528544e+00 1.6077746963e-05 2.4675166665e+00 -4.2738642348e+00 2.4675166665e+00 4.2738642348e+00 
88500 6.3456528546e+00 1.6487552684e-05 2.4675166665e+00 -4.2738642348e+00 2.4675166665e+00 4.2738642348e+00 
88600 6.3456528547e+00 1.6896803696e-05 2.4675166665e+00 -4.2738642348e+00 2.4675166665e+00 4.2738642348e+00 
88700 6.3456528549e+00 1.7304577181e-05 2.4675166665e+00 -4.2738642348e+00 2.4675166665e+00 4.2738642348e+00 
88800 6.3456528550e+00 1.7709977356e-05 2.4675166665e+00 -4.2738642348e+00 2.4675166665e+00 4.2738642348e+00 
88900 6.3456528552e+00 1.8112137076e-05 2.4675166665e+00 -4.2738642348e+00 2.4675166665e+00 4.2738642348e+00 
89000 6.3456528553e+00 1.8510219244e-05 2.4675166665e+00 -4.2738642348e+00 2.4675166665e+00 4.2738642348e+00 
89100 6.3456528554e+00 1.8903418174e-05 2.4675166665e+00 -4.2738642348e+00 2.4675166665e+00 4.2738642348e+00 
89200 6.3456528556e+00 1.9290960791e-05 2.4675166665e+00 -4.2738642348e+00 2.4675166665e+00 4.2738642348e+00 
89300 6.3456528557e+00 1.9672107742e-05 2.4675166665e+00 -4.2738642348e+00 2.4675166665e+00 4.2738642348e+00 
89400 6.3456528558e+00 2.0046154398e-05 2.4675166665e+00 -4.2738642348e+00 2.4675166665e+00 4.2738642348e+00 
89500 6.3456528559e+00 2.0412431719e-05 2.4675166665e+00 -4.2738642348e+00 2.4675166665e+00 4.2738642348e+00 
89600 6.3456528561e+00 2.0770307021e-05 2.4675166665e+00 -4.2738642348e+00 2.4675166665e+00 4.2738642348e+00 
89700 6.3456528562e+00 2.1119184628e-05 2.4675166665e+00 -4.2738642348e+00 2.4675166665e+00 4.2738642348e+00 
89800 6.3456528563e+00 2.1458506418e-05 2.4675166665e+00 -4.2738642348e+00 2.4675166665e+00 4.2738642348e+00 
89900 6.3456528564e+00 2.1787752255e-05 2.4675166665e+00 -4.2738642348e+00 2.4675166665e+00 4.2738642348e+00 
90000 6.3456528565e+00 2.2106440321e-05 2.4675166665e+00 -4.2738642348e+00 2.4675166665e+00 4.2738642348e+00 
90100 6.3456528566e+00 2.2414127331e-05 2.4675166665e+00 -4.2738642348e+00 2.4675166665e+00 4.2738642348e+00 
90200 6.3456528567e+00 2.2710408647e-05 2.4675166665e+00 -4.2738642348e+00 2.4675166665e+00 4.2738642348e+00 
90300 6.3456528568e+00 2.2994918322e-05 2.4675166665e+00 -4.2738642348e+00 2.4675166665e+00 4.2738642348e+00 
90400 6.3456528569e+00 2.3267328984e-05 2.4675166665e+00 -4.2738642348e+00 2.4675166665e+00 4.2738642348e+00 
90500 6.3456528570e+00 2.3527351691e-05 2.4675166665e+00 -4.2738642348e+00 2.4675166665e+00 4.2738642348e+00 
90600 6.3456528572e+00 2.3774735661e-05 2.4675166665e+00 -4.2738642348e+00 2.4675166665e+00 4.2738642348e+00 
90700 6.3456528573e+00 2.4009267915e-05 2.4675166665e+00 -4.2738642348e+00 2.4675166665e+00 4.2738642348e+00 
90800 6.3456528574e+00 2.4230772827e-05 2.4675166665e+00 -4.2738642348e+00 2.4675166665e+00 4.2738642348e+00 
90900 6.3456528574e+00 2.4439111615e-05 2.4675166665e+00 -4.2738642348e+00 2.4675166665e+00 4.2738642348e+00 
91000 6.3456528575e+00 2.4634181741e-05 2.4675166665e+00 -4.2738642348e+00 2.4675166665e+00 4.2738642348e+00 
91100 6.3456528576e+00 2.4815916228e-05 2.4675166665e+00 -4.2738642348e+00 2.4675166665e+00 4.2738642348e+00 
91200 6.3456528577e+00 2.4984282907e-05 2.4675166665e+00 -4.2738642348e+00 2.4675166665e+00 4.2738642348e+00 
91300 6.3456528578e+00 2.5139283619e-05 2.4675166665e+00 -4.2738642348e+00 2.4675166665e+00 4.2738642348e+00 
91400 6.3456528579e+00 2.5280953322e-05 2.4675166665e+00 -4.2738642348e+00 2.4675166665e+00 4.2738642348e+00 
91500 6.3456528580e+00 2.5409359157e-05 2.4675166665e+00 -4.2738642348e+00 2.4675166665e+00 4.2738642348e+00 
91600 6.3456528581e+00 2.5524599457e-05 2.4675166665e+00 -4.2738642348e+00 2.4675166665e+00 4.2738642348e+00 
91700 6.3456528582e+00 2.5626802693e-05 2.4675166665e+00 -4.2738642348e+00 2.4675166665e+00 4.2738642348e+00 
91800 6.3456528583e+00 2.5716126382e-05 2.4675166665e+00 -4.2738642348e+00 2.4675166665e+00 4.2738642348e+00 
91900 6.3456528584e+00 2.5792755942e-05 2.4675166665e+00 -4.2738642348e+00 2.4675166665e+00 4.2738642348e+00 
92000 6.3456528585e+00 2.5856903526e-05 2.4675166665e+00 -4.2738642348e+00 2.4675166665e+00 4.2738642348e+00 
92100 6.3456528586e+00 2.5908806783e-05 2.4675166665e+00 -4.2738642348e+00 2.4675166665e+00 4.2738642348e+00 
92200 6.3456528586e+00 2.5948727641e-05 2.4675166665e+00 -4.2738642348e+00 2.4675166665e+00 4.2738642348e+00 
92300 6.3456528587e+00 2.5976951007e-05 2.4675166665e+00 -4.2738642348e+00 2.4675166665e+00 4.2738642348e+00 
92400 6.3456528588e+00 2.5993783476e-05 2.4675166665e+00 -4.2738642348e+00 2.4675166665e+00 4.2738642348e+00 
92500 6.3456528589e+00 2.5999552006e-05 2.4675166665e+00 -4.2738642348e+00 2.4675166665e+00 4.2738642348e+00 
92600 6.3456528590e+00 2.5994602586e-05 2.4675166665e+00 -4.2738642348e+00 2.4675166665e+00 4.2738642348e+00 
92700 6.3456528591e+00 2.5979298889e-05 2.4675166665e+00 -4.2738642348e+00 2.4675166665e+00 4.2738642348e+00 
92800 6.3456528592e+00 2.5954020900e-05 2.4675166665e+00 -4.2738642348e+00 2.4675166665e+00 4.2738642348e+00 
92900 6.3456528592e+00 2.5919163561e-05 2.4675166665e+00 -4.2738642348e+00 2.4675166665e+00 4.2738642348e+00 
93000 6.3456528593e+00 2.5875135410e-05 2.4675166665e+00 -4.2738642348e+00 2.4675166665e+00 4.2738642348e+00 
93100 6.3456528594e+00 2.5822357203e-05 2.4675166665e+00 -4.2738642348e+00 2.4675166665e+00 4.2738642348e+00 
93200 6.3456528595e+00 2.5761260562e-05 2.4675166665e+00 -4.2738642348e+00 2.4675166665e+00 4.2738642348e+00 
93300 6.3456528596e+00 2.5692286623e-05 2.4675166665e+00 -4.2738642348e+00 2.4675166665e+00 4.2738642348e+00 
93400 6.3456528597e+00 2.5615884697e-05 2.4675166665e+00 -4.2738642348e+00 2.4675166665e+00 4.2738642348e+00 
93500 6.3456528597e+00 2.5532510938e-05 2.4675166665e+00 -4.2738642348e+00 2.4675166665e+00 4.2738642348e+00 
93600 6.3456528598e+00 2.5442627038e-05 2.4675166665e+00 -4.2738642348e+00 2.4675166665e+00 4.2738642348e+00 
93700 6.3456528599e+00 2.5346698942e-05 2.4675166665e+00 -4.2738642348e+00 2.4675166665e+00 4.2738642348e+00 
93800 6.3456528600e+00 2.5245195579e-05 2.4675166665e+00 -4.2738642348e+00 2.4675166665e+00 4.2738642348e+00 
93900 6.3456528600e+00 2.5138587617e-05 2.4675166665e+00 -4.2738642348e+00 2.4675166665e+00 4.2738642348e+00 
94000 6.3456528601e+00 2.5027346254e-05 2.4675166665e+00 -4.2738642348e+00 2.4675166665e+00 4.2738642348e+00 
94100 6.3456528602e+00 2.4911942040e-05 2.4675166665e+00 -4.2738642348e+00 2.4675166665e+00 4.2738642348e+00 
94200 6.3456528603e+00 2.4792843719e-05 2.4675166665e+00 -4.2738642348e+00 2.4675166665e+00 4.2738642348e+00 
94300 6.3456528603e+00 2.4670517117e-05 2.4675166665e+00 -4.2738642348e+00 2.4675166665e+00 4.2738642348e+00 
94400 6.3456528604e+00 2.4545424059e-05 2.4675166665e+00 -4.2738642348e+00 2.4675166665e+00 4.2738642348e+00 
94500 6.3456528605e+00 2.4418021322e-05 2.4675166665e+00 -4.2738642348e+00 2.4675166665e+00 4.2738642348e+00 
94600 6.3456528605e+00 2.4288759654e-05 2.4675166665e+00 -4.2738642348e+00 2.4675166665e+00 4.2738642348e+00 
94700 6.3456528606e+00 2.4158082782e-05 2.4675166665e+00 -4.2738642348e+00 2.4675166665e+00 4.2738642348e+00 
94800 6.3456528607e+00 2.4026426507e-05 2.4675166665e+00 -4.2738642348e+00 2.4675166665e+00 4.2738642348e+00 
94900 6.3456528607e+00 2.3894217831e-05 2.4675166665e+00 -4.2738642348e+00 2.4675166665e+00 4.2738642348e+00 
95000 6.3456528608e+00 2.3761874112e-05 2.4675166665e+00 -4.2738642348e+00 2.4675166665e+00 4.2738642348e+00 
95100 6.3456528609e+00 2.3629802290e-05 2.4675166665e+00 -4.2738642348e+00 2.4675166665e+00 4.2738642348e+00 
95200 6.3456528609e+00 2.3498398142e-05 2.4675166665e+00 -4.2738642348e+00 2.4675166665e+00 4.2738642348e+00 
95300 6.3456528610e+00 2.3368045586e-05 2.4675166665e+00 -4.2738642348e+00 2.4675166665e+00 4.2738642348e+00 
95400 6.3456528611e+00 2.3239116035e-05 2.4675166665e+00 -4.2738642348e+00 2.4675166665e+00 4.2738642348e+00 
95500 6.3456528611e+00 2.3111967799e-05 2.4675166665e+00 -4.2738642348e+00 2.4675166665e+00 4.2738642348e+00 
95600 6.3456528612e+00 2.2986945532e-05 2.4675166665e+00 -4.2738642348e+00 2.4675166665e+00 4.2738642348e+00 
95700 6.3456528612e+00 2.2864379731e-05 2.4675166665e+00 -4.2738642348e+00 2.4675166665e+00 4.2738642348e+00 
95800 6.3456528613e+00 2.2744586277e-05 2.4675166665e+00 -4.2738642348e+00 2.4675166665e+00 4.2738642348e+00 
95900 6.3456528613e+00 2.2627866037e-05 2.4675166665e+00 -4.2738642348e+00 2.4675166665e+00 4.2738642348e+00 
96000 6.3456528614e+00 2.2514504485e-05 2.4675166665e+00 -4.2738642348e+00 2.4675166665e+00 4.2738642348e+00 
96100 6.3456528615e+00 2.2404771411e-05 2.4675166665e+00 -4.2738642348e+00 2.4675166665e+00 4.2738642348e+00 
96200 6.3456528615e+00 2.2298920640e-05 2.4675166665e+00 -4.2738642348e+00 2.4675166665e+00 4.2738642348e+00 
96300 6.3456528616e+00 2.2197189823e-05 2.4675166665e+00 -4.2738642348e+00 2.4675166665e+00 4.2738642348e+00 
96400 6.3456528616e+00 2.2099800252e-05 2.4675166665e+00 -4.2738642348e+00 2.4675166665e+00 4.2738642348e+00 
96500 6.3456528617e+00 2.2006956743e-05 2.4675166665e+00 -4.2738642348e+00 2.4675166665e+00 4.2738642348e+00 
96600 6.3456528617e+00 2.1918847540e-05 2.4675166665e+00 -4.2738642348e+00 2.4675166665e+00 4.2738642348e+00 
96700 6.3456528618e+00 2.1835644273e-05 2.4675166665e+00 -4.2738642348e+00 2.4675166665e+00 4.2738642348e+00 
96800 6.3456528618e+00 2.1757501970e-05 2.4675166665e+00 -4.2738642348e+00 2.4675166665e+00 4.2738642348e+00 
96900 6.3456528619e+00 2.1684559086e-05 2.4675166665e+00 -4.2738642348e+00 2.4675166665e+00 4.2738642348e+00 
97000 6.3456528619e+00 2.1616937592e-05 2.4675166665e+00 -4.2738642348e+00 2.4675166665e+00 4.2738642348e+00 
97100 6.3456528620e+00 2.1554743078e-05 2.4675166665e+00 -4.2738642348e+00 2.4675166665e+00 4.2738642348e+00 
97200 6.3456528620e+00 2.1498064934e-05 2.4675166665e+00 -4.2738642348e+00 2.4675166665e+00 4.2738642348e+00 
97300 6.3456528620e+00 2.1482148565e-05 2.4675166665e+00 -4.2738642348e+00 2.4675166665e+00 4.2738642348e+00 
97300 6.3456528620e+00 2.1482148565e-05 2.4675166665e+00 -4.2738642348e+00 2.4675166665e+00 4.2738642348e+00 
