# step Hamiltonian StressXX CellTensor1 CellTensor2 CellTensor3 CellTensor4 
0 7.0727383415e+00 5.2694428434e-02 1.6185780433e+00 -2.8034594071e+00 1.6185780433e+00 2.8034594071e+00 
100 7.0648502113e+00 5.6806908945e-02 1.6185780433e+00 -2.8034594071e+00 1.6185780433e+00 2.8034594071e+00 
200 7.0566563834e+00 5.8650202778e-02 1.6168235208e+00 -2.8004204849e+00 1.6168235208e+00 2.8004204849e+00 
300 7.0483186456e+00 6.0011372867e-02 1.6150101125e+00 -2.7972795695e+00 1.6150101125e+00 2.7972795695e+00 
400 7.0398828347e+00 6.0926676280e-02 1.6131525435e+00 -2.7940621657e+00 1.6131525435e+00 2.7940621657e+00 
500 7.0313902461e+00 6.1430547910e-02 1.6112644773e+00 -2.7907919392e+00 1.6112644773e+00 2.7907919392e+00 
600 7.0228779612e+00 6.1555688001e-02 1.6093585699e+00 -2.7874908106e+00 1.6093585699e+00 2.7874908106e+00 
700 7.0143791537e+00 6.1333140792e-02 1.6074465198e+00 -2.7841790428e+00 1.6074465198e+00 2.7841790428e+00 
800 7.0059233741e+00 6.0792364887e-02 1.6055391159e+00 -2.7808753224e+00 1.6055391159e+00 2.7808753224e+00 
900 6.9975368145e+00 5.9961296178e-02 1.6036462812e+00 -2.7775968365e+00 1.6036462812e+00 2.7775968365e+00 
1000 6.9892425571e+00 5.8866404271e-02 1.6017771149e+00 -2.7743593454e+00 1.6017771149e+00 2.7743593454e+00 
1100 6.9810608051e+00 5.7532743425e-02 1.5999399325e+00 -2.7711772521e+00 1.5999399325e+00 2.7711772521e+00 
1200 6.9730090995e+00 5.5983999021e-02 1.5981423039e+00 -2.7680636680e+00 1.5981423039e+00 2.7680636680e+00 
1300 6.9651025227e+00 5.4242530519e-02 1.5963910906e+00 -2.7650304776e+00 1.5963910906e+00 2.7650304776e+00 
1400 6.9573538893e+00 5.2329411822e-02 1.5946924811e+00 -2.7620883997e+00 1.5946924811e+00 2.7620883997e+00 
1500 6.9497739254e+00 5.0264469852e-02 1.5930520260e+00 -2.7592470481e+00 1.5930520260e+00 2.7592470481e+00 
1600 6.9423714376e+00 4.8066322026e-02 1.5914746712e+00 -2.7565149895e+00 1.5914746712e+00 2.7565149895e+00 
1700 6.9351534725e+00 4.5752413259e-02 1.5899647913e+00 -2.7538998007e+00 1.5899647913e+00 2.7538998007e+00 
1800 6.9281254664e+00 4.3339052928e-02 1.5885262215e+00 -2.7514081247e+00 1.5885262215e+00 2.7514081247e+00 
1900 6.9212913872e+00 4.0841452202e-02 1.5871622891e+00 -2.7490457247e+00 1.5871622891e+00 2.7490457247e+00 
2000 6.9146538675e+00 3.8273761976e-02 1.5858758445e+00 -2.7468175371e+00 1.5858758445e+00 2.7468175371e+00 
2100 6.9082143306e+00 3.5649111573e-02 1.5846692902e+00 -2.7447277239e+00 1.5846692902e+00 2.7447277239e+00 
2200 6.9019731087e+00 3.2979648299e-02 1.5835446110e+00 -2.7427797224e+00 1.5835446110e+00 2.7427797224e+00 
2300 6.8959295550e+00 3.0276577846e-02 1.5825034016e+00 -2.7409762948e+00 1.5825034016e+00 2.7409762948e+00 
2400 6.8900821480e+00 2.7550205482e-02 1.5815468942e+00 -2.7393195753e+00 1.5815468942e+00 2.7393195753e+00 
2500 6.8844285902e+00 2.4809977900e-02 1.5806759850e+00 -2.7378111162e+00 1.5806759850e+00 2.7378111162e+00 
2600 6.8789659005e+00 2.2064525597e-02 1.5798912598e+00 -2.7364519324e+00 1.5798912598e+00 2.7364519324e+00 
2700 6.8736905005e+00 1.9321705557e-02 1.5791930187e+00 -2.7352425434e+00 1.5791930187e+00 2.7352425434e+00 
2800 6.8685982951e+00 1.6588644071e-02 1.5785812994e+00 -2.7341830145e+00 1.5785812994e+00 2.7341830145e+00 
2900 6.8636847481e+00 1.3871779445e-02 1.5780558997e+00 -2.7332729954e+00 1.5780558997e+00 2.7332729954e+00 
3000 6.8589449517e+00 1.1176904394e-02 1.5776163989e+00 -2.7325117578e+00 1.5776163989e+00 2.7325117578e+00 
3100 6.8543736921e+00 8.5092078966e-03 1.5772621783e+00 -2.7318982296e+00 1.5772621783e+00 2.7318982296e+00 
3200 6.8499655086e+00 5.8733162975e-03 1.5769924398e+00 -2.7314310289e+00 1.5769924398e+00 2.7314310289e+00 
3300 6.8457147500e+00 3.2733334755e-03 1.5768062246e+00 -2.7311084947e+00 1.5768062246e+00 2.7311084947e+00 
3400 6.8416156248e+00 7.1287988593e-04 1.5767024294e+00 -2.7309287161e+00 1.5767024294e+00 2.7309287161e+00 
3500 6.8376622484e+00 -1.8048696735e-03 1.5766798228e+00 -2.7308895603e+00 1.5766798228e+00 2.7308895603e+00 
3600 6.8338486856e+00 -4.2771497134e-03 1.5767370595e+00 -2.7309886973e+00 1.5767370595e+00 2.7309886973e+00 
3700 6.8301689891e+00 -6.7015692346e-03 1.5768726944e+00 -2.7312236238e+00 1.5768726944e+00 2.7312236238e+00 
3800 6.8266172349e+00 -9.0760785351e-03 1.5770851948e+00 -2.7315916852e+00 1.5770851948e+00 2.7315916852e+00 
3900 6.8231875542e+00 -1.1398937712e-02 1.5773729520e+00 -2.7320900954e+00 1.5773729520e+00 2.7320900954e+00 
4000 6.8198741608e+00 -1.3668686911e-02 1.5777342925e+00 -2.7327159554e+00 1.5777342925e+00 2.7327159554e+00 
4100 6.8166713773e+00 -1.5884118352e-02 1.5781674868e+00 -2.7334662701e+00 1.5781674868e+00 2.7334662701e+00 
4200 6.8135736567e+00 -1.8044250145e-02 1.5786707592e+00 -2.7343379634e+00 1.5786707592e+00 2.7343379634e+00 
4300 6.8105756019e+00 -2.0148301886e-02 1.5792422951e+00 -2.7353278925e+00 1.5792422951e+00 2.7353278925e+00 
4400 6.8076719829e+00 -2.2195672022e-02 1.5798802484e+00 -2.7364328601e+00 1.5798802484e+00 2.7364328601e+00 
4500 6.8048577508e+00 -2.4185916948e-02 1.5805827484e+00 -2.7376496257e+00 1.5805827484e+00 2.7376496257e+00 
4600 6.8021280500e+00 -2.6118731785e-02 1.5813479050e+00 -2.7389749159e+00 1.5813479050e+00 2.7389749159e+00 
4700 6.7994782284e+00 -2.7993932795e-02 1.5821738144e+00 -2.7404054330e+00 1.5821738144e+00 2.7404054330e+00 
4800 6.7969038449e+00 -2.9811441367e-02 1.5830585636e+00 -2.7419378636e+00 1.5830585636e+00 2.7419378636e+00 
4900 6.7944006759e+00 -3.1571269504e-02 1.5840002343e+00 -2.7435688849e+00 1.5840002343e+00 2.7435688849e+00 
5000 6.7919647194e+00 -3.3273506739e-02 1.5849969064e+00 -2.7452951717e+00 1.5849969064e+00 2.7452951717e+00 
5100 6.7895921979e+00 -3.4918308401e-02 1.5860466617e+00 -2.7471134012e+00 1.5860466617e+00 2.7471134012e+00 
5200 6.7872795597e+00 -3.6505885160e-02 1.5871475859e+00 -2.7490202579e+00 1.5871475859e+00 2.7490202579e+00 
5300 6.7850234789e+00 -3.8036493755e-02 1.5882977717e+00 -2.7510124381e+00 1.5882977717e+00 2.7510124381e+00 
5400 6.7828208538e+00 -3.9510428843e-02 1.5894953201e+00 -2.7530866528e+00 1.5894953201e+00 2.7530866528e+00 
5500 6.7806688051e+00 -4.0928015877e-02 1.5907383427e+00 -2.7552396311e+00 1.5907383427e+00 2.7552396311e+00 
5600 6.7785646720e+00 -4.2289604938e-02 1.5920249631e+00 -2.7574681230e+00 1.5920249631e+00 2.7574681230e+00 
5700 6.7765060079e+00 -4.3595565443e-02 1.5933533179e+00 -2.7597689011e+00 1.5933533179e+00 2.7597689011e+00 
5800 6.7744905755e+00 -4.4846281664e-02 1.5947215580e+00 -2.7621387624e+00 1.5947215580e+00 2.7621387624e+00 
5900 6.7725163407e+00 -4.6042148968e-02 1.5961278495e+00 -2.7645745307e+00 1.5961278495e+00 2.7645745307e+00 
6000 6.7705814661e+00 -4.7183570734e-02 1.5975703742e+00 -2.7670730568e+00 1.5975703742e+00 2.7670730568e+00 
6100 6.7686843040e+00 -4.8270955863e-02 1.5990473305e+00 -2.7696312202e+00 1.5990473305e+00 2.7696312202e+00 
6200 6.7668233885e+00 -4.9304716830e-02 1.6005569338e+00 -2.7722459298e+00 1.6005569338e+00 2.7722459298e+00 
6300 6.7649974280e+00 -5.0285268217e-02 1.6020974169e+00 -2.7749141247e+00 1.6020974169e+00 2.7749141247e+00 
6400 6.7632052962e+00 -5.1213025674e-02 1.6036670302e+00 -2.7776327748e+00 1.6036670302e+00 2.7776327748e+00 
6500 6.7614460242e+00 -5.2088405262e-02 1.6052640424e+00 -2.7803988810e+00 1.6052640424e+00 2.7803988810e+00 
6600 6.7597187909e+00 -5.2911823121e-02 1.6068867403e+00 -2.7832094762e+00 1.6068867403e+00 2.7832094762e+00 
6700 6.7580229146e+00 -5.3683695433e-02 1.6085334291e+00 -2.7860616249e+00 1.6085334291e+00 2.7860616249e+00 
6800 6.7563578433e+00 -5.4404438630e-02 1.6102024329e+00 -2.7889524243e+00 1.6102024329e+00 2.7889524243e+00 
6900 6.7547231460e+00 -5.5074469818e-02 1.6118920944e+00 -2.7918790039e+00 1.6118920944e+00 2.7918790039e+00 
7000 6.7531185034e+00 -5.5694207372e-02 1.6136007754e+00 -2.7948385262e+00 1.6136007754e+00 2.7948385262e+00 
7100 6.7515436984e+00 -5.6264071695e-02 1.6153268568e+00 -2.7978281868e+00 1.6153268568e+00 2.7978281868e+00 
7200 6.7499986073e+00 -5.6784486079e-02 1.6170687387e+00 -2.8008452147e+00 1.6170687387e+00 2.8008452147e+00 
7300 6.7484831907e+00 -5.7255877683e-02 1.6188248406e+00 -2.8038868725e+00 1.6188248406e+00 2.8038868725e+00 
7400 6.7469974848e+00 -5.7678678567e-02 1.6205936018e+00 -2.8069504567e+00 1.6205936018e+00 2.8069504567e+00 
7500 6.7455415923e+00 -5.8053326791e-02 1.6223734812e+00 -2.8100332982e+00 1.6223734812e+00 2.8100332982e+00 
7600 6.7441156743e+00 -5.8380267546e-02 1.6241629577e+00 -2.8131327625e+00 1.6241629577e+00 2.8131327625e+00 
7700 6.7427199421e+00 -5.8659954306e-02 1.6259605305e+00 -2.8162462499e+00 1.6259605305e+00 2.8162462499e+00 
7800 6.7413546485e+00 -5.8892849983e-02 1.6277647191e+00 -2.8193711962e+00 1.6277647191e+00 2.8193711962e+00 
7900 6.7400200811e+00 -5.9079428082e-02 1.6295740637e+00 -2.8225050730e+00 1.6295740637e+00 2.8225050730e+00 
8000 6.7387165537e+00 -5.9220173826e-02 1.6313871255e+00 -2.8256453881e+00 1.6313871255e+00 2.8256453881e+00 
8100 6.7374444002e+00 -5.9315585266e-02 1.6332024868e+00 -2.8287896862e+00 1.6332024868e+00 2.8287896862e+00 
8200 6.7362039667e+00 -5.9366174350e-02 1.6350187516e+00 -2.8319355492e+00 1.6350187516e+00 2.8319355492e+00 
8300 6.7349956058e+00 -5.9372467947e-02 1.6368345458e+00 -2.8350805968e+00 1.6368345458e+00 2.8350805968e+00 
8400 6.7338196702e+00 -5.9335008825e-02 1.6386485171e+00 -2.8382224874e+00 1.6386485171e+00 2.8382224874e+00 
8500 6.7326765063e+00 -5.9254356570e-02 1.6404593363e+00 -2.8413589182e+00 1.6404593363e+00 2.8413589182e+00 
8600 6.7315664496e+00 -5.9131088459e-02 1.6422656967e+00 -2.8444876263e+00 1.6422656967e+00 2.8444876263e+00 
8700 6.7304898188e+00 -5.8965800249e-02 1.6440663152e+00 -2.8476063890e+00 1.6440663152e+00 2.8476063890e+00 
8800 6.7294469113e+00 -5.8759106923e-02 1.6458599323e+00 -2.8507130249e+00 1.6458599323e+00 2.8507130249e+00 
8900 6.7284379988e+00 -5.8511643353e-02 1.6476453126e+00 -2.8538053943e+00 1.6476453126e+00 2.8538053943e+00 
9000 6.7274633232e+00 -5.8224064903e-02 1.6494212452e+00 -2.8568813998e+00 1.6494212452e+00 2.8568813998e+00 
9100 6.7265230929e+00 -5.7897047951e-02 1.6511865443e+00 -2.8599389876e+00 1.6511865443e+00 2.8599389876e+00 
9200 6.7256174790e+00 -5.7531290350e-02 1.6529400495e+00 -2.8629761476e+00 1.6529400495e+00 2.8629761476e+00 
9300 6.7247466133e+00 -5.7127511809e-02 1.6546806261e+00 -2.8659909147e+00 1.6546806261e+00 2.8659909147e+00 
9400 6.7239105844e+00 -5.6686454201e-02 1.6564071658e+00 -2.8689813691e+00 1.6564071658e+00 2.8689813691e+00 
9500 6.7231094364e+00 -5.6208881804e-02 1.6581185869e+00 -2.8719456374e+00 1.6581185869e+00 2.8719456374e+00 
9600 6.7223431663e+00 -5.5695581462e-02 1.6598138350e+00 -2.8748818933e+00 1.6598138350e+00 2.8748818933e+00 
9700 6.7216117226e+00 -5.5147362677e-02 1.6614918833e+00 -2.8777883582e+00 1.6614918833e+00 2.8777883582e+00 
9800 6.7209150041e+00 -5.4565057625e-02 1.6631517329e+00 -2.8806633021e+00 1.6631517329e+00 2.8806633021e+00 
9900 6.7202528583e+00 -5.3949521106e-02 1.6647924136e+00 -2.8835050444e+00 1.6647924136e+00 2.8835050444e+00 
10000 6.7196250816e+00 -5.3301630421e-02 1.6664129839e+00 -2.8863119546e+00 1.6664129839e+00 2.8863119546e+00 
10100 6.7190314179e+00 -5.2622285170e-02 1.6680125318e+00 -2.8890824528e+00 1.6680125318e+00 2.8890824528e+00 
10200 6.7184715593e+00 -5.1912406997e-02 1.6695901750e+00 -2.8918150109e+00 1.6695901750e+00 2.8918150109e+00 
10300 6.7179451459e+00 -5.1172939251e-02 1.6711450612e+00 -2.8945081529e+00 1.6711450612e+00 2.8945081529e+00 
10400 6.7174517659e+00 -5.0404846592e-02 1.6726763689e+00 -2.8971604556e+00 1.6726763689e+00 2.8971604556e+00 
10500 6.7169909571e+00 -4.9609114517e-02 1.6741833074e+00 -2.8997705496e+00 1.6741833074e+00 2.8997705496e+00 
10600 6.7165622067e+00 -4.8786748835e-02 1.6756651172e+00 -2.9023371195e+00 1.6756651172e+00 2.9023371195e+00 
10700 6.7161649535e+00 -4.7938775069e-02 1.6771210706e+00 -2.9048589048e+00 1.6771210706e+00 2.9048589048e+00 
10800 6.7157985885e+00 -4.7066237794e-02 1.6785504718e+00 -2.9073347003e+00 1.6785504718e+00 2.9073347003e+00 
10900 6.7154624569e+00 -4.6170199923e-02 1.6799526574e+00 -2.9097633569e+00 1.6799526574e+00 2.9097633569e+00 
11000 6.7151558596e+00 -4.5251741918e-02 1.6813269964e+00 -2.9121437819e+00 1.6813269964e+00 2.9121437819e+00 
11100 6.7148780553e+00 -4.4311960957e-02 1.6826728908e+00 -2.9144749394e+00 1.6826728908e+00 2.9144749394e+00 
11200 6.7146282623e+00 -4.3351970030e-02 1.6839897759e+00 -2.9167558513e+00 1.6839897759e+00 2.9167558513e+00 
11300 6.7144056612e+00 -4.2372896988e-02 1.6852771201e+00 -2.9189855968e+00 1.6852771201e+00 2.9189855968e+00 
11400 6.7142093968e+00 -4.1375883535e-02 1.6865344255e+00 -2.9211633137e+00 1.6865344255e+00 2.9211633137e+00 
11500 6.7140385810e+00 -4.0362084161e-02 1.6877612281e+00 -2.9232881980e+00 1.6877612281e+00 2.9232881980e+00 
11600 6.7138922951e+00 -3.9332665032e-02 1.6889570977e+00 -2.9253595049e+00 1.6889570977e+00 2.9253595049e+00 
11700 6.7137695928e+00 -3.8288802824e-02 1.6901216382e+00 -2.9273765484e+00 1.6901216382e+00 2.9273765484e+00 
11800 6.7136695027e+00 -3.7231683514e-02 1.6912544880e+00 -2.9293387017e+00 1.6912544880e+00 2.9293387017e+00 
11900 6.7135910316e+00 -3.6162501119e-02 1.6923553193e+00 -2.9312453975e+00 1.6923553193e+00 2.9312453975e+00 
12000 6.7135331669e+00 -3.5082456395e-02 1.6934238391e+00 -2.9330961281e+00 1.6934238391e+00 2.9330961281e+00 
12100 6.7134948800e+00 -3.3992755498e-02 1.6944597886e+00 -2.9348904452e+00 1.6944597886e+00 2.9348904452e+00 
12200 6.7134751290e+00 -3.2894608595e-02 1.6954629433e+00 -2.9366279602e+00 1.6954629433e+00 2.9366279602e+00 
12300 6.7134728619e+00 -3.1789228448e-02 1.6964331133e+00 -2.9383083438e+00 1.6964331133e+00 2.9383083438e+00 
12400 6.7134870198e+00 -3.0677828958e-02 1.6973701426e+00 -2.9399313263e+00 1.6973701426e+00 2.9399313263e+00 
12500 6.7135165395e+00 -2.9561623682e-02 1.6982739099e+00 -2.9414966970e+00 1.6982739099e+00 2.9414966970e+00 
12600 6.7135603567e+00 -2.8441824316e-02 1.6991443274e+00 -2.9430043044e+00 1.6991443274e+00 2.9430043044e+00 
12700 6.7136174092e+00 -2.7319639155e-02 1.6999813416e+00 -2.9444540555e+00 1.6999813416e+00 2.9444540555e+00 
12800 6.7136866395e+00 -2.6196271531e-02 1.7007849325e+00 -2.9458459158e+00 1.7007849325e+00 2.9458459158e+00 
12900 6.7137669979e+00 -2.5072918232e-02 1.7015551135e+00 -2.9471799085e+00 1.7015551135e+00 2.9471799085e+00 
13000 6.7138574452e+00 -2.3950767901e-02 1.7022919315e+00 -2.9484561146e+00 1.7022919315e+00 2.9484561146e+00 
13100 6.7139569554e+00 -2.2830999431e-02 1.7029954658e+00 -2.9496746719e+00 1.7029954658e+00 2.9496746719e+00 
13200 6.7140645187e+00 -2.1714780342e-02 1.7036658286e+00 -2.9508357743e+00 1.7036658286e+00 2.9508357743e+00 
13300 6.7141791435e+00 -2.0603265165e-02 1.7043031641e+00 -2.9519396718e+00 1.7043031641e+00 2.9519396718e+00 
13400 6.7142998595e+00 -1.9497593813e-02 1.7049076482e+00 -2.9529866689e+00 1.7049076482e+00 2.9529866689e+00 
13500 6.7144257194e+00 -1.8398889969e-02 1.7054794881e+00 -2.9539771246e+00 1.7054794881e+00 2.9539771246e+00 
13600 6.7145558018e+00 -1.7308259470e-02 1.7060189217e+00 -2.9549114511e+00 1.7060189217e+00 2.9549114511e+00 
13700 6.7146892129e+00 -1.6226788715e-02 1.7065262173e+00 -2.9557901128e+00 1.7065262173e+00 2.9557901128e+00 
13800 6.7148250885e+00 -1.5155543083e-02 1.7070016727e+00 -2.9566136257e+00 1.7070016727e+00 2.9566136257e+00 
13900 6.7149625960e+00 -1.4095565375e-02 1.7074456148e+00 -2.9573825560e+00 1.7074456148e+00 2.9573825560e+00 
14000 6.7151009359e+00 -1.3047874282e-02 1.7078583991e+00 -2.9580975193e+00 1.7078583991e+00 2.9580975193e+00 
14100 6.7152393437e+00 -1.2013462887e-02 1.7082404085e+00 -2.9587591791e+00 1.7082404085e+00 2.9587591791e+00 
14200 6.7153770911e+00 -1.0993297200e-02 1.7085920532e+00 -2.9593682456e+00 1.7085920532e+00 2.9593682456e+00 
14300 6.7155134869e+00 -9.9883147339e-03 1.7089137697e+00 -2.9599254748e+00 1.7089137697e+00 2.9599254748e+00 
14400 6.7156478788e+00 -8.9994231265e-03 1.7092060196e+00 -2.9604316666e+00 1.7092060196e+00 2.9604316666e+00 
14500 6.7157796537e+00 -8.0274988141e-03 1.7094692896e+00 -2.9608876636e+00 1.7094692896e+00 2.9608876636e+00 
14600 6.7159082389e+00 -7.0733857567e-03 1.7097040901e+00 -2.9612943499e+00 1.7097040901e+00 2.9612943499e+00 
14700 6.7160331026e+00 -6.1378942246e-03 1.7099109542e+00 -2.9616526490e+00 1.7099109542e+00 2.9616526490e+00 
14800 6.7161537541e+00 -5.2217996465e-03 1.7100904372e+00 -2.9619635229e+00 1.7100904372e+00 2.9619635229e+00 
14900 6.7162697443e+00 -4.3258415271e-03 1.7102431156e+00 -2.9622279696e+00 1.7102431156e+00 2.9622279696e+00 
15000 6.7163806659e+00 -3.4507224344e-03 1.7103695858e+00 -2.9624470224e+00 1.7103695858e+00 2.9624470224e+00 
15100 6.7164861533e+00 -2.5971070637e-03 1.7104704633e+00 -2.9626217473e+00 1.7104704633e+00 2.9626217473e+00 
15200 6.7165858824e+00 -1.7656213799e-03 1.7105463818e+00 -2.9627532420e+00 1.7105463818e+00 2.9627532420e+00 
15300 6.7166795701e+00 -9.5685184178e-04 1.7105979919e+00 -2.9628426333e+00 1.7105979919e+00 2.9628426333e+00 
15400 6.7167669744e+00 -1.7134471222e-04 1.7106259603e+00 -2.9628910761e+00 1.7106259603e+00 2.9628910761e+00 
15500 6.7168478930e+00 5.9039454429e-04 1.7106309686e+00 -2.9628997506e+00 1.7106309686e+00 2.9628997506e+00 
15600 6.7169221631e+00 1.3279017735e-03 1.7106137120e+00 -2.9628698613e+00 1.7106137120e+00 2.9628698613e+00 
15700 6.7169896603e+00 2.0407545508e-03 1.7105748985e+00 -2.9628026344e+00 1.7105748985e+00 2.9628026344e+00 
15800 6.7170502979e+00 2.7285725066e-03 1.7105152477e+00 -2.9626993162e+00 1.7105152477e+00 2.9626993162e+00 
15900 6.7171040253e+00 3.3910175563e-03 1.7104354896e+00 -2.9625611710e+00 1.7104354896e+00 2.9625611710e+00 
16000 6.7171508270e+00 4.0277940337e-03 1.7103363632e+00 -2.9623894791e+00 1.7103363632e+00 2.9623894791e+00 
16100 6.7171907214e+00 4.6386487276e-03 1.7102186160e+00 -2.9621855349e+00 1.7102186160e+00 2.9621855349e+00 
16200 6.7172237594e+00 5.2233708214e-03 1.7100830021e+00 -2.9619506448e+00 1.7100830021e+00 2.9619506448e+00 
16300 6.7172500225e+00 5.7817917354e-03 1.7099302816e+00 -2.9616861252e+00 1.7099302816e+00 2.9616861252e+00 
16400 6.7172696216e+00 6.3137848738e-03 1.7097612193e+00 -2.9613933006e+00 1.7097612193e+00 2.9613933006e+00 
16500 6.7172826952e+00 6.8192652758e-03 1.7095765833e+00 -2.9610735016e+00 1.7095765833e+00 2.9610735016e+00 
16600 6.7172894077e+00 7.2981891731e-03 1.7093771440e+00 -2.9607280627e+00 1.7093771440e+00 2.9607280627e+00 
16700 6.7172899479e+00 7.7505534568e-03 1.7091636734e+00 -2.9603583207e+00 1.7091636734e+00 2.9603583207e+00 
16800 6.7172845266e+00 8.1763950532e-03 1.7089369431e+00 -2.9599656124e+00 1.7089369431e+00 2.9599656124e+00 
16900 6.7172733754e+00 8.5757902137e-03 1.7086977241e+00 -2.9595512729e+00 1.7086977241e+00 2.9595512729e+00 
17000 6.7172567443e+00 8.9488537212e-03 1.7084467850e+00 -2.9591166337e+00 1.7084467850e+00 2.9591166337e+00 
17100 6.7172349005e+00 9.2957380148e-03 1.7081848915e+00 -2.9586630207e+00 1.7081848915e+00 2.9586630207e+00 
17200 6.7172081256e+00 9.6166322386e-03 1.7079128047e+00 -2.9581917526e+00 1.7079128047e+00 2.9581917526e+00 
17300 6.7171767148e+00 9.9117612169e-03 1.7076312807e+00 -2.9577041387e+00 1.7076312807e+00 2.9577041387e+00 
17400 6.7171409741e+00 1.0181384362e-02 1.7073410693e+00 -2.9572014779e+00 1.7073410693e+00 2.9572014779e+00 
17500 6.7171012190e+00 1.0425794515e-02 1.7070429131e+00 -2.9566850561e+00 1.7070429131e+00 2.9566850561e+00 
17600 6.7170577725e+00 1.0645316729e-02 1.7067375463e+00 -2.9561561454e+00 1.7067375463e+00 2.9561561454e+00 
17700 6.7170109634e+00 1.0840307001e-02 1.7064256942e+00 -2.9556160017e+00 1.7064256942e+00 2.9556160017e+00 
17800 6.7169611244e+00 1.1011150944e-02 1.7061080721e+00 -2.9550658641e+00 1.7061080721e+00 2.9550658641e+00 
17900 6.7169085905e+00 1.1158262426e-02 1.7057853844e+00 -2.9545069525e+00 1.7057853844e+00 2.9545069525e+00 
18000 6.7168536976e+00 1.1282082161e-02 1.7054583237e+00 -2.9539404668e+00 1.7054583237e+00 2.9539404668e+00 
18100 6.7167967805e+00 1.1383076273e-02 1.7051275705e+00 -2.9533675854e+00 1.7051275705e+00 2.9533675854e+00 
18200 6.7167381715e+00 1.1461734825e-02 1.7047937918e+00 -2.9527894638e+00 1.7047937918e+00 2.9527894638e+00 
18300 6.7166781993e+00 1.1518570328e-02 1.7044576409e+00 -2.9522072334e+00 1.7044576409e+00 2.9522072334e+00 
18400 6.7166171871e+00 1.1554116234e-02 1.7041197566e+00 -2.9516220006e+00 1.7041197566e+00 2.9516220006e+00 
18500 6.7165554516e+00 1.1568925410e-02 1.7037807624e+00 -2.9510348455e+00 1.7037807624e+00 2.9510348455e+00 
18600 6.7164933019e+00 1.1563568611e-02 1.7034412663e+00 -2.9504468209e+00 1.7034412663e+00 2.9504468209e+00 
18700 6.7164310382e+00 1.1538632946e-02 1.7031018597e+00 -2.9498589514e+00 1.7031018597e+00 2.9498589514e+00 
18800 6.7163689505e+00 1.1494720350e-02 1.7027631174e+00 -2.9492722326e+00 1.7027631174e+00 2.9492722326e+00 
18900 6.7163073183e+00 1.1432446060e-02 1.7024255972e+00 -2.9486876304e+00 1.7024255972e+00 2.9486876304e+00 
19000 6.7162464090e+00 1.1352437103e-02 1.7020898389e+00 -2.9481060800e+00 1.7020898389e+00 2.9481060800e+00 
19100 6.7161864777e+00 1.1255330806e-02 1.7017563645e+00 -2.9475284855e+00 1.7017563645e+00 2.9475284855e+00 
19200 6.7161277662e+00 1.1141773316e-02 1.7014256778e+00 -2.9469557192e+00 1.7014256778e+00 2.9469557192e+00 
19300 6.7160705023e+00 1.1012418157e-02 1.7010982636e+00 -2.9463886213e+00 1.7010982636e+00 2.9463886213e+00 
19400 6.7160148997e+00 1.0867924802e-02 1.7007745884e+00 -2.9458279993e+00 1.7007745884e+00 2.9458279993e+00 
19500 6.7159611572e+00 1.0708957286e-02 1.7004550991e+00 -2.9452746276e+00 1.7004550991e+00 2.9452746276e+00 
19600 6.7159094585e+00 1.0536182852e-02 1.7001402238e+00 -2.9447292476e+00 1.7001402238e+00 2.9447292476e+00 
19700 6.7158599719e+00 1.0350270631e-02 1.6998303710e+00 -2.9441925669e+00 1.6998303710e+00 2.9441925669e+00 
19800 6.7158128502e+00 1.0151890367e-02 1.6995259300e+00 -2.9436652596e+00 1.6995259300e+00 2.9436652596e+00 
19900 6.7157682305e+00 9.9417111803e-03 1.6992272705e+00 -2.9431479661e+00 1.6992272705e+00 2.9431479661e+00 
20000 6.7157262343e+00 9.7204003798e-03 1.6989347426e+00 -2.9426412930e+00 1.6989347426e+00 2.9426412930e+00 
20100 6.7156869674e+00 9.4886223190e-03 1.6986486773e+00 -2.9421458132e+00 1.6986486773e+00 2.9421458132e+00 
20200 6.7156505201e+00 9.2470373015e-03 1.6983693858e+00 -2.9416620662e+00 1.6983693858e+00 2.9416620662e+00 
20300 6.7156169677e+00 8.9963005356e-03 1.6980971602e+00 -2.9411905577e+00 1.6980971602e+00 2.9411905577e+00 
20400 6.7155863700e+00 8.7370611399e-03 1.6978322736e+00 -2.9407317605e+00 1.6978322736e+00 2.9407317605e+00 
20500 6.7155587724e+00 8.4699611997e-03 1.6975749796e+00 -2.9402861143e+00 1.6975749796e+00 2.9402861143e+00 
20600 6.7155342058e+00 8.1956348754e-03 1.6973255133e+00 -2.9398540261e+00 1.6973255133e+00 2.9398540261e+00 
20700 6.7155126871e+00 7.9147075631e-03 1.6970840911e+00 -2.9394358706e+00 1.6970840911e+00 2.9394358706e+00 
20800 6.7154942200e+00 7.6277951074e-03 1.6968509110e+00 -2.9390319907e+00 1.6968509110e+00 2.9390319907e+00 
20900 6.7154787950e+00 7.3355030662e-03 1.6966261527e+00 -2.9386426979e+00 1.6966261527e+00 2.9386426979e+00 
21000 6.7154663901e+00 7.0384260278e-03 1.6964099782e+00 -2.9382682726e+00 1.6964099782e+00 2.9382682726e+00 
21100 6.7154569716e+00 6.7371469782e-03 1.6962025318e+00 -2.9379089649e+00 1.6962025318e+00 2.9379089649e+00 
21200 6.7154504946e+00 6.4322367204e-03 1.6960039406e+00 -2.9375649950e+00 1.6960039406e+00 2.9375649950e+00 
21300 6.7154469035e+00 6.1242533421e-03 1.6958143150e+00 -2.9372365538e+00 1.6958143150e+00 2.9372365538e+00 
21400 6.7154461328e+00 5.8137417332e-03 1.6956337485e+00 -2.9369238034e+00 1.6956337485e+00 2.9369238034e+00 
21500 6.7154481077e+00 5.5012331503e-03 1.6954623187e+00 -2.9366268783e+00 1.6954623187e+00 2.9366268783e+00 
21600 6.7154527447e+00 5.1872448283e-03 1.6953000873e+00 -2.9363458852e+00 1.6953000873e+00 2.9363458852e+00 
21700 6.7154599528e+00 4.8722796364e-03 1.6951471006e+00 -2.9360809045e+00 1.6951471006e+00 2.9360809045e+00 
21800 6.7154696334e+00 4.5568257787e-03 1.6950033900e+00 -2.9358319905e+00 1.6950033900e+00 2.9358319905e+00 
21900 6.7154816815e+00 4.2413565362e-03 1.6948689724e+00 -2.9355991724e+00 1.6948689724e+00 2.9355991724e+00 
22000 6.7154959866e+00 3.9263300500e-03 1.6947438505e+00 -2.9353824549e+00 1.6947438505e+00 2.9353824549e+00 
22100 6.7155124329e+00 3.6121891437e-03 1.6946280134e+00 -2.9351818191e+00 1.6946280134e+00 2.9351818191e+00 
22200 6.7155309002e+00 3.2993611827e-03 1.6945214369e+00 -2.9349972232e+00 1.6945214369e+00 2.9349972232e+00 
22300 6.7155512647e+00 2.9882579701e-03 1.6944240840e+00 -2.9348286031e+00 1.6944240840e+00 2.9348286031e+00 
22400 6.7155733994e+00 2.6792756761e-03 1.6943359056e+00 -2.9346758736e+00 1.6943359056e+00 2.9346758736e+00 
22500 6.7155971753e+00 2.3727948001e-03 1.6942568406e+00 -2.9345389290e+00 1.6942568406e+00 2.9345389290e+00 
22600 6.7156224613e+00 2.0691801632e-03 1.6941868164e+00 -2.9344176436e+00 1.6941868164e+00 2.9344176436e+00 
22700 6.7156491254e+00 1.7687809306e-03 1.6941257497e+00 -2.9343118729e+00 1.6941257497e+00 2.9343118729e+00 
22800 6.7156770349e+00 1.4719306602e-03 1.6940735466e+00 -2.9342214545e+00 1.6940735466e+00 2.9342214545e+00 
22900 6.7157060573e+00 1.1789473776e-03 1.6940301033e+00 -2.9341462085e+00 1.6940301033e+00 2.9341462085e+00 
23000 6.7157360606e+00 8.9013367551e-04 1.6939953063e+00 -2.9340859383e+00 1.6939953063e+00 2.9340859383e+00 
23100 6.7157669141e+00 6.0577683467e-04 1.6939690332e+00 -2.9340404319e+00 1.6939690332e+00 2.9340404319e+00 
23200 6.7157984886e+00 3.2614896663e-04 1.6939511528e+00 -2.9340094622e+00 1.6939511528e+00 2.9340094622e+00 
23300 6.7158306569e+00 5.1507175473e-05 1.6939415259e+00 -2.9339927880e+00 1.6939415259e+00 2.9339927880e+00 
23400 6.7158632936e+00 -2.1581746439e-04 1.6939415259e+00 -2.9339927880e+00 1.6939415259e+00 2.9339927880e+00 
23500 6.7158962779e+00 -4.7984485557e-04 1.6939478962e+00 -2.9340038216e+00 1.6939478962e+00 2.9340038216e+00 
23600 6.7159294915e+00 -7.3820033211e-04 1.6939620597e+00 -2.9340283536e+00 1.6939620597e+00 2.9340283536e+00 
23700 6.7159628197e+00 -9.9068500166e-04 1.6939838489e+00 -2.9340660936e+00 1.6939838489e+00 2.9340660936e+00 
23800 6.7159961519e+00 -1.2371139211e-03 1.6940130903e+00 -2.9341167411e+00 1.6940130903e+00 2.9341167411e+00 
23900 6.7160293815e+00 -1.4773158475e-03 1.6940496047e+00 -2.9341799859e+00 1.6940496047e+00 2.9341799859e+00 
24000 6.7160624068e+00 -1.7111329792e-03 1.6940932080e+00 -2.9342555090e+00 1.6940932080e+00 2.9342555090e+00 
24100 6.7160951304e+00 -1.9384206878e-03 1.6941437112e+00 -2.9343429831e+00 1.6941437112e+00 2.9343429831e+00 
24200 6.7161274602e+00 -2.1590472414e-03 1.6942009210e+00 -2.9344420733e+00 1.6942009210e+00 2.9344420733e+00 
24300 6.7161593090e+00 -2.3728935216e-03 1.6942646401e+00 -2.9345524381e+00 1.6942646401e+00 2.9345524381e+00 
24400 6.7161905948e+00 -2.5798527343e-03 1.6943346678e+00 -2.9346737297e+00 1.6943346678e+00 2.9346737297e+00 
24500 6.7162212413e+00 -2.7798301148e-03 1.6944108001e+00 -2.9348055947e+00 1.6944108001e+00 2.9348055947e+00 
24600 6.7162511772e+00 -2.9727426288e-03 1.6944928302e+00 -2.9349476750e+00 1.6944928302e+00 2.9349476750e+00 
24700 6.7162803370e+00 -3.1585186698e-03 1.6945805487e+00 -2.9350996079e+00 1.6945805487e+00 2.9350996079e+00 
24800 6.7163086606e+00 -3.3370977541e-03 1.6946737443e+00 -2.9352610273e+00 1.6946737443e+00 2.9352610273e+00 
24900 6.7163360934e+00 -3.5084302123e-03 1.6947722036e+00 -2.9354315640e+00 1.6947722036e+00 2.9354315640e+00 
25000 6.7163625865e+00 -3.6724768811e-03 1.6948757121e+00 -2.9356108459e+00 1.6948757121e+00 2.9356108459e+00 
25100 6.7163880963e+00 -3.8292087925e-03 1.6949840539e+00 -2.9357984993e+00 1.6949840539e+00 2.9357984993e+00 
25200 6.7164125847e+00 -3.9786068639e-03 1.6950970122e+00 -2.9359941489e+00 1.6950970122e+00 2.9359941489e+00 
25300 6.7164360189e+00 -4.1206615873e-03 1.6952143699e+00 -2.9361974183e+00 1.6952143699e+00 2.9361974183e+00 
25400 6.7164583715e+00 -4.2553727204e-03 1.6953359094e+00 -2.9364079310e+00 1.6953359094e+00 2.9364079310e+00 
25500 6.7164796201e+00 -4.3827489772e-03 1.6954614133e+00 -2.9366253101e+00 1.6954614133e+00 2.9366253101e+00 
25600 6.7164997473e+00 -4.5028077216e-03 1.6955906644e+00 -2.9368491795e+00 1.6955906644e+00 2.9368491795e+00 
25700 6.7165187406e+00 -4.6155746618e-03 1.6957234460e+00 -2.9370791641e+00 1.6957234460e+00 2.9370791641e+00 
25800 6.7165365924e+00 -4.7210835474e-03 1.6958595424e+00 -2.9373148899e+00 1.6958595424e+00 2.9373148899e+00 
25900 6.7165532993e+00 -4.8193758686e-03 1.6959987387e+00 -2.9375559850e+00 1.6959987387e+00 2.9375559850e+00 
26000 6.7165688626e+00 -4.9105005590e-03 1.6961408215e+00 -2.9378020796e+00 1.6961408215e+00 2.9378020796e+00 
26100 6.7165832874e+00 -4.9945137003e-03 1.6962855786e+00 -2.9380528063e+00 1.6962855786e+00 2.9380528063e+00 
26200 6.7165965831e+00 -5.0714782312e-03 1.6964327999e+00 -2.9383078010e+00 1.6964327999e+00 2.9383078010e+00 
26300 6.7166087628e+00 -5.1414636593e-03 1.6965822769e+00 -2.9385667027e+00 1.6965822769e+00 2.9385667027e+00 
26400 6.7166198431e+00 -5.2045457769e-03 1.6967338033e+00 -2.9388291542e+00 1.6967338033e+00 2.9388291542e+00 
26500 6.7166298439e+00 -5.2608063804e-03 1.6968871751e+00 -2.9390948020e+00 1.6968871751e+00 2.9390948020e+00 
26600 6.7166387884e+00 -5.3103329939e-03 1.6970421909e+00 -2.9393632972e+00 1.6970421909e+00 2.9393632972e+00 
26700 6.7166467024e+00 -5.3532185968e-03 1.6971986518e+00 -2.9396342955e+00 1.6971986518e+00 2.9396342955e+00 
26800 6.7166536146e+00 -5.3895613556e-03 1.6973563617e+00 -2.9399074571e+00 1.6973563617e+00 2.9399074571e+00 
26900 6.7166595562e+00 -5.4194643600e-03 1.6975151276e+00 -2.9401824476e+00 1.6975151276e+00 2.9401824476e+00 
27000 6.7166645605e+00 -5.4430353635e-03 1.6976747594e+00 -2.9404589381e+00 1.6976747594e+00 2.9404589381e+00 
27100 6.7166686628e+00 -5.4603865283e-03 1.6978350705e+00 -2.9407366050e+00 1.6978350705e+00 2.9407366050e+00 
27200 6.7166719002e+00 -5.4716341750e-03 1.6979958774e+00 -2.9410151308e+00 1.6979958774e+00 2.9410151308e+00 
27300 6.7166743114e+00 -5.4768985363e-03 1.6981570003e+00 -2.9412942038e+00 1.6981570003e+00 2.9412942038e+00 
27400 6.7166759363e+00 -5.4763035161e-03 1.6983182630e+00 -2.9415735189e+00 1.6983182630e+00 2.9415735189e+00 
27500 6.7166768161e+00 -5.4699764524e-03 1.6984794928e+00 -2.9418527771e+00 1.6984794928e+00 2.9418527771e+00 
27600 6.7166769929e+00 -5.4580478854e-03 1.6986405210e+00 -2.9421316862e+00 1.6986405210e+00 2.9421316862e+00 
27700 6.7166765094e+00 -5.4406513305e-03 1.6988011828e+00 -2.9424099606e+00 1.6988011828e+00 2.9424099606e+00 
27800 6.7166754090e+00 -5.4179230546e-03 1.6989613174e+00 -2.9426873219e+00 1.6989613174e+00 2.9426873219e+00 
27900 6.7166737351e+00 -5.3900018589e-03 1.6991207680e+00 -2.9429634984e+00 1.6991207680e+00 2.9429634984e+00 
28000 6.7166715317e+00 -5.3570288650e-03 1.6992793820e+00 -2.9432382258e+00 1.6992793820e+00 2.9432382258e+00 
28100 6.7166688425e+00 -5.3191473062e-03 1.6994370109e+00 -2.9435112472e+00 1.6994370109e+00 2.9435112472e+00 
28200 6.7166657111e+00 -5.2765023233e-03 1.6995935106e+00 -2.9437823126e+00 1.6995935106e+00 2.9437823126e+00 
28300 6.7166621806e+00 -5.2292407648e-03 1.6997487414e+00 -2.9440511801e+00 1.6997487414e+00 2.9440511801e+00 
28400 6.7166582938e+00 -5.1775109919e-03 1.6999025676e+00 -2.9443176150e+00 1.6999025676e+00 2.9443176150e+00 
28500 6.7166540927e+00 -5.1214626882e-03 1.7000548584e+00 -2.9445813903e+00 1.7000548584e+00 2.9445813903e+00 
28600 6.7166496186e+00 -5.0612466733e-03 1.7002054870e+00 -2.9448422868e+00 1.7002054870e+00 2.9448422868e+00 
28700 6.7166449120e+00 -4.9970147214e-03 1.7003543314e+00 -2.9451000928e+00 1.7003543314e+00 2.9451000928e+00 
28800 6.7166400121e+00 -4.9289193840e-03 1.7005012739e+00 -2.9453546047e+00 1.7005012739e+00 2.9453546047e+00 
28900 6.7166349571e+00 -4.8571138174e-03 1.7006462014e+00 -2.9456056265e+00 1.7006462014e+00 2.9456056265e+00 
29000 6.7166297842e+00 -4.7817516141e-03 1.7007890054e+00 -2.9458529703e+00 1.7007890054e+00 2.9458529703e+00 
29100 6.7166245289e+00 -4.7029866385e-03 1.7009295819e+00 -2.9460964559e+00 1.7009295819e+00 2.9460964559e+00 
29200 6.7166192255e+00 -4.6209728674e-03 1.7010678313e+00 -2.9463359109e+00 1.7010678313e+00 2.9463359109e+00 
29300 6.7166139069e+00 -4.5358642344e-03 1.7012036587e+00 -2.9465711709e+00 1.7012036587e+00 2.9465711709e+00 
29400 6.7166086044e+00 -4.4478144780e-03 1.7013369739e+00 -2.9468020795e+00 1.7013369739e+00 2.9468020795e+00 
29500 6.7166033476e+00 -4.3569769948e-03 1.7014676908e+00 -2.9470284879e+00 1.7014676908e+00 2.9470284879e+00 
29600 6.7165981645e+00 -4.2635046960e-03 1.7015957282e+00 -2.9472502553e+00 1.7015957282e+00 2.9472502553e+00 
29700 6.7165930817e+00 -4.1675498685e-03 1.7017210094e+00 -2.9474672486e+00 1.7017210094e+00 2.9474672486e+00 
29800 6.7165881237e+00 -4.0692640398e-03 1.7018434619e+00 -2.9476793425e+00 1.7018434619e+00 2.9476793425e+00 
29900 6.7165833136e+00 -3.9687978466e-03 1.7019630179e+00 -2.9478864196e+00 1.7019630179e+00 2.9478864196e+00 
30000 6.7165786725e+00 -3.8663009079e-03 1.7020796139e+00 -2.9480883698e+00 1.7020796139e+00 2.9480883698e+00 
30100 6.7165742200e+00 -3.7619217019e-03 1.7021931910e+00 -2.9482850911e+00 1.7021931910e+00 2.9482850911e+00 
30200 6.7165699738e+00 -3.6558074460e-03 1.7023036944e+00 -2.9484764886e+00 1.7023036944e+00 2.9484764886e+00 
30300 6.7165659500e+00 -3.5481039820e-03 1.7024110737e+00 -2.9486624751e+00 1.7024110737e+00 2.9486624751e+00 
30400 6.7165621628e+00 -3.4389556638e-03 1.7025152830e+00 -2.9488429708e+00 1.7025152830e+00 2.9488429708e+00 
30500 6.7165586248e+00 -3.3285052500e-03 1.7026162803e+00 -2.9490179033e+00 1.7026162803e+00 2.9490179033e+00 
30600 6.7165553469e+00 -3.2168937991e-03 1.7027140280e+00 -2.9491872073e+00 1.7027140280e+00 2.9491872073e+00 
30700 6.7165523384e+00 -3.1042605692e-03 1.7028084926e+00 -2.9493508248e+00 1.7028084926e+00 2.9493508248e+00 
30800 6.7165496070e+00 -2.9907429216e-03 1.7028996446e+00 -2.9495087047e+00 1.7028996446e+00 2.9495087047e+00 
30900 6.7165471588e+00 -2.8764762272e-03 1.7029874586e+00 -2.9496608030e+00 1.7029874586e+00 2.9496608030e+00 
31000 6.7165449983e+00 -2.7615937769e-03 1.7030719132e+00 -2.9498070825e+00 1.7030719132e+00 2.9498070825e+00 
31100 6.7165431286e+00 -2.6462266964e-03 1.7031529906e+00 -2.9499475129e+00 1.7031529906e+00 2.9499475129e+00 
31200 6.7165415514e+00 -2.5305038630e-03 1.7032306774e+00 -2.9500820702e+00 1.7032306774e+00 2.9500820702e+00 
31300 6.7165402669e+00 -2.4145518278e-03 1.7033049633e+00 -2.9502107372e+00 1.7033049633e+00 2.9502107372e+00 
31400 6.7165392743e+00 -2.2984947395e-03 1.7033758422e+00 -2.9503335031e+00 1.7033758422e+00 2.9503335031e+00 
31500 6.7165385711e+00 -2.1824542739e-03 1.7034433115e+00 -2.9504503633e+00 1.7034433115e+00 2.9504503633e+00 
31600 6.7165381541e+00 -2.0665495649e-03 1.7035073720e+00 -2.9505613193e+00 1.7035073720e+00 2.9505613193e+00 
31700 6.7165380186e+00 -1.9508971400e-03 1.7035680281e+00 -2.9506663787e+00 1.7035680281e+00 2.9506663787e+00 
31800 6.7165381590e+00 -1.8356108596e-03 1.7036252875e+00 -2.9507655550e+00 1.7036252875e+00 2.9507655550e+00 
31900 6.7165385688e+00 -1.7208018589e-03 1.7036791615e+00 -2.9508588675e+00 1.7036791615e+00 2.9508588675e+00 
32000 6.7165392405e+00 -1.6065784938e-03 1.7037296642e+00 -2.9509463408e+00 1.7037296642e+00 2.9509463408e+00 
32100 6.7165401656e+00 -1.4930462901e-03 1.7037768133e+00 -2.9510280054e+00 1.7037768133e+00 2.9510280054e+00 
32200 6.7165413352e+00 -1.3803078960e-03 1.7038206293e+00 -2.9511038969e+00 1.7038206293e+00 2.9511038969e+00 
32300 6.7165427393e+00 -1.2684630383e-03 1.7038611357e+00 -2.9511740561e+00 1.7038611357e+00 2.9511740561e+00 
32400 6.7165443676e+00 -1.1576084816e-03 1.7038983590e+00 -2.9512385288e+00 1.7038983590e+00 2.9512385288e+00 
32500 6.7165462090e+00 -1.0478379912e-03 1.7039323286e+00 -2.9512973657e+00 1.7039323286e+00 2.9512973657e+00 
32600 6.7165482521e+00 -9.3924229915e-04 1.7039630763e+00 -2.9513506224e+00 1.7039630763e+00 2.9513506224e+00 
32700 6.7165504849e+00 -8.3190907383e-04 1.7039906369e+00 -2.9513983587e+00 1.7039906369e+00 2.9513983587e+00 
32800 6.7165528952e+00 -7.2592289253e-04 1.7040150476e+00 -2.9514406393e+00 1.7040150476e+00 2.9514406393e+00 
32900 6.7165554703e+00 -6.2136521769e-04 1.7040363480e+00 -2.9514775326e+00 1.7040363480e+00 2.9514775326e+00 
33000 6.7165581975e+00 -5.1831437618e-04 1.7040545802e+00 -2.9515091117e+00 1.7040545802e+00 2.9515091117e+00 
33100 6.7165610639e+00 -4.1684554194e-04 1.7040697885e+00 -2.9515354533e+00 1.7040697885e+00 2.9515354533e+00 
33200 6.7165640562e+00 -3.1703072183e-04 1.7040820194e+00 -2.9515566378e+00 1.7040820194e+00 2.9515566378e+00 
33300 6.7165671615e+00 -2.1893874471e-04 1.7040913215e+00 -2.9515727495e+00 1.7040913215e+00 2.9515727495e+00 
33400 6.7165703666e+00 -1.2263525366e-04 1.7040977454e+00 -2.9515838761e+00 1.7040977454e+00 2.9515838761e+00 
33500 6.7165736585e+00 -2.8182701424e-05 1.7041013436e+00 -2.9515901084e+00 1.7041013436e+00 2.9515901084e+00 
33600 6.7165770241e+00 6.3243973330e-05 1.7041013436e+00 -2.9515901084e+00 1.7041013436e+00 2.9515901084e+00 
33700 6.7165804513e+00 1.5635966908e-04 1.7041013436e+00 -2.9515901084e+00 1.7041013436e+00 2.9515901084e+00 
33800 6.7165839268e+00 2.4487081483e-04 1.7040967559e+00 -2.9515821622e+00 1.7040967559e+00 2.9515821622e+00 
33900 6.7165874384e+00 3.3131481570e-04 1.7040895711e+00 -2.9515697178e+00 1.7040895711e+00 2.9515697178e+00 
34000 6.7165909743e+00 4.1564504077e-04 1.7040798500e+00 -2.9515528803e+00 1.7040798500e+00 2.9515528803e+00 
34100 6.7165945225e+00 4.9781801750e-04 1.7040676544e+00 -2.9515317569e+00 1.7040676544e+00 2.9515317569e+00 
34200 6.7165980719e+00 5.7779341490e-04 1.7040530477e+00 -2.9515064573e+00 1.7040530477e+00 2.9515064573e+00 
34300 6.7166016114e+00 6.5553402389e-04 1.7040360942e+00 -2.9514770931e+00 1.7040360942e+00 2.9514770931e+00 
34400 6.7166051305e+00 7.3100573487e-04 1.7040168595e+00 -2.9514437776e+00 1.7040168595e+00 2.9514437776e+00 
34500 6.7166086192e+00 8.0417751251e-04 1.7039954100e+00 -2.9514066260e+00 1.7039954100e+00 2.9514066260e+00 
34600 6.7166120679e+00 8.7502136787e-04 1.7039718133e+00 -2.9513657552e+00 1.7039718133e+00 2.9513657552e+00 
34700 6.7166154674e+00 9.4351232788e-04 1.7039461374e+00 -2.9513212833e+00 1.7039461374e+00 2.9513212833e+00 
34800 6.7166188092e+00 1.0096284022e-03 1.7039184514e+00 -2.9512733297e+00 1.7039184514e+00 2.9512733297e+00 
34900 6.7166220851e+00 1.0733505478e-03 1.7038888248e+00 -2.9512220150e+00 1.7038888248e+00 2.9512220150e+00 
35000 6.7166252876e+00 1.1346626306e-03 1.7038573278e+00 -2.9511674606e+00 1.7038573278e+00 2.9511674606e+00 
35100 6.7166284098e+00 1.1935513852e-03 1.7038240310e+00 -2.9511097889e+00 1.7038240310e+00 2.9511097889e+00 
35200 6.7166314452e+00 1.2500063722e-03 1.7037890055e+00 -2.9510491229e+00 1.7037890055e+00 2.9510491229e+00 
35300 6.7166343878e+00 1.3040199331e-03 1.7037523225e+00 -2.9509855861e+00 1.7037523225e+00 2.9509855861e+00 
35400 6.7166372325e+00 1.3555871431e-03 1.7037140536e+00 -2.9509193024e+00 1.7037140536e+00 2.9509193024e+00 
35500 6.7166399742e+00 1.4047057621e-03 1.7036742704e+00 -2.9508503959e+00 1.7036742704e+00 2.9508503959e+00 
35600 6.7166426090e+00 1.4513761831e-03 1.7036330448e+00 -2.9507789911e+00 1.7036330448e+00 2.9507789911e+00 
35700 6.7166451330e+00 1.4956013796e-03 1.7035904485e+00 -2.9507052121e+00 1.7035904485e+00 2.9507052121e+00 
35800 6.7166475432e+00 1.5373868498e-03 1.7035465531e+00 -2.9506291831e+00 1.7035465531e+00 2.9506291831e+00 
35900 6.7166498369e+00 1.5767405605e-03 1.7035014302e+00 -2.9505510279e+00 1.7035014302e+00 2.9505510279e+00 
36000 6.7166520122e+00 1.6136728886e-03 1.7034551510e+00 -2.9504708700e+00 1.7034551510e+00 2.9504708700e+00 
36100 6.7166540673e+00 1.6481965608e-03 1.7034077865e+00 -2.9503888323e+00 1.7034077865e+00 2.9503888323e+00 
36200 6.7166560014e+00 1.6803265922e-03 1.7033594074e+00 -2.9503050371e+00 1.7033594074e+00 2.9503050371e+00 
36300 6.7166578137e+00 1.7100802238e-03 1.7033100837e+00 -2.9502196060e+00 1.7033100837e+00 2.9502196060e+00 
36400 6.7166595041e+00 1.7374768580e-03 1.7032598852e+00 -2.9501326597e+00 1.7032598852e+00 2.9501326597e+00 
36500 6.7166610731e+00 1.7625379930e-03 1.7032088810e+00 -2.9500443178e+00 1.7032088810e+00 2.9500443178e+00 
36600 6.7166625213e+00 1.7852871569e-03 1.7031571396e+00 -2.9499546991e+00 1.7031571396e+00 2.9499546991e+00 
36700 6.7166638499e+00 1.8057498399e-03 1.7031047288e+00 -2.9498639208e+00 1.7031047288e+00 2.9498639208e+00 
36800 6.7166650605e+00 1.8239534258e-03 1.7030517156e+00 -2.9497720993e+00 1.7030517156e+00 2.9497720993e+00 
36900 6.7166661551e+00 1.8399271229e-03 1.7029981663e+00 -2.9496793492e+00 1.7029981663e+00 2.9496793492e+00 
37000 6.7166671358e+00 1.8537018942e-03 1.7029441463e+00 -2.9495857839e+00 1.7029441463e+00 2.9495857839e+00 
37100 6.7166680053e+00 1.8653103863e-03 1.7028897202e+00 -2.9494915151e+00 1.7028897202e+00 2.9494915151e+00 
37200 6.7166687665e+00 1.8747868591e-03 1.7028349516e+00 -2.9493966530e+00 1.7028349516e+00 2.9493966530e+00 
37300 6.7166694225e+00 1.8821671137e-03 1.7027799029e+00 -2.9493013059e+00 1.7027799029e+00 2.9493013059e+00 
37400 6.7166699767e+00 1.8874884205e-03 1.7027246357e+00 -2.9492055803e+00 1.7027246357e+00 2.9492055803e+00 
37500 6.7166704329e+00 1.8907894476e-03 1.7026692104e+00 -2.9491095810e+00 1.7026692104e+00 2.9491095810e+00 
37600 6.7166707949e+00 1.8921101881e-03 1.7026136865e+00 -2.9490134106e+00 1.7026136865e+00 2.9490134106e+00 
37700 6.7166710667e+00 1.8914918879e-03 1.7025581219e+00 -2.9489171700e+00 1.7025581219e+00 2.9489171700e+00 
37800 6.7166712526e+00 1.8889769735e-03 1.7025025737e+00 -2.9488209576e+00 1.7025025737e+00 2.9488209576e+00 
37900 6.7166713568e+00 1.8846089800e-03 1.7024470975e+00 -2.9487248701e+00 1.7024470975e+00 2.9487248701e+00 
38000 6.7166713839e+00 1.8784324788e-03 1.7023917478e+00 -2.9486290016e+00 1.7023917478e+00 2.9486290016e+00 
38100 6.7166713384e+00 1.8704930066e-03 1.7023365777e+00 -2.9485334442e+00 1.7023365777e+00 2.9485334442e+00 
38200 6.7166712249e+00 1.8608369936e-03 1.7022816390e+00 -2.9484382876e+00 1.7022816390e+00 2.9484382876e+00 
38300 6.7166710480e+00 1.8495116929e-03 1.7022269822e+00 -2.9483436191e+00 1.7022269822e+00 2.9483436191e+00 
38400 6.7166708126e+00 1.8365651108e-03 1.7021726562e+00 -2.9482495238e+00 1.7021726562e+00 2.9482495238e+00 
38500 6.7166705233e+00 1.8220459364e-03 1.7021187088e+00 -2.9481560842e+00 1.7021187088e+00 2.9481560842e+00 
38600 6.7166701849e+00 1.8060034735e-03 1.7020651862e+00 -2.9480633803e+00 1.7020651862e+00 2.9480633803e+00 
38700 6.7166698020e+00 1.7884875723e-03 1.7020121332e+00 -2.9479714898e+00 1.7020121332e+00 2.9479714898e+00 
38800 6.7166693792e+00 1.7695485619e-03 1.7019595931e+00 -2.9478804877e+00 1.7019595931e+00 2.9478804877e+00 
38900 6.7166689212e+00 1.7492371846e-03 1.7019076077e+00 -2.9477904464e+00 1.7019076077e+00 2.9477904464e+00 
39000 6.7166684325e+00 1.7276045301e-03 1.7018562175e+00 -2.9477014359e+00 1.7018562175e+00 2.9477014359e+00 
39100 6.7166679174e+00 1.7047019714e-03 1.7018054613e+00 -2.9476135235e+00 1.7018054613e+00 2.9476135235e+00 
39200 6.7166673804e+00 1.6805811017e-03 1.7017553764e+00 -2.9475267740e+00 1.7017553764e+00 2.9475267740e+00 
39300 6.7166668256e+00 1.6552936726e-03 1.7017059988e+00 -2.9474412495e+00 1.7017059988e+00 2.9474412495e+00 
39400 6.7166662571e+00 1.6288915332e-03 1.7016573627e+00 -2.9473570093e+00 1.7016573627e+00 2.9473570093e+00 
39500 6.7166656788e+00 1.6014265703e-03 1.7016095010e+00 -2.9472741104e+00 1.7016095010e+00 2.9472741104e+00 
39600 6.7166650946e+00 1.5729506511e-03 1.7015624450e+00 -2.9471926070e+00 1.7015624450e+00 2.9471926070e+00 
39700 6.7166645080e+00 1.5435155655e-03 1.7015162245e+00 -2.9471125507e+00 1.7015162245e+00 2.9471125507e+00 
39800 6.7166639227e+00 1.5131729712e-03 1.7014708676e+00 -2.9470339903e+00 1.7014708676e+00 2.9470339903e+00 
39900 6.7166633418e+00 1.4819743397e-03 1.7014264012e+00 -2.9469569722e+00 1.7014264012e+00 2.9469569722e+00 
40000 6.7166627685e+00 1.4499709040e-03 1.7013828504e+00 -2.9468815401e+00 1.7013828504e+00 2.9468815401e+00 
40100 6.7166622058e+00 1.4172136072e-03 1.7013402391e+00 -2.9468077350e+00 1.7013402391e+00 2.9468077350e+00 
40200 6.7166616564e+00 1.3837530535e-03 1.7012985893e+00 -2.9467355955e+00 1.7012985893e+00 2.9467355955e+00 
40300 6.7166611230e+00 1.3496394603e-03 1.7012579219e+00 -2.9466651575e+00 1.7012579219e+00 2.9466651575e+00 
40400 6.7166606078e+00 1.3149226118e-03 1.7012182561e+00 -2.9465964544e+00 1.7012182561e+00 2.9465964544e+00 
40500 6.7166601132e+00 1.2796518146e-03 1.7011796098e+00 -2.9465295170e+00 1.7011796098e+00 2.9465295170e+00 
40600 6.7166596411e+00 1.2438758544e-03 1.7011419992e+00 -2.9464643735e+00 1.7011419992e+00 2.9464643735e+00 
40700 6.7166591934e+00 1.2076429549e-03 1.7011054393e+00 -2.9464010499e+00 1.7011054393e+00 2.9464010499e+00 
40800 6.7166587717e+00 1.1710007378e-03 1.7010699436e+00 -2.9463395696e+00 1.7010699436e+00 2.9463395696e+00 
40900 6.7166583774e+00 1.1339961851e-03 1.7010355242e+00 -2.9462799534e+00 1.7010355242e+00 2.9462799534e+00 
41000 6.7166580118e+00 1.0966756025e-03 1.7010021918e+00 -2.9462222199e+00 1.7010021918e+00 2.9462222199e+00 
41100 6.7166576759e+00 1.0590845845e-03 1.7009699557e+00 -2.9461663855e+00 1.7009699557e+00 2.9461663855e+00 
41200 6.7166573708e+00 1.0212679818e-03 1.7009388240e+00 -2.9461124638e+00 1.7009388240e+00 2.9461124638e+00 
41300 6.7166570970e+00 9.8326986952e-04 1.7009088034e+00 -2.9460604665e+00 1.7009088034e+00 2.9460604665e+00 
41400 6.7166568552e+00 9.4513351765e-04 1.7008798992e+00 -2.9460104030e+00 1.7008798992e+00 2.9460104030e+00 
41500 6.7166566456e+00 9.0690136297e-04 1.7008521156e+00 -2.9459622805e+00 1.7008521156e+00 2.9459622805e+00 
41600 6.7166564687e+00 8.6861498264e-04 1.7008254555e+00 -2.9459161037e+00 1.7008254555e+00 2.9459161037e+00 
41700 6.7166563244e+00 8.3031506938e-04 1.7007999205e+00 -2.9458718758e+00 1.7007999205e+00 2.9458718758e+00 
41800 6.7166562126e+00 7.9204140838e-04 1.7007755110e+00 -2.9458295973e+00 1.7007755110e+00 2.9458295973e+00 
41900 6.7166561331e+00 7.5383285569e-04 1.7007522263e+00 -2.9457892671e+00 1.7007522263e+00 2.9457892671e+00 
42000 6.7166560857e+00 7.1572731832e-04 1.7007300646e+00 -2.9457508819e+00 1.7007300646e+00 2.9457508819e+00 
42100 6.7166560698e+00 6.7776173583e-04 1.7007090229e+00 -2.9457144366e+00 1.7007090229e+00 2.9457144366e+00 
42200 6.7166560848e+00 6.3997206350e-04 1.7006890971e+00 -2.9456799240e+00 1.7006890971e+00 2.9456799240e+00 
42300 6.7166561301e+00 6.0239325704e-04 1.7006702820e+00 -2.9456473354e+00 1.7006702820e+00 2.9456473354e+00 
42400 6.7166562048e+00 5.6505925883e-04 1.7006525716e+00 -2.9456166600e+00 1.7006525716e+00 2.9456166600e+00 
42500 6.7166563080e+00 5.2800298554e-04 1.7006359586e+00 -2.9455878855e+00 1.7006359586e+00 2.9455878855e+00 
42600 6.7166564388e+00 4.9125631736e-04 1.7006204349e+00 -2.9455609977e+00 1.7006204349e+00 2.9455609977e+00 
42700 6.7166565961e+00 4.5485008850e-04 1.7006059915e+00 -2.9455359810e+00 1.7006059915e+00 2.9455359810e+00 
42800 6.7166567786e+00 4.1881407924e-04 1.7005926184e+00 -2.9455128180e+00 1.7005926184e+00 2.9455128180e+00 
42900 6.7166569854e+00 3.8317700921e-04 1.7005803046e+00 -2.9454914899e+00 1.7005803046e+00 2.9454914899e+00 
43000 6.7166572150e+00 3.4796653211e-04 1.7005690386e+00 -2.9454719766e+00 1.7005690386e+00 2.9454719766e+00 
43100 6.7166574661e+00 3.1320923171e-04 1.7005588077e+00 -2.9454542562e+00 1.7005588077e+00 2.9454542562e+00 
43200 6.7166577375e+00 2.7893061911e-04 1.7005495987e+00 -2.9454383057e+00 1.7005495987e+00 2.9454383057e+00 
43300 6.7166580277e+00 2.4515513125e-04 1.7005413975e+00 -2.9454241008e+00 1.7005413975e+00 2.9454241008e+00 
43400 6.7166583353e+00 2.1190613064e-04 1.7005341894e+00 -2.9454116160e+00 1.7005341894e+00 2.9454116160e+00 
43500 6.7166586590e+00 1.7920590627e-04 1.7005279588e+00 -2.9454008243e+00 1.7005279588e+00 2.9454008243e+00 
43600 6.7166589971e+00 1.4707567565e-04 1.7005226897e+00 -2.9453916979e+00 1.7005226897e+00 2.9453916979e+00 
43700 6.7166593484e+00 1.1553558793e-04 1.7005183652e+00 -2.9453842078e+00 1.7005183652e+00 2.9453842078e+00 
43800 6.7166597113e+00 8.4604728174e-05 1.7005149682e+00 -2.9453783239e+00 1.7005149682e+00 2.9453783239e+00 
43900 6.7166600844e+00 5.4301122568e-05 1.7005124805e+00 -2.9453740152e+00 1.7005124805e+00 2.9453740152e+00 
44000 6.7166604663e+00 2.6808544184e-05 1.7005124805e+00 -2.9453740152e+00 1.7005124805e+00 2.9453740152e+00 
44100 6.7166608554e+00 -1.1911084108e-06 1.7005124805e+00 -2.9453740152e+00 1.7005124805e+00 2.9453740152e+00 
44200 6.7166612504e+00 -2.9664978564e-05 1.7005124805e+00 -2.9453740152e+00 1.7005124805e+00 2.9453740152e+00 
44300 6.7166616501e+00 -5.8580730259e-05 1.7005124805e+00 -2.9453740152e+00 1.7005124805e+00 2.9453740152e+00 
44400 6.7166620533e+00 -8.7906549874e-05 1.7005124805e+00 -2.9453740152e+00 1.7005124805e+00 2.9453740152e+00 
44500 6.7166624583e+00 -1.1410396327e-04 1.7005150653e+00 -2.9453784921e+00 1.7005150653e+00 2.9453784921e+00 
44600 6.7166628640e+00 -1.3957795013e-04 1.7005184202e+00 -2.9453843031e+00 1.7005184202e+00 2.9453843031e+00 
44700 6.7166632692e+00 -1.6431859860e-04 1.7005225242e+00 -2.9453914114e+00 1.7005225242e+00 2.9453914114e+00 
44800 6.7166636727e+00 -1.8831697040e-04 1.7005273556e+00 -2.9453997796e+00 1.7005273556e+00 2.9453997796e+00 
44900 6.7166640733e+00 -2.1156508698e-04 1.7005328927e+00 -2.9454093700e+00 1.7005328927e+00 2.9454093700e+00 
45000 6.7166644701e+00 -2.3405591508e-04 1.7005391132e+00 -2.9454201443e+00 1.7005391132e+00 2.9454201443e+00 
45100 6.7166648619e+00 -2.5578335171e-04 1.7005459950e+00 -2.9454320640e+00 1.7005459950e+00 2.9454320640e+00 
45200 6.7166652479e+00 -2.7674220846e-04 1.7005535157e+00 -2.9454450901e+00 1.7005535157e+00 2.9454450901e+00 
45300 6.7166656270e+00 -2.9692819537e-04 1.7005616525e+00 -2.9454591835e+00 1.7005616525e+00 2.9454591835e+00 
45400 6.7166659985e+00 -3.1633790422e-04 1.7005703828e+00 -2.9454743049e+00 1.7005703828e+00 2.9454743049e+00 
45500 6.7166663617e+00 -3.3496879137e-04 1.7005796837e+00 -2.9454904146e+00 1.7005796837e+00 2.9454904146e+00 
45600 6.7166667156e+00 -3.5281916015e-04 1.7005895324e+00 -2.9455074730e+00 1.7005895324e+00 2.9455074730e+00 
45700 6.7166670598e+00 -3.6988814278e-04 1.7005999059e+00 -2.9455254403e+00 1.7005999059e+00 2.9455254403e+00 
45800 6.7166673935e+00 -3.8617568197e-04 1.7006107811e+00 -2.9455442768e+00 1.7006107811e+00 2.9455442768e+00 
45900 6.7166677163e+00 -4.0168251213e-04 1.7006221351e+00 -2.9455639425e+00 1.7006221351e+00 2.9455639425e+00 
46000 6.7166680277e+00 -4.1641014027e-04 1.7006339450e+00 -2.9455843979e+00 1.7006339450e+00 2.9455843979e+00 
46100 6.7166683272e+00 -4.3036082653e-04 1.7006461878e+00 -2.9456056030e+00 1.7006461878e+00 2.9456056030e+00 
46200 6.7166686145e+00 -4.4353756453e-04 1.7006588407e+00 -2.9456275185e+00 1.7006588407e+00 2.9456275185e+00 
46300 6.7166688892e+00 -4.5594406141e-04 1.7006718809e+00 -2.9456501047e+00 1.7006718809e+00 2.9456501047e+00 
46400 6.7166691512e+00 -4.6758471768e-04 1.7006852857e+00 -2.9456733226e+00 1.7006852857e+00 2.9456733226e+00 
46500 6.7166694002e+00 -4.7846460685e-04 1.7006990327e+00 -2.9456971330e+00 1.7006990327e+00 2.9456971330e+00 
46600 6.7166696361e+00 -4.8858945491e-04 1.7007130994e+00 -2.9457214973e+00 1.7007130994e+00 2.9457214973e+00 
46700 6.7166698589e+00 -4.9796561965e-04 1.7007274637e+00 -2.9457463770e+00 1.7007274637e+00 2.9457463770e+00 
46800 6.7166700684e+00 -5.0660006992e-04 1.7007421035e+00 -2.9457717338e+00 1.7007421035e+00 2.9457717338e+00 
46900 6.7166702648e+00 -5.1450036465e-04 1.7007569970e+00 -2.9457975302e+00 1.7007569970e+00 2.9457975302e+00 
47000 6.7166704480e+00 -5.2167463198e-04 1.7007721227e+00 -2.9458237286e+00 1.7007721227e+00 2.9458237286e+00 
47100 6.7166706182e+00 -5.2813154819e-04 1.7007874591e+00 -2.9458502921e+00 1.7007874591e+00 2.9458502921e+00 
47200 6.7166707756e+00 -5.3388031668e-04 1.7008029852e+00 -2.9458771841e+00 1.7008029852e+00 2.9458771841e+00 
47300 6.7166709203e+00 -5.3893064690e-04 1.7008186802e+00 -2.9459043686e+00 1.7008186802e+00 2.9459043686e+00 
47400 6.7166710525e+00 -5.4329273331e-04 1.7008345235e+00 -2.9459318100e+00 1.7008345235e+00 2.9459318100e+00 
47500 6.7166711726e+00 -5.4697723438e-04 1.7008504949e+00 -2.9459594732e+00 1.7008504949e+00 2.9459594732e+00 
47600 6.7166712809e+00 -5.4999525160e-04 1.7008665744e+00 -2.9459873238e+00 1.7008665744e+00 2.9459873238e+00 
47700 6.7166713776e+00 -5.5235830857e-04 1.7008827425e+00 -2.9460153278e+00 1.7008827425e+00 2.9460153278e+00 
47800 6.7166714631e+00 -5.5407833024e-04 1.7008989800e+00 -2.9460434518e+00 1.7008989800e+00 2.9460434518e+00 
47900 6.7166715379e+00 -5.5516762214e-04 1.7009152678e+00 -2.9460716632e+00 1.7009152678e+00 2.9460716632e+00 
48000 6.7166716022e+00 -5.5563884979e-04 1.7009315875e+00 -2.9460999297e+00 1.7009315875e+00 2.9460999297e+00 
48100 6.7166716566e+00 -5.5550501826e-04 1.7009479209e+00 -2.9461282200e+00 1.7009479209e+00 2.9461282200e+00 
48200 6.7166717015e+00 -5.5477945188e-04 1.7009642502e+00 -2.9461565032e+00 1.7009642502e+00 2.9461565032e+00 
48300 6.7166717374e+00 -5.5347577400e-04 1.7009805580e+00 -2.9461847492e+00 1.7009805580e+00 2.9461847492e+00 
48400 6.7166717647e+00 -5.5160788712e-04 1.7009968274e+00 -2.9462129285e+00 1.7009968274e+00 2.9462129285e+00 
48500 6.7166717839e+00 -5.4918995308e-04 1.7010130416e+00 -2.9462410124e+00 1.7010130416e+00 2.9462410124e+00 
48600 6.7166717955e+00 -5.4623637344e-04 1.7010291847e+00 -2.9462689730e+00 1.7010291847e+00 2.9462689730e+00 
48700 6.7166718000e+00 -5.4276177021e-04 1.7010452408e+00 -2.9462967830e+00 1.7010452408e+00 2.9462967830e+00 
48800 6.7166717980e+00 -5.3878096663e-04 1.7010611946e+00 -2.9463244158e+00 1.7010611946e+00 2.9463244158e+00 
48900 6.7166717898e+00 -5.3430896837e-04 1.7010770312e+00 -2.9463518456e+00 1.7010770312e+00 2.9463518456e+00 
49000 6.7166717761e+00 -5.2936094486e-04 1.7010927362e+00 -2.9463790476e+00 1.7010927362e+00 2.9463790476e+00 
49100 6.7166717573e+00 -5.2395221092e-04 1.7011082957e+00 -2.9464059973e+00 1.7011082957e+00 2.9464059973e+00 
49200 6.7166717340e+00 -5.1809820866e-04 1.7011236960e+00 -2.9464326715e+00 1.7011236960e+00 2.9464326715e+00 
49300 6.7166717065e+00 -5.1181448969e-04 1.7011389242e+00 -2.9464590474e+00 1.7011389242e+00 2.9464590474e+00 
49400 6.7166716755e+00 -5.0511669760e-04 1.7011539675e+00 -2.9464851032e+00 1.7011539675e+00 2.9464851032e+00 
49500 6.7166716413e+00 -4.9802055069e-04 1.7011688138e+00 -2.9465108178e+00 1.7011688138e+00 2.9465108178e+00 
49600 6.7166716045e+00 -4.9054182514e-04 1.7011834514e+00 -2.9465361709e+00 1.7011834514e+00 2.9465361709e+00 
49700 6.7166715655e+00 -4.8269633834e-04 1.7011978691e+00 -2.9465611430e+00 1.7011978691e+00 2.9465611430e+00 
49800 6.7166715247e+00 -4.7449993268e-04 1.7012120561e+00 -2.9465857156e+00 1.7012120561e+00 2.9465857156e+00 
49900 6.7166714826e+00 -4.6596845957e-04 1.7012260021e+00 -2.9466098707e+00 1.7012260021e+00 2.9466098707e+00 
50000 6.7166714395e+00 -4.5711776385e-04 1.7012396971e+00 -2.9466335913e+00 1.7012396971e+00 2.9466335913e+00 
50100 6.7166713960e+00 -4.4796366855e-04 1.7012531320e+00 -2.9466568612e+00 1.7012531320e+00 2.9466568612e+00 
50200 6.7166713522e+00 -4.3852195997e-04 1.7012662977e+00 -2.9466796649e+00 1.7012662977e+00 2.9466796649e+00 
50300 6.7166713087e+00 -4.2880837310e-04 1.7012791858e+00 -2.9467019877e+00 1.7012791858e+00 2.9467019877e+00 
50400 6.7166712657e+00 -4.1883857747e-04 1.7012917884e+00 -2.9467238160e+00 1.7012917884e+00 2.9467238160e+00 
50500 6.7166712236e+00 -4.0862816331e-04 1.7013040978e+00 -2.9467451366e+00 1.7013040978e+00 2.9467451366e+00 
50600 6.7166711827e+00 -3.9819262807e-04 1.7013161071e+00 -2.9467659372e+00 1.7013161071e+00 2.9467659372e+00 
50700 6.7166711432e+00 -3.8754736335e-04 1.7013278096e+00 -2.9467862066e+00 1.7013278096e+00 2.9467862066e+00 
50800 6.7166711054e+00 -3.7670764219e-04 1.7013391992e+00 -2.9468059339e+00 1.7013391992e+00 2.9468059339e+00 
50900 6.7166710696e+00 -3.6568860673e-04 1.7013502701e+00 -2.9468251093e+00 1.7013502701e+00 2.9468251093e+00 
51000 6.7166710359e+00 -3.5450525628e-04 1.7013610171e+00 -2.9468437237e+00 1.7013610171e+00 2.9468437237e+00 
51100 6.7166710046e+00 -3.4317243570e-04 1.7013714354e+00 -2.9468617687e+00 1.7013714354e+00 2.9468617687e+00 
51200 6.7166709759e+00 -3.3170482431e-04 1.7013815206e+00 -2.9468792367e+00 1.7013815206e+00 2.9468792367e+00 
51300 6.7166709499e+00 -3.2011692499e-04 1.7013912687e+00 -2.9468961210e+00 1.7013912687e+00 2.9468961210e+00 
51400 6.7166709267e+00 -3.0842305390e-04 1.7014006762e+00 -2.9469124153e+00 1.7014006762e+00 2.9469124153e+00 
51500 6.7166709065e+00 -2.9663733037e-04 1.7014097400e+00 -2.9469281142e+00 1.7014097400e+00 2.9469281142e+00 
51600 6.7166708894e+00 -2.8477366735e-04 1.7014184574e+00 -2.9469432132e+00 1.7014184574e+00 2.9469432132e+00 
51700 6.7166708755e+00 -2.7284576213e-04 1.7014268262e+00 -2.9469577083e+00 1.7014268262e+00 2.9469577083e+00 
51800 6.7166708647e+00 -2.6086708757e-04 1.7014348443e+00 -2.9469715961e+00 1.7014348443e+00 2.9469715961e+00 
51900 6.7166708573e+00 -2.4885088362e-04 1.7014425104e+00 -2.9469848742e+00 1.7014425104e+00 2.9469848742e+00 
52000 6.7166708531e+00 -2.3681014926e-04 1.7014498234e+00 -2.9469975406e+00 1.7014498234e+00 2.9469975406e+00 
52100 6.7166708522e+00 -2.2475763490e-04 1.7014567824e+00 -2.9470095940e+00 1.7014567824e+00 2.9470095940e+00 
52200 6.7166708546e+00 -2.1270583506e-04 1.7014633873e+00 -2.9470210340e+00 1.7014633873e+00 2.9470210340e+00 
52300 6.7166708604e+00 -2.0066698154e-04 1.7014696380e+00 -2.9470318605e+00 1.7014696380e+00 2.9470318605e+00 
52400 6.7166708694e+00 -1.8865303691e-04 1.7014755348e+00 -2.9470420742e+00 1.7014755348e+00 2.9470420742e+00 
52500 6.7166708815e+00 -1.7667568840e-04 1.7014810787e+00 -2.9470516763e+00 1.7014810787e+00 2.9470516763e+00 
52600 6.7166708969e+00 -1.6474634221e-04 1.7014862705e+00 -2.9470606688e+00 1.7014862705e+00 2.9470606688e+00 
52700 6.7166709153e+00 -1.5287611817e-04 1.7014911117e+00 -2.9470690541e+00 1.7014911117e+00 2.9470690541e+00 
52800 6.7166709367e+00 -1.4107584477e-04 1.7014956041e+00 -2.9470768352e+00 1.7014956041e+00 2.9470768352e+00 
52900 6.7166709610e+00 -1.2935605460e-04 1.7014997498e+00 -2.9470840157e+00 1.7014997498e+00 2.9470840157e+00 
53000 6.7166709881e+00 -1.1772698014e-04 1.7015035510e+00 -2.9470905996e+00 1.7015035510e+00 2.9470905996e+00 
53100 6.7166710179e+00 -1.0619854992e-04 1.7015070105e+00 -2.9470965917e+00 1.7015070105e+00 2.9470965917e+00 
53200 6.7166710502e+00 -9.4780385052e-05 1.7015101312e+00 -2.9471019969e+00 1.7015101312e+00 2.9471019969e+00 
53300 6.7166710850e+00 -8.3481796147e-05 1.7015129164e+00 -2.9471068210e+00 1.7015129164e+00 2.9471068210e+00 
53400 6.7166711221e+00 -7.2311780541e-05 1.7015153696e+00 -2.9471110700e+00 1.7015153696e+00 2.9471110700e+00 
53500 6.7166711614e+00 -6.1279019921e-05 1.7015174945e+00 -2.9471147505e+00 1.7015174945e+00 2.9471147505e+00 
53600 6.7166712028e+00 -5.2830703656e-05 1.7015174945e+00 -2.9471147505e+00 1.7015174945e+00 2.9471147505e+00 
53700 6.7166712460e+00 -4.4121252259e-05 1.7015174945e+00 -2.9471147505e+00 1.7015174945e+00 2.9471147505e+00 
53800 6.7166712909e+00 -3.5161729861e-05 1.7015174945e+00 -2.9471147505e+00 1.7015174945e+00 2.9471147505e+00 
53900 6.7166713373e+00 -2.5963102786e-05 1.7015174945e+00 -2.9471147505e+00 1.7015174945e+00 2.9471147505e+00 
54000 6.7166713852e+00 -1.6536237497e-05 1.7015174945e+00 -2.9471147505e+00 1.7015174945e+00 2.9471147505e+00 
54100 6.7166714342e+00 -6.8918984969e-06 1.7015174945e+00 -2.9471147505e+00 1.7015174945e+00 2.9471147505e+00 
54200 6.7166714844e+00 2.9592537368e-06 1.7015174945e+00 -2.9471147505e+00 1.7015174945e+00 2.9471147505e+00 
54300 6.7166715356e+00 1.3006664855e-05 1.7015174945e+00 -2.9471147505e+00 1.7015174945e+00 2.9471147505e+00 
54400 6.7166715876e+00 2.3239888736e-05 1.7015174945e+00 -2.9471147505e+00 1.7015174945e+00 2.9471147505e+00 
54500 6.7166716403e+00 3.3648589582e-05 1.7015174945e+00 -2.9471147505e+00 1.7015174945e+00 2.9471147505e+00 
54600 6.7166716935e+00 4.4222544038e-05 1.7015174945e+00 -2.9471147505e+00 1.7015174945e+00 2.9471147505e+00 
54700 6.7166717472e+00 5.4951643280e-05 1.7015174945e+00 -2.9471147505e+00 1.7015174945e+00 2.9471147505e+00 
54800 6.7166718012e+00 6.5825895121e-05 1.7015174945e+00 -2.9471147505e+00 1.7015174945e+00 2.9471147505e+00 
54900 6.7166718554e+00 7.6835426117e-05 1.7015174945e+00 -2.9471147505e+00 1.7015174945e+00 2.9471147505e+00 
55000 6.7166719094e+00 8.4912120450e-05 1.7015152367e+00 -2.9471108398e+00 1.7015152367e+00 2.9471108398e+00 
55100 6.7166719632e+00 9.2760011081e-05 1.7015127415e+00 -2.9471065180e+00 1.7015127415e+00 2.9471065180e+00 
55200 6.7166720167e+00 1.0037561178e-04 1.7015100157e+00 -2.9471017967e+00 1.7015100157e+00 2.9471017967e+00 
55300 6.7166720698e+00 1.0775575134e-04 1.7015070661e+00 -2.9470966879e+00 1.7015070661e+00 2.9470966879e+00 
55400 6.7166721223e+00 1.1489756982e-04 1.7015038996e+00 -2.9470912034e+00 1.7015038996e+00 2.9470912034e+00 
55500 6.7166721742e+00 1.2179851463e-04 1.7015005232e+00 -2.9470853554e+00 1.7015005232e+00 2.9470853554e+00 
55600 6.7166722254e+00 1.2845633639e-04 1.7014969441e+00 -2.9470791561e+00 1.7014969441e+00 2.9470791561e+00 
55700 6.7166722757e+00 1.3486908455e-04 1.7014931693e+00 -2.9470726179e+00 1.7014931693e+00 2.9470726179e+00 
55800 6.7166723250e+00 1.4103510289e-04 1.7014892060e+00 -2.9470657534e+00 1.7014892060e+00 2.9470657534e+00 
55900 6.7166723734e+00 1.4695302480e-04 1.7014850616e+00 -2.9470585750e+00 1.7014850616e+00 2.9470585750e+00 
56000 6.7166724206e+00 1.5262176835e-04 1.7014807432e+00 -2.9470510953e+00 1.7014807432e+00 2.9470510953e+00 
56100 6.7166724667e+00 1.5804053127e-04 1.7014762582e+00 -2.9470433271e+00 1.7014762582e+00 2.9470433271e+00 
56200 6.7166725115e+00 1.6320878571e-04 1.7014716140e+00 -2.9470352831e+00 1.7014716140e+00 2.9470352831e+00 
56300 6.7166725551e+00 1.6812627284e-04 1.7014668179e+00 -2.9470269760e+00 1.7014668179e+00 2.9470269760e+00 
56400 6.7166725973e+00 1.7279299736e-04 1.7014618773e+00 -2.9470184186e+00 1.7014618773e+00 2.9470184186e+00 
56500 6.7166726381e+00 1.7720922180e-04 1.7014567995e+00 -2.9470096236e+00 1.7014567995e+00 2.9470096236e+00 
56600 6.7166726775e+00 1.8137546075e-04 1.7014515919e+00 -2.9470006039e+00 1.7014515919e+00 2.9470006039e+00 
56700 6.7166727154e+00 1.8529247494e-04 1.7014462619e+00 -2.9469913720e+00 1.7014462619e+00 2.9469913720e+00 
56800 6.7166727519e+00 1.8896126518e-04 1.7014408168e+00 -2.9469819407e+00 1.7014408168e+00 2.9469819407e+00 
56900 6.7166727868e+00 1.9238306624e-04 1.7014352638e+00 -2.9469723227e+00 1.7014352638e+00 2.9469723227e+00 
57000 6.7166728202e+00 1.9555934060e-04 1.7014296103e+00 -2.9469625305e+00 1.7014296103e+00 2.9469625305e+00 
57100 6.7166728521e+00 1.9849177212e-04 1.7014238633e+00 -2.9469525765e+00 1.7014238633e+00 2.9469525765e+00 
57200 6.7166728825e+00 2.0118225962e-04 1.7014180302e+00 -2.9469424733e+00 1.7014180302e+00 2.9469424733e+00 
57300 6.7166729113e+00 2.0363291034e-04 1.7014121180e+00 -2.9469322331e+00 1.7014121180e+00 2.9469322331e+00 
57400 6.7166729386e+00 2.0584603344e-04 1.7014061338e+00 -2.9469218681e+00 1.7014061338e+00 2.9469218681e+00 
57500 6.7166729644e+00 2.0782413332e-04 1.7014000845e+00 -2.9469113904e+00 1.7014000845e+00 2.9469113904e+00 
57600 6.7166729887e+00 2.0956990295e-04 1.7013939771e+00 -2.9469008120e+00 1.7013939771e+00 2.9469008120e+00 
57700 6.7166730116e+00 2.1108621714e-04 1.7013878183e+00 -2.9468901447e+00 1.7013878183e+00 2.9468901447e+00 
57800 6.7166730330e+00 2.1237612576e-04 1.7013816150e+00 -2.9468794002e+00 1.7013816150e+00 2.9468794002e+00 
57900 6.7166730530e+00 2.1344284694e-04 1.7013753737e+00 -2.9468685900e+00 1.7013753737e+00 2.9468685900e+00 
58000 6.7166730716e+00 2.1428976021e-04 1.7013691010e+00 -2.9468577254e+00 1.7013691010e+00 2.9468577254e+00 
58100 6.7166730889e+00 2.1492039973e-04 1.7013628035e+00 -2.9468468177e+00 1.7013628035e+00 2.9468468177e+00 
58200 6.7166731048e+00 2.1533844732e-04 1.7013564874e+00 -2.9468358779e+00 1.7013564874e+00 2.9468358779e+00 
58300 6.7166731195e+00 2.1554772568e-04 1.7013501589e+00 -2.9468249167e+00 1.7013501589e+00 2.9468249167e+00 
58400 6.7166731330e+00 2.1555219150e-04 1.7013438243e+00 -2.9468139449e+00 1.7013438243e+00 2.9468139449e+00 
58500 6.7166731454e+00 2.1535592859e-04 1.7013374896e+00 -2.9468029727e+00 1.7013374896e+00 2.9468029727e+00 
58600 6.7166731566e+00 2.1496314106e-04 1.7013311605e+00 -2.9467920106e+00 1.7013311605e+00 2.9467920106e+00 
58700 6.7166731667e+00 2.1437814649e-04 1.7013248431e+00 -2.9467810683e+00 1.7013248431e+00 2.9467810683e+00 
58800 6.7166731758e+00 2.1360536918e-04 1.7013185427e+00 -2.9467701559e+00 1.7013185427e+00 2.9467701559e+00 
58900 6.7166731840e+00 2.1264933333e-04 1.7013122651e+00 -2.9467592827e+00 1.7013122651e+00 2.9467592827e+00 
59000 6.7166731913e+00 2.1151465640e-04 1.7013060155e+00 -2.9467484581e+00 1.7013060155e+00 2.9467484581e+00 
59100 6.7166731977e+00 2.1020604238e-04 1.7012997993e+00 -2.9467376913e+00 1.7012997993e+00 2.9467376913e+00 
59200 6.7166732033e+00 2.0872827523e-04 1.7012936215e+00 -2.9467269910e+00 1.7012936215e+00 2.9467269910e+00 
59300 6.7166732082e+00 2.0708621228e-04 1.7012874871e+00 -2.9467163659e+00 1.7012874871e+00 2.9467163659e+00 
59400 6.7166732123e+00 2.0528477777e-04 1.7012814009e+00 -2.9467058244e+00 1.7012814009e+00 2.9467058244e+00 
59500 6.7166732159e+00 2.0332895640e-04 1.7012753677e+00 -2.9466953745e+00 1.7012753677e+00 2.9466953745e+00 
59600 6.7166732189e+00 2.0122378700e-04 1.7012693919e+00 -2.9466850242e+00 1.7012693919e+00 2.9466850242e+00 
59700 6.7166732214e+00 1.9897435623e-04 1.7012634780e+00 -2.9466747809e+00 1.7012634780e+00 2.9466747809e+00 
59800 6.7166732234e+00 1.9658579243e-04 1.7012576302e+00 -2.9466646522e+00 1.7012576302e+00 2.9466646522e+00 
59900 6.7166732250e+00 1.9406325947e-04 1.7012518525e+00 -2.9466546450e+00 1.7012518525e+00 2.9466546450e+00 
60000 6.7166732262e+00 1.9141195078e-04 1.7012461490e+00 -2.9466447662e+00 1.7012461490e+00 2.9466447662e+00 
60100 6.7166732271e+00 1.8863708340e-04 1.7012405233e+00 -2.9466350223e+00 1.7012405233e+00 2.9466350223e+00 
60200 6.7166732278e+00 1.8574389221e-04 1.7012349792e+00 -2.9466254196e+00 1.7012349792e+00 2.9466254196e+00 
60300 6.7166732283e+00 1.8273762418e-04 1.7012295201e+00 -2.9466159642e+00 1.7012295201e+00 2.9466159642e+00 
60400 6.7166732285e+00 1.7962353279e-04 1.7012241494e+00 -2.9466066618e+00 1.7012241494e+00 2.9466066618e+00 
60500 6.7166732287e+00 1.7640687252e-04 1.7012188701e+00 -2.9465975179e+00 1.7012188701e+00 2.9465975179e+00 
60600 6.7166732288e+00 1.7309289349e-04 1.7012136854e+00 -2.9465885377e+00 1.7012136854e+00 2.9465885377e+00 
60700 6.7166732288e+00 1.6968683621e-04 1.7012085981e+00 -2.9465797262e+00 1.7012085981e+00 2.9465797262e+00 
60800 6.7166732288e+00 1.6619392641e-04 1.7012036108e+00 -2.9465710880e+00 1.7012036108e+00 2.9465710880e+00 
60900 6.7166732289e+00 1.6261937004e-04 1.7011987263e+00 -2.9465626276e+00 1.7011987263e+00 2.9465626276e+00 
61000 6.7166732290e+00 1.5896834840e-04 1.7011939467e+00 -2.9465543492e+00 1.7011939467e+00 2.9465543492e+00 
61100 6.7166732293e+00 1.5524601334e-04 1.7011892744e+00 -2.9465462566e+00 1.7011892744e+00 2.9465462566e+00 
61200 6.7166732296e+00 1.5145748268e-04 1.7011847116e+00 -2.9465383535e+00 1.7011847116e+00 2.9465383535e+00 
61300 6.7166732301e+00 1.4760783565e-04 1.7011802601e+00 -2.9465306432e+00 1.7011802601e+00 2.9465306432e+00 
61400 6.7166732308e+00 1.4370210856e-04 1.7011759217e+00 -2.9465231289e+00 1.7011759217e+00 2.9465231289e+00 
61500 6.7166732317e+00 1.3974529060e-04 1.7011716980e+00 -2.9465158134e+00 1.7011716980e+00 2.9465158134e+00 
61600 6.7166732328e+00 1.3574231968e-04 1.7011675907e+00 -2.9465086993e+00 1.7011675907e+00 2.9465086993e+00 
61700 6.7166732341e+00 1.3169807853e-04 1.7011636010e+00 -2.9465017890e+00 1.7011636010e+00 2.9465017890e+00 
61800 6.7166732357e+00 1.2761739086e-04 1.7011597302e+00 -2.9464950845e+00 1.7011597302e+00 2.9464950845e+00 
61900 6.7166732376e+00 1.2350501772e-04 1.7011559793e+00 -2.9464885878e+00 1.7011559793e+00 2.9464885878e+00 
62000 6.7166732398e+00 1.1936565393e-04 1.7011523493e+00 -2.9464823004e+00 1.7011523493e+00 2.9464823004e+00 
62100 6.7166732422e+00 1.1520392471e-04 1.7011488409e+00 -2.9464762237e+00 1.7011488409e+00 2.9464762237e+00 
62200 6.7166732450e+00 1.1102438242e-04 1.7011454549e+00 -2.9464703589e+00 1.7011454549e+00 2.9464703589e+00 
62300 6.7166732480e+00 1.0683150351e-04 1.7011421916e+00 -2.9464647068e+00 1.7011421916e+00 2.9464647068e+00 
62400 6.7166732514e+00 1.0262968548e-04 1.7011390517e+00 -2.9464592682e+00 1.7011390517e+00 2.9464592682e+00 
62500 6.7166732551e+00 9.8423244106e-05 1.7011360352e+00 -2.9464540435e+00 1.7011360352e+00 2.9464540435e+00 
62600 6.7166732590e+00 9.4216410777e-05 1.7011331423e+00 -2.9464490329e+00 1.7011331423e+00 2.9464490329e+00 
62700 6.7166732633e+00 9.0013329935e-05 1.7011303731e+00 -2.9464442364e+00 1.7011303731e+00 2.9464442364e+00 
62800 6.7166732679e+00 8.5818056703e-05 1.7011277274e+00 -2.9464396540e+00 1.7011277274e+00 2.9464396540e+00 
62900 6.7166732729e+00 8.1634554630e-05 1.7011252050e+00 -2.9464352851e+00 1.7011252050e+00 2.9464352851e+00 
63000 6.7166732781e+00 7.7466693586e-05 1.7011228056e+00 -2.9464311291e+00 1.7011228056e+00 2.9464311291e+00 
63100 6.7166732836e+00 7.3318247793e-05 1.7011205286e+00 -2.9464271854e+00 1.7011205286e+00 2.9464271854e+00 
63200 6.7166732893e+00 6.9192894002e-05 1.7011183736e+00 -2.9464234528e+00 1.7011183736e+00 2.9464234528e+00 
63300 6.7166732955e+00 6.7850820567e-05 1.7011183736e+00 -2.9464234528e+00 1.7011183736e+00 2.9464234528e+00 
63400 6.7166733020e+00 6.6396469100e-05 1.7011183736e+00 -2.9464234528e+00 1.7011183736e+00 2.9464234528e+00 
63500 6.7166733086e+00 6.4833758196e-05 1.7011183736e+00 -2.9464234528e+00 1.7011183736e+00 2.9464234528e+00 
63600 6.7166733155e+00 6.3166569251e-05 1.7011183736e+00 -2.9464234528e+00 1.7011183736e+00 2.9464234528e+00 
63700 6.7166733226e+00 6.1398746151e-05 1.7011183736e+00 -2.9464234528e+00 1.7011183736e+00 2.9464234528e+00 
63800 6.7166733299e+00 5.9534094940e-05 1.7011183736e+00 -2.9464234528e+00 1.7011183736e+00 2.9464234528e+00 
63900 6.7166733373e+00 5.7576383503e-05 1.7011183736e+00 -2.9464234528e+00 1.7011183736e+00 2.9464234528e+00 
64000 6.7166733449e+00 5.5529341207e-05 1.7011183736e+00 -2.9464234528e+00 1.7011183736e+00 2.9464234528e+00 
64100 6.7166733526e+00 5.3396658587e-05 1.7011183736e+00 -2.9464234528e+00 1.7011183736e+00 2.9464234528e+00 
64200 6.7166733605e+00 5.1181986980e-05 1.7011183736e+00 -2.9464234528e+00 1.7011183736e+00 2.9464234528e+00 
64300 6.7166733685e+00 4.8888938169e-05 1.7011183736e+00 -2.9464234528e+00 1.7011183736e+00 2.9464234528e+00 
64400 6.7166733766e+00 4.6521084034e-05 1.7011183736e+00 -2.9464234528e+00 1.7011183736e+00 2.9464234528e+00 
64500 6.7166733848e+00 4.4081956170e-05 1.7011183736e+00 -2.9464234528e+00 1.7011183736e+00 2.9464234528e+00 
64600 6.7166733930e+00 4.1575045516e-05 1.7011183736e+00 -2.9464234528e+00 1.7011183736e+00 2.9464234528e+00 
64700 6.7166734014e+00 3.9003801979e-05 1.7011183736e+00 -2.9464234528e+00 1.7011183736e+00 2.9464234528e+00 
64800 6.7166734097e+00 3.6371634037e-05 1.7011183736e+00 -2.9464234528e+00 1.7011183736e+00 2.9464234528e+00 
64900 6.7166734181e+00 3.3681908360e-05 1.7011183736e+00 -2.9464234528e+00 1.7011183736e+00 2.9464234528e+00 
65000 6.7166734265e+00 3.0937949396e-05 1.7011183736e+00 -2.9464234528e+00 1.7011183736e+00 2.9464234528e+00 
65100 6.7166734349e+00 2.8143038986e-05 1.7011183736e+00 -2.9464234528e+00 1.7011183736e+00 2.9464234528e+00 
65200 6.7166734433e+00 2.5300415947e-05 1.7011183736e+00 -2.9464234528e+00 1.7011183736e+00 2.9464234528e+00 
65300 6.7166734517e+00 2.2413275664e-05 1.7011183736e+00 -2.9464234528e+00 1.7011183736e+00 2.9464234528e+00 
65400 6.7166734601e+00 1.9484769684e-05 1.7011183736e+00 -2.9464234528e+00 1.7011183736e+00 2.9464234528e+00 
65500 6.7166734683e+00 1.6518005294e-05 1.7011183736e+00 -2.9464234528e+00 1.7011183736e+00 2.9464234528e+00 
65600 6.7166734766e+00 1.3516045110e-05 1.7011183736e+00 -2.9464234528e+00 1.7011183736e+00 2.9464234528e+00 
65700 6.7166734848e+00 1.0481906664e-05 1.7011183736e+00 -2.9464234528e+00 1.7011183736e+00 2.9464234528e+00 
65800 6.7166734928e+00 7.4185619780e-06 1.7011183736e+00 -2.9464234528e+00 1.7011183736e+00 2.9464234528e+00 
65900 6.7166735008e+00 4.3289371636e-06 1.7011183736e+00 -2.9464234528e+00 1.7011183736e+00 2.9464234528e+00 
66000 6.7166735087e+00 1.2159119942e-06 1.7011183736e+00 -2.9464234528e+00 1.7011183736e+00 2.9464234528e+00 
66100 6.7166735165e+00 -1.9176804920e-06 1.7011183736e+00 -2.9464234528e+00 1.7011183736e+00 2.9464234528e+00 
66200 6.7166735242e+00 -5.0690544092e-06 1.7011183736e+00 -2.9464234528e+00 1.7011183736e+00 2.9464234528e+00 
66300 6.7166735317e+00 -8.2354714211e-06 1.7011183736e+00 -2.9464234528e+00 1.7011183736e+00 2.9464234528e+00 
66400 6.7166735391e+00 -1.1414241139e-05 1.7011183736e+00 -2.9464234528e+00 1.7011183736e+00 2.9464234528e+00 
66500 6.7166735464e+00 -1.4602721508e-05 1.7011183736e+00 -2.9464234528e+00 1.7011183736e+00 2.9464234528e+00 
66600 6.7166735535e+00 -1.7798319202e-05 1.7011183736e+00 -2.9464234528e+00 1.7011183736e+00 2.9464234528e+00 
66700 6.7166735605e+00 -2.0998489982e-05 1.7011183736e+00 -2.9464234528e+00 1.7011183736e+00 2.9464234528e+00 
66800 6.7166735673e+00 -2.4200739081e-05 1.7011183736e+00 -2.9464234528e+00 1.7011183736e+00 2.9464234528e+00 
66900 6.7166735740e+00 -2.7402621549e-05 1.7011183736e+00 -2.9464234528e+00 1.7011183736e+00 2.9464234528e+00 
67000 6.7166735804e+00 -3.0601742597e-05 1.7011183736e+00 -2.9464234528e+00 1.7011183736e+00 2.9464234528e+00 
67100 6.7166735868e+00 -3.3795757944e-05 1.7011183736e+00 -2.9464234528e+00 1.7011183736e+00 2.9464234528e+00 
67200 6.7166735929e+00 -3.6982374123e-05 1.7011183736e+00 -2.9464234528e+00 1.7011183736e+00 2.9464234528e+00 
67300 6.7166735989e+00 -4.0159348804e-05 1.7011183736e+00 -2.9464234528e+00 1.7011183736e+00 2.9464234528e+00 
67400 6.7166736047e+00 -4.3324491072e-05 1.7011183736e+00 -2.9464234528e+00 1.7011183736e+00 2.9464234528e+00 
67500 6.7166736103e+00 -4.6475661722e-05 1.7011183736e+00 -2.9464234528e+00 1.7011183736e+00 2.9464234528e+00 
67600 6.7166736158e+00 -4.9610773510e-05 1.7011183736e+00 -2.9464234528e+00 1.7011183736e+00 2.9464234528e+00 
67700 6.7166736211e+00 -5.2727791404e-05 1.7011183736e+00 -2.9464234528e+00 1.7011183736e+00 2.9464234528e+00 
67800 6.7166736262e+00 -5.5824732816e-05 1.7011183736e+00 -2.9464234528e+00 1.7011183736e+00 2.9464234528e+00 
67900 6.7166736311e+00 -5.8899667804e-05 1.7011183736e+00 -2.9464234528e+00 1.7011183736e+00 2.9464234528e+00 
68000 6.7166736359e+00 -6.1950719273e-05 1.7011183736e+00 -2.9464234528e+00 1.7011183736e+00 2.9464234528e+00 
68100 6.7166736404e+00 -6.4976063139e-05 1.7011183736e+00 -2.9464234528e+00 1.7011183736e+00 2.9464234528e+00 
68200 6.7166736449e+00 -6.7973928488e-05 1.7011183736e+00 -2.9464234528e+00 1.7011183736e+00 2.9464234528e+00 
68300 6.7166736491e+00 -7.0942597702e-05 1.7011183736e+00 -2.9464234528e+00 1.7011183736e+00 2.9464234528e+00 
68400 6.7166736530e+00 -7.1054483406e-05 1.7011204588e+00 -2.9464270644e+00 1.7011204588e+00 2.9464270644e+00 
68500 6.7166736567e+00 -7.1108055921e-05 1.7011225473e+00 -2.9464306818e+00 1.7011225473e+00 2.9464306818e+00 
68600 6.7166736603e+00 -7.1103454023e-05 1.7011246373e+00 -2.9464343018e+00 1.7011246373e+00 2.9464343018e+00 
68700 6.7166736637e+00 -7.1040925298e-05 1.7011267272e+00 -2.9464379216e+00 1.7011267272e+00 2.9464379216e+00 
68800 6.7166736669e+00 -7.0920821172e-05 1.7011288153e+00 -2.9464415382e+00 1.7011288153e+00 2.9464415382e+00 
68900 6.7166736700e+00 -7.0743592045e-05 1.7011308998e+00 -2.9464451487e+00 1.7011308998e+00 2.9464451487e+00 
69000 6.7166736730e+00 -7.0509782551e-05 1.7011329791e+00 -2.9464487502e+00 1.7011329791e+00 2.9464487502e+00 
69100 6.7166736759e+00 -7.3028604352e-05 1.7011329791e+00 -2.9464487502e+00 1.7011329791e+00 2.9464487502e+00 
69200 6.7166736786e+00 -7.2593009102e-05 1.7011351256e+00 -2.9464524680e+00 1.7011351256e+00 2.9464524680e+00 
69300 6.7166736811e+00 -7.2106339126e-05 1.7011372592e+00 -2.9464561636e+00 1.7011372592e+00 2.9464561636e+00 
69400 6.7166736835e+00 -7.1569296773e-05 1.7011393786e+00 -2.9464598345e+00 1.7011393786e+00 2.9464598345e+00 
69500 6.7166736858e+00 -7.0982665870e-05 1.7011414821e+00 -2.9464634779e+00 1.7011414821e+00 2.9464634779e+00 
69600 6.7166736879e+00 -7.0347307072e-05 1.7011435685e+00 -2.9464670916e+00 1.7011435685e+00 2.9464670916e+00 
69700 6.7166736901e+00 -7.2466187906e-05 1.7011435685e+00 -2.9464670916e+00 1.7011435685e+00 2.9464670916e+00 
69800 6.7166736921e+00 -7.1645842709e-05 1.7011456984e+00 -2.9464707807e+00 1.7011456984e+00 2.9464707807e+00 
69900 6.7166736940e+00 -7.0783112289e-05 1.7011478042e+00 -2.9464744281e+00 1.7011478042e+00 2.9464744281e+00 
70000 6.7166736957e+00 -6.9878947333e-05 1.7011498847e+00 -2.9464780315e+00 1.7011498847e+00 2.9464780315e+00 
70100 6.7166736976e+00 -7.1717703188e-05 1.7011498847e+00 -2.9464780315e+00 1.7011498847e+00 2.9464780315e+00 
70200 6.7166736992e+00 -7.0643984062e-05 1.7011519926e+00 -2.9464816825e+00 1.7011519926e+00 2.9464816825e+00 
70300 6.7166737009e+00 -7.2349174771e-05 1.7011519926e+00 -2.9464816825e+00 1.7011519926e+00 2.9464816825e+00 
70400 6.7166737024e+00 -7.1115914903e-05 1.7011541191e+00 -2.9464853657e+00 1.7011541191e+00 2.9464853657e+00 
70500 6.7166737038e+00 -6.9853204927e-05 1.7011562093e+00 -2.9464889861e+00 1.7011562093e+00 2.9464889861e+00 
70600 6.7166737053e+00 -7.1344270705e-05 1.7011562093e+00 -2.9464889861e+00 1.7011562093e+00 2.9464889861e+00 
70700 6.7166737066e+00 -6.9935806900e-05 1.7011583062e+00 -2.9464926181e+00 1.7011583062e+00 2.9464926181e+00 
70800 6.7166737081e+00 -7.1289783953e-05 1.7011583062e+00 -2.9464926181e+00 1.7011583062e+00 2.9464926181e+00 
70900 6.7166737093e+00 -6.9746164198e-05 1.7011604015e+00 -2.9464962473e+00 1.7011604015e+00 2.9464962473e+00 
71000 6.7166737107e+00 -7.0962673072e-05 1.7011604015e+00 -2.9464962473e+00 1.7011604015e+00 2.9464962473e+00 
71100 6.7166737119e+00 -6.9294577427e-05 1.7011624873e+00 -2.9464998599e+00 1.7011624873e+00 2.9464998599e+00 
71200 6.7166737132e+00 -7.0373719963e-05 1.7011624873e+00 -2.9464998599e+00 1.7011624873e+00 2.9464998599e+00 
71300 6.7166737145e+00 -7.1394853800e-05 1.7011624873e+00 -2.9464998599e+00 1.7011624873e+00 2.9464998599e+00 
71400 6.7166737156e+00 -6.9514779279e-05 1.7011645857e+00 -2.9465034944e+00 1.7011645857e+00 2.9465034944e+00 
71500 6.7166737168e+00 -7.0399734805e-05 1.7011645857e+00 -2.9465034944e+00 1.7011645857e+00 2.9465034944e+00 
71600 6.7166737181e+00 -7.1227509806e-05 1.7011645857e+00 -2.9465034944e+00 1.7011645857e+00 2.9465034944e+00 
71700 6.7166737192e+00 -6.9161690311e-05 1.7011666792e+00 -2.9465071205e+00 1.7011666792e+00 2.9465071205e+00 
71800 6.7166737204e+00 -6.9855327945e-05 1.7011666792e+00 -2.9465071205e+00 1.7011666792e+00 2.9465071205e+00 
71900 6.7166737217e+00 -7.0492943907e-05 1.7011666792e+00 -2.9465071205e+00 1.7011666792e+00 2.9465071205e+00 
72000 6.7166737229e+00 -7.1075207172e-05 1.7011666792e+00 -2.9465071205e+00 1.7011666792e+00 2.9465071205e+00 
72100 6.7166737240e+00 -6.8771898568e-05 1.7011687682e+00 -2.9465107387e+00 1.7011687682e+00 2.9465107387e+00 
72200 6.7166737253e+00 -6.9224091907e-05 1.7011687682e+00 -2.9465107387e+00 1.7011687682e+00 2.9465107387e+00 
72300 6.7166737265e+00 -6.9622452555e-05 1.7011687682e+00 -2.9465107387e+00 1.7011687682e+00 2.9465107387e+00 
72400 6.7166737278e+00 -6.9967763402e-05 1.7011687682e+00 -2.9465107387e+00 1.7011687682e+00 2.9465107387e+00 
72500 6.7166737291e+00 -7.0260822439e-05 1.7011687682e+00 -2.9465107387e+00 1.7011687682e+00 2.9465107387e+00 
72600 6.7166737304e+00 -7.0502442267e-05 1.7011687682e+00 -2.9465107387e+00 1.7011687682e+00 2.9465107387e+00 
72700 6.7166737317e+00 -7.0693449616e-05 1.7011687682e+00 -2.9465107387e+00 1.7011687682e+00 2.9465107387e+00 
72800 6.7166737330e+00 -7.0834684838e-05 1.7011687682e+00 -2.9465107387e+00 1.7011687682e+00 2.9465107387e+00 
72900 6.7166737342e+00 -6.8105671591e-05 1.7011708501e+00 -2.9465143448e+00 1.7011708501e+00 2.9465143448e+00 
73000 6.7166737355e+00 -6.8128564855e-05 1.7011708501e+00 -2.9465143448e+00 1.7011708501e+00 2.9465143448e+00 
73100 6.7166737369e+00 -6.8103691866e-05 1.7011708501e+00 -2.9465143448e+00 1.7011708501e+00 2.9465143448e+00 
73200 6.7166737383e+00 -6.8031986394e-05 1.7011708501e+00 -2.9465143448e+00 1.7011708501e+00 2.9465143448e+00 
73300 6.7166737397e+00 -6.7914392088e-05 1.7011708501e+00 -2.9465143448e+00 1.7011708501e+00 2.9465143448e+00 
73400 6.7166737411e+00 -6.7751861958e-05 1.7011708501e+00 -2.9465143448e+00 1.7011708501e+00 2.9465143448e+00 
73500 6.7166737426e+00 -6.7545357822e-05 1.7011708501e+00 -2.9465143448e+00 1.7011708501e+00 2.9465143448e+00 
73600 6.7166737440e+00 -6.7295849770e-05 1.7011708501e+00 -2.9465143448e+00 1.7011708501e+00 2.9465143448e+00 
73700 6.7166737455e+00 -6.7004315617e-05 1.7011708501e+00 -2.9465143448e+00 1.7011708501e+00 2.9465143448e+00 
73800 6.7166737470e+00 -6.6671740355e-05 1.7011708501e+00 -2.9465143448e+00 1.7011708501e+00 2.9465143448e+00 
73900 6.7166737485e+00 -6.6299115600e-05 1.7011708501e+00 -2.9465143448e+00 1.7011708501e+00 2.9465143448e+00 
74000 6.7166737500e+00 -6.5887439038e-05 1.7011708501e+00 -2.9465143448e+00 1.7011708501e+00 2.9465143448e+00 
74100 6.7166737515e+00 -6.5437713865e-05 1.7011708501e+00 -2.9465143448e+00 1.7011708501e+00 2.9465143448e+00 
74200 6.7166737530e+00 -6.4950948226e-05 1.7011708501e+00 -2.9465143448e+00 1.7011708501e+00 2.9465143448e+00 
74300 6.7166737545e+00 -6.4428154653e-05 1.7011708501e+00 -2.9465143448e+00 1.7011708501e+00 2.9465143448e+00 
74400 6.7166737561e+00 -6.3870349502e-05 1.7011708501e+00 -2.9465143448e+00 1.7011708501e+00 2.9465143448e+00 
74500 6.7166737576e+00 -6.3278552383e-05 1.7011708501e+00 -2.9465143448e+00 1.7011708501e+00 2.9465143448e+00 
74600 6.7166737592e+00 -6.2653785602e-05 1.7011708501e+00 -2.9465143448e+00 1.7011708501e+00 2.9465143448e+00 
74700 6.7166737608e+00 -6.1997073587e-05 1.7011708501e+00 -2.9465143448e+00 1.7011708501e+00 2.9465143448e+00 
74800 6.7166737623e+00 -6.1309442324e-05 1.7011708501e+00 -2.9465143448e+00 1.7011708501e+00 2.9465143448e+00 
74900 6.7166737639e+00 -6.0591918789e-05 1.7011708501e+00 -2.9465143448e+00 1.7011708501e+00 2.9465143448e+00 
75000 6.7166737655e+00 -5.9845530388e-05 1.7011708501e+00 -2.9465143448e+00 1.7011708501e+00 2.9465143448e+00 
75100 6.7166737670e+00 -5.9071304383e-05 1.7011708501e+00 -2.9465143448e+00 1.7011708501e+00 2.9465143448e+00 
75200 6.7166737686e+00 -5.8270267342e-05 1.7011708501e+00 -2.9465143448e+00 1.7011708501e+00 2.9465143448e+00 
75300 6.7166737702e+00 -5.7443444566e-05 1.7011708501e+00 -2.9465143448e+00 1.7011708501e+00 2.9465143448e+00 
75400 6.7166737717e+00 -5.6591859540e-05 1.7011708501e+00 -2.9465143448e+00 1.7011708501e+00 2.9465143448e+00 
75500 6.7166737733e+00 -5.5716533378e-05 1.7011708501e+00 -2.9465143448e+00 1.7011708501e+00 2.9465143448e+00 
75600 6.7166737749e+00 -5.4818484266e-05 1.7011708501e+00 -2.9465143448e+00 1.7011708501e+00 2.9465143448e+00 
75700 6.7166737764e+00 -5.3898726922e-05 1.7011708501e+00 -2.9465143448e+00 1.7011708501e+00 2.9465143448e+00 
75800 6.7166737779e+00 -5.2958272049e-05 1.7011708501e+00 -2.9465143448e+00 1.7011708501e+00 2.9465143448e+00 
75900 6.7166737795e+00 -5.1998125803e-05 1.7011708501e+00 -2.9465143448e+00 1.7011708501e+00 2.9465143448e+00 
76000 6.7166737810e+00 -5.1019289249e-05 1.7011708501e+00 -2.9465143448e+00 1.7011708501e+00 2.9465143448e+00 
76100 6.7166737825e+00 -5.0022757851e-05 1.7011708501e+00 -2.9465143448e+00 1.7011708501e+00 2.9465143448e+00 
76200 6.7166737840e+00 -4.9009520938e-05 1.7011708501e+00 -2.9465143448e+00 1.7011708501e+00 2.9465143448e+00 
76300 6.7166737855e+00 -4.7980561199e-05 1.7011708501e+00 -2.9465143448e+00 1.7011708501e+00 2.9465143448e+00 
76400 6.7166737869e+00 -4.6936854169e-05 1.7011708501e+00 -2.9465143448e+00 1.7011708501e+00 2.9465143448e+00 
76500 6.7166737884e+00 -4.5879367743e-05 1.7011708501e+00 -2.9465143448e+00 1.7011708501e+00 2.9465143448e+00 
76600 6.7166737898e+00 -4.4809061669e-05 1.7011708501e+00 -2.9465143448e+00 1.7011708501e+00 2.9465143448e+00 
76700 6.7166737912e+00 -4.3726887079e-05 1.7011708501e+00 -2.9465143448e+00 1.7011708501e+00 2.9465143448e+00 
76800 6.7166737926e+00 -4.2633786006e-05 1.7011708501e+00 -2.9465143448e+00 1.7011708501e+00 2.9465143448e+00 
76900 6.7166737940e+00 -4.1530690931e-05 1.7011708501e+00 -2.9465143448e+00 1.7011708501e+00 2.9465143448e+00 
77000 6.7166737953e+00 -4.0418524314e-05 1.7011708501e+00 -2.9465143448e+00 1.7011708501e+00 2.9465143448e+00 
77100 6.7166737967e+00 -3.9298198160e-05 1.7011708501e+00 -2.9465143448e+00 1.7011708501e+00 2.9465143448e+00 
77200 6.7166737980e+00 -3.8170613576e-05 1.7011708501e+00 -2.9465143448e+00 1.7011708501e+00 2.9465143448e+00 
77300 6.7166737993e+00 -3.7036660356e-05 1.7011708501e+00 -2.9465143448e+00 1.7011708501e+00 2.9465143448e+00 
77400 6.7166738005e+00 -3.5897216558e-05 1.7011708501e+00 -2.9465143448e+00 1.7011708501e+00 2.9465143448e+00 
77500 6.7166738018e+00 -3.4753148114e-05 1.7011708501e+00 -2.9465143448e+00 1.7011708501e+00 2.9465143448e+00 
77600 6.7166738030e+00 -3.3605308422e-05 1.7011708501e+00 -2.9465143448e+00 1.7011708501e+00 2.9465143448e+00 
77700 6.7166738042e+00 -3.2454537990e-05 1.7011708501e+00 -2.9465143448e+00 1.7011708501e+00 2.9465143448e+00 
77800 6.7166738054e+00 -3.1301664047e-05 1.7011708501e+00 -2.9465143448e+00 1.7011708501e+00 2.9465143448e+00 
77900 6.7166738066e+00 -3.0147500210e-05 1.7011708501e+00 -2.9465143448e+00 1.7011708501e+00 2.9465143448e+00 
78000 6.7166738077e+00 -2.8992846125e-05 1.7011708501e+00 -2.9465143448e+00 1.7011708501e+00 2.9465143448e+00 
78100 6.7166738088e+00 -2.7838487150e-05 1.7011708501e+00 -2.9465143448e+00 1.7011708501e+00 2.9465143448e+00 
78200 6.7166738099e+00 -2.6685194031e-05 1.7011708501e+00 -2.9465143448e+00 1.7011708501e+00 2.9465143448e+00 
78300 6.7166738110e+00 -2.5533722609e-05 1.7011708501e+00 -2.9465143448e+00 1.7011708501e+00 2.9465143448e+00 
78400 6.7166738120e+00 -2.4384813525e-05 1.7011708501e+00 -2.9465143448e+00 1.7011708501e+00 2.9465143448e+00 
78500 6.7166738130e+00 -2.3239191945e-05 1.7011708501e+00 -2.9465143448e+00 1.7011708501e+00 2.9465143448e+00 
78600 6.7166738140e+00 -2.2097567306e-05 1.7011708501e+00 -2.9465143448e+00 1.7011708501e+00 2.9465143448e+00 
78700 6.7166738150e+00 -2.0960633056e-05 1.7011708501e+00 -2.9465143448e+00 1.7011708501e+00 2.9465143448e+00 
78800 6.7166738159e+00 -1.9829066435e-05 1.7011708501e+00 -2.9465143448e+00 1.7011708501e+00 2.9465143448e+00 
78900 6.7166738169e+00 -1.8703528243e-05 1.7011708501e+00 -2.9465143448e+00 1.7011708501e+00 2.9465143448e+00 
79000 6.7166738178e+00 -1.7584662644e-05 1.7011708501e+00 -2.9465143448e+00 1.7011708501e+00 2.9465143448e+00 
79100 6.7166738187e+00 -1.6473096974e-05 1.7011708501e+00 -2.9465143448e+00 1.7011708501e+00 2.9465143448e+00 
79200 6.7166738195e+00 -1.5369441564e-05 1.7011708501e+00 -2.9465143448e+00 1.7011708501e+00 2.9465143448e+00 
79300 6.7166738204e+00 -1.4274289573e-05 1.7011708501e+00 -2.9465143448e+00 1.7011708501e+00 2.9465143448e+00 
79400 6.7166738212e+00 -1.3188216852e-05 1.7011708501e+00 -2.9465143448e+00 1.7011708501e+00 2.9465143448e+00 
79500 6.7166738220e+00 -1.2111781801e-05 1.7011708501e+00 -2.9465143448e+00 1.7011708501e+00 2.9465143448e+00 
79600 6.7166738228e+00 -1.1045525254e-05 1.7011708501e+00 -2.9465143448e+00 1.7011708501e+00 2.9465143448e+00 
79700 6.7166738235e+00 -9.9899703798e-06 1.7011708501e+00 -2.9465143448e+00 1.7011708501e+00 2.9465143448e+00 
79800 6.7166738243e+00 -8.9456225861e-06 1.7011708501e+00 -2.9465143448e+00 1.7011708501e+00 2.9465143448e+00 
79900 6.7166738250e+00 -7.9129694489e-06 1.7011708501e+00 -2.9465143448e+00 1.7011708501e+00 2.9465143448e+00 
80000 6.7166738257e+00 -6.8924806438e-06 1.7011708501e+00 -2.9465143448e+00 1.7011708501e+00 2.9465143448e+00 
80100 6.7166738264e+00 -5.8846079124e-06 1.7011708501e+00 -2.9465143448e+00 1.7011708501e+00 2.9465143448e+00 
80200 6.7166738271e+00 -4.8897850132e-06 1.7011708501e+00 -2.9465143448e+00 1.7011708501e+00 2.9465143448e+00 
80300 6.7166738278e+00 -3.9084277227e-06 1.7011708501e+00 -2.9465143448e+00 1.7011708501e+00 2.9465143448e+00 
80400 6.7166738284e+00 -2.9409338112e-06 1.7011708501e+00 -2.9465143448e+00 1.7011708501e+00 2.9465143448e+00 
80500 6.7166738290e+00 -1.9876830689e-06 1.7011708501e+00 -2.9465143448e+00 1.7011708501e+00 2.9465143448e+00 
80600 6.7166738297e+00 -1.0490373122e-06 1.7011708501e+00 -2.9465143448e+00 1.7011708501e+00 2.9465143448e+00 
80700 6.7166738303e+00 -1.2534043172e-07 1.7011708501e+00 -2.9465143448e+00 1.7011708501e+00 2.9465143448e+00 
80800 6.7166738308e+00 7.8308155812e-07 1.7011708501e+00 -2.9465143448e+00 1.7011708501e+00 2.9465143448e+00 
80900 6.7166738314e+00 1.6759204681e-06 1.7011708501e+00 -2.9465143448e+00 1.7011708501e+00 2.9465143448e+00 
81000 6.7166738320e+00 2.5528858426e-06 1.7011708501e+00 -2.9465143448e+00 1.7011708501e+00 2.9465143448e+00 
81100 6.7166738325e+00 3.4137048888e-06 1.7011708501e+00 -2.9465143448e+00 1.7011708501e+00 2.9465143448e+00 
81200 6.7166738331e+00 4.2581223647e-06 1.7011708501e+00 -2.9465143448e+00 1.7011708501e+00 2.9465143448e+00 
81300 6.7166738336e+00 5.0859004719e-06 1.7011708501e+00 -2.9465143448e+00 1.7011708501e+00 2.9465143448e+00 
81400 6.7166738341e+00 5.8968187259e-06 1.7011708501e+00 -2.9465143448e+00 1.7011708501e+00 2.9465143448e+00 
81500 6.7166738347e+00 6.6906738231e-06 1.7011708501e+00 -2.9465143448e+00 1.7011708501e+00 2.9465143448e+00 
81600 6.7166738352e+00 7.4672794945e-06 1.7011708501e+00 -2.9465143448e+00 1.7011708501e+00 2.9465143448e+00 
81700 6.7166738357e+00 8.2264663480e-06 1.7011708501e+00 -2.9465143448e+00 1.7011708501e+00 2.9465143448e+00 
81800 6.7166738361e+00 8.9680816909e-06 1.7011708501e+00 -2.9465143448e+00 1.7011708501e+00 2.9465143448e+00 
81900 6.7166738366e+00 9.6919893530e-06 1.7011708501e+00 -2.9465143448e+00 1.7011708501e+00 2.9465143448e+00 
82000 6.7166738371e+00 1.0398069502e-05 1.7011708501e+00 -2.9465143448e+00 1.7011708501e+00 2.9465143448e+00 
82100 6.7166738376e+00 1.1086218435e-05 1.7011708501e+00 -2.9465143448e+00 1.7011708501e+00 2.9465143448e+00 
82200 6.7166738380e+00 1.1756348370e-05 1.7011708501e+00 -2.9465143448e+00 1.7011708501e+00 2.9465143448e+00 
82300 6.7166738385e+00 1.2408387225e-05 1.7011708501e+00 -2.9465143448e+00 1.7011708501e+00 2.9465143448e+00 
82400 6.7166738389e+00 1.3042278389e-05 1.7011708501e+00 -2.9465143448e+00 1.7011708501e+00 2.9465143448e+00 
82500 6.7166738394e+00 1.3657980488e-05 1.7011708501e+00 -2.9465143448e+00 1.7011708501e+00 2.9465143448e+00 
82600 6.7166738398e+00 1.4255467131e-05 1.7011708501e+00 -2.9465143448e+00 1.7011708501e+00 2.9465143448e+00 
82700 6.7166738402e+00 1.4834726665e-05 1.7011708501e+00 -2.9465143448e+00 1.7011708501e+00 2.9465143448e+00 
82800 6.7166738407e+00 1.5395761902e-05 1.7011708501e+00 -2.9465143448e+00 1.7011708501e+00 2.9465143448e+00 
82900 6.7166738411e+00 1.5938589854e-05 1.7011708501e+00 -2.9465143448e+00 1.7011708501e+00 2.9465143448e+00 
83000 6.7166738415e+00 1.6463241457e-05 1.7011708501e+00 -2.9465143448e+00 1.7011708501e+00 2.9465143448e+00 
83100 6.7166738419e+00 1.6969761285e-05 1.7011708501e+00 -2.9465143448e+00 1.7011708501e+00 2.9465143448e+00 
83200 6.7166738423e+00 1.7458207263e-05 1.7011708501e+00 -2.9465143448e+00 1.7011708501e+00 2.9465143448e+00 
83300 6.7166738428e+00 1.7928650362e-05 1.7011708501e+00 -2.9465143448e+00 1.7011708501e+00 2.9465143448e+00 
83400 6.7166738432e+00 1.8381174312e-05 1.7011708501e+00 -2.9465143448e+00 1.7011708501e+00 2.9465143448e+00 
83500 6.7166738436e+00 1.8815875274e-05 1.7011708501e+00 -2.9465143448e+00 1.7011708501e+00 2.9465143448e+00 
83600 6.7166738440e+00 1.9232861549e-05 1.7011708501e+00 -2.9465143448e+00 1.7011708501e+00 2.9465143448e+00 
83700 6.7166738444e+00 1.9632253244e-05 1.7011708501e+00 -2.9465143448e+00 1.7011708501e+00 2.9465143448e+00 
83800 6.7166738448e+00 2.0014181956e-05 1.7011708501e+00 -2.9465143448e+00 1.7011708501e+00 2.9465143448e+00 
83900 6.7166738451e+00 2.0378790448e-05 1.7011708501e+00 -2.9465143448e+00 1.7011708501e+00 2.9465143448e+00 
84000 6.7166738455e+00 2.0726232315e-05 1.7011708501e+00 -2.9465143448e+00 1.7011708501e+00 2.9465143448e+00 
84100 6.7166738459e+00 2.1056671660e-05 1.7011708501e+00 -2.9465143448e+00 1.7011708501e+00 2.9465143448e+00 
84200 6.7166738463e+00 2.1370282747e-05 1.7011708501e+00 -2.9465143448e+00 1.7011708501e+00 2.9465143448e+00 
84300 6.7166738467e+00 2.1667249676e-05 1.7011708501e+00 -2.9465143448e+00 1.7011708501e+00 2.9465143448e+00 
84400 6.7166738471e+00 2.1947766024e-05 1.7011708501e+00 -2.9465143448e+00 1.7011708501e+00 2.9465143448e+00 
84500 6.7166738475e+00 2.2212034523e-05 1.7011708501e+00 -2.9465143448e+00 1.7011708501e+00 2.9465143448e+00 
84600 6.7166738478e+00 2.2460266698e-05 1.7011708501e+00 -2.9465143448e+00 1.7011708501e+00 2.9465143448e+00 
84700 6.7166738482e+00 2.2692682537e-05 1.7011708501e+00 -2.9465143448e+00 1.7011708501e+00 2.9465143448e+00 
84800 6.7166738486e+00 2.2909510129e-05 1.7011708501e+00 -2.9465143448e+00 1.7011708501e+00 2.9465143448e+00 
84900 6.7166738489e+00 2.3110985328e-05 1.7011708501e+00 -2.9465143448e+00 1.7011708501e+00 2.9465143448e+00 
85000 6.7166738493e+00 2.3297351406e-05 1.7011708501e+00 -2.9465143448e+00 1.7011708501e+00 2.9465143448e+00 
85100 6.7166738497e+00 2.3468858698e-05 1.7011708501e+00 -2.9465143448e+00 1.7011708501e+00 2.9465143448e+00 
85200 6.7166738500e+00 2.3625764261e-05 1.7011708501e+00 -2.9465143448e+00 1.7011708501e+00 2.9465143448e+00 
85300 6.7166738504e+00 2.3768331526e-05 1.7011708501e+00 -2.9465143448e+00 1.7011708501e+00 2.9465143448e+00 
85400 6.7166738508e+00 2.3896829951e-05 1.7011708501e+00 -2.9465143448e+00 1.7011708501e+00 2.9465143448e+00 
85500 6.7166738511e+00 2.4011534672e-05 1.7011708501e+00 -2.9465143448e+00 1.7011708501e+00 2.9465143448e+00 
85600 6.7166738515e+00 2.4112726175e-05 1.7011708501e+00 -2.9465143448e+00 1.7011708501e+00 2.9465143448e+00 
85700 6.7166738518e+00 2.4200689939e-05 1.7011708501e+00 -2.9465143448e+00 1.7011708501e+00 2.9465143448e+00 
85800 6.7166738522e+00 2.4275716105e-05 1.7011708501e+00 -2.9465143448e+00 1.7011708501e+00 2.9465143448e+00 
85900 6.7166738525e+00 2.4338099143e-05 1.7011708501e+00 -2.9465143448e+00 1.7011708501e+00 2.9465143448e+00 
86000 6.7166738529e+00 2.4388137501e-05 1.7011708501e+00 -2.9465143448e+00 1.7011708501e+00 2.9465143448e+00 
86100 6.7166738532e+00 2.4426133294e-05 1.7011708501e+00 -2.9465143448e+00 1.7011708501e+00 2.9465143448e+00 
86200 6.7166738535e+00 2.4452391962e-05 1.7011708501e+00 -2.9465143448e+00 1.7011708501e+00 2.9465143448e+00 
86300 6.7166738539e+00 2.4467221951e-05 1.7011708501e+00 -2.9465143448e+00 1.7011708501e+00 2.9465143448e+00 
86400 6.7166738542e+00 2.4470934387e-05 1.7011708501e+00 -2.9465143448e+00 1.7011708501e+00 2.9465143448e+00 
86500 6.7166738545e+00 2.4463842766e-05 1.7011708501e+00 -2.9465143448e+00 1.7011708501e+00 2.9465143448e+00 
86600 6.7166738549e+00 2.4446262632e-05 1.7011708501e+00 -2.9465143448e+00 1.7011708501e+00 2.9465143448e+00 
86700 6.7166738552e+00 2.4418511271e-05 1.7011708501e+00 -2.9465143448e+00 1.7011708501e+00 2.9465143448e+00 
86800 6.7166738555e+00 2.4380907406e-05 1.7011708501e+00 -2.9465143448e+00 1.7011708501e+00 2.9465143448e+00 
86900 6.7166738558e+00 2.4333770897e-05 1.7011708501e+00 -2.9465143448e+00 1.7011708501e+00 2.9465143448e+00 
87000 6.7166738561e+00 2.4277422442e-05 1.7011708501e+00 -2.9465143448e+00 1.7011708501e+00 2.9465143448e+00 
87100 6.7166738565e+00 2.4212183291e-05 1.7011708501e+00 -2.9465143448e+00 1.7011708501e+00 2.9465143448e+00 
87200 6.7166738568e+00 2.4138374953e-05 1.7011708501e+00 -2.9465143448e+00 1.7011708501e+00 2.9465143448e+00 
87300 6.7166738571e+00 2.4056318927e-05 1.7011708501e+00 -2.9465143448e+00 1.7011708501e+00 2.9465143448e+00 
87400 6.7166738574e+00 2.3966336415e-05 1.7011708501e+00 -2.9465143448e+00 1.7011708501e+00 2.9465143448e+00 
87500 6.7166738577e+00 2.3868748060e-05 1.7011708501e+00 -2.9465143448e+00 1.7011708501e+00 2.9465143448e+00 
87600 6.7166738580e+00 2.3763873683e-05 1.7011708501e+00 -2.9465143448e+00 1.7011708501e+00 2.9465143448e+00 
87700 6.7166738583e+00 2.3652032016e-05 1.7011708501e+00 -2.9465143448e+00 1.7011708501e+00 2.9465143448e+00 
87800 6.7166738585e+00 2.3533540463e-05 1.7011708501e+00 -2.9465143448e+00 1.7011708501e+00 2.9465143448e+00 
87900 6.7166738588e+00 2.3408714851e-05 1.7011708501e+00 -2.9465143448e+00 1.7011708501e+00 2.9465143448e+00 
88000 6.7166738591e+00 2.3277869176e-05 1.7011708501e+00 -2.9465143448e+00 1.7011708501e+00 2.9465143448e+00 
88100 6.7166738594e+00 2.3141315395e-05 1.7011708501e+00 -2.9465143448e+00 1.7011708501e+00 2.9465143448e+00 
88200 6.7166738597e+00 2.2999363178e-05 1.7011708501e+00 -2.9465143448e+00 1.7011708501e+00 2.9465143448e+00 
88300 6.7166738599e+00 2.2852319702e-05 1.7011708501e+00 -2.9465143448e+00 1.7011708501e+00 2.9465143448e+00 
88400 6.7166738602e+00 2.2700489427e-05 1.7011708501e+00 -2.9465143448e+00 1.7011708501e+00 2.9465143448e+00 
88500 6.7166738604e+00 2.2544173898e-05 1.7011708501e+00 -2.9465143448e+00 1.7011708501e+00 2.9465143448e+00 
88600 6.7166738607e+00 2.2383671539e-05 1.7011708501e+00 -2.9465143448e+00 1.7011708501e+00 2.9465143448e+00 
88700 6.7166738610e+00 2.2219277458e-05 1.7011708501e+00 -2.9465143448e+00 1.7011708501e+00 2.9465143448e+00 
88800 6.7166738612e+00 2.2051283271e-05 1.7011708501e+00 -2.9465143448e+00 1.7011708501e+00 2.9465143448e+00 
88900 6.7166738615e+00 2.1879976906e-05 1.7011708501e+00 -2.9465143448e+00 1.7011708501e+00 2.9465143448e+00 
89000 6.7166738617e+00 2.1705642448e-05 1.7011708501e+00 -2.9465143448e+00 1.7011708501e+00 2.9465143448e+00 
89100 6.7166738619e+00 2.1528559956e-05 1.7011708501e+00 -2.9465143448e+00 1.7011708501e+00 2.9465143448e+00 
89200 6.7166738622e+00 2.1349005316e-05 1.7011708501e+00 -2.9465143448e+00 1.7011708501e+00 2.9465143448e+00 
89300 6.7166738624e+00 2.1167250087e-05 1.7011708501e+00 -2.9465143448e+00 1.7011708501e+00 2.9465143448e+00 
89400 6.7166738626e+00 2.0983561351e-05 1.7011708501e+00 -2.9465143448e+00 1.7011708501e+00 2.9465143448e+00 
89500 6.7166738629e+00 2.0798201581e-05 1.7011708501e+00 -2.9465143448e+00 1.7011708501e+00 2.9465143448e+00 
89600 6.7166738631e+00 2.0611428499e-05 1.7011708501e+00 -2.9465143448e+00 1.7011708501e+00 2.9465143448e+00 
89700 6.7166738633e+00 2.0423494966e-05 1.7011708501e+00 -2.9465143448e+00 1.7011708501e+00 2.9465143448e+00 
89800 6.7166738635e+00 2.0234648855e-05 1.7011708501e+00 -2.9465143448e+00 1.7011708501e+00 2.9465143448e+00 
89900 6.7166738637e+00 2.0045132941e-05 1.7011708501e+00 -2.9465143448e+00 1.7011708501e+00 2.9465143448e+00 
90000 6.7166738639e+00 1.9855184803e-05 1.7011708501e+00 -2.9465143448e+00 1.7011708501e+00 2.9465143448e+00 
90100 6.7166738641e+00 1.9665036722e-05 1.7011708501e+00 -2.9465143448e+00 1.7011708501e+00 2.9465143448e+00 
90200 6.7166738643e+00 1.9474915590e-05 1.7011708501e+00 -2.9465143448e+00 1.7011708501e+00 2.9465143448e+00 
90300 6.7166738645e+00 1.9285042832e-05 1.7011708501e+00 -2.9465143448e+00 1.7011708501e+00 2.9465143448e+00 
90400 6.7166738647e+00 1.9095634315e-05 1.7011708501e+00 -2.9465143448e+00 1.7011708501e+00 2.9465143448e+00 
90500 6.7166738649e+00 1.8906900302e-05 1.7011708501e+00 -2.9465143448e+00 1.7011708501e+00 2.9465143448e+00 
90600 6.7166738651e+00 1.8719045366e-05 1.7011708501e+00 -2.9465143448e+00 1.7011708501e+00 2.9465143448e+00 
90700 6.7166738653e+00 1.8532268341e-05 1.7011708501e+00 -2.9465143448e+00 1.7011708501e+00 2.9465143448e+00 
90800 6.7166738655e+00 1.8346762275e-05 1.7011708501e+00 -2.9465143448e+00 1.7011708501e+00 2.9465143448e+00 
90900 6.7166738656e+00 1.8162714371e-05 1.7011708501e+00 -2.9465143448e+00 1.7011708501e+00 2.9465143448e+00 
91000 6.7166738658e+00 1.7980305970e-05 1.7011708501e+00 -2.9465143448e+00 1.7011708501e+00 2.9465143448e+00 
91100 6.7166738660e+00 1.7799712498e-05 1.7011708501e+00 -2.9465143448e+00 1.7011708501e+00 2.9465143448e+00 
91200 6.7166738662e+00 1.7621103456e-05 1.7011708501e+00 -2.9465143448e+00 1.7011708501e+00 2.9465143448e+00 
91300 6.7166738663e+00 1.7444642386e-05 1.7011708501e+00 -2.9465143448e+00 1.7011708501e+00 2.9465143448e+00 
91400 6.7166738665e+00 1.7270486862e-05 1.7011708501e+00 -2.9465143448e+00 1.7011708501e+00 2.9465143448e+00 
91500 6.7166738667e+00 1.7098788484e-05 1.7011708501e+00 -2.9465143448e+00 1.7011708501e+00 2.9465143448e+00 
91600 6.7166738668e+00 1.6929692867e-05 1.7011708501e+00 -2.9465143448e+00 1.7011708501e+00 2.9465143448e+00 
91700 6.7166738670e+00 1.6763339650e-05 1.7011708501e+00 -2.9465143448e+00 1.7011708501e+00 2.9465143448e+00 
91800 6.7166738671e+00 1.6599862502e-05 1.7011708501e+00 -2.9465143448e+00 1.7011708501e+00 2.9465143448e+00 
91900 6.7166738673e+00 1.6439389129e-05 1.7011708501e+00 -2.9465143448e+00 1.7011708501e+00 2.9465143448e+00 
92000 6.7166738674e+00 1.6282041301e-05 1.7011708501e+00 -2.9465143448e+00 1.7011708501e+00 2.9465143448e+00 
92100 6.7166738676e+00 1.6127934868e-05 1.7011708501e+00 -2.9465143448e+00 1.7011708501e+00 2.9465143448e+00 
92200 6.7166738677e+00 1.5977179787e-05 1.7011708501e+00 -2.9465143448e+00 1.7011708501e+00 2.9465143448e+00 
92300 6.7166738679e+00 1.5829880161e-05 1.7011708501e+00 -2.9465143448e+00 1.7011708501e+00 2.9465143448e+00 
92400 6.7166738680e+00 1.5686134268e-05 1.7011708501e+00 -2.9465143448e+00 1.7011708501e+00 2.9465143448e+00 
92500 6.7166738681e+00 1.5546034609e-05 1.7011708501e+00 -2.9465143448e+00 1.7011708501e+00 2.9465143448e+00 
92600 6.7166738683e+00 1.5409667951e-05 1.7011708501e+00 -2.9465143448e+00 1.7011708501e+00 2.9465143448e+00 
92700 6.7166738684e+00 1.5277115375e-05 1.7011708501e+00 -2.9465143448e+00 1.7011708501e+00 2.9465143448e+00 
92800 6.7166738686e+00 1.5148452338e-05 1.7011708501e+00 -2.9465143448e+00 1.7011708501e+00 2.9465143448e+00 
92900 6.7166738687e+00 1.5023748722e-05 1.7011708501e+00 -2.9465143448e+00 1.7011708501e+00 2.9465143448e+00 
93000 6.7166738688e+00 1.4903068901e-05 1.7011708501e+00 -2.9465143448e+00 1.7011708501e+00 2.9465143448e+00 
93100 6.7166738689e+00 1.4786471804e-05 1.7011708501e+00 -2.9465143448e+00 1.7011708501e+00 2.9465143448e+00 
93200 6.7166738691e+00 1.4674010990e-05 1.7011708501e+00 -2.9465143448e+00 1.7011708501e+00 2.9465143448e+00 
93300 6.7166738692e+00 1.4565734711e-05 1.7011708501e+00 -2.9465143448e+00 1.7011708501e+00 2.9465143448e+00 
93400 6.7166738693e+00 1.4461685998e-05 1.7011708501e+00 -2.9465143448e+00 1.7011708501e+00 2.9465143448e+00 
93500 6.7166738694e+00 1.4361902732e-05 1.7011708501e+00 -2.9465143448e+00 1.7011708501e+00 2.9465143448e+00 
93600 6.7166738696e+00 1.4266417734e-05 1.7011708501e+00 -2.9465143448e+00 1.7011708501e+00 2.9465143448e+00 
93700 6.7166738697e+00 1.4175258844e-05 1.7011708501e+00 -2.9465143448e+00 1.7011708501e+00 2.9465143448e+00 
93800 6.7166738698e+00 1.4088449005e-05 1.7011708501e+00 -2.9465143448e+00 1.7011708501e+00 2.9465143448e+00 
93900 6.7166738699e+00 1.4006006367e-05 1.7011708501e+00 -2.9465143448e+00 1.7011708501e+00 2.9465143448e+00 
94000 6.7166738700e+00 1.3927944366e-05 1.7011708501e+00 -2.9465143448e+00 1.7011708501e+00 2.9465143448e+00 
94100 6.7166738701e+00 1.3854271822e-05 1.7011708501e+00 -2.9465143448e+00 1.7011708501e+00 2.9465143448e+00 
94200 6.7166738703e+00 1.3784993040e-05 1.7011708501e+00 -2.9465143448e+00 1.7011708501e+00 2.9465143448e+00 
94300 6.7166738704e+00 1.3720107909e-05 1.7011708501e+00 -2.9465143448e+00 1.7011708501e+00 2.9465143448e+00 
94400 6.7166738705e+00 1.3659612000e-05 1.7011708501e+00 -2.9465143448e+00 1.7011708501e+00 2.9465143448e+00 
94500 6.7166738706e+00 1.3603496667e-05 1.7011708501e+00 -2.9465143448e+00 1.7011708501e+00 2.9465143448e+00 
94600 6.7166738707e+00 1.3551749159e-05 1.7011708501e+00 -2.9465143448e+00 1.7011708501e+00 2.9465143448e+00 
94700 6.7166738708e+00 1.3504352717e-05 1.7011708501e+00 -2.9465143448e+00 1.7011708501e+00 2.9465143448e+00 
94800 6.7166738709e+00 1.3461286688e-05 1.7011708501e+00 -2.9465143448e+00 1.7011708501e+00 2.9465143448e+00 
94900 6.7166738710e+00 1.3422526624e-05 1.7011708501e+00 -2.9465143448e+00 1.7011708501e+00 2.9465143448e+00 
95000 6.7166738711e+00 1.3388044404e-05 1.7011708501e+00 -2.9465143448e+00 1.7011708501e+00 2.9465143448e+00 
95100 6.7166738712e+00 1.3357808340e-05 1.7011708501e+00 -2.9465143448e+00 1.7011708501e+00 2.9465143448e+00 
95200 6.7166738713e+00 1.3331783286e-05 1.7011708501e+00 -2.9465143448e+00 1.7011708501e+00 2.9465143448e+00 
95300 6.7166738714e+00 1.3309930743e-05 1.7011708501e+00 -2.9465143448e+00 1.7011708501e+00 2.9465143448e+00 
95400 6.7166738715e+00 1.3292208991e-05 1.7011708501e+00 -2.9465143448e+00 1.7011708501e+00 2.9465143448e+00 
95500 6.7166738716e+00 1.3278573184e-05 1.7011708501e+00 -2.9465143448e+00 1.7011708501e+00 2.9465143448e+00 
95600 6.7166738717e+00 1.3268975471e-05 1.7011708501e+00 -2.9465143448e+00 1.7011708501e+00 2.9465143448e+00 
95700 6.7166738718e+00 1.3263365115e-05 1.7011708501e+00 -2.9465143448e+00 1.7011708501e+00 2.9465143448e+00 
95800 6.7166738719e+00 1.3261688589e-05 1.7011708501e+00 -2.9465143448e+00 1.7011708501e+00 2.9465143448e+00 
95900 6.7166738720e+00 1.3263889715e-05 1.7011708501e+00 -2.9465143448e+00 1.7011708501e+00 2.9465143448e+00 
96000 6.7166738721e+00 1.3269909755e-05 1.7011708501e+00 -2.9465143448e+00 1.7011708501e+00 2.9465143448e+00 
96100 6.7166738722e+00 1.3279687542e-05 1.7011708501e+00 -2.9465143448e+00 1.7011708501e+00 2.9465143448e+00 
96200 6.7166738723e+00 1.3293159577e-05 1.7011708501e+00 -2.9465143448e+00 1.7011708501e+00 2.9465143448e+00 
96300 6.7166738724e+00 1.3310260164e-05 1.7011708501e+00 -2.9465143448e+00 1.7011708501e+00 2.9465143448e+00 
96400 6.7166738725e+00 1.3330921498e-05 1.7011708501e+00 -2.9465143448e+00 1.7011708501e+00 2.9465143448e+00 
96500 6.7166738725e+00 1.3355073793e-05 1.7011708501e+00 -2.9465143448e+00 1.7011708501e+00 2.9465143448e+00 
96600 6.7166738726e+00 1.3382645392e-05 1.7011708501e+00 -2.9465143448e+00 1.7011708501e+00 2.9465143448e+00 
96700 6.7166738727e+00 1.3413562869e-05 1.7011708501e+00 -2.9465143448e+00 1.7011708501e+00 2.9465143448e+00 
96800 6.7166738728e+00 1.3447751145e-05 1.7011708501e+00 -2.9465143448e+00 1.7011708501e+00 2.9465143448e+00 
96900 6.7166738729e+00 1.3485133602e-05 1.7011708501e+00 -2.9465143448e+00 1.7011708501e+00 2.9465143448e+00 
97000 6.7166738730e+00 1.3525632181e-05 1.7011708501e+00 -2.9465143448e+00 1.7011708501e+00 2.9465143448e+00 
97100 6.7166738731e+00 1.3569167492e-05 1.7011708501e+00 -2.9465143448e+00 1.7011708501e+00 2.9465143448e+00 
97200 6.7166738731e+00 1.3615658920e-05 1.7011708501e+00 -2.9465143448e+00 1.7011708501e+00 2.9465143448e+00 
97300 6.7166738732e+00 1.3665024730e-05 1.7011708501e+00 -2.9465143448e+00 1.7011708501e+00 2.9465143448e+00 
97400 6.7166738733e+00 1.3717182169e-05 1.7011708501e+00 -2.9465143448e+00 1.7011708501e+00 2.9465143448e+00 
97500 6.7166738734e+00 1.3772047572e-05 1.7011708501e+00 -2.9465143448e+00 1.7011708501e+00 2.9465143448e+00 
97600 6.7166738735e+00 1.3829536455e-05 1.7011708501e+00 -2.9465143448e+00 1.7011708501e+00 2.9465143448e+00 
97700 6.7166738735e+00 1.3889563618e-05 1.7011708501e+00 -2.9465143448e+00 1.7011708501e+00 2.9465143448e+00 
97800 6.7166738736e+00 1.3952043239e-05 1.7011708501e+00 -2.9465143448e+00 1.7011708501e+00 2.9465143448e+00 
97900 6.7166738737e+00 1.4016888976e-05 1.7011708501e+00 -2.9465143448e+00 1.7011708501e+00 2.9465143448e+00 
98000 6.7166738738e+00 1.4084014051e-05 1.7011708501e+00 -2.9465143448e+00 1.7011708501e+00 2.9465143448e+00 
98100 6.7166738738e+00 1.4153331355e-05 1.7011708501e+00 -2.9465143448e+00 1.7011708501e+00 2.9465143448e+00 
98200 6.7166738739e+00 1.4224753526e-05 1.7011708501e+00 -2.9465143448e+00 1.7011708501e+00 2.9465143448e+00 
98300 6.7166738740e+00 1.4298193042e-05 1.7011708501e+00 -2.9465143448e+00 1.7011708501e+00 2.9465143448e+00 
98400 6.7166738741e+00 1.4373562312e-05 1.7011708501e+00 -2.9465143448e+00 1.7011708501e+00 2.9465143448e+00 
98500 6.7166738741e+00 1.4450773754e-05 1.7011708501e+00 -2.9465143448e+00 1.7011708501e+00 2.9465143448e+00 
98600 6.7166738742e+00 1.4529739885e-05 1.7011708501e+00 -2.9465143448e+00 1.7011708501e+00 2.9465143448e+00 
98700 6.7166738743e+00 1.4610373392e-05 1.7011708501e+00 -2.9465143448e+00 1.7011708501e+00 2.9465143448e+00 
98800 6.7166738743e+00 1.4692587223e-05 1.7011708501e+00 -2.9465143448e+00 1.7011708501e+00 2.9465143448e+00 
98900 6.7166738744e+00 1.4776294649e-05 1.7011708501e+00 -2.9465143448e+00 1.7011708501e+00 2.9465143448e+00 
99000 6.7166738745e+00 1.4861409357e-05 1.7011708501e+00 -2.9465143448e+00 1.7011708501e+00 2.9465143448e+00 
99100 6.7166738745e+00 1.4947845510e-05 1.7011708501e+00 -2.9465143448e+00 1.7011708501e+00 2.9465143448e+00 
99200 6.7166738746e+00 1.5035517814e-05 1.7011708501e+00 -2.9465143448e+00 1.7011708501e+00 2.9465143448e+00 
99300 6.7166738747e+00 1.5124341605e-05 1.7011708501e+00 -2.9465143448e+00 1.7011708501e+00 2.9465143448e+00 
99400 6.7166738747e+00 1.5214232892e-05 1.7011708501e+00 -2.9465143448e+00 1.7011708501e+00 2.9465143448e+00 
99500 6.7166738748e+00 1.5305108439e-05 1.7011708501e+00 -2.9465143448e+00 1.7011708501e+00 2.9465143448e+00 
99600 6.7166738748e+00 1.5396885821e-05 1.7011708501e+00 -2.9465143448e+00 1.7011708501e+00 2.9465143448e+00 
99700 6.7166738749e+00 1.5489483483e-05 1.7011708501e+00 -2.9465143448e+00 1.7011708501e+00 2.9465143448e+00 
99800 6.7166738750e+00 1.5582820794e-05 1.7011708501e+00 -2.9465143448e+00 1.7011708501e+00 2.9465143448e+00 
99900 6.7166738750e+00 1.5676818111e-05 1.7011708501e+00 -2.9465143448e+00 1.7011708501e+00 2.9465143448e+00 
100000 6.7166738751e+00 1.5771396826e-05 1.7011708501e+00 -2.9465143448e+00 1.7011708501e+00 2.9465143448e+00 
100100 6.7166738751e+00 1.5866479423e-05 1.7011708501e+00 -2.9465143448e+00 1.7011708501e+00 2.9465143448e+00 
100200 6.7166738752e+00 1.5961989513e-05 1.7011708501e+00 -2.9465143448e+00 1.7011708501e+00 2.9465143448e+00 
100300 6.7166738753e+00 1.6057851902e-05 1.7011708501e+00 -2.9465143448e+00 1.7011708501e+00 2.9465143448e+00 
100400 6.7166738753e+00 1.6153992618e-05 1.7011708501e+00 -2.9465143448e+00 1.7011708501e+00 2.9465143448e+00 
100500 6.7166738754e+00 1.6250338959e-05 1.7011708501e+00 -2.9465143448e+00 1.7011708501e+00 2.9465143448e+00 
100600 6.7166738754e+00 1.6346819538e-05 1.7011708501e+00 -2.9465143448e+00 1.7011708501e+00 2.9465143448e+00 
100700 6.7166738755e+00 1.6443364313e-05 1.7011708501e+00 -2.9465143448e+00 1.7011708501e+00 2.9465143448e+00 
100800 6.7166738755e+00 1.6539904629e-05 1.7011708501e+00 -2.9465143448e+00 1.7011708501e+00 2.9465143448e+00 
100900 6.7166738756e+00 1.6636373244e-05 1.7011708501e+00 -2.9465143448e+00 1.7011708501e+00 2.9465143448e+00 
101000 6.7166738756e+00 1.6732704371e-05 1.7011708501e+00 -2.9465143448e+00 1.7011708501e+00 2.9465143448e+00 
101100 6.7166738757e+00 1.6828833703e-05 1.7011708501e+00 -2.9465143448e+00 1.7011708501e+00 2.9465143448e+00 
101200 6.7166738757e+00 1.6924698439e-05 1.7011708501e+00 -2.9465143448e+00 1.7011708501e+00 2.9465143448e+00 
101300 6.7166738758e+00 1.7020237309e-05 1.7011708501e+00 -2.9465143448e+00 1.7011708501e+00 2.9465143448e+00 
101400 6.7166738758e+00 1.7115390601e-05 1.7011708501e+00 -2.9465143448e+00 1.7011708501e+00 2.9465143448e+00 
101500 6.7166738759e+00 1.7157120862e-05 1.7011708501e+00 -2.9465143448e+00 1.7011708501e+00 2.9465143448e+00 
101500 6.7166738759e+00 1.7157120862e-05 1.7011708501e+00 -2.9465143448e+00 1.7011708501e+00 2.9465143448e+00 
