# step Hamiltonian StressXX CellTensor1 CellTensor2 CellTensor3 CellTensor4 
0 6.7173011725e+00 2.5277439565e-01 2.6408444507e+00 -4.5740767634e+00 2.6408444507e+00 4.5740767634e+00 
100 6.7388308332e+00 2.8523351890e-01 2.6408444507e+00 -4.5740767634e+00 2.6408444507e+00 4.5740767634e+00 
200 6.7575501492e+00 3.1483557565e-01 2.6354458725e+00 -4.5647261517e+00 2.6354458725e+00 4.5647261517e+00 
300 6.7746498881e+00 3.4211422410e-01 2.6294750350e+00 -4.5543843579e+00 2.6294750350e+00 4.5543843579e+00 
400 6.7903379590e+00 3.6748946097e-01 2.6229723528e+00 -4.5431213820e+00 2.6229723528e+00 4.5431213820e+00 
500 6.8047665782e+00 3.9129187496e-01 2.6159702690e+00 -4.5309934170e+00 2.6159702690e+00 4.5309934170e+00 
600 6.8180456041e+00 4.1378082462e-01 2.6084949376e+00 -4.5180457632e+00 2.6084949376e+00 4.5180457632e+00 
700 6.8302528572e+00 4.3515919690e-01 2.6005675599e+00 -4.5043151422e+00 2.6005675599e+00 4.5043151422e+00 
800 6.8414420254e+00 4.5558513489e-01 2.5922054408e+00 -4.4898315272e+00 2.5922054408e+00 4.4898315272e+00 
900 6.8516486893e+00 4.7518123811e-01 2.5834228257e+00 -4.4746195916e+00 2.5834228257e+00 4.4746195916e+00 
1000 6.8608949134e+00 4.9404172984e-01 2.5742315642e+00 -4.4586998596e+00 2.5742315642e+00 4.4586998596e+00 
1100 6.8691927574e+00 5.1223802484e-01 2.5646416413e+00 -4.4420896259e+00 2.5646416413e+00 4.4420896259e+00 
1200 6.8765469777e+00 5.2982305509e-01 2.5546616059e+00 -4.4248036975e+00 2.5546616059e+00 4.4248036975e+00 
1300 6.8829571268e+00 5.4683463893e-01 2.5442989192e+00 -4.4068549976e+00 2.5442989192e+00 4.4068549976e+00 
1400 6.8884192042e+00 5.6329811669e-01 2.5335602426e+00 -4.3882550641e+00 2.5335602426e+00 4.3882550641e+00 
1500 6.8929269729e+00 5.7922842569e-01 2.5224516777e+00 -4.3690144655e+00 2.5224516777e+00 4.3690144655e+00 
1600 6.8964730272e+00 5.9463174793e-01 2.5109789703e+00 -4.3491431532e+00 2.5109789703e+00 4.3491431532e+00 
1700 6.8990496733e+00 6.0950683324e-01 2.4991476844e+00 -4.3286507650e+00 2.4991476844e+00 4.3286507650e+00 
1800 6.9006496697e+00 6.2384607755e-01 2.4869633558e+00 -4.3075468888e+00 2.4869633558e+00 4.3075468888e+00 
1900 6.9012668591e+00 6.3763641815e-01 2.4744316260e+00 -4.2858412961e+00 2.4744316260e+00 4.2858412961e+00 
2000 6.9008967168e+00 6.5086009427e-01 2.4615583636e+00 -4.2635441515e+00 2.4615583636e+00 4.2635441515e+00 
2100 6.8995368305e+00 6.6349531066e-01 2.4483497727e+00 -4.2406662010e+00 2.4483497727e+00 4.2406662010e+00 
2200 6.8971873238e+00 6.7551683350e-01 2.4348124930e+00 -4.2172189449e+00 2.4348124930e+00 4.2172189449e+00 
2300 6.8938512281e+00 6.8689654129e-01 2.4209536905e+00 -4.1932147946e+00 2.4209536905e+00 4.1932147946e+00 
2400 6.8895348086e+00 6.9760394746e-01 2.4067811407e+00 -4.1686672183e+00 2.4067811407e+00 4.1686672183e+00 
2500 6.8842478430e+00 7.0760670704e-01 2.3923033057e+00 -4.1435908726e+00 2.3923033057e+00 4.1435908726e+00 
2600 6.8780038548e+00 7.1687111511e-01 2.3775294035e+00 -4.1180017233e+00 2.3775294035e+00 4.1180017233e+00 
2700 6.8708202987e+00 7.2536260187e-01 2.3624694705e+00 -4.0919171543e+00 2.3624694705e+00 4.0919171543e+00 
2800 6.8627186973e+00 7.3304622584e-01 2.3471344179e+00 -4.0653560640e+00 2.3471344179e+00 4.0653560640e+00 
2900 6.8537247286e+00 7.3988716465e-01 2.3315360794e+00 -4.0383389491e+00 2.3315360794e+00 4.0383389491e+00 
3000 6.8438682621e+00 7.4585120157e-01 2.3156872528e+00 -4.0108879763e+00 2.3156872528e+00 4.0108879763e+00 
3100 6.8331833465e+00 7.5090520450e-01 2.2996017332e+00 -3.9830270391e+00 2.2996017332e+00 3.9830270391e+00 
3200 6.8217081485e+00 7.5501759454e-01 2.2832943377e+00 -3.9547818015e+00 2.2832943377e+00 3.9547818015e+00 
3300 6.8094848451e+00 7.5815880085e-01 2.2667809222e+00 -3.9261797268e+00 2.2667809222e+00 3.9261797268e+00 
3400 6.7965594739e+00 7.6030169952e-01 2.2500783894e+00 -3.8972500915e+00 2.2500783894e+00 3.8972500915e+00 
3500 6.7829817419e+00 7.6142203453e-01 2.2332046876e+00 -3.8680239826e+00 2.2332046876e+00 3.8680239826e+00 
3600 6.7688047992e+00 7.6149881954e-01 2.2161788001e+00 -3.8385342804e+00 2.2161788001e+00 3.8385342804e+00 
3700 6.7540849778e+00 7.6051471942e-01 2.1990207250e+00 -3.8088156226e+00 2.1990207250e+00 3.8088156226e+00 
3800 6.7388814993e+00 7.5845641050e-01 2.1817514449e+00 -3.7789043520e+00 2.1817514449e+00 3.7789043520e+00 
3900 6.7232561529e+00 7.5531491771e-01 2.1643928856e+00 -3.7488384454e+00 2.1643928856e+00 3.7488384454e+00 
4000 6.7072729452e+00 7.5108592616e-01 2.1469678647e+00 -3.7186574239e+00 2.1469678647e+00 3.7186574239e+00 
4100 6.6909977205e+00 7.4577006348e-01 2.1295000281e+00 -3.6884022433e+00 2.1295000281e+00 3.6884022433e+00 
4200 6.6744977546e+00 7.3937314787e-01 2.1120137747e+00 -3.6581151640e+00 2.1120137747e+00 3.6581151640e+00 
4300 6.6578413203e+00 7.3190639603e-01 2.0945341699e+00 -3.6278396004e+00 2.0945341699e+00 3.6278396004e+00 
4400 6.6410972269e+00 7.2338658387e-01 2.0770868466e+00 -3.5976199501e+00 2.0770868466e+00 3.5976199501e+00 
4500 6.6243343344e+00 7.1383615261e-01 2.0596978944e+00 -3.5675014014e+00 2.0596978944e+00 3.5675014014e+00 
4600 6.6076210476e+00 7.0328325291e-01 2.0423937372e+00 -3.5375297218e+00 2.0423937372e+00 3.5375297218e+00 
4700 6.5910247917e+00 6.9176171995e-01 2.0252010004e+00 -3.5077510282e+00 2.0252010004e+00 3.5077510282e+00 
4800 6.5746114783e+00 6.7931097378e-01 2.0081463681e+00 -3.4782115385e+00 2.0081463681e+00 3.4782115385e+00 
4900 6.5584449678e+00 6.6597584051e-01 1.9912564319e+00 -3.4489573109e+00 1.9912564319e+00 3.4489573109e+00 
5000 6.5425865371e+00 6.5180629204e-01 1.9745575326e+00 -3.4200339689e+00 1.9745575326e+00 3.4200339689e+00 
5100 6.5270943637e+00 6.3685710431e-01 1.9580755976e+00 -3.3914864200e+00 1.9580755976e+00 3.3914864200e+00 
5200 6.5120230345e+00 6.2118743653e-01 1.9418359747e+00 -3.3633585682e+00 1.9418359747e+00 3.3633585682e+00 
5300 6.4974230926e+00 6.0486033625e-01 1.9258632669e+00 -3.3356930267e+00 1.9258632669e+00 3.3356930267e+00 
5400 6.4833406300e+00 5.8794217767e-01 1.9101811678e+00 -3.3085308343e+00 1.9101811678e+00 3.3085308343e+00 
5500 6.4698169375e+00 5.7050204278e-01 1.8948123037e+00 -3.2819111809e+00 1.8948123037e+00 3.2819111809e+00 
5600 6.4568882189e+00 5.5261105689e-01 1.8797780823e+00 -3.2558711455e+00 1.8797780823e+00 3.2558711455e+00 
5700 6.4445853769e+00 5.3434169145e-01 1.8650985517e+00 -3.2304454526e+00 1.8650985517e+00 3.2304454526e+00 
5800 6.4329338751e+00 5.1576704850e-01 1.8507922727e+00 -3.2056662505e+00 1.8507922727e+00 3.2056662505e+00 
5900 6.4219536778e+00 4.9696014122e-01 1.8368762057e+00 -3.1815629155e+00 1.8368762057e+00 3.1815629155e+00 
6000 6.4116592697e+00 4.7799318552e-01 1.8233656148e+00 -3.1581618856e+00 1.8233656148e+00 3.1581618856e+00 
6100 6.4020597514e+00 4.5893691697e-01 1.8102739904e+00 -3.1354865269e+00 1.8102739904e+00 3.1354865269e+00 
6200 6.3931590080e+00 4.3985994641e-01 1.7976129912e+00 -3.1135570332e+00 1.7976129912e+00 3.1135570332e+00 
6300 6.3849559435e+00 4.2082816640e-01 1.7853924081e+00 -3.0923903622e+00 1.7853924081e+00 3.0923903622e+00 
6400 6.3774447746e+00 4.0190421878e-01 1.7736201469e+00 -3.0720002078e+00 1.7736201469e+00 3.0720002078e+00 
6500 6.3706153733e+00 3.8314703172e-01 1.7623022340e+00 -3.0523970075e+00 1.7623022340e+00 3.0523970075e+00 
6600 6.3644536501e+00 3.6461143239e-01 1.7514428400e+00 -3.0335879854e+00 1.7514428400e+00 3.0335879854e+00 
6700 6.3589419658e+00 3.4634783902e-01 1.7410443241e+00 -3.0155772275e+00 1.7410443241e+00 3.0155772275e+00 
6800 6.3540595627e+00 3.2840203405e-01 1.7311072949e+00 -2.9983657881e+00 1.7311072949e+00 2.9983657881e+00 
6900 6.3497830050e+00 3.1081501759e-01 1.7216306877e+00 -2.9819518229e+00 1.7216306877e+00 2.9819518229e+00 
7000 6.3460866178e+00 2.9362293863e-01 1.7126118551e+00 -2.9663307467e+00 1.7126118551e+00 2.9663307467e+00 
7100 6.3429429180e+00 2.7685709942e-01 1.7040466699e+00 -2.9514954107e+00 1.7040466699e+00 2.9514954107e+00 
7200 6.3403230286e+00 2.6054402735e-01 1.6959296365e+00 -2.9374362964e+00 1.6959296365e+00 2.9374362964e+00 
7300 6.3381970701e+00 2.4470560695e-01 1.6882540099e+00 -2.9241417213e+00 1.6882540099e+00 2.9241417213e+00 
7400 6.3365345249e+00 2.2935926433e-01 1.6810119192e+00 -2.9115980522e+00 1.6810119192e+00 2.9115980522e+00 
7500 6.3353045712e+00 2.1451819554e-01 1.6741944929e+00 -2.8997899235e+00 1.6741944929e+00 2.8997899235e+00 
7600 6.3344763829e+00 2.0019163031e-01 1.6677919854e+00 -2.8887004552e+00 1.6677919854e+00 2.8887004552e+00 
7700 6.3340193960e+00 1.8638512268e-01 1.6617939014e+00 -2.8783114690e+00 1.6617939014e+00 2.8783114690e+00 
7800 6.3339035403e+00 1.7310086037e-01 1.6561891168e+00 -2.8686036973e+00 1.6561891168e+00 2.8686036973e+00 
7900 6.3340994372e+00 1.6033798532e-01 1.6509659953e+00 -2.8595569855e+00 1.6509659953e+00 2.8595569855e+00 
8000 6.3345785658e+00 1.4809291840e-01 1.6461124988e+00 -2.8511504829e+00 1.6461124988e+00 2.8511504829e+00 
8100 6.3353133975e+00 1.3635968234e-01 1.6416162907e+00 -2.8433628221e+00 1.6416162907e+00 2.8433628221e+00 
8200 6.3362775040e+00 1.2513021737e-01 1.6374648322e+00 -2.8361722850e+00 1.6374648322e+00 2.8361722850e+00 
8300 6.3374456383e+00 1.1439468543e-01 1.6336454695e+00 -2.8295569548e+00 1.6336454695e+00 2.8295569548e+00 
8400 6.3387937940e+00 1.0414175916e-01 1.6301455138e+00 -2.8234948537e+00 1.6301455138e+00 2.8234948537e+00 
8500 6.3402992437e+00 9.4358893212e-02 1.6269523117e+00 -2.8179640654e+00 1.6269523117e+00 2.8179640654e+00 
8600 6.3419405603e+00 8.5032575743e-02 1.6240533081e+00 -2.8129428438e+00 1.6240533081e+00 2.8129428438e+00 
8700 6.3436976229e+00 7.6148558912e-02 1.6214361005e+00 -2.8084097073e+00 1.6214361005e+00 2.8084097073e+00 
8800 6.3455516100e+00 6.7692067753e-02 1.6190884855e+00 -2.8043435189e+00 1.6190884855e+00 2.8043435189e+00 
8900 6.3474849825e+00 5.9647987273e-02 1.6169984984e+00 -2.8007235550e+00 1.6169984984e+00 2.8007235550e+00 
9000 6.3494814576e+00 5.2001028096e-02 1.6151544449e+00 -2.7975295606e+00 1.6151544449e+00 2.7975295606e+00 
9100 6.3515259756e+00 4.4735871336e-02 1.6135449276e+00 -2.7947417948e+00 1.6135449276e+00 2.7947417948e+00 
9200 6.3536046620e+00 3.7837293642e-02 1.6121588657e+00 -2.7923410653e+00 1.6121588657e+00 2.7923410653e+00 
9300 6.3557047846e+00 3.1290273564e-02 1.6109855105e+00 -2.7903087545e+00 1.6109855105e+00 2.7903087545e+00 
9400 6.3578147076e+00 2.5080080554e-02 1.6100144550e+00 -2.7886268370e+00 1.6100144550e+00 2.7886268370e+00 
9500 6.3599238440e+00 1.9192347970e-02 1.6092356403e+00 -2.7872778904e+00 1.6092356403e+00 2.7872778904e+00 
9600 6.3620226063e+00 1.3613131541e-02 1.6086393584e+00 -2.7862450998e+00 1.6086393584e+00 2.7862450998e+00 
9700 6.3641023563e+00 8.3289546935e-03 1.6082162513e+00 -2.7855122569e+00 1.6082162513e+00 2.7855122569e+00 
9800 6.3661553552e+00 3.3268421917e-03 1.6079573082e+00 -2.7850637542e+00 1.6079573082e+00 2.7850637542e+00 
9900 6.3681747129e+00 -1.4056565814e-03 1.6078538600e+00 -2.7848845766e+00 1.6078538600e+00 2.7848845766e+00 
10000 6.3701543392e+00 -5.8804533832e-03 1.6078975724e+00 -2.7849602887e+00 1.6078975724e+00 2.7849602887e+00 
10100 6.3720888947e+00 -1.0108914703e-02 1.6080804374e+00 -2.7852770202e+00 1.6080804374e+00 2.7852770202e+00 
10200 6.3739737428e+00 -1.4101862055e-02 1.6083947638e+00 -2.7858214496e+00 1.6083947638e+00 2.7858214496e+00 
10300 6.3758049041e+00 -1.7869577931e-02 1.6088331669e+00 -2.7865807859e+00 1.6088331669e+00 2.7865807859e+00 
10400 6.3775790101e+00 -2.1421816468e-02 1.6093885571e+00 -2.7875427501e+00 1.6093885571e+00 2.7875427501e+00 
10500 6.3792932603e+00 -2.4767817980e-02 1.6100541295e+00 -2.7886955553e+00 1.6100541295e+00 2.7886955553e+00 
10600 6.3809453794e+00 -2.7916326580e-02 1.6108233518e+00 -2.7900278873e+00 1.6108233518e+00 2.7900278873e+00 
10700 6.3825335767e+00 -3.0875610219e-02 1.6116899530e+00 -2.7915288846e+00 1.6116899530e+00 2.7915288846e+00 
10800 6.3840565069e+00 -3.3653482543e-02 1.6126479122e+00 -2.7931881187e+00 1.6126479122e+00 2.7931881187e+00 
10900 6.3855132326e+00 -3.6257326034e-02 1.6136914478e+00 -2.7949955753e+00 1.6136914478e+00 2.7949955753e+00 
11000 6.3869031883e+00 -3.8694115988e-02 1.6148150062e+00 -2.7969416355e+00 1.6148150062e+00 2.7969416355e+00 
11100 6.3882261458e+00 -4.0970444933e-02 1.6160132517e+00 -2.7990170576e+00 1.6160132517e+00 2.7990170576e+00 
11200 6.3894821823e+00 -4.3092547149e-02 1.6172810568e+00 -2.8012129605e+00 1.6172810568e+00 2.8012129605e+00 
11300 6.3906716486e+00 -4.5066323006e-02 1.6186134924e+00 -2.8035208067e+00 1.6186134924e+00 2.8035208067e+00 
11400 6.3917951402e+00 -4.6897362885e-02 1.6200058192e+00 -2.8059323874e+00 1.6200058192e+00 2.8059323874e+00 
11500 6.3928534694e+00 -4.8590970482e-02 1.6214534788e+00 -2.8084398074e+00 1.6214534788e+00 2.8084398074e+00 
11600 6.3938476390e+00 -5.0152185327e-02 1.6229520863e+00 -2.8110354718e+00 1.6229520863e+00 2.8110354718e+00 
11700 6.3947788182e+00 -5.1585804406e-02 1.6244974226e+00 -2.8137120728e+00 1.6244974226e+00 2.8137120728e+00 
11800 6.3956483194e+00 -5.2896402767e-02 1.6260854276e+00 -2.8164625780e+00 1.6260854276e+00 2.8164625780e+00 
11900 6.3964575769e+00 -5.4088353043e-02 1.6277121937e+00 -2.8192802195e+00 1.6277121937e+00 2.8192802195e+00 
12000 6.3972081269e+00 -5.5165843838e-02 1.6293739600e+00 -2.8221584832e+00 1.6293739600e+00 2.8221584832e+00 
12100 6.3979015896e+00 -5.6132896936e-02 1.6310671068e+00 -2.8250910995e+00 1.6310671068e+00 2.8250910995e+00 
12200 6.3985396517e+00 -5.6993383314e-02 1.6327881505e+00 -2.8280720347e+00 1.6327881505e+00 2.8280720347e+00 
12300 6.3991240518e+00 -5.7751037950e-02 1.6345337391e+00 -2.8310954827e+00 1.6345337391e+00 2.8310954827e+00 
12400 6.3996565655e+00 -5.8409473444e-02 1.6363006475e+00 -2.8341558579e+00 1.6363006475e+00 2.8341558579e+00 
12500 6.4001389934e+00 -5.8972192444e-02 1.6380857742e+00 -2.8372477881e+00 1.6380857742e+00 2.8372477881e+00 
12600 6.4005731493e+00 -5.9442598926e-02 1.6398861372e+00 -2.8403661083e+00 1.6398861372e+00 2.8403661083e+00 
12700 6.4009608504e+00 -5.9824008346e-02 1.6416988709e+00 -2.8435058551e+00 1.6416988709e+00 2.8435058551e+00 
12800 6.4013039080e+00 -6.0119656700e-02 1.6435212228e+00 -2.8466622613e+00 1.6435212228e+00 2.8466622613e+00 
12900 6.4016041200e+00 -6.0332708545e-02 1.6453505511e+00 -2.8498307507e+00 1.6453505511e+00 2.8498307507e+00 
13000 6.4018632641e+00 -6.0466264015e-02 1.6471843214e+00 -2.8530069341e+00 1.6471843214e+00 2.8530069341e+00 
13100 6.4020830919e+00 -6.0523364894e-02 1.6490201051e+00 -2.8561866046e+00 1.6490201051e+00 2.8561866046e+00 
13200 6.4022653245e+00 -6.0506999789e-02 1.6508555762e+00 -2.8593657340e+00 1.6508555762e+00 2.8593657340e+00 
13300 6.4024116483e+00 -6.0420108463e-02 1.6526885101e+00 -2.8625404686e+00 1.6526885101e+00 2.8625404686e+00 
13400 6.4025237122e+00 -6.0265585386e-02 1.6545167806e+00 -2.8657071261e+00 1.6545167806e+00 2.8657071261e+00 
13500 6.4026031251e+00 -6.0046282551e-02 1.6563383587e+00 -2.8688621918e+00 1.6563383587e+00 2.8688621918e+00 
13600 6.4026514545e+00 -5.9765011623e-02 1.6581513102e+00 -2.8720023160e+00 1.6581513102e+00 2.8720023160e+00 
13700 6.4026702255e+00 -5.9424545477e-02 1.6599537943e+00 -2.8751243099e+00 1.6599537943e+00 2.8751243099e+00 
13800 6.4026609204e+00 -5.9027619172e-02 1.6617440614e+00 -2.8782251435e+00 1.6617440614e+00 2.8782251435e+00 
13900 6.4026249786e+00 -5.8576930433e-02 1.6635204518e+00 -2.8813019419e+00 1.6635204518e+00 2.8813019419e+00 
14000 6.4025637972e+00 -5.8075139681e-02 1.6652813935e+00 -2.8843519824e+00 1.6652813935e+00 2.8843519824e+00 
14100 6.4024787322e+00 -5.7524869677e-02 1.6670254010e+00 -2.8873726920e+00 1.6670254010e+00 2.8873726920e+00 
14200 6.4023710993e+00 -5.6928704826e-02 1.6687510730e+00 -2.8903616437e+00 1.6687510730e+00 2.8903616437e+00 
14300 6.4022421755e+00 -5.6289190188e-02 1.6704570912e+00 -2.8933165538e+00 1.6704570912e+00 2.8933165538e+00 
14400 6.4020932006e+00 -5.5608830258e-02 1.6721422181e+00 -2.8962352792e+00 1.6721422181e+00 2.8962352792e+00 
14500 6.4019253793e+00 -5.4890087543e-02 1.6738052954e+00 -2.8991158137e+00 1.6738052954e+00 2.8991158137e+00 
14600 6.4017398829e+00 -5.4135380999e-02 1.6754452425e+00 -2.9019562853e+00 1.6754452425e+00 2.9019562853e+00 
14700 6.4015378514e+00 -5.3347084347e-02 1.6770610539e+00 -2.9047549528e+00 1.6770610539e+00 2.9047549528e+00 
14800 6.4013203950e+00 -5.2527524335e-02 1.6786517983e+00 -2.9075102029e+00 1.6786517983e+00 2.9075102029e+00 
14900 6.4010885967e+00 -5.1678978948e-02 1.6802166159e+00 -2.9102205464e+00 1.6802166159e+00 2.9102205464e+00 
15000 6.4008435139e+00 -5.0803675629e-02 1.6817547168e+00 -2.9128846154e+00 1.6817547168e+00 2.9128846154e+00 
15100 6.4005861799e+00 -4.9903789526e-02 1.6832653793e+00 -2.9155011595e+00 1.6832653793e+00 2.9155011595e+00 
15200 6.4003176062e+00 -4.8981441792e-02 1.6847479472e+00 -2.9180690426e+00 1.6847479472e+00 2.9180690426e+00 
15300 6.4000387835e+00 -4.8038697962e-02 1.6862018288e+00 -2.9205872393e+00 1.6862018288e+00 2.9205872393e+00 
15400 6.3997506835e+00 -4.7077566442e-02 1.6876264939e+00 -2.9230548316e+00 1.6876264939e+00 2.9230548316e+00 
15500 6.3994542598e+00 -4.6099997106e-02 1.6890214721e+00 -2.9254710048e+00 1.6890214721e+00 2.9254710048e+00 
15600 6.3991504493e+00 -4.5107880032e-02 1.6903863512e+00 -2.9278350446e+00 1.6903863512e+00 2.9278350446e+00 
15700 6.3988401728e+00 -4.4103044387e-02 1.6917207742e+00 -2.9301463331e+00 1.6917207742e+00 2.9301463331e+00 
15800 6.3985243358e+00 -4.3087257470e-02 1.6930244380e+00 -2.9324043451e+00 1.6930244380e+00 2.9324043451e+00 
15900 6.3982038289e+00 -4.2062223920e-02 1.6942970910e+00 -2.9346086447e+00 1.6942970910e+00 2.9346086447e+00 
16000 6.3978795284e+00 -4.1029585095e-02 1.6955385308e+00 -2.9367588815e+00 1.6955385308e+00 2.9367588815e+00 
16100 6.3975522959e+00 -3.9990918627e-02 1.6967486024e+00 -2.9388547870e+00 1.6967486024e+00 2.9388547870e+00 
16200 6.3972229787e+00 -3.8947738155e-02 1.6979271961e+00 -2.9408961712e+00 1.6979271961e+00 2.9408961712e+00 
16300 6.3968924093e+00 -3.7901493227e-02 1.6990742453e+00 -2.9428829186e+00 1.6990742453e+00 2.9428829186e+00 
16400 6.3965614051e+00 -3.6853569384e-02 1.7001897244e+00 -2.9448149852e+00 1.7001897244e+00 2.9448149852e+00 
16500 6.3962307676e+00 -3.5805288405e-02 1.7012736470e+00 -2.9466923942e+00 1.7012736470e+00 2.9466923942e+00 
16600 6.3959012823e+00 -3.4757908721e-02 1.7023260638e+00 -2.9485152335e+00 1.7023260638e+00 2.9485152335e+00 
16700 6.3955737171e+00 -3.3712625989e-02 1.7033470603e+00 -2.9502836514e+00 1.7033470603e+00 2.9502836514e+00 
16800 6.3952488218e+00 -3.2670573806e-02 1.7043367555e+00 -2.9519978538e+00 1.7043367555e+00 2.9519978538e+00 
16900 6.3949273273e+00 -3.1632824578e-02 1.7052952995e+00 -2.9536581006e+00 1.7052952995e+00 2.9536581006e+00 
17000 6.3946099439e+00 -3.0600390510e-02 1.7062228717e+00 -2.9552647028e+00 1.7062228717e+00 2.9552647028e+00 
17100 6.3942973605e+00 -2.9574224732e-02 1.7071196792e+00 -2.9568180190e+00 1.7071196792e+00 2.9568180190e+00 
17200 6.3939902435e+00 -2.8555222524e-02 1.7079859549e+00 -2.9583184524e+00 1.7079859549e+00 2.9583184524e+00 
17300 6.3936892352e+00 -2.7544222656e-02 1.7088219556e+00 -2.9597664482e+00 1.7088219556e+00 2.9597664482e+00 
17400 6.3933949529e+00 -2.6542008817e-02 1.7096279608e+00 -2.9611624901e+00 1.7096279608e+00 2.9611624901e+00 
17500 6.3931079874e+00 -2.5549311125e-02 1.7104042705e+00 -2.9625070980e+00 1.7104042705e+00 2.9625070980e+00 
17600 6.3928289017e+00 -2.4566807707e-02 1.7111512042e+00 -2.9638008250e+00 1.7111512042e+00 2.9638008250e+00 
17700 6.3925582303e+00 -2.3595126352e-02 1.7118690988e+00 -2.9650442550e+00 1.7118690988e+00 2.9650442550e+00 
17800 6.3922964774e+00 -2.2634846200e-02 1.7125583077e+00 -2.9662379998e+00 1.7125583077e+00 2.9662379998e+00 
17900 6.3920441162e+00 -2.1686499485e-02 1.7132191991e+00 -2.9673826973e+00 1.7132191991e+00 2.9673826973e+00 
18000 6.3918015877e+00 -2.0750573310e-02 1.7138521547e+00 -2.9684790086e+00 1.7138521547e+00 2.9684790086e+00 
18100 6.3915692999e+00 -1.9827511437e-02 1.7144575685e+00 -2.9695276160e+00 1.7144575685e+00 2.9695276160e+00 
18200 6.3913476267e+00 -1.8917716104e-02 1.7150358454e+00 -2.9705292211e+00 1.7150358454e+00 2.9705292211e+00 
18300 6.3911369075e+00 -1.8021549843e-02 1.7155874004e+00 -2.9714845423e+00 1.7155874004e+00 2.9714845423e+00 
18400 6.3909374460e+00 -1.7139337300e-02 1.7161126569e+00 -2.9723943132e+00 1.7161126569e+00 2.9723943132e+00 
18500 6.3907495102e+00 -1.6271367044e-02 1.7166120462e+00 -2.9732592810e+00 1.7166120462e+00 2.9732592810e+00 
18600 6.3905733318e+00 -1.5417893373e-02 1.7170860064e+00 -2.9740802041e+00 1.7170860064e+00 2.9740802041e+00 
18700 6.3904091056e+00 -1.4579138086e-02 1.7175349812e+00 -2.9748578512e+00 1.7175349812e+00 2.9748578512e+00 
18800 6.3902569898e+00 -1.3755292244e-02 1.7179594191e+00 -2.9755929992e+00 1.7179594191e+00 2.9755929992e+00 
18900 6.3901171056e+00 -1.2946517889e-02 1.7183597727e+00 -2.9762864320e+00 1.7183597727e+00 2.9762864320e+00 
19000 6.3899895373e+00 -1.2152949737e-02 1.7187364980e+00 -2.9769389393e+00 1.7187364980e+00 2.9769389393e+00 
19100 6.3898743329e+00 -1.1374696829e-02 1.7190900532e+00 -2.9775513150e+00 1.7190900532e+00 2.9775513150e+00 
19200 6.3897715036e+00 -1.0611844141e-02 1.7194208987e+00 -2.9781243561e+00 1.7194208987e+00 2.9781243561e+00 
19300 6.3896810253e+00 -9.8644541476e-03 1.7197294956e+00 -2.9786588617e+00 1.7197294956e+00 2.9786588617e+00 
19400 6.3896028383e+00 -9.1325683365e-03 1.7200163061e+00 -2.9791556320e+00 1.7200163061e+00 2.9791556320e+00 
19500 6.3895368486e+00 -8.4162086771e-03 1.7202817920e+00 -2.9796154672e+00 1.7202817920e+00 2.9796154672e+00 
19600 6.3894829283e+00 -7.7153790323e-03 1.7205264150e+00 -2.9800391665e+00 1.7205264150e+00 2.9800391665e+00 
19700 6.3894409168e+00 -7.0300665192e-03 1.7207506355e+00 -2.9804275279e+00 1.7207506355e+00 2.9804275279e+00 
19800 6.3894106219e+00 -6.3602428133e-03 1.7209549128e+00 -2.9807813465e+00 1.7209549128e+00 2.9807813465e+00 
19900 6.3893918205e+00 -5.7058653970e-03 1.7211397043e+00 -2.9811014148e+00 1.7211397043e+00 2.9811014148e+00 
20000 6.3893842605e+00 -5.0668787520e-03 1.7213054653e+00 -2.9813885213e+00 1.7213054653e+00 2.9813885213e+00 
20100 6.3893876615e+00 -4.4432154932e-03 1.7214526487e+00 -2.9816434503e+00 1.7214526487e+00 2.9816434503e+00 
20200 6.3894017166e+00 -3.8347974471e-03 1.7215817045e+00 -2.9818669816e+00 1.7215817045e+00 2.9818669816e+00 
20300 6.3894260938e+00 -3.2415366710e-03 1.7216930800e+00 -2.9820598896e+00 1.7216930800e+00 2.9820598896e+00 
20400 6.3894604375e+00 -2.6633364169e-03 1.7217872189e+00 -2.9822229430e+00 1.7217872189e+00 2.9822229430e+00 
20500 6.3895043701e+00 -2.1000920383e-03 1.7218645617e+00 -2.9823569046e+00 1.7218645617e+00 2.9823569046e+00 
20600 6.3895574939e+00 -1.5516918411e-03 1.7219255451e+00 -2.9824625310e+00 1.7219255451e+00 2.9824625310e+00 
20700 6.3896193924e+00 -1.0180178795e-03 1.7219706022e+00 -2.9825405722e+00 1.7219706022e+00 2.9825405722e+00 
20800 6.3896896325e+00 -4.9894669868e-04 1.7220001620e+00 -2.9825917712e+00 1.7220001620e+00 2.9825917712e+00 
20900 6.3897677659e+00 5.6499761887e-06 1.7220146494e+00 -2.9826168641e+00 1.7220146494e+00 2.9826168641e+00 
21000 6.3898533312e+00 4.9610595110e-04 1.7220146494e+00 -2.9826168641e+00 1.7220146494e+00 2.9826168641e+00 
21100 6.3899458553e+00 9.7214897583e-04 1.7220002446e+00 -2.9825919143e+00 1.7220002446e+00 2.9825919143e+00 
21200 6.3900448558e+00 1.4341252937e-03 1.7219720174e+00 -2.9825430233e+00 1.7219720174e+00 2.9825430233e+00 
21300 6.3901498423e+00 1.8821765688e-03 1.7219303756e+00 -2.9824708976e+00 1.7219303756e+00 2.9824708976e+00 
21400 6.3902603183e+00 2.3164465847e-03 1.7218757228e+00 -2.9823762362e+00 1.7218757228e+00 2.9823762362e+00 
21500 6.3903757835e+00 2.7370808435e-03 1.7218084580e+00 -2.9822597302e+00 1.7218084580e+00 2.9822597302e+00 
21600 6.3904957347e+00 3.1442262056e-03 1.7217289759e+00 -2.9821220631e+00 1.7217289759e+00 2.9821220631e+00 
21700 6.3906196682e+00 3.5380305709e-03 1.7216376666e+00 -2.9819639107e+00 1.7216376666e+00 2.9819639107e+00 
21800 6.3907470813e+00 3.9186425988e-03 1.7215349157e+00 -2.9817859410e+00 1.7215349157e+00 2.9817859410e+00 
21900 6.3908774740e+00 4.2862114638e-03 1.7214211045e+00 -2.9815888142e+00 1.7214211045e+00 2.9815888142e+00 
22000 6.3910103503e+00 4.6408866473e-03 1.7212966097e+00 -2.9813731828e+00 1.7212966097e+00 2.9813731828e+00 
22100 6.3911452202e+00 4.9828177609e-03 1.7211618036e+00 -2.9811396918e+00 1.7211618036e+00 2.9811396918e+00 
22200 6.3912816008e+00 5.3121544022e-03 1.7210170540e+00 -2.9808889782e+00 1.7210170540e+00 2.9808889782e+00 
22300 6.3914190182e+00 5.6290460381e-03 1.7208627245e+00 -2.9806216717e+00 1.7208627245e+00 2.9806216717e+00 
22400 6.3915570082e+00 5.9336419165e-03 1.7206991740e+00 -2.9803383940e+00 1.7206991740e+00 2.9803383940e+00 
22500 6.3916951184e+00 6.2260910021e-03 1.7205267574e+00 -2.9800397596e+00 1.7205267574e+00 2.9800397596e+00 
22600 6.3918329086e+00 6.5065419362e-03 1.7203458250e+00 -2.9797263755e+00 1.7203458250e+00 2.9797263755e+00 
22700 6.3919699526e+00 6.7751430173e-03 1.7201567228e+00 -2.9793988409e+00 1.7201567228e+00 2.9793988409e+00 
22800 6.3921058388e+00 7.0320422013e-03 1.7199597927e+00 -2.9790577479e+00 1.7199597927e+00 2.9790577479e+00 
22900 6.3922401716e+00 7.2773871195e-03 1.7197553721e+00 -2.9787036811e+00 1.7197553721e+00 2.9787036811e+00 
23000 6.3923725719e+00 7.5113251119e-03 1.7195437944e+00 -2.9783372178e+00 1.7195437944e+00 2.9783372178e+00 
23100 6.3925026781e+00 7.7340032746e-03 1.7193253886e+00 -2.9779589279e+00 1.7193253886e+00 2.9779589279e+00 
23200 6.3926301470e+00 7.9455685197e-03 1.7191004797e+00 -2.9775693741e+00 1.7191004797e+00 2.9775693741e+00 
23300 6.3927546542e+00 8.1461676453e-03 1.7188693881e+00 -2.9771691118e+00 1.7188693881e+00 2.9771691118e+00 
23400 6.3928758946e+00 8.3359474143e-03 1.7186324306e+00 -2.9767586894e+00 1.7186324306e+00 2.9767586894e+00 
23500 6.3929935831e+00 8.5150546408e-03 1.7183899195e+00 -2.9763386477e+00 1.7183899195e+00 2.9763386477e+00 
23600 6.3931074550e+00 8.6836362821e-03 1.7181421628e+00 -2.9759095206e+00 1.7181421628e+00 2.9759095206e+00 
23700 6.3932172662e+00 8.8418395344e-03 1.7178894648e+00 -2.9754718348e+00 1.7178894648e+00 2.9754718348e+00 
23800 6.3933227933e+00 8.9898119319e-03 1.7176321252e+00 -2.9750261096e+00 1.7176321252e+00 2.9750261096e+00 
23900 6.3934238340e+00 9.1277014470e-03 1.7173704398e+00 -2.9745728572e+00 1.7173704398e+00 2.9745728572e+00 
24000 6.3935202070e+00 9.2556565909e-03 1.7171047003e+00 -2.9741125828e+00 1.7171047003e+00 2.9741125828e+00 
24100 6.3936117521e+00 9.3738265125e-03 1.7168351939e+00 -2.9736457840e+00 1.7168351939e+00 2.9736457840e+00 
24200 6.3936983300e+00 9.4823610958e-03 1.7165622038e+00 -2.9731729514e+00 1.7165622038e+00 2.9731729514e+00 
24300 6.3937798223e+00 9.5814110535e-03 1.7162860091e+00 -2.9726945682e+00 1.7162860091e+00 2.9726945682e+00 
24400 6.3938561311e+00 9.6711280166e-03 1.7160068846e+00 -2.9722111103e+00 1.7160068846e+00 2.9722111103e+00 
24500 6.3939271787e+00 9.7516646184e-03 1.7157251007e+00 -2.9717230462e+00 1.7157251007e+00 2.9717230462e+00 
24600 6.3939929075e+00 9.8231745729e-03 1.7154409236e+00 -2.9712308370e+00 1.7154409236e+00 2.9712308370e+00 
24700 6.3940532793e+00 9.8858127463e-03 1.7151546152e+00 -2.9707349364e+00 1.7151546152e+00 2.9707349364e+00 
24800 6.3941082750e+00 9.9397352203e-03 1.7148664332e+00 -2.9702357904e+00 1.7148664332e+00 2.9702357904e+00 
24900 6.3941578940e+00 9.9850993485e-03 1.7145766306e+00 -2.9697338376e+00 1.7145766306e+00 2.9697338376e+00 
25000 6.3942021537e+00 1.0022063803e-02 1.7142854561e+00 -2.9692295087e+00 1.7142854561e+00 2.9692295087e+00 
25100 6.3942410888e+00 1.0050788613e-02 1.7139931542e+00 -2.9687232269e+00 1.7139931542e+00 2.9687232269e+00 
25200 6.3942747505e+00 1.0071435192e-02 1.7136999645e+00 -2.9682154075e+00 1.7136999645e+00 2.9682154075e+00 
25300 6.3943032061e+00 1.0084166359e-02 1.7134061223e+00 -2.9677064579e+00 1.7134061223e+00 2.9677064579e+00 
25400 6.3943265382e+00 1.0089146345e-02 1.7131118583e+00 -2.9671967776e+00 1.7131118583e+00 2.9671967776e+00 
25500 6.3943448438e+00 1.0086540794e-02 1.7128173983e+00 -2.9666867579e+00 1.7128173983e+00 2.9666867579e+00 
25600 6.3943582335e+00 1.0076516748e-02 1.7125229638e+00 -2.9661767824e+00 1.7125229638e+00 2.9661767824e+00 
25700 6.3943668308e+00 1.0059242630e-02 1.7122287713e+00 -2.9656672260e+00 1.7122287713e+00 2.9656672260e+00 
25800 6.3943707713e+00 1.0034888208e-02 1.7119350326e+00 -2.9651584558e+00 1.7119350326e+00 2.9651584558e+00 
25900 6.3943702016e+00 1.0003624558e-02 1.7116419549e+00 -2.9646508302e+00 1.7116419549e+00 2.9646508302e+00 
26000 6.3943652786e+00 9.9656240057e-03 1.7113497401e+00 -2.9641446994e+00 1.7113497401e+00 2.9641446994e+00 
26100 6.3943561689e+00 9.9210600716e-03 1.7110585857e+00 -2.9636404051e+00 1.7110585857e+00 2.9636404051e+00 
26200 6.3943430474e+00 9.8701073970e-03 1.7107686839e+00 -2.9631382805e+00 1.7107686839e+00 2.9631382805e+00 
26300 6.3943260967e+00 9.8129416657e-03 1.7104802220e+00 -2.9626386499e+00 1.7104802220e+00 2.9626386499e+00 
26400 6.3943055063e+00 9.7497395152e-03 1.7101933825e+00 -2.9621418292e+00 1.7101933825e+00 2.9621418292e+00 
26500 6.3942814714e+00 9.6806784413e-03 1.7099083425e+00 -2.9616481256e+00 1.7099083425e+00 2.9616481256e+00 
26600 6.3942541926e+00 9.6059366938e-03 1.7096252744e+00 -2.9611578372e+00 1.7096252744e+00 2.9611578372e+00 
26700 6.3942238744e+00 9.5256931653e-03 1.7093443452e+00 -2.9606712535e+00 1.7093443452e+00 2.9606712535e+00 
26800 6.3941907248e+00 9.4401272739e-03 1.7090657169e+00 -2.9601886551e+00 1.7090657169e+00 2.9601886551e+00 
26900 6.3941549542e+00 9.3494188395e-03 1.7087895463e+00 -2.9597103137e+00 1.7087895463e+00 2.9597103137e+00 
27000 6.3941167750e+00 9.2537479542e-03 1.7085159851e+00 -2.9592364918e+00 1.7085159851e+00 2.9592364918e+00 
27100 6.3940764002e+00 9.1532948487e-03 1.7082451799e+00 -2.9587674433e+00 1.7082451799e+00 2.9587674433e+00 
27200 6.3940340432e+00 9.0482397541e-03 1.7079772717e+00 -2.9583034128e+00 1.7079772717e+00 2.9583034128e+00 
27300 6.3939899166e+00 8.9387627595e-03 1.7077123968e+00 -2.9578446360e+00 1.7077123968e+00 2.9578446360e+00 
27400 6.3939442321e+00 8.8250436676e-03 1.7074506861e+00 -2.9573913397e+00 1.7074506861e+00 2.9573913397e+00 
27500 6.3938971991e+00 8.7072618478e-03 1.7071922651e+00 -2.9569437414e+00 1.7071922651e+00 2.9569437414e+00 
27600 6.3938490244e+00 8.5855960866e-03 1.7069372544e+00 -2.9565020500e+00 1.7069372544e+00 2.9565020500e+00 
27700 6.3937999116e+00 8.4602244388e-03 1.7066857693e+00 -2.9560664651e+00 1.7066857693e+00 2.9560664651e+00 
27800 6.3937500607e+00 8.3313240762e-03 1.7064379200e+00 -2.9556371774e+00 1.7064379200e+00 2.9556371774e+00 
27900 6.3936996669e+00 8.1990711385e-03 1.7061938113e+00 -2.9552143688e+00 1.7061938113e+00 2.9552143688e+00 
28000 6.3936489207e+00 8.0636405835e-03 1.7059535432e+00 -2.9547982122e+00 1.7059535432e+00 2.9547982122e+00 
28100 6.3935980072e+00 7.9252060400e-03 1.7057172105e+00 -2.9543888719e+00 1.7057172105e+00 2.9543888719e+00 
28200 6.3935471055e+00 7.7839396612e-03 1.7054849027e+00 -2.9539865031e+00 1.7054849027e+00 2.9539865031e+00 
28300 6.3934963886e+00 7.6400119824e-03 1.7052567047e+00 -2.9535912525e+00 1.7052567047e+00 2.9535912525e+00 
28400 6.3934460227e+00 7.4935917801e-03 1.7050326960e+00 -2.9532032581e+00 1.7050326960e+00 2.9532032581e+00 
28500 6.3933961670e+00 7.3448459362e-03 1.7048129516e+00 -2.9528226495e+00 1.7048129516e+00 2.9528226495e+00 
28600 6.3933469735e+00 7.1939393048e-03 1.7045975411e+00 -2.9524495476e+00 1.7045975411e+00 2.9524495476e+00 
28700 6.3932985865e+00 7.0410345848e-03 1.7043865297e+00 -2.9520840651e+00 1.7043865297e+00 2.9520840651e+00 
28800 6.3932511424e+00 6.8862921963e-03 1.7041799776e+00 -2.9517263064e+00 1.7041799776e+00 2.9517263064e+00 
28900 6.3932047698e+00 6.7298701632e-03 1.7039779403e+00 -2.9513763676e+00 1.7039779403e+00 2.9513763676e+00 
29000 6.3931595890e+00 6.5719240006e-03 1.7037804689e+00 -2.9510343370e+00 1.7037804689e+00 2.9510343370e+00 
29100 6.3931157120e+00 6.4126066089e-03 1.7035876095e+00 -2.9507002948e+00 1.7035876095e+00 2.9507002948e+00 
29200 6.3930732422e+00 6.2520681733e-03 1.7033994041e+00 -2.9503743135e+00 1.7033994041e+00 2.9503743135e+00 
29300 6.3930322748e+00 6.0904560706e-03 1.7032158900e+00 -2.9500564578e+00 1.7032158900e+00 2.9500564578e+00 
29400 6.3929928964e+00 5.9279147820e-03 1.7030371003e+00 -2.9497467849e+00 1.7030371003e+00 2.9497467849e+00 
29500 6.3929551850e+00 5.7645858130e-03 1.7028630638e+00 -2.9494453448e+00 1.7028630638e+00 2.9494453448e+00 
29600 6.3929192101e+00 5.6006076200e-03 1.7026938050e+00 -2.9491521800e+00 1.7026938050e+00 2.9491521800e+00 
29700 6.3928850329e+00 5.4361155445e-03 1.7025293445e+00 -2.9488673260e+00 1.7025293445e+00 2.9488673260e+00 
29800 6.3928527063e+00 5.2712417540e-03 1.7023696988e+00 -2.9485908115e+00 1.7023696988e+00 2.9485908115e+00 
29900 6.3928222747e+00 5.1061151896e-03 1.7022148804e+00 -2.9483226582e+00 1.7022148804e+00 2.9483226582e+00 
30000 6.3927937748e+00 4.9408615222e-03 1.7020648982e+00 -2.9480628814e+00 1.7020648982e+00 2.9480628814e+00 
30100 6.3927672350e+00 4.7756031140e-03 1.7019197571e+00 -2.9478114896e+00 1.7019197571e+00 2.9478114896e+00 
30200 6.3927426761e+00 4.6104589883e-03 1.7017794585e+00 -2.9475684854e+00 1.7017794585e+00 2.9475684854e+00 
30300 6.3927201115e+00 4.4455448063e-03 1.7016440004e+00 -2.9473338650e+00 1.7016440004e+00 2.9473338650e+00 
30400 6.3926995471e+00 4.2809728496e-03 1.7015133770e+00 -2.9471076188e+00 1.7015133770e+00 2.9471076188e+00 
30500 6.3926809817e+00 4.1168520107e-03 1.7013875796e+00 -2.9468897312e+00 1.7013875796e+00 2.9468897312e+00 
30600 6.3926644075e+00 3.9532877896e-03 1.7012665959e+00 -2.9466801813e+00 1.7012665959e+00 2.9466801813e+00 
30700 6.3926498098e+00 3.7903822962e-03 1.7011504106e+00 -2.9464789425e+00 1.7011504106e+00 2.9464789425e+00 
30800 6.3926371680e+00 3.6282342598e-03 1.7010390054e+00 -2.9462859830e+00 1.7010390054e+00 2.9462859830e+00 
30900 6.3926264553e+00 3.4669390437e-03 1.7009323589e+00 -2.9461012659e+00 1.7009323589e+00 2.9461012659e+00 
31000 6.3926176393e+00 3.3065886659e-03 1.7008304470e+00 -2.9459247493e+00 1.7008304470e+00 2.9459247493e+00 
31100 6.3926106823e+00 3.1472718254e-03 1.7007332428e+00 -2.9457563867e+00 1.7007332428e+00 2.9457563867e+00 
31200 6.3926055415e+00 2.9890739326e-03 1.7006407168e+00 -2.9455961269e+00 1.7006407168e+00 2.9455961269e+00 
31300 6.3926021696e+00 2.8320771461e-03 1.7005528367e+00 -2.9454439141e+00 1.7005528367e+00 2.9454439141e+00 
31400 6.3926005146e+00 2.6763604127e-03 1.7004695681e+00 -2.9452996886e+00 1.7004695681e+00 2.9452996886e+00 
31500 6.3926005208e+00 2.5219995124e-03 1.7003908739e+00 -2.9451633864e+00 1.7003908739e+00 2.9451633864e+00 
31600 6.3926021287e+00 2.3690671068e-03 1.7003167151e+00 -2.9450349395e+00 1.7003167151e+00 2.9450349395e+00 
31700 6.3926052754e+00 2.2176327917e-03 1.7002470501e+00 -2.9449142762e+00 1.7002470501e+00 2.9449142762e+00 
31800 6.3926098951e+00 2.0677631526e-03 1.7001818355e+00 -2.9448013212e+00 1.7001818355e+00 2.9448013212e+00 
31900 6.3926159193e+00 1.9195218230e-03 1.7001210258e+00 -2.9446959957e+00 1.7001210258e+00 2.9446959957e+00 
32000 6.3926232772e+00 1.7729695458e-03 1.7000645736e+00 -2.9445982176e+00 1.7000645736e+00 2.9445982176e+00 
32100 6.3926318959e+00 1.6281642368e-03 1.7000124297e+00 -2.9445079017e+00 1.7000124297e+00 2.9445079017e+00 
32200 6.3926417009e+00 1.4851610502e-03 1.6999645431e+00 -2.9444249597e+00 1.6999645431e+00 2.9444249597e+00 
32300 6.3926526165e+00 1.3440124456e-03 1.6999208611e+00 -2.9443493003e+00 1.6999208611e+00 2.9443493003e+00 
32400 6.3926645656e+00 1.2047682568e-03 1.6998813297e+00 -2.9442808298e+00 1.6998813297e+00 2.9442808298e+00 
32500 6.3926774706e+00 1.0674757614e-03 1.6998458930e+00 -2.9442194517e+00 1.6998458930e+00 2.9442194517e+00 
32600 6.3926912536e+00 9.3217975117e-04 1.6998144939e+00 -2.9441650668e+00 1.6998144939e+00 2.9441650668e+00 
32700 6.3927058361e+00 7.9892260314e-04 1.6997870739e+00 -2.9441175740e+00 1.6997870739e+00 2.9441175740e+00 
32800 6.3927211402e+00 6.6774435058e-04 1.6997635733e+00 -2.9440768698e+00 1.6997635733e+00 2.9440768698e+00 
32900 6.3927370881e+00 5.3868275431e-04 1.6997439311e+00 -2.9440428484e+00 1.6997439311e+00 2.9440428484e+00 
33000 6.3927536027e+00 4.1177337348e-04 1.6997280851e+00 -2.9440154024e+00 1.6997280851e+00 2.9440154024e+00 
33100 6.3927706077e+00 2.8704963589e-04 1.6997159722e+00 -2.9439944223e+00 1.6997159722e+00 2.9439944223e+00 
33200 6.3927880282e+00 1.6454290759e-04 1.6997075281e+00 -2.9439797967e+00 1.6997075281e+00 2.9439797967e+00 
33300 6.3928057903e+00 4.4282561462e-05 1.6997026878e+00 -2.9439714131e+00 1.6997026878e+00 2.9439714131e+00 
33400 6.3928238216e+00 -7.2048199320e-05 1.6997026878e+00 -2.9439714131e+00 1.6997026878e+00 2.9439714131e+00 
33500 6.3928420517e+00 -1.8778455818e-04 1.6997048072e+00 -2.9439750840e+00 1.6997048072e+00 2.9439750840e+00 
33600 6.3928604122e+00 -3.0119603853e-04 1.6997103313e+00 -2.9439846519e+00 1.6997103313e+00 2.9439846519e+00 
33700 6.3928788364e+00 -4.1226066591e-04 1.6997191915e+00 -2.9439999983e+00 1.6997191915e+00 2.9439999983e+00 
33800 6.3928972602e+00 -5.2095813222e-04 1.6997313188e+00 -2.9440210034e+00 1.6997313188e+00 2.9440210034e+00 
33900 6.3929156216e+00 -6.2726973699e-04 1.6997466436e+00 -2.9440475467e+00 1.6997466436e+00 2.9440475467e+00 
34000 6.3929338612e+00 -7.3117833051e-04 1.6997650955e+00 -2.9440795063e+00 1.6997650955e+00 2.9440795063e+00 
34100 6.3929519221e+00 -8.3266825927e-04 1.6997866037e+00 -2.9441167597e+00 1.6997866037e+00 2.9441167597e+00 
34200 6.3929697501e+00 -9.3172531361e-04 1.6998110971e+00 -2.9441591835e+00 1.6998110971e+00 2.9441591835e+00 
34300 6.3929872940e+00 -1.0283366777e-03 1.6998385039e+00 -2.9442066535e+00 1.6998385039e+00 2.9442066535e+00 
34400 6.3930045051e+00 -1.1224908817e-03 1.6998687521e+00 -2.9442590448e+00 1.6998687521e+00 2.9442590448e+00 
34500 6.3930213380e+00 -1.2141777570e-03 1.6999017692e+00 -2.9443162321e+00 1.6999017692e+00 2.9443162321e+00 
34600 6.3930377500e+00 -1.3033883928e-03 1.6999374825e+00 -2.9443780893e+00 1.6999374825e+00 2.9443780893e+00 
34700 6.3930537015e+00 -1.3901150966e-03 1.6999758190e+00 -2.9444444901e+00 1.6999758190e+00 2.9444444901e+00 
34800 6.3930691558e+00 -1.4743513554e-03 1.7000167055e+00 -2.9445153076e+00 1.7000167055e+00 2.9445153076e+00 
34900 6.3930840795e+00 -1.5560918015e-03 1.7000600685e+00 -2.9445904146e+00 1.7000600685e+00 2.9445904146e+00 
35000 6.3930984420e+00 -1.6353321787e-03 1.7001058345e+00 -2.9446696836e+00 1.7001058345e+00 2.9446696836e+00 
35100 6.3931122157e+00 -1.7120693123e-03 1.7001539297e+00 -2.9447529870e+00 1.7001539297e+00 2.9447529870e+00 
35200 6.3931253763e+00 -1.7863010812e-03 1.7002042804e+00 -2.9448401969e+00 1.7002042804e+00 2.9448401969e+00 
35300 6.3931379023e+00 -1.8580263918e-03 1.7002568126e+00 -2.9449311854e+00 1.7002568126e+00 2.9449311854e+00 
35400 6.3931497749e+00 -1.9272451549e-03 1.7003114525e+00 -2.9450258244e+00 1.7003114525e+00 2.9450258244e+00 
35500 6.3931609787e+00 -1.9939582646e-03 1.7003681261e+00 -2.9451239860e+00 1.7003681261e+00 2.9451239860e+00 
35600 6.3931715007e+00 -2.0581675790e-03 1.7004267596e+00 -2.9452255421e+00 1.7004267596e+00 2.9452255421e+00 
35700 6.3931813309e+00 -2.1198759035e-03 1.7004872791e+00 -2.9453303650e+00 1.7004872791e+00 2.9453303650e+00 
35800 6.3931904621e+00 -2.1790869761e-03 1.7005496109e+00 -2.9454383269e+00 1.7005496109e+00 2.9454383269e+00 
35900 6.3931988894e+00 -2.2358054540e-03 1.7006136814e+00 -2.9455493002e+00 1.7006136814e+00 2.9455493002e+00 
36000 6.3932066107e+00 -2.2900369025e-03 1.7006794171e+00 -2.9456631577e+00 1.7006794171e+00 2.9456631577e+00 
36100 6.3932136264e+00 -2.3417877856e-03 1.7007467446e+00 -2.9457797725e+00 1.7007467446e+00 2.9457797725e+00 
36200 6.3932199390e+00 -2.3910654584e-03 1.7008155909e+00 -2.9458990178e+00 1.7008155909e+00 2.9458990178e+00 
36300 6.3932255537e+00 -2.4378781599e-03 1.7008858832e+00 -2.9460207675e+00 1.7008858832e+00 2.9460207675e+00 
36400 6.3932304774e+00 -2.4822350089e-03 1.7009575486e+00 -2.9461448957e+00 1.7009575486e+00 2.9461448957e+00 
36500 6.3932347194e+00 -2.5241459998e-03 1.7010305150e+00 -2.9462712771e+00 1.7010305150e+00 2.9462712771e+00 
36600 6.3932382909e+00 -2.5636220000e-03 1.7011047101e+00 -2.9463997869e+00 1.7011047101e+00 2.9463997869e+00 
36700 6.3932412048e+00 -2.6006747485e-03 1.7011800623e+00 -2.9465303008e+00 1.7011800623e+00 2.9465303008e+00 
36800 6.3932434758e+00 -2.6353168552e-03 1.7012565003e+00 -2.9466626952e+00 1.7012565003e+00 2.9466626952e+00 
36900 6.3932451203e+00 -2.6675618014e-03 1.7013339530e+00 -2.9467968472e+00 1.7013339530e+00 2.9467968472e+00 
37000 6.3932461561e+00 -2.6974239400e-03 1.7014123497e+00 -2.9469326344e+00 1.7014123497e+00 2.9469326344e+00 
37100 6.3932466025e+00 -2.7249184977e-03 1.7014916205e+00 -2.9470699354e+00 1.7014916205e+00 2.9470699354e+00 
37200 6.3932464801e+00 -2.7500615763e-03 1.7015716955e+00 -2.9472086294e+00 1.7015716955e+00 2.9472086294e+00 
37300 6.3932458103e+00 -2.7728701553e-03 1.7016525056e+00 -2.9473485966e+00 1.7016525056e+00 2.9473485966e+00 
37400 6.3932446161e+00 -2.7933620941e-03 1.7017339821e+00 -2.9474897179e+00 1.7017339821e+00 2.9474897179e+00 
37500 6.3932429209e+00 -2.8115561350e-03 1.7018160567e+00 -2.9476318754e+00 1.7018160567e+00 2.9476318754e+00 
37600 6.3932407493e+00 -2.8274719051e-03 1.7018986620e+00 -2.9477749519e+00 1.7018986620e+00 2.9477749519e+00 
37700 6.3932381264e+00 -2.8411299195e-03 1.7019817308e+00 -2.9479188313e+00 1.7019817308e+00 2.9479188313e+00 
37800 6.3932350779e+00 -2.8525515830e-03 1.7020651968e+00 -2.9480633987e+00 1.7020651968e+00 2.9480633987e+00 
37900 6.3932316300e+00 -2.8617591924e-03 1.7021489943e+00 -2.9482085402e+00 1.7021489943e+00 2.9482085402e+00 
38000 6.3932278094e+00 -2.8687759382e-03 1.7022330581e+00 -2.9483541430e+00 1.7022330581e+00 2.9483541430e+00 
38100 6.3932236428e+00 -2.8736259052e-03 1.7023173239e+00 -2.9485000956e+00 1.7023173239e+00 2.9485000956e+00 
38200 6.3932191573e+00 -2.8763340737e-03 1.7024017280e+00 -2.9486462877e+00 1.7024017280e+00 2.9486462877e+00 
38300 6.3932143800e+00 -2.8769263188e-03 1.7024862074e+00 -2.9487926103e+00 1.7024862074e+00 2.9487926103e+00 
38400 6.3932093380e+00 -2.8754294098e-03 1.7025707000e+00 -2.9489389558e+00 1.7025707000e+00 2.9489389558e+00 
38500 6.3932040583e+00 -2.8718710086e-03 1.7026551444e+00 -2.9490852179e+00 1.7026551444e+00 2.9490852179e+00 
38600 6.3931985676e+00 -2.8662796670e-03 1.7027394802e+00 -2.9492312918e+00 1.7027394802e+00 2.9492312918e+00 
38700 6.3931928925e+00 -2.8586848233e-03 1.7028236476e+00 -2.9493770740e+00 1.7028236476e+00 2.9493770740e+00 
38800 6.3931870592e+00 -2.8491167976e-03 1.7029075878e+00 -2.9495224627e+00 1.7029075878e+00 2.9495224627e+00 
38900 6.3931810933e+00 -2.8376067868e-03 1.7029912430e+00 -2.9496673577e+00 1.7029912430e+00 2.9496673577e+00 
39000 6.3931750201e+00 -2.8241868572e-03 1.7030745561e+00 -2.9498116603e+00 1.7030745561e+00 2.9498116603e+00 
39100 6.3931688643e+00 -2.8088899373e-03 1.7031574711e+00 -2.9499552733e+00 1.7031574711e+00 2.9499552733e+00 
39200 6.3931626499e+00 -2.7917498086e-03 1.7032399331e+00 -2.9500981015e+00 1.7032399331e+00 2.9500981015e+00 
39300 6.3931564002e+00 -2.7728010951e-03 1.7033218878e+00 -2.9502400513e+00 1.7033218878e+00 2.9502400513e+00 
39400 6.3931501380e+00 -2.7520792522e-03 1.7034032824e+00 -2.9503810309e+00 1.7034032824e+00 2.9503810309e+00 
39500 6.3931438849e+00 -2.7296205539e-03 1.7034840648e+00 -2.9505209502e+00 1.7034840648e+00 2.9505209502e+00 
39600 6.3931376621e+00 -2.7054620784e-03 1.7035641842e+00 -2.9506597210e+00 1.7035641842e+00 2.9506597210e+00 
39700 6.3931314897e+00 -2.6796416929e-03 1.7036435908e+00 -2.9507972572e+00 1.7036435908e+00 2.9507972572e+00 
39800 6.3931253870e+00 -2.6521980370e-03 1.7037222358e+00 -2.9509334744e+00 1.7037222358e+00 2.9509334744e+00 
39900 6.3931193722e+00 -2.6231705045e-03 1.7038000718e+00 -2.9510682903e+00 1.7038000718e+00 2.9510682903e+00 
40000 6.3931134627e+00 -2.5925992240e-03 1.7038770524e+00 -2.9512016245e+00 1.7038770524e+00 2.9512016245e+00 
40100 6.3931076749e+00 -2.5605250382e-03 1.7039531323e+00 -2.9513333989e+00 1.7039531323e+00 2.9513333989e+00 
40200 6.3931020241e+00 -2.5269894818e-03 1.7040282677e+00 -2.9514635373e+00 1.7040282677e+00 2.9514635373e+00 
40300 6.3930965247e+00 -2.4920347583e-03 1.7041024158e+00 -2.9515919655e+00 1.7041024158e+00 2.9515919655e+00 
40400 6.3930911900e+00 -2.4557037152e-03 1.7041755350e+00 -2.9517186117e+00 1.7041755350e+00 2.9517186117e+00 
40500 6.3930860324e+00 -2.4180398180e-03 1.7042475851e+00 -2.9518434061e+00 1.7042475851e+00 2.9518434061e+00 
40600 6.3930810631e+00 -2.3790871232e-03 1.7043185272e+00 -2.9519662814e+00 1.7043185272e+00 2.9519662814e+00 
40700 6.3930762922e+00 -2.3388902499e-03 1.7043883235e+00 -2.9520871721e+00 1.7043883235e+00 2.9520871721e+00 
40800 6.3930717290e+00 -2.2974943501e-03 1.7044569377e+00 -2.9522060155e+00 1.7044569377e+00 2.9522060155e+00 
40900 6.3930673817e+00 -2.2549450779e-03 1.7045243349e+00 -2.9523227507e+00 1.7045243349e+00 2.9523227507e+00 
41000 6.3930632574e+00 -2.2112885579e-03 1.7045904812e+00 -2.9524373195e+00 1.7045904812e+00 2.9524373195e+00 
41100 6.3930593622e+00 -2.1665713521e-03 1.7046553443e+00 -2.9525496658e+00 1.7046553443e+00 2.9525496658e+00 
41200 6.3930557014e+00 -2.1208404262e-03 1.7047188934e+00 -2.9526597360e+00 1.7047188934e+00 2.9526597360e+00 
41300 6.3930522790e+00 -2.0741431145e-03 1.7047810987e+00 -2.9527674788e+00 1.7047810987e+00 2.9527674788e+00 
41400 6.3930490983e+00 -2.0265270839e-03 1.7048419322e+00 -2.9528728455e+00 1.7048419322e+00 2.9528728455e+00 
41500 6.3930461617e+00 -1.9780402979e-03 1.7049013670e+00 -2.9529757896e+00 1.7049013670e+00 2.9529757896e+00 
41600 6.3930434705e+00 -1.9287309785e-03 1.7049593778e+00 -2.9530762671e+00 1.7049593778e+00 2.9530762671e+00 
41700 6.3930410254e+00 -1.8786475680e-03 1.7050159404e+00 -2.9531742366e+00 1.7050159404e+00 2.9531742366e+00 
41800 6.3930388259e+00 -1.8278386907e-03 1.7050710325e+00 -2.9532696589e+00 1.7050710325e+00 2.9532696589e+00 
41900 6.3930368710e+00 -1.7763531127e-03 1.7051246329e+00 -2.9533624974e+00 1.7051246329e+00 2.9533624974e+00 
42000 6.3930351588e+00 -1.7242397021e-03 1.7051767218e+00 -2.9534527181e+00 1.7051767218e+00 2.9534527181e+00 
42100 6.3930336867e+00 -1.6715473886e-03 1.7052272810e+00 -2.9535402892e+00 1.7052272810e+00 2.9535402892e+00 
42200 6.3930324513e+00 -1.6183251222e-03 1.7052762937e+00 -2.9536251817e+00 1.7052762937e+00 2.9536251817e+00 
42300 6.3930314486e+00 -1.5646218324e-03 1.7053237445e+00 -2.9537073688e+00 1.7053237445e+00 2.9537073688e+00 
42400 6.3930306740e+00 -1.5104863859e-03 1.7053696193e+00 -2.9537868263e+00 1.7053696193e+00 2.9537868263e+00 
42500 6.3930301222e+00 -1.4559675453e-03 1.7054139057e+00 -2.9538635326e+00 1.7054139057e+00 2.9538635326e+00 
42600 6.3930297873e+00 -1.4011139272e-03 1.7054565925e+00 -2.9539374683e+00 1.7054565925e+00 2.9539374683e+00 
42700 6.3930296632e+00 -1.3459739600e-03 1.7054976700e+00 -2.9540086167e+00 1.7054976700e+00 2.9540086167e+00 
42800 6.3930297429e+00 -1.2905958419e-03 1.7055371301e+00 -2.9540769634e+00 1.7055371301e+00 2.9540769634e+00 
42900 6.3930300191e+00 -1.2350274992e-03 1.7055749657e+00 -2.9541424966e+00 1.7055749657e+00 2.9541424966e+00 
43000 6.3930304844e+00 -1.1793165444e-03 1.7056111714e+00 -2.9542052068e+00 1.7056111714e+00 2.9542052068e+00 
43100 6.3930311306e+00 -1.1235102349e-03 1.7056457432e+00 -2.9542650869e+00 1.7056457432e+00 2.9542650869e+00 
43200 6.3930319493e+00 -1.0676554317e-03 1.7056786783e+00 -2.9543221323e+00 1.7056786783e+00 2.9543221323e+00 
43300 6.3930329321e+00 -1.0117985585e-03 1.7057099755e+00 -2.9543763406e+00 1.7057099755e+00 2.9543763406e+00 
43400 6.3930340699e+00 -9.5598556134e-04 1.7057396348e+00 -2.9544277119e+00 1.7057396348e+00 2.9544277119e+00 
43500 6.3930353538e+00 -9.0026186899e-04 1.7057676574e+00 -2.9544762486e+00 1.7057676574e+00 2.9544762486e+00 
43600 6.3930367745e+00 -8.4467235332e-04 1.7057940463e+00 -2.9545219554e+00 1.7057940463e+00 2.9545219554e+00 
43700 6.3930383226e+00 -7.8926129090e-04 1.7058188053e+00 -2.9545648392e+00 1.7058188053e+00 2.9545648392e+00 
43800 6.3930399886e+00 -7.3407232497e-04 1.7058419397e+00 -2.9546049092e+00 1.7058419397e+00 2.9546049092e+00 
43900 6.3930417631e+00 -6.7914842835e-04 1.7058634562e+00 -2.9546421768e+00 1.7058634562e+00 2.9546421768e+00 
44000 6.3930436364e+00 -6.2453186711e-04 1.7058833625e+00 -2.9546766556e+00 1.7058833625e+00 2.9546766556e+00 
44100 6.3930455989e+00 -5.7026416517e-04 1.7059016678e+00 -2.9547083613e+00 1.7059016678e+00 2.9547083613e+00 
44200 6.3930476412e+00 -5.1638606981e-04 1.7059183822e+00 -2.9547373116e+00 1.7059183822e+00 2.9547373116e+00 
44300 6.3930497539e+00 -4.6293751830e-04 1.7059335174e+00 -2.9547635265e+00 1.7059335174e+00 2.9547635265e+00 
44400 6.3930519274e+00 -4.0995760543e-04 1.7059470859e+00 -2.9547870277e+00 1.7059470859e+00 2.9547870277e+00 
44500 6.3930541527e+00 -3.5748455231e-04 1.7059591014e+00 -2.9548078393e+00 1.7059591014e+00 2.9548078393e+00 
44600 6.3930564205e+00 -3.0555567621e-04 1.7059695789e+00 -2.9548259869e+00 1.7059695789e+00 2.9548259869e+00 
44700 6.3930587221e+00 -2.5420736170e-04 1.7059785344e+00 -2.9548414983e+00 1.7059785344e+00 2.9548414983e+00 
44800 6.3930610486e+00 -2.0347503298e-04 1.7059859849e+00 -2.9548544029e+00 1.7059859849e+00 2.9548544029e+00 
44900 6.3930633916e+00 -1.5339312748e-04 1.7059919485e+00 -2.9548647321e+00 1.7059919485e+00 2.9548647321e+00 
45000 6.3930657429e+00 -1.0399507089e-04 1.7059964442e+00 -2.9548725189e+00 1.7059964442e+00 2.9548725189e+00 
45100 6.3930680943e+00 -5.5313253433e-05 1.7059994921e+00 -2.9548777981e+00 1.7059994921e+00 2.9548777981e+00 
45200 6.3930704382e+00 -9.4183389422e-06 1.7059994921e+00 -2.9548777981e+00 1.7059994921e+00 2.9548777981e+00 
45300 6.3930727671e+00 3.7450380691e-05 1.7059994921e+00 -2.9548777981e+00 1.7059994921e+00 2.9548777981e+00 
45400 6.3930750741e+00 8.5248329321e-05 1.7059994921e+00 -2.9548777981e+00 1.7059994921e+00 2.9548777981e+00 
45500 6.3930773522e+00 1.3078786170e-04 1.7059969937e+00 -2.9548734706e+00 1.7059969937e+00 2.9548734706e+00 
45600 6.3930795950e+00 1.7546469367e-04 1.7059931605e+00 -2.9548668313e+00 1.7059931605e+00 2.9548668313e+00 
45700 6.3930817965e+00 2.1925310451e-04 1.7059880179e+00 -2.9548579241e+00 1.7059880179e+00 2.9548579241e+00 
45800 6.3930839507e+00 2.6212853212e-04 1.7059815919e+00 -2.9548467940e+00 1.7059815919e+00 2.9548467940e+00 
45900 6.3930860524e+00 3.0406758502e-04 1.7059739093e+00 -2.9548334873e+00 1.7059739093e+00 2.9548334873e+00 
46000 6.3930880965e+00 3.4504805297e-04 1.7059649974e+00 -2.9548180515e+00 1.7059649974e+00 2.9548180515e+00 
46100 6.3930900782e+00 3.8504891581e-04 1.7059548845e+00 -2.9548005353e+00 1.7059548845e+00 2.9548005353e+00 
46200 6.3930919933e+00 4.2405035105e-04 1.7059435990e+00 -2.9547809884e+00 1.7059435990e+00 2.9547809884e+00 
46300 6.3930938379e+00 4.6203373967e-04 1.7059311704e+00 -2.9547594614e+00 1.7059311704e+00 2.9547594614e+00 
46400 6.3930956084e+00 4.9898167059e-04 1.7059176285e+00 -2.9547360060e+00 1.7059176285e+00 2.9547360060e+00 
46500 6.3930973015e+00 5.3487794346e-04 1.7059030035e+00 -2.9547106748e+00 1.7059030035e+00 2.9547106748e+00 
46600 6.3930989145e+00 5.6970757009e-04 1.7058873262e+00 -2.9546835210e+00 1.7058873262e+00 2.9546835210e+00 
46700 6.3931004450e+00 6.0345677424e-04 1.7058706280e+00 -2.9546545988e+00 1.7058706280e+00 2.9546545988e+00 
46800 6.3931018907e+00 6.3611299009e-04 1.7058529404e+00 -2.9546239629e+00 1.7058529404e+00 2.9546239629e+00 
46900 6.3931032501e+00 6.6766485912e-04 1.7058342954e+00 -2.9545916689e+00 1.7058342954e+00 2.9545916689e+00 
47000 6.3931045216e+00 6.9810222559e-04 1.7058147254e+00 -2.9545577727e+00 1.7058147254e+00 2.9545577727e+00 
47100 6.3931057043e+00 7.2741613069e-04 1.7057942630e+00 -2.9545223308e+00 1.7057942630e+00 2.9545223308e+00 
47200 6.3931067973e+00 7.5559880519e-04 1.7057729411e+00 -2.9544854002e+00 1.7057729411e+00 2.9544854002e+00 
47300 6.3931078005e+00 7.8264366080e-04 1.7057507929e+00 -2.9544470383e+00 1.7057507929e+00 2.9544470383e+00 
47400 6.3931087135e+00 8.0854528020e-04 1.7057278516e+00 -2.9544073029e+00 1.7057278516e+00 2.9544073029e+00 
47500 6.3931095368e+00 8.3329940578e-04 1.7057041508e+00 -2.9543662518e+00 1.7057041508e+00 2.9543662518e+00 
47600 6.3931102708e+00 8.5690292709e-04 1.7056797240e+00 -2.9543239434e+00 1.7056797240e+00 2.9543239434e+00 
47700 6.3931109162e+00 8.7935386714e-04 1.7056546050e+00 -2.9542804359e+00 1.7056546050e+00 2.9542804359e+00 
47800 6.3931114743e+00 9.0065136743e-04 1.7056288274e+00 -2.9542357879e+00 1.7056288274e+00 2.9542357879e+00 
47900 6.3931119462e+00 9.2079567194e-04 1.7056024252e+00 -2.9541900579e+00 1.7056024252e+00 2.9541900579e+00 
48000 6.3931123335e+00 9.3978810992e-04 1.7055754320e+00 -2.9541433043e+00 1.7055754320e+00 2.9541433043e+00 
48100 6.3931126382e+00 9.5763107769e-04 1.7055478816e+00 -2.9540955856e+00 1.7055478816e+00 2.9540955856e+00 
48200 6.3931128620e+00 9.7432801945e-04 1.7055198076e+00 -2.9540469601e+00 1.7055198076e+00 2.9540469601e+00 
48300 6.3931130074e+00 9.8988340701e-04 1.7054912438e+00 -2.9539974860e+00 1.7054912438e+00 2.9539974860e+00 
48400 6.3931130765e+00 1.0043027187e-03 1.7054622234e+00 -2.9539472212e+00 1.7054622234e+00 2.9539472212e+00 
48500 6.3931130721e+00 1.0175924175e-03 1.7054327797e+00 -2.9538962234e+00 1.7054327797e+00 2.9538962234e+00 
48600 6.3931129968e+00 1.0297599279e-03 1.7054029460e+00 -2.9538445498e+00 1.7054029460e+00 2.9538445498e+00 
48700 6.3931128535e+00 1.0408136128e-03 1.7053727550e+00 -2.9537922574e+00 1.7053727550e+00 2.9537922574e+00 
48800 6.3931126452e+00 1.0507627485e-03 1.7053422393e+00 -2.9537394028e+00 1.7053422393e+00 2.9537394028e+00 
48900 6.3931123750e+00 1.0596175003e-03 1.7053114314e+00 -2.9536860420e+00 1.7053114314e+00 2.9536860420e+00 
49000 6.3931120460e+00 1.0673888968e-03 1.7052803634e+00 -2.9536322305e+00 1.7052803634e+00 2.9536322305e+00 
49100 6.3931116616e+00 1.0740888032e-03 1.7052490669e+00 -2.9535780234e+00 1.7052490669e+00 2.9535780234e+00 
49200 6.3931112251e+00 1.0797298950e-03 1.7052175734e+00 -2.9535234751e+00 1.7052175734e+00 2.9535234751e+00 
49300 6.3931107399e+00 1.0843256304e-03 1.7051859139e+00 -2.9534686392e+00 1.7051859139e+00 2.9534686392e+00 
49400 6.3931102095e+00 1.0878902231e-03 1.7051541191e+00 -2.9534135690e+00 1.7051541191e+00 2.9534135690e+00 
49500 6.3931096373e+00 1.0904386136e-03 1.7051222191e+00 -2.9533583166e+00 1.7051222191e+00 2.9533583166e+00 
49600 6.3931090269e+00 1.0919864414e-03 1.7050902438e+00 -2.9533029338e+00 1.7050902438e+00 2.9533029338e+00 
49700 6.3931083818e+00 1.0925500159e-03 1.7050582226e+00 -2.9532474713e+00 1.7050582226e+00 2.9532474713e+00 
49800 6.3931077054e+00 1.0921462874e-03 1.7050261842e+00 -2.9531919792e+00 1.7050261842e+00 2.9531919792e+00 
49900 6.3931070013e+00 1.0907928183e-03 1.7049941570e+00 -2.9531365065e+00 1.7049941570e+00 2.9531365065e+00 
50000 6.3931062728e+00 1.0885077534e-03 1.7049621689e+00 -2.9530811016e+00 1.7049621689e+00 2.9530811016e+00 
50100 6.3931055234e+00 1.0853097908e-03 1.7049302473e+00 -2.9530258116e+00 1.7049302473e+00 2.9530258116e+00 
50200 6.3931047565e+00 1.0812181522e-03 1.7048984188e+00 -2.9529706831e+00 1.7048984188e+00 2.9529706831e+00 
50300 6.3931039753e+00 1.0762525535e-03 1.7048667097e+00 -2.9529157614e+00 1.7048667097e+00 2.9529157614e+00 
50400 6.3931031831e+00 1.0704331754e-03 1.7048351457e+00 -2.9528610909e+00 1.7048351457e+00 2.9528610909e+00 
50500 6.3931023830e+00 1.0637806336e-03 1.7048037518e+00 -2.9528067150e+00 1.7048037518e+00 2.9528067150e+00 
50600 6.3931015781e+00 1.0563159498e-03 1.7047725524e+00 -2.9527526760e+00 1.7047725524e+00 2.9527526760e+00 
50700 6.3931007714e+00 1.0480605226e-03 1.7047415713e+00 -2.9526990153e+00 1.7047415713e+00 2.9526990153e+00 
50800 6.3930999657e+00 1.0390360981e-03 1.7047108318e+00 -2.9526457730e+00 1.7047108318e+00 2.9526457730e+00 
50900 6.3930991638e+00 1.0292647414e-03 1.7046803565e+00 -2.9525929881e+00 1.7046803565e+00 2.9525929881e+00 
51000 6.3930983684e+00 1.0187688077e-03 1.7046501672e+00 -2.9525406987e+00 1.7046501672e+00 2.9525406987e+00 
51100 6.3930975819e+00 1.0075709145e-03 1.7046202852e+00 -2.9524889417e+00 1.7046202852e+00 2.9524889417e+00 
51200 6.3930968069e+00 9.9569391315e-04 1.7045907312e+00 -2.9524377526e+00 1.7045907312e+00 2.9524377526e+00 
51300 6.3930960456e+00 9.8316086146e-04 1.7045615250e+00 -2.9523871660e+00 1.7045615250e+00 2.9523871660e+00 
51400 6.3930953001e+00 9.6999499632e-04 1.7045326860e+00 -2.9523372153e+00 1.7045326860e+00 2.9523372153e+00 
51500 6.3930945726e+00 9.5621970679e-04 1.7045042327e+00 -2.9522879327e+00 1.7045042327e+00 2.9522879327e+00 
51600 6.3930938649e+00 9.4185850771e-04 1.7044761830e+00 -2.9522393492e+00 1.7044761830e+00 2.9522393492e+00 
51700 6.3930931787e+00 9.2693501364e-04 1.7044485541e+00 -2.9521914946e+00 1.7044485541e+00 2.9521914946e+00 
51800 6.3930925158e+00 9.1147291327e-04 1.7044213625e+00 -2.9521443974e+00 1.7044213625e+00 2.9521443974e+00 
51900 6.3930918775e+00 8.9549594441e-04 1.7043946241e+00 -2.9520980851e+00 1.7043946241e+00 2.9520980851e+00 
52000 6.3930912653e+00 8.7902786938e-04 1.7043683540e+00 -2.9520525839e+00 1.7043683540e+00 2.9520525839e+00 
52100 6.3930906804e+00 8.6209245101e-04 1.7043425665e+00 -2.9520079187e+00 1.7043425665e+00 2.9520079187e+00 
52200 6.3930901239e+00 8.4471342911e-04 1.7043172755e+00 -2.9519641135e+00 1.7043172755e+00 2.9519641135e+00 
52300 6.3930895966e+00 8.2691449760e-04 1.7042924940e+00 -2.9519211906e+00 1.7042924940e+00 2.9519211906e+00 
52400 6.3930890995e+00 8.0871928211e-04 1.7042682343e+00 -2.9518791716e+00 1.7042682343e+00 2.9518791716e+00 
52500 6.3930886332e+00 7.9015131821e-04 1.7042445081e+00 -2.9518380765e+00 1.7042445081e+00 2.9518380765e+00 
52600 6.3930881983e+00 7.7123403029e-04 1.7042213263e+00 -2.9517979244e+00 1.7042213263e+00 2.9517979244e+00 
52700 6.3930877951e+00 7.5199071096e-04 1.7041986992e+00 -2.9517587331e+00 1.7041986992e+00 2.9517587331e+00 
52800 6.3930874241e+00 7.3244450110e-04 1.7041766363e+00 -2.9517205192e+00 1.7041766363e+00 2.9517205192e+00 
52900 6.3930870853e+00 7.1261837060e-04 1.7041551467e+00 -2.9516832980e+00 1.7041551467e+00 2.9516832980e+00 
53000 6.3930867788e+00 6.9253509964e-04 1.7041342385e+00 -2.9516470839e+00 1.7041342385e+00 2.9516470839e+00 
53100 6.3930865047e+00 6.7221726066e-04 1.7041139192e+00 -2.9516118900e+00 1.7041139192e+00 2.9516118900e+00 
53200 6.3930862627e+00 6.5168720095e-04 1.7040941959e+00 -2.9515777282e+00 1.7040941959e+00 2.9515777282e+00 
53300 6.3930860526e+00 6.3096702595e-04 1.7040750747e+00 -2.9515446093e+00 1.7040750747e+00 2.9515446093e+00 
53400 6.3930858741e+00 6.1007858306e-04 1.7040565613e+00 -2.9515125431e+00 1.7040565613e+00 2.9515125431e+00 
53500 6.3930857266e+00 5.8904344628e-04 1.7040386605e+00 -2.9514815381e+00 1.7040386605e+00 2.9514815381e+00 
53600 6.3930856097e+00 5.6788290134e-04 1.7040213768e+00 -2.9514516018e+00 1.7040213768e+00 2.9514516018e+00 
53700 6.3930855227e+00 5.4661793157e-04 1.7040047138e+00 -2.9514227407e+00 1.7040047138e+00 2.9514227407e+00 
53800 6.3930854650e+00 5.2526920439e-04 1.7039886746e+00 -2.9513949600e+00 1.7039886746e+00 2.9513949600e+00 
53900 6.3930854356e+00 5.0385705847e-04 1.7039732617e+00 -2.9513682641e+00 1.7039732617e+00 2.9513682641e+00 
54000 6.3930854339e+00 4.8240149144e-04 1.7039584770e+00 -2.9513426561e+00 1.7039584770e+00 2.9513426561e+00 
54100 6.3930854588e+00 4.6092214840e-04 1.7039443217e+00 -2.9513181384e+00 1.7039443217e+00 2.9513181384e+00 
54200 6.3930855095e+00 4.3943831087e-04 1.7039307965e+00 -2.9512947122e+00 1.7039307965e+00 2.9512947122e+00 
54300 6.3930855848e+00 4.1796888653e-04 1.7039179017e+00 -2.9512723777e+00 1.7039179017e+00 2.9512723777e+00 
54400 6.3930856838e+00 3.9653239948e-04 1.7039056368e+00 -2.9512511342e+00 1.7039056368e+00 2.9512511342e+00 
54500 6.3930858052e+00 3.7514698114e-04 1.7038940008e+00 -2.9512309802e+00 1.7038940008e+00 2.9512309802e+00 
54600 6.3930859480e+00 3.5383036180e-04 1.7038829923e+00 -2.9512119129e+00 1.7038829923e+00 2.9512119129e+00 
54700 6.3930861110e+00 3.3259986266e-04 1.7038726093e+00 -2.9511939289e+00 1.7038726093e+00 2.9511939289e+00 
54800 6.3930862929e+00 3.1147238856e-04 1.7038628492e+00 -2.9511770239e+00 1.7038628492e+00 2.9511770239e+00 
54900 6.3930864925e+00 2.9046442128e-04 1.7038537090e+00 -2.9511611926e+00 1.7038537090e+00 2.9511611926e+00 
55000 6.3930867086e+00 2.6959201333e-04 1.7038451853e+00 -2.9511464291e+00 1.7038451853e+00 2.9511464291e+00 
55100 6.3930869399e+00 2.4887078238e-04 1.7038372740e+00 -2.9511327264e+00 1.7038372740e+00 2.9511327264e+00 
55200 6.3930871852e+00 2.2831590622e-04 1.7038299707e+00 -2.9511200768e+00 1.7038299707e+00 2.9511200768e+00 
55300 6.3930874431e+00 2.0794211824e-04 1.7038232707e+00 -2.9511084719e+00 1.7038232707e+00 2.9511084719e+00 
55400 6.3930877125e+00 1.8776370342e-04 1.7038171684e+00 -2.9510979026e+00 1.7038171684e+00 2.9510979026e+00 
55500 6.3930879920e+00 1.6779449493e-04 1.7038116584e+00 -2.9510883588e+00 1.7038116584e+00 2.9510883588e+00 
55600 6.3930882803e+00 1.4804787114e-04 1.7038067343e+00 -2.9510798300e+00 1.7038067343e+00 2.9510798300e+00 
55700 6.3930885764e+00 1.2853675313e-04 1.7038023897e+00 -2.9510723049e+00 1.7038023897e+00 2.9510723049e+00 
55800 6.3930888788e+00 1.0927360276e-04 1.7037986176e+00 -2.9510657715e+00 1.7037986176e+00 2.9510657715e+00 
55900 6.3930891865e+00 9.0270421120e-05 1.7037954108e+00 -2.9510602173e+00 1.7037954108e+00 2.9510602173e+00 
56000 6.3930894983e+00 7.1538747501e-05 1.7037927617e+00 -2.9510556289e+00 1.7037927617e+00 2.9510556289e+00 
56100 6.3930898129e+00 5.3089658784e-05 1.7037906623e+00 -2.9510519926e+00 1.7037906623e+00 2.9510519926e+00 
56200 6.3930901294e+00 3.6900881436e-05 1.7037906623e+00 -2.9510519926e+00 1.7037906623e+00 2.9510519926e+00 
56300 6.3930904465e+00 2.0357779253e-05 1.7037906623e+00 -2.9510519926e+00 1.7037906623e+00 2.9510519926e+00 
56400 6.3930907631e+00 3.4765118894e-06 1.7037906623e+00 -2.9510519926e+00 1.7037906623e+00 2.9510519926e+00 
56500 6.3930910784e+00 -1.3726931770e-05 1.7037906623e+00 -2.9510519926e+00 1.7037906623e+00 2.9510519926e+00 
56600 6.3930913915e+00 -3.1236732906e-05 1.7037906623e+00 -2.9510519926e+00 1.7037906623e+00 2.9510519926e+00 
56700 6.3930917013e+00 -4.9037242204e-05 1.7037906623e+00 -2.9510519926e+00 1.7037906623e+00 2.9510519926e+00 
56800 6.3930920071e+00 -6.7112979396e-05 1.7037906623e+00 -2.9510519926e+00 1.7037906623e+00 2.9510519926e+00 
56900 6.3930923080e+00 -8.5448632969e-05 1.7037906623e+00 -2.9510519926e+00 1.7037906623e+00 2.9510519926e+00 
57000 6.3930926030e+00 -1.0086326004e-04 1.7037931699e+00 -2.9510563359e+00 1.7037931699e+00 2.9510563359e+00 
57100 6.3930928915e+00 -1.1591241943e-04 1.7037961299e+00 -2.9510614627e+00 1.7037961299e+00 2.9510614627e+00 
57200 6.3930931728e+00 -1.3058990487e-04 1.7037995315e+00 -2.9510673545e+00 1.7037995315e+00 2.9510673545e+00 
57300 6.3930934461e+00 -1.4488995672e-04 1.7038033638e+00 -2.9510739922e+00 1.7038033638e+00 2.9510739922e+00 
57400 6.3930937110e+00 -1.5880725756e-04 1.7038076158e+00 -2.9510813568e+00 1.7038076158e+00 2.9510813568e+00 
57500 6.3930939669e+00 -1.7233692748e-04 1.7038122761e+00 -2.9510894288e+00 1.7038122761e+00 2.9510894288e+00 
57600 6.3930942132e+00 -1.8547451910e-04 1.7038173335e+00 -2.9510981885e+00 1.7038173335e+00 2.9510981885e+00 
57700 6.3930944495e+00 -1.9821601236e-04 1.7038227765e+00 -2.9511076159e+00 1.7038227765e+00 2.9511076159e+00 
57800 6.3930946755e+00 -2.1055780912e-04 1.7038285933e+00 -2.9511176909e+00 1.7038285933e+00 2.9511176909e+00 
57900 6.3930948907e+00 -2.2249672742e-04 1.7038347722e+00 -2.9511283932e+00 1.7038347722e+00 2.9511283932e+00 
58000 6.3930950948e+00 -2.3402999565e-04 1.7038413015e+00 -2.9511397023e+00 1.7038413015e+00 2.9511397023e+00 
58100 6.3930952877e+00 -2.4515524641e-04 1.7038481692e+00 -2.9511515975e+00 1.7038481692e+00 2.9511515975e+00 
58200 6.3930954690e+00 -2.5587051028e-04 1.7038553634e+00 -2.9511640582e+00 1.7038553634e+00 2.9511640582e+00 
58300 6.3930956386e+00 -2.6617420926e-04 1.7038628720e+00 -2.9511770634e+00 1.7038628720e+00 2.9511770634e+00 
58400 6.3930957964e+00 -2.7606515021e-04 1.7038706829e+00 -2.9511905923e+00 1.7038706829e+00 2.9511905923e+00 
58500 6.3930959423e+00 -2.8554251796e-04 1.7038787840e+00 -2.9512046239e+00 1.7038787840e+00 2.9512046239e+00 
58600 6.3930960764e+00 -2.9460586836e-04 1.7038871632e+00 -2.9512191371e+00 1.7038871632e+00 2.9512191371e+00 
58700 6.3930961985e+00 -3.0325512116e-04 1.7038958083e+00 -2.9512341108e+00 1.7038958083e+00 2.9512341108e+00 
58800 6.3930963087e+00 -3.1149055272e-04 1.7039047072e+00 -2.9512495242e+00 1.7039047072e+00 2.9512495242e+00 
58900 6.3930964071e+00 -3.1931278863e-04 1.7039138477e+00 -2.9512653560e+00 1.7039138477e+00 2.9512653560e+00 
59000 6.3930964939e+00 -3.2672279619e-04 1.7039232177e+00 -2.9512815853e+00 1.7039232177e+00 2.9512815853e+00 
59100 6.3930965692e+00 -3.3372187675e-04 1.7039328051e+00 -2.9512981911e+00 1.7039328051e+00 2.9512981911e+00 
59200 6.3930966331e+00 -3.4031165798e-04 1.7039425978e+00 -2.9513151526e+00 1.7039425978e+00 2.9513151526e+00 
59300 6.3930966860e+00 -3.4649408604e-04 1.7039525838e+00 -2.9513324488e+00 1.7039525838e+00 2.9513324488e+00 
59400 6.3930967280e+00 -3.5227141760e-04 1.7039627512e+00 -2.9513500593e+00 1.7039627512e+00 2.9513500593e+00 
59500 6.3930967594e+00 -3.5764621190e-04 1.7039730880e+00 -2.9513679632e+00 1.7039730880e+00 2.9513679632e+00 
59600 6.3930967806e+00 -3.6262132260e-04 1.7039835825e+00 -2.9513861402e+00 1.7039835825e+00 2.9513861402e+00 
59700 6.3930967918e+00 -3.6719988963e-04 1.7039942229e+00 -2.9514045699e+00 1.7039942229e+00 2.9514045699e+00 
59800 6.3930967934e+00 -3.7138533098e-04 1.7040049976e+00 -2.9514232322e+00 1.7040049976e+00 2.9514232322e+00 
59900 6.3930967857e+00 -3.7518133442e-04 1.7040158951e+00 -2.9514421071e+00 1.7040158951e+00 2.9514421071e+00 
60000 6.3930967692e+00 -3.7859184922e-04 1.7040269038e+00 -2.9514611749e+00 1.7040269038e+00 2.9514611749e+00 
60100 6.3930967442e+00 -3.8162107770e-04 1.7040380126e+00 -2.9514804158e+00 1.7040380126e+00 2.9514804158e+00 
60200 6.3930967112e+00 -3.8427346694e-04 1.7040492101e+00 -2.9514998105e+00 1.7040492101e+00 2.9514998105e+00 
60300 6.3930966706e+00 -3.8655370028e-04 1.7040604854e+00 -2.9515193399e+00 1.7040604854e+00 2.9515193399e+00 
60400 6.3930966228e+00 -3.8846668893e-04 1.7040718276e+00 -2.9515389851e+00 1.7040718276e+00 2.9515389851e+00 
60500 6.3930965683e+00 -3.9001756352e-04 1.7040832258e+00 -2.9515587274e+00 1.7040832258e+00 2.9515587274e+00 
60600 6.3930965075e+00 -3.9121166559e-04 1.7040946694e+00 -2.9515785483e+00 1.7040946694e+00 2.9515785483e+00 
60700 6.3930964408e+00 -3.9205453918e-04 1.7041061480e+00 -2.9515984298e+00 1.7041061480e+00 2.9515984298e+00 
60800 6.3930963688e+00 -3.9255192237e-04 1.7041176513e+00 -2.9516183540e+00 1.7041176513e+00 2.9516183540e+00 
60900 6.3930962919e+00 -3.9270973878e-04 1.7041291690e+00 -2.9516383034e+00 1.7041291690e+00 2.9516383034e+00 
61000 6.3930962105e+00 -3.9253408921e-04 1.7041406913e+00 -2.9516582606e+00 1.7041406913e+00 2.9516582606e+00 
61100 6.3930961251e+00 -3.9203124319e-04 1.7041522084e+00 -2.9516782088e+00 1.7041522084e+00 2.9516782088e+00 
61200 6.3930960362e+00 -3.9120763061e-04 1.7041637107e+00 -2.9516981313e+00 1.7041637107e+00 2.9516981313e+00 
61300 6.3930959442e+00 -3.9006983336e-04 1.7041751887e+00 -2.9517180118e+00 1.7041751887e+00 2.9517180118e+00 
61400 6.3930958496e+00 -3.8862457703e-04 1.7041866332e+00 -2.9517378343e+00 1.7041866332e+00 2.9517378343e+00 
61500 6.3930957527e+00 -3.8687872266e-04 1.7041980353e+00 -2.9517575833e+00 1.7041980353e+00 2.9517575833e+00 
61600 6.3930956541e+00 -3.8483925845e-04 1.7042093860e+00 -2.9517772434e+00 1.7042093860e+00 2.9517772434e+00 
61700 6.3930955541e+00 -3.8251329168e-04 1.7042206769e+00 -2.9517967997e+00 1.7042206769e+00 2.9517967997e+00 
61800 6.3930954532e+00 -3.7990804054e-04 1.7042318994e+00 -2.9518162377e+00 1.7042318994e+00 2.9518162377e+00 
61900 6.3930953518e+00 -3.7703082610e-04 1.7042430455e+00 -2.9518355432e+00 1.7042430455e+00 2.9518355432e+00 
62000 6.3930952501e+00 -3.7388906431e-04 1.7042541070e+00 -2.9518547024e+00 1.7042541070e+00 2.9518547024e+00 
62100 6.3930951487e+00 -3.7049025813e-04 1.7042650763e+00 -2.9518737018e+00 1.7042650763e+00 2.9518737018e+00 
62200 6.3930950479e+00 -3.6684198965e-04 1.7042759458e+00 -2.9518925283e+00 1.7042759458e+00 2.9518925283e+00 
62300 6.3930949479e+00 -3.6295191235e-04 1.7042867082e+00 -2.9519111693e+00 1.7042867082e+00 2.9519111693e+00 
62400 6.3930948492e+00 -3.5882774345e-04 1.7042973565e+00 -2.9519296126e+00 1.7042973565e+00 2.9519296126e+00 
62500 6.3930947521e+00 -3.5447725629e-04 1.7043078836e+00 -2.9519478462e+00 1.7043078836e+00 2.9519478462e+00 
62600 6.3930946568e+00 -3.4990827286e-04 1.7043182831e+00 -2.9519658586e+00 1.7043182831e+00 2.9519658586e+00 
62700 6.3930945636e+00 -3.4512865640e-04 1.7043285484e+00 -2.9519836387e+00 1.7043285484e+00 2.9519836387e+00 
62800 6.3930944728e+00 -3.4014630411e-04 1.7043386735e+00 -2.9520011758e+00 1.7043386735e+00 2.9520011758e+00 
62900 6.3930943846e+00 -3.3496913993e-04 1.7043486524e+00 -2.9520184597e+00 1.7043486524e+00 2.9520184597e+00 
63000 6.3930942992e+00 -3.2960510751e-04 1.7043584793e+00 -2.9520354804e+00 1.7043584793e+00 2.9520354804e+00 
63100 6.3930942169e+00 -3.2406216318e-04 1.7043681487e+00 -2.9520522284e+00 1.7043681487e+00 2.9520522284e+00 
63200 6.3930941379e+00 -3.1834826909e-04 1.7043776556e+00 -2.9520686947e+00 1.7043776556e+00 2.9520686947e+00 
63300 6.3930940622e+00 -3.1247138652e-04 1.7043869947e+00 -2.9520848706e+00 1.7043869947e+00 2.9520848706e+00 
63400 6.3930939902e+00 -3.0643946918e-04 1.7043961614e+00 -2.9521007478e+00 1.7043961614e+00 2.9521007478e+00 
63500 6.3930939218e+00 -3.0026045677e-04 1.7044051511e+00 -2.9521163184e+00 1.7044051511e+00 2.9521163184e+00 
63600 6.3930938573e+00 -2.9394226858e-04 1.7044139595e+00 -2.9521315749e+00 1.7044139595e+00 2.9521315749e+00 
63700 6.3930937966e+00 -2.8749279720e-04 1.7044225824e+00 -2.9521465103e+00 1.7044225824e+00 2.9521465103e+00 
63800 6.3930937400e+00 -2.8091990250e-04 1.7044310162e+00 -2.9521611180e+00 1.7044310162e+00 2.9521611180e+00 
63900 6.3930936875e+00 -2.7423140553e-04 1.7044392570e+00 -2.9521753916e+00 1.7044392570e+00 2.9521753916e+00 
64000 6.3930936391e+00 -2.6743508279e-04 1.7044473017e+00 -2.9521893253e+00 1.7044473017e+00 2.9521893253e+00 
64100 6.3930935949e+00 -2.6053866041e-04 1.7044551469e+00 -2.9522029136e+00 1.7044551469e+00 2.9522029136e+00 
64200 6.3930935548e+00 -2.5354980866e-04 1.7044627898e+00 -2.9522161515e+00 1.7044627898e+00 2.9522161515e+00 
64300 6.3930935189e+00 -2.4647613651e-04 1.7044702276e+00 -2.9522290342e+00 1.7044702276e+00 2.9522290342e+00 
64400 6.3930934872e+00 -2.3932518632e-04 1.7044774579e+00 -2.9522415574e+00 1.7044774579e+00 2.9522415574e+00 
64500 6.3930934597e+00 -2.3210442871e-04 1.7044844784e+00 -2.9522537173e+00 1.7044844784e+00 2.9522537173e+00 
64600 6.3930934362e+00 -2.2482125763e-04 1.7044912870e+00 -2.9522655102e+00 1.7044912870e+00 2.9522655102e+00 
64700 6.3930934169e+00 -2.1748298543e-04 1.7044978820e+00 -2.9522769330e+00 1.7044978820e+00 2.9522769330e+00 
64800 6.3930934015e+00 -2.1009683828e-04 1.7045042617e+00 -2.9522879829e+00 1.7045042617e+00 2.9522879829e+00 
64900 6.3930933901e+00 -2.0266995152e-04 1.7045104247e+00 -2.9522986576e+00 1.7045104247e+00 2.9522986576e+00 
65000 6.3930933825e+00 -1.9520936540e-04 1.7045163698e+00 -2.9523089548e+00 1.7045163698e+00 2.9523089548e+00 
65100 6.3930933787e+00 -1.8772202077e-04 1.7045220960e+00 -2.9523188729e+00 1.7045220960e+00 2.9523188729e+00 
65200 6.3930933785e+00 -1.8021475504e-04 1.7045276026e+00 -2.9523284106e+00 1.7045276026e+00 2.9523284106e+00 
65300 6.3930933819e+00 -1.7269429827e-04 1.7045328890e+00 -2.9523375669e+00 1.7045328890e+00 2.9523375669e+00 
65400 6.3930933886e+00 -1.6516726942e-04 1.7045379547e+00 -2.9523463410e+00 1.7045379547e+00 2.9523463410e+00 
65500 6.3930933987e+00 -1.5764017273e-04 1.7045427996e+00 -2.9523547327e+00 1.7045427996e+00 2.9523547327e+00 
65600 6.3930934119e+00 -1.5011939431e-04 1.7045474238e+00 -2.9523627419e+00 1.7045474238e+00 2.9523627419e+00 
65700 6.3930934281e+00 -1.4261119883e-04 1.7045518273e+00 -2.9523703690e+00 1.7045518273e+00 2.9523703690e+00 
65800 6.3930934472e+00 -1.3512172643e-04 1.7045560105e+00 -2.9523776146e+00 1.7045560105e+00 2.9523776146e+00 
65900 6.3930934690e+00 -1.2765698973e-04 1.7045599741e+00 -2.9523844796e+00 1.7045599741e+00 2.9523844796e+00 
66000 6.3930934933e+00 -1.2022287102e-04 1.7045637186e+00 -2.9523909654e+00 1.7045637186e+00 2.9523909654e+00 
66100 6.3930935201e+00 -1.1282511966e-04 1.7045672451e+00 -2.9523970735e+00 1.7045672451e+00 2.9523970735e+00 
66200 6.3930935491e+00 -1.0546934955e-04 1.7045705546e+00 -2.9524028057e+00 1.7045705546e+00 2.9524028057e+00 
66300 6.3930935801e+00 -9.8161036791e-05 1.7045736484e+00 -2.9524081642e+00 1.7045736484e+00 2.9524081642e+00 
66400 6.3930936131e+00 -9.0905517555e-05 1.7045765277e+00 -2.9524131514e+00 1.7045765277e+00 2.9524131514e+00 
66500 6.3930936478e+00 -8.3707986033e-05 1.7045791942e+00 -2.9524177699e+00 1.7045791942e+00 2.9524177699e+00 
66600 6.3930936841e+00 -7.6573492584e-05 1.7045816496e+00 -2.9524220228e+00 1.7045816496e+00 2.9524220228e+00 
66700 6.3930937219e+00 -6.9506942035e-05 1.7045838957e+00 -2.9524259131e+00 1.7045838957e+00 2.9524259131e+00 
66800 6.3930937610e+00 -6.5083684909e-05 1.7045838957e+00 -2.9524259131e+00 1.7045838957e+00 2.9524259131e+00 
66900 6.3930938011e+00 -6.0498767730e-05 1.7045838957e+00 -2.9524259131e+00 1.7045838957e+00 2.9524259131e+00 
67000 6.3930938422e+00 -5.5758014429e-05 1.7045838957e+00 -2.9524259131e+00 1.7045838957e+00 2.9524259131e+00 
67100 6.3930938839e+00 -5.0867195071e-05 1.7045838957e+00 -2.9524259131e+00 1.7045838957e+00 2.9524259131e+00 
67200 6.3930939263e+00 -4.5832026400e-05 1.7045838957e+00 -2.9524259131e+00 1.7045838957e+00 2.9524259131e+00 
67300 6.3930939691e+00 -4.0658172325e-05 1.7045838957e+00 -2.9524259131e+00 1.7045838957e+00 2.9524259131e+00 
67400 6.3930940121e+00 -3.5351244312e-05 1.7045838957e+00 -2.9524259131e+00 1.7045838957e+00 2.9524259131e+00 
67500 6.3930940553e+00 -2.9916801740e-05 1.7045838957e+00 -2.9524259131e+00 1.7045838957e+00 2.9524259131e+00 
67600 6.3930940986e+00 -2.4360352189e-05 1.7045838957e+00 -2.9524259131e+00 1.7045838957e+00 2.9524259131e+00 
67700 6.3930941417e+00 -1.8687351657e-05 1.7045838957e+00 -2.9524259131e+00 1.7045838957e+00 2.9524259131e+00 
67800 6.3930941845e+00 -1.2903204716e-05 1.7045838957e+00 -2.9524259131e+00 1.7045838957e+00 2.9524259131e+00 
67900 6.3930942270e+00 -7.0132646087e-06 1.7045838957e+00 -2.9524259131e+00 1.7045838957e+00 2.9524259131e+00 
68000 6.3930942691e+00 -1.0228332955e-06 1.7045838957e+00 -2.9524259131e+00 1.7045838957e+00 2.9524259131e+00 
68100 6.3930943105e+00 5.0628385696e-06 1.7045838957e+00 -2.9524259131e+00 1.7045838957e+00 2.9524259131e+00 
68200 6.3930943513e+00 1.1238551724e-05 1.7045838957e+00 -2.9524259131e+00 1.7045838957e+00 2.9524259131e+00 
68300 6.3930943913e+00 1.7499158411e-05 1.7045838957e+00 -2.9524259131e+00 1.7045838957e+00 2.9524259131e+00 
68400 6.3930944304e+00 2.3839562580e-05 1.7045838957e+00 -2.9524259131e+00 1.7045838957e+00 2.9524259131e+00 
68500 6.3930944685e+00 3.0254720121e-05 1.7045838957e+00 -2.9524259131e+00 1.7045838957e+00 2.9524259131e+00 
68600 6.3930945056e+00 3.6739639145e-05 1.7045838957e+00 -2.9524259131e+00 1.7045838957e+00 2.9524259131e+00 
68700 6.3930945416e+00 4.3289380334e-05 1.7045838957e+00 -2.9524259131e+00 1.7045838957e+00 2.9524259131e+00 
68800 6.3930945765e+00 4.9899057311e-05 1.7045838957e+00 -2.9524259131e+00 1.7045838957e+00 2.9524259131e+00 
68900 6.3930946100e+00 5.6563837075e-05 1.7045838957e+00 -2.9524259131e+00 1.7045838957e+00 2.9524259131e+00 
69000 6.3930946424e+00 6.3278940465e-05 1.7045838957e+00 -2.9524259131e+00 1.7045838957e+00 2.9524259131e+00 
69100 6.3930946733e+00 7.0039642671e-05 1.7045838957e+00 -2.9524259131e+00 1.7045838957e+00 2.9524259131e+00 
69200 6.3930947029e+00 7.6841273782e-05 1.7045838957e+00 -2.9524259131e+00 1.7045838957e+00 2.9524259131e+00 
69300 6.3930947309e+00 8.0837139720e-05 1.7045816417e+00 -2.9524220092e+00 1.7045816417e+00 2.9524220092e+00 
69400 6.3930947573e+00 8.4695174845e-05 1.7045792706e+00 -2.9524179022e+00 1.7045792706e+00 2.9524179022e+00 
69500 6.3930947823e+00 8.8414303607e-05 1.7045767862e+00 -2.9524135992e+00 1.7045767862e+00 2.9524135992e+00 
69600 6.3930948056e+00 9.1993603902e-05 1.7045741928e+00 -2.9524091072e+00 1.7045741928e+00 2.9524091072e+00 
69700 6.3930948275e+00 9.5432304438e-05 1.7045714944e+00 -2.9524044334e+00 1.7045714944e+00 2.9524044334e+00 
69800 6.3930948477e+00 9.8729782031e-05 1.7045686951e+00 -2.9523995848e+00 1.7045686951e+00 2.9523995848e+00 
69900 6.3930948664e+00 1.0188555886e-04 1.7045657990e+00 -2.9523945688e+00 1.7045657990e+00 2.9523945688e+00 
70000 6.3930948835e+00 1.0489929965e-04 1.7045628104e+00 -2.9523893923e+00 1.7045628104e+00 2.9523893923e+00 
70100 6.3930948990e+00 1.0777080884e-04 1.7045597334e+00 -2.9523840628e+00 1.7045597334e+00 2.9523840628e+00 
70200 6.3930949130e+00 1.1050002764e-04 1.7045565722e+00 -2.9523785874e+00 1.7045565722e+00 2.9523785874e+00 
70300 6.3930949254e+00 1.1308703109e-04 1.7045533308e+00 -2.9523729732e+00 1.7045533308e+00 2.9523729732e+00 
70400 6.3930949364e+00 1.1553202506e-04 1.7045500136e+00 -2.9523672277e+00 1.7045500136e+00 2.9523672277e+00 
70500 6.3930949458e+00 1.1783534322e-04 1.7045466247e+00 -2.9523613579e+00 1.7045466247e+00 2.9523613579e+00 
70600 6.3930949538e+00 1.1999744395e-04 1.7045431682e+00 -2.9523553710e+00 1.7045431682e+00 2.9523553710e+00 
70700 6.3930949604e+00 1.2201890724e-04 1.7045396483e+00 -2.9523492743e+00 1.7045396483e+00 2.9523492743e+00 
70800 6.3930949655e+00 1.2390043151e-04 1.7045360691e+00 -2.9523430749e+00 1.7045360691e+00 2.9523430749e+00 
70900 6.3930949694e+00 1.2564283047e-04 1.7045324346e+00 -2.9523367799e+00 1.7045324346e+00 2.9523367799e+00 
71000 6.3930949719e+00 1.2724702990e-04 1.7045287491e+00 -2.9523303964e+00 1.7045287491e+00 2.9523303964e+00 
71100 6.3930949731e+00 1.2871406443e-04 1.7045250165e+00 -2.9523239313e+00 1.7045250165e+00 2.9523239313e+00 
71200 6.3930949732e+00 1.3004507428e-04 1.7045212408e+00 -2.9523173916e+00 1.7045212408e+00 2.9523173916e+00 
71300 6.3930949721e+00 1.3124130200e-04 1.7045174261e+00 -2.9523107844e+00 1.7045174261e+00 2.9523107844e+00 
71400 6.3930949698e+00 1.3230408917e-04 1.7045135763e+00 -2.9523041163e+00 1.7045135763e+00 2.9523041163e+00 
71500 6.3930949666e+00 1.3323487314e-04 1.7045096953e+00 -2.9522973942e+00 1.7045096953e+00 2.9522973942e+00 
71600 6.3930949623e+00 1.3403518369e-04 1.7045057870e+00 -2.9522906249e+00 1.7045057870e+00 2.9522906249e+00 
71700 6.3930949571e+00 1.3470663971e-04 1.7045018552e+00 -2.9522838148e+00 1.7045018552e+00 2.9522838148e+00 
71800 6.3930949510e+00 1.3525094590e-04 1.7044979037e+00 -2.9522769706e+00 1.7044979037e+00 2.9522769706e+00 
71900 6.3930949441e+00 1.3566988946e-04 1.7044939362e+00 -2.9522700988e+00 1.7044939362e+00 2.9522700988e+00 
72000 6.3930949364e+00 1.3596533674e-04 1.7044899565e+00 -2.9522632056e+00 1.7044899565e+00 2.9522632056e+00 
72100 6.3930949280e+00 1.3613922992e-04 1.7044859680e+00 -2.9522562974e+00 1.7044859680e+00 2.9522562974e+00 
72200 6.3930949190e+00 1.3619358374e-04 1.7044819745e+00 -2.9522493804e+00 1.7044819745e+00 2.9522493804e+00 
72300 6.3930949094e+00 1.3613048214e-04 1.7044779793e+00 -2.9522424605e+00 1.7044779793e+00 2.9522424605e+00 
72400 6.3930948992e+00 1.3595207501e-04 1.7044739860e+00 -2.9522355439e+00 1.7044739860e+00 2.9522355439e+00 
72500 6.3930948887e+00 1.3566057489e-04 1.7044699979e+00 -2.9522286363e+00 1.7044699979e+00 2.9522286363e+00 
72600 6.3930948777e+00 1.3525825372e-04 1.7044660183e+00 -2.9522217436e+00 1.7044660183e+00 2.9522217436e+00 
72700 6.3930948663e+00 1.3474743955e-04 1.7044620506e+00 -2.9522148712e+00 1.7044620506e+00 2.9522148712e+00 
72800 6.3930948547e+00 1.3413051340e-04 1.7044580978e+00 -2.9522080248e+00 1.7044580978e+00 2.9522080248e+00 
72900 6.3930948428e+00 1.3340990596e-04 1.7044541631e+00 -2.9522012097e+00 1.7044541631e+00 2.9522012097e+00 
73000 6.3930948308e+00 1.3258809446e-04 1.7044502495e+00 -2.9521944312e+00 1.7044502495e+00 2.9521944312e+00 
73100 6.3930948186e+00 1.3166759952e-04 1.7044463601e+00 -2.9521876944e+00 1.7044463601e+00 2.9521876944e+00 
73200 6.3930948064e+00 1.3065098203e-04 1.7044424976e+00 -2.9521810044e+00 1.7044424976e+00 2.9521810044e+00 
73300 6.3930947941e+00 1.2954084003e-04 1.7044386649e+00 -2.9521743661e+00 1.7044386649e+00 2.9521743661e+00 
73400 6.3930947819e+00 1.2833980568e-04 1.7044348648e+00 -2.9521677841e+00 1.7044348648e+00 2.9521677841e+00 
73500 6.3930947698e+00 1.2705054220e-04 1.7044311000e+00 -2.9521612631e+00 1.7044311000e+00 2.9521612631e+00 
73600 6.3930947577e+00 1.2567574091e-04 1.7044273729e+00 -2.9521548077e+00 1.7044273729e+00 2.9521548077e+00 
73700 6.3930947458e+00 1.2421811829e-04 1.7044236862e+00 -2.9521484221e+00 1.7044236862e+00 2.9521484221e+00 
73800 6.3930947342e+00 1.2268041303e-04 1.7044200422e+00 -2.9521421105e+00 1.7044200422e+00 2.9521421105e+00 
73900 6.3930947227e+00 1.2106538320e-04 1.7044164433e+00 -2.9521358770e+00 1.7044164433e+00 2.9521358770e+00 
74000 6.3930947116e+00 1.1937580340e-04 1.7044128918e+00 -2.9521297256e+00 1.7044128918e+00 2.9521297256e+00 
74100 6.3930947007e+00 1.1761446197e-04 1.7044093898e+00 -2.9521236600e+00 1.7044093898e+00 2.9521236600e+00 
74200 6.3930946902e+00 1.1578415829e-04 1.7044059395e+00 -2.9521176839e+00 1.7044059395e+00 2.9521176839e+00 
74300 6.3930946800e+00 1.1388770007e-04 1.7044025429e+00 -2.9521118008e+00 1.7044025429e+00 2.9521118008e+00 
74400 6.3930946703e+00 1.1192790070e-04 1.7043992019e+00 -2.9521060141e+00 1.7043992019e+00 2.9521060141e+00 
74500 6.3930946609e+00 1.0990757669e-04 1.7043959184e+00 -2.9521003269e+00 1.7043959184e+00 2.9521003269e+00 
74600 6.3930946520e+00 1.0782954509e-04 1.7043926942e+00 -2.9520947423e+00 1.7043926942e+00 2.9520947423e+00 
74700 6.3930946436e+00 1.0569662105e-04 1.7043895309e+00 -2.9520892634e+00 1.7043895309e+00 2.9520892634e+00 
74800 6.3930946356e+00 1.0351161536e-04 1.7043864302e+00 -2.9520838928e+00 1.7043864302e+00 2.9520838928e+00 
74900 6.3930946282e+00 1.0127733205e-04 1.7043833935e+00 -2.9520786332e+00 1.7043833935e+00 2.9520786332e+00 
75000 6.3930946212e+00 9.8996566109e-05 1.7043804225e+00 -2.9520734871e+00 1.7043804225e+00 2.9520734871e+00 
75100 6.3930946148e+00 9.6672101192e-05 1.7043775183e+00 -2.9520684569e+00 1.7043775183e+00 2.9520684569e+00 
75200 6.3930946088e+00 9.4306707406e-05 1.7043746823e+00 -2.9520635449e+00 1.7043746823e+00 2.9520635449e+00 
75300 6.3930946035e+00 9.1903139153e-05 1.7043719157e+00 -2.9520587530e+00 1.7043719157e+00 2.9520587530e+00 
75400 6.3930945986e+00 8.9464133042e-05 1.7043692196e+00 -2.9520540832e+00 1.7043692196e+00 2.9520540832e+00 
75500 6.3930945943e+00 8.6992405838e-05 1.7043665950e+00 -2.9520495373e+00 1.7043665950e+00 2.9520495373e+00 
75600 6.3930945905e+00 8.4490652482e-05 1.7043640430e+00 -2.9520451170e+00 1.7043640430e+00 2.9520451170e+00 
75700 6.3930945873e+00 8.1961544183e-05 1.7043615643e+00 -2.9520408239e+00 1.7043615643e+00 2.9520408239e+00 
75800 6.3930945846e+00 7.9407726531e-05 1.7043591599e+00 -2.9520366592e+00 1.7043591599e+00 2.9520366592e+00 
75900 6.3930945824e+00 7.6831817716e-05 1.7043568303e+00 -2.9520326243e+00 1.7043568303e+00 2.9520326243e+00 
76000 6.3930945808e+00 7.4236406769e-05 1.7043545763e+00 -2.9520287203e+00 1.7043545763e+00 2.9520287203e+00 
76100 6.3930945796e+00 7.1624051894e-05 1.7043523985e+00 -2.9520249482e+00 1.7043523985e+00 2.9520249482e+00 
76200 6.3930945790e+00 6.8997278830e-05 1.7043502973e+00 -2.9520213088e+00 1.7043502973e+00 2.9520213088e+00 
76300 6.3930945790e+00 6.8911815237e-05 1.7043502973e+00 -2.9520213088e+00 1.7043502973e+00 2.9520213088e+00 
76400 6.3930945795e+00 6.8738799987e-05 1.7043502973e+00 -2.9520213088e+00 1.7043502973e+00 2.9520213088e+00 
76500 6.3930945804e+00 6.8480034134e-05 1.7043502973e+00 -2.9520213088e+00 1.7043502973e+00 2.9520213088e+00 
76600 6.3930945818e+00 6.8137308340e-05 1.7043502973e+00 -2.9520213088e+00 1.7043502973e+00 2.9520213088e+00 
76700 6.3930945836e+00 6.7712403467e-05 1.7043502973e+00 -2.9520213088e+00 1.7043502973e+00 2.9520213088e+00 
76800 6.3930945858e+00 6.7207091162e-05 1.7043502973e+00 -2.9520213088e+00 1.7043502973e+00 2.9520213088e+00 
76900 6.3930945884e+00 6.6623134397e-05 1.7043502973e+00 -2.9520213088e+00 1.7043502973e+00 2.9520213088e+00 
77000 6.3930945913e+00 6.5962287988e-05 1.7043502973e+00 -2.9520213088e+00 1.7043502973e+00 2.9520213088e+00 
77100 6.3930945946e+00 6.5226299093e-05 1.7043502973e+00 -2.9520213088e+00 1.7043502973e+00 2.9520213088e+00 
77200 6.3930945982e+00 6.4416907672e-05 1.7043502973e+00 -2.9520213088e+00 1.7043502973e+00 2.9520213088e+00 
77300 6.3930946021e+00 6.3535846922e-05 1.7043502973e+00 -2.9520213088e+00 1.7043502973e+00 2.9520213088e+00 
77400 6.3930946063e+00 6.2584843679e-05 1.7043502973e+00 -2.9520213088e+00 1.7043502973e+00 2.9520213088e+00 
77500 6.3930946108e+00 6.1565618789e-05 1.7043502973e+00 -2.9520213088e+00 1.7043502973e+00 2.9520213088e+00 
77600 6.3930946155e+00 6.0479887450e-05 1.7043502973e+00 -2.9520213088e+00 1.7043502973e+00 2.9520213088e+00 
77700 6.3930946205e+00 5.9329359516e-05 1.7043502973e+00 -2.9520213088e+00 1.7043502973e+00 2.9520213088e+00 
77800 6.3930946256e+00 5.8115739781e-05 1.7043502973e+00 -2.9520213088e+00 1.7043502973e+00 2.9520213088e+00 
77900 6.3930946309e+00 5.6840728215e-05 1.7043502973e+00 -2.9520213088e+00 1.7043502973e+00 2.9520213088e+00 
78000 6.3930946364e+00 5.5506020175e-05 1.7043502973e+00 -2.9520213088e+00 1.7043502973e+00 2.9520213088e+00 
78100 6.3930946420e+00 5.4113306580e-05 1.7043502973e+00 -2.9520213088e+00 1.7043502973e+00 2.9520213088e+00 
78200 6.3930946478e+00 5.2664274068e-05 1.7043502973e+00 -2.9520213088e+00 1.7043502973e+00 2.9520213088e+00 
78300 6.3930946536e+00 5.1160605094e-05 1.7043502973e+00 -2.9520213088e+00 1.7043502973e+00 2.9520213088e+00 
78400 6.3930946596e+00 4.9603978010e-05 1.7043502973e+00 -2.9520213088e+00 1.7043502973e+00 2.9520213088e+00 
78500 6.3930946656e+00 4.7996067122e-05 1.7043502973e+00 -2.9520213088e+00 1.7043502973e+00 2.9520213088e+00 
78600 6.3930946716e+00 4.6338542695e-05 1.7043502973e+00 -2.9520213088e+00 1.7043502973e+00 2.9520213088e+00 
78700 6.3930946776e+00 4.4633070938e-05 1.7043502973e+00 -2.9520213088e+00 1.7043502973e+00 2.9520213088e+00 
78800 6.3930946837e+00 4.2881313958e-05 1.7043502973e+00 -2.9520213088e+00 1.7043502973e+00 2.9520213088e+00 
78900 6.3930946898e+00 4.1084929680e-05 1.7043502973e+00 -2.9520213088e+00 1.7043502973e+00 2.9520213088e+00 
79000 6.3930946958e+00 3.9245571738e-05 1.7043502973e+00 -2.9520213088e+00 1.7043502973e+00 2.9520213088e+00 
79100 6.3930947018e+00 3.7364889331e-05 1.7043502973e+00 -2.9520213088e+00 1.7043502973e+00 2.9520213088e+00 
79200 6.3930947077e+00 3.5444527064e-05 1.7043502973e+00 -2.9520213088e+00 1.7043502973e+00 2.9520213088e+00 
79300 6.3930947136e+00 3.3486124743e-05 1.7043502973e+00 -2.9520213088e+00 1.7043502973e+00 2.9520213088e+00 
79400 6.3930947194e+00 3.1491317159e-05 1.7043502973e+00 -2.9520213088e+00 1.7043502973e+00 2.9520213088e+00 
79500 6.3930947251e+00 2.9461733832e-05 1.7043502973e+00 -2.9520213088e+00 1.7043502973e+00 2.9520213088e+00 
79600 6.3930947306e+00 2.7398998736e-05 1.7043502973e+00 -2.9520213088e+00 1.7043502973e+00 2.9520213088e+00 
79700 6.3930947361e+00 2.5304730003e-05 1.7043502973e+00 -2.9520213088e+00 1.7043502973e+00 2.9520213088e+00 
79800 6.3930947414e+00 2.3180539594e-05 1.7043502973e+00 -2.9520213088e+00 1.7043502973e+00 2.9520213088e+00 
79900 6.3930947466e+00 2.1028032946e-05 1.7043502973e+00 -2.9520213088e+00 1.7043502973e+00 2.9520213088e+00 
80000 6.3930947516e+00 1.8848808610e-05 1.7043502973e+00 -2.9520213088e+00 1.7043502973e+00 2.9520213088e+00 
80100 6.3930947565e+00 1.6644457866e-05 1.7043502973e+00 -2.9520213088e+00 1.7043502973e+00 2.9520213088e+00 
80200 6.3930947612e+00 1.4416564289e-05 1.7043502973e+00 -2.9520213088e+00 1.7043502973e+00 2.9520213088e+00 
80300 6.3930947657e+00 1.2166703350e-05 1.7043502973e+00 -2.9520213088e+00 1.7043502973e+00 2.9520213088e+00 
80400 6.3930947701e+00 9.8964419427e-06 1.7043502973e+00 -2.9520213088e+00 1.7043502973e+00 2.9520213088e+00 
80500 6.3930947743e+00 7.6073379348e-06 1.7043502973e+00 -2.9520213088e+00 1.7043502973e+00 2.9520213088e+00 
80600 6.3930947782e+00 5.3009396829e-06 1.7043502973e+00 -2.9520213088e+00 1.7043502973e+00 2.9520213088e+00 
80700 6.3930947820e+00 2.9787855375e-06 1.7043502973e+00 -2.9520213088e+00 1.7043502973e+00 2.9520213088e+00 
80800 6.3930947856e+00 6.4240334369e-07 1.7043502973e+00 -2.9520213088e+00 1.7043502973e+00 2.9520213088e+00 
80900 6.3930947891e+00 -1.7066900848e-06 1.7043502973e+00 -2.9520213088e+00 1.7043502973e+00 2.9520213088e+00 
81000 6.3930947923e+00 -4.0669894981e-06 1.7043502973e+00 -2.9520213088e+00 1.7043502973e+00 2.9520213088e+00 
81100 6.3930947953e+00 -6.4370017399e-06 1.7043502973e+00 -2.9520213088e+00 1.7043502973e+00 2.9520213088e+00 
81200 6.3930947981e+00 -8.8152462967e-06 1.7043502973e+00 -2.9520213088e+00 1.7043502973e+00 2.9520213088e+00 
81300 6.3930948007e+00 -1.1200255866e-05 1.7043502973e+00 -2.9520213088e+00 1.7043502973e+00 2.9520213088e+00 
81400 6.3930948031e+00 -1.3590576905e-05 1.7043502973e+00 -2.9520213088e+00 1.7043502973e+00 2.9520213088e+00 
81500 6.3930948054e+00 -1.5984770195e-05 1.7043502973e+00 -2.9520213088e+00 1.7043502973e+00 2.9520213088e+00 
81600 6.3930948074e+00 -1.8381411423e-05 1.7043502973e+00 -2.9520213088e+00 1.7043502973e+00 2.9520213088e+00 
81700 6.3930948093e+00 -2.0779091748e-05 1.7043502973e+00 -2.9520213088e+00 1.7043502973e+00 2.9520213088e+00 
81800 6.3930948109e+00 -2.3176418371e-05 1.7043502973e+00 -2.9520213088e+00 1.7043502973e+00 2.9520213088e+00 
81900 6.3930948124e+00 -2.5572015117e-05 1.7043502973e+00 -2.9520213088e+00 1.7043502973e+00 2.9520213088e+00 
82000 6.3930948137e+00 -2.7964523007e-05 1.7043502973e+00 -2.9520213088e+00 1.7043502973e+00 2.9520213088e+00 
82100 6.3930948149e+00 -3.0352600830e-05 1.7043502973e+00 -2.9520213088e+00 1.7043502973e+00 2.9520213088e+00 
82200 6.3930948158e+00 -3.2734925706e-05 1.7043502973e+00 -2.9520213088e+00 1.7043502973e+00 2.9520213088e+00 
82300 6.3930948166e+00 -3.5110193661e-05 1.7043502973e+00 -2.9520213088e+00 1.7043502973e+00 2.9520213088e+00 
82400 6.3930948173e+00 -3.7477120181e-05 1.7043502973e+00 -2.9520213088e+00 1.7043502973e+00 2.9520213088e+00 
82500 6.3930948178e+00 -3.9834440774e-05 1.7043502973e+00 -2.9520213088e+00 1.7043502973e+00 2.9520213088e+00 
82600 6.3930948181e+00 -4.2180911500e-05 1.7043502973e+00 -2.9520213088e+00 1.7043502973e+00 2.9520213088e+00 
82700 6.3930948184e+00 -4.4515309526e-05 1.7043502973e+00 -2.9520213088e+00 1.7043502973e+00 2.9520213088e+00 
82800 6.3930948185e+00 -4.6836433657e-05 1.7043502973e+00 -2.9520213088e+00 1.7043502973e+00 2.9520213088e+00 
82900 6.3930948184e+00 -4.9143104840e-05 1.7043502973e+00 -2.9520213088e+00 1.7043502973e+00 2.9520213088e+00 
83000 6.3930948183e+00 -5.1434166689e-05 1.7043502973e+00 -2.9520213088e+00 1.7043502973e+00 2.9520213088e+00 
83100 6.3930948180e+00 -5.3708485978e-05 1.7043502973e+00 -2.9520213088e+00 1.7043502973e+00 2.9520213088e+00 
83200 6.3930948176e+00 -5.5964953120e-05 1.7043502973e+00 -2.9520213088e+00 1.7043502973e+00 2.9520213088e+00 
83300 6.3930948172e+00 -5.8202482650e-05 1.7043502973e+00 -2.9520213088e+00 1.7043502973e+00 2.9520213088e+00 
83400 6.3930948166e+00 -6.0420013671e-05 1.7043502973e+00 -2.9520213088e+00 1.7043502973e+00 2.9520213088e+00 
83500 6.3930948160e+00 -6.2616510309e-05 1.7043502973e+00 -2.9520213088e+00 1.7043502973e+00 2.9520213088e+00 
83600 6.3930948153e+00 -6.4790962132e-05 1.7043502973e+00 -2.9520213088e+00 1.7043502973e+00 2.9520213088e+00 
83700 6.3930948145e+00 -6.6942384564e-05 1.7043502973e+00 -2.9520213088e+00 1.7043502973e+00 2.9520213088e+00 
83800 6.3930948137e+00 -6.9069819277e-05 1.7043502973e+00 -2.9520213088e+00 1.7043502973e+00 2.9520213088e+00 
83900 6.3930948128e+00 -7.1172334572e-05 1.7043502973e+00 -2.9520213088e+00 1.7043502973e+00 2.9520213088e+00 
84000 6.3930948117e+00 -7.0615480532e-05 1.7043523852e+00 -2.9520249252e+00 1.7043523852e+00 2.9520249252e+00 
84100 6.3930948107e+00 -7.2645307987e-05 1.7043523852e+00 -2.9520249252e+00 1.7043523852e+00 2.9520249252e+00 
84200 6.3930948095e+00 -7.1959054104e-05 1.7043545164e+00 -2.9520286165e+00 1.7043545164e+00 2.9520286165e+00 
84300 6.3930948082e+00 -7.1248799624e-05 1.7043566275e+00 -2.9520322730e+00 1.7043566275e+00 2.9520322730e+00 
84400 6.3930948070e+00 -7.0514367232e-05 1.7043587176e+00 -2.9520358933e+00 1.7043587176e+00 2.9520358933e+00 
84500 6.3930948059e+00 -7.2364813957e-05 1.7043587176e+00 -2.9520358933e+00 1.7043587176e+00 2.9520358933e+00 
84600 6.3930948046e+00 -7.1505263629e-05 1.7043608406e+00 -2.9520395703e+00 1.7043608406e+00 2.9520395703e+00 
84700 6.3930948033e+00 -7.0624101151e-05 1.7043629383e+00 -2.9520432037e+00 1.7043629383e+00 2.9520432037e+00 
84800 6.3930948022e+00 -7.2334521879e-05 1.7043629383e+00 -2.9520432037e+00 1.7043629383e+00 2.9520432037e+00 
84900 6.3930948008e+00 -7.1333563908e-05 1.7043650603e+00 -2.9520468792e+00 1.7043650603e+00 2.9520468792e+00 
85000 6.3930947996e+00 -7.0313861509e-05 1.7043671530e+00 -2.9520505038e+00 1.7043671530e+00 2.9520505038e+00 
85100 6.3930947985e+00 -7.1877193959e-05 1.7043671530e+00 -2.9520505038e+00 1.7043671530e+00 2.9520505038e+00 
85200 6.3930947972e+00 -7.0744032223e-05 1.7043692616e+00 -2.9520541560e+00 1.7043692616e+00 2.9520541560e+00 
85300 6.3930947960e+00 -6.9595234054e-05 1.7043713370e+00 -2.9520577507e+00 1.7043713370e+00 2.9520577507e+00 
85400 6.3930947950e+00 -7.1006038444e-05 1.7043713370e+00 -2.9520577507e+00 1.7043713370e+00 2.9520577507e+00 
85500 6.3930947938e+00 -6.9750997561e-05 1.7043734201e+00 -2.9520613586e+00 1.7043734201e+00 2.9520613586e+00 
85600 6.3930947928e+00 -7.1064421266e-05 1.7043734201e+00 -2.9520613586e+00 1.7043734201e+00 2.9520613586e+00 
85700 6.3930947917e+00 -6.9709184321e-05 1.7043755048e+00 -2.9520649695e+00 1.7043755048e+00 2.9520649695e+00 
85800 6.3930947909e+00 -7.0923953420e-05 1.7043755048e+00 -2.9520649695e+00 1.7043755048e+00 2.9520649695e+00 
85900 6.3930947899e+00 -6.9474759150e-05 1.7043775855e+00 -2.9520685733e+00 1.7043775855e+00 2.9520685733e+00 
86000 6.3930947891e+00 -7.0589964529e-05 1.7043775855e+00 -2.9520685733e+00 1.7043775855e+00 2.9520685733e+00 
86100 6.3930947884e+00 -7.1665044229e-05 1.7043775855e+00 -2.9520685733e+00 1.7043775855e+00 2.9520685733e+00 
86200 6.3930947875e+00 -7.0048525779e-05 1.7043796879e+00 -2.9520722148e+00 1.7043796879e+00 2.9520722148e+00 
86300 6.3930947869e+00 -7.1023466410e-05 1.7043796879e+00 -2.9520722148e+00 1.7043796879e+00 2.9520722148e+00 
86400 6.3930947862e+00 -6.9330370823e-05 1.7043817714e+00 -2.9520758236e+00 1.7043817714e+00 2.9520758236e+00 
86500 6.3930947857e+00 -7.0205048803e-05 1.7043817714e+00 -2.9520758236e+00 1.7043817714e+00 2.9520758236e+00 
86600 6.3930947853e+00 -7.1039504089e-05 1.7043817714e+00 -2.9520758236e+00 1.7043817714e+00 2.9520758236e+00 
86700 6.3930947847e+00 -6.9205589756e-05 1.7043838554e+00 -2.9520794332e+00 1.7043838554e+00 2.9520794332e+00 
86800 6.3930947844e+00 -6.9940355083e-05 1.7043838554e+00 -2.9520794332e+00 1.7043838554e+00 2.9520794332e+00 
86900 6.3930947842e+00 -7.0635307383e-05 1.7043838554e+00 -2.9520794332e+00 1.7043838554e+00 2.9520794332e+00 
87000 6.3930947840e+00 -7.1290814835e-05 1.7043838554e+00 -2.9520794332e+00 1.7043838554e+00 2.9520794332e+00 
87100 6.3930947837e+00 -6.9269534262e-05 1.7043859468e+00 -2.9520830556e+00 1.7043859468e+00 2.9520830556e+00 
87200 6.3930947836e+00 -6.9827105049e-05 1.7043859468e+00 -2.9520830556e+00 1.7043859468e+00 2.9520830556e+00 
87300 6.3930947836e+00 -7.0345904789e-05 1.7043859468e+00 -2.9520830556e+00 1.7043859468e+00 2.9520830556e+00 
87400 6.3930947836e+00 -7.0826387430e-05 1.7043859468e+00 -2.9520830556e+00 1.7043859468e+00 2.9520830556e+00 
87500 6.3930947836e+00 -6.8648489115e-05 1.7043880246e+00 -2.9520866544e+00 1.7043880246e+00 2.9520866544e+00 
87600 6.3930947837e+00 -6.9033673002e-05 1.7043880246e+00 -2.9520866544e+00 1.7043880246e+00 2.9520866544e+00 
87700 6.3930947839e+00 -6.9381464510e-05 1.7043880246e+00 -2.9520866544e+00 1.7043880246e+00 2.9520866544e+00 
87800 6.3930947842e+00 -6.9692396563e-05 1.7043880246e+00 -2.9520866544e+00 1.7043880246e+00 2.9520866544e+00 
87900 6.3930947845e+00 -6.9967009912e-05 1.7043880246e+00 -2.9520866544e+00 1.7043880246e+00 2.9520866544e+00 
88000 6.3930947849e+00 -7.0205852985e-05 1.7043880246e+00 -2.9520866544e+00 1.7043880246e+00 2.9520866544e+00 
88100 6.3930947853e+00 -7.0409481734e-05 1.7043880246e+00 -2.9520866544e+00 1.7043880246e+00 2.9520866544e+00 
88200 6.3930947858e+00 -7.0578459460e-05 1.7043880246e+00 -2.9520866544e+00 1.7043880246e+00 2.9520866544e+00 
88300 6.3930947863e+00 -7.0713356647e-05 1.7043880246e+00 -2.9520866544e+00 1.7043880246e+00 2.9520866544e+00 
88400 6.3930947867e+00 -6.8198416042e-05 1.7043900991e+00 -2.9520902475e+00 1.7043900991e+00 2.9520902475e+00 
88500 6.3930947873e+00 -6.8246858716e-05 1.7043900991e+00 -2.9520902475e+00 1.7043900991e+00 2.9520902475e+00 
88600 6.3930947879e+00 -6.8262480385e-05 1.7043900991e+00 -2.9520902475e+00 1.7043900991e+00 2.9520902475e+00 
88700 6.3930947885e+00 -6.8245919839e-05 1.7043900991e+00 -2.9520902475e+00 1.7043900991e+00 2.9520902475e+00 
88800 6.3930947892e+00 -6.8197820873e-05 1.7043900991e+00 -2.9520902475e+00 1.7043900991e+00 2.9520902475e+00 
88900 6.3930947900e+00 -6.8118832063e-05 1.7043900991e+00 -2.9520902475e+00 1.7043900991e+00 2.9520902475e+00 
89000 6.3930947907e+00 -6.8009606535e-05 1.7043900991e+00 -2.9520902475e+00 1.7043900991e+00 2.9520902475e+00 
89100 6.3930947915e+00 -6.7870801750e-05 1.7043900991e+00 -2.9520902475e+00 1.7043900991e+00 2.9520902475e+00 
89200 6.3930947923e+00 -6.7703079246e-05 1.7043900991e+00 -2.9520902475e+00 1.7043900991e+00 2.9520902475e+00 
89300 6.3930947931e+00 -6.7507104411e-05 1.7043900991e+00 -2.9520902475e+00 1.7043900991e+00 2.9520902475e+00 
89400 6.3930947939e+00 -6.7283546224e-05 1.7043900991e+00 -2.9520902475e+00 1.7043900991e+00 2.9520902475e+00 
89500 6.3930947948e+00 -6.7033077010e-05 1.7043900991e+00 -2.9520902475e+00 1.7043900991e+00 2.9520902475e+00 
89600 6.3930947956e+00 -6.6756372169e-05 1.7043900991e+00 -2.9520902475e+00 1.7043900991e+00 2.9520902475e+00 
89700 6.3930947965e+00 -6.6454109919e-05 1.7043900991e+00 -2.9520902475e+00 1.7043900991e+00 2.9520902475e+00 
89800 6.3930947974e+00 -6.6126971020e-05 1.7043900991e+00 -2.9520902475e+00 1.7043900991e+00 2.9520902475e+00 
89900 6.3930947983e+00 -6.5775638501e-05 1.7043900991e+00 -2.9520902475e+00 1.7043900991e+00 2.9520902475e+00 
90000 6.3930947992e+00 -6.5400797384e-05 1.7043900991e+00 -2.9520902475e+00 1.7043900991e+00 2.9520902475e+00 
90100 6.3930948000e+00 -6.5003134393e-05 1.7043900991e+00 -2.9520902475e+00 1.7043900991e+00 2.9520902475e+00 
90200 6.3930948009e+00 -6.4583337671e-05 1.7043900991e+00 -2.9520902475e+00 1.7043900991e+00 2.9520902475e+00 
90300 6.3930948018e+00 -6.4142096482e-05 1.7043900991e+00 -2.9520902475e+00 1.7043900991e+00 2.9520902475e+00 
90400 6.3930948027e+00 -6.3680100926e-05 1.7043900991e+00 -2.9520902475e+00 1.7043900991e+00 2.9520902475e+00 
90500 6.3930948036e+00 -6.3198041631e-05 1.7043900991e+00 -2.9520902475e+00 1.7043900991e+00 2.9520902475e+00 
90600 6.3930948044e+00 -6.2696609457e-05 1.7043900991e+00 -2.9520902475e+00 1.7043900991e+00 2.9520902475e+00 
90700 6.3930948053e+00 -6.2176495195e-05 1.7043900991e+00 -2.9520902475e+00 1.7043900991e+00 2.9520902475e+00 
90800 6.3930948061e+00 -6.1638389250e-05 1.7043900991e+00 -2.9520902475e+00 1.7043900991e+00 2.9520902475e+00 
90900 6.3930948069e+00 -6.1082981344e-05 1.7043900991e+00 -2.9520902475e+00 1.7043900991e+00 2.9520902475e+00 
91000 6.3930948077e+00 -6.0510960203e-05 1.7043900991e+00 -2.9520902475e+00 1.7043900991e+00 2.9520902475e+00 
91100 6.3930948085e+00 -5.9923013245e-05 1.7043900991e+00 -2.9520902475e+00 1.7043900991e+00 2.9520902475e+00 
91200 6.3930948093e+00 -5.9319826266e-05 1.7043900991e+00 -2.9520902475e+00 1.7043900991e+00 2.9520902475e+00 
91300 6.3930948101e+00 -5.8702083138e-05 1.7043900991e+00 -2.9520902475e+00 1.7043900991e+00 2.9520902475e+00 
91400 6.3930948108e+00 -5.8070465484e-05 1.7043900991e+00 -2.9520902475e+00 1.7043900991e+00 2.9520902475e+00 
91500 6.3930948115e+00 -5.7425652371e-05 1.7043900991e+00 -2.9520902475e+00 1.7043900991e+00 2.9520902475e+00 
91600 6.3930948122e+00 -5.6768319995e-05 1.7043900991e+00 -2.9520902475e+00 1.7043900991e+00 2.9520902475e+00 
91700 6.3930948129e+00 -5.6099141376e-05 1.7043900991e+00 -2.9520902475e+00 1.7043900991e+00 2.9520902475e+00 
91800 6.3930948135e+00 -5.5418786043e-05 1.7043900991e+00 -2.9520902475e+00 1.7043900991e+00 2.9520902475e+00 
91900 6.3930948142e+00 -5.4727919720e-05 1.7043900991e+00 -2.9520902475e+00 1.7043900991e+00 2.9520902475e+00 
92000 6.3930948148e+00 -5.4027204025e-05 1.7043900991e+00 -2.9520902475e+00 1.7043900991e+00 2.9520902475e+00 
92100 6.3930948153e+00 -5.3317296161e-05 1.7043900991e+00 -2.9520902475e+00 1.7043900991e+00 2.9520902475e+00 
92200 6.3930948159e+00 -5.2598848619e-05 1.7043900991e+00 -2.9520902475e+00 1.7043900991e+00 2.9520902475e+00 
92300 6.3930948164e+00 -5.1872508867e-05 1.7043900991e+00 -2.9520902475e+00 1.7043900991e+00 2.9520902475e+00 
92400 6.3930948169e+00 -5.1138919056e-05 1.7043900991e+00 -2.9520902475e+00 1.7043900991e+00 2.9520902475e+00 
92500 6.3930948174e+00 -5.0398715732e-05 1.7043900991e+00 -2.9520902475e+00 1.7043900991e+00 2.9520902475e+00 
92600 6.3930948179e+00 -4.9652529536e-05 1.7043900991e+00 -2.9520902475e+00 1.7043900991e+00 2.9520902475e+00 
92700 6.3930948183e+00 -4.8900984922e-05 1.7043900991e+00 -2.9520902475e+00 1.7043900991e+00 2.9520902475e+00 
92800 6.3930948187e+00 -4.8144699868e-05 1.7043900991e+00 -2.9520902475e+00 1.7043900991e+00 2.9520902475e+00 
92900 6.3930948191e+00 -4.7384285609e-05 1.7043900991e+00 -2.9520902475e+00 1.7043900991e+00 2.9520902475e+00 
93000 6.3930948194e+00 -4.6620346346e-05 1.7043900991e+00 -2.9520902475e+00 1.7043900991e+00 2.9520902475e+00 
93100 6.3930948198e+00 -4.5853478993e-05 1.7043900991e+00 -2.9520902475e+00 1.7043900991e+00 2.9520902475e+00 
93200 6.3930948201e+00 -4.5084272904e-05 1.7043900991e+00 -2.9520902475e+00 1.7043900991e+00 2.9520902475e+00 
93300 6.3930948204e+00 -4.4313309614e-05 1.7043900991e+00 -2.9520902475e+00 1.7043900991e+00 2.9520902475e+00 
93400 6.3930948206e+00 -4.3541162591e-05 1.7043900991e+00 -2.9520902475e+00 1.7043900991e+00 2.9520902475e+00 
93500 6.3930948209e+00 -4.2768396986e-05 1.7043900991e+00 -2.9520902475e+00 1.7043900991e+00 2.9520902475e+00 
93600 6.3930948211e+00 -4.1995569396e-05 1.7043900991e+00 -2.9520902475e+00 1.7043900991e+00 2.9520902475e+00 
93700 6.3930948213e+00 -4.1223227621e-05 1.7043900991e+00 -2.9520902475e+00 1.7043900991e+00 2.9520902475e+00 
93800 6.3930948215e+00 -4.0451910448e-05 1.7043900991e+00 -2.9520902475e+00 1.7043900991e+00 2.9520902475e+00 
93900 6.3930948216e+00 -3.9682147419e-05 1.7043900991e+00 -2.9520902475e+00 1.7043900991e+00 2.9520902475e+00 
94000 6.3930948218e+00 -3.8914458625e-05 1.7043900991e+00 -2.9520902475e+00 1.7043900991e+00 2.9520902475e+00 
94100 6.3930948219e+00 -3.8149354499e-05 1.7043900991e+00 -2.9520902475e+00 1.7043900991e+00 2.9520902475e+00 
94200 6.3930948220e+00 -3.7387335609e-05 1.7043900991e+00 -2.9520902475e+00 1.7043900991e+00 2.9520902475e+00 
94300 6.3930948221e+00 -3.6628892478e-05 1.7043900991e+00 -2.9520902475e+00 1.7043900991e+00 2.9520902475e+00 
94400 6.3930948222e+00 -3.5874505384e-05 1.7043900991e+00 -2.9520902475e+00 1.7043900991e+00 2.9520902475e+00 
94500 6.3930948222e+00 -3.5124644206e-05 1.7043900991e+00 -2.9520902475e+00 1.7043900991e+00 2.9520902475e+00 
94600 6.3930948223e+00 -3.4379768233e-05 1.7043900991e+00 -2.9520902475e+00 1.7043900991e+00 2.9520902475e+00 
94700 6.3930948223e+00 -3.3640326020e-05 1.7043900991e+00 -2.9520902475e+00 1.7043900991e+00 2.9520902475e+00 
94800 6.3930948224e+00 -3.2906755226e-05 1.7043900991e+00 -2.9520902475e+00 1.7043900991e+00 2.9520902475e+00 
94900 6.3930948224e+00 -3.2179482477e-05 1.7043900991e+00 -2.9520902475e+00 1.7043900991e+00 2.9520902475e+00 
95000 6.3930948224e+00 -3.1458923230e-05 1.7043900991e+00 -2.9520902475e+00 1.7043900991e+00 2.9520902475e+00 
95100 6.3930948224e+00 -3.0745481644e-05 1.7043900991e+00 -2.9520902475e+00 1.7043900991e+00 2.9520902475e+00 
95200 6.3930948224e+00 -3.0039550461e-05 1.7043900991e+00 -2.9520902475e+00 1.7043900991e+00 2.9520902475e+00 
95300 6.3930948224e+00 -2.9341510900e-05 1.7043900991e+00 -2.9520902475e+00 1.7043900991e+00 2.9520902475e+00 
95400 6.3930948223e+00 -2.8651732565e-05 1.7043900991e+00 -2.9520902475e+00 1.7043900991e+00 2.9520902475e+00 
95500 6.3930948223e+00 -2.7970573324e-05 1.7043900991e+00 -2.9520902475e+00 1.7043900991e+00 2.9520902475e+00 
95600 6.3930948223e+00 -2.7298379262e-05 1.7043900991e+00 -2.9520902475e+00 1.7043900991e+00 2.9520902475e+00 
95700 6.3930948223e+00 -2.6635484586e-05 1.7043900991e+00 -2.9520902475e+00 1.7043900991e+00 2.9520902475e+00 
95800 6.3930948222e+00 -2.5982211562e-05 1.7043900991e+00 -2.9520902475e+00 1.7043900991e+00 2.9520902475e+00 
95900 6.3930948222e+00 -2.5338870462e-05 1.7043900991e+00 -2.9520902475e+00 1.7043900991e+00 2.9520902475e+00 
96000 6.3930948221e+00 -2.4705759519e-05 1.7043900991e+00 -2.9520902475e+00 1.7043900991e+00 2.9520902475e+00 
96100 6.3930948221e+00 -2.4083164883e-05 1.7043900991e+00 -2.9520902475e+00 1.7043900991e+00 2.9520902475e+00 
96200 6.3930948220e+00 -2.3471360588e-05 1.7043900991e+00 -2.9520902475e+00 1.7043900991e+00 2.9520902475e+00 
96300 6.3930948220e+00 -2.2870608544e-05 1.7043900991e+00 -2.9520902475e+00 1.7043900991e+00 2.9520902475e+00 
96400 6.3930948219e+00 -2.2281158513e-05 1.7043900991e+00 -2.9520902475e+00 1.7043900991e+00 2.9520902475e+00 
96500 6.3930948219e+00 -2.1703248112e-05 1.7043900991e+00 -2.9520902475e+00 1.7043900991e+00 2.9520902475e+00 
96600 6.3930948219e+00 -2.1137102807e-05 1.7043900991e+00 -2.9520902475e+00 1.7043900991e+00 2.9520902475e+00 
96700 6.3930948218e+00 -2.0582935949e-05 1.7043900991e+00 -2.9520902475e+00 1.7043900991e+00 2.9520902475e+00 
96800 6.3930948218e+00 -2.0040948770e-05 1.7043900991e+00 -2.9520902475e+00 1.7043900991e+00 2.9520902475e+00 
96900 6.3930948217e+00 -1.9511330436e-05 1.7043900991e+00 -2.9520902475e+00 1.7043900991e+00 2.9520902475e+00 
97000 6.3930948217e+00 -1.8994258069e-05 1.7043900991e+00 -2.9520902475e+00 1.7043900991e+00 2.9520902475e+00 
97100 6.3930948217e+00 -1.8489896807e-05 1.7043900991e+00 -2.9520902475e+00 1.7043900991e+00 2.9520902475e+00 
97200 6.3930948217e+00 -1.7998399852e-05 1.7043900991e+00 -2.9520902475e+00 1.7043900991e+00 2.9520902475e+00 
97300 6.3930948217e+00 -1.7519908536e-05 1.7043900991e+00 -2.9520902475e+00 1.7043900991e+00 2.9520902475e+00 
97400 6.3930948216e+00 -1.7054552392e-05 1.7043900991e+00 -2.9520902475e+00 1.7043900991e+00 2.9520902475e+00 
97500 6.3930948216e+00 -1.6602449233e-05 1.7043900991e+00 -2.9520902475e+00 1.7043900991e+00 2.9520902475e+00 
97600 6.3930948216e+00 -1.6163705241e-05 1.7043900991e+00 -2.9520902475e+00 1.7043900991e+00 2.9520902475e+00 
97700 6.3930948216e+00 -1.5738415059e-05 1.7043900991e+00 -2.9520902475e+00 1.7043900991e+00 2.9520902475e+00 
97800 6.3930948216e+00 -1.5326661894e-05 1.7043900991e+00 -2.9520902475e+00 1.7043900991e+00 2.9520902475e+00 
97900 6.3930948217e+00 -1.4928517626e-05 1.7043900991e+00 -2.9520902475e+00 1.7043900991e+00 2.9520902475e+00 
98000 6.3930948217e+00 -1.4544042923e-05 1.7043900991e+00 -2.9520902475e+00 1.7043900991e+00 2.9520902475e+00 
98100 6.3930948217e+00 -1.4173287363e-05 1.7043900991e+00 -2.9520902475e+00 1.7043900991e+00 2.9520902475e+00 
98200 6.3930948217e+00 -1.3816289568e-05 1.7043900991e+00 -2.9520902475e+00 1.7043900991e+00 2.9520902475e+00 
98300 6.3930948218e+00 -1.3473077339e-05 1.7043900991e+00 -2.9520902475e+00 1.7043900991e+00 2.9520902475e+00 
98400 6.3930948218e+00 -1.3143667794e-05 1.7043900991e+00 -2.9520902475e+00 1.7043900991e+00 2.9520902475e+00 
98500 6.3930948219e+00 -1.2828067525e-05 1.7043900991e+00 -2.9520902475e+00 1.7043900991e+00 2.9520902475e+00 
98600 6.3930948219e+00 -1.2526272741e-05 1.7043900991e+00 -2.9520902475e+00 1.7043900991e+00 2.9520902475e+00 
98700 6.3930948220e+00 -1.2238269444e-05 1.7043900991e+00 -2.9520902475e+00 1.7043900991e+00 2.9520902475e+00 
98800 6.3930948221e+00 -1.1964033583e-05 1.7043900991e+00 -2.9520902475e+00 1.7043900991e+00 2.9520902475e+00 
98900 6.3930948221e+00 -1.1703531231e-05 1.7043900991e+00 -2.9520902475e+00 1.7043900991e+00 2.9520902475e+00 
99000 6.3930948222e+00 -1.1456718758e-05 1.7043900991e+00 -2.9520902475e+00 1.7043900991e+00 2.9520902475e+00 
99100 6.3930948223e+00 -1.1223543020e-05 1.7043900991e+00 -2.9520902475e+00 1.7043900991e+00 2.9520902475e+00 
99200 6.3930948224e+00 -1.1003941544e-05 1.7043900991e+00 -2.9520902475e+00 1.7043900991e+00 2.9520902475e+00 
99300 6.3930948225e+00 -1.0797842713e-05 1.7043900991e+00 -2.9520902475e+00 1.7043900991e+00 2.9520902475e+00 
99400 6.3930948226e+00 -1.0605165968e-05 1.7043900991e+00 -2.9520902475e+00 1.7043900991e+00 2.9520902475e+00 
99500 6.3930948227e+00 -1.0425822004e-05 1.7043900991e+00 -2.9520902475e+00 1.7043900991e+00 2.9520902475e+00 
99600 6.3930948228e+00 -1.0259712984e-05 1.7043900991e+00 -2.9520902475e+00 1.7043900991e+00 2.9520902475e+00 
99700 6.3930948229e+00 -1.0106732730e-05 1.7043900991e+00 -2.9520902475e+00 1.7043900991e+00 2.9520902475e+00 
99800 6.3930948230e+00 -9.9667669462e-06 1.7043900991e+00 -2.9520902475e+00 1.7043900991e+00 2.9520902475e+00 
99900 6.3930948231e+00 -9.8396934350e-06 1.7043900991e+00 -2.9520902475e+00 1.7043900991e+00 2.9520902475e+00 
100000 6.3930948233e+00 -9.7253823045e-06 1.7043900991e+00 -2.9520902475e+00 1.7043900991e+00 2.9520902475e+00 
100100 6.3930948234e+00 -9.6236962029e-06 1.7043900991e+00 -2.9520902475e+00 1.7043900991e+00 2.9520902475e+00 
100200 6.3930948235e+00 -9.5344905278e-06 1.7043900991e+00 -2.9520902475e+00 1.7043900991e+00 2.9520902475e+00 
100300 6.3930948237e+00 -9.4576136622e-06 1.7043900991e+00 -2.9520902475e+00 1.7043900991e+00 2.9520902475e+00 
100400 6.3930948238e+00 -9.3929071954e-06 1.7043900991e+00 -2.9520902475e+00 1.7043900991e+00 2.9520902475e+00 
100500 6.3930948239e+00 -9.3402061611e-06 1.7043900991e+00 -2.9520902475e+00 1.7043900991e+00 2.9520902475e+00 
100600 6.3930948241e+00 -9.2993392644e-06 1.7043900991e+00 -2.9520902475e+00 1.7043900991e+00 2.9520902475e+00 
100700 6.3930948242e+00 -9.2701291076e-06 1.7043900991e+00 -2.9520902475e+00 1.7043900991e+00 2.9520902475e+00 
100800 6.3930948244e+00 -9.2523924423e-06 1.7043900991e+00 -2.9520902475e+00 1.7043900991e+00 2.9520902475e+00 
100900 6.3930948245e+00 -9.2459403916e-06 1.7043900991e+00 -2.9520902475e+00 1.7043900991e+00 2.9520902475e+00 
101000 6.3930948246e+00 -9.2505786885e-06 1.7043900991e+00 -2.9520902475e+00 1.7043900991e+00 2.9520902475e+00 
101100 6.3930948248e+00 -9.2661079207e-06 1.7043900991e+00 -2.9520902475e+00 1.7043900991e+00 2.9520902475e+00 
101200 6.3930948249e+00 -9.2923237622e-06 1.7043900991e+00 -2.9520902475e+00 1.7043900991e+00 2.9520902475e+00 
101300 6.3930948251e+00 -9.3290172148e-06 1.7043900991e+00 -2.9520902475e+00 1.7043900991e+00 2.9520902475e+00 
101400 6.3930948252e+00 -9.3759748428e-06 1.7043900991e+00 -2.9520902475e+00 1.7043900991e+00 2.9520902475e+00 
101500 6.3930948254e+00 -9.4329790168e-06 1.7043900991e+00 -2.9520902475e+00 1.7043900991e+00 2.9520902475e+00 
101600 6.3930948255e+00 -9.4998081486e-06 1.7043900991e+00 -2.9520902475e+00 1.7043900991e+00 2.9520902475e+00 
101700 6.3930948256e+00 -9.5762369284e-06 1.7043900991e+00 -2.9520902475e+00 1.7043900991e+00 2.9520902475e+00 
101800 6.3930948258e+00 -9.6620365701e-06 1.7043900991e+00 -2.9520902475e+00 1.7043900991e+00 2.9520902475e+00 
101900 6.3930948259e+00 -9.7569750295e-06 1.7043900991e+00 -2.9520902475e+00 1.7043900991e+00 2.9520902475e+00 
102000 6.3930948261e+00 -9.8608172590e-06 1.7043900991e+00 -2.9520902475e+00 1.7043900991e+00 2.9520902475e+00 
102100 6.3930948262e+00 -9.9733254277e-06 1.7043900991e+00 -2.9520902475e+00 1.7043900991e+00 2.9520902475e+00 
102200 6.3930948263e+00 -1.0094259164e-05 1.7043900991e+00 -2.9520902475e+00 1.7043900991e+00 2.9520902475e+00 
102300 6.3930948265e+00 -1.0223375781e-05 1.7043900991e+00 -2.9520902475e+00 1.7043900991e+00 2.9520902475e+00 
102400 6.3930948266e+00 -1.0360430502e-05 1.7043900991e+00 -2.9520902475e+00 1.7043900991e+00 2.9520902475e+00 
102500 6.3930948267e+00 -1.0505176698e-05 1.7043900991e+00 -2.9520902475e+00 1.7043900991e+00 2.9520902475e+00 
102600 6.3930948268e+00 -1.0657366102e-05 1.7043900991e+00 -2.9520902475e+00 1.7043900991e+00 2.9520902475e+00 
102700 6.3930948270e+00 -1.0816749045e-05 1.7043900991e+00 -2.9520902475e+00 1.7043900991e+00 2.9520902475e+00 
102800 6.3930948271e+00 -1.0983074659e-05 1.7043900991e+00 -2.9520902475e+00 1.7043900991e+00 2.9520902475e+00 
102900 6.3930948272e+00 -1.1156091112e-05 1.7043900991e+00 -2.9520902475e+00 1.7043900991e+00 2.9520902475e+00 
103000 6.3930948273e+00 -1.1335545815e-05 1.7043900991e+00 -2.9520902475e+00 1.7043900991e+00 2.9520902475e+00 
103100 6.3930948274e+00 -1.1521185634e-05 1.7043900991e+00 -2.9520902475e+00 1.7043900991e+00 2.9520902475e+00 
103200 6.3930948276e+00 -1.1712757100e-05 1.7043900991e+00 -2.9520902475e+00 1.7043900991e+00 2.9520902475e+00 
103300 6.3930948277e+00 -1.1910006621e-05 1.7043900991e+00 -2.9520902475e+00 1.7043900991e+00 2.9520902475e+00 
103400 6.3930948278e+00 -1.2112680680e-05 1.7043900991e+00 -2.9520902475e+00 1.7043900991e+00 2.9520902475e+00 
103500 6.3930948279e+00 -1.2320526035e-05 1.7043900991e+00 -2.9520902475e+00 1.7043900991e+00 2.9520902475e+00 
103600 6.3930948280e+00 -1.2533289915e-05 1.7043900991e+00 -2.9520902475e+00 1.7043900991e+00 2.9520902475e+00 
103700 6.3930948281e+00 -1.2750720220e-05 1.7043900991e+00 -2.9520902475e+00 1.7043900991e+00 2.9520902475e+00 
103800 6.3930948281e+00 -1.2972565693e-05 1.7043900991e+00 -2.9520902475e+00 1.7043900991e+00 2.9520902475e+00 
103900 6.3930948282e+00 -1.3198576131e-05 1.7043900991e+00 -2.9520902475e+00 1.7043900991e+00 2.9520902475e+00 
104000 6.3930948283e+00 -1.3428502543e-05 1.7043900991e+00 -2.9520902475e+00 1.7043900991e+00 2.9520902475e+00 
104100 6.3930948284e+00 -1.3662097337e-05 1.7043900991e+00 -2.9520902475e+00 1.7043900991e+00 2.9520902475e+00 
104200 6.3930948285e+00 -1.3899114503e-05 1.7043900991e+00 -2.9520902475e+00 1.7043900991e+00 2.9520902475e+00 
104300 6.3930948286e+00 -1.4139309759e-05 1.7043900991e+00 -2.9520902475e+00 1.7043900991e+00 2.9520902475e+00 
104400 6.3930948286e+00 -1.4382440739e-05 1.7043900991e+00 -2.9520902475e+00 1.7043900991e+00 2.9520902475e+00 
104500 6.3930948287e+00 -1.4628267143e-05 1.7043900991e+00 -2.9520902475e+00 1.7043900991e+00 2.9520902475e+00 
104600 6.3930948288e+00 -1.4876550896e-05 1.7043900991e+00 -2.9520902475e+00 1.7043900991e+00 2.9520902475e+00 
104700 6.3930948288e+00 -1.5127056294e-05 1.7043900991e+00 -2.9520902475e+00 1.7043900991e+00 2.9520902475e+00 
104800 6.3930948289e+00 -1.5379550164e-05 1.7043900991e+00 -2.9520902475e+00 1.7043900991e+00 2.9520902475e+00 
104900 6.3930948290e+00 -1.5633801993e-05 1.7043900991e+00 -2.9520902475e+00 1.7043900991e+00 2.9520902475e+00 
105000 6.3930948290e+00 -1.5889584078e-05 1.7043900991e+00 -2.9520902475e+00 1.7043900991e+00 2.9520902475e+00 
105100 6.3930948291e+00 -1.6146671653e-05 1.7043900991e+00 -2.9520902475e+00 1.7043900991e+00 2.9520902475e+00 
105200 6.3930948291e+00 -1.6404843019e-05 1.7043900991e+00 -2.9520902475e+00 1.7043900991e+00 2.9520902475e+00 
105300 6.3930948292e+00 -1.6663879672e-05 1.7043900991e+00 -2.9520902475e+00 1.7043900991e+00 2.9520902475e+00 
105400 6.3930948292e+00 -1.6923566421e-05 1.7043900991e+00 -2.9520902475e+00 1.7043900991e+00 2.9520902475e+00 
105500 6.3930948293e+00 -1.7183691496e-05 1.7043900991e+00 -2.9520902475e+00 1.7043900991e+00 2.9520902475e+00 
105600 6.3930948293e+00 -1.7444046669e-05 1.7043900991e+00 -2.9520902475e+00 1.7043900991e+00 2.9520902475e+00 
105700 6.3930948293e+00 -1.7704427356e-05 1.7043900991e+00 -2.9520902475e+00 1.7043900991e+00 2.9520902475e+00 
105800 6.3930948294e+00 -1.7964632710e-05 1.7043900991e+00 -2.9520902475e+00 1.7043900991e+00 2.9520902475e+00 
105900 6.3930948294e+00 -1.8224465728e-05 1.7043900991e+00 -2.9520902475e+00 1.7043900991e+00 2.9520902475e+00 
106000 6.3930948295e+00 -1.8483733339e-05 1.7043900991e+00 -2.9520902475e+00 1.7043900991e+00 2.9520902475e+00 
106100 6.3930948295e+00 -1.8742246478e-05 1.7043900991e+00 -2.9520902475e+00 1.7043900991e+00 2.9520902475e+00 
106200 6.3930948295e+00 -1.8999820189e-05 1.7043900991e+00 -2.9520902475e+00 1.7043900991e+00 2.9520902475e+00 
106300 6.3930948296e+00 -1.9256273683e-05 1.7043900991e+00 -2.9520902475e+00 1.7043900991e+00 2.9520902475e+00 
106400 6.3930948296e+00 -1.9511430419e-05 1.7043900991e+00 -2.9520902475e+00 1.7043900991e+00 2.9520902475e+00 
106500 6.3930948296e+00 -1.9618167973e-05 1.7043900991e+00 -2.9520902475e+00 1.7043900991e+00 2.9520902475e+00 
106500 6.3930948296e+00 -1.9618167973e-05 1.7043900991e+00 -2.9520902475e+00 1.7043900991e+00 2.9520902475e+00 
