# step Hamiltonian StressXX CellTensor1 CellTensor2 CellTensor3 CellTensor4 
0 5.6808176491e+00 3.0213541848e-02 1.6387017056e+00 -2.8383146126e+00 1.6387017056e+00 2.8383146126e+00 
100 5.6841000176e+00 3.0751010876e-02 1.6387017056e+00 -2.8383146126e+00 1.6387017056e+00 2.8383146126e+00 
200 5.6869557512e+00 2.9974861106e-02 1.6377635216e+00 -2.8366896302e+00 1.6377635216e+00 2.8366896302e+00 
300 5.6894576411e+00 2.8946386043e-02 1.6368484912e+00 -2.8351047511e+00 1.6368484912e+00 2.8351047511e+00 
400 5.6916388520e+00 2.7697735549e-02 1.6359643600e+00 -2.8335733908e+00 1.6359643600e+00 2.8335733908e+00 
500 5.6935290923e+00 2.6258311248e-02 1.6351179067e+00 -2.8321072908e+00 1.6351179067e+00 2.8321072908e+00 
600 5.6951550208e+00 2.4654975877e-02 1.6343150239e+00 -2.8307166570e+00 1.6343150239e+00 2.8307166570e+00 
700 5.6965406047e+00 2.2912247652e-02 1.6335607912e+00 -2.8294102876e+00 1.6335607912e+00 2.8294102876e+00 
800 5.6977074358e+00 2.1052480919e-02 1.6328595437e+00 -2.8281956913e+00 1.6328595437e+00 2.8281956913e+00 
900 5.6986750094e+00 1.9096034105e-02 1.6322149354e+00 -2.8270791971e+00 1.6322149354e+00 2.8270791971e+00 
1000 5.6994609691e+00 1.7061425858e-02 1.6316299974e+00 -2.8260660546e+00 1.6316299974e+00 2.8260660546e+00 
1100 5.7000813237e+00 1.4965480171e-02 1.6311071915e+00 -2.8251605283e+00 1.6311071915e+00 2.8251605283e+00 
1200 5.7005506370e+00 1.2823461159e-02 1.6306484608e+00 -2.8243659834e+00 1.6306484608e+00 2.8243659834e+00 
1300 5.7008821951e+00 1.0649198154e-02 1.6302552754e+00 -2.8236849662e+00 1.6302552754e+00 2.8236849662e+00 
1400 5.7010881533e+00 8.4552016793e-03 1.6299286749e+00 -2.8231192776e+00 1.6299286749e+00 2.8231192776e+00 
1500 5.7011796651e+00 6.2527708860e-03 1.6296693084e+00 -2.8226700417e+00 1.6296693084e+00 2.8226700417e+00 
1600 5.7011669940e+00 4.0520929496e-03 1.6294774705e+00 -2.8223377686e+00 1.6294774705e+00 2.8223377686e+00 
1700 5.7010596132e+00 1.8623349404e-03 1.6293531349e+00 -2.8221224130e+00 1.6293531349e+00 2.8221224130e+00 
1800 5.7008662905e+00 -3.0827136411e-04 1.6292959857e+00 -2.8220234278e+00 1.6292959857e+00 2.8220234278e+00 
1900 5.7005951639e+00 -2.4523512711e-03 1.6293054459e+00 -2.8220398134e+00 1.6293054459e+00 2.8220398134e+00 
2000 5.7002538063e+00 -4.5633151362e-03 1.6293807041e+00 -2.8221701644e+00 1.6293807041e+00 2.8221701644e+00 
2100 5.6998492819e+00 -6.6352920862e-03 1.6295207383e+00 -2.8224127107e+00 1.6295207383e+00 2.8224127107e+00 
2200 5.6993881955e+00 -8.6630691078e-03 1.6297243390e+00 -2.8227653574e+00 1.6297243390e+00 2.8227653574e+00 
2300 5.6988767343e+00 -1.0642035128e-02 1.6299901295e+00 -2.8232257200e+00 1.6299901295e+00 2.8232257200e+00 
2400 5.6983207047e+00 -1.2568129732e-02 1.6303165851e+00 -2.8237911578e+00 1.6303165851e+00 2.8237911578e+00 
2500 5.6977255633e+00 -1.4437796177e-02 1.6307020509e+00 -2.8244588041e+00 1.6307020509e+00 2.8244588041e+00 
2600 5.6970964442e+00 -1.6247938392e-02 1.6311447574e+00 -2.8252255944e+00 1.6311447574e+00 2.8252255944e+00 
2700 5.6964381819e+00 -1.7995881653e-02 1.6316428360e+00 -2.8260882918e+00 1.6316428360e+00 2.8260882918e+00 
2800 5.6957553311e+00 -1.9679336654e-02 1.6321943322e+00 -2.8270435111e+00 1.6321943322e+00 2.8270435111e+00 
2900 5.6950521840e+00 -2.1296366712e-02 1.6327972183e+00 -2.8280877406e+00 1.6327972183e+00 2.8280877406e+00 
3000 5.6943327842e+00 -2.2845357844e-02 1.6334494054e+00 -2.8292173617e+00 1.6334494054e+00 2.8292173617e+00 
3100 5.6936009401e+00 -2.4324991495e-02 1.6341487532e+00 -2.8304286677e+00 1.6341487532e+00 2.8304286677e+00 
3200 5.6928602347e+00 -2.5734219691e-02 1.6348930807e+00 -2.8317178808e+00 1.6348930807e+00 2.8317178808e+00 
3300 5.6921140357e+00 -2.7072242405e-02 1.6356801745e+00 -2.8330811672e+00 1.6356801745e+00 2.8330811672e+00 
3400 5.6913655030e+00 -2.8338486968e-02 1.6365077973e+00 -2.8345146519e+00 1.6365077973e+00 2.8345146519e+00 
3500 5.6906175961e+00 -2.9532589318e-02 1.6373736956e+00 -2.8360144317e+00 1.6373736956e+00 2.8360144317e+00 
3600 5.6898730800e+00 -3.0654376952e-02 1.6382756063e+00 -2.8375765869e+00 1.6382756063e+00 2.8375765869e+00 
3700 5.6891345315e+00 -3.1703853407e-02 1.6392112637e+00 -2.8391971930e+00 1.6392112637e+00 2.8391971930e+00 
3800 5.6884043435e+00 -3.2681184139e-02 1.6401784047e+00 -2.8408723304e+00 1.6401784047e+00 2.8408723304e+00 
3900 5.6876847303e+00 -3.3586683674e-02 1.6411747747e+00 -2.8425980938e+00 1.6411747747e+00 2.8425980938e+00 
4000 5.6869777321e+00 -3.4420803894e-02 1.6421981322e+00 -2.8443706011e+00 1.6421981322e+00 2.8443706011e+00 
4100 5.6862852188e+00 -3.5184123375e-02 1.6432462537e+00 -2.8461860007e+00 1.6432462537e+00 2.8461860007e+00 
4200 5.6856088948e+00 -3.5877337646e-02 1.6443169374e+00 -2.8480404794e+00 1.6443169374e+00 2.8480404794e+00 
4300 5.6849503027e+00 -3.6501250303e-02 1.6454080076e+00 -2.8499302683e+00 1.6454080076e+00 2.8499302683e+00 
4400 5.6843108277e+00 -3.7056764867e-02 1.6465173175e+00 -2.8518516495e+00 1.6465173175e+00 2.8518516495e+00 
4500 5.6836917017e+00 -3.7544877334e-02 1.6476427531e+00 -2.8538009610e+00 1.6476427531e+00 2.8538009610e+00 
4600 5.6830940076e+00 -3.7966669327e-02 1.6487822356e+00 -2.8557746026e+00 1.6487822356e+00 2.8557746026e+00 
4700 5.6825186835e+00 -3.8323301790e-02 1.6499337243e+00 -2.8577690397e+00 1.6499337243e+00 2.8577690397e+00 
4800 5.6819665277e+00 -3.8616009170e-02 1.6510952193e+00 -2.8597808080e+00 1.6510952193e+00 2.8597808080e+00 
4900 5.6814382027e+00 -3.8846094032e-02 1.6522647631e+00 -2.8618065173e+00 1.6522647631e+00 2.8618065173e+00 
5000 5.6809342405e+00 -3.9014922051e-02 1.6534404433e+00 -2.8638428550e+00 1.6534404433e+00 2.8638428550e+00 
5100 5.6804550474e+00 -3.9123917341e-02 1.6546203938e+00 -2.8658865893e+00 1.6546203938e+00 2.8658865893e+00 
5200 5.6800009088e+00 -3.9174558093e-02 1.6558027971e+00 -2.8679345719e+00 1.6558027971e+00 2.8679345719e+00 
5300 5.6795719949e+00 -3.9168372460e-02 1.6569858855e+00 -2.8699837410e+00 1.6569858855e+00 2.8699837410e+00 
5400 5.6791683654e+00 -3.9106934686e-02 1.6581679422e+00 -2.8720311233e+00 1.6581679422e+00 2.8720311233e+00 
5500 5.6787899758e+00 -3.8991861424e-02 1.6593473030e+00 -2.8740738362e+00 1.6593473030e+00 2.8740738362e+00 
5600 5.6784366821e+00 -3.8824808236e-02 1.6605223572e+00 -2.8761090897e+00 1.6605223572e+00 2.8761090897e+00 
5700 5.6781082470e+00 -3.8607466239e-02 1.6616915483e+00 -2.8781341882e+00 1.6616915483e+00 2.8781341882e+00 
5800 5.6778043457e+00 -3.8341558886e-02 1.6628533753e+00 -2.8801465316e+00 1.6628533753e+00 2.8801465316e+00 
5900 5.6775245712e+00 -3.8028838849e-02 1.6640063930e+00 -2.8821436167e+00 1.6640063930e+00 2.8821436167e+00 
6000 5.6772684406e+00 -3.7671085011e-02 1.6651492127e+00 -2.8841230387e+00 1.6651492127e+00 2.8841230387e+00 
6100 5.6770354010e+00 -3.7270099522e-02 1.6662805032e+00 -2.8860824911e+00 1.6662805032e+00 2.8860824911e+00 
6200 5.6768248349e+00 -3.6827704937e-02 1.6673989903e+00 -2.8880197677e+00 1.6673989903e+00 2.8880197677e+00 
6300 5.6766360665e+00 -3.6345741399e-02 1.6685034580e+00 -2.8899327619e+00 1.6685034580e+00 2.8899327619e+00 
6400 5.6764683675e+00 -3.5826063879e-02 1.6695927483e+00 -2.8918194681e+00 1.6695927483e+00 2.8918194681e+00 
6500 5.6763209626e+00 -3.5270539449e-02 1.6706657615e+00 -2.8936779813e+00 1.6706657615e+00 2.8936779813e+00 
6600 5.6761930355e+00 -3.4681044586e-02 1.6717214559e+00 -2.8955064977e+00 1.6717214559e+00 2.8955064977e+00 
6700 5.6760837344e+00 -3.4059462510e-02 1.6727588485e+00 -2.8973033144e+00 1.6727588485e+00 2.8973033144e+00 
6800 5.6759921775e+00 -3.3407680539e-02 1.6737770142e+00 -2.8990668292e+00 1.6737770142e+00 2.8990668292e+00 
6900 5.6759174585e+00 -3.2727587462e-02 1.6747750862e+00 -2.9007955406e+00 1.6747750862e+00 2.9007955406e+00 
7000 5.6758586519e+00 -3.2021070937e-02 1.6757522553e+00 -2.9024880470e+00 1.6757522553e+00 2.9024880470e+00 
7100 5.6758148177e+00 -3.1290014898e-02 1.6767077698e+00 -2.9041430467e+00 1.6767077698e+00 2.9041430467e+00 
7200 5.6757850069e+00 -3.0536296976e-02 1.6776409352e+00 -2.9057593367e+00 1.6776409352e+00 2.9057593367e+00 
7300 5.6757682660e+00 -2.9761785943e-02 1.6785511138e+00 -2.9073358122e+00 1.6785511138e+00 2.9073358122e+00 
7400 5.6757636413e+00 -2.8968339171e-02 1.6794377238e+00 -2.9088714658e+00 1.6794377238e+00 2.9088714658e+00 
7500 5.6757701839e+00 -2.8157800103e-02 1.6803002392e+00 -2.9103653862e+00 1.6803002392e+00 2.9103653862e+00 
7600 5.6757869531e+00 -2.7331995752e-02 1.6811381888e+00 -2.9118167576e+00 1.6811381888e+00 2.9118167576e+00 
7700 5.6758130208e+00 -2.6492734226e-02 1.6819511558e+00 -2.9132248577e+00 1.6819511558e+00 2.9132248577e+00 
7800 5.6758474751e+00 -2.5641802276e-02 1.6827387768e+00 -2.9145890573e+00 1.6827387768e+00 2.9145890573e+00 
7900 5.6758894234e+00 -2.4780962877e-02 1.6835007411e+00 -2.9159088181e+00 1.6835007411e+00 2.9159088181e+00 
8000 5.6759379960e+00 -2.3911952851e-02 1.6842367897e+00 -2.9171836917e+00 1.6842367897e+00 2.9171836917e+00 
8100 5.6759923488e+00 -2.3036480526e-02 1.6849467146e+00 -2.9184133177e+00 1.6849467146e+00 2.9184133177e+00 
8200 5.6760516660e+00 -2.2156223442e-02 1.6856303575e+00 -2.9195974219e+00 1.6856303575e+00 2.9195974219e+00 
8300 5.6761151624e+00 -2.1272826118e-02 1.6862876090e+00 -2.9207358150e+00 1.6862876090e+00 2.9207358150e+00 
8400 5.6761820858e+00 -2.0387897867e-02 1.6869184074e+00 -2.9218283899e+00 1.6869184074e+00 2.9218283899e+00 
8500 5.6762517187e+00 -1.9503010682e-02 1.6875227376e+00 -2.9228751205e+00 1.6875227376e+00 2.9228751205e+00 
8600 5.6763233798e+00 -1.8619697187e-02 1.6881006298e+00 -2.9238760591e+00 1.6881006298e+00 2.9238760591e+00 
8700 5.6763964257e+00 -1.7739448676e-02 1.6886521583e+00 -2.9248313344e+00 1.6886521583e+00 2.9248313344e+00 
8800 5.6764702515e+00 -1.6863713218e-02 1.6891774401e+00 -2.9257411493e+00 1.6891774401e+00 2.9257411493e+00 
8900 5.6765442923e+00 -1.5993893865e-02 1.6896766341e+00 -2.9266057786e+00 1.6896766341e+00 2.9266057786e+00 
9000 5.6766180232e+00 -1.5131346948e-02 1.6901499389e+00 -2.9274255665e+00 1.6901499389e+00 2.9274255665e+00 
9100 5.6766909602e+00 -1.4277380472e-02 1.6905975919e+00 -2.9282009243e+00 1.6905975919e+00 2.9282009243e+00 
9200 5.6767626598e+00 -1.3433252622e-02 1.6910198679e+00 -2.9289323278e+00 1.6910198679e+00 2.9289323278e+00 
9300 5.6768327195e+00 -1.2600170375e-02 1.6914170772e+00 -2.9296203146e+00 1.6914170772e+00 2.9296203146e+00 
9400 5.6769007771e+00 -1.1779288228e-02 1.6917895647e+00 -2.9302654817e+00 1.6917895647e+00 2.9302654817e+00 
9500 5.6769665104e+00 -1.0971707050e-02 1.6921377076e+00 -2.9308684830e+00 1.6921377076e+00 2.9308684830e+00 
9600 5.6770296363e+00 -1.0178473054e-02 1.6924619146e+00 -2.9314300260e+00 1.6924619146e+00 2.9314300260e+00 
9700 5.6770899105e+00 -9.4005768985e-03 1.6927626237e+00 -2.9319508695e+00 1.6927626237e+00 2.9319508695e+00 
9800 5.6771471257e+00 -8.6389529175e-03 1.6930403010e+00 -2.9324318206e+00 1.6930403010e+00 2.9324318206e+00 
9900 5.6772011111e+00 -7.8944784871e-03 1.6932954387e+00 -2.9328737321e+00 1.6932954387e+00 2.9328737321e+00 
10000 5.6772517307e+00 -7.1679735247e-03 1.6935285540e+00 -2.9332774996e+00 1.6935285540e+00 2.9332774996e+00 
10100 5.6772988822e+00 -6.4602001251e-03 1.6937401868e+00 -2.9336440583e+00 1.6937401868e+00 2.9336440583e+00 
10200 5.6773424950e+00 -5.7718623342e-03 1.6939308985e+00 -2.9339743806e+00 1.6939308985e+00 2.9339743806e+00 
10300 5.6773825290e+00 -5.1036060602e-03 1.6941012702e+00 -2.9342694731e+00 1.6941012702e+00 2.9342694731e+00 
10400 5.6774189725e+00 -4.4560191215e-03 1.6942519011e+00 -2.9345303736e+00 1.6942519011e+00 2.9345303736e+00 
10500 5.6774518408e+00 -3.8296314309e-03 1.6943834069e+00 -2.9347581482e+00 1.6943834069e+00 2.9347581482e+00 
10600 5.6774811740e+00 -3.2249153145e-03 1.6944964177e+00 -2.9349538887e+00 1.6944964177e+00 2.9349538887e+00 
10700 5.6775070352e+00 -2.6422859618e-03 1.6945915771e+00 -2.9351187097e+00 1.6945915771e+00 2.9351187097e+00 
10800 5.6775295087e+00 -2.0821020069e-03 1.6946695401e+00 -2.9352537454e+00 1.6946695401e+00 2.9352537454e+00 
10900 5.6775486978e+00 -1.5446662342e-03 1.6947309713e+00 -2.9353601475e+00 1.6947309713e+00 2.9353601475e+00 
11000 5.6775647231e+00 -1.0302264075e-03 1.6947765442e+00 -2.9354390819e+00 1.6947765442e+00 2.9354390819e+00 
11100 5.6775777204e+00 -5.3897621676e-04 1.6948069384e+00 -2.9354917263e+00 1.6948069384e+00 2.9354917263e+00 
11200 5.6775878389e+00 -7.1056337808e-05 1.6948228392e+00 -2.9355192674e+00 1.6948228392e+00 2.9355192674e+00 
11300 5.6775952392e+00 3.7344439995e-04 1.6948249355e+00 -2.9355228983e+00 1.6948249355e+00 2.9355228983e+00 
11400 5.6776000914e+00 7.9448774348e-04 1.6948139183e+00 -2.9355038159e+00 1.6948139183e+00 2.9355038159e+00 
11500 5.6776025734e+00 1.1920846499e-03 1.6947904796e+00 -2.9354632189e+00 1.6947904796e+00 2.9354632189e+00 
11600 5.6776028691e+00 1.5662938306e-03 1.6947553106e+00 -2.9354023044e+00 1.6947553106e+00 2.9354023044e+00 
11700 5.6776011667e+00 1.9172202112e-03 1.6947091008e+00 -2.9353222667e+00 1.6947091008e+00 2.9353222667e+00 
11800 5.6775976572e+00 2.2450133162e-03 1.6946525363e+00 -2.9352242940e+00 1.6946525363e+00 2.9352242940e+00 
11900 5.6775925326e+00 2.5498655832e-03 1.6945862985e+00 -2.9351095669e+00 1.6945862985e+00 2.9351095669e+00 
12000 5.6775859848e+00 2.8320106148e-03 1.6945110635e+00 -2.9349792559e+00 1.6945110635e+00 2.9349792559e+00 
12100 5.6775782040e+00 3.0917213757e-03 1.6944274999e+00 -2.9348345196e+00 1.6944274999e+00 2.9348345196e+00 
12200 5.6775693774e+00 3.3293083420e-03 1.6943362687e+00 -2.9346765025e+00 1.6943362687e+00 2.9346765025e+00 
12300 5.6775596883e+00 3.5451176087e-03 1.6942380215e+00 -2.9345063333e+00 1.6942380215e+00 2.9345063333e+00 
12400 5.6775493147e+00 3.7395289659e-03 1.6941333998e+00 -2.9343251232e+00 1.6941333998e+00 2.9343251232e+00 
12500 5.6775384287e+00 3.9129539465e-03 1.6940230340e+00 -2.9341339640e+00 1.6940230340e+00 2.9341339640e+00 
12600 5.6775271951e+00 4.0658338563e-03 1.6939075423e+00 -2.9339339266e+00 1.6939075423e+00 2.9339339266e+00 
12700 5.6775157712e+00 4.1986377913e-03 1.6937875303e+00 -2.9337260597e+00 1.6937875303e+00 2.9337260597e+00 
12800 5.6775043059e+00 4.3118606493e-03 1.6936635895e+00 -2.9335113880e+00 1.6936635895e+00 2.9335113880e+00 
12900 5.6774929390e+00 4.4060211425e-03 1.6935362972e+00 -2.9332909113e+00 1.6935362972e+00 2.9332909113e+00 
13000 5.6774818009e+00 4.4816598174e-03 1.6934062154e+00 -2.9330656030e+00 1.6934062154e+00 2.9330656030e+00 
13100 5.6774710122e+00 4.5393370877e-03 1.6932738904e+00 -2.9328364093e+00 1.6932738904e+00 2.9328364093e+00 
13200 5.6774606834e+00 4.5796312862e-03 1.6931398519e+00 -2.9326042478e+00 1.6931398519e+00 2.9326042478e+00 
13300 5.6774509146e+00 4.6031367410e-03 1.6930046129e+00 -2.9323700070e+00 1.6930046129e+00 2.9323700070e+00 
13400 5.6774417957e+00 4.6104618806e-03 1.6928686690e+00 -2.9321345452e+00 1.6928686690e+00 2.9321345452e+00 
13500 5.6774334061e+00 4.6022273738e-03 1.6927324977e+00 -2.9318986897e+00 1.6927324977e+00 2.9318986897e+00 
13600 5.6774258148e+00 4.5790643073e-03 1.6925965588e+00 -2.9316632365e+00 1.6925965588e+00 2.9316632365e+00 
13700 5.6774190805e+00 4.5416124064e-03 1.6924612931e+00 -2.9314289495e+00 1.6924612931e+00 2.9314289495e+00 
13800 5.6774132519e+00 4.4905183017e-03 1.6923271231e+00 -2.9311965602e+00 1.6923271231e+00 2.9311965602e+00 
13900 5.6774083680e+00 4.4264338448e-03 1.6921944519e+00 -2.9309667670e+00 1.6921944519e+00 2.9309667670e+00 
14000 5.6774044582e+00 4.3500144774e-03 1.6920636639e+00 -2.9307402354e+00 1.6920636639e+00 2.9307402354e+00 
14100 5.6774015426e+00 4.2619176551e-03 1.6919351238e+00 -2.9305175975e+00 1.6919351238e+00 2.9305175975e+00 
14200 5.6773996327e+00 4.1628013281e-03 1.6918091773e+00 -2.9302994519e+00 1.6918091773e+00 2.9302994519e+00 
14300 5.6773987318e+00 4.0533224821e-03 1.6916861507e+00 -2.9300863635e+00 1.6916861507e+00 2.9300863635e+00 
14400 5.6773988352e+00 3.9341357396e-03 1.6915663509e+00 -2.9298788641e+00 1.6915663509e+00 2.9298788641e+00 
14500 5.6773999308e+00 3.8058920238e-03 1.6914500655e+00 -2.9296774518e+00 1.6914500655e+00 2.9296774518e+00 
14600 5.6774019998e+00 3.6692372853e-03 1.6913375629e+00 -2.9294825916e+00 1.6913375629e+00 2.9294825916e+00 
14700 5.6774050171e+00 3.5248112932e-03 1.6912290926e+00 -2.9292947156e+00 1.6912290926e+00 2.9292947156e+00 
14800 5.6774089518e+00 3.3732464901e-03 1.6911248851e+00 -2.9291142229e+00 1.6911248851e+00 2.9291142229e+00 
14900 5.6774137680e+00 3.2151669126e-03 1.6910251522e+00 -2.9289414806e+00 1.6910251522e+00 2.9289414806e+00 
15000 5.6774194250e+00 3.0511871750e-03 1.6909300875e+00 -2.9287768236e+00 1.6909300875e+00 2.9287768236e+00 
15100 5.6774258782e+00 2.8819115180e-03 1.6908398662e+00 -2.9286205557e+00 1.6908398662e+00 2.9286205557e+00 
15200 5.6774330793e+00 2.7079329211e-03 1.6907546456e+00 -2.9284729493e+00 1.6907546456e+00 2.9284729493e+00 
15300 5.6774409774e+00 2.5298322776e-03 1.6906745656e+00 -2.9283342467e+00 1.6906745656e+00 2.9283342467e+00 
15400 5.6774495188e+00 2.3481776319e-03 1.6905997489e+00 -2.9282046604e+00 1.6905997489e+00 2.9282046604e+00 
15500 5.6774586482e+00 2.1635234780e-03 1.6905303013e+00 -2.9280843736e+00 1.6905303013e+00 2.9280843736e+00 
15600 5.6774683090e+00 1.9764101172e-03 1.6904663122e+00 -2.9279735413e+00 1.6904663122e+00 2.9279735413e+00 
15700 5.6774784432e+00 1.7873630754e-03 1.6904078550e+00 -2.9278722904e+00 1.6904078550e+00 2.9278722904e+00 
15800 5.6774889930e+00 1.5968925768e-03 1.6903549875e+00 -2.9277807212e+00 1.6903549875e+00 2.9277807212e+00 
15900 5.6774999002e+00 1.4054930734e-03 1.6903077523e+00 -2.9276989074e+00 1.6903077523e+00 2.9276989074e+00 
16000 5.6775111071e+00 1.2136428284e-03 1.6902661774e+00 -2.9276268976e+00 1.6902661774e+00 2.9276268976e+00 
16100 5.6775225567e+00 1.0218035525e-03 1.6902302766e+00 -2.9275647156e+00 1.6902302766e+00 2.9275647156e+00 
16200 5.6775341934e+00 8.3042009003e-04 1.6902000499e+00 -2.9275123614e+00 1.6902000499e+00 2.9275123614e+00 
16300 5.6775459627e+00 6.3992015472e-04 1.6901754843e+00 -2.9274698124e+00 1.6901754843e+00 2.9274698124e+00 
16400 5.6775578120e+00 4.5071411181e-04 1.6901565537e+00 -2.9274370238e+00 1.6901565537e+00 2.9274370238e+00 
16500 5.6775696908e+00 2.6319480590e-04 1.6901432202e+00 -2.9274139295e+00 1.6901432202e+00 2.9274139295e+00 
16600 5.6775815509e+00 7.7737432014e-05 1.6901354341e+00 -2.9274004435e+00 1.6901354341e+00 2.9274004435e+00 
16700 5.6775933461e+00 -1.0530055187e-04 1.6901331343e+00 -2.9273964602e+00 1.6901331343e+00 2.9273964602e+00 
16800 5.6776050334e+00 -2.8557947247e-04 1.6901362495e+00 -2.9274018558e+00 1.6901362495e+00 2.9274018558e+00 
16900 5.6776165722e+00 -4.6277745110e-04 1.6901446979e+00 -2.9274164889e+00 1.6901446979e+00 2.9274164889e+00 
17000 5.6776279248e+00 -6.3659037742e-04 1.6901583884e+00 -2.9274402015e+00 1.6901583884e+00 2.9274402015e+00 
17100 5.6776390565e+00 -8.0673184904e-04 1.6901772207e+00 -2.9274728200e+00 1.6901772207e+00 2.9274728200e+00 
17200 5.6776499358e+00 -9.7293307861e-04 1.6902010861e+00 -2.9275141561e+00 1.6902010861e+00 2.9275141561e+00 
17300 5.6776605340e+00 -1.1349427701e-03 1.6902298677e+00 -2.9275640073e+00 1.6902298677e+00 2.9275640073e+00 
17400 5.6776708255e+00 -1.2925269662e-03 1.6902634414e+00 -2.9276221588e+00 1.6902634414e+00 2.9276221588e+00 
17500 5.6776807880e+00 -1.4454688683e-03 1.6903016761e+00 -2.9276883831e+00 1.6903016761e+00 2.9276883831e+00 
17600 5.6776904020e+00 -1.5935686305e-03 1.6903444340e+00 -2.9277624419e+00 1.6903444340e+00 2.9277624419e+00 
17700 5.6776996510e+00 -1.7366431300e-03 1.6903915716e+00 -2.9278440867e+00 1.6903915716e+00 2.9278440867e+00 
17800 5.6777085216e+00 -1.8745257141e-03 1.6904429399e+00 -2.9279330592e+00 1.6904429399e+00 2.9279330592e+00 
17900 5.6777170031e+00 -2.0070659272e-03 1.6904983850e+00 -2.9280290930e+00 1.6904983850e+00 2.9280290930e+00 
18000 5.6777250875e+00 -2.1341292169e-03 1.6905577485e+00 -2.9281319136e+00 1.6905577485e+00 2.9281319136e+00 
18100 5.6777327696e+00 -2.2555966226e-03 1.6906208680e+00 -2.9282412397e+00 1.6906208680e+00 2.9282412397e+00 
18200 5.6777400465e+00 -2.3713644473e-03 1.6906875776e+00 -2.9283567841e+00 1.6906875776e+00 2.9283567841e+00 
18300 5.6777469179e+00 -2.4813439136e-03 1.6907577082e+00 -2.9284782539e+00 1.6907577082e+00 2.9284782539e+00 
18400 5.6777533856e+00 -2.5854608051e-03 1.6908310884e+00 -2.9286053521e+00 1.6908310884e+00 2.9286053521e+00 
18500 5.6777594535e+00 -2.6836550952e-03 1.6909075443e+00 -2.9287377776e+00 1.6909075443e+00 2.9287377776e+00 
18600 5.6777651275e+00 -2.7758805641e-03 1.6909869004e+00 -2.9288752264e+00 1.6909869004e+00 2.9288752264e+00 
18700 5.6777704153e+00 -2.8621044048e-03 1.6910689798e+00 -2.9290173920e+00 1.6910689798e+00 2.9290173920e+00 
18800 5.6777753262e+00 -2.9423068193e-03 1.6911536046e+00 -2.9291639665e+00 1.6911536046e+00 2.9291639665e+00 
18900 5.6777798710e+00 -3.0164806068e-03 1.6912405964e+00 -2.9293146409e+00 1.6912405964e+00 2.9293146409e+00 
19000 5.6777840618e+00 -3.0846307438e-03 1.6913297768e+00 -2.9294691057e+00 1.6913297768e+00 2.9294691057e+00 
19100 5.6777879118e+00 -3.1467739582e-03 1.6914209671e+00 -2.9296270520e+00 1.6914209671e+00 2.9296270520e+00 
19200 5.6777914353e+00 -3.2029382973e-03 1.6915139895e+00 -2.9297881716e+00 1.6915139895e+00 2.9297881716e+00 
19300 5.6777946475e+00 -3.2531626911e-03 1.6916086671e+00 -2.9299521579e+00 1.6916086671e+00 2.9299521579e+00 
19400 5.6777975641e+00 -3.2974965125e-03 1.6917048239e+00 -2.9301187064e+00 1.6917048239e+00 2.9301187064e+00 
19500 5.6778002016e+00 -3.3359991337e-03 1.6918022856e+00 -2.9302875150e+00 1.6918022856e+00 2.9302875150e+00 
19600 5.6778025768e+00 -3.3687394811e-03 1.6919008796e+00 -2.9304582848e+00 1.6919008796e+00 2.9304582848e+00 
19700 5.6778047066e+00 -3.3957955880e-03 1.6920004354e+00 -2.9306307206e+00 1.6920004354e+00 2.9306307206e+00 
19800 5.6778066085e+00 -3.4172541479e-03 1.6921007850e+00 -2.9308045311e+00 1.6921007850e+00 2.9308045311e+00 
19900 5.6778082998e+00 -3.4332100667e-03 1.6922017627e+00 -2.9309794296e+00 1.6922017627e+00 2.9309794296e+00 
20000 5.6778097975e+00 -3.4437660165e-03 1.6923032058e+00 -2.9311551342e+00 1.6923032058e+00 2.9311551342e+00 
20100 5.6778111189e+00 -3.4490319907e-03 1.6924049547e+00 -2.9313313685e+00 1.6924049547e+00 2.9313313685e+00 
20200 5.6778122806e+00 -3.4491248612e-03 1.6925068531e+00 -2.9315078617e+00 1.6925068531e+00 2.9315078617e+00 
20300 5.6778132991e+00 -3.4441679380e-03 1.6926087481e+00 -2.9316843490e+00 1.6926087481e+00 2.9316843490e+00 
20400 5.6778141905e+00 -3.4342905329e-03 1.6927104905e+00 -2.9318605720e+00 1.6927104905e+00 2.9318605720e+00 
20500 5.6778149701e+00 -3.4196275264e-03 1.6928119350e+00 -2.9320362792e+00 1.6928119350e+00 2.9320362792e+00 
20600 5.6778156529e+00 -3.4003189394e-03 1.6929129404e+00 -2.9322112256e+00 1.6929129404e+00 2.9322112256e+00 
20700 5.6778162531e+00 -3.3765095099e-03 1.6930133694e+00 -2.9323851738e+00 1.6930133694e+00 2.9323851738e+00 
20800 5.6778167843e+00 -3.3483482752e-03 1.6931130893e+00 -2.9325578937e+00 1.6931130893e+00 2.9325578937e+00 
20900 5.6778172593e+00 -3.3159881596e-03 1.6932119717e+00 -2.9327291630e+00 1.6932119717e+00 2.9327291630e+00 
21000 5.6778176903e+00 -3.2795855695e-03 1.6933098927e+00 -2.9328987672e+00 1.6933098927e+00 2.9328987672e+00 
21100 5.6778180886e+00 -3.2392999943e-03 1.6934067331e+00 -2.9330664997e+00 1.6934067331e+00 2.9330664997e+00 
21200 5.6778184647e+00 -3.1952936154e-03 1.6935023785e+00 -2.9332321623e+00 1.6935023785e+00 2.9332321623e+00 
21300 5.6778188282e+00 -3.1477309222e-03 1.6935967192e+00 -2.9333955652e+00 1.6935967192e+00 2.9333955652e+00 
21400 5.6778191881e+00 -3.0967783369e-03 1.6936896504e+00 -2.9335565268e+00 1.6936896504e+00 2.9335565268e+00 
21500 5.6778195523e+00 -3.0426038471e-03 1.6937810723e+00 -2.9337148741e+00 1.6937810723e+00 2.9337148741e+00 
21600 5.6778199282e+00 -2.9853766474e-03 1.6938708900e+00 -2.9338704429e+00 1.6938708900e+00 2.9338704429e+00 
21700 5.6778203221e+00 -2.9252667898e-03 1.6939590137e+00 -2.9340230776e+00 1.6939590137e+00 2.9340230776e+00 
21800 5.6778207397e+00 -2.8624448441e-03 1.6940453585e+00 -2.9341726312e+00 1.6940453585e+00 2.9341726312e+00 
21900 5.6778211858e+00 -2.7970815673e-03 1.6941298447e+00 -2.9343189656e+00 1.6941298447e+00 2.9343189656e+00 
22000 5.6778216645e+00 -2.7293475827e-03 1.6942123975e+00 -2.9344619513e+00 1.6942123975e+00 2.9344619513e+00 
22100 5.6778221792e+00 -2.6594130703e-03 1.6942929473e+00 -2.9346014676e+00 1.6942929473e+00 2.9346014676e+00 
22200 5.6778227327e+00 -2.5874474659e-03 1.6943714294e+00 -2.9347374026e+00 1.6943714294e+00 2.9347374026e+00 
22300 5.6778233268e+00 -2.5136191722e-03 1.6944477842e+00 -2.9348696530e+00 1.6944477842e+00 2.9348696530e+00 
22400 5.6778239630e+00 -2.4380952795e-03 1.6945219569e+00 -2.9349981240e+00 1.6945219569e+00 2.9349981240e+00 
22500 5.6778246421e+00 -2.3610412979e-03 1.6945938980e+00 -2.9351227295e+00 1.6945938980e+00 2.9351227295e+00 
22600 5.6778253644e+00 -2.2826209004e-03 1.6946635624e+00 -2.9352433918e+00 1.6946635624e+00 2.9352433918e+00 
22700 5.6778261295e+00 -2.2029956768e-03 1.6947309101e+00 -2.9353600415e+00 1.6947309101e+00 2.9353600415e+00 
22800 5.6778269368e+00 -2.1223248994e-03 1.6947959060e+00 -2.9354726176e+00 1.6947959060e+00 2.9354726176e+00 
22900 5.6778277852e+00 -2.0407652989e-03 1.6948585194e+00 -2.9355810672e+00 1.6948585194e+00 2.9355810672e+00 
23000 5.6778286729e+00 -1.9584708532e-03 1.6949187243e+00 -2.9356853452e+00 1.6949187243e+00 2.9356853452e+00 
23100 5.6778295982e+00 -1.8755925862e-03 1.6949764994e+00 -2.9357854146e+00 1.6949764994e+00 2.9357854146e+00 
23200 5.6778305588e+00 -1.7922783786e-03 1.6950318277e+00 -2.9358812460e+00 1.6950318277e+00 2.9358812460e+00 
23300 5.6778315522e+00 -1.7086727902e-03 1.6950846965e+00 -2.9359728176e+00 1.6950846965e+00 2.9359728176e+00 
23400 5.6778325757e+00 -1.6249168934e-03 1.6951350976e+00 -2.9360601147e+00 1.6951350976e+00 2.9360601147e+00 
23500 5.6778336264e+00 -1.5411481178e-03 1.6951830267e+00 -2.9361431303e+00 1.6951830267e+00 2.9361431303e+00 
23600 5.6778347013e+00 -1.4575001070e-03 1.6952284836e+00 -2.9362218640e+00 1.6952284836e+00 2.9362218640e+00 
23700 5.6778357971e+00 -1.3741025852e-03 1.6952714720e+00 -2.9362963222e+00 1.6952714720e+00 2.9362963222e+00 
23800 5.6778369106e+00 -1.2910812367e-03 1.6953119997e+00 -2.9363665182e+00 1.6953119997e+00 2.9363665182e+00 
23900 5.6778380385e+00 -1.2085575946e-03 1.6953500778e+00 -2.9364324714e+00 1.6953500778e+00 2.9364324714e+00 
24000 5.6778391773e+00 -1.1266489421e-03 1.6953857213e+00 -2.9364942077e+00 1.6953857213e+00 2.9364942077e+00 
24100 5.6778403239e+00 -1.0454682233e-03 1.6954189483e+00 -2.9365517586e+00 1.6954189483e+00 2.9365517586e+00 
24200 5.6778414748e+00 -9.6512396549e-04 1.6954497805e+00 -2.9366051616e+00 1.6954497805e+00 2.9366051616e+00 
24300 5.6778426268e+00 -8.8572021136e-04 1.6954782428e+00 -2.9366544597e+00 1.6954782428e+00 2.9366544597e+00 
24400 5.6778437767e+00 -8.0735646184e-04 1.6955043629e+00 -2.9366997011e+00 1.6955043629e+00 2.9366997011e+00 
24500 5.6778449215e+00 -7.3012762892e-04 1.6955281717e+00 -2.9367409391e+00 1.6955281717e+00 2.9367409391e+00 
24600 5.6778460582e+00 -6.5412399831e-04 1.6955497028e+00 -2.9367782319e+00 1.6955497028e+00 2.9367782319e+00 
24700 5.6778471839e+00 -5.7943120182e-04 1.6955689922e+00 -2.9368116423e+00 1.6955689922e+00 2.9368116423e+00 
24800 5.6778482960e+00 -5.0613019924e-04 1.6955860789e+00 -2.9368412373e+00 1.6955860789e+00 2.9368412373e+00 
24900 5.6778493919e+00 -4.3429726928e-04 1.6956010039e+00 -2.9368670880e+00 1.6956010039e+00 2.9368670880e+00 
25000 5.6778504694e+00 -3.6400400953e-04 1.6956138105e+00 -2.9368892697e+00 1.6956138105e+00 2.9368892697e+00 
25100 5.6778515262e+00 -2.9531734513e-04 1.6956245442e+00 -2.9369078610e+00 1.6956245442e+00 2.9369078610e+00 
25200 5.6778525603e+00 -2.2829954578e-04 1.6956332524e+00 -2.9369229441e+00 1.6956332524e+00 2.9369229441e+00 
25300 5.6778535700e+00 -1.6300825089e-04 1.6956399844e+00 -2.9369346043e+00 1.6956399844e+00 2.9369346043e+00 
25400 5.6778545536e+00 -9.9496502552e-05 1.6956447911e+00 -2.9369429297e+00 1.6956447911e+00 2.9369429297e+00 
25500 5.6778555097e+00 -3.7812786140e-05 1.6956477250e+00 -2.9369480114e+00 1.6956477250e+00 2.9369480114e+00 
25600 5.6778564370e+00 2.0761891785e-05 1.6956477250e+00 -2.9369480114e+00 1.6956477250e+00 2.9369480114e+00 
25700 5.6778573346e+00 7.9372997212e-05 1.6956477250e+00 -2.9369480114e+00 1.6956477250e+00 2.9369480114e+00 
25800 5.6778582016e+00 1.3533967649e-04 1.6956453845e+00 -2.9369439575e+00 1.6956453845e+00 2.9369439575e+00 
25900 5.6778590373e+00 1.8932845939e-04 1.6956413937e+00 -2.9369370452e+00 1.6956413937e+00 2.9369370452e+00 
26000 5.6778598413e+00 2.4131282209e-04 1.6956358109e+00 -2.9369273756e+00 1.6956358109e+00 2.9369273756e+00 
26100 5.6778606134e+00 2.9127041159e-04 1.6956286952e+00 -2.9369150508e+00 1.6956286952e+00 2.9369150508e+00 
26200 5.6778613532e+00 3.3918296117e-04 1.6956201063e+00 -2.9369001745e+00 1.6956201063e+00 2.9369001745e+00 
26300 5.6778620609e+00 3.8503620090e-04 1.6956101046e+00 -2.9368828510e+00 1.6956101046e+00 2.9368828510e+00 
26400 5.6778627367e+00 4.2881976341e-04 1.6955987507e+00 -2.9368631854e+00 1.6955987507e+00 2.9368631854e+00 
26500 5.6778633807e+00 4.7052708532e-04 1.6955861056e+00 -2.9368412835e+00 1.6955861056e+00 2.9368412835e+00 
26600 5.6778639936e+00 5.1015530465e-04 1.6955722306e+00 -2.9368172513e+00 1.6955722306e+00 2.9368172513e+00 
26700 5.6778645758e+00 5.4770515448e-04 1.6955571868e+00 -2.9367911948e+00 1.6955571868e+00 2.9367911948e+00 
26800 5.6778651281e+00 5.8318085325e-04 1.6955410357e+00 -2.9367632201e+00 1.6955410357e+00 2.9367632201e+00 
26900 5.6778656512e+00 6.1658999195e-04 1.6955238382e+00 -2.9367334333e+00 1.6955238382e+00 2.9367334333e+00 
27000 5.6778661459e+00 6.4794341856e-04 1.6955056554e+00 -2.9367019397e+00 1.6955056554e+00 2.9367019397e+00 
27100 5.6778666133e+00 6.7725512007e-04 1.6954865478e+00 -2.9366688443e+00 1.6954865478e+00 2.9366688443e+00 
27200 5.6778670544e+00 7.0454210227e-04 1.6954665755e+00 -2.9366342513e+00 1.6954665755e+00 2.9366342513e+00 
27300 5.6778674703e+00 7.2982426777e-04 1.6954457983e+00 -2.9365982641e+00 1.6954457983e+00 2.9365982641e+00 
27400 5.6778678620e+00 7.5312429240e-04 1.6954242753e+00 -2.9365609852e+00 1.6954242753e+00 2.9365609852e+00 
27500 5.6778682308e+00 7.7446750041e-04 1.6954020648e+00 -2.9365225155e+00 1.6954020648e+00 2.9365225155e+00 
27600 5.6778685779e+00 7.9388173859e-04 1.6953792246e+00 -2.9364829552e+00 1.6953792246e+00 2.9364829552e+00 
27700 5.6778689045e+00 8.1139724973e-04 1.6953558116e+00 -2.9364424026e+00 1.6953558116e+00 2.9364424026e+00 
27800 5.6778692119e+00 8.2704654565e-04 1.6953318817e+00 -2.9364009547e+00 1.6953318817e+00 2.9364009547e+00 
27900 5.6778695013e+00 8.4086428000e-04 1.6953074898e+00 -2.9363587068e+00 1.6953074898e+00 2.9363587068e+00 
28000 5.6778697740e+00 8.5288712111e-04 1.6952826901e+00 -2.9363157525e+00 1.6952826901e+00 2.9363157525e+00 
28100 5.6778700312e+00 8.6315362518e-04 1.6952575355e+00 -2.9362721834e+00 1.6952575355e+00 2.9362721834e+00 
28200 5.6778702741e+00 8.7170411002e-04 1.6952320777e+00 -2.9362280891e+00 1.6952320777e+00 2.9362280891e+00 
28300 5.6778705039e+00 8.7858052945e-04 1.6952063673e+00 -2.9361835574e+00 1.6952063673e+00 2.9361835574e+00 
28400 5.6778707219e+00 8.8382634879e-04 1.6951804536e+00 -2.9361386737e+00 1.6951804536e+00 2.9361386737e+00 
28500 5.6778709291e+00 8.8748642149e-04 1.6951543849e+00 -2.9360935213e+00 1.6951543849e+00 2.9360935213e+00 
28600 5.6778711266e+00 8.8960686710e-04 1.6951282078e+00 -2.9360481813e+00 1.6951282078e+00 2.9360481813e+00 
28700 5.6778713156e+00 8.9023495088e-04 1.6951019678e+00 -2.9360027322e+00 1.6951019678e+00 2.9360027322e+00 
28800 5.6778714969e+00 8.8941896508e-04 1.6950757088e+00 -2.9359572503e+00 1.6950757088e+00 2.9359572503e+00 
28900 5.6778716717e+00 8.8720811222e-04 1.6950494735e+00 -2.9359118095e+00 1.6950494735e+00 2.9359118095e+00 
29000 5.6778718407e+00 8.8365239031e-04 1.6950233030e+00 -2.9358664808e+00 1.6950233030e+00 2.9358664808e+00 
29100 5.6778720048e+00 8.7880248046e-04 1.6949972370e+00 -2.9358213332e+00 1.6949972370e+00 2.9358213332e+00 
29200 5.6778721649e+00 8.7270963670e-04 1.6949713136e+00 -2.9357764326e+00 1.6949713136e+00 2.9357764326e+00 
29300 5.6778723216e+00 8.6542557841e-04 1.6949455696e+00 -2.9357318426e+00 1.6949455696e+00 2.9357318426e+00 
29400 5.6778724757e+00 8.5700238523e-04 1.6949200401e+00 -2.9356876242e+00 1.6949200401e+00 2.9356876242e+00 
29500 5.6778726278e+00 8.4749239484e-04 1.6948947587e+00 -2.9356438355e+00 1.6948947587e+00 2.9356438355e+00 
29600 5.6778727785e+00 8.3694810347e-04 1.6948697574e+00 -2.9356005320e+00 1.6948697574e+00 2.9356005320e+00 
29700 5.6778729282e+00 8.2542206934e-04 1.6948450668e+00 -2.9355577667e+00 1.6948450668e+00 2.9355577667e+00 
29800 5.6778730774e+00 8.1296681913e-04 1.6948207159e+00 -2.9355155897e+00 1.6948207159e+00 2.9355155897e+00 
29900 5.6778732265e+00 7.9963475748e-04 1.6947967321e+00 -2.9354740485e+00 1.6947967321e+00 2.9354740485e+00 
30000 5.6778733758e+00 7.8547807971e-04 1.6947731413e+00 -2.9354331880e+00 1.6947731413e+00 2.9354331880e+00 
30100 5.6778735257e+00 7.7054868767e-04 1.6947499678e+00 -2.9353930503e+00 1.6947499678e+00 2.9353930503e+00 
30200 5.6778736764e+00 7.5489810882e-04 1.6947272344e+00 -2.9353536750e+00 1.6947272344e+00 2.9353536750e+00 
30300 5.6778738281e+00 7.3857741873e-04 1.6947049625e+00 -2.9353150989e+00 1.6947049625e+00 2.9353150989e+00 
30400 5.6778739809e+00 7.2163716673e-04 1.6946831718e+00 -2.9352773564e+00 1.6946831718e+00 2.9352773564e+00 
30500 5.6778741349e+00 7.0412730508e-04 1.6946618807e+00 -2.9352404790e+00 1.6946618807e+00 2.9352404790e+00 
30600 5.6778742902e+00 6.8609712134e-04 1.6946411059e+00 -2.9352044959e+00 1.6946411059e+00 2.9352044959e+00 
30700 5.6778744468e+00 6.6759517431e-04 1.6946208628e+00 -2.9351694339e+00 1.6946208628e+00 2.9351694339e+00 
30800 5.6778746047e+00 6.4866923314e-04 1.6946011653e+00 -2.9351353169e+00 1.6946011653e+00 2.9351353169e+00 
30900 5.6778747639e+00 6.2936622004e-04 1.6945820261e+00 -2.9351021667e+00 1.6945820261e+00 2.9351021667e+00 
31000 5.6778749243e+00 6.0973215618e-04 1.6945634561e+00 -2.9350700027e+00 1.6945634561e+00 2.9350700027e+00 
31100 5.6778750858e+00 5.8981211109e-04 1.6945454653e+00 -2.9350388417e+00 1.6945454653e+00 2.9350388417e+00 
31200 5.6778752483e+00 5.6965015530e-04 1.6945280621e+00 -2.9350086984e+00 1.6945280621e+00 2.9350086984e+00 
31300 5.6778754116e+00 5.4928931632e-04 1.6945112536e+00 -2.9349795853e+00 1.6945112536e+00 2.9349795853e+00 
31400 5.6778755756e+00 5.2877153795e-04 1.6944950457e+00 -2.9349515124e+00 1.6944950457e+00 2.9349515124e+00 
31500 5.6778757401e+00 5.0813764278e-04 1.6944794431e+00 -2.9349244879e+00 1.6944794431e+00 2.9349244879e+00 
31600 5.6778759049e+00 4.8742729789e-04 1.6944644492e+00 -2.9348985177e+00 1.6944644492e+00 2.9348985177e+00 
31700 5.6778760698e+00 4.6667898376e-04 1.6944500663e+00 -2.9348736058e+00 1.6944500663e+00 2.9348736058e+00 
31800 5.6778762346e+00 4.4592996624e-04 1.6944362955e+00 -2.9348497541e+00 1.6944362955e+00 2.9348497541e+00 
31900 5.6778763991e+00 4.2521627157e-04 1.6944231369e+00 -2.9348269627e+00 1.6944231369e+00 2.9348269627e+00 
32000 5.6778765631e+00 4.0457266446e-04 1.6944105894e+00 -2.9348052297e+00 1.6944105894e+00 2.9348052297e+00 
32100 5.6778767263e+00 3.8403262901e-04 1.6943986510e+00 -2.9347845518e+00 1.6943986510e+00 2.9347845518e+00 
32200 5.6778768886e+00 3.6362835260e-04 1.6943873186e+00 -2.9347649235e+00 1.6943873186e+00 2.9347649235e+00 
32300 5.6778770498e+00 3.4339071251e-04 1.6943765882e+00 -2.9347463379e+00 1.6943765882e+00 2.9347463379e+00 
32400 5.6778772096e+00 3.2334926528e-04 1.6943664550e+00 -2.9347287866e+00 1.6943664550e+00 2.9347287866e+00 
32500 5.6778773678e+00 3.0353223879e-04 1.6943569131e+00 -2.9347122596e+00 1.6943569131e+00 2.9347122596e+00 
32600 5.6778775243e+00 2.8396652684e-04 1.6943479559e+00 -2.9346967454e+00 1.6943479559e+00 2.9346967454e+00 
32700 5.6778776788e+00 2.6467768634e-04 1.6943395761e+00 -2.9346822311e+00 1.6943395761e+00 2.9346822311e+00 
32800 5.6778778313e+00 2.4568993679e-04 1.6943317655e+00 -2.9346687027e+00 1.6943317655e+00 2.9346687027e+00 
32900 5.6778779814e+00 2.2702616230e-04 1.6943245151e+00 -2.9346561447e+00 1.6943245151e+00 2.9346561447e+00 
33000 5.6778781291e+00 2.0870791567e-04 1.6943178155e+00 -2.9346445407e+00 1.6943178155e+00 2.9346445407e+00 
33100 5.6778782742e+00 1.9075542481e-04 1.6943116565e+00 -2.9346338729e+00 1.6943116565e+00 2.9346338729e+00 
33200 5.6778784166e+00 1.7318760122e-04 1.6943060272e+00 -2.9346241227e+00 1.6943060272e+00 2.9346241227e+00 
33300 5.6778785562e+00 1.5602205043e-04 1.6943009163e+00 -2.9346152704e+00 1.6943009163e+00 2.9346152704e+00 
33400 5.6778786929e+00 1.3927508445e-04 1.6942963120e+00 -2.9346072955e+00 1.6942963120e+00 2.9346072955e+00 
33500 5.6778788265e+00 1.2296173602e-04 1.6942922019e+00 -2.9346001766e+00 1.6942922019e+00 2.9346001766e+00 
33600 5.6778789571e+00 1.0709577463e-04 1.6942885732e+00 -2.9345938915e+00 1.6942885732e+00 2.9345938915e+00 
33700 5.6778790845e+00 9.1689724196e-05 1.6942854127e+00 -2.9345884173e+00 1.6942854127e+00 2.9345884173e+00 
33800 5.6778792087e+00 7.6754882386e-05 1.6942827069e+00 -2.9345837307e+00 1.6942827069e+00 2.9345837307e+00 
33900 5.6778793297e+00 6.2301341347e-05 1.6942804417e+00 -2.9345798074e+00 1.6942804417e+00 2.9345798074e+00 
34000 5.6778794475e+00 5.0383202743e-05 1.6942804417e+00 -2.9345798074e+00 1.6942804417e+00 2.9345798074e+00 
34100 5.6778795619e+00 3.8519012379e-05 1.6942804417e+00 -2.9345798074e+00 1.6942804417e+00 2.9345798074e+00 
34200 5.6778796730e+00 2.6729119783e-05 1.6942804417e+00 -2.9345798074e+00 1.6942804417e+00 2.9345798074e+00 
34300 5.6778797808e+00 1.5032914285e-05 1.6942804417e+00 -2.9345798074e+00 1.6942804417e+00 2.9345798074e+00 
34400 5.6778798853e+00 3.4488339253e-06 1.6942804417e+00 -2.9345798074e+00 1.6942804417e+00 2.9345798074e+00 
34500 5.6778799866e+00 -8.0056245744e-06 1.6942804417e+00 -2.9345798074e+00 1.6942804417e+00 2.9345798074e+00 
34600 5.6778800848e+00 -1.9313894880e-05 1.6942804417e+00 -2.9345798074e+00 1.6942804417e+00 2.9345798074e+00 
34700 5.6778801799e+00 -3.0460329164e-05 1.6942804417e+00 -2.9345798074e+00 1.6942804417e+00 2.9345798074e+00 
34800 5.6778802720e+00 -4.1430185343e-05 1.6942804417e+00 -2.9345798074e+00 1.6942804417e+00 2.9345798074e+00 
34900 5.6778803611e+00 -5.2209613488e-05 1.6942804417e+00 -2.9345798074e+00 1.6942804417e+00 2.9345798074e+00 
35000 5.6778804475e+00 -6.2785641449e-05 1.6942804417e+00 -2.9345798074e+00 1.6942804417e+00 2.9345798074e+00 
35100 5.6778805310e+00 -7.3146159739e-05 1.6942804417e+00 -2.9345798074e+00 1.6942804417e+00 2.9345798074e+00 
35200 5.6778806117e+00 -8.0879304781e-05 1.6942826004e+00 -2.9345835462e+00 1.6942826004e+00 2.9345835462e+00 
35300 5.6778806897e+00 -8.8104589216e-05 1.6942849872e+00 -2.9345876803e+00 1.6942849872e+00 2.9345876803e+00 
35400 5.6778807651e+00 -9.4826578814e-05 1.6942875872e+00 -2.9345921837e+00 1.6942875872e+00 2.9345921837e+00 
35500 5.6778808380e+00 -1.0105058384e-04 1.6942903857e+00 -2.9345970307e+00 1.6942903857e+00 2.9345970307e+00 
35600 5.6778809085e+00 -1.0678262487e-04 1.6942933678e+00 -2.9346021959e+00 1.6942933678e+00 2.9346021959e+00 
35700 5.6778809768e+00 -1.1202939854e-04 1.6942965190e+00 -2.9346076540e+00 1.6942965190e+00 2.9346076540e+00 
35800 5.6778810428e+00 -1.1679824328e-04 1.6942998251e+00 -2.9346133803e+00 1.6942998251e+00 2.9346133803e+00 
35900 5.6778811068e+00 -1.2109710495e-04 1.6943032719e+00 -2.9346193503e+00 1.6943032719e+00 2.9346193503e+00 
36000 5.6778811688e+00 -1.2493450267e-04 1.6943068455e+00 -2.9346255401e+00 1.6943068455e+00 2.9346255401e+00 
36100 5.6778812289e+00 -1.2831949475e-04 1.6943105324e+00 -2.9346319260e+00 1.6943105324e+00 2.9346319260e+00 
36200 5.6778812872e+00 -1.3126164474e-04 1.6943143192e+00 -2.9346384849e+00 1.6943143192e+00 2.9346384849e+00 
36300 5.6778813438e+00 -1.3377098782e-04 1.6943181928e+00 -2.9346451941e+00 1.6943181928e+00 2.9346451941e+00 
36400 5.6778813988e+00 -1.3585799737e-04 1.6943221404e+00 -2.9346520316e+00 1.6943221404e+00 2.9346520316e+00 
36500 5.6778814524e+00 -1.3753355197e-04 1.6943261497e+00 -2.9346589758e+00 1.6943261497e+00 2.9346589758e+00 
36600 5.6778815045e+00 -1.3880890271e-04 1.6943302083e+00 -2.9346660056e+00 1.6943302083e+00 2.9346660056e+00 
36700 5.6778815553e+00 -1.3969564097e-04 1.6943343046e+00 -2.9346731005e+00 1.6943343046e+00 2.9346731005e+00 
36800 5.6778816049e+00 -1.4020566662e-04 1.6943384270e+00 -2.9346802408e+00 1.6943384270e+00 2.9346802408e+00 
36900 5.6778816533e+00 -1.4035115680e-04 1.6943425645e+00 -2.9346874071e+00 1.6943425645e+00 2.9346874071e+00 
37000 5.6778817006e+00 -1.4014453513e-04 1.6943467063e+00 -2.9346945809e+00 1.6943467063e+00 2.9346945809e+00 
37100 5.6778817469e+00 -1.3959844163e-04 1.6943508419e+00 -2.9347017440e+00 1.6943508419e+00 2.9347017440e+00 
37200 5.6778817923e+00 -1.3872570313e-04 1.6943549614e+00 -2.9347088793e+00 1.6943549614e+00 2.9347088793e+00 
37300 5.6778818369e+00 -1.3753930440e-04 1.6943590552e+00 -2.9347159699e+00 1.6943590552e+00 2.9347159699e+00 
37400 5.6778818806e+00 -1.3605235995e-04 1.6943631139e+00 -2.9347229998e+00 1.6943631139e+00 2.9347229998e+00 
37500 5.6778819236e+00 -1.3427808647e-04 1.6943671288e+00 -2.9347299537e+00 1.6943671288e+00 2.9347299537e+00 
37600 5.6778819658e+00 -1.3222977602e-04 1.6943710913e+00 -2.9347368170e+00 1.6943710913e+00 2.9347368170e+00 
37700 5.6778820074e+00 -1.2992077003e-04 1.6943749933e+00 -2.9347435755e+00 1.6943749933e+00 2.9347435755e+00 
37800 5.6778820485e+00 -1.2736443396e-04 1.6943788272e+00 -2.9347502160e+00 1.6943788272e+00 2.9347502160e+00 
37900 5.6778820889e+00 -1.2457413285e-04 1.6943825856e+00 -2.9347567258e+00 1.6943825856e+00 2.9347567258e+00 
38000 5.6778821288e+00 -1.2156320755e-04 1.6943862617e+00 -2.9347630930e+00 1.6943862617e+00 2.9347630930e+00 
38100 5.6778821683e+00 -1.1834495190e-04 1.6943898490e+00 -2.9347693062e+00 1.6943898490e+00 2.9347693062e+00 
38200 5.6778822072e+00 -1.1493259069e-04 1.6943933412e+00 -2.9347753550e+00 1.6943933412e+00 2.9347753550e+00 
38300 5.6778822457e+00 -1.1133925837e-04 1.6943967328e+00 -2.9347812294e+00 1.6943967328e+00 2.9347812294e+00 
38400 5.6778822838e+00 -1.0757797882e-04 1.6944000183e+00 -2.9347869200e+00 1.6944000183e+00 2.9347869200e+00 
38500 5.6778823215e+00 -1.0366164573e-04 1.6944031928e+00 -2.9347924185e+00 1.6944031928e+00 2.9347924185e+00 
38600 5.6778823588e+00 -9.9603004070e-05 1.6944062518e+00 -2.9347977167e+00 1.6944062518e+00 2.9347977167e+00 
38700 5.6778823957e+00 -9.5414632296e-05 1.6944091909e+00 -2.9348028075e+00 1.6944091909e+00 2.9348028075e+00 
38800 5.6778824323e+00 -9.1108925460e-05 1.6944120065e+00 -2.9348076842e+00 1.6944120065e+00 2.9348076842e+00 
38900 5.6778824685e+00 -8.6698079212e-05 1.6944146950e+00 -2.9348123409e+00 1.6944146950e+00 2.9348123409e+00 
39000 5.6778825044e+00 -8.2194074676e-05 1.6944172534e+00 -2.9348167721e+00 1.6944172534e+00 2.9348167721e+00 
39100 5.6778825399e+00 -7.7608664170e-05 1.6944196788e+00 -2.9348209730e+00 1.6944196788e+00 2.9348209730e+00 
39200 5.6778825750e+00 -7.2953357828e-05 1.6944219689e+00 -2.9348249397e+00 1.6944219689e+00 2.9348249397e+00 
39300 5.6778826098e+00 -6.8239411073e-05 1.6944241217e+00 -2.9348286683e+00 1.6944241217e+00 2.9348286683e+00 
39400 5.6778826444e+00 -6.5715965032e-05 1.6944241217e+00 -2.9348286683e+00 1.6944241217e+00 2.9348286683e+00 
39500 5.6778826786e+00 -6.3015236874e-05 1.6944241217e+00 -2.9348286683e+00 1.6944241217e+00 2.9348286683e+00 
39600 5.6778827124e+00 -6.0145992075e-05 1.6944241217e+00 -2.9348286683e+00 1.6944241217e+00 2.9348286683e+00 
39700 5.6778827458e+00 -5.7116934035e-05 1.6944241217e+00 -2.9348286683e+00 1.6944241217e+00 2.9348286683e+00 
39800 5.6778827787e+00 -5.3936693212e-05 1.6944241217e+00 -2.9348286683e+00 1.6944241217e+00 2.9348286683e+00 
39900 5.6778828113e+00 -5.0613816781e-05 1.6944241217e+00 -2.9348286683e+00 1.6944241217e+00 2.9348286683e+00 
40000 5.6778828435e+00 -4.7156758795e-05 1.6944241217e+00 -2.9348286683e+00 1.6944241217e+00 2.9348286683e+00 
40100 5.6778828752e+00 -4.3573870857e-05 1.6944241217e+00 -2.9348286683e+00 1.6944241217e+00 2.9348286683e+00 
40200 5.6778829065e+00 -3.9873393293e-05 1.6944241217e+00 -2.9348286683e+00 1.6944241217e+00 2.9348286683e+00 
40300 5.6778829373e+00 -3.6063446816e-05 1.6944241217e+00 -2.9348286683e+00 1.6944241217e+00 2.9348286683e+00 
40400 5.6778829677e+00 -3.2152024687e-05 1.6944241217e+00 -2.9348286683e+00 1.6944241217e+00 2.9348286683e+00 
40500 5.6778829977e+00 -2.8146985357e-05 1.6944241217e+00 -2.9348286683e+00 1.6944241217e+00 2.9348286683e+00 
40600 5.6778830272e+00 -2.4056045587e-05 1.6944241217e+00 -2.9348286683e+00 1.6944241217e+00 2.9348286683e+00 
40700 5.6778830563e+00 -1.9886774032e-05 1.6944241217e+00 -2.9348286683e+00 1.6944241217e+00 2.9348286683e+00 
40800 5.6778830849e+00 -1.5646585298e-05 1.6944241217e+00 -2.9348286683e+00 1.6944241217e+00 2.9348286683e+00 
40900 5.6778831130e+00 -1.1342734450e-05 1.6944241217e+00 -2.9348286683e+00 1.6944241217e+00 2.9348286683e+00 
41000 5.6778831407e+00 -6.9823119584e-06 1.6944241217e+00 -2.9348286683e+00 1.6944241217e+00 2.9348286683e+00 
41100 5.6778831679e+00 -2.5722390874e-06 1.6944241217e+00 -2.9348286683e+00 1.6944241217e+00 2.9348286683e+00 
41200 5.6778831946e+00 1.8807362827e-06 1.6944241217e+00 -2.9348286683e+00 1.6944241217e+00 2.9348286683e+00 
41300 5.6778832209e+00 6.3700434265e-06 1.6944241217e+00 -2.9348286683e+00 1.6944241217e+00 2.9348286683e+00 
41400 5.6778832467e+00 1.0889292123e-05 1.6944241217e+00 -2.9348286683e+00 1.6944241217e+00 2.9348286683e+00 
41500 5.6778832721e+00 1.5432275620e-05 1.6944241217e+00 -2.9348286683e+00 1.6944241217e+00 2.9348286683e+00 
41600 5.6778832970e+00 1.9992973196e-05 1.6944241217e+00 -2.9348286683e+00 1.6944241217e+00 2.9348286683e+00 
41700 5.6778833214e+00 2.4565552361e-05 1.6944241217e+00 -2.9348286683e+00 1.6944241217e+00 2.9348286683e+00 
41800 5.6778833454e+00 2.9144370671e-05 1.6944241217e+00 -2.9348286683e+00 1.6944241217e+00 2.9348286683e+00 
41900 5.6778833689e+00 3.3723977196e-05 1.6944241217e+00 -2.9348286683e+00 1.6944241217e+00 2.9348286683e+00 
42000 5.6778833920e+00 3.8299113651e-05 1.6944241217e+00 -2.9348286683e+00 1.6944241217e+00 2.9348286683e+00 
42100 5.6778834146e+00 4.2864715168e-05 1.6944241217e+00 -2.9348286683e+00 1.6944241217e+00 2.9348286683e+00 
42200 5.6778834368e+00 4.7415910774e-05 1.6944241217e+00 -2.9348286683e+00 1.6944241217e+00 2.9348286683e+00 
42300 5.6778834585e+00 5.1948023529e-05 1.6944241217e+00 -2.9348286683e+00 1.6944241217e+00 2.9348286683e+00 
42400 5.6778834799e+00 5.6456570391e-05 1.6944241217e+00 -2.9348286683e+00 1.6944241217e+00 2.9348286683e+00 
42500 5.6778835007e+00 6.0937261765e-05 1.6944241217e+00 -2.9348286683e+00 1.6944241217e+00 2.9348286683e+00 
42600 5.6778835212e+00 6.5386000789e-05 1.6944241217e+00 -2.9348286683e+00 1.6944241217e+00 2.9348286683e+00 
42700 5.6778835413e+00 6.9798882358e-05 1.6944241217e+00 -2.9348286683e+00 1.6944241217e+00 2.9348286683e+00 
42800 5.6778835609e+00 7.4172191869e-05 1.6944241217e+00 -2.9348286683e+00 1.6944241217e+00 2.9348286683e+00 
42900 5.6778835800e+00 7.6069485874e-05 1.6944219330e+00 -2.9348248774e+00 1.6944219330e+00 2.9348248774e+00 
43000 5.6778835986e+00 7.7840862878e-05 1.6944196883e+00 -2.9348209894e+00 1.6944196883e+00 2.9348209894e+00 
43100 5.6778836168e+00 7.9486148279e-05 1.6944173913e+00 -2.9348170109e+00 1.6944173913e+00 2.9348170109e+00 
43200 5.6778836346e+00 8.1005425235e-05 1.6944150458e+00 -2.9348129484e+00 1.6944150458e+00 2.9348129484e+00 
43300 5.6778836520e+00 8.2399025059e-05 1.6944126554e+00 -2.9348088081e+00 1.6944126554e+00 2.9348088081e+00 
43400 5.6778836690e+00 8.3667517513e-05 1.6944102239e+00 -2.9348045967e+00 1.6944102239e+00 2.9348045967e+00 
43500 5.6778836856e+00 8.4811701077e-05 1.6944077550e+00 -2.9348003204e+00 1.6944077550e+00 2.9348003204e+00 
43600 5.6778837019e+00 8.5832593138e-05 1.6944052523e+00 -2.9347959856e+00 1.6944052523e+00 2.9347959856e+00 
43700 5.6778837178e+00 8.6731420156e-05 1.6944027195e+00 -2.9347915986e+00 1.6944027195e+00 2.9347915986e+00 
43800 5.6778837334e+00 8.7509607832e-05 1.6944001601e+00 -2.9347871657e+00 1.6944001601e+00 2.9347871657e+00 
43900 5.6778837486e+00 8.8168771273e-05 1.6943975778e+00 -2.9347826930e+00 1.6943975778e+00 2.9347826930e+00 
44000 5.6778837635e+00 8.8710705153e-05 1.6943949760e+00 -2.9347781866e+00 1.6943949760e+00 2.9347781866e+00 
44100 5.6778837781e+00 8.9137373954e-05 1.6943923583e+00 -2.9347736524e+00 1.6943923583e+00 2.9347736524e+00 
44200 5.6778837924e+00 8.9450902218e-05 1.6943897279e+00 -2.9347690965e+00 1.6943897279e+00 2.9347690965e+00 
44300 5.6778838064e+00 8.9653564884e-05 1.6943870883e+00 -2.9347645246e+00 1.6943870883e+00 2.9347645246e+00 
44400 5.6778838201e+00 8.9747777690e-05 1.6943844427e+00 -2.9347599423e+00 1.6943844427e+00 2.9347599423e+00 
44500 5.6778838335e+00 8.9736087677e-05 1.6943817943e+00 -2.9347553551e+00 1.6943817943e+00 2.9347553551e+00 
44600 5.6778838467e+00 8.9621163798e-05 1.6943791462e+00 -2.9347507686e+00 1.6943791462e+00 2.9347507686e+00 
44700 5.6778838596e+00 8.9405787619e-05 1.6943765016e+00 -2.9347461879e+00 1.6943765016e+00 2.9347461879e+00 
44800 5.6778838722e+00 8.9092844189e-05 1.6943738633e+00 -2.9347416182e+00 1.6943738633e+00 2.9347416182e+00 
44900 5.6778838846e+00 8.8685313003e-05 1.6943712342e+00 -2.9347370645e+00 1.6943712342e+00 2.9347370645e+00 
45000 5.6778838968e+00 8.8186259158e-05 1.6943686171e+00 -2.9347325316e+00 1.6943686171e+00 2.9347325316e+00 
45100 5.6778839088e+00 8.7598824630e-05 1.6943660148e+00 -2.9347280242e+00 1.6943660148e+00 2.9347280242e+00 
45200 5.6778839205e+00 8.6926219742e-05 1.6943634298e+00 -2.9347235469e+00 1.6943634298e+00 2.9347235469e+00 
45300 5.6778839320e+00 8.6171714807e-05 1.6943608646e+00 -2.9347191039e+00 1.6943608646e+00 2.9347191039e+00 
45400 5.6778839434e+00 8.5338631946e-05 1.6943583217e+00 -2.9347146995e+00 1.6943583217e+00 2.9347146995e+00 
45500 5.6778839545e+00 8.4430337107e-05 1.6943558034e+00 -2.9347103376e+00 1.6943558034e+00 2.9347103376e+00 
45600 5.6778839655e+00 8.3450232285e-05 1.6943533119e+00 -2.9347060222e+00 1.6943533119e+00 2.9347060222e+00 
45700 5.6778839762e+00 8.2401747943e-05 1.6943508493e+00 -2.9347017568e+00 1.6943508493e+00 2.9347017568e+00 
45800 5.6778839868e+00 8.1288335648e-05 1.6943484176e+00 -2.9346975451e+00 1.6943484176e+00 2.9346975451e+00 
45900 5.6778839972e+00 8.0113460928e-05 1.6943460188e+00 -2.9346933902e+00 1.6943460188e+00 2.9346933902e+00 
46000 5.6778840075e+00 7.8880596350e-05 1.6943436547e+00 -2.9346892954e+00 1.6943436547e+00 2.9346892954e+00 
46100 5.6778840176e+00 7.7593214816e-05 1.6943413269e+00 -2.9346852636e+00 1.6943413269e+00 2.9346852636e+00 
46200 5.6778840276e+00 7.6254783106e-05 1.6943390372e+00 -2.9346812976e+00 1.6943390372e+00 2.9346812976e+00 
46300 5.6778840373e+00 7.4868755650e-05 1.6943367869e+00 -2.9346774000e+00 1.6943367869e+00 2.9346774000e+00 
46400 5.6778840470e+00 7.3438568526e-05 1.6943345775e+00 -2.9346735732e+00 1.6943345775e+00 2.9346735732e+00 
46500 5.6778840565e+00 7.1967633716e-05 1.6943324103e+00 -2.9346698196e+00 1.6943324103e+00 2.9346698196e+00 
46600 5.6778840659e+00 7.0459333587e-05 1.6943302865e+00 -2.9346661411e+00 1.6943302865e+00 2.9346661411e+00 
46700 5.6778840753e+00 7.1228639594e-05 1.6943302865e+00 -2.9346661411e+00 1.6943302865e+00 2.9346661411e+00 
46800 5.6778840843e+00 6.9596144937e-05 1.6943281846e+00 -2.9346625004e+00 1.6943281846e+00 2.9346625004e+00 
46900 5.6778840935e+00 7.0221599126e-05 1.6943281846e+00 -2.9346625004e+00 1.6943281846e+00 2.9346625004e+00 
47000 5.6778841025e+00 7.0786554325e-05 1.6943281846e+00 -2.9346625004e+00 1.6943281846e+00 2.9346625004e+00 
47100 5.6778841111e+00 6.8971237163e-05 1.6943260956e+00 -2.9346588822e+00 1.6943260956e+00 2.9346588822e+00 
47200 5.6778841199e+00 6.9406484903e-05 1.6943260956e+00 -2.9346588822e+00 1.6943260956e+00 2.9346588822e+00 
47300 5.6778841284e+00 6.9788233462e-05 1.6943260956e+00 -2.9346588822e+00 1.6943260956e+00 2.9346588822e+00 
47400 5.6778841369e+00 7.0119038766e-05 1.6943260956e+00 -2.9346588822e+00 1.6943260956e+00 2.9346588822e+00 
47500 5.6778841452e+00 7.0401422378e-05 1.6943260956e+00 -2.9346588822e+00 1.6943260956e+00 2.9346588822e+00 
47600 5.6778841534e+00 7.0637869305e-05 1.6943260956e+00 -2.9346588822e+00 1.6943260956e+00 2.9346588822e+00 
47700 5.6778841615e+00 7.0830825947e-05 1.6943260956e+00 -2.9346588822e+00 1.6943260956e+00 2.9346588822e+00 
47800 5.6778841693e+00 6.8658898324e-05 1.6943240054e+00 -2.9346552619e+00 1.6943240054e+00 2.9346552619e+00 
47900 5.6778841771e+00 6.8755598744e-05 1.6943240054e+00 -2.9346552619e+00 1.6943240054e+00 2.9346552619e+00 
48000 5.6778841848e+00 6.8815220213e-05 1.6943240054e+00 -2.9346552619e+00 1.6943240054e+00 2.9346552619e+00 
48100 5.6778841924e+00 6.8840091448e-05 1.6943240054e+00 -2.9346552619e+00 1.6943240054e+00 2.9346552619e+00 
48200 5.6778841999e+00 6.8832492623e-05 1.6943240054e+00 -2.9346552619e+00 1.6943240054e+00 2.9346552619e+00 
48300 5.6778842072e+00 6.8794654022e-05 1.6943240054e+00 -2.9346552619e+00 1.6943240054e+00 2.9346552619e+00 
48400 5.6778842144e+00 6.8728754814e-05 1.6943240054e+00 -2.9346552619e+00 1.6943240054e+00 2.9346552619e+00 
48500 5.6778842216e+00 6.8636921924e-05 1.6943240054e+00 -2.9346552619e+00 1.6943240054e+00 2.9346552619e+00 
48600 5.6778842286e+00 6.8521229035e-05 1.6943240054e+00 -2.9346552619e+00 1.6943240054e+00 2.9346552619e+00 
48700 5.6778842354e+00 6.8383695694e-05 1.6943240054e+00 -2.9346552619e+00 1.6943240054e+00 2.9346552619e+00 
48800 5.6778842422e+00 6.8226286516e-05 1.6943240054e+00 -2.9346552619e+00 1.6943240054e+00 2.9346552619e+00 
48900 5.6778842489e+00 6.8050910507e-05 1.6943240054e+00 -2.9346552619e+00 1.6943240054e+00 2.9346552619e+00 
49000 5.6778842554e+00 6.7859420485e-05 1.6943240054e+00 -2.9346552619e+00 1.6943240054e+00 2.9346552619e+00 
49100 5.6778842618e+00 6.7653612587e-05 1.6943240054e+00 -2.9346552619e+00 1.6943240054e+00 2.9346552619e+00 
49200 5.6778842682e+00 6.7435225897e-05 1.6943240054e+00 -2.9346552619e+00 1.6943240054e+00 2.9346552619e+00 
49300 5.6778842744e+00 6.7205942149e-05 1.6943240054e+00 -2.9346552619e+00 1.6943240054e+00 2.9346552619e+00 
49400 5.6778842805e+00 6.6967385526e-05 1.6943240054e+00 -2.9346552619e+00 1.6943240054e+00 2.9346552619e+00 
49500 5.6778842865e+00 6.6721122552e-05 1.6943240054e+00 -2.9346552619e+00 1.6943240054e+00 2.9346552619e+00 
49600 5.6778842925e+00 6.6468662061e-05 1.6943240054e+00 -2.9346552619e+00 1.6943240054e+00 2.9346552619e+00 
49700 5.6778842983e+00 6.6211455262e-05 1.6943240054e+00 -2.9346552619e+00 1.6943240054e+00 2.9346552619e+00 
49800 5.6778843040e+00 6.5950895865e-05 1.6943240054e+00 -2.9346552619e+00 1.6943240054e+00 2.9346552619e+00 
49900 5.6778843096e+00 6.5688320298e-05 1.6943240054e+00 -2.9346552619e+00 1.6943240054e+00 2.9346552619e+00 
50000 5.6778843151e+00 6.5425007997e-05 1.6943240054e+00 -2.9346552619e+00 1.6943240054e+00 2.9346552619e+00 
50100 5.6778843205e+00 6.5162181754e-05 1.6943240054e+00 -2.9346552619e+00 1.6943240054e+00 2.9346552619e+00 
50200 5.6778843259e+00 6.4901008152e-05 1.6943240054e+00 -2.9346552619e+00 1.6943240054e+00 2.9346552619e+00 
50300 5.6778843311e+00 6.4642598046e-05 1.6943240054e+00 -2.9346552619e+00 1.6943240054e+00 2.9346552619e+00 
50400 5.6778843363e+00 6.4388007118e-05 1.6943240054e+00 -2.9346552619e+00 1.6943240054e+00 2.9346552619e+00 
50500 5.6778843413e+00 6.4138236488e-05 1.6943240054e+00 -2.9346552619e+00 1.6943240054e+00 2.9346552619e+00 
50600 5.6778843463e+00 6.3894233378e-05 1.6943240054e+00 -2.9346552619e+00 1.6943240054e+00 2.9346552619e+00 
50700 5.6778843512e+00 6.3656891829e-05 1.6943240054e+00 -2.9346552619e+00 1.6943240054e+00 2.9346552619e+00 
50800 5.6778843560e+00 6.3427053479e-05 1.6943240054e+00 -2.9346552619e+00 1.6943240054e+00 2.9346552619e+00 
50900 5.6778843607e+00 6.3205508365e-05 1.6943240054e+00 -2.9346552619e+00 1.6943240054e+00 2.9346552619e+00 
51000 5.6778843654e+00 6.2992995798e-05 1.6943240054e+00 -2.9346552619e+00 1.6943240054e+00 2.9346552619e+00 
51100 5.6778843699e+00 6.2790205255e-05 1.6943240054e+00 -2.9346552619e+00 1.6943240054e+00 2.9346552619e+00 
51200 5.6778843744e+00 6.2597777329e-05 1.6943240054e+00 -2.9346552619e+00 1.6943240054e+00 2.9346552619e+00 
51300 5.6778843788e+00 6.2416304699e-05 1.6943240054e+00 -2.9346552619e+00 1.6943240054e+00 2.9346552619e+00 
51400 5.6778843831e+00 6.2246333140e-05 1.6943240054e+00 -2.9346552619e+00 1.6943240054e+00 2.9346552619e+00 
51500 5.6778843874e+00 6.2088362573e-05 1.6943240054e+00 -2.9346552619e+00 1.6943240054e+00 2.9346552619e+00 
51600 5.6778843916e+00 6.1942848126e-05 1.6943240054e+00 -2.9346552619e+00 1.6943240054e+00 2.9346552619e+00 
51700 5.6778843957e+00 6.1810201235e-05 1.6943240054e+00 -2.9346552619e+00 1.6943240054e+00 2.9346552619e+00 
51800 5.6778843998e+00 6.1690790757e-05 1.6943240054e+00 -2.9346552619e+00 1.6943240054e+00 2.9346552619e+00 
51900 5.6778844037e+00 6.1584944116e-05 1.6943240054e+00 -2.9346552619e+00 1.6943240054e+00 2.9346552619e+00 
52000 5.6778844077e+00 6.1492948453e-05 1.6943240054e+00 -2.9346552619e+00 1.6943240054e+00 2.9346552619e+00 
52100 5.6778844115e+00 6.1415051803e-05 1.6943240054e+00 -2.9346552619e+00 1.6943240054e+00 2.9346552619e+00 
52200 5.6778844153e+00 6.1351464281e-05 1.6943240054e+00 -2.9346552619e+00 1.6943240054e+00 2.9346552619e+00 
52300 5.6778844190e+00 6.1302359282e-05 1.6943240054e+00 -2.9346552619e+00 1.6943240054e+00 2.9346552619e+00 
52400 5.6778844227e+00 6.1267874685e-05 1.6943240054e+00 -2.9346552619e+00 1.6943240054e+00 2.9346552619e+00 
52500 5.6778844263e+00 6.1248114071e-05 1.6943240054e+00 -2.9346552619e+00 1.6943240054e+00 2.9346552619e+00 
52600 5.6778844298e+00 6.1243147941e-05 1.6943240054e+00 -2.9346552619e+00 1.6943240054e+00 2.9346552619e+00 
52700 5.6778844333e+00 6.1253014941e-05 1.6943240054e+00 -2.9346552619e+00 1.6943240054e+00 2.9346552619e+00 
52800 5.6778844367e+00 6.1277723083e-05 1.6943240054e+00 -2.9346552619e+00 1.6943240054e+00 2.9346552619e+00 
52900 5.6778844401e+00 6.1317250970e-05 1.6943240054e+00 -2.9346552619e+00 1.6943240054e+00 2.9346552619e+00 
53000 5.6778844434e+00 6.1371549019e-05 1.6943240054e+00 -2.9346552619e+00 1.6943240054e+00 2.9346552619e+00 
53100 5.6778844467e+00 6.1440540676e-05 1.6943240054e+00 -2.9346552619e+00 1.6943240054e+00 2.9346552619e+00 
53200 5.6778844499e+00 6.1524123628e-05 1.6943240054e+00 -2.9346552619e+00 1.6943240054e+00 2.9346552619e+00 
53300 5.6778844531e+00 6.1622171005e-05 1.6943240054e+00 -2.9346552619e+00 1.6943240054e+00 2.9346552619e+00 
53400 5.6778844562e+00 6.1734532581e-05 1.6943240054e+00 -2.9346552619e+00 1.6943240054e+00 2.9346552619e+00 
53500 5.6778844593e+00 6.1861035953e-05 1.6943240054e+00 -2.9346552619e+00 1.6943240054e+00 2.9346552619e+00 
53600 5.6778844623e+00 6.2001487718e-05 1.6943240054e+00 -2.9346552619e+00 1.6943240054e+00 2.9346552619e+00 
53700 5.6778844652e+00 6.2155674631e-05 1.6943240054e+00 -2.9346552619e+00 1.6943240054e+00 2.9346552619e+00 
53800 5.6778844682e+00 6.2323364751e-05 1.6943240054e+00 -2.9346552619e+00 1.6943240054e+00 2.9346552619e+00 
53900 5.6778844710e+00 6.2504308574e-05 1.6943240054e+00 -2.9346552619e+00 1.6943240054e+00 2.9346552619e+00 
54000 5.6778844739e+00 6.2698240146e-05 1.6943240054e+00 -2.9346552619e+00 1.6943240054e+00 2.9346552619e+00 
54100 5.6778844766e+00 6.2904878156e-05 1.6943240054e+00 -2.9346552619e+00 1.6943240054e+00 2.9346552619e+00 
54200 5.6778844794e+00 6.3123927023e-05 1.6943240054e+00 -2.9346552619e+00 1.6943240054e+00 2.9346552619e+00 
54300 5.6778844821e+00 6.3355077943e-05 1.6943240054e+00 -2.9346552619e+00 1.6943240054e+00 2.9346552619e+00 
54400 5.6778844848e+00 6.3598009937e-05 1.6943240054e+00 -2.9346552619e+00 1.6943240054e+00 2.9346552619e+00 
54500 5.6778844874e+00 6.3852390859e-05 1.6943240054e+00 -2.9346552619e+00 1.6943240054e+00 2.9346552619e+00 
54600 5.6778844899e+00 6.4117878400e-05 1.6943240054e+00 -2.9346552619e+00 1.6943240054e+00 2.9346552619e+00 
54700 5.6778844925e+00 6.4394121052e-05 1.6943240054e+00 -2.9346552619e+00 1.6943240054e+00 2.9346552619e+00 
54800 5.6778844950e+00 6.4680759066e-05 1.6943240054e+00 -2.9346552619e+00 1.6943240054e+00 2.9346552619e+00 
54900 5.6778844974e+00 6.4977425368e-05 1.6943240054e+00 -2.9346552619e+00 1.6943240054e+00 2.9346552619e+00 
55000 5.6778844999e+00 6.5283746468e-05 1.6943240054e+00 -2.9346552619e+00 1.6943240054e+00 2.9346552619e+00 
55100 5.6778845023e+00 6.5599343329e-05 1.6943240054e+00 -2.9346552619e+00 1.6943240054e+00 2.9346552619e+00 
55200 5.6778845046e+00 6.5923832224e-05 1.6943240054e+00 -2.9346552619e+00 1.6943240054e+00 2.9346552619e+00 
55300 5.6778845069e+00 6.6256825559e-05 1.6943240054e+00 -2.9346552619e+00 1.6943240054e+00 2.9346552619e+00 
55400 5.6778845092e+00 6.6597932672e-05 1.6943240054e+00 -2.9346552619e+00 1.6943240054e+00 2.9346552619e+00 
55500 5.6778845114e+00 6.6946760611e-05 1.6943240054e+00 -2.9346552619e+00 1.6943240054e+00 2.9346552619e+00 
55600 5.6778845136e+00 6.7302914873e-05 1.6943240054e+00 -2.9346552619e+00 1.6943240054e+00 2.9346552619e+00 
55700 5.6778845158e+00 6.7666000135e-05 1.6943240054e+00 -2.9346552619e+00 1.6943240054e+00 2.9346552619e+00 
55800 5.6778845180e+00 6.8035620937e-05 1.6943240054e+00 -2.9346552619e+00 1.6943240054e+00 2.9346552619e+00 
55900 5.6778845201e+00 6.8411382365e-05 1.6943240054e+00 -2.9346552619e+00 1.6943240054e+00 2.9346552619e+00 
56000 5.6778845221e+00 6.8792890674e-05 1.6943240054e+00 -2.9346552619e+00 1.6943240054e+00 2.9346552619e+00 
56100 5.6778845242e+00 6.9179753916e-05 1.6943240054e+00 -2.9346552619e+00 1.6943240054e+00 2.9346552619e+00 
56200 5.6778845262e+00 6.9571582524e-05 1.6943240054e+00 -2.9346552619e+00 1.6943240054e+00 2.9346552619e+00 
56300 5.6778845282e+00 6.9967989873e-05 1.6943240054e+00 -2.9346552619e+00 1.6943240054e+00 2.9346552619e+00 
56400 5.6778845301e+00 7.0368592812e-05 1.6943240054e+00 -2.9346552619e+00 1.6943240054e+00 2.9346552619e+00 
56500 5.6778845321e+00 7.0773012182e-05 1.6943240054e+00 -2.9346552619e+00 1.6943240054e+00 2.9346552619e+00 
56600 5.6778845338e+00 6.8859096911e-05 1.6943219169e+00 -2.9346516444e+00 1.6943219169e+00 2.9346516444e+00 
56700 5.6778845356e+00 6.9253584540e-05 1.6943219169e+00 -2.9346516444e+00 1.6943219169e+00 2.9346516444e+00 
56800 5.6778845375e+00 6.9650103450e-05 1.6943219169e+00 -2.9346516444e+00 1.6943219169e+00 2.9346516444e+00 
56900 5.6778845393e+00 7.0048349839e-05 1.6943219169e+00 -2.9346516444e+00 1.6943219169e+00 2.9346516444e+00 
57000 5.6778845411e+00 7.0448024592e-05 1.6943219169e+00 -2.9346516444e+00 1.6943219169e+00 2.9346516444e+00 
57100 5.6778845428e+00 7.0848833642e-05 1.6943219169e+00 -2.9346516444e+00 1.6943219169e+00 2.9346516444e+00 
57200 5.6778845444e+00 6.8926213442e-05 1.6943198261e+00 -2.9346480231e+00 1.6943198261e+00 2.9346480231e+00 
57300 5.6778845461e+00 6.9311967393e-05 1.6943198261e+00 -2.9346480231e+00 1.6943198261e+00 2.9346480231e+00 
57400 5.6778845477e+00 6.9697329793e-05 1.6943198261e+00 -2.9346480231e+00 1.6943198261e+00 2.9346480231e+00 
57500 5.6778845494e+00 7.0082084632e-05 1.6943198261e+00 -2.9346480231e+00 1.6943198261e+00 2.9346480231e+00 
57600 5.6778845510e+00 7.0466020896e-05 1.6943198261e+00 -2.9346480231e+00 1.6943198261e+00 2.9346480231e+00 
57700 5.6778845526e+00 7.0848932760e-05 1.6943198261e+00 -2.9346480231e+00 1.6943198261e+00 2.9346480231e+00 
57800 5.6778845540e+00 6.8906330829e-05 1.6943177353e+00 -2.9346444018e+00 1.6943177353e+00 2.9346444018e+00 
57900 5.6778845555e+00 6.9270134808e-05 1.6943177353e+00 -2.9346444018e+00 1.6943177353e+00 2.9346444018e+00 
58000 5.6778845570e+00 6.9631652960e-05 1.6943177353e+00 -2.9346444018e+00 1.6943177353e+00 2.9346444018e+00 
58100 5.6778845585e+00 6.9990756881e-05 1.6943177353e+00 -2.9346444018e+00 1.6943177353e+00 2.9346444018e+00 
58200 5.6778845600e+00 7.0347322691e-05 1.6943177353e+00 -2.9346444018e+00 1.6943177353e+00 2.9346444018e+00 
58300 5.6778845615e+00 7.0701231136e-05 1.6943177353e+00 -2.9346444018e+00 1.6943177353e+00 2.9346444018e+00 
58400 5.6778845629e+00 7.1052367675e-05 1.6943177353e+00 -2.9346444018e+00 1.6943177353e+00 2.9346444018e+00 
58500 5.6778845641e+00 6.9069648926e-05 1.6943156385e+00 -2.9346407700e+00 1.6943156385e+00 2.9346407700e+00 
58600 5.6778845655e+00 6.9398406491e-05 1.6943156385e+00 -2.9346407700e+00 1.6943156385e+00 2.9346407700e+00 
58700 5.6778845669e+00 6.9723398593e-05 1.6943156385e+00 -2.9346407700e+00 1.6943156385e+00 2.9346407700e+00 
58800 5.6778845682e+00 7.0044585207e-05 1.6943156385e+00 -2.9346407700e+00 1.6943156385e+00 2.9346407700e+00 
58900 5.6778845695e+00 7.0361929810e-05 1.6943156385e+00 -2.9346407700e+00 1.6943156385e+00 2.9346407700e+00 
59000 5.6778845708e+00 7.0675399383e-05 1.6943156385e+00 -2.9346407700e+00 1.6943156385e+00 2.9346407700e+00 
59100 5.6778845721e+00 7.0984964420e-05 1.6943156385e+00 -2.9346407700e+00 1.6943156385e+00 2.9346407700e+00 
59200 5.6778845732e+00 6.8961826417e-05 1.6943135437e+00 -2.9346371417e+00 1.6943135437e+00 2.9346371417e+00 
59300 5.6778845745e+00 6.9247012676e-05 1.6943135437e+00 -2.9346371417e+00 1.6943135437e+00 2.9346371417e+00 
59400 5.6778845757e+00 6.9527548599e-05 1.6943135437e+00 -2.9346371417e+00 1.6943135437e+00 2.9346371417e+00 
59500 5.6778845769e+00 6.9803473547e-05 1.6943135437e+00 -2.9346371417e+00 1.6943135437e+00 2.9346371417e+00 
59600 5.6778845781e+00 7.0074828818e-05 1.6943135437e+00 -2.9346371417e+00 1.6943135437e+00 2.9346371417e+00 
59700 5.6778845792e+00 7.0341657593e-05 1.6943135437e+00 -2.9346371417e+00 1.6943135437e+00 2.9346371417e+00 
59800 5.6778845804e+00 7.0604004882e-05 1.6943135437e+00 -2.9346371417e+00 1.6943135437e+00 2.9346371417e+00 
59900 5.6778845815e+00 7.0861917458e-05 1.6943135437e+00 -2.9346371417e+00 1.6943135437e+00 2.9346371417e+00 
60000 5.6778845825e+00 6.8790698684e-05 1.6943114526e+00 -2.9346335197e+00 1.6943114526e+00 2.9346335197e+00 
60100 5.6778845836e+00 6.9023422251e-05 1.6943114526e+00 -2.9346335197e+00 1.6943114526e+00 2.9346335197e+00 
60200 5.6778845846e+00 6.9251184415e-05 1.6943114526e+00 -2.9346335197e+00 1.6943114526e+00 2.9346335197e+00 
60300 5.6778845857e+00 6.9474093282e-05 1.6943114526e+00 -2.9346335197e+00 1.6943114526e+00 2.9346335197e+00 
60400 5.6778845868e+00 6.9692256939e-05 1.6943114526e+00 -2.9346335197e+00 1.6943114526e+00 2.9346335197e+00 
60500 5.6778845878e+00 6.9905783368e-05 1.6943114526e+00 -2.9346335197e+00 1.6943114526e+00 2.9346335197e+00 
60600 5.6778845888e+00 7.0114780366e-05 1.6943114526e+00 -2.9346335197e+00 1.6943114526e+00 2.9346335197e+00 
60700 5.6778845898e+00 7.0319355457e-05 1.6943114526e+00 -2.9346335197e+00 1.6943114526e+00 2.9346335197e+00 
60800 5.6778845908e+00 7.0519615818e-05 1.6943114526e+00 -2.9346335197e+00 1.6943114526e+00 2.9346335197e+00 
60900 5.6778845918e+00 7.0715668195e-05 1.6943114526e+00 -2.9346335197e+00 1.6943114526e+00 2.9346335197e+00 
61000 5.6778845926e+00 6.8587663468e-05 1.6943093657e+00 -2.9346299052e+00 1.6943093657e+00 2.9346299052e+00 
61100 5.6778845935e+00 6.8759185192e-05 1.6943093657e+00 -2.9346299052e+00 1.6943093657e+00 2.9346299052e+00 
61200 5.6778845944e+00 6.8926140262e-05 1.6943093657e+00 -2.9346299052e+00 1.6943093657e+00 2.9346299052e+00 
61300 5.6778845953e+00 6.9088687735e-05 1.6943093657e+00 -2.9346299052e+00 1.6943093657e+00 2.9346299052e+00 
61400 5.6778845963e+00 6.9246984408e-05 1.6943093657e+00 -2.9346299052e+00 1.6943093657e+00 2.9346299052e+00 
61500 5.6778845971e+00 6.9401184746e-05 1.6943093657e+00 -2.9346299052e+00 1.6943093657e+00 2.9346299052e+00 
61600 5.6778845980e+00 6.9551440794e-05 1.6943093657e+00 -2.9346299052e+00 1.6943093657e+00 2.9346299052e+00 
61700 5.6778845989e+00 6.9697902112e-05 1.6943093657e+00 -2.9346299052e+00 1.6943093657e+00 2.9346299052e+00 
61800 5.6778845997e+00 6.9840715706e-05 1.6943093657e+00 -2.9346299052e+00 1.6943093657e+00 2.9346299052e+00 
61900 5.6778846006e+00 6.9980025960e-05 1.6943093657e+00 -2.9346299052e+00 1.6943093657e+00 2.9346299052e+00 
62000 5.6778846014e+00 7.0115974582e-05 1.6943093657e+00 -2.9346299052e+00 1.6943093657e+00 2.9346299052e+00 
62100 5.6778846022e+00 7.0248700542e-05 1.6943093657e+00 -2.9346299052e+00 1.6943093657e+00 2.9346299052e+00 
62200 5.6778846030e+00 7.0378340025e-05 1.6943093657e+00 -2.9346299052e+00 1.6943093657e+00 2.9346299052e+00 
62300 5.6778846038e+00 7.0505026382e-05 1.6943093657e+00 -2.9346299052e+00 1.6943093657e+00 2.9346299052e+00 
62400 5.6778846046e+00 7.0628890090e-05 1.6943093657e+00 -2.9346299052e+00 1.6943093657e+00 2.9346299052e+00 
62500 5.6778846053e+00 7.0750058709e-05 1.6943093657e+00 -2.9346299052e+00 1.6943093657e+00 2.9346299052e+00 
62600 5.6778846059e+00 6.8547567497e-05 1.6943072779e+00 -2.9346262889e+00 1.6943072779e+00 2.9346262889e+00 
62700 5.6778846067e+00 6.8647275690e-05 1.6943072779e+00 -2.9346262889e+00 1.6943072779e+00 2.9346262889e+00 
62800 5.6778846074e+00 6.8743977812e-05 1.6943072779e+00 -2.9346262889e+00 1.6943072779e+00 2.9346262889e+00 
62900 5.6778846081e+00 6.8837844269e-05 1.6943072779e+00 -2.9346262889e+00 1.6943072779e+00 2.9346262889e+00 
63000 5.6778846088e+00 6.8929040964e-05 1.6943072779e+00 -2.9346262889e+00 1.6943072779e+00 2.9346262889e+00 
63100 5.6778846095e+00 6.9017729269e-05 1.6943072779e+00 -2.9346262889e+00 1.6943072779e+00 2.9346262889e+00 
63200 5.6778846102e+00 6.9104066006e-05 1.6943072779e+00 -2.9346262889e+00 1.6943072779e+00 2.9346262889e+00 
63300 5.6778846109e+00 6.9188203428e-05 1.6943072779e+00 -2.9346262889e+00 1.6943072779e+00 2.9346262889e+00 
63400 5.6778846116e+00 6.9270289211e-05 1.6943072779e+00 -2.9346262889e+00 1.6943072779e+00 2.9346262889e+00 
63500 5.6778846122e+00 6.9350466452e-05 1.6943072779e+00 -2.9346262889e+00 1.6943072779e+00 2.9346262889e+00 
63600 5.6778846129e+00 6.9428873665e-05 1.6943072779e+00 -2.9346262889e+00 1.6943072779e+00 2.9346262889e+00 
63700 5.6778846135e+00 6.9505644793e-05 1.6943072779e+00 -2.9346262889e+00 1.6943072779e+00 2.9346262889e+00 
63800 5.6778846142e+00 6.9580909221e-05 1.6943072779e+00 -2.9346262889e+00 1.6943072779e+00 2.9346262889e+00 
63900 5.6778846148e+00 6.9654791786e-05 1.6943072779e+00 -2.9346262889e+00 1.6943072779e+00 2.9346262889e+00 
64000 5.6778846154e+00 6.9727412804e-05 1.6943072779e+00 -2.9346262889e+00 1.6943072779e+00 2.9346262889e+00 
64100 5.6778846160e+00 6.9798888093e-05 1.6943072779e+00 -2.9346262889e+00 1.6943072779e+00 2.9346262889e+00 
64200 5.6778846166e+00 6.9869329007e-05 1.6943072779e+00 -2.9346262889e+00 1.6943072779e+00 2.9346262889e+00 
64300 5.6778846172e+00 6.9938842467e-05 1.6943072779e+00 -2.9346262889e+00 1.6943072779e+00 2.9346262889e+00 
64400 5.6778846178e+00 7.0007531005e-05 1.6943072779e+00 -2.9346262889e+00 1.6943072779e+00 2.9346262889e+00 
64500 5.6778846183e+00 7.0075492802e-05 1.6943072779e+00 -2.9346262889e+00 1.6943072779e+00 2.9346262889e+00 
64600 5.6778846189e+00 7.0142821736e-05 1.6943072779e+00 -2.9346262889e+00 1.6943072779e+00 2.9346262889e+00 
64700 5.6778846194e+00 7.0209607434e-05 1.6943072779e+00 -2.9346262889e+00 1.6943072779e+00 2.9346262889e+00 
64800 5.6778846200e+00 7.0275935324e-05 1.6943072779e+00 -2.9346262889e+00 1.6943072779e+00 2.9346262889e+00 
64900 5.6778846205e+00 7.0341886692e-05 1.6943072779e+00 -2.9346262889e+00 1.6943072779e+00 2.9346262889e+00 
65000 5.6778846211e+00 7.0407538745e-05 1.6943072779e+00 -2.9346262889e+00 1.6943072779e+00 2.9346262889e+00 
65100 5.6778846216e+00 7.0472964670e-05 1.6943072779e+00 -2.9346262889e+00 1.6943072779e+00 2.9346262889e+00 
65200 5.6778846221e+00 7.0538233700e-05 1.6943072779e+00 -2.9346262889e+00 1.6943072779e+00 2.9346262889e+00 
65300 5.6778846226e+00 7.0603411185e-05 1.6943072779e+00 -2.9346262889e+00 1.6943072779e+00 2.9346262889e+00 
65400 5.6778846231e+00 7.0668558661e-05 1.6943072779e+00 -2.9346262889e+00 1.6943072779e+00 2.9346262889e+00 
65500 5.6778846236e+00 7.0733733921e-05 1.6943072779e+00 -2.9346262889e+00 1.6943072779e+00 2.9346262889e+00 
65600 5.6778846239e+00 6.8478435730e-05 1.6943051905e+00 -2.9346226734e+00 1.6943051905e+00 2.9346226734e+00 
65700 5.6778846244e+00 6.8527387469e-05 1.6943051905e+00 -2.9346226734e+00 1.6943051905e+00 2.9346226734e+00 
65800 5.6778846249e+00 6.8575843062e-05 1.6943051905e+00 -2.9346226734e+00 1.6943051905e+00 2.9346226734e+00 
65900 5.6778846253e+00 6.8623900908e-05 1.6943051905e+00 -2.9346226734e+00 1.6943051905e+00 2.9346226734e+00 
66000 5.6778846258e+00 6.8671654603e-05 1.6943051905e+00 -2.9346226734e+00 1.6943051905e+00 2.9346226734e+00 
66100 5.6778846262e+00 6.8719193011e-05 1.6943051905e+00 -2.9346226734e+00 1.6943051905e+00 2.9346226734e+00 
66200 5.6778846267e+00 6.8766600344e-05 1.6943051905e+00 -2.9346226734e+00 1.6943051905e+00 2.9346226734e+00 
66300 5.6778846271e+00 6.8813956233e-05 1.6943051905e+00 -2.9346226734e+00 1.6943051905e+00 2.9346226734e+00 
66400 5.6778846275e+00 6.8861335815e-05 1.6943051905e+00 -2.9346226734e+00 1.6943051905e+00 2.9346226734e+00 
66500 5.6778846280e+00 6.8908809810e-05 1.6943051905e+00 -2.9346226734e+00 1.6943051905e+00 2.9346226734e+00 
66600 5.6778846284e+00 6.8956444621e-05 1.6943051905e+00 -2.9346226734e+00 1.6943051905e+00 2.9346226734e+00 
66700 5.6778846288e+00 6.9004302404e-05 1.6943051905e+00 -2.9346226734e+00 1.6943051905e+00 2.9346226734e+00 
66800 5.6778846292e+00 6.9052441180e-05 1.6943051905e+00 -2.9346226734e+00 1.6943051905e+00 2.9346226734e+00 
66900 5.6778846296e+00 6.9100914908e-05 1.6943051905e+00 -2.9346226734e+00 1.6943051905e+00 2.9346226734e+00 
67000 5.6778846300e+00 6.9149773605e-05 1.6943051905e+00 -2.9346226734e+00 1.6943051905e+00 2.9346226734e+00 
67100 5.6778846304e+00 6.9199063417e-05 1.6943051905e+00 -2.9346226734e+00 1.6943051905e+00 2.9346226734e+00 
67200 5.6778846308e+00 6.9248826734e-05 1.6943051905e+00 -2.9346226734e+00 1.6943051905e+00 2.9346226734e+00 
67300 5.6778846312e+00 6.9299102287e-05 1.6943051905e+00 -2.9346226734e+00 1.6943051905e+00 2.9346226734e+00 
67400 5.6778846315e+00 6.9349925247e-05 1.6943051905e+00 -2.9346226734e+00 1.6943051905e+00 2.9346226734e+00 
67500 5.6778846319e+00 6.9401327327e-05 1.6943051905e+00 -2.9346226734e+00 1.6943051905e+00 2.9346226734e+00 
67600 5.6778846323e+00 6.9453336888e-05 1.6943051905e+00 -2.9346226734e+00 1.6943051905e+00 2.9346226734e+00 
67700 5.6778846326e+00 6.9505979037e-05 1.6943051905e+00 -2.9346226734e+00 1.6943051905e+00 2.9346226734e+00 
67800 5.6778846330e+00 6.9559275737e-05 1.6943051905e+00 -2.9346226734e+00 1.6943051905e+00 2.9346226734e+00 
67900 5.6778846333e+00 6.9613245907e-05 1.6943051905e+00 -2.9346226734e+00 1.6943051905e+00 2.9346226734e+00 
68000 5.6778846337e+00 6.9667905523e-05 1.6943051905e+00 -2.9346226734e+00 1.6943051905e+00 2.9346226734e+00 
68100 5.6778846340e+00 6.9723267737e-05 1.6943051905e+00 -2.9346226734e+00 1.6943051905e+00 2.9346226734e+00 
68200 5.6778846343e+00 6.9779342963e-05 1.6943051905e+00 -2.9346226734e+00 1.6943051905e+00 2.9346226734e+00 
68300 5.6778846347e+00 6.9836138992e-05 1.6943051905e+00 -2.9346226734e+00 1.6943051905e+00 2.9346226734e+00 
68400 5.6778846350e+00 6.9893661092e-05 1.6943051905e+00 -2.9346226734e+00 1.6943051905e+00 2.9346226734e+00 
68500 5.6778846353e+00 6.9951912112e-05 1.6943051905e+00 -2.9346226734e+00 1.6943051905e+00 2.9346226734e+00 
68600 5.6778846356e+00 7.0010892585e-05 1.6943051905e+00 -2.9346226734e+00 1.6943051905e+00 2.9346226734e+00 
68700 5.6778846359e+00 7.0070600829e-05 1.6943051905e+00 -2.9346226734e+00 1.6943051905e+00 2.9346226734e+00 
68800 5.6778846362e+00 7.0131033043e-05 1.6943051905e+00 -2.9346226734e+00 1.6943051905e+00 2.9346226734e+00 
68900 5.6778846365e+00 7.0192183419e-05 1.6943051905e+00 -2.9346226734e+00 1.6943051905e+00 2.9346226734e+00 
69000 5.6778846368e+00 7.0254044225e-05 1.6943051905e+00 -2.9346226734e+00 1.6943051905e+00 2.9346226734e+00 
69100 5.6778846371e+00 7.0316605917e-05 1.6943051905e+00 -2.9346226734e+00 1.6943051905e+00 2.9346226734e+00 
69200 5.6778846374e+00 7.0379857226e-05 1.6943051905e+00 -2.9346226734e+00 1.6943051905e+00 2.9346226734e+00 
69300 5.6778846377e+00 7.0443785255e-05 1.6943051905e+00 -2.9346226734e+00 1.6943051905e+00 2.9346226734e+00 
69400 5.6778846380e+00 7.0508375575e-05 1.6943051905e+00 -2.9346226734e+00 1.6943051905e+00 2.9346226734e+00 
69500 5.6778846382e+00 7.0573612313e-05 1.6943051905e+00 -2.9346226734e+00 1.6943051905e+00 2.9346226734e+00 
69600 5.6778846385e+00 7.0639478250e-05 1.6943051905e+00 -2.9346226734e+00 1.6943051905e+00 2.9346226734e+00 
69700 5.6778846388e+00 7.0705954898e-05 1.6943051905e+00 -2.9346226734e+00 1.6943051905e+00 2.9346226734e+00 
69800 5.6778846391e+00 7.0773022597e-05 1.6943051905e+00 -2.9346226734e+00 1.6943051905e+00 2.9346226734e+00 
69900 5.6778846391e+00 6.8518813244e-05 1.6943031019e+00 -2.9346190559e+00 1.6943031019e+00 2.9346190559e+00 
70000 5.6778846394e+00 6.8570552096e-05 1.6943031019e+00 -2.9346190559e+00 1.6943031019e+00 2.9346190559e+00 
70100 5.6778846397e+00 6.8622140866e-05 1.6943031019e+00 -2.9346190559e+00 1.6943031019e+00 2.9346190559e+00 
70200 5.6778846399e+00 6.8673610851e-05 1.6943031019e+00 -2.9346190559e+00 1.6943031019e+00 2.9346190559e+00 
70300 5.6778846401e+00 6.8724991126e-05 1.6943031019e+00 -2.9346190559e+00 1.6943031019e+00 2.9346190559e+00 
70400 5.6778846404e+00 6.8776308602e-05 1.6943031019e+00 -2.9346190559e+00 1.6943031019e+00 2.9346190559e+00 
70500 5.6778846406e+00 6.8827588105e-05 1.6943031019e+00 -2.9346190559e+00 1.6943031019e+00 2.9346190559e+00 
70600 5.6778846409e+00 6.8878852421e-05 1.6943031019e+00 -2.9346190559e+00 1.6943031019e+00 2.9346190559e+00 
70700 5.6778846411e+00 6.8930122379e-05 1.6943031019e+00 -2.9346190559e+00 1.6943031019e+00 2.9346190559e+00 
70800 5.6778846413e+00 6.8981416903e-05 1.6943031019e+00 -2.9346190559e+00 1.6943031019e+00 2.9346190559e+00 
70900 5.6778846416e+00 6.9032753082e-05 1.6943031019e+00 -2.9346190559e+00 1.6943031019e+00 2.9346190559e+00 
71000 5.6778846418e+00 6.9084146232e-05 1.6943031019e+00 -2.9346190559e+00 1.6943031019e+00 2.9346190559e+00 
71100 5.6778846420e+00 6.9135609964e-05 1.6943031019e+00 -2.9346190559e+00 1.6943031019e+00 2.9346190559e+00 
71200 5.6778846422e+00 6.9187156236e-05 1.6943031019e+00 -2.9346190559e+00 1.6943031019e+00 2.9346190559e+00 
71300 5.6778846424e+00 6.9238795436e-05 1.6943031019e+00 -2.9346190559e+00 1.6943031019e+00 2.9346190559e+00 
71400 5.6778846426e+00 6.9290536427e-05 1.6943031019e+00 -2.9346190559e+00 1.6943031019e+00 2.9346190559e+00 
71500 5.6778846429e+00 6.9342386617e-05 1.6943031019e+00 -2.9346190559e+00 1.6943031019e+00 2.9346190559e+00 
71600 5.6778846431e+00 6.9394352024e-05 1.6943031019e+00 -2.9346190559e+00 1.6943031019e+00 2.9346190559e+00 
71700 5.6778846433e+00 6.9446437332e-05 1.6943031019e+00 -2.9346190559e+00 1.6943031019e+00 2.9346190559e+00 
71800 5.6778846435e+00 6.9498645951e-05 1.6943031019e+00 -2.9346190559e+00 1.6943031019e+00 2.9346190559e+00 
71900 5.6778846437e+00 6.9550980077e-05 1.6943031019e+00 -2.9346190559e+00 1.6943031019e+00 2.9346190559e+00 
72000 5.6778846438e+00 6.9603440758e-05 1.6943031019e+00 -2.9346190559e+00 1.6943031019e+00 2.9346190559e+00 
72100 5.6778846440e+00 6.9656027943e-05 1.6943031019e+00 -2.9346190559e+00 1.6943031019e+00 2.9346190559e+00 
72200 5.6778846442e+00 6.9708740538e-05 1.6943031019e+00 -2.9346190559e+00 1.6943031019e+00 2.9346190559e+00 
72300 5.6778846444e+00 6.9761576474e-05 1.6943031019e+00 -2.9346190559e+00 1.6943031019e+00 2.9346190559e+00 
72400 5.6778846446e+00 6.9814532745e-05 1.6943031019e+00 -2.9346190559e+00 1.6943031019e+00 2.9346190559e+00 
72500 5.6778846448e+00 6.9867605483e-05 1.6943031019e+00 -2.9346190559e+00 1.6943031019e+00 2.9346190559e+00 
72600 5.6778846450e+00 6.9920789986e-05 1.6943031019e+00 -2.9346190559e+00 1.6943031019e+00 2.9346190559e+00 
72700 5.6778846451e+00 6.9974080788e-05 1.6943031019e+00 -2.9346190559e+00 1.6943031019e+00 2.9346190559e+00 
72800 5.6778846453e+00 7.0027471703e-05 1.6943031019e+00 -2.9346190559e+00 1.6943031019e+00 2.9346190559e+00 
72900 5.6778846455e+00 7.0080955880e-05 1.6943031019e+00 -2.9346190559e+00 1.6943031019e+00 2.9346190559e+00 
73000 5.6778846456e+00 7.0134525837e-05 1.6943031019e+00 -2.9346190559e+00 1.6943031019e+00 2.9346190559e+00 
73100 5.6778846458e+00 7.0188173525e-05 1.6943031019e+00 -2.9346190559e+00 1.6943031019e+00 2.9346190559e+00 
73200 5.6778846460e+00 7.0241890361e-05 1.6943031019e+00 -2.9346190559e+00 1.6943031019e+00 2.9346190559e+00 
73300 5.6778846461e+00 7.0295667283e-05 1.6943031019e+00 -2.9346190559e+00 1.6943031019e+00 2.9346190559e+00 
73400 5.6778846463e+00 7.0349494782e-05 1.6943031019e+00 -2.9346190559e+00 1.6943031019e+00 2.9346190559e+00 
73500 5.6778846465e+00 7.0403362953e-05 1.6943031019e+00 -2.9346190559e+00 1.6943031019e+00 2.9346190559e+00 
73600 5.6778846466e+00 7.0457261528e-05 1.6943031019e+00 -2.9346190559e+00 1.6943031019e+00 2.9346190559e+00 
73700 5.6778846468e+00 7.0511179925e-05 1.6943031019e+00 -2.9346190559e+00 1.6943031019e+00 2.9346190559e+00 
73800 5.6778846469e+00 7.0565107278e-05 1.6943031019e+00 -2.9346190559e+00 1.6943031019e+00 2.9346190559e+00 
73900 5.6778846471e+00 7.0619032473e-05 1.6943031019e+00 -2.9346190559e+00 1.6943031019e+00 2.9346190559e+00 
74000 5.6778846472e+00 7.0672944191e-05 1.6943031019e+00 -2.9346190559e+00 1.6943031019e+00 2.9346190559e+00 
74100 5.6778846474e+00 7.0726830935e-05 1.6943031019e+00 -2.9346190559e+00 1.6943031019e+00 2.9346190559e+00 
74200 5.6778846473e+00 6.8460342111e-05 1.6943010147e+00 -2.9346154408e+00 1.6943010147e+00 2.9346154408e+00 
74300 5.6778846475e+00 6.8497706547e-05 1.6943010147e+00 -2.9346154408e+00 1.6943010147e+00 2.9346154408e+00 
74400 5.6778846476e+00 6.8534335339e-05 1.6943010147e+00 -2.9346154408e+00 1.6943010147e+00 2.9346154408e+00 
74500 5.6778846477e+00 6.8570271390e-05 1.6943010147e+00 -2.9346154408e+00 1.6943010147e+00 2.9346154408e+00 
74600 5.6778846479e+00 6.8605556129e-05 1.6943010147e+00 -2.9346154408e+00 1.6943010147e+00 2.9346154408e+00 
74700 5.6778846480e+00 6.8640229520e-05 1.6943010147e+00 -2.9346154408e+00 1.6943010147e+00 2.9346154408e+00 
74800 5.6778846481e+00 6.8674330082e-05 1.6943010147e+00 -2.9346154408e+00 1.6943010147e+00 2.9346154408e+00 
74900 5.6778846483e+00 6.8707894907e-05 1.6943010147e+00 -2.9346154408e+00 1.6943010147e+00 2.9346154408e+00 
75000 5.6778846484e+00 6.8740959666e-05 1.6943010147e+00 -2.9346154408e+00 1.6943010147e+00 2.9346154408e+00 
75100 5.6778846485e+00 6.8773558645e-05 1.6943010147e+00 -2.9346154408e+00 1.6943010147e+00 2.9346154408e+00 
75200 5.6778846486e+00 6.8805724749e-05 1.6943010147e+00 -2.9346154408e+00 1.6943010147e+00 2.9346154408e+00 
75300 5.6778846488e+00 6.8837489535e-05 1.6943010147e+00 -2.9346154408e+00 1.6943010147e+00 2.9346154408e+00 
75400 5.6778846489e+00 6.8868883223e-05 1.6943010147e+00 -2.9346154408e+00 1.6943010147e+00 2.9346154408e+00 
75500 5.6778846490e+00 6.8899934729e-05 1.6943010147e+00 -2.9346154408e+00 1.6943010147e+00 2.9346154408e+00 
75600 5.6778846491e+00 6.8930671672e-05 1.6943010147e+00 -2.9346154408e+00 1.6943010147e+00 2.9346154408e+00 
75700 5.6778846492e+00 6.8961120414e-05 1.6943010147e+00 -2.9346154408e+00 1.6943010147e+00 2.9346154408e+00 
75800 5.6778846494e+00 6.8991306073e-05 1.6943010147e+00 -2.9346154408e+00 1.6943010147e+00 2.9346154408e+00 
75900 5.6778846495e+00 6.9021252550e-05 1.6943010147e+00 -2.9346154408e+00 1.6943010147e+00 2.9346154408e+00 
76000 5.6778846496e+00 6.9050982558e-05 1.6943010147e+00 -2.9346154408e+00 1.6943010147e+00 2.9346154408e+00 
76100 5.6778846497e+00 6.9080517637e-05 1.6943010147e+00 -2.9346154408e+00 1.6943010147e+00 2.9346154408e+00 
76200 5.6778846498e+00 6.9109878192e-05 1.6943010147e+00 -2.9346154408e+00 1.6943010147e+00 2.9346154408e+00 
76300 5.6778846499e+00 6.9139083510e-05 1.6943010147e+00 -2.9346154408e+00 1.6943010147e+00 2.9346154408e+00 
76400 5.6778846500e+00 6.9168151788e-05 1.6943010147e+00 -2.9346154408e+00 1.6943010147e+00 2.9346154408e+00 
76500 5.6778846501e+00 6.9197100165e-05 1.6943010147e+00 -2.9346154408e+00 1.6943010147e+00 2.9346154408e+00 
76600 5.6778846502e+00 6.9225944742e-05 1.6943010147e+00 -2.9346154408e+00 1.6943010147e+00 2.9346154408e+00 
76700 5.6778846503e+00 6.9254700606e-05 1.6943010147e+00 -2.9346154408e+00 1.6943010147e+00 2.9346154408e+00 
76800 5.6778846504e+00 6.9283381870e-05 1.6943010147e+00 -2.9346154408e+00 1.6943010147e+00 2.9346154408e+00 
76900 5.6778846505e+00 6.9312001686e-05 1.6943010147e+00 -2.9346154408e+00 1.6943010147e+00 2.9346154408e+00 
77000 5.6778846506e+00 6.9340572282e-05 1.6943010147e+00 -2.9346154408e+00 1.6943010147e+00 2.9346154408e+00 
77100 5.6778846507e+00 6.9369104981e-05 1.6943010147e+00 -2.9346154408e+00 1.6943010147e+00 2.9346154408e+00 
77200 5.6778846508e+00 6.9397610236e-05 1.6943010147e+00 -2.9346154408e+00 1.6943010147e+00 2.9346154408e+00 
77300 5.6778846509e+00 6.9426097649e-05 1.6943010147e+00 -2.9346154408e+00 1.6943010147e+00 2.9346154408e+00 
77400 5.6778846510e+00 6.9454576007e-05 1.6943010147e+00 -2.9346154408e+00 1.6943010147e+00 2.9346154408e+00 
77500 5.6778846511e+00 6.9483053298e-05 1.6943010147e+00 -2.9346154408e+00 1.6943010147e+00 2.9346154408e+00 
77600 5.6778846512e+00 6.9511536749e-05 1.6943010147e+00 -2.9346154408e+00 1.6943010147e+00 2.9346154408e+00 
77700 5.6778846513e+00 6.9540032844e-05 1.6943010147e+00 -2.9346154408e+00 1.6943010147e+00 2.9346154408e+00 
77800 5.6778846513e+00 6.9568547355e-05 1.6943010147e+00 -2.9346154408e+00 1.6943010147e+00 2.9346154408e+00 
77900 5.6778846514e+00 6.9597085366e-05 1.6943010147e+00 -2.9346154408e+00 1.6943010147e+00 2.9346154408e+00 
78000 5.6778846515e+00 6.9625651298e-05 1.6943010147e+00 -2.9346154408e+00 1.6943010147e+00 2.9346154408e+00 
78100 5.6778846516e+00 6.9654248939e-05 1.6943010147e+00 -2.9346154408e+00 1.6943010147e+00 2.9346154408e+00 
78200 5.6778846517e+00 6.9682881465e-05 1.6943010147e+00 -2.9346154408e+00 1.6943010147e+00 2.9346154408e+00 
78300 5.6778846518e+00 6.9711551467e-05 1.6943010147e+00 -2.9346154408e+00 1.6943010147e+00 2.9346154408e+00 
78400 5.6778846518e+00 6.9740260975e-05 1.6943010147e+00 -2.9346154408e+00 1.6943010147e+00 2.9346154408e+00 
78500 5.6778846519e+00 6.9769011484e-05 1.6943010147e+00 -2.9346154408e+00 1.6943010147e+00 2.9346154408e+00 
78600 5.6778846520e+00 6.9797803977e-05 1.6943010147e+00 -2.9346154408e+00 1.6943010147e+00 2.9346154408e+00 
78700 5.6778846521e+00 6.9826638947e-05 1.6943010147e+00 -2.9346154408e+00 1.6943010147e+00 2.9346154408e+00 
78800 5.6778846522e+00 6.9855516426e-05 1.6943010147e+00 -2.9346154408e+00 1.6943010147e+00 2.9346154408e+00 
78900 5.6778846522e+00 6.9884436000e-05 1.6943010147e+00 -2.9346154408e+00 1.6943010147e+00 2.9346154408e+00 
79000 5.6778846523e+00 6.9913396837e-05 1.6943010147e+00 -2.9346154408e+00 1.6943010147e+00 2.9346154408e+00 
79100 5.6778846524e+00 6.9942397711e-05 1.6943010147e+00 -2.9346154408e+00 1.6943010147e+00 2.9346154408e+00 
79200 5.6778846524e+00 6.9971437017e-05 1.6943010147e+00 -2.9346154408e+00 1.6943010147e+00 2.9346154408e+00 
79300 5.6778846525e+00 7.0000512798e-05 1.6943010147e+00 -2.9346154408e+00 1.6943010147e+00 2.9346154408e+00 
79400 5.6778846526e+00 7.0029622762e-05 1.6943010147e+00 -2.9346154408e+00 1.6943010147e+00 2.9346154408e+00 
79500 5.6778846527e+00 7.0058764308e-05 1.6943010147e+00 -2.9346154408e+00 1.6943010147e+00 2.9346154408e+00 
79600 5.6778846527e+00 7.0087934538e-05 1.6943010147e+00 -2.9346154408e+00 1.6943010147e+00 2.9346154408e+00 
79700 5.6778846528e+00 7.0117130285e-05 1.6943010147e+00 -2.9346154408e+00 1.6943010147e+00 2.9346154408e+00 
79800 5.6778846529e+00 7.0146348123e-05 1.6943010147e+00 -2.9346154408e+00 1.6943010147e+00 2.9346154408e+00 
79900 5.6778846529e+00 7.0175584395e-05 1.6943010147e+00 -2.9346154408e+00 1.6943010147e+00 2.9346154408e+00 
80000 5.6778846530e+00 7.0204835227e-05 1.6943010147e+00 -2.9346154408e+00 1.6943010147e+00 2.9346154408e+00 
80100 5.6778846531e+00 7.0234096539e-05 1.6943010147e+00 -2.9346154408e+00 1.6943010147e+00 2.9346154408e+00 
80200 5.6778846531e+00 7.0263364073e-05 1.6943010147e+00 -2.9346154408e+00 1.6943010147e+00 2.9346154408e+00 
80300 5.6778846532e+00 7.0292633405e-05 1.6943010147e+00 -2.9346154408e+00 1.6943010147e+00 2.9346154408e+00 
80400 5.6778846532e+00 7.0321899961e-05 1.6943010147e+00 -2.9346154408e+00 1.6943010147e+00 2.9346154408e+00 
80500 5.6778846533e+00 7.0351159031e-05 1.6943010147e+00 -2.9346154408e+00 1.6943010147e+00 2.9346154408e+00 
80600 5.6778846534e+00 7.0380405786e-05 1.6943010147e+00 -2.9346154408e+00 1.6943010147e+00 2.9346154408e+00 
80700 5.6778846534e+00 7.0409635294e-05 1.6943010147e+00 -2.9346154408e+00 1.6943010147e+00 2.9346154408e+00 
80800 5.6778846535e+00 7.0438842531e-05 1.6943010147e+00 -2.9346154408e+00 1.6943010147e+00 2.9346154408e+00 
80900 5.6778846535e+00 7.0468022401e-05 1.6943010147e+00 -2.9346154408e+00 1.6943010147e+00 2.9346154408e+00 
81000 5.6778846536e+00 7.0497169737e-05 1.6943010147e+00 -2.9346154408e+00 1.6943010147e+00 2.9346154408e+00 
81100 5.6778846536e+00 7.0526279326e-05 1.6943010147e+00 -2.9346154408e+00 1.6943010147e+00 2.9346154408e+00 
81200 5.6778846537e+00 7.0555345918e-05 1.6943010147e+00 -2.9346154408e+00 1.6943010147e+00 2.9346154408e+00 
81300 5.6778846538e+00 7.0584364233e-05 1.6943010147e+00 -2.9346154408e+00 1.6943010147e+00 2.9346154408e+00 
81400 5.6778846538e+00 7.0613328978e-05 1.6943010147e+00 -2.9346154408e+00 1.6943010147e+00 2.9346154408e+00 
81500 5.6778846539e+00 7.0642234854e-05 1.6943010147e+00 -2.9346154408e+00 1.6943010147e+00 2.9346154408e+00 
81600 5.6778846539e+00 7.0671076570e-05 1.6943010147e+00 -2.9346154408e+00 1.6943010147e+00 2.9346154408e+00 
81700 5.6778846540e+00 7.0699848852e-05 1.6943010147e+00 -2.9346154408e+00 1.6943010147e+00 2.9346154408e+00 
81800 5.6778846540e+00 7.0728546444e-05 1.6943010147e+00 -2.9346154408e+00 1.6943010147e+00 2.9346154408e+00 
81900 5.6778846539e+00 6.8436762323e-05 1.6942989275e+00 -2.9346118256e+00 1.6942989275e+00 2.9346118256e+00 
82000 5.6778846539e+00 6.8448856797e-05 1.6942989275e+00 -2.9346118256e+00 1.6942989275e+00 2.9346118256e+00 
82100 5.6778846540e+00 6.8454840174e-05 1.6942989275e+00 -2.9346118256e+00 1.6942989275e+00 2.9346118256e+00 
82100 5.6778846540e+00 6.8454840175e-05 1.6942989275e+00 -2.9346118256e+00 1.6942989275e+00 2.9346118256e+00 
