# step Hamiltonian StressXX CellTensor1 CellTensor2 CellTensor3 CellTensor4 
0 5.6031796758e+00 2.0273274518e-01 2.6408444507e+00 -4.5740767634e+00 2.6408444507e+00 4.5740767634e+00 
100 5.6159917780e+00 2.2179708483e-01 2.6408444507e+00 -4.5740767634e+00 2.6408444507e+00 4.5740767634e+00 
200 5.6287403147e+00 2.4020828029e-01 2.6366462062e+00 -4.5668051908e+00 2.6366462062e+00 4.5668051908e+00 
300 5.6419216790e+00 2.5755815065e-01 2.6320923341e+00 -4.5589176529e+00 2.6320923341e+00 4.5589176529e+00 
400 5.6554477339e+00 2.7398848622e-01 2.6272012023e+00 -4.5504459641e+00 2.6272012023e+00 4.5504459641e+00 
500 5.6692280126e+00 2.8962626355e-01 2.6219884750e+00 -4.5414172555e+00 2.6219884750e+00 4.5414172555e+00 
600 5.6831698414e+00 3.0458365868e-01 2.6164673910e+00 -4.5318544576e+00 2.6164673910e+00 4.5318544576e+00 
700 5.6971787347e+00 3.1895840691e-01 2.6106490407e+00 -4.5217767792e+00 2.6106490407e+00 4.5217767792e+00 
800 5.7111589678e+00 3.3283439875e-01 2.6045426334e+00 -4.5112001716e+00 2.6045426334e+00 4.5112001716e+00 
900 5.7250142565e+00 3.4628241970e-01 2.5981557543e+00 -4.5001377725e+00 2.5981557543e+00 4.5001377725e+00 
1000 5.7386484940e+00 3.5936096082e-01 2.5914946062e+00 -4.4886003254e+00 2.5914946062e+00 4.4886003254e+00 
1100 5.7519665131e+00 3.7211704556e-01 2.5845642370e+00 -4.4765965739e+00 2.5845642370e+00 4.4765965739e+00 
1200 5.7648748537e+00 3.8458703543e-01 2.5773687528e+00 -4.4641336298e+00 2.5773687528e+00 4.4641336298e+00 
1300 5.7772825286e+00 3.9679739172e-01 2.5699115167e+00 -4.4512173178e+00 2.5699115167e+00 4.4512173178e+00 
1400 5.7891017841e+00 4.0876538282e-01 2.5621953341e+00 -4.4378524976e+00 2.5621953341e+00 4.4378524976e+00 
1500 5.8002488583e+00 4.2049973664e-01 2.5542226278e+00 -4.4240433651e+00 2.5542226278e+00 4.4240433651e+00 
1600 5.8106447405e+00 4.3200124566e-01 2.5459956012e+00 -4.4097937371e+00 2.5459956012e+00 4.4097937371e+00 
1700 5.8202159355e+00 4.4326333908e-01 2.5375163933e+00 -4.3951073182e+00 2.5375163933e+00 4.3951073182e+00 
1800 5.8288952347e+00 4.5427264196e-01 2.5287872246e+00 -4.3799879545e+00 2.5287872246e+00 4.3799879545e+00 
1900 5.8366224921e+00 4.6500954665e-01 2.5198105349e+00 -4.3644398720e+00 2.5198105349e+00 4.3644398720e+00 
2000 5.8433454009e+00 4.7544882608e-01 2.5105891133e+00 -4.3484679012e+00 2.5105891133e+00 4.3484679012e+00 
2100 5.8490202587e+00 4.8556032275e-01 2.5011262182e+00 -4.3320776860e+00 2.5011262182e+00 4.3320776860e+00 
2200 5.8536127047e+00 4.9530974854e-01 2.4914256877e+00 -4.3152758743e+00 2.4914256877e+00 4.3152758743e+00 
2300 5.8570984026e+00 5.0465962921e-01 2.4814920367e+00 -4.2980702861e+00 2.4814920367e+00 4.2980702861e+00 
2400 5.8594636372e+00 5.1357041934e-01 2.4713305382e+00 -4.2804700544e+00 2.4713305382e+00 4.2804700544e+00 
2500 5.8607057793e+00 5.2200179742e-01 2.4609472848e+00 -4.2624857321e+00 2.4609472848e+00 4.2624857321e+00 
2600 5.8608335702e+00 5.2991412449e-01 2.4503492269e+00 -4.2441293573e+00 2.4503492269e+00 4.2441293573e+00 
2700 5.8598671686e+00 5.3727001525e-01 2.4395441822e+00 -4.2254144708e+00 2.4395441822e+00 4.2254144708e+00 
2800 5.8578379064e+00 5.4403593157e-01 2.4285408153e+00 -4.2063560804e+00 2.4285408153e+00 4.2063560804e+00 
2900 5.8547877087e+00 5.5018367467e-01 2.4173485843e+00 -4.1869705677e+00 2.4173485843e+00 4.1869705677e+00 
3000 5.8507681568e+00 5.5569163283e-01 2.4059776558e+00 -4.1672755417e+00 2.4059776558e+00 4.1672755417e+00 
3100 5.8458391995e+00 5.6054564759e-01 2.3944387922e+00 -4.1472896438e+00 2.3944387922e+00 4.1472896438e+00 
3200 5.8400675620e+00 5.6473939536e-01 2.3827432186e+00 -4.1270323161e+00 2.3827432186e+00 4.1270323161e+00 
3300 5.8335249315e+00 5.6827424071e-01 2.3709024771e+00 -4.1065235501e+00 2.3709024771e+00 4.1065235501e+00 
3400 5.8262860357e+00 5.7115858926e-01 2.3589282802e+00 -4.0857836327e+00 2.3589282802e+00 4.0857836327e+00 
3500 5.8184267385e+00 5.7340683564e-01 2.3468323735e+00 -4.0648329078e+00 2.3468323735e+00 4.0648329078e+00 
3600 5.8100222788e+00 5.7503805005e-01 2.3346264155e+00 -4.0436915683e+00 2.3346264155e+00 4.0436915683e+00 
3700 5.8011457532e+00 5.7607456552e-01 2.3223218814e+00 -4.0223794902e+00 2.3223218814e+00 4.0223794902e+00 
3800 5.7918669138e+00 5.7654061645e-01 2.3099299939e+00 -4.0009161113e+00 2.3099299939e+00 4.0009161113e+00 
3900 5.7822513101e+00 5.7646114498e-01 2.2974616796e+00 -3.9793203575e+00 2.2974616796e+00 3.9793203575e+00 
4000 5.7723597682e+00 5.7586084637e-01 2.2849275505e+00 -3.9576106091e+00 2.2849275505e+00 3.9576106091e+00 
4100 5.7622481736e+00 5.7476347927e-01 2.2723379040e+00 -3.9358047017e+00 2.2723379040e+00 3.9358047017e+00 
4200 5.7519675010e+00 5.7319143012e-01 2.2597027377e+00 -3.9139199518e+00 2.2597027377e+00 3.9139199518e+00 
4300 5.7415640306e+00 5.7116549673e-01 2.2470317742e+00 -3.8919731992e+00 2.2470317742e+00 3.8919731992e+00 
4400 5.7310796880e+00 5.6870484437e-01 2.2343344902e+00 -3.8699808582e+00 2.2343344902e+00 3.8699808582e+00 
4500 5.7205524540e+00 5.6582708580e-01 2.2216201478e+00 -3.8479589712e+00 2.2216201478e+00 3.8479589712e+00 
4600 5.7100167993e+00 5.6254844165e-01 2.2088978243e+00 -3.8259232604e+00 2.2088978243e+00 3.8259232604e+00 
4700 5.6995041101e+00 5.5888394532e-01 2.1961764387e+00 -3.8038891741e+00 2.1961764387e+00 3.8038891741e+00 
4800 5.6890430833e+00 5.5484766565e-01 2.1834647748e+00 -3.7818719265e+00 2.1834647748e+00 3.7818719265e+00 
4900 5.6786600764e+00 5.5045292851e-01 2.1707714992e+00 -3.7598865282e+00 2.1707714992e+00 3.7598865282e+00 
5000 5.6683794051e+00 5.4571252524e-01 2.1581051742e+00 -3.7379478097e+00 2.1581051742e+00 3.7379478097e+00 
5100 5.6582235888e+00 5.4063890072e-01 2.1454742666e+00 -3.7160704360e+00 2.1454742666e+00 3.7160704360e+00 
5200 5.6482135445e+00 5.3524431760e-01 2.1328871518e+00 -3.6942689137e+00 2.1328871518e+00 3.6942689137e+00 
5300 5.6383687345e+00 5.2954099527e-01 2.1203521140e+00 -3.6725575913e+00 2.1203521140e+00 3.6725575913e+00 
5400 5.6287072741e+00 5.2354122388e-01 2.1078773426e+00 -3.6509506534e+00 2.1078773426e+00 3.6509506534e+00 
5500 5.6192460045e+00 5.1725745453e-01 2.0954709257e+00 -3.6294621091e+00 2.0954709257e+00 3.6294621091e+00 
5600 5.6100005379e+00 5.1070236710e-01 2.0831408411e+00 -3.6081057761e+00 2.0831408411e+00 3.6081057761e+00 
5700 5.6009852819e+00 5.0388891777e-01 2.0708949446e+00 -3.5868952612e+00 2.0708949446e+00 3.5868952612e+00 
5800 5.5922134466e+00 4.9683036798e-01 2.0587409569e+00 -3.5658439370e+00 2.0587409569e+00 3.5658439370e+00 
5900 5.5836970409e+00 4.8954029697e-01 2.0466864490e+00 -3.5449649168e+00 2.0466864490e+00 3.5449649168e+00 
6000 5.5754468631e+00 4.8203259988e-01 2.0347388264e+00 -3.5242710275e+00 2.0347388264e+00 3.5242710275e+00 
6100 5.5674724868e+00 4.7432147319e-01 2.0229053132e+00 -3.5037747813e+00 2.0229053132e+00 3.5037747813e+00 
6200 5.5597822481e+00 4.6642138957e-01 2.0111929348e+00 -3.4834883469e+00 2.0111929348e+00 3.4834883469e+00 
6300 5.5523832355e+00 4.5834706369e-01 1.9996085018e+00 -3.4634235204e+00 1.9996085018e+00 3.4634235204e+00 
6400 5.5452812828e+00 4.5011341074e-01 1.9881585931e+00 -3.4435916967e+00 1.9881585931e+00 3.4435916967e+00 
6500 5.5384809700e+00 4.4173549923e-01 1.9768495396e+00 -3.4240038415e+00 1.9768495396e+00 3.4240038415e+00 
6600 5.5319856299e+00 4.3322849935e-01 1.9656874095e+00 -3.4046704650e+00 1.9656874095e+00 3.4046704650e+00 
6700 5.5257973624e+00 4.2460762829e-01 1.9546779928e+00 -3.3856015960e+00 1.9546779928e+00 3.3856015960e+00 
6800 5.5199170575e+00 4.1588809363e-01 1.9438267885e+00 -3.3668067588e+00 1.9438267885e+00 3.3668067588e+00 
6900 5.5143444256e+00 4.0708503588e-01 1.9331389917e+00 -3.3482949517e+00 1.9331389917e+00 3.3482949517e+00 
7000 5.5090780355e+00 3.9821347100e-01 1.9226194824e+00 -3.3300746271e+00 1.9226194824e+00 3.3300746271e+00 
7100 5.5041153605e+00 3.8928823385e-01 1.9122728160e+00 -3.3121536753e+00 1.9122728160e+00 3.3121536753e+00 
7200 5.4994528302e+00 3.8032392318e-01 1.9021032149e+00 -3.2945394095e+00 1.9021032149e+00 3.2945394095e+00 
7300 5.4950858894e+00 3.7133484880e-01 1.8921145614e+00 -3.2772385541e+00 1.8921145614e+00 3.2772385541e+00 
7400 5.4910090614e+00 3.6233498152e-01 1.8823103925e+00 -3.2602572355e+00 1.8823103925e+00 3.2602572355e+00 
7500 5.4872160164e+00 3.5333790620e-01 1.8726938965e+00 -3.2436009757e+00 1.8726938965e+00 3.2436009757e+00 
7600 5.4836996433e+00 3.4435677838e-01 1.8632679102e+00 -3.2272746885e+00 1.8632679102e+00 3.2272746885e+00 
7700 5.4804521238e+00 3.3540428477e-01 1.8540349189e+00 -3.2112826785e+00 1.8540349189e+00 3.2112826785e+00 
7800 5.4774650093e+00 3.2649260776e-01 1.8449970571e+00 -3.1956286428e+00 1.8449970571e+00 3.1956286428e+00 
7900 5.4747292974e+00 3.1763339428e-01 1.8361561110e+00 -3.1803156749e+00 1.8361561110e+00 3.1803156749e+00 
8000 5.4722355102e+00 3.0883772891e-01 1.8275135224e+00 -3.1653462722e+00 1.8275135224e+00 3.1653462722e+00 
8100 5.4699737703e+00 3.0011611147e-01 1.8190703937e+00 -3.1507223445e+00 1.8190703937e+00 3.1507223445e+00 
8200 5.4679338770e+00 2.9147843908e-01 1.8108274953e+00 -3.1364452256e+00 1.8108274953e+00 3.1364452256e+00 
8300 5.4661053796e+00 2.8293399253e-01 1.8027852725e+00 -3.1225156872e+00 1.8027852725e+00 3.1225156872e+00 
8400 5.4644776481e+00 2.7449142694e-01 1.7949438551e+00 -3.1089339538e+00 1.7949438551e+00 3.1089339538e+00 
8500 5.4630399421e+00 2.6615876666e-01 1.7873030671e+00 -3.0956997207e+00 1.7873030671e+00 3.0956997207e+00 
8600 5.4617814745e+00 2.5794340405e-01 1.7798624377e+00 -3.0828121726e+00 1.7798624377e+00 3.0828121726e+00 
8700 5.4606914727e+00 2.4985210210e-01 1.7726212133e+00 -3.0702700041e+00 1.7726212133e+00 3.0702700041e+00 
8800 5.4597592351e+00 2.4189100063e-01 1.7655783696e+00 -3.0580714410e+00 1.7655783696e+00 3.0580714410e+00 
8900 5.4589741834e+00 2.3406562569e-01 1.7587326250e+00 -3.0462142634e+00 1.7587326250e+00 3.0462142634e+00 
9000 5.4583259106e+00 2.2638090205e-01 1.7520824537e+00 -3.0346958289e+00 1.7520824537e+00 3.0346958289e+00 
9100 5.4578042240e+00 2.1884116840e-01 1.7456261004e+00 -3.0235130969e+00 1.7456261004e+00 3.0235130969e+00 
9200 5.4573991842e+00 2.1145019491e-01 1.7393615938e+00 -3.0126626531e+00 1.7393615938e+00 3.0126626531e+00 
9300 5.4571011388e+00 2.0421120302e-01 1.7332867613e+00 -3.0021407346e+00 1.7332867613e+00 3.0021407346e+00 
9400 5.4569007527e+00 1.9712688693e-01 1.7273992434e+00 -2.9919432546e+00 1.7273992434e+00 2.9919432546e+00 
9500 5.4567890324e+00 1.9019943664e-01 1.7216965084e+00 -2.9820658278e+00 1.7216965084e+00 2.9820658278e+00 
9600 5.4567573480e+00 1.8343056226e-01 1.7161758662e+00 -2.9725037949e+00 1.7161758662e+00 2.9725037949e+00 
9700 5.4567974494e+00 1.7682151910e-01 1.7108344828e+00 -2.9632522476e+00 1.7108344828e+00 2.9632522476e+00 
9800 5.4569014796e+00 1.7037313361e-01 1.7056693942e+00 -2.9543060517e+00 1.7056693942e+00 2.9543060517e+00 
9900 5.4570619842e+00 1.6408582957e-01 1.7006775199e+00 -2.9456598718e+00 1.7006775199e+00 2.9456598718e+00 
10000 5.4572719176e+00 1.5795965450e-01 1.6958556759e+00 -2.9373081929e+00 1.6958556759e+00 2.9373081929e+00 
10100 5.4575246457e+00 1.5199430609e-01 1.6912005876e+00 -2.9292453436e+00 1.6912005876e+00 2.9292453436e+00 
10200 5.4578139459e+00 1.4618915825e-01 1.6867089023e+00 -2.9214655164e+00 1.6867089023e+00 2.9214655164e+00 
10300 5.4581340050e+00 1.4054328686e-01 1.6823772006e+00 -2.9139627889e+00 1.6823772006e+00 2.9139627889e+00 
10400 5.4584794135e+00 1.3505549492e-01 1.6782020077e+00 -2.9067311427e+00 1.6782020077e+00 2.9067311427e+00 
10500 5.4588451595e+00 1.2972433691e-01 1.6741798044e+00 -2.8997644822e+00 1.6741798044e+00 2.8997644822e+00 
10600 5.4592266189e+00 1.2454814246e-01 1.6703070367e+00 -2.8930566518e+00 1.6703070367e+00 2.8930566518e+00 
10700 5.4596195458e+00 1.1952503899e-01 1.6665801260e+00 -2.8866014531e+00 1.6665801260e+00 2.8866014531e+00 
10800 5.4600200598e+00 1.1465297346e-01 1.6629954773e+00 -2.8803926595e+00 1.6629954773e+00 2.8803926595e+00 
10900 5.4604246337e+00 1.0992973298e-01 1.6595494884e+00 -2.8744240315e+00 1.6595494884e+00 2.8744240315e+00 
11000 5.4608300791e+00 1.0535296437e-01 1.6562385568e+00 -2.8686893299e+00 1.6562385568e+00 2.8686893299e+00 
11100 5.4612335317e+00 1.0092019264e-01 1.6530590879e+00 -2.8631823282e+00 1.6530590879e+00 2.8631823282e+00 
11200 5.4616324363e+00 9.6628838288e-02 1.6500075008e+00 -2.8578968243e+00 1.6500075008e+00 2.8578968243e+00 
11300 5.4620245308e+00 9.2476233455e-02 1.6470802351e+00 -2.8528266513e+00 1.6470802351e+00 2.8528266513e+00 
11400 5.4624078302e+00 8.8459637016e-02 1.6442737562e+00 -2.8479656872e+00 1.6442737562e+00 2.8479656872e+00 
11500 5.4627806110e+00 8.4576248511e-02 1.6415845605e+00 -2.8433078637e+00 1.6415845605e+00 2.8433078637e+00 
11600 5.4631413943e+00 8.0823221013e-02 1.6390091801e+00 -2.8388471740e+00 1.6390091801e+00 2.8388471740e+00 
11700 5.4634889307e+00 7.7197672947e-02 1.6365441870e+00 -2.8345776807e+00 1.6365441870e+00 2.8345776807e+00 
11800 5.4638221837e+00 7.3696698894e-02 1.6341861968e+00 -2.8304935218e+00 1.6341861968e+00 2.8304935218e+00 
11900 5.4641403150e+00 7.0317379423e-02 1.6319318720e+00 -2.8265889168e+00 1.6319318720e+00 2.8265889168e+00 
12000 5.4644426689e+00 6.7056790000e-02 1.6297779253e+00 -2.8228581716e+00 1.6297779253e+00 2.8228581716e+00 
12100 5.4647287577e+00 6.3912009015e-02 1.6277211216e+00 -2.8192956831e+00 1.6277211216e+00 2.8192956831e+00 
12200 5.4649982475e+00 6.0880124981e-02 1.6257582809e+00 -2.8158959433e+00 1.6257582809e+00 2.8158959433e+00 
12300 5.4652509446e+00 5.7958242954e-02 1.6238862798e+00 -2.8126535423e+00 1.6238862798e+00 2.8126535423e+00 
12400 5.4654867825e+00 5.5143490221e-02 1.6221020534e+00 -2.8095631715e+00 1.6221020534e+00 2.8095631715e+00 
12500 5.4657058090e+00 5.2433021306e-02 1.6204025965e+00 -2.8066196258e+00 1.6204025965e+00 2.8066196258e+00 
12600 5.4659081745e+00 4.9824022350e-02 1.6187849649e+00 -2.8038178058e+00 1.6187849649e+00 2.8038178058e+00 
12700 5.4660941207e+00 4.7313714906e-02 1.6172462763e+00 -2.8011527189e+00 1.6172462763e+00 2.8011527189e+00 
12800 5.4662639695e+00 4.4899359192e-02 1.6157837107e+00 -2.7986194810e+00 1.6157837107e+00 2.7986194810e+00 
12900 5.4664181136e+00 4.2578256860e-02 1.6143945112e+00 -2.7962133168e+00 1.6143945112e+00 2.7962133168e+00 
13000 5.4665570064e+00 4.0347753309e-02 1.6130759842e+00 -2.7939295610e+00 1.6130759842e+00 2.7939295610e+00 
13100 5.4666811536e+00 3.8205239597e-02 1.6118254995e+00 -2.7917636581e+00 1.6118254995e+00 2.7917636581e+00 
13200 5.4667911043e+00 3.6148153973e-02 1.6106404905e+00 -2.7897111623e+00 1.6106404905e+00 2.7897111623e+00 
13300 5.4668874442e+00 3.4173983088e-02 1.6095184539e+00 -2.7877677378e+00 1.6095184539e+00 2.7877677378e+00 
13400 5.4669707877e+00 3.2280262899e-02 1.6084569493e+00 -2.7859291579e+00 1.6084569493e+00 2.7859291579e+00 
13500 5.4670417719e+00 3.0464579306e-02 1.6074535993e+00 -2.7841913048e+00 1.6074535993e+00 2.7841913048e+00 
13600 5.4671010502e+00 2.8724568560e-02 1.6065060888e+00 -2.7825501684e+00 1.6065060888e+00 2.7825501684e+00 
13700 5.4671492870e+00 2.7057917450e-02 1.6056121643e+00 -2.7810018458e+00 1.6056121643e+00 2.7810018458e+00 
13800 5.4671871528e+00 2.5462363320e-02 1.6047696336e+00 -2.7795425399e+00 1.6047696336e+00 2.7795425399e+00 
13900 5.4672153195e+00 2.3935693909e-02 1.6039763651e+00 -2.7781685585e+00 1.6039763651e+00 2.7781685585e+00 
14000 5.4672344561e+00 2.2475747068e-02 1.6032302869e+00 -2.7768763131e+00 1.6032302869e+00 2.7768763131e+00 
14100 5.4672452255e+00 2.1080410350e-02 1.6025293861e+00 -2.7756623173e+00 1.6025293861e+00 2.7756623173e+00 
14200 5.4672482810e+00 1.9747620495e-02 1.6018717080e+00 -2.7745231855e+00 1.6018717080e+00 2.7745231855e+00 
14300 5.4672442633e+00 1.8475362840e-02 1.6012553555e+00 -2.7734556316e+00 1.6012553555e+00 2.7734556316e+00 
14400 5.4672337983e+00 1.7261670646e-02 1.6006784877e+00 -2.7724564673e+00 1.6006784877e+00 2.7724564673e+00 
14500 5.4672174946e+00 1.6104624380e-02 1.6001393194e+00 -2.7715226004e+00 1.6001393194e+00 2.7715226004e+00 
14600 5.4671959417e+00 1.5002350941e-02 1.5996361201e+00 -2.7706510336e+00 1.5996361201e+00 2.7706510336e+00 
14700 5.4671697084e+00 1.3953022853e-02 1.5991672129e+00 -2.7698388625e+00 1.5991672129e+00 2.7698388625e+00 
14800 5.4671393418e+00 1.2954857436e-02 1.5987309737e+00 -2.7690832741e+00 1.5987309737e+00 2.7690832741e+00 
14900 5.4671053656e+00 1.2006115952e-02 1.5983258302e+00 -2.7683815449e+00 1.5983258302e+00 2.7683815449e+00 
15000 5.4670682797e+00 1.1105102746e-02 1.5979502608e+00 -2.7677310396e+00 1.5979502608e+00 2.7677310396e+00 
15100 5.4670285597e+00 1.0250164375e-02 1.5976027938e+00 -2.7671292091e+00 1.5976027938e+00 2.7671292091e+00 
15200 5.4669866561e+00 9.4396887473e-03 1.5972820062e+00 -2.7665735888e+00 1.5972820062e+00 2.7665735888e+00 
15300 5.4669429941e+00 8.6721042545e-03 1.5969865231e+00 -2.7660617970e+00 1.5969865231e+00 2.7660617970e+00 
15400 5.4668979737e+00 7.9458789215e-03 1.5967150162e+00 -2.7655915332e+00 1.5967150162e+00 2.7655915332e+00 
15500 5.4668519697e+00 7.2595195643e-03 1.5964662031e+00 -2.7651605763e+00 1.5964662031e+00 2.7651605763e+00 
15600 5.4668053317e+00 6.6115709630e-03 1.5962388463e+00 -2.7647667828e+00 1.5962388463e+00 2.7647667828e+00 
15700 5.4667583846e+00 6.0006150517e-03 1.5960317524e+00 -2.7644080856e+00 1.5960317524e+00 2.7644080856e+00 
15800 5.4667114290e+00 5.4252701261e-03 1.5958437706e+00 -2.7640824916e+00 1.5958437706e+00 2.7640824916e+00 
15900 5.4666647414e+00 4.8841900714e-03 1.5956737924e+00 -2.7637880807e+00 1.5956737924e+00 2.7637880807e+00 
16000 5.4666185753e+00 4.3760636101e-03 1.5955207501e+00 -2.7635230036e+00 1.5955207501e+00 2.7635230036e+00 
16100 5.4665731614e+00 3.8996135713e-03 1.5953836161e+00 -2.7632854807e+00 1.5953836161e+00 2.7632854807e+00 
16200 5.4665287084e+00 3.4535961810e-03 1.5952614021e+00 -2.7630737999e+00 1.5952614021e+00 2.7630737999e+00 
16300 5.4664854038e+00 3.0368003743e-03 1.5951531579e+00 -2.7628863153e+00 1.5951531579e+00 2.7628863153e+00 
16400 5.4664434149e+00 2.6480471289e-03 1.5950579705e+00 -2.7627214459e+00 1.5950579705e+00 2.7627214459e+00 
16500 5.4664028892e+00 2.2861888189e-03 1.5949749633e+00 -2.7625776733e+00 1.5949749633e+00 2.7625776733e+00 
16600 5.4663639558e+00 1.9501085905e-03 1.5949032954e+00 -2.7624535408e+00 1.5949032954e+00 2.7624535408e+00 
16700 5.4663267256e+00 1.6387197565e-03 1.5948421601e+00 -2.7623476514e+00 1.5948421601e+00 2.7623476514e+00 
16800 5.4662912928e+00 1.3509652109e-03 1.5947907848e+00 -2.7622586667e+00 1.5947907848e+00 2.7622586667e+00 
16900 5.4662577357e+00 1.0858168618e-03 1.5947484294e+00 -2.7621853051e+00 1.5947484294e+00 2.7621853051e+00 
17000 5.4662261172e+00 8.4227508159e-04 1.5947143860e+00 -2.7621263402e+00 1.5947143860e+00 2.7621263402e+00 
17100 5.4661964861e+00 6.1936817512e-04 1.5946879778e+00 -2.7620805997e+00 1.5946879778e+00 2.7620805997e+00 
17200 5.4661688779e+00 4.1615186250e-04 1.5946685581e+00 -2.7620469638e+00 1.5946685581e+00 2.7620469638e+00 
17300 5.4661433158e+00 2.3170877775e-04 1.5946555099e+00 -2.7620243637e+00 1.5946555099e+00 2.7620243637e+00 
17400 5.4661198111e+00 6.5147981158e-05 1.5946482447e+00 -2.7620117801e+00 1.5946482447e+00 2.7620117801e+00 
17500 5.4660983640e+00 -8.2599175921e-05 1.5946482447e+00 -2.7620117801e+00 1.5946482447e+00 2.7620117801e+00 
17600 5.4660789662e+00 -2.1600830372e-04 1.5946508346e+00 -2.7620162659e+00 1.5946508346e+00 2.7620162659e+00 
17700 5.4660615994e+00 -3.3405296633e-04 1.5946576075e+00 -2.7620279969e+00 1.5946576075e+00 2.7620279969e+00 
17800 5.4660462374e+00 -4.3752306917e-04 1.5946680817e+00 -2.7620461386e+00 1.5946680817e+00 2.7620461386e+00 
17900 5.4660328461e+00 -5.2718434967e-04 1.5946818000e+00 -2.7620698995e+00 1.5946818000e+00 2.7620698995e+00 
18000 5.4660213849e+00 -6.0377880016e-04 1.5946983295e+00 -2.7620985294e+00 1.5946983295e+00 2.7620985294e+00 
18100 5.4660118071e+00 -6.6802508305e-04 1.5947172603e+00 -2.7621313186e+00 1.5947172603e+00 2.7621313186e+00 
18200 5.4660040604e+00 -7.2061893890e-04 1.5947382053e+00 -2.7621675964e+00 1.5947382053e+00 2.7621675964e+00 
18300 5.4659980882e+00 -7.6223358841e-04 1.5947607990e+00 -2.7622067298e+00 1.5947607990e+00 2.7622067298e+00 
18400 5.4659938295e+00 -7.9352012866e-04 1.5947846971e+00 -2.7622481225e+00 1.5947846971e+00 2.7622481225e+00 
18500 5.4659912198e+00 -8.1510792459e-04 1.5948095758e+00 -2.7622912136e+00 1.5948095758e+00 2.7622912136e+00 
18600 5.4659901919e+00 -8.2760499608e-04 1.5948351309e+00 -2.7623354764e+00 1.5948351309e+00 2.7623354764e+00 
18700 5.4659906758e+00 -8.3159840128e-04 1.5948610774e+00 -2.7623804170e+00 1.5948610774e+00 2.7623804170e+00 
18800 5.4659926000e+00 -8.2765461668e-04 1.5948871486e+00 -2.7624255737e+00 1.5948871486e+00 2.7624255737e+00 
18900 5.4659958913e+00 -8.1631991446e-04 1.5949130958e+00 -2.7624705156e+00 1.5949130958e+00 2.7624705156e+00 
19000 5.4660004756e+00 -7.9812073738e-04 1.5949386872e+00 -2.7625148412e+00 1.5949386872e+00 2.7625148412e+00 
19100 5.4660062781e+00 -7.7356407171e-04 1.5949637077e+00 -2.7625581780e+00 1.5949637077e+00 2.7625581780e+00 
19200 5.4660132239e+00 -7.4313781853e-04 1.5949879580e+00 -2.7626001807e+00 1.5949879580e+00 2.7626001807e+00 
19300 5.4660212381e+00 -7.0731116359e-04 1.5950112541e+00 -2.7626405307e+00 1.5950112541e+00 2.7626405307e+00 
19400 5.4660302463e+00 -6.6653494606e-04 1.5950334267e+00 -2.7626789349e+00 1.5950334267e+00 2.7626789349e+00 
19500 5.4660401750e+00 -6.2124202634e-04 1.5950543209e+00 -2.7627151246e+00 1.5950543209e+00 2.7627151246e+00 
19600 5.4660509514e+00 -5.7184765312e-04 1.5950737949e+00 -2.7627488546e+00 1.5950737949e+00 2.7627488546e+00 
19700 5.4660625043e+00 -5.1874982982e-04 1.5950917204e+00 -2.7627799024e+00 1.5950917204e+00 2.7627799024e+00 
19800 5.4660747638e+00 -4.6232968043e-04 1.5951079812e+00 -2.7628080670e+00 1.5951079812e+00 2.7628080670e+00 
19900 5.4660876616e+00 -4.0295181494e-04 1.5951224733e+00 -2.7628331681e+00 1.5951224733e+00 2.7628331681e+00 
20000 5.4661011315e+00 -3.4096469427e-04 1.5951351041e+00 -2.7628550453e+00 1.5951351041e+00 2.7628550453e+00 
20100 5.4661151090e+00 -2.7670099480e-04 1.5951457918e+00 -2.7628735568e+00 1.5951457918e+00 2.7628735568e+00 
20200 5.4661295320e+00 -2.1047797240e-04 1.5951544650e+00 -2.7628885793e+00 1.5951544650e+00 2.7628885793e+00 
20300 5.4661443405e+00 -1.4259782594e-04 1.5951610624e+00 -2.7629000064e+00 1.5951610624e+00 2.7629000064e+00 
20400 5.4661594768e+00 -7.3348060184e-05 1.5951655321e+00 -2.7629077481e+00 1.5951655321e+00 2.7629077481e+00 
20500 5.4661748859e+00 -3.0018480643e-06 1.5951678312e+00 -2.7629117302e+00 1.5951678312e+00 2.7629117302e+00 
20600 5.4661905148e+00 6.8100156546e-05 1.5951678312e+00 -2.7629117302e+00 1.5951678312e+00 2.7629117302e+00 
20700 5.4662063140e+00 1.4172461082e-04 1.5951678312e+00 -2.7629117302e+00 1.5951678312e+00 2.7629117302e+00 
20800 5.4662222351e+00 2.1381890714e-04 1.5951633889e+00 -2.7629040359e+00 1.5951633889e+00 2.7629040359e+00 
20900 5.4662382331e+00 2.8605394619e-04 1.5951566868e+00 -2.7628924275e+00 1.5951566868e+00 2.7628924275e+00 
21000 5.4662542656e+00 3.5822278416e-04 1.5951477205e+00 -2.7628768974e+00 1.5951477205e+00 2.7628768974e+00 
21100 5.4662702926e+00 4.3013065964e-04 1.5951364920e+00 -2.7628574491e+00 1.5951364920e+00 2.7628574491e+00 
21200 5.4662862767e+00 5.0159464029e-04 1.5951230094e+00 -2.7628340966e+00 1.5951230094e+00 2.7628340966e+00 
21300 5.4663021830e+00 5.7244327158e-04 1.5951072867e+00 -2.7628068641e+00 1.5951072867e+00 2.7628068641e+00 
21400 5.4663179792e+00 6.4251622766e-04 1.5950893430e+00 -2.7627757847e+00 1.5950893430e+00 2.7627757847e+00 
21500 5.4663336352e+00 7.1166396478e-04 1.5950692026e+00 -2.7627409005e+00 1.5950692026e+00 2.7627409005e+00 
21600 5.4663491237e+00 7.7974737728e-04 1.5950468944e+00 -2.7627022616e+00 1.5950468944e+00 2.7627022616e+00 
21700 5.4663644192e+00 8.4663745654e-04 1.5950224517e+00 -2.7626599255e+00 1.5950224517e+00 2.7626599255e+00 
21800 5.4663794989e+00 9.1221495287e-04 1.5949959118e+00 -2.7626139571e+00 1.5949959118e+00 2.7626139571e+00 
21900 5.4663943422e+00 9.7637004091e-04 1.5949673157e+00 -2.7625644272e+00 1.5949673157e+00 2.7625644272e+00 
22000 5.4664089302e+00 1.0390019884e-03 1.5949367080e+00 -2.7625114131e+00 1.5949367080e+00 2.7625114131e+00 
22100 5.4664232466e+00 1.1000188286e-03 1.5949041362e+00 -2.7624549971e+00 1.5949041362e+00 2.7624549971e+00 
22200 5.4664372767e+00 1.1593370369e-03 1.5948696509e+00 -2.7623952668e+00 1.5948696509e+00 2.7623952668e+00 
22300 5.4664510080e+00 1.2168812114e-03 1.5948333052e+00 -2.7623323142e+00 1.5948333052e+00 2.7623323142e+00 
22400 5.4664644294e+00 1.2725837579e-03 1.5947951546e+00 -2.7622662355e+00 1.5947951546e+00 2.7622662355e+00 
22500 5.4664775319e+00 1.3263845789e-03 1.5947552568e+00 -2.7621971303e+00 1.5947552568e+00 2.7621971303e+00 
22600 5.4664903081e+00 1.3782307685e-03 1.5947136711e+00 -2.7621251019e+00 1.5947136711e+00 2.7621251019e+00 
22700 5.4665027519e+00 1.4280763108e-03 1.5946704588e+00 -2.7620502560e+00 1.5946704588e+00 2.7620502560e+00 
22800 5.4665148590e+00 1.4758817839e-03 1.5946256825e+00 -2.7619727011e+00 1.5946256825e+00 2.7619727011e+00 
22900 5.4665266262e+00 1.5216140698e-03 1.5945794060e+00 -2.7618925478e+00 1.5945794060e+00 2.7618925478e+00 
23000 5.4665380517e+00 1.5652460682e-03 1.5945316941e+00 -2.7618099085e+00 1.5945316941e+00 2.7618099085e+00 
23100 5.4665491351e+00 1.6067564169e-03 1.5944826127e+00 -2.7617248970e+00 1.5944826127e+00 2.7617248970e+00 
23200 5.4665598769e+00 1.6461292174e-03 1.5944322281e+00 -2.7616376282e+00 1.5944322281e+00 2.7616376282e+00 
23300 5.4665702786e+00 1.6833537664e-03 1.5943806072e+00 -2.7615482182e+00 1.5943806072e+00 2.7615482182e+00 
23400 5.4665803430e+00 1.7184242925e-03 1.5943278173e+00 -2.7614567834e+00 1.5943278173e+00 2.7614567834e+00 
23500 5.4665900733e+00 1.7513396998e-03 1.5942739258e+00 -2.7613634406e+00 1.5942739258e+00 2.7613634406e+00 
23600 5.4665994740e+00 1.7821033167e-03 1.5942190001e+00 -2.7612683066e+00 1.5942190001e+00 2.7612683066e+00 
23700 5.4666085501e+00 1.8107226511e-03 1.5941631078e+00 -2.7611714982e+00 1.5941631078e+00 2.7611714982e+00 
23800 5.4666173072e+00 1.8372091518e-03 1.5941063159e+00 -2.7610731317e+00 1.5941063159e+00 2.7610731317e+00 
23900 5.4666257517e+00 1.8615779758e-03 1.5940486912e+00 -2.7609733228e+00 1.5940486912e+00 2.7609733228e+00 
24000 5.4666338904e+00 1.8838477622e-03 1.5939903000e+00 -2.7608721864e+00 1.5939903000e+00 2.7608721864e+00 
24100 5.4666417305e+00 1.9040404120e-03 1.5939312082e+00 -2.7607698363e+00 1.5939312082e+00 2.7607698363e+00 
24200 5.4666492798e+00 1.9221808748e-03 1.5938714807e+00 -2.7606663854e+00 1.5938714807e+00 2.7606663854e+00 
24300 5.4666565463e+00 1.9382969407e-03 1.5938111820e+00 -2.7605619449e+00 1.5938111820e+00 2.7605619449e+00 
24400 5.4666635384e+00 1.9524190399e-03 1.5937503754e+00 -2.7604566248e+00 1.5937503754e+00 2.7604566248e+00 
24500 5.4666702647e+00 1.9645800474e-03 1.5936891234e+00 -2.7603505333e+00 1.5936891234e+00 2.7603505333e+00 
24600 5.4666767339e+00 1.9748150947e-03 1.5936274876e+00 -2.7602437769e+00 1.5936274876e+00 2.7602437769e+00 
24700 5.4666829550e+00 1.9831613876e-03 1.5935655283e+00 -2.7601364601e+00 1.5935655283e+00 2.7601364601e+00 
24800 5.4666889370e+00 1.9896580299e-03 1.5935033046e+00 -2.7600286857e+00 1.5935033046e+00 2.7600286857e+00 
24900 5.4666946890e+00 1.9943458538e-03 1.5934408747e+00 -2.7599205539e+00 1.5934408747e+00 2.7599205539e+00 
25000 5.4667002202e+00 1.9972672563e-03 1.5933782953e+00 -2.7598121631e+00 1.5933782953e+00 2.7598121631e+00 
25100 5.4667055395e+00 1.9984660413e-03 1.5933156217e+00 -2.7597036093e+00 1.5933156217e+00 2.7597036093e+00 
25200 5.4667106561e+00 1.9979872682e-03 1.5932529081e+00 -2.7595949861e+00 1.5932529081e+00 2.7595949861e+00 
25300 5.4667155791e+00 1.9958771062e-03 1.5931902070e+00 -2.7594863846e+00 1.5931902070e+00 2.7594863846e+00 
25400 5.4667203171e+00 1.9921826948e-03 1.5931275696e+00 -2.7593778935e+00 1.5931275696e+00 2.7593778935e+00 
25500 5.4667248791e+00 1.9869520095e-03 1.5930650458e+00 -2.7592695990e+00 1.5930650458e+00 2.7592695990e+00 
25600 5.4667292736e+00 1.9802337339e-03 1.5930026836e+00 -2.7591615846e+00 1.5930026836e+00 2.7591615846e+00 
25700 5.4667335090e+00 1.9720771368e-03 1.5929405299e+00 -2.7590539312e+00 1.5929405299e+00 2.7590539312e+00 
25800 5.4667375937e+00 1.9625319555e-03 1.5928786298e+00 -2.7589467171e+00 1.5928786298e+00 2.7589467171e+00 
25900 5.4667415355e+00 1.9516482839e-03 1.5928170269e+00 -2.7588400177e+00 1.5928170269e+00 2.7588400177e+00 
26000 5.4667453424e+00 1.9394764663e-03 1.5927557632e+00 -2.7587339059e+00 1.5927557632e+00 2.7587339059e+00 
26100 5.4667490219e+00 1.9260669961e-03 1.5926948793e+00 -2.7586284519e+00 1.5926948793e+00 2.7586284519e+00 
26200 5.4667525815e+00 1.9114704203e-03 1.5926344140e+00 -2.7585237230e+00 1.5926344140e+00 2.7585237230e+00 
26300 5.4667560280e+00 1.8957372477e-03 1.5925744047e+00 -2.7584197838e+00 1.5925744047e+00 2.7584197838e+00 
26400 5.4667593685e+00 1.8789178638e-03 1.5925148871e+00 -2.7583166962e+00 1.5925148871e+00 2.7583166962e+00 
26500 5.4667626094e+00 1.8610624484e-03 1.5924558953e+00 -2.7582145194e+00 1.5924558953e+00 2.7582145194e+00 
26600 5.4667657571e+00 1.8422208998e-03 1.5923974619e+00 -2.7581133098e+00 1.5923974619e+00 2.7581133098e+00 
26700 5.4667688176e+00 1.8224427619e-03 1.5923396180e+00 -2.7580131213e+00 1.5923396180e+00 2.7580131213e+00 
26800 5.4667717966e+00 1.8017771566e-03 1.5922823930e+00 -2.7579140047e+00 1.5922823930e+00 2.7579140047e+00 
26900 5.4667746997e+00 1.7802727205e-03 1.5922258149e+00 -2.7578160085e+00 1.5922258149e+00 2.7578160085e+00 
27000 5.4667775321e+00 1.7579775451e-03 1.5921699101e+00 -2.7577191785e+00 1.5921699101e+00 2.7577191785e+00 
27100 5.4667802986e+00 1.7349391216e-03 1.5921147034e+00 -2.7576235578e+00 1.5921147034e+00 2.7576235578e+00 
27200 5.4667830040e+00 1.7112042897e-03 1.5920602184e+00 -2.7575291869e+00 1.5920602184e+00 2.7575291869e+00 
27300 5.4667856527e+00 1.6868191891e-03 1.5920064768e+00 -2.7574361039e+00 1.5920064768e+00 2.7574361039e+00 
27400 5.4667882488e+00 1.6618292163e-03 1.5919534994e+00 -2.7573443442e+00 1.5919534994e+00 2.7573443442e+00 
27500 5.4667907963e+00 1.6362789834e-03 1.5919013050e+00 -2.7572539409e+00 1.5919013050e+00 2.7572539409e+00 
27600 5.4667932988e+00 1.6102122813e-03 1.5918499114e+00 -2.7571649246e+00 1.5918499114e+00 2.7571649246e+00 
27700 5.4667957598e+00 1.5836720458e-03 1.5917993349e+00 -2.7570773235e+00 1.5917993349e+00 2.7570773235e+00 
27800 5.4667981823e+00 1.5567003265e-03 1.5917495905e+00 -2.7569911636e+00 1.5917495905e+00 2.7569911636e+00 
27900 5.4668005693e+00 1.5293382597e-03 1.5917006917e+00 -2.7569064684e+00 1.5917006917e+00 2.7569064684e+00 
28000 5.4668029236e+00 1.5016260429e-03 1.5916526509e+00 -2.7568232594e+00 1.5916526509e+00 2.7568232594e+00 
28100 5.4668052477e+00 1.4736029137e-03 1.5916054792e+00 -2.7567415556e+00 1.5916054792e+00 2.7567415556e+00 
28200 5.4668075440e+00 1.4453071295e-03 1.5915591865e+00 -2.7566613743e+00 1.5915591865e+00 2.7566613743e+00 
28300 5.4668098144e+00 1.4167759517e-03 1.5915137813e+00 -2.7565827302e+00 1.5915137813e+00 2.7565827302e+00 
28400 5.4668120610e+00 1.3880456308e-03 1.5914692712e+00 -2.7565056364e+00 1.5914692712e+00 2.7565056364e+00 
28500 5.4668142854e+00 1.3591513948e-03 1.5914256625e+00 -2.7564301039e+00 1.5914256625e+00 2.7564301039e+00 
28600 5.4668164894e+00 1.3301274393e-03 1.5913829603e+00 -2.7563561416e+00 1.5913829603e+00 2.7563561416e+00 
28700 5.4668186742e+00 1.3010069202e-03 1.5913411690e+00 -2.7562837568e+00 1.5913411690e+00 2.7562837568e+00 
28800 5.4668208412e+00 1.2718219482e-03 1.5913002914e+00 -2.7562129549e+00 1.5913002914e+00 2.7562129549e+00 
28900 5.4668229915e+00 1.2426035848e-03 1.5912603299e+00 -2.7561437394e+00 1.5912603299e+00 2.7561437394e+00 
29000 5.4668251260e+00 1.2133818413e-03 1.5912212854e+00 -2.7560761124e+00 1.5912212854e+00 2.7560761124e+00 
29100 5.4668272455e+00 1.1841856781e-03 1.5911831582e+00 -2.7560100741e+00 1.5911831582e+00 2.7560100741e+00 
29200 5.4668293510e+00 1.1550430070e-03 1.5911459475e+00 -2.7559456233e+00 1.5911459475e+00 2.7559456233e+00 
29300 5.4668314428e+00 1.1259806937e-03 1.5911096517e+00 -2.7558827571e+00 1.5911096517e+00 2.7558827571e+00 
29400 5.4668335216e+00 1.0970245634e-03 1.5910742683e+00 -2.7558214713e+00 1.5910742683e+00 2.7558214713e+00 
29500 5.4668355878e+00 1.0681994060e-03 1.5910397941e+00 -2.7557617602e+00 1.5910397941e+00 2.7557617602e+00 
29600 5.4668376417e+00 1.0395289841e-03 1.5910062250e+00 -2.7557036168e+00 1.5910062250e+00 2.7557036168e+00 
29700 5.4668396835e+00 1.0110360413e-03 1.5909735562e+00 -2.7556470328e+00 1.5909735562e+00 2.7556470328e+00 
29800 5.4668417134e+00 9.8274231214e-04 1.5909417822e+00 -2.7555919986e+00 1.5909417822e+00 2.7555919986e+00 
29900 5.4668437315e+00 9.5466853277e-04 1.5909108967e+00 -2.7555385034e+00 1.5909108967e+00 2.7555385034e+00 
30000 5.4668457379e+00 9.2683445286e-04 1.5908808930e+00 -2.7554865354e+00 1.5908808930e+00 2.7554865354e+00 
30100 5.4668477325e+00 8.9925884831e-04 1.5908517635e+00 -2.7554360816e+00 1.5908517635e+00 2.7554360816e+00 
30200 5.4668497152e+00 8.7195953489e-04 1.5908235001e+00 -2.7553871281e+00 1.5908235001e+00 2.7553871281e+00 
30300 5.4668516859e+00 8.4495338265e-04 1.5907960943e+00 -2.7553396597e+00 1.5907960943e+00 2.7553396597e+00 
30400 5.4668536445e+00 8.1825633099e-04 1.5907695368e+00 -2.7552936608e+00 1.5907695368e+00 2.7552936608e+00 
30500 5.4668555908e+00 7.9188340455e-04 1.5907438180e+00 -2.7552491145e+00 1.5907438180e+00 2.7552491145e+00 
30600 5.4668575246e+00 7.6584872953e-04 1.5907189277e+00 -2.7552060033e+00 1.5907189277e+00 2.7552060033e+00 
30700 5.4668594456e+00 7.4016555074e-04 1.5906948553e+00 -2.7551643088e+00 1.5906948553e+00 2.7551643088e+00 
30800 5.4668613535e+00 7.1484624905e-04 1.5906715899e+00 -2.7551240119e+00 1.5906715899e+00 2.7551240119e+00 
30900 5.4668632481e+00 6.8990235928e-04 1.5906491200e+00 -2.7550850929e+00 1.5906491200e+00 2.7550850929e+00 
31000 5.4668651290e+00 6.6534458855e-04 1.5906274339e+00 -2.7550475314e+00 1.5906274339e+00 2.7550475314e+00 
31100 5.4668669960e+00 6.4118283496e-04 1.5906065194e+00 -2.7550113064e+00 1.5906065194e+00 2.7550113064e+00 
31200 5.4668688488e+00 6.1742620657e-04 1.5905863641e+00 -2.7549763965e+00 1.5905863641e+00 2.7549763965e+00 
31300 5.4668706870e+00 5.9408304064e-04 1.5905669554e+00 -2.7549427796e+00 1.5905669554e+00 2.7549427796e+00 
31400 5.4668725103e+00 5.7116092311e-04 1.5905482802e+00 -2.7549104333e+00 1.5905482802e+00 2.7549104333e+00 
31500 5.4668743184e+00 5.4866670827e-04 1.5905303254e+00 -2.7548793346e+00 1.5905303254e+00 2.7548793346e+00 
31600 5.4668761110e+00 5.2660653854e-04 1.5905130775e+00 -2.7548494604e+00 1.5905130775e+00 2.7548494604e+00 
31700 5.4668778878e+00 5.0498586441e-04 1.5904965230e+00 -2.7548207870e+00 1.5904965230e+00 2.7548207870e+00 
31800 5.4668796485e+00 4.8380946441e-04 1.5904806479e+00 -2.7547932906e+00 1.5904806479e+00 2.7547932906e+00 
31900 5.4668813927e+00 4.6308146517e-04 1.5904654384e+00 -2.7547669470e+00 1.5904654384e+00 2.7547669470e+00 
32000 5.4668831204e+00 4.4280536145e-04 1.5904508804e+00 -2.7547417317e+00 1.5904508804e+00 2.7547417317e+00 
32100 5.4668848310e+00 4.2298403619e-04 1.5904369596e+00 -2.7547176203e+00 1.5904369596e+00 2.7547176203e+00 
32200 5.4668865246e+00 4.0361978052e-04 1.5904236619e+00 -2.7546945880e+00 1.5904236619e+00 2.7546945880e+00 
32300 5.4668882006e+00 3.8471431364e-04 1.5904109729e+00 -2.7546726099e+00 1.5904109729e+00 2.7546726099e+00 
32400 5.4668898591e+00 3.6626880270e-04 1.5903988781e+00 -2.7546516611e+00 1.5903988781e+00 2.7546516611e+00 
32500 5.4668914997e+00 3.4828388253e-04 1.5903873631e+00 -2.7546317166e+00 1.5903873631e+00 2.7546317166e+00 
32600 5.4668931224e+00 3.3075967514e-04 1.5903764134e+00 -2.7546127512e+00 1.5903764134e+00 2.7546127512e+00 
32700 5.4668947268e+00 3.1369580925e-04 1.5903660147e+00 -2.7545947400e+00 1.5903660147e+00 2.7545947400e+00 
32800 5.4668963129e+00 2.9709143947e-04 1.5903561523e+00 -2.7545776579e+00 1.5903561523e+00 2.7545776579e+00 
32900 5.4668978806e+00 2.8094526537e-04 1.5903468119e+00 -2.7545614799e+00 1.5903468119e+00 2.7545614799e+00 
33000 5.4668994296e+00 2.6525555034e-04 1.5903379791e+00 -2.7545461810e+00 1.5903379791e+00 2.7545461810e+00 
33100 5.4669009600e+00 2.5002014017e-04 1.5903296395e+00 -2.7545317364e+00 1.5903296395e+00 2.7545317364e+00 
33200 5.4669024717e+00 2.3523648147e-04 1.5903217789e+00 -2.7545181214e+00 1.5903217789e+00 2.7545181214e+00 
33300 5.4669039645e+00 2.2090163975e-04 1.5903143830e+00 -2.7545053113e+00 1.5903143830e+00 2.7545053113e+00 
33400 5.4669054386e+00 2.0701231731e-04 1.5903074378e+00 -2.7544932819e+00 1.5903074378e+00 2.7544932819e+00 
33500 5.4669068937e+00 1.9356487079e-04 1.5903009292e+00 -2.7544820087e+00 1.5903009292e+00 2.7544820087e+00 
33600 5.4669083299e+00 1.8055532846e-04 1.5902948434e+00 -2.7544714678e+00 1.5902948434e+00 2.7544714678e+00 
33700 5.4669097473e+00 1.6797940722e-04 1.5902891666e+00 -2.7544616354e+00 1.5902891666e+00 2.7544616354e+00 
33800 5.4669111458e+00 1.5583252927e-04 1.5902838852e+00 -2.7544524877e+00 1.5902838852e+00 2.7544524877e+00 
33900 5.4669125256e+00 1.4410983852e-04 1.5902789857e+00 -2.7544440015e+00 1.5902789857e+00 2.7544440015e+00 
34000 5.4669138865e+00 1.3280621655e-04 1.5902744548e+00 -2.7544361536e+00 1.5902744548e+00 2.7544361536e+00 
34100 5.4669152288e+00 1.2191629841e-04 1.5902702792e+00 -2.7544289213e+00 1.5902702792e+00 2.7544289213e+00 
34200 5.4669165525e+00 1.1143448797e-04 1.5902664460e+00 -2.7544222820e+00 1.5902664460e+00 2.7544222820e+00 
34300 5.4669178577e+00 1.0135497297e-04 1.5902629424e+00 -2.7544162135e+00 1.5902629424e+00 2.7544162135e+00 
34400 5.4669191445e+00 9.1671739716e-05 1.5902597556e+00 -2.7544106940e+00 1.5902597556e+00 2.7544106940e+00 
34500 5.4669204130e+00 8.2378587449e-05 1.5902568733e+00 -2.7544057017e+00 1.5902568733e+00 2.7544057017e+00 
34600 5.4669216634e+00 7.3469142340e-05 1.5902542832e+00 -2.7544012155e+00 1.5902542832e+00 2.7544012155e+00 
34700 5.4669228958e+00 6.4936871158e-05 1.5902519732e+00 -2.7543972145e+00 1.5902519732e+00 2.7543972145e+00 
34800 5.4669241104e+00 5.8556358514e-05 1.5902519732e+00 -2.7543972145e+00 1.5902519732e+00 2.7543972145e+00 
34900 5.4669253073e+00 5.2323451464e-05 1.5902519732e+00 -2.7543972145e+00 1.5902519732e+00 2.7543972145e+00 
35000 5.4669264867e+00 4.6240174014e-05 1.5902519732e+00 -2.7543972145e+00 1.5902519732e+00 2.7543972145e+00 
35100 5.4669276487e+00 4.0308293892e-05 1.5902519732e+00 -2.7543972145e+00 1.5902519732e+00 2.7543972145e+00 
35200 5.4669287934e+00 3.4529331499e-05 1.5902519732e+00 -2.7543972145e+00 1.5902519732e+00 2.7543972145e+00 
35300 5.4669299212e+00 2.8904568747e-05 1.5902519732e+00 -2.7543972145e+00 1.5902519732e+00 2.7543972145e+00 
35400 5.4669310323e+00 2.3435057766e-05 1.5902519732e+00 -2.7543972145e+00 1.5902519732e+00 2.7543972145e+00 
35500 5.4669321267e+00 1.8121629500e-05 1.5902519732e+00 -2.7543972145e+00 1.5902519732e+00 2.7543972145e+00 
35600 5.4669332048e+00 1.2964902151e-05 1.5902519732e+00 -2.7543972145e+00 1.5902519732e+00 2.7543972145e+00 
35700 5.4669342668e+00 7.9652895111e-06 1.5902519732e+00 -2.7543972145e+00 1.5902519732e+00 2.7543972145e+00 
35800 5.4669353129e+00 3.1230091458e-06 1.5902519732e+00 -2.7543972145e+00 1.5902519732e+00 2.7543972145e+00 
35900 5.4669363432e+00 -1.5619095586e-06 1.5902519732e+00 -2.7543972145e+00 1.5902519732e+00 2.7543972145e+00 
36000 5.4669373581e+00 -6.0896174887e-06 1.5902519732e+00 -2.7543972145e+00 1.5902519732e+00 2.7543972145e+00 
36100 5.4669383578e+00 -1.0460438038e-05 1.5902519732e+00 -2.7543972145e+00 1.5902519732e+00 2.7543972145e+00 
36200 5.4669393425e+00 -1.4674859497e-05 1.5902519732e+00 -2.7543972145e+00 1.5902519732e+00 2.7543972145e+00 
36300 5.4669403123e+00 -1.8733527577e-05 1.5902519732e+00 -2.7543972145e+00 1.5902519732e+00 2.7543972145e+00 
36400 5.4669412676e+00 -2.2637238092e-05 1.5902519732e+00 -2.7543972145e+00 1.5902519732e+00 2.7543972145e+00 
36500 5.4669422086e+00 -2.6386929793e-05 1.5902519732e+00 -2.7543972145e+00 1.5902519732e+00 2.7543972145e+00 
36600 5.4669431355e+00 -2.9983677341e-05 1.5902519732e+00 -2.7543972145e+00 1.5902519732e+00 2.7543972145e+00 
36700 5.4669440485e+00 -3.3428684450e-05 1.5902519732e+00 -2.7543972145e+00 1.5902519732e+00 2.7543972145e+00 
36800 5.4669449479e+00 -3.6723277168e-05 1.5902519732e+00 -2.7543972145e+00 1.5902519732e+00 2.7543972145e+00 
36900 5.4669458339e+00 -3.9868897317e-05 1.5902519732e+00 -2.7543972145e+00 1.5902519732e+00 2.7543972145e+00 
37000 5.4669467066e+00 -4.2867096092e-05 1.5902519732e+00 -2.7543972145e+00 1.5902519732e+00 2.7543972145e+00 
37100 5.4669475664e+00 -4.5719527803e-05 1.5902519732e+00 -2.7543972145e+00 1.5902519732e+00 2.7543972145e+00 
37200 5.4669484134e+00 -4.8427943782e-05 1.5902519732e+00 -2.7543972145e+00 1.5902519732e+00 2.7543972145e+00 
37300 5.4669492479e+00 -5.0994186439e-05 1.5902519732e+00 -2.7543972145e+00 1.5902519732e+00 2.7543972145e+00 
37400 5.4669500701e+00 -5.3420183466e-05 1.5902519732e+00 -2.7543972145e+00 1.5902519732e+00 2.7543972145e+00 
37500 5.4669508801e+00 -5.5707942203e-05 1.5902519732e+00 -2.7543972145e+00 1.5902519732e+00 2.7543972145e+00 
37600 5.4669516783e+00 -5.7859544157e-05 1.5902519732e+00 -2.7543972145e+00 1.5902519732e+00 2.7543972145e+00 
37700 5.4669524647e+00 -5.9877139662e-05 1.5902519732e+00 -2.7543972145e+00 1.5902519732e+00 2.7543972145e+00 
37800 5.4669532397e+00 -6.1762942699e-05 1.5902519732e+00 -2.7543972145e+00 1.5902519732e+00 2.7543972145e+00 
37900 5.4669540034e+00 -6.3519225866e-05 1.5902519732e+00 -2.7543972145e+00 1.5902519732e+00 2.7543972145e+00 
38000 5.4669547560e+00 -6.5148315490e-05 1.5902519732e+00 -2.7543972145e+00 1.5902519732e+00 2.7543972145e+00 
38100 5.4669554977e+00 -6.6652586894e-05 1.5902519732e+00 -2.7543972145e+00 1.5902519732e+00 2.7543972145e+00 
38200 5.4669562287e+00 -6.8034459805e-05 1.5902519732e+00 -2.7543972145e+00 1.5902519732e+00 2.7543972145e+00 
38300 5.4669569492e+00 -6.9296393913e-05 1.5902519732e+00 -2.7543972145e+00 1.5902519732e+00 2.7543972145e+00 
38400 5.4669576594e+00 -7.0440884566e-05 1.5902519732e+00 -2.7543972145e+00 1.5902519732e+00 2.7543972145e+00 
38500 5.4669583594e+00 -7.1470458614e-05 1.5902519732e+00 -2.7543972145e+00 1.5902519732e+00 2.7543972145e+00 
38600 5.4669590493e+00 -7.0427774170e-05 1.5902542204e+00 -2.7544011067e+00 1.5902542204e+00 2.7544011067e+00 
38700 5.4669597295e+00 -7.1226582413e-05 1.5902542204e+00 -2.7544011067e+00 1.5902542204e+00 2.7544011067e+00 
38800 5.4669603999e+00 -6.9965059772e-05 1.5902564599e+00 -2.7544049855e+00 1.5902564599e+00 2.7544049855e+00 
38900 5.4669610611e+00 -7.0543608463e-05 1.5902564599e+00 -2.7544049855e+00 1.5902564599e+00 2.7544049855e+00 
39000 5.4669617130e+00 -7.1020308637e-05 1.5902564599e+00 -2.7544049855e+00 1.5902564599e+00 2.7544049855e+00 
39100 5.4669623555e+00 -6.9450307763e-05 1.5902586928e+00 -2.7544088532e+00 1.5902586928e+00 2.7544088532e+00 
39200 5.4669629893e+00 -6.9722699407e-05 1.5902586928e+00 -2.7544088532e+00 1.5902586928e+00 2.7544088532e+00 
39300 5.4669636142e+00 -6.9901247604e-05 1.5902586928e+00 -2.7544088532e+00 1.5902586928e+00 2.7544088532e+00 
39400 5.4669642305e+00 -6.9988617168e-05 1.5902586928e+00 -2.7544088532e+00 1.5902586928e+00 2.7544088532e+00 
39500 5.4669648383e+00 -6.9987469148e-05 1.5902586928e+00 -2.7544088532e+00 1.5902586928e+00 2.7544088532e+00 
39600 5.4669654377e+00 -6.9900458140e-05 1.5902586928e+00 -2.7544088532e+00 1.5902586928e+00 2.7544088532e+00 
39700 5.4669660288e+00 -6.9730229716e-05 1.5902586928e+00 -2.7544088532e+00 1.5902586928e+00 2.7544088532e+00 
39800 5.4669666119e+00 -6.9479417959e-05 1.5902586928e+00 -2.7544088532e+00 1.5902586928e+00 2.7544088532e+00 
39900 5.4669671869e+00 -6.9150643130e-05 1.5902586928e+00 -2.7544088532e+00 1.5902586928e+00 2.7544088532e+00 
40000 5.4669677542e+00 -6.8746509427e-05 1.5902586928e+00 -2.7544088532e+00 1.5902586928e+00 2.7544088532e+00 
40100 5.4669683137e+00 -6.8269602868e-05 1.5902586928e+00 -2.7544088532e+00 1.5902586928e+00 2.7544088532e+00 
40200 5.4669688656e+00 -6.7722489277e-05 1.5902586928e+00 -2.7544088532e+00 1.5902586928e+00 2.7544088532e+00 
40300 5.4669694101e+00 -6.7107712364e-05 1.5902586928e+00 -2.7544088532e+00 1.5902586928e+00 2.7544088532e+00 
40400 5.4669699473e+00 -6.6427791927e-05 1.5902586928e+00 -2.7544088532e+00 1.5902586928e+00 2.7544088532e+00 
40500 5.4669704772e+00 -6.5685222131e-05 1.5902586928e+00 -2.7544088532e+00 1.5902586928e+00 2.7544088532e+00 
40600 5.4669710000e+00 -6.4882469908e-05 1.5902586928e+00 -2.7544088532e+00 1.5902586928e+00 2.7544088532e+00 
40700 5.4669715158e+00 -6.4021973428e-05 1.5902586928e+00 -2.7544088532e+00 1.5902586928e+00 2.7544088532e+00 
40800 5.4669720247e+00 -6.3106140686e-05 1.5902586928e+00 -2.7544088532e+00 1.5902586928e+00 2.7544088532e+00 
40900 5.4669725268e+00 -6.2137348158e-05 1.5902586928e+00 -2.7544088532e+00 1.5902586928e+00 2.7544088532e+00 
41000 5.4669730222e+00 -6.1117939559e-05 1.5902586928e+00 -2.7544088532e+00 1.5902586928e+00 2.7544088532e+00 
41100 5.4669735111e+00 -6.0050224682e-05 1.5902586928e+00 -2.7544088532e+00 1.5902586928e+00 2.7544088532e+00 
41200 5.4669739934e+00 -5.8936478320e-05 1.5902586928e+00 -2.7544088532e+00 1.5902586928e+00 2.7544088532e+00 
41300 5.4669744694e+00 -5.7778939268e-05 1.5902586928e+00 -2.7544088532e+00 1.5902586928e+00 2.7544088532e+00 
41400 5.4669749391e+00 -5.6579809407e-05 1.5902586928e+00 -2.7544088532e+00 1.5902586928e+00 2.7544088532e+00 
41500 5.4669754026e+00 -5.5341252858e-05 1.5902586928e+00 -2.7544088532e+00 1.5902586928e+00 2.7544088532e+00 
41600 5.4669758600e+00 -5.4065395216e-05 1.5902586928e+00 -2.7544088532e+00 1.5902586928e+00 2.7544088532e+00 
41700 5.4669763113e+00 -5.2754322855e-05 1.5902586928e+00 -2.7544088532e+00 1.5902586928e+00 2.7544088532e+00 
41800 5.4669767567e+00 -5.1410082296e-05 1.5902586928e+00 -2.7544088532e+00 1.5902586928e+00 2.7544088532e+00 
41900 5.4669771963e+00 -5.0034679652e-05 1.5902586928e+00 -2.7544088532e+00 1.5902586928e+00 2.7544088532e+00 
42000 5.4669776301e+00 -4.8630080129e-05 1.5902586928e+00 -2.7544088532e+00 1.5902586928e+00 2.7544088532e+00 
42100 5.4669780582e+00 -4.7198207598e-05 1.5902586928e+00 -2.7544088532e+00 1.5902586928e+00 2.7544088532e+00 
42200 5.4669784808e+00 -4.5740944219e-05 1.5902586928e+00 -2.7544088532e+00 1.5902586928e+00 2.7544088532e+00 
42300 5.4669788978e+00 -4.4260130129e-05 1.5902586928e+00 -2.7544088532e+00 1.5902586928e+00 2.7544088532e+00 
42400 5.4669793093e+00 -4.2757563187e-05 1.5902586928e+00 -2.7544088532e+00 1.5902586928e+00 2.7544088532e+00 
42500 5.4669797155e+00 -4.1234998773e-05 1.5902586928e+00 -2.7544088532e+00 1.5902586928e+00 2.7544088532e+00 
42600 5.4669801163e+00 -3.9694149633e-05 1.5902586928e+00 -2.7544088532e+00 1.5902586928e+00 2.7544088532e+00 
42700 5.4669805120e+00 -3.8136685785e-05 1.5902586928e+00 -2.7544088532e+00 1.5902586928e+00 2.7544088532e+00 
42800 5.4669809025e+00 -3.6564234464e-05 1.5902586928e+00 -2.7544088532e+00 1.5902586928e+00 2.7544088532e+00 
42900 5.4669812879e+00 -3.4978380120e-05 1.5902586928e+00 -2.7544088532e+00 1.5902586928e+00 2.7544088532e+00 
43000 5.4669816683e+00 -3.3380664455e-05 1.5902586928e+00 -2.7544088532e+00 1.5902586928e+00 2.7544088532e+00 
43100 5.4669820437e+00 -3.1772586511e-05 1.5902586928e+00 -2.7544088532e+00 1.5902586928e+00 2.7544088532e+00 
43200 5.4669824142e+00 -3.0155602784e-05 1.5902586928e+00 -2.7544088532e+00 1.5902586928e+00 2.7544088532e+00 
43300 5.4669827800e+00 -2.8531127396e-05 1.5902586928e+00 -2.7544088532e+00 1.5902586928e+00 2.7544088532e+00 
43400 5.4669831409e+00 -2.6900532289e-05 1.5902586928e+00 -2.7544088532e+00 1.5902586928e+00 2.7544088532e+00 
43500 5.4669834972e+00 -2.5265147460e-05 1.5902586928e+00 -2.7544088532e+00 1.5902586928e+00 2.7544088532e+00 
43600 5.4669838489e+00 -2.3626261233e-05 1.5902586928e+00 -2.7544088532e+00 1.5902586928e+00 2.7544088532e+00 
43700 5.4669841960e+00 -2.1985120558e-05 1.5902586928e+00 -2.7544088532e+00 1.5902586928e+00 2.7544088532e+00 
43800 5.4669845385e+00 -2.0342931341e-05 1.5902586928e+00 -2.7544088532e+00 1.5902586928e+00 2.7544088532e+00 
43900 5.4669848767e+00 -1.8700858807e-05 1.5902586928e+00 -2.7544088532e+00 1.5902586928e+00 2.7544088532e+00 
44000 5.4669852104e+00 -1.7060027886e-05 1.5902586928e+00 -2.7544088532e+00 1.5902586928e+00 2.7544088532e+00 
44100 5.4669855398e+00 -1.5421523628e-05 1.5902586928e+00 -2.7544088532e+00 1.5902586928e+00 2.7544088532e+00 
44200 5.4669858649e+00 -1.3786391638e-05 1.5902586928e+00 -2.7544088532e+00 1.5902586928e+00 2.7544088532e+00 
44300 5.4669861858e+00 -1.2155638542e-05 1.5902586928e+00 -2.7544088532e+00 1.5902586928e+00 2.7544088532e+00 
44400 5.4669865026e+00 -1.0530232462e-05 1.5902586928e+00 -2.7544088532e+00 1.5902586928e+00 2.7544088532e+00 
44500 5.4669868152e+00 -8.9111035254e-06 1.5902586928e+00 -2.7544088532e+00 1.5902586928e+00 2.7544088532e+00 
44600 5.4669871237e+00 -7.2991443812e-06 1.5902586928e+00 -2.7544088532e+00 1.5902586928e+00 2.7544088532e+00 
44700 5.4669874283e+00 -5.6952107414e-06 1.5902586928e+00 -2.7544088532e+00 1.5902586928e+00 2.7544088532e+00 
44800 5.4669877289e+00 -4.1001219345e-06 1.5902586928e+00 -2.7544088532e+00 1.5902586928e+00 2.7544088532e+00 
44900 5.4669880256e+00 -2.5146614739e-06 1.5902586928e+00 -2.7544088532e+00 1.5902586928e+00 2.7544088532e+00 
45000 5.4669883185e+00 -9.3957764733e-07 1.5902586928e+00 -2.7544088532e+00 1.5902586928e+00 2.7544088532e+00 
45100 5.4669886075e+00 6.2441589717e-07 1.5902586928e+00 -2.7544088532e+00 1.5902586928e+00 2.7544088532e+00 
45200 5.4669888928e+00 2.1766395345e-06 1.5902586928e+00 -2.7544088532e+00 1.5902586928e+00 2.7544088532e+00 
45300 5.4669891744e+00 3.7164470476e-06 1.5902586928e+00 -2.7544088532e+00 1.5902586928e+00 2.7544088532e+00 
45400 5.4669894523e+00 5.2432250019e-06 1.5902586928e+00 -2.7544088532e+00 1.5902586928e+00 2.7544088532e+00 
45500 5.4669897266e+00 6.7563921068e-06 1.5902586928e+00 -2.7544088532e+00 1.5902586928e+00 2.7544088532e+00 
45600 5.4669899974e+00 8.2553985742e-06 1.5902586928e+00 -2.7544088532e+00 1.5902586928e+00 2.7544088532e+00 
45700 5.4669902647e+00 9.7397254722e-06 1.5902586928e+00 -2.7544088532e+00 1.5902586928e+00 2.7544088532e+00 
45800 5.4669905284e+00 1.1208884062e-05 1.5902586928e+00 -2.7544088532e+00 1.5902586928e+00 2.7544088532e+00 
45900 5.4669907888e+00 1.2662415147e-05 1.5902586928e+00 -2.7544088532e+00 1.5902586928e+00 2.7544088532e+00 
46000 5.4669910458e+00 1.4099888406e-05 1.5902586928e+00 -2.7544088532e+00 1.5902586928e+00 2.7544088532e+00 
46100 5.4669912994e+00 1.5520901729e-05 1.5902586928e+00 -2.7544088532e+00 1.5902586928e+00 2.7544088532e+00 
46200 5.4669915497e+00 1.6925080547e-05 1.5902586928e+00 -2.7544088532e+00 1.5902586928e+00 2.7544088532e+00 
46300 5.4669917968e+00 1.8312077162e-05 1.5902586928e+00 -2.7544088532e+00 1.5902586928e+00 2.7544088532e+00 
46400 5.4669920407e+00 1.9681570083e-05 1.5902586928e+00 -2.7544088532e+00 1.5902586928e+00 2.7544088532e+00 
46500 5.4669922815e+00 2.1033263348e-05 1.5902586928e+00 -2.7544088532e+00 1.5902586928e+00 2.7544088532e+00 
46600 5.4669925191e+00 2.2366885862e-05 1.5902586928e+00 -2.7544088532e+00 1.5902586928e+00 2.7544088532e+00 
46700 5.4669927536e+00 2.3682190729e-05 1.5902586928e+00 -2.7544088532e+00 1.5902586928e+00 2.7544088532e+00 
46800 5.4669929851e+00 2.4978954578e-05 1.5902586928e+00 -2.7544088532e+00 1.5902586928e+00 2.7544088532e+00 
46900 5.4669932135e+00 2.6256976913e-05 1.5902586928e+00 -2.7544088532e+00 1.5902586928e+00 2.7544088532e+00 
47000 5.4669934390e+00 2.7516079446e-05 1.5902586928e+00 -2.7544088532e+00 1.5902586928e+00 2.7544088532e+00 
47100 5.4669936616e+00 2.8756105440e-05 1.5902586928e+00 -2.7544088532e+00 1.5902586928e+00 2.7544088532e+00 
47200 5.4669938813e+00 2.9976919064e-05 1.5902586928e+00 -2.7544088532e+00 1.5902586928e+00 2.7544088532e+00 
47300 5.4669940982e+00 3.1178404739e-05 1.5902586928e+00 -2.7544088532e+00 1.5902586928e+00 2.7544088532e+00 
47400 5.4669943123e+00 3.2360466503e-05 1.5902586928e+00 -2.7544088532e+00 1.5902586928e+00 2.7544088532e+00 
47500 5.4669945235e+00 3.3523027370e-05 1.5902586928e+00 -2.7544088532e+00 1.5902586928e+00 2.7544088532e+00 
47600 5.4669947321e+00 3.4666028704e-05 1.5902586928e+00 -2.7544088532e+00 1.5902586928e+00 2.7544088532e+00 
47700 5.4669949379e+00 3.5789429594e-05 1.5902586928e+00 -2.7544088532e+00 1.5902586928e+00 2.7544088532e+00 
47800 5.4669951411e+00 3.6893206238e-05 1.5902586928e+00 -2.7544088532e+00 1.5902586928e+00 2.7544088532e+00 
47900 5.4669953416e+00 3.7977351335e-05 1.5902586928e+00 -2.7544088532e+00 1.5902586928e+00 2.7544088532e+00 
48000 5.4669955396e+00 3.9041873478e-05 1.5902586928e+00 -2.7544088532e+00 1.5902586928e+00 2.7544088532e+00 
48100 5.4669957350e+00 4.0086796569e-05 1.5902586928e+00 -2.7544088532e+00 1.5902586928e+00 2.7544088532e+00 
48200 5.4669959279e+00 4.1112159226e-05 1.5902586928e+00 -2.7544088532e+00 1.5902586928e+00 2.7544088532e+00 
48300 5.4669961183e+00 4.2118014209e-05 1.5902586928e+00 -2.7544088532e+00 1.5902586928e+00 2.7544088532e+00 
48400 5.4669963062e+00 4.3104427849e-05 1.5902586928e+00 -2.7544088532e+00 1.5902586928e+00 2.7544088532e+00 
48500 5.4669964917e+00 4.4071479489e-05 1.5902586928e+00 -2.7544088532e+00 1.5902586928e+00 2.7544088532e+00 
48600 5.4669966748e+00 4.5019260935e-05 1.5902586928e+00 -2.7544088532e+00 1.5902586928e+00 2.7544088532e+00 
48700 5.4669968555e+00 4.5947875909e-05 1.5902586928e+00 -2.7544088532e+00 1.5902586928e+00 2.7544088532e+00 
48800 5.4669970340e+00 4.6857439524e-05 1.5902586928e+00 -2.7544088532e+00 1.5902586928e+00 2.7544088532e+00 
48900 5.4669972101e+00 4.7748077755e-05 1.5902586928e+00 -2.7544088532e+00 1.5902586928e+00 2.7544088532e+00 
49000 5.4669973839e+00 4.8619926927e-05 1.5902586928e+00 -2.7544088532e+00 1.5902586928e+00 2.7544088532e+00 
49100 5.4669975556e+00 4.9473133214e-05 1.5902586928e+00 -2.7544088532e+00 1.5902586928e+00 2.7544088532e+00 
49200 5.4669977250e+00 5.0307852147e-05 1.5902586928e+00 -2.7544088532e+00 1.5902586928e+00 2.7544088532e+00 
49300 5.4669978922e+00 5.1124248122e-05 1.5902586928e+00 -2.7544088532e+00 1.5902586928e+00 2.7544088532e+00 
49400 5.4669980573e+00 5.1922493939e-05 1.5902586928e+00 -2.7544088532e+00 1.5902586928e+00 2.7544088532e+00 
49500 5.4669982202e+00 5.2702770329e-05 1.5902586928e+00 -2.7544088532e+00 1.5902586928e+00 2.7544088532e+00 
49600 5.4669983811e+00 5.3465265505e-05 1.5902586928e+00 -2.7544088532e+00 1.5902586928e+00 2.7544088532e+00 
49700 5.4669985399e+00 5.4210174721e-05 1.5902586928e+00 -2.7544088532e+00 1.5902586928e+00 2.7544088532e+00 
49800 5.4669986967e+00 5.4937699837e-05 1.5902586928e+00 -2.7544088532e+00 1.5902586928e+00 2.7544088532e+00 
49900 5.4669988514e+00 5.5648048897e-05 1.5902586928e+00 -2.7544088532e+00 1.5902586928e+00 2.7544088532e+00 
50000 5.4669990042e+00 5.6341435720e-05 1.5902586928e+00 -2.7544088532e+00 1.5902586928e+00 2.7544088532e+00 
50100 5.4669991550e+00 5.7018079497e-05 1.5902586928e+00 -2.7544088532e+00 1.5902586928e+00 2.7544088532e+00 
50200 5.4669993039e+00 5.7678204395e-05 1.5902586928e+00 -2.7544088532e+00 1.5902586928e+00 2.7544088532e+00 
50300 5.4669994509e+00 5.8322039189e-05 1.5902586928e+00 -2.7544088532e+00 1.5902586928e+00 2.7544088532e+00 
50400 5.4669995960e+00 5.8949816877e-05 1.5902586928e+00 -2.7544088532e+00 1.5902586928e+00 2.7544088532e+00 
50500 5.4669997392e+00 5.9561774331e-05 1.5902586928e+00 -2.7544088532e+00 1.5902586928e+00 2.7544088532e+00 
50600 5.4669998807e+00 6.0158151939e-05 1.5902586928e+00 -2.7544088532e+00 1.5902586928e+00 2.7544088532e+00 
50700 5.4670000203e+00 6.0739193267e-05 1.5902586928e+00 -2.7544088532e+00 1.5902586928e+00 2.7544088532e+00 
50800 5.4670001581e+00 6.1305144734e-05 1.5902586928e+00 -2.7544088532e+00 1.5902586928e+00 2.7544088532e+00 
50900 5.4670002942e+00 6.1856255286e-05 1.5902586928e+00 -2.7544088532e+00 1.5902586928e+00 2.7544088532e+00 
51000 5.4670004285e+00 6.2392776084e-05 1.5902586928e+00 -2.7544088532e+00 1.5902586928e+00 2.7544088532e+00 
51100 5.4670005612e+00 6.2914960214e-05 1.5902586928e+00 -2.7544088532e+00 1.5902586928e+00 2.7544088532e+00 
51200 5.4670006921e+00 6.3423062386e-05 1.5902586928e+00 -2.7544088532e+00 1.5902586928e+00 2.7544088532e+00 
51300 5.4670008214e+00 6.3917338653e-05 1.5902586928e+00 -2.7544088532e+00 1.5902586928e+00 2.7544088532e+00 
51400 5.4670009490e+00 6.4398046151e-05 1.5902586928e+00 -2.7544088532e+00 1.5902586928e+00 2.7544088532e+00 
51500 5.4670010751e+00 6.4865442820e-05 1.5902586928e+00 -2.7544088532e+00 1.5902586928e+00 2.7544088532e+00 
51600 5.4670011995e+00 6.5319787164e-05 1.5902586928e+00 -2.7544088532e+00 1.5902586928e+00 2.7544088532e+00 
51700 5.4670013223e+00 6.5761338005e-05 1.5902586928e+00 -2.7544088532e+00 1.5902586928e+00 2.7544088532e+00 
51800 5.4670014436e+00 6.6190354239e-05 1.5902586928e+00 -2.7544088532e+00 1.5902586928e+00 2.7544088532e+00 
51900 5.4670015634e+00 6.6607094621e-05 1.5902586928e+00 -2.7544088532e+00 1.5902586928e+00 2.7544088532e+00 
52000 5.4670016816e+00 6.7011817546e-05 1.5902586928e+00 -2.7544088532e+00 1.5902586928e+00 2.7544088532e+00 
52100 5.4670017983e+00 6.7404780836e-05 1.5902586928e+00 -2.7544088532e+00 1.5902586928e+00 2.7544088532e+00 
52200 5.4670019136e+00 6.7786241540e-05 1.5902586928e+00 -2.7544088532e+00 1.5902586928e+00 2.7544088532e+00 
52300 5.4670020274e+00 6.8156455748e-05 1.5902586928e+00 -2.7544088532e+00 1.5902586928e+00 2.7544088532e+00 
52400 5.4670021397e+00 6.8515678405e-05 1.5902586928e+00 -2.7544088532e+00 1.5902586928e+00 2.7544088532e+00 
52500 5.4670022507e+00 6.8864163131e-05 1.5902586928e+00 -2.7544088532e+00 1.5902586928e+00 2.7544088532e+00 
52600 5.4670023602e+00 6.9202162059e-05 1.5902586928e+00 -2.7544088532e+00 1.5902586928e+00 2.7544088532e+00 
52700 5.4670024684e+00 6.9529925674e-05 1.5902586928e+00 -2.7544088532e+00 1.5902586928e+00 2.7544088532e+00 
52800 5.4670025752e+00 6.9847702660e-05 1.5902586928e+00 -2.7544088532e+00 1.5902586928e+00 2.7544088532e+00 
52900 5.4670026806e+00 7.0155739757e-05 1.5902586928e+00 -2.7544088532e+00 1.5902586928e+00 2.7544088532e+00 
53000 5.4670027847e+00 7.0454281621e-05 1.5902586928e+00 -2.7544088532e+00 1.5902586928e+00 2.7544088532e+00 
53100 5.4670028875e+00 7.0743570698e-05 1.5902586928e+00 -2.7544088532e+00 1.5902586928e+00 2.7544088532e+00 
53200 5.4670029889e+00 6.9083314756e-05 1.5902564686e+00 -2.7544050006e+00 1.5902564686e+00 2.7544050006e+00 
53300 5.4670030891e+00 6.9346269369e-05 1.5902564686e+00 -2.7544050006e+00 1.5902564686e+00 2.7544050006e+00 
53400 5.4670031881e+00 6.9600724876e-05 1.5902564686e+00 -2.7544050006e+00 1.5902564686e+00 2.7544050006e+00 
53500 5.4670032858e+00 6.9846921054e-05 1.5902564686e+00 -2.7544050006e+00 1.5902564686e+00 2.7544050006e+00 
53600 5.4670033823e+00 7.0085094534e-05 1.5902564686e+00 -2.7544050006e+00 1.5902564686e+00 2.7544050006e+00 
53700 5.4670034776e+00 7.0315478718e-05 1.5902564686e+00 -2.7544050006e+00 1.5902564686e+00 2.7544050006e+00 
53800 5.4670035717e+00 7.0538303704e-05 1.5902564686e+00 -2.7544050006e+00 1.5902564686e+00 2.7544050006e+00 
53900 5.4670036646e+00 7.0753796215e-05 1.5902564686e+00 -2.7544050006e+00 1.5902564686e+00 2.7544050006e+00 
54000 5.4670037562e+00 6.9021327936e-05 1.5902542440e+00 -2.7544011475e+00 1.5902542440e+00 2.7544011475e+00 
54100 5.4670038468e+00 6.9214274492e-05 1.5902542440e+00 -2.7544011475e+00 1.5902542440e+00 2.7544011475e+00 
54200 5.4670039363e+00 6.9400588690e-05 1.5902542440e+00 -2.7544011475e+00 1.5902542440e+00 2.7544011475e+00 
54300 5.4670040246e+00 6.9580490533e-05 1.5902542440e+00 -2.7544011475e+00 1.5902542440e+00 2.7544011475e+00 
54400 5.4670041119e+00 6.9754196008e-05 1.5902542440e+00 -2.7544011475e+00 1.5902542440e+00 2.7544011475e+00 
54500 5.4670041980e+00 6.9921917045e-05 1.5902542440e+00 -2.7544011475e+00 1.5902542440e+00 2.7544011475e+00 
54600 5.4670042831e+00 7.0083861508e-05 1.5902542440e+00 -2.7544011475e+00 1.5902542440e+00 2.7544011475e+00 
54700 5.4670043671e+00 7.0240233166e-05 1.5902542440e+00 -2.7544011475e+00 1.5902542440e+00 2.7544011475e+00 
54800 5.4670044501e+00 7.0391231688e-05 1.5902542440e+00 -2.7544011475e+00 1.5902542440e+00 2.7544011475e+00 
54900 5.4670045320e+00 7.0537052625e-05 1.5902542440e+00 -2.7544011475e+00 1.5902542440e+00 2.7544011475e+00 
55000 5.4670046129e+00 7.0677887410e-05 1.5902542440e+00 -2.7544011475e+00 1.5902542440e+00 2.7544011475e+00 
55100 5.4670046928e+00 7.0813923358e-05 1.5902542440e+00 -2.7544011475e+00 1.5902542440e+00 2.7544011475e+00 
55200 5.4670047715e+00 6.9002794077e-05 1.5902520175e+00 -2.7543972911e+00 1.5902520175e+00 2.7543972911e+00 
55300 5.4670048494e+00 6.9121223976e-05 1.5902520175e+00 -2.7543972911e+00 1.5902520175e+00 2.7543972911e+00 
55400 5.4670049264e+00 6.9235433054e-05 1.5902520175e+00 -2.7543972911e+00 1.5902520175e+00 2.7543972911e+00 
55500 5.4670050024e+00 6.9345599565e-05 1.5902520175e+00 -2.7543972911e+00 1.5902520175e+00 2.7543972911e+00 
55600 5.4670050774e+00 6.9451897298e-05 1.5902520175e+00 -2.7543972911e+00 1.5902520175e+00 2.7543972911e+00 
55700 5.4670051515e+00 6.9554495615e-05 1.5902520175e+00 -2.7543972911e+00 1.5902520175e+00 2.7543972911e+00 
55800 5.4670052247e+00 6.9653559474e-05 1.5902520175e+00 -2.7543972911e+00 1.5902520175e+00 2.7543972911e+00 
55900 5.4670052970e+00 6.9749249469e-05 1.5902520175e+00 -2.7543972911e+00 1.5902520175e+00 2.7543972911e+00 
56000 5.4670053684e+00 6.9841721862e-05 1.5902520175e+00 -2.7543972911e+00 1.5902520175e+00 2.7543972911e+00 
56100 5.4670054389e+00 6.9931128631e-05 1.5902520175e+00 -2.7543972911e+00 1.5902520175e+00 2.7543972911e+00 
56200 5.4670055085e+00 7.0017617500e-05 1.5902520175e+00 -2.7543972911e+00 1.5902520175e+00 2.7543972911e+00 
56300 5.4670055772e+00 7.0101331991e-05 1.5902520175e+00 -2.7543972911e+00 1.5902520175e+00 2.7543972911e+00 
56400 5.4670056451e+00 7.0182411470e-05 1.5902520175e+00 -2.7543972911e+00 1.5902520175e+00 2.7543972911e+00 
56500 5.4670057122e+00 7.0260991195e-05 1.5902520175e+00 -2.7543972911e+00 1.5902520175e+00 2.7543972911e+00 
56600 5.4670057784e+00 7.0337202359e-05 1.5902520175e+00 -2.7543972911e+00 1.5902520175e+00 2.7543972911e+00 
56700 5.4670058438e+00 7.0411172150e-05 1.5902520175e+00 -2.7543972911e+00 1.5902520175e+00 2.7543972911e+00 
56800 5.4670059084e+00 7.0483023801e-05 1.5902520175e+00 -2.7543972911e+00 1.5902520175e+00 2.7543972911e+00 
56900 5.4670059722e+00 7.0552876644e-05 1.5902520175e+00 -2.7543972911e+00 1.5902520175e+00 2.7543972911e+00 
57000 5.4670060352e+00 7.0620846166e-05 1.5902520175e+00 -2.7543972911e+00 1.5902520175e+00 2.7543972911e+00 
57100 5.4670060975e+00 7.0687044069e-05 1.5902520175e+00 -2.7543972911e+00 1.5902520175e+00 2.7543972911e+00 
57200 5.4670061589e+00 7.0751578324e-05 1.5902520175e+00 -2.7543972911e+00 1.5902520175e+00 2.7543972911e+00 
57300 5.4670062194e+00 6.8873647909e-05 1.5902497929e+00 -2.7543934381e+00 1.5902497929e+00 2.7543934381e+00 
57400 5.4670062794e+00 6.8926618879e-05 1.5902497929e+00 -2.7543934381e+00 1.5902497929e+00 2.7543934381e+00 
57500 5.4670063386e+00 6.8978268971e-05 1.5902497929e+00 -2.7543934381e+00 1.5902497929e+00 2.7543934381e+00 
57600 5.4670063971e+00 6.9028699204e-05 1.5902497929e+00 -2.7543934381e+00 1.5902497929e+00 2.7543934381e+00 
57700 5.4670064548e+00 6.9078006786e-05 1.5902497929e+00 -2.7543934381e+00 1.5902497929e+00 2.7543934381e+00 
57800 5.4670065119e+00 6.9126285189e-05 1.5902497929e+00 -2.7543934381e+00 1.5902497929e+00 2.7543934381e+00 
57900 5.4670065682e+00 6.9173624218e-05 1.5902497929e+00 -2.7543934381e+00 1.5902497929e+00 2.7543934381e+00 
58000 5.4670066239e+00 6.9220110090e-05 1.5902497929e+00 -2.7543934381e+00 1.5902497929e+00 2.7543934381e+00 
58100 5.4670066788e+00 6.9265825505e-05 1.5902497929e+00 -2.7543934381e+00 1.5902497929e+00 2.7543934381e+00 
58200 5.4670067331e+00 6.9310849719e-05 1.5902497929e+00 -2.7543934381e+00 1.5902497929e+00 2.7543934381e+00 
58300 5.4670067867e+00 6.9355258620e-05 1.5902497929e+00 -2.7543934381e+00 1.5902497929e+00 2.7543934381e+00 
58400 5.4670068397e+00 6.9399124802e-05 1.5902497929e+00 -2.7543934381e+00 1.5902497929e+00 2.7543934381e+00 
58500 5.4670068920e+00 6.9442517644e-05 1.5902497929e+00 -2.7543934381e+00 1.5902497929e+00 2.7543934381e+00 
58600 5.4670069436e+00 6.9485503373e-05 1.5902497929e+00 -2.7543934381e+00 1.5902497929e+00 2.7543934381e+00 
58700 5.4670069947e+00 6.9528145152e-05 1.5902497929e+00 -2.7543934381e+00 1.5902497929e+00 2.7543934381e+00 
58800 5.4670070450e+00 6.9570503141e-05 1.5902497929e+00 -2.7543934381e+00 1.5902497929e+00 2.7543934381e+00 
58900 5.4670070948e+00 6.9612634584e-05 1.5902497929e+00 -2.7543934381e+00 1.5902497929e+00 2.7543934381e+00 
59000 5.4670071440e+00 6.9654593871e-05 1.5902497929e+00 -2.7543934381e+00 1.5902497929e+00 2.7543934381e+00 
59100 5.4670071925e+00 6.9696432619e-05 1.5902497929e+00 -2.7543934381e+00 1.5902497929e+00 2.7543934381e+00 
59200 5.4670072405e+00 6.9738199738e-05 1.5902497929e+00 -2.7543934381e+00 1.5902497929e+00 2.7543934381e+00 
59300 5.4670072879e+00 6.9779941511e-05 1.5902497929e+00 -2.7543934381e+00 1.5902497929e+00 2.7543934381e+00 
59400 5.4670073347e+00 6.9821701658e-05 1.5902497929e+00 -2.7543934381e+00 1.5902497929e+00 2.7543934381e+00 
59500 5.4670073809e+00 6.9863521413e-05 1.5902497929e+00 -2.7543934381e+00 1.5902497929e+00 2.7543934381e+00 
59600 5.4670074265e+00 6.9905439590e-05 1.5902497929e+00 -2.7543934381e+00 1.5902497929e+00 2.7543934381e+00 
59700 5.4670074716e+00 6.9947492655e-05 1.5902497929e+00 -2.7543934381e+00 1.5902497929e+00 2.7543934381e+00 
59800 5.4670075162e+00 6.9989714796e-05 1.5902497929e+00 -2.7543934381e+00 1.5902497929e+00 2.7543934381e+00 
59900 5.4670075602e+00 7.0032137988e-05 1.5902497929e+00 -2.7543934381e+00 1.5902497929e+00 2.7543934381e+00 
60000 5.4670076036e+00 7.0074792064e-05 1.5902497929e+00 -2.7543934381e+00 1.5902497929e+00 2.7543934381e+00 
60100 5.4670076466e+00 7.0117704779e-05 1.5902497929e+00 -2.7543934381e+00 1.5902497929e+00 2.7543934381e+00 
60200 5.4670076890e+00 7.0160901880e-05 1.5902497929e+00 -2.7543934381e+00 1.5902497929e+00 2.7543934381e+00 
60300 5.4670077308e+00 7.0204407163e-05 1.5902497929e+00 -2.7543934381e+00 1.5902497929e+00 2.7543934381e+00 
60400 5.4670077722e+00 7.0248242546e-05 1.5902497929e+00 -2.7543934381e+00 1.5902497929e+00 2.7543934381e+00 
60500 5.4670078131e+00 7.0292428126e-05 1.5902497929e+00 -2.7543934381e+00 1.5902497929e+00 2.7543934381e+00 
60600 5.4670078534e+00 7.0336982249e-05 1.5902497929e+00 -2.7543934381e+00 1.5902497929e+00 2.7543934381e+00 
60700 5.4670078933e+00 7.0381921557e-05 1.5902497929e+00 -2.7543934381e+00 1.5902497929e+00 2.7543934381e+00 
60800 5.4670079327e+00 7.0427261063e-05 1.5902497929e+00 -2.7543934381e+00 1.5902497929e+00 2.7543934381e+00 
60900 5.4670079716e+00 7.0473014204e-05 1.5902497929e+00 -2.7543934381e+00 1.5902497929e+00 2.7543934381e+00 
61000 5.4670080100e+00 7.0519192897e-05 1.5902497929e+00 -2.7543934381e+00 1.5902497929e+00 2.7543934381e+00 
61100 5.4670080480e+00 7.0565807601e-05 1.5902497929e+00 -2.7543934381e+00 1.5902497929e+00 2.7543934381e+00 
61200 5.4670080855e+00 7.0612867370e-05 1.5902497929e+00 -2.7543934381e+00 1.5902497929e+00 2.7543934381e+00 
61300 5.4670081225e+00 7.0660379911e-05 1.5902497929e+00 -2.7543934381e+00 1.5902497929e+00 2.7543934381e+00 
61400 5.4670081591e+00 7.0708351632e-05 1.5902497929e+00 -2.7543934381e+00 1.5902497929e+00 2.7543934381e+00 
61500 5.4670081952e+00 7.0756787704e-05 1.5902497929e+00 -2.7543934381e+00 1.5902497929e+00 2.7543934381e+00 
61600 5.4670082307e+00 6.8864551128e-05 1.5902475682e+00 -2.7543895848e+00 1.5902475682e+00 2.7543895848e+00 
61700 5.4670082660e+00 6.8905381877e-05 1.5902475682e+00 -2.7543895848e+00 1.5902475682e+00 2.7543895848e+00 
61800 5.4670083008e+00 6.8946726041e-05 1.5902475682e+00 -2.7543895848e+00 1.5902475682e+00 2.7543895848e+00 
61900 5.4670083352e+00 6.8988591697e-05 1.5902475682e+00 -2.7543895848e+00 1.5902475682e+00 2.7543895848e+00 
62000 5.4670083692e+00 6.9030985548e-05 1.5902475682e+00 -2.7543895848e+00 1.5902475682e+00 2.7543895848e+00 
62100 5.4670084028e+00 6.9073912965e-05 1.5902475682e+00 -2.7543895848e+00 1.5902475682e+00 2.7543895848e+00 
62200 5.4670084360e+00 6.9117378058e-05 1.5902475682e+00 -2.7543895848e+00 1.5902475682e+00 2.7543895848e+00 
62300 5.4670084688e+00 6.9161383714e-05 1.5902475682e+00 -2.7543895848e+00 1.5902475682e+00 2.7543895848e+00 
62400 5.4670085011e+00 6.9205931665e-05 1.5902475682e+00 -2.7543895848e+00 1.5902475682e+00 2.7543895848e+00 
62500 5.4670085331e+00 6.9251022530e-05 1.5902475682e+00 -2.7543895848e+00 1.5902475682e+00 2.7543895848e+00 
62600 5.4670085647e+00 6.9296655864e-05 1.5902475682e+00 -2.7543895848e+00 1.5902475682e+00 2.7543895848e+00 
62700 5.4670085959e+00 6.9342830219e-05 1.5902475682e+00 -2.7543895848e+00 1.5902475682e+00 2.7543895848e+00 
62800 5.4670086267e+00 6.9389543179e-05 1.5902475682e+00 -2.7543895848e+00 1.5902475682e+00 2.7543895848e+00 
62900 5.4670086572e+00 6.9436791418e-05 1.5902475682e+00 -2.7543895848e+00 1.5902475682e+00 2.7543895848e+00 
63000 5.4670086873e+00 6.9484570738e-05 1.5902475682e+00 -2.7543895848e+00 1.5902475682e+00 2.7543895848e+00 
63100 5.4670087170e+00 6.9532876121e-05 1.5902475682e+00 -2.7543895848e+00 1.5902475682e+00 2.7543895848e+00 
63200 5.4670087463e+00 6.9581701769e-05 1.5902475682e+00 -2.7543895848e+00 1.5902475682e+00 2.7543895848e+00 
63300 5.4670087753e+00 6.9631041146e-05 1.5902475682e+00 -2.7543895848e+00 1.5902475682e+00 2.7543895848e+00 
63400 5.4670088040e+00 6.9680887023e-05 1.5902475682e+00 -2.7543895848e+00 1.5902475682e+00 2.7543895848e+00 
63500 5.4670088323e+00 6.9731231518e-05 1.5902475682e+00 -2.7543895848e+00 1.5902475682e+00 2.7543895848e+00 
63600 5.4670088603e+00 6.9782066133e-05 1.5902475682e+00 -2.7543895848e+00 1.5902475682e+00 2.7543895848e+00 
63700 5.4670088879e+00 6.9833381797e-05 1.5902475682e+00 -2.7543895848e+00 1.5902475682e+00 2.7543895848e+00 
63800 5.4670089152e+00 6.9885168897e-05 1.5902475682e+00 -2.7543895848e+00 1.5902475682e+00 2.7543895848e+00 
63900 5.4670089421e+00 6.9937417321e-05 1.5902475682e+00 -2.7543895848e+00 1.5902475682e+00 2.7543895848e+00 
64000 5.4670089688e+00 6.9990116492e-05 1.5902475682e+00 -2.7543895848e+00 1.5902475682e+00 2.7543895848e+00 
64100 5.4670089951e+00 7.0043255396e-05 1.5902475682e+00 -2.7543895848e+00 1.5902475682e+00 2.7543895848e+00 
64200 5.4670090211e+00 7.0096822623e-05 1.5902475682e+00 -2.7543895848e+00 1.5902475682e+00 2.7543895848e+00 
64300 5.4670090468e+00 7.0150806394e-05 1.5902475682e+00 -2.7543895848e+00 1.5902475682e+00 2.7543895848e+00 
64400 5.4670090721e+00 7.0205194598e-05 1.5902475682e+00 -2.7543895848e+00 1.5902475682e+00 2.7543895848e+00 
64500 5.4670090972e+00 7.0259974812e-05 1.5902475682e+00 -2.7543895848e+00 1.5902475682e+00 2.7543895848e+00 
64600 5.4670091220e+00 7.0315134342e-05 1.5902475682e+00 -2.7543895848e+00 1.5902475682e+00 2.7543895848e+00 
64700 5.4670091464e+00 7.0370660244e-05 1.5902475682e+00 -2.7543895848e+00 1.5902475682e+00 2.7543895848e+00 
64800 5.4670091706e+00 7.0426539350e-05 1.5902475682e+00 -2.7543895848e+00 1.5902475682e+00 2.7543895848e+00 
64900 5.4670091945e+00 7.0482758300e-05 1.5902475682e+00 -2.7543895848e+00 1.5902475682e+00 2.7543895848e+00 
65000 5.4670092181e+00 7.0539303561e-05 1.5902475682e+00 -2.7543895848e+00 1.5902475682e+00 2.7543895848e+00 
65100 5.4670092414e+00 7.0596161456e-05 1.5902475682e+00 -2.7543895848e+00 1.5902475682e+00 2.7543895848e+00 
65200 5.4670092644e+00 7.0653318187e-05 1.5902475682e+00 -2.7543895848e+00 1.5902475682e+00 2.7543895848e+00 
65300 5.4670092871e+00 7.0710759852e-05 1.5902475682e+00 -2.7543895848e+00 1.5902475682e+00 2.7543895848e+00 
65400 5.4670093094e+00 6.8828533561e-05 1.5902453450e+00 -2.7543857340e+00 1.5902453450e+00 2.7543857340e+00 
65500 5.4670093316e+00 6.8877964260e-05 1.5902453450e+00 -2.7543857340e+00 1.5902453450e+00 2.7543857340e+00 
65600 5.4670093536e+00 6.8927678203e-05 1.5902453450e+00 -2.7543857340e+00 1.5902453450e+00 2.7543857340e+00 
65700 5.4670093752e+00 6.8977668665e-05 1.5902453450e+00 -2.7543857340e+00 1.5902453450e+00 2.7543857340e+00 
65800 5.4670093966e+00 6.9027928536e-05 1.5902453450e+00 -2.7543857340e+00 1.5902453450e+00 2.7543857340e+00 
65900 5.4670094178e+00 6.9078450345e-05 1.5902453450e+00 -2.7543857340e+00 1.5902453450e+00 2.7543857340e+00 
66000 5.4670094387e+00 6.9129226284e-05 1.5902453450e+00 -2.7543857340e+00 1.5902453450e+00 2.7543857340e+00 
66100 5.4670094593e+00 6.9180248239e-05 1.5902453450e+00 -2.7543857340e+00 1.5902453450e+00 2.7543857340e+00 
66200 5.4670094797e+00 6.9231507810e-05 1.5902453450e+00 -2.7543857340e+00 1.5902453450e+00 2.7543857340e+00 
66300 5.4670094999e+00 6.9282996338e-05 1.5902453450e+00 -2.7543857340e+00 1.5902453450e+00 2.7543857340e+00 
66400 5.4670095198e+00 6.9334704925e-05 1.5902453450e+00 -2.7543857340e+00 1.5902453450e+00 2.7543857340e+00 
66500 5.4670095395e+00 6.9386624457e-05 1.5902453450e+00 -2.7543857340e+00 1.5902453450e+00 2.7543857340e+00 
66600 5.4670095589e+00 6.9438745629e-05 1.5902453450e+00 -2.7543857340e+00 1.5902453450e+00 2.7543857340e+00 
66700 5.4670095781e+00 6.9491058963e-05 1.5902453450e+00 -2.7543857340e+00 1.5902453450e+00 2.7543857340e+00 
66800 5.4670095971e+00 6.9543554827e-05 1.5902453450e+00 -2.7543857340e+00 1.5902453450e+00 2.7543857340e+00 
66900 5.4670096159e+00 6.9596223458e-05 1.5902453450e+00 -2.7543857340e+00 1.5902453450e+00 2.7543857340e+00 
67000 5.4670096344e+00 6.9649054977e-05 1.5902453450e+00 -2.7543857340e+00 1.5902453450e+00 2.7543857340e+00 
67100 5.4670096527e+00 6.9702039413e-05 1.5902453450e+00 -2.7543857340e+00 1.5902453450e+00 2.7543857340e+00 
67200 5.4670096708e+00 6.9755166713e-05 1.5902453450e+00 -2.7543857340e+00 1.5902453450e+00 2.7543857340e+00 
67300 5.4670096886e+00 6.9808426762e-05 1.5902453450e+00 -2.7543857340e+00 1.5902453450e+00 2.7543857340e+00 
67400 5.4670097063e+00 6.9861809402e-05 1.5902453450e+00 -2.7543857340e+00 1.5902453450e+00 2.7543857340e+00 
67500 5.4670097237e+00 6.9915304445e-05 1.5902453450e+00 -2.7543857340e+00 1.5902453450e+00 2.7543857340e+00 
67600 5.4670097410e+00 6.9968901684e-05 1.5902453450e+00 -2.7543857340e+00 1.5902453450e+00 2.7543857340e+00 
67700 5.4670097580e+00 7.0022590915e-05 1.5902453450e+00 -2.7543857340e+00 1.5902453450e+00 2.7543857340e+00 
67800 5.4670097748e+00 7.0076361944e-05 1.5902453450e+00 -2.7543857340e+00 1.5902453450e+00 2.7543857340e+00 
67900 5.4670097914e+00 7.0130204601e-05 1.5902453450e+00 -2.7543857340e+00 1.5902453450e+00 2.7543857340e+00 
68000 5.4670098079e+00 7.0184108756e-05 1.5902453450e+00 -2.7543857340e+00 1.5902453450e+00 2.7543857340e+00 
68100 5.4670098241e+00 7.0238064329e-05 1.5902453450e+00 -2.7543857340e+00 1.5902453450e+00 2.7543857340e+00 
68200 5.4670098401e+00 7.0292061296e-05 1.5902453450e+00 -2.7543857340e+00 1.5902453450e+00 2.7543857340e+00 
68300 5.4670098560e+00 7.0346089708e-05 1.5902453450e+00 -2.7543857340e+00 1.5902453450e+00 2.7543857340e+00 
68400 5.4670098716e+00 7.0400139697e-05 1.5902453450e+00 -2.7543857340e+00 1.5902453450e+00 2.7543857340e+00 
68500 5.4670098871e+00 7.0454201482e-05 1.5902453450e+00 -2.7543857340e+00 1.5902453450e+00 2.7543857340e+00 
68600 5.4670099024e+00 7.0508265385e-05 1.5902453450e+00 -2.7543857340e+00 1.5902453450e+00 2.7543857340e+00 
68700 5.4670099175e+00 7.0562321836e-05 1.5902453450e+00 -2.7543857340e+00 1.5902453450e+00 2.7543857340e+00 
68800 5.4670099324e+00 7.0616361378e-05 1.5902453450e+00 -2.7543857340e+00 1.5902453450e+00 2.7543857340e+00 
68900 5.4670099471e+00 7.0670374680e-05 1.5902453450e+00 -2.7543857340e+00 1.5902453450e+00 2.7543857340e+00 
69000 5.4670099617e+00 7.0724352543e-05 1.5902453450e+00 -2.7543857340e+00 1.5902453450e+00 2.7543857340e+00 
69100 5.4670099759e+00 6.8837927823e-05 1.5902431213e+00 -2.7543818824e+00 1.5902431213e+00 2.7543818824e+00 
69200 5.4670099901e+00 6.8883267505e-05 1.5902431213e+00 -2.7543818824e+00 1.5902431213e+00 2.7543818824e+00 
69300 5.4670100042e+00 6.8928585346e-05 1.5902431213e+00 -2.7543818824e+00 1.5902431213e+00 2.7543818824e+00 
69400 5.4670100180e+00 6.8973880101e-05 1.5902431213e+00 -2.7543818824e+00 1.5902431213e+00 2.7543818824e+00 
69500 5.4670100318e+00 6.9019150296e-05 1.5902431213e+00 -2.7543818824e+00 1.5902431213e+00 2.7543818824e+00 
69600 5.4670100453e+00 6.9064394245e-05 1.5902431213e+00 -2.7543818824e+00 1.5902431213e+00 2.7543818824e+00 
69700 5.4670100587e+00 6.9109610056e-05 1.5902431213e+00 -2.7543818824e+00 1.5902431213e+00 2.7543818824e+00 
69800 5.4670100719e+00 6.9154795655e-05 1.5902431213e+00 -2.7543818824e+00 1.5902431213e+00 2.7543818824e+00 
69900 5.4670100850e+00 6.9199948791e-05 1.5902431213e+00 -2.7543818824e+00 1.5902431213e+00 2.7543818824e+00 
70000 5.4670100979e+00 6.9245067049e-05 1.5902431213e+00 -2.7543818824e+00 1.5902431213e+00 2.7543818824e+00 
70100 5.4670101107e+00 6.9290147867e-05 1.5902431213e+00 -2.7543818824e+00 1.5902431213e+00 2.7543818824e+00 
70200 5.4670101233e+00 6.9335188541e-05 1.5902431213e+00 -2.7543818824e+00 1.5902431213e+00 2.7543818824e+00 
70300 5.4670101358e+00 6.9380186242e-05 1.5902431213e+00 -2.7543818824e+00 1.5902431213e+00 2.7543818824e+00 
70400 5.4670101481e+00 6.9425138026e-05 1.5902431213e+00 -2.7543818824e+00 1.5902431213e+00 2.7543818824e+00 
70500 5.4670101603e+00 6.9470040841e-05 1.5902431213e+00 -2.7543818824e+00 1.5902431213e+00 2.7543818824e+00 
70600 5.4670101723e+00 6.9514891542e-05 1.5902431213e+00 -2.7543818824e+00 1.5902431213e+00 2.7543818824e+00 
70700 5.4670101842e+00 6.9559686900e-05 1.5902431213e+00 -2.7543818824e+00 1.5902431213e+00 2.7543818824e+00 
70800 5.4670101959e+00 6.9604423605e-05 1.5902431213e+00 -2.7543818824e+00 1.5902431213e+00 2.7543818824e+00 
70900 5.4670102075e+00 6.9649098289e-05 1.5902431213e+00 -2.7543818824e+00 1.5902431213e+00 2.7543818824e+00 
71000 5.4670102190e+00 6.9693707519e-05 1.5902431213e+00 -2.7543818824e+00 1.5902431213e+00 2.7543818824e+00 
71100 5.4670102303e+00 6.9738247820e-05 1.5902431213e+00 -2.7543818824e+00 1.5902431213e+00 2.7543818824e+00 
71200 5.4670102415e+00 6.9782715673e-05 1.5902431213e+00 -2.7543818824e+00 1.5902431213e+00 2.7543818824e+00 
71300 5.4670102526e+00 6.9827107526e-05 1.5902431213e+00 -2.7543818824e+00 1.5902431213e+00 2.7543818824e+00 
71400 5.4670102635e+00 6.9871419803e-05 1.5902431213e+00 -2.7543818824e+00 1.5902431213e+00 2.7543818824e+00 
71500 5.4670102743e+00 6.9915648912e-05 1.5902431213e+00 -2.7543818824e+00 1.5902431213e+00 2.7543818824e+00 
71600 5.4670102850e+00 6.9959791249e-05 1.5902431213e+00 -2.7543818824e+00 1.5902431213e+00 2.7543818824e+00 
71700 5.4670102956e+00 7.0003843205e-05 1.5902431213e+00 -2.7543818824e+00 1.5902431213e+00 2.7543818824e+00 
71800 5.4670103060e+00 7.0047801176e-05 1.5902431213e+00 -2.7543818824e+00 1.5902431213e+00 2.7543818824e+00 
71900 5.4670103163e+00 7.0091661563e-05 1.5902431213e+00 -2.7543818824e+00 1.5902431213e+00 2.7543818824e+00 
72000 5.4670103265e+00 7.0135420786e-05 1.5902431213e+00 -2.7543818824e+00 1.5902431213e+00 2.7543818824e+00 
72100 5.4670103365e+00 7.0179075277e-05 1.5902431213e+00 -2.7543818824e+00 1.5902431213e+00 2.7543818824e+00 
72200 5.4670103465e+00 7.0222621502e-05 1.5902431213e+00 -2.7543818824e+00 1.5902431213e+00 2.7543818824e+00 
72300 5.4670103563e+00 7.0266055948e-05 1.5902431213e+00 -2.7543818824e+00 1.5902431213e+00 2.7543818824e+00 
72400 5.4670103660e+00 7.0309375142e-05 1.5902431213e+00 -2.7543818824e+00 1.5902431213e+00 2.7543818824e+00 
72500 5.4670103756e+00 7.0352575649e-05 1.5902431213e+00 -2.7543818824e+00 1.5902431213e+00 2.7543818824e+00 
72600 5.4670103851e+00 7.0395654074e-05 1.5902431213e+00 -2.7543818824e+00 1.5902431213e+00 2.7543818824e+00 
72700 5.4670103944e+00 7.0438607071e-05 1.5902431213e+00 -2.7543818824e+00 1.5902431213e+00 2.7543818824e+00 
72800 5.4670104037e+00 7.0481431343e-05 1.5902431213e+00 -2.7543818824e+00 1.5902431213e+00 2.7543818824e+00 
72900 5.4670104128e+00 7.0524123647e-05 1.5902431213e+00 -2.7543818824e+00 1.5902431213e+00 2.7543818824e+00 
73000 5.4670104219e+00 7.0566680798e-05 1.5902431213e+00 -2.7543818824e+00 1.5902431213e+00 2.7543818824e+00 
73100 5.4670104308e+00 7.0609099668e-05 1.5902431213e+00 -2.7543818824e+00 1.5902431213e+00 2.7543818824e+00 
73200 5.4670104396e+00 7.0651377195e-05 1.5902431213e+00 -2.7543818824e+00 1.5902431213e+00 2.7543818824e+00 
73300 5.4670104484e+00 7.0693510377e-05 1.5902431213e+00 -2.7543818824e+00 1.5902431213e+00 2.7543818824e+00 
73400 5.4670104570e+00 7.0735496285e-05 1.5902431213e+00 -2.7543818824e+00 1.5902431213e+00 2.7543818824e+00 
73500 5.4670104653e+00 6.8836627443e-05 1.5902408972e+00 -2.7543780303e+00 1.5902408972e+00 2.7543780303e+00 
73600 5.4670104737e+00 6.8869768873e-05 1.5902408972e+00 -2.7543780303e+00 1.5902408972e+00 2.7543780303e+00 
73700 5.4670104821e+00 6.8902794979e-05 1.5902408972e+00 -2.7543780303e+00 1.5902408972e+00 2.7543780303e+00 
73800 5.4670104903e+00 6.8935710496e-05 1.5902408972e+00 -2.7543780303e+00 1.5902408972e+00 2.7543780303e+00 
73900 5.4670104984e+00 6.8968519845e-05 1.5902408972e+00 -2.7543780303e+00 1.5902408972e+00 2.7543780303e+00 
74000 5.4670105064e+00 6.9001227144e-05 1.5902408972e+00 -2.7543780303e+00 1.5902408972e+00 2.7543780303e+00 
74100 5.4670105144e+00 6.9033836222e-05 1.5902408972e+00 -2.7543780303e+00 1.5902408972e+00 2.7543780303e+00 
74200 5.4670105222e+00 6.9066350630e-05 1.5902408972e+00 -2.7543780303e+00 1.5902408972e+00 2.7543780303e+00 
74300 5.4670105299e+00 6.9098773646e-05 1.5902408972e+00 -2.7543780303e+00 1.5902408972e+00 2.7543780303e+00 
74400 5.4670105376e+00 6.9131108294e-05 1.5902408972e+00 -2.7543780303e+00 1.5902408972e+00 2.7543780303e+00 
74500 5.4670105452e+00 6.9163357339e-05 1.5902408972e+00 -2.7543780303e+00 1.5902408972e+00 2.7543780303e+00 
74600 5.4670105526e+00 6.9195523316e-05 1.5902408972e+00 -2.7543780303e+00 1.5902408972e+00 2.7543780303e+00 
74700 5.4670105600e+00 6.9227608523e-05 1.5902408972e+00 -2.7543780303e+00 1.5902408972e+00 2.7543780303e+00 
74800 5.4670105673e+00 6.9259615042e-05 1.5902408972e+00 -2.7543780303e+00 1.5902408972e+00 2.7543780303e+00 
74900 5.4670105746e+00 6.9291544738e-05 1.5902408972e+00 -2.7543780303e+00 1.5902408972e+00 2.7543780303e+00 
75000 5.4670105817e+00 6.9323399280e-05 1.5902408972e+00 -2.7543780303e+00 1.5902408972e+00 2.7543780303e+00 
75100 5.4670105887e+00 6.9355180138e-05 1.5902408972e+00 -2.7543780303e+00 1.5902408972e+00 2.7543780303e+00 
75200 5.4670105957e+00 6.9386888601e-05 1.5902408972e+00 -2.7543780303e+00 1.5902408972e+00 2.7543780303e+00 
75300 5.4670106026e+00 6.9418525779e-05 1.5902408972e+00 -2.7543780303e+00 1.5902408972e+00 2.7543780303e+00 
75400 5.4670106094e+00 6.9450092616e-05 1.5902408972e+00 -2.7543780303e+00 1.5902408972e+00 2.7543780303e+00 
75500 5.4670106161e+00 6.9481589896e-05 1.5902408972e+00 -2.7543780303e+00 1.5902408972e+00 2.7543780303e+00 
75600 5.4670106228e+00 6.9513018248e-05 1.5902408972e+00 -2.7543780303e+00 1.5902408972e+00 2.7543780303e+00 
75700 5.4670106293e+00 6.9544378161e-05 1.5902408972e+00 -2.7543780303e+00 1.5902408972e+00 2.7543780303e+00 
75800 5.4670106358e+00 6.9575669985e-05 1.5902408972e+00 -2.7543780303e+00 1.5902408972e+00 2.7543780303e+00 
75900 5.4670106422e+00 6.9606893939e-05 1.5902408972e+00 -2.7543780303e+00 1.5902408972e+00 2.7543780303e+00 
76000 5.4670106486e+00 6.9638050123e-05 1.5902408972e+00 -2.7543780303e+00 1.5902408972e+00 2.7543780303e+00 
76100 5.4670106548e+00 6.9669138521e-05 1.5902408972e+00 -2.7543780303e+00 1.5902408972e+00 2.7543780303e+00 
76200 5.4670106610e+00 6.9700159004e-05 1.5902408972e+00 -2.7543780303e+00 1.5902408972e+00 2.7543780303e+00 
76300 5.4670106671e+00 6.9731111349e-05 1.5902408972e+00 -2.7543780303e+00 1.5902408972e+00 2.7543780303e+00 
76400 5.4670106732e+00 6.9761995228e-05 1.5902408972e+00 -2.7543780303e+00 1.5902408972e+00 2.7543780303e+00 
76500 5.4670106792e+00 6.9792810229e-05 1.5902408972e+00 -2.7543780303e+00 1.5902408972e+00 2.7543780303e+00 
76600 5.4670106851e+00 6.9823555855e-05 1.5902408972e+00 -2.7543780303e+00 1.5902408972e+00 2.7543780303e+00 
76700 5.4670106909e+00 6.9854231532e-05 1.5902408972e+00 -2.7543780303e+00 1.5902408972e+00 2.7543780303e+00 
76800 5.4670106967e+00 6.9884836611e-05 1.5902408972e+00 -2.7543780303e+00 1.5902408972e+00 2.7543780303e+00 
76900 5.4670107024e+00 6.9915370377e-05 1.5902408972e+00 -2.7543780303e+00 1.5902408972e+00 2.7543780303e+00 
77000 5.4670107080e+00 6.9945832055e-05 1.5902408972e+00 -2.7543780303e+00 1.5902408972e+00 2.7543780303e+00 
77100 5.4670107136e+00 6.9976220809e-05 1.5902408972e+00 -2.7543780303e+00 1.5902408972e+00 2.7543780303e+00 
77200 5.4670107191e+00 7.0006535754e-05 1.5902408972e+00 -2.7543780303e+00 1.5902408972e+00 2.7543780303e+00 
77300 5.4670107245e+00 7.0036775959e-05 1.5902408972e+00 -2.7543780303e+00 1.5902408972e+00 2.7543780303e+00 
77400 5.4670107299e+00 7.0066940446e-05 1.5902408972e+00 -2.7543780303e+00 1.5902408972e+00 2.7543780303e+00 
77500 5.4670107352e+00 7.0097028198e-05 1.5902408972e+00 -2.7543780303e+00 1.5902408972e+00 2.7543780303e+00 
77600 5.4670107405e+00 7.0127038170e-05 1.5902408972e+00 -2.7543780303e+00 1.5902408972e+00 2.7543780303e+00 
77700 5.4670107457e+00 7.0156969279e-05 1.5902408972e+00 -2.7543780303e+00 1.5902408972e+00 2.7543780303e+00 
77800 5.4670107508e+00 7.0186820418e-05 1.5902408972e+00 -2.7543780303e+00 1.5902408972e+00 2.7543780303e+00 
77900 5.4670107559e+00 7.0216590459e-05 1.5902408972e+00 -2.7543780303e+00 1.5902408972e+00 2.7543780303e+00 
78000 5.4670107609e+00 7.0246278250e-05 1.5902408972e+00 -2.7543780303e+00 1.5902408972e+00 2.7543780303e+00 
78100 5.4670107658e+00 7.0275882626e-05 1.5902408972e+00 -2.7543780303e+00 1.5902408972e+00 2.7543780303e+00 
78200 5.4670107707e+00 7.0305402408e-05 1.5902408972e+00 -2.7543780303e+00 1.5902408972e+00 2.7543780303e+00 
78300 5.4670107755e+00 7.0334836406e-05 1.5902408972e+00 -2.7543780303e+00 1.5902408972e+00 2.7543780303e+00 
78400 5.4670107803e+00 7.0364183424e-05 1.5902408972e+00 -2.7543780303e+00 1.5902408972e+00 2.7543780303e+00 
78500 5.4670107850e+00 7.0393442261e-05 1.5902408972e+00 -2.7543780303e+00 1.5902408972e+00 2.7543780303e+00 
78600 5.4670107897e+00 7.0422611713e-05 1.5902408972e+00 -2.7543780303e+00 1.5902408972e+00 2.7543780303e+00 
78700 5.4670107943e+00 7.0451690579e-05 1.5902408972e+00 -2.7543780303e+00 1.5902408972e+00 2.7543780303e+00 
78800 5.4670107989e+00 7.0480677658e-05 1.5902408972e+00 -2.7543780303e+00 1.5902408972e+00 2.7543780303e+00 
78900 5.4670108034e+00 7.0509571759e-05 1.5902408972e+00 -2.7543780303e+00 1.5902408972e+00 2.7543780303e+00 
79000 5.4670108079e+00 7.0538371692e-05 1.5902408972e+00 -2.7543780303e+00 1.5902408972e+00 2.7543780303e+00 
79100 5.4670108123e+00 7.0567076282e-05 1.5902408972e+00 -2.7543780303e+00 1.5902408972e+00 2.7543780303e+00 
79200 5.4670108166e+00 7.0595684361e-05 1.5902408972e+00 -2.7543780303e+00 1.5902408972e+00 2.7543780303e+00 
79300 5.4670108209e+00 7.0624194776e-05 1.5902408972e+00 -2.7543780303e+00 1.5902408972e+00 2.7543780303e+00 
79400 5.4670108252e+00 7.0652606389e-05 1.5902408972e+00 -2.7543780303e+00 1.5902408972e+00 2.7543780303e+00 
79500 5.4670108294e+00 7.0680918077e-05 1.5902408972e+00 -2.7543780303e+00 1.5902408972e+00 2.7543780303e+00 
79600 5.4670108335e+00 7.0709128736e-05 1.5902408972e+00 -2.7543780303e+00 1.5902408972e+00 2.7543780303e+00 
79700 5.4670108376e+00 7.0737237278e-05 1.5902408972e+00 -2.7543780303e+00 1.5902408972e+00 2.7543780303e+00 
79800 5.4670108415e+00 6.8824452216e-05 1.5902386731e+00 -2.7543741780e+00 1.5902386731e+00 2.7543741780e+00 
79900 5.4670108455e+00 6.8843811880e-05 1.5902386731e+00 -2.7543741780e+00 1.5902386731e+00 2.7543741780e+00 
80000 5.4670108495e+00 6.8863106591e-05 1.5902386731e+00 -2.7543741780e+00 1.5902386731e+00 2.7543741780e+00 
80100 5.4670108534e+00 6.8882342729e-05 1.5902386731e+00 -2.7543741780e+00 1.5902386731e+00 2.7543741780e+00 
80200 5.4670108572e+00 6.8901526311e-05 1.5902386731e+00 -2.7543741780e+00 1.5902386731e+00 2.7543741780e+00 
80300 5.4670108611e+00 6.8920663001e-05 1.5902386731e+00 -2.7543741780e+00 1.5902386731e+00 2.7543741780e+00 
80400 5.4670108649e+00 6.8939758121e-05 1.5902386731e+00 -2.7543741780e+00 1.5902386731e+00 2.7543741780e+00 
80500 5.4670108686e+00 6.8958816662e-05 1.5902386731e+00 -2.7543741780e+00 1.5902386731e+00 2.7543741780e+00 
80600 5.4670108723e+00 6.8977843287e-05 1.5902386731e+00 -2.7543741780e+00 1.5902386731e+00 2.7543741780e+00 
80700 5.4670108759e+00 6.8996842352e-05 1.5902386731e+00 -2.7543741780e+00 1.5902386731e+00 2.7543741780e+00 
80800 5.4670108795e+00 6.9015817912e-05 1.5902386731e+00 -2.7543741780e+00 1.5902386731e+00 2.7543741780e+00 
80900 5.4670108831e+00 6.9034773725e-05 1.5902386731e+00 -2.7543741780e+00 1.5902386731e+00 2.7543741780e+00 
81000 5.4670108866e+00 6.9053713268e-05 1.5902386731e+00 -2.7543741780e+00 1.5902386731e+00 2.7543741780e+00 
81100 5.4670108901e+00 6.9072639748e-05 1.5902386731e+00 -2.7543741780e+00 1.5902386731e+00 2.7543741780e+00 
81200 5.4670108936e+00 6.9091556103e-05 1.5902386731e+00 -2.7543741780e+00 1.5902386731e+00 2.7543741780e+00 
81300 5.4670108970e+00 6.9110465021e-05 1.5902386731e+00 -2.7543741780e+00 1.5902386731e+00 2.7543741780e+00 
81400 5.4670109003e+00 6.9129368944e-05 1.5902386731e+00 -2.7543741780e+00 1.5902386731e+00 2.7543741780e+00 
81500 5.4670109037e+00 6.9148270080e-05 1.5902386731e+00 -2.7543741780e+00 1.5902386731e+00 2.7543741780e+00 
81600 5.4670109070e+00 6.9167170408e-05 1.5902386731e+00 -2.7543741780e+00 1.5902386731e+00 2.7543741780e+00 
81700 5.4670109102e+00 6.9186071689e-05 1.5902386731e+00 -2.7543741780e+00 1.5902386731e+00 2.7543741780e+00 
81800 5.4670109134e+00 6.9204975476e-05 1.5902386731e+00 -2.7543741780e+00 1.5902386731e+00 2.7543741780e+00 
81900 5.4670109166e+00 6.9223883122e-05 1.5902386731e+00 -2.7543741780e+00 1.5902386731e+00 2.7543741780e+00 
82000 5.4670109197e+00 6.9242795786e-05 1.5902386731e+00 -2.7543741780e+00 1.5902386731e+00 2.7543741780e+00 
82100 5.4670109228e+00 6.9261714444e-05 1.5902386731e+00 -2.7543741780e+00 1.5902386731e+00 2.7543741780e+00 
82200 5.4670109259e+00 6.9280639895e-05 1.5902386731e+00 -2.7543741780e+00 1.5902386731e+00 2.7543741780e+00 
82300 5.4670109289e+00 6.9299572770e-05 1.5902386731e+00 -2.7543741780e+00 1.5902386731e+00 2.7543741780e+00 
82400 5.4670109319e+00 6.9318513542e-05 1.5902386731e+00 -2.7543741780e+00 1.5902386731e+00 2.7543741780e+00 
82500 5.4670109349e+00 6.9337462525e-05 1.5902386731e+00 -2.7543741780e+00 1.5902386731e+00 2.7543741780e+00 
82600 5.4670109378e+00 6.9356419895e-05 1.5902386731e+00 -2.7543741780e+00 1.5902386731e+00 2.7543741780e+00 
82700 5.4670109407e+00 6.9375385682e-05 1.5902386731e+00 -2.7543741780e+00 1.5902386731e+00 2.7543741780e+00 
82800 5.4670109436e+00 6.9394359788e-05 1.5902386731e+00 -2.7543741780e+00 1.5902386731e+00 2.7543741780e+00 
82900 5.4670109464e+00 6.9413341991e-05 1.5902386731e+00 -2.7543741780e+00 1.5902386731e+00 2.7543741780e+00 
83000 5.4670109492e+00 6.9432331950e-05 1.5902386731e+00 -2.7543741780e+00 1.5902386731e+00 2.7543741780e+00 
83100 5.4670109519e+00 6.9451329211e-05 1.5902386731e+00 -2.7543741780e+00 1.5902386731e+00 2.7543741780e+00 
83200 5.4670109547e+00 6.9470333217e-05 1.5902386731e+00 -2.7543741780e+00 1.5902386731e+00 2.7543741780e+00 
83300 5.4670109574e+00 6.9489343311e-05 1.5902386731e+00 -2.7543741780e+00 1.5902386731e+00 2.7543741780e+00 
83400 5.4670109600e+00 6.9508358741e-05 1.5902386731e+00 -2.7543741780e+00 1.5902386731e+00 2.7543741780e+00 
83500 5.4670109627e+00 6.9527378671e-05 1.5902386731e+00 -2.7543741780e+00 1.5902386731e+00 2.7543741780e+00 
83600 5.4670109653e+00 6.9546402179e-05 1.5902386731e+00 -2.7543741780e+00 1.5902386731e+00 2.7543741780e+00 
83700 5.4670109678e+00 6.9565428269e-05 1.5902386731e+00 -2.7543741780e+00 1.5902386731e+00 2.7543741780e+00 
83800 5.4670109704e+00 6.9584455874e-05 1.5902386731e+00 -2.7543741780e+00 1.5902386731e+00 2.7543741780e+00 
83900 5.4670109729e+00 6.9603483860e-05 1.5902386731e+00 -2.7543741780e+00 1.5902386731e+00 2.7543741780e+00 
84000 5.4670109754e+00 6.9622511031e-05 1.5902386731e+00 -2.7543741780e+00 1.5902386731e+00 2.7543741780e+00 
84100 5.4670109778e+00 6.9641536137e-05 1.5902386731e+00 -2.7543741780e+00 1.5902386731e+00 2.7543741780e+00 
84200 5.4670109803e+00 6.9660557874e-05 1.5902386731e+00 -2.7543741780e+00 1.5902386731e+00 2.7543741780e+00 
84300 5.4670109827e+00 6.9679574893e-05 1.5902386731e+00 -2.7543741780e+00 1.5902386731e+00 2.7543741780e+00 
84400 5.4670109850e+00 6.9698585800e-05 1.5902386731e+00 -2.7543741780e+00 1.5902386731e+00 2.7543741780e+00 
84500 5.4670109874e+00 6.9717589162e-05 1.5902386731e+00 -2.7543741780e+00 1.5902386731e+00 2.7543741780e+00 
84600 5.4670109897e+00 6.9736583512e-05 1.5902386731e+00 -2.7543741780e+00 1.5902386731e+00 2.7543741780e+00 
84700 5.4670109920e+00 6.9755567352e-05 1.5902386731e+00 -2.7543741780e+00 1.5902386731e+00 2.7543741780e+00 
84800 5.4670109943e+00 6.9774539157e-05 1.5902386731e+00 -2.7543741780e+00 1.5902386731e+00 2.7543741780e+00 
84900 5.4670109965e+00 6.9793497377e-05 1.5902386731e+00 -2.7543741780e+00 1.5902386731e+00 2.7543741780e+00 
85000 5.4670109987e+00 6.9812440444e-05 1.5902386731e+00 -2.7543741780e+00 1.5902386731e+00 2.7543741780e+00 
85100 5.4670110009e+00 6.9831366769e-05 1.5902386731e+00 -2.7543741780e+00 1.5902386731e+00 2.7543741780e+00 
85200 5.4670110031e+00 6.9850274753e-05 1.5902386731e+00 -2.7543741780e+00 1.5902386731e+00 2.7543741780e+00 
85300 5.4670110052e+00 6.9869162783e-05 1.5902386731e+00 -2.7543741780e+00 1.5902386731e+00 2.7543741780e+00 
85400 5.4670110073e+00 6.9888029241e-05 1.5902386731e+00 -2.7543741780e+00 1.5902386731e+00 2.7543741780e+00 
85500 5.4670110094e+00 6.9906872501e-05 1.5902386731e+00 -2.7543741780e+00 1.5902386731e+00 2.7543741780e+00 
85600 5.4670110115e+00 6.9925690936e-05 1.5902386731e+00 -2.7543741780e+00 1.5902386731e+00 2.7543741780e+00 
85700 5.4670110135e+00 6.9944482917e-05 1.5902386731e+00 -2.7543741780e+00 1.5902386731e+00 2.7543741780e+00 
85800 5.4670110155e+00 6.9963246819e-05 1.5902386731e+00 -2.7543741780e+00 1.5902386731e+00 2.7543741780e+00 
85900 5.4670110175e+00 6.9981981021e-05 1.5902386731e+00 -2.7543741780e+00 1.5902386731e+00 2.7543741780e+00 
86000 5.4670110195e+00 7.0000683909e-05 1.5902386731e+00 -2.7543741780e+00 1.5902386731e+00 2.7543741780e+00 
86100 5.4670110215e+00 7.0019353876e-05 1.5902386731e+00 -2.7543741780e+00 1.5902386731e+00 2.7543741780e+00 
86200 5.4670110234e+00 7.0037989326e-05 1.5902386731e+00 -2.7543741780e+00 1.5902386731e+00 2.7543741780e+00 
86300 5.4670110253e+00 7.0056588677e-05 1.5902386731e+00 -2.7543741780e+00 1.5902386731e+00 2.7543741780e+00 
86400 5.4670110272e+00 7.0075150360e-05 1.5902386731e+00 -2.7543741780e+00 1.5902386731e+00 2.7543741780e+00 
86500 5.4670110290e+00 7.0093672824e-05 1.5902386731e+00 -2.7543741780e+00 1.5902386731e+00 2.7543741780e+00 
86600 5.4670110309e+00 7.0112154529e-05 1.5902386731e+00 -2.7543741780e+00 1.5902386731e+00 2.7543741780e+00 
86700 5.4670110327e+00 7.0130593961e-05 1.5902386731e+00 -2.7543741780e+00 1.5902386731e+00 2.7543741780e+00 
86800 5.4670110345e+00 7.0148989622e-05 1.5902386731e+00 -2.7543741780e+00 1.5902386731e+00 2.7543741780e+00 
86900 5.4670110363e+00 7.0167340036e-05 1.5902386731e+00 -2.7543741780e+00 1.5902386731e+00 2.7543741780e+00 
87000 5.4670110380e+00 7.0185643750e-05 1.5902386731e+00 -2.7543741780e+00 1.5902386731e+00 2.7543741780e+00 
87100 5.4670110398e+00 7.0203899336e-05 1.5902386731e+00 -2.7543741780e+00 1.5902386731e+00 2.7543741780e+00 
87200 5.4670110415e+00 7.0222105387e-05 1.5902386731e+00 -2.7543741780e+00 1.5902386731e+00 2.7543741780e+00 
87300 5.4670110432e+00 7.0240260525e-05 1.5902386731e+00 -2.7543741780e+00 1.5902386731e+00 2.7543741780e+00 
87400 5.4670110449e+00 7.0258363395e-05 1.5902386731e+00 -2.7543741780e+00 1.5902386731e+00 2.7543741780e+00 
87500 5.4670110465e+00 7.0276412673e-05 1.5902386731e+00 -2.7543741780e+00 1.5902386731e+00 2.7543741780e+00 
87600 5.4670110482e+00 7.0294407060e-05 1.5902386731e+00 -2.7543741780e+00 1.5902386731e+00 2.7543741780e+00 
87700 5.4670110498e+00 7.0312345288e-05 1.5902386731e+00 -2.7543741780e+00 1.5902386731e+00 2.7543741780e+00 
87800 5.4670110514e+00 7.0330226115e-05 1.5902386731e+00 -2.7543741780e+00 1.5902386731e+00 2.7543741780e+00 
87900 5.4670110530e+00 7.0348048332e-05 1.5902386731e+00 -2.7543741780e+00 1.5902386731e+00 2.7543741780e+00 
88000 5.4670110545e+00 7.0365810757e-05 1.5902386731e+00 -2.7543741780e+00 1.5902386731e+00 2.7543741780e+00 
88100 5.4670110561e+00 7.0383512241e-05 1.5902386731e+00 -2.7543741780e+00 1.5902386731e+00 2.7543741780e+00 
88200 5.4670110576e+00 7.0401151663e-05 1.5902386731e+00 -2.7543741780e+00 1.5902386731e+00 2.7543741780e+00 
88300 5.4670110591e+00 7.0418727938e-05 1.5902386731e+00 -2.7543741780e+00 1.5902386731e+00 2.7543741780e+00 
88400 5.4670110606e+00 7.0436240008e-05 1.5902386731e+00 -2.7543741780e+00 1.5902386731e+00 2.7543741780e+00 
88500 5.4670110621e+00 7.0453686847e-05 1.5902386731e+00 -2.7543741780e+00 1.5902386731e+00 2.7543741780e+00 
88600 5.4670110635e+00 7.0471067463e-05 1.5902386731e+00 -2.7543741780e+00 1.5902386731e+00 2.7543741780e+00 
88700 5.4670110650e+00 7.0488380893e-05 1.5902386731e+00 -2.7543741780e+00 1.5902386731e+00 2.7543741780e+00 
88800 5.4670110664e+00 7.0505626209e-05 1.5902386731e+00 -2.7543741780e+00 1.5902386731e+00 2.7543741780e+00 
88900 5.4670110678e+00 7.0522802513e-05 1.5902386731e+00 -2.7543741780e+00 1.5902386731e+00 2.7543741780e+00 
89000 5.4670110692e+00 7.0539908940e-05 1.5902386731e+00 -2.7543741780e+00 1.5902386731e+00 2.7543741780e+00 
89100 5.4670110706e+00 7.0556944653e-05 1.5902386731e+00 -2.7543741780e+00 1.5902386731e+00 2.7543741780e+00 
89200 5.4670110720e+00 7.0573908853e-05 1.5902386731e+00 -2.7543741780e+00 1.5902386731e+00 2.7543741780e+00 
89300 5.4670110733e+00 7.0590800769e-05 1.5902386731e+00 -2.7543741780e+00 1.5902386731e+00 2.7543741780e+00 
89400 5.4670110746e+00 7.0607619662e-05 1.5902386731e+00 -2.7543741780e+00 1.5902386731e+00 2.7543741780e+00 
89500 5.4670110760e+00 7.0624364822e-05 1.5902386731e+00 -2.7543741780e+00 1.5902386731e+00 2.7543741780e+00 
89600 5.4670110773e+00 7.0641035574e-05 1.5902386731e+00 -2.7543741780e+00 1.5902386731e+00 2.7543741780e+00 
89700 5.4670110785e+00 7.0657631273e-05 1.5902386731e+00 -2.7543741780e+00 1.5902386731e+00 2.7543741780e+00 
89800 5.4670110798e+00 7.0674151301e-05 1.5902386731e+00 -2.7543741780e+00 1.5902386731e+00 2.7543741780e+00 
89900 5.4670110811e+00 7.0690595076e-05 1.5902386731e+00 -2.7543741780e+00 1.5902386731e+00 2.7543741780e+00 
90000 5.4670110823e+00 7.0706962039e-05 1.5902386731e+00 -2.7543741780e+00 1.5902386731e+00 2.7543741780e+00 
90100 5.4670110836e+00 7.0723251668e-05 1.5902386731e+00 -2.7543741780e+00 1.5902386731e+00 2.7543741780e+00 
90200 5.4670110846e+00 6.8799023399e-05 1.5902364495e+00 -2.7543703265e+00 1.5902364495e+00 2.7543703265e+00 
90300 5.4670110858e+00 6.8806617196e-05 1.5902364495e+00 -2.7543703265e+00 1.5902364495e+00 2.7543703265e+00 
90400 5.4670110870e+00 6.8814172513e-05 1.5902364495e+00 -2.7543703265e+00 1.5902364495e+00 2.7543703265e+00 
90500 5.4670110881e+00 6.8821696319e-05 1.5902364495e+00 -2.7543703265e+00 1.5902364495e+00 2.7543703265e+00 
90600 5.4670110893e+00 6.8829195223e-05 1.5902364495e+00 -2.7543703265e+00 1.5902364495e+00 2.7543703265e+00 
90700 5.4670110904e+00 6.8836675481e-05 1.5902364495e+00 -2.7543703265e+00 1.5902364495e+00 2.7543703265e+00 
90800 5.4670110916e+00 6.8844143010e-05 1.5902364495e+00 -2.7543703265e+00 1.5902364495e+00 2.7543703265e+00 
90900 5.4670110927e+00 6.8851603393e-05 1.5902364495e+00 -2.7543703265e+00 1.5902364495e+00 2.7543703265e+00 
91000 5.4670110938e+00 6.8859061887e-05 1.5902364495e+00 -2.7543703265e+00 1.5902364495e+00 2.7543703265e+00 
91100 5.4670110949e+00 6.8866523441e-05 1.5902364495e+00 -2.7543703265e+00 1.5902364495e+00 2.7543703265e+00 
91200 5.4670110960e+00 6.8873992691e-05 1.5902364495e+00 -2.7543703265e+00 1.5902364495e+00 2.7543703265e+00 
91300 5.4670110971e+00 6.8881473981e-05 1.5902364495e+00 -2.7543703265e+00 1.5902364495e+00 2.7543703265e+00 
91400 5.4670110981e+00 6.8888971366e-05 1.5902364495e+00 -2.7543703265e+00 1.5902364495e+00 2.7543703265e+00 
91500 5.4670110992e+00 6.8896488621e-05 1.5902364495e+00 -2.7543703265e+00 1.5902364495e+00 2.7543703265e+00 
91600 5.4670111002e+00 6.8904029253e-05 1.5902364495e+00 -2.7543703265e+00 1.5902364495e+00 2.7543703265e+00 
91700 5.4670111012e+00 6.8911596508e-05 1.5902364495e+00 -2.7543703265e+00 1.5902364495e+00 2.7543703265e+00 
91800 5.4670111022e+00 6.8919193377e-05 1.5902364495e+00 -2.7543703265e+00 1.5902364495e+00 2.7543703265e+00 
91900 5.4670111032e+00 6.8926822606e-05 1.5902364495e+00 -2.7543703265e+00 1.5902364495e+00 2.7543703265e+00 
92000 5.4670111042e+00 6.8934486712e-05 1.5902364495e+00 -2.7543703265e+00 1.5902364495e+00 2.7543703265e+00 
92100 5.4670111052e+00 6.8942187975e-05 1.5902364495e+00 -2.7543703265e+00 1.5902364495e+00 2.7543703265e+00 
92200 5.4670111062e+00 6.8949928463e-05 1.5902364495e+00 -2.7543703265e+00 1.5902364495e+00 2.7543703265e+00 
92300 5.4670111071e+00 6.8957710030e-05 1.5902364495e+00 -2.7543703265e+00 1.5902364495e+00 2.7543703265e+00 
92400 5.4670111081e+00 6.8965534327e-05 1.5902364495e+00 -2.7543703265e+00 1.5902364495e+00 2.7543703265e+00 
92500 5.4670111090e+00 6.8973402810e-05 1.5902364495e+00 -2.7543703265e+00 1.5902364495e+00 2.7543703265e+00 
92600 5.4670111099e+00 6.8981316747e-05 1.5902364495e+00 -2.7543703265e+00 1.5902364495e+00 2.7543703265e+00 
92700 5.4670111108e+00 6.8989277224e-05 1.5902364495e+00 -2.7543703265e+00 1.5902364495e+00 2.7543703265e+00 
92800 5.4670111117e+00 6.8997285161e-05 1.5902364495e+00 -2.7543703265e+00 1.5902364495e+00 2.7543703265e+00 
92900 5.4670111126e+00 6.9005341304e-05 1.5902364495e+00 -2.7543703265e+00 1.5902364495e+00 2.7543703265e+00 
93000 5.4670111135e+00 6.9013446247e-05 1.5902364495e+00 -2.7543703265e+00 1.5902364495e+00 2.7543703265e+00 
93100 5.4670111144e+00 6.9021600429e-05 1.5902364495e+00 -2.7543703265e+00 1.5902364495e+00 2.7543703265e+00 
93200 5.4670111152e+00 6.9029804147e-05 1.5902364495e+00 -2.7543703265e+00 1.5902364495e+00 2.7543703265e+00 
93300 5.4670111161e+00 6.9038057559e-05 1.5902364495e+00 -2.7543703265e+00 1.5902364495e+00 2.7543703265e+00 
93400 5.4670111169e+00 6.9046360693e-05 1.5902364495e+00 -2.7543703265e+00 1.5902364495e+00 2.7543703265e+00 
93500 5.4670111178e+00 6.9054713450e-05 1.5902364495e+00 -2.7543703265e+00 1.5902364495e+00 2.7543703265e+00 
93600 5.4670111186e+00 6.9063115616e-05 1.5902364495e+00 -2.7543703265e+00 1.5902364495e+00 2.7543703265e+00 
93700 5.4670111194e+00 6.9071566860e-05 1.5902364495e+00 -2.7543703265e+00 1.5902364495e+00 2.7543703265e+00 
93800 5.4670111202e+00 6.9080066749e-05 1.5902364495e+00 -2.7543703265e+00 1.5902364495e+00 2.7543703265e+00 
93900 5.4670111210e+00 6.9088614748e-05 1.5902364495e+00 -2.7543703265e+00 1.5902364495e+00 2.7543703265e+00 
94000 5.4670111218e+00 6.9097210224e-05 1.5902364495e+00 -2.7543703265e+00 1.5902364495e+00 2.7543703265e+00 
94100 5.4670111225e+00 6.9105852459e-05 1.5902364495e+00 -2.7543703265e+00 1.5902364495e+00 2.7543703265e+00 
94200 5.4670111233e+00 6.9114540648e-05 1.5902364495e+00 -2.7543703265e+00 1.5902364495e+00 2.7543703265e+00 
94300 5.4670111241e+00 6.9123273906e-05 1.5902364495e+00 -2.7543703265e+00 1.5902364495e+00 2.7543703265e+00 
94400 5.4670111248e+00 6.9132051278e-05 1.5902364495e+00 -2.7543703265e+00 1.5902364495e+00 2.7543703265e+00 
94500 5.4670111256e+00 6.9140871736e-05 1.5902364495e+00 -2.7543703265e+00 1.5902364495e+00 2.7543703265e+00 
94600 5.4670111263e+00 6.9149734189e-05 1.5902364495e+00 -2.7543703265e+00 1.5902364495e+00 2.7543703265e+00 
94700 5.4670111270e+00 6.9158637486e-05 1.5902364495e+00 -2.7543703265e+00 1.5902364495e+00 2.7543703265e+00 
94800 5.4670111277e+00 6.9167580421e-05 1.5902364495e+00 -2.7543703265e+00 1.5902364495e+00 2.7543703265e+00 
94900 5.4670111285e+00 6.9176561735e-05 1.5902364495e+00 -2.7543703265e+00 1.5902364495e+00 2.7543703265e+00 
95000 5.4670111292e+00 6.9185580126e-05 1.5902364495e+00 -2.7543703265e+00 1.5902364495e+00 2.7543703265e+00 
95100 5.4670111298e+00 6.9194634246e-05 1.5902364495e+00 -2.7543703265e+00 1.5902364495e+00 2.7543703265e+00 
95200 5.4670111305e+00 6.9203722708e-05 1.5902364495e+00 -2.7543703265e+00 1.5902364495e+00 2.7543703265e+00 
95300 5.4670111312e+00 6.9212844091e-05 1.5902364495e+00 -2.7543703265e+00 1.5902364495e+00 2.7543703265e+00 
95400 5.4670111319e+00 6.9221996941e-05 1.5902364495e+00 -2.7543703265e+00 1.5902364495e+00 2.7543703265e+00 
95500 5.4670111325e+00 6.9231179778e-05 1.5902364495e+00 -2.7543703265e+00 1.5902364495e+00 2.7543703265e+00 
95600 5.4670111332e+00 6.9240391093e-05 1.5902364495e+00 -2.7543703265e+00 1.5902364495e+00 2.7543703265e+00 
95700 5.4670111338e+00 6.9249629360e-05 1.5902364495e+00 -2.7543703265e+00 1.5902364495e+00 2.7543703265e+00 
95800 5.4670111345e+00 6.9258893029e-05 1.5902364495e+00 -2.7543703265e+00 1.5902364495e+00 2.7543703265e+00 
95900 5.4670111351e+00 6.9268180541e-05 1.5902364495e+00 -2.7543703265e+00 1.5902364495e+00 2.7543703265e+00 
96000 5.4670111357e+00 6.9277490319e-05 1.5902364495e+00 -2.7543703265e+00 1.5902364495e+00 2.7543703265e+00 
96100 5.4670111364e+00 6.9286820777e-05 1.5902364495e+00 -2.7543703265e+00 1.5902364495e+00 2.7543703265e+00 
96200 5.4670111370e+00 6.9296170323e-05 1.5902364495e+00 -2.7543703265e+00 1.5902364495e+00 2.7543703265e+00 
96300 5.4670111376e+00 6.9305537358e-05 1.5902364495e+00 -2.7543703265e+00 1.5902364495e+00 2.7543703265e+00 
96400 5.4670111382e+00 6.9314920283e-05 1.5902364495e+00 -2.7543703265e+00 1.5902364495e+00 2.7543703265e+00 
96500 5.4670111388e+00 6.9324317496e-05 1.5902364495e+00 -2.7543703265e+00 1.5902364495e+00 2.7543703265e+00 
96600 5.4670111393e+00 6.9333727398e-05 1.5902364495e+00 -2.7543703265e+00 1.5902364495e+00 2.7543703265e+00 
96700 5.4670111399e+00 6.9343148393e-05 1.5902364495e+00 -2.7543703265e+00 1.5902364495e+00 2.7543703265e+00 
96800 5.4670111405e+00 6.9352578892e-05 1.5902364495e+00 -2.7543703265e+00 1.5902364495e+00 2.7543703265e+00 
96900 5.4670111411e+00 6.9362017313e-05 1.5902364495e+00 -2.7543703265e+00 1.5902364495e+00 2.7543703265e+00 
97000 5.4670111416e+00 6.9371462083e-05 1.5902364495e+00 -2.7543703265e+00 1.5902364495e+00 2.7543703265e+00 
97100 5.4670111422e+00 6.9380911642e-05 1.5902364495e+00 -2.7543703265e+00 1.5902364495e+00 2.7543703265e+00 
97200 5.4670111427e+00 6.9390364440e-05 1.5902364495e+00 -2.7543703265e+00 1.5902364495e+00 2.7543703265e+00 
97300 5.4670111433e+00 6.9399818942e-05 1.5902364495e+00 -2.7543703265e+00 1.5902364495e+00 2.7543703265e+00 
97400 5.4670111438e+00 6.9409273630e-05 1.5902364495e+00 -2.7543703265e+00 1.5902364495e+00 2.7543703265e+00 
97500 5.4670111443e+00 6.9418727000e-05 1.5902364495e+00 -2.7543703265e+00 1.5902364495e+00 2.7543703265e+00 
97600 5.4670111448e+00 6.9428177569e-05 1.5902364495e+00 -2.7543703265e+00 1.5902364495e+00 2.7543703265e+00 
97700 5.4670111454e+00 6.9437623872e-05 1.5902364495e+00 -2.7543703265e+00 1.5902364495e+00 2.7543703265e+00 
97800 5.4670111459e+00 6.9447064463e-05 1.5902364495e+00 -2.7543703265e+00 1.5902364495e+00 2.7543703265e+00 
97900 5.4670111464e+00 6.9456497919e-05 1.5902364495e+00 -2.7543703265e+00 1.5902364495e+00 2.7543703265e+00 
98000 5.4670111469e+00 6.9465922841e-05 1.5902364495e+00 -2.7543703265e+00 1.5902364495e+00 2.7543703265e+00 
98100 5.4670111474e+00 6.9475337847e-05 1.5902364495e+00 -2.7543703265e+00 1.5902364495e+00 2.7543703265e+00 
98200 5.4670111478e+00 6.9484741583e-05 1.5902364495e+00 -2.7543703265e+00 1.5902364495e+00 2.7543703265e+00 
98300 5.4670111483e+00 6.9494132721e-05 1.5902364495e+00 -2.7543703265e+00 1.5902364495e+00 2.7543703265e+00 
98400 5.4670111488e+00 6.9503509955e-05 1.5902364495e+00 -2.7543703265e+00 1.5902364495e+00 2.7543703265e+00 
98500 5.4670111493e+00 6.9512872006e-05 1.5902364495e+00 -2.7543703265e+00 1.5902364495e+00 2.7543703265e+00 
98600 5.4670111497e+00 6.9522217622e-05 1.5902364495e+00 -2.7543703265e+00 1.5902364495e+00 2.7543703265e+00 
98700 5.4670111502e+00 6.9531545576e-05 1.5902364495e+00 -2.7543703265e+00 1.5902364495e+00 2.7543703265e+00 
98800 5.4670111507e+00 6.9540854671e-05 1.5902364495e+00 -2.7543703265e+00 1.5902364495e+00 2.7543703265e+00 
98900 5.4670111511e+00 6.9550143735e-05 1.5902364495e+00 -2.7543703265e+00 1.5902364495e+00 2.7543703265e+00 
99000 5.4670111515e+00 6.9559411625e-05 1.5902364495e+00 -2.7543703265e+00 1.5902364495e+00 2.7543703265e+00 
99100 5.4670111520e+00 6.9568657227e-05 1.5902364495e+00 -2.7543703265e+00 1.5902364495e+00 2.7543703265e+00 
99200 5.4670111524e+00 6.9577879454e-05 1.5902364495e+00 -2.7543703265e+00 1.5902364495e+00 2.7543703265e+00 
99300 5.4670111529e+00 6.9587077248e-05 1.5902364495e+00 -2.7543703265e+00 1.5902364495e+00 2.7543703265e+00 
99400 5.4670111533e+00 6.9596249580e-05 1.5902364495e+00 -2.7543703265e+00 1.5902364495e+00 2.7543703265e+00 
99500 5.4670111537e+00 6.9605395452e-05 1.5902364495e+00 -2.7543703265e+00 1.5902364495e+00 2.7543703265e+00 
99600 5.4670111541e+00 6.9614513890e-05 1.5902364495e+00 -2.7543703265e+00 1.5902364495e+00 2.7543703265e+00 
99700 5.4670111545e+00 6.9623603952e-05 1.5902364495e+00 -2.7543703265e+00 1.5902364495e+00 2.7543703265e+00 
99800 5.4670111549e+00 6.9632664726e-05 1.5902364495e+00 -2.7543703265e+00 1.5902364495e+00 2.7543703265e+00 
99900 5.4670111553e+00 6.9641695326e-05 1.5902364495e+00 -2.7543703265e+00 1.5902364495e+00 2.7543703265e+00 
100000 5.4670111557e+00 6.9650694898e-05 1.5902364495e+00 -2.7543703265e+00 1.5902364495e+00 2.7543703265e+00 
100100 5.4670111561e+00 6.9659662614e-05 1.5902364495e+00 -2.7543703265e+00 1.5902364495e+00 2.7543703265e+00 
100200 5.4670111565e+00 6.9668597677e-05 1.5902364495e+00 -2.7543703265e+00 1.5902364495e+00 2.7543703265e+00 
100300 5.4670111569e+00 6.9677499315e-05 1.5902364495e+00 -2.7543703265e+00 1.5902364495e+00 2.7543703265e+00 
100400 5.4670111573e+00 6.9686366788e-05 1.5902364495e+00 -2.7543703265e+00 1.5902364495e+00 2.7543703265e+00 
100500 5.4670111576e+00 6.9695199380e-05 1.5902364495e+00 -2.7543703265e+00 1.5902364495e+00 2.7543703265e+00 
100600 5.4670111580e+00 6.9703996407e-05 1.5902364495e+00 -2.7543703265e+00 1.5902364495e+00 2.7543703265e+00 
100700 5.4670111584e+00 6.9712757209e-05 1.5902364495e+00 -2.7543703265e+00 1.5902364495e+00 2.7543703265e+00 
100800 5.4670111587e+00 6.9721481156e-05 1.5902364495e+00 -2.7543703265e+00 1.5902364495e+00 2.7543703265e+00 
100900 5.4670111591e+00 6.9730167643e-05 1.5902364495e+00 -2.7543703265e+00 1.5902364495e+00 2.7543703265e+00 
101000 5.4670111595e+00 6.9738816091e-05 1.5902364495e+00 -2.7543703265e+00 1.5902364495e+00 2.7543703265e+00 
101100 5.4670111598e+00 6.9747425950e-05 1.5902364495e+00 -2.7543703265e+00 1.5902364495e+00 2.7543703265e+00 
101200 5.4670111602e+00 6.9755996694e-05 1.5902364495e+00 -2.7543703265e+00 1.5902364495e+00 2.7543703265e+00 
101300 5.4670111605e+00 6.9764527820e-05 1.5902364495e+00 -2.7543703265e+00 1.5902364495e+00 2.7543703265e+00 
101400 5.4670111608e+00 6.9773018856e-05 1.5902364495e+00 -2.7543703265e+00 1.5902364495e+00 2.7543703265e+00 
101500 5.4670111612e+00 6.9781469351e-05 1.5902364495e+00 -2.7543703265e+00 1.5902364495e+00 2.7543703265e+00 
101600 5.4670111615e+00 6.9789878878e-05 1.5902364495e+00 -2.7543703265e+00 1.5902364495e+00 2.7543703265e+00 
101700 5.4670111618e+00 6.9798247036e-05 1.5902364495e+00 -2.7543703265e+00 1.5902364495e+00 2.7543703265e+00 
101800 5.4670111621e+00 6.9806573445e-05 1.5902364495e+00 -2.7543703265e+00 1.5902364495e+00 2.7543703265e+00 
101900 5.4670111625e+00 6.9814857752e-05 1.5902364495e+00 -2.7543703265e+00 1.5902364495e+00 2.7543703265e+00 
102000 5.4670111628e+00 6.9823099621e-05 1.5902364495e+00 -2.7543703265e+00 1.5902364495e+00 2.7543703265e+00 
102100 5.4670111631e+00 6.9831298744e-05 1.5902364495e+00 -2.7543703265e+00 1.5902364495e+00 2.7543703265e+00 
102200 5.4670111634e+00 6.9839454831e-05 1.5902364495e+00 -2.7543703265e+00 1.5902364495e+00 2.7543703265e+00 
102300 5.4670111637e+00 6.9847567615e-05 1.5902364495e+00 -2.7543703265e+00 1.5902364495e+00 2.7543703265e+00 
102400 5.4670111640e+00 6.9855636847e-05 1.5902364495e+00 -2.7543703265e+00 1.5902364495e+00 2.7543703265e+00 
102500 5.4670111643e+00 6.9863662305e-05 1.5902364495e+00 -2.7543703265e+00 1.5902364495e+00 2.7543703265e+00 
102600 5.4670111646e+00 6.9871643779e-05 1.5902364495e+00 -2.7543703265e+00 1.5902364495e+00 2.7543703265e+00 
102700 5.4670111649e+00 6.9879581082e-05 1.5902364495e+00 -2.7543703265e+00 1.5902364495e+00 2.7543703265e+00 
102800 5.4670111652e+00 6.9887474048e-05 1.5902364495e+00 -2.7543703265e+00 1.5902364495e+00 2.7543703265e+00 
102900 5.4670111655e+00 6.9895322528e-05 1.5902364495e+00 -2.7543703265e+00 1.5902364495e+00 2.7543703265e+00 
103000 5.4670111658e+00 6.9903126387e-05 1.5902364495e+00 -2.7543703265e+00 1.5902364495e+00 2.7543703265e+00 
103100 5.4670111660e+00 6.9910885514e-05 1.5902364495e+00 -2.7543703265e+00 1.5902364495e+00 2.7543703265e+00 
103200 5.4670111663e+00 6.9918599811e-05 1.5902364495e+00 -2.7543703265e+00 1.5902364495e+00 2.7543703265e+00 
103300 5.4670111666e+00 6.9926269197e-05 1.5902364495e+00 -2.7543703265e+00 1.5902364495e+00 2.7543703265e+00 
103400 5.4670111669e+00 6.9933893610e-05 1.5902364495e+00 -2.7543703265e+00 1.5902364495e+00 2.7543703265e+00 
103500 5.4670111671e+00 6.9941472999e-05 1.5902364495e+00 -2.7543703265e+00 1.5902364495e+00 2.7543703265e+00 
103600 5.4670111674e+00 6.9949007333e-05 1.5902364495e+00 -2.7543703265e+00 1.5902364495e+00 2.7543703265e+00 
103700 5.4670111677e+00 6.9956496594e-05 1.5902364495e+00 -2.7543703265e+00 1.5902364495e+00 2.7543703265e+00 
103800 5.4670111679e+00 6.9963940776e-05 1.5902364495e+00 -2.7543703265e+00 1.5902364495e+00 2.7543703265e+00 
103900 5.4670111682e+00 6.9971339890e-05 1.5902364495e+00 -2.7543703265e+00 1.5902364495e+00 2.7543703265e+00 
104000 5.4670111684e+00 6.9978693959e-05 1.5902364495e+00 -2.7543703265e+00 1.5902364495e+00 2.7543703265e+00 
104100 5.4670111687e+00 6.9986003018e-05 1.5902364495e+00 -2.7543703265e+00 1.5902364495e+00 2.7543703265e+00 
104200 5.4670111689e+00 6.9993267118e-05 1.5902364495e+00 -2.7543703265e+00 1.5902364495e+00 2.7543703265e+00 
104300 5.4670111692e+00 7.0000486318e-05 1.5902364495e+00 -2.7543703265e+00 1.5902364495e+00 2.7543703265e+00 
104400 5.4670111694e+00 7.0007660692e-05 1.5902364495e+00 -2.7543703265e+00 1.5902364495e+00 2.7543703265e+00 
104500 5.4670111696e+00 7.0014790323e-05 1.5902364495e+00 -2.7543703265e+00 1.5902364495e+00 2.7543703265e+00 
104600 5.4670111699e+00 7.0021875305e-05 1.5902364495e+00 -2.7543703265e+00 1.5902364495e+00 2.7543703265e+00 
104700 5.4670111701e+00 7.0028915744e-05 1.5902364495e+00 -2.7543703265e+00 1.5902364495e+00 2.7543703265e+00 
104800 5.4670111703e+00 7.0035911755e-05 1.5902364495e+00 -2.7543703265e+00 1.5902364495e+00 2.7543703265e+00 
104900 5.4670111706e+00 7.0042863461e-05 1.5902364495e+00 -2.7543703265e+00 1.5902364495e+00 2.7543703265e+00 
105000 5.4670111708e+00 7.0049770998e-05 1.5902364495e+00 -2.7543703265e+00 1.5902364495e+00 2.7543703265e+00 
105100 5.4670111710e+00 7.0056634509e-05 1.5902364495e+00 -2.7543703265e+00 1.5902364495e+00 2.7543703265e+00 
105200 5.4670111712e+00 7.0063454143e-05 1.5902364495e+00 -2.7543703265e+00 1.5902364495e+00 2.7543703265e+00 
105300 5.4670111715e+00 7.0070230061e-05 1.5902364495e+00 -2.7543703265e+00 1.5902364495e+00 2.7543703265e+00 
105400 5.4670111717e+00 7.0076962431e-05 1.5902364495e+00 -2.7543703265e+00 1.5902364495e+00 2.7543703265e+00 
105500 5.4670111719e+00 7.0083651425e-05 1.5902364495e+00 -2.7543703265e+00 1.5902364495e+00 2.7543703265e+00 
105600 5.4670111721e+00 7.0090297227e-05 1.5902364495e+00 -2.7543703265e+00 1.5902364495e+00 2.7543703265e+00 
105700 5.4670111723e+00 7.0096900024e-05 1.5902364495e+00 -2.7543703265e+00 1.5902364495e+00 2.7543703265e+00 
105800 5.4670111725e+00 7.0103460010e-05 1.5902364495e+00 -2.7543703265e+00 1.5902364495e+00 2.7543703265e+00 
105900 5.4670111727e+00 7.0109977385e-05 1.5902364495e+00 -2.7543703265e+00 1.5902364495e+00 2.7543703265e+00 
106000 5.4670111729e+00 7.0116452358e-05 1.5902364495e+00 -2.7543703265e+00 1.5902364495e+00 2.7543703265e+00 
106100 5.4670111731e+00 7.0122885140e-05 1.5902364495e+00 -2.7543703265e+00 1.5902364495e+00 2.7543703265e+00 
106200 5.4670111733e+00 7.0129275947e-05 1.5902364495e+00 -2.7543703265e+00 1.5902364495e+00 2.7543703265e+00 
106300 5.4670111735e+00 7.0135625000e-05 1.5902364495e+00 -2.7543703265e+00 1.5902364495e+00 2.7543703265e+00 
106400 5.4670111737e+00 7.0141932527e-05 1.5902364495e+00 -2.7543703265e+00 1.5902364495e+00 2.7543703265e+00 
106500 5.4670111739e+00 7.0148198756e-05 1.5902364495e+00 -2.7543703265e+00 1.5902364495e+00 2.7543703265e+00 
106600 5.4670111741e+00 7.0154423924e-05 1.5902364495e+00 -2.7543703265e+00 1.5902364495e+00 2.7543703265e+00 
106700 5.4670111743e+00 7.0160608267e-05 1.5902364495e+00 -2.7543703265e+00 1.5902364495e+00 2.7543703265e+00 
106800 5.4670111744e+00 7.0166752028e-05 1.5902364495e+00 -2.7543703265e+00 1.5902364495e+00 2.7543703265e+00 
106900 5.4670111746e+00 7.0172855450e-05 1.5902364495e+00 -2.7543703265e+00 1.5902364495e+00 2.7543703265e+00 
107000 5.4670111748e+00 7.0178918781e-05 1.5902364495e+00 -2.7543703265e+00 1.5902364495e+00 2.7543703265e+00 
107100 5.4670111750e+00 7.0184942271e-05 1.5902364495e+00 -2.7543703265e+00 1.5902364495e+00 2.7543703265e+00 
107200 5.4670111752e+00 7.0190926174e-05 1.5902364495e+00 -2.7543703265e+00 1.5902364495e+00 2.7543703265e+00 
107300 5.4670111753e+00 7.0196870744e-05 1.5902364495e+00 -2.7543703265e+00 1.5902364495e+00 2.7543703265e+00 
107400 5.4670111755e+00 7.0202776238e-05 1.5902364495e+00 -2.7543703265e+00 1.5902364495e+00 2.7543703265e+00 
107500 5.4670111757e+00 7.0208642913e-05 1.5902364495e+00 -2.7543703265e+00 1.5902364495e+00 2.7543703265e+00 
107600 5.4670111758e+00 7.0214471032e-05 1.5902364495e+00 -2.7543703265e+00 1.5902364495e+00 2.7543703265e+00 
107700 5.4670111760e+00 7.0220260855e-05 1.5902364495e+00 -2.7543703265e+00 1.5902364495e+00 2.7543703265e+00 
107800 5.4670111762e+00 7.0226012646e-05 1.5902364495e+00 -2.7543703265e+00 1.5902364495e+00 2.7543703265e+00 
107900 5.4670111763e+00 7.0231726668e-05 1.5902364495e+00 -2.7543703265e+00 1.5902364495e+00 2.7543703265e+00 
108000 5.4670111765e+00 7.0237403186e-05 1.5902364495e+00 -2.7543703265e+00 1.5902364495e+00 2.7543703265e+00 
108100 5.4670111767e+00 7.0243042466e-05 1.5902364495e+00 -2.7543703265e+00 1.5902364495e+00 2.7543703265e+00 
108200 5.4670111768e+00 7.0248644772e-05 1.5902364495e+00 -2.7543703265e+00 1.5902364495e+00 2.7543703265e+00 
108300 5.4670111770e+00 7.0254210373e-05 1.5902364495e+00 -2.7543703265e+00 1.5902364495e+00 2.7543703265e+00 
108400 5.4670111771e+00 7.0259739534e-05 1.5902364495e+00 -2.7543703265e+00 1.5902364495e+00 2.7543703265e+00 
108500 5.4670111773e+00 7.0265232521e-05 1.5902364495e+00 -2.7543703265e+00 1.5902364495e+00 2.7543703265e+00 
108600 5.4670111774e+00 7.0270689603e-05 1.5902364495e+00 -2.7543703265e+00 1.5902364495e+00 2.7543703265e+00 
108700 5.4670111776e+00 7.0276111044e-05 1.5902364495e+00 -2.7543703265e+00 1.5902364495e+00 2.7543703265e+00 
108800 5.4670111777e+00 7.0281497112e-05 1.5902364495e+00 -2.7543703265e+00 1.5902364495e+00 2.7543703265e+00 
108900 5.4670111779e+00 7.0286848069e-05 1.5902364495e+00 -2.7543703265e+00 1.5902364495e+00 2.7543703265e+00 
109000 5.4670111780e+00 7.0292164183e-05 1.5902364495e+00 -2.7543703265e+00 1.5902364495e+00 2.7543703265e+00 
109100 5.4670111781e+00 7.0297445717e-05 1.5902364495e+00 -2.7543703265e+00 1.5902364495e+00 2.7543703265e+00 
109200 5.4670111783e+00 7.0302692934e-05 1.5902364495e+00 -2.7543703265e+00 1.5902364495e+00 2.7543703265e+00 
109300 5.4670111784e+00 7.0307906097e-05 1.5902364495e+00 -2.7543703265e+00 1.5902364495e+00 2.7543703265e+00 
109400 5.4670111786e+00 7.0313085467e-05 1.5902364495e+00 -2.7543703265e+00 1.5902364495e+00 2.7543703265e+00 
109500 5.4670111787e+00 7.0318231304e-05 1.5902364495e+00 -2.7543703265e+00 1.5902364495e+00 2.7543703265e+00 
109600 5.4670111788e+00 7.0323343868e-05 1.5902364495e+00 -2.7543703265e+00 1.5902364495e+00 2.7543703265e+00 
109700 5.4670111790e+00 7.0328423418e-05 1.5902364495e+00 -2.7543703265e+00 1.5902364495e+00 2.7543703265e+00 
109800 5.4670111791e+00 7.0333470208e-05 1.5902364495e+00 -2.7543703265e+00 1.5902364495e+00 2.7543703265e+00 
109900 5.4670111792e+00 7.0338484494e-05 1.5902364495e+00 -2.7543703265e+00 1.5902364495e+00 2.7543703265e+00 
110000 5.4670111794e+00 7.0343466531e-05 1.5902364495e+00 -2.7543703265e+00 1.5902364495e+00 2.7543703265e+00 
110100 5.4670111795e+00 7.0348416570e-05 1.5902364495e+00 -2.7543703265e+00 1.5902364495e+00 2.7543703265e+00 
110200 5.4670111796e+00 7.0353334859e-05 1.5902364495e+00 -2.7543703265e+00 1.5902364495e+00 2.7543703265e+00 
110300 5.4670111797e+00 7.0358221651e-05 1.5902364495e+00 -2.7543703265e+00 1.5902364495e+00 2.7543703265e+00 
110400 5.4670111799e+00 7.0363077190e-05 1.5902364495e+00 -2.7543703265e+00 1.5902364495e+00 2.7543703265e+00 
110500 5.4670111800e+00 7.0367901722e-05 1.5902364495e+00 -2.7543703265e+00 1.5902364495e+00 2.7543703265e+00 
110600 5.4670111801e+00 7.0372695492e-05 1.5902364495e+00 -2.7543703265e+00 1.5902364495e+00 2.7543703265e+00 
110700 5.4670111802e+00 7.0377458739e-05 1.5902364495e+00 -2.7543703265e+00 1.5902364495e+00 2.7543703265e+00 
110800 5.4670111803e+00 7.0382191705e-05 1.5902364495e+00 -2.7543703265e+00 1.5902364495e+00 2.7543703265e+00 
110900 5.4670111805e+00 7.0386894626e-05 1.5902364495e+00 -2.7543703265e+00 1.5902364495e+00 2.7543703265e+00 
111000 5.4670111806e+00 7.0391567737e-05 1.5902364495e+00 -2.7543703265e+00 1.5902364495e+00 2.7543703265e+00 
111100 5.4670111807e+00 7.0396211273e-05 1.5902364495e+00 -2.7543703265e+00 1.5902364495e+00 2.7543703265e+00 
111200 5.4670111808e+00 7.0400825465e-05 1.5902364495e+00 -2.7543703265e+00 1.5902364495e+00 2.7543703265e+00 
111300 5.4670111809e+00 7.0405410544e-05 1.5902364495e+00 -2.7543703265e+00 1.5902364495e+00 2.7543703265e+00 
111400 5.4670111810e+00 7.0409966735e-05 1.5902364495e+00 -2.7543703265e+00 1.5902364495e+00 2.7543703265e+00 
111500 5.4670111811e+00 7.0414494264e-05 1.5902364495e+00 -2.7543703265e+00 1.5902364495e+00 2.7543703265e+00 
111600 5.4670111812e+00 7.0418993355e-05 1.5902364495e+00 -2.7543703265e+00 1.5902364495e+00 2.7543703265e+00 
111700 5.4670111813e+00 7.0423464229e-05 1.5902364495e+00 -2.7543703265e+00 1.5902364495e+00 2.7543703265e+00 
111800 5.4670111814e+00 7.0427907105e-05 1.5902364495e+00 -2.7543703265e+00 1.5902364495e+00 2.7543703265e+00 
111900 5.4670111815e+00 7.0432322198e-05 1.5902364495e+00 -2.7543703265e+00 1.5902364495e+00 2.7543703265e+00 
112000 5.4670111816e+00 7.0436709724e-05 1.5902364495e+00 -2.7543703265e+00 1.5902364495e+00 2.7543703265e+00 
112100 5.4670111817e+00 7.0441069896e-05 1.5902364495e+00 -2.7543703265e+00 1.5902364495e+00 2.7543703265e+00 
112200 5.4670111818e+00 7.0445402924e-05 1.5902364495e+00 -2.7543703265e+00 1.5902364495e+00 2.7543703265e+00 
112300 5.4670111819e+00 7.0449709015e-05 1.5902364495e+00 -2.7543703265e+00 1.5902364495e+00 2.7543703265e+00 
112400 5.4670111820e+00 7.0453988375e-05 1.5902364495e+00 -2.7543703265e+00 1.5902364495e+00 2.7543703265e+00 
112500 5.4670111821e+00 7.0458241209e-05 1.5902364495e+00 -2.7543703265e+00 1.5902364495e+00 2.7543703265e+00 
112600 5.4670111822e+00 7.0462467716e-05 1.5902364495e+00 -2.7543703265e+00 1.5902364495e+00 2.7543703265e+00 
112700 5.4670111823e+00 7.0466668097e-05 1.5902364495e+00 -2.7543703265e+00 1.5902364495e+00 2.7543703265e+00 
112800 5.4670111824e+00 7.0470842550e-05 1.5902364495e+00 -2.7543703265e+00 1.5902364495e+00 2.7543703265e+00 
112900 5.4670111825e+00 7.0474991268e-05 1.5902364495e+00 -2.7543703265e+00 1.5902364495e+00 2.7543703265e+00 
113000 5.4670111826e+00 7.0479114446e-05 1.5902364495e+00 -2.7543703265e+00 1.5902364495e+00 2.7543703265e+00 
113100 5.4670111827e+00 7.0483212272e-05 1.5902364495e+00 -2.7543703265e+00 1.5902364495e+00 2.7543703265e+00 
113200 5.4670111828e+00 7.0487284937e-05 1.5902364495e+00 -2.7543703265e+00 1.5902364495e+00 2.7543703265e+00 
113300 5.4670111829e+00 7.0491332627e-05 1.5902364495e+00 -2.7543703265e+00 1.5902364495e+00 2.7543703265e+00 
113400 5.4670111830e+00 7.0495355525e-05 1.5902364495e+00 -2.7543703265e+00 1.5902364495e+00 2.7543703265e+00 
113500 5.4670111831e+00 7.0499353815e-05 1.5902364495e+00 -2.7543703265e+00 1.5902364495e+00 2.7543703265e+00 
113600 5.4670111831e+00 7.0503327677e-05 1.5902364495e+00 -2.7543703265e+00 1.5902364495e+00 2.7543703265e+00 
113700 5.4670111832e+00 7.0507277288e-05 1.5902364495e+00 -2.7543703265e+00 1.5902364495e+00 2.7543703265e+00 
113800 5.4670111833e+00 7.0511202825e-05 1.5902364495e+00 -2.7543703265e+00 1.5902364495e+00 2.7543703265e+00 
113900 5.4670111834e+00 7.0515104463e-05 1.5902364495e+00 -2.7543703265e+00 1.5902364495e+00 2.7543703265e+00 
114000 5.4670111835e+00 7.0518982373e-05 1.5902364495e+00 -2.7543703265e+00 1.5902364495e+00 2.7543703265e+00 
114100 5.4670111836e+00 7.0522836725e-05 1.5902364495e+00 -2.7543703265e+00 1.5902364495e+00 2.7543703265e+00 
114200 5.4670111836e+00 7.0526667689e-05 1.5902364495e+00 -2.7543703265e+00 1.5902364495e+00 2.7543703265e+00 
114300 5.4670111837e+00 7.0530475429e-05 1.5902364495e+00 -2.7543703265e+00 1.5902364495e+00 2.7543703265e+00 
114400 5.4670111838e+00 7.0534260111e-05 1.5902364495e+00 -2.7543703265e+00 1.5902364495e+00 2.7543703265e+00 
114500 5.4670111839e+00 7.0538021898e-05 1.5902364495e+00 -2.7543703265e+00 1.5902364495e+00 2.7543703265e+00 
114600 5.4670111840e+00 7.0541760949e-05 1.5902364495e+00 -2.7543703265e+00 1.5902364495e+00 2.7543703265e+00 
114700 5.4670111840e+00 7.0545477424e-05 1.5902364495e+00 -2.7543703265e+00 1.5902364495e+00 2.7543703265e+00 
114800 5.4670111841e+00 7.0549171480e-05 1.5902364495e+00 -2.7543703265e+00 1.5902364495e+00 2.7543703265e+00 
114900 5.4670111842e+00 7.0552843271e-05 1.5902364495e+00 -2.7543703265e+00 1.5902364495e+00 2.7543703265e+00 
115000 5.4670111842e+00 7.0556492952e-05 1.5902364495e+00 -2.7543703265e+00 1.5902364495e+00 2.7543703265e+00 
115100 5.4670111843e+00 7.0560120676e-05 1.5902364495e+00 -2.7543703265e+00 1.5902364495e+00 2.7543703265e+00 
115200 5.4670111844e+00 7.0563726589e-05 1.5902364495e+00 -2.7543703265e+00 1.5902364495e+00 2.7543703265e+00 
115300 5.4670111845e+00 7.0567310843e-05 1.5902364495e+00 -2.7543703265e+00 1.5902364495e+00 2.7543703265e+00 
115400 5.4670111845e+00 7.0570873583e-05 1.5902364495e+00 -2.7543703265e+00 1.5902364495e+00 2.7543703265e+00 
115500 5.4670111846e+00 7.0574414954e-05 1.5902364495e+00 -2.7543703265e+00 1.5902364495e+00 2.7543703265e+00 
115600 5.4670111847e+00 7.0577935101e-05 1.5902364495e+00 -2.7543703265e+00 1.5902364495e+00 2.7543703265e+00 
115700 5.4670111847e+00 7.0581434164e-05 1.5902364495e+00 -2.7543703265e+00 1.5902364495e+00 2.7543703265e+00 
115800 5.4670111848e+00 7.0584912285e-05 1.5902364495e+00 -2.7543703265e+00 1.5902364495e+00 2.7543703265e+00 
115900 5.4670111849e+00 7.0588369600e-05 1.5902364495e+00 -2.7543703265e+00 1.5902364495e+00 2.7543703265e+00 
116000 5.4670111849e+00 7.0591806249e-05 1.5902364495e+00 -2.7543703265e+00 1.5902364495e+00 2.7543703265e+00 
116100 5.4670111850e+00 7.0595222367e-05 1.5902364495e+00 -2.7543703265e+00 1.5902364495e+00 2.7543703265e+00 
116200 5.4670111851e+00 7.0598618088e-05 1.5902364495e+00 -2.7543703265e+00 1.5902364495e+00 2.7543703265e+00 
116300 5.4670111851e+00 7.0601993544e-05 1.5902364495e+00 -2.7543703265e+00 1.5902364495e+00 2.7543703265e+00 
116400 5.4670111852e+00 7.0605348867e-05 1.5902364495e+00 -2.7543703265e+00 1.5902364495e+00 2.7543703265e+00 
116500 5.4670111853e+00 7.0608684189e-05 1.5902364495e+00 -2.7543703265e+00 1.5902364495e+00 2.7543703265e+00 
116600 5.4670111853e+00 7.0611999636e-05 1.5902364495e+00 -2.7543703265e+00 1.5902364495e+00 2.7543703265e+00 
116700 5.4670111854e+00 7.0615295338e-05 1.5902364495e+00 -2.7543703265e+00 1.5902364495e+00 2.7543703265e+00 
116800 5.4670111854e+00 7.0618571418e-05 1.5902364495e+00 -2.7543703265e+00 1.5902364495e+00 2.7543703265e+00 
116900 5.4670111855e+00 7.0621828002e-05 1.5902364495e+00 -2.7543703265e+00 1.5902364495e+00 2.7543703265e+00 
117000 5.4670111856e+00 7.0625065214e-05 1.5902364495e+00 -2.7543703265e+00 1.5902364495e+00 2.7543703265e+00 
117100 5.4670111856e+00 7.0628283176e-05 1.5902364495e+00 -2.7543703265e+00 1.5902364495e+00 2.7543703265e+00 
117200 5.4670111857e+00 7.0631482008e-05 1.5902364495e+00 -2.7543703265e+00 1.5902364495e+00 2.7543703265e+00 
117300 5.4670111857e+00 7.0634661831e-05 1.5902364495e+00 -2.7543703265e+00 1.5902364495e+00 2.7543703265e+00 
117400 5.4670111858e+00 7.0637822765e-05 1.5902364495e+00 -2.7543703265e+00 1.5902364495e+00 2.7543703265e+00 
117500 5.4670111858e+00 7.0640964924e-05 1.5902364495e+00 -2.7543703265e+00 1.5902364495e+00 2.7543703265e+00 
117600 5.4670111859e+00 7.0644088427e-05 1.5902364495e+00 -2.7543703265e+00 1.5902364495e+00 2.7543703265e+00 
117700 5.4670111860e+00 7.0647193388e-05 1.5902364495e+00 -2.7543703265e+00 1.5902364495e+00 2.7543703265e+00 
117800 5.4670111860e+00 7.0650279921e-05 1.5902364495e+00 -2.7543703265e+00 1.5902364495e+00 2.7543703265e+00 
117900 5.4670111861e+00 7.0653348140e-05 1.5902364495e+00 -2.7543703265e+00 1.5902364495e+00 2.7543703265e+00 
118000 5.4670111861e+00 7.0656398157e-05 1.5902364495e+00 -2.7543703265e+00 1.5902364495e+00 2.7543703265e+00 
118100 5.4670111862e+00 7.0659430082e-05 1.5902364495e+00 -2.7543703265e+00 1.5902364495e+00 2.7543703265e+00 
118200 5.4670111862e+00 7.0662444026e-05 1.5902364495e+00 -2.7543703265e+00 1.5902364495e+00 2.7543703265e+00 
118300 5.4670111863e+00 7.0665440098e-05 1.5902364495e+00 -2.7543703265e+00 1.5902364495e+00 2.7543703265e+00 
118400 5.4670111863e+00 7.0668418405e-05 1.5902364495e+00 -2.7543703265e+00 1.5902364495e+00 2.7543703265e+00 
118500 5.4670111863e+00 7.0669841714e-05 1.5902364495e+00 -2.7543703265e+00 1.5902364495e+00 2.7543703265e+00 
118500 5.4670111863e+00 7.0669841714e-05 1.5902364495e+00 -2.7543703265e+00 1.5902364495e+00 2.7543703265e+00 
