# step Hamiltonian StressXX CellTensor1 CellTensor2 CellTensor3 CellTensor4 
0 6.3324376754e+00 -6.4231307633e-02 1.6185780433e+00 -2.8034594071e+00 1.6185780433e+00 2.8034594071e+00 
100 6.3290929894e+00 -6.3718454374e-02 1.6185780433e+00 -2.8034594071e+00 1.6185780433e+00 2.8034594071e+00 
200 6.3257189121e+00 -6.1348446364e-02 1.6205467885e+00 -2.8068693737e+00 1.6205467885e+00 2.8068693737e+00 
300 6.3224818938e+00 -5.9094945972e-02 1.6224399882e+00 -2.8101484918e+00 1.6224399882e+00 2.8101484918e+00 
400 6.3193825483e+00 -5.6953502603e-02 1.6242615036e+00 -2.8133034491e+00 1.6242615036e+00 2.8133034491e+00 
500 6.3164208733e+00 -5.4919822625e-02 1.6260150309e+00 -2.8163406474e+00 1.6260150309e+00 2.8163406474e+00 
600 6.3135962904e+00 -5.2989762030e-02 1.6277041088e+00 -2.8192662161e+00 1.6277041088e+00 2.8192662161e+00 
700 6.3109076859e+00 -5.1159319430e-02 1.6293321253e+00 -2.8220860235e+00 1.6293321253e+00 2.8220860235e+00 
800 6.3083534505e+00 -4.9424629400e-02 1.6309023248e+00 -2.8248056887e+00 1.6309023248e+00 2.8248056887e+00 
900 6.3059315207e+00 -4.7781956119e-02 1.6324178133e+00 -2.8274305918e+00 1.6324178133e+00 2.8274305918e+00 
1000 6.3036394177e+00 -4.6227687334e-02 1.6338815651e+00 -2.8299658843e+00 1.6338815651e+00 2.8299658843e+00 
1100 6.3014742878e+00 -4.4758328607e-02 1.6352964275e+00 -2.8324164979e+00 1.6352964275e+00 2.8324164979e+00 
1200 6.2994329404e+00 -4.3370497855e-02 1.6366651263e+00 -2.8347871538e+00 1.6366651263e+00 2.8347871538e+00 
1300 6.2975118862e+00 -4.2060920164e-02 1.6379902705e+00 -2.8370823708e+00 1.6379902705e+00 2.8370823708e+00 
1400 6.2957073739e+00 -4.0826422870e-02 1.6392743566e+00 -2.8393064732e+00 1.6392743566e+00 2.8393064732e+00 
1500 6.2940154261e+00 -3.9663930903e-02 1.6405197731e+00 -2.8414635979e+00 1.6405197731e+00 2.8414635979e+00 
1600 6.2924318732e+00 -3.8570462380e-02 1.6417288045e+00 -2.8435577017e+00 1.6417288045e+00 2.8435577017e+00 
1700 6.2909523869e+00 -3.7543124446e-02 1.6429036350e+00 -2.8455925677e+00 1.6429036350e+00 2.8455925677e+00 
1800 6.2895725117e+00 -3.6579109358e-02 1.6440463518e+00 -2.8475718113e+00 1.6440463518e+00 2.8475718113e+00 
1900 6.2882876950e+00 -3.5675690789e-02 1.6451589491e+00 -2.8494988864e+00 1.6451589491e+00 2.8494988864e+00 
2000 6.2870933155e+00 -3.4830220373e-02 1.6462433309e+00 -2.8513770907e+00 1.6462433309e+00 2.8513770907e+00 
2100 6.2859847103e+00 -3.4040124456e-02 1.6473013139e+00 -2.8532095710e+00 1.6473013139e+00 2.8532095710e+00 
2200 6.2849572001e+00 -3.3302901067e-02 1.6483346306e+00 -2.8549993281e+00 1.6483346306e+00 2.8549993281e+00 
2300 6.2840061128e+00 -3.2616117091e-02 1.6493449322e+00 -2.8567492217e+00 1.6493449322e+00 2.8567492217e+00 
2400 6.2831268057e+00 -3.1977405644e-02 1.6503337906e+00 -2.8584619748e+00 1.6503337906e+00 2.8584619748e+00 
2500 6.2823146853e+00 -3.1384463636e-02 1.6513027017e+00 -2.8601401780e+00 1.6513027017e+00 2.8601401780e+00 
2600 6.2815652265e+00 -3.0835049521e-02 1.6522530868e+00 -2.8617862934e+00 1.6522530868e+00 2.8617862934e+00 
2700 6.2808739889e+00 -3.0326981227e-02 1.6531862959e+00 -2.8634026588e+00 1.6531862959e+00 2.8634026588e+00 
2800 6.2802366328e+00 -2.9858134248e-02 1.6541036088e+00 -2.8649914915e+00 1.6541036088e+00 2.8649914915e+00 
2900 6.2796489328e+00 -2.9426439909e-02 1.6550062381e+00 -2.8665548913e+00 1.6550062381e+00 2.8665548913e+00 
3000 6.2791067897e+00 -2.9029883777e-02 1.6558953307e+00 -2.8680948447e+00 1.6558953307e+00 2.8680948447e+00 
3100 6.2786062416e+00 -2.8666504223e-02 1.6567719695e+00 -2.8696132277e+00 1.6567719695e+00 2.8696132277e+00 
3200 6.2781434730e+00 -2.8334391121e-02 1.6576371760e+00 -2.8711118094e+00 1.6576371760e+00 2.8711118094e+00 
3300 6.2777148226e+00 -2.8031684677e-02 1.6584919114e+00 -2.8725922546e+00 1.6584919114e+00 2.8725922546e+00 
3400 6.2773167902e+00 -2.7756574380e-02 1.6593370788e+00 -2.8740561273e+00 1.6593370788e+00 2.8740561273e+00 
3500 6.2769460416e+00 -2.7507298065e-02 1.6601735244e+00 -2.8755048937e+00 1.6601735244e+00 2.8755048937e+00 
3600 6.2765994127e+00 -2.7282141086e-02 1.6610020398e+00 -2.8769399243e+00 1.6610020398e+00 2.8769399243e+00 
3700 6.2762739125e+00 -2.7079435579e-02 1.6618233629e+00 -2.8783624977e+00 1.6618233629e+00 2.8783624977e+00 
3800 6.2759667251e+00 -2.6897559818e-02 1.6626381802e+00 -2.8797738026e+00 1.6626381802e+00 2.8797738026e+00 
3900 6.2756752101e+00 -2.6734937648e-02 1.6634471277e+00 -2.8811749408e+00 1.6634471277e+00 2.8811749408e+00 
4000 6.2753969028e+00 -2.6590037990e-02 1.6642507928e+00 -2.8825669296e+00 1.6642507928e+00 2.8825669296e+00 
4100 6.2751295130e+00 -2.6461374417e-02 1.6650497158e+00 -2.8839507048e+00 1.6650497158e+00 2.8839507048e+00 
4200 6.2748709233e+00 -2.6347504771e-02 1.6658443911e+00 -2.8853271229e+00 1.6658443911e+00 2.8853271229e+00 
4300 6.2746191867e+00 -2.6247030843e-02 1.6666352689e+00 -2.8866969635e+00 1.6666352689e+00 2.8866969635e+00 
4400 6.2743725232e+00 -2.6158598090e-02 1.6674227567e+00 -2.8880609322e+00 1.6674227567e+00 2.8880609322e+00 
4500 6.2741293158e+00 -2.6080895378e-02 1.6682072202e+00 -2.8894196630e+00 1.6682072202e+00 2.8894196630e+00 
4600 6.2738881066e+00 -2.6012654768e-02 1.6689889856e+00 -2.8907737203e+00 1.6689889856e+00 2.8907737203e+00 
4700 6.2736475917e+00 -2.5952651305e-02 1.6697683400e+00 -2.8921236017e+00 1.6697683400e+00 2.8921236017e+00 
4800 6.2734066158e+00 -2.5899702839e-02 1.6705455335e+00 -2.8934697404e+00 1.6705455335e+00 2.8934697404e+00 
4900 6.2731641671e+00 -2.5852669839e-02 1.6713207804e+00 -2.8948125074e+00 1.6713207804e+00 2.8948125074e+00 
5000 6.2729193706e+00 -2.5810455228e-02 1.6720942604e+00 -2.8961522140e+00 1.6720942604e+00 2.8961522140e+00 
5100 6.2726714827e+00 -2.5772004201e-02 1.6728661200e+00 -2.8974891140e+00 1.6728661200e+00 2.8974891140e+00 
5200 6.2724198843e+00 -2.5736304048e-02 1.6736364739e+00 -2.8988234063e+00 1.6736364739e+00 2.8988234063e+00 
5300 6.2721640746e+00 -2.5702383962e-02 1.6744054066e+00 -2.9001552366e+00 1.6744054066e+00 2.9001552366e+00 
5400 6.2719036640e+00 -2.5669314835e-02 1.6751729730e+00 -2.9014847006e+00 1.6751729730e+00 2.9014847006e+00 
5500 6.2716383678e+00 -2.5636209041e-02 1.6759392004e+00 -2.9028118455e+00 1.6759392004e+00 2.9028118455e+00 
5600 6.2713679993e+00 -2.5602220191e-02 1.6767040897e+00 -2.9041366726e+00 1.6767040897e+00 2.9041366726e+00 
5700 6.2710924629e+00 -2.5566542870e-02 1.6774676162e+00 -2.9054591394e+00 1.6774676162e+00 2.9054591394e+00 
5800 6.2708117478e+00 -2.5528412354e-02 1.6782297316e+00 -2.9067791620e+00 1.6782297316e+00 2.9067791620e+00 
5900 6.2705259206e+00 -2.5487104290e-02 1.6789903647e+00 -2.9080966170e+00 1.6789903647e+00 2.9080966170e+00 
6000 6.2702351195e+00 -2.5441934357e-02 1.6797494228e+00 -2.9094113442e+00 1.6797494228e+00 2.9094113442e+00 
6100 6.2699395474e+00 -2.5392257893e-02 1.6805067930e+00 -2.9107231480e+00 1.6805067930e+00 2.9107231480e+00 
6200 6.2696394658e+00 -2.5337469492e-02 1.6812623437e+00 -2.9120318001e+00 1.6812623437e+00 2.9120318001e+00 
6300 6.2693351886e+00 -2.5277002569e-02 1.6820159251e+00 -2.9133370414e+00 1.6820159251e+00 2.9133370414e+00 
6400 6.2690270759e+00 -2.5210328902e-02 1.6827673711e+00 -2.9146385841e+00 1.6827673711e+00 2.9146385841e+00 
6500 6.2687155287e+00 -2.5136958127e-02 1.6835165002e+00 -2.9159361136e+00 1.6835165002e+00 2.9159361136e+00 
6600 6.2684009830e+00 -2.5056437217e-02 1.6842631164e+00 -2.9172292909e+00 1.6842631164e+00 2.9172292909e+00 
6700 6.2680839046e+00 -2.4968349921e-02 1.6850070109e+00 -2.9185177539e+00 1.6850070109e+00 2.9185177539e+00 
6800 6.2677647840e+00 -2.4872316174e-02 1.6857479627e+00 -2.9198011201e+00 1.6857479627e+00 2.9198011201e+00 
6900 6.2674441314e+00 -2.4767991482e-02 1.6864857399e+00 -2.9210789877e+00 1.6864857399e+00 2.9210789877e+00 
7000 6.2671224721e+00 -2.4655066271e-02 1.6872201009e+00 -2.9223509383e+00 1.6872201009e+00 2.9223509383e+00 
7100 6.2668003424e+00 -2.4533265215e-02 1.6879507953e+00 -2.9236165381e+00 1.6879507953e+00 2.9236165381e+00 
7200 6.2664782850e+00 -2.4402346529e-02 1.6886775649e+00 -2.9248753399e+00 1.6886775649e+00 2.9248753399e+00 
7300 6.2661568455e+00 -2.4262101247e-02 1.6894001447e+00 -2.9261268848e+00 1.6894001447e+00 2.9261268848e+00 
7400 6.2658365687e+00 -2.4112352469e-02 1.6901182640e+00 -2.9273707041e+00 1.6901182640e+00 2.9273707041e+00 
7500 6.2655179952e+00 -2.3952954583e-02 1.6908316475e+00 -2.9286063205e+00 1.6908316475e+00 2.9286063205e+00 
7600 6.2652016581e+00 -2.3783792476e-02 1.6915400156e+00 -2.9298332501e+00 1.6915400156e+00 2.9298332501e+00 
7700 6.2648880805e+00 -2.3604780711e-02 1.6922430862e+00 -2.9310510040e+00 1.6922430862e+00 2.9310510040e+00 
7800 6.2645777725e+00 -2.3415862701e-02 1.6929405747e+00 -2.9322590895e+00 1.6929405747e+00 2.9322590895e+00 
7900 6.2642712291e+00 -2.3217009854e-02 1.6936321954e+00 -2.9334570118e+00 1.6936321954e+00 2.9334570118e+00 
8000 6.2639689277e+00 -2.3008220710e-02 1.6943176623e+00 -2.9346442752e+00 1.6943176623e+00 2.9346442752e+00 
8100 6.2636713267e+00 -2.2789520061e-02 1.6949966895e+00 -2.9358203849e+00 1.6949966895e+00 2.9358203849e+00 
8200 6.2633788631e+00 -2.2560958060e-02 1.6956689925e+00 -2.9369848478e+00 1.6956689925e+00 2.9369848478e+00 
8300 6.2630919517e+00 -2.2322609322e-02 1.6963342884e+00 -2.9381371741e+00 1.6963342884e+00 2.9381371741e+00 
8400 6.2628109833e+00 -2.2074572013e-02 1.6969922970e+00 -2.9392768785e+00 1.6969922970e+00 2.9392768785e+00 
8500 6.2625363237e+00 -2.1816966933e-02 1.6976427414e+00 -2.9404034812e+00 1.6976427414e+00 2.9404034812e+00 
8600 6.2622683130e+00 -2.1549936589e-02 1.6982853484e+00 -2.9415165092e+00 1.6982853484e+00 2.9415165092e+00 
8700 6.2620072647e+00 -2.1273644275e-02 1.6989198495e+00 -2.9426154973e+00 1.6989198495e+00 2.9426154973e+00 
8800 6.2617534652e+00 -2.0988273134e-02 1.6995459811e+00 -2.9436999891e+00 1.6995459811e+00 2.9436999891e+00 
8900 6.2615071734e+00 -2.0694025230e-02 1.7001634856e+00 -2.9447695382e+00 1.7001634856e+00 2.9447695382e+00 
9000 6.2612686204e+00 -2.0391120610e-02 1.7007721111e+00 -2.9458237086e+00 1.7007721111e+00 2.9458237086e+00 
9100 6.2610380097e+00 -2.0079796380e-02 1.7013716129e+00 -2.9468620761e+00 1.7013716129e+00 2.9468620761e+00 
9200 6.2608155168e+00 -1.9760305763e-02 1.7019617532e+00 -2.9478842290e+00 1.7019617532e+00 2.9478842290e+00 
9300 6.2606012896e+00 -1.9432917184e-02 1.7025423017e+00 -2.9488897686e+00 1.7025423017e+00 2.9488897686e+00 
9400 6.2603954490e+00 -1.9097913337e-02 1.7031130365e+00 -2.9498783102e+00 1.7031130365e+00 2.9498783102e+00 
9500 6.2601980888e+00 -1.8755590275e-02 1.7036737439e+00 -2.9508494839e+00 1.7036737439e+00 2.9508494839e+00 
9600 6.2600092765e+00 -1.8406256491e-02 1.7042242190e+00 -2.9518029348e+00 1.7042242190e+00 2.9518029348e+00 
9700 6.2598290539e+00 -1.8050232019e-02 1.7047642661e+00 -2.9527383239e+00 1.7047642661e+00 2.9527383239e+00 
9800 6.2596574378e+00 -1.7687847538e-02 1.7052936990e+00 -2.9536553285e+00 1.7052936990e+00 2.9536553285e+00 
9900 6.2594944205e+00 -1.7319443480e-02 1.7058123412e+00 -2.9545536431e+00 1.7058123412e+00 2.9545536431e+00 
10000 6.2593399713e+00 -1.6945369158e-02 1.7063200260e+00 -2.9554329791e+00 1.7063200260e+00 2.9554329791e+00 
10100 6.2591940367e+00 -1.6565981894e-02 1.7068165973e+00 -2.9562930658e+00 1.7068165973e+00 2.9562930658e+00 
10200 6.2590565416e+00 -1.6181646170e-02 1.7073019092e+00 -2.9571336506e+00 1.7073019092e+00 2.9571336506e+00 
10300 6.2589273908e+00 -1.5792732777e-02 1.7077758264e+00 -2.9579544992e+00 1.7077758264e+00 2.9579544992e+00 
10400 6.2588064691e+00 -1.5399617990e-02 1.7082382245e+00 -2.9587553962e+00 1.7082382245e+00 2.9587553962e+00 
10500 6.2586936434e+00 -1.5002682750e-02 1.7086889899e+00 -2.9595361449e+00 1.7086889899e+00 2.9595361449e+00 
10600 6.2585887631e+00 -1.4602311858e-02 1.7091280202e+00 -2.9602965676e+00 1.7091280202e+00 2.9602965676e+00 
10700 6.2584916616e+00 -1.4198893191e-02 1.7095552240e+00 -2.9610365064e+00 1.7095552240e+00 2.9610365064e+00 
10800 6.2584021573e+00 -1.3792816922e-02 1.7099705212e+00 -2.9617558221e+00 1.7099705212e+00 2.9617558221e+00 
10900 6.2583200548e+00 -1.3384474772e-02 1.7103738427e+00 -2.9624543955e+00 1.7103738427e+00 2.9624543955e+00 
11000 6.2582451463e+00 -1.2974259259e-02 1.7107651310e+00 -2.9631321267e+00 1.7107651310e+00 2.9631321267e+00 
11100 6.2581772124e+00 -1.2562562981e-02 1.7111443396e+00 -2.9637889353e+00 1.7111443396e+00 2.9637889353e+00 
11200 6.2581160236e+00 -1.2149777905e-02 1.7115114335e+00 -2.9644247606e+00 1.7115114335e+00 2.9644247606e+00 
11300 6.2580613412e+00 -1.1736294679e-02 1.7118663887e+00 -2.9650395610e+00 1.7118663887e+00 2.9650395610e+00 
11400 6.2580129186e+00 -1.1322501964e-02 1.7122091925e+00 -2.9656333146e+00 1.7122091925e+00 2.9656333146e+00 
11500 6.2579705024e+00 -1.0908785776e-02 1.7125398433e+00 -2.9662060186e+00 1.7125398433e+00 2.9662060186e+00 
11600 6.2579338337e+00 -1.0495528857e-02 1.7128583505e+00 -2.9667576892e+00 1.7128583505e+00 2.9667576892e+00 
11700 6.2579026489e+00 -1.0083110064e-02 1.7131647343e+00 -2.9672883615e+00 1.7131647343e+00 2.9672883615e+00 
11800 6.2578766807e+00 -9.6719037685e-03 1.7134590258e+00 -2.9677980894e+00 1.7134590258e+00 2.9677980894e+00 
11900 6.2578556595e+00 -9.2622792917e-03 1.7137412669e+00 -2.9682869453e+00 1.7137412669e+00 2.9682869453e+00 
12000 6.2578393142e+00 -8.8546003468e-03 1.7140115096e+00 -2.9687550194e+00 1.7140115096e+00 2.9687550194e+00 
12100 6.2578273732e+00 -8.4492245102e-03 1.7142698166e+00 -2.9692024202e+00 1.7142698166e+00 2.9692024202e+00 
12200 6.2578195651e+00 -8.0465027120e-03 1.7145162605e+00 -2.9696292736e+00 1.7145162605e+00 2.9696292736e+00 
12300 6.2578156200e+00 -7.6467787478e-03 1.7147509240e+00 -2.9700357226e+00 1.7147509240e+00 2.9700357226e+00 
12400 6.2578152699e+00 -7.2503888137e-03 1.7149738993e+00 -2.9704219273e+00 1.7149738993e+00 2.9704219273e+00 
12500 6.2578182499e+00 -6.8576610627e-03 1.7151852885e+00 -2.9707880641e+00 1.7151852885e+00 2.9707880641e+00 
12600 6.2578242987e+00 -6.4689151845e-03 1.7153852026e+00 -2.9711343254e+00 1.7153852026e+00 2.9711343254e+00 
12700 6.2578331593e+00 -6.0844620078e-03 1.7155737618e+00 -2.9714609196e+00 1.7155737618e+00 2.9714609196e+00 
12800 6.2578445800e+00 -5.7046031259e-03 1.7157510951e+00 -2.9717680698e+00 1.7157510951e+00 2.9717680698e+00 
12900 6.2578583145e+00 -5.3296305456e-03 1.7159173399e+00 -2.9720560143e+00 1.7159173399e+00 2.9720560143e+00 
13000 6.2578741229e+00 -4.9598263597e-03 1.7160726420e+00 -2.9723250054e+00 1.7160726420e+00 2.9723250054e+00 
13100 6.2578917719e+00 -4.5954624427e-03 1.7162171550e+00 -2.9725753093e+00 1.7162171550e+00 2.9725753093e+00 
13200 6.2579110357e+00 -4.2368001706e-03 1.7163510402e+00 -2.9728072053e+00 1.7163510402e+00 2.9728072053e+00 
13300 6.2579316961e+00 -3.8840901648e-03 1.7164744663e+00 -2.9730209856e+00 1.7164744663e+00 2.9730209856e+00 
13400 6.2579535427e+00 -3.5375720588e-03 1.7165876091e+00 -2.9732169546e+00 1.7165876091e+00 2.9732169546e+00 
13500 6.2579763739e+00 -3.1974742901e-03 1.7166906510e+00 -2.9733954283e+00 1.7166906510e+00 2.9733954283e+00 
13600 6.2579999964e+00 -2.8640139145e-03 1.7167837808e+00 -2.9735567340e+00 1.7167837808e+00 2.9735567340e+00 
13700 6.2580242262e+00 -2.5373964457e-03 1.7168671937e+00 -2.9737012093e+00 1.7168671937e+00 2.9737012093e+00 
13800 6.2580488883e+00 -2.2178157169e-03 1.7169410903e+00 -2.9738292021e+00 1.7169410903e+00 2.9738292021e+00 
13900 6.2580738168e+00 -1.9054537672e-03 1.7170056770e+00 -2.9739410694e+00 1.7170056770e+00 2.9739410694e+00 
14000 6.2580988556e+00 -1.6004807505e-03 1.7170611650e+00 -2.9740371774e+00 1.7170611650e+00 2.9740371774e+00 
14100 6.2581238578e+00 -1.3030548682e-03 1.7171077704e+00 -2.9741179004e+00 1.7171077704e+00 2.9741179004e+00 
14200 6.2581486863e+00 -1.0133223238e-03 1.7171457139e+00 -2.9741836204e+00 1.7171457139e+00 2.9741836204e+00 
14300 6.2581732134e+00 -7.3141730057e-04 1.7171752200e+00 -2.9742347265e+00 1.7171752200e+00 2.9742347265e+00 
14400 6.2581973209e+00 -4.5746196152e-04 1.7171965171e+00 -2.9742716142e+00 1.7171965171e+00 2.9742716142e+00 
14500 6.2582209002e+00 -1.9156647066e-04 1.7172098372e+00 -2.9742946852e+00 1.7172098372e+00 2.9742946852e+00 
14600 6.2582438520e+00 6.6170964191e-05 1.7172154150e+00 -2.9743043463e+00 1.7172154150e+00 2.9743043463e+00 
14700 6.2582660874e+00 3.1772548482e-04 1.7172154150e+00 -2.9743043463e+00 1.7172154150e+00 2.9743043463e+00 
14800 6.2582875239e+00 5.5884679749e-04 1.7172061638e+00 -2.9742883228e+00 1.7172061638e+00 2.9742883228e+00 
14900 6.2583080896e+00 7.9158798276e-04 1.7171898919e+00 -2.9742601390e+00 1.7171898919e+00 2.9742601390e+00 
15000 6.2583277211e+00 1.0158977493e-03 1.7171668430e+00 -2.9742202171e+00 1.7171668430e+00 2.9742202171e+00 
15100 6.2583463634e+00 1.2317362498e-03 1.7171372624e+00 -2.9741689821e+00 1.7171372624e+00 2.9741689821e+00 
15200 6.2583639696e+00 1.4390749215e-03 1.7171013966e+00 -2.9741068606e+00 1.7171013966e+00 2.9741068606e+00 
15300 6.2583805011e+00 1.6378963093e-03 1.7170594926e+00 -2.9740342807e+00 1.7170594926e+00 2.9740342807e+00 
15400 6.2583959265e+00 1.8281938725e-03 1.7170117980e+00 -2.9739516713e+00 1.7170117980e+00 2.9739516713e+00 
15500 6.2584102220e+00 2.0099717760e-03 1.7169585606e+00 -2.9738594614e+00 1.7169585606e+00 2.9738594614e+00 
15600 6.2584233708e+00 2.1832446659e-03 1.7169000280e+00 -2.9737580800e+00 1.7169000280e+00 2.9737580800e+00 
15700 6.2584353626e+00 2.3480374316e-03 1.7168364474e+00 -2.9736479552e+00 1.7168364474e+00 2.9736479552e+00 
15800 6.2584461937e+00 2.5043849543e-03 1.7167680652e+00 -2.9735295137e+00 1.7167680652e+00 2.9735295137e+00 
15900 6.2584558663e+00 2.6523318426e-03 1.7166951267e+00 -2.9734031806e+00 1.7166951267e+00 2.9734031806e+00 
16000 6.2584643881e+00 2.7919321572e-03 1.7166178762e+00 -2.9732693788e+00 1.7166178762e+00 2.9732693788e+00 
16100 6.2584717723e+00 2.9232491238e-03 1.7165365561e+00 -2.9731285283e+00 1.7165365561e+00 2.9731285283e+00 
16200 6.2584780368e+00 3.0463548369e-03 1.7164514072e+00 -2.9729810460e+00 1.7164514072e+00 2.9729810460e+00 
16300 6.2584832044e+00 3.1613299541e-03 1.7163626681e+00 -2.9728273453e+00 1.7163626681e+00 2.9728273453e+00 
16400 6.2584873017e+00 3.2682633823e-03 1.7162705750e+00 -2.9726678354e+00 1.7162705750e+00 2.9726678354e+00 
16500 6.2584903593e+00 3.3672519566e-03 1.7161753618e+00 -2.9725029213e+00 1.7161753618e+00 2.9725029213e+00 
16600 6.2584924114e+00 3.4584001127e-03 1.7160772593e+00 -2.9723330029e+00 1.7160772593e+00 2.9723330029e+00 
16700 6.2584934952e+00 3.5418195540e-03 1.7159764956e+00 -2.9721584750e+00 1.7159764956e+00 2.9721584750e+00 
16800 6.2584936507e+00 3.6176289134e-03 1.7158732954e+00 -2.9719797269e+00 1.7158732954e+00 2.9719797269e+00 
16900 6.2584929203e+00 3.6859534123e-03 1.7157678799e+00 -2.9717971420e+00 1.7157678799e+00 2.9717971420e+00 
17000 6.2584913484e+00 3.7469245156e-03 1.7156604669e+00 -2.9716110972e+00 1.7156604669e+00 2.9716110972e+00 
17100 6.2584889815e+00 3.8006795851e-03 1.7155512704e+00 -2.9714219632e+00 1.7155512704e+00 2.9714219632e+00 
17200 6.2584858672e+00 3.8473615315e-03 1.7154405002e+00 -2.9712301037e+00 1.7154405002e+00 2.9712301037e+00 
17300 6.2584820545e+00 3.8871184659e-03 1.7153283622e+00 -2.9710358750e+00 1.7153283622e+00 2.9710358750e+00 
17400 6.2584775932e+00 3.9201033511e-03 1.7152150581e+00 -2.9708396265e+00 1.7152150581e+00 2.9708396265e+00 
17500 6.2584725335e+00 3.9464736547e-03 1.7151007850e+00 -2.9706416997e+00 1.7151007850e+00 2.9706416997e+00 
17600 6.2584669263e+00 3.9663910032e-03 1.7149857355e+00 -2.9704424281e+00 1.7149857355e+00 2.9704424281e+00 
17700 6.2584608221e+00 3.9800208385e-03 1.7148700976e+00 -2.9702421374e+00 1.7148700976e+00 2.9702421374e+00 
17800 6.2584542715e+00 3.9875320783e-03 1.7147540545e+00 -2.9700411449e+00 1.7147540545e+00 2.9700411449e+00 
17900 6.2584473248e+00 3.9890967792e-03 1.7146377846e+00 -2.9698397595e+00 1.7146377846e+00 2.9698397595e+00 
18000 6.2584400313e+00 3.9848898044e-03 1.7145214611e+00 -2.9696382813e+00 1.7145214611e+00 2.9696382813e+00 
18100 6.2584324398e+00 3.9750884969e-03 1.7144052525e+00 -2.9694370020e+00 1.7144052525e+00 2.9694370020e+00 
18200 6.2584245979e+00 3.9598723572e-03 1.7142893218e+00 -2.9692362042e+00 1.7142893218e+00 2.9692362042e+00 
18300 6.2584165521e+00 3.9394227276e-03 1.7141738270e+00 -2.9690361614e+00 1.7141738270e+00 2.9690361614e+00 
18400 6.2584083477e+00 3.9139224825e-03 1.7140589210e+00 -2.9688371383e+00 1.7140589210e+00 2.9688371383e+00 
18500 6.2584000282e+00 3.8835557261e-03 1.7139447511e+00 -2.9686393902e+00 1.7139447511e+00 2.9686393902e+00 
18600 6.2583916358e+00 3.8485074965e-03 1.7138314594e+00 -2.9684431633e+00 1.7138314594e+00 2.9684431633e+00 
18700 6.2583832108e+00 3.8089634779e-03 1.7137191828e+00 -2.9682486944e+00 1.7137191828e+00 2.9682486944e+00 
18800 6.2583747917e+00 3.7651097213e-03 1.7136080525e+00 -2.9680562111e+00 1.7136080525e+00 2.9680562111e+00 
18900 6.2583664154e+00 3.7171323722e-03 1.7134981945e+00 -2.9678659316e+00 1.7134981945e+00 2.9678659316e+00 
19000 6.2583581163e+00 3.6652174081e-03 1.7133897295e+00 -2.9676780646e+00 1.7133897295e+00 2.9676780646e+00 
19100 6.2583499273e+00 3.6095503836e-03 1.7132827725e+00 -2.9674928097e+00 1.7132827725e+00 2.9674928097e+00 
19200 6.2583418788e+00 3.5503161855e-03 1.7131774334e+00 -2.9673103570e+00 1.7131774334e+00 2.9673103570e+00 
19300 6.2583339994e+00 3.4876987961e-03 1.7130738166e+00 -2.9671308874e+00 1.7130738166e+00 2.9671308874e+00 
19400 6.2583263154e+00 3.4218810666e-03 1.7129720211e+00 -2.9669545724e+00 1.7129720211e+00 2.9669545724e+00 
19500 6.2583188510e+00 3.3530444992e-03 1.7128721406e+00 -2.9667815744e+00 1.7128721406e+00 2.9667815744e+00 
19600 6.2583116282e+00 3.2813690392e-03 1.7127742637e+00 -2.9666120467e+00 1.7127742637e+00 2.9666120467e+00 
19700 6.2583046670e+00 3.2070328757e-03 1.7126784736e+00 -2.9664461332e+00 1.7126784736e+00 2.9664461332e+00 
19800 6.2582979851e+00 3.1302122533e-03 1.7125848482e+00 -2.9662839693e+00 1.7125848482e+00 2.9662839693e+00 
19900 6.2582915983e+00 3.0510812918e-03 1.7124934605e+00 -2.9661256811e+00 1.7124934605e+00 2.9661256811e+00 
20000 6.2582855202e+00 2.9698118161e-03 1.7124043782e+00 -2.9659713862e+00 1.7124043782e+00 2.9659713862e+00 
20100 6.2582797625e+00 2.8865731960e-03 1.7123176643e+00 -2.9658211932e+00 1.7123176643e+00 2.9658211932e+00 
20200 6.2582743348e+00 2.8015321944e-03 1.7122333765e+00 -2.9656752025e+00 1.7122333765e+00 2.9656752025e+00 
20300 6.2582692450e+00 2.7148528253e-03 1.7121515678e+00 -2.9655335058e+00 1.7121515678e+00 2.9655335058e+00 
20400 6.2582644988e+00 2.6266962213e-03 1.7120722865e+00 -2.9653961865e+00 1.7120722865e+00 2.9653961865e+00 
20500 6.2582601005e+00 2.5372205094e-03 1.7119955761e+00 -2.9652633201e+00 1.7119955761e+00 2.9652633201e+00 
20600 6.2582560525e+00 2.4465806966e-03 1.7119214754e+00 -2.9651349739e+00 1.7119214754e+00 2.9651349739e+00 
20700 6.2582523556e+00 2.3549285631e-03 1.7118500187e+00 -2.9650112074e+00 1.7118500187e+00 2.9650112074e+00 
20800 6.2582490090e+00 2.2624125656e-03 1.7117812360e+00 -2.9648920723e+00 1.7117812360e+00 2.9648920723e+00 
20900 6.2582460106e+00 2.1691777473e-03 1.7117151529e+00 -2.9647776129e+00 1.7117151529e+00 2.9647776129e+00 
21000 6.2582433568e+00 2.0753656576e-03 1.7116517906e+00 -2.9646678661e+00 1.7116517906e+00 2.9646678661e+00 
21100 6.2582410425e+00 1.9811142790e-03 1.7115911663e+00 -2.9645628618e+00 1.7115911663e+00 2.9645628618e+00 
21200 6.2582390618e+00 1.8865579619e-03 1.7115332931e+00 -2.9644626226e+00 1.7115332931e+00 2.9644626226e+00 
21300 6.2582374074e+00 1.7918273668e-03 1.7114781803e+00 -2.9643671644e+00 1.7114781803e+00 2.9643671644e+00 
21400 6.2582360710e+00 1.6970494148e-03 1.7114258333e+00 -2.9642764966e+00 1.7114258333e+00 2.9642764966e+00 
21500 6.2582350434e+00 1.6023472437e-03 1.7113762535e+00 -2.9641906219e+00 1.7113762535e+00 2.9641906219e+00 
21600 6.2582343146e+00 1.5078401723e-03 1.7113294391e+00 -2.9641095371e+00 1.7113294391e+00 2.9641095371e+00 
21700 6.2582338737e+00 1.4136436706e-03 1.7112853847e+00 -2.9640332325e+00 1.7112853847e+00 2.9640332325e+00 
21800 6.2582337093e+00 1.3198693367e-03 1.7112440813e+00 -2.9639616929e+00 1.7112440813e+00 2.9639616929e+00 
21900 6.2582338091e+00 1.2266248799e-03 1.7112055168e+00 -2.9638948973e+00 1.7112055168e+00 2.9638948973e+00 
22000 6.2582341607e+00 1.1340141094e-03 1.7111696760e+00 -2.9638328192e+00 1.7111696760e+00 2.9638328192e+00 
22100 6.2582347509e+00 1.0421369290e-03 1.7111365405e+00 -2.9637754267e+00 1.7111365405e+00 2.9637754267e+00 
22200 6.2582355664e+00 9.5108933752e-04 1.7111060889e+00 -2.9637226832e+00 1.7111060889e+00 2.9637226832e+00 
22300 6.2582365935e+00 8.6096343336e-04 1.7110782974e+00 -2.9636745468e+00 1.7110782974e+00 2.9636745468e+00 
22400 6.2582378184e+00 7.7184742532e-04 1.7110531389e+00 -2.9636309711e+00 1.7110531389e+00 2.9636309711e+00 
22500 6.2582392270e+00 6.8382564729e-04 1.7110305842e+00 -2.9635919052e+00 1.7110305842e+00 2.9635919052e+00 
22600 6.2582408053e+00 5.9697857784e-04 1.7110106014e+00 -2.9635572939e+00 1.7110106014e+00 2.9635572939e+00 
22700 6.2582425393e+00 5.1138286389e-04 1.7109931562e+00 -2.9635270780e+00 1.7109931562e+00 2.9635270780e+00 
22800 6.2582444149e+00 4.2711134863e-04 1.7109782122e+00 -2.9635011942e+00 1.7109782122e+00 2.9635011942e+00 
22900 6.2582464183e+00 3.4423310309e-04 1.7109657307e+00 -2.9634795756e+00 1.7109657307e+00 2.9634795756e+00 
23000 6.2582485358e+00 2.6281346155e-04 1.7109556711e+00 -2.9634621519e+00 1.7109556711e+00 2.9634621519e+00 
23100 6.2582507539e+00 1.8291406015e-04 1.7109479908e+00 -2.9634488492e+00 1.7109479908e+00 2.9634488492e+00 
23200 6.2582530595e+00 1.0459287894e-04 1.7109426454e+00 -2.9634395907e+00 1.7109426454e+00 2.9634395907e+00 
23300 6.2582554397e+00 2.7904286831e-05 1.7109395888e+00 -2.9634342966e+00 1.7109395888e+00 2.9634342966e+00 
23400 6.2582578818e+00 -4.6212513157e-05 1.7109395888e+00 -2.9634342966e+00 1.7109395888e+00 2.9634342966e+00 
23500 6.2582603742e+00 -1.2098183485e-04 1.7109395888e+00 -2.9634342966e+00 1.7109395888e+00 2.9634342966e+00 
23600 6.2582629046e+00 -1.9246562694e-04 1.7109431244e+00 -2.9634404203e+00 1.7109431244e+00 2.9634404203e+00 
23700 6.2582654620e+00 -2.6213495744e-04 1.7109487489e+00 -2.9634501623e+00 1.7109487489e+00 2.9634501623e+00 
23800 6.2582680356e+00 -3.2995272445e-04 1.7109564094e+00 -2.9634634307e+00 1.7109564094e+00 2.9634634307e+00 
23900 6.2582706150e+00 -3.9588511493e-04 1.7109660518e+00 -2.9634801318e+00 1.7109660518e+00 2.9634801318e+00 
24000 6.2582731906e+00 -4.5990154347e-04 1.7109776209e+00 -2.9635001700e+00 1.7109776209e+00 2.9635001700e+00 
24100 6.2582757530e+00 -5.2197458941e-04 1.7109910606e+00 -2.9635234483e+00 1.7109910606e+00 2.9635234483e+00 
24200 6.2582782936e+00 -5.8207993238e-04 1.7110063142e+00 -2.9635498683e+00 1.7110063142e+00 2.9635498683e+00 
24300 6.2582808042e+00 -6.4019628646e-04 1.7110233241e+00 -2.9635793303e+00 1.7110233241e+00 2.9635793303e+00 
24400 6.2582832772e+00 -6.9630533312e-04 1.7110420321e+00 -2.9636117336e+00 1.7110420321e+00 2.9636117336e+00 
24500 6.2582857057e+00 -7.5039165300e-04 1.7110623796e+00 -2.9636469764e+00 1.7110623796e+00 2.9636469764e+00 
24600 6.2582880830e+00 -8.0244265669e-04 1.7110843073e+00 -2.9636849563e+00 1.7110843073e+00 2.9636849563e+00 
24700 6.2582904033e+00 -8.5244851455e-04 1.7111077557e+00 -2.9637255701e+00 1.7111077557e+00 2.9637255701e+00 
24800 6.2582926613e+00 -9.0040208591e-04 1.7111326650e+00 -2.9637687143e+00 1.7111326650e+00 2.9637687143e+00 
24900 6.2582948521e+00 -9.4629884739e-04 1.7111589752e+00 -2.9638142849e+00 1.7111589752e+00 2.9638142849e+00 
25000 6.2582969714e+00 -9.9013682080e-04 1.7111866261e+00 -2.9638621776e+00 1.7111866261e+00 2.9638621776e+00 
25100 6.2582990155e+00 -1.0319165005e-03 1.7112155575e+00 -2.9639122883e+00 1.7112155575e+00 2.9639122883e+00 
25200 6.2583009812e+00 -1.0716407804e-03 1.7112457091e+00 -2.9639645125e+00 1.7112457091e+00 2.9639645125e+00 
25300 6.2583028657e+00 -1.1093148804e-03 1.7112770209e+00 -2.9640187461e+00 1.7112770209e+00 2.9640187461e+00 
25400 6.2583046667e+00 -1.1449462735e-03 1.7113094329e+00 -2.9640748853e+00 1.7113094329e+00 2.9640748853e+00 
25500 6.2583063826e+00 -1.1785446113e-03 1.7113428854e+00 -2.9641328267e+00 1.7113428854e+00 2.9641328267e+00 
25600 6.2583080120e+00 -1.2101216510e-03 1.7113773188e+00 -2.9641924672e+00 1.7113773188e+00 2.9641924672e+00 
25700 6.2583095539e+00 -1.2396911811e-03 1.7114126742e+00 -2.9642537044e+00 1.7114126742e+00 2.9642537044e+00 
25800 6.2583110079e+00 -1.2672689484e-03 1.7114488927e+00 -2.9643164366e+00 1.7114488927e+00 2.9643164366e+00 
25900 6.2583123739e+00 -1.2928725842e-03 1.7114859161e+00 -2.9643805631e+00 1.7114859161e+00 2.9643805631e+00 
26000 6.2583136523e+00 -1.3165215309e-03 1.7115236867e+00 -2.9644459837e+00 1.7115236867e+00 2.9644459837e+00 
26100 6.2583148435e+00 -1.3382369695e-03 1.7115621473e+00 -2.9645125995e+00 1.7115621473e+00 2.9645125995e+00 
26200 6.2583159487e+00 -1.3580417468e-03 1.7116012415e+00 -2.9645803126e+00 1.7116012415e+00 2.9645803126e+00 
26300 6.2583169690e+00 -1.3759603028e-03 1.7116409133e+00 -2.9646490262e+00 1.7116409133e+00 2.9646490262e+00 
26400 6.2583179061e+00 -1.3920185998e-03 1.7116811077e+00 -2.9647186448e+00 1.7116811077e+00 2.9647186448e+00 
26500 6.2583187617e+00 -1.4062440503e-03 1.7117217702e+00 -2.9647890743e+00 1.7117217702e+00 2.9647890743e+00 
26600 6.2583195379e+00 -1.4186654466e-03 1.7117628472e+00 -2.9648602219e+00 1.7117628472e+00 2.9648602219e+00 
26700 6.2583202369e+00 -1.4293128909e-03 1.7118042861e+00 -2.9649319961e+00 1.7118042861e+00 2.9649319961e+00 
26800 6.2583208613e+00 -1.4382177254e-03 1.7118460350e+00 -2.9650043073e+00 1.7118460350e+00 2.9650043073e+00 
26900 6.2583214137e+00 -1.4454124638e-03 1.7118880430e+00 -2.9650770673e+00 1.7118880430e+00 2.9650770673e+00 
27000 6.2583218968e+00 -1.4509307231e-03 1.7119302601e+00 -2.9651501894e+00 1.7119302601e+00 2.9651501894e+00 
27100 6.2583223136e+00 -1.4548071564e-03 1.7119726373e+00 -2.9652235889e+00 1.7119726373e+00 2.9652235889e+00 
27200 6.2583226672e+00 -1.4570773862e-03 1.7120151266e+00 -2.9652971827e+00 1.7120151266e+00 2.9652971827e+00 
27300 6.2583229606e+00 -1.4577779389e-03 1.7120576813e+00 -2.9653708895e+00 1.7120576813e+00 2.9653708895e+00 
27400 6.2583231971e+00 -1.4569461799e-03 1.7121002553e+00 -2.9654446298e+00 1.7121002553e+00 2.9654446298e+00 
27500 6.2583233799e+00 -1.4546202497e-03 1.7121428040e+00 -2.9655183263e+00 1.7121428040e+00 2.9655183263e+00 
27600 6.2583235124e+00 -1.4508390008e-03 1.7121852837e+00 -2.9655919033e+00 1.7121852837e+00 2.9655919033e+00 
27700 6.2583235978e+00 -1.4456419360e-03 1.7122276519e+00 -2.9656652872e+00 1.7122276519e+00 2.9656652872e+00 
27800 6.2583236395e+00 -1.4390691472e-03 1.7122698673e+00 -2.9657384065e+00 1.7122698673e+00 2.9657384065e+00 
27900 6.2583236409e+00 -1.4311612553e-03 1.7123118898e+00 -2.9658111915e+00 1.7123118898e+00 2.9658111915e+00 
28000 6.2583236051e+00 -1.4219593513e-03 1.7123536803e+00 -2.9658835747e+00 1.7123536803e+00 2.9658835747e+00 
28100 6.2583235355e+00 -1.4115049387e-03 1.7123952010e+00 -2.9659554908e+00 1.7123952010e+00 2.9659554908e+00 
28200 6.2583234353e+00 -1.3998398764e-03 1.7124364155e+00 -2.9660268764e+00 1.7124364155e+00 2.9660268764e+00 
28300 6.2583233077e+00 -1.3870063230e-03 1.7124772885e+00 -2.9660976704e+00 1.7124772885e+00 2.9660976704e+00 
28400 6.2583231557e+00 -1.3730466826e-03 1.7125177857e+00 -2.9661678137e+00 1.7125177857e+00 2.9661678137e+00 
28500 6.2583229823e+00 -1.3580035511e-03 1.7125578744e+00 -2.9662372493e+00 1.7125578744e+00 2.9662372493e+00 
28600 6.2583227905e+00 -1.3419196643e-03 1.7125975229e+00 -2.9663059226e+00 1.7125975229e+00 2.9663059226e+00 
28700 6.2583225831e+00 -1.3248378468e-03 1.7126367010e+00 -2.9663737810e+00 1.7126367010e+00 2.9663737810e+00 
28800 6.2583223627e+00 -1.3068009621e-03 1.7126753794e+00 -2.9664407741e+00 1.7126753794e+00 2.9664407741e+00 
28900 6.2583221321e+00 -1.2878518642e-03 1.7127135305e+00 -2.9665068536e+00 1.7127135305e+00 2.9665068536e+00 
29000 6.2583218937e+00 -1.2680333504e-03 1.7127511274e+00 -2.9665719734e+00 1.7127511274e+00 2.9665719734e+00 
29100 6.2583216499e+00 -1.2473881151e-03 1.7127881450e+00 -2.9666360897e+00 1.7127881450e+00 2.9666360897e+00 
29200 6.2583214029e+00 -1.2259587053e-03 1.7128245591e+00 -2.9666991608e+00 1.7128245591e+00 2.9666991608e+00 
29300 6.2583211548e+00 -1.2037874768e-03 1.7128603468e+00 -2.9667611470e+00 1.7128603468e+00 2.9667611470e+00 
29400 6.2583209078e+00 -1.1809165521e-03 1.7128954866e+00 -2.9668220109e+00 1.7128954866e+00 2.9668220109e+00 
29500 6.2583206635e+00 -1.1573877800e-03 1.7129299581e+00 -2.9668817173e+00 1.7129299581e+00 2.9668817173e+00 
29600 6.2583204238e+00 -1.1332426955e-03 1.7129637421e+00 -2.9669402328e+00 1.7129637421e+00 2.9669402328e+00 
29700 6.2583201903e+00 -1.1085224817e-03 1.7129968206e+00 -2.9669975265e+00 1.7129968206e+00 2.9669975265e+00 
29800 6.2583199645e+00 -1.0832679331e-03 1.7130291770e+00 -2.9670535693e+00 1.7130291770e+00 2.9670535693e+00 
29900 6.2583197476e+00 -1.0575194201e-03 1.7130607955e+00 -2.9671083343e+00 1.7130607955e+00 2.9671083343e+00 
30000 6.2583195410e+00 -1.0313168543e-03 1.7130916620e+00 -2.9671617966e+00 1.7130916620e+00 2.9671617966e+00 
30100 6.2583193457e+00 -1.0046996563e-03 1.7131217631e+00 -2.9672139333e+00 1.7131217631e+00 2.9672139333e+00 
30200 6.2583191626e+00 -9.7770672354e-04 1.7131510869e+00 -2.9672647235e+00 1.7131510869e+00 2.9672647235e+00 
30300 6.2583189927e+00 -9.5037640060e-04 1.7131796223e+00 -2.9673141483e+00 1.7131796223e+00 2.9673141483e+00 
30400 6.2583188366e+00 -9.2274645011e-04 1.7132073596e+00 -2.9673621907e+00 1.7132073596e+00 2.9673621907e+00 
30500 6.2583186949e+00 -8.9485402530e-04 1.7132342900e+00 -2.9674088356e+00 1.7132342900e+00 2.9674088356e+00 
30600 6.2583185682e+00 -8.6673564386e-04 1.7132604060e+00 -2.9674540698e+00 1.7132604060e+00 2.9674540698e+00 
30700 6.2583184569e+00 -8.3842716313e-04 1.7132857010e+00 -2.9674978820e+00 1.7132857010e+00 2.9674978820e+00 
30800 6.2583183612e+00 -8.0996375661e-04 1.7133101694e+00 -2.9675402626e+00 1.7133101694e+00 2.9675402626e+00 
30900 6.2583182813e+00 -7.8137989178e-04 1.7133338069e+00 -2.9675812039e+00 1.7133338069e+00 2.9675812039e+00 
31000 6.2583182173e+00 -7.5270930930e-04 1.7133566099e+00 -2.9676206997e+00 1.7133566099e+00 2.9676206997e+00 
31100 6.2583181693e+00 -7.2398500345e-04 1.7133785758e+00 -2.9676587459e+00 1.7133785758e+00 2.9676587459e+00 
31200 6.2583181371e+00 -6.9523920392e-04 1.7133997033e+00 -2.9676953397e+00 1.7133997033e+00 2.9676953397e+00 
31300 6.2583181207e+00 -6.6650335888e-04 1.7134199916e+00 -2.9677304802e+00 1.7134199916e+00 2.9677304802e+00 
31400 6.2583181197e+00 -6.3780811933e-04 1.7134394412e+00 -2.9677641678e+00 1.7134394412e+00 2.9677641678e+00 
31500 6.2583181339e+00 -6.0918332470e-04 1.7134580531e+00 -2.9677964046e+00 1.7134580531e+00 2.9677964046e+00 
31600 6.2583181629e+00 -5.8065798974e-04 1.7134758296e+00 -2.9678271944e+00 1.7134758296e+00 2.9678271944e+00 
31700 6.2583182063e+00 -5.5226029264e-04 1.7134927735e+00 -2.9678565420e+00 1.7134927735e+00 2.9678565420e+00 
31800 6.2583182637e+00 -5.2401756436e-04 1.7135088885e+00 -2.9678844542e+00 1.7135088885e+00 2.9678844542e+00 
31900 6.2583183344e+00 -4.9595627916e-04 1.7135241793e+00 -2.9679109386e+00 1.7135241793e+00 2.9679109386e+00 
32000 6.2583184181e+00 -4.6810204638e-04 1.7135386512e+00 -2.9679360046e+00 1.7135386512e+00 2.9679360046e+00 
32100 6.2583185140e+00 -4.4047960334e-04 1.7135523101e+00 -2.9679596626e+00 1.7135523101e+00 2.9679596626e+00 
32200 6.2583186215e+00 -4.1311280939e-04 1.7135651630e+00 -2.9679819243e+00 1.7135651630e+00 2.9679819243e+00 
32300 6.2583187401e+00 -3.8602464115e-04 1.7135772172e+00 -2.9680028028e+00 1.7135772172e+00 2.9680028028e+00 
32400 6.2583188689e+00 -3.5923718881e-04 1.7135884809e+00 -2.9680223121e+00 1.7135884809e+00 2.9680223121e+00 
32500 6.2583190073e+00 -3.3277165353e-04 1.7135989629e+00 -2.9680404675e+00 1.7135989629e+00 2.9680404675e+00 
32600 6.2583191547e+00 -3.0664834596e-04 1.7136086726e+00 -2.9680572853e+00 1.7136086726e+00 2.9680572853e+00 
32700 6.2583193102e+00 -2.8088668573e-04 1.7136176201e+00 -2.9680727827e+00 1.7136176201e+00 2.9680727827e+00 
32800 6.2583194731e+00 -2.5550520205e-04 1.7136258158e+00 -2.9680869782e+00 1.7136258158e+00 2.9680869782e+00 
32900 6.2583196428e+00 -2.3052153519e-04 1.7136332709e+00 -2.9680998908e+00 1.7136332709e+00 2.9680998908e+00 
33000 6.2583198184e+00 -2.0595243910e-04 1.7136399970e+00 -2.9681115408e+00 1.7136399970e+00 2.9681115408e+00 
33100 6.2583199994e+00 -1.8181378479e-04 1.7136460063e+00 -2.9681219490e+00 1.7136460063e+00 2.9681219490e+00 
33200 6.2583201848e+00 -1.5812056480e-04 1.7136513111e+00 -2.9681311374e+00 1.7136513111e+00 2.9681311374e+00 
33300 6.2583203741e+00 -1.3488689847e-04 1.7136559247e+00 -2.9681391283e+00 1.7136559247e+00 2.9681391283e+00 
33400 6.2583205665e+00 -1.1212603808e-04 1.7136598603e+00 -2.9681459450e+00 1.7136598603e+00 2.9681459450e+00 
33500 6.2583207614e+00 -8.9850375842e-05 1.7136631319e+00 -2.9681516115e+00 1.7136631319e+00 2.9681516115e+00 
33600 6.2583209581e+00 -6.8071451780e-05 1.7136657535e+00 -2.9681561522e+00 1.7136657535e+00 2.9681561522e+00 
33700 6.2583211560e+00 -4.8952016951e-05 1.7136657535e+00 -2.9681561522e+00 1.7136657535e+00 2.9681561522e+00 
33800 6.2583213543e+00 -2.9688995274e-05 1.7136657535e+00 -2.9681561522e+00 1.7136657535e+00 2.9681561522e+00 
33900 6.2583215524e+00 -1.0304369486e-05 1.7136657535e+00 -2.9681561522e+00 1.7136657535e+00 2.9681561522e+00 
34000 6.2583217499e+00 9.1804133017e-06 1.7136657535e+00 -2.9681561522e+00 1.7136657535e+00 2.9681561522e+00 
34100 6.2583219463e+00 2.8744444766e-05 1.7136657535e+00 -2.9681561522e+00 1.7136657535e+00 2.9681561522e+00 
34200 6.2583221411e+00 4.8367358064e-05 1.7136657535e+00 -2.9681561522e+00 1.7136657535e+00 2.9681561522e+00 
34300 6.2583223338e+00 6.8029330011e-05 1.7136657535e+00 -2.9681561522e+00 1.7136657535e+00 2.9681561522e+00 
34400 6.2583225240e+00 8.7711082798e-05 1.7136657535e+00 -2.9681561522e+00 1.7136657535e+00 2.9681561522e+00 
34500 6.2583227111e+00 1.0462044680e-04 1.7136631943e+00 -2.9681517196e+00 1.7136631943e+00 2.9681517196e+00 
34600 6.2583228947e+00 1.2096298734e-04 1.7136601418e+00 -2.9681464325e+00 1.7136601418e+00 2.9681464325e+00 
34700 6.2583230745e+00 1.3673578522e-04 1.7136566124e+00 -2.9681403194e+00 1.7136566124e+00 2.9681403194e+00 
34800 6.2583232501e+00 1.5193662851e-04 1.7136526228e+00 -2.9681334092e+00 1.7136526228e+00 2.9681334092e+00 
34900 6.2583234213e+00 1.6656399684e-04 1.7136481897e+00 -2.9681257308e+00 1.7136481897e+00 2.9681257308e+00 
35000 6.2583235878e+00 1.8061704522e-04 1.7136433298e+00 -2.9681173132e+00 1.7136433298e+00 2.9681173132e+00 
35100 6.2583237493e+00 1.9409558751e-04 1.7136380598e+00 -2.9681081854e+00 1.7136380598e+00 2.9681081854e+00 
35200 6.2583239056e+00 2.0700007957e-04 1.7136323965e+00 -2.9680983763e+00 1.7136323965e+00 2.9680983763e+00 
35300 6.2583240566e+00 2.1933160209e-04 1.7136263567e+00 -2.9680879151e+00 1.7136263567e+00 2.9680879151e+00 
35400 6.2583242021e+00 2.3109184313e-04 1.7136199571e+00 -2.9680768306e+00 1.7136199571e+00 2.9680768306e+00 
35500 6.2583243419e+00 2.4228308039e-04 1.7136132143e+00 -2.9680651517e+00 1.7136132143e+00 2.9680651517e+00 
35600 6.2583244759e+00 2.5290816334e-04 1.7136061450e+00 -2.9680529072e+00 1.7136061450e+00 2.9680529072e+00 
35700 6.2583246041e+00 2.6297049500e-04 1.7135987656e+00 -2.9680401257e+00 1.7135987656e+00 2.9680401257e+00 
35800 6.2583247265e+00 2.7247401368e-04 1.7135910925e+00 -2.9680268356e+00 1.7135910925e+00 2.9680268356e+00 
35900 6.2583248429e+00 2.8142317454e-04 1.7135831421e+00 -2.9680130652e+00 1.7135831421e+00 2.9680130652e+00 
36000 6.2583249535e+00 2.8982293100e-04 1.7135749306e+00 -2.9679988424e+00 1.7135749306e+00 2.9679988424e+00 
36100 6.2583250581e+00 2.9767871606e-04 1.7135664739e+00 -2.9679841950e+00 1.7135664739e+00 2.9679841950e+00 
36200 6.2583251570e+00 3.0499642357e-04 1.7135577880e+00 -2.9679691505e+00 1.7135577880e+00 2.9679691505e+00 
36300 6.2583252500e+00 3.1178238950e-04 1.7135488885e+00 -2.9679537361e+00 1.7135488885e+00 2.9679537361e+00 
36400 6.2583253374e+00 3.1804337305e-04 1.7135397909e+00 -2.9679379787e+00 1.7135397909e+00 2.9679379787e+00 
36500 6.2583254191e+00 3.2378653792e-04 1.7135305107e+00 -2.9679219048e+00 1.7135305107e+00 2.9679219048e+00 
36600 6.2583254953e+00 3.2901943351e-04 1.7135210627e+00 -2.9679055405e+00 1.7135210627e+00 2.9679055405e+00 
36700 6.2583255662e+00 3.3374997620e-04 1.7135114620e+00 -2.9678889116e+00 1.7135114620e+00 2.9678889116e+00 
36800 6.2583256319e+00 3.3798643066e-04 1.7135017233e+00 -2.9678720436e+00 1.7135017233e+00 2.9678720436e+00 
36900 6.2583256924e+00 3.4173739132e-04 1.7134918608e+00 -2.9678549613e+00 1.7134918608e+00 2.9678549613e+00 
37000 6.2583257481e+00 3.4501176391e-04 1.7134818889e+00 -2.9678376894e+00 1.7134818889e+00 2.9678376894e+00 
37100 6.2583257990e+00 3.4781874708e-04 1.7134718213e+00 -2.9678202519e+00 1.7134718213e+00 2.9678202519e+00 
37200 6.2583258453e+00 3.5016781424e-04 1.7134616718e+00 -2.9678026724e+00 1.7134616718e+00 2.9678026724e+00 
37300 6.2583258873e+00 3.5206869556e-04 1.7134514537e+00 -2.9677849741e+00 1.7134514537e+00 2.9677849741e+00 
37400 6.2583259251e+00 3.5353136012e-04 1.7134411800e+00 -2.9677671796e+00 1.7134411800e+00 2.9677671796e+00 
37500 6.2583259589e+00 3.5456599822e-04 1.7134308636e+00 -2.9677493111e+00 1.7134308636e+00 2.9677493111e+00 
37600 6.2583259889e+00 3.5518300405e-04 1.7134205170e+00 -2.9677313901e+00 1.7134205170e+00 2.9677313901e+00 
37700 6.2583260153e+00 3.5539295840e-04 1.7134101522e+00 -2.9677134379e+00 1.7134101522e+00 2.9677134379e+00 
37800 6.2583260384e+00 3.5520661179e-04 1.7133997813e+00 -2.9676954749e+00 1.7133997813e+00 2.9676954749e+00 
37900 6.2583260583e+00 3.5463486772e-04 1.7133894158e+00 -2.9676775213e+00 1.7133894158e+00 2.9676775213e+00 
38000 6.2583260752e+00 3.5368876628e-04 1.7133790669e+00 -2.9676595965e+00 1.7133790669e+00 2.9676595965e+00 
38100 6.2583260894e+00 3.5237946802e-04 1.7133687455e+00 -2.9676417193e+00 1.7133687455e+00 2.9676417193e+00 
38200 6.2583261011e+00 3.5071823809e-04 1.7133584623e+00 -2.9676239082e+00 1.7133584623e+00 2.9676239082e+00 
38300 6.2583261104e+00 3.4871643070e-04 1.7133482275e+00 -2.9676061810e+00 1.7133482275e+00 2.9676061810e+00 
38400 6.2583261176e+00 3.4638547395e-04 1.7133380510e+00 -2.9675885549e+00 1.7133380510e+00 2.9675885549e+00 
38500 6.2583261229e+00 3.4373685489e-04 1.7133279425e+00 -2.9675710465e+00 1.7133279425e+00 2.9675710465e+00 
38600 6.2583261264e+00 3.4078210500e-04 1.7133179113e+00 -2.9675536719e+00 1.7133179113e+00 2.9675536719e+00 
38700 6.2583261283e+00 3.3753278593e-04 1.7133079662e+00 -2.9675364465e+00 1.7133079662e+00 2.9675364465e+00 
38800 6.2583261289e+00 3.3400047572e-04 1.7132981159e+00 -2.9675193852e+00 1.7132981159e+00 2.9675193852e+00 
38900 6.2583261282e+00 3.3019675521e-04 1.7132883686e+00 -2.9675025024e+00 1.7132883686e+00 2.9675025024e+00 
39000 6.2583261266e+00 3.2613319497e-04 1.7132787323e+00 -2.9674858118e+00 1.7132787323e+00 2.9674858118e+00 
39100 6.2583261240e+00 3.2182134249e-04 1.7132692145e+00 -2.9674693265e+00 1.7132692145e+00 2.9674693265e+00 
39200 6.2583261208e+00 3.1727270980e-04 1.7132598224e+00 -2.9674530590e+00 1.7132598224e+00 2.9674530590e+00 
39300 6.2583261170e+00 3.1249876145e-04 1.7132505631e+00 -2.9674370214e+00 1.7132505631e+00 2.9674370214e+00 
39400 6.2583261128e+00 3.0751090291e-04 1.7132414431e+00 -2.9674212250e+00 1.7132414431e+00 2.9674212250e+00 
39500 6.2583261082e+00 3.0232046925e-04 1.7132324686e+00 -2.9674056807e+00 1.7132324686e+00 2.9674056807e+00 
39600 6.2583261035e+00 2.9693871437e-04 1.7132236455e+00 -2.9673903987e+00 1.7132236455e+00 2.9673903987e+00 
39700 6.2583260988e+00 2.9137680046e-04 1.7132149794e+00 -2.9673753886e+00 1.7132149794e+00 2.9673753886e+00 
39800 6.2583260941e+00 2.8564578797e-04 1.7132064756e+00 -2.9673606596e+00 1.7132064756e+00 2.9673606596e+00 
39900 6.2583260896e+00 2.7975662591e-04 1.7131981390e+00 -2.9673462202e+00 1.7131981390e+00 2.9673462202e+00 
40000 6.2583260854e+00 2.7372014256e-04 1.7131899743e+00 -2.9673320785e+00 1.7131899743e+00 2.9673320785e+00 
40100 6.2583260815e+00 2.6754703656e-04 1.7131819857e+00 -2.9673182418e+00 1.7131819857e+00 2.9673182418e+00 
40200 6.2583260781e+00 2.6124786845e-04 1.7131741772e+00 -2.9673047171e+00 1.7131741772e+00 2.9673047171e+00 
40300 6.2583260751e+00 2.5483305251e-04 1.7131665525e+00 -2.9672915108e+00 1.7131665525e+00 2.9672915108e+00 
40400 6.2583260727e+00 2.4831284905e-04 1.7131591150e+00 -2.9672786287e+00 1.7131591150e+00 2.9672786287e+00 
40500 6.2583260709e+00 2.4169735711e-04 1.7131518678e+00 -2.9672660762e+00 1.7131518678e+00 2.9672660762e+00 
40600 6.2583260698e+00 2.3499650746e-04 1.7131448137e+00 -2.9672538580e+00 1.7131448137e+00 2.9672538580e+00 
40700 6.2583260693e+00 2.2822005608e-04 1.7131379550e+00 -2.9672419785e+00 1.7131379550e+00 2.9672419785e+00 
40800 6.2583260697e+00 2.2137757795e-04 1.7131312942e+00 -2.9672304415e+00 1.7131312942e+00 2.9672304415e+00 
40900 6.2583260708e+00 2.1447846122e-04 1.7131248330e+00 -2.9672192504e+00 1.7131248330e+00 2.9672192504e+00 
41000 6.2583260727e+00 2.0753190184e-04 1.7131185731e+00 -2.9672084080e+00 1.7131185731e+00 2.9672084080e+00 
41100 6.2583260753e+00 2.0054689844e-04 1.7131125160e+00 -2.9671979168e+00 1.7131125160e+00 2.9671979168e+00 
41200 6.2583260789e+00 1.9353224764e-04 1.7131066627e+00 -2.9671877786e+00 1.7131066627e+00 2.9671877786e+00 
41300 6.2583260832e+00 1.8649653971e-04 1.7131010141e+00 -2.9671779949e+00 1.7131010141e+00 2.9671779949e+00 
41400 6.2583260884e+00 1.7944815456e-04 1.7130955709e+00 -2.9671685670e+00 1.7130955709e+00 2.9671685670e+00 
41500 6.2583260943e+00 1.7239525814e-04 1.7130903333e+00 -2.9671594953e+00 1.7130903333e+00 2.9671594953e+00 
41600 6.2583261011e+00 1.6534579910e-04 1.7130853016e+00 -2.9671507801e+00 1.7130853016e+00 2.9671507801e+00 
41700 6.2583261087e+00 1.5830750584e-04 1.7130804757e+00 -2.9671424213e+00 1.7130804757e+00 2.9671424213e+00 
41800 6.2583261171e+00 1.5128788389e-04 1.7130758551e+00 -2.9671344183e+00 1.7130758551e+00 2.9671344183e+00 
41900 6.2583261262e+00 1.4429421361e-04 1.7130714394e+00 -2.9671267701e+00 1.7130714394e+00 2.9671267701e+00 
42000 6.2583261361e+00 1.3733354816e-04 1.7130672279e+00 -2.9671194755e+00 1.7130672279e+00 2.9671194755e+00 
42100 6.2583261466e+00 1.3041271189e-04 1.7130632195e+00 -2.9671125327e+00 1.7130632195e+00 2.9671125327e+00 
42200 6.2583261579e+00 1.2353829889e-04 1.7130594131e+00 -2.9671059398e+00 1.7130594131e+00 2.9671059398e+00 
42300 6.2583261698e+00 1.1671667198e-04 1.7130558073e+00 -2.9670996944e+00 1.7130558073e+00 2.9670996944e+00 
42400 6.2583261823e+00 1.0995396189e-04 1.7130524006e+00 -2.9670937939e+00 1.7130524006e+00 2.9670937939e+00 
42500 6.2583261953e+00 1.0325606679e-04 1.7130491913e+00 -2.9670882352e+00 1.7130491913e+00 2.9670882352e+00 
42600 6.2583262089e+00 9.6628652023e-05 1.7130461775e+00 -2.9670830151e+00 1.7130461775e+00 2.9670830151e+00 
42700 6.2583262230e+00 9.0077150174e-05 1.7130433571e+00 -2.9670781301e+00 1.7130433571e+00 2.9670781301e+00 
42800 6.2583262376e+00 8.3606761367e-05 1.7130407280e+00 -2.9670735763e+00 1.7130407280e+00 2.9670735763e+00 
42900 6.2583262525e+00 7.7222453824e-05 1.7130382877e+00 -2.9670693495e+00 1.7130382877e+00 2.9670693495e+00 
43000 6.2583262679e+00 7.0928964657e-05 1.7130360337e+00 -2.9670654456e+00 1.7130360337e+00 2.9670654456e+00 
43100 6.2583262836e+00 6.4730800914e-05 1.7130339634e+00 -2.9670618598e+00 1.7130339634e+00 2.9670618598e+00 
43200 6.2583262996e+00 6.0682425056e-05 1.7130339634e+00 -2.9670618598e+00 1.7130339634e+00 2.9670618598e+00 
43300 6.2583263159e+00 5.6555543330e-05 1.7130339634e+00 -2.9670618598e+00 1.7130339634e+00 2.9670618598e+00 
43400 6.2583263324e+00 5.2356444690e-05 1.7130339634e+00 -2.9670618598e+00 1.7130339634e+00 2.9670618598e+00 
43500 6.2583263490e+00 4.8091292484e-05 1.7130339634e+00 -2.9670618598e+00 1.7130339634e+00 2.9670618598e+00 
43600 6.2583263657e+00 4.3766123038e-05 1.7130339634e+00 -2.9670618598e+00 1.7130339634e+00 2.9670618598e+00 
43700 6.2583263825e+00 3.9386844356e-05 1.7130339634e+00 -2.9670618598e+00 1.7130339634e+00 2.9670618598e+00 
43800 6.2583263993e+00 3.4959234969e-05 1.7130339634e+00 -2.9670618598e+00 1.7130339634e+00 2.9670618598e+00 
43900 6.2583264161e+00 3.0488942890e-05 1.7130339634e+00 -2.9670618598e+00 1.7130339634e+00 2.9670618598e+00 
44000 6.2583264328e+00 2.5981484705e-05 1.7130339634e+00 -2.9670618598e+00 1.7130339634e+00 2.9670618598e+00 
44100 6.2583264495e+00 2.1442244771e-05 1.7130339634e+00 -2.9670618598e+00 1.7130339634e+00 2.9670618598e+00 
44200 6.2583264661e+00 1.6876474547e-05 1.7130339634e+00 -2.9670618598e+00 1.7130339634e+00 2.9670618598e+00 
44300 6.2583264826e+00 1.2289292033e-05 1.7130339634e+00 -2.9670618598e+00 1.7130339634e+00 2.9670618598e+00 
44400 6.2583264989e+00 7.6856813206e-06 1.7130339634e+00 -2.9670618598e+00 1.7130339634e+00 2.9670618598e+00 
44500 6.2583265150e+00 3.0704922680e-06 1.7130339634e+00 -2.9670618598e+00 1.7130339634e+00 2.9670618598e+00 
44600 6.2583265310e+00 -1.5515597303e-06 1.7130339634e+00 -2.9670618598e+00 1.7130339634e+00 2.9670618598e+00 
44700 6.2583265467e+00 -6.1758938491e-06 1.7130339634e+00 -2.9670618598e+00 1.7130339634e+00 2.9670618598e+00 
44800 6.2583265622e+00 -1.0798063850e-05 1.7130339634e+00 -2.9670618598e+00 1.7130339634e+00 2.9670618598e+00 
44900 6.2583265775e+00 -1.5413757986e-05 1.7130339634e+00 -2.9670618598e+00 1.7130339634e+00 2.9670618598e+00 
45000 6.2583265925e+00 -2.0018798800e-05 1.7130339634e+00 -2.9670618598e+00 1.7130339634e+00 2.9670618598e+00 
45100 6.2583266071e+00 -2.4609142840e-05 1.7130339634e+00 -2.9670618598e+00 1.7130339634e+00 2.9670618598e+00 
45200 6.2583266215e+00 -2.9180880264e-05 1.7130339634e+00 -2.9670618598e+00 1.7130339634e+00 2.9670618598e+00 
45300 6.2583266356e+00 -3.3730234355e-05 1.7130339634e+00 -2.9670618598e+00 1.7130339634e+00 2.9670618598e+00 
45400 6.2583266493e+00 -3.8253560957e-05 1.7130339634e+00 -2.9670618598e+00 1.7130339634e+00 2.9670618598e+00 
45500 6.2583266627e+00 -4.2747347797e-05 1.7130339634e+00 -2.9670618598e+00 1.7130339634e+00 2.9670618598e+00 
45600 6.2583266757e+00 -4.7208213747e-05 1.7130339634e+00 -2.9670618598e+00 1.7130339634e+00 2.9670618598e+00 
45700 6.2583266884e+00 -5.1632907984e-05 1.7130339634e+00 -2.9670618598e+00 1.7130339634e+00 2.9670618598e+00 
45800 6.2583267008e+00 -5.6018309078e-05 1.7130339634e+00 -2.9670618598e+00 1.7130339634e+00 2.9670618598e+00 
45900 6.2583267128e+00 -6.0361423996e-05 1.7130339634e+00 -2.9670618598e+00 1.7130339634e+00 2.9670618598e+00 
46000 6.2583267244e+00 -6.4659387032e-05 1.7130339634e+00 -2.9670618598e+00 1.7130339634e+00 2.9670618598e+00 
46100 6.2583267356e+00 -6.8909458665e-05 1.7130339634e+00 -2.9670618598e+00 1.7130339634e+00 2.9670618598e+00 
46200 6.2583267465e+00 -7.3109024342e-05 1.7130339634e+00 -2.9670618598e+00 1.7130339634e+00 2.9670618598e+00 
46300 6.2583267568e+00 -7.4940463151e-05 1.7130360973e+00 -2.9670655558e+00 1.7130360973e+00 2.9670655558e+00 
46400 6.2583267667e+00 -7.6646134318e-05 1.7130382847e+00 -2.9670693444e+00 1.7130382847e+00 2.9670693444e+00 
46500 6.2583267762e+00 -7.8227217617e-05 1.7130405218e+00 -2.9670732192e+00 1.7130405218e+00 2.9670732192e+00 
46600 6.2583267854e+00 -7.9685013099e-05 1.7130428051e+00 -2.9670771740e+00 1.7130428051e+00 2.9670771740e+00 
46700 6.2583267941e+00 -8.1020935810e-05 1.7130451310e+00 -2.9670812025e+00 1.7130451310e+00 2.9670812025e+00 
46800 6.2583268025e+00 -8.2236510553e-05 1.7130474958e+00 -2.9670852985e+00 1.7130474958e+00 2.9670852985e+00 
46900 6.2583268105e+00 -8.3333366680e-05 1.7130498961e+00 -2.9670894559e+00 1.7130498961e+00 2.9670894559e+00 
47000 6.2583268182e+00 -8.4313232941e-05 1.7130523284e+00 -2.9670936688e+00 1.7130523284e+00 2.9670936688e+00 
47100 6.2583268255e+00 -8.5177932381e-05 1.7130547893e+00 -2.9670979312e+00 1.7130547893e+00 2.9670979312e+00 
47200 6.2583268325e+00 -8.5929377293e-05 1.7130572754e+00 -2.9671022373e+00 1.7130572754e+00 2.9671022373e+00 
47300 6.2583268391e+00 -8.6569564206e-05 1.7130597835e+00 -2.9671065814e+00 1.7130597835e+00 2.9671065814e+00 
47400 6.2583268455e+00 -8.7100568974e-05 1.7130623103e+00 -2.9671109579e+00 1.7130623103e+00 2.9671109579e+00 
47500 6.2583268515e+00 -8.7524541891e-05 1.7130648525e+00 -2.9671153612e+00 1.7130648525e+00 2.9671153612e+00 
47600 6.2583268572e+00 -8.7843702881e-05 1.7130674071e+00 -2.9671197859e+00 1.7130674071e+00 2.9671197859e+00 
47700 6.2583268627e+00 -8.8060336774e-05 1.7130699711e+00 -2.9671242268e+00 1.7130699711e+00 2.9671242268e+00 
47800 6.2583268678e+00 -8.8176788637e-05 1.7130725413e+00 -2.9671286786e+00 1.7130725413e+00 2.9671286786e+00 
47900 6.2583268727e+00 -8.8195459181e-05 1.7130751150e+00 -2.9671331363e+00 1.7130751150e+00 2.9671331363e+00 
48000 6.2583268774e+00 -8.8118800247e-05 1.7130776891e+00 -2.9671375949e+00 1.7130776891e+00 2.9671375949e+00 
48100 6.2583268818e+00 -8.7949310386e-05 1.7130802611e+00 -2.9671420496e+00 1.7130802611e+00 2.9671420496e+00 
48200 6.2583268861e+00 -8.7689530490e-05 1.7130828281e+00 -2.9671464958e+00 1.7130828281e+00 2.9671464958e+00 
48300 6.2583268901e+00 -8.7342039531e-05 1.7130853875e+00 -2.9671509288e+00 1.7130853875e+00 2.9671509288e+00 
48400 6.2583268939e+00 -8.6909450386e-05 1.7130879367e+00 -2.9671553443e+00 1.7130879367e+00 2.9671553443e+00 
48500 6.2583268975e+00 -8.6394405725e-05 1.7130904734e+00 -2.9671597379e+00 1.7130904734e+00 2.9671597379e+00 
48600 6.2583269010e+00 -8.5799574021e-05 1.7130929950e+00 -2.9671641054e+00 1.7130929950e+00 2.9671641054e+00 
48700 6.2583269043e+00 -8.5127645625e-05 1.7130954992e+00 -2.9671684428e+00 1.7130954992e+00 2.9671684428e+00 
48800 6.2583269075e+00 -8.4381328951e-05 1.7130979838e+00 -2.9671727463e+00 1.7130979838e+00 2.9671727463e+00 
48900 6.2583269105e+00 -8.3563346741e-05 1.7131004466e+00 -2.9671770121e+00 1.7131004466e+00 2.9671770121e+00 
49000 6.2583269134e+00 -8.2676432435e-05 1.7131028856e+00 -2.9671812365e+00 1.7131028856e+00 2.9671812365e+00 
49100 6.2583269162e+00 -8.1723326621e-05 1.7131052987e+00 -2.9671854160e+00 1.7131052987e+00 2.9671854160e+00 
49200 6.2583269189e+00 -8.0706773612e-05 1.7131076839e+00 -2.9671895474e+00 1.7131076839e+00 2.9671895474e+00 
49300 6.2583269215e+00 -7.9629518088e-05 1.7131100395e+00 -2.9671936273e+00 1.7131100395e+00 2.9671936273e+00 
49400 6.2583269240e+00 -7.8494301852e-05 1.7131123636e+00 -2.9671976528e+00 1.7131123636e+00 2.9671976528e+00 
49500 6.2583269264e+00 -7.7303860686e-05 1.7131146546e+00 -2.9672016209e+00 1.7131146546e+00 2.9672016209e+00 
49600 6.2583269288e+00 -7.6060921307e-05 1.7131169108e+00 -2.9672055288e+00 1.7131169108e+00 2.9672055288e+00 
49700 6.2583269312e+00 -7.4768198409e-05 1.7131191308e+00 -2.9672093739e+00 1.7131191308e+00 2.9672093739e+00 
49800 6.2583269334e+00 -7.3428391820e-05 1.7131213130e+00 -2.9672131536e+00 1.7131213130e+00 2.9672131536e+00 
49900 6.2583269357e+00 -7.2044183767e-05 1.7131234561e+00 -2.9672168656e+00 1.7131234561e+00 2.9672168656e+00 
50000 6.2583269379e+00 -7.0618236213e-05 1.7131255588e+00 -2.9672205076e+00 1.7131255588e+00 2.9672205076e+00 
50100 6.2583269402e+00 -7.1388816478e-05 1.7131255588e+00 -2.9672205076e+00 1.7131255588e+00 2.9672205076e+00 
50200 6.2583269424e+00 -6.9828510926e-05 1.7131276424e+00 -2.9672241165e+00 1.7131276424e+00 2.9672241165e+00 
50300 6.2583269447e+00 -7.0446638217e-05 1.7131276424e+00 -2.9672241165e+00 1.7131276424e+00 2.9672241165e+00 
50400 6.2583269470e+00 -7.0996519931e-05 1.7131276424e+00 -2.9672241165e+00 1.7131276424e+00 2.9672241165e+00 
50500 6.2583269491e+00 -6.9232043322e-05 1.7131297145e+00 -2.9672277055e+00 1.7131297145e+00 2.9672277055e+00 
50600 6.2583269514e+00 -6.9637802928e-05 1.7131297145e+00 -2.9672277055e+00 1.7131297145e+00 2.9672277055e+00 
50700 6.2583269537e+00 -6.9979554433e-05 1.7131297145e+00 -2.9672277055e+00 1.7131297145e+00 2.9672277055e+00 
50800 6.2583269559e+00 -7.0258837242e-05 1.7131297145e+00 -2.9672277055e+00 1.7131297145e+00 2.9672277055e+00 
50900 6.2583269582e+00 -7.0477200180e-05 1.7131297145e+00 -2.9672277055e+00 1.7131297145e+00 2.9672277055e+00 
51000 6.2583269605e+00 -7.0636200028e-05 1.7131297145e+00 -2.9672277055e+00 1.7131297145e+00 2.9672277055e+00 
51100 6.2583269627e+00 -7.0737400079e-05 1.7131297145e+00 -2.9672277055e+00 1.7131297145e+00 2.9672277055e+00 
51200 6.2583269649e+00 -6.8542992945e-05 1.7131317791e+00 -2.9672312815e+00 1.7131317791e+00 2.9672312815e+00 
51300 6.2583269672e+00 -6.8521267196e-05 1.7131317791e+00 -2.9672312815e+00 1.7131317791e+00 2.9672312815e+00 
51400 6.2583269695e+00 -6.8446219974e-05 1.7131317791e+00 -2.9672312815e+00 1.7131317791e+00 2.9672312815e+00 
51500 6.2583269718e+00 -6.8319449150e-05 1.7131317791e+00 -2.9672312815e+00 1.7131317791e+00 2.9672312815e+00 
51600 6.2583269741e+00 -6.8142551641e-05 1.7131317791e+00 -2.9672312815e+00 1.7131317791e+00 2.9672312815e+00 
51700 6.2583269764e+00 -6.7917122141e-05 1.7131317791e+00 -2.9672312815e+00 1.7131317791e+00 2.9672312815e+00 
51800 6.2583269788e+00 -6.7644751895e-05 1.7131317791e+00 -2.9672312815e+00 1.7131317791e+00 2.9672312815e+00 
51900 6.2583269812e+00 -6.7327027510e-05 1.7131317791e+00 -2.9672312815e+00 1.7131317791e+00 2.9672312815e+00 
52000 6.2583269835e+00 -6.6965529783e-05 1.7131317791e+00 -2.9672312815e+00 1.7131317791e+00 2.9672312815e+00 
52100 6.2583269859e+00 -6.6561832571e-05 1.7131317791e+00 -2.9672312815e+00 1.7131317791e+00 2.9672312815e+00 
52200 6.2583269883e+00 -6.6117501689e-05 1.7131317791e+00 -2.9672312815e+00 1.7131317791e+00 2.9672312815e+00 
52300 6.2583269907e+00 -6.5634093840e-05 1.7131317791e+00 -2.9672312815e+00 1.7131317791e+00 2.9672312815e+00 
52400 6.2583269931e+00 -6.5113155575e-05 1.7131317791e+00 -2.9672312815e+00 1.7131317791e+00 2.9672312815e+00 
52500 6.2583269955e+00 -6.4556222289e-05 1.7131317791e+00 -2.9672312815e+00 1.7131317791e+00 2.9672312815e+00 
52600 6.2583269979e+00 -6.3964817254e-05 1.7131317791e+00 -2.9672312815e+00 1.7131317791e+00 2.9672312815e+00 
52700 6.2583270003e+00 -6.3340450662e-05 1.7131317791e+00 -2.9672312815e+00 1.7131317791e+00 2.9672312815e+00 
52800 6.2583270027e+00 -6.2684618740e-05 1.7131317791e+00 -2.9672312815e+00 1.7131317791e+00 2.9672312815e+00 
52900 6.2583270052e+00 -6.1998802849e-05 1.7131317791e+00 -2.9672312815e+00 1.7131317791e+00 2.9672312815e+00 
53000 6.2583270076e+00 -6.1284468662e-05 1.7131317791e+00 -2.9672312815e+00 1.7131317791e+00 2.9672312815e+00 
53100 6.2583270100e+00 -6.0543065343e-05 1.7131317791e+00 -2.9672312815e+00 1.7131317791e+00 2.9672312815e+00 
53200 6.2583270124e+00 -5.9776024772e-05 1.7131317791e+00 -2.9672312815e+00 1.7131317791e+00 2.9672312815e+00 
53300 6.2583270148e+00 -5.8984760802e-05 1.7131317791e+00 -2.9672312815e+00 1.7131317791e+00 2.9672312815e+00 
53400 6.2583270172e+00 -5.8170668543e-05 1.7131317791e+00 -2.9672312815e+00 1.7131317791e+00 2.9672312815e+00 
53500 6.2583270196e+00 -5.7335123683e-05 1.7131317791e+00 -2.9672312815e+00 1.7131317791e+00 2.9672312815e+00 
53600 6.2583270220e+00 -5.6479481840e-05 1.7131317791e+00 -2.9672312815e+00 1.7131317791e+00 2.9672312815e+00 
53700 6.2583270244e+00 -5.5605077950e-05 1.7131317791e+00 -2.9672312815e+00 1.7131317791e+00 2.9672312815e+00 
53800 6.2583270267e+00 -5.4713225676e-05 1.7131317791e+00 -2.9672312815e+00 1.7131317791e+00 2.9672312815e+00 
53900 6.2583270291e+00 -5.3805216862e-05 1.7131317791e+00 -2.9672312815e+00 1.7131317791e+00 2.9672312815e+00 
54000 6.2583270314e+00 -5.2882321008e-05 1.7131317791e+00 -2.9672312815e+00 1.7131317791e+00 2.9672312815e+00 
54100 6.2583270337e+00 -5.1945784783e-05 1.7131317791e+00 -2.9672312815e+00 1.7131317791e+00 2.9672312815e+00 
54200 6.2583270360e+00 -5.0996831563e-05 1.7131317791e+00 -2.9672312815e+00 1.7131317791e+00 2.9672312815e+00 
54300 6.2583270382e+00 -5.0036661010e-05 1.7131317791e+00 -2.9672312815e+00 1.7131317791e+00 2.9672312815e+00 
54400 6.2583270405e+00 -4.9066448667e-05 1.7131317791e+00 -2.9672312815e+00 1.7131317791e+00 2.9672312815e+00 
54500 6.2583270427e+00 -4.8087345594e-05 1.7131317791e+00 -2.9672312815e+00 1.7131317791e+00 2.9672312815e+00 
54600 6.2583270449e+00 -4.7100478027e-05 1.7131317791e+00 -2.9672312815e+00 1.7131317791e+00 2.9672312815e+00 
54700 6.2583270471e+00 -4.6106947073e-05 1.7131317791e+00 -2.9672312815e+00 1.7131317791e+00 2.9672312815e+00 
54800 6.2583270492e+00 -4.5107828428e-05 1.7131317791e+00 -2.9672312815e+00 1.7131317791e+00 2.9672312815e+00 
54900 6.2583270513e+00 -4.4104172127e-05 1.7131317791e+00 -2.9672312815e+00 1.7131317791e+00 2.9672312815e+00 
55000 6.2583270534e+00 -4.3097002319e-05 1.7131317791e+00 -2.9672312815e+00 1.7131317791e+00 2.9672312815e+00 
55100 6.2583270555e+00 -4.2087317066e-05 1.7131317791e+00 -2.9672312815e+00 1.7131317791e+00 2.9672312815e+00 
55200 6.2583270575e+00 -4.1076088187e-05 1.7131317791e+00 -2.9672312815e+00 1.7131317791e+00 2.9672312815e+00 
55300 6.2583270595e+00 -4.0064261108e-05 1.7131317791e+00 -2.9672312815e+00 1.7131317791e+00 2.9672312815e+00 
55400 6.2583270615e+00 -3.9052754740e-05 1.7131317791e+00 -2.9672312815e+00 1.7131317791e+00 2.9672312815e+00 
55500 6.2583270634e+00 -3.8042461403e-05 1.7131317791e+00 -2.9672312815e+00 1.7131317791e+00 2.9672312815e+00 
55600 6.2583270653e+00 -3.7034246749e-05 1.7131317791e+00 -2.9672312815e+00 1.7131317791e+00 2.9672312815e+00 
55700 6.2583270672e+00 -3.6028949724e-05 1.7131317791e+00 -2.9672312815e+00 1.7131317791e+00 2.9672312815e+00 
55800 6.2583270690e+00 -3.5027382560e-05 1.7131317791e+00 -2.9672312815e+00 1.7131317791e+00 2.9672312815e+00 
55900 6.2583270708e+00 -3.4030330768e-05 1.7131317791e+00 -2.9672312815e+00 1.7131317791e+00 2.9672312815e+00 
56000 6.2583270726e+00 -3.3038553181e-05 1.7131317791e+00 -2.9672312815e+00 1.7131317791e+00 2.9672312815e+00 
56100 6.2583270743e+00 -3.2052781999e-05 1.7131317791e+00 -2.9672312815e+00 1.7131317791e+00 2.9672312815e+00 
56200 6.2583270760e+00 -3.1073722867e-05 1.7131317791e+00 -2.9672312815e+00 1.7131317791e+00 2.9672312815e+00 
56300 6.2583270777e+00 -3.0102054967e-05 1.7131317791e+00 -2.9672312815e+00 1.7131317791e+00 2.9672312815e+00 
56400 6.2583270793e+00 -2.9138431138e-05 1.7131317791e+00 -2.9672312815e+00 1.7131317791e+00 2.9672312815e+00 
56500 6.2583270809e+00 -2.8183478013e-05 1.7131317791e+00 -2.9672312815e+00 1.7131317791e+00 2.9672312815e+00 
56600 6.2583270825e+00 -2.7237796171e-05 1.7131317791e+00 -2.9672312815e+00 1.7131317791e+00 2.9672312815e+00 
56700 6.2583270840e+00 -2.6301960316e-05 1.7131317791e+00 -2.9672312815e+00 1.7131317791e+00 2.9672312815e+00 
56800 6.2583270855e+00 -2.5376519472e-05 1.7131317791e+00 -2.9672312815e+00 1.7131317791e+00 2.9672312815e+00 
56900 6.2583270870e+00 -2.4461997185e-05 1.7131317791e+00 -2.9672312815e+00 1.7131317791e+00 2.9672312815e+00 
57000 6.2583270884e+00 -2.3558891760e-05 1.7131317791e+00 -2.9672312815e+00 1.7131317791e+00 2.9672312815e+00 
57100 6.2583270898e+00 -2.2667676503e-05 1.7131317791e+00 -2.9672312815e+00 1.7131317791e+00 2.9672312815e+00 
57200 6.2583270912e+00 -2.1788799981e-05 1.7131317791e+00 -2.9672312815e+00 1.7131317791e+00 2.9672312815e+00 
57300 6.2583270925e+00 -2.0922686294e-05 1.7131317791e+00 -2.9672312815e+00 1.7131317791e+00 2.9672312815e+00 
57400 6.2583270938e+00 -2.0069735377e-05 1.7131317791e+00 -2.9672312815e+00 1.7131317791e+00 2.9672312815e+00 
57500 6.2583270951e+00 -1.9230323288e-05 1.7131317791e+00 -2.9672312815e+00 1.7131317791e+00 2.9672312815e+00 
57600 6.2583270964e+00 -1.8404802542e-05 1.7131317791e+00 -2.9672312815e+00 1.7131317791e+00 2.9672312815e+00 
57700 6.2583270976e+00 -1.7593502428e-05 1.7131317791e+00 -2.9672312815e+00 1.7131317791e+00 2.9672312815e+00 
57800 6.2583270988e+00 -1.6796729363e-05 1.7131317791e+00 -2.9672312815e+00 1.7131317791e+00 2.9672312815e+00 
57900 6.2583271000e+00 -1.6014767236e-05 1.7131317791e+00 -2.9672312815e+00 1.7131317791e+00 2.9672312815e+00 
58000 6.2583271011e+00 -1.5247877782e-05 1.7131317791e+00 -2.9672312815e+00 1.7131317791e+00 2.9672312815e+00 
58100 6.2583271022e+00 -1.4496300956e-05 1.7131317791e+00 -2.9672312815e+00 1.7131317791e+00 2.9672312815e+00 
58200 6.2583271033e+00 -1.3760255316e-05 1.7131317791e+00 -2.9672312815e+00 1.7131317791e+00 2.9672312815e+00 
58300 6.2583271044e+00 -1.3039938415e-05 1.7131317791e+00 -2.9672312815e+00 1.7131317791e+00 2.9672312815e+00 
58400 6.2583271054e+00 -1.2335527214e-05 1.7131317791e+00 -2.9672312815e+00 1.7131317791e+00 2.9672312815e+00 
58500 6.2583271064e+00 -1.1647178485e-05 1.7131317791e+00 -2.9672312815e+00 1.7131317791e+00 2.9672312815e+00 
58600 6.2583271074e+00 -1.0975029236e-05 1.7131317791e+00 -2.9672312815e+00 1.7131317791e+00 2.9672312815e+00 
58700 6.2583271084e+00 -1.0319197130e-05 1.7131317791e+00 -2.9672312815e+00 1.7131317791e+00 2.9672312815e+00 
58800 6.2583271094e+00 -9.6797809224e-06 1.7131317791e+00 -2.9672312815e+00 1.7131317791e+00 2.9672312815e+00 
58900 6.2583271103e+00 -9.0568608990e-06 1.7131317791e+00 -2.9672312815e+00 1.7131317791e+00 2.9672312815e+00 
59000 6.2583271112e+00 -8.4504993166e-06 1.7131317791e+00 -2.9672312815e+00 1.7131317791e+00 2.9672312815e+00 
59100 6.2583271121e+00 -7.8607408534e-06 1.7131317791e+00 -2.9672312815e+00 1.7131317791e+00 2.9672312815e+00 
59200 6.2583271130e+00 -7.2876130590e-06 1.7131317791e+00 -2.9672312815e+00 1.7131317791e+00 2.9672312815e+00 
59300 6.2583271139e+00 -6.7311268130e-06 1.7131317791e+00 -2.9672312815e+00 1.7131317791e+00 2.9672312815e+00 
59400 6.2583271147e+00 -6.1912767828e-06 1.7131317791e+00 -2.9672312815e+00 1.7131317791e+00 2.9672312815e+00 
59500 6.2583271155e+00 -5.6680418836e-06 1.7131317791e+00 -2.9672312815e+00 1.7131317791e+00 2.9672312815e+00 
59600 6.2583271163e+00 -5.1613857435e-06 1.7131317791e+00 -2.9672312815e+00 1.7131317791e+00 2.9672312815e+00 
59700 6.2583271171e+00 -4.6712571723e-06 1.7131317791e+00 -2.9672312815e+00 1.7131317791e+00 2.9672312815e+00 
59800 6.2583271179e+00 -4.1975906209e-06 1.7131317791e+00 -2.9672312815e+00 1.7131317791e+00 2.9672312815e+00 
59900 6.2583271187e+00 -3.7403066560e-06 1.7131317791e+00 -2.9672312815e+00 1.7131317791e+00 2.9672312815e+00 
60000 6.2583271194e+00 -3.2993124276e-06 1.7131317791e+00 -2.9672312815e+00 1.7131317791e+00 2.9672312815e+00 
60100 6.2583271202e+00 -2.8745021274e-06 1.7131317791e+00 -2.9672312815e+00 1.7131317791e+00 2.9672312815e+00 
60200 6.2583271209e+00 -2.4657574691e-06 1.7131317791e+00 -2.9672312815e+00 1.7131317791e+00 2.9672312815e+00 
60300 6.2583271216e+00 -2.0729481460e-06 1.7131317791e+00 -2.9672312815e+00 1.7131317791e+00 2.9672312815e+00 
60400 6.2583271223e+00 -1.6959322987e-06 1.7131317791e+00 -2.9672312815e+00 1.7131317791e+00 2.9672312815e+00 
60500 6.2583271230e+00 -1.3345569766e-06 1.7131317791e+00 -2.9672312815e+00 1.7131317791e+00 2.9672312815e+00 
60600 6.2583271237e+00 -9.8865859970e-07 1.7131317791e+00 -2.9672312815e+00 1.7131317791e+00 2.9672312815e+00 
60700 6.2583271244e+00 -6.5806341804e-07 1.7131317791e+00 -2.9672312815e+00 1.7131317791e+00 2.9672312815e+00 
60800 6.2583271251e+00 -3.4258796666e-07 1.7131317791e+00 -2.9672312815e+00 1.7131317791e+00 2.9672312815e+00 
60900 6.2583271257e+00 -4.2039511925e-08 1.7131317791e+00 -2.9672312815e+00 1.7131317791e+00 2.9672312815e+00 
61000 6.2583271264e+00 2.4378348587e-07 1.7131317791e+00 -2.9672312815e+00 1.7131317791e+00 2.9672312815e+00 
61100 6.2583271270e+00 5.1509094721e-07 1.7131317791e+00 -2.9672312815e+00 1.7131317791e+00 2.9672312815e+00 
61200 6.2583271277e+00 7.7210071433e-07 1.7131317791e+00 -2.9672312815e+00 1.7131317791e+00 2.9672312815e+00 
61300 6.2583271283e+00 1.0150381272e-06 1.7131317791e+00 -2.9672312815e+00 1.7131317791e+00 2.9672312815e+00 
61400 6.2583271289e+00 1.2441355897e-06 1.7131317791e+00 -2.9672312815e+00 1.7131317791e+00 2.9672312815e+00 
61500 6.2583271295e+00 1.4596321385e-06 1.7131317791e+00 -2.9672312815e+00 1.7131317791e+00 2.9672312815e+00 
61600 6.2583271301e+00 1.6617730310e-06 1.7131317791e+00 -2.9672312815e+00 1.7131317791e+00 2.9672312815e+00 
61700 6.2583271307e+00 1.8508093249e-06 1.7131317791e+00 -2.9672312815e+00 1.7131317791e+00 2.9672312815e+00 
61800 6.2583271313e+00 2.0269974687e-06 1.7131317791e+00 -2.9672312815e+00 1.7131317791e+00 2.9672312815e+00 
61900 6.2583271319e+00 2.1905989011e-06 1.7131317791e+00 -2.9672312815e+00 1.7131317791e+00 2.9672312815e+00 
62000 6.2583271324e+00 2.3418796564e-06 1.7131317791e+00 -2.9672312815e+00 1.7131317791e+00 2.9672312815e+00 
62100 6.2583271330e+00 2.4811099661e-06 1.7131317791e+00 -2.9672312815e+00 1.7131317791e+00 2.9672312815e+00 
62200 6.2583271336e+00 2.6085638856e-06 1.7131317791e+00 -2.9672312815e+00 1.7131317791e+00 2.9672312815e+00 
62300 6.2583271341e+00 2.7245189107e-06 1.7131317791e+00 -2.9672312815e+00 1.7131317791e+00 2.9672312815e+00 
62400 6.2583271347e+00 2.8292556106e-06 1.7131317791e+00 -2.9672312815e+00 1.7131317791e+00 2.9672312815e+00 
62500 6.2583271352e+00 2.9230572652e-06 1.7131317791e+00 -2.9672312815e+00 1.7131317791e+00 2.9672312815e+00 
62600 6.2583271358e+00 3.0062095091e-06 1.7131317791e+00 -2.9672312815e+00 1.7131317791e+00 2.9672312815e+00 
62700 6.2583271363e+00 3.0789999894e-06 1.7131317791e+00 -2.9672312815e+00 1.7131317791e+00 2.9672312815e+00 
62800 6.2583271368e+00 3.1417180201e-06 1.7131317791e+00 -2.9672312815e+00 1.7131317791e+00 2.9672312815e+00 
62900 6.2583271373e+00 3.1946542528e-06 1.7131317791e+00 -2.9672312815e+00 1.7131317791e+00 2.9672312815e+00 
63000 6.2583271379e+00 3.2381003549e-06 1.7131317791e+00 -2.9672312815e+00 1.7131317791e+00 2.9672312815e+00 
63100 6.2583271384e+00 3.2723486868e-06 1.7131317791e+00 -2.9672312815e+00 1.7131317791e+00 2.9672312815e+00 
63200 6.2583271389e+00 3.2976920045e-06 1.7131317791e+00 -2.9672312815e+00 1.7131317791e+00 2.9672312815e+00 
63300 6.2583271394e+00 3.3144231503e-06 1.7131317791e+00 -2.9672312815e+00 1.7131317791e+00 2.9672312815e+00 
63400 6.2583271399e+00 3.3228347683e-06 1.7131317791e+00 -2.9672312815e+00 1.7131317791e+00 2.9672312815e+00 
63500 6.2583271404e+00 3.3232190162e-06 1.7131317791e+00 -2.9672312815e+00 1.7131317791e+00 2.9672312815e+00 
63600 6.2583271409e+00 3.3158672912e-06 1.7131317791e+00 -2.9672312815e+00 1.7131317791e+00 2.9672312815e+00 
63700 6.2583271413e+00 3.3010699737e-06 1.7131317791e+00 -2.9672312815e+00 1.7131317791e+00 2.9672312815e+00 
63800 6.2583271418e+00 3.2791161492e-06 1.7131317791e+00 -2.9672312815e+00 1.7131317791e+00 2.9672312815e+00 
63900 6.2583271423e+00 3.2502933787e-06 1.7131317791e+00 -2.9672312815e+00 1.7131317791e+00 2.9672312815e+00 
64000 6.2583271427e+00 3.2148874450e-06 1.7131317791e+00 -2.9672312815e+00 1.7131317791e+00 2.9672312815e+00 
64100 6.2583271432e+00 3.1731821287e-06 1.7131317791e+00 -2.9672312815e+00 1.7131317791e+00 2.9672312815e+00 
64200 6.2583271436e+00 3.1254589766e-06 1.7131317791e+00 -2.9672312815e+00 1.7131317791e+00 2.9672312815e+00 
64300 6.2583271441e+00 3.0719970893e-06 1.7131317791e+00 -2.9672312815e+00 1.7131317791e+00 2.9672312815e+00 
64400 6.2583271445e+00 3.0130729165e-06 1.7131317791e+00 -2.9672312815e+00 1.7131317791e+00 2.9672312815e+00 
64500 6.2583271450e+00 2.9489600512e-06 1.7131317791e+00 -2.9672312815e+00 1.7131317791e+00 2.9672312815e+00 
64600 6.2583271454e+00 2.8799290468e-06 1.7131317791e+00 -2.9672312815e+00 1.7131317791e+00 2.9672312815e+00 
64700 6.2583271458e+00 2.8062472331e-06 1.7131317791e+00 -2.9672312815e+00 1.7131317791e+00 2.9672312815e+00 
64800 6.2583271463e+00 2.7281785350e-06 1.7131317791e+00 -2.9672312815e+00 1.7131317791e+00 2.9672312815e+00 
64900 6.2583271467e+00 2.6459833173e-06 1.7131317791e+00 -2.9672312815e+00 1.7131317791e+00 2.9672312815e+00 
65000 6.2583271471e+00 2.5599182221e-06 1.7131317791e+00 -2.9672312815e+00 1.7131317791e+00 2.9672312815e+00 
65100 6.2583271475e+00 2.4702360176e-06 1.7131317791e+00 -2.9672312815e+00 1.7131317791e+00 2.9672312815e+00 
65200 6.2583271479e+00 2.3771854585e-06 1.7131317791e+00 -2.9672312815e+00 1.7131317791e+00 2.9672312815e+00 
65300 6.2583271483e+00 2.2810111556e-06 1.7131317791e+00 -2.9672312815e+00 1.7131317791e+00 2.9672312815e+00 
65400 6.2583271487e+00 2.1819534436e-06 1.7131317791e+00 -2.9672312815e+00 1.7131317791e+00 2.9672312815e+00 
65500 6.2583271491e+00 2.0802482715e-06 1.7131317791e+00 -2.9672312815e+00 1.7131317791e+00 2.9672312815e+00 
65600 6.2583271494e+00 1.9761270821e-06 1.7131317791e+00 -2.9672312815e+00 1.7131317791e+00 2.9672312815e+00 
65700 6.2583271498e+00 1.8698167191e-06 1.7131317791e+00 -2.9672312815e+00 1.7131317791e+00 2.9672312815e+00 
65800 6.2583271502e+00 1.7615393245e-06 1.7131317791e+00 -2.9672312815e+00 1.7131317791e+00 2.9672312815e+00 
65900 6.2583271505e+00 1.6515122564e-06 1.7131317791e+00 -2.9672312815e+00 1.7131317791e+00 2.9672312815e+00 
66000 6.2583271509e+00 1.5399480033e-06 1.7131317791e+00 -2.9672312815e+00 1.7131317791e+00 2.9672312815e+00 
66100 6.2583271513e+00 1.4270541151e-06 1.7131317791e+00 -2.9672312815e+00 1.7131317791e+00 2.9672312815e+00 
66200 6.2583271516e+00 1.3130331313e-06 1.7131317791e+00 -2.9672312815e+00 1.7131317791e+00 2.9672312815e+00 
66300 6.2583271519e+00 1.1980825293e-06 1.7131317791e+00 -2.9672312815e+00 1.7131317791e+00 2.9672312815e+00 
66400 6.2583271523e+00 1.0823946596e-06 1.7131317791e+00 -2.9672312815e+00 1.7131317791e+00 2.9672312815e+00 
66500 6.2583271526e+00 9.6615671238e-07 1.7131317791e+00 -2.9672312815e+00 1.7131317791e+00 2.9672312815e+00 
66600 6.2583271529e+00 8.4955066848e-07 1.7131317791e+00 -2.9672312815e+00 1.7131317791e+00 2.9672312815e+00 
66700 6.2583271533e+00 7.3275326785e-07 1.7131317791e+00 -2.9672312815e+00 1.7131317791e+00 2.9672312815e+00 
66800 6.2583271536e+00 6.1593598668e-07 1.7131317791e+00 -2.9672312815e+00 1.7131317791e+00 2.9672312815e+00 
66900 6.2583271539e+00 4.9926500680e-07 1.7131317791e+00 -2.9672312815e+00 1.7131317791e+00 2.9672312815e+00 
67000 6.2583271542e+00 3.8290121154e-07 1.7131317791e+00 -2.9672312815e+00 1.7131317791e+00 2.9672312815e+00 
67100 6.2583271545e+00 2.6700016625e-07 1.7131317791e+00 -2.9672312815e+00 1.7131317791e+00 2.9672312815e+00 
67200 6.2583271548e+00 1.5171211865e-07 1.7131317791e+00 -2.9672312815e+00 1.7131317791e+00 2.9672312815e+00 
67300 6.2583271551e+00 3.7182002015e-08 1.7131317791e+00 -2.9672312815e+00 1.7131317791e+00 2.9672312815e+00 
67400 6.2583271554e+00 -7.6450560813e-08 1.7131317791e+00 -2.9672312815e+00 1.7131317791e+00 2.9672312815e+00 
67500 6.2583271557e+00 -1.8905124842e-07 1.7131317791e+00 -2.9672312815e+00 1.7131317791e+00 2.9672312815e+00 
67600 6.2583271560e+00 -3.0049101766e-07 1.7131317791e+00 -2.9672312815e+00 1.7131317791e+00 2.9672312815e+00 
67700 6.2583271562e+00 -4.1064608771e-07 1.7131317791e+00 -2.9672312815e+00 1.7131317791e+00 2.9672312815e+00 
67800 6.2583271565e+00 -5.1939791062e-07 1.7131317791e+00 -2.9672312815e+00 1.7131317791e+00 2.9672312815e+00 
67900 6.2583271568e+00 -6.2663314130e-07 1.7131317791e+00 -2.9672312815e+00 1.7131317791e+00 2.9672312815e+00 
68000 6.2583271570e+00 -7.3224360111e-07 1.7131317791e+00 -2.9672312815e+00 1.7131317791e+00 2.9672312815e+00 
68100 6.2583271573e+00 -8.3612624217e-07 1.7131317791e+00 -2.9672312815e+00 1.7131317791e+00 2.9672312815e+00 
68200 6.2583271575e+00 -9.3818309870e-07 1.7131317791e+00 -2.9672312815e+00 1.7131317791e+00 2.9672312815e+00 
68300 6.2583271578e+00 -1.0383212459e-06 1.7131317791e+00 -2.9672312815e+00 1.7131317791e+00 2.9672312815e+00 
68400 6.2583271580e+00 -1.1364527414e-06 1.7131317791e+00 -2.9672312815e+00 1.7131317791e+00 2.9672312815e+00 
68500 6.2583271583e+00 -1.2324945760e-06 1.7131317791e+00 -2.9672312815e+00 1.7131317791e+00 2.9672312815e+00 
68600 6.2583271585e+00 -1.3263686152e-06 1.7131317791e+00 -2.9672312815e+00 1.7131317791e+00 2.9672312815e+00 
68700 6.2583271588e+00 -1.4180015344e-06 1.7131317791e+00 -2.9672312815e+00 1.7131317791e+00 2.9672312815e+00 
68800 6.2583271590e+00 -1.5073247577e-06 1.7131317791e+00 -2.9672312815e+00 1.7131317791e+00 2.9672312815e+00 
68900 6.2583271592e+00 -1.5942743905e-06 1.7131317791e+00 -2.9672312815e+00 1.7131317791e+00 2.9672312815e+00 
69000 6.2583271594e+00 -1.6787911450e-06 1.7131317791e+00 -2.9672312815e+00 1.7131317791e+00 2.9672312815e+00 
69100 6.2583271597e+00 -1.7608202727e-06 1.7131317791e+00 -2.9672312815e+00 1.7131317791e+00 2.9672312815e+00 
69200 6.2583271599e+00 -1.8403114813e-06 1.7131317791e+00 -2.9672312815e+00 1.7131317791e+00 2.9672312815e+00 
69300 6.2583271601e+00 -1.9172188663e-06 1.7131317791e+00 -2.9672312815e+00 1.7131317791e+00 2.9672312815e+00 
69400 6.2583271603e+00 -1.9915008256e-06 1.7131317791e+00 -2.9672312815e+00 1.7131317791e+00 2.9672312815e+00 
69500 6.2583271605e+00 -2.0631199734e-06 1.7131317791e+00 -2.9672312815e+00 1.7131317791e+00 2.9672312815e+00 
69600 6.2583271607e+00 -2.1320430625e-06 1.7131317791e+00 -2.9672312815e+00 1.7131317791e+00 2.9672312815e+00 
69700 6.2583271609e+00 -2.1982408999e-06 1.7131317791e+00 -2.9672312815e+00 1.7131317791e+00 2.9672312815e+00 
69800 6.2583271611e+00 -2.2616882471e-06 1.7131317791e+00 -2.9672312815e+00 1.7131317791e+00 2.9672312815e+00 
69900 6.2583271613e+00 -2.3223637444e-06 1.7131317791e+00 -2.9672312815e+00 1.7131317791e+00 2.9672312815e+00 
70000 6.2583271615e+00 -2.3802498100e-06 1.7131317791e+00 -2.9672312815e+00 1.7131317791e+00 2.9672312815e+00 
70100 6.2583271617e+00 -2.4353325572e-06 1.7131317791e+00 -2.9672312815e+00 1.7131317791e+00 2.9672312815e+00 
70200 6.2583271619e+00 -2.4876016908e-06 1.7131317791e+00 -2.9672312815e+00 1.7131317791e+00 2.9672312815e+00 
70300 6.2583271620e+00 -2.5370504223e-06 1.7131317791e+00 -2.9672312815e+00 1.7131317791e+00 2.9672312815e+00 
70400 6.2583271622e+00 -2.5836753711e-06 1.7131317791e+00 -2.9672312815e+00 1.7131317791e+00 2.9672312815e+00 
70500 6.2583271624e+00 -2.6274764655e-06 1.7131317791e+00 -2.9672312815e+00 1.7131317791e+00 2.9672312815e+00 
70600 6.2583271626e+00 -2.6684568531e-06 1.7131317791e+00 -2.9672312815e+00 1.7131317791e+00 2.9672312815e+00 
70700 6.2583271627e+00 -2.7066227966e-06 1.7131317791e+00 -2.9672312815e+00 1.7131317791e+00 2.9672312815e+00 
70800 6.2583271629e+00 -2.7419835782e-06 1.7131317791e+00 -2.9672312815e+00 1.7131317791e+00 2.9672312815e+00 
70900 6.2583271631e+00 -2.7745514104e-06 1.7131317791e+00 -2.9672312815e+00 1.7131317791e+00 2.9672312815e+00 
71000 6.2583271633e+00 -2.8043413212e-06 1.7131317791e+00 -2.9672312815e+00 1.7131317791e+00 2.9672312815e+00 
71100 6.2583271634e+00 -2.8313710710e-06 1.7131317791e+00 -2.9672312815e+00 1.7131317791e+00 2.9672312815e+00 
71200 6.2583271636e+00 -2.8556610463e-06 1.7131317791e+00 -2.9672312815e+00 1.7131317791e+00 2.9672312815e+00 
71300 6.2583271637e+00 -2.8772341671e-06 1.7131317791e+00 -2.9672312815e+00 1.7131317791e+00 2.9672312815e+00 
71400 6.2583271639e+00 -2.8961157825e-06 1.7131317791e+00 -2.9672312815e+00 1.7131317791e+00 2.9672312815e+00 
71500 6.2583271640e+00 -2.9123335798e-06 1.7131317791e+00 -2.9672312815e+00 1.7131317791e+00 2.9672312815e+00 
71600 6.2583271642e+00 -2.9259174826e-06 1.7131317791e+00 -2.9672312815e+00 1.7131317791e+00 2.9672312815e+00 
71700 6.2583271643e+00 -2.9368995540e-06 1.7131317791e+00 -2.9672312815e+00 1.7131317791e+00 2.9672312815e+00 
71800 6.2583271645e+00 -2.9453139052e-06 1.7131317791e+00 -2.9672312815e+00 1.7131317791e+00 2.9672312815e+00 
71900 6.2583271646e+00 -2.9511965947e-06 1.7131317791e+00 -2.9672312815e+00 1.7131317791e+00 2.9672312815e+00 
72000 6.2583271648e+00 -2.9545855345e-06 1.7131317791e+00 -2.9672312815e+00 1.7131317791e+00 2.9672312815e+00 
72100 6.2583271649e+00 -2.9555204007e-06 1.7131317791e+00 -2.9672312815e+00 1.7131317791e+00 2.9672312815e+00 
72200 6.2583271651e+00 -2.9540425337e-06 1.7131317791e+00 -2.9672312815e+00 1.7131317791e+00 2.9672312815e+00 
72300 6.2583271652e+00 -2.9501948494e-06 1.7131317791e+00 -2.9672312815e+00 1.7131317791e+00 2.9672312815e+00 
72400 6.2583271653e+00 -2.9440217482e-06 1.7131317791e+00 -2.9672312815e+00 1.7131317791e+00 2.9672312815e+00 
72500 6.2583271655e+00 -2.9355690232e-06 1.7131317791e+00 -2.9672312815e+00 1.7131317791e+00 2.9672312815e+00 
72600 6.2583271656e+00 -2.9248837716e-06 1.7131317791e+00 -2.9672312815e+00 1.7131317791e+00 2.9672312815e+00 
72700 6.2583271657e+00 -2.9120143099e-06 1.7131317791e+00 -2.9672312815e+00 1.7131317791e+00 2.9672312815e+00 
72800 6.2583271659e+00 -2.8970100785e-06 1.7131317791e+00 -2.9672312815e+00 1.7131317791e+00 2.9672312815e+00 
72900 6.2583271660e+00 -2.8799215711e-06 1.7131317791e+00 -2.9672312815e+00 1.7131317791e+00 2.9672312815e+00 
73000 6.2583271661e+00 -2.8608002367e-06 1.7131317791e+00 -2.9672312815e+00 1.7131317791e+00 2.9672312815e+00 
73100 6.2583271662e+00 -2.8396984023e-06 1.7131317791e+00 -2.9672312815e+00 1.7131317791e+00 2.9672312815e+00 
73200 6.2583271664e+00 -2.8166691921e-06 1.7131317791e+00 -2.9672312815e+00 1.7131317791e+00 2.9672312815e+00 
73300 6.2583271665e+00 -2.7917664499e-06 1.7131317791e+00 -2.9672312815e+00 1.7131317791e+00 2.9672312815e+00 
73400 6.2583271666e+00 -2.7650446563e-06 1.7131317791e+00 -2.9672312815e+00 1.7131317791e+00 2.9672312815e+00 
73500 6.2583271667e+00 -2.7365588558e-06 1.7131317791e+00 -2.9672312815e+00 1.7131317791e+00 2.9672312815e+00 
73600 6.2583271668e+00 -2.7063645799e-06 1.7131317791e+00 -2.9672312815e+00 1.7131317791e+00 2.9672312815e+00 
73700 6.2583271670e+00 -2.6745177746e-06 1.7131317791e+00 -2.9672312815e+00 1.7131317791e+00 2.9672312815e+00 
73800 6.2583271671e+00 -2.6410747294e-06 1.7131317791e+00 -2.9672312815e+00 1.7131317791e+00 2.9672312815e+00 
73900 6.2583271672e+00 -2.6060920044e-06 1.7131317791e+00 -2.9672312815e+00 1.7131317791e+00 2.9672312815e+00 
74000 6.2583271673e+00 -2.5696263669e-06 1.7131317791e+00 -2.9672312815e+00 1.7131317791e+00 2.9672312815e+00 
74100 6.2583271674e+00 -2.5317347182e-06 1.7131317791e+00 -2.9672312815e+00 1.7131317791e+00 2.9672312815e+00 
74200 6.2583271675e+00 -2.4924740352e-06 1.7131317791e+00 -2.9672312815e+00 1.7131317791e+00 2.9672312815e+00 
74300 6.2583271676e+00 -2.4519013062e-06 1.7131317791e+00 -2.9672312815e+00 1.7131317791e+00 2.9672312815e+00 
74400 6.2583271677e+00 -2.4100734659e-06 1.7131317791e+00 -2.9672312815e+00 1.7131317791e+00 2.9672312815e+00 
74500 6.2583271678e+00 -2.3670473393e-06 1.7131317791e+00 -2.9672312815e+00 1.7131317791e+00 2.9672312815e+00 
74600 6.2583271679e+00 -2.3228795804e-06 1.7131317791e+00 -2.9672312815e+00 1.7131317791e+00 2.9672312815e+00 
74700 6.2583271680e+00 -2.2776266224e-06 1.7131317791e+00 -2.9672312815e+00 1.7131317791e+00 2.9672312815e+00 
74800 6.2583271681e+00 -2.2313446200e-06 1.7131317791e+00 -2.9672312815e+00 1.7131317791e+00 2.9672312815e+00 
74900 6.2583271682e+00 -2.1840893956e-06 1.7131317791e+00 -2.9672312815e+00 1.7131317791e+00 2.9672312815e+00 
75000 6.2583271683e+00 -2.1359163916e-06 1.7131317791e+00 -2.9672312815e+00 1.7131317791e+00 2.9672312815e+00 
75100 6.2583271684e+00 -2.0868806234e-06 1.7131317791e+00 -2.9672312815e+00 1.7131317791e+00 2.9672312815e+00 
75200 6.2583271685e+00 -2.0370366261e-06 1.7131317791e+00 -2.9672312815e+00 1.7131317791e+00 2.9672312815e+00 
75300 6.2583271686e+00 -1.9864384158e-06 1.7131317791e+00 -2.9672312815e+00 1.7131317791e+00 2.9672312815e+00 
75400 6.2583271687e+00 -1.9351394474e-06 1.7131317791e+00 -2.9672312815e+00 1.7131317791e+00 2.9672312815e+00 
75500 6.2583271688e+00 -1.8831925699e-06 1.7131317791e+00 -2.9672312815e+00 1.7131317791e+00 2.9672312815e+00 
75600 6.2583271689e+00 -1.8306499833e-06 1.7131317791e+00 -2.9672312815e+00 1.7131317791e+00 2.9672312815e+00 
75700 6.2583271690e+00 -1.7775632110e-06 1.7131317791e+00 -2.9672312815e+00 1.7131317791e+00 2.9672312815e+00 
75800 6.2583271690e+00 -1.7239830555e-06 1.7131317791e+00 -2.9672312815e+00 1.7131317791e+00 2.9672312815e+00 
75900 6.2583271691e+00 -1.6699595663e-06 1.7131317791e+00 -2.9672312815e+00 1.7131317791e+00 2.9672312815e+00 
76000 6.2583271692e+00 -1.6155420101e-06 1.7131317791e+00 -2.9672312815e+00 1.7131317791e+00 2.9672312815e+00 
76100 6.2583271693e+00 -1.5607788398e-06 1.7131317791e+00 -2.9672312815e+00 1.7131317791e+00 2.9672312815e+00 
76200 6.2583271694e+00 -1.5057176621e-06 1.7131317791e+00 -2.9672312815e+00 1.7131317791e+00 2.9672312815e+00 
76300 6.2583271695e+00 -1.4504052139e-06 1.7131317791e+00 -2.9672312815e+00 1.7131317791e+00 2.9672312815e+00 
76400 6.2583271695e+00 -1.3948873341e-06 1.7131317791e+00 -2.9672312815e+00 1.7131317791e+00 2.9672312815e+00 
76500 6.2583271696e+00 -1.3392089421e-06 1.7131317791e+00 -2.9672312815e+00 1.7131317791e+00 2.9672312815e+00 
76600 6.2583271697e+00 -1.2834140154e-06 1.7131317791e+00 -2.9672312815e+00 1.7131317791e+00 2.9672312815e+00 
76700 6.2583271698e+00 -1.2275455674e-06 1.7131317791e+00 -2.9672312815e+00 1.7131317791e+00 2.9672312815e+00 
76800 6.2583271699e+00 -1.1716456298e-06 1.7131317791e+00 -2.9672312815e+00 1.7131317791e+00 2.9672312815e+00 
76900 6.2583271699e+00 -1.1157552346e-06 1.7131317791e+00 -2.9672312815e+00 1.7131317791e+00 2.9672312815e+00 
77000 6.2583271700e+00 -1.0599143959e-06 1.7131317791e+00 -2.9672312815e+00 1.7131317791e+00 2.9672312815e+00 
77100 6.2583271701e+00 -1.0041621032e-06 1.7131317791e+00 -2.9672312815e+00 1.7131317791e+00 2.9672312815e+00 
77200 6.2583271701e+00 -9.4853629884e-07 1.7131317791e+00 -2.9672312815e+00 1.7131317791e+00 2.9672312815e+00 
77300 6.2583271702e+00 -8.9307387396e-07 1.7131317791e+00 -2.9672312815e+00 1.7131317791e+00 2.9672312815e+00 
77400 6.2583271703e+00 -8.3781065348e-07 1.7131317791e+00 -2.9672312815e+00 1.7131317791e+00 2.9672312815e+00 
77500 6.2583271704e+00 -7.8278139042e-07 1.7131317791e+00 -2.9672312815e+00 1.7131317791e+00 2.9672312815e+00 
77600 6.2583271704e+00 -7.2801975843e-07 1.7131317791e+00 -2.9672312815e+00 1.7131317791e+00 2.9672312815e+00 
77700 6.2583271705e+00 -6.7355834333e-07 1.7131317791e+00 -2.9672312815e+00 1.7131317791e+00 2.9672312815e+00 
77800 6.2583271706e+00 -6.1942864467e-07 1.7131317791e+00 -2.9672312815e+00 1.7131317791e+00 2.9672312815e+00 
77900 6.2583271706e+00 -5.6566106356e-07 1.7131317791e+00 -2.9672312815e+00 1.7131317791e+00 2.9672312815e+00 
78000 6.2583271707e+00 -5.1228490892e-07 1.7131317791e+00 -2.9672312815e+00 1.7131317791e+00 2.9672312815e+00 
78100 6.2583271708e+00 -4.5932839040e-07 1.7131317791e+00 -2.9672312815e+00 1.7131317791e+00 2.9672312815e+00 
78200 6.2583271708e+00 -4.0681862251e-07 1.7131317791e+00 -2.9672312815e+00 1.7131317791e+00 2.9672312815e+00 
78300 6.2583271709e+00 -3.5478162624e-07 1.7131317791e+00 -2.9672312815e+00 1.7131317791e+00 2.9672312815e+00 
78400 6.2583271709e+00 -3.0324232851e-07 1.7131317791e+00 -2.9672312815e+00 1.7131317791e+00 2.9672312815e+00 
78500 6.2583271710e+00 -2.5222456656e-07 1.7131317791e+00 -2.9672312815e+00 1.7131317791e+00 2.9672312815e+00 
78600 6.2583271711e+00 -2.0175109765e-07 1.7131317791e+00 -2.9672312815e+00 1.7131317791e+00 2.9672312815e+00 
78700 6.2583271711e+00 -1.5184359618e-07 1.7131317791e+00 -2.9672312815e+00 1.7131317791e+00 2.9672312815e+00 
78800 6.2583271712e+00 -1.0252266692e-07 1.7131317791e+00 -2.9672312815e+00 1.7131317791e+00 2.9672312815e+00 
78900 6.2583271712e+00 -5.3807852554e-08 1.7131317791e+00 -2.9672312815e+00 1.7131317791e+00 2.9672312815e+00 
79000 6.2583271713e+00 -5.7176357659e-09 1.7131317791e+00 -2.9672312815e+00 1.7131317791e+00 2.9672312815e+00 
79100 6.2583271713e+00 4.1730543947e-08 1.7131317791e+00 -2.9672312815e+00 1.7131317791e+00 2.9672312815e+00 
79200 6.2583271714e+00 8.8520283306e-08 1.7131317791e+00 -2.9672312815e+00 1.7131317791e+00 2.9672312815e+00 
79300 6.2583271715e+00 1.3463620297e-07 1.7131317791e+00 -2.9672312815e+00 1.7131317791e+00 2.9672312815e+00 
79400 6.2583271715e+00 1.8006394152e-07 1.7131317791e+00 -2.9672312815e+00 1.7131317791e+00 2.9672312815e+00 
79500 6.2583271716e+00 2.2479013320e-07 1.7131317791e+00 -2.9672312815e+00 1.7131317791e+00 2.9672312815e+00 
79600 6.2583271716e+00 2.6880240302e-07 1.7131317791e+00 -2.9672312815e+00 1.7131317791e+00 2.9672312815e+00 
79700 6.2583271717e+00 3.1208934639e-07 1.7131317791e+00 -2.9672312815e+00 1.7131317791e+00 2.9672312815e+00 
79800 6.2583271717e+00 3.5464052397e-07 1.7131317791e+00 -2.9672312815e+00 1.7131317791e+00 2.9672312815e+00 
79900 6.2583271718e+00 3.9644643375e-07 1.7131317791e+00 -2.9672312815e+00 1.7131317791e+00 2.9672312815e+00 
80000 6.2583271718e+00 4.3749850689e-07 1.7131317791e+00 -2.9672312815e+00 1.7131317791e+00 2.9672312815e+00 
80100 6.2583271718e+00 4.6497938045e-07 1.7131317791e+00 -2.9672312815e+00 1.7131317791e+00 2.9672312815e+00 
80100 6.2583271718e+00 4.6497938081e-07 1.7131317791e+00 -2.9672312815e+00 1.7131317791e+00 2.9672312815e+00 
