# step Hamiltonian StressXX CellTensor1 CellTensor2 CellTensor3 CellTensor4 
0 7.1303780703e+00 -1.2169786869e-01 1.6387017056e+00 -2.8383146126e+00 1.6387017056e+00 2.8383146126e+00 
100 7.1181501365e+00 -1.2218662592e-01 1.6387017056e+00 -2.8383146126e+00 1.6387017056e+00 2.8383146126e+00 
200 7.1056756106e+00 -1.1917965250e-01 1.6424312694e+00 -2.8447744066e+00 1.6424312694e+00 2.8447744066e+00 
300 7.0935484655e+00 -1.1625349294e-01 1.6460607496e+00 -2.8510608506e+00 1.6460607496e+00 2.8510608506e+00 
400 7.0817814320e+00 -1.1340767394e-01 1.6495932732e+00 -2.8571793610e+00 1.6495932732e+00 2.8571793610e+00 
500 7.0703843916e+00 -1.1064203430e-01 1.6530319081e+00 -2.8631352513e+00 1.6530319081e+00 2.8631352513e+00 
600 7.0593645904e+00 -1.0795663797e-01 1.6563796744e+00 -2.8689337527e+00 1.6563796744e+00 2.8689337527e+00 
700 7.0487268443e+00 -1.0535169974e-01 1.6596395541e+00 -2.8745800299e+00 1.6596395541e+00 2.8745800299e+00 
800 7.0384737369e+00 -1.0282752219e-01 1.6628144969e+00 -2.8800791923e+00 1.6628144969e+00 2.8800791923e+00 
900 7.0286058093e+00 -1.0038444263e-01 1.6659074256e+00 -2.8854363018e+00 1.6659074256e+00 2.8854363018e+00 
1000 7.0191217424e+00 -9.8022788916e-02 1.6689212379e+00 -2.8906563778e+00 1.6689212379e+00 2.8906563778e+00 
1100 7.0100185316e+00 -9.5742842917e-02 1.6718588087e+00 -2.8957443997e+00 1.6718588087e+00 2.8957443997e+00 
1200 7.0012916544e+00 -9.3544810905e-02 1.6747229897e+00 -2.9007053068e+00 1.6747229897e+00 2.9007053068e+00 
1300 6.9929352300e+00 -9.1428799836e-02 1.6775166090e+00 -2.9055439973e+00 1.6775166090e+00 2.9055439973e+00 
1400 6.9849421715e+00 -8.9394798841e-02 1.6802424691e+00 -2.9102653256e+00 1.6802424691e+00 2.9102653256e+00 
1500 6.9773043306e+00 -8.7442665207e-02 1.6829033455e+00 -2.9148740986e+00 1.6829033455e+00 2.9148740986e+00 
1600 6.9700126351e+00 -8.5572114241e-02 1.6855019834e+00 -2.9193750715e+00 1.6855019834e+00 2.9193750715e+00 
1700 6.9630572187e+00 -8.3782712469e-02 1.6880410953e+00 -2.9237729423e+00 1.6880410953e+00 2.9237729423e+00 
1800 6.9564275429e+00 -8.2073873695e-02 1.6905233574e+00 -2.9280723465e+00 1.6905233574e+00 2.9280723465e+00 
1900 6.9501125128e+00 -8.0444857474e-02 1.6929514069e+00 -2.9322778516e+00 1.6929514069e+00 2.9322778516e+00 
2000 6.9441005842e+00 -7.8894769649e-02 1.6953278380e+00 -2.9363939509e+00 1.6953278380e+00 2.9363939509e+00 
2100 6.9383798647e+00 -7.7422564594e-02 1.6976551989e+00 -2.9404250581e+00 1.6976551989e+00 2.9404250581e+00 
2200 6.9329382073e+00 -7.6027048906e-02 1.6999359881e+00 -2.9443755010e+00 1.6999359881e+00 2.9443755010e+00 
2300 6.9277632971e+00 -7.4706886268e-02 1.7021726516e+00 -2.9482495158e+00 1.7021726516e+00 2.9482495158e+00 
2400 6.9228427314e+00 -7.3460603275e-02 1.7043675793e+00 -2.9520512420e+00 1.7043675793e+00 2.9520512420e+00 
2500 6.9181640937e+00 -7.2286596045e-02 1.7065231021e+00 -2.9557847171e+00 1.7065231021e+00 2.9557847171e+00 
2600 6.9137150202e+00 -7.1183137432e-02 1.7086414892e+00 -2.9594538712e+00 1.7086414892e+00 2.9594538712e+00 
2700 6.9094832621e+00 -7.0148384715e-02 1.7107249451e+00 -2.9630625226e+00 1.7107249451e+00 2.9630625226e+00 
2800 6.9054567399e+00 -6.9180387633e-02 1.7127756073e+00 -2.9666143737e+00 1.7127756073e+00 2.9666143737e+00 
2900 6.9016235936e+00 -6.8277096675e-02 1.7147955440e+00 -2.9701130068e+00 1.7147955440e+00 2.9701130068e+00 
3000 6.8979722269e+00 -6.7436371512e-02 1.7167867520e+00 -2.9735618802e+00 1.7167867520e+00 2.9735618802e+00 
3100 6.8944913459e+00 -6.6655989533e-02 1.7187511548e+00 -2.9769643257e+00 1.7187511548e+00 2.9769643257e+00 
3200 6.8911699938e+00 -6.5933654376e-02 1.7206906010e+00 -2.9803235451e+00 1.7206906010e+00 2.9803235451e+00 
3300 6.8879975793e+00 -6.5267004439e-02 1.7226068629e+00 -2.9836426081e+00 1.7226068629e+00 2.9836426081e+00 
3400 6.8849639025e+00 -6.4653621294e-02 1.7245016352e+00 -2.9869244499e+00 1.7245016352e+00 2.9869244499e+00 
3500 6.8820591752e+00 -6.4091037989e-02 1.7263765340e+00 -2.9901718699e+00 1.7263765340e+00 2.9901718699e+00 
3600 6.8792740373e+00 -6.3576747184e-02 1.7282330963e+00 -2.9933875301e+00 1.7282330963e+00 2.9933875301e+00 
3700 6.8765995705e+00 -6.3108209104e-02 1.7300727791e+00 -2.9965739541e+00 1.7300727791e+00 2.9965739541e+00 
3800 6.8740273074e+00 -6.2682859286e-02 1.7318969591e+00 -2.9997335267e+00 1.7318969591e+00 2.9997335267e+00 
3900 6.8715492380e+00 -6.2298116094e-02 1.7337069330e+00 -3.0028684934e+00 1.7337069330e+00 3.0028684934e+00 
4000 6.8691578129e+00 -6.1951387986e-02 1.7355039168e+00 -3.0059809606e+00 1.7355039168e+00 3.0059809606e+00 
4100 6.8668459442e+00 -6.1640080526e-02 1.7372890466e+00 -3.0090728961e+00 1.7372890466e+00 3.0090728961e+00 
4200 6.8646070031e+00 -6.1361603125e-02 1.7390633789e+00 -3.0121461298e+00 1.7390633789e+00 3.0121461298e+00 
4300 6.8624348161e+00 -6.1113375494e-02 1.7408278910e+00 -3.0152023544e+00 1.7408278910e+00 3.0152023544e+00 
4400 6.8603236581e+00 -6.0892833819e-02 1.7425834819e+00 -3.0182431272e+00 1.7425834819e+00 3.0182431272e+00 
4500 6.8582682447e+00 -6.0697436638e-02 1.7443309735e+00 -3.0212698714e+00 1.7443309735e+00 3.0212698714e+00 
4600 6.8562637217e+00 -6.0524670418e-02 1.7460711111e+00 -3.0242838780e+00 1.7460711111e+00 3.0242838780e+00 
4700 6.8543056540e+00 -6.0372054841e-02 1.7478045649e+00 -3.0272863082e+00 1.7478045649e+00 3.0272863082e+00 
4800 6.8523900126e+00 -6.0237147777e-02 1.7495319316e+00 -3.0302781950e+00 1.7495319316e+00 3.0302781950e+00 
4900 6.8505131607e+00 -6.0117549964e-02 1.7512537355e+00 -3.0332604468e+00 1.7512537355e+00 3.0332604468e+00 
5000 6.8486718388e+00 -6.0010909379e-02 1.7529704302e+00 -3.0362338493e+00 1.7529704302e+00 3.0362338493e+00 
5100 6.8468631488e+00 -5.9914925321e-02 1.7546824005e+00 -3.0391990688e+00 1.7546824005e+00 3.0391990688e+00 
5200 6.8450845377e+00 -5.9827352181e-02 1.7563899640e+00 -3.0421566555e+00 1.7563899640e+00 3.0421566555e+00 
5300 6.8433337804e+00 -5.9746002934e-02 1.7580933730e+00 -3.0451070466e+00 1.7580933730e+00 3.0451070466e+00 
5400 6.8416089624e+00 -5.9668752331e-02 1.7597928168e+00 -3.0480505696e+00 1.7597928168e+00 3.0480505696e+00 
5500 6.8399084622e+00 -5.9593539814e-02 1.7614884234e+00 -3.0509874462e+00 1.7614884234e+00 3.0509874462e+00 
5600 6.8382309330e+00 -5.9518372143e-02 1.7631802616e+00 -3.0539177960e+00 1.7631802616e+00 3.0539177960e+00 
5700 6.8365752852e+00 -5.9441325766e-02 1.7648683436e+00 -3.0568416398e+00 1.7648683436e+00 3.0568416398e+00 
5800 6.8349406682e+00 -5.9360548906e-02 1.7665526270e+00 -3.0597589043e+00 1.7665526270e+00 3.0597589043e+00 
5900 6.8333264524e+00 -5.9274263401e-02 1.7682330171e+00 -3.0626694252e+00 1.7682330171e+00 3.0626694252e+00 
6000 6.8317322120e+00 -5.9180766297e-02 1.7699093691e+00 -3.0655729521e+00 1.7699093691e+00 3.0655729521e+00 
6100 6.8301577071e+00 -5.9078431184e-02 1.7715814907e+00 -3.0684691517e+00 1.7715814907e+00 3.0684691517e+00 
6200 6.8286028671e+00 -5.8965709316e-02 1.7732491445e+00 -3.0713576127e+00 1.7732491445e+00 3.0713576127e+00 
6300 6.8270677734e+00 -5.8841130500e-02 1.7749120500e+00 -3.0742378495e+00 1.7749120500e+00 3.0742378495e+00 
6400 6.8255526438e+00 -5.8703303763e-02 1.7765698865e+00 -3.0771093066e+00 1.7765698865e+00 3.0771093066e+00 
6500 6.8240578165e+00 -5.8550917831e-02 1.7782222953e+00 -3.0799713626e+00 1.7782222953e+00 3.0799713626e+00 
6600 6.8225837346e+00 -5.8382741393e-02 1.7798688820e+00 -3.0828233344e+00 1.7798688820e+00 3.0828233344e+00 
6700 6.8211309319e+00 -5.8197623193e-02 1.7815092191e+00 -3.0856644816e+00 1.7815092191e+00 3.0856644816e+00 
6800 6.8197000184e+00 -5.7994491943e-02 1.7831428483e+00 -3.0884940103e+00 1.7831428483e+00 3.0884940103e+00 
6900 6.8182916672e+00 -5.7772356062e-02 1.7847692827e+00 -3.0913110774e+00 1.7847692827e+00 3.0913110774e+00 
7000 6.8169066013e+00 -5.7530303269e-02 1.7863880096e+00 -3.0941147946e+00 1.7863880096e+00 3.0941147946e+00 
7100 6.8155455817e+00 -5.7267500022e-02 1.7879984922e+00 -3.0969042324e+00 1.7879984922e+00 3.0969042324e+00 
7200 6.8142093957e+00 -5.6983190823e-02 1.7896001726e+00 -3.0996784241e+00 1.7896001726e+00 3.0996784241e+00 
7300 6.8128988464e+00 -5.6676697390e-02 1.7911924733e+00 -3.1024363699e+00 1.7911924733e+00 3.1024363699e+00 
7400 6.8116147418e+00 -5.6347417717e-02 1.7927748000e+00 -3.1051770401e+00 1.7927748000e+00 3.1051770401e+00 
7500 6.8103578863e+00 -5.5994825020e-02 1.7943465435e+00 -3.1078993797e+00 1.7943465435e+00 3.1078993797e+00 
7600 6.8091290708e+00 -5.5618466577e-02 1.7959070819e+00 -3.1106023115e+00 1.7959070819e+00 3.1106023115e+00 
7700 6.8079290653e+00 -5.5217962483e-02 1.7974557826e+00 -3.1132847398e+00 1.7974557826e+00 3.1132847398e+00 
7800 6.8067586113e+00 -5.4793004313e-02 1.7989920045e+00 -3.1159455543e+00 1.7989920045e+00 3.1159455543e+00 
7900 6.8056184147e+00 -5.4343353712e-02 1.8005150999e+00 -3.1185836329e+00 1.8005150999e+00 3.1185836329e+00 
8000 6.8045091395e+00 -5.3868840907e-02 1.8020244163e+00 -3.1211978455e+00 1.8020244163e+00 3.1211978455e+00 
8100 6.8034314028e+00 -5.3369363167e-02 1.8035192984e+00 -3.1237870573e+00 1.8035192984e+00 3.1237870573e+00 
8200 6.8023857691e+00 -5.2844883191e-02 1.8049990900e+00 -3.1263501315e+00 1.8049990900e+00 3.1263501315e+00 
8300 6.8013727467e+00 -5.2295427460e-02 1.8064631356e+00 -3.1288859329e+00 1.8064631356e+00 3.1288859329e+00 
8400 6.8003927831e+00 -5.1721084529e-02 1.8079107823e+00 -3.1313933305e+00 1.8079107823e+00 3.1313933305e+00 
8500 6.7994462625e+00 -5.1122003291e-02 1.8093413811e+00 -3.1338712002e+00 1.8093413811e+00 3.1338712002e+00 
8600 6.7985335026e+00 -5.0498391197e-02 1.8107542889e+00 -3.1363184283e+00 1.8107542889e+00 3.1363184283e+00 
8700 6.7976547529e+00 -4.9850512449e-02 1.8121488698e+00 -3.1387339133e+00 1.8121488698e+00 3.1387339133e+00 
8800 6.7968101926e+00 -4.9178686166e-02 1.8135244967e+00 -3.1411165690e+00 1.8135244967e+00 3.1411165690e+00 
8900 6.7959999296e+00 -4.8483284523e-02 1.8148805525e+00 -3.1434653266e+00 1.8148805525e+00 3.1434653266e+00 
9000 6.7952240001e+00 -4.7764730879e-02 1.8162164318e+00 -3.1457791374e+00 1.8162164318e+00 3.1457791374e+00 
9100 6.7944823677e+00 -4.7023497874e-02 1.8175315419e+00 -3.1480569749e+00 1.8175315419e+00 3.1480569749e+00 
9200 6.7937749243e+00 -4.6260105527e-02 1.8188253041e+00 -3.1502978367e+00 1.8188253041e+00 3.1502978367e+00 
9300 6.7931014900e+00 -4.5475119310e-02 1.8200971550e+00 -3.1525007471e+00 1.8200971550e+00 3.1525007471e+00 
9400 6.7924618143e+00 -4.4669148218e-02 1.8213465476e+00 -3.1546647586e+00 1.8213465476e+00 3.1546647586e+00 
9500 6.7918555774e+00 -4.3842842830e-02 1.8225729522e+00 -3.1567889537e+00 1.8225729522e+00 3.1567889537e+00 
9600 6.7912823918e+00 -4.2996893363e-02 1.8237758577e+00 -3.1588724472e+00 1.8237758577e+00 3.1588724472e+00 
9700 6.7907418041e+00 -4.2132027716e-02 1.8249547724e+00 -3.1609143873e+00 1.8249547724e+00 3.1609143873e+00 
9800 6.7902332971e+00 -4.1249009518e-02 1.8261092248e+00 -3.1629139575e+00 1.8261092248e+00 3.1629139575e+00 
9900 6.7897562925e+00 -4.0348636166e-02 1.8272387645e+00 -3.1648703777e+00 1.8272387645e+00 3.1648703777e+00 
10000 6.7893101535e+00 -3.9431736857e-02 1.8283429633e+00 -3.1667829061e+00 1.8283429633e+00 3.1667829061e+00 
10100 6.7888941877e+00 -3.8499170628e-02 1.8294214155e+00 -3.1686508401e+00 1.8294214155e+00 3.1686508401e+00 
10200 6.7885076500e+00 -3.7551824386e-02 1.8304737389e+00 -3.1704735177e+00 1.8304737389e+00 3.1704735177e+00 
10300 6.7881497462e+00 -3.6590610934e-02 1.8314995753e+00 -3.1722503184e+00 1.8314995753e+00 3.1722503184e+00 
10400 6.7878196362e+00 -3.5616467005e-02 1.8324985909e+00 -3.1739806643e+00 1.8324985909e+00 3.1739806643e+00 
10500 6.7875164377e+00 -3.4630351287e-02 1.8334704774e+00 -3.1756640211e+00 1.8334704774e+00 3.1756640211e+00 
10600 6.7872392297e+00 -3.3633242450e-02 1.8344149519e+00 -3.1772998989e+00 1.8344149519e+00 3.1772998989e+00 
10700 6.7869870567e+00 -3.2626137173e-02 1.8353317577e+00 -3.1788878530e+00 1.8353317577e+00 3.1788878530e+00 
10800 6.7867589318e+00 -3.1610048172e-02 1.8362206642e+00 -3.1804274844e+00 1.8362206642e+00 3.1804274844e+00 
10900 6.7865538413e+00 -3.0586002226e-02 1.8370814681e+00 -3.1819184404e+00 1.8370814681e+00 3.1819184404e+00 
11000 6.7863707484e+00 -2.9555038209e-02 1.8379139927e+00 -3.1833604153e+00 1.8379139927e+00 3.1833604153e+00 
11100 6.7862085969e+00 -2.8518205117e-02 1.8387180889e+00 -3.1847531508e+00 1.8387180889e+00 3.1847531508e+00 
11200 6.7860663156e+00 -2.7476560105e-02 1.8394936349e+00 -3.1860964358e+00 1.8394936349e+00 3.1860964358e+00 
11300 6.7859428219e+00 -2.6431166524e-02 1.8402405366e+00 -3.1873901075e+00 1.8402405366e+00 3.1873901075e+00 
11400 6.7858370257e+00 -2.5383091966e-02 1.8409587276e+00 -3.1886340509e+00 1.8409587276e+00 3.1886340509e+00 
11500 6.7857478335e+00 -2.4333406316e-02 1.8416481694e+00 -3.1898281990e+00 1.8416481694e+00 3.1898281990e+00 
11600 6.7856741519e+00 -2.3283179809e-02 1.8423088509e+00 -3.1909725331e+00 1.8423088509e+00 3.1909725331e+00 
11700 6.7856148917e+00 -2.2233481098e-02 1.8429407892e+00 -3.1920670823e+00 1.8429407892e+00 3.1920670823e+00 
11800 6.7855689710e+00 -2.1185375343e-02 1.8435440287e+00 -3.1931119238e+00 1.8435440287e+00 3.1931119238e+00 
11900 6.7855353190e+00 -2.0139922304e-02 1.8441186414e+00 -3.1941071821e+00 1.8441186414e+00 3.1941071821e+00 
12000 6.7855128793e+00 -1.9098174454e-02 1.8446647266e+00 -3.1950530293e+00 1.8446647266e+00 3.1950530293e+00 
12100 6.7855006133e+00 -1.8061175120e-02 1.8451824105e+00 -3.1959496843e+00 1.8451824105e+00 3.1959496843e+00 
12200 6.7854975029e+00 -1.7029956639e-02 1.8456718465e+00 -3.1967974123e+00 1.8456718465e+00 3.1967974123e+00 
12300 6.7855025539e+00 -1.6005538541e-02 1.8461332142e+00 -3.1975965245e+00 1.8461332142e+00 3.1975965245e+00 
12400 6.7855147987e+00 -1.4988925765e-02 1.8465667193e+00 -3.1983473774e+00 1.8465667193e+00 3.1983473774e+00 
12500 6.7855332984e+00 -1.3981106909e-02 1.8469725935e+00 -3.1990503721e+00 1.8469725935e+00 3.1990503721e+00 
12600 6.7855571459e+00 -1.2983052513e-02 1.8473510935e+00 -3.1997059534e+00 1.8473510935e+00 3.1997059534e+00 
12700 6.7855854679e+00 -1.1995713385e-02 1.8477025011e+00 -3.2003146092e+00 1.8477025011e+00 3.2003146092e+00 
12800 6.7856174265e+00 -1.1020018973e-02 1.8480271222e+00 -3.2008768695e+00 1.8480271222e+00 3.2008768695e+00 
12900 6.7856522217e+00 -1.0056875779e-02 1.8483252866e+00 -3.2013933052e+00 1.8483252866e+00 3.2013933052e+00 
13000 6.7856890926e+00 -9.1071658391e-03 1.8485973470e+00 -3.2018645277e+00 1.8485973470e+00 3.2018645277e+00 
13100 6.7857273190e+00 -8.1717452420e-03 1.8488436788e+00 -3.2022911870e+00 1.8488436788e+00 3.2022911870e+00 
13200 6.7857662226e+00 -7.2514427243e-03 1.8490646793e+00 -3.2026739711e+00 1.8490646793e+00 3.2026739711e+00 
13300 6.7858051678e+00 -6.3470583209e-03 1.8492607669e+00 -3.2030136047e+00 1.8492607669e+00 3.2030136047e+00 
13400 6.7858435629e+00 -5.4593620869e-03 1.8494323802e+00 -3.2033108477e+00 1.8494323802e+00 3.2033108477e+00 
13500 6.7858808601e+00 -4.5890928914e-03 1.8495799778e+00 -3.2035664942e+00 1.8495799778e+00 3.2035664942e+00 
13600 6.7859165564e+00 -3.7369572861e-03 1.8497040369e+00 -3.2037813708e+00 1.8497040369e+00 3.2037813708e+00 
13700 6.7859501936e+00 -2.9036284543e-03 1.8498050528e+00 -3.2039563356e+00 1.8498050528e+00 3.2039563356e+00 
13800 6.7859813582e+00 -2.0897452405e-03 1.8498835381e+00 -3.2040922760e+00 1.8498835381e+00 3.2040922760e+00 
13900 6.7860096809e+00 -1.2959112666e-03 1.8499400215e+00 -3.2041901082e+00 1.8499400215e+00 3.2041901082e+00 
14000 6.7860348370e+00 -5.2269413501e-04 1.8499750474e+00 -3.2042507748e+00 1.8499750474e+00 3.2042507748e+00 
14100 6.7860565447e+00 2.2937527788e-04 1.8499891745e+00 -3.2042752436e+00 1.8499891745e+00 3.2042752436e+00 
14200 6.7860745653e+00 9.5980343611e-04 1.8499829751e+00 -3.2042645060e+00 1.8499829751e+00 3.2042645060e+00 
14300 6.7860887016e+00 1.6681346647e-03 1.8499570343e+00 -3.2042195752e+00 1.8499570343e+00 3.2042195752e+00 
14400 6.7860987971e+00 2.3539515752e-03 1.8499119487e+00 -3.2041414847e+00 1.8499119487e+00 3.2041414847e+00 
14500 6.7861047345e+00 3.0168753954e-03 1.8498483257e+00 -3.2040312865e+00 1.8498483257e+00 3.2040312865e+00 
14600 6.7861064346e+00 3.6565662023e-03 1.8497667825e+00 -3.2038900494e+00 1.8497667825e+00 3.2038900494e+00 
14700 6.7861038547e+00 4.2727230587e-03 1.8496679448e+00 -3.2037188575e+00 1.8496679448e+00 3.2037188575e+00 
14800 6.7860969865e+00 4.8650840536e-03 1.8495524463e+00 -3.2035188082e+00 1.8495524463e+00 3.2035188082e+00 
14900 6.7860858551e+00 5.4334262468e-03 1.8494209272e+00 -3.2032910106e+00 1.8494209272e+00 3.2032910106e+00 
15000 6.7860705165e+00 5.9775655201e-03 1.8492740338e+00 -3.2030365837e+00 1.8492740338e+00 3.2030365837e+00 
15100 6.7860510561e+00 6.4973563340e-03 1.8491124170e+00 -3.2027566551e+00 1.8491124170e+00 3.2027566551e+00 
15200 6.7860275864e+00 6.9926913955e-03 1.8489367312e+00 -3.2024523584e+00 1.8489367312e+00 3.2024523584e+00 
15300 6.7860002453e+00 7.4635012360e-03 1.8487476341e+00 -3.2021248326e+00 1.8487476341e+00 3.2021248326e+00 
15400 6.7859691935e+00 7.9097537044e-03 1.8485457849e+00 -3.2017752195e+00 1.8485457849e+00 3.2017752195e+00 
15500 6.7859346129e+00 8.3314533764e-03 1.8483318437e+00 -3.2014046625e+00 1.8483318437e+00 3.2014046625e+00 
15600 6.7858967040e+00 8.7286408859e-03 1.8481064706e+00 -3.2010143050e+00 1.8481064706e+00 3.2010143050e+00 
15700 6.7858556841e+00 9.1013921792e-03 1.8478703248e+00 -3.2006052883e+00 1.8478703248e+00 3.2006052883e+00 
15800 6.7858117850e+00 9.4498176987e-03 1.8476240632e+00 -3.2001787507e+00 1.8476240632e+00 3.2001787507e+00 
15900 6.7857652507e+00 9.7740614988e-03 1.8473683401e+00 -3.1997358254e+00 1.8473683401e+00 3.1997358254e+00 
16000 6.7857163357e+00 1.0074300298e-02 1.8471038063e+00 -3.1992776394e+00 1.8471038063e+00 3.1992776394e+00 
16100 6.7856653024e+00 1.0350742474e-02 1.8468311077e+00 -3.1988053116e+00 1.8468311077e+00 3.1988053116e+00 
16200 6.7856124196e+00 1.0603627004e-02 1.8465508850e+00 -3.1983199516e+00 1.8465508850e+00 3.1983199516e+00 
16300 6.7855579601e+00 1.0833222355e-02 1.8462637726e+00 -3.1978226584e+00 1.8462637726e+00 3.1978226584e+00 
16400 6.7855021990e+00 1.1039825334e-02 1.8459703981e+00 -3.1973145188e+00 1.8459703981e+00 3.1973145188e+00 
16500 6.7854454121e+00 1.1223759895e-02 1.8456713812e+00 -3.1967966063e+00 1.8456713812e+00 3.1967966063e+00 
16600 6.7853878735e+00 1.1385375914e-02 1.8453673333e+00 -3.1962699798e+00 1.8453673333e+00 3.1962699798e+00 
16700 6.7853298547e+00 1.1525047939e-02 1.8450588565e+00 -3.1957356824e+00 1.8450588565e+00 3.1957356824e+00 
16800 6.7852716225e+00 1.1643173905e-02 1.8447465433e+00 -3.1951947402e+00 1.8447465433e+00 3.1951947402e+00 
16900 6.7852134377e+00 1.1740173846e-02 1.8444309758e+00 -3.1946481612e+00 1.8444309758e+00 3.1946481612e+00 
17000 6.7851555538e+00 1.1816488576e-02 1.8441127249e+00 -3.1940969345e+00 1.8441127249e+00 3.1940969345e+00 
17100 6.7850982157e+00 1.1872578375e-02 1.8437923501e+00 -3.1935420290e+00 1.8437923501e+00 3.1935420290e+00 
17200 6.7850416583e+00 1.1908921661e-02 1.8434703986e+00 -3.1929843927e+00 1.8434703986e+00 3.1929843927e+00 
17300 6.7849861060e+00 1.1926013664e-02 1.8431474053e+00 -3.1924249518e+00 1.8431474053e+00 3.1924249518e+00 
17400 6.7849317712e+00 1.1924365105e-02 1.8428238917e+00 -3.1918646098e+00 1.8428238917e+00 3.1918646098e+00 
17500 6.7848788539e+00 1.1904500882e-02 1.8425003660e+00 -3.1913042469e+00 1.8425003660e+00 3.1913042469e+00 
17600 6.7848275408e+00 1.1866958762e-02 1.8421773226e+00 -3.1907447193e+00 1.8421773226e+00 3.1907447193e+00 
17700 6.7847780046e+00 1.1812288099e-02 1.8418552414e+00 -3.1901868583e+00 1.8418552414e+00 3.1901868583e+00 
17800 6.7847304038e+00 1.1741048561e-02 1.8415345879e+00 -3.1896314702e+00 1.8415345879e+00 3.1896314702e+00 
17900 6.7846848822e+00 1.1653808880e-02 1.8412158128e+00 -3.1890793354e+00 1.8412158128e+00 3.1890793354e+00 
18000 6.7846415685e+00 1.1551145626e-02 1.8408993514e+00 -3.1885312082e+00 1.8408993514e+00 3.1885312082e+00 
18100 6.7846005763e+00 1.1433642014e-02 1.8405856238e+00 -3.1879878161e+00 1.8405856238e+00 3.1879878161e+00 
18200 6.7845620040e+00 1.1301886728e-02 1.8402750346e+00 -3.1874498598e+00 1.8402750346e+00 3.1874498598e+00 
18300 6.7845259347e+00 1.1156472787e-02 1.8399679726e+00 -3.1869180128e+00 1.8399679726e+00 3.1869180128e+00 
18400 6.7844924366e+00 1.0997996438e-02 1.8396648106e+00 -3.1863929208e+00 1.8396648106e+00 3.1863929208e+00 
18500 6.7844615628e+00 1.0827056082e-02 1.8393659056e+00 -3.1858752023e+00 1.8393659056e+00 3.1858752023e+00 
18600 6.7844333519e+00 1.0644251242e-02 1.8390715986e+00 -3.1853654475e+00 1.8390715986e+00 3.1853654475e+00 
18700 6.7844078282e+00 1.0450181562e-02 1.8387822142e+00 -3.1848642190e+00 1.8387822142e+00 3.1848642190e+00 
18800 6.7843850023e+00 1.0245445845e-02 1.8384980611e+00 -3.1843720515e+00 1.8384980611e+00 3.1843720515e+00 
18900 6.7843648712e+00 1.0030641131e-02 1.8382194319e+00 -3.1838894515e+00 1.8382194319e+00 3.1838894515e+00 
19000 6.7843474193e+00 9.8063618122e-03 1.8379466028e+00 -3.1834168977e+00 1.8379466028e+00 3.1834168977e+00 
19100 6.7843326187e+00 9.5731987895e-03 1.8376798343e+00 -3.1829548411e+00 1.8376798343e+00 3.1829548411e+00 
19200 6.7843204299e+00 9.3317386642e-03 1.8374193708e+00 -3.1825037050e+00 1.8374193708e+00 3.1825037050e+00 
19300 6.7843108025e+00 9.0825629729e-03 1.8371654406e+00 -3.1820638851e+00 1.8371654406e+00 3.1820638851e+00 
19400 6.7843036759e+00 8.8262474599e-03 1.8369182566e+00 -3.1816357498e+00 1.8369182566e+00 3.1816357498e+00 
19500 6.7842989800e+00 8.5633613885e-03 1.8366780158e+00 -3.1812196405e+00 1.8366780158e+00 3.1812196405e+00 
19600 6.7842966360e+00 8.2944668902e-03 1.8364448998e+00 -3.1808158717e+00 1.8364448998e+00 3.1808158717e+00 
19700 6.7842965572e+00 8.0201183530e-03 1.8362190750e+00 -3.1804247317e+00 1.8362190750e+00 3.1804247317e+00 
19800 6.7842986497e+00 7.7408618454e-03 1.8360006925e+00 -3.1800464822e+00 1.8360006925e+00 3.1800464822e+00 
19900 6.7843028132e+00 7.4572345777e-03 1.8357898889e+00 -3.1796813595e+00 1.8357898889e+00 3.1796813595e+00 
20000 6.7843089419e+00 7.1697643992e-03 1.8355867856e+00 -3.1793295744e+00 1.8355867856e+00 3.1793295744e+00 
20100 6.7843169250e+00 6.8789693292e-03 1.8353914901e+00 -3.1789913127e+00 1.8353914901e+00 3.1789913127e+00 
20200 6.7843266479e+00 6.5853571233e-03 1.8352040954e+00 -3.1786667356e+00 1.8352040954e+00 3.1786667356e+00 
20300 6.7843379927e+00 6.2894248714e-03 1.8350246808e+00 -3.1783559803e+00 1.8350246808e+00 3.1783559803e+00 
20400 6.7843508388e+00 5.9916586286e-03 1.8348533118e+00 -3.1780591605e+00 1.8348533118e+00 3.1780591605e+00 
20500 6.7843650640e+00 5.6925330768e-03 1.8346900407e+00 -3.1777763667e+00 1.8346900407e+00 3.1777763667e+00 
20600 6.7843805449e+00 5.3925112162e-03 1.8345349068e+00 -3.1775076668e+00 1.8345349068e+00 3.1775076668e+00 
20700 6.7843971576e+00 5.0920440860e-03 1.8343879366e+00 -3.1772531070e+00 1.8343879366e+00 3.1772531070e+00 
20800 6.7844147786e+00 4.7915705126e-03 1.8342491443e+00 -3.1770127116e+00 1.8342491443e+00 3.1770127116e+00 
20900 6.7844332852e+00 4.4915168855e-03 1.8341185319e+00 -3.1767864843e+00 1.8341185319e+00 3.1767864843e+00 
21000 6.7844525561e+00 4.1922969582e-03 1.8339960897e+00 -3.1765744083e+00 1.8339960897e+00 3.1765744083e+00 
21100 6.7844724720e+00 3.8943116749e-03 1.8338817969e+00 -3.1763764473e+00 1.8338817969e+00 3.1763764473e+00 
21200 6.7844929159e+00 3.5979490201e-03 1.8337756212e+00 -3.1761925455e+00 1.8337756212e+00 3.1761925455e+00 
21300 6.7845137740e+00 3.3035838920e-03 1.8336775198e+00 -3.1760226290e+00 1.8336775198e+00 3.1760226290e+00 
21400 6.7845349357e+00 3.0115779975e-03 1.8335874397e+00 -3.1758666057e+00 1.8335874397e+00 3.1758666057e+00 
21500 6.7845562944e+00 2.7222797684e-03 1.8335053178e+00 -3.1757243664e+00 1.8335053178e+00 3.1757243664e+00 
21600 6.7845777476e+00 2.4360242977e-03 1.8334310813e+00 -3.1755957849e+00 1.8334310813e+00 3.1755957849e+00 
21700 6.7845991970e+00 2.1531332954e-03 1.8333646482e+00 -3.1754807194e+00 1.8333646482e+00 3.1754807194e+00 
21800 6.7846205493e+00 1.8739150624e-03 1.8333059277e+00 -3.1753790125e+00 1.8333059277e+00 3.1753790125e+00 
21900 6.7846417163e+00 1.5986644826e-03 1.8332548204e+00 -3.1752904921e+00 1.8332548204e+00 3.1752904921e+00 
22000 6.7846626146e+00 1.3276630315e-03 1.8332112187e+00 -3.1752149719e+00 1.8332112187e+00 3.1752149719e+00 
22100 6.7846831665e+00 1.0611788012e-03 1.8331750075e+00 -3.1751522521e+00 1.8331750075e+00 3.1751522521e+00 
22200 6.7847032997e+00 7.9946654058e-04 1.8331460638e+00 -3.1751021202e+00 1.8331460638e+00 3.1751021202e+00 
22300 6.7847229475e+00 5.4276771086e-04 1.8331242580e+00 -3.1750643514e+00 1.8331242580e+00 3.1750643514e+00 
22400 6.7847420488e+00 2.9131055438e-04 1.8331094535e+00 -3.1750387094e+00 1.8331094535e+00 3.1750387094e+00 
22500 6.7847605481e+00 4.5310177478e-05 1.8331015078e+00 -3.1750249469e+00 1.8331015078e+00 3.1750249469e+00 
22600 6.7847783952e+00 -1.9370712927e-04 1.8331015078e+00 -3.1750249469e+00 1.8331015078e+00 3.1750249469e+00 
22700 6.7847955466e+00 -4.2823281652e-04 1.8331067913e+00 -3.1750340983e+00 1.8331067913e+00 3.1750340983e+00 
22800 6.7848119638e+00 -6.5673321326e-04 1.8331184719e+00 -3.1750543296e+00 1.8331184719e+00 3.1750543296e+00 
22900 6.7848276139e+00 -8.7904472698e-04 1.8331363849e+00 -3.1750853559e+00 1.8331363849e+00 3.1750853559e+00 
23000 6.7848424693e+00 -1.0950163040e-03 1.8331603615e+00 -3.1751268845e+00 1.8331603615e+00 3.1751268845e+00 
23100 6.7848565078e+00 -1.3045092780e-03 1.8331902285e+00 -3.1751786156e+00 1.8331902285e+00 3.1751786156e+00 
23200 6.7848697121e+00 -1.5073972088e-03 1.8332258089e+00 -3.1752402427e+00 1.8332258089e+00 3.1752402427e+00 
23300 6.7848820701e+00 -1.7035657115e-03 1.8332669223e+00 -3.1753114532e+00 1.8332669223e+00 3.1753114532e+00 
23400 6.7848935743e+00 -1.8929122777e-03 1.8333133850e+00 -3.1753919291e+00 1.8333133850e+00 3.1753919291e+00 
23500 6.7849042217e+00 -2.0753460876e-03 1.8333650107e+00 -3.1754813474e+00 1.8333650107e+00 3.1754813474e+00 
23600 6.7849140139e+00 -2.2507878143e-03 1.8334216104e+00 -3.1755793809e+00 1.8334216104e+00 3.1755793809e+00 
23700 6.7849229564e+00 -2.4191694205e-03 1.8334829929e+00 -3.1756856985e+00 1.8334829929e+00 3.1756856985e+00 
23800 6.7849310587e+00 -2.5804339483e-03 1.8335489653e+00 -3.1757999660e+00 1.8335489653e+00 3.1757999660e+00 
23900 6.7849383338e+00 -2.7345353020e-03 1.8336193329e+00 -3.1759218463e+00 1.8336193329e+00 3.1759218463e+00 
24000 6.7849447984e+00 -2.8814380245e-03 1.8336939000e+00 -3.1760510003e+00 1.8336939000e+00 3.1760510003e+00 
24100 6.7849504720e+00 -3.0211170675e-03 1.8337724698e+00 -3.1761870872e+00 1.8337724698e+00 3.1761870872e+00 
24200 6.7849553771e+00 -3.1535575565e-03 1.8338548448e+00 -3.1763297649e+00 1.8338548448e+00 3.1763297649e+00 
24300 6.7849595389e+00 -3.2787545496e-03 1.8339408271e+00 -3.1764786906e+00 1.8339408271e+00 3.1764786906e+00 
24400 6.7849629850e+00 -3.3967127923e-03 1.8340302188e+00 -3.1766335216e+00 1.8340302188e+00 3.1766335216e+00 
24500 6.7849657449e+00 -3.5074464668e-03 1.8341228220e+00 -3.1767939150e+00 1.8341228220e+00 3.1767939150e+00 
24600 6.7849678501e+00 -3.6109789374e-03 1.8342184393e+00 -3.1769595290e+00 1.8342184393e+00 3.1769595290e+00 
24700 6.7849693338e+00 -3.7073424917e-03 1.8343168739e+00 -3.1771300227e+00 1.8343168739e+00 3.1771300227e+00 
24800 6.7849702302e+00 -3.7965780785e-03 1.8344179299e+00 -3.1773050570e+00 1.8344179299e+00 3.1773050570e+00 
24900 6.7849705750e+00 -3.8787350413e-03 1.8345214127e+00 -3.1774842944e+00 1.8345214127e+00 3.1774842944e+00 
25000 6.7849704046e+00 -3.9538708503e-03 1.8346271289e+00 -3.1776674002e+00 1.8346271289e+00 3.1776674002e+00 
25100 6.7849697560e+00 -4.0220508302e-03 1.8347348868e+00 -3.1778540423e+00 1.8347348868e+00 3.1778540423e+00 
25200 6.7849686667e+00 -4.0833478865e-03 1.8348444964e+00 -3.1780438917e+00 1.8348444964e+00 3.1780438917e+00 
25300 6.7849671745e+00 -4.1378422291e-03 1.8349557698e+00 -3.1782366229e+00 1.8349557698e+00 3.1782366229e+00 
25400 6.7849653170e+00 -4.1856210946e-03 1.8350685214e+00 -3.1784319145e+00 1.8350685214e+00 3.1784319145e+00 
25500 6.7849631318e+00 -4.2267784663e-03 1.8351825680e+00 -3.1786294489e+00 1.8351825680e+00 3.1786294489e+00 
25600 6.7849606562e+00 -4.2614147943e-03 1.8352977288e+00 -3.1788289133e+00 1.8352977288e+00 3.1788289133e+00 
25700 6.7849579267e+00 -4.2896367127e-03 1.8354138260e+00 -3.1790299996e+00 1.8354138260e+00 3.1790299996e+00 
25800 6.7849549794e+00 -4.3115567583e-03 1.8355306847e+00 -3.1792324048e+00 1.8355306847e+00 3.1792324048e+00 
25900 6.7849518495e+00 -4.3272930870e-03 1.8356481331e+00 -3.1794358314e+00 1.8356481331e+00 3.1794358314e+00 
26000 6.7849485712e+00 -4.3369691916e-03 1.8357660027e+00 -3.1796399874e+00 1.8357660027e+00 3.1796399874e+00 
26100 6.7849451775e+00 -4.3407136192e-03 1.8358841282e+00 -3.1798445868e+00 1.8358841282e+00 3.1798445868e+00 
26200 6.7849417005e+00 -4.3386596884e-03 1.8360023480e+00 -3.1800493496e+00 1.8360023480e+00 3.1800493496e+00 
26300 6.7849381706e+00 -4.3309452089e-03 1.8361205044e+00 -3.1802540024e+00 1.8361205044e+00 3.1802540024e+00 
26400 6.7849346172e+00 -4.3177122003e-03 1.8362384430e+00 -3.1804582781e+00 1.8362384430e+00 3.1804582781e+00 
26500 6.7849310681e+00 -4.2991066134e-03 1.8363560138e+00 -3.1806619166e+00 1.8363560138e+00 3.1806619166e+00 
26600 6.7849275494e+00 -4.2752780526e-03 1.8364730704e+00 -3.1808646646e+00 1.8364730704e+00 3.1808646646e+00 
26700 6.7849240859e+00 -4.2463795002e-03 1.8365894708e+00 -3.1810662760e+00 1.8365894708e+00 3.1810662760e+00 
26800 6.7849207004e+00 -4.2125670425e-03 1.8367050770e+00 -3.1812665119e+00 1.8367050770e+00 3.1812665119e+00 
26900 6.7849174145e+00 -4.1739995986e-03 1.8368197555e+00 -3.1814651408e+00 1.8368197555e+00 3.1814651408e+00 
27000 6.7849142477e+00 -4.1308386515e-03 1.8369333769e+00 -3.1816619390e+00 1.8369333769e+00 3.1816619390e+00 
27100 6.7849112180e+00 -4.0832479819e-03 1.8370458165e+00 -3.1818566901e+00 1.8370458165e+00 3.1818566901e+00 
27200 6.7849083416e+00 -4.0313934052e-03 1.8371569539e+00 -3.1820491857e+00 1.8371569539e+00 3.1820491857e+00 
27300 6.7849056332e+00 -3.9754425117e-03 1.8372666733e+00 -3.1822392251e+00 1.8372666733e+00 3.1822392251e+00 
27400 6.7849031055e+00 -3.9155644103e-03 1.8373748634e+00 -3.1824266159e+00 1.8373748634e+00 3.1824266159e+00 
27500 6.7849007697e+00 -3.8519294756e-03 1.8374814176e+00 -3.1826111733e+00 1.8374814176e+00 3.1826111733e+00 
27600 6.7848986353e+00 -3.7847090991e-03 1.8375862341e+00 -3.1827927207e+00 1.8375862341e+00 3.1827927207e+00 
27700 6.7848967103e+00 -3.7140754449e-03 1.8376892155e+00 -3.1829710898e+00 1.8376892155e+00 3.1829710898e+00 
27800 6.7848950010e+00 -3.6402012087e-03 1.8377902693e+00 -3.1831461201e+00 1.8377902693e+00 3.1831461201e+00 
27900 6.7848935122e+00 -3.5632593825e-03 1.8378893076e+00 -3.1833176595e+00 1.8378893076e+00 3.1833176595e+00 
28000 6.7848922472e+00 -3.4834230227e-03 1.8379862474e+00 -3.1834855641e+00 1.8379862474e+00 3.1834855641e+00 
28100 6.7848912080e+00 -3.4008650242e-03 1.8380810102e+00 -3.1836496980e+00 1.8380810102e+00 3.1836496980e+00 
28200 6.7848903952e+00 -3.3157578988e-03 1.8381735222e+00 -3.1838099336e+00 1.8381735222e+00 3.1838099336e+00 
28300 6.7848898080e+00 -3.2282735592e-03 1.8382637146e+00 -3.1839661514e+00 1.8382637146e+00 3.1839661514e+00 
28400 6.7848894444e+00 -3.1385831078e-03 1.8383515230e+00 -3.1841182400e+00 1.8383515230e+00 3.1841182400e+00 
28500 6.7848893014e+00 -3.0468566318e-03 1.8384368877e+00 -3.1842660960e+00 1.8384368877e+00 3.1842660960e+00 
28600 6.7848893748e+00 -2.9532630031e-03 1.8385197537e+00 -3.1844096242e+00 1.8385197537e+00 3.1844096242e+00 
28700 6.7848896594e+00 -2.8579696849e-03 1.8386000707e+00 -3.1845487372e+00 1.8386000707e+00 3.1845487372e+00 
28800 6.7848901491e+00 -2.7611425431e-03 1.8386777926e+00 -3.1846833555e+00 1.8386777926e+00 3.1846833555e+00 
28900 6.7848908369e+00 -2.6629456647e-03 1.8387528781e+00 -3.1848134074e+00 1.8387528781e+00 3.1848134074e+00 
29000 6.7848917150e+00 -2.5635411819e-03 1.8388252903e+00 -3.1849388290e+00 1.8388252903e+00 3.1849388290e+00 
29100 6.7848927752e+00 -2.4630891023e-03 1.8388949967e+00 -3.1850595640e+00 1.8388949967e+00 3.1850595640e+00 
29200 6.7848940082e+00 -2.3617471459e-03 1.8389619691e+00 -3.1851755636e+00 1.8389619691e+00 3.1851755636e+00 
29300 6.7848954045e+00 -2.2596705882e-03 1.8390261836e+00 -3.1852867864e+00 1.8390261836e+00 3.1852867864e+00 
29400 6.7848969541e+00 -2.1570121098e-03 1.8390876205e+00 -3.1853931983e+00 1.8390876205e+00 3.1853931983e+00 
29500 6.7848986465e+00 -2.0539216525e-03 1.8391462644e+00 -3.1854947724e+00 1.8391462644e+00 3.1854947724e+00 
29600 6.7849004709e+00 -1.9505462824e-03 1.8392021037e+00 -3.1855914889e+00 1.8392021037e+00 3.1855914889e+00 
29700 6.7849024165e+00 -1.8470300595e-03 1.8392551309e+00 -3.1856833348e+00 1.8392551309e+00 3.1856833348e+00 
29800 6.7849044718e+00 -1.7435139137e-03 1.8393053425e+00 -3.1857703038e+00 1.8393053425e+00 3.1857703038e+00 
29900 6.7849066258e+00 -1.6401355280e-03 1.8393527387e+00 -3.1858523964e+00 1.8393527387e+00 3.1858523964e+00 
30000 6.7849088670e+00 -1.5370292285e-03 1.8393973234e+00 -3.1859296195e+00 1.8393973234e+00 3.1859296195e+00 
30100 6.7849111842e+00 -1.4343258809e-03 1.8394391044e+00 -3.1860019862e+00 1.8394391044e+00 3.1860019862e+00 
30200 6.7849135661e+00 -1.3321527937e-03 1.8394780926e+00 -3.1860695158e+00 1.8394780926e+00 3.1860695158e+00 
30300 6.7849160015e+00 -1.2306336292e-03 1.8395143028e+00 -3.1861322337e+00 1.8395143028e+00 3.1861322337e+00 
30400 6.7849184796e+00 -1.1298883198e-03 1.8395477529e+00 -3.1861901710e+00 1.8395477529e+00 3.1861901710e+00 
30500 6.7849209896e+00 -1.0300329922e-03 1.8395784640e+00 -3.1862433642e+00 1.8395784640e+00 3.1862433642e+00 
30600 6.7849235212e+00 -9.3117989813e-04 1.8396064605e+00 -3.1862918556e+00 1.8396064605e+00 3.1862918556e+00 
30700 6.7849260641e+00 -8.3343735165e-04 1.8396317698e+00 -3.1863356925e+00 1.8396317698e+00 3.1863356925e+00 
30800 6.7849286087e+00 -7.3690967298e-04 1.8396544221e+00 -3.1863749275e+00 1.8396544221e+00 3.1863749275e+00 
30900 6.7849311456e+00 -6.4169713933e-04 1.8396744506e+00 -3.1864096179e+00 1.8396744506e+00 3.1864096179e+00 
31000 6.7849336658e+00 -5.4789594201e-04 1.8396918912e+00 -3.1864398258e+00 1.8396918912e+00 3.1864398258e+00 
31100 6.7849361608e+00 -4.5559815020e-04 1.8397067822e+00 -3.1864656177e+00 1.8397067822e+00 3.1864656177e+00 
31200 6.7849386225e+00 -3.6489168099e-04 1.8397191645e+00 -3.1864870646e+00 1.8397191645e+00 3.1864870646e+00 
31300 6.7849410435e+00 -2.7586027581e-04 1.8397290816e+00 -3.1865042415e+00 1.8397290816e+00 3.1865042415e+00 
31400 6.7849434166e+00 -1.8858348315e-04 1.8397365789e+00 -3.1865172272e+00 1.8397365789e+00 3.1865172272e+00 
31500 6.7849457353e+00 -1.0313664725e-04 1.8397417042e+00 -3.1865261045e+00 1.8397417042e+00 3.1865261045e+00 
31600 6.7849479937e+00 -1.9590902986e-05 1.8397445072e+00 -3.1865309594e+00 1.8397445072e+00 3.1865309594e+00 
31700 6.7849501861e+00 6.1423179985e-05 1.8397445072e+00 -3.1865309594e+00 1.8397445072e+00 3.1865309594e+00 
31800 6.7849523082e+00 1.4275067287e-04 1.8397445072e+00 -3.1865309594e+00 1.8397445072e+00 3.1865309594e+00 
31900 6.7849543549e+00 2.2017984155e-04 1.8397406276e+00 -3.1865242397e+00 1.8397406276e+00 3.1865242397e+00 
32000 6.7849563227e+00 2.9546624828e-04 1.8397346436e+00 -3.1865138752e+00 1.8397346436e+00 3.1865138752e+00 
32100 6.7849582081e+00 3.6855963822e-04 1.8397266135e+00 -3.1864999666e+00 1.8397266135e+00 3.1864999666e+00 
32200 6.7849600083e+00 4.3941387964e-04 1.8397165968e+00 -3.1864826172e+00 1.8397165968e+00 3.1864826172e+00 
32300 6.7849617211e+00 5.0798693049e-04 1.8397046544e+00 -3.1864619323e+00 1.8397046544e+00 3.1864619323e+00 
32400 6.7849633448e+00 5.7424080015e-04 1.8396908482e+00 -3.1864380193e+00 1.8396908482e+00 3.1864380193e+00 
32500 6.7849648779e+00 6.3814150633e-04 1.8396752412e+00 -3.1864109872e+00 1.8396752412e+00 3.1864109872e+00 
32600 6.7849663198e+00 6.9965902741e-04 1.8396578974e+00 -3.1863809468e+00 1.8396578974e+00 3.1863809468e+00 
32700 6.7849676700e+00 7.5876725037e-04 1.8396388814e+00 -3.1863480101e+00 1.8396388814e+00 3.1863480101e+00 
32800 6.7849689287e+00 8.1544391451e-04 1.8396182587e+00 -3.1863122906e+00 1.8396182587e+00 3.1863122906e+00 
32900 6.7849700963e+00 8.6967055105e-04 1.8395960954e+00 -3.1862739026e+00 1.8395960954e+00 3.1862739026e+00 
33000 6.7849711738e+00 9.2143241887e-04 1.8395724579e+00 -3.1862329612e+00 1.8395724579e+00 3.1862329612e+00 
33100 6.7849721624e+00 9.7071843658e-04 1.8395474132e+00 -3.1861895826e+00 1.8395474132e+00 3.1861895826e+00 
33200 6.7849730638e+00 1.0175211110e-03 1.8395210285e+00 -3.1861438830e+00 1.8395210285e+00 3.1861438830e+00 
33300 6.7849738799e+00 1.0618364623e-03 1.8394933714e+00 -3.1860959794e+00 1.8394933714e+00 3.1860959794e+00 
33400 6.7849746130e+00 1.1036639463e-03 1.8394645092e+00 -3.1860459887e+00 1.8394645092e+00 3.1860459887e+00 
33500 6.7849752656e+00 1.1430063732e-03 1.8394345097e+00 -3.1859940280e+00 1.8394345097e+00 3.1859940280e+00 
33600 6.7849758405e+00 1.1798698241e-03 1.8394034403e+00 -3.1859402142e+00 1.8394034403e+00 3.1859402142e+00 
33700 6.7849763407e+00 1.2142635647e-03 1.8393713683e+00 -3.1858846639e+00 1.8393713683e+00 3.1858846639e+00 
33800 6.7849767694e+00 1.2461999567e-03 1.8393383609e+00 -3.1858274933e+00 1.8393383609e+00 3.1858274933e+00 
33900 6.7849771301e+00 1.2756943668e-03 1.8393044846e+00 -3.1857688180e+00 1.8393044846e+00 3.1857688180e+00 
34000 6.7849774262e+00 1.3027650742e-03 1.8392698060e+00 -3.1857087529e+00 1.8392698060e+00 3.1857087529e+00 
34100 6.7849776615e+00 1.3274331752e-03 1.8392343909e+00 -3.1856474120e+00 1.8392343909e+00 3.1856474120e+00 
34200 6.7849778396e+00 1.3497224875e-03 1.8391983044e+00 -3.1855849085e+00 1.8391983044e+00 3.1855849085e+00 
34300 6.7849779645e+00 1.3696594524e-03 1.8391616113e+00 -3.1855213541e+00 1.8391616113e+00 3.1855213541e+00 
34400 6.7849780401e+00 1.3872730351e-03 1.8391243755e+00 -3.1854568598e+00 1.8391243755e+00 3.1854568598e+00 
34500 6.7849780703e+00 1.4025946251e-03 1.8390866600e+00 -3.1853915347e+00 1.8390866600e+00 3.1853915347e+00 
34600 6.7849780590e+00 1.4156579348e-03 1.8390485272e+00 -3.1853254868e+00 1.8390485272e+00 3.1853254868e+00 
34700 6.7849780102e+00 1.4264988978e-03 1.8390100385e+00 -3.1852588223e+00 1.8390100385e+00 3.1852588223e+00 
34800 6.7849779277e+00 1.4351555662e-03 1.8389712542e+00 -3.1851916460e+00 1.8389712542e+00 3.1851916460e+00 
34900 6.7849778156e+00 1.4416680078e-03 1.8389322337e+00 -3.1851240605e+00 1.8389322337e+00 3.1851240605e+00 
35000 6.7849776775e+00 1.4460782032e-03 1.8388930354e+00 -3.1850561669e+00 1.8388930354e+00 3.1850561669e+00 
35100 6.7849775173e+00 1.4484299422e-03 1.8388537163e+00 -3.1849880642e+00 1.8388537163e+00 3.1849880642e+00 
35200 6.7849773384e+00 1.4487687207e-03 1.8388143323e+00 -3.1849198493e+00 1.8388143323e+00 3.1849198493e+00 
35300 6.7849771446e+00 1.4471416379e-03 1.8387749384e+00 -3.1848516170e+00 1.8387749384e+00 3.1848516170e+00 
35400 6.7849769390e+00 1.4435972934e-03 1.8387355878e+00 -3.1847834598e+00 1.8387355878e+00 3.1847834598e+00 
35500 6.7849767252e+00 1.4381856851e-03 1.8386963328e+00 -3.1847154681e+00 1.8386963328e+00 3.1847154681e+00 
35600 6.7849765061e+00 1.4309581078e-03 1.8386572241e+00 -3.1846477299e+00 1.8386572241e+00 3.1846477299e+00 
35700 6.7849762847e+00 1.4219670522e-03 1.8386183111e+00 -3.1845803306e+00 1.8386183111e+00 3.1845803306e+00 
35800 6.7849760639e+00 1.4112661054e-03 1.8385796418e+00 -3.1845133534e+00 1.8385796418e+00 3.1845133534e+00 
35900 6.7849758464e+00 1.3989098513e-03 1.8385412627e+00 -3.1844468788e+00 1.8385412627e+00 3.1844468788e+00 
36000 6.7849756345e+00 1.3849537736e-03 1.8385032188e+00 -3.1843809848e+00 1.8385032188e+00 3.1843809848e+00 
36100 6.7849754307e+00 1.3694541587e-03 1.8384655537e+00 -3.1843157469e+00 1.8384655537e+00 3.1843157469e+00 
36200 6.7849752371e+00 1.3524680007e-03 1.8384283093e+00 -3.1842512378e+00 1.8384283093e+00 3.1842512378e+00 
36300 6.7849750555e+00 1.3340529078e-03 1.8383915262e+00 -3.1841875275e+00 1.8383915262e+00 3.1841875275e+00 
36400 6.7849748878e+00 1.3142670095e-03 1.8383552431e+00 -3.1841246835e+00 1.8383552431e+00 3.1841246835e+00 
36500 6.7849747356e+00 1.2931688667e-03 1.8383194975e+00 -3.1840627702e+00 1.8383194975e+00 3.1840627702e+00 
36600 6.7849746002e+00 1.2708173821e-03 1.8382843251e+00 -3.1840018497e+00 1.8382843251e+00 3.1840018497e+00 
36700 6.7849744829e+00 1.2472717137e-03 1.8382497598e+00 -3.1839419811e+00 1.8382497598e+00 3.1839419811e+00 
36800 6.7849743848e+00 1.2225911890e-03 1.8382158344e+00 -3.1838832205e+00 1.8382158344e+00 3.1838832205e+00 
36900 6.7849743067e+00 1.1968352220e-03 1.8381825797e+00 -3.1838256216e+00 1.8381825797e+00 3.1838256216e+00 
37000 6.7849742494e+00 1.1700632317e-03 1.8381500249e+00 -3.1837692351e+00 1.8381500249e+00 3.1837692351e+00 
37100 6.7849742133e+00 1.1423345632e-03 1.8381181978e+00 -3.1837141090e+00 1.8381181978e+00 3.1837141090e+00 
37200 6.7849741988e+00 1.1137084097e-03 1.8380871244e+00 -3.1836602883e+00 1.8380871244e+00 3.1836602883e+00 
37300 6.7849742062e+00 1.0842437387e-03 1.8380568292e+00 -3.1836078154e+00 1.8380568292e+00 3.1836078154e+00 
37400 6.7849742356e+00 1.0539992180e-03 1.8380273350e+00 -3.1835567299e+00 1.8380273350e+00 3.1835567299e+00 
37500 6.7849742870e+00 1.0230331462e-03 1.8379986631e+00 -3.1835070687e+00 1.8379986631e+00 3.1835070687e+00 
37600 6.7849743600e+00 9.9140338358e-04 1.8379708330e+00 -3.1834588657e+00 1.8379708330e+00 3.1834588657e+00 
37700 6.7849744544e+00 9.5916728688e-04 1.8379438631e+00 -3.1834121523e+00 1.8379438631e+00 3.1834121523e+00 
37800 6.7849745698e+00 9.2638164529e-04 1.8379177696e+00 -3.1833669571e+00 1.8379177696e+00 3.1833669571e+00 
37900 6.7849747056e+00 8.9310261937e-04 1.8378925678e+00 -3.1833233062e+00 1.8378925678e+00 3.1833233062e+00 
38000 6.7849748612e+00 8.5938568222e-04 1.8378682709e+00 -3.1832812228e+00 1.8378682709e+00 3.1832812228e+00 
38100 6.7849750359e+00 8.2528556308e-04 1.8378448910e+00 -3.1832407276e+00 1.8378448910e+00 3.1832407276e+00 
38200 6.7849752287e+00 7.9085619328e-04 1.8378224385e+00 -3.1832018387e+00 1.8378224385e+00 3.1832018387e+00 
38300 6.7849754389e+00 7.5615065468e-04 1.8378009224e+00 -3.1831645718e+00 1.8378009224e+00 3.1831645718e+00 
38400 6.7849756655e+00 7.2122113051e-04 1.8377803503e+00 -3.1831289398e+00 1.8377803503e+00 3.1831289398e+00 
38500 6.7849759074e+00 6.8611885868e-04 1.8377607283e+00 -3.1830949535e+00 1.8377607283e+00 3.1830949535e+00 
38600 6.7849761636e+00 6.5089408741e-04 1.8377420610e+00 -3.1830626209e+00 1.8377420610e+00 3.1830626209e+00 
38700 6.7849764329e+00 6.1559603340e-04 1.8377243520e+00 -3.1830319479e+00 1.8377243520e+00 3.1830319479e+00 
38800 6.7849767143e+00 5.8027284233e-04 1.8377076031e+00 -3.1830029381e+00 1.8377076031e+00 3.1830029381e+00 
38900 6.7849770065e+00 5.4497155181e-04 1.8376918152e+00 -3.1829755926e+00 1.8376918152e+00 3.1829755926e+00 
39000 6.7849773083e+00 5.0973805664e-04 1.8376769876e+00 -3.1829499105e+00 1.8376769876e+00 3.1829499105e+00 
39100 6.7849776186e+00 4.7461707654e-04 1.8376631186e+00 -3.1829258885e+00 1.8376631186e+00 3.1829258885e+00 
39200 6.7849779361e+00 4.3965212612e-04 1.8376502050e+00 -3.1829035215e+00 1.8376502050e+00 3.1829035215e+00 
39300 6.7849782596e+00 4.0488548723e-04 1.8376382426e+00 -3.1828828022e+00 1.8376382426e+00 3.1828828022e+00 
39400 6.7849785880e+00 3.7035818358e-04 1.8376272262e+00 -3.1828637211e+00 1.8376272262e+00 3.1828637211e+00 
39500 6.7849789201e+00 3.3610995768e-04 1.8376171491e+00 -3.1828462671e+00 1.8376171491e+00 3.1828462671e+00 
39600 6.7849792546e+00 3.0217924992e-04 1.8376080039e+00 -3.1828304271e+00 1.8376080039e+00 3.1828304271e+00 
39700 6.7849795906e+00 2.6860317996e-04 1.8375997818e+00 -3.1828161860e+00 1.8375997818e+00 3.1828161860e+00 
39800 6.7849799267e+00 2.3541753022e-04 1.8375924733e+00 -3.1828035273e+00 1.8375924733e+00 3.1828035273e+00 
39900 6.7849802621e+00 2.0265673156e-04 1.8375860677e+00 -3.1827924325e+00 1.8375860677e+00 3.1827924325e+00 
40000 6.7849805957e+00 1.7035385101e-04 1.8375805535e+00 -3.1827828816e+00 1.8375805535e+00 3.1827828816e+00 
40100 6.7849809264e+00 1.3854058161e-04 1.8375759182e+00 -3.1827748530e+00 1.8375759182e+00 3.1827748530e+00 
40200 6.7849812534e+00 1.0724723421e-04 1.8375721485e+00 -3.1827683238e+00 1.8375721485e+00 3.1827683238e+00 
40300 6.7849815758e+00 7.6502731348e-05 1.8375692303e+00 -3.1827632694e+00 1.8375692303e+00 3.1827632694e+00 
40400 6.7849818927e+00 4.6334602936e-05 1.8375671487e+00 -3.1827596639e+00 1.8375671487e+00 3.1827596639e+00 
40500 6.7849822034e+00 1.8109565467e-05 1.8375671487e+00 -3.1827596639e+00 1.8375671487e+00 3.1827596639e+00 
40600 6.7849825070e+00 -1.0336515037e-05 1.8375671487e+00 -3.1827596639e+00 1.8375671487e+00 3.1827596639e+00 
40700 6.7849828030e+00 -3.8966403021e-05 1.8375671487e+00 -3.1827596639e+00 1.8375671487e+00 3.1827596639e+00 
40800 6.7849830908e+00 -6.7743655212e-05 1.8375671487e+00 -3.1827596639e+00 1.8375671487e+00 3.1827596639e+00 
40900 6.7849833701e+00 -9.6632639323e-05 1.8375671487e+00 -3.1827596639e+00 1.8375671487e+00 3.1827596639e+00 
41000 6.7849836399e+00 -1.2280310293e-04 1.8375697781e+00 -3.1827642181e+00 1.8375697781e+00 3.1827642181e+00 
41100 6.7849839000e+00 -1.4824469642e-04 1.8375731195e+00 -3.1827700057e+00 1.8375731195e+00 3.1827700057e+00 
41200 6.7849841500e+00 -1.7294090687e-04 1.8375771532e+00 -3.1827769923e+00 1.8375771532e+00 3.1827769923e+00 
41300 6.7849843896e+00 -1.9687657534e-04 1.8375818589e+00 -3.1827851427e+00 1.8375818589e+00 3.1827851427e+00 
41400 6.7849846185e+00 -2.2003788419e-04 1.8375872159e+00 -3.1827944212e+00 1.8375872159e+00 3.1827944212e+00 
41500 6.7849848366e+00 -2.4241234314e-04 1.8375932030e+00 -3.1828047913e+00 1.8375932030e+00 3.1828047913e+00 
41600 6.7849850437e+00 -2.6398877383e-04 1.8375997989e+00 -3.1828162158e+00 1.8375997989e+00 3.1828162158e+00 
41700 6.7849852396e+00 -2.8475729318e-04 1.8376069819e+00 -3.1828286570e+00 1.8376069819e+00 3.1828286570e+00 
41800 6.7849854245e+00 -3.0470929546e-04 1.8376147300e+00 -3.1828420771e+00 1.8376147300e+00 3.1828420771e+00 
41900 6.7849855982e+00 -3.2383743318e-04 1.8376230209e+00 -3.1828564373e+00 1.8376230209e+00 3.1828564373e+00 
42000 6.7849857608e+00 -3.4213559689e-04 1.8376318322e+00 -3.1828716990e+00 1.8376318322e+00 3.1828716990e+00 
42100 6.7849859125e+00 -3.5959889378e-04 1.8376411413e+00 -3.1828878229e+00 1.8376411413e+00 3.1828878229e+00 
42200 6.7849860533e+00 -3.7622362537e-04 1.8376509256e+00 -3.1829047697e+00 1.8376509256e+00 3.1829047697e+00 
42300 6.7849861835e+00 -3.9200726418e-04 1.8376611622e+00 -3.1829225000e+00 1.8376611622e+00 3.1829225000e+00 
42400 6.7849863033e+00 -4.0694842937e-04 1.8376718281e+00 -3.1829409739e+00 1.8376718281e+00 3.1829409739e+00 
42500 6.7849864130e+00 -4.2104686170e-04 1.8376829005e+00 -3.1829601519e+00 1.8376829005e+00 3.1829601519e+00 
42600 6.7849865127e+00 -4.3430339748e-04 1.8376943564e+00 -3.1829799941e+00 1.8376943564e+00 3.1829799941e+00 
42700 6.7849866030e+00 -4.4671994186e-04 1.8377061730e+00 -3.1830004610e+00 1.8377061730e+00 3.1830004610e+00 
42800 6.7849866840e+00 -4.5829944135e-04 1.8377183273e+00 -3.1830215128e+00 1.8377183273e+00 3.1830215128e+00 
42900 6.7849867561e+00 -4.6904585567e-04 1.8377307965e+00 -3.1830431102e+00 1.8377307965e+00 3.1830431102e+00 
43000 6.7849868199e+00 -4.7896412900e-04 1.8377435581e+00 -3.1830652139e+00 1.8377435581e+00 3.1830652139e+00 
43100 6.7849868756e+00 -4.8806016068e-04 1.8377565894e+00 -3.1830877848e+00 1.8377565894e+00 3.1830877848e+00 
43200 6.7849869237e+00 -4.9634077529e-04 1.8377698681e+00 -3.1831107842e+00 1.8377698681e+00 3.1831107842e+00 
43300 6.7849869646e+00 -5.0381369238e-04 1.8377833720e+00 -3.1831341737e+00 1.8377833720e+00 3.1831341737e+00 
43400 6.7849869987e+00 -5.1048749571e-04 1.8377970792e+00 -3.1831579151e+00 1.8377970792e+00 3.1831579151e+00 
43500 6.7849870266e+00 -5.1637160212e-04 1.8378109677e+00 -3.1831819708e+00 1.8378109677e+00 3.1831819708e+00 
43600 6.7849870487e+00 -5.2147623008e-04 1.8378250163e+00 -3.1832063037e+00 1.8378250163e+00 3.1832063037e+00 
43700 6.7849870654e+00 -5.2581236797e-04 1.8378392036e+00 -3.1832308769e+00 1.8378392036e+00 3.1832308769e+00 
43800 6.7849870772e+00 -5.2939174207e-04 1.8378535088e+00 -3.1832556542e+00 1.8378535088e+00 3.1832556542e+00 
43900 6.7849870846e+00 -5.3222678445e-04 1.8378679113e+00 -3.1832806000e+00 1.8378679113e+00 3.1832806000e+00 
44000 6.7849870879e+00 -5.3433060061e-04 1.8378823908e+00 -3.1833056792e+00 1.8378823908e+00 3.1833056792e+00 
44100 6.7849870878e+00 -5.3571693708e-04 1.8378969274e+00 -3.1833308573e+00 1.8378969274e+00 3.1833308573e+00 
44200 6.7849870845e+00 -5.3640014898e-04 1.8379115016e+00 -3.1833561006e+00 1.8379115016e+00 3.1833561006e+00 
44300 6.7849870785e+00 -5.3639516746e-04 1.8379260943e+00 -3.1833813758e+00 1.8379260943e+00 3.1833813758e+00 
44400 6.7849870703e+00 -5.3571746725e-04 1.8379406867e+00 -3.1834066507e+00 1.8379406867e+00 3.1834066507e+00 
44500 6.7849870602e+00 -5.3438303426e-04 1.8379552606e+00 -3.1834318933e+00 1.8379552606e+00 3.1834318933e+00 
44600 6.7849870487e+00 -5.3240833324e-04 1.8379697980e+00 -3.1834570729e+00 1.8379697980e+00 3.1834570729e+00 
44700 6.7849870361e+00 -5.2981027559e-04 1.8379842816e+00 -3.1834821593e+00 1.8379842816e+00 3.1834821593e+00 
44800 6.7849870227e+00 -5.2660618740e-04 1.8379986945e+00 -3.1835071231e+00 1.8379986945e+00 3.1835071231e+00 
44900 6.7849870089e+00 -5.2281377758e-04 1.8380130200e+00 -3.1835319356e+00 1.8380130200e+00 3.1835319356e+00 
45000 6.7849869951e+00 -5.1845110637e-04 1.8380272423e+00 -3.1835565693e+00 1.8380272423e+00 3.1835565693e+00 
45100 6.7849869815e+00 -5.1353655402e-04 1.8380413458e+00 -3.1835809973e+00 1.8380413458e+00 3.1835809973e+00 
45200 6.7849869685e+00 -5.0808878986e-04 1.8380553155e+00 -3.1836051935e+00 1.8380553155e+00 3.1836051935e+00 
45300 6.7849869562e+00 -5.0212674165e-04 1.8380691368e+00 -3.1836291328e+00 1.8380691368e+00 3.1836291328e+00 
45400 6.7849869450e+00 -4.9566956536e-04 1.8380827959e+00 -3.1836527911e+00 1.8380827959e+00 3.1836527911e+00 
45500 6.7849869350e+00 -4.8873661529e-04 1.8380962793e+00 -3.1836761449e+00 1.8380962793e+00 3.1836761449e+00 
45600 6.7849869264e+00 -4.8134741467e-04 1.8381095739e+00 -3.1836991719e+00 1.8381095739e+00 3.1836991719e+00 
45700 6.7849869195e+00 -4.7352162675e-04 1.8381226675e+00 -3.1837218507e+00 1.8381226675e+00 3.1837218507e+00 
45800 6.7849869144e+00 -4.6527902622e-04 1.8381355481e+00 -3.1837441605e+00 1.8381355481e+00 3.1837441605e+00 
45900 6.7849869112e+00 -4.5663947137e-04 1.8381482044e+00 -3.1837660818e+00 1.8381482044e+00 3.1837660818e+00 
46000 6.7849869101e+00 -4.4762287657e-04 1.8381606256e+00 -3.1837875960e+00 1.8381606256e+00 3.1837875960e+00 
46100 6.7849869112e+00 -4.3824918544e-04 1.8381728014e+00 -3.1838086852e+00 1.8381728014e+00 3.1838086852e+00 
46200 6.7849869145e+00 -4.2853834452e-04 1.8381847222e+00 -3.1838293326e+00 1.8381847222e+00 3.1838293326e+00 
46300 6.7849869200e+00 -4.1851027763e-04 1.8381963788e+00 -3.1838495224e+00 1.8381963788e+00 3.1838495224e+00 
46400 6.7849869280e+00 -4.0818486071e-04 1.8382077625e+00 -3.1838692396e+00 1.8382077625e+00 3.1838692396e+00 
46500 6.7849869383e+00 -3.9758189744e-04 1.8382188653e+00 -3.1838884702e+00 1.8382188653e+00 3.1838884702e+00 
46600 6.7849869510e+00 -3.8672109538e-04 1.8382296797e+00 -3.1839072012e+00 1.8382296797e+00 3.1839072012e+00 
46700 6.7849869661e+00 -3.7562204290e-04 1.8382401985e+00 -3.1839254204e+00 1.8382401985e+00 3.1839254204e+00 
46800 6.7849869836e+00 -3.6430418667e-04 1.8382504154e+00 -3.1839431166e+00 1.8382504154e+00 3.1839431166e+00 
46900 6.7849870034e+00 -3.5278680998e-04 1.8382603244e+00 -3.1839602795e+00 1.8382603244e+00 3.1839602795e+00 
47000 6.7849870256e+00 -3.4108901160e-04 1.8382699201e+00 -3.1839768997e+00 1.8382699201e+00 3.1839768997e+00 
47100 6.7849870499e+00 -3.2922968553e-04 1.8382791976e+00 -3.1839929687e+00 1.8382791976e+00 3.1839929687e+00 
47200 6.7849870764e+00 -3.1722750137e-04 1.8382881524e+00 -3.1840084789e+00 1.8382881524e+00 3.1840084789e+00 
47300 6.7849871050e+00 -3.0510088540e-04 1.8382967808e+00 -3.1840234237e+00 1.8382967808e+00 3.1840234237e+00 
47400 6.7849871356e+00 -2.9286800257e-04 1.8383050792e+00 -3.1840377970e+00 1.8383050792e+00 3.1840377970e+00 
47500 6.7849871681e+00 -2.8054673902e-04 1.8383130449e+00 -3.1840515941e+00 1.8383130449e+00 3.1840515941e+00 
47600 6.7849872023e+00 -2.6815468553e-04 1.8383206755e+00 -3.1840648106e+00 1.8383206755e+00 3.1840648106e+00 
47700 6.7849872383e+00 -2.5570912162e-04 1.8383279690e+00 -3.1840774432e+00 1.8383279690e+00 3.1840774432e+00 
47800 6.7849872758e+00 -2.4322700050e-04 1.8383349239e+00 -3.1840894895e+00 1.8383349239e+00 3.1840894895e+00 
47900 6.7849873147e+00 -2.3072493472e-04 1.8383415393e+00 -3.1841009478e+00 1.8383415393e+00 3.1841009478e+00 
48000 6.7849873550e+00 -2.1821918260e-04 1.8383478147e+00 -3.1841118170e+00 1.8383478147e+00 3.1841118170e+00 
48100 6.7849873964e+00 -2.0572563547e-04 1.8383537499e+00 -3.1841220971e+00 1.8383537499e+00 3.1841220971e+00 
48200 6.7849874389e+00 -1.9325980561e-04 1.8383593453e+00 -3.1841317886e+00 1.8383593453e+00 3.1841317886e+00 
48300 6.7849874823e+00 -1.8083681500e-04 1.8383646016e+00 -3.1841408928e+00 1.8383646016e+00 3.1841408928e+00 
48400 6.7849875265e+00 -1.6847138485e-04 1.8383695200e+00 -3.1841494117e+00 1.8383695200e+00 3.1841494117e+00 
48500 6.7849875714e+00 -1.5617782581e-04 1.8383741021e+00 -3.1841573481e+00 1.8383741021e+00 3.1841573481e+00 
48600 6.7849876167e+00 -1.4397002901e-04 1.8383783498e+00 -3.1841647054e+00 1.8383783498e+00 3.1841647054e+00 
48700 6.7849876624e+00 -1.3186145783e-04 1.8383822655e+00 -3.1841714876e+00 1.8383822655e+00 3.1841714876e+00 
48800 6.7849877084e+00 -1.1986514038e-04 1.8383858518e+00 -3.1841776993e+00 1.8383858518e+00 3.1841776993e+00 
48900 6.7849877545e+00 -1.0799366275e-04 1.8383891119e+00 -3.1841833459e+00 1.8383891119e+00 3.1841833459e+00 
49000 6.7849878007e+00 -9.6259162982e-05 1.8383920491e+00 -3.1841884333e+00 1.8383920491e+00 3.1841884333e+00 
49100 6.7849878467e+00 -8.4673325752e-05 1.8383946671e+00 -3.1841929678e+00 1.8383946671e+00 3.1841929678e+00 
49200 6.7849878925e+00 -7.3247377751e-05 1.8383969700e+00 -3.1841969566e+00 1.8383969700e+00 3.1841969566e+00 
49300 6.7849879379e+00 -6.1992083790e-05 1.8383989622e+00 -3.1842004071e+00 1.8383989622e+00 3.1842004071e+00 
49400 6.7849879830e+00 -5.2707295013e-05 1.8383989622e+00 -3.1842004071e+00 1.8383989622e+00 3.1842004071e+00 
49500 6.7849880274e+00 -4.3303227045e-05 1.8383989622e+00 -3.1842004071e+00 1.8383989622e+00 3.1842004071e+00 
49600 6.7849880712e+00 -3.3793362540e-05 1.8383989622e+00 -3.1842004071e+00 1.8383989622e+00 3.1842004071e+00 
49700 6.7849881142e+00 -2.4190932416e-05 1.8383989622e+00 -3.1842004071e+00 1.8383989622e+00 3.1842004071e+00 
49800 6.7849881564e+00 -1.4508908368e-05 1.8383989622e+00 -3.1842004071e+00 1.8383989622e+00 3.1842004071e+00 
49900 6.7849881977e+00 -4.7599958403e-06 1.8383989622e+00 -3.1842004071e+00 1.8383989622e+00 3.1842004071e+00 
50000 6.7849882380e+00 5.0433725413e-06 1.8383989622e+00 -3.1842004071e+00 1.8383989622e+00 3.1842004071e+00 
50100 6.7849882773e+00 1.4889043127e-05 1.8383989622e+00 -3.1842004071e+00 1.8383989622e+00 3.1842004071e+00 
50200 6.7849883156e+00 2.4765146943e-05 1.8383989622e+00 -3.1842004071e+00 1.8383989622e+00 3.1842004071e+00 
50300 6.7849883528e+00 3.4660104945e-05 1.8383989622e+00 -3.1842004071e+00 1.8383989622e+00 3.1842004071e+00 
50400 6.7849883889e+00 4.4562632870e-05 1.8383989622e+00 -3.1842004071e+00 1.8383989622e+00 3.1842004071e+00 
50500 6.7849884238e+00 5.4461745634e-05 1.8383989622e+00 -3.1842004071e+00 1.8383989622e+00 3.1842004071e+00 
50600 6.7849884575e+00 6.4346761323e-05 1.8383989622e+00 -3.1842004071e+00 1.8383989622e+00 3.1842004071e+00 
50700 6.7849884901e+00 7.4207304743e-05 1.8383989622e+00 -3.1842004071e+00 1.8383989622e+00 3.1842004071e+00 
50800 6.7849885212e+00 8.1890891323e-05 1.8383969439e+00 -3.1841969114e+00 1.8383969439e+00 3.1841969114e+00 
50900 6.7849885511e+00 8.9296819513e-05 1.8383947167e+00 -3.1841930537e+00 1.8383947167e+00 3.1841930537e+00 
51000 6.7849885797e+00 9.6422072520e-05 1.8383922880e+00 -3.1841888471e+00 1.8383922880e+00 3.1841888471e+00 
51100 6.7849886070e+00 1.0326406465e-04 1.8383896656e+00 -3.1841843049e+00 1.8383896656e+00 3.1841843049e+00 
51200 6.7849886330e+00 1.0982063453e-04 1.8383868570e+00 -3.1841794403e+00 1.8383868570e+00 3.1841794403e+00 
51300 6.7849886577e+00 1.1609003785e-04 1.8383838702e+00 -3.1841742669e+00 1.8383838702e+00 3.1841742669e+00 
51400 6.7849886812e+00 1.2207093986e-04 1.8383807128e+00 -3.1841687982e+00 1.8383807128e+00 3.1841687982e+00 
51500 6.7849887034e+00 1.2776240741e-04 1.8383773927e+00 -3.1841630476e+00 1.8383773927e+00 3.1841630476e+00 
51600 6.7849887244e+00 1.3316390070e-04 1.8383739178e+00 -3.1841570290e+00 1.8383739178e+00 3.1841570290e+00 
51700 6.7849887442e+00 1.3827526476e-04 1.8383702960e+00 -3.1841507559e+00 1.8383702960e+00 3.1841507559e+00 
51800 6.7849887628e+00 1.4309672053e-04 1.8383665352e+00 -3.1841442420e+00 1.8383665352e+00 3.1841442420e+00 
51900 6.7849887803e+00 1.4762885574e-04 1.8383626433e+00 -3.1841375009e+00 1.8383626433e+00 3.1841375009e+00 
52000 6.7849887967e+00 1.5187261557e-04 1.8383586281e+00 -3.1841305463e+00 1.8383586281e+00 3.1841305463e+00 
52100 6.7849888121e+00 1.5582929291e-04 1.8383544974e+00 -3.1841233918e+00 1.8383544974e+00 3.1841233918e+00 
52200 6.7849888264e+00 1.5950051861e-04 1.8383502591e+00 -3.1841160509e+00 1.8383502591e+00 3.1841160509e+00 
52300 6.7849888398e+00 1.6288825133e-04 1.8383459210e+00 -3.1841085370e+00 1.8383459210e+00 3.1841085370e+00 
52400 6.7849888522e+00 1.6599476734e-04 1.8383414907e+00 -3.1841008635e+00 1.8383414907e+00 3.1841008635e+00 
52500 6.7849888638e+00 1.6882265010e-04 1.8383369759e+00 -3.1840930437e+00 1.8383369759e+00 3.1840930437e+00 
52600 6.7849888745e+00 1.7137477966e-04 1.8383323842e+00 -3.1840850906e+00 1.8383323842e+00 3.1840850906e+00 
52700 6.7849888845e+00 1.7365432199e-04 1.8383277230e+00 -3.1840770172e+00 1.8383277230e+00 3.1840770172e+00 
52800 6.7849888937e+00 1.7566471813e-04 1.8383229999e+00 -3.1840688365e+00 1.8383229999e+00 3.1840688365e+00 
52900 6.7849889023e+00 1.7740967330e-04 1.8383182220e+00 -3.1840605610e+00 1.8383182220e+00 3.1840605610e+00 
53000 6.7849889102e+00 1.7889314587e-04 1.8383133967e+00 -3.1840522033e+00 1.8383133967e+00 3.1840522033e+00 
53100 6.7849889175e+00 1.8011933632e-04 1.8383085310e+00 -3.1840437757e+00 1.8383085310e+00 3.1840437757e+00 
53200 6.7849889244e+00 1.8109267608e-04 1.8383036320e+00 -3.1840352903e+00 1.8383036320e+00 3.1840352903e+00 
53300 6.7849889307e+00 1.8181781640e-04 1.8382987064e+00 -3.1840267590e+00 1.8382987064e+00 3.1840267590e+00 
53400 6.7849889366e+00 1.8229961716e-04 1.8382937612e+00 -3.1840181936e+00 1.8382937612e+00 3.1840181936e+00 
53500 6.7849889422e+00 1.8254313571e-04 1.8382888028e+00 -3.1840096054e+00 1.8382888028e+00 3.1840096054e+00 
53600 6.7849889474e+00 1.8255361568e-04 1.8382838377e+00 -3.1840010057e+00 1.8382838377e+00 3.1840010057e+00 
53700 6.7849889523e+00 1.8233647582e-04 1.8382788724e+00 -3.1839924055e+00 1.8382788724e+00 3.1839924055e+00 
53800 6.7849889570e+00 1.8189729890e-04 1.8382739130e+00 -3.1839838155e+00 1.8382739130e+00 3.1839838155e+00 
53900 6.7849889614e+00 1.8124182068e-04 1.8382689655e+00 -3.1839752462e+00 1.8382689655e+00 3.1839752462e+00 
54000 6.7849889657e+00 1.8037591888e-04 1.8382640358e+00 -3.1839667077e+00 1.8382640358e+00 3.1839667077e+00 
54100 6.7849889699e+00 1.7930560226e-04 1.8382591296e+00 -3.1839582100e+00 1.8382591296e+00 3.1839582100e+00 
54200 6.7849889740e+00 1.7803699983e-04 1.8382542526e+00 -3.1839497627e+00 1.8382542526e+00 3.1839497627e+00 
54300 6.7849889780e+00 1.7657635008e-04 1.8382494100e+00 -3.1839413752e+00 1.8382494100e+00 3.1839413752e+00 
54400 6.7849889820e+00 1.7492999043e-04 1.8382446072e+00 -3.1839330564e+00 1.8382446072e+00 3.1839330564e+00 
54500 6.7849889860e+00 1.7310434665e-04 1.8382398491e+00 -3.1839248152e+00 1.8382398491e+00 3.1839248152e+00 
54600 6.7849889900e+00 1.7110592262e-04 1.8382351407e+00 -3.1839166600e+00 1.8382351407e+00 3.1839166600e+00 
54700 6.7849889941e+00 1.6894129003e-04 1.8382304866e+00 -3.1839085989e+00 1.8382304866e+00 3.1839085989e+00 
54800 6.7849889983e+00 1.6661707836e-04 1.8382258914e+00 -3.1839006397e+00 1.8382258914e+00 3.1839006397e+00 
54900 6.7849890025e+00 1.6413996502e-04 1.8382213594e+00 -3.1838927901e+00 1.8382213594e+00 3.1838927901e+00 
55000 6.7849890069e+00 1.6151666561e-04 1.8382168948e+00 -3.1838850571e+00 1.8382168948e+00 3.1838850571e+00 
55100 6.7849890115e+00 1.5875392437e-04 1.8382125015e+00 -3.1838774477e+00 1.8382125015e+00 3.1838774477e+00 
55200 6.7849890162e+00 1.5585850487e-04 1.8382081833e+00 -3.1838699684e+00 1.8382081833e+00 3.1838699684e+00 
55300 6.7849890210e+00 1.5283718086e-04 1.8382039439e+00 -3.1838626255e+00 1.8382039439e+00 3.1838626255e+00 
55400 6.7849890261e+00 1.4969672732e-04 1.8381997867e+00 -3.1838554250e+00 1.8381997867e+00 3.1838554250e+00 
55500 6.7849890313e+00 1.4644391172e-04 1.8381957148e+00 -3.1838483724e+00 1.8381957148e+00 3.1838483724e+00 
55600 6.7849890367e+00 1.4308548555e-04 1.8381917315e+00 -3.1838414730e+00 1.8381917315e+00 3.1838414730e+00 
55700 6.7849890423e+00 1.3962817597e-04 1.8381878395e+00 -3.1838347318e+00 1.8381878395e+00 3.1838347318e+00 
55800 6.7849890481e+00 1.3607867781e-04 1.8381840415e+00 -3.1838281535e+00 1.8381840415e+00 3.1838281535e+00 
55900 6.7849890541e+00 1.3244364570e-04 1.8381803400e+00 -3.1838217424e+00 1.8381803400e+00 3.1838217424e+00 
56000 6.7849890603e+00 1.2872968652e-04 1.8381767375e+00 -3.1838155026e+00 1.8381767375e+00 3.1838155026e+00 
56100 6.7849890666e+00 1.2494335201e-04 1.8381732359e+00 -3.1838094377e+00 1.8381732359e+00 3.1838094377e+00 
56200 6.7849890732e+00 1.2109113171e-04 1.8381698373e+00 -3.1838035512e+00 1.8381698373e+00 3.1838035512e+00 
56300 6.7849890800e+00 1.1717944608e-04 1.8381665435e+00 -3.1837978462e+00 1.8381665435e+00 3.1837978462e+00 
56400 6.7849890869e+00 1.1321463994e-04 1.8381633561e+00 -3.1837923254e+00 1.8381633561e+00 3.1837923254e+00 
56500 6.7849890940e+00 1.0920297607e-04 1.8381602766e+00 -3.1837869915e+00 1.8381602766e+00 3.1837869915e+00 
56600 6.7849891013e+00 1.0515062919e-04 1.8381573061e+00 -3.1837818465e+00 1.8381573061e+00 3.1837818465e+00 
56700 6.7849891087e+00 1.0106368005e-04 1.8381544459e+00 -3.1837768925e+00 1.8381544459e+00 3.1837768925e+00 
56800 6.7849891162e+00 9.6948109941e-05 1.8381516969e+00 -3.1837721310e+00 1.8381516969e+00 3.1837721310e+00 
56900 6.7849891239e+00 9.2809795345e-05 1.8381490598e+00 -3.1837675634e+00 1.8381490598e+00 3.1837675634e+00 
57000 6.7849891317e+00 8.8654502886e-05 1.8381465352e+00 -3.1837631908e+00 1.8381465352e+00 3.1837631908e+00 
57100 6.7849891396e+00 8.4487884563e-05 1.8381441237e+00 -3.1837590139e+00 1.8381441237e+00 3.1837590139e+00 
57200 6.7849891476e+00 8.0315473207e-05 1.8381418255e+00 -3.1837550333e+00 1.8381418255e+00 3.1837550333e+00 
57300 6.7849891557e+00 7.6142678233e-05 1.8381396408e+00 -3.1837512493e+00 1.8381396408e+00 3.1837512493e+00 
57400 6.7849891638e+00 7.1974781630e-05 1.8381375696e+00 -3.1837476619e+00 1.8381375696e+00 3.1837476619e+00 
57500 6.7849891720e+00 6.7816934211e-05 1.8381356118e+00 -3.1837442709e+00 1.8381356118e+00 3.1837442709e+00 
57600 6.7849891804e+00 6.5633243969e-05 1.8381356118e+00 -3.1837442709e+00 1.8381356118e+00 3.1837442709e+00 
57700 6.7849891888e+00 6.3360331920e-05 1.8381356118e+00 -3.1837442709e+00 1.8381356118e+00 3.1837442709e+00 
57800 6.7849891971e+00 6.1003231696e-05 1.8381356118e+00 -3.1837442709e+00 1.8381356118e+00 3.1837442709e+00 
57900 6.7849892054e+00 5.8566928447e-05 1.8381356118e+00 -3.1837442709e+00 1.8381356118e+00 3.1837442709e+00 
58000 6.7849892137e+00 5.6056354923e-05 1.8381356118e+00 -3.1837442709e+00 1.8381356118e+00 3.1837442709e+00 
58100 6.7849892219e+00 5.3476387689e-05 1.8381356118e+00 -3.1837442709e+00 1.8381356118e+00 3.1837442709e+00 
58200 6.7849892301e+00 5.0831843503e-05 1.8381356118e+00 -3.1837442709e+00 1.8381356118e+00 3.1837442709e+00 
58300 6.7849892382e+00 4.8127475817e-05 1.8381356118e+00 -3.1837442709e+00 1.8381356118e+00 3.1837442709e+00 
58400 6.7849892462e+00 4.5367971447e-05 1.8381356118e+00 -3.1837442709e+00 1.8381356118e+00 3.1837442709e+00 
58500 6.7849892541e+00 4.2557947376e-05 1.8381356118e+00 -3.1837442709e+00 1.8381356118e+00 3.1837442709e+00 
58600 6.7849892619e+00 3.9701947709e-05 1.8381356118e+00 -3.1837442709e+00 1.8381356118e+00 3.1837442709e+00 
58700 6.7849892697e+00 3.6804440779e-05 1.8381356118e+00 -3.1837442709e+00 1.8381356118e+00 3.1837442709e+00 
58800 6.7849892772e+00 3.3869816391e-05 1.8381356118e+00 -3.1837442709e+00 1.8381356118e+00 3.1837442709e+00 
58900 6.7849892847e+00 3.0902383229e-05 1.8381356118e+00 -3.1837442709e+00 1.8381356118e+00 3.1837442709e+00 
59000 6.7849892921e+00 2.7906366397e-05 1.8381356118e+00 -3.1837442709e+00 1.8381356118e+00 3.1837442709e+00 
59100 6.7849892993e+00 2.4885905104e-05 1.8381356118e+00 -3.1837442709e+00 1.8381356118e+00 3.1837442709e+00 
59200 6.7849893063e+00 2.1845050511e-05 1.8381356118e+00 -3.1837442709e+00 1.8381356118e+00 3.1837442709e+00 
59300 6.7849893132e+00 1.8787763708e-05 1.8381356118e+00 -3.1837442709e+00 1.8381356118e+00 3.1837442709e+00 
59400 6.7849893200e+00 1.5717913838e-05 1.8381356118e+00 -3.1837442709e+00 1.8381356118e+00 3.1837442709e+00 
59500 6.7849893266e+00 1.2639276369e-05 1.8381356118e+00 -3.1837442709e+00 1.8381356118e+00 3.1837442709e+00 
59600 6.7849893330e+00 9.5555315048e-06 1.8381356118e+00 -3.1837442709e+00 1.8381356118e+00 3.1837442709e+00 
59700 6.7849893393e+00 6.4702627257e-06 1.8381356118e+00 -3.1837442709e+00 1.8381356118e+00 3.1837442709e+00 
59800 6.7849893455e+00 3.3869554903e-06 1.8381356118e+00 -3.1837442709e+00 1.8381356118e+00 3.1837442709e+00 
59900 6.7849893514e+00 3.0899604559e-07 1.8381356118e+00 -3.1837442709e+00 1.8381356118e+00 3.1837442709e+00 
60000 6.7849893573e+00 -2.7603296030e-06 1.8381356118e+00 -3.1837442709e+00 1.8381356118e+00 3.1837442709e+00 
60100 6.7849893629e+00 -5.8178366055e-06 1.8381356118e+00 -3.1837442709e+00 1.8381356118e+00 3.1837442709e+00 
60200 6.7849893684e+00 -8.8604420407e-06 1.8381356118e+00 -3.1837442709e+00 1.8381356118e+00 3.1837442709e+00 
60300 6.7849893737e+00 -1.1885165571e-05 1.8381356118e+00 -3.1837442709e+00 1.8381356118e+00 3.1837442709e+00 
60400 6.7849893789e+00 -1.4889129953e-05 1.8381356118e+00 -3.1837442709e+00 1.8381356118e+00 3.1837442709e+00 
60500 6.7849893839e+00 -1.7869561445e-05 1.8381356118e+00 -3.1837442709e+00 1.8381356118e+00 3.1837442709e+00 
60600 6.7849893888e+00 -2.0823790087e-05 1.8381356118e+00 -3.1837442709e+00 1.8381356118e+00 3.1837442709e+00 
60700 6.7849893935e+00 -2.3749249840e-05 1.8381356118e+00 -3.1837442709e+00 1.8381356118e+00 3.1837442709e+00 
60800 6.7849893980e+00 -2.6643478649e-05 1.8381356118e+00 -3.1837442709e+00 1.8381356118e+00 3.1837442709e+00 
60900 6.7849894025e+00 -2.9504118351e-05 1.8381356118e+00 -3.1837442709e+00 1.8381356118e+00 3.1837442709e+00 
61000 6.7849894067e+00 -3.2328914499e-05 1.8381356118e+00 -3.1837442709e+00 1.8381356118e+00 3.1837442709e+00 
61100 6.7849894109e+00 -3.5115716076e-05 1.8381356118e+00 -3.1837442709e+00 1.8381356118e+00 3.1837442709e+00 
61200 6.7849894149e+00 -3.7862475087e-05 1.8381356118e+00 -3.1837442709e+00 1.8381356118e+00 3.1837442709e+00 
61300 6.7849894187e+00 -4.0567246057e-05 1.8381356118e+00 -3.1837442709e+00 1.8381356118e+00 3.1837442709e+00 
61400 6.7849894225e+00 -4.3228185444e-05 1.8381356118e+00 -3.1837442709e+00 1.8381356118e+00 3.1837442709e+00 
61500 6.7849894261e+00 -4.5843550929e-05 1.8381356118e+00 -3.1837442709e+00 1.8381356118e+00 3.1837442709e+00 
61600 6.7849894296e+00 -4.8411700634e-05 1.8381356118e+00 -3.1837442709e+00 1.8381356118e+00 3.1837442709e+00 
61700 6.7849894330e+00 -5.0931092241e-05 1.8381356118e+00 -3.1837442709e+00 1.8381356118e+00 3.1837442709e+00 
61800 6.7849894363e+00 -5.3400282024e-05 1.8381356118e+00 -3.1837442709e+00 1.8381356118e+00 3.1837442709e+00 
61900 6.7849894395e+00 -5.5817923793e-05 1.8381356118e+00 -3.1837442709e+00 1.8381356118e+00 3.1837442709e+00 
62000 6.7849894426e+00 -5.8182767772e-05 1.8381356118e+00 -3.1837442709e+00 1.8381356118e+00 3.1837442709e+00 
62100 6.7849894456e+00 -6.0493659385e-05 1.8381356118e+00 -3.1837442709e+00 1.8381356118e+00 3.1837442709e+00 
62200 6.7849894486e+00 -6.2749537966e-05 1.8381356118e+00 -3.1837442709e+00 1.8381356118e+00 3.1837442709e+00 
62300 6.7849894514e+00 -6.4949435412e-05 1.8381356118e+00 -3.1837442709e+00 1.8381356118e+00 3.1837442709e+00 
62400 6.7849894542e+00 -6.7092474762e-05 1.8381356118e+00 -3.1837442709e+00 1.8381356118e+00 3.1837442709e+00 
62500 6.7849894569e+00 -6.9177868701e-05 1.8381356118e+00 -3.1837442709e+00 1.8381356118e+00 3.1837442709e+00 
62600 6.7849894595e+00 -7.1204918013e-05 1.8381356118e+00 -3.1837442709e+00 1.8381356118e+00 3.1837442709e+00 
62700 6.7849894619e+00 -7.1116341401e-05 1.8381375487e+00 -3.1837476256e+00 1.8381375487e+00 3.1837476256e+00 
62800 6.7849894642e+00 -7.0959807986e-05 1.8381394832e+00 -3.1837509762e+00 1.8381394832e+00 3.1837509762e+00 
62900 6.7849894665e+00 -7.0736468542e-05 1.8381414134e+00 -3.1837543195e+00 1.8381414134e+00 3.1837543195e+00 
63000 6.7849894687e+00 -7.0447556852e-05 1.8381433375e+00 -3.1837576522e+00 1.8381433375e+00 3.1837576522e+00 
63100 6.7849894710e+00 -7.2129136582e-05 1.8381433375e+00 -3.1837576522e+00 1.8381433375e+00 3.1837576522e+00 
63200 6.7849894732e+00 -7.1665236951e-05 1.8381452995e+00 -3.1837610505e+00 1.8381452995e+00 3.1837610505e+00 
63300 6.7849894752e+00 -7.1141363116e-05 1.8381472489e+00 -3.1837644269e+00 1.8381472489e+00 3.1837644269e+00 
63400 6.7849894773e+00 -7.0558967074e-05 1.8381491840e+00 -3.1837677787e+00 1.8381491840e+00 3.1837677787e+00 
63500 6.7849894794e+00 -7.1957502616e-05 1.8381491840e+00 -3.1837677787e+00 1.8381491840e+00 3.1837677787e+00 
63600 6.7849894814e+00 -7.1214742235e-05 1.8381511414e+00 -3.1837711689e+00 1.8381511414e+00 3.1837711689e+00 
63700 6.7849894834e+00 -7.0419628035e-05 1.8381530785e+00 -3.1837745241e+00 1.8381530785e+00 3.1837745241e+00 
63800 6.7849894855e+00 -7.1607666108e-05 1.8381530785e+00 -3.1837745241e+00 1.8381530785e+00 3.1837745241e+00 
63900 6.7849894874e+00 -7.0664901510e-05 1.8381550263e+00 -3.1837778978e+00 1.8381550263e+00 3.1837778978e+00 
64000 6.7849894894e+00 -7.1717177734e-05 1.8381550263e+00 -3.1837778978e+00 1.8381550263e+00 3.1837778978e+00 
64100 6.7849894913e+00 -7.0636244390e-05 1.8381569771e+00 -3.1837812767e+00 1.8381569771e+00 3.1837812767e+00 
64200 6.7849894933e+00 -7.1554366025e-05 1.8381569771e+00 -3.1837812767e+00 1.8381569771e+00 3.1837812767e+00 
64300 6.7849894952e+00 -7.0344995172e-05 1.8381589235e+00 -3.1837846479e+00 1.8381589235e+00 3.1837846479e+00 
64400 6.7849894972e+00 -7.1131120532e-05 1.8381589235e+00 -3.1837846479e+00 1.8381589235e+00 3.1837846479e+00 
64500 6.7849894990e+00 -6.9803233544e-05 1.8381608583e+00 -3.1837879991e+00 1.8381608583e+00 3.1837879991e+00 
64600 6.7849895010e+00 -7.0460035203e-05 1.8381608583e+00 -3.1837879991e+00 1.8381608583e+00 3.1837879991e+00 
64700 6.7849895030e+00 -7.1058709246e-05 1.8381608583e+00 -3.1837879991e+00 1.8381608583e+00 3.1837879991e+00 
64800 6.7849895048e+00 -6.9547950420e-05 1.8381627912e+00 -3.1837913469e+00 1.8381627912e+00 3.1837913469e+00 
64900 6.7849895068e+00 -7.0022410874e-05 1.8381627912e+00 -3.1837913469e+00 1.8381627912e+00 3.1837913469e+00 
65000 6.7849895087e+00 -7.0441496570e-05 1.8381627912e+00 -3.1837913469e+00 1.8381627912e+00 3.1837913469e+00 
65100 6.7849895107e+00 -7.0806342400e-05 1.8381627912e+00 -3.1837913469e+00 1.8381627912e+00 3.1837913469e+00 
65200 6.7849895125e+00 -6.9073094719e-05 1.8381647172e+00 -3.1837946829e+00 1.8381647172e+00 3.1837946829e+00 
65300 6.7849895145e+00 -6.9321999255e-05 1.8381647172e+00 -3.1837946829e+00 1.8381647172e+00 3.1837946829e+00 
65400 6.7849895165e+00 -6.9519858561e-05 1.8381647172e+00 -3.1837946829e+00 1.8381647172e+00 3.1837946829e+00 
65500 6.7849895184e+00 -6.9667936806e-05 1.8381647172e+00 -3.1837946829e+00 1.8381647172e+00 3.1837946829e+00 
65600 6.7849895204e+00 -6.9767518999e-05 1.8381647172e+00 -3.1837946829e+00 1.8381647172e+00 3.1837946829e+00 
65700 6.7849895223e+00 -6.9819909036e-05 1.8381647172e+00 -3.1837946829e+00 1.8381647172e+00 3.1837946829e+00 
65800 6.7849895243e+00 -6.9826427744e-05 1.8381647172e+00 -3.1837946829e+00 1.8381647172e+00 3.1837946829e+00 
65900 6.7849895262e+00 -6.9788410972e-05 1.8381647172e+00 -3.1837946829e+00 1.8381647172e+00 3.1837946829e+00 
66000 6.7849895282e+00 -6.9707207709e-05 1.8381647172e+00 -3.1837946829e+00 1.8381647172e+00 3.1837946829e+00 
66100 6.7849895301e+00 -6.9584178228e-05 1.8381647172e+00 -3.1837946829e+00 1.8381647172e+00 3.1837946829e+00 
66200 6.7849895321e+00 -6.9420692282e-05 1.8381647172e+00 -3.1837946829e+00 1.8381647172e+00 3.1837946829e+00 
66300 6.7849895340e+00 -6.9218127305e-05 1.8381647172e+00 -3.1837946829e+00 1.8381647172e+00 3.1837946829e+00 
66400 6.7849895359e+00 -6.8977866676e-05 1.8381647172e+00 -3.1837946829e+00 1.8381647172e+00 3.1837946829e+00 
66500 6.7849895378e+00 -6.8701298003e-05 1.8381647172e+00 -3.1837946829e+00 1.8381647172e+00 3.1837946829e+00 
66600 6.7849895397e+00 -6.8389811460e-05 1.8381647172e+00 -3.1837946829e+00 1.8381647172e+00 3.1837946829e+00 
66700 6.7849895416e+00 -6.8044798146e-05 1.8381647172e+00 -3.1837946829e+00 1.8381647172e+00 3.1837946829e+00 
66800 6.7849895435e+00 -6.7667648495e-05 1.8381647172e+00 -3.1837946829e+00 1.8381647172e+00 3.1837946829e+00 
66900 6.7849895453e+00 -6.7259750724e-05 1.8381647172e+00 -3.1837946829e+00 1.8381647172e+00 3.1837946829e+00 
67000 6.7849895472e+00 -6.6822489323e-05 1.8381647172e+00 -3.1837946829e+00 1.8381647172e+00 3.1837946829e+00 
67100 6.7849895490e+00 -6.6357243589e-05 1.8381647172e+00 -3.1837946829e+00 1.8381647172e+00 3.1837946829e+00 
67200 6.7849895508e+00 -6.5865386198e-05 1.8381647172e+00 -3.1837946829e+00 1.8381647172e+00 3.1837946829e+00 
67300 6.7849895526e+00 -6.5348281827e-05 1.8381647172e+00 -3.1837946829e+00 1.8381647172e+00 3.1837946829e+00 
67400 6.7849895544e+00 -6.4807285817e-05 1.8381647172e+00 -3.1837946829e+00 1.8381647172e+00 3.1837946829e+00 
67500 6.7849895561e+00 -6.4243742876e-05 1.8381647172e+00 -3.1837946829e+00 1.8381647172e+00 3.1837946829e+00 
67600 6.7849895579e+00 -6.3658985842e-05 1.8381647172e+00 -3.1837946829e+00 1.8381647172e+00 3.1837946829e+00 
67700 6.7849895596e+00 -6.3054334470e-05 1.8381647172e+00 -3.1837946829e+00 1.8381647172e+00 3.1837946829e+00 
67800 6.7849895613e+00 -6.2431094283e-05 1.8381647172e+00 -3.1837946829e+00 1.8381647172e+00 3.1837946829e+00 
67900 6.7849895630e+00 -6.1790555456e-05 1.8381647172e+00 -3.1837946829e+00 1.8381647172e+00 3.1837946829e+00 
68000 6.7849895646e+00 -6.1133991759e-05 1.8381647172e+00 -3.1837946829e+00 1.8381647172e+00 3.1837946829e+00 
68100 6.7849895663e+00 -6.0462659534e-05 1.8381647172e+00 -3.1837946829e+00 1.8381647172e+00 3.1837946829e+00 
68200 6.7849895679e+00 -5.9777796719e-05 1.8381647172e+00 -3.1837946829e+00 1.8381647172e+00 3.1837946829e+00 
68300 6.7849895695e+00 -5.9080621934e-05 1.8381647172e+00 -3.1837946829e+00 1.8381647172e+00 3.1837946829e+00 
68400 6.7849895710e+00 -5.8372333585e-05 1.8381647172e+00 -3.1837946829e+00 1.8381647172e+00 3.1837946829e+00 
68500 6.7849895726e+00 -5.7654109045e-05 1.8381647172e+00 -3.1837946829e+00 1.8381647172e+00 3.1837946829e+00 
68600 6.7849895741e+00 -5.6927103855e-05 1.8381647172e+00 -3.1837946829e+00 1.8381647172e+00 3.1837946829e+00 
68700 6.7849895756e+00 -5.6192450987e-05 1.8381647172e+00 -3.1837946829e+00 1.8381647172e+00 3.1837946829e+00 
68800 6.7849895770e+00 -5.5451260139e-05 1.8381647172e+00 -3.1837946829e+00 1.8381647172e+00 3.1837946829e+00 
68900 6.7849895785e+00 -5.4704617098e-05 1.8381647172e+00 -3.1837946829e+00 1.8381647172e+00 3.1837946829e+00 
69000 6.7849895799e+00 -5.3953583113e-05 1.8381647172e+00 -3.1837946829e+00 1.8381647172e+00 3.1837946829e+00 
69100 6.7849895813e+00 -5.3199194336e-05 1.8381647172e+00 -3.1837946829e+00 1.8381647172e+00 3.1837946829e+00 
69200 6.7849895826e+00 -5.2442461314e-05 1.8381647172e+00 -3.1837946829e+00 1.8381647172e+00 3.1837946829e+00 
69300 6.7849895840e+00 -5.1684368495e-05 1.8381647172e+00 -3.1837946829e+00 1.8381647172e+00 3.1837946829e+00 
69400 6.7849895853e+00 -5.0925873803e-05 1.8381647172e+00 -3.1837946829e+00 1.8381647172e+00 3.1837946829e+00 
69500 6.7849895865e+00 -5.0167908244e-05 1.8381647172e+00 -3.1837946829e+00 1.8381647172e+00 3.1837946829e+00 
69600 6.7849895878e+00 -4.9411375552e-05 1.8381647172e+00 -3.1837946829e+00 1.8381647172e+00 3.1837946829e+00 
69700 6.7849895890e+00 -4.8657151880e-05 1.8381647172e+00 -3.1837946829e+00 1.8381647172e+00 3.1837946829e+00 
69800 6.7849895903e+00 -4.7906085528e-05 1.8381647172e+00 -3.1837946829e+00 1.8381647172e+00 3.1837946829e+00 
69900 6.7849895914e+00 -4.7158996720e-05 1.8381647172e+00 -3.1837946829e+00 1.8381647172e+00 3.1837946829e+00 
70000 6.7849895926e+00 -4.6416677402e-05 1.8381647172e+00 -3.1837946829e+00 1.8381647172e+00 3.1837946829e+00 
70100 6.7849895937e+00 -4.5679891090e-05 1.8381647172e+00 -3.1837946829e+00 1.8381647172e+00 3.1837946829e+00 
70200 6.7849895949e+00 -4.4949372761e-05 1.8381647172e+00 -3.1837946829e+00 1.8381647172e+00 3.1837946829e+00 
70300 6.7849895960e+00 -4.4225828763e-05 1.8381647172e+00 -3.1837946829e+00 1.8381647172e+00 3.1837946829e+00 
70400 6.7849895970e+00 -4.3509936774e-05 1.8381647172e+00 -3.1837946829e+00 1.8381647172e+00 3.1837946829e+00 
70500 6.7849895981e+00 -4.2802345788e-05 1.8381647172e+00 -3.1837946829e+00 1.8381647172e+00 3.1837946829e+00 
70600 6.7849895991e+00 -4.2103676146e-05 1.8381647172e+00 -3.1837946829e+00 1.8381647172e+00 3.1837946829e+00 
70700 6.7849896001e+00 -4.1414519586e-05 1.8381647172e+00 -3.1837946829e+00 1.8381647172e+00 3.1837946829e+00 
70800 6.7849896011e+00 -4.0735439328e-05 1.8381647172e+00 -3.1837946829e+00 1.8381647172e+00 3.1837946829e+00 
70900 6.7849896021e+00 -4.0066970203e-05 1.8381647172e+00 -3.1837946829e+00 1.8381647172e+00 3.1837946829e+00 
71000 6.7849896030e+00 -3.9409618793e-05 1.8381647172e+00 -3.1837946829e+00 1.8381647172e+00 3.1837946829e+00 
71100 6.7849896040e+00 -3.8763863614e-05 1.8381647172e+00 -3.1837946829e+00 1.8381647172e+00 3.1837946829e+00 
71200 6.7849896049e+00 -3.8130155328e-05 1.8381647172e+00 -3.1837946829e+00 1.8381647172e+00 3.1837946829e+00 
71300 6.7849896058e+00 -3.7508916966e-05 1.8381647172e+00 -3.1837946829e+00 1.8381647172e+00 3.1837946829e+00 
71400 6.7849896066e+00 -3.6900544194e-05 1.8381647172e+00 -3.1837946829e+00 1.8381647172e+00 3.1837946829e+00 
71500 6.7849896075e+00 -3.6305405598e-05 1.8381647172e+00 -3.1837946829e+00 1.8381647172e+00 3.1837946829e+00 
71600 6.7849896084e+00 -3.5723842994e-05 1.8381647172e+00 -3.1837946829e+00 1.8381647172e+00 3.1837946829e+00 
71700 6.7849896092e+00 -3.5156171758e-05 1.8381647172e+00 -3.1837946829e+00 1.8381647172e+00 3.1837946829e+00 
71800 6.7849896100e+00 -3.4602681188e-05 1.8381647172e+00 -3.1837946829e+00 1.8381647172e+00 3.1837946829e+00 
71900 6.7849896108e+00 -3.4063634872e-05 1.8381647172e+00 -3.1837946829e+00 1.8381647172e+00 3.1837946829e+00 
72000 6.7849896116e+00 -3.3539271096e-05 1.8381647172e+00 -3.1837946829e+00 1.8381647172e+00 3.1837946829e+00 
72100 6.7849896124e+00 -3.3029803247e-05 1.8381647172e+00 -3.1837946829e+00 1.8381647172e+00 3.1837946829e+00 
72200 6.7849896131e+00 -3.2535420253e-05 1.8381647172e+00 -3.1837946829e+00 1.8381647172e+00 3.1837946829e+00 
72300 6.7849896139e+00 -3.2056287043e-05 1.8381647172e+00 -3.1837946829e+00 1.8381647172e+00 3.1837946829e+00 
72400 6.7849896146e+00 -3.1592544998e-05 1.8381647172e+00 -3.1837946829e+00 1.8381647172e+00 3.1837946829e+00 
72500 6.7849896154e+00 -3.1144312455e-05 1.8381647172e+00 -3.1837946829e+00 1.8381647172e+00 3.1837946829e+00 
72600 6.7849896161e+00 -3.0711685187e-05 1.8381647172e+00 -3.1837946829e+00 1.8381647172e+00 3.1837946829e+00 
72700 6.7849896168e+00 -3.0294736924e-05 1.8381647172e+00 -3.1837946829e+00 1.8381647172e+00 3.1837946829e+00 
72800 6.7849896175e+00 -2.9893519872e-05 1.8381647172e+00 -3.1837946829e+00 1.8381647172e+00 3.1837946829e+00 
72900 6.7849896182e+00 -2.9508065254e-05 1.8381647172e+00 -3.1837946829e+00 1.8381647172e+00 3.1837946829e+00 
73000 6.7849896188e+00 -2.9138383846e-05 1.8381647172e+00 -3.1837946829e+00 1.8381647172e+00 3.1837946829e+00 
73100 6.7849896195e+00 -2.8784466546e-05 1.8381647172e+00 -3.1837946829e+00 1.8381647172e+00 3.1837946829e+00 
73200 6.7849896202e+00 -2.8446284925e-05 1.8381647172e+00 -3.1837946829e+00 1.8381647172e+00 3.1837946829e+00 
73300 6.7849896208e+00 -2.8123791808e-05 1.8381647172e+00 -3.1837946829e+00 1.8381647172e+00 3.1837946829e+00 
73400 6.7849896215e+00 -2.7816921850e-05 1.8381647172e+00 -3.1837946829e+00 1.8381647172e+00 3.1837946829e+00 
73500 6.7849896221e+00 -2.7525592118e-05 1.8381647172e+00 -3.1837946829e+00 1.8381647172e+00 3.1837946829e+00 
73600 6.7849896227e+00 -2.7249702685e-05 1.8381647172e+00 -3.1837946829e+00 1.8381647172e+00 3.1837946829e+00 
73700 6.7849896234e+00 -2.6989137225e-05 1.8381647172e+00 -3.1837946829e+00 1.8381647172e+00 3.1837946829e+00 
73800 6.7849896240e+00 -2.6743763608e-05 1.8381647172e+00 -3.1837946829e+00 1.8381647172e+00 3.1837946829e+00 
73900 6.7849896246e+00 -2.6513434507e-05 1.8381647172e+00 -3.1837946829e+00 1.8381647172e+00 3.1837946829e+00 
74000 6.7849896252e+00 -2.6297987990e-05 1.8381647172e+00 -3.1837946829e+00 1.8381647172e+00 3.1837946829e+00 
74100 6.7849896258e+00 -2.6097248135e-05 1.8381647172e+00 -3.1837946829e+00 1.8381647172e+00 3.1837946829e+00 
74200 6.7849896264e+00 -2.5911025632e-05 1.8381647172e+00 -3.1837946829e+00 1.8381647172e+00 3.1837946829e+00 
74300 6.7849896269e+00 -2.5739118383e-05 1.8381647172e+00 -3.1837946829e+00 1.8381647172e+00 3.1837946829e+00 
74400 6.7849896275e+00 -2.5581312106e-05 1.8381647172e+00 -3.1837946829e+00 1.8381647172e+00 3.1837946829e+00 
74500 6.7849896281e+00 -2.5437380945e-05 1.8381647172e+00 -3.1837946829e+00 1.8381647172e+00 3.1837946829e+00 
74600 6.7849896287e+00 -2.5307088059e-05 1.8381647172e+00 -3.1837946829e+00 1.8381647172e+00 3.1837946829e+00 
74700 6.7849896292e+00 -2.5190186220e-05 1.8381647172e+00 -3.1837946829e+00 1.8381647172e+00 3.1837946829e+00 
74800 6.7849896298e+00 -2.5086418411e-05 1.8381647172e+00 -3.1837946829e+00 1.8381647172e+00 3.1837946829e+00 
74900 6.7849896303e+00 -2.4995518407e-05 1.8381647172e+00 -3.1837946829e+00 1.8381647172e+00 3.1837946829e+00 
75000 6.7849896309e+00 -2.4917211365e-05 1.8381647172e+00 -3.1837946829e+00 1.8381647172e+00 3.1837946829e+00 
75100 6.7849896314e+00 -2.4851214401e-05 1.8381647172e+00 -3.1837946829e+00 1.8381647172e+00 3.1837946829e+00 
75200 6.7849896319e+00 -2.4797237154e-05 1.8381647172e+00 -3.1837946829e+00 1.8381647172e+00 3.1837946829e+00 
75300 6.7849896325e+00 -2.4754982363e-05 1.8381647172e+00 -3.1837946829e+00 1.8381647172e+00 3.1837946829e+00 
75400 6.7849896330e+00 -2.4724146414e-05 1.8381647172e+00 -3.1837946829e+00 1.8381647172e+00 3.1837946829e+00 
75500 6.7849896335e+00 -2.4704419907e-05 1.8381647172e+00 -3.1837946829e+00 1.8381647172e+00 3.1837946829e+00 
75600 6.7849896340e+00 -2.4695488177e-05 1.8381647172e+00 -3.1837946829e+00 1.8381647172e+00 3.1837946829e+00 
75700 6.7849896345e+00 -2.4697031845e-05 1.8381647172e+00 -3.1837946829e+00 1.8381647172e+00 3.1837946829e+00 
75800 6.7849896350e+00 -2.4708727343e-05 1.8381647172e+00 -3.1837946829e+00 1.8381647172e+00 3.1837946829e+00 
75900 6.7849896355e+00 -2.4730247419e-05 1.8381647172e+00 -3.1837946829e+00 1.8381647172e+00 3.1837946829e+00 
76000 6.7849896360e+00 -2.4761261659e-05 1.8381647172e+00 -3.1837946829e+00 1.8381647172e+00 3.1837946829e+00 
76100 6.7849896365e+00 -2.4801436973e-05 1.8381647172e+00 -3.1837946829e+00 1.8381647172e+00 3.1837946829e+00 
76200 6.7849896370e+00 -2.4850438082e-05 1.8381647172e+00 -3.1837946829e+00 1.8381647172e+00 3.1837946829e+00 
76300 6.7849896374e+00 -2.4907928005e-05 1.8381647172e+00 -3.1837946829e+00 1.8381647172e+00 3.1837946829e+00 
76400 6.7849896379e+00 -2.4973568513e-05 1.8381647172e+00 -3.1837946829e+00 1.8381647172e+00 3.1837946829e+00 
76500 6.7849896384e+00 -2.5047020581e-05 1.8381647172e+00 -3.1837946829e+00 1.8381647172e+00 3.1837946829e+00 
76600 6.7849896388e+00 -2.5127944847e-05 1.8381647172e+00 -3.1837946829e+00 1.8381647172e+00 3.1837946829e+00 
76700 6.7849896393e+00 -2.5216002024e-05 1.8381647172e+00 -3.1837946829e+00 1.8381647172e+00 3.1837946829e+00 
76800 6.7849896397e+00 -2.5310853330e-05 1.8381647172e+00 -3.1837946829e+00 1.8381647172e+00 3.1837946829e+00 
76900 6.7849896402e+00 -2.5412160895e-05 1.8381647172e+00 -3.1837946829e+00 1.8381647172e+00 3.1837946829e+00 
77000 6.7849896406e+00 -2.5519588148e-05 1.8381647172e+00 -3.1837946829e+00 1.8381647172e+00 3.1837946829e+00 
77100 6.7849896410e+00 -2.5632800215e-05 1.8381647172e+00 -3.1837946829e+00 1.8381647172e+00 3.1837946829e+00 
77200 6.7849896414e+00 -2.5751464269e-05 1.8381647172e+00 -3.1837946829e+00 1.8381647172e+00 3.1837946829e+00 
77300 6.7849896419e+00 -2.5875249899e-05 1.8381647172e+00 -3.1837946829e+00 1.8381647172e+00 3.1837946829e+00 
77400 6.7849896423e+00 -2.6003829463e-05 1.8381647172e+00 -3.1837946829e+00 1.8381647172e+00 3.1837946829e+00 
77500 6.7849896427e+00 -2.6136878400e-05 1.8381647172e+00 -3.1837946829e+00 1.8381647172e+00 3.1837946829e+00 
77600 6.7849896431e+00 -2.6274075564e-05 1.8381647172e+00 -3.1837946829e+00 1.8381647172e+00 3.1837946829e+00 
77700 6.7849896435e+00 -2.6415103527e-05 1.8381647172e+00 -3.1837946829e+00 1.8381647172e+00 3.1837946829e+00 
77800 6.7849896439e+00 -2.6559648870e-05 1.8381647172e+00 -3.1837946829e+00 1.8381647172e+00 3.1837946829e+00 
77900 6.7849896443e+00 -2.6707402465e-05 1.8381647172e+00 -3.1837946829e+00 1.8381647172e+00 3.1837946829e+00 
78000 6.7849896447e+00 -2.6858059743e-05 1.8381647172e+00 -3.1837946829e+00 1.8381647172e+00 3.1837946829e+00 
78100 6.7849896450e+00 -2.7011320948e-05 1.8381647172e+00 -3.1837946829e+00 1.8381647172e+00 3.1837946829e+00 
78200 6.7849896454e+00 -2.7166891377e-05 1.8381647172e+00 -3.1837946829e+00 1.8381647172e+00 3.1837946829e+00 
78300 6.7849896458e+00 -2.7324481616e-05 1.8381647172e+00 -3.1837946829e+00 1.8381647172e+00 3.1837946829e+00 
78400 6.7849896461e+00 -2.7483807746e-05 1.8381647172e+00 -3.1837946829e+00 1.8381647172e+00 3.1837946829e+00 
78500 6.7849896465e+00 -2.7644591553e-05 1.8381647172e+00 -3.1837946829e+00 1.8381647172e+00 3.1837946829e+00 
78600 6.7849896468e+00 -2.7806560721e-05 1.8381647172e+00 -3.1837946829e+00 1.8381647172e+00 3.1837946829e+00 
78700 6.7849896472e+00 -2.7969449006e-05 1.8381647172e+00 -3.1837946829e+00 1.8381647172e+00 3.1837946829e+00 
78800 6.7849896475e+00 -2.8132996396e-05 1.8381647172e+00 -3.1837946829e+00 1.8381647172e+00 3.1837946829e+00 
78900 6.7849896479e+00 -2.8296949290e-05 1.8381647172e+00 -3.1837946829e+00 1.8381647172e+00 3.1837946829e+00 
79000 6.7849896482e+00 -2.8461060606e-05 1.8381647172e+00 -3.1837946829e+00 1.8381647172e+00 3.1837946829e+00 
79100 6.7849896485e+00 -2.8625089938e-05 1.8381647172e+00 -3.1837946829e+00 1.8381647172e+00 3.1837946829e+00 
79200 6.7849896488e+00 -2.8788803658e-05 1.8381647172e+00 -3.1837946829e+00 1.8381647172e+00 3.1837946829e+00 
79300 6.7849896492e+00 -2.8951975034e-05 1.8381647172e+00 -3.1837946829e+00 1.8381647172e+00 3.1837946829e+00 
79400 6.7849896495e+00 -2.9114384320e-05 1.8381647172e+00 -3.1837946829e+00 1.8381647172e+00 3.1837946829e+00 
79500 6.7849896498e+00 -2.9275818832e-05 1.8381647172e+00 -3.1837946829e+00 1.8381647172e+00 3.1837946829e+00 
79600 6.7849896501e+00 -2.9436073038e-05 1.8381647172e+00 -3.1837946829e+00 1.8381647172e+00 3.1837946829e+00 
79700 6.7849896504e+00 -2.9594948607e-05 1.8381647172e+00 -3.1837946829e+00 1.8381647172e+00 3.1837946829e+00 
79800 6.7849896507e+00 -2.9752254467e-05 1.8381647172e+00 -3.1837946829e+00 1.8381647172e+00 3.1837946829e+00 
79900 6.7849896510e+00 -2.9907806847e-05 1.8381647172e+00 -3.1837946829e+00 1.8381647172e+00 3.1837946829e+00 
80000 6.7849896512e+00 -3.0061429297e-05 1.8381647172e+00 -3.1837946829e+00 1.8381647172e+00 3.1837946829e+00 
80100 6.7849896515e+00 -3.0212952723e-05 1.8381647172e+00 -3.1837946829e+00 1.8381647172e+00 3.1837946829e+00 
80200 6.7849896518e+00 -3.0362215394e-05 1.8381647172e+00 -3.1837946829e+00 1.8381647172e+00 3.1837946829e+00 
80300 6.7849896521e+00 -3.0509062944e-05 1.8381647172e+00 -3.1837946829e+00 1.8381647172e+00 3.1837946829e+00 
80400 6.7849896523e+00 -3.0653348361e-05 1.8381647172e+00 -3.1837946829e+00 1.8381647172e+00 3.1837946829e+00 
80500 6.7849896526e+00 -3.0794931975e-05 1.8381647172e+00 -3.1837946829e+00 1.8381647172e+00 3.1837946829e+00 
80600 6.7849896529e+00 -3.0933681428e-05 1.8381647172e+00 -3.1837946829e+00 1.8381647172e+00 3.1837946829e+00 
80700 6.7849896531e+00 -3.1069471656e-05 1.8381647172e+00 -3.1837946829e+00 1.8381647172e+00 3.1837946829e+00 
80800 6.7849896534e+00 -3.1202184830e-05 1.8381647172e+00 -3.1837946829e+00 1.8381647172e+00 3.1837946829e+00 
80900 6.7849896536e+00 -3.1331710312e-05 1.8381647172e+00 -3.1837946829e+00 1.8381647172e+00 3.1837946829e+00 
81000 6.7849896539e+00 -3.1457944611e-05 1.8381647172e+00 -3.1837946829e+00 1.8381647172e+00 3.1837946829e+00 
81100 6.7849896541e+00 -3.1580791293e-05 1.8381647172e+00 -3.1837946829e+00 1.8381647172e+00 3.1837946829e+00 
81200 6.7849896543e+00 -3.1700160941e-05 1.8381647172e+00 -3.1837946829e+00 1.8381647172e+00 3.1837946829e+00 
81300 6.7849896546e+00 -3.1815971049e-05 1.8381647172e+00 -3.1837946829e+00 1.8381647172e+00 3.1837946829e+00 
81400 6.7849896548e+00 -3.1928145963e-05 1.8381647172e+00 -3.1837946829e+00 1.8381647172e+00 3.1837946829e+00 
81500 6.7849896550e+00 -3.2036616764e-05 1.8381647172e+00 -3.1837946829e+00 1.8381647172e+00 3.1837946829e+00 
81600 6.7849896553e+00 -3.2141321202e-05 1.8381647172e+00 -3.1837946829e+00 1.8381647172e+00 3.1837946829e+00 
81700 6.7849896555e+00 -3.2242203565e-05 1.8381647172e+00 -3.1837946829e+00 1.8381647172e+00 3.1837946829e+00 
81800 6.7849896557e+00 -3.2339214586e-05 1.8381647172e+00 -3.1837946829e+00 1.8381647172e+00 3.1837946829e+00 
81900 6.7849896559e+00 -3.2432311335e-05 1.8381647172e+00 -3.1837946829e+00 1.8381647172e+00 3.1837946829e+00 
82000 6.7849896561e+00 -3.2521457092e-05 1.8381647172e+00 -3.1837946829e+00 1.8381647172e+00 3.1837946829e+00 
82100 6.7849896563e+00 -3.2606621226e-05 1.8381647172e+00 -3.1837946829e+00 1.8381647172e+00 3.1837946829e+00 
82200 6.7849896565e+00 -3.2687779078e-05 1.8381647172e+00 -3.1837946829e+00 1.8381647172e+00 3.1837946829e+00 
82300 6.7849896567e+00 -3.2764911817e-05 1.8381647172e+00 -3.1837946829e+00 1.8381647172e+00 3.1837946829e+00 
82400 6.7849896569e+00 -3.2838006318e-05 1.8381647172e+00 -3.1837946829e+00 1.8381647172e+00 3.1837946829e+00 
82500 6.7849896571e+00 -3.2907055017e-05 1.8381647172e+00 -3.1837946829e+00 1.8381647172e+00 3.1837946829e+00 
82600 6.7849896573e+00 -3.2972055778e-05 1.8381647172e+00 -3.1837946829e+00 1.8381647172e+00 3.1837946829e+00 
82700 6.7849896575e+00 -3.3033011738e-05 1.8381647172e+00 -3.1837946829e+00 1.8381647172e+00 3.1837946829e+00 
82800 6.7849896577e+00 -3.3089931175e-05 1.8381647172e+00 -3.1837946829e+00 1.8381647172e+00 3.1837946829e+00 
82900 6.7849896579e+00 -3.3142827350e-05 1.8381647172e+00 -3.1837946829e+00 1.8381647172e+00 3.1837946829e+00 
83000 6.7849896581e+00 -3.3191718353e-05 1.8381647172e+00 -3.1837946829e+00 1.8381647172e+00 3.1837946829e+00 
83100 6.7849896583e+00 -3.3236626963e-05 1.8381647172e+00 -3.1837946829e+00 1.8381647172e+00 3.1837946829e+00 
83200 6.7849896585e+00 -3.3277580481e-05 1.8381647172e+00 -3.1837946829e+00 1.8381647172e+00 3.1837946829e+00 
83300 6.7849896586e+00 -3.3314610580e-05 1.8381647172e+00 -3.1837946829e+00 1.8381647172e+00 3.1837946829e+00 
83400 6.7849896588e+00 -3.3347753146e-05 1.8381647172e+00 -3.1837946829e+00 1.8381647172e+00 3.1837946829e+00 
83500 6.7849896590e+00 -3.3377048123e-05 1.8381647172e+00 -3.1837946829e+00 1.8381647172e+00 3.1837946829e+00 
83600 6.7849896592e+00 -3.3402539349e-05 1.8381647172e+00 -3.1837946829e+00 1.8381647172e+00 3.1837946829e+00 
83700 6.7849896593e+00 -3.3424274399e-05 1.8381647172e+00 -3.1837946829e+00 1.8381647172e+00 3.1837946829e+00 
83800 6.7849896595e+00 -3.3442304429e-05 1.8381647172e+00 -3.1837946829e+00 1.8381647172e+00 3.1837946829e+00 
83900 6.7849896597e+00 -3.3456684002e-05 1.8381647172e+00 -3.1837946829e+00 1.8381647172e+00 3.1837946829e+00 
84000 6.7849896598e+00 -3.3467470949e-05 1.8381647172e+00 -3.1837946829e+00 1.8381647172e+00 3.1837946829e+00 
84100 6.7849896600e+00 -3.3474726191e-05 1.8381647172e+00 -3.1837946829e+00 1.8381647172e+00 3.1837946829e+00 
84200 6.7849896601e+00 -3.3478513587e-05 1.8381647172e+00 -3.1837946829e+00 1.8381647172e+00 3.1837946829e+00 
84300 6.7849896603e+00 -3.3478899779e-05 1.8381647172e+00 -3.1837946829e+00 1.8381647172e+00 3.1837946829e+00 
84400 6.7849896605e+00 -3.3475954024e-05 1.8381647172e+00 -3.1837946829e+00 1.8381647172e+00 3.1837946829e+00 
84500 6.7849896606e+00 -3.3469748047e-05 1.8381647172e+00 -3.1837946829e+00 1.8381647172e+00 3.1837946829e+00 
84600 6.7849896608e+00 -3.3460355879e-05 1.8381647172e+00 -3.1837946829e+00 1.8381647172e+00 3.1837946829e+00 
84700 6.7849896609e+00 -3.3447853709e-05 1.8381647172e+00 -3.1837946829e+00 1.8381647172e+00 3.1837946829e+00 
84800 6.7849896611e+00 -3.3432319719e-05 1.8381647172e+00 -3.1837946829e+00 1.8381647172e+00 3.1837946829e+00 
84900 6.7849896612e+00 -3.3413833945e-05 1.8381647172e+00 -3.1837946829e+00 1.8381647172e+00 3.1837946829e+00 
85000 6.7849896614e+00 -3.3392478120e-05 1.8381647172e+00 -3.1837946829e+00 1.8381647172e+00 3.1837946829e+00 
85100 6.7849896615e+00 -3.3368335533e-05 1.8381647172e+00 -3.1837946829e+00 1.8381647172e+00 3.1837946829e+00 
85200 6.7849896616e+00 -3.3341490872e-05 1.8381647172e+00 -3.1837946829e+00 1.8381647172e+00 3.1837946829e+00 
85300 6.7849896618e+00 -3.3312030091e-05 1.8381647172e+00 -3.1837946829e+00 1.8381647172e+00 3.1837946829e+00 
85400 6.7849896619e+00 -3.3280040269e-05 1.8381647172e+00 -3.1837946829e+00 1.8381647172e+00 3.1837946829e+00 
85500 6.7849896621e+00 -3.3245609455e-05 1.8381647172e+00 -3.1837946829e+00 1.8381647172e+00 3.1837946829e+00 
85600 6.7849896622e+00 -3.3208826554e-05 1.8381647172e+00 -3.1837946829e+00 1.8381647172e+00 3.1837946829e+00 
85700 6.7849896623e+00 -3.3169781177e-05 1.8381647172e+00 -3.1837946829e+00 1.8381647172e+00 3.1837946829e+00 
85800 6.7849896625e+00 -3.3128563520e-05 1.8381647172e+00 -3.1837946829e+00 1.8381647172e+00 3.1837946829e+00 
85900 6.7849896626e+00 -3.3085264224e-05 1.8381647172e+00 -3.1837946829e+00 1.8381647172e+00 3.1837946829e+00 
86000 6.7849896627e+00 -3.3039974265e-05 1.8381647172e+00 -3.1837946829e+00 1.8381647172e+00 3.1837946829e+00 
86100 6.7849896628e+00 -3.2992784812e-05 1.8381647172e+00 -3.1837946829e+00 1.8381647172e+00 3.1837946829e+00 
86200 6.7849896630e+00 -3.2943787126e-05 1.8381647172e+00 -3.1837946829e+00 1.8381647172e+00 3.1837946829e+00 
86300 6.7849896631e+00 -3.2893072434e-05 1.8381647172e+00 -3.1837946829e+00 1.8381647172e+00 3.1837946829e+00 
86400 6.7849896632e+00 -3.2840731817e-05 1.8381647172e+00 -3.1837946829e+00 1.8381647172e+00 3.1837946829e+00 
86500 6.7849896633e+00 -3.2786856102e-05 1.8381647172e+00 -3.1837946829e+00 1.8381647172e+00 3.1837946829e+00 
86600 6.7849896634e+00 -3.2731535745e-05 1.8381647172e+00 -3.1837946829e+00 1.8381647172e+00 3.1837946829e+00 
86700 6.7849896636e+00 -3.2674860749e-05 1.8381647172e+00 -3.1837946829e+00 1.8381647172e+00 3.1837946829e+00 
86800 6.7849896637e+00 -3.2616920539e-05 1.8381647172e+00 -3.1837946829e+00 1.8381647172e+00 3.1837946829e+00 
86900 6.7849896638e+00 -3.2557803882e-05 1.8381647172e+00 -3.1837946829e+00 1.8381647172e+00 3.1837946829e+00 
87000 6.7849896639e+00 -3.2497598789e-05 1.8381647172e+00 -3.1837946829e+00 1.8381647172e+00 3.1837946829e+00 
87100 6.7849896640e+00 -3.2436392418e-05 1.8381647172e+00 -3.1837946829e+00 1.8381647172e+00 3.1837946829e+00 
87200 6.7849896641e+00 -3.2374271002e-05 1.8381647172e+00 -3.1837946829e+00 1.8381647172e+00 3.1837946829e+00 
87300 6.7849896642e+00 -3.2311319746e-05 1.8381647172e+00 -3.1837946829e+00 1.8381647172e+00 3.1837946829e+00 
87400 6.7849896643e+00 -3.2247622769e-05 1.8381647172e+00 -3.1837946829e+00 1.8381647172e+00 3.1837946829e+00 
87500 6.7849896645e+00 -3.2183263013e-05 1.8381647172e+00 -3.1837946829e+00 1.8381647172e+00 3.1837946829e+00 
87600 6.7849896646e+00 -3.2118322176e-05 1.8381647172e+00 -3.1837946829e+00 1.8381647172e+00 3.1837946829e+00 
87700 6.7849896647e+00 -3.2052880641e-05 1.8381647172e+00 -3.1837946829e+00 1.8381647172e+00 3.1837946829e+00 
87800 6.7849896648e+00 -3.1987017411e-05 1.8381647172e+00 -3.1837946829e+00 1.8381647172e+00 3.1837946829e+00 
87900 6.7849896649e+00 -3.1920810044e-05 1.8381647172e+00 -3.1837946829e+00 1.8381647172e+00 3.1837946829e+00 
88000 6.7849896650e+00 -3.1854334602e-05 1.8381647172e+00 -3.1837946829e+00 1.8381647172e+00 3.1837946829e+00 
88100 6.7849896651e+00 -3.1787665586e-05 1.8381647172e+00 -3.1837946829e+00 1.8381647172e+00 3.1837946829e+00 
88200 6.7849896652e+00 -3.1720875887e-05 1.8381647172e+00 -3.1837946829e+00 1.8381647172e+00 3.1837946829e+00 
88300 6.7849896652e+00 -3.1654036744e-05 1.8381647172e+00 -3.1837946829e+00 1.8381647172e+00 3.1837946829e+00 
88400 6.7849896653e+00 -3.1587217691e-05 1.8381647172e+00 -3.1837946829e+00 1.8381647172e+00 3.1837946829e+00 
88500 6.7849896654e+00 -3.1520486513e-05 1.8381647172e+00 -3.1837946829e+00 1.8381647172e+00 3.1837946829e+00 
88600 6.7849896655e+00 -3.1453909216e-05 1.8381647172e+00 -3.1837946829e+00 1.8381647172e+00 3.1837946829e+00 
88700 6.7849896656e+00 -3.1387549991e-05 1.8381647172e+00 -3.1837946829e+00 1.8381647172e+00 3.1837946829e+00 
88800 6.7849896657e+00 -3.1321471170e-05 1.8381647172e+00 -3.1837946829e+00 1.8381647172e+00 3.1837946829e+00 
88900 6.7849896658e+00 -3.1255733207e-05 1.8381647172e+00 -3.1837946829e+00 1.8381647172e+00 3.1837946829e+00 
89000 6.7849896659e+00 -3.1190394655e-05 1.8381647172e+00 -3.1837946829e+00 1.8381647172e+00 3.1837946829e+00 
89100 6.7849896660e+00 -3.1125512129e-05 1.8381647172e+00 -3.1837946829e+00 1.8381647172e+00 3.1837946829e+00 
89200 6.7849896660e+00 -3.1061140305e-05 1.8381647172e+00 -3.1837946829e+00 1.8381647172e+00 3.1837946829e+00 
89300 6.7849896661e+00 -3.0997331885e-05 1.8381647172e+00 -3.1837946829e+00 1.8381647172e+00 3.1837946829e+00 
89400 6.7849896662e+00 -3.0934137594e-05 1.8381647172e+00 -3.1837946829e+00 1.8381647172e+00 3.1837946829e+00 
89500 6.7849896663e+00 -3.0871606167e-05 1.8381647172e+00 -3.1837946829e+00 1.8381647172e+00 3.1837946829e+00 
89600 6.7849896664e+00 -3.0809784333e-05 1.8381647172e+00 -3.1837946829e+00 1.8381647172e+00 3.1837946829e+00 
89700 6.7849896665e+00 -3.0748716825e-05 1.8381647172e+00 -3.1837946829e+00 1.8381647172e+00 3.1837946829e+00 
89800 6.7849896665e+00 -3.0688446356e-05 1.8381647172e+00 -3.1837946829e+00 1.8381647172e+00 3.1837946829e+00 
89900 6.7849896666e+00 -3.0629013637e-05 1.8381647172e+00 -3.1837946829e+00 1.8381647172e+00 3.1837946829e+00 
90000 6.7849896667e+00 -3.0570457369e-05 1.8381647172e+00 -3.1837946829e+00 1.8381647172e+00 3.1837946829e+00 
90100 6.7849896668e+00 -3.0512814249e-05 1.8381647172e+00 -3.1837946829e+00 1.8381647172e+00 3.1837946829e+00 
90200 6.7849896668e+00 -3.0456118981e-05 1.8381647172e+00 -3.1837946829e+00 1.8381647172e+00 3.1837946829e+00 
90300 6.7849896669e+00 -3.0400404274e-05 1.8381647172e+00 -3.1837946829e+00 1.8381647172e+00 3.1837946829e+00 
90400 6.7849896670e+00 -3.0345700864e-05 1.8381647172e+00 -3.1837946829e+00 1.8381647172e+00 3.1837946829e+00 
90500 6.7849896670e+00 -3.0292037528e-05 1.8381647172e+00 -3.1837946829e+00 1.8381647172e+00 3.1837946829e+00 
90600 6.7849896671e+00 -3.0239441089e-05 1.8381647172e+00 -3.1837946829e+00 1.8381647172e+00 3.1837946829e+00 
90700 6.7849896672e+00 -3.0187936446e-05 1.8381647172e+00 -3.1837946829e+00 1.8381647172e+00 3.1837946829e+00 
90800 6.7849896673e+00 -3.0137546580e-05 1.8381647172e+00 -3.1837946829e+00 1.8381647172e+00 3.1837946829e+00 
90900 6.7849896673e+00 -3.0088292590e-05 1.8381647172e+00 -3.1837946829e+00 1.8381647172e+00 3.1837946829e+00 
91000 6.7849896674e+00 -3.0040193701e-05 1.8381647172e+00 -3.1837946829e+00 1.8381647172e+00 3.1837946829e+00 
91100 6.7849896675e+00 -2.9993267305e-05 1.8381647172e+00 -3.1837946829e+00 1.8381647172e+00 3.1837946829e+00 
91200 6.7849896675e+00 -2.9947528970e-05 1.8381647172e+00 -3.1837946829e+00 1.8381647172e+00 3.1837946829e+00 
91300 6.7849896676e+00 -2.9902992478e-05 1.8381647172e+00 -3.1837946829e+00 1.8381647172e+00 3.1837946829e+00 
91400 6.7849896676e+00 -2.9859669859e-05 1.8381647172e+00 -3.1837946829e+00 1.8381647172e+00 3.1837946829e+00 
91500 6.7849896677e+00 -2.9817571408e-05 1.8381647172e+00 -3.1837946829e+00 1.8381647172e+00 3.1837946829e+00 
91600 6.7849896678e+00 -2.9776705726e-05 1.8381647172e+00 -3.1837946829e+00 1.8381647172e+00 3.1837946829e+00 
91700 6.7849896678e+00 -2.9737079757e-05 1.8381647172e+00 -3.1837946829e+00 1.8381647172e+00 3.1837946829e+00 
91800 6.7849896679e+00 -2.9698698811e-05 1.8381647172e+00 -3.1837946829e+00 1.8381647172e+00 3.1837946829e+00 
91900 6.7849896679e+00 -2.9661566613e-05 1.8381647172e+00 -3.1837946829e+00 1.8381647172e+00 3.1837946829e+00 
92000 6.7849896680e+00 -2.9625685325e-05 1.8381647172e+00 -3.1837946829e+00 1.8381647172e+00 3.1837946829e+00 
92100 6.7849896681e+00 -2.9591055593e-05 1.8381647172e+00 -3.1837946829e+00 1.8381647172e+00 3.1837946829e+00 
92200 6.7849896681e+00 -2.9557676591e-05 1.8381647172e+00 -3.1837946829e+00 1.8381647172e+00 3.1837946829e+00 
92300 6.7849896682e+00 -2.9525546046e-05 1.8381647172e+00 -3.1837946829e+00 1.8381647172e+00 3.1837946829e+00 
92400 6.7849896682e+00 -2.9494660284e-05 1.8381647172e+00 -3.1837946829e+00 1.8381647172e+00 3.1837946829e+00 
92500 6.7849896683e+00 -2.9465014279e-05 1.8381647172e+00 -3.1837946829e+00 1.8381647172e+00 3.1837946829e+00 
92600 6.7849896683e+00 -2.9436601681e-05 1.8381647172e+00 -3.1837946829e+00 1.8381647172e+00 3.1837946829e+00 
92700 6.7849896684e+00 -2.9409414864e-05 1.8381647172e+00 -3.1837946829e+00 1.8381647172e+00 3.1837946829e+00 
92800 6.7849896684e+00 -2.9383444971e-05 1.8381647172e+00 -3.1837946829e+00 1.8381647172e+00 3.1837946829e+00 
92900 6.7849896685e+00 -2.9358681953e-05 1.8381647172e+00 -3.1837946829e+00 1.8381647172e+00 3.1837946829e+00 
93000 6.7849896685e+00 -2.9335114615e-05 1.8381647172e+00 -3.1837946829e+00 1.8381647172e+00 3.1837946829e+00 
93100 6.7849896686e+00 -2.9312730656e-05 1.8381647172e+00 -3.1837946829e+00 1.8381647172e+00 3.1837946829e+00 
93200 6.7849896686e+00 -2.9291516715e-05 1.8381647172e+00 -3.1837946829e+00 1.8381647172e+00 3.1837946829e+00 
93300 6.7849896687e+00 -2.9271458407e-05 1.8381647172e+00 -3.1837946829e+00 1.8381647172e+00 3.1837946829e+00 
93400 6.7849896687e+00 -2.9252540386e-05 1.8381647172e+00 -3.1837946829e+00 1.8381647172e+00 3.1837946829e+00 
93500 6.7849896688e+00 -2.9234746368e-05 1.8381647172e+00 -3.1837946829e+00 1.8381647172e+00 3.1837946829e+00 
93600 6.7849896688e+00 -2.9233714100e-05 1.8381647172e+00 -3.1837946829e+00 1.8381647172e+00 3.1837946829e+00 
93600 6.7849896688e+00 -2.9233714101e-05 1.8381647172e+00 -3.1837946829e+00 1.8381647172e+00 3.1837946829e+00 
