# step Hamiltonian StressXX CellTensor1 CellTensor2 CellTensor3 CellTensor4 
0 4.5867551043e+00 -3.3311747241e-01 1.6185780433e+00 -2.8034594071e+00 1.6185780433e+00 2.8034594071e+00 
100 4.5772356809e+00 -3.3421953841e-01 1.6185780433e+00 -2.8034594071e+00 1.6185780433e+00 2.8034594071e+00 
200 4.5638655528e+00 -3.2553621603e-01 1.6289134301e+00 -2.8213608221e+00 1.6289134301e+00 2.8213608221e+00 
300 4.5510989677e+00 -3.1773373918e-01 1.6389160186e+00 -2.8386858135e+00 1.6389160186e+00 2.8386858135e+00 
400 4.5389075183e+00 -3.1070327852e-01 1.6486189289e+00 -2.8554917473e+00 1.6486189289e+00 2.8554917473e+00 
500 4.5272704709e+00 -3.0434525415e-01 1.6580509928e+00 -2.8718285611e+00 1.6580509928e+00 2.8718285611e+00 
600 4.5161728273e+00 -2.9856867767e-01 1.6672372146e+00 -2.8877395639e+00 1.6672372146e+00 2.8877395639e+00 
700 4.5056037104e+00 -2.9329058173e-01 1.6761991815e+00 -2.9032621460e+00 1.6761991815e+00 2.9032621460e+00 
800 4.4955550288e+00 -2.8843551631e-01 1.6849554317e+00 -2.9184284162e+00 1.6849554317e+00 2.9184284162e+00 
900 4.4860203804e+00 -2.8393509582e-01 1.6935217852e+00 -2.9332657757e+00 1.6935217852e+00 2.9332657757e+00 
1000 4.4769941633e+00 -2.7972758481e-01 1.7019116445e+00 -2.9477974382e+00 1.7019116445e+00 2.9477974382e+00 
1100 4.4684708662e+00 -2.7575751320e-01 1.7101362672e+00 -2.9620429026e+00 1.7101362672e+00 2.9620429026e+00 
1200 4.4604445136e+00 -2.7197531417e-01 1.7182050152e+00 -2.9760183842e+00 1.7182050152e+00 2.9760183842e+00 
1300 4.4529082461e+00 -2.6833697931e-01 1.7261255821e+00 -2.9897372085e+00 1.7261255821e+00 2.9897372085e+00 
1400 4.4458540163e+00 -2.6480372753e-01 1.7339042011e+00 -3.0032101718e+00 1.7339042011e+00 3.0032101718e+00 
1500 4.4392723846e+00 -2.6134168473e-01 1.7415458355e+00 -3.0164458708e+00 1.7415458355e+00 3.0164458708e+00 
1600 4.4331524009e+00 -2.5792157233e-01 1.7490543527e+00 -3.0294510041e+00 1.7490543527e+00 3.0294510041e+00 
1700 4.4274815588e+00 -2.5451840333e-01 1.7564326833e+00 -3.0422306475e+00 1.7564326833e+00 3.0422306475e+00 
1800 4.4222458108e+00 -2.5111118494e-01 1.7636829659e+00 -3.0547885053e+00 1.7636829659e+00 3.0547885053e+00 
1900 4.4174296349e+00 -2.4768262733e-01 1.7708066792e+00 -3.0671271387e+00 1.7708066792e+00 3.0671271387e+00 
2000 4.4130161425e+00 -2.4421885816e-01 1.7778047614e+00 -3.0792481727e+00 1.7778047614e+00 3.0792481727e+00 
2100 4.4089872189e+00 -2.4070914298e-01 1.7846777183e+00 -3.0911524832e+00 1.7846777183e+00 3.0911524832e+00 
2200 4.4053236906e+00 -2.3714561158e-01 1.7914257200e+00 -3.1028403651e+00 1.7914257200e+00 3.1028403651e+00 
2300 4.4020055099e+00 -2.3352299070e-01 1.7980486881e+00 -3.1143116823e+00 1.7980486881e+00 3.1143116823e+00 
2400 4.3990119524e+00 -2.2983834332e-01 1.8045463723e+00 -3.1255660014e+00 1.8045463723e+00 3.1255660014e+00 
2500 4.3963218218e+00 -2.2609081538e-01 1.8109184183e+00 -3.1366027089e+00 1.8109184183e+00 3.1366027089e+00 
2600 4.3939136554e+00 -2.2228139013e-01 1.8171644275e+00 -3.1474211142e+00 1.8171644275e+00 3.1474211142e+00 
2700 4.3917659282e+00 -2.1841265114e-01 1.8232840076e+00 -3.1580205378e+00 1.8232840076e+00 3.1580205378e+00 
2800 4.3898572487e+00 -2.1448855445e-01 1.8292768162e+00 -3.1684003867e+00 1.8292768162e+00 3.1684003867e+00 
2900 4.3881665466e+00 -2.1051421069e-01 1.8351425976e+00 -3.1785602181e+00 1.8351425976e+00 3.1785602181e+00 
3000 4.3866732461e+00 -2.0649567788e-01 1.8408812123e+00 -3.1884997904e+00 1.8408812123e+00 3.1884997904e+00 
3100 4.3853574243e+00 -2.0243976570e-01 1.8464926611e+00 -3.1982191049e+00 1.8464926611e+00 3.1982191049e+00 
3200 4.3841999529e+00 -1.9835385193e-01 1.8519771030e+00 -3.2077184369e+00 1.8519771030e+00 3.2077184369e+00 
3300 4.3831826206e+00 -1.9424571169e-01 1.8573348682e+00 -3.2169983584e+00 1.8573348682e+00 3.2169983584e+00 
3400 4.3822882361e+00 -1.9012336015e-01 1.8625664666e+00 -3.2260597527e+00 1.8625664666e+00 3.2260597527e+00 
3500 4.3815007112e+00 -1.8599490911e-01 1.8676725918e+00 -3.2349038210e+00 1.8676725918e+00 3.2349038210e+00 
3600 4.3808051235e+00 -1.8186843797e-01 1.8726541217e+00 -3.2435320838e+00 1.8726541217e+00 3.2435320838e+00 
3700 4.3801877595e+00 -1.7775187911e-01 1.8775121153e+00 -3.2519463754e+00 1.8775121153e+00 3.2519463754e+00 
3800 4.3796361381e+00 -1.7365291808e-01 1.8822478073e+00 -3.2601488347e+00 1.8822478073e+00 3.2601488347e+00 
3900 4.3791390164e+00 -1.6957890823e-01 1.8868626002e+00 -3.2681418904e+00 1.8868626002e+00 3.2681418904e+00 
4000 4.3786863784e+00 -1.6553679968e-01 1.8913580536e+00 -3.2759282441e+00 1.8913580536e+00 3.2759282441e+00 
4100 4.3782694083e+00 -1.6153308223e-01 1.8957358732e+00 -3.2835108501e+00 1.8957358732e+00 3.2835108501e+00 
4200 4.3778804506e+00 -1.5757374158e-01 1.8999978976e+00 -3.2908928929e+00 1.8999978976e+00 3.2908928929e+00 
4300 4.3775129575e+00 -1.5366422806e-01 1.9041460846e+00 -3.2980777636e+00 1.9041460846e+00 3.2980777636e+00 
4400 4.3771614275e+00 -1.4980943716e-01 1.9081824972e+00 -3.3050690353e+00 1.9081824972e+00 3.3050690353e+00 
4500 4.3768213351e+00 -1.4601370067e-01 1.9121092887e+00 -3.3118704376e+00 1.9121092887e+00 3.3118704376e+00 
4600 4.3764890557e+00 -1.4228078752e-01 1.9159286885e+00 -3.3184858322e+00 1.9159286885e+00 3.3184858322e+00 
4700 4.3761617847e+00 -1.3861391304e-01 1.9196429879e+00 -3.3249191875e+00 1.9196429879e+00 3.3249191875e+00 
4800 4.3758374558e+00 -1.3501575551e-01 1.9232545262e+00 -3.3311745552e+00 1.9232545262e+00 3.3311745552e+00 
4900 4.3755146578e+00 -1.3148847884e-01 1.9267656774e+00 -3.3372560475e+00 1.9267656774e+00 3.3372560475e+00 
5000 4.3751925520e+00 -1.2803376018e-01 1.9301788381e+00 -3.3431678154e+00 1.9301788381e+00 3.3431678154e+00 
5100 4.3748707916e+00 -1.2465282129e-01 1.9334964158e+00 -3.3489140284e+00 1.9334964158e+00 3.3489140284e+00 
5200 4.3745494451e+00 -1.2134646275e-01 1.9367208180e+00 -3.3544988568e+00 1.9367208180e+00 3.3544988568e+00 
5300 4.3742289222e+00 -1.1811509987e-01 1.9398544427e+00 -3.3599264540e+00 1.9398544427e+00 3.3599264540e+00 
5400 4.3739099056e+00 -1.1495879963e-01 1.9428996698e+00 -3.3652009421e+00 1.9428996698e+00 3.3652009421e+00 
5500 4.3735932876e+00 -1.1187731762e-01 1.9458588532e+00 -3.3703263981e+00 1.9458588532e+00 3.3703263981e+00 
5600 4.3732801122e+00 -1.0887013460e-01 1.9487343142e+00 -3.3753068426e+00 1.9487343142e+00 3.3753068426e+00 
5700 4.3729715237e+00 -1.0593649192e-01 1.9515283356e+00 -3.3801462296e+00 1.9515283356e+00 3.3801462296e+00 
5800 4.3726687201e+00 -1.0307542543e-01 1.9542431569e+00 -3.3848484381e+00 1.9542431569e+00 3.3848484381e+00 
5900 4.3723729134e+00 -1.0028579758e-01 1.9568809703e+00 -3.3894172650e+00 1.9568809703e+00 3.3894172650e+00 
6000 4.3720852949e+00 -9.7566327385e-02 1.9594439176e+00 -3.3938564199e+00 1.9594439176e+00 3.3938564199e+00 
6100 4.3718070065e+00 -9.4915618108e-02 1.9619340874e+00 -3.3981695205e+00 1.9619340874e+00 3.3981695205e+00 
6200 4.3715391165e+00 -9.2332182594e-02 1.9643535137e+00 -3.4023600898e+00 1.9643535137e+00 3.4023600898e+00 
6300 4.3712826011e+00 -8.9814466186e-02 1.9667041744e+00 -3.4064315535e+00 1.9667041744e+00 3.4064315535e+00 
6400 4.3710383292e+00 -8.7360867268e-02 1.9689879908e+00 -3.4103872396e+00 1.9689879908e+00 3.4103872396e+00 
6500 4.3708070524e+00 -8.4969755466e-02 1.9712068274e+00 -3.4142303773e+00 1.9712068274e+00 3.4142303773e+00 
6600 4.3705893974e+00 -8.2639487640e-02 1.9733624922e+00 -3.4179640983e+00 1.9733624922e+00 3.4179640983e+00 
6700 4.3703858629e+00 -8.0368421744e-02 1.9754567371e+00 -3.4215914368e+00 1.9754567371e+00 3.4215914368e+00 
6800 4.3701968181e+00 -7.8154928719e-02 1.9774912590e+00 -3.4251153322e+00 1.9774912590e+00 3.4251153322e+00 
6900 4.3700225042e+00 -7.5997402555e-02 1.9794677009e+00 -3.4285386300e+00 1.9794677009e+00 3.4285386300e+00 
7000 4.3698630379e+00 -7.3894268660e-02 1.9813876533e+00 -3.4318640850e+00 1.9813876533e+00 3.4318640850e+00 
7100 4.3697184166e+00 -7.1843990716e-02 1.9832526556e+00 -3.4350943637e+00 1.9832526556e+00 3.4350943637e+00 
7200 4.3695885247e+00 -6.9845076143e-02 1.9850641977e+00 -3.4382320467e+00 1.9850641977e+00 3.4382320467e+00 
7300 4.3694731413e+00 -6.7896080337e-02 1.9868237223e+00 -3.4412796327e+00 1.9868237223e+00 3.4412796327e+00 
7400 4.3693719487e+00 -6.5995609808e-02 1.9885326259e+00 -3.4442395405e+00 1.9885326259e+00 3.4442395405e+00 
7500 4.3692845411e+00 -6.4142324351e-02 1.9901922612e+00 -3.4471141133e+00 1.9901922612e+00 3.4471141133e+00 
7600 4.3692104343e+00 -6.2334938375e-02 1.9918039390e+00 -3.4499056211e+00 1.9918039390e+00 3.4499056211e+00 
7700 4.3691490750e+00 -6.0572221494e-02 1.9933689297e+00 -3.4526162645e+00 1.9933689297e+00 3.4526162645e+00 
7800 4.3690998506e+00 -5.8852998488e-02 1.9948884656e+00 -3.4552481778e+00 1.9948884656e+00 3.4552481778e+00 
7900 4.3690620987e+00 -5.7176148722e-02 1.9963637422e+00 -3.4578034318e+00 1.9963637422e+00 3.4578034318e+00 
8000 4.3690351160e+00 -5.5540605114e-02 1.9977959205e+00 -3.4602840375e+00 1.9977959205e+00 3.4602840375e+00 
8100 4.3690181681e+00 -5.3945352715e-02 1.9991861286e+00 -3.4626919486e+00 1.9991861286e+00 3.4626919486e+00 
8200 4.3690104972e+00 -5.2389426983e-02 2.0005354631e+00 -3.4650290645e+00 2.0005354631e+00 3.4650290645e+00 
8300 4.3690113310e+00 -5.0871911793e-02 2.0018449910e+00 -3.4672972333e+00 2.0018449910e+00 3.4672972333e+00 
8400 4.3690198897e+00 -4.9391937260e-02 2.0031157510e+00 -3.4694982541e+00 2.0031157510e+00 3.4694982541e+00 
8500 4.3690353936e+00 -4.7948677394e-02 2.0043487551e+00 -3.4716338800e+00 2.0043487551e+00 3.4716338800e+00 
8600 4.3690570694e+00 -4.6541347653e-02 2.0055449902e+00 -3.4737058198e+00 2.0055449902e+00 3.4737058198e+00 
8700 4.3690841565e+00 -4.5169202417e-02 2.0067054187e+00 -3.4757157410e+00 2.0067054187e+00 3.4757157410e+00 
8800 4.3691159118e+00 -4.3831532415e-02 2.0078309806e+00 -3.4776652713e+00 2.0078309806e+00 3.4776652713e+00 
8900 4.3691516149e+00 -4.2527662139e-02 2.0089225939e+00 -3.4795560011e+00 2.0089225939e+00 3.4795560011e+00 
9000 4.3691905725e+00 -4.1256947268e-02 2.0099811562e+00 -3.4813894848e+00 2.0099811562e+00 3.4813894848e+00 
9100 4.3692321216e+00 -4.0018772119e-02 2.0110075453e+00 -3.4831672429e+00 2.0110075453e+00 3.4831672429e+00 
9200 4.3692756328e+00 -3.8812547143e-02 2.0120026204e+00 -3.4848907636e+00 2.0120026204e+00 3.4848907636e+00 
9300 4.3693205129e+00 -3.7637706494e-02 2.0129672227e+00 -3.4865615037e+00 2.0129672227e+00 3.4865615037e+00 
9400 4.3693662070e+00 -3.6493705664e-02 2.0139021763e+00 -3.4881808909e+00 2.0139021763e+00 3.4881808909e+00 
9500 4.3694121999e+00 -3.5380019216e-02 2.0148082889e+00 -3.4897503238e+00 2.0148082889e+00 3.4897503238e+00 
9600 4.3694580174e+00 -3.4296138606e-02 2.0156863523e+00 -3.4912711742e+00 2.0156863523e+00 3.4912711742e+00 
9700 4.3695032268e+00 -3.3241570122e-02 2.0165371431e+00 -3.4927447872e+00 2.0165371431e+00 3.4927447872e+00 
9800 4.3695474371e+00 -3.2215832922e-02 2.0173614233e+00 -3.4941724824e+00 2.0173614233e+00 3.4941724824e+00 
9900 4.3695902994e+00 -3.1218457203e-02 2.0181599406e+00 -3.4955555548e+00 2.0181599406e+00 3.4955555548e+00 
10000 4.3696315058e+00 -3.0248982481e-02 2.0189334286e+00 -3.4968952754e+00 2.0189334286e+00 3.4968952754e+00 
10100 4.3696707892e+00 -2.9306955997e-02 2.0196826076e+00 -3.4981928916e+00 2.0196826076e+00 3.4981928916e+00 
10200 4.3697079221e+00 -2.8391931251e-02 2.0204081847e+00 -3.4994496280e+00 2.0204081847e+00 3.4994496280e+00 
10300 4.3697427150e+00 -2.7503466658e-02 2.0211108541e+00 -3.5006666869e+00 2.0211108541e+00 3.5006666869e+00 
10400 4.3697750156e+00 -2.6641124331e-02 2.0217912969e+00 -3.5018452486e+00 2.0217912969e+00 3.5018452486e+00 
10500 4.3698047066e+00 -2.5804468987e-02 2.0224501822e+00 -3.5029864714e+00 2.0224501822e+00 3.5029864714e+00 
10600 4.3698317039e+00 -2.4993066974e-02 2.0230881664e+00 -3.5040914924e+00 2.0230881664e+00 3.5040914924e+00 
10700 4.3698559550e+00 -2.4206485418e-02 2.0237058938e+00 -3.5051614276e+00 2.0237058938e+00 3.5051614276e+00 
10800 4.3698774365e+00 -2.3444291487e-02 2.0243039964e+00 -3.5061973718e+00 2.0243039964e+00 3.5061973718e+00 
10900 4.3698961523e+00 -2.2706051763e-02 2.0248830944e+00 -3.5072003990e+00 2.0248830944e+00 3.5072003990e+00 
11000 4.3699121312e+00 -2.1991331729e-02 2.0254437959e+00 -3.5081715624e+00 2.0254437959e+00 3.5081715624e+00 
11100 4.3699254246e+00 -2.1299695349e-02 2.0259866971e+00 -3.5091118948e+00 2.0259866971e+00 3.5091118948e+00 
11200 4.3699361046e+00 -2.0630704753e-02 2.0265123820e+00 -3.5100224079e+00 2.0265123820e+00 3.5100224079e+00 
11300 4.3699442611e+00 -1.9983920014e-02 2.0270214233e+00 -3.5109040932e+00 2.0270214233e+00 3.5109040932e+00 
11400 4.3699500003e+00 -1.9358899004e-02 2.0275143813e+00 -3.5117579215e+00 2.0275143813e+00 3.5117579215e+00 
11500 4.3699534420e+00 -1.8755197343e-02 2.0279918048e+00 -3.5125848432e+00 2.0279918048e+00 3.5125848432e+00 
11600 4.3699547178e+00 -1.8172368409e-02 2.0284542305e+00 -3.5133857880e+00 2.0284542305e+00 3.5133857880e+00 
11700 4.3699539686e+00 -1.7609963426e-02 2.0289021833e+00 -3.5141616651e+00 2.0289021833e+00 3.5141616651e+00 
11800 4.3699513432e+00 -1.7067531610e-02 2.0293361764e+00 -3.5149133632e+00 2.0293361764e+00 3.5149133632e+00 
11900 4.3699469959e+00 -1.6544620371e-02 2.0297567110e+00 -3.5156417505e+00 2.0297567110e+00 3.5156417505e+00 
12000 4.3699410847e+00 -1.6040775566e-02 2.0301642765e+00 -3.5163476745e+00 2.0301642765e+00 3.5163476745e+00 
12100 4.3699337701e+00 -1.5555541795e-02 2.0305593503e+00 -3.5170319625e+00 2.0305593503e+00 3.5170319625e+00 
12200 4.3699252130e+00 -1.5088462732e-02 2.0309423982e+00 -3.5176954210e+00 2.0309423982e+00 3.5176954210e+00 
12300 4.3699155736e+00 -1.4639081496e-02 2.0313138741e+00 -3.5183388361e+00 2.0313138741e+00 3.5183388361e+00 
12400 4.3699050095e+00 -1.4206941036e-02 2.0316742200e+00 -3.5189629735e+00 2.0316742200e+00 3.5189629735e+00 
12500 4.3698936753e+00 -1.3791584551e-02 2.0320238664e+00 -3.5195685787e+00 2.0320238664e+00 3.5195685787e+00 
12600 4.3698817207e+00 -1.3392555914e-02 2.0323632317e+00 -3.5201563767e+00 2.0323632317e+00 3.5201563767e+00 
12700 4.3698692901e+00 -1.3009400115e-02 2.0326927229e+00 -3.5207270723e+00 2.0326927229e+00 3.5207270723e+00 
12800 4.3698565214e+00 -1.2641663708e-02 2.0330127354e+00 -3.5212813502e+00 2.0330127354e+00 3.5212813502e+00 
12900 4.3698435453e+00 -1.2288895262e-02 2.0333236529e+00 -3.5218198751e+00 2.0333236529e+00 3.5218198751e+00 
13000 4.3698304851e+00 -1.1950645807e-02 2.0336258478e+00 -3.5223432920e+00 2.0336258478e+00 3.5223432920e+00 
13100 4.3698174555e+00 -1.1626469281e-02 2.0339196810e+00 -3.5228522259e+00 2.0339196810e+00 3.5228522259e+00 
13200 4.3698045627e+00 -1.1315922968e-02 2.0342055020e+00 -3.5233472825e+00 2.0342055020e+00 3.5233472825e+00 
13300 4.3697919040e+00 -1.1018567920e-02 2.0344836495e+00 -3.5238290480e+00 2.0344836495e+00 3.5238290480e+00 
13400 4.3697795677e+00 -1.0733969372e-02 2.0347544507e+00 -3.5242980895e+00 2.0347544507e+00 3.5242980895e+00 
13500 4.3697676326e+00 -1.0461697141e-02 2.0350182221e+00 -3.5247549550e+00 2.0350182221e+00 3.5247549550e+00 
13600 4.3697561688e+00 -1.0201326006e-02 2.0352752693e+00 -3.5252001739e+00 2.0352752693e+00 3.5252001739e+00 
13700 4.3697452367e+00 -9.9524360688e-03 2.0355258874e+00 -3.5256342571e+00 2.0355258874e+00 3.5256342571e+00 
13800 4.3697348883e+00 -9.7146130975e-03 2.0357703607e+00 -3.5260576973e+00 2.0357703607e+00 3.5260576973e+00 
13900 4.3697251664e+00 -9.4874488481e-03 2.0360089633e+00 -3.5264709692e+00 2.0360089633e+00 3.5264709692e+00 
14000 4.3697161056e+00 -9.2705413640e-03 2.0362419591e+00 -3.5268745297e+00 2.0362419591e+00 3.5268745297e+00 
14100 4.3697077323e+00 -9.0634952539e-03 2.0364696019e+00 -3.5272688185e+00 2.0364696019e+00 3.5272688185e+00 
14200 4.3697000651e+00 -8.8659219477e-03 2.0366921355e+00 -3.5276542581e+00 2.0366921355e+00 3.5276542581e+00 
14300 4.3696931154e+00 -8.6774399299e-03 2.0369097943e+00 -3.5280312542e+00 2.0369097943e+00 3.5280312542e+00 
14400 4.3696868875e+00 -8.4976749511e-03 2.0371228031e+00 -3.5284001961e+00 2.0371228031e+00 3.5284001961e+00 
14500 4.3696813795e+00 -8.3262602171e-03 2.0373313771e+00 -3.5287614570e+00 2.0373313771e+00 3.5287614570e+00 
14600 4.3696765835e+00 -8.1628365574e-03 2.0375357229e+00 -3.5291153942e+00 2.0375357229e+00 3.5291153942e+00 
14700 4.3696724863e+00 -8.0070525726e-03 2.0377360376e+00 -3.5294623496e+00 2.0377360376e+00 3.5294623496e+00 
14800 4.3696690697e+00 -7.8585647613e-03 2.0379325101e+00 -3.5298026499e+00 2.0379325101e+00 3.5298026499e+00 
14900 4.3696663112e+00 -7.7170376287e-03 2.0381253204e+00 -3.5301366072e+00 2.0381253204e+00 3.5301366072e+00 
15000 4.3696641845e+00 -7.5821437759e-03 2.0383146404e+00 -3.5304645190e+00 2.0383146404e+00 3.5304645190e+00 
15100 4.3696626601e+00 -7.4535639718e-03 2.0385006338e+00 -3.5307866690e+00 2.0385006338e+00 3.5307866690e+00 
15200 4.3696617056e+00 -7.3309872088e-03 2.0386834563e+00 -3.5311033268e+00 2.0386834563e+00 3.5311033268e+00 
15300 4.3696612863e+00 -7.2141107421e-03 2.0388632560e+00 -3.5314147491e+00 2.0388632560e+00 3.5314147491e+00 
15400 4.3696613656e+00 -7.1026401153e-03 2.0390401736e+00 -3.5317211793e+00 2.0390401736e+00 3.5317211793e+00 
15500 4.3696619058e+00 -6.9962891717e-03 2.0392143423e+00 -3.5320228484e+00 2.0392143423e+00 3.5320228484e+00 
15600 4.3696628678e+00 -6.8947800525e-03 2.0393858885e+00 -3.5323199751e+00 2.0393858885e+00 3.5323199751e+00 
15700 4.3696642124e+00 -6.7978431841e-03 2.0395549314e+00 -3.5326127660e+00 2.0395549314e+00 3.5326127660e+00 
15800 4.3696659001e+00 -6.7052172540e-03 2.0397215838e+00 -3.5329014165e+00 2.0397215838e+00 3.5329014165e+00 
15900 4.3696678915e+00 -6.6166491764e-03 2.0398859520e+00 -3.5331861106e+00 2.0398859520e+00 3.5331861106e+00 
16000 4.3696701479e+00 -6.5318940494e-03 2.0400481360e+00 -3.5334670215e+00 2.0400481360e+00 3.5334670215e+00 
16100 4.3696726312e+00 -6.4507151028e-03 2.0402082298e+00 -3.5337443120e+00 2.0402082298e+00 3.5337443120e+00 
16200 4.3696753045e+00 -6.3728836394e-03 2.0403663214e+00 -3.5340181348e+00 2.0403663214e+00 3.5340181348e+00 
16300 4.3696781322e+00 -6.2981789679e-03 2.0405224935e+00 -3.5342886328e+00 2.0405224935e+00 3.5342886328e+00 
16400 4.3696810803e+00 -6.2263883307e-03 2.0406768231e+00 -3.5345559394e+00 2.0406768231e+00 3.5345559394e+00 
16500 4.3696841163e+00 -6.1573068255e-03 2.0408293819e+00 -3.5348201791e+00 2.0408293819e+00 3.5348201791e+00 
16600 4.3696872096e+00 -6.0907373211e-03 2.0409802368e+00 -3.5350814674e+00 2.0409802368e+00 3.5350814674e+00 
16700 4.3696903317e+00 -6.0264903690e-03 2.0411294497e+00 -3.5353399117e+00 2.0411294497e+00 3.5353399117e+00 
16800 4.3696934559e+00 -5.9643841108e-03 2.0412770779e+00 -3.5355956112e+00 2.0412770779e+00 3.5355956112e+00 
16900 4.3696965578e+00 -5.9042441809e-03 2.0414231740e+00 -3.5358486572e+00 2.0414231740e+00 3.5358486572e+00 
17000 4.3696996150e+00 -5.8459036058e-03 2.0415677867e+00 -3.5360991337e+00 2.0415677867e+00 3.5360991337e+00 
17100 4.3697026074e+00 -5.7892027006e-03 2.0417109603e+00 -3.5363471176e+00 2.0417109603e+00 3.5363471176e+00 
17200 4.3697055171e+00 -5.7339889611e-03 2.0418527353e+00 -3.5365926791e+00 2.0418527353e+00 3.5365926791e+00 
17300 4.3697083282e+00 -5.6801169543e-03 2.0419931483e+00 -3.5368358816e+00 2.0419931483e+00 3.5368358816e+00 
17400 4.3697110270e+00 -5.6274482052e-03 2.0421322326e+00 -3.5370767826e+00 2.0421322326e+00 3.5370767826e+00 
17500 4.3697136018e+00 -5.5758510813e-03 2.0422700177e+00 -3.5373154335e+00 2.0422700177e+00 3.5373154335e+00 
17600 4.3697160430e+00 -5.5252006744e-03 2.0424065304e+00 -3.5375518803e+00 2.0424065304e+00 3.5375518803e+00 
17700 4.3697183429e+00 -5.4753786805e-03 2.0425417939e+00 -3.5377861636e+00 2.0425417939e+00 3.5377861636e+00 
17800 4.3697204956e+00 -5.4262732766e-03 2.0426758288e+00 -3.5380183189e+00 2.0426758288e+00 3.5380183189e+00 
17900 4.3697224969e+00 -5.3777789958e-03 2.0428086529e+00 -3.5382483770e+00 2.0428086529e+00 3.5382483770e+00 
18000 4.3697243442e+00 -5.3297966002e-03 2.0429402814e+00 -3.5384763643e+00 2.0429402814e+00 3.5384763643e+00 
18100 4.3697260366e+00 -5.2822329512e-03 2.0430707271e+00 -3.5387023027e+00 2.0430707271e+00 3.5387023027e+00 
18200 4.3697275744e+00 -5.2350008781e-03 2.0432000003e+00 -3.5389262106e+00 2.0432000003e+00 3.5389262106e+00 
18300 4.3697289593e+00 -5.1880190445e-03 2.0433281096e+00 -3.5391481023e+00 2.0433281096e+00 3.5391481023e+00 
18400 4.3697301941e+00 -5.1412118124e-03 2.0434550611e+00 -3.5393679888e+00 2.0434550611e+00 3.5393679888e+00 
18500 4.3697312826e+00 -5.0945091052e-03 2.0435808594e+00 -3.5395858779e+00 2.0435808594e+00 3.5395858779e+00 
18600 4.3697322298e+00 -5.0478462674e-03 2.0437055073e+00 -3.5398017744e+00 2.0437055073e+00 3.5398017744e+00 
18700 4.3697330412e+00 -5.0011639237e-03 2.0438290060e+00 -3.5400156803e+00 2.0438290060e+00 3.5400156803e+00 
18800 4.3697337231e+00 -4.9544078356e-03 2.0439513551e+00 -3.5402275952e+00 2.0439513551e+00 3.5402275952e+00 
18900 4.3697342823e+00 -4.9075287563e-03 2.0440725531e+00 -3.5404375163e+00 2.0440725531e+00 3.5404375163e+00 
19000 4.3697347263e+00 -4.8604822843e-03 2.0441925972e+00 -3.5406454388e+00 2.0441925972e+00 3.5406454388e+00 
19100 4.3697350627e+00 -4.8132287153e-03 2.0443114835e+00 -3.5408513559e+00 2.0443114835e+00 3.5408513559e+00 
19200 4.3697352996e+00 -4.7657328920e-03 2.0444292071e+00 -3.5410552592e+00 2.0444292071e+00 3.5410552592e+00 
19300 4.3697354451e+00 -4.7179640541e-03 2.0445457623e+00 -3.5412571387e+00 2.0445457623e+00 3.5412571387e+00 
19400 4.3697355075e+00 -4.6698956853e-03 2.0446611427e+00 -3.5414569834e+00 2.0446611427e+00 3.5414569834e+00 
19500 4.3697354950e+00 -4.6215053603e-03 2.0447753410e+00 -3.5416547808e+00 2.0447753410e+00 3.5416547808e+00 
19600 4.3697354160e+00 -4.5727745909e-03 2.0448883497e+00 -3.5418505176e+00 2.0448883497e+00 3.5418505176e+00 
19700 4.3697352784e+00 -4.5236886710e-03 2.0450001606e+00 -3.5420441797e+00 2.0450001606e+00 3.5420441797e+00 
19800 4.3697350902e+00 -4.4742365210e-03 2.0451107653e+00 -3.5422357526e+00 2.0451107653e+00 3.5422357526e+00 
19900 4.3697348591e+00 -4.4244105318e-03 2.0452201549e+00 -3.5424252209e+00 2.0452201549e+00 3.5424252209e+00 
20000 4.3697345924e+00 -4.3742064091e-03 2.0453283205e+00 -3.5426125692e+00 2.0453283205e+00 3.5426125692e+00 
20100 4.3697342973e+00 -4.3236230168e-03 2.0454352530e+00 -3.5427977819e+00 2.0454352530e+00 3.5427977819e+00 
20200 4.3697339803e+00 -4.2726622217e-03 2.0455409435e+00 -3.5429808431e+00 2.0455409435e+00 3.5429808431e+00 
20300 4.3697336478e+00 -4.2213287369e-03 2.0456453828e+00 -3.5431617373e+00 2.0456453828e+00 3.5431617373e+00 
20400 4.3697333057e+00 -4.1696299681e-03 2.0457485621e+00 -3.5433404491e+00 2.0457485621e+00 3.5433404491e+00 
20500 4.3697329594e+00 -4.1175758583e-03 2.0458504726e+00 -3.5435169632e+00 2.0458504726e+00 3.5435169632e+00 
20600 4.3697326139e+00 -4.0651787353e-03 2.0459511058e+00 -3.5436912651e+00 2.0459511058e+00 3.5436912651e+00 
20700 4.3697322739e+00 -4.0124531599e-03 2.0460504535e+00 -3.5438633404e+00 2.0460504535e+00 3.5438633404e+00 
20800 4.3697319434e+00 -3.9594157748e-03 2.0461485079e+00 -3.5440331756e+00 2.0461485079e+00 3.5440331756e+00 
20900 4.3697316260e+00 -3.9060851566e-03 2.0462452616e+00 -3.5442007578e+00 2.0462452616e+00 3.5442007578e+00 
21000 4.3697313251e+00 -3.8524816684e-03 2.0463407075e+00 -3.5443660750e+00 2.0463407075e+00 3.5443660750e+00 
21100 4.3697310433e+00 -3.7986273155e-03 2.0464348392e+00 -3.5445291159e+00 2.0464348392e+00 3.5445291159e+00 
21200 4.3697307830e+00 -3.7445456022e-03 2.0465276508e+00 -3.5446898703e+00 2.0465276508e+00 3.5446898703e+00 
21300 4.3697305462e+00 -3.6902613926e-03 2.0466191368e+00 -3.5448483287e+00 2.0466191368e+00 3.5448483287e+00 
21400 4.3697303345e+00 -3.6358007730e-03 2.0467092925e+00 -3.5450044830e+00 2.0467092925e+00 3.5450044830e+00 
21500 4.3697301489e+00 -3.5811909173e-03 2.0467981138e+00 -3.5451583260e+00 2.0467981138e+00 3.5451583260e+00 
21600 4.3697299904e+00 -3.5264599559e-03 2.0468855972e+00 -3.5453098516e+00 2.0468855972e+00 3.5453098516e+00 
21700 4.3697298594e+00 -3.4716368475e-03 2.0469717399e+00 -3.5454590551e+00 2.0469717399e+00 3.5454590551e+00 
21800 4.3697297561e+00 -3.4167512545e-03 2.0470565398e+00 -3.5456059329e+00 2.0470565398e+00 3.5456059329e+00 
21900 4.3697296804e+00 -3.3618334214e-03 2.0471399956e+00 -3.5457504826e+00 2.0471399956e+00 3.5457504826e+00 
22000 4.3697296320e+00 -3.3069140578e-03 2.0472221066e+00 -3.5458927031e+00 2.0472221066e+00 3.5458927031e+00 
22100 4.3697296103e+00 -3.2520242244e-03 2.0473028731e+00 -3.5460325946e+00 2.0473028731e+00 3.5460325946e+00 
22200 4.3697296144e+00 -3.1971952230e-03 2.0473822957e+00 -3.5461701587e+00 2.0473822957e+00 3.5461701587e+00 
22300 4.3697296435e+00 -3.1424584912e-03 2.0474603763e+00 -3.5463053982e+00 2.0474603763e+00 3.5463053982e+00 
22400 4.3697296963e+00 -3.0878455003e-03 2.0475371172e+00 -3.5464383173e+00 2.0475371172e+00 3.5464383173e+00 
22500 4.3697297717e+00 -3.0333876580e-03 2.0476125215e+00 -3.5465689215e+00 2.0476125215e+00 3.5465689215e+00 
22600 4.3697298681e+00 -2.9791162154e-03 2.0476865933e+00 -3.5466972176e+00 2.0476865933e+00 3.5466972176e+00 
22700 4.3697299842e+00 -2.9250621779e-03 2.0477593372e+00 -3.5468232137e+00 2.0477593372e+00 3.5468232137e+00 
22800 4.3697301183e+00 -2.8712562207e-03 2.0478307587e+00 -3.5469469193e+00 2.0478307587e+00 3.5469469193e+00 
22900 4.3697302689e+00 -2.8177286089e-03 2.0479008639e+00 -3.5470683451e+00 2.0479008639e+00 3.5470683451e+00 
23000 4.3697304343e+00 -2.7645091219e-03 2.0479696598e+00 -3.5471875031e+00 2.0479696598e+00 3.5471875031e+00 
23100 4.3697306129e+00 -2.7116269820e-03 2.0480371541e+00 -3.5473044066e+00 2.0480371541e+00 3.5473044066e+00 
23200 4.3697308030e+00 -2.6591107877e-03 2.0481033551e+00 -3.5474190701e+00 2.0481033551e+00 3.5474190701e+00 
23300 4.3697310031e+00 -2.6069884516e-03 2.0481682718e+00 -3.5475315092e+00 2.0481682718e+00 3.5475315092e+00 
23400 4.3697312114e+00 -2.5552871422e-03 2.0482319141e+00 -3.5476417409e+00 2.0482319141e+00 3.5476417409e+00 
23500 4.3697314265e+00 -2.5040332305e-03 2.0482942923e+00 -3.5477497831e+00 2.0482942923e+00 3.5477497831e+00 
23600 4.3697316467e+00 -2.4532522407e-03 2.0483554174e+00 -3.5478556550e+00 2.0483554174e+00 3.5478556550e+00 
23700 4.3697318708e+00 -2.4029688055e-03 2.0484153012e+00 -3.5479593767e+00 2.0484153012e+00 3.5479593767e+00 
23800 4.3697320972e+00 -2.3532066252e-03 2.0484739558e+00 -3.5480609694e+00 2.0484739558e+00 3.5480609694e+00 
23900 4.3697323248e+00 -2.3039884310e-03 2.0485313941e+00 -3.5481604555e+00 2.0485313941e+00 3.5481604555e+00 
24000 4.3697325522e+00 -2.2553359530e-03 2.0485876295e+00 -3.5482578580e+00 2.0485876295e+00 3.5482578580e+00 
24100 4.3697327783e+00 -2.2072698911e-03 2.0486426759e+00 -3.5483532011e+00 2.0486426759e+00 3.5483532011e+00 
24200 4.3697330021e+00 -2.1598098909e-03 2.0486965476e+00 -3.5484465098e+00 2.0486965476e+00 3.5484465098e+00 
24300 4.3697332227e+00 -2.1129745224e-03 2.0487492597e+00 -3.5485378097e+00 2.0487492597e+00 3.5485378097e+00 
24400 4.3697334391e+00 -2.0667812631e-03 2.0488008273e+00 -3.5486271275e+00 2.0488008273e+00 3.5486271275e+00 
24500 4.3697336506e+00 -2.0212464847e-03 2.0488512663e+00 -3.5487144904e+00 2.0488512663e+00 3.5487144904e+00 
24600 4.3697338566e+00 -1.9763854423e-03 2.0489005928e+00 -3.5487999265e+00 2.0489005928e+00 3.5487999265e+00 
24700 4.3697340564e+00 -1.9322122684e-03 2.0489488234e+00 -3.5488834643e+00 2.0489488234e+00 3.5488834643e+00 
24800 4.3697342495e+00 -1.8887399685e-03 2.0489959749e+00 -3.5489651330e+00 2.0489959749e+00 3.5489651330e+00 
24900 4.3697344355e+00 -1.8459804215e-03 2.0490420645e+00 -3.5490449625e+00 2.0490420645e+00 3.5490449625e+00 
25000 4.3697346142e+00 -1.8039443815e-03 2.0490871096e+00 -3.5491229830e+00 2.0490871096e+00 3.5491229830e+00 
25100 4.3697347852e+00 -1.7626414832e-03 2.0491311280e+00 -3.5491992251e+00 2.0491311280e+00 3.5491992251e+00 
25200 4.3697349484e+00 -1.7220802504e-03 2.0491741376e+00 -3.5492737199e+00 2.0491741376e+00 3.5492737199e+00 
25300 4.3697351037e+00 -1.6822681057e-03 2.0492161567e+00 -3.5493464990e+00 2.0492161567e+00 3.5493464990e+00 
25400 4.3697352510e+00 -1.6432113839e-03 2.0492572034e+00 -3.5494175941e+00 2.0492572034e+00 3.5494175941e+00 
25500 4.3697353904e+00 -1.6049153475e-03 2.0492972964e+00 -3.5494870372e+00 2.0492972964e+00 3.5494870372e+00 
25600 4.3697355220e+00 -1.5673842032e-03 2.0493364542e+00 -3.5495548605e+00 2.0493364542e+00 3.5495548605e+00 
25700 4.3697356459e+00 -1.5306211222e-03 2.0493746956e+00 -3.5496210966e+00 2.0493746956e+00 3.5496210966e+00 
25800 4.3697357622e+00 -1.4946282606e-03 2.0494120393e+00 -3.5496857778e+00 2.0494120393e+00 3.5496857778e+00 
25900 4.3697358712e+00 -1.4594067828e-03 2.0494485043e+00 -3.5497489369e+00 2.0494485043e+00 3.5497489369e+00 
26000 4.3697359732e+00 -1.4249568860e-03 2.0494841092e+00 -3.5498106065e+00 2.0494841092e+00 3.5498106065e+00 
26100 4.3697360684e+00 -1.3912778260e-03 2.0495188731e+00 -3.5498708193e+00 2.0495188731e+00 3.5498708193e+00 
26200 4.3697361572e+00 -1.3583679447e-03 2.0495528148e+00 -3.5499296080e+00 2.0495528148e+00 3.5499296080e+00 
26300 4.3697362399e+00 -1.3262246985e-03 2.0495859530e+00 -3.5499870051e+00 2.0495859530e+00 3.5499870051e+00 
26400 4.3697363168e+00 -1.2948446881e-03 2.0496183066e+00 -3.5500430431e+00 2.0496183066e+00 3.5500430431e+00 
26500 4.3697363883e+00 -1.2642236887e-03 2.0496498941e+00 -3.5500977544e+00 2.0496498941e+00 3.5500977544e+00 
26600 4.3697364547e+00 -1.2343566819e-03 2.0496807342e+00 -3.5501511709e+00 2.0496807342e+00 3.5501511709e+00 
26700 4.3697365166e+00 -1.2052378876e-03 2.0497108452e+00 -3.5502033248e+00 2.0497108452e+00 3.5502033248e+00 
26800 4.3697365741e+00 -1.1768607965e-03 2.0497402455e+00 -3.5502542475e+00 2.0497402455e+00 3.5502542475e+00 
26900 4.3697366278e+00 -1.1492182038e-03 2.0497689531e+00 -3.5503039706e+00 2.0497689531e+00 3.5503039706e+00 
27000 4.3697366779e+00 -1.1223022426e-03 2.0497969861e+00 -3.5503525250e+00 2.0497969861e+00 3.5503525250e+00 
27100 4.3697367249e+00 -1.0961044179e-03 2.0498243620e+00 -3.5503999417e+00 2.0498243620e+00 3.5503999417e+00 
27200 4.3697367691e+00 -1.0706156408e-03 2.0498510987e+00 -3.5504462508e+00 2.0498510987e+00 3.5504462508e+00 
27300 4.3697368108e+00 -1.0458262626e-03 2.0498772132e+00 -3.5504914825e+00 2.0498772132e+00 3.5504914825e+00 
27400 4.3697368503e+00 -1.0217261092e-03 2.0499027227e+00 -3.5505356663e+00 2.0499027227e+00 3.5505356663e+00 
27500 4.3697368881e+00 -9.9830451532e-04 2.0499276441e+00 -3.5505788314e+00 2.0499276441e+00 3.5505788314e+00 
27600 4.3697369242e+00 -9.7555035868e-04 2.0499519939e+00 -3.5506210065e+00 2.0499519939e+00 3.5506210065e+00 
27700 4.3697369591e+00 -9.5345209355e-04 2.0499757884e+00 -3.5506622198e+00 2.0499757884e+00 3.5506622198e+00 
27800 4.3697369930e+00 -9.3199778454e-04 2.0499990437e+00 -3.5507024991e+00 2.0499990437e+00 3.5507024991e+00 
27900 4.3697370261e+00 -9.1117513968e-04 2.0500217754e+00 -3.5507418716e+00 2.0500217754e+00 3.5507418716e+00 
28000 4.3697370586e+00 -8.9097154323e-04 2.0500439990e+00 -3.5507803639e+00 2.0500439990e+00 3.5507803639e+00 
28100 4.3697370908e+00 -8.7137408792e-04 2.0500657295e+00 -3.5508180024e+00 2.0500657295e+00 3.5508180024e+00 
28200 4.3697371227e+00 -8.5236960667e-04 2.0500869819e+00 -3.5508548126e+00 2.0500869819e+00 3.5508548126e+00 
28300 4.3697371546e+00 -8.3394470373e-04 2.0501077706e+00 -3.5508908196e+00 2.0501077706e+00 3.5508908196e+00 
28400 4.3697371866e+00 -8.1608578516e-04 2.0501281097e+00 -3.5509260480e+00 2.0501281097e+00 3.5509260480e+00 
28500 4.3697372188e+00 -7.9877908861e-04 2.0501480130e+00 -3.5509605215e+00 2.0501480130e+00 3.5509605215e+00 
28600 4.3697372514e+00 -7.8201071238e-04 2.0501674940e+00 -3.5509942637e+00 2.0501674940e+00 3.5509942637e+00 
28700 4.3697372843e+00 -7.6576664372e-04 2.0501865659e+00 -3.5510272972e+00 2.0501865659e+00 3.5510272972e+00 
28800 4.3697373176e+00 -7.5003278629e-04 2.0502052415e+00 -3.5510596442e+00 2.0502052415e+00 3.5510596442e+00 
28900 4.3697373514e+00 -7.3479498685e-04 2.0502235332e+00 -3.5510913263e+00 2.0502235332e+00 3.5510913263e+00 
29000 4.3697373858e+00 -7.2003906102e-04 2.0502414531e+00 -3.5511223645e+00 2.0502414531e+00 3.5511223645e+00 
29100 4.3697374208e+00 -7.0575081819e-04 2.0502590130e+00 -3.5511527791e+00 2.0502590130e+00 3.5511527791e+00 
29200 4.3697374562e+00 -6.9191608557e-04 2.0502762242e+00 -3.5511825899e+00 2.0502762242e+00 3.5511825899e+00 
29300 4.3697374923e+00 -6.7852073120e-04 2.0502930980e+00 -3.5512118161e+00 2.0502930980e+00 3.5512118161e+00 
29400 4.3697375288e+00 -6.6555068615e-04 2.0503096449e+00 -3.5512404763e+00 2.0503096449e+00 3.5512404763e+00 
29500 4.3697375659e+00 -6.5299196569e-04 2.0503258754e+00 -3.5512685883e+00 2.0503258754e+00 3.5512685883e+00 
29600 4.3697376034e+00 -6.4083068954e-04 2.0503417996e+00 -3.5512961697e+00 2.0503417996e+00 3.5512961697e+00 
29700 4.3697376414e+00 -6.2905310115e-04 2.0503574270e+00 -3.5513232372e+00 2.0503574270e+00 3.5513232372e+00 
29800 4.3697376798e+00 -6.1764558599e-04 2.0503727671e+00 -3.5513498071e+00 2.0503727671e+00 3.5513498071e+00 
29900 4.3697377185e+00 -6.0659468890e-04 2.0503878289e+00 -3.5513758949e+00 2.0503878289e+00 3.5513758949e+00 
30000 4.3697377574e+00 -5.9588713047e-04 2.0504026211e+00 -3.5514015157e+00 2.0504026211e+00 3.5514015157e+00 
30100 4.3697377966e+00 -5.8550982241e-04 2.0504171521e+00 -3.5514266842e+00 2.0504171521e+00 3.5514266842e+00 
30200 4.3697378360e+00 -5.7544988201e-04 2.0504314300e+00 -3.5514514141e+00 2.0504314300e+00 3.5514514141e+00 
30300 4.3697378754e+00 -5.6569464564e-04 2.0504454624e+00 -3.5514757190e+00 2.0504454624e+00 3.5514757190e+00 
30400 4.3697379148e+00 -5.5623168128e-04 2.0504592568e+00 -3.5514996117e+00 2.0504592568e+00 3.5514996117e+00 
30500 4.3697379542e+00 -5.4704880013e-04 2.0504728204e+00 -3.5515231045e+00 2.0504728204e+00 3.5515231045e+00 
30600 4.3697379935e+00 -5.3813406727e-04 2.0504861600e+00 -3.5515462094e+00 2.0504861600e+00 3.5515462094e+00 
30700 4.3697380326e+00 -5.2947581149e-04 2.0504992821e+00 -3.5515689376e+00 2.0504992821e+00 3.5515689376e+00 
30800 4.3697380715e+00 -5.2106263412e-04 2.0505121931e+00 -3.5515912999e+00 2.0505121931e+00 3.5515912999e+00 
30900 4.3697381101e+00 -5.1288341704e-04 2.0505248987e+00 -3.5516133068e+00 2.0505248987e+00 3.5516133068e+00 
31000 4.3697381484e+00 -5.0492732984e-04 2.0505374049e+00 -3.5516349681e+00 2.0505374049e+00 3.5516349681e+00 
31100 4.3697381862e+00 -4.9718383614e-04 2.0505497170e+00 -3.5516562933e+00 2.0505497170e+00 3.5516562933e+00 
31200 4.3697382236e+00 -4.8964269901e-04 2.0505618402e+00 -3.5516772913e+00 2.0505618402e+00 3.5516772913e+00 
31300 4.3697382605e+00 -4.8229398570e-04 2.0505737794e+00 -3.5516979706e+00 2.0505737794e+00 3.5516979706e+00 
31400 4.3697382969e+00 -4.7512807152e-04 2.0505855394e+00 -3.5517183395e+00 2.0505855394e+00 3.5517183395e+00 
31500 4.3697383327e+00 -4.6813564299e-04 2.0505971246e+00 -3.5517384057e+00 2.0505971246e+00 3.5517384057e+00 
31600 4.3697383679e+00 -4.6130770023e-04 2.0506085392e+00 -3.5517581764e+00 2.0506085392e+00 3.5517581764e+00 
31700 4.3697384024e+00 -4.5463555872e-04 2.0506197873e+00 -3.5517776586e+00 2.0506197873e+00 3.5517776586e+00 
31800 4.3697384362e+00 -4.4811085023e-04 2.0506308726e+00 -3.5517968590e+00 2.0506308726e+00 3.5517968590e+00 
31900 4.3697384694e+00 -4.4172552323e-04 2.0506417988e+00 -3.5518157837e+00 2.0506417988e+00 3.5518157837e+00 
32000 4.3697385018e+00 -4.3547184263e-04 2.0506525693e+00 -3.5518344386e+00 2.0506525693e+00 3.5518344386e+00 
32100 4.3697385335e+00 -4.2934238882e-04 2.0506631871e+00 -3.5518528294e+00 2.0506631871e+00 3.5518528294e+00 
32200 4.3697385645e+00 -4.2333005627e-04 2.0506736555e+00 -3.5518709611e+00 2.0506736555e+00 3.5518709611e+00 
32300 4.3697385948e+00 -4.1742805146e-04 2.0506839773e+00 -3.5518888389e+00 2.0506839773e+00 3.5518888389e+00 
32400 4.3697386242e+00 -4.1162989033e-04 2.0506941551e+00 -3.5519064673e+00 2.0506941551e+00 3.5519064673e+00 
32500 4.3697386530e+00 -4.0592939524e-04 2.0507041914e+00 -3.5519238508e+00 2.0507041914e+00 3.5519238508e+00 
32600 4.3697386809e+00 -4.0032069137e-04 2.0507140887e+00 -3.5519409935e+00 2.0507140887e+00 3.5519409935e+00 
32700 4.3697387082e+00 -3.9479820279e-04 2.0507238493e+00 -3.5519578992e+00 2.0507238493e+00 3.5519578992e+00 
32800 4.3697387347e+00 -3.8935664800e-04 2.0507334751e+00 -3.5519745717e+00 2.0507334751e+00 3.5519745717e+00 
32900 4.3697387605e+00 -3.8399103514e-04 2.0507429682e+00 -3.5519910142e+00 2.0507429682e+00 3.5519910142e+00 
33000 4.3697387855e+00 -3.7869665678e-04 2.0507523305e+00 -3.5520072301e+00 2.0507523305e+00 3.5520072301e+00 
33100 4.3697388099e+00 -3.7346908435e-04 2.0507615636e+00 -3.5520232224e+00 2.0507615636e+00 3.5520232224e+00 
33200 4.3697388336e+00 -3.6830416236e-04 2.0507706692e+00 -3.5520389938e+00 2.0507706692e+00 3.5520389938e+00 
33300 4.3697388566e+00 -3.6319800216e-04 2.0507796489e+00 -3.5520545470e+00 2.0507796489e+00 3.5520545470e+00 
33400 4.3697388790e+00 -3.5814697555e-04 2.0507885040e+00 -3.5520698845e+00 2.0507885040e+00 3.5520698845e+00 
33500 4.3697389008e+00 -3.5314770810e-04 2.0507972359e+00 -3.5520850087e+00 2.0507972359e+00 3.5520850087e+00 
33600 4.3697389220e+00 -3.4819707224e-04 2.0508058460e+00 -3.5520999217e+00 2.0508058460e+00 3.5520999217e+00 
33700 4.3697389426e+00 -3.4329218014e-04 2.0508143352e+00 -3.5521146255e+00 2.0508143352e+00 3.5521146255e+00 
33800 4.3697389626e+00 -3.3843037646e-04 2.0508227049e+00 -3.5521291222e+00 2.0508227049e+00 3.5521291222e+00 
33900 4.3697389821e+00 -3.3360923089e-04 2.0508309560e+00 -3.5521434135e+00 2.0508309560e+00 3.5521434135e+00 
34000 4.3697390011e+00 -3.2882653059e-04 2.0508390895e+00 -3.5521575012e+00 2.0508390895e+00 3.5521575012e+00 
34100 4.3697390196e+00 -3.2408027251e-04 2.0508471064e+00 -3.5521713868e+00 2.0508471064e+00 3.5521713868e+00 
34200 4.3697390376e+00 -3.1936865563e-04 2.0508550075e+00 -3.5521850720e+00 2.0508550075e+00 3.5521850720e+00 
34300 4.3697390552e+00 -3.1469007307e-04 2.0508627938e+00 -3.5521985582e+00 2.0508627938e+00 3.5521985582e+00 
34400 4.3697390723e+00 -3.1004310425e-04 2.0508704659e+00 -3.5522118467e+00 2.0508704659e+00 3.5522118467e+00 
34500 4.3697390891e+00 -3.0542650693e-04 2.0508780247e+00 -3.5522249390e+00 2.0508780247e+00 3.5522249390e+00 
34600 4.3697391054e+00 -3.0083920927e-04 2.0508854710e+00 -3.5522378362e+00 2.0508854710e+00 3.5522378362e+00 
34700 4.3697391215e+00 -2.9628030192e-04 2.0508928054e+00 -3.5522505398e+00 2.0508928054e+00 3.5522505398e+00 
34800 4.3697391371e+00 -2.9174903004e-04 2.0509000286e+00 -3.5522630507e+00 2.0509000286e+00 3.5522630507e+00 
34900 4.3697391525e+00 -2.8724478546e-04 2.0509071413e+00 -3.5522753703e+00 2.0509071413e+00 3.5522753703e+00 
35000 4.3697391675e+00 -2.8276709885e-04 2.0509141442e+00 -3.5522874996e+00 2.0509141442e+00 3.5522874996e+00 
35100 4.3697391822e+00 -2.7831563191e-04 2.0509210378e+00 -3.5522994399e+00 2.0509210378e+00 3.5522994399e+00 
35200 4.3697391967e+00 -2.7389016971e-04 2.0509278230e+00 -3.5523111921e+00 2.0509278230e+00 3.5523111921e+00 
35300 4.3697392109e+00 -2.6949061309e-04 2.0509345002e+00 -3.5523227574e+00 2.0509345002e+00 3.5523227574e+00 
35400 4.3697392248e+00 -2.6511697116e-04 2.0509410702e+00 -3.5523341369e+00 2.0509410702e+00 3.5523341369e+00 
35500 4.3697392385e+00 -2.6076935392e-04 2.0509475335e+00 -3.5523453316e+00 2.0509475335e+00 3.5523453316e+00 
35600 4.3697392520e+00 -2.5644796503e-04 2.0509538908e+00 -3.5523563428e+00 2.0509538908e+00 3.5523563428e+00 
35700 4.3697392652e+00 -2.5215309466e-04 2.0509601427e+00 -3.5523671714e+00 2.0509601427e+00 3.5523671714e+00 
35800 4.3697392782e+00 -2.4788511256e-04 2.0509662899e+00 -3.5523778187e+00 2.0509662899e+00 3.5523778187e+00 
35900 4.3697392911e+00 -2.4364446123e-04 2.0509723330e+00 -3.5523882857e+00 2.0509723330e+00 3.5523882857e+00 
36000 4.3697393037e+00 -2.3943164931e-04 2.0509782727e+00 -3.5523985736e+00 2.0509782727e+00 3.5523985736e+00 
36100 4.3697393162e+00 -2.3524724504e-04 2.0509841098e+00 -3.5524086836e+00 2.0509841098e+00 3.5524086836e+00 
36200 4.3697393285e+00 -2.3109187004e-04 2.0509898447e+00 -3.5524186169e+00 2.0509898447e+00 3.5524186169e+00 
36300 4.3697393406e+00 -2.2696619315e-04 2.0509954784e+00 -3.5524283747e+00 2.0509954784e+00 3.5524283747e+00 
36400 4.3697393525e+00 -2.2287092451e-04 2.0510010115e+00 -3.5524379583e+00 2.0510010115e+00 3.5524379583e+00 
36500 4.3697393643e+00 -2.1880680989e-04 2.0510064447e+00 -3.5524473689e+00 2.0510064447e+00 3.5524473689e+00 
36600 4.3697393759e+00 -2.1477462507e-04 2.0510117789e+00 -3.5524566079e+00 2.0510117789e+00 3.5524566079e+00 
36700 4.3697393873e+00 -2.1077517060e-04 2.0510170147e+00 -3.5524656766e+00 2.0510170147e+00 3.5524656766e+00 
36800 4.3697393986e+00 -2.0680926664e-04 2.0510221530e+00 -3.5524745764e+00 2.0510221530e+00 3.5524745764e+00 
36900 4.3697394098e+00 -2.0287774805e-04 2.0510271946e+00 -3.5524833088e+00 2.0510271946e+00 3.5524833088e+00 
37000 4.3697394207e+00 -1.9898145970e-04 2.0510321404e+00 -3.5524918751e+00 2.0510321404e+00 3.5524918751e+00 
37100 4.3697394316e+00 -1.9512125197e-04 2.0510369911e+00 -3.5525002768e+00 2.0510369911e+00 3.5525002768e+00 
37200 4.3697394422e+00 -1.9129797647e-04 2.0510417478e+00 -3.5525085156e+00 2.0510417478e+00 3.5525085156e+00 
37300 4.3697394527e+00 -1.8751248199e-04 2.0510464112e+00 -3.5525165929e+00 2.0510464112e+00 3.5525165929e+00 
37400 4.3697394631e+00 -1.8376561062e-04 2.0510509824e+00 -3.5525245104e+00 2.0510509824e+00 3.5525245104e+00 
37500 4.3697394733e+00 -1.8005819412e-04 2.0510554622e+00 -3.5525322696e+00 2.0510554622e+00 3.5525322696e+00 
37600 4.3697394834e+00 -1.7639105050e-04 2.0510598516e+00 -3.5525398723e+00 2.0510598516e+00 3.5525398723e+00 
37700 4.3697394933e+00 -1.7276498075e-04 2.0510641516e+00 -3.5525473201e+00 2.0510641516e+00 3.5525473201e+00 
37800 4.3697395030e+00 -1.6918076588e-04 2.0510683632e+00 -3.5525546148e+00 2.0510683632e+00 3.5525546148e+00 
37900 4.3697395126e+00 -1.6563916406e-04 2.0510724874e+00 -3.5525617581e+00 2.0510724874e+00 3.5525617581e+00 
38000 4.3697395221e+00 -1.6214090803e-04 2.0510765252e+00 -3.5525687519e+00 2.0510765252e+00 3.5525687519e+00 
38100 4.3697395314e+00 -1.5868670268e-04 2.0510804778e+00 -3.5525755980e+00 2.0510804778e+00 3.5525755980e+00 
38200 4.3697395405e+00 -1.5527722284e-04 2.0510843462e+00 -3.5525822982e+00 2.0510843462e+00 3.5525822982e+00 
38300 4.3697395495e+00 -1.5191311124e-04 2.0510881314e+00 -3.5525888545e+00 2.0510881314e+00 3.5525888545e+00 
38400 4.3697395583e+00 -1.4859497666e-04 2.0510918347e+00 -3.5525952686e+00 2.0510918347e+00 3.5525952686e+00 
38500 4.3697395670e+00 -1.4532339232e-04 2.0510954570e+00 -3.5526015427e+00 2.0510954570e+00 3.5526015427e+00 
38600 4.3697395756e+00 -1.4209889435e-04 2.0510989996e+00 -3.5526076786e+00 2.0510989996e+00 3.5526076786e+00 
38700 4.3697395840e+00 -1.3892198053e-04 2.0511024636e+00 -3.5526136784e+00 2.0511024636e+00 3.5526136784e+00 
38800 4.3697395922e+00 -1.3579310913e-04 2.0511058501e+00 -3.5526195440e+00 2.0511058501e+00 3.5526195440e+00 
38900 4.3697396003e+00 -1.3271269797e-04 2.0511091603e+00 -3.5526252776e+00 2.0511091603e+00 3.5526252776e+00 
39000 4.3697396082e+00 -1.2968112358e-04 2.0511123955e+00 -3.5526308810e+00 2.0511123955e+00 3.5526308810e+00 
39100 4.3697396160e+00 -1.2669872057e-04 2.0511155567e+00 -3.5526363564e+00 2.0511155567e+00 3.5526363564e+00 
39200 4.3697396236e+00 -1.2376578112e-04 2.0511186452e+00 -3.5526417059e+00 2.0511186452e+00 3.5526417059e+00 
39300 4.3697396311e+00 -1.2088255464e-04 2.0511216623e+00 -3.5526469316e+00 2.0511216623e+00 3.5526469316e+00 
39400 4.3697396385e+00 -1.1804924750e-04 2.0511246090e+00 -3.5526520355e+00 2.0511246090e+00 3.5526520355e+00 
39500 4.3697396457e+00 -1.1526602296e-04 2.0511274867e+00 -3.5526570197e+00 2.0511274867e+00 3.5526570197e+00 
39600 4.3697396528e+00 -1.1253300126e-04 2.0511302965e+00 -3.5526618865e+00 2.0511302965e+00 3.5526618865e+00 
39700 4.3697396597e+00 -1.0985025967e-04 2.0511330397e+00 -3.5526666379e+00 2.0511330397e+00 3.5526666379e+00 
39800 4.3697396665e+00 -1.0721783286e-04 2.0511357175e+00 -3.5526712759e+00 2.0511357175e+00 3.5526712759e+00 
39900 4.3697396732e+00 -1.0463571321e-04 2.0511383311e+00 -3.5526758029e+00 2.0511383311e+00 3.5526758029e+00 
40000 4.3697396797e+00 -1.0210385136e-04 2.0511408818e+00 -3.5526802208e+00 2.0511408818e+00 3.5526802208e+00 
40100 4.3697396861e+00 -9.9622156710e-05 2.0511433708e+00 -3.5526845318e+00 2.0511433708e+00 3.5526845318e+00 
40200 4.3697396924e+00 -9.7190498168e-05 2.0511457992e+00 -3.5526887380e+00 2.0511457992e+00 3.5526887380e+00 
40300 4.3697396986e+00 -9.4808704856e-05 2.0511481684e+00 -3.5526928415e+00 2.0511481684e+00 3.5526928415e+00 
40400 4.3697397046e+00 -9.2476566973e-05 2.0511504795e+00 -3.5526968445e+00 2.0511504795e+00 3.5526968445e+00 
40500 4.3697397105e+00 -9.0193836698e-05 2.0511527338e+00 -3.5527007490e+00 2.0511527338e+00 3.5527007490e+00 
40600 4.3697397163e+00 -8.7960229171e-05 2.0511549324e+00 -3.5527045571e+00 2.0511549324e+00 3.5527045571e+00 
40700 4.3697397220e+00 -8.5775423546e-05 2.0511570765e+00 -3.5527082709e+00 2.0511570765e+00 3.5527082709e+00 
40800 4.3697397275e+00 -8.3639064081e-05 2.0511591674e+00 -3.5527118924e+00 2.0511591674e+00 3.5527118924e+00 
40900 4.3697397330e+00 -8.1550761301e-05 2.0511612063e+00 -3.5527154238e+00 2.0511612063e+00 3.5527154238e+00 
41000 4.3697397383e+00 -7.9510093205e-05 2.0511631942e+00 -3.5527188669e+00 2.0511631942e+00 3.5527188669e+00 
41100 4.3697397436e+00 -7.7516606500e-05 2.0511651324e+00 -3.5527222239e+00 2.0511651324e+00 3.5527222239e+00 
41200 4.3697397487e+00 -7.5569817893e-05 2.0511670219e+00 -3.5527254968e+00 2.0511670219e+00 3.5527254968e+00 
41300 4.3697397538e+00 -7.3669215400e-05 2.0511688640e+00 -3.5527286874e+00 2.0511688640e+00 3.5527286874e+00 
41400 4.3697397587e+00 -7.1814259703e-05 2.0511706598e+00 -3.5527317978e+00 2.0511706598e+00 3.5527317978e+00 
41500 4.3697397635e+00 -7.0004385500e-05 2.0511724104e+00 -3.5527348299e+00 2.0511724104e+00 3.5527348299e+00 
41600 4.3697397684e+00 -6.9053265456e-05 2.0511724104e+00 -3.5527348299e+00 2.0511724104e+00 3.5527348299e+00 
41700 4.3697397732e+00 -6.8133597452e-05 2.0511724104e+00 -3.5527348299e+00 2.0511724104e+00 3.5527348299e+00 
41800 4.3697397778e+00 -6.7245062434e-05 2.0511724104e+00 -3.5527348299e+00 2.0511724104e+00 3.5527348299e+00 
41900 4.3697397824e+00 -6.6387294206e-05 2.0511724104e+00 -3.5527348299e+00 2.0511724104e+00 3.5527348299e+00 
42000 4.3697397869e+00 -6.5559883204e-05 2.0511724104e+00 -3.5527348299e+00 2.0511724104e+00 3.5527348299e+00 
42100 4.3697397913e+00 -6.4762380111e-05 2.0511724104e+00 -3.5527348299e+00 2.0511724104e+00 3.5527348299e+00 
42200 4.3697397956e+00 -6.3994299318e-05 2.0511724104e+00 -3.5527348299e+00 2.0511724104e+00 3.5527348299e+00 
42300 4.3697397999e+00 -6.3255122233e-05 2.0511724104e+00 -3.5527348299e+00 2.0511724104e+00 3.5527348299e+00 
42400 4.3697398040e+00 -6.2544300423e-05 2.0511724104e+00 -3.5527348299e+00 2.0511724104e+00 3.5527348299e+00 
42500 4.3697398081e+00 -6.1861258639e-05 2.0511724104e+00 -3.5527348299e+00 2.0511724104e+00 3.5527348299e+00 
42600 4.3697398121e+00 -6.1205397676e-05 2.0511724104e+00 -3.5527348299e+00 2.0511724104e+00 3.5527348299e+00 
42700 4.3697398160e+00 -6.0576097111e-05 2.0511724104e+00 -3.5527348299e+00 2.0511724104e+00 3.5527348299e+00 
42800 4.3697398199e+00 -5.9972717909e-05 2.0511724104e+00 -3.5527348299e+00 2.0511724104e+00 3.5527348299e+00 
42900 4.3697398236e+00 -5.9394604887e-05 2.0511724104e+00 -3.5527348299e+00 2.0511724104e+00 3.5527348299e+00 
43000 4.3697398273e+00 -5.8841089077e-05 2.0511724104e+00 -3.5527348299e+00 2.0511724104e+00 3.5527348299e+00 
43100 4.3697398310e+00 -5.8311489950e-05 2.0511724104e+00 -3.5527348299e+00 2.0511724104e+00 3.5527348299e+00 
43200 4.3697398346e+00 -5.7805117537e-05 2.0511724104e+00 -3.5527348299e+00 2.0511724104e+00 3.5527348299e+00 
43300 4.3697398381e+00 -5.7321274430e-05 2.0511724104e+00 -3.5527348299e+00 2.0511724104e+00 3.5527348299e+00 
43400 4.3697398415e+00 -5.6859257682e-05 2.0511724104e+00 -3.5527348299e+00 2.0511724104e+00 3.5527348299e+00 
43500 4.3697398449e+00 -5.6418360595e-05 2.0511724104e+00 -3.5527348299e+00 2.0511724104e+00 3.5527348299e+00 
43600 4.3697398483e+00 -5.5997874415e-05 2.0511724104e+00 -3.5527348299e+00 2.0511724104e+00 3.5527348299e+00 
43700 4.3697398515e+00 -5.5597089925e-05 2.0511724104e+00 -3.5527348299e+00 2.0511724104e+00 3.5527348299e+00 
43800 4.3697398548e+00 -5.5215298946e-05 2.0511724104e+00 -3.5527348299e+00 2.0511724104e+00 3.5527348299e+00 
43900 4.3697398579e+00 -5.4851795740e-05 2.0511724104e+00 -3.5527348299e+00 2.0511724104e+00 3.5527348299e+00 
44000 4.3697398610e+00 -5.4505878339e-05 2.0511724104e+00 -3.5527348299e+00 2.0511724104e+00 3.5527348299e+00 
44100 4.3697398641e+00 -5.4176849780e-05 2.0511724104e+00 -3.5527348299e+00 2.0511724104e+00 3.5527348299e+00 
44200 4.3697398671e+00 -5.3864019257e-05 2.0511724104e+00 -3.5527348299e+00 2.0511724104e+00 3.5527348299e+00 
44300 4.3697398700e+00 -5.3566703200e-05 2.0511724104e+00 -3.5527348299e+00 2.0511724104e+00 3.5527348299e+00 
44400 4.3697398729e+00 -5.3284226280e-05 2.0511724104e+00 -3.5527348299e+00 2.0511724104e+00 3.5527348299e+00 
44500 4.3697398758e+00 -5.3015922330e-05 2.0511724104e+00 -3.5527348299e+00 2.0511724104e+00 3.5527348299e+00 
44600 4.3697398786e+00 -5.2761135209e-05 2.0511724104e+00 -3.5527348299e+00 2.0511724104e+00 3.5527348299e+00 
44700 4.3697398813e+00 -5.2519219590e-05 2.0511724104e+00 -3.5527348299e+00 2.0511724104e+00 3.5527348299e+00 
44800 4.3697398840e+00 -5.2289541684e-05 2.0511724104e+00 -3.5527348299e+00 2.0511724104e+00 3.5527348299e+00 
44900 4.3697398867e+00 -5.2071479907e-05 2.0511724104e+00 -3.5527348299e+00 2.0511724104e+00 3.5527348299e+00 
45000 4.3697398893e+00 -5.1864425478e-05 2.0511724104e+00 -3.5527348299e+00 2.0511724104e+00 3.5527348299e+00 
45100 4.3697398919e+00 -5.1667782968e-05 2.0511724104e+00 -3.5527348299e+00 2.0511724104e+00 3.5527348299e+00 
45200 4.3697398944e+00 -5.1480970785e-05 2.0511724104e+00 -3.5527348299e+00 2.0511724104e+00 3.5527348299e+00 
45300 4.3697398969e+00 -5.1303421616e-05 2.0511724104e+00 -3.5527348299e+00 2.0511724104e+00 3.5527348299e+00 
45400 4.3697398993e+00 -5.1134582808e-05 2.0511724104e+00 -3.5527348299e+00 2.0511724104e+00 3.5527348299e+00 
45500 4.3697399017e+00 -5.0973916702e-05 2.0511724104e+00 -3.5527348299e+00 2.0511724104e+00 3.5527348299e+00 
45600 4.3697399040e+00 -5.0820900932e-05 2.0511724104e+00 -3.5527348299e+00 2.0511724104e+00 3.5527348299e+00 
45700 4.3697399063e+00 -5.0675028661e-05 2.0511724104e+00 -3.5527348299e+00 2.0511724104e+00 3.5527348299e+00 
45800 4.3697399086e+00 -5.0535808784e-05 2.0511724104e+00 -3.5527348299e+00 2.0511724104e+00 3.5527348299e+00 
45900 4.3697399108e+00 -5.0402766093e-05 2.0511724104e+00 -3.5527348299e+00 2.0511724104e+00 3.5527348299e+00 
46000 4.3697399130e+00 -5.0275441395e-05 2.0511724104e+00 -3.5527348299e+00 2.0511724104e+00 3.5527348299e+00 
46100 4.3697399151e+00 -5.0153391597e-05 2.0511724104e+00 -3.5527348299e+00 2.0511724104e+00 3.5527348299e+00 
46200 4.3697399173e+00 -5.0036189761e-05 2.0511724104e+00 -3.5527348299e+00 2.0511724104e+00 3.5527348299e+00 
46300 4.3697399193e+00 -4.9923425109e-05 2.0511724104e+00 -3.5527348299e+00 2.0511724104e+00 3.5527348299e+00 
46400 4.3697399214e+00 -4.9814703016e-05 2.0511724104e+00 -3.5527348299e+00 2.0511724104e+00 3.5527348299e+00 
46500 4.3697399234e+00 -4.9709644960e-05 2.0511724104e+00 -3.5527348299e+00 2.0511724104e+00 3.5527348299e+00 
46600 4.3697399253e+00 -4.9607888443e-05 2.0511724104e+00 -3.5527348299e+00 2.0511724104e+00 3.5527348299e+00 
46700 4.3697399272e+00 -4.9509086894e-05 2.0511724104e+00 -3.5527348299e+00 2.0511724104e+00 3.5527348299e+00 
46800 4.3697399291e+00 -4.9412909537e-05 2.0511724104e+00 -3.5527348299e+00 2.0511724104e+00 3.5527348299e+00 
46900 4.3697399310e+00 -4.9319041239e-05 2.0511724104e+00 -3.5527348299e+00 2.0511724104e+00 3.5527348299e+00 
47000 4.3697399328e+00 -4.9227182338e-05 2.0511724104e+00 -3.5527348299e+00 2.0511724104e+00 3.5527348299e+00 
47100 4.3697399346e+00 -4.9137048440e-05 2.0511724104e+00 -3.5527348299e+00 2.0511724104e+00 3.5527348299e+00 
47200 4.3697399364e+00 -4.9048370212e-05 2.0511724104e+00 -3.5527348299e+00 2.0511724104e+00 3.5527348299e+00 
47300 4.3697399381e+00 -4.8960893135e-05 2.0511724104e+00 -3.5527348299e+00 2.0511724104e+00 3.5527348299e+00 
47400 4.3697399398e+00 -4.8874377264e-05 2.0511724104e+00 -3.5527348299e+00 2.0511724104e+00 3.5527348299e+00 
47500 4.3697399414e+00 -4.8788596951e-05 2.0511724104e+00 -3.5527348299e+00 2.0511724104e+00 3.5527348299e+00 
47600 4.3697399431e+00 -4.8703340571e-05 2.0511724104e+00 -3.5527348299e+00 2.0511724104e+00 3.5527348299e+00 
47700 4.3697399447e+00 -4.8618410213e-05 2.0511724104e+00 -3.5527348299e+00 2.0511724104e+00 3.5527348299e+00 
47800 4.3697399463e+00 -4.8533621385e-05 2.0511724104e+00 -3.5527348299e+00 2.0511724104e+00 3.5527348299e+00 
47900 4.3697399478e+00 -4.8448802690e-05 2.0511724104e+00 -3.5527348299e+00 2.0511724104e+00 3.5527348299e+00 
48000 4.3697399493e+00 -4.8363795486e-05 2.0511724104e+00 -3.5527348299e+00 2.0511724104e+00 3.5527348299e+00 
48100 4.3697399508e+00 -4.8278453562e-05 2.0511724104e+00 -3.5527348299e+00 2.0511724104e+00 3.5527348299e+00 
48200 4.3697399523e+00 -4.8192642781e-05 2.0511724104e+00 -3.5527348299e+00 2.0511724104e+00 3.5527348299e+00 
48300 4.3697399537e+00 -4.8106240732e-05 2.0511724104e+00 -3.5527348299e+00 2.0511724104e+00 3.5527348299e+00 
48400 4.3697399552e+00 -4.8019136365e-05 2.0511724104e+00 -3.5527348299e+00 2.0511724104e+00 3.5527348299e+00 
48500 4.3697399566e+00 -4.7931229630e-05 2.0511724104e+00 -3.5527348299e+00 2.0511724104e+00 3.5527348299e+00 
48600 4.3697399579e+00 -4.7842431104e-05 2.0511724104e+00 -3.5527348299e+00 2.0511724104e+00 3.5527348299e+00 
48700 4.3697399593e+00 -4.7752661624e-05 2.0511724104e+00 -3.5527348299e+00 2.0511724104e+00 3.5527348299e+00 
48800 4.3697399606e+00 -4.7661851905e-05 2.0511724104e+00 -3.5527348299e+00 2.0511724104e+00 3.5527348299e+00 
48900 4.3697399619e+00 -4.7569942169e-05 2.0511724104e+00 -3.5527348299e+00 2.0511724104e+00 3.5527348299e+00 
49000 4.3697399631e+00 -4.7476881762e-05 2.0511724104e+00 -3.5527348299e+00 2.0511724104e+00 3.5527348299e+00 
49100 4.3697399644e+00 -4.7382628783e-05 2.0511724104e+00 -3.5527348299e+00 2.0511724104e+00 3.5527348299e+00 
49200 4.3697399656e+00 -4.7287149703e-05 2.0511724104e+00 -3.5527348299e+00 2.0511724104e+00 3.5527348299e+00 
49300 4.3697399668e+00 -4.7190418986e-05 2.0511724104e+00 -3.5527348299e+00 2.0511724104e+00 3.5527348299e+00 
49400 4.3697399680e+00 -4.7092418718e-05 2.0511724104e+00 -3.5527348299e+00 2.0511724104e+00 3.5527348299e+00 
49500 4.3697399692e+00 -4.6993138239e-05 2.0511724104e+00 -3.5527348299e+00 2.0511724104e+00 3.5527348299e+00 
49600 4.3697399703e+00 -4.6892573768e-05 2.0511724104e+00 -3.5527348299e+00 2.0511724104e+00 3.5527348299e+00 
49700 4.3697399715e+00 -4.6790728044e-05 2.0511724104e+00 -3.5527348299e+00 2.0511724104e+00 3.5527348299e+00 
49800 4.3697399726e+00 -4.6687609958e-05 2.0511724104e+00 -3.5527348299e+00 2.0511724104e+00 3.5527348299e+00 
49900 4.3697399737e+00 -4.6583234206e-05 2.0511724104e+00 -3.5527348299e+00 2.0511724104e+00 3.5527348299e+00 
50000 4.3697399747e+00 -4.6477620930e-05 2.0511724104e+00 -3.5527348299e+00 2.0511724104e+00 3.5527348299e+00 
50100 4.3697399758e+00 -4.6370795381e-05 2.0511724104e+00 -3.5527348299e+00 2.0511724104e+00 3.5527348299e+00 
50200 4.3697399768e+00 -4.6262787568e-05 2.0511724104e+00 -3.5527348299e+00 2.0511724104e+00 3.5527348299e+00 
50300 4.3697399778e+00 -4.6153631940e-05 2.0511724104e+00 -3.5527348299e+00 2.0511724104e+00 3.5527348299e+00 
50400 4.3697399788e+00 -4.6043367049e-05 2.0511724104e+00 -3.5527348299e+00 2.0511724104e+00 3.5527348299e+00 
50500 4.3697399798e+00 -4.5932035233e-05 2.0511724104e+00 -3.5527348299e+00 2.0511724104e+00 3.5527348299e+00 
50600 4.3697399808e+00 -4.5819682308e-05 2.0511724104e+00 -3.5527348299e+00 2.0511724104e+00 3.5527348299e+00 
50700 4.3697399817e+00 -4.5706357261e-05 2.0511724104e+00 -3.5527348299e+00 2.0511724104e+00 3.5527348299e+00 
50800 4.3697399827e+00 -4.5592111955e-05 2.0511724104e+00 -3.5527348299e+00 2.0511724104e+00 3.5527348299e+00 
50900 4.3697399836e+00 -4.5477000840e-05 2.0511724104e+00 -3.5527348299e+00 2.0511724104e+00 3.5527348299e+00 
51000 4.3697399845e+00 -4.5361080676e-05 2.0511724104e+00 -3.5527348299e+00 2.0511724104e+00 3.5527348299e+00 
51100 4.3697399854e+00 -4.5244410257e-05 2.0511724104e+00 -3.5527348299e+00 2.0511724104e+00 3.5527348299e+00 
51200 4.3697399862e+00 -4.5127050154e-05 2.0511724104e+00 -3.5527348299e+00 2.0511724104e+00 3.5527348299e+00 
51300 4.3697399871e+00 -4.5009062460e-05 2.0511724104e+00 -3.5527348299e+00 2.0511724104e+00 3.5527348299e+00 
51400 4.3697399879e+00 -4.4890510546e-05 2.0511724104e+00 -3.5527348299e+00 2.0511724104e+00 3.5527348299e+00 
51500 4.3697399888e+00 -4.4771458819e-05 2.0511724104e+00 -3.5527348299e+00 2.0511724104e+00 3.5527348299e+00 
51600 4.3697399896e+00 -4.4651972505e-05 2.0511724104e+00 -3.5527348299e+00 2.0511724104e+00 3.5527348299e+00 
51700 4.3697399904e+00 -4.4532117424e-05 2.0511724104e+00 -3.5527348299e+00 2.0511724104e+00 3.5527348299e+00 
51800 4.3697399912e+00 -4.4411959790e-05 2.0511724104e+00 -3.5527348299e+00 2.0511724104e+00 3.5527348299e+00 
51900 4.3697399920e+00 -4.4291566001e-05 2.0511724104e+00 -3.5527348299e+00 2.0511724104e+00 3.5527348299e+00 
52000 4.3697399927e+00 -4.4171002459e-05 2.0511724104e+00 -3.5527348299e+00 2.0511724104e+00 3.5527348299e+00 
52100 4.3697399935e+00 -4.4050335384e-05 2.0511724104e+00 -3.5527348299e+00 2.0511724104e+00 3.5527348299e+00 
52200 4.3697399942e+00 -4.3929630642e-05 2.0511724104e+00 -3.5527348299e+00 2.0511724104e+00 3.5527348299e+00 
52300 4.3697399949e+00 -4.3808953588e-05 2.0511724104e+00 -3.5527348299e+00 2.0511724104e+00 3.5527348299e+00 
52400 4.3697399956e+00 -4.3688368903e-05 2.0511724104e+00 -3.5527348299e+00 2.0511724104e+00 3.5527348299e+00 
52500 4.3697399963e+00 -4.3567940458e-05 2.0511724104e+00 -3.5527348299e+00 2.0511724104e+00 3.5527348299e+00 
52600 4.3697399970e+00 -4.3447731175e-05 2.0511724104e+00 -3.5527348299e+00 2.0511724104e+00 3.5527348299e+00 
52700 4.3697399977e+00 -4.3327802897e-05 2.0511724104e+00 -3.5527348299e+00 2.0511724104e+00 3.5527348299e+00 
52800 4.3697399984e+00 -4.3208216274e-05 2.0511724104e+00 -3.5527348299e+00 2.0511724104e+00 3.5527348299e+00 
52900 4.3697399990e+00 -4.3089030651e-05 2.0511724104e+00 -3.5527348299e+00 2.0511724104e+00 3.5527348299e+00 
53000 4.3697399997e+00 -4.2970303956e-05 2.0511724104e+00 -3.5527348299e+00 2.0511724104e+00 3.5527348299e+00 
53100 4.3697400003e+00 -4.2852092630e-05 2.0511724104e+00 -3.5527348299e+00 2.0511724104e+00 3.5527348299e+00 
53200 4.3697400009e+00 -4.2734451515e-05 2.0511724104e+00 -3.5527348299e+00 2.0511724104e+00 3.5527348299e+00 
53300 4.3697400016e+00 -4.2617433791e-05 2.0511724104e+00 -3.5527348299e+00 2.0511724104e+00 3.5527348299e+00 
53400 4.3697400022e+00 -4.2501090900e-05 2.0511724104e+00 -3.5527348299e+00 2.0511724104e+00 3.5527348299e+00 
53500 4.3697400027e+00 -4.2385472485e-05 2.0511724104e+00 -3.5527348299e+00 2.0511724104e+00 3.5527348299e+00 
53600 4.3697400033e+00 -4.2270626334e-05 2.0511724104e+00 -3.5527348299e+00 2.0511724104e+00 3.5527348299e+00 
53700 4.3697400039e+00 -4.2156598326e-05 2.0511724104e+00 -3.5527348299e+00 2.0511724104e+00 3.5527348299e+00 
53800 4.3697400045e+00 -4.2043432395e-05 2.0511724104e+00 -3.5527348299e+00 2.0511724104e+00 3.5527348299e+00 
53900 4.3697400050e+00 -4.1931170492e-05 2.0511724104e+00 -3.5527348299e+00 2.0511724104e+00 3.5527348299e+00 
54000 4.3697400056e+00 -4.1819852552e-05 2.0511724104e+00 -3.5527348299e+00 2.0511724104e+00 3.5527348299e+00 
54100 4.3697400061e+00 -4.1709516478e-05 2.0511724104e+00 -3.5527348299e+00 2.0511724104e+00 3.5527348299e+00 
54200 4.3697400066e+00 -4.1600198117e-05 2.0511724104e+00 -3.5527348299e+00 2.0511724104e+00 3.5527348299e+00 
54300 4.3697400072e+00 -4.1491931249e-05 2.0511724104e+00 -3.5527348299e+00 2.0511724104e+00 3.5527348299e+00 
54400 4.3697400077e+00 -4.1384747586e-05 2.0511724104e+00 -3.5527348299e+00 2.0511724104e+00 3.5527348299e+00 
54500 4.3697400082e+00 -4.1278676764e-05 2.0511724104e+00 -3.5527348299e+00 2.0511724104e+00 3.5527348299e+00 
54600 4.3697400087e+00 -4.1173746354e-05 2.0511724104e+00 -3.5527348299e+00 2.0511724104e+00 3.5527348299e+00 
54700 4.3697400091e+00 -4.1069981860e-05 2.0511724104e+00 -3.5527348299e+00 2.0511724104e+00 3.5527348299e+00 
54800 4.3697400096e+00 -4.0967406745e-05 2.0511724104e+00 -3.5527348299e+00 2.0511724104e+00 3.5527348299e+00 
54900 4.3697400101e+00 -4.0866042438e-05 2.0511724104e+00 -3.5527348299e+00 2.0511724104e+00 3.5527348299e+00 
55000 4.3697400106e+00 -4.0765908363e-05 2.0511724104e+00 -3.5527348299e+00 2.0511724104e+00 3.5527348299e+00 
55100 4.3697400110e+00 -4.0667021957e-05 2.0511724104e+00 -3.5527348299e+00 2.0511724104e+00 3.5527348299e+00 
55200 4.3697400115e+00 -4.0569398705e-05 2.0511724104e+00 -3.5527348299e+00 2.0511724104e+00 3.5527348299e+00 
55300 4.3697400119e+00 -4.0473052169e-05 2.0511724104e+00 -3.5527348299e+00 2.0511724104e+00 3.5527348299e+00 
55400 4.3697400123e+00 -4.0377994025e-05 2.0511724104e+00 -3.5527348299e+00 2.0511724104e+00 3.5527348299e+00 
55500 4.3697400128e+00 -4.0284234098e-05 2.0511724104e+00 -3.5527348299e+00 2.0511724104e+00 3.5527348299e+00 
55600 4.3697400132e+00 -4.0191780407e-05 2.0511724104e+00 -3.5527348299e+00 2.0511724104e+00 3.5527348299e+00 
55700 4.3697400136e+00 -4.0100639209e-05 2.0511724104e+00 -3.5527348299e+00 2.0511724104e+00 3.5527348299e+00 
55800 4.3697400140e+00 -4.0010815036e-05 2.0511724104e+00 -3.5527348299e+00 2.0511724104e+00 3.5527348299e+00 
55900 4.3697400144e+00 -3.9922310756e-05 2.0511724104e+00 -3.5527348299e+00 2.0511724104e+00 3.5527348299e+00 
56000 4.3697400148e+00 -3.9835127613e-05 2.0511724104e+00 -3.5527348299e+00 2.0511724104e+00 3.5527348299e+00 
56100 4.3697400152e+00 -3.9749265281e-05 2.0511724104e+00 -3.5527348299e+00 2.0511724104e+00 3.5527348299e+00 
56200 4.3697400156e+00 -3.9664721918e-05 2.0511724104e+00 -3.5527348299e+00 2.0511724104e+00 3.5527348299e+00 
56300 4.3697400159e+00 -3.9581494220e-05 2.0511724104e+00 -3.5527348299e+00 2.0511724104e+00 3.5527348299e+00 
56400 4.3697400163e+00 -3.9499577475e-05 2.0511724104e+00 -3.5527348299e+00 2.0511724104e+00 3.5527348299e+00 
56500 4.3697400167e+00 -3.9418965619e-05 2.0511724104e+00 -3.5527348299e+00 2.0511724104e+00 3.5527348299e+00 
56600 4.3697400170e+00 -3.9339651295e-05 2.0511724104e+00 -3.5527348299e+00 2.0511724104e+00 3.5527348299e+00 
56700 4.3697400174e+00 -3.9261625911e-05 2.0511724104e+00 -3.5527348299e+00 2.0511724104e+00 3.5527348299e+00 
56800 4.3697400177e+00 -3.9184879695e-05 2.0511724104e+00 -3.5527348299e+00 2.0511724104e+00 3.5527348299e+00 
56900 4.3697400181e+00 -3.9109401757e-05 2.0511724104e+00 -3.5527348299e+00 2.0511724104e+00 3.5527348299e+00 
57000 4.3697400184e+00 -3.9035180141e-05 2.0511724104e+00 -3.5527348299e+00 2.0511724104e+00 3.5527348299e+00 
57100 4.3697400187e+00 -3.8962201895e-05 2.0511724104e+00 -3.5527348299e+00 2.0511724104e+00 3.5527348299e+00 
57200 4.3697400190e+00 -3.8890453118e-05 2.0511724104e+00 -3.5527348299e+00 2.0511724104e+00 3.5527348299e+00 
57300 4.3697400194e+00 -3.8819919026e-05 2.0511724104e+00 -3.5527348299e+00 2.0511724104e+00 3.5527348299e+00 
57400 4.3697400197e+00 -3.8750584008e-05 2.0511724104e+00 -3.5527348299e+00 2.0511724104e+00 3.5527348299e+00 
57500 4.3697400200e+00 -3.8682431676e-05 2.0511724104e+00 -3.5527348299e+00 2.0511724104e+00 3.5527348299e+00 
57600 4.3697400203e+00 -3.8615444937e-05 2.0511724104e+00 -3.5527348299e+00 2.0511724104e+00 3.5527348299e+00 
57700 4.3697400206e+00 -3.8549606033e-05 2.0511724104e+00 -3.5527348299e+00 2.0511724104e+00 3.5527348299e+00 
57800 4.3697400209e+00 -3.8484896607e-05 2.0511724104e+00 -3.5527348299e+00 2.0511724104e+00 3.5527348299e+00 
57900 4.3697400212e+00 -3.8421297755e-05 2.0511724104e+00 -3.5527348299e+00 2.0511724104e+00 3.5527348299e+00 
58000 4.3697400214e+00 -3.8358790077e-05 2.0511724104e+00 -3.5527348299e+00 2.0511724104e+00 3.5527348299e+00 
58100 4.3697400217e+00 -3.8297353730e-05 2.0511724104e+00 -3.5527348299e+00 2.0511724104e+00 3.5527348299e+00 
58200 4.3697400220e+00 -3.8236968486e-05 2.0511724104e+00 -3.5527348299e+00 2.0511724104e+00 3.5527348299e+00 
58300 4.3697400223e+00 -3.8177613767e-05 2.0511724104e+00 -3.5527348299e+00 2.0511724104e+00 3.5527348299e+00 
58400 4.3697400225e+00 -3.8119268712e-05 2.0511724104e+00 -3.5527348299e+00 2.0511724104e+00 3.5527348299e+00 
58500 4.3697400228e+00 -3.8061912212e-05 2.0511724104e+00 -3.5527348299e+00 2.0511724104e+00 3.5527348299e+00 
58600 4.3697400231e+00 -3.8005522959e-05 2.0511724104e+00 -3.5527348299e+00 2.0511724104e+00 3.5527348299e+00 
58700 4.3697400233e+00 -3.7950079494e-05 2.0511724104e+00 -3.5527348299e+00 2.0511724104e+00 3.5527348299e+00 
58800 4.3697400236e+00 -3.7895560247e-05 2.0511724104e+00 -3.5527348299e+00 2.0511724104e+00 3.5527348299e+00 
58900 4.3697400238e+00 -3.7841943581e-05 2.0511724104e+00 -3.5527348299e+00 2.0511724104e+00 3.5527348299e+00 
59000 4.3697400241e+00 -3.7789207832e-05 2.0511724104e+00 -3.5527348299e+00 2.0511724104e+00 3.5527348299e+00 
59100 4.3697400243e+00 -3.7737331343e-05 2.0511724104e+00 -3.5527348299e+00 2.0511724104e+00 3.5527348299e+00 
59200 4.3697400245e+00 -3.7686292508e-05 2.0511724104e+00 -3.5527348299e+00 2.0511724104e+00 3.5527348299e+00 
59300 4.3697400248e+00 -3.7636069807e-05 2.0511724104e+00 -3.5527348299e+00 2.0511724104e+00 3.5527348299e+00 
59400 4.3697400250e+00 -3.7586641831e-05 2.0511724104e+00 -3.5527348299e+00 2.0511724104e+00 3.5527348299e+00 
59500 4.3697400252e+00 -3.7537987331e-05 2.0511724104e+00 -3.5527348299e+00 2.0511724104e+00 3.5527348299e+00 
59600 4.3697400254e+00 -3.7490085228e-05 2.0511724104e+00 -3.5527348299e+00 2.0511724104e+00 3.5527348299e+00 
59700 4.3697400257e+00 -3.7442914664e-05 2.0511724104e+00 -3.5527348299e+00 2.0511724104e+00 3.5527348299e+00 
59800 4.3697400259e+00 -3.7396455010e-05 2.0511724104e+00 -3.5527348299e+00 2.0511724104e+00 3.5527348299e+00 
59900 4.3697400261e+00 -3.7350685904e-05 2.0511724104e+00 -3.5527348299e+00 2.0511724104e+00 3.5527348299e+00 
60000 4.3697400263e+00 -3.7305587274e-05 2.0511724104e+00 -3.5527348299e+00 2.0511724104e+00 3.5527348299e+00 
60100 4.3697400265e+00 -3.7261139355e-05 2.0511724104e+00 -3.5527348299e+00 2.0511724104e+00 3.5527348299e+00 
60200 4.3697400267e+00 -3.7217322716e-05 2.0511724104e+00 -3.5527348299e+00 2.0511724104e+00 3.5527348299e+00 
60300 4.3697400269e+00 -3.7174118279e-05 2.0511724104e+00 -3.5527348299e+00 2.0511724104e+00 3.5527348299e+00 
60400 4.3697400271e+00 -3.7131507331e-05 2.0511724104e+00 -3.5527348299e+00 2.0511724104e+00 3.5527348299e+00 
60500 4.3697400273e+00 -3.7089471549e-05 2.0511724104e+00 -3.5527348299e+00 2.0511724104e+00 3.5527348299e+00 
60600 4.3697400275e+00 -3.7047993011e-05 2.0511724104e+00 -3.5527348299e+00 2.0511724104e+00 3.5527348299e+00 
60700 4.3697400276e+00 -3.7007054210e-05 2.0511724104e+00 -3.5527348299e+00 2.0511724104e+00 3.5527348299e+00 
60800 4.3697400278e+00 -3.6966638065e-05 2.0511724104e+00 -3.5527348299e+00 2.0511724104e+00 3.5527348299e+00 
60900 4.3697400280e+00 -3.6926727933e-05 2.0511724104e+00 -3.5527348299e+00 2.0511724104e+00 3.5527348299e+00 
61000 4.3697400282e+00 -3.6887307621e-05 2.0511724104e+00 -3.5527348299e+00 2.0511724104e+00 3.5527348299e+00 
61100 4.3697400284e+00 -3.6848361391e-05 2.0511724104e+00 -3.5527348299e+00 2.0511724104e+00 3.5527348299e+00 
61200 4.3697400285e+00 -3.6809873963e-05 2.0511724104e+00 -3.5527348299e+00 2.0511724104e+00 3.5527348299e+00 
61300 4.3697400287e+00 -3.6771830532e-05 2.0511724104e+00 -3.5527348299e+00 2.0511724104e+00 3.5527348299e+00 
61400 4.3697400289e+00 -3.6734216764e-05 2.0511724104e+00 -3.5527348299e+00 2.0511724104e+00 3.5527348299e+00 
61500 4.3697400290e+00 -3.6697018798e-05 2.0511724104e+00 -3.5527348299e+00 2.0511724104e+00 3.5527348299e+00 
61600 4.3697400292e+00 -3.6660223252e-05 2.0511724104e+00 -3.5527348299e+00 2.0511724104e+00 3.5527348299e+00 
61700 4.3697400293e+00 -3.6623817226e-05 2.0511724104e+00 -3.5527348299e+00 2.0511724104e+00 3.5527348299e+00 
61800 4.3697400295e+00 -3.6587788297e-05 2.0511724104e+00 -3.5527348299e+00 2.0511724104e+00 3.5527348299e+00 
61900 4.3697400297e+00 -3.6552124521e-05 2.0511724104e+00 -3.5527348299e+00 2.0511724104e+00 3.5527348299e+00 
62000 4.3697400298e+00 -3.6516814428e-05 2.0511724104e+00 -3.5527348299e+00 2.0511724104e+00 3.5527348299e+00 
62100 4.3697400300e+00 -3.6481847026e-05 2.0511724104e+00 -3.5527348299e+00 2.0511724104e+00 3.5527348299e+00 
62200 4.3697400301e+00 -3.6447211787e-05 2.0511724104e+00 -3.5527348299e+00 2.0511724104e+00 3.5527348299e+00 
62300 4.3697400302e+00 -3.6412898653e-05 2.0511724104e+00 -3.5527348299e+00 2.0511724104e+00 3.5527348299e+00 
62400 4.3697400304e+00 -3.6378898026e-05 2.0511724104e+00 -3.5527348299e+00 2.0511724104e+00 3.5527348299e+00 
62500 4.3697400305e+00 -3.6345200758e-05 2.0511724104e+00 -3.5527348299e+00 2.0511724104e+00 3.5527348299e+00 
62600 4.3697400307e+00 -3.6311798153e-05 2.0511724104e+00 -3.5527348299e+00 2.0511724104e+00 3.5527348299e+00 
62700 4.3697400308e+00 -3.6278681948e-05 2.0511724104e+00 -3.5527348299e+00 2.0511724104e+00 3.5527348299e+00 
62800 4.3697400309e+00 -3.6245844323e-05 2.0511724104e+00 -3.5527348299e+00 2.0511724104e+00 3.5527348299e+00 
62900 4.3697400311e+00 -3.6213277871e-05 2.0511724104e+00 -3.5527348299e+00 2.0511724104e+00 3.5527348299e+00 
63000 4.3697400312e+00 -3.6180975604e-05 2.0511724104e+00 -3.5527348299e+00 2.0511724104e+00 3.5527348299e+00 
63100 4.3697400313e+00 -3.6148930937e-05 2.0511724104e+00 -3.5527348299e+00 2.0511724104e+00 3.5527348299e+00 
63200 4.3697400315e+00 -3.6117137683e-05 2.0511724104e+00 -3.5527348299e+00 2.0511724104e+00 3.5527348299e+00 
63300 4.3697400316e+00 -3.6085590037e-05 2.0511724104e+00 -3.5527348299e+00 2.0511724104e+00 3.5527348299e+00 
63400 4.3697400317e+00 -3.6054282571e-05 2.0511724104e+00 -3.5527348299e+00 2.0511724104e+00 3.5527348299e+00 
63500 4.3697400318e+00 -3.6023210215e-05 2.0511724104e+00 -3.5527348299e+00 2.0511724104e+00 3.5527348299e+00 
63600 4.3697400319e+00 -3.5992368256e-05 2.0511724104e+00 -3.5527348299e+00 2.0511724104e+00 3.5527348299e+00 
63700 4.3697400321e+00 -3.5961752319e-05 2.0511724104e+00 -3.5527348299e+00 2.0511724104e+00 3.5527348299e+00 
63800 4.3697400322e+00 -3.5931358356e-05 2.0511724104e+00 -3.5527348299e+00 2.0511724104e+00 3.5527348299e+00 
63900 4.3697400323e+00 -3.5901182640e-05 2.0511724104e+00 -3.5527348299e+00 2.0511724104e+00 3.5527348299e+00 
64000 4.3697400324e+00 -3.5871221744e-05 2.0511724104e+00 -3.5527348299e+00 2.0511724104e+00 3.5527348299e+00 
64100 4.3697400325e+00 -3.5841472535e-05 2.0511724104e+00 -3.5527348299e+00 2.0511724104e+00 3.5527348299e+00 
64200 4.3697400326e+00 -3.5811932164e-05 2.0511724104e+00 -3.5527348299e+00 2.0511724104e+00 3.5527348299e+00 
64300 4.3697400327e+00 -3.5782598044e-05 2.0511724104e+00 -3.5527348299e+00 2.0511724104e+00 3.5527348299e+00 
64400 4.3697400328e+00 -3.5753467849e-05 2.0511724104e+00 -3.5527348299e+00 2.0511724104e+00 3.5527348299e+00 
64500 4.3697400329e+00 -3.5724539493e-05 2.0511724104e+00 -3.5527348299e+00 2.0511724104e+00 3.5527348299e+00 
64600 4.3697400330e+00 -3.5695811124e-05 2.0511724104e+00 -3.5527348299e+00 2.0511724104e+00 3.5527348299e+00 
64700 4.3697400331e+00 -3.5667281110e-05 2.0511724104e+00 -3.5527348299e+00 2.0511724104e+00 3.5527348299e+00 
64800 4.3697400332e+00 -3.5638948022e-05 2.0511724104e+00 -3.5527348299e+00 2.0511724104e+00 3.5527348299e+00 
64900 4.3697400333e+00 -3.5610810632e-05 2.0511724104e+00 -3.5527348299e+00 2.0511724104e+00 3.5527348299e+00 
65000 4.3697400334e+00 -3.5582867889e-05 2.0511724104e+00 -3.5527348299e+00 2.0511724104e+00 3.5527348299e+00 
65100 4.3697400335e+00 -3.5555118921e-05 2.0511724104e+00 -3.5527348299e+00 2.0511724104e+00 3.5527348299e+00 
65200 4.3697400336e+00 -3.5527563010e-05 2.0511724104e+00 -3.5527348299e+00 2.0511724104e+00 3.5527348299e+00 
65300 4.3697400337e+00 -3.5500199592e-05 2.0511724104e+00 -3.5527348299e+00 2.0511724104e+00 3.5527348299e+00 
65400 4.3697400338e+00 -3.5473028240e-05 2.0511724104e+00 -3.5527348299e+00 2.0511724104e+00 3.5527348299e+00 
65500 4.3697400339e+00 -3.5446048651e-05 2.0511724104e+00 -3.5527348299e+00 2.0511724104e+00 3.5527348299e+00 
65600 4.3697400340e+00 -3.5419260644e-05 2.0511724104e+00 -3.5527348299e+00 2.0511724104e+00 3.5527348299e+00 
65700 4.3697400340e+00 -3.5392664138e-05 2.0511724104e+00 -3.5527348299e+00 2.0511724104e+00 3.5527348299e+00 
65800 4.3697400341e+00 -3.5366259155e-05 2.0511724104e+00 -3.5527348299e+00 2.0511724104e+00 3.5527348299e+00 
65900 4.3697400342e+00 -3.5340045800e-05 2.0511724104e+00 -3.5527348299e+00 2.0511724104e+00 3.5527348299e+00 
66000 4.3697400343e+00 -3.5314024252e-05 2.0511724104e+00 -3.5527348299e+00 2.0511724104e+00 3.5527348299e+00 
66100 4.3697400344e+00 -3.5288194763e-05 2.0511724104e+00 -3.5527348299e+00 2.0511724104e+00 3.5527348299e+00 
66200 4.3697400345e+00 -3.5262557640e-05 2.0511724104e+00 -3.5527348299e+00 2.0511724104e+00 3.5527348299e+00 
66300 4.3697400345e+00 -3.5237113240e-05 2.0511724104e+00 -3.5527348299e+00 2.0511724104e+00 3.5527348299e+00 
66400 4.3697400346e+00 -3.5211861964e-05 2.0511724104e+00 -3.5527348299e+00 2.0511724104e+00 3.5527348299e+00 
66500 4.3697400347e+00 -3.5186804245e-05 2.0511724104e+00 -3.5527348299e+00 2.0511724104e+00 3.5527348299e+00 
66600 4.3697400348e+00 -3.5161940544e-05 2.0511724104e+00 -3.5527348299e+00 2.0511724104e+00 3.5527348299e+00 
66700 4.3697400348e+00 -3.5137271337e-05 2.0511724104e+00 -3.5527348299e+00 2.0511724104e+00 3.5527348299e+00 
66800 4.3697400349e+00 -3.5112797114e-05 2.0511724104e+00 -3.5527348299e+00 2.0511724104e+00 3.5527348299e+00 
66900 4.3697400350e+00 -3.5088518371e-05 2.0511724104e+00 -3.5527348299e+00 2.0511724104e+00 3.5527348299e+00 
67000 4.3697400350e+00 -3.5064435602e-05 2.0511724104e+00 -3.5527348299e+00 2.0511724104e+00 3.5527348299e+00 
67100 4.3697400351e+00 -3.5040549290e-05 2.0511724104e+00 -3.5527348299e+00 2.0511724104e+00 3.5527348299e+00 
67200 4.3697400352e+00 -3.5016859908e-05 2.0511724104e+00 -3.5527348299e+00 2.0511724104e+00 3.5527348299e+00 
67300 4.3697400353e+00 -3.4993367913e-05 2.0511724104e+00 -3.5527348299e+00 2.0511724104e+00 3.5527348299e+00 
67400 4.3697400353e+00 -3.4970073733e-05 2.0511724104e+00 -3.5527348299e+00 2.0511724104e+00 3.5527348299e+00 
67500 4.3697400354e+00 -3.4946977770e-05 2.0511724104e+00 -3.5527348299e+00 2.0511724104e+00 3.5527348299e+00 
67600 4.3697400355e+00 -3.4924080394e-05 2.0511724104e+00 -3.5527348299e+00 2.0511724104e+00 3.5527348299e+00 
67700 4.3697400355e+00 -3.4901381938e-05 2.0511724104e+00 -3.5527348299e+00 2.0511724104e+00 3.5527348299e+00 
67800 4.3697400356e+00 -3.4878882695e-05 2.0511724104e+00 -3.5527348299e+00 2.0511724104e+00 3.5527348299e+00 
67900 4.3697400356e+00 -3.4856582911e-05 2.0511724104e+00 -3.5527348299e+00 2.0511724104e+00 3.5527348299e+00 
68000 4.3697400357e+00 -3.4834482788e-05 2.0511724104e+00 -3.5527348299e+00 2.0511724104e+00 3.5527348299e+00 
68100 4.3697400358e+00 -3.4812582474e-05 2.0511724104e+00 -3.5527348299e+00 2.0511724104e+00 3.5527348299e+00 
68200 4.3697400358e+00 -3.4790882068e-05 2.0511724104e+00 -3.5527348299e+00 2.0511724104e+00 3.5527348299e+00 
68300 4.3697400359e+00 -3.4769381614e-05 2.0511724104e+00 -3.5527348299e+00 2.0511724104e+00 3.5527348299e+00 
68400 4.3697400359e+00 -3.4748081095e-05 2.0511724104e+00 -3.5527348299e+00 2.0511724104e+00 3.5527348299e+00 
68500 4.3697400360e+00 -3.4726980437e-05 2.0511724104e+00 -3.5527348299e+00 2.0511724104e+00 3.5527348299e+00 
68600 4.3697400360e+00 -3.4706079508e-05 2.0511724104e+00 -3.5527348299e+00 2.0511724104e+00 3.5527348299e+00 
68700 4.3697400361e+00 -3.4685378110e-05 2.0511724104e+00 -3.5527348299e+00 2.0511724104e+00 3.5527348299e+00 
68800 4.3697400362e+00 -3.4664875986e-05 2.0511724104e+00 -3.5527348299e+00 2.0511724104e+00 3.5527348299e+00 
68900 4.3697400362e+00 -3.4644572813e-05 2.0511724104e+00 -3.5527348299e+00 2.0511724104e+00 3.5527348299e+00 
69000 4.3697400363e+00 -3.4624468203e-05 2.0511724104e+00 -3.5527348299e+00 2.0511724104e+00 3.5527348299e+00 
69100 4.3697400363e+00 -3.4604561708e-05 2.0511724104e+00 -3.5527348299e+00 2.0511724104e+00 3.5527348299e+00 
69200 4.3697400364e+00 -3.4584852810e-05 2.0511724104e+00 -3.5527348299e+00 2.0511724104e+00 3.5527348299e+00 
69300 4.3697400364e+00 -3.4565340930e-05 2.0511724104e+00 -3.5527348299e+00 2.0511724104e+00 3.5527348299e+00 
69400 4.3697400364e+00 -3.4558364760e-05 2.0511724104e+00 -3.5527348299e+00 2.0511724104e+00 3.5527348299e+00 
69400 4.3697400364e+00 -3.4558364760e-05 2.0511724104e+00 -3.5527348299e+00 2.0511724104e+00 3.5527348299e+00 
