# step Hamiltonian StressXX CellTensor1 CellTensor2 CellTensor3 CellTensor4 
0 5.7115186037e+00 -4.9679663335e-01 1.6122881582e+00 -2.7925650064e+00 1.6122881582e+00 2.7925650064e+00 
100 5.6997429363e+00 -5.0243427514e-01 1.6122881582e+00 -2.7925650064e+00 1.6122881582e+00 2.7925650064e+00 
200 5.6794009914e+00 -4.9044365067e-01 1.6278944190e+00 -2.8195958431e+00 1.6278944190e+00 2.8195958431e+00 
300 5.6606071713e+00 -4.7895689199e-01 1.6429811805e+00 -2.8457268806e+00 1.6429811805e+00 2.8457268806e+00 
400 5.6432846857e+00 -4.6797718816e-01 1.6575783911e+00 -2.8710099909e+00 1.6575783911e+00 2.8710099909e+00 
500 5.6273555011e+00 -4.5750422052e-01 1.6717145493e+00 -2.8954945351e+00 1.6717145493e+00 2.8954945351e+00 
600 5.6127408274e+00 -4.4753468637e-01 1.6854167478e+00 -2.9192274392e+00 1.6854167478e+00 2.9192274392e+00 
700 5.5993615844e+00 -4.3806275766e-01 1.6987107198e+00 -2.9422532740e+00 1.6987107198e+00 2.9422532740e+00 
800 5.5871388424e+00 -4.2908048023e-01 1.7116208862e+00 -2.9646143382e+00 1.7116208862e+00 2.9646143382e+00 
900 5.5759942389e+00 -4.2057811921e-01 1.7241704050e+00 -2.9863507423e+00 1.7241704050e+00 2.9863507423e+00 
1000 5.5658503684e+00 -4.1254445623e-01 1.7363812191e+00 -3.0075004928e+00 1.7363812191e+00 3.0075004928e+00 
1100 5.5566311445e+00 -4.0496704389e-01 1.7482741046e+00 -3.0280995747e+00 1.7482741046e+00 3.0280995747e+00 
1200 5.5482621346e+00 -3.9783242291e-01 1.7598687176e+00 -3.0481820336e+00 1.7598687176e+00 3.0481820336e+00 
1300 5.5406708656e+00 -3.9112630674e-01 1.7711836399e+00 -3.0677800539e+00 1.7711836399e+00 3.0677800539e+00 
1400 5.5337871008e+00 -3.8483373828e-01 1.7822364227e+00 -3.0869240353e+00 1.7822364227e+00 3.0869240353e+00 
1500 5.5275430871e+00 -3.7893922292e-01 1.7930436291e+00 -3.1056426658e+00 1.7930436291e+00 3.1056426658e+00 
1600 5.5218737726e+00 -3.7342684159e-01 1.8036208743e+00 -3.1239629918e+00 1.8036208743e+00 3.1239629918e+00 
1700 5.5167169946e+00 -3.6828034727e-01 1.8139828642e+00 -3.1419104848e+00 1.8139828642e+00 3.1419104848e+00 
1800 5.5120136379e+00 -3.6348324792e-01 1.8241434321e+00 -3.1595091046e+00 1.8241434321e+00 3.1595091046e+00 
1900 5.5077077640e+00 -3.5901887841e-01 1.8341155736e+00 -3.1767813604e+00 1.8341155736e+00 3.1767813604e+00 
2000 5.5037467121e+00 -3.5487046369e-01 1.8439114798e+00 -3.1937483677e+00 1.8439114798e+00 3.1937483677e+00 
2100 5.5000811709e+00 -3.5102117506e-01 1.8535425690e+00 -3.2104299035e+00 1.8535425690e+00 3.2104299035e+00 
2200 5.4966652250e+00 -3.4745418122e-01 1.8630195168e+00 -3.2268444587e+00 1.8630195168e+00 3.2268444587e+00 
2300 5.4934563747e+00 -3.4415269511e-01 1.8723522852e+00 -3.2430092876e+00 1.8723522852e+00 3.2430092876e+00 
2400 5.4904155312e+00 -3.4110001787e-01 1.8815501500e+00 -3.2589404567e+00 1.8815501500e+00 3.2589404567e+00 
2500 5.4875069894e+00 -3.3827958037e-01 1.8906217279e+00 -3.2746528907e+00 1.8906217279e+00 3.2746528907e+00 
2600 5.4846983791e+00 -3.3567498303e-01 1.8995750025e+00 -3.2901604171e+00 1.8995750025e+00 3.2901604171e+00 
2700 5.4819605967e+00 -3.3327003424e-01 1.9084173488e+00 -3.3054758101e+00 1.9084173488e+00 3.3054758101e+00 
2800 5.4792677195e+00 -3.3104878749e-01 1.9171555583e+00 -3.3206108329e+00 1.9171555583e+00 3.3206108329e+00 
2900 5.4765969038e+00 -3.2899557737e-01 1.9257958626e+00 -3.3355762791e+00 1.9257958626e+00 3.3355762791e+00 
3000 5.4739282699e+00 -3.2709505439e-01 1.9343439574e+00 -3.3503820136e+00 1.9343439574e+00 3.3503820136e+00 
3100 5.4712447746e+00 -3.2533221841e-01 1.9428050251e+00 -3.3650370127e+00 1.9428050251e+00 3.3650370127e+00 
3200 5.4685320746e+00 -3.2369245055e-01 1.9511837581e+00 -3.3795494040e+00 1.9511837581e+00 3.3795494040e+00 
3300 5.4657783811e+00 -3.2216154339e-01 1.9594843813e+00 -3.3939265051e+00 1.9594843813e+00 3.3939265051e+00 
3400 5.4629743092e+00 -3.2072572920e-01 1.9677106745e+00 -3.4081748629e+00 1.9677106745e+00 3.4081748629e+00 
3500 5.4601127223e+00 -3.1937170588e-01 1.9758659946e+00 -3.4223002917e+00 1.9758659946e+00 3.4223002917e+00 
3600 5.4571885740e+00 -3.1808666052e-01 1.9839532976e+00 -3.4363079113e+00 1.9839532976e+00 3.4363079113e+00 
3700 5.4541987487e+00 -3.1685829029e-01 1.9919751601e+00 -3.4502021847e+00 1.9919751601e+00 3.4502021847e+00 
3800 5.4511419026e+00 -3.1567482050e-01 1.9999338011e+00 -3.4639869553e+00 1.9999338011e+00 3.4639869553e+00 
3900 5.4480183057e+00 -3.1452501970e-01 2.0078311031e+00 -3.4776654836e+00 2.0078311031e+00 3.4776654836e+00 
4000 5.4448296872e+00 -3.1339821169e-01 2.0156686328e+00 -3.4912404832e+00 2.0156686328e+00 3.4912404832e+00 
4100 5.4415790833e+00 -3.1228428447e-01 2.0234476617e+00 -3.5047141564e+00 2.0234476617e+00 3.5047141564e+00 
4200 5.4382706905e+00 -3.1117369602e-01 2.0311691863e+00 -3.5180882294e+00 2.0311691863e+00 3.5180882294e+00 
4300 5.4349097232e+00 -3.1005747704e-01 2.0388339477e+00 -3.5313639856e+00 2.0388339477e+00 3.5313639856e+00 
4400 5.4315022776e+00 -3.0892723060e-01 2.0464424507e+00 -3.5445422995e+00 2.0464424507e+00 3.5445422995e+00 
4500 5.4280552011e+00 -3.0777512900e-01 2.0539949826e+00 -3.5576236683e+00 2.0539949826e+00 3.5576236683e+00 
4600 5.4245759687e+00 -3.0659390774e-01 2.0614916308e+00 -3.5706082439e+00 2.0614916308e+00 3.5706082439e+00 
4700 5.4210725662e+00 -3.0537685704e-01 2.0689323005e+00 -3.5834958620e+00 2.0689323005e+00 3.5834958620e+00 
4800 5.4175533795e+00 -3.0411781084e-01 2.0763167317e+00 -3.5962860719e+00 2.0763167317e+00 3.5962860719e+00 
4900 5.4140270921e+00 -3.0281113374e-01 2.0836445145e+00 -3.6089781640e+00 2.0836445145e+00 3.6089781640e+00 
5000 5.4105025884e+00 -3.0145170594e-01 2.0909151051e+00 -3.6215711963e+00 2.0909151051e+00 3.6215711963e+00 
5100 5.4069888647e+00 -3.0003490647e-01 2.0981278399e+00 -3.6340640194e+00 2.0981278399e+00 3.6340640194e+00 
5200 5.4034949465e+00 -2.9855659498e-01 2.1052819497e+00 -3.6464553011e+00 2.1052819497e+00 3.6464553011e+00 
5300 5.4000298127e+00 -2.9701309231e-01 2.1123765724e+00 -3.6587435481e+00 2.1123765724e+00 3.6587435481e+00 
5400 5.3966023259e+00 -2.9540116010e-01 2.1194107656e+00 -3.6709271281e+00 2.1194107656e+00 3.6709271281e+00 
5500 5.3932211696e+00 -2.9371797963e-01 2.1263835177e+00 -3.6830042889e+00 2.1263835177e+00 3.6830042889e+00 
5600 5.3898947903e+00 -2.9196113018e-01 2.1332937590e+00 -3.6949731780e+00 2.1332937590e+00 3.6949731780e+00 
5700 5.3866313462e+00 -2.9012856708e-01 2.1401403716e+00 -3.7068318589e+00 2.1401403716e+00 3.7068318589e+00 
5800 5.3834386612e+00 -2.8821859969e-01 2.1469221985e+00 -3.7185783277e+00 2.1469221985e+00 3.7185783277e+00 
5900 5.3803241836e+00 -2.8622986945e-01 2.1536380524e+00 -3.7302105279e+00 2.1536380524e+00 3.7302105279e+00 
6000 5.3772949500e+00 -2.8416132823e-01 2.1602867234e+00 -3.7417263638e+00 2.1602867234e+00 3.7417263638e+00 
6100 5.3743575540e+00 -2.8201221710e-01 2.1668669859e+00 -3.7531237129e+00 2.1668669859e+00 3.7531237129e+00 
6200 5.3715181192e+00 -2.7978204567e-01 2.1733776059e+00 -3.7644004374e+00 2.1733776059e+00 3.7644004374e+00 
6300 5.3687822761e+00 -2.7747057214e-01 2.1798173459e+00 -3.7755543943e+00 2.1798173459e+00 3.7755543943e+00 
6400 5.3661551431e+00 -2.7507778414e-01 2.1861849713e+00 -3.7865834450e+00 2.1861849713e+00 3.7865834450e+00 
6500 5.3636413113e+00 -2.7260388050e-01 2.1924792543e+00 -3.7974854630e+00 2.1924792543e+00 3.7974854630e+00 
6600 5.3612448323e+00 -2.7004925400e-01 2.1986989789e+00 -3.8082583420e+00 2.1986989789e+00 3.8082583420e+00 
6700 5.3589692097e+00 -2.6741447510e-01 2.2048429445e+00 -3.8189000025e+00 2.2048429445e+00 3.8189000025e+00 
6800 5.3568173938e+00 -2.6470027688e-01 2.2109099689e+00 -3.8294083972e+00 2.2109099689e+00 3.8294083972e+00 
6900 5.3547917783e+00 -2.6190754102e-01 2.2168988922e+00 -3.8397815166e+00 2.2168988922e+00 3.8397815166e+00 
7000 5.3528942008e+00 -2.5903728501e-01 2.2228085786e+00 -3.8500173936e+00 2.2228085786e+00 3.8500173936e+00 
7100 5.3511259451e+00 -2.5609065049e-01 2.2286379191e+00 -3.8601141075e+00 2.2286379191e+00 3.8601141075e+00 
7200 5.3494877464e+00 -2.5306889277e-01 2.2343858335e+00 -3.8700697874e+00 2.2343858335e+00 3.8700697874e+00 
7300 5.3479797983e+00 -2.4997337161e-01 2.2400512723e+00 -3.8798826152e+00 2.2400512723e+00 3.8798826152e+00 
7400 5.3466017623e+00 -2.4680554305e-01 2.2456332179e+00 -3.8895508286e+00 2.2456332179e+00 3.8895508286e+00 
7500 5.3453527795e+00 -2.4356695249e-01 2.2511306864e+00 -3.8990727233e+00 2.2511306864e+00 3.8990727233e+00 
7600 5.3442314835e+00 -2.4025922883e-01 2.2565427284e+00 -3.9084466550e+00 2.2565427284e+00 3.9084466550e+00 
7700 5.3432360162e+00 -2.3688407968e-01 2.2618684302e+00 -3.9176710412e+00 2.2618684302e+00 3.9176710412e+00 
7800 5.3423640443e+00 -2.3344328769e-01 2.2671069151e+00 -3.9267443631e+00 2.2671069151e+00 3.9267443631e+00 
7900 5.3416127782e+00 -2.2993870781e-01 2.2722573436e+00 -3.9356651670e+00 2.2722573436e+00 3.9356651670e+00 
8000 5.3409789920e+00 -2.2637226547e-01 2.2773189150e+00 -3.9444320658e+00 2.2773189150e+00 3.9444320658e+00 
8100 5.3404590454e+00 -2.2274595574e-01 2.2822908674e+00 -3.9530437400e+00 2.2822908674e+00 3.9530437400e+00 
8200 5.3400489066e+00 -2.1906184319e-01 2.2871724793e+00 -3.9614989398e+00 2.2871724793e+00 3.9614989398e+00 
8300 5.3397441770e+00 -2.1532206259e-01 2.2919630697e+00 -3.9697964858e+00 2.2919630697e+00 3.9697964858e+00 
8400 5.3395401168e+00 -2.1152882024e-01 2.2966619993e+00 -3.9779352705e+00 2.2966619993e+00 3.9779352705e+00 
8500 5.3394316719e+00 -2.0768439591e-01 2.3012686713e+00 -3.9859142605e+00 2.3012686713e+00 3.9859142605e+00 
8600 5.3394135021e+00 -2.0379114526e-01 2.3057825322e+00 -3.9937324970e+00 2.3057825322e+00 3.9937324970e+00 
8700 5.3394800106e+00 -1.9985150271e-01 2.3102030730e+00 -4.0013890983e+00 2.3102030730e+00 4.0013890983e+00 
8800 5.3396253737e+00 -1.9586798466e-01 2.3145298301e+00 -4.0088832614e+00 2.3145298301e+00 4.0088832614e+00 
8900 5.3398435721e+00 -1.9184319286e-01 2.3187623864e+00 -4.0162142639e+00 2.3187623864e+00 4.0162142639e+00 
9000 5.3401284230e+00 -1.8777981798e-01 2.3229003725e+00 -4.0233814661e+00 2.3229003725e+00 4.0233814661e+00 
9100 5.3404736127e+00 -1.8368064316e-01 2.3269434685e+00 -4.0303843137e+00 2.3269434685e+00 4.0303843137e+00 
9200 5.3408727299e+00 -1.7954854748e-01 2.3308914045e+00 -4.0372223395e+00 2.3308914045e+00 4.0372223395e+00 
9300 5.3413192998e+00 -1.7538650925e-01 2.3347439631e+00 -4.0438951667e+00 2.3347439631e+00 4.0438951667e+00 
9400 5.3418068182e+00 -1.7119760895e-01 2.3385009801e+00 -4.0504025112e+00 2.3385009801e+00 4.0504025112e+00 
9500 5.3423287863e+00 -1.6698503176e-01 2.3421623470e+00 -4.0567441846e+00 2.3421623470e+00 4.0567441846e+00 
9600 5.3428787455e+00 -1.6275206957e-01 2.3457280120e+00 -4.0629200976e+00 2.3457280120e+00 4.0629200976e+00 
9700 5.3434503119e+00 -1.5850212232e-01 2.3491979822e+00 -4.0689302623e+00 2.3491979822e+00 4.0689302623e+00 
9800 5.3440372113e+00 -1.5423869855e-01 2.3525723254e+00 -4.0747747961e+00 2.3525723254e+00 4.0747747961e+00 
9900 5.3446333130e+00 -1.4996541512e-01 2.3558511719e+00 -4.0804539247e+00 2.3558511719e+00 4.0804539247e+00 
10000 5.3452326637e+00 -1.4568599601e-01 2.3590347163e+00 -4.0859679854e+00 2.3590347163e+00 4.0859679854e+00 
10100 5.3458295206e+00 -1.4140426993e-01 2.3621232197e+00 -4.0913174303e+00 2.3621232197e+00 4.0913174303e+00 
10200 5.3464183826e+00 -1.3712416692e-01 2.3651170114e+00 -4.0965028296e+00 2.3651170114e+00 4.0965028296e+00 
10300 5.3469940216e+00 -1.3284971371e-01 2.3680164904e+00 -4.1015248746e+00 2.3680164904e+00 4.1015248746e+00 
10400 5.3475515114e+00 -1.2858502776e-01 2.3708221278e+00 -4.1063843811e+00 2.3708221278e+00 4.1063843811e+00 
10500 5.3480862549e+00 -1.2433431010e-01 2.3735344678e+00 -4.1110822917e+00 2.3735344678e+00 4.1110822917e+00 
10600 5.3485940099e+00 -1.2010183670e-01 2.3761541296e+00 -4.1156196791e+00 2.3761541296e+00 4.1156196791e+00 
10700 5.3490709119e+00 -1.1589194866e-01 2.3786818087e+00 -4.1199977477e+00 2.3786818087e+00 4.1199977477e+00 
10800 5.3495134946e+00 -1.1170904095e-01 2.3811182781e+00 -4.1242178366e+00 2.3811182781e+00 4.1242178366e+00 
10900 5.3499187081e+00 -1.0755754993e-01 2.3834643893e+00 -4.1282814203e+00 2.3834643893e+00 4.1282814203e+00 
11000 5.3502839337e+00 -1.0344193961e-01 2.3857210730e+00 -4.1321901111e+00 2.3857210730e+00 4.1321901111e+00 
11100 5.3506069950e+00 -9.9366686731e-02 2.3878893397e+00 -4.1359456592e+00 2.3878893397e+00 4.1359456592e+00 
11200 5.3508861667e+00 -9.5336264884e-02 2.3899702800e+00 -4.1395499536e+00 2.3899702800e+00 4.1395499536e+00 
11300 5.3511201785e+00 -9.1355127555e-02 2.3919650646e+00 -4.1430050217e+00 2.3919650646e+00 4.1430050217e+00 
11400 5.3513082166e+00 -8.7427690477e-02 2.3938749435e+00 -4.1463130291e+00 2.3938749435e+00 4.1463130291e+00 
11500 5.3514499203e+00 -8.3558313291e-02 2.3957012460e+00 -4.1494762778e+00 2.3957012460e+00 4.1494762778e+00 
11600 5.3515453750e+00 -7.9751280766e-02 2.3974453792e+00 -4.1524972052e+00 2.3974453792e+00 4.1524972052e+00 
11700 5.3515951017e+00 -7.6010783727e-02 2.3991088269e+00 -4.1553783810e+00 2.3991088269e+00 4.1553783810e+00 
11800 5.3516000419e+00 -7.2340899919e-02 2.4006931473e+00 -4.1581225045e+00 2.4006931473e+00 4.1581225045e+00 
11900 5.3515615395e+00 -6.8745574995e-02 2.4021999717e+00 -4.1607324010e+00 2.4021999717e+00 4.1607324010e+00 
12000 5.3514813184e+00 -6.5228603838e-02 2.4036310016e+00 -4.1632110173e+00 2.4036310016e+00 4.1632110173e+00 
12100 5.3513614567e+00 -6.1793612446e-02 2.4049880055e+00 -4.1655614172e+00 2.4049880055e+00 4.1655614172e+00 
12200 5.3512043585e+00 -5.8444040562e-02 2.4062728168e+00 -4.1677867755e+00 2.4062728168e+00 4.1677867755e+00 
12300 5.3510127214e+00 -5.5183125263e-02 2.4074873290e+00 -4.1698903723e+00 2.4074873290e+00 4.1698903723e+00 
12400 5.3507895026e+00 -5.2013885682e-02 2.4086334929e+00 -4.1718755865e+00 2.4086334929e+00 4.1718755865e+00 
12500 5.3505378825e+00 -4.8939109052e-02 2.4097133120e+00 -4.1737458880e+00 2.4097133120e+00 4.1737458880e+00 
12600 5.3502612259e+00 -4.5961338195e-02 2.4107288383e+00 -4.1755048312e+00 2.4107288383e+00 4.1755048312e+00 
12700 5.3499630432e+00 -4.3082860613e-02 2.4116821675e+00 -4.1771560459e+00 2.4116821675e+00 4.1771560459e+00 
12800 5.3496469490e+00 -4.0305699274e-02 2.4125754345e+00 -4.1787032296e+00 2.4125754345e+00 4.1787032296e+00 
12900 5.3493166223e+00 -3.7631605174e-02 2.4134108078e+00 -4.1801501387e+00 2.4134108078e+00 4.1801501387e+00 
13000 5.3489757653e+00 -3.5062051731e-02 2.4141904851e+00 -4.1815005793e+00 2.4141904851e+00 4.1815005793e+00 
13100 5.3486280638e+00 -3.2598231038e-02 2.4149166873e+00 -4.1827583984e+00 2.4149166873e+00 4.1827583984e+00 
13200 5.3482771485e+00 -3.0241051981e-02 2.4155916536e+00 -4.1839274744e+00 2.4155916536e+00 4.1839274744e+00 
13300 5.3479265576e+00 -2.7991140190e-02 2.4162176360e+00 -4.1850117077e+00 2.4162176360e+00 4.1850117077e+00 
13400 5.3475797019e+00 -2.5848839771e-02 2.4167968938e+00 -4.1860150117e+00 2.4167968938e+00 4.1860150117e+00 
13500 5.3472398324e+00 -2.3814216760e-02 2.4173316883e+00 -4.1869413029e+00 2.4173316883e+00 4.1869413029e+00 
13600 5.3469100104e+00 -2.1887064204e-02 2.4178242774e+00 -4.1877944923e+00 2.4178242774e+00 4.1877944923e+00 
13700 5.3465930812e+00 -2.0066908743e-02 2.4182769105e+00 -4.1885784758e+00 2.4182769105e+00 4.1885784758e+00 
13800 5.3462916505e+00 -1.8353018604e-02 2.4186918234e+00 -4.1892971259e+00 2.4186918234e+00 4.1892971259e+00 
13900 5.3460080652e+00 -1.6744412838e-02 2.4190712330e+00 -4.1899542826e+00 2.4190712330e+00 4.1899542826e+00 
14000 5.3457443978e+00 -1.5239871685e-02 2.4194173330e+00 -4.1905537455e+00 2.4194173330e+00 4.1905537455e+00 
14100 5.3455024340e+00 -1.3837947905e-02 2.4197322890e+00 -4.1910992653e+00 2.4197322890e+00 4.1910992653e+00 
14200 5.3452836651e+00 -1.2536978935e-02 2.4200182343e+00 -4.1915945371e+00 2.4200182343e+00 4.1915945371e+00 
14300 5.3450892836e+00 -1.1335099717e-02 2.4202772655e+00 -4.1920431922e+00 2.4202772655e+00 4.1920431922e+00 
14400 5.3449201825e+00 -1.0230256058e-02 2.4205114387e+00 -4.1924487921e+00 2.4205114387e+00 4.1924487921e+00 
14500 5.3447769589e+00 -9.2202183834e-03 2.4207227660e+00 -4.1928148218e+00 2.4207227660e+00 4.1928148218e+00 
14600 5.3446599199e+00 -8.3025957425e-03 2.4209132120e+00 -4.1931446840e+00 2.4209132120e+00 4.1931446840e+00 
14700 5.3445690927e+00 -7.4748499580e-03 2.4210846906e+00 -4.1934416935e+00 2.4210846906e+00 4.1934416935e+00 
14800 5.3445042370e+00 -6.7343097909e-03 2.4212390621e+00 -4.1937090728e+00 2.4212390621e+00 4.1937090728e+00 
14900 5.3444648597e+00 -6.0781850268e-03 2.4213781308e+00 -4.1939499470e+00 2.4213781308e+00 4.1939499470e+00 
15000 5.3444502330e+00 -5.5035803876e-03 2.4215036428e+00 -4.1941673400e+00 2.4215036428e+00 4.1941673400e+00 
15100 5.3444594130e+00 -5.0075091890e-03 2.4216172834e+00 -4.1943641714e+00 2.4216172834e+00 4.1943641714e+00 
15200 5.3444912609e+00 -4.5869066718e-03 2.4217206760e+00 -4.1945432525e+00 2.4217206760e+00 4.1945432525e+00 
15300 5.3445444646e+00 -4.2386429491e-03 2.4218153801e+00 -4.1947072848e+00 2.4218153801e+00 4.1947072848e+00 
15400 5.3446175622e+00 -3.9595355183e-03 2.4219028902e+00 -4.1948588568e+00 2.4219028902e+00 4.1948588568e+00 
15500 5.3447089648e+00 -3.7463612980e-03 2.4219846350e+00 -4.1950004429e+00 2.4219846350e+00 4.1950004429e+00 
15600 5.3448169805e+00 -3.5958681588e-03 2.4220619761e+00 -4.1951344017e+00 2.4220619761e+00 4.1951344017e+00 
15700 5.3449398372e+00 -3.5047859232e-03 2.4221362080e+00 -4.1952629752e+00 2.4221362080e+00 4.1952629752e+00 
15800 5.3450757066e+00 -3.4698368183e-03 2.4222085575e+00 -4.1953882881e+00 2.4222085575e+00 4.1953882881e+00 
15900 5.3452227254e+00 -3.4877453701e-03 2.4222801833e+00 -4.1955123477e+00 2.4222801833e+00 4.1955123477e+00 
16000 5.3453790175e+00 -3.5552477347e-03 2.4223521767e+00 -4.1956370438e+00 2.4223521767e+00 4.1956370438e+00 
16100 5.3455427141e+00 -3.6691004645e-03 2.4224255613e+00 -4.1957641497e+00 2.4224255613e+00 4.1957641497e+00 
16200 5.3457119725e+00 -3.8260887127e-03 2.4225012936e+00 -4.1958953219e+00 2.4225012936e+00 4.1958953219e+00 
16300 5.3458849937e+00 -4.0230338825e-03 2.4225802638e+00 -4.1960321024e+00 2.4225802638e+00 4.1960321024e+00 
16400 5.3460600385e+00 -4.2568007287e-03 2.4226632963e+00 -4.1961759188e+00 2.4226632963e+00 4.1961759188e+00 
16500 5.3462354415e+00 -4.5243039228e-03 2.4227511506e+00 -4.1963280869e+00 2.4227511506e+00 4.1963280869e+00 
16600 5.3464096243e+00 -4.8225140940e-03 2.4228445224e+00 -4.1964898116e+00 2.4228445224e+00 4.1964898116e+00 
16700 5.3465811057e+00 -5.1484633601e-03 2.4229440448e+00 -4.1966621895e+00 2.4229440448e+00 4.1966621895e+00 
16800 5.3467485112e+00 -5.4992503613e-03 2.4230502895e+00 -4.1968462108e+00 2.4230502895e+00 4.1968462108e+00 
16900 5.3469105804e+00 -5.8720448139e-03 2.4231637683e+00 -4.1970427617e+00 2.4231637683e+00 4.1970427617e+00 
17000 5.3470661727e+00 -6.2640916002e-03 2.4232849341e+00 -4.1972526271e+00 2.4232849341e+00 4.1972526271e+00 
17100 5.3472142712e+00 -6.6727144087e-03 2.4234141832e+00 -4.1974764931e+00 2.4234141832e+00 4.1974764931e+00 
17200 5.3473539856e+00 -7.0953189438e-03 2.4235518563e+00 -4.1977149499e+00 2.4235518563e+00 4.1977149499e+00 
17300 5.3474845529e+00 -7.5293957217e-03 2.4236982404e+00 -4.1979684946e+00 2.4236982404e+00 4.1979684946e+00 
17400 5.3476053373e+00 -7.9725224680e-03 2.4238535707e+00 -4.1982375346e+00 2.4238535707e+00 4.1982375346e+00 
17500 5.3477158285e+00 -8.4223661372e-03 2.4240180322e+00 -4.1985223903e+00 2.4240180322e+00 4.1985223903e+00 
17600 5.3478156391e+00 -8.8766845699e-03 2.4241917617e+00 -4.1988232985e+00 2.4241917617e+00 4.1988232985e+00 
17700 5.3479045007e+00 -9.3333278059e-03 2.4243748494e+00 -4.1991404158e+00 2.4243748494e+00 4.1991404158e+00 
17800 5.3479822591e+00 -9.7902390710e-03 2.4245673414e+00 -4.1994738216e+00 2.4245673414e+00 4.1994738216e+00 
17900 5.3480488692e+00 -1.0245455456e-02 2.4247692408e+00 -4.1998235217e+00 2.4247692408e+00 4.1998235217e+00 
18000 5.3481043881e+00 -1.0697108306e-02 2.4249805105e+00 -4.2001894515e+00 2.4249805105e+00 4.2001894515e+00 
18100 5.3481489692e+00 -1.1143423333e-02 2.4252010745e+00 -4.2005714796e+00 2.4252010745e+00 4.2005714796e+00 
18200 5.3481828540e+00 -1.1582720480e-02 2.4254308204e+00 -4.2009694112e+00 2.4254308204e+00 4.2009694112e+00 
18300 5.3482063654e+00 -1.2013413546e-02 2.4256696009e+00 -4.2013829911e+00 2.4256696009e+00 4.2013829911e+00 
18400 5.3482198991e+00 -1.2434009582e-02 2.4259172360e+00 -4.2018119076e+00 2.4259172360e+00 4.2018119076e+00 
18500 5.3482239162e+00 -1.2843108103e-02 2.4261735149e+00 -4.2022557957e+00 2.4261735149e+00 4.2022557957e+00 
18600 5.3482189348e+00 -1.3239400093e-02 2.4264381979e+00 -4.2027142403e+00 2.4264381979e+00 4.2027142403e+00 
18700 5.3482055219e+00 -1.3621666856e-02 2.4267110186e+00 -4.2031867795e+00 2.4267110186e+00 4.2031867795e+00 
18800 5.3481842856e+00 -1.3988778706e-02 2.4269916851e+00 -4.2036729081e+00 2.4269916851e+00 4.2036729081e+00 
18900 5.3481558672e+00 -1.4339693520e-02 2.4272798825e+00 -4.2041720807e+00 2.4272798825e+00 4.2041720807e+00 
19000 5.3481209337e+00 -1.4673455166e-02 2.4275752746e+00 -4.2046837147e+00 2.4275752746e+00 4.2046837147e+00 
19100 5.3480801704e+00 -1.4989191824e-02 2.4278775054e+00 -4.2052071938e+00 2.4278775054e+00 4.2052071938e+00 
19200 5.3480342738e+00 -1.5286114213e-02 2.4281862011e+00 -4.2057418705e+00 2.4281862011e+00 4.2057418705e+00 
19300 5.3479839450e+00 -1.5563513723e-02 2.4285009719e+00 -4.2062870696e+00 2.4285009719e+00 4.2062870696e+00 
19400 5.3479298836e+00 -1.5820760494e-02 2.4288214136e+00 -4.2068420908e+00 2.4288214136e+00 4.2068420908e+00 
19500 5.3478727815e+00 -1.6057301418e-02 2.4291471089e+00 -4.2074062116e+00 2.4291471089e+00 4.2074062116e+00 
19600 5.3478133180e+00 -1.6272658101e-02 2.4294776295e+00 -4.2079786902e+00 2.4294776295e+00 4.2079786902e+00 
19700 5.3477521543e+00 -1.6466424782e-02 2.4298125376e+00 -4.2085587679e+00 2.4298125376e+00 4.2085587679e+00 
19800 5.3476899292e+00 -1.6638266217e-02 2.4301513869e+00 -4.2091456722e+00 2.4301513869e+00 4.2091456722e+00 
19900 5.3476272552e+00 -1.6787915550e-02 2.4304937248e+00 -4.2097386188e+00 2.4304937248e+00 4.2097386188e+00 
20000 5.3475647148e+00 -1.6915172153e-02 2.4308390931e+00 -4.2103368143e+00 2.4308390931e+00 4.2103368143e+00 
20100 5.3475028572e+00 -1.7019899467e-02 2.4311870301e+00 -4.2109394588e+00 2.4311870301e+00 4.2109394588e+00 
20200 5.3474421961e+00 -1.7102022834e-02 2.4315370712e+00 -4.2115457478e+00 2.4315370712e+00 4.2115457478e+00 
20300 5.3473832071e+00 -1.7161527331e-02 2.4318887507e+00 -4.2121548746e+00 2.4318887507e+00 4.2121548746e+00 
20400 5.3473263261e+00 -1.7198455607e-02 2.4322416028e+00 -4.2127660324e+00 2.4322416028e+00 4.2127660324e+00 
20500 5.3472719481e+00 -1.7212905725e-02 2.4325951629e+00 -4.2133784165e+00 2.4325951629e+00 4.2133784165e+00 
20600 5.3472204259e+00 -1.7205029023e-02 2.4329489687e+00 -4.2139912260e+00 2.4329489687e+00 4.2139912260e+00 
20700 5.3471720698e+00 -1.7175027982e-02 2.4333025611e+00 -4.2146036660e+00 2.4333025611e+00 4.2146036660e+00 
20800 5.3471271475e+00 -1.7123154106e-02 2.4336554856e+00 -4.2152149492e+00 2.4336554856e+00 4.2152149492e+00 
20900 5.3470858841e+00 -1.7049705823e-02 2.4340072932e+00 -4.2158242977e+00 2.4340072932e+00 4.2158242977e+00 
21000 5.3470484625e+00 -1.6955026403e-02 2.4343575410e+00 -4.2164309447e+00 2.4343575410e+00 4.2164309447e+00 
21100 5.3470150246e+00 -1.6839501891e-02 2.4347057936e+00 -4.2170341361e+00 2.4347057936e+00 4.2170341361e+00 
21200 5.3469856717e+00 -1.6703559052e-02 2.4350516239e+00 -4.2176331317e+00 2.4350516239e+00 4.2176331317e+00 
21300 5.3469604665e+00 -1.6547663345e-02 2.4353946136e+00 -4.2182272072e+00 2.4353946136e+00 4.2182272072e+00 
21400 5.3469394344e+00 -1.6372316903e-02 2.4357343542e+00 -4.2188156552e+00 2.4357343542e+00 4.2188156552e+00 
21500 5.3469225650e+00 -1.6178056530e-02 2.4360704478e+00 -4.2193977864e+00 2.4360704478e+00 4.2193977864e+00 
21600 5.3469098142e+00 -1.5965451722e-02 2.4364025076e+00 -4.2199729309e+00 2.4364025076e+00 4.2199729309e+00 
21700 5.3469011066e+00 -1.5735102689e-02 2.4367301589e+00 -4.2205404396e+00 2.4367301589e+00 4.2205404396e+00 
21800 5.3468963372e+00 -1.5487638399e-02 2.4370530394e+00 -4.2210996849e+00 2.4370530394e+00 4.2210996849e+00 
21900 5.3468953741e+00 -1.5223714635e-02 2.4373707997e+00 -4.2216500620e+00 2.4373707997e+00 4.2216500620e+00 
22000 5.3468980608e+00 -1.4944012056e-02 2.4376831042e+00 -4.2221909893e+00 2.4376831042e+00 4.2221909893e+00 
22100 5.3469042186e+00 -1.4649234276e-02 2.4379896315e+00 -4.2227219100e+00 2.4379896315e+00 4.2227219100e+00 
22200 5.3469136493e+00 -1.4340105952e-02 2.4382900744e+00 -4.2232422925e+00 2.4382900744e+00 4.2232422925e+00 
22300 5.3469261375e+00 -1.4017370874e-02 2.4385841410e+00 -4.2237516308e+00 2.4385841410e+00 4.2237516308e+00 
22400 5.3469414536e+00 -1.3681790078e-02 2.4388715547e+00 -4.2242494458e+00 2.4388715547e+00 4.2242494458e+00 
22500 5.3469593557e+00 -1.3334139952e-02 2.4391520543e+00 -4.2247352854e+00 2.4391520543e+00 4.2247352854e+00 
22600 5.3469795929e+00 -1.2975210365e-02 2.4394253950e+00 -4.2252087254e+00 2.4394253950e+00 4.2252087254e+00 
22700 5.3470019069e+00 -1.2605802795e-02 2.4396913479e+00 -4.2256693693e+00 2.4396913479e+00 4.2256693693e+00 
22800 5.3470260352e+00 -1.2226728471e-02 2.4399497008e+00 -4.2261168496e+00 2.4399497008e+00 4.2261168496e+00 
22900 5.3470517128e+00 -1.1838806529e-02 2.4402002579e+00 -4.2265508274e+00 2.4402002579e+00 4.2265508274e+00 
23000 5.3470786749e+00 -1.1442862171e-02 2.4404428405e+00 -4.2269709928e+00 2.4404428405e+00 4.2269709928e+00 
23100 5.3471066587e+00 -1.1039724842e-02 2.4406772866e+00 -4.2273770653e+00 2.4406772866e+00 4.2273770653e+00 
23200 5.3471354056e+00 -1.0630226425e-02 2.4409034512e+00 -4.2277687938e+00 2.4409034512e+00 4.2277687938e+00 
23300 5.3471646629e+00 -1.0215199441e-02 2.4411212063e+00 -4.2281459568e+00 2.4411212063e+00 4.2281459568e+00 
23400 5.3471941858e+00 -9.7954752820e-03 2.4413304410e+00 -4.2285083619e+00 2.4413304410e+00 4.2285083619e+00 
23500 5.3472237389e+00 -9.3718824520e-03 2.4415310613e+00 -4.2288558465e+00 2.4415310613e+00 4.2288558465e+00 
23600 5.3472530976e+00 -8.9452448375e-03 2.4417229902e+00 -4.2291882770e+00 2.4417229902e+00 4.2291882770e+00 
23700 5.3472820496e+00 -8.5163800029e-03 2.4419061673e+00 -4.2295055491e+00 2.4419061673e+00 4.2295055491e+00 
23800 5.3473103958e+00 -8.0860975144e-03 2.4420805492e+00 -4.2298075873e+00 2.4420805492e+00 4.2298075873e+00 
23900 5.3473379515e+00 -7.6551972967e-03 2.4422461086e+00 -4.2300943446e+00 2.4422461086e+00 4.2300943446e+00 
24000 5.3473645473e+00 -7.2244680243e-03 2.4424028348e+00 -4.2303658024e+00 2.4424028348e+00 4.2303658024e+00 
24100 5.3473900297e+00 -6.7946855524e-03 2.4425507330e+00 -4.2306219696e+00 2.4425507330e+00 4.2306219696e+00 
24200 5.3474142614e+00 -6.3666113898e-03 2.4426898243e+00 -4.2308628828e+00 2.4426898243e+00 4.2308628828e+00 
24300 5.3474371223e+00 -5.9409912174e-03 2.4428201451e+00 -4.2310886051e+00 2.4428201451e+00 4.2310886051e+00 
24400 5.3474585090e+00 -5.5185534572e-03 2.4429417472e+00 -4.2312992261e+00 2.4429417472e+00 4.2312992261e+00 
24500 5.3474783354e+00 -5.1000078934e-03 2.4430546970e+00 -4.2314948609e+00 2.4430546970e+00 4.2314948609e+00 
24600 5.3474965324e+00 -4.6860443505e-03 2.4431590754e+00 -4.2316756496e+00 2.4431590754e+00 4.2316756496e+00 
24700 5.3475130476e+00 -4.2773314320e-03 2.4432549774e+00 -4.2318417567e+00 2.4432549774e+00 4.2318417567e+00 
24800 5.3475278454e+00 -3.8745153218e-03 2.4433425114e+00 -4.2319933700e+00 2.4433425114e+00 4.2319933700e+00 
24900 5.3475409060e+00 -3.4782186530e-03 2.4434217990e+00 -4.2321307002e+00 2.4434217990e+00 4.2321307002e+00 
25000 5.3475522253e+00 -3.0890394463e-03 2.4434929745e+00 -4.2322539798e+00 2.4434929745e+00 4.2322539798e+00 
25100 5.3475618140e+00 -2.7075501211e-03 2.4435561843e+00 -4.2323634623e+00 2.4435561843e+00 4.2323634623e+00 
25200 5.3475696966e+00 -2.3342965821e-03 2.4436115863e+00 -4.2324594215e+00 2.4436115863e+00 4.2324594215e+00 
25300 5.3475759111e+00 -1.9697973835e-03 2.4436593497e+00 -4.2325421502e+00 2.4436593497e+00 4.2325421502e+00 
25400 5.3475805077e+00 -1.6145429729e-03 2.4436996541e+00 -4.2326119594e+00 2.4436996541e+00 4.2326119594e+00 
25500 5.3475835478e+00 -1.2689950176e-03 2.4437326890e+00 -4.2326691775e+00 2.4437326890e+00 4.2326691775e+00 
25600 5.3475851032e+00 -9.3358581338e-04 2.4437586533e+00 -4.2327141490e+00 2.4437586533e+00 4.2327141490e+00 
25700 5.3475852547e+00 -6.0871777818e-04 2.4437777548e+00 -4.2327472337e+00 2.4437777548e+00 4.2327472337e+00 
25800 5.3475840911e+00 -2.9476303086e-04 2.4437902092e+00 -4.2327688054e+00 2.4437902092e+00 4.2327688054e+00 
25900 5.3475817084e+00 7.9369441789e-06 2.4437962401e+00 -4.2327792512e+00 2.4437962401e+00 4.2327792512e+00 
26000 5.3475782081e+00 2.9913655671e-04 2.4437962401e+00 -4.2327792512e+00 2.4437962401e+00 4.2327792512e+00 
26100 5.3475736963e+00 5.7842743588e-04 2.4437901198e+00 -4.2327686505e+00 2.4437901198e+00 4.2327686505e+00 
26200 5.3475682827e+00 8.4562496899e-04 2.4437782851e+00 -4.2327481523e+00 2.4437782851e+00 4.2327481523e+00 
26300 5.3475620792e+00 1.1005118439e-03 2.4437609836e+00 -4.2327181851e+00 2.4437609836e+00 4.2327181851e+00 
26400 5.3475551990e+00 1.3429017807e-03 2.4437384668e+00 -4.2326791850e+00 2.4437384668e+00 4.2326791850e+00 
26500 5.3475477556e+00 1.5726393613e-03 2.4437109905e+00 -4.2326315946e+00 2.4437109905e+00 4.2326315946e+00 
26600 5.3475398615e+00 1.7895997803e-03 2.4436788133e+00 -4.2325758620e+00 2.4436788133e+00 4.2325758620e+00 
26700 5.3475316276e+00 1.9936885172e-03 2.4436421965e+00 -4.2325124398e+00 2.4436421965e+00 4.2325124398e+00 
26800 5.3475231622e+00 2.1848409353e-03 2.4436014032e+00 -4.2324417838e+00 2.4436014032e+00 4.2324417838e+00 
26900 5.3475145698e+00 2.3630218074e-03 2.4435566980e+00 -4.2323643521e+00 2.4435566980e+00 4.2323643521e+00 
27000 5.3475059509e+00 2.5282247729e-03 2.4435083461e+00 -4.2322806041e+00 2.4435083461e+00 4.2322806041e+00 
27100 5.3474974010e+00 2.6804717287e-03 2.4434566127e+00 -4.2321909994e+00 2.4434566127e+00 4.2321909994e+00 
27200 5.3474890098e+00 2.8198121587e-03 2.4434017630e+00 -4.2320959967e+00 2.4434017630e+00 4.2320959967e+00 
27300 5.3474808613e+00 2.9463224027e-03 2.4433440606e+00 -4.2319960533e+00 2.4433440606e+00 4.2319960533e+00 
27400 5.3474730324e+00 3.0601048720e-03 2.4432837680e+00 -4.2318916235e+00 2.4432837680e+00 4.2318916235e+00 
27500 5.3474655935e+00 3.1612872127e-03 2.4432211455e+00 -4.2317831581e+00 2.4432211455e+00 4.2317831581e+00 
27600 5.3474586075e+00 3.2500214218e-03 2.4431564507e+00 -4.2316711035e+00 2.4431564507e+00 4.2316711035e+00 
27700 5.3474521298e+00 3.3264829209e-03 2.4430899383e+00 -4.2315559005e+00 2.4430899383e+00 4.2315559005e+00 
27800 5.3474462084e+00 3.3908695892e-03 2.4430218591e+00 -4.2314379840e+00 2.4430218591e+00 4.2314379840e+00 
27900 5.3474408832e+00 3.4434007635e-03 2.4429524604e+00 -4.2313177819e+00 2.4429524604e+00 4.2313177819e+00 
28000 5.3474361869e+00 3.4843162051e-03 2.4428819845e+00 -4.2311957141e+00 2.4428819845e+00 4.2311957141e+00 
28100 5.3474321442e+00 3.5138750417e-03 2.4428106692e+00 -4.2310721923e+00 2.4428106692e+00 4.2310721923e+00 
28200 5.3474287725e+00 3.5323546852e-03 2.4427387467e+00 -4.2309476190e+00 2.4427387467e+00 4.2309476190e+00 
28300 5.3474260821e+00 3.5400497312e-03 2.4426664439e+00 -4.2308223868e+00 2.4426664439e+00 4.2308223868e+00 
28400 5.3474240760e+00 3.5372708437e-03 2.4425939815e+00 -4.2306968782e+00 2.4425939815e+00 4.2306968782e+00 
28500 5.3474227506e+00 3.5243436284e-03 2.4425215738e+00 -4.2305714643e+00 2.4425215738e+00 4.2305714643e+00 
28600 5.3474220961e+00 3.5016074986e-03 2.4424494285e+00 -4.2304465051e+00 2.4424494285e+00 4.2304465051e+00 
28700 5.3474220967e+00 3.4694145374e-03 2.4423777466e+00 -4.2303223483e+00 2.4423777466e+00 4.2303223483e+00 
28800 5.3474227310e+00 3.4281283595e-03 2.4423067216e+00 -4.2301993294e+00 2.4423067216e+00 4.2301993294e+00 
28900 5.3474239729e+00 3.3781229758e-03 2.4422365397e+00 -4.2300777709e+00 2.4422365397e+00 4.2300777709e+00 
29000 5.3474257913e+00 3.3197816643e-03 2.4421673796e+00 -4.2299579821e+00 2.4421673796e+00 4.2299579821e+00 
29100 5.3474281514e+00 3.2534958497e-03 2.4420994120e+00 -4.2298402587e+00 2.4420994120e+00 4.2298402587e+00 
29200 5.3474310148e+00 3.1796639952e-03 2.4420327996e+00 -4.2297248827e+00 2.4420327996e+00 4.2297248827e+00 
29300 5.3474343402e+00 3.0986905089e-03 2.4419676971e+00 -4.2296121218e+00 2.4419676971e+00 4.2296121218e+00 
29400 5.3474380837e+00 3.0109846674e-03 2.4419042508e+00 -4.2295022295e+00 2.4419042508e+00 4.2295022295e+00 
29500 5.3474421994e+00 2.9169595580e-03 2.4418425986e+00 -4.2293954449e+00 2.4418425986e+00 4.2293954449e+00 
29600 5.3474466403e+00 2.8170310438e-03 2.4417828702e+00 -4.2292919923e+00 2.4417828702e+00 4.2292919923e+00 
29700 5.3474513583e+00 2.7116167514e-03 2.4417251866e+00 -4.2291920812e+00 2.4417251866e+00 4.2291920812e+00 
29800 5.3474563048e+00 2.6011350844e-03 2.4416696601e+00 -4.2290959066e+00 2.4416696601e+00 4.2290959066e+00 
29900 5.3474614315e+00 2.4860042639e-03 2.4416163948e+00 -4.2290036484e+00 2.4416163948e+00 4.2290036484e+00 
30000 5.3474666903e+00 2.3666413979e-03 2.4415654860e+00 -4.2289154717e+00 2.4415654860e+00 4.2289154717e+00 
30100 5.3474720342e+00 2.2434615800e-03 2.4415170205e+00 -4.2288315270e+00 2.4415170205e+00 4.2288315270e+00 
30200 5.3474774174e+00 2.1168770200e-03 2.4414710766e+00 -4.2287519499e+00 2.4414710766e+00 4.2287519499e+00 
30300 5.3474827959e+00 1.9872962066e-03 2.4414277243e+00 -4.2286768614e+00 2.4414277243e+00 4.2286768614e+00 
30400 5.3474881276e+00 1.8551231026e-03 2.4413870249e+00 -4.2286063681e+00 2.4413870249e+00 4.2286063681e+00 
30500 5.3474933727e+00 1.7207563747e-03 2.4413490318e+00 -4.2285405621e+00 2.4413490318e+00 4.2285405621e+00 
30600 5.3474984939e+00 1.5845886581e-03 2.4413137900e+00 -4.2284795214e+00 2.4413137900e+00 4.2284795214e+00 
30700 5.3475034566e+00 1.4470058552e-03 2.4412813364e+00 -4.2284233103e+00 2.4412813364e+00 4.2284233103e+00 
30800 5.3475082293e+00 1.3083864709e-03 2.4412517003e+00 -4.2283719790e+00 2.4412517003e+00 4.2283719790e+00 
30900 5.3475127834e+00 1.1691009829e-03 2.4412249029e+00 -4.2283255645e+00 2.4412249029e+00 4.2283255645e+00 
31000 5.3475170935e+00 1.0295112490e-03 2.4412009580e+00 -4.2282840907e+00 2.4412009580e+00 4.2282840907e+00 
31100 5.3475211377e+00 8.8996994954e-04 2.4411798718e+00 -4.2282475684e+00 2.4411798718e+00 4.2282475684e+00 
31200 5.3475248973e+00 7.5082006657e-04 2.4411616436e+00 -4.2282159962e+00 2.4411616436e+00 4.2282159962e+00 
31300 5.3475283567e+00 6.1239439900e-04 2.4411462653e+00 -4.2281893601e+00 2.4411462653e+00 4.2281893601e+00 
31400 5.3475315039e+00 4.7501511366e-04 2.4411337221e+00 -4.2281676347e+00 2.4411337221e+00 4.2281676347e+00 
31500 5.3475343300e+00 3.3899333201e-04 2.4411239927e+00 -4.2281507829e+00 2.4411239927e+00 4.2281507829e+00 
31600 5.3475368294e+00 2.0462875231e-04 2.4411170493e+00 -4.2281387567e+00 2.4411170493e+00 4.2281387567e+00 
31700 5.3475389994e+00 7.2209306805e-05 2.4411128580e+00 -4.2281314971e+00 2.4411128580e+00 4.2281314971e+00 
31800 5.3475408406e+00 -5.7989146509e-05 2.4411113790e+00 -4.2281289354e+00 2.4411113790e+00 4.2281289354e+00 
31900 5.3475423562e+00 -1.8617912079e-04 2.4411113790e+00 -4.2281289354e+00 2.4411113790e+00 4.2281289354e+00 
32000 5.3475435520e+00 -3.1116649415e-04 2.4411151924e+00 -4.2281355404e+00 2.4411151924e+00 4.2281355404e+00 
32100 5.3475444361e+00 -4.3318032816e-04 2.4411215659e+00 -4.2281465795e+00 2.4411215659e+00 4.2281465795e+00 
32200 5.3475450192e+00 -5.5199542805e-04 2.4411304384e+00 -4.2281619473e+00 2.4411304384e+00 4.2281619473e+00 
32300 5.3475453141e+00 -6.6739971642e-04 2.4411417446e+00 -4.2281815301e+00 2.4411417446e+00 4.2281815301e+00 
32400 5.3475453352e+00 -7.7919434532e-04 2.4411554144e+00 -4.2282052070e+00 2.4411554144e+00 4.2282052070e+00 
32500 5.3475450988e+00 -8.8719377794e-04 2.4411713740e+00 -4.2282328497e+00 2.4411713740e+00 4.2282328497e+00 
32600 5.3475446226e+00 -9.9122584061e-04 2.4411895455e+00 -4.2282643237e+00 2.4411895455e+00 4.2282643237e+00 
32700 5.3475439254e+00 -1.0911317460e-03 2.4412098476e+00 -4.2282994880e+00 2.4412098476e+00 4.2282994880e+00 
32800 5.3475430270e+00 -1.1867660883e-03 2.4412321958e+00 -4.2283381963e+00 2.4412321958e+00 4.2283381963e+00 
32900 5.3475419480e+00 -1.2779968112e-03 2.4412565026e+00 -4.2283802968e+00 2.4412565026e+00 4.2283802968e+00 
33000 5.3475407097e+00 -1.3647051489e-03 2.4412826776e+00 -4.2284256333e+00 2.4412826776e+00 4.2284256333e+00 
33100 5.3475393336e+00 -1.4467855425e-03 2.4413106282e+00 -4.2284740452e+00 2.4413106282e+00 4.2284740452e+00 
33200 5.3475378412e+00 -1.5241455309e-03 2.4413402596e+00 -4.2285253682e+00 2.4413402596e+00 4.2285253682e+00 
33300 5.3475362543e+00 -1.5967056181e-03 2.4413714750e+00 -4.2285794349e+00 2.4413714750e+00 4.2285794349e+00 
33400 5.3475345940e+00 -1.6643991175e-03 2.4414041761e+00 -4.2286360748e+00 2.4414041761e+00 4.2286360748e+00 
33500 5.3475328814e+00 -1.7271719740e-03 2.4414382631e+00 -4.2286951152e+00 2.4414382631e+00 4.2286951152e+00 
33600 5.3475311368e+00 -1.7849825653e-03 2.4414736352e+00 -4.2287563815e+00 2.4414736352e+00 4.2287563815e+00 
33700 5.3475293797e+00 -1.8378014822e-03 2.4415101907e+00 -4.2288196976e+00 2.4415101907e+00 4.2288196976e+00 
33800 5.3475276291e+00 -1.8856112901e-03 2.4415478274e+00 -4.2288848862e+00 2.4415478274e+00 4.2288848862e+00 
33900 5.3475259026e+00 -1.9284062721e-03 2.4415864426e+00 -4.2289517696e+00 2.4415864426e+00 4.2289517696e+00 
34000 5.3475242169e+00 -1.9661921537e-03 2.4416259335e+00 -4.2290201700e+00 2.4416259335e+00 4.2290201700e+00 
34100 5.3475225876e+00 -1.9989858120e-03 2.4416661976e+00 -4.2290899094e+00 2.4416661976e+00 4.2290899094e+00 
34200 5.3475210287e+00 -2.0268149682e-03 2.4417071326e+00 -4.2291608109e+00 2.4417071326e+00 4.2291608109e+00 
34300 5.3475195534e+00 -2.0497178660e-03 2.4417486368e+00 -4.2292326983e+00 2.4417486368e+00 4.2292326983e+00 
34400 5.3475181730e+00 -2.0677429355e-03 2.4417906093e+00 -4.2293053967e+00 2.4417906093e+00 4.2293053967e+00 
34500 5.3475168978e+00 -2.0809484450e-03 2.4418329501e+00 -4.2293787332e+00 2.4418329501e+00 4.2293787332e+00 
34600 5.3475157365e+00 -2.0894021397e-03 2.4418755606e+00 -4.2294525367e+00 2.4418755606e+00 4.2294525367e+00 
34700 5.3475146962e+00 -2.0931808704e-03 2.4419183434e+00 -4.2295266388e+00 2.4419183434e+00 4.2295266388e+00 
34800 5.3475137829e+00 -2.0923702111e-03 2.4419612029e+00 -4.2296008736e+00 2.4419612029e+00 4.2296008736e+00 
34900 5.3475130010e+00 -2.0870640681e-03 2.4420040451e+00 -4.2296750783e+00 2.4420040451e+00 4.2296750783e+00 
35000 5.3475123535e+00 -2.0773642803e-03 2.4420467778e+00 -4.2297490936e+00 2.4420467778e+00 4.2297490936e+00 
35100 5.3475118422e+00 -2.0633802123e-03 2.4420893112e+00 -4.2298227636e+00 2.4420893112e+00 4.2298227636e+00 
35200 5.3475114674e+00 -2.0452283411e-03 2.4421315575e+00 -4.2298959364e+00 2.4421315575e+00 4.2298959364e+00 
35300 5.3475112284e+00 -2.0230318370e-03 2.4421734315e+00 -4.2299684642e+00 2.4421734315e+00 4.2299684642e+00 
35400 5.3475111231e+00 -1.9969201400e-03 2.4422148503e+00 -4.2300402036e+00 2.4422148503e+00 4.2300402036e+00 
35500 5.3475111485e+00 -1.9670285326e-03 2.4422557338e+00 -4.2301110159e+00 2.4422557338e+00 4.2301110159e+00 
35600 5.3475113004e+00 -1.9334977093e-03 2.4422960046e+00 -4.2301807671e+00 2.4422960046e+00 4.2301807671e+00 
35700 5.3475115738e+00 -1.8964733446e-03 2.4423355883e+00 -4.2302493281e+00 2.4423355883e+00 4.2302493281e+00 
35800 5.3475119629e+00 -1.8561056600e-03 2.4423744134e+00 -4.2303165751e+00 2.4423744134e+00 4.2303165751e+00 
35900 5.3475124609e+00 -1.8125489900e-03 2.4424124115e+00 -4.2303823897e+00 2.4424124115e+00 4.2303823897e+00 
36000 5.3475130606e+00 -1.7659613499e-03 2.4424495173e+00 -4.2304466589e+00 2.4424495173e+00 4.2304466589e+00 
36100 5.3475137540e+00 -1.7165040040e-03 2.4424856688e+00 -4.2305092751e+00 2.4424856688e+00 4.2305092751e+00 
36200 5.3475145329e+00 -1.6643410375e-03 2.4425208074e+00 -4.2305701369e+00 2.4425208074e+00 4.2305701369e+00 
36300 5.3475153885e+00 -1.6096389298e-03 2.4425548776e+00 -4.2306291483e+00 2.4425548776e+00 4.2306291483e+00 
36400 5.3475163117e+00 -1.5525661337e-03 2.4425878276e+00 -4.2306862193e+00 2.4425878276e+00 4.2306862193e+00 
36500 5.3475172935e+00 -1.4932926578e-03 2.4426196088e+00 -4.2307412660e+00 2.4426196088e+00 4.2307412660e+00 
36600 5.3475183243e+00 -1.4319896557e-03 2.4426501763e+00 -4.2307942105e+00 2.4426501763e+00 4.2307942105e+00 
36700 5.3475193950e+00 -1.3688290208e-03 2.4426794886e+00 -4.2308449808e+00 2.4426794886e+00 4.2308449808e+00 
36800 5.3475204962e+00 -1.3039829881e-03 2.4427075077e+00 -4.2308935113e+00 2.4427075077e+00 4.2308935113e+00 
36900 5.3475216188e+00 -1.2376237445e-03 2.4427341990e+00 -4.2309397421e+00 2.4427341990e+00 4.2309397421e+00 
37000 5.3475227538e+00 -1.1699230467e-03 2.4427595318e+00 -4.2309836198e+00 2.4427595318e+00 4.2309836198e+00 
37100 5.3475238927e+00 -1.1010518490e-03 2.4427834786e+00 -4.2310250969e+00 2.4427834786e+00 4.2310250969e+00 
37200 5.3475250270e+00 -1.0311799403e-03 2.4428060155e+00 -4.2310641319e+00 2.4428060155e+00 4.2310641319e+00 
37300 5.3475261489e+00 -9.6047559149e-04 2.4428271220e+00 -4.2311006894e+00 2.4428271220e+00 4.2311006894e+00 
37400 5.3475272510e+00 -8.8910521447e-04 2.4428467811e+00 -4.2311347400e+00 2.4428467811e+00 4.2311347400e+00 
37500 5.3475283261e+00 -8.1723303185e-04 2.4428649793e+00 -4.2311662601e+00 2.4428649793e+00 4.2311662601e+00 
37600 5.3475293679e+00 -7.4502075912e-04 2.4428817062e+00 -4.2311952321e+00 2.4428817062e+00 4.2311952321e+00 
37700 5.3475303705e+00 -6.7262729925e-04 2.4428969551e+00 -4.2312216438e+00 2.4428969551e+00 4.2312216438e+00 
37800 5.3475313286e+00 -6.0020845019e-04 2.4429107221e+00 -4.2312454890e+00 2.4429107221e+00 4.2312454890e+00 
37900 5.3475322375e+00 -5.2791662578e-04 2.4429230068e+00 -4.2312667667e+00 2.4429230068e+00 4.2312667667e+00 
38000 5.3475330929e+00 -4.5590059036e-04 2.4429338118e+00 -4.2312854816e+00 2.4429338118e+00 4.2312854816e+00 
38100 5.3475338916e+00 -3.8430520749e-04 2.4429431428e+00 -4.2313016434e+00 2.4429431428e+00 4.2313016434e+00 
38200 5.3475346307e+00 -3.1327120306e-04 2.4429510084e+00 -4.2313152670e+00 2.4429510084e+00 4.2313152670e+00 
38300 5.3475353078e+00 -2.4293494293e-04 2.4429574202e+00 -4.2313263725e+00 2.4429574202e+00 4.2313263725e+00 
38400 5.3475359215e+00 -1.7342822563e-04 2.4429623923e+00 -4.2313349845e+00 2.4429623923e+00 4.2313349845e+00 
38500 5.3475364706e+00 -1.0487808987e-04 2.4429659419e+00 -4.2313411325e+00 2.4429659419e+00 4.2313411325e+00 
38600 5.3475369547e+00 -3.7406637408e-05 2.4429680884e+00 -4.2313448504e+00 2.4429680884e+00 4.2313448504e+00 
38700 5.3475373739e+00 2.8562453728e-05 2.4429680884e+00 -4.2313448504e+00 2.4429680884e+00 4.2313448504e+00 
38800 5.3475377289e+00 9.3759256274e-05 2.4429680884e+00 -4.2313448504e+00 2.4429680884e+00 4.2313448504e+00 
38900 5.3475380208e+00 1.5731239528e-04 2.4429661695e+00 -4.2313415267e+00 2.4429661695e+00 4.2313415267e+00 
39000 5.3475382512e+00 2.1935084531e-04 2.4429629498e+00 -4.2313359500e+00 2.4429629498e+00 4.2313359500e+00 
39100 5.3475384221e+00 2.7977931549e-04 2.4429584603e+00 -4.2313281740e+00 2.4429584603e+00 4.2313281740e+00 
39200 5.3475385359e+00 3.3850819287e-04 2.4429527341e+00 -4.2313182559e+00 2.4429527341e+00 4.2313182559e+00 
39300 5.3475385955e+00 3.9545361266e-04 2.4429458058e+00 -4.2313062558e+00 2.4429458058e+00 4.2313062558e+00 
39400 5.3475386038e+00 4.5053751353e-04 2.4429377120e+00 -4.2312922370e+00 2.4429377120e+00 4.2312922370e+00 
39500 5.3475385642e+00 5.0368767822e-04 2.4429284908e+00 -4.2312762654e+00 2.4429284908e+00 4.2312762654e+00 
39600 5.3475384804e+00 5.5483775963e-04 2.4429181817e+00 -4.2312584095e+00 2.4429181817e+00 4.2312584095e+00 
39700 5.3475383560e+00 6.0392729273e-04 2.4429068257e+00 -4.2312387403e+00 2.4429068257e+00 4.2312387403e+00 
39800 5.3475381951e+00 6.5090169250e-04 2.4428944649e+00 -4.2312173307e+00 2.4428944649e+00 4.2312173307e+00 
39900 5.3475380017e+00 6.9571223832e-04 2.4428811425e+00 -4.2311942557e+00 2.4428811425e+00 4.2311942557e+00 
40000 5.3475377798e+00 7.3831604507e-04 2.4428669030e+00 -4.2311695921e+00 2.4428669030e+00 4.2311695921e+00 
40100 5.3475375336e+00 7.7867602143e-04 2.4428517913e+00 -4.2311434179e+00 2.4428517913e+00 4.2311434179e+00 
40200 5.3475372672e+00 8.1676081568e-04 2.4428358535e+00 -4.2311158128e+00 2.4428358535e+00 4.2311158128e+00 
40300 5.3475369847e+00 8.5254474953e-04 2.4428191360e+00 -4.2310868573e+00 2.4428191360e+00 4.2310868573e+00 
40400 5.3475366901e+00 8.8600774032e-04 2.4428016860e+00 -4.2310566330e+00 2.4428016860e+00 4.2310566330e+00 
40500 5.3475363873e+00 9.1713521218e-04 2.4427835510e+00 -4.2310252222e+00 2.4427835510e+00 4.2310252222e+00 
40600 5.3475360800e+00 9.4591799657e-04 2.4427647787e+00 -4.2309927076e+00 2.4427647787e+00 4.2309927076e+00 
40700 5.3475357720e+00 9.7235222268e-04 2.4427454171e+00 -4.2309591723e+00 2.4427454171e+00 4.2309591723e+00 
40800 5.3475354665e+00 9.9643919833e-04 2.4427255142e+00 -4.2309246996e+00 2.4427255142e+00 4.2309246996e+00 
40900 5.3475351669e+00 1.0181852817e-03 2.4427051182e+00 -4.2308893726e+00 2.4427051182e+00 4.2308893726e+00 
41000 5.3475348761e+00 1.0376017448e-03 2.4426842769e+00 -4.2308532744e+00 2.4426842769e+00 4.2308532744e+00 
41100 5.3475345969e+00 1.0547046283e-03 2.4426630380e+00 -4.2308164875e+00 2.4426630380e+00 4.2308164875e+00 
41200 5.3475343318e+00 1.0695145903e-03 2.4426414488e+00 -4.2307790939e+00 2.4426414488e+00 4.2307790939e+00 
41300 5.3475340831e+00 1.0820567464e-03 2.4426195562e+00 -4.2307411749e+00 2.4426195562e+00 4.2307411749e+00 
41400 5.3475338528e+00 1.0923605052e-03 2.4425974067e+00 -4.2307028109e+00 2.4425974067e+00 4.2307028109e+00 
41500 5.3475336425e+00 1.1004593973e-03 2.4425750461e+00 -4.2306640812e+00 2.4425750461e+00 4.2306640812e+00 
41600 5.3475334538e+00 1.1063908987e-03 2.4425525195e+00 -4.2306250640e+00 2.4425525195e+00 4.2306250640e+00 
41700 5.3475332879e+00 1.1101962507e-03 2.4425298713e+00 -4.2305858361e+00 2.4425298713e+00 4.2305858361e+00 
41800 5.3475331456e+00 1.1119202745e-03 2.4425071450e+00 -4.2305464730e+00 2.4425071450e+00 4.2305464730e+00 
41900 5.3475330276e+00 1.1116111839e-03 2.4424843832e+00 -4.2305070483e+00 2.4424843832e+00 4.2305070483e+00 
42000 5.3475329344e+00 1.1093203929e-03 2.4424616274e+00 -4.2304676343e+00 2.4424616274e+00 4.2304676343e+00 
42100 5.3475328660e+00 1.1051023233e-03 2.4424389184e+00 -4.2304283011e+00 2.4424389184e+00 4.2304283011e+00 
42200 5.3475328225e+00 1.0990142082e-03 2.4424162955e+00 -4.2303891171e+00 2.4424162955e+00 4.2303891171e+00 
42300 5.3475328035e+00 1.0911158957e-03 2.4423937971e+00 -4.2303501486e+00 2.4423937971e+00 4.2303501486e+00 
42400 5.3475328085e+00 1.0814696510e-03 2.4423714601e+00 -4.2303114598e+00 2.4423714601e+00 4.2303114598e+00 
42500 5.3475328368e+00 1.0701399583e-03 2.4423493204e+00 -4.2302731127e+00 2.4423493204e+00 4.2302731127e+00 
42600 5.3475328876e+00 1.0571933224e-03 2.4423274124e+00 -4.2302351670e+00 2.4423274124e+00 4.2302351670e+00 
42700 5.3475329598e+00 1.0426980720e-03 2.4423057693e+00 -4.2301976800e+00 2.4423057693e+00 4.2301976800e+00 
42800 5.3475330523e+00 1.0267241624e-03 2.4422844227e+00 -4.2301607067e+00 2.4422844227e+00 4.2301607067e+00 
42900 5.3475331636e+00 1.0093429808e-03 2.4422634030e+00 -4.2301242994e+00 2.4422634030e+00 4.2301242994e+00 
43000 5.3475332925e+00 9.9062715333e-04 2.4422427389e+00 -4.2300885082e+00 2.4422427389e+00 4.2300885082e+00 
43100 5.3475334375e+00 9.7065035353e-04 2.4422224579e+00 -4.2300533804e+00 2.4422224579e+00 4.2300533804e+00 
43200 5.3475335968e+00 9.4948711454e-04 2.4422025856e+00 -4.2300189607e+00 2.4422025856e+00 4.2300189607e+00 
43300 5.3475337690e+00 9.2721264344e-04 2.4421831465e+00 -4.2299852911e+00 2.4421831465e+00 4.2299852911e+00 
43400 5.3475339523e+00 9.0390263933e-04 2.4421641632e+00 -4.2299524111e+00 2.4421641632e+00 4.2299524111e+00 
43500 5.3475341451e+00 8.7963311492e-04 2.4421456571e+00 -4.2299203575e+00 2.4421456571e+00 4.2299203575e+00 
43600 5.3475343456e+00 8.5448022213e-04 2.4421276477e+00 -4.2298891643e+00 2.4421276477e+00 4.2298891643e+00 
43700 5.3475345522e+00 8.2852008187e-04 2.4421101531e+00 -4.2298588629e+00 2.4421101531e+00 4.2298588629e+00 
43800 5.3475347632e+00 8.0182861839e-04 2.4420931899e+00 -4.2298294818e+00 2.4420931899e+00 4.2298294818e+00 
43900 5.3475349769e+00 7.7448139834e-04 2.4420767731e+00 -4.2298010470e+00 2.4420767731e+00 4.2298010470e+00 
44000 5.3475351919e+00 7.4655347489e-04 2.4420609161e+00 -4.2297735819e+00 2.4420609161e+00 4.2297735819e+00 
44100 5.3475354065e+00 7.1811923695e-04 2.4420456308e+00 -4.2297471070e+00 2.4420456308e+00 4.2297471070e+00 
44200 5.3475356194e+00 6.8925226386e-04 2.4420309276e+00 -4.2297216402e+00 2.4420309276e+00 4.2297216402e+00 
44300 5.3475358291e+00 6.6002518561e-04 2.4420168153e+00 -4.2296971971e+00 2.4420168153e+00 4.2296971971e+00 
44400 5.3475360344e+00 6.3050954883e-04 2.4420033014e+00 -4.2296737903e+00 2.4420033014e+00 4.2296737903e+00 
44500 5.3475362342e+00 6.0077568855e-04 2.4419903917e+00 -4.2296514301e+00 2.4419903917e+00 4.2296514301e+00 
44600 5.3475364273e+00 5.7089260606e-04 2.4419780908e+00 -4.2296301242e+00 2.4419780908e+00 4.2296301242e+00 
44700 5.3475366128e+00 5.4092785280e-04 2.4419664017e+00 -4.2296098781e+00 2.4419664017e+00 4.2296098781e+00 
44800 5.3475367897e+00 5.1094742039e-04 2.4419553260e+00 -4.2295906945e+00 2.4419553260e+00 4.2295906945e+00 
44900 5.3475369575e+00 4.8101563703e-04 2.4419448642e+00 -4.2295725740e+00 2.4419448642e+00 4.2295725740e+00 
45000 5.3475371153e+00 4.5119507004e-04 2.4419350152e+00 -4.2295555150e+00 2.4419350152e+00 4.2295555150e+00 
45100 5.3475372628e+00 4.2154643491e-04 2.4419257767e+00 -4.2295395135e+00 2.4419257767e+00 4.2295395135e+00 
45200 5.3475373994e+00 3.9212851061e-04 2.4419171453e+00 -4.2295245635e+00 2.4419171453e+00 4.2295245635e+00 
45300 5.3475375249e+00 3.6299806133e-04 2.4419091161e+00 -4.2295106566e+00 2.4419091161e+00 4.2295106566e+00 
45400 5.3475376390e+00 3.3420976461e-04 2.4419016835e+00 -4.2294977829e+00 2.4419016835e+00 4.2294977829e+00 
45500 5.3475377417e+00 3.0581614578e-04 2.4418948403e+00 -4.2294859301e+00 2.4418948403e+00 4.2294859301e+00 
45600 5.3475378331e+00 2.7786751879e-04 2.4418885784e+00 -4.2294750842e+00 2.4418885784e+00 4.2294750842e+00 
45700 5.3475379131e+00 2.5041193330e-04 2.4418828888e+00 -4.2294652295e+00 2.4418828888e+00 4.2294652295e+00 
45800 5.3475379819e+00 2.2349512808e-04 2.4418777614e+00 -4.2294563486e+00 2.4418777614e+00 4.2294563486e+00 
45900 5.3475380400e+00 1.9716049043e-04 2.4418731851e+00 -4.2294484222e+00 2.4418731851e+00 4.2294484222e+00 
46000 5.3475380875e+00 1.7144902186e-04 2.4418691480e+00 -4.2294414298e+00 2.4418691480e+00 4.2294414298e+00 
46100 5.3475381249e+00 1.4639930969e-04 2.4418656374e+00 -4.2294353492e+00 2.4418656374e+00 4.2294353492e+00 
46200 5.3475381528e+00 1.2204750460e-04 2.4418626397e+00 -4.2294301571e+00 2.4418626397e+00 4.2294301571e+00 
46300 5.3475381715e+00 9.8427303959e-05 2.4418601406e+00 -4.2294258285e+00 2.4418601406e+00 4.2294258285e+00 
46400 5.3475381818e+00 7.5569940879e-05 2.4418581252e+00 -4.2294223377e+00 2.4418581252e+00 4.2294223377e+00 
46500 5.3475381842e+00 5.3504178807e-05 2.4418565778e+00 -4.2294196576e+00 2.4418565778e+00 4.2294196576e+00 
46600 5.3475381794e+00 3.2695934204e-05 2.4418565778e+00 -4.2294196576e+00 2.4418565778e+00 4.2294196576e+00 
46700 5.3475381681e+00 1.2566604582e-05 2.4418565778e+00 -4.2294196576e+00 2.4418565778e+00 4.2294196576e+00 
46800 5.3475381509e+00 -6.8600215914e-06 2.4418565778e+00 -4.2294196576e+00 2.4418565778e+00 4.2294196576e+00 
46900 5.3475381287e+00 -2.5562336498e-05 2.4418565778e+00 -4.2294196576e+00 2.4418565778e+00 4.2294196576e+00 
47000 5.3475381021e+00 -4.3520889438e-05 2.4418565778e+00 -4.2294196576e+00 2.4418565778e+00 4.2294196576e+00 
47100 5.3475380719e+00 -6.0718360330e-05 2.4418565778e+00 -4.2294196576e+00 2.4418565778e+00 4.2294196576e+00 
47200 5.3475380388e+00 -7.7139530394e-05 2.4418565778e+00 -4.2294196576e+00 2.4418565778e+00 4.2294196576e+00 
47300 5.3475380034e+00 -9.2137425644e-05 2.4418581574e+00 -4.2294223934e+00 2.4418581574e+00 4.2294223934e+00 
47400 5.3475379664e+00 -1.0619454940e-04 2.4418600440e+00 -4.2294256611e+00 2.4418600440e+00 4.2294256611e+00 
47500 5.3475379285e+00 -1.1930596415e-04 2.4418622184e+00 -4.2294294274e+00 2.4418622184e+00 4.2294294274e+00 
47600 5.3475378903e+00 -1.3146893884e-04 2.4418646614e+00 -4.2294336587e+00 2.4418646614e+00 4.2294336587e+00 
47700 5.3475378524e+00 -1.4268289939e-04 2.4418673533e+00 -4.2294383213e+00 2.4418673533e+00 4.2294383213e+00 
47800 5.3475378154e+00 -1.5294937587e-04 2.4418702749e+00 -4.2294433817e+00 2.4418702749e+00 4.2294433817e+00 
47900 5.3475377798e+00 -1.6227194636e-04 2.4418734068e+00 -4.2294488061e+00 2.4418734068e+00 4.2294488061e+00 
48000 5.3475377460e+00 -1.7065617793e-04 2.4418767294e+00 -4.2294545612e+00 2.4418767294e+00 4.2294545612e+00 
48100 5.3475377145e+00 -1.7810956470e-04 2.4418802238e+00 -4.2294606136e+00 2.4418802238e+00 4.2294606136e+00 
48200 5.3475376857e+00 -1.8464146334e-04 2.4418838708e+00 -4.2294669304e+00 2.4418838708e+00 4.2294669304e+00 
48300 5.3475376599e+00 -1.9026302607e-04 2.4418876515e+00 -4.2294734788e+00 2.4418876515e+00 4.2294734788e+00 
48400 5.3475376374e+00 -1.9498713153e-04 2.4418915473e+00 -4.2294802265e+00 2.4418915473e+00 4.2294802265e+00 
48500 5.3475376184e+00 -1.9882831359e-04 2.4418955399e+00 -4.2294871418e+00 2.4418955399e+00 4.2294871418e+00 
48600 5.3475376033e+00 -2.0180268827e-04 2.4418996111e+00 -4.2294941933e+00 2.4418996111e+00 4.2294941933e+00 
48700 5.3475375920e+00 -2.0392787913e-04 2.4419037431e+00 -4.2295013503e+00 2.4419037431e+00 4.2295013503e+00 
48800 5.3475375848e+00 -2.0522294116e-04 2.4419079187e+00 -4.2295085827e+00 2.4419079187e+00 4.2295085827e+00 
48900 5.3475375817e+00 -2.0570828345e-04 2.4419121208e+00 -4.2295158609e+00 2.4419121208e+00 4.2295158609e+00 
49000 5.3475375826e+00 -2.0540559082e-04 2.4419163329e+00 -4.2295231564e+00 2.4419163329e+00 4.2295231564e+00 
49100 5.3475375877e+00 -2.0433774457e-04 2.4419205387e+00 -4.2295304411e+00 2.4419205387e+00 4.2295304411e+00 
49200 5.3475375968e+00 -2.0252874258e-04 2.4419247227e+00 -4.2295376879e+00 2.4419247227e+00 4.2295376879e+00 
49300 5.3475376099e+00 -2.0000361891e-04 2.4419288696e+00 -4.2295448706e+00 2.4419288696e+00 4.2295448706e+00 
49400 5.3475376267e+00 -1.9678836315e-04 2.4419329648e+00 -4.2295519637e+00 2.4419329648e+00 4.2295519637e+00 
49500 5.3475376472e+00 -1.9290983956e-04 2.4419369941e+00 -4.2295589427e+00 2.4419369941e+00 4.2295589427e+00 
49600 5.3475376712e+00 -1.8839570631e-04 2.4419409441e+00 -4.2295657842e+00 2.4419409441e+00 4.2295657842e+00 
49700 5.3475376985e+00 -1.8327433498e-04 2.4419448016e+00 -4.2295724656e+00 2.4419448016e+00 4.2295724656e+00 
49800 5.3475377287e+00 -1.7757473037e-04 2.4419485542e+00 -4.2295789653e+00 2.4419485542e+00 4.2295789653e+00 
49900 5.3475377618e+00 -1.7132645095e-04 2.4419521901e+00 -4.2295852629e+00 2.4419521901e+00 4.2295852629e+00 
50000 5.3475377974e+00 -1.6455952992e-04 2.4419556981e+00 -4.2295913389e+00 2.4419556981e+00 4.2295913389e+00 
50100 5.3475378352e+00 -1.5730439722e-04 2.4419590675e+00 -4.2295971750e+00 2.4419590675e+00 4.2295971750e+00 
50200 5.3475378750e+00 -1.4959180254e-04 2.4419622884e+00 -4.2296027537e+00 2.4419622884e+00 4.2296027537e+00 
50300 5.3475379164e+00 -1.4145273940e-04 2.4419653513e+00 -4.2296080588e+00 2.4419653513e+00 4.2296080588e+00 
50400 5.3475379593e+00 -1.3291837068e-04 2.4419682476e+00 -4.2296130753e+00 2.4419682476e+00 4.2296130753e+00 
50500 5.3475380031e+00 -1.2401995541e-04 2.4419709692e+00 -4.2296177892e+00 2.4419709692e+00 4.2296177892e+00 
50600 5.3475380478e+00 -1.1478877717e-04 2.4419735085e+00 -4.2296221875e+00 2.4419735085e+00 4.2296221875e+00 
50700 5.3475380930e+00 -1.0525607424e-04 2.4419758588e+00 -4.2296262584e+00 2.4419758588e+00 4.2296262584e+00 
50800 5.3475381383e+00 -9.5452971382e-05 2.4419780140e+00 -4.2296299912e+00 2.4419780140e+00 4.2296299912e+00 
50900 5.3475381837e+00 -8.5410413646e-05 2.4419799684e+00 -4.2296333763e+00 2.4419799684e+00 4.2296333763e+00 
51000 5.3475382286e+00 -7.5159102059e-05 2.4419817172e+00 -4.2296364053e+00 2.4419817172e+00 4.2296364053e+00 
51100 5.3475382731e+00 -6.4729431478e-05 2.4419832561e+00 -4.2296390708e+00 2.4419832561e+00 4.2296390708e+00 
51200 5.3475383167e+00 -5.4683349075e-05 2.4419832561e+00 -4.2296390708e+00 2.4419832561e+00 4.2296390708e+00 
51300 5.3475383593e+00 -4.4445854185e-05 2.4419832561e+00 -4.2296390708e+00 2.4419832561e+00 4.2296390708e+00 
51400 5.3475384007e+00 -3.4042980098e-05 2.4419832561e+00 -4.2296390708e+00 2.4419832561e+00 4.2296390708e+00 
51500 5.3475384406e+00 -2.3500364453e-05 2.4419832561e+00 -4.2296390708e+00 2.4419832561e+00 4.2296390708e+00 
51600 5.3475384790e+00 -1.2843209601e-05 2.4419832561e+00 -4.2296390708e+00 2.4419832561e+00 4.2296390708e+00 
51700 5.3475385156e+00 -2.0962446111e-06 2.4419832561e+00 -4.2296390708e+00 2.4419832561e+00 4.2296390708e+00 
51800 5.3475385504e+00 8.7163110075e-06 2.4419832561e+00 -4.2296390708e+00 2.4419832561e+00 4.2296390708e+00 
51900 5.3475385833e+00 1.9570781832e-05 2.4419832561e+00 -4.2296390708e+00 2.4419832561e+00 4.2296390708e+00 
52000 5.3475386142e+00 3.0444069259e-05 2.4419832561e+00 -4.2296390708e+00 2.4419832561e+00 4.2296390708e+00 
52100 5.3475386431e+00 4.1313682400e-05 2.4419832561e+00 -4.2296390708e+00 2.4419832561e+00 4.2296390708e+00 
52200 5.3475386698e+00 5.2157767130e-05 2.4419832561e+00 -4.2296390708e+00 2.4419832561e+00 4.2296390708e+00 
52300 5.3475386945e+00 6.2955133236e-05 2.4419832561e+00 -4.2296390708e+00 2.4419832561e+00 4.2296390708e+00 
52400 5.3475387170e+00 7.3685279650e-05 2.4419832561e+00 -4.2296390708e+00 2.4419832561e+00 4.2296390708e+00 
52500 5.3475387374e+00 8.3722841292e-05 2.4419817474e+00 -4.2296364576e+00 2.4419817474e+00 4.2296364576e+00 
52600 5.3475387556e+00 9.3555634875e-05 2.4419800331e+00 -4.2296334884e+00 2.4419800331e+00 4.2296334884e+00 
52700 5.3475387718e+00 1.0316459187e-04 2.4419781176e+00 -4.2296301706e+00 2.4419781176e+00 4.2296301706e+00 
52800 5.3475387860e+00 1.1253163126e-04 2.4419760052e+00 -4.2296265119e+00 2.4419760052e+00 4.2296265119e+00 
52900 5.3475387982e+00 1.2163967554e-04 2.4419737011e+00 -4.2296225211e+00 2.4419737011e+00 4.2296225211e+00 
53000 5.3475388086e+00 1.3047266416e-04 2.4419712105e+00 -4.2296182073e+00 2.4419712105e+00 4.2296182073e+00 
53100 5.3475388173e+00 1.3901556424e-04 2.4419685391e+00 -4.2296135802e+00 2.4419685391e+00 4.2296135802e+00 
53200 5.3475388242e+00 1.4725437885e-04 2.4419656927e+00 -4.2296086501e+00 2.4419656927e+00 4.2296086501e+00 
53300 5.3475388297e+00 1.5517615272e-04 2.4419626776e+00 -4.2296034278e+00 2.4419626776e+00 4.2296034278e+00 
53400 5.3475388337e+00 1.6276897548e-04 2.4419595003e+00 -4.2295979246e+00 2.4419595003e+00 4.2295979246e+00 
53500 5.3475388364e+00 1.7002198250e-04 2.4419561676e+00 -4.2295921521e+00 2.4419561676e+00 4.2295921521e+00 
53600 5.3475388380e+00 1.7692535333e-04 2.4419526863e+00 -4.2295861224e+00 2.4419526863e+00 4.2295861224e+00 
53700 5.3475388385e+00 1.8347030792e-04 2.4419490637e+00 -4.2295798478e+00 2.4419490637e+00 4.2295798478e+00 
53800 5.3475388381e+00 1.8964910050e-04 2.4419453071e+00 -4.2295733411e+00 2.4419453071e+00 4.2295733411e+00 
53900 5.3475388369e+00 1.9545501142e-04 2.4419414239e+00 -4.2295666153e+00 2.4419414239e+00 4.2295666153e+00 
54000 5.3475388351e+00 2.0088233673e-04 2.4419374219e+00 -4.2295596836e+00 2.4419374219e+00 4.2295596836e+00 
54100 5.3475388327e+00 2.0592637590e-04 2.4419333087e+00 -4.2295525593e+00 2.4419333087e+00 4.2295525593e+00 
54200 5.3475388300e+00 2.1058341751e-04 2.4419290922e+00 -4.2295452562e+00 2.4419290922e+00 4.2295452562e+00 
54300 5.3475388270e+00 2.1485072303e-04 2.4419247804e+00 -4.2295377879e+00 2.4419247804e+00 4.2295377879e+00 
54400 5.3475388239e+00 2.1872650898e-04 2.4419203812e+00 -4.2295301683e+00 2.4419203812e+00 4.2295301683e+00 
54500 5.3475388207e+00 2.2220992718e-04 2.4419159026e+00 -4.2295224111e+00 2.4419159026e+00 4.2295224111e+00 
54600 5.3475388177e+00 2.2530104357e-04 2.4419113527e+00 -4.2295145305e+00 2.4419113527e+00 4.2295145305e+00 
54700 5.3475388148e+00 2.2800081537e-04 2.4419067395e+00 -4.2295065402e+00 2.4419067395e+00 4.2295065402e+00 
54800 5.3475388121e+00 2.3031106688e-04 2.4419020710e+00 -4.2294984541e+00 2.4419020710e+00 4.2294984541e+00 
54900 5.3475388099e+00 2.3223446394e-04 2.4418973552e+00 -4.2294902861e+00 2.4418973552e+00 4.2294902861e+00 
55000 5.3475388080e+00 2.3377448706e-04 2.4418926000e+00 -4.2294820498e+00 2.4418926000e+00 4.2294820498e+00 
55100 5.3475388067e+00 2.3493540346e-04 2.4418878132e+00 -4.2294737589e+00 2.4418878132e+00 4.2294737589e+00 
55200 5.3475388059e+00 2.3572223800e-04 2.4418830027e+00 -4.2294654268e+00 2.4418830027e+00 4.2294654268e+00 
55300 5.3475388057e+00 2.3614074316e-04 2.4418781761e+00 -4.2294570668e+00 2.4418781761e+00 4.2294570668e+00 
55400 5.3475388062e+00 2.3619736809e-04 2.4418733408e+00 -4.2294486920e+00 2.4418733408e+00 4.2294486920e+00 
55500 5.3475388074e+00 2.3589922689e-04 2.4418685044e+00 -4.2294403151e+00 2.4418685044e+00 4.2294403151e+00 
55600 5.3475388092e+00 2.3525406620e-04 2.4418636741e+00 -4.2294319488e+00 2.4418636741e+00 4.2294319488e+00 
55700 5.3475388118e+00 2.3427023213e-04 2.4418588570e+00 -4.2294236053e+00 2.4418588570e+00 4.2294236053e+00 
55800 5.3475388152e+00 2.3295663671e-04 2.4418540601e+00 -4.2294152967e+00 2.4418540601e+00 4.2294152967e+00 
55900 5.3475388192e+00 2.3132272390e-04 2.4418492900e+00 -4.2294070347e+00 2.4418492900e+00 4.2294070347e+00 
56000 5.3475388240e+00 2.2937843521e-04 2.4418445534e+00 -4.2293988306e+00 2.4418445534e+00 4.2293988306e+00 
56100 5.3475388295e+00 2.2713417513e-04 2.4418398566e+00 -4.2293906955e+00 2.4418398566e+00 4.2293906955e+00 
56200 5.3475388357e+00 2.2460077631e-04 2.4418352057e+00 -4.2293826399e+00 2.4418352057e+00 4.2293826399e+00 
56300 5.3475388426e+00 2.2178946467e-04 2.4418306067e+00 -4.2293746742e+00 2.4418306067e+00 4.2293746742e+00 
56400 5.3475388501e+00 2.1871182452e-04 2.4418260652e+00 -4.2293668082e+00 2.4418260652e+00 4.2293668082e+00 
56500 5.3475388582e+00 2.1537976375e-04 2.4418215868e+00 -4.2293590513e+00 2.4418215868e+00 4.2293590513e+00 
56600 5.3475388668e+00 2.1180547909e-04 2.4418171765e+00 -4.2293514125e+00 2.4418171765e+00 4.2293514125e+00 
56700 5.3475388760e+00 2.0800142168e-04 2.4418128395e+00 -4.2293439006e+00 2.4418128395e+00 4.2293439006e+00 
56800 5.3475388856e+00 2.0398026284e-04 2.4418085803e+00 -4.2293365235e+00 2.4418085803e+00 4.2293365235e+00 
56900 5.3475388957e+00 1.9975486030e-04 2.4418044035e+00 -4.2293292890e+00 2.4418044035e+00 4.2293292890e+00 
57000 5.3475389061e+00 1.9533822473e-04 2.4418003132e+00 -4.2293222044e+00 2.4418003132e+00 4.2293222044e+00 
57100 5.3475389168e+00 1.9074348688e-04 2.4417963133e+00 -4.2293152764e+00 2.4417963133e+00 4.2293152764e+00 
57200 5.3475389277e+00 1.8598386519e-04 2.4417924075e+00 -4.2293085113e+00 2.4417924075e+00 4.2293085113e+00 
57300 5.3475389389e+00 1.8107263403e-04 2.4417885992e+00 -4.2293019151e+00 2.4417885992e+00 4.2293019151e+00 
57400 5.3475389502e+00 1.7602309262e-04 2.4417848914e+00 -4.2292954930e+00 2.4417848914e+00 4.2292954930e+00 
57500 5.3475389616e+00 1.7084853466e-04 2.4417812870e+00 -4.2292892500e+00 2.4417812870e+00 4.2292892500e+00 
57600 5.3475389730e+00 1.6556221870e-04 2.4417777885e+00 -4.2292831905e+00 2.4417777885e+00 4.2292831905e+00 
57700 5.3475389844e+00 1.6017733937e-04 2.4417743983e+00 -4.2292773186e+00 2.4417743983e+00 4.2292773186e+00 
57800 5.3475389957e+00 1.5470699946e-04 2.4417711184e+00 -4.2292716375e+00 2.4417711184e+00 4.2292716375e+00 
57900 5.3475390070e+00 1.4916418284e-04 2.4417679505e+00 -4.2292661505e+00 2.4417679505e+00 4.2292661505e+00 
58000 5.3475390180e+00 1.4356172838e-04 2.4417648961e+00 -4.2292608601e+00 2.4417648961e+00 4.2292608601e+00 
58100 5.3475390289e+00 1.3791230486e-04 2.4417619563e+00 -4.2292557684e+00 2.4417619563e+00 4.2292557684e+00 
58200 5.3475390395e+00 1.3222838679e-04 2.4417591323e+00 -4.2292508770e+00 2.4417591323e+00 4.2292508770e+00 
58300 5.3475390498e+00 1.2652223135e-04 2.4417564247e+00 -4.2292461872e+00 2.4417564247e+00 4.2292461872e+00 
58400 5.3475390598e+00 1.2080585633e-04 2.4417538339e+00 -4.2292416998e+00 2.4417538339e+00 4.2292416998e+00 
58500 5.3475390695e+00 1.1509101922e-04 2.4417513601e+00 -4.2292374152e+00 2.4417513601e+00 4.2292374152e+00 
58600 5.3475390788e+00 1.0938919728e-04 2.4417490034e+00 -4.2292333332e+00 2.4417490034e+00 4.2292333332e+00 
58700 5.3475390877e+00 1.0371156889e-04 2.4417467634e+00 -4.2292294534e+00 2.4417467634e+00 4.2292294534e+00 
58800 5.3475390963e+00 9.8068995821e-05 2.4417446397e+00 -4.2292257750e+00 2.4417446397e+00 4.2292257750e+00 
58900 5.3475391044e+00 9.2472006874e-05 2.4417426315e+00 -4.2292222968e+00 2.4417426315e+00 4.2292222968e+00 
59000 5.3475391120e+00 8.6930782482e-05 2.4417407379e+00 -4.2292190170e+00 2.4417407379e+00 4.2292190170e+00 
59100 5.3475391193e+00 8.1455140581e-05 2.4417389578e+00 -4.2292159338e+00 2.4417389578e+00 4.2292159338e+00 
59200 5.3475391261e+00 7.6054523547e-05 2.4417372899e+00 -4.2292130448e+00 2.4417372899e+00 4.2292130448e+00 
59300 5.3475391324e+00 7.0737986390e-05 2.4417357325e+00 -4.2292103473e+00 2.4417357325e+00 4.2292103473e+00 
59400 5.3475391384e+00 6.5514186011e-05 2.4417342840e+00 -4.2292078384e+00 2.4417342840e+00 4.2292078384e+00 
59500 5.3475391439e+00 6.0929970568e-05 2.4417342840e+00 -4.2292078384e+00 2.4417342840e+00 4.2292078384e+00 
59600 5.3475391490e+00 5.6426878064e-05 2.4417342840e+00 -4.2292078384e+00 2.4417342840e+00 4.2292078384e+00 
59700 5.3475391537e+00 5.2012298005e-05 2.4417342840e+00 -4.2292078384e+00 2.4417342840e+00 4.2292078384e+00 
59800 5.3475391580e+00 4.7693216077e-05 2.4417342840e+00 -4.2292078384e+00 2.4417342840e+00 4.2292078384e+00 
59900 5.3475391619e+00 4.3476213335e-05 2.4417342840e+00 -4.2292078384e+00 2.4417342840e+00 4.2292078384e+00 
60000 5.3475391654e+00 3.9367466024e-05 2.4417342840e+00 -4.2292078384e+00 2.4417342840e+00 4.2292078384e+00 
60100 5.3475391686e+00 3.5372745997e-05 2.4417342840e+00 -4.2292078384e+00 2.4417342840e+00 4.2292078384e+00 
60200 5.3475391715e+00 3.1497421758e-05 2.4417342840e+00 -4.2292078384e+00 2.4417342840e+00 4.2292078384e+00 
60300 5.3475391740e+00 2.7746460069e-05 2.4417342840e+00 -4.2292078384e+00 2.4417342840e+00 4.2292078384e+00 
60400 5.3475391763e+00 2.4124428191e-05 2.4417342840e+00 -4.2292078384e+00 2.4417342840e+00 4.2292078384e+00 
60500 5.3475391783e+00 2.0635496692e-05 2.4417342840e+00 -4.2292078384e+00 2.4417342840e+00 4.2292078384e+00 
60600 5.3475391802e+00 1.7283442823e-05 2.4417342840e+00 -4.2292078384e+00 2.4417342840e+00 4.2292078384e+00 
60700 5.3475391818e+00 1.4071654456e-05 2.4417342840e+00 -4.2292078384e+00 2.4417342840e+00 4.2292078384e+00 
60800 5.3475391832e+00 1.1003134613e-05 2.4417342840e+00 -4.2292078384e+00 2.4417342840e+00 4.2292078384e+00 
60900 5.3475391846e+00 8.0805064747e-06 2.4417342840e+00 -4.2292078384e+00 2.4417342840e+00 4.2292078384e+00 
61000 5.3475391858e+00 5.3060189631e-06 2.4417342840e+00 -4.2292078384e+00 2.4417342840e+00 4.2292078384e+00 
61100 5.3475391869e+00 2.6815528029e-06 2.4417342840e+00 -4.2292078384e+00 2.4417342840e+00 4.2292078384e+00 
61200 5.3475391879e+00 2.0862709419e-07 2.4417342840e+00 -4.2292078384e+00 2.4417342840e+00 4.2292078384e+00 
61300 5.3475391889e+00 -2.1115936508e-06 2.4417342840e+00 -4.2292078384e+00 2.4417342840e+00 4.2292078384e+00 
61400 5.3475391899e+00 -4.2782920145e-06 2.4417342840e+00 -4.2292078384e+00 2.4417342840e+00 4.2292078384e+00 
61500 5.3475391909e+00 -6.2909897313e-06 2.4417342840e+00 -4.2292078384e+00 2.4417342840e+00 4.2292078384e+00 
61600 5.3475391919e+00 -8.1495393479e-06 2.4417342840e+00 -4.2292078384e+00 2.4417342840e+00 4.2292078384e+00 
61700 5.3475391929e+00 -9.8541154750e-06 2.4417342840e+00 -4.2292078384e+00 2.4417342840e+00 4.2292078384e+00 
61800 5.3475391940e+00 -1.1405205661e-05 2.4417342840e+00 -4.2292078384e+00 2.4417342840e+00 4.2292078384e+00 
61900 5.3475391951e+00 -1.2803600925e-05 2.4417342840e+00 -4.2292078384e+00 2.4417342840e+00 4.2292078384e+00 
62000 5.3475391963e+00 -1.4050385950e-05 2.4417342840e+00 -4.2292078384e+00 2.4417342840e+00 4.2292078384e+00 
62100 5.3475391976e+00 -1.5146928975e-05 2.4417342840e+00 -4.2292078384e+00 2.4417342840e+00 4.2292078384e+00 
62200 5.3475391990e+00 -1.6094871402e-05 2.4417342840e+00 -4.2292078384e+00 2.4417342840e+00 4.2292078384e+00 
62300 5.3475392005e+00 -1.6896117145e-05 2.4417342840e+00 -4.2292078384e+00 2.4417342840e+00 4.2292078384e+00 
62400 5.3475392021e+00 -1.7552821739e-05 2.4417342840e+00 -4.2292078384e+00 2.4417342840e+00 4.2292078384e+00 
62500 5.3475392038e+00 -1.8067381240e-05 2.4417342840e+00 -4.2292078384e+00 2.4417342840e+00 4.2292078384e+00 
62600 5.3475392057e+00 -1.8442420952e-05 2.4417342840e+00 -4.2292078384e+00 2.4417342840e+00 4.2292078384e+00 
62700 5.3475392076e+00 -1.8680783955e-05 2.4417342840e+00 -4.2292078384e+00 2.4417342840e+00 4.2292078384e+00 
62800 5.3475392097e+00 -1.8785519539e-05 2.4417342840e+00 -4.2292078384e+00 2.4417342840e+00 4.2292078384e+00 
62900 5.3475392119e+00 -1.8759871502e-05 2.4417342840e+00 -4.2292078384e+00 2.4417342840e+00 4.2292078384e+00 
63000 5.3475392141e+00 -1.8607266350e-05 2.4417342840e+00 -4.2292078384e+00 2.4417342840e+00 4.2292078384e+00 
63100 5.3475392165e+00 -1.8331301446e-05 2.4417342840e+00 -4.2292078384e+00 2.4417342840e+00 4.2292078384e+00 
63200 5.3475392190e+00 -1.7935733125e-05 2.4417342840e+00 -4.2292078384e+00 2.4417342840e+00 4.2292078384e+00 
63300 5.3475392216e+00 -1.7424464771e-05 2.4417342840e+00 -4.2292078384e+00 2.4417342840e+00 4.2292078384e+00 
63400 5.3475392243e+00 -1.6801534908e-05 2.4417342840e+00 -4.2292078384e+00 2.4417342840e+00 4.2292078384e+00 
63500 5.3475392271e+00 -1.6071105324e-05 2.4417342840e+00 -4.2292078384e+00 2.4417342840e+00 4.2292078384e+00 
63600 5.3475392299e+00 -1.5237449242e-05 2.4417342840e+00 -4.2292078384e+00 2.4417342840e+00 4.2292078384e+00 
63700 5.3475392328e+00 -1.4304939563e-05 2.4417342840e+00 -4.2292078384e+00 2.4417342840e+00 4.2292078384e+00 
63800 5.3475392358e+00 -1.3278037206e-05 2.4417342840e+00 -4.2292078384e+00 2.4417342840e+00 4.2292078384e+00 
63900 5.3475392388e+00 -1.2161279556e-05 2.4417342840e+00 -4.2292078384e+00 2.4417342840e+00 4.2292078384e+00 
64000 5.3475392419e+00 -1.0959269055e-05 2.4417342840e+00 -4.2292078384e+00 2.4417342840e+00 4.2292078384e+00 
64100 5.3475392449e+00 -9.6766619451e-06 2.4417342840e+00 -4.2292078384e+00 2.4417342840e+00 4.2292078384e+00 
64200 5.3475392480e+00 -8.3181571844e-06 2.4417342840e+00 -4.2292078384e+00 2.4417342840e+00 4.2292078384e+00 
64300 5.3475392512e+00 -6.8884855544e-06 2.4417342840e+00 -4.2292078384e+00 2.4417342840e+00 4.2292078384e+00 
64400 5.3475392543e+00 -5.3923989771e-06 2.4417342840e+00 -4.2292078384e+00 2.4417342840e+00 4.2292078384e+00 
64500 5.3475392574e+00 -3.8346600645e-06 2.4417342840e+00 -4.2292078384e+00 2.4417342840e+00 4.2292078384e+00 
64600 5.3475392604e+00 -2.2200318976e-06 2.4417342840e+00 -4.2292078384e+00 2.4417342840e+00 4.2292078384e+00 
64700 5.3475392635e+00 -5.5326806619e-07 2.4417342840e+00 -4.2292078384e+00 2.4417342840e+00 4.2292078384e+00 
64800 5.3475392665e+00 1.1608970038e-06 2.4417342840e+00 -4.2292078384e+00 2.4417342840e+00 4.2292078384e+00 
64900 5.3475392695e+00 2.9177574679e-06 2.4417342840e+00 -4.2292078384e+00 2.4417342840e+00 4.2292078384e+00 
65000 5.3475392724e+00 4.7126451459e-06 2.4417342840e+00 -4.2292078384e+00 2.4417342840e+00 4.2292078384e+00 
65100 5.3475392753e+00 6.5409383451e-06 2.4417342840e+00 -4.2292078384e+00 2.4417342840e+00 4.2292078384e+00 
65200 5.3475392781e+00 8.3980703147e-06 2.4417342840e+00 -4.2292078384e+00 2.4417342840e+00 4.2292078384e+00 
65300 5.3475392809e+00 1.0279537391e-05 2.4417342840e+00 -4.2292078384e+00 2.4417342840e+00 4.2292078384e+00 
65400 5.3475392835e+00 1.2180906823e-05 2.4417342840e+00 -4.2292078384e+00 2.4417342840e+00 4.2292078384e+00 
65500 5.3475392861e+00 1.4097824207e-05 2.4417342840e+00 -4.2292078384e+00 2.4417342840e+00 4.2292078384e+00 
65600 5.3475392886e+00 1.6026020619e-05 2.4417342840e+00 -4.2292078384e+00 2.4417342840e+00 4.2292078384e+00 
65700 5.3475392911e+00 1.7961319343e-05 2.4417342840e+00 -4.2292078384e+00 2.4417342840e+00 4.2292078384e+00 
65800 5.3475392934e+00 1.9899642263e-05 2.4417342840e+00 -4.2292078384e+00 2.4417342840e+00 4.2292078384e+00 
65900 5.3475392957e+00 2.1837015866e-05 2.4417342840e+00 -4.2292078384e+00 2.4417342840e+00 4.2292078384e+00 
66000 5.3475392979e+00 2.3769576879e-05 2.4417342840e+00 -4.2292078384e+00 2.4417342840e+00 4.2292078384e+00 
66100 5.3475393000e+00 2.5693577555e-05 2.4417342840e+00 -4.2292078384e+00 2.4417342840e+00 4.2292078384e+00 
66200 5.3475393020e+00 2.7605390516e-05 2.4417342840e+00 -4.2292078384e+00 2.4417342840e+00 4.2292078384e+00 
66300 5.3475393039e+00 2.9501513283e-05 2.4417342840e+00 -4.2292078384e+00 2.4417342840e+00 4.2292078384e+00 
66400 5.3475393058e+00 3.1378572391e-05 2.4417342840e+00 -4.2292078384e+00 2.4417342840e+00 4.2292078384e+00 
66500 5.3475393075e+00 3.3233327152e-05 2.4417342840e+00 -4.2292078384e+00 2.4417342840e+00 4.2292078384e+00 
66600 5.3475393092e+00 3.5062672992e-05 2.4417342840e+00 -4.2292078384e+00 2.4417342840e+00 4.2292078384e+00 
66700 5.3475393108e+00 3.6863644473e-05 2.4417342840e+00 -4.2292078384e+00 2.4417342840e+00 4.2292078384e+00 
66800 5.3475393124e+00 3.8633417900e-05 2.4417342840e+00 -4.2292078384e+00 2.4417342840e+00 4.2292078384e+00 
66900 5.3475393138e+00 4.0369313573e-05 2.4417342840e+00 -4.2292078384e+00 2.4417342840e+00 4.2292078384e+00 
67000 5.3475393152e+00 4.2068797677e-05 2.4417342840e+00 -4.2292078384e+00 2.4417342840e+00 4.2292078384e+00 
67100 5.3475393165e+00 4.3729483818e-05 2.4417342840e+00 -4.2292078384e+00 2.4417342840e+00 4.2292078384e+00 
67200 5.3475393178e+00 4.5349134183e-05 2.4417342840e+00 -4.2292078384e+00 2.4417342840e+00 4.2292078384e+00 
67300 5.3475393190e+00 4.6925660381e-05 2.4417342840e+00 -4.2292078384e+00 2.4417342840e+00 4.2292078384e+00 
67400 5.3475393202e+00 4.8457123922e-05 2.4417342840e+00 -4.2292078384e+00 2.4417342840e+00 4.2292078384e+00 
67500 5.3475393213e+00 4.9941736377e-05 2.4417342840e+00 -4.2292078384e+00 2.4417342840e+00 4.2292078384e+00 
67600 5.3475393224e+00 5.1377859207e-05 2.4417342840e+00 -4.2292078384e+00 2.4417342840e+00 4.2292078384e+00 
67700 5.3475393234e+00 5.2764003279e-05 2.4417342840e+00 -4.2292078384e+00 2.4417342840e+00 4.2292078384e+00 
67800 5.3475393244e+00 5.4098828059e-05 2.4417342840e+00 -4.2292078384e+00 2.4417342840e+00 4.2292078384e+00 
67900 5.3475393254e+00 5.5381140546e-05 2.4417342840e+00 -4.2292078384e+00 2.4417342840e+00 4.2292078384e+00 
68000 5.3475393264e+00 5.6609893861e-05 2.4417342840e+00 -4.2292078384e+00 2.4417342840e+00 4.2292078384e+00 
68100 5.3475393273e+00 5.7784185619e-05 2.4417342840e+00 -4.2292078384e+00 2.4417342840e+00 4.2292078384e+00 
68200 5.3475393282e+00 5.8903255985e-05 2.4417342840e+00 -4.2292078384e+00 2.4417342840e+00 4.2292078384e+00 
68300 5.3475393291e+00 5.9966485504e-05 2.4417342840e+00 -4.2292078384e+00 2.4417342840e+00 4.2292078384e+00 
68400 5.3475393300e+00 6.0973392671e-05 2.4417342840e+00 -4.2292078384e+00 2.4417342840e+00 4.2292078384e+00 
68500 5.3475393309e+00 6.1923631268e-05 2.4417342840e+00 -4.2292078384e+00 2.4417342840e+00 4.2292078384e+00 
68600 5.3475393317e+00 6.2816987494e-05 2.4417342840e+00 -4.2292078384e+00 2.4417342840e+00 4.2292078384e+00 
68700 5.3475393326e+00 6.3653376868e-05 2.4417342840e+00 -4.2292078384e+00 2.4417342840e+00 4.2292078384e+00 
68800 5.3475393335e+00 6.4432840937e-05 2.4417342840e+00 -4.2292078384e+00 2.4417342840e+00 4.2292078384e+00 
68900 5.3475393344e+00 6.5155543800e-05 2.4417342840e+00 -4.2292078384e+00 2.4417342840e+00 4.2292078384e+00 
69000 5.3475393352e+00 6.5821768469e-05 2.4417342840e+00 -4.2292078384e+00 2.4417342840e+00 4.2292078384e+00 
69100 5.3475393361e+00 6.6431913051e-05 2.4417342840e+00 -4.2292078384e+00 2.4417342840e+00 4.2292078384e+00 
69200 5.3475393370e+00 6.6986486795e-05 2.4417342840e+00 -4.2292078384e+00 2.4417342840e+00 4.2292078384e+00 
69300 5.3475393379e+00 6.7486105992e-05 2.4417342840e+00 -4.2292078384e+00 2.4417342840e+00 4.2292078384e+00 
69400 5.3475393388e+00 6.7931489755e-05 2.4417342840e+00 -4.2292078384e+00 2.4417342840e+00 4.2292078384e+00 
69500 5.3475393397e+00 6.8323455699e-05 2.4417342840e+00 -4.2292078384e+00 2.4417342840e+00 4.2292078384e+00 
69600 5.3475393406e+00 6.8662915493e-05 2.4417342840e+00 -4.2292078384e+00 2.4417342840e+00 4.2292078384e+00 
69700 5.3475393416e+00 6.8950870359e-05 2.4417342840e+00 -4.2292078384e+00 2.4417342840e+00 4.2292078384e+00 
69800 5.3475393425e+00 6.9188406467e-05 2.4417342840e+00 -4.2292078384e+00 2.4417342840e+00 4.2292078384e+00 
69900 5.3475393435e+00 6.9376690281e-05 2.4417342840e+00 -4.2292078384e+00 2.4417342840e+00 4.2292078384e+00 
70000 5.3475393444e+00 6.9516963864e-05 2.4417342840e+00 -4.2292078384e+00 2.4417342840e+00 4.2292078384e+00 
70100 5.3475393454e+00 6.9610540107e-05 2.4417342840e+00 -4.2292078384e+00 2.4417342840e+00 4.2292078384e+00 
70200 5.3475393464e+00 6.9658797967e-05 2.4417342840e+00 -4.2292078384e+00 2.4417342840e+00 4.2292078384e+00 
70300 5.3475393474e+00 6.9663177673e-05 2.4417342840e+00 -4.2292078384e+00 2.4417342840e+00 4.2292078384e+00 
70400 5.3475393483e+00 6.9625175916e-05 2.4417342840e+00 -4.2292078384e+00 2.4417342840e+00 4.2292078384e+00 
70500 5.3475393493e+00 6.9546341056e-05 2.4417342840e+00 -4.2292078384e+00 2.4417342840e+00 4.2292078384e+00 
70600 5.3475393503e+00 6.9428268345e-05 2.4417342840e+00 -4.2292078384e+00 2.4417342840e+00 4.2292078384e+00 
70700 5.3475393513e+00 6.9272595152e-05 2.4417342840e+00 -4.2292078384e+00 2.4417342840e+00 4.2292078384e+00 
70800 5.3475393523e+00 6.9080996252e-05 2.4417342840e+00 -4.2292078384e+00 2.4417342840e+00 4.2292078384e+00 
70900 5.3475393533e+00 6.8855179147e-05 2.4417342840e+00 -4.2292078384e+00 2.4417342840e+00 4.2292078384e+00 
71000 5.3475393543e+00 6.8596879415e-05 2.4417342840e+00 -4.2292078384e+00 2.4417342840e+00 4.2292078384e+00 
71100 5.3475393553e+00 6.8307856170e-05 2.4417342840e+00 -4.2292078384e+00 2.4417342840e+00 4.2292078384e+00 
71200 5.3475393563e+00 6.7989887539e-05 2.4417342840e+00 -4.2292078384e+00 2.4417342840e+00 4.2292078384e+00 
71300 5.3475393572e+00 6.7644766262e-05 2.4417342840e+00 -4.2292078384e+00 2.4417342840e+00 4.2292078384e+00 
71400 5.3475393582e+00 6.7274295336e-05 2.4417342840e+00 -4.2292078384e+00 2.4417342840e+00 4.2292078384e+00 
71500 5.3475393592e+00 6.6880283789e-05 2.4417342840e+00 -4.2292078384e+00 2.4417342840e+00 4.2292078384e+00 
71600 5.3475393601e+00 6.6464542525e-05 2.4417342840e+00 -4.2292078384e+00 2.4417342840e+00 4.2292078384e+00 
71700 5.3475393611e+00 6.6028880286e-05 2.4417342840e+00 -4.2292078384e+00 2.4417342840e+00 4.2292078384e+00 
71800 5.3475393620e+00 6.5575099729e-05 2.4417342840e+00 -4.2292078384e+00 2.4417342840e+00 4.2292078384e+00 
71900 5.3475393629e+00 6.5104993616e-05 2.4417342840e+00 -4.2292078384e+00 2.4417342840e+00 4.2292078384e+00 
72000 5.3475393638e+00 6.4620341118e-05 2.4417342840e+00 -4.2292078384e+00 2.4417342840e+00 4.2292078384e+00 
72100 5.3475393647e+00 6.4122904272e-05 2.4417342840e+00 -4.2292078384e+00 2.4417342840e+00 4.2292078384e+00 
72200 5.3475393655e+00 6.3614424540e-05 2.4417342840e+00 -4.2292078384e+00 2.4417342840e+00 4.2292078384e+00 
72300 5.3475393664e+00 6.3096619527e-05 2.4417342840e+00 -4.2292078384e+00 2.4417342840e+00 4.2292078384e+00 
72400 5.3475393672e+00 6.2571179809e-05 2.4417342840e+00 -4.2292078384e+00 2.4417342840e+00 4.2292078384e+00 
72500 5.3475393680e+00 6.2039765957e-05 2.4417342840e+00 -4.2292078384e+00 2.4417342840e+00 4.2292078384e+00 
72600 5.3475393688e+00 6.1504005639e-05 2.4417342840e+00 -4.2292078384e+00 2.4417342840e+00 4.2292078384e+00 
72700 5.3475393696e+00 6.0965490933e-05 2.4417342840e+00 -4.2292078384e+00 2.4417342840e+00 4.2292078384e+00 
72800 5.3475393703e+00 6.0425775744e-05 2.4417342840e+00 -4.2292078384e+00 2.4417342840e+00 4.2292078384e+00 
72900 5.3475393710e+00 5.9886373391e-05 2.4417342840e+00 -4.2292078384e+00 2.4417342840e+00 4.2292078384e+00 
73000 5.3475393718e+00 5.9348754361e-05 2.4417342840e+00 -4.2292078384e+00 2.4417342840e+00 4.2292078384e+00 
73100 5.3475393725e+00 5.8814344183e-05 2.4417342840e+00 -4.2292078384e+00 2.4417342840e+00 4.2292078384e+00 
73200 5.3475393731e+00 5.8284521494e-05 2.4417342840e+00 -4.2292078384e+00 2.4417342840e+00 4.2292078384e+00 
73300 5.3475393738e+00 5.7760616238e-05 2.4417342840e+00 -4.2292078384e+00 2.4417342840e+00 4.2292078384e+00 
73400 5.3475393744e+00 5.7243908015e-05 2.4417342840e+00 -4.2292078384e+00 2.4417342840e+00 4.2292078384e+00 
73500 5.3475393751e+00 5.6735624603e-05 2.4417342840e+00 -4.2292078384e+00 2.4417342840e+00 4.2292078384e+00 
73600 5.3475393757e+00 5.6236940618e-05 2.4417342840e+00 -4.2292078384e+00 2.4417342840e+00 4.2292078384e+00 
73700 5.3475393763e+00 5.5748976343e-05 2.4417342840e+00 -4.2292078384e+00 2.4417342840e+00 4.2292078384e+00 
73800 5.3475393768e+00 5.5272796684e-05 2.4417342840e+00 -4.2292078384e+00 2.4417342840e+00 4.2292078384e+00 
73900 5.3475393774e+00 5.4809410295e-05 2.4417342840e+00 -4.2292078384e+00 2.4417342840e+00 4.2292078384e+00 
74000 5.3475393779e+00 5.4359768846e-05 2.4417342840e+00 -4.2292078384e+00 2.4417342840e+00 4.2292078384e+00 
74100 5.3475393785e+00 5.3924766432e-05 2.4417342840e+00 -4.2292078384e+00 2.4417342840e+00 4.2292078384e+00 
74200 5.3475393790e+00 5.3505239126e-05 2.4417342840e+00 -4.2292078384e+00 2.4417342840e+00 4.2292078384e+00 
74300 5.3475393795e+00 5.3101964668e-05 2.4417342840e+00 -4.2292078384e+00 2.4417342840e+00 4.2292078384e+00 
74400 5.3475393800e+00 5.2715662308e-05 2.4417342840e+00 -4.2292078384e+00 2.4417342840e+00 4.2292078384e+00 
74500 5.3475393805e+00 5.2346992758e-05 2.4417342840e+00 -4.2292078384e+00 2.4417342840e+00 4.2292078384e+00 
74600 5.3475393809e+00 5.1996558291e-05 2.4417342840e+00 -4.2292078384e+00 2.4417342840e+00 4.2292078384e+00 
74700 5.3475393814e+00 5.1664902958e-05 2.4417342840e+00 -4.2292078384e+00 2.4417342840e+00 4.2292078384e+00 
74800 5.3475393819e+00 5.1352512937e-05 2.4417342840e+00 -4.2292078384e+00 2.4417342840e+00 4.2292078384e+00 
74900 5.3475393823e+00 5.1059816987e-05 2.4417342840e+00 -4.2292078384e+00 2.4417342840e+00 4.2292078384e+00 
75000 5.3475393828e+00 5.0787187031e-05 2.4417342840e+00 -4.2292078384e+00 2.4417342840e+00 4.2292078384e+00 
75100 5.3475393832e+00 5.0534938839e-05 2.4417342840e+00 -4.2292078384e+00 2.4417342840e+00 4.2292078384e+00 
75200 5.3475393836e+00 5.0303332828e-05 2.4417342840e+00 -4.2292078384e+00 2.4417342840e+00 4.2292078384e+00 
75300 5.3475393841e+00 5.0092574940e-05 2.4417342840e+00 -4.2292078384e+00 2.4417342840e+00 4.2292078384e+00 
75400 5.3475393845e+00 4.9902817652e-05 2.4417342840e+00 -4.2292078384e+00 2.4417342840e+00 4.2292078384e+00 
75500 5.3475393849e+00 4.9734161044e-05 2.4417342840e+00 -4.2292078384e+00 2.4417342840e+00 4.2292078384e+00 
75600 5.3475393853e+00 4.9586653977e-05 2.4417342840e+00 -4.2292078384e+00 2.4417342840e+00 4.2292078384e+00 
75700 5.3475393857e+00 4.9460295341e-05 2.4417342840e+00 -4.2292078384e+00 2.4417342840e+00 4.2292078384e+00 
75800 5.3475393861e+00 4.9355035393e-05 2.4417342840e+00 -4.2292078384e+00 2.4417342840e+00 4.2292078384e+00 
75900 5.3475393865e+00 4.9270777147e-05 2.4417342840e+00 -4.2292078384e+00 2.4417342840e+00 4.2292078384e+00 
76000 5.3475393869e+00 4.9207377854e-05 2.4417342840e+00 -4.2292078384e+00 2.4417342840e+00 4.2292078384e+00 
76100 5.3475393873e+00 4.9164650529e-05 2.4417342840e+00 -4.2292078384e+00 2.4417342840e+00 4.2292078384e+00 
76200 5.3475393877e+00 4.9142365545e-05 2.4417342840e+00 -4.2292078384e+00 2.4417342840e+00 4.2292078384e+00 
76300 5.3475393881e+00 4.9140252271e-05 2.4417342840e+00 -4.2292078384e+00 2.4417342840e+00 4.2292078384e+00 
76400 5.3475393885e+00 4.9158000754e-05 2.4417342840e+00 -4.2292078384e+00 2.4417342840e+00 4.2292078384e+00 
76500 5.3475393889e+00 4.9195263474e-05 2.4417342840e+00 -4.2292078384e+00 2.4417342840e+00 4.2292078384e+00 
76600 5.3475393893e+00 4.9251657099e-05 2.4417342840e+00 -4.2292078384e+00 2.4417342840e+00 4.2292078384e+00 
76700 5.3475393896e+00 4.9326764278e-05 2.4417342840e+00 -4.2292078384e+00 2.4417342840e+00 4.2292078384e+00 
76800 5.3475393900e+00 4.9420135489e-05 2.4417342840e+00 -4.2292078384e+00 2.4417342840e+00 4.2292078384e+00 
76900 5.3475393904e+00 4.9531290882e-05 2.4417342840e+00 -4.2292078384e+00 2.4417342840e+00 4.2292078384e+00 
77000 5.3475393908e+00 4.9659722152e-05 2.4417342840e+00 -4.2292078384e+00 2.4417342840e+00 4.2292078384e+00 
77100 5.3475393912e+00 4.9804894428e-05 2.4417342840e+00 -4.2292078384e+00 2.4417342840e+00 4.2292078384e+00 
77200 5.3475393916e+00 4.9966248160e-05 2.4417342840e+00 -4.2292078384e+00 2.4417342840e+00 4.2292078384e+00 
77300 5.3475393919e+00 5.0143201023e-05 2.4417342840e+00 -4.2292078384e+00 2.4417342840e+00 4.2292078384e+00 
77400 5.3475393923e+00 5.0335149823e-05 2.4417342840e+00 -4.2292078384e+00 2.4417342840e+00 4.2292078384e+00 
77500 5.3475393927e+00 5.0541472372e-05 2.4417342840e+00 -4.2292078384e+00 2.4417342840e+00 4.2292078384e+00 
77600 5.3475393930e+00 5.0761529407e-05 2.4417342840e+00 -4.2292078384e+00 2.4417342840e+00 4.2292078384e+00 
77700 5.3475393934e+00 5.0994666436e-05 2.4417342840e+00 -4.2292078384e+00 2.4417342840e+00 4.2292078384e+00 
77800 5.3475393938e+00 5.1240215618e-05 2.4417342840e+00 -4.2292078384e+00 2.4417342840e+00 4.2292078384e+00 
77900 5.3475393941e+00 5.1497497597e-05 2.4417342840e+00 -4.2292078384e+00 2.4417342840e+00 4.2292078384e+00 
78000 5.3475393945e+00 5.1765823320e-05 2.4417342840e+00 -4.2292078384e+00 2.4417342840e+00 4.2292078384e+00 
78100 5.3475393949e+00 5.2044495832e-05 2.4417342840e+00 -4.2292078384e+00 2.4417342840e+00 4.2292078384e+00 
78200 5.3475393952e+00 5.2332812033e-05 2.4417342840e+00 -4.2292078384e+00 2.4417342840e+00 4.2292078384e+00 
78300 5.3475393955e+00 5.2630064419e-05 2.4417342840e+00 -4.2292078384e+00 2.4417342840e+00 4.2292078384e+00 
78400 5.3475393959e+00 5.2935542759e-05 2.4417342840e+00 -4.2292078384e+00 2.4417342840e+00 4.2292078384e+00 
78500 5.3475393962e+00 5.3248535766e-05 2.4417342840e+00 -4.2292078384e+00 2.4417342840e+00 4.2292078384e+00 
78600 5.3475393966e+00 5.3568332707e-05 2.4417342840e+00 -4.2292078384e+00 2.4417342840e+00 4.2292078384e+00 
78700 5.3475393969e+00 5.3894224961e-05 2.4417342840e+00 -4.2292078384e+00 2.4417342840e+00 4.2292078384e+00 
78800 5.3475393972e+00 5.4225507571e-05 2.4417342840e+00 -4.2292078384e+00 2.4417342840e+00 4.2292078384e+00 
78900 5.3475393975e+00 5.4561480689e-05 2.4417342840e+00 -4.2292078384e+00 2.4417342840e+00 4.2292078384e+00 
79000 5.3475393979e+00 5.4901451022e-05 2.4417342840e+00 -4.2292078384e+00 2.4417342840e+00 4.2292078384e+00 
79100 5.3475393982e+00 5.5244733213e-05 2.4417342840e+00 -4.2292078384e+00 2.4417342840e+00 4.2292078384e+00 
79200 5.3475393985e+00 5.5590651132e-05 2.4417342840e+00 -4.2292078384e+00 2.4417342840e+00 4.2292078384e+00 
79300 5.3475393988e+00 5.5938539175e-05 2.4417342840e+00 -4.2292078384e+00 2.4417342840e+00 4.2292078384e+00 
79400 5.3475393991e+00 5.6287743449e-05 2.4417342840e+00 -4.2292078384e+00 2.4417342840e+00 4.2292078384e+00 
79500 5.3475393994e+00 5.6637622937e-05 2.4417342840e+00 -4.2292078384e+00 2.4417342840e+00 4.2292078384e+00 
79600 5.3475393996e+00 5.6987550590e-05 2.4417342840e+00 -4.2292078384e+00 2.4417342840e+00 4.2292078384e+00 
79700 5.3475393999e+00 5.7336914351e-05 2.4417342840e+00 -4.2292078384e+00 2.4417342840e+00 4.2292078384e+00 
79800 5.3475394002e+00 5.7685118127e-05 2.4417342840e+00 -4.2292078384e+00 2.4417342840e+00 4.2292078384e+00 
79900 5.3475394005e+00 5.8031582721e-05 2.4417342840e+00 -4.2292078384e+00 2.4417342840e+00 4.2292078384e+00 
80000 5.3475394007e+00 5.8375746656e-05 2.4417342840e+00 -4.2292078384e+00 2.4417342840e+00 4.2292078384e+00 
80100 5.3475394010e+00 5.8717066976e-05 2.4417342840e+00 -4.2292078384e+00 2.4417342840e+00 4.2292078384e+00 
80200 5.3475394012e+00 5.9055019978e-05 2.4417342840e+00 -4.2292078384e+00 2.4417342840e+00 4.2292078384e+00 
80300 5.3475394015e+00 5.9389101867e-05 2.4417342840e+00 -4.2292078384e+00 2.4417342840e+00 4.2292078384e+00 
80400 5.3475394017e+00 5.9718829362e-05 2.4417342840e+00 -4.2292078384e+00 2.4417342840e+00 4.2292078384e+00 
80500 5.3475394020e+00 6.0043740246e-05 2.4417342840e+00 -4.2292078384e+00 2.4417342840e+00 4.2292078384e+00 
80600 5.3475394022e+00 6.0363393826e-05 2.4417342840e+00 -4.2292078384e+00 2.4417342840e+00 4.2292078384e+00 
80700 5.3475394024e+00 6.0677371390e-05 2.4417342840e+00 -4.2292078384e+00 2.4417342840e+00 4.2292078384e+00 
80800 5.3475394027e+00 6.0985276529e-05 2.4417342840e+00 -4.2292078384e+00 2.4417342840e+00 4.2292078384e+00 
80900 5.3475394029e+00 6.1286735471e-05 2.4417342840e+00 -4.2292078384e+00 2.4417342840e+00 4.2292078384e+00 
81000 5.3475394031e+00 6.1581397298e-05 2.4417342840e+00 -4.2292078384e+00 2.4417342840e+00 4.2292078384e+00 
81100 5.3475394033e+00 6.1868934154e-05 2.4417342840e+00 -4.2292078384e+00 2.4417342840e+00 4.2292078384e+00 
81200 5.3475394035e+00 6.2149041368e-05 2.4417342840e+00 -4.2292078384e+00 2.4417342840e+00 4.2292078384e+00 
81300 5.3475394037e+00 6.2421437525e-05 2.4417342840e+00 -4.2292078384e+00 2.4417342840e+00 4.2292078384e+00 
81400 5.3475394039e+00 6.2685864500e-05 2.4417342840e+00 -4.2292078384e+00 2.4417342840e+00 4.2292078384e+00 
81500 5.3475394041e+00 6.2942087416e-05 2.4417342840e+00 -4.2292078384e+00 2.4417342840e+00 4.2292078384e+00 
81600 5.3475394043e+00 6.3189894573e-05 2.4417342840e+00 -4.2292078384e+00 2.4417342840e+00 4.2292078384e+00 
81700 5.3475394045e+00 6.3429097314e-05 2.4417342840e+00 -4.2292078384e+00 2.4417342840e+00 4.2292078384e+00 
81800 5.3475394047e+00 6.3659529849e-05 2.4417342840e+00 -4.2292078384e+00 2.4417342840e+00 4.2292078384e+00 
81900 5.3475394049e+00 6.3881049027e-05 2.4417342840e+00 -4.2292078384e+00 2.4417342840e+00 4.2292078384e+00 
82000 5.3475394051e+00 6.4093534075e-05 2.4417342840e+00 -4.2292078384e+00 2.4417342840e+00 4.2292078384e+00 
82100 5.3475394053e+00 6.4296886283e-05 2.4417342840e+00 -4.2292078384e+00 2.4417342840e+00 4.2292078384e+00 
82200 5.3475394055e+00 6.4491028653e-05 2.4417342840e+00 -4.2292078384e+00 2.4417342840e+00 4.2292078384e+00 
82300 5.3475394057e+00 6.4675905515e-05 2.4417342840e+00 -4.2292078384e+00 2.4417342840e+00 4.2292078384e+00 
82400 5.3475394058e+00 6.4851482087e-05 2.4417342840e+00 -4.2292078384e+00 2.4417342840e+00 4.2292078384e+00 
82500 5.3475394060e+00 6.5017744022e-05 2.4417342840e+00 -4.2292078384e+00 2.4417342840e+00 4.2292078384e+00 
82600 5.3475394062e+00 6.5174696919e-05 2.4417342840e+00 -4.2292078384e+00 2.4417342840e+00 4.2292078384e+00 
82700 5.3475394064e+00 6.5322365776e-05 2.4417342840e+00 -4.2292078384e+00 2.4417342840e+00 4.2292078384e+00 
82800 5.3475394065e+00 6.5460794455e-05 2.4417342840e+00 -4.2292078384e+00 2.4417342840e+00 4.2292078384e+00 
82900 5.3475394067e+00 6.5590045088e-05 2.4417342840e+00 -4.2292078384e+00 2.4417342840e+00 4.2292078384e+00 
83000 5.3475394069e+00 6.5710197461e-05 2.4417342840e+00 -4.2292078384e+00 2.4417342840e+00 4.2292078384e+00 
83100 5.3475394070e+00 6.5821348406e-05 2.4417342840e+00 -4.2292078384e+00 2.4417342840e+00 4.2292078384e+00 
83200 5.3475394072e+00 6.5923611125e-05 2.4417342840e+00 -4.2292078384e+00 2.4417342840e+00 4.2292078384e+00 
83300 5.3475394073e+00 6.6017114528e-05 2.4417342840e+00 -4.2292078384e+00 2.4417342840e+00 4.2292078384e+00 
83400 5.3475394075e+00 6.6102002543e-05 2.4417342840e+00 -4.2292078384e+00 2.4417342840e+00 4.2292078384e+00 
83500 5.3475394077e+00 6.6178433407e-05 2.4417342840e+00 -4.2292078384e+00 2.4417342840e+00 4.2292078384e+00 
83600 5.3475394078e+00 6.6246578960e-05 2.4417342840e+00 -4.2292078384e+00 2.4417342840e+00 4.2292078384e+00 
83700 5.3475394080e+00 6.6306623899e-05 2.4417342840e+00 -4.2292078384e+00 2.4417342840e+00 4.2292078384e+00 
83800 5.3475394081e+00 6.6358765050e-05 2.4417342840e+00 -4.2292078384e+00 2.4417342840e+00 4.2292078384e+00 
83900 5.3475394083e+00 6.6403210630e-05 2.4417342840e+00 -4.2292078384e+00 2.4417342840e+00 4.2292078384e+00 
84000 5.3475394084e+00 6.6440179470e-05 2.4417342840e+00 -4.2292078384e+00 2.4417342840e+00 4.2292078384e+00 
84100 5.3475394086e+00 6.6469900288e-05 2.4417342840e+00 -4.2292078384e+00 2.4417342840e+00 4.2292078384e+00 
84200 5.3475394087e+00 6.6492610909e-05 2.4417342840e+00 -4.2292078384e+00 2.4417342840e+00 4.2292078384e+00 
84300 5.3475394089e+00 6.6508557512e-05 2.4417342840e+00 -4.2292078384e+00 2.4417342840e+00 4.2292078384e+00 
84400 5.3475394090e+00 6.6517993892e-05 2.4417342840e+00 -4.2292078384e+00 2.4417342840e+00 4.2292078384e+00 
84500 5.3475394092e+00 6.6521180679e-05 2.4417342840e+00 -4.2292078384e+00 2.4417342840e+00 4.2292078384e+00 
84600 5.3475394093e+00 6.6518384606e-05 2.4417342840e+00 -4.2292078384e+00 2.4417342840e+00 4.2292078384e+00 
84700 5.3475394095e+00 6.6509877753e-05 2.4417342840e+00 -4.2292078384e+00 2.4417342840e+00 4.2292078384e+00 
84800 5.3475394096e+00 6.6495936830e-05 2.4417342840e+00 -4.2292078384e+00 2.4417342840e+00 4.2292078384e+00 
84900 5.3475394097e+00 6.6476842435e-05 2.4417342840e+00 -4.2292078384e+00 2.4417342840e+00 4.2292078384e+00 
85000 5.3475394099e+00 6.6452878334e-05 2.4417342840e+00 -4.2292078384e+00 2.4417342840e+00 4.2292078384e+00 
85100 5.3475394100e+00 6.6424330776e-05 2.4417342840e+00 -4.2292078384e+00 2.4417342840e+00 4.2292078384e+00 
85200 5.3475394101e+00 6.6391487787e-05 2.4417342840e+00 -4.2292078384e+00 2.4417342840e+00 4.2292078384e+00 
85300 5.3475394103e+00 6.6354638492e-05 2.4417342840e+00 -4.2292078384e+00 2.4417342840e+00 4.2292078384e+00 
85400 5.3475394104e+00 6.6314072458e-05 2.4417342840e+00 -4.2292078384e+00 2.4417342840e+00 4.2292078384e+00 
85500 5.3475394105e+00 6.6270079053e-05 2.4417342840e+00 -4.2292078384e+00 2.4417342840e+00 4.2292078384e+00 
85600 5.3475394107e+00 6.6222946801e-05 2.4417342840e+00 -4.2292078384e+00 2.4417342840e+00 4.2292078384e+00 
85700 5.3475394108e+00 6.6172962792e-05 2.4417342840e+00 -4.2292078384e+00 2.4417342840e+00 4.2292078384e+00 
85800 5.3475394109e+00 6.6120412078e-05 2.4417342840e+00 -4.2292078384e+00 2.4417342840e+00 4.2292078384e+00 
85900 5.3475394110e+00 6.6065577099e-05 2.4417342840e+00 -4.2292078384e+00 2.4417342840e+00 4.2292078384e+00 
86000 5.3475394111e+00 6.6008737151e-05 2.4417342840e+00 -4.2292078384e+00 2.4417342840e+00 4.2292078384e+00 
86100 5.3475394113e+00 6.5950167835e-05 2.4417342840e+00 -4.2292078384e+00 2.4417342840e+00 4.2292078384e+00 
86200 5.3475394114e+00 6.5890140565e-05 2.4417342840e+00 -4.2292078384e+00 2.4417342840e+00 4.2292078384e+00 
86300 5.3475394115e+00 6.5828922079e-05 2.4417342840e+00 -4.2292078384e+00 2.4417342840e+00 4.2292078384e+00 
86400 5.3475394116e+00 6.5766773973e-05 2.4417342840e+00 -4.2292078384e+00 2.4417342840e+00 4.2292078384e+00 
86500 5.3475394117e+00 6.5703952272e-05 2.4417342840e+00 -4.2292078384e+00 2.4417342840e+00 4.2292078384e+00 
86600 5.3475394118e+00 6.5640707011e-05 2.4417342840e+00 -4.2292078384e+00 2.4417342840e+00 4.2292078384e+00 
86700 5.3475394119e+00 6.5577281845e-05 2.4417342840e+00 -4.2292078384e+00 2.4417342840e+00 4.2292078384e+00 
86800 5.3475394120e+00 6.5513913680e-05 2.4417342840e+00 -4.2292078384e+00 2.4417342840e+00 4.2292078384e+00 
86900 5.3475394121e+00 6.5450832337e-05 2.4417342840e+00 -4.2292078384e+00 2.4417342840e+00 4.2292078384e+00 
87000 5.3475394123e+00 6.5388260236e-05 2.4417342840e+00 -4.2292078384e+00 2.4417342840e+00 4.2292078384e+00 
87100 5.3475394124e+00 6.5326412100e-05 2.4417342840e+00 -4.2292078384e+00 2.4417342840e+00 4.2292078384e+00 
87200 5.3475394125e+00 6.5265494689e-05 2.4417342840e+00 -4.2292078384e+00 2.4417342840e+00 4.2292078384e+00 
87300 5.3475394126e+00 6.5205706555e-05 2.4417342840e+00 -4.2292078384e+00 2.4417342840e+00 4.2292078384e+00 
87400 5.3475394126e+00 6.5147237831e-05 2.4417342840e+00 -4.2292078384e+00 2.4417342840e+00 4.2292078384e+00 
87500 5.3475394127e+00 6.5090270028e-05 2.4417342840e+00 -4.2292078384e+00 2.4417342840e+00 4.2292078384e+00 
87600 5.3475394128e+00 6.5034975872e-05 2.4417342840e+00 -4.2292078384e+00 2.4417342840e+00 4.2292078384e+00 
87700 5.3475394129e+00 6.4981519161e-05 2.4417342840e+00 -4.2292078384e+00 2.4417342840e+00 4.2292078384e+00 
87800 5.3475394130e+00 6.4930054620e-05 2.4417342840e+00 -4.2292078384e+00 2.4417342840e+00 4.2292078384e+00 
87900 5.3475394131e+00 6.4880727837e-05 2.4417342840e+00 -4.2292078384e+00 2.4417342840e+00 4.2292078384e+00 
88000 5.3475394132e+00 6.4833675169e-05 2.4417342840e+00 -4.2292078384e+00 2.4417342840e+00 4.2292078384e+00 
88100 5.3475394133e+00 6.4789023672e-05 2.4417342840e+00 -4.2292078384e+00 2.4417342840e+00 4.2292078384e+00 
88200 5.3475394134e+00 6.4746891105e-05 2.4417342840e+00 -4.2292078384e+00 2.4417342840e+00 4.2292078384e+00 
88300 5.3475394135e+00 6.4707385880e-05 2.4417342840e+00 -4.2292078384e+00 2.4417342840e+00 4.2292078384e+00 
88400 5.3475394135e+00 6.4670607113e-05 2.4417342840e+00 -4.2292078384e+00 2.4417342840e+00 4.2292078384e+00 
88500 5.3475394136e+00 6.4636644616e-05 2.4417342840e+00 -4.2292078384e+00 2.4417342840e+00 4.2292078384e+00 
88600 5.3475394137e+00 6.4605578976e-05 2.4417342840e+00 -4.2292078384e+00 2.4417342840e+00 4.2292078384e+00 
88700 5.3475394138e+00 6.4577481610e-05 2.4417342840e+00 -4.2292078384e+00 2.4417342840e+00 4.2292078384e+00 
88800 5.3475394139e+00 6.4552414860e-05 2.4417342840e+00 -4.2292078384e+00 2.4417342840e+00 4.2292078384e+00 
88900 5.3475394140e+00 6.4530432094e-05 2.4417342840e+00 -4.2292078384e+00 2.4417342840e+00 4.2292078384e+00 
89000 5.3475394140e+00 6.4511577827e-05 2.4417342840e+00 -4.2292078384e+00 2.4417342840e+00 4.2292078384e+00 
89100 5.3475394141e+00 6.4495887872e-05 2.4417342840e+00 -4.2292078384e+00 2.4417342840e+00 4.2292078384e+00 
89200 5.3475394142e+00 6.4483389478e-05 2.4417342840e+00 -4.2292078384e+00 2.4417342840e+00 4.2292078384e+00 
89300 5.3475394143e+00 6.4474101509e-05 2.4417342840e+00 -4.2292078384e+00 2.4417342840e+00 4.2292078384e+00 
89400 5.3475394143e+00 6.4468034638e-05 2.4417342840e+00 -4.2292078384e+00 2.4417342840e+00 4.2292078384e+00 
89500 5.3475394144e+00 6.4465191519e-05 2.4417342840e+00 -4.2292078384e+00 2.4417342840e+00 4.2292078384e+00 
89600 5.3475394145e+00 6.4465567018e-05 2.4417342840e+00 -4.2292078384e+00 2.4417342840e+00 4.2292078384e+00 
89700 5.3475394145e+00 6.4469148424e-05 2.4417342840e+00 -4.2292078384e+00 2.4417342840e+00 4.2292078384e+00 
89800 5.3475394146e+00 6.4475915681e-05 2.4417342840e+00 -4.2292078384e+00 2.4417342840e+00 4.2292078384e+00 
89900 5.3475394147e+00 6.4485841645e-05 2.4417342840e+00 -4.2292078384e+00 2.4417342840e+00 4.2292078384e+00 
90000 5.3475394148e+00 6.4498892311e-05 2.4417342840e+00 -4.2292078384e+00 2.4417342840e+00 4.2292078384e+00 
90100 5.3475394148e+00 6.4515027092e-05 2.4417342840e+00 -4.2292078384e+00 2.4417342840e+00 4.2292078384e+00 
90200 5.3475394149e+00 6.4534199082e-05 2.4417342840e+00 -4.2292078384e+00 2.4417342840e+00 4.2292078384e+00 
90300 5.3475394150e+00 6.4556355322e-05 2.4417342840e+00 -4.2292078384e+00 2.4417342840e+00 4.2292078384e+00 
90400 5.3475394150e+00 6.4581437106e-05 2.4417342840e+00 -4.2292078384e+00 2.4417342840e+00 4.2292078384e+00 
90500 5.3475394151e+00 6.4609380233e-05 2.4417342840e+00 -4.2292078384e+00 2.4417342840e+00 4.2292078384e+00 
90600 5.3475394151e+00 6.4640115325e-05 2.4417342840e+00 -4.2292078384e+00 2.4417342840e+00 4.2292078384e+00 
90700 5.3475394152e+00 6.4673568107e-05 2.4417342840e+00 -4.2292078384e+00 2.4417342840e+00 4.2292078384e+00 
90800 5.3475394153e+00 6.4709659713e-05 2.4417342840e+00 -4.2292078384e+00 2.4417342840e+00 4.2292078384e+00 
90900 5.3475394153e+00 6.4748306984e-05 2.4417342840e+00 -4.2292078384e+00 2.4417342840e+00 4.2292078384e+00 
91000 5.3475394154e+00 6.4789422768e-05 2.4417342840e+00 -4.2292078384e+00 2.4417342840e+00 4.2292078384e+00 
91100 5.3475394155e+00 6.4832916224e-05 2.4417342840e+00 -4.2292078384e+00 2.4417342840e+00 4.2292078384e+00 
91200 5.3475394155e+00 6.4878693121e-05 2.4417342840e+00 -4.2292078384e+00 2.4417342840e+00 4.2292078384e+00 
91300 5.3475394156e+00 6.4926656150e-05 2.4417342840e+00 -4.2292078384e+00 2.4417342840e+00 4.2292078384e+00 
91400 5.3475394156e+00 6.4976705216e-05 2.4417342840e+00 -4.2292078384e+00 2.4417342840e+00 4.2292078384e+00 
91500 5.3475394157e+00 6.5028737740e-05 2.4417342840e+00 -4.2292078384e+00 2.4417342840e+00 4.2292078384e+00 
91600 5.3475394158e+00 6.5082648955e-05 2.4417342840e+00 -4.2292078384e+00 2.4417342840e+00 4.2292078384e+00 
91700 5.3475394158e+00 6.5138332209e-05 2.4417342840e+00 -4.2292078384e+00 2.4417342840e+00 4.2292078384e+00 
91800 5.3475394159e+00 6.5195679241e-05 2.4417342840e+00 -4.2292078384e+00 2.4417342840e+00 4.2292078384e+00 
91900 5.3475394159e+00 6.5254580474e-05 2.4417342840e+00 -4.2292078384e+00 2.4417342840e+00 4.2292078384e+00 
92000 5.3475394160e+00 6.5314925305e-05 2.4417342840e+00 -4.2292078384e+00 2.4417342840e+00 4.2292078384e+00 
92100 5.3475394160e+00 6.5376602365e-05 2.4417342840e+00 -4.2292078384e+00 2.4417342840e+00 4.2292078384e+00 
92200 5.3475394161e+00 6.5439499810e-05 2.4417342840e+00 -4.2292078384e+00 2.4417342840e+00 4.2292078384e+00 
92300 5.3475394161e+00 6.5503505564e-05 2.4417342840e+00 -4.2292078384e+00 2.4417342840e+00 4.2292078384e+00 
92400 5.3475394162e+00 6.5568507592e-05 2.4417342840e+00 -4.2292078384e+00 2.4417342840e+00 4.2292078384e+00 
92500 5.3475394162e+00 6.5634394152e-05 2.4417342840e+00 -4.2292078384e+00 2.4417342840e+00 4.2292078384e+00 
92600 5.3475394163e+00 6.5701054031e-05 2.4417342840e+00 -4.2292078384e+00 2.4417342840e+00 4.2292078384e+00 
92700 5.3475394163e+00 6.5768376787e-05 2.4417342840e+00 -4.2292078384e+00 2.4417342840e+00 4.2292078384e+00 
92800 5.3475394164e+00 6.5836252974e-05 2.4417342840e+00 -4.2292078384e+00 2.4417342840e+00 4.2292078384e+00 
92900 5.3475394164e+00 6.5881301805e-05 2.4417342840e+00 -4.2292078384e+00 2.4417342840e+00 4.2292078384e+00 
92900 5.3475394164e+00 6.5881301804e-05 2.4417342840e+00 -4.2292078384e+00 2.4417342840e+00 4.2292078384e+00 
