# step Hamiltonian StressXX CellTensor1 CellTensor2 CellTensor3 CellTensor4 
0 4.1955044846e+00 -1.1394129636e-01 1.8793944066e+00 -3.2552065997e+00 1.8793944066e+00 3.2552065997e+00 
100 4.1886907264e+00 -1.1507214216e-01 1.8793944066e+00 -3.2552065997e+00 1.8793944066e+00 3.2552065997e+00 
200 4.1820718761e+00 -1.1410653206e-01 1.8824566519e+00 -3.2605105641e+00 1.8824566519e+00 3.2605105641e+00 
300 4.1759589563e+00 -1.1299308935e-01 1.8854882516e+00 -3.2657614488e+00 1.8854882516e+00 3.2657614488e+00 
400 4.1702920080e+00 -1.1174597232e-01 1.8884854320e+00 -3.2709527176e+00 1.8884854320e+00 3.2709527176e+00 
500 4.1650177041e+00 -1.1037959818e-01 1.8914448169e+00 -3.2760785226e+00 1.8914448169e+00 3.2760785226e+00 
600 4.1600889263e+00 -1.0890835494e-01 1.8943634306e+00 -3.2811337098e+00 1.8943634306e+00 3.2811337098e+00 
700 4.1554643476e+00 -1.0734634882e-01 1.8972386934e+00 -3.2861138111e+00 1.8972386934e+00 3.2861138111e+00 
800 4.1511080149e+00 -1.0570718865e-01 1.9000684108e+00 -3.2910150254e+00 1.9000684108e+00 3.2910150254e+00 
900 4.1469889326e+00 -1.0400380787e-01 1.9028507565e+00 -3.2958341895e+00 1.9028507565e+00 3.2958341895e+00 
1000 4.1430806464e+00 -1.0224832361e-01 1.9055842517e+00 -3.3005687421e+00 1.9055842517e+00 3.3005687421e+00 
1100 4.1393608289e+00 -1.0045193166e-01 1.9082677406e+00 -3.3052166811e+00 1.9082677406e+00 3.3052166811e+00 
1200 4.1358108689e+00 -9.8624835103e-02 1.9109003636e+00 -3.3097765179e+00 1.9109003636e+00 3.3097765179e+00 
1300 4.1324154692e+00 -9.6776204096e-02 1.9134815291e+00 -3.3142472278e+00 1.9134815291e+00 3.3142472278e+00 
1400 4.1291622540e+00 -9.4914163509e-02 1.9160108844e+00 -3.3186281996e+00 1.9160108844e+00 3.3186281996e+00 
1500 4.1260413903e+00 -9.3045804813e-02 1.9184882865e+00 -3.3229191859e+00 1.9184882865e+00 3.3229191859e+00 
1600 4.1230452277e+00 -9.1177218516e-02 1.9209137738e+00 -3.3271202532e+00 1.9209137738e+00 3.3271202532e+00 
1700 4.1201679575e+00 -8.9313543293e-02 1.9232875392e+00 -3.3312317354e+00 1.9232875392e+00 3.3312317354e+00 
1800 4.1174052955e+00 -8.7459028082e-02 1.9256099036e+00 -3.3352541886e+00 1.9256099036e+00 3.3352541886e+00 
1900 4.1147541894e+00 -8.5617103600e-02 1.9278812930e+00 -3.3391883505e+00 1.9278812930e+00 3.3391883505e+00 
2000 4.1122125532e+00 -8.3790460033e-02 1.9301022161e+00 -3.3430351020e+00 1.9301022161e+00 3.3430351020e+00 
2100 4.1097790281e+00 -8.1981127995e-02 1.9322732448e+00 -3.3467954341e+00 1.9322732448e+00 3.3467954341e+00 
2200 4.1074527720e+00 -8.0190560258e-02 1.9343949973e+00 -3.3504704173e+00 1.9343949973e+00 3.3504704173e+00 
2300 4.1052332755e+00 -7.8419712149e-02 1.9364681227e+00 -3.3540611757e+00 1.9364681227e+00 3.3540611757e+00 
2400 4.1031202045e+00 -7.6669118948e-02 1.9384932880e+00 -3.3575688650e+00 1.9384932880e+00 3.3575688650e+00 
2500 4.1011132683e+00 -7.4938968967e-02 1.9404711680e+00 -3.3609946536e+00 1.9404711680e+00 3.3609946536e+00 
2600 4.0992121111e+00 -7.3229171400e-02 1.9424024357e+00 -3.3643397074e+00 1.9424024357e+00 3.3643397074e+00 
2700 4.0974162262e+00 -7.1539418304e-02 1.9442877557e+00 -3.3676051775e+00 1.9442877557e+00 3.3676051775e+00 
2800 4.0957248893e+00 -6.9869240378e-02 1.9461277789e+00 -3.3707921910e+00 1.9461277789e+00 3.3707921910e+00 
2900 4.0941371105e+00 -6.8218056419e-02 1.9479231382e+00 -3.3739018445e+00 1.9479231382e+00 3.3739018445e+00 
3000 4.0926516018e+00 -6.6585216529e-02 1.9496744462e+00 -3.3769351990e+00 1.9496744462e+00 3.3769351990e+00 
3100 4.0912667590e+00 -6.4970039264e-02 1.9513822935e+00 -3.3798932774e+00 1.9513822935e+00 3.3798932774e+00 
3200 4.0899806550e+00 -6.3371843070e-02 1.9530472484e+00 -3.3827770638e+00 1.9530472484e+00 3.3827770638e+00 
3300 4.0887910434e+00 -6.1789972363e-02 1.9546698566e+00 -3.3855875037e+00 1.9546698566e+00 3.3855875037e+00 
3400 4.0876953702e+00 -6.0223818697e-02 1.9562506426e+00 -3.3883255053e+00 1.9562506426e+00 3.3883255053e+00 
3500 4.0866907925e+00 -5.8672837479e-02 1.9577901107e+00 -3.3909919423e+00 1.9577901107e+00 3.3909919423e+00 
3600 4.0857742018e+00 -5.7136560676e-02 1.9592887472e+00 -3.3935876569e+00 1.9592887472e+00 3.3935876569e+00 
3700 4.0849422519e+00 -5.5614605977e-02 1.9607470224e+00 -3.3961134636e+00 1.9607470224e+00 3.3961134636e+00 
3800 4.0841913890e+00 -5.4106682833e-02 1.9621653927e+00 -3.3985701530e+00 1.9621653927e+00 3.3985701530e+00 
3900 4.0835178835e+00 -5.2612595788e-02 1.9635443033e+00 -3.4009584962e+00 1.9635443033e+00 3.4009584962e+00 
4000 4.0829178632e+00 -5.1132245474e-02 1.9648841909e+00 -3.4032792497e+00 1.9648841909e+00 3.4032792497e+00 
4100 4.0823873461e+00 -4.9665627622e-02 1.9661854861e+00 -3.4055331590e+00 1.9661854861e+00 3.4055331590e+00 
4200 4.0819222725e+00 -4.8212830406e-02 1.9674486157e+00 -3.4077209636e+00 1.9674486157e+00 3.4077209636e+00 
4300 4.0815185373e+00 -4.6774030397e-02 1.9686740055e+00 -3.4098434011e+00 1.9686740055e+00 3.4098434011e+00 
4400 4.0811720194e+00 -4.5349487393e-02 1.9698620827e+00 -3.4119012111e+00 1.9698620827e+00 3.4119012111e+00 
4500 4.0808786101e+00 -4.3939538350e-02 1.9710132775e+00 -3.4138951391e+00 1.9710132775e+00 3.4138951391e+00 
4600 4.0806342400e+00 -4.2544590606e-02 1.9721280259e+00 -3.4158259399e+00 1.9721280259e+00 3.4158259399e+00 
4700 4.0804349030e+00 -4.1165114589e-02 1.9732067710e+00 -3.4176943811e+00 1.9732067710e+00 3.4176943811e+00 
4800 4.0802766784e+00 -3.9801636167e-02 1.9742499647e+00 -3.4195012457e+00 1.9742499647e+00 3.4195012457e+00 
4900 4.0801557505e+00 -3.8454728764e-02 1.9752580696e+00 -3.4212473346e+00 1.9752580696e+00 3.4212473346e+00 
5000 4.0800684267e+00 -3.7125005375e-02 1.9762315598e+00 -3.4229334690e+00 1.9762315598e+00 3.4229334690e+00 
5100 4.0800111517e+00 -3.5813110583e-02 1.9771709220e+00 -3.4245604921e+00 1.9771709220e+00 3.4245604921e+00 
5200 4.0799805214e+00 -3.4519712665e-02 1.9780766566e+00 -3.4261292705e+00 1.9780766566e+00 3.4261292705e+00 
5300 4.0799732929e+00 -3.3245495876e-02 1.9789492782e+00 -3.4276406955e+00 1.9789492782e+00 3.4276406955e+00 
5400 4.0799863933e+00 -3.1991152962e-02 1.9797893161e+00 -3.4290956838e+00 1.9797893161e+00 3.4290956838e+00 
5500 4.0800169263e+00 -3.0757377980e-02 1.9805973144e+00 -3.4304951779e+00 1.9805973144e+00 3.4304951779e+00 
5600 4.0800621769e+00 -2.9544859461e-02 1.9813738323e+00 -3.4318401464e+00 1.9813738323e+00 3.4318401464e+00 
5700 4.0801196143e+00 -2.8354273958e-02 1.9821194441e+00 -3.4331315838e+00 1.9821194441e+00 3.4331315838e+00 
5800 4.0801868929e+00 -2.7186280021e-02 1.9828347385e+00 -3.4343705100e+00 1.9828347385e+00 3.4343705100e+00 
5900 4.0802618525e+00 -2.6041512612e-02 1.9835203187e+00 -3.4355579698e+00 1.9835203187e+00 3.4355579698e+00 
6000 4.0803425162e+00 -2.4920577993e-02 1.9841768017e+00 -3.4366950318e+00 1.9841768017e+00 3.4366950318e+00 
6100 4.0804270876e+00 -2.3824049092e-02 1.9848048176e+00 -3.4377827873e+00 1.9848048176e+00 3.4377827873e+00 
6200 4.0805139469e+00 -2.2752461362e-02 1.9854050089e+00 -3.4388223490e+00 1.9854050089e+00 3.4388223490e+00 
6300 4.0806016455e+00 -2.1706309133e-02 1.9859780294e+00 -3.4398148496e+00 1.9859780294e+00 3.4398148496e+00 
6400 4.0806889007e+00 -2.0686042457e-02 1.9865245436e+00 -3.4407614400e+00 1.9865245436e+00 3.4407614400e+00 
6500 4.0807745884e+00 -1.9692064443e-02 1.9870452255e+00 -3.4416632874e+00 1.9870452255e+00 3.4416632874e+00 
6600 4.0808577363e+00 -1.8724729071e-02 1.9875407573e+00 -3.4425215737e+00 1.9875407573e+00 3.4425215737e+00 
6700 4.0809375158e+00 -1.7784339474e-02 1.9880118286e+00 -3.4433374932e+00 1.9880118286e+00 3.4433374932e+00 
6800 4.0810132342e+00 -1.6871146671e-02 1.9884591349e+00 -3.4441122505e+00 1.9884591349e+00 3.4441122505e+00 
6900 4.0810843257e+00 -1.5985348736e-02 1.9888833767e+00 -3.4448470587e+00 1.9888833767e+00 3.4448470587e+00 
7000 4.0811503432e+00 -1.5127090377e-02 1.9892852576e+00 -3.4455431369e+00 1.9892852576e+00 3.4455431369e+00 
7100 4.0812109491e+00 -1.4296462905e-02 1.9896654839e+00 -3.4462017082e+00 1.9896654839e+00 3.4462017082e+00 
7200 4.0812659067e+00 -1.3493504576e-02 1.9900247627e+00 -3.4468239974e+00 1.9900247627e+00 3.4468239974e+00 
7300 4.0813150712e+00 -1.2718201262e-02 1.9903638009e+00 -3.4474112287e+00 1.9903638009e+00 3.4474112287e+00 
7400 4.0813583811e+00 -1.1970487443e-02 1.9906833039e+00 -3.4479646241e+00 1.9906833039e+00 3.4479646241e+00 
7500 4.0813958497e+00 -1.1250247482e-02 1.9909839742e+00 -3.4484854004e+00 1.9909839742e+00 3.4484854004e+00 
7600 4.0814275565e+00 -1.0557317156e-02 1.9912665107e+00 -3.4489747680e+00 1.9912665107e+00 3.4489747680e+00 
7700 4.0814536394e+00 -9.8914854166e-03 1.9915316071e+00 -3.4494339284e+00 1.9915316071e+00 3.4494339284e+00 
7800 4.0814742870e+00 -9.2524963498e-03 1.9917799509e+00 -3.4498640725e+00 1.9917799509e+00 3.4498640725e+00 
7900 4.0814897307e+00 -8.6400513129e-03 1.9920122225e+00 -3.4502663786e+00 1.9920122225e+00 3.4502663786e+00 
8000 4.0815002383e+00 -8.0538112126e-03 1.9922290938e+00 -3.4506420108e+00 1.9922290938e+00 3.4506420108e+00 
8100 4.0815061068e+00 -7.4933989042e-03 1.9924312279e+00 -3.4509921173e+00 1.9924312279e+00 3.4509921173e+00 
8200 4.0815076565e+00 -6.9584016849e-03 1.9926192775e+00 -3.4513178287e+00 1.9926192775e+00 3.4513178287e+00 
8300 4.0815052250e+00 -6.4483738565e-03 1.9927938844e+00 -3.4516202568e+00 1.9927938844e+00 3.4516202568e+00 
8400 4.0814991620e+00 -5.9628393351e-03 1.9929556789e+00 -3.4519004931e+00 1.9929556789e+00 3.4519004931e+00 
8500 4.0814898242e+00 -5.5012942860e-03 1.9931052787e+00 -3.4521596075e+00 1.9931052787e+00 3.4521596075e+00 
8600 4.0814775709e+00 -5.0632097635e-03 1.9932432884e+00 -3.4523986473e+00 1.9932432884e+00 3.4523986473e+00 
8700 4.0814627598e+00 -4.6480343382e-03 1.9933702990e+00 -3.4526186362e+00 1.9933702990e+00 3.4526186362e+00 
8800 4.0814457437e+00 -4.2551966930e-03 1.9934868875e+00 -3.4528205734e+00 1.9934868875e+00 3.4528205734e+00 
8900 4.0814268670e+00 -3.8841081745e-03 1.9935936159e+00 -3.4530054325e+00 1.9935936159e+00 3.4530054325e+00 
9000 4.0814064629e+00 -3.5341652846e-03 1.9936910315e+00 -3.4531741611e+00 1.9936910315e+00 3.4531741611e+00 
9100 4.0813848511e+00 -3.2047521011e-03 1.9937796659e+00 -3.4533276804e+00 1.9937796659e+00 3.4533276804e+00 
9200 4.0813623358e+00 -2.8952426164e-03 1.9938600352e+00 -3.4534668841e+00 1.9938600352e+00 3.4534668841e+00 
9300 4.0813392041e+00 -2.6050029850e-03 1.9939326396e+00 -3.4535926386e+00 1.9939326396e+00 3.4535926386e+00 
9400 4.0813157243e+00 -2.3333936737e-03 1.9939979632e+00 -3.4537057824e+00 1.9939979632e+00 3.4537057824e+00 
9500 4.0812921452e+00 -2.0797715065e-03 1.9940564739e+00 -3.4538071259e+00 1.9940564739e+00 3.4538071259e+00 
9600 4.0812686956e+00 -1.8434916008e-03 1.9941086234e+00 -3.4538974515e+00 1.9941086234e+00 3.4538974515e+00 
9700 4.0812455834e+00 -1.6239091910e-03 1.9941548470e+00 -3.4539775132e+00 1.9941548470e+00 3.4539775132e+00 
9800 4.0812229954e+00 -1.4203813377e-03 1.9941955639e+00 -3.4540480368e+00 1.9941955639e+00 3.4540480368e+00 
9900 4.0812010979e+00 -1.2322685205e-03 1.9942311769e+00 -3.4541097204e+00 1.9942311769e+00 3.4541097204e+00 
10000 4.0811800363e+00 -1.0589361147e-03 1.9942620728e+00 -3.4541632336e+00 1.9942620728e+00 3.4541632336e+00 
10100 4.0811599361e+00 -8.9975575307e-04 1.9942886224e+00 -3.4542092190e+00 1.9942886224e+00 3.4542092190e+00 
10200 4.0811409029e+00 -7.5410657312e-04 1.9943111808e+00 -3.4542482912e+00 1.9943111808e+00 3.4542482912e+00 
10300 4.0811230237e+00 -6.2137635348e-04 1.9943300872e+00 -3.4542810381e+00 1.9943300872e+00 3.4542810381e+00 
10400 4.0811063672e+00 -5.0096254122e-04 1.9943456658e+00 -3.4543080211e+00 1.9943456658e+00 3.4543080211e+00 
10500 4.0810909852e+00 -3.9227317420e-04 1.9943582254e+00 -3.4543297749e+00 1.9943582254e+00 3.4543297749e+00 
10600 4.0810769135e+00 -2.9472770201e-04 1.9943680600e+00 -3.4543468089e+00 1.9943680600e+00 3.4543468089e+00 
10700 4.0810641728e+00 -2.0775771002e-04 1.9943754490e+00 -3.4543596070e+00 1.9943754490e+00 3.4543596070e+00 
10800 4.0810527701e+00 -1.3080755094e-04 1.9943806576e+00 -3.4543686286e+00 1.9943806576e+00 3.4543686286e+00 
10900 4.0810426997e+00 -6.3334888794e-05 1.9943839370e+00 -3.4543743087e+00 1.9943839370e+00 3.4543743087e+00 
11000 4.0810339444e+00 -5.5225410273e-06 1.9943839370e+00 -3.4543743087e+00 1.9943839370e+00 3.4543743087e+00 
11100 4.0810264766e+00 4.4505909726e-05 1.9943839370e+00 -3.4543743087e+00 1.9943839370e+00 3.4543743087e+00 
11200 4.0810202600e+00 8.7162269691e-05 1.9943839370e+00 -3.4543743087e+00 1.9943839370e+00 3.4543743087e+00 
11300 4.0810152500e+00 1.2186833456e-04 1.9943817518e+00 -3.4543705238e+00 1.9943817518e+00 3.4543705238e+00 
11400 4.0810113950e+00 1.4959546016e-04 1.9943786965e+00 -3.4543652319e+00 1.9943786965e+00 3.4543652319e+00 
11500 4.0810086381e+00 1.7079896633e-04 1.9943749461e+00 -3.4543587360e+00 1.9943749461e+00 3.4543587360e+00 
11600 4.0810069173e+00 1.8591908536e-04 1.9943706641e+00 -3.4543513193e+00 1.9943706641e+00 3.4543513193e+00 
11700 4.0810061670e+00 1.9538093911e-04 1.9943660030e+00 -3.4543432460e+00 1.9943660030e+00 3.4543432460e+00 
11800 4.0810063190e+00 1.9959455998e-04 1.9943611047e+00 -3.4543347619e+00 1.9943611047e+00 3.4543347619e+00 
11900 4.0810073030e+00 1.9895495120e-04 1.9943561007e+00 -3.4543260948e+00 1.9943561007e+00 3.4543260948e+00 
12000 4.0810090475e+00 1.9384218270e-04 1.9943511127e+00 -3.4543174554e+00 1.9943511127e+00 3.4543174554e+00 
12100 4.0810114809e+00 1.8462151866e-04 1.9943462530e+00 -3.4543090380e+00 1.9943462530e+00 3.4543090380e+00 
12200 4.0810145317e+00 1.7164357320e-04 1.9943416243e+00 -3.4543010210e+00 1.9943416243e+00 3.4543010210e+00 
12300 4.0810181295e+00 1.5524449099e-04 1.9943373211e+00 -3.4542935675e+00 1.9943373211e+00 3.4542935675e+00 
12400 4.0810222053e+00 1.3574614963e-04 1.9943334289e+00 -3.4542868262e+00 1.9943334289e+00 3.4542868262e+00 
12500 4.0810266921e+00 1.1345638114e-04 1.9943300256e+00 -3.4542809315e+00 1.9943300256e+00 3.4542809315e+00 
12600 4.0810315253e+00 8.8669209779e-05 1.9943271812e+00 -3.4542760047e+00 1.9943271812e+00 3.4542760047e+00 
12700 4.0810366430e+00 6.1665104104e-05 1.9943249581e+00 -3.4542721543e+00 1.9943249581e+00 3.4542721543e+00 
12800 4.0810419864e+00 3.3405297281e-05 1.9943249581e+00 -3.4542721543e+00 1.9943249581e+00 3.4542721543e+00 
12900 4.0810474999e+00 3.1301070328e-06 1.9943249581e+00 -3.4542721543e+00 1.9943249581e+00 3.4542721543e+00 
13000 4.0810531315e+00 -2.8941054524e-05 1.9943249581e+00 -3.4542721543e+00 1.9943249581e+00 3.4542721543e+00 
13100 4.0810588328e+00 -6.2598616677e-05 1.9943249581e+00 -3.4542721543e+00 1.9943249581e+00 3.4542721543e+00 
13200 4.0810645594e+00 -9.7642664152e-05 1.9943249581e+00 -3.4542721543e+00 1.9943249581e+00 3.4542721543e+00 
13300 4.0810702699e+00 -1.3278413650e-04 1.9943274061e+00 -3.4542763944e+00 1.9943274061e+00 3.4542763944e+00 
13400 4.0810759273e+00 -1.6853564792e-04 1.9943307352e+00 -3.4542821605e+00 1.9943307352e+00 3.4542821605e+00 
13500 4.0810814981e+00 -2.0471501747e-04 1.9943349606e+00 -3.4542894790e+00 1.9943349606e+00 3.4542894790e+00 
13600 4.0810869527e+00 -2.4115100591e-04 1.9943400930e+00 -3.4542983686e+00 1.9943400930e+00 3.4542983686e+00 
13700 4.0810922649e+00 -2.7768300933e-04 1.9943461389e+00 -3.4543088404e+00 1.9943461389e+00 3.4543088404e+00 
13800 4.0810974121e+00 -3.1416075264e-04 1.9943531006e+00 -3.4543208985e+00 1.9943531006e+00 3.4543208985e+00 
13900 4.0811023750e+00 -3.5044398331e-04 1.9943609769e+00 -3.4543345406e+00 1.9943609769e+00 3.4543345406e+00 
14000 4.0811071376e+00 -3.8640216604e-04 1.9943697628e+00 -3.4543497582e+00 1.9943697628e+00 3.4543497582e+00 
14100 4.0811116868e+00 -4.2191417850e-04 1.9943794501e+00 -3.4543665371e+00 1.9943794501e+00 3.4543665371e+00 
14200 4.0811160127e+00 -4.5686800863e-04 1.9943900277e+00 -3.4543848581e+00 1.9943900277e+00 3.4543848581e+00 
14300 4.0811201076e+00 -4.9116045357e-04 1.9944014815e+00 -3.4544046967e+00 1.9944014815e+00 3.4544046967e+00 
14400 4.0811239668e+00 -5.2469682077e-04 1.9944137950e+00 -3.4544260243e+00 1.9944137950e+00 3.4544260243e+00 
14500 4.0811275876e+00 -5.5739063111e-04 1.9944269492e+00 -3.4544488080e+00 1.9944269492e+00 3.4544488080e+00 
14600 4.0811309695e+00 -5.8916332450e-04 1.9944409229e+00 -3.4544730112e+00 1.9944409229e+00 3.4544730112e+00 
14700 4.0811341138e+00 -6.1994396800e-04 1.9944556931e+00 -3.4544985939e+00 1.9944556931e+00 3.4544985939e+00 
14800 4.0811370238e+00 -6.4966896657e-04 1.9944712348e+00 -3.4545255129e+00 1.9944712348e+00 3.4545255129e+00 
14900 4.0811397040e+00 -6.7828177664e-04 1.9944875215e+00 -3.4545537224e+00 1.9944875215e+00 3.4545537224e+00 
15000 4.0811421604e+00 -7.0573262269e-04 1.9945045255e+00 -3.4545831741e+00 1.9945045255e+00 3.4545831741e+00 
15100 4.0811444002e+00 -7.3197821679e-04 1.9945222174e+00 -3.4546138174e+00 1.9945222174e+00 3.4546138174e+00 
15200 4.0811464315e+00 -7.5698148137e-04 1.9945405672e+00 -3.4546456001e+00 1.9945405672e+00 3.4546456001e+00 
15300 4.0811482632e+00 -7.8071127533e-04 1.9945595435e+00 -3.4546784681e+00 1.9945595435e+00 3.4546784681e+00 
15400 4.0811499049e+00 -8.0314212349e-04 1.9945791146e+00 -3.4547123662e+00 1.9945791146e+00 3.4547123662e+00 
15500 4.0811513668e+00 -8.2425394975e-04 1.9945992478e+00 -3.4547472378e+00 1.9945992478e+00 3.4547472378e+00 
15600 4.0811526594e+00 -8.4403181375e-04 1.9946199099e+00 -3.4547830258e+00 1.9946199099e+00 3.4547830258e+00 
15700 4.0811537933e+00 -8.6246565156e-04 1.9946410677e+00 -3.4548196721e+00 1.9946410677e+00 3.4548196721e+00 
15800 4.0811547796e+00 -8.7955002015e-04 1.9946626873e+00 -3.4548571183e+00 1.9946626873e+00 3.4548571183e+00 
15900 4.0811556292e+00 -8.9528384614e-04 1.9946847349e+00 -3.4548953060e+00 1.9946847349e+00 3.4548953060e+00 
16000 4.0811563529e+00 -9.0967017865e-04 1.9947071767e+00 -3.4549341763e+00 1.9947071767e+00 3.4549341763e+00 
16100 4.0811569615e+00 -9.2271594668e-04 1.9947299788e+00 -3.4549736707e+00 1.9947299788e+00 3.4549736707e+00 
16200 4.0811574655e+00 -9.3443172095e-04 1.9947531077e+00 -3.4550137311e+00 1.9947531077e+00 3.4550137311e+00 
16300 4.0811578751e+00 -9.4483148048e-04 1.9947765300e+00 -3.4550542997e+00 1.9947765300e+00 3.4550542997e+00 
16400 4.0811582002e+00 -9.5393238403e-04 1.9948002127e+00 -3.4550953193e+00 1.9948002127e+00 3.4550953193e+00 
16500 4.0811584502e+00 -9.6175454648e-04 1.9948241232e+00 -3.4551367336e+00 1.9948241232e+00 3.4551367336e+00 
16600 4.0811586342e+00 -9.6832082040e-04 1.9948482295e+00 -3.4551784869e+00 1.9948482295e+00 3.4551784869e+00 
16700 4.0811587607e+00 -9.7365658289e-04 1.9948725001e+00 -3.4552205248e+00 1.9948725001e+00 3.4552205248e+00 
16800 4.0811588380e+00 -9.7778952780e-04 1.9948969041e+00 -3.4552627938e+00 1.9948969041e+00 3.4552627938e+00 
16900 4.0811588734e+00 -9.8074946352e-04 1.9949214115e+00 -3.4553052418e+00 1.9949214115e+00 3.4553052418e+00 
17000 4.0811588741e+00 -9.8256811646e-04 1.9949459927e+00 -3.4553478177e+00 1.9949459927e+00 3.4553478177e+00 
17100 4.0811588466e+00 -9.8327894026e-04 1.9949706191e+00 -3.4553904720e+00 1.9949706191e+00 3.4553904720e+00 
17200 4.0811587969e+00 -9.8291693091e-04 1.9949952631e+00 -3.4554331566e+00 1.9949952631e+00 3.4554331566e+00 
17300 4.0811587305e+00 -9.8151844786e-04 1.9950198978e+00 -3.4554758250e+00 1.9950198978e+00 3.4554758250e+00 
17400 4.0811586523e+00 -9.7912104123e-04 1.9950444970e+00 -3.4555184322e+00 1.9950444970e+00 3.4555184322e+00 
17500 4.0811585668e+00 -9.7576328510e-04 1.9950690359e+00 -3.4555609348e+00 1.9950690359e+00 3.4555609348e+00 
17600 4.0811584779e+00 -9.7148461705e-04 1.9950934903e+00 -3.4556032911e+00 1.9950934903e+00 3.4556032911e+00 
17700 4.0811583892e+00 -9.6632518400e-04 1.9951178372e+00 -3.4556454612e+00 1.9951178372e+00 3.4556454612e+00 
17800 4.0811583036e+00 -9.6032569434e-04 1.9951420545e+00 -3.4556874067e+00 1.9951420545e+00 3.4556874067e+00 
17900 4.0811582238e+00 -9.5352727634e-04 1.9951661212e+00 -3.4557290914e+00 1.9951661212e+00 3.4557290914e+00 
18000 4.0811581521e+00 -9.4597134300e-04 1.9951900172e+00 -3.4557704805e+00 1.9951900172e+00 3.4557704805e+00 
18100 4.0811580902e+00 -9.3769946324e-04 1.9952137235e+00 -3.4558115411e+00 1.9952137235e+00 3.4558115411e+00 
18200 4.0811580396e+00 -9.2875323941e-04 1.9952372223e+00 -3.4558522421e+00 1.9952372223e+00 3.4558522421e+00 
18300 4.0811580014e+00 -9.1917419116e-04 1.9952604966e+00 -3.4558925544e+00 1.9952604966e+00 3.4558925544e+00 
18400 4.0811579765e+00 -9.0900364563e-04 1.9952835305e+00 -3.4559324504e+00 1.9952835305e+00 3.4559324504e+00 
18500 4.0811579655e+00 -8.9828263384e-04 1.9953063094e+00 -3.4559719045e+00 1.9953063094e+00 3.4559719045e+00 
18600 4.0811579687e+00 -8.8705179332e-04 1.9953288193e+00 -3.4560108929e+00 1.9953288193e+00 3.4560108929e+00 
18700 4.0811579861e+00 -8.7535127691e-04 1.9953510476e+00 -3.4560493934e+00 1.9953510476e+00 3.4560493934e+00 
18800 4.0811580178e+00 -8.6322066751e-04 1.9953729824e+00 -3.4560873856e+00 1.9953729824e+00 3.4560873856e+00 
18900 4.0811580632e+00 -8.5069889892e-04 1.9953946130e+00 -3.4561248509e+00 1.9953946130e+00 3.4561248509e+00 
19000 4.0811581222e+00 -8.3782418243e-04 1.9954159296e+00 -3.4561617723e+00 1.9954159296e+00 3.4561617723e+00 
19100 4.0811581940e+00 -8.2463393924e-04 1.9954369234e+00 -3.4561981345e+00 1.9954369234e+00 3.4561981345e+00 
19200 4.0811582779e+00 -8.1116473851e-04 1.9954575864e+00 -3.4562339240e+00 1.9954575864e+00 3.4562339240e+00 
19300 4.0811583733e+00 -7.9745224088e-04 1.9954779117e+00 -3.4562691284e+00 1.9954779117e+00 3.4562691284e+00 
19400 4.0811584793e+00 -7.8353114742e-04 1.9954978932e+00 -3.4563037374e+00 1.9954978932e+00 3.4563037374e+00 
19500 4.0811585949e+00 -7.6943515377e-04 1.9955175257e+00 -3.4563377419e+00 1.9955175257e+00 3.4563377419e+00 
19600 4.0811587193e+00 -7.5519690944e-04 1.9955368048e+00 -3.4563711344e+00 1.9955368048e+00 3.4563711344e+00 
19700 4.0811588515e+00 -7.4084798191e-04 1.9955557270e+00 -3.4564039085e+00 1.9955557270e+00 3.4564039085e+00 
19800 4.0811589904e+00 -7.2641882565e-04 1.9955742895e+00 -3.4564360597e+00 1.9955742895e+00 3.4564360597e+00 
19900 4.0811591352e+00 -7.1193875564e-04 1.9955924903e+00 -3.4564675843e+00 1.9955924903e+00 3.4564675843e+00 
20000 4.0811592849e+00 -6.9743592542e-04 1.9956103281e+00 -3.4564984803e+00 1.9956103281e+00 3.4564984803e+00 
20100 4.0811594384e+00 -6.8293730929e-04 1.9956278023e+00 -3.4565287467e+00 1.9956278023e+00 3.4565287467e+00 
20200 4.0811595950e+00 -6.6846868875e-04 1.9956449132e+00 -3.4565583836e+00 1.9956449132e+00 3.4565583836e+00 
20300 4.0811597537e+00 -6.5405464273e-04 1.9956616614e+00 -3.4565873923e+00 1.9956616614e+00 3.4565873923e+00 
20400 4.0811599136e+00 -6.3971854160e-04 1.9956780484e+00 -3.4566157753e+00 1.9956780484e+00 3.4566157753e+00 
20500 4.0811600740e+00 -6.2548254477e-04 1.9956940760e+00 -3.4566435360e+00 1.9956940760e+00 3.4566435360e+00 
20600 4.0811602342e+00 -6.1136760163e-04 1.9957097468e+00 -3.4566706786e+00 1.9957097468e+00 3.4566706786e+00 
20700 4.0811603934e+00 -5.9739345572e-04 1.9957250639e+00 -3.4566972086e+00 1.9957250639e+00 3.4566972086e+00 
20800 4.0811605509e+00 -5.8357865182e-04 1.9957400307e+00 -3.4567231319e+00 1.9957400307e+00 3.4567231319e+00 
20900 4.0811607063e+00 -5.6994054607e-04 1.9957546513e+00 -3.4567484556e+00 1.9957546513e+00 3.4567484556e+00 
21000 4.0811608590e+00 -5.5649531854e-04 1.9957689302e+00 -3.4567731872e+00 1.9957689302e+00 3.4567731872e+00 
21100 4.0811610085e+00 -5.4325798842e-04 1.9957828721e+00 -3.4567973353e+00 1.9957828721e+00 3.4567973353e+00 
21200 4.0811611544e+00 -5.3024243149e-04 1.9957964822e+00 -3.4568209088e+00 1.9957964822e+00 3.4568209088e+00 
21300 4.0811612963e+00 -5.1746139975e-04 1.9958097662e+00 -3.4568439174e+00 1.9958097662e+00 3.4568439174e+00 
21400 4.0811614339e+00 -5.0492654299e-04 1.9958227299e+00 -3.4568663712e+00 1.9958227299e+00 3.4568663712e+00 
21500 4.0811615671e+00 -4.9264843218e-04 1.9958353795e+00 -3.4568882809e+00 1.9958353795e+00 3.4568882809e+00 
21600 4.0811616955e+00 -4.8063658458e-04 1.9958477215e+00 -3.4569096577e+00 1.9958477215e+00 3.4569096577e+00 
21700 4.0811618190e+00 -4.6889949026e-04 1.9958597624e+00 -3.4569305132e+00 1.9958597624e+00 3.4569305132e+00 
21800 4.0811619375e+00 -4.5744464003e-04 1.9958715092e+00 -3.4569508593e+00 1.9958715092e+00 3.4569508593e+00 
21900 4.0811620509e+00 -4.4627855455e-04 1.9958829690e+00 -3.4569707082e+00 1.9958829690e+00 3.4569707082e+00 
22000 4.0811621593e+00 -4.3540681448e-04 1.9958941490e+00 -3.4569900726e+00 1.9958941490e+00 3.4569900726e+00 
22100 4.0811622625e+00 -4.2483409160e-04 1.9959050565e+00 -3.4570089650e+00 1.9959050565e+00 3.4570089650e+00 
22200 4.0811623607e+00 -4.1456418066e-04 1.9959156992e+00 -3.4570273986e+00 1.9959156992e+00 3.4570273986e+00 
22300 4.0811624539e+00 -4.0460003195e-04 1.9959260845e+00 -3.4570453865e+00 1.9959260845e+00 3.4570453865e+00 
22400 4.0811625422e+00 -3.9494378437e-04 1.9959362202e+00 -3.4570629420e+00 1.9959362202e+00 3.4570629420e+00 
22500 4.0811626257e+00 -3.8559679892e-04 1.9959461139e+00 -3.4570800784e+00 1.9959461139e+00 3.4570800784e+00 
22600 4.0811627046e+00 -3.7655969253e-04 1.9959557734e+00 -3.4570968092e+00 1.9959557734e+00 3.4570968092e+00 
22700 4.0811627789e+00 -3.6783237207e-04 1.9959652065e+00 -3.4571131477e+00 1.9959652065e+00 3.4571131477e+00 
22800 4.0811628490e+00 -3.5941406847e-04 1.9959744209e+00 -3.4571291076e+00 1.9959744209e+00 3.4571291076e+00 
22900 4.0811629149e+00 -3.5130337086e-04 1.9959834243e+00 -3.4571447020e+00 1.9959834243e+00 3.4571447020e+00 
23000 4.0811629768e+00 -3.4349826057e-04 1.9959922246e+00 -3.4571599445e+00 1.9959922246e+00 3.4571599445e+00 
23100 4.0811630350e+00 -3.3599614509e-04 1.9960008293e+00 -3.4571748483e+00 1.9960008293e+00 3.4571748483e+00 
23200 4.0811630897e+00 -3.2879389158e-04 1.9960092461e+00 -3.4571894266e+00 1.9960092461e+00 3.4571894266e+00 
23300 4.0811631410e+00 -3.2188786028e-04 1.9960174823e+00 -3.4572036922e+00 1.9960174823e+00 3.4572036922e+00 
23400 4.0811631892e+00 -3.1527393735e-04 1.9960255456e+00 -3.4572176582e+00 1.9960255456e+00 3.4572176582e+00 
23500 4.0811632344e+00 -3.0894756734e-04 1.9960334432e+00 -3.4572313371e+00 1.9960334432e+00 3.4572313371e+00 
23600 4.0811632769e+00 -3.0290378512e-04 1.9960411822e+00 -3.4572447416e+00 1.9960411822e+00 3.4572447416e+00 
23700 4.0811633169e+00 -2.9713724722e-04 1.9960487698e+00 -3.4572578837e+00 1.9960487698e+00 3.4572578837e+00 
23800 4.0811633546e+00 -2.9164226257e-04 1.9960562130e+00 -3.4572707756e+00 1.9960562130e+00 3.4572707756e+00 
23900 4.0811633902e+00 -2.8641282256e-04 1.9960635184e+00 -3.4572834290e+00 1.9960635184e+00 3.4572834290e+00 
24000 4.0811634238e+00 -2.8144263038e-04 1.9960706929e+00 -3.4572958555e+00 1.9960706929e+00 3.4572958555e+00 
24100 4.0811634556e+00 -2.7672512959e-04 1.9960777428e+00 -3.4573080664e+00 1.9960777428e+00 3.4573080664e+00 
24200 4.0811634858e+00 -2.7225353194e-04 1.9960846745e+00 -3.4573200725e+00 1.9960846745e+00 3.4573200725e+00 
24300 4.0811635146e+00 -2.6802084437e-04 1.9960914942e+00 -3.4573318845e+00 1.9960914942e+00 3.4573318845e+00 
24400 4.0811635421e+00 -2.6401989515e-04 1.9960982079e+00 -3.4573435129e+00 1.9960982079e+00 3.4573435129e+00 
24500 4.0811635684e+00 -2.6024335913e-04 1.9961048213e+00 -3.4573549676e+00 1.9961048213e+00 3.4573549676e+00 
24600 4.0811635937e+00 -2.5668378222e-04 1.9961113400e+00 -3.4573662585e+00 1.9961113400e+00 3.4573662585e+00 
24700 4.0811636181e+00 -2.5333360480e-04 1.9961177696e+00 -3.4573773949e+00 1.9961177696e+00 3.4573773949e+00 
24800 4.0811636417e+00 -2.5018518439e-04 1.9961241153e+00 -3.4573883859e+00 1.9961241153e+00 3.4573883859e+00 
24900 4.0811636647e+00 -2.4723081729e-04 1.9961303821e+00 -3.4573992403e+00 1.9961303821e+00 3.4573992403e+00 
25000 4.0811636870e+00 -2.4446275932e-04 1.9961365748e+00 -3.4574099665e+00 1.9961365748e+00 3.4574099665e+00 
25100 4.0811637088e+00 -2.4187324567e-04 1.9961426982e+00 -3.4574205725e+00 1.9961426982e+00 3.4574205725e+00 
25200 4.0811637302e+00 -2.3945450975e-04 1.9961487568e+00 -3.4574310662e+00 1.9961487568e+00 3.4574310662e+00 
25300 4.0811637512e+00 -2.3719880119e-04 1.9961547547e+00 -3.4574414549e+00 1.9961547547e+00 3.4574414549e+00 
25400 4.0811637720e+00 -2.3509840281e-04 1.9961606961e+00 -3.4574517457e+00 1.9961606961e+00 3.4574517457e+00 
25500 4.0811637924e+00 -2.3314564682e-04 1.9961665848e+00 -3.4574619453e+00 1.9961665848e+00 3.4574619453e+00 
25600 4.0811638126e+00 -2.3133292993e-04 1.9961724247e+00 -3.4574720602e+00 1.9961724247e+00 3.4574720602e+00 
25700 4.0811638327e+00 -2.2965272772e-04 1.9961782191e+00 -3.4574820964e+00 1.9961782191e+00 3.4574820964e+00 
25800 4.0811638526e+00 -2.2809760798e-04 1.9961839714e+00 -3.4574920597e+00 1.9961839714e+00 3.4574920597e+00 
25900 4.0811638724e+00 -2.2666024331e-04 1.9961896847e+00 -3.4575019555e+00 1.9961896847e+00 3.4575019555e+00 
26000 4.0811638921e+00 -2.2533342271e-04 1.9961953621e+00 -3.4575117889e+00 1.9961953621e+00 3.4575117889e+00 
26100 4.0811639116e+00 -2.2411006245e-04 1.9962010061e+00 -3.4575215648e+00 1.9962010061e+00 3.4575215648e+00 
26200 4.0811639311e+00 -2.2298321603e-04 1.9962066196e+00 -3.4575312875e+00 1.9962066196e+00 3.4575312875e+00 
26300 4.0811639505e+00 -2.2194608335e-04 1.9962122047e+00 -3.4575409613e+00 1.9962122047e+00 3.4575409613e+00 
26400 4.0811639699e+00 -2.2099201909e-04 1.9962177639e+00 -3.4575505901e+00 1.9962177639e+00 3.4575505901e+00 
26500 4.0811639891e+00 -2.2011454034e-04 1.9962232992e+00 -3.4575601774e+00 1.9962232992e+00 3.4575601774e+00 
26600 4.0811640083e+00 -2.1930733340e-04 1.9962288125e+00 -3.4575697267e+00 1.9962288125e+00 3.4575697267e+00 
26700 4.0811640273e+00 -2.1856425996e-04 1.9962343055e+00 -3.4575792410e+00 1.9962343055e+00 3.4575792410e+00 
26800 4.0811640463e+00 -2.1787936247e-04 1.9962397799e+00 -3.4575887229e+00 1.9962397799e+00 3.4575887229e+00 
26900 4.0811640651e+00 -2.1724686888e-04 1.9962452372e+00 -3.4575981751e+00 1.9962452372e+00 3.4575981751e+00 
27000 4.0811640839e+00 -2.1666119673e-04 1.9962506786e+00 -3.4576075999e+00 1.9962506786e+00 3.4576075999e+00 
27100 4.0811641025e+00 -2.1611695653e-04 1.9962561053e+00 -3.4576169992e+00 1.9962561053e+00 3.4576169992e+00 
27200 4.0811641209e+00 -2.1560895461e-04 1.9962615183e+00 -3.4576263749e+00 1.9962615183e+00 3.4576263749e+00 
27300 4.0811641392e+00 -2.1513219534e-04 1.9962669186e+00 -3.4576357286e+00 1.9962669186e+00 3.4576357286e+00 
27400 4.0811641573e+00 -2.1468188277e-04 1.9962723070e+00 -3.4576450615e+00 1.9962723070e+00 3.4576450615e+00 
27500 4.0811641751e+00 -2.1425342174e-04 1.9962776841e+00 -3.4576543748e+00 1.9962776841e+00 3.4576543748e+00 
27600 4.0811641928e+00 -2.1384241852e-04 1.9962830504e+00 -3.4576636696e+00 1.9962830504e+00 3.4576636696e+00 
27700 4.0811642103e+00 -2.1344468085e-04 1.9962884064e+00 -3.4576729465e+00 1.9962884064e+00 3.4576729465e+00 
27800 4.0811642275e+00 -2.1305621765e-04 1.9962937525e+00 -3.4576822061e+00 1.9962937525e+00 3.4576822061e+00 
27900 4.0811642445e+00 -2.1267323815e-04 1.9962990888e+00 -3.4576914488e+00 1.9962990888e+00 3.4576914488e+00 
28000 4.0811642612e+00 -2.1229215069e-04 1.9963044155e+00 -3.4577006749e+00 1.9963044155e+00 3.4577006749e+00 
28100 4.0811642777e+00 -2.1190956111e-04 1.9963097326e+00 -3.4577098845e+00 1.9963097326e+00 3.4577098845e+00 
28200 4.0811642939e+00 -2.1152227074e-04 1.9963150401e+00 -3.4577190774e+00 1.9963150401e+00 3.4577190774e+00 
28300 4.0811643098e+00 -2.1112727403e-04 1.9963203379e+00 -3.4577282535e+00 1.9963203379e+00 3.4577282535e+00 
28400 4.0811643254e+00 -2.1072175592e-04 1.9963256259e+00 -3.4577374124e+00 1.9963256259e+00 3.4577374124e+00 
28500 4.0811643407e+00 -2.1030308883e-04 1.9963309036e+00 -3.4577465537e+00 1.9963309036e+00 3.4577465537e+00 
28600 4.0811643556e+00 -2.0986882942e-04 1.9963361708e+00 -3.4577556769e+00 1.9963361708e+00 3.4577556769e+00 
28700 4.0811643703e+00 -2.0941671506e-04 1.9963414272e+00 -3.4577647811e+00 1.9963414272e+00 3.4577647811e+00 
28800 4.0811643847e+00 -2.0894466007e-04 1.9963466722e+00 -3.4577738658e+00 1.9963466722e+00 3.4577738658e+00 
28900 4.0811643987e+00 -2.0845075172e-04 1.9963519054e+00 -3.4577829299e+00 1.9963519054e+00 3.4577829299e+00 
29000 4.0811644124e+00 -2.0793324609e-04 1.9963571262e+00 -3.4577919726e+00 1.9963571262e+00 3.4577919726e+00 
29100 4.0811644258e+00 -2.0739056368e-04 1.9963623340e+00 -3.4578009928e+00 1.9963623340e+00 3.4578009928e+00 
29200 4.0811644389e+00 -2.0682128488e-04 1.9963675282e+00 -3.4578099894e+00 1.9963675282e+00 3.4578099894e+00 
29300 4.0811644517e+00 -2.0622414534e-04 1.9963727082e+00 -3.4578189614e+00 1.9963727082e+00 3.4578189614e+00 
29400 4.0811644642e+00 -2.0559803113e-04 1.9963778731e+00 -3.4578279074e+00 1.9963778731e+00 3.4578279074e+00 
29500 4.0811644763e+00 -2.0494197391e-04 1.9963830224e+00 -3.4578368262e+00 1.9963830224e+00 3.4578368262e+00 
29600 4.0811644881e+00 -2.0425514587e-04 1.9963881552e+00 -3.4578457165e+00 1.9963881552e+00 3.4578457165e+00 
29700 4.0811644996e+00 -2.0353685472e-04 1.9963932709e+00 -3.4578545770e+00 1.9963932709e+00 3.4578545770e+00 
29800 4.0811645109e+00 -2.0278653853e-04 1.9963983685e+00 -3.4578634063e+00 1.9963983685e+00 3.4578634063e+00 
29900 4.0811645218e+00 -2.0200376056e-04 1.9964034473e+00 -3.4578722031e+00 1.9964034473e+00 3.4578722031e+00 
30000 4.0811645324e+00 -2.0118820410e-04 1.9964085065e+00 -3.4578809659e+00 1.9964085065e+00 3.4578809659e+00 
30100 4.0811645428e+00 -2.0033966719e-04 1.9964135452e+00 -3.4578896933e+00 1.9964135452e+00 3.4578896933e+00 
30200 4.0811645529e+00 -1.9945805744e-04 1.9964185627e+00 -3.4578983838e+00 1.9964185627e+00 3.4578983838e+00 
30300 4.0811645627e+00 -1.9854338680e-04 1.9964235581e+00 -3.4579070361e+00 1.9964235581e+00 3.4579070361e+00 
30400 4.0811645722e+00 -1.9759576634e-04 1.9964285306e+00 -3.4579156487e+00 1.9964285306e+00 3.4579156487e+00 
30500 4.0811645815e+00 -1.9661540111e-04 1.9964334793e+00 -3.4579242201e+00 1.9964334793e+00 3.4579242201e+00 
30600 4.0811645905e+00 -1.9560258498e-04 1.9964384035e+00 -3.4579327490e+00 1.9964384035e+00 3.4579327490e+00 
30700 4.0811645993e+00 -1.9455769558e-04 1.9964433023e+00 -3.4579412340e+00 1.9964433023e+00 3.4579412340e+00 
30800 4.0811646079e+00 -1.9348118929e-04 1.9964481749e+00 -3.4579496736e+00 1.9964481749e+00 3.4579496736e+00 
30900 4.0811646162e+00 -1.9237359624e-04 1.9964530205e+00 -3.4579580665e+00 1.9964530205e+00 3.4579580665e+00 
31000 4.0811646243e+00 -1.9123551547e-04 1.9964578384e+00 -3.4579664113e+00 1.9964578384e+00 3.4579664113e+00 
31100 4.0811646322e+00 -1.9006761011e-04 1.9964626278e+00 -3.4579747068e+00 1.9964626278e+00 3.4579747068e+00 
31200 4.0811646399e+00 -1.8887060269e-04 1.9964673879e+00 -3.4579829515e+00 1.9964673879e+00 3.4579829515e+00 
31300 4.0811646474e+00 -1.8764527052e-04 1.9964721180e+00 -3.4579911443e+00 1.9964721180e+00 3.4579911443e+00 
31400 4.0811646547e+00 -1.8639244119e-04 1.9964768175e+00 -3.4579992840e+00 1.9964768175e+00 3.4579992840e+00 
31500 4.0811646618e+00 -1.8511298813e-04 1.9964814855e+00 -3.4580073692e+00 1.9964814855e+00 3.4580073692e+00 
31600 4.0811646688e+00 -1.8380782636e-04 1.9964861215e+00 -3.4580153990e+00 1.9964861215e+00 3.4580153990e+00 
31700 4.0811646755e+00 -1.8247790830e-04 1.9964907248e+00 -3.4580233721e+00 1.9964907248e+00 3.4580233721e+00 
31800 4.0811646821e+00 -1.8112421973e-04 1.9964952947e+00 -3.4580312875e+00 1.9964952947e+00 3.4580312875e+00 
31900 4.0811646886e+00 -1.7974777581e-04 1.9964998308e+00 -3.4580391442e+00 1.9964998308e+00 3.4580391442e+00 
32000 4.0811646949e+00 -1.7834961732e-04 1.9965043324e+00 -3.4580469412e+00 1.9965043324e+00 3.4580469412e+00 
32100 4.0811647010e+00 -1.7693080698e-04 1.9965087989e+00 -3.4580546775e+00 1.9965087989e+00 3.4580546775e+00 
32200 4.0811647070e+00 -1.7549242585e-04 1.9965132299e+00 -3.4580623522e+00 1.9965132299e+00 3.4580623522e+00 
32300 4.0811647129e+00 -1.7403557000e-04 1.9965176249e+00 -3.4580699645e+00 1.9965176249e+00 3.4580699645e+00 
32400 4.0811647186e+00 -1.7256134716e-04 1.9965219834e+00 -3.4580775136e+00 1.9965219834e+00 3.4580775136e+00 
32500 4.0811647242e+00 -1.7107087358e-04 1.9965263049e+00 -3.4580849988e+00 1.9965263049e+00 3.4580849988e+00 
32600 4.0811647297e+00 -1.6956527105e-04 1.9965305891e+00 -3.4580924192e+00 1.9965305891e+00 3.4580924192e+00 
32700 4.0811647351e+00 -1.6804566400e-04 1.9965348356e+00 -3.4580997744e+00 1.9965348356e+00 3.4580997744e+00 
32800 4.0811647403e+00 -1.6651317674e-04 1.9965390441e+00 -3.4581070636e+00 1.9965390441e+00 3.4581070636e+00 
32900 4.0811647455e+00 -1.6496893091e-04 1.9965432141e+00 -3.4581142863e+00 1.9965432141e+00 3.4581142863e+00 
33000 4.0811647505e+00 -1.6341404294e-04 1.9965473455e+00 -3.4581214421e+00 1.9965473455e+00 3.4581214421e+00 
33100 4.0811647554e+00 -1.6184962174e-04 1.9965514379e+00 -3.4581285304e+00 1.9965514379e+00 3.4581285304e+00 
33200 4.0811647602e+00 -1.6027676648e-04 1.9965554911e+00 -3.4581355508e+00 1.9965554911e+00 3.4581355508e+00 
33300 4.0811647649e+00 -1.5869656454e-04 1.9965595050e+00 -3.4581425029e+00 1.9965595050e+00 3.4581425029e+00 
33400 4.0811647696e+00 -1.5711008952e-04 1.9965634792e+00 -3.4581493865e+00 1.9965634792e+00 3.4581493865e+00 
33500 4.0811647741e+00 -1.5551839943e-04 1.9965674137e+00 -3.4581562013e+00 1.9965674137e+00 3.4581562013e+00 
33600 4.0811647785e+00 -1.5392253500e-04 1.9965713084e+00 -3.4581629470e+00 1.9965713084e+00 3.4581629470e+00 
33700 4.0811647829e+00 -1.5232351809e-04 1.9965751630e+00 -3.4581696235e+00 1.9965751630e+00 3.4581696235e+00 
33800 4.0811647871e+00 -1.5072235023e-04 1.9965789777e+00 -3.4581762306e+00 1.9965789777e+00 3.4581762306e+00 
33900 4.0811647913e+00 -1.4912001131e-04 1.9965827522e+00 -3.4581827683e+00 1.9965827522e+00 3.4581827683e+00 
34000 4.0811647954e+00 -1.4751745829e-04 1.9965864866e+00 -3.4581892364e+00 1.9965864866e+00 3.4581892364e+00 
34100 4.0811647994e+00 -1.4591562417e-04 1.9965901808e+00 -3.4581956351e+00 1.9965901808e+00 3.4581956351e+00 
34200 4.0811648033e+00 -1.4431541691e-04 1.9965938349e+00 -3.4582019642e+00 1.9965938349e+00 3.4582019642e+00 
34300 4.0811648072e+00 -1.4271771856e-04 1.9965974490e+00 -3.4582082239e+00 1.9965974490e+00 3.4582082239e+00 
34400 4.0811648110e+00 -1.4112338447e-04 1.9966010230e+00 -3.4582144143e+00 1.9966010230e+00 3.4582144143e+00 
34500 4.0811648147e+00 -1.3953324258e-04 1.9966045571e+00 -3.4582205355e+00 1.9966045571e+00 3.4582205355e+00 
34600 4.0811648183e+00 -1.3794809281e-04 1.9966080514e+00 -3.4582265877e+00 1.9966080514e+00 3.4582265877e+00 
34700 4.0811648219e+00 -1.3636870657e-04 1.9966115059e+00 -3.4582325712e+00 1.9966115059e+00 3.4582325712e+00 
34800 4.0811648254e+00 -1.3479582632e-04 1.9966149209e+00 -3.4582384862e+00 1.9966149209e+00 3.4582384862e+00 
34900 4.0811648288e+00 -1.3323016524e-04 1.9966182965e+00 -3.4582443329e+00 1.9966182965e+00 3.4582443329e+00 
35000 4.0811648321e+00 -1.3167240696e-04 1.9966216329e+00 -3.4582501117e+00 1.9966216329e+00 3.4582501117e+00 
35100 4.0811648354e+00 -1.3012320543e-04 1.9966249303e+00 -3.4582558229e+00 1.9966249303e+00 3.4582558229e+00 
35200 4.0811648386e+00 -1.2858318475e-04 1.9966281889e+00 -3.4582614670e+00 1.9966281889e+00 3.4582614670e+00 
35300 4.0811648418e+00 -1.2705293921e-04 1.9966314089e+00 -3.4582670442e+00 1.9966314089e+00 3.4582670442e+00 
35400 4.0811648449e+00 -1.2553303330e-04 1.9966345906e+00 -3.4582725550e+00 1.9966345906e+00 3.4582725550e+00 
35500 4.0811648479e+00 -1.2402400179e-04 1.9966377342e+00 -3.4582779999e+00 1.9966377342e+00 3.4582779999e+00 
35600 4.0811648509e+00 -1.2252634992e-04 1.9966408400e+00 -3.4582833794e+00 1.9966408400e+00 3.4582833794e+00 
35700 4.0811648538e+00 -1.2104055364e-04 1.9966439083e+00 -3.4582886938e+00 1.9966439083e+00 3.4582886938e+00 
35800 4.0811648567e+00 -1.1956705985e-04 1.9966469394e+00 -3.4582939439e+00 1.9966469394e+00 3.4582939439e+00 
35900 4.0811648594e+00 -1.1810628676e-04 1.9966499336e+00 -3.4582991300e+00 1.9966499336e+00 3.4582991300e+00 
36000 4.0811648622e+00 -1.1665862424e-04 1.9966528912e+00 -3.4583042527e+00 1.9966528912e+00 3.4583042527e+00 
36100 4.0811648649e+00 -1.1522443426e-04 1.9966558126e+00 -3.4583093126e+00 1.9966558126e+00 3.4583093126e+00 
36200 4.0811648675e+00 -1.1380405133e-04 1.9966586980e+00 -3.4583143104e+00 1.9966586980e+00 3.4583143104e+00 
36300 4.0811648701e+00 -1.1239778303e-04 1.9966615479e+00 -3.4583192465e+00 1.9966615479e+00 3.4583192465e+00 
36400 4.0811648726e+00 -1.1100591053e-04 1.9966643625e+00 -3.4583241216e+00 1.9966643625e+00 3.4583241216e+00 
36500 4.0811648751e+00 -1.0962868915e-04 1.9966671423e+00 -3.4583289363e+00 1.9966671423e+00 3.4583289363e+00 
36600 4.0811648775e+00 -1.0826634898e-04 1.9966698876e+00 -3.4583336913e+00 1.9966698876e+00 3.4583336913e+00 
36700 4.0811648798e+00 -1.0691909548e-04 1.9966725988e+00 -3.4583383872e+00 1.9966725988e+00 3.4583383872e+00 
36800 4.0811648822e+00 -1.0558711014e-04 1.9966752762e+00 -3.4583430246e+00 1.9966752762e+00 3.4583430246e+00 
36900 4.0811648844e+00 -1.0427055114e-04 1.9966779203e+00 -3.4583476043e+00 1.9966779203e+00 3.4583476043e+00 
37000 4.0811648867e+00 -1.0296955406e-04 1.9966805314e+00 -3.4583521269e+00 1.9966805314e+00 3.4583521269e+00 
37100 4.0811648888e+00 -1.0168423257e-04 1.9966831099e+00 -3.4583565930e+00 1.9966831099e+00 3.4583565930e+00 
37200 4.0811648910e+00 -1.0041467913e-04 1.9966856562e+00 -3.4583610034e+00 1.9966856562e+00 3.4583610034e+00 
37300 4.0811648931e+00 -9.9160965760e-05 1.9966881708e+00 -3.4583653587e+00 1.9966881708e+00 3.4583653587e+00 
37400 4.0811648951e+00 -9.7923144730e-05 1.9966906539e+00 -3.4583696596e+00 1.9966906539e+00 3.4583696596e+00 
37500 4.0811648971e+00 -9.6701249350e-05 1.9966931061e+00 -3.4583739068e+00 1.9966931061e+00 3.4583739068e+00 
37600 4.0811648991e+00 -9.5495294698e-05 1.9966955276e+00 -3.4583781010e+00 1.9966955276e+00 3.4583781010e+00 
37700 4.0811649010e+00 -9.4305278379e-05 1.9966979189e+00 -3.4583822429e+00 1.9966979189e+00 3.4583822429e+00 
37800 4.0811649029e+00 -9.3131181266e-05 1.9967002805e+00 -3.4583863332e+00 1.9967002805e+00 3.4583863332e+00 
37900 4.0811649047e+00 -9.1972968292e-05 1.9967026126e+00 -3.4583903726e+00 1.9967026126e+00 3.4583903726e+00 
38000 4.0811649066e+00 -9.0830589159e-05 1.9967049157e+00 -3.4583943617e+00 1.9967049157e+00 3.4583943617e+00 
38100 4.0811649083e+00 -8.9703979117e-05 1.9967071902e+00 -3.4583983013e+00 1.9967071902e+00 3.4583983013e+00 
38200 4.0811649101e+00 -8.8593059693e-05 1.9967094365e+00 -3.4584021920e+00 1.9967094365e+00 3.4584021920e+00 
38300 4.0811649118e+00 -8.7497739438e-05 1.9967116550e+00 -3.4584060345e+00 1.9967116550e+00 3.4584060345e+00 
38400 4.0811649134e+00 -8.6417914649e-05 1.9967138460e+00 -3.4584098295e+00 1.9967138460e+00 3.4584098295e+00 
38500 4.0811649151e+00 -8.5353470092e-05 1.9967160100e+00 -3.4584135777e+00 1.9967160100e+00 3.4584135777e+00 
38600 4.0811649167e+00 -8.4304279708e-05 1.9967181474e+00 -3.4584172797e+00 1.9967181474e+00 3.4584172797e+00 
38700 4.0811649182e+00 -8.3270207317e-05 1.9967202585e+00 -3.4584209362e+00 1.9967202585e+00 3.4584209362e+00 
38800 4.0811649198e+00 -8.2251107306e-05 1.9967223436e+00 -3.4584245478e+00 1.9967223436e+00 3.4584245478e+00 
38900 4.0811649213e+00 -8.1246825290e-05 1.9967244033e+00 -3.4584281152e+00 1.9967244033e+00 3.4584281152e+00 
39000 4.0811649228e+00 -8.0257198783e-05 1.9967264378e+00 -3.4584316391e+00 1.9967264378e+00 3.4584316391e+00 
39100 4.0811649242e+00 -7.9282057831e-05 1.9967284475e+00 -3.4584351200e+00 1.9967284475e+00 3.4584351200e+00 
39200 4.0811649256e+00 -7.8321225649e-05 1.9967304328e+00 -3.4584385586e+00 1.9967304328e+00 3.4584385586e+00 
39300 4.0811649270e+00 -7.7374519225e-05 1.9967323940e+00 -3.4584419556e+00 1.9967323940e+00 3.4584419556e+00 
39400 4.0811649284e+00 -7.6441749922e-05 1.9967343316e+00 -3.4584453115e+00 1.9967343316e+00 3.4584453115e+00 
39500 4.0811649297e+00 -7.5522724053e-05 1.9967362457e+00 -3.4584486269e+00 1.9967362457e+00 3.4584486269e+00 
39600 4.0811649311e+00 -7.4617243434e-05 1.9967381369e+00 -3.4584519025e+00 1.9967381369e+00 3.4584519025e+00 
39700 4.0811649323e+00 -7.3725105936e-05 1.9967400054e+00 -3.4584551388e+00 1.9967400054e+00 3.4584551388e+00 
39800 4.0811649336e+00 -7.2846106004e-05 1.9967418515e+00 -3.4584583364e+00 1.9967418515e+00 3.4584583364e+00 
39900 4.0811649348e+00 -7.1980035162e-05 1.9967436756e+00 -3.4584614959e+00 1.9967436756e+00 3.4584614959e+00 
40000 4.0811649361e+00 -7.1126682498e-05 1.9967454781e+00 -3.4584646178e+00 1.9967454781e+00 3.4584646178e+00 
40100 4.0811649372e+00 -7.0285835134e-05 1.9967472591e+00 -3.4584677027e+00 1.9967472591e+00 3.4584677027e+00 
40200 4.0811649385e+00 -7.0242178490e-05 1.9967472591e+00 -3.4584677027e+00 1.9967472591e+00 3.4584677027e+00 
40300 4.0811649398e+00 -7.0208145004e-05 1.9967472591e+00 -3.4584677027e+00 1.9967472591e+00 3.4584677027e+00 
40400 4.0811649410e+00 -7.0183518268e-05 1.9967472591e+00 -3.4584677027e+00 1.9967472591e+00 3.4584677027e+00 
40500 4.0811649423e+00 -7.0168064772e-05 1.9967472591e+00 -3.4584677027e+00 1.9967472591e+00 3.4584677027e+00 
40600 4.0811649435e+00 -7.0161536014e-05 1.9967472591e+00 -3.4584677027e+00 1.9967472591e+00 3.4584677027e+00 
40700 4.0811649446e+00 -7.0163670474e-05 1.9967472591e+00 -3.4584677027e+00 1.9967472591e+00 3.4584677027e+00 
40800 4.0811649458e+00 -7.0174195472e-05 1.9967472591e+00 -3.4584677027e+00 1.9967472591e+00 3.4584677027e+00 
40900 4.0811649469e+00 -7.0192828909e-05 1.9967472591e+00 -3.4584677027e+00 1.9967472591e+00 3.4584677027e+00 
41000 4.0811649480e+00 -7.0219280888e-05 1.9967472591e+00 -3.4584677027e+00 1.9967472591e+00 3.4584677027e+00 
41100 4.0811649491e+00 -7.0253255231e-05 1.9967472591e+00 -3.4584677027e+00 1.9967472591e+00 3.4584677027e+00 
41200 4.0811649502e+00 -7.0294450897e-05 1.9967472591e+00 -3.4584677027e+00 1.9967472591e+00 3.4584677027e+00 
41300 4.0811649512e+00 -7.0342563292e-05 1.9967472591e+00 -3.4584677027e+00 1.9967472591e+00 3.4584677027e+00 
41400 4.0811649522e+00 -7.0397285490e-05 1.9967472591e+00 -3.4584677027e+00 1.9967472591e+00 3.4584677027e+00 
41500 4.0811649533e+00 -7.0458309365e-05 1.9967472591e+00 -3.4584677027e+00 1.9967472591e+00 3.4584677027e+00 
41600 4.0811649542e+00 -7.0525326632e-05 1.9967472591e+00 -3.4584677027e+00 1.9967472591e+00 3.4584677027e+00 
41700 4.0811649552e+00 -7.0598029812e-05 1.9967472591e+00 -3.4584677027e+00 1.9967472591e+00 3.4584677027e+00 
41800 4.0811649562e+00 -7.0676113112e-05 1.9967472591e+00 -3.4584677027e+00 1.9967472591e+00 3.4584677027e+00 
41900 4.0811649571e+00 -7.0759273243e-05 1.9967472591e+00 -3.4584677027e+00 1.9967472591e+00 3.4584677027e+00 
42000 4.0811649579e+00 -7.0057009961e-05 1.9967490310e+00 -3.4584707717e+00 1.9967490310e+00 3.4584707717e+00 
42100 4.0811649588e+00 -7.0142581053e-05 1.9967490310e+00 -3.4584707717e+00 1.9967490310e+00 3.4584707717e+00 
42200 4.0811649597e+00 -7.0232396362e-05 1.9967490310e+00 -3.4584707717e+00 1.9967490310e+00 3.4584707717e+00 
42300 4.0811649606e+00 -7.0326185669e-05 1.9967490310e+00 -3.4584707717e+00 1.9967490310e+00 3.4584707717e+00 
42400 4.0811649614e+00 -7.0423682733e-05 1.9967490310e+00 -3.4584707717e+00 1.9967490310e+00 3.4584707717e+00 
42500 4.0811649622e+00 -7.0524625820e-05 1.9967490310e+00 -3.4584707717e+00 1.9967490310e+00 3.4584707717e+00 
42600 4.0811649631e+00 -7.0628758180e-05 1.9967490310e+00 -3.4584707717e+00 1.9967490310e+00 3.4584707717e+00 
42700 4.0811649639e+00 -7.0735828479e-05 1.9967490310e+00 -3.4584707717e+00 1.9967490310e+00 3.4584707717e+00 
42800 4.0811649645e+00 -7.0055652514e-05 1.9967508023e+00 -3.4584738396e+00 1.9967508023e+00 3.4584738396e+00 
42900 4.0811649653e+00 -7.0161024274e-05 1.9967508023e+00 -3.4584738396e+00 1.9967508023e+00 3.4584738396e+00 
43000 4.0811649661e+00 -7.0268671167e-05 1.9967508023e+00 -3.4584738396e+00 1.9967508023e+00 3.4584738396e+00 
43100 4.0811649668e+00 -7.0378383178e-05 1.9967508023e+00 -3.4584738396e+00 1.9967508023e+00 3.4584738396e+00 
43200 4.0811649676e+00 -7.0489955582e-05 1.9967508023e+00 -3.4584738396e+00 1.9967508023e+00 3.4584738396e+00 
43300 4.0811649683e+00 -7.0603189207e-05 1.9967508023e+00 -3.4584738396e+00 1.9967508023e+00 3.4584738396e+00 
43400 4.0811649690e+00 -7.0717890668e-05 1.9967508023e+00 -3.4584738396e+00 1.9967508023e+00 3.4584738396e+00 
43500 4.0811649696e+00 -7.0044135243e-05 1.9967525731e+00 -3.4584769068e+00 1.9967525731e+00 3.4584769068e+00 
43600 4.0811649703e+00 -7.0154374299e-05 1.9967525731e+00 -3.4584769068e+00 1.9967525731e+00 3.4584769068e+00 
43700 4.0811649710e+00 -7.0265592689e-05 1.9967525731e+00 -3.4584769068e+00 1.9967525731e+00 3.4584769068e+00 
43800 4.0811649716e+00 -7.0377638148e-05 1.9967525731e+00 -3.4584769068e+00 1.9967525731e+00 3.4584769068e+00 
43900 4.0811649723e+00 -7.0490363287e-05 1.9967525731e+00 -3.4584769068e+00 1.9967525731e+00 3.4584769068e+00 
44000 4.0811649729e+00 -7.0603625741e-05 1.9967525731e+00 -3.4584769068e+00 1.9967525731e+00 3.4584769068e+00 
44100 4.0811649735e+00 -7.0717288279e-05 1.9967525731e+00 -3.4584769068e+00 1.9967525731e+00 3.4584769068e+00 
44200 4.0811649740e+00 -7.0041489934e-05 1.9967543439e+00 -3.4584799739e+00 1.9967543439e+00 3.4584799739e+00 
44300 4.0811649746e+00 -7.0148720114e-05 1.9967543439e+00 -3.4584799739e+00 1.9967543439e+00 3.4584799739e+00 
44400 4.0811649752e+00 -7.0256025473e-05 1.9967543439e+00 -3.4584799739e+00 1.9967543439e+00 3.4584799739e+00 
44500 4.0811649758e+00 -7.0363306382e-05 1.9967543439e+00 -3.4584799739e+00 1.9967543439e+00 3.4584799739e+00 
44600 4.0811649764e+00 -7.0470467016e-05 1.9967543439e+00 -3.4584799739e+00 1.9967543439e+00 3.4584799739e+00 
44700 4.0811649769e+00 -7.0577415437e-05 1.9967543439e+00 -3.4584799739e+00 1.9967543439e+00 3.4584799739e+00 
44800 4.0811649775e+00 -7.0684063662e-05 1.9967543439e+00 -3.4584799739e+00 1.9967543439e+00 3.4584799739e+00 
44900 4.0811649780e+00 -7.0790327707e-05 1.9967543439e+00 -3.4584799739e+00 1.9967543439e+00 3.4584799739e+00 
45000 4.0811649784e+00 -7.0105584940e-05 1.9967561165e+00 -3.4584830442e+00 1.9967561165e+00 3.4584830442e+00 
45100 4.0811649790e+00 -7.0203995975e-05 1.9967561165e+00 -3.4584830442e+00 1.9967561165e+00 3.4584830442e+00 
45200 4.0811649795e+00 -7.0301850252e-05 1.9967561165e+00 -3.4584830442e+00 1.9967561165e+00 3.4584830442e+00 
45300 4.0811649800e+00 -7.0399096277e-05 1.9967561165e+00 -3.4584830442e+00 1.9967561165e+00 3.4584830442e+00 
45400 4.0811649805e+00 -7.0495684969e-05 1.9967561165e+00 -3.4584830442e+00 1.9967561165e+00 3.4584830442e+00 
45500 4.0811649810e+00 -7.0591569709e-05 1.9967561165e+00 -3.4584830442e+00 1.9967561165e+00 3.4584830442e+00 
45600 4.0811649814e+00 -7.0686706390e-05 1.9967561165e+00 -3.4584830442e+00 1.9967561165e+00 3.4584830442e+00 
45700 4.0811649819e+00 -7.0781053439e-05 1.9967561165e+00 -3.4584830442e+00 1.9967561165e+00 3.4584830442e+00 
45800 4.0811649823e+00 -7.0084134963e-05 1.9967578889e+00 -3.4584861141e+00 1.9967578889e+00 3.4584861141e+00 
45900 4.0811649827e+00 -7.0169940356e-05 1.9967578889e+00 -3.4584861141e+00 1.9967578889e+00 3.4584861141e+00 
46000 4.0811649832e+00 -7.0254901844e-05 1.9967578889e+00 -3.4584861141e+00 1.9967578889e+00 3.4584861141e+00 
46100 4.0811649836e+00 -7.0339004385e-05 1.9967578889e+00 -3.4584861141e+00 1.9967578889e+00 3.4584861141e+00 
46200 4.0811649840e+00 -7.0422233856e-05 1.9967578889e+00 -3.4584861141e+00 1.9967578889e+00 3.4584861141e+00 
46300 4.0811649844e+00 -7.0504577115e-05 1.9967578889e+00 -3.4584861141e+00 1.9967578889e+00 3.4584861141e+00 
46400 4.0811649849e+00 -7.0586022050e-05 1.9967578889e+00 -3.4584861141e+00 1.9967578889e+00 3.4584861141e+00 
46500 4.0811649853e+00 -7.0666557621e-05 1.9967578889e+00 -3.4584861141e+00 1.9967578889e+00 3.4584861141e+00 
46600 4.0811649857e+00 -7.0746173888e-05 1.9967578889e+00 -3.4584861141e+00 1.9967578889e+00 3.4584861141e+00 
46700 4.0811649859e+00 -7.0034817004e-05 1.9967596605e+00 -3.4584891824e+00 1.9967596605e+00 3.4584891824e+00 
46800 4.0811649863e+00 -7.0105724888e-05 1.9967596605e+00 -3.4584891824e+00 1.9967596605e+00 3.4584891824e+00 
46900 4.0811649867e+00 -7.0175745540e-05 1.9967596605e+00 -3.4584891824e+00 1.9967596605e+00 3.4584891824e+00 
47000 4.0811649871e+00 -7.0244889906e-05 1.9967596605e+00 -3.4584891824e+00 1.9967596605e+00 3.4584891824e+00 
47100 4.0811649874e+00 -7.0313168482e-05 1.9967596605e+00 -3.4584891824e+00 1.9967596605e+00 3.4584891824e+00 
47200 4.0811649878e+00 -7.0380591397e-05 1.9967596605e+00 -3.4584891824e+00 1.9967596605e+00 3.4584891824e+00 
47300 4.0811649882e+00 -7.0447168482e-05 1.9967596605e+00 -3.4584891824e+00 1.9967596605e+00 3.4584891824e+00 
47400 4.0811649885e+00 -7.0512909339e-05 1.9967596605e+00 -3.4584891824e+00 1.9967596605e+00 3.4584891824e+00 
47500 4.0811649889e+00 -7.0577823392e-05 1.9967596605e+00 -3.4584891824e+00 1.9967596605e+00 3.4584891824e+00 
47600 4.0811649892e+00 -7.0641919942e-05 1.9967596605e+00 -3.4584891824e+00 1.9967596605e+00 3.4584891824e+00 
47700 4.0811649895e+00 -7.0705208208e-05 1.9967596605e+00 -3.4584891824e+00 1.9967596605e+00 3.4584891824e+00 
47800 4.0811649898e+00 -7.0767697365e-05 1.9967596605e+00 -3.4584891824e+00 1.9967596605e+00 3.4584891824e+00 
47900 4.0811649900e+00 -7.0039113487e-05 1.9967614325e+00 -3.4584922517e+00 1.9967614325e+00 3.4584922517e+00 
48000 4.0811649904e+00 -7.0093185429e-05 1.9967614325e+00 -3.4584922517e+00 1.9967614325e+00 3.4584922517e+00 
48100 4.0811649907e+00 -7.0146540919e-05 1.9967614325e+00 -3.4584922517e+00 1.9967614325e+00 3.4584922517e+00 
48200 4.0811649910e+00 -7.0199205563e-05 1.9967614325e+00 -3.4584922517e+00 1.9967614325e+00 3.4584922517e+00 
48300 4.0811649913e+00 -7.0251203447e-05 1.9967614325e+00 -3.4584922517e+00 1.9967614325e+00 3.4584922517e+00 
48400 4.0811649916e+00 -7.0302557236e-05 1.9967614325e+00 -3.4584922517e+00 1.9967614325e+00 3.4584922517e+00 
48500 4.0811649919e+00 -7.0353288270e-05 1.9967614325e+00 -3.4584922517e+00 1.9967614325e+00 3.4584922517e+00 
48600 4.0811649921e+00 -7.0403416656e-05 1.9967614325e+00 -3.4584922517e+00 1.9967614325e+00 3.4584922517e+00 
48700 4.0811649924e+00 -7.0452961346e-05 1.9967614325e+00 -3.4584922517e+00 1.9967614325e+00 3.4584922517e+00 
48800 4.0811649927e+00 -7.0501940221e-05 1.9967614325e+00 -3.4584922517e+00 1.9967614325e+00 3.4584922517e+00 
48900 4.0811649930e+00 -7.0550370157e-05 1.9967614325e+00 -3.4584922517e+00 1.9967614325e+00 3.4584922517e+00 
49000 4.0811649932e+00 -7.0598267091e-05 1.9967614325e+00 -3.4584922517e+00 1.9967614325e+00 3.4584922517e+00 
49100 4.0811649935e+00 -7.0645646088e-05 1.9967614325e+00 -3.4584922517e+00 1.9967614325e+00 3.4584922517e+00 
49200 4.0811649937e+00 -7.0692521394e-05 1.9967614325e+00 -3.4584922517e+00 1.9967614325e+00 3.4584922517e+00 
49300 4.0811649940e+00 -7.0738906492e-05 1.9967614325e+00 -3.4584922517e+00 1.9967614325e+00 3.4584922517e+00 
49400 4.0811649941e+00 -6.9994854739e-05 1.9967632039e+00 -3.4584953198e+00 1.9967632039e+00 3.4584953198e+00 
49500 4.0811649944e+00 -7.0033453380e-05 1.9967632039e+00 -3.4584953198e+00 1.9967632039e+00 3.4584953198e+00 
49600 4.0811649946e+00 -7.0071653212e-05 1.9967632039e+00 -3.4584953198e+00 1.9967632039e+00 3.4584953198e+00 
49700 4.0811649948e+00 -7.0109481445e-05 1.9967632039e+00 -3.4584953198e+00 1.9967632039e+00 3.4584953198e+00 
49800 4.0811649951e+00 -7.0146963151e-05 1.9967632039e+00 -3.4584953198e+00 1.9967632039e+00 3.4584953198e+00 
49900 4.0811649953e+00 -7.0184121385e-05 1.9967632039e+00 -3.4584953198e+00 1.9967632039e+00 3.4584953198e+00 
50000 4.0811649955e+00 -7.0220977300e-05 1.9967632039e+00 -3.4584953198e+00 1.9967632039e+00 3.4584953198e+00 
50100 4.0811649957e+00 -7.0257550272e-05 1.9967632039e+00 -3.4584953198e+00 1.9967632039e+00 3.4584953198e+00 
50200 4.0811649959e+00 -7.0293857994e-05 1.9967632039e+00 -3.4584953198e+00 1.9967632039e+00 3.4584953198e+00 
50300 4.0811649962e+00 -7.0329916592e-05 1.9967632039e+00 -3.4584953198e+00 1.9967632039e+00 3.4584953198e+00 
50400 4.0811649964e+00 -7.0365740711e-05 1.9967632039e+00 -3.4584953198e+00 1.9967632039e+00 3.4584953198e+00 
50500 4.0811649966e+00 -7.0401343613e-05 1.9967632039e+00 -3.4584953198e+00 1.9967632039e+00 3.4584953198e+00 
50600 4.0811649968e+00 -7.0436737264e-05 1.9967632039e+00 -3.4584953198e+00 1.9967632039e+00 3.4584953198e+00 
50700 4.0811649970e+00 -7.0471932416e-05 1.9967632039e+00 -3.4584953198e+00 1.9967632039e+00 3.4584953198e+00 
50800 4.0811649972e+00 -7.0506938685e-05 1.9967632039e+00 -3.4584953198e+00 1.9967632039e+00 3.4584953198e+00 
50900 4.0811649974e+00 -7.0541764623e-05 1.9967632039e+00 -3.4584953198e+00 1.9967632039e+00 3.4584953198e+00 
51000 4.0811649976e+00 -7.0576417797e-05 1.9967632039e+00 -3.4584953198e+00 1.9967632039e+00 3.4584953198e+00 
51100 4.0811649977e+00 -7.0610904846e-05 1.9967632039e+00 -3.4584953198e+00 1.9967632039e+00 3.4584953198e+00 
51200 4.0811649979e+00 -7.0645231545e-05 1.9967632039e+00 -3.4584953198e+00 1.9967632039e+00 3.4584953198e+00 
51300 4.0811649981e+00 -7.0679402875e-05 1.9967632039e+00 -3.4584953198e+00 1.9967632039e+00 3.4584953198e+00 
51400 4.0811649983e+00 -7.0713423065e-05 1.9967632039e+00 -3.4584953198e+00 1.9967632039e+00 3.4584953198e+00 
51500 4.0811649983e+00 -6.9957622732e-05 1.9967649746e+00 -3.4584983867e+00 1.9967649746e+00 3.4584983867e+00 
51600 4.0811649985e+00 -6.9984509500e-05 1.9967649746e+00 -3.4584983867e+00 1.9967649746e+00 3.4584983867e+00 
51700 4.0811649987e+00 -7.0011308913e-05 1.9967649746e+00 -3.4584983867e+00 1.9967649746e+00 3.4584983867e+00 
51800 4.0811649988e+00 -7.0038039063e-05 1.9967649746e+00 -3.4584983867e+00 1.9967649746e+00 3.4584983867e+00 
51900 4.0811649990e+00 -7.0064715945e-05 1.9967649746e+00 -3.4584983867e+00 1.9967649746e+00 3.4584983867e+00 
52000 4.0811649992e+00 -7.0091353593e-05 1.9967649746e+00 -3.4584983867e+00 1.9967649746e+00 3.4584983867e+00 
52100 4.0811649993e+00 -7.0117964210e-05 1.9967649746e+00 -3.4584983867e+00 1.9967649746e+00 3.4584983867e+00 
52200 4.0811649995e+00 -7.0144558283e-05 1.9967649746e+00 -3.4584983867e+00 1.9967649746e+00 3.4584983867e+00 
52300 4.0811649996e+00 -7.0171144706e-05 1.9967649746e+00 -3.4584983867e+00 1.9967649746e+00 3.4584983867e+00 
52400 4.0811649998e+00 -7.0197730884e-05 1.9967649746e+00 -3.4584983867e+00 1.9967649746e+00 3.4584983867e+00 
52500 4.0811649999e+00 -7.0224322840e-05 1.9967649746e+00 -3.4584983867e+00 1.9967649746e+00 3.4584983867e+00 
52600 4.0811650001e+00 -7.0250925316e-05 1.9967649746e+00 -3.4584983867e+00 1.9967649746e+00 3.4584983867e+00 
52700 4.0811650002e+00 -7.0277541869e-05 1.9967649746e+00 -3.4584983867e+00 1.9967649746e+00 3.4584983867e+00 
52800 4.0811650003e+00 -7.0304174955e-05 1.9967649746e+00 -3.4584983867e+00 1.9967649746e+00 3.4584983867e+00 
52900 4.0811650005e+00 -7.0330826026e-05 1.9967649746e+00 -3.4584983867e+00 1.9967649746e+00 3.4584983867e+00 
53000 4.0811650006e+00 -7.0357495600e-05 1.9967649746e+00 -3.4584983867e+00 1.9967649746e+00 3.4584983867e+00 
53100 4.0811650008e+00 -7.0384183344e-05 1.9967649746e+00 -3.4584983867e+00 1.9967649746e+00 3.4584983867e+00 
53200 4.0811650009e+00 -7.0410888148e-05 1.9967649746e+00 -3.4584983867e+00 1.9967649746e+00 3.4584983867e+00 
53300 4.0811650010e+00 -7.0437608193e-05 1.9967649746e+00 -3.4584983867e+00 1.9967649746e+00 3.4584983867e+00 
53400 4.0811650011e+00 -7.0464341014e-05 1.9967649746e+00 -3.4584983867e+00 1.9967649746e+00 3.4584983867e+00 
53500 4.0811650013e+00 -7.0491083566e-05 1.9967649746e+00 -3.4584983867e+00 1.9967649746e+00 3.4584983867e+00 
53600 4.0811650014e+00 -7.0517832278e-05 1.9967649746e+00 -3.4584983867e+00 1.9967649746e+00 3.4584983867e+00 
53700 4.0811650015e+00 -7.0544583115e-05 1.9967649746e+00 -3.4584983867e+00 1.9967649746e+00 3.4584983867e+00 
53800 4.0811650016e+00 -7.0571331624e-05 1.9967649746e+00 -3.4584983867e+00 1.9967649746e+00 3.4584983867e+00 
53900 4.0811650018e+00 -7.0598072984e-05 1.9967649746e+00 -3.4584983867e+00 1.9967649746e+00 3.4584983867e+00 
54000 4.0811650019e+00 -7.0624802055e-05 1.9967649746e+00 -3.4584983867e+00 1.9967649746e+00 3.4584983867e+00 
54100 4.0811650020e+00 -7.0651513416e-05 1.9967649746e+00 -3.4584983867e+00 1.9967649746e+00 3.4584983867e+00 
54200 4.0811650021e+00 -7.0678201413e-05 1.9967649746e+00 -3.4584983867e+00 1.9967649746e+00 3.4584983867e+00 
54300 4.0811650022e+00 -7.0704860191e-05 1.9967649746e+00 -3.4584983867e+00 1.9967649746e+00 3.4584983867e+00 
54400 4.0811650023e+00 -7.0731483731e-05 1.9967649746e+00 -3.4584983867e+00 1.9967649746e+00 3.4584983867e+00 
54500 4.0811650023e+00 -6.9968193038e-05 1.9967667457e+00 -3.4585014545e+00 1.9967667457e+00 3.4585014545e+00 
54600 4.0811650024e+00 -6.9987884792e-05 1.9967667457e+00 -3.4585014545e+00 1.9967667457e+00 3.4585014545e+00 
54700 4.0811650025e+00 -7.0007577639e-05 1.9967667457e+00 -3.4585014545e+00 1.9967667457e+00 3.4585014545e+00 
54800 4.0811650026e+00 -7.0027281554e-05 1.9967667457e+00 -3.4585014545e+00 1.9967667457e+00 3.4585014545e+00 
54900 4.0811650027e+00 -7.0047004910e-05 1.9967667457e+00 -3.4585014545e+00 1.9967667457e+00 3.4585014545e+00 
55000 4.0811650028e+00 -7.0066754590e-05 1.9967667457e+00 -3.4585014545e+00 1.9967667457e+00 3.4585014545e+00 
55100 4.0811650029e+00 -7.0086536092e-05 1.9967667457e+00 -3.4585014545e+00 1.9967667457e+00 3.4585014545e+00 
55200 4.0811650030e+00 -7.0106353643e-05 1.9967667457e+00 -3.4585014545e+00 1.9967667457e+00 3.4585014545e+00 
55300 4.0811650031e+00 -7.0126210295e-05 1.9967667457e+00 -3.4585014545e+00 1.9967667457e+00 3.4585014545e+00 
55400 4.0811650032e+00 -7.0146108018e-05 1.9967667457e+00 -3.4585014545e+00 1.9967667457e+00 3.4585014545e+00 
55500 4.0811650033e+00 -7.0166047793e-05 1.9967667457e+00 -3.4585014545e+00 1.9967667457e+00 3.4585014545e+00 
55600 4.0811650034e+00 -7.0186029698e-05 1.9967667457e+00 -3.4585014545e+00 1.9967667457e+00 3.4585014545e+00 
55700 4.0811650035e+00 -7.0206052986e-05 1.9967667457e+00 -3.4585014545e+00 1.9967667457e+00 3.4585014545e+00 
55800 4.0811650035e+00 -7.0226116162e-05 1.9967667457e+00 -3.4585014545e+00 1.9967667457e+00 3.4585014545e+00 
55900 4.0811650036e+00 -7.0246217057e-05 1.9967667457e+00 -3.4585014545e+00 1.9967667457e+00 3.4585014545e+00 
56000 4.0811650037e+00 -7.0266352898e-05 1.9967667457e+00 -3.4585014545e+00 1.9967667457e+00 3.4585014545e+00 
56100 4.0811650038e+00 -7.0286520364e-05 1.9967667457e+00 -3.4585014545e+00 1.9967667457e+00 3.4585014545e+00 
56200 4.0811650039e+00 -7.0306715658e-05 1.9967667457e+00 -3.4585014545e+00 1.9967667457e+00 3.4585014545e+00 
56300 4.0811650040e+00 -7.0326934553e-05 1.9967667457e+00 -3.4585014545e+00 1.9967667457e+00 3.4585014545e+00 
56400 4.0811650040e+00 -7.0347172452e-05 1.9967667457e+00 -3.4585014545e+00 1.9967667457e+00 3.4585014545e+00 
56500 4.0811650041e+00 -7.0367424438e-05 1.9967667457e+00 -3.4585014545e+00 1.9967667457e+00 3.4585014545e+00 
56600 4.0811650042e+00 -7.0387685317e-05 1.9967667457e+00 -3.4585014545e+00 1.9967667457e+00 3.4585014545e+00 
56700 4.0811650043e+00 -7.0407949664e-05 1.9967667457e+00 -3.4585014545e+00 1.9967667457e+00 3.4585014545e+00 
56800 4.0811650043e+00 -7.0428211865e-05 1.9967667457e+00 -3.4585014545e+00 1.9967667457e+00 3.4585014545e+00 
56900 4.0811650044e+00 -7.0448466151e-05 1.9967667457e+00 -3.4585014545e+00 1.9967667457e+00 3.4585014545e+00 
57000 4.0811650045e+00 -7.0468706638e-05 1.9967667457e+00 -3.4585014545e+00 1.9967667457e+00 3.4585014545e+00 
57100 4.0811650045e+00 -7.0488927357e-05 1.9967667457e+00 -3.4585014545e+00 1.9967667457e+00 3.4585014545e+00 
57200 4.0811650046e+00 -7.0509122284e-05 1.9967667457e+00 -3.4585014545e+00 1.9967667457e+00 3.4585014545e+00 
57300 4.0811650047e+00 -7.0529285371e-05 1.9967667457e+00 -3.4585014545e+00 1.9967667457e+00 3.4585014545e+00 
57400 4.0811650048e+00 -7.0549410566e-05 1.9967667457e+00 -3.4585014545e+00 1.9967667457e+00 3.4585014545e+00 
57500 4.0811650048e+00 -7.0569491844e-05 1.9967667457e+00 -3.4585014545e+00 1.9967667457e+00 3.4585014545e+00 
57600 4.0811650049e+00 -7.0589523224e-05 1.9967667457e+00 -3.4585014545e+00 1.9967667457e+00 3.4585014545e+00 
57700 4.0811650049e+00 -7.0609498789e-05 1.9967667457e+00 -3.4585014545e+00 1.9967667457e+00 3.4585014545e+00 
57800 4.0811650050e+00 -7.0629412704e-05 1.9967667457e+00 -3.4585014545e+00 1.9967667457e+00 3.4585014545e+00 
57900 4.0811650051e+00 -7.0649259236e-05 1.9967667457e+00 -3.4585014545e+00 1.9967667457e+00 3.4585014545e+00 
58000 4.0811650051e+00 -7.0669032762e-05 1.9967667457e+00 -3.4585014545e+00 1.9967667457e+00 3.4585014545e+00 
58100 4.0811650052e+00 -7.0688727789e-05 1.9967667457e+00 -3.4585014545e+00 1.9967667457e+00 3.4585014545e+00 
58200 4.0811650053e+00 -7.0708338961e-05 1.9967667457e+00 -3.4585014545e+00 1.9967667457e+00 3.4585014545e+00 
58300 4.0811650053e+00 -7.0727861071e-05 1.9967667457e+00 -3.4585014545e+00 1.9967667457e+00 3.4585014545e+00 
58400 4.0811650052e+00 -6.9957458717e-05 1.9967685168e+00 -3.4585045220e+00 1.9967685168e+00 3.4585045220e+00 
58500 4.0811650053e+00 -6.9969945401e-05 1.9967685168e+00 -3.4585045220e+00 1.9967685168e+00 3.4585045220e+00 
58600 4.0811650054e+00 -6.9982383407e-05 1.9967685168e+00 -3.4585045220e+00 1.9967685168e+00 3.4585045220e+00 
58700 4.0811650054e+00 -6.9994784544e-05 1.9967685168e+00 -3.4585045220e+00 1.9967685168e+00 3.4585045220e+00 
58800 4.0811650055e+00 -7.0007159210e-05 1.9967685168e+00 -3.4585045220e+00 1.9967685168e+00 3.4585045220e+00 
58900 4.0811650055e+00 -7.0019516499e-05 1.9967685168e+00 -3.4585045220e+00 1.9967685168e+00 3.4585045220e+00 
59000 4.0811650056e+00 -7.0031864289e-05 1.9967685168e+00 -3.4585045220e+00 1.9967685168e+00 3.4585045220e+00 
59100 4.0811650056e+00 -7.0044209323e-05 1.9967685168e+00 -3.4585045220e+00 1.9967685168e+00 3.4585045220e+00 
59200 4.0811650057e+00 -7.0056557304e-05 1.9967685168e+00 -3.4585045220e+00 1.9967685168e+00 3.4585045220e+00 
59300 4.0811650057e+00 -7.0068912967e-05 1.9967685168e+00 -3.4585045220e+00 1.9967685168e+00 3.4585045220e+00 
59400 4.0811650058e+00 -7.0076826430e-05 1.9967685168e+00 -3.4585045220e+00 1.9967685168e+00 3.4585045220e+00 
59400 4.0811650058e+00 -7.0076826430e-05 1.9967685168e+00 -3.4585045220e+00 1.9967685168e+00 3.4585045220e+00 
